# vtk DataFile Version 2.0
Time step 89
ASCII
DATASET UNSTRUCTURED_GRID
POINTS 5000 float
217792.0 137494.0 0
222082.0 139130.0 0
225744.0 136524.0 0
231474.0 134248.0 0
230011.0 137313.0 0
235498.0 136224.0 0
242194.0 137674.0 0
248828.0 138653.0 0
273623.0 138274.0 0
279424.0 136100.0 0
191699.0 144061.0 0
198321.0 142011.0 0
203202.0 143274.0 0
207232.0 139430.0 0
212778.0 141183.0 0
218116.0 143043.0 0
223516.0 143347.0 0
227590.0 140914.0 0
232589.0 141082.0 0
237886.0 141104.0 0
242642.0 143330.0 0
252562.0 142719.0 0
255780.0 139729.0 0
260070.0 141942.0 0
263876.0 139749.0 0
268743.0 141135.0 0
273326.0 143536.0 0
276908.0 141510.0 0
281495.0 141954.0 0
286803.0 140273.0 0
288804.0 144003.0 0
292591.0 139677.0 0
295771.0 143710.0 0
300670.0 144002.0 0
195973.0 145821.0 0
200919.0 146193.0 0
208448.0 145063.0 0
204184.0 148406.0 0
213310.0 146252.0 0
217912.0 148977.0 0
224009.0 148634.0 0
227741.0 145315.0 0
232291.0 146296.0 0
237819.0 146636.0 0
243083.0 148666.0 0
247694.0 144839.0 0
252249.0 146913.0 0
256442.0 144627.0 0
264955.0 144700.0 0
260919.0 146310.0 0
264494.0 148971.0 0
269319.0 147218.0 0
274094.0 147631.0 0
278226.0 146193.0 0
285357.0 145125.0 0
282402.0 148118.0 0
289390.0 147959.0 0
292040.0 144515.0 0
294382.0 148100.0 0
299398.0 149551.0 0
306073.0 144711.0 0
188612.0 150099.0 0
193537.0 149564.0 0
198812.0 149496.0 0
206283.0 154230.0 0
210901.0 150495.0 0
214819.0 154082.0 0
221278.0 151695.0 0
228875.0 149438.0 0
225842.0 153609.0 0
234301.0 150465.0 0
231011.0 152611.0 0
238971.0 152443.0 0
244257.0 153757.0 0
248148.0 149922.0 0
252831.0 151671.0 0
257243.0 149435.0 0
257088.0 153831.0 0
261316.0 152527.0 0
267917.0 153325.0 0
272623.0 151077.0 0
275380.0 152790.0 0
279020.0 151351.0 0
285622.0 152060.0 0
291874.0 152888.0 0
296605.0 153496.0 0
304992.0 149966.0 0
301784.0 154403.0 0
312058.0 153822.0 0
188064.0 156023.0 0
193584.0 154745.0 0
199553.0 155510.0 0
210908.0 158195.0 0
220534.0 155885.0 0
225117.0 158113.0 0
234450.0 154773.0 0
229942.0 157054.0 0
239495.0 157098.0 0
242704.0 157409.0 0
249107.0 154823.0 0
245992.0 157970.0 0
249904.0 159286.0 0
253665.0 156304.0 0
258128.0 157957.0 0
263432.0 157634.0 0
272947.0 154977.0 0
277129.0 155968.0 0
281596.0 155393.0 0
288101.0 158177.0 0
293792.0 157854.0 0
297953.0 157178.0 0
303257.0 158767.0 0
306597.0 154724.0 0
306883.0 158582.0 0
185566.0 160291.0 0
189788.0 162331.0 0
195074.0 160142.0 0
200574.0 161397.0 0
205943.0 160450.0 0
210212.0 163085.0 0
216147.0 159695.0 0
214209.0 163944.0 0
218841.0 164546.0 0
221894.0 160768.0 0
225421.0 161819.0 0
229656.0 162566.0 0
235337.0 160103.0 0
241262.0 161296.0 0
246656.0 161746.0 0
254304.0 161132.0 0
250284.0 163389.0 0
259591.0 163343.0 0
265566.0 162857.0 0
271636.0 160438.0 0
277794.0 160663.0 0
276021.0 164223.0 0
282463.0 159786.0 0
282143.0 164651.0 0
285329.0 162273.0 0
289950.0 162786.0 0
292211.0 161062.0 0
295460.0 161801.0 0
292794.0 164704.0 0
299736.0 161338.0 0
305535.0 162631.0 0
311802.0 160971.0 0
182057.0 166961.0 0
186296.0 165649.0 0
190916.0 168206.0 0
196925.0 165900.0 0
204041.0 166393.0 0
209951.0 168030.0 0
215041.0 168170.0 0
223930.0 165537.0 0
228392.0 167740.0 0
234115.0 166346.0 0
239583.0 167535.0 0
244293.0 165711.0 0
242882.0 169584.0 0
248969.0 167578.0 0
254187.0 166393.0 0
258959.0 169118.0 0
263181.0 167033.0 0
268065.0 167757.0 0
272817.0 166116.0 0
278091.0 168429.0 0
283499.0 169453.0 0
287304.0 165963.0 0
292143.0 168965.0 0
297312.0 166028.0 0
301099.0 169350.0 0
301926.0 165134.0 0
305512.0 167679.0 0
309323.0 165972.0 0
313504.0 166290.0 0
316084.0 169471.0 0
317579.0 165058.0 0
181267.0 172571.0 0
185351.0 170054.0 0
188514.0 174457.0 0
193279.0 172903.0 0
197563.0 171448.0 0
203000.0 172907.0 0
208894.0 173280.0 0
214845.0 173342.0 0
220608.0 170615.0 0
226000.0 171645.0 0
231777.0 171324.0 0
236543.0 171172.0 0
241172.0 173675.0 0
246200.0 171580.0 0
252251.0 172149.0 0
263905.0 171850.0 0
269740.0 173288.0 0
273484.0 170112.0 0
275572.0 174354.0 0
280566.0 173101.0 0
287983.0 170902.0 0
291918.0 174086.0 0
296505.0 171319.0 0
301018.0 174642.0 0
306213.0 172638.0 0
311118.0 170280.0 0
314645.0 173638.0 0
318164.0 172639.0 0
181335.0 178828.0 0
183825.0 175998.0 0
184830.0 179729.0 0
193349.0 177816.0 0
188750.0 179436.0 0
197737.0 175891.0 0
200910.0 177149.0 0
202115.0 179614.0 0
205899.0 178059.0 0
211761.0 178129.0 0
217547.0 178183.0 0
222273.0 176157.0 0
228740.0 175094.0 0
225772.0 178433.0 0
234376.0 176097.0 0
239259.0 178897.0 0
243793.0 177969.0 0
248152.0 176298.0 0
252708.0 177940.0 0
258254.0 175595.0 0
264558.0 177253.0 0
269521.0 178555.0 0
274795.0 179604.0 0
279592.0 177756.0 0
285292.0 175170.0 0
289548.0 178956.0 0
295879.0 176654.0 0
305742.0 178069.0 0
310567.0 175677.0 0
314493.0 178578.0 0
318392.0 176404.0 0
320203.0 179589.0 0
181957.0 182939.0 0
187003.0 183826.0 0
192163.0 182785.0 0
198225.0 180719.0 0
203666.0 182473.0 0
200480.0 185337.0 0
208568.0 183095.0 0
214673.0 183360.0 0
221736.0 180502.0 0
225682.0 183013.0 0
230076.0 179926.0 0
234908.0 181456.0 0
238819.0 183115.0 0
243740.0 183011.0 0
249409.0 181242.0 0
254632.0 182490.0 0
260911.0 181800.0 0
266453.0 182200.0 0
271034.0 182829.0 0
279020.0 182941.0 0
284227.0 180685.0 0
289688.0 184843.0 0
294617.0 181330.0 0
300404.0 180473.0 0
298006.0 184671.0 0
306871.0 182705.0 0
312126.0 183814.0 0
317487.0 182113.0 0
179967.0 190146.0 0
182974.0 186957.0 0
186380.0 188490.0 0
190672.0 186727.0 0
195796.0 185628.0 0
199028.0 189851.0 0
204972.0 187271.0 0
210751.0 187972.0 0
215957.0 188673.0 0
220417.0 185364.0 0
225310.0 188361.0 0
231004.0 185565.0 0
236098.0 185174.0 0
235493.0 188943.0 0
239521.0 186910.0 0
244819.0 187603.0 0
242036.0 189663.0 0
248341.0 185636.0 0
252475.0 187291.0 0
258139.0 187567.0 0
264219.0 186083.0 0
269390.0 187776.0 0
274584.0 185563.0 0
274878.0 189438.0 0
278631.0 187994.0 0
283829.0 186191.0 0
287512.0 189752.0 0
294567.0 186028.0 0
292428.0 189895.0 0
298338.0 189783.0 0
303032.0 185670.0 0
308210.0 188582.0 0
312706.0 190299.0 0
317815.0 187947.0 0
323950.0 189635.0 0
184529.0 193022.0 0
189002.0 191414.0 0
193700.0 190392.0 0
197190.0 195425.0 0
203086.0 191073.0 0
207224.0 191497.0 0
203278.0 195529.0 0
211831.0 192774.0 0
216261.0 193061.0 0
220571.0 190858.0 0
225068.0 193946.0 0
230020.0 191365.0 0
234542.0 192926.0 0
238934.0 192507.0 0
243678.0 193223.0 0
248295.0 190688.0 0
253980.0 192698.0 0
260171.0 192984.0 0
264546.0 190455.0 0
264826.0 195238.0 0
268229.0 192538.0 0
272378.0 192277.0 0
277338.0 192790.0 0
282239.0 191056.0 0
285926.0 193963.0 0
289636.0 193044.0 0
297317.0 194449.0 0
303804.0 190485.0 0
308307.0 194565.0 0
320708.0 193428.0 0
177162.0 196132.0 0
182523.0 198139.0 0
187162.0 200155.0 0
190877.0 195920.0 0
200604.0 199985.0 0
208691.0 196977.0 0
214207.0 197176.0 0
219658.0 196278.0 0
224344.0 199450.0 0
231890.0 195776.0 0
228735.0 198011.0 0
236368.0 196706.0 0
238731.0 199610.0 0
240784.0 196604.0 0
249218.0 195582.0 0
244947.0 197215.0 0
253148.0 198732.0 0
257352.0 196531.0 0
261115.0 197486.0 0
269834.0 196801.0 0
265754.0 199659.0 0
273839.0 195612.0 0
277218.0 198188.0 0
281608.0 195663.0 0
285043.0 197790.0 0
288905.0 197222.0 0
293359.0 195051.0 0
292507.0 199832.0 0
297275.0 198872.0 0
301521.0 200307.0 0
301943.0 195337.0 0
305708.0 199584.0 0
310850.0 200487.0 0
315124.0 195582.0 0
320133.0 199574.0 0
179465.0 202573.0 0
184604.0 204990.0 0
191583.0 200958.0 0
189131.0 203928.0 0
196039.0 201122.0 0
193174.0 205538.0 0
198290.0 205397.0 0
205191.0 201320.0 0
209923.0 201881.0 0
214414.0 201841.0 0
219412.0 201796.0 0
223952.0 204501.0 0
228460.0 202314.0 0
232851.0 200160.0 0
232299.0 204817.0 0
236899.0 202985.0 0
242281.0 200841.0 0
248130.0 199952.0 0
245786.0 203971.0 0
250884.0 203169.0 0
257831.0 200249.0 0
255013.0 203160.0 0
259001.0 203921.0 0
261876.0 201171.0 0
264230.0 204345.0 0
268760.0 202750.0 0
272887.0 200726.0 0
272875.0 205471.0 0
277523.0 203423.0 0
281945.0 200228.0 0
282355.0 204653.0 0
286757.0 201774.0 0
291581.0 204549.0 0
296951.0 203813.0 0
301800.0 204435.0 0
307115.0 204570.0 0
312303.0 205633.0 0
315830.0 202206.0 0
179307.0 208032.0 0
186472.0 210110.0 0
189207.0 207153.0 0
196046.0 209141.0 0
202879.0 205637.0 0
199890.0 209656.0 0
207301.0 205676.0 0
204865.0 210484.0 0
211846.0 205797.0 0
209340.0 208883.0 0
213275.0 210162.0 0
216820.0 206306.0 0
221285.0 208037.0 0
228047.0 206410.0 0
224856.0 208274.0 0
231321.0 209180.0 0
236296.0 207904.0 0
241030.0 205453.0 0
240925.0 209254.0 0
249083.0 206683.0 0
244938.0 208620.0 0
252866.0 206353.0 0
256434.0 206550.0 0
260872.0 208181.0 0
267725.0 207711.0 0
272325.0 209809.0 0
277269.0 208574.0 0
286792.0 206911.0 0
282564.0 209142.0 0
291287.0 210095.0 0
295238.0 207444.0 0
298968.0 207760.0 0
304205.0 208562.0 0
309178.0 210016.0 0
313127.0 209407.0 0
317450.0 208488.0 0
323562.0 206827.0 0
177468.0 211989.0 0
182410.0 211364.0 0
179985.0 215525.0 0
184864.0 214501.0 0
191714.0 210840.0 0
189287.0 215304.0 0
196169.0 213266.0 0
200769.0 214118.0 0
209525.0 212828.0 0
218048.0 211286.0 0
214460.0 214370.0 0
219261.0 215938.0 0
223489.0 212409.0 0
227502.0 210244.0 0
228871.0 214075.0 0
233587.0 212642.0 0
238387.0 211949.0 0
242680.0 212225.0 0
249221.0 210415.0 0
246157.0 212375.0 0
254374.0 210811.0 0
259175.0 213214.0 0
264482.0 212145.0 0
269192.0 212304.0 0
274959.0 213374.0 0
280292.0 213238.0 0
286347.0 211440.0 0
289619.0 214868.0 0
293938.0 214351.0 0
296556.0 211405.0 0
300980.0 211589.0 0
301963.0 216205.0 0
305200.0 212962.0 0
309178.0 215927.0 0
313704.0 213027.0 0
318837.0 215457.0 0
176264.0 218558.0 0
180617.0 221041.0 0
184387.0 218848.0 0
190657.0 220111.0 0
193387.0 216237.0 0
195404.0 219427.0 0
200008.0 219127.0 0
205693.0 216535.0 0
210933.0 216696.0 0
215004.0 219092.0 0
220118.0 220410.0 0
224303.0 217466.0 0
228736.0 218374.0 0
232700.0 217322.0 0
236428.0 215611.0 0
237450.0 220109.0 0
240555.0 215812.0 0
242493.0 219106.0 0
244855.0 215705.0 0
249771.0 215229.0 0
246789.0 219655.0 0
254833.0 216143.0 0
251736.0 220034.0 0
258754.0 217537.0 0
256449.0 219777.0 0
262537.0 216626.0 0
271060.0 215427.0 0
267194.0 216154.0 0
270089.0 219838.0 0
273655.0 217631.0 0
277504.0 217378.0 0
281515.0 217510.0 0
284973.0 215432.0 0
284344.0 219503.0 0
288359.0 218983.0 0
296943.0 215987.0 0
293402.0 218600.0 0
298601.0 220190.0 0
305442.0 220075.0 0
310498.0 221072.0 0
313954.0 217830.0 0
178375.0 225053.0 0
186389.0 222644.0 0
189855.0 224973.0 0
194275.0 223833.0 0
199322.0 224551.0 0
204626.0 222308.0 0
209534.0 220791.0 0
212852.0 223144.0 0
217165.0 223711.0 0
223463.0 221106.0 0
226901.0 221822.0 0
228723.0 225322.0 0
231883.0 222029.0 0
235657.0 223988.0 0
242313.0 223980.0 0
248594.0 223963.0 0
252734.0 223902.0 0
255126.0 222224.0 0
260058.0 221289.0 0
264863.0 220468.0 0
262872.0 224603.0 0
267423.0 224016.0 0
275230.0 221064.0 0
272121.0 223988.0 0
279989.0 221467.0 0
283508.0 222288.0 0
282567.0 225100.0 0
286502.0 222377.0 0
291068.0 223036.0 0
296735.0 225549.0 0
302267.0 224401.0 0
307826.0 226060.0 0
314567.0 221714.0 0
312800.0 224817.0 0
318503.0 221085.0 0
183434.0 227041.0 0
188722.0 229817.0 0
194136.0 229030.0 0
198692.0 229390.0 0
203839.0 228154.0 0
209325.0 225939.0 0
214046.0 226642.0 0
212361.0 229849.0 0
217486.0 227625.0 0
222741.0 225874.0 0
228055.0 229276.0 0
232798.0 226875.0 0
237501.0 227017.0 0
241426.0 229670.0 0
246150.0 227879.0 0
252048.0 228108.0 0
257667.0 225869.0 0
261938.0 228593.0 0
265525.0 227498.0 0
269813.0 227658.0 0
277134.0 226305.0 0
282328.0 228934.0 0
286882.0 226059.0 0
291907.0 227863.0 0
300516.0 228664.0 0
312341.0 228848.0 0
316333.0 226840.0 0
318066.0 230776.0 0
185150.0 233856.0 0
190447.0 235554.0 0
201015.0 231812.0 0
196529.0 234348.0 0
201826.0 235554.0 0
204796.0 232878.0 0
208306.0 230885.0 0
211157.0 233374.0 0
215703.0 233041.0 0
219411.0 230262.0 0
220142.0 234158.0 0
223871.0 231591.0 0
227939.0 233988.0 0
232263.0 231532.0 0
236600.0 230543.0 0
235803.0 234367.0 0
239295.0 233318.0 0
243062.0 234363.0 0
248476.0 230956.0 0
245013.0 231540.0 0
247080.0 234597.0 0
251638.0 233582.0 0
256939.0 231887.0 0
262371.0 232623.0 0
267159.0 231380.0 0
272942.0 231312.0 0
275388.0 234801.0 0
278251.0 231850.0 0
282437.0 233199.0 0
287393.0 231312.0 0
295089.0 230763.0 0
298996.0 233356.0 0
303658.0 231298.0 0
308301.0 231994.0 0
313848.0 233877.0 0
318789.0 235425.0 0
186194.0 238929.0 0
194316.0 240204.0 0
199032.0 239041.0 0
204492.0 239115.0 0
207780.0 235452.0 0
209084.0 239591.0 0
212611.0 236879.0 0
218231.0 238633.0 0
223857.0 236284.0 0
228099.0 238629.0 0
231821.0 236182.0 0
235703.0 237952.0 0
239878.0 237393.0 0
249813.0 237830.0 0
244869.0 238584.0 0
254701.0 237162.0 0
259675.0 237059.0 0
265258.0 236040.0 0
263402.0 239877.0 0
270222.0 235451.0 0
273982.0 237794.0 0
279141.0 236928.0 0
285381.0 236912.0 0
292523.0 236058.0 0
303855.0 235808.0 0
299164.0 239534.0 0
309196.0 238020.0 0
304540.0 240327.0 0
312892.0 241735.0 0
190972.0 245284.0 0
195006.0 245575.0 0
201308.0 243105.0 0
206484.0 242997.0 0
210438.0 243300.0 0
213628.0 241188.0 0
216714.0 243320.0 0
223369.0 240715.0 0
220475.0 244085.0 0
226542.0 241931.0 0
225415.0 245313.0 0
232663.0 240792.0 0
229082.0 243147.0 0
232170.0 244709.0 0
237473.0 241700.0 0
234863.0 244078.0 0
241392.0 241187.0 0
240603.0 243979.0 0
244397.0 243676.0 0
248267.0 242190.0 0
252611.0 241118.0 0
250815.0 244860.0 0
254694.0 244679.0 0
260230.0 241349.0 0
256723.0 240840.0 0
258975.0 244836.0 0
263952.0 244196.0 0
268337.0 240509.0 0
268941.0 245086.0 0
272682.0 241981.0 0
275053.0 244246.0 0
276861.0 241113.0 0
278348.0 245107.0 0
282307.0 241711.0 0
285763.0 245289.0 0
288229.0 240974.0 0
290030.0 244349.0 0
293446.0 241909.0 0
297497.0 245153.0 0
304321.0 244878.0 0
309387.0 244516.0 0
199151.0 247542.0 0
202301.0 250886.0 0
205194.0 246107.0 0
203002.0 247970.0 0
207003.0 248716.0 0
209735.0 246759.0 0
209660.0 250337.0 0
213817.0 245391.0 0
217395.0 246695.0 0
218134.0 249625.0 0
213993.0 249602.0 0
221996.0 248499.0 0
226628.0 249790.0 0
229490.0 247265.0 0
233898.0 248083.0 0
237864.0 245906.0 0
238276.0 250000.0 0
242297.0 247474.0 0
247627.0 247210.0 0
244972.0 250356.0 0
252086.0 248036.0 0
250494.0 250476.0 0
256090.0 248784.0 0
264608.0 248052.0 0
260813.0 248999.0 0
266623.0 246190.0 0
267498.0 248536.0 0
272121.0 245475.0 0
270834.0 248784.0 0
274781.0 247560.0 0
278637.0 249987.0 0
281947.0 246715.0 0
289157.0 248190.0 0
294184.0 249251.0 0
292947.0 245710.0 0
301486.0 247850.0 0
298682.0 249722.0 0
304601.0 251582.0 0
202327.0 254395.0 0
205741.0 251237.0 0
208557.0 252894.0 0
205927.0 255270.0 0
211725.0 253283.0 0
217745.0 252856.0 0
214846.0 253803.0 0
220711.0 252132.0 0
224112.0 253243.0 0
221121.0 255286.0 0
228047.0 253948.0 0
230711.0 251009.0 0
232337.0 255616.0 0
234649.0 252221.0 0
238249.0 254080.0 0
241824.0 252077.0 0
247937.0 251578.0 0
245465.0 254847.0 0
253808.0 252757.0 0
250072.0 254492.0 0
257918.0 251815.0 0
257701.0 254698.0 0
264839.0 251988.0 0
260867.0 253466.0 0
268568.0 251490.0 0
267928.0 254822.0 0
270870.0 252891.0 0
273700.0 251438.0 0
275636.0 254233.0 0
279580.0 254253.0 0
284135.0 250610.0 0
282685.0 255285.0 0
289901.0 252576.0 0
286478.0 255485.0 0
293968.0 253855.0 0
297518.0 253145.0 0
202675.0 258448.0 0
206508.0 259482.0 0
209662.0 256612.0 0
213909.0 257781.0 0
217786.0 256603.0 0
220495.0 258898.0 0
224776.0 258175.0 0
228974.0 258047.0 0
232598.0 260363.0 0
236112.0 256051.0 0
238187.0 257973.0 0
235527.0 258928.0 0
241306.0 256317.0 0
240500.0 259760.0 0
243955.0 259317.0 0
248413.0 258761.0 0
252823.0 258183.0 0
260061.0 256793.0 0
255443.0 256091.0 0
257284.0 258225.0 0
263994.0 256838.0 0
260693.0 260872.0 0
267975.0 258187.0 0
271834.0 256777.0 0
280272.0 258523.0 0
276522.0 258026.0 0
283978.0 259183.0 0
290870.0 257588.0 0
287568.0 259825.0 0
294679.0 257083.0 0
294462.0 259859.0 0
297659.0 257022.0 0
197681.0 263062.0 0
202508.0 262287.0 0
201791.0 265415.0 0
206194.0 262858.0 0
204866.0 265521.0 0
208580.0 265374.0 0
210713.0 261439.0 0
213031.0 265668.0 0
216794.0 262208.0 0
221721.0 262082.0 0
228839.0 261651.0 0
225239.0 263733.0 0
232977.0 264607.0 0
229354.0 265277.0 0
237709.0 263032.0 0
242316.0 262321.0 0
242831.0 265590.0 0
246247.0 262956.0 0
250753.0 263149.0 0
255496.0 262091.0 0
259209.0 265791.0 0
263359.0 264842.0 0
265548.0 261392.0 0
269766.0 261485.0 0
273800.0 261134.0 0
272384.0 265759.0 0
277724.0 261746.0 0
276263.0 264458.0 0
284656.0 262683.0 0
280979.0 262438.0 0
282892.0 265492.0 0
288012.0 263339.0 0
290686.0 265724.0 0
291452.0 261877.0 0
294652.0 262644.0 0
293771.0 265483.0 0
297582.0 260758.0 0
297415.0 264667.0 0
202915.0 268824.0 0
206955.0 268238.0 0
210413.0 268679.0 0
213571.0 270724.0 0
216653.0 268074.0 0
218097.0 270895.0 0
220461.0 266342.0 0
224227.0 267796.0 0
221723.0 271179.0 0
227708.0 268426.0 0
231626.0 268567.0 0
235849.0 268810.0 0
239897.0 267640.0 0
240479.0 271056.0 0
244320.0 269605.0 0
246856.0 266539.0 0
254195.0 266345.0 0
250290.0 268137.0 0
253445.0 270859.0 0
256907.0 269245.0 0
260415.0 270783.0 0
262744.0 268512.0 0
267589.0 266546.0 0
265508.0 271244.0 0
269584.0 270772.0 0
272288.0 269641.0 0
279293.0 266195.0 0
275939.0 267982.0 0
279133.0 270294.0 0
282703.0 269193.0 0
286367.0 267031.0 0
289682.0 268815.0 0
286305.0 270934.0 0
293456.0 268854.0 0
297392.0 268327.0 0
298336.0 271222.0 0
196515.0 276694.0 0
202224.0 272474.0 0
202875.0 275986.0 0
205720.0 271390.0 0
205339.0 273460.0 0
208992.0 271961.0 0
207268.0 275960.0 0
212058.0 275185.0 0
216522.0 273564.0 0
219761.0 275096.0 0
223540.0 275881.0 0
225631.0 271644.0 0
227465.0 275326.0 0
230094.0 272222.0 0
233019.0 271453.0 0
232444.0 275081.0 0
237951.0 272763.0 0
234823.0 272981.0 0
240113.0 275989.0 0
242813.0 273561.0 0
247834.0 271966.0 0
245544.0 275424.0 0
249559.0 276117.0 0
251656.0 273222.0 0
253614.0 275189.0 0
256879.0 273297.0 0
259224.0 276436.0 0
262201.0 273838.0 0
268730.0 274195.0 0
265656.0 275263.0 0
275378.0 271617.0 0
271881.0 273375.0 0
280093.0 273457.0 0
276823.0 275501.0 0
283220.0 272529.0 0
282114.0 275822.0 0
290144.0 272855.0 0
286126.0 275232.0 0
294846.0 272504.0 0
297922.0 273994.0 0
303051.0 276026.0 0
195692.0 281612.0 0
202904.0 279695.0 0
206535.0 279098.0 0
210420.0 278897.0 0
213774.0 280328.0 0
215768.0 277485.0 0
219054.0 278626.0 0
217283.0 281570.0 0
223095.0 280433.0 0
226785.0 279196.0 0
230460.0 278412.0 0
234210.0 280004.0 0
235857.0 276446.0 0
238006.0 278941.0 0
239854.0 279551.0 0
243312.0 278944.0 0
240738.0 281829.0 0
247199.0 278853.0 0
249694.0 279355.0 0
252042.0 278156.0 0
251367.0 281649.0 0
255486.0 278260.0 0
259831.0 280696.0 0
262927.0 277803.0 0
263586.0 281543.0 0
269696.0 277528.0 0
266340.0 278640.0 0
272953.0 276524.0 0
273717.0 279981.0 0
270872.0 281239.0 0
280140.0 277959.0 0
276761.0 279891.0 0
284401.0 278501.0 0
281849.0 281068.0 0
289374.0 278064.0 0
286551.0 280444.0 0
293456.0 276790.0 0
293527.0 281241.0 0
297775.0 276718.0 0
297078.0 280194.0 0
201946.0 283114.0 0
202005.0 285683.0 0
208744.0 281933.0 0
205385.0 282878.0 0
208883.0 285245.0 0
205478.0 285969.0 0
211824.0 282804.0 0
211662.0 285310.0 0
215224.0 284399.0 0
218587.0 285796.0 0
219936.0 283279.0 0
228149.0 282199.0 0
224871.0 285450.0 0
229038.0 286040.0 0
231563.0 283156.0 0
237296.0 282467.0 0
234822.0 284568.0 0
238954.0 285741.0 0
244560.0 282915.0 0
241805.0 284386.0 0
247726.0 281879.0 0
249842.0 285244.0 0
246292.0 286516.0 0
255249.0 282462.0 0
258370.0 285804.0 0
261820.0 284569.0 0
264747.0 285708.0 0
267326.0 282855.0 0
269478.0 286314.0 0
274218.0 283308.0 0
271695.0 284081.0 0
273314.0 286386.0 0
278328.0 283741.0 0
284521.0 283526.0 0
281705.0 286182.0 0
285143.0 286796.0 0
290309.0 281985.0 0
287845.0 284437.0 0
294620.0 284307.0 0
291818.0 284869.0 0
297686.0 283541.0 0
298153.0 286087.0 0
202161.0 288403.0 0
202057.0 291259.0 0
208839.0 288521.0 0
205515.0 289682.0 0
211505.0 287816.0 0
213350.0 290911.0 0
210036.0 291900.0 0
214671.0 287784.0 0
217407.0 288594.0 0
221316.0 287262.0 0
220454.0 290994.0 0
224259.0 290924.0 0
227593.0 289966.0 0
232196.0 286974.0 0
231261.0 290888.0 0
235971.0 287708.0 0
234929.0 291086.0 0
242627.0 287186.0 0
239616.0 289623.0 0
243357.0 289652.0 0
247148.0 290922.0 0
253584.0 287104.0 0
250854.0 289822.0 0
259253.0 289215.0 0
255638.0 290263.0 0
262273.0 287822.0 0
263650.0 290086.0 0
266428.0 288643.0 0
268418.0 291421.0 0
271725.0 289640.0 0
274961.0 291027.0 0
276525.0 287491.0 0
279300.0 289198.0 0
278033.0 291711.0 0
282582.0 289750.0 0
288726.0 286941.0 0
286655.0 289248.0 0
289291.0 291150.0 0
295197.0 287180.0 0
291895.0 287983.0 0
293251.0 291578.0 0
298003.0 288668.0 0
296801.0 291752.0 0
202752.0 294342.0 0
206426.0 293371.0 0
207693.0 296785.0 0
211249.0 295227.0 0
216778.0 292095.0 0
214346.0 294825.0 0
217678.0 295926.0 0
220876.0 295376.0 0
224740.0 294846.0 0
227826.0 294610.0 0
231503.0 295390.0 0
237519.0 293016.0 0
234771.0 295791.0 0
237882.0 296899.0 0
242019.0 292051.0 0
240483.0 294733.0 0
244779.0 294504.0 0
249864.0 294464.0 0
247620.0 296646.0 0
252512.0 292705.0 0
253931.0 295760.0 0
256190.0 293367.0 0
259037.0 295946.0 0
260234.0 292330.0 0
263569.0 293159.0 0
262528.0 296385.0 0
266810.0 294831.0 0
271583.0 292914.0 0
270577.0 295601.0 0
274315.0 294302.0 0
277924.0 294802.0 0
280240.0 296652.0 0
280875.0 292962.0 0
285130.0 292474.0 0
283216.0 295093.0 0
288186.0 293903.0 0
286439.0 296362.0 0
292034.0 294574.0 0
294704.0 295891.0 0
297973.0 294718.0 0
196497.0 301558.0 0
202494.0 297453.0 0
201806.0 300119.0 0
205461.0 298758.0 0
209133.0 301996.0 0
205835.0 301916.0 0
210913.0 299184.0 0
214245.0 302013.0 0
214887.0 298505.0 0
217948.0 299448.0 0
221417.0 299289.0 0
225079.0 298258.0 0
227772.0 297959.0 0
226976.0 300538.0 0
224390.0 301765.0 0
229164.0 301868.0 0
230519.0 298792.0 0
233206.0 300353.0 0
235671.0 299401.0 0
238813.0 301950.0 0
240697.0 298317.0 0
243880.0 298043.0 0
248766.0 299792.0 0
245375.0 301132.0 0
251671.0 297617.0 0
253914.0 300733.0 0
256137.0 297848.0 0
259821.0 299320.0 0
257691.0 300860.0 0
263144.0 299886.0 0
266606.0 298859.0 0
268517.0 302218.0 0
271219.0 299044.0 0
274448.0 297722.0 0
273507.0 301857.0 0
277446.0 299356.0 0
282707.0 298503.0 0
280750.0 301453.0 0
285725.0 299407.0 0
290310.0 297139.0 0
289107.0 300466.0 0
293718.0 298547.0 0
292327.0 301119.0 0
297730.0 297320.0 0
297125.0 300313.0 0
303399.0 301928.0 0
202500.0 302736.0 0
201978.0 305710.0 0
205432.0 305724.0 0
208902.0 305810.0 0
212205.0 304435.0 0
214125.0 306662.0 0
217343.0 302991.0 0
217433.0 306571.0 0
220298.0 302513.0 0
222645.0 304511.0 0
220736.0 306917.0 0
226325.0 303881.0 0
228350.0 304759.0 0
225467.0 307159.0 0
232384.0 303549.0 0
230154.0 306303.0 0
235688.0 304333.0 0
242534.0 302689.0 0
239981.0 305839.0 0
243315.0 305985.0 0
246808.0 304795.0 0
250613.0 303358.0 0
255216.0 303768.0 0
258697.0 304038.0 0
256976.0 306828.0 0
262442.0 303495.0 0
266137.0 304810.0 0
269288.0 306828.0 0
271557.0 304529.0 0
274240.0 306031.0 0
276095.0 303186.0 0
279266.0 305258.0 0
284327.0 303229.0 0
282835.0 306381.0 0
287861.0 304158.0 0
290801.0 306256.0 0
287473.0 307202.0 0
290994.0 304255.0 0
294016.0 303692.0 0
294209.0 307157.0 0
297811.0 303600.0 0
297994.0 306290.0 0
202014.0 308207.0 0
201318.0 310292.0 0
201904.0 312557.0 0
205430.0 308535.0 0
204434.0 311161.0 0
207488.0 311774.0 0
209359.0 309071.0 0
212610.0 309338.0 0
217205.0 309878.0 0
215340.0 311870.0 0
219687.0 311249.0 0
222604.0 309965.0 0
228146.0 308985.0 0
224624.0 312254.0 0
227244.0 312246.0 0
232730.0 307579.0 0
231433.0 310780.0 0
236471.0 308129.0 0
235224.0 311973.0 0
240194.0 309226.0 0
244274.0 309107.0 0
241319.0 312333.0 0
247793.0 308430.0 0
245153.0 312118.0 0
247923.0 312191.0 0
252584.0 307633.0 0
250462.0 311261.0 0
258641.0 309169.0 0
255172.0 311470.0 0
261544.0 308078.0 0
265126.0 308453.0 0
261989.0 311949.0 0
268181.0 308587.0 0
269365.0 311087.0 0
265700.0 311742.0 0
271983.0 309048.0 0
273912.0 311164.0 0
276604.0 307533.0 0
280600.0 309202.0 0
277443.0 310785.0 0
284778.0 308196.0 0
282490.0 310774.0 0
285633.0 311126.0 0
290400.0 308451.0 0
288406.0 310286.0 0
293276.0 310795.0 0
297909.0 308921.0 0
297144.0 311821.0 0
197463.0 314577.0 0
202057.0 315029.0 0
205801.0 315084.0 0
212461.0 312813.0 0
209946.0 312867.0 0
212908.0 316181.0 0
209490.0 316306.0 0
219191.0 313830.0 0
216366.0 314845.0 0
221719.0 314394.0 0
224220.0 315542.0 0
220114.0 316826.0 0
226761.0 315600.0 0
229895.0 314382.0 0
233880.0 315576.0 0
238093.0 313097.0 0
238404.0 315715.0 0
236586.0 316797.0 0
241940.0 316116.0 0
245099.0 314744.0 0
249389.0 315349.0 0
246684.0 316258.0 0
251680.0 313367.0 0
254422.0 314823.0 0
252431.0 316971.0 0
258896.0 312880.0 0
258863.0 315988.0 0
256094.0 317610.0 0
263016.0 314896.0 0
270145.0 313887.0 0
266410.0 314971.0 0
270163.0 316585.0 0
272934.0 313745.0 0
275087.0 316394.0 0
278245.0 314249.0 0
280104.0 316979.0 0
281419.0 313097.0 0
283786.0 314363.0 0
283282.0 317148.0 0
286965.0 314110.0 0
290393.0 313277.0 0
290552.0 316912.0 0
287127.0 317225.0 0
294078.0 314518.0 0
293801.0 317251.0 0
297712.0 314748.0 0
297281.0 317539.0 0
202305.0 317748.0 0
203340.0 321035.0 0
205879.0 318579.0 0
209043.0 319798.0 0
214131.0 318803.0 0
211873.0 320769.0 0
217332.0 317888.0 0
218138.0 320761.0 0
214845.0 322584.0 0
221624.0 318114.0 0
220702.0 320814.0 0
223453.0 321968.0 0
224574.0 318782.0 0
227222.0 319006.0 0
227982.0 321668.0 0
229662.0 317895.0 0
232759.0 319445.0 0
230429.0 321752.0 0
239814.0 318826.0 0
235428.0 319303.0 0
237632.0 319365.0 0
236589.0 321740.0 0
239016.0 322375.0 0
244013.0 319022.0 0
241720.0 321623.0 0
246619.0 320123.0 0
249587.0 319530.0 0
252562.0 319890.0 0
250362.0 322625.0 0
255779.0 321175.0 0
259669.0 321135.0 0
261824.0 318270.0 0
264639.0 321072.0 0
267075.0 318533.0 0
269810.0 321354.0 0
272271.0 318349.0 0
273863.0 320566.0 0
276735.0 319602.0 0
279454.0 320023.0 0
275913.0 322512.0 0
279048.0 322627.0 0
283402.0 320860.0 0
290377.0 320165.0 0
287080.0 320915.0 0
293547.0 320531.0 0
297424.0 320461.0 0
201738.0 323972.0 0
201893.0 326014.0 0
206565.0 323669.0 0
206195.0 327035.0 0
210115.0 323757.0 0
212344.0 325370.0 0
218079.0 325373.0 0
214911.0 327527.0 0
221106.0 324970.0 0
224168.0 327704.0 0
225997.0 324328.0 0
228889.0 325595.0 0
234508.0 322776.0 0
231576.0 324442.0 0
238565.0 324627.0 0
235971.0 326030.0 0
243265.0 324089.0 0
240555.0 326183.0 0
246189.0 323427.0 0
248535.0 325311.0 0
253128.0 323843.0 0
251090.0 327041.0 0
254506.0 326820.0 0
257353.0 324714.0 0
260142.0 327432.0 0
260703.0 324321.0 0
264334.0 324177.0 0
264653.0 327351.0 0
267942.0 323891.0 0
269055.0 326416.0 0
272721.0 323308.0 0
272525.0 326576.0 0
277317.0 324624.0 0
275823.0 326660.0 0
280149.0 326771.0 0
282234.0 324328.0 0
285182.0 326104.0 0
290710.0 323459.0 0
288009.0 324520.0 0
289621.0 327769.0 0
293401.0 323954.0 0
292370.0 327200.0 0
297361.0 323247.0 0
296988.0 326360.0 0
202596.0 328567.0 0
202845.0 331558.0 0
208010.0 330096.0 0
205723.0 332280.0 0
210985.0 328222.0 0
212803.0 331364.0 0
218946.0 329374.0 0
215898.0 330690.0 0
219317.0 332460.0 0
221830.0 330110.0 0
227053.0 330067.0 0
229176.0 328326.0 0
225764.0 332638.0 0
229544.0 332829.0 0
233054.0 328404.0 0
230820.0 330994.0 0
238260.0 329026.0 0
235393.0 332003.0 0
243487.0 328184.0 0
240980.0 331133.0 0
246629.0 328852.0 0
249491.0 330479.0 0
245796.0 332848.0 0
252841.0 330639.0 0
257431.0 328069.0 0
256610.0 331900.0 0
262349.0 329755.0 0
264776.0 331728.0 0
267182.0 328373.0 0
269669.0 329900.0 0
267386.0 331359.0 0
272700.0 330175.0 0
277803.0 329150.0 0
275549.0 332202.0 0
280541.0 331651.0 0
282143.0 329241.0 0
285152.0 329147.0 0
286433.0 332344.0 0
290056.0 331300.0 0
293404.0 332183.0 0
296378.0 329639.0 0
298110.0 332773.0 0
202099.0 334281.0 0
202159.0 336650.0 0
205171.0 335522.0 0
207651.0 334867.0 0
208078.0 337170.0 0
210201.0 333464.0 0
211918.0 336329.0 0
214397.0 334516.0 0
217133.0 334007.0 0
217413.0 337947.0 0
222681.0 333670.0 0
220644.0 336204.0 0
227696.0 335020.0 0
225183.0 336673.0 0
229528.0 336756.0 0
232624.0 334369.0 0
233348.0 337675.0 0
238550.0 334566.0 0
243487.0 333140.0 0
242181.0 336035.0 0
248439.0 334248.0 0
244967.0 336037.0 0
247603.0 337772.0 0
251835.0 334522.0 0
251863.0 337737.0 0
255061.0 335479.0 0
260063.0 333143.0 0
257621.0 336876.0 0
264976.0 334281.0 0
262176.0 335720.0 0
268327.0 334138.0 0
266209.0 335895.0 0
269656.0 336964.0 0
270892.0 332984.0 0
272824.0 335259.0 0
274938.0 337220.0 0
278035.0 334852.0 0
282860.0 333182.0 0
282012.0 335816.0 0
284014.0 337123.0 0
290470.0 334775.0 0
286931.0 335676.0 0
294439.0 335434.0 0
291810.0 337433.0 0
298182.0 334812.0 0
297334.0 337401.0 0
302895.0 334780.0 0
202657.0 339269.0 0
202519.0 342203.0 0
205742.0 338254.0 0
207218.0 340179.0 0
205807.0 342426.0 0
209949.0 338316.0 0
213366.0 340848.0 0
210371.0 341330.0 0
214358.0 338136.0 0
218403.0 341334.0 0
215635.0 342852.0 0
221901.0 338923.0 0
220786.0 342656.0 0
223714.0 341207.0 0
226219.0 339278.0 0
228993.0 339816.0 0
232208.0 341540.0 0
237124.0 338193.0 0
235626.0 342434.0 0
242272.0 339039.0 0
239753.0 341152.0 0
245225.0 340543.0 0
248093.0 342722.0 0
250395.0 340847.0 0
253280.0 342369.0 0
254917.0 338966.0 0
259316.0 338498.0 0
257096.0 340469.0 0
258779.0 342662.0 0
263533.0 338701.0 0
261972.0 341728.0 0
267048.0 339024.0 0
268102.0 342367.0 0
271968.0 338834.0 0
272560.0 342540.0 0
279324.0 338180.0 0
276008.0 339829.0 0
277677.0 341908.0 0
280824.0 340615.0 0
284011.0 339566.0 0
282633.0 342537.0 0
288564.0 338280.0 0
286720.0 341219.0 0
290350.0 342637.0 0
292996.0 340165.0 0
296584.0 340652.0 0
202447.0 345289.0 0
202325.0 348084.0 0
206160.0 346063.0 0
209786.0 344942.0 0
213090.0 344829.0 0
210937.0 348368.0 0
215941.0 346429.0 0
219149.0 346032.0 0
221875.0 344708.0 0
221937.0 346637.0 0
224966.0 344205.0 0
227869.0 343195.0 0
225244.0 347339.0 0
228465.0 347576.0 0
230464.0 344969.0 0
233042.0 346747.0 0
236562.0 346087.0 0
240719.0 344456.0 0
243952.0 343612.0 0
241872.0 347699.0 0
244413.0 347402.0 0
245683.0 345596.0 0
248636.0 346253.0 0
250762.0 344370.0 0
254854.0 345264.0 0
252097.0 347545.0 0
258497.0 347133.0 0
261913.0 345287.0 0
264993.0 343888.0 0
262621.0 347363.0 0
268341.0 346050.0 0
265406.0 347070.0 0
267778.0 348087.0 0
271591.0 346714.0 0
276138.0 344277.0 0
279487.0 344140.0 0
276785.0 347093.0 0
284854.0 344507.0 0
281691.0 346257.0 0
283908.0 348174.0 0
287402.0 346365.0 0
290159.0 347680.0 0
292785.0 345095.0 0
294308.0 348059.0 0
297043.0 343878.0 0
297597.0 347021.0 0
202962.0 350883.0 0
206230.0 349191.0 0
208840.0 351112.0 0
212945.0 352814.0 0
214580.0 349529.0 0
217652.0 350738.0 0
218516.0 353272.0 0
219925.0 349169.0 0
223497.0 350472.0 0
221285.0 353268.0 0
229448.0 350765.0 0
226219.0 353039.0 0
232233.0 350045.0 0
238843.0 348593.0 0
235465.0 351094.0 0
239171.0 351611.0 0
242407.0 351249.0 0
245220.0 349657.0 0
247805.0 349656.0 0
246869.0 352834.0 0
251142.0 351051.0 0
254293.0 351813.0 0
255339.0 349263.0 0
257278.0 352143.0 0
259678.0 350537.0 0
262479.0 349768.0 0
265050.0 350422.0 0
261233.0 353395.0 0
263956.0 353273.0 0
267619.0 350901.0 0
269736.0 349768.0 0
268160.0 353261.0 0
274018.0 348919.0 0
271694.0 351781.0 0
274331.0 353323.0 0
279128.0 348817.0 0
275581.0 351420.0 0
278297.0 351883.0 0
280466.0 353237.0 0
281915.0 349723.0 0
285825.0 349311.0 0
283201.0 351745.0 0
290317.0 350620.0 0
287625.0 351656.0 0
294086.0 350962.0 0
292440.0 353638.0 0
298226.0 349516.0 0
297257.0 352266.0 0
302910.0 351304.0 0
203031.0 354089.0 0
202771.0 357285.0 0
207223.0 353869.0 0
206160.0 356519.0 0
210480.0 356217.0 0
213804.0 357897.0 0
216050.0 354976.0 0
219363.0 357453.0 0
222091.0 356172.0 0
224780.0 355758.0 0
229020.0 354894.0 0
225851.0 358231.0 0
229472.0 358167.0 0
231723.0 353988.0 0
234682.0 354685.0 0
232252.0 358601.0 0
238479.0 354552.0 0
235475.0 358115.0 0
238210.0 358094.0 0
243956.0 354165.0 0
240699.0 356404.0 0
249510.0 354044.0 0
245704.0 357148.0 0
249307.0 357911.0 0
252178.0 355348.0 0
254138.0 354747.0 0
257849.0 354274.0 0
256630.0 355579.0 0
255103.0 357502.0 0
259933.0 356318.0 0
264026.0 356026.0 0
266421.0 354211.0 0
266478.0 356503.0 0
269080.0 357290.0 0
270490.0 354488.0 0
273488.0 355520.0 0
273820.0 358114.0 0
276691.0 354659.0 0
278033.0 356963.0 0
284158.0 354209.0 0
280588.0 356389.0 0
283175.0 356956.0 0
287334.0 354850.0 0
290132.0 355586.0 0
285931.0 358193.0 0
294431.0 356388.0 0
291378.0 358626.0 0
297282.0 355383.0 0
297758.0 358400.0 0
194764.0 359952.0 0
202594.0 360539.0 0
208609.0 358911.0 0
205854.0 359026.0 0
206663.0 362360.0 0
209844.0 362090.0 0
213102.0 361434.0 0
217209.0 359439.0 0
216570.0 362810.0 0
221315.0 360155.0 0
224148.0 360399.0 0
219843.0 362326.0 0
228081.0 360925.0 0
233099.0 361645.0 0
231211.0 363243.0 0
236050.0 361743.0 0
238733.0 361042.0 0
241249.0 360403.0 0
243799.0 359438.0 0
241630.0 363597.0 0
244135.0 363458.0 0
245553.0 361766.0 0
248391.0 361959.0 0
252726.0 359123.0 0
254210.0 361630.0 0
250940.0 363107.0 0
257661.0 358803.0 0
256926.0 361252.0 0
262042.0 358674.0 0
261647.0 362021.0 0
264348.0 363432.0 0
265299.0 359262.0 0
267413.0 360944.0 0
269573.0 362619.0 0
271245.0 358961.0 0
272262.0 361842.0 0
275171.0 363451.0 0
276330.0 360145.0 0
279275.0 360860.0 0
281755.0 360140.0 0
284154.0 360817.0 0
282958.0 363719.0 0
280551.0 363481.0 0
285367.0 363048.0 0
288169.0 359710.0 0
288327.0 362768.0 0
293362.0 361095.0 0
296840.0 361431.0 0
196505.0 366139.0 0
203349.0 363842.0 0
202434.0 366919.0 0
205615.0 368715.0 0
206575.0 365434.0 0
207858.0 367773.0 0
209877.0 365127.0 0
212837.0 364211.0 0
212418.0 367125.0 0
215200.0 365683.0 0
218632.0 365582.0 0
216915.0 367730.0 0
218931.0 368911.0 0
221589.0 364916.0 0
221041.0 367787.0 0
224892.0 364169.0 0
228398.0 364235.0 0
224950.0 367850.0 0
229281.0 367624.0 0
233332.0 365805.0 0
232072.0 368514.0 0
236424.0 365272.0 0
239534.0 364666.0 0
242896.0 366984.0 0
245345.0 365738.0 0
248094.0 365971.0 0
245028.0 368402.0 0
253510.0 364664.0 0
251577.0 366949.0 0
258977.0 363923.0 0
256658.0 366740.0 0
261690.0 366172.0 0
263544.0 367073.0 0
266337.0 364995.0 0
267164.0 368468.0 0
270299.0 365547.0 0
273570.0 366859.0 0
278226.0 365012.0 0
276682.0 367909.0 0
283224.0 366189.0 0
280795.0 367455.0 0
285943.0 366420.0 0
289279.0 366833.0 0
291604.0 364392.0 0
294402.0 366760.0 0
297192.0 365146.0 0
298216.0 368555.0 0
202346.0 373158.0 0
202497.0 369759.0 0
205452.0 372278.0 0
208326.0 372444.0 0
210378.0 370279.0 0
214249.0 370387.0 0
211828.0 373908.0 0
219425.0 372077.0 0
216064.0 372689.0 0
222844.0 369298.0 0
222579.0 372978.0 0
227449.0 369748.0 0
225734.0 372007.0 0
229573.0 372931.0 0
232276.0 372169.0 0
234878.0 369701.0 0
237772.0 369121.0 0
237619.0 372798.0 0
241149.0 369012.0 0
243169.0 372334.0 0
245856.0 370775.0 0
248337.0 369256.0 0
247308.0 373187.0 0
251039.0 371189.0 0
254703.0 370429.0 0
258183.0 371734.0 0
259894.0 368434.0 0
258419.0 374605.0 0
261310.0 370728.0 0
263991.0 370546.0 0
267453.0 372505.0 0
270773.0 369383.0 0
273768.0 370801.0 0
271051.0 372183.0 0
278496.0 370031.0 0
275974.0 373022.0 0
282608.0 370019.0 0
281440.0 373028.0 0
286425.0 372359.0 0
285505.0 369617.0 0
288057.0 374364.0 0
289966.0 370135.0 0
293933.0 370454.0 0
297418.0 371788.0 0
303437.0 371226.0 0
194729.0 380207.0 0
200883.0 376866.0 0
199107.0 378728.0 0
197132.0 379824.0 0
203313.0 379592.0 0
204531.0 376373.0 0
207397.0 377930.0 0
210158.0 378629.0 0
209298.0 374894.0 0
212956.0 377379.0 0
216012.0 376457.0 0
219168.0 376111.0 0
219775.0 379096.0 0
221289.0 376151.0 0
224773.0 376009.0 0
221811.0 378846.0 0
224070.0 379244.0 0
227606.0 374503.0 0
227524.0 378348.0 0
230403.0 376417.0 0
234842.0 374663.0 0
232942.0 377716.0 0
237029.0 377922.0 0
240263.0 377584.0 0
240363.0 374302.0 0
243441.0 378849.0 0
244862.0 375769.0 0
247775.0 377637.0 0
249957.0 374417.0 0
254881.0 374461.0 0
252779.0 376889.0 0
257151.0 376706.0 0
255825.0 378422.0 0
258937.0 379423.0 0
261896.0 374296.0 0
264636.0 374231.0 0
261094.0 377517.0 0
263819.0 379006.0 0
265821.0 377454.0 0
268577.0 376228.0 0
271351.0 374649.0 0
273583.0 375526.0 0
270236.0 378595.0 0
273600.0 378654.0 0
278529.0 375457.0 0
276482.0 378662.0 0
283755.0 374488.0 0
280567.0 378150.0 0
283120.0 378955.0 0
285626.0 375559.0 0
287420.0 376533.0 0
285475.0 377236.0 0
286041.0 379475.0 0
288601.0 378429.0 0
290320.0 374228.0 0
293510.0 374649.0 0
290294.0 376993.0 0
292702.0 377668.0 0
299222.0 376178.0 0
296523.0 375872.0 0
296529.0 379611.0 0
300609.0 378439.0 0
299028.0 380793.0 0
302792.0 379361.0 0
304920.0 380849.0 0
189405.0 384267.0 0
185562.0 386220.0 0
187282.0 385028.0 0
193028.0 381577.0 0
191533.0 383483.0 0
193464.0 385549.0 0
195065.0 383272.0 0
197227.0 383054.0 0
199865.0 382891.0 0
201390.0 381265.0 0
201391.0 385738.0 0
203411.0 384132.0 0
204933.0 382009.0 0
205454.0 385120.0 0
206985.0 381276.0 0
208373.0 383644.0 0
210856.0 382439.0 0
213509.0 381546.0 0
215683.0 382094.0 0
217544.0 379496.0 0
218611.0 382853.0 0
221283.0 382619.0 0
224318.0 382607.0 0
227029.0 382323.0 0
229619.0 382469.0 0
230246.0 380057.0 0
233294.0 380885.0 0
231897.0 383874.0 0
236752.0 382066.0 0
240043.0 381962.0 0
243519.0 382067.0 0
249260.0 380677.0 0
246275.0 382015.0 0
249138.0 384479.0 0
252604.0 380571.0 0
252489.0 384047.0 0
255496.0 380993.0 0
256819.0 383199.0 0
260061.0 382745.0 0
262601.0 381641.0 0
263738.0 384623.0 0
266953.0 380226.0 0
265261.0 382630.0 0
273232.0 382108.0 0
269603.0 381469.0 0
275789.0 382927.0 0
278068.0 381125.0 0
284138.0 382212.0 0
279959.0 382690.0 0
282126.0 384083.0 0
287096.0 383809.0 0
288752.0 380966.0 0
293833.0 379955.0 0
291688.0 381215.0 0
291351.0 384185.0 0
293697.0 383923.0 0
295864.0 382750.0 0
297860.0 384806.0 0
294642.0 385992.0 0
300736.0 383603.0 0
302442.0 381931.0 0
303183.0 385544.0 0
306710.0 382691.0 0
306510.0 385759.0 0
309581.0 382699.0 0
311077.0 383943.0 0
310322.0 385491.0 0
312873.0 385338.0 0
178802.0 390430.0 0
183987.0 387892.0 0
182078.0 389878.0 0
185160.0 391047.0 0
188498.0 388110.0 0
188231.0 391069.0 0
191256.0 387471.0 0
193335.0 389663.0 0
195753.0 387779.0 0
198477.0 386494.0 0
200181.0 389188.0 0
197021.0 390726.0 0
203461.0 387056.0 0
202168.0 389039.0 0
203944.0 389647.0 0
205564.0 387542.0 0
208521.0 386366.0 0
207417.0 389424.0 0
209765.0 389667.0 0
212210.0 385080.0 0
211216.0 387570.0 0
213883.0 389049.0 0
214735.0 385740.0 0
216568.0 390039.0 0
217490.0 385899.0 0
219805.0 388737.0 0
221723.0 386125.0 0
224233.0 385798.0 0
223300.0 389451.0 0
226321.0 387031.0 0
228123.0 385196.0 0
229346.0 389477.0 0
231737.0 387077.0 0
235718.0 385300.0 0
238493.0 385874.0 0
238626.0 389152.0 0
235557.0 388712.0 0
241107.0 385676.0 0
243022.0 387431.0 0
244775.0 385004.0 0
246757.0 385837.0 0
245466.0 389178.0 0
248346.0 389869.0 0
250569.0 387825.0 0
253609.0 389189.0 0
255122.0 386038.0 0
258058.0 387329.0 0
260908.0 385995.0 0
262744.0 389079.0 0
265031.0 386660.0 0
268299.0 384645.0 0
267742.0 388068.0 0
270489.0 389171.0 0
271913.0 385269.0 0
273691.0 388050.0 0
276600.0 385607.0 0
278989.0 386289.0 0
278616.0 389469.0 0
282154.0 387332.0 0
284511.0 385576.0 0
284862.0 388849.0 0
287878.0 387520.0 0
291333.0 387001.0 0
293222.0 388947.0 0
298370.0 387832.0 0
295690.0 388802.0 0
301950.0 387782.0 0
299746.0 390825.0 0
302759.0 390125.0 0
308596.0 388105.0 0
305671.0 389651.0 0
311980.0 388280.0 0
314330.0 387210.0 0
309893.0 390765.0 0
314109.0 390656.0 0
316610.0 388057.0 0
319042.0 390475.0 0
321941.0 391674.0 0
172513.0 394548.0 0
175063.0 393898.0 0
170690.0 396540.0 0
177116.0 392636.0 0
179595.0 394486.0 0
181946.0 392696.0 0
184065.0 395061.0 0
186463.0 394079.0 0
187090.0 396987.0 0
189636.0 394570.0 0
191384.0 391764.0 0
192753.0 394130.0 0
194276.0 392002.0 0
199296.0 391447.0 0
196340.0 392863.0 0
196184.0 395628.0 0
200918.0 393137.0 0
203706.0 392894.0 0
206391.0 391792.0 0
208407.0 393520.0 0
210421.0 391725.0 0
210566.0 394688.0 0
212911.0 392071.0 0
214622.0 395042.0 0
217819.0 393587.0 0
221567.0 392004.0 0
222807.0 394937.0 0
225866.0 390113.0 0
225789.0 392913.0 0
229019.0 392502.0 0
229527.0 395315.0 0
227292.0 395275.0 0
231721.0 394930.0 0
231684.0 392010.0 0
234177.0 391443.0 0
238691.0 392616.0 0
236213.0 394168.0 0
241334.0 390322.0 0
243766.0 392903.0 0
241178.0 395029.0 0
249461.0 392894.0 0
246357.0 395049.0 0
252208.0 391991.0 0
253338.0 393987.0 0
255782.0 391273.0 0
257871.0 393212.0 0
258030.0 389827.0 0
260551.0 391697.0 0
263406.0 394155.0 0
266404.0 391584.0 0
269993.0 391812.0 0
272640.0 393132.0 0
274993.0 395255.0 0
275989.0 390897.0 0
278053.0 393859.0 0
281347.0 390446.0 0
280571.0 392767.0 0
283174.0 394157.0 0
285106.0 392239.0 0
287512.0 394954.0 0
291960.0 392313.0 0
288831.0 391087.0 0
290292.0 395491.0 0
296805.0 391699.0 0
294882.0 393747.0 0
298454.0 395009.0 0
300430.0 393734.0 0
303876.0 394780.0 0
305163.0 392282.0 0
308044.0 392589.0 0
308534.0 394531.0 0
312117.0 392112.0 0
310264.0 393969.0 0
313395.0 394776.0 0
316749.0 391764.0 0
316014.0 394451.0 0
318466.0 395782.0 0
319900.0 394279.0 0
324101.0 394029.0 0
322468.0 396663.0 0
327036.0 394824.0 0
329462.0 396091.0 0
160043.0 401984.0 0
164698.0 400467.0 0
166391.0 398546.0 0
168560.0 397336.0 0
167991.0 401066.0 0
170154.0 400421.0 0
173008.0 397996.0 0
172114.0 400941.0 0
175197.0 400988.0 0
175971.0 397782.0 0
178804.0 397700.0 0
177326.0 401838.0 0
179284.0 400244.0 0
181953.0 397033.0 0
183290.0 399605.0 0
182099.0 401817.0 0
185810.0 398693.0 0
187108.0 400907.0 0
189815.0 400073.0 0
190630.0 397191.0 0
193992.0 397622.0 0
193700.0 400485.0 0
199105.0 396270.0 0
197887.0 399265.0 0
196175.0 400680.0 0
199555.0 400562.0 0
204501.0 396107.0 0
201695.0 397511.0 0
201819.0 400232.0 0
204720.0 399269.0 0
207442.0 396312.0 0
209291.0 398914.0 0
212011.0 396922.0 0
213123.0 399352.0 0
216578.0 398441.0 0
219788.0 397240.0 0
224598.0 397645.0 0
220862.0 400359.0 0
223576.0 400476.0 0
227060.0 398570.0 0
229652.0 397831.0 0
231738.0 399146.0 0
234163.0 396935.0 0
236373.0 399319.0 0
238871.0 397214.0 0
242181.0 398221.0 0
245235.0 398390.0 0
250300.0 396710.0 0
253164.0 397914.0 0
255300.0 399693.0 0
255839.0 395276.0 0
258472.0 398197.0 0
260309.0 395134.0 0
261898.0 397935.0 0
264854.0 397700.0 0
267726.0 395635.0 0
267131.0 400563.0 0
270722.0 395618.0 0
273767.0 396919.0 0
271897.0 398638.0 0
274627.0 400253.0 0
276219.0 398039.0 0
278966.0 396921.0 0
279284.0 399800.0 0
282289.0 396828.0 0
286323.0 396806.0 0
284045.0 399153.0 0
289424.0 399899.0 0
292077.0 398690.0 0
294909.0 397103.0 0
297939.0 398072.0 0
296501.0 401011.0 0
301504.0 396778.0 0
300524.0 399870.0 0
303988.0 400727.0 0
305885.0 397439.0 0
309097.0 397932.0 0
312156.0 397342.0 0
309602.0 401438.0 0
314092.0 400015.0 0
315412.0 397891.0 0
316692.0 397427.0 0
318049.0 399490.0 0
316552.0 401291.0 0
319857.0 398058.0 0
321030.0 401053.0 0
323431.0 399759.0 0
326145.0 398148.0 0
328264.0 399467.0 0
331512.0 398464.0 0
333755.0 400061.0 0
336937.0 400731.0 0
153909.0 406292.0 0
156339.0 405359.0 0
158790.0 404341.0 0
162550.0 401790.0 0
161128.0 406585.0 0
168168.0 404132.0 0
164876.0 404695.0 0
170890.0 404870.0 0
173600.0 403488.0 0
179585.0 403246.0 0
175417.0 404771.0 0
177970.0 405077.0 0
184202.0 404627.0 0
181870.0 405884.0 0
185213.0 407436.0 0
186382.0 403217.0 0
189199.0 405040.0 0
191611.0 402972.0 0
194167.0 404783.0 0
197087.0 403606.0 0
199552.0 403449.0 0
202559.0 402922.0 0
202530.0 405716.0 0
206182.0 401418.0 0
210473.0 401337.0 0
206966.0 404186.0 0
209763.0 404367.0 0
215256.0 401792.0 0
212871.0 404216.0 0
215194.0 406517.0 0
218572.0 402720.0 0
220824.0 404549.0 0
223098.0 404152.0 0
225081.0 402949.0 0
227256.0 405132.0 0
227628.0 401105.0 0
230831.0 403025.0 0
234437.0 402091.0 0
236566.0 403636.0 0
238518.0 401015.0 0
238466.0 405379.0 0
241424.0 404889.0 0
241069.0 401340.0 0
243835.0 401462.0 0
245611.0 403011.0 0
248529.0 400881.0 0
251955.0 401908.0 0
254516.0 402434.0 0
257309.0 402337.0 0
257610.0 405611.0 0
260604.0 401726.0 0
260556.0 405147.0 0
263255.0 404999.0 0
263321.0 401290.0 0
265675.0 403688.0 0
268875.0 404536.0 0
269628.0 400101.0 0
271032.0 402646.0 0
273848.0 403537.0 0
277375.0 401232.0 0
276418.0 404626.0 0
280915.0 400600.0 0
282698.0 401726.0 0
279473.0 403085.0 0
281539.0 405516.0 0
284106.0 403683.0 0
286637.0 400578.0 0
286566.0 403793.0 0
294284.0 402036.0 0
289668.0 404072.0 0
292938.0 404896.0 0
297639.0 404587.0 0
299344.0 402991.0 0
301702.0 404785.0 0
304306.0 405962.0 0
306449.0 403187.0 0
309013.0 405447.0 0
312295.0 402302.0 0
313802.0 404591.0 0
319378.0 403853.0 0
316533.0 405625.0 0
323869.0 403621.0 0
321937.0 405593.0 0
325362.0 402046.0 0
328079.0 402819.0 0
327175.0 405812.0 0
330646.0 403125.0 0
334067.0 403544.0 0
332157.0 405772.0 0
336598.0 404780.0 0
339240.0 403041.0 0
341780.0 404903.0 0
344462.0 406434.0 0
147536.0 411340.0 0
149675.0 409525.0 0
152035.0 408037.0 0
154192.0 410885.0 0
156768.0 408981.0 0
159673.0 409533.0 0
164195.0 407641.0 0
162049.0 411083.0 0
167703.0 407716.0 0
168875.0 409611.0 0
164609.0 410189.0 0
172011.0 407726.0 0
174607.0 407978.0 0
171686.0 410789.0 0
174322.0 411254.0 0
177678.0 408252.0 0
177977.0 410985.0 0
181029.0 408031.0 0
183562.0 409307.0 0
180863.0 410196.0 0
188388.0 408042.0 0
187523.0 411191.0 0
191875.0 407262.0 0
194371.0 407824.0 0
191120.0 409534.0 0
191831.0 411471.0 0
195023.0 410714.0 0
197632.0 406832.0 0
198670.0 411330.0 0
200195.0 408012.0 0
203002.0 409539.0 0
205427.0 406891.0 0
209244.0 407572.0 0
207110.0 409665.0 0
212130.0 408502.0 0
214456.0 409684.0 0
217306.0 406792.0 0
219925.0 408509.0 0
223491.0 406931.0 0
225707.0 407710.0 0
229178.0 408218.0 0
235024.0 406010.0 0
231484.0 409704.0 0
232574.0 406259.0 0
234221.0 410081.0 0
237358.0 409161.0 0
240849.0 408846.0 0
243155.0 409967.0 0
244354.0 405788.0 0
246748.0 407978.0 0
248917.0 405280.0 0
251582.0 406581.0 0
250991.0 410032.0 0
253983.0 410145.0 0
254557.0 405927.0 0
255619.0 408975.0 0
258211.0 409817.0 0
263811.0 407015.0 0
261161.0 408512.0 0
265817.0 408340.0 0
268126.0 407217.0 0
272036.0 406338.0 0
270775.0 409294.0 0
274251.0 407291.0 0
276070.0 409588.0 0
278143.0 407398.0 0
283530.0 408795.0 0
286294.0 406513.0 0
288908.0 407964.0 0
287012.0 410381.0 0
291781.0 408242.0 0
290755.0 411083.0 0
294172.0 409919.0 0
296296.0 407429.0 0
298980.0 409524.0 0
300621.0 406778.0 0
304338.0 408652.0 0
302189.0 410640.0 0
307426.0 407507.0 0
306978.0 410063.0 0
311644.0 407268.0 0
310080.0 409758.0 0
314074.0 409541.0 0
316626.0 408544.0 0
319220.0 407437.0 0
319078.0 410901.0 0
324733.0 407607.0 0
321535.0 409399.0 0
329936.0 407279.0 0
329555.0 409684.0 0
326362.0 410608.0 0
333813.0 407794.0 0
331623.0 412200.0 0
333803.0 410426.0 0
336633.0 407207.0 0
339926.0 407219.0 0
338217.0 409206.0 0
336458.0 411177.0 0
343105.0 409615.0 0
340588.0 410258.0 0
344415.0 411477.0 0
347263.0 407393.0 0
349573.0 409278.0 0
346469.0 410506.0 0
349795.0 412163.0 0
352536.0 410390.0 0
354582.0 412120.0 0
139230.0 415383.0 0
142096.0 414520.0 0
144999.0 413088.0 0
147028.0 416125.0 0
151750.0 413140.0 0
149627.0 414824.0 0
149776.0 417111.0 0
153043.0 416042.0 0
156392.0 412972.0 0
155712.0 415322.0 0
158850.0 412485.0 0
158337.0 415989.0 0
162240.0 413186.0 0
160277.0 414615.0 0
166867.0 412544.0 0
164493.0 414776.0 0
168803.0 415546.0 0
170766.0 412613.0 0
171978.0 415325.0 0
175027.0 414019.0 0
178225.0 416215.0 0
180578.0 413128.0 0
184073.0 412452.0 0
189813.0 413446.0 0
184966.0 415941.0 0
188095.0 415756.0 0
192247.0 415279.0 0
195057.0 414250.0 0
197289.0 416474.0 0
204313.0 412298.0 0
201012.0 413190.0 0
200497.0 416276.0 0
202853.0 415029.0 0
209907.0 412114.0 0
206270.0 414925.0 0
209847.0 415555.0 0
212826.0 413369.0 0
215090.0 413074.0 0
216226.0 411062.0 0
217201.0 415359.0 0
218514.0 412719.0 0
225208.0 411570.0 0
222504.0 410989.0 0
221289.0 413908.0 0
224053.0 415746.0 0
228015.0 411990.0 0
227504.0 415977.0 0
230640.0 412584.0 0
230156.0 415520.0 0
233450.0 413615.0 0
236231.0 414576.0 0
238775.0 412823.0 0
241554.0 413188.0 0
244409.0 415107.0 0
245170.0 411778.0 0
247788.0 415088.0 0
248244.0 411201.0 0
250603.0 414812.0 0
253496.0 413582.0 0
257097.0 413596.0 0
263341.0 411018.0 0
260410.0 412779.0 0
262646.0 415116.0 0
268423.0 411451.0 0
265816.0 412549.0 0
266006.0 416289.0 0
269369.0 414749.0 0
273365.0 411272.0 0
271867.0 413769.0 0
275779.0 414556.0 0
278075.0 412613.0 0
279350.0 415162.0 0
281061.0 411312.0 0
282492.0 414920.0 0
284939.0 412577.0 0
286805.0 414056.0 0
288567.0 412669.0 0
293924.0 413842.0 0
290600.0 415652.0 0
297706.0 412945.0 0
300890.0 413222.0 0
303982.0 413304.0 0
299882.0 416281.0 0
302635.0 415550.0 0
307081.0 413490.0 0
307209.0 416905.0 0
310665.0 413133.0 0
313631.0 412626.0 0
310816.0 416840.0 0
314707.0 416592.0 0
316458.0 412381.0 0
317416.0 415347.0 0
320390.0 414005.0 0
323135.0 411647.0 0
322817.0 413996.0 0
324998.0 416802.0 0
326299.0 413890.0 0
330177.0 415240.0 0
335173.0 414308.0 0
334111.0 416812.0 0
337616.0 413412.0 0
338561.0 415917.0 0
340538.0 413060.0 0
345384.0 414812.0 0
342434.0 415408.0 0
347312.0 413248.0 0
349872.0 416946.0 0
350902.0 414793.0 0
354044.0 414679.0 0
354710.0 417154.0 0
357347.0 413118.0 0
359046.0 415317.0 0
361887.0 415682.0 0
363675.0 417308.0 0
131591.0 419373.0 0
129971.0 421685.0 0
133284.0 422059.0 0
134839.0 419231.0 0
137279.0 417735.0 0
137545.0 421604.0 0
140087.0 419385.0 0
142488.0 417760.0 0
141002.0 421582.0 0
143877.0 421697.0 0
145683.0 419105.0 0
148551.0 420862.0 0
151958.0 419288.0 0
153708.0 422070.0 0
155456.0 418613.0 0
157649.0 418553.0 0
162281.0 417569.0 0
159568.0 420649.0 0
164773.0 419344.0 0
167567.0 418160.0 0
167679.0 421840.0 0
170244.0 419475.0 0
172533.0 418611.0 0
174884.0 418530.0 0
175812.0 420922.0 0
178720.0 420007.0 0
182190.0 417282.0 0
182351.0 420152.0 0
185892.0 419461.0 0
189029.0 418409.0 0
189730.0 421318.0 0
191784.0 417829.0 0
191687.0 420416.0 0
194775.0 418609.0 0
194330.0 421333.0 0
196743.0 421615.0 0
198672.0 419625.0 0
202725.0 417398.0 0
204164.0 420326.0 0
206987.0 417950.0 0
209381.0 419857.0 0
211555.0 417183.0 0
214532.0 415998.0 0
212021.0 421783.0 0
214275.0 419499.0 0
217280.0 417832.0 0
220245.0 416799.0 0
217020.0 420486.0 0
220369.0 419834.0 0
224013.0 419526.0 0
226969.0 419810.0 0
229412.0 418763.0 0
230991.0 421300.0 0
232467.0 417550.0 0
234444.0 420841.0 0
239378.0 416055.0 0
236637.0 417941.0 0
239041.0 420284.0 0
241447.0 417410.0 0
244704.0 419919.0 0
248110.0 418578.0 0
251089.0 418297.0 0
253755.0 417322.0 0
256470.0 417250.0 0
257455.0 420904.0 0
260000.0 417445.0 0
263376.0 419395.0 0
267657.0 420232.0 0
273674.0 416662.0 0
270749.0 417985.0 0
273430.0 420678.0 0
278199.0 417014.0 0
276250.0 418818.0 0
278287.0 421226.0 0
281742.0 419214.0 0
285742.0 416549.0 0
288640.0 418183.0 0
285388.0 420821.0 0
293574.0 418867.0 0
296631.0 417580.0 0
297454.0 421093.0 0
304510.0 417337.0 0
300837.0 419786.0 0
303585.0 419262.0 0
305648.0 422091.0 0
307841.0 420042.0 0
311202.0 420845.0 0
318828.0 418983.0 0
315309.0 420501.0 0
320196.0 420583.0 0
320227.0 416839.0 0
322642.0 417888.0 0
321464.0 422209.0 0
322997.0 420465.0 0
329362.0 418580.0 0
326874.0 419157.0 0
325569.0 421701.0 0
333500.0 419466.0 0
331043.0 420546.0 0
335225.0 421688.0 0
337541.0 417934.0 0
337774.0 420519.0 0
340619.0 418268.0 0
343733.0 418612.0 0
341646.0 421144.0 0
347087.0 417429.0 0
346310.0 419809.0 0
350432.0 419453.0 0
348853.0 421722.0 0
353093.0 419176.0 0
354188.0 421913.0 0
357965.0 417908.0 0
360516.0 419012.0 0
357204.0 420860.0 0
362859.0 419065.0 0
362152.0 422024.0 0
365300.0 421169.0 0
365980.0 418065.0 0
367514.0 420328.0 0
370011.0 421100.0 0
121985.0 426818.0 0
124853.0 425132.0 0
127753.0 423769.0 0
128414.0 427736.0 0
130509.0 425662.0 0
134151.0 425345.0 0
137544.0 423822.0 0
138653.0 426275.0 0
141091.0 424346.0 0
143580.0 426842.0 0
145500.0 423674.0 0
148686.0 423870.0 0
147385.0 426393.0 0
151552.0 425195.0 0
153910.0 426743.0 0
156633.0 422905.0 0
157432.0 425915.0 0
161462.0 422779.0 0
164586.0 422764.0 0
160388.0 425418.0 0
162168.0 427265.0 0
165471.0 426177.0 0
168795.0 425608.0 0
170184.0 422569.0 0
173413.0 423006.0 0
171174.0 427140.0 0
178869.0 423127.0 0
176292.0 425451.0 0
182415.0 423542.0 0
182252.0 427143.0 0
186617.0 423013.0 0
189426.0 425535.0 0
192446.0 424181.0 0
195624.0 425200.0 0
198119.0 423979.0 0
200918.0 421707.0 0
202304.0 424907.0 0
206752.0 423214.0 0
210122.0 424611.0 0
214201.0 423635.0 0
212853.0 425875.0 0
217031.0 423995.0 0
220734.0 423331.0 0
223731.0 422648.0 0
224331.0 425595.0 0
225871.0 423580.0 0
228145.0 422650.0 0
229497.0 425993.0 0
232652.0 424611.0 0
236671.0 423408.0 0
239255.0 425242.0 0
241638.0 422097.0 0
243175.0 425830.0 0
249102.0 421443.0 0
246830.0 424014.0 0
254539.0 420133.0 0
250560.0 424923.0 0
251882.0 421801.0 0
253199.0 425711.0 0
254656.0 423713.0 0
257211.0 425265.0 0
261203.0 423048.0 0
265265.0 423691.0 0
268592.0 426158.0 0
270777.0 423018.0 0
273780.0 425711.0 0
275963.0 423165.0 0
277735.0 425786.0 0
280328.0 424333.0 0
282968.0 423377.0 0
287516.0 423556.0 0
284694.0 425186.0 0
288526.0 426848.0 0
291318.0 421860.0 0
291809.0 426422.0 0
295080.0 423394.0 0
299138.0 424215.0 0
302360.0 423502.0 0
307529.0 426150.0 0
310502.0 424141.0 0
314695.0 424150.0 0
312948.0 425503.0 0
318241.0 422989.0 0
316945.0 425591.0 0
324005.0 424449.0 0
320991.0 425434.0 0
327958.0 423466.0 0
326485.0 426531.0 0
330827.0 423546.0 0
334278.0 424323.0 0
330634.0 426573.0 0
339292.0 423369.0 0
338169.0 426496.0 0
342372.0 424980.0 0
344210.0 422670.0 0
341827.0 427239.0 0
344704.0 427366.0 0
346212.0 424858.0 0
349042.0 426643.0 0
351140.0 423713.0 0
355604.0 424855.0 0
352989.0 426075.0 0
359398.0 423019.0 0
358306.0 426720.0 0
363744.0 424586.0 0
362528.0 427009.0 0
367892.0 423463.0 0
370018.0 424510.0 0
366284.0 424889.0 0
367059.0 427215.0 0
369989.0 426789.0 0
372066.0 422817.0 0
374443.0 424372.0 0
373045.0 427024.0 0
377325.0 425815.0 0
112653.0 432660.0 0
118470.0 428284.0 0
115689.0 431108.0 0
118525.0 431290.0 0
121703.0 429881.0 0
123087.0 432681.0 0
125546.0 428462.0 0
126312.0 431077.0 0
130162.0 431166.0 0
134181.0 429542.0 0
138252.0 428190.0 0
136690.0 432733.0 0
140687.0 428997.0 0
140168.0 431718.0 0
145477.0 430299.0 0
149610.0 428791.0 0
153976.0 429238.0 0
150314.0 432110.0 0
153490.0 431360.0 0
157511.0 428925.0 0
157183.0 431601.0 0
160106.0 429239.0 0
162451.0 430792.0 0
165227.0 429932.0 0
167804.0 428623.0 0
169119.0 429778.0 0
166985.0 431549.0 0
173930.0 429120.0 0
170817.0 431474.0 0
178959.0 427498.0 0
179238.0 430334.0 0
176983.0 430429.0 0
182235.0 430490.0 0
184764.0 429954.0 0
185791.0 427255.0 0
187441.0 429301.0 0
186718.0 432063.0 0
190287.0 428951.0 0
192801.0 427663.0 0
193240.0 431128.0 0
196059.0 428606.0 0
199590.0 426988.0 0
197980.0 431717.0 0
205286.0 427450.0 0
201458.0 430000.0 0
209160.0 427670.0 0
206290.0 431427.0 0
209656.0 431044.0 0
213129.0 429221.0 0
217468.0 428370.0 0
221365.0 426657.0 0
220801.0 430903.0 0
223213.0 429558.0 0
226623.0 427864.0 0
228595.0 431024.0 0
234643.0 427608.0 0
231315.0 429160.0 0
234017.0 431730.0 0
237852.0 428457.0 0
237164.0 431483.0 0
241160.0 429466.0 0
244124.0 431531.0 0
245028.0 428661.0 0
247875.0 428125.0 0
251060.0 428816.0 0
254806.0 428246.0 0
258068.0 428807.0 0
261321.0 427692.0 0
265039.0 428153.0 0
268687.0 430627.0 0
271485.0 428083.0 0
272174.0 431654.0 0
275763.0 429090.0 0
282208.0 426830.0 0
279630.0 428862.0 0
283256.0 431805.0 0
285133.0 428516.0 0
288792.0 430224.0 0
292440.0 430797.0 0
295676.0 426957.0 0
299260.0 427521.0 0
303082.0 427373.0 0
301151.0 430882.0 0
306668.0 430207.0 0
309802.0 432145.0 0
310688.0 428462.0 0
313245.0 428114.0 0
312596.0 431111.0 0
315930.0 427180.0 0
317448.0 429231.0 0
319790.0 428302.0 0
315180.0 430488.0 0
319092.0 432037.0 0
323958.0 428227.0 0
322554.0 431172.0 0
328710.0 429074.0 0
326618.0 431812.0 0
333736.0 427600.0 0
332913.0 431018.0 0
337828.0 430085.0 0
342242.0 429719.0 0
340903.0 432253.0 0
345613.0 430230.0 0
349614.0 430295.0 0
353036.0 428075.0 0
355497.0 429244.0 0
353197.0 432605.0 0
360132.0 429837.0 0
356826.0 431297.0 0
358915.0 432608.0 0
364919.0 428975.0 0
362643.0 430757.0 0
369542.0 429715.0 0
367003.0 431635.0 0
372523.0 430626.0 0
375774.0 427834.0 0
375701.0 431286.0 0
378411.0 429945.0 0
379787.0 427759.0 0
380473.0 431619.0 0
382649.0 429544.0 0
385083.0 431792.0 0
388084.0 432478.0 0
107176.0 435389.0 0
104875.0 437896.0 0
109848.0 434265.0 0
110877.0 437513.0 0
114071.0 435952.0 0
116478.0 434398.0 0
118413.0 435301.0 0
118023.0 437467.0 0
119263.0 433171.0 0
120855.0 434901.0 0
121478.0 437107.0 0
125232.0 435047.0 0
127908.0 434633.0 0
131883.0 434641.0 0
133775.0 435849.0 0
129988.0 436217.0 0
137695.0 436017.0 0
141104.0 435977.0 0
143007.0 433251.0 0
145508.0 435389.0 0
147555.0 432985.0 0
148188.0 435592.0 0
151290.0 435457.0 0
154783.0 433970.0 0
156818.0 436544.0 0
159855.0 433170.0 0
163699.0 432807.0 0
162135.0 435381.0 0
165143.0 433295.0 0
167951.0 433850.0 0
165666.0 436880.0 0
170896.0 434356.0 0
174110.0 432887.0 0
173713.0 435866.0 0
176609.0 433355.0 0
179381.0 433120.0 0
176478.0 436074.0 0
179598.0 436158.0 0
183469.0 433783.0 0
187569.0 436405.0 0
190226.0 433130.0 0
195066.0 433456.0 0
192483.0 435518.0 0
196079.0 436087.0 0
199197.0 434976.0 0
202804.0 433484.0 0
207236.0 434297.0 0
204880.0 436314.0 0
210913.0 434102.0 0
214090.0 432607.0 0
213993.0 435606.0 0
217335.0 432943.0 0
217066.0 436569.0 0
225007.0 432625.0 0
221103.0 434196.0 0
224028.0 436258.0 0
227685.0 436012.0 0
230833.0 433648.0 0
233817.0 436028.0 0
240002.0 432985.0 0
236613.0 434588.0 0
239361.0 436720.0 0
243667.0 435107.0 0
247191.0 431655.0 0
247131.0 435236.0 0
250515.0 433137.0 0
254464.0 432013.0 0
253025.0 435890.0 0
258179.0 432160.0 0
256261.0 435723.0 0
261833.0 432058.0 0
260334.0 436434.0 0
264537.0 435892.0 0
265574.0 432361.0 0
269178.0 435364.0 0
273027.0 435179.0 0
275941.0 433341.0 0
279327.0 432397.0 0
275506.0 437433.0 0
278991.0 436196.0 0
282991.0 435966.0 0
287341.0 433005.0 0
287557.0 437215.0 0
291266.0 434785.0 0
294730.0 435521.0 0
296898.0 432050.0 0
299071.0 436346.0 0
304536.0 432284.0 0
301716.0 434546.0 0
304788.0 435978.0 0
307492.0 434463.0 0
309148.0 436587.0 0
312016.0 434980.0 0
315734.0 433927.0 0
319245.0 435539.0 0
322363.0 435021.0 0
325736.0 434896.0 0
328665.0 437033.0 0
330439.0 434298.0 0
334992.0 434334.0 0
333408.0 436672.0 0
336791.0 432979.0 0
339073.0 434927.0 0
337063.0 437156.0 0
344327.0 433949.0 0
341476.0 436686.0 0
344734.0 437729.0 0
348163.0 434277.0 0
348320.0 437175.0 0
351244.0 435225.0 0
355772.0 435162.0 0
351219.0 437721.0 0
358597.0 437357.0 0
363396.0 433002.0 0
361108.0 434804.0 0
365571.0 435028.0 0
369271.0 433864.0 0
368601.0 436339.0 0
371019.0 437457.0 0
371844.0 433924.0 0
374010.0 435574.0 0
376779.0 434341.0 0
379492.0 433311.0 0
378632.0 436943.0 0
381968.0 433635.0 0
385511.0 435420.0 0
382189.0 436582.0 0
390273.0 434389.0 0
388259.0 437288.0 0
393186.0 436124.0 0
395888.0 437578.0 0
98529.5 441600.0 0
101082.0 439348.0 0
108166.0 439518.0 0
103633.0 441463.0 0
112856.0 440085.0 0
109005.0 442715.0 0
115678.0 438501.0 0
116633.0 441410.0 0
119858.0 438563.0 0
123211.0 440899.0 0
119921.0 441416.0 0
124153.0 437997.0 0
127230.0 438704.0 0
126476.0 441620.0 0
129954.0 438785.0 0
133171.0 438986.0 0
129771.0 441701.0 0
132830.0 442583.0 0
136106.0 439208.0 0
139034.0 439422.0 0
136389.0 441717.0 0
139090.0 441894.0 0
142158.0 438826.0 0
142349.0 442279.0 0
145287.0 438143.0 0
148786.0 438453.0 0
146303.0 441904.0 0
151102.0 440216.0 0
153007.0 437902.0 0
154972.0 440421.0 0
157815.0 441437.0 0
159824.0 438438.0 0
163147.0 440714.0 0
167405.0 439951.0 0
169707.0 437500.0 0
169276.0 440425.0 0
172630.0 438810.0 0
175948.0 439053.0 0
179159.0 439339.0 0
175616.0 442395.0 0
178927.0 442823.0 0
183170.0 437986.0 0
182077.0 441684.0 0
186675.0 439680.0 0
185133.0 441531.0 0
188487.0 440910.0 0
190390.0 438284.0 0
193964.0 438895.0 0
191244.0 442296.0 0
197461.0 438270.0 0
198462.0 440686.0 0
195688.0 441679.0 0
201409.0 441869.0 0
201244.0 438039.0 0
209171.0 437652.0 0
205329.0 440648.0 0
213039.0 439059.0 0
216526.0 440735.0 0
220714.0 438758.0 0
224770.0 439426.0 0
228909.0 440105.0 0
231295.0 437464.0 0
232762.0 440922.0 0
236330.0 438712.0 0
239531.0 441808.0 0
242123.0 438775.0 0
245625.0 438853.0 0
249746.0 438375.0 0
253985.0 439476.0 0
257469.0 439213.0 0
259911.0 441494.0 0
263266.0 439689.0 0
266970.0 438743.0 0
272602.0 438230.0 0
269994.0 440300.0 0
274495.0 441769.0 0
278164.0 439999.0 0
281809.0 439633.0 0
285009.0 442032.0 0
284423.0 439639.0 0
287959.0 441590.0 0
293164.0 437762.0 0
290908.0 439489.0 0
295928.0 437867.0 0
295031.0 441596.0 0
299000.0 440106.0 0
302829.0 438567.0 0
307044.0 437945.0 0
305707.0 441229.0 0
309061.0 440835.0 0
312438.0 439350.0 0
315800.0 437765.0 0
318808.0 438962.0 0
316377.0 441591.0 0
319291.0 442168.0 0
322180.0 438935.0 0
325584.0 438269.0 0
329486.0 440372.0 0
326084.0 442364.0 0
331883.0 438768.0 0
333606.0 440773.0 0
335701.0 439890.0 0
340024.0 439451.0 0
338183.0 442433.0 0
342923.0 440443.0 0
345931.0 442648.0 0
347678.0 440313.0 0
353942.0 437784.0 0
350978.0 441783.0 0
354398.0 441320.0 0
357109.0 440132.0 0
361705.0 439908.0 0
364148.0 438041.0 0
367512.0 438536.0 0
369891.0 440287.0 0
366811.0 441900.0 0
373624.0 438185.0 0
372839.0 440983.0 0
376164.0 438976.0 0
375691.0 441888.0 0
379465.0 441093.0 0
383251.0 439772.0 0
386772.0 440220.0 0
391792.0 438892.0 0
395591.0 440103.0 0
391651.0 441548.0 0
398909.0 439417.0 0
399507.0 442238.0 0
401931.0 441146.0 0
89850.9 446897.0 0
92645.1 444892.0 0
95473.5 443150.0 0
97506.6 445761.0 0
94860.5 447530.0 0
101061.0 443802.0 0
98957.5 447907.0 0
101969.0 446461.0 0
105513.0 443584.0 0
105359.0 446497.0 0
108686.0 445641.0 0
112615.0 443182.0 0
112948.0 446312.0 0
110045.0 447940.0 0
116233.0 444485.0 0
117758.0 447020.0 0
119899.0 444557.0 0
123540.0 443532.0 0
122294.0 445966.0 0
125811.0 444503.0 0
128731.0 443583.0 0
124010.0 448015.0 0
127913.0 447489.0 0
131210.0 445708.0 0
133872.0 447425.0 0
135703.0 444376.0 0
138545.0 444002.0 0
137831.0 447501.0 0
140633.0 445275.0 0
144255.0 446101.0 0
149300.0 443734.0 0
147969.0 448067.0 0
153188.0 444021.0 0
156774.0 444637.0 0
160610.0 443958.0 0
164219.0 445975.0 0
166435.0 443063.0 0
169100.0 445942.0 0
171752.0 442720.0 0
173417.0 445845.0 0
175734.0 445260.0 0
179449.0 446849.0 0
183244.0 444660.0 0
187037.0 444309.0 0
194230.0 445362.0 0
190138.0 446661.0 0
198829.0 444492.0 0
197423.0 447858.0 0
203056.0 445040.0 0
206592.0 444830.0 0
209609.0 442340.0 0
213231.0 443837.0 0
219202.0 442858.0 0
216619.0 444790.0 0
219369.0 445329.0 0
222506.0 443301.0 0
226212.0 442595.0 0
225577.0 446499.0 0
229939.0 445102.0 0
233869.0 445645.0 0
235789.0 442890.0 0
237737.0 446014.0 0
243628.0 442253.0 0
241515.0 445800.0 0
247344.0 442270.0 0
245207.0 445852.0 0
248781.0 445854.0 0
251261.0 443189.0 0
255906.0 444291.0 0
262457.0 443806.0 0
260495.0 446887.0 0
266380.0 443376.0 0
268402.0 446838.0 0
271188.0 444443.0 0
275048.0 446563.0 0
278120.0 444445.0 0
281448.0 442877.0 0
284323.0 444946.0 0
281817.0 446753.0 0
287274.0 445351.0 0
290751.0 443497.0 0
294357.0 446315.0 0
298277.0 445062.0 0
301929.0 443183.0 0
309809.0 444200.0 0
306699.0 445993.0 0
313666.0 444259.0 0
318339.0 445414.0 0
322154.0 442942.0 0
322060.0 446500.0 0
325172.0 446007.0 0
329322.0 445034.0 0
331645.0 442930.0 0
334936.0 444916.0 0
332562.0 447698.0 0
340634.0 445307.0 0
337817.0 447895.0 0
342977.0 443575.0 0
345912.0 446428.0 0
348962.0 444910.0 0
352523.0 446129.0 0
355948.0 444991.0 0
359982.0 443445.0 0
360934.0 447501.0 0
364254.0 443659.0 0
364661.0 447284.0 0
366694.0 445341.0 0
369076.0 444422.0 0
368114.0 447914.0 0
371784.0 443555.0 0
375291.0 445503.0 0
371746.0 447883.0 0
378629.0 444011.0 0
380918.0 445757.0 0
382172.0 443334.0 0
384905.0 444008.0 0
383565.0 447029.0 0
386426.0 447506.0 0
388956.0 443818.0 0
389461.0 447805.0 0
395504.0 443534.0 0
393191.0 446601.0 0
398645.0 445849.0 0
401527.0 444577.0 0
404319.0 443289.0 0
402065.0 446987.0 0
405035.0 447098.0 0
407428.0 444623.0 0
410011.0 446750.0 0
80298.8 452869.0 0
83443.3 450218.0 0
86611.0 448976.0 0
83669.4 452885.0 0
86761.5 452495.0 0
89764.9 450671.0 0
92374.9 448632.0 0
92656.0 451007.0 0
95764.6 450034.0 0
95533.9 452547.0 0
99112.5 450733.0 0
102255.0 449620.0 0
102880.0 452700.0 0
106240.0 449749.0 0
108106.0 452553.0 0
111539.0 451055.0 0
114999.0 449000.0 0
117756.0 451435.0 0
114861.0 453000.0 0
120303.0 449269.0 0
122073.0 451958.0 0
124839.0 450812.0 0
129702.0 450687.0 0
133408.0 450952.0 0
137376.0 450576.0 0
141055.0 448544.0 0
139913.0 450947.0 0
143509.0 450147.0 0
146870.0 452343.0 0
152473.0 449086.0 0
156444.0 447953.0 0
157951.0 451014.0 0
160515.0 447858.0 0
162841.0 450528.0 0
166249.0 448878.0 0
168081.0 452707.0 0
171577.0 449209.0 0
175426.0 448848.0 0
176778.0 452281.0 0
180843.0 450630.0 0
183954.0 447848.0 0
186748.0 447978.0 0
184703.0 451694.0 0
189070.0 450672.0 0
193496.0 450507.0 0
198356.0 451735.0 0
201004.0 448227.0 0
202441.0 451336.0 0
205410.0 448989.0 0
208605.0 450875.0 0
209646.0 446992.0 0
213851.0 447728.0 0
211594.0 450332.0 0
217296.0 448306.0 0
218711.0 451275.0 0
221433.0 447964.0 0
221807.0 452248.0 0
224659.0 450143.0 0
227953.0 449776.0 0
231470.0 449532.0 0
235050.0 449118.0 0
239408.0 449602.0 0
236762.0 452028.0 0
243149.0 449859.0 0
247426.0 449658.0 0
252129.0 448877.0 0
257185.0 450167.0 0
264385.0 448238.0 0
261320.0 452398.0 0
267832.0 449479.0 0
271713.0 449116.0 0
278947.0 449243.0 0
275533.0 451078.0 0
284748.0 447817.0 0
283309.0 452072.0 0
287364.0 449532.0 0
290622.0 447697.0 0
290774.0 451969.0 0
294146.0 450400.0 0
298204.0 449399.0 0
302444.0 448007.0 0
306003.0 450560.0 0
311111.0 449374.0 0
315651.0 448584.0 0
319864.0 450639.0 0
324414.0 449646.0 0
328097.0 448497.0 0
327728.0 452620.0 0
331425.0 451649.0 0
335430.0 450584.0 0
340403.0 450937.0 0
343065.0 448085.0 0
344755.0 452324.0 0
346608.0 449448.0 0
349555.0 448826.0 0
348888.0 452773.0 0
353484.0 449374.0 0
352028.0 451912.0 0
355509.0 452058.0 0
357273.0 448801.0 0
359146.0 452797.0 0
361824.0 450705.0 0
364708.0 450513.0 0
367935.0 450781.0 0
371164.0 451377.0 0
374767.0 449604.0 0
374451.0 452331.0 0
378635.0 448590.0 0
378213.0 452429.0 0
382561.0 449821.0 0
386125.0 450169.0 0
381629.0 453199.0 0
384875.0 452995.0 0
389680.0 451026.0 0
394595.0 450970.0 0
398322.0 448787.0 0
401885.0 450631.0 0
405517.0 452365.0 0
407765.0 449281.0 0
411099.0 450740.0 0
413165.0 448481.0 0
416182.0 451047.0 0
413301.0 452674.0 0
420471.0 453350.0 0
70902.4 457636.0 0
74019.0 456117.0 0
77039.1 454315.0 0
77311.6 457447.0 0
80558.1 456217.0 0
84054.8 455969.0 0
87591.7 456376.0 0
89926.6 453421.0 0
91159.9 457640.0 0
93077.5 454388.0 0
96064.4 456478.0 0
98275.8 453876.0 0
100683.0 455529.0 0
103124.0 457362.0 0
105182.0 454657.0 0
106999.0 456941.0 0
109645.0 455457.0 0
112412.0 454556.0 0
116411.0 455577.0 0
113629.0 457442.0 0
119270.0 454363.0 0
123452.0 455731.0 0
120034.0 457796.0 0
126926.0 453402.0 0
127057.0 456951.0 0
130236.0 454326.0 0
129333.0 456357.0 0
133066.0 454987.0 0
131236.0 457358.0 0
137137.0 454190.0 0
134890.0 457901.0 0
141882.0 454301.0 0
146180.0 456790.0 0
150572.0 453764.0 0
149842.0 457674.0 0
153489.0 457040.0 0
155046.0 453126.0 0
157574.0 456610.0 0
160124.0 453499.0 0
162170.0 456899.0 0
164264.0 453577.0 0
166448.0 456953.0 0
172484.0 453737.0 0
169737.0 456412.0 0
171383.0 457769.0 0
175334.0 457193.0 0
180630.0 455241.0 0
187986.0 454462.0 0
184899.0 456129.0 0
191228.0 454700.0 0
195027.0 454944.0 0
198512.0 455747.0 0
201474.0 454391.0 0
205819.0 454353.0 0
209651.0 457594.0 0
210810.0 453748.0 0
213578.0 456408.0 0
214945.0 452264.0 0
218440.0 455595.0 0
222930.0 455353.0 0
225721.0 453215.0 0
229224.0 453310.0 0
233018.0 453352.0 0
230489.0 456727.0 0
236395.0 455309.0 0
240680.0 454622.0 0
243930.0 457283.0 0
249093.0 453275.0 0
245090.0 453669.0 0
247131.0 456845.0 0
252058.0 453332.0 0
254613.0 453101.0 0
250927.0 456522.0 0
254363.0 456335.0 0
257806.0 454885.0 0
263776.0 456379.0 0
260626.0 457215.0 0
265592.0 452929.0 0
269300.0 452788.0 0
272961.0 453691.0 0
270029.0 455365.0 0
275727.0 454070.0 0
278837.0 454423.0 0
275586.0 456859.0 0
282271.0 457811.0 0
287916.0 453257.0 0
286558.0 456674.0 0
293511.0 453956.0 0
290879.0 456156.0 0
294547.0 456783.0 0
296920.0 453629.0 0
299192.0 457357.0 0
301889.0 453091.0 0
305704.0 453933.0 0
304416.0 457504.0 0
308154.0 456036.0 0
308768.0 452873.0 0
311892.0 454434.0 0
311154.0 458259.0 0
314359.0 457406.0 0
315580.0 453334.0 0
320354.0 455441.0 0
317632.0 456915.0 0
324012.0 453778.0 0
323859.0 457985.0 0
327512.0 456297.0 0
334462.0 454149.0 0
331132.0 455880.0 0
335220.0 457968.0 0
338296.0 454359.0 0
342358.0 455564.0 0
346215.0 456347.0 0
350571.0 456842.0 0
353853.0 454483.0 0
357513.0 455996.0 0
362849.0 453929.0 0
361606.0 456581.0 0
365385.0 457480.0 0
365986.0 453675.0 0
369751.0 454995.0 0
373898.0 455466.0 0
377851.0 456009.0 0
381487.0 456452.0 0
384683.0 456603.0 0
388591.0 454632.0 0
388631.0 458158.0 0
392832.0 455396.0 0
396354.0 456469.0 0
398670.0 453600.0 0
399478.0 457193.0 0
402285.0 455298.0 0
406184.0 457663.0 0
409486.0 454148.0 0
410651.0 457991.0 0
413593.0 456042.0 0
417387.0 454872.0 0
421870.0 456577.0 0
419010.0 458196.0 0
423930.0 454614.0 0
426383.0 457366.0 0
65166.9 461655.0 0
68542.8 460260.0 0
67513.1 463680.0 0
71200.2 462967.0 0
73234.1 459475.0 0
75695.6 461342.0 0
78870.5 460421.0 0
82414.3 459709.0 0
81852.3 463276.0 0
86376.9 460698.0 0
90193.3 461809.0 0
94363.8 459717.0 0
96902.8 461667.0 0
98604.7 458500.0 0
101236.0 459894.0 0
99635.0 462595.0 0
103204.0 462892.0 0
105722.0 460151.0 0
107943.0 463419.0 0
110347.0 459314.0 0
112444.0 462624.0 0
114591.0 460380.0 0
117100.0 458835.0 0
116269.0 462651.0 0
119659.0 461731.0 0
124175.0 460455.0 0
128380.0 459256.0 0
128348.0 463108.0 0
131666.0 460572.0 0
135286.0 461840.0 0
138737.0 458329.0 0
142871.0 459144.0 0
139654.0 462505.0 0
143519.0 462511.0 0
146994.0 461082.0 0
151518.0 460912.0 0
155491.0 460482.0 0
159825.0 460532.0 0
164220.0 460895.0 0
168622.0 460407.0 0
172563.0 461103.0 0
178986.0 459675.0 0
176050.0 461665.0 0
183479.0 460466.0 0
188262.0 458356.0 0
187211.0 463073.0 0
192589.0 458305.0 0
190655.0 461492.0 0
194184.0 462933.0 0
196780.0 459168.0 0
201691.0 458634.0 0
203910.0 462910.0 0
205857.0 458861.0 0
208373.0 461740.0 0
212448.0 460650.0 0
215997.0 459486.0 0
219535.0 460671.0 0
221900.0 457920.0 0
223627.0 461115.0 0
226392.0 457472.0 0
228950.0 460291.0 0
233818.0 457458.0 0
231594.0 460115.0 0
237307.0 458223.0 0
235059.0 461704.0 0
240769.0 460277.0 0
245347.0 461303.0 0
249233.0 459838.0 0
252906.0 460399.0 0
257032.0 459685.0 0
260866.0 461198.0 0
264169.0 460593.0 0
267653.0 457687.0 0
268217.0 462247.0 0
272181.0 457526.0 0
270822.0 460590.0 0
274087.0 460720.0 0
278256.0 459973.0 0
281139.0 462705.0 0
289098.0 459633.0 0
285329.0 461898.0 0
292451.0 459937.0 0
295921.0 460085.0 0
298556.0 462799.0 0
302022.0 460900.0 0
307654.0 459325.0 0
305946.0 462558.0 0
309576.0 461746.0 0
313695.0 462208.0 0
316691.0 459850.0 0
320687.0 460293.0 0
325333.0 463032.0 0
327144.0 459383.0 0
331267.0 461001.0 0
339339.0 458736.0 0
336866.0 462120.0 0
340663.0 462433.0 0
343539.0 459639.0 0
348042.0 460931.0 0
354802.0 458481.0 0
352849.0 462085.0 0
356890.0 461407.0 0
359312.0 459249.0 0
362982.0 460538.0 0
369747.0 459380.0 0
366730.0 461793.0 0
373691.0 458586.0 0
373816.0 462575.0 0
377408.0 459592.0 0
381279.0 459976.0 0
385158.0 460174.0 0
386211.0 463035.0 0
389147.0 462114.0 0
392242.0 458888.0 0
395828.0 459561.0 0
393508.0 463156.0 0
399570.0 460555.0 0
402222.0 458500.0 0
403580.0 462053.0 0
408266.0 461646.0 0
411784.0 460651.0 0
415203.0 459317.0 0
412756.0 463569.0 0
416312.0 462671.0 0
419843.0 461592.0 0
423972.0 460464.0 0
429952.0 459438.0 0
428797.0 462210.0 0
433552.0 461443.0 0
436879.0 463276.0 0
54062.6 468688.0 0
58127.5 467251.0 0
62597.0 464880.0 0
67042.2 466341.0 0
70945.9 466950.0 0
74879.0 464499.0 0
75659.8 467877.0 0
78535.4 463858.0 0
79962.5 467504.0 0
85178.4 465243.0 0
87578.4 468125.0 0
89144.6 465267.0 0
91146.6 468290.0 0
93516.5 464219.0 0
97193.3 465406.0 0
94989.8 467995.0 0
100802.0 466046.0 0
104777.0 465530.0 0
107340.0 467581.0 0
110613.0 466074.0 0
114743.0 466461.0 0
121979.0 464512.0 0
118797.0 465940.0 0
124992.0 464951.0 0
128130.0 467704.0 0
131887.0 464725.0 0
132676.0 468430.0 0
136230.0 466205.0 0
141373.0 466144.0 0
145204.0 465613.0 0
149643.0 464757.0 0
154097.0 464338.0 0
157726.0 463802.0 0
157602.0 468093.0 0
161735.0 464896.0 0
165945.0 464370.0 0
164309.0 467519.0 0
167315.0 467896.0 0
169800.0 464578.0 0
174405.0 465785.0 0
170908.0 468122.0 0
179204.0 463953.0 0
183186.0 466194.0 0
187378.0 466837.0 0
190888.0 465577.0 0
198779.0 463737.0 0
194988.0 468198.0 0
202017.0 466000.0 0
204080.0 467617.0 0
207225.0 465898.0 0
211501.0 465044.0 0
216075.0 464543.0 0
220920.0 464947.0 0
224468.0 464894.0 0
227150.0 462822.0 0
230866.0 464215.0 0
234176.0 466702.0 0
238309.0 464359.0 0
242296.0 465565.0 0
245583.0 465315.0 0
250056.0 464828.0 0
258470.0 464002.0 0
254965.0 464640.0 0
261990.0 465301.0 0
265688.0 464639.0 0
268768.0 466475.0 0
272038.0 464526.0 0
276340.0 464211.0 0
279595.0 466366.0 0
283066.0 465307.0 0
290056.0 464124.0 0
286143.0 466552.0 0
294583.0 463690.0 0
293412.0 467801.0 0
297834.0 467210.0 0
301968.0 464990.0 0
310354.0 465848.0 0
305843.0 466980.0 0
314955.0 467118.0 0
317896.0 463761.0 0
318995.0 467567.0 0
321311.0 464559.0 0
322579.0 467399.0 0
326099.0 467595.0 0
330595.0 466444.0 0
334460.0 464760.0 0
335198.0 468260.0 0
337200.0 465928.0 0
339998.0 465394.0 0
344517.0 465207.0 0
341264.0 468195.0 0
349987.0 465787.0 0
353824.0 466402.0 0
356101.0 464638.0 0
360231.0 464058.0 0
364848.0 465317.0 0
361819.0 468209.0 0
370241.0 464599.0 0
368196.0 468142.0 0
375220.0 466514.0 0
378476.0 463693.0 0
379857.0 467796.0 0
383130.0 464473.0 0
387257.0 465539.0 0
390874.0 465694.0 0
394369.0 467883.0 0
397184.0 463611.0 0
397659.0 466430.0 0
400692.0 464856.0 0
403085.0 466847.0 0
405877.0 465068.0 0
409931.0 465366.0 0
414909.0 466808.0 0
419037.0 465544.0 0
422768.0 465222.0 0
426893.0 464999.0 0
431994.0 464100.0 0
430894.0 467951.0 0
434765.0 465329.0 0
436772.0 466373.0 0
435224.0 468701.0 0
440206.0 466227.0 0
444321.0 468412.0 0
51000.2 471086.0 0
47071.5 472995.0 0
56761.2 471065.0 0
54362.1 472096.0 0
61434.1 470495.0 0
58438.2 473660.0 0
65179.6 469064.0 0
65047.3 472986.0 0
68692.6 470953.0 0
73180.4 471225.0 0
77149.6 471357.0 0
80585.9 471539.0 0
84094.6 469662.0 0
87386.8 471290.0 0
91114.7 472536.0 0
94604.8 471329.0 0
98304.1 469622.0 0
101014.0 472743.0 0
103134.0 468960.0 0
106852.0 472125.0 0
110821.0 469464.0 0
111731.0 473602.0 0
114365.0 470582.0 0
118150.0 470165.0 0
122602.0 468725.0 0
125599.0 471984.0 0
130395.0 471839.0 0
135141.0 471806.0 0
138927.0 469572.0 0
143346.0 469818.0 0
147774.0 469287.0 0
152705.0 468573.0 0
150837.0 473357.0 0
155551.0 472500.0 0
161749.0 469062.0 0
159746.0 472359.0 0
169286.0 471079.0 0
164624.0 472125.0 0
173971.0 471504.0 0
178468.0 468858.0 0
182181.0 471482.0 0
185760.0 469667.0 0
189980.0 470331.0 0
193455.0 472924.0 0
197391.0 473372.0 0
199988.0 469068.0 0
203721.0 472230.0 0
206699.0 469758.0 0
210020.0 468856.0 0
214049.0 469852.0 0
218768.0 469409.0 0
222591.0 468678.0 0
222586.0 472703.0 0
227114.0 468390.0 0
229437.0 472433.0 0
231697.0 469741.0 0
235159.0 471302.0 0
238319.0 468393.0 0
238980.0 472981.0 0
241791.0 469817.0 0
246174.0 469739.0 0
250285.0 469133.0 0
253789.0 469469.0 0
250102.0 472590.0 0
258280.0 468888.0 0
261919.0 469049.0 0
265346.0 469211.0 0
269170.0 470072.0 0
271577.0 468324.0 0
275169.0 468834.0 0
272154.0 472201.0 0
279242.0 471118.0 0
282837.0 468875.0 0
282957.0 473404.0 0
289262.0 469238.0 0
285686.0 470535.0 0
292524.0 472334.0 0
295775.0 470829.0 0
298845.0 472041.0 0
302043.0 469183.0 0
302312.0 473226.0 0
308667.0 469816.0 0
305396.0 471491.0 0
312430.0 470550.0 0
317087.0 471841.0 0
321043.0 470638.0 0
324583.0 471173.0 0
328596.0 470971.0 0
332674.0 471197.0 0
338694.0 468673.0 0
337150.0 472235.0 0
343641.0 469724.0 0
341019.0 471425.0 0
347848.0 470091.0 0
353112.0 470696.0 0
357808.0 468551.0 0
357345.0 472490.0 0
361200.0 472108.0 0
364874.0 470220.0 0
368929.0 471840.0 0
372115.0 468996.0 0
376564.0 470381.0 0
373132.0 473079.0 0
380896.0 471623.0 0
384779.0 469375.0 0
384824.0 473661.0 0
389560.0 469106.0 0
388797.0 472978.0 0
392940.0 471962.0 0
396564.0 471050.0 0
399363.0 468950.0 0
400313.0 473381.0 0
403000.0 470168.0 0
407132.0 469235.0 0
405135.0 473368.0 0
411751.0 468971.0 0
410385.0 473254.0 0
415508.0 471461.0 0
418279.0 468817.0 0
419829.0 472022.0 0
421794.0 469000.0 0
423362.0 472362.0 0
426022.0 469794.0 0
429573.0 472262.0 0
433498.0 472246.0 0
437213.0 472948.0 0
438056.0 469460.0 0
441353.0 471460.0 0
446425.0 472167.0 0
448338.0 469546.0 0
451015.0 472510.0 0
43685.6 475671.0 0
46881.3 476157.0 0
51091.8 475220.0 0
47660.5 478439.0 0
55625.4 474762.0 0
54777.9 478670.0 0
58450.4 477009.0 0
61835.3 474921.0 0
62074.2 478687.0 0
65452.2 476588.0 0
68101.2 474648.0 0
71251.9 474712.0 0
69218.2 477790.0 0
74999.3 474787.0 0
72974.0 478017.0 0
76728.7 478008.0 0
78848.6 474708.0 0
80761.7 477599.0 0
83500.9 473946.0 0
84952.7 477710.0 0
87793.3 474930.0 0
91363.1 476110.0 0
88825.7 478340.0 0
93723.4 474330.0 0
94270.1 476604.0 0
96892.5 474252.0 0
96585.4 478732.0 0
99648.5 476672.0 0
103729.0 475999.0 0
108553.0 476859.0 0
112890.0 477771.0 0
116063.0 474026.0 0
117571.0 477418.0 0
120703.0 473692.0 0
121533.0 478302.0 0
124357.0 475691.0 0
128205.0 475258.0 0
132505.0 475195.0 0
130566.0 478213.0 0
135988.0 475785.0 0
140374.0 474266.0 0
145607.0 474040.0 0
148743.0 478400.0 0
153814.0 477276.0 0
157580.0 475368.0 0
161127.0 476209.0 0
165058.0 477267.0 0
169800.0 475744.0 0
178431.0 473982.0 0
174896.0 476833.0 0
182284.0 476365.0 0
186019.0 473771.0 0
186167.0 478425.0 0
190075.0 475458.0 0
193991.0 477022.0 0
197641.0 478363.0 0
201082.0 475971.0 0
209471.0 473595.0 0
205592.0 476780.0 0
209454.0 478428.0 0
213406.0 473802.0 0
213460.0 477794.0 0
217569.0 474504.0 0
220791.0 477443.0 0
224701.0 477028.0 0
226444.0 473329.0 0
229252.0 476238.0 0
232295.0 473553.0 0
232408.0 476534.0 0
235554.0 476181.0 0
240173.0 477552.0 0
243381.0 474139.0 0
244372.0 478375.0 0
247334.0 475708.0 0
253304.0 473340.0 0
251925.0 476918.0 0
256769.0 474357.0 0
261936.0 473327.0 0
264238.0 477659.0 0
267514.0 474377.0 0
272107.0 476977.0 0
275823.0 474086.0 0
279773.0 475595.0 0
287824.0 474927.0 0
292410.0 476898.0 0
295959.0 474927.0 0
305006.0 475667.0 0
300128.0 476957.0 0
308803.0 473819.0 0
312964.0 475394.0 0
317125.0 476691.0 0
322027.0 475540.0 0
327047.0 474511.0 0
330364.0 474219.0 0
326146.0 477450.0 0
333744.0 475650.0 0
340710.0 475329.0 0
337434.0 476753.0 0
344800.0 474192.0 0
343168.0 478096.0 0
349406.0 474755.0 0
352461.0 474770.0 0
355297.0 474987.0 0
352508.0 478147.0 0
358879.0 475673.0 0
356385.0 478389.0 0
362506.0 476164.0 0
365497.0 473911.0 0
365805.0 478723.0 0
369684.0 476018.0 0
374481.0 478058.0 0
377562.0 474683.0 0
381436.0 475598.0 0
384336.0 478348.0 0
387170.0 475960.0 0
389338.0 475787.0 0
392179.0 475739.0 0
396125.0 474403.0 0
395629.0 477904.0 0
399124.0 477620.0 0
403081.0 477011.0 0
407371.0 476255.0 0
411027.0 477970.0 0
414903.0 475786.0 0
418529.0 474790.0 0
422279.0 475082.0 0
419885.0 478255.0 0
426701.0 474941.0 0
423792.0 477882.0 0
426580.0 478524.0 0
431177.0 475398.0 0
429887.0 478558.0 0
434678.0 475342.0 0
433698.0 478361.0 0
440924.0 475115.0 0
437961.0 477450.0 0
442542.0 478580.0 0
444363.0 475327.0 0
445955.0 478311.0 0
448517.0 475822.0 0
452669.0 477013.0 0
454726.0 474003.0 0
457685.0 476659.0 0
461499.0 477963.0 0
31281.3 483183.0 0
34162.2 481024.0 0
35925.5 479137.0 0
35918.1 483659.0 0
39790.6 479195.0 0
39597.7 483989.0 0
43343.9 482906.0 0
44637.4 479170.0 0
47278.6 481831.0 0
50548.3 479447.0 0
51468.0 483059.0 0
55530.1 482355.0 0
58661.6 480681.0 0
61866.1 482264.0 0
66167.3 480861.0 0
70509.8 481262.0 0
74561.7 481218.0 0
78591.0 481224.0 0
82585.4 480647.0 0
86867.2 482093.0 0
92342.4 479888.0 0
91375.5 483883.0 0
95662.8 483476.0 0
98206.4 481086.0 0
101303.0 479941.0 0
100142.0 483885.0 0
105460.0 479649.0 0
105012.0 483782.0 0
109071.0 481062.0 0
112395.0 482414.0 0
115423.0 480571.0 0
115666.0 483478.0 0
118421.0 481486.0 0
122361.0 482982.0 0
126320.0 479650.0 0
130725.0 482029.0 0
134034.0 479095.0 0
135227.0 483574.0 0
138758.0 479479.0 0
139331.0 483184.0 0
142389.0 483041.0 0
143776.0 478885.0 0
146656.0 483076.0 0
152101.0 483032.0 0
157915.0 480227.0 0
162538.0 480843.0 0
167788.0 481745.0 0
172310.0 480049.0 0
175566.0 481382.0 0
178820.0 478916.0 0
178789.0 483266.0 0
182654.0 481093.0 0
186726.0 482874.0 0
190324.0 480015.0 0
194289.0 481641.0 0
198370.0 481829.0 0
202303.0 480568.0 0
206781.0 480891.0 0
211026.0 483093.0 0
214736.0 481467.0 0
217785.0 480128.0 0
222319.0 481813.0 0
228127.0 481231.0 0
232464.0 479204.0 0
232263.0 482369.0 0
236506.0 481492.0 0
241781.0 481843.0 0
244957.0 481031.0 0
248157.0 480239.0 0
252138.0 481252.0 0
255893.0 479568.0 0
259003.0 483028.0 0
260260.0 478331.0 0
263571.0 481850.0 0
267872.0 479791.0 0
272016.0 481752.0 0
276987.0 479400.0 0
283462.0 478923.0 0
280607.0 483305.0 0
286221.0 483995.0 0
289660.0 480616.0 0
295546.0 480142.0 0
303966.0 479722.0 0
300460.0 482118.0 0
308822.0 479251.0 0
314078.0 480891.0 0
319616.0 480690.0 0
325312.0 481502.0 0
330140.0 478664.0 0
335178.0 480629.0 0
339989.0 479672.0 0
343638.0 481859.0 0
347426.0 479015.0 0
351026.0 481910.0 0
355716.0 482496.0 0
360416.0 480244.0 0
363657.0 481657.0 0
370636.0 481004.0 0
366844.0 483406.0 0
375590.0 483396.0 0
379429.0 479569.0 0
379931.0 483593.0 0
386467.0 481817.0 0
382971.0 482225.0 0
389086.0 478990.0 0
390075.0 483519.0 0
392978.0 479820.0 0
394459.0 483196.0 0
397299.0 480853.0 0
401349.0 481306.0 0
406573.0 480460.0 0
412019.0 481652.0 0
415605.0 479786.0 0
416272.0 483503.0 0
419329.0 481735.0 0
423878.0 481773.0 0
428058.0 481214.0 0
432602.0 482651.0 0
436605.0 481241.0 0
440688.0 481896.0 0
445371.0 482243.0 0
449325.0 479746.0 0
452982.0 481403.0 0
449924.0 483555.0 0
455760.0 479492.0 0
456490.0 482321.0 0
460355.0 481071.0 0
464586.0 480486.0 0
467933.0 483013.0 0
20893.8 489336.0 0
24274.8 487207.0 0
27920.2 485361.0 0
27836.2 488957.0 0
32388.0 487341.0 0
37266.7 487953.0 0
42030.8 487350.0 0
46970.2 486461.0 0
51022.4 487181.0 0
54368.7 485594.0 0
54151.9 489365.0 0
58782.3 485642.0 0
64258.2 484793.0 0
62392.1 488338.0 0
66552.9 488030.0 0
68281.3 484478.0 0
70079.1 487830.0 0
72324.5 484764.0 0
76227.8 485011.0 0
79237.5 484375.0 0
82150.9 483983.0 0
79429.8 487718.0 0
84523.8 487272.0 0
88221.7 485873.0 0
90515.5 486784.0 0
93641.0 487990.0 0
102203.0 487246.0 0
97992.3 487542.0 0
105927.0 488559.0 0
109103.0 485371.0 0
113354.0 486353.0 0
118204.0 486252.0 0
123150.0 487651.0 0
127029.0 484653.0 0
131105.0 486464.0 0
135164.0 488515.0 0
139609.0 486665.0 0
144340.0 486799.0 0
148929.0 487674.0 0
156700.0 484928.0 0
158761.0 487673.0 0
160510.0 484361.0 0
164084.0 484638.0 0
162381.0 488026.0 0
167666.0 487860.0 0
172406.0 484528.0 0
179508.0 486233.0 0
176273.0 487003.0 0
182881.0 485690.0 0
187096.0 487219.0 0
190673.0 484101.0 0
193927.0 486027.0 0
190884.0 487826.0 0
196859.0 484658.0 0
200613.0 484922.0 0
202071.0 488103.0 0
205427.0 485294.0 0
209278.0 487917.0 0
213373.0 487898.0 0
216131.0 484241.0 0
219339.0 484505.0 0
218269.0 488685.0 0
222241.0 486657.0 0
225527.0 485125.0 0
229836.0 486726.0 0
233754.0 485048.0 0
233800.0 488515.0 0
237182.0 486557.0 0
241282.0 485874.0 0
244233.0 488874.0 0
245704.0 484555.0 0
248364.0 488468.0 0
250150.0 484482.0 0
254694.0 484336.0 0
252402.0 487739.0 0
257716.0 486930.0 0
262245.0 486711.0 0
267923.0 485496.0 0
275522.0 485466.0 0
279253.0 488892.0 0
282694.0 486814.0 0
286176.0 488456.0 0
292715.0 484287.0 0
290148.0 487965.0 0
297047.0 484612.0 0
295352.0 488563.0 0
300778.0 486581.0 0
305527.0 484373.0 0
309436.0 487770.0 0
310172.0 483648.0 0
313481.0 485982.0 0
317154.0 484383.0 0
321442.0 485744.0 0
326375.0 487180.0 0
330145.0 488650.0 0
330723.0 484046.0 0
335162.0 484623.0 0
333458.0 487884.0 0
339475.0 483885.0 0
337247.0 487058.0 0
343451.0 485559.0 0
341030.0 488693.0 0
345697.0 488770.0 0
347578.0 484583.0 0
352037.0 485282.0 0
355633.0 487319.0 0
359455.0 484002.0 0
360655.0 487628.0 0
362816.0 484363.0 0
370996.0 485830.0 0
366403.0 488242.0 0
374457.0 487960.0 0
379041.0 487744.0 0
382455.0 485287.0 0
385810.0 484894.0 0
384050.0 488802.0 0
388762.0 487776.0 0
393496.0 487160.0 0
398569.0 485539.0 0
404050.0 485656.0 0
408831.0 484254.0 0
408917.0 488251.0 0
412969.0 485655.0 0
417111.0 487429.0 0
420582.0 485041.0 0
424921.0 486453.0 0
428543.0 484688.0 0
432707.0 487817.0 0
428657.0 488348.0 0
437649.0 485868.0 0
442693.0 485817.0 0
446950.0 486125.0 0
444851.0 488983.0 0
450854.0 487141.0 0
454699.0 485603.0 0
459756.0 485445.0 0
463035.0 488697.0 0
464143.0 484390.0 0
467411.0 487446.0 0
471904.0 486145.0 0
476549.0 488783.0 0
15168.9 493643.0 0
17984.5 490875.0 0
23751.4 491717.0 0
28070.6 492518.0 0
30910.5 491027.0 0
34818.2 492120.0 0
40191.8 491644.0 0
45020.3 491355.0 0
49546.7 490857.0 0
52814.3 493848.0 0
58477.9 491794.0 0
64347.9 491916.0 0
69010.0 491463.0 0
74271.2 489904.0 0
78701.0 491778.0 0
82046.0 490875.0 0
85576.8 491913.0 0
88849.0 489206.0 0
91508.1 493843.0 0
96615.1 491490.0 0
101227.0 491409.0 0
106382.0 493527.0 0
110132.0 489652.0 0
111534.0 494114.0 0
115039.0 490446.0 0
117939.0 492882.0 0
119887.0 490509.0 0
127359.0 489257.0 0
124002.0 492330.0 0
127956.0 493617.0 0
131370.0 491198.0 0
138331.0 490634.0 0
135247.0 493154.0 0
142115.0 490539.0 0
145928.0 490555.0 0
149643.0 493203.0 0
154114.0 489328.0 0
159017.0 491339.0 0
164092.0 492111.0 0
172305.0 489076.0 0
175857.0 492046.0 0
179982.0 489462.0 0
184131.0 490590.0 0
180546.0 493791.0 0
188933.0 492023.0 0
193686.0 490619.0 0
197868.0 488730.0 0
201874.0 492124.0 0
206129.0 490378.0 0
210437.0 492568.0 0
214860.0 492093.0 0
222379.0 491633.0 0
225794.0 489255.0 0
226551.0 493625.0 0
231037.0 491927.0 0
239900.0 489947.0 0
235819.0 491651.0 0
242933.0 492636.0 0
246555.0 492460.0 0
251284.0 492689.0 0
255393.0 489883.0 0
259451.0 490841.0 0
263840.0 491180.0 0
267500.0 491127.0 0
271703.0 489812.0 0
269838.0 493754.0 0
276019.0 490663.0 0
278846.0 493130.0 0
282875.0 491043.0 0
287701.0 492952.0 0
292338.0 491923.0 0
299613.0 490755.0 0
296475.0 493807.0 0
304659.0 490436.0 0
309329.0 492375.0 0
313313.0 490756.0 0
317446.0 488807.0 0
317312.0 493786.0 0
322350.0 491423.0 0
327544.0 491748.0 0
331968.0 492299.0 0
336485.0 490890.0 0
340143.0 493634.0 0
343740.0 492059.0 0
350403.0 489113.0 0
347385.0 493160.0 0
354229.0 491130.0 0
358169.0 491302.0 0
363071.0 492164.0 0
371353.0 490144.0 0
368227.0 493463.0 0
376009.0 492037.0 0
372096.0 493400.0 0
380950.0 492542.0 0
384450.0 492201.0 0
387447.0 491751.0 0
391809.0 491198.0 0
396864.0 490768.0 0
401071.0 489408.0 0
405251.0 490863.0 0
409804.0 492989.0 0
413274.0 490239.0 0
417340.0 491653.0 0
421796.0 489998.0 0
426240.0 490559.0 0
424368.0 493951.0 0
430178.0 491226.0 0
427822.0 493411.0 0
433415.0 492072.0 0
436934.0 490808.0 0
441167.0 489882.0 0
440136.0 493994.0 0
444617.0 493166.0 0
449022.0 490543.0 0
452930.0 493544.0 0
453949.0 489977.0 0
458137.0 489630.0 0
457161.0 493358.0 0
461517.0 493105.0 0
466754.0 492278.0 0
471694.0 490880.0 0
475435.0 493329.0 0
480515.0 490558.0 0
484032.0 493174.0 0
7874.78 497522.0 0
11379.4 495842.0 0
15308.2 498806.0 0
19544.8 495215.0 0
23337.2 498319.0 0
23267.4 495537.0 0
26441.5 495810.0 0
30940.6 494964.0 0
34290.7 497071.0 0
38145.7 495224.0 0
42998.6 495468.0 0
47785.3 494988.0 0
51174.8 498237.0 0
56653.3 497365.0 0
61566.5 495704.0 0
66717.9 495580.0 0
63457.7 499459.0 0
71677.0 494910.0 0
76570.7 494740.0 0
74302.0 498491.0 0
81540.9 494930.0 0
78671.2 498965.0 0
86056.6 495748.0 0
88857.3 498587.0 0
97365.4 496387.0 0
101920.0 495644.0 0
100892.0 498983.0 0
104400.0 497824.0 0
108925.0 499036.0 0
115833.0 495098.0 0
113471.0 497827.0 0
117363.0 498878.0 0
120554.0 495356.0 0
125429.0 497177.0 0
131413.0 496182.0 0
135881.0 497461.0 0
139549.0 494208.0 0
141079.0 499078.0 0
144266.0 494230.0 0
146866.0 498022.0 0
151199.0 497636.0 0
155253.0 495134.0 0
160208.0 495127.0 0
164669.0 497738.0 0
170040.0 493896.0 0
173143.0 497487.0 0
176847.0 497042.0 0
181190.0 497863.0 0
185109.0 495516.0 0
192852.0 494730.0 0
190072.0 498806.0 0
197150.0 493961.0 0
195672.0 498561.0 0
201278.0 497964.0 0
205889.0 494817.0 0
205764.0 498641.0 0
209383.0 497670.0 0
214303.0 496676.0 0
218528.0 493907.0 0
218669.0 498090.0 0
222712.0 496406.0 0
229781.0 496077.0 0
226805.0 498258.0 0
234465.0 496645.0 0
239400.0 494651.0 0
239344.0 499341.0 0
244043.0 496846.0 0
248694.0 496885.0 0
253071.0 497823.0 0
256169.0 494020.0 0
257989.0 497967.0 0
261350.0 494860.0 0
265990.0 495216.0 0
274167.0 494845.0 0
270028.0 497440.0 0
278403.0 497725.0 0
282858.0 495595.0 0
286864.0 498683.0 0
292185.0 497015.0 0
297570.0 498537.0 0
301530.0 495433.0 0
307012.0 496915.0 0
312586.0 495573.0 0
316604.0 498710.0 0
325194.0 495254.0 0
321128.0 496791.0 0
329158.0 495570.0 0
335625.0 495894.0 0
339742.0 497713.0 0
343866.0 496523.0 0
348641.0 498399.0 0
351670.0 494194.0 0
355533.0 494222.0 0
354610.0 498952.0 0
359652.0 496001.0 0
364735.0 496715.0 0
362183.0 498894.0 0
371104.0 495506.0 0
374427.0 496701.0 0
379865.0 497556.0 0
384943.0 495644.0 0
389777.0 494981.0 0
388261.0 498704.0 0
394256.0 494566.0 0
392987.0 499107.0 0
397255.0 494655.0 0
397704.0 497776.0 0
401495.0 494635.0 0
406565.0 494769.0 0
405593.0 498299.0 0
409967.0 497076.0 0
414590.0 495419.0 0
420068.0 494775.0 0
418536.0 499103.0 0
423263.0 497940.0 0
427344.0 496893.0 0
431440.0 495341.0 0
436177.0 495309.0 0
433900.0 498731.0 0
442746.0 497697.0 0
446888.0 496659.0 0
448909.0 494467.0 0
451589.0 498214.0 0
455842.0 496633.0 0
459665.0 497044.0 0
464950.0 497447.0 0
470983.0 495937.0 0
475759.0 497774.0 0
479618.0 495206.0 0
484107.0 498520.0 0
488006.0 495537.0 0
491655.0 497829.0 0
495051.0 498930.0 0
3930.78 500045.0 0
10239.6 500752.0 0
14478.4 504090.0 0
19706.6 500034.0 0
19976.3 504623.0 0
23504.4 501958.0 0
29010.5 500418.0 0
34855.2 500694.0 0
33223.9 503801.0 0
39632.7 499606.0 0
37171.0 504253.0 0
45644.3 499728.0 0
42194.5 503980.0 0
49694.0 502509.0 0
54328.3 501888.0 0
59207.6 501417.0 0
69178.6 500648.0 0
73151.0 500878.0 0
75080.1 503460.0 0
80131.9 503388.0 0
84014.7 499785.0 0
88470.1 502070.0 0
92636.1 504007.0 0
93118.1 499529.0 0
97683.4 502228.0 0
103735.0 502307.0 0
110190.0 503924.0 0
113919.0 501658.0 0
121352.0 499436.0 0
118906.0 503746.0 0
124638.0 502362.0 0
129354.0 500097.0 0
135511.0 502770.0 0
140608.0 503997.0 0
144966.0 502819.0 0
149750.0 501790.0 0
154206.0 500256.0 0
159036.0 499690.0 0
170134.0 500687.0 0
175127.0 501080.0 0
178056.0 503934.0 0
179074.0 500394.0 0
184611.0 500866.0 0
181092.0 502434.0 0
193992.0 503264.0 0
198869.0 502900.0 0
203548.0 503000.0 0
208098.0 502167.0 0
212193.0 500947.0 0
217054.0 502947.0 0
222536.0 501118.0 0
227259.0 502957.0 0
230646.0 499761.0 0
235035.0 502261.0 0
247052.0 501593.0 0
252380.0 502764.0 0
257990.0 503532.0 0
262928.0 499742.0 0
268137.0 502032.0 0
273872.0 500725.0 0
279154.0 502811.0 0
282480.0 499969.0 0
294287.0 501389.0 0
290361.0 502141.0 0
297951.0 503285.0 0
302906.0 500087.0 0
307643.0 503360.0 0
312109.0 500127.0 0
315213.0 504016.0 0
320687.0 502176.0 0
326402.0 500187.0 0
331851.0 499063.0 0
336791.0 501632.0 0
341991.0 500659.0 0
345787.0 502948.0 0
351136.0 503878.0 0
359763.0 500894.0 0
356689.0 504079.0 0
364124.0 501097.0 0
369446.0 499363.0 0
375829.0 501323.0 0
380475.0 503306.0 0
384661.0 500657.0 0
389356.0 502742.0 0
393257.0 503918.0 0
397209.0 502140.0 0
401382.0 500100.0 0
405746.0 503148.0 0
409199.0 500451.0 0
410553.0 503820.0 0
413517.0 500507.0 0
417836.0 504077.0 0
422580.0 502338.0 0
426548.0 500806.0 0
426000.0 504291.0 0
430233.0 499405.0 0
429766.0 503216.0 0
434666.0 502899.0 0
438420.0 499575.0 0
442575.0 502757.0 0
438807.0 504078.0 0
447194.0 500982.0 0
452120.0 503494.0 0
456472.0 500909.0 0
460800.0 501005.0 0
464165.0 501840.0 0
467122.0 504291.0 0
469062.0 500358.0 0
472640.0 500112.0 0
472115.0 504036.0 0
475454.0 501821.0 0
479720.0 501149.0 0
488884.0 500679.0 0
485615.0 503751.0 0
493208.0 501574.0 0
497910.0 500037.0 0
3669.14 505635.0 0
9310.26 505115.0 0
7572.68 508942.0 0
11915.2 508802.0 0
17277.0 509175.0 0
25433.2 506331.0 0
30142.2 505547.0 0
29608.5 508952.0 0
33907.3 507449.0 0
39445.0 506889.0 0
42896.7 508544.0 0
46550.3 505625.0 0
51780.2 506927.0 0
57251.2 505679.0 0
60456.8 509423.0 0
63798.0 504727.0 0
70066.5 506445.0 0
75036.2 508555.0 0
80566.1 508358.0 0
84617.3 504715.0 0
86103.1 509160.0 0
88571.0 505660.0 0
91276.4 508703.0 0
96008.3 507366.0 0
100620.0 506592.0 0
106526.0 507883.0 0
114007.0 506218.0 0
117707.0 508849.0 0
121064.0 507322.0 0
124382.0 507019.0 0
129605.0 505364.0 0
134107.0 508298.0 0
138494.0 507360.0 0
143411.0 507743.0 0
147943.0 505980.0 0
153258.0 504965.0 0
150789.0 508465.0 0
157803.0 504559.0 0
163882.0 504493.0 0
159438.0 508969.0 0
169419.0 505628.0 0
173655.0 505322.0 0
177840.0 509023.0 0
183031.0 506331.0 0
188642.0 504722.0 0
192609.0 508285.0 0
197143.0 507074.0 0
201563.0 507061.0 0
206612.0 506887.0 0
211644.0 505524.0 0
222552.0 506352.0 0
241503.0 504455.0 0
271634.0 505368.0 0
275585.0 505724.0 0
280055.0 507489.0 0
285141.0 504745.0 0
289494.0 508822.0 0
293537.0 505873.0 0
299172.0 508066.0 0
302221.0 504430.0 0
304496.0 509031.0 0
311642.0 506929.0 0
314956.0 508937.0 0
319293.0 507588.0 0
325010.0 505888.0 0
331028.0 504764.0 0
336302.0 507222.0 0
341169.0 505243.0 0
345409.0 507782.0 0
354343.0 507631.0 0
358591.0 508667.0 0
361514.0 504829.0 0
366872.0 505271.0 0
372238.0 504599.0 0
376487.0 506261.0 0
380578.0 508656.0 0
385724.0 506235.0 0
391140.0 507299.0 0
396334.0 507320.0 0
400970.0 504826.0 0
401242.0 509445.0 0
404477.0 507295.0 0
408725.0 508035.0 0
413476.0 506591.0 0
417743.0 509249.0 0
422917.0 507219.0 0
428138.0 507688.0 0
432314.0 506413.0 0
436686.0 507964.0 0
441724.0 507155.0 0
447227.0 506449.0 0
452335.0 507557.0 0
456830.0 505971.0 0
461927.0 505437.0 0
460240.0 509651.0 0
465667.0 509012.0 0
469859.0 507447.0 0
473206.0 507930.0 0
477045.0 506006.0 0
481906.0 505704.0 0
490938.0 505192.0 0
494157.0 508511.0 0
496229.0 504054.0 0
498012.0 507571.0 0
3225.62 511767.0 0
8984.5 512643.0 0
13694.9 513006.0 0
18142.2 514355.0 0
22765.0 511400.0 0
26651.0 510228.0 0
28770.3 512894.0 0
32772.6 511424.0 0
37819.9 510843.0 0
42907.5 512825.0 0
47267.9 510195.0 0
46403.0 513690.0 0
51572.8 511845.0 0
55571.4 510263.0 0
58060.5 513290.0 0
65853.4 509957.0 0
62348.4 513703.0 0
66129.0 514118.0 0
70956.2 511902.0 0
77494.4 513418.0 0
83205.3 513206.0 0
89028.0 513040.0 0
94555.7 512675.0 0
98951.7 510502.0 0
102751.0 512133.0 0
107314.0 513839.0 0
112157.0 510942.0 0
122136.0 511015.0 0
127267.0 510526.0 0
131945.0 512883.0 0
137427.0 512200.0 0
142812.0 513317.0 0
147432.0 510978.0 0
151547.0 512088.0 0
154828.0 509523.0 0
157401.0 512735.0 0
163499.0 510385.0 0
161092.0 513490.0 0
167851.0 509576.0 0
172689.0 510298.0 0
182309.0 511357.0 0
187309.0 510121.0 0
309541.0 510524.0 0
323133.0 510367.0 0
328167.0 510177.0 0
332599.0 509476.0 0
335379.0 511539.0 0
331909.0 513760.0 0
340727.0 511444.0 0
350200.0 509632.0 0
346406.0 513161.0 0
355002.0 512061.0 0
360220.0 513791.0 0
363427.0 509606.0 0
367141.0 509638.0 0
370879.0 509645.0 0
367036.0 513453.0 0
375947.0 511402.0 0
381109.0 513538.0 0
384351.0 510985.0 0
388410.0 510954.0 0
393373.0 512359.0 0
398056.0 511546.0 0
405169.0 510449.0 0
403019.0 514170.0 0
408164.0 513183.0 0
412936.0 511401.0 0
421469.0 511844.0 0
417435.0 514521.0 0
425967.0 511821.0 0
432261.0 510158.0 0
430303.0 513834.0 0
435843.0 513554.0 0
440112.0 511059.0 0
444609.0 510923.0 0
450119.0 510854.0 0
452056.0 514236.0 0
455361.0 511193.0 0
463191.0 513087.0 0
467525.0 513106.0 0
471038.0 511076.0 0
476060.0 511467.0 0
480614.0 509546.0 0
480638.0 513835.0 0
486543.0 509724.0 0
492542.0 512854.0 0
497545.0 511640.0 0
2034.68 516379.0 0
6195.39 516268.0 0
11145.1 516983.0 0
15630.3 517749.0 0
21336.7 518149.0 0
25507.1 515690.0 0
29571.6 516909.0 0
33684.1 515537.0 0
38961.1 516500.0 0
44744.6 517686.0 0
49137.6 515336.0 0
54182.6 516264.0 0
59589.3 517246.0 0
64186.1 517614.0 0
68936.7 516807.0 0
73231.4 515863.0 0
76107.0 517750.0 0
81073.3 518013.0 0
86356.4 517085.0 0
91528.2 517432.0 0
96012.2 517339.0 0
99243.4 514738.0 0
99646.3 519173.0 0
103364.0 516675.0 0
107480.0 518689.0 0
111615.0 516247.0 0
117215.0 514455.0 0
122679.0 515634.0 0
120200.0 519036.0 0
127355.0 515524.0 0
131430.0 518911.0 0
135089.0 516168.0 0
139248.0 517156.0 0
145268.0 517386.0 0
149004.0 515397.0 0
154033.0 515852.0 0
166041.0 514888.0 0
336518.0 514999.0 0
343413.0 515895.0 0
346988.0 518161.0 0
351034.0 514948.0 0
356012.0 516956.0 0
363846.0 517371.0 0
368356.0 518194.0 0
371859.0 514387.0 0
373215.0 519108.0 0
377519.0 516396.0 0
385770.0 514974.0 0
382043.0 518070.0 0
390264.0 516827.0 0
395099.0 518442.0 0
398321.0 515175.0 0
400962.0 519586.0 0
407070.0 518399.0 0
412638.0 516598.0 0
422986.0 516881.0 0
428025.0 517132.0 0
432699.0 518757.0 0
442057.0 515119.0 0
438510.0 518548.0 0
447658.0 515432.0 0
455155.0 516571.0 0
459097.0 514388.0 0
462349.0 516777.0 0
459255.0 518662.0 0
466197.0 516900.0 0
471360.0 515986.0 0
476646.0 516709.0 0
484715.0 515162.0 0
481686.0 518878.0 0
488624.0 514858.0 0
486931.0 518868.0 0
494190.0 517330.0 0
490583.0 517483.0 0
497910.0 515747.0 0
2739.39 520709.0 0
7700.48 520649.0 0
12593.0 522024.0 0
17612.0 521586.0 0
26595.9 521037.0 0
32443.1 520395.0 0
36529.3 520263.0 0
35873.0 523957.0 0
40731.7 521583.0 0
45527.6 522884.0 0
49798.4 520022.0 0
56696.2 521734.0 0
61649.2 520913.0 0
66972.3 521614.0 0
72500.9 520468.0 0
77344.6 521016.0 0
75120.7 524774.0 0
80400.5 524343.0 0
85001.9 521892.0 0
90304.4 522511.0 0
95633.7 521900.0 0
103570.0 521307.0 0
110059.0 521378.0 0
115007.0 520982.0 0
120223.0 523344.0 0
124751.0 519890.0 0
351894.0 519934.0 0
378268.0 521762.0 0
386463.0 519821.0 0
391013.0 521879.0 0
396789.0 523300.0 0
401043.0 524697.0 0
404944.0 523116.0 0
411854.0 521648.0 0
417296.0 519887.0 0
421856.0 522060.0 0
418774.0 524796.0 0
427175.0 521909.0 0
432315.0 524366.0 0
436328.0 522610.0 0
440613.0 523054.0 0
444235.0 519901.0 0
448247.0 523845.0 0
451299.0 519434.0 0
455556.0 521241.0 0
463339.0 520209.0 0
459913.0 523450.0 0
469086.0 520483.0 0
473591.0 520203.0 0
471844.0 524667.0 0
477512.0 521132.0 0
480656.0 523517.0 0
485614.0 524010.0 0
491565.0 522031.0 0
497786.0 519850.0 0
2915.77 526128.0 0
1224.85 529856.0 0
6048.71 529005.0 0
8619.42 525741.0 0
15615.0 525852.0 0
18031.0 528835.0 0
21828.2 525549.0 0
30766.3 525834.0 0
41697.0 526762.0 0
47265.8 527675.0 0
51892.1 524851.0 0
56562.1 527360.0 0
60893.7 524993.0 0
65181.5 526174.0 0
70479.5 525195.0 0
68292.1 528740.0 0
77860.3 529714.0 0
84737.5 527107.0 0
408809.0 526297.0 0
414320.0 526427.0 0
423473.0 526328.0 0
428457.0 527600.0 0
433222.0 528822.0 0
437777.0 527125.0 0
443687.0 526394.0 0
453795.0 526186.0 0
460646.0 528852.0 0
465699.0 525050.0 0
469683.0 529594.0 0
476808.0 525395.0 0
489844.0 527142.0 0
493924.0 526526.0 0
497571.0 524277.0 0
497909.0 528711.0 0
POINT_DATA 5000
SCALARS Radius float 1
LOOKUP_TABLE default
5258.36 3951.75 5061.3 3163.97 3642.12 5812.43 5906.14 7513.1 5580.89 6810.52 5415.48 5120.0 4998.37 6182.6 5492.18 5867.73 5013.56 4499.64 5542.27 5122.66 5484.19 3557.27 5254.28 4402.52 4436.4 5733.48 4672.91 3588.44 5645.7 5553.16 2938.66 6110.27 4008.92 5840.26 3863.18 2356.98 5351.6 5538.89 4715.55 6059.59 5701.86 4375.68 5054.98 6030.06 5325.02 5170.02 4927.31 4688.68 4182.53 4517.56 4432.58 5903.42 3761.32 5176.86 4366.19 4118.05 5065.13 3672.51 4940.78 5561.06 5073.35 4834.9 5085.53 5484.83 7021.47 4730.36 5926.61 2720.68 4238.81 4955.55 4468.59 3563.63 5885.03 5246.2 5200.76 4862.64 5185.34 3673.74 5205.43 6684.56 3955.56 2635.86 5292.64 6166.5 5936.02 3615.22 5670.04 5305.17 6716.79 6044.04 5325.36 6759.9 5416.38 6051.14 4195.44 4345.55 5836.15 3653.41 2837.58 5017.13 3871.88 4390.66 4827.23 4911.47 6116.18 3968.64 4688.67 4385.06 7184.19 4290.3 4231.61 3942.53 4380.59 3379.84 3850.77 5546.39 5945.65 5418.62 5493.32 4601.27 5740.68 3641.64 5747.75 4277.89 3261.21 5539.32 6704.06 5600.93 3856.01 5279.39 4124.71 6337.56 5803.39 7447.37 4924.6 3255.82 4733.32 5242.73 2812.98 2899.43 2924.37 3867.67 4065.69 4861.08 4827.82 7613.27 4133.88 4094.62 6483.19 6230.49 7054.71 5489.43 5054.25 4796.33 5360.19 6496.85 4839.34 5541.59 2980.99 5083.08 5728.85 5525.39 3998.5 5863.59 4381.97 6257.19 4737.14 5603.15 4660.72 5399.73 4712.33 4003.05 4805.87 3607.45 3589.27 4333.2 4951.03 4665.12 4927.02 5980.74 4174.52 5109.54 6458.82 5527.54 5573.7 7325.81 4055.8 4794.96 4874.39 6186.19 4840.01 6834.49 5938.34 6394.38 4024.3 5555.28 4686.65 4695.45 5556.96 5390.22 6038.78 5227.21 5759.91 3997.1 3260.67 3383.4 3936.02 3856.1 5816.2 4044.71 3829.13 3091.3 2540.31 5789.98 6138.47 5697.4 4727.62 5206.78 4005.44 6425.26 5143.58 4484.76 5611.2 4220.65 7933.0 5173.87 5380.13 5118.27 5169.36 5834.74 5581.75 3888.21 5697.78 5123.52 4667.36 4295.38 3038.33 4780.03 5495.39 4487.31 5693.81 4138.16 4684.5 6029.66 6302.8 4270.95 5555.88 5280.17 5028.96 3866.16 6362.12 5152.36 5826.64 6820.42 4455.12 4894.16 5711.87 5932.23 6392.01 5788.23 6052.7 3798.62 3921.18 6902.81 4392.68 5252.48 3554.9 3996.0 4002.16 4778.34 5043.05 5120.49 5409.61 5262.61 6038.2 5713.22 6732.43 3183.98 5017.78 4524.28 3778.1 3794.63 4511.82 4727.24 6959.81 4816.2 6321.41 4896.52 3372.79 4941.22 5791.61 4479.66 3666.57 5308.1 6644.76 5891.05 5615.42 4091.31 7199.21 5529.52 5542.21 4015.92 5708.81 6894.71 3486.22 4414.54 5551.36 5201.36 4306.53 5094.81 5972.06 5861.71 4359.04 5015.69 4947.52 6175.81 6677.09 5813.4 4829.35 5201.67 4089.76 4751.02 5184.56 5282.64 4715.72 3369.13 3043.85 4254.17 6372.62 4523.7 6124.89 5481.78 4937.14 5924.89 4850.81 6038.14 5024.9 6135.57 5998.38 4312.67 4270.24 4989.15 3417.33 4164.13 4520.1 4642.34 5874.89 4305.57 3791.79 5526.55 4754.05 3192.41 6084.93 4987.87 3315.57 4669.66 5367.2 4808.52 5461.13 3599.45 6730.19 4907.89 5629.19 7565.34 5255.32 5337.48 6084.86 4467.94 3307.12 4933.21 5478.92 5094.44 5375.47 4723.12 4717.05 5659.17 5287.2 4562.29 5423.8 5013.13 5080.66 4926.42 5153.74 5248.77 4528.09 4293.03 4165.81 4389.21 4424.7 4128.98 4925.44 4951.47 5246.61 5215.15 4764.96 5046.33 5607.24 5839.13 4726.76 5090.24 5655.21 5091.39 4937.02 5637.59 4948.92 3115.91 3748.24 4655.49 4230.54 4566.18 6163.38 4809.42 3459.9 4964.09 5856.11 4109.88 4234.94 3327.49 4980.85 5714.58 5110.45 3329.99 4083.97 5208.32 3895.51 3556.85 6291.51 6246.22 4307.28 5804.71 5053.92 5020.12 6352.26 3735.44 4073.93 4645.41 5923.5 2240.39 6756.95 6037.08 3103.0 3586.91 5601.05 4516.43 5810.84 4749.8 4493.48 5082.6 4997.27 5543.27 4093.08 5628.24 5992.26 3960.8 5070.39 4923.9 4973.78 3947.47 4607.02 3296.27 6673.96 5174.89 5882.89 4100.38 5538.93 5727.3 4242.52 5356.51 3847.38 4907.06 4786.6 5163.9 4433.59 5740.84 5096.78 6324.23 4049.23 4382.74 4384.42 5690.56 3693.63 3937.74 5478.47 6061.47 4449.22 5806.08 4853.39 5365.89 4511.54 5196.0 4613.31 6119.09 5091.68 4204.84 4713.25 6243.0 5069.25 5441.96 5048.89 4288.3 3435.9 5370.52 4188.32 4739.42 5344.77 3697.96 4899.11 4278.07 4745.45 3818.59 4863.72 3057.03 5495.68 6043.3 5530.87 4973.83 4612.68 4651.28 4362.19 4151.94 5244.78 5762.84 6142.37 5119.37 3982.23 5243.29 3130.65 5004.67 4466.03 5409.33 4178.15 7531.29 5935.03 3161.47 3991.03 4652.29 5774.81 4495.87 5027.98 4723.48 5097.87 5281.28 2631.9 4143.08 4087.15 5489.34 5952.75 5537.72 6445.94 3320.52 3912.37 4727.24 6355.42 5927.43 5492.26 4220.88 6640.13 5351.39 4336.42 4583.31 3402.32 7589.94 5419.37 4898.94 4733.04 5788.66 4755.47 6390.78 6826.57 4788.87 3746.31 5346.27 7267.18 4758.21 5002.48 5708.14 4262.82 4281.49 4310.18 4320.28 4929.8 6327.9 3092.35 6519.71 5449.18 3629.96 5210.03 3320.11 6022.17 4306.11 4503.89 5903.66 4528.49 5985.29 4247.23 4268.65 4694.83 4354.08 4485.99 3903.75 4520.62 5475.8 7435.25 5543.46 5498.32 6475.1 2691.29 6255.18 4277.88 7500.97 3920.42 6332.36 4218.06 5542.14 6342.25 4129.43 4685.34 6082.81 4048.37 5367.52 4714.54 5030.91 5507.24 6851.54 5313.66 5512.23 5275.32 4649.22 5509.42 5475.7 5936.36 5314.69 6050.81 6022.72 4643.31 5527.33 4969.21 6256.02 6623.85 8332.24 4931.53 7134.64 6691.39 4602.25 3843.58 3191.99 5110.37 5664.98 4659.59 4322.15 5101.59 3813.22 5935.47 5570.3 2651.49 5234.29 5349.31 4711.62 4114.24 5394.55 2976.22 4256.43 2682.24 5415.19 5229.48 5127.16 4016.18 5435.74 4249.46 4244.99 5560.26 5965.81 6917.52 4177.19 5402.21 2845.98 4668.71 5320.92 7228.46 5228.18 5102.36 4342.9 5787.31 6122.55 5480.13 5293.9 4931.38 4736.58 4548.16 3485.26 3240.09 5025.39 3688.8 4377.07 3848.93 3695.36 5893.5 6020.48 5200.05 4645.58 5670.2 5094.52 5166.79 5928.32 5526.75 3950.63 4275.57 3619.07 5327.45 3702.37 6185.89 2330.66 3990.25 3691.0 4752.51 4880.14 6362.14 3948.23 5978.82 5978.9 2739.94 4270.53 4194.5 6142.94 4792.73 4556.36 3369.23 5264.06 4515.71 4547.19 3817.13 3963.86 5076.35 3844.9 5273.35 4091.8 6259.23 5181.4 4662.56 4946.74 4612.62 5996.33 6385.23 4467.04 2983.99 3997.96 5660.85 4750.17 3758.07 4373.45 3587.05 4989.09 4982.31 5269.18 6719.88 4406.1 6308.71 6155.31 4790.08 5082.47 5513.6 4901.41 5358.59 6202.55 5023.15 4871.44 6375.99 4853.02 4998.21 3457.48 3405.98 3931.07 5417.15 3688.16 4681.72 6631.19 5817.25 3460.94 2614.4 4439.35 6184.4 6205.93 3828.81 6229.37 5034.59 5314.85 5065.11 5911.67 4223.33 4187.56 3629.62 4840.84 4329.05 5138.31 3708.04 4551.24 3610.4 4621.75 6387.01 6338.89 7111.16 4564.34 5088.44 6248.81 6079.11 4256.67 7440.72 3949.6 4945.39 5661.62 5626.61 6363.92 6632.99 4923.24 5830.72 5309.98 5289.52 6718.19 4305.43 4307.48 4553.56 4942.77 3927.99 5069.84 4051.44 5329.64 3323.28 4301.06 4997.27 5344.25 6013.14 4581.13 4219.07 5372.61 5584.06 3686.21 6480.17 3838.56 6445.22 5872.05 4427.28 6430.39 5376.71 4448.13 5703.6 4867.08 5407.78 6648.68 4713.74 5061.98 4537.6 4419.61 7177.44 6260.79 4082.57 4407.87 5450.44 3848.54 5080.18 5266.5 5868.82 4716.19 4050.9 5135.69 5344.0 3456.98 4501.51 4602.86 5925.6 3856.59 2765.2 5413.79 5572.95 6723.16 5402.24 5013.42 5651.07 4962.77 6101.92 5323.3 3082.32 4635.6 4765.02 3658.37 5629.39 5070.29 6326.18 4807.28 5075.55 4266.03 4084.49 6179.96 5703.07 5147.36 4563.46 3963.76 5941.4 4236.14 4263.33 6510.17 4454.63 4066.38 6695.82 6049.55 5514.76 4290.14 5191.63 5379.87 5987.17 3979.82 4746.52 5130.91 4948.5 5210.48 4527.02 7552.94 3627.55 6239.84 5865.39 5370.85 3178.54 2684.03 6157.04 3776.94 4768.61 2261.36 4220.03 5280.69 5449.46 6113.54 4662.43 4043.66 5169.9 5733.62 5282.91 4425.84 5282.51 4871.96 5331.02 4523.88 5742.65 5709.62 4241.89 6405.76 4877.67 4593.7 6045.46 4043.57 4138.42 5586.81 5006.58 3824.16 5011.31 3868.18 3689.45 5383.07 4531.14 4519.22 4409.63 7644.38 4051.34 5521.25 5949.46 3661.9 5136.08 5246.47 4010.57 4522.21 5506.19 6191.29 6923.84 6166.29 5294.77 4709.05 6553.94 5255.18 3797.33 3004.16 4460.92 7256.35 5592.32 4800.69 3279.1 5835.78 5054.74 4020.32 3498.2 4763.45 3815.26 4481.53 4292.06 5077.33 5330.45 3948.17 5350.88 5045.38 4959.34 4247.15 4602.85 6552.22 5379.09 6004.68 5278.36 6799.4 5107.23 5222.16 4187.31 5558.68 3240.51 7422.36 6719.94 5161.01 5453.6 4950.67 3077.84 4630.82 5528.53 5726.66 5460.65 4767.78 5945.89 4105.55 4042.28 5912.61 4099.77 4978.31 4981.9 4245.72 5941.72 5794.24 4150.99 6562.18 5681.38 6318.18 5577.04 5125.78 4790.78 5452.83 4591.87 6422.84 5534.94 5180.76 6218.95 5533.42 5533.72 3678.08 4599.38 4802.32 5730.33 4527.99 4543.1 4628.4 4376.7 5227.59 6051.83 5409.63 4813.08 4263.16 6799.88 3062.43 4540.86 5426.78 4863.23 3555.86 4402.67 4403.98 5381.16 4948.98 4414.48 4537.32 4127.74 4216.92 4478.15 5147.67 3771.48 4986.77 5423.0 5643.58 6034.41 5197.52 5178.99 4027.09 5801.99 4502.18 3312.06 3361.26 4860.33 4983.39 4993.35 4690.55 5146.37 7132.12 5518.57 5463.48 5545.46 5680.94 5190.61 5832.37 4298.15 3973.12 4642.93 6024.75 5860.67 5987.42 5990.52 5235.17 4340.76 6566.1 4560.84 6386.78 5227.52 5163.02 6086.96 4541.21 4302.5 4704.72 5908.1 5445.87 5198.77 4107.03 5215.05 5137.34 5344.43 4373.47 5615.35 6169.11 4135.62 5266.22 5172.53 3685.13 3418.99 5226.97 5366.52 4480.95 5417.8 4836.16 4232.16 5151.11 5581.55 6550.44 3764.06 5941.9 4440.81 6642.76 6109.49 3764.1 5652.0 4421.12 4435.36 6065.22 5565.13 4996.99 6193.35 2476.04 4656.78 3066.13 6048.7 6009.88 4571.7 4177.94 4138.46 2775.04 3970.25 3975.31 5198.29 4044.45 6070.58 5490.43 4896.11 5022.28 4318.48 6132.95 5754.18 5008.63 4270.74 4558.15 5132.68 6552.21 6595.03 5227.02 5300.96 5670.0 5193.01 4344.51 4707.06 8325.01 3474.5 4523.39 6348.03 5829.22 5567.93 4497.78 2967.38 4835.83 5811.18 5463.41 4929.75 5254.49 4221.28 6045.22 4470.61 4456.39 4631.83 4156.38 4092.24 6006.16 4344.58 5896.46 4850.01 4271.69 6035.6 4285.32 3627.82 5262.19 6449.45 4285.66 5339.38 4004.35 4763.96 3872.61 3450.93 6293.89 5737.75 4350.12 3603.51 3778.02 6609.84 3834.43 5491.37 3781.77 3860.83 4792.39 4250.88 5732.27 5434.47 5278.56 4243.79 4779.5 5332.65 4159.35 4237.98 6439.37 6649.96 4896.39 3701.27 4729.43 5233.78 5105.16 5991.09 5126.91 4562.74 4164.68 4678.38 4742.68 5634.83 4810.12 6898.19 3821.72 5526.14 4244.9 4470.4 4986.51 5311.03 6048.86 3930.79 4238.4 5365.24 5293.51 4446.06 4047.87 5097.45 5742.47 4185.61 4095.75 2761.07 4367.78 3319.67 4076.59 5135.96 5222.51 5658.37 6074.94 3475.67 3783.54 7038.89 5146.37 6917.62 5433.65 6451.33 5604.35 5225.33 3091.67 4614.3 4384.88 4332.87 3633.79 6887.27 4806.34 6008.49 5050.65 5316.75 3633.87 3929.19 7099.43 6396.74 4516.28 5315.4 6894.26 4611.53 5255.12 6408.83 6625.18 4573.72 4917.99 5099.21 4298.45 5636.4 5164.1 4428.14 4972.17 5699.53 5527.23 4222.77 5268.38 3863.67 4814.12 5631.14 6137.8 5067.56 4442.22 4887.76 5413.31 6477.91 4303.19 4081.97 5514.84 6081.14 5421.53 3942.07 5480.83 5776.57 5448.61 4827.33 5495.84 6268.1 5347.48 5922.5 5776.37 4527.08 5486.68 5100.25 5094.48 5678.96 2681.29 5576.92 5323.91 4163.74 4586.19 4296.69 6969.28 3665.95 5283.8 6471.42 6464.15 6016.19 6685.4 4850.06 4479.11 6332.01 4805.33 7044.29 5980.95 4013.38 4343.78 3012.99 5263.3 6316.56 5401.99 6420.81 5134.39 3914.2 5653.9 7144.24 5133.97 6600.94 7443.72 3937.08 4374.35 4502.5 4011.77 4287.63 2965.79 5805.86 5346.68 4049.02 5296.29 5839.71 6234.32 5997.88 4570.98 4585.31 4275.07 5698.96 6238.32 6372.13 4124.49 5369.5 5714.25 3230.13 6176.67 5325.96 5016.02 4581.37 7085.01 4234.18 3352.35 6193.08 4909.65 2735.53 5116.6 4008.15 4811.32 4286.49 6400.08 4256.57 4607.85 4220.46 3600.43 5683.26 5371.02 4906.82 3784.5 5513.57 5022.8 5499.11 5252.34 4410.55 3921.08 5083.41 4190.31 4558.46 5683.61 5020.71 5737.92 5662.55 4360.23 3755.95 5889.35 5010.04 5388.78 5825.38 6804.79 5642.35 5535.91 5404.01 5955.86 4533.37 5412.24 5887.38 4920.21 3936.95 4049.16 5851.61 6069.3 6153.94 5887.01 6523.86 4669.06 7693.4 5580.92 4715.58 3317.83 5784.3 4287.53 3532.3 5598.74 6088.68 6070.3 5131.24 7055.53 5113.21 4862.21 5965.78 7055.42 3836.45 5443.58 5731.57 5464.68 3056.7 2685.81 5591.76 4394.56 5896.26 4587.67 6101.13 5599.7 6918.35 6357.47 4793.65 4891.38 2949.12 4532.89 6040.74 2779.99 6942.34 4848.46 6836.82 3862.77 5168.35 3858.17 3747.03 4631.99 2783.85 6184.88 4743.59 4450.7 5208.14 5769.98 5973.33 2221.99 5937.08 4788.58 6155.1 5260.34 6133.92 5013.67 6125.34 4274.61 6314.07 5687.85 6401.43 4747.55 4539.07 4510.8 7509.24 4475.83 5951.81 5756.75 4834.3 4066.57 6348.54 5156.76 6101.57 3856.53 5460.89 4054.22 5742.09 5807.46 3658.05 4393.16 5478.11 3477.1 5388.39 5030.15 4740.98 4356.49 4326.48 3728.18 5829.32 4437.07 3449.37 5151.52 4396.25 5092.24 4347.74 3583.21 4643.56 5442.32 5046.21 5612.21 5894.61 5206.48 3719.84 5729.23 4178.4 6261.42 5782.6 5975.63 2586.12 6444.77 6248.6 5703.74 5831.96 5064.79 4146.81 5093.82 4840.44 6639.64 3924.14 6318.23 5212.43 4206.98 5454.12 4058.87 5948.71 5932.07 5260.85 5844.72 7228.94 2884.65 4648.21 3311.29 3110.13 4595.12 5526.31 3644.78 3185.39 4078.93 5128.77 5335.47 4526.81 5491.9 3763.05 5551.95 4135.08 5291.9 5067.46 5687.83 5196.67 5128.57 5004.23 6000.7 5669.65 4709.35 7034.11 5433.8 5564.02 4497.59 4470.98 5759.46 5708.99 4558.47 6333.29 4691.91 5480.3 4477.04 3427.63 3687.65 5216.26 5478.95 3851.85 5174.75 4984.46 5048.55 4024.31 3992.97 5989.05 5393.65 4961.99 4441.22 4549.69 4386.8 6192.77 6423.81 4583.52 4312.15 5934.82 5633.61 3994.07 4219.94 5907.46 6405.0 3918.87 4518.04 4009.62 3101.75 5369.08 4863.01 4929.14 5620.74 6496.67 6586.45 5820.48 6946.21 5062.71 4156.2 4289.17 4933.65 4512.11 2435.33 6098.1 4074.48 3614.96 4231.83 4745.43 5344.83 3886.68 7046.11 6342.48 4449.98 4863.97 4887.52 5439.49 6571.31 4392.65 4955.16 4147.31 5950.88 2202.77 5853.89 4149.55 6484.43 6551.93 3485.54 4458.64 4501.78 7122.87 5048.19 6799.23 4659.16 4264.91 3580.58 5549.49 5356.79 5139.5 5945.08 5876.71 5934.22 3780.23 5011.84 5253.55 6057.22 5511.88 5941.61 5950.04 4031.78 4912.04 6853.04 4255.34 7165.9 5589.37 4771.65 5110.11 6379.14 3634.5 6413.15 5420.67 6103.11 6459.51 4904.51 5751.15 3288.01 6201.86 7554.58 4140.4 4625.67 4725.01 5966.75 3657.69 6418.11 4243.26 4888.27 4153.84 5399.29 6740.71 4766.06 5789.55 5233.29 5604.21 3979.54 6442.69 7493.3 5474.8 5826.04 3471.03 4359.62 5690.26 5411.85 5607.14 6915.83 6072.45 5782.48 3735.24 6574.95 6817.57 3420.08 3624.7 4320.42 4701.5 4281.98 4504.35 4036.91 6818.91 4027.63 6631.28 5350.88 5305.59 6114.89 5416.45 4330.58 5754.6 6870.97 5474.01 5307.35 6056.87 3380.69 3639.44 5446.4 5510.9 4883.63 5725.37 5138.33 4505.28 6015.02 3572.94 5119.86 4922.49 5797.36 6487.56 4592.15 4874.18 5423.42 6605.86 2081.58 4011.37 2511.46 2775.69 4778.82 4312.56 6320.71 3169.67 4968.03 5624.49 5226.0 4648.04 5339.78 4373.3 4750.78 5029.78 4730.41 3923.03 3745.84 4004.04 5696.88 4203.26 4413.85 5082.74 3999.94 4844.57 5092.37 4864.22 4027.46 3497.9 3901.8 5564.23 5151.21 5398.64 4693.52 4568.41 5262.35 5783.48 5012.97 4891.67 3429.57 3503.65 5569.2 5410.33 6735.97 5483.7 6384.7 5351.86 4355.83 5963.36 5230.02 5169.48 4342.18 5166.89 5491.63 3868.62 3425.69 3492.83 4971.29 5001.58 5244.22 4820.17 5084.17 4901.2 4854.11 4633.05 6505.78 5657.36 4814.55 4612.06 5204.04 3361.92 5304.13 5944.09 3306.14 5833.06 3527.05 5698.77 6262.72 6607.87 3095.48 3664.11 3365.82 4166.08 3979.26 5188.81 6608.73 3999.48 6062.05 6939.12 4643.85 4735.33 6853.85 6171.13 4020.4 3493.47 2395.5 3374.08 4498.25 4188.87 5108.06 4222.4 4000.43 3573.73 4661.03 5318.53 5160.59 4732.09 5138.2 7001.83 4593.7 4349.13 3766.69 5188.53 4521.75 4882.66 6746.66 4642.74 3636.15 5652.87 5244.78 5135.63 5018.69 3152.86 3896.27 5952.38 5807.52 5087.14 5712.35 6016.08 4731.21 6064.71 6102.98 3743.76 6280.13 5510.45 3684.15 5585.14 7039.98 4729.42 5089.26 4159.81 5971.22 2275.45 4909.31 6522.59 5012.5 5467.84 5490.58 5029.47 4863.79 5876.64 4750.58 6515.84 4702.06 4163.5 5762.59 5117.47 4143.78 4861.06 6481.79 5320.28 4298.67 5873.69 5750.71 5960.66 4962.09 5654.31 4831.47 5563.79 4151.76 3905.51 4406.4 4721.02 3546.71 4596.75 4254.37 5956.65 5768.57 5313.12 4914.45 4698.87 3984.88 3344.57 5220.76 6945.98 6412.67 4482.9 6550.4 5513.8 5036.98 3840.21 4081.34 4120.07 3908.56 4844.83 5377.37 4899.73 5869.67 4311.48 6394.19 5457.66 5518.11 5973.89 4192.21 3742.11 4743.9 3124.7 3719.11 6060.17 5153.18 6711.21 4236.86 5832.29 4438.76 6456.58 5244.98 4901.44 3886.72 4998.22 5533.19 5417.21 6124.08 5711.62 4785.25 3619.79 6519.43 4270.15 5053.95 6710.88 5395.14 3464.83 3967.48 4923.41 2477.07 5724.64 5374.51 4538.95 4925.63 4123.6 7092.87 4970.88 5224.12 4850.14 3637.61 6098.14 4569.12 4796.58 3493.7 4938.74 4472.17 4200.03 5313.22 6222.42 5470.77 3436.15 3474.39 5516.95 5328.22 5711.11 4216.17 4575.94 5021.88 6484.17 4938.72 4597.29 5931.77 4200.09 4795.43 2928.82 5498.42 5097.95 4638.18 4196.37 5351.56 6448.66 4453.97 3503.41 3971.08 6204.65 4775.04 5438.92 4244.49 4952.52 3646.95 4954.76 6334.53 4906.11 4564.1 4848.14 5366.22 6193.73 5254.24 3597.43 5701.52 6776.22 4467.13 3877.8 6273.6 5902.67 4763.4 4730.14 2606.51 5393.76 4941.02 3994.39 6006.89 3814.65 5415.45 3776.8 5792.98 6156.21 6602.43 5435.19 5461.55 3562.79 3298.2 7093.13 6306.21 5926.11 6667.68 6213.04 5253.37 4497.31 2990.77 3163.78 3830.46 5211.38 4305.16 4721.32 5965.15 4763.66 4666.81 6739.08 7042.12 4797.52 4471.58 5463.38 6313.06 5945.21 5226.56 6470.3 6345.13 5599.49 4719.7 5005.85 4097.57 4893.49 5325.44 4834.87 3672.21 5102.75 5760.22 5938.17 5269.38 5607.3 4811.76 5211.6 4745.79 5806.31 3556.79 5456.71 4908.75 7317.04 6556.26 2628.22 5684.25 4124.76 4050.03 4813.33 4705.68 4833.55 7224.99 4749.96 4658.24 4387.39 4745.16 5825.55 5509.51 3199.4 4316.5 7261.51 4968.14 4914.03 4158.91 5144.56 5321.17 5311.55 3360.86 4869.25 5545.21 5024.32 5454.11 3779.45 5806.61 3864.92 4983.1 2955.36 3965.3 4618.73 6119.99 3668.93 5096.43 4960.64 6104.26 4983.3 6592.93 4383.56 4990.79 4798.17 4953.1 6865.76 5424.46 5235.11 5266.01 6515.8 5767.9 3293.56 6031.67 4888.6 5882.65 5092.28 5078.86 4780.2 4918.77 5163.55 6326.39 6817.32 6471.55 6343.14 5501.93 5462.21 6049.79 5374.98 6113.95 5274.19 3981.07 4050.08 5186.3 4901.07 5452.42 5017.5 3991.42 4388.63 5966.61 4940.28 4514.79 4509.89 2216.82 6752.75 5323.55 3022.6 5375.1 3004.34 3804.5 6486.37 4172.6 6083.28 6100.73 4198.94 5470.04 4211.82 5212.37 6003.78 5058.51 4901.29 7200.89 4147.49 4802.98 5384.86 3623.19 4019.34 4869.48 5510.96 6653.07 4697.91 5071.98 5719.79 5148.1 5224.64 5949.73 5214.63 3495.68 5086.29 4312.48 5527.13 3034.16 5139.18 5049.99 4333.87 4708.17 5638.7 2741.2 5790.42 5784.37 7123.04 4128.1 5372.82 4009.24 4385.81 4402.17 4034.05 6350.71 6436.74 3568.28 5425.98 5583.61 2895.63 5166.79 6449.64 4516.53 3940.49 4857.84 2040.66 6464.8 6413.11 5384.76 4739.14 5274.14 5529.42 4636.5 6138.12 5257.12 4819.73 3382.7 4903.82 4434.19 4940.42 5100.1 3954.91 5085.71 5923.4 3703.1 4946.42 4623.61 5409.66 4319.79 5960.56 6643.85 5774.97 5862.86 4020.95 2315.64 4703.08 4390.41 4890.5 3731.84 4488.85 3554.48 4579.69 6496.52 4997.83 5148.08 3718.69 5578.94 6192.0 7610.49 5885.28 6579.31 5452.36 6028.09 4609.02 4896.65 5561.74 5975.23 6163.54 4788.08 5079.64 996.652 5965.58 6500.49 3352.34 4607.18 2403.72 3899.7 5134.33 5419.57 5760.98 5162.67 3629.49 5766.05 5469.35 5117.64 3835.81 3916.42 5429.3 4944.51 5532.72 4584.81 5579.39 4371.08 5270.51 5490.75 4407.79 6548.29 5783.94 5551.43 4278.57 5081.08 5136.87 4201.03 6318.25 5001.87 5813.79 3667.93 4644.88 5293.13 3142.09 6010.59 5591.77 3682.35 3756.96 4446.58 7778.01 5401.4 5690.96 2460.79 4653.83 5798.38 4456.11 6063.64 5096.24 5996.66 5818.95 4986.71 6479.39 4093.99 4122.92 5079.22 2978.76 3604.14 4908.49 7016.27 6622.11 4689.15 5884.9 4428.78 3685.65 4965.89 5746.28 6790.73 4371.99 5243.43 5659.95 5187.7 4741.26 4082.47 6090.91 3561.29 4537.14 2965.01 5203.08 5412.31 6235.57 6263.44 3492.19 4863.27 5122.63 4584.5 4118.84 6766.43 5916.16 6934.37 6027.62 3423.15 5010.2 6123.03 6098.95 5453.98 5653.03 3989.7 4157.29 4777.03 4246.61 3684.56 5327.75 4286.17 4946.23 4852.58 4532.7 3844.54 4504.86 3217.67 4473.29 5034.69 3538.53 4509.46 4680.69 5640.12 4972.18 5329.76 5078.59 4365.58 4759.99 5214.4 2646.13 4636.53 5193.58 5399.43 5695.44 4507.46 3422.21 4526.34 5603.68 5042.75 3220.8 5610.95 4598.92 5179.17 6647.08 4979.52 4537.03 4114.2 3990.96 5352.24 6370.33 4202.77 6864.06 5684.05 4493.79 4932.56 4028.22 4279.44 4899.19 7350.26 5182.13 5906.57 5167.53 5053.15 5127.82 5910.86 4125.9 5124.17 3862.91 5805.1 5366.11 6171.71 4405.42 7382.3 2995.67 4997.91 4452.54 3598.08 4599.81 4962.21 4684.44 5381.54 4749.59 4406.05 4680.94 5089.62 4858.44 3468.42 3685.13 5828.35 4590.55 4673.35 3876.21 5571.72 4655.16 5869.4 5920.32 3701.16 4916.22 4186.6 6022.7 4152.85 3295.83 5551.9 4219.78 5499.39 5644.82 6413.02 4718.54 4440.57 6736.03 5374.07 3087.09 5548.29 7480.41 3623.87 5163.77 3766.55 5469.13 4976.12 5765.42 5530.49 4817.16 5660.55 4304.41 4892.44 6789.23 5069.89 5107.0 6212.15 5361.87 4783.07 6813.72 6200.63 5969.37 6816.66 5241.75 5849.53 4651.99 4420.11 6127.39 4918.64 6638.25 4815.47 3889.98 4368.12 5490.64 5034.34 3769.2 3856.73 3468.45 5036.14 5635.32 5409.08 5673.75 5360.67 5241.22 5968.54 3422.29 6263.3 4326.06 4501.05 5124.34 3247.97 4358.81 5034.46 7362.42 5836.14 5473.05 6008.81 5537.34 5192.49 3487.31 5058.34 3768.46 6110.48 3852.82 4507.36 7541.76 5003.3 4775.49 4681.29 6239.68 7320.78 5039.12 3908.98 4064.58 4668.88 3628.89 4022.56 6589.82 5522.21 5027.43 5698.23 5810.77 3772.3 5089.1 7300.58 2711.19 5799.69 4714.83 4028.32 5876.72 5236.43 5689.26 4992.42 3809.69 5297.19 7051.9 5251.4 4940.84 3867.19 4188.3 4345.67 4255.85 4453.64 4963.34 5081.78 5019.93 4459.28 5453.3 4260.92 6116.33 4479.94 6250.23 5887.15 4407.9 4435.51 7234.66 8659.64 4055.54 6599.66 4588.7 4886.12 5683.95 6107.89 4233.8 5206.33 4446.84 5065.26 4356.36 3746.36 4741.28 4215.2 2205.51 3703.49 4553.68 6502.97 4268.19 4757.2 3205.68 3758.22 5046.31 1937.5 4928.35 4337.32 5146.0 4731.53 3763.9 4788.7 5863.0 5084.5 4987.28 6562.03 6206.98 4410.82 5549.71 4967.51 6443.99 7212.97 5698.53 3604.31 4450.49 5887.71 4827.61 5481.64 4316.45 5385.03 4778.37 4169.15 5134.17 4529.77 4074.16 4904.35 5592.54 4904.37 4651.64 5757.29 5793.12 5469.17 4373.2 5061.75 5884.99 3918.94 5726.42 6643.4 5575.11 5487.63 6599.28 6245.52 4932.29 5499.59 5800.81 5749.6 6016.87 3845.9 4834.44 3125.13 3419.87 4234.88 4824.81 4141.21 4439.71 4384.28 5782.43 6328.42 5769.14 4855.01 7307.21 5522.75 3608.06 5867.64 5474.15 7519.2 4099.92 4771.13 6633.61 5285.07 3208.96 4884.59 4680.14 3858.06 5097.69 5895.77 5511.6 3885.86 6261.75 4517.73 5235.29 3757.34 5177.64 6415.61 4338.08 4255.31 6134.99 5191.08 5424.88 5148.58 3838.47 4062.5 3583.49 2588.37 4199.45 3548.39 5415.85 4858.51 4207.54 4603.5 3375.28 5625.65 4936.96 6419.12 4481.76 4301.61 3184.64 5375.12 5452.78 6214.73 5473.72 2603.64 5175.89 2856.55 3894.64 6618.21 5232.85 4374.74 3717.47 4062.56 4583.94 4051.18 4685.4 6240.42 6006.16 5721.14 4577.73 4288.45 4071.75 5131.77 5482.76 3745.02 4887.73 5173.82 3720.7 4211.36 5378.24 4538.89 5661.6 5817.74 3242.31 6099.28 5285.75 4830.13 5370.9 3494.16 4941.52 5900.0 4325.13 4262.74 6172.27 5390.33 3783.79 5278.54 5078.73 5729.92 5729.0 5275.57 5016.46 6224.13 3769.24 6022.78 4087.32 3661.67 5517.65 6647.85 4674.9 7025.09 5461.72 4361.24 7145.73 6224.85 4990.23 4168.52 5403.97 3220.29 3784.94 5166.05 6715.73 4174.44 5667.51 4456.26 5113.6 5944.3 3563.14 4810.98 3381.82 5135.5 5431.29 6208.9 3619.72 5347.9 4923.57 4646.51 3340.09 6059.93 4438.58 5602.53 4478.6 5217.95 4608.41 4732.09 4184.23 4144.57 4765.72 3988.3 5857.79 2908.7 5750.07 4039.91 4642.66 6136.49 5276.7 6543.13 5149.72 4752.14 5660.16 4541.8 6200.54 5842.56 4652.01 5713.03 4928.27 5134.67 3673.28 5052.84 5775.31 5421.64 4366.74 4165.21 5297.16 5354.66 3950.27 5116.66 4647.67 4214.44 3566.79 3629.44 5378.23 5374.67 4787.97 4981.43 6246.56 4508.18 4061.6 5064.67 4383.68 5836.26 6666.67 2617.39 5144.44 2904.46 4826.52 5120.92 4629.02 4924.07 4927.73 5914.5 4602.57 3565.32 3763.85 3419.07 4608.62 5407.96 5344.44 3186.07 4369.86 4626.72 4082.4 5728.58 6297.99 6424.77 5918.95 5689.56 6556.86 4898.29 5372.25 3234.26 5730.2 5620.88 6005.95 4308.49 4581.1 6241.77 5317.19 4248.14 5279.19 5192.92 4179.87 4761.84 4786.66 5891.25 5370.1 4009.68 4622.73 2569.12 4161.32 3392.26 4433.12 2549.95 7336.37 5138.93 4556.19 3954.77 5368.66 5106.46 6793.1 4506.66 5515.73 4068.31 3671.06 5209.55 4708.31 4564.41 7035.54 3873.92 4027.33 4198.9 5026.76 5951.86 5091.22 4833.67 5023.41 4565.93 6282.38 5640.72 4504.52 6061.63 6355.68 4083.79 4511.7 5484.36 4833.46 4304.63 4351.38 4187.94 5980.59 5550.75 5933.7 4809.67 4757.74 5021.77 4687.64 4356.25 4378.3 5411.02 4950.97 5037.06 5175.29 4989.56 4863.96 3645.12 5199.44 4094.73 5580.34 3852.6 5849.65 5131.15 5009.83 4110.59 4706.5 4847.14 3332.49 4811.22 4215.0 3683.86 4474.83 6555.44 4918.76 5293.75 5003.78 3299.24 5114.07 4208.41 5730.61 5826.78 7124.45 6358.93 4559.74 6015.22 4454.74 6063.44 5512.44 6449.06 3460.93 3200.6 7168.2 4571.74 5710.33 6432.8 5001.51 5115.42 4209.0 5485.84 4335.79 5453.69 5432.04 3702.45 3921.27 3161.1 5265.63 4431.06 5684.88 6523.78 4645.86 4045.67 5087.97 4930.17 4519.03 4745.44 5110.27 4085.96 5762.82 7360.12 4016.6 6223.98 7050.08 3035.06 5580.44 5095.52 5129.4 5114.51 3303.49 4746.15 4655.37 5161.74 5256.75 5099.9 6945.69 4795.08 6406.8 6562.92 5501.73 5077.29 4697.24 3612.44 4983.43 4850.5 6331.74 5233.76 5763.05 5426.4 4252.18 5357.39 4659.88 5325.91 5851.63 7107.63 5727.79 5073.02 5212.92 2279.05 4867.7 4831.93 4829.35 6545.43 5788.97 3953.55 4075.28 4063.9 5263.27 4277.24 4469.54 6834.41 4314.56 7248.4 6300.92 5161.1 3796.15 5469.47 3928.53 5036.58 4419.71 5329.59 5439.9 4244.21 5512.16 4588.99 4321.21 4617.55 3197.63 3875.05 4287.16 3456.47 5471.74 4344.34 4923.43 5966.42 5666.95 5210.38 5717.8 4548.45 4489.99 5210.75 4658.11 4551.26 5658.14 6570.35 4242.63 4385.49 3269.54 4263.18 5846.95 7142.95 5064.23 4620.95 6061.85 5268.15 5819.0 6121.56 6347.72 5124.86 5740.78 4796.12 4096.86 3622.48 5997.91 5385.86 6791.86 6031.22 4930.72 3618.64 5703.84 3530.82 5797.32 4886.99 4002.99 5159.67 3572.73 5764.52 4864.38 3770.22 4390.64 5150.84 4608.01 5339.82 4467.51 5460.57 5703.34 6668.98 6649.52 5821.49 5462.6 4262.19 5998.13 6275.25 4878.93 3720.38 6892.33 4758.84 5585.25 4731.37 5023.61 6351.89 5932.28 5118.86 7086.69 5648.78 6875.73 5226.42 6081.3 4436.48 5615.35 5117.52 5866.91 5129.68 6405.69 2820.07 5076.84 5679.74 4546.44 3791.41 4092.07 5657.55 5853.12 4213.05 4224.3 4184.21 4700.07 3472.91 5188.82 6760.92 5615.84 4989.2 4023.93 4464.73 4928.85 5868.89 8137.11 5291.05 6650.77 6045.67 5776.96 4209.49 4888.12 6119.63 4216.95 5464.25 3498.16 4247.69 4409.27 5301.47 4752.9 4947.24 6506.86 3540.11 5391.48 5950.45 4803.57 5088.57 4728.55 4929.6 4568.64 3919.62 4642.2 4127.53 4212.15 4945.0 5260.52 6102.49 4241.68 5678.58 3469.18 3185.09 2945.34 5114.23 3372.95 5495.0 4489.29 7407.91 5796.26 5716.42 4603.04 4870.94 5701.63 5293.37 5368.93 5271.88 4488.39 5559.79 5879.24 2980.31 3148.79 6348.93 6824.53 4742.82 4332.64 4422.23 4820.68 3989.26 4171.02 7012.36 5128.59 5028.06 4293.3 5587.3 6583.37 3402.44 4848.98 4491.96 5184.98 4397.06 4479.5 6261.67 3435.13 4612.68 5065.78 4431.46 3207.84 3977.98 4521.42 4614.49 4232.33 4747.68 4939.56 5617.29 4597.88 4845.91 3093.38 2002.78 5631.32 4461.67 6322.0 4505.3 5793.14 3976.0 4452.36 4068.41 4672.86 6463.71 6530.78 2960.5 5560.23 4975.32 4298.7 4183.4 5237.55 3902.48 6170.9 4733.79 4304.64 5833.78 4905.53 4823.06 3967.76 5758.98 5254.49 6311.89 4683.28 4217.36 6549.8 4825.73 5247.01 4208.37 4165.36 5288.33 5157.38 6203.03 5235.87 5273.37 5043.14 4717.73 6440.38 4732.37 5556.0 4711.04 5484.32 3904.07 5007.21 7144.05 6226.14 4173.54 5466.33 5742.74 3946.28 5280.12 3821.94 5984.81 4209.31 5486.48 3805.67 5367.73 5718.28 4514.39 4640.06 6242.79 4227.41 5993.0 6047.14 5467.63 4140.92 4554.68 4368.28 4512.07 4692.32 5750.35 5463.06 5984.8 5236.24 3127.83 4585.04 3986.41 5532.75 6949.65 4095.83 4975.85 5695.25 5323.95 5676.61 4301.93 6171.01 4468.26 5578.18 5106.33 5198.94 5933.54 5464.05 5453.2 5264.83 5136.51 3901.53 6815.51 5232.16 5313.86 5189.91 4457.05 5151.19 5777.26 6119.0 6079.55 3792.06 5485.61 4993.49 5310.33 4569.32 3688.83 5537.61 6084.88 3543.98 4053.12 4199.44 4014.44 5878.55 6604.72 6002.77 4610.55 4967.02 6043.34 4128.93 4959.72 5770.92 4712.17 4723.71 3808.04 4405.61 6126.5 4034.88 4491.26 6007.1 4511.34 4832.21 5009.21 5059.37 3043.77 5783.38 4139.39 6264.03 3909.94 6030.39 6589.8 3799.01 7392.65 5288.64 5319.1 3757.23 6213.24 6734.39 4851.18 5942.45 4150.76 5005.72 5368.52 6296.54 4871.77 4841.7 5797.21 5702.4 5069.9 5473.89 952.938 6089.45 4985.3 5072.5 5810.17 5713.36 3274.85 5748.9 5545.59 4619.2 5599.29 4506.18 5606.51 4801.8 7216.98 5721.05 4444.97 5271.02 4807.4 4350.15 6329.53 7013.17 4590.01 6101.86 5078.31 5228.75 4807.35 6545.99 6761.81 2918.64 3903.91 6139.64 5630.9 4756.8 3990.94 4896.43 4176.32 4462.35 4639.8 6069.78 3587.93 5196.08 4517.29 6257.79 4495.75 4849.5 6229.83 4523.81 5065.74 5791.25 4873.23 4028.35 6731.89 5410.6 4733.41 2932.52 4603.66 4969.68 6636.43 3557.46 5431.14 6298.8 3689.24 5178.07 6509.54 6412.84 2589.19 3856.4 4696.06 5308.4 6581.13 5803.3 3228.27 4721.98 5252.82 5056.26 5445.91 4812.59 3794.47 7115.67 4462.5 5400.69 5573.31 5004.68 4023.88 5348.11 5428.24 5108.84 3511.5 6345.2 4520.14 4609.65 5488.96 5704.61 4742.35 5645.54 5394.79 5264.08 5088.64 4526.87 3562.8 4151.74 5192.82 6920.92 3729.16 4174.22 3783.36 4181.93 6828.8 3038.91 5987.88 3579.59 4228.53 6123.46 6142.88 4065.28 5811.26 5155.28 5388.73 5685.74 5062.77 6740.35 4678.7 3673.6 6028.63 4966.07 3306.84 4657.24 4400.14 4749.18 5553.94 5494.28 5166.41 5740.65 6038.68 5046.12 7104.73 3000.29 2596.96 5067.56 6349.67 5701.75 5261.19 4264.54 4139.3 3516.27 6541.45 4263.65 4601.74 4263.78 6106.43 5644.81 4177.47 4218.16 5334.36 4933.49 4841.23 4357.11 5477.8 5589.53 5486.89 7208.19 4549.51 5234.2 5025.42 4965.24 6379.38 5327.05 5438.55 5353.23 5977.66 5209.5 6175.27 5876.51 6500.45 4907.55 4286.61 4103.76 4757.87 6605.11 6379.33 5971.95 5652.73 3979.46 6321.97 3985.93 5945.25 6071.59 5985.75 4137.16 4937.36 5984.55 5672.46 3956.24 5202.33 7558.99 3393.59 4142.1 5043.14 5333.04 5089.1 4521.99 6842.54 2853.68 5675.45 4998.37 6038.56 2807.46 5599.16 4179.8 3488.34 5658.35 4577.98 5886.81 4582.12 4487.51 5067.92 4295.25 5357.14 3188.21 5128.03 5410.73 3720.92 4574.03 4379.91 5290.37 5850.38 4227.66 4691.01 4594.89 5245.95 3573.84 5821.42 3922.28 4067.89 6570.43 6883.86 6161.94 3350.99 4979.5 5057.59 4461.14 5111.26 5285.6 5418.98 5205.38 6019.35 4949.55 6075.99 4884.93 4600.71 3450.07 5265.21 5927.2 4550.92 6215.87 5146.1 5191.26 6485.77 5866.42 4067.96 4704.92 4824.12 3663.0 6542.5 4099.26 5206.47 4834.39 3834.47 6162.3 5971.21 3272.75 5493.89 5262.47 3512.94 7043.44 3104.96 3831.52 5601.55 4258.98 4750.49 5196.92 4643.9 3787.08 4013.86 4598.54 4816.51 4711.15 3825.48 5218.42 4658.59 5345.73 5188.22 4770.63 4196.62 3810.68 2804.54 2809.19 5005.6 4916.7 4104.04 5593.79 5104.39 5847.91 4612.13 4934.66 5846.6 4984.01 4109.44 4903.84 4290.49 4605.39 4434.65 6688.53 5927.1 6263.87 5743.8 4094.63 5084.76 5581.01 6834.92 5130.57 5749.53 5090.48 5402.45 5034.02 5582.28 4649.5 4810.74 5181.31 6189.29 5475.83 4329.8 3074.49 5728.27 6571.26 4313.38 5580.95 3549.92 5250.56 4032.06 2468.16 5246.81 5888.95 5394.78 3463.34 5122.38 3361.11 5329.84 5901.71 6559.82 3879.83 6565.95 5733.12 5043.34 4246.24 7394.47 4729.45 4850.95 5087.3 5919.27 4942.63 6139.74 4975.57 7066.26 4730.97 3677.85 3057.3 5214.71 4515.02 4677.84 6294.09 3463.53 4571.57 3445.92 3820.19 5131.07 5236.69 4121.07 4586.82 4745.37 6026.04 5939.29 6200.05 5575.11 4574.54 5615.06 3132.34 1969.87 4764.83 5262.79 3957.38 4494.15 5035.71 4419.79 4710.88 6060.06 3669.32 4762.1 5544.27 5610.53 3484.81 3742.31 4954.81 4316.0 2970.9 4546.96 4383.47 6304.49 4580.06 4608.34 3926.11 4835.97 5695.79 4057.17 5464.83 3622.8 4770.51 4184.47 2781.96 5414.58 7066.96 4431.23 4991.35 4467.0 4994.65 4587.7 5740.98 4346.07 4462.87 4012.92 5759.79 4426.02 4474.39 5459.92 4096.47 6478.35 5453.77 5114.67 5353.66 2638.82 5030.33 5527.27 5157.73 5765.14 4541.22 4946.08 3539.68 2927.84 4696.03 6177.68 6217.33 4698.7 4557.1 6229.64 6270.59 2848.44 4220.43 6045.26 4975.56 7282.36 6666.34 4645.91 6959.88 4125.75 3746.62 5247.73 4532.67 4876.37 4769.62 5260.13 5019.84 3900.93 5784.38 4149.17 6260.58 3053.19 4720.22 5827.3 6598.99 3633.58 3010.1 6294.14 5203.75 2459.88 5262.85 4210.24 5470.67 4932.27 5225.11 5342.9 5252.22 4962.35 6436.29 6805.02 5402.81 5354.48 5640.63 6261.13 4793.06 5374.09 6637.38 6188.33 6111.23 6916.18 6150.31 5873.62 4811.11 4924.52 6126.03 4866.8 6044.69 5524.28 3133.28 5731.43 5105.54 6353.81 5859.17 3414.67 4034.41 4052.49 5490.54 5061.74 4841.28 5203.54 4047.95 5507.38 6889.5 5001.69 5407.69 4416.87 3869.39 5960.5 3987.69 6502.99 4287.25 5424.55 5755.15 5134.72 4271.07 4921.1 4191.01 3814.16 6419.64 4589.06 5340.05 4215.05 4140.04 4920.88 4668.8 5995.4 5577.41 5917.34 6511.37 4216.44 3999.5 5735.08 6710.14 5034.05 4726.2 4750.81 3953.26 4282.11 5467.51 4625.53 2347.41 4542.16 5602.62 5714.51 3543.37 2030.03 5628.97 4621.33 4484.78 4801.16 4767.54 5121.08 5688.77 5368.28 5466.13 5257.38 5075.23 5625.02 5212.05 5479.86 4829.77 3928.99 3826.01 4444.92 4763.04 5944.52 5971.9 2513.38 5050.2 5316.05 4908.32 3995.08 3874.12 4499.52 4028.13 4457.73 3113.64 6476.35 4304.75 5480.86 4067.24 2832.83 6139.9 4474.96 4084.87 6036.99 3825.98 3584.05 4589.22 4339.97 4667.84 5169.09 4691.15 4512.6 4636.45 4260.38 3799.55 5638.51 6793.49 6786.37 4333.23 4600.81 4124.33 4900.26 5168.97 4167.55 5783.88 4720.34 6271.22 5244.47 3421.81 5378.75 3920.64 6186.24 5822.7 3780.07 5786.06 4137.41 4159.89 4996.91 3868.69 3920.44 5447.74 4450.51 5379.52 3768.62 5314.67 2970.24 5658.05 4197.87 5462.1 6593.1 4000.51 6032.45 3518.14 4150.44 5444.36 5522.34 5326.03 6189.67 6142.94 4948.96 5717.45 5117.83 5256.82 5300.17 5152.78 5308.33 5393.43 4117.9 6896.55 4666.12 4392.75 4638.09 4685.65 6219.34 6023.07 5674.63 4420.6 5287.25 6506.63 5939.22 5418.12 3626.86 6371.96 4271.93 3495.3 5890.25 5322.11 5700.79 4697.49 5524.45 7133.44 5600.21 4656.01 6589.13 4037.86 4138.59 4970.55 4938.33 8123.59 4819.83 6286.27 6327.54 5071.38 5507.07 5616.66 2943.17 4802.36 4880.78 5327.71 4322.56 5509.09 3873.72 4850.49 4592.49 3625.98 6188.62 6474.5 4702.32 5908.57 4413.56 5742.39 4821.41 4924.53 4780.16 5616.11 4813.24 5759.19 5847.27 4490.2 5734.84 3982.31 4582.24 4758.76 4790.63 5259.29 5087.03 4916.75 3906.41 4123.08 6224.64 4221.03 5082.66 4550.77 3563.33 6060.19 3550.88 3860.8 4328.76 4919.13 5940.5 4358.06 5002.38 5093.51 6705.93 4865.11 4731.16 5510.89 5502.14 6470.87 4495.33 5282.67 5466.49 5178.55 4038.17 6033.72 5007.41 3851.47 4966.74 5563.47 4066.36 5651.46 6033.93 3162.27 5011.37 2827.92 4026.03 5044.68 5771.98 4420.35 5899.78 5000.74 5772.57 4813.81 6581.56 4052.43 4013.86 3980.46 4061.87 4057.4 5534.23 4753.76 4585.37 5383.9 6025.77 5158.44 4441.91 5377.01 4466.22 5330.26 6470.23 5828.25 4475.38 4725.11 5483.37 4256.08 5092.93 5881.93 5934.05 4157.1 2803.01 4604.1 5125.17 4399.52 5322.07 4859.01 5076.11 5770.07 5990.75 5101.6 5327.39 5910.66 5781.62 4981.81 4637.3 5141.03 5734.07 4840.44 3997.68 6033.28 4188.16 3784.68 3717.22 6649.21 4654.92 3470.69 4859.95 5286.55 5522.18 5223.1 5093.41 4981.55 6842.35 5144.23 5464.34 3621.63 6153.07 4414.06 6833.5 7296.47 2613.78 5417.07 3834.01 5738.37 4433.23 6789.66 5312.2 4739.41 6760.64 4706.59 2515.5 5177.88 5551.79 4950.07 3916.15 5367.05 3743.85 4088.72 6236.46 4818.53 5097.85 5584.64 3795.63 5189.4 4576.71 4894.15 4337.93 5201.3 5536.0 4345.51 5145.13 5561.63 5611.29 6568.45 5004.22 5647.93 6201.49 5449.09 5154.74 4465.56 4605.61 4131.08 5747.9 3864.19 5146.69 6203.24 4907.48 3692.99 6818.23 6213.74 4959.94 2329.93 1635.31 5639.4 6185.73 5516.37 5092.44 4083.24 4441.44 6520.96 2649.69 4232.44 6908.32 3467.11 5336.61 4817.75 6153.26 5268.27 5637.53 5244.95 4645.93 5165.31 4896.67 4634.25 5901.8 3798.09 3934.11 6417.61 4288.5 4781.9 6815.96 6153.71 5339.6 5917.08 6561.94 5259.21 5317.83 3483.61 6738.9 5640.67 5992.06 4460.89 5545.68 4714.66 8052.53 4444.0 3939.96 6771.18 4554.24 6182.19 5555.89 4967.93 4984.17 4867.12 7415.84 1458.87 5922.62 5130.56 6241.48 4414.09 5191.29 5125.45 5957.82 6305.9 4542.62 5093.28 4132.08 6131.52 6009.88 4699.77 6664.54 3922.98 5161.73 5259.48 4777.96 5801.89 6608.94 3796.73 4644.68 3082.16 5656.84 2892.36 5416.41 4694.27 4849.21 4785.55 3793.83 6981.47 4449.73 5647.11 3945.62 5342.17 6189.04 5015.67 6538.04 6157.59 5848.41 6223.33 5438.6 3747.96 3724.23 4521.88 5103.3 4280.92 7263.57 4696.92 5705.96 6437.99 6898.8 5386.95 6540.57 4287.93 5315.71 6158.93 4488.41 5081.65 4369.87 6938.87 5412.07 5806.74 5512.57 4806.99 3771.91 5432.2 4612.4 6178.19 3312.3 4746.19 5563.09 6381.58 4848.15 4439.09 3282.57 3882.37 4798.13 5523.81 5448.64 5188.57 4095.4 6351.48 5395.12 5715.51 4496.51 3886.56 5783.69 4511.05 3830.7 5252.37 3456.3 6074.39 5350.9 5432.4 3775.38 4262.52 7430.48 4844.2 4081.77 5114.61 6572.17 6080.69 3751.73 4420.3 4926.62 3374.62 4766.47 4970.12 6369.66 6044.01 6009.93 6520.19 5973.57 5270.1 6351.95 4957.99 5195.09 4063.26 5345.05 4947.64 4997.89 7679.2 4881.51 4909.74 2626.41 4311.92 6729.99 5036.84 4565.36 5813.68 4025.08 5254.93 4008.67 4803.4 8013.28 4868.66 3846.55 5283.65 5943.61 5981.54 5911.29 5020.37 4542.25 4414.23 5233.88 5245.4 6189.81 6379.3 4090.28 4048.73 4246.83 7370.52 4726.5 5467.05 4963.88 4601.54 5888.94 3832.09 4122.2 5175.88 5267.65 6632.04 5360.88 5332.11 4893.72 4072.4 5373.78 4823.14 6679.12 5652.19 4621.32 5699.4 6578.62 4813.55 5856.43 5217.62 4796.04 3839.0 5349.85 4616.81 5799.86 5715.25 5212.2 4611.21 5648.59 4718.61 6697.45 3873.79 5717.67 5357.33 4432.32 5515.59 3721.69 3224.81 6210.0 4499.54 5782.25 4750.76 5037.58 4046.22 6457.89 4948.21 4444.95 4987.01 6118.13 2181.29 4706.31 4202.12 6332.64 5003.81 4871.1 2694.25 4735.99 3917.09 4083.1 5678.08 4613.32 3482.73 5872.45 6225.05 5434.04 5200.1 5994.21 3997.52 4444.54 5403.81 5779.9 5310.33 5299.03 5504.65 5669.41 5732.11 5040.9 3618.53 4770.21 3783.35 4004.39 4037.16 5159.9 4987.48 4248.58 5479.17 4727.98 4516.26 5739.69 3509.34 3647.26 4790.16 7360.62 6004.72 4977.64 4983.56 5699.51 5345.65 2489.44 5438.5 5499.37 5863.36 4632.75 3878.8 4698.94 6284.12 3948.21 3465.03 5669.15 5229.56 6011.4 4672.34 5263.86 5172.1 4362.94 5056.32 6052.22 4469.82 5108.42 4630.5 3354.94 6296.36 5105.72 4082.01 5237.27 5767.65 4451.76 5003.49 7885.41 5210.22 4907.03 4104.97 4575.72 5617.91 3903.9 5606.22 4721.2 3943.77 5161.02 6265.48 6081.35 4203.68 6492.44 4739.56 4701.03 5145.39 3996.93 3352.46 5579.04 5125.53 5405.6 3929.35 4884.93 4223.53 4759.38 4535.94 5082.25 6964.78 4374.05 4287.15 5282.51 5604.0 3760.4 4951.02 3919.47 4602.7 5596.68 6395.63 3731.58 3166.37 5369.42 4985.45 5205.53 4714.52 4587.19 4489.18 5543.05 4883.13 5237.76 4836.76 4994.98 5551.09 4286.84 6423.96 6058.13 5296.05 6988.4 3330.85 6635.51 5376.41 5533.52 6545.78 4870.14 4404.87 2932.2 4695.7 4944.08 5576.16 5269.39 4305.35 5648.02 3964.03 4867.13 4604.34 3308.75 4216.33 5497.27 4929.35 5442.79 5051.39 6673.92 5242.38 3124.49 4633.59 5151.68 4884.94 5459.52 6262.18 3818.37 5566.5 5663.36 4276.59 4752.31 5240.97 5569.85 5306.31 5523.96 4733.37 3037.72 6960.97 4523.9 5126.08 5207.08 6028.89 4752.94 5333.16 4888.17 3950.53 4501.1 5581.47 5894.69 4274.05 4384.91 6550.61 4987.01 4060.17 4713.56 5410.33 6051.35 5003.63 4747.24 4380.86 5302.53 4909.13 4287.61 5543.67 3999.81 4072.95 6210.48 6377.45 4439.17 5832.72 2451.27 2701.42 5677.42 4502.12 3255.93 6853.07 6327.61 5733.59 5575.8 5362.15 5268.93 4609.98 4455.61 4738.72 3695.72 6874.6 5106.9 5755.98 5392.85 5077.2 5275.27 4277.54 5529.09 4531.46 6094.34 5925.82 6779.82 5448.68 4739.5 4491.62 3865.5 4863.27 4182.05 
SCALARS Velocity float 1
LOOKUP_TABLE default
1.23217 1.2962 1.29977 1.27808 1.29915 1.3207 1.27532 1.30743 1.19068 1.23413 1.21912 1.26646 1.29306 1.26476 1.22518 1.23462 1.30848 1.31637 1.33118 1.31436 1.27147 1.32751 1.33617 1.27556 1.29956 1.21558 1.32873 1.26151 1.27037 1.26136 1.25135 1.25858 1.23299 1.2175 1.28005 1.28979 1.26153 1.28872 1.22313 1.23931 1.30643 1.31751 1.33453 1.3117 1.27083 1.31732 1.32557 1.33105 1.2909 1.27503 1.29001 1.31045 1.32549 1.28146 1.25761 1.26955 1.25154 1.259 1.26706 1.21847 1.21618 1.18931 1.26356 1.29268 1.27038 1.24831 1.28455 1.28039 1.32328 1.25966 1.33848 1.3227 1.29489 1.26272 1.31865 1.31764 1.33415 1.3324 1.34357 1.30536 1.30929 1.29566 1.28223 1.26337 1.26158 1.2036 1.2169 1.21986 1.22579 1.18671 1.26381 1.28904 1.27257 1.28692 1.235 1.34815 1.34541 1.29293 1.2361 1.31595 1.28905 1.31444 1.31352 1.33755 1.35361 1.305 1.28781 1.27921 1.26701 1.32035 1.20506 1.23719 1.21442 1.22049 1.21575 1.26453 1.25978 1.28819 1.26872 1.27497 1.30524 1.32889 1.29813 1.27994 1.22532 1.348 1.35803 1.26221 1.29778 1.31052 1.30999 1.34395 1.35981 1.30251 1.29112 1.29228 1.28602 1.28398 1.28993 1.27978 1.30505 1.29046 1.27684 1.22573 1.258 1.22726 1.24591 1.24831 1.26447 1.26427 1.27074 1.27889 1.33541 1.22928 1.35026 1.34959 1.35908 1.31367 1.35276 1.30951 1.2986 1.33716 1.35307 1.3514 1.3015 1.29786 1.28964 1.30674 1.28001 1.30595 1.27321 1.26152 1.21971 1.21599 1.21962 1.24358 1.21067 1.28746 1.24849 1.18553 1.21055 1.26275 1.28834 1.31341 1.35106 1.29195 1.37734 1.35306 1.33753 1.36702 1.35783 1.28379 1.35438 1.33727 1.30514 1.28841 1.29989 1.31459 1.32207 1.30225 1.27742 1.21233 1.20627 1.15938 1.20493 1.22503 1.23714 1.24134 1.19722 1.18553 1.25541 1.2629 1.26137 1.2907 1.33434 1.36936 1.30924 1.34851 1.32315 1.35673 1.45862 1.30747 1.33835 1.44038 1.32122 1.3696 1.31525 1.28383 1.3063 1.32972 1.3221 1.18542 1.2102 1.20745 1.28727 1.21932 1.23805 1.28295 1.2257 1.18917 1.1448 1.2711 1.15887 1.30802 1.35152 1.32431 1.31584 1.30048 1.35595 1.53555 1.29078 1.36708 1.45969 1.33763 1.29949 1.28016 1.30231 1.34381 1.32592 1.27356 1.28909 1.24307 1.2312 1.26254 1.21255 1.14825 1.27906 1.23419 1.23906 1.29084 1.14519 1.19159 1.34062 1.34796 1.32794 1.31308 1.23216 1.45086 1.48605 1.63562 1.2838 1.4195 1.38428 1.46362 1.39058 1.28495 1.22969 1.28351 1.27952 1.3069 1.34047 1.34055 1.3042 1.35355 1.21064 1.32639 1.23834 1.1559 1.19087 1.29156 1.20447 1.33052 1.32723 1.2355 1.18094 1.25132 1.18806 1.3415 1.34518 1.34546 1.33113 1.22843 1.43517 1.31709 1.50427 1.41225 1.43401 1.37286 1.26136 1.23237 1.20079 1.19735 1.32655 1.33799 1.3589 1.34645 1.18122 1.36065 1.25874 1.18563 1.3035 1.35083 1.28571 1.27603 1.19725 1.39575 1.33729 1.35773 1.3849 1.39675 1.82563 1.31477 1.32717 1.42018 1.43974 1.54109 1.43263 1.42207 1.32288 1.12084 1.15391 1.04566 1.37249 1.34284 1.3598 1.41434 1.42449 1.43639 1.42381 1.3184 1.32742 1.20541 1.27686 1.25468 1.31054 1.28524 1.22516 1.2732 1.2003 1.25677 1.26014 1.26152 1.41492 1.37883 1.33351 1.35997 1.42842 1.62489 1.49416 1.42063 1.51821 1.50934 1.45648 1.46372 1.45652 1.42678 1.41359 1.42307 1.28641 1.51191 1.46061 1.37863 1.35569 1.36791 1.35004 1.36919 1.39775 1.44996 1.49696 1.37931 1.24612 1.31611 1.35984 1.27778 1.22546 1.23345 1.2457 1.40367 1.27615 1.39391 1.37653 1.34309 1.37513 1.2945 1.33815 1.41333 1.54866 1.47277 1.38002 1.46579 1.57039 1.54917 1.49534 1.52517 1.41351 1.36273 1.57058 1.44391 1.33473 1.38404 1.44057 1.38286 1.48501 1.51888 1.3392 1.25615 1.32165 1.23784 1.2517 1.26745 1.2482 1.25986 1.18352 1.25926 1.24184 1.30188 1.19606 1.29934 1.39696 1.35738 1.26827 1.33964 1.41343 1.54379 1.63312 1.55567 1.51916 1.5161 1.5148 1.51827 1.37456 1.55393 1.49329 1.4214 1.39529 1.39674 1.49588 1.45345 1.43928 1.44682 1.18096 1.23782 1.28724 1.22101 1.23517 1.22797 1.10421 1.13837 1.25143 1.31444 1.30187 1.27388 1.45346 1.32977 1.41651 1.26174 1.36352 1.42862 1.61521 1.5098 1.48662 1.48879 1.5053 1.5142 1.5164 1.51209 1.50418 1.22579 1.54202 1.62292 1.33766 1.48212 1.45112 1.49105 1.45026 1.42069 1.41444 1.42991 1.53933 1.58331 1.41306 1.40656 1.43838 1.31458 1.25438 1.17041 1.20349 1.37122 1.22008 1.21091 1.3513 1.52654 1.4408 1.51644 1.36602 1.29028 1.48181 1.53387 1.5133 1.55199 1.58332 1.5077 1.42008 1.50169 1.70071 1.66576 1.53236 1.48832 1.44201 1.43093 1.4024 1.4615 1.601 1.55878 1.42311 1.35882 1.27083 1.38852 1.10471 1.18255 1.1555 1.24786 1.28322 1.25093 1.47161 1.54863 1.54131 1.55077 1.34972 1.77193 1.27748 1.50687 1.53075 1.52509 1.62045 1.50099 1.4759 1.50088 1.75216 1.58995 1.40051 1.45106 1.515 1.52852 1.444 1.23869 1.43893 1.15542 1.18272 1.54552 1.27444 1.27231 1.50692 1.5066 1.60328 1.40216 1.68939 1.71387 1.93781 1.47912 1.54134 1.46628 1.48442 1.5462 1.61814 1.6236 1.51588 1.54442 1.57743 1.50683 1.55471 1.52896 1.55682 1.60301 1.4612 1.5504 1.60275 1.54707 1.48557 1.43512 2.01898 1.57054 1.67886 1.24611 1.49108 1.20866 1.06118 1.26014 1.5084 1.63778 1.58525 1.72922 1.78304 1.66556 1.50462 1.47884 1.49408 1.5866 1.51396 1.54195 1.55053 1.54861 1.56683 1.52727 1.52937 1.48637 1.65013 1.5476 1.5386 1.82069 1.705 1.68353 1.35436 1.43416 1.70848 1.82925 1.76928 1.31435 1.90063 1.73641 1.71023 1.65602 1.52492 1.57229 1.50771 1.52629 1.52669 1.51693 1.5466 1.55342 1.53522 1.53166 1.54865 1.55816 1.5479 1.55242 1.55601 1.5583 1.54768 1.55759 1.54915 1.51586 1.5066 1.51184 1.67917 1.61544 1.58153 1.61461 1.61024 1.75228 1.73448 1.87439 1.81907 1.87294 1.5898 1.59535 1.68638 1.64686 1.74182 3.00466 2.17901 1.71015 1.76562 1.72632 1.61557 1.62874 1.68934 1.55644 1.56631 1.53818 1.55291 1.54862 1.55746 1.56131 1.56663 1.57359 1.55957 1.56289 1.55848 1.50549 1.53229 1.51301 1.50197 1.64058 1.58716 1.63581 1.64493 1.66617 1.88695 1.9783 1.82691 1.91857 2.39007 1.20312 1.69598 1.82242 1.42912 1.7369 1.66936 1.65953 1.6753 1.57572 1.6027 1.60495 1.55545 1.55312 1.56038 1.56134 1.55022 1.56315 1.5745 1.57698 1.56156 1.56634 1.54473 1.53966 1.50845 1.52594 1.53265 1.56287 1.60444 1.67166 1.61497 1.63295 1.63127 1.63252 1.7393 1.20277 1.69503 1.52357 1.61214 1.59961 1.44799 1.66325 1.67241 1.60446 1.55163 1.52022 1.53657 1.568 1.56007 1.55795 1.5618 1.57498 1.58855 1.5559 1.54561 1.5341 1.55114 1.53726 1.51793 1.53969 1.54501 1.56904 1.61638 1.60757 1.38383 1.54823 1.27489 1.67999 1.60354 1.73351 1.19178 1.53527 1.50395 1.56835 1.52423 1.49873 1.51108 1.49042 1.59558 1.575 1.51753 1.47136 1.5129 1.46827 1.51942 1.64166 1.65934 1.56474 1.51203 1.52133 1.52513 1.56274 1.51837 1.53395 1.56926 1.55969 1.57692 1.54105 1.39337 1.47462 1.47563 1.28043 1.37659 1.45295 1.6021 1.51527 1.72293 1.6104 1.48167 1.47156 1.47668 1.47252 1.57725 1.56403 1.55375 1.42477 1.49122 1.41316 1.5232 1.48886 1.50594 1.40682 1.59459 1.52976 1.47904 1.49576 1.53366 1.47637 1.48987 1.56521 1.48425 1.45517 1.42305 1.50351 1.46072 1.47555 1.44788 1.47391 1.398 1.41269 1.40969 1.43824 1.51963 1.48016 1.19178 1.4525 1.43757 1.46012 1.4431 1.45386 1.42427 1.43224 1.45822 1.39732 1.44076 1.38829 1.37501 1.46099 1.549 1.45021 1.31769 1.57999 1.38214 1.53623 1.48585 1.35312 1.51852 1.60737 1.51135 1.43546 1.3504 1.40555 1.41967 1.45844 1.45887 1.46027 1.43037 1.44062 1.46606 1.44179 1.41768 1.45283 1.46589 1.44211 1.19178 1.19178 1.42287 1.40852 1.40648 1.43135 1.44286 1.39475 1.40837 1.4232 1.41305 1.33852 1.47547 1.52567 1.54679 1.32956 1.38501 1.33475 1.39844 1.42136 1.41114 1.34994 1.48921 1.40274 1.41553 1.42516 1.42406 1.44052 1.44638 1.43463 1.4258 1.42726 1.43994 1.41669 1.41131 1.44173 1.38583 1.4306 1.42012 1.42117 1.40384 1.4143 1.40403 1.39136 1.40126 1.39287 1.38487 1.4004 1.3791 1.4015 1.39474 1.39693 1.38278 1.39617 1.42069 1.41143 1.43129 1.47315 1.39188 1.38745 1.32257 1.38681 1.338 1.40304 1.46005 1.34216 1.43234 1.41992 1.42237 1.40757 1.43418 1.4365 1.44318 1.41884 1.402 1.40028 1.38767 1.44791 1.3749 1.41604 1.41736 1.39879 1.39163 1.39161 1.36715 1.3754 1.35675 1.36823 1.37152 1.3672 1.39121 1.38797 1.3635 1.38111 1.36073 1.44177 1.36712 1.37321 1.45327 1.336 1.41663 1.43061 1.56142 1.32819 1.3851 1.35586 1.34373 1.33839 1.43331 1.39997 1.41891 1.37876 1.40189 1.38694 1.41012 1.4166 1.40736 1.38016 1.3599 1.36603 1.35906 1.40034 1.39963 1.39698 1.37978 1.37508 1.35052 1.3459 1.32952 1.34953 1.37482 1.35673 1.3397 1.37838 1.3986 1.41205 1.33882 1.2915 1.39689 1.42605 1.64569 1.48175 1.29112 1.33912 1.32634 1.33508 1.3351 1.34304 1.30387 1.30027 1.41188 1.33564 1.3648 1.40656 1.41191 1.39683 1.38371 1.34569 1.39452 1.35674 1.35573 1.3537 1.34985 1.3763 1.38202 1.36595 1.19178 1.34653 1.33728 1.33619 1.32373 1.32866 1.32607 1.30681 1.32657 1.32897 1.37473 1.45536 1.41814 1.49401 1.48941 1.33279 1.36767 1.32417 1.46487 1.38797 1.37782 1.26304 1.34393 1.32825 1.34241 1.33229 1.3319 1.31279 1.31722 1.33499 1.34031 1.33195 1.40079 1.43096 1.415 1.35525 1.3388 1.33712 1.3479 1.36631 1.3539 1.37136 1.36734 1.36198 1.35548 1.19178 1.33059 1.32485 1.32319 1.3166 1.30095 1.30851 1.33137 1.32649 1.3256 1.35624 1.34945 1.53356 1.23632 1.39689 1.35509 1.32463 1.38653 1.3367 1.37756 1.36038 1.36029 1.34287 1.32243 1.31538 1.31827 1.3403 1.32681 1.33107 1.38234 1.42302 1.34627 1.33256 1.33689 1.34004 1.34053 1.34305 1.3335 1.35493 1.35852 1.34231 1.34601 1.34042 1.31885 1.31111 1.29924 1.3145 1.3047 1.29987 1.30424 1.32298 1.32223 1.34463 1.34611 1.35343 1.26163 1.31266 1.27271 1.32291 1.32224 1.34183 1.33683 1.3232 1.38137 1.31701 1.35039 1.38962 1.31761 1.33156 1.32716 1.31999 1.32635 1.33783 1.34284 1.35897 1.33027 1.32633 1.33743 1.35252 1.27961 1.30616 1.36655 1.31648 1.32849 1.32703 1.32422 1.33083 1.32155 1.33603 1.33002 1.31843 1.19178 1.2922 1.28546 1.32087 1.31654 1.31937 1.31773 1.34287 1.32424 1.33015 1.31871 1.32929 1.31541 1.29806 1.32184 1.32628 1.32348 1.3299 1.32669 1.34894 1.30826 1.28762 1.33079 1.33232 1.31915 1.32323 1.31702 1.31447 1.34526 1.30108 1.32652 1.30568 1.30894 1.31014 1.30873 1.31456 1.30718 1.32169 1.31161 1.31571 1.31749 1.29865 1.30652 1.31459 1.30189 1.31266 1.30846 1.27473 1.25334 1.27853 1.32047 1.3118 1.28937 1.33328 1.31155 1.34201 1.32835 1.32613 1.31198 1.32055 1.32771 1.32747 1.30927 1.32987 1.35153 1.33121 1.32467 1.32163 1.31995 1.3212 1.32068 1.31932 1.29118 1.30312 1.30829 1.29837 1.30794 1.3178 1.32008 1.30562 1.31256 1.31714 1.31139 1.3116 1.31363 1.30975 1.31602 1.30551 1.30349 1.28835 1.29397 1.29039 1.29198 1.27578 1.28131 1.30269 1.36775 1.24741 1.31893 1.29488 1.30209 1.29055 1.2861 1.3269 1.37305 1.32696 1.36052 1.3192 1.32939 1.31205 1.31518 1.29837 1.28741 1.30145 1.27153 1.30889 1.30816 1.30701 1.30981 1.30943 1.30421 1.32077 1.32529 1.31407 1.31975 1.30662 1.31787 1.29104 1.29557 1.29156 1.28072 1.28603 1.27645 1.27775 1.27068 1.27545 1.26883 1.20085 1.20326 1.37749 1.29574 1.36372 1.36536 1.29627 1.33952 1.3181 1.261 1.29369 1.43842 1.30488 1.06671 1.31128 1.3907 1.31665 1.34254 1.30498 1.30675 1.29561 1.26798 1.29071 1.28812 1.31193 1.32058 1.30051 1.30848 1.31784 1.36324 1.31624 1.32295 1.288 1.27336 1.28475 1.28619 1.28353 1.27091 1.2755 1.25699 1.26402 1.25878 1.2252 1.21529 1.2446 1.31978 1.31051 1.32735 1.31921 1.39024 1.3487 1.44978 1.30368 1.35246 1.20828 1.2812 1.06687 1.3285 1.31819 1.31266 1.30789 1.29341 1.29967 1.29678 1.29242 1.25373 1.26725 1.3139 1.30792 1.31901 1.30202 1.2995 1.23145 1.22456 1.28195 1.34575 1.33042 1.29074 1.287 1.28015 1.27604 1.2755 1.26317 1.27393 1.25253 1.24609 1.25996 1.25515 1.19178 1.21937 1.21507 1.26456 1.27477 1.25761 1.30342 1.29638 1.28269 1.32753 1.43586 1.32988 1.20929 0.993163 1.23245 1.33867 1.15345 1.32792 1.33389 1.33245 1.28409 1.28449 1.28857 1.28478 1.25306 1.304 1.38192 1.31968 1.32188 1.3858 1.27915 1.28036 1.25263 1.27921 1.26674 1.26805 1.28441 1.28998 1.26876 1.26213 1.2768 1.26973 1.26335 1.27803 1.23048 1.23942 1.2471 1.21792 1.21606 1.25257 1.27931 1.3023 1.29146 1.32971 1.26534 1.10013 1.19042 1.30375 1.27746 1.23737 1.29285 1.28298 1.28191 1.31739 1.24671 1.27957 1.24004 1.27902 1.2727 1.26106 1.28189 1.29227 1.2943 1.35647 1.27152 1.28489 1.31023 1.28324 1.29289 1.28262 1.26953 1.29669 1.25115 1.29282 1.27429 1.24621 1.24227 1.26468 1.18873 1.21615 1.17288 1.2136 1.17916 1.22055 1.26966 1.27461 1.28326 1.28407 1.27649 1.27204 1.26704 1.29642 1.31023 1.25328 1.26389 1.29646 1.22845 1.241 1.20338 1.24217 1.27984 1.24723 1.26413 1.28446 1.30235 1.31265 1.34082 1.38127 1.32637 1.28915 1.3315 1.32762 1.29186 1.28072 1.29289 1.29189 1.28774 1.29319 1.24766 1.30376 1.28188 1.23017 1.23568 1.29696 1.21071 1.18009 1.21249 1.17512 1.19518 1.17047 1.16691 1.19178 1.19942 1.21482 1.26229 1.2333 1.27255 1.29295 1.28969 1.30636 1.29894 1.26807 1.22152 1.25769 1.25525 1.29617 1.24098 1.21438 1.21879 1.24134 1.25345 1.27125 1.24451 1.25663 1.26111 1.25774 1.29202 1.28657 1.37042 1.30276 1.28786 1.30065 1.33906 1.29663 1.33636 1.26951 1.26773 1.32905 1.38105 1.34055 1.29606 1.15957 1.18648 1.19313 1.18488 1.19789 1.18305 1.17157 1.20971 1.17254 1.17398 1.19178 1.23603 1.26307 1.22481 1.23553 1.19434 1.30586 1.34659 1.38606 1.29544 1.22628 1.30429 1.25465 1.23954 1.21983 1.25458 1.27093 1.2661 1.25909 1.2781 1.2603 1.24776 1.28034 1.2837 1.27106 1.19735 1.25126 1.25499 1.31364 1.26194 1.38194 1.36109 1.43843 1.25226 1.23988 1.29126 1.29108 1.2331 1.32512 1.21395 1.20461 1.22044 1.29467 1.19973 1.19822 1.24753 1.13932 1.17685 1.19178 1.23085 1.27328 0.955115 1.30828 1.5201 1.13968 1.32785 1.32186 1.35072 1.3086 1.46632 1.03277 1.22519 1.23814 1.22457 1.24498 1.24624 1.2089 1.24633 1.27623 1.26009 1.2896 1.31169 1.2429 1.23619 1.25159 1.25791 1.22267 1.29082 1.24671 1.2886 1.24856 1.32983 1.29413 1.29485 1.30439 1.28401 1.2874 1.21595 1.27261 1.25292 1.38792 1.26937 1.23212 1.08313 1.32597 1.27636 1.18184 1.05852 1.65011 1.73371 1.34265 1.32858 1.09694 1.32925 1.21403 1.15333 1.28307 1.3251 1.337 1.19789 1.19596 1.27698 1.24331 1.29925 1.39005 1.30492 1.2409 1.2432 1.17825 1.23378 1.23572 1.32269 1.06282 1.13852 1.30523 1.40279 1.27986 1.32349 1.29561 1.28337 1.29276 1.30278 1.37861 1.10872 1.19987 1.24718 1.26377 1.33238 1.95654 1.19176 0.914037 0.858154 0.892938 0.915929 1.33487 1.53191 1.54203 1.36128 1.45273 1.09673 1.34507 1.27543 0.95898 1.05622 1.41891 1.72588 0.941509 1.34015 1.22384 1.25154 1.13799 1.21381 1.28611 1.3003 1.34148 0.903961 1.41764 1.19048 1.15389 1.15699 1.18478 0.822502 1.10179 0.937619 1.10204 1.26393 1.08004 1.11214 1.40249 1.32253 1.31125 1.29081 1.27612 1.27884 1.29332 1.29236 1.26556 1.32157 1.16722 1.19274 1.0889 0.772281 0.936913 1.09771 1.74242 1.2048 1.65372 1.34186 5.31107 0.782819 2.65609 0.893209 2.1269 0.867061 0.608914 0.847538 0.812524 0.845306 0.906263 0.859481 1.04649 1.04681 1.05514 1.19122 1.2842 0.978657 1.05799 1.28575 0.870779 1.87543 1.31918 1.48517 0.977802 1.8393 1.65497 0.926681 1.20316 1.10224 1.03889 1.33262 1.3118 1.25176 1.28971 1.31582 1.123 0.930376 1.28849 0.811894 0.975927 1.10013 1.18155 1.09005 0.997152 1.03499 1.09575 0.786879 1.22216 0.790178 1.30379 1.37737 1.27131 1.31798 1.17062 1.29764 1.30477 1.16701 1.24363 1.20379 0.976513 1.0214 1.42613 1.3892 1.35285 1.24173 0.925568 0.764042 0.711928 0.530386 0.815251 0.676223 0.640116 0.837049 0.663411 0.793108 0.793545 0.787064 0.744312 0.789072 0.744116 0.883336 0.947553 1.06882 1.04252 1.05862 0.933852 0.889878 0.924637 1.28084 1.20417 1.31569 0.998883 0.963136 0.88992 0.911083 0.991021 1.11522 1.05744 1.03014 1.16455 1.14054 1.17404 1.18284 1.02718 1.02254 1.18895 1.39559 1.29553 0.985733 0.948923 1.00216 1.06524 0.995906 0.925684 0.885396 0.98675 0.948288 0.992172 1.12693 1.06613 1.03022 1.0383 0.86487 0.75554 1.19287 1.04989 1.06278 1.30091 1.32664 1.27734 1.15397 1.14133 1.27259 1.26182 1.33577 1.06616 0.982857 0.94765 1.03769 0.8764 1.57027 0.630728 0.949167 0.705941 0.881033 0.722192 0.722364 0.857881 0.772196 0.703288 0.733994 0.754602 0.748574 0.738311 0.76807 0.757287 0.792411 0.821561 0.682308 0.667177 0.824139 0.948168 0.931196 0.928746 1.02016 0.764708 0.840323 0.874127 0.991305 0.72463 0.800195 0.980969 0.918007 0.959551 1.05373 1.00245 1.00961 1.24713 1.11852 1.17668 1.12448 0.866143 0.810498 0.884808 0.868582 0.845541 1.07111 0.973748 1.00491 1.04187 1.01785 1.05934 1.00607 0.994924 1.01321 0.966186 1.04867 1.08619 1.05502 1.00146 0.931219 0.89371 1.15449 1.02861 1.11831 1.28617 1.19731 1.077 1.17773 0.94572 1.17436 0.802314 1.06279 1.03053 0.918027 0.879889 0.962213 0.84793 0.98219 0.865304 0.591342 0.746801 0.692076 0.794642 0.780575 0.797565 0.743834 0.802064 0.776147 0.753587 0.745372 0.759829 0.723324 0.71706 0.645044 0.795219 0.727991 0.732148 0.814296 0.887759 0.752305 0.649691 0.786661 0.722201 0.739212 0.778218 0.686537 0.615529 0.762411 0.659513 0.689686 0.718928 0.737763 0.736489 0.889527 0.8199 0.924374 0.856291 0.877543 0.878784 0.887548 0.823194 0.886907 0.918879 1.09321 0.990519 0.933037 0.812654 0.949546 0.876809 1.04563 1.08082 0.79899 0.83322 0.87843 0.908639 0.949313 0.903135 0.984545 0.997636 1.05866 1.0228 1.00352 0.964834 1.0038 0.930231 0.990404 0.926041 0.942831 1.02151 0.845333 1.1907 1.01351 0.97303 0.739246 1.14979 1.39186 1.44227 1.14236 0.897035 1.13948 0.805875 0.790599 0.915119 0.854593 0.851112 0.863094 0.827445 0.812078 0.759282 0.851242 0.831099 0.812656 0.858032 0.828601 0.823948 0.857402 0.800246 0.723342 0.780676 0.657371 0.714724 0.678299 0.698652 0.688263 0.681186 0.581995 0.578132 0.608375 0.695639 0.60891 0.596332 0.598335 0.65598 0.679468 0.680345 0.681139 0.654236 0.795349 0.906326 0.786883 0.745272 0.796307 0.754384 0.930474 0.888914 0.850881 0.888466 0.82766 1.06565 0.998778 0.963703 0.906452 0.772447 0.813626 0.364351 1.09254 0.953242 0.899864 0.847147 0.979954 0.906005 0.991545 0.889094 0.888311 0.99179 0.920852 0.931403 0.891974 1.04496 1.13739 1.05518 0.984846 0.965013 0.962519 0.976664 0.857499 0.864067 0.879954 0.953148 1.01148 0.87544 1.19865 1.10003 1.02308 0.891508 0.825719 1.51867 0.972248 0.951389 0.776895 0.768685 1.39054 1.00497 0.749787 1.0108 0.757308 0.753972 0.789901 0.770698 0.757347 0.797919 0.796041 0.828904 0.838999 0.849056 0.792469 0.717174 0.850313 0.672973 0.672672 0.708659 0.670674 0.68609 0.679244 0.683821 0.680353 0.680564 0.672792 0.526279 0.526324 0.552118 0.59842 0.59862 0.600086 0.607846 0.600133 0.602628 0.669517 0.61355 0.655123 0.654977 0.678648 0.643535 0.559507 0.617504 0.61642 0.683528 0.769763 0.682696 0.63967 0.787065 0.749784 0.724712 0.700302 0.712705 0.746437 0.762348 0.828612 0.813514 0.912755 0.83347 0.742616 0.67333 0.577502 0.822469 0.986736 0.94273 0.939945 0.778668 0.873087 0.697133 0.811153 0.896029 0.895104 1.01853 0.931448 1.06005 0.804897 1.00966 0.926481 0.990002 0.944651 1.00468 1.04121 0.877749 0.963357 0.974801 0.680676 0.977787 0.90262 0.878898 0.961979 0.738864 0.895517 0.980826 0.848519 0.974234 0.931339 0.828899 0.821672 0.742026 0.724841 0.706192 0.742859 0.742334 0.702232 0.776862 0.759675 0.79239 0.775853 0.761781 0.801434 0.856794 0.732591 0.700435 0.933411 0.694818 0.704123 0.730541 0.682284 0.699572 0.66943 0.681894 0.680994 0.676334 0.671268 0.673903 0.673447 0.659897 0.669262 0.667468 0.653576 0.637331 0.644494 0.632773 0.520166 0.520789 0.517031 0.552499 0.579267 0.575205 0.588657 0.57752 0.584311 0.578419 0.588673 0.584957 0.602382 0.588595 0.630569 0.607429 0.627742 0.640674 0.597486 0.561828 0.635488 0.680905 0.704675 0.66138 0.642614 0.623426 0.677234 0.677291 0.751385 0.824424 0.801243 0.809184 0.833654 0.759251 0.796713 0.776375 0.7517 0.809468 0.883462 1.02676 1.05636 0.76831 1.09902 1.03913 0.805107 0.720287 0.649688 0.731268 0.732593 0.838588 0.887198 0.950295 0.985934 0.796466 0.749092 0.711414 0.849512 1.00679 1.00214 0.965811 0.912048 0.906643 0.868771 0.781636 0.669857 0.827975 0.763425 0.858984 0.865362 0.778901 0.7878 0.808088 0.794375 0.908096 0.891089 0.810962 1.01322 0.727047 0.920551 0.712769 0.695738 0.689596 0.68102 0.661285 0.720112 0.674836 0.771318 0.757508 0.714729 0.73762 0.770704 0.786515 0.736752 0.827754 0.693979 0.586151 0.620217 0.621763 0.652605 0.649085 0.656599 0.653693 0.656252 0.634374 0.656357 0.642423 0.634223 0.638914 0.627676 0.62597 0.627082 0.622761 0.605962 0.607788 0.524523 0.528629 0.530003 0.521888 0.519472 0.526861 0.524911 0.528612 0.526463 0.537034 0.524519 0.561543 0.562896 0.582986 0.576669 0.577588 0.590116 0.594086 0.594866 0.60215 0.600688 0.597309 0.592953 0.596185 0.647369 0.633768 0.6586 0.591152 0.607426 0.659956 0.631939 0.633112 0.645046 0.687767 0.732027 0.779548 0.763561 0.844431 0.818168 0.803197 0.789491 0.874909 0.980388 0.818462 0.919519 0.822961 0.803376 0.761816 0.632056 0.686978 0.918205 0.796559 0.755215 1.01351 0.998695 1.1152 0.891598 0.650586 0.75531 0.743874 0.742414 0.905596 1.24553 0.926351 0.636573 0.71024 0.762579 0.759556 0.855365 0.765499 0.769397 0.822994 0.803363 0.82784 0.839902 0.93778 0.814779 0.75483 0.877887 0.558243 0.592897 0.663121 0.62355 0.650946 0.638631 0.6548 0.659738 0.885656 0.720385 0.78692 0.753394 0.689282 0.654698 0.781141 0.629405 0.607943 0.723866 0.632312 0.623776 0.63736 0.644689 0.643028 0.648817 0.635755 0.640739 0.636062 0.614776 0.622465 0.618181 0.621248 0.61629 0.609155 0.607998 0.616503 0.591296 0.601734 0.589621 0.602644 0.592758 0.58296 0.529131 0.535482 0.532942 0.553106 0.536541 0.523749 0.527794 0.548446 0.548103 0.562129 0.559543 0.571853 0.573932 0.588774 0.593511 0.591373 0.594392 0.596972 0.604295 0.60012 0.609248 0.597199 0.591159 0.591284 0.599096 0.613697 0.567836 0.623483 0.56813 0.570109 0.620233 0.671779 0.670001 0.756679 0.754257 0.777106 0.818643 0.751903 0.751451 0.889361 0.78003 0.595716 0.666151 0.715003 0.809817 0.846541 0.795572 0.753085 0.755112 0.785735 0.691337 0.696331 0.736003 0.796396 0.726914 1.23297 0.75749 0.777534 0.830299 0.816105 0.474361 0.63446 0.734094 0.763255 0.715957 0.745908 0.779354 0.625503 0.778433 0.851964 0.714719 0.783855 0.749778 0.869684 0.776081 0.95158 0.612025 0.633291 0.629259 0.639454 0.627152 0.656638 0.845306 0.617988 0.716592 0.678583 0.664542 0.636442 0.658965 0.634702 0.647524 0.640831 0.625104 0.630828 0.629755 0.624537 0.620662 0.617483 0.615167 0.616571 0.614129 0.611499 0.607197 0.615694 0.59318 0.595168 0.570662 0.558082 0.593786 0.586098 0.586388 0.577907 0.561844 0.569311 0.552316 0.572596 0.568785 0.587314 0.605459 0.583466 0.571349 0.558704 0.570856 0.556181 0.545619 0.551208 0.553806 0.561755 0.550488 0.583034 0.594648 0.602851 0.610094 0.611814 0.60864 0.619074 0.619282 0.58711 0.589027 0.605842 0.575943 0.608119 0.592371 0.666899 0.506609 0.753632 0.821999 0.809706 0.765707 0.714817 0.728558 0.739652 0.730033 0.754148 0.689526 0.723962 0.769226 0.776613 0.658097 0.823969 0.757003 0.789747 0.925509 0.959757 0.664978 0.773058 0.680582 0.765604 0.765755 0.765191 0.665693 0.743222 0.67978 0.734728 0.702386 0.656797 0.607718 0.688107 0.777367 0.691246 0.835815 0.49418 0.532674 0.698378 0.789673 0.682956 0.582701 0.634522 0.745579 0.705238 0.686661 0.69185 0.674368 0.732841 0.889577 0.52833 0.620831 0.498169 0.54668 0.564801 0.610655 0.666572 0.587351 0.685773 0.785485 0.448436 0.63238 0.59296 0.663578 0.4864 0.66833 0.365261 0.667563 0.616464 0.633734 0.618953 0.618431 0.615349 0.614272 0.61403 0.603127 0.605224 0.596678 0.591141 0.59707 0.570885 0.584169 0.548647 0.562385 0.554981 0.554065 0.549295 0.546343 0.544624 0.542712 0.538438 0.532466 0.529333 0.566513 0.555807 0.568683 0.568691 0.571242 0.584636 0.583235 0.585201 0.573478 0.574442 0.569409 0.566298 0.56254 0.552598 0.546321 0.547349 0.548109 0.600108 0.577539 0.62427 0.607981 0.618544 0.616778 0.60958 0.630298 0.611678 0.609224 0.638278 0.614234 0.679132 0.6886 0.765997 0.80461 0.782939 0.881718 0.676747 0.600541 0.480286 0.718093 0.660642 0.653401 0.71269 0.722692 0.832657 0.841288 0.841294 0.597302 0.596079 0.665179 0.730209 0.709606 0.549679 0.643208 0.770598 0.738734 0.743003 0.687392 0.681797 0.678516 0.683848 0.679252 0.66547 0.633042 0.722978 0.732527 0.655925 0.645424 0.575577 0.490925 0.587081 0.598742 0.574317 0.602597 0.642052 0.661353 0.51411 0.593485 0.651795 0.52769 0.63191 0.716034 0.665161 0.715136 0.698318 0.741201 0.726461 0.653801 0.590951 0.647877 0.766773 0.471075 0.502182 0.603733 0.592784 0.618286 0.76819 0.626107 0.646242 0.563347 0.617353 0.599528 0.603719 0.618451 0.623636 0.60262 0.60271 0.573301 0.603644 0.59417 0.60271 0.601129 0.597765 0.600652 0.591181 0.596002 0.572868 0.541405 0.555041 0.548596 0.537795 0.539908 0.542621 0.54529 0.542837 0.543292 0.531308 0.537664 0.527148 0.52749 0.520899 0.518942 0.526125 0.539831 0.565722 0.548428 0.551961 0.535529 0.588031 0.565564 0.565407 0.536122 0.561175 0.556315 0.537097 0.518218 0.541214 0.529284 0.509589 0.513863 0.518106 0.616037 0.666152 0.633264 0.624355 0.643221 0.632805 0.612799 0.60825 0.620266 0.612614 0.648563 0.664324 0.662285 0.69052 0.652608 0.7801 0.797146 0.734242 0.541851 0.492242 0.51932 0.539569 0.675088 0.641397 0.610842 0.609224 0.56357 0.596304 0.756457 0.597623 0.582404 0.414936 0.533464 0.567133 0.575645 0.597813 0.612841 0.698652 0.671682 0.7316 0.709919 0.673808 0.659263 0.666571 0.64891 0.651085 0.651235 0.670796 0.653623 0.566084 0.605277 0.642591 0.574715 0.556849 0.670157 0.530531 0.612782 0.506979 0.577189 0.536956 0.634936 0.5017 0.671163 0.698754 0.677325 0.636239 0.675029 0.64638 0.777992 0.600025 0.596739 0.462013 0.618262 0.587191 0.494391 0.462164 0.665245 0.557018 0.584762 0.503855 0.567102 0.562253 0.533579 0.630521 0.517381 0.568686 0.551732 0.576863 0.601462 0.576742 0.586347 0.587888 0.600091 0.595745 0.568106 0.5486 0.608248 0.543831 0.560782 0.552999 0.546731 0.543451 0.534687 0.527079 0.522768 0.506101 0.521988 0.497553 0.506688 0.482358 0.504666 0.516735 0.523826 0.524626 0.515874 0.54545 0.498818 0.519305 0.537591 0.524797 0.516158 0.514095 0.493475 0.499592 0.539631 0.489916 0.520336 0.452089 0.409377 0.529474 0.526841 0.624164 0.564053 0.541226 0.608357 0.631686 0.608177 0.651684 0.72837 0.604111 0.628748 0.607761 0.638138 0.699072 0.721063 0.629896 0.689547 0.547024 0.574561 0.505216 0.622126 0.681257 0.640541 0.576422 0.500876 0.557946 0.472765 0.465576 0.539361 0.615495 0.622252 0.684659 0.691058 0.643002 0.676301 0.695908 0.686095 0.680532 0.691295 0.691722 0.663907 0.666009 0.653059 0.651605 0.639954 0.635072 0.611044 0.600973 0.574993 0.600795 0.561646 0.536158 0.597862 0.614052 0.699755 0.643999 0.565894 0.497418 0.513071 0.457103 0.448386 0.467882 0.633371 0.714946 0.612404 0.613143 0.522509 0.511106 0.577503 0.599863 0.545146 0.540616 0.528746 0.520379 0.540268 0.507995 0.520751 0.482773 0.495187 0.555524 0.569829 0.575605 0.577853 0.567968 0.578539 0.576004 0.549171 0.588176 0.543889 0.467189 0.490369 0.544493 0.538192 0.543222 0.532629 0.533159 0.530989 0.521563 0.525316 0.511407 0.530078 0.516199 0.522655 0.489783 0.467008 0.508755 0.475797 0.45719 0.456795 0.45111 0.469819 0.482668 0.471956 0.489464 0.507132 0.513785 0.512369 0.514232 0.515672 0.5187 0.529937 0.506793 0.507631 0.510136 0.509632 0.515356 0.524574 0.52409 0.539998 0.601616 0.573909 0.581969 0.579816 0.63999 0.560079 0.521133 0.517683 0.553276 0.527722 0.535774 0.578858 0.579749 0.579619 0.588931 0.55352 0.716259 0.959492 0.475849 0.402901 0.534738 0.561137 0.510867 0.519191 0.462177 0.477921 0.512847 0.511134 0.567222 0.567913 0.621993 0.654784 0.616448 0.626929 0.60182 0.652328 0.639915 0.656644 0.698646 0.721159 0.705571 0.660736 0.707021 0.633415 0.604727 0.59623 0.559648 0.510455 0.531126 0.641938 0.691316 0.654708 0.704928 0.474935 0.492696 0.458598 0.432628 0.453259 0.437893 0.525066 0.676101 0.635685 0.581976 0.513631 0.531588 0.577292 0.539948 0.535778 0.522879 0.524114 0.506387 0.499923 0.488267 0.491273 0.509999 0.476135 0.553634 0.4845 0.538208 0.568692 0.565792 0.558087 0.562854 0.525752 0.535813 0.538004 0.541186 0.516501 0.530457 0.527175 0.526095 0.52308 0.531215 0.520069 0.504532 0.525234 0.52365 0.53903 0.472566 0.447488 0.449311 0.43723 0.453747 0.492322 0.360496 0.43663 0.440441 0.497389 0.483462 0.492077 0.509148 0.507713 0.516878 0.511528 0.506923 0.500919 0.499561 0.511582 0.510648 0.514042 0.514216 0.536729 0.568731 0.541537 0.603641 0.489614 0.468903 0.498595 0.49284 0.375414 0.445376 0.510602 0.537504 0.534619 0.548716 0.526757 0.554761 0.523544 0.514148 0.529648 0.554914 0.530671 0.559828 0.50523 0.532872 0.509734 0.24332 0.369137 0.406208 0.515498 0.519494 0.540192 0.529666 0.492638 0.482182 0.489783 0.497448 0.550191 0.535583 0.574092 0.53618 0.616656 0.568856 0.636457 0.666187 0.731041 0.734882 0.755834 0.7143 0.638045 0.58457 0.58684 0.598909 0.573076 0.601519 0.582961 0.579119 0.586474 0.56222 0.547528 0.540229 0.516638 0.71135 0.707606 0.791071 0.787478 0.726748 0.910574 0.436124 0.448169 0.490844 0.500321 0.447285 0.506643 0.510459 0.486984 0.552798 0.540583 0.533104 0.502412 0.57903 0.544335 0.53886 0.501314 0.524687 0.521123 0.517592 0.552931 0.531406 0.536352 0.523833 0.51703 0.508666 0.518192 0.503334 0.486053 0.472255 0.457964 0.476261 0.578257 0.498644 0.515761 0.587937 0.536587 0.53356 0.54174 0.519901 0.523969 0.526803 0.515139 0.52033 0.511644 0.481569 0.503019 0.473567 0.452539 0.531982 0.470314 0.555776 0.450338 0.455395 0.379114 0.487407 0.480017 0.361928 0.357827 0.394033 0.483476 0.462476 0.503942 0.496035 0.513839 0.347489 0.532481 0.508457 0.506242 0.45486 0.494011 0.526241 0.496962 0.503471 0.528369 0.48252 0.515709 0.46607 0.456757 0.420698 0.466862 0.516469 0.50681 0.500652 0.451969 0.456199 0.541353 0.518117 0.524125 0.535887 0.515976 0.524081 0.516673 0.508252 0.48758 0.490999 0.434121 0.478209 0.529169 0.501355 0.545855 0.533292 0.524433 0.50779 0.515371 0.504452 0.498504 0.518563 0.512161 0.534123 0.527469 0.521976 0.539035 0.514327 0.587714 0.639691 0.694337 0.747811 0.729411 0.768704 0.698089 0.685224 0.623593 0.560827 0.551117 0.572422 0.573105 0.571779 0.521556 0.543703 0.506182 0.688399 0.525236 0.590387 1.13465 0.904288 0.560103 0.687248 0.586209 0.558548 0.536703 0.475332 0.531303 0.455397 0.481464 0.453056 0.459872 0.507425 0.512242 0.512999 0.508636 0.499491 0.50049 0.4947 0.490884 0.481866 0.463267 0.473682 0.455526 0.476766 0.485708 0.488207 0.498689 0.521665 0.468204 0.515751 0.481996 0.502334 0.47612 0.488095 0.516608 0.510119 0.496704 0.505165 0.480231 0.475732 0.440523 0.448257 0.462931 0.441274 0.459146 0.439 0.425514 0.461138 0.517172 0.459208 0.456905 0.37158 0.368911 0.367072 0.326907 0.410425 0.422903 0.395349 0.357542 0.401922 0.452777 0.437203 0.456737 0.436709 0.457254 0.468117 0.437151 0.481466 0.462174 0.448701 0.449833 0.449137 0.47698 0.463676 0.459344 0.460014 0.473258 0.483076 0.514178 0.511808 0.508469 0.505173 0.489134 0.478006 0.471911 0.475326 0.462976 0.473948 0.483573 0.482455 0.495361 0.49181 0.515656 0.52743 0.520646 0.515169 0.507754 0.508973 0.511175 0.505279 0.513725 0.517178 0.53209 0.550641 0.71547 0.702718 0.7674 0.613642 0.603324 0.596838 0.569203 0.54778 0.573117 0.546882 0.555739 0.565482 0.663022 0.632071 0.95228 0.138996 0.55492 0.642843 0.528707 0.618747 0.663353 0.572501 0.490426 0.460809 0.46353 0.447182 0.465045 0.467742 0.504498 0.487855 0.498724 0.500337 0.503529 0.499655 0.499774 0.495193 0.489083 0.493997 0.481372 0.476029 0.466378 0.459507 0.456464 0.458118 0.469306 0.449284 0.461064 0.465535 0.455114 0.447201 0.449894 0.455708 0.448301 0.479054 0.409958 0.465849 0.457835 0.461075 0.429241 0.42301 0.417937 0.401846 0.364445 0.512973 0.314822 0.48959 0.516732 0.324615 0.424401 0.416596 0.374211 0.384067 0.360197 0.368244 0.345634 0.356791 0.332268 0.368611 0.398874 0.398172 0.401116 0.401991 0.430517 0.425494 0.429671 0.432382 0.444743 0.42443 0.436607 0.42463 0.433396 0.427577 0.438327 0.442673 0.454337 0.449997 0.469921 0.490567 0.502545 0.499553 0.495639 0.483066 0.475928 0.470498 0.472826 0.469601 0.488636 0.478042 0.496933 0.513045 0.517823 0.517335 0.514037 0.502236 0.495895 0.5018 0.503349 0.511497 0.510304 0.497713 0.512834 0.482702 0.567563 0.656817 0.565339 0.49537 0.559226 0.610885 0.559845 0.568857 0.592057 0.513077 0.544759 0.495576 0.563637 0.578305 0.602754 0.577135 0.574817 0.54282 0.552484 0.159232 0.225555 0.219355 0.596955 0.415399 0.585031 0.713802 0.557134 0.494198 0.532896 0.465194 0.511539 0.476655 0.477157 0.479189 0.492059 0.50353 0.502036 0.497217 0.500613 0.491957 0.495817 0.48673 0.477316 0.466203 0.469588 0.460784 0.454002 0.448339 0.455423 0.452879 0.449286 0.44854 0.441651 0.442273 0.441115 0.441605 0.441731 0.441987 0.429081 0.425929 0.423197 0.437362 0.4199 0.418803 0.422404 0.413864 0.402243 0.404588 0.395211 0.400871 0.373907 0.370309 0.355762 0.351786 0.290695 0.343095 0.376343 0.407352 0.38619 0.386025 0.388041 0.377813 0.3903 0.365895 0.368961 0.364272 0.366752 0.357426 0.362854 0.378135 0.381856 0.370323 0.389261 0.378554 0.385907 0.395318 0.398553 0.415066 0.404322 0.416879 0.417281 0.408186 0.422322 0.417798 0.423768 0.415038 0.41712 0.416387 0.421541 0.423459 0.430242 0.428041 0.438184 0.437862 0.447703 0.463241 0.475253 0.461158 0.475831 0.488308 0.488843 0.471284 0.465895 0.464823 0.469532 0.480436 0.489617 0.509948 0.49917 0.513297 0.51294 0.507363 0.505709 0.495849 0.496876 0.498737 0.498412 0.488229 0.477076 0.494846 0.47083 0.504249 0.373714 0.547979 0.592638 0.566631 0.520276 0.546813 0.564654 0.531588 0.538373 0.431906 0.387757 0.563797 0.516298 0.580345 0.59459 0.587611 0.59482 0.540736 0.366802 0.157742 0.649182 0.591076 0.475412 0.529915 0.532267 0.495646 0.492811 0.497219 0.488019 0.499601 0.505582 0.496372 0.505471 0.499931 0.504433 0.49393 0.499244 0.487403 0.480348 0.476347 0.484965 0.467893 0.477684 0.461061 0.453986 0.458153 0.448634 0.447689 0.447916 0.446194 0.443063 0.440458 0.440711 0.437831 0.433319 0.4321 0.426289 0.420103 0.416006 0.41403 0.413575 0.406643 0.400213 0.40355 0.388383 0.396318 0.385063 0.377777 0.383811 0.370889 0.374406 0.367366 0.362983 0.369881 0.359888 0.366419 0.373982 0.372928 0.382719 0.376037 0.384326 0.351107 0.356947 0.367677 0.371603 0.387072 0.376744 0.387562 0.395582 0.382094 0.382063 0.359515 0.351214 0.35495 0.34336 0.356536 0.36905 0.372255 0.386146 0.393874 0.400363 0.411901 0.40648 0.407446 0.406028 0.409648 0.409738 0.413882 0.411297 0.418033 0.421225 0.42577 0.424148 0.430953 0.438903 0.449504 0.463564 0.464955 0.469628 0.472602 0.480841 0.481406 0.480139 0.476769 0.469195 0.468307 0.476053 0.488626 0.502254 0.499916 0.512424 0.535647 0.5172 0.49246 0.496404 0.491381 0.488679 0.486068 0.467478 0.453333 0.402586 0.41644 0.495417 0.601373 0.542138 0.486425 0.56355 0.402614 0.446631 0.440854 0.515838 0.574199 0.509953 0.568821 0.552714 0.608901 0.611082 0.378244 0.236068 0.411727 0.405059 0.795888 0.586164 0.55048 0.586454 0.528697 0.521706 0.51269 0.510321 0.50428 0.50824 0.504766 0.503201 0.494548 0.492122 0.485767 0.470124 0.467028 0.452937 0.463693 0.451192 0.446634 0.449369 0.442566 0.445163 0.439986 0.439814 0.435646 0.434214 0.42939 0.422679 0.415019 0.411147 0.408648 0.407331 0.401349 0.394591 0.383468 0.37836 0.366044 0.362658 0.371747 0.37469 0.374921 0.385982 0.366991 0.372054 0.370056 0.392212 0.413315 0.327975 0.363029 0.342101 0.359625 0.354186 0.360521 0.377855 0.358821 0.341601 0.336389 0.323102 0.328718 0.344729 0.333819 0.346832 0.357561 0.361877 0.362168 0.378265 0.380295 0.388598 0.385965 0.396353 0.401421 0.406141 0.408771 0.407397 0.410453 0.412818 0.418771 0.424761 0.430633 0.439278 0.447965 0.457041 0.463795 0.471985 0.474148 0.474531 0.472572 0.476905 0.473033 0.481822 0.480224 0.491205 0.498516 0.510978 0.557381 0.498584 0.449922 0.489532 0.474915 0.455805 0.480501 0.486748 0.475999 0.458329 0.51016 0.556647 0.550761 0.493906 0.529395 0.563425 0.588084 0.707636 0.57825 0.568501 0.601888 0.407945 0.371017 0.431695 0.469852 0.493239 0.570981 0.570113 0.474596 0.459113 0.618041 0.510446 0.497559 0.413519 0.412125 0.71385 0.551597 0.643384 0.61422 0.614948 0.57335 0.558636 0.544767 0.540626 0.526858 0.523653 0.524556 0.526387 0.516361 0.515975 0.522084 0.510337 0.517966 0.508512 0.51661 0.510793 0.501759 0.494938 0.491786 0.479092 0.481121 0.472214 0.45837 0.472072 0.454011 0.454275 0.449213 0.446213 0.45165 0.444298 0.437035 0.428633 0.419835 0.413511 0.415056 0.410418 0.407448 0.401553 0.395401 0.388054 0.379752 0.388985 0.366452 0.367114 0.382017 0.359361 0.416502 0.380978 0.379612 0.394116 0.391271 0.416927 0.441313 0.453748 0.322802 0.328042 0.373008 0.338611 0.330274 0.3497 0.382238 0.3568 0.339329 0.317487 0.318976 0.337254 0.361705 0.380962 0.391137 0.394564 0.401746 0.404695 0.41186 0.414053 0.406475 0.424855 0.423144 0.427311 0.428872 0.434108 0.436819 0.445779 0.445524 0.450342 0.456314 0.470638 0.470516 0.475705 0.477475 0.49226 0.48037 0.489679 0.497087 0.522674 0.574952 0.492749 0.439863 0.392661 0.424695 0.472211 0.474146 0.521019 0.517214 0.529417 0.563092 0.42019 0.563223 0.452809 0.649763 0.341609 0.298506 0.311518 0.418702 0.48677 0.379592 0.495369 0.409977 0.490639 0.442244 0.464472 0.468774 0.506319 0.511052 0.397981 0.519401 0.587735 0.539691 0.591635 0.567955 0.55413 0.541146 0.551351 0.536656 0.534067 0.532053 0.525339 0.526308 0.519098 0.504885 0.5163 0.502695 0.496066 0.489021 0.463416 0.482829 0.454774 0.473239 0.459832 0.455799 0.451738 0.444927 0.433619 0.426324 0.421529 0.417474 0.411313 0.408383 0.402991 0.397601 0.402329 0.391666 0.398632 0.386845 0.366981 0.357598 0.359307 0.353115 0.361729 0.321777 0.428893 0.381692 0.251789 0.319115 0.390138 0.439321 0.433582 0.45558 0.444918 0.423971 0.355977 0.28527 0.333377 0.344363 0.345916 0.343276 0.354106 0.431279 0.400226 0.335496 0.340013 0.321805 0.333197 0.334212 0.340812 0.297242 0.383945 0.399512 0.41201 0.400699 0.404398 0.404564 0.414789 0.43251 0.426769 0.428436 0.431873 0.429299 0.43688 0.438019 0.447154 0.442528 0.445082 0.474105 0.476058 0.475807 0.496198 0.486057 0.506742 0.515694 0.510723 0.52778 0.562291 0.522047 0.482369 0.513767 0.170583 0.383043 0.506047 0.510182 0.497111 0.48877 0.530945 0.524929 0.354654 0.456886 0.516037 0.470144 0.394677 0.383777 0.636828 0.496645 0.299657 0.311491 0.253581 0.202326 0.516077 0.433817 0.312084 0.274414 0.519179 0.526032 0.464302 0.498446 0.473867 0.483379 0.468991 0.437713 0.490795 0.546278 0.534061 0.554097 0.548956 0.542847 0.544636 0.540124 0.535408 0.533996 0.526143 0.522853 0.512443 0.506546 0.516274 0.504171 0.49876 0.505528 0.484127 0.483761 0.484207 0.461401 0.453192 0.461078 0.447271 0.452037 0.438597 0.436845 0.430634 0.423423 0.430714 0.420717 0.413361 0.407518 0.413055 0.405964 0.40001 0.395009 0.38802 0.390969 0.349043 0.356697 0.340902 0.372742 0.338493 0.28747 0.325985 0.401875 0.409341 0.423567 0.402622 0.456959 0.469893 0.391079 1.35811 0.250566 0.171669 0.366973 0.2533 0.269484 0.269463 0.260561 0.26856 0.286542 0.280782 0.316962 0.297478 0.385919 0.318189 0.312816 0.393122 0.437339 0.404226 0.401675 0.406632 0.424437 0.433942 0.428288 0.432836 0.432159 0.452945 0.449503 0.45152 0.463593 0.460517 0.464538 0.497352 0.508065 0.517605 0.529724 0.527279 0.558232 0.631525 0.728964 0.687012 0.510351 0.57564 0.973778 0.438982 0.498238 0.420424 0.439624 0.412962 0.425097 0.181751 0.259214 0.610026 0.306035 0.5512 0.454227 0.295554 0.446241 0.340178 0.485125 0.47075 0.438482 0.462763 0.459952 0.484817 0.530452 0.520766 0.537717 0.545409 0.549531 0.55339 0.544792 0.543898 0.53661 0.53555 0.52718 0.513049 0.521212 0.506379 0.500148 0.484009 0.486883 0.475257 0.470301 0.467054 0.447451 0.434868 0.441053 0.431316 0.442431 0.418446 0.41452 0.408339 0.40353 0.408218 0.39699 0.403484 0.397178 0.382039 0.374006 0.392004 0.351663 0.352184 0.396653 0.393359 0.441417 0.349384 0.304526 0.353918 0.334131 0.35176 0.412141 0.420536 0.279494 0.537481 1.03521 0.0555021 0.15113 0.136342 0.167717 0.23037 0.240879 0.258008 0.256795 0.250562 0.364607 0.364376 0.477539 0.342811 0.293226 0.4067 0.43252 0.396311 0.452713 0.438976 0.426183 0.440658 0.432888 0.444285 0.441379 0.442166 0.447712 0.463153 0.488756 0.492497 0.489859 0.501208 0.493414 0.504659 0.528768 0.538835 0.510588 0.495268 0.55983 0.551946 0.544372 0.546853 0.547204 0.33582 0.684884 0.38684 0.465984 0.494767 0.431316 0.44832 0.454852 0.185873 0.549656 0.345435 0.25248 0.470529 0.459322 0.466409 0.454059 0.483453 0.493906 0.489653 0.516161 0.51455 0.548498 0.548901 0.554047 0.552198 0.543424 0.540421 0.526297 0.521997 0.517242 0.506714 0.503822 0.500198 0.499665 0.482204 0.478311 0.476253 0.438252 0.417181 0.435632 0.43878 0.441269 0.433321 0.414258 0.410116 0.406076 0.406741 0.39274 0.376287 0.404098 0.30594 0.235714 0.378733 0.158674 0.31721 0.328792 0.312448 0.383889 0.279313 0.641398 0.884568 0.813221 0.0721541 0.156362 0.229593 0.282477 0.254028 0.271659 0.238493 0.263605 0.319361 0.358366 0.41031 0.460006 0.315533 0.243843 0.434826 0.428169 0.40304 0.430912 0.453014 0.439346 0.435915 0.450893 0.455502 0.45329 0.453322 0.462932 0.447942 0.4886 0.500993 0.486944 0.487507 0.501184 0.487211 0.514099 0.511112 0.546379 0.49081 0.495029 0.476174 0.357384 0.876682 0.498635 0.454083 0.551639 0.550326 0.555955 0.557647 0.550352 0.554462 0.533915 0.548416 0.533025 0.55644 0.492945 0.502845 0.508899 0.485138 0.509472 0.522852 0.501368 0.4875 0.482773 0.48834 0.424401 0.430505 0.422196 0.44796 0.438646 0.453189 0.43152 0.400943 0.425041 0.401258 0.418339 0.394945 0.394761 0.319172 0.475547 0.217821 0.169162 0.284257 0.197474 0.344566 0.299438 0.353016 0.580027 0.693578 0.0190057 0.147928 0.155587 0.364423 0.26607 0.238359 0.302535 0.321852 0.36746 0.41511 0.355982 0.424677 0.405582 0.406349 0.456194 0.444196 0.475511 0.433331 0.454153 0.457874 0.460273 0.456432 0.454161 0.457773 0.465575 0.465699 0.477196 0.478824 0.482463 0.484718 0.491597 0.491951 0.503606 0.520052 0.511806 0.545466 0.5033 0.560879 0.562308 0.563383 0.541722 0.561757 0.551415 0.523055 0.499611 0.534195 0.530976 0.519666 0.526773 0.525626 0.534248 0.459507 0.498344 0.482528 0.488677 0.452525 0.443841 0.441282 0.464206 0.412262 0.42741 0.339397 0.526442 0.276178 0.41362 0.212347 0.261091 0.240925 0.276825 0.28855 0.401082 0.365954 0.543391 0.386212 0.641951 0.0252108 0.164287 0.128421 0.399198 0.323013 0.364746 0.383383 0.467836 0.417989 0.408618 0.363851 0.419836 0.394798 0.507936 0.432128 0.439854 0.455314 0.424338 0.43638 0.44375 0.449904 0.455257 0.488806 0.483002 0.489348 0.483682 0.559648 0.536015 0.519196 0.518078 0.57358 0.495642 0.497792 0.495913 0.465426 0.470321 0.463242 0.463963 0.471745 0.464282 0.463335 0.529901 0.582726 0.487243 0.359946 0.287495 0.363399 0.245695 0.240522 0.225502 0.269986 0.280639 0.393393 0.428638 0.57941 0.0805456 0.0423943 0.179699 0.157374 0.392158 0.293906 0.419078 0.456818 0.427839 0.438187 0.438116 0.337488 0.312392 0.436848 0.451823 0.403769 0.421407 0.481905 0.494671 0.496561 0.489989 0.48751 0.555414 0.531843 0.501152 0.422851 0.364859 0.28593 0.249732 0.285243 0.413256 0.391412 0.55029 0.537604 
SCALARS Stress float 1
LOOKUP_TABLE default
-36105400000.0 -75227200000.0 -63444300000.0 -25612200000.0 -63819600000.0 -89377400000.0 -62888300000.0 -124580000000.0 -15051300000.0 -44563600000.0 -32980000000.0 -53968600000.0 -123988000000.0 -81889800000.0 -90325800000.0 -140077000000.0 -207340000000.0 -112183000000.0 -236770000000.0 -249943000000.0 -253795000000.0 -88316200000.0 -67383500000.0 -92041600000.0 -75086500000.0 -82964400000.0 -122784000000.0 -39179000000.0 -185991000000.0 -90604900000.0 -79113600000.0 -58628900000.0 -56802400000.0 -55692800000.0 -98565000000.0 -22053400000.0 -92526600000.0 -290709000000.0 -108967000000.0 -209932000000.0 -328435000000.0 -252117000000.0 -353281000000.0 -252476000000.0 -298263000000.0 -329473000000.0 -268566000000.0 -201794000000.0 -39870400000.0 -83699900000.0 -179238000000.0 -155930000000.0 -322719000000.0 -272864000000.0 -88615200000.0 -206059000000.0 -118319000000.0 -138714000000.0 -135879000000.0 -105746000000.0 -32096000000.0 -20604400000.0 -76665900000.0 -202644000000.0 -458177000000.0 -36165000000.0 -167030000000.0 -334821000000.0 -174745000000.0 -119211000000.0 -559054000000.0 -323050000000.0 -531063000000.0 -536145000000.0 -363214000000.0 -511869000000.0 -357135000000.0 -136022000000.0 -380195000000.0 -546382000000.0 -343971000000.0 -161969000000.0 -172071000000.0 -333977000000.0 -168921000000.0 -21655300000.0 -52321100000.0 -152945000000.0 -52922100000.0 -41172300000.0 -160354000000.0 -386449000000.0 -472215000000.0 -434341000000.0 -230296000000.0 -369897000000.0 -707579000000.0 -275265000000.0 -195712000000.0 -806578000000.0 -84240100000.0 -479014000000.0 -715950000000.0 -667273000000.0 -1.19264e+12 -293137000000.0 -195540000000.0 -261803000000.0 -634857000000.0 -144877000000.0 -129766000000.0 -107296000000.0 -71421400000.0 -90958000000.0 -27076100000.0 -112357000000.0 -217725000000.0 -525698000000.0 -159541000000.0 -289407000000.0 -702610000000.0 -144974000000.0 -1.15342e+12 -469789000000.0 -234238000000.0 -772627000000.0 -900463000000.0 -624614000000.0 -196994000000.0 -1.00412e+12 -506625000000.0 -503570000000.0 -1.29536e+12 -496831000000.0 -333119000000.0 -299214000000.0 -476075000000.0 -623362000000.0 -154856000000.0 -322122000000.0 -185788000000.0 -182244000000.0 -169526000000.0 -204325000000.0 -39252200000.0 -135401000000.0 -27066400000.0 -35546000000.0 -167108000000.0 -234691000000.0 -783122000000.0 -778464000000.0 -831220000000.0 -275750000000.0 -694170000000.0 -1.3912e+12 -457251000000.0 -1.06846e+12 -389072000000.0 -1.25441e+12 -906823000000.0 -902619000000.0 -334933000000.0 -1.19495e+12 -547253000000.0 -919338000000.0 -64506800000.0 -501715000000.0 -259539000000.0 -147885000000.0 -327681000000.0 -170807000000.0 -112014000000.0 -104507000000.0 -79484000000.0 -39500400000.0 -26411500000.0 -39987800000.0 -78440900000.0 -219188000000.0 -422856000000.0 -509387000000.0 -994240000000.0 -656351000000.0 -670011000000.0 -1.26399e+12 -690309000000.0 -910486000000.0 -1.33067e+12 -1.15154e+12 -412638000000.0 -2.16732e+12 -1.00128e+12 -2.00369e+12 -899401000000.0 -321251000000.0 -630556000000.0 -685485000000.0 -463800000000.0 -533473000000.0 -682416000000.0 -198010000000.0 -182490000000.0 -22375400000.0 -25647400000.0 -22730400000.0 -98420800000.0 -129345000000.0 -402494000000.0 -186767000000.0 -116089000000.0 -157935000000.0 -283515000000.0 -900254000000.0 -1.4831e+12 -776348000000.0 -789023000000.0 -1.03223e+12 -699415000000.0 -1.56187e+12 -925194000000.0 -1.53553e+12 -1.6271e+12 -315013000000.0 -2.62802e+12 -660436000000.0 -1.87952e+12 -162445000000.0 -736238000000.0 -816879000000.0 -734491000000.0 -14212400000.0 -185059000000.0 -87702600000.0 -108016000000.0 -40897600000.0 -23156400000.0 -67164100000.0 -260230000000.0 -121967000000.0 -264644000000.0 -417709000000.0 -416915000000.0 -1.43395e+12 -1.13227e+12 -806819000000.0 -1.35223e+12 -1.12821e+12 -1.34529e+12 -1.16947e+12 -1.3328e+12 -906847000000.0 -656183000000.0 -2.77941e+12 -544006000000.0 -1.79978e+12 -1.0804e+12 -1.3922e+12 -582301000000.0 -369494000000.0 -742513000000.0 -324637000000.0 -181649000000.0 -330439000000.0 -53749900000.0 -40246800000.0 -97536800000.0 -174890000000.0 -249346000000.0 -133786000000.0 -359197000000.0 -177570000000.0 -1.0993e+12 -1.21197e+12 -767462000000.0 -1.27706e+12 -2.05894e+12 -599429000000.0 -1.62942e+12 -1.05706e+12 -1.20728e+12 -1.34878e+12 -1.21954e+12 -680526000000.0 -2.61438e+12 -1.39412e+12 -1.31021e+12 -1.14854e+12 -782253000000.0 -1.28073e+12 -1.15996e+12 -238107000000.0 -166518000000.0 -601850000000.0 -468073000000.0 -579112000000.0 -379084000000.0 -117318000000.0 -77497900000.0 -62297600000.0 -70312800000.0 -298182000000.0 -551548000000.0 -1.15641e+12 -168582000000.0 -45658500000.0 -555656000000.0 -1.49774e+12 -1.50072e+12 -540579000000.0 -1.78193e+12 -2.11277e+12 -2.24958e+12 -1.03074e+12 -1.82296e+12 -2.2995e+12 -1.98769e+12 -2.56497e+12 -1.39794e+12 -1.88943e+12 -1.5156e+12 -1.0311e+12 -622439000000.0 -1.96738e+12 -1.33151e+12 -516765000000.0 -502866000000.0 -800832000000.0 -388567000000.0 -146956000000.0 -127673000000.0 -373104000000.0 -496788000000.0 -384356000000.0 -890844000000.0 -1.38249e+12 -559697000000.0 -2.22586e+12 -3.35604e+12 -1.72904e+12 -1.3827e+12 -1.65069e+12 -1.36318e+12 -817234000000.0 -1.1079e+12 -1.92593e+12 -2.09557e+12 -2.1975e+12 -905414000000.0 -1.17312e+12 -1.74394e+12 -914334000000.0 -2.8599e+12 -1.87698e+12 -533918000000.0 -945287000000.0 -856022000000.0 -1.57392e+12 -930435000000.0 -510301000000.0 -1.71669e+12 -414511000000.0 -412916000000.0 -419200000000.0 -87918300000.0 -128123000000.0 -258944000000.0 -843113000000.0 -144893000000.0 -870369000000.0 -648999000000.0 -961532000000.0 -1.23934e+12 -1.49969e+12 -1.0743e+12 -2.24332e+12 -1.98339e+12 -1.11712e+12 -2.15978e+12 -2.06879e+12 -1.80952e+12 -1.52906e+12 -2.86007e+12 -2.37871e+12 -1.94419e+12 -1.60003e+12 -1.2486e+12 -2.20808e+12 -1.74924e+12 -890526000000.0 -1.82378e+12 -1.78595e+12 -1.63858e+12 -1.37757e+12 -1.49017e+12 -1.493e+12 -1.00657e+12 -1.89669e+12 -436136000000.0 -672427000000.0 -731556000000.0 -478871000000.0 -220128000000.0 -123857000000.0 -307542000000.0 -38498000000.0 -337720000000.0 -915808000000.0 -569225000000.0 -781623000000.0 -1.18968e+12 -1.58457e+12 -799045000000.0 -1.69159e+12 -2.61665e+12 -1.13798e+12 -1.32038e+12 -1.25495e+12 -2.56322e+12 -2.24281e+12 -1.56382e+12 -1.20708e+12 -1.63103e+12 -2.02012e+12 -1.62625e+12 -1.28206e+12 -2.72758e+12 -2.75276e+12 -1.48003e+12 -1.53414e+12 -1.18425e+12 -2.07971e+12 -2.99669e+12 -1.02617e+12 -645576000000.0 -871831000000.0 -786784000000.0 -190140000000.0 -319707000000.0 -114802000000.0 -32761200000.0 -167003000000.0 -145057000000.0 -479600000000.0 -836307000000.0 -718071000000.0 -265945000000.0 -859778000000.0 -2.09278e+12 -2.78469e+12 -570609000000.0 -3.00597e+12 -2.43916e+12 -1.95724e+12 -1.23085e+12 -2.09829e+12 -2.95982e+12 -1.41937e+12 -2.49567e+12 -1.30395e+12 -3.57702e+12 -2.57498e+12 -3.7378e+12 -1.51924e+12 -2.66975e+12 -2.62037e+12 -943686000000.0 -2.82377e+12 -1.2721e+12 -1.46825e+12 -1.4065e+12 -1.25768e+12 -925269000000.0 -409116000000.0 -335506000000.0 -111730000000.0 -39478600000.0 -36197000000.0 -209802000000.0 -751871000000.0 -95195700000.0 -231940000000.0 -893045000000.0 -762828000000.0 -1.67935e+12 -2.23615e+12 -2.28236e+12 -2.1246e+12 -2.78801e+12 -2.94322e+12 -3.7977e+12 -3.40668e+12 -3.63576e+12 -2.70505e+12 -2.82012e+12 -3.61736e+12 -2.52761e+12 -3.47979e+12 -2.24912e+12 -3.10518e+12 -1.77231e+12 -4.06783e+12 -2.24381e+12 -2.49018e+12 -2.43086e+12 -1.83969e+12 -2.87041e+12 -2.77678e+12 -1.47612e+12 -1.54795e+12 -2.28964e+12 -79743300000.0 -1.79191e+12 -1.76026e+12 -629616000000.0 -418414000000.0 -263924000000.0 -108337000000.0 -345225000000.0 -332462000000.0 -1.31532e+12 -1.7745e+12 -2.28308e+12 -1.74682e+12 -1.76011e+12 -3.11245e+12 -2.12584e+12 -3.25112e+12 -2.54271e+12 -2.36563e+12 -2.82188e+12 -5.84995e+12 -4.57696e+12 -1.57882e+12 -2.71264e+12 -2.04684e+12 -4.21914e+12 -2.24651e+12 -3.37631e+12 -2.48893e+12 -3.69791e+12 -2.74401e+12 -1.14918e+12 -1.56905e+12 -2.18213e+12 -2.15044e+12 -1.50152e+12 -1.2783e+12 -565068000000.0 -153173000000.0 -253160000000.0 -51044000000.0 -440140000000.0 -928839000000.0 -1.14825e+12 -917891000000.0 -3.22306e+12 -832473000000.0 -2.09323e+12 -2.54954e+12 -1.14449e+12 -4.55606e+12 -3.72913e+12 -2.14222e+12 -2.98288e+12 -4.36539e+12 -3.27028e+12 -5.18437e+12 -5.65336e+12 -3.32047e+12 -1.81712e+12 -4.45469e+12 -5.03028e+12 -2.51808e+12 -2.3811e+12 -3.39088e+12 -1.20374e+12 -210694000000.0 -68919900000.0 -162288000000.0 -155811000000.0 -998473000000.0 -977871000000.0 -1.43541e+12 -3.11747e+12 -1.55343e+12 -3.22514e+12 -1.45805e+12 -3.83792e+12 -2.68305e+12 -3.66927e+12 -5.35855e+12 -2.47213e+12 -4.89865e+12 -2.60604e+12 -3.01428e+12 -4.05521e+12 -2.98682e+12 -3.83573e+12 -2.98518e+12 -3.46329e+12 -4.93801e+12 -7.80888e+12 -5.4931e+12 -3.87498e+12 -5.20905e+12 -1.34273e+12 -6.31996e+12 -3.22555e+12 -7.41544e+12 -1.45293e+12 -2.88196e+12 -681645000000.0 -454692000000.0 -873518000000.0 -87634900000.0 -114005000000.0 -813244000000.0 -817578000000.0 -3.1452e+12 -1.53898e+12 -3.80925e+12 -4.04943e+12 -4.98096e+12 -4.03102e+12 -4.34228e+12 -4.58822e+12 -4.24113e+12 -4.74989e+12 -5.16861e+12 -5.37422e+12 -4.64585e+12 -5.60704e+12 -6.43969e+12 -4.81612e+12 -4.83947e+12 -3.20597e+12 -5.05572e+12 -6.21146e+12 -5.51709e+12 -681835000000.0 -3.52122e+12 -1.1652e+12 -1.96889e+12 -167513000000.0 -137557000000.0 -877743000000.0 -1.46238e+12 -2.9032e+12 -3.49754e+12 -4.30404e+12 -2.81526e+12 -6.12548e+12 -5.15204e+12 -2.1201e+12 -4.47119e+12 -4.46882e+12 -4.13552e+12 -3.82842e+12 -4.83288e+12 -2.01088e+12 -3.83829e+12 -1.68639e+12 -5.36456e+12 -4.90864e+12 -4.91591e+12 -3.55922e+12 -5.64895e+12 -3.97112e+12 -3.16166e+12 -5.91249e+12 -5.57514e+12 -7.44618e+12 -2.76867e+12 -5.10974e+12 -1.93849e+12 -3.68891e+12 -5.44404e+12 -7.80948e+12 -4.64885e+12 -3.04335e+12 -3.71741e+12 -4.63638e+12 -4.1541e+12 -1.75421e+12 -519057000000.0 -1.57066e+12 -3.26238e+12 -2.92825e+12 -2.05693e+12 -2.29548e+12 -3.47034e+12 -2.50728e+12 -3.12243e+12 -2.33566e+12 -3.02221e+12 -4.86185e+12 -5.81051e+12 -4.97313e+12 -3.91891e+12 -5.64711e+12 -4.97577e+12 -5.58186e+12 -6.22547e+12 -4.62367e+12 -3.80038e+12 -3.57715e+12 -2.93841e+12 -5.7956e+12 -3.51874e+12 -7.04571e+12 -1.73804e+12 -3.36713e+12 -2.9332e+12 -4.15319e+12 -4.9056e+12 -7.25376e+12 -3.49816e+12 -6.55128e+12 -5.74156e+12 -1.2716e+12 -2.42654e+12 -2.85618e+12 -433102000000.0 -3.48452e+12 -3.3978e+12 -2.85795e+12 -5.99013e+12 -4.26989e+12 -3.83609e+12 -3.59853e+12 -3.66488e+12 -5.1186e+12 -3.31683e+12 -5.71816e+12 -3.05113e+12 -7.4466e+12 -5.57827e+12 -4.63796e+12 -5.42549e+12 -4.63965e+12 -7.39777e+12 -7.14354e+12 -4.64576e+12 -2.45663e+12 -3.67728e+12 -6.40861e+12 -4.9866e+12 -3.35603e+12 -4.44903e+12 -2.93637e+12 -4.79142e+12 -5.55029e+12 -5.70836e+12 -7.12145e+12 -4.86295e+12 -8.14114e+12 -8.2604e+12 -5.06519e+12 -3.70322e+12 -4.73605e+12 -5.51976e+12 -6.41031e+12 -8.07121e+12 -5.47826e+12 -5.67703e+12 -7.1695e+12 -5.77034e+12 -5.79027e+12 -3.07311e+12 -2.84811e+12 -3.93191e+12 -6.33198e+12 -3.87996e+12 -5.4224e+12 -9.26502e+12 -6.95611e+12 -3.30431e+12 -2.40726e+12 -4.80326e+12 -7.6363e+12 -8.34786e+12 -4.01009e+12 -7.16427e+12 -5.71355e+12 -6.295e+12 -5.80848e+12 -7.51571e+12 -4.51216e+12 -4.08765e+12 -3.47822e+12 -3.32344e+12 -12549700000.0 -3.99523e+12 -2.58343e+12 -4.85256e+12 -3.54215e+12 -5.33151e+12 -8.91002e+12 -9.09436e+12 -1.02341e+13 -5.56551e+12 -5.95555e+12 -8.18693e+12 -8.19114e+12 -4.93919e+12 -1.07381e+13 -4.28751e+12 -6.03207e+12 -7.28685e+12 -7.05571e+12 -8.73047e+12 -9.68909e+12 -6.47774e+12 -7.73492e+12 -6.55281e+12 -6.58257e+12 -9.45376e+12 -4.51128e+12 -4.79061e+12 -5.0043e+12 -5.58073e+12 -4.34034e+12 -5.86673e+12 -4.34191e+12 -6.15178e+12 -3.34362e+12 -4.44241e+12 -3.81543e+12 -4.58844e+12 -5.89191e+12 -5.21067e+12 -4.78844e+12 -7.07657e+12 -7.11613e+12 -3.60285e+12 -9.12349e+12 -4.5052e+12 -9.0089e+12 -7.50233e+12 -5.29978e+12 -9.15358e+12 -6.98399e+12 -5.087e+12 -7.43233e+12 -5.68314e+12 -7.48247e+12 -9.23743e+12 -5.67655e+12 -6.57252e+12 -5.14711e+12 -5.24858e+12 -1.07258e+13 -8.7364e+12 -4.49285e+12 -4.87841e+12 -6.39507e+12 -4.19715e+12 -5.98704e+12 -6.42419e+12 -7.50257e+12 -5.52621e+12 -4.74312e+12 -6.24844e+12 -4.76145e+12 -2.51512e+12 -12549700000.0 -3.87053e+12 -6.00138e+12 -4.04754e+12 -2.65124e+12 -6.96918e+12 -7.33746e+12 -1.05177e+13 -6.94858e+12 -6.11325e+12 -7.83718e+12 -6.45714e+12 -8.6302e+12 -6.64128e+12 -2.97421e+12 -5.38266e+12 -5.45549e+12 -3.84945e+12 -7.17366e+12 -6.14207e+12 -8.8969e+12 -6.02315e+12 -6.35575e+12 -4.63742e+12 -4.49991e+12 -8.54857e+12 -7.87384e+12 -6.27008e+12 -5.0721e+12 -4.45459e+12 -7.58838e+12 -4.43169e+12 -4.46175e+12 -9.00026e+12 -4.92714e+12 -4.35307e+12 -1.04528e+13 -8.26373e+12 -7.3222e+12 -3.31033e+12 -12549700000.0 -12549700000.0 -6.12579e+12 -4.71097e+12 -5.90842e+12 -6.44794e+12 -6.35283e+12 -6.54281e+12 -5.33768e+12 -1.22694e+13 -4.28749e+12 -8.96286e+12 -8.03565e+12 -6.79911e+12 -3.45423e+12 -2.72099e+12 -8.38861e+12 -4.23421e+12 -5.69526e+12 -2.19454e+12 -4.76412e+12 -6.6671e+12 -7.71048e+12 -9.68549e+12 -5.8891e+12 -5.01675e+12 -5.93108e+12 -7.75046e+12 -6.579e+12 -4.68589e+12 -6.65695e+12 -6.01606e+12 -7.50927e+12 -5.24263e+12 -7.99887e+12 -8.02886e+12 -5.17099e+12 -9.70442e+12 -5.98119e+12 -4.03367e+12 -6.77031e+12 -3.22486e+12 -3.22273e+12 -6.9471e+12 -6.41509e+12 -4.04786e+12 -6.27555e+12 -4.09793e+12 -3.83209e+12 -6.8334e+12 -5.10426e+12 -5.76176e+12 -5.6058e+12 -1.2903e+13 -5.07531e+12 -7.44566e+12 -7.68477e+12 -4.18211e+12 -6.60915e+12 -6.57614e+12 -4.21246e+12 -5.50964e+12 -7.72321e+12 -8.94991e+12 -1.12546e+13 -9.79625e+12 -6.91847e+12 -5.67132e+12 -9.67304e+12 -7.09515e+12 -4.36158e+12 -3.08947e+12 -5.39814e+12 -1.12722e+13 -7.21183e+12 -6.07632e+12 -3.59884e+12 -7.43189e+12 -6.12435e+12 -4.27785e+12 -3.58984e+12 -3.98024e+12 -2.71409e+12 -4.02108e+12 -4.06033e+12 -6.49833e+12 -7.22583e+12 -4.37585e+12 -7.45636e+12 -6.36413e+12 -6.16929e+12 -5.17725e+12 -5.96987e+12 -9.72178e+12 -7.83809e+12 -8.82198e+12 -7.35169e+12 -1.08069e+13 -6.80872e+12 -7.40442e+12 -4.68336e+12 -7.80341e+12 -3.9617e+12 -1.25803e+13 -1.03886e+13 -6.90943e+12 -6.93822e+12 -6.56912e+12 -3.18038e+12 -5.66559e+12 -6.8742e+12 -8.0611e+12 -7.38557e+12 -5.3827e+12 -8.28337e+12 -4.68406e+12 -4.64584e+12 -8.11109e+12 -4.28878e+12 -6.05934e+12 -6.77532e+12 -4.87909e+12 -8.26741e+12 -7.97533e+12 -3.42599e+12 -7.4083e+12 -5.81939e+12 -9.84827e+12 -7.7098e+12 -7.65289e+12 -6.58378e+12 -7.55924e+12 -5.85073e+12 -9.93876e+12 -7.46566e+12 -7.25762e+12 -8.89012e+12 -7.60604e+12 -7.73697e+12 -4.88641e+12 -6.38268e+12 -6.38698e+12 -8.15057e+12 -5.39719e+12 -6.1424e+12 -5.84335e+12 -5.05434e+12 -7.36859e+12 -8.93226e+12 -7.58302e+12 -5.9666e+12 -5.6349e+12 -1.02545e+13 -3.22461e+12 -6.11089e+12 -6.92368e+12 -6.26269e+12 -4.15381e+12 -5.16431e+12 -5.58554e+12 -7.02562e+12 -5.96407e+12 -5.61644e+12 -5.42928e+12 -4.96459e+12 -3.58488e+12 -12549700000.0 -4.70974e+12 -3.18637e+12 -6.4211e+12 -7.52797e+12 -7.97192e+12 -9.16793e+12 -6.93956e+12 -7.36092e+12 -4.77276e+12 -8.31406e+12 -5.96111e+12 -3.28305e+12 -3.41594e+12 -6.32269e+12 -6.40842e+12 -6.01191e+12 -6.01953e+12 -6.71761e+12 -1.14417e+13 -7.6903e+12 -7.71886e+12 -8.10789e+12 -8.05518e+12 -6.75324e+12 -8.56791e+12 -5.48251e+12 -4.72078e+12 -6.01961e+12 -8.76153e+12 -8.42333e+12 -8.86172e+12 -9.2498e+12 -7.30714e+12 -5.73656e+12 -1.01368e+13 -5.7589e+12 -1.01571e+13 -7.65605e+12 -6.76356e+12 -9.39106e+12 -5.85106e+12 -5.12348e+12 -4.2866e+12 -6.53085e+12 -12549700000.0 -5.39219e+12 -3.30512e+12 -7.5786e+12 -7.22551e+12 -7.71489e+12 -4.97275e+12 -7.58341e+12 -8.64889e+12 -5.04401e+12 -7.13186e+12 -7.35155e+12 -4.21037e+12 -3.69345e+12 -6.94259e+12 -6.96881e+12 -5.33155e+12 -7.88595e+12 -6.99849e+12 -5.98413e+12 -6.85395e+12 -8.95907e+12 -1.07527e+13 -5.53067e+12 -8.3832e+12 -6.37349e+12 -1.06742e+13 -9.5168e+12 -4.47445e+12 -8.61113e+12 -5.28661e+12 -6.24632e+12 -9.42434e+12 -8.0331e+12 -6.62504e+12 -9.20661e+12 -2.53477e+12 -5.56076e+12 -3.53416e+12 -9.0715e+12 -9.45368e+12 -4.45344e+12 -3.82562e+12 -3.54676e+12 -1.91959e+12 -3.27684e+12 -4.42474e+12 -7.20066e+12 -5.17151e+12 -9.19633e+12 -8.19442e+12 -6.42021e+12 -6.69914e+12 -5.0808e+12 -8.76019e+12 -8.72786e+12 -6.32375e+12 -5.09614e+12 -6.75405e+12 -7.19406e+12 -1.03966e+13 -1.08818e+13 -7.60423e+12 -7.67135e+12 -8.27054e+12 -7.34291e+12 -5.34641e+12 -5.74644e+12 -1.58859e+13 -4.42079e+12 -5.99093e+12 -1.03107e+13 -9.47584e+12 -8.273e+12 -5.65129e+12 -3.40239e+12 -6.22429e+12 -8.80103e+12 -7.52459e+12 -6.99077e+12 -7.45701e+12 -5.00909e+12 -8.74366e+12 -5.13734e+12 -5.55549e+12 -5.95987e+12 -5.42368e+12 -5.07385e+12 -9.06477e+12 -4.00508e+12 -6.94111e+12 -12549700000.0 -3.8091e+12 -9.45289e+12 -6.28053e+12 -4.32784e+12 -7.10642e+12 -1.07141e+13 -5.02617e+12 -7.24481e+12 -4.94517e+12 -5.60386e+12 -4.17196e+12 -4.40157e+12 -1.01866e+13 -8.59438e+12 -5.84392e+12 -4.30433e+12 -3.95876e+12 -1.12156e+13 -4.57312e+12 -7.6486e+12 -4.72683e+12 -5.18969e+12 -6.58544e+12 -6.0558e+12 -8.45946e+12 -7.61686e+12 -7.3779e+12 -5.92818e+12 -5.8422e+12 -7.8551e+12 -5.53638e+12 -4.74941e+12 -1.0515e+13 -1.00121e+13 -7.59645e+12 -4.0633e+12 -6.38323e+12 -7.28698e+12 -7.45694e+12 -8.82973e+12 -7.56449e+12 -6.51997e+12 -6.19955e+12 -5.92395e+12 -4.24405e+12 -6.28272e+12 -5.04661e+12 -9.1555e+12 -5.90399e+12 -8.45938e+12 -5.44007e+12 -5.98047e+12 -6.60976e+12 -7.56722e+12 -1.00267e+13 -4.75449e+12 -5.28738e+12 -7.52445e+12 -7.30129e+12 -4.74698e+12 -4.93123e+12 -7.47726e+12 -8.42303e+12 -5.44032e+12 -5.1825e+12 -2.83846e+12 -5.09569e+12 -3.34551e+12 -4.61223e+12 -6.69446e+12 -7.55534e+12 -7.6732e+12 -9.4727e+12 -4.38236e+12 -4.33633e+12 -1.25296e+13 -7.15929e+12 -1.25996e+13 -8.44638e+12 -1.06023e+13 -7.97322e+12 -7.62276e+12 -3.87265e+12 -5.91402e+12 -5.12465e+12 -5.07672e+12 -4.85155e+12 -1.25899e+13 -6.56403e+12 -9.38672e+12 -7.7695e+12 -5.23367e+12 -3.14922e+12 -3.71061e+12 -1.14958e+13 -1.0543e+13 -6.79546e+12 -7.55413e+12 -1.23926e+13 -7.24416e+12 -8.15485e+12 -1.06882e+13 -1.13762e+13 -6.47761e+12 -6.40031e+12 -7.64424e+12 -5.04865e+12 -8.68747e+12 -6.68641e+12 -6.24629e+12 -6.9336e+12 -8.23443e+12 -8.56287e+12 -6.37087e+12 -8.40265e+12 -5.53269e+12 -6.62492e+12 -8.95226e+12 -8.90367e+12 -7.15545e+12 -5.32289e+12 -6.8754e+12 -7.48413e+12 -9.72492e+12 -5.3184e+12 -5.30332e+12 -8.18783e+12 -8.86444e+12 -8.64876e+12 -5.33538e+12 -7.77196e+12 -1.00633e+13 -8.3534e+12 -7.39605e+12 -6.14644e+12 -7.76719e+12 -5.32458e+12 -7.22165e+12 -9.01865e+12 -6.32053e+12 -8.54647e+12 -7.47512e+12 -7.47184e+12 -8.71732e+12 -3.56218e+12 -7.98594e+12 -7.28569e+12 -5.49436e+12 -6.44227e+12 -5.43581e+12 -1.29926e+13 -5.09349e+12 -9.14463e+12 -1.12359e+13 -1.07175e+13 -1.03223e+13 -1.12056e+13 -6.78535e+12 -5.78677e+12 -1.05126e+13 -6.97555e+12 -1.32037e+13 -9.58334e+12 -5.10226e+12 -5.00193e+12 -3.69507e+12 -7.76902e+12 -1.0791e+13 -8.39256e+12 -1.06188e+13 -8.17552e+12 -4.91624e+12 -8.18294e+12 -1.2741e+13 -7.1907e+12 -1.08241e+13 -1.02632e+13 -3.62722e+12 -3.93168e+12 -4.2479e+12 -5.21728e+12 -5.47932e+12 -2.95557e+12 -9.00136e+12 -7.54688e+12 -6.18401e+12 -8.03724e+12 -9.46565e+12 -9.39792e+12 -9.28153e+12 -5.48548e+12 -6.61453e+12 -5.85188e+12 -9.03699e+12 -1.10096e+13 -1.02902e+13 -4.92687e+12 -8.23448e+12 -9.16311e+12 -4.08983e+12 -1.04354e+13 -8.58916e+12 -8.09911e+12 -6.87728e+12 -1.19953e+13 -6.23122e+12 -3.96237e+12 -9.54844e+12 -6.49752e+12 -3.35818e+12 -7.11849e+12 -5.65595e+12 -7.40941e+12 -5.84831e+12 -1.05826e+13 -5.45767e+12 -6.83273e+12 -5.27014e+12 -5.63903e+12 -8.14742e+12 -8.40638e+12 -6.5343e+12 -3.18309e+12 -5.75113e+12 -12549700000.0 -6.01736e+12 -5.36529e+12 -5.82923e+12 -4.5471e+12 -9.18488e+12 -4.91991e+12 -6.01347e+12 -8.84774e+12 -7.25419e+12 -8.79801e+12 -9.44491e+12 -5.72092e+12 -4.489e+12 -9.43609e+12 -6.85867e+12 -8.0025e+12 -9.58665e+12 -1.27354e+13 -1.0073e+13 -8.76432e+12 -8.26846e+12 -9.20155e+12 -6.59525e+12 -8.21141e+12 -9.04619e+12 -6.62678e+12 -5.47402e+12 -5.06785e+12 -9.89632e+12 -9.21507e+12 -9.63919e+12 -9.44592e+12 -1.16914e+13 -7.08462e+12 -1.4643e+13 -7.93409e+12 -6.99576e+12 -4.30048e+12 -8.60863e+12 -5.33486e+12 -4.95427e+12 -8.83617e+12 -1.02362e+13 -9.83408e+12 -7.89841e+12 -9.70065e+12 -5.57575e+12 -5.11414e+12 -1.05982e+13 -1.27734e+13 -5.57085e+12 -8.77346e+12 -8.87379e+12 -8.82286e+12 -3.68811e+12 -3.63921e+12 -8.12652e+12 -6.33818e+12 -8.87815e+12 -6.47539e+12 -9.81866e+12 -9.68611e+12 -1.24467e+13 -1.09225e+13 -6.41202e+12 -7.49821e+12 -2.85366e+12 -6.28315e+12 -9.30522e+12 -3.94962e+12 -1.20669e+13 -7.22297e+12 -1.25241e+13 -5.70509e+12 -7.63031e+12 -5.3443e+12 -5.01774e+12 -6.01454e+12 -3.39149e+12 -1.08261e+13 -6.5846e+12 -6.06398e+12 -8.10758e+12 -8.46672e+12 -9.91803e+12 -2.29298e+12 -1.0354e+13 -7.20781e+12 -1.10733e+13 -8.42681e+12 -7.60044e+12 -5.42546e+12 -7.66705e+12 -5.82933e+12 -1.16165e+13 -9.69066e+12 -1.03573e+13 -6.89305e+12 -6.03214e+12 -5.9851e+12 -1.4937e+13 -5.97006e+12 -1.04645e+13 -8.66768e+12 -6.43945e+12 -6.56074e+12 -1.18883e+13 -7.82204e+12 -9.67461e+12 -4.70677e+12 -8.35414e+12 -5.52726e+12 -8.79089e+12 -8.37503e+12 -5.25343e+12 -6.3216e+12 -7.49952e+12 -4.31741e+12 -8.03649e+12 -7.64315e+12 -5.88259e+12 -5.19142e+12 -5.65659e+12 -4.33773e+12 -9.4389e+12 -6.18941e+12 -3.88072e+12 -7.55073e+12 -5.74116e+12 -6.88446e+12 -5.50761e+12 -4.17191e+12 -6.29225e+12 -8.22557e+12 -7.69554e+12 -9.50544e+12 -8.94901e+12 -8.44551e+12 -3.27004e+12 -7.03231e+12 -12549700000.0 -7.13769e+12 -6.59247e+12 -1.02218e+13 -3.50518e+12 -1.1656e+13 -1.20309e+13 -9.70226e+12 -9.49128e+12 -7.80905e+12 -5.12683e+12 -7.5545e+12 -6.61387e+12 -1.09704e+13 -5.27463e+12 -1.04159e+13 -7.58976e+12 -5.76528e+12 -7.98341e+12 -5.79551e+12 -8.62234e+12 -1.05517e+13 -8.46842e+12 -9.8418e+12 -1.29723e+13 -3.51666e+12 -6.87696e+12 -3.96601e+12 -3.75077e+12 -6.13516e+12 -7.86135e+12 -4.90829e+12 -3.45156e+12 -5.38155e+12 -7.32521e+12 -7.63719e+12 -5.5939e+12 -8.86288e+12 -4.63024e+12 -8.80162e+12 -5.87744e+12 -7.09826e+12 -7.40657e+12 -9.53414e+12 -8.08937e+12 -7.23225e+12 -8.4549e+12 -1.03328e+13 -6.31983e+12 -5.12388e+12 -12549700000.0 -6.08553e+12 -9.4806e+12 -6.37614e+12 -7.20568e+12 -9.00405e+12 -9.48758e+12 -7.27962e+12 -1.13263e+13 -6.87157e+12 -8.22285e+12 -6.66801e+12 -5.04933e+12 -4.35365e+12 -7.54789e+12 -8.60629e+12 -5.01057e+12 -7.39186e+12 -7.78619e+12 -7.60302e+12 -5.75357e+12 -4.78605e+12 -1.02969e+13 -7.96431e+12 -7.38802e+12 -7.00256e+12 -6.45449e+12 -5.94621e+12 -1.01183e+13 -1.04623e+13 -6.02797e+12 -6.1648e+12 -9.92203e+12 -8.03973e+12 -5.24397e+12 -6.63677e+12 -9.33038e+12 -1.07109e+13 -4.68753e+12 -6.07302e+12 -5.10011e+12 -3.14492e+12 -8.87304e+12 -6.79287e+12 -7.42646e+12 -1.01912e+13 -1.20856e+13 -8.53753e+12 -12549700000.0 -9.15104e+12 -5.08079e+12 -5.93287e+12 -6.42853e+12 -7.60005e+12 -6.21531e+12 -3.29081e+12 -1.11853e+13 -5.26163e+12 -5.17753e+12 -6.10766e+12 -7.73656e+12 -8.30188e+12 -4.4528e+12 -1.25865e+13 -1.07409e+13 -6.75164e+12 -7.06845e+12 -6.86605e+12 -9.00152e+12 -1.18904e+13 -6.3245e+12 -7.3802e+12 -5.2011e+12 -9.67066e+12 -2.51071e+12 -1.0349e+13 -6.84318e+12 -1.17198e+13 -1.05264e+13 -4.34793e+12 -6.63344e+12 -7.06638e+12 -1.34596e+13 -8.11208e+12 -1.30188e+13 -6.82252e+12 -6.41695e+12 -4.79266e+12 -9.11132e+12 -8.51939e+12 -8.64074e+12 -9.95417e+12 -1.01025e+13 -7.75696e+12 -4.01003e+12 -6.06212e+12 -6.1982e+12 -1.12779e+13 -8.61937e+12 -1.04107e+13 -9.61212e+12 -6.84716e+12 -6.58777e+12 -1.38542e+13 -6.13086e+12 -1.42215e+13 -9.95315e+12 -7.44925e+12 -7.64446e+12 -1.0969e+13 -5.12259e+12 -1.08344e+13 -9.15842e+12 -1.01814e+13 -1.11551e+13 -7.00687e+12 -9.07518e+12 -5.20636e+12 -1.04615e+13 -1.55581e+13 -6.1722e+12 -7.4591e+12 -7.76503e+12 -9.93726e+12 -5.30425e+12 -1.15402e+13 -7.13719e+12 -7.37832e+12 -6.26661e+12 -9.23523e+12 -1.19965e+13 -7.20161e+12 -1.00242e+13 -8.60586e+12 -9.43066e+12 -4.76975e+12 -1.30949e+13 -1.54215e+13 -7.13418e+12 -12549400000.0 -3.21052e+12 -5.62027e+12 -8.49419e+12 -7.34242e+12 -1.13292e+13 -1.38548e+13 -1.08182e+13 -1.00223e+13 -5.82178e+12 -1.33822e+13 -1.23198e+13 -4.60544e+12 -4.98564e+12 -6.22074e+12 -7.94085e+12 -5.14569e+12 -6.8766e+12 -5.8316e+12 -1.29228e+13 -5.8743e+12 -1.17638e+13 -8.94137e+12 -9.27258e+12 -1.15623e+13 -8.95416e+12 -6.35059e+12 -9.91013e+12 -1.31468e+13 -9.04717e+12 -8.9852e+12 -1.046e+13 -4.48326e+12 -4.86495e+12 -8.94464e+12 -8.09113e+12 -7.84408e+12 -9.30936e+12 -7.4497e+12 -5.95414e+12 -1.07141e+13 -4.49677e+12 -8.80885e+12 -6.89641e+12 -9.85997e+12 -1.26903e+13 -6.76412e+12 -7.20603e+12 -8.20132e+12 -1.28101e+13 -2.13966e+12 -5.6741e+12 -2.88596e+12 -3.78477e+12 -6.7571e+12 -7.0421e+12 -1.19386e+13 -4.17652e+12 -8.37354e+12 -6.77165e+12 -8.40513e+12 -7.36606e+12 -7.57791e+12 -7.52918e+12 -6.25685e+12 -6.66323e+12 -5.37668e+12 -3.81248e+12 -3.68812e+12 -3.84136e+12 -8.25633e+12 -6.47748e+12 -8.33233e+12 -9.50564e+12 -6.66725e+12 -8.48983e+12 -8.0849e+12 -7.80523e+12 -6.06896e+12 -4.59036e+12 -5.67471e+12 -8.5927e+12 -7.95965e+12 -9.35431e+12 -6.56678e+12 -7.26786e+12 -7.9011e+12 -9.88898e+12 -7.56087e+12 -6.92939e+12 -4.57755e+12 -4.71922e+12 -8.3839e+12 -8.74356e+12 -1.25176e+13 -8.57482e+12 -1.09163e+13 -8.38886e+12 -6.2536e+12 -9.49382e+12 -8.184e+12 -8.45594e+12 -5.76394e+12 -8.66892e+12 -7.70628e+12 -5.17283e+12 -4.29365e+12 -4.84919e+12 -7.1419e+12 -6.94068e+12 -8.89334e+12 -7.7659e+12 -7.17583e+12 -7.26151e+12 -7.91034e+12 -7.15359e+12 -1.24922e+13 -9.33653e+12 -6.45464e+12 -7.47227e+12 -9.9756e+12 -4.26125e+12 -9.66536e+12 -1.076e+13 -5.47975e+12 -1.17828e+13 -5.69787e+12 -1.1429e+13 -1.02774e+13 -1.31045e+13 -2.80592e+12 -3.57033e+12 -5.24989e+12 -4.40024e+12 -4.42754e+12 -7.14004e+12 -1.07024e+13 -7.76849e+12 -1.19266e+13 -1.51063e+13 -9.16007e+12 -7.7231e+12 -1.55305e+13 -1.11794e+13 -6.80053e+12 -4.79605e+12 -2.88373e+12 -3.96449e+12 -7.11289e+12 -5.80262e+12 -8.32649e+12 -6.06117e+12 -5.97066e+12 -4.88675e+12 -6.75218e+12 -8.23099e+12 -8.52363e+12 -7.84913e+12 -8.67623e+12 -1.33048e+13 -7.07445e+12 -6.42723e+12 -5.21707e+12 -7.95652e+12 -6.92001e+12 -7.16892e+12 -1.24895e+13 -7.08826e+12 -4.98941e+12 -9.23874e+12 -7.30101e+12 -7.77889e+12 -7.20997e+12 -4.07226e+12 -5.09579e+12 -9.34301e+12 -9.68706e+12 -7.88439e+12 -8.56808e+12 -9.16947e+12 -7.08915e+12 -1.02405e+13 -1.04986e+13 -5.59648e+12 -1.03447e+13 -9.33205e+12 -5.06735e+12 -9.71286e+12 -1.39274e+13 -6.49227e+12 -8.30183e+12 -6.21978e+12 -1.03384e+13 -3.23653e+12 -7.75397e+12 -1.27566e+13 -8.16604e+12 -9.579e+12 -9.6355e+12 -9.27366e+12 -9.24811e+12 -1.17482e+13 -8.67413e+12 -1.37824e+13 -8.84916e+12 -7.03452e+12 -8.04024e+12 -8.44121e+12 -7.29591e+12 -5.79055e+12 -1.07188e+13 -6.10952e+12 -4.77832e+12 -8.77797e+12 -8.85927e+12 -9.28013e+12 -1.0016e+13 -1.1572e+13 -7.9416e+12 -1.0553e+13 -6.40103e+12 -6.5373e+12 -6.85441e+12 -8.8574e+12 -5.5881e+12 -7.19343e+12 -6.9942e+12 -1.07324e+13 -1.08613e+13 -8.03538e+12 -7.78902e+12 -6.78169e+12 -5.21203e+12 -5.33971e+12 -8.71119e+12 -1.3463e+13 -1.28537e+13 -6.79016e+12 -1.19055e+13 -8.23068e+12 -6.72669e+12 -5.38215e+12 -5.21812e+12 -5.96006e+12 -5.02454e+12 -7.1347e+12 -8.67505e+12 -7.33144e+12 -9.42414e+12 -6.3759e+12 -1.08268e+13 -8.49749e+12 -8.73591e+12 -1.00973e+13 -5.59152e+12 -4.91954e+12 -7.08474e+12 -3.61189e+12 -4.20325e+12 -1.0596e+13 -8.97235e+12 -1.19799e+13 -6.40567e+12 -9.75255e+12 -7.23382e+12 -1.12336e+13 -7.53714e+12 -8.16864e+12 -4.9907e+12 -7.5228e+12 -8.82468e+12 -8.79195e+12 -1.02141e+13 -1.06955e+13 -8.23651e+12 -4.67449e+12 -1.40803e+13 -6.83916e+12 -7.86401e+12 -1.49067e+13 -9.17034e+12 -4.67043e+12 -6.78154e+12 -7.96795e+12 -3.66188e+12 -1.05909e+13 -1.04154e+13 -7.41612e+12 -8.31715e+12 -7.7629e+12 -1.25715e+13 -8.63906e+12 -5.97443e+12 -6.06991e+12 -2.97381e+12 -9.54292e+12 -5.28603e+12 -5.38289e+12 -5.08554e+12 -9.31716e+12 -7.97507e+12 -6.48831e+12 -9.42731e+12 -1.29249e+13 -9.47178e+12 -4.4285e+12 -5.51325e+12 -1.04292e+13 -8.55998e+12 -1.04462e+13 -6.17662e+12 -7.25405e+12 -8.12019e+12 -1.35592e+13 -7.98026e+12 -7.70241e+12 -1.03291e+13 -6.38383e+12 -7.5697e+12 -3.71519e+12 -1.01054e+13 -8.12213e+12 -7.55484e+12 -7.03381e+12 -8.68208e+12 -1.2131e+13 -5.84003e+12 -4.99105e+12 -5.2905e+12 -1.16578e+13 -6.97252e+12 -8.38895e+12 -5.54289e+12 -7.09469e+12 -4.58183e+12 -7.37423e+12 -1.04845e+13 -6.92287e+12 -6.99446e+12 -6.39175e+12 -8.21347e+12 -1.04869e+13 -8.73774e+12 -4.58297e+12 -8.84557e+12 -1.17425e+13 -6.85795e+12 -5.67539e+12 -1.03393e+13 -1.05727e+13 -6.77992e+12 -6.66252e+12 -2.94089e+12 -8.23481e+12 -6.40237e+12 -5.2123e+12 -1.02497e+13 -4.55636e+12 -7.37738e+12 -4.77267e+12 -9.48925e+12 -1.14586e+13 -1.13646e+13 -8.79718e+12 -9.3204e+12 -4.99292e+12 -4.97545e+12 -1.4717e+13 -1.2002e+13 -1.09477e+13 -1.45524e+13 -1.19483e+13 -9.01811e+12 -6.43143e+12 -4.2209e+12 -4.08391e+12 -5.42369e+12 -9.33962e+12 -6.74404e+12 -7.76044e+12 -1.19024e+13 -9.45978e+12 -8.63581e+12 -1.02539e+13 -1.14055e+13 -5.75407e+12 -4.99776e+12 -6.89424e+12 -1.03092e+13 -8.90295e+12 -9.01715e+12 -1.37047e+13 -1.24809e+13 -9.25339e+12 -7.00921e+12 -7.5203e+12 -6.29256e+12 -7.63691e+12 -9.24267e+12 -8.37462e+12 -4.43897e+12 -8.36093e+12 -9.62352e+12 -1.0224e+13 -8.69097e+12 -9.49318e+12 -7.69169e+12 -8.26326e+12 -6.88567e+12 -9.97269e+12 -5.02014e+12 -8.01846e+12 -7.87668e+12 -1.37863e+13 -1.178e+13 -3.33368e+12 -8.86739e+12 -5.59013e+12 -4.53773e+12 -5.93628e+12 -6.88991e+12 -7.14333e+12 -1.30919e+13 -6.91479e+12 -5.86498e+12 -5.41693e+12 -6.57083e+12 -9.04134e+12 -7.6515e+12 -4.08852e+12 -5.94487e+12 -1.35506e+13 -7.04387e+12 -6.67148e+12 -5.81333e+12 -8.02853e+12 -7.52145e+12 -7.61897e+12 -3.53514e+12 -7.26003e+12 -8.08378e+12 -7.50439e+12 -8.52253e+12 -4.65389e+12 -8.75043e+12 -5.25889e+12 -7.30753e+12 -3.40231e+12 -5.28816e+12 -6.82329e+12 -1.03098e+13 -4.58048e+12 -7.3345e+12 -7.41823e+12 -1.18476e+13 -7.67397e+12 -1.18551e+13 -6.78624e+12 -7.71596e+12 -8.40846e+12 -7.49412e+12 -1.4113e+13 -9.76071e+12 -9.75389e+12 -8.27096e+12 -1.18605e+13 -1.04715e+13 -5.04913e+12 -1.15239e+13 -8.36533e+12 -1.10893e+13 -8.86336e+12 -9.92428e+12 -8.50211e+12 -7.72333e+12 -9.81837e+12 -9.49934e+12 -1.05601e+13 -9.23038e+12 -9.64375e+12 -7.17785e+12 -7.73548e+12 -1.14701e+13 -1.0141e+13 -1.23997e+13 -9.28826e+12 -5.17778e+12 -6.9652e+12 -8.58193e+12 -7.77893e+12 -9.48204e+12 -8.18726e+12 -5.77518e+12 -6.90454e+12 -1.0358e+13 -8.74242e+12 -6.43278e+12 -7.28817e+12 -3.0778e+12 -1.40561e+13 -8.05385e+12 -4.33591e+12 -7.84999e+12 -3.90534e+12 -5.38788e+12 -1.11867e+13 -6.76355e+12 -1.11072e+13 -1.06446e+13 -6.39724e+12 -9.04334e+12 -6.75621e+12 -8.40887e+12 -1.00769e+13 -7.21858e+12 -7.27104e+12 -1.38611e+13 -5.37412e+12 -6.36524e+12 -8.42283e+12 -4.83609e+12 -5.16849e+12 -6.79859e+12 -7.94424e+12 -1.06547e+13 -6.82348e+12 -6.46252e+12 -8.46576e+12 -7.73789e+12 -7.91438e+12 -8.88189e+12 -6.91787e+12 -4.10349e+12 -6.40031e+12 -5.66893e+12 -8.06728e+12 -3.47675e+12 -7.44247e+12 -7.16722e+12 -5.78116e+12 -6.45354e+12 -8.12368e+12 -3.35562e+12 -9.1569e+12 -9.89716e+12 -1.33938e+13 -5.53807e+12 -9.29526e+12 -5.2473e+12 -6.18203e+12 -6.63885e+12 -5.92827e+12 -1.17027e+13 -1.12364e+13 -4.94347e+12 -8.65776e+12 -8.81201e+12 -4.22092e+12 -9.05345e+12 -1.26984e+13 -7.08952e+12 -4.89265e+12 -7.62521e+12 -3.41994e+12 -1.1358e+13 -1.20224e+13 -8.89026e+12 -7.57944e+12 -1.02346e+13 -9.12312e+12 -7.67536e+12 -1.20545e+13 -8.48381e+12 -8.11047e+12 -5.48899e+12 -7.83161e+12 -7.11453e+12 -8.00092e+12 -8.89086e+12 -6.05345e+12 -5.27113e+12 -7.96196e+12 -6.14213e+12 -7.97455e+12 -5.41045e+12 -6.6451e+12 -4.52077e+12 -8.27781e+12 -9.96355e+12 -1.23318e+13 -1.16288e+13 -6.30514e+12 -2.74566e+12 -6.4603e+12 -7.05467e+12 -8.62604e+12 -4.97127e+12 -7.03502e+12 -4.7906e+12 -6.59499e+12 -1.18421e+13 -8.30465e+12 -7.77235e+12 -5.71359e+12 -9.56669e+12 -1.09758e+13 -1.55288e+13 -1.08434e+13 -1.16078e+13 -8.29288e+12 -1.05335e+13 -6.82366e+12 -7.33698e+12 -8.95795e+12 -8.90876e+12 -1.02102e+13 -6.68927e+12 -6.71848e+12 -1.3762e+12 -1.01353e+13 -1.06928e+13 -4.00325e+12 -6.04188e+12 -2.6526e+12 -4.64696e+12 -6.19086e+12 -8.54069e+12 -8.54663e+12 -7.73794e+12 -4.27733e+12 -8.56405e+12 -7.77857e+12 -7.21128e+12 -4.25578e+12 -4.89008e+12 -7.74516e+12 -6.76026e+12 -7.57524e+12 -5.92363e+12 -7.95228e+12 -5.98648e+12 -7.32338e+12 -7.40924e+12 -5.24286e+12 -1.04587e+13 -8.23444e+12 -8.08371e+12 -6.11273e+12 -7.1253e+12 -7.69386e+12 -5.60729e+12 -1.0117e+13 -7.0181e+12 -9.08176e+12 -4.00515e+12 -5.94736e+12 -8.22128e+12 -3.96811e+12 -1.00861e+13 -8.92074e+12 -5.42725e+12 -4.35781e+12 -5.9132e+12 -1.59172e+13 -8.37387e+12 -9.66665e+12 -3.31277e+12 -6.47438e+12 -9.2284e+12 -5.48313e+12 -1.03685e+13 -6.90751e+12 -1.07384e+13 -1.01915e+13 -8.80809e+12 -1.28316e+13 -6.06673e+12 -6.31744e+12 -7.66043e+12 -4.72006e+12 -4.71445e+12 -7.36339e+12 -1.49062e+13 -1.25845e+13 -7.96887e+12 -1.036e+13 -6.72198e+12 -5.21195e+12 -7.72946e+12 -9.34758e+12 -1.36726e+13 -7.14377e+12 -8.7923e+12 -1.03105e+13 -8.83529e+12 -7.46314e+12 -4.0381e+12 -8.45824e+12 -2.99475e+12 -4.64958e+12 -2.79392e+12 -6.39295e+12 -8.51016e+12 -8.65995e+12 -8.16757e+12 -4.81822e+12 -7.11069e+12 -9.6072e+12 -7.05904e+12 -6.33252e+12 -1.35611e+13 -1.05814e+13 -1.49837e+13 -1.06156e+13 -4.97252e+12 -8.27439e+12 -1.14367e+13 -1.04997e+13 -8.40871e+12 -9.74891e+12 -6.19591e+12 -5.79951e+12 -6.60389e+12 -6.80224e+12 -5.34162e+12 -8.64398e+12 -6.49742e+12 -8.3958e+12 -7.01348e+12 -6.43046e+12 -4.66282e+12 -5.84905e+12 -3.85648e+12 -6.3629e+12 -6.67085e+12 -4.22711e+12 -5.75968e+12 -6.4366e+12 -8.44919e+12 -7.27135e+12 -7.6275e+12 -7.17843e+12 -5.25317e+12 -6.18058e+12 -7.16862e+12 -3.01609e+12 -6.51039e+12 -6.62903e+12 -7.12891e+12 -8.34821e+12 -5.14807e+12 -3.80155e+12 -5.80929e+12 -8.51876e+12 -7.08665e+12 -3.67887e+12 -8.14749e+12 -5.36064e+12 -7.56129e+12 -1.06364e+13 -6.227e+12 -5.76235e+12 -4.64267e+12 -5.54619e+12 -7.88409e+12 -1.06732e+13 -6.18416e+12 -1.09504e+13 -8.45356e+12 -5.97459e+12 -6.68536e+12 -5.0619e+12 -5.55706e+12 -6.26223e+12 -1.36068e+13 -8.1797e+12 -9.3949e+12 -7.95519e+12 -8.45117e+12 -8.25702e+12 -1.01029e+13 -5.31907e+12 -7.4954e+12 -4.93749e+12 -8.56878e+12 -7.97807e+12 -1.06958e+13 -6.39298e+12 -1.35836e+13 -3.42668e+12 -6.95459e+12 -5.68627e+12 -4.56764e+12 -6.55686e+12 -7.4659e+12 -7.3861e+12 -7.69252e+12 -7.40897e+12 -6.05061e+12 -7.05869e+12 -8.32252e+12 -7.21763e+12 -4.79862e+12 -5.83156e+12 -9.9421e+12 -7.41097e+12 -6.8432e+12 -5.18935e+12 -1.01133e+13 -7.03261e+12 -1.04096e+13 -9.63364e+12 -5.84064e+12 -7.62336e+12 -5.22451e+12 -1.10436e+13 -6.07315e+12 -2.87615e+12 -6.17377e+12 -4.13513e+12 -6.05403e+12 -6.71705e+12 -8.13339e+12 -8.43885e+12 -8.0127e+12 -1.19198e+13 -9.50027e+12 -4.36805e+12 -8.65983e+12 -1.52293e+13 -5.3287e+12 -8.52945e+12 -5.2731e+12 -8.49295e+12 -8.10609e+12 -1.00288e+13 -8.3144e+12 -7.14413e+12 -8.8682e+12 -5.88455e+12 -7.00766e+12 -1.21208e+13 -7.2912e+12 -7.25917e+12 -1.03364e+13 -8.73138e+12 -6.66444e+12 -1.18232e+13 -1.0395e+13 -8.86919e+12 -1.25289e+13 -7.75084e+12 -8.73085e+12 -6.48248e+12 -5.46897e+12 -9.59934e+12 -7.47076e+12 -1.16649e+13 -6.16328e+12 -4.28435e+12 -5.71511e+12 -7.77813e+12 -6.93192e+12 -3.94329e+12 -4.17969e+12 -3.34126e+12 -6.06095e+12 -7.34406e+12 -7.65598e+12 -7.90398e+12 -7.29563e+12 -7.68529e+12 -8.76022e+12 -3.99387e+12 -9.14694e+12 -5.37292e+12 -5.45934e+12 -6.17543e+12 -3.18655e+12 -5.10295e+12 -7.07408e+12 -1.25334e+13 -9.03348e+12 -8.00934e+12 -9.07758e+12 -7.74494e+12 -7.12628e+12 -4.15521e+12 -7.14357e+12 -4.82383e+12 -9.8008e+12 -4.15175e+12 -5.80498e+12 -1.41466e+13 -7.8042e+12 -6.79642e+12 -6.57842e+12 -1.11429e+13 -1.38644e+13 -6.85102e+12 -5.09139e+12 -4.66466e+12 -7.05808e+12 -4.22531e+12 -5.63524e+12 -1.08774e+13 -8.75116e+12 -7.02509e+12 -8.4937e+12 -9.50075e+12 -5.68982e+12 -7.85153e+12 -1.39457e+13 -3.56144e+12 -9.45013e+12 -6.7062e+12 -4.81543e+12 -9.96557e+12 -8.325e+12 -9.65387e+12 -8.61676e+12 -5.1732e+12 -8.68836e+12 -1.28166e+13 -8.44111e+12 -7.81647e+12 -5.34506e+12 -5.68486e+12 -5.77297e+12 -6.13179e+12 -5.98921e+12 -5.38097e+12 -5.28681e+12 -8.64076e+12 -4.18356e+12 -6.07194e+12 -4.75062e+12 -7.42027e+12 -6.38482e+12 -1.04641e+13 -8.89497e+12 -7.24484e+12 -7.35087e+12 -1.34598e+13 -1.95826e+13 -6.45102e+12 -1.13775e+13 -6.85764e+12 -7.65556e+12 -8.71132e+12 -1.13183e+13 -5.03663e+12 -7.26617e+12 -5.76833e+12 -6.86966e+12 -5.70171e+12 -4.74546e+12 -6.38079e+12 -5.03918e+12 -2.42729e+12 -4.14581e+12 -5.2286e+12 -1.06195e+13 -5.80352e+12 -6.88763e+12 -3.33451e+12 -4.65472e+12 -7.1622e+12 -1.9474e+12 -7.25278e+12 -5.04263e+12 -7.40186e+12 -5.93038e+12 -4.98691e+12 -6.13125e+12 -8.67117e+12 -6.92394e+12 -6.15077e+12 -1.01969e+13 -1.00493e+13 -6.19481e+12 -7.86124e+12 -6.34697e+12 -9.94205e+12 -1.13579e+13 -8.37984e+12 -4.28485e+12 -5.00296e+12 -8.30898e+12 -5.90674e+12 -7.44162e+12 -5.18957e+12 -6.6247e+12 -5.41565e+12 -4.56309e+12 -6.83559e+12 -5.2041e+12 -4.85795e+12 -5.93464e+12 -7.53488e+12 -5.90143e+12 -5.68552e+12 -8.19548e+12 -8.77861e+12 -7.8185e+12 -5.59207e+12 -6.85566e+12 -8.37295e+12 -4.68834e+12 -8.23245e+12 -1.01209e+13 -8.0073e+12 -7.85997e+12 -1.04158e+13 -1.03173e+13 -7.64356e+12 -8.36554e+12 -8.69551e+12 -8.40848e+12 -8.80666e+12 -4.83099e+12 -5.74709e+12 -3.68738e+12 -3.5313e+12 -5.32004e+12 -6.24182e+12 -4.8873e+12 -6.19741e+12 -6.37062e+12 -8.31636e+12 -1.07058e+13 -8.62053e+12 -7.80913e+12 -1.38873e+13 -8.47767e+12 -4.41158e+12 -9.16633e+12 -9.02383e+12 -1.3995e+13 -6.09377e+12 -7.2854e+12 -1.17411e+13 -8.19157e+12 -4.53469e+12 -6.65536e+12 -6.49694e+12 -4.86289e+12 -7.80583e+12 -9.3002e+12 -8.49577e+12 -5.98661e+12 -1.10223e+13 -6.55536e+12 -5.95841e+12 -5.26089e+12 -5.81062e+12 -8.76404e+12 -4.47702e+12 -4.50255e+12 -7.20447e+12 -5.58926e+12 -8.02785e+12 -8.16566e+12 -4.93886e+12 -4.87617e+12 -3.81343e+12 -3.03432e+12 -5.24825e+12 -3.61711e+12 -7.7508e+12 -7.25918e+12 -6.33934e+12 -6.61374e+12 -3.73064e+12 -8.44678e+12 -7.19627e+12 -1.13217e+13 -5.54363e+12 -6.33174e+12 -3.48084e+12 -7.70423e+12 -7.95129e+12 -9.684e+12 -8.26766e+12 -2.34392e+12 -7.70302e+12 -3.16322e+12 -4.82143e+12 -1.03701e+13 -6.77221e+12 -5.71954e+12 -4.15095e+12 -4.43922e+12 -5.97069e+12 -4.38138e+12 -6.25148e+12 -9.62963e+12 -9.17532e+12 -8.06783e+12 -5.64627e+12 -5.04455e+12 -4.37844e+12 -6.61033e+12 -7.5013e+12 -4.42846e+12 -6.52494e+12 -6.67865e+12 -4.03964e+12 -4.64781e+12 -7.27959e+12 -5.63528e+12 -7.6179e+12 -7.71492e+12 -3.8669e+12 -8.29022e+12 -6.53047e+12 -5.43873e+12 -6.81851e+12 -3.61842e+12 -5.89294e+12 -7.6953e+12 -4.94497e+12 -4.95723e+12 -8.45507e+12 -7.32738e+12 -4.30244e+12 -6.62407e+12 -6.35403e+12 -8.08612e+12 -7.50787e+12 -7.05255e+12 -6.69144e+12 -8.74094e+12 -4.28638e+12 -8.38894e+12 -5.36246e+12 -3.90456e+12 -7.37919e+12 -1.00805e+13 -6.34945e+12 -1.05751e+13 -7.48703e+12 -5.50839e+12 -1.23034e+13 -9.14985e+12 -6.49153e+12 -5.35194e+12 -6.58928e+12 -3.21647e+12 -4.32708e+12 -6.91375e+12 -1.11648e+13 -5.30028e+12 -8.40125e+12 -5.83871e+12 -6.66233e+12 -9.30858e+12 -4.47449e+12 -6.57682e+12 -4.47814e+12 -7.14464e+12 -7.37216e+12 -1.02251e+13 -4.57624e+12 -7.44888e+12 -7.39841e+12 -6.08262e+12 -4.14941e+12 -9.03697e+12 -5.42625e+12 -8.74486e+12 -6.21964e+12 -8.05125e+12 -6.91199e+12 -6.92013e+12 -5.47904e+12 -5.5106e+12 -7.00281e+12 -4.99896e+12 -9.38198e+12 -3.68403e+12 -8.74717e+12 -5.59581e+12 -6.93244e+12 -1.05411e+13 -5.5433e+12 -1.17581e+13 -5.79347e+12 -4.46215e+12 -6.73096e+12 -4.57598e+12 -1.07384e+13 -1.01724e+13 -7.34368e+12 -8.36733e+12 -6.61685e+12 -7.38275e+12 -4.06653e+12 -6.28382e+12 -8.21368e+12 -7.74299e+12 -5.52915e+12 -5.25642e+12 -7.19771e+12 -7.22642e+12 -4.58487e+12 -7.13926e+12 -5.89703e+12 -5.79263e+12 -4.10686e+12 -3.81912e+12 -7.90313e+12 -7.64992e+12 -6.17147e+12 -6.76808e+12 -1.03014e+13 -6.15473e+12 -5.2179e+12 -6.94639e+12 -5.59782e+12 -8.9415e+12 -1.06989e+13 -3.02264e+12 -6.88027e+12 -3.0149e+12 -6.00173e+12 -6.63771e+12 -5.76892e+12 -6.04584e+12 -6.03218e+12 -8.83418e+12 -5.45775e+12 -3.59389e+12 -4.19156e+12 -3.42976e+12 -5.38109e+12 -6.66162e+12 -7.05376e+12 -3.19848e+12 -4.835e+12 -5.43704e+12 -4.97015e+12 -8.16437e+12 -9.37115e+12 -9.79289e+12 -8.22976e+12 -7.58793e+12 -9.47161e+12 -6.14618e+12 -7.01269e+12 -3.32104e+12 -7.09495e+12 -7.08378e+12 -7.66848e+12 -4.91645e+12 -5.30636e+12 -8.42467e+12 -6.89946e+12 -4.85987e+12 -6.32573e+12 -6.59311e+12 -4.94512e+12 -5.48764e+12 -5.79908e+12 -7.49672e+12 -6.64656e+12 -4.53601e+12 -5.03175e+12 -2.62499e+12 -4.62442e+12 -3.65191e+12 -5.58955e+12 -2.57246e+12 -1.15783e+13 -6.75605e+12 -5.72468e+12 -4.06511e+12 -6.94658e+12 -6.30713e+12 -1.07883e+13 -5.7475e+12 -7.32091e+12 -5.1397e+12 -3.94029e+12 -7.14674e+12 -6.3625e+12 -5.65338e+12 -1.1305e+13 -4.23597e+12 -4.55462e+12 -4.87049e+12 -6.63269e+12 -8.70212e+12 -6.72886e+12 -6.49004e+12 -6.67676e+12 -6.593e+12 -9.86045e+12 -8.15548e+12 -6.39405e+12 -9.83827e+12 -1.03715e+13 -5.47744e+12 -6.3006e+12 -7.90551e+12 -6.4174e+12 -5.48528e+12 -6.04014e+12 -5.63772e+12 -1.01886e+13 -8.97204e+12 -9.55217e+12 -6.91176e+12 -6.72662e+12 -7.79053e+12 -5.11087e+12 -5.83657e+12 -3.97471e+12 -5.36208e+12 -4.66071e+12 -5.17721e+12 -7.54144e+12 -6.45361e+12 -6.26041e+12 -3.89885e+12 -7.12702e+12 -4.74629e+12 -8.54374e+12 -4.40916e+12 -8.41718e+12 -6.48265e+12 -6.75231e+12 -5.34725e+12 -5.60021e+12 -6.29176e+12 -3.62757e+12 -5.76681e+12 -5.25464e+12 -4.44025e+12 -5.52793e+12 -9.82099e+12 -6.27133e+12 -6.91574e+12 -6.46671e+12 -3.38936e+12 -6.8453e+12 -5.10675e+12 -8.64772e+12 -8.58787e+12 -1.16385e+13 -9.87606e+12 -5.90212e+12 -8.92492e+12 -5.66891e+12 -8.91698e+12 -7.51036e+12 -9.54399e+12 -3.74165e+12 -3.25105e+12 -1.07929e+13 -5.42211e+12 -6.81141e+12 -9.20887e+12 -6.41491e+12 -6.48486e+12 -5.11861e+12 -7.14116e+12 -5.27327e+12 -7.61827e+12 -6.95863e+12 -3.9506e+12 -4.00309e+12 -2.97647e+12 -6.37226e+12 -5.37483e+12 -7.36691e+12 -8.73347e+12 -5.05781e+12 -4.55557e+12 -5.85593e+12 -5.7063e+12 -4.82046e+12 -5.45909e+12 -5.79609e+12 -4.46369e+12 -7.4903e+12 -1.11244e+13 -4.48184e+12 -8.19807e+12 -9.9227e+12 -2.9458e+12 -7.1196e+12 -6.17526e+12 -6.28978e+12 -6.05039e+12 -3.22831e+12 -5.26693e+12 -5.06929e+12 -6.61336e+12 -7.22561e+12 -6.97994e+12 -1.0748e+13 -6.07245e+12 -9.4409e+12 -1.00324e+13 -7.52991e+12 -6.45492e+12 -5.60364e+12 -3.96803e+12 -6.19062e+12 -6.24791e+12 -9.24212e+12 -6.97311e+12 -7.8272e+12 -7.07228e+12 -4.99794e+12 -6.86475e+12 -6.04515e+12 -7.29854e+12 -8.56749e+12 -1.22878e+13 -8.25083e+12 -7.34302e+12 -6.63571e+12 -2.66858e+12 -6.35871e+12 -6.02905e+12 -6.53149e+12 -1.06869e+13 -8.7766e+12 -5.39922e+12 -4.94506e+12 -5.13441e+12 -8.31202e+12 -5.197e+12 -6.16754e+12 -1.24081e+13 -5.82856e+12 -1.35441e+13 -1.08288e+13 -7.48238e+12 -4.51861e+12 -5.62971e+12 -5.20155e+12 -7.23013e+12 -4.20718e+12 -5.37299e+12 -5.20075e+12 -3.43126e+12 -5.55894e+12 -5.59543e+12 -5.58096e+12 -6.09703e+12 -3.43743e+12 -4.32343e+12 -4.53e+12 -3.98367e+12 -7.34252e+12 -5.79439e+12 -6.376e+12 -8.5854e+12 -7.53332e+12 -7.00128e+12 -8.01484e+12 -5.49881e+12 -5.53342e+12 -6.72976e+12 -5.72599e+12 -5.6956e+12 -7.53041e+12 -9.72824e+12 -4.71434e+12 -5.05039e+12 -3.3155e+12 -5.53406e+12 -8.34337e+12 -1.12747e+13 -6.81826e+12 -5.47213e+12 -8.64512e+12 -6.31006e+12 -7.93028e+12 -8.45631e+12 -9.0353e+12 -6.40042e+12 -7.54881e+12 -5.99217e+12 -4.42967e+12 -3.71179e+12 -7.7839e+12 -6.60561e+12 -9.65252e+12 -7.77261e+12 -5.84305e+12 -3.74231e+12 -7.08322e+12 -3.54919e+12 -7.4177e+12 -5.58367e+12 -4.19858e+12 -5.81419e+12 -3.56753e+12 -6.9835e+12 -5.2457e+12 -3.94578e+12 -4.39454e+12 -5.52219e+12 -4.6558e+12 -6.0577e+12 -4.76227e+12 -6.2148e+12 -7.08573e+12 -8.26285e+12 -9.22668e+12 -6.73966e+12 -5.40847e+12 -4.68911e+12 -7.42456e+12 -8.22027e+12 -5.46648e+12 -3.67828e+12 -9.14599e+12 -5.40079e+12 -6.96146e+12 -5.00985e+12 -6.11646e+12 -8.83842e+12 -8.7338e+12 -6.45378e+12 -1.03996e+13 -8.32767e+12 -1.03036e+13 -6.87739e+12 -8.45356e+12 -5.26738e+12 -7.59608e+12 -6.52259e+12 -8.28422e+12 -6.56564e+12 -8.77549e+12 -2.88283e+12 -6.4221e+12 -7.18897e+12 -5.29828e+12 -3.93689e+12 -4.85523e+12 -7.90535e+12 -7.76256e+12 -4.72021e+12 -4.79619e+12 -4.87302e+12 -5.59098e+12 -4.28607e+12 -7.10072e+12 -1.11985e+13 -7.57424e+12 -6.67131e+12 -4.48304e+12 -5.1848e+12 -6.44601e+12 -9.26993e+12 -1.54566e+13 -8.14634e+12 -1.09408e+13 -9.55635e+12 -8.59426e+12 -5.42332e+12 -4.40215e+12 -6.44358e+12 -5.6411e+12 -5.30983e+12 -2.41944e+12 -3.47592e+12 -3.85258e+12 -7.2197e+12 -6.41269e+12 -6.85434e+12 -1.02519e+13 -3.94894e+12 -7.08776e+12 -8.75511e+12 -5.69459e+12 -6.36087e+12 -5.21106e+12 -6.04872e+12 -5.25119e+12 -4.79438e+12 -5.54421e+12 -4.37258e+12 -4.26903e+12 -5.9186e+12 -6.60818e+12 -9.0389e+12 -5.0297e+12 -7.56398e+12 -3.85457e+12 -3.2666e+12 -2.40395e+12 -6.08096e+12 -3.07624e+12 -7.80794e+12 -5.16258e+12 -1.17711e+13 -7.87668e+12 -7.87057e+12 -5.30772e+12 -5.83453e+12 -7.72338e+12 -6.55107e+12 -6.82591e+12 -6.64309e+12 -5.46263e+12 -7.04487e+12 -7.5959e+12 -2.42041e+12 -2.65533e+12 -8.45754e+12 -9.90503e+12 -5.30593e+12 -4.94634e+12 -4.30116e+12 -5.46573e+12 -4.2322e+12 -4.56099e+12 -8.96658e+12 -5.47291e+12 -5.59048e+12 -3.81717e+12 -6.27053e+12 -7.73689e+12 -3.0187e+12 -5.03357e+12 -4.17853e+12 -5.12405e+12 -3.89573e+12 -4.67252e+12 -6.70526e+12 -2.89354e+12 -4.33006e+12 -5.39182e+12 -3.86939e+12 -2.4252e+12 -3.82047e+12 -4.00487e+12 -4.21701e+12 -3.6329e+12 -4.89767e+12 -4.39137e+12 -6.44845e+12 -4.72558e+12 -5.15362e+12 -2.86436e+12 -1.62368e+12 -6.52834e+12 -4.36908e+12 -7.76582e+12 -4.79952e+12 -6.91962e+12 -3.82871e+12 -3.73199e+12 -3.62655e+12 -5.09241e+12 -8.07928e+12 -8.85242e+12 -2.72609e+12 -6.2098e+12 -5.36521e+12 -4.66553e+12 -4.08296e+12 -5.61933e+12 -3.43966e+12 -7.77596e+12 -5.02e+12 -4.39477e+12 -7.7299e+12 -5.45437e+12 -5.38364e+12 -4.61847e+12 -7.4439e+12 -6.70655e+12 -8.51887e+12 -5.62932e+12 -4.94966e+12 -8.96254e+12 -5.51027e+12 -6.26377e+12 -4.69273e+12 -4.43488e+12 -6.73298e+12 -6.3402e+12 -9.11895e+12 -6.39954e+12 -6.65679e+12 -5.97408e+12 -5.75392e+12 -9.61986e+12 -6.06786e+12 -7.98793e+12 -5.94549e+12 -8.38905e+12 -4.50378e+12 -7.24446e+12 -1.1937e+13 -1.04796e+13 -5.45118e+12 -7.56107e+12 -8.42909e+12 -4.65851e+12 -7.33685e+12 -2.74701e+12 -5.97016e+12 -3.33021e+12 -5.45666e+12 -4.1487e+12 -7.01453e+12 -7.86587e+12 -5.61339e+12 -5.6586e+12 -9.35469e+12 -5.20083e+12 -8.34548e+12 -8.73595e+12 -7.52762e+12 -4.33987e+12 -5.1653e+12 -4.94976e+12 -5.11908e+12 -5.39625e+12 -7.68835e+12 -7.01776e+12 -8.20813e+12 -6.46393e+12 -2.95365e+12 -5.05657e+12 -4.14433e+12 -6.9881e+12 -1.00999e+13 -4.48365e+12 -5.99759e+12 -6.98601e+12 -6.69043e+12 -7.56909e+12 -4.8871e+12 -8.10981e+12 -4.80047e+12 -6.56907e+12 -5.88554e+12 -6.04653e+12 -7.52084e+12 -6.70098e+12 -5.80668e+12 -6.00461e+12 -6.49244e+12 -4.14161e+12 -8.8376e+12 -5.37206e+12 -5.78054e+12 -5.40878e+12 -4.63786e+12 -5.26187e+12 -6.83102e+12 -6.94158e+12 -6.79702e+12 -3.56506e+12 -6.06029e+12 -4.98896e+12 -5.99747e+12 -4.32191e+12 -3.31776e+12 -6.10787e+12 -6.18206e+12 -2.69061e+12 -3.50624e+12 -3.79636e+12 -3.70346e+12 -5.99223e+12 -7.31498e+12 -6.17427e+12 -4.79008e+12 -4.88964e+12 -6.33772e+12 -3.73055e+12 -3.98492e+12 -5.82172e+12 -4.11242e+12 -4.84876e+12 -3.35963e+12 -4.25914e+12 -7.05023e+12 -3.13472e+12 -4.6062e+12 -6.3755e+12 -3.86368e+12 -5.22166e+12 -5.07561e+12 -5.72785e+12 -2.63577e+12 -5.88614e+12 -4.212e+12 -7.31002e+12 -3.82337e+12 -6.79237e+12 -7.47439e+12 -4.06838e+12 -1.00779e+13 -6.57529e+12 -5.49581e+12 -3.61444e+12 -8.17558e+12 -9.88954e+12 -5.88126e+12 -7.64292e+12 -4.51895e+12 -5.81682e+12 -6.65195e+12 -8.77379e+12 -5.91439e+12 -6.20043e+12 -8.07254e+12 -7.685e+12 -6.3818e+12 -7.05335e+12 -917868000000.0 -8.42932e+12 -6.3597e+12 -6.53782e+12 -7.83199e+12 -7.45481e+12 -3.97465e+12 -7.9247e+12 -7.72645e+12 -5.18897e+12 -7.61303e+12 -5.25896e+12 -7.6776e+12 -6.30802e+12 -1.19404e+13 -5.74411e+12 -5.04393e+12 -4.31369e+12 -3.61137e+12 -3.0216e+12 -6.43456e+12 -7.91769e+12 -5.32226e+12 -8.51335e+12 -6.34585e+12 -6.47665e+12 -5.84895e+12 -9.19166e+12 -9.99132e+12 -2.90464e+12 -4.2821e+12 -7.60891e+12 -7.31613e+12 -5.50798e+12 -4.41252e+12 -5.6463e+12 -4.37128e+12 -5.09762e+12 -5.34292e+12 -7.62546e+12 -3.9355e+12 -6.10247e+12 -5.33829e+12 -7.56196e+12 -4.72416e+12 -5.3765e+12 -7.57838e+12 -4.64122e+12 -5.45961e+12 -7.02568e+12 -5.26741e+12 -4.14749e+12 -8.09528e+12 -5.67821e+12 -4.48204e+12 -1.90966e+12 -4.11446e+12 -5.07752e+12 -8.06115e+12 -3.0066e+12 -6.21289e+12 -7.01868e+12 -3.32323e+12 -5.51143e+12 -7.47939e+12 -6.32961e+12 -2.23082e+12 -2.85397e+12 -4.45962e+12 -5.28354e+12 -7.04333e+12 -6.18377e+12 -2.96009e+12 -4.29437e+12 -4.62702e+12 -4.02108e+12 -6.00574e+12 -3.16996e+12 -3.74594e+12 -8.26923e+12 -4.21118e+12 -5.05497e+12 -5.17012e+12 -5.0078e+12 -3.02165e+12 -4.51946e+12 -5.52279e+12 -4.58228e+12 -2.73538e+12 -6.78858e+12 -3.78189e+12 -4.18214e+12 -5.64593e+12 -5.2662e+12 -4.68703e+12 -5.40253e+12 -5.57034e+12 -4.9044e+12 -5.34405e+12 -3.82119e+12 -2.89264e+12 -3.23718e+12 -5.87363e+12 -8.76981e+12 -3.71122e+12 -3.52773e+12 -3.21341e+12 -3.59954e+12 -8.57894e+12 -2.15419e+12 -7.77119e+12 -3.32877e+12 -4.47678e+12 -7.88592e+12 -7.85995e+12 -4.17209e+12 -7.08058e+12 -6.0827e+12 -6.19326e+12 -7.74075e+12 -5.74742e+12 -9.56625e+12 -5.64989e+12 -4.25967e+12 -7.50854e+12 -6.19347e+12 -3.30677e+12 -5.31523e+12 -4.72674e+12 -5.78063e+12 -7.15614e+12 -7.35874e+12 -6.75633e+12 -8.14471e+12 -9.23948e+12 -6.22899e+12 -1.11199e+13 -2.80639e+12 -2.38871e+12 -5.92129e+12 -6.32305e+12 -5.35326e+12 -4.17974e+12 -2.70337e+12 -4.29363e+12 -3.39408e+12 -9.48059e+12 -4.33724e+12 -5.59068e+12 -4.60604e+12 -7.96354e+12 -7.14662e+12 -4.49636e+12 -4.71533e+12 -6.73078e+12 -5.35418e+12 -5.18637e+12 -4.37901e+12 -6.2201e+12 -6.67091e+12 -6.77908e+12 -9.94529e+12 -5.02176e+12 -5.88885e+12 -5.64995e+12 -5.3501e+12 -7.91021e+12 -5.58614e+12 -5.89995e+12 -5.00571e+12 -7.45902e+12 -5.74995e+12 -7.94207e+12 -7.18498e+12 -8.00515e+12 -4.4186e+12 -4.14115e+12 -2.87247e+12 -4.93093e+12 -6.35159e+12 -6.53923e+12 -6.67088e+12 -5.81964e+12 -3.69121e+12 -6.75945e+12 -2.95294e+12 -4.95216e+12 -6.5077e+12 -5.29589e+12 -3.63262e+12 -5.06686e+12 -5.21535e+12 -5.606e+12 -3.65467e+12 -3.14917e+12 -7.54553e+12 -2.42714e+12 -3.14494e+12 -4.17549e+12 -5.13882e+12 -4.4602e+12 -3.95494e+12 -6.88747e+12 -2.50407e+12 -4.82564e+12 -4.5193e+12 -5.1459e+12 -2.22324e+12 -5.12086e+12 -3.55986e+12 -2.50827e+12 -4.46084e+12 -3.17683e+12 -5.80674e+12 -3.70348e+12 -3.03486e+12 -4.5334e+12 -3.77619e+12 -5.11249e+12 -2.10272e+12 -4.53965e+12 -5.505e+12 -2.90753e+12 -4.38743e+12 -3.54995e+12 -4.76065e+12 -4.78533e+12 -3.70784e+12 -4.2188e+12 -4.39031e+12 -5.27799e+12 -2.49433e+12 -5.67174e+12 -3.68313e+12 -3.06047e+12 -8.40278e+12 -8.13899e+12 -7.14487e+12 -2.62522e+12 -4.27396e+12 -5.27574e+12 -4.17962e+12 -5.49785e+12 -5.96425e+12 -5.86832e+12 -5.83624e+12 -7.06649e+12 -5.03109e+12 -7.69973e+12 -4.41725e+12 -4.58455e+12 -3.00301e+12 -5.92637e+12 -6.79019e+12 -5.26638e+12 -8.5103e+12 -5.8009e+12 -6.70547e+12 -8.48354e+12 -7.47778e+12 -4.5384e+12 -5.0174e+12 -5.82463e+12 -3.73967e+12 -9.58406e+12 -4.81915e+12 -6.26985e+12 -5.20155e+12 -4.05842e+12 -8.56797e+12 -7.96331e+12 -1.83432e+12 -4.47598e+12 -3.73845e+12 -3.30631e+12 -9.90073e+12 -2.6475e+12 -3.53803e+12 -6.18739e+12 -3.95094e+12 -5.21563e+12 -5.56456e+12 -4.76941e+12 -3.67598e+12 -3.80196e+12 -4.45376e+12 -4.95013e+12 -4.23567e+12 -2.99906e+12 -5.53937e+12 -4.34676e+12 -5.68557e+12 -5.65084e+12 -4.86699e+12 -3.75996e+12 -3.46553e+12 -2.13424e+12 -1.89544e+12 -4.64675e+12 -3.86433e+12 -3.84963e+12 -6.6351e+12 -5.45667e+12 -5.59325e+12 -4.05113e+12 -4.44185e+12 -5.73394e+12 -4.64146e+12 -3.74919e+12 -4.88891e+12 -3.53216e+12 -4.42563e+12 -4.11751e+12 -7.65942e+12 -6.67425e+12 -6.8799e+12 -5.794e+12 -3.4496e+12 -4.25743e+12 -6.17078e+12 -7.37038e+12 -4.35291e+12 -5.49935e+12 -4.00019e+12 -5.24538e+12 -3.72456e+12 -5.27633e+12 -2.8449e+12 -3.30943e+12 -4.89931e+12 -4.43521e+12 -4.95385e+12 -3.25058e+12 -2.25419e+12 -3.91039e+12 -5.55708e+12 -3.17771e+12 -4.48702e+12 -2.29061e+12 -4.01924e+12 -2.79675e+12 -1.54945e+12 -3.42774e+12 -5.4136e+12 -4.65455e+12 -1.13969e+12 -3.55007e+12 -2.74764e+12 -3.35845e+12 -3.78351e+12 -5.92929e+12 -2.35112e+12 -5.86861e+12 -4.47321e+12 -3.49371e+12 -2.98372e+12 -8.0279e+12 -4.38228e+12 -3.82292e+12 -4.28961e+12 -4.61233e+12 -4.13028e+12 -6.11083e+12 -4.72169e+12 -6.70879e+12 -4.04626e+12 -2.98864e+12 -2.55153e+12 -4.97679e+12 -3.60036e+12 -4.51545e+12 -6.65992e+12 -2.33399e+12 -3.82905e+12 -3.13236e+12 -2.93015e+12 -3.88203e+12 -5.11826e+12 -3.378e+12 -4.28743e+12 -4.22776e+12 -6.08501e+12 -6.64682e+12 -7.05531e+12 -6.25647e+12 -4.76164e+12 -5.67012e+12 -2.61648e+12 -1.40036e+12 -4.24079e+12 -5.49295e+12 -3.3172e+12 -4.0774e+12 -5.19971e+12 -4.71735e+12 -4.62281e+12 -7.27495e+12 -3.46041e+12 -4.9291e+12 -5.5834e+12 -5.80002e+12 -3.10075e+12 -3.38606e+12 -5.19142e+12 -3.75951e+12 -2.5929e+12 -4.59972e+12 -4.81681e+12 -7.49058e+12 -4.76873e+12 -5.04909e+12 -3.83652e+12 -5.59922e+12 -6.59103e+12 -2.67792e+12 -4.20573e+12 -2.05281e+12 -3.29656e+12 -2.66529e+12 -1.60606e+12 -5.31001e+12 -6.11215e+12 -4.59751e+12 -5.44157e+12 -4.67e+12 -5.53462e+12 -5.20515e+12 -6.15221e+12 -4.52275e+12 -4.34156e+12 -3.7263e+12 -5.86686e+12 -3.71317e+12 -3.76577e+12 -5.19458e+12 -3.97502e+12 -6.45951e+12 -4.76315e+12 -5.12545e+12 -4.44382e+12 -2.11868e+12 -4.42902e+12 -5.70969e+12 -5.62055e+12 -4.99647e+12 -3.49439e+12 -4.4039e+12 -2.89076e+12 -1.83431e+12 -4.02976e+12 -6.74872e+12 -6.46296e+12 -3.6359e+12 -3.67679e+12 -5.81526e+12 -6.53957e+12 -2.20318e+12 -2.65969e+12 -6.16176e+12 -3.36921e+12 -6.89195e+12 -6.54413e+12 -3.26358e+12 -6.88098e+12 -3.32364e+12 -1.79123e+12 -4.13414e+12 -2.15022e+12 -2.89569e+12 -2.48177e+12 -3.95325e+12 -2.55891e+12 -2.7919e+12 -4.2714e+12 -2.97535e+12 -3.24083e+12 -1.92023e+12 -1.88759e+12 -3.15421e+12 -5.01841e+12 -1.34298e+12 -1.28969e+12 -3.8474e+12 -3.39301e+12 -1.2759e+12 -2.83166e+12 -2.81895e+12 -3.75584e+12 -2.44396e+12 -3.42663e+12 -3.18881e+12 -3.23292e+12 -2.99895e+12 -3.86616e+12 -4.38158e+12 -3.66076e+12 -2.09123e+12 -2.93226e+12 -4.29911e+12 -4.20942e+12 -3.79579e+12 -5.65857e+12 -4.71962e+12 -5.88143e+12 -6.16776e+12 -5.33473e+12 -4.08281e+12 -3.5401e+12 -3.45078e+12 -5.0418e+12 -4.37394e+12 -4.66696e+12 -3.80455e+12 -2.58929e+12 -5.74463e+12 -4.71451e+12 -5.75676e+12 -5.56337e+12 -2.34143e+12 -3.40678e+12 -2.85191e+12 -5.49495e+12 -3.72189e+12 -4.30027e+12 -5.26189e+12 -2.94574e+12 -5.30171e+12 -8.10131e+12 -4.62644e+12 -5.62697e+12 -3.65716e+12 -3.38404e+12 -5.50046e+12 -3.72871e+12 -7.24759e+12 -4.58494e+12 -5.94099e+12 -5.89986e+12 -5.67897e+12 -4.03842e+12 -4.86008e+12 -4.23097e+12 -3.88546e+12 -7.83675e+12 -2.81026e+12 -3.70737e+12 -2.1648e+12 -1.88236e+12 -3.07098e+12 -3.99758e+12 -5.85376e+12 -5.75028e+12 -6.7707e+12 -7.36955e+12 -4.1203e+12 -4.05319e+12 -5.94766e+12 -7.17446e+12 -4.74244e+12 -4.86403e+12 -4.07407e+12 -2.79375e+12 -3.72263e+12 -5.33308e+12 -3.90512e+12 -1.76529e+12 -3.88995e+12 -4.90697e+12 -5.03545e+12 -3.14432e+12 -1.41325e+12 -4.775e+12 -4.29666e+12 -3.10771e+12 -3.00788e+12 -3.33699e+12 -4.2116e+12 -4.32864e+12 -4.57232e+12 -4.97156e+12 -4.41405e+12 -3.98537e+12 -4.44634e+12 -3.8363e+12 -3.47916e+12 -4.40206e+12 -2.50298e+12 -1.88726e+12 -3.35587e+12 -2.70457e+12 -2.48911e+12 -4.55925e+12 -1.49561e+12 -3.01185e+12 -2.68036e+12 -2.69192e+12 -1.57183e+12 -1.39754e+12 -3.08071e+12 -2.92748e+12 -2.82929e+12 -1.36727e+12 -4.53523e+12 -2.5382e+12 -3.23446e+12 -975308000000.0 -726770000000.0 -3.48646e+12 -2.18594e+12 -2.59221e+12 -3.72805e+12 -2.25897e+12 -1.40562e+12 -1.89042e+12 -1.95838e+12 -2.16516e+12 -2.24247e+12 -1.86884e+12 -1.92361e+12 -1.52628e+12 -1.89155e+12 -1.1224e+12 -2.72085e+12 -3.05455e+12 -4.02973e+12 -1.96895e+12 -2.96316e+12 -2.13224e+12 -2.52165e+12 -1.848e+12 -2.33671e+12 -2.89288e+12 -2.12447e+12 -3.52577e+12 -3.20995e+12 -1.2053e+12 -3.86214e+12 -2.69121e+12 -5.79726e+12 -4.29184e+12 -1.97059e+12 -3.22203e+12 -2.83515e+12 -2.01197e+12 -2.26244e+12 -2.60837e+12 -2.23461e+12 -3.15448e+12 -2.01268e+12 -2.88607e+12 -2.29829e+12 -3.25199e+12 -1.48358e+12 -4.11433e+12 -2.54399e+12 -4.65085e+12 -4.99695e+12 -2.66855e+12 -4.76503e+12 -2.43731e+12 -2.7524e+12 -4.06447e+12 -4.65832e+12 -4.45131e+12 -5.43392e+12 -5.67727e+12 -5.30975e+12 -5.9024e+12 -4.9871e+12 -5.24017e+12 -5.34623e+12 -5.0082e+12 -5.09153e+12 -4.27012e+12 -3.42503e+12 -7.73809e+12 -3.93251e+12 -3.6904e+12 -4.342e+12 -4.71106e+12 -6.84279e+12 -7.37158e+12 -5.97331e+12 -3.79633e+12 -5.17473e+12 -5.39167e+12 -3.6521e+12 -3.34368e+12 -1.28019e+12 -6.39107e+12 -3.94505e+12 -2.67162e+12 -5.04704e+12 -4.72862e+12 -5.40611e+12 -3.52791e+12 -4.35564e+12 -7.55088e+12 -5.11118e+12 -3.12831e+12 -4.89282e+12 -3.01748e+12 -3.30655e+12 -3.76156e+12 -4.57456e+12 -8.30358e+12 -4.08248e+12 -4.8805e+12 -4.48036e+12 -3.36646e+12 -4.04799e+12 -4.04753e+12 -2.11446e+12 -3.45205e+12 -3.47953e+12 -3.96019e+12 -2.79184e+12 -4.48578e+12 -2.65507e+12 -3.06055e+12 -2.86203e+12 -1.78976e+12 -2.59737e+12 -3.7877e+12 -1.90204e+12 -3.66374e+12 -2.70275e+12 -3.02739e+12 -2.83779e+12 -1.94637e+12 -1.72413e+12 -2.2524e+12 -2.56292e+12 -3.32858e+12 -3.65898e+12 -2.01647e+12 -1.70542e+12 -1.6172e+12 -1.54316e+12 -2.18968e+12 -1.34179e+12 -1.26351e+12 -2.793e+12 -2.2341e+12 -1.83369e+12 -1.03267e+12 -2.3532e+12 -1.76486e+12 -2.19415e+12 -1.58243e+12 -874943000000.0 -3.73688e+12 -1.11489e+12 -1.59515e+12 -917884000000.0 -2.53207e+12 -1.75602e+12 -2.05214e+12 -3.37838e+12 -1.99209e+12 -3.92747e+12 -3.2063e+12 -2.00611e+12 -3.92846e+12 -2.58299e+12 -3.69792e+12 -1.90597e+12 -2.69765e+12 -4.13564e+12 -3.38071e+12 -2.34979e+12 -3.64695e+12 -2.46399e+12 -2.39407e+12 -3.49095e+12 -4.01804e+12 -1.33589e+12 -3.21223e+12 -4.05099e+12 -1.62675e+12 -2.82173e+12 -1.87085e+12 -2.07409e+12 -3.70339e+12 -3.92651e+12 -3.50108e+12 -5.74196e+12 -3.8634e+12 -5.97747e+12 -4.92199e+12 -7.00645e+12 -2.73937e+12 -2.26254e+12 -2.64133e+12 -3.03702e+12 -2.98843e+12 -5.11948e+12 -3.6057e+12 -2.95974e+12 -3.998e+12 -5.75702e+12 -4.51381e+12 -3.47059e+12 -5.08586e+12 -3.15829e+12 -4.479e+12 -7.09935e+12 -5.76726e+12 -2.78147e+12 -2.55898e+12 -3.58075e+12 -2.66743e+12 -2.83193e+12 -3.74171e+12 -4.0329e+12 -2.15256e+12 -2.19813e+12 -3.94333e+12 -4.37017e+12 -2.32302e+12 -4.98775e+12 -2.95747e+12 -3.17013e+12 -4.42479e+12 -3.94947e+12 -4.09487e+12 -4.03686e+12 -5.3316e+12 -4.37879e+12 -3.28794e+12 -3.41947e+12 -2.45818e+12 -4.02153e+12 -4.06869e+12 -2.27638e+12 -3.4484e+12 -2.94995e+12 -2.14848e+12 -2.06209e+12 -3.89178e+12 -3.18901e+12 -1.68865e+12 -2.7877e+12 -2.97951e+12 -2.48511e+12 -2.35425e+12 -2.88854e+12 -3.1065e+12 -3.90814e+12 -2.75581e+12 -2.72062e+12 -857776000000.0 -1.99897e+12 -2.34832e+12 -4.74574e+12 -3.45055e+12 -756574000000.0 -1.79388e+12 -1.01748e+12 -2.64612e+12 -2.15173e+12 -2.7336e+12 -2.48657e+12 -722756000000.0 -2.24414e+12 -1.58956e+12 -208600000000.0 -1.87573e+12 -1.03033e+12 -1.98455e+12 -1.1368e+12 -1.75633e+12 -984799000000.0 -648522000000.0 -1.64716e+12 -1.46394e+12 -752248000000.0 -959515000000.0 -170118000000.0 -677860000000.0 -1.34704e+12 -1.19202e+12 -627476000000.0 -1.25802e+12 -852339000000.0 -946115000000.0 -1.46825e+12 -2.85609e+12 -1.99284e+12 -2.89499e+12 -1.23642e+12 -1.69326e+12 -1.52298e+12 -2.4361e+12 -1.5439e+12 -2.39848e+12 -653198000000.0 -1.48761e+12 -3.24575e+12 -1.71331e+12 -2.05731e+12 -3.01443e+12 -2.58301e+12 -2.21268e+12 -4.13497e+12 -4.84213e+12 -2.97163e+12 -1.17222e+12 -330810000000.0 -3.88755e+12 -2.62937e+12 -3.07004e+12 -3.55588e+12 -2.55097e+12 -2.79565e+12 -4.98851e+12 -1.50664e+12 -2.17019e+12 -5.23076e+12 -1.93544e+12 -3.82985e+12 -3.02182e+12 -4.56564e+12 -4.40141e+12 -4.18717e+12 -4.0213e+12 -3.20401e+12 -3.54247e+12 -3.02014e+12 -3.31401e+12 -4.90292e+12 -2.71808e+12 -2.97986e+12 -5.92846e+12 -3.57922e+12 -3.10643e+12 -5.45658e+12 -4.73447e+12 -4.12822e+12 -4.56726e+12 -6.28127e+12 -3.26508e+12 -3.64779e+12 -1.68874e+12 -3.05304e+12 -3.24721e+12 -2.83752e+12 -2.25797e+12 -2.74039e+12 -3.54847e+12 -6.09071e+12 -3.00762e+12 -2.61106e+12 -5.76636e+12 -1.71988e+12 -3.59688e+12 -3.75287e+12 -3.68046e+12 -2.47132e+12 -2.57116e+12 -5.67453e+12 -1.09811e+12 -2.41895e+12 -3.38433e+12 -4.13317e+12 -1.85262e+12 -2.36989e+12 -2.71703e+12 -1.65052e+12 -3.57576e+12 -2.44309e+12 -2.60531e+12 -2.19759e+12 -1.85387e+12 -3.24181e+12 -1.60769e+12 -1.73126e+12 -1.13779e+12 -2.1303e+12 -2.2415e+12 -1.6583e+12 -2.09762e+12 -2.0304e+12 -678316000000.0 -1.28703e+12 -609939000000.0 -2.10023e+12 -913967000000.0 -776789000000.0 -748541000000.0 -957351000000.0 -836002000000.0 -375408000000.0 -969536000000.0 -339849000000.0 -502750000000.0 -422710000000.0 -224836000000.0 -648860000000.0 -507487000000.0 -564040000000.0 -1.447e+12 -998429000000.0 -1.07422e+12 -1.07897e+12 -784037000000.0 -853155000000.0 -731476000000.0 -1.45886e+12 -275902000000.0 -2.04194e+12 -1.74359e+12 -921376000000.0 -2.64148e+12 -3.42806e+12 -2.89038e+12 -2.39579e+12 -1.29496e+12 -1.87834e+12 -2.03222e+12 -1.81787e+12 -1.81489e+12 -1.42922e+12 -3.34858e+12 -2.78964e+12 -3.01161e+12 -2.96189e+12 -2.02291e+12 -1.46862e+12 -3.55056e+12 -1.67248e+12 -3.92399e+12 -1.54462e+12 -3.06817e+12 -3.11002e+12 -4.35122e+12 -2.47327e+12 -2.59996e+12 -1.03862e+12 -1.90934e+12 -2.43525e+12 -3.4038e+12 -3.05655e+12 -2.92452e+12 -2.14773e+12 -6.1101e+12 -3.25412e+12 -3.9933e+12 -2.66879e+12 -2.98393e+12 -4.24961e+12 -2.88611e+12 -2.6215e+12 -2.85995e+12 -1.86377e+12 -3.87963e+12 -4.33666e+12 -3.63733e+12 -2.02059e+12 -949650000000.0 -4.79424e+12 -2.53481e+12 -2.0271e+12 -2.17095e+12 -4.00341e+12 -2.29031e+12 -1.97108e+12 -1.98162e+12 -2.15879e+12 -1.73458e+12 -1.90174e+12 -2.25147e+12 -3.17358e+12 -4.07632e+12 -3.96223e+12 -3.04734e+12 -2.69727e+12 -2.12021e+12 -2.91708e+12 -2.42271e+12 -2.01092e+12 -2.31246e+12 -2.63186e+12 -1.24851e+12 -1.80889e+12 -4.44363e+12 -1.53143e+12 -1.50202e+12 -520107000000.0 -1.31336e+12 -3.03754e+12 -1.79931e+12 -1.33555e+12 -1.60701e+12 -660326000000.0 -2.01659e+12 -1.27537e+12 -1.54064e+12 -2.68504e+12 -766952000000.0 -1.2977e+12 -1.10638e+12 -743068000000.0 -677330000000.0 -1.37829e+12 -298506000000.0 -328854000000.0 -192053000000.0 -225474000000.0 -378610000000.0 -470885000000.0 -327698000000.0 -270611000000.0 -259401000000.0 -138442000000.0 -937400000000.0 -243448000000.0 -504547000000.0 -190909000000.0 -1.27807e+12 -376948000000.0 -659864000000.0 -222650000000.0 -578156000000.0 -818517000000.0 -1.31138e+12 -1.44293e+12 -1.30137e+12 -1.19842e+12 -1.50493e+12 -2.08368e+12 -1.34585e+12 -3.85092e+12 -3.45184e+12 -1.6049e+12 -2.92375e+12 -3.14222e+12 -978230000000.0 -2.03256e+12 -2.8762e+12 -1.7022e+12 -2.05318e+12 -1.55881e+12 -2.06784e+12 -3.65575e+12 -1.84021e+12 -2.02698e+12 -3.37829e+12 -2.22034e+12 -1.62446e+12 -3.67109e+12 -1.38441e+12 -2.55358e+12 -2.41835e+12 -1.0654e+12 -2.36389e+12 -1.88007e+12 -1.12175e+12 -3.82378e+12 -2.21069e+12 -2.98969e+12 -1.82671e+12 -1.40482e+12 -1.41357e+12 -2.11893e+12 -1.53326e+12 -1.03388e+12 -1.51699e+12 -1.75914e+12 -238930000000.0 -1.45658e+12 -1.67662e+12 -2.48626e+12 -1.93282e+12 -968544000000.0 -661404000000.0 -1.87353e+12 -354099000000.0 -1.36075e+12 -2.59189e+12 -1.60938e+12 -1.16832e+12 -2.05264e+12 -1.74497e+12 -1.7783e+12 -1.66291e+12 -1.44972e+12 -858100000000.0 -1.03732e+12 -1.66313e+12 -1.30407e+12 -1.21879e+12 -1.56672e+12 -785391000000.0 -1.02602e+12 -1.00504e+12 -1.18953e+12 -318034000000.0 -858778000000.0 -466717000000.0 -602630000000.0 -322169000000.0 -1.12254e+12 -520597000000.0 -122313000000.0 -211201000000.0 -184604000000.0 -285227000000.0 -714138000000.0 -495177000000.0 -554371000000.0 -212875000000.0 -1.54407e+12 -1.98193e+12 -973407000000.0 -718752000000.0 -935064000000.0 -1.90801e+12 -801445000000.0 -1.43074e+12 -766440000000.0 -1.34152e+12 -837563000000.0 -1.45768e+12 -1.3622e+12 -1.48434e+12 -1.78545e+12 -1.12601e+12 -1.38713e+12 -1.80927e+12 -3.28277e+12 -2.59214e+12 -1.20393e+12 -1.79331e+12 -1.68123e+12 -1.67108e+12 -1.60377e+12 -2.09344e+12 -2.38735e+12 -1.67629e+12 -1.14134e+12 -2.98374e+12 -2.12157e+12 -1.76906e+12 -2.82019e+12 -2.02237e+12 -1.83938e+12 -1.65668e+12 -3.23657e+12 -774424000000.0 -1.09721e+12 -1.2568e+12 -826549000000.0 -1.9305e+12 -648688000000.0 -1.34957e+12 -1.67925e+12 -934246000000.0 -1.43352e+12 -2.63526e+12 -1.72694e+12 -1.03152e+12 -2.38506e+12 -973143000000.0 -1.12501e+12 -1.59285e+12 -1.2507e+12 -758120000000.0 -682004000000.0 -1.28376e+12 -885402000000.0 -745659000000.0 -1.62729e+12 -174225000000.0 -812865000000.0 -283301000000.0 -1.02577e+12 -1.63315e+12 -659760000000.0 -647846000000.0 -1.01804e+12 -318789000000.0 -436753000000.0 -264339000000.0 -118688000000.0 -250465000000.0 -290331000000.0 -367049000000.0 -94809200000.0 -142370000000.0 -322361000000.0 -336856000000.0 -527616000000.0 -290077000000.0 -377571000000.0 -521448000000.0 -552317000000.0 -631134000000.0 -1.27046e+12 -651624000000.0 -917750000000.0 -861060000000.0 -1.302e+12 -1.07601e+12 -650167000000.0 -1.07312e+12 -2.15766e+12 -482763000000.0 -2.05601e+12 -2.20148e+12 -1.62463e+12 -2.95489e+12 -1.1548e+12 -1.46983e+12 -555607000000.0 -1.29993e+12 -1.49894e+12 -1.22485e+12 -1.01002e+12 -1.62679e+12 -685742000000.0 -1.31397e+12 -875324000000.0 -1.13725e+12 -1.00825e+12 -1.05619e+12 -1.09597e+12 -1.05709e+12 -1.04762e+12 -1.08451e+12 -1.48812e+12 -665412000000.0 -458215000000.0 -175653000000.0 -761658000000.0 -570269000000.0 -925707000000.0 -1.25755e+12 -271722000000.0 -842834000000.0 -979097000000.0 -1.00109e+12 -706328000000.0 -738019000000.0 -1.05296e+12 -373770000000.0 -268951000000.0 -141989000000.0 -102312000000.0 -589892000000.0 -130285000000.0 -263036000000.0 -300482000000.0 -368141000000.0 -275816000000.0 -272248000000.0 -198095000000.0 -114736000000.0 -495671000000.0 -803184000000.0 -380478000000.0 -945040000000.0 -406685000000.0 -1.25934e+12 -745675000000.0 -592472000000.0 -880781000000.0 -1.13508e+12 -535323000000.0 -1.16519e+12 -1.06844e+12 -990110000000.0 -800218000000.0 -1.21956e+12 -708269000000.0 -735712000000.0 -496939000000.0 -549715000000.0 -656745000000.0 -529992000000.0 -617916000000.0 -448395000000.0 -50141600000.0 -51303400000.0 -419898000000.0 -234313000000.0 -81212300000.0 -609833000000.0 -418278000000.0 -248409000000.0 -255437000000.0 -402499000000.0 -218270000000.0 -329399000000.0 -276884000000.0 -407460000000.0 -98477200000.0 -408274000000.0 -194896000000.0 -396370000000.0 -407804000000.0 -242875000000.0 -280353000000.0 -150204000000.0 -313742000000.0 -184854000000.0 -304620000000.0 -269493000000.0 -706228000000.0 -263731000000.0 -343125000000.0 -226743000000.0 -197718000000.0 -415122000000.0 -86858200000.0 