# vtk DataFile Version 2.0
Time step 26
ASCII
DATASET UNSTRUCTURED_GRID
POINTS 5000 float
155064.0 405855.0 0
162786.0 404341.0 0
332475.0 403259.0 0
339008.0 403803.0 0
344428.0 405651.0 0
142576.0 414429.0 0
146827.0 411235.0 0
151158.0 408697.0 0
150495.0 412459.0 0
155108.0 409493.0 0
153787.0 412540.0 0
158086.0 410073.0 0
158850.0 404288.0 0
160617.0 407849.0 0
164175.0 408168.0 0
166887.0 404565.0 0
169695.0 407450.0 0
174458.0 406544.0 0
179889.0 408221.0 0
184763.0 406427.0 0
189721.0 409241.0 0
192395.0 410792.0 0
196032.0 410723.0 0
201448.0 409459.0 0
208159.0 409779.0 0
213507.0 409678.0 0
218481.0 410983.0 0
222812.0 411324.0 0
226070.0 410356.0 0
230594.0 409944.0 0
235843.0 411455.0 0
241145.0 409958.0 0
252715.0 410004.0 0
259082.0 410315.0 0
268701.0 410364.0 0
273885.0 410042.0 0
278964.0 409369.0 0
286115.0 411085.0 0
291522.0 411183.0 0
297237.0 409392.0 0
303560.0 409495.0 0
310282.0 409200.0 0
315966.0 409920.0 0
320893.0 408017.0 0
326152.0 407712.0 0
330909.0 408221.0 0
333167.0 411265.0 0
334690.0 407953.0 0
338738.0 409699.0 0
344495.0 409877.0 0
341986.0 411524.0 0
348341.0 408376.0 0
348918.0 413563.0 0
352653.0 410903.0 0
137870.0 416872.0 0
133783.0 418699.0 0
141312.0 419150.0 0
147738.0 415538.0 0
151793.0 415490.0 0
154716.0 417135.0 0
157037.0 413786.0 0
161588.0 412554.0 0
164906.0 416268.0 0
166650.0 411743.0 0
171497.0 411501.0 0
176443.0 412154.0 0
181247.0 413867.0 0
185835.0 411385.0 0
190329.0 414007.0 0
195057.0 415473.0 0
199659.0 414656.0 0
204914.0 414364.0 0
214224.0 414221.0 0
210093.0 415916.0 0
218159.0 415721.0 0
222524.0 415666.0 0
227284.0 414535.0 0
232438.0 415546.0 0
237804.0 416762.0 0
243331.0 416122.0 0
246505.0 411868.0 0
248670.0 415834.0 0
252855.0 416501.0 0
257411.0 414992.0 0
263765.0 411519.0 0
261919.0 415521.0 0
266896.0 415161.0 0
271495.0 414453.0 0
276567.0 414585.0 0
281875.0 412904.0 0
282877.0 416533.0 0
287077.0 415845.0 0
291779.0 415813.0 0
298131.0 414945.0 0
303090.0 415161.0 0
307009.0 412777.0 0
307328.0 416063.0 0
310996.0 414641.0 0
315532.0 414878.0 0
319848.0 412402.0 0
323519.0 411461.0 0
322487.0 415058.0 0
325743.0 414083.0 0
329079.0 412125.0 0
332313.0 414884.0 0
335963.0 412786.0 0
336356.0 416886.0 0
340216.0 414696.0 0
343708.0 417551.0 0
344246.0 413848.0 0
348236.0 418335.0 0
356230.0 413665.0 0
352820.0 416956.0 0
360388.0 416589.0 0
365224.0 419383.0 0
127078.0 423051.0 0
123512.0 425586.0 0
130384.0 420867.0 0
130542.0 424564.0 0
137050.0 421250.0 0
133363.0 422234.0 0
140677.0 422669.0 0
143401.0 422307.0 0
145506.0 419169.0 0
150687.0 419803.0 0
155542.0 421373.0 0
159214.0 417790.0 0
163148.0 420742.0 0
170161.0 417138.0 0
167475.0 421312.0 0
175864.0 417629.0 0
181122.0 420410.0 0
185737.0 416659.0 0
190494.0 420417.0 0
196560.0 420252.0 0
202055.0 419470.0 0
209884.0 421646.0 0
206364.0 420166.0 0
214421.0 419057.0 0
218646.0 420967.0 0
222706.0 419940.0 0
227045.0 419617.0 0
232416.0 421006.0 0
237332.0 421167.0 0
241880.0 421326.0 0
246908.0 419835.0 0
251748.0 421338.0 0
257613.0 419755.0 0
262604.0 420244.0 0
267356.0 419608.0 0
272895.0 419693.0 0
278716.0 419000.0 0
282609.0 420837.0 0
289136.0 419859.0 0
294796.0 419954.0 0
300270.0 419636.0 0
305538.0 420316.0 0
310909.0 419679.0 0
319108.0 416761.0 0
315739.0 419466.0 0
320292.0 421255.0 0
328556.0 416829.0 0
324361.0 418678.0 0
332510.0 419532.0 0
336928.0 421673.0 0
340338.0 419266.0 0
345243.0 422223.0 0
351886.0 422554.0 0
356512.0 422498.0 0
356262.0 419164.0 0
360503.0 420972.0 0
363563.0 424202.0 0
369865.0 421344.0 0
367200.0 423170.0 0
370966.0 424188.0 0
373514.0 423134.0 0
116368.0 429973.0 0
119759.0 427835.0 0
122526.0 428825.0 0
126807.0 427482.0 0
131015.0 428842.0 0
134681.0 425684.0 0
138333.0 425095.0 0
139219.0 428203.0 0
142443.0 425622.0 0
147015.0 423619.0 0
151977.0 424341.0 0
148274.0 426889.0 0
150486.0 427420.0 0
156730.0 426186.0 0
160450.0 423974.0 0
164340.0 424959.0 0
168061.0 424762.0 0
171075.0 422366.0 0
171460.0 426639.0 0
175715.0 423656.0 0
185531.0 424111.0 0
189800.0 426097.0 0
194509.0 425185.0 0
199881.0 425824.0 0
205292.0 424350.0 0
215732.0 424642.0 0
219681.0 426813.0 0
222314.0 424170.0 0
227705.0 425161.0 0
234779.0 425127.0 0
238434.0 424333.0 0
241974.0 425913.0 0
246422.0 425016.0 0
251461.0 426610.0 0
255779.0 424465.0 0
260194.0 423929.0 0
265934.0 424206.0 0
271288.0 425918.0 0
277899.0 424636.0 0
283930.0 425619.0 0
285961.0 422186.0 0
288419.0 424638.0 0
292785.0 425580.0 0
298633.0 425485.0 0
303415.0 426731.0 0
306219.0 426825.0 0
308211.0 424280.0 0
312089.0 424186.0 0
316555.0 424964.0 0
321091.0 426179.0 0
323991.0 423674.0 0
328078.0 422119.0 0
333065.0 425268.0 0
340733.0 423177.0 0
343848.0 427187.0 0
348462.0 426581.0 0
355837.0 426417.0 0
359115.0 424059.0 0
360626.0 427753.0 0
364155.0 427868.0 0
368413.0 426840.0 0
376435.0 425179.0 0
373208.0 426721.0 0
376019.0 429101.0 0
379456.0 427613.0 0
383269.0 430066.0 0
108722.0 434313.0 0
112374.0 432804.0 0
116043.0 432935.0 0
113761.0 435654.0 0
119914.0 431563.0 0
121771.0 433830.0 0
124208.0 431342.0 0
125704.0 435160.0 0
127711.0 431487.0 0
130761.0 434055.0 0
135311.0 430402.0 0
142200.0 429601.0 0
139707.0 432689.0 0
145253.0 428298.0 0
144578.0 433402.0 0
148400.0 430434.0 0
153189.0 429984.0 0
158191.0 431501.0 0
161407.0 428073.0 0
166603.0 429499.0 0
174918.0 428321.0 0
171443.0 431054.0 0
180645.0 427317.0 0
186466.0 430669.0 0
192463.0 430201.0 0
196799.0 429251.0 0
200880.0 431455.0 0
205346.0 429386.0 0
210395.0 427113.0 0
213251.0 431534.0 0
217129.0 429453.0 0
221818.0 430614.0 0
227078.0 431729.0 0
232508.0 429630.0 0
238464.0 429054.0 0
243031.0 431515.0 0
247996.0 430145.0 0
252747.0 430781.0 0
257486.0 429642.0 0
262276.0 427599.0 0
266642.0 429585.0 0
271393.0 431850.0 0
277085.0 431221.0 0
281994.0 430091.0 0
287217.0 430096.0 0
291773.0 429375.0 0
295421.0 431240.0 0
299120.0 430372.0 0
302261.0 430941.0 0
306762.0 430911.0 0
311092.0 428441.0 0
315857.0 430562.0 0
320311.0 430074.0 0
323678.0 429326.0 0
327897.0 427972.0 0
330184.0 431937.0 0
334024.0 430885.0 0
338601.0 427536.0 0
347313.0 430779.0 0
342873.0 432086.0 0
350127.0 433642.0 0
352197.0 429699.0 0
357385.0 430916.0 0
361649.0 431495.0 0
366052.0 431410.0 0
371638.0 431191.0 0
376151.0 432955.0 0
379631.0 431541.0 0
383926.0 433939.0 0
387139.0 432084.0 0
390084.0 434049.0 0
393132.0 435544.0 0
98313.4 440701.0 0
105515.0 436601.0 0
102149.0 439390.0 0
105802.0 440056.0 0
109687.0 437278.0 0
114264.0 439004.0 0
117996.0 435645.0 0
121704.0 436870.0 0
118810.0 439978.0 0
123788.0 439891.0 0
128249.0 438282.0 0
132306.0 438195.0 0
135627.0 435437.0 0
140554.0 437071.0 0
147401.0 436265.0 0
149806.0 433912.0 0
154114.0 434976.0 0
158645.0 436527.0 0
162743.0 433719.0 0
165584.0 437415.0 0
168708.0 434452.0 0
172419.0 436792.0 0
175635.0 432677.0 0
180993.0 433482.0 0
190769.0 435389.0 0
196041.0 434109.0 0
204526.0 435141.0 0
208580.0 432643.0 0
211917.0 435700.0 0
217652.0 435456.0 0
223837.0 435864.0 0
236065.0 433938.0 0
240834.0 436554.0 0
250519.0 434783.0 0
256314.0 435752.0 0
262338.0 433183.0 0
267520.0 435953.0 0
272195.0 436612.0 0
280980.0 434188.0 0
285712.0 436206.0 0
291236.0 434404.0 0
299375.0 434139.0 0
303870.0 435037.0 0
311235.0 433570.0 0
315719.0 436454.0 0
320508.0 434480.0 0
325875.0 433657.0 0
330815.0 436920.0 0
335498.0 435398.0 0
338514.0 432594.0 0
339184.0 436457.0 0
342626.0 436588.0 0
346363.0 435238.0 0
350162.0 438246.0 0
354744.0 434993.0 0
359605.0 434757.0 0
363134.0 434976.0 0
368037.0 436393.0 0
373204.0 436305.0 0
377099.0 436850.0 0
375687.0 439792.0 0
379392.0 439897.0 0
379911.0 435265.0 0
382796.0 437823.0 0
387226.0 437250.0 0
391896.0 438449.0 0
395991.0 437385.0 0
395572.0 440601.0 0
398984.0 439235.0 0
95236.9 442797.0 0
92048.0 444684.0 0
98400.3 443688.0 0
101789.0 443209.0 0
105907.0 443870.0 0
109630.0 441415.0 0
109852.0 445220.0 0
113199.0 443044.0 0
116053.0 441853.0 0
116719.0 444545.0 0
120687.0 442885.0 0
126617.0 441574.0 0
130095.0 441458.0 0
127583.0 444044.0 0
134138.0 441743.0 0
136817.0 438929.0 0
139593.0 442566.0 0
144876.0 439656.0 0
144162.0 443916.0 0
150438.0 438722.0 0
148274.0 443794.0 0
152949.0 442667.0 0
154938.0 439024.0 0
158552.0 441895.0 0
161971.0 438551.0 0
164218.0 442580.0 0
168929.0 440003.0 0
173324.0 441762.0 0
177425.0 438214.0 0
181462.0 437668.0 0
185519.0 437205.0 0
181891.0 441351.0 0
189384.0 441036.0 0
194689.0 439764.0 0
200155.0 437698.0 0
204643.0 441238.0 0
208251.0 437601.0 0
209469.0 442013.0 0
213449.0 440005.0 0
218440.0 441758.0 0
224472.0 441793.0 0
229419.0 437457.0 0
235020.0 438775.0 0
244536.0 441430.0 0
246263.0 437164.0 0
249254.0 440965.0 0
252418.0 438704.0 0
255328.0 441856.0 0
261916.0 440433.0 0
267983.0 440890.0 0
272671.0 441097.0 0
277074.0 437246.0 0
281726.0 440377.0 0
286867.0 442136.0 0
291789.0 440376.0 0
295691.0 437247.0 0
300757.0 439257.0 0
308028.0 437991.0 0
312522.0 440116.0 0
309626.0 442429.0 0
316965.0 441718.0 0
319528.0 438574.0 0
323623.0 438933.0 0
327630.0 440312.0 0
335549.0 439825.0 0
340136.0 440246.0 0
345418.0 440306.0 0
351553.0 443185.0 0
354448.0 439666.0 0
356833.0 443563.0 0
358864.0 438881.0 0
363192.0 438753.0 0
366824.0 441462.0 0
365985.0 444687.0 0
371781.0 441306.0 0
376605.0 443150.0 0
380852.0 443953.0 0
383660.0 440955.0 0
384482.0 444128.0 0
386732.0 441785.0 0
389881.0 443556.0 0
389557.0 440695.0 0
392753.0 442491.0 0
395992.0 445127.0 0
398775.0 442665.0 0
402045.0 441441.0 0
401959.0 444582.0 0
405639.0 444184.0 0
84816.2 450258.0 0
88602.3 447496.0 0
88970.7 451077.0 0
95560.0 446677.0 0
91759.5 447793.0 0
99503.5 446906.0 0
97223.3 449735.0 0
100398.0 450526.0 0
103283.0 447228.0 0
107849.0 448333.0 0
113024.0 446586.0 0
116292.0 448918.0 0
119924.0 446947.0 0
123995.0 444383.0 0
123056.0 448547.0 0
126606.0 447118.0 0
130874.0 445616.0 0
128883.0 449311.0 0
135207.0 445516.0 0
138085.0 448086.0 0
141876.0 446404.0 0
145415.0 447285.0 0
148981.0 448063.0 0
151524.0 446407.0 0
155616.0 446510.0 0
160615.0 446713.0 0
169138.0 445340.0 0
173970.0 446574.0 0
177696.0 443528.0 0
177543.0 447428.0 0
181401.0 446440.0 0
185751.0 444376.0 0
190417.0 446059.0 0
194834.0 444981.0 0
199303.0 443138.0 0
203186.0 446542.0 0
208625.0 446850.0 0
214227.0 445389.0 0
220237.0 447093.0 0
229964.0 443593.0 0
225287.0 447266.0 0
234307.0 443215.0 0
232978.0 446800.0 0
239299.0 442590.0 0
242742.0 446265.0 0
247104.0 445444.0 0
251895.0 445508.0 0
261963.0 446454.0 0
267391.0 446467.0 0
273089.0 446028.0 0
277299.0 442679.0 0
283168.0 445799.0 0
289516.0 446603.0 0
292928.0 444536.0 0
296337.0 442291.0 0
300378.0 445204.0 0
305192.0 442793.0 0
308925.0 446267.0 0
313123.0 444651.0 0
317424.0 446901.0 0
321554.0 443836.0 0
326346.0 443843.0 0
331467.0 442844.0 0
333413.0 446879.0 0
336943.0 444390.0 0
342044.0 444470.0 0
343899.0 448712.0 0
347142.0 445382.0 0
354155.0 447054.0 0
350869.0 447639.0 0
362136.0 443562.0 0
369073.0 445239.0 0
365484.0 448301.0 0
373455.0 446137.0 0
378302.0 448223.0 0
383850.0 448359.0 0
387406.0 445781.0 0
388034.0 449322.0 0
391879.0 447330.0 0
390196.0 451097.0 0
393398.0 451343.0 0
396291.0 449471.0 0
400145.0 447457.0 0
405309.0 447835.0 0
409786.0 446711.0 0
409869.0 450167.0 0
414188.0 449877.0 0
75650.3 456000.0 0
80596.5 453609.0 0
85720.6 454648.0 0
90058.1 454022.0 0
93193.2 451164.0 0
92736.1 455521.0 0
96490.2 453245.0 0
99623.9 453399.0 0
104483.0 451370.0 0
102081.0 454350.0 0
105077.0 455180.0 0
108212.0 453138.0 0
112015.0 450777.0 0
119328.0 451051.0 0
116132.0 453263.0 0
122127.0 451994.0 0
125574.0 450880.0 0
128529.0 453196.0 0
133032.0 450068.0 0
137252.0 453153.0 0
141907.0 450549.0 0
146504.0 451810.0 0
152263.0 450352.0 0
157393.0 451100.0 0
162372.0 450922.0 0
164842.0 447597.0 0
168334.0 450878.0 0
173579.0 451192.0 0
178357.0 451166.0 0
182609.0 450674.0 0
186603.0 449090.0 0
193333.0 449877.0 0
198223.0 448477.0 0
202752.0 452047.0 0
212920.0 450164.0 0
217413.0 451873.0 0
228998.0 447539.0 0
226467.0 451779.0 0
231299.0 450858.0 0
237066.0 447525.0 0
236032.0 452154.0 0
241397.0 451033.0 0
246695.0 450300.0 0
252242.0 451065.0 0
257099.0 447265.0 0
262876.0 451921.0 0
268708.0 452107.0 0
273626.0 451580.0 0
278114.0 448109.0 0
282661.0 450210.0 0
287202.0 451096.0 0
295725.0 447789.0 0
292220.0 450102.0 0
304619.0 447847.0 0
300545.0 450193.0 0
304241.0 451763.0 0
308543.0 451244.0 0
313312.0 449345.0 0
320275.0 450445.0 0
323888.0 448258.0 0
329075.0 448187.0 0
330281.0 452504.0 0
333189.0 450812.0 0
336051.0 448810.0 0
336842.0 452454.0 0
339596.0 448674.0 0
348078.0 451499.0 0
353356.0 451229.0 0
359219.0 449572.0 0
363955.0 452578.0 0
367794.0 452787.0 0
370325.0 449433.0 0
372348.0 454042.0 0
374191.0 450227.0 0
377075.0 453155.0 0
382092.0 452716.0 0
386947.0 453066.0 0
391394.0 454401.0 0
396421.0 454229.0 0
399214.0 451420.0 0
403054.0 451143.0 0
401529.0 455031.0 0
407064.0 451164.0 0
406747.0 455137.0 0
411925.0 453757.0 0
418673.0 451309.0 0
416079.0 453024.0 0
418683.0 454314.0 0
422122.0 454648.0 0
67647.2 459679.0 0
71341.6 458367.0 0
74139.3 459999.0 0
79328.0 458845.0 0
82952.8 456990.0 0
84426.9 459804.0 0
88729.0 458029.0 0
95633.4 457159.0 0
92721.9 460215.0 0
99134.6 456617.0 0
102878.0 459302.0 0
108093.0 457856.0 0
112061.0 455572.0 0
115772.0 457871.0 0
119966.0 455403.0 0
124252.0 454713.0 0
122918.0 458166.0 0
127130.0 457920.0 0
132331.0 455836.0 0
136555.0 458635.0 0
141854.0 456059.0 0
146624.0 456317.0 0
150121.0 454240.0 0
149624.0 458525.0 0
154252.0 455576.0 0
159907.0 456315.0 0
164728.0 454255.0 0
165103.0 459140.0 0
168384.0 455674.0 0
172700.0 456058.0 0
178548.0 457057.0 0
184621.0 454279.0 0
183534.0 457910.0 0
189478.0 453109.0 0
193275.0 457150.0 0
197473.0 453814.0 0
201080.0 456826.0 0
208567.0 452755.0 0
205212.0 456556.0 0
213424.0 455012.0 0
222044.0 452825.0 0
219452.0 456714.0 0
224259.0 455897.0 0
228348.0 456513.0 0
232673.0 455217.0 0
237547.0 456679.0 0
242070.0 457222.0 0
246248.0 455073.0 0
251183.0 457196.0 0
257377.0 452859.0 0
256801.0 457106.0 0
266578.0 456175.0 0
270636.0 455930.0 0
274924.0 456436.0 0
278414.0 453420.0 0
282794.0 454526.0 0
291504.0 454684.0 0
296737.0 453160.0 0
295569.0 457704.0 0
299436.0 457873.0 0
302318.0 455088.0 0
307108.0 456625.0 0
311954.0 455065.0 0
316627.0 453263.0 0
318756.0 457206.0 0
321655.0 454936.0 0
326108.0 452835.0 0
329474.0 455753.0 0
333482.0 454912.0 0
337338.0 458953.0 0
341997.0 453995.0 0
346916.0 456292.0 0
351434.0 455743.0 0
356306.0 455256.0 0
361151.0 455582.0 0
359035.0 458813.0 0
365512.0 456389.0 0
369135.0 456616.0 0
371771.0 458949.0 0
375551.0 457775.0 0
380298.0 456913.0 0
384673.0 456716.0 0
387809.0 456406.0 0
390565.0 457965.0 0
394448.0 458154.0 0
399234.0 458247.0 0
403766.0 459014.0 0
408106.0 459962.0 0
411291.0 457464.0 0
413005.0 460762.0 0
415806.0 456858.0 0
420294.0 458372.0 0
424011.0 460335.0 0
423891.0 457931.0 0
426651.0 456888.0 0
426595.0 460263.0 0
430502.0 460213.0 0
65097.3 463075.0 0
60926.0 464182.0 0
69759.6 461551.0 0
68935.6 465246.0 0
72174.2 463184.0 0
76061.3 463252.0 0
80671.8 462956.0 0
84604.6 463493.0 0
82026.0 465912.0 0
88628.3 463007.0 0
93492.8 464764.0 0
97522.1 461260.0 0
97002.3 465124.0 0
101568.0 465092.0 0
106978.0 462579.0 0
111897.0 460318.0 0
111513.0 464942.0 0
115730.0 462154.0 0
119391.0 459995.0 0
119598.0 464491.0 0
122896.0 461422.0 0
126233.0 461769.0 0
131280.0 461375.0 0
136231.0 463501.0 0
139928.0 460983.0 0
144672.0 461091.0 0
149546.0 463775.0 0
153349.0 460068.0 0
154023.0 463778.0 0
157318.0 461432.0 0
161193.0 461088.0 0
163527.0 463437.0 0
169670.0 459497.0 0
173467.0 462265.0 0
177752.0 462248.0 0
182035.0 462662.0 0
187619.0 458203.0 0
191069.0 461817.0 0
197698.0 458206.0 0
195944.0 462127.0 0
201399.0 461834.0 0
209428.0 457922.0 0
206060.0 460490.0 0
209872.0 462694.0 0
213817.0 459845.0 0
218552.0 462029.0 0
223480.0 460039.0 0
228078.0 462211.0 0
232746.0 459881.0 0
237265.0 460980.0 0
241513.0 461732.0 0
246079.0 460103.0 0
254242.0 461318.0 0
250116.0 462069.0 0
258476.0 461900.0 0
261736.0 458172.0 0
266769.0 461465.0 0
271663.0 459735.0 0
276276.0 461594.0 0
281963.0 459906.0 0
286713.0 457169.0 0
286510.0 462339.0 0
290612.0 460212.0 0
294783.0 461708.0 0
299252.0 462247.0 0
303606.0 460110.0 0
307642.0 462788.0 0
311142.0 459753.0 0
315471.0 458245.0 0
314532.0 462550.0 0
320032.0 461895.0 0
325762.0 458745.0 0
331698.0 459172.0 0
335846.0 464487.0 0
340628.0 464104.0 0
343557.0 460120.0 0
349286.0 460548.0 0
354740.0 460381.0 0
359272.0 462821.0 0
363399.0 460397.0 0
367919.0 460009.0 0
366750.0 463648.0 0
370811.0 462809.0 0
374556.0 461810.0 0
378627.0 460976.0 0
382889.0 460422.0 0
381284.0 464636.0 0
387436.0 460183.0 0
385087.0 463741.0 0
391974.0 461639.0 0
389349.0 464547.0 0
393518.0 465750.0 0
397116.0 462542.0 0
401713.0 461458.0 0
402489.0 465155.0 0
405655.0 463117.0 0
409985.0 464008.0 0
417599.0 461287.0 0
414784.0 465183.0 0
419366.0 465576.0 0
422121.0 462489.0 0
426462.0 463906.0 0
430851.0 464247.0 0
435096.0 462444.0 0
439116.0 464897.0 0
54175.0 468555.0 0
51127.5 470761.0 0
58100.0 467063.0 0
55737.8 471538.0 0
62499.8 466878.0 0
60376.0 469827.0 0
64174.2 470948.0 0
65630.8 467420.0 0
68647.1 469261.0 0
72626.2 467107.0 0
74695.1 469992.0 0
77639.8 466915.0 0
77621.5 470868.0 0
81317.4 469262.0 0
85428.1 466863.0 0
89339.2 467328.0 0
93375.7 468559.0 0
96975.9 468008.0 0
103692.0 468958.0 0
106996.0 467138.0 0
110203.0 469889.0 0
113705.0 468574.0 0
115792.0 465652.0 0
117615.0 469154.0 0
123848.0 464752.0 0
122447.0 468995.0 0
127737.0 465318.0 0
132185.0 466663.0 0
136658.0 468245.0 0
140720.0 465111.0 0
145036.0 466339.0 0
148622.0 468735.0 0
152911.0 467578.0 0
156578.0 465769.0 0
160120.0 464732.0 0
163572.0 467594.0 0
167875.0 464122.0 0
171970.0 468100.0 0
177238.0 466303.0 0
181907.0 468139.0 0
186856.0 463208.0 0
187073.0 467969.0 0
192156.0 466559.0 0
196887.0 466861.0 0
201566.0 467501.0 0
205650.0 464813.0 0
209515.0 467688.0 0
214034.0 465423.0 0
218860.0 467265.0 0
222878.0 466233.0 0
227479.0 466746.0 0
231863.0 464021.0 0
235696.0 465030.0 0
241094.0 466083.0 0
246294.0 466019.0 0
252695.0 466652.0 0
257708.0 465744.0 0
262110.0 464942.0 0
267734.0 466221.0 0
271601.0 464400.0 0
275742.0 466588.0 0
280370.0 465435.0 0
285191.0 466486.0 0
290257.0 465664.0 0
294932.0 465465.0 0
298943.0 467491.0 0
303415.0 465145.0 0
307681.0 467852.0 0
313240.0 467495.0 0
318672.0 467844.0 0
321984.0 466406.0 0
325862.0 464704.0 0
331123.0 463676.0 0
338683.0 467591.0 0
334687.0 469552.0 0
346088.0 464903.0 0
350880.0 465381.0 0
353176.0 468777.0 0
355557.0 465520.0 0
359702.0 466988.0 0
363234.0 465172.0 0
366056.0 467242.0 0
367838.0 470652.0 0
369460.0 466779.0 0
371995.0 470082.0 0
373977.0 466363.0 0
378268.0 468258.0 0
377261.0 464463.0 0
382257.0 468321.0 0
385906.0 467219.0 0
390431.0 469866.0 0
394700.0 469637.0 0
398646.0 467946.0 0
403516.0 469047.0 0
407503.0 467830.0 0
411815.0 468051.0 0
416534.0 469660.0 0
423300.0 466450.0 0
420541.0 469131.0 0
424462.0 470010.0 0
429369.0 467395.0 0
426668.0 467606.0 0
427865.0 470758.0 0
434515.0 467115.0 0
430885.0 470087.0 0
439216.0 468546.0 0
436975.0 471397.0 0
443491.0 468465.0 0
441312.0 472102.0 0
448517.0 470521.0 0
43748.6 475161.0 0
47501.6 472882.0 0
46922.6 475481.0 0
51320.3 474560.0 0
55346.7 475300.0 0
59804.9 473868.0 0
64356.5 475529.0 0
67711.6 473283.0 0
71565.7 471709.0 0
70363.3 475924.0 0
75128.6 474207.0 0
80039.4 473526.0 0
82893.9 476575.0 0
85157.7 471568.0 0
87333.5 476018.0 0
90152.5 471813.0 0
95063.3 472733.0 0
100224.0 471244.0 0
102433.0 475207.0 0
105871.0 472198.0 0
109827.0 473699.0 0
114069.0 472551.0 0
119457.0 472952.0 0
124097.0 473831.0 0
127777.0 469943.0 0
132765.0 471396.0 0
137474.0 472892.0 0
140887.0 469799.0 0
144919.0 470507.0 0
142321.0 474469.0 0
147284.0 473765.0 0
151477.0 471930.0 0
155440.0 470381.0 0
159013.0 468729.0 0
161344.0 472811.0 0
167093.0 471583.0 0
176286.0 471363.0 0
184120.0 472385.0 0
187412.0 471780.0 0
191201.0 471664.0 0
196388.0 471634.0 0
205505.0 470561.0 0
213108.0 470852.0 0
217500.0 471833.0 0
222786.0 471148.0 0
228535.0 472324.0 0
231933.0 468159.0 0
237638.0 470773.0 0
243868.0 471301.0 0
248872.0 471039.0 0
256970.0 469017.0 0
259748.0 471211.0 0
264801.0 470123.0 0
271621.0 470665.0 0
278647.0 471253.0 0
284383.0 471048.0 0
288896.0 470599.0 0
294012.0 470164.0 0
298758.0 472383.0 0
303325.0 470670.0 0
314416.0 473119.0 0
319287.0 472752.0 0
322983.0 469990.0 0
326310.0 468941.0 0
327153.0 472544.0 0
330003.0 468531.0 0
335159.0 474097.0 0
339257.0 472224.0 0
342957.0 468441.0 0
348157.0 470059.0 0
352755.0 472993.0 0
357476.0 470645.0 0
360807.0 474590.0 0
363111.0 470152.0 0
370968.0 474669.0 0
376034.0 472501.0 0
380725.0 472160.0 0
385233.0 471532.0 0
388617.0 475053.0 0
393758.0 474482.0 0
397249.0 472166.0 0
399352.0 475752.0 0
401881.0 472375.0 0
406462.0 472468.0 0
411805.0 472241.0 0
417011.0 473753.0 0
421485.0 473170.0 0
425781.0 473415.0 0
429810.0 474804.0 0
433410.0 471950.0 0
434837.0 475683.0 0
439198.0 474911.0 0
442758.0 476577.0 0
445828.0 473395.0 0
449331.0 476470.0 0
452195.0 473703.0 0
456897.0 476908.0 0
35452.2 480301.0 0
39701.9 478942.0 0
44123.8 478747.0 0
48678.2 478401.0 0
52803.6 478944.0 0
57027.2 478667.0 0
61264.7 478037.0 0
59501.9 481496.0 0
64230.7 481118.0 0
67016.1 477443.0 0
68780.3 479907.0 0
73622.9 479021.0 0
78665.1 477381.0 0
78124.7 480896.0 0
81574.5 480757.0 0
85401.7 479967.0 0
89826.5 479236.0 0
91301.6 475720.0 0
94011.4 477698.0 0
98460.3 476320.0 0
101550.0 479775.0 0
106356.0 477679.0 0
111676.0 477406.0 0
116467.0 476754.0 0
120874.0 476609.0 0
124883.0 479566.0 0
128844.0 474690.0 0
133585.0 475868.0 0
138064.0 477463.0 0
142602.0 479598.0 0
146943.0 478036.0 0
150790.0 476237.0 0
155805.0 475169.0 0
160367.0 478098.0 0
164719.0 476126.0 0
172092.0 474714.0 0
180141.0 473125.0 0
177107.0 476329.0 0
182458.0 477513.0 0
187723.0 475575.0 0
193393.0 476628.0 0
198273.0 478124.0 0
201364.0 473867.0 0
206140.0 475545.0 0
209286.0 472781.0 0
214524.0 475453.0 0
210312.0 476746.0 0
219488.0 476423.0 0
224351.0 476132.0 0
228431.0 477307.0 0
233219.0 475794.0 0
238306.0 476701.0 0
242318.0 475503.0 0
246627.0 475365.0 0
254044.0 472768.0 0
251378.0 477293.0 0
257195.0 477218.0 0
262056.0 475310.0 0
267375.0 475351.0 0
272633.0 477294.0 0
278324.0 477401.0 0
282543.0 475070.0 0
287541.0 475631.0 0
292200.0 474518.0 0
296543.0 476744.0 0
300273.0 475468.0 0
303457.0 475476.0 0
308576.0 473804.0 0
312659.0 477171.0 0
317446.0 477959.0 0
323534.0 476586.0 0
329389.0 477101.0 0
331531.0 472980.0 0
334087.0 477852.0 0
339729.0 478280.0 0
344155.0 473928.0 0
348682.0 475691.0 0
345328.0 478633.0 0
352916.0 477589.0 0
356569.0 475297.0 0
363119.0 478341.0 0
365887.0 474859.0 0
370609.0 479275.0 0
375833.0 478374.0 0
379791.0 475975.0 0
383638.0 475821.0 0
386567.0 479378.0 0
391449.0 478675.0 0
396284.0 478914.0 0
404140.0 476405.0 0
401281.0 479923.0 0
409227.0 476528.0 0
412022.0 480548.0 0
414903.0 477400.0 0
420053.0 477253.0 0
418662.0 479737.0 0
424844.0 477640.0 0
429205.0 479606.0 0
432241.0 478350.0 0
432466.0 481135.0 0
435375.0 479660.0 0
438986.0 478727.0 0
442643.0 480477.0 0
446166.0 478430.0 0
449784.0 480433.0 0
452811.0 478524.0 0
453248.0 482807.0 0
455505.0 480630.0 0
458405.0 481244.0 0
461902.0 479855.0 0
466680.0 482032.0 0
28492.2 483895.0 0
26196.9 486829.0 0
32407.9 483326.0 0
37675.9 483862.0 0
34751.5 487134.0 0
38435.7 487943.0 0
42310.0 483222.0 0
46548.3 481753.0 0
46383.0 485375.0 0
50356.4 482612.0 0
55163.1 483330.0 0
60092.3 485071.0 0
67205.6 483925.0 0
70901.5 483460.0 0
75417.3 483721.0 0
79472.4 484157.0 0
83024.5 484115.0 0
87378.6 483762.0 0
93114.1 481337.0 0
91469.7 484330.0 0
90636.2 482075.0 0
95083.5 485446.0 0
97001.3 480831.0 0
99812.5 483939.0 0
105012.0 483447.0 0
109513.0 481268.0 0
109766.0 485278.0 0
113951.0 481792.0 0
119138.0 480612.0 0
121923.0 483498.0 0
125452.0 484946.0 0
129917.0 478805.0 0
133918.0 480617.0 0
138420.0 482721.0 0
146146.0 482299.0 0
151092.0 481307.0 0
156238.0 480503.0 0
164446.0 480796.0 0
168490.0 478388.0 0
173501.0 481256.0 0
179701.0 482857.0 0
189442.0 480177.0 0
185100.0 482495.0 0
193893.0 481890.0 0
198379.0 482726.0 0
202640.0 478700.0 0
207135.0 480198.0 0
212296.0 480660.0 0
217197.0 481312.0 0
222371.0 480780.0 0
227225.0 481670.0 0
232051.0 480313.0 0
236308.0 481497.0 0
241681.0 480122.0 0
246939.0 480441.0 0
251458.0 481607.0 0
256096.0 482335.0 0
261302.0 480664.0 0
266082.0 479918.0 0
270263.0 482414.0 0
275658.0 482231.0 0
283439.0 480109.0 0
288334.0 480657.0 0
291919.0 478620.0 0
291728.0 483176.0 0
295173.0 480970.0 0
300923.0 478533.0 0
305074.0 479231.0 0
309279.0 479447.0 0
306637.0 482657.0 0
313853.0 481513.0 0
322617.0 481765.0 0
327373.0 481880.0 0
331691.0 480921.0 0
335924.0 483186.0 0
344470.0 482735.0 0
349635.0 481809.0 0
354160.0 480885.0 0
358544.0 479774.0 0
363073.0 482627.0 0
366795.0 479755.0 0
367670.0 484094.0 0
372760.0 483323.0 0
377882.0 483806.0 0
381549.0 480323.0 0
385306.0 483680.0 0
389619.0 483109.0 0
393746.0 482538.0 0
398033.0 483879.0 0
402159.0 483718.0 0
406744.0 481595.0 0
412434.0 484658.0 0
416675.0 482599.0 0
422064.0 481838.0 0
424921.0 483910.0 0
426351.0 481984.0 0
427452.0 485641.0 0
429803.0 483458.0 0
432950.0 484304.0 0
438994.0 482997.0 0
435198.0 482726.0 0
436196.0 486404.0 0
443174.0 484627.0 0
446300.0 482140.0 0
449785.0 484327.0 0
446629.0 485953.0 0
452564.0 486732.0 0
456345.0 487099.0 0
456531.0 483386.0 0
459952.0 484683.0 0
463865.0 484366.0 0
470540.0 484471.0 0
467850.0 485281.0 0
474030.0 486314.0 0
19148.2 490458.0 0
22511.1 489074.0 0
26003.2 491850.0 0
30136.4 487990.0 0
33128.5 490292.0 0
36515.9 490643.0 0
41771.1 487186.0 0
45886.3 489977.0 0
51022.3 487096.0 0
49743.1 490658.0 0
52637.8 491024.0 0
55862.1 487970.0 0
56787.1 491761.0 0
60232.5 489841.0 0
64187.9 486798.0 0
68583.5 488152.0 0
72598.3 486924.0 0
72802.0 490866.0 0
76426.7 487455.0 0
77729.0 491406.0 0
80826.3 487891.0 0
85630.7 488700.0 0
90516.5 487372.0 0
93251.3 489939.0 0
97883.6 489357.0 0
101856.0 487167.0 0
106119.0 489252.0 0
113800.0 486624.0 0
117763.0 485280.0 0
121709.0 487713.0 0
126211.0 489319.0 0
129524.0 483422.0 0
134044.0 485479.0 0
130409.0 488013.0 0
138157.0 487535.0 0
142590.0 485158.0 0
143555.0 489300.0 0
146989.0 486525.0 0
150991.0 486221.0 0
155393.0 485476.0 0
160195.0 483388.0 0
161859.0 488057.0 0
167662.0 485778.0 0
176162.0 486262.0 0
182655.0 486481.0 0
187267.0 487595.0 0
192517.0 486423.0 0
196617.0 488075.0 0
203061.0 483283.0 0
200036.0 486313.0 0
204554.0 487475.0 0
207001.0 484833.0 0
209737.0 483387.0 0
213132.0 485725.0 0
217599.0 485774.0 0
221689.0 485585.0 0
226333.0 486504.0 0
231513.0 484936.0 0
236101.0 486705.0 0
240528.0 485283.0 0
248520.0 485208.0 0
252607.0 485241.0 0
259901.0 485284.0 0
256071.0 487303.0 0
265150.0 485123.0 0
272862.0 485652.0 0
275578.0 486307.0 0
280554.0 485538.0 0
286772.0 485363.0 0
291741.0 487839.0 0
296400.0 485279.0 0
301927.0 483367.0 0
305899.0 486377.0 0
310387.0 483741.0 0
313922.0 485899.0 0
318210.0 483823.0 0
324270.0 486028.0 0
327994.0 485898.0 0
331238.0 484858.0 0
334358.0 488359.0 0
339024.0 487501.0 0
340776.0 483681.0 0
343353.0 488118.0 0
346843.0 485932.0 0
351347.0 487379.0 0
355708.0 484690.0 0
360179.0 486183.0 0
363977.0 486625.0 0
367299.0 489082.0 0
370770.0 486863.0 0
375228.0 488254.0 0
379712.0 487910.0 0
382260.0 485212.0 0
388023.0 487250.0 0
393256.0 487234.0 0
397903.0 488780.0 0
401086.0 486839.0 0
402628.0 490568.0 0
404494.0 486608.0 0
406277.0 489841.0 0
408671.0 486970.0 0
412797.0 489424.0 0
416672.0 487358.0 0
420325.0 489497.0 0
420078.0 485635.0 0
423688.0 486784.0 0
424384.0 491301.0 0
427514.0 488840.0 0
431873.0 488574.0 0
437050.0 490675.0 0
440418.0 487493.0 0
444648.0 488774.0 0
441776.0 491544.0 0
449413.0 489147.0 0
453908.0 490795.0 0
459668.0 488565.0 0
457719.0 491456.0 0
462585.0 487923.0 0
461249.0 491449.0 0
464545.0 490705.0 0
466686.0 487864.0 0
470755.0 488512.0 0
474040.0 489938.0 0
477229.0 488738.0 0
477091.0 492450.0 0
480879.0 490995.0 0
12643.1 494528.0 0
9840.23 497108.0 0
16452.1 493248.0 0
14629.3 497562.0 0
21252.4 493267.0 0
19221.9 497489.0 0
23960.5 496151.0 0
28088.0 495975.0 0
30223.7 492760.0 0
32576.8 497669.0 0
33413.9 493172.0 0
37232.5 494871.0 0
40924.7 491538.0 0
41495.2 496237.0 0
44398.7 493998.0 0
48678.2 494213.0 0
54003.2 495325.0 0
59668.8 494507.0 0
63180.8 495824.0 0
64298.9 491713.0 0
68604.9 492161.0 0
66676.4 495431.0 0
70625.6 495116.0 0
75022.5 494886.0 0
79279.0 494667.0 0
81948.0 492361.0 0
86400.0 494316.0 0
89627.4 490740.0 0
91476.4 493753.0 0
95567.0 493287.0 0
99206.1 493195.0 0
101962.0 491151.0 0
102909.0 495147.0 0
108077.0 494382.0 0
111258.0 490217.0 0
113086.0 494188.0 0
116518.0 490684.0 0
121627.0 492702.0 0
126952.0 493811.0 0
129585.0 491283.0 0
134492.0 490178.0 0
137664.0 494145.0 0
140194.0 490575.0 0
143262.0 494029.0 0
147100.0 491085.0 0
152030.0 490823.0 0
157444.0 490343.0 0
161572.0 493031.0 0
165127.0 490569.0 0
168571.0 491030.0 0
172949.0 489866.0 0
175655.0 493564.0 0
179452.0 490441.0 0
184904.0 492784.0 0
191475.0 491529.0 0
196339.0 492740.0 0
201041.0 490859.0 0
209027.0 489924.0 0
205171.0 492656.0 0
217065.0 491246.0 0
222569.0 489803.0 0
227103.0 491718.0 0
232987.0 490876.0 0
238894.0 490576.0 0
244853.0 489427.0 0
251374.0 490206.0 0
256782.0 491804.0 0
261545.0 489886.0 0
269876.0 488880.0 0
266041.0 492992.0 0
273324.0 492334.0 0
277002.0 489858.0 0
282493.0 491698.0 0
287885.0 490505.0 0
292033.0 492852.0 0
295770.0 490195.0 0
301425.0 489910.0 0
306821.0 491806.0 0
309984.0 488343.0 0
315074.0 491018.0 0
320267.0 488814.0 0
324995.0 491241.0 0
329621.0 489226.0 0
334728.0 493410.0 0
339713.0 492335.0 0
344519.0 492505.0 0
347613.0 489832.0 0
351464.0 492895.0 0
356789.0 490277.0 0
361948.0 490163.0 0
360256.0 494632.0 0
365073.0 493758.0 0
369446.0 492958.0 0
371537.0 490022.0 0
374003.0 493759.0 0
379024.0 492387.0 0
384180.0 489899.0 0
383079.0 494428.0 0
387439.0 494516.0 0
390533.0 491195.0 0
394876.0 492154.0 0
399031.0 492729.0 0
402752.0 495458.0 0
409087.0 490736.0 0
406552.0 493277.0 0
411702.0 494361.0 0
416917.0 491788.0 0
421095.0 494194.0 0
425643.0 496282.0 0
429283.0 493059.0 0
434081.0 493801.0 0
439218.0 495428.0 0
443900.0 494824.0 0
446570.0 492446.0 0
447650.0 496961.0 0
455682.0 494385.0 0
450948.0 493746.0 0
457037.0 498052.0 0
460021.0 495167.0 0
464258.0 494144.0 0
468216.0 491896.0 0
467825.0 495810.0 0
473553.0 497491.0 0
472531.0 493545.0 0
477473.0 496543.0 0
481354.0 494283.0 0
481926.0 497708.0 0
485126.0 496443.0 0
484757.0 492965.0 0
488325.0 495216.0 0
491746.0 497629.0 0
5802.0 499248.0 0
2422.21 500939.0 0
8527.23 501691.0 0
12567.7 500790.0 0
23212.8 499834.0 0
16507.5 501558.0 0
26283.1 499602.0 0
28753.5 498852.0 0
20739.1 502621.0 0
29384.1 502370.0 0
34000.6 502054.0 0
37755.8 499464.0 0
45153.2 496791.0 0
42716.7 500144.0 0
48584.7 499713.0 0
57631.4 497873.0 0
53944.5 499769.0 0
60844.8 498672.0 0
64920.3 498979.0 0
68368.7 498316.0 0
72575.3 499613.0 0
77818.2 497957.0 0
82126.1 496412.0 0
85662.9 499275.0 0
89961.0 497874.0 0
93804.4 496500.0 0
98057.3 497102.0 0
102063.0 499722.0 0
105496.0 498410.0 0
109983.0 499483.0 0
116320.0 494665.0 0
114459.0 497509.0 0
119085.0 497958.0 0
123915.0 496992.0 0
128138.0 498669.0 0
131995.0 494697.0 0
135241.0 499008.0 0
140524.0 498747.0 0
148756.0 495945.0 0
153634.0 498587.0 0
155209.0 494331.0 0
158431.0 496191.0 0
162367.0 497875.0 0
166503.0 494848.0 0
171861.0 495295.0 0
175930.0 496827.0 0
179737.0 496044.0 0
184085.0 497823.0 0
188613.0 495763.0 0
193462.0 496678.0 0
198019.0 496932.0 0
202471.0 496318.0 0
208063.0 496042.0 0
212219.0 493768.0 0
212636.0 497129.0 0
218196.0 497236.0 0
222465.0 494592.0 0
226850.0 496782.0 0
231584.0 496371.0 0
236444.0 495307.0 0
241279.0 495230.0 0
245817.0 494763.0 0
250392.0 496060.0 0
255124.0 495920.0 0
260694.0 496061.0 0
270492.0 496001.0 0
277350.0 495471.0 0
287352.0 495733.0 0
292326.0 497678.0 0
297154.0 495297.0 0
302139.0 495362.0 0
306558.0 496633.0 0
312537.0 496954.0 0
317297.0 497280.0 0
320245.0 494168.0 0
325029.0 496632.0 0
329605.0 494265.0 0
328943.0 498520.0 0
332760.0 497900.0 0
337967.0 498063.0 0
342466.0 496145.0 0
347451.0 497194.0 0
352384.0 497764.0 0
355844.0 495573.0 0
365135.0 497895.0 0
361325.0 499647.0 0
369534.0 497400.0 0
374630.0 498881.0 0
377154.0 496111.0 0
380142.0 497180.0 0
384447.0 498321.0 0
389235.0 499219.0 0
392364.0 495508.0 0
394115.0 500002.0 0
397557.0 496717.0 0
403651.0 499753.0 0
407548.0 497545.0 0
412380.0 499908.0 0
416878.0 496901.0 0
421695.0 499220.0 0
426773.0 501335.0 0
431081.0 498279.0 0
434843.0 501403.0 0
435817.0 498029.0 0
439857.0 501323.0 0
443329.0 498173.0 0
450136.0 500801.0 0
452954.0 497443.0 0
458810.0 501674.0 0
460985.0 498819.0 0
464134.0 497648.0 0
463618.0 501829.0 0
470684.0 497150.0 0
467935.0 500093.0 0
471905.0 499914.0 0
475542.0 500732.0 0
480054.0 501034.0 0
484589.0 500774.0 0
488351.0 499487.0 0
492095.0 502248.0 0
495816.0 500025.0 0
2643.47 505429.0 0
6544.24 504678.0 0
11000.5 504039.0 0
14030.7 504740.0 0
10365.4 507323.0 0
17933.9 506045.0 0
22510.3 506860.0 0
25006.2 503132.0 0
32203.6 506111.0 0
38707.4 505090.0 0
44762.3 503687.0 0
52782.8 503166.0 0
49156.8 505171.0 0
57453.3 502247.0 0
62556.9 502537.0 0
59360.2 506483.0 0
67873.3 502852.0 0
72392.3 505110.0 0
76630.8 502717.0 0
81331.6 500721.0 0
84452.1 503947.0 0
88961.3 502277.0 0
93858.0 500779.0 0
92186.2 505422.0 0
96197.4 504754.0 0
98563.9 501527.0 0
100904.0 505398.0 0
105315.0 502691.0 0
109715.0 504932.0 0
115141.0 502651.0 0
119958.0 502631.0 0
123427.0 501041.0 0
126821.0 503009.0 0
131471.0 502475.0 0
137521.0 503383.0 0
141265.0 502757.0 0
145067.0 499468.0 0
144442.0 503378.0 0
149235.0 502233.0 0
158207.0 500646.0 0
154298.0 503462.0 0
162431.0 502311.0 0
168800.0 499284.0 0
166171.0 502339.0 0
173553.0 500236.0 0
169684.0 503659.0 0
179131.0 501542.0 0
184479.0 502550.0 0
189540.0 500926.0 0
195176.0 501591.0 0
200164.0 500942.0 0
205213.0 500789.0 0
210485.0 501178.0 0
214842.0 499785.0 0
218119.0 501761.0 0
222594.0 500053.0 0
226736.0 500342.0 0
230862.0 501916.0 0
235975.0 500063.0 0
239721.0 498431.0 0
244290.0 499154.0 0
240271.0 501774.0 0
250139.0 501416.0 0
256208.0 501254.0 0
261962.0 501798.0 0
266068.0 498873.0 0
271869.0 501544.0 0
277587.0 501271.0 0
282367.0 498623.0 0
288843.0 501162.0 0
293766.0 502054.0 0
298181.0 500637.0 0
302273.0 499328.0 0
306037.0 501555.0 0
310959.0 502899.0 0
320727.0 500045.0 0
315838.0 501541.0 0
325896.0 501512.0 0
330888.0 502343.0 0
336474.0 503884.0 0
343464.0 499544.0 0
341270.0 502327.0 0
346370.0 503242.0 0
351600.0 501935.0 0
356174.0 500298.0 0
362046.0 504680.0 0
366591.0 502020.0 0
371272.0 501535.0 0
374952.0 503911.0 0
378722.0 501211.0 0
380628.0 504895.0 0
383769.0 504145.0 0
382449.0 501659.0 0
385868.0 502104.0 0
388631.0 502894.0 0
391716.0 503745.0 0
399848.0 500633.0 0
397228.0 504480.0 0
402787.0 504346.0 0
408123.0 502681.0 0
413261.0 504946.0 0
417211.0 502021.0 0
418665.0 507408.0 0
421963.0 504928.0 0
431779.0 503821.0 0
436228.0 504763.0 0
445576.0 501228.0 0
443927.0 505318.0 0
448497.0 504895.0 0
452465.0 504084.0 0
454717.0 501359.0 0
456348.0 505805.0 0
460903.0 504904.0 0
464480.0 506078.0 0
467415.0 504001.0 0
472030.0 504034.0 0
477732.0 504886.0 0
483273.0 504504.0 0
481904.0 507692.0 0
488036.0 504365.0 0
485768.0 508295.0 0
493605.0 506445.0 0
497327.0 503616.0 0
498126.0 507064.0 0
2074.71 509597.0 0
6091.16 509014.0 0
14718.0 508421.0 0
11457.8 511540.0 0
15277.8 511523.0 0
19225.7 510298.0 0
24638.8 511399.0 0
27167.3 506740.0 0
29919.1 510368.0 0
34302.8 509454.0 0
44670.5 508466.0 0
49806.9 509028.0 0
54074.0 506891.0 0
57024.2 510158.0 0
61209.9 510816.0 0
64562.5 507031.0 0
69417.4 508565.0 0
76035.5 507082.0 0
80117.9 505696.0 0
78711.2 509701.0 0
83143.7 508734.0 0
87640.6 506745.0 0
86404.7 510555.0 0
90920.5 509905.0 0
96418.0 509284.0 0
101494.0 510105.0 0
105587.0 507776.0 0
113365.0 507122.0 0
110046.0 509722.0 0
117476.0 507434.0 0
122953.0 506484.0 0
128725.0 506550.0 0
126646.0 509704.0 0
133940.0 507041.0 0
141107.0 506769.0 0
146490.0 507400.0 0
151533.0 507009.0 0
158848.0 506443.0 0
164682.0 506360.0 0
174352.0 505815.0 0
169227.0 508177.0 0
183792.0 506427.0 0
179869.0 507838.0 0
187575.0 506064.0 0
192627.0 506073.0 0
197615.0 505843.0 0
202653.0 505590.0 0
208080.0 506085.0 0
214550.0 504328.0 0
217545.0 507294.0 0
220920.0 504955.0 0
225772.0 504424.0 0
229704.0 506945.0 0
236614.0 505686.0 0
240586.0 508219.0 0
245046.0 505317.0 0
252022.0 506402.0 0
256739.0 506719.0 0
261784.0 506514.0 0
266647.0 504378.0 0
272056.0 507592.0 0
277192.0 506249.0 0
282579.0 504158.0 0
285206.0 508031.0 0
288557.0 505831.0 0
292152.0 505543.0 0
296522.0 506611.0 0
302210.0 505088.0 0
307558.0 507405.0 0
313678.0 507892.0 0
318638.0 505579.0 0
322787.0 504318.0 0
326870.0 506998.0 0
332550.0 507602.0 0
336636.0 508543.0 0
341248.0 507749.0 0
346568.0 508500.0 0
350984.0 506705.0 0
354961.0 507274.0 0
357520.0 504696.0 0
358130.0 508642.0 0
362298.0 509456.0 0
366491.0 507342.0 0
370185.0 508774.0 0
370476.0 505134.0 0
373507.0 507993.0 0
377773.0 508004.0 0
383315.0 505964.0 0
382223.0 508798.0 0
387262.0 506982.0 0
392970.0 507998.0 0
397283.0 509344.0 0
402340.0 509975.0 0
407253.0 507544.0 0
411535.0 509101.0 0
416033.0 509034.0 0
417171.0 505652.0 0
420539.0 510077.0 0
424606.0 509864.0 0
427687.0 506484.0 0
428815.0 511269.0 0
433979.0 507396.0 0
431233.0 508255.0 0
439795.0 506180.0 0
437422.0 508953.0 0
442243.0 509973.0 0
447228.0 509107.0 0
451836.0 507919.0 0
455812.0 510674.0 0
460490.0 509162.0 0
464813.0 510014.0 0
468944.0 508007.0 0
471734.0 511826.0 0
478490.0 509296.0 0
474198.0 508300.0 0
482759.0 511853.0 0
489561.0 508063.0 0
492419.0 510207.0 0
497036.0 510721.0 0
2690.3 513633.0 0
7275.27 513094.0 0
5859.08 517138.0 0
10365.4 515880.0 0
13998.2 514723.0 0
17085.3 513701.0 0
16880.4 516751.0 0
20683.9 515000.0 0
28611.3 514628.0 0
33253.1 513617.0 0
37021.4 515740.0 0
38879.3 511610.0 0
47674.4 512499.0 0
43569.9 513094.0 0
45378.7 515620.0 0
49407.6 516802.0 0
52813.0 512348.0 0
57912.8 514754.0 0
62601.6 514724.0 0
65627.1 511821.0 0
69711.8 513708.0 0
73969.1 510607.0 0
77446.4 513101.0 0
81393.4 512816.0 0
84678.7 512789.0 0
87885.4 513760.0 0
93278.0 514653.0 0
98912.6 513969.0 0
104247.0 513942.0 0
108218.0 512949.0 0
111987.0 514021.0 0
114499.0 510440.0 0
116532.0 513933.0 0
119533.0 510973.0 0
123524.0 511872.0 0
127153.0 512942.0 0
130544.0 510780.0 0
134435.0 513200.0 0
137551.0 510031.0 0
143288.0 509948.0 0
140798.0 512473.0 0
144988.0 512882.0 0
149796.0 511821.0 0
154854.0 510380.0 0
158749.0 512872.0 0
162439.0 510569.0 0
166545.0 511948.0 0
172984.0 511671.0 0
177657.0 512776.0 0
181601.0 512351.0 0
186119.0 511070.0 0
190701.0 510152.0 0
195721.0 511092.0 0
201671.0 510951.0 0
206914.0 511255.0 0
212928.0 510064.0 0
218750.0 511353.0 0
223475.0 509279.0 0
228053.0 511954.0 0
233089.0 510315.0 0
238349.0 512097.0 0
243943.0 511645.0 0
248707.0 510018.0 0
254536.0 510449.0 0
251424.0 513625.0 0
259302.0 510694.0 0
265998.0 511386.0 0
271908.0 512467.0 0
275788.0 511266.0 0
280786.0 510061.0 0
286033.0 512635.0 0
291535.0 510339.0 0
297386.0 512458.0 0
302037.0 510287.0 0
306019.0 512012.0 0
310905.0 512868.0 0
316538.0 512684.0 0
321911.0 509208.0 0
321124.0 513355.0 0
325328.0 512380.0 0
329890.0 511567.0 0
334740.0 512130.0 0
339178.0 512663.0 0
344297.0 513169.0 0
350116.0 512117.0 0
354888.0 510965.0 0
359180.0 513135.0 0
363825.0 513477.0 0
368280.0 512350.0 0
373767.0 512357.0 0
379624.0 513282.0 0
385166.0 512351.0 0
390017.0 511750.0 0
394652.0 511680.0 0
398291.0 513455.0 0
407942.0 513011.0 0
413973.0 513696.0 0
418743.0 513469.0 0
425380.0 513936.0 0
429990.0 516050.0 0
433574.0 511869.0 0
438524.0 513394.0 0
442360.0 514358.0 0
445905.0 513169.0 0
451291.0 513125.0 0
455951.0 515403.0 0
462768.0 513610.0 0
458973.0 513097.0 0
460097.0 516405.0 0
467309.0 513332.0 0
476814.0 513625.0 0
485726.0 515285.0 0
488567.0 511891.0 0
493109.0 513416.0 0
497170.0 515617.0 0
1737.02 517270.0 0
2081.98 520430.0 0
5908.11 520826.0 0
9657.8 519744.0 0
13659.9 518586.0 0
17595.2 520155.0 0
25000.1 516168.0 0
22174.0 519803.0 0
31039.8 517283.0 0
27709.6 519874.0 0
34168.3 517380.0 0
41285.7 516580.0 0
37401.0 519283.0 0
41256.2 521018.0 0
45116.0 518843.0 0
48946.6 521524.0 0
53816.6 517200.0 0
56829.0 518886.0 0
61079.1 518935.0 0
66018.8 517298.0 0
69672.4 520302.0 0
73987.2 515683.0 0
79059.9 517492.0 0
84075.7 516235.0 0
88510.3 518399.0 0
96895.2 517331.0 0
99258.6 520258.0 0
101316.0 516883.0 0
108306.0 516611.0 0
104312.0 519388.0 0
112632.0 518921.0 0
117537.0 518504.0 0
120777.0 515066.0 0
121743.0 519151.0 0
125245.0 516611.0 0
130247.0 515678.0 0
134232.0 517660.0 0
137941.0 515686.0 0
142308.0 516783.0 0
147498.0 516923.0 0
154187.0 516517.0 0
163051.0 515630.0 0
159309.0 518963.0 0
169293.0 515824.0 0
174903.0 517145.0 0
180126.0 516313.0 0
184894.0 516301.0 0
190144.0 514439.0 0
199253.0 515178.0 0
194659.0 517047.0 0
203135.0 517013.0 0
207801.0 516323.0 0
213181.0 516419.0 0
218053.0 515810.0 0
222624.0 514602.0 0
226981.0 516572.0 0
231905.0 515733.0 0
236569.0 516504.0 0
241639.0 516678.0 0
247144.0 515912.0 0
251852.0 517601.0 0
256510.0 515792.0 0
261694.0 515673.0 0
265816.0 518663.0 0
271819.0 517167.0 0
276780.0 516006.0 0
281620.0 515553.0 0
286786.0 517865.0 0
292734.0 516922.0 0
298127.0 517301.0 0
302392.0 515271.0 0
307245.0 516212.0 0
309973.0 518910.0 0
313965.0 517332.0 0
318945.0 517185.0 0
324428.0 517962.0 0
331329.0 517320.0 0
337057.0 517747.0 0
341099.0 517270.0 0
344735.0 517748.0 0
348897.0 517542.0 0
354414.0 516272.0 0
359523.0 517932.0 0
364597.0 518056.0 0
367882.0 516108.0 0
371153.0 516340.0 0
375623.0 516804.0 0
380158.0 519147.0 0
384512.0 516904.0 0
388581.0 519206.0 0
388017.0 515342.0 0
393387.0 516263.0 0
398575.0 517666.0 0
403062.0 515827.0 0
404448.0 520342.0 0
407390.0 518115.0 0
410802.0 516959.0 0
414237.0 518323.0 0
417783.0 517525.0 0
421834.0 515960.0 0
425666.0 518373.0 0
431974.0 520219.0 0
435291.0 517043.0 0
440614.0 518186.0 0
444365.0 516578.0 0
445061.0 520065.0 0
448282.0 517135.0 0
449334.0 520862.0 0
452854.0 518597.0 0
457185.0 519079.0 0
460925.0 519675.0 0
465255.0 517817.0 0
471386.0 517306.0 0
476313.0 518390.0 0
481082.0 517419.0 0
485727.0 519577.0 0
494605.0 518655.0 0
490620.0 517546.0 0
497427.0 520363.0 0
3449.42 525234.0 0
9022.2 524309.0 0
14105.8 523534.0 0
11045.2 528663.0 0
19771.5 524947.0 0
24838.7 523892.0 0
29359.2 525195.0 0
32820.1 521355.0 0
33697.3 525806.0 0
37326.7 523785.0 0
44887.4 522573.0 0
41877.9 525939.0 0
46851.3 525551.0 0
51226.7 525402.0 0
53626.4 521354.0 0
55544.5 525417.0 0
57989.3 522024.0 0
60550.6 525545.0 0
64651.8 522345.0 0
68491.6 524731.0 0
72642.8 524026.0 0
74009.7 519952.0 0
77377.4 522753.0 0
83480.7 522365.0 0
89240.5 523061.0 0
92119.1 525727.0 0
93707.6 520772.0 0
96926.4 525382.0 0
102137.0 524226.0 0
108639.0 520736.0 0
106186.0 523473.0 0
110598.0 525341.0 0
115797.0 523197.0 0
120058.0 522602.0 0
124283.0 522594.0 0
128503.0 520117.0 0
128768.0 524906.0 0
132623.0 521630.0 0
138265.0 521335.0 0
144254.0 521344.0 0
150067.0 522303.0 0
155149.0 521784.0 0
158662.0 523667.0 0
163691.0 521587.0 0
169554.0 521309.0 0
174451.0 522338.0 0
179296.0 521217.0 0
184077.0 521911.0 0
189339.0 520287.0 0
194463.0 521691.0 0
199285.0 520194.0 0
204137.0 521097.0 0
201745.0 523904.0 0
207952.0 520706.0 0
211864.0 521206.0 0
216882.0 520365.0 0
223293.0 520851.0 0
229284.0 520682.0 0
233707.0 520091.0 0
238289.0 521163.0 0
243453.0 521473.0 0
248818.0 521262.0 0
254571.0 521438.0 0
259324.0 520396.0 0
262657.0 522622.0 0
269961.0 521321.0 0
276031.0 520608.0 0
281857.0 521626.0 0
287193.0 522490.0 0
291486.0 522570.0 0
296637.0 521520.0 0
304641.0 520656.0 0
308692.0 522417.0 0
312592.0 522233.0 0
316771.0 520826.0 0
321903.0 521859.0 0
327593.0 522302.0 0
335806.0 521650.0 0
331867.0 523215.0 0
339895.0 521411.0 0
344887.0 522166.0 0
350991.0 523145.0 0
355950.0 521218.0 0
360346.0 522571.0 0
365540.0 523584.0 0
369568.0 520485.0 0
374896.0 521970.0 0
384606.0 521457.0 0
388934.0 524031.0 0
393032.0 521654.0 0
398403.0 522599.0 0
401449.0 519576.0 0
403254.0 524104.0 0
407515.0 523205.0 0
411363.0 520897.0 0
416256.0 522136.0 0
421341.0 520664.0 0
426396.0 522848.0 0
428864.0 520215.0 0
430942.0 524469.0 0
436849.0 522783.0 0
442061.0 522602.0 0
446542.0 524804.0 0
451400.0 523831.0 0
455144.0 522257.0 0
454392.0 526033.0 0
459139.0 522944.0 0
463809.0 522565.0 0
469051.0 522471.0 0
474365.0 521829.0 0
478454.0 521196.0 0
473945.0 525510.0 0
482715.0 522590.0 0
488460.0 523487.0 0
493422.0 522404.0 0
492988.0 526256.0 0
497611.0 524632.0 0
7150.23 528396.0 0
8270.68 532051.0 0
15822.4 529132.0 0
20588.2 529910.0 0
25279.8 528788.0 0
31816.2 529366.0 0
37107.2 528893.0 0
44969.9 528655.0 0
41851.9 530459.0 0
48675.5 528959.0 0
53270.8 529771.0 0
57400.3 528888.0 0
61117.4 530608.0 0
65015.1 527341.0 0
69548.4 529079.0 0
73512.7 527817.0 0
78548.3 528184.0 0
83683.3 527988.0 0
87507.8 526671.0 0
90557.9 529367.0 0
100921.0 529198.0 0
105562.0 527576.0 0
109069.0 530451.0 0
115174.0 528051.0 0
119235.0 526371.0 0
124067.0 528264.0 0
129286.0 529591.0 0
134245.0 526962.0 0
140147.0 527091.0 0
145451.0 526621.0 0
150506.0 527950.0 0
154423.0 525636.0 0
157799.0 528162.0 0
162293.0 527255.0 0
166900.0 525996.0 0
171744.0 526257.0 0
177183.0 526686.0 0
181769.0 525203.0 0
186838.0 526714.0 0
192143.0 525108.0 0
197285.0 525792.0 0
203032.0 528737.0 0
208827.0 525638.0 0
219240.0 524328.0 0
214640.0 525098.0 0
218280.0 528946.0 0
222662.0 526789.0 0
227196.0 525360.0 0
232981.0 525163.0 0
237306.0 528476.0 0
241063.0 525662.0 0
246645.0 527226.0 0
252776.0 526706.0 0
257518.0 525270.0 0
262177.0 527697.0 0
266841.0 524323.0 0
272148.0 525233.0 0
277295.0 525324.0 0
282351.0 528638.0 0
288710.0 527169.0 0
294881.0 526814.0 0
300753.0 525262.0 0
306678.0 526258.0 0
312053.0 527258.0 0
316869.0 525313.0 0
320970.0 527071.0 0
325374.0 526550.0 0
330584.0 528008.0 0
335505.0 526119.0 0
341192.0 527081.0 0
346946.0 527099.0 0
351298.0 528872.0 0
356354.0 526698.0 0
361867.0 527325.0 0
366423.0 528702.0 0
370565.0 525804.0 0
375446.0 527637.0 0
380449.0 525102.0 0
385172.0 525489.0 0
384257.0 529680.0 0
389612.0 529268.0 0
394401.0 526702.0 0
400381.0 528878.0 0
405140.0 527081.0 0
408279.0 527043.0 0
411742.0 525256.0 0
415985.0 527398.0 0
422027.0 526473.0 0
427229.0 526857.0 0
430547.0 529225.0 0
436239.0 528901.0 0
441528.0 527015.0 0
445717.0 529712.0 0
450735.0 528588.0 0
455330.0 529611.0 0
457911.0 526581.0 0
461823.0 526174.0 0
465970.0 526399.0 0
466777.0 530621.0 0
470433.0 527441.0 0
475506.0 528946.0 0
478522.0 525483.0 0
480252.0 530116.0 0
484264.0 527103.0 0
489269.0 528399.0 0
492723.0 529113.0 0
496842.0 529371.0 0
3144.29 531206.0 0
2154.48 535965.0 0
6010.1 535390.0 0
12904.1 534202.0 0
18445.4 533617.0 0
23180.0 533404.0 0
28600.2 532889.0 0
34268.8 533186.0 0
39092.5 533606.0 0
45625.9 532393.0 0
49874.0 532567.0 0
53398.3 534864.0 0
57108.0 532636.0 0
61463.4 535506.0 0
65580.9 532119.0 0
70192.0 534592.0 0
74355.9 531654.0 0
78215.1 533661.0 0
82375.5 532068.0 0
86615.2 530808.0 0
90049.7 534443.0 0
95432.0 531102.0 0
100260.0 534157.0 0
104692.0 532237.0 0
113585.0 533028.0 0
118806.0 531016.0 0
123068.0 534105.0 0
127418.0 533011.0 0
131715.0 533836.0 0
135564.0 531871.0 0
140621.0 533220.0 0
147230.0 532265.0 0
153917.0 532558.0 0
159859.0 532143.0 0
165829.0 531013.0 0
171317.0 531449.0 0
177520.0 532827.0 0
183309.0 531650.0 0
188552.0 532558.0 0
192757.0 529615.0 0
197600.0 532388.0 0
202517.0 534091.0 0
207288.0 533214.0 0
212719.0 530725.0 0
222879.0 531676.0 0
228487.0 530785.0 0
233511.0 530421.0 0
237309.0 532569.0 0
241724.0 530954.0 0
247013.0 533628.0 0
252573.0 532207.0 0
257027.0 529776.0 0
263138.0 533285.0 0
268339.0 530237.0 0
275001.0 529178.0 0
273362.0 533413.0 0
277968.0 532061.0 0
287055.0 531824.0 0
292071.0 532216.0 0
298555.0 532148.0 0
303152.0 529555.0 0
306566.0 531969.0 0
311149.0 532012.0 0
316734.0 529599.0 0
320468.0 531413.0 0
326357.0 532682.0 0
332745.0 533204.0 0
336917.0 530479.0 0
341335.0 532454.0 0
345761.0 531818.0 0
350278.0 533844.0 0
354881.0 532091.0 0
359675.0 531442.0 0
363866.0 532111.0 0
368183.0 533060.0 0
373430.0 532601.0 0
379266.0 531757.0 0
384327.0 534607.0 0
389645.0 534766.0 0
394432.0 531945.0 0
403948.0 533182.0 0
406607.0 530158.0 0
411267.0 530097.0 0
408494.0 534197.0 0
415103.0 531912.0 0
419091.0 531323.0 0
425841.0 531584.0 0
432972.0 531958.0 0
430479.0 535260.0 0
436175.0 534521.0 0
441352.0 532479.0 0
445414.0 533024.0 0
448915.0 532972.0 0
453447.0 532840.0 0
460757.0 531668.0 0
465933.0 535575.0 0
471856.0 532641.0 0
476885.0 532534.0 0
480304.0 534874.0 0
485565.0 532712.0 0
491886.0 533034.0 0
497176.0 534705.0 0
2122.79 539815.0 0
8983.98 537190.0 0
12585.8 540607.0 0
16878.7 537498.0 0
18590.1 541133.0 0
21082.7 537479.0 0
25966.6 537199.0 0
31497.9 537429.0 0
36622.0 537443.0 0
42995.9 536333.0 0
45206.5 540442.0 0
48305.0 536643.0 0
57345.8 536127.0 0
54894.0 538828.0 0
58848.9 539937.0 0
65497.9 536229.0 0
63621.2 539955.0 0
67926.8 538921.0 0
74868.1 535844.0 0
72556.5 540072.0 0
80969.9 535567.0 0
78394.6 538552.0 0
84716.4 535983.0 0
82462.1 539073.0 0
87752.0 539109.0 0
95568.7 537313.0 0
100398.0 538365.0 0
104157.0 536882.0 0
107475.0 538786.0 0
108565.0 535081.0 0
112248.0 538612.0 0
117958.0 536905.0 0
127268.0 537149.0 0
122871.0 539177.0 0
131887.0 539197.0 0
136797.0 537842.0 0
144833.0 536929.0 0
149841.0 537731.0 0
155096.0 538145.0 0
163127.0 534946.0 0
159345.0 536835.0 0
163215.0 539076.0 0
167325.0 536095.0 0
172759.0 537142.0 0
178213.0 538657.0 0
181649.0 535861.0 0
185775.0 536849.0 0
192840.0 535835.0 0
196742.0 538350.0 0
201742.0 539169.0 0
207321.0 538104.0 0
211796.0 536412.0 0
217432.0 534991.0 0
223182.0 537378.0 0
228539.0 536228.0 0
233646.0 535224.0 0
236278.0 538526.0 0
240256.0 536571.0 0
248885.0 538619.0 0
253351.0 537224.0 0
257873.0 534811.0 0
260841.0 537616.0 0
264999.0 538786.0 0
269355.0 535924.0 0
277545.0 537537.0 0
283365.0 535003.0 0
288675.0 536862.0 0
295083.0 537194.0 0
300302.0 537811.0 0
303299.0 534593.0 0
304751.0 538051.0 0
307579.0 535892.0 0
311324.0 536359.0 0
315870.0 534294.0 0
321765.0 536233.0 0
325813.0 538639.0 0
329754.0 536737.0 0
337732.0 534962.0 0
346272.0 536673.0 0
341687.0 537840.0 0
350667.0 538890.0 0
354233.0 536378.0 0
358735.0 536378.0 0
364515.0 537157.0 0
370850.0 538035.0 0
381057.0 535620.0 0
377151.0 537477.0 0
386394.0 538893.0 0
391299.0 539926.0 0
394064.0 536087.0 0
395630.0 539235.0 0
398968.0 535418.0 0
404626.0 538208.0 0
411134.0 539459.0 0
416229.0 536082.0 0
421593.0 535454.0 0
419371.0 539296.0 0
426048.0 536879.0 0
434363.0 540068.0 0
439948.0 537727.0 0
445401.0 537193.0 0
451722.0 537539.0 0
456869.0 535999.0 0
461367.0 537810.0 0
471080.0 538695.0 0
476027.0 536190.0 0
479287.0 538473.0 0
476266.0 540028.0 0
483960.0 538780.0 0
488837.0 537046.0 0
493415.0 538615.0 0
498375.0 538594.0 0
2624.31 544174.0 0
6610.96 540850.0 0
9185.12 544113.0 0
16232.8 544213.0 0
19897.3 545138.0 0
23513.7 542033.0 0
28460.3 541158.0 0
34752.7 542092.0 0
40289.2 540808.0 0
43571.5 544257.0 0
51188.1 540520.0 0
47872.0 543488.0 0
52050.5 545066.0 0
56374.7 543650.0 0
61511.8 545249.0 0
67491.6 543628.0 0
76078.9 543530.0 0
81345.8 543336.0 0
84644.2 540713.0 0
86978.3 543619.0 0
91711.5 541464.0 0
98377.1 541686.0 0
102640.0 541681.0 0
105356.0 544806.0 0
108731.0 542196.0 0
113767.0 543297.0 0
118871.0 542708.0 0
127751.0 541577.0 0
123940.0 543503.0 0
136311.0 542323.0 0
141529.0 541035.0 0
147307.0 542985.0 0
152890.0 542542.0 0
158836.0 542298.0 0
167738.0 541009.0 0
163921.0 543034.0 0
172938.0 543661.0 0
178040.0 543014.0 0
181302.0 541616.0 0
186224.0 542541.0 0
192717.0 541809.0 0
198013.0 542959.0 0
206036.0 542009.0 0
210605.0 541436.0 0
216129.0 540990.0 0
221343.0 542560.0 0
226794.0 542316.0 0
231606.0 539960.0 0
235495.0 541813.0 0
244489.0 539640.0 0
240254.0 542271.0 0
252237.0 542153.0 0
257596.0 540369.0 0
261701.0 541662.0 0
270415.0 540975.0 0
275271.0 542835.0 0
279761.0 542718.0 0
282397.0 539669.0 0
283375.0 543898.0 0
286205.0 541198.0 0
291628.0 541987.0 0
297844.0 542824.0 0
302987.0 541613.0 0
310971.0 541536.0 0
316967.0 540076.0 0
322146.0 542113.0 0
330361.0 541190.0 0
336491.0 540665.0 0
342356.0 543717.0 0
346757.0 541109.0 0
350624.0 543899.0 0
355657.0 540982.0 0
360637.0 540862.0 0
364582.0 542228.0 0
369058.0 543562.0 0
374570.0 542753.0 0
379274.0 542772.0 0
381938.0 539747.0 0
386562.0 543826.0 0
390826.0 544022.0 0
394821.0 543278.0 0
399744.0 541465.0 0
406281.0 543731.0 0
410701.0 544753.0 0
416269.0 540447.0 0
414814.0 544268.0 0
419809.0 543537.0 0
423330.0 540233.0 0
425818.0 544589.0 0
428665.0 540329.0 0
430782.0 544286.0 0
439577.0 542320.0 0
444568.0 542987.0 0
448616.0 541260.0 0
452166.0 542353.0 0
449173.0 545344.0 0
456870.0 541062.0 0
461502.0 541612.0 0
465394.0 540489.0 0
469502.0 543956.0 0
474810.0 544271.0 0
479816.0 542468.0 0
485009.0 543702.0 0
488923.0 541479.0 0
492766.0 543198.0 0
497262.0 542437.0 0
3519.61 549928.0 0
6597.28 545821.0 0
8984.72 549070.0 0
12536.6 546254.0 0
13279.6 550848.0 0
16961.2 548191.0 0
25045.4 546560.0 0
21642.5 549284.0 0
30158.5 545989.0 0
35278.1 546608.0 0
39161.3 545417.0 0
38084.5 549756.0 0
42615.3 548461.0 0
47727.4 548235.0 0
52632.3 549453.0 0
56778.1 548058.0 0
60425.3 550647.0 0
65939.6 548378.0 0
71648.6 547310.0 0
77820.1 548915.0 0
84464.4 548529.0 0
90088.2 547618.0 0
93809.2 545188.0 0
97506.4 545327.0 0
95462.9 549869.0 0
101375.0 547299.0 0
105535.0 548629.0 0
110199.0 547134.0 0
122559.0 547013.0 0
117966.0 548919.0 0
126772.0 547159.0 0
131877.0 544948.0 0
132433.0 549107.0 0
137671.0 546791.0 0
143231.0 547104.0 0
147531.0 547071.0 0
152895.0 547679.0 0
157512.0 547476.0 0
162128.0 547042.0 0
167320.0 546144.0 0
177503.0 546987.0 0
181423.0 545383.0 0
184797.0 548723.0 0
189997.0 547092.0 0
195437.0 547133.0 0
201663.0 546879.0 0
207897.0 546692.0 0
213362.0 545727.0 0
218763.0 547622.0 0
223822.0 546310.0 0
227660.0 548604.0 0
231896.0 545268.0 0
236802.0 545480.0 0
241138.0 547923.0 0
246171.0 544644.0 0
250813.0 546602.0 0
256444.0 546734.0 0
262634.0 545685.0 0
267777.0 545638.0 0
273027.0 547926.0 0
278519.0 547023.0 0
282644.0 547699.0 0
287335.0 546707.0 0
293213.0 547260.0 0
298383.0 547631.0 0
302141.0 545910.0 0
305525.0 548462.0 0
306386.0 544461.0 0
312490.0 546232.0 0
317359.0 546156.0 0
322229.0 546995.0 0
326614.0 545297.0 0
328764.0 548892.0 0
332080.0 546034.0 0
337187.0 547076.0 0
343815.0 548549.0 0
346897.0 546256.0 0
350638.0 549039.0 0
354951.0 546229.0 0
361259.0 546828.0 0
367469.0 548517.0 0
372501.0 547660.0 0
377912.0 547370.0 0
382263.0 545288.0 0
388742.0 547788.0 0
392775.0 547179.0 0
397079.0 547104.0 0
401667.0 546362.0 0
405883.0 548839.0 0
410759.0 548900.0 0
416250.0 549516.0 0
421753.0 548365.0 0
432120.0 549006.0 0
435970.0 545605.0 0
437149.0 550525.0 0
440939.0 547065.0 0
445659.0 547895.0 0
454399.0 546611.0 0
458222.0 549642.0 0
459923.0 545520.0 0
464922.0 545481.0 0
467354.0 549270.0 0
471437.0 548259.0 0
476581.0 549628.0 0
481671.0 547212.0 0
486830.0 547639.0 0
492299.0 547972.0 0
497979.0 546665.0 0
1382.72 554109.0 0
6253.82 554705.0 0
11095.0 555354.0 0
17925.7 553101.0 0
22831.4 553751.0 0
26758.7 550879.0 0
33323.7 550664.0 0
36782.5 554662.0 0
41321.5 552876.0 0
45540.6 552716.0 0
49877.7 552810.0 0
54733.8 553347.0 0
58642.1 554019.0 0
64043.3 552929.0 0
68572.9 552251.0 0
73127.3 552085.0 0
76603.8 554399.0 0
82071.4 554590.0 0
88346.4 551969.0 0
99912.4 550930.0 0
103423.0 552490.0 0
107879.0 551609.0 0
112772.0 552462.0 0
117589.0 554762.0 0
123510.0 550987.0 0
128678.0 551444.0 0
131984.0 553633.0 0
134867.0 550799.0 0
140169.0 552520.0 0
148692.0 551142.0 0
154576.0 551483.0 0
163075.0 551474.0 0
158651.0 551858.0 0
167444.0 551219.0 0
173440.0 549597.0 0
171155.0 553589.0 0
178033.0 551648.0 0
182097.0 552509.0 0
187091.0 554394.0 0
192566.0 551725.0 0
197554.0 551681.0 0
202964.0 553294.0 0
208877.0 552277.0 0
214142.0 551333.0 0
218963.0 552976.0 0
223970.0 552473.0 0
228470.0 552863.0 0
232032.0 550848.0 0
236330.0 549492.0 0
240947.0 552055.0 0
246107.0 551012.0 0
251918.0 551478.0 0
256871.0 552529.0 0
260742.0 550653.0 0
265880.0 550689.0 0
272977.0 552860.0 0
276599.0 551890.0 0
280728.0 550919.0 0
285418.0 552294.0 0
290677.0 551186.0 0
295979.0 551760.0 0
301612.0 550830.0 0
310113.0 549659.0 0
306342.0 552440.0 0
315212.0 551307.0 0
320408.0 551192.0 0
325419.0 550364.0 0
331653.0 550414.0 0
335999.0 552928.0 0
331250.0 554337.0 0
341162.0 551727.0 0
346238.0 551621.0 0
349841.0 553851.0 0
356542.0 550555.0 0
360819.0 553229.0 0
365998.0 553209.0 0
371420.0 552930.0 0
377486.0 553215.0 0
383761.0 550741.0 0
389605.0 551995.0 0
394808.0 551553.0 0
399760.0 550546.0 0
400609.0 554530.0 0
403778.0 552435.0 0
408156.0 553059.0 0
413028.0 553894.0 0
417550.0 554402.0 0
422825.0 553123.0 0
426831.0 550138.0 0
426682.0 555004.0 0
430383.0 553356.0 0
434521.0 554557.0 0
443079.0 551666.0 0
439398.0 554975.0 0
447909.0 551693.0 0
452707.0 551757.0 0
457467.0 554011.0 0
462799.0 550306.0 0
462414.0 555236.0 0
467104.0 553779.0 0
471148.0 552263.0 0
474378.0 554283.0 0
479260.0 554500.0 0
483727.0 551866.0 0
488386.0 551757.0 0
492750.0 553842.0 0
497275.0 550925.0 0
498204.0 555019.0 0
2692.43 557775.0 0
7618.13 559601.0 0
15797.7 558262.0 0
20534.3 557260.0 0
25460.2 556882.0 0
30475.5 555526.0 0
27993.2 560017.0 0
34588.9 558762.0 0
38537.8 558538.0 0
41739.6 557070.0 0
46059.3 557083.0 0
51340.7 557595.0 0
56841.0 557756.0 0
61503.3 556514.0 0
66474.1 557116.0 0
72394.1 557525.0 0
77870.6 558431.0 0
81416.3 559643.0 0
87478.0 556298.0 0
92304.1 554965.0 0
98435.8 555564.0 0
104109.0 558045.0 0
108776.0 555714.0 0
113670.0 557825.0 0
121868.0 555069.0 0
119121.0 557805.0 0
122221.0 559578.0 0
126523.0 556097.0 0
131477.0 557626.0 0
135664.0 555603.0 0
140107.0 558675.0 0
145478.0 556164.0 0
152485.0 555044.0 0
157149.0 556339.0 0
161401.0 555406.0 0
166764.0 557133.0 0
172864.0 557652.0 0
177831.0 556552.0 0
182227.0 556503.0 0
185053.0 559388.0 0
192384.0 556838.0 0
198290.0 555892.0 0
201763.0 558952.0 0
206696.0 557927.0 0
210785.0 556287.0 0
215575.0 556914.0 0
221172.0 557140.0 0
226791.0 558274.0 0
231314.0 555413.0 0
236893.0 554944.0 0
242958.0 555575.0 0
248585.0 556456.0 0
254346.0 556632.0 0
262212.0 555754.0 0
269026.0 556597.0 0
275381.0 556372.0 0
279843.0 555022.0 0
283709.0 557451.0 0
289340.0 556226.0 0
294133.0 556303.0 0
298572.0 557046.0 0
302656.0 555305.0 0
306067.0 556379.0 0
311111.0 555368.0 0
317254.0 555633.0 0
322007.0 556374.0 0
326913.0 554895.0 0
330116.0 558606.0 0
335541.0 558889.0 0
339993.0 555609.0 0
343280.0 555226.0 0
346766.0 556714.0 0
355252.0 556271.0 0
363601.0 557355.0 0
368535.0 557335.0 0
374224.0 556431.0 0
381676.0 555861.0 0
378432.0 559392.0 0
386565.0 556014.0 0
383660.0 559198.0 0
391585.0 556694.0 0
396684.0 556223.0 0
400449.0 558452.0 0
404851.0 556909.0 0
409932.0 557562.0 0
415291.0 558464.0 0
420853.0 556760.0 0
424866.0 559156.0 0
430678.0 558326.0 0
436342.0 559116.0 0
441928.0 559766.0 0
445426.0 555696.0 0
447623.0 560327.0 0
450204.0 555838.0 0
454458.0 558129.0 0
459559.0 558472.0 0
463490.0 559124.0 0
467515.0 558702.0 0
471757.0 557705.0 0
475974.0 558039.0 0
483781.0 556673.0 0
480006.0 559146.0 0
487974.0 555776.0 0
486966.0 559628.0 0
490957.0 558463.0 0
495631.0 558158.0 0
2378.9 562639.0 0
6443.51 564195.0 0
12342.5 563156.0 0
18689.4 561997.0 0
23357.7 561212.0 0
27476.5 564259.0 0
31888.3 562397.0 0
36930.0 562479.0 0
42357.6 562068.0 0
47736.3 561444.0 0
53765.3 562568.0 0
58853.7 562020.0 0
63725.1 561689.0 0
67919.5 561254.0 0
74963.9 562655.0 0
80020.4 563704.0 0
86183.8 561985.0 0
94332.9 560319.0 0
99512.9 560944.0 0
105865.0 562046.0 0
102688.0 564714.0 0
109254.0 560267.0 0
113435.0 562847.0 0
117524.0 560491.0 0
126876.0 561347.0 0
131077.0 561783.0 0
135167.0 560449.0 0
143216.0 563146.0 0
148484.0 561191.0 0
153823.0 559983.0 0
158728.0 560284.0 0
162500.0 561534.0 0
166100.0 563233.0 0
170463.0 561414.0 0
176132.0 561119.0 0
180919.0 560994.0 0
184511.0 563233.0 0
189862.0 562334.0 0
196458.0 560681.0 0
200753.0 564144.0 0
205687.0 563104.0 0
211255.0 560901.0 0
216781.0 562562.0 0
222010.0 562134.0 0
227462.0 562985.0 0
232567.0 560410.0 0
237480.0 560272.0 0
242245.0 561106.0 0
247966.0 562425.0 0
253527.0 561915.0 0
258458.0 560098.0 0
263072.0 561462.0 0
267629.0 562777.0 0
273551.0 561648.0 0
278761.0 559963.0 0
282357.0 561509.0 0
286812.0 562539.0 0
292686.0 561062.0 0
298427.0 562934.0 0
302967.0 559715.0 0
307871.0 560034.0 0
312926.0 561683.0 0
318428.0 560395.0 0
325270.0 560913.0 0
321491.0 563835.0 0
330431.0 563947.0 0
337353.0 563317.0 0
341886.0 560407.0 0
346398.0 563330.0 0
350081.0 560336.0 0
359309.0 560901.0 0
364058.0 562037.0 0
368375.0 561551.0 0
372820.0 560382.0 0
376933.0 563568.0 0
382165.0 564376.0 0
386842.0 561731.0 0
391077.0 561671.0 0
396437.0 561571.0 0
402506.0 562921.0 0
407173.0 561043.0 0
411503.0 561950.0 0
415547.0 562929.0 0
419989.0 561467.0 0
427988.0 563484.0 0
433341.0 563162.0 0
438435.0 564142.0 0
448629.0 564578.0 0
444483.0 563852.0 0
452443.0 562660.0 0
457191.0 561961.0 0
462142.0 563513.0 0
467403.0 563240.0 0
471476.0 561800.0 0
476488.0 563130.0 0
483194.0 563076.0 0
488938.0 563168.0 0
493198.0 562189.0 0
497716.0 562205.0 0
2459.97 567337.0 0
9036.31 568323.0 0
14038.3 568169.0 0
17014.7 565474.0 0
23350.9 566436.0 0
29606.3 568333.0 0
34371.0 566889.0 0
39320.2 566576.0 0
43582.2 566932.0 0
47804.6 566147.0 0
52524.9 567826.0 0
61200.8 565505.0 0
57074.9 566106.0 0
60017.0 570298.0 0
65150.4 566167.0 0
70134.2 565287.0 0
74613.8 566931.0 0
77793.2 567270.0 0
83432.2 567219.0 0
91585.6 565008.0 0
87774.8 567557.0 0
97055.9 565572.0 0
108499.0 565792.0 0
113744.0 567839.0 0
117681.0 565147.0 0
117657.0 569083.0 0
123052.0 565240.0 0
128628.0 565962.0 0
133971.0 565501.0 0
136607.0 569663.0 0
139093.0 565636.0 0
142768.0 568679.0 0
147085.0 566266.0 0
152822.0 565836.0 0
158571.0 564765.0 0
162937.0 567006.0 0
166683.0 567570.0 0
170466.0 566173.0 0
175744.0 566054.0 0
181163.0 566529.0 0
186344.0 567140.0 0
191237.0 568500.0 0
196281.0 566526.0 0
200532.0 568508.0 0
205084.0 568068.0 0
210115.0 566541.0 0
215155.0 567165.0 0
219777.0 566790.0 0
224935.0 566463.0 0
230851.0 566336.0 0
236911.0 565154.0 0
241932.0 567774.0 0
247658.0 568486.0 0
253372.0 567279.0 0
258274.0 565284.0 0
259841.0 569415.0 0
263532.0 566467.0 0
269013.0 568004.0 0
274115.0 566991.0 0
279687.0 565638.0 0
285236.0 568003.0 0
289864.0 566362.0 0
293994.0 566166.0 0
298145.0 567872.0 0
303120.0 566913.0 0
308446.0 564893.0 0
307539.0 569155.0 0
312976.0 567143.0 0
317501.0 565379.0 0
320839.0 567011.0 0
325351.0 566702.0 0
334651.0 565391.0 0
338414.0 567769.0 0
343637.0 566753.0 0
350302.0 566275.0 0
356372.0 565609.0 0
361416.0 565606.0 0
366503.0 567211.0 0
372642.0 566010.0 0
377556.0 567375.0 0
387765.0 566311.0 0
393025.0 566160.0 0
398478.0 567136.0 0
403714.0 568217.0 0
408127.0 565628.0 0
413146.0 566488.0 0
418188.0 566570.0 0
422770.0 565519.0 0
426178.0 568302.0 0
431373.0 568003.0 0
435445.0 565315.0 0
437216.0 570001.0 0
442286.0 567419.0 0
446269.0 566872.0 0
451580.0 568126.0 0
456999.0 566606.0 0
461830.0 569304.0 0
467515.0 568198.0 0
471683.0 565526.0 0
474891.0 568553.0 0
479920.0 567346.0 0
486096.0 568238.0 0
491937.0 566895.0 0
497335.0 566844.0 0
2995.06 572644.0 0
8458.72 573753.0 0
13813.3 573008.0 0
19206.5 570262.0 0
25626.0 570509.0 0
23216.2 574291.0 0
31113.2 572779.0 0
36479.8 571600.0 0
41456.1 570796.0 0
39680.6 574693.0 0
44291.6 573333.0 0
45995.7 570260.0 0
50096.4 572362.0 0
55148.0 571818.0 0
65758.9 570939.0 0
71995.5 571493.0 0
81135.8 570368.0 0
77468.3 570952.0 0
80651.5 574858.0 0
85415.9 571834.0 0
91937.1 570413.0 0
97750.9 571074.0 0
103240.0 570319.0 0
109792.0 571926.0 0
115268.0 571688.0 0
121354.0 570385.0 0
118573.0 574375.0 0
126577.0 571082.0 0
132350.0 572543.0 0
139785.0 573231.0 0
147419.0 571790.0 0
154330.0 572224.0 0
159760.0 570574.0 0
164280.0 571352.0 0
168573.0 570665.0 0
173351.0 570627.0 0
178219.0 571325.0 0
182338.0 571072.0 0
186852.0 572345.0 0
192115.0 573688.0 0
197453.0 571498.0 0
202871.0 572266.0 0
207715.0 571264.0 0
212860.0 571159.0 0
217486.0 570820.0 0
221850.0 571766.0 0
227033.0 571684.0 0
232675.0 571991.0 0
237620.0 570505.0 0
244411.0 572604.0 0
240693.0 573076.0 0
251749.0 572485.0 0
256279.0 571155.0 0
263068.0 571164.0 0
267573.0 573205.0 0
272740.0 571216.0 0
277466.0 571244.0 0
282443.0 571373.0 0
289572.0 570646.0 0
294742.0 571101.0 0
300020.0 571512.0 0
304820.0 572917.0 0
311063.0 572143.0 0
316669.0 571082.0 0
321835.0 570545.0 0
322061.0 574864.0 0
326510.0 572116.0 0
332474.0 570161.0 0
337578.0 572361.0 0
341998.0 571741.0 0
346914.0 570600.0 0
351420.0 571243.0 0
356355.0 571616.0 0
361677.0 570609.0 0
366683.0 572500.0 0
371140.0 571360.0 0
376356.0 571973.0 0
381399.0 570443.0 0
386439.0 571132.0 0
391710.0 571453.0 0
397588.0 573059.0 0
401897.0 571682.0 0
405858.0 573048.0 0
410152.0 570276.0 0
411666.0 574495.0 0
415063.0 571235.0 0
420767.0 571567.0 0
426346.0 573443.0 0
432050.0 573694.0 0
442514.0 573488.0 0
446928.0 570735.0 0
450818.0 573543.0 0
456329.0 572222.0 0
461013.0 574158.0 0
465838.0 573572.0 0
471163.0 572178.0 0
476854.0 574208.0 0
481843.0 571431.0 0
485160.0 574998.0 0
490436.0 572501.0 0
496753.0 572472.0 0
2063.24 577548.0 0
5740.69 577074.0 0
11618.3 577563.0 0
18432.0 576318.0 0
23933.7 580100.0 0
28966.8 576966.0 0
34335.7 575519.0 0
33065.0 579426.0 0
37522.7 578282.0 0
43171.2 576578.0 0
46641.4 576338.0 0
50620.4 577190.0 0
55766.6 576571.0 0
62100.9 576426.0 0
67857.9 575449.0 0
71652.0 576771.0 0
75877.5 577110.0 0
81591.7 579962.0 0
85612.8 577227.0 0
90638.4 579892.0 0
94581.5 575508.0 0
100263.0 575863.0 0
105333.0 575085.0 0
109553.0 577716.0 0
113887.0 575391.0 0
116867.0 579717.0 0
123440.0 575487.0 0
128146.0 576099.0 0
132013.0 577348.0 0
135992.0 576477.0 0
143874.0 575502.0 0
147833.0 577173.0 0
152634.0 577792.0 0
157905.0 577107.0 0
162548.0 575363.0 0
167925.0 576019.0 0
173007.0 575139.0 0
177422.0 576174.0 0
182714.0 576087.0 0
188618.0 577797.0 0
193231.0 577795.0 0
196179.0 575617.0 0
200652.0 576891.0 0
206086.0 576323.0 0
212130.0 576879.0 0
217609.0 575369.0 0
222145.0 576623.0 0
226766.0 576871.0 0
231573.0 577158.0 0
236785.0 575803.0 0
241732.0 576702.0 0
247474.0 577508.0 0
253562.0 577261.0 0
258084.0 575324.0 0
263053.0 575562.0 0
267439.0 578529.0 0
272004.0 575792.0 0
280151.0 575953.0 0
275898.0 578401.0 0
284392.0 575369.0 0
288420.0 575462.0 0
293026.0 575651.0 0
297611.0 575503.0 0
302040.0 577150.0 0
308198.0 576576.0 0
312859.0 577072.0 0
317781.0 576391.0 0
326069.0 577503.0 0
321552.0 578796.0 0
331466.0 576471.0 0
336077.0 575852.0 0
340226.0 576214.0 0
346277.0 576579.0 0
352480.0 575862.0 0
357447.0 576781.0 0
363047.0 576269.0 0
369068.0 576545.0 0
373405.0 575134.0 0
376919.0 576416.0 0
373333.0 579279.0 0
382282.0 576620.0 0
388330.0 575774.0 0
393232.0 576387.0 0
397411.0 578310.0 0
402743.0 578178.0 0
408377.0 577560.0 0
417174.0 575816.0 0
413211.0 578996.0 0
422239.0 577389.0 0
428251.0 578398.0 0
433004.0 579769.0 0
437240.0 576342.0 0
441962.0 579095.0 0
447085.0 577299.0 0
452914.0 577760.0 0
457770.0 577847.0 0
462953.0 578136.0 0
467554.0 578191.0 0
471860.0 577151.0 0
476897.0 579987.0 0
481111.0 577934.0 0
489503.0 578047.0 0
485125.0 579808.0 0
497035.0 578479.0 0
3151.31 581737.0 0
7934.68 580704.0 0
6183.97 584977.0 0
12715.4 582098.0 0
17853.6 581784.0 0
29325.7 581297.0 0
36317.1 583149.0 0
42069.5 581734.0 0
48004.3 581593.0 0
52747.9 581117.0 0
57511.9 581805.0 0
63002.7 582642.0 0
67663.3 580188.0 0
69371.8 584872.0 0
72668.9 581031.0 0
77453.2 581636.0 0
85651.8 582273.0 0
96537.0 580900.0 0
101724.0 580736.0 0
106353.0 581673.0 0
111875.0 582446.0 0
119866.0 584670.0 0
125226.0 581251.0 0
130660.0 581773.0 0
133912.0 580269.0 0
138400.0 581034.0 0
141979.0 585012.0 0
143855.0 580197.0 0
149272.0 582479.0 0
155150.0 581080.0 0
162267.0 580032.0 0
158507.0 582785.0 0
167026.0 581751.0 0
173107.0 580668.0 0
179427.0 581123.0 0
184668.0 581414.0 0
188910.0 582566.0 0
192957.0 581734.0 0
197693.0 581199.0 0
202967.0 581877.0 0
208178.0 581107.0 0
213331.0 582884.0 0
218340.0 580450.0 0
222725.0 580536.0 0
221691.0 584534.0 0
226747.0 581743.0 0
232078.0 582449.0 0
237366.0 581266.0 0
242569.0 581375.0 0
247256.0 583873.0 0
252340.0 582203.0 0
257739.0 580768.0 0
262838.0 580254.0 0
266184.0 584031.0 0
272137.0 582162.0 0
279599.0 581235.0 0
285177.0 580120.0 0
282642.0 584725.0 0
291699.0 581010.0 0
298122.0 580972.0 0
303548.0 581587.0 0
308540.0 582209.0 0
312744.0 581243.0 0
317668.0 582308.0 0
324309.0 582312.0 0
329361.0 581903.0 0
335314.0 581098.0 0
341676.0 581356.0 0
351704.0 581161.0 0
346943.0 582373.0 0
357108.0 581965.0 0
363255.0 582937.0 0
369136.0 581856.0 0
374017.0 584615.0 0
377898.0 580683.0 0
381884.0 583692.0 0
386997.0 581327.0 0
393420.0 581962.0 0
399546.0 583457.0 0
404776.0 583118.0 0
409284.0 582347.0 0
418066.0 580850.0 0
423949.0 582642.0 0
429148.0 583358.0 0
437622.0 581619.0 0
433959.0 584487.0 0
441408.0 583546.0 0
445634.0 582230.0 0
450316.0 581651.0 0
455122.0 582089.0 0
460295.0 582499.0 0
465589.0 581774.0 0
470316.0 582010.0 0
475093.0 585021.0 0
481310.0 583748.0 0
487469.0 583988.0 0
492724.0 582289.0 0
497646.0 583691.0 0
2105.58 586013.0 0
1812.78 589884.0 0
6798.26 590195.0 0
10440.4 586170.0 0
15255.9 586317.0 0
21491.7 586154.0 0
27189.2 585546.0 0
32472.5 586942.0 0
37388.5 588056.0 0
41587.9 586974.0 0
46152.2 586491.0 0
49512.6 589191.0 0
52382.8 585807.0 0
55989.7 587506.0 0
59748.4 586793.0 0
65057.1 587545.0 0
74824.8 586391.0 0
81166.4 585533.0 0
87260.2 587087.0 0
92838.8 585631.0 0
98061.9 586612.0 0
102953.0 585621.0 0
108327.0 586343.0 0
114613.0 587289.0 0
119520.0 590145.0 0
124662.0 587745.0 0
129490.0 585768.0 0
133817.0 585565.0 0
137674.0 585640.0 0
137298.0 589829.0 0
147848.0 588181.0 0
154374.0 585148.0 0
162985.0 585202.0 0
158567.0 587003.0 0
172747.0 586114.0 0
168397.0 586180.0 0
177104.0 586700.0 0
182019.0 586079.0 0
186628.0 585460.0 0
192492.0 586175.0 0
188967.0 588366.0 0
197302.0 585433.0 0
198517.0 589976.0 0
203679.0 587435.0 0
208491.0 585821.0 0
212455.0 587762.0 0
217296.0 587357.0 0
222174.0 589771.0 0
226055.0 586573.0 0
230832.0 587703.0 0
236768.0 587446.0 0
242489.0 586431.0 0
247442.0 588315.0 0
251155.0 586919.0 0
255882.0 586030.0 0
262119.0 586266.0 0
270369.0 587745.0 0
265806.0 588891.0 0
277083.0 586915.0 0
283221.0 589677.0 0
287541.0 585797.0 0
293056.0 587025.0 0
300851.0 586046.0 0
297308.0 589493.0 0
307055.0 587543.0 0
312605.0 585840.0 0
318456.0 589069.0 0
323703.0 586821.0 0
330443.0 585756.0 0
327482.0 585890.0 0
333837.0 586364.0 0
338568.0 586071.0 0
344242.0 587100.0 0
352157.0 587362.0 0
358771.0 587613.0 0
364633.0 589117.0 0
369130.0 586663.0 0
378747.0 587972.0 0
384455.0 587411.0 0
389510.0 587047.0 0
395552.0 587843.0 0
402754.0 587359.0 0
399823.0 589926.0 0
407894.0 587680.0 0
414116.0 585105.0 0
417152.0 589643.0 0
419708.0 585658.0 0
425847.0 587214.0 0
430509.0 588169.0 0
436017.0 587112.0 0
434436.0 589084.0 0
439381.0 587355.0 0
444528.0 587005.0 0
451734.0 587373.0 0
457165.0 586110.0 0
461266.0 587002.0 0
463422.0 590302.0 0
465646.0 586176.0 0
470421.0 586700.0 0
473253.0 590247.0 0
478722.0 588701.0 0
485718.0 589382.0 0
491547.0 587841.0 0
497175.0 588668.0 0
2703.97 594285.0 0
12575.4 590716.0 0
18100.9 590871.0 0
23546.0 591281.0 0
28173.0 590520.0 0
28742.2 594952.0 0
34219.2 592653.0 0
39011.3 591195.0 0
43797.8 590673.0 0
41611.8 595217.0 0
47500.0 591751.0 0
51911.5 593081.0 0
57212.8 591399.0 0
62488.3 591986.0 0
67602.7 591685.0 0
72771.2 592141.0 0
78231.1 591130.0 0
83577.7 590991.0 0
88232.6 592579.0 0
93347.0 591678.0 0
98555.7 591071.0 0
101861.0 594530.0 0
104974.0 590513.0 0
110541.0 591077.0 0
115259.0 592217.0 0
123314.0 591957.0 0
126143.0 595060.0 0
132058.0 590236.0 0
127703.0 591063.0 0
142645.0 590465.0 0
147944.0 593222.0 0
153251.0 590985.0 0
157175.0 595255.0 0
158949.0 591117.0 0
163454.0 590378.0 0
168714.0 591198.0 0
173932.0 590243.0 0
179283.0 591852.0 0
185010.0 590739.0 0
188566.0 594223.0 0
192822.0 591288.0 0
203394.0 593069.0 0
207939.0 590461.0 0
212533.0 592553.0 0
217841.0 593026.0 0
227318.0 591915.0 0
232786.0 592615.0 0
238320.0 593794.0 0
244098.0 591810.0 0
249733.0 591538.0 0
253999.0 593012.0 0
259130.0 590925.0 0
264185.0 592596.0 0
268379.0 592152.0 0
273443.0 591931.0 0
278714.0 593258.0 0
288438.0 591761.0 0
293646.0 592449.0 0
297744.0 594080.0 0
302012.0 591689.0 0
306971.0 592641.0 0
312293.0 592002.0 0
316649.0 593488.0 0
319858.0 594482.0 0
323795.0 591995.0 0
329891.0 590668.0 0
336090.0 590519.0 0
341497.0 593147.0 0
347787.0 591613.0 0
356143.0 592106.0 0
352098.0 593316.0 0
360747.0 592674.0 0
372577.0 590400.0 0
367568.0 593549.0 0
377692.0 593249.0 0
382716.0 591678.0 0
388493.0 593446.0 0
395293.0 594184.0 0
400251.0 595278.0 0
403989.0 592392.0 0
412565.0 590685.0 0
408954.0 593421.0 0
421959.0 590311.0 0
418491.0 594374.0 0
427049.0 592141.0 0
432516.0 592927.0 0
437738.0 592025.0 0
442253.0 591174.0 0
447263.0 592011.0 0
452650.0 593239.0 0
458122.0 591444.0 0
462604.0 594186.0 0
468039.0 590661.0 0
471006.0 594108.0 0
477113.0 592524.0 0
481289.0 592285.0 0
485067.0 594639.0 0
490508.0 593811.0 0
497371.0 593958.0 0
2703.72 599469.0 0
7633.92 597011.0 0
12750.2 595700.0 0
11109.9 600342.0 0
18288.7 597051.0 0
24108.4 596277.0 0
27276.7 600332.0 0
32515.8 598558.0 0
37171.8 597032.0 0
43621.2 599639.0 0
47179.9 596188.0 0
55869.9 596219.0 0
51883.9 598730.0 0
60657.8 596749.0 0
66176.3 596672.0 0
76457.6 595521.0 0
71630.0 597404.0 0
75838.9 600024.0 0
80963.3 595442.0 0
85434.4 596510.0 0
90844.6 597482.0 0
96932.1 595947.0 0
103307.0 599957.0 0
107202.0 595438.0 0
112502.0 595696.0 0
116547.0 599808.0 0
120731.0 595424.0 0
122541.0 600153.0 0
127535.0 600219.0 0
131897.0 596320.0 0
138427.0 595527.0 0
143999.0 595441.0 0
152919.0 597030.0 0
148242.0 598184.0 0
162571.0 595780.0 0
158977.0 599261.0 0
168233.0 596784.0 0
164976.0 599960.0 0
174112.0 595890.0 0
178966.0 599293.0 0
183754.0 596244.0 0
188111.0 599949.0 0
192836.0 597036.0 0
198945.0 597243.0 0
203852.0 597877.0 0
208281.0 596333.0 0
219040.0 597165.0 0
214725.0 597400.0 0
222603.0 596162.0 0
229232.0 596777.0 0
226892.0 600187.0 0
234181.0 597661.0 0
238635.0 598803.0 0
242840.0 597249.0 0
247991.0 596271.0 0
252391.0 596555.0 0
256527.0 597125.0 0
261436.0 596164.0 0
266053.0 596391.0 0
270538.0 596079.0 0
275382.0 597906.0 0
283226.0 596197.0 0
288666.0 597601.0 0
294150.0 597330.0 0
300028.0 597007.0 0
304610.0 596821.0 0
309340.0 596416.0 0
315270.0 596783.0 0
311967.0 598943.0 0
322234.0 598540.0 0
327867.0 597190.0 0
335144.0 595932.0 0
339277.0 597557.0 0
346781.0 596199.0 0
343014.0 598890.0 0
350776.0 597124.0 0
357624.0 597036.0 0
363089.0 596871.0 0
367190.0 598302.0 0
372618.0 596968.0 0
378809.0 598385.0 0
382754.0 596179.0 0
386048.0 598357.0 0
391289.0 599522.0 0
398541.0 598420.0 0
403140.0 598242.0 0
407967.0 597700.0 0
413120.0 596144.0 0
423039.0 597412.0 0
427802.0 596878.0 0
432151.0 598127.0 0
437225.0 597212.0 0
442864.0 596249.0 0
448381.0 597353.0 0
452309.0 600432.0 0
456117.0 596983.0 0
460658.0 597658.0 0
466853.0 595761.0 0
474136.0 596595.0 0
470403.0 598979.0 0
479093.0 596855.0 0
483516.0 598419.0 0
487487.0 597764.0 0
491742.0 599886.0 0
497343.0 599194.0 0
2126.36 604044.0 0
7042.92 602868.0 0
15176.5 601692.0 0
11871.4 604604.0 0
21898.7 602333.0 0
33215.6 605091.0 0
38170.0 601399.0 0
42412.4 604110.0 0
47772.0 601494.0 0
53198.1 605141.0 0
57509.9 600468.0 0
60114.0 604990.0 0
63178.5 600882.0 0
67828.1 601797.0 0
72063.3 601995.0 0
81355.6 600973.0 0
76693.0 604786.0 0
86728.4 601303.0 0
91861.3 603873.0 0
97459.3 601475.0 0
109443.0 600798.0 0
113201.0 604063.0 0
117212.0 605268.0 0
120072.0 603077.0 0
122927.0 605496.0 0
131945.0 601443.0 0
127693.0 605325.0 0
136453.0 601172.0 0
142872.0 600886.0 0
149343.0 603329.0 0
154774.0 601063.0 0
158728.0 603830.0 0
164151.0 604582.0 0
169424.0 602249.0 0
174350.0 601284.0 0
177660.0 603583.0 0
183316.0 602853.0 0
188193.0 605107.0 0
192931.0 601899.0 0
197040.0 602039.0 0
202539.0 601928.0 0
207613.0 601788.0 0
212270.0 601631.0 0
217681.0 602091.0 0
222913.0 601403.0 0
226596.0 605108.0 0
231005.0 601836.0 0
235944.0 602156.0 0
240802.0 602396.0 0
246017.0 601806.0 0
251718.0 600821.0 0
252454.0 605347.0 0
257715.0 602081.0 0
262791.0 601069.0 0
268289.0 600905.0 0
273342.0 602954.0 0
278545.0 602397.0 0
282990.0 600788.0 0
286976.0 602840.0 0
292323.0 602429.0 0
297741.0 600897.0 0
303226.0 601943.0 0
308216.0 600832.0 0
308662.0 605223.0 0
312704.0 602841.0 0
317588.0 601314.0 0
322330.0 603678.0 0
327064.0 602641.0 0
332562.0 601584.0 0
338596.0 601748.0 0
344360.0 602647.0 0
346775.0 605286.0 0
348056.0 600786.0 0
352622.0 600561.0 0
356684.0 602488.0 0
362525.0 602584.0 0
369245.0 603249.0 0
374543.0 602558.0 0
382500.0 601332.0 0
378287.0 602873.0 0
381279.0 605408.0 0
386858.0 602304.0 0
391000.0 605056.0 0
395741.0 602037.0 0
400386.0 602542.0 0
406105.0 601971.0 0
411394.0 601847.0 0
408261.0 605183.0 0
417344.0 600488.0 0
422753.0 603111.0 0
427125.0 600842.0 0
431220.0 603267.0 0
436814.0 602708.0 0
441731.0 601415.0 0
446699.0 602363.0 0
457027.0 602591.0 0
461912.0 601748.0 0
466881.0 602521.0 0
474993.0 601859.0 0
480826.0 602091.0 0
486350.0 602199.0 0
494137.0 604972.0 0
498260.0 603476.0 0
3392.91 609331.0 0
8749.9 607739.0 0
12931.3 608742.0 0
17529.1 605524.0 0
21905.4 607357.0 0
26652.4 606011.0 0
38778.5 607365.0 0
43172.4 610093.0 0
46854.7 606316.0 0
49436.5 609890.0 0
57543.0 609931.0 0
65282.6 605984.0 0
62344.6 609759.0 0
70217.7 606216.0 0
74021.8 607500.0 0
81584.7 607153.0 0
85907.6 610439.0 0
86816.4 605880.0 0
92995.5 608286.0 0
97361.6 607450.0 0
103523.0 606281.0 0
109225.0 606175.0 0
113444.0 608150.0 0
117679.0 609917.0 0
129008.0 610198.0 0
133353.0 606516.0 0
139329.0 605854.0 0
145026.0 607201.0 0
149982.0 607784.0 0
153950.0 605819.0 0
158053.0 608948.0 0
168439.0 607087.0 0
174016.0 607383.0 0
180027.0 607144.0 0
184515.0 607602.0 0
188446.0 610338.0 0
192934.0 606766.0 0
196886.0 605468.0 0
200996.0 607217.0 0
206714.0 607000.0 0
212815.0 607073.0 0
218396.0 607224.0 0
222680.0 607933.0 0
231958.0 606901.0 0
237372.0 607166.0 0
243018.0 606071.0 0
241602.0 610256.0 0
248017.0 607679.0 0
256627.0 607158.0 0
261120.0 605527.0 0
265871.0 605848.0 0
270465.0 606537.0 0
276296.0 607589.0 0
282695.0 606940.0 0
288935.0 607828.0 0
294713.0 607881.0 0
299796.0 605705.0 0
304683.0 606658.0 0
312225.0 607512.0 0
316833.0 606403.0 0
325440.0 606988.0 0
321579.0 608114.0 0
330645.0 607770.0 0
336265.0 606510.0 0
341931.0 606322.0 0
351956.0 605604.0 0
347684.0 610077.0 0
358929.0 606160.0 0
361847.0 608662.0 0
357727.0 610011.0 0
366502.0 608621.0 0
371345.0 610552.0 0
373738.0 606496.0 0
377609.0 606461.0 0
386085.0 607325.0 0
394849.0 607973.0 0
397956.0 610552.0 0
399388.0 607107.0 0
404183.0 606625.0 0
411923.0 607678.0 0
417896.0 606797.0 0
427289.0 606046.0 0
423827.0 607656.0 0
431452.0 608489.0 0
435633.0 606743.0 0
441003.0 606737.0 0
446347.0 607679.0 0
451342.0 605740.0 0
456267.0 607610.0 0
461169.0 606595.0 0
466015.0 607474.0 0
471209.0 606688.0 0
477962.0 607466.0 0
482877.0 606193.0 0
487530.0 608004.0 0
492889.0 610155.0 0
497870.0 607950.0 0
9553.25 612897.0 0
18101.8 611966.0 0
24465.0 610914.0 0
23526.0 615722.0 0
29273.7 613448.0 0
35301.0 611718.0 0
39256.1 611196.0 0
40429.4 615257.0 0
47214.0 614499.0 0
53206.6 613186.0 0
61282.3 615192.0 0
66344.2 612623.0 0
71665.9 612908.0 0
76864.5 610726.0 0
81758.0 613277.0 0
91008.7 612364.0 0
96218.3 612445.0 0
101446.0 612307.0 0
107325.0 611141.0 0
113051.0 613513.0 0
118561.0 614785.0 0
123396.0 611066.0 0
132924.0 611590.0 0
138229.0 611437.0 0
143809.0 613050.0 0
148249.0 611200.0 0
153304.0 612151.0 0
163190.0 611683.0 0
169481.0 612121.0 0
174391.0 612773.0 0
183483.0 611620.0 0
178793.0 612064.0 0
192949.0 611155.0 0
197155.0 610880.0 0
202810.0 611626.0 0
208424.0 611737.0 0
213051.0 612899.0 0
217805.0 611810.0 0
222602.0 612497.0 0
227874.0 610778.0 0
232991.0 611408.0 0
237457.0 612577.0 0
241607.0 615480.0 0
245617.0 612619.0 0
250023.0 612435.0 0
254942.0 612429.0 0
261404.0 611323.0 0
268187.0 611113.0 0
273822.0 612656.0 0
279429.0 612364.0 0
283724.0 611874.0 0
287234.0 612853.0 0
291604.0 612161.0 0
296248.0 613098.0 0
301465.0 611127.0 0
308031.0 611545.0 0
313743.0 611880.0 0
318085.0 610809.0 0
316895.0 615116.0 0
326294.0 611354.0 0
321954.0 613049.0 0
330717.0 613499.0 0
335031.0 611249.0 0
340077.0 611576.0 0
347210.0 615511.0 0
353003.0 611267.0 0
356995.0 614317.0 0
361265.0 613039.0 0
366493.0 613497.0 0
376848.0 611071.0 0
373410.0 615355.0 0
381993.0 610835.0 0
385743.0 612171.0 0
390768.0 611909.0 0
396180.0 614687.0 0
401526.0 610671.0 0
401957.0 615562.0 0
407487.0 610785.0 0
412755.0 613190.0 0
422598.0 610873.0 0
418476.0 613109.0 0
426993.0 611210.0 0
427472.0 615619.0 0
431369.0 613000.0 0
436636.0 611411.0 0
441800.0 611622.0 0
445822.0 612525.0 0
451256.0 611677.0 0
457324.0 612716.0 0
461787.0 611088.0 0
462814.0 615655.0 0
465702.0 611812.0 0
468083.0 615503.0 0
471744.0 612192.0 0
476260.0 612269.0 0
482215.0 611463.0 0
487023.0 613665.0 0
491695.0 614935.0 0
497483.0 612572.0 0
3714.3 616360.0 0
9010.72 620140.0 0
13688.1 617111.0 0
19154.2 619077.0 0
27521.6 618662.0 0
33568.9 617916.0 0
44245.9 619802.0 0
50590.5 619064.0 0
56093.3 618434.0 0
61360.2 620424.0 0
66903.4 618288.0 0
72818.1 618346.0 0
77376.2 615943.0 0
86435.9 616000.0 0
81672.5 618620.0 0
91485.0 618087.0 0
96550.0 617073.0 0
101500.0 617919.0 0
107624.0 617879.0 0
114685.0 618494.0 0
122136.0 618438.0 0
117918.0 620632.0 0
127866.0 616059.0 0
134453.0 616311.0 0
140154.0 617006.0 0
144748.0 619224.0 0
148769.0 615861.0 0
153236.0 617303.0 0
158378.0 615993.0 0
164332.0 617866.0 0
168377.0 616331.0 0
172582.0 617365.0 0
178359.0 617348.0 0
183483.0 616263.0 0
188610.0 615781.0 0
194551.0 615973.0 0
198099.0 620271.0 0
199671.0 616386.0 0
203178.0 616903.0 0
207244.0 616203.0 0
212259.0 617648.0 0
217046.0 616645.0 0
222088.0 617246.0 0
227099.0 616397.0 0
232007.0 615710.0 0
236826.0 617729.0 0
242093.0 620544.0 0
246682.0 617732.0 0
251677.0 616456.0 0
257038.0 618278.0 0
263687.0 617945.0 0
268868.0 616289.0 0
273190.0 617817.0 0
278008.0 617342.0 0
283567.0 616273.0 0
288010.0 616448.0 0
292933.0 616686.0 0
296353.0 616776.0 0
300164.0 616924.0 0
296246.0 620094.0 0
306064.0 617849.0 0
312009.0 616718.0 0
321312.0 617555.0 0
316727.0 620530.0 0
326375.0 616621.0 0
332661.0 618324.0 0
337801.0 616182.0 0
342313.0 616012.0 0
341859.0 620733.0 0
352619.0 616804.0 0
358339.0 619795.0 0
363590.0 617132.0 0
369168.0 616635.0 0
378211.0 616541.0 0
387040.0 616136.0 0
382645.0 618218.0 0
391658.0 617726.0 0
395760.0 620727.0 0
407945.0 616781.0 0
413527.0 617855.0 0
418378.0 619132.0 0
423572.0 616009.0 0
428536.0 619437.0 0
432651.0 617013.0 0
436984.0 616957.0 0
442008.0 616110.0 0
442455.0 620411.0 0
448582.0 616881.0 0
453768.0 616556.0 0
458265.0 617661.0 0
465993.0 620224.0 0
473238.0 617943.0 0
479154.0 616074.0 0
484313.0 618268.0 0
488661.0 617579.0 0
493979.0 618330.0 0
497977.0 617064.0 0
3243.54 623271.0 0
8501.3 625338.0 0
14319.5 623141.0 0
19440.1 624059.0 0
23868.8 622485.0 0
29045.7 623277.0 0
33853.3 623518.0 0
38613.1 621205.0 0
43050.8 625568.0 0
48160.4 623166.0 0
52934.5 623656.0 0
58185.5 622828.0 0
64566.4 622729.0 0
68852.5 625637.0 0
74087.8 623263.0 0
77348.2 621285.0 0
86098.9 621156.0 0
81837.6 623921.0 0
90374.1 622844.0 0
95239.1 622193.0 0
100718.0 623154.0 0
106076.0 623928.0 0
112097.0 621961.0 0
116391.0 625712.0 0
121325.0 623384.0 0
127003.0 622892.0 0
132232.0 621065.0 0
137320.0 621648.0 0
142370.0 623811.0 0
148884.0 622131.0 0
154187.0 621991.0 0
159947.0 621968.0 0
165292.0 623513.0 0
169027.0 620970.0 0
173270.0 622704.0 0
177645.0 622105.0 0
182050.0 621020.0 0
187168.0 620888.0 0
192928.0 622350.0 0
198560.0 625437.0 0
203017.0 621417.0 0
208819.0 621659.0 0
214164.0 621660.0 0
218427.0 621129.0 0
222529.0 621543.0 0
226786.0 621297.0 0
232153.0 621259.0 0
238097.0 621988.0 0
247107.0 622781.0 0
252148.0 620995.0 0
251726.0 625538.0 0
257564.0 623187.0 0
261106.0 622589.0 0
268996.0 621420.0 0
274007.0 622274.0 0
278548.0 622160.0 0
283333.0 621507.0 0
287584.0 621631.0 0
291833.0 621339.0 0
295861.0 624537.0 0
300817.0 622760.0 0
305888.0 623021.0 0
310881.0 622506.0 0
323254.0 622213.0 0
325648.0 625830.0 0
328525.0 621588.0 0
332753.0 622886.0 0
336899.0 621415.0 0
347370.0 621215.0 0
352830.0 622206.0 0
367254.0 621145.0 0
362780.0 622217.0 0
373255.0 620885.0 0
374277.0 625638.0 0
378663.0 621399.0 0
387419.0 621262.0 0
382961.0 622571.0 0
391723.0 622802.0 0
401179.0 621104.0 0
398050.0 625327.0 0
406535.0 622724.0 0
411101.0 621075.0 0
414638.0 621801.0 0
417071.0 625789.0 0
423645.0 621488.0 0
433356.0 621882.0 0
438553.0 621081.0 0
437035.0 625747.0 0
442726.0 625597.0 0
446330.0 621503.0 0
448122.0 625843.0 0
451884.0 621832.0 0
456669.0 621175.0 0
457827.0 625338.0 0
460925.0 621424.0 0
466325.0 625572.0 0
470373.0 622876.0 0
475708.0 623951.0 0
480197.0 621037.0 0
484230.0 623228.0 0
490371.0 622903.0 0
497111.0 621885.0 0
2051.9 628409.0 0
6251.51 629461.0 0
12253.7 628600.0 0
17865.7 628736.0 0
22092.5 626581.0 0
23353.4 630893.0 0
26196.7 627190.0 0
32501.1 627695.0 0
37462.8 627577.0 0
41676.9 630347.0 0
48059.4 628002.0 0
52826.2 630073.0 0
56778.5 626955.0 0
62393.6 627240.0 0
71134.5 630745.0 0
73537.6 627541.0 0
77620.1 626733.0 0
82610.7 628564.0 0
86870.5 626297.0 0
92763.9 627021.0 0
97271.6 626417.0 0
96940.5 630761.0 0
102161.0 628051.0 0
106252.0 628419.0 0
110532.0 626871.0 0
121509.0 627954.0 0
126182.0 628689.0 0
133376.0 625978.0 0
135928.0 630500.0 0
138180.0 626709.0 0
142138.0 628694.0 0
146446.0 626806.0 0
151251.0 626419.0 0
156173.0 627357.0 0
161118.0 627132.0 0
165444.0 629033.0 0
170550.0 627296.0 0
176258.0 626816.0 0
182082.0 626580.0 0
188164.0 626444.0 0
193639.0 628434.0 0
202187.0 628127.0 0
205487.0 625912.0 0
212320.0 626115.0 0
216715.0 626156.0 0
215995.0 629930.0 0
221004.0 625893.0 0
226434.0 626502.0 0
231374.0 626336.0 0
236660.0 626795.0 0
242912.0 626016.0 0
247737.0 626845.0 0
256261.0 627060.0 0
261043.0 626884.0 0
266009.0 626296.0 0
270938.0 626298.0 0
273415.0 630940.0 0
275932.0 626725.0 0
282118.0 626210.0 0
283250.0 630660.0 0
286648.0 626208.0 0
287030.0 630021.0 0
291332.0 626344.0 0
296699.0 629382.0 0
301850.0 628276.0 0
307900.0 626210.0 0
306391.0 629959.0 0
315854.0 626160.0 0
311458.0 628070.0 0
321164.0 627215.0 0
330077.0 626887.0 0
326566.0 630965.0 0
335487.0 626149.0 0
341292.0 626483.0 0
347641.0 627368.0 0
353780.0 627656.0 0
360254.0 626513.0 0
366579.0 627061.0 0
371361.0 628368.0 0
378676.0 627144.0 0
383598.0 626704.0 0
388832.0 626784.0 0
392730.0 629690.0 0
393711.0 626050.0 0
397533.0 630887.0 0
402857.0 626536.0 0
402454.0 630154.0 0
407542.0 626225.0 0
407081.0 630722.0 0
411167.0 625927.0 0
422179.0 626218.0 0
427472.0 626127.0 0
423736.0 630380.0 0
432598.0 626411.0 0
438339.0 630077.0 0
452943.0 627762.0 0
457644.0 630120.0 0
462040.0 627856.0 0
471964.0 626995.0 0
476754.0 629198.0 0
480805.0 626616.0 0
486067.0 628195.0 0
492960.0 628663.0 0
497547.0 627180.0 0
2903.75 633221.0 0
8027.06 633395.0 0
12532.7 633615.0 0
20286.6 632105.0 0
17451.9 634294.0 0
24060.6 635144.0 0
29432.3 631795.0 0
27436.7 635840.0 0
36550.9 633757.0 0
42027.4 634674.0 0
46565.2 632113.0 0
50410.5 633941.0 0
57548.6 631845.0 0
62021.7 632410.0 0
66393.3 631228.0 0
75904.1 631403.0 0
81118.4 633471.0 0
87018.1 632056.0 0
92367.6 632117.0 0
101418.0 632777.0 0
97148.1 635728.0 0
106478.0 632798.0 0
112131.0 632478.0 0
118294.0 632327.0 0
123570.0 632455.0 0
127241.0 636076.0 0
130820.0 631355.0 0
139966.0 632964.0 0
147610.0 631766.0 0
143609.0 631946.0 0
144905.0 636051.0 0
152670.0 631042.0 0
157194.0 631870.0 0
154620.0 635927.0 0
161688.0 632201.0 0
168090.0 632490.0 0
172927.0 632678.0 0
177726.0 631398.0 0
181941.0 631835.0 0
187529.0 632264.0 0
192338.0 632642.0 0
192140.0 635699.0 0
198428.0 631001.0 0
202960.0 631635.0 0
208709.0 631401.0 0
213923.0 633076.0 0
217653.0 636008.0 0
220418.0 631166.0 0
225533.0 632035.0 0
230828.0 631034.0 0
235657.0 632264.0 0
240307.0 631892.0 0
246133.0 631913.0 0
253104.0 632208.0 0
259486.0 631787.0 0
264175.0 631939.0 0
268993.0 631173.0 0
265888.0 635933.0 0
278471.0 631693.0 0
287619.0 635472.0 0
291224.0 631842.0 0
300753.0 632942.0 0
296019.0 635051.0 0
305726.0 635608.0 0
310170.0 632284.0 0
316012.0 632382.0 0
322066.0 632590.0 0
331485.0 632352.0 0
337239.0 631495.0 0
341825.0 635697.0 0
342343.0 631398.0 0
346431.0 633020.0 0
350909.0 631768.0 0
357570.0 632484.0 0
363551.0 632003.0 0
368736.0 631325.0 0
367673.0 635723.0 0
372370.0 635253.0 0
375145.0 631321.0 0
379878.0 631731.0 0
382058.0 635994.0 0
384385.0 631366.0 0
389265.0 632234.0 0
402139.0 633485.0 0
413246.0 631038.0 0
418689.0 631409.0 0
428323.0 631801.0 0
433605.0 631109.0 0
437514.0 633632.0 0
442733.0 631396.0 0
448295.0 631139.0 0
453922.0 633098.0 0
461451.0 632355.0 0
466864.0 631356.0 0
472554.0 631129.0 0
473941.0 635703.0 0
477963.0 632661.0 0
481857.0 631669.0 0
483147.0 636070.0 0
489633.0 632219.0 0
494034.0 633041.0 0
497892.0 631707.0 0
2916.24 638885.0 0
8597.84 638202.0 0
14400.6 638067.0 0
20615.1 637965.0 0
25964.7 640068.0 0
30921.5 637125.0 0
35029.8 638884.0 0
39490.8 638596.0 0
46577.0 636426.0 0
50248.0 638561.0 0
54750.8 636756.0 0
60523.5 636788.0 0
65775.3 636361.0 0
63467.7 641100.0 0
68053.6 640779.0 0
72274.3 636747.0 0
78371.5 638239.0 0
85473.9 636978.0 0
82090.9 637740.0 0
91603.8 637779.0 0
103021.0 638463.0 0
109087.0 637442.0 0
113620.0 637151.0 0
116855.0 639829.0 0
121528.0 637354.0 0
133727.0 637297.0 0
140155.0 638356.0 0
149574.0 637445.0 0
159644.0 636499.0 0
158328.0 640765.0 0
162941.0 641065.0 0
167761.0 636440.0 0
163823.0 636748.0 0
171818.0 637677.0 0
177294.0 636979.0 0
174073.0 640717.0 0
183660.0 636841.0 0
188821.0 636987.0 0
192367.0 640655.0 0
197419.0 636800.0 0
203481.0 636374.0 0
201777.0 641019.0 0
213902.0 636548.0 0
209202.0 638460.0 0
214605.0 640891.0 0
222284.0 636288.0 0
227415.0 636894.0 0
232899.0 636675.0 0
238567.0 636690.0 0
242979.0 636267.0 0
242349.0 640923.0 0
247848.0 637643.0 0
251785.0 637015.0 0
255767.0 637795.0 0
260827.0 636952.0 0
271764.0 636827.0 0
276941.0 636177.0 0
277594.0 640740.0 0
282150.0 636530.0 0
286745.0 640611.0 0
291569.0 638217.0 0
300504.0 637401.0 0
307573.0 641002.0 0
311636.0 637012.0 0
316815.0 638847.0 0
321881.0 637399.0 0
327382.0 636473.0 0
332569.0 636997.0 0
337012.0 636981.0 0
342979.0 640617.0 0
351971.0 636362.0 0
347128.0 638024.0 0
357772.0 638797.0 0
362992.0 637126.0 0
366581.0 640296.0 0
372094.0 640286.0 0
376909.0 636341.0 0
376865.0 640861.0 0
381047.0 640910.0 0
387525.0 637505.0 0
393924.0 636309.0 0
399565.0 637106.0 0
405515.0 637850.0 0
411471.0 636270.0 0
417169.0 636859.0 0
423322.0 636061.0 0
429654.0 637185.0 0
435198.0 637051.0 0
440893.0 636354.0 0
442980.0 641181.0 0
446494.0 636757.0 0
451775.0 637515.0 0
458315.0 636576.0 0
464023.0 636577.0 0
469207.0 636744.0 0
472613.0 640233.0 0
478670.0 636607.0 0
477329.0 641071.0 0
482301.0 640820.0 0
487726.0 636978.0 0
492512.0 636883.0 0
493001.0 641072.0 0
497297.0 636369.0 0
497502.0 641184.0 0
1225.61 642666.0 0
6620.66 642532.0 0
11956.7 641940.0 0
17573.4 641849.0 0
21709.7 642048.0 0
27240.4 646105.0 0
31616.0 641971.0 0
37274.9 643627.0 0
42052.8 642023.0 0
46255.9 641335.0 0
52478.4 642797.0 0
58172.1 641553.0 0
62037.6 646060.0 0
71607.1 643055.0 0
76711.9 643302.0 0
81815.7 641716.0 0
86922.3 641563.0 0
91608.5 644044.0 0
97142.9 641781.0 0
107131.0 642835.0 0
102054.0 643757.0 0
112233.0 641782.0 0
118103.0 644688.0 0
122836.0 642504.0 0
128711.0 642271.0 0
135237.0 644081.0 0
139565.0 642492.0 0
144589.0 641180.0 0
143491.0 646158.0 0
148648.0 642610.0 0
153288.0 641444.0 0
157271.0 646276.0 0
163018.0 645841.0 0
168221.0 641311.0 0
172986.0 645063.0 0
177451.0 642460.0 0
181794.0 641782.0 0
186686.0 641871.0 0
192601.0 646194.0 0
197493.0 642445.0 0
206019.0 643795.0 0
212700.0 646203.0 0
219010.0 641465.0 0
222500.0 641506.0 0
222500.0 646207.0 0
226798.0 642552.0 0
232112.0 641728.0 0
237226.0 641817.0 0
242755.0 645489.0 0
247027.0 642479.0 0
252500.0 641509.0 0
252116.0 645747.0 0
256697.0 642438.0 0
261528.0 642140.0 0
267193.0 641656.0 0
272667.0 642648.0 0
282096.0 643531.0 0
291411.0 643217.0 0
296731.0 641177.0 0
302625.0 641734.0 0
308297.0 645406.0 0
312200.0 642115.0 0
320934.0 642343.0 0
316429.0 643712.0 0
326410.0 642415.0 0
331725.0 641502.0 0
337568.0 642663.0 0
347499.0 643098.0 0
352907.0 642274.0 0
357990.0 644326.0 0
362479.0 641574.0 0
368521.0 644638.0 0
378347.0 645213.0 0
385431.0 642869.0 0
391350.0 642359.0 0
396897.0 641461.0 0
401788.0 642226.0 0
407855.0 643437.0 0
412870.0 641208.0 0
417846.0 642570.0 0
422438.0 641215.0 0
422277.0 645773.0 0
426685.0 641804.0 0
432761.0 641247.0 0
430263.0 644518.0 0
437536.0 641805.0 0
448162.0 642181.0 0
452394.0 641458.0 0
456566.0 641844.0 0
461850.0 641568.0 0
467398.0 641626.0 0
464382.0 645639.0 0
474404.0 644927.0 0
479412.0 645918.0 0
483991.0 645452.0 0
488547.0 642365.0 0
492917.0 645040.0 0
497524.0 646129.0 0
2838.68 646396.0 0
8061.53 647311.0 0
13301.1 646775.0 0
18057.0 646373.0 0
22118.8 648512.0 0
32846.2 647460.0 0
37549.0 649256.0 0
42118.4 647019.0 0
47687.5 646313.0 0
52119.7 648559.0 0
56748.1 646871.0 0
62414.5 651311.0 0
67587.5 646383.0 0
67081.4 651319.0 0
73058.7 647985.0 0
78426.1 648454.0 0
84296.9 647110.0 0
89786.9 648523.0 0
94493.9 648331.0 0
99117.6 647038.0 0
104194.0 648129.0 0
108989.0 647034.0 0
112948.0 646360.0 0
116027.0 648609.0 0
122251.0 647501.0 0
128261.0 649678.0 0
134934.0 649299.0 0
139104.0 647561.0 0
147065.0 648457.0 0
143448.0 651188.0 0
151063.0 646693.0 0
162834.0 650994.0 0
167846.0 647233.0 0
173398.0 651353.0 0
178035.0 647021.0 0
183284.0 646574.0 0
188139.0 646389.0 0
187123.0 651148.0 0
197281.0 647091.0 0
198758.0 651075.0 0
202500.0 646382.0 0
202953.0 651010.0 0
208092.0 648296.0 0
217500.0 646338.0 0
217524.0 651107.0 0
222453.0 651231.0 0
227996.0 647859.0 0
232891.0 646375.0 0
231406.0 651099.0 0
237756.0 646724.0 0
241614.0 650100.0 0
247927.0 646793.0 0
253427.0 650977.0 0
256405.0 646663.0 0
260827.0 647144.0 0
262727.0 651217.0 0
265603.0 646853.0 0
270811.0 647752.0 0
277027.0 646782.0 0
282337.0 647932.0 0
286932.0 646503.0 0
292531.0 648344.0 0
298635.0 647507.0 0
304078.0 646379.0 0
306176.0 650628.0 0
310562.0 651361.0 0
312859.0 647313.0 0
318526.0 648284.0 0
323337.0 646454.0 0
327906.0 647648.0 0
333242.0 647067.0 0
337966.0 648589.0 0
342764.0 646485.0 0
351177.0 647312.0 0
346997.0 649916.0 0
356602.0 649666.0 0
362953.0 647231.0 0
373254.0 648262.0 0
382990.0 647351.0 0
388429.0 647692.0 0
393466.0 647786.0 0
398028.0 646565.0 0
403364.0 647059.0 0
408001.0 648690.0 0
404051.0 651137.0 0
412663.0 646443.0 0
417749.0 647734.0 0
422663.0 650843.0 0
426977.0 647793.0 0
434875.0 647236.0 0
441072.0 646522.0 0
446478.0 649063.0 0
452430.0 646610.0 0
459224.0 647048.0 0
469195.0 647182.0 0
484233.0 649591.0 0
479816.0 651381.0 0
488191.0 647604.0 0
492986.0 650531.0 0
1529.08 651418.0 0
2251.06 655829.0 0
5573.75 651889.0 0
10804.2 651480.0 0
17047.4 651636.0 0
23623.4 653485.0 0
28264.0 651576.0 0
33224.8 652856.0 0
38049.0 653761.0 0
42359.9 652166.0 0
47055.1 651481.0 0
51708.4 653300.0 0
57044.1 652437.0 0
71183.3 652929.0 0
76000.9 652735.0 0
81795.4 653607.0 0
87177.9 651978.0 0
87357.9 656380.0 0
91967.8 652830.0 0
97781.9 652450.0 0
103207.0 653785.0 0
108585.0 651895.0 0
113947.0 652406.0 0
119344.0 651805.0 0
123885.0 654404.0 0
128132.0 655685.0 0
133562.0 653587.0 0
138563.0 652068.0 0
147023.0 652380.0 0
142955.0 656459.0 0
151458.0 652498.0 0
148052.0 656314.0 0
157403.0 652624.0 0
162929.0 656087.0 0
167739.0 652234.0 0
177934.0 652319.0 0
177548.0 656128.0 0
181747.0 651808.0 0
186766.0 656231.0 0
193327.0 652114.0 0
203475.0 655928.0 0
207335.0 652652.0 0
212270.0 651600.0 0
218090.0 656161.0 0
222107.0 656135.0 0
226544.0 652385.0 0
236422.0 651437.0 0
242521.0 656041.0 0
247250.0 651903.0 0
258721.0 651399.0 0
256706.0 655651.0 0
267146.0 651663.0 0
273282.0 652206.0 0
277725.0 652303.0 0
281812.0 651450.0 0
283221.0 655593.0 0
286939.0 651705.0 0
290970.0 652874.0 0
296069.0 653485.0 0
301821.0 651771.0 0
301136.0 656370.0 0
314996.0 652855.0 0
320067.0 653282.0 0
325605.0 653004.0 0
331307.0 652028.0 0
336074.0 652607.0 0
341980.0 653170.0 0
351366.0 652738.0 0
347197.0 655053.0 0
356254.0 655507.0 0
361438.0 653364.0 0
367797.0 651950.0 0
372949.0 655017.0 0
378779.0 652476.0 0
382420.0 656298.0 0
384921.0 651916.0 0
389777.0 653020.0 0
394684.0 652147.0 0
400016.0 651833.0 0
402481.0 656419.0 0
407182.0 653616.0 0
412989.0 651805.0 0
418146.0 652451.0 0
422767.0 656040.0 0
427316.0 653055.0 0
431762.0 651383.0 0
432587.0 656165.0 0
436416.0 652477.0 0
441455.0 652328.0 0
446078.0 654186.0 0
451474.0 653308.0 0
457330.0 653076.0 0
462149.0 651904.0 0
467394.0 653193.0 0
473671.0 651777.0 0
487461.0 653546.0 0
497909.0 652425.0 0
497452.0 656422.0 0
5525.97 657907.0 0
10557.3 657425.0 0
17109.3 658135.0 0
22588.2 658266.0 0
27762.2 657085.0 0
33289.0 658323.0 0
38705.3 658578.0 0
42829.9 660333.0 0
47152.9 657293.0 0
53059.3 658294.0 0
58236.4 657742.0 0
63541.5 656658.0 0
68413.5 656544.0 0
72797.1 657459.0 0
77430.1 657347.0 0
82579.5 658544.0 0
92592.9 657996.0 0
98305.3 657979.0 0
102959.0 658493.0 0
107360.0 657094.0 0
112259.0 656556.0 0
117326.0 656488.0 0
121450.0 657980.0 0
125506.0 658729.0 0
132008.0 659151.0 0
137295.0 657045.0 0
153285.0 657929.0 0
158534.0 657971.0 0
167354.0 656772.0 0
172157.0 657220.0 0
182506.0 656732.0 0
191014.0 657773.0 0
197789.0 656958.0 0
208226.0 657169.0 0
213255.0 656725.0 0
225914.0 656669.0 0
230904.0 656604.0 0
236693.0 656654.0 0
248076.0 657444.0 0
252471.0 657153.0 0
261170.0 657630.0 0
266724.0 657457.0 0
272408.0 656847.0 0
277889.0 657548.0 0
288516.0 657170.0 0
293433.0 657916.0 0
297338.0 659374.0 0
307530.0 656737.0 0
313485.0 657797.0 0
318575.0 658047.0 0
323140.0 657522.0 0
327434.0 658546.0 0
332200.0 656930.0 0
337520.0 658001.0 0
342768.0 659113.0 0
351759.0 658164.0 0
347192.0 659030.0 0
359297.0 659337.0 0
363777.0 658080.0 0
367814.0 657119.0 0
377175.0 657785.0 0
372520.0 659500.0 0
386600.0 657159.0 0
392363.0 657412.0 0
397543.0 656891.0 0
406576.0 658623.0 0
411661.0 656845.0 0
417370.0 657827.0 0
427695.0 658260.0 0
438076.0 657138.0 0
443243.0 657973.0 0
448213.0 657952.0 0
452858.0 659056.0 0
457440.0 657708.0 0
462294.0 657021.0 0
467087.0 658545.0 0
472284.0 657976.0 0
477770.0 656481.0 0
482864.0 656519.0 0
487933.0 658666.0 0
492474.0 656692.0 0
POINT_DATA 5000
SCALARS Radius float 1
LOOKUP_TABLE default
4780.03 4133.88 6716.79 7613.27 4951.03 6124.89 5252.48 5495.39 3554.9 3856.1 3996.0 3936.02 4665.12 3383.4 4094.62 4834.9 3850.77 6044.04 5415.48 5120.0 3863.18 2356.98 4998.37 6182.6 5492.18 5258.36 5061.3 3642.12 3163.97 5812.43 5122.66 5906.14 7513.1 5254.28 5733.48 4672.91 5580.89 5645.7 5176.86 6810.52 5840.26 6110.27 5561.06 5073.35 5670.04 4380.59 3589.27 3607.45 5759.91 4333.2 3038.33 5529.52 7199.21 5255.32 5337.48 4049.23 4929.8 5708.81 4015.92 4487.31 4044.71 5980.74 5109.54 4927.02 5546.39 5325.36 5484.83 5085.53 5351.6 4730.36 4715.55 5867.73 3951.75 5013.56 4499.64 4375.68 5542.27 5054.98 6030.06 5170.02 5484.19 3557.27 4927.31 4688.68 4436.4 4402.52 4517.56 4182.53 5903.42 3588.44 3955.56 3761.32 4118.05 4366.19 5553.16 3672.51 2938.66 4940.78 4231.61 4008.92 3615.22 3942.53 3379.84 4827.82 3997.1 3260.67 5697.78 5123.52 4392.68 4295.38 5615.42 6037.08 4523.7 6756.95 6324.23 4329.05 4931.38 4151.94 4685.34 5601.05 4382.74 3586.91 3103.0 5481.78 5542.21 5043.05 5816.2 5693.81 6483.19 4174.52 5945.65 6759.9 5538.89 7021.47 5416.38 6059.59 4955.55 2720.68 5701.86 3563.63 4238.81 4468.59 5885.03 2837.58 5325.02 5200.76 5017.13 4862.64 5185.34 4432.58 6684.56 3968.64 4688.67 5292.64 6166.5 5065.13 5936.02 5305.17 4003.05 4861.08 5390.22 4805.87 4712.33 5227.21 4667.36 4091.31 6372.62 7565.34 2240.39 5091.39 5096.78 5293.9 4727.24 4129.43 3320.52 3843.58 4792.73 4736.58 3485.26 6082.81 5927.43 4651.28 4384.42 4362.19 4516.43 5637.59 4937.14 3115.91 3307.12 5924.89 4002.16 4138.16 3486.22 3829.13 4684.5 6230.49 5418.62 4601.27 5493.32 5740.68 5926.61 5836.15 3261.21 4345.55 6704.06 3653.41 3871.88 3856.01 5246.2 4390.66 5279.39 3673.74 5205.43 6116.18 7447.37 4924.6 2635.86 4385.06 4733.32 7184.19 2899.43 2924.37 3867.67 4290.3 5399.73 4660.72 3888.21 6038.78 6902.81 4254.17 5629.19 5090.24 5923.5 4612.68 4973.83 3912.37 6142.94 4194.5 4602.25 4270.53 5191.63 5344.25 4043.57 5379.87 4501.51 3708.04 4556.36 3240.09 5110.37 5664.98 3191.99 6327.9 6355.42 3693.63 5690.56 4948.92 5762.84 4493.48 6084.86 5478.92 4778.34 6894.71 3091.3 4414.54 6458.82 7054.71 5489.43 3641.64 5747.75 4277.89 6051.14 4796.33 4195.44 5539.32 5360.19 6496.85 5600.93 4874.39 5541.59 4124.71 5728.85 4827.23 4911.47 5803.39 5863.59 4381.97 6257.19 3255.82 5242.73 2812.98 4065.69 5603.15 4695.45 6052.7 3798.62 3921.18 5891.05 3666.57 5308.1 6644.76 4786.6 5655.21 4433.59 5740.84 5530.87 4281.49 6342.25 6691.39 4790.08 5082.47 5344.0 4593.7 4763.45 4150.99 3771.48 4478.15 5681.38 4138.42 5925.6 6013.14 5513.6 4901.41 5138.31 5264.06 4659.59 4048.37 5492.26 5244.78 3937.74 4749.8 5810.84 5094.44 5551.36 4655.49 4467.94 4850.81 5789.98 6138.47 5527.54 5573.7 4727.62 5054.25 4055.8 7325.81 5280.17 4794.96 6186.19 5083.08 6834.49 6337.56 5525.39 3998.5 4024.3 6394.38 5555.28 4737.14 4686.65 5556.96 5788.23 5581.75 6392.01 6730.19 4907.89 4937.02 3735.44 4073.93 4645.41 5952.75 6445.94 4310.18 4218.06 7134.64 5978.9 4187.56 3629.62 4997.27 4840.84 5135.69 6045.46 5445.87 4216.92 4704.72 4177.94 4107.03 3929.19 4271.69 5198.77 5147.67 5987.17 4292.06 3979.82 2765.2 5006.58 4602.86 3688.8 4548.16 3369.23 5449.18 4220.88 6519.71 6640.13 3092.35 5082.6 5210.03 5478.47 4230.54 6142.37 3748.24 6061.47 4933.21 5375.47 6038.14 2540.31 6029.66 5120.49 5262.61 6302.8 5697.4 6038.2 4270.95 4005.44 5206.78 5555.88 6732.43 6425.26 5143.58 4484.76 4839.34 4840.01 2980.99 5611.2 7933.0 4455.12 5173.87 5938.34 5380.13 5711.87 5118.27 5169.36 5932.23 5834.74 4479.66 3369.13 5367.2 3043.85 5461.13 3599.45 4907.06 5163.9 6043.3 5537.72 4320.28 6332.36 5542.14 4931.53 5480.13 2739.94 6308.71 4716.19 5514.76 4301.06 3456.98 4290.14 4020.32 3815.26 4245.72 5908.1 4571.7 4742.68 4344.58 5634.83 5782.6 5113.21 4862.21 5922.5 4502.5 3970.25 3633.87 4850.01 5643.58 5577.04 5011.31 4481.53 5586.81 4621.75 4581.13 4551.24 5358.59 3610.4 4515.71 5367.52 4322.15 4714.54 3629.96 3320.11 5351.39 5119.37 6163.38 4566.18 4723.12 3459.9 4964.09 5201.36 5024.9 4306.53 5409.61 5094.81 5972.06 5713.22 5861.71 5028.96 4359.04 3866.16 3794.63 6362.12 3778.1 5152.36 4511.82 4220.65 6820.42 4816.2 4894.16 4896.52 4751.02 3372.79 4941.22 5282.64 5791.61 4669.66 4808.52 5046.33 5607.24 4726.76 5839.13 3847.38 5495.68 5489.34 5002.48 5708.14 3920.42 4262.82 6122.55 4223.33 6155.31 5911.67 6695.82 6405.76 4877.67 3498.2 6562.18 3066.13 4302.5 4541.21 6048.7 5896.46 5495.84 5022.8 6268.1 5820.48 7034.11 6261.42 4011.77 5499.11 4527.08 5347.48 2775.04 5215.05 4138.46 3821.72 4986.77 6318.18 3948.17 5330.45 3856.59 4219.07 5413.79 6387.01 6202.55 5025.39 5893.5 5030.91 6022.17 4583.31 3982.23 5806.08 4997.27 4853.39 4093.08 4809.42 4717.05 5659.17 6135.57 4312.67 5423.8 3183.98 4989.15 5017.78 4524.28 5015.69 6175.81 4727.24 6677.09 5826.64 6959.81 4829.35 5201.67 6321.41 4089.76 5526.55 5184.56 3192.41 4715.72 4987.87 3315.57 5804.71 4764.96 4242.52 5053.92 6352.26 3057.03 4087.15 3818.59 4143.08 4863.72 6623.85 5102.36 8332.24 4342.9 4553.56 5329.64 6049.55 3323.28 5709.62 5835.78 5794.24 5105.16 6006.16 4156.38 5316.75 6009.88 4164.68 7055.53 6133.92 3784.5 3719.84 4178.4 5934.22 3471.03 5253.55 5011.84 6946.21 2586.12 5433.8 6125.34 4374.35 5965.78 4810.12 6898.19 6035.6 5137.34 5423.0 5077.33 4746.52 3689.45 5572.95 6338.89 5584.06 7111.16 3817.13 4547.19 5023.15 5507.24 6851.54 4503.89 5570.3 4336.42 5243.29 7589.94 4449.22 3130.65 5543.27 5856.11 5287.2 4109.88 5998.38 4234.94 5013.13 4270.24 5080.66 3417.33 4926.42 4164.13 4642.34 4520.1 4947.52 5874.89 4305.57 4293.03 4389.21 3791.79 4925.44 4424.7 4754.05 6084.93 5215.15 4307.28 3697.96 4739.42 5538.93 5020.12 5727.3 2631.9 5281.28 5356.51 4277.88 4758.21 7228.46 7500.97 3948.23 5228.18 5787.31 5065.11 3927.99 5069.84 4051.44 4241.89 5054.74 5941.72 4127.74 2476.04 4678.38 5448.61 5050.65 4827.33 5513.57 5013.67 5729.23 5669.65 5624.49 3095.48 3780.23 4861.06 4166.08 6481.79 6608.73 3979.26 4359.62 5188.81 3745.84 6057.22 5062.71 4497.59 4156.2 5975.63 5252.34 6396.74 2965.79 7099.43 5526.14 5198.29 6449.45 3975.31 5125.78 5344.43 3824.16 3868.18 6723.16 5372.61 3686.21 6480.17 6445.22 4377.07 3844.9 5101.59 3813.22 3848.93 4306.11 5935.47 3402.32 5903.66 5628.24 5004.67 3327.49 5365.89 5992.26 4562.29 3960.8 5070.39 4980.85 5714.58 5110.45 5208.32 5248.77 4083.97 4607.02 5153.74 4528.09 3895.51 4165.81 5813.4 6291.51 4128.98 5882.89 6246.22 4951.47 4188.32 5246.61 4100.38 5344.77 4723.48 5097.87 4899.11 4745.45 4278.07 7267.18 6255.18 4668.71 5269.18 4406.1 6362.14 6719.88 5978.82 5266.5 5868.82 4050.9 4066.38 4978.31 4099.77 4981.9 4537.32 5163.02 5991.09 4656.78 3942.07 5126.91 5133.97 7443.72 3937.08 5371.02 5260.34 5206.48 5826.04 6586.45 5226.0 5339.78 5762.59 5374.51 5320.28 5224.12 4298.67 4796.58 5960.66 5873.69 3999.48 4962.09 5654.31 4203.26 4730.41 5696.88 3923.03 5690.26 4004.04 5607.14 4289.17 5564.02 4274.61 4410.55 4287.63 5315.4 4516.28 3627.82 4044.45 5262.19 4373.47 6070.58 5045.38 5350.88 5130.91 5402.24 4519.22 4531.14 4564.34 3695.36 3963.86 5076.35 6020.48 6375.99 5200.05 5234.29 4528.49 5313.66 5419.37 4466.03 5409.33 4511.54 5196.0 4923.9 4973.78 3329.99 3947.47 3296.27 4713.25 4204.84 6243.0 6673.96 3556.85 5441.96 3435.9 5174.89 4288.3 5370.52 4652.29 5774.81 3746.31 5498.32 5027.98 5346.27 6475.1 4969.21 2691.29 6256.02 5320.92 4305.43 5314.85 5034.59 4942.77 4263.33 5080.18 4454.63 4523.88 3279.1 4403.98 4948.98 4560.84 5227.52 4729.43 4414.48 4092.24 4562.74 7144.24 3600.43 6600.94 4788.58 6155.1 4709.35 5876.71 4750.78 4373.3 5029.78 4123.6 3365.82 4163.5 7092.87 4143.78 4850.14 4970.88 6739.08 4763.66 4797.52 4471.58 4569.12 3637.61 6098.14 4472.17 6222.42 4938.74 5470.77 4643.85 4831.47 6062.05 5082.74 5411.85 6915.83 5092.37 6072.45 6444.77 6314.07 3921.08 5776.37 4190.31 5678.96 4244.9 5490.43 6034.41 5452.83 4959.34 4948.5 4527.02 5383.07 4591.87 5013.42 3838.56 4871.44 5651.07 6248.81 5273.35 4645.58 2651.49 5512.23 5275.32 4898.94 4613.31 4733.04 6119.09 5788.66 5091.68 7531.29 5069.25 5048.89 3161.47 3991.03 6390.78 7435.25 6826.57 4788.87 4495.87 6022.72 4643.31 5527.33 5402.21 4989.09 4880.14 2845.98 4982.31 5289.52 3848.54 5941.4 5450.44 6510.17 5742.65 5592.32 5381.16 5912.61 6193.35 6086.96 5233.78 5776.57 5683.26 5598.74 4906.82 5687.83 5131.24 5196.67 6496.67 5474.8 6262.72 3664.11 6515.84 4538.95 5724.64 5965.15 4666.81 7042.12 5163.55 6326.39 6817.32 4319.79 6643.85 6343.14 5501.93 5463.38 5945.21 5750.71 3493.7 6470.3 3474.39 4200.03 6939.12 4735.33 4406.4 4413.85 4844.57 4864.22 4027.46 4470.98 5759.46 5083.41 7055.42 5486.68 6048.86 4285.32 6894.26 5022.28 5197.52 5178.99 5615.35 4790.78 4247.15 6552.22 5379.09 4602.85 5872.05 4091.8 4853.02 6259.23 5181.4 5670.2 4711.62 5985.29 4247.23 4178.15 4694.83 4268.65 5509.42 4354.08 4256.43 5936.36 4520.62 3903.75 4755.47 5935.03 4485.99 5127.16 5475.8 5314.69 6050.81 5543.46 4249.46 5965.81 3702.37 5660.85 2330.66 4177.19 6917.52 3587.05 6229.37 6718.19 5282.91 4307.48 4425.84 7256.35 5331.02 4871.96 4800.69 4863.23 4402.67 4470.61 5565.13 4384.88 6887.27 3701.27 4806.34 5653.9 5046.21 5894.61 5004.23 5139.5 6442.69 4814.55 6320.71 4648.04 3527.05 6607.87 5117.47 2990.77 3163.78 4925.63 4888.6 5078.86 4780.2 4636.5 4819.73 4940.42 3382.7 3954.91 6471.55 5085.71 2965.01 5644.82 6263.44 5960.56 4863.27 4118.84 5774.97 4020.95 5862.86 5462.21 6313.06 6345.13 4719.7 5516.95 5313.22 3905.51 3999.94 6171.13 3901.8 3497.9 2395.5 5941.61 5511.88 4512.11 6248.6 3836.45 5443.58 5683.61 5100.25 4049.02 4470.4 4986.51 5339.38 6169.11 4027.09 6422.84 4502.18 5210.48 4962.77 7552.94 6101.92 5088.44 5323.3 4998.21 4662.56 4114.24 5349.31 4649.22 5394.55 5094.52 4946.74 2682.24 5928.32 5229.48 5475.7 4016.18 5526.75 5435.74 4244.99 5327.45 5560.26 6185.89 3997.96 4750.17 4439.35 3460.94 3990.25 3691.0 4752.51 3758.07 4236.14 4407.87 5282.51 3797.33 5945.89 4105.55 6566.1 3555.86 6386.78 4996.99 4631.83 4896.39 6081.14 5480.83 6008.49 4287.53 5612.21 4929.14 5945.08 3979.54 7493.3 5944.09 5833.06 5698.77 2477.07 3464.83 4497.31 4721.32 4305.16 5882.65 3293.56 5092.28 4739.14 4918.77 5100.1 4434.19 4371.99 6090.91 3703.1 4946.42 5923.4 5081.78 3295.83 4459.28 4260.92 5499.39 6250.23 6413.02 3492.19 4584.5 5122.63 6766.43 6049.79 2315.64 4703.08 5374.98 4390.41 5226.56 5274.19 5599.49 4097.57 5452.42 5017.5 5328.22 5563.79 6853.85 4020.4 4596.75 5782.48 4933.65 6098.1 4558.46 5805.86 5346.68 5296.29 5311.03 5255.12 4611.53 4285.66 4896.11 4238.4 5172.53 4135.62 5801.99 5534.94 4860.33 7644.38 4051.34 3627.55 6239.84 4635.6 4256.67 5166.79 3457.48 3931.07 3405.98 2976.22 5417.15 3688.16 4681.72 4945.39 5996.33 3950.63 5415.19 4612.62 3619.07 4275.57 4467.04 6385.23 2983.99 2614.4 6363.92 6205.93 4923.24 5830.72 6184.4 3828.81 4373.45 4082.57 5733.62 5169.9 3004.16 4460.92 5235.17 4779.5 4042.28 4421.12 4340.76 5254.49 6065.22 4221.28 4456.39 5514.84 3633.79 5421.53 4607.85 4220.46 5128.57 6000.7 5604.21 3169.67 5204.04 4968.03 3361.92 5304.13 5490.58 4863.79 3967.48 4702.06 4923.41 6213.04 3830.46 6413.11 5529.42 5274.14 4903.82 5257.12 5746.28 5187.7 3561.29 4082.47 4219.78 4623.61 4188.3 4963.34 5019.93 3885.86 5235.29 4517.73 5177.64 4255.31 5660.16 6116.33 4541.8 4479.94 6134.99 5453.3 4718.54 4407.9 6736.03 4440.57 6235.57 5548.29 5412.31 3623.87 5916.16 6934.37 4890.5 3731.84 6113.95 4050.08 3981.07 4901.07 5186.3 3436.15 4151.76 6484.17 3493.47 4721.02 4254.37 3374.08 4031.78 5564.23 5950.04 5708.99 4231.83 5687.85 6401.43 5020.71 2681.29 5094.48 5839.71 3872.61 5576.92 4318.48 6132.95 5266.22 5226.97 3685.13 3312.06 6004.68 3361.26 6799.4 5278.36 5865.39 4427.28 6079.11 6430.39 3082.32 7440.72 3949.6 5703.6 6326.18 5661.62 6631.19 6648.68 4713.74 5626.61 5817.25 5407.78 4084.49 5061.98 6632.99 4537.6 5147.36 4419.61 7177.44 4563.46 5309.98 6553.94 5255.18 5460.65 4767.78 5463.41 5225.33 4929.75 4435.36 6045.22 6649.96 4303.19 5134.39 5784.3 4256.57 3914.2 6088.68 5937.08 6070.3 4135.08 5620.74 5233.29 4312.56 4612.06 5467.84 3306.14 4750.58 6710.88 5395.14 5235.11 5211.38 6031.67 5384.76 6138.12 4428.78 4965.89 5243.43 4152.85 5659.95 4537.14 5551.9 4453.64 5511.6 4765.72 3757.34 6261.75 6415.61 4338.08 4752.14 4687.64 4378.3 4419.71 4888.12 5037.06 4950.97 5512.16 4989.56 4094.73 5175.29 3838.47 2588.37 5842.56 5887.15 4435.51 5203.08 3087.09 5374.07 7480.41 3423.15 5163.77 4488.85 4579.69 3554.48 6496.52 5005.85 4216.17 4575.94 4938.72 3546.71 5768.57 4188.87 3735.24 6574.95 2435.33 4074.48 6333.29 4558.47 5731.57 5997.88 5662.55 5737.92 6408.83 5365.24 3930.79 4004.35 4763.96 5754.18 5180.76 3418.99 4480.95 4993.35 4409.63 5521.25 3661.9 5370.85 5949.46 3658.37 3178.54 4765.02 5376.71 4448.13 5070.29 4807.28 4867.08 4266.03 5280.69 4220.03 6923.84 5449.46 6179.96 6113.54 4662.43 6260.79 3963.76 5528.53 6799.88 3062.43 5726.66 5426.78 5652.0 2967.38 4159.35 6477.91 4237.98 6439.37 4081.97 4614.3 3532.3 5580.92 5769.98 5442.32 2221.99 4643.56 4863.01 5356.79 4778.82 5657.36 6124.08 5029.47 5053.95 5926.11 6667.68 5767.9 6515.8 6622.11 3685.13 4689.15 6790.73 4655.16 5920.32 5409.66 5251.4 3867.19 4345.67 5097.69 2908.7 5857.79 4039.91 4642.66 5276.7 5036.58 5469.47 5329.59 6119.63 5411.02 4752.9 3197.63 4287.16 5301.47 4863.96 5191.08 4062.5 5415.85 8659.64 4588.7 3766.55 5683.95 6027.62 5010.2 5765.42 6123.03 4997.83 5966.61 5711.11 5325.44 5021.88 5956.65 4597.29 4200.09 4498.25 5931.77 5151.21 5398.64 6817.57 3614.96 4477.04 3886.68 5703.74 4747.55 3056.7 4360.23 3755.95 6234.32 5293.51 4586.19 4446.06 5008.63 3450.93 5132.68 4270.74 6595.03 4558.15 6218.95 5222.16 5107.23 5136.08 5558.68 3776.94 4010.57 5629.39 2684.03 6157.04 4768.61 2261.36 5075.55 4522.21 5506.19 6719.94 4950.67 5227.59 6166.29 5453.6 5703.07 5294.77 4709.05 4630.82 4043.66 4813.08 5860.67 5990.52 4540.86 4835.83 5604.35 6316.56 3091.67 4332.87 6420.81 4715.58 5401.99 5151.52 5973.33 3583.21 5291.9 5067.46 4009.62 2511.46 3580.58 4011.37 2775.69 4785.25 3619.79 6519.43 5876.64 6306.21 5266.01 5253.37 2040.66 7016.27 5089.62 4590.55 4741.26 5869.4 4916.22 3701.16 4186.6 6022.7 4255.85 4732.09 3988.3 6136.49 6543.13 5149.72 4356.25 5776.96 4216.95 5742.74 5464.25 3821.94 4244.21 5486.48 4617.55 4947.24 3645.12 5199.44 6200.54 5424.88 5148.58 4199.45 6599.66 4055.54 5469.13 4233.8 4976.12 6098.95 5453.98 3991.42 4893.49 4388.63 4834.87 5102.75 3672.21 5760.22 5938.17 4795.43 5097.95 3573.73 5108.06 4693.52 6853.04 4745.43 3420.08 5831.96 5464.68 5591.76 4585.31 6625.18 5323.91 6293.89 5097.45 2761.07 5737.75 4983.39 5366.52 4690.55 5533.72 5533.42 4802.32 3678.08 4599.38 5246.47 4187.31 6191.29 3240.51 7422.36 5161.01 4298.15 4628.4 5832.37 6051.83 4642.93 5409.63 3973.12 4263.16 3077.84 6024.75 6109.49 5567.93 5987.42 5332.65 3764.1 6451.33 5413.31 3012.99 6400.08 4743.59 5208.14 3317.83 4450.7 3763.05 5092.24 5369.08 3101.75 4347.74 4518.04 4766.06 2081.58 4874.18 6505.78 5461.55 4270.15 6865.76 5424.46 4857.84 4908.49 2978.76 4962.21 4749.59 5884.9 4858.44 3685.65 3468.42 3876.21 4673.35 5689.26 4992.42 5297.19 4940.84 5895.77 4833.46 5750.07 5933.7 4757.74 4809.67 6045.67 4209.49 3946.28 5984.81 5439.9 5367.73 4409.27 4640.06 3875.05 3456.47 3540.11 5471.74 4652.01 5421.64 3673.28 7234.66 4886.12 4207.54 3375.28 5625.65 6419.12 6107.89 4446.84 4817.16 5660.55 5148.08 3718.69 4514.79 2216.82 4509.89 6752.75 5269.38 5607.3 2928.82 4914.45 4222.4 4698.87 4000.43 4568.41 3624.7 4912.04 4691.91 4539.07 2685.81 4475.83 4510.8 5889.35 5010.04 4394.56 4570.98 4275.07 5825.38 4185.61 4047.87 5742.47 3778.02 6552.21 5417.8 5146.37 7132.12 4836.16 5518.57 5151.11 5463.48 5730.33 5545.46 4527.99 4376.7 4543.1 5190.61 8325.01 3764.06 4440.81 5941.9 5434.47 6642.76 5829.22 4497.78 4243.79 5811.18 5433.65 4442.22 4008.15 4887.76 4669.06 4811.32 4286.49 6184.88 5829.32 4396.25 5551.95 3918.87 5549.49 5423.42 6605.86 5012.5 5435.19 3298.2 4953.1 6449.64 6464.8 4684.44 4680.94 5828.35 5799.69 5571.72 3809.69 4771.13 7051.9 4608.41 4351.38 4184.23 4144.57 5550.75 7248.4 5466.33 5280.12 4444.97 5721.05 3498.16 4209.31 4247.69 4514.39 4588.99 4321.21 4344.34 5950.45 3548.39 5713.03 3583.49 4858.51 4928.27 5052.84 4366.74 5297.16 4301.61 3184.64 5206.33 5530.49 5065.26 5653.03 6192.0 4940.28 5885.28 3004.34 5323.55 3022.6 4811.76 5375.1 5313.12 5351.56 4661.03 3984.88 5160.59 5262.35 4320.42 4255.34 5064.79 5480.3 7509.24 5896.26 4146.81 5388.78 6101.13 4573.72 5099.21 4917.99 4367.78 5636.4 4350.12 5227.02 5670.0 4232.16 5300.96 4344.51 5680.94 3781.77 5581.55 5193.01 3474.5 6550.44 3860.83 6348.03 5732.27 4523.39 5278.56 5146.37 6917.62 4013.38 5631.14 4343.78 3352.35 5263.3 4909.65 6523.86 7693.4 4326.48 4437.07 3449.37 5491.9 6405.0 4659.16 5789.55 2275.45 4633.05 4901.2 5711.62 4383.56 4990.79 3562.79 7093.13 4516.53 5818.95 4122.92 4093.99 3940.49 3604.14 4452.54 4406.05 5089.1 4028.32 5876.72 5236.43 3208.96 4884.59 5285.07 3858.06 4680.14 4083.79 4187.94 5980.59 6834.41 3796.15 6226.14 4801.8 3000.29 7216.98 5271.02 7013.17 5718.28 6242.79 4601.74 6506.86 5088.57 5580.34 5849.65 3852.6 5134.67 4165.21 5775.31 4215.0 4603.5 4936.96 4647.67 4481.76 5375.12 5452.78 4356.36 4892.44 4304.41 5578.94 7610.49 4286.17 3684.56 6579.31 6028.09 5452.36 4172.6 3804.5 6486.37 5498.42 3344.57 5318.53 4732.09 5220.76 4281.98 7165.9 5344.83 7046.11 3427.63 4863.97 6342.48 5756.75 4587.67 5599.7 4163.74 6969.28 3665.95 5698.96 4095.75 3319.67 3603.51 4298.45 5222.51 6609.84 5135.96 3834.43 5658.37 4707.06 6074.94 5491.37 4250.88 3783.54 3475.67 4792.39 7038.89 3863.67 4814.12 5067.56 6137.8 2735.53 5116.6 3747.03 2783.85 4356.49 3994.07 4526.81 4219.94 5907.46 6740.71 4264.91 5399.29 5971.22 4909.31 6522.59 4798.17 5425.98 5166.79 6479.39 2895.63 4405.42 4997.91 5079.22 5381.54 5810.77 4714.83 2711.19 5474.15 7519.2 4099.92 6355.68 4478.6 4511.7 3953.55 4304.63 5263.27 6300.92 5021.77 4173.54 3928.53 5599.29 6038.68 5046.12 3834.47 4807.4 3805.67 4590.01 6101.86 4227.41 5993.0 4803.57 5966.42 3332.49 4110.59 4706.5 5354.66 4214.44 5378.23 4787.97 4981.43 3746.36 6789.23 3989.7 4777.03 4246.61 5327.75 4609.02 4896.65 4638.18 4196.37 6448.66 4453.97 6945.98 5138.2 5783.48 4701.5 4449.98 4504.35 4771.65 4840.44 5093.82 5951.81 3924.14 6918.35 4296.69 6238.32 6804.79 6471.42 4076.59 5283.8 5369.5 4428.14 5164.1 6464.15 4479.11 4972.17 6685.4 5699.53 4222.77 6332.01 5268.38 5527.23 4805.33 7085.01 5980.95 6193.08 6069.3 5887.01 5168.35 5388.39 3728.18 5335.47 5633.61 5048.19 6799.23 4888.27 4592.15 6487.56 4854.11 4998.22 5533.19 5417.21 6602.43 3568.28 5583.61 6063.64 5996.66 7382.3 2995.67 3598.08 4599.81 5698.23 7300.58 3608.06 4923.57 6633.61 5217.95 4867.7 5484.36 4277.24 4063.9 4469.54 4314.56 5291.05 5161.1 4619.2 5606.51 5166.41 5740.65 5067.56 2596.96 6349.67 6329.53 4350.15 4139.3 6541.45 4750.49 5078.31 5391.48 4923.43 5131.15 4847.14 3950.27 5116.66 3566.79 5003.78 5374.67 6246.56 4741.28 4215.2 5069.89 4157.29 6212.15 6813.72 4783.07 4946.23 6083.28 5211.6 5806.31 3556.79 5456.71 3503.41 7317.04 6412.67 7001.83 5012.97 5589.37 5439.49 6639.64 5212.43 5454.12 4834.3 6348.54 4066.57 5642.35 6372.13 5404.01 6016.19 4124.49 3230.13 5714.25 6176.67 5325.96 4850.06 5016.02 7044.29 4234.18 4920.21 4049.16 3936.95 6153.94 6836.82 3862.77 4631.99 4740.98 3185.39 5128.77 7122.87 5797.36 4243.26 4153.84 5119.86 5089.26 5084.17 4901.44 3776.8 5096.43 6156.21 6104.26 4653.83 6171.71 4986.71 4668.88 4022.56 5522.21 5027.43 3772.3 4855.01 6208.9 3340.09 6059.93 5602.53 6061.63 2279.05 4829.35 4075.28 8137.11 5484.32 6650.77 4067.96 4824.12 7104.73 6162.3 5701.75 4264.54 3516.27 7043.44 4263.78 4263.65 4643.9 5228.75 6047.14 5009.83 5210.38 4642.2 5717.8 3629.44 3683.86 4918.76 3299.24 5293.75 4208.41 4061.6 5826.78 2603.64 5473.72 5107.0 2856.55 4553.68 6502.97 3758.22 4757.2 3205.68 4852.58 5561.74 6100.73 4745.79 4788.08 5470.04 4908.75 3971.08 6204.65 4482.9 4036.91 4593.7 4349.13 5110.11 6379.14 5216.26 3687.65 4887.52 5478.95 3851.85 6318.23 4206.98 5156.76 6357.47 6101.57 4891.38 5535.91 2949.12 5955.86 4533.37 4848.46 5412.24 2779.99 5887.38 4581.37 6942.34 5851.61 5478.11 5526.31 5030.15 3858.17 3644.78 3477.1 4078.93 5934.82 4501.78 4922.49 3572.94 5001.58 4729.42 4820.17 5244.98 3886.72 5415.45 6592.93 6350.71 2460.79 6436.74 5096.24 5039.12 3628.89 3908.98 6589.82 6328.42 7307.21 5522.75 5867.64 3619.72 4438.58 7107.63 5073.02 6545.43 6760.92 4989.2 4711.04 7144.05 4506.18 2970.9 4099.26 6542.5 4383.47 5971.21 3272.75 5262.47 5261.19 3104.96 3831.52 4258.98 6106.43 4807.35 5467.63 5666.95 3919.62 4811.22 4127.53 5210.75 4474.83 6555.44 5658.14 4508.18 6214.73 2205.51 5175.89 5361.87 4268.19 4374.74 4062.56 4532.7 4504.86 5975.23 4198.94 4473.29 4211.82 6556.26 5684.25 5438.92 6550.4 4891.67 3766.69 6818.91 3503.65 3634.5 6631.28 6571.31 4392.65 4058.87 5174.75 5932.07 4984.46 5948.71 4793.65 3856.53 4532.89 5460.89 5260.85 5742.09 2884.65 5807.46 4648.21 4393.16 3658.05 3311.29 4549.69 6423.81 6192.77 4312.15 6418.11 6015.02 5244.22 5585.14 7039.98 6456.58 4159.81 4960.64 5792.98 4385.81 4034.05 5690.96 5798.38 3862.91 4456.11 5366.11 3419.87 4824.81 5769.14 5944.3 3563.14 3381.82 5135.5 5347.9 4646.51 5851.63 4565.93 4504.52 4831.93 5788.97 3472.91 4023.93 4928.85 5868.89 3274.85 5007.21 5494.28 5610.53 5206.47 4580.06 4834.39 3926.11 5493.89 7066.96 3512.94 4467.0 4991.35 4994.65 4587.7 3787.08 5196.92 6761.81 3903.91 4568.64 4728.55 4929.6 5750.35 4489.99 4548.45 4658.11 4551.26 5730.61 7124.45 6358.93 5064.67 3894.64 3703.49 6618.21 5232.85 3717.47 6200.63 3217.67 6816.66 5079.64 6163.54 996.652 5212.37 6003.78 2628.22 5058.51 4244.49 5036.98 5513.8 4521.75 4027.63 5569.2 5350.88 5420.67 6413.15 6103.11 5048.55 6459.51 4024.31 4955.16 5844.72 3992.97 5989.05 6040.74 4054.22 7228.94 5393.65 4961.99 6551.93 4595.12 3110.13 6484.43 4625.67 3485.54 4458.64 3657.69 4583.52 3492.83 6280.13 3684.15 5832.29 2606.51 4438.76 6006.89 3814.65 3965.3 5372.82 4983.3 7778.01 5127.82 5124.17 5805.1 4125.9 4064.58 4234.88 4384.28 5113.6 4810.98 5091.22 6282.38 5640.72 5727.79 5212.92 5188.82 5615.84 4464.73 6440.38 3904.07 5556.0 5545.59 3663.0 4954.81 6304.49 5755.15 4835.97 6419.64 4057.17 2781.96 4431.23 5917.34 5601.55 4462.87 5644.81 5334.36 5630.9 4554.68 4368.28 4692.32 4945.0 3127.83 4212.15 5114.07 4385.49 4263.18 7142.95 4383.68 2617.39 5144.44 4051.18 5969.37 4928.35 5034.69 4509.46 3538.53 4680.69 6500.49 5965.58 3352.34 4050.03 4901.29 4775.04 5188.53 4120.07 4882.66 3429.57 6746.66 5410.33 4642.74 6735.97 5305.59 5416.45 4330.58 5754.6 3288.01 4904.51 4147.31 2202.77 5751.15 5950.88 4149.55 4441.22 5853.89 3380.69 4140.4 4386.8 5446.4 4725.01 5966.75 5510.9 4883.63 4505.28 4971.29 5510.45 4730.14 3994.39 6119.99 3864.92 4618.73 4128.1 4446.58 4402.17 5401.4 5053.15 5910.86 6239.68 7320.78 4834.44 5782.43 4456.26 4027.33 3873.92 5026.76 5023.41 4092.07 4546.44 5657.55 4224.3 4184.21 4700.07 5043.14 5273.37 4717.73 5072.5 5713.36 5748.9 4749.18 5553.94 3742.31 4546.96 5424.55 5134.72 4608.34 5695.79 5464.83 3622.8 5414.58 5577.41 5740.98 4346.07 4013.86 6545.99 4177.47 4218.16 2918.64 4140.92 4512.07 5984.8 5236.24 4585.04 5678.58 6570.35 4242.63 3269.54 4559.74 5836.26 6666.67 6063.44 4583.94 5046.31 3844.54 1937.5 5241.75 5849.53 4651.99 4420.11 5863.0 6127.39 4972.18 4607.18 4124.76 7200.89 4813.33 4952.52 3840.21 4081.34 4954.76 3908.56 4844.83 5244.78 3636.15 6114.89 5135.63 6384.7 4355.83 6870.97 5351.86 6056.87 5474.01 6201.86 7554.58 5166.89 3639.44 5491.63 5725.37 3868.62 5138.33 3743.76 3425.69 6711.21 4236.86 5393.76 4941.02 4983.1 6010.59 2955.36 3668.93 4009.24 7541.76 4775.49 4681.29 3220.29 3845.9 5749.6 4439.71 4141.21 5667.51 4708.31 4198.9 5431.29 4833.67 5325.91 4213.05 5157.38 6203.03 5235.87 6089.45 4732.37 5810.17 4985.3 4966.07 4400.14 3669.32 4704.92 4316.0 4287.25 4921.1 4392.75 3814.16 4271.07 4420.6 5287.25 4770.51 4184.47 6511.37 4012.92 5759.79 4598.54 5218.42 4933.49 6139.64 4896.43 5463.06 4639.8 5260.52 3185.09 5114.23 5495.0 7407.91 6015.22 4454.74 2904.46 5512.44 4826.52 5120.92 4337.32 4731.53 3763.9 4788.7 5084.5 5640.12 5329.76 3899.7 2403.72 5134.33 4147.49 4802.98 4833.55 3646.95 7224.99 6334.53 4749.96 5377.37 5652.87 5483.7 5018.69 3152.86 5952.38 3896.27 5807.52 5963.36 5230.02 5307.35 4342.18 5169.48 6016.08 4731.21 3124.7 6064.71 6102.98 6060.17 5153.18 4763.4 5902.67 5454.11 5806.61 3779.45 5784.37 3682.35 7123.04 3756.96 5906.57 4932.29 4990.23 3784.94 5499.59 3125.13 6715.73 4174.44 4564.41 6331.74 5951.86 4252.18 4659.88 3791.41 5853.12 5702.4 5069.9 5473.89 3306.84 3673.6 5265.21 4657.24 5866.42 4762.1 3987.69 6502.99 6219.34 4191.01 4475.38 4589.06 4920.88 5890.25 4216.44 3999.5 5034.05 4816.51 5345.73 4770.63 3990.94 4756.8 5477.8 3986.41 4462.35 6069.78 4241.68 6102.49 3469.18 2945.34 4489.29 5064.23 4301.93 6061.85 6449.06 4924.07 4685.4 3200.6 6240.42 5146.0 5721.14 4288.45 4577.73 4987.28 4918.64 6638.25 5078.59 4759.99 2646.13 5419.57 5162.67 5760.98 4705.68 5469.35 5384.86 4019.34 4658.24 5869.67 4311.48 4899.73 5457.66 6394.19 5973.89 5366.22 6193.73 5518.11 5087.14 3742.11 5712.35 5701.52 4743.9 6776.22 5321.17 3719.11 4467.13 3877.8 6273.6 5136.87 3667.93 5024.32 4708.17 2741.2 5790.42 3142.09 5591.77 5182.13 6110.48 6245.52 3954.77 6793.1 6016.87 4506.66 5209.55 5426.4 5763.05 5129.68 5357.39 5076.84 5247.01 4208.37 4841.7 5685.74 952.938 6740.35 4678.7 3450.07 6215.87 5191.26 6060.06 5544.27 3484.81 5308.33 4666.12 6023.07 5674.63 5340.05 5995.4 5322.11 5700.79 6710.14 4426.02 4726.2 4711.15 5188.22 4841.23 3810.68 2804.54 4357.11 5005.6 4176.32 5532.75 6949.65 3372.95 4095.83 5695.25 5676.61 5846.95 5268.15 5819.0 6347.72 3460.93 4629.02 5124.86 5914.5 6006.16 5407.96 6206.98 6562.03 4815.47 4368.12 4365.58 5214.4 4636.53 3629.49 5766.05 5117.64 3835.81 4869.48 3623.19 4906.11 4387.39 4564.1 5825.55 5509.51 4848.14 4316.5 3199.4 5254.24 4192.21 3597.43 5144.56 4158.91 5311.55 3360.86 4869.25 5545.21 4333.87 5684.05 5638.7 5813.79 4644.88 4028.22 5293.13 7350.26 3768.46 5167.53 5003.3 4168.52 5800.81 5106.46 4068.31 5166.05 5077.29 5515.73 4850.5 5866.91 6405.69 2820.07 5679.74 4825.73 4165.36 5288.33 6296.54 5797.21 6019.35 6028.63 4550.92 5146.1 6485.77 3869.39 5960.5 5393.43 6896.55 4685.65 5377.01 6470.23 6506.63 4140.04 3495.3 4697.49 5735.08 7133.44 4750.81 3825.48 4474.39 4658.59 4196.62 2809.19 4916.7 5486.89 7208.19 4549.51 3587.93 4975.85 4495.75 5323.95 6171.01 5716.42 5701.63 4620.95 5368.93 4488.39 6121.56 4927.73 4602.57 3565.32 4608.62 4071.75 4626.72 5131.77 5549.71 4410.82 6443.99 3889.98 5193.58 5399.43 5695.44 3422.21 3916.42 5429.3 5510.96 6653.07 4745.16 4697.91 4584.81 5071.98 5719.79 4371.08 7261.51 4968.14 4914.03 5086.29 5527.13 5139.18 5551.43 4278.57 3034.16 5049.99 4201.03 5001.87 4493.79 4279.44 4899.19 5058.34 5575.11 3918.94 5487.63 3852.82 4507.36 7145.73 5403.97 4795.08 6562.92 5501.73 3671.06 3612.44 4697.24 7035.54 5233.76 4683.28 4217.36 6549.8 4851.18 4871.77 5368.52 5811.26 5062.77 4884.93 6075.99 5262.79 5927.2 4419.79 5407.69 5152.78 4117.9 4753.76 4781.9 4638.09 5330.26 4441.91 5939.22 4668.8 5125.17 4271.93 4859.01 5524.45 3953.26 5459.92 6478.35 5453.77 4104.04 5589.53 5593.79 5025.42 4965.24 5196.08 4517.29 4849.5 5796.26 4603.04 4870.94 5271.88 5559.79 7168.2 3763.85 3419.07 5710.33 5001.51 5344.44 6432.8 3186.07 4967.51 4369.86 5173.82 7212.97 5490.64 5034.34 3769.2 4507.46 5036.14 5603.68 4944.51 5610.95 5532.72 3220.8 5042.75 5179.17 5579.39 5270.51 5148.1 5490.75 5224.64 5949.73 4312.48 5783.94 6370.33 5081.08 6318.25 4202.77 6864.06 6008.81 4932.56 5192.49 3487.31 6643.4 4674.9 5461.72 6599.28 6224.85 5368.66 4556.19 5648.78 6875.73 5226.42 6081.3 4983.43 5117.52 6311.89 6734.39 5942.45 4150.76 5005.72 5155.28 5388.73 5205.38 4600.71 4764.83 3957.38 4494.15 5035.71 4710.88 5300.17 4057.4 5534.23 6025.77 6815.96 5339.6 5828.25 4725.11 4215.05 3626.86 6371.96 4604.1 5076.11 5990.75 5600.21 5467.51 4625.53 4096.47 5114.67 3543.37 5353.66 2638.82 5030.33 5234.2 6379.38 6257.79 5353.23 6229.83 4468.26 5578.18 5293.37 5933.54 5464.05 5879.24 4571.74 4096.86 3622.48 4796.12 5385.86 5115.42 5482.76 4082.4 3720.7 3745.02 4211.36 5698.53 3604.31 4450.49 3856.73 3468.45 5887.71 5635.32 4526.34 4316.45 5409.08 5481.64 4598.92 5241.22 6647.08 4979.52 3422.29 4407.79 5214.63 3495.68 5352.24 3990.96 7362.42 5793.12 5836.14 5473.05 5537.34 4373.2 5884.99 5726.42 7025.09 4433.12 2549.95 3392.26 4361.24 5138.93 6406.8 7086.69 6170.9 5833.78 4436.48 5615.35 3967.76 6213.24 5987.88 4228.53 3579.59 6123.46 6142.88 4461.14 5111.26 4574.54 4949.55 1969.87 3132.34 4841.28 5507.38 6889.5 4416.87 4052.43 3980.46 4896.67 3934.11 5158.44 4466.22 6153.71 5917.08 5483.37 5418.12 5322.07 5770.07 5101.6 4282.11 4656.01 6589.13 2347.41 4542.16 5602.62 2030.03 5628.97 5527.27 5104.39 4612.13 5846.6 5327.05 5438.55 4434.65 5977.66 4523.81 5065.74 5106.33 5198.94 4028.35 2980.31 5453.2 5740.78 3148.79 5997.91 4742.82 6791.86 4820.68 4209.0 4930.72 5728.58 4887.73 6297.99 5378.24 4538.89 5817.74 5661.6 4827.61 5285.75 5385.03 5673.75 5360.67 5968.54 6263.3 4501.05 4537.03 6548.29 4114.2 4326.06 5034.46 5757.29 5469.17 5061.75 3769.24 6022.78 4087.32 6647.85 2569.12 4161.32 5161.74 7336.37 5099.9 6945.69 5118.86 4304.64 4183.4 4733.79 5758.98 4823.06 5254.49 5288.64 6828.8 6883.86 3350.99 6161.94 5057.59 4065.28 5285.6 5418.98 5615.06 5490.54 5203.54 4047.95 6142.94 5001.69 6581.56 4061.87 5383.9 3798.09 3886.56 4496.51 4511.05 6561.94 5259.21 5092.93 5934.05 4714.66 2803.01 6771.18 4984.17 5327.39 5781.62 4037.86 4138.59 5714.51 4484.78 4938.33 5157.73 5847.91 4109.44 4934.66 4984.01 4903.84 4290.49 6688.53 5209.5 6175.27 5791.25 4873.23 6731.89 5410.6 4733.41 5264.83 6348.93 6824.53 4332.64 4422.23 5232.16 6031.22 3989.26 5485.84 3618.64 6424.77 5453.69 5918.95 5432.04 5689.56 6556.86 3242.31 6099.28 3234.26 5372.25 4169.15 4778.37 3494.16 5134.17 4074.16 4904.35 5592.54 3247.97 5124.34 4904.37 4358.81 4651.64 5729.92 5016.46 6224.13 4761.84 3661.67 5517.65 4009.68 4622.73 3303.49 5256.75 6351.89 5932.28 2960.5 4298.7 4975.32 3902.48 6030.39 4905.53 3799.01 7392.65 5319.1 3757.23 4181.93 6570.43 3820.19 4979.5 4745.37 5939.29 5575.11 4052.49 5061.74 5326.03 6189.67 4948.96 5117.83 5256.82 4013.86 5165.31 4288.5 4585.37 5715.51 3721.69 3456.3 6074.39 5317.83 4256.08 5881.93 4444.0 4399.52 6182.19 7415.84 4981.81 5141.03 4970.55 8123.59 4621.33 5765.14 4541.22 4946.08 3539.68 6217.33 4696.03 4557.1 6270.59 5927.1 5876.51 4103.76 4286.61 2932.52 4603.66 3901.53 4969.68 5136.51 6815.51 5313.86 4457.05 5189.91 5777.26 5703.84 4335.79 3530.82 5797.32 4886.99 3921.27 3702.45 5265.63 4898.29 4431.06 5730.2 4830.13 5620.88 5370.9 4529.77 4325.13 6172.27 5390.33 3783.79 5078.73 5278.54 5729.0 5192.92 5275.57 4179.87 4786.66 5891.25 5370.1 5129.4 5114.51 3720.38 4655.37 5585.25 5023.61 4672.86 6530.78 5560.23 3043.77 4139.39 5237.55 3909.94 5088.64 6589.8 6920.92 3729.16 3038.91 3783.36 4067.89 3922.28 4571.57 3445.92 5236.69 4586.82 6026.04 3133.28 6200.05 5859.17 4034.41 5522.34 5771.98 4420.35 5717.45 5268.27 4645.93 5448.64 6417.61 5395.12 5783.69 5350.9 3483.61 6738.9 4460.89 4157.1 4554.24 3939.96 5910.66 4637.3 5734.07 4840.44 3997.68 4819.83 4767.54 4801.16 5121.08 2927.84 6177.68 4698.7 4605.39 2848.44 6045.26 6500.45 4907.55 4094.63 5084.76 4757.87 6636.43 5431.14 6298.8 3689.24 5178.07 5151.19 4171.02 7012.36 5028.06 4002.99 5587.3 5159.67 3161.1 5764.52 5684.88 6523.78 4645.86 4045.67 4941.52 5900.0 4262.74 4581.1 6241.77 5317.19 4248.14 5279.19 4016.6 5821.49 7050.08 5580.44 5998.13 5095.52 4746.15 4758.84 4731.37 4068.41 3976.0 6463.71 5059.37 5783.38 6264.03 5645.54 3562.8 4151.74 4526.87 5192.82 5245.95 4174.22 3573.84 6294.09 5131.07 2970.24 4121.07 5524.28 5731.43 6353.81 4150.44 3518.14 5044.68 2649.69 5899.78 5000.74 5772.57 4813.81 5244.95 4634.25 5901.8 6351.48 3830.7 6210.0 5432.4 4262.52 5992.06 8052.53 4867.12 4970.12 6044.01 6520.19 1458.87 5973.57 6241.48 6033.28 6286.27 5071.38 5616.66 5688.77 5368.28 6229.64 4220.43 6263.87 5743.8 6666.34 4645.91 6605.11 3557.46 5971.95 5652.73 3979.46 6321.97 6509.54 6119.0 3792.06 4293.3 5128.59 3572.73 4864.38 3770.22 4390.64 5150.84 4608.01 5087.97 6005.95 4308.49 4930.17 5110.27 4745.44 4085.96 5762.82 7360.12 6223.98 5462.6 5617.29 3035.06 4262.19 4597.88 4878.93 6275.25 6892.33 4505.3 4452.36 4491.26 4832.21 4511.34 5009.21 4742.35 5394.79 5290.37 5264.08 4227.66 4691.01 4594.89 5821.42 5214.71 4515.02 3463.53 6126.03 6044.69 4197.87 5658.05 5105.54 5462.1 3414.67 6032.45 5444.36 2827.92 4026.03 6908.32 3467.11 4817.75 6153.26 5637.53 3882.37 5523.81 4095.4 4718.61 5188.57 3873.79 5357.33 5252.37 4499.54 5037.58 7430.48 5640.67 5545.68 6080.69 4967.93 6369.66 5922.62 5125.45 5957.82 4188.16 6327.54 5507.07 4802.36 5466.13 5327.71 5257.38 5075.23 4975.56 7282.36 3826.01 5581.01 3928.99 6834.92 6379.33 5130.57 5090.48 5402.45 3985.93 6412.84 6071.59 2589.19 6079.55 5485.61 4993.49 5310.33 6583.37 4569.32 3688.83 3402.44 4848.98 4491.96 5184.98 4467.51 5339.82 4519.03 5460.57 5065.78 5703.34 4612.68 6668.98 6649.52 4232.33 4939.56 4747.68 5770.92 3093.38 4845.91 2002.78 5631.32 4461.67 6322.0 5793.14 4609.65 6345.2 5704.61 5410.73 4379.91 4574.03 4942.63 5850.38 7066.26 4730.97 3677.85 4677.84 4924.52 4811.11 4866.8 5314.67 6593.1 4000.51 6033.93 5011.37 5092.44 4441.44 4232.44 5336.61 3312.3 5563.09 4848.15 4439.09 5648.59 6697.45 5717.67 5515.59 3224.81 3775.38 4046.22 6457.89 4844.2 6572.17 3751.73 5555.89 4766.47 4871.1 5678.08 5872.45 4414.09 5191.29 3784.68 3717.22 6649.21 4654.92 2943.17 4880.78 5286.55 4322.56 5509.09 5625.02 5212.05 4829.77 6474.5 4444.92 6959.88 4125.75 5749.53 5247.73 5034.02 5582.28 5945.25 5181.31 3856.4 4696.06 4137.16 4937.36 5308.4 6581.13 5803.3 5537.61 6084.88 4397.06 4199.44 4053.12 4479.5 6261.67 3435.13 4431.46 4521.42 4610.55 3207.84 3977.98 6043.34 4128.93 4959.72 4712.17 3808.04 4723.71 4405.61 6126.5 4034.88 6007.1 5488.96 3188.21 5128.03 3720.92 5087.3 6139.74 4975.57 6150.31 3057.3 5873.62 3868.69 4996.91 5379.52 3920.44 3768.62 5563.47 4966.74 5651.46 4066.36 3162.27 6185.73 5516.37 5432.2 4612.4 5217.62 6178.19 4746.19 4616.81 6381.58 3282.57 5212.2 4798.13 5108.42 4630.5 6296.36 4432.32 4451.76 7885.41 5782.25 4104.97 4575.72 5114.61 6118.13 3374.62 4420.3 4926.62 3917.09 6009.93 4083.1 5270.1 5130.56 4947.64 6305.9 4542.62 3470.69 4859.95 4132.08 5522.18 5223.1 3873.72 4850.49 4592.49 3625.98 5479.86 4702.32 4763.04 5971.9 4413.56 3746.62 4532.67 4876.37 4769.62 5260.13 4649.5 4810.74 5985.75 5475.83 6189.29 5984.55 5672.46 3228.27 4721.98 5252.82 3543.98 4142.1 5056.26 5878.55 4014.44 6604.72 6002.77 3794.47 4967.02 4614.49 5400.69 4462.5 2807.46 5573.31 5004.68 4179.8 4023.88 3488.34 5348.11 5428.24 5108.84 3511.5 4582.12 5067.92 4520.14 5357.14 5919.27 4850.95 4793.06 6637.38 6188.33 6111.23 6916.18 5786.06 4137.41 5447.74 4450.51 6033.72 3692.99 3851.47 6213.74 4959.94 2329.93 1635.31 6938.87 5639.4 4083.24 6520.96 4806.99 3771.91 3839.0 5715.25 4362.94 4611.21 3354.94 4404.87 5237.27 5767.65 4750.76 4907.03 5497.27 4081.77 4948.21 2181.29 4987.01 4202.12 6332.64 2694.25 6492.44 4613.32 3482.73 3996.93 4957.99 4063.26 4997.89 5093.28 6131.52 6009.88 4699.77 4981.55 5093.41 5144.23 6188.62 6153.07 4414.06 5908.57 5944.52 5050.2 5316.05 2513.38 4821.41 4908.32 3995.08 5616.11 5019.84 3900.93 5784.38 4149.17 4329.8 5728.27 3074.49 3053.19 5202.33 3956.24 7558.99 3393.59 4032.06 5043.14 5333.04 5445.91 4521.99 4812.59 6842.54 7115.67 5675.45 3361.11 6038.56 5329.84 5599.16 4577.98 5658.35 4487.51 5886.81 6805.02 4295.25 7394.47 4729.45 5374.09 6271.22 5244.47 3421.81 5378.75 3920.64 6186.24 5822.7 3780.07 5282.67 4159.89 5466.49 4038.17 5146.69 5007.41 4907.48 4369.87 5412.07 5512.57 4813.55 5856.43 3465.03 5349.85 5799.86 5172.1 4469.82 6545.78 4870.14 4695.7 2932.2 5105.72 4082.01 5003.49 3964.03 4216.33 5832.72 5617.91 4721.2 4706.31 6265.48 4735.99 4203.68 4739.56 5145.39 3352.46 6351.95 5195.09 5345.05 5200.1 3997.52 7679.2 4881.51 4311.92 2626.41 6729.99 6842.35 5464.34 3621.63 4777.96 5801.89 7296.47 5742.39 4924.53 4499.52 4433.23 4813.24 4028.13 3874.12 4457.73 6476.35 3113.64 6260.58 4067.24 6139.9 6571.26 5580.95 4313.38 3549.92 6598.99 5250.56 5246.81 5089.1 5888.95 5394.78 3463.34 5169.09 5122.38 2853.68 5262.85 4998.37 6559.82 3879.83 5342.9 6565.95 5733.12 5043.34 4246.24 4600.81 5354.48 5640.63 4900.26 6261.13 4167.55 4720.34 4865.11 5510.89 4731.16 6470.87 4495.33 4131.08 5747.9 5178.55 3864.19 4287.93 6203.24 6818.23 4488.41 6679.12 5652.19 5806.74 6578.62 6284.12 4796.04 5229.56 5296.05 6011.4 4672.34 6052.22 5376.41 5003.63 4747.24 4944.08 4380.86 5576.16 5269.39 4305.35 3308.75 5210.22 4439.17 2451.27 3903.9 4444.95 5161.02 3124.49 6081.35 5003.81 6262.18 3818.37 4701.03 6225.05 5434.04 5125.53 4444.54 5779.9 4909.74 5310.33 5299.03 6664.54 5161.73 3922.98 5259.48 5254.93 4803.4 6833.5 6608.94 2613.78 4780.16 5417.07 3834.01 5738.37 6789.66 4739.41 5759.19 5847.27 4490.2 4304.75 5480.86 4950.07 4720.22 5827.3 6036.99 3633.58 2468.16 3825.98 6294.14 4339.97 5203.75 3906.41 4691.15 2459.88 4512.6 4210.24 5470.67 5901.71 5225.11 5252.22 4962.35 6436.29 5402.81 4328.76 4919.13 5168.97 4124.33 5783.88 5002.38 6705.93 5449.09 5502.14 4605.61 4465.56 5386.95 5332.11 5315.71 6158.93 5081.65 4823.14 5438.5 4621.32 5699.4 3878.8 5237.76 4698.94 3948.21 4286.84 5669.15 5263.86 3330.85 5056.32 5533.52 5410.33 4060.17 5302.53 4909.13 4287.61 5648.02 4604.34 4863.27 5677.42 4929.35 5606.22 3943.77 5242.38 5459.52 4609.98 5566.5 5663.36 4276.59 5579.04 5405.6 5994.21 3929.35 5403.81 5082.25 6964.78 4374.05 5036.84 4565.36 5813.68 4025.08 4008.67 3618.53 4770.21 8013.28 3846.55 3796.73 3082.16 4644.68 5656.84 5416.41 5312.2 6760.64 4706.59 5734.84 3982.31 5551.79 4582.24 3916.15 2832.83 4474.96 4084.87 3010.1 5259.29 3584.05 4589.22 5087.03 4818.53 4667.84 5584.64 4123.08 6224.64 4260.38 4636.45 3799.55 4932.27 5638.51 6793.49 3563.33 6060.19 5536.0 6786.37 4333.23 5145.13 3747.96 5561.63 5940.5 4358.06 5093.51 5647.93 4280.92 6201.49 5154.74 4696.92 6437.99 6898.8 6540.57 4893.72 6004.72 4072.4 5373.78 5345.65 4489.18 2489.44 5863.36 4632.75 4752.94 4994.98 6423.96 6058.13 5894.69 6988.4 6635.51 6051.35 3999.81 5543.67 4867.13 6377.45 2701.42 4502.12 5442.79 5051.39 6673.92 5151.68 4884.94 5362.15 4455.61 4738.72 4752.31 5240.97 5569.85 4884.93 4759.38 6960.97 4287.15 4523.9 5282.51 5504.65 5669.41 5732.11 5040.9 5596.68 4868.66 4004.39 5159.9 5283.65 2892.36 5943.61 5981.54 4248.58 5911.29 4542.25 4694.27 2515.5 4849.21 5177.88 3793.83 6981.47 5367.05 4758.76 4790.63 4088.72 3945.62 4916.75 5097.85 6379.3 6189.04 4221.03 5189.4 5082.66 4550.77 4337.93 3550.88 5201.3 4345.51 4048.73 6223.33 3860.8 5438.6 5611.29 4521.88 6568.45 5004.22 4601.54 7263.57 5705.96 3832.09 5267.65 5739.69 6632.04 5360.88 7360.62 3166.37 4977.64 4985.45 4983.56 5699.51 4714.52 5499.37 4883.13 4836.76 5333.16 5551.09 3950.53 5755.98 4501.1 5581.47 4384.91 6550.61 4987.01 4713.56 6094.34 6779.82 6210.48 4182.05 3865.5 3255.93 6853.07 6327.61 4633.59 5733.59 5575.8 5268.93 3695.72 6874.6 5106.9 5306.31 5523.96 4223.53 4733.37 4535.94 3037.72 5126.08 5604.0 3760.4 4951.02 3919.47 4602.7 3783.35 4037.16 6395.63 4987.48 5479.17 5020.37 4414.23 5233.88 4785.55 5245.4 6189.81 4449.73 5647.11 3743.85 6236.46 5342.17 5015.67 3795.63 4576.71 6538.04 4894.15 6157.59 5848.41 4090.28 4246.83 7370.52 4726.5 5467.05 3724.23 5103.3 4963.88 5888.94 4727.98 5175.88 4122.2 4516.26 4790.16 3509.34 3731.58 3647.26 5369.42 5207.08 5205.53 4587.19 5543.05 6028.89 4888.17 5392.85 5077.2 4274.05 5275.27 4277.54 5529.09 4531.46 5925.82 5448.68 4739.5 4072.95 4491.62 
SCALARS Velocity float 1
LOOKUP_TABLE default
1.12309 1.62907 2.18246 1.59248 1.57299 1.14018 1.08717 1.06223 1.1192 0.689242 0.83118 2.09367 2.24925 2.28061 1.77539 2.0415 1.18481 1.35759 1.4502 1.44326 1.3784 1.41376 1.24042 1.25193 1.36487 1.23425 1.30439 1.17972 1.22258 1.24161 1.17934 1.20119 1.20087 1.21852 1.21512 1.24554 1.2157 1.19574 1.22497 1.19489 1.22167 1.4437 1.45715 1.43296 1.50255 1.50887 1.58481 1.9933 1.32641 1.632 1.45729 1.46447 1.62415 1.31308 1.13226 1.14171 1.15485 1.25907 1.07214 1.59885 1.79535 1.79725 1.44224 1.51342 1.3681 1.46818 1.15932 1.31445 1.4202 1.24357 1.27225 1.32436 1.23145 1.14884 1.31143 1.27294 1.22255 1.2353 1.16467 1.23404 1.2337 1.23035 1.22025 1.22754 1.2219 1.23905 1.2157 1.21969 1.23003 1.20204 1.21603 1.29656 1.22673 1.19178 1.28549 1.09453 1.12436 1.41174 1.39191 1.436 1.42784 1.45263 1.40168 1.3981 1.50308 1.2899 1.19031 0.998412 1.00312 1.54675 0.929829 1.20813 1.57069 0.949728 1.0304 0.969908 1.00222 1.03945 0.905492 1.07861 1.10681 1.12958 1.19315 1.31234 1.40361 1.64135 1.84388 1.43224 1.39425 1.4043 1.48702 1.23108 1.3407 1.17355 1.27517 1.3071 1.23887 1.31011 1.25132 1.25489 1.27488 1.20991 1.23484 1.17198 1.24236 1.22989 1.22115 1.22806 1.2467 1.21429 1.21967 1.19444 1.23029 1.24367 1.14606 1.4607 1.28251 1.46263 1.20308 1.3627 1.21015 1.38911 1.4577 1.29779 1.23107 1.31912 1.07688 1.31625 1.16265 1.41363 1.1519 0.988617 1.1051 0.961379 1.25658 1.20198 1.04628 1.02042 0.992871 0.959206 0.933691 0.926526 0.743207 1.36642 1.11145 1.32758 1.37814 0.910842 1.28311 1.10162 1.43118 1.22046 1.2494 1.18164 1.17709 1.38624 0.994208 1.22355 1.27307 1.21462 1.31635 1.23912 1.22582 1.28024 1.20986 1.25594 1.19926 1.24259 1.2318 1.22235 1.22439 1.2595 1.22622 1.21124 1.1836 1.21701 1.09917 1.18904 1.38557 1.32378 0.959104 1.33231 1.40545 1.46139 1.36941 1.38134 1.00778 1.43767 1.31831 1.36204 1.08061 1.10839 1.4937 1.07149 1.46547 1.2896 1.19769 1.18684 1.24806 1.19682 1.13131 1.09302 1.06793 1.05455 1.04562 1.07054 1.01302 1.02732 0.991983 1.04269 0.962013 1.14545 1.3795 1.15699 1.10399 1.11067 1.15025 1.16523 1.18531 1.15804 1.30674 1.25734 1.36047 1.05487 1.12303 1.26704 1.26615 1.16002 1.27273 1.35879 1.21756 1.23167 1.24117 1.21384 1.18775 1.24955 1.20229 1.14941 1.22552 1.20967 1.2226 1.2464 1.2788 1.21606 1.19819 1.29957 1.16664 1.44406 1.29151 1.32573 1.35687 1.40612 1.32132 1.18791 1.13683 1.52252 1.42163 1.40122 1.32331 1.32673 1.18109 1.18185 1.12664 1.07401 1.24781 1.22748 0.790526 0.993627 1.04271 1.28295 1.43376 0.944116 0.799287 0.681094 0.96162 1.09963 1.05699 1.18081 1.09818 1.02432 1.02474 1.03641 1.03889 1.05258 1.14076 1.18426 1.23637 1.08678 1.01725 1.08884 1.22049 1.17457 1.21895 1.02045 1.1092 1.23639 1.238 1.20097 1.30133 1.30945 1.1571 1.21409 1.23002 1.20512 1.1869 1.19004 1.1797 1.21712 1.23049 1.23598 1.17098 1.23235 1.25215 1.16512 1.16482 1.30363 1.35295 1.31736 1.24096 1.29239 1.53444 1.42477 1.33057 1.36317 1.33366 1.22382 1.16898 1.07491 1.14842 1.33931 1.21531 1.01663 1.01532 1.04527 0.877627 0.962596 1.06061 0.981881 1.21399 0.651878 0.765065 0.734044 0.709052 0.893125 0.891268 0.796559 0.804612 0.994013 0.972002 0.871536 1.00711 1.0203 1.04327 0.990739 1.13951 1.13474 1.11359 1.09544 1.09488 1.10261 1.06335 1.05594 1.19654 1.03665 1.10277 1.19989 1.09248 1.01014 1.0476 1.1407 1.26293 1.22232 1.2257 1.22446 1.24895 1.20588 1.30819 1.22463 1.16136 1.1335 1.13053 1.21423 1.20721 1.18851 1.17966 1.16881 1.20514 1.24032 1.23962 1.2486 1.23743 1.2221 1.17093 1.24133 1.22335 1.15945 1.1668 1.24151 1.19323 1.30841 1.22293 1.1615 1.13454 1.20846 1.25219 1.34907 1.12576 1.33053 1.26383 1.22139 0.9675 1.0907 1.06172 1.18249 1.07643 1.01044 1.04133 0.939582 0.904068 0.957133 1.08527 1.06912 1.29265 1.20842 1.2539 0.953568 0.973005 0.781813 0.629234 0.87587 0.77043 0.853867 0.859603 0.842047 0.820725 0.854323 0.848561 0.854736 0.92371 0.940636 0.88431 1.08287 0.96252 0.960746 1.09942 1.24921 1.15024 1.10738 1.07383 1.09196 1.10272 1.07823 1.06243 1.05213 1.05647 1.05465 1.10781 1.19825 1.3538 1.20553 1.24078 1.16063 1.28351 1.14177 1.28533 1.21889 1.17403 1.14778 1.21543 1.20766 1.24004 1.1864 1.16826 1.18616 1.16132 1.14025 1.20099 1.13786 1.23275 1.17999 1.2437 1.19636 1.21882 1.21469 1.16593 1.35323 1.2079 1.18052 1.16623 1.15762 1.17338 1.31465 1.00839 1.25005 1.23445 1.22292 1.12866 1.07187 1.14519 0.997608 1.03893 1.0871 1.00812 1.02926 0.988853 1.0032 1.12308 1.17499 1.13244 1.01508 0.993667 1.02535 1.06998 1.02046 0.98603 0.838429 0.896664 0.924791 0.869986 0.862955 0.844525 0.83205 0.82723 0.849275 0.871944 0.922656 0.911426 0.925074 0.954551 0.963207 0.998538 0.832077 0.919953 1.11898 1.04956 1.06895 1.09528 1.09848 1.07997 1.06507 1.03466 1.14915 1.35372 1.43033 1.1169 1.26779 1.11748 0.995135 1.23138 1.11771 1.21547 1.18622 1.23563 1.23709 1.24279 1.16959 1.19379 1.19867 1.21319 1.15129 1.21244 1.13369 1.22745 1.24383 1.19009 1.14755 1.2069 1.21824 1.26437 1.19178 1.20329 1.20194 1.22636 1.20913 1.20302 1.17765 1.18583 1.33188 1.10744 1.17538 1.16688 1.262 1.26821 1.09491 1.05118 1.03583 1.02563 1.01189 1.01051 1.00329 1.00144 0.989386 0.98025 1.04521 1.23725 1.14088 1.02335 1.00885 1.04044 0.927075 1.15803 0.915913 0.765141 0.894814 0.867621 0.855139 0.870475 0.854322 0.855173 0.879768 0.878402 0.863693 0.853476 0.852373 0.897285 0.88682 0.937617 0.956511 0.964945 0.984884 1.00878 1.02225 1.03279 1.02139 1.11369 1.11079 1.07885 1.05776 1.04143 1.0087 0.974867 1.13325 1.06311 1.02893 1.16196 1.18986 1.29518 1.27078 0.921677 0.899048 1.23101 1.22148 1.20204 1.1981 1.15851 1.16984 1.17791 1.20682 1.21669 1.26976 1.12793 1.20428 1.2003 1.19088 1.22287 1.15158 1.11191 1.12199 1.21466 1.18077 1.14515 1.22464 1.23247 1.23279 0.997941 1.09204 1.11975 1.3179 1.2751 1.22626 1.21235 1.05322 1.19025 1.284 1.29638 1.17049 1.04982 1.07844 1.10153 1.06101 1.04335 1.02511 1.05708 1.00808 0.997293 0.995437 0.991209 0.915341 0.881383 0.917765 0.314902 0.768241 0.862008 0.877165 0.891836 0.882783 0.86094 0.833401 0.834586 0.844595 0.877044 0.814844 0.819824 0.789795 0.862566 0.865166 0.867009 0.872962 0.881477 0.889253 0.867389 0.856465 0.834715 0.865566 0.896665 0.950641 0.912026 0.961662 0.955688 1.01997 0.986067 1.00499 1.02058 0.982356 0.915558 1.06309 1.10569 1.06763 1.04429 1.01053 1.03245 1.09367 1.08434 1.08808 1.14895 1.17338 1.23731 0.970943 1.29458 1.15379 1.22275 1.15527 1.2963 1.25015 1.23409 1.19823 1.21671 1.17815 1.20368 1.19851 1.27394 1.15932 1.21137 1.19927 1.18456 1.22201 1.21432 1.22416 1.21196 1.24181 1.21853 1.19797 1.16779 1.20471 1.30874 1.14863 1.25505 1.12968 1.1436 1.12609 1.16226 1.29374 1.20267 1.25234 1.08737 1.16836 1.36772 0.967221 1.09849 1.1111 1.14391 1.10105 1.08656 1.03825 1.00208 1.03211 0.982314 1.00887 1.04262 0.992925 1.07105 1.03152 0.976412 0.629113 0.968996 0.663685 0.839297 0.883023 0.913111 0.883597 0.897499 0.83981 0.873658 0.865874 0.830615 0.820209 0.768554 0.786048 0.737397 0.883919 0.894316 0.87438 0.885562 0.882651 0.894319 0.873456 0.87517 0.879191 0.866 0.819016 0.836444 0.812281 0.788337 0.806861 0.824185 0.882772 0.925865 0.942142 0.963757 0.977822 0.967123 0.984709 0.960148 0.987893 0.924858 1.19297 1.09667 1.0732 1.03273 1.04913 1.08421 1.10996 1.26612 1.18254 1.17643 1.16993 0.889099 1.20758 1.0607 1.19829 1.11424 1.07277 1.19916 1.20961 1.18142 1.17721 1.16114 1.19523 1.20323 1.16662 1.21111 1.18905 1.19106 1.20801 1.22145 1.22132 1.19335 1.21201 1.17407 1.1797 1.18987 1.14916 1.22201 1.13696 1.12744 1.19193 1.18384 1.13357 1.01835 1.1216 1.14802 1.34999 0.999985 0.920971 1.11839 1.1433 1.10395 1.10758 1.09127 1.07292 1.05891 1.03134 1.02515 1.02283 0.954064 0.995191 1.04856 1.00972 0.987322 1.06171 0.684509 0.883409 0.940422 0.899748 0.90736 0.887214 0.86234 0.864121 0.859491 0.76868 0.828168 0.824324 0.73442 0.760901 0.537838 0.73549 0.745051 0.428017 0.698923 0.854427 0.899111 0.869472 0.889619 0.880124 0.873984 0.847758 0.858449 0.85057 0.835004 0.828831 0.776018 0.782012 0.763236 0.88027 0.826553 0.916159 0.966173 1.01371 0.976372 0.977233 0.973818 0.959129 1.03332 1.12158 1.13161 1.08851 1.03314 1.07556 1.04157 1.00846 1.06575 0.979216 1.18603 0.995439 0.972364 1.26828 1.19971 1.17267 1.12009 1.21962 1.18657 1.25807 1.18563 1.26403 1.16349 1.21631 1.17628 1.19729 1.21702 1.22241 1.17538 1.1811 1.17679 1.1865 1.16857 1.21957 1.16908 1.15082 1.13005 1.11932 1.04485 1.14603 1.13743 1.15739 1.22539 0.944475 0.966177 1.0764 1.13748 1.09307 1.03708 1.067 1.09382 0.947887 1.1119 0.99857 0.997371 0.936458 1.07081 0.53163 0.682266 0.78438 0.863323 0.866391 0.876526 0.853863 0.854859 0.844043 0.744434 0.924087 1.14829 1.12568 0.624016 0.683847 0.652616 0.709079 0.762622 0.807686 0.833013 0.872169 0.84636 0.826957 0.833747 0.832047 0.811818 0.833762 0.821151 0.834849 0.781036 0.828154 0.870047 0.99157 0.990771 0.928818 0.970555 0.992594 1.0217 0.980527 0.991842 0.974228 1.01031 1.02039 1.21256 1.16747 1.07941 0.877274 0.967644 1.05861 0.858879 1.02599 1.05812 1.31761 1.15485 1.1858 1.15719 1.15752 1.09251 1.14523 1.12905 1.2368 1.26769 1.23928 1.21843 1.15867 1.23641 1.1575 1.12928 1.18749 1.1896 1.20985 1.22699 1.19178 1.18437 1.18344 1.18095 1.17594 1.19612 1.17398 1.1793 1.10624 1.12006 1.17686 1.13932 1.19204 1.1165 1.08947 1.08409 1.10963 1.15793 0.848786 0.939999 1.08509 1.1612 1.05835 1.11134 1.01236 1.0749 1.13965 0.784228 0.982094 0.879043 0.915422 0.872463 0.957367 1.01169 0.803125 0.840318 0.873672 0.910271 0.88948 0.876265 0.885288 0.85369 0.828982 0.820967 0.800231 0.809559 0.745822 0.888088 0.916938 0.80593 0.711432 0.766627 0.716681 0.717027 0.751048 0.807142 0.673399 0.625306 0.724884 0.802001 0.781243 0.791289 0.838073 0.876191 0.848781 0.856665 0.815534 0.777703 0.775524 0.787986 0.77217 0.679022 0.749527 0.967897 0.975463 0.964719 0.964109 0.961028 0.975718 1.04064 1.00843 1.03216 1.08902 1.03254 0.987356 1.03555 1.07513 1.21093 1.15952 0.968348 1.01556 1.24539 1.03478 1.15691 1.3878 1.23043 1.16197 1.10729 1.10277 1.1056 1.14916 1.12908 1.19339 1.19171 1.18513 1.14954 1.15644 1.19178 1.19842 1.17824 1.21326 1.17534 1.17609 1.17952 1.16473 1.15945 1.18553 1.17851 1.14545 1.12497 1.12736 1.12631 1.18481 1.20389 1.19255 1.20884 1.1928 1.18292 1.20997 1.07126 1.10875 1.15362 0.981746 1.10354 0.985144 1.09915 1.13418 1.11752 0.858624 0.971039 0.901254 0.809988 0.896061 0.957406 0.922468 0.843021 0.868988 0.907648 0.912995 0.8559 0.824699 0.835064 0.821142 0.805255 0.81319 0.806601 0.825558 0.827051 0.851285 0.815547 0.778721 0.812162 0.744713 0.721011 0.757906 0.735494 0.778826 0.675599 0.962608 0.660134 0.65644 0.625286 0.645081 0.69539 0.781019 0.803046 0.806286 0.821118 0.813965 0.790898 0.770263 0.768069 0.734857 0.733494 0.737587 0.696792 0.704141 0.613498 0.55966 0.580679 0.64349 0.908299 0.960192 0.917393 0.799896 0.86263 1.12712 1.01116 0.956395 1.08057 0.901954 1.21836 1.10567 1.1247 1.04029 1.62521 1.06855 0.85072 1.29353 1.10287 1.11424 1.02962 1.0495 1.2021 1.13316 1.11941 1.1213 1.10981 1.12607 1.14634 1.09359 1.04879 1.16451 1.17807 1.20014 1.15322 1.14912 1.1709 1.16215 1.18681 1.20936 1.17578 1.18091 1.17771 1.17393 1.19831 1.18539 1.15477 1.13582 1.1269 1.13538 1.21685 1.20998 1.18971 1.17283 1.11406 1.18455 1.21591 1.09997 1.12194 1.08891 0.984297 0.999646 1.1193 1.07843 1.09396 1.21105 1.18054 1.13155 1.21479 0.952282 0.926545 0.994992 0.788593 0.916422 0.851956 0.863432 0.830995 0.837956 0.82566 0.866091 0.883019 0.891682 0.873959 0.889445 0.844535 0.815544 0.793354 0.79556 0.813624 0.820911 0.822821 0.824199 0.781639 0.735307 0.694157 0.703241 0.629275 0.681463 0.68672 0.659636 0.600827 0.664159 0.645678 0.7073 0.63134 0.706031 0.711285 0.660668 0.694319 0.610234 0.592136 0.70776 0.689759 0.719507 0.735564 0.802063 0.798906 0.814313 0.786183 0.798544 0.771456 0.733766 0.708903 0.669699 0.682091 0.635283 0.636423 0.626766 0.620643 0.747183 0.750826 0.941497 0.965589 0.9026 0.831501 0.831831 0.93636 0.702759 0.945869 0.984809 0.824801 0.791428 0.924094 0.770748 1.02153 1.14113 0.929762 0.856777 0.876008 0.796974 1.09704 0.979099 1.09029 1.0871 1.06019 1.01421 0.923879 1.1907 1.15683 1.13555 1.05818 1.13492 1.13836 1.19303 1.20864 1.15558 1.14878 1.16928 1.17339 1.19642 1.17724 1.17984 1.18194 1.21457 1.19653 1.1654 1.15821 1.15191 1.13943 1.14027 1.13264 1.21348 1.0892 1.19332 1.18571 1.13008 1.15879 1.22982 1.09896 1.08139 0.99181 1.10224 1.10109 1.03385 0.93719 0.99912 0.856433 1.1126 1.21394 1.22757 0.878591 1.04053 0.972278 1.0899 0.850085 0.785026 0.822236 0.817312 0.85837 0.845168 0.878874 0.866764 0.799717 0.775283 0.758293 0.770498 0.786101 0.81297 0.809442 0.782404 0.727737 0.767968 0.712284 0.696192 0.698553 0.674366 0.65181 0.597761 0.635239 0.614202 0.488516 0.56634 0.47657 0.556305 0.56098 0.606394 0.815536 1.68841 0.677094 0.763725 0.531667 0.6489 0.501581 0.527976 0.58233 0.714274 0.746348 0.779336 0.763332 0.744136 0.734621 0.710348 0.712878 0.683458 0.632894 0.603932 0.643757 0.798169 0.835021 0.930462 0.894048 0.851052 0.795393 0.754092 0.842274 0.98427 0.723756 0.980695 0.948498 0.807632 1.01849 1.28644 1.07779 0.866612 1.00139 1.1078 1.07739 1.15519 1.10984 1.09854 0.990364 0.92195 1.2337 1.1548 1.17565 1.1162 1.15557 1.15395 1.18121 1.09899 1.06104 1.20611 1.18481 1.14736 1.17326 1.23027 1.15374 1.19452 1.18483 1.18707 1.18473 1.15641 1.15693 1.14918 1.15081 1.13614 1.22343 1.10831 1.1668 1.04551 1.13422 1.15535 1.19743 1.13177 1.14678 1.08256 1.04737 1.04613 1.07296 1.11895 0.829899 0.971411 0.937298 1.17832 1.57781 0.831338 1.00858 1.07037 0.945631 1.01083 0.885001 0.809098 0.857802 0.890004 0.883152 0.812422 0.782272 0.703739 0.740991 0.735457 0.762752 0.772738 0.761455 0.753215 0.699646 0.689529 0.669242 0.667585 0.611195 0.624877 0.626389 0.621139 0.606321 0.585316 0.474515 0.672019 3.06996 1.39253 0.437273 0.815763 0.600865 0.391609 0.515603 0.358413 0.488629 0.687751 0.745639 0.72541 0.710658 0.724408 0.699755 0.663733 0.658555 0.590152 0.73126 0.845759 0.854757 0.946481 0.916945 0.853341 0.888511 0.862679 0.820664 0.906774 0.885868 0.93873 0.949674 0.912288 0.859952 0.959526 0.848545 1.10269 0.952119 1.1594 1.17288 1.17123 1.14265 1.13931 1.1072 1.06005 1.00219 1.03987 1.15613 1.21934 1.11572 1.16168 1.13309 1.16334 1.18277 1.17365 1.25838 1.20899 1.18498 1.14653 1.17244 1.22886 1.20293 1.18374 1.21613 1.19188 1.1864 1.18046 1.1465 1.16 1.15965 1.16267 1.15786 1.16246 1.14028 1.22283 1.12911 1.17519 1.09038 1.1745 1.14325 1.06321 1.05704 1.06138 1.08948 1.06499 1.08347 1.09462 0.998348 0.920672 1.09362 1.08527 0.763441 0.904582 0.976267 1.00386 0.998906 1.02483 0.954517 0.927275 1.05399 0.881764 0.848003 0.910232 0.885519 0.947311 0.885346 0.683478 0.76177 0.761245 0.751299 0.747096 0.735375 0.724555 0.705499 0.685983 0.663713 0.638397 0.63324 0.617561 0.575842 0.534354 0.680935 0.405323 0.471991 0.621586 0.557583 1.28175 0.506294 0.772276 0.517362 0.407739 0.426807 0.683517 0.70575 0.675846 0.757985 0.734543 0.734344 0.683268 0.667031 0.659958 0.59816 0.818107 0.935108 0.949054 0.986286 0.94529 0.924562 0.927091 0.905808 0.897098 0.901886 0.879295 0.945463 0.935498 0.956935 0.920357 0.93199 0.948086 0.93613 0.994112 1.17811 1.16996 1.14001 1.04245 1.08191 1.16141 1.42316 1.13767 1.15312 1.15059 1.14339 1.17586 1.18092 1.16999 1.17294 1.20339 1.19149 1.17638 1.21631 1.1848 1.18048 1.19794 1.19096 1.18094 1.16711 1.1642 1.16107 1.16262 1.15473 1.17185 1.17195 1.15289 1.13632 1.15124 1.19815 1.19318 1.11304 1.12597 1.04545 1.05093 1.12271 1.08083 1.09432 1.06069 1.07867 1.06361 1.02252 0.945424 0.949779 0.985575 1.01997 1.08908 0.962672 0.953939 0.979467 0.989397 1.01507 0.902741 0.880452 0.883934 0.956151 0.903787 0.990465 0.823941 0.927291 0.932063 0.68322 1.09709 0.78127 0.751112 0.761877 0.740058 0.731493 0.712315 0.677481 0.657254 0.654714 0.66297 0.660602 0.654467 0.626844 0.668628 0.53436 0.503628 1.12286 0.506982 0.689504 0.488072 0.484274 0.409321 1.38506 1.08074 0.597987 0.770881 0.80761 0.776145 0.724934 0.735649 0.736746 0.7023 0.701768 0.665828 0.682984 0.65025 0.890419 0.985096 1.03002 0.943565 0.947218 0.910038 0.900907 0.898305 0.914064 0.949312 0.933245 0.956636 0.999667 0.997248 0.936139 0.970298 0.966676 1.00235 0.935114 1.10892 1.08616 1.09905 1.1873 1.13969 1.055 1.0835 1.17517 1.08577 1.14336 1.09201 1.17087 1.16616 1.15083 1.17928 1.18763 1.17459 1.17268 1.19519 1.19146 1.19672 1.16869 1.17649 1.20907 1.19461 1.18644 1.1909 1.16673 1.16835 1.15834 1.16006 1.15442 1.17228 1.15282 1.14489 1.15222 1.17787 1.16907 1.18075 1.20459 1.13874 1.09797 1.053 1.13519 1.10944 1.09562 1.05664 1.04258 1.03229 0.959167 1.02273 1.04438 0.951077 1.04346 1.02148 0.991765 0.860889 0.844807 0.741521 0.749913 0.882329 0.919915 0.830774 0.809059 0.760605 0.730849 0.718295 0.653394 0.706157 0.74078 0.665186 0.674706 0.730179 0.60979 0.538994 0.578811 1.04652 0.966765 0.5164 0.372749 0.446975 1.2758 0.908506 1.21429 0.857499 1.09579 0.813888 0.744525 0.755309 0.74107 0.732215 0.702547 0.72666 0.708725 0.717174 0.926435 0.686801 1.04429 1.01548 0.945579 0.894525 0.903652 0.919622 0.911573 0.936895 0.919073 0.935874 0.992852 0.979286 0.986814 0.992899 0.964623 1.05763 1.08761 1.09194 1.15671 1.12762 1.1215 1.18058 1.10533 1.10455 1.11962 1.17401 1.16921 1.17007 1.1589 1.18119 1.19602 1.18296 1.17272 1.19082 1.18878 1.19799 1.16449 1.17642 1.15767 1.18729 1.18917 1.15307 1.16935 1.17661 1.21253 1.16254 1.15671 1.18442 1.15397 1.15383 1.17168 1.09355 1.13447 1.19074 1.12902 1.10797 1.21948 1.21212 1.13251 1.1444 1.0634 1.05957 1.04488 0.927372 1.00918 0.996291 1.00234 0.952919 0.942806 0.954697 1.07895 1.00355 0.956128 0.962897 0.8942 0.905361 0.902423 0.84129 0.794516 0.779844 0.915992 0.895516 0.844701 0.809153 0.837254 0.777036 0.818516 0.711919 0.707974 0.760378 0.672267 0.658505 0.703282 0.690009 0.716293 0.658839 0.630563 0.646263 0.747201 0.148999 0.571208 0.525037 0.943916 1.26199 0.913901 0.796917 0.806783 0.767191 0.714796 0.723527 0.730679 0.736881 0.739306 0.809165 0.788463 0.925568 0.911151 0.752636 0.963766 0.952531 1.07774 0.944093 0.866655 0.834353 0.903586 0.913322 0.923248 0.922005 0.922285 0.929561 1.00767 1.32649 0.972395 0.980771 1.00724 1.07486 1.08101 1.09856 1.10243 1.15613 1.03801 1.09928 1.10412 1.11837 1.13154 1.16917 1.17225 1.15944 1.17438 1.17096 1.15727 1.19659 1.19209 1.17752 1.19683 1.17955 1.19 1.18739 1.17256 1.16374 1.18212 1.20367 1.1764 1.16013 1.19301 1.17 1.17461 1.17893 1.16109 1.16775 1.07375 1.12113 1.15666 1.07414 1.22748 1.13168 1.10835 1.11736 1.11048 1.1826 1.09493 1.06883 1.03126 0.984487 0.97878 0.95311 0.942709 1.01524 0.897047 1.05145 0.845692 1.02621 0.944077 0.919035 0.815814 0.819079 0.784141 0.969279 0.890657 0.861251 0.8514 0.848925 0.726303 0.762286 0.812618 0.735445 0.663255 0.685329 0.779321 0.78738 0.678526 0.736681 0.67463 0.715186 0.692693 0.333417 0.615392 0.934413 0.951542 1.03067 0.853663 0.779055 0.763027 0.720276 0.77773 0.756707 0.941183 0.838769 0.816358 0.72897 0.898911 0.987657 0.92165 0.867953 0.856937 0.926189 0.934243 0.960167 1.0748 1.11291 0.990328 1.04396 1.07391 1.09499 1.11274 1.10763 1.15143 1.04887 1.27305 1.12246 1.10641 1.15901 1.16016 1.17244 1.1804 1.18061 1.16191 1.19866 1.17255 1.18733 1.17686 1.16613 1.19125 1.19249 1.18783 1.18088 1.17068 1.18737 1.17612 1.166 1.17057 1.16168 1.18278 1.17463 1.17632 1.15534 1.17418 1.17864 1.11765 1.15081 1.25095 1.20265 1.11654 1.12885 1.07115 1.14794 1.1131 1.12213 1.06786 1.04746 0.989557 1.00471 0.968868 0.954784 0.963148 0.93741 1.01765 0.930347 0.886515 1.03203 0.983352 0.937483 0.749217 0.799731 0.955228 0.877185 0.893437 0.88162 0.849504 0.731884 0.813952 0.83843 0.71469 0.712705 0.704232 0.793892 0.883596 0.884036 0.751513 0.767958 0.748506 0.732308 0.699312 0.747072 0.55245 1.15135 0.935389 0.944502 0.911629 0.8479 0.788251 0.82897 0.771 0.698631 0.942929 0.893017 0.782224 0.818392 0.938431 0.993924 0.973303 0.861886 0.881985 0.902848 0.969513 0.947773 1.10469 1.10485 1.00319 1.08515 0.988549 1.01791 1.10517 1.12107 1.06991 1.12855 1.15199 1.10873 1.1644 1.21495 1.15772 1.16854 1.19277 1.16598 1.15172 1.18893 1.16878 1.19222 1.19137 1.19178 1.18048 1.17104 1.18718 1.17768 1.16805 1.17825 1.17482 1.18001 1.17336 1.18882 1.15537 1.1696 1.18752 1.18762 1.13079 1.22366 1.26202 1.18967 1.10796 1.1142 1.07403 1.17407 1.14063 1.11525 1.09069 1.07842 1.06662 1.03553 1.02874 0.955198 0.954662 0.971397 0.974811 0.957627 1.04441 0.985617 1.00029 0.907546 0.931993 0.89428 0.854545 0.915551 0.90351 0.893429 0.880023 1.33763 0.849992 0.784005 0.740176 0.838553 0.855267 0.813496 0.786947 0.783905 0.876663 1.20464 1.01263 0.981637 0.918833 0.914166 0.884221 0.850327 0.884136 0.931132 0.877662 0.767089 1.02815 0.94202 1.14097 0.877384 0.936303 0.807488 0.982142 0.971589 0.933017 0.888732 1.07659 1.06801 0.973668 0.858466 1.03703 0.980154 1.03814 1.00887 1.10678 1.03379 1.08809 1.02487 0.997838 1.2089 1.06446 1.10964 1.03772 1.06914 1.13433 1.09291 1.19486 1.14359 1.17696 1.20022 1.14398 1.1905 1.12109 1.17067 1.15771 1.19027 1.19596 1.17357 1.19389 1.19212 1.18102 1.1842 1.1768 1.18875 1.18118 1.17727 1.17051 1.18071 1.17597 1.17511 1.15751 1.16552 1.17106 1.17244 1.18309 1.19424 1.13895 1.18344 1.17986 1.18692 1.16251 1.11332 1.17083 1.12564 1.13982 1.12046 1.10003 1.09958 1.05911 1.03391 1.04813 0.959929 0.966274 0.95712 0.946138 0.916199 0.97718 1.04133 1.02793 1.03758 1.04507 0.948835 0.920678 0.929742 0.905853 0.885667 1.01745 0.881249 0.73886 0.840261 0.831819 0.88825 0.839884 0.827619 0.840729 0.817741 0.987933 1.20175 1.10846 0.923587 0.940522 0.907596 0.840864 0.897117 0.9881 0.948994 1.08763 1.17804 0.989586 1.31432 1.0512 0.778368 1.14685 1.05278 1.25006 0.995754 1.02699 1.04429 1.28017 1.10442 1.12434 1.01118 1.0416 1.06916 1.04625 1.21282 1.18262 1.16035 1.06281 1.13943 1.15804 1.10912 1.14561 1.172 1.10626 1.14419 1.19731 1.16775 1.15377 1.18731 1.20026 1.18271 1.19579 1.19302 1.18083 1.19149 1.18593 1.18623 1.18259 1.17599 1.18624 1.17081 1.18615 1.19526 1.14956 1.15437 1.16784 1.17054 1.18295 1.14665 1.1929 1.12672 1.17142 1.11401 1.0961 1.17271 1.13622 1.11257 1.09784 1.12149 1.04715 1.079 1.18119 1.12932 0.970738 0.970406 0.971369 0.934146 1.02939 1.04184 1.03246 1.03846 1.0389 1.01374 1.05991 1.01736 0.989547 0.937071 0.920697 0.891649 0.915729 0.908909 0.981157 0.880995 0.907028 0.78926 1.03018 0.798842 0.902249 0.854358 0.898729 0.851145 0.990004 0.971357 0.84372 0.98809 0.936014 0.950463 0.964937 0.998766 0.887161 0.935446 0.968865 0.967605 0.962909 1.12356 0.99946 1.2534 1.07432 0.873308 1.12312 1.05921 0.955496 1.13095 1.11192 1.05123 1.07892 1.13273 1.06215 1.06599 1.06247 1.05537 1.08213 1.01469 1.19178 1.21529 1.16143 1.16445 1.06721 1.15416 1.11898 1.14456 1.16697 1.11482 1.18965 1.18463 1.18022 1.17421 1.16707 1.19485 1.18128 1.18948 1.18618 1.19346 1.18382 1.18819 1.19337 1.18412 1.18181 1.17811 1.19086 1.17635 1.18928 1.20518 1.16608 1.17433 1.17419 1.18263 1.17132 1.17553 1.14878 1.19655 1.14779 1.12592 1.10802 1.20541 1.12087 1.12291 1.19014 1.13687 1.09268 1.10312 1.02886 1.06225 1.13371 1.22409 0.989895 0.986192 0.994005 0.949181 1.05216 1.0385 1.06103 1.0698 1.0103 0.95727 0.976234 0.93429 0.937776 0.945354 0.927685 0.947517 1.02987 1.11282 0.836417 1.10131 0.860605 1.0079 0.944872 0.871392 1.0188 1.01037 0.885101 0.99815 1.00409 0.957074 0.937104 0.950816 1.00112 1.14071 1.06597 1.0027 1.04906 1.17227 1.07014 1.08997 1.06544 0.964136 1.12333 1.13543 1.08627 1.07163 1.12013 1.06788 1.08234 1.10678 1.10492 1.23003 1.17657 1.14849 1.07302 1.12334 1.16958 1.15716 1.14652 1.15371 1.17062 1.18727 1.16665 1.16295 1.1911 1.17324 1.16975 1.18504 1.18394 1.18654 1.18606 1.1861 1.18512 1.19178 1.18425 1.18411 1.19178 1.19032 1.18783 1.17933 1.18307 1.19439 1.1704 1.17402 1.17531 1.18297 1.16051 1.16664 1.2226 1.1705 1.14562 1.20479 1.11431 1.19042 1.2094 1.06382 1.12121 1.0987 1.11777 1.00851 1.04399 1.12654 1.23347 0.99895 1.00738 0.985495 1.01665 1.08425 1.06208 1.09178 1.05762 1.07729 1.05792 1.0626 1.03193 0.99844 0.94968 0.999175 0.980107 0.881037 0.890328 0.978247 0.959862 1.10807 0.836395 1.104 1.06224 0.902121 0.986937 0.938897 0.887059 0.909946 1.04723 0.913901 1.0165 1.01409 1.05529 1.02564 1.0468 1.01897 0.880923 1.02037 1.11971 1.04216 1.02286 1.15941 1.1147 1.13119 1.04112 1.004 1.12248 1.06455 1.09125 1.14665 1.101 1.11237 1.13328 1.10516 1.13499 1.16564 1.1223 1.18995 1.17767 1.12882 1.12854 1.18889 1.14418 1.16671 1.15949 1.17043 1.19183 1.17164 1.1693 1.18574 1.17378 1.17498 1.17385 1.18504 1.18556 1.18788 1.18648 1.18678 1.18146 1.18089 1.18781 1.1887 1.18398 1.18193 1.19185 1.17117 1.17576 1.17861 1.1955 1.18435 1.16882 1.163 1.19675 1.18162 1.15709 1.17937 1.12129 1.18859 1.21814 1.18091 1.09732 1.08226 1.02664 1.09062 1.19192 1.19899 1.19178 1.18335 1.07247 1.07792 1.03527 1.08029 1.0791 1.08205 1.0825 1.06639 1.03705 1.00162 1.02249 0.985078 0.969959 0.964752 1.04209 0.907782 1.00643 1.11803 1.13255 1.09635 0.908743 1.00966 0.979051 0.959349 0.970399 0.95457 1.06417 0.899654 1.06327 1.08764 1.06118 1.05245 1.00225 1.03045 1.05873 1.10829 1.12313 1.04197 1.10124 1.11668 1.1421 1.01458 1.12683 1.09397 1.10168 1.12565 1.11984 1.10944 1.11773 1.13938 1.16543 1.12455 1.14866 1.21045 1.15762 1.15449 1.20073 1.19178 1.16965 1.16892 1.1653 1.1774 1.17757 1.17529 1.17645 1.16519 1.18006 1.17646 1.18426 1.18406 1.18684 1.18616 1.18786 1.18192 1.18147 1.18841 1.18558 1.19897 1.18487 1.18347 1.17526 1.1738 1.1771 1.17877 1.17571 1.18364 1.1682 1.18212 1.17606 1.18967 1.18356 1.18058 1.15224 1.20025 1.13672 1.17882 1.15 1.09529 1.02506 1.11942 1.186 1.18727 1.17274 1.0892 1.08828 1.06123 1.08888 1.08722 1.08967 1.10377 1.05099 1.03819 1.10612 0.973415 0.994465 1.04495 1.07601 1.09744 1.11881 1.14207 1.10317 1.01541 0.916523 0.974124 0.991292 1.07636 1.02047 1.10572 1.1429 1.05357 1.0903 1.00529 1.05297 1.08565 1.12798 1.14042 1.06603 1.04996 1.06695 1.12297 1.12885 1.1376 0.997784 1.11118 1.13379 1.13131 1.1103 1.1283 1.13424 1.14064 1.16918 1.14828 1.17216 1.14369 1.13434 1.18683 1.14641 1.17118 1.16356 1.202 1.18889 1.19134 1.17164 1.16867 1.18763 1.18435 1.17505 1.17836 1.1674 1.18109 1.18074 1.18409 1.18694 1.18573 1.18862 1.1897 1.19189 1.18227 1.18878 1.18626 1.18881 1.19833 1.18462 1.18378 1.17556 1.17726 1.19038 1.18776 1.17637 1.18193 1.17383 1.17689 1.18129 1.17524 1.18419 1.18653 1.16777 1.15393 1.13911 1.17725 1.16434 1.09042 1.12113 1.12558 1.15426 1.16825 1.10097 1.09171 1.07731 1.09418 1.10143 1.09639 1.12529 1.07603 1.0397 1.05403 1.10645 1.1481 1.00946 1.03791 1.06779 1.08866 1.10363 1.13987 1.08187 1.09333 1.07229 0.988745 1.01655 1.089 1.03094 1.12295 1.12289 1.07093 1.13295 1.10466 1.0885 1.08083 1.05105 1.11013 1.11866 1.12839 1.12743 1.12746 1.12354 1.14052 1.18529 1.15384 1.12359 1.13523 1.12811 1.1288 1.14181 1.13556 1.16933 1.15863 1.19303 1.17511 1.14821 1.17578 1.16699 1.17643 1.19477 1.17365 1.17175 1.19005 1.18785 1.1851 1.17837 1.19178 1.17912 1.18682 1.18337 1.18589 1.17861 1.1868 1.18953 1.19036 1.18312 1.18658 1.19006 1.19467 1.19059 1.18455 1.18455 1.17686 1.19178 1.19089 1.18339 1.18251 1.16612 1.17779 1.18293 1.18803 1.18828 1.18323 1.17402 1.15701 1.17151 1.17071 1.17789 1.16534 1.15154 1.13495 1.13114 1.15043 1.17762 1.15166 1.11178 1.09325 1.06748 1.10678 1.11161 1.12975 1.11857 1.12718 1.09528 1.04572 1.14983 1.02112 1.03806 1.0729 1.08855 1.09835 1.08147 1.10668 1.13822 1.09097 1.01218 1.04125 1.09916 1.01448 1.09196 1.13129 1.14084 1.14255 1.14862 1.15724 1.13754 1.07586 1.20487 1.13483 1.13062 1.09134 1.13718 1.18427 1.13664 1.13863 1.13207 1.15591 1.13771 1.1502 1.14827 1.15065 1.1385 1.15915 1.18213 1.19878 1.17184 1.18011 1.17811 1.17558 1.16294 1.17875 1.19196 1.17397 1.17365 1.18951 1.18214 1.18329 1.18345 1.19394 1.18137 1.17946 1.18442 1.18684 1.18993 1.18685 1.18902 1.19266 1.1887 1.18649 1.18915 1.19328 1.18495 1.18565 1.18455 1.1856 1.19064 1.21428 1.19073 1.18446 1.18734 1.17544 1.18222 1.18181 1.18563 1.18517 1.1878 1.17348 1.14975 1.17085 1.17371 1.18147 1.16938 1.15515 1.14321 1.14471 1.19178 1.15097 1.17419 1.14209 1.11319 1.09979 1.12197 1.11736 1.13253 1.15077 1.1227 1.13013 1.10734 1.11644 1.14084 1.1421 1.04484 1.08238 1.09541 1.1005 1.08993 1.1012 1.09102 1.04239 1.0898 1.064 1.1246 1.07205 1.0898 1.09349 1.13682 1.14761 1.15409 1.11573 1.15226 1.13508 1.12306 1.10434 1.14752 1.16028 1.17133 1.17619 1.13931 1.1515 1.15425 1.17179 1.16458 1.16528 1.18215 1.19601 1.18234 1.18969 1.18236 1.17896 1.17263 1.18249 1.1914 1.17138 1.17275 1.17529 1.19047 1.17504 1.17597 1.18523 1.18042 1.18376 1.18173 1.18499 1.18714 1.1898 1.18947 1.18699 1.1892 1.19263 1.18914 1.18662 1.18928 1.18895 1.18487 1.18617 1.19012 1.187 1.19303 1.19079 1.18763 1.18675 1.17842 1.1842 1.18277 1.18398 1.19022 1.18562 1.18152 1.17639 1.18192 1.17555 1.17106 1.16224 1.14147 1.16014 1.18403 1.18106 1.15072 1.12295 1.12599 1.13729 1.13227 1.1382 1.15014 1.13156 1.11934 1.11906 1.13198 1.13572 1.13151 1.15804 1.09026 1.09337 1.10196 1.10041 1.08788 1.11323 1.08741 1.07311 1.13976 1.1371 1.10103 1.09301 1.12438 1.14575 1.1477 1.17024 1.15237 1.11935 1.16766 1.14668 1.14371 1.13432 1.15101 1.12762 1.17284 1.16791 1.15356 1.16471 1.17812 1.16245 1.18216 1.16036 1.17125 1.18044 1.19476 1.19286 1.18987 1.19138 1.17699 1.18735 1.18848 1.17076 1.17995 1.19178 1.19149 1.18268 1.18603 1.18599 1.19288 1.18134 1.1857 1.18365 1.18207 1.18578 1.19244 1.18925 1.1869 1.18925 1.19104 1.18937 1.18678 1.18639 1.18915 1.19085 1.18985 1.18709 1.18712 1.19075 1.18592 1.18944 1.18322 1.18051 1.18459 1.18362 1.18452 1.19235 1.1858 1.18489 1.18321 1.18034 1.179 1.18137 1.1711 1.17011 1.14055 1.16319 1.18901 1.14556 1.12514 1.14636 1.14993 1.14487 1.17772 1.16291 1.15982 1.16699 1.14489 1.13593 1.12569 1.14267 1.11833 1.14157 1.17149 1.07214 1.13753 1.09137 1.10791 1.10209 1.09672 1.11937 1.10576 1.08266 1.13432 1.1375 1.14038 1.16391 1.19537 1.19202 1.16785 1.19178 1.14416 1.17672 1.19178 1.15792 1.14404 1.16047 1.14719 1.15746 1.19584 1.17054 1.17918 1.17257 1.17869 1.18553 1.17439 1.17836 1.1636 1.18164 1.16994 1.18777 1.1682 1.18201 1.17915 1.18909 1.17992 1.1722 1.18994 1.18855 1.19528 1.18597 1.18962 1.18845 1.18616 1.18451 1.1825 1.18659 1.18639 1.18925 1.18853 1.18747 1.1886 1.18725 1.1917 1.19226 1.18673 1.18935 1.18721 1.18754 1.18786 1.18263 1.18578 1.18441 1.18855 1.18447 1.18545 1.18379 1.1828 1.18517 1.18271 1.18136 1.17802 1.16893 1.18523 1.17819 1.18499 1.16883 1.16462 1.17716 1.15036 1.1271 1.14912 1.14776 1.18352 1.18802 1.1609 1.16255 1.16532 1.13722 1.14078 1.12108 1.11944 1.14745 1.17382 1.15122 1.12371 1.11303 1.09799 1.11323 1.121 1.1198 1.08907 1.14097 1.16911 1.14051 1.19178 1.15278 1.16406 1.15481 1.17085 1.17199 1.18663 1.17938 1.17549 1.1907 1.16116 1.16661 1.20019 1.16959 1.20015 1.182 1.19159 1.1768 1.18235 1.18189 1.17096 1.18271 1.18178 1.17205 1.17677 1.17415 1.18885 1.19324 1.18501 1.1859 1.17984 1.19209 1.18461 1.18957 1.19105 1.19469 1.19082 1.19206 1.19241 1.18674 1.18854 1.19178 1.18817 1.18622 1.18679 1.19186 1.19167 1.19558 1.18846 1.18745 1.18878 1.18837 1.19363 1.18851 1.18987 1.18515 1.18724 1.1884 1.19005 1.18814 1.18365 1.18931 1.18678 1.18304 1.18556 1.18381 1.18706 1.18333 1.1832 1.18079 1.17662 1.1829 1.18079 1.17465 1.18292 1.18173 1.18236 1.16397 1.1802 1.16658 1.14488 1.14179 1.18039 1.18232 1.18579 1.17108 1.17125 1.14022 1.13804 1.12004 1.12697 1.15675 1.16462 1.14229 1.13067 1.17662 1.18731 1.11027 1.12009 1.12523 1.12857 1.09282 1.1507 1.17199 1.16987 1.17594 1.15672 1.17591 1.17701 1.18573 1.18316 1.18092 1.18039 1.17865 1.16403 1.17242 1.17897 1.18362 1.20167 1.18612 1.17756 1.18276 1.1746 1.17787 1.18312 1.18785 1.18077 1.18941 1.17407 1.18969 1.18905 1.18373 1.18856 1.18552 1.19033 1.18981 1.19188 1.18843 1.19052 1.19254 1.19178 1.19192 1.19079 1.18875 1.18864 1.18705 1.19499 1.19091 1.18924 1.18824 1.18668 1.18895 1.19371 1.19373 1.189 1.19053 1.18651 1.18797 1.19009 1.19001 1.18807 1.18965 1.18665 1.18741 1.18302 1.18341 1.18458 1.18724 1.18692 1.18335 1.18345 1.182 1.18436 1.18242 1.17912 1.18284 1.17714 1.18326 1.18324 1.19178 1.19178 1.16955 1.19435 1.16953 1.14521 1.19178 1.16372 1.18095 1.18201 1.19535 1.19862 1.17147 1.17937 1.15044 1.13892 1.12892 1.1428 1.18493 1.15971 1.17054 1.17403 1.11377 1.1305 1.12988 1.09426 1.15825 1.17375 1.17781 1.18081 1.1644 1.16422 1.18598 1.1807 1.1789 1.18457 1.18985 1.19402 1.18734 1.16729 1.19972 1.18475 1.1855 1.18588 1.18107 1.18389 1.18305 1.17563 1.17867 1.18199 1.19048 1.18355 1.18585 1.18654 1.18723 1.18443 1.18584 1.18956 1.18979 1.18701 1.19198 1.19258 1.19125 1.19185 1.19043 1.18866 1.1889 1.18709 1.18507 1.18946 1.18877 1.18765 1.18801 1.18995 1.18971 1.19203 1.18852 1.19144 1.18755 1.18878 1.18837 1.1894 1.18579 1.18803 1.18485 1.18721 1.18685 1.18699 1.18454 1.18203 1.18458 1.18366 1.18415 1.18167 1.18025 1.18394 1.18675 1.18597 1.18433 1.16642 1.16981 1.16873 1.17399 1.17375 1.18558 1.18107 1.17942 1.15549 1.16492 1.1545 1.15796 1.16934 1.14253 1.16713 1.18041 1.17083 1.17951 1.18492 1.16397 1.11196 1.14501 1.13086 1.14594 1.17519 1.17737 1.16593 1.16724 1.18669 1.18136 1.19259 1.17824 1.18975 1.18546 1.18974 1.18471 1.18121 1.18878 1.1884 1.18788 1.18758 1.18782 1.18077 1.17982 1.19573 1.18106 1.18461 1.18551 1.18602 1.1887 1.18903 1.1879 1.18969 1.18801 1.1921 1.1873 1.19138 1.18825 1.19048 1.18865 1.18891 1.18725 1.18503 1.19129 1.18923 1.18887 1.19181 1.19023 1.18969 1.18884 1.19225 1.19006 1.18769 1.18823 1.18889 1.1893 1.18888 1.18974 1.18655 1.18546 1.18529 1.18743 1.18849 1.1864 1.18479 1.18515 1.18304 1.18575 1.18516 1.18461 1.18514 1.18106 1.18854 1.17013 1.18078 1.16242 1.17254 1.19481 1.1857 1.18156 1.18224 1.17634 1.18082 1.15422 1.17374 1.15402 1.19178 1.15606 1.17169 1.22341 1.14611 1.1708 1.18307 1.17586 1.17897 1.17933 1.1798 1.18459 1.16125 1.17742 1.15547 1.13713 1.14641 1.16294 1.17666 1.1812 1.18373 1.18415 1.18366 1.18672 1.18755 1.18209 1.19025 1.18578 1.18173 1.18892 1.19039 1.18834 1.18764 1.18794 1.188 1.18755 1.18264 1.19136 1.18001 1.1851 1.18736 1.1886 1.19034 1.18895 1.18913 1.18949 1.18781 1.19019 1.18873 1.18773 1.19209 1.19245 1.19018 1.19142 1.19186 1.19139 1.18894 1.18899 1.18823 1.18524 1.19113 1.18911 1.18874 1.19176 1.19012 1.18941 1.18853 1.1921 1.19021 1.18774 1.18856 1.1888 1.18972 1.18818 1.19275 1.18783 1.18751 1.1869 1.18763 1.18539 1.18831 1.18622 1.18757 1.19178 1.18729 1.1877 1.18506 1.18596 1.18197 1.18731 1.19513 1.17606 1.1858 1.17536 1.18897 1.18198 1.18396 1.17368 1.19178 1.19342 1.16478 1.17246 1.19502 1.19751 1.16485 1.18081 1.18362 1.18082 1.18506 1.17163 1.15735 1.19178 1.17076 1.14887 1.16497 1.17922 1.1792 1.19184 1.19263 1.18065 1.18494 1.18836 1.18964 1.18285 1.19307 1.18337 1.18852 1.1916 1.18242 1.19178 1.19053 1.18847 1.18787 1.18768 1.18778 1.18692 1.19029 1.19128 1.19137 1.18546 1.18872 1.18801 1.18995 1.19007 1.18892 1.18914 1.19133 1.19208 1.18912 1.18741 1.19001 1.19165 1.18955 1.19121 1.18973 1.18932 1.18875 1.18966 1.18865 1.19113 1.18941 1.1886 1.1902 1.18936 1.18942 1.18878 1.19082 1.19027 1.18751 1.18848 1.18897 1.1866 1.18822 1.1911 1.18803 1.18692 1.18764 1.18707 1.18556 1.18826 1.18745 1.18756 1.18579 1.18551 1.18301 1.18791 1.18163 1.18312 1.19448 1.17941 1.18602 1.18967 1.18218 1.18666 1.17918 1.19003 1.18381 1.1907 1.19513 1.16949 1.17906 1.18764 1.17508 1.16015 1.19119 1.17709 1.17729 1.18718 1.18386 1.18159 1.17826 1.17957 1.1693 1.1606 1.19328 1.15105 1.16465 1.18004 1.18155 1.19114 1.19581 1.18811 1.18898 1.18611 1.18412 1.18859 1.1831 1.18591 1.18519 1.1888 1.19158 1.1913 1.189 1.18792 1.19006 1.19162 1.18793 1.18812 1.18836 1.18926 1.1897 1.19138 1.18574 1.18925 1.18926 1.19172 1.19008 1.18873 1.19026 1.192 1.18935 1.1886 1.19064 1.18754 1.19015 1.19123 1.18931 1.19107 1.18951 1.18892 1.19261 1.19278 1.19421 1.19103 1.18953 1.18888 1.19179 1.1899 1.1898 1.19085 1.18983 1.19065 1.19178 1.18795 1.18891 1.18978 1.19183 1.19562 1.18827 1.19148 1.18845 1.18735 1.18726 1.18818 1.18854 1.1884 1.18815 1.18786 1.18766 1.18797 1.18622 1.18669 1.18698 1.18414 1.18529 1.1831 1.18654 1.18207 1.18674 1.18791 1.18658 1.18268 1.18272 1.18119 1.18832 1.18999 1.19573 1.19034 1.19413 1.17511 1.18644 1.17716 1.18733 1.18344 1.18639 1.17932 1.17616 1.19259 1.19031 1.15426 1.19012 1.18004 1.18235 1.18976 1.18992 1.18818 1.19059 1.19112 1.18573 1.18817 1.18843 1.18814 1.18616 1.18892 1.19037 1.18939 1.18745 1.19016 1.18967 1.18856 1.18828 1.18922 1.18961 1.19197 1.186 1.18893 1.18931 1.19003 1.18916 1.19182 1.19053 1.19079 1.19139 1.19007 1.19129 1.18926 1.19126 1.18823 1.19021 1.19123 1.19193 1.19186 1.19065 1.19137 1.18842 1.19107 1.19265 1.19177 1.19116 1.18955 1.18899 1.19251 1.18985 1.18979 1.19084 1.19178 1.19037 1.19077 1.18934 1.18637 1.18836 1.18821 1.19118 1.18739 1.18823 1.18838 1.18994 1.18849 1.18953 1.18748 1.18752 1.18706 1.18931 1.18698 1.18453 1.18509 1.18549 1.19405 1.19144 1.18426 1.19481 1.18726 1.18398 1.18272 1.18887 1.18972 1.1891 1.17541 1.18481 1.18618 1.1878 1.1795 1.18376 1.18267 1.18256 1.18596 1.1828 1.17971 1.18107 1.18821 1.18273 1.15667 1.19021 1.18106 1.18579 1.18896 1.19152 1.19044 1.18589 1.18906 1.18841 1.18924 1.18879 1.19027 1.19101 1.19077 1.19078 1.19136 1.18838 1.19048 1.18719 1.18944 1.189 1.18883 1.19007 1.19124 1.19296 1.18965 1.19004 1.19021 1.19027 1.19005 1.19264 1.18937 1.19069 1.19134 1.19067 1.19122 1.18985 1.19165 1.19112 1.19046 1.19145 1.19184 1.19107 1.18844 1.19146 1.192 1.19142 1.1887 1.19183 1.19178 1.19201 1.18996 1.18969 1.18999 1.19092 1.19008 1.19008 1.19018 1.1876 1.18932 1.18864 1.19089 1.18763 1.18805 1.18849 1.18996 1.18932 1.18838 1.18967 1.18793 1.1904 1.18786 1.18752 1.18491 1.18628 1.19186 1.18983 1.18988 1.19184 1.18749 1.18926 1.19178 1.18567 1.18873 1.18938 1.19275 1.19049 1.18833 1.18436 1.18539 1.18652 1.1837 1.17931 1.17968 1.19025 1.18728 1.18987 1.19143 1.18263 1.18402 1.17786 1.19178 1.16058 1.16201 1.19028 1.18457 1.18622 1.1851 1.18338 1.19184 1.18942 1.18886 1.18966 1.1886 1.18996 1.18996 1.19071 1.19145 1.18792 1.18959 1.19097 1.19056 1.19123 1.19029 1.1894 1.18988 1.19125 1.19178 1.18913 1.18962 1.19011 1.19105 1.19114 1.19012 1.18993 1.19002 1.19263 1.18945 1.19142 1.19064 1.18997 1.18978 1.19111 1.19046 1.18941 1.19164 1.19167 1.19178 1.19178 1.19135 1.18924 1.19185 1.19178 1.19006 1.19178 1.1922 1.19019 1.19107 1.1921 1.19023 1.19008 1.18866 1.19055 1.19136 1.18788 1.18816 1.1897 1.18848 1.18912 1.18811 1.1899 1.18784 1.18827 1.18769 1.18556 1.18676 1.1908 1.18756 1.19079 1.19112 1.18766 1.18695 1.18835 1.18929 1.19331 1.1923 1.19242 1.19013 1.19218 1.19006 1.18735 1.18509 1.18155 1.18181 1.19077 1.1818 1.18865 1.19163 1.18542 1.18452 1.18921 1.191 1.19034 1.19082 1.18541 1.18491 1.18884 1.18829 1.19069 1.19103 1.18937 1.18986 1.19015 1.19069 1.19124 1.19129 1.19178 1.18841 1.19028 1.18993 1.19143 1.19179 1.19064 1.18999 1.18977 1.19094 1.19142 1.18924 1.18969 1.19043 1.1909 1.19115 1.19019 1.19178 1.19071 1.19137 1.19056 1.18998 1.19178 1.19178 1.19045 1.19033 1.19178 1.19178 1.19072 1.19178 1.19178 1.19179 1.19146 1.19015 1.19071 1.19198 1.19146 1.1907 1.19101 1.19015 1.19097 1.19199 1.192 1.18999 1.19018 1.19015 1.18935 1.18893 1.19105 1.19165 1.19153 1.18926 1.18835 1.18909 1.19002 1.1899 1.18956 1.18854 1.18947 1.18868 1.18905 1.18811 1.18605 1.18996 1.18706 1.19117 1.19125 1.19107 1.18798 1.19017 1.19279 1.18834 1.18934 1.19248 1.18945 1.1911 1.18698 1.18849 1.18589 1.1822 1.19175 1.18951 1.18965 1.18518 1.18914 1.19203 1.19198 1.19151 1.18814 1.18771 1.18874 1.19254 1.18838 1.1906 1.19099 1.18959 1.19002 1.19023 1.1914 1.18926 1.19061 1.19037 1.19038 1.1906 1.19129 1.19073 1.19002 1.19151 1.19069 1.18913 1.18924 1.1895 1.19056 1.19108 1.19119 1.19011 1.19125 1.18999 1.19184 1.19073 1.19081 1.19178 1.19041 1.19188 1.19098 1.19136 1.19089 1.19172 1.19183 1.19188 1.19152 1.19178 1.19138 1.1908 1.19216 1.19164 1.19112 1.19088 1.19048 1.19056 1.1912 1.18934 1.18926 1.19122 1.19091 1.19096 1.19015 1.18852 1.1906 1.19015 1.18913 1.18963 1.18874 1.18936 1.18812 1.18654 1.189 1.18921 1.19025 1.19178 1.18986 1.19148 1.19176 1.19209 1.19142 1.19032 1.18847 1.18932 1.19081 1.18937 1.18964 1.18988 1.19175 1.18726 1.18836 1.18603 1.19178 1.1845 1.188 1.19099 1.1915 1.18624 1.18645 1.1913 1.18811 1.18779 1.18917 1.19178 1.18846 1.19066 1.19024 1.18967 1.19017 1.19037 1.19079 1.19115 1.19147 1.19051 1.19069 1.19042 1.19127 1.19073 1.19018 1.19171 1.19138 1.19054 1.1909 1.18945 1.19065 1.19026 1.19008 1.19071 1.19131 1.1905 1.19106 1.19113 1.19078 1.1917 1.19153 1.19067 1.19171 1.19074 1.19166 1.19169 1.19104 1.19118 1.19043 1.18949 1.19144 1.19131 1.1915 1.19022 1.18844 1.19047 1.19071 1.19023 1.18937 1.18971 1.18879 1.18937 1.19002 1.18877 1.19198 1.1909 1.18948 1.19178 1.19074 1.1918 1.19029 1.18939 1.18955 1.18955 1.19182 1.18863 1.18927 1.18632 1.19211 1.18485 1.18977 1.19067 1.18883 1.19113 1.19148 1.19178 
SCALARS Stress float 1
LOOKUP_TABLE default
-1.64102e+12 -910263000000.0 -1.49205e+12 -2.97481e+12 -1.8175e+12 -3.01926e+12 -2.65811e+12 -2.25531e+12 -2.51902e+12 -2.43073e+12 -1.87636e+12 -1.77923e+12 -1.18884e+12 -487909000000.0 -397479000000.0 -743102000000.0 -745863000000.0 -232018000000.0 -364756000000.0 -152896000000.0 -71873800000.0 -99609700000.0 -108672000000.0 -82846600000.0 -139641000000.0 -77333500000.0 -83009000000.0 -23963900000.0 -18244300000.0 -46385600000.0 -27318900000.0 -26834900000.0 -52236400000.0 -47527400000.0 -51287200000.0 -47353800000.0 -27017300000.0 -20850100000.0 -35698800000.0 -21364100000.0 -31998500000.0 -275161000000.0 -422754000000.0 -253039000000.0 -515608000000.0 -1.45133e+12 -500878000000.0 -531783000000.0 -2.77644e+12 -2.15066e+12 -1.91112e+12 -3.39807e+12 -7.46682e+12 -3.66452e+12 -2.99078e+12 -1.61225e+12 -4.33261e+12 -5.36982e+12 -2.74266e+12 -2.36306e+12 -1.59565e+12 -2.43123e+12 -2.26657e+12 -1.28792e+12 -1.68472e+12 -1.32797e+12 -786419000000.0 -252136000000.0 -371325000000.0 -282188000000.0 -122392000000.0 -379251000000.0 -54064700000.0 -91135700000.0 -259842000000.0 -205060000000.0 -182853000000.0 -145057000000.0 -121072000000.0 -127934000000.0 -73300100000.0 -28953300000.0 -41114200000.0 -47810300000.0 -57789800000.0 -60937700000.0 -18096600000.0 -33078700000.0 -68663900000.0 -28940700000.0 -30875200000.0 -32876800000.0 -48457800000.0 -12549700000.0 -141098000000.0 -96034100000.0 -20919100000.0 -231974000000.0 -143775000000.0 -497618000000.0 -209233000000.0 -926880000000.0 -678335000000.0 -864321000000.0 -821586000000.0 -952084000000.0 -3.50037e+12 -2.72437e+12 -2.32893e+12 -3.11977e+12 -5.47285e+12 -3.6871e+12 -3.15254e+12 -5.99116e+12 -4.79083e+12 -2.1011e+12 -3.10671e+12 -1.83105e+12 -4.409e+12 -5.3358e+12 -4.08924e+12 -2.75445e+12 -1.94112e+12 -4.69557e+12 -2.8009e+12 -2.19439e+12 -2.77049e+12 -3.63851e+12 -2.1202e+12 -1.61789e+12 -1.59233e+12 -1.69247e+12 -1.1808e+12 -788706000000.0 -733286000000.0 -679837000000.0 -335656000000.0 -66139000000.0 -324813000000.0 -24802300000.0 -95307500000.0 -20660500000.0 -69143800000.0 -18620800000.0 -70058600000.0 -162706000000.0 -136904000000.0 -55546100000.0 -123643000000.0 -70239600000.0 -112945000000.0 -89112200000.0 -119079000000.0 -163151000000.0 -313531000000.0 -555700000000.0 -751303000000.0 -873556000000.0 -445200000000.0 -723477000000.0 -1.09953e+12 -1.0753e+12 -1.14958e+12 -2.33718e+12 -1.75654e+12 -1.23987e+12 -4.76851e+12 -6.95734e+12 -1.00319e+12 -4.05621e+12 -5.24071e+12 -4.88836e+12 -2.55979e+12 -4.10349e+12 -2.78146e+12 -1.7699e+12 -3.00956e+12 -2.98378e+12 -3.08495e+12 -6.96892e+12 -6.70826e+12 -3.48714e+12 -3.47072e+12 -3.42338e+12 -2.53531e+12 -3.49993e+12 -2.40602e+12 -2.11507e+12 -2.26567e+12 -3.48e+12 -1.6259e+12 -1.49116e+12 -869375000000.0 -505436000000.0 -952084000000.0 -1.31405e+12 -1.03262e+12 -1.22364e+12 -882784000000.0 -740395000000.0 -1.0398e+12 -216875000000.0 -223951000000.0 -188910000000.0 -162030000000.0 -96339300000.0 -81511700000.0 -52283200000.0 -93123400000.0 -49804000000.0 -214639000000.0 -108085000000.0 -136746000000.0 -190033000000.0 -342329000000.0 -248072000000.0 -115408000000.0 -225722000000.0 -347559000000.0 -486289000000.0 -206304000000.0 -368471000000.0 -488215000000.0 -862864000000.0 -1.05294e+12 -1.35584e+12 -1.32124e+12 -2.851e+12 -4.5512e+12 -2.16668e+12 -4.15306e+12 -3.94064e+12 -5.93563e+12 -4.1531e+12 -4.36743e+12 -3.46899e+12 -6.6485e+12 -2.22502e+12 -4.25952e+12 -3.67005e+12 -3.73975e+12 -4.1565e+12 -2.53235e+12 -3.81488e+12 -4.73493e+12 -3.70999e+12 -4.16064e+12 -2.61306e+12 -5.12821e+12 -5.57297e+12 -2.49118e+12 -6.40477e+12 -6.84673e+12 -2.55964e+12 -5.56767e+12 -3.75825e+12 -2.81028e+12 -3.0692e+12 -4.67955e+12 -2.76292e+12 -1.89486e+12 -3.53479e+12 -86008500000.0 -1.65264e+12 -720250000000.0 -1.38771e+12 -1.20493e+12 -312596000000.0 -492240000000.0 -299030000000.0 -602771000000.0 -778447000000.0 -222448000000.0 -270479000000.0 -352155000000.0 -455359000000.0 -215044000000.0 -195378000000.0 -235782000000.0 -151551000000.0 -374128000000.0 -259774000000.0 -246978000000.0 -448057000000.0 -365445000000.0 -249300000000.0 -427649000000.0 -405065000000.0 -694165000000.0 -537810000000.0 -690303000000.0 -1.36632e+12 -561025000000.0 -1.27554e+12 -1.42741e+12 -1.48683e+12 -1.91839e+12 -1.42384e+12 -2.34207e+12 -4.43566e+12 -2.71146e+12 -3.42988e+12 -3.20914e+12 -3.58313e+12 -4.95403e+12 -3.25753e+12 -7.4445e+12 -7.828e+12 -4.8063e+12 -5.42511e+12 -6.25204e+12 -3.04005e+12 -3.5212e+12 -2.86757e+12 -1.87694e+12 -2.86167e+12 -4.11506e+12 -3.96337e+12 -7.04065e+12 -7.3136e+12 -5.80097e+12 -5.19497e+12 -4.99232e+12 -4.44999e+12 -3.73719e+12 -2.75736e+12 -4.82094e+12 -3.58986e+12 -3.37735e+12 -2.96965e+12 -4.41257e+12 -2.61357e+12 -2.26113e+12 -1.8109e+12 -1.07549e+12 -1.00841e+12 -1.73132e+12 -2.32787e+12 -624660000000.0 -1.10984e+12 -460859000000.0 -435815000000.0 -207967000000.0 -747166000000.0 -397441000000.0 -191102000000.0 -266884000000.0 -307054000000.0 -526180000000.0 -217003000000.0 -212339000000.0 -293259000000.0 -180764000000.0 -573169000000.0 -573148000000.0 -575334000000.0 -586744000000.0 -1.6801e+12 -1.78186e+12 -1.96079e+12 -2.9762e+12 -3.73607e+12 -3.37247e+12 -3.55459e+12 -1.81641e+12 -1.88495e+12 -2.35518e+12 -4.60753e+12 -5.18507e+12 -3.02087e+12 -3.35561e+12 -8.44141e+12 -7.07186e+12 -3.92918e+12 -3.07583e+12 -4.60031e+12 -4.94328e+12 -5.8328e+12 -6.49766e+12 -6.19177e+12 -2.8916e+12 -5.13639e+12 -2.76118e+12 -2.33132e+12 -2.12846e+12 -4.258e+12 -5.3986e+12 -5.46392e+12 -7.46081e+12 -4.16543e+12 -3.7435e+12 -2.37427e+12 -4.53325e+12 -4.32589e+12 -2.88364e+12 -3.81567e+12 -2.51042e+12 -4.76019e+12 -3.50202e+12 -4.55614e+12 -4.76738e+12 -1.24319e+12 -2.12502e+12 -2.16163e+12 -3.57029e+12 -2.70166e+12 -2.87093e+12 -1.44638e+12 -1.91377e+12 -1.73144e+12 -1.8699e+12 -1.55487e+12 -686931000000.0 -1.22634e+12 -929432000000.0 -1.12358e+12 -1.24396e+12 -952919000000.0 -601655000000.0 -125768000000.0 -437218000000.0 -508778000000.0 -658071000000.0 -412325000000.0 -127453000000.0 -119309000000.0 -224358000000.0 -256812000000.0 -72499700000.0 -64409600000.0 -235860000000.0 -469688000000.0 -403032000000.0 -476176000000.0 -169567000000.0 -590972000000.0 -606707000000.0 -554252000000.0 -589776000000.0 -652615000000.0 -1.09872e+12 -1.09341e+12 -475092000000.0 -1.48702e+12 -481446000000.0 -1.1459e+12 -1.43771e+12 -2.29629e+12 -2.60788e+12 -3.45958e+12 -3.44821e+12 -3.32149e+12 -6.21225e+12 -3.9677e+12 -4.12002e+12 -5.36248e+12 -2.0791e+12 -6.36282e+12 -4.06272e+12 -5.72653e+12 -3.72035e+12 -3.16128e+12 -3.90326e+12 -4.09268e+12 -3.79727e+12 -4.35518e+12 -7.45614e+12 -5.12959e+12 -3.52523e+12 -5.04241e+12 -4.73698e+12 -5.14886e+12 -3.52754e+12 -5.72344e+12 -7.15774e+12 -5.024e+12 -3.61016e+12 -3.20368e+12 -4.63823e+12 -6.61615e+12 -5.70827e+12 -4.91144e+12 -3.9918e+12 -5.59977e+12 -3.52476e+12 -3.86325e+12 -3.75851e+12 -4.4444e+12 -2.68906e+12 -3.56837e+12 -4.27833e+12 -3.41914e+12 -2.91581e+12 -1.55274e+12 -1.25031e+12 -2.84941e+12 -1.71472e+12 -2.59647e+12 -1.1097e+12 -1.05557e+12 -1.05448e+12 -855108000000.0 -1.46427e+12 -491483000000.0 -429729000000.0 -619251000000.0 -527940000000.0 -421084000000.0 -295282000000.0 -323916000000.0 -313064000000.0 -159754000000.0 -229238000000.0 -55082400000.0 -376007000000.0 -113324000000.0 -270411000000.0 -159847000000.0 -402652000000.0 -375344000000.0 -395193000000.0 -531907000000.0 -273360000000.0 -243334000000.0 -161163000000.0 -473209000000.0 -561734000000.0 -1.34221e+12 -992870000000.0 -862966000000.0 -598662000000.0 -1.94368e+12 -1.45047e+12 -1.85978e+12 -1.93371e+12 -1.87412e+12 -3.491e+12 -4.10792e+12 -3.6084e+12 -2.45671e+12 -2.9218e+12 -4.82824e+12 -3.02313e+12 -5.29351e+12 -6.06065e+12 -7.12776e+12 -7.34467e+12 -5.23418e+12 -3.07653e+12 -8.18309e+12 -2.53825e+12 -4.43091e+12 -4.96714e+12 -7.6561e+12 -7.96385e+12 -4.29451e+12 -6.36635e+12 -5.5638e+12 -5.28704e+12 -7.38631e+12 -8.61546e+12 -4.21045e+12 -6.08377e+12 -4.51028e+12 -5.73674e+12 -2.33345e+12 -5.54382e+12 -3.70199e+12 -3.65092e+12 -5.01936e+12 -7.32954e+12 -2.67492e+12 -4.97774e+12 -2.83617e+12 -3.35066e+12 -4.93109e+12 -5.87017e+12 -5.70573e+12 -3.35862e+12 -3.5466e+12 -1.45066e+12 -3.31219e+12 -1.36205e+12 -803251000000.0 -1.46673e+12 -771467000000.0 -1.19133e+12 -667600000000.0 -781737000000.0 -344698000000.0 -767058000000.0 -975205000000.0 -277692000000.0 -534137000000.0 -167340000000.0 -223695000000.0 -351780000000.0 -88617700000.0 -453677000000.0 -337113000000.0 -428209000000.0 -477034000000.0 -298605000000.0 -344104000000.0 -283852000000.0 -268509000000.0 -863465000000.0 -640807000000.0 -617224000000.0 -12549700000.0 -14032600000.0 -695702000000.0 -835441000000.0 -653269000000.0 -1.3654e+12 -603724000000.0 -1.07769e+12 -1.69745e+12 -3.33427e+12 -724205000000.0 -1.46112e+12 -1.98238e+12 -1.2531e+12 -2.45015e+12 -4.51258e+12 -3.22781e+12 -8.00403e+12 -3.63145e+12 -3.27213e+12 -4.60439e+12 -5.27314e+12 -2.25536e+12 -5.7754e+12 -6.10609e+12 -5.38782e+12 -4.72651e+12 -6.72395e+12 -4.60679e+12 -6.92555e+12 -7.73795e+12 -4.75854e+12 -1.03254e+13 -8.68285e+12 -1.68563e+12 -4.04304e+12 -4.50605e+12 -4.63818e+12 -2.05288e+12 -3.84865e+12 -5.9417e+12 -1.02777e+13 -2.80876e+12 -6.13933e+12 -7.83748e+12 -4.71015e+12 -7.31943e+12 -5.21059e+12 -8.49457e+12 -6.78351e+12 -5.00171e+12 -4.75566e+12 -3.43966e+12 -3.8069e+12 -2.10452e+12 -4.32224e+12 -6.07453e+12 -3.90515e+12 -5.87253e+12 -1.98518e+12 -2.70643e+12 -2.71601e+12 -2.25299e+12 -3.46315e+12 -1.97289e+12 -1.88233e+12 -1.83085e+12 -1.66331e+12 -2.16024e+12 -279296000000.0 -679731000000.0 -864458000000.0 -906263000000.0 -607000000000.0 -222830000000.0 -865925000000.0 -240698000000.0 -573112000000.0 -305250000000.0 -23474900000.0 -157188000000.0 -84043200000.0 -170120000000.0 -167020000000.0 -106128000000.0 -181785000000.0 -234575000000.0 -171396000000.0 -30812000000.0 -169941000000.0 -131428000000.0 -269614000000.0 -237683000000.0 -433679000000.0 -995059000000.0 -693880000000.0 -512355000000.0 -507409000000.0 -542043000000.0 -913764000000.0 -1.48984e+12 -1.47782e+12 -581179000000.0 -1.33318e+12 -1.5456e+12 -2.11678e+12 -1.74341e+12 -3.44468e+12 -5.12516e+12 -1.53363e+12 -2.75063e+12 -4.21224e+12 -3.43969e+12 -2.36036e+12 -4.04075e+12 -3.01796e+12 -2.4523e+12 -3.99216e+12 -6.26347e+12 -2.73694e+12 -1.45805e+12 -4.40398e+12 -5.83174e+12 -5.4674e+12 -5.01016e+12 -6.84937e+12 -6.56113e+12 -7.57402e+12 -7.23191e+12 -7.34488e+12 -2.54066e+12 -4.02523e+12 -3.15451e+12 -4.58712e+12 -5.93532e+12 -6.1863e+12 -2.68165e+12 -4.41065e+12 -6.21186e+12 -3.78265e+12 -7.93137e+12 -5.72651e+12 -4.68631e+12 -4.14313e+12 -6.60018e+12 -4.53122e+12 -7.78936e+12 -2.39424e+12 -7.35067e+12 -5.01678e+12 -4.30175e+12 -6.07565e+12 -1.93618e+12 -3.91782e+12 -3.2385e+12 -2.12029e+12 -2.34401e+12 -5.44849e+12 -3.30541e+12 -1.51799e+12 -4.12857e+12 -4.25821e+12 -2.11984e+12 -2.18479e+12 -2.13162e+12 -1.91318e+12 -1.7365e+12 -1.67747e+12 -1.29932e+12 -1.34303e+12 -1.1955e+12 -1.06915e+12 -1.91286e+12 -181035000000.0 -837245000000.0 -626198000000.0 -123562000000.0 -391843000000.0 -619852000000.0 -558963000000.0 -456238000000.0 -290533000000.0 -184867000000.0 -136845000000.0 -182807000000.0 -145122000000.0 -113300000000.0 -265082000000.0 -104986000000.0 -214111000000.0 -173919000000.0 -360673000000.0 -97598900000.0 -546773000000.0 -602824000000.0 -677073000000.0 -275713000000.0 -740428000000.0 -808194000000.0 -1.00565e+12 -550607000000.0 -986672000000.0 -1.31e+12 -1.17567e+12 -1.00695e+12 -1.61993e+12 -1.64338e+12 -1.47293e+12 -2.13705e+12 -971094000000.0 -3.87173e+12 -5.45691e+12 -3.40357e+12 -3.84475e+12 -3.83687e+12 -1.99167e+12 -1.80721e+12 -3.37648e+12 -2.19499e+12 -4.23664e+12 -3.49487e+12 -3.81479e+12 -5.68202e+12 -4.25887e+12 -2.4432e+12 -4.50952e+12 -4.78311e+12 -9.58257e+12 -3.71405e+12 -5.58424e+12 -5.511e+12 -6.09254e+12 -8.00884e+12 -9.31212e+12 -6.39938e+12 -6.38453e+12 -7.07594e+12 -6.98202e+12 -4.2948e+12 -3.74892e+12 -3.16987e+12 -3.58622e+12 -5.32876e+12 -7.65314e+12 -4.09464e+12 -5.92268e+12 -6.48049e+12 -4.48344e+12 -4.88102e+12 -6.31767e+12 -3.83821e+12 -6.56582e+12 -4.12103e+12 -6.65154e+12 -3.81418e+12 -5.74221e+12 -3.9449e+12 -3.05092e+12 -4.68481e+12 -4.82968e+12 -2.78024e+12 -2.5277e+12 -3.07029e+12 -3.74545e+12 -3.09436e+12 -4.32571e+12 -3.8292e+12 -3.46073e+12 -2.69921e+12 -2.8074e+12 -1.83435e+12 -1.87258e+12 -1.59389e+12 -1.04643e+12 -1.00447e+12 -1.17518e+12 -1.83457e+12 -2.25143e+12 -963950000000.0 -701299000000.0 -1.02576e+12 -601752000000.0 -1.14585e+12 -698938000000.0 -605791000000.0 -302653000000.0 -502536000000.0 -42984700000.0 -285847000000.0 -17076700000.0 -16222100000.0 -211486000000.0 -213290000000.0 -143053000000.0 -90658100000.0 -348981000000.0 -71372300000.0 -307018000000.0 -98179500000.0 -381720000000.0 -397546000000.0 -321672000000.0 -386821000000.0 -352967000000.0 -519525000000.0 -1.20761e+12 -866854000000.0 -1.3488e+12 -1.48261e+12 -783009000000.0 -601491000000.0 -2.24647e+12 -2.10908e+12 -2.47989e+12 -1.77379e+12 -2.16052e+12 -2.49373e+12 -2.52927e+12 -2.54114e+12 -3.04772e+12 -2.44608e+12 -1.42719e+12 -1.95837e+12 -3.52158e+12 -3.16159e+12 -3.1555e+12 -2.83595e+12 -3.72085e+12 -2.85401e+12 -3.63546e+12 -7.82257e+12 -2.94772e+12 -7.57116e+12 -5.00383e+12 -6.12754e+12 -5.21898e+12 -6.59781e+12 -5.3341e+12 -4.67717e+12 -5.54835e+12 -4.08261e+12 -3.0393e+12 -3.95729e+12 -1.03336e+13 -4.25803e+12 -6.05596e+12 -6.10375e+12 -6.1193e+12 -5.87957e+12 -3.26422e+12 -2.48915e+12 -2.82667e+12 -3.80759e+12 -7.93021e+12 -5.2618e+12 -8.18952e+12 -5.16951e+12 -6.10807e+12 -4.41651e+12 -4.4419e+12 -6.64913e+12 -5.28074e+12 -5.27723e+12 -8.27217e+12 -4.96653e+12 -7.21886e+12 -6.76431e+12 -6.09388e+12 -2.71173e+12 -4.69732e+12 -3.07194e+12 -3.89241e+12 -1.69726e+12 -3.36375e+12 -4.27105e+12 -3.19542e+12 -1.97202e+12 -2.58184e+12 -2.26686e+12 -1.27036e+12 -1.37899e+12 -2.01117e+12 -1.47677e+12 -2.11871e+12 -1.55051e+12 -1.66839e+12 -1.46978e+12 -978689000000.0 -793066000000.0 -1.2801e+12 -608162000000.0 -720501000000.0 -470531000000.0 -620658000000.0 -318982000000.0 -321861000000.0 -223616000000.0 -460767000000.0 -158548000000.0 -227796000000.0 -88834300000.0 -105709000000.0 -447682000000.0 -577134000000.0 -539213000000.0 -438944000000.0 -342091000000.0 -850601000000.0 -965485000000.0 -940293000000.0 -1.31566e+12 -1.1077e+12 -949842000000.0 -1.17178e+12 -1.44027e+12 -1.91457e+12 -953637000000.0 -3.3351e+12 -2.45678e+12 -3.18987e+12 -4.26989e+12 -2.46418e+12 -3.26015e+12 -3.19662e+12 -4.367e+12 -4.36127e+12 -4.12315e+12 -5.7995e+12 -5.10685e+12 -4.16404e+12 -4.79353e+12 -5.53154e+12 -4.57309e+12 -4.69617e+12 -6.67104e+12 -6.17127e+12 -7.27865e+12 -3.56253e+12 -7.6818e+12 -5.25151e+12 -6.78922e+12 -7.461e+12 -5.21115e+12 -1.01771e+13 -6.47051e+12 -5.22128e+12 -6.06976e+12 -3.20407e+12 -6.26359e+12 -8.96604e+12 -7.1054e+12 -7.14591e+12 -7.6379e+12 -7.44966e+12 -3.31057e+12 -6.35405e+12 -2.50204e+12 -3.29857e+12 -8.58594e+12 -4.17828e+12 -4.18446e+12 -2.91155e+12 -4.03048e+12 -3.63143e+12 -3.45369e+12 -3.13631e+12 -5.57632e+12 -3.84095e+12 -6.91936e+12 -4.40053e+12 -4.95105e+12 -2.97017e+12 -3.80842e+12 -2.5628e+12 -2.9742e+12 -2.23257e+12 -2.91739e+12 -1.91809e+12 -1.40433e+12 -2.43416e+12 -2.09444e+12 -1.80871e+12 -1.03736e+12 -1.13895e+12 -493280000000.0 -1.08374e+12 -812771000000.0 -499268000000.0 -341828000000.0 -688138000000.0 -155779000000.0 -462209000000.0 -184936000000.0 -442677000000.0 -463403000000.0 -166142000000.0 -301481000000.0 -308584000000.0 -329049000000.0 -66807200000.0 -106812000000.0 -237601000000.0 -12549700000.0 -345717000000.0 -411735000000.0 -380410000000.0 -422193000000.0 -458662000000.0 -551303000000.0 -270109000000.0 -354386000000.0 -893659000000.0 -185384000000.0 -452500000000.0 -1.18695e+12 -262859000000.0 -1.03833e+12 -1.71785e+12 -766992000000.0 -1.01236e+12 -818587000000.0 -2.5969e+12 -1.78026e+12 -1.55353e+12 -1.99656e+12 -2.52772e+12 -2.60028e+12 -3.05846e+12 -3.07099e+12 -2.60437e+12 -4.89494e+12 -1.88935e+12 -3.14393e+12 -4.74738e+12 -4.00104e+12 -5.60916e+12 -3.81027e+12 -4.14128e+12 -7.44691e+12 -4.92289e+12 -6.4555e+12 -4.22577e+12 -3.09644e+12 -7.45496e+12 -5.12471e+12 -2.39057e+12 -2.16565e+12 -4.92554e+12 -5.44988e+12 -5.67073e+12 -5.59906e+12 -4.97276e+12 -5.62568e+12 -5.00569e+12 -3.47554e+12 -4.14393e+12 -5.50116e+12 -3.61625e+12 -1.49843e+12 -5.03187e+12 -5.52151e+12 -7.16987e+12 -5.47326e+12 -3.99685e+12 -7.68935e+12 -4.53882e+12 -7.45501e+12 -6.6906e+12 -7.60955e+12 -7.26303e+12 -4.65601e+12 -5.72679e+12 -5.58091e+12 -2.3742e+12 -2.2977e+12 -5.91829e+12 -2.68292e+12 -2.64642e+12 -1.7624e+12 -4.35026e+12 -5.06041e+12 -2.58723e+12 -4.34448e+12 -2.0678e+12 -3.59414e+12 -2.81032e+12 -3.00776e+12 -2.63408e+12 -2.18168e+12 -3.79814e+12 -3.17649e+12 -4.42949e+12 -1.03457e+12 -1.9541e+12 -1.0537e+12 -2.44801e+12 -1.93668e+12 -2.15654e+12 -1.77341e+12 -1.0509e+12 -1.31433e+12 -799197000000.0 -755311000000.0 -127446000000.0 -436570000000.0 -254808000000.0 -304030000000.0 -316284000000.0 -349205000000.0 -12549700000.0 -190741000000.0 -297725000000.0 -282880000000.0 -199940000000.0 -419388000000.0 -164730000000.0 -91266200000.0 -245447000000.0 -236606000000.0 -655348000000.0 -651829000000.0 -864178000000.0 -87005000000.0 -419785000000.0 -442504000000.0 -24836100000.0 -575945000000.0 -521628000000.0 -493865000000.0 -1.0146e+12 -509882000000.0 -690455000000.0 -1.44749e+12 -892070000000.0 -2.28367e+12 -2.3561e+12 -3.44694e+12 -1.89519e+12 -1.90642e+12 -1.5615e+12 -4.10179e+12 -3.50401e+12 -3.51691e+12 -2.31196e+12 -4.88374e+12 -4.74457e+12 -4.92517e+12 -3.30809e+12 -7.69303e+12 -6.02444e+12 -5.48486e+12 -4.60266e+12 -1.61296e+12 -2.17525e+12 -3.34073e+12 -3.89348e+12 -4.03128e+12 -6.82336e+12 -2.68755e+12 -5.40862e+12 -4.82863e+12 -5.48426e+12 -5.81204e+12 -4.67543e+12 -4.62508e+12 -7.05097e+12 -3.67578e+12 -5.44451e+12 -7.56793e+12 -3.39222e+12 -3.06452e+12 -2.93488e+12 -3.15931e+12 -4.73582e+12 -7.58732e+12 -7.71323e+12 -3.11996e+12 -4.53765e+12 -5.70784e+12 -8.36559e+12 -6.77257e+12 -1.80098e+12 -4.41015e+12 -5.54141e+12 -4.10923e+12 -4.79757e+12 -4.90236e+12 -4.72228e+12 -3.55671e+12 -4.02644e+12 -4.26171e+12 -4.56547e+12 -4.9795e+12 -6.56958e+12 -2.10283e+12 -2.79066e+12 -4.36028e+12 -4.07875e+12 -4.00165e+12 -3.29067e+12 -4.33576e+12 -3.65073e+12 -2.7498e+12 -2.17742e+12 -2.92076e+12 -2.01243e+12 -1.27606e+12 -1.69867e+12 -1.58642e+12 -1.98575e+12 -2.15949e+12 -1.79219e+12 -1.73039e+12 -680893000000.0 -1.93504e+12 -787263000000.0 -609343000000.0 -1.14969e+12 -263685000000.0 -49303000000.0 -678243000000.0 -293057000000.0 -439626000000.0 -199929000000.0 -279936000000.0 -260293000000.0 -361359000000.0 -248116000000.0 -292898000000.0 -425171000000.0 -159167000000.0 -149550000000.0 -114404000000.0 -119097000000.0 -377829000000.0 -194324000000.0 -429531000000.0 -23937200000.0 -37988600000.0 -619818000000.0 -452014000000.0 -201979000000.0 -734072000000.0 -902404000000.0 -83436300000.0 -849194000000.0 -437009000000.0 -729897000000.0 -1.13313e+12 -874076000000.0 -921841000000.0 -1.34535e+12 -1.00209e+12 -822088000000.0 -682614000000.0 -1.60074e+12 -1.50159e+12 -3.65518e+12 -1.19906e+12 -2.56165e+12 -3.13553e+12 -1.8283e+12 -2.11573e+12 -3.24991e+12 -1.98759e+12 -3.39905e+12 -4.02064e+12 -4.7521e+12 -1.8819e+12 -3.44114e+12 -4.47973e+12 -2.32947e+12 -5.07211e+12 -5.30524e+12 -3.92988e+12 -2.09513e+12 -4.13573e+12 -3.6379e+12 -6.30461e+12 -3.07908e+12 -5.46072e+12 -5.21115e+12 -5.63467e+12 -4.81899e+12 -5.2752e+12 -6.29219e+12 -5.40304e+12 -3.06814e+12 -3.33912e+12 -4.12396e+12 -4.5241e+12 -4.16487e+12 -5.29248e+12 -4.98141e+12 -3.64874e+12 -3.88396e+12 -4.34552e+12 -3.44472e+12 -2.97083e+12 -4.16273e+12 -5.14213e+12 -4.05029e+12 -4.25899e+12 -6.3508e+12 -5.81849e+12 -4.52692e+12 -3.81671e+12 -7.23174e+12 -4.63392e+12 -7.76759e+12 -5.76643e+12 -5.47171e+12 -2.96389e+12 -5.92935e+12 -7.395e+12 -2.61508e+12 -2.42467e+12 -5.04161e+12 -3.04016e+12 -2.35673e+12 -3.74773e+12 -4.20044e+12 -1.95443e+12 -2.0634e+12 -5.021e+12 -2.0385e+12 -2.96377e+12 -2.16261e+12 -1.72844e+12 -2.5134e+12 -3.04192e+12 -3.48728e+12 -4.21148e+12 -1.38232e+12 -2.02587e+12 -3.9768e+12 -2.64644e+12 -674677000000.0 -1.99709e+12 -2.43127e+12 -1.45055e+12 -1.14378e+12 -1.30794e+12 -1.86207e+12 -1.24053e+12 -1.21686e+12 -912636000000.0 -581673000000.0 -825041000000.0 -524291000000.0 -707380000000.0 -389787000000.0 -925646000000.0 -535620000000.0 -739799000000.0 -285528000000.0 -204641000000.0 -328039000000.0 -25594000000.0 -310392000000.0 -336985000000.0 -331847000000.0 -379672000000.0 -306786000000.0 -242032000000.0 -321794000000.0 -200289000000.0 -159682000000.0 -443719000000.0 -426669000000.0 -379739000000.0 -477492000000.0 -656445000000.0 -716781000000.0 -715619000000.0 -771276000000.0 -931818000000.0 -1.22499e+12 -1.16237e+12 -375040000000.0 -705321000000.0 -1.58309e+12 -828619000000.0 -1.72991e+12 -1.84197e+12 -2.11856e+12 -2.933e+12 -1.0573e+12 -1.85697e+12 -2.84325e+12 -2.85145e+12 -2.45216e+12 -3.68481e+12 -3.41001e+12 -2.93462e+12 -2.4013e+12 -3.13502e+12 -3.31437e+12 -1.50236e+12 -3.73842e+12 -3.42243e+12 -2.23099e+12 -3.15727e+12 -6.09121e+12 -4.30289e+12 -4.08173e+12 -3.70814e+12 -6.02882e+12 -4.45682e+12 -5.74985e+12 -4.11937e+12 -4.58983e+12 -4.04442e+12 -2.9312e+12 -5.71869e+12 -3.60417e+12 -4.81611e+12 -3.89506e+12 -6.18927e+12 -4.31396e+12 -3.42356e+12 -6.50976e+12 -7.30798e+12 -3.94737e+12 -5.15154e+12 -4.4106e+12 -2.21129e+12 -2.36654e+12 -3.23289e+12 -3.52033e+12 -1.94353e+12 -5.79916e+12 -4.86149e+12 -3.66454e+12 -4.8201e+12 -2.74698e+12 -2.18015e+12 -6.0509e+12 -5.49037e+12 -3.90719e+12 -4.79066e+12 -1.95888e+12 -4.52024e+12 -7.4999e+12 -2.11693e+12 -5.41188e+12 -2.73884e+12 -2.9095e+12 -2.15089e+12 -5.33772e+12 -3.63561e+12 -1.92272e+12 -2.11049e+12 -3.01254e+12 -1.76121e+12 -3.37021e+12 -1.45182e+12 -1.63962e+12 -4.2544e+12 -223874000000.0 -2.02256e+12 -3.20774e+12 -2.95903e+12 -2.75844e+12 -2.53179e+12 -2.6246e+12 -2.17149e+12 -1.70431e+12 -1.19169e+12 -747266000000.0 -740910000000.0 -624598000000.0 -1.55493e+12 -396678000000.0 -287357000000.0 -172145000000.0 -135682000000.0 -278051000000.0 -787360000000.0 -68774800000.0 -340852000000.0 -361632000000.0 -294723000000.0 -58569000000.0 -145479000000.0 -346171000000.0 -46066100000.0 -88877200000.0 -25306900000.0 -99439300000.0 -100782000000.0 -137658000000.0 -101919000000.0 -239083000000.0 -462980000000.0 -134582000000.0 -757939000000.0 -421469000000.0 -397521000000.0 -475566000000.0 -975192000000.0 -1.12752e+12 -449186000000.0 -722925000000.0 -1.35966e+12 -1.37381e+12 -15706600000.0 -338307000000.0 -1.74892e+12 -1.45998e+12 -2.02968e+12 -1.14189e+12 -1.59122e+12 -1.58742e+12 -1.43242e+12 -2.3035e+12 -2.574e+12 -527154000000.0 -1.98719e+12 -2.22603e+12 -2.42554e+12 -1.87118e+12 -4.25653e+12 -3.68183e+12 -3.33288e+12 -2.90562e+12 -4.72365e+12 -7.11784e+12 -4.57148e+12 -6.18477e+12 -5.60555e+12 -2.13079e+12 -4.1121e+12 -5.3778e+12 -4.12756e+12 -5.83088e+12 -4.92081e+12 -4.67649e+12 -3.04624e+12 -3.22883e+12 -3.82208e+12 -2.10252e+12 -5.46121e+12 -3.59081e+12 -4.24372e+12 -5.35842e+12 -5.01794e+12 -5.73811e+12 -5.24806e+12 -4.35792e+12 -3.13294e+12 -3.76081e+12 -2.49793e+12 -3.1319e+12 -3.82844e+12 -3.70182e+12 -3.79369e+12 -2.50813e+12 -4.25764e+12 -9.50736e+12 -3.81972e+12 -2.47651e+12 -4.90264e+12 -4.33166e+12 -3.12772e+12 -4.66288e+12 -3.76176e+12 -2.85943e+12 -5.43546e+12 -4.61734e+12 -3.43797e+12 -2.63429e+12 -3.59864e+12 -1.85332e+12 -2.20908e+12 -2.84243e+12 -2.71785e+12 -1.68227e+12 -2.55719e+12 -3.84679e+12 -1.40278e+12 -1.31069e+12 -1.22419e+12 -2.82163e+12 -877883000000.0 -817660000000.0 -1.35633e+12 -509873000000.0 -1.10766e+12 -1.35904e+12 -813123000000.0 -1.14871e+12 -1.24492e+12 -613102000000.0 -706552000000.0 -652618000000.0 -452634000000.0 -433563000000.0 -530735000000.0 -709610000000.0 -424478000000.0 -199635000000.0 -466964000000.0 -268531000000.0 -183842000000.0 -154629000000.0 -25414400000.0 -134362000000.0 -80861500000.0 -19441300000.0 -130482000000.0 -82140800000.0 -201879000000.0 -216978000000.0 -383991000000.0 -171824000000.0 -446563000000.0 -375448000000.0 -426848000000.0 -299338000000.0 -243319000000.0 -104016000000.0 -152852000000.0 -972823000000.0 -1.19559e+12 -849591000000.0 -436849000000.0 -700975000000.0 -525015000000.0 -2.14401e+12 -487564000000.0 -782997000000.0 -1.49062e+12 -841539000000.0 -1.54735e+12 -1.57666e+12 -2.126e+12 -878726000000.0 -2.01595e+12 -2.83797e+12 -1.03808e+12 -647847000000.0 -1.40514e+12 -1.83841e+12 -1.51995e+12 -2.41691e+12 -1.29804e+12 -3.66127e+12 -3.76085e+12 -4.49792e+12 -2.25047e+12 -3.43419e+12 -1.03079e+12 -5.53371e+12 -2.42226e+12 -2.92212e+12 -3.2354e+12 -5.03044e+12 -3.75352e+12 -2.66511e+12 -2.80446e+12 -5.05856e+12 -3.58006e+12 -3.63029e+12 -2.98112e+12 -5.44503e+12 -6.66182e+12 -4.21285e+12 -3.76603e+12 -4.8998e+12 -2.21344e+12 -4.62246e+12 -3.91101e+12 -2.26593e+12 -2.26144e+12 -4.40886e+12 -3.04533e+12 -3.07572e+12 -2.30663e+12 -2.56734e+12 -3.8077e+12 -4.20309e+12 -3.2267e+12 -2.81611e+12 -5.52422e+12 -2.40281e+12 -2.54855e+12 -2.85204e+12 -3.29903e+12 -4.89365e+12 -2.72251e+12 -2.05681e+12 -2.89602e+12 -1.66931e+12 -1.66425e+12 -3.08929e+12 -1.63033e+12 -3.77182e+12 -1.92715e+12 -2.32389e+12 -1.25732e+12 -1.20178e+12 -1.77967e+12 -1.39437e+12 -1.95767e+12 -1.33903e+12 -1.09418e+12 -2.03015e+12 -1.04046e+12 -821165000000.0 -528022000000.0 -1.18619e+12 -1.21164e+12 -701398000000.0 -1.12695e+12 -170570000000.0 -372302000000.0 -670948000000.0 -553337000000.0 -265901000000.0 -311076000000.0 -385632000000.0 -108150000000.0 -125234000000.0 -202714000000.0 -218410000000.0 -139963000000.0 -34073300000.0 -40419700000.0 -326445000000.0 -24083900000.0 -62465900000.0 -210693000000.0 -228469000000.0 -273173000000.0 -200456000000.0 -49971600000.0 -278126000000.0 -365076000000.0 -206449000000.0 -580145000000.0 -752019000000.0 -183696000000.0 -1.08047e+12 -529400000000.0 -790095000000.0 -935261000000.0 -1.38808e+12 -65628600000.0 -771216000000.0 -1.58071e+12 -808252000000.0 -714117000000.0 -1.04064e+12 -533469000000.0 -2.05772e+12 -2.00454e+12 -961584000000.0 -1.38922e+12 -2.30384e+12 -1.12837e+12 -873456000000.0 -2.46899e+12 -2.37759e+12 -3.21937e+12 -2.28184e+12 -4.41434e+12 -3.53013e+12 -2.79281e+12 -2.36237e+12 -1.23129e+12 -3.17059e+12 -3.0504e+12 -4.90095e+12 -2.87742e+12 -1.95204e+12 -1.8619e+12 -2.52319e+12 -2.68428e+12 -3.57871e+12 -3.0324e+12 -4.15121e+12 -3.40361e+12 -4.73411e+12 -4.23578e+12 -4.48637e+12 -6.56154e+12 -4.58451e+12 -3.49569e+12 -4.63347e+12 -3.29743e+12 -2.89312e+12 -3.64205e+12 -2.59738e+12 -4.46238e+12 -1.47618e+12 -2.67071e+12 -1.88329e+12 -2.10583e+12 -1.57449e+12 -3.46068e+12 -2.24402e+12 -3.2293e+12 -2.22768e+12 -6.98753e+12 -3.34167e+12 -3.08569e+12 -1.61666e+12 -3.35355e+12 -4.64655e+12 -4.12732e+12 -2.88893e+12 -2.56035e+12 -3.23058e+12 -1.65009e+12 -1.44111e+12 -1.4227e+12 -240688000000.0 -1.83099e+12 -3.79896e+12 -2.02063e+12 -1.54771e+12 -667054000000.0 -1.48547e+12 -1.40212e+12 -1.58915e+12 -664216000000.0 -1.50373e+12 -1.34225e+12 -1.51683e+12 -820853000000.0 -1.44502e+12 -477590000000.0 -1.09405e+12 -1.17463e+12 -1.62183e+12 -857737000000.0 -454181000000.0 -813761000000.0 -287282000000.0 -1.05422e+12 -476606000000.0 -553010000000.0 -713237000000.0 -284971000000.0 -434529000000.0 -165352000000.0 -171763000000.0 -255818000000.0 -132480000000.0 -165577000000.0 -105785000000.0 -197057000000.0 -143828000000.0 -234662000000.0 -63991600000.0 -52803800000.0 -102193000000.0 -231252000000.0 -444913000000.0 -201605000000.0 -129711000000.0 -337844000000.0 -252562000000.0 -561190000000.0 -122359000000.0 -301389000000.0 -262945000000.0 -702356000000.0 -427089000000.0 -43195700000.0 -316689000000.0 -495809000000.0 -981516000000.0 -266342000000.0 -232730000000.0 -1.12954e+12 -1.07557e+12 -796531000000.0 -1.69611e+12 -723157000000.0 -974337000000.0 -1.51923e+12 -2.21518e+12 -1.33792e+12 -3.15073e+12 -1.18158e+12 -2.39415e+12 -3.36652e+12 -4.17938e+12 -2.89155e+12 -2.24398e+12 -2.83371e+12 -3.37929e+12 -4.00822e+12 -2.36517e+12 -3.02832e+12 -6.01232e+12 -2.24583e+12 -2.2183e+12 -3.02014e+12 -1.9063e+12 -4.63613e+12 -7.16611e+12 -5.55982e+12 -2.91668e+12 -3.12857e+12 -2.97327e+12 -1.21256e+12 -1.68161e+12 -2.52585e+12 -2.09136e+12 -2.24024e+12 -1.97742e+12 -2.77006e+12 -4.09064e+12 -1.73329e+12 -2.6465e+12 -2.25264e+12 -2.05522e+12 -3.18092e+12 -3.2533e+12 -1.97844e+12 -2.86362e+12 -2.34853e+12 -1.08057e+12 -2.15074e+12 -2.56971e+12 -1.44073e+12 -3.41527e+12 -2.76171e+12 -1.98068e+12 -3.31242e+12 -1.14098e+12 -2.07278e+12 -1.02863e+12 -1.87118e+12 -1.44376e+12 -1.42332e+12 -2.21423e+12 -1.48505e+12 -1.24493e+12 -1.10578e+12 -1.49443e+12 -936801000000.0 -613065000000.0 -936095000000.0 -974571000000.0 -1.42193e+12 -446114000000.0 -415650000000.0 -290350000000.0 -482563000000.0 -458665000000.0 -252975000000.0 -287979000000.0 -262111000000.0 -435054000000.0 -222926000000.0 -275270000000.0 -292421000000.0 -162477000000.0 -149458000000.0 -124580000000.0 -151165000000.0 -20470200000.0 -128110000000.0 -116137000000.0 -64771400000.0 -251221000000.0 -80937300000.0 -211471000000.0 -169849000000.0 -103105000000.0 -349054000000.0 -35353600000.0 -372419000000.0 -308342000000.0 -413001000000.0 -341664000000.0 -41586400000.0 -528045000000.0 -625491000000.0 -745704000000.0 -1.42141e+12 -774560000000.0 -743301000000.0 -1.11545e+12 -1.0745e+12 -1.52548e+12 -1.14463e+12 -1.02756e+12 -480934000000.0 -1.35886e+12 -2.19651e+12 -1.65991e+12 -491211000000.0 -1.77818e+12 -1.05958e+12 -4.08389e+12 -2.43078e+12 -2.48137e+12 -1.70271e+12 -1.01902e+12 -2.11156e+12 -1.55645e+12 -1.48302e+12 -1.83583e+12 -2.70554e+12 -1.76084e+12 -3.87075e+12 -1.81881e+12 -1.49435e+12 -2.91159e+12 -3.90033e+12 -1.62881e+12 -1.10416e+12 -1.46533e+12 -2.58451e+12 -3.22307e+12 -5.43293e+12 -2.25017e+12 -4.90994e+12 -4.12931e+12 -2.17141e+12 -6.01638e+12 -3.14107e+12 -4.21537e+12 -3.76732e+12 -3.39796e+12 -1.62509e+12 -3.79063e+12 -3.67835e+12 -2.82869e+12 -3.43889e+12 -1.74288e+12 -2.86369e+12 -2.78232e+12 -2.91147e+12 -1.55338e+12 -1.44588e+12 -1.7471e+12 -1.67562e+12 -2.28273e+12 -1.8278e+12 -1.68191e+12 -1.48225e+12 -1.85058e+12 -2.0664e+12 -3.13803e+12 -2.89308e+12 -1.75877e+12 -116514000000.0 -3.68415e+12 -2.57577e+12 -2.444e+12 -1.73315e+12 -1.40946e+12 -2.21006e+12 -1.70557e+12 -255599000000.0 -1.26057e+12 -980339000000.0 -1.0766e+12 -319659000000.0 -1.40922e+12 -1.37078e+12 -2.18777e+12 -507116000000.0 -509368000000.0 -1.05019e+12 -616527000000.0 -809472000000.0 -444992000000.0 -180294000000.0 -528756000000.0 -21972000000.0 -272473000000.0 -62252300000.0 -171126000000.0 -102221000000.0 -73687400000.0 -153861000000.0 -16780600000.0 -106700000000.0 -167400000000.0 -142392000000.0 -96584600000.0 -195550000000.0 -204589000000.0 -35382900000.0 -32510700000.0 -139837000000.0 -14726800000.0 -328501000000.0 -127041000000.0 -307374000000.0 -168629000000.0 -412006000000.0 -52921000000.0 -301491000000.0 -246060000000.0 -22086200000.0 -247241000000.0 -155847000000.0 -695815000000.0 -56908100000.0 -917591000000.0 -1.19237e+12 -723285000000.0 -1.6293e+12 -2.32312e+12 -1.08732e+12 -2.17116e+12 -1.17422e+12 -2.29217e+12 -2.61715e+12 -3.38967e+12 -1.25749e+12 -1.76342e+12 -1.88301e+12 -2.35939e+12 -1.26083e+12 -3.02617e+12 -1.37981e+12 -494795000000.0 -1.93653e+12 -4.97477e+12 -1.89047e+12 -3.6138e+12 -2.1975e+12 -1.96457e+12 -1.9099e+12 -1.49482e+12 -3.49686e+12 -3.73284e+12 -2.75126e+12 -2.67044e+12 -1.94581e+12 -3.84868e+12 -3.05907e+12 -2.92338e+12 -1.13879e+12 -1.9717e+12 -1.824e+12 -1.86203e+12 -3.31921e+12 -1.73328e+12 -2.73583e+12 -1.58986e+12 -2.37512e+12 -1.25476e+12 -1.35094e+12 -2.3015e+12 -1.7783e+12 -2.16026e+12 -2.21099e+12 -1.07467e+12 -782148000000.0 -1.22301e+12 -2.5907e+12 -1.18381e+12 -2.01361e+12 -1.08893e+12 -1.43276e+12 -758889000000.0 -1.59146e+12 -1.02815e+12 -451017000000.0 -948533000000.0 -550490000000.0 -1.157e+12 -665961000000.0 -834744000000.0 -717006000000.0 -695880000000.0 -777163000000.0 -136625000000.0 -484412000000.0 -429050000000.0 -642194000000.0 -435152000000.0 -506542000000.0 -303045000000.0 -256027000000.0 -500242000000.0 -260378000000.0 -124839000000.0 -161515000000.0 -175123000000.0 -149725000000.0 -153827000000.0 -128248000000.0 -161968000000.0 -167205000000.0 -240960000000.0 -174645000000.0 -83298900000.0 -203514000000.0 -314795000000.0 -89740400000.0 -147722000000.0 -124450000000.0 -91233100000.0 -457303000000.0 -281432000000.0 -229641000000.0 -454582000000.0 -318609000000.0 -292460000000.0 -314200000000.0 -594996000000.0 -601969000000.0 -896196000000.0 -651614000000.0 -135247000000.0 -1.0844e+12 -1.01946e+12 -1.39433e+12 -1.32318e+12 -2.08006e+12 -2.01357e+12 -1.30536e+12 -1.95601e+12 -2.90722e+12 -2.84861e+12 -2.78016e+12 -502213000000.0 -1.25681e+12 -1.54055e+12 -2.1598e+12 -3.59003e+12 -718600000000.0 -1.65344e+12 -3.41893e+12 -1.50735e+12 -1.8263e+12 -1.62683e+12 -1.77771e+12 -1.64877e+12 -2.53811e+12 -1.79284e+12 -3.0763e+12 -2.61385e+12 -2.13484e+12 -2.66173e+12 -2.20528e+12 -3.36732e+12 -2.42117e+12 -1.25113e+12 -2.51815e+12 -2.38364e+12 -1.36518e+12 -1.18706e+12 -2.42931e+12 -1.19969e+12 -1.97543e+12 -1.72177e+12 -1.63576e+12 -2.3065e+12 -1.5764e+12 -1.79328e+12 -982690000000.0 -233980000000.0 -816329000000.0 -2.32506e+12 -2.25551e+12 -1.59302e+12 -570141000000.0 -2.00474e+12 -705788000000.0 -1.28127e+12 -2.69597e+12 -319444000000.0 -997232000000.0 -1.17823e+12 -729055000000.0 -1.43096e+12 -490881000000.0 -535881000000.0 -590345000000.0 -893568000000.0 -1.18242e+12 -354832000000.0 -732558000000.0 -277771000000.0 -152271000000.0 -532332000000.0 -56291400000.0 -359496000000.0 -61579500000.0 -136220000000.0 -169077000000.0 -179074000000.0 -151890000000.0 -199302000000.0 -132512000000.0 -138047000000.0 -12549700000.0 -176571000000.0 -119616000000.0 -71605200000.0 -158515000000.0 -21234900000.0 -249113000000.0 -112066000000.0 -222945000000.0 -30129500000.0 -81511600000.0 -300408000000.0 -294369000000.0 -293727000000.0 -259567000000.0 -458157000000.0 -19211900000.0 -378984000000.0 -546055000000.0 -474441000000.0 -287162000000.0 -538059000000.0 -608595000000.0 -541328000000.0 -858334000000.0 -715751000000.0 -388499000000.0 -1.49699e+12 -2.00881e+12 -1.43152e+12 -618673000000.0 -2.09866e+12 -645546000000.0 -1.93449e+12 -863589000000.0 -1.75418e+12 -1.26542e+12 -1.23232e+12 -1.85158e+12 -1.77937e+12 -1.97809e+12 -2.28441e+12 -2.82057e+12 -1.56148e+12 -586344000000.0 -1.7107e+12 -941470000000.0 -4.89516e+12 -1.82422e+12 -3.72641e+12 -2.20281e+12 -1.80076e+12 -4.01957e+12 -2.6228e+12 -2.43099e+12 -1.03879e+12 -861468000000.0 -2.88419e+12 -1.63148e+12 -728831000000.0 -975349000000.0 -1.78468e+12 -2.48571e+12 -1.96289e+12 -1.61165e+12 -1.40328e+12 -1.92705e+12 -681366000000.0 -564273000000.0 -1.05335e+12 -539108000000.0 -1.65396e+12 -1.43467e+12 -1.22809e+12 -841903000000.0 -295718000000.0 -838501000000.0 -1.5075e+12 -367787000000.0 -1.49419e+12 -1.7655e+12 -710172000000.0 -650887000000.0 -533788000000.0 -780565000000.0 -426114000000.0 -837738000000.0 -227667000000.0 -588321000000.0 -504204000000.0 -398326000000.0 -74735200000.0 -876575000000.0 -303097000000.0 -693365000000.0 -422038000000.0 -129350000000.0 -699782000000.0 -812168000000.0 -472993000000.0 -136306000000.0 -205963000000.0 -262624000000.0 -61552400000.0 -210236000000.0 -91018300000.0 -20325800000.0 -39241400000.0 -162786000000.0 -78159100000.0 -86260600000.0 -75795400000.0 -110412000000.0 -113194000000.0 -62555300000.0 -80256100000.0 -46641300000.0 -75289500000.0 -161673000000.0 -269280000000.0 -210263000000.0 -236903000000.0 -256696000000.0 -161626000000.0 -135926000000.0 -20342600000.0 -22117900000.0 -175074000000.0 -429646000000.0 -28531800000.0 -169169000000.0 -249083000000.0 -731400000000.0 -201931000000.0 -108908000000.0 -944164000000.0 -588231000000.0 -724512000000.0 -1.45839e+12 -1.11415e+12 -284643000000.0 -1.31867e+12 -1.35047e+12 -621379000000.0 -916093000000.0 -990631000000.0 -1.62942e+12 -2.04728e+12 -2.02457e+12 -1.40273e+12 -2.58252e+12 -893831000000.0 -1.65446e+12 -2.98925e+12 -1.57096e+12 -2.08909e+12 -3.41289e+12 -2.23059e+12 -620100000000.0 -3.70943e+12 -1.68527e+12 -416642000000.0 -1.70578e+12 -2.94299e+12 -1.70003e+12 -2.26705e+12 -813552000000.0 -1.1035e+12 -600578000000.0 -502996000000.0 -1.18534e+12 -1.26355e+12 -2.08328e+12 -2.53984e+12 -687978000000.0 -1.48646e+12 -302854000000.0 -1.17621e+12 -826449000000.0 -1.64336e+12 -886773000000.0 -895633000000.0 -766523000000.0 -638329000000.0 -1.12641e+12 -13807200000.0 -922501000000.0 -1.25773e+12 -665791000000.0 -221843000000.0 -185739000000.0 -567715000000.0 -420916000000.0 -749255000000.0 -175922000000.0 -639961000000.0 -179131000000.0 -92664400000.0 -344921000000.0 -448799000000.0 -336321000000.0 -197200000000.0 -134494000000.0 -325504000000.0 -56961200000.0 -401464000000.0 -466009000000.0 -336869000000.0 -213171000000.0 -151228000000.0 -74921700000.0 -61752800000.0 -171048000000.0 -56941800000.0 -80151400000.0 -82051900000.0 -80606600000.0 -60171000000.0 -84742100000.0 -89584300000.0 -43843800000.0 -135611000000.0 -174557000000.0 -154052000000.0 -13726000000.0 -129554000000.0 -70452400000.0 -372244000000.0 -156591000000.0 -56122700000.0 -267178000000.0 -388024000000.0 -212552000000.0 -611516000000.0 -897136000000.0 -709125000000.0 -491395000000.0 -292689000000.0 -532511000000.0 -512953000000.0 -907529000000.0 -1.12103e+12 -1.18566e+12 -424325000000.0 -609285000000.0 -957678000000.0 -418772000000.0 -788034000000.0 -887730000000.0 -1.66471e+12 -822245000000.0 -587443000000.0 -1.25814e+12 -1.06951e+12 -1.03427e+12 -1.09995e+12 -546493000000.0 -950652000000.0 -1.69366e+12 -1.7618e+12 -700378000000.0 -1.56523e+12 -1.38548e+12 -1.21544e+12 -489679000000.0 -997627000000.0 -2.88594e+12 -1.37393e+12 -1.50037e+12 -1.69839e+12 -767942000000.0 -1.17921e+12 -1.50292e+12 -1.63915e+12 -465544000000.0 -649877000000.0 -1.4189e+12 -1.51896e+12 -874541000000.0 -601236000000.0 -931741000000.0 -2.32385e+12 -806967000000.0 -994408000000.0 -969202000000.0 -883788000000.0 -1.06646e+12 -1.31411e+12 -478414000000.0 -537902000000.0 -494933000000.0 -361651000000.0 -885458000000.0 -1.48838e+12 -205309000000.0 -882904000000.0 -689351000000.0 -1.36559e+12 -275859000000.0 -383783000000.0 -866385000000.0 -175264000000.0 -456459000000.0 -425121000000.0 -229071000000.0 -12549700000.0 -183842000000.0 -202114000000.0 -161480000000.0 -327578000000.0 -174472000000.0 -78748400000.0 -247102000000.0 -133285000000.0 -171698000000.0 -148302000000.0 -281483000000.0 -59928100000.0 -156675000000.0 -183649000000.0 -113238000000.0 -200853000000.0 -72479900000.0 -73150200000.0 -41820900000.0 -118214000000.0 -90082100000.0 -47392700000.0 -40417400000.0 -224909000000.0 -118232000000.0 -151754000000.0 -170948000000.0 -53040400000.0 -17478600000.0 -295011000000.0 -59273900000.0 -14542800000.0 -150970000000.0 -73618600000.0 -181009000000.0 -76239300000.0 -242370000000.0 -152832000000.0 -484167000000.0 -84379800000.0 -26107400000.0 -386615000000.0 -304700000000.0 -136343000000.0 -130701000000.0 -409654000000.0 -959705000000.0 -545716000000.0 -538990000000.0 -675850000000.0 -599595000000.0 -465533000000.0 -554635000000.0 -483498000000.0 -955661000000.0 -849339000000.0 -697200000000.0 -1.53634e+12 -1.76622e+12 -1.6644e+12 -1.6639e+12 -1.26611e+12 -1.96703e+12 -1.22032e+12 -2.3871e+12 -1.3166e+12 -2.24267e+12 -2.47311e+12 -377168000000.0 -1.53228e+12 -2.19972e+12 -2.05571e+12 -1.12025e+12 -1.23606e+12 -1.00739e+12 -478243000000.0 -959952000000.0 -1.69127e+12 -697473000000.0 -955058000000.0 -984982000000.0 -1.62012e+12 -1.00119e+12 -990570000000.0 -610286000000.0 -1.11742e+12 -691328000000.0 -246772000000.0 -406890000000.0 -629109000000.0 -587867000000.0 -846214000000.0 -1.18457e+12 -538057000000.0 -108879000000.0 -222416000000.0 -443992000000.0 -884144000000.0 -324817000000.0 -143192000000.0 -257964000000.0 -208640000000.0 -170795000000.0 -123641000000.0 -331557000000.0 -127842000000.0 -102290000000.0 -198794000000.0 -238607000000.0 -182381000000.0 -213639000000.0 -47460300000.0 -15026200000.0 -131247000000.0 -255068000000.0 -143180000000.0 -222173000000.0 -141550000000.0 -50982800000.0 -134283000000.0 -45975800000.0 -23757200000.0 -67134600000.0 -117226000000.0 -12549700000.0 -82435100000.0 -143154000000.0 -12549700000.0 -69914800000.0 -60652300000.0 -121404000000.0 -70978600000.0 -86774600000.0 -228645000000.0 -69371600000.0 -108466000000.0 -162819000000.0 -44422700000.0 -91799700000.0 -233227000000.0 -199346000000.0 -252380000000.0 -86750800000.0 -462777000000.0 -100726000000.0 -238291000000.0 -119919000000.0 -230603000000.0 -388779000000.0 -693663000000.0 -534745000000.0 -400196000000.0 -590270000000.0 -395699000000.0 -630630000000.0 -805928000000.0 -541692000000.0 -609274000000.0 -427591000000.0 -784913000000.0 -665440000000.0 -350925000000.0 -758362000000.0 -1.29184e+12 -556228000000.0 -1.04721e+12 -588328000000.0 -1.1235e+12 -1.18197e+12 -531625000000.0 -1.03751e+12 -1.2264e+12 -1.41389e+12 -1.30733e+12 -1.16454e+12 -1.0166e+12 -1.27917e+12 -1.14269e+12 -1.09529e+12 -1.25602e+12 -1.42286e+12 -1.33935e+12 -771935000000.0 -1.05395e+12 -1.03983e+12 -1.17565e+12 -790713000000.0 -426116000000.0 -1.25356e+12 -862637000000.0 -938687000000.0 -35092400000.0 -294197000000.0 -103168000000.0 -1.10135e+12 -808667000000.0 -333485000000.0 -936771000000.0 -670693000000.0 -47305200000.0 -288513000000.0 -789579000000.0 -1.20394e+12 -1.03383e+12 -553676000000.0 -577306000000.0 -199535000000.0 -276596000000.0 -59093100000.0 -107282000000.0 -312890000000.0 -285612000000.0 -13332100000.0 -288643000000.0 -271439000000.0 -124784000000.0 -106357000000.0 -93514600000.0 -200541000000.0 -149529000000.0 -29879500000.0 -13083300000.0 -83735400000.0 -253234000000.0 -13227100000.0 -42672000000.0 -174811000000.0 -144687000000.0 -182677000000.0 -129357000000.0 -104378000000.0 -72940900000.0 -122864000000.0 -61986000000.0 -61788200000.0 -61730600000.0 -69933500000.0 -142013000000.0 -76617800000.0 -12566400000.0 -95217100000.0 -124890000000.0 -51642800000.0 -22925300000.0 -89246700000.0 -55656100000.0 -216442000000.0 -18213200000.0 -181581000000.0 -251389000000.0 -263193000000.0 -372794000000.0 -15231600000.0 -157953000000.0 -145313000000.0 -842598000000.0 -508625000000.0 -91956600000.0 -446168000000.0 -308548000000.0 -25219800000.0 -12549700000.0 -265147000000.0 -431815000000.0 -773846000000.0 -878814000000.0 -574728000000.0 -498887000000.0 -293172000000.0 -666599000000.0 -475470000000.0 -749984000000.0 -421131000000.0 -1.13642e+12 -627344000000.0 -1.2826e+12 -982641000000.0 -807782000000.0 -825074000000.0 -579163000000.0 -773144000000.0 -431760000000.0 -982355000000.0 -989476000000.0 -1.06263e+12 -430417000000.0 -890699000000.0 -739384000000.0 -1.64354e+12 -585260000000.0 -507032000000.0 -657650000000.0 -514102000000.0 -1.0318e+12 -651741000000.0 -753414000000.0 -560425000000.0 -496332000000.0 -552452000000.0 -510474000000.0 -576472000000.0 -393202000000.0 -119693000000.0 -493747000000.0 -501463000000.0 -564663000000.0 -737397000000.0 -226049000000.0 -345902000000.0 -419886000000.0 -351780000000.0 -336956000000.0 -45467600000.0 -126542000000.0 -105728000000.0 -282198000000.0 -107732000000.0 -85980700000.0 -182646000000.0 -22518200000.0 -12549700000.0 -106704000000.0 -83078300000.0 -145196000000.0 -80231900000.0 -41314500000.0 -172011000000.0 -140796000000.0 -89534900000.0 -135439000000.0 -45265900000.0 -84265400000.0 -53652500000.0 -39841300000.0 -48200600000.0 -97693700000.0 -55403700000.0 -78896500000.0 -65803200000.0 -90170400000.0 -46579200000.0 -106381000000.0 -39133700000.0 -53702800000.0 -125571000000.0 -87802900000.0 -202246000000.0 -185746000000.0 -159312000000.0 -257025000000.0 -89381200000.0 -132917000000.0 -96666700000.0 -58818800000.0 -116596000000.0 -181423000000.0 -231315000000.0 -331425000000.0 -511577000000.0 -286803000000.0 -640710000000.0 -123766000000.0 -417385000000.0 -12795100000.0 -382430000000.0 -366572000000.0 -535267000000.0 -990780000000.0 -479449000000.0 -508917000000.0 -284365000000.0 -519152000000.0 -973382000000.0 -592690000000.0 -656302000000.0 -584528000000.0 -474798000000.0 -155319000000.0 -947914000000.0 -1.07223e+12 -606207000000.0 -592456000000.0 -200825000000.0 -1.17999e+12 -871525000000.0 -367263000000.0 -584628000000.0 -824850000000.0 -348984000000.0 -570846000000.0 -399066000000.0 -415097000000.0 -815357000000.0 -442820000000.0 -638626000000.0 -488821000000.0 -339062000000.0 -446513000000.0 -550816000000.0 -460733000000.0 -629052000000.0 -640479000000.0 -413564000000.0 -442188000000.0 -38093400000.0 -33278000000.0 -329586000000.0 -479501000000.0 -416997000000.0 -596781000000.0 -647926000000.0 -213197000000.0 -273188000000.0 -18820400000.0 -321680000000.0 -228695000000.0 -355607000000.0 -200669000000.0 -76656300000.0 -35430400000.0 -156828000000.0 -190847000000.0 -47644000000.0 -86966300000.0 -12628800000.0 -110900000000.0 -132325000000.0 -73193500000.0 -67307600000.0 -127582000000.0 -58017800000.0 -60829100000.0 -64842700000.0 -93425900000.0 -63906000000.0 -47094900000.0 -82545700000.0 -69659600000.0 -81267000000.0 -42019100000.0 -83075400000.0 -71586100000.0 -50122400000.0 -19693100000.0 -52235800000.0 -146994000000.0 -96031700000.0 -142408000000.0 -68723100000.0 -12906300000.0 -51101500000.0 -86277300000.0 -77657600000.0 -184113000000.0 -158387000000.0 -83574800000.0 -47271300000.0 -55533100000.0 -57732400000.0 -23988900000.0 -329419000000.0 -227154000000.0 -420020000000.0 -271108000000.0 -169422000000.0 -792421000000.0 -677918000000.0 -537137000000.0 -201637000000.0 -776532000000.0 -580592000000.0 -674418000000.0 -523405000000.0 -751804000000.0 -611055000000.0 -322065000000.0 -613906000000.0 -588120000000.0 -11611300000.0 -500863000000.0 -109345000000.0 -251994000000.0 -1.0492e+12 -822392000000.0 -742802000000.0 -533127000000.0 -16367800000.0 -737452000000.0 -477902000000.0 -602022000000.0 -970945000000.0 -892363000000.0 -386938000000.0 -666591000000.0 -756128000000.0 -914269000000.0 -285051000000.0 -319244000000.0 -163481000000.0 -246071000000.0 -202796000000.0 -195665000000.0 -145173000000.0 -323050000000.0 -346808000000.0 -145356000000.0 -220117000000.0 -154346000000.0 -84354000000.0 -63577700000.0 -184140000000.0 -414885000000.0 -156967000000.0 -342638000000.0 -82076400000.0 -405819000000.0 -124416000000.0 -55398300000.0 -143006000000.0 -63961500000.0 -29501300000.0 -187812000000.0 -86697500000.0 -134899000000.0 -51056000000.0 -80413300000.0 -85072100000.0 -115942000000.0 -29724400000.0 -31533100000.0 -48080400000.0 -118364000000.0 -12549700000.0 -98317000000.0 -13241300000.0 -64085900000.0 -76741800000.0 -38445900000.0 -85977400000.0 -94377300000.0 -73449400000.0 -46771600000.0 -51255600000.0 -21120300000.0 -41180000000.0 -12797600000.0 -98743900000.0 -61182600000.0 -57845200000.0 -12549700000.0 -66934000000.0 -115893000000.0 -40650000000.0 -95528100000.0 -110401000000.0 -129603000000.0 -148592000000.0 -37402800000.0 -177321000000.0 -286057000000.0 -42981900000.0 -137722000000.0 -328687000000.0 -211313000000.0 -155968000000.0 -147384000000.0 -421003000000.0 -97235000000.0 -148437000000.0 -341796000000.0 -311603000000.0 -673125000000.0 -479437000000.0 -234398000000.0 -708358000000.0 -450477000000.0 -71620400000.0 -338468000000.0 -669477000000.0 -1.07366e+12 -836581000000.0 -330542000000.0 -331436000000.0 -975592000000.0 -1.01792e+12 -362312000000.0 -1.06376e+12 -757655000000.0 -739412000000.0 -552453000000.0 -522254000000.0 -1.4327e+12 -970762000000.0 -290202000000.0 -309804000000.0 -482006000000.0 -469143000000.0 -292285000000.0 -68039400000.0 -164485000000.0 -117854000000.0 -142217000000.0 -211166000000.0 -34049700000.0 -293674000000.0 -128863000000.0 -544425000000.0 -292578000000.0 -122575000000.0 -157029000000.0 -116247000000.0 -358750000000.0 -248571000000.0 -251272000000.0 -262751000000.0 -125822000000.0 -250606000000.0 -201308000000.0 -185720000000.0 -116392000000.0 -58679400000.0 -53607500000.0 -52954000000.0 -165891000000.0 -183106000000.0 -170809000000.0 -87163800000.0 -88242900000.0 -64285500000.0 -91898000000.0 -29627900000.0 -23277400000.0 -40164600000.0 -47148200000.0 -63588800000.0 -104988000000.0 -66797600000.0 -102187000000.0 -78909600000.0 -49524100000.0 -71430600000.0 -66237000000.0 -62861700000.0 -86295600000.0 -93301600000.0 -90838200000.0 -82437900000.0 -83026500000.0 -94094800000.0 -82148700000.0 -56207700000.0 -76087800000.0 -38457800000.0 -63924400000.0 -75518700000.0 -106613000000.0 -101966000000.0 -15040200000.0 -75800500000.0 -57965100000.0 -201101000000.0 -155454000000.0 -169120000000.0 -57540600000.0 -90984000000.0 -266893000000.0 -218644000000.0 -210014000000.0 -296656000000.0 -266163000000.0 -153541000000.0 -12549700000.0 -229814000000.0 -178344000000.0 -290270000000.0 -444364000000.0 -241533000000.0 -419627000000.0 -351519000000.0 -183809000000.0 -271626000000.0 -479273000000.0 -324886000000.0 -101684000000.0 -906579000000.0 -732582000000.0 -770049000000.0 -223653000000.0 -552338000000.0 -749505000000.0 -329186000000.0 -181126000000.0 -200438000000.0 -322850000000.0 -994392000000.0 -765280000000.0 -623010000000.0 -177322000000.0 -280959000000.0 -285171000000.0 -343408000000.0 -482918000000.0 -104539000000.0 -275908000000.0 -241319000000.0 -213173000000.0 -143749000000.0 -132157000000.0 -485629000000.0 -176191000000.0 -94259900000.0 -174862000000.0 -128872000000.0 -107887000000.0 -66395000000.0 -191235000000.0 -102037000000.0 -160427000000.0 -162827000000.0 -61055900000.0 -35823900000.0 -40433500000.0 -56038100000.0 -34084400000.0 -60941900000.0 -160720000000.0 -52566100000.0 -65651400000.0 -42543500000.0 -80326300000.0 -105743000000.0 -60441000000.0 -51425200000.0 -27064800000.0 -57125500000.0 -30994100000.0 -72220200000.0 -58912200000.0 -37261700000.0 -30361500000.0 -19133200000.0 -32918200000.0 -39995200000.0 -51756600000.0 -28454300000.0 -54541900000.0 -56277300000.0 -36959100000.0 -33829300000.0 -32298400000.0 -48399400000.0 -53589800000.0 -84765300000.0 -60542500000.0 -52569000000.0 -83012100000.0 -80943800000.0 -127804000000.0 -96407800000.0 -105596000000.0 -167733000000.0 -22528400000.0 -104492000000.0 -171885000000.0 -324333000000.0 -190331000000.0 -186081000000.0 -202285000000.0 -367451000000.0 -330986000000.0 -170847000000.0 -218945000000.0 -300639000000.0 -367301000000.0 -705749000000.0 -270434000000.0 -27569000000.0 -206522000000.0 -246670000000.0 -279397000000.0 -343175000000.0 -141880000000.0 -140364000000.0 -360815000000.0 -339982000000.0 -364570000000.0 -203182000000.0 -418113000000.0 -295295000000.0 -516305000000.0 -583261000000.0 -401794000000.0 -347159000000.0 -1.10359e+12 -456852000000.0 -129662000000.0 -90728900000.0 -410317000000.0 -216626000000.0 -322591000000.0 -397495000000.0 -259494000000.0 -283639000000.0 -104372000000.0 -100961000000.0 -147734000000.0 -61854400000.0 -61379800000.0 -30904600000.0 -96635100000.0 -298077000000.0 -100464000000.0 -30318300000.0 -120739000000.0 -244222000000.0 -110175000000.0 -223287000000.0 -88448400000.0 -116069000000.0 -134221000000.0 -86249300000.0 -35644400000.0 -16994700000.0 -21881900000.0 -50238400000.0 -104121000000.0 -75253200000.0 -64589300000.0 -64534100000.0 -34276000000.0 -12549700000.0 -13009700000.0 -20413300000.0 -14419100000.0 -45342200000.0 -21122800000.0 -13561200000.0 -37494300000.0 -73549500000.0 -44944400000.0 -46047500000.0 -24814200000.0 -59489700000.0 -57042000000.0 -64732800000.0 -20292600000.0 -34909800000.0 -38326300000.0 -15261500000.0 -34266700000.0 -12785400000.0 -24904300000.0 -40901000000.0 -57758400000.0 -84015800000.0 -51006300000.0 -31203300000.0 -101030000000.0 -57050000000.0 -16317400000.0 -78749000000.0 -147505000000.0 -66605400000.0 -27702600000.0 -76031000000.0 -65087500000.0 -118479000000.0 -204917000000.0 -54150000000.0 -203650000000.0 -100911000000.0 -72971600000.0 -262468000000.0 -88101400000.0 -234725000000.0 -415525000000.0 -112206000000.0 -92826400000.0 -204571000000.0 -38579100000.0 -191085000000.0 -248203000000.0 -83748100000.0 -211921000000.0 -79897500000.0 -51966900000.0 -239124000000.0 -445446000000.0 -351105000000.0 -423465000000.0 -223098000000.0 -195395000000.0 -184471000000.0 -132051000000.0 -203351000000.0 -294875000000.0 -211874000000.0 -615236000000.0 -260063000000.0 -357131000000.0 -204487000000.0 -347002000000.0 -65588400000.0 -15861200000.0 -13426700000.0 -233302000000.0 -12549700000.0 -96528100000.0 -103440000000.0 -12549700000.0 -76308000000.0 -77367400000.0 -108629000000.0 -196986000000.0 -130073000000.0 -144407000000.0 -131935000000.0 -61010800000.0 -138250000000.0 -44582900000.0 -60819000000.0 -140664000000.0 -71041700000.0 -47634400000.0 -57875900000.0 -89637100000.0 -46633300000.0 -51896700000.0 -63390800000.0 -87320000000.0 -51989400000.0 -69183100000.0 -47566600000.0 -48690100000.0 -26459000000.0 -43179300000.0 -24468800000.0 -25740200000.0 -37670600000.0 -58882100000.0 -47977400000.0 -41980500000.0 -61918100000.0 -52157300000.0 -26414400000.0 -62008300000.0 -34388800000.0 -52230600000.0 -30570200000.0 -29569600000.0 -40533100000.0 -45452500000.0 -33103000000.0 -14395800000.0 -95486300000.0 -49494600000.0 -53395600000.0 -24953100000.0 -85677600000.0 -31367400000.0 -103335000000.0 -73549500000.0 -33036600000.0 -42299100000.0 -114128000000.0 -125326000000.0 -137302000000.0 -91980000000.0 -103019000000.0 -66995100000.0 -99314100000.0 -41916700000.0 -43935200000.0 -185469000000.0 -126380000000.0 -178522000000.0 -342592000000.0 -136930000000.0 -192928000000.0 -179305000000.0 -149798000000.0 -143881000000.0 -125233000000.0 -200662000000.0 -288173000000.0 -267868000000.0 -109437000000.0 -596304000000.0 -170617000000.0 -297598000000.0 -302803000000.0 -338899000000.0 -131760000000.0 -141370000000.0 -241800000000.0 -222302000000.0 -554997000000.0 -181611000000.0 -184312000000.0 -167668000000.0 -166454000000.0 -12549700000.0 -372627000000.0 -54576600000.0 -80537900000.0 -162553000000.0 -128917000000.0 -47830500000.0 -42438800000.0 -27718300000.0 -13758300000.0 -84211900000.0 -119166000000.0 -14487000000.0 -21134400000.0 -25462900000.0 -60745800000.0 -12736100000.0 -63452800000.0 -71324900000.0 -75436500000.0 -183755000000.0 -132915000000.0 -126783000000.0 -78341100000.0 -34309000000.0 -55913900000.0 -45459800000.0 -37312300000.0 -63897300000.0 -36968100000.0 -79241300000.0 -51143500000.0 -49904900000.0 -41524100000.0 -21983100000.0 -51485000000.0 -59155200000.0 -40508900000.0 -39424700000.0 -52009400000.0 -51343800000.0 -12549700000.0 -26713000000.0 -13056000000.0 -58523500000.0 -12595800000.0 -14213500000.0 -16805000000.0 -48881500000.0 -35533900000.0 -29270300000.0 -57360600000.0 -38752600000.0 -49160500000.0 -49705000000.0 -48412700000.0 -49245900000.0 -101536000000.0 -19356300000.0 -23745500000.0 -26781500000.0 -23202700000.0 -88244400000.0 -70937400000.0 -72375100000.0 -60347300000.0 -51788300000.0 -75777800000.0 -74813500000.0 -53353900000.0 -45963300000.0 -77251700000.0 -38262000000.0 -99155300000.0 -48479300000.0 -36300900000.0 -156103000000.0 -116867000000.0 -78401300000.0 -91628500000.0 -191469000000.0 -51695900000.0 -70414500000.0 -49765000000.0 -145943000000.0 -91638600000.0 -140450000000.0 -270035000000.0 -236058000000.0 -182832000000.0 -249195000000.0 -201551000000.0 -201710000000.0 -176311000000.0 -269227000000.0 -139875000000.0 -261336000000.0 -235435000000.0 -115477000000.0 -145350000000.0 -501634000000.0 -176556000000.0 -183954000000.0 -86433800000.0 -61304700000.0 -56751300000.0 -263589000000.0 -209366000000.0 -109911000000.0 -106989000000.0 -42098200000.0 -155921000000.0 -56036100000.0 -123035000000.0 -97401600000.0 -50877700000.0 -18522200000.0 -63611300000.0 -22624900000.0 -30612600000.0 -53140800000.0 -78109800000.0 -75805400000.0 -49193400000.0 -53894900000.0 -77889600000.0 -78785300000.0 -30924200000.0 -71762400000.0 -17144900000.0 -81602700000.0 -49652900000.0 -13191900000.0 -62197800000.0 -38227900000.0 -14544900000.0 -12663400000.0 -34810700000.0 -43241500000.0 -15087200000.0 -12549700000.0 -12568200000.0 -36804500000.0 -33684000000.0 -42057000000.0 -31926200000.0 -19688100000.0 -28689200000.0 -34598900000.0 -28885800000.0 -20058200000.0 -30998600000.0 -14379500000.0 -17407300000.0 -29550300000.0 -27353500000.0 -38880300000.0 -75696100000.0 -43478300000.0 -13173800000.0 -13642800000.0 -14121500000.0 -27269500000.0 -79598300000.0 -44819900000.0 -25565800000.0 -42785400000.0 -73648600000.0 -30519000000.0 -21740700000.0 -109045000000.0 -76773200000.0 -56431800000.0 -80998300000.0 -46529300000.0 -23324000000.0 -96879800000.0 -33476700000.0 -113698000000.0 -12549700000.0 -12549700000.0 -78445300000.0 -27837200000.0 -89526800000.0 -104098000000.0 -12549700000.0 -36005300000.0 -90226700000.0 -131380000000.0 -22259900000.0 -71319000000.0 -117070000000.0 -84684800000.0 -258366000000.0 -156490000000.0 -63287900000.0 -137725000000.0 -18007400000.0 -141723000000.0 -79490400000.0 -350839000000.0 -293316000000.0 -381504000000.0 -291363000000.0 -69192000000.0 -195130000000.0 -64495600000.0 -47148700000.0 -15087400000.0 -112899000000.0 -152806000000.0 -78358600000.0 -68618000000.0 -126729000000.0 -39470200000.0 -32483600000.0 -22693900000.0 -76187300000.0 -38508300000.0 -35036800000.0 -76654700000.0 -51710100000.0 -41776200000.0 -20199900000.0 -42769900000.0 -45260300000.0 -43420800000.0 -22403400000.0 -69817700000.0 -21410400000.0 -86181000000.0 -108736000000.0 -51538100000.0 -27836900000.0 -47503600000.0 -56651200000.0 -36781600000.0 -47838000000.0 -45669200000.0 -27666600000.0 -27792300000.0 -13016000000.0 -12649700000.0 -33737500000.0 -25349700000.0 -39655400000.0 -29801000000.0 -23451100000.0 -16821600000.0 -26491200000.0 -25653500000.0 -30624000000.0 -23138000000.0 -33588800000.0 -22190300000.0 -19099700000.0 -38060900000.0 -49711200000.0 -58944200000.0 -48316800000.0 -63691800000.0 -87092600000.0 -24409200000.0 -58210800000.0 -49366100000.0 -23092700000.0 -13346600000.0 -85337100000.0 -30633400000.0 -70521700000.0 -55545500000.0 -56514000000.0 -65870700000.0 -57576100000.0 -47382500000.0 -99934000000.0 -30759200000.0 -21547400000.0 -71787600000.0 -126170000000.0 -57283300000.0 -43920500000.0 -32669000000.0 -74031800000.0 -91360300000.0 -32992300000.0 -53705600000.0 -68969700000.0 -177023000000.0 -23813100000.0 -91193600000.0 -165603000000.0 -193296000000.0 -89913100000.0 -142540000000.0 -82676000000.0 -89069400000.0 -141319000000.0 -94547600000.0 -288930000000.0 -264372000000.0 -63123400000.0 -19364000000.0 -112260000000.0 -129950000000.0 -65685000000.0 -77945800000.0 -116156000000.0 -12702300000.0 -66342300000.0 -49004400000.0 -41760400000.0 -37968800000.0 -64851300000.0 -57703400000.0 -80364900000.0 -46376100000.0 -61253800000.0 -68186400000.0 -66523200000.0 -50765700000.0 -71176700000.0 -16723700000.0 -88737100000.0 -27724600000.0 -48440500000.0 -36308200000.0 -38534700000.0 -43874700000.0 -46678300000.0 -56955000000.0 -16739200000.0 -13102400000.0 -29239600000.0 -21680000000.0 -31009200000.0 -12742400000.0 -15767400000.0 -33325400000.0 -23010300000.0 -20516400000.0 -20628800000.0 -21050500000.0 -31882200000.0 -18844800000.0 -30547600000.0 -29592900000.0 -47000400000.0 -34545600000.0 -44766500000.0 -20629500000.0 -40569400000.0 -24254700000.0 -25691900000.0 -36348800000.0 -13871900000.0 -61503100000.0 -36222100000.0 -41252700000.0 -49275000000.0 -19691000000.0 -51466200000.0 -50490900000.0 -63331500000.0 -53092200000.0 -72458500000.0 -65634100000.0 -44201200000.0 -40808800000.0 -25952000000.0 -60292100000.0 -105719000000.0 -84950300000.0 -62456100000.0 -69409700000.0 -16042200000.0 -45890400000.0 -73167500000.0 -88302700000.0 -19541700000.0 -121274000000.0 -95347800000.0 -103091000000.0 -70945600000.0 -12549700000.0 -68991300000.0 -110518000000.0 -58931200000.0 -119770000000.0 -77559500000.0 -56545000000.0 -88413900000.0 -81321200000.0 -55973000000.0 -83574000000.0 -72045800000.0 -68190200000.0 -63750900000.0 -199661000000.0 -149181000000.0 -108324000000.0 -173808000000.0 -124714000000.0 -81068200000.0 -56454400000.0 -38469900000.0 -60048600000.0 -61912300000.0 -29812600000.0 -36871900000.0 -27428200000.0 -30942700000.0 -26185200000.0 -23798900000.0 -36328400000.0 -31211600000.0 -14644800000.0 -35955800000.0 -44814900000.0 -42193600000.0 -20672500000.0 -22567100000.0 -15759400000.0 -90731900000.0 -93581800000.0 -48723500000.0 -41143500000.0 -25038000000.0 -15532600000.0 -20741400000.0 -27850300000.0 -23042500000.0 -42109800000.0 -37040400000.0 -17802100000.0 -27283400000.0 -31152400000.0 -25324400000.0 -12758300000.0 -12797000000.0 -13404000000.0 -29485000000.0 -15935000000.0 -13834500000.0 -13490800000.0 -13054300000.0 -31242500000.0 -19657900000.0 -21785700000.0 -26470700000.0 -23073500000.0 -22537000000.0 -34502000000.0 -22876100000.0 -29026200000.0 -22195200000.0 -12673800000.0 -26506900000.0 -17964800000.0 -59168500000.0 -32341600000.0 -37188700000.0 -44821900000.0 -53894300000.0 -59192400000.0 -41649100000.0 -32362700000.0 -12549700000.0 -62916900000.0 -70567000000.0 -57131100000.0 -68072300000.0 -53701900000.0 -59507600000.0 -18666900000.0 -71665600000.0 -23989700000.0 -46866800000.0 -37901300000.0 -95491300000.0 -20480800000.0 -40452100000.0 -12549700000.0 -13911900000.0 -58627100000.0 -45287000000.0 -13523600000.0 -20118100000.0 -127953000000.0 -87196000000.0 -59349000000.0 -138300000000.0 -27952200000.0 -57494800000.0 -128580000000.0 -12549700000.0 -115419000000.0 -56899700000.0 -53346300000.0 -64762100000.0 -51447100000.0 -12562500000.0 -14606400000.0 -35476300000.0 -50817400000.0 -15279100000.0 -40744000000.0 -33643300000.0 -24762600000.0 -28084000000.0 -32982500000.0 -22179500000.0 -14784900000.0 -12549700000.0 -39419000000.0 -31171500000.0 -31862800000.0 -41266900000.0 -44122800000.0 -31866700000.0 -16186900000.0 -26717500000.0 -24525500000.0 -49143300000.0 -30180900000.0 -34693200000.0 -28893800000.0 -31232500000.0 -23496000000.0 -29235600000.0 -12960700000.0 -12639100000.0 -28718700000.0 -14366900000.0 -27986800000.0 -27095000000.0 -26505700000.0 -13264200000.0 -23334100000.0 -27413400000.0 -22761200000.0 -19569200000.0 -18680100000.0 -20017900000.0 -24679500000.0 -21681900000.0 -13821700000.0 -21811000000.0 -27290200000.0 -15173700000.0 -14042500000.0 -33793400000.0 -23814500000.0 -36903100000.0 -32181800000.0 -27240700000.0 -39852800000.0 -13825000000.0 -38601700000.0 -25231800000.0 -33718600000.0 -19840300000.0 -13973300000.0 -24114300000.0 -32101600000.0 -34944900000.0 -56299100000.0 -61992300000.0 -72787400000.0 -23796800000.0 -53240800000.0 -40995200000.0 -20728800000.0 -45315500000.0 -25682300000.0 -20996700000.0 -70875600000.0 -56591300000.0 -85826600000.0 -24288800000.0 -22490900000.0 -38783100000.0 -28181800000.0 -43526900000.0 -37547600000.0 -45559300000.0 -29584700000.0 -43357600000.0 -12778100000.0 -101783000000.0 -15768300000.0 -52123000000.0 -60412600000.0 -77302900000.0 -72345200000.0 -83418000000.0 -49124200000.0 -101057000000.0 -93040100000.0 -153256000000.0 -33091600000.0 -55465000000.0 -45852300000.0 -19733600000.0 -17471500000.0 -21920100000.0 -28356100000.0 -21385500000.0 -39575200000.0 -31328900000.0 -28071000000.0 -27353400000.0 -40303800000.0 -30189600000.0 -28006400000.0 -21295800000.0 -23390800000.0 -21222500000.0 -28821400000.0 -12890000000.0 -27559000000.0 -32635400000.0 -22415600000.0 -16427400000.0 -35766500000.0 -16810800000.0 -36816000000.0 -32413400000.0 -15271900000.0 -12608900000.0 -16281900000.0 -24012500000.0 -29877900000.0 -24707000000.0 -27520500000.0 -29891700000.0 -29023400000.0 -25448300000.0 -30535800000.0 -30792600000.0 -24035900000.0 -13310500000.0 -13756700000.0 -30840100000.0 -19790500000.0 -13693900000.0 -20613800000.0 -21802100000.0 -24643200000.0 -29996300000.0 -23816000000.0 -25895400000.0 -29865900000.0 -28376400000.0 -32630000000.0 -28443300000.0 -12549700000.0 -39068900000.0 -14138300000.0 -14363700000.0 -12834200000.0 -14188800000.0 -25219000000.0 -12987100000.0 -29763700000.0 -27973300000.0 -30007900000.0 -38413200000.0 -15648900000.0 -13789800000.0 -33665400000.0 -27606700000.0 -13604600000.0 -53798200000.0 -37438700000.0 -51568200000.0 -37786800000.0 -61126300000.0 -33410400000.0 -32255200000.0 -36737200000.0 -49795400000.0 -22279200000.0 -38190500000.0 -34207000000.0 -40237200000.0 -19836100000.0 -12610400000.0 -18770300000.0 -54666300000.0 -35527400000.0 -49209900000.0 -38681900000.0 -61221400000.0 -32604200000.0 -107739000000.0 -17832800000.0 -25077500000.0 -13534100000.0 -50998300000.0 -111867000000.0 -44232400000.0 -35968500000.0 -87901300000.0 -15883000000.0 -40941000000.0 -38164500000.0 -18802900000.0 -20080000000.0 -16699300000.0 -22991500000.0 -21591300000.0 -19517500000.0 -31902700000.0 -16895100000.0 -21095100000.0 -22400500000.0 -19912700000.0 -27142800000.0 -22152200000.0 -31187700000.0 -34765600000.0 -27352300000.0 -33554600000.0 -13635000000.0 -22307900000.0 -37926400000.0 -31038100000.0 -33036800000.0 -33735900000.0 -37817800000.0 -16802200000.0 -17378300000.0 -12559600000.0 -17073700000.0 -20119500000.0 -15276100000.0 -22389100000.0 -17102800000.0 -17986300000.0 -19871900000.0 -16057000000.0 -20099600000.0 -17833300000.0 -12563600000.0 -12613300000.0 -22687900000.0 -22242900000.0 -28999100000.0 -13796200000.0 -13957100000.0 -13578700000.0 -14764200000.0 -15216800000.0 -22911900000.0 -17706700000.0 -23193900000.0 -20718500000.0 -14053900000.0 -12549700000.0 -23170100000.0 -17364400000.0 -33266100000.0 -18530000000.0 -26983600000.0 -28175000000.0 -31732000000.0 -43742800000.0 -18554500000.0 -44755700000.0 -27950900000.0 -32820500000.0 -39957300000.0 -18492000000.0 -22084100000.0 -23872800000.0 -14895700000.0 -62420200000.0 -37810600000.0 -30409300000.0 -30497200000.0 -16317700000.0 -18433100000.0 -15945800000.0 -18382700000.0 -16181600000.0 -26464200000.0 -29273100000.0 -45967100000.0 -38225900000.0 -35640000000.0 -47579100000.0 -34390400000.0 -30306600000.0 -48249300000.0 -64982800000.0 -24350800000.0 -87530200000.0 -54459200000.0 -27672700000.0 -13217600000.0 -34653700000.0 -38922100000.0 -52923500000.0 -29568200000.0 -59553200000.0 -18449500000.0 -36570100000.0 -32264600000.0 -15532400000.0 -21249800000.0 -14890900000.0 -17384000000.0 -26514000000.0 -29051100000.0 -18099400000.0 -21277500000.0 -17938300000.0 -20868200000.0 -20874700000.0 -17349400000.0 -24538900000.0 -28496700000.0 -20250400000.0 -15031600000.0 -14900600000.0 -31997500000.0 -23093500000.0 -13966300000.0 -17169400000.0 -16672600000.0 -39587100000.0 -29215000000.0 -14039100000.0 -18091300000.0 -15548000000.0 -13352300000.0 -16694300000.0 -14742800000.0 -15113200000.0 -15612800000.0 -14537900000.0 -22087900000.0 -17418800000.0 -18414400000.0 -14959000000.0 -14534800000.0 -15225400000.0 -14502300000.0 -19061700000.0 -13435900000.0 -14440200000.0 -16067700000.0 -19526100000.0 -12569700000.0 -12549700000.0 -12774600000.0 -17013800000.0 -14637200000.0 -17288800000.0 -16880400000.0 -24347600000.0 -21030300000.0 -15604100000.0 -31921800000.0 -31656800000.0 -23106100000.0 -26514000000.0 -18767300000.0 -33975300000.0 -29226200000.0 -21425600000.0 -21710100000.0 -17042200000.0 -28075600000.0 -17105500000.0 -13088000000.0 -19364600000.0 -56598200000.0 -28688000000.0 -24894300000.0 -12805400000.0 -19727200000.0 -15170300000.0 -12581400000.0 -28351400000.0 -21438500000.0 -12549700000.0 -32911000000.0 -35702700000.0 -19887600000.0 -13139200000.0 -20097900000.0 -13369000000.0 -35168800000.0 -38166700000.0 -42238100000.0 -44032400000.0 -42806600000.0 -67062100000.0 -21341000000.0 -14454200000.0 -24080300000.0 -15948200000.0 -19178600000.0 -48467800000.0 -16354600000.0 -12549700000.0 -33846400000.0 -18394400000.0 -13943700000.0 -13722700000.0 -32780400000.0 -23471200000.0 -15975200000.0 -25292300000.0 -13430200000.0 -25117400000.0 -14175400000.0 -20174600000.0 -18965300000.0 -22463800000.0 -16924700000.0 -16322400000.0 -19655500000.0 -16849200000.0 -22471800000.0 -22483600000.0 -22005100000.0 -17459900000.0 -15008800000.0 -18255600000.0 -13533000000.0 -12549700000.0 -24699900000.0 -19923900000.0 -12683100000.0 -22245100000.0 -14679400000.0 -21017000000.0 -21466200000.0 -19623400000.0 -15705100000.0 -13548900000.0 -15947800000.0 -16392000000.0 -17877000000.0 -13974800000.0 -15448500000.0 -15377500000.0 -15761600000.0 -13177400000.0 -12652700000.0 -12549700000.0 -12549700000.0 -13309500000.0 -15445500000.0 -12610100000.0 -12549700000.0 -15125400000.0 -12549700000.0 -12935800000.0 -14301500000.0 -13809100000.0 -13611500000.0 -20275300000.0 -18672500000.0 -21752800000.0 -20753700000.0 -14051500000.0 -16028900000.0 -19026800000.0 -19580000000.0 -19021900000.0 -14346500000.0 -13733000000.0 -30277000000.0 -29308700000.0 -31417800000.0 -27449900000.0 -31174000000.0 -21157600000.0 -15588600000.0 -16401300000.0 -18472300000.0 -19345800000.0 -20242200000.0 -14590200000.0 -24390500000.0 -21602000000.0 -16299100000.0 -15731400000.0 -17140100000.0 -18983100000.0 -20507700000.0 -18155400000.0 -20015800000.0 -40311500000.0 -29174500000.0 -46300900000.0 -12897200000.0 -17926300000.0 -15878000000.0 -12768600000.0 -13830700000.0 -35503000000.0 -15576800000.0 -13410900000.0 -14482800000.0 -15147200000.0 -33026100000.0 -20773400000.0 -23718700000.0 -25672200000.0 -14358300000.0 -16908000000.0 -23124400000.0 -16122100000.0 -18385300000.0 -15260600000.0 -14482700000.0 -14191000000.0 -12549700000.0 -16136700000.0 -17952500000.0 -16689300000.0 -13888400000.0 -12581100000.0 -14323200000.0 -16226500000.0 -15782800000.0 -15245400000.0 -12717200000.0 -20230000000.0 -15733300000.0 -14326700000.0 -12693500000.0 -13708200000.0 -17113900000.0 -12549700000.0 -15679200000.0 -13458200000.0 -12808400000.0 -15366600000.0 -13386000000.0 -12549700000.0 -13446600000.0 -12790300000.0 -12549700000.0 -12593000000.0 -14159600000.0 -12549700000.0 -12549700000.0 -12554600000.0 -13008500000.0 -14649900000.0 -13910000000.0 -13028600000.0 -12715800000.0 -14679100000.0 -12963500000.0 -13977800000.0 -13255000000.0 -12927600000.0 -13098400000.0 -15747200000.0 -16686100000.0 -13530300000.0 -15008400000.0 -17169100000.0 -17225900000.0 -15690600000.0 -14233100000.0 -13916400000.0 -17421800000.0 -22773000000.0 -21480800000.0 -21756200000.0 -25526300000.0 -16764100000.0 -30130900000.0 -17682600000.0 -15655000000.0 -23244300000.0 -29255100000.0 -20584900000.0 -15073600000.0 -16967700000.0 -14022000000.0 -14600400000.0 -16535000000.0 -16435500000.0 -12738700000.0 -21129800000.0 -17176300000.0 -13033000000.0 -16993800000.0 -23200200000.0 -31532200000.0 -24165300000.0 -41502200000.0 -40823400000.0 -18328100000.0 -24381900000.0 -26038000000.0 -33484700000.0 -26095600000.0 -12703300000.0 -12624100000.0 -13639300000.0 -19528000000.0 -21509700000.0 -15016800000.0 -13232300000.0 -17244100000.0 -14523200000.0 -14278800000.0 -17515700000.0 -15131600000.0 -15323700000.0 -14325600000.0 -14884200000.0 -15720300000.0 -14397000000.0 -12807200000.0 -13801400000.0 -13628100000.0 -13799600000.0 -14379000000.0 -12745400000.0 -14823200000.0 -14976800000.0 -14678300000.0 -14790600000.0 -13928200000.0 -12878500000.0 -12787800000.0 -15149700000.0 -12687600000.0 -14708900000.0 -12598300000.0 -13281200000.0 -12877500000.0 -12549700000.0 -13896800000.0 -12614300000.0 -14325400000.0 -13061900000.0 -13567800000.0 -12611600000.0 -12732200000.0 -12743000000.0 -12654500000.0 -12549700000.0 -13159600000.0 -14219700000.0 -12781200000.0 -12745900000.0 -13957900000.0 -13209700000.0 -14077000000.0 -13131100000.0 -13231600000.0 -13117800000.0 -14918900000.0 -13449300000.0 -13635600000.0 -13450300000.0 -14426200000.0 -16720100000.0 -16515400000.0 -16530400000.0 -14119200000.0 -20236100000.0 -18373900000.0 -14862700000.0 -15498700000.0 -17240800000.0 -18548700000.0 -15967700000.0 -19766400000.0 -12549700000.0 -17906600000.0 -14831500000.0 -13909100000.0 -13318700000.0 -12724200000.0 -13799000000.0 -15204800000.0 -15132100000.0 -13154700000.0 -16480600000.0 -16463300000.0 -13652400000.0 -12726800000.0 -15349600000.0 -17460600000.0 -21188400000.0 -12549700000.0 -26533400000.0 -20745600000.0 -25663900000.0 -13613700000.0 -19131100000.0 -13179200000.0 -12714900000.0 -15013900000.0 -15038500000.0 -13262900000.0 -12549700000.0 -13864300000.0 -13224300000.0 -12996900000.0 -14600400000.0 -13455100000.0 -13677600000.0 -13868700000.0 -13555800000.0 -13176000000.0 -13387000000.0 -12642200000.0 -12946800000.0 -12747300000.0 -12693100000.0 -13025000000.0 -12558900000.0 -12647900000.0 -12735500000.0 -12704000000.0 -14017500000.0 -13045000000.0 -13184100000.0 -13111500000.0 -12777900000.0 -12732600000.0 -12882600000.0 -12845900000.0 -13220300000.0 -12789800000.0 -12718900000.0 -12808800000.0 -13401200000.0 -12952200000.0 -12908600000.0 -12657500000.0 -12658500000.0 -13073000000.0 -12800700000.0 -13243600000.0 -13733500000.0 -12656100000.0 -12698500000.0 -13751400000.0 -13906900000.0 -14295800000.0 -13216800000.0 -13247800000.0 -14222000000.0 -14634900000.0 -13283300000.0 -13963900000.0 -13200400000.0 -13062200000.0 -13563900000.0 -12657800000.0 -12692700000.0 -12819200000.0 -12549700000.0 -12996700000.0 -12680500000.0 -12892200000.0 -13421200000.0 -13515000000.0 -13137600000.0 -13407800000.0 -13973000000.0 -13352000000.0 -15161700000.0 -14069600000.0 -17421500000.0 -14814000000.0 -15162100000.0 -15443300000.0 -13210600000.0 -12601300000.0 -12549700000.0 