# vtk DataFile Version 2.0
Time step 69
ASCII
DATASET UNSTRUCTURED_GRID
POINTS 4650 float
210134.0 345464.0 0
289859.0 345463.0 0
202000.0 347624.0 0
206548.0 347232.0 0
212170.0 348885.0 0
215758.0 347122.0 0
223005.0 348609.0 0
235978.0 348831.0 0
242623.0 348880.0 0
248013.0 347254.0 0
251992.0 347257.0 0
257375.0 348890.0 0
264015.0 348833.0 0
276993.0 348607.0 0
284239.0 347127.0 0
287828.0 348887.0 0
293447.0 347227.0 0
298000.0 347618.0 0
204565.0 350705.0 0
208589.0 350661.0 0
215500.0 351080.0 0
219086.0 349333.0 0
226272.0 350894.0 0
232657.0 351007.0 0
239278.0 351051.0 0
246204.0 350769.0 0
253795.0 350775.0 0
260720.0 351062.0 0
267335.0 351010.0 0
273728.0 350897.0 0
280912.0 349341.0 0
284500.0 351084.0 0
291412.0 350659.0 0
295433.0 350698.0 0
202000.0 353770.0 0
211943.0 352841.0 0
218806.0 353279.0 0
222678.0 352588.0 0
229439.0 353278.0 0
235950.0 353237.0 0
242833.0 352849.0 0
250000.0 352626.0 0
257163.0 352860.0 0
264047.0 353249.0 0
270556.0 353279.0 0
277325.0 352585.0 0
281195.0 353287.0 0
288060.0 352843.0 0
298000.0 353762.0 0
204967.0 356442.0 0
208437.0 354627.0 0
211783.0 356805.0 0
215263.0 355021.0 0
222410.0 356712.0 0
225893.0 354901.0 0
232683.0 355482.0 0
239507.0 355008.0 0
246486.0 354703.0 0
249999.0 356596.0 0
253515.0 354710.0 0
260488.0 355020.0 0
267315.0 355493.0 0
274107.0 354892.0 0
277595.0 356697.0 0
284741.0 355025.0 0
288225.0 356805.0 0
291569.0 354625.0 0
295040.0 356442.0 0
201994.0 358961.0 0
208356.0 358590.0 0
215097.0 358965.0 0
218563.0 357179.0 0
225724.0 358847.0 0
229417.0 357695.0 0
236206.0 357202.0 0
239744.0 358928.0 0
243075.0 356776.0 0
246576.0 358624.0 0
253417.0 358632.0 0
256921.0 356789.0 0
260247.0 358944.0 0
263787.0 357214.0 0
270577.0 357712.0 0
274282.0 358838.0 0
281441.0 357188.0 0
284912.0 358968.0 0
291654.0 358587.0 0
298006.0 358973.0 0
205389.0 360994.0 0
211689.0 360787.0 0
218443.0 361042.0 0
222356.0 360794.0 0
229687.0 361729.0 0
232927.0 359440.0 0
236477.0 361120.0 0
243229.0 360700.0 0
249995.0 360546.0 0
256758.0 360718.0 0
263507.0 361136.0 0
267061.0 359452.0 0
270300.0 361737.0 0
277663.0 360764.0 0
281571.0 361052.0 0
288322.0 360787.0 0
294610.0 361007.0 0
201991.0 362870.0 0
208767.0 363270.0 0
215085.0 362909.0 0
220516.0 364271.0 0
225897.0 362759.0 0
233300.0 363351.0 0
239956.0 362848.0 0
246646.0 362554.0 0
249985.0 364490.0 0
253336.0 362566.0 0
260023.0 362869.0 0
266683.0 363364.0 0
274096.0 362750.0 0
279468.0 364263.0 0
284931.0 362912.0 0
291237.0 363277.0 0
298009.0 362882.0 0
201988.0 366722.0 0
205354.0 364869.0 0
212127.0 365267.0 0
217181.0 366280.0 0
223914.0 366067.0 0
230308.0 365666.0 0
236778.0 365055.0 0
240174.0 366782.0 0
243367.0 364622.0 0
246706.0 366489.0 0
253249.0 366504.0 0
256604.0 364648.0 0
259790.0 366810.0 0
263198.0 365073.0 0
269679.0 365672.0 0
276073.0 366064.0 0
282810.0 366269.0 0
287880.0 365278.0 0
294646.0 364881.0 0
298012.0 366733.0 0
205380.0 368631.0 0
208895.0 367267.0 0
214090.0 368591.0 0
220664.0 368178.0 0
227278.0 367880.0 0
230739.0 369626.0 0
233852.0 367468.0 0
237368.0 369315.0 0
243497.0 368540.0 0
249961.0 368438.0 0
256448.0 368579.0 0
262615.0 369324.0 0
266134.0 367473.0 0
269249.0 369630.0 0
272710.0 367881.0 0
279327.0 368171.0 0
285898.0 368589.0 0
291110.0 367275.0 0
294621.0 368643.0 0
201981.0 370516.0 0
210891.0 370651.0 0
217546.0 370345.0 0
221006.0 372122.0 0
224124.0 369994.0 0
227598.0 371779.0 0
234209.0 371417.0 0
240870.0 371196.0 0
246698.0 370439.0 0
249932.0 372355.0 0
253192.0 370444.0 0
259112.0 371216.0 0
265778.0 371423.0 0
272392.0 371779.0 0
275866.0 369991.0 0
278986.0 372116.0 0
282445.0 370341.0 0
289100.0 370652.0 0
298019.0 370526.0 0
201989.0 374384.0 0
205208.0 372268.0 0
208560.0 373587.0 0
211818.0 375152.0 0
214413.0 372499.0 0
217919.0 374282.0 0
224474.0 373901.0 0
231058.0 373547.0 0
237683.0 373242.0 0
241185.0 375074.0 0
244727.0 373670.0 0
255396.0 373481.0 0
258817.0 375111.0 0
262306.0 373255.0 0
268931.0 373550.0 0
275517.0 373897.0 0
282072.0 374280.0 0
285577.0 372498.0 0
288182.0 375145.0 0
291442.0 373585.0 0
294794.0 372279.0 0
298008.0 374394.0 0
196747.0 379340.0 0
199780.0 377435.0 0
205564.0 375940.0 0
208892.0 377475.0 0
215116.0 376699.0 0
221397.0 376037.0 0
227927.0 375679.0 0
231356.0 377456.0 0
234502.0 375333.0 0
237943.0 377124.0 0
244829.0 377580.0 0
248103.0 375697.0 0
252015.0 375530.0 0
255298.0 377366.0 0
262049.0 377147.0 0
265486.0 375341.0 0
268632.0 377459.0 0
272063.0 375678.0 0
278595.0 376031.0 0
284884.0 376687.0 0
291109.0 377475.0 0
294436.0 375948.0 0
300223.0 377437.0 0
303255.0 379342.0 0
193662.0 381267.0 0
200014.0 380809.0 0
202929.0 378311.0 0
212177.0 379038.0 0
218457.0 378281.0 0
221821.0 379974.0 0
224837.0 377807.0 0
228251.0 379586.0 0
234767.0 379235.0 0
241360.0 378929.0 0
246798.0 380924.0 0
250195.0 378966.0 0
253638.0 380847.0 0
258633.0 378976.0 0
265219.0 379247.0 0
271743.0 379583.0 0
275156.0 377802.0 0
278178.0 379965.0 0
281541.0 378269.0 0
287823.0 379031.0 0
297073.0 378319.0 0
299986.0 380814.0 0
306338.0 381267.0 0
190523.0 383225.0 0
193711.0 384693.0 0
196890.0 382782.0 0
200098.0 384329.0 0
203176.0 382130.0 0
206071.0 379843.0 0
209251.0 381377.0 0
212498.0 382895.0 0
215491.0 380587.0 0
218820.0 382188.0 0
225193.0 381725.0 0
231642.0 381367.0 0
238160.0 381006.0 0
241599.0 382691.0 0
250250.0 382831.0 0
258337.0 382738.0 0
261815.0 381035.0 0
268352.0 381368.0 0
274806.0 381717.0 0
281180.0 382175.0 0
284508.0 380575.0 0
287502.0 382886.0 0
290749.0 381376.0 0
293930.0 379851.0 0
296823.0 382140.0 0
299900.0 384335.0 0
303109.0 382783.0 0
306289.0 384692.0 0
309477.0 383225.0 0
187323.0 385220.0 0
190478.0 386615.0 0
196897.0 386257.0 0
200063.0 387911.0 0
206291.0 383713.0 0
209457.0 385211.0 0
215794.0 384431.0 0
222159.0 383878.0 0
225501.0 385632.0 0
228559.0 383502.0 0
231915.0 385283.0 0
235017.0 383140.0 0
238401.0 384870.0 0
244940.0 384304.0 0
254977.0 384450.0 0
261584.0 384883.0 0
264975.0 383146.0 0
268091.0 385279.0 0
271443.0 383496.0 0
274506.0 385621.0 0
277844.0 383867.0 0
284205.0 384418.0 0
290543.0 385209.0 0
293709.0 383725.0 0
299936.0 387915.0 0
303102.0 386259.0 0
309523.0 386614.0 0
312677.0 385221.0 0
180794.0 389295.0 0
184075.0 387247.0 0
187199.0 388572.0 0
193635.0 388125.0 0
196791.0 389754.0 0
203237.0 385892.0 0
206362.0 387534.0 0
212716.0 386683.0 0
219115.0 386044.0 0
222443.0 387749.0 0
228838.0 387415.0 0
235274.0 387042.0 0
241760.0 386554.0 0
245057.0 388241.0 0
248169.0 386094.0 0
251782.0 386411.0 0
254986.0 388377.0 0
258240.0 386599.0 0
264742.0 387040.0 0
271176.0 387405.0 0
277566.0 387736.0 0
280888.0 386030.0 0
287281.0 386670.0 0
293634.0 387556.0 0
296759.0 385905.0 0
303214.0 389753.0 0
306367.0 388123.0 0
312804.0 388570.0 0
315926.0 387248.0 0
319208.0 389296.0 0
177494.0 391355.0 0
183887.0 390564.0 0
186984.0 391928.0 0
190326.0 390007.0 0
193456.0 391561.0 0
199928.0 391510.0 0
203198.0 389625.0 0
209565.0 388955.0 0
212885.0 390392.0 0
216030.0 388216.0 0
219355.0 389851.0 0
225770.0 389522.0 0
232175.0 389195.0 0
238638.0 388763.0 0
242015.0 390461.0 0
248344.0 389961.0 0
251788.0 390285.0 0
258084.0 390510.0 0
261405.0 388774.0 0
267854.0 389188.0 0
274247.0 389508.0 0
280653.0 389838.0 0
283971.0 388203.0 0
287111.0 390380.0 0
290425.0 388944.0 0
296804.0 389639.0 0
300081.0 391513.0 0
306552.0 391557.0 0
309679.0 390005.0 0
313022.0 391927.0 0
316116.0 390564.0 0
322508.0 391357.0 0
174195.0 393417.0 0
177248.0 394640.0 0
180562.0 392589.0 0
183630.0 393898.0 0
190084.0 393402.0 0
193198.0 394990.0 0
196594.0 393254.0 0
199741.0 395119.0 0
206358.0 391307.0 0
209673.0 392587.0 0
216218.0 391948.0 0
222687.0 391584.0 0
226003.0 393397.0 0
229089.0 391320.0 0
232415.0 393098.0 0
235526.0 390943.0 0
238917.0 392644.0 0
245450.0 392156.0 0
249804.0 393664.0 0
254748.0 392303.0 0
261193.0 392666.0 0
264532.0 390944.0 0
267643.0 393096.0 0
270943.0 391309.0 0
274027.0 393381.0 0
277331.0 391569.0 0
283789.0 391937.0 0
290323.0 392569.0 0
293654.0 391341.0 0
300282.0 395120.0 0
303420.0 393251.0 0
306817.0 394987.0 0
309925.0 393399.0 0
316374.0 393897.0 0
319442.0 392589.0 0
322755.0 394641.0 0
325807.0 393418.0 0
167620.0 397525.0 0
170904.0 395473.0 0
173955.0 396700.0 0
180308.0 395916.0 0
183367.0 397272.0 0
186691.0 395297.0 0
189733.0 396787.0 0
196351.0 396728.0 0
199601.0 398699.0 0
203047.0 393323.0 0
206233.0 394984.0 0
209825.0 396161.0 0
213035.0 394047.0 0
216402.0 395626.0 0
219563.0 393607.0 0
222896.0 395385.0 0
229303.0 395215.0 0
235789.0 394818.0 0
242395.0 394296.0 0
246453.0 395787.0 0
253224.0 395733.0 0
257795.0 394371.0 0
264314.0 394832.0 0
270747.0 395208.0 0
277132.0 395367.0 0
280453.0 393594.0 0
283610.0 395618.0 0
286972.0 394038.0 0
290186.0 396147.0 0
293803.0 395019.0 0
296973.0 393340.0 0
300439.0 398698.0 0
303673.0 396724.0 0
310276.0 396787.0 0
313315.0 395296.0 0
316637.0 397272.0 0
319695.0 395916.0 0
326046.0 396701.0 0
329097.0 395474.0 0
332381.0 397526.0 0
164329.0 399583.0 0
170675.0 398751.0 0
173751.0 400020.0 0
177020.0 397966.0 0
180091.0 399292.0 0
186413.0 398722.0 0
192739.0 398355.0 0
195643.0 399990.0 0
202958.0 397032.0 0
206784.0 398397.0 0
213261.0 397675.0 0
219751.0 397317.0 0
226193.0 397270.0 0
232635.0 396974.0 0
239270.0 396455.0 0
243184.0 397932.0 0
249870.0 397599.0 0
256542.0 397858.0 0
260899.0 396500.0 0
267455.0 396986.0 0
273849.0 397247.0 0
280271.0 397307.0 0
286749.0 397666.0 0
293197.0 398414.0 0
297081.0 397051.0 0
304361.0 399992.0 0
307272.0 398358.0 0
313592.0 398723.0 0
319911.0 399293.0 0
322982.0 397967.0 0
326249.0 400022.0 0
329325.0 398752.0 0
335671.0 399583.0 0
161038.0 401643.0 0
167389.0 400792.0 0
170484.0 402057.0 0
176839.0 401335.0 0
179931.0 402715.0 0
183159.0 400704.0 0
186218.0 402216.0 0
189430.0 400261.0 0
192406.0 401882.0 0
198287.0 401754.0 0
201358.0 402666.0 0
203887.0 400435.0 0
207354.0 401996.0 0
210255.0 399805.0 0
213622.0 401377.0 0
216615.0 399295.0 0
219923.0 400994.0 0
223069.0 399151.0 0
226309.0 401170.0 0
229464.0 399098.0 0
232829.0 400787.0 0
236081.0 398623.0 0
236915.0 402189.0 0
240008.0 400074.0 0
243456.0 401767.0 0
246627.0 399660.0 0
249919.0 401555.0 0
253162.0 399625.0 0
256369.0 401717.0 0
259756.0 399992.0 0
262879.0 402101.0 0
264070.0 398657.0 0
267307.0 400824.0 0
270607.0 399101.0 0
273738.0 401130.0 0
276965.0 399126.0 0
280084.0 400992.0 0
283393.0 399291.0 0
286374.0 401376.0 0
289735.0 399802.0 0
292632.0 402006.0 0
296093.0 400437.0 0
298636.0 402654.0 0
301714.0 401761.0 0
307597.0 401887.0 0
310574.0 400264.0 0
313783.0 402217.0 0
316842.0 400705.0 0
320069.0 402717.0 0
323161.0 401337.0 0
329516.0 402058.0 0
332611.0 400793.0 0
338962.0 401643.0 0
157803.0 403669.0 0
160845.0 405008.0 0
164092.0 402861.0 0
167206.0 404075.0 0
170346.0 405388.0 0
173593.0 403375.0 0
176706.0 404742.0 0
183024.0 404183.0 0
189262.0 403824.0 0
192292.0 405519.0 0
195310.0 403624.0 0
198512.0 405157.0 0
204560.0 404166.0 0
210717.0 403521.0 0
216944.0 403020.0 0
223158.0 402866.0 0
229522.0 402946.0 0
233885.0 404254.0 0
240340.0 403881.0 0
246752.0 403597.0 0
253119.0 403575.0 0
259514.0 403823.0 0
265937.0 404161.0 0
270612.0 402983.0 0
276818.0 402836.0 0
283052.0 403020.0 0
289274.0 403524.0 0
295434.0 404167.0 0
301481.0 405156.0 0
304690.0 403627.0 0
307706.0 405523.0 0
310739.0 403827.0 0
316976.0 404185.0 0
323293.0 404743.0 0
326406.0 403376.0 0
329654.0 405389.0 0
332794.0 404075.0 0
335908.0 402861.0 0
339155.0 405008.0 0
342197.0 403669.0 0
151593.0 407564.0 0
154654.0 405644.0 0
157711.0 407120.0 0
163953.0 406172.0 0
167110.0 407386.0 0
173479.0 406763.0 0
179823.0 406173.0 0
182954.0 407690.0 0
186119.0 405756.0 0
189225.0 407422.0 0
195466.0 407159.0 0
201702.0 406395.0 0
207826.0 405707.0 0
211135.0 407250.0 0
214060.0 405127.0 0
220290.0 404684.0 0
225439.0 405534.0 0
230892.0 406243.0 0
237253.0 405976.0 0
243625.0 405680.0 0
249952.0 405539.0 0
256272.0 405645.0 0
262627.0 405914.0 0
268969.0 406140.0 0
275091.0 405908.0 0
279694.0 404678.0 0
285934.0 405130.0 0
288858.0 407255.0 0
292167.0 405713.0 0
298293.0 406390.0 0
304527.0 407161.0 0
310772.0 407425.0 0
313880.0 405758.0 0
317044.0 407691.0 0
320175.0 406175.0 0
326521.0 406765.0 0
332889.0 407386.0 0
336047.0 406171.0 0
342289.0 407120.0 0
345347.0 405644.0 0
348407.0 407565.0 0
145577.0 411326.0 0
154718.0 409187.0 0
157902.0 410667.0 0
160828.0 408453.0 0
163956.0 409545.0 0
170263.0 408760.0 0
173386.0 410189.0 0
176608.0 408179.0 0
179755.0 409650.0 0
186108.0 409309.0 0
192401.0 409098.0 0
198705.0 408670.0 0
201920.0 410080.0 0
204898.0 407888.0 0
208152.0 409407.0 0
214522.0 408803.0 0
217489.0 406734.0 0
221200.0 408097.0 0
224551.0 409692.0 0
227860.0 408078.0 0
231016.0 410004.0 0
234163.0 408031.0 0
237381.0 409833.0 0
240511.0 407767.0 0
243698.0 409627.0 0
246822.0 407570.0 0
249975.0 409532.0 0
253105.0 407555.0 0
256248.0 409602.0 0
259409.0 407725.0 0
262560.0 409785.0 0
265748.0 407962.0 0
268946.0 409906.0 0
272104.0 407901.0 0
275411.0 409738.0 0
278769.0 408092.0 0
282500.0 406731.0 0
285470.0 408804.0 0
291842.0 409412.0 0
295098.0 407889.0 0
298074.0 410079.0 0
301288.0 408670.0 0
307594.0 409101.0 0
313889.0 409311.0 0
320243.0 409651.0 0
323391.0 408180.0 0
326614.0 410190.0 0
329736.0 408760.0 0
336044.0 409544.0 0
339173.0 408452.0 0
342098.0 410668.0 0
345282.0 409187.0 0
354423.0 411326.0 0
142477.0 413258.0 0
148590.0 409460.0 0
151803.0 411156.0 0
161084.0 412032.0 0
164171.0 413007.0 0
167105.0 410747.0 0
170184.0 412187.0 0
176522.0 411636.0 0
179714.0 413122.0 0
182939.0 411199.0 0
186170.0 412846.0 0
189308.0 411001.0 0
192542.0 412685.0 0
195632.0 410719.0 0
198878.0 412267.0 0
205143.0 411588.0 0
211480.0 410915.0 0
214891.0 412382.0 0
218044.0 410266.0 0
221404.0 411856.0 0
227749.0 411808.0 0
234205.0 411847.0 0
240555.0 411680.0 0
246848.0 411548.0 0
253117.0 411537.0 0
259407.0 411648.0 0
265764.0 411785.0 0
272200.0 411719.0 0
278582.0 411849.0 0
281943.0 410259.0 0
285098.0 412381.0 0
288511.0 410919.0 0
294850.0 411591.0 0
301115.0 412268.0 0
304361.0 410721.0 0
307453.0 412687.0 0
310688.0 411002.0 0
313827.0 412847.0 0
317058.0 411200.0 0
320285.0 413122.0 0
323477.0 411636.0 0
329817.0 412188.0 0
332896.0 410747.0 0
335831.0 413006.0 0
338916.0 412031.0 0
348197.0 411157.0 0
351410.0 409460.0 0
357523.0 413257.0 0
139287.0 415251.0 0
145751.0 414782.0 0
148830.0 413045.0 0
152127.0 414720.0 0
155108.0 412787.0 0
158526.0 414288.0 0
167063.0 414208.0 0
169967.0 415654.0 0
173262.0 413646.0 0
176431.0 415087.0 0
182966.0 414690.0 0
189429.0 414589.0 0
195793.0 414328.0 0
202116.0 413764.0 0
205364.0 415290.0 0
208416.0 413082.0 0
211749.0 414531.0 0
218216.0 413940.0 0
224588.0 413643.0 0
230959.0 413768.0 0
237372.0 413704.0 0
243702.0 413576.0 0
249989.0 413513.0 0
256275.0 413556.0 0
262606.0 413664.0 0
269011.0 413702.0 0
275375.0 413631.0 0
281771.0 413933.0 0
288241.0 414534.0 0
291576.0 413087.0 0
294630.0 415294.0 0
297878.0 413766.0 0
304201.0 414330.0 0
310567.0 414591.0 0
317032.0 414690.0 0
323568.0 415086.0 0
326738.0 413646.0 0
330034.0 415654.0 0
332938.0 414209.0 0
341473.0 414288.0 0
344892.0 412788.0 0
347873.0 414721.0 0
351169.0 413046.0 0
354248.0 414782.0 0
360712.0 415251.0 0
136052.0 417278.0 0
139284.0 418685.0 0
142545.0 416651.0 0
145917.0 418133.0 0
149103.0 416643.0 0
155575.0 416285.0 0
159159.0 417724.0 0
162148.0 415694.0 0
165818.0 417256.0 0
173079.0 417076.0 0
176363.0 418501.0 0
179695.0 416571.0 0
183017.0 418155.0 0
186262.0 416370.0 0
192688.0 416308.0 0
195966.0 417977.0 0
199056.0 415918.0 0
202328.0 417460.0 0
208636.0 416748.0 0
215047.0 416038.0 0
218271.0 417701.0 0
221424.0 415671.0 0
224549.0 417543.0 0
227738.0 415639.0 0
230895.0 417599.0 0
234139.0 415675.0 0
237298.0 417579.0 0
240521.0 415592.0 0
243666.0 417510.0 0
246843.0 415511.0 0
249997.0 417472.0 0
253144.0 415502.0 0
256328.0 417494.0 0
259466.0 415566.0 0
262694.0 417548.0 0
265845.0 415630.0 0
269090.0 417555.0 0
272230.0 415585.0 0
275426.0 417519.0 0
278555.0 415655.0 0
281713.0 417690.0 0
284941.0 416036.0 0
291356.0 416752.0 0
297668.0 417464.0 0
300940.0 415921.0 0
304032.0 417980.0 0
307309.0 416310.0 0
313735.0 416370.0 0
316982.0 418154.0 0
320304.0 416571.0 0
323636.0 418500.0 0
326920.0 417075.0 0
334181.0 417258.0 0
337851.0 415695.0 0
340839.0 417726.0 0
344424.0 416286.0 0
350896.0 416644.0 0
354083.0 418133.0 0
357454.0 416650.0 0
360715.0 418684.0 0
363947.0 417278.0 0
129726.0 421257.0 0
132849.0 419294.0 0
136108.0 420838.0 0
142618.0 419983.0 0
146069.0 421288.0 0
152537.0 418219.0 0
156094.0 419736.0 0
162745.0 419226.0 0
169458.0 418933.0 0
172952.0 420413.0 0
179719.0 420002.0 0
186371.0 419874.0 0
189560.0 418211.0 0
192839.0 419967.0 0
199282.0 419605.0 0
205605.0 419028.0 0
208849.0 420452.0 0
211907.0 418181.0 0
215139.0 419741.0 0
221379.0 419537.0 0
227663.0 419511.0 0
234048.0 419533.0 0
240451.0 419496.0 0
246822.0 419451.0 0
253177.0 419444.0 0
259547.0 419475.0 0
265946.0 419501.0 0
272320.0 419475.0 0
278603.0 419518.0 0
284849.0 419737.0 0
288083.0 418183.0 0
291143.0 420455.0 0
294390.0 419031.0 0
300715.0 419610.0 0
307159.0 419970.0 0
310437.0 418213.0 0
313628.0 419874.0 0
320281.0 420000.0 0
327048.0 420412.0 0
330541.0 418934.0 0
337254.0 419228.0 0
343904.0 419738.0 0
347462.0 418221.0 0
353930.0 421287.0 0
357382.0 419983.0 0
363891.0 420838.0 0
367151.0 419293.0 0
370274.0 421257.0 0
124399.0 424556.0 0
133068.0 423053.0 0
139483.0 422134.0 0
142908.0 423308.0 0
149453.0 420217.0 0
152998.0 421662.0 0
159649.0 421170.0 0
163155.0 422811.0 0
166288.0 420727.0 0
169779.0 422521.0 0
176432.0 421902.0 0
179857.0 423455.0 0
183088.0 421594.0 0
186434.0 423332.0 0
189692.0 421895.0 0
196180.0 421635.0 0
202635.0 421174.0 0
206023.0 422865.0 0
212061.0 421852.0 0
218186.0 421534.0 0
224441.0 421452.0 0
230790.0 421468.0 0
237204.0 421461.0 0
243612.0 421426.0 0
250001.0 421404.0 0
256389.0 421414.0 0
262796.0 421438.0 0
269203.0 421437.0 0
275543.0 421430.0 0
281798.0 421521.0 0
287929.0 421856.0 0
293973.0 422867.0 0
297362.0 421178.0 0
303818.0 421639.0 0
310307.0 421898.0 0
313569.0 423329.0 0
316913.0 421592.0 0
320144.0 423454.0 0
323568.0 421900.0 0
330220.0 422523.0 0
333710.0 420729.0 0
336844.0 422813.0 0
340349.0 421172.0 0
347000.0 421664.0 0
350545.0 420219.0 0
357090.0 423307.0 0
360516.0 422134.0 0
366931.0 423052.0 0
375600.0 424556.0 0
121309.0 426491.0 0
127617.0 424127.0 0
130655.0 425725.0 0
136537.0 424430.0 0
139982.0 425631.0 0
146438.0 424342.0 0
149940.0 423798.0 0
153457.0 425065.0 0
156565.0 423244.0 0
160053.0 424614.0 0
166566.0 424154.0 0
173253.0 423835.0 0
176805.0 425387.0 0
183143.0 425058.0 0
186567.0 426692.0 0
193039.0 423631.0 0
196466.0 425276.0 0
199575.0 423301.0 0
203016.0 424833.0 0
209441.0 424223.0 0
214940.0 423524.0 0
217851.0 425364.0 0
221190.0 423427.0 0
224233.0 425347.0 0
227525.0 423402.0 0
230648.0 425347.0 0
233935.0 423409.0 0
237098.0 425344.0 0
240369.0 423392.0 0
243555.0 425327.0 0
246794.0 423368.0 0
250003.0 425314.0 0
253210.0 423362.0 0
256450.0 425317.0 0
259633.0 423376.0 0
262905.0 425326.0 0
266064.0 423385.0 0
269350.0 425325.0 0
272467.0 423377.0 0
275759.0 425330.0 0
278796.0 423410.0 0
282133.0 425351.0 0
285044.0 423520.0 0
290556.0 424226.0 0
296981.0 424839.0 0
300423.0 423307.0 0
303533.0 425280.0 0
306959.0 423635.0 0
313435.0 426686.0 0
316859.0 425057.0 0
323195.0 425386.0 0
326747.0 423835.0 0
333432.0 424156.0 0
339945.0 424616.0 0
343433.0 423245.0 0
346541.0 425067.0 0
350059.0 423800.0 0
353560.0 424341.0 0
360016.0 425631.0 0
363461.0 424430.0 0
369343.0 425725.0 0
372381.0 424127.0 0
378690.0 426490.0 0
118197.0 428441.0 0
124574.0 427935.0 0
127941.0 428156.0 0
133938.0 426922.0 0
137325.0 428136.0 0
143457.0 426642.0 0
146975.0 427404.0 0
150421.0 427383.0 0
153878.0 428325.0 0
156969.0 426879.0 0
160331.0 427913.0 0
163512.0 426551.0 0
166957.0 427342.0 0
170310.0 426255.0 0
173912.0 427155.0 0
179966.0 427076.0 0
183431.0 428477.0 0
189933.0 425650.0 0
193363.0 427294.0 0
199905.0 427029.0 0
203288.0 428323.0 0
206619.0 426759.0 0
210375.0 427643.0 0
214119.0 427095.0 0
220862.0 427278.0 0
227336.0 427280.0 0
233801.0 427286.0 0
240285.0 427278.0 0
246765.0 427266.0 0
253241.0 427261.0 0
259720.0 427265.0 0
266201.0 427268.0 0
272662.0 427263.0 0
279131.0 427267.0 0
285890.0 427090.0 0
289631.0 427649.0 0
293381.0 426763.0 0
296710.0 428330.0 0
300095.0 427034.0 0
306635.0 427298.0 0
310065.0 425655.0 0
316570.0 428476.0 0
320035.0 427076.0 0
326086.0 427153.0 0
329689.0 426257.0 0
333041.0 427344.0 0
336486.0 426554.0 0
339668.0 427915.0 0
343029.0 426881.0 0
346121.0 428326.0 0
349578.0 427385.0 0
353023.0 427404.0 0
356541.0 426642.0 0
362673.0 428136.0 0
366060.0 426922.0 0
372058.0 428156.0 0
375425.0 427934.0 0
381802.0 428441.0 0
115018.0 430428.0 0
118273.0 431969.0 0
121497.0 429991.0 0
124933.0 431386.0 0
131298.0 429534.0 0
134728.0 430731.0 0
140808.0 429175.0 0
144368.0 430007.0 0
147987.0 430522.0 0
151363.0 430903.0 0
158093.0 430659.0 0
161726.0 430868.0 0
165025.0 430250.0 0
168716.0 430137.0 0
172063.0 429714.0 0
176799.0 429201.0 0
180486.0 430573.0 0
186857.0 430081.0 0
190342.0 429459.0 0
196897.0 428891.0 0
207952.0 430525.0 0
212540.0 430598.0 0
217318.0 429063.0 0
223980.0 429200.0 0
230475.0 429220.0 0
236987.0 429220.0 0
243498.0 429213.0 0
250004.0 429206.0 0
256509.0 429205.0 0
263017.0 429206.0 0
269526.0 429204.0 0
276018.0 429187.0 0
282682.0 429050.0 0
287462.0 430599.0 0
292047.0 430533.0 0
303104.0 428897.0 0
309656.0 429464.0 0
313142.0 430071.0 0
319511.0 430575.0 0
323200.0 429202.0 0
327930.0 429716.0 0
331279.0 430137.0 0
334971.0 430252.0 0
338269.0 430869.0 0
341903.0 430661.0 0
348635.0 430905.0 0
352012.0 430522.0 0
355630.0 430008.0 0
359191.0 429175.0 0
365271.0 430731.0 0
368701.0 429534.0 0
375065.0 431385.0 0
378502.0 429990.0 0
381725.0 431968.0 0
384981.0 430427.0 0
108556.0 434467.0 0
111804.0 432437.0 0
115051.0 433985.0 0
121563.0 433464.0 0
124749.0 434879.0 0
128495.0 431993.0 0
132016.0 433317.0 0
138272.0 431809.0 0
141906.0 432679.0 0
145603.0 433332.0 0
154858.0 431362.0 0
163638.0 433843.0 0
167119.0 433434.0 0
170739.0 433139.0 0
174370.0 432363.0 0
177867.0 432521.0 0
183776.0 431946.0 0
187811.0 433455.0 0
191359.0 433137.0 0
193847.0 430907.0 0
197020.0 432453.0 0
200467.0 430950.0 0
204294.0 431510.0 0
213937.0 433940.0 0
217260.0 432780.0 0
220579.0 431068.0 0
223687.0 433056.0 0
227108.0 431143.0 0
230302.0 433075.0 0
233660.0 431153.0 0
236879.0 433086.0 0
240202.0 431153.0 0
243444.0 433087.0 0
246737.0 431148.0 0
250004.0 433084.0 0
253270.0 431145.0 0
256563.0 433081.0 0
259804.0 431143.0 0
263127.0 433075.0 0
266343.0 431139.0 0
269700.0 433063.0 0
272892.0 431130.0 0
276315.0 433046.0 0
279422.0 431059.0 0
282741.0 432773.0 0
286062.0 433940.0 0
295704.0 431517.0 0
299531.0 430956.0 0
302978.0 432460.0 0
306152.0 430913.0 0
308639.0 433146.0 0
312192.0 433446.0 0
316217.0 431946.0 0
322130.0 432522.0 0
325626.0 432366.0 0
329257.0 433141.0 0
332876.0 433435.0 0
336357.0 433844.0 0
345139.0 431362.0 0
354396.0 433332.0 0
358092.0 432680.0 0
361727.0 431809.0 0
367983.0 433317.0 0
371504.0 431993.0 0
375250.0 434878.0 0
378435.0 433464.0 0
384948.0 433985.0 0
388195.0 432436.0 0
391443.0 434466.0 0
105299.0 436504.0 0
111772.0 436007.0 0
118337.0 435528.0 0
121644.0 437116.0 0
128096.0 435716.0 0
135701.0 434443.0 0
139501.0 435397.0 0
143321.0 436103.0 0
149237.0 433862.0 0
152841.0 434230.0 0
156558.0 434251.0 0
160006.0 433994.0 0
169178.0 436534.0 0
172851.0 435965.0 0
176484.0 435484.0 0
180817.0 434488.0 0
184539.0 435040.0 0
194558.0 435433.0 0
198564.0 435407.0 0
202261.0 434602.0 0
206378.0 434316.0 0
210139.0 433736.0 0
220240.0 435021.0 0
226906.0 434978.0 0
233529.0 435010.0 0
240124.0 435019.0 0
246712.0 435020.0 0
253296.0 435017.0 0
259883.0 435011.0 0
266475.0 434999.0 0
273096.0 434967.0 0
279763.0 435017.0 0
289856.0 433746.0 0
293617.0 434325.0 0
297724.0 434614.0 0
301423.0 435412.0 0
305435.0 435440.0 0
315457.0 435044.0 0
319178.0 434489.0 0
323510.0 435486.0 0
327145.0 435968.0 0
330817.0 436537.0 0
339990.0 433995.0 0
343439.0 434253.0 0
347156.0 434231.0 0
350761.0 433863.0 0
356678.0 436104.0 0
360497.0 435397.0 0
364297.0 434443.0 0
371902.0 435716.0 0
378354.0 437116.0 0
381662.0 435528.0 0
388227.0 436007.0 0
394700.0 436503.0 0
102034.0 438545.0 0
108516.0 438061.0 0
111729.0 439633.0 0
114983.0 437551.0 0
118149.0 439081.0 0
125180.0 438418.0 0
131354.0 436922.0 0
134618.0 437891.0 0
137968.0 438566.0 0
147082.0 436694.0 0
150825.0 437147.0 0
154594.0 437348.0 0
158308.0 437361.0 0
161929.0 437166.0 0
165574.0 436928.0 0
175163.0 438735.0 0
179035.0 437939.0 0
182698.0 437758.0 0
187187.0 437136.0 0
190801.0 436525.0 0
196832.0 438651.0 0
200780.0 438243.0 0
204580.0 437696.0 0
208472.0 437344.0 0
212242.0 437072.0 0
216663.0 436682.0 0
223473.0 436880.0 0
230157.0 436922.0 0
236778.0 436945.0 0
243396.0 436951.0 0
250005.0 436951.0 0
256613.0 436947.0 0
263228.0 436937.0 0
269848.0 436912.0 0
276528.0 436871.0 0
283339.0 436680.0 0
287746.0 437080.0 0
291517.0 437355.0 0
295409.0 437709.0 0
299209.0 438253.0 0
303155.0 438658.0 0
309185.0 436532.0 0
312799.0 437133.0 0
317298.0 437760.0 0
320960.0 437941.0 0
324831.0 438738.0 0
334422.0 436930.0 0
338067.0 437168.0 0
341689.0 437363.0 0
345404.0 437349.0 0
349172.0 437148.0 0
352916.0 436694.0 0
362029.0 438566.0 0
365379.0 437892.0 0
368644.0 436922.0 0
374818.0 438418.0 0
381850.0 439081.0 0
385016.0 437550.0 0
388270.0 439632.0 0
391483.0 438060.0 0
397965.0 438544.0 0
98756.8 440593.0 0
101984.0 442155.0 0
105260.0 440112.0 0
108486.0 441706.0 0
114929.0 441221.0 0
121185.0 440632.0 0
124244.0 441915.0 0
128654.0 439525.0 0
132173.0 440696.0 0
141455.0 439044.0 0
145082.0 439568.0 0
148808.0 440046.0 0
152597.0 440366.0 0
156387.0 440520.0 0
160146.0 440510.0 0
163848.0 440330.0 0
167555.0 440016.0 0
171294.0 439502.0 0
181418.0 440956.0 0
185331.0 440328.0 0
189276.0 439972.0 0
193115.0 439249.0 0
202960.0 441261.0 0
206790.0 440816.0 0
210666.0 440484.0 0
214620.0 440009.0 0
219822.0 438971.0 0
223373.0 440654.0 0
226769.0 438802.0 0
230020.0 440788.0 0
233409.0 438867.0 0
236695.0 440799.0 0
240056.0 438878.0 0
243355.0 440810.0 0
246690.0 438883.0 0
250005.0 440813.0 0
253319.0 438881.0 0
256654.0 440806.0 0
259952.0 438871.0 0
263312.0 440792.0 0
266597.0 438857.0 0
269986.0 440777.0 0
273236.0 438792.0 0
276632.0 440646.0 0
280185.0 438973.0 0
285368.0 440020.0 0
289322.0 440495.0 0
293198.0 440829.0 0
297028.0 441272.0 0
306873.0 439256.0 0
310715.0 439974.0 0
314662.0 440326.0 0
318573.0 440958.0 0
328701.0 439505.0 0
332441.0 440019.0 0
336148.0 440331.0 0
339850.0 440511.0 0
343611.0 440521.0 0
347400.0 440367.0 0
351190.0 440047.0 0
354915.0 439569.0 0
358543.0 439045.0 0
367825.0 440696.0 0
371345.0 439525.0 0
375755.0 441915.0 0
378814.0 440631.0 0
385070.0 441220.0 0
391513.0 441706.0 0
394739.0 440111.0 0
398015.0 442154.0 0
401242.0 440592.0 0
92170.1 444712.0 0
95465.4 442650.0 0
98682.6 444200.0 0
105212.0 443760.0 0
111722.0 443323.0 0
114973.0 444972.0 0
118097.0 442824.0 0
121336.0 444351.0 0
127364.0 442971.0 0
130535.0 443926.0 0
135794.0 441523.0 0
139436.0 442082.0 0
143080.0 442553.0 0
146787.0 442999.0 0
150566.0 443363.0 0
154385.0 443610.0 0
158207.0 443727.0 0
162007.0 443714.0 0
165759.0 443501.0 0
169531.0 443057.0 0
173820.0 441977.0 0
177657.0 441367.0 0
183786.0 443759.0 0
187602.0 443282.0 0
191498.0 442791.0 0
195304.0 442234.0 0
199099.0 441701.0 0
208956.0 443948.0 0
212836.0 443544.0 0
216672.0 443180.0 0
220433.0 442895.0 0
226595.0 442653.0 0
233318.0 442720.0 0
240000.0 442733.0 0
246674.0 442742.0 0
253337.0 442740.0 0
260009.0 442727.0 0
266689.0 442710.0 0
273412.0 442643.0 0
279563.0 442901.0 0
283323.0 443197.0 0
287156.0 443558.0 0
291034.0 443962.0 0
300889.0 441711.0 0
304685.0 442241.0 0
308493.0 442796.0 0
312390.0 443284.0 0
316206.0 443760.0 0
322336.0 441370.0 0
326174.0 441979.0 0
330464.0 443061.0 0
334237.0 443504.0 0
337989.0 443715.0 0
341790.0 443728.0 0
345613.0 443611.0 0
349431.0 443364.0 0
353211.0 443000.0 0
356917.0 442554.0 0
360562.0 442083.0 0
364204.0 441524.0 0
369464.0 443927.0 0
372635.0 442971.0 0
378663.0 444350.0 0
381901.0 442824.0 0
385026.0 444971.0 0
388277.0 443322.0 0
394787.0 443759.0 0
401316.0 444200.0 0
404534.0 442649.0 0
407829.0 444712.0 0
87221.1 447828.0 0
95370.3 446266.0 0
101896.0 445796.0 0
105113.0 447430.0 0
108454.0 445386.0 0
111738.0 447035.0 0
118305.0 446585.0 0
124664.0 445670.0 0
128043.0 446742.0 0
133880.0 444564.0 0
137401.0 445096.0 0
141034.0 445587.0 0
144735.0 446014.0 0
148503.0 446385.0 0
152323.0 446679.0 0
156167.0 446881.0 0
160010.0 446987.0 0
163832.0 446999.0 0
167575.0 446706.0 0
172391.0 445125.0 0
176193.0 444722.0 0
179959.0 444284.0 0
189804.0 446246.0 0
193645.0 445769.0 0
197461.0 445262.0 0
201275.0 444779.0 0
205114.0 444350.0 0
218816.0 446413.0 0
222723.0 446092.0 0
229948.0 444660.0 0
236626.0 444654.0 0
243328.0 444667.0 0
250006.0 444673.0 0
256683.0 444663.0 0
263383.0 444646.0 0
270060.0 444648.0 0
277280.0 446104.0 0
281180.0 446428.0 0
294875.0 444363.0 0
298714.0 444791.0 0
302528.0 445271.0 0
306346.0 445776.0 0
310188.0 446250.0 0
320033.0 444286.0 0
323800.0 444725.0 0
327603.0 445127.0 0
332422.0 446710.0 0
336165.0 447000.0 0
339987.0 446988.0 0
343830.0 446883.0 0
347675.0 446680.0 0
351494.0 446386.0 0
355263.0 446015.0 0
358964.0 445588.0 0
362598.0 445097.0 0
366118.0 444564.0 0
371956.0 446742.0 0
375335.0 445669.0 0
381694.0 446585.0 0
388261.0 447034.0 0
391545.0 445386.0 0
394886.0 447430.0 0
398104.0 445796.0 0
404629.0 446265.0 0
412779.0 447828.0 0
83915.1 449896.0 0
90959.8 448090.0 0
94458.4 449757.0 0
98552.9 447843.0 0
101745.0 449463.0 0
108347.0 449065.0 0
115120.0 448709.0 0
121770.0 448082.0 0
125342.0 449435.0 0
131577.0 447550.0 0
135187.0 448135.0 0
138862.0 448622.0 0
142598.0 449058.0 0
170805.0 448181.0 0
174593.0 448025.0 0
178371.0 447659.0 0
182170.0 447197.0 0
185976.0 446726.0 0
195763.0 448808.0 0
199584.0 448337.0 0
203406.0 447888.0 0
207244.0 447473.0 0
211098.0 447072.0 0
214956.0 446716.0 0
226601.0 446416.0 0
229805.0 448649.0 0
233225.0 446583.0 0
236630.0 448491.0 0
239975.0 446586.0 0
243298.0 448533.0 0
246658.0 446603.0 0
250006.0 448534.0 0
253354.0 446602.0 0
256715.0 448529.0 0
260037.0 446580.0 0
263383.0 448485.0 0
266784.0 446573.0 0
270204.0 448634.0 0
273407.0 446408.0 0
285037.0 446735.0 0
288892.0 447090.0 0
292745.0 447489.0 0
296582.0 447901.0 0
300405.0 448348.0 0
304227.0 448815.0 0
314016.0 446729.0 0
317822.0 447199.0 0
321623.0 447661.0 0
325401.0 448028.0 0
329189.0 448182.0 0
357401.0 449059.0 0
361136.0 448623.0 0
364812.0 448135.0 0
368421.0 447551.0 0
374657.0 449435.0 0
378229.0 448082.0 0
384879.0 448709.0 0
391652.0 449065.0 0
398254.0 449462.0 0
401446.0 447843.0 0
405541.0 449757.0 0
409040.0 448089.0 0
416085.0 449896.0 0
80580.8 451979.0 0
87323.8 451710.0 0
91129.4 451771.0 0
97956.6 451433.0 0
104969.0 451129.0 0
111603.0 450689.0 0
114800.0 452334.0 0
118677.0 450302.0 0
122367.0 451780.0 0
129040.0 450364.0 0
132779.0 451087.0 0
136558.0 451635.0 0
146381.0 449435.0 0
150207.0 449756.0 0
154056.0 450014.0 0
157902.0 450206.0 0
161712.0 450340.0 0
165436.0 450475.0 0
168988.0 451174.0 0
172805.0 451262.0 0
176634.0 451022.0 0
180459.0 450631.0 0
184279.0 450191.0 0
188102.0 449734.0 0
191931.0 449272.0 0
201683.0 451450.0 0
205511.0 451021.0 0
209352.0 450616.0 0
213197.0 450249.0 0
217044.0 449931.0 0
220890.0 449646.0 0
224690.0 449559.0 0
233335.0 450367.0 0
239925.0 450466.0 0
246647.0 450465.0 0
253366.0 450463.0 0
260090.0 450458.0 0
266678.0 450357.0 0
275301.0 449567.0 0
279102.0 449663.0 0
282946.0 449951.0 0
286792.0 450270.0 0
290636.0 450636.0 0
294476.0 451037.0 0
298305.0 451462.0 0
308061.0 449278.0 0
311890.0 449738.0 0
315714.0 450194.0 0
319534.0 450633.0 0
323360.0 451024.0 0
327190.0 451264.0 0
331007.0 451176.0 0
334560.0 450476.0 0
338285.0 450341.0 0
342095.0 450207.0 0
345941.0 450015.0 0
349790.0 449757.0 0
353616.0 449436.0 0
363441.0 451636.0 0
367220.0 451088.0 0
370959.0 450365.0 0
377632.0 451780.0 0
381322.0 450302.0 0
385199.0 452334.0 0
388396.0 450688.0 0
395030.0 451128.0 0
402043.0 451432.0 0
408870.0 451771.0 0
412676.0 451710.0 0
419419.0 451979.0 0
75740.4 455015.0 0
79601.5 455708.0 0
83983.8 453778.0 0
87391.3 455627.0 0
94607.5 453472.0 0
98064.0 455167.0 0
101434.0 453116.0 0
104869.0 454827.0 0
108256.0 452782.0 0
111550.0 454451.0 0
117968.0 453872.0 0
126456.0 453106.0 0
130291.0 453953.0 0
140359.0 452094.0 0
144185.0 452493.0 0
148037.0 452837.0 0
151905.0 453134.0 0
155769.0 453393.0 0
159602.0 453614.0 0
163374.0 453834.0 0
178644.0 454038.0 0
182502.0 453649.0 0
186349.0 453224.0 0
190189.0 452785.0 0
194026.0 452341.0 0
197858.0 451896.0 0
207602.0 454176.0 0
211439.0 453797.0 0
215276.0 453466.0 0
219110.0 453184.0 0
222917.0 453000.0 0
226740.0 452790.0 0
230450.0 452582.0 0
236529.0 452404.0 0
243277.0 452398.0 0
250006.0 452397.0 0
256736.0 452391.0 0
263489.0 452399.0 0
269569.0 452562.0 0
273262.0 452807.0 0
277073.0 453019.0 0
280877.0 453207.0 0
284709.0 453490.0 0
288546.0 453821.0 0
292383.0 454198.0 0
302131.0 451904.0 0
305965.0 452347.0 0
309802.0 452790.0 0
313643.0 453228.0 0
317491.0 453652.0 0
321350.0 454040.0 0
336621.0 453835.0 0
340394.0 453616.0 0
344227.0 453394.0 0
348092.0 453135.0 0
351960.0 452838.0 0
355813.0 452494.0 0
359639.0 452095.0 0
369709.0 453953.0 0
373543.0 453107.0 0
382031.0 453871.0 0
388449.0 454451.0 0
391743.0 452781.0 0
395131.0 454826.0 0
398566.0 453115.0 0
401936.0 455166.0 0
405392.0 453472.0 0
412608.0 455627.0 0
416016.0 453778.0 0
420399.0 455708.0 0
424260.0 455015.0 0
83071.8 457560.0 0
91255.2 455495.0 0
94701.0 457247.0 0
101518.0 456867.0 0
108274.0 456541.0 0
114864.0 456114.0 0
118247.0 457655.0 0
121163.0 455216.0 0
124500.0 456208.0 0
128049.0 456951.0 0
134148.0 454575.0 0
138038.0 455101.0 0
141918.0 455542.0 0
145811.0 455913.0 0
149709.0 456243.0 0
153602.0 456544.0 0
157471.0 456832.0 0
161287.0 457104.0 0
167052.0 454242.0 0
170879.0 454437.0 0
174765.0 454337.0 0
184542.0 456702.0 0
188408.0 456293.0 0
192262.0 455873.0 0
196107.0 455448.0 0
199943.0 455021.0 0
203770.0 454591.0 0
213519.0 457014.0 0
217356.0 456717.0 0
221193.0 456492.0 0
225047.0 456297.0 0
228897.0 456113.0 0
232761.0 455735.0 0
236547.0 456227.0 0
239907.0 454331.0 0
243246.0 456272.0 0
246632.0 454331.0 0
250010.0 456259.0 0
253382.0 454329.0 0
256768.0 456263.0 0
260109.0 454316.0 0
263468.0 456226.0 0
267233.0 455682.0 0
271084.0 456116.0 0
274931.0 456321.0 0
278784.0 456516.0 0
282622.0 456743.0 0
286461.0 457040.0 0
296215.0 454607.0 0
300045.0 455030.0 0
303883.0 455454.0 0
307728.0 455879.0 0
311583.0 456298.0 0
315449.0 456705.0 0
325229.0 454340.0 0
329115.0 454440.0 0
332943.0 454245.0 0
338709.0 457106.0 0
342525.0 456834.0 0
346395.0 456545.0 0
350288.0 456244.0 0
354187.0 455914.0 0
358080.0 455543.0 0
361960.0 455101.0 0
365851.0 454576.0 0
371950.0 456952.0 0
375498.0 456208.0 0
378836.0 455216.0 0
381752.0 457655.0 0
385135.0 456114.0 0
391725.0 456541.0 0
398481.0 456867.0 0
405298.0 457247.0 0
408744.0 455494.0 0
416928.0 457560.0 0
79617.7 459642.0 0
86531.2 459444.0 0
90452.0 459198.0 0
98167.7 458940.0 0
104970.0 458599.0 0
111690.0 458254.0 0
115169.0 459919.0 0
121768.0 458932.0 0
131773.0 457535.0 0
135657.0 458040.0 0
139602.0 458576.0 0
143539.0 458981.0 0
147473.0 459338.0 0
151397.0 459673.0 0
155303.0 460001.0 0
159177.0 460330.0 0
165059.0 457401.0 0
168904.0 457625.0 0
172818.0 457613.0 0
176751.0 457404.0 0
180659.0 457083.0 0
190472.0 459397.0 0
194336.0 458995.0 0
198187.0 458588.0 0
202028.0 458182.0 0
205854.0 457755.0 0
209685.0 457361.0 0
239833.0 458231.0 0
246644.0 458192.0 0
253383.0 458193.0 0
260178.0 458202.0 0
290297.0 457387.0 0
294131.0 457778.0 0
297960.0 458191.0 0
301801.0 458596.0 0
305653.0 459001.0 0
309518.0 459402.0 0
319333.0 457086.0 0
323242.0 457407.0 0
327176.0 457616.0 0
331090.0 457628.0 0
334936.0 457404.0 0
340819.0 460331.0 0
344694.0 460002.0 0
348600.0 459673.0 0
352525.0 459338.0 0
356459.0 458981.0 0
360396.0 458576.0 0
364341.0 458040.0 0
368225.0 457536.0 0
378231.0 458932.0 0
384831.0 459918.0 0
388309.0 458253.0 0
395030.0 458598.0 0
401832.0 458940.0 0
409548.0 459198.0 0
413469.0 459444.0 0
420382.0 459642.0 0
83134.0 461512.0 0
86646.0 463394.0 0
93979.7 460975.0 0
97541.7 462673.0 0
101633.0 460649.0 0
105120.0 462392.0 0
108441.0 460337.0 0
111969.0 462063.0 0
118755.0 461412.0 0
125449.0 459848.0 0
129266.0 460584.0 0
133198.0 461014.0 0
137131.0 461475.0 0
141255.0 462051.0 0
145214.0 462427.0 0
163031.0 460628.0 0
166902.0 460849.0 0
170838.0 460895.0 0
174816.0 460735.0 0
178773.0 460483.0 0
182697.0 460158.0 0
186595.0 459788.0 0
196416.0 462150.0 0
200270.0 461763.0 0
204113.0 461382.0 0
207936.0 460942.0 0
211765.0 460577.0 0
215597.0 460258.0 0
219440.0 459997.0 0
223304.0 459789.0 0
227190.0 459610.0 0
231135.0 459356.0 0
235086.0 459741.0 0
243283.0 460118.0 0
250021.0 460136.0 0
256748.0 460116.0 0
264824.0 459793.0 0
268793.0 459328.0 0
272758.0 459630.0 0
276658.0 459814.0 0
280528.0 460024.0 0
284375.0 460286.0 0
288211.0 460605.0 0
292042.0 460969.0 0
295869.0 461385.0 0
299714.0 461770.0 0
303570.0 462157.0 0
313396.0 459792.0 0
317294.0 460161.0 0
321219.0 460486.0 0
325177.0 460738.0 0
329156.0 460899.0 0
333093.0 460853.0 0
336965.0 460631.0 0
354784.0 462427.0 0
358743.0 462051.0 0
362867.0 461476.0 0
366800.0 461015.0 0
370732.0 460585.0 0
374550.0 459848.0 0
381244.0 461411.0 0
388031.0 462062.0 0
391558.0 460337.0 0
394879.0 462391.0 0
398366.0 460649.0 0
402458.0 462673.0 0
406020.0 460975.0 0
413354.0 463394.0 0
416866.0 461512.0 0
90602.0 463057.0 0
94161.6 464828.0 0
101128.0 464385.0 0
108661.0 464133.0 0
115577.0 463724.0 0
122497.0 462585.0 0
126306.0 463416.0 0
130793.0 464046.0 0
134715.0 464478.0 0
138668.0 464872.0 0
149164.0 462785.0 0
153100.0 463139.0 0
157023.0 463502.0 0
160946.0 463853.0 0
164854.0 464103.0 0
168820.0 464198.0 0
172885.0 464057.0 0
176870.0 463856.0 0
180828.0 463588.0 0
184758.0 463266.0 0
188662.0 462909.0 0
192547.0 462534.0 0
206198.0 464617.0 0
210016.0 464161.0 0
213841.0 463823.0 0
217668.0 463530.0 0
221506.0 463291.0 0
225349.0 463126.0 0
229138.0 462983.0 0
232855.0 462897.0 0
236550.0 463400.0 0
239980.0 462055.0 0
243252.0 464021.0 0
246643.0 462072.0 0
250031.0 464015.0 0
253409.0 462082.0 0
256816.0 464031.0 0
260074.0 462007.0 0
263447.0 463506.0 0
267122.0 462886.0 0
270831.0 463020.0 0
274612.0 463150.0 0
278456.0 463319.0 0
282297.0 463558.0 0
286128.0 463852.0 0
289956.0 464190.0 0
293779.0 464618.0 0
307441.0 462539.0 0
311327.0 462913.0 0
315232.0 463269.0 0
319162.0 463591.0 0
323121.0 463858.0 0
327106.0 464060.0 0
331175.0 464202.0 0
335142.0 464106.0 0
339051.0 463856.0 0
342974.0 463503.0 0
346898.0 463140.0 0
350835.0 462785.0 0
361329.0 464874.0 0
365283.0 464479.0 0
369204.0 464047.0 0
373694.0 463417.0 0
377503.0 462585.0 0
384423.0 463723.0 0
391338.0 464132.0 0
398872.0 464385.0 0
405838.0 464827.0 0
409398.0 463056.0 0
90751.6 466954.0 0
97754.8 466482.0 0
104689.0 466137.0 0
112259.0 465871.0 0
116314.0 467501.0 0
119455.0 465140.0 0
123255.0 466282.0 0
127970.0 466651.0 0
142960.0 465530.0 0
146921.0 465895.0 0
150874.0 466267.0 0
154820.0 466640.0 0
174973.0 467218.0 0
178951.0 467000.0 0
182906.0 466725.0 0
186837.0 466408.0 0
190745.0 466064.0 0
194634.0 465706.0 0
198505.0 465340.0 0
202358.0 464974.0 0
212101.0 467410.0 0
215919.0 467099.0 0
219733.0 466823.0 0
223562.0 466617.0 0
227440.0 466526.0 0
231342.0 466470.0 0
235327.0 467043.0 0
239534.0 465976.0 0
246655.0 465945.0 0
253412.0 465963.0 0
260320.0 465930.0 0
268610.0 466465.0 0
272508.0 466573.0 0
276391.0 466647.0 0
280224.0 466854.0 0
284042.0 467127.0 0
287864.0 467441.0 0
297621.0 464978.0 0
301477.0 465346.0 0
305351.0 465710.0 0
309241.0 466068.0 0
313151.0 466411.0 0
317084.0 466728.0 0
321039.0 467002.0 0
325017.0 467221.0 0
345179.0 466640.0 0
349125.0 466267.0 0
353078.0 465895.0 0
357039.0 465530.0 0
372029.0 466651.0 0
376746.0 466282.0 0
380545.0 465139.0 0
383686.0 467501.0 0
387740.0 465871.0 0
395311.0 466137.0 0
402245.0 466482.0 0
409248.0 466954.0 0
94314.5 468729.0 0
101321.0 468208.0 0
104872.0 469978.0 0
108226.0 467881.0 0
111716.0 469673.0 0
120330.0 468910.0 0
125308.0 469483.0 0
129339.0 470043.0 0
132324.0 467548.0 0
136286.0 467912.0 0
140253.0 468260.0 0
144681.0 469022.0 0
148632.0 469398.0 0
152573.0 469784.0 0
158781.0 467014.0 0
162768.0 467381.0 0
166759.0 467502.0 0
170967.0 467380.0 0
185000.0 469893.0 0
188933.0 469582.0 0
192845.0 469251.0 0
196738.0 468910.0 0
200610.0 468564.0 0
204461.0 468217.0 0
208295.0 467878.0 0
243252.0 467838.0 0
250040.0 467910.0 0
256793.0 467874.0 0
264334.0 467241.0 0
291678.0 467878.0 0
295515.0 468220.0 0
299368.0 468568.0 0
303244.0 468913.0 0
307139.0 469254.0 0
311054.0 469585.0 0
314988.0 469895.0 0
329026.0 467382.0 0
333238.0 467506.0 0
337229.0 467384.0 0
341219.0 467015.0 0
347427.0 469784.0 0
351367.0 469398.0 0
355319.0 469021.0 0
359745.0 468261.0 0
363712.0 467913.0 0
367674.0 467549.0 0
370661.0 470043.0 0
374692.0 469483.0 0
379670.0 468910.0 0
388284.0 469673.0 0
391774.0 467880.0 0
395128.0 469977.0 0
398679.0 468208.0 0
405685.0 468728.0 0
90886.4 470904.0 0
94457.2 472678.0 0
97947.2 470313.0 0
101515.0 472053.0 0
108405.0 471723.0 0
115245.0 471198.0 0
118880.0 472480.0 0
133957.0 471013.0 0
137912.0 471340.0 0
141874.0 471657.0 0
146396.0 472540.0 0
150325.0 472951.0 0
156518.0 470154.0 0
160496.0 470535.0 0
164750.0 470835.0 0
169010.0 470695.0 0
173091.0 470579.0 0
177077.0 470404.0 0
181048.0 470171.0 0
194966.0 472467.0 0
198866.0 472143.0 0
202743.0 471818.0 0
206591.0 471488.0 0
210417.0 471158.0 0
214200.0 470689.0 0
218004.0 470407.0 0
221748.0 470161.0 0
225502.0 469987.0 0
229188.0 470104.0 0
232877.0 470047.0 0
236464.0 470840.0 0
239995.0 469847.0 0
243282.0 471734.0 0
246654.0 469824.0 0
250033.0 471819.0 0
253419.0 469874.0 0
256798.0 471805.0 0
260067.0 469818.0 0
263511.0 471100.0 0
267049.0 470021.0 0
270752.0 470167.0 0
274446.0 470018.0 0
278204.0 470198.0 0
281954.0 470435.0 0
285760.0 470720.0 0
289552.0 471155.0 0
293383.0 471490.0 0
297234.0 471822.0 0
301115.0 472144.0 0
305018.0 472468.0 0
318941.0 470173.0 0
322913.0 470406.0 0
326899.0 470581.0 0
330984.0 470698.0 0
335248.0 470839.0 0
339504.0 470536.0 0
343482.0 470155.0 0
349676.0 472951.0 0
353605.0 472540.0 0
358123.0 471660.0 0
362085.0 471342.0 0
366040.0 471015.0 0
381120.0 472480.0 0
384755.0 471198.0 0
391595.0 471723.0 0
398485.0 472053.0 0
402053.0 470313.0 0
405543.0 472678.0 0
409113.0 470904.0 0
98135.4 474173.0 0
105068.0 473870.0 0
112124.0 473621.0 0
115863.0 475055.0 0
122834.0 472542.0 0
126824.0 472995.0 0
130906.0 473404.0 0
135614.0 474478.0 0
139561.0 474773.0 0
143507.0 475077.0 0
154242.0 473335.0 0
158191.0 473667.0 0
162416.0 473961.0 0
167097.0 474050.0 0
171200.0 473935.0 0
175205.0 473808.0 0
179189.0 473612.0 0
183158.0 473368.0 0
187111.0 473088.0 0
191048.0 472784.0 0
204922.0 475100.0 0
208771.0 474775.0 0
212587.0 474460.0 0
216350.0 473969.0 0
220110.0 474288.0 0
223793.0 473505.0 0
227495.0 474220.0 0
231216.0 473550.0 0
234969.0 474425.0 0
238865.0 473939.0 0
246591.0 473728.0 0
253451.0 473812.0 0
261024.0 474125.0 0
264947.0 474655.0 0
268657.0 473574.0 0
272404.0 474212.0 0
276131.0 473536.0 0
279835.0 474272.0 0
283605.0 473999.0 0
287380.0 474456.0 0
291200.0 474774.0 0
295058.0 475102.0 0
308938.0 472786.0 0
312876.0 473090.0 0
316830.0 473370.0 0
320801.0 473614.0 0
324785.0 473810.0 0
328791.0 473936.0 0
332898.0 474052.0 0
337586.0 473962.0 0
341809.0 473668.0 0
345759.0 473336.0 0
356490.0 475081.0 0
360436.0 474776.0 0
364383.0 474480.0 0
369093.0 473403.0 0
373176.0 472995.0 0
377166.0 472542.0 0
384136.0 475055.0 0
387876.0 473620.0 0
394932.0 473870.0 0
401865.0 474173.0 0
101697.0 475908.0 0
105386.0 477825.0 0
108650.0 475534.0 0
120602.0 475913.0 0
124543.0 476127.0 0
128527.0 476468.0 0
132513.0 476809.0 0
148075.0 476116.0 0
151984.0 476567.0 0
155941.0 476871.0 0
160058.0 477066.0 0
164747.0 477138.0 0
169342.0 477320.0 0
173341.0 477214.0 0
177333.0 477054.0 0
181314.0 476841.0 0
185283.0 476588.0 0
189240.0 476308.0 0
193184.0 476011.0 0
197114.0 475706.0 0
201028.0 475400.0 0
215110.0 477711.0 0
222996.0 477394.0 0
231104.0 477524.0 0
242457.0 475450.0 0
249988.0 475707.0 0
257392.0 475603.0 0
276989.0 477396.0 0
298955.0 475401.0 0
302872.0 475706.0 0
306802.0 476012.0 0
310746.0 476309.0 0
314705.0 476589.0 0
318675.0 476843.0 0
322657.0 477056.0 0
326649.0 477216.0 0
330650.0 477321.0 0
335252.0 477137.0 0
339944.0 477067.0 0
344061.0 476873.0 0
348018.0 476567.0 0
351926.0 476115.0 0
367486.0 476809.0 0
371473.0 476467.0 0
375457.0 476127.0 0
379398.0 475913.0 0
391350.0 475533.0 0
394614.0 477825.0 0
398303.0 475908.0 0
98242.6 478073.0 0
101856.0 479753.0 0
109620.0 479225.0 0
113447.0 478176.0 0
117668.0 478575.0 0
122347.0 479394.0 0
126295.0 479659.0 0
130250.0 479960.0 0
134207.0 480244.0 0
137301.0 477947.0 0
141214.0 478227.0 0
145084.0 478536.0 0
183449.0 480087.0 0
187423.0 479826.0 0
191387.0 479546.0 0
195342.0 479256.0 0
199288.0 478961.0 0
203236.0 478670.0 0
207194.0 478393.0 0
211159.0 478160.0 0
219075.0 478086.0 0
226918.0 478100.0 0
235079.0 478296.0 0
239130.0 477920.0 0
243029.0 479193.0 0
246540.0 477577.0 0
249895.0 479629.0 0
253344.0 477712.0 0
256834.0 479387.0 0
260724.0 478095.0 0
264704.0 478480.0 0
268671.0 477561.0 0
273064.0 478092.0 0
280917.0 478066.0 0
284890.0 477726.0 0
288847.0 478141.0 0
292803.0 478383.0 0
296756.0 478671.0 0
300699.0 478963.0 0
304646.0 479257.0 0
308601.0 479547.0 0
312565.0 479826.0 0
316539.0 480088.0 0
354913.0 478541.0 0
358783.0 478230.0 0
362696.0 477949.0 0
365792.0 480244.0 0
369749.0 479960.0 0
373705.0 479658.0 0
377653.0 479394.0 0
382331.0 478575.0 0
386553.0 478175.0 0
390380.0 479225.0 0
398143.0 479753.0 0
401757.0 478073.0 0
98569.4 482004.0 0
107247.0 482323.0 0
112316.0 482029.0 0
116241.0 482270.0 0
120165.0 482636.0 0
139046.0 481433.0 0
142957.0 481709.0 0
148348.0 480458.0 0
152199.0 480513.0 0
156047.0 480747.0 0
159882.0 480894.0 0
163719.0 480864.0 0
167592.0 480771.0 0
171522.0 480647.0 0
175492.0 480505.0 0
179471.0 480318.0 0
193546.0 482800.0 0
197511.0 482517.0 0
201470.0 482230.0 0
205439.0 481947.0 0
209515.0 481790.0 0
213541.0 481363.0 0
217650.0 481761.0 0
221595.0 481176.0 0
225523.0 481795.0 0
229443.0 481156.0 0
233334.0 481827.0 0
237278.0 481567.0 0
241098.0 482406.0 0
246264.0 481479.0 0
253576.0 481653.0 0
258808.0 482609.0 0
262654.0 481818.0 0
266619.0 481902.0 0
270497.0 481122.0 0
274418.0 481812.0 0
278349.0 481131.0 0
282283.0 481769.0 0
286496.0 481363.0 0
290471.0 481782.0 0
294547.0 481942.0 0
298516.0 482233.0 0
302476.0 482519.0 0
306442.0 482801.0 0
320519.0 480320.0 0
324499.0 480507.0 0
328469.0 480649.0 0
332400.0 480773.0 0
336273.0 480867.0 0
340110.0 480896.0 0
343944.0 480748.0 0
347792.0 480513.0 0
351643.0 480455.0 0
357041.0 481713.0 0
360952.0 481436.0 0
379834.0 482635.0 0
383759.0 482270.0 0
387684.0 482029.0 0
392753.0 482323.0 0
401430.0 482004.0 0
103399.0 483311.0 0
124123.0 482922.0 0
128072.0 483188.0 0
132021.0 483455.0 0
135959.0 483702.0 0
140863.0 484917.0 0
146191.0 483809.0 0
150093.0 483958.0 0
153973.0 484083.0 0
157882.0 484244.0 0
161810.0 484303.0 0
165735.0 484243.0 0
169679.0 484121.0 0
173642.0 483976.0 0
177621.0 483806.0 0
181609.0 483592.0 0
185596.0 483344.0 0
189575.0 483079.0 0
207549.0 485272.0 0
215312.0 484939.0 0
223060.0 484896.0 0
230835.0 484898.0 0
250051.0 483498.0 0
269185.0 484905.0 0
276945.0 484866.0 0
284675.0 484909.0 0
292437.0 485264.0 0
310413.0 483079.0 0
314393.0 483345.0 0
318380.0 483593.0 0
322369.0 483808.0 0
326349.0 483978.0 0
330313.0 484122.0 0
334257.0 484246.0 0
338182.0 484305.0 0
342110.0 484246.0 0
346019.0 484084.0 0
349900.0 483956.0 0
353801.0 483805.0 0
359136.0 484921.0 0
364040.0 483702.0 0
367979.0 483455.0 0
371928.0 483187.0 0
375876.0 482921.0 0
396601.0 483311.0 0
100182.0 485621.0 0
106139.0 486104.0 0
110047.0 485301.0 0
114035.0 485593.0 0
117989.0 485926.0 0
121960.0 486195.0 0
125932.0 486461.0 0
129896.0 486714.0 0
133850.0 486958.0 0
137780.0 487167.0 0
144041.0 487154.0 0
147969.0 487325.0 0
151901.0 487466.0 0
155836.0 487593.0 0
159804.0 487689.0 0
163788.0 487697.0 0
167775.0 487594.0 0
171760.0 487460.0 0
175747.0 487305.0 0
179753.0 487103.0 0
183764.0 486868.0 0
187755.0 486615.0 0
191737.0 486349.0 0
195710.0 486071.0 0
199678.0 485802.0 0
203620.0 485523.0 0
211439.0 485296.0 0
219186.0 485444.0 0
226942.0 485512.0 0
234740.0 485546.0 0
238677.0 485419.0 0
242627.0 485966.0 0
246541.0 485366.0 0
249917.0 487390.0 0
253435.0 485603.0 0
257328.0 486216.0 0
261320.0 485566.0 0
265279.0 485642.0 0
273074.0 485569.0 0
280811.0 485477.0 0
288546.0 485295.0 0
296367.0 485528.0 0
300309.0 485805.0 0
304276.0 486072.0 0
308251.0 486347.0 0
312233.0 486615.0 0
316224.0 486868.0 0
320237.0 487105.0 0
324245.0 487307.0 0
328232.0 487461.0 0
332217.0 487596.0 0
336205.0 487699.0 0
340190.0 487692.0 0
344157.0 487595.0 0
348093.0 487466.0 0
352025.0 487322.0 0
355953.0 487150.0 0
362221.0 487168.0 0
366150.0 486958.0 0
370104.0 486714.0 0
374068.0 486461.0 0
378040.0 486195.0 0
382011.0 485926.0 0
385965.0 485593.0 0
389953.0 485301.0 0
393861.0 486104.0 0
399817.0 485621.0 0
99956.6 489576.0 0
103965.0 489433.0 0
108129.0 489461.0 0
112062.0 489042.0 0
116009.0 489364.0 0
119957.0 489587.0 0
123903.0 489814.0 0
127850.0 490032.0 0
131806.0 490247.0 0
135784.0 490466.0 0
140903.0 489599.0 0
177878.0 490618.0 0
181913.0 490394.0 0
185927.0 490152.0 0
189925.0 489902.0 0
193909.0 489634.0 0
197881.0 489360.0 0
201848.0 489129.0 0
205796.0 488832.0 0
209763.0 488925.0 0
213716.0 488582.0 0
217657.0 489126.0 0
221591.0 488609.0 0
225501.0 489237.0 0
229402.0 488621.0 0
233284.0 489247.0 0
237208.0 489044.0 0
241148.0 489619.0 0
245091.0 489023.0 0
254846.0 489337.0 0
258818.0 489838.0 0
262755.0 489203.0 0
266687.0 489362.0 0
270564.0 488650.0 0
274465.0 489315.0 0
278367.0 488608.0 0
282307.0 489172.0 0
286247.0 488565.0 0
290206.0 488930.0 0
294180.0 488828.0 0
298132.0 489129.0 0
302104.0 489364.0 0
306080.0 489628.0 0
310062.0 489901.0 0
314060.0 490152.0 0
318075.0 490394.0 0
322112.0 490620.0 0
359092.0 489593.0 0
364215.0 490467.0 0
368193.0 490247.0 0
372150.0 490032.0 0
376097.0 489814.0 0
380043.0 489587.0 0
383991.0 489363.0 0
387938.0 489042.0 0
391871.0 489461.0 0
396035.0 489433.0 0
400043.0 489576.0 0
106047.0 492847.0 0
110025.0 492921.0 0
113957.0 492771.0 0
117884.0 492958.0 0
145802.0 490676.0 0
149778.0 490831.0 0
153750.0 490963.0 0
157733.0 491065.0 0
161752.0 491112.0 0
165837.0 491056.0 0
169845.0 490939.0 0
173840.0 490806.0 0
199669.0 492888.0 0
207494.0 492411.0 0
215227.0 492276.0 0
223001.0 492341.0 0
230803.0 492357.0 0
238657.0 492707.0 0
246411.0 492682.0 0
250081.0 491238.0 0
261341.0 492881.0 0
269226.0 492418.0 0
277030.0 492367.0 0
284793.0 492281.0 0
292515.0 492417.0 0
300336.0 492904.0 0
326153.0 490808.0 0
330148.0 490940.0 0
334157.0 491058.0 0
338241.0 491115.0 0
342262.0 491067.0 0
346245.0 490963.0 0
350217.0 490830.0 0
354194.0 490673.0 0
382116.0 492958.0 0
386043.0 492770.0 0
389975.0 492921.0 0
393953.0 492846.0 0
102070.0 492945.0 0
121816.0 493156.0 0
125759.0 493361.0 0
129718.0 493563.0 0
133695.0 493755.0 0
138692.0 493201.0 0
142688.0 493152.0 0
147636.0 494186.0 0
151630.0 494335.0 0
155626.0 494445.0 0
159672.0 494509.0 0
163814.0 494479.0 0
167908.0 494412.0 0
171911.0 494298.0 0
175900.0 494174.0 0
179875.0 494022.0 0
183843.0 493833.0 0
187810.0 493615.0 0
191774.0 493396.0 0
195721.0 493153.0 0
203598.0 493070.0 0
211372.0 493099.0 0
219110.0 493018.0 0
226904.0 492980.0 0
234714.0 492970.0 0
242544.0 493342.0 0
249478.0 495111.0 0
253527.0 493109.0 0
257440.0 493559.0 0
265310.0 493113.0 0
273131.0 493086.0 0
280920.0 493109.0 0
288652.0 493126.0 0
296407.0 493059.0 0
304285.0 493146.0 0
308231.0 493406.0 0
312194.0 493623.0 0
316158.0 493841.0 0
320124.0 494029.0 0
324097.0 494177.0 0
328085.0 494300.0 0
332086.0 494413.0 0
336180.0 494482.0 0
340322.0 494511.0 0
344370.0 494447.0 0
348367.0 494334.0 0
352361.0 494184.0 0
357309.0 493148.0 0
361305.0 493200.0 0
366306.0 493756.0 0
370282.0 493563.0 0
374241.0 493361.0 0
378184.0 493155.0 0
397930.0 492945.0 0
101069.0 496802.0 0
105058.0 496713.0 0
109033.0 496762.0 0
113004.0 496648.0 0
116959.0 496825.0 0
120908.0 497015.0 0
124857.0 497218.0 0
128811.0 497407.0 0
132778.0 497572.0 0
137107.0 496878.0 0
141101.0 496807.0 0
145073.0 497240.0 0
149487.0 497702.0 0
153515.0 497833.0 0
157570.0 497900.0 0
161744.0 497886.0 0
165887.0 497846.0 0
169971.0 497780.0 0
173985.0 497674.0 0
177995.0 497544.0 0
181992.0 497377.0 0
185979.0 497165.0 0
189959.0 496941.0 0
193943.0 496739.0 0
197919.0 496460.0 0
201900.0 496763.0 0
205893.0 496320.0 0
209856.0 496789.0 0
213816.0 496247.0 0
217776.0 496780.0 0
221814.0 496239.0 0
225772.0 496802.0 0
229837.0 496232.0 0
233782.0 496843.0 0
237760.0 496548.0 0
241700.0 497211.0 0
245644.0 496560.0 0
254809.0 496879.0 0
258803.0 497287.0 0
262728.0 496559.0 0
266680.0 496870.0 0
270589.0 496193.0 0
274508.0 496835.0 0
278437.0 496259.0 0
282366.0 496831.0 0
286300.0 496325.0 0
290248.0 496813.0 0
294199.0 496374.0 0
298155.0 496778.0 0
302116.0 496465.0 0
306078.0 496756.0 0
310052.0 496951.0 0
314027.0 497174.0 0
318011.0 497385.0 0
322007.0 497550.0 0
326012.0 497677.0 0
330026.0 497783.0 0
334107.0 497848.0 0
338250.0 497888.0 0
342425.0 497902.0 0
346484.0 497834.0 0
350512.0 497701.0 0
354925.0 497237.0 0
358897.0 496803.0 0
362890.0 496877.0 0
367223.0 497572.0 0
371190.0 497407.0 0
375144.0 497218.0 0
379093.0 497015.0 0
383041.0 496825.0 0
386996.0 496648.0 0
390967.0 496762.0 0
394942.0 496713.0 0
398931.0 496802.0 0
110076.0 500605.0 0
114072.0 500546.0 0
118157.0 500629.0 0
190986.0 500769.0 0
198805.0 500330.0 0
206597.0 500241.0 0
214397.0 500197.0 0
222212.0 500213.0 0
230036.0 500221.0 0
237893.0 500504.0 0
245706.0 500520.0 0
251105.0 498620.0 0
262074.0 500455.0 0
269896.0 500173.0 0
277702.0 500188.0 0
285513.0 500231.0 0
293330.0 500267.0 0
301129.0 500310.0 0
308958.0 500762.0 0
381843.0 500629.0 0
385928.0 500546.0 0
389924.0 500605.0 0
102063.0 500669.0 0
106062.0 500610.0 0
122271.0 500758.0 0
126478.0 500856.0 0
130602.0 500955.0 0
134596.0 501080.0 0
138555.0 500728.0 0
142539.0 500741.0 0
146518.0 500967.0 0
151226.0 501288.0 0
155364.0 501365.0 0
159381.0 501437.0 0
163362.0 501505.0 0
167333.0 501527.0 0
171290.0 501506.0 0
175245.0 501434.0 0
179193.0 501331.0 0
183135.0 501189.0 0
187066.0 500984.0 0
194900.0 500679.0 0
202704.0 500752.0 0
210498.0 500732.0 0
218302.0 500743.0 0
226122.0 500778.0 0
233946.0 500824.0 0
241796.0 501174.0 0
249326.0 502132.0 0
254312.0 500845.0 0
258219.0 501223.0 0
266001.0 500806.0 0
273797.0 500765.0 0
281606.0 500753.0 0
289421.0 500731.0 0
297229.0 500769.0 0
305036.0 500716.0 0
312885.0 500979.0 0
316824.0 501184.0 0
320773.0 501324.0 0
324726.0 501428.0 0
328684.0 501501.0 0
332645.0 501523.0 0
336617.0 501501.0 0
340599.0 501433.0 0
344630.0 501362.0 0
348771.0 501285.0 0
353482.0 500965.0 0
357461.0 500741.0 0
361444.0 500729.0 0
365403.0 501080.0 0
369397.0 500954.0 0
373522.0 500856.0 0
377729.0 500757.0 0
393938.0 500610.0 0
397937.0 500669.0 0
101717.0 504650.0 0
105711.0 504604.0 0
109700.0 504576.0 0
113684.0 504545.0 0
117663.0 504591.0 0
121637.0 504695.0 0
125609.0 504749.0 0
129580.0 504805.0 0
133552.0 504903.0 0
137530.0 504701.0 0
141507.0 504692.0 0
145478.0 504830.0 0
149447.0 504867.0 0
153414.0 504856.0 0
157377.0 504885.0 0
161347.0 504943.0 0
165330.0 504970.0 0
169318.0 504972.0 0
173312.0 504923.0 0
177298.0 504841.0 0
181288.0 504724.0 0
185609.0 504691.0 0
189770.0 504557.0 0
193941.0 504560.0 0
197937.0 504403.0 0
201927.0 504662.0 0
205952.0 504399.0 0
209941.0 504675.0 0
213976.0 504397.0 0
217963.0 504713.0 0
222001.0 504391.0 0
226023.0 504756.0 0
230006.0 504382.0 0
234104.0 504797.0 0
238091.0 504475.0 0
242173.0 505112.0 0
246113.0 504485.0 0
250728.0 505817.0 0
254583.0 504799.0 0
258547.0 505178.0 0
262446.0 504420.0 0
266404.0 504769.0 0
270349.0 504301.0 0
274306.0 504717.0 0
278269.0 504347.0 0
282239.0 504688.0 0
286213.0 504381.0 0
290194.0 504645.0 0
294177.0 504401.0 0
298163.0 504647.0 0
302151.0 504410.0 0
306145.0 504557.0 0
310202.0 504543.0 0
314359.0 504680.0 0
318680.0 504717.0 0
322670.0 504834.0 0
326660.0 504916.0 0
330657.0 504966.0 0
334649.0 504965.0 0
338635.0 504937.0 0
342609.0 504877.0 0
346575.0 504856.0 0
350544.0 504867.0 0
354515.0 504830.0 0
358487.0 504693.0 0
362465.0 504701.0 0
366444.0 504903.0 0
370417.0 504805.0 0
374388.0 504749.0 0
378361.0 504695.0 0
382335.0 504591.0 0
386314.0 504545.0 0
390299.0 504576.0 0
394288.0 504604.0 0
398282.0 504650.0 0
245623.0 508436.0 0
102008.0 508635.0 0
106007.0 508593.0 0
110007.0 508556.0 0
114007.0 508539.0 0
118017.0 508568.0 0
122034.0 508664.0 0
126063.0 508712.0 0
130088.0 508756.0 0
134087.0 508832.0 0
138080.0 508681.0 0
142077.0 508693.0 0
146085.0 508782.0 0
150158.0 508799.0 0
154158.0 508785.0 0
158210.0 508790.0 0
162232.0 508831.0 0
166231.0 508844.0 0
170227.0 508840.0 0
174217.0 508789.0 0
178202.0 508715.0 0
182182.0 508610.0 0
186163.0 508639.0 0
190142.0 508523.0 0
194122.0 508553.0 0
198099.0 508398.0 0
202072.0 508648.0 0
206044.0 508397.0 0
210015.0 508659.0 0
213986.0 508395.0 0
217953.0 508699.0 0
221919.0 508388.0 0
225881.0 508736.0 0
229841.0 508377.0 0
233796.0 508764.0 0
237758.0 508443.0 0
241687.0 509040.0 0
249442.0 509568.0 0
253526.0 508636.0 0
257499.0 509004.0 0
261945.0 508387.0 0
265929.0 508722.0 0
269952.0 508406.0 0
273941.0 508684.0 0
277930.0 508411.0 0
281919.0 508663.0 0
285908.0 508411.0 0
289897.0 508625.0 0
293884.0 508402.0 0
297870.0 508626.0 0
301855.0 508400.0 0
305841.0 508545.0 0
309829.0 508511.0 0
313814.0 508630.0 0
317801.0 508606.0 0
321785.0 508711.0 0
325773.0 508787.0 0
329766.0 508839.0 0
333763.0 508843.0 0
337763.0 508828.0 0
341796.0 508787.0 0
345841.0 508787.0 0
349840.0 508800.0 0
353915.0 508782.0 0
357923.0 508693.0 0
361920.0 508681.0 0
365913.0 508833.0 0
369912.0 508756.0 0
373937.0 508712.0 0
377966.0 508664.0 0
381983.0 508568.0 0
385993.0 508539.0 0
389993.0 508556.0 0
393993.0 508593.0 0
397992.0 508635.0 0
101981.0 512630.0 0
105980.0 512592.0 0
109979.0 512550.0 0
113978.0 512539.0 0
117976.0 512562.0 0
121972.0 512653.0 0
125969.0 512699.0 0
129966.0 512737.0 0
133963.0 512798.0 0
137959.0 512679.0 0
141956.0 512691.0 0
145952.0 512776.0 0
149948.0 512788.0 0
153945.0 512777.0 0
157941.0 512773.0 0
161936.0 512808.0 0
165933.0 512815.0 0
169930.0 512807.0 0
173928.0 512754.0 0
177927.0 512687.0 0
181941.0 512596.0 0
185965.0 512621.0 0
189984.0 512506.0 0
193993.0 512548.0 0
197997.0 512421.0 0
201991.0 512634.0 0
206000.0 512421.0 0
209995.0 512644.0 0
214000.0 512421.0 0
218007.0 512683.0 0
222000.0 512420.0 0
226023.0 512713.0 0
230011.0 512417.0 0
234043.0 512733.0 0
238031.0 512426.0 0
242191.0 512965.0 0
246147.0 512395.0 0
250383.0 513420.0 0
254273.0 512539.0 0
258241.0 512907.0 0
262187.0 512379.0 0
266159.0 512698.0 0
270133.0 512402.0 0
274112.0 512667.0 0
278093.0 512408.0 0
282077.0 512648.0 0
286062.0 512412.0 0
290050.0 512613.0 0
294040.0 512417.0 0
298031.0 512614.0 0
302024.0 512420.0 0
306020.0 512539.0 0
310019.0 512495.0 0
314032.0 512613.0 0
318056.0 512591.0 0
322072.0 512683.0 0
326071.0 512751.0 0
330069.0 512805.0 0
334066.0 512813.0 0
338062.0 512805.0 0
342058.0 512771.0 0
346054.0 512778.0 0
350051.0 512789.0 0
354047.0 512776.0 0
358043.0 512691.0 0
362041.0 512679.0 0
366037.0 512798.0 0
370034.0 512737.0 0
374031.0 512699.0 0
378028.0 512653.0 0
382024.0 512562.0 0
386022.0 512539.0 0
390021.0 512550.0 0
394019.0 512592.0 0
398019.0 512630.0 0
102001.0 516626.0 0
106000.0 516591.0 0
110000.0 516545.0 0
114000.0 516539.0 0
118001.0 516556.0 0
122002.0 516644.0 0
126003.0 516687.0 0
130005.0 516720.0 0
134005.0 516767.0 0
138004.0 516678.0 0
142004.0 516690.0 0
146008.0 516770.0 0
150013.0 516780.0 0
154014.0 516772.0 0
158018.0 516764.0 0
162022.0 516794.0 0
166022.0 516797.0 0
170022.0 516787.0 0
174021.0 516731.0 0
178020.0 516672.0 0
182018.0 516587.0 0
186017.0 516609.0 0
190014.0 516494.0 0
194013.0 516544.0 0
198011.0 516421.0 0
202005.0 516622.0 0
206000.0 516421.0 0
209995.0 516630.0 0
213989.0 516421.0 0
217979.0 516668.0 0
221968.0 516419.0 0
225954.0 516694.0 0
229940.0 516416.0 0
233922.0 516709.0 0
237904.0 516420.0 0
241865.0 516911.0 0
245823.0 516378.0 0
249700.0 517325.0 0
253906.0 516506.0 0
257890.0 516862.0 0
261991.0 516416.0 0
265982.0 516677.0 0
269997.0 516420.0 0
273990.0 516651.0 0
278000.0 516421.0 0
281995.0 516637.0 0
286000.0 516421.0 0
289998.0 516603.0 0
293999.0 516421.0 0
297994.0 516605.0 0
301990.0 516421.0 0
305988.0 516537.0 0
309986.0 516485.0 0
313984.0 516602.0 0
317983.0 516583.0 0
321981.0 516668.0 0
325980.0 516729.0 0
329979.0 516785.0 0
333978.0 516795.0 0
337978.0 516792.0 0
341982.0 516762.0 0
345986.0 516773.0 0
349986.0 516780.0 0
353992.0 516770.0 0
357996.0 516690.0 0
361996.0 516678.0 0
365995.0 516767.0 0
369995.0 516720.0 0
373997.0 516687.0 0
377998.0 516644.0 0
381999.0 516556.0 0
386000.0 516539.0 0
390000.0 516545.0 0
394000.0 516591.0 0
397999.0 516626.0 0
102000.0 520621.0 0
106000.0 520589.0 0
110000.0 520542.0 0
114000.0 520538.0 0
118000.0 520551.0 0
121999.0 520635.0 0
125998.0 520675.0 0
129998.0 520704.0 0
133998.0 520739.0 0
137997.0 520676.0 0
141997.0 520689.0 0
145996.0 520763.0 0
149996.0 520771.0 0
153996.0 520766.0 0
157995.0 520755.0 0
161995.0 520781.0 0
165995.0 520778.0 0
169995.0 520769.0 0
173994.0 520712.0 0
177995.0 520659.0 0
181997.0 520578.0 0
185998.0 520597.0 0
189999.0 520484.0 0
194000.0 520540.0 0
198000.0 520421.0 0
202000.0 520611.0 0
206000.0 520421.0 0
210000.0 520617.0 0
214000.0 520421.0 0
218001.0 520654.0 0
222000.0 520421.0 0
226004.0 520675.0 0
230000.0 520421.0 0
234010.0 520687.0 0
238000.0 520421.0 0
242044.0 520867.0 0
246018.0 520416.0 0
250182.0 521258.0 0
254100.0 520489.0 0
258080.0 520829.0 0
262053.0 520415.0 0
266041.0 520659.0 0
270029.0 520419.0 0
274020.0 520639.0 0
278012.0 520421.0 0
282006.0 520627.0 0
286000.0 520421.0 0
290000.0 520595.0 0
294000.0 520421.0 0
298000.0 520597.0 0
302000.0 520421.0 0
306000.0 520534.0 0
310001.0 520477.0 0
314002.0 520591.0 0
318003.0 520574.0 0
322005.0 520655.0 0
326006.0 520710.0 0
330005.0 520767.0 0
334005.0 520777.0 0
338005.0 520779.0 0
342005.0 520754.0 0
346004.0 520766.0 0
350004.0 520771.0 0
354004.0 520764.0 0
358003.0 520689.0 0
362003.0 520676.0 0
366002.0 520739.0 0
370002.0 520705.0 0
374002.0 520675.0 0
378001.0 520635.0 0
382000.0 520551.0 0
386000.0 520538.0 0
390000.0 520542.0 0
394000.0 520589.0 0
398000.0 520621.0 0
102000.0 524616.0 0
106000.0 524587.0 0
110000.0 524540.0 0
114000.0 524538.0 0
118000.0 524546.0 0
122000.0 524627.0 0
126000.0 524665.0 0
130000.0 524690.0 0
134000.0 524715.0 0
138000.0 524674.0 0
142000.0 524687.0 0
146001.0 524756.0 0
150001.0 524761.0 0
154001.0 524758.0 0
158001.0 524745.0 0
162002.0 524767.0 0
166002.0 524760.0 0
170002.0 524750.0 0
174002.0 524694.0 0
178001.0 524647.0 0
182000.0 524568.0 0
186000.0 524586.0 0
190000.0 524476.0 0
194000.0 524537.0 0
198000.0 524421.0 0
202000.0 524601.0 0
206000.0 524421.0 0
210000.0 524605.0 0
214000.0 524421.0 0
218000.0 524641.0 0
222000.0 524421.0 0
226000.0 524658.0 0
230000.0 524421.0 0
233999.0 524668.0 0
237992.0 524421.0 0
241970.0 524830.0 0
245946.0 524415.0 0
249863.0 525207.0 0
253994.0 524479.0 0
257981.0 524798.0 0
262000.0 524421.0 0
265998.0 524643.0 0
270000.0 524421.0 0
274000.0 524627.0 0
278000.0 524421.0 0
282000.0 524618.0 0
286000.0 524421.0 0
290000.0 524587.0 0
294000.0 524421.0 0
298000.0 524590.0 0
302000.0 524421.0 0
306000.0 524532.0 0
310000.0 524470.0 0
314000.0 524582.0 0
318000.0 524565.0 0
321999.0 524643.0 0
325998.0 524692.0 0
329998.0 524748.0 0
333998.0 524759.0 0
337998.0 524766.0 0
341999.0 524744.0 0
345999.0 524759.0 0
349999.0 524761.0 0
353999.0 524756.0 0
358000.0 524687.0 0
362000.0 524674.0 0
366000.0 524715.0 0
370000.0 524690.0 0
374000.0 524665.0 0
378000.0 524627.0 0
382000.0 524546.0 0
386000.0 524538.0 0
390000.0 524540.0 0
394000.0 524587.0 0
398000.0 524616.0 0
102000.0 528611.0 0
106000.0 528584.0 0
110000.0 528538.0 0
114000.0 528537.0 0
118000.0 528543.0 0
122000.0 528621.0 0
126000.0 528655.0 0
130000.0 528677.0 0
134000.0 528693.0 0
138000.0 528671.0 0
142000.0 528685.0 0
146000.0 528749.0 0
150000.0 528751.0 0
154000.0 528750.0 0
158000.0 528734.0 0
162000.0 528752.0 0
166000.0 528741.0 0
170000.0 528731.0 0
174000.0 528675.0 0
178000.0 528634.0 0
182000.0 528558.0 0
186000.0 528577.0 0
190000.0 528469.0 0
194000.0 528534.0 0
198000.0 528421.0 0
202000.0 528592.0 0
206000.0 528421.0 0
210000.0 528595.0 0
214000.0 528421.0 0
218000.0 528628.0 0
222000.0 528421.0 0
226000.0 528642.0 0
230000.0 528421.0 0
234000.0 528650.0 0
238000.0 528421.0 0
242003.0 528795.0 0
246000.0 528421.0 0
250076.0 529162.0 0
254014.0 528471.0 0
258002.0 528770.0 0
262000.0 528421.0 0
266000.0 528629.0 0
270000.0 528421.0 0
274000.0 528615.0 0
278000.0 528421.0 0
282000.0 528609.0 0
286000.0 528421.0 0
290000.0 528580.0 0
294000.0 528421.0 0
298000.0 528583.0 0
302000.0 528421.0 0
306000.0 528530.0 0
310000.0 528464.0 0
314000.0 528573.0 0
318000.0 528555.0 0
322000.0 528631.0 0
326000.0 528674.0 0
330000.0 528730.0 0
334000.0 528741.0 0
338000.0 528752.0 0
342000.0 528734.0 0
346000.0 528750.0 0
350000.0 528751.0 0
354000.0 528749.0 0
358000.0 528685.0 0
362000.0 528671.0 0
366000.0 528693.0 0
370000.0 528677.0 0
374000.0 528655.0 0
378000.0 528621.0 0
382000.0 528543.0 0
386000.0 528537.0 0
390000.0 528538.0 0
394000.0 528584.0 0
398000.0 528611.0 0
102000.0 532607.0 0
106000.0 532582.0 0
110000.0 532537.0 0
114000.0 532537.0 0
118000.0 532539.0 0
122000.0 532615.0 0
126000.0 532647.0 0
130000.0 532666.0 0
134000.0 532674.0 0
138000.0 532669.0 0
142000.0 532683.0 0
146000.0 532741.0 0
150000.0 532740.0 0
154000.0 532741.0 0
158000.0 532723.0 0
162000.0 532738.0 0
166000.0 532723.0 0
170000.0 532712.0 0
174000.0 532657.0 0
178000.0 532621.0 0
182000.0 532547.0 0
186000.0 532568.0 0
190000.0 532463.0 0
194000.0 532530.0 0
198000.0 532421.0 0
202000.0 532584.0 0
206000.0 532421.0 0
210000.0 532585.0 0
214000.0 532421.0 0
218000.0 532616.0 0
222000.0 532421.0 0
226000.0 532628.0 0
230000.0 532421.0 0
234000.0 532634.0 0
238000.0 532421.0 0
242000.0 532763.0 0
246000.0 532421.0 0
249974.0 533121.0 0
254000.0 532464.0 0
258000.0 532743.0 0
262000.0 532421.0 0
266000.0 532615.0 0
270000.0 532421.0 0
274000.0 532605.0 0
278000.0 532421.0 0
282000.0 532600.0 0
286000.0 532421.0 0
290000.0 532573.0 0
294000.0 532421.0 0
298000.0 532576.0 0
302000.0 532421.0 0
306000.0 532527.0 0
310000.0 532459.0 0
314000.0 532565.0 0
318000.0 532545.0 0
322000.0 532619.0 0
326000.0 532656.0 0
330000.0 532712.0 0
334000.0 532722.0 0
338000.0 532737.0 0
342000.0 532723.0 0
346000.0 532741.0 0
350000.0 532740.0 0
354000.0 532741.0 0
358000.0 532683.0 0
362000.0 532669.0 0
366000.0 532674.0 0
370000.0 532666.0 0
374000.0 532647.0 0
378000.0 532615.0 0
382000.0 532539.0 0
386000.0 532537.0 0
390000.0 532537.0 0
394000.0 532582.0 0
398000.0 532607.0 0
102000.0 536602.0 0
106000.0 536579.0 0
110000.0 536536.0 0
114000.0 536536.0 0
118000.0 536536.0 0
122000.0 536610.0 0
126000.0 536639.0 0
130000.0 536656.0 0
134000.0 536658.0 0
138000.0 536665.0 0
142000.0 536681.0 0
146000.0 536733.0 0
150000.0 536729.0 0
154000.0 536731.0 0
158000.0 536712.0 0
162000.0 536723.0 0
166000.0 536705.0 0
170000.0 536694.0 0
174000.0 536640.0 0
178000.0 536608.0 0
182000.0 536537.0 0
186000.0 536559.0 0
190000.0 536458.0 0
194000.0 536527.0 0
198000.0 536421.0 0
202000.0 536577.0 0
206000.0 536421.0 0
210000.0 536577.0 0
214000.0 536421.0 0
218000.0 536605.0 0
222000.0 536421.0 0
226000.0 536614.0 0
230000.0 536421.0 0
234000.0 536619.0 0
238000.0 536421.0 0
242000.0 536734.0 0
246000.0 536421.0 0
254000.0 536458.0 0
258000.0 536718.0 0
262000.0 536421.0 0
266000.0 536603.0 0
270000.0 536421.0 0
274000.0 536595.0 0
278000.0 536421.0 0
282000.0 536592.0 0
286000.0 536421.0 0
290000.0 536567.0 0
294000.0 536421.0 0
298000.0 536570.0 0
302000.0 536421.0 0
306000.0 536525.0 0
310000.0 536455.0 0
314000.0 536557.0 0
318000.0 536535.0 0
322000.0 536607.0 0
326000.0 536639.0 0
330000.0 536693.0 0
334000.0 536704.0 0
338000.0 536723.0 0
342000.0 536712.0 0
346000.0 536731.0 0
350000.0 536729.0 0
354000.0 536733.0 0
358000.0 536681.0 0
362000.0 536665.0 0
366000.0 536658.0 0
370000.0 536656.0 0
374000.0 536639.0 0
378000.0 536610.0 0
382000.0 536536.0 0
386000.0 536536.0 0
390000.0 536536.0 0
394000.0 536579.0 0
398000.0 536602.0 0
250005.0 537082.0 0
102000.0 540597.0 0
106000.0 540576.0 0
110000.0 540535.0 0
114000.0 540536.0 0
118000.0 540534.0 0
122000.0 540605.0 0
126000.0 540633.0 0
130000.0 540648.0 0
134000.0 540644.0 0
138000.0 540662.0 0
142000.0 540678.0 0
146000.0 540725.0 0
150000.0 540718.0 0
154000.0 540721.0 0
158000.0 540701.0 0
162000.0 540709.0 0
166000.0 540687.0 0
170000.0 540676.0 0
174000.0 540623.0 0
178000.0 540596.0 0
182000.0 540527.0 0
186000.0 540552.0 0
190000.0 540454.0 0
194000.0 540525.0 0
198000.0 540421.0 0
202000.0 540570.0 0
206000.0 540421.0 0
210000.0 540569.0 0
214000.0 540421.0 0
218000.0 540595.0 0
222000.0 540421.0 0
226000.0 540601.0 0
230000.0 540421.0 0
234000.0 540605.0 0
238000.0 540421.0 0
242000.0 540707.0 0
246000.0 540421.0 0
249999.0 541044.0 0
254000.0 540453.0 0
258000.0 540694.0 0
262000.0 540421.0 0
266000.0 540592.0 0
270000.0 540421.0 0
274000.0 540586.0 0
278000.0 540421.0 0
282000.0 540584.0 0
286000.0 540421.0 0
290000.0 540561.0 0
294000.0 540421.0 0
298000.0 540565.0 0
302000.0 540421.0 0
306000.0 540523.0 0
310000.0 540452.0 0
314000.0 540550.0 0
318000.0 540525.0 0
322000.0 540595.0 0
326000.0 540622.0 0
330000.0 540676.0 0
334000.0 540687.0 0
338000.0 540708.0 0
342000.0 540701.0 0
346000.0 540721.0 0
350000.0 540719.0 0
354000.0 540725.0 0
358000.0 540678.0 0
362000.0 540662.0 0
366000.0 540644.0 0
370000.0 540648.0 0
374000.0 540633.0 0
378000.0 540605.0 0
382000.0 540534.0 0
386000.0 540536.0 0
390000.0 540535.0 0
394000.0 540576.0 0
398000.0 540597.0 0
102000.0 544593.0 0
106000.0 544572.0 0
110000.0 544534.0 0
114000.0 544535.0 0
118000.0 544532.0 0
122000.0 544602.0 0
126000.0 544627.0 0
130000.0 544640.0 0
134000.0 544633.0 0
138000.0 544659.0 0
142000.0 544675.0 0
146000.0 544717.0 0
150000.0 544708.0 0
154000.0 544712.0 0
158000.0 544690.0 0
162000.0 544695.0 0
166000.0 544670.0 0
170000.0 544659.0 0
174000.0 544606.0 0
178000.0 544584.0 0
182000.0 544517.0 0
186000.0 544545.0 0
190000.0 544450.0 0
194000.0 544522.0 0
198000.0 544421.0 0
202000.0 544564.0 0
206000.0 544421.0 0
210000.0 544562.0 0
214000.0 544421.0 0
218000.0 544586.0 0
222000.0 544421.0 0
226000.0 544590.0 0
230000.0 544421.0 0
234000.0 544593.0 0
238000.0 544421.0 0
242000.0 544683.0 0
246000.0 544421.0 0
254000.0 544448.0 0
258000.0 544672.0 0
262000.0 544421.0 0
266000.0 544581.0 0
270000.0 544421.0 0
274000.0 544577.0 0
278000.0 544421.0 0
282000.0 544577.0 0
286000.0 544421.0 0
290000.0 544555.0 0
294000.0 544421.0 0
298000.0 544560.0 0
302000.0 544421.0 0
306000.0 544520.0 0
310000.0 544448.0 0
314000.0 544544.0 0
318000.0 544516.0 0
322000.0 544583.0 0
326000.0 544606.0 0
330000.0 544659.0 0
334000.0 544670.0 0
338000.0 544695.0 0
342000.0 544690.0 0
346000.0 544712.0 0
350000.0 544708.0 0
354000.0 544717.0 0
358000.0 544675.0 0
362000.0 544659.0 0
366000.0 544633.0 0
370000.0 544640.0 0
374000.0 544627.0 0
378000.0 544602.0 0
382000.0 544532.0 0
386000.0 544535.0 0
390000.0 544534.0 0
394000.0 544572.0 0
398000.0 544593.0 0
250000.0 545007.0 0
102000.0 548589.0 0
106000.0 548569.0 0
110000.0 548533.0 0
114000.0 548534.0 0
118000.0 548530.0 0
122000.0 548598.0 0
126000.0 548622.0 0
130000.0 548634.0 0
134000.0 548623.0 0
138000.0 548655.0 0
142000.0 548672.0 0
146000.0 548709.0 0
150000.0 548698.0 0
154000.0 548702.0 0
158000.0 548679.0 0
162000.0 548681.0 0
166000.0 548654.0 0
170000.0 548643.0 0
174000.0 548591.0 0
178000.0 548573.0 0
182000.0 548508.0 0
186000.0 548539.0 0
190000.0 548447.0 0
194000.0 548519.0 0
198000.0 548421.0 0
202000.0 548558.0 0
206000.0 548421.0 0
210000.0 548555.0 0
214000.0 548421.0 0
218000.0 548577.0 0
222000.0 548421.0 0
226000.0 548579.0 0
230000.0 548421.0 0
234000.0 548582.0 0
238000.0 548421.0 0
242000.0 548661.0 0
246000.0 548421.0 0
250000.0 548971.0 0
254000.0 548443.0 0
258000.0 548652.0 0
262000.0 548421.0 0
266000.0 548572.0 0
270000.0 548421.0 0
274000.0 548569.0 0
278000.0 548421.0 0
282000.0 548570.0 0
286000.0 548421.0 0
290000.0 548550.0 0
294000.0 548421.0 0
298000.0 548555.0 0
302000.0 548421.0 0
306000.0 548518.0 0
310000.0 548446.0 0
314000.0 548538.0 0
318000.0 548507.0 0
322000.0 548572.0 0
326000.0 548590.0 0
330000.0 548643.0 0
334000.0 548653.0 0
338000.0 548681.0 0
342000.0 548679.0 0
346000.0 548702.0 0
350000.0 548698.0 0
354000.0 548709.0 0
358000.0 548672.0 0
362000.0 548655.0 0
366000.0 548623.0 0
370000.0 548634.0 0
374000.0 548622.0 0
378000.0 548598.0 0
382000.0 548530.0 0
386000.0 548534.0 0
390000.0 548533.0 0
394000.0 548569.0 0
398000.0 548589.0 0
102000.0 552585.0 0
106000.0 552566.0 0
110000.0 552532.0 0
114000.0 552533.0 0
118000.0 552528.0 0
122000.0 552595.0 0
126000.0 552618.0 0
130000.0 552629.0 0
134000.0 552615.0 0
138000.0 552652.0 0
162000.0 552668.0 0
166000.0 552638.0 0
170000.0 552628.0 0
174000.0 552577.0 0
178000.0 552563.0 0
182000.0 552499.0 0
186000.0 552534.0 0
190000.0 552444.0 0
194000.0 552517.0 0
198000.0 552421.0 0
202000.0 552552.0 0
206000.0 552421.0 0
210000.0 552549.0 0
214000.0 552421.0 0
218000.0 552569.0 0
222000.0 552421.0 0
226000.0 552570.0 0
230000.0 552421.0 0
234000.0 552572.0 0
238000.0 552421.0 0
242000.0 552642.0 0
246000.0 552421.0 0
254000.0 552439.0 0
258000.0 552634.0 0
262000.0 552421.0 0
266000.0 552564.0 0
270000.0 552421.0 0
274000.0 552561.0 0
278000.0 552421.0 0
282000.0 552563.0 0
286000.0 552421.0 0
290000.0 552545.0 0
294000.0 552421.0 0
298000.0 552550.0 0
302000.0 552421.0 0
306000.0 552516.0 0
310000.0 552443.0 0
314000.0 552533.0 0
318000.0 552498.0 0
322000.0 552562.0 0
326000.0 552576.0 0
330000.0 552627.0 0
334000.0 552638.0 0
338000.0 552668.0 0
362000.0 552652.0 0
366000.0 552615.0 0
370000.0 552629.0 0
374000.0 552618.0 0
378000.0 552595.0 0
382000.0 552528.0 0
386000.0 552533.0 0
390000.0 552532.0 0
394000.0 552566.0 0
398000.0 552585.0 0
142000.0 552669.0 0
146000.0 552702.0 0
150000.0 552689.0 0
154000.0 552693.0 0
158000.0 552669.0 0
250000.0 552937.0 0
342000.0 552669.0 0
346000.0 552693.0 0
350000.0 552689.0 0
354000.0 552702.0 0
358000.0 552669.0 0
102000.0 556581.0 0
106000.0 556563.0 0
110000.0 556531.0 0
114000.0 556532.0 0
118000.0 556526.0 0
122000.0 556592.0 0
126000.0 556614.0 0
130000.0 556624.0 0
134000.0 556608.0 0
138000.0 556649.0 0
142000.0 556666.0 0
146000.0 556695.0 0
150000.0 556680.0 0
154000.0 556684.0 0
158000.0 556659.0 0
162000.0 556656.0 0
166000.0 556624.0 0
170000.0 556614.0 0
174000.0 556563.0 0
178000.0 556553.0 0
182000.0 556491.0 0
186000.0 556529.0 0
190000.0 556442.0 0
194000.0 556515.0 0
198000.0 556421.0 0
202000.0 556548.0 0
206000.0 556421.0 0
210000.0 556544.0 0
214000.0 556421.0 0
218000.0 556562.0 0
222000.0 556421.0 0
226000.0 556561.0 0
230000.0 556421.0 0
234000.0 556563.0 0
238000.0 556421.0 0
242000.0 556624.0 0
246000.0 556421.0 0
250000.0 556904.0 0
254000.0 556436.0 0
258000.0 556617.0 0
262000.0 556421.0 0
266000.0 556556.0 0
270000.0 556421.0 0
274000.0 556554.0 0
278000.0 556421.0 0
282000.0 556557.0 0
286000.0 556421.0 0
290000.0 556541.0 0
294000.0 556421.0 0
298000.0 556546.0 0
302000.0 556421.0 0
306000.0 556514.0 0
310000.0 556441.0 0
314000.0 556528.0 0
318000.0 556490.0 0
322000.0 556553.0 0
326000.0 556563.0 0
330000.0 556613.0 0
334000.0 556624.0 0
338000.0 556656.0 0
342000.0 556659.0 0
346000.0 556684.0 0
350000.0 556680.0 0
354000.0 556695.0 0
358000.0 556666.0 0
362000.0 556649.0 0
366000.0 556608.0 0
370000.0 556624.0 0
374000.0 556614.0 0
378000.0 556592.0 0
382000.0 556526.0 0
386000.0 556532.0 0
390000.0 556531.0 0
394000.0 556563.0 0
398000.0 556581.0 0
190000.0 560439.0 0
198000.0 560421.0 0
206000.0 560421.0 0
214000.0 560421.0 0
222000.0 560421.0 0
230000.0 560421.0 0
238000.0 560421.0 0
246000.0 560421.0 0
254000.0 560433.0 0
262000.0 560421.0 0
270000.0 560421.0 0
278000.0 560421.0 0
286000.0 560421.0 0
294000.0 560421.0 0
302000.0 560421.0 0
310000.0 560439.0 0
102000.0 560577.0 0
106000.0 560560.0 0
110000.0 560530.0 0
114000.0 560532.0 0
118000.0 560524.0 0
122000.0 560590.0 0
126000.0 560611.0 0
130000.0 560620.0 0
134000.0 560602.0 0
138000.0 560646.0 0
142000.0 560663.0 0
146000.0 560688.0 0
150000.0 560672.0 0
154000.0 560675.0 0
158000.0 560649.0 0
162000.0 560645.0 0
166000.0 560611.0 0
170000.0 560601.0 0
174000.0 560551.0 0
178000.0 560544.0 0
182000.0 560484.0 0
186000.0 560525.0 0
194000.0 560513.0 0
202000.0 560543.0 0
210000.0 560539.0 0
218000.0 560555.0 0
226000.0 560554.0 0
234000.0 560554.0 0
242000.0 560609.0 0
250000.0 560874.0 0
258000.0 560603.0 0
266000.0 560549.0 0
274000.0 560548.0 0
282000.0 560551.0 0
290000.0 560536.0 0
298000.0 560542.0 0
306000.0 560512.0 0
314000.0 560524.0 0
318000.0 560483.0 0
322000.0 560544.0 0
326000.0 560551.0 0
330000.0 560601.0 0
334000.0 560611.0 0
338000.0 560645.0 0
342000.0 560649.0 0
346000.0 560675.0 0
350000.0 560672.0 0
354000.0 560688.0 0
358000.0 560663.0 0
362000.0 560646.0 0
366000.0 560602.0 0
370000.0 560620.0 0
374000.0 560611.0 0
378000.0 560590.0 0
382000.0 560524.0 0
386000.0 560532.0 0
390000.0 560530.0 0
394000.0 560560.0 0
398000.0 560577.0 0
102000.0 564574.0 0
106000.0 564557.0 0
110000.0 564529.0 0
114000.0 564531.0 0
118000.0 564523.0 0
122000.0 564587.0 0
126000.0 564608.0 0
130000.0 564617.0 0
134000.0 564598.0 0
138000.0 564643.0 0
142000.0 564660.0 0
146000.0 564682.0 0
150000.0 564665.0 0
154000.0 564668.0 0
158000.0 564641.0 0
162000.0 564635.0 0
166000.0 564599.0 0
170000.0 564589.0 0
174000.0 564540.0 0
178000.0 564536.0 0
182000.0 564477.0 0
186000.0 564521.0 0
190000.0 564437.0 0
194000.0 564511.0 0
198000.0 564421.0 0
202000.0 564539.0 0
206000.0 564421.0 0
210000.0 564534.0 0
214000.0 564421.0 0
218000.0 564549.0 0
222000.0 564421.0 0
226000.0 564547.0 0
230000.0 564421.0 0
234000.0 564547.0 0
238000.0 564421.0 0
242000.0 564595.0 0
246000.0 564421.0 0
250000.0 564846.0 0
254000.0 564431.0 0
258000.0 564590.0 0
262000.0 564421.0 0
266000.0 564543.0 0
270000.0 564421.0 0
274000.0 564542.0 0
278000.0 564421.0 0
282000.0 564546.0 0
286000.0 564421.0 0
290000.0 564533.0 0
294000.0 564421.0 0
298000.0 564538.0 0
302000.0 564421.0 0
306000.0 564510.0 0
310000.0 564437.0 0
314000.0 564520.0 0
318000.0 564477.0 0
322000.0 564536.0 0
326000.0 564540.0 0
330000.0 564589.0 0
334000.0 564599.0 0
338000.0 564635.0 0
342000.0 564641.0 0
346000.0 564668.0 0
350000.0 564665.0 0
354000.0 564682.0 0
358000.0 564660.0 0
362000.0 564643.0 0
366000.0 564598.0 0
370000.0 564617.0 0
374000.0 564608.0 0
378000.0 564587.0 0
382000.0 564523.0 0
386000.0 564531.0 0
390000.0 564529.0 0
394000.0 564557.0 0
398000.0 564574.0 0
102000.0 568571.0 0
106000.0 568555.0 0
110000.0 568528.0 0
114000.0 568530.0 0
118000.0 568521.0 0
122000.0 568585.0 0
126000.0 568605.0 0
130000.0 568614.0 0
134000.0 568594.0 0
138000.0 568640.0 0
142000.0 568658.0 0
146000.0 568676.0 0
150000.0 568658.0 0
154000.0 568660.0 0
158000.0 568633.0 0
162000.0 568625.0 0
166000.0 568588.0 0
170000.0 568579.0 0
174000.0 568531.0 0
178000.0 568529.0 0
182000.0 568471.0 0
186000.0 568517.0 0
190000.0 568436.0 0
194000.0 568509.0 0
198000.0 568421.0 0
202000.0 568536.0 0
206000.0 568421.0 0
210000.0 568531.0 0
214000.0 568421.0 0
218000.0 568544.0 0
222000.0 568421.0 0
226000.0 568541.0 0
230000.0 568421.0 0
234000.0 568541.0 0
238000.0 568421.0 0
242000.0 568583.0 0
246000.0 568421.0 0
250000.0 568820.0 0
254000.0 568429.0 0
258000.0 568579.0 0
262000.0 568421.0 0
266000.0 568537.0 0
270000.0 568421.0 0
274000.0 568537.0 0
278000.0 568421.0 0
282000.0 568541.0 0
286000.0 568421.0 0
290000.0 568529.0 0
294000.0 568421.0 0
298000.0 568535.0 0
302000.0 568421.0 0
306000.0 568509.0 0
310000.0 568435.0 0
314000.0 568517.0 0
318000.0 568471.0 0
322000.0 568529.0 0
326000.0 568531.0 0
330000.0 568579.0 0
334000.0 568588.0 0
338000.0 568625.0 0
342000.0 568633.0 0
346000.0 568660.0 0
350000.0 568658.0 0
354000.0 568676.0 0
358000.0 568658.0 0
362000.0 568640.0 0
366000.0 568594.0 0
370000.0 568614.0 0
374000.0 568605.0 0
378000.0 568585.0 0
382000.0 568521.0 0
386000.0 568530.0 0
390000.0 568528.0 0
394000.0 568555.0 0
398000.0 568571.0 0
102000.0 572569.0 0
106000.0 572552.0 0
110000.0 572527.0 0
114000.0 572530.0 0
118000.0 572520.0 0
122000.0 572583.0 0
126000.0 572603.0 0
130000.0 572611.0 0
134000.0 572590.0 0
138000.0 572638.0 0
142000.0 572655.0 0
146000.0 572671.0 0
150000.0 572652.0 0
154000.0 572654.0 0
158000.0 572625.0 0
162000.0 572617.0 0
166000.0 572578.0 0
170000.0 572569.0 0
174000.0 572522.0 0
178000.0 572523.0 0
182000.0 572466.0 0
186000.0 572514.0 0
190000.0 572434.0 0
194000.0 572507.0 0
198000.0 572421.0 0
202000.0 572533.0 0
206000.0 572421.0 0
210000.0 572527.0 0
214000.0 572421.0 0
218000.0 572539.0 0
222000.0 572421.0 0
226000.0 572536.0 0
230000.0 572421.0 0
234000.0 572535.0 0
238000.0 572421.0 0
242000.0 572572.0 0
246000.0 572421.0 0
250000.0 572797.0 0
254000.0 572428.0 0
258000.0 572569.0 0
262000.0 572421.0 0
266000.0 572532.0 0
270000.0 572421.0 0
274000.0 572533.0 0
278000.0 572421.0 0
282000.0 572537.0 0
286000.0 572421.0 0
290000.0 572526.0 0
294000.0 572421.0 0
298000.0 572532.0 0
302000.0 572421.0 0
306000.0 572507.0 0
310000.0 572434.0 0
314000.0 572514.0 0
318000.0 572466.0 0
322000.0 572523.0 0
326000.0 572522.0 0
330000.0 572569.0 0
334000.0 572578.0 0
338000.0 572617.0 0
342000.0 572625.0 0
346000.0 572654.0 0
350000.0 572652.0 0
354000.0 572671.0 0
358000.0 572655.0 0
362000.0 572638.0 0
366000.0 572590.0 0
370000.0 572611.0 0
374000.0 572603.0 0
378000.0 572583.0 0
382000.0 572520.0 0
386000.0 572530.0 0
390000.0 572527.0 0
394000.0 572552.0 0
398000.0 572569.0 0
102000.0 576566.0 0
106000.0 576550.0 0
110000.0 576527.0 0
114000.0 576529.0 0
118000.0 576519.0 0
122000.0 576582.0 0
126000.0 576601.0 0
130000.0 576609.0 0
134000.0 576587.0 0
138000.0 576636.0 0
142000.0 576653.0 0
146000.0 576667.0 0
150000.0 576646.0 0
154000.0 576648.0 0
158000.0 576619.0 0
162000.0 576609.0 0
166000.0 576570.0 0
170000.0 576561.0 0
174000.0 576515.0 0
178000.0 576517.0 0
182000.0 576461.0 0
186000.0 576512.0 0
190000.0 576433.0 0
194000.0 576506.0 0
198000.0 576421.0 0
202000.0 576530.0 0
206000.0 576421.0 0
210000.0 576524.0 0
214000.0 576421.0 0
218000.0 576535.0 0
222000.0 576421.0 0
226000.0 576531.0 0
230000.0 576421.0 0
234000.0 576530.0 0
238000.0 576421.0 0
242000.0 576563.0 0
246000.0 576421.0 0
250000.0 576777.0 0
254000.0 576427.0 0
258000.0 576561.0 0
262000.0 576421.0 0
266000.0 576528.0 0
270000.0 576421.0 0
274000.0 576529.0 0
278000.0 576421.0 0
282000.0 576534.0 0
286000.0 576421.0 0
290000.0 576523.0 0
294000.0 576421.0 0
298000.0 576529.0 0
302000.0 576421.0 0
306000.0 576506.0 0
310000.0 576432.0 0
314000.0 576511.0 0
318000.0 576461.0 0
322000.0 576517.0 0
326000.0 576515.0 0
330000.0 576561.0 0
334000.0 576570.0 0
338000.0 576609.0 0
342000.0 576619.0 0
346000.0 576648.0 0
350000.0 576646.0 0
354000.0 576667.0 0
358000.0 576653.0 0
362000.0 576636.0 0
366000.0 576587.0 0
370000.0 576609.0 0
374000.0 576601.0 0
378000.0 576582.0 0
382000.0 576519.0 0
386000.0 576529.0 0
390000.0 576527.0 0
394000.0 576550.0 0
398000.0 576566.0 0
102000.0 580564.0 0
106000.0 580548.0 0
110000.0 580526.0 0
114000.0 580528.0 0
118000.0 580518.0 0
122000.0 580580.0 0
126000.0 580600.0 0
130000.0 580608.0 0
134000.0 580585.0 0
138000.0 580634.0 0
142000.0 580651.0 0
146000.0 580663.0 0
150000.0 580642.0 0
154000.0 580643.0 0
158000.0 580613.0 0
162000.0 580603.0 0
166000.0 580563.0 0
170000.0 580555.0 0
174000.0 580508.0 0
178000.0 580513.0 0
182000.0 580458.0 0
186000.0 580509.0 0
190000.0 580431.0 0
194000.0 580505.0 0
198000.0 580421.0 0
202000.0 580527.0 0
206000.0 580421.0 0
210000.0 580522.0 0
214000.0 580421.0 0
218000.0 580532.0 0
222000.0 580421.0 0
226000.0 580528.0 0
230000.0 580421.0 0
234000.0 580526.0 0
238000.0 580421.0 0
242000.0 580556.0 0
246000.0 580421.0 0
250000.0 580759.0 0
254000.0 580426.0 0
258000.0 580554.0 0
262000.0 580421.0 0
266000.0 580524.0 0
270000.0 580421.0 0
274000.0 580526.0 0
278000.0 580421.0 0
282000.0 580530.0 0
286000.0 580421.0 0
290000.0 580521.0 0
294000.0 580421.0 0
298000.0 580527.0 0
302000.0 580421.0 0
306000.0 580505.0 0
310000.0 580431.0 0
314000.0 580509.0 0
318000.0 580458.0 0
322000.0 580513.0 0
326000.0 580508.0 0
330000.0 580555.0 0
334000.0 580563.0 0
338000.0 580603.0 0
342000.0 580613.0 0
346000.0 580643.0 0
350000.0 580642.0 0
354000.0 580663.0 0
358000.0 580651.0 0
362000.0 580634.0 0
366000.0 580585.0 0
370000.0 580608.0 0
374000.0 580600.0 0
378000.0 580580.0 0
382000.0 580518.0 0
386000.0 580528.0 0
390000.0 580526.0 0
394000.0 580548.0 0
398000.0 580564.0 0
102000.0 584563.0 0
106000.0 584547.0 0
110000.0 584525.0 0
114000.0 584528.0 0
118000.0 584517.0 0
122000.0 584579.0 0
126000.0 584598.0 0
130000.0 584606.0 0
134000.0 584583.0 0
138000.0 584633.0 0
142000.0 584649.0 0
146000.0 584659.0 0
150000.0 584638.0 0
154000.0 584639.0 0
158000.0 584609.0 0
162000.0 584598.0 0
166000.0 584557.0 0
170000.0 584549.0 0
174000.0 584503.0 0
178000.0 584509.0 0
182000.0 584455.0 0
186000.0 584507.0 0
190000.0 584430.0 0
194000.0 584504.0 0
198000.0 584421.0 0
202000.0 584526.0 0
206000.0 584421.0 0
210000.0 584520.0 0
214000.0 584421.0 0
218000.0 584529.0 0
222000.0 584421.0 0
226000.0 584525.0 0
230000.0 584421.0 0
234000.0 584523.0 0
238000.0 584421.0 0
242000.0 584550.0 0
246000.0 584421.0 0
250000.0 584744.0 0
254000.0 584425.0 0
258000.0 584548.0 0
262000.0 584421.0 0
266000.0 584521.0 0
270000.0 584421.0 0
274000.0 584523.0 0
278000.0 584421.0 0
282000.0 584528.0 0
286000.0 584421.0 0
290000.0 584519.0 0
294000.0 584421.0 0
298000.0 584525.0 0
302000.0 584421.0 0
306000.0 584504.0 0
310000.0 584430.0 0
314000.0 584507.0 0
318000.0 584455.0 0
322000.0 584509.0 0
326000.0 584503.0 0
330000.0 584549.0 0
334000.0 584557.0 0
338000.0 584598.0 0
342000.0 584609.0 0
346000.0 584639.0 0
350000.0 584638.0 0
354000.0 584659.0 0
358000.0 584649.0 0
362000.0 584633.0 0
366000.0 584583.0 0
370000.0 584606.0 0
374000.0 584598.0 0
378000.0 584579.0 0
382000.0 584517.0 0
386000.0 584528.0 0
390000.0 584525.0 0
394000.0 584547.0 0
398000.0 584563.0 0
102000.0 588561.0 0
106000.0 588546.0 0
110000.0 588525.0 0
114000.0 588528.0 0
118000.0 588517.0 0
122000.0 588578.0 0
126000.0 588597.0 0
130000.0 588605.0 0
134000.0 588582.0 0
138000.0 588631.0 0
142000.0 588647.0 0
146000.0 588657.0 0
150000.0 588635.0 0
154000.0 588636.0 0
158000.0 588605.0 0
162000.0 588593.0 0
166000.0 588552.0 0
170000.0 588545.0 0
174000.0 588499.0 0
178000.0 588506.0 0
182000.0 588452.0 0
186000.0 588506.0 0
190000.0 588430.0 0
194000.0 588503.0 0
198000.0 588421.0 0
202000.0 588524.0 0
206000.0 588421.0 0
210000.0 588518.0 0
214000.0 588421.0 0
218000.0 588526.0 0
222000.0 588421.0 0
226000.0 588522.0 0
230000.0 588421.0 0
234000.0 588520.0 0
238000.0 588421.0 0
242000.0 588545.0 0
246000.0 588421.0 0
250000.0 588732.0 0
254000.0 588424.0 0
258000.0 588543.0 0
262000.0 588421.0 0
266000.0 588519.0 0
270000.0 588421.0 0
274000.0 588521.0 0
278000.0 588421.0 0
282000.0 588526.0 0
286000.0 588421.0 0
290000.0 588518.0 0
294000.0 588421.0 0
298000.0 588524.0 0
302000.0 588421.0 0
306000.0 588503.0 0
310000.0 588430.0 0
314000.0 588506.0 0
318000.0 588452.0 0
322000.0 588506.0 0
326000.0 588499.0 0
330000.0 588545.0 0
334000.0 588552.0 0
338000.0 588593.0 0
342000.0 588605.0 0
346000.0 588636.0 0
350000.0 588635.0 0
354000.0 588657.0 0
358000.0 588647.0 0
362000.0 588631.0 0
366000.0 588582.0 0
370000.0 588605.0 0
374000.0 588597.0 0
378000.0 588578.0 0
382000.0 588517.0 0
386000.0 588528.0 0
390000.0 588525.0 0
394000.0 588546.0 0
398000.0 588561.0 0
102000.0 592560.0 0
106000.0 592545.0 0
110000.0 592525.0 0
114000.0 592527.0 0
118000.0 592516.0 0
122000.0 592577.0 0
126000.0 592596.0 0
130000.0 592604.0 0
134000.0 592581.0 0
138000.0 592630.0 0
142000.0 592646.0 0
146000.0 592654.0 0
150000.0 592633.0 0
154000.0 592633.0 0
158000.0 592602.0 0
162000.0 592590.0 0
166000.0 592549.0 0
170000.0 592541.0 0
174000.0 592496.0 0
178000.0 592504.0 0
182000.0 592450.0 0
186000.0 592505.0 0
190000.0 592429.0 0
194000.0 592502.0 0
198000.0 592421.0 0
202000.0 592523.0 0
206000.0 592421.0 0
210000.0 592517.0 0
214000.0 592421.0 0
218000.0 592525.0 0
222000.0 592421.0 0
226000.0 592520.0 0
230000.0 592421.0 0
234000.0 592518.0 0
238000.0 592421.0 0
242000.0 592542.0 0
246000.0 592421.0 0
250000.0 592723.0 0
254000.0 592424.0 0
258000.0 592540.0 0
262000.0 592421.0 0
266000.0 592517.0 0
270000.0 592421.0 0
274000.0 592519.0 0
278000.0 592421.0 0
282000.0 592524.0 0
286000.0 592421.0 0
290000.0 592517.0 0
294000.0 592421.0 0
298000.0 592523.0 0
302000.0 592421.0 0
306000.0 592502.0 0
310000.0 592429.0 0
314000.0 592505.0 0
318000.0 592450.0 0
322000.0 592504.0 0
326000.0 592496.0 0
330000.0 592541.0 0
334000.0 592549.0 0
338000.0 592590.0 0
342000.0 592602.0 0
346000.0 592633.0 0
350000.0 592633.0 0
354000.0 592654.0 0
358000.0 592646.0 0
362000.0 592630.0 0
366000.0 592581.0 0
370000.0 592604.0 0
374000.0 592596.0 0
378000.0 592577.0 0
382000.0 592516.0 0
386000.0 592527.0 0
390000.0 592525.0 0
394000.0 592545.0 0
398000.0 592560.0 0
102000.0 596560.0 0
106000.0 596544.0 0
110000.0 596524.0 0
114000.0 596527.0 0
118000.0 596516.0 0
122000.0 596577.0 0
126000.0 596596.0 0
130000.0 596604.0 0
134000.0 596580.0 0
138000.0 596630.0 0
142000.0 596645.0 0
146000.0 596653.0 0
150000.0 596631.0 0
154000.0 596632.0 0
158000.0 596600.0 0
162000.0 596588.0 0
166000.0 596546.0 0
170000.0 596539.0 0
174000.0 596494.0 0
178000.0 596502.0 0
182000.0 596449.0 0
186000.0 596504.0 0
190000.0 596429.0 0
194000.0 596502.0 0
198000.0 596421.0 0
202000.0 596522.0 0
206000.0 596421.0 0
210000.0 596516.0 0
214000.0 596421.0 0
218000.0 596524.0 0
222000.0 596421.0 0
226000.0 596519.0 0
230000.0 596421.0 0
234000.0 596517.0 0
238000.0 596421.0 0
242000.0 596539.0 0
246000.0 596421.0 0
250000.0 596717.0 0
254000.0 596424.0 0
258000.0 596538.0 0
262000.0 596421.0 0
266000.0 596516.0 0
270000.0 596421.0 0
274000.0 596518.0 0
278000.0 596421.0 0
282000.0 596523.0 0
286000.0 596421.0 0
290000.0 596516.0 0
294000.0 596421.0 0
298000.0 596522.0 0
302000.0 596421.0 0
306000.0 596502.0 0
310000.0 596429.0 0
314000.0 596504.0 0
318000.0 596449.0 0
322000.0 596502.0 0
326000.0 596494.0 0
330000.0 596539.0 0
334000.0 596546.0 0
338000.0 596588.0 0
342000.0 596600.0 0
346000.0 596632.0 0
350000.0 596631.0 0
354000.0 596653.0 0
358000.0 596645.0 0
362000.0 596630.0 0
366000.0 596580.0 0
370000.0 596604.0 0
374000.0 596596.0 0
378000.0 596577.0 0
382000.0 596516.0 0
386000.0 596527.0 0
390000.0 596524.0 0
394000.0 596544.0 0
398000.0 596560.0 0
102000.0 600559.0 0
106000.0 600544.0 0
110000.0 600524.0 0
114000.0 600527.0 0
118000.0 600516.0 0
122000.0 600577.0 0
126000.0 600595.0 0
130000.0 600603.0 0
134000.0 600580.0 0
138000.0 600630.0 0
142000.0 600645.0 0
146000.0 600652.0 0
150000.0 600630.0 0
154000.0 600631.0 0
158000.0 600599.0 0
162000.0 600587.0 0
166000.0 600545.0 0
170000.0 600538.0 0
174000.0 600493.0 0
178000.0 600501.0 0
182000.0 600448.0 0
186000.0 600504.0 0
190000.0 600428.0 0
194000.0 600502.0 0
198000.0 600421.0 0
202000.0 600522.0 0
206000.0 600421.0 0
210000.0 600516.0 0
214000.0 600421.0 0
218000.0 600523.0 0
222000.0 600421.0 0
226000.0 600519.0 0
230000.0 600421.0 0
234000.0 600516.0 0
238000.0 600421.0 0
242000.0 600538.0 0
246000.0 600421.0 0
250000.0 600714.0 0
254000.0 600423.0 0
258000.0 600537.0 0
262000.0 600421.0 0
266000.0 600515.0 0
270000.0 600421.0 0
274000.0 600518.0 0
278000.0 600421.0 0
282000.0 600523.0 0
286000.0 600421.0 0
290000.0 600515.0 0
294000.0 600421.0 0
298000.0 600522.0 0
302000.0 600421.0 0
306000.0 600502.0 0
310000.0 600428.0 0
314000.0 600504.0 0
318000.0 600448.0 0
322000.0 600501.0 0
326000.0 600493.0 0
330000.0 600538.0 0
334000.0 600545.0 0
338000.0 600587.0 0
342000.0 600599.0 0
346000.0 600631.0 0
350000.0 600630.0 0
354000.0 600652.0 0
358000.0 600645.0 0
362000.0 600630.0 0
366000.0 600580.0 0
370000.0 600603.0 0
374000.0 600595.0 0
378000.0 600577.0 0
382000.0 600516.0 0
386000.0 600527.0 0
390000.0 600524.0 0
394000.0 600544.0 0
398000.0 600559.0 0
POINT_DATA 4650
SCALARS Radius float 1
LOOKUP_TABLE default
4000.0 4000.0 4000.0 4000.0 4000.0 4000.0 4000.0 4000.0 4000.0 4000.0 4000.0 4000.0 4000.0 4000.0 4000.0 4000.0 4000.0 4000.0 4000.0 4000.0 4000.0 4000.0 4000.0 4000.0 4000.0 4000.0 4000.0 4000.0 4000.0 4000.0 4000.0 4000.0 4000.0 4000.0 4000.0 4000.0 4000.0 4000.0 4000.0 4000.0 4000.0 4000.0 4000.0 4000.0 4000.0 4000.0 4000.0 4000.0 4000.0 4000.0 4000.0 4000.0 4000.0 4000.0 4000.0 4000.0 4000.0 4000.0 4000.0 4000.0 4000.0 4000.0 4000.0 4000.0 4000.0 4000.0 4000.0 4000.0 4000.0 4000.0 4000.0 4000.0 4000.0 4000.0 4000.0 4000.0 4000.0 4000.0 4000.0 4000.0 4000.0 4000.0 4000.0 4000.0 4000.0 4000.0 4000.0 4000.0 4000.0 4000.0 4000.0 4000.0 4000.0 4000.0 4000.0 4000.0 4000.0 4000.0 4000.0 4000.0 4000.0 4000.0 4000.0 4000.0 4000.0 4000.0 4000.0 4000.0 4000.0 4000.0 4000.0 4000.0 4000.0 4000.0 4000.0 4000.0 4000.0 4000.0 4000.0 4000.0 4000.0 4000.0 4000.0 4000.0 4000.0 4000.0 4000.0 4000.0 4000.0 4000.0 4000.0 4000.0 4000.0 4000.0 4000.0 4000.0 4000.0 4000.0 4000.0 4000.0 4000.0 4000.0 4000.0 4000.0 4000.0 4000.0 4000.0 4000.0 4000.0 4000.0 4000.0 4000.0 4000.0 4000.0 4000.0 4000.0 4000.0 4000.0 4000.0 4000.0 4000.0 4000.0 4000.0 4000.0 4000.0 4000.0 4000.0 4000.0 4000.0 4000.0 4000.0 4000.0 4000.0 4000.0 4000.0 4000.0 4000.0 4000.0 4000.0 4000.0 4000.0 4000.0 4000.0 4000.0 4000.0 4000.0 4000.0 4000.0 4000.0 4000.0 4000.0 4000.0 4000.0 4000.0 4000.0 4000.0 4000.0 4000.0 4000.0 4000.0 4000.0 4000.0 4000.0 4000.0 4000.0 4000.0 4000.0 4000.0 4000.0 4000.0 4000.0 4000.0 4000.0 4000.0 4000.0 4000.0 4000.0 4000.0 4000.0 4000.0 4000.0 4000.0 4000.0 4000.0 4000.0 4000.0 4000.0 4000.0 4000.0 4000.0 4000.0 4000.0 4000.0 4000.0 4000.0 4000.0 4000.0 4000.0 4000.0 4000.0 4000.0 4000.0 4000.0 4000.0 4000.0 4000.0 4000.0 4000.0 4000.0 4000.0 4000.0 4000.0 4000.0 4000.0 4000.0 4000.0 4000.0 4000.0 4000.0 4000.0 4000.0 4000.0 4000.0 4000.0 4000.0 4000.0 4000.0 4000.0 4000.0 4000.0 4000.0 4000.0 4000.0 4000.0 4000.0 4000.0 4000.0 4000.0 4000.0 4000.0 4000.0 4000.0 4000.0 4000.0 4000.0 4000.0 4000.0 4000.0 4000.0 4000.0 4000.0 4000.0 4000.0 4000.0 4000.0 4000.0 4000.0 4000.0 4000.0 4000.0 4000.0 4000.0 4000.0 4000.0 4000.0 4000.0 4000.0 4000.0 4000.0 4000.0 4000.0 4000.0 4000.0 4000.0 4000.0 4000.0 4000.0 4000.0 4000.0 4000.0 4000.0 4000.0 4000.0 4000.0 4000.0 4000.0 4000.0 4000.0 4000.0 4000.0 4000.0 4000.0 4000.0 4000.0 4000.0 4000.0 4000.0 4000.0 4000.0 4000.0 4000.0 4000.0 4000.0 4000.0 4000.0 4000.0 4000.0 4000.0 4000.0 4000.0 4000.0 4000.0 4000.0 4000.0 4000.0 4000.0 4000.0 4000.0 4000.0 4000.0 4000.0 4000.0 4000.0 4000.0 4000.0 4000.0 4000.0 4000.0 4000.0 4000.0 4000.0 4000.0 4000.0 4000.0 4000.0 4000.0 4000.0 4000.0 4000.0 4000.0 4000.0 4000.0 4000.0 4000.0 4000.0 4000.0 4000.0 4000.0 4000.0 4000.0 4000.0 4000.0 4000.0 4000.0 4000.0 4000.0 4000.0 4000.0 4000.0 4000.0 4000.0 4000.0 4000.0 4000.0 4000.0 4000.0 4000.0 4000.0 4000.0 4000.0 4000.0 4000.0 4000.0 4000.0 4000.0 4000.0 4000.0 4000.0 4000.0 4000.0 4000.0 4000.0 4000.0 4000.0 4000.0 4000.0 4000.0 4000.0 4000.0 4000.0 4000.0 4000.0 4000.0 4000.0 4000.0 4000.0 4000.0 4000.0 4000.0 4000.0 4000.0 4000.0 4000.0 4000.0 4000.0 4000.0 4000.0 4000.0 4000.0 4000.0 4000.0 4000.0 4000.0 4000.0 4000.0 4000.0 4000.0 4000.0 4000.0 4000.0 4000.0 4000.0 4000.0 4000.0 4000.0 4000.0 4000.0 4000.0 4000.0 4000.0 4000.0 4000.0 4000.0 4000.0 4000.0 4000.0 4000.0 4000.0 4000.0 4000.0 4000.0 4000.0 4000.0 4000.0 4000.0 4000.0 4000.0 4000.0 4000.0 4000.0 4000.0 4000.0 4000.0 4000.0 4000.0 4000.0 4000.0 4000.0 4000.0 4000.0 4000.0 4000.0 4000.0 4000.0 4000.0 4000.0 4000.0 4000.0 4000.0 4000.0 4000.0 4000.0 4000.0 4000.0 4000.0 4000.0 4000.0 4000.0 4000.0 4000.0 4000.0 4000.0 4000.0 4000.0 4000.0 4000.0 4000.0 4000.0 4000.0 4000.0 4000.0 4000.0 4000.0 4000.0 4000.0 4000.0 4000.0 4000.0 4000.0 4000.0 4000.0 4000.0 4000.0 4000.0 4000.0 4000.0 4000.0 4000.0 4000.0 4000.0 4000.0 4000.0 4000.0 4000.0 4000.0 4000.0 4000.0 4000.0 4000.0 4000.0 4000.0 4000.0 4000.0 4000.0 4000.0 4000.0 4000.0 4000.0 4000.0 4000.0 4000.0 4000.0 4000.0 4000.0 4000.0 4000.0 4000.0 4000.0 4000.0 4000.0 4000.0 4000.0 4000.0 4000.0 4000.0 4000.0 4000.0 4000.0 4000.0 4000.0 4000.0 4000.0 4000.0 4000.0 4000.0 4000.0 4000.0 4000.0 4000.0 4000.0 4000.0 4000.0 4000.0 4000.0 4000.0 4000.0 4000.0 4000.0 4000.0 4000.0 4000.0 4000.0 4000.0 4000.0 4000.0 4000.0 4000.0 4000.0 4000.0 4000.0 4000.0 4000.0 4000.0 4000.0 4000.0 4000.0 4000.0 4000.0 4000.0 4000.0 4000.0 4000.0 4000.0 4000.0 4000.0 4000.0 4000.0 4000.0 4000.0 4000.0 4000.0 4000.0 4000.0 4000.0 4000.0 4000.0 4000.0 4000.0 4000.0 4000.0 4000.0 4000.0 4000.0 4000.0 4000.0 4000.0 4000.0 4000.0 4000.0 4000.0 4000.0 4000.0 4000.0 4000.0 4000.0 4000.0 4000.0 4000.0 4000.0 4000.0 4000.0 4000.0 4000.0 4000.0 4000.0 4000.0 4000.0 4000.0 4000.0 4000.0 4000.0 4000.0 4000.0 4000.0 4000.0 4000.0 4000.0 4000.0 4000.0 4000.0 4000.0 4000.0 4000.0 4000.0 4000.0 4000.0 4000.0 4000.0 4000.0 4000.0 4000.0 4000.0 4000.0 4000.0 4000.0 4000.0 4000.0 4000.0 4000.0 4000.0 4000.0 4000.0 4000.0 4000.0 4000.0 4000.0 4000.0 4000.0 4000.0 4000.0 4000.0 4000.0 4000.0 4000.0 4000.0 4000.0 4000.0 4000.0 4000.0 4000.0 4000.0 4000.0 4000.0 4000.0 4000.0 4000.0 4000.0 4000.0 4000.0 4000.0 4000.0 4000.0 4000.0 4000.0 4000.0 4000.0 4000.0 4000.0 4000.0 4000.0 4000.0 4000.0 4000.0 4000.0 4000.0 4000.0 4000.0 4000.0 4000.0 4000.0 4000.0 4000.0 4000.0 4000.0 4000.0 4000.0 4000.0 4000.0 4000.0 4000.0 4000.0 4000.0 4000.0 4000.0 4000.0 4000.0 4000.0 4000.0 4000.0 4000.0 4000.0 4000.0 4000.0 4000.0 4000.0 4000.0 4000.0 4000.0 4000.0 4000.0 4000.0 4000.0 4000.0 4000.0 4000.0 4000.0 4000.0 4000.0 4000.0 4000.0 4000.0 4000.0 4000.0 4000.0 4000.0 4000.0 4000.0 4000.0 4000.0 4000.0 4000.0 4000.0 4000.0 4000.0 4000.0 4000.0 4000.0 4000.0 4000.0 4000.0 4000.0 4000.0 4000.0 4000.0 4000.0 4000.0 4000.0 4000.0 4000.0 4000.0 4000.0 4000.0 4000.0 4000.0 4000.0 4000.0 4000.0 4000.0 4000.0 4000.0 4000.0 4000.0 4000.0 4000.0 4000.0 4000.0 4000.0 4000.0 4000.0 4000.0 4000.0 4000.0 4000.0 4000.0 4000.0 4000.0 4000.0 4000.0 4000.0 4000.0 4000.0 4000.0 4000.0 4000.0 4000.0 4000.0 4000.0 4000.0 4000.0 4000.0 4000.0 4000.0 4000.0 4000.0 4000.0 4000.0 4000.0 4000.0 4000.0 4000.0 4000.0 4000.0 4000.0 4000.0 4000.0 4000.0 4000.0 4000.0 4000.0 4000.0 4000.0 4000.0 4000.0 4000.0 4000.0 4000.0 4000.0 4000.0 4000.0 4000.0 4000.0 4000.0 4000.0 4000.0 4000.0 4000.0 4000.0 4000.0 4000.0 4000.0 4000.0 4000.0 4000.0 4000.0 4000.0 4000.0 4000.0 4000.0 4000.0 4000.0 4000.0 4000.0 4000.0 4000.0 4000.0 4000.0 4000.0 4000.0 4000.0 4000.0 4000.0 4000.0 4000.0 4000.0 4000.0 4000.0 4000.0 4000.0 4000.0 4000.0 4000.0 4000.0 4000.0 4000.0 4000.0 4000.0 4000.0 4000.0 4000.0 4000.0 4000.0 4000.0 4000.0 4000.0 4000.0 4000.0 4000.0 4000.0 4000.0 4000.0 4000.0 4000.0 4000.0 4000.0 4000.0 4000.0 4000.0 4000.0 4000.0 4000.0 4000.0 4000.0 4000.0 4000.0 4000.0 4000.0 4000.0 4000.0 4000.0 4000.0 4000.0 4000.0 4000.0 4000.0 4000.0 4000.0 4000.0 4000.0 4000.0 4000.0 4000.0 4000.0 4000.0 4000.0 4000.0 4000.0 4000.0 4000.0 4000.0 4000.0 4000.0 4000.0 4000.0 4000.0 4000.0 4000.0 4000.0 4000.0 4000.0 4000.0 4000.0 4000.0 4000.0 4000.0 4000.0 4000.0 4000.0 4000.0 4000.0 4000.0 4000.0 4000.0 4000.0 4000.0 4000.0 4000.0 4000.0 4000.0 4000.0 4000.0 4000.0 4000.0 4000.0 4000.0 4000.0 4000.0 4000.0 4000.0 4000.0 4000.0 4000.0 4000.0 4000.0 4000.0 4000.0 4000.0 4000.0 4000.0 4000.0 4000.0 4000.0 4000.0 4000.0 4000.0 4000.0 4000.0 4000.0 4000.0 4000.0 4000.0 4000.0 4000.0 4000.0 4000.0 4000.0 4000.0 4000.0 4000.0 4000.0 4000.0 4000.0 4000.0 4000.0 4000.0 4000.0 4000.0 4000.0 4000.0 4000.0 4000.0 4000.0 4000.0 4000.0 4000.0 4000.0 4000.0 4000.0 4000.0 4000.0 4000.0 4000.0 4000.0 4000.0 4000.0 4000.0 4000.0 4000.0 4000.0 4000.0 4000.0 4000.0 4000.0 4000.0 4000.0 4000.0 4000.0 4000.0 4000.0 4000.0 4000.0 4000.0 4000.0 4000.0 4000.0 4000.0 4000.0 4000.0 4000.0 4000.0 4000.0 4000.0 4000.0 4000.0 4000.0 4000.0 4000.0 4000.0 4000.0 4000.0 4000.0 4000.0 4000.0 4000.0 4000.0 4000.0 4000.0 4000.0 4000.0 4000.0 4000.0 4000.0 4000.0 4000.0 4000.0 4000.0 4000.0 4000.0 4000.0 4000.0 4000.0 4000.0 4000.0 4000.0 4000.0 4000.0 4000.0 4000.0 4000.0 4000.0 4000.0 4000.0 4000.0 4000.0 4000.0 4000.0 4000.0 4000.0 4000.0 4000.0 4000.0 4000.0 4000.0 4000.0 4000.0 4000.0 4000.0 4000.0 4000.0 4000.0 4000.0 4000.0 4000.0 4000.0 4000.0 4000.0 4000.0 4000.0 4000.0 4000.0 4000.0 4000.0 4000.0 4000.0 4000.0 4000.0 4000.0 4000.0 4000.0 4000.0 4000.0 4000.0 4000.0 4000.0 4000.0 4000.0 4000.0 4000.0 4000.0 4000.0 4000.0 4000.0 4000.0 4000.0 4000.0 4000.0 4000.0 4000.0 4000.0 4000.0 4000.0 4000.0 4000.0 4000.0 4000.0 4000.0 4000.0 4000.0 4000.0 4000.0 4000.0 4000.0 4000.0 4000.0 4000.0 4000.0 4000.0 4000.0 4000.0 4000.0 4000.0 4000.0 4000.0 4000.0 4000.0 4000.0 4000.0 4000.0 4000.0 4000.0 4000.0 4000.0 4000.0 4000.0 4000.0 4000.0 4000.0 4000.0 4000.0 4000.0 4000.0 4000.0 4000.0 4000.0 4000.0 4000.0 4000.0 4000.0 4000.0 4000.0 4000.0 4000.0 4000.0 4000.0 4000.0 4000.0 4000.0 4000.0 4000.0 4000.0 4000.0 4000.0 4000.0 4000.0 4000.0 4000.0 4000.0 4000.0 4000.0 4000.0 4000.0 4000.0 4000.0 4000.0 4000.0 4000.0 4000.0 4000.0 4000.0 4000.0 4000.0 4000.0 4000.0 4000.0 4000.0 4000.0 4000.0 4000.0 4000.0 4000.0 4000.0 4000.0 4000.0 4000.0 4000.0 4000.0 4000.0 4000.0 4000.0 4000.0 4000.0 4000.0 4000.0 4000.0 4000.0 4000.0 4000.0 4000.0 4000.0 4000.0 4000.0 4000.0 4000.0 4000.0 4000.0 4000.0 4000.0 4000.0 4000.0 4000.0 4000.0 4000.0 4000.0 4000.0 4000.0 4000.0 4000.0 4000.0 4000.0 4000.0 4000.0 4000.0 4000.0 4000.0 4000.0 4000.0 4000.0 4000.0 4000.0 4000.0 4000.0 4000.0 4000.0 4000.0 4000.0 4000.0 4000.0 4000.0 4000.0 4000.0 4000.0 4000.0 4000.0 4000.0 4000.0 4000.0 4000.0 4000.0 4000.0 4000.0 4000.0 4000.0 4000.0 4000.0 4000.0 4000.0 4000.0 4000.0 4000.0 4000.0 4000.0 4000.0 4000.0 4000.0 4000.0 4000.0 4000.0 4000.0 4000.0 4000.0 4000.0 4000.0 4000.0 4000.0 4000.0 4000.0 4000.0 4000.0 4000.0 4000.0 4000.0 4000.0 4000.0 4000.0 4000.0 4000.0 4000.0 4000.0 4000.0 4000.0 4000.0 4000.0 4000.0 4000.0 4000.0 4000.0 4000.0 4000.0 4000.0 4000.0 4000.0 4000.0 4000.0 4000.0 4000.0 4000.0 4000.0 4000.0 4000.0 4000.0 4000.0 4000.0 4000.0 4000.0 4000.0 4000.0 4000.0 4000.0 4000.0 4000.0 4000.0 4000.0 4000.0 4000.0 4000.0 4000.0 4000.0 4000.0 4000.0 4000.0 4000.0 4000.0 4000.0 4000.0 4000.0 4000.0 4000.0 4000.0 4000.0 4000.0 4000.0 4000.0 4000.0 4000.0 4000.0 4000.0 4000.0 4000.0 4000.0 4000.0 4000.0 4000.0 4000.0 4000.0 4000.0 4000.0 4000.0 4000.0 4000.0 4000.0 4000.0 4000.0 4000.0 4000.0 4000.0 4000.0 4000.0 4000.0 4000.0 4000.0 4000.0 4000.0 4000.0 4000.0 4000.0 4000.0 4000.0 4000.0 4000.0 4000.0 4000.0 4000.0 4000.0 4000.0 4000.0 4000.0 4000.0 4000.0 4000.0 4000.0 4000.0 4000.0 4000.0 4000.0 4000.0 4000.0 4000.0 4000.0 4000.0 4000.0 4000.0 4000.0 4000.0 4000.0 4000.0 4000.0 4000.0 4000.0 4000.0 4000.0 4000.0 4000.0 4000.0 4000.0 4000.0 4000.0 4000.0 4000.0 4000.0 4000.0 4000.0 4000.0 4000.0 4000.0 4000.0 4000.0 4000.0 4000.0 4000.0 4000.0 4000.0 4000.0 4000.0 4000.0 4000.0 4000.0 4000.0 4000.0 4000.0 4000.0 4000.0 4000.0 4000.0 4000.0 4000.0 4000.0 4000.0 4000.0 4000.0 4000.0 4000.0 4000.0 4000.0 4000.0 4000.0 4000.0 4000.0 4000.0 4000.0 4000.0 4000.0 4000.0 4000.0 4000.0 4000.0 4000.0 4000.0 4000.0 4000.0 4000.0 4000.0 4000.0 4000.0 4000.0 4000.0 4000.0 4000.0 4000.0 4000.0 4000.0 4000.0 4000.0 4000.0 4000.0 4000.0 4000.0 4000.0 4000.0 4000.0 4000.0 4000.0 4000.0 4000.0 4000.0 4000.0 4000.0 4000.0 4000.0 4000.0 4000.0 4000.0 4000.0 4000.0 4000.0 4000.0 4000.0 4000.0 4000.0 4000.0 4000.0 4000.0 4000.0 4000.0 4000.0 4000.0 4000.0 4000.0 4000.0 4000.0 4000.0 4000.0 4000.0 4000.0 4000.0 4000.0 4000.0 4000.0 4000.0 4000.0 4000.0 4000.0 4000.0 4000.0 4000.0 4000.0 4000.0 4000.0 4000.0 4000.0 4000.0 4000.0 4000.0 4000.0 4000.0 4000.0 4000.0 4000.0 4000.0 4000.0 4000.0 4000.0 4000.0 4000.0 4000.0 4000.0 4000.0 4000.0 4000.0 4000.0 4000.0 4000.0 4000.0 4000.0 4000.0 4000.0 4000.0 4000.0 4000.0 4000.0 4000.0 4000.0 4000.0 4000.0 4000.0 4000.0 4000.0 4000.0 4000.0 4000.0 4000.0 4000.0 4000.0 4000.0 4000.0 4000.0 4000.0 4000.0 4000.0 4000.0 4000.0 4000.0 4000.0 4000.0 4000.0 4000.0 4000.0 4000.0 4000.0 4000.0 4000.0 4000.0 4000.0 4000.0 4000.0 4000.0 4000.0 4000.0 4000.0 4000.0 4000.0 4000.0 4000.0 4000.0 4000.0 4000.0 4000.0 4000.0 4000.0 4000.0 4000.0 4000.0 4000.0 4000.0 4000.0 4000.0 4000.0 4000.0 4000.0 4000.0 4000.0 4000.0 4000.0 4000.0 4000.0 4000.0 4000.0 4000.0 4000.0 4000.0 4000.0 4000.0 4000.0 4000.0 4000.0 4000.0 4000.0 4000.0 4000.0 4000.0 4000.0 4000.0 4000.0 4000.0 4000.0 4000.0 4000.0 4000.0 4000.0 4000.0 4000.0 4000.0 4000.0 4000.0 4000.0 4000.0 4000.0 4000.0 4000.0 4000.0 4000.0 4000.0 4000.0 4000.0 4000.0 4000.0 4000.0 4000.0 4000.0 4000.0 4000.0 4000.0 4000.0 4000.0 4000.0 4000.0 4000.0 4000.0 4000.0 4000.0 4000.0 4000.0 4000.0 4000.0 4000.0 4000.0 4000.0 4000.0 4000.0 4000.0 4000.0 4000.0 4000.0 4000.0 4000.0 4000.0 4000.0 4000.0 4000.0 4000.0 4000.0 4000.0 4000.0 4000.0 4000.0 4000.0 4000.0 4000.0 4000.0 4000.0 4000.0 4000.0 4000.0 4000.0 4000.0 4000.0 4000.0 4000.0 4000.0 4000.0 4000.0 4000.0 4000.0 4000.0 4000.0 4000.0 4000.0 4000.0 4000.0 4000.0 4000.0 4000.0 4000.0 4000.0 4000.0 4000.0 4000.0 4000.0 4000.0 4000.0 4000.0 4000.0 4000.0 4000.0 4000.0 4000.0 4000.0 4000.0 4000.0 4000.0 4000.0 4000.0 4000.0 4000.0 4000.0 4000.0 4000.0 4000.0 4000.0 4000.0 4000.0 4000.0 4000.0 4000.0 4000.0 4000.0 4000.0 4000.0 4000.0 4000.0 4000.0 4000.0 4000.0 4000.0 4000.0 4000.0 4000.0 4000.0 4000.0 4000.0 4000.0 4000.0 4000.0 4000.0 4000.0 4000.0 4000.0 4000.0 4000.0 4000.0 4000.0 4000.0 4000.0 4000.0 4000.0 4000.0 4000.0 4000.0 4000.0 4000.0 4000.0 4000.0 4000.0 4000.0 4000.0 4000.0 4000.0 4000.0 4000.0 4000.0 4000.0 4000.0 4000.0 4000.0 4000.0 4000.0 4000.0 4000.0 4000.0 4000.0 4000.0 4000.0 4000.0 4000.0 4000.0 4000.0 4000.0 4000.0 4000.0 4000.0 4000.0 4000.0 4000.0 4000.0 4000.0 4000.0 4000.0 4000.0 4000.0 4000.0 4000.0 4000.0 4000.0 4000.0 4000.0 4000.0 4000.0 4000.0 4000.0 4000.0 4000.0 4000.0 4000.0 4000.0 4000.0 4000.0 4000.0 4000.0 4000.0 4000.0 4000.0 4000.0 4000.0 4000.0 4000.0 4000.0 4000.0 4000.0 4000.0 4000.0 4000.0 4000.0 4000.0 4000.0 4000.0 4000.0 4000.0 4000.0 4000.0 4000.0 4000.0 4000.0 4000.0 4000.0 4000.0 4000.0 4000.0 4000.0 4000.0 4000.0 4000.0 4000.0 4000.0 4000.0 4000.0 4000.0 4000.0 4000.0 4000.0 4000.0 4000.0 4000.0 4000.0 4000.0 4000.0 4000.0 4000.0 4000.0 4000.0 4000.0 4000.0 4000.0 4000.0 4000.0 4000.0 4000.0 4000.0 4000.0 4000.0 4000.0 4000.0 4000.0 4000.0 4000.0 4000.0 4000.0 4000.0 4000.0 4000.0 4000.0 4000.0 4000.0 4000.0 4000.0 4000.0 4000.0 4000.0 4000.0 4000.0 4000.0 4000.0 4000.0 4000.0 4000.0 4000.0 4000.0 4000.0 4000.0 4000.0 4000.0 4000.0 4000.0 4000.0 4000.0 4000.0 4000.0 4000.0 4000.0 4000.0 4000.0 4000.0 4000.0 4000.0 4000.0 4000.0 4000.0 4000.0 4000.0 4000.0 4000.0 4000.0 4000.0 4000.0 4000.0 4000.0 4000.0 4000.0 4000.0 4000.0 4000.0 4000.0 4000.0 4000.0 4000.0 4000.0 4000.0 4000.0 4000.0 4000.0 4000.0 4000.0 4000.0 4000.0 4000.0 4000.0 4000.0 4000.0 4000.0 4000.0 4000.0 4000.0 4000.0 4000.0 4000.0 4000.0 4000.0 4000.0 4000.0 4000.0 4000.0 4000.0 4000.0 4000.0 4000.0 4000.0 4000.0 4000.0 4000.0 4000.0 4000.0 4000.0 4000.0 4000.0 4000.0 4000.0 4000.0 4000.0 4000.0 4000.0 4000.0 4000.0 4000.0 4000.0 4000.0 4000.0 4000.0 4000.0 4000.0 4000.0 4000.0 4000.0 4000.0 4000.0 4000.0 4000.0 4000.0 4000.0 4000.0 4000.0 4000.0 4000.0 4000.0 4000.0 4000.0 4000.0 4000.0 4000.0 4000.0 4000.0 4000.0 4000.0 4000.0 4000.0 4000.0 4000.0 4000.0 4000.0 4000.0 4000.0 4000.0 4000.0 4000.0 4000.0 4000.0 4000.0 4000.0 4000.0 4000.0 4000.0 4000.0 4000.0 4000.0 4000.0 4000.0 4000.0 4000.0 4000.0 4000.0 4000.0 4000.0 4000.0 4000.0 4000.0 4000.0 4000.0 4000.0 4000.0 4000.0 4000.0 4000.0 4000.0 4000.0 4000.0 4000.0 4000.0 4000.0 4000.0 4000.0 4000.0 4000.0 4000.0 4000.0 4000.0 4000.0 4000.0 4000.0 4000.0 4000.0 4000.0 4000.0 4000.0 4000.0 4000.0 4000.0 4000.0 4000.0 4000.0 4000.0 4000.0 4000.0 4000.0 4000.0 4000.0 4000.0 4000.0 4000.0 4000.0 4000.0 4000.0 4000.0 4000.0 4000.0 4000.0 4000.0 4000.0 4000.0 4000.0 4000.0 4000.0 4000.0 4000.0 4000.0 4000.0 4000.0 4000.0 4000.0 4000.0 4000.0 4000.0 4000.0 4000.0 4000.0 4000.0 4000.0 4000.0 4000.0 4000.0 4000.0 4000.0 4000.0 4000.0 4000.0 4000.0 4000.0 4000.0 4000.0 4000.0 4000.0 4000.0 4000.0 4000.0 4000.0 4000.0 4000.0 4000.0 4000.0 4000.0 4000.0 4000.0 4000.0 4000.0 4000.0 4000.0 4000.0 4000.0 4000.0 4000.0 4000.0 4000.0 4000.0 4000.0 4000.0 4000.0 4000.0 4000.0 4000.0 4000.0 4000.0 4000.0 4000.0 4000.0 4000.0 4000.0 4000.0 4000.0 4000.0 4000.0 4000.0 4000.0 4000.0 4000.0 4000.0 4000.0 4000.0 4000.0 4000.0 4000.0 4000.0 4000.0 4000.0 4000.0 4000.0 4000.0 4000.0 4000.0 4000.0 4000.0 4000.0 4000.0 4000.0 4000.0 4000.0 4000.0 4000.0 4000.0 4000.0 4000.0 4000.0 4000.0 4000.0 4000.0 4000.0 4000.0 4000.0 4000.0 4000.0 4000.0 4000.0 4000.0 4000.0 4000.0 4000.0 4000.0 4000.0 4000.0 4000.0 4000.0 4000.0 4000.0 4000.0 4000.0 4000.0 4000.0 4000.0 4000.0 4000.0 4000.0 4000.0 4000.0 4000.0 4000.0 4000.0 4000.0 4000.0 4000.0 4000.0 4000.0 4000.0 4000.0 4000.0 4000.0 4000.0 4000.0 4000.0 4000.0 4000.0 4000.0 4000.0 4000.0 4000.0 4000.0 4000.0 4000.0 4000.0 4000.0 4000.0 4000.0 4000.0 4000.0 4000.0 4000.0 4000.0 4000.0 4000.0 4000.0 4000.0 4000.0 4000.0 4000.0 4000.0 4000.0 4000.0 4000.0 4000.0 4000.0 4000.0 4000.0 4000.0 4000.0 4000.0 4000.0 4000.0 4000.0 4000.0 4000.0 4000.0 4000.0 4000.0 4000.0 4000.0 4000.0 4000.0 4000.0 4000.0 4000.0 4000.0 4000.0 4000.0 4000.0 4000.0 4000.0 4000.0 4000.0 4000.0 4000.0 4000.0 4000.0 4000.0 4000.0 4000.0 4000.0 4000.0 4000.0 4000.0 4000.0 4000.0 4000.0 4000.0 4000.0 4000.0 4000.0 4000.0 4000.0 4000.0 4000.0 4000.0 4000.0 4000.0 4000.0 4000.0 4000.0 4000.0 4000.0 4000.0 4000.0 4000.0 4000.0 4000.0 4000.0 4000.0 4000.0 4000.0 4000.0 4000.0 4000.0 4000.0 4000.0 4000.0 4000.0 4000.0 4000.0 4000.0 4000.0 4000.0 4000.0 4000.0 4000.0 4000.0 4000.0 4000.0 4000.0 4000.0 4000.0 4000.0 4000.0 4000.0 4000.0 4000.0 4000.0 4000.0 4000.0 4000.0 4000.0 4000.0 4000.0 4000.0 4000.0 4000.0 4000.0 4000.0 4000.0 4000.0 4000.0 4000.0 4000.0 4000.0 4000.0 4000.0 4000.0 4000.0 4000.0 4000.0 4000.0 4000.0 4000.0 4000.0 4000.0 4000.0 4000.0 4000.0 4000.0 4000.0 4000.0 4000.0 4000.0 4000.0 4000.0 4000.0 4000.0 4000.0 4000.0 4000.0 4000.0 4000.0 4000.0 4000.0 4000.0 4000.0 4000.0 4000.0 4000.0 4000.0 4000.0 4000.0 4000.0 4000.0 4000.0 4000.0 4000.0 4000.0 4000.0 4000.0 4000.0 4000.0 4000.0 4000.0 4000.0 4000.0 4000.0 4000.0 4000.0 4000.0 4000.0 4000.0 4000.0 4000.0 4000.0 4000.0 4000.0 4000.0 4000.0 4000.0 4000.0 4000.0 4000.0 4000.0 4000.0 4000.0 4000.0 4000.0 4000.0 4000.0 4000.0 4000.0 4000.0 4000.0 4000.0 4000.0 4000.0 4000.0 4000.0 4000.0 4000.0 4000.0 4000.0 4000.0 4000.0 4000.0 4000.0 4000.0 4000.0 4000.0 4000.0 4000.0 4000.0 4000.0 4000.0 4000.0 4000.0 4000.0 4000.0 4000.0 4000.0 4000.0 4000.0 4000.0 4000.0 4000.0 4000.0 4000.0 4000.0 4000.0 4000.0 4000.0 4000.0 4000.0 4000.0 4000.0 4000.0 4000.0 4000.0 4000.0 4000.0 4000.0 4000.0 4000.0 4000.0 4000.0 4000.0 4000.0 4000.0 4000.0 4000.0 4000.0 4000.0 4000.0 4000.0 4000.0 4000.0 4000.0 4000.0 4000.0 4000.0 4000.0 4000.0 4000.0 4000.0 4000.0 4000.0 4000.0 4000.0 4000.0 4000.0 4000.0 4000.0 4000.0 4000.0 4000.0 4000.0 4000.0 4000.0 4000.0 4000.0 4000.0 4000.0 4000.0 4000.0 4000.0 4000.0 4000.0 4000.0 4000.0 4000.0 4000.0 4000.0 4000.0 4000.0 4000.0 4000.0 4000.0 4000.0 4000.0 4000.0 4000.0 4000.0 4000.0 4000.0 4000.0 4000.0 4000.0 4000.0 4000.0 4000.0 4000.0 4000.0 4000.0 4000.0 4000.0 4000.0 4000.0 4000.0 4000.0 4000.0 4000.0 4000.0 4000.0 4000.0 4000.0 4000.0 4000.0 4000.0 4000.0 4000.0 4000.0 4000.0 4000.0 4000.0 4000.0 4000.0 4000.0 4000.0 4000.0 4000.0 4000.0 4000.0 4000.0 4000.0 4000.0 4000.0 4000.0 4000.0 4000.0 4000.0 4000.0 4000.0 4000.0 4000.0 4000.0 4000.0 4000.0 4000.0 4000.0 4000.0 4000.0 4000.0 4000.0 4000.0 4000.0 4000.0 4000.0 4000.0 4000.0 4000.0 4000.0 4000.0 4000.0 4000.0 4000.0 4000.0 4000.0 4000.0 4000.0 4000.0 4000.0 4000.0 4000.0 4000.0 4000.0 4000.0 4000.0 4000.0 4000.0 4000.0 4000.0 4000.0 4000.0 4000.0 4000.0 4000.0 4000.0 4000.0 4000.0 4000.0 4000.0 4000.0 4000.0 4000.0 4000.0 4000.0 4000.0 4000.0 4000.0 4000.0 4000.0 4000.0 4000.0 4000.0 4000.0 4000.0 4000.0 4000.0 4000.0 4000.0 4000.0 4000.0 4000.0 4000.0 4000.0 4000.0 4000.0 4000.0 4000.0 4000.0 4000.0 4000.0 4000.0 4000.0 4000.0 4000.0 4000.0 4000.0 4000.0 4000.0 4000.0 4000.0 4000.0 4000.0 4000.0 4000.0 4000.0 4000.0 4000.0 4000.0 4000.0 4000.0 4000.0 4000.0 4000.0 4000.0 4000.0 4000.0 4000.0 4000.0 4000.0 4000.0 4000.0 4000.0 4000.0 4000.0 4000.0 4000.0 4000.0 4000.0 4000.0 4000.0 4000.0 4000.0 4000.0 4000.0 4000.0 4000.0 4000.0 4000.0 4000.0 4000.0 4000.0 4000.0 4000.0 4000.0 4000.0 4000.0 4000.0 4000.0 4000.0 4000.0 4000.0 4000.0 4000.0 4000.0 4000.0 4000.0 4000.0 4000.0 4000.0 4000.0 4000.0 4000.0 4000.0 4000.0 4000.0 4000.0 4000.0 4000.0 4000.0 4000.0 4000.0 4000.0 4000.0 4000.0 4000.0 4000.0 4000.0 4000.0 4000.0 4000.0 4000.0 4000.0 4000.0 4000.0 4000.0 4000.0 4000.0 4000.0 4000.0 4000.0 4000.0 4000.0 4000.0 4000.0 4000.0 4000.0 4000.0 4000.0 4000.0 4000.0 4000.0 4000.0 4000.0 4000.0 4000.0 4000.0 4000.0 4000.0 4000.0 4000.0 4000.0 4000.0 4000.0 4000.0 4000.0 4000.0 4000.0 4000.0 4000.0 4000.0 4000.0 4000.0 4000.0 4000.0 4000.0 4000.0 4000.0 4000.0 4000.0 4000.0 4000.0 4000.0 4000.0 4000.0 4000.0 4000.0 4000.0 4000.0 4000.0 4000.0 4000.0 4000.0 4000.0 4000.0 4000.0 4000.0 4000.0 4000.0 4000.0 4000.0 4000.0 4000.0 4000.0 4000.0 4000.0 4000.0 4000.0 4000.0 4000.0 4000.0 4000.0 4000.0 4000.0 4000.0 4000.0 4000.0 4000.0 4000.0 4000.0 4000.0 4000.0 4000.0 4000.0 4000.0 4000.0 4000.0 4000.0 4000.0 4000.0 4000.0 4000.0 4000.0 4000.0 4000.0 4000.0 4000.0 4000.0 4000.0 4000.0 4000.0 4000.0 4000.0 4000.0 4000.0 4000.0 4000.0 4000.0 4000.0 4000.0 4000.0 4000.0 4000.0 4000.0 4000.0 4000.0 4000.0 4000.0 4000.0 4000.0 4000.0 4000.0 4000.0 4000.0 4000.0 4000.0 4000.0 4000.0 4000.0 4000.0 4000.0 4000.0 4000.0 4000.0 4000.0 4000.0 4000.0 4000.0 4000.0 4000.0 4000.0 4000.0 4000.0 4000.0 4000.0 4000.0 4000.0 4000.0 4000.0 4000.0 4000.0 4000.0 4000.0 4000.0 4000.0 4000.0 4000.0 4000.0 4000.0 4000.0 4000.0 4000.0 4000.0 4000.0 4000.0 4000.0 4000.0 4000.0 4000.0 4000.0 4000.0 4000.0 4000.0 4000.0 4000.0 4000.0 4000.0 4000.0 4000.0 4000.0 4000.0 4000.0 4000.0 4000.0 4000.0 4000.0 4000.0 4000.0 4000.0 4000.0 4000.0 4000.0 4000.0 4000.0 4000.0 4000.0 4000.0 4000.0 4000.0 4000.0 4000.0 4000.0 4000.0 4000.0 4000.0 4000.0 4000.0 4000.0 4000.0 4000.0 4000.0 4000.0 4000.0 4000.0 4000.0 4000.0 4000.0 4000.0 4000.0 4000.0 4000.0 4000.0 4000.0 4000.0 4000.0 4000.0 4000.0 4000.0 4000.0 4000.0 4000.0 4000.0 4000.0 4000.0 4000.0 4000.0 4000.0 4000.0 4000.0 4000.0 4000.0 4000.0 4000.0 4000.0 4000.0 4000.0 4000.0 4000.0 4000.0 4000.0 4000.0 4000.0 4000.0 4000.0 4000.0 4000.0 4000.0 4000.0 4000.0 4000.0 4000.0 4000.0 4000.0 4000.0 4000.0 4000.0 4000.0 4000.0 4000.0 4000.0 4000.0 4000.0 4000.0 4000.0 4000.0 4000.0 4000.0 4000.0 4000.0 4000.0 4000.0 4000.0 4000.0 4000.0 4000.0 4000.0 4000.0 4000.0 4000.0 4000.0 4000.0 4000.0 4000.0 4000.0 4000.0 4000.0 4000.0 4000.0 4000.0 4000.0 4000.0 4000.0 4000.0 4000.0 4000.0 4000.0 4000.0 4000.0 4000.0 4000.0 4000.0 4000.0 4000.0 4000.0 4000.0 4000.0 4000.0 4000.0 4000.0 4000.0 4000.0 4000.0 4000.0 4000.0 4000.0 4000.0 4000.0 4000.0 4000.0 4000.0 4000.0 4000.0 4000.0 4000.0 4000.0 4000.0 4000.0 4000.0 4000.0 4000.0 4000.0 4000.0 4000.0 4000.0 4000.0 4000.0 4000.0 4000.0 4000.0 4000.0 4000.0 4000.0 4000.0 4000.0 4000.0 4000.0 4000.0 4000.0 4000.0 4000.0 4000.0 4000.0 4000.0 4000.0 4000.0 4000.0 4000.0 4000.0 4000.0 4000.0 4000.0 4000.0 4000.0 4000.0 4000.0 4000.0 4000.0 4000.0 4000.0 4000.0 4000.0 4000.0 4000.0 4000.0 4000.0 4000.0 4000.0 4000.0 4000.0 4000.0 4000.0 4000.0 4000.0 4000.0 4000.0 4000.0 4000.0 4000.0 4000.0 4000.0 4000.0 4000.0 4000.0 4000.0 4000.0 4000.0 4000.0 4000.0 4000.0 4000.0 4000.0 4000.0 4000.0 4000.0 4000.0 4000.0 4000.0 4000.0 4000.0 4000.0 4000.0 4000.0 4000.0 4000.0 4000.0 4000.0 4000.0 4000.0 4000.0 4000.0 4000.0 4000.0 4000.0 4000.0 4000.0 4000.0 4000.0 4000.0 4000.0 4000.0 4000.0 4000.0 4000.0 4000.0 4000.0 4000.0 4000.0 4000.0 4000.0 4000.0 4000.0 4000.0 4000.0 4000.0 4000.0 4000.0 4000.0 4000.0 4000.0 4000.0 4000.0 4000.0 4000.0 4000.0 4000.0 4000.0 4000.0 4000.0 4000.0 4000.0 4000.0 4000.0 4000.0 4000.0 4000.0 4000.0 4000.0 4000.0 4000.0 4000.0 4000.0 4000.0 4000.0 4000.0 4000.0 4000.0 4000.0 4000.0 4000.0 4000.0 4000.0 4000.0 4000.0 4000.0 4000.0 4000.0 4000.0 4000.0 4000.0 4000.0 4000.0 4000.0 4000.0 4000.0 4000.0 4000.0 4000.0 4000.0 4000.0 4000.0 4000.0 4000.0 4000.0 4000.0 4000.0 4000.0 4000.0 4000.0 4000.0 4000.0 4000.0 4000.0 4000.0 4000.0 4000.0 4000.0 4000.0 4000.0 4000.0 4000.0 4000.0 4000.0 4000.0 4000.0 4000.0 4000.0 4000.0 4000.0 4000.0 4000.0 4000.0 4000.0 4000.0 4000.0 4000.0 4000.0 4000.0 4000.0 4000.0 4000.0 4000.0 4000.0 4000.0 4000.0 4000.0 4000.0 4000.0 4000.0 4000.0 4000.0 4000.0 4000.0 4000.0 4000.0 4000.0 4000.0 4000.0 4000.0 4000.0 4000.0 4000.0 4000.0 4000.0 4000.0 4000.0 4000.0 4000.0 4000.0 4000.0 4000.0 4000.0 4000.0 4000.0 4000.0 4000.0 4000.0 4000.0 4000.0 4000.0 4000.0 4000.0 4000.0 4000.0 4000.0 4000.0 4000.0 4000.0 4000.0 4000.0 4000.0 4000.0 4000.0 4000.0 4000.0 4000.0 4000.0 4000.0 4000.0 4000.0 4000.0 4000.0 4000.0 4000.0 4000.0 4000.0 4000.0 4000.0 4000.0 4000.0 4000.0 4000.0 4000.0 4000.0 4000.0 4000.0 4000.0 4000.0 4000.0 4000.0 4000.0 4000.0 4000.0 4000.0 4000.0 4000.0 4000.0 4000.0 4000.0 4000.0 4000.0 4000.0 4000.0 4000.0 4000.0 4000.0 4000.0 4000.0 4000.0 4000.0 4000.0 4000.0 4000.0 4000.0 4000.0 4000.0 4000.0 4000.0 4000.0 4000.0 4000.0 4000.0 4000.0 4000.0 4000.0 4000.0 4000.0 4000.0 4000.0 4000.0 4000.0 4000.0 4000.0 4000.0 4000.0 4000.0 4000.0 4000.0 4000.0 4000.0 4000.0 4000.0 4000.0 4000.0 4000.0 4000.0 4000.0 4000.0 4000.0 4000.0 4000.0 4000.0 4000.0 4000.0 4000.0 4000.0 4000.0 4000.0 4000.0 4000.0 4000.0 4000.0 4000.0 4000.0 4000.0 4000.0 4000.0 4000.0 4000.0 4000.0 4000.0 4000.0 4000.0 4000.0 4000.0 4000.0 4000.0 4000.0 4000.0 4000.0 4000.0 4000.0 4000.0 4000.0 4000.0 4000.0 4000.0 4000.0 4000.0 4000.0 4000.0 4000.0 4000.0 4000.0 4000.0 4000.0 4000.0 4000.0 4000.0 4000.0 4000.0 4000.0 4000.0 4000.0 4000.0 4000.0 4000.0 4000.0 4000.0 4000.0 4000.0 4000.0 4000.0 4000.0 4000.0 4000.0 4000.0 4000.0 4000.0 4000.0 4000.0 4000.0 4000.0 4000.0 4000.0 4000.0 4000.0 4000.0 4000.0 4000.0 4000.0 4000.0 4000.0 4000.0 4000.0 4000.0 4000.0 4000.0 4000.0 4000.0 4000.0 4000.0 4000.0 4000.0 4000.0 4000.0 4000.0 4000.0 4000.0 4000.0 4000.0 4000.0 4000.0 4000.0 4000.0 4000.0 4000.0 4000.0 4000.0 4000.0 4000.0 4000.0 4000.0 4000.0 4000.0 4000.0 4000.0 4000.0 4000.0 4000.0 4000.0 4000.0 4000.0 4000.0 4000.0 4000.0 4000.0 4000.0 4000.0 4000.0 4000.0 4000.0 4000.0 4000.0 4000.0 4000.0 4000.0 4000.0 4000.0 4000.0 4000.0 4000.0 4000.0 4000.0 4000.0 4000.0 4000.0 4000.0 4000.0 4000.0 4000.0 4000.0 4000.0 4000.0 4000.0 4000.0 4000.0 4000.0 4000.0 4000.0 4000.0 4000.0 4000.0 4000.0 4000.0 4000.0 4000.0 4000.0 4000.0 4000.0 4000.0 4000.0 4000.0 4000.0 4000.0 4000.0 4000.0 4000.0 4000.0 4000.0 4000.0 4000.0 4000.0 4000.0 4000.0 4000.0 4000.0 4000.0 4000.0 4000.0 4000.0 4000.0 4000.0 4000.0 4000.0 4000.0 4000.0 4000.0 4000.0 4000.0 4000.0 4000.0 4000.0 4000.0 4000.0 4000.0 4000.0 4000.0 4000.0 4000.0 4000.0 4000.0 4000.0 4000.0 4000.0 4000.0 4000.0 4000.0 4000.0 4000.0 4000.0 4000.0 4000.0 4000.0 4000.0 4000.0 4000.0 4000.0 4000.0 4000.0 4000.0 4000.0 4000.0 4000.0 4000.0 4000.0 4000.0 4000.0 4000.0 4000.0 4000.0 4000.0 4000.0 4000.0 4000.0 4000.0 4000.0 4000.0 4000.0 4000.0 4000.0 4000.0 4000.0 4000.0 4000.0 4000.0 4000.0 4000.0 4000.0 4000.0 4000.0 4000.0 4000.0 4000.0 4000.0 4000.0 4000.0 4000.0 4000.0 4000.0 4000.0 4000.0 4000.0 4000.0 4000.0 4000.0 4000.0 4000.0 4000.0 4000.0 4000.0 4000.0 4000.0 4000.0 4000.0 4000.0 4000.0 4000.0 4000.0 4000.0 4000.0 4000.0 4000.0 4000.0 4000.0 4000.0 4000.0 4000.0 4000.0 4000.0 4000.0 4000.0 4000.0 4000.0 4000.0 4000.0 4000.0 4000.0 4000.0 4000.0 4000.0 4000.0 4000.0 4000.0 4000.0 4000.0 4000.0 4000.0 4000.0 4000.0 4000.0 4000.0 4000.0 4000.0 4000.0 4000.0 4000.0 4000.0 4000.0 4000.0 4000.0 4000.0 4000.0 4000.0 4000.0 4000.0 4000.0 4000.0 4000.0 4000.0 4000.0 4000.0 4000.0 4000.0 4000.0 4000.0 4000.0 4000.0 4000.0 4000.0 4000.0 4000.0 4000.0 4000.0 4000.0 4000.0 4000.0 4000.0 4000.0 4000.0 4000.0 4000.0 4000.0 4000.0 4000.0 4000.0 4000.0 4000.0 4000.0 4000.0 4000.0 4000.0 4000.0 4000.0 4000.0 4000.0 4000.0 4000.0 4000.0 4000.0 4000.0 4000.0 4000.0 4000.0 4000.0 4000.0 4000.0 4000.0 4000.0 4000.0 4000.0 4000.0 4000.0 4000.0 4000.0 4000.0 4000.0 4000.0 4000.0 4000.0 4000.0 4000.0 4000.0 4000.0 4000.0 4000.0 4000.0 4000.0 4000.0 4000.0 4000.0 4000.0 4000.0 4000.0 4000.0 4000.0 4000.0 4000.0 4000.0 4000.0 4000.0 4000.0 4000.0 4000.0 4000.0 4000.0 4000.0 4000.0 4000.0 4000.0 4000.0 4000.0 4000.0 4000.0 4000.0 4000.0 4000.0 4000.0 4000.0 4000.0 4000.0 4000.0 4000.0 4000.0 4000.0 4000.0 4000.0 4000.0 4000.0 4000.0 4000.0 4000.0 4000.0 4000.0 4000.0 4000.0 4000.0 4000.0 4000.0 4000.0 4000.0 4000.0 4000.0 4000.0 4000.0 4000.0 4000.0 4000.0 4000.0 4000.0 4000.0 4000.0 4000.0 4000.0 4000.0 4000.0 4000.0 4000.0 4000.0 4000.0 4000.0 4000.0 4000.0 4000.0 4000.0 4000.0 4000.0 4000.0 4000.0 4000.0 4000.0 4000.0 4000.0 4000.0 4000.0 4000.0 4000.0 4000.0 4000.0 4000.0 4000.0 4000.0 4000.0 4000.0 4000.0 4000.0 4000.0 4000.0 4000.0 4000.0 4000.0 4000.0 4000.0 4000.0 4000.0 4000.0 4000.0 4000.0 4000.0 4000.0 4000.0 4000.0 4000.0 4000.0 4000.0 4000.0 4000.0 4000.0 4000.0 4000.0 4000.0 4000.0 4000.0 4000.0 4000.0 4000.0 4000.0 4000.0 4000.0 4000.0 4000.0 4000.0 4000.0 4000.0 4000.0 4000.0 4000.0 4000.0 4000.0 4000.0 4000.0 4000.0 4000.0 4000.0 4000.0 4000.0 4000.0 4000.0 4000.0 4000.0 4000.0 4000.0 4000.0 4000.0 4000.0 4000.0 4000.0 4000.0 4000.0 4000.0 4000.0 4000.0 4000.0 4000.0 4000.0 4000.0 4000.0 4000.0 4000.0 4000.0 4000.0 4000.0 4000.0 4000.0 4000.0 4000.0 4000.0 4000.0 4000.0 4000.0 4000.0 4000.0 4000.0 4000.0 4000.0 4000.0 4000.0 4000.0 4000.0 4000.0 4000.0 4000.0 4000.0 4000.0 4000.0 4000.0 4000.0 4000.0 4000.0 4000.0 4000.0 4000.0 4000.0 4000.0 4000.0 4000.0 4000.0 4000.0 4000.0 4000.0 4000.0 4000.0 4000.0 4000.0 4000.0 4000.0 4000.0 4000.0 4000.0 4000.0 4000.0 4000.0 4000.0 4000.0 4000.0 4000.0 4000.0 4000.0 4000.0 4000.0 4000.0 4000.0 4000.0 4000.0 4000.0 4000.0 4000.0 4000.0 4000.0 4000.0 4000.0 4000.0 4000.0 4000.0 4000.0 4000.0 4000.0 4000.0 4000.0 4000.0 4000.0 4000.0 4000.0 4000.0 4000.0 4000.0 4000.0 4000.0 4000.0 4000.0 4000.0 4000.0 4000.0 4000.0 4000.0 4000.0 4000.0 4000.0 4000.0 4000.0 4000.0 4000.0 4000.0 4000.0 4000.0 4000.0 4000.0 4000.0 4000.0 4000.0 4000.0 4000.0 4000.0 4000.0 4000.0 4000.0 4000.0 4000.0 4000.0 4000.0 4000.0 4000.0 4000.0 4000.0 4000.0 4000.0 4000.0 4000.0 4000.0 4000.0 4000.0 4000.0 4000.0 4000.0 4000.0 4000.0 4000.0 4000.0 4000.0 4000.0 4000.0 4000.0 4000.0 4000.0 4000.0 4000.0 4000.0 4000.0 4000.0 4000.0 4000.0 4000.0 4000.0 4000.0 4000.0 4000.0 4000.0 4000.0 4000.0 4000.0 4000.0 4000.0 4000.0 4000.0 4000.0 4000.0 4000.0 4000.0 4000.0 4000.0 4000.0 4000.0 4000.0 4000.0 4000.0 4000.0 4000.0 4000.0 4000.0 4000.0 4000.0 4000.0 4000.0 4000.0 4000.0 4000.0 4000.0 4000.0 4000.0 4000.0 4000.0 4000.0 4000.0 4000.0 4000.0 4000.0 4000.0 4000.0 4000.0 4000.0 4000.0 4000.0 4000.0 4000.0 4000.0 4000.0 4000.0 4000.0 4000.0 4000.0 4000.0 4000.0 4000.0 4000.0 4000.0 4000.0 4000.0 4000.0 4000.0 4000.0 4000.0 4000.0 4000.0 4000.0 4000.0 4000.0 4000.0 4000.0 4000.0 4000.0 4000.0 4000.0 4000.0 4000.0 4000.0 4000.0 4000.0 4000.0 4000.0 4000.0 4000.0 4000.0 4000.0 4000.0 4000.0 4000.0 4000.0 4000.0 4000.0 4000.0 4000.0 4000.0 4000.0 4000.0 4000.0 4000.0 4000.0 4000.0 4000.0 4000.0 4000.0 4000.0 4000.0 4000.0 4000.0 4000.0 4000.0 4000.0 4000.0 4000.0 4000.0 4000.0 4000.0 4000.0 4000.0 4000.0 4000.0 4000.0 4000.0 4000.0 4000.0 4000.0 4000.0 4000.0 4000.0 4000.0 4000.0 4000.0 4000.0 4000.0 4000.0 4000.0 4000.0 4000.0 4000.0 4000.0 4000.0 4000.0 4000.0 4000.0 4000.0 4000.0 4000.0 4000.0 4000.0 4000.0 4000.0 4000.0 4000.0 4000.0 4000.0 4000.0 4000.0 4000.0 4000.0 4000.0 4000.0 4000.0 4000.0 4000.0 4000.0 4000.0 4000.0 4000.0 4000.0 4000.0 4000.0 4000.0 4000.0 4000.0 4000.0 4000.0 4000.0 4000.0 4000.0 4000.0 4000.0 4000.0 4000.0 4000.0 4000.0 4000.0 4000.0 4000.0 4000.0 4000.0 4000.0 4000.0 4000.0 4000.0 4000.0 4000.0 4000.0 4000.0 4000.0 4000.0 4000.0 4000.0 4000.0 4000.0 4000.0 4000.0 4000.0 4000.0 4000.0 4000.0 4000.0 4000.0 4000.0 4000.0 4000.0 4000.0 4000.0 4000.0 4000.0 4000.0 4000.0 4000.0 4000.0 4000.0 4000.0 4000.0 4000.0 4000.0 4000.0 4000.0 4000.0 4000.0 4000.0 SCALARS Mass float 1
LOOKUP_TABLE default
11309700000.0 11309700000.0 11309700000.0 11309700000.0 11309700000.0 11309700000.0 11309700000.0 11309700000.0 11309700000.0 11309700000.0 11309700000.0 11309700000.0 11309700000.0 11309700000.0 11309700000.0 11309700000.0 11309700000.0 11309700000.0 11309700000.0 11309700000.0 11309700000.0 11309700000.0 11309700000.0 11309700000.0 11309700000.0 11309700000.0 11309700000.0 11309700000.0 11309700000.0 11309700000.0 11309700000.0 11309700000.0 11309700000.0 11309700000.0 11309700000.0 11309700000.0 11309700000.0 11309700000.0 11309700000.0 11309700000.0 11309700000.0 11309700000.0 11309700000.0 11309700000.0 11309700000.0 11309700000.0 11309700000.0 11309700000.0 11309700000.0 11309700000.0 11309700000.0 11309700000.0 11309700000.0 11309700000.0 11309700000.0 11309700000.0 11309700000.0 11309700000.0 11309700000.0 11309700000.0 11309700000.0 11309700000.0 11309700000.0 11309700000.0 11309700000.0 11309700000.0 11309700000.0 11309700000.0 11309700000.0 11309700000.0 11309700000.0 11309700000.0 11309700000.0 11309700000.0 11309700000.0 11309700000.0 11309700000.0 11309700000.0 11309700000.0 11309700000.0 11309700000.0 11309700000.0 11309700000.0 11309700000.0 11309700000.0 11309700000.0 11309700000.0 11309700000.0 11309700000.0 11309700000.0 11309700000.0 11309700000.0 11309700000.0 11309700000.0 11309700000.0 11309700000.0 11309700000.0 11309700000.0 11309700000.0 11309700000.0 11309700000.0 11309700000.0 11309700000.0 11309700000.0 11309700000.0 11309700000.0 11309700000.0 11309700000.0 11309700000.0 11309700000.0 11309700000.0 11309700000.0 11309700000.0 11309700000.0 11309700000.0 11309700000.0 11309700000.0 11309700000.0 11309700000.0 11309700000.0 11309700000.0 11309700000.0 11309700000.0 11309700000.0 11309700000.0 11309700000.0 11309700000.0 11309700000.0 11309700000.0 11309700000.0 11309700000.0 11309700000.0 11309700000.0 11309700000.0 11309700000.0 11309700000.0 11309700000.0 11309700000.0 11309700000.0 11309700000.0 11309700000.0 11309700000.0 11309700000.0 11309700000.0 11309700000.0 11309700000.0 11309700000.0 11309700000.0 11309700000.0 11309700000.0 11309700000.0 11309700000.0 11309700000.0 11309700000.0 11309700000.0 11309700000.0 11309700000.0 11309700000.0 11309700000.0 11309700000.0 11309700000.0 11309700000.0 11309700000.0 11309700000.0 11309700000.0 11309700000.0 11309700000.0 11309700000.0 11309700000.0 11309700000.0 11309700000.0 11309700000.0 11309700000.0 11309700000.0 11309700000.0 11309700000.0 11309700000.0 11309700000.0 11309700000.0 11309700000.0 11309700000.0 11309700000.0 11309700000.0 11309700000.0 11309700000.0 11309700000.0 11309700000.0 11309700000.0 11309700000.0 11309700000.0 11309700000.0 11309700000.0 11309700000.0 11309700000.0 11309700000.0 11309700000.0 11309700000.0 11309700000.0 11309700000.0 11309700000.0 11309700000.0 11309700000.0 11309700000.0 11309700000.0 11309700000.0 11309700000.0 11309700000.0 11309700000.0 11309700000.0 11309700000.0 11309700000.0 11309700000.0 11309700000.0 11309700000.0 11309700000.0 11309700000.0 11309700000.0 11309700000.0 11309700000.0 11309700000.0 11309700000.0 11309700000.0 11309700000.0 11309700000.0 11309700000.0 11309700000.0 11309700000.0 11309700000.0 11309700000.0 11309700000.0 11309700000.0 11309700000.0 11309700000.0 11309700000.0 11309700000.0 11309700000.0 11309700000.0 11309700000.0 11309700000.0 11309700000.0 11309700000.0 11309700000.0 11309700000.0 11309700000.0 11309700000.0 11309700000.0 11309700000.0 11309700000.0 11309700000.0 11309700000.0 11309700000.0 11309700000.0 11309700000.0 11309700000.0 11309700000.0 11309700000.0 11309700000.0 11309700000.0 11309700000.0 11309700000.0 11309700000.0 11309700000.0 11309700000.0 11309700000.0 11309700000.0 11309700000.0 11309700000.0 11309700000.0 11309700000.0 11309700000.0 11309700000.0 11309700000.0 11309700000.0 11309700000.0 11309700000.0 11309700000.0 11309700000.0 11309700000.0 11309700000.0 11309700000.0 11309700000.0 11309700000.0 11309700000.0 11309700000.0 11309700000.0 11309700000.0 11309700000.0 11309700000.0 11309700000.0 11309700000.0 11309700000.0 11309700000.0 11309700000.0 11309700000.0 11309700000.0 11309700000.0 11309700000.0 11309700000.0 11309700000.0 11309700000.0 11309700000.0 11309700000.0 11309700000.0 11309700000.0 11309700000.0 11309700000.0 11309700000.0 11309700000.0 11309700000.0 11309700000.0 11309700000.0 11309700000.0 11309700000.0 11309700000.0 11309700000.0 11309700000.0 11309700000.0 11309700000.0 11309700000.0 11309700000.0 11309700000.0 11309700000.0 11309700000.0 11309700000.0 11309700000.0 11309700000.0 11309700000.0 11309700000.0 11309700000.0 11309700000.0 11309700000.0 11309700000.0 11309700000.0 11309700000.0 11309700000.0 11309700000.0 11309700000.0 11309700000.0 11309700000.0 11309700000.0 11309700000.0 11309700000.0 11309700000.0 11309700000.0 11309700000.0 11309700000.0 11309700000.0 11309700000.0 11309700000.0 11309700000.0 11309700000.0 11309700000.0 11309700000.0 11309700000.0 11309700000.0 11309700000.0 11309700000.0 11309700000.0 11309700000.0 11309700000.0 11309700000.0 11309700000.0 11309700000.0 11309700000.0 11309700000.0 11309700000.0 11309700000.0 11309700000.0 11309700000.0 11309700000.0 11309700000.0 11309700000.0 11309700000.0 11309700000.0 11309700000.0 11309700000.0 11309700000.0 11309700000.0 11309700000.0 11309700000.0 11309700000.0 11309700000.0 11309700000.0 11309700000.0 11309700000.0 11309700000.0 11309700000.0 11309700000.0 11309700000.0 11309700000.0 11309700000.0 11309700000.0 11309700000.0 11309700000.0 11309700000.0 11309700000.0 11309700000.0 11309700000.0 11309700000.0 11309700000.0 11309700000.0 11309700000.0 11309700000.0 11309700000.0 11309700000.0 11309700000.0 11309700000.0 11309700000.0 11309700000.0 11309700000.0 11309700000.0 11309700000.0 11309700000.0 11309700000.0 11309700000.0 11309700000.0 11309700000.0 11309700000.0 11309700000.0 11309700000.0 11309700000.0 11309700000.0 11309700000.0 11309700000.0 11309700000.0 11309700000.0 11309700000.0 11309700000.0 11309700000.0 11309700000.0 11309700000.0 11309700000.0 11309700000.0 11309700000.0 11309700000.0 11309700000.0 11309700000.0 11309700000.0 11309700000.0 11309700000.0 11309700000.0 11309700000.0 11309700000.0 11309700000.0 11309700000.0 11309700000.0 11309700000.0 11309700000.0 11309700000.0 11309700000.0 11309700000.0 11309700000.0 11309700000.0 11309700000.0 11309700000.0 11309700000.0 11309700000.0 11309700000.0 11309700000.0 11309700000.0 11309700000.0 11309700000.0 11309700000.0 11309700000.0 11309700000.0 11309700000.0 11309700000.0 11309700000.0 11309700000.0 11309700000.0 11309700000.0 11309700000.0 11309700000.0 11309700000.0 11309700000.0 11309700000.0 11309700000.0 11309700000.0 11309700000.0 11309700000.0 11309700000.0 11309700000.0 11309700000.0 11309700000.0 11309700000.0 11309700000.0 11309700000.0 11309700000.0 11309700000.0 11309700000.0 11309700000.0 11309700000.0 11309700000.0 11309700000.0 11309700000.0 11309700000.0 11309700000.0 11309700000.0 11309700000.0 11309700000.0 11309700000.0 11309700000.0 11309700000.0 11309700000.0 11309700000.0 11309700000.0 11309700000.0 11309700000.0 11309700000.0 11309700000.0 11309700000.0 11309700000.0 11309700000.0 11309700000.0 11309700000.0 11309700000.0 11309700000.0 11309700000.0 11309700000.0 11309700000.0 11309700000.0 11309700000.0 11309700000.0 11309700000.0 11309700000.0 11309700000.0 11309700000.0 11309700000.0 11309700000.0 11309700000.0 11309700000.0 11309700000.0 11309700000.0 11309700000.0 11309700000.0 11309700000.0 11309700000.0 11309700000.0 11309700000.0 11309700000.0 11309700000.0 11309700000.0 11309700000.0 11309700000.0 11309700000.0 11309700000.0 11309700000.0 11309700000.0 11309700000.0 11309700000.0 11309700000.0 11309700000.0 11309700000.0 11309700000.0 11309700000.0 11309700000.0 11309700000.0 11309700000.0 11309700000.0 11309700000.0 11309700000.0 11309700000.0 11309700000.0 11309700000.0 11309700000.0 11309700000.0 11309700000.0 11309700000.0 11309700000.0 11309700000.0 11309700000.0 11309700000.0 11309700000.0 11309700000.0 11309700000.0 11309700000.0 11309700000.0 11309700000.0 11309700000.0 11309700000.0 11309700000.0 11309700000.0 11309700000.0 11309700000.0 11309700000.0 11309700000.0 11309700000.0 11309700000.0 11309700000.0 11309700000.0 11309700000.0 11309700000.0 11309700000.0 11309700000.0 11309700000.0 11309700000.0 11309700000.0 11309700000.0 11309700000.0 11309700000.0 11309700000.0 11309700000.0 11309700000.0 11309700000.0 11309700000.0 11309700000.0 11309700000.0 11309700000.0 11309700000.0 11309700000.0 11309700000.0 11309700000.0 11309700000.0 11309700000.0 11309700000.0 11309700000.0 11309700000.0 11309700000.0 11309700000.0 11309700000.0 11309700000.0 11309700000.0 11309700000.0 11309700000.0 11309700000.0 11309700000.0 11309700000.0 11309700000.0 11309700000.0 11309700000.0 11309700000.0 11309700000.0 11309700000.0 11309700000.0 11309700000.0 11309700000.0 11309700000.0 11309700000.0 11309700000.0 11309700000.0 11309700000.0 11309700000.0 11309700000.0 11309700000.0 11309700000.0 11309700000.0 11309700000.0 11309700000.0 11309700000.0 11309700000.0 11309700000.0 11309700000.0 11309700000.0 11309700000.0 11309700000.0 11309700000.0 11309700000.0 11309700000.0 11309700000.0 11309700000.0 11309700000.0 11309700000.0 11309700000.0 11309700000.0 11309700000.0 11309700000.0 11309700000.0 11309700000.0 11309700000.0 11309700000.0 11309700000.0 11309700000.0 11309700000.0 11309700000.0 11309700000.0 11309700000.0 11309700000.0 11309700000.0 11309700000.0 11309700000.0 11309700000.0 11309700000.0 11309700000.0 11309700000.0 11309700000.0 11309700000.0 11309700000.0 11309700000.0 11309700000.0 11309700000.0 11309700000.0 11309700000.0 11309700000.0 11309700000.0 11309700000.0 11309700000.0 11309700000.0 11309700000.0 11309700000.0 11309700000.0 11309700000.0 11309700000.0 11309700000.0 11309700000.0 11309700000.0 11309700000.0 11309700000.0 11309700000.0 11309700000.0 11309700000.0 11309700000.0 11309700000.0 11309700000.0 11309700000.0 11309700000.0 11309700000.0 11309700000.0 11309700000.0 11309700000.0 11309700000.0 11309700000.0 11309700000.0 11309700000.0 11309700000.0 11309700000.0 11309700000.0 11309700000.0 11309700000.0 11309700000.0 11309700000.0 11309700000.0 11309700000.0 11309700000.0 11309700000.0 11309700000.0 11309700000.0 11309700000.0 11309700000.0 11309700000.0 11309700000.0 11309700000.0 11309700000.0 11309700000.0 11309700000.0 11309700000.0 11309700000.0 11309700000.0 11309700000.0 11309700000.0 11309700000.0 11309700000.0 11309700000.0 11309700000.0 11309700000.0 11309700000.0 11309700000.0 11309700000.0 11309700000.0 11309700000.0 11309700000.0 11309700000.0 11309700000.0 11309700000.0 11309700000.0 11309700000.0 11309700000.0 11309700000.0 11309700000.0 11309700000.0 11309700000.0 11309700000.0 11309700000.0 11309700000.0 11309700000.0 11309700000.0 11309700000.0 11309700000.0 11309700000.0 11309700000.0 11309700000.0 11309700000.0 11309700000.0 11309700000.0 11309700000.0 11309700000.0 11309700000.0 11309700000.0 11309700000.0 11309700000.0 11309700000.0 11309700000.0 11309700000.0 11309700000.0 11309700000.0 11309700000.0 11309700000.0 11309700000.0 11309700000.0 11309700000.0 11309700000.0 11309700000.0 11309700000.0 11309700000.0 11309700000.0 11309700000.0 11309700000.0 11309700000.0 11309700000.0 11309700000.0 11309700000.0 11309700000.0 11309700000.0 11309700000.0 11309700000.0 11309700000.0 11309700000.0 11309700000.0 11309700000.0 11309700000.0 11309700000.0 11309700000.0 11309700000.0 11309700000.0 11309700000.0 11309700000.0 11309700000.0 11309700000.0 11309700000.0 11309700000.0 11309700000.0 11309700000.0 11309700000.0 11309700000.0 11309700000.0 11309700000.0 11309700000.0 11309700000.0 11309700000.0 11309700000.0 11309700000.0 11309700000.0 11309700000.0 11309700000.0 11309700000.0 11309700000.0 11309700000.0 11309700000.0 11309700000.0 11309700000.0 11309700000.0 11309700000.0 11309700000.0 11309700000.0 11309700000.0 11309700000.0 11309700000.0 11309700000.0 11309700000.0 11309700000.0 11309700000.0 11309700000.0 11309700000.0 11309700000.0 11309700000.0 11309700000.0 11309700000.0 11309700000.0 11309700000.0 11309700000.0 11309700000.0 11309700000.0 11309700000.0 11309700000.0 11309700000.0 11309700000.0 11309700000.0 11309700000.0 11309700000.0 11309700000.0 11309700000.0 11309700000.0 11309700000.0 11309700000.0 11309700000.0 11309700000.0 11309700000.0 11309700000.0 11309700000.0 11309700000.0 11309700000.0 11309700000.0 11309700000.0 11309700000.0 11309700000.0 11309700000.0 11309700000.0 11309700000.0 11309700000.0 11309700000.0 11309700000.0 11309700000.0 11309700000.0 11309700000.0 11309700000.0 11309700000.0 11309700000.0 11309700000.0 11309700000.0 11309700000.0 11309700000.0 11309700000.0 11309700000.0 11309700000.0 11309700000.0 11309700000.0 11309700000.0 11309700000.0 11309700000.0 11309700000.0 11309700000.0 11309700000.0 11309700000.0 11309700000.0 11309700000.0 11309700000.0 11309700000.0 11309700000.0 11309700000.0 11309700000.0 11309700000.0 11309700000.0 11309700000.0 11309700000.0 11309700000.0 11309700000.0 11309700000.0 11309700000.0 11309700000.0 11309700000.0 11309700000.0 11309700000.0 11309700000.0 11309700000.0 11309700000.0 11309700000.0 11309700000.0 11309700000.0 11309700000.0 11309700000.0 11309700000.0 11309700000.0 11309700000.0 11309700000.0 11309700000.0 11309700000.0 11309700000.0 11309700000.0 11309700000.0 11309700000.0 11309700000.0 11309700000.0 11309700000.0 11309700000.0 11309700000.0 11309700000.0 11309700000.0 11309700000.0 11309700000.0 11309700000.0 11309700000.0 11309700000.0 11309700000.0 11309700000.0 11309700000.0 11309700000.0 11309700000.0 11309700000.0 11309700000.0 11309700000.0 11309700000.0 11309700000.0 11309700000.0 11309700000.0 11309700000.0 11309700000.0 11309700000.0 11309700000.0 11309700000.0 11309700000.0 11309700000.0 11309700000.0 11309700000.0 11309700000.0 11309700000.0 11309700000.0 11309700000.0 11309700000.0 11309700000.0 11309700000.0 11309700000.0 11309700000.0 11309700000.0 11309700000.0 11309700000.0 11309700000.0 11309700000.0 11309700000.0 11309700000.0 11309700000.0 11309700000.0 11309700000.0 11309700000.0 11309700000.0 11309700000.0 11309700000.0 11309700000.0 11309700000.0 11309700000.0 11309700000.0 11309700000.0 11309700000.0 11309700000.0 11309700000.0 11309700000.0 11309700000.0 11309700000.0 11309700000.0 11309700000.0 11309700000.0 11309700000.0 11309700000.0 11309700000.0 11309700000.0 11309700000.0 11309700000.0 11309700000.0 11309700000.0 11309700000.0 11309700000.0 11309700000.0 11309700000.0 11309700000.0 11309700000.0 11309700000.0 11309700000.0 11309700000.0 11309700000.0 11309700000.0 11309700000.0 11309700000.0 11309700000.0 11309700000.0 11309700000.0 11309700000.0 11309700000.0 11309700000.0 11309700000.0 11309700000.0 11309700000.0 11309700000.0 11309700000.0 11309700000.0 11309700000.0 11309700000.0 11309700000.0 11309700000.0 11309700000.0 11309700000.0 11309700000.0 11309700000.0 11309700000.0 11309700000.0 11309700000.0 11309700000.0 11309700000.0 11309700000.0 11309700000.0 11309700000.0 11309700000.0 11309700000.0 11309700000.0 11309700000.0 11309700000.0 11309700000.0 11309700000.0 11309700000.0 11309700000.0 11309700000.0 11309700000.0 11309700000.0 11309700000.0 11309700000.0 11309700000.0 11309700000.0 11309700000.0 11309700000.0 11309700000.0 11309700000.0 11309700000.0 11309700000.0 11309700000.0 11309700000.0 11309700000.0 11309700000.0 11309700000.0 11309700000.0 11309700000.0 11309700000.0 11309700000.0 11309700000.0 11309700000.0 11309700000.0 11309700000.0 11309700000.0 11309700000.0 11309700000.0 11309700000.0 11309700000.0 11309700000.0 11309700000.0 11309700000.0 11309700000.0 11309700000.0 11309700000.0 11309700000.0 11309700000.0 11309700000.0 11309700000.0 11309700000.0 11309700000.0 11309700000.0 11309700000.0 11309700000.0 11309700000.0 11309700000.0 11309700000.0 11309700000.0 11309700000.0 11309700000.0 11309700000.0 11309700000.0 11309700000.0 11309700000.0 11309700000.0 11309700000.0 11309700000.0 11309700000.0 11309700000.0 11309700000.0 11309700000.0 11309700000.0 11309700000.0 11309700000.0 11309700000.0 11309700000.0 11309700000.0 11309700000.0 11309700000.0 11309700000.0 11309700000.0 11309700000.0 11309700000.0 11309700000.0 11309700000.0 11309700000.0 11309700000.0 11309700000.0 11309700000.0 11309700000.0 11309700000.0 11309700000.0 11309700000.0 11309700000.0 11309700000.0 11309700000.0 11309700000.0 11309700000.0 11309700000.0 11309700000.0 11309700000.0 11309700000.0 11309700000.0 11309700000.0 11309700000.0 11309700000.0 11309700000.0 11309700000.0 11309700000.0 11309700000.0 11309700000.0 11309700000.0 11309700000.0 11309700000.0 11309700000.0 11309700000.0 11309700000.0 11309700000.0 11309700000.0 11309700000.0 11309700000.0 11309700000.0 11309700000.0 11309700000.0 11309700000.0 11309700000.0 11309700000.0 11309700000.0 11309700000.0 11309700000.0 11309700000.0 11309700000.0 11309700000.0 11309700000.0 11309700000.0 11309700000.0 11309700000.0 11309700000.0 11309700000.0 11309700000.0 11309700000.0 11309700000.0 11309700000.0 11309700000.0 11309700000.0 11309700000.0 11309700000.0 11309700000.0 11309700000.0 11309700000.0 11309700000.0 11309700000.0 11309700000.0 11309700000.0 11309700000.0 11309700000.0 11309700000.0 11309700000.0 11309700000.0 11309700000.0 11309700000.0 11309700000.0 11309700000.0 11309700000.0 11309700000.0 11309700000.0 11309700000.0 11309700000.0 11309700000.0 11309700000.0 11309700000.0 11309700000.0 11309700000.0 11309700000.0 11309700000.0 11309700000.0 11309700000.0 11309700000.0 11309700000.0 11309700000.0 11309700000.0 11309700000.0 11309700000.0 11309700000.0 11309700000.0 11309700000.0 11309700000.0 11309700000.0 11309700000.0 11309700000.0 11309700000.0 11309700000.0 11309700000.0 11309700000.0 11309700000.0 11309700000.0 11309700000.0 11309700000.0 11309700000.0 11309700000.0 11309700000.0 11309700000.0 11309700000.0 11309700000.0 11309700000.0 11309700000.0 11309700000.0 11309700000.0 11309700000.0 11309700000.0 11309700000.0 11309700000.0 11309700000.0 11309700000.0 11309700000.0 11309700000.0 11309700000.0 11309700000.0 11309700000.0 11309700000.0 11309700000.0 11309700000.0 11309700000.0 11309700000.0 11309700000.0 11309700000.0 11309700000.0 11309700000.0 11309700000.0 11309700000.0 11309700000.0 11309700000.0 11309700000.0 11309700000.0 11309700000.0 11309700000.0 11309700000.0 11309700000.0 11309700000.0 11309700000.0 11309700000.0 11309700000.0 11309700000.0 11309700000.0 11309700000.0 11309700000.0 11309700000.0 11309700000.0 11309700000.0 11309700000.0 11309700000.0 11309700000.0 11309700000.0 11309700000.0 11309700000.0 11309700000.0 11309700000.0 11309700000.0 11309700000.0 11309700000.0 11309700000.0 11309700000.0 11309700000.0 11309700000.0 11309700000.0 11309700000.0 11309700000.0 11309700000.0 11309700000.0 11309700000.0 11309700000.0 11309700000.0 11309700000.0 11309700000.0 11309700000.0 11309700000.0 11309700000.0 11309700000.0 11309700000.0 11309700000.0 11309700000.0 11309700000.0 11309700000.0 11309700000.0 11309700000.0 11309700000.0 11309700000.0 11309700000.0 11309700000.0 11309700000.0 11309700000.0 11309700000.0 11309700000.0 11309700000.0 11309700000.0 11309700000.0 11309700000.0 11309700000.0 11309700000.0 11309700000.0 11309700000.0 11309700000.0 11309700000.0 11309700000.0 11309700000.0 11309700000.0 11309700000.0 11309700000.0 11309700000.0 11309700000.0 11309700000.0 11309700000.0 11309700000.0 11309700000.0 11309700000.0 11309700000.0 11309700000.0 11309700000.0 11309700000.0 11309700000.0 11309700000.0 11309700000.0 11309700000.0 11309700000.0 11309700000.0 11309700000.0 11309700000.0 11309700000.0 11309700000.0 11309700000.0 11309700000.0 11309700000.0 11309700000.0 11309700000.0 11309700000.0 11309700000.0 11309700000.0 11309700000.0 11309700000.0 11309700000.0 11309700000.0 11309700000.0 11309700000.0 11309700000.0 11309700000.0 11309700000.0 11309700000.0 11309700000.0 11309700000.0 11309700000.0 11309700000.0 11309700000.0 11309700000.0 11309700000.0 11309700000.0 11309700000.0 11309700000.0 11309700000.0 11309700000.0 11309700000.0 11309700000.0 11309700000.0 11309700000.0 11309700000.0 11309700000.0 11309700000.0 11309700000.0 11309700000.0 11309700000.0 11309700000.0 11309700000.0 11309700000.0 11309700000.0 11309700000.0 11309700000.0 11309700000.0 11309700000.0 11309700000.0 11309700000.0 11309700000.0 11309700000.0 11309700000.0 11309700000.0 11309700000.0 11309700000.0 11309700000.0 11309700000.0 11309700000.0 11309700000.0 11309700000.0 11309700000.0 11309700000.0 11309700000.0 11309700000.0 11309700000.0 11309700000.0 11309700000.0 11309700000.0 11309700000.0 11309700000.0 11309700000.0 11309700000.0 11309700000.0 11309700000.0 11309700000.0 11309700000.0 11309700000.0 11309700000.0 11309700000.0 11309700000.0 11309700000.0 11309700000.0 11309700000.0 11309700000.0 11309700000.0 11309700000.0 11309700000.0 11309700000.0 11309700000.0 11309700000.0 11309700000.0 11309700000.0 11309700000.0 11309700000.0 11309700000.0 11309700000.0 11309700000.0 11309700000.0 11309700000.0 11309700000.0 11309700000.0 11309700000.0 11309700000.0 11309700000.0 11309700000.0 11309700000.0 11309700000.0 11309700000.0 11309700000.0 11309700000.0 11309700000.0 11309700000.0 11309700000.0 11309700000.0 11309700000.0 11309700000.0 11309700000.0 11309700000.0 11309700000.0 11309700000.0 11309700000.0 11309700000.0 11309700000.0 11309700000.0 11309700000.0 11309700000.0 11309700000.0 11309700000.0 11309700000.0 11309700000.0 11309700000.0 11309700000.0 11309700000.0 11309700000.0 11309700000.0 11309700000.0 11309700000.0 11309700000.0 11309700000.0 11309700000.0 11309700000.0 11309700000.0 11309700000.0 11309700000.0 11309700000.0 11309700000.0 11309700000.0 11309700000.0 11309700000.0 11309700000.0 11309700000.0 11309700000.0 11309700000.0 11309700000.0 11309700000.0 11309700000.0 11309700000.0 11309700000.0 11309700000.0 11309700000.0 11309700000.0 11309700000.0 11309700000.0 11309700000.0 11309700000.0 11309700000.0 11309700000.0 11309700000.0 11309700000.0 11309700000.0 11309700000.0 11309700000.0 11309700000.0 11309700000.0 11309700000.0 11309700000.0 11309700000.0 11309700000.0 11309700000.0 11309700000.0 11309700000.0 11309700000.0 11309700000.0 11309700000.0 11309700000.0 11309700000.0 11309700000.0 11309700000.0 11309700000.0 11309700000.0 11309700000.0 11309700000.0 11309700000.0 11309700000.0 11309700000.0 11309700000.0 11309700000.0 11309700000.0 11309700000.0 11309700000.0 11309700000.0 11309700000.0 11309700000.0 11309700000.0 11309700000.0 11309700000.0 11309700000.0 11309700000.0 11309700000.0 11309700000.0 11309700000.0 11309700000.0 11309700000.0 11309700000.0 11309700000.0 11309700000.0 11309700000.0 11309700000.0 11309700000.0 11309700000.0 11309700000.0 11309700000.0 11309700000.0 11309700000.0 11309700000.0 11309700000.0 11309700000.0 11309700000.0 11309700000.0 11309700000.0 11309700000.0 11309700000.0 11309700000.0 11309700000.0 11309700000.0 11309700000.0 11309700000.0 11309700000.0 11309700000.0 11309700000.0 11309700000.0 11309700000.0 11309700000.0 11309700000.0 11309700000.0 11309700000.0 11309700000.0 11309700000.0 11309700000.0 11309700000.0 11309700000.0 11309700000.0 11309700000.0 11309700000.0 11309700000.0 11309700000.0 11309700000.0 11309700000.0 11309700000.0 11309700000.0 11309700000.0 11309700000.0 11309700000.0 11309700000.0 11309700000.0 11309700000.0 11309700000.0 11309700000.0 11309700000.0 11309700000.0 11309700000.0 11309700000.0 11309700000.0 11309700000.0 11309700000.0 11309700000.0 11309700000.0 11309700000.0 11309700000.0 11309700000.0 11309700000.0 11309700000.0 11309700000.0 11309700000.0 11309700000.0 11309700000.0 11309700000.0 11309700000.0 11309700000.0 11309700000.0 11309700000.0 11309700000.0 11309700000.0 11309700000.0 11309700000.0 11309700000.0 11309700000.0 11309700000.0 11309700000.0 11309700000.0 11309700000.0 11309700000.0 11309700000.0 11309700000.0 11309700000.0 11309700000.0 11309700000.0 11309700000.0 11309700000.0 11309700000.0 11309700000.0 11309700000.0 11309700000.0 11309700000.0 11309700000.0 11309700000.0 11309700000.0 11309700000.0 11309700000.0 11309700000.0 11309700000.0 11309700000.0 11309700000.0 11309700000.0 11309700000.0 11309700000.0 11309700000.0 11309700000.0 11309700000.0 11309700000.0 11309700000.0 11309700000.0 11309700000.0 11309700000.0 11309700000.0 11309700000.0 11309700000.0 11309700000.0 11309700000.0 11309700000.0 11309700000.0 11309700000.0 11309700000.0 11309700000.0 11309700000.0 11309700000.0 11309700000.0 11309700000.0 11309700000.0 11309700000.0 11309700000.0 11309700000.0 11309700000.0 11309700000.0 11309700000.0 11309700000.0 11309700000.0 11309700000.0 11309700000.0 11309700000.0 11309700000.0 11309700000.0 11309700000.0 11309700000.0 11309700000.0 11309700000.0 11309700000.0 11309700000.0 11309700000.0 11309700000.0 11309700000.0 11309700000.0 11309700000.0 11309700000.0 11309700000.0 11309700000.0 11309700000.0 11309700000.0 11309700000.0 11309700000.0 11309700000.0 11309700000.0 11309700000.0 11309700000.0 11309700000.0 11309700000.0 11309700000.0 11309700000.0 11309700000.0 11309700000.0 11309700000.0 11309700000.0 11309700000.0 11309700000.0 11309700000.0 11309700000.0 11309700000.0 11309700000.0 11309700000.0 11309700000.0 11309700000.0 11309700000.0 11309700000.0 11309700000.0 11309700000.0 11309700000.0 11309700000.0 11309700000.0 11309700000.0 11309700000.0 11309700000.0 11309700000.0 11309700000.0 11309700000.0 11309700000.0 11309700000.0 11309700000.0 11309700000.0 11309700000.0 11309700000.0 11309700000.0 11309700000.0 11309700000.0 11309700000.0 11309700000.0 11309700000.0 11309700000.0 11309700000.0 11309700000.0 11309700000.0 11309700000.0 11309700000.0 11309700000.0 11309700000.0 11309700000.0 11309700000.0 11309700000.0 11309700000.0 11309700000.0 11309700000.0 11309700000.0 11309700000.0 11309700000.0 11309700000.0 11309700000.0 11309700000.0 11309700000.0 11309700000.0 11309700000.0 11309700000.0 11309700000.0 11309700000.0 11309700000.0 11309700000.0 11309700000.0 11309700000.0 11309700000.0 11309700000.0 11309700000.0 11309700000.0 11309700000.0 11309700000.0 11309700000.0 11309700000.0 11309700000.0 11309700000.0 11309700000.0 11309700000.0 11309700000.0 11309700000.0 11309700000.0 11309700000.0 11309700000.0 11309700000.0 11309700000.0 11309700000.0 11309700000.0 11309700000.0 11309700000.0 11309700000.0 11309700000.0 11309700000.0 11309700000.0 11309700000.0 11309700000.0 11309700000.0 11309700000.0 11309700000.0 11309700000.0 11309700000.0 11309700000.0 11309700000.0 11309700000.0 11309700000.0 11309700000.0 11309700000.0 11309700000.0 11309700000.0 11309700000.0 11309700000.0 11309700000.0 11309700000.0 11309700000.0 11309700000.0 11309700000.0 11309700000.0 11309700000.0 11309700000.0 11309700000.0 11309700000.0 11309700000.0 11309700000.0 11309700000.0 11309700000.0 11309700000.0 11309700000.0 11309700000.0 11309700000.0 11309700000.0 11309700000.0 11309700000.0 11309700000.0 11309700000.0 11309700000.0 11309700000.0 11309700000.0 11309700000.0 11309700000.0 11309700000.0 11309700000.0 11309700000.0 11309700000.0 11309700000.0 11309700000.0 11309700000.0 11309700000.0 11309700000.0 11309700000.0 11309700000.0 11309700000.0 11309700000.0 11309700000.0 11309700000.0 11309700000.0 11309700000.0 11309700000.0 11309700000.0 11309700000.0 11309700000.0 11309700000.0 11309700000.0 11309700000.0 11309700000.0 11309700000.0 11309700000.0 11309700000.0 11309700000.0 11309700000.0 11309700000.0 11309700000.0 11309700000.0 11309700000.0 11309700000.0 11309700000.0 11309700000.0 11309700000.0 11309700000.0 11309700000.0 11309700000.0 11309700000.0 11309700000.0 11309700000.0 11309700000.0 11309700000.0 11309700000.0 11309700000.0 11309700000.0 11309700000.0 11309700000.0 11309700000.0 11309700000.0 11309700000.0 11309700000.0 11309700000.0 11309700000.0 11309700000.0 11309700000.0 11309700000.0 11309700000.0 11309700000.0 11309700000.0 11309700000.0 11309700000.0 11309700000.0 11309700000.0 11309700000.0 11309700000.0 11309700000.0 11309700000.0 11309700000.0 11309700000.0 11309700000.0 11309700000.0 11309700000.0 11309700000.0 11309700000.0 11309700000.0 11309700000.0 11309700000.0 11309700000.0 11309700000.0 11309700000.0 11309700000.0 11309700000.0 11309700000.0 11309700000.0 11309700000.0 11309700000.0 11309700000.0 11309700000.0 11309700000.0 11309700000.0 11309700000.0 11309700000.0 11309700000.0 11309700000.0 11309700000.0 11309700000.0 11309700000.0 11309700000.0 11309700000.0 11309700000.0 11309700000.0 11309700000.0 11309700000.0 11309700000.0 11309700000.0 11309700000.0 11309700000.0 11309700000.0 11309700000.0 11309700000.0 11309700000.0 11309700000.0 11309700000.0 11309700000.0 11309700000.0 11309700000.0 11309700000.0 11309700000.0 11309700000.0 11309700000.0 11309700000.0 11309700000.0 11309700000.0 11309700000.0 11309700000.0 11309700000.0 11309700000.0 11309700000.0 11309700000.0 11309700000.0 11309700000.0 11309700000.0 11309700000.0 11309700000.0 11309700000.0 11309700000.0 11309700000.0 11309700000.0 11309700000.0 11309700000.0 11309700000.0 11309700000.0 11309700000.0 11309700000.0 11309700000.0 11309700000.0 11309700000.0 11309700000.0 11309700000.0 11309700000.0 11309700000.0 11309700000.0 11309700000.0 11309700000.0 11309700000.0 11309700000.0 11309700000.0 11309700000.0 11309700000.0 11309700000.0 11309700000.0 11309700000.0 11309700000.0 11309700000.0 11309700000.0 11309700000.0 11309700000.0 11309700000.0 11309700000.0 11309700000.0 11309700000.0 11309700000.0 11309700000.0 11309700000.0 11309700000.0 11309700000.0 11309700000.0 11309700000.0 11309700000.0 11309700000.0 11309700000.0 11309700000.0 11309700000.0 11309700000.0 11309700000.0 11309700000.0 11309700000.0 11309700000.0 11309700000.0 11309700000.0 11309700000.0 11309700000.0 11309700000.0 11309700000.0 11309700000.0 11309700000.0 11309700000.0 11309700000.0 11309700000.0 11309700000.0 11309700000.0 11309700000.0 11309700000.0 11309700000.0 11309700000.0 11309700000.0 11309700000.0 11309700000.0 11309700000.0 11309700000.0 11309700000.0 11309700000.0 11309700000.0 11309700000.0 11309700000.0 11309700000.0 11309700000.0 11309700000.0 11309700000.0 11309700000.0 11309700000.0 11309700000.0 11309700000.0 11309700000.0 11309700000.0 11309700000.0 11309700000.0 11309700000.0 11309700000.0 11309700000.0 11309700000.0 11309700000.0 11309700000.0 11309700000.0 11309700000.0 11309700000.0 11309700000.0 11309700000.0 11309700000.0 11309700000.0 11309700000.0 11309700000.0 11309700000.0 11309700000.0 11309700000.0 11309700000.0 11309700000.0 11309700000.0 11309700000.0 11309700000.0 11309700000.0 11309700000.0 11309700000.0 11309700000.0 11309700000.0 11309700000.0 11309700000.0 11309700000.0 11309700000.0 11309700000.0 11309700000.0 11309700000.0 11309700000.0 11309700000.0 11309700000.0 11309700000.0 11309700000.0 11309700000.0 11309700000.0 11309700000.0 11309700000.0 11309700000.0 11309700000.0 11309700000.0 11309700000.0 11309700000.0 11309700000.0 11309700000.0 11309700000.0 11309700000.0 11309700000.0 11309700000.0 11309700000.0 11309700000.0 11309700000.0 11309700000.0 11309700000.0 11309700000.0 11309700000.0 11309700000.0 11309700000.0 11309700000.0 11309700000.0 11309700000.0 11309700000.0 11309700000.0 11309700000.0 11309700000.0 11309700000.0 11309700000.0 11309700000.0 11309700000.0 11309700000.0 11309700000.0 11309700000.0 11309700000.0 11309700000.0 11309700000.0 11309700000.0 11309700000.0 11309700000.0 11309700000.0 11309700000.0 11309700000.0 11309700000.0 11309700000.0 11309700000.0 11309700000.0 11309700000.0 11309700000.0 11309700000.0 11309700000.0 11309700000.0 11309700000.0 11309700000.0 11309700000.0 11309700000.0 11309700000.0 11309700000.0 11309700000.0 11309700000.0 11309700000.0 11309700000.0 11309700000.0 11309700000.0 11309700000.0 11309700000.0 11309700000.0 11309700000.0 11309700000.0 11309700000.0 11309700000.0 11309700000.0 11309700000.0 11309700000.0 11309700000.0 11309700000.0 11309700000.0 11309700000.0 11309700000.0 11309700000.0 11309700000.0 11309700000.0 11309700000.0 11309700000.0 11309700000.0 11309700000.0 11309700000.0 11309700000.0 11309700000.0 11309700000.0 11309700000.0 11309700000.0 11309700000.0 11309700000.0 11309700000.0 11309700000.0 11309700000.0 11309700000.0 11309700000.0 11309700000.0 11309700000.0 11309700000.0 11309700000.0 11309700000.0 11309700000.0 11309700000.0 11309700000.0 11309700000.0 11309700000.0 11309700000.0 11309700000.0 11309700000.0 11309700000.0 11309700000.0 11309700000.0 11309700000.0 11309700000.0 11309700000.0 11309700000.0 11309700000.0 11309700000.0 11309700000.0 11309700000.0 11309700000.0 11309700000.0 11309700000.0 11309700000.0 11309700000.0 11309700000.0 11309700000.0 11309700000.0 11309700000.0 11309700000.0 11309700000.0 11309700000.0 11309700000.0 11309700000.0 11309700000.0 11309700000.0 11309700000.0 11309700000.0 11309700000.0 11309700000.0 11309700000.0 11309700000.0 11309700000.0 11309700000.0 11309700000.0 11309700000.0 11309700000.0 11309700000.0 11309700000.0 11309700000.0 11309700000.0 11309700000.0 11309700000.0 11309700000.0 11309700000.0 11309700000.0 11309700000.0 11309700000.0 11309700000.0 11309700000.0 11309700000.0 11309700000.0 11309700000.0 11309700000.0 11309700000.0 11309700000.0 11309700000.0 11309700000.0 11309700000.0 11309700000.0 11309700000.0 11309700000.0 11309700000.0 11309700000.0 11309700000.0 11309700000.0 11309700000.0 11309700000.0 11309700000.0 11309700000.0 11309700000.0 11309700000.0 11309700000.0 11309700000.0 11309700000.0 11309700000.0 11309700000.0 11309700000.0 11309700000.0 11309700000.0 11309700000.0 11309700000.0 11309700000.0 11309700000.0 11309700000.0 11309700000.0 11309700000.0 11309700000.0 11309700000.0 11309700000.0 11309700000.0 11309700000.0 11309700000.0 11309700000.0 11309700000.0 11309700000.0 11309700000.0 11309700000.0 11309700000.0 11309700000.0 11309700000.0 11309700000.0 11309700000.0 11309700000.0 11309700000.0 11309700000.0 11309700000.0 11309700000.0 11309700000.0 11309700000.0 11309700000.0 11309700000.0 11309700000.0 11309700000.0 11309700000.0 11309700000.0 11309700000.0 11309700000.0 11309700000.0 11309700000.0 11309700000.0 11309700000.0 11309700000.0 11309700000.0 11309700000.0 11309700000.0 11309700000.0 11309700000.0 11309700000.0 11309700000.0 11309700000.0 11309700000.0 11309700000.0 11309700000.0 11309700000.0 11309700000.0 11309700000.0 11309700000.0 11309700000.0 11309700000.0 11309700000.0 11309700000.0 11309700000.0 11309700000.0 11309700000.0 11309700000.0 11309700000.0 11309700000.0 11309700000.0 11309700000.0 11309700000.0 11309700000.0 11309700000.0 11309700000.0 11309700000.0 11309700000.0 11309700000.0 11309700000.0 11309700000.0 11309700000.0 11309700000.0 11309700000.0 11309700000.0 11309700000.0 11309700000.0 11309700000.0 11309700000.0 11309700000.0 11309700000.0 11309700000.0 11309700000.0 11309700000.0 11309700000.0 11309700000.0 11309700000.0 11309700000.0 11309700000.0 11309700000.0 11309700000.0 11309700000.0 11309700000.0 11309700000.0 11309700000.0 11309700000.0 11309700000.0 11309700000.0 11309700000.0 11309700000.0 11309700000.0 11309700000.0 11309700000.0 11309700000.0 11309700000.0 11309700000.0 11309700000.0 11309700000.0 11309700000.0 11309700000.0 11309700000.0 11309700000.0 11309700000.0 11309700000.0 11309700000.0 11309700000.0 11309700000.0 11309700000.0 11309700000.0 11309700000.0 11309700000.0 11309700000.0 11309700000.0 11309700000.0 11309700000.0 11309700000.0 11309700000.0 11309700000.0 11309700000.0 11309700000.0 11309700000.0 11309700000.0 11309700000.0 11309700000.0 11309700000.0 11309700000.0 11309700000.0 11309700000.0 11309700000.0 11309700000.0 11309700000.0 11309700000.0 11309700000.0 11309700000.0 11309700000.0 11309700000.0 11309700000.0 11309700000.0 11309700000.0 11309700000.0 11309700000.0 11309700000.0 11309700000.0 11309700000.0 11309700000.0 11309700000.0 11309700000.0 11309700000.0 11309700000.0 11309700000.0 11309700000.0 11309700000.0 11309700000.0 11309700000.0 11309700000.0 11309700000.0 11309700000.0 11309700000.0 11309700000.0 11309700000.0 11309700000.0 11309700000.0 11309700000.0 11309700000.0 11309700000.0 11309700000.0 11309700000.0 11309700000.0 11309700000.0 11309700000.0 11309700000.0 11309700000.0 11309700000.0 11309700000.0 11309700000.0 11309700000.0 11309700000.0 11309700000.0 11309700000.0 11309700000.0 11309700000.0 11309700000.0 11309700000.0 11309700000.0 11309700000.0 11309700000.0 11309700000.0 11309700000.0 11309700000.0 11309700000.0 11309700000.0 11309700000.0 11309700000.0 11309700000.0 11309700000.0 11309700000.0 11309700000.0 11309700000.0 11309700000.0 11309700000.0 11309700000.0 11309700000.0 11309700000.0 11309700000.0 11309700000.0 11309700000.0 11309700000.0 11309700000.0 11309700000.0 11309700000.0 11309700000.0 11309700000.0 11309700000.0 11309700000.0 11309700000.0 11309700000.0 11309700000.0 11309700000.0 11309700000.0 11309700000.0 11309700000.0 11309700000.0 11309700000.0 11309700000.0 11309700000.0 11309700000.0 11309700000.0 11309700000.0 11309700000.0 11309700000.0 11309700000.0 11309700000.0 11309700000.0 11309700000.0 11309700000.0 11309700000.0 11309700000.0 11309700000.0 11309700000.0 11309700000.0 11309700000.0 11309700000.0 11309700000.0 11309700000.0 11309700000.0 11309700000.0 11309700000.0 11309700000.0 11309700000.0 11309700000.0 11309700000.0 11309700000.0 11309700000.0 11309700000.0 11309700000.0 11309700000.0 11309700000.0 11309700000.0 11309700000.0 11309700000.0 11309700000.0 11309700000.0 11309700000.0 11309700000.0 11309700000.0 11309700000.0 11309700000.0 11309700000.0 11309700000.0 11309700000.0 11309700000.0 11309700000.0 11309700000.0 11309700000.0 11309700000.0 11309700000.0 11309700000.0 11309700000.0 11309700000.0 11309700000.0 11309700000.0 11309700000.0 11309700000.0 11309700000.0 11309700000.0 11309700000.0 11309700000.0 11309700000.0 11309700000.0 11309700000.0 11309700000.0 11309700000.0 11309700000.0 11309700000.0 11309700000.0 11309700000.0 11309700000.0 11309700000.0 11309700000.0 11309700000.0 11309700000.0 11309700000.0 11309700000.0 11309700000.0 11309700000.0 11309700000.0 11309700000.0 11309700000.0 11309700000.0 11309700000.0 11309700000.0 11309700000.0 11309700000.0 11309700000.0 11309700000.0 11309700000.0 11309700000.0 11309700000.0 11309700000.0 11309700000.0 11309700000.0 11309700000.0 11309700000.0 11309700000.0 11309700000.0 11309700000.0 11309700000.0 11309700000.0 11309700000.0 11309700000.0 11309700000.0 11309700000.0 11309700000.0 11309700000.0 11309700000.0 11309700000.0 11309700000.0 11309700000.0 11309700000.0 11309700000.0 11309700000.0 11309700000.0 11309700000.0 11309700000.0 11309700000.0 11309700000.0 11309700000.0 11309700000.0 11309700000.0 11309700000.0 11309700000.0 11309700000.0 11309700000.0 11309700000.0 11309700000.0 11309700000.0 11309700000.0 11309700000.0 11309700000.0 11309700000.0 11309700000.0 11309700000.0 11309700000.0 11309700000.0 11309700000.0 11309700000.0 11309700000.0 11309700000.0 11309700000.0 11309700000.0 11309700000.0 11309700000.0 11309700000.0 11309700000.0 11309700000.0 11309700000.0 11309700000.0 11309700000.0 11309700000.0 11309700000.0 11309700000.0 11309700000.0 11309700000.0 11309700000.0 11309700000.0 11309700000.0 11309700000.0 11309700000.0 11309700000.0 11309700000.0 11309700000.0 11309700000.0 11309700000.0 11309700000.0 11309700000.0 11309700000.0 11309700000.0 11309700000.0 11309700000.0 11309700000.0 11309700000.0 11309700000.0 11309700000.0 11309700000.0 11309700000.0 11309700000.0 11309700000.0 11309700000.0 11309700000.0 11309700000.0 11309700000.0 11309700000.0 11309700000.0 11309700000.0 11309700000.0 11309700000.0 11309700000.0 11309700000.0 11309700000.0 11309700000.0 11309700000.0 11309700000.0 11309700000.0 11309700000.0 11309700000.0 11309700000.0 11309700000.0 11309700000.0 11309700000.0 11309700000.0 11309700000.0 11309700000.0 11309700000.0 11309700000.0 11309700000.0 11309700000.0 11309700000.0 11309700000.0 11309700000.0 11309700000.0 11309700000.0 11309700000.0 11309700000.0 11309700000.0 11309700000.0 11309700000.0 11309700000.0 11309700000.0 11309700000.0 11309700000.0 11309700000.0 11309700000.0 11309700000.0 11309700000.0 11309700000.0 11309700000.0 11309700000.0 11309700000.0 11309700000.0 11309700000.0 11309700000.0 11309700000.0 11309700000.0 11309700000.0 11309700000.0 11309700000.0 11309700000.0 11309700000.0 11309700000.0 11309700000.0 11309700000.0 11309700000.0 11309700000.0 11309700000.0 11309700000.0 11309700000.0 11309700000.0 11309700000.0 11309700000.0 11309700000.0 11309700000.0 11309700000.0 11309700000.0 11309700000.0 11309700000.0 11309700000.0 11309700000.0 11309700000.0 11309700000.0 11309700000.0 11309700000.0 11309700000.0 11309700000.0 11309700000.0 11309700000.0 11309700000.0 11309700000.0 11309700000.0 11309700000.0 11309700000.0 11309700000.0 11309700000.0 11309700000.0 11309700000.0 11309700000.0 11309700000.0 11309700000.0 11309700000.0 11309700000.0 11309700000.0 11309700000.0 11309700000.0 11309700000.0 11309700000.0 11309700000.0 11309700000.0 11309700000.0 11309700000.0 11309700000.0 11309700000.0 11309700000.0 11309700000.0 11309700000.0 11309700000.0 11309700000.0 11309700000.0 11309700000.0 11309700000.0 11309700000.0 11309700000.0 11309700000.0 11309700000.0 11309700000.0 11309700000.0 11309700000.0 11309700000.0 11309700000.0 11309700000.0 11309700000.0 11309700000.0 11309700000.0 11309700000.0 11309700000.0 11309700000.0 11309700000.0 11309700000.0 11309700000.0 11309700000.0 11309700000.0 11309700000.0 11309700000.0 11309700000.0 11309700000.0 11309700000.0 11309700000.0 11309700000.0 11309700000.0 11309700000.0 11309700000.0 11309700000.0 11309700000.0 11309700000.0 11309700000.0 11309700000.0 11309700000.0 11309700000.0 11309700000.0 11309700000.0 11309700000.0 11309700000.0 11309700000.0 11309700000.0 11309700000.0 11309700000.0 11309700000.0 11309700000.0 11309700000.0 11309700000.0 11309700000.0 11309700000.0 11309700000.0 11309700000.0 11309700000.0 11309700000.0 11309700000.0 11309700000.0 11309700000.0 11309700000.0 11309700000.0 11309700000.0 11309700000.0 11309700000.0 11309700000.0 11309700000.0 11309700000.0 11309700000.0 11309700000.0 11309700000.0 11309700000.0 11309700000.0 11309700000.0 11309700000.0 11309700000.0 11309700000.0 11309700000.0 11309700000.0 11309700000.0 11309700000.0 11309700000.0 11309700000.0 11309700000.0 11309700000.0 11309700000.0 11309700000.0 11309700000.0 11309700000.0 11309700000.0 11309700000.0 11309700000.0 11309700000.0 11309700000.0 11309700000.0 11309700000.0 11309700000.0 11309700000.0 11309700000.0 11309700000.0 11309700000.0 11309700000.0 11309700000.0 11309700000.0 11309700000.0 11309700000.0 11309700000.0 11309700000.0 11309700000.0 11309700000.0 11309700000.0 11309700000.0 11309700000.0 11309700000.0 11309700000.0 11309700000.0 11309700000.0 11309700000.0 11309700000.0 11309700000.0 11309700000.0 11309700000.0 11309700000.0 11309700000.0 11309700000.0 11309700000.0 11309700000.0 11309700000.0 11309700000.0 11309700000.0 11309700000.0 11309700000.0 11309700000.0 11309700000.0 11309700000.0 11309700000.0 11309700000.0 11309700000.0 11309700000.0 11309700000.0 11309700000.0 11309700000.0 11309700000.0 11309700000.0 11309700000.0 11309700000.0 11309700000.0 11309700000.0 11309700000.0 11309700000.0 11309700000.0 11309700000.0 11309700000.0 11309700000.0 11309700000.0 11309700000.0 11309700000.0 11309700000.0 11309700000.0 11309700000.0 11309700000.0 11309700000.0 11309700000.0 11309700000.0 11309700000.0 11309700000.0 11309700000.0 11309700000.0 11309700000.0 11309700000.0 11309700000.0 11309700000.0 11309700000.0 11309700000.0 11309700000.0 11309700000.0 11309700000.0 11309700000.0 11309700000.0 11309700000.0 11309700000.0 11309700000.0 11309700000.0 11309700000.0 11309700000.0 11309700000.0 11309700000.0 11309700000.0 11309700000.0 11309700000.0 11309700000.0 11309700000.0 11309700000.0 11309700000.0 11309700000.0 11309700000.0 11309700000.0 11309700000.0 11309700000.0 11309700000.0 11309700000.0 11309700000.0 11309700000.0 11309700000.0 11309700000.0 11309700000.0 11309700000.0 11309700000.0 11309700000.0 11309700000.0 11309700000.0 11309700000.0 11309700000.0 11309700000.0 11309700000.0 11309700000.0 11309700000.0 11309700000.0 11309700000.0 11309700000.0 11309700000.0 11309700000.0 11309700000.0 11309700000.0 11309700000.0 11309700000.0 11309700000.0 11309700000.0 11309700000.0 11309700000.0 11309700000.0 11309700000.0 11309700000.0 11309700000.0 11309700000.0 11309700000.0 11309700000.0 11309700000.0 11309700000.0 11309700000.0 11309700000.0 11309700000.0 11309700000.0 11309700000.0 11309700000.0 11309700000.0 11309700000.0 11309700000.0 11309700000.0 11309700000.0 11309700000.0 11309700000.0 11309700000.0 11309700000.0 11309700000.0 11309700000.0 11309700000.0 11309700000.0 11309700000.0 11309700000.0 11309700000.0 11309700000.0 11309700000.0 11309700000.0 11309700000.0 11309700000.0 11309700000.0 11309700000.0 11309700000.0 11309700000.0 11309700000.0 11309700000.0 11309700000.0 11309700000.0 11309700000.0 11309700000.0 11309700000.0 11309700000.0 11309700000.0 11309700000.0 11309700000.0 11309700000.0 11309700000.0 11309700000.0 11309700000.0 11309700000.0 11309700000.0 11309700000.0 11309700000.0 11309700000.0 11309700000.0 11309700000.0 11309700000.0 11309700000.0 11309700000.0 11309700000.0 11309700000.0 11309700000.0 11309700000.0 11309700000.0 11309700000.0 11309700000.0 11309700000.0 11309700000.0 11309700000.0 11309700000.0 11309700000.0 11309700000.0 11309700000.0 11309700000.0 11309700000.0 11309700000.0 11309700000.0 11309700000.0 11309700000.0 11309700000.0 11309700000.0 11309700000.0 11309700000.0 11309700000.0 11309700000.0 11309700000.0 11309700000.0 11309700000.0 11309700000.0 11309700000.0 11309700000.0 11309700000.0 11309700000.0 11309700000.0 11309700000.0 11309700000.0 11309700000.0 11309700000.0 11309700000.0 11309700000.0 11309700000.0 11309700000.0 11309700000.0 11309700000.0 11309700000.0 11309700000.0 11309700000.0 11309700000.0 11309700000.0 11309700000.0 11309700000.0 11309700000.0 11309700000.0 11309700000.0 11309700000.0 11309700000.0 11309700000.0 11309700000.0 11309700000.0 11309700000.0 11309700000.0 11309700000.0 11309700000.0 11309700000.0 11309700000.0 11309700000.0 11309700000.0 11309700000.0 11309700000.0 11309700000.0 11309700000.0 11309700000.0 11309700000.0 11309700000.0 11309700000.0 11309700000.0 11309700000.0 11309700000.0 11309700000.0 11309700000.0 11309700000.0 11309700000.0 11309700000.0 11309700000.0 11309700000.0 11309700000.0 11309700000.0 11309700000.0 11309700000.0 11309700000.0 11309700000.0 11309700000.0 11309700000.0 11309700000.0 11309700000.0 11309700000.0 11309700000.0 11309700000.0 11309700000.0 11309700000.0 11309700000.0 11309700000.0 11309700000.0 11309700000.0 11309700000.0 11309700000.0 11309700000.0 11309700000.0 11309700000.0 11309700000.0 11309700000.0 11309700000.0 11309700000.0 11309700000.0 11309700000.0 11309700000.0 11309700000.0 11309700000.0 11309700000.0 11309700000.0 11309700000.0 11309700000.0 11309700000.0 11309700000.0 11309700000.0 11309700000.0 11309700000.0 11309700000.0 11309700000.0 11309700000.0 11309700000.0 11309700000.0 11309700000.0 11309700000.0 11309700000.0 11309700000.0 11309700000.0 11309700000.0 11309700000.0 11309700000.0 11309700000.0 11309700000.0 11309700000.0 11309700000.0 11309700000.0 11309700000.0 11309700000.0 11309700000.0 11309700000.0 11309700000.0 11309700000.0 11309700000.0 11309700000.0 11309700000.0 11309700000.0 11309700000.0 11309700000.0 11309700000.0 11309700000.0 11309700000.0 11309700000.0 11309700000.0 11309700000.0 11309700000.0 11309700000.0 11309700000.0 11309700000.0 11309700000.0 11309700000.0 11309700000.0 11309700000.0 11309700000.0 11309700000.0 11309700000.0 11309700000.0 11309700000.0 11309700000.0 11309700000.0 11309700000.0 11309700000.0 11309700000.0 11309700000.0 11309700000.0 11309700000.0 11309700000.0 11309700000.0 11309700000.0 11309700000.0 11309700000.0 11309700000.0 11309700000.0 11309700000.0 11309700000.0 11309700000.0 11309700000.0 11309700000.0 11309700000.0 11309700000.0 11309700000.0 11309700000.0 11309700000.0 11309700000.0 11309700000.0 11309700000.0 11309700000.0 11309700000.0 11309700000.0 11309700000.0 11309700000.0 11309700000.0 11309700000.0 11309700000.0 11309700000.0 11309700000.0 11309700000.0 11309700000.0 11309700000.0 11309700000.0 11309700000.0 11309700000.0 11309700000.0 11309700000.0 11309700000.0 11309700000.0 11309700000.0 11309700000.0 11309700000.0 11309700000.0 11309700000.0 11309700000.0 11309700000.0 11309700000.0 11309700000.0 11309700000.0 11309700000.0 11309700000.0 11309700000.0 11309700000.0 11309700000.0 11309700000.0 11309700000.0 11309700000.0 11309700000.0 11309700000.0 11309700000.0 11309700000.0 11309700000.0 11309700000.0 11309700000.0 11309700000.0 11309700000.0 11309700000.0 11309700000.0 11309700000.0 11309700000.0 11309700000.0 11309700000.0 11309700000.0 11309700000.0 11309700000.0 11309700000.0 11309700000.0 11309700000.0 11309700000.0 11309700000.0 11309700000.0 11309700000.0 11309700000.0 11309700000.0 11309700000.0 11309700000.0 11309700000.0 11309700000.0 11309700000.0 11309700000.0 11309700000.0 11309700000.0 11309700000.0 11309700000.0 11309700000.0 11309700000.0 11309700000.0 11309700000.0 11309700000.0 11309700000.0 11309700000.0 11309700000.0 11309700000.0 11309700000.0 11309700000.0 11309700000.0 11309700000.0 11309700000.0 11309700000.0 11309700000.0 11309700000.0 11309700000.0 11309700000.0 11309700000.0 11309700000.0 11309700000.0 11309700000.0 11309700000.0 11309700000.0 11309700000.0 11309700000.0 11309700000.0 11309700000.0 11309700000.0 11309700000.0 11309700000.0 11309700000.0 11309700000.0 11309700000.0 11309700000.0 11309700000.0 11309700000.0 11309700000.0 11309700000.0 11309700000.0 11309700000.0 11309700000.0 11309700000.0 11309700000.0 11309700000.0 11309700000.0 11309700000.0 11309700000.0 11309700000.0 11309700000.0 11309700000.0 11309700000.0 11309700000.0 11309700000.0 11309700000.0 11309700000.0 11309700000.0 11309700000.0 11309700000.0 11309700000.0 11309700000.0 11309700000.0 11309700000.0 11309700000.0 11309700000.0 11309700000.0 11309700000.0 11309700000.0 11309700000.0 11309700000.0 11309700000.0 11309700000.0 11309700000.0 11309700000.0 11309700000.0 11309700000.0 11309700000.0 11309700000.0 11309700000.0 11309700000.0 11309700000.0 11309700000.0 11309700000.0 11309700000.0 11309700000.0 11309700000.0 11309700000.0 11309700000.0 11309700000.0 11309700000.0 11309700000.0 11309700000.0 11309700000.0 11309700000.0 11309700000.0 11309700000.0 11309700000.0 11309700000.0 11309700000.0 11309700000.0 11309700000.0 11309700000.0 11309700000.0 11309700000.0 11309700000.0 11309700000.0 11309700000.0 11309700000.0 11309700000.0 11309700000.0 11309700000.0 11309700000.0 11309700000.0 11309700000.0 11309700000.0 11309700000.0 11309700000.0 11309700000.0 11309700000.0 11309700000.0 11309700000.0 11309700000.0 11309700000.0 11309700000.0 11309700000.0 11309700000.0 11309700000.0 11309700000.0 11309700000.0 11309700000.0 11309700000.0 11309700000.0 11309700000.0 11309700000.0 11309700000.0 11309700000.0 11309700000.0 11309700000.0 11309700000.0 11309700000.0 11309700000.0 11309700000.0 11309700000.0 11309700000.0 11309700000.0 11309700000.0 11309700000.0 11309700000.0 11309700000.0 11309700000.0 11309700000.0 11309700000.0 11309700000.0 11309700000.0 11309700000.0 11309700000.0 11309700000.0 11309700000.0 11309700000.0 11309700000.0 11309700000.0 11309700000.0 11309700000.0 11309700000.0 11309700000.0 11309700000.0 11309700000.0 11309700000.0 11309700000.0 11309700000.0 11309700000.0 11309700000.0 11309700000.0 11309700000.0 11309700000.0 11309700000.0 11309700000.0 11309700000.0 11309700000.0 11309700000.0 11309700000.0 11309700000.0 11309700000.0 11309700000.0 11309700000.0 11309700000.0 11309700000.0 11309700000.0 11309700000.0 11309700000.0 11309700000.0 11309700000.0 11309700000.0 11309700000.0 11309700000.0 11309700000.0 11309700000.0 11309700000.0 11309700000.0 11309700000.0 11309700000.0 11309700000.0 11309700000.0 11309700000.0 11309700000.0 11309700000.0 11309700000.0 11309700000.0 11309700000.0 11309700000.0 11309700000.0 11309700000.0 11309700000.0 11309700000.0 11309700000.0 11309700000.0 11309700000.0 11309700000.0 11309700000.0 11309700000.0 11309700000.0 11309700000.0 11309700000.0 11309700000.0 11309700000.0 11309700000.0 11309700000.0 11309700000.0 11309700000.0 11309700000.0 11309700000.0 11309700000.0 11309700000.0 11309700000.0 11309700000.0 11309700000.0 11309700000.0 11309700000.0 11309700000.0 11309700000.0 11309700000.0 11309700000.0 11309700000.0 11309700000.0 11309700000.0 11309700000.0 11309700000.0 11309700000.0 11309700000.0 11309700000.0 11309700000.0 11309700000.0 11309700000.0 11309700000.0 11309700000.0 11309700000.0 11309700000.0 11309700000.0 11309700000.0 11309700000.0 11309700000.0 11309700000.0 11309700000.0 11309700000.0 11309700000.0 11309700000.0 11309700000.0 11309700000.0 11309700000.0 11309700000.0 11309700000.0 11309700000.0 11309700000.0 11309700000.0 11309700000.0 11309700000.0 11309700000.0 11309700000.0 11309700000.0 11309700000.0 11309700000.0 11309700000.0 11309700000.0 11309700000.0 11309700000.0 11309700000.0 11309700000.0 11309700000.0 11309700000.0 11309700000.0 11309700000.0 11309700000.0 11309700000.0 11309700000.0 11309700000.0 11309700000.0 11309700000.0 11309700000.0 11309700000.0 11309700000.0 11309700000.0 11309700000.0 11309700000.0 11309700000.0 11309700000.0 11309700000.0 11309700000.0 11309700000.0 11309700000.0 11309700000.0 11309700000.0 11309700000.0 11309700000.0 11309700000.0 11309700000.0 11309700000.0 11309700000.0 11309700000.0 11309700000.0 11309700000.0 11309700000.0 11309700000.0 11309700000.0 11309700000.0 11309700000.0 11309700000.0 11309700000.0 11309700000.0 11309700000.0 11309700000.0 11309700000.0 11309700000.0 11309700000.0 11309700000.0 11309700000.0 11309700000.0 11309700000.0 11309700000.0 11309700000.0 11309700000.0 11309700000.0 11309700000.0 11309700000.0 11309700000.0 11309700000.0 11309700000.0 11309700000.0 11309700000.0 11309700000.0 11309700000.0 11309700000.0 11309700000.0 11309700000.0 11309700000.0 11309700000.0 11309700000.0 11309700000.0 11309700000.0 11309700000.0 11309700000.0 11309700000.0 11309700000.0 11309700000.0 11309700000.0 11309700000.0 11309700000.0 11309700000.0 11309700000.0 11309700000.0 11309700000.0 11309700000.0 11309700000.0 11309700000.0 11309700000.0 11309700000.0 11309700000.0 11309700000.0 11309700000.0 11309700000.0 11309700000.0 11309700000.0 11309700000.0 11309700000.0 11309700000.0 11309700000.0 11309700000.0 11309700000.0 11309700000.0 11309700000.0 11309700000.0 11309700000.0 11309700000.0 11309700000.0 11309700000.0 11309700000.0 11309700000.0 11309700000.0 11309700000.0 11309700000.0 11309700000.0 11309700000.0 11309700000.0 11309700000.0 11309700000.0 11309700000.0 11309700000.0 11309700000.0 11309700000.0 11309700000.0 11309700000.0 11309700000.0 11309700000.0 11309700000.0 11309700000.0 11309700000.0 11309700000.0 11309700000.0 11309700000.0 11309700000.0 11309700000.0 11309700000.0 11309700000.0 11309700000.0 11309700000.0 11309700000.0 11309700000.0 11309700000.0 11309700000.0 11309700000.0 11309700000.0 11309700000.0 11309700000.0 11309700000.0 11309700000.0 11309700000.0 11309700000.0 11309700000.0 11309700000.0 11309700000.0 11309700000.0 11309700000.0 11309700000.0 11309700000.0 11309700000.0 11309700000.0 11309700000.0 11309700000.0 11309700000.0 11309700000.0 11309700000.0 11309700000.0 11309700000.0 11309700000.0 11309700000.0 11309700000.0 11309700000.0 11309700000.0 11309700000.0 11309700000.0 11309700000.0 11309700000.0 11309700000.0 11309700000.0 11309700000.0 11309700000.0 11309700000.0 11309700000.0 11309700000.0 11309700000.0 11309700000.0 11309700000.0 11309700000.0 11309700000.0 11309700000.0 11309700000.0 11309700000.0 11309700000.0 11309700000.0 11309700000.0 11309700000.0 11309700000.0 11309700000.0 11309700000.0 11309700000.0 11309700000.0 11309700000.0 11309700000.0 11309700000.0 11309700000.0 11309700000.0 11309700000.0 11309700000.0 11309700000.0 11309700000.0 11309700000.0 11309700000.0 11309700000.0 11309700000.0 11309700000.0 11309700000.0 11309700000.0 11309700000.0 11309700000.0 11309700000.0 11309700000.0 11309700000.0 11309700000.0 11309700000.0 11309700000.0 11309700000.0 11309700000.0 11309700000.0 11309700000.0 11309700000.0 11309700000.0 11309700000.0 11309700000.0 11309700000.0 11309700000.0 11309700000.0 11309700000.0 11309700000.0 11309700000.0 11309700000.0 11309700000.0 11309700000.0 11309700000.0 11309700000.0 11309700000.0 11309700000.0 11309700000.0 11309700000.0 11309700000.0 11309700000.0 11309700000.0 11309700000.0 11309700000.0 11309700000.0 11309700000.0 11309700000.0 11309700000.0 11309700000.0 11309700000.0 11309700000.0 11309700000.0 11309700000.0 11309700000.0 11309700000.0 11309700000.0 11309700000.0 11309700000.0 11309700000.0 11309700000.0 11309700000.0 11309700000.0 11309700000.0 11309700000.0 11309700000.0 11309700000.0 11309700000.0 11309700000.0 11309700000.0 11309700000.0 11309700000.0 11309700000.0 11309700000.0 11309700000.0 11309700000.0 11309700000.0 11309700000.0 11309700000.0 11309700000.0 11309700000.0 11309700000.0 11309700000.0 11309700000.0 11309700000.0 11309700000.0 11309700000.0 11309700000.0 11309700000.0 11309700000.0 11309700000.0 11309700000.0 11309700000.0 11309700000.0 11309700000.0 11309700000.0 11309700000.0 11309700000.0 11309700000.0 11309700000.0 11309700000.0 11309700000.0 11309700000.0 11309700000.0 11309700000.0 11309700000.0 11309700000.0 11309700000.0 11309700000.0 11309700000.0 11309700000.0 11309700000.0 11309700000.0 11309700000.0 11309700000.0 11309700000.0 11309700000.0 11309700000.0 11309700000.0 11309700000.0 11309700000.0 11309700000.0 11309700000.0 11309700000.0 11309700000.0 11309700000.0 11309700000.0 11309700000.0 11309700000.0 11309700000.0 11309700000.0 11309700000.0 11309700000.0 11309700000.0 11309700000.0 11309700000.0 11309700000.0 11309700000.0 11309700000.0 11309700000.0 11309700000.0 11309700000.0 11309700000.0 11309700000.0 11309700000.0 11309700000.0 11309700000.0 11309700000.0 11309700000.0 11309700000.0 11309700000.0 11309700000.0 11309700000.0 11309700000.0 11309700000.0 11309700000.0 11309700000.0 11309700000.0 11309700000.0 11309700000.0 11309700000.0 11309700000.0 11309700000.0 11309700000.0 11309700000.0 11309700000.0 11309700000.0 11309700000.0 11309700000.0 11309700000.0 11309700000.0 11309700000.0 11309700000.0 11309700000.0 11309700000.0 11309700000.0 11309700000.0 11309700000.0 11309700000.0 11309700000.0 11309700000.0 11309700000.0 11309700000.0 11309700000.0 11309700000.0 11309700000.0 11309700000.0 11309700000.0 11309700000.0 11309700000.0 11309700000.0 11309700000.0 11309700000.0 11309700000.0 11309700000.0 11309700000.0 11309700000.0 11309700000.0 11309700000.0 11309700000.0 11309700000.0 11309700000.0 11309700000.0 11309700000.0 11309700000.0 11309700000.0 11309700000.0 11309700000.0 11309700000.0 11309700000.0 11309700000.0 11309700000.0 11309700000.0 11309700000.0 11309700000.0 11309700000.0 11309700000.0 11309700000.0 11309700000.0 11309700000.0 11309700000.0 11309700000.0 11309700000.0 11309700000.0 11309700000.0 11309700000.0 11309700000.0 11309700000.0 11309700000.0 11309700000.0 11309700000.0 11309700000.0 11309700000.0 11309700000.0 11309700000.0 11309700000.0 11309700000.0 11309700000.0 11309700000.0 11309700000.0 11309700000.0 11309700000.0 11309700000.0 11309700000.0 11309700000.0 11309700000.0 11309700000.0 11309700000.0 11309700000.0 11309700000.0 11309700000.0 11309700000.0 11309700000.0 11309700000.0 11309700000.0 11309700000.0 11309700000.0 11309700000.0 11309700000.0 11309700000.0 11309700000.0 11309700000.0 11309700000.0 11309700000.0 11309700000.0 11309700000.0 11309700000.0 11309700000.0 11309700000.0 11309700000.0 11309700000.0 11309700000.0 11309700000.0 11309700000.0 11309700000.0 11309700000.0 11309700000.0 11309700000.0 11309700000.0 11309700000.0 11309700000.0 11309700000.0 11309700000.0 11309700000.0 11309700000.0 11309700000.0 11309700000.0 11309700000.0 11309700000.0 11309700000.0 11309700000.0 11309700000.0 11309700000.0 11309700000.0 11309700000.0 11309700000.0 11309700000.0 11309700000.0 11309700000.0 11309700000.0 11309700000.0 11309700000.0 11309700000.0 11309700000.0 11309700000.0 11309700000.0 11309700000.0 11309700000.0 11309700000.0 11309700000.0 11309700000.0 11309700000.0 11309700000.0 11309700000.0 11309700000.0 11309700000.0 11309700000.0 11309700000.0 11309700000.0 11309700000.0 11309700000.0 11309700000.0 11309700000.0 11309700000.0 11309700000.0 11309700000.0 11309700000.0 11309700000.0 11309700000.0 11309700000.0 11309700000.0 11309700000.0 11309700000.0 11309700000.0 11309700000.0 11309700000.0 11309700000.0 11309700000.0 11309700000.0 11309700000.0 11309700000.0 11309700000.0 11309700000.0 11309700000.0 11309700000.0 11309700000.0 11309700000.0 11309700000.0 11309700000.0 11309700000.0 11309700000.0 11309700000.0 11309700000.0 11309700000.0 11309700000.0 11309700000.0 11309700000.0 11309700000.0 11309700000.0 11309700000.0 11309700000.0 11309700000.0 11309700000.0 11309700000.0 11309700000.0 11309700000.0 11309700000.0 11309700000.0 11309700000.0 11309700000.0 11309700000.0 11309700000.0 11309700000.0 11309700000.0 11309700000.0 11309700000.0 11309700000.0 11309700000.0 11309700000.0 11309700000.0 11309700000.0 11309700000.0 11309700000.0 11309700000.0 11309700000.0 11309700000.0 11309700000.0 11309700000.0 11309700000.0 11309700000.0 11309700000.0 11309700000.0 11309700000.0 11309700000.0 11309700000.0 11309700000.0 11309700000.0 11309700000.0 11309700000.0 11309700000.0 11309700000.0 11309700000.0 11309700000.0 11309700000.0 11309700000.0 11309700000.0 11309700000.0 11309700000.0 11309700000.0 11309700000.0 11309700000.0 11309700000.0 11309700000.0 11309700000.0 11309700000.0 11309700000.0 11309700000.0 11309700000.0 11309700000.0 11309700000.0 11309700000.0 11309700000.0 11309700000.0 11309700000.0 11309700000.0 11309700000.0 11309700000.0 11309700000.0 11309700000.0 11309700000.0 11309700000.0 11309700000.0 11309700000.0 11309700000.0 11309700000.0 11309700000.0 11309700000.0 11309700000.0 11309700000.0 11309700000.0 11309700000.0 11309700000.0 11309700000.0 11309700000.0 11309700000.0 11309700000.0 11309700000.0 11309700000.0 11309700000.0 11309700000.0 11309700000.0 11309700000.0 11309700000.0 11309700000.0 11309700000.0 11309700000.0 11309700000.0 11309700000.0 11309700000.0 11309700000.0 11309700000.0 11309700000.0 11309700000.0 11309700000.0 11309700000.0 11309700000.0 11309700000.0 11309700000.0 11309700000.0 11309700000.0 11309700000.0 11309700000.0 11309700000.0 11309700000.0 11309700000.0 11309700000.0 11309700000.0 11309700000.0 11309700000.0 11309700000.0 11309700000.0 11309700000.0 11309700000.0 11309700000.0 11309700000.0 11309700000.0 11309700000.0 11309700000.0 11309700000.0 11309700000.0 11309700000.0 11309700000.0 11309700000.0 11309700000.0 11309700000.0 11309700000.0 11309700000.0 11309700000.0 11309700000.0 11309700000.0 11309700000.0 11309700000.0 11309700000.0 11309700000.0 11309700000.0 11309700000.0 11309700000.0 11309700000.0 11309700000.0 11309700000.0 11309700000.0 11309700000.0 11309700000.0 11309700000.0 11309700000.0 11309700000.0 11309700000.0 11309700000.0 11309700000.0 11309700000.0 11309700000.0 11309700000.0 11309700000.0 11309700000.0 11309700000.0 11309700000.0 11309700000.0 11309700000.0 11309700000.0 11309700000.0 11309700000.0 11309700000.0 11309700000.0 11309700000.0 11309700000.0 11309700000.0 11309700000.0 11309700000.0 11309700000.0 11309700000.0 11309700000.0 11309700000.0 11309700000.0 11309700000.0 11309700000.0 11309700000.0 11309700000.0 11309700000.0 11309700000.0 11309700000.0 11309700000.0 11309700000.0 11309700000.0 11309700000.0 11309700000.0 11309700000.0 11309700000.0 11309700000.0 11309700000.0 11309700000.0 11309700000.0 11309700000.0 11309700000.0 11309700000.0 11309700000.0 11309700000.0 11309700000.0 11309700000.0 11309700000.0 11309700000.0 11309700000.0 11309700000.0 11309700000.0 11309700000.0 11309700000.0 11309700000.0 11309700000.0 11309700000.0 11309700000.0 11309700000.0 11309700000.0 11309700000.0 11309700000.0 11309700000.0 11309700000.0 11309700000.0 11309700000.0 11309700000.0 11309700000.0 11309700000.0 11309700000.0 11309700000.0 11309700000.0 11309700000.0 11309700000.0 11309700000.0 11309700000.0 11309700000.0 11309700000.0 11309700000.0 11309700000.0 11309700000.0 11309700000.0 11309700000.0 11309700000.0 11309700000.0 11309700000.0 11309700000.0 11309700000.0 11309700000.0 11309700000.0 11309700000.0 11309700000.0 11309700000.0 11309700000.0 11309700000.0 11309700000.0 11309700000.0 11309700000.0 11309700000.0 11309700000.0 11309700000.0 11309700000.0 11309700000.0 11309700000.0 11309700000.0 11309700000.0 11309700000.0 11309700000.0 11309700000.0 11309700000.0 11309700000.0 
SCALARS Velocity float 1
LOOKUP_TABLE default
1.04436 1.04462 0.893835 0.978786 1.12982 1.18778 1.0414 1.13194 1.1577 1.2223 1.22125 1.15027 1.13006 1.03961 1.1857 1.13033 0.979669 0.893837 0.901472 1.07305 1.17914 1.23764 1.10598 1.14564 1.16964 1.16375 1.16032 1.16097 1.14291 1.09673 1.23444 1.1776 1.07421 0.901724 0.917298 1.12312 1.23389 1.03802 1.13206 1.18093 1.1531 1.1487 1.14722 1.17203 1.1272 1.03679 1.2314 1.12267 0.916245 1.09001 1.07089 1.11116 1.16876 1.00539 1.05581 1.18193 1.16828 1.15496 1.14094 1.15226 1.15849 1.17153 1.05933 1.00658 1.16699 1.10912 1.07424 1.08943 1.26135 1.0648 1.15045 1.2303 1.06439 1.22973 1.16798 1.15657 1.14744 1.14377 1.13903 1.14034 1.14845 1.15862 1.21171 1.06743 1.22843 1.1507 1.06661 1.26368 1.26883 1.09564 1.23236 0.97617 1.13736 1.16869 1.16341 1.14626 1.13415 1.1382 1.15259 1.15787 1.12692 0.976362 1.2301 1.09463 1.27092 1.24224 1.19881 1.1446 1.08444 1.06216 1.1637 1.15717 1.1359 1.11691 1.13153 1.14381 1.15322 1.06484 1.08168 1.1447 1.19472 1.24405 1.19306 1.24348 1.22819 1.07069 1.09592 1.12128 1.16293 1.1628 1.15145 1.12114 1.11785 1.13652 1.14539 1.14991 1.11351 1.09695 1.07165 1.22539 1.2442 1.19786 1.20437 1.19924 1.18622 1.10058 1.10713 1.10865 1.10352 1.10374 1.16359 1.09231 1.14017 1.08747 1.09265 1.10408 1.10849 1.09935 1.18579 1.19951 1.20793 1.11734 1.19585 1.17195 1.11793 1.09877 1.10064 1.10493 1.10808 1.09505 1.07123 1.10461 1.08103 1.09558 1.10201 1.10058 1.11735 1.16893 1.18983 1.12136 1.01401 1.13811 1.22686 1.19566 1.1917 1.1794 1.10052 1.1024 1.11393 1.11463 0.965589 1.11282 1.07083 1.09611 1.099 1.1036 1.17656 1.19047 1.18999 1.23159 1.15022 1.05052 0.565639 0.60203 1.17871 1.21106 1.1081 1.11562 1.0989 1.1013 1.1067 1.11145 0.938528 0.962482 1.08521 1.11002 1.08714 1.09693 1.09931 1.10076 1.12063 1.10658 1.20805 1.17628 0.599101 0.573071 0.56982 0.684011 0.974774 1.16168 1.06834 1.09085 1.10233 1.09853 1.10543 1.11787 0.965577 0.990783 1.03809 1.06705 1.09532 1.10256 1.10686 1.0992 1.08049 1.16067 0.984005 0.688379 0.562931 0.566477 0.581817 0.587538 0.765647 1.01626 1.20115 1.20035 1.12735 1.0967 1.06075 1.08901 1.10313 1.10435 1.11313 0.975165 1.08062 1.07841 1.10434 1.09866 1.07 1.09716 1.12409 1.20265 1.2034 1.02633 0.774432 0.594198 0.580541 0.571308 0.623889 0.625434 0.630503 0.762481 1.26065 1.16858 1.04027 1.06725 1.07956 1.09504 1.10502 1.10669 1.10706 1.04069 0.938946 1.10269 1.10377 1.11211 1.10459 1.09348 1.07971 1.03622 1.16408 1.26801 0.761211 0.62623 0.623685 0.625982 0.724116 0.688782 0.679607 0.637485 0.711748 1.07017 1.41932 1.00231 1.02772 1.05377 1.09745 1.11025 1.07054 1.0357 1.09604 0.792909 0.923341 1.0467 1.11635 1.11052 1.06984 1.0353 0.996888 1.42667 1.07534 0.708852 0.632243 0.68041 0.687809 0.724079 0.761496 0.722099 0.749945 0.708066 0.801627 0.880036 1.14052 0.936279 0.922331 0.985001 1.02301 1.08343 1.1153 1.09315 1.06613 1.104 0.784217 1.02592 1.09227 1.12467 1.10072 1.02898 0.983503 0.923218 0.910673 1.14361 0.879276 0.798253 0.706512 0.748895 0.718939 0.762172 0.769707 0.777201 0.758107 0.755189 0.829864 0.979992 0.944677 1.22089 1.73594 0.634857 0.998085 1.07121 1.11425 1.11783 1.15198 1.12309 1.12227 1.06718 0.857395 0.911043 1.09644 1.12301 1.15207 1.13013 1.13403 1.08821 0.992541 0.63042 1.77194 1.21616 0.942525 0.972504 0.826017 0.755328 0.759044 0.776405 0.768624 0.694717 0.746981 0.767517 0.759005 0.735798 0.774123 0.837855 1.23354 1.78602 1.3658 2.16129 0.733655 0.93233 0.954929 1.03828 1.1375 1.17551 1.18304 1.1378 0.826858 0.817746 1.04258 1.15898 1.18226 1.15778 1.04643 0.948726 0.935917 0.732724 2.17036 1.37221 1.75489 1.22216 0.834564 0.770948 0.733936 0.757663 0.765166 0.745095 0.693159 0.628333 0.732324 0.743193 0.753282 0.716128 0.729394 0.91734 0.668849 1.96869 1.24247 0.780734 1.09303 1.18908 1.24498 1.22516 0.866561 0.834016 0.822291 1.15679 1.22345 1.21512 1.09421 0.770293 1.24165 1.96268 0.724842 0.920772 0.726104 0.713122 0.750762 0.740661 0.730197 0.627101 0.674064 0.655161 0.729354 0.717784 0.66632 0.679362 0.649597 0.750855 0.719171 0.786065 0.282489 0.528561 0.945098 0.722819 0.819712 0.925693 1.16077 1.28121 1.30711 1.29581 1.42397 1.32323 0.914858 0.902834 0.875221 0.848978 0.857541 0.836854 0.850153 0.828628 0.815943 1.26308 1.36184 1.29147 1.35898 1.3044 1.15622 0.922467 0.822855 0.709395 0.922524 0.512514 0.266567 0.749614 0.741521 0.745311 0.645075 0.675402 0.662579 0.715045 0.727682 0.653878 0.672447 0.89286 0.759691 0.57307 0.674804 0.779373 0.74295 0.698813 0.613021 0.657347 0.625045 0.654042 0.411506 0.582463 0.832598 1.00856 1.5358 1.50312 0.885819 0.879334 0.87031 0.866543 0.84163 0.782362 1.44136 1.60071 1.01803 0.834294 0.574871 0.403881 0.6466 0.617675 0.653074 0.609523 0.696224 0.741259 0.778829 0.674201 0.571699 0.758272 0.892729 0.766184 0.876814 0.963602 0.661303 0.698645 0.795454 0.62553 0.54819 0.579367 0.556454 0.520759 0.404816 0.848866 0.904567 0.994402 1.34673 0.775598 0.78799 0.844343 0.871382 0.878558 0.862652 0.802213 0.732683 1.1924 1.37796 1.00403 0.90988 0.838034 0.403553 0.51965 0.549793 0.570394 0.543256 0.621905 0.794311 0.699613 0.660681 0.963328 0.877167 0.76612 0.637792 0.984551 0.984916 0.823524 0.694089 0.95059 0.868039 0.699312 0.595707 0.523735 0.560427 0.470835 0.525046 0.671301 0.829754 1.01673 1.06671 0.849833 0.88601 0.667029 0.656907 0.761652 0.789223 0.845328 0.857787 0.876928 0.878981 0.876728 0.857416 0.833103 0.787437 0.745779 0.763634 0.949763 0.622574 0.765363 1.10398 1.02559 0.830607 0.664803 0.528765 0.466461 0.549799 0.520008 0.592969 0.697633 0.867642 0.950206 0.693514 0.824676 0.985561 0.985285 0.639001 0.347255 0.862044 0.79888 0.780042 1.46441 1.06952 1.15165 0.700592 0.537963 0.491735 0.478368 0.51 0.541953 0.535112 0.555653 0.69908 0.885624 0.608841 0.442039 0.632214 0.721567 0.71854 0.818049 0.865532 0.867195 0.822081 0.770719 0.759713 0.581439 0.422862 0.620087 0.889606 0.703924 0.557984 0.53059 0.53878 0.502655 0.478108 0.4895 0.538314 0.700089 1.151 1.07055 1.4671 0.783971 0.799373 0.850382 0.346305 0.414957 0.369388 0.539067 0.871548 0.887282 0.555581 1.57858 1.25465 0.897182 0.605646 0.420883 0.507156 0.609062 0.635514 0.699351 0.781486 0.764482 0.452359 0.605205 0.696704 0.768597 0.837433 0.86163 0.842404 0.791825 0.756343 0.503011 0.443909 0.766109 0.788131 0.706983 0.644436 0.610933 0.505858 0.421151 0.605799 0.896996 1.25322 1.57833 0.557404 0.88728 0.871694 0.541467 0.370046 0.415214 0.455096 0.426072 0.337504 0.660712 0.894751 0.578188 0.736494 0.694823 1.06255 0.717852 0.400935 0.44347 0.432448 0.431522 0.62367 0.745035 0.687336 0.692972 0.753099 0.704387 0.531484 0.443555 0.561987 0.60463 0.683053 0.734255 0.768002 0.800554 0.816233 0.843179 0.836245 0.846021 0.823892 0.813392 0.787347 0.768634 0.722791 0.636589 0.53901 0.416872 0.528681 0.698033 0.758149 0.698803 0.692772 0.748714 0.625104 0.433486 0.433828 0.442804 0.400341 0.718315 1.06029 0.706778 0.737509 0.578761 0.892986 0.65875 0.337678 0.426626 0.454783 0.487659 0.492821 0.458212 0.439456 0.300043 0.705247 0.737978 0.923334 0.695146 0.231503 0.447547 0.498665 0.645939 0.789031 0.771301 0.716396 0.628714 0.697241 0.644218 0.518129 0.650308 0.737403 0.788294 0.818208 0.821692 0.800765 0.761948 0.676751 0.514858 0.643855 0.695885 0.634369 0.718006 0.772834 0.790865 0.64487 0.498514 0.446591 0.225425 0.691001 0.924496 0.740384 0.70643 0.303186 0.435871 0.457611 0.491791 0.486945 0.240677 0.461872 0.318154 0.115925 0.966257 0.858577 0.758976 0.88978 0.856099 0.620645 0.334575 0.538927 0.615763 0.786016 0.856393 0.801535 0.715854 0.744089 0.639698 0.548159 0.603257 0.702007 0.764165 0.796769 0.811004 0.803984 0.78037 0.728333 0.60788 0.561473 0.642819 0.733571 0.719012 0.802975 0.857653 0.786859 0.61564 0.539985 0.33428 0.621551 0.853559 0.890495 0.75893 0.859962 0.966604 0.11557 0.31718 0.462215 0.240111 0.115631 0.894618 0.669239 0.291318 0.176476 0.336398 0.996784 0.815635 0.782545 0.706457 0.82482 0.358355 0.327447 0.755441 0.800453 0.840592 0.787904 0.810123 0.745883 0.609186 0.590152 0.552755 0.558392 0.62056 0.66824 0.705953 0.737279 0.75724 0.776001 0.780392 0.796255 0.790078 0.799352 0.786453 0.786373 0.769962 0.755735 0.723657 0.689893 0.634116 0.573997 0.575784 0.599975 0.613542 0.75053 0.818259 0.783336 0.84041 0.790011 0.754162 0.334802 0.359911 0.826111 0.706298 0.78326 0.815997 0.998031 0.337174 0.175748 0.291419 0.668374 0.892706 0.115153 0.0696417 0.236336 0.661031 0.348 0.265809 0.0791448 0.190208 0.844174 0.785533 0.734788 0.65966 0.798353 0.721913 0.680999 0.168419 0.652291 0.589932 0.916568 0.918291 0.828139 0.525152 0.684116 0.286963 0.607452 0.573215 0.66428 0.733789 0.765692 0.779514 0.781888 0.773853 0.746795 0.680131 0.590394 0.615017 0.313749 0.674525 0.535653 0.837064 0.915569 0.915073 0.588018 0.653676 0.174109 0.683739 0.723309 0.797482 0.659708 0.735023 0.78525 0.844195 0.189086 0.078437 0.265499 0.346953 0.660492 0.235158 0.0687529 0.0284972 0.0398276 0.107318 0.17254 0.535576 0.366232 0.154607 0.06313 0.367564 0.722897 0.651556 0.466374 0.685867 0.384251 0.629433 0.557216 0.473282 0.655941 0.896918 0.805872 0.501409 0.669389 0.550584 0.633666 0.703575 0.749805 0.768686 0.775118 0.773186 0.75804 0.714753 0.648352 0.56963 0.670124 0.546649 0.804141 0.889159 0.650356 0.469233 0.55849 0.631538 0.383342 0.686715 0.465704 0.651107 0.722773 0.368237 0.0630345 0.154206 0.366653 0.535437 0.170366 0.106519 0.0391065 0.0290394 0.140532 0.0942728 0.0748055 0.154398 0.154661 0.574158 0.520084 0.278218 0.21868 0.351245 0.680969 0.475351 0.396982 0.370148 0.64482 0.385708 0.383532 1.07918 1.12641 1.1149 0.429982 0.676329 0.359742 0.494878 0.572502 0.604313 0.655499 0.679231 0.709432 0.730486 0.747677 0.757672 0.76028 0.767846 0.765196 0.769645 0.763328 0.763176 0.751261 0.736893 0.716244 0.690105 0.6659 0.621934 0.587275 0.500807 0.358885 0.681525 0.424878 1.11479 1.12878 1.07529 0.373093 0.387485 0.644451 0.366958 0.39618 0.474897 0.680538 0.3517 0.218904 0.278226 0.519871 0.573687 0.15255 0.154248 0.0754251 0.0948139 0.141128 0.178393 0.103462 0.114999 0.223493 0.458889 0.429425 0.357591 0.390538 0.510295 0.604215 0.573149 0.459124 0.341327 0.492627 0.499479 0.417335 0.752408 0.217074 0.479528 0.484878 0.676757 0.695197 0.631717 0.691654 0.728308 0.753697 0.760414 0.762461 0.756122 0.732013 0.698804 0.64052 0.707503 0.675549 0.473891 0.480474 0.248019 0.740801 0.421863 0.501426 0.494429 0.339932 0.458602 0.572987 0.604184 0.510546 0.390789 0.357719 0.42965 0.459317 0.224468 0.115037 0.104153 0.179033 0.218013 0.152987 0.152201 0.110517 0.0424742 0.349021 0.53556 0.498642 0.460768 0.460453 0.50365 0.50818 0.437481 0.380115 0.323169 0.564887 0.600165 0.576196 0.402947 0.953738 0.499187 0.53849 0.643313 0.641175 0.581061 0.579187 0.667967 0.713505 0.740429 0.756245 0.760465 0.759349 0.743006 0.71857 0.673689 0.589721 0.585202 0.642065 0.63773 0.537336 0.517951 0.942032 0.395995 0.57571 0.595725 0.564274 0.321614 0.380012 0.43765 0.508608 0.50385 0.460886 0.461146 0.49908 0.535885 0.349914 0.0423675 0.110794 0.152699 0.153626 0.218536 0.243812 0.221049 0.189672 0.195197 0.101527 0.117237 0.206764 0.556468 0.553311 0.461382 0.467669 0.472796 0.455825 0.414817 0.356726 0.264859 0.302343 0.40514 0.517278 0.212974 0.497748 0.831468 0.61851 0.623157 0.598314 0.606805 0.634623 0.662316 0.692017 0.716472 0.726854 0.738705 0.751213 0.754314 0.757573 0.759899 0.759523 0.758498 0.753113 0.742852 0.733389 0.722046 0.696734 0.667618 0.64151 0.608464 0.598747 0.620139 0.614035 0.827806 0.490627 0.216675 0.517247 0.407061 0.30281 0.265114 0.357667 0.415401 0.456344 0.473198 0.46802 0.461653 0.553753 0.55701 0.206492 0.116479 0.101632 0.195687 0.190234 0.221546 0.244237 0.287106 0.256657 0.241757 0.229862 0.149643 0.0825629 0.0284927 0.0205769 0.528668 0.639487 0.557475 0.504496 0.49023 0.468198 0.442387 0.397261 0.346826 0.280746 0.214479 0.376209 0.716086 0.635293 0.424325 0.447062 0.633345 0.670268 0.591603 0.605484 0.599561 0.599312 0.635689 0.699416 0.731286 0.746759 0.759297 0.761819 0.754077 0.736478 0.704933 0.637178 0.599604 0.596071 0.603864 0.591949 0.671577 0.635711 0.451274 0.420727 0.639364 0.718183 0.377073 0.215302 0.282295 0.347999 0.398388 0.442865 0.468671 0.490411 0.504727 0.557824 0.639314 0.528556 0.020934 0.0282443 0.083164 0.150061 0.230346 0.242222 0.257065 0.287465 0.481549 0.268995 0.263606 0.237178 0.194248 0.14693 0.133352 0.225523 0.541594 0.664068 0.540255 0.508015 0.478504 0.443576 0.397448 0.339282 0.257078 0.151453 0.264347 0.875579 0.700453 0.578573 0.595575 0.628651 0.630421 0.610249 0.612913 0.623605 0.636654 0.719152 0.745166 0.756216 0.763568 0.762669 0.752257 0.721878 0.629601 0.621544 0.610636 0.60669 0.627092 0.627571 0.597362 0.583757 0.702629 0.876008 0.267038 0.152531 0.258528 0.340362 0.397924 0.444203 0.478766 0.508172 0.540384 0.663969 0.541864 0.22593 0.133904 0.14772 0.194925 0.237915 0.263892 0.269466 0.481388 0.440132 0.519169 0.482971 0.291528 0.270732 0.171872 0.218467 0.235758 0.386982 0.688073 0.636109 0.55105 0.505066 1.00164 0.752265 0.619294 0.50492 0.503033 0.613094 0.623534 0.610758 0.603572 0.598264 0.589528 0.702485 0.729519 0.736449 0.749853 0.75426 0.763116 0.763107 0.768323 0.767322 0.773742 0.763631 0.756497 0.739154 0.730234 0.707118 0.590288 0.595559 0.600076 0.609835 0.622041 0.611758 0.503755 0.503085 0.621067 0.753233 1.00109 0.505203 0.551242 0.63593 0.688187 0.38681 0.23647 0.219037 0.172743 0.271149 0.292069 0.483071 0.519225 0.439965 0.396814 0.424061 0.420608 0.441001 0.240361 0.0941145 0.192428 0.323632 0.422913 0.617987 0.691098 0.599604 0.4574 0.419635 0.360135 0.290321 0.186685 0.0812668 1.04687 0.797497 0.655353 0.548237 0.530486 0.562984 0.586017 0.609366 0.59592 0.59019 0.58769 0.609689 0.621815 0.661354 0.73535 0.772305 0.768066 0.777141 0.781756 0.738745 0.65881 0.620621 0.604998 0.589574 0.588642 0.595162 0.607818 0.586139 0.563071 0.531259 0.548883 0.656365 0.797554 1.04528 0.0839863 0.187559 0.291331 0.361049 0.420371 0.457807 0.599528 0.690418 0.619576 0.423074 0.323991 0.192004 0.0939755 0.241174 0.441123 0.420551 0.423792 0.396622 0.660824 0.55091 0.410303 0.340579 0.377308 0.346385 0.373416 0.316314 0.137479 0.141131 0.291018 0.52576 0.729037 0.535054 0.484841 0.438067 0.406051 0.354043 0.319216 0.290035 0.608803 0.568923 0.562111 0.584966 0.60732 0.616471 0.581475 0.57849 0.590343 0.604634 0.636928 0.643341 0.739577 0.762679 0.776769 0.773909 0.791573 0.771666 0.737341 0.631599 0.628286 0.601109 0.592848 0.577015 0.580701 0.614022 0.608166 0.587044 0.562922 0.569881 0.609811 0.283561 0.318208 0.354794 0.406356 0.438906 0.485125 0.535156 0.729358 0.527081 0.290508 0.140833 0.137478 0.316726 0.373416 0.346322 0.377292 0.340249 0.410071 0.550962 0.660957 0.600867 0.308961 0.271459 0.304743 0.221544 0.166664 0.226049 0.436371 0.68125 0.758603 0.613387 0.561555 0.509828 0.456436 0.437763 0.411442 0.433491 0.515898 1.0212 0.856597 0.704683 0.581526 0.581942 0.59612 0.60638 0.607609 0.595422 0.569079 0.591655 0.613228 0.628807 0.698705 0.792511 0.777227 0.803791 0.800322 0.776681 0.781536 0.788802 0.806137 0.807169 0.782205 0.80908 0.69619 0.621979 0.610024 0.590687 0.571325 0.595956 0.605797 0.606385 0.596826 0.582333 0.581593 0.704798 0.855809 1.01994 0.514549 0.432164 0.411402 0.438641 0.457021 0.509996 0.561663 0.612957 0.757169 0.680944 0.435924 0.226195 0.166629 0.2216 0.304706 0.271356 0.308791 0.600922 0.467583 0.5541 0.614248 0.281034 0.277341 0.175608 0.172338 0.454081 0.582012 0.57771 0.53535 0.476328 0.4472 0.456418 0.437003 0.558269 0.80522 0.882482 0.753185 0.661092 0.607441 0.584503 0.591884 0.602358 0.604935 0.573703 0.566544 0.857917 0.782175 0.790349 0.84742 0.565868 0.575271 0.604435 0.602854 0.593039 0.585003 0.607685 0.661149 0.752653 0.881233 0.809671 0.557187 0.437036 0.456343 0.448473 0.476809 0.535345 0.577583 0.582472 0.454078 0.172794 0.175731 0.277563 0.280897 0.614515 0.554156 0.467573 0.53388 0.491617 0.616488 0.609256 0.288654 0.286456 0.228786 0.196319 0.272387 0.672397 0.688427 0.616715 0.561724 0.489592 0.457662 0.669566 0.881791 0.778563 0.704252 0.645246 0.609457 0.591237 0.598353 0.607499 0.619785 0.557388 0.557674 0.571156 0.591168 0.61855 0.663819 0.772356 0.740526 0.815467 0.776963 0.813957 0.745334 0.79275 0.659705 0.617441 0.593373 0.569738 0.556964 0.558083 0.61966 0.607687 0.600115 0.590792 0.60936 0.645611 0.703347 0.777362 0.881808 0.670277 0.458693 0.489829 0.561276 0.6165 0.68777 0.671757 0.27283 0.196696 0.229019 0.286611 0.288602 0.609487 0.616719 0.491573 0.533879 0.541943 0.527698 0.578806 0.260775 0.211702 0.537808 0.661712 0.660427 0.600193 0.534854 0.45025 0.464953 0.534648 0.683748 0.834206 0.796228 0.730327 0.6845 0.641008 0.614347 0.599595 0.594069 0.635008 0.550859 0.559913 0.578051 0.604152 0.640566 0.663267 0.784938 0.708296 0.933896 0.811971 0.776963 0.780935 0.787996 0.822897 0.907629 0.658775 0.805565 0.646905 0.63795 0.604325 0.574543 0.556218 0.549297 0.634738 0.595432 0.599325 0.613756 0.641259 0.68484 0.727706 0.796666 0.834846 0.683652 0.534506 0.46542 0.450623 0.534077 0.599503 0.659695 0.660462 0.537537 0.212238 0.261069 0.57906 0.527875 0.54209 0.462888 0.547482 0.555695 0.22094 0.463404 0.439503 0.738836 0.567034 0.44955 0.449483 0.46534 0.542242 0.714891 0.672411 0.640835 0.62171 0.611628 0.608334 0.61024 0.619723 0.551717 0.568123 0.590303 0.628143 0.646122 0.805029 0.741317 1.04391 0.796684 0.79343 0.990657 0.843652 0.65622 0.628224 0.585499 0.559499 0.544321 0.619554 0.612229 0.610971 0.612314 0.621448 0.640573 0.672642 0.71454 0.542709 0.466988 0.449725 0.450766 0.567311 0.738407 0.439103 0.462793 0.22135 0.555927 0.54769 0.463015 0.479756 0.551532 0.543091 0.51575 0.462786 0.723405 0.519479 0.525461 0.635162 0.575855 0.529732 0.426909 0.462188 0.55259 0.671735 0.805399 0.811234 0.755749 0.643218 0.630168 0.624401 0.624285 0.622919 0.6305 0.646163 0.813924 0.777864 0.808857 0.801999 0.645886 0.626843 0.624051 0.62806 0.627195 0.630875 0.643461 0.754274 0.810911 0.805032 0.671382 0.552759 0.462205 0.427792 0.52865 0.574698 0.634074 0.52566 0.519994 0.722813 0.462897 0.515999 0.543283 0.551713 0.479884 0.406236 0.440666 0.499981 0.508952 0.546269 0.532973 0.679386 0.613746 0.555003 0.541003 0.384684 0.513674 0.649793 0.801332 0.787318 0.781258 0.741864 0.697244 0.665471 0.640535 0.645743 0.627927 0.631672 0.672872 0.556458 0.577612 0.601138 0.653761 0.608817 0.82124 0.66151 0.937137 0.789296 0.778305 0.779633 0.780679 0.808658 0.915595 0.532492 0.927083 0.667365 0.684928 0.612988 0.56929 0.54411 0.671998 0.639015 0.630175 0.637685 0.643389 0.66542 0.697075 0.741546 0.779838 0.785788 0.801256 0.649973 0.513467 0.386005 0.53922 0.553873 0.612343 0.679315 0.532938 0.546434 0.509052 0.500129 0.440757 0.406283 0.529284 0.516058 0.318222 0.508247 0.624763 0.537917 0.509053 0.589849 0.551993 0.546535 0.634432 0.749944 0.762456 0.768078 0.768962 0.720858 0.687301 0.663564 0.648247 0.641119 0.606534 0.663134 0.689111 0.557715 0.844838 0.65021 0.884413 0.806846 0.749718 0.925945 0.793042 0.789562 0.83961 0.652415 0.889457 0.881752 0.706065 0.85657 0.54844 0.708304 0.654587 0.681174 0.643028 0.649375 0.664029 0.687207 0.721274 0.768257 0.765824 0.761438 0.750698 0.634328 0.544587 0.550851 0.588534 0.508753 0.538341 0.625328 0.508201 0.318614 0.516206 0.529366 0.53338 0.47241 0.545072 0.704291 0.611277 0.546824 0.494203 0.434871 0.642692 0.749282 0.686655 0.774603 0.767075 0.745713 0.706244 0.681531 0.664585 0.656374 0.653467 0.655749 0.648249 0.634017 0.655932 0.701201 0.781058 0.786788 0.843488 0.733901 0.643346 0.648052 0.653149 0.656949 0.664909 0.681232 0.706215 0.747489 0.765301 0.774564 0.685972 0.748893 0.642525 0.435865 0.494062 0.546862 0.611634 0.704415 0.545243 0.472567 0.533411 0.587586 0.560393 0.561202 0.540093 0.589255 0.65302 0.592131 0.534948 0.484115 0.576164 0.54865 0.559311 0.676891 0.667757 0.662598 0.656564 0.649681 0.6443 0.743745 0.774186 0.882571 0.841477 0.663288 0.781577 0.587324 0.802586 0.782542 0.785804 0.64777 0.717349 0.596708 0.759915 0.832741 0.856748 0.57906 0.793879 0.67495 0.65306 0.652563 0.658049 0.66251 0.66807 0.676746 0.557938 0.547128 0.57497 0.484208 0.535192 0.592067 0.653177 0.589379 0.540359 0.56133 0.560398 0.587637 0.734937 0.800886 0.692613 0.621605 0.667041 0.568386 0.539912 0.759236 0.621596 0.706514 0.704494 0.738222 0.74781 0.749105 0.726938 0.69677 0.666884 0.652505 0.64838 0.693936 0.775802 0.721749 0.856937 0.87347 0.85107 0.774481 0.766035 0.634627 0.764965 0.860289 0.786001 0.705011 0.52564 0.761582 0.795829 0.83456 0.784745 0.870999 0.721263 0.787269 0.680478 0.659033 0.660889 0.666638 0.696628 0.727008 0.749766 0.746786 0.738582 0.704263 0.706242 0.62043 0.760553 0.538351 0.567251 0.66736 0.621787 0.692736 0.800853 0.734922 0.553967 0.625461 0.572865 0.518113 0.466209 0.551776 0.761478 0.733941 0.694411 0.711132 0.722291 0.738351 0.741855 0.734494 0.713743 0.683085 0.676513 0.673169 0.659137 0.801133 0.861231 0.765153 0.761049 0.760169 0.794739 0.80557 0.689235 0.672606 0.677628 0.683254 0.713509 0.734664 0.742465 0.739477 0.723623 0.711503 0.694044 0.735335 0.762849 0.549964 0.466774 0.518104 0.572945 0.625576 0.553992 0.736108 0.704116 0.768523 0.663641 0.712785 0.649641 0.603348 0.552701 0.501709 0.443279 0.769569 0.7375 0.719438 0.710014 0.723863 0.726619 0.738515 0.740692 0.723935 0.692849 0.681516 0.678779 0.679096 0.671024 0.650099 0.648345 0.829666 0.873526 0.836494 0.810206 0.68994 0.775344 0.753349 0.76046 0.75728 0.759579 0.602456 0.795825 0.829207 0.872012 0.832692 0.670338 0.660612 0.672319 0.679074 0.680572 0.684496 0.692875 0.723018 0.740915 0.742737 0.729683 0.725757 0.709841 0.719711 0.738404 0.77109 0.44355 0.502104 0.552791 0.603417 0.649923 0.713101 0.663787 0.768576 0.704129 0.736138 0.744717 0.805545 0.714663 0.764876 0.815163 0.763352 0.726008 0.677793 0.630501 0.578532 0.708126 0.691845 0.690251 0.6812 0.683193 0.68192 0.67112 0.637282 0.652157 0.834774 0.80202 0.885509 0.848845 0.836829 0.782894 0.822438 0.704807 0.794706 0.75187 0.755338 0.758035 0.657077 0.806507 0.790152 0.818586 0.859572 0.866302 0.816293 0.842975 0.677097 0.639249 0.67693 0.688138 0.683901 0.686133 0.694741 0.692684 0.711047 0.577475 0.629628 0.6778 0.725971 0.7634 0.81523 0.764855 0.714663 0.805585 0.744719 0.791694 0.724894 0.845905 0.788714 0.737746 0.722897 0.718943 0.724146 0.732267 0.731822 0.757603 0.76158 0.765322 0.749357 0.837714 0.836966 0.8078 0.740903 0.788678 0.764019 0.710086 0.787857 0.837017 0.843733 0.720826 0.747822 0.755955 0.761967 0.734631 0.737069 0.724604 0.718675 0.723568 0.7395 0.788855 0.846017 0.724882 0.791746 0.784131 0.746025 0.705202 0.668983 0.623394 0.834837 0.689415 0.719487 0.718913 0.725192 0.728455 0.750844 0.769064 0.785167 0.805133 0.782577 0.772943 0.768301 0.769867 0.77161 0.94953 0.827333 0.807216 0.845485 0.845705 0.827305 0.765306 0.727422 0.748006 0.817722 0.816778 0.803316 0.895893 0.912662 0.763095 0.754259 0.763123 0.772279 0.785366 0.801502 0.78806 0.768194 0.75477 0.731988 0.725588 0.719084 0.720694 0.692371 0.835492 0.623202 0.669147 0.705491 0.746183 0.784097 0.847679 0.850787 0.793007 0.879197 0.805619 0.75073 0.69878 0.646023 0.600541 0.8963 0.776019 0.821997 0.714812 0.720233 0.722857 0.75529 0.799423 0.810676 0.822329 0.806044 0.779304 0.770425 0.770306 0.770529 0.770951 0.894222 0.890173 0.827051 0.922643 0.846395 0.950103 0.856596 0.942914 0.883999 0.809315 0.867675 0.837339 0.766455 0.7938 0.777722 0.858599 0.979644 0.819583 0.987071 0.809872 0.880803 0.846541 0.919014 0.855657 0.759138 0.741934 0.760406 0.766272 0.776225 0.8139 0.814167 0.807068 0.796767 0.760131 0.726838 0.71996 0.715079 0.822235 0.77933 0.896181 0.60065 0.646215 0.699217 0.751102 0.805918 0.879475 0.793174 0.85098 0.847807 0.839916 0.894855 0.86706 0.775811 0.778613 0.916504 0.979797 0.966369 0.960416 0.820952 0.845736 0.795459 0.790388 1.03168 1.00375 0.901007 0.938006 0.783746 0.778022 0.867349 0.894855 0.840082 0.874828 0.894057 0.857722 0.861019 0.850496 0.818146 0.925789 0.899693 0.873041 0.795549 0.785517 0.770117 0.834684 0.833426 0.81408 0.832353 0.83114 0.783644 0.770528 0.87163 0.857823 0.856042 0.875062 0.871586 0.874388 0.859448 0.831397 0.756025 0.799439 0.860786 0.835633 0.833623 0.848959 0.838629 0.849187 0.772349 0.774266 0.847535 0.834793 0.818213 0.833416 0.8367 0.774691 0.788086 0.79783 0.874553 0.899639 0.925705 0.819052 0.851322 0.861642 0.858147 0.894058 0.874962 0.893518 0.898119 0.865852 0.900231 0.887657 0.884695 0.897805 0.89449 0.868445 0.903798 0.905228 0.903644 0.903258 0.90026 0.874207 0.876957 0.83762 0.835231 0.836592 0.826258 0.829291 0.878581 0.867904 0.895631 0.902769 0.879915 0.905347 0.872836 0.907021 0.882227 0.909756 0.87477 0.912822 0.869566 0.834739 0.850151 0.84552 0.850574 0.75808 0.813816 0.800635 0.870166 0.943408 0.862989 0.923617 0.864928 0.911166 0.879711 0.903301 0.877292 0.898726 0.891916 0.864912 0.874795 0.820652 0.828963 0.834542 0.835872 0.839047 0.87724 0.873162 0.900034 0.903128 0.903816 0.90459 0.903276 0.868218 0.894338 0.897644 0.884582 0.887536 0.900103 0.865734 0.898077 0.893423 0.852887 0.89602 0.89933 0.873311 0.894771 0.889012 0.887516 0.898365 0.89583 0.874173 0.899405 0.897209 0.909348 0.912335 0.912464 0.900867 0.896198 0.877888 0.861397 0.853917 0.850145 0.888989 0.887313 0.872069 0.894784 0.903925 0.881095 0.905914 0.876222 0.907438 0.883477 0.911007 0.879013 0.915899 0.873441 0.855873 0.849239 0.861199 0.793091 0.853256 0.907735 0.877998 0.901202 0.87558 0.899676 0.876491 0.898827 0.885899 0.901381 0.883452 0.902252 0.895537 0.873121 0.887481 0.883644 0.849134 0.854834 0.861153 0.873671 0.894765 0.900287 0.911833 0.911963 0.909017 0.897222 0.899421 0.8738 0.895586 0.898164 0.887401 0.888918 0.894772 0.873246 0.899319 0.895976 0.896042 0.898909 0.878823 0.894882 0.887639 0.885348 0.891885 0.888483 0.869201 0.899879 0.897833 0.906423 0.909378 0.910826 0.903038 0.901646 0.898238 0.880852 0.867714 0.873106 0.904772 0.886479 0.874312 0.893785 0.893964 0.882345 0.893847 0.879013 0.894747 0.884574 0.895635 0.881808 0.897205 0.875829 0.868928 0.864444 0.881433 0.882623 0.844911 0.880047 0.914551 0.880893 0.904943 0.881843 0.902508 0.883682 0.901012 0.887537 0.898023 0.88625 0.895727 0.896087 0.877077 0.887882 0.904008 0.86762 0.869748 0.878847 0.896905 0.901887 0.903448 0.910312 0.909066 0.906074 0.897826 0.899878 0.868884 0.888283 0.891725 0.885263 0.88757 0.89488 0.878777 0.898901 0.896009 0.895363 0.898318 0.883509 0.894826 0.887154 0.884253 0.887215 0.883282 0.865907 0.899465 0.897725 0.903162 0.905528 0.908004 0.901816 0.901146 0.899493 0.894512 0.881399 0.891037 0.903512 0.885628 0.876132 0.893028 0.894011 0.883488 0.893911 0.881129 0.894733 0.885534 0.896383 0.883071 0.898281 0.877756 0.875726 0.867106 0.888479 0.891279 0.864874 0.890279 0.897731 0.881348 0.895425 0.884558 0.894619 0.887264 0.893832 0.887761 0.893916 0.887185 0.894141 0.895106 0.879058 0.887128 0.903672 0.886247 0.88009 0.892599 0.8997 0.901901 0.902423 0.907588 0.905206 0.902886 0.897718 0.899463 0.865655 0.883129 0.887097 0.884193 0.887107 0.894826 0.883479 0.898313 0.89534 0.894551 0.897693 0.887117 0.894754 0.88741 0.884134 0.884459 0.880279 0.864575 0.898807 0.897471 0.900306 0.901848 0.905186 0.900303 0.899415 0.8974 0.897388 0.89139 0.895829 0.900601 0.885563 0.87855 0.892637 0.893832 0.8848 0.893832 0.882656 0.893832 0.885928 0.893832 0.883436 0.893832 0.878633 0.894697 0.867812 0.898831 0.893502 0.880736 0.889664 0.898504 0.881601 0.896073 0.886497 0.89461 0.889302 0.893861 0.888573 0.893832 0.888152 0.893832 0.894459 0.881272 0.886803 0.900964 0.895175 0.889746 0.897209 0.89792 0.900146 0.900901 0.904827 0.901567 0.900101 0.897466 0.898805 0.864378 0.880164 0.884374 0.884093 0.88738 0.894753 0.887097 0.89769 0.894535 0.893807 0.897049 0.889721 0.894668 0.888145 0.884723 0.883257 0.879025 0.864873 0.898029 0.897156 0.897938 0.898679 0.902436 0.898751 0.897485 0.894996 0.895552 0.893706 0.89505 0.897772 0.885689 0.881268 0.892442 0.893832 0.885971 0.893832 0.884225 0.893832 0.886386 0.893832 0.883472 0.893832 0.87955 0.894833 0.868489 0.89974 0.893497 0.887635 0.885722 0.893832 0.882043 0.893832 0.887384 0.893832 0.890158 0.893832 0.889422 0.893832 0.889037 0.893832 0.89405 0.883511 0.886874 0.898314 0.896106 0.893439 0.89603 0.89554 0.898095 0.899299 0.902115 0.898457 0.897784 0.897151 0.898029 0.864723 0.878941 0.883199 0.884696 0.888125 0.894667 0.889708 0.897047 0.893796 0.893261 0.896392 0.891484 0.89457 0.889104 0.885729 0.883186 0.879025 0.866365 0.897181 0.896788 0.896011 0.896027 0.899848 0.897188 0.89555 0.892753 0.892937 0.892214 0.893285 0.89525 0.885902 0.883756 0.892363 0.893832 0.886953 0.893832 0.885605 0.893832 0.886648 0.893832 0.88351 0.893832 0.880401 0.893832 0.868131 0.893832 0.892261 0.88999 0.881707 0.893832 0.882666 0.893832 0.888009 0.893832 0.890476 0.893832 0.89004 0.893832 0.889739 0.893832 0.893789 0.885617 0.887199 0.895904 0.894517 0.892665 0.893486 0.893233 0.896051 0.897672 0.899581 0.895846 0.895896 0.896785 0.89718 0.866253 0.878965 0.883147 0.885711 0.889092 0.89457 0.891476 0.896391 0.893254 0.892907 0.895737 0.892603 0.894462 0.890081 0.886911 0.883843 0.879854 0.868633 0.896298 0.896377 0.89448 0.893827 0.89752 0.895654 0.89368 0.890756 0.890489 0.889976 0.891592 0.89311 0.886281 0.885835 0.892358 0.893832 0.887751 0.893832 0.886571 0.893832 0.886773 0.893832 0.883596 0.893832 0.881187 0.893832 0.868712 0.893832 0.89104 0.887994 0.8789 0.893832 0.883412 0.893832 0.888255 0.893832 0.890568 0.893832 0.890417 0.893832 0.890236 0.893832 0.893592 0.887472 0.887613 0.893784 0.892654 0.890558 0.890993 0.891142 0.89409 0.896066 0.897309 0.893676 0.894397 0.896375 0.896296 0.868551 0.879813 0.883817 0.8869 0.890073 0.894462 0.892598 0.895737 0.892903 0.892648 0.8951 0.893265 0.894346 0.890949 0.888096 0.884892 0.881167 0.871331 0.895421 0.895931 0.893291 0.892048 0.895472 0.894187 0.891927 0.889007 0.888362 0.887946 0.890121 0.891351 0.886803 0.887547 0.892383 0.893832 0.888382 0.893832 0.887194 0.893832 0.886878 0.893832 0.883728 0.893832 0.88192 0.893832 0.869867 0.893832 0.887718 0.877117 0.893832 0.884215 0.893832 0.888243 0.893832 0.890497 0.893832 0.890604 0.893832 0.890569 0.893832 0.893422 0.889004 0.888029 0.891983 0.890994 0.888479 0.888802 0.889302 0.892261 0.894526 0.89531 0.891925 0.893233 0.895929 0.895418 0.871272 0.881139 0.884876 0.888089 0.890945 0.894346 0.893262 0.895099 0.892646 0.887421 0.892402 0.894493 0.893612 0.894223 0.891648 0.889172 0.886088 0.882699 0.874188 0.894584 0.895457 0.892374 0.89066 0.893695 0.892812 0.890335 0.88749 0.886584 0.886291 0.888888 0.88995 0.887377 0.888928 0.89241 0.893832 0.888866 0.893832 0.887636 0.893832 0.887006 0.893832 0.883925 0.893832 0.882607 0.893832 0.87109 0.893832 0.883948 0.888048 0.87616 0.893832 0.884976 0.893832 0.888151 0.893832 0.890315 0.893832 0.890654 0.893832 0.890775 0.893832 0.893272 0.890179 0.888418 0.89051 0.889599 0.886746 0.886955 0.887711 0.890603 0.893084 0.89357 0.890563 0.892336 0.895456 0.894581 0.874147 0.882681 0.886079 0.889168 0.891646 0.894223 0.89361 0.894493 0.8924 0.892138 0.893927 0.893757 0.894098 0.892161 0.890073 0.887267 0.884261 0.877002 0.893818 0.894965 0.891661 0.889612 0.892173 0.891546 0.888937 0.88619 0.885157 0.885011 0.887895 0.888873 0.887931 0.889988 0.892424 0.893832 0.889225 0.893832 0.887996 0.893832 0.887145 0.893832 0.884206 0.893832 0.883258 0.893832 0.872306 0.893832 0.888101 0.875868 0.893832 0.88563 0.893832 0.888082 0.893832 0.890093 0.893832 0.890623 0.893832 0.890879 0.893832 0.893135 0.891012 0.888775 0.889355 0.888471 0.885387 0.885461 0.886357 0.889147 0.89176 0.892079 0.889539 0.891638 0.894964 0.893815 0.876974 0.884249 0.887261 0.890071 0.89216 0.894097 0.893756 0.893927 0.892137 0.881177 0.891868 0.893411 0.893779 0.89397 0.8925 0.890776 0.888326 0.885726 0.879627 0.893143 0.894463 0.891088 0.888845 0.890892 0.890401 0.887746 0.885106 0.884066 0.88407 0.887133 0.888086 0.888428 0.890756 0.892421 0.893832 0.889488 0.893832 0.888315 0.893832 0.887287 0.893832 0.884569 0.893832 0.88388 0.893832 0.873505 0.893832 0.878711 0.888245 0.876076 0.893832 0.886173 0.893832 0.888051 0.893832 0.889875 0.893832 0.890556 0.893832 0.890907 0.893832 0.893006 0.891564 0.889101 0.888495 0.887597 0.884376 0.884308 0.885233 0.887909 0.890566 0.890821 0.88879 0.891076 0.894462 0.89314 0.879608 0.885718 0.888322 0.890775 0.892499 0.89397 0.893779 0.893411 0.891867 0.89161 0.892951 0.893724 0.893844 0.892692 0.891287 0.889211 0.887018 0.881969 0.892572 0.886763 0.884232 0.883282 0.883427 0.886585 0.887551 0.888856 0.891279 0.892403 0.893832 0.889679 0.893832 0.888605 0.893832 0.887433 0.893832 0.884993 0.893832 0.884471 0.893832 0.874685 0.893832 0.888625 0.876625 0.893832 0.886623 0.893832 0.888057 0.893832 0.889679 0.893832 0.890483 0.893832 0.890885 0.893832 0.89288 0.891905 0.889389 0.887892 0.886954 0.883674 0.88347 0.884329 0.886885 0.892569 0.881957 0.887013 0.889209 0.891286 0.892691 0.893844 0.893724 0.892951 0.89161 0.89396 0.890608 0.888295 0.88983 0.889384 0.876452 0.889509 0.889777 0.888255 0.890602 0.89396 0.891382 0.892549 0.893623 0.89372 0.892769 0.891627 0.889909 0.888105 0.883983 0.892109 0.893466 0.890183 0.887907 0.888964 0.888497 0.885973 0.88356 0.882768 0.883041 0.886224 0.887227 0.889214 0.891616 0.892371 0.893832 0.889821 0.893832 0.888867 0.893832 0.887583 0.893832 0.885447 0.893832 0.885024 0.893832 0.875853 0.893832 0.874438 0.889136 0.877386 0.893832 0.886995 0.893832 0.888102 0.893832 0.889512 0.893832 0.89042 0.893832 0.890834 0.893832 0.892758 0.892097 0.889634 0.887508 0.886514 0.883236 0.882911 0.883635 0.886063 0.88859 0.888926 0.887879 0.890182 0.893466 0.892106 0.883975 0.888102 0.889908 0.891627 0.892769 0.89372 0.893623 0.892549 0.891382 0.891817 0.893832 0.893832 0.893832 0.893832 0.893832 0.893832 0.893832 0.889688 0.893832 0.893832 0.893832 0.893832 0.893832 0.893832 0.892186 0.891191 0.892205 0.8935 0.893601 0.892769 0.891827 0.890431 0.888982 0.885656 0.891751 0.892988 0.889792 0.887634 0.888269 0.887737 0.885358 0.883076 0.882482 0.882866 0.886023 0.887076 0.889507 0.89233 0.889927 0.889103 0.887735 0.885906 0.885534 0.876986 0.872685 0.878257 0.887301 0.888179 0.889374 0.890372 0.890768 0.892641 0.889837 0.887303 0.886249 0.883019 0.882589 0.883133 0.885424 0.887806 0.888241 0.887615 0.889793 0.892987 0.891748 0.885651 0.88898 0.89043 0.891826 0.892769 0.893601 0.8935 0.892204 0.891191 0.891042 0.891915 0.893374 0.893489 0.892721 0.891918 0.890799 0.889666 0.887005 0.891489 0.892532 0.889421 0.887436 0.887719 0.887099 0.884896 0.882757 0.882379 0.88286 0.885953 0.88706 0.889744 0.891927 0.892282 0.893832 0.89001 0.893832 0.889312 0.893832 0.887883 0.893832 0.886349 0.893832 0.885991 0.893832 0.878055 0.893832 0.87119 0.890231 0.879161 0.893832 0.887552 0.893832 0.888277 0.893832 0.889264 0.893832 0.890338 0.893832 0.890699 0.893832 0.892532 0.892209 0.890002 0.88724 0.886126 0.882978 0.882457 0.882801 0.884943 0.887148 0.887699 0.887424 0.889423 0.892532 0.891486 0.887002 0.889664 0.890799 0.891918 0.892721 0.893489 0.893374 0.891915 0.891042 0.890934 0.891676 0.893254 0.893384 0.892648 0.891932 0.891042 0.890179 0.888061 0.89131 0.892105 0.889065 0.887287 0.887289 0.886573 0.884563 0.882578 0.882417 0.882981 0.885984 0.887144 0.889936 0.89198 0.892231 0.893832 0.890077 0.893832 0.889495 0.893832 0.888025 0.893832 0.886762 0.893832 0.886394 0.893832 0.879043 0.893832 0.869932 0.890737 0.88004 0.893832 0.887757 0.893832 0.888384 0.893832 0.889179 0.893832 0.890319 0.893832 0.890633 0.893832 0.892432 0.892195 0.890134 0.887284 0.886115 0.88307 0.882473 0.882611 0.884597 0.886609 0.887275 0.887279 0.889068 0.892105 0.891308 0.88806 0.890179 0.891042 0.891932 0.892648 0.893384 0.893254 0.891676 0.890934 0.890864 0.891483 0.893145 0.893288 0.892568 0.891897 0.891188 0.890552 0.888867 0.891199 0.891714 0.888726 0.887166 0.886958 0.88615 0.884337 0.882511 0.882555 0.883189 0.886087 0.887297 0.890089 0.892001 0.892179 0.893832 0.890131 0.893832 0.889653 0.893832 0.888158 0.893832 0.887136 0.893832 0.886742 0.893832 0.879937 0.893832 0.868889 0.89119 0.880857 0.893832 0.887924 0.893832 0.888493 0.893832 0.889117 0.893832 0.89031 0.893832 0.890575 0.893832 0.892341 0.892165 0.890241 0.887405 0.886186 0.883256 0.882594 0.882535 0.88436 0.886175 0.886948 0.887161 0.888728 0.891714 0.891198 0.888866 0.890552 0.891188 0.891896 0.892568 0.893288 0.893145 0.891483 0.890864 0.890824 0.89133 0.893049 0.893202 0.892492 0.891832 0.891265 0.890812 0.889465 0.891141 0.891362 0.888408 0.88706 0.886706 0.885818 0.884194 0.882527 0.882757 0.883449 0.886239 0.88749 0.890213 0.892006 0.89213 0.893832 0.890176 0.893832 0.889787 0.893832 0.88828 0.893832 0.887466 0.893832 0.887036 0.893832 0.880732 0.893832 0.868041 0.891582 0.881591 0.893832 0.888057 0.893832 0.888596 0.893832 0.889073 0.893832 0.890308 0.893832 0.890526 0.893832 0.89226 0.892131 0.890328 0.887572 0.886312 0.883499 0.882783 0.882544 0.88421 0.885834 0.886699 0.887058 0.88841 0.891362 0.89114 0.889464 0.890812 0.891265 0.891832 0.892492 0.893202 0.893049 0.89133 0.890824 0.890807 0.891213 0.892967 0.893126 0.892426 0.891756 0.891295 0.890986 0.889898 0.89112 0.891053 0.888118 0.886965 0.886517 0.885562 0.884113 0.882599 0.88299 0.88373 0.886414 0.8877 0.890311 0.892006 0.892085 0.893832 0.890213 0.893832 0.889898 0.893832 0.888389 0.893832 0.887747 0.893832 0.88728 0.893832 0.88142 0.893832 0.867366 0.891911 0.882227 0.893832 0.888162 0.893832 0.888689 0.893832 0.889044 0.893832 0.890312 0.893832 0.890487 0.893832 0.89219 0.892101 0.890399 0.887761 0.886468 0.883767 0.883007 0.88261 0.884124 0.885573 0.886512 0.886964 0.88812 0.891053 0.891119 0.889897 0.890986 0.891295 0.891756 0.892426 0.893126 0.892967 0.891212 0.890807 0.890804 0.891124 0.892898 0.893062 0.892372 0.89168 0.891298 0.891096 0.890202 0.891122 0.890792 0.887865 0.886879 0.886378 0.885371 0.884077 0.8827 0.883225 0.884005 0.886592 0.887906 0.890389 0.892005 0.892046 0.893832 0.890243 0.893832 0.889987 0.893832 0.888482 0.893832 0.887979 0.893832 0.887477 0.893832 0.881999 0.893832 0.86684 0.892178 0.882758 0.893832 0.888243 0.893832 0.88877 0.893832 0.889026 0.893832 0.890318 0.893832 0.890457 0.893832 0.892131 0.892078 0.890455 0.887951 0.886632 0.884031 0.883236 0.882708 0.884084 0.885378 0.886374 0.886879 0.887866 0.890792 0.891122 0.890202 0.891096 0.891298 0.89168 0.892372 0.893062 0.892898 0.891124 0.890804 0.89081 0.89106 0.892843 0.893011 0.892332 0.891613 0.891286 0.891162 0.890409 0.891138 0.890579 0.887655 0.886804 0.886277 0.885233 0.884068 0.882809 0.883441 0.88425 0.886756 0.88809 0.890449 0.892005 0.892013 0.893832 0.890266 0.893832 0.890056 0.893832 0.888559 0.893832 0.888163 0.893832 0.88763 0.893832 0.882465 0.893832 0.866444 0.892386 0.883183 0.893832 0.888303 0.893832 0.888836 0.893832 0.889016 0.893832 0.890325 0.893832 0.890436 0.893832 0.892084 0.892063 0.8905 0.888123 0.886785 0.884269 0.883447 0.882814 0.884073 0.885238 0.886275 0.886804 0.887656 0.890579 0.891137 0.890409 0.891162 0.891286 0.891613 0.892332 0.893011 0.892843 0.89106 0.89081 0.89082 0.891016 0.892802 0.892971 0.892303 0.89156 0.891269 0.8912 0.890544 0.891157 0.890419 0.887492 0.886743 0.886208 0.885139 0.884074 0.882907 0.883618 0.88445 0.886892 0.88824 0.890492 0.892007 0.891988 0.893832 0.890283 0.893832 0.890106 0.893832 0.888617 0.893832 0.888299 0.893832 0.887743 0.893832 0.882816 0.893832 0.866162 0.892538 0.8835 0.893832 0.888346 0.893832 0.888886 0.893832 0.889012 0.893832 0.890331 0.893832 0.890421 0.893832 0.892049 0.892054 0.890533 0.888265 0.886913 0.884464 0.883621 0.88291 0.884077 0.885142 0.886206 0.886743 0.887493 0.890419 0.891156 0.890544 0.8912 0.891269 0.89156 0.892303 0.892971 0.892802 0.891016 0.89082 0.890828 0.890989 0.892774 0.892945 0.892285 0.891523 0.891255 0.891219 0.890624 0.891173 0.890311 0.887382 0.8867 0.886165 0.885081 0.884083 0.882981 0.883743 0.88459 0.886988 0.888345 0.890521 0.892008 0.891971 0.893832 0.890295 0.893832 0.890139 0.893832 0.888657 0.893832 0.888389 0.893832 0.887816 0.893832 0.88305 0.893832 0.86598 0.892637 0.88371 0.893832 0.888374 0.893832 0.88892 0.893832 0.88901 0.893832 0.890336 0.893832 0.890412 0.893832 0.892026 0.892049 0.890555 0.888365 0.887005 0.884601 0.883744 0.882983 0.884085 0.885082 0.886163 0.886701 0.887382 0.890311 0.891173 0.890624 0.891219 0.891255 0.891523 0.892285 0.892945 0.892774 0.890989 0.890828 0.890833 0.890976 0.89276 0.892932 0.892276 0.891504 0.891247 0.891227 0.890661 0.891182 0.890256 0.887326 0.886678 0.886144 0.885053 0.88409 0.88302 0.883808 0.884662 0.887037 0.888399 0.890535 0.89201 0.891963 0.893832 0.8903 0.893832 0.890155 0.893832 0.888677 0.893832 0.888434 0.893832 0.887853 0.893832 0.883168 0.893832 0.865892 0.892686 0.883815 0.893832 0.888387 0.893832 0.888937 0.893832 0.889009 0.893832 0.890338 0.893832 0.890408 0.893832 0.892014 0.892047 0.890566 0.888416 0.887053 0.884671 0.883809 0.883021 0.884091 0.885054 0.886143 0.886679 0.887327 0.890256 0.891182 0.890661 0.891227 0.891247 0.891504 0.892276 0.892932 0.89276 0.890976 0.890833 
SCALARS Axial_Stress float 1
LOOKUP_TABLE default
-53013500000.0 -53091300000.0 -9035820000.0 -36662600000.0 -160968000000.0 -95370200000.0 -81434000000.0 -119076000000.0 -90296900000.0 -152764000000.0 -152197000000.0 -88168500000.0 -117573000000.0 -77341000000.0 -94246300000.0 -159945000000.0 -37241200000.0 -9035850000.0 -16719300000.0 -99493800000.0 -349320000000.0 -163717000000.0 -166055000000.0 -238530000000.0 -224593000000.0 -293894000000.0 -291605000000.0 -219832000000.0 -236392000000.0 -155155000000.0 -157645000000.0 -345275000000.0 -99401900000.0 -17598600000.0 -28421700000.0 -401331000000.0 -575945000000.0 -290924000000.0 -556007000000.0 -274537000000.0 -372027000000.0 -76293800000.0 -363701000000.0 -268120000000.0 -540220000000.0 -290577000000.0 -570595000000.0 -397269000000.0 -28430300000.0 -393027000000.0 -457847000000.0 -654178000000.0 -664380000000.0 -512458000000.0 -532453000000.0 -572834000000.0 -460982000000.0 -314226000000.0 -297402000000.0 -313891000000.0 -451209000000.0 -551563000000.0 -529714000000.0 -501773000000.0 -658432000000.0 -651427000000.0 -451744000000.0 -385261000000.0 -481365000000.0 -711553000000.0 -892651000000.0 -1.00824e+12 -855953000000.0 -536829000000.0 -622595000000.0 -803690000000.0 -489284000000.0 -699877000000.0 -691966000000.0 -483379000000.0 -783606000000.0 -608352000000.0 -523889000000.0 -844451000000.0 -992248000000.0 -893575000000.0 -707238000000.0 -475383000000.0 -921583000000.0 -641918000000.0 -1.16965e+12 -510690000000.0 -328368000000.0 -646612000000.0 -988866000000.0 -988516000000.0 -903011000000.0 -960378000000.0 -965636000000.0 -640161000000.0 -325280000000.0 -505973000000.0 -1.17457e+12 -642652000000.0 -916990000000.0 -882466000000.0 -952729000000.0 -897927000000.0 -1.14019e+12 -596730000000.0 -1.11913e+12 -1.22259e+12 -1.19147e+12 -1.38477e+12 -1.17135e+12 -1.18291e+12 -1.09603e+12 -589216000000.0 -1.12471e+12 -903520000000.0 -953193000000.0 -882254000000.0 -1.20444e+12 -1.61921e+12 -1.25597e+12 -619394000000.0 -1.30597e+12 -998413000000.0 -1.37517e+12 -1.64038e+12 -1.47146e+12 -1.63685e+12 -1.59615e+12 -1.40732e+12 -1.56858e+12 -1.3351e+12 -1.01049e+12 -1.29868e+12 -598968000000.0 -1.26826e+12 -1.62296e+12 -1.20983e+12 -1.97802e+12 -972753000000.0 -1.32492e+12 -1.14476e+12 -1.61763e+12 -1.37079e+12 -982795000000.0 -1.0448e+12 -1.99913e+12 -1.72769e+12 -1.85093e+12 -1.01315e+12 -971667000000.0 -1.36836e+12 -1.61839e+12 -1.12644e+12 -1.31511e+12 -976160000000.0 -1.99096e+12 -1.47885e+12 -1.04186e+12 -1.32152e+12 -1.4989e+12 -1.47328e+12 -1.55205e+12 -1.32476e+12 -1.17149e+12 -1.82045e+12 -1.79381e+12 -1.85145e+12 -1.10527e+12 -1.31067e+12 -1.54875e+12 -1.46793e+12 -1.49755e+12 -1.3234e+12 -1.02578e+12 -1.48947e+12 -1.18661e+12 -2.84372e+12 -2.45419e+12 -2.58227e+12 -1.25797e+12 -1.42862e+12 -1.6403e+12 -1.53217e+12 -1.3592e+12 -1.26772e+12 -1.07659e+12 -1.18944e+12 -1.28753e+12 -1.33462e+12 -1.525e+12 -1.64009e+12 -1.43166e+12 -1.25372e+12 -2.57438e+12 -2.44448e+12 -2.86942e+12 -1.20996e+12 -3.11909e+12 -3.43316e+12 -2.69568e+12 -2.71458e+12 -2.41986e+12 -1.71362e+12 -1.69723e+12 -1.71406e+12 -1.55616e+12 -1.60915e+12 -1.35479e+12 -1.31343e+12 -1.32078e+12 -1.50895e+12 -1.60163e+12 -1.54195e+12 -1.70501e+12 -1.69421e+12 -1.72632e+12 -2.41538e+12 -2.70764e+12 -2.70361e+12 -3.43292e+12 -3.11931e+12 -2.9756e+12 -4.49753e+12 -3.53419e+12 -2.67549e+12 -2.17856e+12 -2.11013e+12 -1.83416e+12 -1.86682e+12 -1.74881e+12 -1.8526e+12 -784214000000.0 -1.02401e+12 -884479000000.0 -1.88126e+12 -1.72866e+12 -1.8707e+12 -1.83979e+12 -2.11869e+12 -2.17319e+12 -2.67124e+12 -3.53031e+12 -4.49361e+12 -2.97776e+12 -2.88266e+12 -4.60679e+12 -4.53134e+12 -4.14677e+12 -3.63879e+12 -3.24781e+12 -2.96507e+12 -2.81604e+12 -2.53754e+12 -2.41132e+12 -2.07215e+12 -1.87466e+12 -1.87189e+12 -1.82351e+12 -986163000000.0 -1.59379e+12 -1.81565e+12 -1.8769e+12 -2.08453e+12 -2.42212e+12 -2.53963e+12 -2.82063e+12 -2.95784e+12 -3.23653e+12 -3.6317e+12 -4.14212e+12 -4.52962e+12 -4.60739e+12 -2.88365e+12 -2.79961e+12 -4.68552e+12 -4.3034e+12 -3.9071e+12 -3.25031e+12 -3.01946e+12 -2.70713e+12 -2.32425e+12 -2.23561e+12 -2.03401e+12 -2.00498e+12 -1.9095e+12 -1.90979e+12 -1.71645e+12 -1.53919e+12 -1.86055e+12 -1.90308e+12 -2.02704e+12 -2.05113e+12 -2.26243e+12 -2.34291e+12 -2.72186e+12 -3.01822e+12 -3.22661e+12 -3.90378e+12 -4.30415e+12 -4.68691e+12 -2.79955e+12 -2.7251e+12 -2.74435e+12 -4.76048e+12 -4.43374e+12 -4.12805e+12 -3.56625e+12 -3.13679e+12 -2.9088e+12 -2.59925e+12 -2.48137e+12 -2.15549e+12 -1.97224e+12 -1.98064e+12 -2.20373e+12 -2.17554e+12 -2.05867e+12 -2.24004e+12 -1.93049e+12 -1.99343e+12 -2.19152e+12 -2.51288e+12 -2.61926e+12 -2.93263e+12 -3.07872e+12 -3.55203e+12 -4.13214e+12 -4.43666e+12 -4.76396e+12 -2.74519e+12 -2.72659e+12 -2.74358e+12 -4.83674e+12 -4.63508e+12 -4.54076e+12 -4.2897e+12 -3.73095e+12 -3.39885e+12 -2.98582e+12 -3.0022e+12 -2.84359e+12 -2.73913e+12 -2.35319e+12 -2.07631e+12 -1.97098e+12 -2.04113e+12 -2.44418e+12 -2.60657e+12 -2.16348e+12 -2.01522e+12 -2.1235e+12 -2.40019e+12 -2.76678e+12 -2.86445e+12 -3.03331e+12 -2.99258e+12 -3.38602e+12 -3.73706e+12 -4.29761e+12 -4.54448e+12 -4.64044e+12 -4.84178e+12 -2.74575e+12 -2.78752e+12 -5.01013e+12 -4.92753e+12 -4.75548e+12 -4.41849e+12 -4.1457e+12 -3.9787e+12 -3.47874e+12 -2.88427e+12 -3.04869e+12 -2.95991e+12 -2.61521e+12 -2.42916e+12 -2.22795e+12 -2.10517e+12 -2.015e+12 -1.99781e+12 -2.077e+12 -405438000000.0 -2.33802e+12 -2.13492e+12 -2.08813e+12 -2.18635e+12 -2.28733e+12 -2.50612e+12 -2.66501e+12 -2.98085e+12 -3.07675e+12 -2.82376e+12 -3.511e+12 -3.99483e+12 -4.16492e+12 -4.42858e+12 -4.76075e+12 -4.93188e+12 -5.01431e+12 -2.79061e+12 -2.83496e+12 -2.82791e+12 -5.07644e+12 -4.84608e+12 -4.71443e+12 -4.60548e+12 -4.47947e+12 -3.66142e+12 -2.75514e+12 -3.23544e+12 -2.99447e+12 -2.97208e+12 -3.09139e+12 -3.11422e+12 -2.8918e+12 -2.76437e+12 -2.25667e+12 -1.99886e+12 -1.98849e+12 -1.18168e+12 -1.11652e+12 -2.21223e+12 -2.12803e+12 -2.3453e+12 -2.83997e+12 -2.9293e+12 -3.13513e+12 -3.10452e+12 -2.93151e+12 -3.00771e+12 -3.25086e+12 -2.80303e+12 -3.71509e+12 -4.48884e+12 -4.61273e+12 -4.71923e+12 -4.85059e+12 -5.07973e+12 -2.83074e+12 -2.83691e+12 -2.80364e+12 -5.11165e+12 -4.95993e+12 -4.91336e+12 -4.77383e+12 -4.61061e+12 -4.41517e+12 -4.63946e+12 -2.63314e+12 -3.31556e+12 -3.21436e+12 -3.10476e+12 -2.45594e+12 -2.06831e+12 -1.86833e+12 -1.61074e+12 -1.35208e+12 -1.56697e+12 -2.0512e+12 -2.18697e+12 -2.58834e+12 -3.14977e+12 -3.21327e+12 -3.39281e+12 -2.66214e+12 -4.62085e+12 -4.42536e+12 -4.61656e+12 -4.77755e+12 -4.91708e+12 -4.96222e+12 -5.11359e+12 -2.80463e+12 -2.81405e+12 -5.09234e+12 -4.98389e+12 -4.81408e+12 -4.68367e+12 -4.66281e+12 -4.57243e+12 -4.54467e+12 -4.58221e+12 -5.56544e+12 -4.04581e+12 -3.47645e+12 -3.56615e+12 -3.33866e+12 -3.37244e+12 -3.31803e+12 -3.51771e+12 -3.01187e+12 -2.34078e+12 -2.22166e+12 -1.77664e+12 -1.79535e+12 -2.43172e+12 -2.01903e+12 -2.01651e+12 -1.70319e+12 -1.78068e+12 -1.68614e+12 -2.00338e+12 -2.00184e+12 -2.42575e+12 -1.93061e+12 -1.85814e+12 -2.35156e+12 -2.63684e+12 -3.13003e+12 -3.51113e+12 -3.31885e+12 -3.37459e+12 -3.35343e+12 -3.59466e+12 -3.49986e+12 -4.0101e+12 -5.58398e+12 -4.57756e+12 -4.55037e+12 -4.57586e+12 -4.66648e+12 -4.68621e+12 -4.81663e+12 -4.98486e+12 -5.09331e+12 -2.81393e+12 -2.95253e+12 -4.90471e+12 -5.00103e+12 -4.96981e+12 -4.89792e+12 -4.85065e+12 -4.7048e+12 -4.57389e+12 -4.5126e+12 -4.57227e+12 -4.92796e+12 -4.70199e+12 -3.91109e+12 -3.43929e+12 -3.47919e+12 -3.68237e+12 -1.78718e+12 -2.84537e+12 -2.3277e+12 -1.98793e+12 -1.97314e+12 -2.31679e+12 -2.82627e+12 -1.80734e+12 -3.71032e+12 -3.47281e+12 -3.44331e+12 -3.90678e+12 -4.69305e+12 -4.92553e+12 -4.57173e+12 -4.51365e+12 -4.57622e+12 -4.70622e+12 -4.8518e+12 -4.89824e+12 -4.97031e+12 -5.00148e+12 -4.90462e+12 -2.95204e+12 -3.06926e+12 -3.06796e+12 -4.88871e+12 -4.87841e+12 -4.94156e+12 -4.7565e+12 -4.56642e+12 -4.44539e+12 -4.47707e+12 -4.40518e+12 -4.44289e+12 -4.00059e+12 -3.67891e+12 -3.49301e+12 -3.38673e+12 -3.82514e+12 -1.72456e+12 -3.2648e+12 -2.63138e+12 -2.20892e+12 -2.02773e+12 -2.18763e+12 -2.60829e+12 -3.19956e+12 -1.88974e+12 -3.76903e+12 -3.38561e+12 -3.4899e+12 -3.68171e+12 -3.98321e+12 -4.43646e+12 -4.4051e+12 -4.47848e+12 -4.4464e+12 -4.56782e+12 -4.7568e+12 -4.94198e+12 -4.87895e+12 -4.88785e+12 -3.0679e+12 -3.06891e+12 -2.96974e+12 -4.71534e+12 -4.6651e+12 -4.73515e+12 -4.90385e+12 -4.89203e+12 -4.64909e+12 -4.57562e+12 -4.41238e+12 -4.33182e+12 -4.26473e+12 -4.20295e+12 -3.82563e+12 -3.80104e+12 -3.60042e+12 -3.39117e+12 -3.34141e+12 -2.23277e+12 -1.88951e+12 -3.31736e+12 -3.06713e+12 -2.90786e+12 -2.62218e+12 -2.42773e+12 -2.30253e+12 -2.15565e+12 -2.17162e+12 -2.14282e+12 -2.27983e+12 -2.39798e+12 -2.5741e+12 -2.84973e+12 -2.8747e+12 -2.71367e+12 -2.20332e+12 -2.11635e+12 -3.29647e+12 -3.3831e+12 -3.59455e+12 -3.7932e+12 -3.8125e+12 -4.19494e+12 -4.26188e+12 -4.33108e+12 -4.41269e+12 -4.57627e+12 -4.64899e+12 -4.89158e+12 -4.90415e+12 -4.7343e+12 -4.66359e+12 -4.71447e+12 -2.97009e+12 -2.81368e+12 -3.00836e+12 -4.42102e+12 -4.65316e+12 -5.15938e+12 -5.15035e+12 -4.89112e+12 -4.39037e+12 -4.20989e+12 -4.27458e+12 -4.11156e+12 -4.1483e+12 -3.97264e+12 -4.08774e+12 -3.86478e+12 -3.63072e+12 -3.4524e+12 -3.23998e+12 -2.94553e+12 -2.67178e+12 -2.72555e+12 -2.74963e+12 -2.43933e+12 -2.24707e+12 -2.23579e+12 -2.40469e+12 -2.65472e+12 -2.55568e+12 -2.67975e+12 -2.91028e+12 -3.22986e+12 -3.4463e+12 -3.621e+12 -3.85603e+12 -4.08203e+12 -3.96834e+12 -4.14554e+12 -4.10999e+12 -4.27424e+12 -4.20976e+12 -4.3903e+12 -4.88977e+12 -5.14991e+12 -5.16089e+12 -4.65133e+12 -4.42017e+12 -3.00904e+12 -2.81397e+12 -2.57681e+12 -4.39437e+12 -4.25236e+12 -4.10665e+12 -4.26418e+12 -3.9896e+12 -5.23463e+12 -4.55277e+12 -4.42741e+12 -4.12806e+12 -4.06417e+12 -3.86739e+12 -3.78383e+12 -3.62835e+12 -3.44894e+12 -3.47982e+12 -3.3693e+12 -3.03473e+12 -2.52117e+12 -2.70414e+12 -2.53496e+12 -2.33175e+12 -2.24356e+12 -2.3102e+12 -2.47994e+12 -2.61444e+12 -2.56619e+12 -3.03059e+12 -3.3615e+12 -3.47233e+12 -3.44035e+12 -3.61707e+12 -3.77689e+12 -3.86318e+12 -4.06368e+12 -4.12774e+12 -4.42642e+12 -4.54973e+12 -5.23272e+12 -3.98654e+12 -4.26162e+12 -4.10448e+12 -4.25131e+12 -4.39337e+12 -2.57664e+12 -2.37763e+12 -4.1223e+12 -4.36715e+12 -4.25815e+12 -3.78243e+12 -3.88813e+12 -3.58824e+12 -3.12415e+12 -2.71039e+12 -4.02006e+12 -3.82962e+12 -3.97643e+12 -3.88247e+12 -3.89483e+12 -3.67995e+12 -3.48704e+12 -3.57947e+12 -3.43775e+12 -3.39303e+12 -3.28661e+12 -3.10818e+12 -2.83318e+12 -2.61406e+12 -2.64996e+12 -2.55232e+12 -2.55484e+12 -2.42025e+12 -2.39615e+12 -2.3097e+12 -2.2773e+12 -2.25572e+12 -2.26741e+12 -2.29107e+12 -2.36304e+12 -2.38188e+12 -2.49691e+12 -2.49705e+12 -2.56853e+12 -2.60512e+12 -2.82049e+12 -3.09862e+12 -3.28003e+12 -3.38447e+12 -3.42807e+12 -3.57e+12 -3.47956e+12 -3.6743e+12 -3.8933e+12 -3.88152e+12 -3.97635e+12 -3.82916e+12 -4.01943e+12 -2.70935e+12 -3.11936e+12 -3.58555e+12 -3.88524e+12 -3.77829e+12 -4.2606e+12 -4.36755e+12 -4.12186e+12 -2.37731e+12 -1.74956e+12 -2.13494e+12 -3.64284e+12 -4.33642e+12 -4.59046e+12 -3.75041e+12 -3.54273e+12 -3.24545e+12 -2.89264e+12 -3.40695e+12 -3.82822e+12 -3.7285e+12 -3.55086e+12 -3.36484e+12 -3.28266e+12 -3.23918e+12 -3.4599e+12 -3.4808e+12 -3.50192e+12 -2.79056e+12 -2.52478e+12 -2.42374e+12 -2.3218e+12 -2.25582e+12 -2.24771e+12 -2.29763e+12 -2.38473e+12 -2.47957e+12 -2.77717e+12 -3.48693e+12 -3.46758e+12 -3.4472e+12 -3.23038e+12 -3.27513e+12 -3.35736e+12 -3.54591e+12 -3.72834e+12 -3.82871e+12 -3.40733e+12 -2.89276e+12 -3.24313e+12 -3.54058e+12 -3.74858e+12 -4.59028e+12 -4.33712e+12 -3.64197e+12 -2.13434e+12 -1.74874e+12 -2.91265e+12 -2.56908e+12 -4.02227e+12 -4.39336e+12 -3.16999e+12 -3.56463e+12 -3.56019e+12 -3.21955e+12 -3.3821e+12 -2.90727e+12 -3.64773e+12 -3.91233e+12 -3.89033e+12 -3.75607e+12 -3.03617e+12 -3.22515e+12 -3.18667e+12 -2.65138e+12 -3.91037e+12 -3.04738e+12 -2.53621e+12 -2.41156e+12 -2.3176e+12 -2.25082e+12 -2.21984e+12 -2.23731e+12 -2.29086e+12 -2.37604e+12 -2.51888e+12 -3.04068e+12 -3.88565e+12 -2.64147e+12 -3.17843e+12 -3.21914e+12 -3.02447e+12 -3.76598e+12 -3.89285e+12 -3.91452e+12 -3.64809e+12 -2.90718e+12 -3.38211e+12 -3.21781e+12 -3.55875e+12 -3.56366e+12 -3.16935e+12 -4.39258e+12 -4.02203e+12 -2.5676e+12 -2.91233e+12 -2.88338e+12 -2.98686e+12 -3.49479e+12 -3.4475e+12 -3.94416e+12 -4.65049e+12 -3.20284e+12 -3.79336e+12 -3.35568e+12 -3.68413e+12 -3.79317e+12 -3.66585e+12 -3.94236e+12 -3.9025e+12 -4.03377e+12 -3.08456e+12 -3.08148e+12 -2.97597e+12 -3.00547e+12 -2.9669e+12 -3.4609e+12 -2.79041e+12 -2.63336e+12 -2.37974e+12 -2.39749e+12 -2.28537e+12 -2.30504e+12 -2.21203e+12 -2.23509e+12 -2.16995e+12 -2.19657e+12 -2.15087e+12 -2.19081e+12 -2.16116e+12 -2.21858e+12 -2.19467e+12 -2.27907e+12 -2.26219e+12 -2.36834e+12 -2.36117e+12 -2.62261e+12 -2.80276e+12 -3.45109e+12 -2.95368e+12 -2.99417e+12 -2.97135e+12 -3.07953e+12 -3.07794e+12 -4.04202e+12 -3.90614e+12 -3.94319e+12 -3.6664e+12 -3.79349e+12 -3.68265e+12 -3.35424e+12 -3.79349e+12 -3.20262e+12 -4.64951e+12 -3.94302e+12 -3.44667e+12 -3.49585e+12 -2.98691e+12 -2.88291e+12 -2.55089e+12 -4.34297e+12 -2.62194e+12 -3.13949e+12 -3.42101e+12 -4.41033e+12 -4.8275e+12 -3.45064e+12 -4.93623e+12 -3.02076e+12 -4.93655e+12 -2.5252e+12 -4.97216e+12 -2.40645e+12 -4.75596e+12 -3.54484e+12 -4.18102e+12 -2.54093e+12 -2.94021e+12 -2.70396e+12 -3.5294e+12 -1.38748e+12 -2.54795e+12 -1.79072e+12 -2.31871e+12 -2.26178e+12 -2.1801e+12 -2.13722e+12 -2.1136e+12 -2.10987e+12 -2.12707e+12 -2.16425e+12 -2.24219e+12 -2.30429e+12 -1.77215e+12 -2.56741e+12 -1.38009e+12 -3.52822e+12 -2.69809e+12 -2.93881e+12 -2.53592e+12 -4.18095e+12 -3.54495e+12 -4.75853e+12 -2.4007e+12 -4.97429e+12 -2.52171e+12 -4.93811e+12 -3.01868e+12 -4.93811e+12 -3.45297e+12 -4.82513e+12 -4.40869e+12 -3.41995e+12 -3.13899e+12 -2.62182e+12 -4.34257e+12 -2.55053e+12 -2.37272e+12 -3.81941e+12 -3.93396e+12 -3.11852e+12 -2.93424e+12 -2.81759e+12 -3.79292e+12 -4.20513e+12 -4.24735e+12 -4.53604e+12 -3.20575e+12 -4.52655e+12 -3.1975e+12 -4.08292e+12 -4.0855e+12 -2.5776e+12 -3.76518e+12 -3.83174e+12 -2.41593e+12 -3.12127e+12 -1.07841e+12 -1.7062e+12 -1.8697e+12 -2.22297e+12 -2.12985e+12 -2.09896e+12 -2.07376e+12 -2.0619e+12 -2.06869e+12 -2.08891e+12 -2.1157e+12 -2.20827e+12 -1.83832e+12 -1.69814e+12 -1.07314e+12 -3.1193e+12 -2.41452e+12 -3.84211e+12 -3.75725e+12 -2.57047e+12 -4.07975e+12 -4.07623e+12 -3.19813e+12 -4.52225e+12 -3.20625e+12 -4.5359e+12 -4.24646e+12 -4.20318e+12 -3.79128e+12 -2.81659e+12 -2.93392e+12 -3.11826e+12 -3.93335e+12 -3.81883e+12 -2.37235e+12 -2.13256e+12 -2.21353e+12 -3.61772e+12 -3.54825e+12 -3.82902e+12 -2.37551e+12 -2.10732e+12 -3.0421e+12 -3.44223e+12 -3.78475e+12 -5.22503e+12 -3.78169e+12 -3.37607e+12 -3.81579e+12 -2.90286e+12 -4.97055e+12 -3.87958e+12 -2.81633e+12 -3.34042e+12 -3.61342e+12 -3.43173e+12 -1.06752e+12 -3.19534e+12 -2.94706e+12 -2.47822e+12 -2.0767e+12 -1.84957e+12 -2.04061e+12 -1.97169e+12 -2.04747e+12 -1.97696e+12 -2.0288e+12 -1.96666e+12 -2.01597e+12 -1.96138e+12 -2.01374e+12 -1.96397e+12 -2.02332e+12 -1.97187e+12 -2.039e+12 -1.96481e+12 -2.02838e+12 -1.83667e+12 -2.05489e+12 -2.45615e+12 -2.95703e+12 -3.19473e+12 -1.06621e+12 -3.42727e+12 -3.61016e+12 -3.32806e+12 -2.80983e+12 -3.86322e+12 -4.96863e+12 -2.90826e+12 -3.81441e+12 -3.37382e+12 -3.77943e+12 -5.22236e+12 -3.78304e+12 -3.44032e+12 -3.04069e+12 -2.10646e+12 -2.37513e+12 -3.82722e+12 -3.54729e+12 -3.61701e+12 -2.21307e+12 -2.13211e+12 -2.06054e+12 -3.57307e+12 -3.3366e+12 -2.81742e+12 -2.67966e+12 -2.04139e+12 -2.30023e+12 -2.99674e+12 -4.13485e+12 -4.29536e+12 -4.11512e+12 -3.63978e+12 -3.16554e+12 -3.11924e+12 -3.91812e+12 -2.24143e+12 -4.63857e+12 -673860000000.0 -2.8383e+12 -1.35833e+12 -2.16915e+12 -1.23131e+12 -1.30761e+12 -1.87213e+12 -1.91287e+12 -1.91008e+12 -1.91021e+12 -1.90914e+12 -1.90773e+12 -1.90912e+12 -1.86822e+12 -1.27956e+12 -1.22454e+12 -2.1577e+12 -1.36771e+12 -2.82552e+12 -678120000000.0 -4.63597e+12 -2.23314e+12 -3.91618e+12 -3.1176e+12 -3.16264e+12 -3.63697e+12 -4.1134e+12 -4.29332e+12 -4.13337e+12 -2.99392e+12 -2.29881e+12 -2.04024e+12 -2.679e+12 -2.81678e+12 -3.3358e+12 -3.5724e+12 -2.06012e+12 -1.99587e+12 -3.47398e+12 -3.32681e+12 -3.43472e+12 -3.38225e+12 -2.59473e+12 -3.27759e+12 -3.57666e+12 -3.65377e+12 -3.4938e+12 -3.73407e+12 -3.66867e+12 -3.61672e+12 -3.29738e+12 -3.26996e+12 -3.31379e+12 -2.60988e+12 -3.76807e+12 -3.5749e+12 -2.96293e+12 -1.80307e+12 -2.04599e+12 -1.58157e+12 -1.83441e+12 -2.18624e+12 -855140000000.0 -1.75989e+12 -1.83329e+12 -1.84342e+12 -1.85505e+12 -1.85559e+12 -1.85421e+12 -1.84216e+12 -1.83154e+12 -1.76452e+12 -845972000000.0 -2.16562e+12 -1.82485e+12 -1.58822e+12 -2.04488e+12 -1.78933e+12 -2.98891e+12 -3.55917e+12 -3.77356e+12 -2.60683e+12 -3.31055e+12 -3.26643e+12 -3.29462e+12 -3.61398e+12 -3.66664e+12 -3.73199e+12 -3.49191e+12 -3.65308e+12 -3.57561e+12 -3.2767e+12 -2.59398e+12 -3.38204e+12 -3.43415e+12 -3.32618e+12 -3.47336e+12 -1.99549e+12 -1.9428e+12 -3.30511e+12 -3.37242e+12 -3.20133e+12 -3.20872e+12 -3.86745e+12 -3.79621e+12 -2.53414e+12 -2.54306e+12 -3.26243e+12 -3.22063e+12 -3.31103e+12 -3.29509e+12 -3.21824e+12 -3.04698e+12 -2.81065e+12 -2.68919e+12 -2.32957e+12 -3.01369e+12 -2.26317e+12 -2.81408e+12 -2.15506e+12 -1.82111e+12 -1.64684e+12 -1.75964e+12 -1.14535e+12 -448083000000.0 -1.77982e+12 -1.8323e+12 -1.60701e+12 -1.75551e+12 -1.72386e+12 -1.79265e+12 -1.74216e+12 -1.80205e+12 -1.75172e+12 -1.8018e+12 -1.74329e+12 -1.7929e+12 -1.72618e+12 -1.75666e+12 -1.6118e+12 -1.83269e+12 -1.78193e+12 -432234000000.0 -1.12372e+12 -1.74702e+12 -1.64185e+12 -1.81749e+12 -2.15209e+12 -2.8056e+12 -2.24543e+12 -3.01072e+12 -2.32408e+12 -2.68521e+12 -2.80733e+12 -3.04457e+12 -3.21588e+12 -3.29318e+12 -3.30939e+12 -3.2194e+12 -3.26285e+12 -2.54215e+12 -2.53328e+12 -3.79553e+12 -3.86663e+12 -3.20827e+12 -3.2008e+12 -3.37193e+12 -3.30468e+12 -1.94245e+12 -1.74664e+12 -1.90774e+12 -3.27421e+12 -3.10326e+12 -3.0251e+12 -2.85863e+12 -3.26826e+12 -3.31219e+12 -3.56594e+12 -3.72354e+12 -2.961e+12 -3.13066e+12 -3.0217e+12 -2.99395e+12 -2.9559e+12 -2.87551e+12 -2.71935e+12 -2.43989e+12 -2.14223e+12 -1.95411e+12 -3.52054e+12 -3.0279e+12 -2.57302e+12 -2.42218e+12 -2.28504e+12 -2.08793e+12 -1.81509e+12 -1.65098e+12 -1.5106e+12 -1.51075e+12 -1.43474e+12 -1.50154e+12 -1.65042e+12 -1.67321e+12 -1.69907e+12 -1.69962e+12 -1.67678e+12 -1.65737e+12 -1.50341e+12 -1.40461e+12 -1.51817e+12 -1.50034e+12 -1.6437e+12 -1.81221e+12 -2.08314e+12 -2.27745e+12 -2.41275e+12 -2.56541e+12 -3.02276e+12 -3.51937e+12 -1.9512e+12 -2.13862e+12 -2.43807e+12 -2.71726e+12 -2.87354e+12 -2.95427e+12 -2.9927e+12 -3.02116e+12 -3.13017e+12 -2.96001e+12 -3.72272e+12 -3.56541e+12 -3.31157e+12 -3.26777e+12 -2.85819e+12 -3.02459e+12 -3.10287e+12 -3.27378e+12 -1.90739e+12 -1.74625e+12 -898278000000.0 -3.17089e+12 -3.07125e+12 -2.83609e+12 -2.87733e+12 -2.59478e+12 -2.68126e+12 -3.09787e+12 -3.07262e+12 -3.33729e+12 -3.02067e+12 -2.90152e+12 -2.78326e+12 -2.69034e+12 -2.59093e+12 -2.44886e+12 -2.21183e+12 -1.68317e+12 -1.84271e+12 -3.72773e+12 -3.26604e+12 -2.98913e+12 -2.17882e+12 -2.07511e+12 -1.89941e+12 -1.75056e+12 -1.70531e+12 -1.31551e+12 -534630000000.0 -1.46046e+12 -1.58441e+12 -1.65066e+12 -1.64422e+12 -1.65368e+12 -1.59006e+12 -1.47219e+12 -555013000000.0 -1.31232e+12 -1.69912e+12 -1.74631e+12 -1.89629e+12 -2.06963e+12 -2.17213e+12 -2.9837e+12 -3.26236e+12 -3.72548e+12 -1.83974e+12 -1.68531e+12 -2.21059e+12 -2.44717e+12 -2.58932e+12 -2.68904e+12 -2.78232e+12 -2.90077e+12 -3.01992e+12 -3.33649e+12 -3.07183e+12 -3.09729e+12 -2.68089e+12 -2.59431e+12 -2.87691e+12 -2.83583e+12 -3.0709e+12 -3.17034e+12 -898294000000.0 -827595000000.0 -2.03569e+12 -1.92108e+12 -3.01e+12 -2.77402e+12 -2.63006e+12 -2.09757e+12 -2.50865e+12 -2.1047e+12 -3.06879e+12 -2.81679e+12 -2.65132e+12 -2.55538e+12 -3.63803e+12 -3.28687e+12 -2.93043e+12 -2.59231e+12 -2.39083e+12 -1.87019e+12 -1.74851e+12 -1.6528e+12 -1.60053e+12 -1.48748e+12 -1.40939e+12 -1.85493e+12 -392231000000.0 -1.42916e+12 -1.66602e+12 -1.62046e+12 -1.53011e+12 -1.59086e+12 -1.54656e+12 -1.59168e+12 -1.53439e+12 -1.62691e+12 -1.66973e+12 -1.4418e+12 -428924000000.0 -1.86273e+12 -1.40634e+12 -1.4764e+12 -1.59166e+12 -1.64637e+12 -1.7444e+12 -1.86631e+12 -2.38545e+12 -2.5866e+12 -2.92565e+12 -3.28252e+12 -3.63313e+12 -2.55448e+12 -2.6505e+12 -2.81581e+12 -3.06774e+12 -2.10381e+12 -2.50822e+12 -2.0974e+12 -2.62977e+12 -2.7738e+12 -3.00969e+12 -1.92062e+12 -2.03516e+12 -827519000000.0 -705760000000.0 -1.16633e+12 -1.92239e+12 -1.80827e+12 -2.45465e+12 -2.56268e+12 -2.87718e+12 -1.76858e+12 -1.58395e+12 -2.39989e+12 -2.43577e+12 -2.33737e+12 -2.45208e+12 -2.353e+12 -2.23738e+12 -2.09056e+12 -1.86015e+12 -1.64246e+12 -3.0254e+12 -3.00386e+12 -2.75231e+12 -2.49791e+12 -2.302e+12 -2.12728e+12 -1.98483e+12 -1.6086e+12 -1.54296e+12 -1.47764e+12 -1.41449e+12 -1.36339e+12 -1.20046e+12 -1.58189e+12 -2.01666e+12 -1.4506e+12 -1.49876e+12 -1.50061e+12 -1.46068e+12 -2.02689e+12 -1.55144e+12 -1.18847e+12 -1.35184e+12 -1.40209e+12 -1.46389e+12 -1.53289e+12 -1.60311e+12 -1.97936e+12 -2.12226e+12 -2.29737e+12 -2.49295e+12 -2.74745e+12 -2.99894e+12 -3.02067e+12 -1.63886e+12 -1.85738e+12 -2.08826e+12 -2.23555e+12 -2.35156e+12 -2.45092e+12 -2.33631e+12 -2.43424e+12 -2.39897e+12 -1.58393e+12 -1.76852e+12 -2.87647e+12 -2.56233e+12 -2.45475e+12 -1.80773e+12 -1.92177e+12 -1.16617e+12 -705668000000.0 -156428000000.0 -693246000000.0 -1.11098e+12 -830897000000.0 -1.80755e+12 -1.69848e+12 -1.76416e+12 -1.8907e+12 -2.32331e+12 -2.38296e+12 -3.14275e+12 -1.51006e+12 -1.81831e+12 -2.2622e+12 -2.18867e+12 -2.11273e+12 -2.0255e+12 -1.92021e+12 -1.80869e+12 -1.68553e+12 -2.30695e+12 -2.15992e+12 -2.02167e+12 -1.89768e+12 -1.78663e+12 -1.691e+12 -1.43822e+12 -1.40016e+12 -1.36103e+12 -1.30779e+12 -1.45111e+12 -1.47332e+12 -1.67643e+12 -1.30505e+12 -1.45986e+12 -1.44897e+12 -1.46947e+12 -1.29393e+12 -1.72657e+12 -1.52421e+12 -1.44075e+12 -1.2946e+12 -1.34419e+12 -1.38229e+12 -1.41894e+12 -1.68895e+12 -1.78206e+12 -1.89247e+12 -2.01733e+12 -2.15574e+12 -2.30231e+12 -1.67847e+12 -1.80469e+12 -1.91763e+12 -2.02375e+12 -2.11154e+12 -2.18767e+12 -2.26132e+12 -1.81621e+12 -1.50995e+12 -3.14192e+12 -2.38246e+12 -2.32287e+12 -1.88965e+12 -1.76358e+12 -1.69801e+12 -1.80708e+12 -830514000000.0 -1.11057e+12 -693280000000.0 -156454000000.0 -562218000000.0 -1.59514e+12 -1.43176e+12 -1.70102e+12 -1.96329e+12 -2.48803e+12 -2.50876e+12 -3.30283e+12 -2.91952e+12 -2.13143e+12 -1.9897e+12 -1.92727e+12 -1.88198e+12 -1.8541e+12 -1.80579e+12 -1.73559e+12 -1.67141e+12 -1.63393e+12 -2.33307e+12 -2.5001e+12 -2.44443e+12 -1.88094e+12 -1.78405e+12 -1.69092e+12 -1.60352e+12 -1.5236e+12 -1.47645e+12 -1.33058e+12 -1.28988e+12 -1.28568e+12 -1.20769e+12 -1.19472e+12 -822506000000.0 -1.62626e+12 -1.43924e+12 -1.31836e+12 -1.40223e+12 -1.39678e+12 -1.40862e+12 -1.34254e+12 -1.46817e+12 -1.63577e+12 -888637000000.0 -1.18713e+12 -1.18388e+12 -1.25948e+12 -1.26678e+12 -1.3069e+12 -1.46746e+12 -1.52452e+12 -1.60065e+12 -1.68642e+12 -1.78005e+12 -1.87751e+12 -2.43944e+12 -2.49548e+12 -2.33005e+12 -1.62892e+12 -1.66748e+12 -1.73313e+12 -1.80448e+12 -1.85323e+12 -1.88134e+12 -1.92638e+12 -1.98774e+12 -2.13142e+12 -2.91888e+12 -3.30188e+12 -2.50817e+12 -2.48743e+12 -1.96268e+12 -1.70041e+12 -1.4314e+12 -1.59462e+12 -562219000000.0 -166002000000.0 -576303000000.0 -909756000000.0 -1.48761e+12 -1.68404e+12 -1.93596e+12 -1.80953e+12 -2.28972e+12 -1.78472e+12 -1.7927e+12 -1.4905e+12 -1.56618e+12 -1.57589e+12 -1.542e+12 -1.4814e+12 -1.40335e+12 -1.83938e+12 -1.97788e+12 -2.04037e+12 -2.04585e+12 -1.97602e+12 -1.57708e+12 -1.50329e+12 -1.42942e+12 -1.34828e+12 -1.38236e+12 -1.36023e+12 -1.08288e+12 -1.37336e+12 -1.37122e+12 -1.20054e+12 -1.33442e+12 -1.34816e+12 -1.36378e+12 -1.43045e+12 -1.49998e+12 -1.57316e+12 -1.97232e+12 -2.0412e+12 -2.03458e+12 -1.97244e+12 -1.8342e+12 -1.39922e+12 -1.47892e+12 -1.54033e+12 -1.57519e+12 -1.56606e+12 -1.49089e+12 -1.79127e+12 -1.78283e+12 -2.28873e+12 -1.80947e+12 -1.93555e+12 -1.68346e+12 -1.487e+12 -909667000000.0 -576295000000.0 -165998000000.0 -208682000000.0 -188045000000.0 -934952000000.0 -922689000000.0 -1.46925e+12 -1.31061e+12 -1.58476e+12 -1.36744e+12 -1.49476e+12 -1.87792e+12 -1.14816e+12 -1.56014e+12 -1.72148e+12 -1.24541e+12 -1.34566e+12 -1.44954e+12 -1.50697e+12 -1.56271e+12 -1.73838e+12 -1.75694e+12 -1.71519e+12 -1.64939e+12 -1.32944e+12 -1.26876e+12 -1.2042e+12 -1.30913e+12 -1.28539e+12 -1.26158e+12 -1.2333e+12 -1.11915e+12 -894916000000.0 -462563000000.0 -812997000000.0 -1.41698e+12 -1.29766e+12 -1.41419e+12 -726821000000.0 -373960000000.0 -767932000000.0 -1.07e+12 -1.19709e+12 -1.23229e+12 -1.25837e+12 -1.28042e+12 -1.19952e+12 -1.26834e+12 -1.32574e+12 -1.64596e+12 -1.71195e+12 -1.7533e+12 -1.73328e+12 -1.55292e+12 -1.50088e+12 -1.4448e+12 -1.34585e+12 -1.24621e+12 -1.71902e+12 -1.55806e+12 -1.14546e+12 -1.87704e+12 -1.49581e+12 -1.36716e+12 -1.58434e+12 -1.31022e+12 -1.46877e+12 -922324000000.0 -934888000000.0 -188028000000.0 -208682000000.0 -637055000000.0 -603039000000.0 -936241000000.0 -1.11107e+12 -910879000000.0 -1.34923e+12 -1.46594e+12 -1.41883e+12 -1.49439e+12 -1.64518e+12 -1.34962e+12 -1.30185e+12 -1.21459e+12 -1.0914e+12 -1.10872e+12 -1.11118e+12 -1.48286e+12 -1.53456e+12 -1.53221e+12 -1.49737e+12 -1.44609e+12 -1.38875e+12 -1.11551e+12 -1.22219e+12 -1.21755e+12 -1.22671e+12 -1.20783e+12 -1.09562e+12 -1.26697e+12 -1.65528e+12 -1.62633e+12 -1.70366e+12 -1.2462e+12 -1.2716e+12 -1.24973e+12 -1.23465e+12 -1.13535e+12 -1.73259e+12 -1.55898e+12 -1.71124e+12 -1.28551e+12 -1.06874e+12 -1.17522e+12 -1.19494e+12 -1.18965e+12 -1.19559e+12 -1.10143e+12 -1.38464e+12 -1.44212e+12 -1.4937e+12 -1.52905e+12 -1.53203e+12 -1.48019e+12 -1.10648e+12 -1.10424e+12 -1.08552e+12 -1.21254e+12 -1.30046e+12 -1.34871e+12 -1.64234e+12 -1.49218e+12 -1.41756e+12 -1.46704e+12 -1.35123e+12 -910972000000.0 -1.11078e+12 -935924000000.0 -602934000000.0 -636966000000.0 -330487000000.0 -890425000000.0 -999373000000.0 -755074000000.0 -723342000000.0 -903387000000.0 -1.00743e+12 -1.81332e+12 -1.11327e+12 -1.17784e+12 -1.14835e+12 -1.08179e+12 -1.34139e+12 -1.34621e+12 -1.33294e+12 -1.30204e+12 -1.26138e+12 -1.21716e+12 -1.17303e+12 -1.13702e+12 -1.14597e+12 -1.16518e+12 -1.21001e+12 -1.13923e+12 -688677000000.0 -638832000000.0 -619635000000.0 -429828000000.0 -1.25758e+12 -1.20435e+12 -463000000000.0 -670547000000.0 -662175000000.0 -1.09178e+12 -1.17204e+12 -1.13712e+12 -1.11765e+12 -1.12711e+12 -1.16689e+12 -1.21279e+12 -1.25739e+12 -1.29787e+12 -1.32922e+12 -1.34381e+12 -1.34189e+12 -1.08153e+12 -1.14809e+12 -1.17796e+12 -1.11458e+12 -1.81377e+12 -1.00768e+12 -903329000000.0 -723411000000.0 -754766000000.0 -999053000000.0 -890187000000.0 -330444000000.0 -396728000000.0 -899502000000.0 -875335000000.0 -1.0749e+12 -1.02584e+12 -674063000000.0 -1.061e+12 -1.62023e+12 -1.13583e+12 -1.39789e+12 -1.52163e+12 -1.02461e+12 -1.03203e+12 -978231000000.0 -929204000000.0 -556964000000.0 -822647000000.0 -1.22433e+12 -1.14811e+12 -1.1229e+12 -1.09238e+12 -1.06044e+12 -1.03229e+12 -1.03028e+12 -1.04897e+12 -1.21532e+12 -1.15971e+12 -1.18815e+12 -645296000000.0 -1.02971e+12 -1.01304e+12 -1.02062e+12 -1.05461e+12 -1.08902e+12 -1.11923e+12 -1.1439e+12 -1.22075e+12 -819321000000.0 -554356000000.0 -930301000000.0 -977814000000.0 -1.03194e+12 -1.02569e+12 -1.5182e+12 -1.39528e+12 -1.13376e+12 -1.62005e+12 -1.06065e+12 -674340000000.0 -1.02528e+12 -1.07452e+12 -875109000000.0 -899287000000.0 -396702000000.0 -121794000000.0 -181093000000.0 -760008000000.0 -769323000000.0 -1.031e+12 -1.15651e+12 -1.03038e+12 -1.17302e+12 -1.3391e+12 -1.4152e+12 -940825000000.0 -851869000000.0 -911347000000.0 -756028000000.0 -485439000000.0 -919875000000.0 -1.1753e+12 -1.16956e+12 -1.16373e+12 -933960000000.0 -911065000000.0 -891795000000.0 -933415000000.0 -1.00062e+12 -1.11737e+12 -1.18398e+12 -1.31359e+12 -1.4918e+12 -1.19037e+12 -1.86849e+12 -1.66678e+12 -1.54557e+12 -1.48028e+12 -1.15265e+12 -948212000000.0 -1.03012e+12 -1.17661e+12 -1.50792e+12 -1.74752e+12 -1.75276e+12 -1.11025e+12 -1.51275e+12 -1.25677e+12 -1.16562e+12 -1.08872e+12 -977279000000.0 -912821000000.0 -880219000000.0 -900887000000.0 -929571000000.0 -1.16014e+12 -1.16738e+12 -1.17189e+12 -916535000000.0 -481778000000.0 -756602000000.0 -911181000000.0 -851606000000.0 -941218000000.0 -1.41155e+12 -1.33625e+12 -1.17121e+12 -1.03022e+12 -1.15625e+12 -1.03079e+12 -769155000000.0 -759882000000.0 -181060000000.0 -121757000000.0 -612624000000.0 -568260000000.0 -228925000000.0 -444830000000.0 -280193000000.0 -1.07218e+12 -1.45952e+12 -1.11534e+12 -1.29438e+12 -1.36494e+12 -789855000000.0 -909168000000.0 -659110000000.0 -610969000000.0 -897719000000.0 -982604000000.0 -989908000000.0 -986500000000.0 -974719000000.0 -955985000000.0 -714516000000.0 -863565000000.0 -887726000000.0 -1.2293e+12 -1.00101e+12 -1.26929e+12 -1.00875e+12 -995128000000.0 -905426000000.0 -532959000000.0 -1.00688e+12 -701876000000.0 -445380000000.0 -988656000000.0 -870639000000.0 -916319000000.0 -1.25216e+12 -953538000000.0 -1.20131e+12 -863552000000.0 -832838000000.0 -726176000000.0 -953804000000.0 -971255000000.0 -982547000000.0 -986958000000.0 -981488000000.0 -895190000000.0 -606393000000.0 -658659000000.0 -908280000000.0 -789133000000.0 -1.36113e+12 -1.2917e+12 -1.11361e+12 -1.4589e+12 -1.07203e+12 -279591000000.0 -444685000000.0 -228902000000.0 -568082000000.0 -612479000000.0 -762725000000.0 -89542100000.0 -889970000000.0 -698743000000.0 -649672000000.0 -907406000000.0 -1.23745e+12 -750971000000.0 -449522000000.0 -622143000000.0 -761980000000.0 -615814000000.0 -635281000000.0 -766585000000.0 -814684000000.0 -822341000000.0 -820668000000.0 -812177000000.0 -796516000000.0 -777261000000.0 -747677000000.0 -249146000000.0 -129078000000.0 -66443200000.0 -980060000000.0 -942580000000.0 -797885000000.0 -205095000000.0 -743350000000.0 -768270000000.0 -795067000000.0 -811336000000.0 -817356000000.0 -817939000000.0 -811141000000.0 -762912000000.0 -632163000000.0 -614562000000.0 -761347000000.0 -620569000000.0 -449137000000.0 -750814000000.0 -1.23668e+12 -906508000000.0 -648912000000.0 -698886000000.0 -889798000000.0 -89526500000.0 -762599000000.0 -335701000000.0 -594392000000.0 -819802000000.0 -171375000000.0 -245793000000.0 -703142000000.0 -728709000000.0 -940656000000.0 -1.13841e+12 -1.11114e+12 -1.37059e+12 -1.64797e+12 -665941000000.0 -666344000000.0 -658012000000.0 -637196000000.0 -596942000000.0 -514715000000.0 -302914000000.0 -224183000000.0 -344740000000.0 -360173000000.0 -487802000000.0 -28034700000.0 -1.21597e+12 -1.01291e+12 -643134000000.0 -834857000000.0 -1.06958e+12 -46064700000.0 -643762000000.0 -31758700000.0 -301272000000.0 -283005000000.0 -232591000000.0 -236587000000.0 -362328000000.0 -538222000000.0 -596991000000.0 -633272000000.0 -659361000000.0 -666391000000.0 -661794000000.0 -1.64385e+12 -1.3683e+12 -1.11001e+12 -1.13719e+12 -939444000000.0 -728046000000.0 -703160000000.0 -245562000000.0 -171298000000.0 -819605000000.0 -594278000000.0 -335605000000.0 -226334000000.0 -371131000000.0 -475162000000.0 -352378000000.0 -501671000000.0 -1.07071e+12 -1.31138e+12 -897018000000.0 -691804000000.0 -1.07675e+12 -1.30454e+12 -1.08148e+12 -864170000000.0 -700396000000.0 -675746000000.0 -665571000000.0 -514792000000.0 -483985000000.0 -437506000000.0 -344998000000.0 -40689900000.0 -92233300000.0 -274287000000.0 -107895000000.0 -332051000000.0 -263657000000.0 -450104000000.0 -387642000000.0 -1.15645e+12 -457600000000.0 -308476000000.0 -997990000000.0 -420388000000.0 -466847000000.0 -190826000000.0 -238135000000.0 -128559000000.0 -267171000000.0 -110398000000.0 -42250800000.0 -349752000000.0 -428385000000.0 -480004000000.0 -516453000000.0 -660204000000.0 -671485000000.0 -696193000000.0 -862085000000.0 -1.08036e+12 -1.30495e+12 -1.07551e+12 -690994000000.0 -893259000000.0 -1.3103e+12 -1.07061e+12 -501159000000.0 -352097000000.0 -475098000000.0 -371001000000.0 -226261000000.0 -545402000000.0 -608527000000.0 -707269000000.0 -886289000000.0 -1.07445e+12 -1.03629e+12 -665054000000.0 -738841000000.0 -689791000000.0 -865974000000.0 -853356000000.0 -731926000000.0 -625682000000.0 -546066000000.0 -501865000000.0 -498505000000.0 -519121000000.0 -521487000000.0 -530444000000.0 -578423000000.0 -413777000000.0 -320891000000.0 -577700000000.0 -281889000000.0 -394789000000.0 -576522000000.0 -532054000000.0 -525352000000.0 -517592000000.0 -491596000000.0 -495154000000.0 -542506000000.0 -623476000000.0 -730306000000.0 -851659000000.0 -863928000000.0 -688626000000.0 -735341000000.0 -662049000000.0 -1.03677e+12 -1.07363e+12 -885960000000.0 -706886000000.0 -608208000000.0 -545271000000.0 -238747000000.0 -554483000000.0 -68196900000.0 -233039000000.0 -281723000000.0 -379423000000.0 -481233000000.0 -605000000000.0 -782572000000.0 -1.00834e+12 -578104000000.0 -552870000000.0 -558346000000.0 -551124000000.0 -534602000000.0 -446602000000.0 -478526000000.0 -436185000000.0 -353611000000.0 -364683000000.0 -385862000000.0 -387115000000.0 -392159000000.0 -400363000000.0 -361759000000.0 -433887000000.0 -449417000000.0 -454036000000.0 -385165000000.0 -301811000000.0 -585131000000.0 -615770000000.0 -589621000000.0 -730230000000.0 -371019000000.0 -510554000000.0 -535878000000.0 -234358000000.0 -327074000000.0 -462829000000.0 -445969000000.0 -431866000000.0 -360586000000.0 -403334000000.0 -401683000000.0 -389334000000.0 -386101000000.0 -363156000000.0 -350031000000.0 -434683000000.0 -478010000000.0 -446361000000.0 -530038000000.0 -548423000000.0 -555672000000.0 -550159000000.0 -576727000000.0 -1.00852e+12 -783591000000.0 -605624000000.0 -481302000000.0 -379211000000.0 -281568000000.0 -233037000000.0 -68227600000.0 -554356000000.0 -238676000000.0 -127738000000.0 -74815700000.0 -442377000000.0 -227507000000.0 -287279000000.0 -394096000000.0 -469457000000.0 -518255000000.0 -548208000000.0 -531307000000.0 -179819000000.0 -262847000000.0 -276980000000.0 -289110000000.0 -256231000000.0 -276556000000.0 -326894000000.0 -191216000000.0 -366286000000.0 -141431000000.0 -183454000000.0 -184021000000.0 -235176000000.0 -234660000000.0 -351722000000.0 -392789000000.0 -474016000000.0 -297147000000.0 -518730000000.0 -57001600000.0 -350757000000.0 -450894000000.0 -355327000000.0 -277795000000.0 -195808000000.0 -193363000000.0 -141024000000.0 -147649000000.0 -111564000000.0 -360524000000.0 -172609000000.0 -302706000000.0 -306191000000.0 -255692000000.0 -291779000000.0 -277159000000.0 -261420000000.0 -177917000000.0 -531846000000.0 -547914000000.0 -517923000000.0 -469073000000.0 -393652000000.0 -286911000000.0 -227328000000.0 -442144000000.0 -74851000000.0 -127685000000.0 -164563000000.0 -349336000000.0 -330117000000.0 -398238000000.0 -311028000000.0 -360965000000.0 -371754000000.0 -330604000000.0 -310605000000.0 -358482000000.0 -358194000000.0 -281857000000.0 -354700000000.0 -299149000000.0 -277941000000.0 -247297000000.0 -266834000000.0 -517638000000.0 -746673000000.0 -713040000000.0 -481014000000.0 -182383000000.0 -205034000000.0 -241599000000.0 -343101000000.0 -351806000000.0 -279011000000.0 -360491000000.0 -360252000000.0 -310709000000.0 -327116000000.0 -368906000000.0 -358952000000.0 -308395000000.0 -398104000000.0 -329938000000.0 -349228000000.0 -164404000000.0 -143932000000.0 -418811000000.0 -390482000000.0 -381943000000.0 -420195000000.0 -30987200000.0 -130639000000.0 -208006000000.0 -192621000000.0 -218444000000.0 -228951000000.0 -274202000000.0 -294110000000.0 -260880000000.0 -254879000000.0 -292795000000.0 -313495000000.0 -326461000000.0 -315306000000.0 -321297000000.0 -281163000000.0 -294533000000.0 -216693000000.0 -229790000000.0 -240693000000.0 -407113000000.0 -590346000000.0 -323358000000.0 -331969000000.0 -113382000000.0 -165634000000.0 -177658000000.0 -307272000000.0 -285208000000.0 -355012000000.0 -311930000000.0 -334909000000.0 -322675000000.0 -301763000000.0 -264187000000.0 -259156000000.0 -294617000000.0 -275764000000.0 -227294000000.0 -213853000000.0 -192176000000.0 -207728000000.0 -128205000000.0 -30670200000.0 -421257000000.0 -382358000000.0 -390582000000.0 -418817000000.0 -143875000000.0 -73617900000.0 -96270000000.0 -210286000000.0 -158629000000.0 -251990000000.0 -291701000000.0 -288777000000.0 -296094000000.0 -304838000000.0 -20971200000.0 -57910000000.0 -47526500000.0 -105788000000.0 -100818000000.0 -147744000000.0 -179574000000.0 -218225000000.0 -225924000000.0 -172556000000.0 -141655000000.0 -131199000000.0 -199940000000.0 -243561000000.0 -87976100000.0 -209568000000.0 -24634700000.0 -102555000000.0 -65005000000.0 -70170400000.0 -38669100000.0 -26109500000.0 -57958500000.0 -50886000000.0 -108217000000.0 -230168000000.0 -172539000000.0 -185307000000.0 -48576300000.0 -125263000000.0 -328020000000.0 -159338000000.0 -131656000000.0 -145652000000.0 -134068000000.0 -157157000000.0 -207762000000.0 -101212000000.0 -160620000000.0 -107047000000.0 -282665000000.0 -137293000000.0 -268721000000.0 -212147000000.0 -138812000000.0 -145236000000.0 -172528000000.0 -224432000000.0 -218400000000.0 -180084000000.0 -144482000000.0 -101057000000.0 -106011000000.0 -47679500000.0 -57257400000.0 -21070300000.0 -305814000000.0 -296693000000.0 -289303000000.0 -292121000000.0 -252264000000.0 -158815000000.0 -210445000000.0 -96325800000.0 -73641000000.0 -73507200000.0 -14848900000.0 -47523500000.0 -435326000000.0 -374271000000.0 -319615000000.0 -267270000000.0 -226835000000.0 -200515000000.0 -298253000000.0 -260314000000.0 -574490000000.0 -389227000000.0 -224374000000.0 -231924000000.0 -272260000000.0 -293599000000.0 -351838000000.0 -398718000000.0 -47580900000.0 -14850600000.0 -73582700000.0 -34288700000.0 -11220200000.0 -66451100000.0 -64622600000.0 -101337000000.0 -235254000000.0 -91855600000.0 -70977800000.0 -42561400000.0 -42772100000.0 -36353700000.0 -120448000000.0 -235343000000.0 -320480000000.0 -359540000000.0 -330171000000.0 -319306000000.0 -303285000000.0 -369839000000.0 -333945000000.0 -334053000000.0 -313433000000.0 -264544000000.0 -257024000000.0 -253698000000.0 -316456000000.0 -354911000000.0 -422235000000.0 -394256000000.0 -270532000000.0 -262266000000.0 -271071000000.0 -272434000000.0 -308377000000.0 -304997000000.0 -335779000000.0 -270045000000.0 -301452000000.0 -312628000000.0 -344775000000.0 -309067000000.0 -228815000000.0 -116864000000.0 -37223800000.0 -43530000000.0 -42973900000.0 -71580800000.0 -92709600000.0 -236388000000.0 -101599000000.0 -64844300000.0 -66564300000.0 -11222200000.0 -34346500000.0 -37516500000.0 -42478100000.0 -101494000000.0 -81602000000.0 -130045000000.0 -158061000000.0 -164824000000.0 -186168000000.0 -238784000000.0 -87694800000.0 -106894000000.0 -128524000000.0 -149967000000.0 -150058000000.0 -179244000000.0 -158138000000.0 -172820000000.0 -170170000000.0 -185819000000.0 -160510000000.0 -95766100000.0 -68098300000.0 -85233100000.0 -20175800000.0 -16507200000.0 -63702900000.0 -14248200000.0 -76302900000.0 -13317700000.0 -67483100000.0 -12968200000.0 -84219400000.0 -13745800000.0 -98015200000.0 -91992800000.0 -198346000000.0 -129971000000.0 -270676000000.0 -179464000000.0 -225754000000.0 -155347000000.0 -184551000000.0 -104994000000.0 -152332000000.0 -79514600000.0 -120837000000.0 -58997200000.0 -86832000000.0 -39741300000.0 -72901600000.0 -26167600000.0 -18990200000.0 -75514900000.0 -64063500000.0 -95271800000.0 -151171000000.0 -171180000000.0 -155663000000.0 -159241000000.0 -142614000000.0 -165070000000.0 -141237000000.0 -143657000000.0 -123479000000.0 -102174000000.0 -83689900000.0 -236319000000.0 -183891000000.0 -162998000000.0 -156527000000.0 -128819000000.0 -80585000000.0 -100884000000.0 -42063100000.0 -37451700000.0 -127624000000.0 -26501700000.0 -10907100000.0 -37858700000.0 -9926380000.0 -35049200000.0 -51309300000.0 -55617100000.0 -76677100000.0 -152157000000.0 -22571200000.0 -13975500000.0 -21194700000.0 -29405400000.0 -17087900000.0 -38601300000.0 -60153100000.0 -99585100000.0 -129798000000.0 -163220000000.0 -154509000000.0 -121868000000.0 -136266000000.0 -148919000000.0 -101163000000.0 -89310400000.0 -137264000000.0 -90966400000.0 -150641000000.0 -95283500000.0 -153373000000.0 -102511000000.0 -177165000000.0 -111624000000.0 -198756000000.0 -159767000000.0 -262681000000.0 -181068000000.0 -174736000000.0 -148968000000.0 -16656500000.0 -83039800000.0 -13752100000.0 -72754800000.0 -18548400000.0 -69336700000.0 -26718200000.0 -68364300000.0 -37534800000.0 -79776200000.0 -48103300000.0 -60916500000.0 -111320000000.0 -108589000000.0 -103524000000.0 -140550000000.0 -149808000000.0 -121457000000.0 -94638800000.0 -56813900000.0 -37269500000.0 -18594500000.0 -30467200000.0 -21845200000.0 -13973900000.0 -22560000000.0 -152799000000.0 -77063200000.0 -55904600000.0 -51458200000.0 -35162000000.0 -9926020000.0 -37935600000.0 -10920600000.0 -26560100000.0 -27826600000.0 -15838400000.0 -34164800000.0 -16568600000.0 -41866100000.0 -58984700000.0 -68251800000.0 -87078000000.0 -143731000000.0 -21170100000.0 -22916900000.0 -41328500000.0 -51043700000.0 -40023100000.0 -57468000000.0 -73542800000.0 -92327400000.0 -98935800000.0 -104160000000.0 -72551500000.0 -39977200000.0 -59692900000.0 -60158100000.0 -23374200000.0 -9327360000.0 -58916400000.0 -9045600000.0 -68172500000.0 -9248390000.0 -69887800000.0 -9525360000.0 -87252300000.0 -10742200000.0 -100297000000.0 -32807800000.0 -181961000000.0 -37287300000.0 -172530000000.0 -146384000000.0 -189307000000.0 -80532600000.0 -137925000000.0 -63706300000.0 -109492000000.0 -49945500000.0 -86203200000.0 -37683800000.0 -68145100000.0 -27699700000.0 -58504000000.0 -18473900000.0 -21444500000.0 -52920100000.0 -53994200000.0 -38034000000.0 -73398500000.0 -102786000000.0 -98625300000.0 -91522500000.0 -71268700000.0 -54946200000.0 -40324600000.0 -51172100000.0 -41318400000.0 -22481900000.0 -20808800000.0 -143915000000.0 -87097200000.0 -68249500000.0 -58922300000.0 -41808800000.0 -16463800000.0 -34141800000.0 -15803200000.0 -27852300000.0 -27669400000.0 -15023700000.0 -23428400000.0 -10088300000.0 -30425800000.0 -45139500000.0 -55788300000.0 -73007800000.0 -124320000000.0 -14745100000.0 -12888200000.0 -32569600000.0 -42213100000.0 -30935600000.0 -44580800000.0 -61212400000.0 -80959000000.0 -85931000000.0 -93018100000.0 -66316100000.0 -47083600000.0 -60217700000.0 -55554100000.0 -25818300000.0 -10633300000.0 -55286200000.0 -9700460000.0 -64174700000.0 -15362500000.0 -77506800000.0 -25021900000.0 -101093000000.0 -32650200000.0 -121144000000.0 -49820200000.0 -197812000000.0 -46892900000.0 -170943000000.0 -67883300000.0 -125412000000.0 -10871300000.0 -78685000000.0 -9839360000.0 -61608300000.0 -9199690000.0 -50147100000.0 -9036310000.0 -43303600000.0 -9427690000.0 -43394300000.0 -10905100000.0 -20642400000.0 -48277700000.0 -55008300000.0 -44554800000.0 -65678900000.0 -92388600000.0 -85406100000.0 -79747000000.0 -59494000000.0 -42950200000.0 -31828400000.0 -42859500000.0 -32951800000.0 -12897800000.0 -14758500000.0 -124693000000.0 -73216200000.0 -55933300000.0 -45208100000.0 -30476900000.0 -10089100000.0 -23462600000.0 -15029200000.0 -27696300000.0 -28152000000.0 -16833000000.0 -19420700000.0 -10620400000.0 -28049400000.0 -41624400000.0 -53382700000.0 -68963800000.0 -112835000000.0 -16771400000.0 -14998300000.0 -37122900000.0 -47702200000.0 -37651700000.0 -48883100000.0 -64794000000.0 -82681500000.0 -83528600000.0 -84307600000.0 -60100100000.0 -46789800000.0 -53277100000.0 -45337200000.0 -23088200000.0 -9035750000.0 -49871300000.0 -9035750000.0 -57123200000.0 -9035750000.0 -63782500000.0 -9035750000.0 -78965600000.0 -9035750000.0 -89914400000.0 -10169800000.0 -162074000000.0 -12244000000.0 -172470000000.0 -74680600000.0 -145949000000.0 -31267800000.0 -91600800000.0 -24236000000.0 -68049500000.0 -14948100000.0 -50272800000.0 -9964220000.0 -40869800000.0 -9035750000.0 -39725000000.0 -9035750000.0 -18360600000.0 -39048200000.0 -48760600000.0 -44408800000.0 -57706500000.0 -83611700000.0 -82302800000.0 -81433400000.0 -63279900000.0 -47430800000.0 -38312900000.0 -48176900000.0 -37357900000.0 -14977700000.0 -16764000000.0 -113095000000.0 -69097500000.0 -53469600000.0 -41660800000.0 -28075900000.0 -10614700000.0 -19437600000.0 -16834900000.0 -28169700000.0 -28380600000.0 -18274900000.0 -16583200000.0 -10828000000.0 -25293500000.0 -37430800000.0 -49167300000.0 -62991700000.0 -100666000000.0 -18278900000.0 -15769100000.0 -38652200000.0 -49610300000.0 -40894800000.0 -50119700000.0 -65636900000.0 -82898100000.0 -83789500000.0 -82202700000.0 -60409000000.0 -49310400000.0 -49835400000.0 -39290300000.0 -22575800000.0 -9035750000.0 -46155900000.0 -9035750000.0 -52535800000.0 -9035750000.0 -60395400000.0 -9035750000.0 -74468500000.0 -9035750000.0 -82606700000.0 -12302600000.0 -157165000000.0 -22055100000.0 -171234000000.0 -41479800000.0 -123066000000.0 -9035750000.0 -69640500000.0 -9035750000.0 -55309300000.0 -9035750000.0 -45486600000.0 -9035750000.0 -38688100000.0 -9035750000.0 -37387500000.0 -9035750000.0 -18599100000.0 -34091500000.0 -45879300000.0 -47097200000.0 -57522300000.0 -80951700000.0 -82424300000.0 -81881100000.0 -64469300000.0 -48972200000.0 -41468200000.0 -50015400000.0 -38839500000.0 -15775400000.0 -18294700000.0 -100869000000.0 -63095900000.0 -49232800000.0 -37459600000.0 -25313800000.0 -10828400000.0 -16597500000.0 -18277300000.0 -28391900000.0 -28316900000.0 -19522800000.0 -14923800000.0 -11165500000.0 -23060600000.0 -33807400000.0 -44913500000.0 -56996500000.0 -89045800000.0 -19891100000.0 -17116300000.0 -40171100000.0 -51312400000.0 -44181400000.0 -51953100000.0 -66837900000.0 -82973600000.0 -83855100000.0 -81238900000.0 -60339700000.0 -50461500000.0 -46396700000.0 -34278700000.0 -21983100000.0 -9035750000.0 -42899100000.0 -9035750000.0 -48526500000.0 -9035750000.0 -57183500000.0 -9035750000.0 -70020300000.0 -9035750000.0 -76631000000.0 -9035750000.0 -140276000000.0 -9035750000.0 -168512000000.0 -42252200000.0 -119057000000.0 -9035750000.0 -64759900000.0 -9035750000.0 -52495100000.0 -9035750000.0 -43839400000.0 -9035750000.0 -36808100000.0 -9035750000.0 -35382900000.0 -9035750000.0 -18661500000.0 -30005600000.0 -42936100000.0 -48473400000.0 -57777100000.0 -79806300000.0 -82642000000.0 -82159800000.0 -65915700000.0 -51024000000.0 -44626000000.0 -51625200000.0 -40296800000.0 -17120800000.0 -19906200000.0 -89192100000.0 -57068000000.0 -44955800000.0 -33825500000.0 -23073100000.0 -11165700000.0 -14932800000.0 -19524600000.0 -28324000000.0 -28018300000.0 -20490100000.0 -13961100000.0 -11458500000.0 -21189100000.0 -30578300000.0 -40646600000.0 -51033700000.0 -78058100000.0 -21140500000.0 -18294900000.0 -40898700000.0 -51901800000.0 -46324600000.0 -53018100000.0 -67127200000.0 -82092500000.0 -83002200000.0 -80069200000.0 -59786000000.0 -50729700000.0 -43111400000.0 -30242600000.0 -21354500000.0 -9035750000.0 -40027900000.0 -9035750000.0 -45046700000.0 -9035750000.0 -54092100000.0 -9035750000.0 -65606000000.0 -9035750000.0 -71007900000.0 -9035750000.0 -129696000000.0 -9035750000.0 -163693000000.0 -35053300000.0 -113185000000.0 -9035750000.0 -60133900000.0 -9035750000.0 -49922100000.0 -9035750000.0 -42327100000.0 -9035750000.0 -35159800000.0 -9035750000.0 -33647400000.0 -9035750000.0 -18609500000.0 -26730900000.0 -40159800000.0 -49004200000.0 -57700400000.0 -78777700000.0 -82004500000.0 -81466800000.0 -66408500000.0 -52284400000.0 -46664100000.0 -52143200000.0 -40979700000.0 -18298100000.0 -21154800000.0 -78161200000.0 -51082000000.0 -40673400000.0 -30589400000.0 -21196700000.0 -11458600000.0 -13966700000.0 -20491400000.0 -28022700000.0 -27554700000.0 -21181100000.0 -13442700000.0 -11703100000.0 -19686900000.0 -27807200000.0 -36640300000.0 -45414400000.0 -67987800000.0 -22021000000.0 -19288300000.0 -41020400000.0 -51648900000.0 -47557000000.0 -53496500000.0 -66709700000.0 -80441200000.0 -81200000000.0 -78076000000.0 -58564700000.0 -50149900000.0 -39984000000.0 -27025400000.0 -20718200000.0 -9035750000.0 -37470300000.0 -9035750000.0 -41966500000.0 -9035750000.0 -51064700000.0 -9035750000.0 -61248200000.0 -9035750000.0 -65710100000.0 -9035750000.0 -119328000000.0 -9035750000.0 -32662800000.0 -106751000000.0 -9035750000.0 -55798300000.0 -9035750000.0 -47464800000.0 -9035750000.0 -40843400000.0 -9035750000.0 -33656100000.0 -9035750000.0 -32103200000.0 -9035750000.0 -18472600000.0 -24167800000.0 -37549800000.0 -48694600000.0 -56904300000.0 -77006500000.0 -80401500000.0 -79968200000.0 -66155100000.0 -52927000000.0 -47811900000.0 -51830600000.0 -41068800000.0 -19290500000.0 -22034300000.0 -68059100000.0 -45446400000.0 -36657000000.0 -27813800000.0 -19691400000.0 -11703200000.0 -13446000000.0 -21182100000.0 -27557300000.0 -161623000000.0 -26970200000.0 -21605800000.0 -13187000000.0 -11896500000.0 -18513100000.0 -25492600000.0 -33042700000.0 -40318900000.0 -58990800000.0 -22541300000.0 -20083300000.0 -40658200000.0 -50695000000.0 -47955900000.0 -53366800000.0 -65586300000.0 -78086800000.0 -78566600000.0 -75301100000.0 -56764900000.0 -48879600000.0 -37061800000.0 -24475600000.0 -20087000000.0 -9035750000.0 -35161400000.0 -9035750000.0 -39154100000.0 -9035750000.0 -48085300000.0 -9035750000.0 -56967900000.0 -9035750000.0 -60717500000.0 -9035750000.0 -109400000000.0 -9035750000.0 -158286000000.0 -30062500000.0 -99671200000.0 -9035750000.0 -51772200000.0 -9035750000.0 -45023100000.0 -9035750000.0 -39331300000.0 -9035750000.0 -32226500000.0 -9035750000.0 -30685400000.0 -9035750000.0 -18263100000.0 -22193600000.0 -35109500000.0 -47677900000.0 -55454900000.0 -74442000000.0 -77941400000.0 -77731700000.0 -65164200000.0 -52932200000.0 -48145700000.0 -50828100000.0 -40684000000.0 -20084900000.0 -22553400000.0 -59039200000.0 -40339800000.0 -33053000000.0 -25496500000.0 -18515700000.0 -11896500000.0 -13189000000.0 -21606600000.0 -26971800000.0 -26278700000.0 -21779300000.0 -13068300000.0 -12036500000.0 -17603600000.0 -23591300000.0 -29909000000.0 -35827900000.0 -51122300000.0 -22723600000.0 -20670400000.0 -39917800000.0 -49193900000.0 -47636800000.0 -52671500000.0 -63827300000.0 -75129400000.0 -75245300000.0 -71888900000.0 -54485600000.0 -47064400000.0 -34365300000.0 -22461400000.0 -19462400000.0 -9035750000.0 -33044400000.0 -9035750000.0 -36530600000.0 -9035750000.0 -45160300000.0 -9035750000.0 -52787900000.0 -9035750000.0 -56010900000.0 -9035750000.0 -99972000000.0 -9035750000.0 -27607900000.0 -92259600000.0 -9035750000.0 -48044300000.0 -9035750000.0 -42557400000.0 -9035750000.0 -37749300000.0 -9035750000.0 -30819500000.0 -9035750000.0 -29344500000.0 -9035750000.0 -17988400000.0 -20674600000.0 -32827300000.0 -46087800000.0 -53460100000.0 -71209700000.0 -74765800000.0 -74862900000.0 -63511200000.0 -52345200000.0 -47776700000.0 -49288800000.0 -39928600000.0 -20671400000.0 -22734300000.0 -51154500000.0 -35841400000.0 -29915300000.0 -23593500000.0 -17605200000.0 -12036500000.0 -13069400000.0 -21780000000.0 -26279600000.0 -153555000000.0 -25479700000.0 -21720600000.0 -13004800000.0 -12122100000.0 -16888000000.0 -22035400000.0 -27231700000.0 -31950400000.0 -44360500000.0 -22599900000.0 -21043500000.0 -38878100000.0 -47277900000.0 -46705900000.0 -51459200000.0 -61513200000.0 -71662500000.0 -71377200000.0 -67988100000.0 -51824200000.0 -44835500000.0 -31888200000.0 -20859600000.0 -18840000000.0 -9035750000.0 -31071100000.0 -9035750000.0 -34058100000.0 -9035750000.0 -42295100000.0 -9035750000.0 -48736200000.0 -9035750000.0 -51573700000.0 -9035750000.0 -91043900000.0 -9035750000.0 -147676000000.0 -25244600000.0 -84763200000.0 -9035750000.0 -44577400000.0 -9035750000.0 -40071500000.0 -9035750000.0 -36080000000.0 -9035750000.0 -29403200000.0 -9035750000.0 -28041900000.0 -9035750000.0 -17654300000.0 -19481500000.0 -30688800000.0 -44052300000.0 -51028500000.0 -67458000000.0 -71016900000.0 -71462600000.0 -61280200000.0 -51217900000.0 -46808000000.0 -47343900000.0 -38879800000.0 -21044100000.0 -22609100000.0 -44381600000.0 -31959100000.0 -27235400000.0 -22036700000.0 -16888900000.0 -12122100000.0 -13005400000.0 -21721100000.0 -25480200000.0 -24573300000.0 -21451300000.0 -12947400000.0 -12153100000.0 -16300300000.0 -20748300000.0 -24964100000.0 -28647400000.0 -38629600000.0 -22209400000.0 -58728700000.0 -67774800000.0 -67095600000.0 -63733500000.0 -48873300000.0 -42308300000.0 -29609000000.0 -19558400000.0 -18213700000.0 -9035750000.0 -29203800000.0 -9035750000.0 -31717400000.0 -9035750000.0 -39491000000.0 -9035750000.0 -44840300000.0 -9035750000.0 -47391400000.0 -9035750000.0 -82607300000.0 -9035750000.0 -22964100000.0 -77369100000.0 -9035750000.0 -41328300000.0 -9035750000.0 -37580000000.0 -9035750000.0 -34324100000.0 -9035750000.0 -27963000000.0 -9035750000.0 -26748700000.0 -9035750000.0 -17264700000.0 -18504900000.0 -28679900000.0 -41688500000.0 -48262000000.0 -63324800000.0 -66830100000.0 -67625500000.0 -58559700000.0 -22217100000.0 -38643200000.0 -28653000000.0 -24966400000.0 -20749000000.0 -16300900000.0 -12153100000.0 -12947700000.0 -21451700000.0 -24573700000.0 -21200800000.0 -37594800000.0 -45055900000.0 -45261200000.0 -49782200000.0 -140807000000.0 -49606400000.0 -45335000000.0 -45100300000.0 -37591400000.0 -21201200000.0 -23566400000.0 -20995200000.0 -12866200000.0 -12130300000.0 -15784800000.0 -19655900000.0 -23039500000.0 -25851700000.0 -33818800000.0 -21595100000.0 -21144000000.0 -36104800000.0 -42612100000.0 -43391700000.0 -47694800000.0 -55557100000.0 -63551700000.0 -62520800000.0 -59242500000.0 -45717100000.0 -39582300000.0 -27500700000.0 -18464000000.0 -17577600000.0 -9035750000.0 -27414500000.0 -9035750000.0 -29495200000.0 -9035750000.0 -36748800000.0 -9035750000.0 -41120800000.0 -9035750000.0 -43449000000.0 -9035750000.0 -74650400000.0 -9035750000.0 -133043000000.0 -20840400000.0 -70205100000.0 -9035750000.0 -38259300000.0 -9035750000.0 -35096400000.0 -9035750000.0 -32490200000.0 -9035750000.0 -26495900000.0 -9035750000.0 -25445600000.0 -9035750000.0 -16821900000.0 -17662700000.0 -26785500000.0 -39098400000.0 -45252500000.0 -58931100000.0 -62329100000.0 -63441100000.0 -55436500000.0 -47568700000.0 -43444500000.0 -42641000000.0 -36099100000.0 -21144200000.0 -21601400000.0 -33827500000.0 -25855200000.0 -23040900000.0 -19656300000.0 -15785100000.0 -12130300000.0 -12866300000.0 -20995500000.0 -23566700000.0 -17503600000.0 -9035750000.0 -9035750000.0 -9035750000.0 -9035750000.0 -9035750000.0 -9035750000.0 -9035750000.0 -18924900000.0 -9035750000.0 -9035750000.0 -9035750000.0 -9035750000.0 -9035750000.0 -9035750000.0 -16896200000.0 -22471200000.0 -20376500000.0 -12743300000.0 -12055300000.0 -15298200000.0 -18692400000.0 -21385700000.0 -23482500000.0 -29799400000.0 -20800700000.0 -20878200000.0 -34431800000.0 -40009300000.0 -41176100000.0 -45251300000.0 -52075900000.0 -59073400000.0 -57757600000.0 -54614300000.0 -42429500000.0 -36740200000.0 -25535700000.0 -16926800000.0 -25682800000.0 -27380000000.0 -34069400000.0 -37587900000.0 -39729800000.0 -67163000000.0 -124480000000.0 -63349700000.0 -35339200000.0 -32634000000.0 -30590100000.0 -25004800000.0 -24121300000.0 -16327800000.0 -24989100000.0 -36367800000.0 -42080100000.0 -54379900000.0 -57622200000.0 -58992500000.0 -51991000000.0 -45162200000.0 -41213500000.0 -40027200000.0 -34425500000.0 -20878300000.0 -20805700000.0 -29805000000.0 -23484800000.0 -21386600000.0 -18692600000.0 -15298400000.0 -12055300000.0 -12743300000.0 -20376700000.0 -22471300000.0 -21302800000.0 -19619100000.0 -12570300000.0 -11930400000.0 -14810800000.0 -17803700000.0 -19934300000.0 -21458000000.0 -26438500000.0 -19867800000.0 -20411900000.0 -32590800000.0 -37292100000.0 -38682600000.0 -42503900000.0 -48354200000.0 -54412900000.0 -52893300000.0 -49930100000.0 -39072200000.0 -33848700000.0 -23688500000.0 -16624600000.0 -16257800000.0 -9035750000.0 -23994800000.0 -9035750000.0 -25360300000.0 -9035750000.0 -31452600000.0 -9035750000.0 -34241400000.0 -9035750000.0 -36215000000.0 -9035750000.0 -60129200000.0 -9035750000.0 -115221000000.0 -17233800000.0 -56842900000.0 -9035750000.0 -32541400000.0 -9035750000.0 -30204300000.0 -9035750000.0 -28635300000.0 -9035750000.0 -23495400000.0 -9035750000.0 -22770800000.0 -9035750000.0 -15785200000.0 -16166000000.0 -23274300000.0 -33566400000.0 -38812400000.0 -49755800000.0 -52799800000.0 -54354500000.0 -48295500000.0 -42442100000.0 -38708900000.0 -37302500000.0 -32584900000.0 -20411900000.0 -19871600000.0 -26442100000.0 -21459500000.0 -19934800000.0 -17803800000.0 -14810900000.0 -11930400000.0 -12570300000.0 -19619300000.0 -21302900000.0 -20077500000.0 -18745500000.0 -12345600000.0 -11758600000.0 -14304400000.0 -16948400000.0 -18625900000.0 -19701900000.0 -23609100000.0 -18833900000.0 -19756200000.0 -30592300000.0 -34490600000.0 -35969000000.0 -39502000000.0 -44452200000.0 -49633600000.0 -47997500000.0 -45253500000.0 -35695100000.0 -30959300000.0 -21937000000.0 -15791300000.0 -15568300000.0 -9035750000.0 -22340500000.0 -9035750000.0 -23425100000.0 -9035750000.0 -28896600000.0 -9035750000.0 -31073700000.0 -9035750000.0 -32883300000.0 -9035750000.0 -53522400000.0 -9035750000.0 -105366000000.0 -15762400000.0 -50695200000.0 -9035750000.0 -29843400000.0 -9035750000.0 -27814700000.0 -9035750000.0 -26636900000.0 -9035750000.0 -21973200000.0 -9035750000.0 -21392700000.0 -9035750000.0 -15197400000.0 -15446400000.0 -21626000000.0 -30748400000.0 -35504100000.0 -45125500000.0 -47934600000.0 -49592300000.0 -44412200000.0 -39459800000.0 -35987300000.0 -34496100000.0 -30587300000.0 -19756200000.0 -18836700000.0 -23611500000.0 -19702800000.0 -18626200000.0 -16948400000.0 -14304400000.0 -11758600000.0 -12345600000.0 -18745600000.0 -20077500000.0 -18811000000.0 -17776300000.0 -12072100000.0 -11543600000.0 -13769600000.0 -16096900000.0 -17412100000.0 -18147700000.0 -21196800000.0 -17731300000.0 -18924800000.0 -28444900000.0 -31624400000.0 -33083200000.0 -36290800000.0 -40420200000.0 -44788600000.0 -43122500000.0 -40631100000.0 -32336000000.0 -28109300000.0 -20262600000.0 -14980900000.0 -14857500000.0 -9035750000.0 -20713000000.0 -9035750000.0 -21563400000.0 -9035750000.0 -26398200000.0 -9035750000.0 -28071600000.0 -9035750000.0 -29712300000.0 -9035750000.0 -47308100000.0 -9035750000.0 -95009100000.0 -14494900000.0 -44895000000.0 -9035750000.0 -27226800000.0 -9035750000.0 -25468500000.0 -9035750000.0 -24604900000.0 -9035750000.0 -20443400000.0 -9035750000.0 -19988400000.0 -9035750000.0 -14568300000.0 -14723000000.0 -20031300000.0 -27954200000.0 -32197200000.0 -40538500000.0 -43081500000.0 -44759900000.0 -40393500000.0 -36262600000.0 -33095800000.0 -31626800000.0 -28441000000.0 -18924800000.0 -17733400000.0 -21198300000.0 -18148300000.0 -17412300000.0 -16097000000.0 -13769600000.0 -11543600000.0 -12072100000.0 -17776400000.0 -18811000000.0 -17517400000.0 -16730200000.0 -11754500000.0 -11289300000.0 -13203700000.0 -15230600000.0 -16255700000.0 -16740400000.0 -19102900000.0 -16586200000.0 -17933900000.0 -26157900000.0 -28705500000.0 -30064500000.0 -32911200000.0 -36299000000.0 -39919100000.0 -38304700000.0 -36094200000.0 -29021400000.0 -25323500000.0 -18650000000.0 -14180500000.0 -14125600000.0 -9035750000.0 -19107200000.0 -9035750000.0 -19764700000.0 -9035750000.0 -23953300000.0 -9035750000.0 -25218500000.0 -9035750000.0 -26679300000.0 -9035750000.0 -41446700000.0 -9035750000.0 -84233700000.0 -13408700000.0 -39415900000.0 -9035750000.0 -24675900000.0 -9035750000.0 -23165400000.0 -9035750000.0 -22548100000.0 -9035750000.0 -18909900000.0 -9035750000.0 -18560900000.0 -9035750000.0 -13902100000.0 -13988900000.0 -18479900000.0 -25211300000.0 -28921800000.0 -36028100000.0 -38278800000.0 -39899800000.0 -36281600000.0 -32892700000.0 -30073100000.0 -28706100000.0 -26155000000.0 -17933900000.0 -16587700000.0 -19103900000.0 -16740800000.0 -16255800000.0 -15230600000.0 -13203700000.0 -11289300000.0 -11754500000.0 -16730300000.0 -17517500000.0 -16208400000.0 -15623400000.0 -11398300000.0 -11000300000.0 -12607900000.0 -14338800000.0 -15129700000.0 -15435900000.0 -17245600000.0 -15418400000.0 -16801300000.0 -23742300000.0 -25741700000.0 -26944600000.0 -29398900000.0 -32120600000.0 -35055400000.0 -33565700000.0 -31659900000.0 -25767300000.0 -22615300000.0 -17086700000.0 -13383200000.0 -13373900000.0 -9035750000.0 -17519100000.0 -9035750000.0 -18018900000.0 -9035750000.0 -21556500000.0 -9035750000.0 -22495400000.0 -9035750000.0 -23762200000.0 -9035750000.0 -35895800000.0 -9035750000.0 -73115600000.0 -12478600000.0 -34222500000.0 -9035750000.0 -22177200000.0 -9035750000.0 -20902700000.0 -9035750000.0 -20473700000.0 -9035750000.0 -17375700000.0 -9035750000.0 -17113900000.0 -9035750000.0 -13203400000.0 -13242300000.0 -16963100000.0 -22535600000.0 -25697000000.0 -31613400000.0 -33550100000.0 -35042600000.0 -32109400000.0 -29387100000.0 -26950400000.0 -25741300000.0 -23740300000.0 -16801300000.0 -15419400000.0 -17246300000.0 -15436100000.0 -15129700000.0 -14338800000.0 -12607900000.0 -11000300000.0 -11398300000.0 -15623500000.0 -16208400000.0 -14892200000.0 -14469900000.0 -11009300000.0 -10681300000.0 -11986300000.0 -13417500000.0 -14016300000.0 -14200300000.0 -15559700000.0 -14241900000.0 -15546400000.0 -21212000000.0 -22738400000.0 -23748500000.0 -25784800000.0 -27908400000.0 -30216400000.0 -28914600000.0 -27332800000.0 -22580700000.0 -19988700000.0 -15562200000.0 -12586200000.0 -12604200000.0 -9035750000.0 -15945400000.0 -9035750000.0 -16316400000.0 -9035750000.0 -19201900000.0 -9035750000.0 -19881900000.0 -9035750000.0 -20940000000.0 -9035750000.0 -30610200000.0 -9035750000.0 -61722000000.0 -11678500000.0 -29273900000.0 -9035750000.0 -19719200000.0 -9035750000.0 -18676100000.0 -9035750000.0 -18387300000.0 -9035750000.0 -15842600000.0 -9035750000.0 -15651400000.0 -9035750000.0 -12477000000.0 -12484500000.0 -15474100000.0 -19933300000.0 -22532000000.0 -27300800000.0 -28905600000.0 -30208300000.0 -27901400000.0 -25777400000.0 -23752400000.0 -22737600000.0 -21210600000.0 -15546400000.0 -14242500000.0 -15560200000.0 -14200500000.0 -14016300000.0 -13417600000.0 -11986300000.0 -10681300000.0 -11009300000.0 -14469900000.0 -14892200000.0 -13574400000.0 -13281600000.0 -10593500000.0 -10337600000.0 -11343900000.0 -12467500000.0 -12904700000.0 -13008900000.0 -13994000000.0 -13065200000.0 -14190100000.0 -18583600000.0 -19700800000.0 -20496500000.0 -22094400000.0 -23678600000.0 -25411500000.0 -24349300000.0 -23107000000.0 -19460200000.0 -17439300000.0 -14067800000.0 -11789000000.0 -11819300000.0 -9035750000.0 -14383000000.0 -9035750000.0 -14648200000.0 -9035750000.0 -16882600000.0 -9035750000.0 -17357400000.0 -9035750000.0 -18193300000.0 -9035750000.0 -25542900000.0 -9035750000.0 -50112300000.0 -10982300000.0 -24526300000.0 -9035750000.0 -17292000000.0 -9035750000.0 -16479900000.0 -9035750000.0 -16293300000.0 -9035750000.0 -14311300000.0 -9035750000.0 -14177000000.0 -9035750000.0 -11727800000.0 -11717800000.0 -14007000000.0 -17402100000.0 -19427500000.0 -23085700000.0 -24344500000.0 -25406600000.0 -23674400000.0 -22090000000.0 -20499000000.0 -19699900000.0 -18582700000.0 -14190000000.0 -13065700000.0 -13994300000.0 -13009000000.0 -12904800000.0 -12467500000.0 -11343900000.0 -10337600000.0 -10593500000.0 -13281600000.0 -13574400000.0 -12257900000.0 -12068300000.0 -10157000000.0 -9974350000.0 -10686000000.0 -11492500000.0 -11789800000.0 -11844400000.0 -12509300000.0 -11893000000.0 -12753900000.0 -15876200000.0 -16634600000.0 -17204500000.0 -18349400000.0 -19441200000.0 -20641600000.0 -19859000000.0 -18968100000.0 -16397800000.0 -14956300000.0 -12595800000.0 -10991700000.0 -11022100000.0 -9035750000.0 -12829100000.0 -9035750000.0 -13005800000.0 -9035750000.0 -14591200000.0 -9035750000.0 -14901100000.0 -9035750000.0 -15503500000.0 -9035750000.0 -20645600000.0 -9035750000.0 -38338100000.0 -10365100000.0 -19934200000.0 -9035750000.0 -14887200000.0 -9035750000.0 -14307800000.0 -9035750000.0 -14194600000.0 -9035750000.0 -12782100000.0 -9035750000.0 -12694000000.0 -9035750000.0 -10960700000.0 -10945000000.0 -12556400000.0 -14932800000.0 -16377100000.0 -18954800000.0 -19856600000.0 -20638800000.0 -19438900000.0 -18346900000.0 -17206000000.0 -16633900000.0 -15875700000.0 -12753900000.0 -11893200000.0 -12509500000.0 -11844500000.0 -11789800000.0 -11492500000.0 -10686000000.0 -9974350000.0 -10157000000.0 -12068300000.0 -12257900000.0 -10943600000.0 -10838500000.0 -9705620000.0 -9597150000.0 -10017400000.0 -10498700000.0 -10669900000.0 -10695000000.0 -11075900000.0 -10726000000.0 -11260500000.0 -13111000000.0 -13546700000.0 -13885600000.0 -14567600000.0 -15201400000.0 -15900500000.0 -15426100000.0 -14895000000.0 -13380000000.0 -12523800000.0 -11139300000.0 -10194500000.0 -10216100000.0 -9035750000.0 -11281100000.0 -9035750000.0 -11381300000.0 -9035750000.0 -12319700000.0 -9035750000.0 -12492900000.0 -9035750000.0 -12853200000.0 -9035750000.0 -15869200000.0 -9035750000.0 -26445700000.0 -9802800000.0 -15451900000.0 -9035750000.0 -12497200000.0 -9035750000.0 -12152900000.0 -9035750000.0 -12093200000.0 -9035750000.0 -11254700000.0 -9035750000.0 -11205300000.0 -9035750000.0 -10181100000.0 -10168200000.0 -11117300000.0 -12510900000.0 -13368700000.0 -14887700000.0 -15425000000.0 -15899100000.0 -15200200000.0 -14566300000.0 -13886400000.0 -13546200000.0 -13110700000.0 -11260500000.0 -10726100000.0 -11076000000.0 -10695100000.0 -10669900000.0 -10498700000.0 -10017400000.0 -9597150000.0 -9705620000.0 -10838500000.0 -10943600000.0 -9631150000.0 -9599210000.0 -9245520000.0 -9211630000.0 -9342630000.0 -9493290000.0 -9546120000.0 -9553070000.0 -9670370000.0 -9563060000.0 -9732820000.0 -10310500000.0 -10444900000.0 -10550900000.0 -10764300000.0 -10960600000.0 -11177400000.0 -11027900000.0 -10861800000.0 -10389800000.0 -10122200000.0 -9691660000.0 -9397440000.0 -9404590000.0 -9035750000.0 -9736350000.0 -9035750000.0 -9767090000.0 -9035750000.0 -10059900000.0 -9035750000.0 -10112700000.0 -9035750000.0 -10225600000.0 -9035750000.0 -11163500000.0 -9035750000.0 -14477300000.0 -9272670000.0 -11033700000.0 -9035750000.0 -10115600000.0 -9035750000.0 -10008000000.0 -9035750000.0 -9990240000.0 -9035750000.0 -9728300000.0 -9035750000.0 -9713230000.0 -9035750000.0 -9393830000.0 -9389420000.0 -9684990000.0 -10118300000.0 -10386400000.0 -10859600000.0 -11027700000.0 -11177000000.0 -10960200000.0 -10763900000.0 -10551100000.0 -10444700000.0 -10310500000.0 -9732820000.0 -9563100000.0 -9670400000.0 -9553080000.0 -9546130000.0 -9493290000.0 -9342630000.0 -9211620000.0 -9245520000.0 -9599210000.0 -9631150000.0 
SCALARS Shear_Stress float 1
LOOKUP_TABLE default
27832400000.0 27752600000.0 9035820000.0 19471100000.0 90983100000.0 76663400000.0 9186130000.0 26460300000.0 55500500000.0 28194400000.0 28132600000.0 53060100000.0 25750400000.0 4119560000.0 77631300000.0 91751200000.0 19599300000.0 9035850000.0 11358700000.0 79642000000.0 101113000000.0 60474800000.0 49510900000.0 65688000000.0 27025200000.0 142269000000.0 141639000000.0 25291900000.0 65040700000.0 46193600000.0 62835400000.0 104042000000.0 80059700000.0 11661600000.0 8927060000.0 18205700000.0 75846700000.0 156622000000.0 230721000000.0 19052100000.0 113234000000.0 76293800000.0 106892000000.0 18811800000.0 225510000000.0 153378000000.0 73984400000.0 23763700000.0 9086890000.0 115690000000.0 31514000000.0 183953000000.0 12576300000.0 354833000000.0 127552000000.0 134855000000.0 118626000000.0 257988000000.0 110954000000.0 251186000000.0 108495000000.0 127641000000.0 125308000000.0 346846000000.0 6134520000.0 176605000000.0 25903300000.0 111424000000.0 124327000000.0 144867000000.0 120321000000.0 63056100000.0 88290200000.0 326896000000.0 13592900000.0 43952900000.0 182045000000.0 105076000000.0 93601500000.0 163241000000.0 27564400000.0 17719000000.0 321310000000.0 85541800000.0 66191100000.0 116740000000.0 138349000000.0 127387000000.0 27842300000.0 157738000000.0 37897900000.0 180131000000.0 156761000000.0 6243950000.0 92243900000.0 36638400000.0 111563000000.0 62290700000.0 97575200000.0 8378140000.0 143684000000.0 184073000000.0 24655100000.0 153767000000.0 32872000000.0 276247000000.0 396787000000.0 100122000000.0 127144000000.0 183421000000.0 229972000000.0 186302000000.0 167595000000.0 320793000000.0 175760000000.0 199128000000.0 219829000000.0 183676000000.0 121810000000.0 103347000000.0 397891000000.0 277193000000.0 421022000000.0 184969000000.0 199659000000.0 170803000000.0 179516000000.0 200407000000.0 405411000000.0 482069000000.0 232801000000.0 412113000000.0 375518000000.0 264456000000.0 466494000000.0 393067000000.0 193735000000.0 176884000000.0 165033000000.0 202166000000.0 185130000000.0 421766000000.0 568186000000.0 402637000000.0 75777500000.0 100119000000.0 435162000000.0 347036000000.0 194735000000.0 121772000000.0 479409000000.0 395504000000.0 473196000000.0 122092000000.0 193212000000.0 338332000000.0 432294000000.0 99861600000.0 74995100000.0 411786000000.0 567221000000.0 216039000000.0 11898600000.0 435520000000.0 325014000000.0 215014000000.0 177199000000.0 259571000000.0 34323000000.0 316106000000.0 101366000000.0 330389000000.0 25056200.0 261076000000.0 169602000000.0 211259000000.0 327688000000.0 437865000000.0 7438200000.0 216361000000.0 155184000000.0 262612000000.0 736713000000.0 749497000000.0 57030100000.0 327935000000.0 256832000000.0 254688000000.0 110038000000.0 41819800000.0 47412600000.0 84967700000.0 7749750000.0 134787000000.0 249462000000.0 252307000000.0 335056000000.0 63495900000.0 754236000000.0 748719000000.0 257006000000.0 147557000000.0 160124000000.0 178087000000.0 2185860000.0 665733000000.0 762176000000.0 363705000000.0 264747000000.0 307557000000.0 231686000000.0 113704000000.0 298157000000.0 131843000000.0 153322000000.0 168492000000.0 150964000000.0 240870000000.0 294801000000.0 254440000000.0 361682000000.0 763995000000.0 672161000000.0 7575370000.0 179195000000.0 159979000000.0 48647600000.0 401152000000.0 1.36425e+12 578006000000.0 718227000000.0 553566000000.0 360051000000.0 374915000000.0 289661000000.0 43116700000.0 133108000000.0 329138000000.0 260358000000.0 46233600000.0 270356000000.0 361447000000.0 352084000000.0 541200000000.0 715937000000.0 575405000000.0 1.36354e+12 401217000000.0 47429200000.0 38362400000.0 436951000000.0 387354000000.0 222702000000.0 695378000000.0 918651000000.0 720726000000.0 449954000000.0 507247000000.0 502153000000.0 473083000000.0 392341000000.0 195736000000.0 74686700000.0 389652000000.0 212194000000.0 135121000000.0 371393000000.0 462158000000.0 503055000000.0 504259000000.0 445848000000.0 721925000000.0 927234000000.0 699771000000.0 228555000000.0 388828000000.0 440372000000.0 39974700000.0 105450000000.0 484438000000.0 399660000000.0 189563000000.0 732228000000.0 421520000000.0 336947000000.0 464547000000.0 466465000000.0 460377000000.0 449190000000.0 363820000000.0 262032000000.0 423112000000.0 157824000000.0 187408000000.0 322694000000.0 438125000000.0 449729000000.0 461833000000.0 460440000000.0 342502000000.0 408089000000.0 762731000000.0 197972000000.0 406330000000.0 485867000000.0 107468000000.0 151453000000.0 143591000000.0 508550000000.0 499219000000.0 438856000000.0 379005000000.0 491249000000.0 161513000000.0 328504000000.0 352280000000.0 480154000000.0 384218000000.0 338587000000.0 651911000000.0 746777000000.0 691542000000.0 617818000000.0 293921000000.0 377145000000.0 483855000000.0 354876000000.0 335989000000.0 168617000000.0 535995000000.0 378053000000.0 445135000000.0 501654000000.0 508017000000.0 143529000000.0 150785000000.0 131913000000.0 497528000000.0 521837000000.0 533563000000.0 565988000000.0 206970000000.0 139742000000.0 8164200000.0 114465000000.0 116263000000.0 133566000000.0 433858000000.0 445580000000.0 321443000000.0 261163000000.0 1.11647e+12 1.10791e+12 371731000000.0 354241000000.0 469770000000.0 436015000000.0 149150000000.0 133199000000.0 89553800000.0 21075700000.0 139137000000.0 213368000000.0 562263000000.0 531750000000.0 516044000000.0 495716000000.0 130356000000.0 109449000000.0 414912000000.0 452576000000.0 437540000000.0 579554000000.0 712982000000.0 557707000000.0 359197000000.0 87884900000.0 337892000000.0 96260300000.0 230399000000.0 420674000000.0 463452000000.0 369283000000.0 335253000000.0 130170000000.0 35787000000.0 210165000000.0 262749000000.0 262382000000.0 401739000000.0 446533000000.0 492558000000.0 423449000000.0 237646000000.0 75065100000.0 318660000000.0 116882000000.0 350090000000.0 554966000000.0 692402000000.0 569680000000.0 434285000000.0 450203000000.0 412519000000.0 107821000000.0 121999000000.0 104171000000.0 404163000000.0 384397000000.0 327983000000.0 407606000000.0 383496000000.0 977311000000.0 1.02372e+12 29400700000.0 622920000000.0 452159000000.0 276311000000.0 187743000000.0 40977100000.0 115812000000.0 418815000000.0 94359900000.0 268742000000.0 380543000000.0 310139000000.0 76433600000.0 229454000000.0 486300000000.0 122360000000.0 17624800000.0 162055000000.0 265598000000.0 438250000000.0 623680000000.0 45427000000.0 1.03104e+12 953329000000.0 370911000000.0 400224000000.0 323873000000.0 380770000000.0 402903000000.0 103035000000.0 121410000000.0 104772000000.0 432425000000.0 395845000000.0 370059000000.0 310903000000.0 230850000000.0 385064000000.0 324569000000.0 603885000000.0 780583000000.0 161259000000.0 143161000000.0 504482000000.0 138004000000.0 430213000000.0 412219000000.0 331521000000.0 334161000000.0 279565000000.0 280669000000.0 491110000000.0 98589500000.0 150617000000.0 769801000000.0 567980000000.0 332660000000.0 365622000000.0 226804000000.0 307691000000.0 368083000000.0 395595000000.0 432077000000.0 104862000000.0 50995600000.0 497739000000.0 465171000000.0 336877000000.0 267787000000.0 232182000000.0 110704000000.0 95555200000.0 82211100000.0 172571000000.0 1.31114e+12 434691000000.0 88608300000.0 5058770000.0 171187000000.0 1407260000.0 1179930000.0 7777840000.0 856976000000.0 292196000000.0 544508000000.0 520669000000.0 321488000000.0 382524000000.0 254267000000.0 269715000000.0 625323000000.0 340066000000.0 342559000000.0 302975000000.0 230682000000.0 386350000000.0 404358000000.0 453489000000.0 906414000000.0 25571400000.0 10143500000.0 17057300000.0 198849000000.0 50054600000.0 101752000000.0 405578000000.0 1.32865e+12 143488000000.0 81430900000.0 88079900000.0 108954000000.0 228278000000.0 266306000000.0 336361000000.0 465530000000.0 497779000000.0 50303300000.0 199729000000.0 152772000000.0 458372000000.0 543719000000.0 459198000000.0 389343000000.0 320273000000.0 193911000000.0 42036100000.0 165862000000.0 253737000000.0 296373000000.0 483985000000.0 181356000000.0 194375000000.0 419172000000.0 478810000000.0 218348000000.0 258929000000.0 628288000000.0 669799000000.0 345270000000.0 113307000000.0 329623000000.0 120682000000.0 194657000000.0 201112000000.0 473064000000.0 306641000000.0 255888000000.0 161853000000.0 39586800000.0 192366000000.0 321730000000.0 390350000000.0 459915000000.0 544219000000.0 459353000000.0 154122000000.0 199923000000.0 416661000000.0 366962000000.0 15004300000.0 376672000000.0 486176000000.0 356958000000.0 272371000000.0 232618000000.0 94302700000.0 18546500000.0 110973000000.0 515885000000.0 227540000000.0 108403000000.0 94466000000.0 239527000000.0 182016000000.0 54855900000.0 269297000000.0 593448000000.0 801235000000.0 644923000000.0 344291000000.0 47388500000.0 436534000000.0 258645000000.0 99964000000.0 109142000000.0 213326000000.0 537122000000.0 114557000000.0 13495500000.0 93295200000.0 233648000000.0 273349000000.0 359105000000.0 486483000000.0 378096000000.0 15565800000.0 367543000000.0 417075000000.0 44042900000.0 112097000000.0 243352000000.0 165646000000.0 109083000000.0 344001000000.0 305766000000.0 324322000000.0 344824000000.0 180642000000.0 61628700000.0 149970000000.0 265535000000.0 334161000000.0 135225000000.0 232949000000.0 322261000000.0 633771000000.0 846481000000.0 448998000000.0 153238000000.0 259286000000.0 446949000000.0 536735000000.0 708557000000.0 782140000000.0 841646000000.0 803899000000.0 734910000000.0 582480000000.0 476603000000.0 301566000000.0 138275000000.0 735460000000.0 342981000000.0 704323000000.0 365070000000.0 241072000000.0 129515000000.0 333734000000.0 277509000000.0 147827000000.0 68321100000.0 182242000000.0 347838000000.0 327477000000.0 308782000000.0 345263000000.0 109775000000.0 165025000000.0 244431000000.0 113433000000.0 44459600000.0 99979300000.0 351275000000.0 59208400000.0 807700000000.0 922693000000.0 193718000000.0 181637000000.0 397470000000.0 503851000000.0 357880000000.0 343375000000.0 106815000000.0 102721000000.0 118960000000.0 28810300000.0 226482000000.0 123384000000.0 300548000000.0 465560000000.0 137285000000.0 81504700000.0 300936000000.0 596828000000.0 788598000000.0 799401000000.0 618492000000.0 309806000000.0 310351000000.0 120194000000.0 484286000000.0 309413000000.0 127794000000.0 227199000000.0 25356600000.0 120710000000.0 106281000000.0 109776000000.0 347064000000.0 361322000000.0 507933000000.0 401076000000.0 183308000000.0 194199000000.0 921461000000.0 811392000000.0 57754700000.0 351692000000.0 100584000000.0 69068900000.0 696278000000.0 20576400000.0 328261000000.0 230288000000.0 476447000000.0 177348000000.0 458503000000.0 385752000000.0 602813000000.0 551152000000.0 134551000000.0 77890500000.0 176745000000.0 258651000000.0 40913600000.0 165410000000.0 5387060000.0 754548000000.0 150443000000.0 450088000000.0 686642000000.0 784126000000.0 700290000000.0 464819000000.0 235767000000.0 575587000000.0 11347000000.0 170177000000.0 36610200000.0 255195000000.0 181492000000.0 78028300000.0 133998000000.0 555651000000.0 605468000000.0 389070000000.0 459119000000.0 174496000000.0 476770000000.0 230767000000.0 328231000000.0 21644400000.0 697481000000.0 68780500000.0 117552000000.0 531116000000.0 791829000000.0 1.2428e+12 125797000000.0 605294000000.0 851748000000.0 868946000000.0 1.39585e+12 802430000000.0 868888000000.0 706829000000.0 750318000000.0 512758000000.0 85949000000.0 113209000000.0 33245200000.0 142518000000.0 104798000000.0 50968000000.0 355228000000.0 432488000000.0 642925000000.0 381184000000.0 335228000000.0 310836000000.0 424203000000.0 554388000000.0 600926000000.0 709400000000.0 673626000000.0 715382000000.0 610301000000.0 568031000000.0 447474000000.0 351501000000.0 396542000000.0 482128000000.0 609766000000.0 403944000000.0 340582000000.0 58501900000.0 98705600000.0 142414000000.0 36678400000.0 113075000000.0 85705300000.0 517139000000.0 753799000000.0 710063000000.0 869786000000.0 803008000000.0 1.39745e+12 867342000000.0 851186000000.0 605784000000.0 124131000000.0 1.24282e+12 791258000000.0 530780000000.0 117779000000.0 232265000000.0 436028000000.0 235138000000.0 861114000000.0 1.42318e+12 704929000000.0 707149000000.0 506373000000.0 1.17931e+12 1.27116e+12 779463000000.0 718479000000.0 47830000000.0 141324000000.0 8934020000.0 529366000000.0 460012000000.0 11578500000.0 284122000000.0 579559000000.0 473604000000.0 368271000000.0 485179000000.0 593477000000.0 597912000000.0 500001000000.0 402233000000.0 529715000000.0 576422000000.0 277178000000.0 12645200000.0 451940000000.0 521654000000.0 6301260000.0 140715000000.0 44525400000.0 725727000000.0 778745000000.0 1.26918e+12 1.17559e+12 504642000000.0 706288000000.0 704894000000.0 1.42365e+12 859957000000.0 235088000000.0 436265000000.0 231480000000.0 424389000000.0 143688000000.0 411727000000.0 735066000000.0 266849000000.0 1.00396e+12 908909000000.0 3267470000.0 1.00375e+12 77846100000.0 856519000000.0 381045000000.0 749118000000.0 922427000000.0 114380000000.0 251227000000.0 114369000000.0 667786000000.0 808876000000.0 487411000000.0 592240000000.0 396364000000.0 401246000000.0 497409000000.0 545839000000.0 506309000000.0 422175000000.0 436018000000.0 602781000000.0 482045000000.0 810565000000.0 667190000000.0 112802000000.0 251882000000.0 117944000000.0 926605000000.0 747219000000.0 375670000000.0 854382000000.0 72855800000.0 1.00271e+12 5061790000.0 908438000000.0 1.00339e+12 265267000000.0 734825000000.0 411591000000.0 143371000000.0 424707000000.0 197694000000.0 1.48992e+12 969835000000.0 22951000000.0 150048000000.0 1.30275e+12 31662400000.0 1.20742e+12 380476000000.0 1.18056e+12 1.26646e+12 1.04818e+12 146361000000.0 760000000000.0 768212000000.0 260602000000.0 396193000000.0 37961600000.0 732643000000.0 470681000000.0 175369000000.0 104166000000.0 497178000000.0 400561000000.0 446168000000.0 362827000000.0 368097000000.0 345447000000.0 409649000000.0 393393000000.0 471842000000.0 421647000000.0 475928000000.0 401402000000.0 422945000000.0 361734000000.0 393153000000.0 388174000000.0 480521000000.0 418191000000.0 513537000000.0 116429000000.0 192176000000.0 473918000000.0 732179000000.0 40079400000.0 394907000000.0 261138000000.0 772474000000.0 755474000000.0 152194000000.0 1.04741e+12 1.26561e+12 1.18119e+12 379238000000.0 1.20758e+12 31354100000.0 1.30141e+12 150318000000.0 23218100000.0 970009000000.0 1.49007e+12 197654000000.0 49785200000.0 163498000000.0 1.36234e+12 1.0118e+12 444675000000.0 387990000000.0 649499000000.0 437291000000.0 920351000000.0 787310000000.0 706730000000.0 1.01484e+12 656929000000.0 661738000000.0 167718000000.0 375484000000.0 633058000000.0 383245000000.0 429648000000.0 604134000000.0 860662000000.0 535493000000.0 320896000000.0 158723000000.0 119456000000.0 338603000000.0 299150000000.0 322003000000.0 357012000000.0 360587000000.0 332732000000.0 316843000000.0 359091000000.0 131488000000.0 144471000000.0 313790000000.0 553303000000.0 859758000000.0 602233000000.0 424575000000.0 389997000000.0 627242000000.0 369974000000.0 171887000000.0 666396000000.0 654872000000.0 1.0175e+12 705169000000.0 789337000000.0 919041000000.0 437682000000.0 647894000000.0 387853000000.0 444390000000.0 1.0121e+12 1.36221e+12 163514000000.0 49852800000.0 49070600000.0 349999000000.0 576591000000.0 691894000000.0 551980000000.0 529984000000.0 38669000000.0 267665000000.0 47372000000.0 575614000000.0 1.15175e+12 144791000000.0 864173000000.0 450480000000.0 97502000000.0 584004000000.0 294205000000.0 382272000000.0 586374000000.0 641515000000.0 180118000000.0 893659000000.0 606590000000.0 269478000000.0 244060000000.0 260101000000.0 291057000000.0 308071000000.0 297681000000.0 272241000000.0 259845000000.0 280421000000.0 600251000000.0 888210000000.0 187208000000.0 638210000000.0 598229000000.0 383889000000.0 289324000000.0 583653000000.0 100954000000.0 451827000000.0 861771000000.0 146861000000.0 1.14943e+12 573513000000.0 47094200000.0 266937000000.0 38603300000.0 529697000000.0 551422000000.0 691602000000.0 576148000000.0 349892000000.0 49028700000.0 31599500000.0 5991240000.0 382101000000.0 312946000000.0 83289400000.0 362683000000.0 251079000000.0 200190000000.0 144726000000.0 241616000000.0 25372400000.0 380539000000.0 547020000000.0 116967000000.0 943314000000.0 33628800000.0 1.11988e+12 19495700000.0 298715000000.0 521057000000.0 643015000000.0 493224000000.0 783953000000.0 122141000000.0 460814000000.0 357110000000.0 3463580000.0 132997000000.0 115323000000.0 196982000000.0 167983000000.0 228123000000.0 193393000000.0 251279000000.0 206484000000.0 254287000000.0 198455000000.0 236497000000.0 177865000000.0 209704000000.0 124734000000.0 142680000000.0 1963690000.0 366454000000.0 476206000000.0 124921000000.0 786237000000.0 493780000000.0 634510000000.0 522203000000.0 307491000000.0 27426600000.0 1.12187e+12 34212000000.0 943596000000.0 111911000000.0 548997000000.0 378989000000.0 25033000000.0 241523000000.0 144469000000.0 199679000000.0 251596000000.0 362692000000.0 83623400000.0 313228000000.0 382321000000.0 5863100000.0 31488500000.0 25252300000.0 220032000000.0 543101000000.0 595077000000.0 786433000000.0 483844000000.0 566803000000.0 484798000000.0 153368000000.0 217160000000.0 137099000000.0 516453000000.0 236645000000.0 428492000000.0 924703000000.0 280014000000.0 508545000000.0 94034300000.0 770554000000.0 19848300000.0 296748000000.0 532471000000.0 378169000000.0 41509400000.0 115703000000.0 134222000000.0 157186000000.0 159716000000.0 140851000000.0 123955000000.0 34080700000.0 397307000000.0 544003000000.0 292313000000.0 26421600000.0 759511000000.0 105240000000.0 503586000000.0 280207000000.0 926794000000.0 427558000000.0 237584000000.0 515358000000.0 134948000000.0 218536000000.0 154371000000.0 485507000000.0 567802000000.0 484320000000.0 785716000000.0 595391000000.0 543205000000.0 220148000000.0 25158100000.0 3254230000.0 187687000000.0 91587100000.0 176040000000.0 42658400000.0 482734000000.0 741496000000.0 840486000000.0 773641000000.0 401547000000.0 446622000000.0 305375000000.0 27613900000.0 287163000000.0 314050000000.0 1.20292e+12 113831000000.0 725995000000.0 176885000000.0 618546000000.0 141432000000.0 265388000000.0 10104100000.0 63433800000.0 449216000000.0 56936000000.0 246046000000.0 81882200000.0 77588500000.0 106508000000.0 119683000000.0 110775000000.0 85007000000.0 86367800000.0 238899000000.0 45993900000.0 449111000000.0 65340900000.0 10827400000.0 262318000000.0 133079000000.0 611500000000.0 161793000000.0 725077000000.0 116867000000.0 1.20472e+12 313778000000.0 285914000000.0 28686700000.0 306660000000.0 447517000000.0 402535000000.0 773315000000.0 840086000000.0 740992000000.0 482729000000.0 42737500000.0 176156000000.0 91660700000.0 187778000000.0 3369070000.0 29160900000.0 243255000000.0 206522000000.0 143925000000.0 90079400000.0 222699000000.0 782039000000.0 253141000000.0 191108000000.0 602853000000.0 125830000000.0 258823000000.0 377757000000.0 285095000000.0 30840900000.0 178420000000.0 107290000000.0 98902500000.0 846194000000.0 546490000000.0 790873000000.0 158682000000.0 60139500000.0 43443700000.0 480793000000.0 362076000000.0 34031400000.0 122510000000.0 9284080000.0 34438100000.0 28690300000.0 10207300000.0 55297600000.0 34303100000.0 79278400000.0 55535500000.0 81257500000.0 37615700000.0 60297700000.0 14459700000.0 32626500000.0 34522000000.0 4074610000.0 122380000000.0 63571900000.0 355862000000.0 474566000000.0 41180000000.0 59945500000.0 151023000000.0 799985000000.0 537647000000.0 850029000000.0 98495300000.0 107771000000.0 178034000000.0 32232200000.0 285969000000.0 378400000000.0 259019000000.0 126317000000.0 602640000000.0 190894000000.0 252791000000.0 781773000000.0 222723000000.0 90080400000.0 143973000000.0 206614000000.0 243330000000.0 29240400000.0 11922400000.0 18142600000.0 243566000000.0 200242000000.0 70183800000.0 47261400000.0 307888000000.0 265713000000.0 1.12423e+12 1.06154e+12 144489000000.0 194943000000.0 187910000000.0 72718800000.0 294589000000.0 356714000000.0 254934000000.0 20743000000.0 170306000000.0 318297000000.0 1.09904e+12 381863000000.0 268945000000.0 421759000000.0 259168000000.0 10677900000.0 21171000000.0 89763800000.0 44685600000.0 350726000000.0 309442000000.0 362208000000.0 2020430000.0 16107100000.0 27631400000.0 29243700000.0 13906600000.0 439683000.0 357783000000.0 323991000000.0 355488000000.0 65048500000.0 76966000000.0 20842700000.0 12998500000.0 263035000000.0 420861000000.0 266599000000.0 384888000000.0 1.09971e+12 319989000000.0 170239000000.0 19148100000.0 255724000000.0 357278000000.0 294912000000.0 72818900000.0 187340000000.0 194423000000.0 144378000000.0 1.06154e+12 1.12405e+12 265675000000.0 307644000000.0 47234600000.0 70106800000.0 200342000000.0 243569000000.0 18125200000.0 12100300000.0 328068000000.0 255334000000.0 223735000000.0 197727000000.0 227179000000.0 367869000000.0 29797800000.0 564659000000.0 517818000000.0 971335000000.0 595552000000.0 260411000000.0 41301200000.0 174951000000.0 304233000000.0 304209000000.0 162987000000.0 296997000000.0 678174000000.0 760361000000.0 366145000000.0 424420000000.0 167250000000.0 99723800000.0 32209600000.0 47001700000.0 12764700000.0 55402000000.0 299638000000.0 346987000000.0 102721000000.0 12908900000.0 3432010000.0 13421400000.0 97078700000.0 339125000000.0 328418000000.0 25474600000.0 17684900000.0 47627000000.0 29768600000.0 103382000000.0 168588000000.0 425899000000.0 367070000000.0 759828000000.0 679360000000.0 296674000000.0 162483000000.0 304263000000.0 304537000000.0 175422000000.0 40596700000.0 259621000000.0 595073000000.0 971172000000.0 517710000000.0 564420000000.0 29874300000.0 367671000000.0 227174000000.0 197752000000.0 223661000000.0 255132000000.0 328055000000.0 68384500000.0 528196000000.0 740201000000.0 268739000000.0 312938000000.0 228388000000.0 612309000000.0 149463000000.0 95488500000.0 293269000000.0 285022000000.0 163387000000.0 9342190000.0 290344000000.0 324160000000.0 266881000000.0 185340000000.0 192200000000.0 4404270000.0 83960200000.0 84608500000.0 27797200000.0 44956800000.0 67421000000.0 215090000000.0 109082000000.0 294802000000.0 105698000000.0 28788300000.0 24377900000.0 15850600000.0 34730400000.0 15472600000.0 30579200000.0 24924100000.0 116428000000.0 290708000000.0 96234200000.0 199816000000.0 81958400000.0 60339900000.0 38401000000.0 87454900000.0 80874400000.0 661355000.0 190857000000.0 184577000000.0 268756000000.0 326050000000.0 289781000000.0 10308300000.0 162558000000.0 284553000000.0 293249000000.0 95290700000.0 149652000000.0 612063000000.0 228180000000.0 312660000000.0 268531000000.0 739964000000.0 527731000000.0 68445100000.0 20374200000.0 194305000000.0 466877000000.0 731893000000.0 327813000000.0 208524000000.0 21602800000.0 802594000000.0 831592000000.0 106922000000.0 199677000000.0 163595000000.0 147640000000.0 246546000000.0 239870000000.0 82218200000.0 319392000000.0 877911000000.0 65938900000.0 407174000000.0 338081000000.0 226390000000.0 155069000000.0 103362000000.0 68315900000.0 127338000000.0 119845000000.0 116000000000.0 135374000000.0 159265000000.0 398667000000.0 198991000000.0 220180000000.0 29555800000.0 46835300000.0 47833700000.0 49264700000.0 227868000000.0 193592000000.0 407847000000.0 173117000000.0 147255000000.0 127823000000.0 125006000000.0 124574000000.0 70392100000.0 104078000000.0 154804000000.0 227044000000.0 339907000000.0 408150000000.0 65001400000.0 875976000000.0 317908000000.0 83057200000.0 240774000000.0 247528000000.0 148560000000.0 164314000000.0 199915000000.0 107245000000.0 831663000000.0 802450000000.0 21810600000.0 208464000000.0 327627000000.0 731746000000.0 466668000000.0 194131000000.0 20412000000.0 144205000000.0 154622000000.0 60540600000.0 72963900000.0 466333000000.0 474356000000.0 665408000000.0 472525000000.0 204216000000.0 32171300000.0 277384000000.0 418337000000.0 354904000000.0 174241000000.0 232624000000.0 277329000000.0 257318000000.0 117530000000.0 161428000000.0 576166000000.0 359622000000.0 234773000000.0 138056000000.0 60736500000.0 7504760000.0 78581800000.0 175713000000.0 189845000000.0 221622000000.0 339586000000.0 274307000000.0 546558000000.0 422367000000.0 145062000000.0 33588000000.0 77084200000.0 42263200000.0 133411000000.0 436795000000.0 584568000000.0 320718000000.0 358660000000.0 233438000000.0 197635000000.0 185678000000.0 73096700000.0 4064750000.0 62764100000.0 139056000000.0 235416000000.0 360761000000.0 576629000000.0 159934000000.0 119312000000.0 258776000000.0 278656000000.0 233939000000.0 175340000000.0 355013000000.0 418279000000.0 276742000000.0 31888700000.0 204234000000.0 472725000000.0 665413000000.0 474191000000.0 466256000000.0 72753000000.0 60595000000.0 154554000000.0 144234000000.0 143336000000.0 384598000000.0 417791000000.0 415175000000.0 229257000000.0 135007000000.0 109343000000.0 537691000000.0 719231000000.0 612625000000.0 480847000000.0 403643000000.0 361115000000.0 366426000000.0 328201000000.0 210654000000.0 23196600000.0 290646000000.0 197797000000.0 375759000000.0 468302000000.0 223136000000.0 111711000000.0 18706000000.0 63337100000.0 143371000000.0 179371000000.0 235432000000.0 253150000000.0 198928000000.0 198745000000.0 108912000000.0 460111000000.0 5201740000.0 33235300000.0 157351000000.0 97029500000.0 63306000000.0 85059600000.0 132015000000.0 10427100000.0 38378300000.0 482997000000.0 132661000000.0 209819000000.0 207967000000.0 256294000000.0 236028000000.0 175104000000.0 133411000000.0 59343100000.0 21222900000.0 113233000000.0 224323000000.0 469265000000.0 375965000000.0 196865000000.0 289974000000.0 20868700000.0 212842000000.0 329986000000.0 367875000000.0 362406000000.0 404676000000.0 481538000000.0 612467000000.0 718418000000.0 536922000000.0 108545000000.0 134636000000.0 229511000000.0 415170000000.0 417715000000.0 384568000000.0 143253000000.0 107075000000.0 21818500000.0 428540000000.0 427420000000.0 351659000000.0 96414600000.0 128173000000.0 143796000000.0 28214400000.0 568933000000.0 459143000000.0 460369000000.0 411140000000.0 310699000000.0 142417000000.0 39381700000.0 144872000000.0 268910000000.0 502989000000.0 503166000000.0 361628000000.0 71392500000.0 27237700000.0 116923000000.0 215364000000.0 232756000000.0 228121000000.0 262725000000.0 68657200000.0 36291800000.0 298635000000.0 227123000000.0 235923000000.0 203170000000.0 115125000000.0 25022700000.0 73678900000.0 363419000000.0 505390000000.0 503769000000.0 269275000000.0 145114000000.0 38663700000.0 144711000000.0 312587000000.0 412698000000.0 461594000000.0 459965000000.0 568142000000.0 27190000000.0 144888000000.0 127966000000.0 96479200000.0 351479000000.0 427219000000.0 428307000000.0 21687700000.0 107064000000.0 34743800000.0 17608000000.0 474994000000.0 633485000000.0 473945000000.0 543104000000.0 332951000000.0 365965000000.0 386100000000.0 408612000000.0 269162000000.0 550779000000.0 714918000000.0 414892000000.0 445189000000.0 40803500000.0 182586000000.0 470952000000.0 612762000000.0 489726000000.0 328414000000.0 186219000000.0 88539000000.0 186091000000.0 279655000000.0 273512000000.0 278921000000.0 262449000000.0 191135000000.0 126670000000.0 10948400000.0 14728900000.0 377940000000.0 30132300000.0 69632100000.0 30067700000.0 403036000000.0 120802000000.0 60227600000.0 89880200000.0 179573000000.0 254888000000.0 274627000000.0 277517000000.0 274958000000.0 175063000000.0 81893400000.0 188250000000.0 330616000000.0 492704000000.0 616359000000.0 471980000000.0 185052000000.0 39335500000.0 446656000000.0 416376000000.0 714221000000.0 550785000000.0 269421000000.0 410210000000.0 385479000000.0 365692000000.0 332836000000.0 542845000000.0 473731000000.0 633121000000.0 474817000000.0 17584600000.0 34722700000.0 342274000000.0 375145000000.0 648615000000.0 636934000000.0 477734000000.0 552996000000.0 747599000000.0 439962000000.0 515147000000.0 688604000000.0 377133000000.0 284241000000.0 196818000000.0 67264500000.0 194954000000.0 400821000000.0 628293000000.0 551550000000.0 413558000000.0 265332000000.0 131105000000.0 15176000000.0 335607000000.0 329118000000.0 340490000000.0 309757000000.0 283141000000.0 473335000000.0 723170000000.0 679415000000.0 599331000000.0 306439000000.0 203739000000.0 89452600000.0 42352300000.0 63885900000.0 159018000000.0 178962000000.0 541623000000.0 671443000000.0 749167000000.0 507970000000.0 289269000000.0 305344000000.0 335103000000.0 329212000000.0 332254000000.0 20349300000.0 135085000000.0 268460000000.0 415934000000.0 553532000000.0 627798000000.0 399237000000.0 195447000000.0 67976000000.0 199376000000.0 285873000000.0 378705000000.0 687743000000.0 514469000000.0 438769000000.0 746917000000.0 552221000000.0 477589000000.0 636671000000.0 648316000000.0 375048000000.0 342166000000.0 263177000000.0 535372000000.0 571760000000.0 591063000000.0 477665000000.0 488617000000.0 483338000000.0 827214000000.0 334341000000.0 375878000000.0 325698000000.0 319136000000.0 554501000000.0 447522000000.0 324326000000.0 193393000000.0 67720000000.0 49859300000.0 162679000000.0 264805000000.0 408948000000.0 420073000000.0 375398000000.0 247836000000.0 269635000000.0 123675000000.0 353669000000.0 287635000000.0 94013400000.0 10690200000.0 304643000000.0 132006000000.0 279990000000.0 247360000000.0 370472000000.0 409836000000.0 402875000000.0 255771000000.0 150264000000.0 39684100000.0 75030000000.0 198583000000.0 327458000000.0 448668000000.0 555012000000.0 318729000000.0 326262000000.0 376937000000.0 336185000000.0 826685000000.0 483449000000.0 488670000000.0 477772000000.0 590753000000.0 571532000000.0 535104000000.0 263109000000.0 207192000000.0 467628000000.0 300380000000.0 516248000000.0 30162400000.0 410585000000.0 428846000000.0 801692000000.0 414327000000.0 580247000000.0 628870000000.0 250662000000.0 247921000000.0 218875000000.0 344293000000.0 207617000000.0 348047000000.0 537326000000.0 241973000000.0 126761000000.0 9277510000.0 110623000000.0 234030000000.0 336760000000.0 404126000000.0 243420000000.0 2177770000.0 79677200000.0 379461000000.0 398464000000.0 331749000000.0 221112000000.0 95483400000.0 19969100000.0 134148000000.0 247138000000.0 534629000000.0 345841000000.0 205547000000.0 344406000000.0 218803000000.0 248632000000.0 252700000000.0 628055000000.0 579808000000.0 413540000000.0 801688000000.0 428637000000.0 410704000000.0 30169300000.0 516147000000.0 300221000000.0 467374000000.0 207112000000.0 77576500000.0 36587500000.0 465686000000.0 454243000000.0 449204000000.0 26562800000.0 70575000000.0 348520000000.0 499064000000.0 531731000000.0 123423000000.0 41787100000.0 311588000000.0 309644000000.0 189894000000.0 408734000000.0 509445000000.0 436670000000.0 348491000000.0 28636800000.0 146112000000.0 287797000000.0 404739000000.0 497874000000.0 523193000000.0 615180000000.0 725680000000.0 770262000000.0 1.12126e+12 767545000000.0 802263000000.0 666930000000.0 95543700000.0 62530000000.0 125363000000.0 57917700000.0 77717400000.0 571636000000.0 553611000000.0 709783000000.0 1.09648e+12 724302000000.0 732110000000.0 601227000000.0 516851000000.0 486309000000.0 394956000000.0 275319000000.0 132654000000.0 17450500000.0 351754000000.0 439044000000.0 508858000000.0 406573000000.0 187935000000.0 309682000000.0 311203000000.0 42150000000.0 125124000000.0 530993000000.0 498674000000.0 347823000000.0 71056900000.0 26309300000.0 449091000000.0 454089000000.0 465488000000.0 36587700000.0 77557000000.0 354489000000.0 105682000000.0 1208220000.0 243286000000.0 22999400000.0 501001000000.0 631776000000.0 283649000000.0 404736000000.0 442083000000.0 93925100000.0 315007000000.0 224872000000.0 239957000000.0 428928000000.0 426718000000.0 352636000000.0 270405000000.0 178682000000.0 78529000000.0 301315000000.0 433518000000.0 606471000000.0 549364000000.0 709685000000.0 569262000000.0 639171000000.0 436988000000.0 12623900000.0 216584000000.0 227985000000.0 131711000000.0 117818000000.0 248780000000.0 420065000000.0 607105000000.0 496594000000.0 702522000000.0 533641000000.0 589058000000.0 413048000000.0 270149000000.0 86794800000.0 184894000000.0 274630000000.0 354762000000.0 427282000000.0 427420000000.0 237392000000.0 224436000000.0 315163000000.0 93720000000.0 441363000000.0 404577000000.0 283312000000.0 631383000000.0 500996000000.0 22955700000.0 243232000000.0 1109060000.0 105625000000.0 354379000000.0 459224000000.0 57016000000.0 542571000000.0 200541000000.0 123737000000.0 410732000000.0 490788000000.0 47734400000.0 21580900000.0 331213000000.0 505535000000.0 326037000000.0 340111000000.0 365239000000.0 329808000000.0 270924000000.0 209338000000.0 138565000000.0 58040000000.0 28868200000.0 131778000000.0 50229500000.0 3078590000.0 62288900000.0 580131000000.0 86220200000.0 500287000000.0 71281200000.0 119924000000.0 25571400000.0 61043700000.0 142821000000.0 213757000000.0 274298000000.0 332559000000.0 365408000000.0 338724000000.0 325060000000.0 505650000000.0 330470000000.0 21701100000.0 46590700000.0 490367000000.0 410625000000.0 123808000000.0 200832000000.0 542462000000.0 56986200000.0 459148000000.0 282530000000.0 422199000000.0 311272000000.0 25311100000.0 104405000000.0 218281000000.0 112435000000.0 246923000000.0 278250000000.0 126360000000.0 112532000000.0 99740500000.0 206490000000.0 170232000000.0 118566000000.0 63619900000.0 30397800000.0 36194600000.0 1205360000.0 21018700000.0 139534000000.0 213051000000.0 367609000000.0 27830700000.0 414042000000.0 156080000000.0 288475000000.0 3323630000.0 338047000000.0 37033600000.0 470979000000.0 31752000000.0 173917000000.0 128216000000.0 61605200000.0 31971600000.0 13065600000.0 16725900000.0 19240300000.0 63437500000.0 119539000000.0 173045000000.0 209397000000.0 100617000000.0 112502000000.0 126186000000.0 277867000000.0 247013000000.0 112542000000.0 218429000000.0 104310000000.0 25297700000.0 311252000000.0 422148000000.0 282449000000.0 149616000000.0 107307000000.0 50002000000.0 174634000000.0 44186000000.0 43992900000.0 121195000000.0 357014000000.0 449677000000.0 226564000000.0 122690000000.0 196606000000.0 105006000000.0 80329500000.0 199514000000.0 220335000000.0 101255000000.0 57046900000.0 44194300000.0 97851800000.0 28092800000.0 55866600000.0 117079000000.0 49815500000.0 33215300000.0 110951000000.0 58095800000.0 202736000000.0 293766000000.0 348744000000.0 157097000000.0 239284000000.0 89844400000.0 3679050000.0 100596000000.0 43724900000.0 12620800000.0 102829000000.0 52351300000.0 18662700000.0 103073000000.0 46632700000.0 58405100000.0 103910000000.0 222920000000.0 201652000000.0 80652900000.0 105179000000.0 197210000000.0 123426000000.0 227738000000.0 449279000000.0 358740000000.0 119299000000.0 43138100000.0 44179100000.0 174650000000.0 49935900000.0 107294000000.0 149583000000.0 94251100000.0 67961900000.0 76628400000.0 132181000000.0 133197000000.0 31209600000.0 189445000000.0 225619000000.0 257761000000.0 31832500000.0 3736160000.0 12959300000.0 50721800000.0 117333000000.0 166362000000.0 191606000000.0 181617000000.0 140959000000.0 240603000000.0 306086000000.0 253652000000.0 138011000000.0 394280000000.0 111470000000.0 248629000000.0 306071000000.0 231912000000.0 145098000000.0 184965000000.0 194856000000.0 169279000000.0 119170000000.0 51405900000.0 12115800000.0 4100220000.0 32468300000.0 257341000000.0 226403000000.0 191344000000.0 29369100000.0 132221000000.0 132040000000.0 76694800000.0 68150300000.0 94267300000.0 106940000000.0 201882000000.0 2814450000.0 28682700000.0 20668200000.0 59722800000.0 85488200000.0 83166900000.0 60561800000.0 27577200000.0 120134000000.0 99918700000.0 85649800000.0 2979080000.0 127523000000.0 138583000000.0 160436000000.0 145395000000.0 136469000000.0 164665000000.0 169798000000.0 143045000000.0 96666500000.0 60189100000.0 41567100000.0 128357000000.0 412383000000.0 287820000000.0 174322000000.0 121677000000.0 42514600000.0 187435000000.0 138550000000.0 376058000000.0 73871300000.0 156712000000.0 124614000000.0 43177200000.0 183835000000.0 279571000000.0 407841000000.0 125838000000.0 45583600000.0 66374900000.0 104578000000.0 143151000000.0 169839000000.0 163752000000.0 135435000000.0 146369000000.0 162156000000.0 140874000000.0 127501000000.0 2543900000.0 85612500000.0 100956000000.0 121624000000.0 28698000000.0 59809300000.0 82514400000.0 85171000000.0 59488100000.0 20895600000.0 28582200000.0 2851020000.0 201795000000.0 106909000000.0 100115000000.0 36247300000.0 90806500000.0 132229000000.0 107421000000.0 80628900000.0 55016200000.0 9289340000.0 91689100000.0 184037000000.0 1712490000.0 124389000000.0 133028000000.0 141333000000.0 104028000000.0 58758800000.0 32485300000.0 103591000000.0 21754400000.0 115084000000.0 52356500000.0 64683200000.0 88219700000.0 143825000000.0 168813000000.0 196678000000.0 44463000000.0 82931700000.0 274322000000.0 30760900000.0 165250000000.0 68940400000.0 177938000000.0 151933000000.0 124788000000.0 64868900000.0 28137100000.0 20037500000.0 83434400000.0 12074100000.0 86056300000.0 44391800000.0 82041800000.0 101521000000.0 143630000000.0 133826000000.0 124159000000.0 1401530000.0 184733000000.0 92262500000.0 9027920000.0 54884500000.0 80533100000.0 107333000000.0 132091000000.0 90787300000.0 36265600000.0 100079000000.0 39832200000.0 52694400000.0 221749000000.0 170599000000.0 81245400000.0 49838700000.0 69618200000.0 123003000000.0 152274000000.0 171638000000.0 163765000000.0 125463000000.0 128863000000.0 150203000000.0 159347000000.0 146683000000.0 131060000000.0 5815740000.0 4209290000.0 277533000000.0 89291600000.0 95648500000.0 111885000000.0 130149000000.0 173212000000.0 139110000000.0 124781000000.0 165679000000.0 172413000000.0 152334000000.0 121402000000.0 69380800000.0 50923600000.0 81523700000.0 170735000000.0 221777000000.0 52653400000.0 39828900000.0 19217300000.0 106630000000.0 40089300000.0 58596900000.0 197979000000.0 293060000.0 37046000000.0 95100200000.0 86549400000.0 107857000000.0 113096000000.0 129167000000.0 140813000000.0 96550400000.0 30066800000.0 2112400000.0 8141850000.0 4843840000.0 56530500000.0 95110900000.0 198886000000.0 187637000000.0 158744000000.0 144916000000.0 119544000000.0 143542000000.0 281808000000.0 161863000000.0 92548000000.0 73762400000.0 120967000000.0 127872000000.0 195078000000.0 214504000000.0 82263400000.0 61413100000.0 9679100000.0 15391200000.0 10046700000.0 26680200000.0 93700000000.0 141076000000.0 129910000000.0 112255000000.0 106465000000.0 87642300000.0 95316000000.0 36653800000.0 577160000.0 198167000000.0 58216700000.0 40400500000.0 106830000000.0 19239400000.0 24445300000.0 47110600000.0 10293600000.0 116553000000.0 106125000000.0 88397000000.0 76898500000.0 19012400000.0 129300000000.0 3105660000.0 5674820000.0 5723240000.0 61564300000.0 56919900000.0 81449000000.0 100276000000.0 128483000000.0 138686000000.0 107692000000.0 88780300000.0 57317000000.0 57063400000.0 73179300000.0 31075900000.0 65245500000.0 6812450000.0 34369100000.0 7863240000.0 18970400000.0 18930300000.0 18739200000.0 46094400000.0 18924300000.0 31591400000.0 156854000000.0 136266000000.0 167885000000.0 40560500000.0 76273500000.0 114101000000.0 109783000000.0 103376000000.0 80919400000.0 96470000000.0 94630900000.0 52625500000.0 82567600000.0 49728700000.0 89054500000.0 4721030000.0 74867100000.0 35933300000.0 35388300000.0 47543200000.0 87395900000.0 107164000000.0 137027000000.0 128036000000.0 100109000000.0 79383100000.0 57030300000.0 61695200000.0 5770050000.0 5047150000.0 3204520000.0 129481000000.0 19528700000.0 77431600000.0 88871800000.0 106516000000.0 116818000000.0 10454400000.0 47229000000.0 24422300000.0 56469200000.0 3220990000.0 42733000000.0 206786000000.0 243994000000.0 229749000000.0 204834000000.0 173747000000.0 148657000000.0 14142000000.0 1511330000.0 179484000000.0 102779000000.0 190058000000.0 189576000000.0 188119000000.0 222115000000.0 220132000000.0 186982000000.0 42793100000.0 3219280000.0 56540000000.0 28042300000.0 6854950000.0 56691300000.0 50432800000.0 58134700000.0 66988300000.0 72695500000.0 52966600000.0 18158300000.0 28387100000.0 23125700000.0 11277600000.0 9528920000.0 28194200000.0 50458900000.0 93303000000.0 129839000000.0 179919000000.0 190725000000.0 306287000000.0 257121000000.0 199791000000.0 169005000000.0 115311000000.0 74730500000.0 25602700000.0 104442000000.0 125259000000.0 163184000000.0 161100000000.0 151601000000.0 172580000000.0 210773000000.0 243250000000.0 281297000000.0 164633000000.0 155710000000.0 106292000000.0 77818800000.0 37574900000.0 18865800000.0 4157900000.0 13182000000.0 23520800000.0 28835400000.0 17829200000.0 53565100000.0 73547200000.0 67420600000.0 58366700000.0 50629800000.0 56804700000.0 6853020000.0 28095000000.0 15743700000.0 24249300000.0 5567480000.0 63508100000.0 53957700000.0 51163300000.0 59668600000.0 39994400000.0 50328600000.0 69239400000.0 88414200000.0 101667000000.0 107679000000.0 126737000000.0 98181200000.0 46678600000.0 24312500000.0 55978600000.0 62522400000.0 39013700000.0 36560100000.0 57724200000.0 76184000000.0 16054400000.0 5386010000.0 54035800000.0 9097890000.0 69757600000.0 11089400000.0 64817900000.0 12965200000.0 84078900000.0 13731000000.0 97172600000.0 91057400000.0 155483000000.0 42021300000.0 125930000000.0 56658000000.0 38465200000.0 60630600000.0 28998100000.0 82664700000.0 11038000000.0 59232300000.0 1570440000.0 39798200000.0 6073340000.0 21142300000.0 23537200000.0 7873600000.0 7858630000.0 67174400000.0 54096800000.0 35727800000.0 46374800000.0 77170300000.0 69571700000.0 38209100000.0 33016000000.0 84651500000.0 115323000000.0 99389300000.0 95323300000.0 83714700000.0 65253000000.0 54542600000.0 36857100000.0 57159900000.0 49246200000.0 52473400000.0 62490200000.0 4750970000.0 23814100000.0 15964600000.0 5497630000.0 25759200000.0 10252900000.0 36307100000.0 8572780000.0 34832100000.0 50854500000.0 54985700000.0 73379300000.0 130498000000.0 2811690000.0 5449790000.0 20981900000.0 27535800000.0 15632000000.0 37180700000.0 53384100000.0 74077600000.0 71060200000.0 61803600000.0 16634300000.0 29039500000.0 15069900000.0 9015900000.0 58878600000.0 66976700000.0 18953600000.0 66953100000.0 9836850000.0 70020900000.0 16885700000.0 75299100000.0 7195060000.0 82320300000.0 2530440000.0 40741300000.0 88659700000.0 95305500000.0 68828000000.0 94168400000.0 10524600000.0 75683600000.0 7375370000.0 60648200000.0 1133550000.0 42898500000.0 8352540000.0 22193900000.0 19004200000.0 12527600000.0 29546300000.0 31514600000.0 9748820000.0 2014080000.0 11209400000.0 32592700000.0 72322700000.0 80093300000.0 79943100000.0 54155700000.0 35966300000.0 16845800000.0 28334000000.0 21620100000.0 5458390000.0 2793170000.0 131175000000.0 73763100000.0 55275600000.0 51006400000.0 34945900000.0 8573770000.0 36386200000.0 10266500000.0 25817900000.0 25909800000.0 9903090000.0 24287600000.0 2703080000.0 24072000000.0 38135900000.0 45424100000.0 63991900000.0 124133000000.0 2369060000.0 716224000.0 13703200000.0 21194600000.0 8216700000.0 24474500000.0 42650800000.0 66545600000.0 80858500000.0 95595300000.0 70735200000.0 39855600000.0 59551500000.0 60064600000.0 23359000000.0 8779600000.0 58346700000.0 9045600000.0 68170900000.0 9248390000.0 69872700000.0 9525310000.0 85198200000.0 8812690000.0 96731500000.0 29531700000.0 163360000000.0 22025700000.0 115062000000.0 37978100000.0 51927800000.0 54229600000.0 19377000000.0 41941300000.0 17078000000.0 29908000000.0 18716000000.0 19163800000.0 21262700000.0 9381540000.0 31052000000.0 302333000.0 12075900000.0 50450200000.0 53846000000.0 37906800000.0 71276600000.0 94167000000.0 80961300000.0 66310300000.0 41436900000.0 23522000000.0 10115400000.0 22618200000.0 14757000000.0 262757000.0 2754140000.0 124955000000.0 64543800000.0 45841400000.0 38403900000.0 24282900000.0 2809500000.0 24414600000.0 9955850000.0 25964100000.0 27579600000.0 14863700000.0 23260100000.0 9991000000.0 30424800000.0 45137300000.0 55784700000.0 73000900000.0 123432000000.0 13432000000.0 12448800000.0 32565200000.0 42204100000.0 30929400000.0 44566600000.0 60793000000.0 79146500000.0 82083900000.0 86935600000.0 58767100000.0 39525300000.0 53108100000.0 49176300000.0 20962300000.0 7478570000.0 52769900000.0 8396510000.0 60330300000.0 3167940000.0 55921200000.0 5813420000.0 63834700000.0 12843200000.0 66081200000.0 15510800000.0 135462000000.0 10349100000.0 132092000000.0 63129700000.0 120166000000.0 8914020000.0 76571400000.0 9064910000.0 60780000000.0 9199680000.0 50128700000.0 9036310000.0 43297400000.0 8648590000.0 41369600000.0 7183270000.0 14958700000.0 41624800000.0 48002300000.0 37144800000.0 58231500000.0 86394600000.0 81618000000.0 77922700000.0 59051600000.0 42937300000.0 31822100000.0 42850500000.0 32947400000.0 12460700000.0 13452700000.0 123810000000.0 73209400000.0 55929700000.0 45206000000.0 30476000000.0 9991890000.0 23294400000.0 14869300000.0 27606600000.0 28152000000.0 16660000000.0 19105700000.0 10281900000.0 27565000000.0 40963500000.0 52588100000.0 68132400000.0 112118000000.0 15885900000.0 13564300000.0 35250700000.0 45605700000.0 35372700000.0 46476200000.0 62562700000.0 80978300000.0 82497500000.0 83953400000.0 60098000000.0 46788800000.0 53276100000.0 45336600000.0 23088000000.0 9035750000.0 49871300000.0 9035750000.0 57123100000.0 9035750000.0 63780800000.0 9035750000.0 78954000000.0 9035750000.0 87783900000.0 8079950000.0 157325000000.0 7870700000.0 144200000000.0 27491900000.0 100099000000.0 11145400000.0 55790300000.0 5215460000.0 47894800000.0 3476290000.0 44584900000.0 8114450000.0 40869700000.0 9035750000.0 39724900000.0 9035750000.0 18360500000.0 39047800000.0 48759800000.0 44407900000.0 57704600000.0 83263100000.0 81306500000.0 79807700000.0 61157800000.0 45149300000.0 36148300000.0 46169600000.0 35556500000.0 13601300000.0 15925900000.0 112416000000.0 68296200000.0 52698400000.0 41017200000.0 27603600000.0 10288600000.0 19133300000.0 16665200000.0 28169700000.0 28380600000.0 18274900000.0 16583200000.0 10828000000.0 25293500000.0 37430800000.0 49167300000.0 62991700000.0 100666000000.0 18278900000.0 15769100000.0 38652100000.0 49610200000.0 40894700000.0 50119600000.0 65636700000.0 82830500000.0 83570200000.0 81861900000.0 60063000000.0 49070800000.0 49752800000.0 39290300000.0 22575800000.0 9035750000.0 46155900000.0 9035750000.0 52535800000.0 9035750000.0 60395400000.0 9035750000.0 74468400000.0 9035750000.0 82606100000.0 5995940000.0 143218000000.0 1247460000.0 154074000000.0 40386200000.0 121917000000.0 9035750000.0 69632900000.0 9035750000.0 55308000000.0 9035750000.0 45486500000.0 9035750000.0 38688100000.0 9035750000.0 37387500000.0 9035750000.0 18599100000.0 34091500000.0 45793900000.0 46859500000.0 57173900000.0 80596200000.0 82190500000.0 81806500000.0 64469100000.0 48972100000.0 41468200000.0 50015400000.0 38839500000.0 15775400000.0 18294700000.0 100869000000.0 63095900000.0 49232800000.0 37459600000.0 25313800000.0 10828400000.0 16597500000.0 18277300000.0 28391900000.0 28316900000.0 19522800000.0 14923800000.0 11165500000.0 23060600000.0 33807400000.0 44913500000.0 56996500000.0 89045800000.0 19891100000.0 17116300000.0 40151000000.0 51259300000.0 44098900000.0 51844400000.0 66726500000.0 82894700000.0 83828600000.0 81238900000.0 60339700000.0 50461500000.0 46396700000.0 34278700000.0 21983100000.0 9035750000.0 42899100000.0 9035750000.0 48526500000.0 9035750000.0 57183500000.0 9035750000.0 70020300000.0 9035750000.0 76631000000.0 9035750000.0 140266000000.0 9035750000.0 159959000000.0 33303900000.0 118101000000.0 9035750000.0 64759900000.0 9035750000.0 52495100000.0 9035750000.0 43839400000.0 9035750000.0 36808100000.0 9035750000.0 35382900000.0 9035750000.0 18661500000.0 30005600000.0 42936100000.0 48473400000.0 57777100000.0 79806200000.0 82616400000.0 82083400000.0 65807800000.0 50919500000.0 44547100000.0 51574600000.0 40277700000.0 17120800000.0 19906200000.0 89192100000.0 57068000000.0 44955800000.0 33825500000.0 23073100000.0 11165700000.0 14932800000.0 19524600000.0 28324000000.0 28018300000.0 20490100000.0 13961100000.0 11458500000.0 21189100000.0 30578300000.0 40646600000.0 51033700000.0 78058100000.0 21140500000.0 18294900000.0 40898700000.0 51901800000.0 46324600000.0 53018100000.0 67127200000.0 82092500000.0 83002200000.0 80069200000.0 59786000000.0 50729700000.0 43111400000.0 30242600000.0 21354500000.0 9035750000.0 40027900000.0 9035750000.0 45046700000.0 9035750000.0 54092100000.0 9035750000.0 65606000000.0 9035750000.0 71007900000.0 9035750000.0 129696000000.0 9035750000.0 163570000000.0 35053000000.0 113184000000.0 9035750000.0 60133900000.0 9035750000.0 49922100000.0 9035750000.0 42327100000.0 9035750000.0 35159800000.0 9035750000.0 33647400000.0 9035750000.0 18609500000.0 26730900000.0 40159800000.0 49004200000.0 57700400000.0 78777700000.0 82004500000.0 81466800000.0 66408500000.0 52284400000.0 46664100000.0 52143200000.0 40979700000.0 18298100000.0 21154800000.0 78161200000.0 51082000000.0 40673400000.0 30589400000.0 21196700000.0 11458600000.0 13966700000.0 20491400000.0 28022700000.0 27554700000.0 21181100000.0 13442700000.0 11703100000.0 19686900000.0 27807200000.0 36640300000.0 45414400000.0 67987800000.0 22021000000.0 19288300000.0 41020400000.0 51648300000.0 47556400000.0 53496500000.0 66709700000.0 80441200000.0 81200000000.0 78076000000.0 58564700000.0 50149900000.0 39984000000.0 27025400000.0 20718200000.0 9035750000.0 37470300000.0 9035750000.0 41966500000.0 9035750000.0 51064700000.0 9035750000.0 61248200000.0 9035750000.0 65710100000.0 9035750000.0 119328000000.0 9035750000.0 32662800000.0 106751000000.0 9035750000.0 55798300000.0 9035750000.0 47464800000.0 9035750000.0 40843400000.0 9035750000.0 33656100000.0 9035750000.0 32103200000.0 9035750000.0 18472600000.0 24167800000.0 37549800000.0 48694600000.0 56904300000.0 77006500000.0 80401500000.0 79968200000.0 66155100000.0 52927000000.0 47811300000.0 51830000000.0 41068800000.0 19290500000.0 22034300000.0 68059100000.0 45446400000.0 36657000000.0 27813800000.0 19691400000.0 11703200000.0 13446000000.0 21182100000.0 27557300000.0 161612000000.0 26970200000.0 21605800000.0 13187000000.0 11896500000.0 18513100000.0 25492600000.0 33042700000.0 40318900000.0 58990800000.0 22541300000.0 20083300000.0 40658200000.0 50695000000.0 47955900000.0 53366800000.0 65586300000.0 78086800000.0 78566600000.0 75301100000.0 56764900000.0 48879600000.0 37061800000.0 24475600000.0 20087000000.0 9035750000.0 35161400000.0 9035750000.0 39154100000.0 9035750000.0 48085300000.0 9035750000.0 56967900000.0 9035750000.0 60717500000.0 9035750000.0 109400000000.0 9035750000.0 158285000000.0 30062500000.0 99671200000.0 9035750000.0 51772200000.0 9035750000.0 45023100000.0 9035750000.0 39331300000.0 9035750000.0 32226500000.0 9035750000.0 30685400000.0 9035750000.0 18263100000.0 22193600000.0 35109500000.0 47677900000.0 55454900000.0 74442000000.0 77941400000.0 77731700000.0 65164200000.0 52932200000.0 48145700000.0 50828100000.0 40684000000.0 20084900000.0 22553400000.0 59039200000.0 40339800000.0 33053000000.0 25496500000.0 18515700000.0 11896500000.0 13189000000.0 21606600000.0 26971800000.0 26278700000.0 21779300000.0 13068300000.0 12036500000.0 17603600000.0 23591300000.0 29909000000.0 35827900000.0 51122300000.0 22723600000.0 20670400000.0 39917800000.0 49193900000.0 47636800000.0 52671500000.0 63827300000.0 75129400000.0 75245300000.0 71888900000.0 54485600000.0 47064400000.0 34365300000.0 22461400000.0 19462400000.0 9035750000.0 33044400000.0 9035750000.0 36530600000.0 9035750000.0 45160300000.0 9035750000.0 52787900000.0 9035750000.0 56010900000.0 9035750000.0 99972000000.0 9035750000.0 27607900000.0 92259600000.0 9035750000.0 48044300000.0 9035750000.0 42557400000.0 9035750000.0 37749300000.0 9035750000.0 30819500000.0 9035750000.0 29344500000.0 9035750000.0 17988400000.0 20674600000.0 32827300000.0 46087800000.0 53460100000.0 71209700000.0 74765800000.0 74862900000.0 63511200000.0 52345200000.0 47776700000.0 49288800000.0 39928600000.0 20671400000.0 22734300000.0 51154500000.0 35841400000.0 29915300000.0 23593500000.0 17605200000.0 12036500000.0 13069400000.0 21780000000.0 26279600000.0 153555000000.0 25479700000.0 21720600000.0 13004800000.0 12122100000.0 16888000000.0 22035400000.0 27231700000.0 31950400000.0 44360500000.0 22599900000.0 21043500000.0 38878100000.0 47277900000.0 46705900000.0 51459200000.0 61513200000.0 71662500000.0 71377200000.0 67988100000.0 51824200000.0 44835500000.0 31888200000.0 20859600000.0 18840000000.0 9035750000.0 31071100000.0 9035750000.0 34058100000.0 9035750000.0 42295100000.0 9035750000.0 48736200000.0 9035750000.0 51573700000.0 9035750000.0 91043900000.0 9035750000.0 147676000000.0 25244600000.0 84763200000.0 9035750000.0 44577400000.0 9035750000.0 40071500000.0 9035750000.0 36080000000.0 9035750000.0 29403200000.0 9035750000.0 28041900000.0 9035750000.0 17654300000.0 19481500000.0 30688800000.0 44052300000.0 51028500000.0 67458000000.0 71016900000.0 71462600000.0 61280200000.0 51217900000.0 46808000000.0 47343900000.0 38879800000.0 21044100000.0 22609100000.0 44381600000.0 31959100000.0 27235400000.0 22036700000.0 16888900000.0 12122100000.0 13005400000.0 21721100000.0 25480200000.0 24573300000.0 21451300000.0 12947400000.0 12153100000.0 16300300000.0 20748300000.0 24964100000.0 28647400000.0 38629600000.0 22209400000.0 58728700000.0 67774800000.0 67095600000.0 63733500000.0 48873300000.0 42308300000.0 29609000000.0 19558400000.0 18213700000.0 9035750000.0 29203800000.0 9035750000.0 31717400000.0 9035750000.0 39491000000.0 9035750000.0 44840300000.0 9035750000.0 47391400000.0 9035750000.0 82607300000.0 9035750000.0 22964100000.0 77369100000.0 9035750000.0 41328300000.0 9035750000.0 37580000000.0 9035750000.0 34324100000.0 9035750000.0 27963000000.0 9035750000.0 26748700000.0 9035750000.0 17264700000.0 18504900000.0 28679900000.0 41688500000.0 48262000000.0 63324800000.0 66830100000.0 67625500000.0 58559700000.0 22217100000.0 38643200000.0 28653000000.0 24966400000.0 20749000000.0 16300900000.0 12153100000.0 12947700000.0 21451700000.0 24573700000.0 21200800000.0 37594800000.0 45055900000.0 45261200000.0 49782200000.0 140807000000.0 49606400000.0 45335000000.0 45100300000.0 37591400000.0 21201200000.0 23566400000.0 20995200000.0 12866200000.0 12130300000.0 15784800000.0 19655900000.0 23039500000.0 25851700000.0 33818800000.0 21595100000.0 21144000000.0 36104800000.0 42612100000.0 43391700000.0 47694800000.0 55557100000.0 63551700000.0 62520800000.0 59242500000.0 45717100000.0 39582300000.0 27500700000.0 18464000000.0 17577600000.0 9035750000.0 27414500000.0 9035750000.0 29495200000.0 9035750000.0 36748800000.0 9035750000.0 41120800000.0 9035750000.0 43449000000.0 9035750000.0 74650400000.0 9035750000.0 133043000000.0 20840400000.0 70205100000.0 9035750000.0 38259300000.0 9035750000.0 35096400000.0 9035750000.0 32490200000.0 9035750000.0 26495900000.0 9035750000.0 25445600000.0 9035750000.0 16821900000.0 17662700000.0 26785500000.0 39098400000.0 45252500000.0 58931100000.0 62329100000.0 63441100000.0 55436500000.0 47568700000.0 43444500000.0 42641000000.0 36099100000.0 21144200000.0 21601400000.0 33827500000.0 25855200000.0 23040900000.0 19656300000.0 15785100000.0 12130300000.0 12866300000.0 20995500000.0 23566700000.0 17503600000.0 9035750000.0 9035750000.0 9035750000.0 9035750000.0 9035750000.0 9035750000.0 9035750000.0 18924900000.0 9035750000.0 9035750000.0 9035750000.0 9035750000.0 9035750000.0 9035750000.0 16896200000.0 22471200000.0 20376500000.0 12743300000.0 12055300000.0 15298200000.0 18692400000.0 21385700000.0 23482500000.0 29799400000.0 20800700000.0 20878200000.0 34431800000.0 40009300000.0 41176100000.0 45251300000.0 52075900000.0 59073400000.0 57757600000.0 54614300000.0 42429500000.0 36740200000.0 25535700000.0 16926800000.0 25682800000.0 27380000000.0 34069400000.0 37587900000.0 39729800000.0 67163000000.0 124480000000.0 63349700000.0 35339200000.0 32634000000.0 30590100000.0 25004800000.0 24121300000.0 16327800000.0 24989100000.0 36367800000.0 42080100000.0 54379900000.0 57622200000.0 58992500000.0 51991000000.0 45162200000.0 41213500000.0 40027200000.0 34425500000.0 20878300000.0 20805700000.0 29805000000.0 23484800000.0 21386600000.0 18692600000.0 15298400000.0 12055300000.0 12743300000.0 20376700000.0 22471300000.0 21302800000.0 19619100000.0 12570300000.0 11930400000.0 14810800000.0 17803700000.0 19934300000.0 21458000000.0 26438500000.0 19867800000.0 20411900000.0 32590800000.0 37292100000.0 38682600000.0 42503900000.0 48354200000.0 54412900000.0 52893300000.0 49930100000.0 39072200000.0 33848700000.0 23688500000.0 16624600000.0 16257800000.0 9035750000.0 23994800000.0 9035750000.0 25360300000.0 9035750000.0 31452600000.0 9035750000.0 34241400000.0 9035750000.0 36215000000.0 9035750000.0 60129200000.0 9035750000.0 115221000000.0 17233800000.0 56842900000.0 9035750000.0 32541400000.0 9035750000.0 30204300000.0 9035750000.0 28635300000.0 9035750000.0 23495400000.0 9035750000.0 22770800000.0 9035750000.0 15785200000.0 16166000000.0 23274300000.0 33566400000.0 38812400000.0 49755800000.0 52799800000.0 54354500000.0 48295500000.0 42442100000.0 38708900000.0 37302500000.0 32584900000.0 20411900000.0 19871600000.0 26442100000.0 21459500000.0 19934800000.0 17803800000.0 14810900000.0 11930400000.0 12570300000.0 19619300000.0 21302900000.0 20077500000.0 18745500000.0 12345600000.0 11758600000.0 14304400000.0 16948400000.0 18625900000.0 19701900000.0 23609100000.0 18833900000.0 19756200000.0 30592300000.0 34490600000.0 35969000000.0 39502000000.0 44452200000.0 49633600000.0 47997500000.0 45253500000.0 35695100000.0 30959300000.0 21937000000.0 15791300000.0 15568300000.0 9035750000.0 22340500000.0 9035750000.0 23425100000.0 9035750000.0 28896600000.0 9035750000.0 31073700000.0 9035750000.0 32883300000.0 9035750000.0 53522400000.0 9035750000.0 105366000000.0 15762400000.0 50695200000.0 9035750000.0 29843400000.0 9035750000.0 27814700000.0 9035750000.0 26636900000.0 9035750000.0 21973200000.0 9035750000.0 21392700000.0 9035750000.0 15197400000.0 15446400000.0 21626000000.0 30748400000.0 35504100000.0 45125500000.0 47934600000.0 49592300000.0 44412200000.0 39459800000.0 35987300000.0 34496100000.0 30587300000.0 19756200000.0 18836700000.0 23611500000.0 19702800000.0 18626200000.0 16948400000.0 14304400000.0 11758600000.0 12345600000.0 18745600000.0 20077500000.0 18811000000.0 17776300000.0 12072100000.0 11543600000.0 13769600000.0 16096900000.0 17412100000.0 18147700000.0 21196800000.0 17731300000.0 18924800000.0 28444900000.0 31624400000.0 33083200000.0 36290800000.0 40420200000.0 44788600000.0 43122500000.0 40631100000.0 32336000000.0 28109300000.0 20262600000.0 14980900000.0 14857500000.0 9035750000.0 20713000000.0 9035750000.0 21563400000.0 9035750000.0 26398200000.0 9035750000.0 28071600000.0 9035750000.0 29712300000.0 9035750000.0 47308100000.0 9035750000.0 95009100000.0 14494900000.0 44895000000.0 9035750000.0 27226800000.0 9035750000.0 25468500000.0 9035750000.0 24604900000.0 9035750000.0 20443400000.0 9035750000.0 19988400000.0 9035750000.0 14568300000.0 14723000000.0 20031300000.0 27954200000.0 32197200000.0 40538500000.0 43081500000.0 44759900000.0 40393500000.0 36262600000.0 33095800000.0 31626800000.0 28441000000.0 18924800000.0 17733400000.0 21198300000.0 18148300000.0 17412300000.0 16097000000.0 13769600000.0 11543600000.0 12072100000.0 17776400000.0 18811000000.0 17517400000.0 16730200000.0 11754500000.0 11289300000.0 13203700000.0 15230600000.0 16255700000.0 16740400000.0 19102900000.0 16586200000.0 17933900000.0 26157900000.0 28705500000.0 30064500000.0 32911200000.0 36299000000.0 39919100000.0 38304700000.0 36094200000.0 29021400000.0 25323500000.0 18650000000.0 14180500000.0 14125600000.0 9035750000.0 19107200000.0 9035750000.0 19764700000.0 9035750000.0 23953300000.0 9035750000.0 25218500000.0 9035750000.0 26679300000.0 9035750000.0 41446700000.0 9035750000.0 84233700000.0 13408700000.0 39415900000.0 9035750000.0 24675900000.0 9035750000.0 23165400000.0 9035750000.0 22548100000.0 9035750000.0 18909900000.0 9035750000.0 18560900000.0 9035750000.0 13902100000.0 13988900000.0 18479900000.0 25211300000.0 28921800000.0 36028100000.0 38278800000.0 39899800000.0 36281600000.0 32892700000.0 30073100000.0 28706100000.0 26155000000.0 17933900000.0 16587700000.0 19103900000.0 16740800000.0 16255800000.0 15230600000.0 13203700000.0 11289300000.0 11754500000.0 16730300000.0 17517500000.0 16208400000.0 15623400000.0 11398300000.0 11000300000.0 12607900000.0 14338800000.0 15129700000.0 15435900000.0 17245600000.0 15418400000.0 16801300000.0 23742300000.0 25741700000.0 26944600000.0 29398900000.0 32120600000.0 35055400000.0 33565700000.0 31659900000.0 25767300000.0 22615300000.0 17086700000.0 13383200000.0 13373900000.0 9035750000.0 17519100000.0 9035750000.0 18018900000.0 9035750000.0 21556500000.0 9035750000.0 22495400000.0 9035750000.0 23762200000.0 9035750000.0 35895800000.0 9035750000.0 73115600000.0 12478600000.0 34222500000.0 9035750000.0 22177200000.0 9035750000.0 20902700000.0 9035750000.0 20473700000.0 9035750000.0 17375700000.0 9035750000.0 17113900000.0 9035750000.0 13203400000.0 13242300000.0 16963100000.0 22535600000.0 25697000000.0 31613400000.0 33550100000.0 35042600000.0 32109400000.0 29387100000.0 26950400000.0 25741300000.0 23740300000.0 16801300000.0 15419400000.0 17246300000.0 15436100000.0 15129700000.0 14338800000.0 12607900000.0 11000300000.0 11398300000.0 15623500000.0 16208400000.0 14892200000.0 14469900000.0 11009300000.0 10681300000.0 11986300000.0 13417500000.0 14016300000.0 14200300000.0 15559700000.0 14241900000.0 15546400000.0 21212000000.0 22738400000.0 23748500000.0 25784800000.0 27908400000.0 30216400000.0 28914600000.0 27332800000.0 22580700000.0 19988700000.0 15562200000.0 12586200000.0 12604200000.0 9035750000.0 15945400000.0 9035750000.0 16316400000.0 9035750000.0 19201900000.0 9035750000.0 19881900000.0 9035750000.0 20940000000.0 9035750000.0 30610200000.0 9035750000.0 61722000000.0 11678500000.0 29273900000.0 9035750000.0 19719200000.0 9035750000.0 18676100000.0 9035750000.0 18387300000.0 9035750000.0 15842600000.0 9035750000.0 15651400000.0 9035750000.0 12477000000.0 12484500000.0 15474100000.0 19933300000.0 22532000000.0 27300800000.0 28905600000.0 30208300000.0 27901400000.0 25777400000.0 23752400000.0 22737600000.0 21210600000.0 15546400000.0 14242500000.0 15560200000.0 14200500000.0 14016300000.0 13417600000.0 11986300000.0 10681300000.0 11009300000.0 14469900000.0 14892200000.0 13574400000.0 13281600000.0 10593500000.0 10337600000.0 11343900000.0 12467500000.0 12904700000.0 13008900000.0 13994000000.0 13065200000.0 14190100000.0 18583600000.0 19700800000.0 20496500000.0 22094400000.0 23678600000.0 25411500000.0 24349300000.0 23107000000.0 19460200000.0 17439300000.0 14067800000.0 11789000000.0 11819300000.0 9035750000.0 14383000000.0 9035750000.0 14648200000.0 9035750000.0 16882600000.0 9035750000.0 17357400000.0 9035750000.0 18193300000.0 9035750000.0 25542900000.0 9035750000.0 50112300000.0 10982300000.0 24526300000.0 9035750000.0 17292000000.0 9035750000.0 16479900000.0 9035750000.0 16293300000.0 9035750000.0 14311300000.0 9035750000.0 14177000000.0 9035750000.0 11727800000.0 11717800000.0 14007000000.0 17402100000.0 19427500000.0 23085700000.0 24344500000.0 25406600000.0 23674400000.0 22090000000.0 20499000000.0 19699900000.0 18582700000.0 14190000000.0 13065700000.0 13994300000.0 13009000000.0 12904800000.0 12467500000.0 11343900000.0 10337600000.0 10593500000.0 13281600000.0 13574400000.0 12257900000.0 12068300000.0 10157000000.0 9974350000.0 10686000000.0 11492500000.0 11789800000.0 11844400000.0 12509300000.0 11893000000.0 12753900000.0 15876200000.0 16634600000.0 17204500000.0 18349400000.0 19441200000.0 20641600000.0 19859000000.0 18968100000.0 16397800000.0 14956300000.0 12595800000.0 10991700000.0 11022100000.0 9035750000.0 12829100000.0 9035750000.0 13005800000.0 9035750000.0 14591200000.0 9035750000.0 14901100000.0 9035750000.0 15503500000.0 9035750000.0 20645600000.0 9035750000.0 38338100000.0 10365100000.0 19934200000.0 9035750000.0 14887200000.0 9035750000.0 14307800000.0 9035750000.0 14194600000.0 9035750000.0 12782100000.0 9035750000.0 12694000000.0 9035750000.0 10960700000.0 10945000000.0 12556400000.0 14932800000.0 16377100000.0 18954800000.0 19856600000.0 20638800000.0 19438900000.0 18346900000.0 17206000000.0 16633900000.0 15875700000.0 12753900000.0 11893200000.0 12509500000.0 11844500000.0 11789800000.0 11492500000.0 10686000000.0 9974350000.0 10157000000.0 12068300000.0 12257900000.0 10943600000.0 10838500000.0 9705620000.0 9597150000.0 10017400000.0 10498700000.0 10669900000.0 10695000000.0 11075900000.0 10726000000.0 11260500000.0 13111000000.0 13546700000.0 13885600000.0 14567600000.0 15201400000.0 15900500000.0 15426100000.0 14895000000.0 13380000000.0 12523800000.0 11139300000.0 10194500000.0 10216100000.0 9035750000.0 11281100000.0 9035750000.0 11381300000.0 9035750000.0 12319700000.0 9035750000.0 12492900000.0 9035750000.0 12853200000.0 9035750000.0 15869200000.0 9035750000.0 26445700000.0 9802800000.0 15451900000.0 9035750000.0 12497200000.0 9035750000.0 12152900000.0 9035750000.0 12093200000.0 9035750000.0 11254700000.0 9035750000.0 11205300000.0 9035750000.0 10181100000.0 10168200000.0 11117300000.0 12510900000.0 13368700000.0 14887700000.0 15425000000.0 15899100000.0 15200200000.0 14566300000.0 13886400000.0 13546200000.0 13110700000.0 11260500000.0 10726100000.0 11076000000.0 10695100000.0 10669900000.0 10498700000.0 10017400000.0 9597150000.0 9705620000.0 10838500000.0 10943600000.0 9631150000.0 9599210000.0 9245520000.0 9211630000.0 9342630000.0 9493290000.0 9546120000.0 9553070000.0 9670370000.0 9563060000.0 9732820000.0 10310500000.0 10444900000.0 10550900000.0 10764300000.0 10960600000.0 11177400000.0 11027900000.0 10861800000.0 10389800000.0 10122200000.0 9691660000.0 9397440000.0 9404590000.0 9035750000.0 9736350000.0 9035750000.0 9767090000.0 9035750000.0 10059900000.0 9035750000.0 10112700000.0 9035750000.0 10225600000.0 9035750000.0 11163500000.0 9035750000.0 14477300000.0 9272670000.0 11033700000.0 9035750000.0 10115600000.0 9035750000.0 10008000000.0 9035750000.0 9990240000.0 9035750000.0 9728300000.0 9035750000.0 9713230000.0 9035750000.0 9393830000.0 9389420000.0 9684990000.0 10118300000.0 10386400000.0 10859600000.0 11027700000.0 11177000000.0 10960200000.0 10763900000.0 10551100000.0 10444700000.0 10310500000.0 9732820000.0 9563100000.0 9670400000.0 9553080000.0 9546130000.0 9493290000.0 9342630000.0 9211620000.0 9245520000.0 9599210000.0 9631150000.0 