# vtk DataFile Version 2.0
Time step 60
ASCII
DATASET UNSTRUCTURED_GRID
POINTS 4650 float
210440.0 369762.0 0
289560.0 369762.0 0
202000.0 369827.0 0
206479.0 371515.0 0
213843.0 371994.0 0
286157.0 371994.0 0
293521.0 371515.0 0
298000.0 369827.0 0
203064.0 373686.0 0
210268.0 373729.0 0
217742.0 372837.0 0
221840.0 372891.0 0
225827.0 372823.0 0
229578.0 374418.0 0
233283.0 372986.0 0
240004.0 373300.0 0
246434.0 374135.0 0
253566.0 374135.0 0
259996.0 373300.0 0
266717.0 372986.0 0
270422.0 374418.0 0
274173.0 372823.0 0
278160.0 372891.0 0
282258.0 372837.0 0
289732.0 373729.0 0
296936.0 373686.0 0
200652.0 376913.0 0
206718.0 375489.0 0
213621.0 375970.0 0
219786.0 376267.0 0
226414.0 376773.0 0
232975.0 376973.0 0
236551.0 375279.0 0
242942.0 376012.0 0
250000.0 375895.0 0
257058.0 376012.0 0
263449.0 375279.0 0
267025.0 376973.0 0
273586.0 376773.0 0
280214.0 376267.0 0
286379.0 375970.0 0
293282.0 375489.0 0
299348.0 376913.0 0
197324.0 378996.0 0
203968.0 378287.0 0
207104.0 380175.0 0
210061.0 377672.0 0
213118.0 380186.0 0
216620.0 378558.0 0
222973.0 378628.0 0
229658.0 379086.0 0
236004.0 379725.0 0
239507.0 377954.0 0
242919.0 380014.0 0
246420.0 378144.0 0
250000.0 379885.0 0
253580.0 378144.0 0
257081.0 380014.0 0
260493.0 377954.0 0
263996.0 379725.0 0
270342.0 379086.0 0
277027.0 378628.0 0
283380.0 378558.0 0
286882.0 380186.0 0
289939.0 377672.0 0
292896.0 380175.0 0
296032.0 378287.0 0
302676.0 378996.0 0
194003.0 381069.0 0
197275.0 382680.0 0
200604.0 380606.0 0
203802.0 382258.0 0
210022.0 382437.0 0
216318.0 382531.0 0
219802.0 380865.0 0
226211.0 380934.0 0
232648.0 381718.0 0
239457.0 381947.0 0
246402.0 382141.0 0
253598.0 382141.0 0
260543.0 381947.0 0
267352.0 381718.0 0
273789.0 380934.0 0
280198.0 380865.0 0
283682.0 382531.0 0
289978.0 382437.0 0
296198.0 382258.0 0
299396.0 380606.0 0
302725.0 382680.0 0
305997.0 381069.0 0
187330.0 385233.0 0
190672.0 383147.0 0
193924.0 384712.0 0
200497.0 384403.0 0
206766.0 384369.0 0
213072.0 384523.0 0
219538.0 384821.0 0
223005.0 383135.0 0
229226.0 383537.0 0
236005.0 383855.0 0
242884.0 384001.0 0
250000.0 383870.0 0
257116.0 384001.0 0
263995.0 383855.0 0
270774.0 383537.0 0
276995.0 383135.0 0
280462.0 384821.0 0
286928.0 384523.0 0
293234.0 384369.0 0
299503.0 384403.0 0
306076.0 384712.0 0
309328.0 383147.0 0
312670.0 385233.0 0
183981.0 387323.0 0
190563.0 386751.0 0
197137.0 386403.0 0
203559.0 386356.0 0
209801.0 386432.0 0
216155.0 386590.0 0
222607.0 387295.0 0
226001.0 385630.0 0
229191.0 387798.0 0
232546.0 385751.0 0
235952.0 387841.0 0
239421.0 385941.0 0
242876.0 387983.0 0
246400.0 386124.0 0
250000.0 387856.0 0
253600.0 386124.0 0
257124.0 387983.0 0
260579.0 385941.0 0
264048.0 387841.0 0
267454.0 385751.0 0
270809.0 387798.0 0
273999.0 385630.0 0
277393.0 387295.0 0
283845.0 386590.0 0
290199.0 386432.0 0
296441.0 386356.0 0
302863.0 386403.0 0
309437.0 386751.0 0
316019.0 387323.0 0
180633.0 389414.0 0
187194.0 388805.0 0
190382.0 390382.0 0
193766.0 388385.0 0
196924.0 390165.0 0
200265.0 388266.0 0
203342.0 390306.0 0
206601.0 388434.0 0
209663.0 390508.0 0
212866.0 388511.0 0
215972.0 390572.0 0
219199.0 388768.0 0
225699.0 389668.0 0
232541.0 389813.0 0
239419.0 389930.0 0
246386.0 390092.0 0
253614.0 390092.0 0
260581.0 389930.0 0
267459.0 389813.0 0
274301.0 389668.0 0
280801.0 388768.0 0
284028.0 390572.0 0
287134.0 388511.0 0
290337.0 390508.0 0
293399.0 388434.0 0
296658.0 390306.0 0
299735.0 388266.0 0
303076.0 390165.0 0
306234.0 388385.0 0
309618.0 390382.0 0
312806.0 388805.0 0
319367.0 389414.0 0
177294.0 391500.0 0
180471.0 392954.0 0
183826.0 390874.0 0
186996.0 392409.0 0
193543.0 392078.0 0
200049.0 392118.0 0
206419.0 392403.0 0
212799.0 392521.0 0
221662.0 391594.0 0
229062.0 391738.0 0
235951.0 391829.0 0
242862.0 391963.0 0
250000.0 391847.0 0
257138.0 391963.0 0
264049.0 391829.0 0
270938.0 391738.0 0
278338.0 391594.0 0
287201.0 392521.0 0
293581.0 392403.0 0
299951.0 392118.0 0
306457.0 392078.0 0
313004.0 392409.0 0
316174.0 390874.0 0
319529.0 392954.0 0
322706.0 391500.0 0
170670.0 395640.0 0
173972.0 393576.0 0
177141.0 395037.0 0
183626.0 394465.0 0
190143.0 394035.0 0
193274.0 395765.0 0
196691.0 393916.0 0
203159.0 394239.0 0
209571.0 394450.0 0
214839.0 395639.0 0
218213.0 393589.0 0
221504.0 395514.0 0
224933.0 393532.0 0
228146.0 395539.0 0
232475.0 393760.0 0
235903.0 395784.0 0
239397.0 393913.0 0
246553.0 394036.0 0
253447.0 394036.0 0
260603.0 393913.0 0
264097.0 395784.0 0
267525.0 393760.0 0
271854.0 395539.0 0
275067.0 393532.0 0
278496.0 395514.0 0
281787.0 393589.0 0
285161.0 395639.0 0
290429.0 394450.0 0
296841.0 394239.0 0
303309.0 393916.0 0
306726.0 395765.0 0
309857.0 394035.0 0
316374.0 394465.0 0
322859.0 395037.0 0
326028.0 393576.0 0
329330.0 395640.0 0
167385.0 397693.0 0
173837.0 397114.0 0
180292.0 396544.0 0
183418.0 398107.0 0
186753.0 396046.0 0
189851.0 397702.0 0
196416.0 397612.0 0
199848.0 395925.0 0
203027.0 398162.0 0
206312.0 396332.0 0
211481.0 397640.0 0
218134.0 397517.0 0
224737.0 397489.0 0
231343.0 397511.0 0
239608.0 397881.0 0
243065.0 395936.0 0
246544.0 397990.0 0
250000.0 396001.0 0
253456.0 397990.0 0
256935.0 395936.0 0
260392.0 397881.0 0
268657.0 397511.0 0
275263.0 397489.0 0
281866.0 397517.0 0
288519.0 397640.0 0
293688.0 396332.0 0
296973.0 398162.0 0
300152.0 395925.0 0
303584.0 397612.0 0
310149.0 397702.0 0
313247.0 396046.0 0
316582.0 398107.0 0
319708.0 396544.0 0
326163.0 397114.0 0
332615.0 397693.0 0
164116.0 399737.0 0
170556.0 399179.0 0
173716.0 400704.0 0
176991.0 398628.0 0
180126.0 400190.0 0
186517.0 399735.0 0
192919.0 399428.0 0
199604.0 399623.0 0
208136.0 399602.0 0
214786.0 399529.0 0
221379.0 399471.0 0
227947.0 399490.0 0
234531.0 399454.0 0
243075.0 399907.0 0
250000.0 399958.0 0
256925.0 399907.0 0
265469.0 399454.0 0
272053.0 399490.0 0
278621.0 399471.0 0
285214.0 399529.0 0
291864.0 399602.0 0
300396.0 399623.0 0
307081.0 399428.0 0
313483.0 399735.0 0
319874.0 400190.0 0
323009.0 398628.0 0
326284.0 400704.0 0
329444.0 399179.0 0
335884.0 399737.0 0
160855.0 401775.0 0
164033.0 403272.0 0
167290.0 401232.0 0
170458.0 402767.0 0
176862.0 402273.0 0
183238.0 401807.0 0
186329.0 403481.0 0
189588.0 401425.0 0
192636.0 403170.0 0
195942.0 401202.0 0
198848.0 403024.0 0
204814.0 401539.0 0
208170.0 403494.0 0
211456.0 401516.0 0
214738.0 403440.0 0
218049.0 401456.0 0
221276.0 403436.0 0
224597.0 401462.0 0
227801.0 403462.0 0
231150.0 401466.0 0
234364.0 403405.0 0
237737.0 401344.0 0
240961.0 403222.0 0
246549.0 401940.0 0
253451.0 401940.0 0
259039.0 403222.0 0
262263.0 401344.0 0
265636.0 403405.0 0
268850.0 401466.0 0
272199.0 403462.0 0
275403.0 401462.0 0
278724.0 403436.0 0
281951.0 401456.0 0
285262.0 403440.0 0
288544.0 401516.0 0
291830.0 403494.0 0
295186.0 401539.0 0
301152.0 403024.0 0
304058.0 401202.0 0
307364.0 403170.0 0
310412.0 401425.0 0
313671.0 403481.0 0
316762.0 401807.0 0
323138.0 402273.0 0
329542.0 402767.0 0
332710.0 401232.0 0
335967.0 403272.0 0
339145.0 401775.0 0
154335.0 405848.0 0
157596.0 403810.0 0
160780.0 405303.0 0
167210.0 404814.0 0
173618.0 404345.0 0
176765.0 405969.0 0
179992.0 403891.0 0
183106.0 405560.0 0
189407.0 405206.0 0
195668.0 404965.0 0
202053.0 404122.0 0
205192.0 405769.0 0
211471.0 405429.0 0
217980.0 405403.0 0
224481.0 405440.0 0
231008.0 405436.0 0
237594.0 405303.0 0
244217.0 405087.0 0
250000.0 403888.0 0
255783.0 405087.0 0
262406.0 405303.0 0
268992.0 405436.0 0
275519.0 405440.0 0
282020.0 405403.0 0
288529.0 405429.0 0
294808.0 405769.0 0
297947.0 404122.0 0
304332.0 404965.0 0
310593.0 405206.0 0
316894.0 405560.0 0
320008.0 403891.0 0
323235.0 405969.0 0
326382.0 404345.0 0
332790.0 404814.0 0
339220.0 405303.0 0
342404.0 403810.0 0
345665.0 405848.0 0
151066.0 407891.0 0
157522.0 407329.0 0
163964.0 406846.0 0
167146.0 408436.0 0
170382.0 406400.0 0
173546.0 408031.0 0
179901.0 407641.0 0
186210.0 407274.0 0
192491.0 406970.0 0
195672.0 408679.0 0
198900.0 406584.0 0
202089.0 408017.0 0
208364.0 407541.0 0
214718.0 407372.0 0
221188.0 407405.0 0
227676.0 407446.0 0
234230.0 407368.0 0
240854.0 407175.0 0
247532.0 406925.0 0
252468.0 406925.0 0
259146.0 407175.0 0
265770.0 407368.0 0
272324.0 407446.0 0
278812.0 407405.0 0
285282.0 407372.0 0
291636.0 407541.0 0
297911.0 408017.0 0
301100.0 406584.0 0
304328.0 408679.0 0
307509.0 406970.0 0
313790.0 407274.0 0
320099.0 407641.0 0
326454.0 408031.0 0
329618.0 406400.0 0
332854.0 408436.0 0
336036.0 406846.0 0
342478.0 407329.0 0
348934.0 407891.0 0
147785.0 409941.0 0
150977.0 411387.0 0
154256.0 409355.0 0
157453.0 410876.0 0
160713.0 408865.0 0
163906.0 410453.0 0
170324.0 410072.0 0
176702.0 409707.0 0
179852.0 411428.0 0
183029.0 409354.0 0
186162.0 411099.0 0
189321.0 409021.0 0
192481.0 410757.0 0
198891.0 410292.0 0
205249.0 409702.0 0
211538.0 409411.0 0
214711.0 411325.0 0
217928.0 409360.0 0
221106.0 411382.0 0
224373.0 409423.0 0
227526.0 411456.0 0
230873.0 409416.0 0
234119.0 411327.0 0
237485.0 409256.0 0
240775.0 411112.0 0
244156.0 409019.0 0
250000.0 409812.0 0
255844.0 409019.0 0
259225.0 411112.0 0
262515.0 409256.0 0
265881.0 411327.0 0
269127.0 409416.0 0
272474.0 411456.0 0
275627.0 409423.0 0
278894.0 411382.0 0
282072.0 409360.0 0
285289.0 411325.0 0
288462.0 409411.0 0
294751.0 409702.0 0
301109.0 410292.0 0
307519.0 410757.0 0
310679.0 409021.0 0
313838.0 411099.0 0
316971.0 409354.0 0
320148.0 411428.0 0
323298.0 409707.0 0
329676.0 410072.0 0
336094.0 410453.0 0
339287.0 408865.0 0
342547.0 410876.0 0
345744.0 409355.0 0
349023.0 411387.0 0
352215.0 409941.0 0
144492.0 411999.0 0
147684.0 413428.0 0
154180.0 412886.0 0
160655.0 412455.0 0
167096.0 412091.0 0
170283.0 413776.0 0
173498.0 411753.0 0
176668.0 413479.0 0
183007.0 413179.0 0
189326.0 412845.0 0
195678.0 412440.0 0
202084.0 411875.0 0
205263.0 413608.0 0
208403.0 411517.0 0
211542.0 413390.0 0
217878.0 413326.0 0
224193.0 413500.0 0
230761.0 413384.0 0
237395.0 413200.0 0
243449.0 413741.0 0
246724.0 411761.0 0
250000.0 413728.0 0
253276.0 411761.0 0
256551.0 413741.0 0
262605.0 413200.0 0
269239.0 413384.0 0
275807.0 413500.0 0
282122.0 413326.0 0
288458.0 413390.0 0
291597.0 411517.0 0
294737.0 413608.0 0
297916.0 411875.0 0
304322.0 412440.0 0
310674.0 412845.0 0
316993.0 413179.0 0
323332.0 413479.0 0
326502.0 411753.0 0
329717.0 413776.0 0
332904.0 412091.0 0
339345.0 412455.0 0
345820.0 412886.0 0
352316.0 413428.0 0
355508.0 411999.0 0
137875.0 416135.0 0
141187.0 414064.0 0
144380.0 415484.0 0
150893.0 414905.0 0
154113.0 416438.0 0
157392.0 414447.0 0
160605.0 416072.0 0
163857.0 414091.0 0
167055.0 415776.0 0
173468.0 415505.0 0
179839.0 415243.0 0
186184.0 414945.0 0
192519.0 414583.0 0
195719.0 416266.0 0
198877.0 414074.0 0
202051.0 415719.0 0
208447.0 415504.0 0
214685.0 415248.0 0
220870.0 415533.0 0
227416.0 415432.0 0
234022.0 415278.0 0
240159.0 415732.0 0
246718.0 415696.0 0
253282.0 415696.0 0
259841.0 415732.0 0
265978.0 415278.0 0
272584.0 415432.0 0
279130.0 415533.0 0
285315.0 415248.0 0
291553.0 415504.0 0
297949.0 415719.0 0
301123.0 414074.0 0
304281.0 416266.0 0
307481.0 414583.0 0
313816.0 414945.0 0
320161.0 415243.0 0
326532.0 415505.0 0
332945.0 415776.0 0
336143.0 414091.0 0
339395.0 416072.0 0
342608.0 414447.0 0
345887.0 416438.0 0
349107.0 414905.0 0
355620.0 415484.0 0
358813.0 414064.0 0
362125.0 416135.0 0
134563.0 418207.0 0
141068.0 417555.0 0
144285.0 418993.0 0
147593.0 416937.0 0
150820.0 418445.0 0
157339.0 418040.0 0
163815.0 417756.0 0
170250.0 417507.0 0
176651.0 417275.0 0
179840.0 419075.0 0
183028.0 417021.0 0
186253.0 418807.0 0
189401.0 416692.0 0
192659.0 418474.0 0
198890.0 417920.0 0
205204.0 417462.0 0
211693.0 417418.0 0
217517.0 417518.0 0
224083.0 417473.0 0
230659.0 417343.0 0
236849.0 417735.0 0
243424.0 417682.0 0
250000.0 417664.0 0
256576.0 417682.0 0
263151.0 417735.0 0
269341.0 417343.0 0
275917.0 417473.0 0
282483.0 417518.0 0
288307.0 417418.0 0
294796.0 417462.0 0
301110.0 417920.0 0
307341.0 418474.0 0
310599.0 416692.0 0
313747.0 418807.0 0
316972.0 417021.0 0
320160.0 419075.0 0
323349.0 417275.0 0
329750.0 417507.0 0
336185.0 417756.0 0
342661.0 418040.0 0
349180.0 418445.0 0
352407.0 416937.0 0
355715.0 418993.0 0
358932.0 417555.0 0
365437.0 418207.0 0
131257.0 420275.0 0
134457.0 421737.0 0
137757.0 419641.0 0
140977.0 421073.0 0
147520.0 420467.0 0
154057.0 420007.0 0
157296.0 421655.0 0
160562.0 419714.0 0
163771.0 421450.0 0
167017.0 419488.0 0
170217.0 421261.0 0
173443.0 419280.0 0
176636.0 421092.0 0
183049.0 420867.0 0
189556.0 420532.0 0
195924.0 420182.0 0
201963.0 419581.0 0
204962.0 421255.0 0
208330.0 419438.0 0
211542.0 421166.0 0
217365.0 421328.0 0
220750.0 419477.0 0
223961.0 421442.0 0
227306.0 419397.0 0
230173.0 421794.0 0
233520.0 419755.0 0
236782.0 421684.0 0
240112.0 419677.0 0
243392.0 421628.0 0
246704.0 419640.0 0
250000.0 421610.0 0
253296.0 419640.0 0
256608.0 421628.0 0
259888.0 419677.0 0
263218.0 421684.0 0
266480.0 419755.0 0
269827.0 421794.0 0
272694.0 419397.0 0
276039.0 421442.0 0
279250.0 419477.0 0
282635.0 421328.0 0
288458.0 421166.0 0
291670.0 419438.0 0
295038.0 421255.0 0
298037.0 419581.0 0
304076.0 420182.0 0
310444.0 420532.0 0
316951.0 420867.0 0
323364.0 421092.0 0
326557.0 419280.0 0
329783.0 421261.0 0
332983.0 419488.0 0
336229.0 421450.0 0
339438.0 419714.0 0
342704.0 421655.0 0
345943.0 420007.0 0
352480.0 420467.0 0
359023.0 421073.0 0
362243.0 419641.0 0
365543.0 421737.0 0
368743.0 420275.0 0
124684.0 424388.0 0
127965.0 422335.0 0
131174.0 423837.0 0
137680.0 423180.0 0
144217.0 422527.0 0
147474.0 424016.0 0
150765.0 422009.0 0
154015.0 423593.0 0
160521.0 423386.0 0
166966.0 423224.0 0
173422.0 423076.0 0
179830.0 422932.0 0
186290.0 422665.0 0
189641.0 424230.0 0
192983.0 422417.0 0
199101.0 422008.0 0
207784.0 423403.0 0
214369.0 423441.0 0
220591.0 423426.0 0
226824.0 423863.0 0
233434.0 423707.0 0
240062.0 423625.0 0
246688.0 423588.0 0
253312.0 423588.0 0
259938.0 423625.0 0
266566.0 423707.0 0
273176.0 423863.0 0
279409.0 423426.0 0
285631.0 423441.0 0
292216.0 423403.0 0
300899.0 422008.0 0
307017.0 422417.0 0
310359.0 424230.0 0
313710.0 422665.0 0
320170.0 422932.0 0
326578.0 423076.0 0
333034.0 423224.0 0
339479.0 423386.0 0
345985.0 423593.0 0
349235.0 422009.0 0
352526.0 424016.0 0
355783.0 422527.0 0
362320.0 423180.0 0
368826.0 423837.0 0
372035.0 422335.0 0
375316.0 424388.0 0
121409.0 426437.0 0
127910.0 425926.0 0
134403.0 425309.0 0
137654.0 426757.0 0
140926.0 424621.0 0
144189.0 426089.0 0
150734.0 425605.0 0
157263.0 425295.0 0
163716.0 425180.0 0
166887.0 426992.0 0
170155.0 425033.0 0
173351.0 426866.0 0
176651.0 424935.0 0
179914.0 426864.0 0
183009.0 424720.0 0
186079.0 426542.0 0
192903.0 426276.0 0
196544.0 425005.0 0
200436.0 425473.0 0
204177.0 424903.0 0
210953.0 424938.0 0
217371.0 425580.0 0
223489.0 425901.0 0
230065.0 425749.0 0
236718.0 425632.0 0
243357.0 425577.0 0
250000.0 425559.0 0
256643.0 425577.0 0
263282.0 425632.0 0
269935.0 425749.0 0
276511.0 425901.0 0
282629.0 425580.0 0
289047.0 424938.0 0
295823.0 424903.0 0
299564.0 425473.0 0
303456.0 425005.0 0
307097.0 426276.0 0
313921.0 426542.0 0
316991.0 424720.0 0
320086.0 426864.0 0
323349.0 424935.0 0
326649.0 426866.0 0
329845.0 425033.0 0
333113.0 426992.0 0
336284.0 425180.0 0
342737.0 425295.0 0
349266.0 425605.0 0
355811.0 426089.0 0
359074.0 424621.0 0
362346.0 426757.0 0
365597.0 425309.0 0
372090.0 425926.0 0
378591.0 426437.0 0
118128.0 428489.0 0
124658.0 428001.0 0
127923.0 429564.0 0
131152.0 427445.0 0
134411.0 428924.0 0
140927.0 428201.0 0
144213.0 429682.0 0
147466.0 427583.0 0
150727.0 429261.0 0
153987.0 427185.0 0
157238.0 428967.0 0
160477.0 427096.0 0
163640.0 428965.0 0
170054.0 428830.0 0
176565.0 428734.0 0
183126.0 428982.0 0
189362.0 427817.0 0
195465.0 429124.0 0
199119.0 428999.0 0
202875.0 428554.0 0
206606.0 427882.0 0
210250.0 428527.0 0
213875.0 427293.0 0
220188.0 427981.0 0
226536.0 428195.0 0
229996.0 429667.0 0
233362.0 427655.0 0
236648.0 429585.0 0
240010.0 427576.0 0
243319.0 429527.0 0
246669.0 427538.0 0
250000.0 429508.0 0
253331.0 427538.0 0
256681.0 429527.0 0
259990.0 427576.0 0
263352.0 429585.0 0
266638.0 427655.0 0
270004.0 429667.0 0
273464.0 428195.0 0
279812.0 427981.0 0
286125.0 427293.0 0
289750.0 428527.0 0
293394.0 427882.0 0
297125.0 428554.0 0
300881.0 428999.0 0
304535.0 429124.0 0
310638.0 427817.0 0
316874.0 428982.0 0
323435.0 428734.0 0
329946.0 428830.0 0
336360.0 428965.0 0
339523.0 427096.0 0
342762.0 428967.0 0
346013.0 427185.0 0
349273.0 429261.0 0
352534.0 427583.0 0
355787.0 429682.0 0
359073.0 428201.0 0
365589.0 428924.0 0
368848.0 427445.0 0
372077.0 429564.0 0
375342.0 428001.0 0
381872.0 428489.0 0
114831.0 430550.0 0
118123.0 432115.0 0
121401.0 430061.0 0
124695.0 431652.0 0
131203.0 431105.0 0
137695.0 430371.0 0
140997.0 431811.0 0
147512.0 431157.0 0
153958.0 430756.0 0
160427.0 430862.0 0
166772.0 430795.0 0
173233.0 430666.0 0
179725.0 430738.0 0
186691.0 430452.0 0
191882.0 430091.0 0
201381.0 432146.0 0
205289.0 431660.0 0
209176.0 432049.0 0
213002.0 431153.0 0
216659.0 429723.0 0
219665.0 431902.0 0
223205.0 430216.0 0
233277.0 431619.0 0
239952.0 431530.0 0
246649.0 431487.0 0
253351.0 431487.0 0
260048.0 431530.0 0
266723.0 431619.0 0
276795.0 430216.0 0
280335.0 431902.0 0
283341.0 429723.0 0
286998.0 431153.0 0
290824.0 432049.0 0
294711.0 431660.0 0
298619.0 432146.0 0
308118.0 430091.0 0
313309.0 430452.0 0
320275.0 430738.0 0
326767.0 430666.0 0
333228.0 430795.0 0
339573.0 430862.0 0
346042.0 430756.0 0
352488.0 431157.0 0
359003.0 431811.0 0
362305.0 430371.0 0
368797.0 431105.0 0
375305.0 431652.0 0
378599.0 430061.0 0
381877.0 432115.0 0
385169.0 430550.0 0
108158.0 434723.0 0
111507.0 432628.0 0
114812.0 434177.0 0
121445.0 433709.0 0
128002.0 433247.0 0
131317.0 434813.0 0
134508.0 432581.0 0
137864.0 434023.0 0
144276.0 433321.0 0
147442.0 434675.0 0
150739.0 433058.0 0
154049.0 434186.0 0
157230.0 432682.0 0
160215.0 434709.0 0
163509.0 432833.0 0
166687.0 434597.0 0
169939.0 432658.0 0
173087.0 434499.0 0
176408.0 432549.0 0
179546.0 434666.0 0
182778.0 432871.0 0
186090.0 434165.0 0
189773.0 433299.0 0
193702.0 433172.0 0
197477.0 432527.0 0
215793.0 433758.0 0
222743.0 434144.0 0
226282.0 432441.0 0
229880.0 433566.0 0
236558.0 433535.0 0
243279.0 433476.0 0
250000.0 433455.0 0
256721.0 433476.0 0
263442.0 433535.0 0
270120.0 433566.0 0
273718.0 432441.0 0
277257.0 434144.0 0
284207.0 433758.0 0
302523.0 432527.0 0
306298.0 433172.0 0
310227.0 433299.0 0
313910.0 434165.0 0
317222.0 432871.0 0
320454.0 434666.0 0
323592.0 432549.0 0
326913.0 434499.0 0
330061.0 432658.0 0
333313.0 434597.0 0
336491.0 432833.0 0
339785.0 434709.0 0
342770.0 432682.0 0
345951.0 434186.0 0
349261.0 433058.0 0
352558.0 434675.0 0
355724.0 433321.0 0
362136.0 434023.0 0
365492.0 432581.0 0
368683.0 434813.0 0
371998.0 433247.0 0
378555.0 433709.0 0
385188.0 434177.0 0
388493.0 432628.0 0
391842.0 434723.0 0
104787.0 436832.0 0
111471.0 436261.0 0
118152.0 435754.0 0
121529.0 437369.0 0
124793.0 435334.0 0
128164.0 436977.0 0
134648.0 436244.0 0
141274.0 435464.0 0
144750.0 437169.0 0
149462.0 437255.0 0
153016.0 437315.0 0
156809.0 436576.0 0
163337.0 436738.0 0
169997.0 436568.0 0
176152.0 436316.0 0
184030.0 437474.0 0
188074.0 437194.0 0
191910.0 436596.0 0
195872.0 436187.0 0
199739.0 435705.0 0
203641.0 435305.0 0
207489.0 435348.0 0
211838.0 434931.0 0
219103.0 435736.0 0
225886.0 436405.0 0
229612.0 437456.0 0
233125.0 435603.0 0
236479.0 437445.0 0
239891.0 435480.0 0
243229.0 437420.0 0
246627.0 435433.0 0
250000.0 437396.0 0
253373.0 435433.0 0
256771.0 437420.0 0
260109.0 435480.0 0
263521.0 437445.0 0
266875.0 435603.0 0
270388.0 437456.0 0
274114.0 436405.0 0
280897.0 435736.0 0
288162.0 434931.0 0
292511.0 435348.0 0
296359.0 435305.0 0
300261.0 435705.0 0
304128.0 436187.0 0
308090.0 436596.0 0
311926.0 437194.0 0
315970.0 437474.0 0
323848.0 436316.0 0
330003.0 436568.0 0
336663.0 436738.0 0
343191.0 436576.0 0
346984.0 437315.0 0
350538.0 437255.0 0
355250.0 437169.0 0
358726.0 435464.0 0
365352.0 436244.0 0
371836.0 436977.0 0
375207.0 435334.0 0
378471.0 437369.0 0
381848.0 435754.0 0
388529.0 436261.0 0
395213.0 436832.0 0
101409.0 438947.0 0
108108.0 438373.0 0
111455.0 439912.0 0
114816.0 437815.0 0
118195.0 439396.0 0
124945.0 439031.0 0
131551.0 438590.0 0
134987.0 439937.0 0
138002.0 437649.0 0
141252.0 438979.0 0
159918.0 438457.0 0
166641.0 438229.0 0
172973.0 438999.0 0
176660.0 439734.0 0
180213.0 438358.0 0
194181.0 439730.0 0
198091.0 439305.0 0
201994.0 438894.0 0
205942.0 438847.0 0
209910.0 438390.0 0
214756.0 437565.0 0
218628.0 439567.0 0
222267.0 438015.0 0
232798.0 439697.0 0
239811.0 439447.0 0
246605.0 439371.0 0
253395.0 439371.0 0
260189.0 439447.0 0
267202.0 439697.0 0
277733.0 438015.0 0
281372.0 439567.0 0
285244.0 437565.0 0
290090.0 438390.0 0
294058.0 438847.0 0
298006.0 438894.0 0
301909.0 439305.0 0
305819.0 439730.0 0
319787.0 438358.0 0
323340.0 439734.0 0
327027.0 438999.0 0
333359.0 438229.0 0
340082.0 438457.0 0
358748.0 438979.0 0
361998.0 437649.0 0
365013.0 439937.0 0
368449.0 438590.0 0
375055.0 439031.0 0
381805.0 439396.0 0
385184.0 437815.0 0
388545.0 439912.0 0
391892.0 438373.0 0
398591.0 438947.0 0
98039.2 441059.0 0
101399.0 442689.0 0
104742.0 440517.0 0
108095.0 442053.0 0
114830.0 441465.0 0
121611.0 441019.0 0
125058.0 442707.0 0
128407.0 440732.0 0
131908.0 442418.0 0
138537.0 441441.0 0
143970.0 440760.0 0
147464.0 440320.0 0
151289.0 440479.0 0
155260.0 440129.0 0
160584.0 441895.0 0
164263.0 440919.0 0
169403.0 440435.0 0
178881.0 442502.0 0
182565.0 441315.0 0
186369.0 440677.0 0
190304.0 440233.0 0
200237.0 442516.0 0
204030.0 442229.0 0
207802.0 442336.0 0
211581.0 441908.0 0
215292.0 441426.0 0
221761.0 441886.0 0
225415.0 440342.0 0
229194.0 441355.0 0
236330.0 441319.0 0
243185.0 441344.0 0
250000.0 441330.0 0
256815.0 441344.0 0
263670.0 441319.0 0
270806.0 441355.0 0
274585.0 440342.0 0
278239.0 441886.0 0
284708.0 441426.0 0
288419.0 441908.0 0
292198.0 442336.0 0
295970.0 442229.0 0
299763.0 442516.0 0
309696.0 440233.0 0
313631.0 440677.0 0
317435.0 441315.0 0
321119.0 442502.0 0
330597.0 440435.0 0
335737.0 440919.0 0
339416.0 441895.0 0
344740.0 440129.0 0
348711.0 440479.0 0
352536.0 440320.0 0
356030.0 440760.0 0
361463.0 441441.0 0
368092.0 442418.0 0
371593.0 440732.0 0
374942.0 442707.0 0
378389.0 441019.0 0
385170.0 441465.0 0
391905.0 442053.0 0
395258.0 440517.0 0
398601.0 442689.0 0
401961.0 441059.0 0
93715.6 443765.0 0
97356.2 444791.0 0
104768.0 444250.0 0
111464.0 443589.0 0
114845.0 445134.0 0
118233.0 443040.0 0
121667.0 444664.0 0
128513.0 444443.0 0
135551.0 443490.0 0
141586.0 443546.0 0
145533.0 443804.0 0
149286.0 443651.0 0
153162.0 443523.0 0
156914.0 443301.0 0
163430.0 444549.0 0
167215.0 443725.0 0
171136.0 443562.0 0
174865.0 442961.0 0
184844.0 444382.0 0
188680.0 443820.0 0
192561.0 443349.0 0
196412.0 442902.0 0
213929.0 445147.0 0
217749.0 444376.0 0
224914.0 444268.0 0
228679.0 445245.0 0
232352.0 443721.0 0
236021.0 445175.0 0
239619.0 443460.0 0
243119.0 445236.0 0
246581.0 443305.0 0
250000.0 445252.0 0
253419.0 443305.0 0
256881.0 445236.0 0
260381.0 443460.0 0
263979.0 445175.0 0
267648.0 443721.0 0
271321.0 445245.0 0
275086.0 444268.0 0
282251.0 444376.0 0
286071.0 445147.0 0
303588.0 442902.0 0
307439.0 443349.0 0
311320.0 443820.0 0
315156.0 444382.0 0
325135.0 442961.0 0
328864.0 443562.0 0
332785.0 443725.0 0
336570.0 444549.0 0
343086.0 443301.0 0
346838.0 443523.0 0
350714.0 443651.0 0
354467.0 443804.0 0
358414.0 443546.0 0
364449.0 443490.0 0
371487.0 444443.0 0
378333.0 444664.0 0
381767.0 443040.0 0
385155.0 445134.0 0
388536.0 443589.0 0
395232.0 444250.0 0
402644.0 444791.0 0
406284.0 443765.0 0
90345.4 445877.0 0
93811.2 447577.0 0
100796.0 446431.0 0
108136.0 445781.0 0
111502.0 447310.0 0
118240.0 446688.0 0
125115.0 446402.0 0
131868.0 446252.0 0
135664.0 446846.0 0
139428.0 446612.0 0
143351.0 446873.0 0
147296.0 446978.0 0
151159.0 446871.0 0
154991.0 446755.0 0
159749.0 445379.0 0
165788.0 447484.0 0
169514.0 446992.0 0
173387.0 446583.0 0
177213.0 446005.0 0
181103.0 445428.0 0
187138.0 447490.0 0
190986.0 446966.0 0
194846.0 446525.0 0
198655.0 446146.0 0
202474.0 445759.0 0
206290.0 446013.0 0
210117.0 445526.0 0
221292.0 445727.0 0
231661.0 447775.0 0
239192.0 447541.0 0
246527.0 447239.0 0
253473.0 447239.0 0
260808.0 447541.0 0
268339.0 447775.0 0
278708.0 445727.0 0
289883.0 445526.0 0
293710.0 446013.0 0
297526.0 445759.0 0
301345.0 446146.0 0
305154.0 446525.0 0
309014.0 446966.0 0
312862.0 447490.0 0
318897.0 445428.0 0
322787.0 446005.0 0
326613.0 446583.0 0
330486.0 446992.0 0
334212.0 447484.0 0
340251.0 445379.0 0
345009.0 446755.0 0
348841.0 446871.0 0
352704.0 446978.0 0
356649.0 446873.0 0
360572.0 446612.0 0
364336.0 446846.0 0
368132.0 446252.0 0
374885.0 446402.0 0
381760.0 446688.0 0
388498.0 447310.0 0
391864.0 445781.0 0
399204.0 446431.0 0
406189.0 447577.0 0
409655.0 445877.0 0
83603.8 450103.0 0
86968.3 447994.0 0
90477.2 449746.0 0
97512.8 448658.0 0
101046.0 450275.0 0
104291.0 448004.0 0
107813.0 449541.0 0
114878.0 448838.0 0
118273.0 450364.0 0
121638.0 448297.0 0
124939.0 450109.0 0
128543.0 448248.0 0
133520.0 449698.0 0
137482.0 449999.0 0
141309.0 450041.0 0
145228.0 450172.0 0
149156.0 450211.0 0
153020.0 450165.0 0
158157.0 448549.0 0
162038.0 448154.0 0
171799.0 450141.0 0
175661.0 449637.0 0
179507.0 449044.0 0
183360.0 448404.0 0
193316.0 450121.0 0
197153.0 449821.0 0
201002.0 449339.0 0
204862.0 449710.0 0
208738.0 449143.0 0
212650.0 449022.0 0
216485.0 448149.0 0
220176.0 449428.0 0
224139.0 448316.0 0
227934.0 449124.0 0
235370.0 449003.0 0
242847.0 449108.0 0
250000.0 449128.0 0
257153.0 449108.0 0
264630.0 449003.0 0
272066.0 449124.0 0
275861.0 448316.0 0
279824.0 449428.0 0
283515.0 448149.0 0
287350.0 449022.0 0
291262.0 449143.0 0
295138.0 449710.0 0
298998.0 449339.0 0
302847.0 449821.0 0
306684.0 450121.0 0
316640.0 448404.0 0
320493.0 449044.0 0
324339.0 449637.0 0
328201.0 450141.0 0
337962.0 448154.0 0
341843.0 448549.0 0
346980.0 450165.0 0
350844.0 450211.0 0
354772.0 450172.0 0
358691.0 450041.0 0
362518.0 449999.0 0
366480.0 449698.0 0
371457.0 448248.0 0
375061.0 450109.0 0
378362.0 448297.0 0
381727.0 450364.0 0
385122.0 448838.0 0
392187.0 449541.0 0
395709.0 448004.0 0
398954.0 450275.0 0
402487.0 448658.0 0
409523.0 449746.0 0
413032.0 447994.0 0
416396.0 450103.0 0
87140.4 451936.0 0
94037.0 451416.0 0
97823.4 452563.0 0
104596.0 451844.0 0
111330.0 451067.0 0
114820.0 452575.0 0
121688.0 451990.0 0
127977.0 451919.0 0
131491.0 452579.0 0
156400.0 451718.0 0
160316.0 451547.0 0
164197.0 451124.0 0
167989.0 450623.0 0
177954.0 452705.0 0
181817.0 452079.0 0
185657.0 451395.0 0
189455.0 450622.0 0
199584.0 452975.0 0
207377.0 452768.0 0
211363.0 453050.0 0
215333.0 451969.0 0
223041.0 452091.0 0
226925.0 452969.0 0
230891.0 451687.0 0
234671.0 452864.0 0
238413.0 451459.0 0
242072.0 452929.0 0
246244.0 451173.0 0
250000.0 452977.0 0
253756.0 451173.0 0
257928.0 452929.0 0
261587.0 451459.0 0
265329.0 452864.0 0
269109.0 451687.0 0
273075.0 452969.0 0
276959.0 452091.0 0
284667.0 451969.0 0
288637.0 453050.0 0
292623.0 452768.0 0
300416.0 452975.0 0
310545.0 450622.0 0
314343.0 451395.0 0
318183.0 452079.0 0
322046.0 452705.0 0
332011.0 450623.0 0
335803.0 451124.0 0
339684.0 451547.0 0
343600.0 451718.0 0
368509.0 452579.0 0
372023.0 451919.0 0
378312.0 451990.0 0
385180.0 452575.0 0
388670.0 451067.0 0
395404.0 451844.0 0
402177.0 452563.0 0
405963.0 451416.0 0
412860.0 451936.0 0
84135.3 454542.0 0
90729.1 453649.0 0
94893.5 455198.0 0
101420.0 454172.0 0
108141.0 453380.0 0
111666.0 454913.0 0
118279.0 454036.0 0
121705.0 455521.0 0
125235.0 454533.0 0
128949.0 455505.0 0
135380.0 453134.0 0
139291.0 453338.0 0
143191.0 453408.0 0
147121.0 453484.0 0
151029.0 453534.0 0
154542.0 454932.0 0
158477.0 454869.0 0
162425.0 454607.0 0
166329.0 454220.0 0
170197.0 453761.0 0
174072.0 453258.0 0
184195.0 455100.0 0
188041.0 454374.0 0
191841.0 453714.0 0
195747.0 453694.0 0
203511.0 453439.0 0
219174.0 453203.0 0
231350.0 455607.0 0
238903.0 455400.0 0
246417.0 455109.0 0
253583.0 455109.0 0
261097.0 455400.0 0
268650.0 455607.0 0
280826.0 453203.0 0
296489.0 453439.0 0
304253.0 453694.0 0
308159.0 453714.0 0
311959.0 454374.0 0
315805.0 455100.0 0
325928.0 453258.0 0
329803.0 453761.0 0
333671.0 454220.0 0
337575.0 454607.0 0
341523.0 454869.0 0
345458.0 454932.0 0
348971.0 453534.0 0
352879.0 453484.0 0
356809.0 453408.0 0
360709.0 453338.0 0
364620.0 453134.0 0
371051.0 455505.0 0
374765.0 454533.0 0
378295.0 455521.0 0
381721.0 454036.0 0
388334.0 454913.0 0
391859.0 453380.0 0
398580.0 454172.0 0
405106.0 455198.0 0
409271.0 453649.0 0
415865.0 454542.0 0
87748.3 456300.0 0
91685.5 457477.0 0
98504.7 456777.0 0
105005.0 455740.0 0
108580.0 457280.0 0
115165.0 456407.0 0
118688.0 457779.0 0
132854.0 455961.0 0
137210.0 456580.0 0
141167.0 456695.0 0
145105.0 456765.0 0
149029.0 456846.0 0
152621.0 458202.0 0
156576.0 458180.0 0
160557.0 458010.0 0
164529.0 457723.0 0
168486.0 457351.0 0
172438.0 456881.0 0
176380.0 456354.0 0
180304.0 455762.0 0
189698.0 457870.0 0
193546.0 457185.0 0
197376.0 457354.0 0
201160.0 456586.0 0
204979.0 457257.0 0
208777.0 456368.0 0
212552.0 457074.0 0
216253.0 455848.0 0
220012.0 457068.0 0
223796.0 455902.0 0
227599.0 456888.0 0
235142.0 456758.0 0
242789.0 456756.0 0
250000.0 456845.0 0
257211.0 456756.0 0
264858.0 456758.0 0
272401.0 456888.0 0
276204.0 455902.0 0
279988.0 457068.0 0
283747.0 455848.0 0
287448.0 457074.0 0
291223.0 456368.0 0
295021.0 457257.0 0
298840.0 456586.0 0
302624.0 457354.0 0
306454.0 457185.0 0
310302.0 457870.0 0
319696.0 455762.0 0
323620.0 456354.0 0
327562.0 456881.0 0
331514.0 457351.0 0
335471.0 457723.0 0
339443.0 458010.0 0
343424.0 458180.0 0
347379.0 458202.0 0
350971.0 456846.0 0
354895.0 456765.0 0
358833.0 456695.0 0
362790.0 456580.0 0
367146.0 455961.0 0
381312.0 457779.0 0
384835.0 456407.0 0
391420.0 457280.0 0
394995.0 455740.0 0
401495.0 456777.0 0
408314.0 457477.0 0
412252.0 456300.0 0
89279.3 460609.0 0
95313.4 459117.0 0
98948.8 460735.0 0
102122.0 458369.0 0
105767.0 459943.0 0
112136.0 458834.0 0
115749.0 460284.0 0
122418.0 458956.0 0
126298.0 458384.0 0
130375.0 458882.0 0
134440.0 459229.0 0
139171.0 459987.0 0
143118.0 460071.0 0
147054.0 460149.0 0
166578.0 460900.0 0
170481.0 460596.0 0
174349.0 460224.0 0
178200.0 459772.0 0
182039.0 459230.0 0
185869.0 458591.0 0
192185.0 460873.0 0
199977.0 460353.0 0
207710.0 460145.0 0
215421.0 459759.0 0
219202.0 460936.0 0
222961.0 459735.0 0
226788.0 460785.0 0
230565.0 459503.0 0
234375.0 460644.0 0
238146.0 459312.0 0
241912.0 460573.0 0
246038.0 459053.0 0
250000.0 460715.0 0
253962.0 459053.0 0
258088.0 460573.0 0
261854.0 459312.0 0
265625.0 460644.0 0
269435.0 459503.0 0
273212.0 460785.0 0
277039.0 459735.0 0
280798.0 460936.0 0
284579.0 459759.0 0
292290.0 460145.0 0
300023.0 460353.0 0
307815.0 460873.0 0
314131.0 458591.0 0
317961.0 459230.0 0
321800.0 459772.0 0
325651.0 460224.0 0
329519.0 460596.0 0
333422.0 460900.0 0
352946.0 460149.0 0
356882.0 460071.0 0
360829.0 459987.0 0
365560.0 459229.0 0
369625.0 458882.0 0
373702.0 458384.0 0
377582.0 458956.0 0
384251.0 460284.0 0
387864.0 458834.0 0
394233.0 459943.0 0
397878.0 458369.0 0
401051.0 460735.0 0
404687.0 459117.0 0
410721.0 460609.0 0
92913.3 462262.0 0
102623.0 462299.0 0
109394.0 461584.0 0
113060.0 463010.0 0
119456.0 461404.0 0
124250.0 462012.0 0
128078.0 461924.0 0
132048.0 462197.0 0
136243.0 462471.0 0
141155.0 463400.0 0
145106.0 463468.0 0
150682.0 461531.0 0
154651.0 461507.0 0
158643.0 461390.0 0
162627.0 461178.0 0
176570.0 463407.0 0
180513.0 462913.0 0
184434.0 462310.0 0
188326.0 461616.0 0
196115.0 461149.0 0
203873.0 461080.0 0
211610.0 460957.0 0
231389.0 463377.0 0
238920.0 463205.0 0
246391.0 462993.0 0
253609.0 462993.0 0
261080.0 463205.0 0
268611.0 463377.0 0
288390.0 460957.0 0
296127.0 461080.0 0
303885.0 461149.0 0
311674.0 461616.0 0
315566.0 462310.0 0
319487.0 462913.0 0
323430.0 463407.0 0
337373.0 461178.0 0
341357.0 461390.0 0
345349.0 461507.0 0
349318.0 461531.0 0
354894.0 463468.0 0
358845.0 463400.0 0
363757.0 462471.0 0
367952.0 462197.0 0
371922.0 461924.0 0
375750.0 462012.0 0
380544.0 461404.0 0
386940.0 463010.0 0
390606.0 461584.0 0
397377.0 462299.0 0
407087.0 462262.0 0
95574.6 465225.0 0
99504.3 464670.0 0
106260.0 463873.0 0
110759.0 466101.0 0
116814.0 464206.0 0
121331.0 464575.0 0
125965.0 465289.0 0
129867.0 465343.0 0
133845.0 465472.0 0
138114.0 465771.0 0
148747.0 464916.0 0
152734.0 464862.0 0
156735.0 464770.0 0
160731.0 464612.0 0
164709.0 464390.0 0
168665.0 464124.0 0
172617.0 463808.0 0
186218.0 465799.0 0
190021.0 465151.0 0
193806.0 464414.0 0
197569.0 465055.0 0
201297.0 464082.0 0
205065.0 465014.0 0
208810.0 463915.0 0
212591.0 464834.0 0
216313.0 463625.0 0
220086.0 464806.0 0
223848.0 463573.0 0
227642.0 464665.0 0
235178.0 464528.0 0
242706.0 464427.0 0
250000.0 464604.0 0
257294.0 464427.0 0
264822.0 464528.0 0
272358.0 464665.0 0
276152.0 463573.0 0
279914.0 464806.0 0
283687.0 463625.0 0
287409.0 464834.0 0
291190.0 463915.0 0
294935.0 465014.0 0
298703.0 464082.0 0
302431.0 465055.0 0
306194.0 464414.0 0
309979.0 465151.0 0
313782.0 465799.0 0
327383.0 463808.0 0
331335.0 464124.0 0
335291.0 464390.0 0
339269.0 464612.0 0
343265.0 464770.0 0
347266.0 464862.0 0
351253.0 464916.0 0
361886.0 465771.0 0
366155.0 465472.0 0
370133.0 465343.0 0
374035.0 465289.0 0
378669.0 464575.0 0
383186.0 464206.0 0
389241.0 466101.0 0
393740.0 463873.0 0
400496.0 464670.0 0
404425.0 465225.0 0
98474.7 468481.0 0
103307.0 466470.0 0
107183.0 467696.0 0
114625.0 467450.0 0
118839.0 467586.0 0
123053.0 467888.0 0
127739.0 468633.0 0
131689.0 468690.0 0
143165.0 466805.0 0
146811.0 468341.0 0
150843.0 468243.0 0
154842.0 468161.0 0
158841.0 468037.0 0
162829.0 467861.0 0
166801.0 467634.0 0
170752.0 467365.0 0
174672.0 467078.0 0
178560.0 466752.0 0
182402.0 466341.0 0
192543.0 468192.0 0
200263.0 467946.0 0
207898.0 467799.0 0
211742.0 468715.0 0
215515.0 467524.0 0
219289.0 468688.0 0
223052.0 467467.0 0
226860.0 468554.0 0
230627.0 467292.0 0
234428.0 468426.0 0
238191.0 467127.0 0
241992.0 468289.0 0
245990.0 467167.0 0
250000.0 468472.0 0
254010.0 467167.0 0
258008.0 468289.0 0
261809.0 467127.0 0
265572.0 468426.0 0
269373.0 467292.0 0
273140.0 468554.0 0
276948.0 467467.0 0
280711.0 468688.0 0
284485.0 467524.0 0
288258.0 468715.0 0
292102.0 467799.0 0
299737.0 467946.0 0
307457.0 468192.0 0
317598.0 466341.0 0
321440.0 466752.0 0
325328.0 467078.0 0
329248.0 467365.0 0
333199.0 467634.0 0
337171.0 467861.0 0
341159.0 468037.0 0
345158.0 468161.0 0
349157.0 468243.0 0
353189.0 468341.0 0
356835.0 466805.0 0
368311.0 468690.0 0
372261.0 468633.0 0
376947.0 467888.0 0
381161.0 467586.0 0
385375.0 467450.0 0
392817.0 467696.0 0
396693.0 466470.0 0
401525.0 468481.0 0
95575.5 471202.0 0
102058.0 470221.0 0
111576.0 469947.0 0
116682.0 470865.0 0
120736.0 471036.0 0
124836.0 471229.0 0
135663.0 468753.0 0
140051.0 469128.0 0
143659.0 470735.0 0
160955.0 471324.0 0
164943.0 471134.0 0
168926.0 470897.0 0
172891.0 470626.0 0
176852.0 470324.0 0
180815.0 469991.0 0
184752.0 469511.0 0
188657.0 468892.0 0
196414.0 468855.0 0
204085.0 468858.0 0
230553.0 471287.0 0
238446.0 471118.0 0
246192.0 471160.0 0
253808.0 471160.0 0
261554.0 471118.0 0
269447.0 471287.0 0
295915.0 468858.0 0
303586.0 468855.0 0
311343.0 468892.0 0
315248.0 469511.0 0
319185.0 469991.0 0
323148.0 470324.0 0
327109.0 470626.0 0
331074.0 470897.0 0
335057.0 471134.0 0
339045.0 471324.0 0
356341.0 470735.0 0
359949.0 469128.0 0
364337.0 468753.0 0
375164.0 471229.0 0
379264.0 471036.0 0
383318.0 470865.0 0
388424.0 469947.0 0
397942.0 470221.0 0
404424.0 471202.0 0
99190.5 473013.0 0
105933.0 471394.0 0
109446.0 473262.0 0
113619.0 473353.0 0
129576.0 471985.0 0
133538.0 472022.0 0
137502.0 472036.0 0
148977.0 471639.0 0
152966.0 471566.0 0
156961.0 471466.0 0
175080.0 473874.0 0
179066.0 473560.0 0
183189.0 473173.0 0
187235.0 472614.0 0
191180.0 471944.0 0
195100.0 472607.0 0
199019.0 471854.0 0
202916.0 472646.0 0
206868.0 471694.0 0
210758.0 472546.0 0
214756.0 471447.0 0
218596.0 472572.0 0
222684.0 471444.0 0
226577.0 472496.0 0
234657.0 472386.0 0
242345.0 472212.0 0
250000.0 472356.0 0
257655.0 472212.0 0
265343.0 472386.0 0
273423.0 472496.0 0
277316.0 471444.0 0
281404.0 472572.0 0
285244.0 471447.0 0
289242.0 472546.0 0
293132.0 471694.0 0
297084.0 472646.0 0
300981.0 471854.0 0
304900.0 472607.0 0
308820.0 471944.0 0
312765.0 472614.0 0
316811.0 473173.0 0
320934.0 473560.0 0
324920.0 473874.0 0
343039.0 471466.0 0
347034.0 471566.0 0
351023.0 471639.0 0
362498.0 472036.0 0
366462.0 472022.0 0
370424.0 471985.0 0
386381.0 473353.0 0
390554.0 473262.0 0
394067.0 471394.0 0
400810.0 473013.0 0
103036.0 474058.0 0
118616.0 474341.0 0
122667.0 474467.0 0
126678.0 474602.0 0
131459.0 475343.0 0
135427.0 475352.0 0
139393.0 475294.0 0
143248.0 474657.0 0
147140.0 475046.0 0
151100.0 474987.0 0
155081.0 474901.0 0
159074.0 474787.0 0
163069.0 474630.0 0
167084.0 474410.0 0
171092.0 474168.0 0
185674.0 476288.0 0
189785.0 475679.0 0
193782.0 476363.0 0
197707.0 475628.0 0
201620.0 476409.0 0
205539.0 475639.0 0
209468.0 476302.0 0
213387.0 475539.0 0
217297.0 476309.0 0
221295.0 475511.0 0
225225.0 476224.0 0
229362.0 475345.0 0
233275.0 476114.0 0
237534.0 475207.0 0
241432.0 476056.0 0
245989.0 475162.0 0
250000.0 476249.0 0
254011.0 475162.0 0
258568.0 476056.0 0
262466.0 475207.0 0
266725.0 476114.0 0
270638.0 475345.0 0
274775.0 476224.0 0
278705.0 475511.0 0
282703.0 476309.0 0
286613.0 475539.0 0
290532.0 476302.0 0
294461.0 475639.0 0
298380.0 476409.0 0
302293.0 475628.0 0
306218.0 476363.0 0
310215.0 475679.0 0
314326.0 476288.0 0
328908.0 474168.0 0
332916.0 474410.0 0
336931.0 474630.0 0
340926.0 474787.0 0
344919.0 474901.0 0
348900.0 474987.0 0
352860.0 475046.0 0
356752.0 474657.0 0
360607.0 475294.0 0
364573.0 475352.0 0
368541.0 475343.0 0
373322.0 474602.0 0
377333.0 474467.0 0
381384.0 474341.0 0
396964.0 474058.0 0
99113.7 477013.0 0
102988.0 477986.0 0
107634.0 476796.0 0
111651.0 476781.0 0
115640.0 476940.0 0
120588.0 477787.0 0
124590.0 477904.0 0
128581.0 477996.0 0
133385.0 478704.0 0
137363.0 478677.0 0
141326.0 478600.0 0
145237.0 478469.0 0
149202.0 478422.0 0
153181.0 478347.0 0
157171.0 478247.0 0
161175.0 478124.0 0
165226.0 477921.0 0
169243.0 477690.0 0
173300.0 477427.0 0
177290.0 477124.0 0
181391.0 476734.0 0
238344.0 479124.0 0
246151.0 479154.0 0
253849.0 479154.0 0
261656.0 479124.0 0
318609.0 476734.0 0
322710.0 477124.0 0
326700.0 477427.0 0
330757.0 477690.0 0
334774.0 477921.0 0
338825.0 478124.0 0
342829.0 478247.0 0
346819.0 478347.0 0
350798.0 478422.0 0
354763.0 478469.0 0
358674.0 478600.0 0
362637.0 478677.0 0
366615.0 478704.0 0
371419.0 477996.0 0
375410.0 477904.0 0
379412.0 477787.0 0
384360.0 476940.0 0
388349.0 476781.0 0
392366.0 476796.0 0
397012.0 477986.0 0
400886.0 477013.0 0
100274.0 480881.0 0
106008.0 480547.0 0
109963.0 480366.0 0
113927.0 480520.0 0
117898.0 480659.0 0
122539.0 481240.0 0
126534.0 481350.0 0
130529.0 481401.0 0
155245.0 481712.0 0
159241.0 481606.0 0
163346.0 481430.0 0
167397.0 481219.0 0
171453.0 480954.0 0
175516.0 480696.0 0
179493.0 480394.0 0
183454.0 480099.0 0
187390.0 480133.0 0
191278.0 479450.0 0
195188.0 480120.0 0
199107.0 479502.0 0
203035.0 480142.0 0
206938.0 479382.0 0
210871.0 480033.0 0
214803.0 479414.0 0
218753.0 480011.0 0
222669.0 479279.0 0
226607.0 479960.0 0
230518.0 479169.0 0
234439.0 479920.0 0
242250.0 479929.0 0
250000.0 480157.0 0
257750.0 479929.0 0
265561.0 479920.0 0
269482.0 479169.0 0
273393.0 479960.0 0
277331.0 479279.0 0
281247.0 480011.0 0
285197.0 479414.0 0
289129.0 480033.0 0
293062.0 479382.0 0
296965.0 480142.0 0
300893.0 479502.0 0
304812.0 480120.0 0
308722.0 479450.0 0
312610.0 480133.0 0
316546.0 480099.0 0
320507.0 480394.0 0
324484.0 480696.0 0
328547.0 480954.0 0
332603.0 481219.0 0
336654.0 481430.0 0
340759.0 481606.0 0
344755.0 481712.0 0
369471.0 481401.0 0
373466.0 481350.0 0
377461.0 481240.0 0
382102.0 480659.0 0
386073.0 480520.0 0
390037.0 480366.0 0
393992.0 480547.0 0
399726.0 480881.0 0
104281.0 484139.0 0
108304.0 483991.0 0
112299.0 484159.0 0
116294.0 484284.0 0
135346.0 482066.0 0
139334.0 482019.0 0
143312.0 481947.0 0
147272.0 481863.0 0
151254.0 481796.0 0
173671.0 484228.0 0
177742.0 483982.0 0
181724.0 483680.0 0
185721.0 483792.0 0
189740.0 483350.0 0
193705.0 483831.0 0
197670.0 483340.0 0
201630.0 483878.0 0
205656.0 483362.0 0
209628.0 483823.0 0
213636.0 483383.0 0
217608.0 483826.0 0
221636.0 483390.0 0
225610.0 483819.0 0
229686.0 483391.0 0
233660.0 483822.0 0
237815.0 483386.0 0
241783.0 483859.0 0
245999.0 483379.0 0
250000.0 484065.0 0
254001.0 483379.0 0
258217.0 483859.0 0
262185.0 483386.0 0
266340.0 483822.0 0
270314.0 483391.0 0
274390.0 483819.0 0
278364.0 483390.0 0
282392.0 483826.0 0
286364.0 483383.0 0
290372.0 483823.0 0
294344.0 483362.0 0
298370.0 483878.0 0
302330.0 483340.0 0
306295.0 483831.0 0
310260.0 483350.0 0
314279.0 483792.0 0
318276.0 483680.0 0
322258.0 483982.0 0
326329.0 484228.0 0
348746.0 481796.0 0
352728.0 481863.0 0
356688.0 481947.0 0
360666.0 482019.0 0
364654.0 482066.0 0
383706.0 484284.0 0
387701.0 484159.0 0
391696.0 483991.0 0
395719.0 484139.0 0
99586.4 484803.0 0
120278.0 484452.0 0
124471.0 484711.0 0
128517.0 484787.0 0
132514.0 484817.0 0
137332.0 485432.0 0
141327.0 485378.0 0
145315.0 485318.0 0
149301.0 485249.0 0
153295.0 485175.0 0
157292.0 485088.0 0
161407.0 484915.0 0
165526.0 484741.0 0
169622.0 484496.0 0
330378.0 484496.0 0
334474.0 484741.0 0
338593.0 484915.0 0
342708.0 485088.0 0
346705.0 485175.0 0
350699.0 485249.0 0
354685.0 485318.0 0
358673.0 485378.0 0
362668.0 485432.0 0
367486.0 484817.0 0
371483.0 484787.0 0
375529.0 484711.0 0
379722.0 484452.0 0
400414.0 484803.0 0
102258.0 487774.0 0
106250.0 487616.0 0
110237.0 487597.0 0
114217.0 487677.0 0
118204.0 487818.0 0
122194.0 487952.0 0
126458.0 488159.0 0
130513.0 488229.0 0
134533.0 488241.0 0
139329.0 488801.0 0
143328.0 488758.0 0
147327.0 488702.0 0
151326.0 488640.0 0
155322.0 488566.0 0
159309.0 488490.0 0
163290.0 488400.0 0
167270.0 488310.0 0
171233.0 488127.0 0
175182.0 487894.0 0
179119.0 487720.0 0
183047.0 487427.0 0
186970.0 487765.0 0
190868.0 487175.0 0
194780.0 487711.0 0
198700.0 487202.0 0
202622.0 487748.0 0
206554.0 487258.0 0
210493.0 487722.0 0
214440.0 487300.0 0
218389.0 487738.0 0
222341.0 487326.0 0
226295.0 487747.0 0
230251.0 487350.0 0
234207.0 487763.0 0
238164.0 487370.0 0
242119.0 487806.0 0
246071.0 487375.0 0
250000.0 487985.0 0
253929.0 487375.0 0
257881.0 487806.0 0
261836.0 487370.0 0
265793.0 487763.0 0
269749.0 487350.0 0
273705.0 487747.0 0
277659.0 487326.0 0
281611.0 487738.0 0
285560.0 487300.0 0
289507.0 487722.0 0
293446.0 487258.0 0
297378.0 487748.0 0
301300.0 487202.0 0
305220.0 487711.0 0
309132.0 487175.0 0
313030.0 487765.0 0
316953.0 487427.0 0
320881.0 487720.0 0
324818.0 487894.0 0
328767.0 488127.0 0
332730.0 488310.0 0
336710.0 488400.0 0
340691.0 488490.0 0
344678.0 488566.0 0
348674.0 488640.0 0
352673.0 488702.0 0
356672.0 488758.0 0
360671.0 488801.0 0
365467.0 488241.0 0
369487.0 488229.0 0
373542.0 488159.0 0
377806.0 487952.0 0
381796.0 487818.0 0
385783.0 487677.0 0
389763.0 487597.0 0
393750.0 487616.0 0
397742.0 487774.0 0
101412.0 491684.0 0
105400.0 491596.0 0
109378.0 491585.0 0
113345.0 491627.0 0
117301.0 491687.0 0
121255.0 491809.0 0
125208.0 491914.0 0
129174.0 491957.0 0
133152.0 491962.0 0
137136.0 492114.0 0
145335.0 492149.0 0
149345.0 492097.0 0
153359.0 492042.0 0
157357.0 491973.0 0
161353.0 491894.0 0
165346.0 491799.0 0
169453.0 491695.0 0
173685.0 491583.0 0
177924.0 491528.0 0
181925.0 491415.0 0
185918.0 491615.0 0
189932.0 491415.0 0
193926.0 491610.0 0
197921.0 491417.0 0
201912.0 491672.0 0
205936.0 491420.0 0
209927.0 491669.0 0
213941.0 491423.0 0
217930.0 491695.0 0
221947.0 491424.0 0
225936.0 491713.0 0
229956.0 491424.0 0
233943.0 491729.0 0
237976.0 491425.0 0
241961.0 491762.0 0
246000.0 491426.0 0
250000.0 491908.0 0
254000.0 491426.0 0
258039.0 491762.0 0
262024.0 491425.0 0
266057.0 491729.0 0
270044.0 491424.0 0
274064.0 491713.0 0
278053.0 491424.0 0
282070.0 491695.0 0
286059.0 491423.0 0
290073.0 491669.0 0
294064.0 491420.0 0
298088.0 491672.0 0
302079.0 491417.0 0
306074.0 491610.0 0
310068.0 491415.0 0
314082.0 491615.0 0
318075.0 491415.0 0
322076.0 491528.0 0
326315.0 491583.0 0
330547.0 491695.0 0
334654.0 491799.0 0
338647.0 491894.0 0
342643.0 491973.0 0
346641.0 492042.0 0
350655.0 492097.0 0
354665.0 492149.0 0
362864.0 492114.0 0
366848.0 491962.0 0
370826.0 491957.0 0
374792.0 491914.0 0
378745.0 491809.0 0
382699.0 491687.0 0
386655.0 491627.0 0
390622.0 491585.0 0
394600.0 491596.0 0
398588.0 491684.0 0
141320.0 492192.0 0
358680.0 492192.0 0
102030.0 495635.0 0
106029.0 495566.0 0
110029.0 495554.0 0
114028.0 495580.0 0
118057.0 495598.0 0
122117.0 495694.0 0
126190.0 495761.0 0
130253.0 495782.0 0
134309.0 495770.0 0
138419.0 495885.0 0
142444.0 495965.0 0
146431.0 495938.0 0
150407.0 495904.0 0
154376.0 495880.0 0
158343.0 495823.0 0
162310.0 495753.0 0
166280.0 495660.0 0
170249.0 495608.0 0
174222.0 495533.0 0
178199.0 495514.0 0
182178.0 495406.0 0
186157.0 495600.0 0
190139.0 495409.0 0
194124.0 495597.0 0
198110.0 495413.0 0
202095.0 495656.0 0
206082.0 495417.0 0
210070.0 495655.0 0
214059.0 495421.0 0
218047.0 495678.0 0
222036.0 495423.0 0
226026.0 495693.0 0
230016.0 495425.0 0
234015.0 495704.0 0
238005.0 495426.0 0
242012.0 495724.0 0
246001.0 495426.0 0
250000.0 495840.0 0
253999.0 495426.0 0
257988.0 495724.0 0
261995.0 495426.0 0
265985.0 495704.0 0
269984.0 495425.0 0
273974.0 495693.0 0
277964.0 495423.0 0
281953.0 495678.0 0
285941.0 495421.0 0
289930.0 495655.0 0
293918.0 495417.0 0
297905.0 495656.0 0
301890.0 495413.0 0
305876.0 495597.0 0
309861.0 495409.0 0
313843.0 495600.0 0
317822.0 495406.0 0
321801.0 495514.0 0
325778.0 495533.0 0
329751.0 495608.0 0
333720.0 495660.0 0
337690.0 495753.0 0
341657.0 495823.0 0
345624.0 495880.0 0
349593.0 495904.0 0
353569.0 495938.0 0
357556.0 495965.0 0
361581.0 495885.0 0
365691.0 495770.0 0
369747.0 495782.0 0
373810.0 495761.0 0
377883.0 495694.0 0
381943.0 495598.0 0
385972.0 495580.0 0
389971.0 495554.0 0
393971.0 495566.0 0
397970.0 495635.0 0
101952.0 499631.0 0
105950.0 499565.0 0
109948.0 499553.0 0
113943.0 499578.0 0
117938.0 499585.0 0
121930.0 499673.0 0
125921.0 499727.0 0
129913.0 499744.0 0
133904.0 499732.0 0
137893.0 499833.0 0
141883.0 499877.0 0
145878.0 499855.0 0
149876.0 499830.0 0
153888.0 499826.0 0
157891.0 499776.0 0
161899.0 499713.0 0
165922.0 499623.0 0
169950.0 499589.0 0
173975.0 499514.0 0
177993.0 499506.0 0
181992.0 499425.0 0
185989.0 499588.0 0
189995.0 499426.0 0
193992.0 499586.0 0
197996.0 499426.0 0
201990.0 499643.0 0
205998.0 499426.0 0
209993.0 499641.0 0
214000.0 499426.0 0
217993.0 499662.0 0
222000.0 499426.0 0
225995.0 499675.0 0
230000.0 499426.0 0
233996.0 499679.0 0
238000.0 499426.0 0
241998.0 499690.0 0
246000.0 499426.0 0
250000.0 499782.0 0
254000.0 499426.0 0
258002.0 499690.0 0
262000.0 499426.0 0
266004.0 499679.0 0
270000.0 499426.0 0
274005.0 499675.0 0
278000.0 499426.0 0
282007.0 499662.0 0
286000.0 499426.0 0
290007.0 499641.0 0
294002.0 499426.0 0
298010.0 499643.0 0
302004.0 499426.0 0
306008.0 499586.0 0
310005.0 499426.0 0
314011.0 499588.0 0
318008.0 499425.0 0
322007.0 499506.0 0
326025.0 499514.0 0
330050.0 499589.0 0
334078.0 499623.0 0
338101.0 499713.0 0
342109.0 499776.0 0
346112.0 499826.0 0
350124.0 499830.0 0
354122.0 499855.0 0
358117.0 499877.0 0
362107.0 499833.0 0
366096.0 499732.0 0
370087.0 499744.0 0
374079.0 499727.0 0
378070.0 499673.0 0
382062.0 499585.0 0
386057.0 499578.0 0
390052.0 499553.0 0
394050.0 499565.0 0
398048.0 499631.0 0
102002.0 503625.0 0
106002.0 503564.0 0
110002.0 503552.0 0
114002.0 503576.0 0
118004.0 503575.0 0
122007.0 503658.0 0
126010.0 503704.0 0
130014.0 503721.0 0
134018.0 503713.0 0
138033.0 503811.0 0
142038.0 503834.0 0
146037.0 503814.0 0
150036.0 503794.0 0
154034.0 503802.0 0
158031.0 503753.0 0
162028.0 503694.0 0
166025.0 503605.0 0
170023.0 503579.0 0
174020.0 503503.0 0
178019.0 503503.0 0
182017.0 503425.0 0
186013.0 503579.0 0
190009.0 503425.0 0
194006.0 503578.0 0
198003.0 503426.0 0
202001.0 503631.0 0
206000.0 503426.0 0
210001.0 503629.0 0
214000.0 503426.0 0
218001.0 503647.0 0
222000.0 503426.0 0
226001.0 503656.0 0
230000.0 503426.0 0
234001.0 503655.0 0
238000.0 503426.0 0
242000.0 503658.0 0
246000.0 503426.0 0
250000.0 503731.0 0
254000.0 503426.0 0
258000.0 503658.0 0
262000.0 503426.0 0
265999.0 503655.0 0
270000.0 503426.0 0
273999.0 503656.0 0
278000.0 503426.0 0
281999.0 503647.0 0
286000.0 503426.0 0
289999.0 503629.0 0
294000.0 503426.0 0
297999.0 503631.0 0
301997.0 503426.0 0
305994.0 503578.0 0
309991.0 503425.0 0
313987.0 503579.0 0
317983.0 503425.0 0
321981.0 503503.0 0
325980.0 503503.0 0
329977.0 503579.0 0
333975.0 503605.0 0
337972.0 503694.0 0
341969.0 503753.0 0
345966.0 503802.0 0
349964.0 503794.0 0
353963.0 503814.0 0
357962.0 503834.0 0
361967.0 503811.0 0
365982.0 503713.0 0
369986.0 503721.0 0
373990.0 503704.0 0
377993.0 503658.0 0
381996.0 503575.0 0
385998.0 503576.0 0
389998.0 503552.0 0
393998.0 503564.0 0
397998.0 503625.0 0
101998.0 507618.0 0
105997.0 507563.0 0
109997.0 507551.0 0
113997.0 507574.0 0
117997.0 507568.0 0
121995.0 507645.0 0
125995.0 507686.0 0
129994.0 507702.0 0
133993.0 507695.0 0
137992.0 507791.0 0
141991.0 507800.0 0
145990.0 507781.0 0
149990.0 507766.0 0
153990.0 507782.0 0
157990.0 507734.0 0
161990.0 507678.0 0
165995.0 507591.0 0
169997.0 507571.0 0
173999.0 507494.0 0
177999.0 507502.0 0
182000.0 507426.0 0
185999.0 507570.0 0
190000.0 507426.0 0
194000.0 507570.0 0
198000.0 507426.0 0
202000.0 507619.0 0
206000.0 507426.0 0
210000.0 507616.0 0
214000.0 507426.0 0
218000.0 507632.0 0
222000.0 507426.0 0
226000.0 507638.0 0
230000.0 507426.0 0
234000.0 507632.0 0
238000.0 507426.0 0
242000.0 507630.0 0
246000.0 507426.0 0
250000.0 507686.0 0
254000.0 507426.0 0
258000.0 507630.0 0
262000.0 507426.0 0
266000.0 507632.0 0
270000.0 507426.0 0
274000.0 507638.0 0
278000.0 507426.0 0
282000.0 507632.0 0
286000.0 507426.0 0
290000.0 507616.0 0
294000.0 507426.0 0
298000.0 507619.0 0
302000.0 507426.0 0
306000.0 507570.0 0
310000.0 507426.0 0
314001.0 507570.0 0
318000.0 507426.0 0
322001.0 507502.0 0
326001.0 507494.0 0
330003.0 507571.0 0
334005.0 507591.0 0
338010.0 507678.0 0
342010.0 507734.0 0
346010.0 507782.0 0
350010.0 507766.0 0
354010.0 507781.0 0
358009.0 507800.0 0
362008.0 507791.0 0
366007.0 507695.0 0
370006.0 507702.0 0
374005.0 507686.0 0
378005.0 507645.0 0
382003.0 507568.0 0
386003.0 507574.0 0
390003.0 507551.0 0
394003.0 507563.0 0
398002.0 507618.0 0
102000.0 511611.0 0
106000.0 511562.0 0
110000.0 511550.0 0
114000.0 511572.0 0
118000.0 511562.0 0
122000.0 511634.0 0
126000.0 511670.0 0
130001.0 511685.0 0
134001.0 511678.0 0
138002.0 511773.0 0
142003.0 511770.0 0
146003.0 511753.0 0
150004.0 511740.0 0
154004.0 511763.0 0
158003.0 511716.0 0
162003.0 511663.0 0
166002.0 511579.0 0
170002.0 511562.0 0
174001.0 511486.0 0
178001.0 511500.0 0
182000.0 511426.0 0
186000.0 511562.0 0
190000.0 511426.0 0
194000.0 511563.0 0
198000.0 511426.0 0
202000.0 511607.0 0
206000.0 511426.0 0
210000.0 511604.0 0
214000.0 511426.0 0
218000.0 511617.0 0
222000.0 511426.0 0
226000.0 511620.0 0
230000.0 511426.0 0
234000.0 511610.0 0
238000.0 511426.0 0
242000.0 511605.0 0
246000.0 511426.0 0
250000.0 511648.0 0
254000.0 511426.0 0
258000.0 511605.0 0
262000.0 511426.0 0
266000.0 511610.0 0
270000.0 511426.0 0
274000.0 511620.0 0
278000.0 511426.0 0
282000.0 511617.0 0
286000.0 511426.0 0
290000.0 511604.0 0
294000.0 511426.0 0
298000.0 511607.0 0
302000.0 511426.0 0
306000.0 511563.0 0
310000.0 511426.0 0
314000.0 511562.0 0
318000.0 511426.0 0
321999.0 511500.0 0
325999.0 511486.0 0
329998.0 511562.0 0
333998.0 511579.0 0
337997.0 511663.0 0
341997.0 511716.0 0
345996.0 511763.0 0
349996.0 511740.0 0
353997.0 511753.0 0
357997.0 511770.0 0
361998.0 511773.0 0
365999.0 511678.0 0
369999.0 511685.0 0
374000.0 511670.0 0
378000.0 511634.0 0
382000.0 511562.0 0
386000.0 511572.0 0
390000.0 511550.0 0
394000.0 511562.0 0
398000.0 511611.0 0
102000.0 515603.0 0
106000.0 515560.0 0
110000.0 515548.0 0
114000.0 515568.0 0
118000.0 515557.0 0
122000.0 515624.0 0
166000.0 515569.0 0
170000.0 515553.0 0
174000.0 515480.0 0
178000.0 515498.0 0
182000.0 515426.0 0
186000.0 515554.0 0
190000.0 515426.0 0
194000.0 515555.0 0
198000.0 515426.0 0
202000.0 515595.0 0
206000.0 515426.0 0
210000.0 515592.0 0
214000.0 515426.0 0
218000.0 515603.0 0
222000.0 515426.0 0
226000.0 515603.0 0
230000.0 515426.0 0
234000.0 515590.0 0
238000.0 515426.0 0
242000.0 515582.0 0
246000.0 515426.0 0
250000.0 515615.0 0
254000.0 515426.0 0
258000.0 515582.0 0
262000.0 515426.0 0
266000.0 515590.0 0
270000.0 515426.0 0
274000.0 515603.0 0
278000.0 515426.0 0
282000.0 515603.0 0
286000.0 515426.0 0
290000.0 515592.0 0
294000.0 515426.0 0
298000.0 515595.0 0
302000.0 515426.0 0
306000.0 515555.0 0
310000.0 515426.0 0
314000.0 515554.0 0
318000.0 515426.0 0
322000.0 515498.0 0
326000.0 515480.0 0
330000.0 515553.0 0
334000.0 515569.0 0
378000.0 515624.0 0
382000.0 515557.0 0
386000.0 515568.0 0
390000.0 515548.0 0
394000.0 515560.0 0
398000.0 515603.0 0
126000.0 515656.0 0
130000.0 515670.0 0
134000.0 515662.0 0
137999.0 515754.0 0
141999.0 515746.0 0
145999.0 515728.0 0
149999.0 515718.0 0
153999.0 515745.0 0
157999.0 515698.0 0
161999.0 515649.0 0
338001.0 515649.0 0
342001.0 515698.0 0
346001.0 515745.0 0
350001.0 515718.0 0
354001.0 515728.0 0
358001.0 515746.0 0
362001.0 515754.0 0
366000.0 515662.0 0
370000.0 515670.0 0
374000.0 515656.0 0
102000.0 519596.0 0
106000.0 519558.0 0
110000.0 519546.0 0
114000.0 519565.0 0
118000.0 519551.0 0
122000.0 519615.0 0
126000.0 519645.0 0
130000.0 519656.0 0
134000.0 519648.0 0
138000.0 519737.0 0
142000.0 519726.0 0
146000.0 519707.0 0
150000.0 519698.0 0
154000.0 519727.0 0
158000.0 519681.0 0
162000.0 519636.0 0
166000.0 519559.0 0
170000.0 519545.0 0
174000.0 519474.0 0
178000.0 519495.0 0
182000.0 519426.0 0
186000.0 519546.0 0
190000.0 519426.0 0
194000.0 519548.0 0
198000.0 519426.0 0
202000.0 519584.0 0
206000.0 519426.0 0
210000.0 519580.0 0
214000.0 519426.0 0
218000.0 519589.0 0
222000.0 519426.0 0
226000.0 519587.0 0
230000.0 519426.0 0
234000.0 519571.0 0
238000.0 519426.0 0
242000.0 519562.0 0
246000.0 519426.0 0
250000.0 519587.0 0
254000.0 519426.0 0
258000.0 519562.0 0
262000.0 519426.0 0
266000.0 519571.0 0
270000.0 519426.0 0
274000.0 519587.0 0
278000.0 519426.0 0
282000.0 519589.0 0
286000.0 519426.0 0
290000.0 519580.0 0
294000.0 519426.0 0
298000.0 519584.0 0
302000.0 519426.0 0
306000.0 519548.0 0
310000.0 519426.0 0
314000.0 519546.0 0
318000.0 519426.0 0
322000.0 519495.0 0
326000.0 519474.0 0
330000.0 519545.0 0
334000.0 519559.0 0
338000.0 519636.0 0
342000.0 519681.0 0
346000.0 519727.0 0
350000.0 519698.0 0
354000.0 519707.0 0
358000.0 519726.0 0
362000.0 519737.0 0
366000.0 519648.0 0
370000.0 519656.0 0
374000.0 519645.0 0
378000.0 519615.0 0
382000.0 519551.0 0
386000.0 519565.0 0
390000.0 519546.0 0
394000.0 519558.0 0
398000.0 519596.0 0
182000.0 523426.0 0
190000.0 523426.0 0
198000.0 523426.0 0
206000.0 523426.0 0
214000.0 523426.0 0
222000.0 523426.0 0
230000.0 523426.0 0
238000.0 523426.0 0
246000.0 523426.0 0
254000.0 523426.0 0
262000.0 523426.0 0
270000.0 523426.0 0
278000.0 523426.0 0
286000.0 523426.0 0
294000.0 523426.0 0
302000.0 523426.0 0
310000.0 523426.0 0
318000.0 523426.0 0
102000.0 523588.0 0
106000.0 523556.0 0
110000.0 523544.0 0
114000.0 523561.0 0
118000.0 523546.0 0
122000.0 523607.0 0
126000.0 523634.0 0
130000.0 523645.0 0
134000.0 523635.0 0
138000.0 523721.0 0
142000.0 523707.0 0
146000.0 523688.0 0
150000.0 523680.0 0
154000.0 523709.0 0
158000.0 523664.0 0
162000.0 523623.0 0
166000.0 523550.0 0
170000.0 523537.0 0
174000.0 523469.0 0
178000.0 523493.0 0
186000.0 523539.0 0
194000.0 523541.0 0
202000.0 523573.0 0
210000.0 523569.0 0
218000.0 523575.0 0
226000.0 523572.0 0
234000.0 523554.0 0
242000.0 523544.0 0
250000.0 523563.0 0
258000.0 523544.0 0
266000.0 523554.0 0
274000.0 523572.0 0
282000.0 523575.0 0
290000.0 523569.0 0
298000.0 523573.0 0
306000.0 523541.0 0
314000.0 523539.0 0
322000.0 523493.0 0
326000.0 523469.0 0
330000.0 523537.0 0
334000.0 523550.0 0
338000.0 523623.0 0
342000.0 523664.0 0
346000.0 523709.0 0
350000.0 523680.0 0
354000.0 523688.0 0
358000.0 523707.0 0
362000.0 523721.0 0
366000.0 523635.0 0
370000.0 523645.0 0
374000.0 523634.0 0
378000.0 523607.0 0
382000.0 523546.0 0
386000.0 523561.0 0
390000.0 523544.0 0
394000.0 523556.0 0
398000.0 523588.0 0
102000.0 527581.0 0
106000.0 527554.0 0
110000.0 527541.0 0
114000.0 527556.0 0
118000.0 527541.0 0
122000.0 527600.0 0
126000.0 527625.0 0
130000.0 527635.0 0
134000.0 527623.0 0
138000.0 527706.0 0
142000.0 527690.0 0
146000.0 527670.0 0
150000.0 527663.0 0
154000.0 527691.0 0
158000.0 527647.0 0
162000.0 527610.0 0
166000.0 527541.0 0
170000.0 527529.0 0
174000.0 527464.0 0
178000.0 527490.0 0
182000.0 527426.0 0
186000.0 527532.0 0
190000.0 527426.0 0
194000.0 527534.0 0
198000.0 527426.0 0
202000.0 527562.0 0
206000.0 527426.0 0
210000.0 527558.0 0
214000.0 527426.0 0
218000.0 527562.0 0
222000.0 527426.0 0
226000.0 527557.0 0
230000.0 527426.0 0
234000.0 527538.0 0
238000.0 527426.0 0
242000.0 527528.0 0
246000.0 527426.0 0
250000.0 527542.0 0
254000.0 527426.0 0
258000.0 527528.0 0
262000.0 527426.0 0
266000.0 527538.0 0
270000.0 527426.0 0
274000.0 527557.0 0
278000.0 527426.0 0
282000.0 527562.0 0
286000.0 527426.0 0
290000.0 527558.0 0
294000.0 527426.0 0
298000.0 527562.0 0
302000.0 527426.0 0
306000.0 527534.0 0
310000.0 527426.0 0
314000.0 527532.0 0
318000.0 527426.0 0
322000.0 527490.0 0
326000.0 527464.0 0
330000.0 527529.0 0
334000.0 527541.0 0
338000.0 527610.0 0
342000.0 527647.0 0
346000.0 527691.0 0
350000.0 527663.0 0
354000.0 527670.0 0
358000.0 527690.0 0
362000.0 527706.0 0
366000.0 527623.0 0
370000.0 527635.0 0
374000.0 527625.0 0
378000.0 527600.0 0
382000.0 527541.0 0
386000.0 527556.0 0
390000.0 527541.0 0
394000.0 527554.0 0
398000.0 527581.0 0
102000.0 531575.0 0
106000.0 531552.0 0
110000.0 531539.0 0
114000.0 531552.0 0
118000.0 531536.0 0
122000.0 531593.0 0
126000.0 531617.0 0
130000.0 531626.0 0
134000.0 531613.0 0
138000.0 531692.0 0
142000.0 531674.0 0
146000.0 531655.0 0
150000.0 531648.0 0
154000.0 531674.0 0
158000.0 531630.0 0
162000.0 531598.0 0
166000.0 531532.0 0
170000.0 531522.0 0
174000.0 531460.0 0
178000.0 531488.0 0
182000.0 531426.0 0
186000.0 531526.0 0
190000.0 531426.0 0
194000.0 531527.0 0
198000.0 531426.0 0
202000.0 531552.0 0
206000.0 531426.0 0
210000.0 531548.0 0
214000.0 531426.0 0
218000.0 531550.0 0
222000.0 531426.0 0
226000.0 531544.0 0
230000.0 531426.0 0
234000.0 531524.0 0
238000.0 531426.0 0
242000.0 531514.0 0
246000.0 531426.0 0
250000.0 531524.0 0
254000.0 531426.0 0
258000.0 531514.0 0
262000.0 531426.0 0
266000.0 531524.0 0
270000.0 531426.0 0
274000.0 531544.0 0
278000.0 531426.0 0
282000.0 531550.0 0
286000.0 531426.0 0
290000.0 531548.0 0
294000.0 531426.0 0
298000.0 531552.0 0
302000.0 531426.0 0
306000.0 531527.0 0
310000.0 531426.0 0
314000.0 531526.0 0
318000.0 531426.0 0
322000.0 531488.0 0
326000.0 531460.0 0
330000.0 531522.0 0
334000.0 531532.0 0
338000.0 531598.0 0
342000.0 531630.0 0
346000.0 531674.0 0
350000.0 531648.0 0
354000.0 531655.0 0
358000.0 531674.0 0
362000.0 531692.0 0
366000.0 531613.0 0
370000.0 531626.0 0
374000.0 531617.0 0
378000.0 531593.0 0
382000.0 531536.0 0
386000.0 531552.0 0
390000.0 531539.0 0
394000.0 531552.0 0
398000.0 531575.0 0
102000.0 535569.0 0
106000.0 535550.0 0
110000.0 535536.0 0
114000.0 535548.0 0
118000.0 535531.0 0
122000.0 535586.0 0
126000.0 535610.0 0
130000.0 535618.0 0
134000.0 535603.0 0
138000.0 535679.0 0
142000.0 535659.0 0
146000.0 535641.0 0
150000.0 535633.0 0
154000.0 535657.0 0
158000.0 535614.0 0
162000.0 535585.0 0
166000.0 535524.0 0
170000.0 535515.0 0
174000.0 535457.0 0
178000.0 535485.0 0
182000.0 535426.0 0
186000.0 535519.0 0
190000.0 535426.0 0
194000.0 535521.0 0
198000.0 535426.0 0
202000.0 535543.0 0
206000.0 535426.0 0
210000.0 535538.0 0
214000.0 535426.0 0
218000.0 535539.0 0
222000.0 535426.0 0
226000.0 535531.0 0
230000.0 535426.0 0
234000.0 535511.0 0
238000.0 535426.0 0
242000.0 535502.0 0
246000.0 535426.0 0
250000.0 535509.0 0
254000.0 535426.0 0
258000.0 535502.0 0
262000.0 535426.0 0
266000.0 535511.0 0
270000.0 535426.0 0
274000.0 535531.0 0
278000.0 535426.0 0
282000.0 535539.0 0
286000.0 535426.0 0
290000.0 535538.0 0
294000.0 535426.0 0
298000.0 535543.0 0
302000.0 535426.0 0
306000.0 535521.0 0
310000.0 535426.0 0
314000.0 535519.0 0
318000.0 535426.0 0
322000.0 535485.0 0
326000.0 535457.0 0
330000.0 535515.0 0
334000.0 535524.0 0
338000.0 535585.0 0
342000.0 535614.0 0
346000.0 535657.0 0
350000.0 535633.0 0
354000.0 535641.0 0
358000.0 535659.0 0
362000.0 535679.0 0
366000.0 535603.0 0
370000.0 535618.0 0
374000.0 535610.0 0
378000.0 535586.0 0
382000.0 535531.0 0
386000.0 535548.0 0
390000.0 535536.0 0
394000.0 535550.0 0
398000.0 535569.0 0
102000.0 539564.0 0
106000.0 539547.0 0
110000.0 539533.0 0
114000.0 539543.0 0
118000.0 539526.0 0
122000.0 539580.0 0
126000.0 539603.0 0
130000.0 539611.0 0
134000.0 539595.0 0
138000.0 539667.0 0
142000.0 539645.0 0
146000.0 539628.0 0
150000.0 539619.0 0
154000.0 539640.0 0
158000.0 539599.0 0
162000.0 539573.0 0
166000.0 539515.0 0
170000.0 539508.0 0
174000.0 539453.0 0
178000.0 539482.0 0
182000.0 539426.0 0
186000.0 539513.0 0
190000.0 539426.0 0
194000.0 539515.0 0
198000.0 539426.0 0
202000.0 539534.0 0
206000.0 539426.0 0
210000.0 539529.0 0
214000.0 539426.0 0
218000.0 539528.0 0
222000.0 539426.0 0
226000.0 539520.0 0
230000.0 539426.0 0
234000.0 539499.0 0
238000.0 539426.0 0
242000.0 539491.0 0
246000.0 539426.0 0
250000.0 539496.0 0
254000.0 539426.0 0
258000.0 539491.0 0
262000.0 539426.0 0
266000.0 539499.0 0
270000.0 539426.0 0
274000.0 539520.0 0
278000.0 539426.0 0
282000.0 539528.0 0
286000.0 539426.0 0
290000.0 539529.0 0
294000.0 539426.0 0
298000.0 539534.0 0
302000.0 539426.0 0
306000.0 539515.0 0
310000.0 539426.0 0
314000.0 539513.0 0
318000.0 539426.0 0
322000.0 539482.0 0
326000.0 539453.0 0
330000.0 539508.0 0
334000.0 539515.0 0
338000.0 539573.0 0
342000.0 539599.0 0
346000.0 539640.0 0
350000.0 539619.0 0
354000.0 539628.0 0
358000.0 539645.0 0
362000.0 539667.0 0
366000.0 539595.0 0
370000.0 539611.0 0
374000.0 539603.0 0
378000.0 539580.0 0
382000.0 539526.0 0
386000.0 539543.0 0
390000.0 539533.0 0
394000.0 539547.0 0
398000.0 539564.0 0
102000.0 543560.0 0
106000.0 543545.0 0
110000.0 543531.0 0
114000.0 543539.0 0
118000.0 543521.0 0
122000.0 543574.0 0
126000.0 543596.0 0
130000.0 543604.0 0
134000.0 543587.0 0
138000.0 543656.0 0
142000.0 543632.0 0
146000.0 543615.0 0
150000.0 543606.0 0
154000.0 543624.0 0
158000.0 543584.0 0
162000.0 543562.0 0
166000.0 543507.0 0
170000.0 543502.0 0
174000.0 543451.0 0
178000.0 543480.0 0
182000.0 543426.0 0
186000.0 543508.0 0
190000.0 543426.0 0
194000.0 543509.0 0
198000.0 543426.0 0
202000.0 543525.0 0
206000.0 543426.0 0
210000.0 543520.0 0
214000.0 543426.0 0
218000.0 543519.0 0
222000.0 543426.0 0
226000.0 543509.0 0
230000.0 543426.0 0
234000.0 543489.0 0
238000.0 543426.0 0
242000.0 543482.0 0
246000.0 543426.0 0
250000.0 543485.0 0
254000.0 543426.0 0
258000.0 543482.0 0
262000.0 543426.0 0
266000.0 543489.0 0
270000.0 543426.0 0
274000.0 543509.0 0
278000.0 543426.0 0
282000.0 543519.0 0
286000.0 543426.0 0
290000.0 543520.0 0
294000.0 543426.0 0
298000.0 543525.0 0
302000.0 543426.0 0
306000.0 543509.0 0
310000.0 543426.0 0
314000.0 543508.0 0
318000.0 543426.0 0
322000.0 543480.0 0
326000.0 543451.0 0
330000.0 543502.0 0
334000.0 543507.0 0
338000.0 543562.0 0
342000.0 543584.0 0
346000.0 543624.0 0
350000.0 543606.0 0
354000.0 543615.0 0
358000.0 543632.0 0
362000.0 543656.0 0
366000.0 543587.0 0
370000.0 543604.0 0
374000.0 543596.0 0
378000.0 543574.0 0
382000.0 543521.0 0
386000.0 543539.0 0
390000.0 543531.0 0
394000.0 543545.0 0
398000.0 543560.0 0
102000.0 547556.0 0
106000.0 547542.0 0
110000.0 547528.0 0
114000.0 547534.0 0
118000.0 547516.0 0
122000.0 547568.0 0
126000.0 547589.0 0
130000.0 547598.0 0
134000.0 547580.0 0
138000.0 547646.0 0
142000.0 547620.0 0
146000.0 547604.0 0
150000.0 547594.0 0
154000.0 547609.0 0
158000.0 547569.0 0
162000.0 547551.0 0
166000.0 547499.0 0
170000.0 547496.0 0
174000.0 547448.0 0
178000.0 547477.0 0
182000.0 547426.0 0
186000.0 547502.0 0
190000.0 547426.0 0
194000.0 547503.0 0
198000.0 547426.0 0
202000.0 547517.0 0
206000.0 547426.0 0
210000.0 547512.0 0
214000.0 547426.0 0
218000.0 547509.0 0
222000.0 547426.0 0
226000.0 547499.0 0
230000.0 547426.0 0
234000.0 547480.0 0
238000.0 547426.0 0
242000.0 547474.0 0
246000.0 547426.0 0
250000.0 547476.0 0
254000.0 547426.0 0
258000.0 547474.0 0
262000.0 547426.0 0
266000.0 547480.0 0
270000.0 547426.0 0
274000.0 547499.0 0
278000.0 547426.0 0
282000.0 547509.0 0
286000.0 547426.0 0
290000.0 547512.0 0
294000.0 547426.0 0
298000.0 547517.0 0
302000.0 547426.0 0
306000.0 547503.0 0
310000.0 547426.0 0
314000.0 547502.0 0
318000.0 547426.0 0
322000.0 547477.0 0
326000.0 547448.0 0
330000.0 547496.0 0
334000.0 547499.0 0
338000.0 547551.0 0
342000.0 547569.0 0
346000.0 547609.0 0
350000.0 547594.0 0
354000.0 547604.0 0
358000.0 547620.0 0
362000.0 547646.0 0
366000.0 547580.0 0
370000.0 547598.0 0
374000.0 547589.0 0
378000.0 547568.0 0
382000.0 547516.0 0
386000.0 547534.0 0
390000.0 547528.0 0
394000.0 547542.0 0
398000.0 547556.0 0
102000.0 551552.0 0
106000.0 551540.0 0
110000.0 551526.0 0
114000.0 551530.0 0
118000.0 551512.0 0
122000.0 551562.0 0
126000.0 551583.0 0
130000.0 551592.0 0
134000.0 551574.0 0
138000.0 551636.0 0
142000.0 551608.0 0
146000.0 551593.0 0
150000.0 551582.0 0
154000.0 551594.0 0
158000.0 551556.0 0
162000.0 551541.0 0
166000.0 551492.0 0
170000.0 551491.0 0
174000.0 551445.0 0
178000.0 551475.0 0
182000.0 551426.0 0
186000.0 551497.0 0
190000.0 551426.0 0
194000.0 551498.0 0
198000.0 551426.0 0
202000.0 551510.0 0
206000.0 551426.0 0
210000.0 551504.0 0
214000.0 551426.0 0
218000.0 551501.0 0
222000.0 551426.0 0
226000.0 551490.0 0
230000.0 551426.0 0
234000.0 551472.0 0
238000.0 551426.0 0
242000.0 551467.0 0
246000.0 551426.0 0
250000.0 551468.0 0
254000.0 551426.0 0
258000.0 551467.0 0
262000.0 551426.0 0
266000.0 551472.0 0
270000.0 551426.0 0
274000.0 551490.0 0
278000.0 551426.0 0
282000.0 551501.0 0
286000.0 551426.0 0
290000.0 551504.0 0
294000.0 551426.0 0
298000.0 551510.0 0
302000.0 551426.0 0
306000.0 551498.0 0
310000.0 551426.0 0
314000.0 551497.0 0
318000.0 551426.0 0
322000.0 551475.0 0
326000.0 551445.0 0
330000.0 551491.0 0
334000.0 551492.0 0
338000.0 551541.0 0
342000.0 551556.0 0
346000.0 551594.0 0
350000.0 551582.0 0
354000.0 551593.0 0
358000.0 551608.0 0
362000.0 551636.0 0
366000.0 551574.0 0
370000.0 551592.0 0
374000.0 551583.0 0
378000.0 551562.0 0
382000.0 551512.0 0
386000.0 551530.0 0
390000.0 551526.0 0
394000.0 551540.0 0
398000.0 551552.0 0
102000.0 555548.0 0
106000.0 555538.0 0
110000.0 555523.0 0
114000.0 555526.0 0
118000.0 555507.0 0
122000.0 555557.0 0
126000.0 555577.0 0
130000.0 555587.0 0
134000.0 555568.0 0
138000.0 555627.0 0
142000.0 555598.0 0
146000.0 555584.0 0
150000.0 555571.0 0
154000.0 555581.0 0
158000.0 555543.0 0
162000.0 555531.0 0
166000.0 555485.0 0
170000.0 555486.0 0
174000.0 555443.0 0
178000.0 555472.0 0
182000.0 555426.0 0
186000.0 555492.0 0
190000.0 555426.0 0
194000.0 555493.0 0
198000.0 555426.0 0
202000.0 555503.0 0
206000.0 555426.0 0
210000.0 555497.0 0
214000.0 555426.0 0
218000.0 555493.0 0
222000.0 555426.0 0
226000.0 555482.0 0
230000.0 555426.0 0
234000.0 555466.0 0
238000.0 555426.0 0
242000.0 555460.0 0
246000.0 555426.0 0
250000.0 555461.0 0
254000.0 555426.0 0
258000.0 555460.0 0
262000.0 555426.0 0
266000.0 555466.0 0
270000.0 555426.0 0
274000.0 555482.0 0
278000.0 555426.0 0
282000.0 555493.0 0
286000.0 555426.0 0
290000.0 555497.0 0
294000.0 555426.0 0
298000.0 555503.0 0
302000.0 555426.0 0
306000.0 555493.0 0
310000.0 555426.0 0
314000.0 555492.0 0
318000.0 555426.0 0
322000.0 555472.0 0
326000.0 555443.0 0
330000.0 555486.0 0
334000.0 555485.0 0
338000.0 555531.0 0
342000.0 555543.0 0
346000.0 555581.0 0
350000.0 555571.0 0
354000.0 555584.0 0
358000.0 555598.0 0
362000.0 555627.0 0
366000.0 555568.0 0
370000.0 555587.0 0
374000.0 555577.0 0
378000.0 555557.0 0
382000.0 555507.0 0
386000.0 555526.0 0
390000.0 555523.0 0
394000.0 555538.0 0
398000.0 555548.0 0
102000.0 559545.0 0
106000.0 559535.0 0
110000.0 559521.0 0
114000.0 559522.0 0
118000.0 559503.0 0
122000.0 559552.0 0
126000.0 559571.0 0
130000.0 559582.0 0
134000.0 559562.0 0
138000.0 559618.0 0
142000.0 559588.0 0
146000.0 559574.0 0
150000.0 559560.0 0
154000.0 559568.0 0
158000.0 559532.0 0
162000.0 559522.0 0
166000.0 559479.0 0
170000.0 559481.0 0
174000.0 559441.0 0
178000.0 559470.0 0
182000.0 559426.0 0
186000.0 559487.0 0
190000.0 559426.0 0
194000.0 559488.0 0
198000.0 559426.0 0
202000.0 559496.0 0
206000.0 559426.0 0
210000.0 559490.0 0
214000.0 559426.0 0
218000.0 559486.0 0
222000.0 559426.0 0
226000.0 559475.0 0
230000.0 559426.0 0
234000.0 559460.0 0
238000.0 559426.0 0
242000.0 559455.0 0
246000.0 559426.0 0
250000.0 559456.0 0
254000.0 559426.0 0
258000.0 559455.0 0
262000.0 559426.0 0
266000.0 559460.0 0
270000.0 559426.0 0
274000.0 559475.0 0
278000.0 559426.0 0
282000.0 559486.0 0
286000.0 559426.0 0
290000.0 559490.0 0
294000.0 559426.0 0
298000.0 559496.0 0
302000.0 559426.0 0
306000.0 559488.0 0
310000.0 559426.0 0
314000.0 559487.0 0
318000.0 559426.0 0
322000.0 559470.0 0
326000.0 559441.0 0
330000.0 559481.0 0
334000.0 559479.0 0
338000.0 559522.0 0
342000.0 559532.0 0
346000.0 559568.0 0
350000.0 559560.0 0
354000.0 559574.0 0
358000.0 559588.0 0
362000.0 559618.0 0
366000.0 559562.0 0
370000.0 559582.0 0
374000.0 559571.0 0
378000.0 559552.0 0
382000.0 559503.0 0
386000.0 559522.0 0
390000.0 559521.0 0
394000.0 559535.0 0
398000.0 559545.0 0
102000.0 563542.0 0
106000.0 563533.0 0
110000.0 563519.0 0
114000.0 563518.0 0
118000.0 563499.0 0
122000.0 563547.0 0
126000.0 563566.0 0
130000.0 563577.0 0
134000.0 563557.0 0
138000.0 563610.0 0
142000.0 563578.0 0
146000.0 563566.0 0
150000.0 563550.0 0
154000.0 563557.0 0
158000.0 563521.0 0
162000.0 563514.0 0
166000.0 563473.0 0
170000.0 563477.0 0
174000.0 563439.0 0
178000.0 563467.0 0
182000.0 563426.0 0
186000.0 563483.0 0
190000.0 563426.0 0
194000.0 563484.0 0
198000.0 563426.0 0
202000.0 563490.0 0
206000.0 563426.0 0
210000.0 563484.0 0
214000.0 563426.0 0
218000.0 563479.0 0
222000.0 563426.0 0
226000.0 563469.0 0
230000.0 563426.0 0
234000.0 563454.0 0
238000.0 563426.0 0
242000.0 563451.0 0
246000.0 563426.0 0
250000.0 563451.0 0
254000.0 563426.0 0
258000.0 563451.0 0
262000.0 563426.0 0
266000.0 563454.0 0
270000.0 563426.0 0
274000.0 563469.0 0
278000.0 563426.0 0
282000.0 563479.0 0
286000.0 563426.0 0
290000.0 563484.0 0
294000.0 563426.0 0
298000.0 563490.0 0
302000.0 563426.0 0
306000.0 563484.0 0
310000.0 563426.0 0
314000.0 563483.0 0
318000.0 563426.0 0
322000.0 563467.0 0
326000.0 563439.0 0
330000.0 563477.0 0
334000.0 563473.0 0
338000.0 563514.0 0
342000.0 563521.0 0
346000.0 563557.0 0
350000.0 563550.0 0
354000.0 563566.0 0
358000.0 563578.0 0
362000.0 563610.0 0
366000.0 563557.0 0
370000.0 563577.0 0
374000.0 563566.0 0
378000.0 563547.0 0
382000.0 563499.0 0
386000.0 563518.0 0
390000.0 563519.0 0
394000.0 563533.0 0
398000.0 563542.0 0
102000.0 567540.0 0
106000.0 567531.0 0
110000.0 567517.0 0
114000.0 567515.0 0
118000.0 567495.0 0
122000.0 567542.0 0
126000.0 567560.0 0
130000.0 567572.0 0
134000.0 567552.0 0
138000.0 567602.0 0
142000.0 567570.0 0
146000.0 567558.0 0
150000.0 567541.0 0
154000.0 567546.0 0
158000.0 567512.0 0
162000.0 567507.0 0
166000.0 567467.0 0
170000.0 567473.0 0
174000.0 567438.0 0
178000.0 567465.0 0
182000.0 567426.0 0
186000.0 567479.0 0
190000.0 567426.0 0
194000.0 567479.0 0
198000.0 567426.0 0
202000.0 567485.0 0
206000.0 567426.0 0
210000.0 567479.0 0
214000.0 567426.0 0
218000.0 567473.0 0
222000.0 567426.0 0
226000.0 567463.0 0
230000.0 567426.0 0
234000.0 567450.0 0
238000.0 567426.0 0
242000.0 567447.0 0
246000.0 567426.0 0
250000.0 567447.0 0
254000.0 567426.0 0
258000.0 567447.0 0
262000.0 567426.0 0
266000.0 567450.0 0
270000.0 567426.0 0
274000.0 567463.0 0
278000.0 567426.0 0
282000.0 567473.0 0
286000.0 567426.0 0
290000.0 567479.0 0
294000.0 567426.0 0
298000.0 567485.0 0
302000.0 567426.0 0
306000.0 567479.0 0
310000.0 567426.0 0
314000.0 567479.0 0
318000.0 567426.0 0
322000.0 567465.0 0
326000.0 567438.0 0
330000.0 567473.0 0
334000.0 567467.0 0
338000.0 567507.0 0
342000.0 567512.0 0
346000.0 567546.0 0
350000.0 567541.0 0
354000.0 567558.0 0
358000.0 567570.0 0
362000.0 567602.0 0
366000.0 567552.0 0
370000.0 567572.0 0
374000.0 567560.0 0
378000.0 567542.0 0
382000.0 567495.0 0
386000.0 567515.0 0
390000.0 567517.0 0
394000.0 567531.0 0
398000.0 567540.0 0
102000.0 571537.0 0
106000.0 571529.0 0
110000.0 571515.0 0
114000.0 571512.0 0
118000.0 571492.0 0
122000.0 571538.0 0
126000.0 571555.0 0
130000.0 571568.0 0
134000.0 571547.0 0
138000.0 571595.0 0
142000.0 571562.0 0
146000.0 571551.0 0
150000.0 571532.0 0
154000.0 571536.0 0
158000.0 571503.0 0
162000.0 571500.0 0
166000.0 571463.0 0
170000.0 571469.0 0
174000.0 571436.0 0
178000.0 571463.0 0
182000.0 571426.0 0
186000.0 571476.0 0
190000.0 571426.0 0
194000.0 571476.0 0
198000.0 571426.0 0
202000.0 571480.0 0
206000.0 571426.0 0
210000.0 571474.0 0
214000.0 571426.0 0
218000.0 571468.0 0
222000.0 571426.0 0
226000.0 571458.0 0
230000.0 571426.0 0
234000.0 571446.0 0
238000.0 571426.0 0
242000.0 571443.0 0
246000.0 571426.0 0
250000.0 571443.0 0
254000.0 571426.0 0
258000.0 571443.0 0
262000.0 571426.0 0
266000.0 571446.0 0
270000.0 571426.0 0
274000.0 571458.0 0
278000.0 571426.0 0
282000.0 571468.0 0
286000.0 571426.0 0
290000.0 571474.0 0
294000.0 571426.0 0
298000.0 571480.0 0
302000.0 571426.0 0
306000.0 571476.0 0
310000.0 571426.0 0
314000.0 571476.0 0
318000.0 571426.0 0
322000.0 571463.0 0
326000.0 571436.0 0
330000.0 571469.0 0
334000.0 571463.0 0
338000.0 571500.0 0
342000.0 571503.0 0
346000.0 571536.0 0
350000.0 571532.0 0
354000.0 571551.0 0
358000.0 571562.0 0
362000.0 571595.0 0
366000.0 571547.0 0
370000.0 571568.0 0
374000.0 571555.0 0
378000.0 571538.0 0
382000.0 571492.0 0
386000.0 571512.0 0
390000.0 571515.0 0
394000.0 571529.0 0
398000.0 571537.0 0
110000.0 575513.0 0
114000.0 575509.0 0
118000.0 575489.0 0
158000.0 575495.0 0
162000.0 575494.0 0
166000.0 575458.0 0
170000.0 575466.0 0
174000.0 575435.0 0
178000.0 575461.0 0
182000.0 575426.0 0
186000.0 575472.0 0
190000.0 575426.0 0
194000.0 575472.0 0
198000.0 575426.0 0
202000.0 575475.0 0
206000.0 575426.0 0
210000.0 575469.0 0
214000.0 575426.0 0
218000.0 575463.0 0
222000.0 575426.0 0
226000.0 575454.0 0
230000.0 575426.0 0
234000.0 575443.0 0
238000.0 575426.0 0
242000.0 575440.0 0
246000.0 575426.0 0
250000.0 575441.0 0
254000.0 575426.0 0
258000.0 575440.0 0
262000.0 575426.0 0
266000.0 575443.0 0
270000.0 575426.0 0
274000.0 575454.0 0
278000.0 575426.0 0
282000.0 575463.0 0
286000.0 575426.0 0
290000.0 575469.0 0
294000.0 575426.0 0
298000.0 575475.0 0
302000.0 575426.0 0
306000.0 575472.0 0
310000.0 575426.0 0
314000.0 575472.0 0
318000.0 575426.0 0
322000.0 575461.0 0
326000.0 575435.0 0
330000.0 575466.0 0
334000.0 575458.0 0
338000.0 575494.0 0
342000.0 575495.0 0
382000.0 575489.0 0
386000.0 575509.0 0
390000.0 575513.0 0
102000.0 575535.0 0
106000.0 575527.0 0
122000.0 575534.0 0
126000.0 575551.0 0
130000.0 575564.0 0
134000.0 575543.0 0
138000.0 575588.0 0
142000.0 575555.0 0
146000.0 575544.0 0
150000.0 575524.0 0
154000.0 575528.0 0
346000.0 575528.0 0
350000.0 575524.0 0
354000.0 575544.0 0
358000.0 575555.0 0
362000.0 575588.0 0
366000.0 575543.0 0
370000.0 575564.0 0
374000.0 575551.0 0
378000.0 575534.0 0
394000.0 575527.0 0
398000.0 575535.0 0
102000.0 579533.0 0
106000.0 579526.0 0
110000.0 579511.0 0
114000.0 579506.0 0
118000.0 579486.0 0
122000.0 579531.0 0
126000.0 579546.0 0
130000.0 579560.0 0
134000.0 579539.0 0
138000.0 579582.0 0
142000.0 579548.0 0
146000.0 579538.0 0
150000.0 579517.0 0
154000.0 579520.0 0
158000.0 579488.0 0
162000.0 579488.0 0
166000.0 579454.0 0
170000.0 579463.0 0
174000.0 579433.0 0
178000.0 579460.0 0
182000.0 579426.0 0
186000.0 579469.0 0
190000.0 579426.0 0
194000.0 579469.0 0
198000.0 579426.0 0
202000.0 579471.0 0
206000.0 579426.0 0
210000.0 579465.0 0
214000.0 579426.0 0
218000.0 579459.0 0
222000.0 579426.0 0
226000.0 579450.0 0
230000.0 579426.0 0
234000.0 579440.0 0
238000.0 579426.0 0
242000.0 579438.0 0
246000.0 579426.0 0
250000.0 579438.0 0
254000.0 579426.0 0
258000.0 579438.0 0
262000.0 579426.0 0
266000.0 579440.0 0
270000.0 579426.0 0
274000.0 579450.0 0
278000.0 579426.0 0
282000.0 579459.0 0
286000.0 579426.0 0
290000.0 579465.0 0
294000.0 579426.0 0
298000.0 579471.0 0
302000.0 579426.0 0
306000.0 579469.0 0
310000.0 579426.0 0
314000.0 579469.0 0
318000.0 579426.0 0
322000.0 579460.0 0
326000.0 579433.0 0
330000.0 579463.0 0
334000.0 579454.0 0
338000.0 579488.0 0
342000.0 579488.0 0
346000.0 579520.0 0
350000.0 579517.0 0
354000.0 579538.0 0
358000.0 579548.0 0
362000.0 579582.0 0
366000.0 579539.0 0
370000.0 579560.0 0
374000.0 579546.0 0
378000.0 579531.0 0
382000.0 579486.0 0
386000.0 579506.0 0
390000.0 579511.0 0
394000.0 579526.0 0
398000.0 579533.0 0
102000.0 583531.0 0
106000.0 583524.0 0
110000.0 583510.0 0
114000.0 583504.0 0
118000.0 583484.0 0
122000.0 583527.0 0
126000.0 583542.0 0
130000.0 583557.0 0
134000.0 583535.0 0
138000.0 583577.0 0
142000.0 583542.0 0
146000.0 583532.0 0
150000.0 583510.0 0
154000.0 583513.0 0
158000.0 583482.0 0
162000.0 583483.0 0
166000.0 583451.0 0
170000.0 583461.0 0
174000.0 583432.0 0
178000.0 583458.0 0
182000.0 583426.0 0
186000.0 583466.0 0
190000.0 583426.0 0
194000.0 583466.0 0
198000.0 583426.0 0
202000.0 583468.0 0
206000.0 583426.0 0
210000.0 583461.0 0
214000.0 583426.0 0
218000.0 583455.0 0
222000.0 583426.0 0
226000.0 583446.0 0
230000.0 583426.0 0
234000.0 583438.0 0
238000.0 583426.0 0
242000.0 583436.0 0
246000.0 583426.0 0
250000.0 583436.0 0
254000.0 583426.0 0
258000.0 583436.0 0
262000.0 583426.0 0
266000.0 583438.0 0
270000.0 583426.0 0
274000.0 583446.0 0
278000.0 583426.0 0
282000.0 583455.0 0
286000.0 583426.0 0
290000.0 583461.0 0
294000.0 583426.0 0
298000.0 583468.0 0
302000.0 583426.0 0
306000.0 583466.0 0
310000.0 583426.0 0
314000.0 583466.0 0
318000.0 583426.0 0
322000.0 583458.0 0
326000.0 583432.0 0
330000.0 583461.0 0
334000.0 583451.0 0
338000.0 583483.0 0
342000.0 583482.0 0
346000.0 583513.0 0
350000.0 583510.0 0
354000.0 583532.0 0
358000.0 583542.0 0
362000.0 583577.0 0
366000.0 583535.0 0
370000.0 583557.0 0
374000.0 583542.0 0
378000.0 583527.0 0
382000.0 583484.0 0
386000.0 583504.0 0
390000.0 583510.0 0
394000.0 583524.0 0
398000.0 583531.0 0
102000.0 587529.0 0
106000.0 587522.0 0
110000.0 587508.0 0
114000.0 587502.0 0
118000.0 587482.0 0
122000.0 587524.0 0
126000.0 587539.0 0
130000.0 587554.0 0
134000.0 587532.0 0
138000.0 587571.0 0
142000.0 587537.0 0
146000.0 587527.0 0
150000.0 587504.0 0
154000.0 587507.0 0
158000.0 587476.0 0
162000.0 587479.0 0
166000.0 587448.0 0
170000.0 587459.0 0
174000.0 587431.0 0
178000.0 587456.0 0
182000.0 587426.0 0
186000.0 587464.0 0
190000.0 587426.0 0
194000.0 587463.0 0
198000.0 587426.0 0
202000.0 587464.0 0
206000.0 587426.0 0
210000.0 587458.0 0
214000.0 587426.0 0
218000.0 587452.0 0
222000.0 587426.0 0
226000.0 587444.0 0
230000.0 587426.0 0
234000.0 587436.0 0
238000.0 587426.0 0
242000.0 587434.0 0
246000.0 587426.0 0
250000.0 587434.0 0
254000.0 587426.0 0
258000.0 587434.0 0
262000.0 587426.0 0
266000.0 587436.0 0
270000.0 587426.0 0
274000.0 587444.0 0
278000.0 587426.0 0
282000.0 587452.0 0
286000.0 587426.0 0
290000.0 587458.0 0
294000.0 587426.0 0
298000.0 587464.0 0
302000.0 587426.0 0
306000.0 587463.0 0
310000.0 587426.0 0
314000.0 587464.0 0
318000.0 587426.0 0
322000.0 587456.0 0
326000.0 587431.0 0
330000.0 587459.0 0
334000.0 587448.0 0
338000.0 587479.0 0
342000.0 587476.0 0
346000.0 587507.0 0
350000.0 587504.0 0
354000.0 587527.0 0
358000.0 587537.0 0
362000.0 587571.0 0
366000.0 587532.0 0
370000.0 587554.0 0
374000.0 587539.0 0
378000.0 587524.0 0
382000.0 587482.0 0
386000.0 587502.0 0
390000.0 587508.0 0
394000.0 587522.0 0
398000.0 587529.0 0
102000.0 591528.0 0
106000.0 591521.0 0
110000.0 591507.0 0
114000.0 591500.0 0
118000.0 591480.0 0
122000.0 591522.0 0
126000.0 591535.0 0
130000.0 591551.0 0
134000.0 591529.0 0
138000.0 591567.0 0
142000.0 591532.0 0
146000.0 591523.0 0
150000.0 591499.0 0
154000.0 591502.0 0
158000.0 591472.0 0
162000.0 591476.0 0
166000.0 591446.0 0
170000.0 591457.0 0
174000.0 591431.0 0
178000.0 591455.0 0
182000.0 591426.0 0
186000.0 591462.0 0
190000.0 591426.0 0
194000.0 591461.0 0
198000.0 591426.0 0
202000.0 591461.0 0
206000.0 591426.0 0
210000.0 591455.0 0
214000.0 591426.0 0
218000.0 591449.0 0
222000.0 591426.0 0
226000.0 591441.0 0
230000.0 591426.0 0
234000.0 591434.0 0
238000.0 591426.0 0
242000.0 591433.0 0
246000.0 591426.0 0
250000.0 591433.0 0
254000.0 591426.0 0
258000.0 591433.0 0
262000.0 591426.0 0
266000.0 591434.0 0
270000.0 591426.0 0
274000.0 591441.0 0
278000.0 591426.0 0
282000.0 591449.0 0
286000.0 591426.0 0
290000.0 591455.0 0
294000.0 591426.0 0
298000.0 591461.0 0
302000.0 591426.0 0
306000.0 591461.0 0
310000.0 591426.0 0
314000.0 591462.0 0
318000.0 591426.0 0
322000.0 591455.0 0
326000.0 591431.0 0
330000.0 591457.0 0
334000.0 591446.0 0
338000.0 591476.0 0
342000.0 591472.0 0
346000.0 591502.0 0
350000.0 591499.0 0
354000.0 591523.0 0
358000.0 591532.0 0
362000.0 591567.0 0
366000.0 591529.0 0
370000.0 591551.0 0
374000.0 591535.0 0
378000.0 591522.0 0
382000.0 591480.0 0
386000.0 591500.0 0
390000.0 591507.0 0
394000.0 591521.0 0
398000.0 591528.0 0
102000.0 595526.0 0
106000.0 595520.0 0
110000.0 595506.0 0
114000.0 595498.0 0
118000.0 595478.0 0
122000.0 595519.0 0
126000.0 595532.0 0
130000.0 595549.0 0
134000.0 595526.0 0
138000.0 595563.0 0
142000.0 595528.0 0
146000.0 595519.0 0
150000.0 595495.0 0
154000.0 595497.0 0
158000.0 595468.0 0
162000.0 595472.0 0
166000.0 595443.0 0
170000.0 595455.0 0
174000.0 595430.0 0
178000.0 595454.0 0
182000.0 595426.0 0
186000.0 595460.0 0
190000.0 595426.0 0
194000.0 595459.0 0
198000.0 595426.0 0
202000.0 595459.0 0
206000.0 595426.0 0
210000.0 595453.0 0
214000.0 595426.0 0
218000.0 595447.0 0
222000.0 595426.0 0
226000.0 595439.0 0
230000.0 595426.0 0
234000.0 595433.0 0
238000.0 595426.0 0
242000.0 595432.0 0
246000.0 595426.0 0
250000.0 595432.0 0
254000.0 595426.0 0
258000.0 595432.0 0
262000.0 595426.0 0
266000.0 595433.0 0
270000.0 595426.0 0
274000.0 595439.0 0
278000.0 595426.0 0
282000.0 595447.0 0
286000.0 595426.0 0
290000.0 595453.0 0
294000.0 595426.0 0
298000.0 595459.0 0
302000.0 595426.0 0
306000.0 595459.0 0
310000.0 595426.0 0
314000.0 595460.0 0
318000.0 595426.0 0
322000.0 595454.0 0
326000.0 595430.0 0
330000.0 595455.0 0
334000.0 595443.0 0
338000.0 595472.0 0
342000.0 595468.0 0
346000.0 595497.0 0
350000.0 595495.0 0
354000.0 595519.0 0
358000.0 595528.0 0
362000.0 595563.0 0
366000.0 595526.0 0
370000.0 595549.0 0
374000.0 595532.0 0
378000.0 595519.0 0
382000.0 595478.0 0
386000.0 595498.0 0
390000.0 595506.0 0
394000.0 595520.0 0
398000.0 595526.0 0
102000.0 599525.0 0
106000.0 599519.0 0
110000.0 599505.0 0
114000.0 599497.0 0
118000.0 599477.0 0
122000.0 599517.0 0
126000.0 599530.0 0
130000.0 599546.0 0
134000.0 599524.0 0
138000.0 599559.0 0
142000.0 599524.0 0
146000.0 599515.0 0
150000.0 599491.0 0
154000.0 599493.0 0
158000.0 599464.0 0
162000.0 599470.0 0
166000.0 599442.0 0
170000.0 599454.0 0
174000.0 599429.0 0
178000.0 599453.0 0
182000.0 599426.0 0
186000.0 599458.0 0
190000.0 599426.0 0
194000.0 599458.0 0
198000.0 599426.0 0
202000.0 599457.0 0
206000.0 599426.0 0
210000.0 599450.0 0
214000.0 599426.0 0
218000.0 599445.0 0
222000.0 599426.0 0
226000.0 599437.0 0
230000.0 599426.0 0
234000.0 599432.0 0
238000.0 599426.0 0
242000.0 599431.0 0
246000.0 599426.0 0
250000.0 599431.0 0
254000.0 599426.0 0
258000.0 599431.0 0
262000.0 599426.0 0
266000.0 599432.0 0
270000.0 599426.0 0
274000.0 599437.0 0
278000.0 599426.0 0
282000.0 599445.0 0
286000.0 599426.0 0
290000.0 599450.0 0
294000.0 599426.0 0
298000.0 599457.0 0
302000.0 599426.0 0
306000.0 599458.0 0
310000.0 599426.0 0
314000.0 599458.0 0
318000.0 599426.0 0
322000.0 599453.0 0
326000.0 599429.0 0
330000.0 599454.0 0
334000.0 599442.0 0
338000.0 599470.0 0
342000.0 599464.0 0
346000.0 599493.0 0
350000.0 599491.0 0
354000.0 599515.0 0
358000.0 599524.0 0
362000.0 599559.0 0
366000.0 599524.0 0
370000.0 599546.0 0
374000.0 599530.0 0
378000.0 599517.0 0
382000.0 599477.0 0
386000.0 599497.0 0
390000.0 599505.0 0
394000.0 599519.0 0
398000.0 599525.0 0
102000.0 603524.0 0
106000.0 603518.0 0
110000.0 603505.0 0
114000.0 603496.0 0
118000.0 603475.0 0
122000.0 603516.0 0
126000.0 603528.0 0
130000.0 603545.0 0
134000.0 603522.0 0
138000.0 603556.0 0
142000.0 603521.0 0
146000.0 603513.0 0
150000.0 603488.0 0
154000.0 603490.0 0
158000.0 603462.0 0
162000.0 603468.0 0
166000.0 603440.0 0
170000.0 603453.0 0
174000.0 603429.0 0
178000.0 603452.0 0
182000.0 603426.0 0
186000.0 603457.0 0
190000.0 603426.0 0
194000.0 603456.0 0
198000.0 603426.0 0
202000.0 603455.0 0
206000.0 603426.0 0
210000.0 603449.0 0
214000.0 603426.0 0
218000.0 603443.0 0
222000.0 603426.0 0
226000.0 603436.0 0
230000.0 603426.0 0
234000.0 603431.0 0
238000.0 603426.0 0
242000.0 603430.0 0
246000.0 603426.0 0
250000.0 603430.0 0
254000.0 603426.0 0
258000.0 603430.0 0
262000.0 603426.0 0
266000.0 603431.0 0
270000.0 603426.0 0
274000.0 603436.0 0
278000.0 603426.0 0
282000.0 603443.0 0
286000.0 603426.0 0
290000.0 603449.0 0
294000.0 603426.0 0
298000.0 603455.0 0
302000.0 603426.0 0
306000.0 603456.0 0
310000.0 603426.0 0
314000.0 603457.0 0
318000.0 603426.0 0
322000.0 603452.0 0
326000.0 603429.0 0
330000.0 603453.0 0
334000.0 603440.0 0
338000.0 603468.0 0
342000.0 603462.0 0
346000.0 603490.0 0
350000.0 603488.0 0
354000.0 603513.0 0
358000.0 603521.0 0
362000.0 603556.0 0
366000.0 603522.0 0
370000.0 603545.0 0
374000.0 603528.0 0
378000.0 603516.0 0
382000.0 603475.0 0
386000.0 603496.0 0
390000.0 603505.0 0
394000.0 603518.0 0
398000.0 603524.0 0
102000.0 607523.0 0
106000.0 607518.0 0
110000.0 607504.0 0
114000.0 607495.0 0
118000.0 607475.0 0
122000.0 607514.0 0
126000.0 607526.0 0
130000.0 607543.0 0
134000.0 607521.0 0
138000.0 607554.0 0
142000.0 607519.0 0
146000.0 607510.0 0
150000.0 607485.0 0
154000.0 607488.0 0
158000.0 607460.0 0
162000.0 607466.0 0
166000.0 607439.0 0
170000.0 607452.0 0
174000.0 607429.0 0
178000.0 607451.0 0
182000.0 607426.0 0
186000.0 607456.0 0
190000.0 607426.0 0
194000.0 607455.0 0
198000.0 607426.0 0
202000.0 607454.0 0
206000.0 607426.0 0
210000.0 607447.0 0
214000.0 607426.0 0
218000.0 607442.0 0
222000.0 607426.0 0
226000.0 607435.0 0
230000.0 607426.0 0
234000.0 607430.0 0
238000.0 607426.0 0
242000.0 607430.0 0
246000.0 607426.0 0
250000.0 607430.0 0
254000.0 607426.0 0
258000.0 607430.0 0
262000.0 607426.0 0
266000.0 607430.0 0
270000.0 607426.0 0
274000.0 607435.0 0
278000.0 607426.0 0
282000.0 607442.0 0
286000.0 607426.0 0
290000.0 607447.0 0
294000.0 607426.0 0
298000.0 607454.0 0
302000.0 607426.0 0
306000.0 607455.0 0
310000.0 607426.0 0
314000.0 607456.0 0
318000.0 607426.0 0
322000.0 607451.0 0
326000.0 607429.0 0
330000.0 607452.0 0
334000.0 607439.0 0
338000.0 607466.0 0
342000.0 607460.0 0
346000.0 607488.0 0
350000.0 607485.0 0
354000.0 607510.0 0
358000.0 607519.0 0
362000.0 607554.0 0
366000.0 607521.0 0
370000.0 607543.0 0
374000.0 607526.0 0
378000.0 607514.0 0
382000.0 607475.0 0
386000.0 607495.0 0
390000.0 607504.0 0
394000.0 607518.0 0
398000.0 607523.0 0
102000.0 611523.0 0
106000.0 611517.0 0
110000.0 611504.0 0
114000.0 611494.0 0
118000.0 611474.0 0
122000.0 611513.0 0
126000.0 611525.0 0
130000.0 611542.0 0
134000.0 611519.0 0
138000.0 611552.0 0
142000.0 611517.0 0
146000.0 611509.0 0
150000.0 611483.0 0
154000.0 611486.0 0
158000.0 611458.0 0
162000.0 611465.0 0
166000.0 611438.0 0
170000.0 611451.0 0
174000.0 611428.0 0
178000.0 611451.0 0
182000.0 611426.0 0
186000.0 611455.0 0
190000.0 611426.0 0
194000.0 611454.0 0
198000.0 611426.0 0
202000.0 611453.0 0
206000.0 611426.0 0
210000.0 611446.0 0
214000.0 611426.0 0
218000.0 611441.0 0
222000.0 611426.0 0
226000.0 611434.0 0
230000.0 611426.0 0
234000.0 611430.0 0
238000.0 611426.0 0
242000.0 611429.0 0
246000.0 611426.0 0
250000.0 611429.0 0
254000.0 611426.0 0
258000.0 611429.0 0
262000.0 611426.0 0
266000.0 611430.0 0
270000.0 611426.0 0
274000.0 611434.0 0
278000.0 611426.0 0
282000.0 611441.0 0
286000.0 611426.0 0
290000.0 611446.0 0
294000.0 611426.0 0
298000.0 611453.0 0
302000.0 611426.0 0
306000.0 611454.0 0
310000.0 611426.0 0
314000.0 611455.0 0
318000.0 611426.0 0
322000.0 611451.0 0
326000.0 611428.0 0
330000.0 611451.0 0
334000.0 611438.0 0
338000.0 611465.0 0
342000.0 611458.0 0
346000.0 611486.0 0
350000.0 611483.0 0
354000.0 611509.0 0
358000.0 611517.0 0
362000.0 611552.0 0
366000.0 611519.0 0
370000.0 611542.0 0
374000.0 611525.0 0
378000.0 611513.0 0
382000.0 611474.0 0
386000.0 611494.0 0
390000.0 611504.0 0
394000.0 611517.0 0
398000.0 611523.0 0
102000.0 615522.0 0
106000.0 615517.0 0
110000.0 615503.0 0
114000.0 615494.0 0
118000.0 615473.0 0
122000.0 615513.0 0
126000.0 615524.0 0
130000.0 615541.0 0
134000.0 615519.0 0
138000.0 615551.0 0
142000.0 615516.0 0
146000.0 615508.0 0
150000.0 615482.0 0
154000.0 615485.0 0
158000.0 615457.0 0
162000.0 615464.0 0
166000.0 615438.0 0
170000.0 615451.0 0
174000.0 615428.0 0
178000.0 615451.0 0
182000.0 615426.0 0
186000.0 615454.0 0
190000.0 615426.0 0
194000.0 615454.0 0
198000.0 615426.0 0
202000.0 615452.0 0
206000.0 615426.0 0
210000.0 615446.0 0
214000.0 615426.0 0
218000.0 615440.0 0
222000.0 615426.0 0
226000.0 615434.0 0
230000.0 615426.0 0
234000.0 615430.0 0
238000.0 615426.0 0
242000.0 615429.0 0
246000.0 615426.0 0
250000.0 615429.0 0
254000.0 615426.0 0
258000.0 615429.0 0
262000.0 615426.0 0
266000.0 615430.0 0
270000.0 615426.0 0
274000.0 615434.0 0
278000.0 615426.0 0
282000.0 615440.0 0
286000.0 615426.0 0
290000.0 615446.0 0
294000.0 615426.0 0
298000.0 615452.0 0
302000.0 615426.0 0
306000.0 615454.0 0
310000.0 615426.0 0
314000.0 615454.0 0
318000.0 615426.0 0
322000.0 615451.0 0
326000.0 615428.0 0
330000.0 615451.0 0
334000.0 615438.0 0
338000.0 615464.0 0
342000.0 615457.0 0
346000.0 615485.0 0
350000.0 615482.0 0
354000.0 615508.0 0
358000.0 615516.0 0
362000.0 615551.0 0
366000.0 615519.0 0
370000.0 615541.0 0
374000.0 615524.0 0
378000.0 615513.0 0
382000.0 615473.0 0
386000.0 615494.0 0
390000.0 615503.0 0
394000.0 615517.0 0
398000.0 615522.0 0
102000.0 619522.0 0
106000.0 619517.0 0
110000.0 619503.0 0
114000.0 619494.0 0
118000.0 619473.0 0
122000.0 619512.0 0
126000.0 619524.0 0
130000.0 619541.0 0
134000.0 619518.0 0
138000.0 619550.0 0
142000.0 619515.0 0
146000.0 619507.0 0
150000.0 619481.0 0
154000.0 619484.0 0
158000.0 619456.0 0
162000.0 619464.0 0
166000.0 619437.0 0
170000.0 619451.0 0
174000.0 619428.0 0
178000.0 619450.0 0
182000.0 619426.0 0
186000.0 619454.0 0
190000.0 619426.0 0
194000.0 619453.0 0
198000.0 619426.0 0
202000.0 619452.0 0
206000.0 619426.0 0
210000.0 619445.0 0
214000.0 619426.0 0
218000.0 619440.0 0
222000.0 619426.0 0
226000.0 619433.0 0
230000.0 619426.0 0
234000.0 619429.0 0
238000.0 619426.0 0
242000.0 619429.0 0
246000.0 619426.0 0
250000.0 619429.0 0
254000.0 619426.0 0
258000.0 619429.0 0
262000.0 619426.0 0
266000.0 619429.0 0
270000.0 619426.0 0
274000.0 619433.0 0
278000.0 619426.0 0
282000.0 619440.0 0
286000.0 619426.0 0
290000.0 619445.0 0
294000.0 619426.0 0
298000.0 619452.0 0
302000.0 619426.0 0
306000.0 619453.0 0
310000.0 619426.0 0
314000.0 619454.0 0
318000.0 619426.0 0
322000.0 619450.0 0
326000.0 619428.0 0
330000.0 619451.0 0
334000.0 619437.0 0
338000.0 619464.0 0
342000.0 619456.0 0
346000.0 619484.0 0
350000.0 619481.0 0
354000.0 619507.0 0
358000.0 619515.0 0
362000.0 619550.0 0
366000.0 619518.0 0
370000.0 619541.0 0
374000.0 619524.0 0
378000.0 619512.0 0
382000.0 619473.0 0
386000.0 619494.0 0
390000.0 619503.0 0
394000.0 619517.0 0
398000.0 619522.0 0
POINT_DATA 4650
SCALARS Radius float 1
LOOKUP_TABLE default
4000.0 4000.0 4000.0 4000.0 4000.0 4000.0 4000.0 4000.0 4000.0 4000.0 4000.0 4000.0 4000.0 4000.0 4000.0 4000.0 4000.0 4000.0 4000.0 4000.0 4000.0 4000.0 4000.0 4000.0 4000.0 4000.0 4000.0 4000.0 4000.0 4000.0 4000.0 4000.0 4000.0 4000.0 4000.0 4000.0 4000.0 4000.0 4000.0 4000.0 4000.0 4000.0 4000.0 4000.0 4000.0 4000.0 4000.0 4000.0 4000.0 4000.0 4000.0 4000.0 4000.0 4000.0 4000.0 4000.0 4000.0 4000.0 4000.0 4000.0 4000.0 4000.0 4000.0 4000.0 4000.0 4000.0 4000.0 4000.0 4000.0 4000.0 4000.0 4000.0 4000.0 4000.0 4000.0 4000.0 4000.0 4000.0 4000.0 4000.0 4000.0 4000.0 4000.0 4000.0 4000.0 4000.0 4000.0 4000.0 4000.0 4000.0 4000.0 4000.0 4000.0 4000.0 4000.0 4000.0 4000.0 4000.0 4000.0 4000.0 4000.0 4000.0 4000.0 4000.0 4000.0 4000.0 4000.0 4000.0 4000.0 4000.0 4000.0 4000.0 4000.0 4000.0 4000.0 4000.0 4000.0 4000.0 4000.0 4000.0 4000.0 4000.0 4000.0 4000.0 4000.0 4000.0 4000.0 4000.0 4000.0 4000.0 4000.0 4000.0 4000.0 4000.0 4000.0 4000.0 4000.0 4000.0 4000.0 4000.0 4000.0 4000.0 4000.0 4000.0 4000.0 4000.0 4000.0 4000.0 4000.0 4000.0 4000.0 4000.0 4000.0 4000.0 4000.0 4000.0 4000.0 4000.0 4000.0 4000.0 4000.0 4000.0 4000.0 4000.0 4000.0 4000.0 4000.0 4000.0 4000.0 4000.0 4000.0 4000.0 4000.0 4000.0 4000.0 4000.0 4000.0 4000.0 4000.0 4000.0 4000.0 4000.0 4000.0 4000.0 4000.0 4000.0 4000.0 4000.0 4000.0 4000.0 4000.0 4000.0 4000.0 4000.0 4000.0 4000.0 4000.0 4000.0 4000.0 4000.0 4000.0 4000.0 4000.0 4000.0 4000.0 4000.0 4000.0 4000.0 4000.0 4000.0 4000.0 4000.0 4000.0 4000.0 4000.0 4000.0 4000.0 4000.0 4000.0 4000.0 4000.0 4000.0 4000.0 4000.0 4000.0 4000.0 4000.0 4000.0 4000.0 4000.0 4000.0 4000.0 4000.0 4000.0 4000.0 4000.0 4000.0 4000.0 4000.0 4000.0 4000.0 4000.0 4000.0 4000.0 4000.0 4000.0 4000.0 4000.0 4000.0 4000.0 4000.0 4000.0 4000.0 4000.0 4000.0 4000.0 4000.0 4000.0 4000.0 4000.0 4000.0 4000.0 4000.0 4000.0 4000.0 4000.0 4000.0 4000.0 4000.0 4000.0 4000.0 4000.0 4000.0 4000.0 4000.0 4000.0 4000.0 4000.0 4000.0 4000.0 4000.0 4000.0 4000.0 4000.0 4000.0 4000.0 4000.0 4000.0 4000.0 4000.0 4000.0 4000.0 4000.0 4000.0 4000.0 4000.0 4000.0 4000.0 4000.0 4000.0 4000.0 4000.0 4000.0 4000.0 4000.0 4000.0 4000.0 4000.0 4000.0 4000.0 4000.0 4000.0 4000.0 4000.0 4000.0 4000.0 4000.0 4000.0 4000.0 4000.0 4000.0 4000.0 4000.0 4000.0 4000.0 4000.0 4000.0 4000.0 4000.0 4000.0 4000.0 4000.0 4000.0 4000.0 4000.0 4000.0 4000.0 4000.0 4000.0 4000.0 4000.0 4000.0 4000.0 4000.0 4000.0 4000.0 4000.0 4000.0 4000.0 4000.0 4000.0 4000.0 4000.0 4000.0 4000.0 4000.0 4000.0 4000.0 4000.0 4000.0 4000.0 4000.0 4000.0 4000.0 4000.0 4000.0 4000.0 4000.0 4000.0 4000.0 4000.0 4000.0 4000.0 4000.0 4000.0 4000.0 4000.0 4000.0 4000.0 4000.0 4000.0 4000.0 4000.0 4000.0 4000.0 4000.0 4000.0 4000.0 4000.0 4000.0 4000.0 4000.0 4000.0 4000.0 4000.0 4000.0 4000.0 4000.0 4000.0 4000.0 4000.0 4000.0 4000.0 4000.0 4000.0 4000.0 4000.0 4000.0 4000.0 4000.0 4000.0 4000.0 4000.0 4000.0 4000.0 4000.0 4000.0 4000.0 4000.0 4000.0 4000.0 4000.0 4000.0 4000.0 4000.0 4000.0 4000.0 4000.0 4000.0 4000.0 4000.0 4000.0 4000.0 4000.0 4000.0 4000.0 4000.0 4000.0 4000.0 4000.0 4000.0 4000.0 4000.0 4000.0 4000.0 4000.0 4000.0 4000.0 4000.0 4000.0 4000.0 4000.0 4000.0 4000.0 4000.0 4000.0 4000.0 4000.0 4000.0 4000.0 4000.0 4000.0 4000.0 4000.0 4000.0 4000.0 4000.0 4000.0 4000.0 4000.0 4000.0 4000.0 4000.0 4000.0 4000.0 4000.0 4000.0 4000.0 4000.0 4000.0 4000.0 4000.0 4000.0 4000.0 4000.0 4000.0 4000.0 4000.0 4000.0 4000.0 4000.0 4000.0 4000.0 4000.0 4000.0 4000.0 4000.0 4000.0 4000.0 4000.0 4000.0 4000.0 4000.0 4000.0 4000.0 4000.0 4000.0 4000.0 4000.0 4000.0 4000.0 4000.0 4000.0 4000.0 4000.0 4000.0 4000.0 4000.0 4000.0 4000.0 4000.0 4000.0 4000.0 4000.0 4000.0 4000.0 4000.0 4000.0 4000.0 4000.0 4000.0 4000.0 4000.0 4000.0 4000.0 4000.0 4000.0 4000.0 4000.0 4000.0 4000.0 4000.0 4000.0 4000.0 4000.0 4000.0 4000.0 4000.0 4000.0 4000.0 4000.0 4000.0 4000.0 4000.0 4000.0 4000.0 4000.0 4000.0 4000.0 4000.0 4000.0 4000.0 4000.0 4000.0 4000.0 4000.0 4000.0 4000.0 4000.0 4000.0 4000.0 4000.0 4000.0 4000.0 4000.0 4000.0 4000.0 4000.0 4000.0 4000.0 4000.0 4000.0 4000.0 4000.0 4000.0 4000.0 4000.0 4000.0 4000.0 4000.0 4000.0 4000.0 4000.0 4000.0 4000.0 4000.0 4000.0 4000.0 4000.0 4000.0 4000.0 4000.0 4000.0 4000.0 4000.0 4000.0 4000.0 4000.0 4000.0 4000.0 4000.0 4000.0 4000.0 4000.0 4000.0 4000.0 4000.0 4000.0 4000.0 4000.0 4000.0 4000.0 4000.0 4000.0 4000.0 4000.0 4000.0 4000.0 4000.0 4000.0 4000.0 4000.0 4000.0 4000.0 4000.0 4000.0 4000.0 4000.0 4000.0 4000.0 4000.0 4000.0 4000.0 4000.0 4000.0 4000.0 4000.0 4000.0 4000.0 4000.0 4000.0 4000.0 4000.0 4000.0 4000.0 4000.0 4000.0 4000.0 4000.0 4000.0 4000.0 4000.0 4000.0 4000.0 4000.0 4000.0 4000.0 4000.0 4000.0 4000.0 4000.0 4000.0 4000.0 4000.0 4000.0 4000.0 4000.0 4000.0 4000.0 4000.0 4000.0 4000.0 4000.0 4000.0 4000.0 4000.0 4000.0 4000.0 4000.0 4000.0 4000.0 4000.0 4000.0 4000.0 4000.0 4000.0 4000.0 4000.0 4000.0 4000.0 4000.0 4000.0 4000.0 4000.0 4000.0 4000.0 4000.0 4000.0 4000.0 4000.0 4000.0 4000.0 4000.0 4000.0 4000.0 4000.0 4000.0 4000.0 4000.0 4000.0 4000.0 4000.0 4000.0 4000.0 4000.0 4000.0 4000.0 4000.0 4000.0 4000.0 4000.0 4000.0 4000.0 4000.0 4000.0 4000.0 4000.0 4000.0 4000.0 4000.0 4000.0 4000.0 4000.0 4000.0 4000.0 4000.0 4000.0 4000.0 4000.0 4000.0 4000.0 4000.0 4000.0 4000.0 4000.0 4000.0 4000.0 4000.0 4000.0 4000.0 4000.0 4000.0 4000.0 4000.0 4000.0 4000.0 4000.0 4000.0 4000.0 4000.0 4000.0 4000.0 4000.0 4000.0 4000.0 4000.0 4000.0 4000.0 4000.0 4000.0 4000.0 4000.0 4000.0 4000.0 4000.0 4000.0 4000.0 4000.0 4000.0 4000.0 4000.0 4000.0 4000.0 4000.0 4000.0 4000.0 4000.0 4000.0 4000.0 4000.0 4000.0 4000.0 4000.0 4000.0 4000.0 4000.0 4000.0 4000.0 4000.0 4000.0 4000.0 4000.0 4000.0 4000.0 4000.0 4000.0 4000.0 4000.0 4000.0 4000.0 4000.0 4000.0 4000.0 4000.0 4000.0 4000.0 4000.0 4000.0 4000.0 4000.0 4000.0 4000.0 4000.0 4000.0 4000.0 4000.0 4000.0 4000.0 4000.0 4000.0 4000.0 4000.0 4000.0 4000.0 4000.0 4000.0 4000.0 4000.0 4000.0 4000.0 4000.0 4000.0 4000.0 4000.0 4000.0 4000.0 4000.0 4000.0 4000.0 4000.0 4000.0 4000.0 4000.0 4000.0 4000.0 4000.0 4000.0 4000.0 4000.0 4000.0 4000.0 4000.0 4000.0 4000.0 4000.0 4000.0 4000.0 4000.0 4000.0 4000.0 4000.0 4000.0 4000.0 4000.0 4000.0 4000.0 4000.0 4000.0 4000.0 4000.0 4000.0 4000.0 4000.0 4000.0 4000.0 4000.0 4000.0 4000.0 4000.0 4000.0 4000.0 4000.0 4000.0 4000.0 4000.0 4000.0 4000.0 4000.0 4000.0 4000.0 4000.0 4000.0 4000.0 4000.0 4000.0 4000.0 4000.0 4000.0 4000.0 4000.0 4000.0 4000.0 4000.0 4000.0 4000.0 4000.0 4000.0 4000.0 4000.0 4000.0 4000.0 4000.0 4000.0 4000.0 4000.0 4000.0 4000.0 4000.0 4000.0 4000.0 4000.0 4000.0 4000.0 4000.0 4000.0 4000.0 4000.0 4000.0 4000.0 4000.0 4000.0 4000.0 4000.0 4000.0 4000.0 4000.0 4000.0 4000.0 4000.0 4000.0 4000.0 4000.0 4000.0 4000.0 4000.0 4000.0 4000.0 4000.0 4000.0 4000.0 4000.0 4000.0 4000.0 4000.0 4000.0 4000.0 4000.0 4000.0 4000.0 4000.0 4000.0 4000.0 4000.0 4000.0 4000.0 4000.0 4000.0 4000.0 4000.0 4000.0 4000.0 4000.0 4000.0 4000.0 4000.0 4000.0 4000.0 4000.0 4000.0 4000.0 4000.0 4000.0 4000.0 4000.0 4000.0 4000.0 4000.0 4000.0 4000.0 4000.0 4000.0 4000.0 4000.0 4000.0 4000.0 4000.0 4000.0 4000.0 4000.0 4000.0 4000.0 4000.0 4000.0 4000.0 4000.0 4000.0 4000.0 4000.0 4000.0 4000.0 4000.0 4000.0 4000.0 4000.0 4000.0 4000.0 4000.0 4000.0 4000.0 4000.0 4000.0 4000.0 4000.0 4000.0 4000.0 4000.0 4000.0 4000.0 4000.0 4000.0 4000.0 4000.0 4000.0 4000.0 4000.0 4000.0 4000.0 4000.0 4000.0 4000.0 4000.0 4000.0 4000.0 4000.0 4000.0 4000.0 4000.0 4000.0 4000.0 4000.0 4000.0 4000.0 4000.0 4000.0 4000.0 4000.0 4000.0 4000.0 4000.0 4000.0 4000.0 4000.0 4000.0 4000.0 4000.0 4000.0 4000.0 4000.0 4000.0 4000.0 4000.0 4000.0 4000.0 4000.0 4000.0 4000.0 4000.0 4000.0 4000.0 4000.0 4000.0 4000.0 4000.0 4000.0 4000.0 4000.0 4000.0 4000.0 4000.0 4000.0 4000.0 4000.0 4000.0 4000.0 4000.0 4000.0 4000.0 4000.0 4000.0 4000.0 4000.0 4000.0 4000.0 4000.0 4000.0 4000.0 4000.0 4000.0 4000.0 4000.0 4000.0 4000.0 4000.0 4000.0 4000.0 4000.0 4000.0 4000.0 4000.0 4000.0 4000.0 4000.0 4000.0 4000.0 4000.0 4000.0 4000.0 4000.0 4000.0 4000.0 4000.0 4000.0 4000.0 4000.0 4000.0 4000.0 4000.0 4000.0 4000.0 4000.0 4000.0 4000.0 4000.0 4000.0 4000.0 4000.0 4000.0 4000.0 4000.0 4000.0 4000.0 4000.0 4000.0 4000.0 4000.0 4000.0 4000.0 4000.0 4000.0 4000.0 4000.0 4000.0 4000.0 4000.0 4000.0 4000.0 4000.0 4000.0 4000.0 4000.0 4000.0 4000.0 4000.0 4000.0 4000.0 4000.0 4000.0 4000.0 4000.0 4000.0 4000.0 4000.0 4000.0 4000.0 4000.0 4000.0 4000.0 4000.0 4000.0 4000.0 4000.0 4000.0 4000.0 4000.0 4000.0 4000.0 4000.0 4000.0 4000.0 4000.0 4000.0 4000.0 4000.0 4000.0 4000.0 4000.0 4000.0 4000.0 4000.0 4000.0 4000.0 4000.0 4000.0 4000.0 4000.0 4000.0 4000.0 4000.0 4000.0 4000.0 4000.0 4000.0 4000.0 4000.0 4000.0 4000.0 4000.0 4000.0 4000.0 4000.0 4000.0 4000.0 4000.0 4000.0 4000.0 4000.0 4000.0 4000.0 4000.0 4000.0 4000.0 4000.0 4000.0 4000.0 4000.0 4000.0 4000.0 4000.0 4000.0 4000.0 4000.0 4000.0 4000.0 4000.0 4000.0 4000.0 4000.0 4000.0 4000.0 4000.0 4000.0 4000.0 4000.0 4000.0 4000.0 4000.0 4000.0 4000.0 4000.0 4000.0 4000.0 4000.0 4000.0 4000.0 4000.0 4000.0 4000.0 4000.0 4000.0 4000.0 4000.0 4000.0 4000.0 4000.0 4000.0 4000.0 4000.0 4000.0 4000.0 4000.0 4000.0 4000.0 4000.0 4000.0 4000.0 4000.0 4000.0 4000.0 4000.0 4000.0 4000.0 4000.0 4000.0 4000.0 4000.0 4000.0 4000.0 4000.0 4000.0 4000.0 4000.0 4000.0 4000.0 4000.0 4000.0 4000.0 4000.0 4000.0 4000.0 4000.0 4000.0 4000.0 4000.0 4000.0 4000.0 4000.0 4000.0 4000.0 4000.0 4000.0 4000.0 4000.0 4000.0 4000.0 4000.0 4000.0 4000.0 4000.0 4000.0 4000.0 4000.0 4000.0 4000.0 4000.0 4000.0 4000.0 4000.0 4000.0 4000.0 4000.0 4000.0 4000.0 4000.0 4000.0 4000.0 4000.0 4000.0 4000.0 4000.0 4000.0 4000.0 4000.0 4000.0 4000.0 4000.0 4000.0 4000.0 4000.0 4000.0 4000.0 4000.0 4000.0 4000.0 4000.0 4000.0 4000.0 4000.0 4000.0 4000.0 4000.0 4000.0 4000.0 4000.0 4000.0 4000.0 4000.0 4000.0 4000.0 4000.0 4000.0 4000.0 4000.0 4000.0 4000.0 4000.0 4000.0 4000.0 4000.0 4000.0 4000.0 4000.0 4000.0 4000.0 4000.0 4000.0 4000.0 4000.0 4000.0 4000.0 4000.0 4000.0 4000.0 4000.0 4000.0 4000.0 4000.0 4000.0 4000.0 4000.0 4000.0 4000.0 4000.0 4000.0 4000.0 4000.0 4000.0 4000.0 4000.0 4000.0 4000.0 4000.0 4000.0 4000.0 4000.0 4000.0 4000.0 4000.0 4000.0 4000.0 4000.0 4000.0 4000.0 4000.0 4000.0 4000.0 4000.0 4000.0 4000.0 4000.0 4000.0 4000.0 4000.0 4000.0 4000.0 4000.0 4000.0 4000.0 4000.0 4000.0 4000.0 4000.0 4000.0 4000.0 4000.0 4000.0 4000.0 4000.0 4000.0 4000.0 4000.0 4000.0 4000.0 4000.0 4000.0 4000.0 4000.0 4000.0 4000.0 4000.0 4000.0 4000.0 4000.0 4000.0 4000.0 4000.0 4000.0 4000.0 4000.0 4000.0 4000.0 4000.0 4000.0 4000.0 4000.0 4000.0 4000.0 4000.0 4000.0 4000.0 4000.0 4000.0 4000.0 4000.0 4000.0 4000.0 4000.0 4000.0 4000.0 4000.0 4000.0 4000.0 4000.0 4000.0 4000.0 4000.0 4000.0 4000.0 4000.0 4000.0 4000.0 4000.0 4000.0 4000.0 4000.0 4000.0 4000.0 4000.0 4000.0 4000.0 4000.0 4000.0 4000.0 4000.0 4000.0 4000.0 4000.0 4000.0 4000.0 4000.0 4000.0 4000.0 4000.0 4000.0 4000.0 4000.0 4000.0 4000.0 4000.0 4000.0 4000.0 4000.0 4000.0 4000.0 4000.0 4000.0 4000.0 4000.0 4000.0 4000.0 4000.0 4000.0 4000.0 4000.0 4000.0 4000.0 4000.0 4000.0 4000.0 4000.0 4000.0 4000.0 4000.0 4000.0 4000.0 4000.0 4000.0 4000.0 4000.0 4000.0 4000.0 4000.0 4000.0 4000.0 4000.0 4000.0 4000.0 4000.0 4000.0 4000.0 4000.0 4000.0 4000.0 4000.0 4000.0 4000.0 4000.0 4000.0 4000.0 4000.0 4000.0 4000.0 4000.0 4000.0 4000.0 4000.0 4000.0 4000.0 4000.0 4000.0 4000.0 4000.0 4000.0 4000.0 4000.0 4000.0 4000.0 4000.0 4000.0 4000.0 4000.0 4000.0 4000.0 4000.0 4000.0 4000.0 4000.0 4000.0 4000.0 4000.0 4000.0 4000.0 4000.0 4000.0 4000.0 4000.0 4000.0 4000.0 4000.0 4000.0 4000.0 4000.0 4000.0 4000.0 4000.0 4000.0 4000.0 4000.0 4000.0 4000.0 4000.0 4000.0 4000.0 4000.0 4000.0 4000.0 4000.0 4000.0 4000.0 4000.0 4000.0 4000.0 4000.0 4000.0 4000.0 4000.0 4000.0 4000.0 4000.0 4000.0 4000.0 4000.0 4000.0 4000.0 4000.0 4000.0 4000.0 4000.0 4000.0 4000.0 4000.0 4000.0 4000.0 4000.0 4000.0 4000.0 4000.0 4000.0 4000.0 4000.0 4000.0 4000.0 4000.0 4000.0 4000.0 4000.0 4000.0 4000.0 4000.0 4000.0 4000.0 4000.0 4000.0 4000.0 4000.0 4000.0 4000.0 4000.0 4000.0 4000.0 4000.0 4000.0 4000.0 4000.0 4000.0 4000.0 4000.0 4000.0 4000.0 4000.0 4000.0 4000.0 4000.0 4000.0 4000.0 4000.0 4000.0 4000.0 4000.0 4000.0 4000.0 4000.0 4000.0 4000.0 4000.0 4000.0 4000.0 4000.0 4000.0 4000.0 4000.0 4000.0 4000.0 4000.0 4000.0 4000.0 4000.0 4000.0 4000.0 4000.0 4000.0 4000.0 4000.0 4000.0 4000.0 4000.0 4000.0 4000.0 4000.0 4000.0 4000.0 4000.0 4000.0 4000.0 4000.0 4000.0 4000.0 4000.0 4000.0 4000.0 4000.0 4000.0 4000.0 4000.0 4000.0 4000.0 4000.0 4000.0 4000.0 4000.0 4000.0 4000.0 4000.0 4000.0 4000.0 4000.0 4000.0 4000.0 4000.0 4000.0 4000.0 4000.0 4000.0 4000.0 4000.0 4000.0 4000.0 4000.0 4000.0 4000.0 4000.0 4000.0 4000.0 4000.0 4000.0 4000.0 4000.0 4000.0 4000.0 4000.0 4000.0 4000.0 4000.0 4000.0 4000.0 4000.0 4000.0 4000.0 4000.0 4000.0 4000.0 4000.0 4000.0 4000.0 4000.0 4000.0 4000.0 4000.0 4000.0 4000.0 4000.0 4000.0 4000.0 4000.0 4000.0 4000.0 4000.0 4000.0 4000.0 4000.0 4000.0 4000.0 4000.0 4000.0 4000.0 4000.0 4000.0 4000.0 4000.0 4000.0 4000.0 4000.0 4000.0 4000.0 4000.0 4000.0 4000.0 4000.0 4000.0 4000.0 4000.0 4000.0 4000.0 4000.0 4000.0 4000.0 4000.0 4000.0 4000.0 4000.0 4000.0 4000.0 4000.0 4000.0 4000.0 4000.0 4000.0 4000.0 4000.0 4000.0 4000.0 4000.0 4000.0 4000.0 4000.0 4000.0 4000.0 4000.0 4000.0 4000.0 4000.0 4000.0 4000.0 4000.0 4000.0 4000.0 4000.0 4000.0 4000.0 4000.0 4000.0 4000.0 4000.0 4000.0 4000.0 4000.0 4000.0 4000.0 4000.0 4000.0 4000.0 4000.0 4000.0 4000.0 4000.0 4000.0 4000.0 4000.0 4000.0 4000.0 4000.0 4000.0 4000.0 4000.0 4000.0 4000.0 4000.0 4000.0 4000.0 4000.0 4000.0 4000.0 4000.0 4000.0 4000.0 4000.0 4000.0 4000.0 4000.0 4000.0 4000.0 4000.0 4000.0 4000.0 4000.0 4000.0 4000.0 4000.0 4000.0 4000.0 4000.0 4000.0 4000.0 4000.0 4000.0 4000.0 4000.0 4000.0 4000.0 4000.0 4000.0 4000.0 4000.0 4000.0 4000.0 4000.0 4000.0 4000.0 4000.0 4000.0 4000.0 4000.0 4000.0 4000.0 4000.0 4000.0 4000.0 4000.0 4000.0 4000.0 4000.0 4000.0 4000.0 4000.0 4000.0 4000.0 4000.0 4000.0 4000.0 4000.0 4000.0 4000.0 4000.0 4000.0 4000.0 4000.0 4000.0 4000.0 4000.0 4000.0 4000.0 4000.0 4000.0 4000.0 4000.0 4000.0 4000.0 4000.0 4000.0 4000.0 4000.0 4000.0 4000.0 4000.0 4000.0 4000.0 4000.0 4000.0 4000.0 4000.0 4000.0 4000.0 4000.0 4000.0 4000.0 4000.0 4000.0 4000.0 4000.0 4000.0 4000.0 4000.0 4000.0 4000.0 4000.0 4000.0 4000.0 4000.0 4000.0 4000.0 4000.0 4000.0 4000.0 4000.0 4000.0 4000.0 4000.0 4000.0 4000.0 4000.0 4000.0 4000.0 4000.0 4000.0 4000.0 4000.0 4000.0 4000.0 4000.0 4000.0 4000.0 4000.0 4000.0 4000.0 4000.0 4000.0 4000.0 4000.0 4000.0 4000.0 4000.0 4000.0 4000.0 4000.0 4000.0 4000.0 4000.0 4000.0 4000.0 4000.0 4000.0 4000.0 4000.0 4000.0 4000.0 4000.0 4000.0 4000.0 4000.0 4000.0 4000.0 4000.0 4000.0 4000.0 4000.0 4000.0 4000.0 4000.0 4000.0 4000.0 4000.0 4000.0 4000.0 4000.0 4000.0 4000.0 4000.0 4000.0 4000.0 4000.0 4000.0 4000.0 4000.0 4000.0 4000.0 4000.0 4000.0 4000.0 4000.0 4000.0 4000.0 4000.0 4000.0 4000.0 4000.0 4000.0 4000.0 4000.0 4000.0 4000.0 4000.0 4000.0 4000.0 4000.0 4000.0 4000.0 4000.0 4000.0 4000.0 4000.0 4000.0 4000.0 4000.0 4000.0 4000.0 4000.0 4000.0 4000.0 4000.0 4000.0 4000.0 4000.0 4000.0 4000.0 4000.0 4000.0 4000.0 4000.0 4000.0 4000.0 4000.0 4000.0 4000.0 4000.0 4000.0 4000.0 4000.0 4000.0 4000.0 4000.0 4000.0 4000.0 4000.0 4000.0 4000.0 4000.0 4000.0 4000.0 4000.0 4000.0 4000.0 4000.0 4000.0 4000.0 4000.0 4000.0 4000.0 4000.0 4000.0 4000.0 4000.0 4000.0 4000.0 4000.0 4000.0 4000.0 4000.0 4000.0 4000.0 4000.0 4000.0 4000.0 4000.0 4000.0 4000.0 4000.0 4000.0 4000.0 4000.0 4000.0 4000.0 4000.0 4000.0 4000.0 4000.0 4000.0 4000.0 4000.0 4000.0 4000.0 4000.0 4000.0 4000.0 4000.0 4000.0 4000.0 4000.0 4000.0 4000.0 4000.0 4000.0 4000.0 4000.0 4000.0 4000.0 4000.0 4000.0 4000.0 4000.0 4000.0 4000.0 4000.0 4000.0 4000.0 4000.0 4000.0 4000.0 4000.0 4000.0 4000.0 4000.0 4000.0 4000.0 4000.0 4000.0 4000.0 4000.0 4000.0 4000.0 4000.0 4000.0 4000.0 4000.0 4000.0 4000.0 4000.0 4000.0 4000.0 4000.0 4000.0 4000.0 4000.0 4000.0 4000.0 4000.0 4000.0 4000.0 4000.0 4000.0 4000.0 4000.0 4000.0 4000.0 4000.0 4000.0 4000.0 4000.0 4000.0 4000.0 4000.0 4000.0 4000.0 4000.0 4000.0 4000.0 4000.0 4000.0 4000.0 4000.0 4000.0 4000.0 4000.0 4000.0 4000.0 4000.0 4000.0 4000.0 4000.0 4000.0 4000.0 4000.0 4000.0 4000.0 4000.0 4000.0 4000.0 4000.0 4000.0 4000.0 4000.0 4000.0 4000.0 4000.0 4000.0 4000.0 4000.0 4000.0 4000.0 4000.0 4000.0 4000.0 4000.0 4000.0 4000.0 4000.0 4000.0 4000.0 4000.0 4000.0 4000.0 4000.0 4000.0 4000.0 4000.0 4000.0 4000.0 4000.0 4000.0 4000.0 4000.0 4000.0 4000.0 4000.0 4000.0 4000.0 4000.0 4000.0 4000.0 4000.0 4000.0 4000.0 4000.0 4000.0 4000.0 4000.0 4000.0 4000.0 4000.0 4000.0 4000.0 4000.0 4000.0 4000.0 4000.0 4000.0 4000.0 4000.0 4000.0 4000.0 4000.0 4000.0 4000.0 4000.0 4000.0 4000.0 4000.0 4000.0 4000.0 4000.0 4000.0 4000.0 4000.0 4000.0 4000.0 4000.0 4000.0 4000.0 4000.0 4000.0 4000.0 4000.0 4000.0 4000.0 4000.0 4000.0 4000.0 4000.0 4000.0 4000.0 4000.0 4000.0 4000.0 4000.0 4000.0 4000.0 4000.0 4000.0 4000.0 4000.0 4000.0 4000.0 4000.0 4000.0 4000.0 4000.0 4000.0 4000.0 4000.0 4000.0 4000.0 4000.0 4000.0 4000.0 4000.0 4000.0 4000.0 4000.0 4000.0 4000.0 4000.0 4000.0 4000.0 4000.0 4000.0 4000.0 4000.0 4000.0 4000.0 4000.0 4000.0 4000.0 4000.0 4000.0 4000.0 4000.0 4000.0 4000.0 4000.0 4000.0 4000.0 4000.0 4000.0 4000.0 4000.0 4000.0 4000.0 4000.0 4000.0 4000.0 4000.0 4000.0 4000.0 4000.0 4000.0 4000.0 4000.0 4000.0 4000.0 4000.0 4000.0 4000.0 4000.0 4000.0 4000.0 4000.0 4000.0 4000.0 4000.0 4000.0 4000.0 4000.0 4000.0 4000.0 4000.0 4000.0 4000.0 4000.0 4000.0 4000.0 4000.0 4000.0 4000.0 4000.0 4000.0 4000.0 4000.0 4000.0 4000.0 4000.0 4000.0 4000.0 4000.0 4000.0 4000.0 4000.0 4000.0 4000.0 4000.0 4000.0 4000.0 4000.0 4000.0 4000.0 4000.0 4000.0 4000.0 4000.0 4000.0 4000.0 4000.0 4000.0 4000.0 4000.0 4000.0 4000.0 4000.0 4000.0 4000.0 4000.0 4000.0 4000.0 4000.0 4000.0 4000.0 4000.0 4000.0 4000.0 4000.0 4000.0 4000.0 4000.0 4000.0 4000.0 4000.0 4000.0 4000.0 4000.0 4000.0 4000.0 4000.0 4000.0 4000.0 4000.0 4000.0 4000.0 4000.0 4000.0 4000.0 4000.0 4000.0 4000.0 4000.0 4000.0 4000.0 4000.0 4000.0 4000.0 4000.0 4000.0 4000.0 4000.0 4000.0 4000.0 4000.0 4000.0 4000.0 4000.0 4000.0 4000.0 4000.0 4000.0 4000.0 4000.0 4000.0 4000.0 4000.0 4000.0 4000.0 4000.0 4000.0 4000.0 4000.0 4000.0 4000.0 4000.0 4000.0 4000.0 4000.0 4000.0 4000.0 4000.0 4000.0 4000.0 4000.0 4000.0 4000.0 4000.0 4000.0 4000.0 4000.0 4000.0 4000.0 4000.0 4000.0 4000.0 4000.0 4000.0 4000.0 4000.0 4000.0 4000.0 4000.0 4000.0 4000.0 4000.0 4000.0 4000.0 4000.0 4000.0 4000.0 4000.0 4000.0 4000.0 4000.0 4000.0 4000.0 4000.0 4000.0 4000.0 4000.0 4000.0 4000.0 4000.0 4000.0 4000.0 4000.0 4000.0 4000.0 4000.0 4000.0 4000.0 4000.0 4000.0 4000.0 4000.0 4000.0 4000.0 4000.0 4000.0 4000.0 4000.0 4000.0 4000.0 4000.0 4000.0 4000.0 4000.0 4000.0 4000.0 4000.0 4000.0 4000.0 4000.0 4000.0 4000.0 4000.0 4000.0 4000.0 4000.0 4000.0 4000.0 4000.0 4000.0 4000.0 4000.0 4000.0 4000.0 4000.0 4000.0 4000.0 4000.0 4000.0 4000.0 4000.0 4000.0 4000.0 4000.0 4000.0 4000.0 4000.0 4000.0 4000.0 4000.0 4000.0 4000.0 4000.0 4000.0 4000.0 4000.0 4000.0 4000.0 4000.0 4000.0 4000.0 4000.0 4000.0 4000.0 4000.0 4000.0 4000.0 4000.0 4000.0 4000.0 4000.0 4000.0 4000.0 4000.0 4000.0 4000.0 4000.0 4000.0 4000.0 4000.0 4000.0 4000.0 4000.0 4000.0 4000.0 4000.0 4000.0 4000.0 4000.0 4000.0 4000.0 4000.0 4000.0 4000.0 4000.0 4000.0 4000.0 4000.0 4000.0 4000.0 4000.0 4000.0 4000.0 4000.0 4000.0 4000.0 4000.0 4000.0 4000.0 4000.0 4000.0 4000.0 4000.0 4000.0 4000.0 4000.0 4000.0 4000.0 4000.0 4000.0 4000.0 4000.0 4000.0 4000.0 4000.0 4000.0 4000.0 4000.0 4000.0 4000.0 4000.0 4000.0 4000.0 4000.0 4000.0 4000.0 4000.0 4000.0 4000.0 4000.0 4000.0 4000.0 4000.0 4000.0 4000.0 4000.0 4000.0 4000.0 4000.0 4000.0 4000.0 4000.0 4000.0 4000.0 4000.0 4000.0 4000.0 4000.0 4000.0 4000.0 4000.0 4000.0 4000.0 4000.0 4000.0 4000.0 4000.0 4000.0 4000.0 4000.0 4000.0 4000.0 4000.0 4000.0 4000.0 4000.0 4000.0 4000.0 4000.0 4000.0 4000.0 4000.0 4000.0 4000.0 4000.0 4000.0 4000.0 4000.0 4000.0 4000.0 4000.0 4000.0 4000.0 4000.0 4000.0 4000.0 4000.0 4000.0 4000.0 4000.0 4000.0 4000.0 4000.0 4000.0 4000.0 4000.0 4000.0 4000.0 4000.0 4000.0 4000.0 4000.0 4000.0 4000.0 4000.0 4000.0 4000.0 4000.0 4000.0 4000.0 4000.0 4000.0 4000.0 4000.0 4000.0 4000.0 4000.0 4000.0 4000.0 4000.0 4000.0 4000.0 4000.0 4000.0 4000.0 4000.0 4000.0 4000.0 4000.0 4000.0 4000.0 4000.0 4000.0 4000.0 4000.0 4000.0 4000.0 4000.0 4000.0 4000.0 4000.0 4000.0 4000.0 4000.0 4000.0 4000.0 4000.0 4000.0 4000.0 4000.0 4000.0 4000.0 4000.0 4000.0 4000.0 4000.0 4000.0 4000.0 4000.0 4000.0 4000.0 4000.0 4000.0 4000.0 4000.0 4000.0 4000.0 4000.0 4000.0 4000.0 4000.0 4000.0 4000.0 4000.0 4000.0 4000.0 4000.0 4000.0 4000.0 4000.0 4000.0 4000.0 4000.0 4000.0 4000.0 4000.0 4000.0 4000.0 4000.0 4000.0 4000.0 4000.0 4000.0 4000.0 4000.0 4000.0 4000.0 4000.0 4000.0 4000.0 4000.0 4000.0 4000.0 4000.0 4000.0 4000.0 4000.0 4000.0 4000.0 4000.0 4000.0 4000.0 4000.0 4000.0 4000.0 4000.0 4000.0 4000.0 4000.0 4000.0 4000.0 4000.0 4000.0 4000.0 4000.0 4000.0 4000.0 4000.0 4000.0 4000.0 4000.0 4000.0 4000.0 4000.0 4000.0 4000.0 4000.0 4000.0 4000.0 4000.0 4000.0 4000.0 4000.0 4000.0 4000.0 4000.0 4000.0 4000.0 4000.0 4000.0 4000.0 4000.0 4000.0 4000.0 4000.0 4000.0 4000.0 4000.0 4000.0 4000.0 4000.0 4000.0 4000.0 4000.0 4000.0 4000.0 4000.0 4000.0 4000.0 4000.0 4000.0 4000.0 4000.0 4000.0 4000.0 4000.0 4000.0 4000.0 4000.0 4000.0 4000.0 4000.0 4000.0 4000.0 4000.0 4000.0 4000.0 4000.0 4000.0 4000.0 4000.0 4000.0 4000.0 4000.0 4000.0 4000.0 4000.0 4000.0 4000.0 4000.0 4000.0 4000.0 4000.0 4000.0 4000.0 4000.0 4000.0 4000.0 4000.0 4000.0 4000.0 4000.0 4000.0 4000.0 4000.0 4000.0 4000.0 4000.0 4000.0 4000.0 4000.0 4000.0 4000.0 4000.0 4000.0 4000.0 4000.0 4000.0 4000.0 4000.0 4000.0 4000.0 4000.0 4000.0 4000.0 4000.0 4000.0 4000.0 4000.0 4000.0 4000.0 4000.0 4000.0 4000.0 4000.0 4000.0 4000.0 4000.0 4000.0 4000.0 4000.0 4000.0 4000.0 4000.0 4000.0 4000.0 4000.0 4000.0 4000.0 4000.0 4000.0 4000.0 4000.0 4000.0 4000.0 4000.0 4000.0 4000.0 4000.0 4000.0 4000.0 4000.0 4000.0 4000.0 4000.0 4000.0 4000.0 4000.0 4000.0 4000.0 4000.0 4000.0 4000.0 4000.0 4000.0 4000.0 4000.0 4000.0 4000.0 4000.0 4000.0 4000.0 4000.0 4000.0 4000.0 4000.0 4000.0 4000.0 4000.0 4000.0 4000.0 4000.0 4000.0 4000.0 4000.0 4000.0 4000.0 4000.0 4000.0 4000.0 4000.0 4000.0 4000.0 4000.0 4000.0 4000.0 4000.0 4000.0 4000.0 4000.0 4000.0 4000.0 4000.0 4000.0 4000.0 4000.0 4000.0 4000.0 4000.0 4000.0 4000.0 4000.0 4000.0 4000.0 4000.0 4000.0 4000.0 4000.0 4000.0 4000.0 4000.0 4000.0 4000.0 4000.0 4000.0 4000.0 4000.0 4000.0 4000.0 4000.0 4000.0 4000.0 4000.0 4000.0 4000.0 4000.0 4000.0 4000.0 4000.0 4000.0 4000.0 4000.0 4000.0 4000.0 4000.0 4000.0 4000.0 4000.0 4000.0 4000.0 4000.0 4000.0 4000.0 4000.0 4000.0 4000.0 4000.0 4000.0 4000.0 4000.0 4000.0 4000.0 4000.0 4000.0 4000.0 4000.0 4000.0 4000.0 4000.0 4000.0 4000.0 4000.0 4000.0 4000.0 4000.0 4000.0 4000.0 4000.0 4000.0 4000.0 4000.0 4000.0 4000.0 4000.0 4000.0 4000.0 4000.0 4000.0 4000.0 4000.0 4000.0 4000.0 4000.0 4000.0 4000.0 4000.0 4000.0 4000.0 4000.0 4000.0 4000.0 4000.0 4000.0 4000.0 4000.0 4000.0 4000.0 4000.0 4000.0 4000.0 4000.0 4000.0 4000.0 4000.0 4000.0 4000.0 4000.0 4000.0 4000.0 4000.0 4000.0 4000.0 4000.0 4000.0 4000.0 4000.0 4000.0 4000.0 4000.0 4000.0 4000.0 4000.0 4000.0 4000.0 4000.0 4000.0 4000.0 4000.0 4000.0 4000.0 4000.0 4000.0 4000.0 4000.0 4000.0 4000.0 4000.0 4000.0 4000.0 4000.0 4000.0 4000.0 4000.0 4000.0 4000.0 4000.0 4000.0 4000.0 4000.0 4000.0 4000.0 4000.0 4000.0 4000.0 4000.0 4000.0 4000.0 4000.0 4000.0 4000.0 4000.0 4000.0 4000.0 4000.0 4000.0 4000.0 4000.0 4000.0 4000.0 4000.0 4000.0 4000.0 4000.0 4000.0 4000.0 4000.0 4000.0 4000.0 4000.0 4000.0 4000.0 4000.0 4000.0 4000.0 4000.0 4000.0 4000.0 4000.0 4000.0 4000.0 4000.0 4000.0 4000.0 4000.0 4000.0 4000.0 4000.0 4000.0 4000.0 4000.0 4000.0 4000.0 4000.0 4000.0 4000.0 4000.0 4000.0 4000.0 4000.0 4000.0 4000.0 4000.0 4000.0 4000.0 4000.0 4000.0 4000.0 4000.0 4000.0 4000.0 4000.0 4000.0 4000.0 4000.0 4000.0 4000.0 4000.0 4000.0 4000.0 4000.0 4000.0 4000.0 4000.0 4000.0 4000.0 4000.0 4000.0 4000.0 4000.0 4000.0 4000.0 4000.0 4000.0 4000.0 4000.0 4000.0 4000.0 4000.0 4000.0 4000.0 4000.0 4000.0 4000.0 4000.0 4000.0 4000.0 4000.0 4000.0 4000.0 4000.0 4000.0 4000.0 4000.0 4000.0 4000.0 4000.0 4000.0 4000.0 4000.0 4000.0 4000.0 4000.0 4000.0 4000.0 4000.0 4000.0 4000.0 4000.0 4000.0 4000.0 4000.0 4000.0 4000.0 4000.0 4000.0 4000.0 4000.0 4000.0 4000.0 4000.0 4000.0 4000.0 4000.0 4000.0 4000.0 4000.0 4000.0 4000.0 4000.0 4000.0 4000.0 4000.0 4000.0 4000.0 4000.0 4000.0 4000.0 4000.0 4000.0 4000.0 4000.0 4000.0 4000.0 4000.0 4000.0 4000.0 4000.0 4000.0 4000.0 4000.0 4000.0 4000.0 4000.0 4000.0 4000.0 4000.0 4000.0 4000.0 4000.0 4000.0 4000.0 4000.0 4000.0 4000.0 4000.0 4000.0 4000.0 4000.0 4000.0 4000.0 4000.0 4000.0 4000.0 4000.0 4000.0 4000.0 4000.0 4000.0 4000.0 4000.0 4000.0 4000.0 4000.0 4000.0 4000.0 4000.0 4000.0 4000.0 4000.0 4000.0 4000.0 4000.0 4000.0 4000.0 4000.0 4000.0 4000.0 4000.0 4000.0 4000.0 4000.0 4000.0 4000.0 4000.0 4000.0 4000.0 4000.0 4000.0 4000.0 4000.0 4000.0 4000.0 4000.0 4000.0 4000.0 4000.0 4000.0 4000.0 4000.0 4000.0 4000.0 4000.0 4000.0 4000.0 4000.0 4000.0 4000.0 4000.0 4000.0 4000.0 4000.0 4000.0 4000.0 4000.0 4000.0 4000.0 4000.0 4000.0 4000.0 4000.0 4000.0 4000.0 4000.0 4000.0 4000.0 4000.0 4000.0 4000.0 4000.0 4000.0 4000.0 4000.0 4000.0 4000.0 4000.0 4000.0 4000.0 4000.0 4000.0 4000.0 4000.0 4000.0 4000.0 4000.0 4000.0 4000.0 4000.0 4000.0 4000.0 4000.0 4000.0 4000.0 4000.0 4000.0 4000.0 4000.0 4000.0 4000.0 4000.0 4000.0 4000.0 4000.0 4000.0 4000.0 4000.0 4000.0 4000.0 4000.0 4000.0 4000.0 4000.0 4000.0 4000.0 4000.0 4000.0 4000.0 4000.0 4000.0 4000.0 4000.0 4000.0 4000.0 4000.0 4000.0 4000.0 4000.0 4000.0 4000.0 4000.0 4000.0 4000.0 4000.0 4000.0 4000.0 4000.0 4000.0 4000.0 4000.0 4000.0 4000.0 4000.0 4000.0 4000.0 4000.0 4000.0 4000.0 4000.0 4000.0 4000.0 4000.0 4000.0 4000.0 4000.0 4000.0 4000.0 4000.0 4000.0 4000.0 4000.0 4000.0 4000.0 4000.0 4000.0 4000.0 4000.0 4000.0 4000.0 4000.0 4000.0 4000.0 4000.0 4000.0 4000.0 4000.0 4000.0 4000.0 4000.0 4000.0 4000.0 4000.0 4000.0 4000.0 4000.0 4000.0 4000.0 4000.0 4000.0 4000.0 4000.0 4000.0 4000.0 4000.0 4000.0 4000.0 4000.0 4000.0 4000.0 4000.0 4000.0 4000.0 4000.0 4000.0 4000.0 4000.0 4000.0 4000.0 4000.0 4000.0 4000.0 4000.0 4000.0 4000.0 4000.0 4000.0 4000.0 4000.0 4000.0 4000.0 4000.0 4000.0 4000.0 4000.0 4000.0 4000.0 4000.0 4000.0 4000.0 4000.0 4000.0 4000.0 4000.0 4000.0 4000.0 4000.0 4000.0 4000.0 4000.0 4000.0 4000.0 4000.0 4000.0 4000.0 4000.0 4000.0 4000.0 4000.0 4000.0 4000.0 4000.0 4000.0 4000.0 4000.0 4000.0 4000.0 4000.0 4000.0 4000.0 4000.0 4000.0 4000.0 4000.0 4000.0 4000.0 4000.0 4000.0 4000.0 4000.0 4000.0 4000.0 4000.0 4000.0 4000.0 4000.0 4000.0 4000.0 4000.0 4000.0 4000.0 4000.0 4000.0 4000.0 4000.0 4000.0 4000.0 4000.0 4000.0 4000.0 4000.0 4000.0 4000.0 4000.0 4000.0 4000.0 4000.0 4000.0 4000.0 4000.0 4000.0 4000.0 4000.0 4000.0 4000.0 4000.0 4000.0 4000.0 4000.0 4000.0 4000.0 4000.0 4000.0 4000.0 4000.0 4000.0 4000.0 4000.0 4000.0 4000.0 4000.0 4000.0 4000.0 4000.0 4000.0 4000.0 4000.0 4000.0 4000.0 4000.0 4000.0 4000.0 4000.0 4000.0 4000.0 4000.0 4000.0 4000.0 4000.0 4000.0 4000.0 4000.0 4000.0 4000.0 4000.0 4000.0 4000.0 4000.0 4000.0 4000.0 4000.0 4000.0 4000.0 4000.0 4000.0 4000.0 4000.0 4000.0 4000.0 4000.0 4000.0 4000.0 4000.0 4000.0 4000.0 4000.0 4000.0 4000.0 4000.0 4000.0 4000.0 4000.0 4000.0 4000.0 4000.0 4000.0 4000.0 4000.0 4000.0 4000.0 4000.0 4000.0 4000.0 4000.0 4000.0 4000.0 4000.0 4000.0 4000.0 4000.0 4000.0 4000.0 4000.0 4000.0 4000.0 4000.0 4000.0 4000.0 4000.0 4000.0 4000.0 4000.0 4000.0 4000.0 4000.0 4000.0 4000.0 4000.0 4000.0 4000.0 4000.0 4000.0 4000.0 4000.0 4000.0 4000.0 4000.0 4000.0 4000.0 4000.0 4000.0 4000.0 4000.0 4000.0 4000.0 4000.0 4000.0 4000.0 4000.0 4000.0 4000.0 4000.0 4000.0 4000.0 4000.0 4000.0 4000.0 4000.0 4000.0 4000.0 4000.0 4000.0 4000.0 4000.0 4000.0 4000.0 4000.0 4000.0 4000.0 4000.0 4000.0 4000.0 4000.0 4000.0 4000.0 4000.0 4000.0 4000.0 4000.0 4000.0 4000.0 4000.0 4000.0 4000.0 4000.0 4000.0 4000.0 4000.0 4000.0 4000.0 4000.0 4000.0 4000.0 4000.0 4000.0 4000.0 4000.0 4000.0 4000.0 4000.0 4000.0 4000.0 4000.0 4000.0 4000.0 4000.0 4000.0 4000.0 4000.0 4000.0 4000.0 4000.0 4000.0 4000.0 4000.0 4000.0 4000.0 4000.0 4000.0 4000.0 4000.0 4000.0 4000.0 4000.0 4000.0 4000.0 4000.0 4000.0 4000.0 4000.0 4000.0 4000.0 4000.0 4000.0 4000.0 4000.0 4000.0 4000.0 4000.0 4000.0 4000.0 4000.0 4000.0 4000.0 4000.0 4000.0 4000.0 4000.0 4000.0 4000.0 4000.0 4000.0 4000.0 4000.0 4000.0 4000.0 4000.0 4000.0 4000.0 4000.0 4000.0 4000.0 4000.0 4000.0 4000.0 4000.0 4000.0 4000.0 4000.0 4000.0 4000.0 4000.0 4000.0 4000.0 4000.0 4000.0 4000.0 4000.0 4000.0 4000.0 4000.0 4000.0 4000.0 4000.0 4000.0 4000.0 4000.0 4000.0 4000.0 4000.0 4000.0 4000.0 4000.0 4000.0 4000.0 4000.0 4000.0 4000.0 4000.0 4000.0 4000.0 4000.0 4000.0 4000.0 4000.0 4000.0 4000.0 4000.0 4000.0 4000.0 4000.0 4000.0 4000.0 4000.0 4000.0 4000.0 4000.0 4000.0 4000.0 4000.0 4000.0 4000.0 4000.0 4000.0 4000.0 4000.0 4000.0 4000.0 4000.0 4000.0 4000.0 4000.0 4000.0 4000.0 4000.0 4000.0 4000.0 4000.0 4000.0 4000.0 4000.0 4000.0 4000.0 4000.0 4000.0 4000.0 4000.0 4000.0 4000.0 4000.0 4000.0 4000.0 4000.0 4000.0 4000.0 4000.0 4000.0 4000.0 4000.0 4000.0 4000.0 4000.0 4000.0 4000.0 4000.0 4000.0 4000.0 4000.0 4000.0 4000.0 4000.0 4000.0 4000.0 4000.0 4000.0 4000.0 4000.0 4000.0 4000.0 4000.0 4000.0 4000.0 4000.0 4000.0 4000.0 4000.0 4000.0 4000.0 4000.0 4000.0 4000.0 4000.0 4000.0 4000.0 4000.0 4000.0 4000.0 4000.0 4000.0 4000.0 4000.0 4000.0 4000.0 4000.0 4000.0 4000.0 4000.0 4000.0 4000.0 4000.0 4000.0 4000.0 4000.0 4000.0 4000.0 4000.0 4000.0 4000.0 4000.0 4000.0 4000.0 4000.0 4000.0 4000.0 4000.0 4000.0 4000.0 4000.0 4000.0 4000.0 4000.0 4000.0 4000.0 4000.0 4000.0 4000.0 4000.0 4000.0 4000.0 4000.0 4000.0 4000.0 4000.0 4000.0 4000.0 4000.0 4000.0 4000.0 4000.0 4000.0 4000.0 4000.0 4000.0 4000.0 4000.0 4000.0 4000.0 4000.0 4000.0 4000.0 4000.0 4000.0 4000.0 4000.0 4000.0 4000.0 4000.0 4000.0 4000.0 4000.0 4000.0 4000.0 4000.0 4000.0 4000.0 4000.0 4000.0 4000.0 4000.0 4000.0 4000.0 4000.0 4000.0 4000.0 4000.0 4000.0 4000.0 4000.0 4000.0 4000.0 4000.0 4000.0 4000.0 4000.0 4000.0 4000.0 4000.0 4000.0 4000.0 4000.0 4000.0 4000.0 4000.0 4000.0 4000.0 4000.0 4000.0 4000.0 4000.0 4000.0 4000.0 4000.0 4000.0 4000.0 4000.0 4000.0 4000.0 4000.0 4000.0 4000.0 4000.0 4000.0 4000.0 4000.0 4000.0 4000.0 4000.0 4000.0 4000.0 4000.0 4000.0 4000.0 4000.0 4000.0 4000.0 4000.0 4000.0 4000.0 4000.0 4000.0 4000.0 4000.0 4000.0 4000.0 4000.0 4000.0 4000.0 4000.0 4000.0 4000.0 4000.0 4000.0 4000.0 4000.0 4000.0 4000.0 4000.0 4000.0 4000.0 4000.0 4000.0 4000.0 4000.0 4000.0 4000.0 4000.0 4000.0 4000.0 4000.0 4000.0 4000.0 4000.0 4000.0 4000.0 4000.0 4000.0 4000.0 4000.0 4000.0 4000.0 4000.0 4000.0 4000.0 4000.0 4000.0 4000.0 4000.0 4000.0 4000.0 4000.0 4000.0 4000.0 4000.0 4000.0 4000.0 4000.0 4000.0 4000.0 4000.0 4000.0 4000.0 4000.0 4000.0 4000.0 4000.0 4000.0 4000.0 4000.0 4000.0 4000.0 4000.0 4000.0 4000.0 4000.0 4000.0 4000.0 4000.0 4000.0 4000.0 4000.0 4000.0 4000.0 4000.0 4000.0 4000.0 4000.0 4000.0 4000.0 4000.0 4000.0 4000.0 4000.0 4000.0 4000.0 4000.0 4000.0 4000.0 4000.0 4000.0 4000.0 4000.0 4000.0 4000.0 4000.0 4000.0 4000.0 4000.0 4000.0 4000.0 4000.0 4000.0 4000.0 4000.0 4000.0 4000.0 4000.0 4000.0 4000.0 4000.0 4000.0 4000.0 4000.0 4000.0 4000.0 4000.0 4000.0 4000.0 4000.0 4000.0 4000.0 4000.0 4000.0 4000.0 4000.0 4000.0 4000.0 4000.0 4000.0 4000.0 4000.0 4000.0 4000.0 4000.0 4000.0 4000.0 4000.0 4000.0 4000.0 4000.0 4000.0 4000.0 4000.0 4000.0 4000.0 4000.0 4000.0 4000.0 4000.0 4000.0 4000.0 4000.0 4000.0 4000.0 4000.0 4000.0 4000.0 4000.0 4000.0 4000.0 4000.0 4000.0 4000.0 4000.0 4000.0 4000.0 4000.0 4000.0 4000.0 4000.0 4000.0 4000.0 4000.0 4000.0 4000.0 4000.0 4000.0 4000.0 4000.0 4000.0 4000.0 4000.0 4000.0 4000.0 4000.0 4000.0 4000.0 4000.0 4000.0 4000.0 4000.0 4000.0 4000.0 4000.0 4000.0 4000.0 4000.0 4000.0 4000.0 4000.0 4000.0 4000.0 4000.0 4000.0 4000.0 4000.0 4000.0 4000.0 4000.0 4000.0 4000.0 4000.0 4000.0 4000.0 4000.0 4000.0 4000.0 4000.0 4000.0 4000.0 4000.0 4000.0 4000.0 4000.0 4000.0 4000.0 4000.0 4000.0 4000.0 4000.0 4000.0 4000.0 4000.0 4000.0 4000.0 4000.0 4000.0 4000.0 4000.0 4000.0 4000.0 4000.0 4000.0 4000.0 4000.0 4000.0 4000.0 4000.0 4000.0 4000.0 4000.0 4000.0 SCALARS Mass float 1
LOOKUP_TABLE default
11309700000.0 11309700000.0 11309700000.0 11309700000.0 11309700000.0 11309700000.0 11309700000.0 11309700000.0 11309700000.0 11309700000.0 11309700000.0 11309700000.0 11309700000.0 11309700000.0 11309700000.0 11309700000.0 11309700000.0 11309700000.0 11309700000.0 11309700000.0 11309700000.0 11309700000.0 11309700000.0 11309700000.0 11309700000.0 11309700000.0 11309700000.0 11309700000.0 11309700000.0 11309700000.0 11309700000.0 11309700000.0 11309700000.0 11309700000.0 11309700000.0 11309700000.0 11309700000.0 11309700000.0 11309700000.0 11309700000.0 11309700000.0 11309700000.0 11309700000.0 11309700000.0 11309700000.0 11309700000.0 11309700000.0 11309700000.0 11309700000.0 11309700000.0 11309700000.0 11309700000.0 11309700000.0 11309700000.0 11309700000.0 11309700000.0 11309700000.0 11309700000.0 11309700000.0 11309700000.0 11309700000.0 11309700000.0 11309700000.0 11309700000.0 11309700000.0 11309700000.0 11309700000.0 11309700000.0 11309700000.0 11309700000.0 11309700000.0 11309700000.0 11309700000.0 11309700000.0 11309700000.0 11309700000.0 11309700000.0 11309700000.0 11309700000.0 11309700000.0 11309700000.0 11309700000.0 11309700000.0 11309700000.0 11309700000.0 11309700000.0 11309700000.0 11309700000.0 11309700000.0 11309700000.0 11309700000.0 11309700000.0 11309700000.0 11309700000.0 11309700000.0 11309700000.0 11309700000.0 11309700000.0 11309700000.0 11309700000.0 11309700000.0 11309700000.0 11309700000.0 11309700000.0 11309700000.0 11309700000.0 11309700000.0 11309700000.0 11309700000.0 11309700000.0 11309700000.0 11309700000.0 11309700000.0 11309700000.0 11309700000.0 11309700000.0 11309700000.0 11309700000.0 11309700000.0 11309700000.0 11309700000.0 11309700000.0 11309700000.0 11309700000.0 11309700000.0 11309700000.0 11309700000.0 11309700000.0 11309700000.0 11309700000.0 11309700000.0 11309700000.0 11309700000.0 11309700000.0 11309700000.0 11309700000.0 11309700000.0 11309700000.0 11309700000.0 11309700000.0 11309700000.0 11309700000.0 11309700000.0 11309700000.0 11309700000.0 11309700000.0 11309700000.0 11309700000.0 11309700000.0 11309700000.0 11309700000.0 11309700000.0 11309700000.0 11309700000.0 11309700000.0 11309700000.0 11309700000.0 11309700000.0 11309700000.0 11309700000.0 11309700000.0 11309700000.0 11309700000.0 11309700000.0 11309700000.0 11309700000.0 11309700000.0 11309700000.0 11309700000.0 11309700000.0 11309700000.0 11309700000.0 11309700000.0 11309700000.0 11309700000.0 11309700000.0 11309700000.0 11309700000.0 11309700000.0 11309700000.0 11309700000.0 11309700000.0 11309700000.0 11309700000.0 11309700000.0 11309700000.0 11309700000.0 11309700000.0 11309700000.0 11309700000.0 11309700000.0 11309700000.0 11309700000.0 11309700000.0 11309700000.0 11309700000.0 11309700000.0 11309700000.0 11309700000.0 11309700000.0 11309700000.0 11309700000.0 11309700000.0 11309700000.0 11309700000.0 11309700000.0 11309700000.0 11309700000.0 11309700000.0 11309700000.0 11309700000.0 11309700000.0 11309700000.0 11309700000.0 11309700000.0 11309700000.0 11309700000.0 11309700000.0 11309700000.0 11309700000.0 11309700000.0 11309700000.0 11309700000.0 11309700000.0 11309700000.0 11309700000.0 11309700000.0 11309700000.0 11309700000.0 11309700000.0 11309700000.0 11309700000.0 11309700000.0 11309700000.0 11309700000.0 11309700000.0 11309700000.0 11309700000.0 11309700000.0 11309700000.0 11309700000.0 11309700000.0 11309700000.0 11309700000.0 11309700000.0 11309700000.0 11309700000.0 11309700000.0 11309700000.0 11309700000.0 11309700000.0 11309700000.0 11309700000.0 11309700000.0 11309700000.0 11309700000.0 11309700000.0 11309700000.0 11309700000.0 11309700000.0 11309700000.0 11309700000.0 11309700000.0 11309700000.0 11309700000.0 11309700000.0 11309700000.0 11309700000.0 11309700000.0 11309700000.0 11309700000.0 11309700000.0 11309700000.0 11309700000.0 11309700000.0 11309700000.0 11309700000.0 11309700000.0 11309700000.0 11309700000.0 11309700000.0 11309700000.0 11309700000.0 11309700000.0 11309700000.0 11309700000.0 11309700000.0 11309700000.0 11309700000.0 11309700000.0 11309700000.0 11309700000.0 11309700000.0 11309700000.0 11309700000.0 11309700000.0 11309700000.0 11309700000.0 11309700000.0 11309700000.0 11309700000.0 11309700000.0 11309700000.0 11309700000.0 11309700000.0 11309700000.0 11309700000.0 11309700000.0 11309700000.0 11309700000.0 11309700000.0 11309700000.0 11309700000.0 11309700000.0 11309700000.0 11309700000.0 11309700000.0 11309700000.0 11309700000.0 11309700000.0 11309700000.0 11309700000.0 11309700000.0 11309700000.0 11309700000.0 11309700000.0 11309700000.0 11309700000.0 11309700000.0 11309700000.0 11309700000.0 11309700000.0 11309700000.0 11309700000.0 11309700000.0 11309700000.0 11309700000.0 11309700000.0 11309700000.0 11309700000.0 11309700000.0 11309700000.0 11309700000.0 11309700000.0 11309700000.0 11309700000.0 11309700000.0 11309700000.0 11309700000.0 11309700000.0 11309700000.0 11309700000.0 11309700000.0 11309700000.0 11309700000.0 11309700000.0 11309700000.0 11309700000.0 11309700000.0 11309700000.0 11309700000.0 11309700000.0 11309700000.0 11309700000.0 11309700000.0 11309700000.0 11309700000.0 11309700000.0 11309700000.0 11309700000.0 11309700000.0 11309700000.0 11309700000.0 11309700000.0 11309700000.0 11309700000.0 11309700000.0 11309700000.0 11309700000.0 11309700000.0 11309700000.0 11309700000.0 11309700000.0 11309700000.0 11309700000.0 11309700000.0 11309700000.0 11309700000.0 11309700000.0 11309700000.0 11309700000.0 11309700000.0 11309700000.0 11309700000.0 11309700000.0 11309700000.0 11309700000.0 11309700000.0 11309700000.0 11309700000.0 11309700000.0 11309700000.0 11309700000.0 11309700000.0 11309700000.0 11309700000.0 11309700000.0 11309700000.0 11309700000.0 11309700000.0 11309700000.0 11309700000.0 11309700000.0 11309700000.0 11309700000.0 11309700000.0 11309700000.0 11309700000.0 11309700000.0 11309700000.0 11309700000.0 11309700000.0 11309700000.0 11309700000.0 11309700000.0 11309700000.0 11309700000.0 11309700000.0 11309700000.0 11309700000.0 11309700000.0 11309700000.0 11309700000.0 11309700000.0 11309700000.0 11309700000.0 11309700000.0 11309700000.0 11309700000.0 11309700000.0 11309700000.0 11309700000.0 11309700000.0 11309700000.0 11309700000.0 11309700000.0 11309700000.0 11309700000.0 11309700000.0 11309700000.0 11309700000.0 11309700000.0 11309700000.0 11309700000.0 11309700000.0 11309700000.0 11309700000.0 11309700000.0 11309700000.0 11309700000.0 11309700000.0 11309700000.0 11309700000.0 11309700000.0 11309700000.0 11309700000.0 11309700000.0 11309700000.0 11309700000.0 11309700000.0 11309700000.0 11309700000.0 11309700000.0 11309700000.0 11309700000.0 11309700000.0 11309700000.0 11309700000.0 11309700000.0 11309700000.0 11309700000.0 11309700000.0 11309700000.0 11309700000.0 11309700000.0 11309700000.0 11309700000.0 11309700000.0 11309700000.0 11309700000.0 11309700000.0 11309700000.0 11309700000.0 11309700000.0 11309700000.0 11309700000.0 11309700000.0 11309700000.0 11309700000.0 11309700000.0 11309700000.0 11309700000.0 11309700000.0 11309700000.0 11309700000.0 11309700000.0 11309700000.0 11309700000.0 11309700000.0 11309700000.0 11309700000.0 11309700000.0 11309700000.0 11309700000.0 11309700000.0 11309700000.0 11309700000.0 11309700000.0 11309700000.0 11309700000.0 11309700000.0 11309700000.0 11309700000.0 11309700000.0 11309700000.0 11309700000.0 11309700000.0 11309700000.0 11309700000.0 11309700000.0 11309700000.0 11309700000.0 11309700000.0 11309700000.0 11309700000.0 11309700000.0 11309700000.0 11309700000.0 11309700000.0 11309700000.0 11309700000.0 11309700000.0 11309700000.0 11309700000.0 11309700000.0 11309700000.0 11309700000.0 11309700000.0 11309700000.0 11309700000.0 11309700000.0 11309700000.0 11309700000.0 11309700000.0 11309700000.0 11309700000.0 11309700000.0 11309700000.0 11309700000.0 11309700000.0 11309700000.0 11309700000.0 11309700000.0 11309700000.0 11309700000.0 11309700000.0 11309700000.0 11309700000.0 11309700000.0 11309700000.0 11309700000.0 11309700000.0 11309700000.0 11309700000.0 11309700000.0 11309700000.0 11309700000.0 11309700000.0 11309700000.0 11309700000.0 11309700000.0 11309700000.0 11309700000.0 11309700000.0 11309700000.0 11309700000.0 11309700000.0 11309700000.0 11309700000.0 11309700000.0 11309700000.0 11309700000.0 11309700000.0 11309700000.0 11309700000.0 11309700000.0 11309700000.0 11309700000.0 11309700000.0 11309700000.0 11309700000.0 11309700000.0 11309700000.0 11309700000.0 11309700000.0 11309700000.0 11309700000.0 11309700000.0 11309700000.0 11309700000.0 11309700000.0 11309700000.0 11309700000.0 11309700000.0 11309700000.0 11309700000.0 11309700000.0 11309700000.0 11309700000.0 11309700000.0 11309700000.0 11309700000.0 11309700000.0 11309700000.0 11309700000.0 11309700000.0 11309700000.0 11309700000.0 11309700000.0 11309700000.0 11309700000.0 11309700000.0 11309700000.0 11309700000.0 11309700000.0 11309700000.0 11309700000.0 11309700000.0 11309700000.0 11309700000.0 11309700000.0 11309700000.0 11309700000.0 11309700000.0 11309700000.0 11309700000.0 11309700000.0 11309700000.0 11309700000.0 11309700000.0 11309700000.0 11309700000.0 11309700000.0 11309700000.0 11309700000.0 11309700000.0 11309700000.0 11309700000.0 11309700000.0 11309700000.0 11309700000.0 11309700000.0 11309700000.0 11309700000.0 11309700000.0 11309700000.0 11309700000.0 11309700000.0 11309700000.0 11309700000.0 11309700000.0 11309700000.0 11309700000.0 11309700000.0 11309700000.0 11309700000.0 11309700000.0 11309700000.0 11309700000.0 11309700000.0 11309700000.0 11309700000.0 11309700000.0 11309700000.0 11309700000.0 11309700000.0 11309700000.0 11309700000.0 11309700000.0 11309700000.0 11309700000.0 11309700000.0 11309700000.0 11309700000.0 11309700000.0 11309700000.0 11309700000.0 11309700000.0 11309700000.0 11309700000.0 11309700000.0 11309700000.0 11309700000.0 11309700000.0 11309700000.0 11309700000.0 11309700000.0 11309700000.0 11309700000.0 11309700000.0 11309700000.0 11309700000.0 11309700000.0 11309700000.0 11309700000.0 11309700000.0 11309700000.0 11309700000.0 11309700000.0 11309700000.0 11309700000.0 11309700000.0 11309700000.0 11309700000.0 11309700000.0 11309700000.0 11309700000.0 11309700000.0 11309700000.0 11309700000.0 11309700000.0 11309700000.0 11309700000.0 11309700000.0 11309700000.0 11309700000.0 11309700000.0 11309700000.0 11309700000.0 11309700000.0 11309700000.0 11309700000.0 11309700000.0 11309700000.0 11309700000.0 11309700000.0 11309700000.0 11309700000.0 11309700000.0 11309700000.0 11309700000.0 11309700000.0 11309700000.0 11309700000.0 11309700000.0 11309700000.0 11309700000.0 11309700000.0 11309700000.0 11309700000.0 11309700000.0 11309700000.0 11309700000.0 11309700000.0 11309700000.0 11309700000.0 11309700000.0 11309700000.0 11309700000.0 11309700000.0 11309700000.0 11309700000.0 11309700000.0 11309700000.0 11309700000.0 11309700000.0 11309700000.0 11309700000.0 11309700000.0 11309700000.0 11309700000.0 11309700000.0 11309700000.0 11309700000.0 11309700000.0 11309700000.0 11309700000.0 11309700000.0 11309700000.0 11309700000.0 11309700000.0 11309700000.0 11309700000.0 11309700000.0 11309700000.0 11309700000.0 11309700000.0 11309700000.0 11309700000.0 11309700000.0 11309700000.0 11309700000.0 11309700000.0 11309700000.0 11309700000.0 11309700000.0 11309700000.0 11309700000.0 11309700000.0 11309700000.0 11309700000.0 11309700000.0 11309700000.0 11309700000.0 11309700000.0 11309700000.0 11309700000.0 11309700000.0 11309700000.0 11309700000.0 11309700000.0 11309700000.0 11309700000.0 11309700000.0 11309700000.0 11309700000.0 11309700000.0 11309700000.0 11309700000.0 11309700000.0 11309700000.0 11309700000.0 11309700000.0 11309700000.0 11309700000.0 11309700000.0 11309700000.0 11309700000.0 11309700000.0 11309700000.0 11309700000.0 11309700000.0 11309700000.0 11309700000.0 11309700000.0 11309700000.0 11309700000.0 11309700000.0 11309700000.0 11309700000.0 11309700000.0 11309700000.0 11309700000.0 11309700000.0 11309700000.0 11309700000.0 11309700000.0 11309700000.0 11309700000.0 11309700000.0 11309700000.0 11309700000.0 11309700000.0 11309700000.0 11309700000.0 11309700000.0 11309700000.0 11309700000.0 11309700000.0 11309700000.0 11309700000.0 11309700000.0 11309700000.0 11309700000.0 11309700000.0 11309700000.0 11309700000.0 11309700000.0 11309700000.0 11309700000.0 11309700000.0 11309700000.0 11309700000.0 11309700000.0 11309700000.0 11309700000.0 11309700000.0 11309700000.0 11309700000.0 11309700000.0 11309700000.0 11309700000.0 11309700000.0 11309700000.0 11309700000.0 11309700000.0 11309700000.0 11309700000.0 11309700000.0 11309700000.0 11309700000.0 11309700000.0 11309700000.0 11309700000.0 11309700000.0 11309700000.0 11309700000.0 11309700000.0 11309700000.0 11309700000.0 11309700000.0 11309700000.0 11309700000.0 11309700000.0 11309700000.0 11309700000.0 11309700000.0 11309700000.0 11309700000.0 11309700000.0 11309700000.0 11309700000.0 11309700000.0 11309700000.0 11309700000.0 11309700000.0 11309700000.0 11309700000.0 11309700000.0 11309700000.0 11309700000.0 11309700000.0 11309700000.0 11309700000.0 11309700000.0 11309700000.0 11309700000.0 11309700000.0 11309700000.0 11309700000.0 11309700000.0 11309700000.0 11309700000.0 11309700000.0 11309700000.0 11309700000.0 11309700000.0 11309700000.0 11309700000.0 11309700000.0 11309700000.0 11309700000.0 11309700000.0 11309700000.0 11309700000.0 11309700000.0 11309700000.0 11309700000.0 11309700000.0 11309700000.0 11309700000.0 11309700000.0 11309700000.0 11309700000.0 11309700000.0 11309700000.0 11309700000.0 11309700000.0 11309700000.0 11309700000.0 11309700000.0 11309700000.0 11309700000.0 11309700000.0 11309700000.0 11309700000.0 11309700000.0 11309700000.0 11309700000.0 11309700000.0 11309700000.0 11309700000.0 11309700000.0 11309700000.0 11309700000.0 11309700000.0 11309700000.0 11309700000.0 11309700000.0 11309700000.0 11309700000.0 11309700000.0 11309700000.0 11309700000.0 11309700000.0 11309700000.0 11309700000.0 11309700000.0 11309700000.0 11309700000.0 11309700000.0 11309700000.0 11309700000.0 11309700000.0 11309700000.0 11309700000.0 11309700000.0 11309700000.0 11309700000.0 11309700000.0 11309700000.0 11309700000.0 11309700000.0 11309700000.0 11309700000.0 11309700000.0 11309700000.0 11309700000.0 11309700000.0 11309700000.0 11309700000.0 11309700000.0 11309700000.0 11309700000.0 11309700000.0 11309700000.0 11309700000.0 11309700000.0 11309700000.0 11309700000.0 11309700000.0 11309700000.0 11309700000.0 11309700000.0 11309700000.0 11309700000.0 11309700000.0 11309700000.0 11309700000.0 11309700000.0 11309700000.0 11309700000.0 11309700000.0 11309700000.0 11309700000.0 11309700000.0 11309700000.0 11309700000.0 11309700000.0 11309700000.0 11309700000.0 11309700000.0 11309700000.0 11309700000.0 11309700000.0 11309700000.0 11309700000.0 11309700000.0 11309700000.0 11309700000.0 11309700000.0 11309700000.0 11309700000.0 11309700000.0 11309700000.0 11309700000.0 11309700000.0 11309700000.0 11309700000.0 11309700000.0 11309700000.0 11309700000.0 11309700000.0 11309700000.0 11309700000.0 11309700000.0 11309700000.0 11309700000.0 11309700000.0 11309700000.0 11309700000.0 11309700000.0 11309700000.0 11309700000.0 11309700000.0 11309700000.0 11309700000.0 11309700000.0 11309700000.0 11309700000.0 11309700000.0 11309700000.0 11309700000.0 11309700000.0 11309700000.0 11309700000.0 11309700000.0 11309700000.0 11309700000.0 11309700000.0 11309700000.0 11309700000.0 11309700000.0 11309700000.0 11309700000.0 11309700000.0 11309700000.0 11309700000.0 11309700000.0 11309700000.0 11309700000.0 11309700000.0 11309700000.0 11309700000.0 11309700000.0 11309700000.0 11309700000.0 11309700000.0 11309700000.0 11309700000.0 11309700000.0 11309700000.0 11309700000.0 11309700000.0 11309700000.0 11309700000.0 11309700000.0 11309700000.0 11309700000.0 11309700000.0 11309700000.0 11309700000.0 11309700000.0 11309700000.0 11309700000.0 11309700000.0 11309700000.0 11309700000.0 11309700000.0 11309700000.0 11309700000.0 11309700000.0 11309700000.0 11309700000.0 11309700000.0 11309700000.0 11309700000.0 11309700000.0 11309700000.0 11309700000.0 11309700000.0 11309700000.0 11309700000.0 11309700000.0 11309700000.0 11309700000.0 11309700000.0 11309700000.0 11309700000.0 11309700000.0 11309700000.0 11309700000.0 11309700000.0 11309700000.0 11309700000.0 11309700000.0 11309700000.0 11309700000.0 11309700000.0 11309700000.0 11309700000.0 11309700000.0 11309700000.0 11309700000.0 11309700000.0 11309700000.0 11309700000.0 11309700000.0 11309700000.0 11309700000.0 11309700000.0 11309700000.0 11309700000.0 11309700000.0 11309700000.0 11309700000.0 11309700000.0 11309700000.0 11309700000.0 11309700000.0 11309700000.0 11309700000.0 11309700000.0 11309700000.0 11309700000.0 11309700000.0 11309700000.0 11309700000.0 11309700000.0 11309700000.0 11309700000.0 11309700000.0 11309700000.0 11309700000.0 11309700000.0 11309700000.0 11309700000.0 11309700000.0 11309700000.0 11309700000.0 11309700000.0 11309700000.0 11309700000.0 11309700000.0 11309700000.0 11309700000.0 11309700000.0 11309700000.0 11309700000.0 11309700000.0 11309700000.0 11309700000.0 11309700000.0 11309700000.0 11309700000.0 11309700000.0 11309700000.0 11309700000.0 11309700000.0 11309700000.0 11309700000.0 11309700000.0 11309700000.0 11309700000.0 11309700000.0 11309700000.0 11309700000.0 11309700000.0 11309700000.0 11309700000.0 11309700000.0 11309700000.0 11309700000.0 11309700000.0 11309700000.0 11309700000.0 11309700000.0 11309700000.0 11309700000.0 11309700000.0 11309700000.0 11309700000.0 11309700000.0 11309700000.0 11309700000.0 11309700000.0 11309700000.0 11309700000.0 11309700000.0 11309700000.0 11309700000.0 11309700000.0 11309700000.0 11309700000.0 11309700000.0 11309700000.0 11309700000.0 11309700000.0 11309700000.0 11309700000.0 11309700000.0 11309700000.0 11309700000.0 11309700000.0 11309700000.0 11309700000.0 11309700000.0 11309700000.0 11309700000.0 11309700000.0 11309700000.0 11309700000.0 11309700000.0 11309700000.0 11309700000.0 11309700000.0 11309700000.0 11309700000.0 11309700000.0 11309700000.0 11309700000.0 11309700000.0 11309700000.0 11309700000.0 11309700000.0 11309700000.0 11309700000.0 11309700000.0 11309700000.0 11309700000.0 11309700000.0 11309700000.0 11309700000.0 11309700000.0 11309700000.0 11309700000.0 11309700000.0 11309700000.0 11309700000.0 11309700000.0 11309700000.0 11309700000.0 11309700000.0 11309700000.0 11309700000.0 11309700000.0 11309700000.0 11309700000.0 11309700000.0 11309700000.0 11309700000.0 11309700000.0 11309700000.0 11309700000.0 11309700000.0 11309700000.0 11309700000.0 11309700000.0 11309700000.0 11309700000.0 11309700000.0 11309700000.0 11309700000.0 11309700000.0 11309700000.0 11309700000.0 11309700000.0 11309700000.0 11309700000.0 11309700000.0 11309700000.0 11309700000.0 11309700000.0 11309700000.0 11309700000.0 11309700000.0 11309700000.0 11309700000.0 11309700000.0 11309700000.0 11309700000.0 11309700000.0 11309700000.0 11309700000.0 11309700000.0 11309700000.0 11309700000.0 11309700000.0 11309700000.0 11309700000.0 11309700000.0 11309700000.0 11309700000.0 11309700000.0 11309700000.0 11309700000.0 11309700000.0 11309700000.0 11309700000.0 11309700000.0 11309700000.0 11309700000.0 11309700000.0 11309700000.0 11309700000.0 11309700000.0 11309700000.0 11309700000.0 11309700000.0 11309700000.0 11309700000.0 11309700000.0 11309700000.0 11309700000.0 11309700000.0 11309700000.0 11309700000.0 11309700000.0 11309700000.0 11309700000.0 11309700000.0 11309700000.0 11309700000.0 11309700000.0 11309700000.0 11309700000.0 11309700000.0 11309700000.0 11309700000.0 11309700000.0 11309700000.0 11309700000.0 11309700000.0 11309700000.0 11309700000.0 11309700000.0 11309700000.0 11309700000.0 11309700000.0 11309700000.0 11309700000.0 11309700000.0 11309700000.0 11309700000.0 11309700000.0 11309700000.0 11309700000.0 11309700000.0 11309700000.0 11309700000.0 11309700000.0 11309700000.0 11309700000.0 11309700000.0 11309700000.0 11309700000.0 11309700000.0 11309700000.0 11309700000.0 11309700000.0 11309700000.0 11309700000.0 11309700000.0 11309700000.0 11309700000.0 11309700000.0 11309700000.0 11309700000.0 11309700000.0 11309700000.0 11309700000.0 11309700000.0 11309700000.0 11309700000.0 11309700000.0 11309700000.0 11309700000.0 11309700000.0 11309700000.0 11309700000.0 11309700000.0 11309700000.0 11309700000.0 11309700000.0 11309700000.0 11309700000.0 11309700000.0 11309700000.0 11309700000.0 11309700000.0 11309700000.0 11309700000.0 11309700000.0 11309700000.0 11309700000.0 11309700000.0 11309700000.0 11309700000.0 11309700000.0 11309700000.0 11309700000.0 11309700000.0 11309700000.0 11309700000.0 11309700000.0 11309700000.0 11309700000.0 11309700000.0 11309700000.0 11309700000.0 11309700000.0 11309700000.0 11309700000.0 11309700000.0 11309700000.0 11309700000.0 11309700000.0 11309700000.0 11309700000.0 11309700000.0 11309700000.0 11309700000.0 11309700000.0 11309700000.0 11309700000.0 11309700000.0 11309700000.0 11309700000.0 11309700000.0 11309700000.0 11309700000.0 11309700000.0 11309700000.0 11309700000.0 11309700000.0 11309700000.0 11309700000.0 11309700000.0 11309700000.0 11309700000.0 11309700000.0 11309700000.0 11309700000.0 11309700000.0 11309700000.0 11309700000.0 11309700000.0 11309700000.0 11309700000.0 11309700000.0 11309700000.0 11309700000.0 11309700000.0 11309700000.0 11309700000.0 11309700000.0 11309700000.0 11309700000.0 11309700000.0 11309700000.0 11309700000.0 11309700000.0 11309700000.0 11309700000.0 11309700000.0 11309700000.0 11309700000.0 11309700000.0 11309700000.0 11309700000.0 11309700000.0 11309700000.0 11309700000.0 11309700000.0 11309700000.0 11309700000.0 11309700000.0 11309700000.0 11309700000.0 11309700000.0 11309700000.0 11309700000.0 11309700000.0 11309700000.0 11309700000.0 11309700000.0 11309700000.0 11309700000.0 11309700000.0 11309700000.0 11309700000.0 11309700000.0 11309700000.0 11309700000.0 11309700000.0 11309700000.0 11309700000.0 11309700000.0 11309700000.0 11309700000.0 11309700000.0 11309700000.0 11309700000.0 11309700000.0 11309700000.0 11309700000.0 11309700000.0 11309700000.0 11309700000.0 11309700000.0 11309700000.0 11309700000.0 11309700000.0 11309700000.0 11309700000.0 11309700000.0 11309700000.0 11309700000.0 11309700000.0 11309700000.0 11309700000.0 11309700000.0 11309700000.0 11309700000.0 11309700000.0 11309700000.0 11309700000.0 11309700000.0 11309700000.0 11309700000.0 11309700000.0 11309700000.0 11309700000.0 11309700000.0 11309700000.0 11309700000.0 11309700000.0 11309700000.0 11309700000.0 11309700000.0 11309700000.0 11309700000.0 11309700000.0 11309700000.0 11309700000.0 11309700000.0 11309700000.0 11309700000.0 11309700000.0 11309700000.0 11309700000.0 11309700000.0 11309700000.0 11309700000.0 11309700000.0 11309700000.0 11309700000.0 11309700000.0 11309700000.0 11309700000.0 11309700000.0 11309700000.0 11309700000.0 11309700000.0 11309700000.0 11309700000.0 11309700000.0 11309700000.0 11309700000.0 11309700000.0 11309700000.0 11309700000.0 11309700000.0 11309700000.0 11309700000.0 11309700000.0 11309700000.0 11309700000.0 11309700000.0 11309700000.0 11309700000.0 11309700000.0 11309700000.0 11309700000.0 11309700000.0 11309700000.0 11309700000.0 11309700000.0 11309700000.0 11309700000.0 11309700000.0 11309700000.0 11309700000.0 11309700000.0 11309700000.0 11309700000.0 11309700000.0 11309700000.0 11309700000.0 11309700000.0 11309700000.0 11309700000.0 11309700000.0 11309700000.0 11309700000.0 11309700000.0 11309700000.0 11309700000.0 11309700000.0 11309700000.0 11309700000.0 11309700000.0 11309700000.0 11309700000.0 11309700000.0 11309700000.0 11309700000.0 11309700000.0 11309700000.0 11309700000.0 11309700000.0 11309700000.0 11309700000.0 11309700000.0 11309700000.0 11309700000.0 11309700000.0 11309700000.0 11309700000.0 11309700000.0 11309700000.0 11309700000.0 11309700000.0 11309700000.0 11309700000.0 11309700000.0 11309700000.0 11309700000.0 11309700000.0 11309700000.0 11309700000.0 11309700000.0 11309700000.0 11309700000.0 11309700000.0 11309700000.0 11309700000.0 11309700000.0 11309700000.0 11309700000.0 11309700000.0 11309700000.0 11309700000.0 11309700000.0 11309700000.0 11309700000.0 11309700000.0 11309700000.0 11309700000.0 11309700000.0 11309700000.0 11309700000.0 11309700000.0 11309700000.0 11309700000.0 11309700000.0 11309700000.0 11309700000.0 11309700000.0 11309700000.0 11309700000.0 11309700000.0 11309700000.0 11309700000.0 11309700000.0 11309700000.0 11309700000.0 11309700000.0 11309700000.0 11309700000.0 11309700000.0 11309700000.0 11309700000.0 11309700000.0 11309700000.0 11309700000.0 11309700000.0 11309700000.0 11309700000.0 11309700000.0 11309700000.0 11309700000.0 11309700000.0 11309700000.0 11309700000.0 11309700000.0 11309700000.0 11309700000.0 11309700000.0 11309700000.0 11309700000.0 11309700000.0 11309700000.0 11309700000.0 11309700000.0 11309700000.0 11309700000.0 11309700000.0 11309700000.0 11309700000.0 11309700000.0 11309700000.0 11309700000.0 11309700000.0 11309700000.0 11309700000.0 11309700000.0 11309700000.0 11309700000.0 11309700000.0 11309700000.0 11309700000.0 11309700000.0 11309700000.0 11309700000.0 11309700000.0 11309700000.0 11309700000.0 11309700000.0 11309700000.0 11309700000.0 11309700000.0 11309700000.0 11309700000.0 11309700000.0 11309700000.0 11309700000.0 11309700000.0 11309700000.0 11309700000.0 11309700000.0 11309700000.0 11309700000.0 11309700000.0 11309700000.0 11309700000.0 11309700000.0 11309700000.0 11309700000.0 11309700000.0 11309700000.0 11309700000.0 11309700000.0 11309700000.0 11309700000.0 11309700000.0 11309700000.0 11309700000.0 11309700000.0 11309700000.0 11309700000.0 11309700000.0 11309700000.0 11309700000.0 11309700000.0 11309700000.0 11309700000.0 11309700000.0 11309700000.0 11309700000.0 11309700000.0 11309700000.0 11309700000.0 11309700000.0 11309700000.0 11309700000.0 11309700000.0 11309700000.0 11309700000.0 11309700000.0 11309700000.0 11309700000.0 11309700000.0 11309700000.0 11309700000.0 11309700000.0 11309700000.0 11309700000.0 11309700000.0 11309700000.0 11309700000.0 11309700000.0 11309700000.0 11309700000.0 11309700000.0 11309700000.0 11309700000.0 11309700000.0 11309700000.0 11309700000.0 11309700000.0 11309700000.0 11309700000.0 11309700000.0 11309700000.0 11309700000.0 11309700000.0 11309700000.0 11309700000.0 11309700000.0 11309700000.0 11309700000.0 11309700000.0 11309700000.0 11309700000.0 11309700000.0 11309700000.0 11309700000.0 11309700000.0 11309700000.0 11309700000.0 11309700000.0 11309700000.0 11309700000.0 11309700000.0 11309700000.0 11309700000.0 11309700000.0 11309700000.0 11309700000.0 11309700000.0 11309700000.0 11309700000.0 11309700000.0 11309700000.0 11309700000.0 11309700000.0 11309700000.0 11309700000.0 11309700000.0 11309700000.0 11309700000.0 11309700000.0 11309700000.0 11309700000.0 11309700000.0 11309700000.0 11309700000.0 11309700000.0 11309700000.0 11309700000.0 11309700000.0 11309700000.0 11309700000.0 11309700000.0 11309700000.0 11309700000.0 11309700000.0 11309700000.0 11309700000.0 11309700000.0 11309700000.0 11309700000.0 11309700000.0 11309700000.0 11309700000.0 11309700000.0 11309700000.0 11309700000.0 11309700000.0 11309700000.0 11309700000.0 11309700000.0 11309700000.0 11309700000.0 11309700000.0 11309700000.0 11309700000.0 11309700000.0 11309700000.0 11309700000.0 11309700000.0 11309700000.0 11309700000.0 11309700000.0 11309700000.0 11309700000.0 11309700000.0 11309700000.0 11309700000.0 11309700000.0 11309700000.0 11309700000.0 11309700000.0 11309700000.0 11309700000.0 11309700000.0 11309700000.0 11309700000.0 11309700000.0 11309700000.0 11309700000.0 11309700000.0 11309700000.0 11309700000.0 11309700000.0 11309700000.0 11309700000.0 11309700000.0 11309700000.0 11309700000.0 11309700000.0 11309700000.0 11309700000.0 11309700000.0 11309700000.0 11309700000.0 11309700000.0 11309700000.0 11309700000.0 11309700000.0 11309700000.0 11309700000.0 11309700000.0 11309700000.0 11309700000.0 11309700000.0 11309700000.0 11309700000.0 11309700000.0 11309700000.0 11309700000.0 11309700000.0 11309700000.0 11309700000.0 11309700000.0 11309700000.0 11309700000.0 11309700000.0 11309700000.0 11309700000.0 11309700000.0 11309700000.0 11309700000.0 11309700000.0 11309700000.0 11309700000.0 11309700000.0 11309700000.0 11309700000.0 11309700000.0 11309700000.0 11309700000.0 11309700000.0 11309700000.0 11309700000.0 11309700000.0 11309700000.0 11309700000.0 11309700000.0 11309700000.0 11309700000.0 11309700000.0 11309700000.0 11309700000.0 11309700000.0 11309700000.0 11309700000.0 11309700000.0 11309700000.0 11309700000.0 11309700000.0 11309700000.0 11309700000.0 11309700000.0 11309700000.0 11309700000.0 11309700000.0 11309700000.0 11309700000.0 11309700000.0 11309700000.0 11309700000.0 11309700000.0 11309700000.0 11309700000.0 11309700000.0 11309700000.0 11309700000.0 11309700000.0 11309700000.0 11309700000.0 11309700000.0 11309700000.0 11309700000.0 11309700000.0 11309700000.0 11309700000.0 11309700000.0 11309700000.0 11309700000.0 11309700000.0 11309700000.0 11309700000.0 11309700000.0 11309700000.0 11309700000.0 11309700000.0 11309700000.0 11309700000.0 11309700000.0 11309700000.0 11309700000.0 11309700000.0 11309700000.0 11309700000.0 11309700000.0 11309700000.0 11309700000.0 11309700000.0 11309700000.0 11309700000.0 11309700000.0 11309700000.0 11309700000.0 11309700000.0 11309700000.0 11309700000.0 11309700000.0 11309700000.0 11309700000.0 11309700000.0 11309700000.0 11309700000.0 11309700000.0 11309700000.0 11309700000.0 11309700000.0 11309700000.0 11309700000.0 11309700000.0 11309700000.0 11309700000.0 11309700000.0 11309700000.0 11309700000.0 11309700000.0 11309700000.0 11309700000.0 11309700000.0 11309700000.0 11309700000.0 11309700000.0 11309700000.0 11309700000.0 11309700000.0 11309700000.0 11309700000.0 11309700000.0 11309700000.0 11309700000.0 11309700000.0 11309700000.0 11309700000.0 11309700000.0 11309700000.0 11309700000.0 11309700000.0 11309700000.0 11309700000.0 11309700000.0 11309700000.0 11309700000.0 11309700000.0 11309700000.0 11309700000.0 11309700000.0 11309700000.0 11309700000.0 11309700000.0 11309700000.0 11309700000.0 11309700000.0 11309700000.0 11309700000.0 11309700000.0 11309700000.0 11309700000.0 11309700000.0 11309700000.0 11309700000.0 11309700000.0 11309700000.0 11309700000.0 11309700000.0 11309700000.0 11309700000.0 11309700000.0 11309700000.0 11309700000.0 11309700000.0 11309700000.0 11309700000.0 11309700000.0 11309700000.0 11309700000.0 11309700000.0 11309700000.0 11309700000.0 11309700000.0 11309700000.0 11309700000.0 11309700000.0 11309700000.0 11309700000.0 11309700000.0 11309700000.0 11309700000.0 11309700000.0 11309700000.0 11309700000.0 11309700000.0 11309700000.0 11309700000.0 11309700000.0 11309700000.0 11309700000.0 11309700000.0 11309700000.0 11309700000.0 11309700000.0 11309700000.0 11309700000.0 11309700000.0 11309700000.0 11309700000.0 11309700000.0 11309700000.0 11309700000.0 11309700000.0 11309700000.0 11309700000.0 11309700000.0 11309700000.0 11309700000.0 11309700000.0 11309700000.0 11309700000.0 11309700000.0 11309700000.0 11309700000.0 11309700000.0 11309700000.0 11309700000.0 11309700000.0 11309700000.0 11309700000.0 11309700000.0 11309700000.0 11309700000.0 11309700000.0 11309700000.0 11309700000.0 11309700000.0 11309700000.0 11309700000.0 11309700000.0 11309700000.0 11309700000.0 11309700000.0 11309700000.0 11309700000.0 11309700000.0 11309700000.0 11309700000.0 11309700000.0 11309700000.0 11309700000.0 11309700000.0 11309700000.0 11309700000.0 11309700000.0 11309700000.0 11309700000.0 11309700000.0 11309700000.0 11309700000.0 11309700000.0 11309700000.0 11309700000.0 11309700000.0 11309700000.0 11309700000.0 11309700000.0 11309700000.0 11309700000.0 11309700000.0 11309700000.0 11309700000.0 11309700000.0 11309700000.0 11309700000.0 11309700000.0 11309700000.0 11309700000.0 11309700000.0 11309700000.0 11309700000.0 11309700000.0 11309700000.0 11309700000.0 11309700000.0 11309700000.0 11309700000.0 11309700000.0 11309700000.0 11309700000.0 11309700000.0 11309700000.0 11309700000.0 11309700000.0 11309700000.0 11309700000.0 11309700000.0 11309700000.0 11309700000.0 11309700000.0 11309700000.0 11309700000.0 11309700000.0 11309700000.0 11309700000.0 11309700000.0 11309700000.0 11309700000.0 11309700000.0 11309700000.0 11309700000.0 11309700000.0 11309700000.0 11309700000.0 11309700000.0 11309700000.0 11309700000.0 11309700000.0 11309700000.0 11309700000.0 11309700000.0 11309700000.0 11309700000.0 11309700000.0 11309700000.0 11309700000.0 11309700000.0 11309700000.0 11309700000.0 11309700000.0 11309700000.0 11309700000.0 11309700000.0 11309700000.0 11309700000.0 11309700000.0 11309700000.0 11309700000.0 11309700000.0 11309700000.0 11309700000.0 11309700000.0 11309700000.0 11309700000.0 11309700000.0 11309700000.0 11309700000.0 11309700000.0 11309700000.0 11309700000.0 11309700000.0 11309700000.0 11309700000.0 11309700000.0 11309700000.0 11309700000.0 11309700000.0 11309700000.0 11309700000.0 11309700000.0 11309700000.0 11309700000.0 11309700000.0 11309700000.0 11309700000.0 11309700000.0 11309700000.0 11309700000.0 11309700000.0 11309700000.0 11309700000.0 11309700000.0 11309700000.0 11309700000.0 11309700000.0 11309700000.0 11309700000.0 11309700000.0 11309700000.0 11309700000.0 11309700000.0 11309700000.0 11309700000.0 11309700000.0 11309700000.0 11309700000.0 11309700000.0 11309700000.0 11309700000.0 11309700000.0 11309700000.0 11309700000.0 11309700000.0 11309700000.0 11309700000.0 11309700000.0 11309700000.0 11309700000.0 11309700000.0 11309700000.0 11309700000.0 11309700000.0 11309700000.0 11309700000.0 11309700000.0 11309700000.0 11309700000.0 11309700000.0 11309700000.0 11309700000.0 11309700000.0 11309700000.0 11309700000.0 11309700000.0 11309700000.0 11309700000.0 11309700000.0 11309700000.0 11309700000.0 11309700000.0 11309700000.0 11309700000.0 11309700000.0 11309700000.0 11309700000.0 11309700000.0 11309700000.0 11309700000.0 11309700000.0 11309700000.0 11309700000.0 11309700000.0 11309700000.0 11309700000.0 11309700000.0 11309700000.0 11309700000.0 11309700000.0 11309700000.0 11309700000.0 11309700000.0 11309700000.0 11309700000.0 11309700000.0 11309700000.0 11309700000.0 11309700000.0 11309700000.0 11309700000.0 11309700000.0 11309700000.0 11309700000.0 11309700000.0 11309700000.0 11309700000.0 11309700000.0 11309700000.0 11309700000.0 11309700000.0 11309700000.0 11309700000.0 11309700000.0 11309700000.0 11309700000.0 11309700000.0 11309700000.0 11309700000.0 11309700000.0 11309700000.0 11309700000.0 11309700000.0 11309700000.0 11309700000.0 11309700000.0 11309700000.0 11309700000.0 11309700000.0 11309700000.0 11309700000.0 11309700000.0 11309700000.0 11309700000.0 11309700000.0 11309700000.0 11309700000.0 11309700000.0 11309700000.0 11309700000.0 11309700000.0 11309700000.0 11309700000.0 11309700000.0 11309700000.0 11309700000.0 11309700000.0 11309700000.0 11309700000.0 11309700000.0 11309700000.0 11309700000.0 11309700000.0 11309700000.0 11309700000.0 11309700000.0 11309700000.0 11309700000.0 11309700000.0 11309700000.0 11309700000.0 11309700000.0 11309700000.0 11309700000.0 11309700000.0 11309700000.0 11309700000.0 11309700000.0 11309700000.0 11309700000.0 11309700000.0 11309700000.0 11309700000.0 11309700000.0 11309700000.0 11309700000.0 11309700000.0 11309700000.0 11309700000.0 11309700000.0 11309700000.0 11309700000.0 11309700000.0 11309700000.0 11309700000.0 11309700000.0 11309700000.0 11309700000.0 11309700000.0 11309700000.0 11309700000.0 11309700000.0 11309700000.0 11309700000.0 11309700000.0 11309700000.0 11309700000.0 11309700000.0 11309700000.0 11309700000.0 11309700000.0 11309700000.0 11309700000.0 11309700000.0 11309700000.0 11309700000.0 11309700000.0 11309700000.0 11309700000.0 11309700000.0 11309700000.0 11309700000.0 11309700000.0 11309700000.0 11309700000.0 11309700000.0 11309700000.0 11309700000.0 11309700000.0 11309700000.0 11309700000.0 11309700000.0 11309700000.0 11309700000.0 11309700000.0 11309700000.0 11309700000.0 11309700000.0 11309700000.0 11309700000.0 11309700000.0 11309700000.0 11309700000.0 11309700000.0 11309700000.0 11309700000.0 11309700000.0 11309700000.0 11309700000.0 11309700000.0 11309700000.0 11309700000.0 11309700000.0 11309700000.0 11309700000.0 11309700000.0 11309700000.0 11309700000.0 11309700000.0 11309700000.0 11309700000.0 11309700000.0 11309700000.0 11309700000.0 11309700000.0 11309700000.0 11309700000.0 11309700000.0 11309700000.0 11309700000.0 11309700000.0 11309700000.0 11309700000.0 11309700000.0 11309700000.0 11309700000.0 11309700000.0 11309700000.0 11309700000.0 11309700000.0 11309700000.0 11309700000.0 11309700000.0 11309700000.0 11309700000.0 11309700000.0 11309700000.0 11309700000.0 11309700000.0 11309700000.0 11309700000.0 11309700000.0 11309700000.0 11309700000.0 11309700000.0 11309700000.0 11309700000.0 11309700000.0 11309700000.0 11309700000.0 11309700000.0 11309700000.0 11309700000.0 11309700000.0 11309700000.0 11309700000.0 11309700000.0 11309700000.0 11309700000.0 11309700000.0 11309700000.0 11309700000.0 11309700000.0 11309700000.0 11309700000.0 11309700000.0 11309700000.0 11309700000.0 11309700000.0 11309700000.0 11309700000.0 11309700000.0 11309700000.0 11309700000.0 11309700000.0 11309700000.0 11309700000.0 11309700000.0 11309700000.0 11309700000.0 11309700000.0 11309700000.0 11309700000.0 11309700000.0 11309700000.0 11309700000.0 11309700000.0 11309700000.0 11309700000.0 11309700000.0 11309700000.0 11309700000.0 11309700000.0 11309700000.0 11309700000.0 11309700000.0 11309700000.0 11309700000.0 11309700000.0 11309700000.0 11309700000.0 11309700000.0 11309700000.0 11309700000.0 11309700000.0 11309700000.0 11309700000.0 11309700000.0 11309700000.0 11309700000.0 11309700000.0 11309700000.0 11309700000.0 11309700000.0 11309700000.0 11309700000.0 11309700000.0 11309700000.0 11309700000.0 11309700000.0 11309700000.0 11309700000.0 11309700000.0 11309700000.0 11309700000.0 11309700000.0 11309700000.0 11309700000.0 11309700000.0 11309700000.0 11309700000.0 11309700000.0 11309700000.0 11309700000.0 11309700000.0 11309700000.0 11309700000.0 11309700000.0 11309700000.0 11309700000.0 11309700000.0 11309700000.0 11309700000.0 11309700000.0 11309700000.0 11309700000.0 11309700000.0 11309700000.0 11309700000.0 11309700000.0 11309700000.0 11309700000.0 11309700000.0 11309700000.0 11309700000.0 11309700000.0 11309700000.0 11309700000.0 11309700000.0 11309700000.0 11309700000.0 11309700000.0 11309700000.0 11309700000.0 11309700000.0 11309700000.0 11309700000.0 11309700000.0 11309700000.0 11309700000.0 11309700000.0 11309700000.0 11309700000.0 11309700000.0 11309700000.0 11309700000.0 11309700000.0 11309700000.0 11309700000.0 11309700000.0 11309700000.0 11309700000.0 11309700000.0 11309700000.0 11309700000.0 11309700000.0 11309700000.0 11309700000.0 11309700000.0 11309700000.0 11309700000.0 11309700000.0 11309700000.0 11309700000.0 11309700000.0 11309700000.0 11309700000.0 11309700000.0 11309700000.0 11309700000.0 11309700000.0 11309700000.0 11309700000.0 11309700000.0 11309700000.0 11309700000.0 11309700000.0 11309700000.0 11309700000.0 11309700000.0 11309700000.0 11309700000.0 11309700000.0 11309700000.0 11309700000.0 11309700000.0 11309700000.0 11309700000.0 11309700000.0 11309700000.0 11309700000.0 11309700000.0 11309700000.0 11309700000.0 11309700000.0 11309700000.0 11309700000.0 11309700000.0 11309700000.0 11309700000.0 11309700000.0 11309700000.0 11309700000.0 11309700000.0 11309700000.0 11309700000.0 11309700000.0 11309700000.0 11309700000.0 11309700000.0 11309700000.0 11309700000.0 11309700000.0 11309700000.0 11309700000.0 11309700000.0 11309700000.0 11309700000.0 11309700000.0 11309700000.0 11309700000.0 11309700000.0 11309700000.0 11309700000.0 11309700000.0 11309700000.0 11309700000.0 11309700000.0 11309700000.0 11309700000.0 11309700000.0 11309700000.0 11309700000.0 11309700000.0 11309700000.0 11309700000.0 11309700000.0 11309700000.0 11309700000.0 11309700000.0 11309700000.0 11309700000.0 11309700000.0 11309700000.0 11309700000.0 11309700000.0 11309700000.0 11309700000.0 11309700000.0 11309700000.0 11309700000.0 11309700000.0 11309700000.0 11309700000.0 11309700000.0 11309700000.0 11309700000.0 11309700000.0 11309700000.0 11309700000.0 11309700000.0 11309700000.0 11309700000.0 11309700000.0 11309700000.0 11309700000.0 11309700000.0 11309700000.0 11309700000.0 11309700000.0 11309700000.0 11309700000.0 11309700000.0 11309700000.0 11309700000.0 11309700000.0 11309700000.0 11309700000.0 11309700000.0 11309700000.0 11309700000.0 11309700000.0 11309700000.0 11309700000.0 11309700000.0 11309700000.0 11309700000.0 11309700000.0 11309700000.0 11309700000.0 11309700000.0 11309700000.0 11309700000.0 11309700000.0 11309700000.0 11309700000.0 11309700000.0 11309700000.0 11309700000.0 11309700000.0 11309700000.0 11309700000.0 11309700000.0 11309700000.0 11309700000.0 11309700000.0 11309700000.0 11309700000.0 11309700000.0 11309700000.0 11309700000.0 11309700000.0 11309700000.0 11309700000.0 11309700000.0 11309700000.0 11309700000.0 11309700000.0 11309700000.0 11309700000.0 11309700000.0 11309700000.0 11309700000.0 11309700000.0 11309700000.0 11309700000.0 11309700000.0 11309700000.0 11309700000.0 11309700000.0 11309700000.0 11309700000.0 11309700000.0 11309700000.0 11309700000.0 11309700000.0 11309700000.0 11309700000.0 11309700000.0 11309700000.0 11309700000.0 11309700000.0 11309700000.0 11309700000.0 11309700000.0 11309700000.0 11309700000.0 11309700000.0 11309700000.0 11309700000.0 11309700000.0 11309700000.0 11309700000.0 11309700000.0 11309700000.0 11309700000.0 11309700000.0 11309700000.0 11309700000.0 11309700000.0 11309700000.0 11309700000.0 11309700000.0 11309700000.0 11309700000.0 11309700000.0 11309700000.0 11309700000.0 11309700000.0 11309700000.0 11309700000.0 11309700000.0 11309700000.0 11309700000.0 11309700000.0 11309700000.0 11309700000.0 11309700000.0 11309700000.0 11309700000.0 11309700000.0 11309700000.0 11309700000.0 11309700000.0 11309700000.0 11309700000.0 11309700000.0 11309700000.0 11309700000.0 11309700000.0 11309700000.0 11309700000.0 11309700000.0 11309700000.0 11309700000.0 11309700000.0 11309700000.0 11309700000.0 11309700000.0 11309700000.0 11309700000.0 11309700000.0 11309700000.0 11309700000.0 11309700000.0 11309700000.0 11309700000.0 11309700000.0 11309700000.0 11309700000.0 11309700000.0 11309700000.0 11309700000.0 11309700000.0 11309700000.0 11309700000.0 11309700000.0 11309700000.0 11309700000.0 11309700000.0 11309700000.0 11309700000.0 11309700000.0 11309700000.0 11309700000.0 11309700000.0 11309700000.0 11309700000.0 11309700000.0 11309700000.0 11309700000.0 11309700000.0 11309700000.0 11309700000.0 11309700000.0 11309700000.0 11309700000.0 11309700000.0 11309700000.0 11309700000.0 11309700000.0 11309700000.0 11309700000.0 11309700000.0 11309700000.0 11309700000.0 11309700000.0 11309700000.0 11309700000.0 11309700000.0 11309700000.0 11309700000.0 11309700000.0 11309700000.0 11309700000.0 11309700000.0 11309700000.0 11309700000.0 11309700000.0 11309700000.0 11309700000.0 11309700000.0 11309700000.0 11309700000.0 11309700000.0 11309700000.0 11309700000.0 11309700000.0 11309700000.0 11309700000.0 11309700000.0 11309700000.0 11309700000.0 11309700000.0 11309700000.0 11309700000.0 11309700000.0 11309700000.0 11309700000.0 11309700000.0 11309700000.0 11309700000.0 11309700000.0 11309700000.0 11309700000.0 11309700000.0 11309700000.0 11309700000.0 11309700000.0 11309700000.0 11309700000.0 11309700000.0 11309700000.0 11309700000.0 11309700000.0 11309700000.0 11309700000.0 11309700000.0 11309700000.0 11309700000.0 11309700000.0 11309700000.0 11309700000.0 11309700000.0 11309700000.0 11309700000.0 11309700000.0 11309700000.0 11309700000.0 11309700000.0 11309700000.0 11309700000.0 11309700000.0 11309700000.0 11309700000.0 11309700000.0 11309700000.0 11309700000.0 11309700000.0 11309700000.0 11309700000.0 11309700000.0 11309700000.0 11309700000.0 11309700000.0 11309700000.0 11309700000.0 11309700000.0 11309700000.0 11309700000.0 11309700000.0 11309700000.0 11309700000.0 11309700000.0 11309700000.0 11309700000.0 11309700000.0 11309700000.0 11309700000.0 11309700000.0 11309700000.0 11309700000.0 11309700000.0 11309700000.0 11309700000.0 11309700000.0 11309700000.0 11309700000.0 11309700000.0 11309700000.0 11309700000.0 11309700000.0 11309700000.0 11309700000.0 11309700000.0 11309700000.0 11309700000.0 11309700000.0 11309700000.0 11309700000.0 11309700000.0 11309700000.0 11309700000.0 11309700000.0 11309700000.0 11309700000.0 11309700000.0 11309700000.0 11309700000.0 11309700000.0 11309700000.0 11309700000.0 11309700000.0 11309700000.0 11309700000.0 11309700000.0 11309700000.0 11309700000.0 11309700000.0 11309700000.0 11309700000.0 11309700000.0 11309700000.0 11309700000.0 11309700000.0 11309700000.0 11309700000.0 11309700000.0 11309700000.0 11309700000.0 11309700000.0 11309700000.0 11309700000.0 11309700000.0 11309700000.0 11309700000.0 11309700000.0 11309700000.0 11309700000.0 11309700000.0 11309700000.0 11309700000.0 11309700000.0 11309700000.0 11309700000.0 11309700000.0 11309700000.0 11309700000.0 11309700000.0 11309700000.0 11309700000.0 11309700000.0 11309700000.0 11309700000.0 11309700000.0 11309700000.0 11309700000.0 11309700000.0 11309700000.0 11309700000.0 11309700000.0 11309700000.0 11309700000.0 11309700000.0 11309700000.0 11309700000.0 11309700000.0 11309700000.0 11309700000.0 11309700000.0 11309700000.0 11309700000.0 11309700000.0 11309700000.0 11309700000.0 11309700000.0 11309700000.0 11309700000.0 11309700000.0 11309700000.0 11309700000.0 11309700000.0 11309700000.0 11309700000.0 11309700000.0 11309700000.0 11309700000.0 11309700000.0 11309700000.0 11309700000.0 11309700000.0 11309700000.0 11309700000.0 11309700000.0 11309700000.0 11309700000.0 11309700000.0 11309700000.0 11309700000.0 11309700000.0 11309700000.0 11309700000.0 11309700000.0 11309700000.0 11309700000.0 11309700000.0 11309700000.0 11309700000.0 11309700000.0 11309700000.0 11309700000.0 11309700000.0 11309700000.0 11309700000.0 11309700000.0 11309700000.0 11309700000.0 11309700000.0 11309700000.0 11309700000.0 11309700000.0 11309700000.0 11309700000.0 11309700000.0 11309700000.0 11309700000.0 11309700000.0 11309700000.0 11309700000.0 11309700000.0 11309700000.0 11309700000.0 11309700000.0 11309700000.0 11309700000.0 11309700000.0 11309700000.0 11309700000.0 11309700000.0 11309700000.0 11309700000.0 11309700000.0 11309700000.0 11309700000.0 11309700000.0 11309700000.0 11309700000.0 11309700000.0 11309700000.0 11309700000.0 11309700000.0 11309700000.0 11309700000.0 11309700000.0 11309700000.0 11309700000.0 11309700000.0 11309700000.0 11309700000.0 11309700000.0 11309700000.0 11309700000.0 11309700000.0 11309700000.0 11309700000.0 11309700000.0 11309700000.0 11309700000.0 11309700000.0 11309700000.0 11309700000.0 11309700000.0 11309700000.0 11309700000.0 11309700000.0 11309700000.0 11309700000.0 11309700000.0 11309700000.0 11309700000.0 11309700000.0 11309700000.0 11309700000.0 11309700000.0 11309700000.0 11309700000.0 11309700000.0 11309700000.0 11309700000.0 11309700000.0 11309700000.0 11309700000.0 11309700000.0 11309700000.0 11309700000.0 11309700000.0 11309700000.0 11309700000.0 11309700000.0 11309700000.0 11309700000.0 11309700000.0 11309700000.0 11309700000.0 11309700000.0 11309700000.0 11309700000.0 11309700000.0 11309700000.0 11309700000.0 11309700000.0 11309700000.0 11309700000.0 11309700000.0 11309700000.0 11309700000.0 11309700000.0 11309700000.0 11309700000.0 11309700000.0 11309700000.0 11309700000.0 11309700000.0 11309700000.0 11309700000.0 11309700000.0 11309700000.0 11309700000.0 11309700000.0 11309700000.0 11309700000.0 11309700000.0 11309700000.0 11309700000.0 11309700000.0 11309700000.0 11309700000.0 11309700000.0 11309700000.0 11309700000.0 11309700000.0 11309700000.0 11309700000.0 11309700000.0 11309700000.0 11309700000.0 11309700000.0 11309700000.0 11309700000.0 11309700000.0 11309700000.0 11309700000.0 11309700000.0 11309700000.0 11309700000.0 11309700000.0 11309700000.0 11309700000.0 11309700000.0 11309700000.0 11309700000.0 11309700000.0 11309700000.0 11309700000.0 11309700000.0 11309700000.0 11309700000.0 11309700000.0 11309700000.0 11309700000.0 11309700000.0 11309700000.0 11309700000.0 11309700000.0 11309700000.0 11309700000.0 11309700000.0 11309700000.0 11309700000.0 11309700000.0 11309700000.0 11309700000.0 11309700000.0 11309700000.0 11309700000.0 11309700000.0 11309700000.0 11309700000.0 11309700000.0 11309700000.0 11309700000.0 11309700000.0 11309700000.0 11309700000.0 11309700000.0 11309700000.0 11309700000.0 11309700000.0 11309700000.0 11309700000.0 11309700000.0 11309700000.0 11309700000.0 11309700000.0 11309700000.0 11309700000.0 11309700000.0 11309700000.0 11309700000.0 11309700000.0 11309700000.0 11309700000.0 11309700000.0 11309700000.0 11309700000.0 11309700000.0 11309700000.0 11309700000.0 11309700000.0 11309700000.0 11309700000.0 11309700000.0 11309700000.0 11309700000.0 11309700000.0 11309700000.0 11309700000.0 11309700000.0 11309700000.0 11309700000.0 11309700000.0 11309700000.0 11309700000.0 11309700000.0 11309700000.0 11309700000.0 11309700000.0 11309700000.0 11309700000.0 11309700000.0 11309700000.0 11309700000.0 11309700000.0 11309700000.0 11309700000.0 11309700000.0 11309700000.0 11309700000.0 11309700000.0 11309700000.0 11309700000.0 11309700000.0 11309700000.0 11309700000.0 11309700000.0 11309700000.0 11309700000.0 11309700000.0 11309700000.0 11309700000.0 11309700000.0 11309700000.0 11309700000.0 11309700000.0 11309700000.0 11309700000.0 11309700000.0 11309700000.0 11309700000.0 11309700000.0 11309700000.0 11309700000.0 11309700000.0 11309700000.0 11309700000.0 11309700000.0 11309700000.0 11309700000.0 11309700000.0 11309700000.0 11309700000.0 11309700000.0 11309700000.0 11309700000.0 11309700000.0 11309700000.0 11309700000.0 11309700000.0 11309700000.0 11309700000.0 11309700000.0 11309700000.0 11309700000.0 11309700000.0 11309700000.0 11309700000.0 11309700000.0 11309700000.0 11309700000.0 11309700000.0 11309700000.0 11309700000.0 11309700000.0 11309700000.0 11309700000.0 11309700000.0 11309700000.0 11309700000.0 11309700000.0 11309700000.0 11309700000.0 11309700000.0 11309700000.0 11309700000.0 11309700000.0 11309700000.0 11309700000.0 11309700000.0 11309700000.0 11309700000.0 11309700000.0 11309700000.0 11309700000.0 11309700000.0 11309700000.0 11309700000.0 11309700000.0 11309700000.0 11309700000.0 11309700000.0 11309700000.0 11309700000.0 11309700000.0 11309700000.0 11309700000.0 11309700000.0 11309700000.0 11309700000.0 11309700000.0 11309700000.0 11309700000.0 11309700000.0 11309700000.0 11309700000.0 11309700000.0 11309700000.0 11309700000.0 11309700000.0 11309700000.0 11309700000.0 11309700000.0 11309700000.0 11309700000.0 11309700000.0 11309700000.0 11309700000.0 11309700000.0 11309700000.0 11309700000.0 11309700000.0 11309700000.0 11309700000.0 11309700000.0 11309700000.0 11309700000.0 11309700000.0 11309700000.0 11309700000.0 11309700000.0 11309700000.0 11309700000.0 11309700000.0 11309700000.0 11309700000.0 11309700000.0 11309700000.0 11309700000.0 11309700000.0 11309700000.0 11309700000.0 11309700000.0 11309700000.0 11309700000.0 11309700000.0 11309700000.0 11309700000.0 11309700000.0 11309700000.0 11309700000.0 11309700000.0 11309700000.0 11309700000.0 11309700000.0 11309700000.0 11309700000.0 11309700000.0 11309700000.0 11309700000.0 11309700000.0 11309700000.0 11309700000.0 11309700000.0 11309700000.0 11309700000.0 11309700000.0 11309700000.0 11309700000.0 11309700000.0 11309700000.0 11309700000.0 11309700000.0 11309700000.0 11309700000.0 11309700000.0 11309700000.0 11309700000.0 11309700000.0 11309700000.0 11309700000.0 11309700000.0 11309700000.0 11309700000.0 11309700000.0 11309700000.0 11309700000.0 11309700000.0 11309700000.0 11309700000.0 11309700000.0 11309700000.0 11309700000.0 11309700000.0 11309700000.0 11309700000.0 11309700000.0 11309700000.0 11309700000.0 11309700000.0 11309700000.0 11309700000.0 11309700000.0 11309700000.0 11309700000.0 11309700000.0 11309700000.0 11309700000.0 11309700000.0 11309700000.0 11309700000.0 11309700000.0 11309700000.0 11309700000.0 11309700000.0 11309700000.0 11309700000.0 11309700000.0 11309700000.0 11309700000.0 11309700000.0 11309700000.0 11309700000.0 11309700000.0 11309700000.0 11309700000.0 11309700000.0 11309700000.0 11309700000.0 11309700000.0 11309700000.0 11309700000.0 11309700000.0 11309700000.0 11309700000.0 11309700000.0 11309700000.0 11309700000.0 11309700000.0 11309700000.0 11309700000.0 11309700000.0 11309700000.0 11309700000.0 11309700000.0 11309700000.0 11309700000.0 11309700000.0 11309700000.0 11309700000.0 11309700000.0 11309700000.0 11309700000.0 11309700000.0 11309700000.0 11309700000.0 11309700000.0 11309700000.0 11309700000.0 11309700000.0 11309700000.0 11309700000.0 11309700000.0 11309700000.0 11309700000.0 11309700000.0 11309700000.0 11309700000.0 11309700000.0 11309700000.0 11309700000.0 11309700000.0 11309700000.0 11309700000.0 11309700000.0 11309700000.0 11309700000.0 11309700000.0 11309700000.0 11309700000.0 11309700000.0 11309700000.0 11309700000.0 11309700000.0 11309700000.0 11309700000.0 11309700000.0 11309700000.0 11309700000.0 11309700000.0 11309700000.0 11309700000.0 11309700000.0 11309700000.0 11309700000.0 11309700000.0 11309700000.0 11309700000.0 11309700000.0 11309700000.0 11309700000.0 11309700000.0 11309700000.0 11309700000.0 11309700000.0 11309700000.0 11309700000.0 11309700000.0 11309700000.0 11309700000.0 11309700000.0 11309700000.0 11309700000.0 11309700000.0 11309700000.0 11309700000.0 11309700000.0 11309700000.0 11309700000.0 11309700000.0 11309700000.0 11309700000.0 11309700000.0 11309700000.0 11309700000.0 11309700000.0 11309700000.0 11309700000.0 11309700000.0 11309700000.0 11309700000.0 11309700000.0 11309700000.0 11309700000.0 11309700000.0 11309700000.0 11309700000.0 11309700000.0 11309700000.0 11309700000.0 11309700000.0 11309700000.0 11309700000.0 11309700000.0 11309700000.0 11309700000.0 11309700000.0 11309700000.0 11309700000.0 11309700000.0 11309700000.0 11309700000.0 11309700000.0 11309700000.0 11309700000.0 11309700000.0 11309700000.0 11309700000.0 11309700000.0 11309700000.0 11309700000.0 11309700000.0 11309700000.0 11309700000.0 11309700000.0 11309700000.0 11309700000.0 11309700000.0 11309700000.0 11309700000.0 11309700000.0 11309700000.0 11309700000.0 11309700000.0 11309700000.0 11309700000.0 11309700000.0 11309700000.0 11309700000.0 11309700000.0 11309700000.0 11309700000.0 11309700000.0 11309700000.0 11309700000.0 11309700000.0 11309700000.0 11309700000.0 11309700000.0 11309700000.0 11309700000.0 11309700000.0 11309700000.0 11309700000.0 11309700000.0 11309700000.0 11309700000.0 11309700000.0 11309700000.0 11309700000.0 11309700000.0 11309700000.0 11309700000.0 11309700000.0 11309700000.0 11309700000.0 11309700000.0 11309700000.0 11309700000.0 11309700000.0 11309700000.0 11309700000.0 11309700000.0 11309700000.0 11309700000.0 11309700000.0 11309700000.0 11309700000.0 11309700000.0 11309700000.0 11309700000.0 11309700000.0 11309700000.0 11309700000.0 11309700000.0 11309700000.0 11309700000.0 11309700000.0 11309700000.0 11309700000.0 11309700000.0 11309700000.0 11309700000.0 11309700000.0 11309700000.0 11309700000.0 11309700000.0 11309700000.0 11309700000.0 11309700000.0 11309700000.0 11309700000.0 11309700000.0 11309700000.0 11309700000.0 11309700000.0 11309700000.0 11309700000.0 11309700000.0 11309700000.0 11309700000.0 11309700000.0 11309700000.0 11309700000.0 11309700000.0 11309700000.0 11309700000.0 11309700000.0 11309700000.0 11309700000.0 11309700000.0 11309700000.0 11309700000.0 11309700000.0 11309700000.0 11309700000.0 11309700000.0 11309700000.0 11309700000.0 11309700000.0 11309700000.0 11309700000.0 11309700000.0 11309700000.0 11309700000.0 11309700000.0 11309700000.0 11309700000.0 11309700000.0 11309700000.0 11309700000.0 11309700000.0 11309700000.0 11309700000.0 11309700000.0 11309700000.0 11309700000.0 11309700000.0 11309700000.0 11309700000.0 11309700000.0 11309700000.0 11309700000.0 11309700000.0 11309700000.0 11309700000.0 11309700000.0 11309700000.0 11309700000.0 11309700000.0 11309700000.0 11309700000.0 11309700000.0 11309700000.0 11309700000.0 11309700000.0 11309700000.0 11309700000.0 11309700000.0 11309700000.0 11309700000.0 11309700000.0 11309700000.0 11309700000.0 11309700000.0 11309700000.0 11309700000.0 11309700000.0 11309700000.0 11309700000.0 11309700000.0 11309700000.0 11309700000.0 11309700000.0 11309700000.0 11309700000.0 11309700000.0 11309700000.0 11309700000.0 11309700000.0 11309700000.0 11309700000.0 11309700000.0 11309700000.0 11309700000.0 11309700000.0 11309700000.0 11309700000.0 11309700000.0 11309700000.0 11309700000.0 11309700000.0 11309700000.0 11309700000.0 11309700000.0 11309700000.0 11309700000.0 11309700000.0 11309700000.0 11309700000.0 11309700000.0 11309700000.0 11309700000.0 11309700000.0 11309700000.0 11309700000.0 11309700000.0 11309700000.0 11309700000.0 11309700000.0 11309700000.0 11309700000.0 11309700000.0 11309700000.0 11309700000.0 11309700000.0 11309700000.0 11309700000.0 11309700000.0 11309700000.0 11309700000.0 11309700000.0 11309700000.0 11309700000.0 11309700000.0 11309700000.0 11309700000.0 11309700000.0 11309700000.0 11309700000.0 11309700000.0 11309700000.0 11309700000.0 11309700000.0 11309700000.0 11309700000.0 11309700000.0 11309700000.0 11309700000.0 11309700000.0 11309700000.0 11309700000.0 11309700000.0 11309700000.0 11309700000.0 11309700000.0 11309700000.0 11309700000.0 11309700000.0 11309700000.0 11309700000.0 11309700000.0 11309700000.0 11309700000.0 11309700000.0 11309700000.0 11309700000.0 11309700000.0 11309700000.0 11309700000.0 11309700000.0 11309700000.0 11309700000.0 11309700000.0 11309700000.0 11309700000.0 11309700000.0 11309700000.0 11309700000.0 11309700000.0 11309700000.0 11309700000.0 11309700000.0 11309700000.0 11309700000.0 11309700000.0 11309700000.0 11309700000.0 11309700000.0 11309700000.0 11309700000.0 11309700000.0 11309700000.0 11309700000.0 11309700000.0 11309700000.0 11309700000.0 11309700000.0 11309700000.0 11309700000.0 11309700000.0 11309700000.0 11309700000.0 11309700000.0 11309700000.0 11309700000.0 11309700000.0 11309700000.0 11309700000.0 11309700000.0 11309700000.0 11309700000.0 11309700000.0 11309700000.0 11309700000.0 11309700000.0 11309700000.0 11309700000.0 11309700000.0 11309700000.0 11309700000.0 11309700000.0 11309700000.0 11309700000.0 11309700000.0 11309700000.0 11309700000.0 11309700000.0 11309700000.0 11309700000.0 11309700000.0 11309700000.0 11309700000.0 11309700000.0 11309700000.0 11309700000.0 11309700000.0 11309700000.0 11309700000.0 11309700000.0 11309700000.0 11309700000.0 11309700000.0 11309700000.0 11309700000.0 11309700000.0 11309700000.0 11309700000.0 11309700000.0 11309700000.0 11309700000.0 11309700000.0 11309700000.0 11309700000.0 11309700000.0 11309700000.0 11309700000.0 11309700000.0 11309700000.0 11309700000.0 11309700000.0 11309700000.0 11309700000.0 11309700000.0 11309700000.0 11309700000.0 11309700000.0 11309700000.0 11309700000.0 11309700000.0 11309700000.0 11309700000.0 11309700000.0 11309700000.0 11309700000.0 11309700000.0 11309700000.0 11309700000.0 11309700000.0 11309700000.0 11309700000.0 11309700000.0 11309700000.0 11309700000.0 11309700000.0 11309700000.0 11309700000.0 11309700000.0 11309700000.0 11309700000.0 11309700000.0 11309700000.0 11309700000.0 11309700000.0 11309700000.0 11309700000.0 11309700000.0 11309700000.0 11309700000.0 11309700000.0 11309700000.0 11309700000.0 11309700000.0 11309700000.0 11309700000.0 11309700000.0 11309700000.0 11309700000.0 11309700000.0 11309700000.0 11309700000.0 11309700000.0 11309700000.0 11309700000.0 11309700000.0 11309700000.0 11309700000.0 11309700000.0 11309700000.0 11309700000.0 11309700000.0 11309700000.0 11309700000.0 11309700000.0 11309700000.0 11309700000.0 11309700000.0 11309700000.0 11309700000.0 11309700000.0 11309700000.0 11309700000.0 11309700000.0 11309700000.0 11309700000.0 11309700000.0 11309700000.0 11309700000.0 11309700000.0 11309700000.0 11309700000.0 11309700000.0 11309700000.0 11309700000.0 11309700000.0 11309700000.0 11309700000.0 11309700000.0 11309700000.0 11309700000.0 11309700000.0 11309700000.0 11309700000.0 11309700000.0 11309700000.0 11309700000.0 11309700000.0 11309700000.0 11309700000.0 11309700000.0 11309700000.0 11309700000.0 11309700000.0 11309700000.0 11309700000.0 11309700000.0 11309700000.0 11309700000.0 11309700000.0 11309700000.0 11309700000.0 11309700000.0 11309700000.0 11309700000.0 11309700000.0 11309700000.0 11309700000.0 11309700000.0 11309700000.0 11309700000.0 11309700000.0 11309700000.0 11309700000.0 11309700000.0 11309700000.0 11309700000.0 11309700000.0 11309700000.0 11309700000.0 11309700000.0 11309700000.0 11309700000.0 11309700000.0 11309700000.0 11309700000.0 11309700000.0 11309700000.0 11309700000.0 11309700000.0 11309700000.0 11309700000.0 11309700000.0 11309700000.0 11309700000.0 11309700000.0 11309700000.0 11309700000.0 11309700000.0 11309700000.0 11309700000.0 11309700000.0 11309700000.0 11309700000.0 11309700000.0 11309700000.0 11309700000.0 11309700000.0 11309700000.0 11309700000.0 11309700000.0 11309700000.0 11309700000.0 11309700000.0 11309700000.0 11309700000.0 11309700000.0 11309700000.0 11309700000.0 11309700000.0 11309700000.0 11309700000.0 11309700000.0 11309700000.0 11309700000.0 11309700000.0 11309700000.0 11309700000.0 11309700000.0 11309700000.0 11309700000.0 11309700000.0 11309700000.0 11309700000.0 11309700000.0 11309700000.0 11309700000.0 11309700000.0 11309700000.0 11309700000.0 11309700000.0 11309700000.0 11309700000.0 11309700000.0 11309700000.0 11309700000.0 11309700000.0 11309700000.0 11309700000.0 11309700000.0 11309700000.0 11309700000.0 11309700000.0 11309700000.0 11309700000.0 11309700000.0 11309700000.0 11309700000.0 11309700000.0 11309700000.0 11309700000.0 11309700000.0 11309700000.0 11309700000.0 11309700000.0 11309700000.0 11309700000.0 11309700000.0 11309700000.0 11309700000.0 11309700000.0 11309700000.0 11309700000.0 11309700000.0 11309700000.0 11309700000.0 11309700000.0 11309700000.0 11309700000.0 11309700000.0 11309700000.0 11309700000.0 11309700000.0 11309700000.0 11309700000.0 11309700000.0 11309700000.0 11309700000.0 11309700000.0 11309700000.0 11309700000.0 11309700000.0 11309700000.0 11309700000.0 11309700000.0 11309700000.0 11309700000.0 11309700000.0 11309700000.0 11309700000.0 11309700000.0 11309700000.0 11309700000.0 11309700000.0 11309700000.0 11309700000.0 11309700000.0 11309700000.0 11309700000.0 11309700000.0 11309700000.0 11309700000.0 11309700000.0 11309700000.0 11309700000.0 11309700000.0 11309700000.0 11309700000.0 11309700000.0 11309700000.0 11309700000.0 11309700000.0 11309700000.0 11309700000.0 11309700000.0 11309700000.0 11309700000.0 11309700000.0 11309700000.0 11309700000.0 11309700000.0 11309700000.0 11309700000.0 11309700000.0 11309700000.0 11309700000.0 11309700000.0 11309700000.0 11309700000.0 11309700000.0 11309700000.0 11309700000.0 11309700000.0 11309700000.0 11309700000.0 11309700000.0 11309700000.0 11309700000.0 11309700000.0 11309700000.0 11309700000.0 11309700000.0 11309700000.0 11309700000.0 11309700000.0 11309700000.0 11309700000.0 11309700000.0 11309700000.0 11309700000.0 11309700000.0 11309700000.0 11309700000.0 11309700000.0 11309700000.0 11309700000.0 11309700000.0 11309700000.0 11309700000.0 11309700000.0 11309700000.0 11309700000.0 11309700000.0 11309700000.0 11309700000.0 11309700000.0 11309700000.0 11309700000.0 11309700000.0 11309700000.0 11309700000.0 11309700000.0 11309700000.0 11309700000.0 11309700000.0 11309700000.0 11309700000.0 11309700000.0 11309700000.0 11309700000.0 11309700000.0 11309700000.0 11309700000.0 11309700000.0 11309700000.0 11309700000.0 11309700000.0 11309700000.0 11309700000.0 11309700000.0 11309700000.0 11309700000.0 11309700000.0 11309700000.0 11309700000.0 11309700000.0 11309700000.0 11309700000.0 11309700000.0 11309700000.0 11309700000.0 11309700000.0 11309700000.0 11309700000.0 11309700000.0 11309700000.0 11309700000.0 11309700000.0 11309700000.0 11309700000.0 11309700000.0 11309700000.0 11309700000.0 11309700000.0 11309700000.0 11309700000.0 11309700000.0 11309700000.0 11309700000.0 11309700000.0 11309700000.0 11309700000.0 11309700000.0 11309700000.0 11309700000.0 11309700000.0 11309700000.0 11309700000.0 11309700000.0 11309700000.0 11309700000.0 11309700000.0 11309700000.0 11309700000.0 11309700000.0 11309700000.0 11309700000.0 11309700000.0 11309700000.0 11309700000.0 11309700000.0 11309700000.0 11309700000.0 11309700000.0 11309700000.0 11309700000.0 11309700000.0 11309700000.0 11309700000.0 11309700000.0 11309700000.0 11309700000.0 11309700000.0 11309700000.0 11309700000.0 11309700000.0 11309700000.0 11309700000.0 11309700000.0 11309700000.0 11309700000.0 11309700000.0 11309700000.0 11309700000.0 11309700000.0 11309700000.0 11309700000.0 11309700000.0 11309700000.0 11309700000.0 11309700000.0 11309700000.0 11309700000.0 11309700000.0 11309700000.0 11309700000.0 11309700000.0 11309700000.0 
SCALARS Velocity float 1
LOOKUP_TABLE default
1.12892 1.12892 0.893888 1.05242 1.16577 1.16577 1.05242 0.893888 0.89389 1.13849 0.928865 1.22401 0.965704 1.10132 1.04941 1.00974 1.11815 1.11815 1.00974 1.04941 1.10132 0.965704 1.22401 0.928865 1.13849 0.89389 0.668011 1.09281 1.16566 1.14992 1.03627 1.04744 1.01646 0.986819 0.791693 0.986819 1.01646 1.04744 1.03627 1.14992 1.16566 1.09281 0.668011 0.65124 0.926315 0.880087 1.14696 1.19777 1.18763 1.09159 0.997949 1.04415 1.00808 0.98013 1.11763 0.795031 1.11763 0.98013 1.00808 1.04415 0.997949 1.09159 1.18763 1.19777 1.14696 0.880087 0.926315 0.65124 0.636897 0.652691 0.688557 0.836859 0.939735 1.19895 1.14766 1.06434 1.00154 1.00778 1.10946 1.10946 1.00778 1.00154 1.06434 1.14766 1.19895 0.939735 0.836859 0.688557 0.652691 0.636897 0.647647 0.636187 0.637368 0.751331 0.894686 1.00351 1.17175 1.09623 1.09019 0.944712 0.978301 0.804342 0.978301 0.944712 1.09019 1.09623 1.17175 1.00351 0.894686 0.751331 0.637368 0.636187 0.647647 0.661604 0.642391 0.697202 0.966725 0.964047 1.10257 1.24708 1.14146 0.972833 0.976434 0.946766 1.00867 0.981197 1.10625 0.80996 1.10625 0.981197 1.00867 0.946766 0.976434 0.972833 1.14146 1.24708 1.10257 0.964047 0.966725 0.697202 0.642391 0.661604 0.67542 0.651984 0.670124 0.66689 0.735768 0.805269 0.996159 1.12234 1.26056 1.0499 1.22529 1.23397 0.973987 0.968838 1.01553 1.10109 1.10109 1.01553 0.968838 0.973987 1.23397 1.22529 1.0499 1.26056 1.12234 0.996159 0.805269 0.735768 0.66689 0.670124 0.651984 0.67542 0.676551 0.680485 0.669299 0.675579 0.717338 0.856389 1.18238 1.40481 0.877712 0.981231 0.94783 0.98005 0.812146 0.98005 0.94783 0.981231 0.877712 1.40481 1.18238 0.856389 0.717338 0.675579 0.669299 0.680485 0.676551 0.667995 0.673041 0.679186 0.679972 0.700262 0.75399 0.789052 1.05721 1.36339 0.91304 0.837681 0.935867 0.975776 0.996178 0.973078 0.947707 1.01972 1.09344 1.09344 1.01972 0.947707 0.973078 0.996178 0.975776 0.935867 0.837681 0.91304 1.36339 1.05721 0.789052 0.75399 0.700262 0.679972 0.679186 0.673041 0.667995 0.658057 0.674354 0.681353 0.684933 0.689477 0.718066 0.835891 0.897031 1.15622 1.29413 0.861031 0.927314 0.994163 0.989353 1.01405 0.972186 1.09543 1.08894 1.09543 0.972186 1.01405 0.989353 0.994163 0.927314 0.861031 1.29413 1.15622 0.897031 0.835891 0.718066 0.689477 0.684933 0.681353 0.674354 0.658057 0.644994 0.665788 0.671023 0.677501 0.679932 0.692769 0.767858 0.930391 0.779151 0.945558 0.982577 1.01742 0.956455 0.985487 1.09501 0.985487 0.956455 1.01742 0.982577 0.945558 0.779151 0.930391 0.767858 0.692769 0.679932 0.677501 0.671023 0.665788 0.644994 0.631057 0.640784 0.65429 0.661727 0.673659 0.68045 0.6833 0.713321 0.727692 0.808303 0.715178 0.671822 0.826574 0.907662 0.975523 0.979742 1.03349 1.0298 1.02881 0.995631 0.965352 0.935778 0.909708 1.1013 1.1013 0.909708 0.935778 0.965352 0.995631 1.02881 1.0298 1.03349 0.979742 0.975523 0.907662 0.826574 0.671822 0.715178 0.808303 0.727692 0.713321 0.6833 0.68045 0.673659 0.661727 0.65429 0.640784 0.631057 0.600599 0.615912 0.625677 0.649917 0.665941 0.665186 0.671284 0.668218 0.68704 0.701704 0.643943 0.746873 0.911646 1.03278 1.0528 0.99854 0.941745 0.920288 1.11463 0.920288 0.941745 0.99854 1.0528 1.03278 0.911646 0.746873 0.643943 0.701704 0.68704 0.668218 0.671284 0.665186 0.665941 0.649917 0.625677 0.615912 0.600599 0.584471 0.609357 0.636783 0.645258 0.656504 0.658894 0.659014 0.665096 0.667711 0.642445 0.662049 0.688586 0.813304 1.00163 1.06727 1.03114 0.971451 0.934693 0.915572 0.915572 0.934693 0.971451 1.03114 1.06727 1.00163 0.813304 0.688586 0.662049 0.642445 0.667711 0.665096 0.659014 0.658894 0.656504 0.645258 0.636783 0.609357 0.584471 0.568645 0.575327 0.591959 0.605522 0.621865 0.633515 0.651468 0.65449 0.652817 0.651985 0.645678 0.649453 0.633738 0.663383 0.758871 0.933368 1.03651 1.06733 1.09036 1.06653 1.01563 0.997845 0.988941 0.961547 0.961945 0.939387 0.556029 0.939387 0.961945 0.961547 0.988941 0.997845 1.01563 1.06653 1.09036 1.06733 1.03651 0.933368 0.758871 0.663383 0.633738 0.649453 0.645678 0.651985 0.652817 0.65449 0.651468 0.633516 0.621865 0.605522 0.591959 0.575327 0.568645 0.55462 0.560447 0.587961 0.619273 0.643005 0.647871 0.653031 0.650401 0.645757 0.635756 0.635304 0.718831 0.79187 0.832125 0.973337 1.09201 1.02128 1.0116 0.990385 0.597537 0.581581 0.592457 0.581581 0.597537 0.990385 1.0116 1.02128 1.09201 0.973337 0.832125 0.79187 0.718831 0.635304 0.635756 0.645757 0.650401 0.653031 0.647871 0.643005 0.619273 0.587961 0.560447 0.55462 0.530525 0.541633 0.546108 0.568694 0.582459 0.601989 0.615556 0.630402 0.636807 0.644949 0.661972 0.647396 0.630042 0.638196 0.670103 0.773774 0.864064 1.06483 1.02523 1.02527 1.01867 0.616098 0.6087 0.6087 0.616098 1.01867 1.02527 1.02523 1.06483 0.864064 0.773774 0.670103 0.638196 0.630042 0.647396 0.661972 0.644949 0.636807 0.630402 0.615556 0.601989 0.582459 0.568694 0.546108 0.541633 0.530525 0.521095 0.534115 0.538751 0.552252 0.560119 0.596101 0.627672 0.63934 0.644744 0.669222 0.65064 0.668791 0.641199 0.638522 0.692917 0.848023 0.917415 1.04614 1.02038 1.03884 0.633947 0.623912 0.619311 0.623912 0.633948 1.03884 1.02038 1.04614 0.917415 0.848023 0.692916 0.638522 0.641199 0.668791 0.650641 0.669222 0.644744 0.63934 0.627672 0.596101 0.560119 0.552252 0.538751 0.534115 0.521095 0.507357 0.519709 0.528534 0.526562 0.544437 0.571698 0.588614 0.611484 0.624495 0.631194 0.624063 0.62687 0.647459 0.638027 0.618321 0.642344 0.890631 0.790224 0.833966 1.00036 1.07028 1.02394 1.02591 1.04465 0.654809 0.646397 0.657168 0.647129 0.65385 0.634273 0.644038 0.634273 0.65385 0.647129 0.657168 0.646397 0.654809 1.04465 1.02591 1.02394 1.07028 1.00036 0.833966 0.790224 0.890631 0.642344 0.618321 0.638027 0.647459 0.62687 0.624063 0.631194 0.624495 0.611484 0.588615 0.571698 0.544437 0.526562 0.528534 0.519709 0.507357 0.442766 0.482221 0.504909 0.527618 0.53448 0.536113 0.548232 0.556113 0.608684 0.624996 0.612829 0.697007 0.676547 0.479036 0.589819 0.933936 0.702798 0.805516 1.04924 0.675812 0.662786 0.670167 0.659995 0.659995 0.670167 0.662787 0.675812 1.04924 0.805516 0.702798 0.933935 0.589819 0.479035 0.676547 0.697007 0.612829 0.624996 0.608684 0.556113 0.548232 0.536114 0.53448 0.527618 0.504909 0.482221 0.442766 0.399598 0.477573 0.5246 0.517394 0.512418 0.533245 0.528486 0.576182 0.626992 0.630077 0.605598 0.611252 0.659974 0.720759 0.602053 0.973467 0.603841 1.00175 0.545677 0.66379 0.920618 0.808139 0.827336 0.658282 0.672879 0.67702 0.67124 0.677021 0.67288 0.658282 0.827336 0.808139 0.920618 0.66379 0.545677 1.00175 0.603841 0.973467 0.602053 0.720759 0.659974 0.611252 0.605598 0.630077 0.626992 0.576182 0.528487 0.533245 0.512418 0.517394 0.5246 0.477573 0.399598 0.353216 0.438345 0.481785 0.507094 0.534026 0.47842 0.547325 0.52384 0.490663 0.528563 0.559628 0.610231 0.663834 0.626347 0.636999 1.20089 0.51296 0.773312 0.610613 0.615921 0.547778 0.869165 0.766779 0.672419 1.18948 0.669357 0.693811 0.696782 0.679462 0.685748 0.683646 0.69219 0.683646 0.685748 0.679463 0.696783 0.693812 0.669357 1.18948 0.672419 0.766779 0.869166 0.547778 0.615921 0.610613 0.773313 0.51296 1.20089 0.636999 0.626347 0.663834 0.610232 0.559628 0.528563 0.490664 0.52384 0.547325 0.47842 0.534026 0.507094 0.481785 0.438345 0.353216 0.297173 0.342583 0.391867 0.429746 0.524322 0.506838 0.435727 0.465917 0.474074 0.640931 0.663132 0.600648 0.893656 0.462105 0.752989 0.564158 0.529041 0.810741 0.735814 0.605657 0.819602 0.912132 0.756014 0.693904 0.695358 0.695358 0.693904 0.756013 0.912132 0.819602 0.605657 0.735814 0.810741 0.529041 0.564158 0.752989 0.462105 0.893656 0.600648 0.663132 0.640931 0.474075 0.465918 0.435727 0.506838 0.524322 0.429746 0.391867 0.342583 0.297173 0.19419 0.237261 0.297 0.376277 0.474977 0.551275 0.578057 0.436544 0.457201 0.156558 0.346645 0.542009 0.571728 0.723024 0.734114 0.637279 0.6578 0.695045 0.796252 1.22035 1.42426 0.502958 0.651864 0.517695 0.577711 0.949393 0.868273 0.875636 0.718474 0.691522 0.698877 0.707434 0.698877 0.691522 0.718474 0.875635 0.868273 0.949393 0.577711 0.517695 0.651864 0.502958 1.42426 1.22035 0.796252 0.695045 0.6578 0.637279 0.734114 0.723024 0.571728 0.542009 0.346646 0.156557 0.457204 0.436546 0.578057 0.551275 0.474977 0.376277 0.297 0.237261 0.19419 0.174246 0.23784 0.342595 0.380794 0.423101 0.490419 0.627332 0.12067 0.335878 0.847737 0.674822 0.646402 0.842344 0.685847 1.19066 0.431865 0.468648 0.519806 0.541331 0.556691 0.527914 0.780279 0.691746 0.840358 0.854163 0.8279 0.951547 0.687277 0.703732 0.714646 0.709749 0.718009 0.709752 0.714647 0.703733 0.687277 0.951549 0.8279 0.854163 0.840358 0.691746 0.780279 0.527914 0.556691 0.541331 0.519806 0.468648 0.431865 1.19066 0.685847 0.842344 0.646402 0.674822 0.847737 0.335879 0.120671 0.627333 0.490419 0.423101 0.380794 0.342595 0.23784 0.174246 0.164749 0.181971 0.252991 0.299643 0.355337 0.434038 0.63678 0.635406 0.249983 0.530317 0.945433 0.569167 0.98155 0.530607 0.671034 0.526168 0.537392 0.486101 0.744303 0.649245 0.964263 0.889725 0.864026 0.927823 0.715424 0.726608 0.726609 0.715422 0.927824 0.864026 0.889726 0.964263 0.649245 0.744303 0.486101 0.537392 0.526168 0.671034 0.530607 0.98155 0.569167 0.945433 0.530319 0.249986 0.63541 0.636779 0.434038 0.355337 0.299643 0.252991 0.181971 0.164749 0.157409 0.191625 0.167214 0.2199 0.32025 0.395218 0.442285 0.526772 1.02039 0.718806 0.842306 0.732848 0.606897 0.578533 0.519368 0.92296 0.83282 0.669593 0.773473 0.484203 0.507584 0.692955 0.672838 0.969614 0.807895 0.949543 0.841168 0.833662 0.853079 0.704453 0.719698 0.725156 0.719698 0.704453 0.853078 0.833662 0.841169 0.949543 0.807895 0.969614 0.672838 0.692955 0.507584 0.484203 0.773473 0.669593 0.832819 0.92296 0.519368 0.578532 0.606897 0.732848 0.842305 0.718807 1.02038 0.52677 0.442285 0.395218 0.32025 0.2199 0.167214 0.191625 0.157409 0.156258 0.0729501 0.250719 0.30848 0.389996 0.389789 0.44027 0.47925 1.33388 0.784195 0.578518 0.521338 0.410174 0.181129 0.796955 0.809884 0.585216 0.598776 0.713344 0.571252 0.542902 0.575982 0.961402 0.836153 0.839567 0.864068 0.891611 0.759871 0.892669 0.722219 0.74522 0.712494 0.745223 0.722221 0.89267 0.759871 0.891612 0.864067 0.839567 0.836153 0.961402 0.575982 0.542902 0.571252 0.713345 0.598776 0.585216 0.809884 0.796955 0.181129 0.410174 0.521337 0.578518 0.784194 1.33388 0.479252 0.44027 0.389789 0.389996 0.30848 0.250719 0.0729502 0.156258 0.199024 0.2746 0.0659067 0.333898 0.419852 0.45219 0.489071 0.865151 0.777883 0.666447 0.586189 0.487916 0.393213 0.234441 0.671766 0.720777 0.6702 0.623783 0.663896 0.634526 0.595807 0.540299 0.521724 0.690106 0.606829 0.96656 0.800128 0.834701 0.88368 0.804962 0.785669 0.78567 0.804962 0.883681 0.834701 0.800128 0.96656 0.606829 0.690106 0.521724 0.540299 0.595806 0.634526 0.663896 0.623783 0.6702 0.720777 0.671766 0.234442 0.393213 0.487916 0.586189 0.666447 0.777882 0.865149 0.489072 0.45219 0.419852 0.333898 0.0659067 0.2746 0.199024 0.301685 0.303372 0.225445 0.0913162 0.0706013 0.0479365 0.0497327 0.459505 0.503284 0.490779 0.434051 0.763064 0.571103 0.558056 0.516113 0.476371 0.405569 0.304258 0.7526 0.710671 0.671538 0.658014 0.65126 0.629229 0.450895 0.750645 0.576258 0.946357 0.797098 0.886562 0.832843 0.838173 0.802785 0.868467 0.793843 0.758031 0.706091 0.758036 0.793843 0.868468 0.802785 0.838172 0.832843 0.886562 0.797098 0.946357 0.576258 0.750645 0.450895 0.629229 0.65126 0.658014 0.671538 0.710671 0.7526 0.304259 0.405569 0.476371 0.516113 0.558055 0.571102 0.763063 0.434051 0.490779 0.503284 0.459505 0.0497327 0.0479365 0.0706013 0.0913162 0.225445 0.303372 0.301685 0.310796 0.429483 0.200368 0.0372943 0.132701 0.206053 0.431051 0.782532 0.514875 0.79733 0.732171 0.702487 0.697862 0.651279 0.63086 0.58172 0.549721 0.626784 0.806997 0.89273 0.832865 0.809249 0.864442 0.885673 0.81366 0.816562 0.771196 0.839514 0.698712 0.839516 0.771198 0.816562 0.81366 0.885673 0.864442 0.809249 0.832865 0.89273 0.806997 0.626784 0.549721 0.58172 0.63086 0.651279 0.697862 0.702487 0.732171 0.79733 0.514875 0.782532 0.431051 0.206053 0.132701 0.0372943 0.200368 0.429483 0.310796 0.787943 0.403377 0.692058 0.177333 0.0748329 0.194964 0.357338 0.415839 0.849522 0.550234 0.566637 0.521461 0.470283 0.417704 0.333264 0.822258 0.75248 0.715943 0.698406 0.687558 0.67168 0.590379 0.5248 0.450148 0.71765 0.950221 0.836511 0.844366 0.78027 0.830759 0.830762 0.78027 0.844367 0.836511 0.950221 0.71765 0.450148 0.5248 0.590379 0.67168 0.687558 0.698406 0.715943 0.75248 0.822258 0.333264 0.417704 0.470283 0.521461 0.566636 0.550234 0.849522 0.415839 0.357338 0.194965 0.074833 0.177333 0.692058 0.403377 0.787943 0.821362 0.406719 0.804627 0.166163 0.210404 0.277286 0.325817 0.493054 0.488567 0.470388 0.436497 0.369126 0.832589 0.771279 0.72934 0.703642 0.689306 0.677986 0.657372 0.631365 0.629011 0.558553 0.791228 0.786151 0.858714 0.870444 0.827383 0.855282 0.821003 0.829491 0.866083 0.785034 0.729346 0.696433 0.729342 0.785034 0.866083 0.829491 0.821003 0.855282 0.827383 0.870444 0.858714 0.786151 0.791228 0.558553 0.629011 0.631365 0.657372 0.677986 0.689306 0.703642 0.72934 0.771279 0.83259 0.369126 0.436497 0.470387 0.488567 0.493054 0.325817 0.277286 0.210404 0.166164 0.804627 0.406719 0.821362 0.811295 0.555927 0.722591 0.875923 0.908591 0.283904 0.231577 0.339798 0.669158 0.4766 0.460733 0.523144 0.474973 0.416942 0.70141 0.702473 0.706561 0.70257 0.692103 0.670419 0.576994 0.777069 0.852269 0.855209 0.822562 0.83997 0.861999 0.855879 0.792482 0.791871 0.745776 0.85255 0.707807 0.852551 0.745774 0.79187 0.792482 0.855879 0.861999 0.83997 0.822562 0.855209 0.852269 0.777069 0.576994 0.670419 0.692103 0.70257 0.706561 0.702473 0.70141 0.416942 0.474973 0.523144 0.460733 0.4766 0.669158 0.339798 0.231577 0.283904 0.908591 0.875923 0.722591 0.555927 0.811295 0.806558 0.773171 0.998742 0.882927 0.307061 0.485786 0.544066 0.471107 0.428693 0.518474 0.464146 0.839954 0.785557 0.742621 0.715034 0.705399 0.695173 0.677664 0.638002 0.762217 0.859577 0.828625 0.86213 0.787532 0.820105 0.820108 0.787531 0.86213 0.828625 0.859577 0.762216 0.638002 0.677664 0.695173 0.705399 0.715034 0.742621 0.785557 0.839954 0.464147 0.518474 0.428693 0.471107 0.544066 0.485786 0.307061 0.882927 0.998742 0.773171 0.806558 0.781246 0.754274 0.805409 0.806433 0.920212 0.47211 0.514169 0.509028 0.47619 0.393012 0.858339 0.791658 0.753234 0.727558 0.710258 0.704744 0.708806 0.719077 0.699 0.667177 0.86385 0.823928 0.856138 0.847223 0.826286 0.844509 0.812115 0.841009 0.857741 0.784288 0.733329 0.71863 0.733328 0.784288 0.857741 0.841009 0.812115 0.844509 0.826286 0.847223 0.856138 0.823928 0.86385 0.667177 0.699 0.719077 0.708806 0.704744 0.710258 0.727558 0.753234 0.791658 0.858339 0.393012 0.47619 0.509028 0.514169 0.472109 0.920212 0.806433 0.805409 0.754274 0.781246 0.644853 1.00649 0.880897 0.677187 0.871718 0.459694 0.53049 0.511553 0.490638 0.87066 0.79481 0.762641 0.74286 0.721217 0.709945 0.711065 0.718057 0.719581 0.718745 0.663047 0.817562 0.836586 0.831323 0.842153 0.810465 0.846355 0.85652 0.866957 0.788592 0.795435 0.739984 0.916588 0.734747 0.916588 0.739983 0.795435 0.788591 0.866957 0.85652 0.846355 0.810466 0.842153 0.831323 0.836586 0.817562 0.663047 0.718745 0.719581 0.718057 0.711065 0.709945 0.721217 0.74286 0.762641 0.79481 0.87066 0.490638 0.511553 0.53049 0.459694 0.871718 0.677187 0.880897 1.00649 0.644853 0.7805 0.727875 0.640891 0.721986 0.786056 0.533888 0.501079 0.360197 0.696027 0.735234 0.714414 0.716295 0.723381 0.724018 0.71783 0.71585 0.702839 0.859254 0.857243 0.852844 0.908402 0.92205 0.92205 0.908402 0.852844 0.857243 0.859254 0.702839 0.71585 0.71783 0.724018 0.723381 0.716295 0.714414 0.735234 0.696027 0.360197 0.501079 0.533888 0.786056 0.721986 0.640891 0.727875 0.7805 0.973161 0.439384 0.466592 0.691077 0.521187 0.530296 0.562879 0.780873 0.776942 0.758461 0.729564 0.721654 0.716242 0.711071 0.667341 0.864573 0.795338 0.854834 0.74693 0.83815 0.862013 0.826857 0.846792 0.85554 0.785538 0.736169 0.74789 0.736169 0.785538 0.85554 0.846792 0.826857 0.862013 0.83815 0.74693 0.854834 0.795338 0.864573 0.667341 0.711071 0.716242 0.721654 0.729564 0.758461 0.776942 0.780873 0.562879 0.530296 0.521187 0.691077 0.466593 0.439384 0.973161 0.791403 0.690276 0.72487 0.582247 0.528722 0.575276 0.651528 0.54896 0.766941 0.775178 0.773721 0.753752 0.720159 0.718273 0.729649 0.712849 0.669995 0.876854 0.809365 0.854585 0.804582 0.830647 0.820641 0.80416 0.839683 0.843053 0.857303 0.839802 0.921388 0.818868 0.940039 0.762026 0.940039 0.818868 0.921388 0.839802 0.857303 0.843053 0.839683 0.80416 0.820641 0.830647 0.804582 0.854585 0.809365 0.876854 0.669995 0.712849 0.729649 0.718273 0.720159 0.753752 0.773721 0.775178 0.766941 0.54896 0.651528 0.575276 0.528722 0.582247 0.72487 0.690276 0.791403 0.89752 0.645018 0.656486 0.852533 0.873051 0.696222 0.674488 0.632463 0.572455 0.643783 0.69857 0.764919 0.771006 0.778944 0.776365 0.729319 0.724805 0.72586 0.734421 0.731237 0.722275 0.944665 0.940842 0.940842 0.944665 0.722275 0.731237 0.734421 0.72586 0.724805 0.729319 0.776365 0.778944 0.771007 0.764919 0.69857 0.643783 0.572455 0.632463 0.674488 0.696222 0.873051 0.852532 0.656486 0.645018 0.89752 0.863449 0.737034 0.717791 0.740029 0.707167 0.689521 0.652348 0.687201 0.788332 0.747167 0.73784 0.72728 0.726434 0.74304 0.71495 0.678706 0.925423 0.855519 0.829361 0.858286 0.837147 0.826966 0.823117 0.795069 0.815233 0.812106 0.859544 0.883228 0.869118 0.845304 0.774694 0.845304 0.869118 0.883228 0.859544 0.812106 0.815233 0.795069 0.823117 0.826966 0.837147 0.858286 0.829361 0.855519 0.925423 0.678706 0.71495 0.74304 0.726434 0.72728 0.73784 0.747167 0.788332 0.687201 0.652348 0.689521 0.707167 0.740029 0.717791 0.737034 0.863449 0.808769 0.786108 0.785446 0.794986 0.633418 0.679736 0.733122 0.766836 0.779626 0.726332 0.735315 0.69822 0.893574 0.882388 0.848307 0.930116 0.842703 0.91504 0.852429 0.909293 0.854654 0.908483 0.881252 0.909322 0.887996 0.913792 0.858463 0.92065 0.783417 0.92065 0.858463 0.913792 0.887996 0.909322 0.881252 0.908483 0.854654 0.909293 0.852429 0.91504 0.842703 0.930116 0.848307 0.882388 0.893574 0.69822 0.735315 0.726332 0.779626 0.766836 0.733122 0.679736 0.633418 0.794986 0.785446 0.786108 0.808769 0.774567 0.803313 0.675624 0.683052 0.717638 0.663033 0.711474 0.750562 0.773333 0.790046 0.756449 0.761929 0.740574 0.727012 0.727012 0.740574 0.76193 0.756449 0.790046 0.773333 0.750562 0.711474 0.663033 0.717638 0.683052 0.675624 0.803313 0.774567 0.864999 0.866452 0.899824 0.736357 0.763817 0.805022 0.700486 0.693188 0.721926 0.694135 0.734814 0.766504 0.789677 0.807543 0.83421 0.826899 0.778548 0.739754 0.74592 0.807916 0.758717 0.853774 0.936224 0.861088 0.972075 0.873593 0.952732 0.884251 0.939354 0.883308 0.930519 0.895707 0.925128 0.895507 0.92178 0.86221 0.922263 0.791817 0.922263 0.86221 0.92178 0.895507 0.925128 0.895707 0.930519 0.883308 0.939354 0.884251 0.952732 0.873593 0.972075 0.861088 0.936224 0.853774 0.758717 0.807916 0.74592 0.739754 0.778548 0.826899 0.83421 0.807543 0.789677 0.766504 0.734814 0.694135 0.721926 0.693188 0.700486 0.805022 0.763817 0.736357 0.899824 0.866452 0.864999 0.914859 0.907693 0.909495 0.906894 0.816856 0.822195 0.786472 0.796232 0.807256 0.828113 0.757064 0.783129 0.806424 0.826056 0.834192 0.80875 0.865423 0.864648 0.86393 0.896597 0.887512 0.897187 0.885861 0.896776 0.889637 0.896435 0.894353 0.89573 0.891632 0.894604 0.897275 0.894681 0.893598 0.894651 0.863065 0.893948 0.802451 0.893948 0.863065 0.894651 0.893598 0.894681 0.897275 0.894604 0.891632 0.89573 0.894353 0.896435 0.889637 0.896776 0.885861 0.897187 0.887512 0.896597 0.86393 0.864648 0.865423 0.80875 0.834192 0.826056 0.806424 0.783129 0.757064 0.828113 0.807256 0.796232 0.786472 0.822195 0.816856 0.906894 0.909495 0.907693 0.914859 0.727563 0.727563 0.918019 0.896436 0.897014 0.899876 0.859013 0.867963 0.860383 0.878994 0.892653 0.907983 0.794574 0.817126 0.827429 0.854701 0.868875 0.865289 0.841658 0.900507 0.882564 0.879723 0.904259 0.890809 0.901643 0.889545 0.899602 0.892346 0.898133 0.894516 0.896955 0.892895 0.896403 0.894763 0.89456 0.889429 0.89401 0.863221 0.894014 0.812543 0.894014 0.863221 0.89401 0.889429 0.89456 0.894763 0.896403 0.892895 0.896955 0.894516 0.898133 0.892346 0.899602 0.889545 0.901643 0.890809 0.904259 0.879723 0.882564 0.900507 0.841658 0.86529 0.868875 0.854701 0.827429 0.817126 0.794574 0.907983 0.892653 0.878994 0.860383 0.867963 0.859013 0.899876 0.897014 0.896436 0.918019 0.910739 0.89709 0.897749 0.900633 0.87228 0.872953 0.860447 0.87487 0.898136 0.902075 0.824045 0.836899 0.849048 0.875693 0.881715 0.876784 0.857662 0.897997 0.881719 0.887145 0.894108 0.890627 0.894026 0.891054 0.893921 0.893183 0.893912 0.893467 0.893832 0.892706 0.893832 0.891996 0.893832 0.885929 0.893832 0.86406 0.893832 0.821792 0.893832 0.86406 0.893832 0.885929 0.893832 0.891996 0.893832 0.892706 0.893832 0.893467 0.893912 0.893183 0.893921 0.891054 0.894026 0.890627 0.894108 0.887145 0.881719 0.897997 0.857662 0.876784 0.881715 0.875693 0.849048 0.836899 0.824045 0.902075 0.898136 0.87487 0.860447 0.872953 0.87228 0.900633 0.897749 0.89709 0.910739 0.903917 0.896912 0.89748 0.900159 0.879992 0.87617 0.864816 0.872972 0.891114 0.892765 0.836419 0.844545 0.856202 0.881614 0.885573 0.881283 0.867515 0.894894 0.881166 0.893387 0.894207 0.890437 0.894062 0.891851 0.893911 0.892957 0.893832 0.892396 0.893832 0.891855 0.893832 0.890039 0.893832 0.883285 0.893832 0.865509 0.893832 0.83021 0.893832 0.865509 0.893832 0.883285 0.893832 0.890039 0.893832 0.891855 0.893832 0.892396 0.893832 0.892957 0.893911 0.891851 0.894062 0.890437 0.894207 0.893387 0.881166 0.894894 0.867515 0.881283 0.885573 0.881614 0.856202 0.844545 0.836419 0.892765 0.891114 0.872972 0.864816 0.87617 0.879992 0.900159 0.89748 0.896912 0.903917 0.899127 0.896676 0.897148 0.89953 0.885353 0.879296 0.869379 0.873242 0.885276 0.890138 0.839976 0.853167 0.862601 0.88576 0.888163 0.884698 0.876435 0.893016 0.882186 0.896039 0.893835 0.890507 0.893832 0.89229 0.893832 0.892329 0.893832 0.891623 0.893832 0.890817 0.893832 0.888628 0.893832 0.881423 0.893832 0.867261 0.893832 0.837879 0.893832 0.867261 0.893832 0.881423 0.893832 0.888628 0.893832 0.890817 0.893832 0.891623 0.893832 0.892329 0.893832 0.89229 0.893832 0.890507 0.893835 0.896039 0.882186 0.893016 0.876435 0.884698 0.888163 0.88576 0.862601 0.853167 0.839976 0.890138 0.885276 0.873242 0.869379 0.879296 0.885353 0.89953 0.897148 0.896676 0.899127 0.895432 0.896392 0.896757 0.898784 0.889411 0.882241 0.873204 0.874098 0.88186 0.886908 0.849174 0.860871 0.868123 0.889339 0.889978 0.88769 0.883492 0.892051 0.883844 0.89624 0.893837 0.890678 0.893832 0.892457 0.893832 0.891582 0.893832 0.891033 0.893832 0.889825 0.893832 0.887537 0.893832 0.880214 0.893832 0.86917 0.893832 0.844851 0.893832 0.86917 0.893832 0.880214 0.893832 0.887537 0.893832 0.889825 0.893832 0.891033 0.893832 0.891582 0.893832 0.892457 0.893832 0.890678 0.893837 0.89624 0.883844 0.892051 0.883492 0.88769 0.889978 0.889339 0.868123 0.860871 0.849174 0.886908 0.88186 0.874098 0.873204 0.882241 0.889411 0.898784 0.896757 0.896392 0.895432 0.892359 0.896071 0.89632 0.897959 0.892142 0.88483 0.88858 0.891519 0.885538 0.895704 0.893832 0.890874 0.893832 0.892447 0.893832 0.890876 0.893832 0.890517 0.893832 0.888983 0.893832 0.886672 0.893832 0.879547 0.893832 0.871129 0.893832 0.851155 0.893832 0.871129 0.893832 0.879547 0.893832 0.886672 0.893832 0.888983 0.893832 0.890517 0.893832 0.890876 0.893832 0.892447 0.893832 0.890874 0.893832 0.895704 0.885538 0.891519 0.88858 0.88483 0.892142 0.897959 0.89632 0.896071 0.892359 0.876829 0.875535 0.880181 0.883476 0.866102 0.867252 0.873103 0.891744 0.891365 0.889867 0.889867 0.891365 0.891744 0.873103 0.867252 0.866102 0.883476 0.880181 0.875535 0.876829 0.890087 0.895727 0.895856 0.897091 0.893615 0.887035 0.88048 0.87775 0.879837 0.881724 0.87887 0.872445 0.877444 0.892899 0.892095 0.891278 0.89192 0.891138 0.887064 0.895134 0.893832 0.891046 0.893832 0.892317 0.893832 0.89029 0.893832 0.890052 0.893832 0.888324 0.893832 0.886003 0.893832 0.879322 0.893832 0.87306 0.893832 0.856806 0.893832 0.87306 0.893832 0.879322 0.893832 0.886003 0.893832 0.888324 0.893832 0.890052 0.893832 0.89029 0.893832 0.892317 0.893832 0.891046 0.893832 0.895134 0.887064 0.891138 0.89192 0.891278 0.892095 0.892899 0.877444 0.872445 0.87887 0.881724 0.879837 0.87775 0.88048 0.887035 0.893615 0.897091 0.895856 0.895727 0.890087 0.893832 0.893832 0.893832 0.893832 0.893832 0.893832 0.893832 0.893832 0.893832 0.893832 0.893832 0.893832 0.893832 0.893832 0.893832 0.893832 0.893832 0.893832 0.888727 0.895371 0.895383 0.896219 0.894335 0.888849 0.883849 0.880468 0.880603 0.881678 0.884035 0.876654 0.881063 0.893061 0.891999 0.892082 0.893383 0.890829 0.888363 0.894675 0.891172 0.892116 0.889844 0.889654 0.887837 0.885513 0.879448 0.874923 0.861825 0.874923 0.879448 0.885513 0.887837 0.889654 0.889844 0.892116 0.891172 0.894675 0.888363 0.890829 0.893383 0.892082 0.891999 0.893061 0.881063 0.876654 0.884035 0.881678 0.880603 0.880468 0.883849 0.888849 0.894335 0.896219 0.895383 0.895371 0.888727 0.888147 0.895016 0.894919 0.895377 0.894535 0.8902 0.886643 0.8832 0.882107 0.882645 0.885075 0.879937 0.883954 0.892418 0.891294 0.892227 0.893371 0.890591 0.889424 0.89432 0.893832 0.891243 0.893832 0.891891 0.893832 0.889522 0.893832 0.889336 0.893832 0.887501 0.893832 0.88518 0.893832 0.879843 0.893832 0.876696 0.893832 0.866245 0.893832 0.876696 0.893832 0.879843 0.893832 0.88518 0.893832 0.887501 0.893832 0.889336 0.893832 0.889522 0.893832 0.891891 0.893832 0.891243 0.893832 0.89432 0.889424 0.890591 0.893371 0.892227 0.891294 0.892418 0.883954 0.879937 0.885075 0.882645 0.882107 0.8832 0.886643 0.8902 0.894535 0.895377 0.894919 0.895016 0.888147 0.888133 0.894671 0.894479 0.894594 0.894276 0.891077 0.888762 0.885605 0.883911 0.884038 0.885033 0.882379 0.886064 0.891163 0.890268 0.891707 0.892637 0.890419 0.890258 0.894039 0.893832 0.891265 0.893832 0.891675 0.893832 0.8893 0.893832 0.889103 0.893832 0.887293 0.893832 0.884992 0.893832 0.880439 0.893832 0.878369 0.893832 0.870113 0.893832 0.878369 0.893832 0.880439 0.893832 0.884992 0.893832 0.887293 0.893832 0.889103 0.893832 0.8893 0.893832 0.891675 0.893832 0.891265 0.893832 0.894039 0.890258 0.890419 0.892637 0.891707 0.890268 0.891163 0.886064 0.882379 0.885033 0.884038 0.883911 0.885605 0.888762 0.891077 0.894276 0.894594 0.894479 0.894671 0.888133 0.888493 0.894347 0.894075 0.893892 0.893728 0.891565 0.890239 0.88755 0.885671 0.885483 0.88502 0.884188 0.887411 0.889609 0.889086 0.890754 0.89173 0.890295 0.890886 0.893808 0.893832 0.891251 0.893832 0.891484 0.893832 0.889157 0.893832 0.888945 0.893832 0.887194 0.893832 0.88494 0.893832 0.881177 0.893832 0.879935 0.893832 0.873483 0.893832 0.879935 0.893832 0.881177 0.893832 0.88494 0.893832 0.887194 0.893832 0.888945 0.893832 0.889157 0.893832 0.891484 0.893832 0.891251 0.893832 0.893808 0.890886 0.890295 0.89173 0.890754 0.889086 0.889609 0.887411 0.884188 0.88502 0.885483 0.885671 0.88755 0.890239 0.891565 0.893728 0.893892 0.894075 0.894347 0.888493 0.889062 0.894049 0.893716 0.893287 0.893098 0.891769 0.891176 0.88901 0.887196 0.886769 0.885214 0.885522 0.888127 0.888083 0.887878 0.889688 0.890895 0.890206 0.891338 0.893611 0.893832 0.891216 0.893832 0.891323 0.893832 0.889077 0.893832 0.888852 0.893832 0.887184 0.893832 0.885018 0.893832 0.882011 0.893832 0.881391 0.893832 0.876407 0.893832 0.881391 0.893832 0.882011 0.893832 0.885018 0.893832 0.887184 0.893832 0.888852 0.893832 0.889077 0.893832 0.891323 0.893832 0.891216 0.893832 0.893611 0.891338 0.890206 0.890895 0.889688 0.887878 0.888083 0.888127 0.885522 0.885214 0.886769 0.887196 0.88901 0.891176 0.891769 0.893098 0.893287 0.893716 0.894049 0.889062 0.889703 0.893782 0.893406 0.892783 0.892517 0.891768 0.891691 0.890026 0.888423 0.887803 0.885569 0.886458 0.888379 0.886796 0.886786 0.888736 0.890204 0.890148 0.891649 0.893438 0.893832 0.891171 0.893832 0.891194 0.893832 0.889049 0.893832 0.888811 0.893832 0.887247 0.893832 0.885212 0.893832 0.882902 0.893832 0.882734 0.893832 0.878935 0.893832 0.882734 0.893832 0.882902 0.893832 0.885212 0.893832 0.887247 0.893832 0.888811 0.893832 0.889049 0.893832 0.891194 0.893832 0.891171 0.893832 0.893438 0.891649 0.890148 0.890204 0.888736 0.886786 0.886796 0.888379 0.886458 0.885569 0.887803 0.888423 0.890026 0.891691 0.891768 0.892517 0.892783 0.893406 0.893782 0.889703 0.890323 0.893547 0.893148 0.892379 0.892036 0.89164 0.891892 0.89068 0.889355 0.888563 0.886012 0.887078 0.888336 0.885826 0.885921 0.887996 0.889672 0.89012 0.891856 0.893283 0.893832 0.891125 0.893832 0.891097 0.893832 0.889063 0.893832 0.888815 0.893832 0.887369 0.893832 0.885502 0.893832 0.883819 0.893832 0.883967 0.893832 0.881112 0.893832 0.883967 0.893832 0.883819 0.893832 0.885502 0.893832 0.887369 0.893832 0.888815 0.893832 0.889063 0.893832 0.891097 0.893832 0.891125 0.893832 0.893283 0.891856 0.89012 0.889672 0.887996 0.885921 0.885826 0.888336 0.887078 0.886012 0.888563 0.889355 0.89068 0.891892 0.89164 0.892036 0.892379 0.893148 0.893547 0.890323 0.890866 0.893344 0.89294 0.892066 0.891667 0.891462 0.891877 0.891062 0.89002 0.889067 0.886481 0.887488 0.88815 0.885172 0.885328 0.887486 0.889292 0.890124 0.891991 0.893143 0.893832 0.891085 0.893832 0.891028 0.893832 0.889112 0.893832 0.888857 0.893832 0.887538 0.893832 0.885869 0.893832 0.884739 0.893832 0.885092 0.893832 0.882983 0.893832 0.885092 0.893832 0.884739 0.893832 0.885869 0.893832 0.887538 0.893832 0.888857 0.893832 0.889112 0.893832 0.891028 0.893832 0.891085 0.893832 0.893143 0.891991 0.890124 0.889292 0.887486 0.885328 0.885172 0.88815 0.887488 0.886481 0.889067 0.89002 0.891062 0.891877 0.891462 0.891667 0.892066 0.89294 0.893344 0.890866 0.891311 0.89317 0.892778 0.891836 0.891403 0.891292 0.891736 0.891251 0.89046 0.889356 0.886926 0.887774 0.887931 0.884797 0.884997 0.887187 0.889054 0.890162 0.892083 0.893015 0.893832 0.891054 0.893832 0.890982 0.893832 0.88919 0.893832 0.888933 0.893832 0.887743 0.893832 0.886291 0.893832 0.885639 0.893832 0.886115 0.893832 0.884586 0.893832 0.886115 0.893832 0.885639 0.893832 0.886291 0.893832 0.887743 0.893832 0.888933 0.893832 0.88919 0.893832 0.890982 0.893832 0.891054 0.893832 0.893015 0.892083 0.890162 0.889054 0.887187 0.884997 0.884797 0.887931 0.887774 0.886926 0.889356 0.89046 0.891251 0.891736 0.891292 0.891403 0.891836 0.892778 0.89317 0.891311 0.891654 0.893024 0.892657 0.891677 0.891232 0.891157 0.891539 0.891311 0.890723 0.889478 0.887316 0.887986 0.887738 0.88465 0.884893 0.887068 0.888941 0.890232 0.892151 0.8929 0.893832 0.891036 0.893832 0.890956 0.893832 0.889289 0.893832 0.889037 0.893832 0.887977 0.893832 0.88675 0.893832 0.886502 0.893832 0.88704 0.893832 0.885956 0.893832 0.88704 0.893832 0.886502 0.893832 0.88675 0.893832 0.887977 0.893832 0.889037 0.893832 0.889289 0.893832 0.890956 0.893832 0.891036 0.893832 0.8929 0.892151 0.890232 0.888941 0.887068 0.884893 0.88465 0.887738 0.887986 0.887316 0.889478 0.890723 0.891311 0.891539 0.891157 0.891232 0.891677 0.892657 0.893024 0.891654 0.891903 0.892902 0.892571 0.891575 0.891137 0.891059 0.891328 0.891294 0.890857 0.889483 0.887639 0.888151 0.887594 0.884685 0.884972 0.887094 0.888936 0.890331 0.892211 0.892798 0.893832 0.891031 0.893832 0.890945 0.893832 0.889404 0.893832 0.889162 0.893832 0.88823 0.893832 0.887232 0.893832 0.887315 0.893832 0.887873 0.893832 0.887125 0.893832 0.887873 0.893832 0.887315 0.893832 0.887232 0.893832 0.88823 0.893832 0.889162 0.893832 0.889404 0.893832 0.890945 0.893832 0.891031 0.893832 0.892798 0.892211 0.890331 0.888936 0.887094 0.884972 0.884685 0.887594 0.888151 0.887639 0.889483 0.890857 0.891294 0.891328 0.891059 0.891137 0.891575 0.892571 0.892902 0.891903 0.892071 0.892799 0.892514 0.89152 0.891103 0.890993 0.891128 0.891237 0.890903 0.889413 0.88789 0.88828 0.887503 0.884856 0.88519 0.887233 0.889018 0.890453 0.892272 0.892706 0.893832 0.891037 0.893832 0.890947 0.893832 0.88953 0.893832 0.889303 0.893832 0.888496 0.893832 0.887722 0.893832 0.888069 0.893832 0.88862 0.893832 0.888122 0.893832 0.88862 0.893832 0.888069 0.893832 0.887722 0.893832 0.888496 0.893832 0.889303 0.893832 0.88953 0.893832 0.890947 0.893832 0.891037 0.893832 0.892706 0.892272 0.890453 0.889018 0.887233 0.88519 0.884856 0.887503 0.88828 0.88789 0.889413 0.890903 0.891237 0.891128 0.890993 0.891103 0.89152 0.892514 0.892799 0.892071 0.892176 0.892712 0.892478 0.891499 0.891114 0.890949 0.890948 0.891166 0.890893 0.889299 0.888075 0.888381 0.887458 0.885124 0.885507 0.887453 0.889169 0.890594 0.892338 0.892627 0.893832 0.891055 0.893832 0.890961 0.893832 0.889661 0.893832 0.889456 0.893832 0.888769 0.893832 0.888208 0.893832 0.88876 0.893832 0.889286 0.893832 0.888969 0.893832 0.889286 0.893832 0.88876 0.893832 0.888208 0.893832 0.888769 0.893832 0.889456 0.893832 0.889661 0.893832 0.890961 0.893832 0.891055 0.893832 0.892627 0.892338 0.890594 0.889169 0.887453 0.885507 0.885124 0.887458 0.888381 0.888075 0.889299 0.890893 0.891166 0.890948 0.890949 0.891114 0.891499 0.892478 0.892712 0.892176 0.892459 0.891503 0.891158 0.88589 0.887729 0.88937 0.890746 0.89241 0.892558 0.893832 0.891081 0.893832 0.890983 0.893832 0.889793 0.893832 0.889614 0.893832 0.889043 0.893832 0.888681 0.893832 0.889384 0.893832 0.889877 0.893832 0.889688 0.893832 0.889877 0.893832 0.889384 0.893832 0.888681 0.893832 0.889043 0.893832 0.889614 0.893832 0.889793 0.893832 0.890983 0.893832 0.891081 0.893832 0.892558 0.89241 0.890746 0.88937 0.887729 0.88589 0.891158 0.891503 0.892459 0.89223 0.892639 0.890919 0.890786 0.891093 0.890849 0.889167 0.888204 0.888462 0.887453 0.885456 0.885456 0.887453 0.888462 0.888204 0.889167 0.890849 0.891093 0.890786 0.890919 0.892639 0.89223 0.892246 0.892576 0.892451 0.891523 0.891222 0.890897 0.890643 0.891021 0.890786 0.889033 0.888289 0.888527 0.887478 0.885824 0.886309 0.888037 0.889604 0.890904 0.892488 0.8925 0.893832 0.891113 0.893832 0.891013 0.893832 0.889924 0.893832 0.889775 0.893832 0.889312 0.893832 0.889133 0.893832 0.889943 0.893832 0.890399 0.893832 0.890297 0.893832 0.890399 0.893832 0.889943 0.893832 0.889133 0.893832 0.889312 0.893832 0.889775 0.893832 0.889924 0.893832 0.891013 0.893832 0.891113 0.893832 0.8925 0.892488 0.890904 0.889604 0.888037 0.886309 0.885824 0.887478 0.888527 0.888289 0.889033 0.890786 0.891021 0.890643 0.890897 0.891222 0.891523 0.892451 0.892576 0.892246 0.892236 0.892521 0.892451 0.891552 0.891296 0.890881 0.890515 0.890952 0.890714 0.888908 0.888339 0.888581 0.887525 0.886205 0.886742 0.888357 0.889854 0.89106 0.892569 0.89245 0.893832 0.89115 0.893832 0.891047 0.893832 0.89005 0.893832 0.889933 0.893832 0.889573 0.893832 0.889556 0.893832 0.890437 0.893832 0.890855 0.893832 0.890811 0.893832 0.890855 0.893832 0.890437 0.893832 0.889556 0.893832 0.889573 0.893832 0.889933 0.893832 0.89005 0.893832 0.891047 0.893832 0.89115 0.893832 0.89245 0.892569 0.89106 0.889854 0.888357 0.886742 0.886205 0.887525 0.888581 0.888339 0.888908 0.890714 0.890952 0.890515 0.890881 0.891296 0.891552 0.892451 0.892521 0.892236 0.892209 0.892473 0.892456 0.891585 0.891374 0.890867 0.8904 0.890885 0.890641 0.888798 0.888365 0.888626 0.887588 0.886581 0.887167 0.888675 0.890109 0.891211 0.89265 0.89241 0.893832 0.891189 0.893832 0.891085 0.893832 0.890169 0.893832 0.890086 0.893832 0.889819 0.893832 0.889946 0.893832 0.890869 0.893832 0.891251 0.893832 0.891243 0.893832 0.891251 0.893832 0.890869 0.893832 0.889946 0.893832 0.889819 0.893832 0.890086 0.893832 0.890169 0.893832 0.891085 0.893832 0.891189 0.893832 0.89241 0.89265 0.891211 0.890109 0.888675 0.887167 0.886581 0.887588 0.888626 0.888365 0.888798 0.890641 0.890885 0.8904 0.890867 0.891374 0.891585 0.892456 0.892473 0.892209 0.89217 0.892431 0.892463 0.891619 0.89145 0.890855 0.890298 0.89082 0.89057 0.888705 0.888374 0.888664 0.88766 0.886938 0.887571 0.888978 0.890357 0.891352 0.89273 0.892377 0.893832 0.891228 0.893832 0.891123 0.893832 0.890279 0.893832 0.89023 0.893832 0.890048 0.893832 0.890299 0.893832 0.891242 0.893832 0.89159 0.893832 0.891603 0.893832 0.89159 0.893832 0.891242 0.893832 0.890299 0.893832 0.890048 0.893832 0.89023 0.893832 0.890279 0.893832 0.891123 0.893832 0.891228 0.893832 0.892377 0.89273 0.891352 0.890357 0.888978 0.887571 0.886938 0.88766 0.888664 0.888374 0.888705 0.89057 0.89082 0.890298 0.890855 0.89145 0.891619 0.892463 0.892431 0.89217 0.892126 0.892394 0.892471 0.891651 0.891521 0.890845 0.890208 0.890757 0.890505 0.888629 0.888373 0.888698 0.887735 0.887266 0.887942 0.889257 0.890588 0.89148 0.892805 0.89235 0.893832 0.891266 0.893832 0.891161 0.893832 0.890379 0.893832 0.890362 0.893832 0.890256 0.893832 0.890611 0.893832 0.89156 0.893832 0.891878 0.893832 0.891901 0.893832 0.891878 0.893832 0.89156 0.893832 0.890611 0.893832 0.890256 0.893832 0.890362 0.893832 0.890379 0.893832 0.891161 0.893832 0.891266 0.893832 0.89235 0.892805 0.89148 0.890588 0.889257 0.887942 0.887266 0.887735 0.888698 0.888373 0.888629 0.890505 0.890757 0.890208 0.890845 0.891521 0.891651 0.892471 0.892394 0.892126 0.892082 0.892362 0.892478 0.891678 0.891583 0.890835 0.890131 0.890698 0.890446 0.888569 0.888366 0.888726 0.887808 0.887557 0.888271 0.889505 0.890796 0.891592 0.892873 0.892329 0.893832 0.891301 0.893832 0.891197 0.893832 0.890467 0.893832 0.89048 0.893832 0.89044 0.893832 0.890881 0.893832 0.891825 0.893832 0.892117 0.893832 0.892144 0.893832 0.892117 0.893832 0.891825 0.893832 0.890881 0.893832 0.89044 0.893832 0.89048 0.893832 0.890467 0.893832 0.891197 0.893832 0.891301 0.893832 0.892329 0.892873 0.891592 0.890796 0.889505 0.888271 0.887557 0.887808 0.888726 0.888366 0.888569 0.890446 0.890698 0.890131 0.890835 0.891583 0.891678 0.892478 0.892362 0.892082 0.892041 0.892335 0.892485 0.891702 0.891636 0.890827 0.890065 0.890646 0.890396 0.888522 0.888358 0.888751 0.887875 0.887805 0.888552 0.889717 0.890976 0.891688 0.892932 0.892313 0.893832 0.891331 0.893832 0.891229 0.893832 0.890542 0.893832 0.890581 0.893832 0.890597 0.893832 0.891107 0.893832 0.892041 0.893832 0.892311 0.893832 0.892339 0.893832 0.892311 0.893832 0.892041 0.893832 0.891107 0.893832 0.890597 0.893832 0.890581 0.893832 0.890542 0.893832 0.891229 0.893832 0.891331 0.893832 0.892313 0.892932 0.891688 0.890976 0.889717 0.888552 0.887805 0.887875 0.888751 0.888358 0.888522 0.890396 0.890646 0.890065 0.890827 0.891636 0.891702 0.892485 0.892335 0.892041 0.892005 0.892313 0.892491 0.89172 0.891679 0.89082 0.890012 0.890601 0.890355 0.888487 0.888348 0.888771 0.887934 0.888007 0.888781 0.889889 0.891124 0.891764 0.892981 0.892301 0.893832 0.891357 0.893832 0.891255 0.893832 0.890604 0.893832 0.890665 0.893832 0.890725 0.893832 0.891288 0.893832 0.89221 0.893832 0.892462 0.893832 0.892488 0.893832 0.892462 0.893832 0.89221 0.893832 0.891288 0.893832 0.890725 0.893832 0.890665 0.893832 0.890604 0.893832 0.891255 0.893832 0.891357 0.893832 0.892301 0.892981 0.891764 0.891124 0.889889 0.888781 0.888007 0.887934 0.888771 0.888348 0.888487 0.890355 0.890601 0.890012 0.89082 0.891679 0.89172 0.892491 0.892313 0.892005 0.891977 0.892297 0.892495 0.891734 0.89171 0.890814 0.889972 0.890566 0.890324 0.888463 0.888341 0.888786 0.88798 0.888161 0.888954 0.89002 0.891236 0.891822 0.893019 0.892293 0.893832 0.891377 0.893832 0.891276 0.893832 0.890651 0.893832 0.890729 0.893832 0.890822 0.893832 0.891424 0.893832 0.892335 0.893832 0.892574 0.893832 0.892598 0.893832 0.892574 0.893832 0.892335 0.893832 0.891424 0.893832 0.890822 0.893832 0.890729 0.893832 0.890651 0.893832 0.891276 0.893832 0.891377 0.893832 0.892293 0.893019 0.891822 0.891236 0.89002 0.888954 0.888161 0.88798 0.888786 0.888341 0.888463 0.890324 0.890566 0.889972 0.890814 0.89171 0.891734 0.892495 0.892297 0.891977 0.891958 0.892286 0.892498 0.891743 0.891732 0.890811 0.889945 0.890542 0.890303 0.888447 0.888335 0.888796 0.888011 0.888263 0.88907 0.890108 0.891312 0.891861 0.893044 0.892288 0.893832 0.89139 0.893832 0.891291 0.893832 0.890682 0.893832 0.890772 0.893832 0.890887 0.893832 0.891515 0.893832 0.892418 0.893832 0.892647 0.893832 0.892669 0.893832 0.892647 0.893832 0.892418 0.893832 0.891515 0.893832 0.890887 0.893832 0.890772 0.893832 0.890682 0.893832 0.891291 0.893832 0.89139 0.893832 0.892288 0.893044 0.891861 0.891312 0.890108 0.88907 0.888263 0.888011 0.888796 0.888335 0.888447 0.890303 0.890542 0.889945 0.890811 0.891732 0.891743 0.892498 0.892286 0.891958 0.891948 0.89228 0.892499 0.891748 0.891742 0.890809 0.889932 0.890529 0.890293 0.88844 0.888332 0.888802 0.888028 0.888315 0.889129 0.890152 0.89135 0.891881 0.893057 0.892285 0.893832 0.891397 0.893832 0.891298 0.893832 0.890698 0.893832 0.890794 0.893832 0.89092 0.893832 0.89156 0.893832 0.892459 0.893832 0.892684 0.893832 0.892705 0.893832 0.892684 0.893832 0.892459 0.893832 0.89156 0.893832 0.89092 0.893832 0.890794 0.893832 0.890698 0.893832 0.891298 0.893832 0.891397 0.893832 0.892285 0.893057 0.891881 0.89135 0.890152 0.889129 0.888315 0.888028 0.888802 0.888332 0.88844 0.890293 0.890529 0.889932 0.890809 0.891742 0.891748 0.892499 0.89228 0.891948 
SCALARS Axial_Stress float 1
LOOKUP_TABLE default
-71652700000.0 -71652700000.0 -9036870000.0 -49994000000.0 -125105000000.0 -125105000000.0 -49993900000.0 -9036870000.0 -9036910000.0 -301550000000.0 -46282900000.0 -135950000000.0 -47229300000.0 -178358000000.0 -86157100000.0 -55207700000.0 -131448000000.0 -131448000000.0 -55207700000.0 -86157100000.0 -178358000000.0 -47229300000.0 -135950000000.0 -46282900000.0 -301550000000.0 -9036910000.0 -1.45389e+12 -291693000000.0 -234779000000.0 -370967000000.0 -344517000000.0 -231542000000.0 -180135000000.0 -192111000000.0 -117197000000.0 -192111000000.0 -180135000000.0 -231543000000.0 -344517000000.0 -370967000000.0 -234779000000.0 -291693000000.0 -1.45389e+12 -1.52803e+12 -1.56796e+12 -1.62817e+12 -566388000000.0 -760278000000.0 -703251000000.0 -539807000000.0 -380604000000.0 -346990000000.0 -330869000000.0 -196434000000.0 -121057000000.0 -131981000000.0 -121057000000.0 -196434000000.0 -330869000000.0 -346990000000.0 -380604000000.0 -539807000000.0 -703251000000.0 -760278000000.0 -566388000000.0 -1.62817e+12 -1.56796e+12 -1.52803e+12 -1.60779e+12 -2.68463e+12 -2.46067e+12 -1.74194e+12 -1.87635e+12 -836983000000.0 -866488000000.0 -485647000000.0 -517394000000.0 -223201000000.0 -110105000000.0 -110105000000.0 -223201000000.0 -517394000000.0 -485647000000.0 -866488000000.0 -836983000000.0 -1.87635e+12 -1.74194e+12 -2.46067e+12 -2.68463e+12 -1.60779e+12 -1.75338e+12 -1.68639e+12 -2.91909e+12 -2.23596e+12 -2.10514e+12 -1.88932e+12 -1.00096e+12 -854183000000.0 -605449000000.0 -297869000000.0 -183538000000.0 -99153200000.0 -183538000000.0 -297869000000.0 -605449000000.0 -854183000000.0 -1.00096e+12 -1.88932e+12 -2.10514e+12 -2.23596e+12 -2.91909e+12 -1.68639e+12 -1.75338e+12 -1.82175e+12 -3.11381e+12 -2.62849e+12 -2.1427e+12 -1.99137e+12 -1.77014e+12 -1.27888e+12 -1.19837e+12 -793070000000.0 -285533000000.0 -274447000000.0 -195048000000.0 -180683000000.0 -152875000000.0 -72948300000.0 -152875000000.0 -180683000000.0 -195048000000.0 -274447000000.0 -285533000000.0 -793070000000.0 -1.19837e+12 -1.27888e+12 -1.77014e+12 -1.99137e+12 -2.1427e+12 -2.62849e+12 -3.11381e+12 -1.82175e+12 -1.90003e+12 -3.27661e+12 -3.06084e+12 -2.87524e+12 -2.68364e+12 -2.42446e+12 -2.21306e+12 -2.08488e+12 -2.07978e+12 -1.87162e+12 -2.08332e+12 -2.13937e+12 -508731000000.0 -533244000000.0 -223858000000.0 -201322000000.0 -201322000000.0 -223858000000.0 -533244000000.0 -508731000000.0 -2.13937e+12 -2.08332e+12 -1.87162e+12 -2.07978e+12 -2.08488e+12 -2.21306e+12 -2.42446e+12 -2.68364e+12 -2.87524e+12 -3.06084e+12 -3.27661e+12 -1.90003e+12 -1.98975e+12 -3.55039e+12 -3.4198e+12 -3.21924e+12 -2.88124e+12 -2.48226e+12 -2.11557e+12 -2.00801e+12 -1.03762e+12 -516315000000.0 -336239000000.0 -163352000000.0 -25209400000.0 -163352000000.0 -336239000000.0 -516315000000.0 -1.03762e+12 -2.00801e+12 -2.11557e+12 -2.48226e+12 -2.88124e+12 -3.21924e+12 -3.4198e+12 -3.55039e+12 -1.98975e+12 -2.15366e+12 -2.07749e+12 -3.65764e+12 -3.36021e+12 -3.05126e+12 -2.91487e+12 -2.7231e+12 -2.14818e+12 -2.00685e+12 -1.4067e+12 -1.09068e+12 -1.23315e+12 -1.06166e+12 -1.27744e+12 -425574000000.0 -371328000000.0 -216584000000.0 -330175000000.0 -330175000000.0 -216584000000.0 -371328000000.0 -425574000000.0 -1.27744e+12 -1.06166e+12 -1.23315e+12 -1.09068e+12 -1.4067e+12 -2.00685e+12 -2.14818e+12 -2.7231e+12 -2.91487e+12 -3.05126e+12 -3.36021e+12 -3.65764e+12 -2.07749e+12 -2.15366e+12 -2.21511e+12 -3.73957e+12 -3.46816e+12 -3.30908e+12 -3.20896e+12 -3.11441e+12 -2.77466e+12 -2.47836e+12 -1.692e+12 -1.94005e+12 -1.55743e+12 -1.40131e+12 -1.28668e+12 -1.34438e+12 -253532000000.0 -235375000000.0 -347386000000.0 -277961000000.0 -347386000000.0 -235375000000.0 -253532000000.0 -1.34438e+12 -1.28668e+12 -1.40131e+12 -1.55743e+12 -1.94005e+12 -1.692e+12 -2.47836e+12 -2.77466e+12 -3.11441e+12 -3.20896e+12 -3.30908e+12 -3.46816e+12 -3.73957e+12 -2.21511e+12 -2.26057e+12 -3.80081e+12 -3.61492e+12 -3.5513e+12 -3.38037e+12 -3.19375e+12 -3.11353e+12 -2.42883e+12 -1.55091e+12 -1.58664e+12 -1.40415e+12 -1.36023e+12 -1.40544e+12 -273204000000.0 -409324000000.0 -273204000000.0 -1.40544e+12 -1.36023e+12 -1.40415e+12 -1.58664e+12 -1.55091e+12 -2.42883e+12 -3.11353e+12 -3.19375e+12 -3.38037e+12 -3.5513e+12 -3.61492e+12 -3.80081e+12 -2.26057e+12 -2.28959e+12 -3.88378e+12 -3.84739e+12 -3.66423e+12 -3.43647e+12 -3.23936e+12 -3.14198e+12 -3.14131e+12 -3.18337e+12 -3.28438e+12 -4.21309e+12 -1.28454e+12 -1.56519e+12 -1.6665e+12 -1.69362e+12 -1.54578e+12 -1.53162e+12 -1.41282e+12 -1.41129e+12 -1.37984e+12 -1.35161e+12 -1.32461e+12 -1.28448e+12 -389073000000.0 -389073000000.0 -1.28448e+12 -1.32461e+12 -1.35161e+12 -1.37984e+12 -1.41129e+12 -1.41282e+12 -1.53162e+12 -1.54578e+12 -1.69362e+12 -1.6665e+12 -1.56519e+12 -1.28454e+12 -4.21309e+12 -3.28438e+12 -3.18337e+12 -3.14131e+12 -3.14198e+12 -3.23936e+12 -3.43647e+12 -3.66423e+12 -3.84739e+12 -3.88378e+12 -2.28959e+12 -2.29772e+12 -2.30197e+12 -3.91244e+12 -3.70339e+12 -3.48224e+12 -3.30696e+12 -3.27448e+12 -3.14236e+12 -3.10344e+12 -3.46971e+12 -2.46604e+12 -2.40579e+12 -1.7451e+12 -1.6826e+12 -1.50741e+12 -1.36469e+12 -1.29079e+12 -1.24806e+12 -639786000000.0 -1.24806e+12 -1.29079e+12 -1.36469e+12 -1.50741e+12 -1.6826e+12 -1.7451e+12 -2.40579e+12 -2.46604e+12 -3.46971e+12 -3.10344e+12 -3.14236e+12 -3.27448e+12 -3.30696e+12 -3.48224e+12 -3.70339e+12 -3.91244e+12 -2.30197e+12 -2.29772e+12 -2.27748e+12 -3.93305e+12 -3.73555e+12 -3.55458e+12 -3.52078e+12 -3.33855e+12 -3.14769e+12 -3.04792e+12 -3.16129e+12 -3.06454e+12 -3.19891e+12 -2.58363e+12 -2.15622e+12 -1.85101e+12 -1.65579e+12 -1.43213e+12 -1.29762e+12 -1.24938e+12 -1.01268e+12 -1.01268e+12 -1.24938e+12 -1.29762e+12 -1.43213e+12 -1.65579e+12 -1.85101e+12 -2.15622e+12 -2.58363e+12 -3.19891e+12 -3.06454e+12 -3.16129e+12 -3.04792e+12 -3.14769e+12 -3.33855e+12 -3.52078e+12 -3.55458e+12 -3.73555e+12 -3.93305e+12 -2.27748e+12 -2.24469e+12 -3.93602e+12 -3.94243e+12 -3.78171e+12 -3.7621e+12 -3.58484e+12 -3.37031e+12 -3.1624e+12 -2.9961e+12 -3.0129e+12 -2.90603e+12 -3.01143e+12 -2.92648e+12 -2.86562e+12 -2.43055e+12 -2.05579e+12 -2.12125e+12 -1.83975e+12 -1.77641e+12 -1.59561e+12 -1.29498e+12 -1.29822e+12 -1.26738e+12 -1.24979e+12 -1.12395e+12 -1.11126e+12 -1.65415e+12 -1.11126e+12 -1.12395e+12 -1.24979e+12 -1.26738e+12 -1.29822e+12 -1.29498e+12 -1.59561e+12 -1.77641e+12 -1.83975e+12 -2.12125e+12 -2.05579e+12 -2.43055e+12 -2.86562e+12 -2.92648e+12 -3.01143e+12 -2.90603e+12 -3.0129e+12 -2.9961e+12 -3.1624e+12 -3.37031e+12 -3.58484e+12 -3.7621e+12 -3.78171e+12 -3.94243e+12 -3.93602e+12 -2.24469e+12 -2.20239e+12 -3.91435e+12 -3.79003e+12 -3.61264e+12 -3.40249e+12 -3.21632e+12 -3.18594e+12 -3.00409e+12 -2.84385e+12 -2.82022e+12 -2.82968e+12 -2.56787e+12 -2.43085e+12 -2.21918e+12 -2.20195e+12 -2.02775e+12 -1.37631e+12 -1.29654e+12 -1.14864e+12 -1.57979e+12 -1.61972e+12 -1.63907e+12 -1.61972e+12 -1.57979e+12 -1.14864e+12 -1.29654e+12 -1.37631e+12 -2.02775e+12 -2.20195e+12 -2.21918e+12 -2.43085e+12 -2.56787e+12 -2.82968e+12 -2.82022e+12 -2.84385e+12 -3.00409e+12 -3.18594e+12 -3.21632e+12 -3.40249e+12 -3.61264e+12 -3.79003e+12 -3.91435e+12 -2.20239e+12 -2.11503e+12 -2.15743e+12 -3.87168e+12 -3.77819e+12 -3.64738e+12 -3.63575e+12 -3.46853e+12 -3.43484e+12 -3.25057e+12 -3.03022e+12 -2.81838e+12 -2.68783e+12 -2.6951e+12 -2.67064e+12 -2.72218e+12 -2.6347e+12 -2.01809e+12 -2.54197e+12 -1.51171e+12 -1.35228e+12 -1.1939e+12 -1.50998e+12 -1.56279e+12 -1.56279e+12 -1.50998e+12 -1.1939e+12 -1.35228e+12 -1.51171e+12 -2.54197e+12 -2.01809e+12 -2.6347e+12 -2.72218e+12 -2.67064e+12 -2.6951e+12 -2.68783e+12 -2.81838e+12 -3.03022e+12 -3.25057e+12 -3.43484e+12 -3.46853e+12 -3.63575e+12 -3.64738e+12 -3.77819e+12 -3.87168e+12 -2.15743e+12 -2.11503e+12 -2.08024e+12 -3.81266e+12 -3.70268e+12 -3.75363e+12 -3.63072e+12 -3.50095e+12 -3.28709e+12 -3.06239e+12 -2.83794e+12 -2.61804e+12 -2.63244e+12 -2.39143e+12 -2.58775e+12 -2.35305e+12 -2.73483e+12 -2.5905e+12 -1.62569e+12 -1.65956e+12 -1.44104e+12 -1.25591e+12 -1.42597e+12 -1.49917e+12 -1.50374e+12 -1.49917e+12 -1.42597e+12 -1.25591e+12 -1.44104e+12 -1.65956e+12 -1.62569e+12 -2.5905e+12 -2.73483e+12 -2.35305e+12 -2.58775e+12 -2.39143e+12 -2.63244e+12 -2.61804e+12 -2.83794e+12 -3.06239e+12 -3.28709e+12 -3.50095e+12 -3.63072e+12 -3.75363e+12 -3.70268e+12 -3.81266e+12 -2.08024e+12 -2.0518e+12 -3.64577e+12 -3.73676e+12 -3.63662e+12 -3.61332e+12 -3.52404e+12 -3.38453e+12 -3.33462e+12 -3.14525e+12 -3.09815e+12 -2.89271e+12 -2.87041e+12 -2.66381e+12 -2.42535e+12 -2.25715e+12 -2.42376e+12 -2.84378e+12 -2.99095e+12 -1.8191e+12 -2.14164e+12 -1.54779e+12 -1.56186e+12 -1.31354e+12 -1.32296e+12 -1.28065e+12 -1.34449e+12 -1.35263e+12 -1.42764e+12 -1.37208e+12 -1.43576e+12 -1.37577e+12 -1.43576e+12 -1.37208e+12 -1.42764e+12 -1.35263e+12 -1.34449e+12 -1.28065e+12 -1.32296e+12 -1.31354e+12 -1.56186e+12 -1.54779e+12 -2.14164e+12 -1.8191e+12 -2.99095e+12 -2.84378e+12 -2.42376e+12 -2.25715e+12 -2.42535e+12 -2.66381e+12 -2.87041e+12 -2.89271e+12 -3.09815e+12 -3.14525e+12 -3.33462e+12 -3.38453e+12 -3.52404e+12 -3.61332e+12 -3.63662e+12 -3.73676e+12 -3.64577e+12 -2.0518e+12 -1.97846e+12 -2.02241e+12 -3.53983e+12 -3.5494e+12 -3.55471e+12 -3.50583e+12 -3.49518e+12 -3.43555e+12 -3.21225e+12 -2.95231e+12 -2.6674e+12 -2.42462e+12 -2.05172e+12 -2.50552e+12 -1.47518e+12 -1.74118e+12 -1.83455e+12 -2.60265e+12 -1.1763e+12 -1.24842e+12 -1.27322e+12 -1.30964e+12 -1.31269e+12 -1.31269e+12 -1.30964e+12 -1.27322e+12 -1.24842e+12 -1.1763e+12 -2.60265e+12 -1.83455e+12 -1.74118e+12 -1.47518e+12 -2.50552e+12 -2.05172e+12 -2.42462e+12 -2.6674e+12 -2.95231e+12 -3.21225e+12 -3.43555e+12 -3.49518e+12 -3.50583e+12 -3.55471e+12 -3.5494e+12 -3.53983e+12 -2.02241e+12 -1.97846e+12 -1.91106e+12 -3.42372e+12 -3.44351e+12 -3.37525e+12 -3.48228e+12 -3.43205e+12 -3.3619e+12 -3.28867e+12 -2.99797e+12 -2.80995e+12 -2.73846e+12 -2.53478e+12 -2.3867e+12 -1.81839e+12 -2.38745e+12 -2.25549e+12 -1.53138e+12 -562868000000.0 -1.68194e+12 -1.63906e+12 -2.79689e+12 -1.59212e+12 -1.09364e+12 -1.20199e+12 -1.25631e+12 -1.25235e+12 -1.25369e+12 -1.25235e+12 -1.25631e+12 -1.20199e+12 -1.09364e+12 -1.59212e+12 -2.79689e+12 -1.63906e+12 -1.68194e+12 -562868000000.0 -1.53138e+12 -2.25549e+12 -2.38745e+12 -1.81839e+12 -2.3867e+12 -2.53478e+12 -2.73846e+12 -2.80995e+12 -2.99797e+12 -3.28867e+12 -3.3619e+12 -3.43205e+12 -3.48228e+12 -3.37525e+12 -3.44351e+12 -3.42372e+12 -1.91106e+12 -1.81748e+12 -3.29369e+12 -3.17876e+12 -3.31596e+12 -3.24445e+12 -3.35489e+12 -3.32631e+12 -3.45753e+12 -3.17128e+12 -3.41056e+12 -3.19635e+12 -3.09324e+12 -2.81933e+12 -2.58143e+12 -2.34044e+12 -1.42865e+12 -3.32816e+12 -1.58845e+12 -1.94047e+12 -1.53518e+12 -1.2566e+12 -2.47209e+12 -1.88014e+12 -1.42414e+12 -1.02619e+12 -1.30962e+12 -1.21399e+12 -1.16106e+12 -1.1935e+12 -1.13429e+12 -1.19396e+12 -1.13679e+12 -1.19396e+12 -1.13429e+12 -1.1935e+12 -1.16106e+12 -1.21399e+12 -1.30963e+12 -1.02619e+12 -1.42414e+12 -1.88014e+12 -2.47209e+12 -1.2566e+12 -1.53518e+12 -1.94047e+12 -1.58845e+12 -3.32816e+12 -1.42865e+12 -2.34044e+12 -2.58143e+12 -2.81933e+12 -3.09324e+12 -3.19635e+12 -3.41056e+12 -3.17128e+12 -3.45753e+12 -3.32631e+12 -3.35489e+12 -3.24445e+12 -3.31596e+12 -3.17876e+12 -3.29369e+12 -1.81748e+12 -1.69881e+12 -3.01115e+12 -3.1561e+12 -3.04365e+12 -3.05378e+12 -3.22804e+12 -3.33209e+12 -3.49453e+12 -3.4909e+12 -2.98636e+12 -2.65197e+12 -2.44427e+12 -2.11914e+12 -1.2779e+12 -2.73587e+12 -1.11406e+12 -437169000000.0 -1.60875e+12 -1.18581e+12 -1.3726e+12 -1.39071e+12 -1.30193e+12 -1.11804e+12 -1.06814e+12 -1.07906e+12 -1.07906e+12 -1.06814e+12 -1.11804e+12 -1.30193e+12 -1.39071e+12 -1.3726e+12 -1.18581e+12 -1.60875e+12 -437169000000.0 -1.11406e+12 -2.73587e+12 -1.2779e+12 -2.11914e+12 -2.44427e+12 -2.65197e+12 -2.98636e+12 -3.4909e+12 -3.49453e+12 -3.33209e+12 -3.22804e+12 -3.05378e+12 -3.04365e+12 -3.1561e+12 -3.01115e+12 -1.69881e+12 -1.41806e+12 -1.56196e+12 -2.8577e+12 -2.89699e+12 -2.91172e+12 -2.78417e+12 -3.00684e+12 -2.98627e+12 -3.34153e+12 -4.19732e+12 -2.43035e+12 -4.50372e+12 -3.22713e+12 -2.58311e+12 -2.41523e+12 -2.44848e+12 -2.44188e+12 -2.55312e+12 -2.4565e+12 -2.00967e+12 -2.072e+12 -2.53559e+12 -999811000000.0 -2.01195e+12 -985736000000.0 -742227000000.0 -1.09919e+12 -1.00177e+12 -1.31764e+12 -1.04535e+12 -1.02727e+12 -1.02098e+12 -1.02727e+12 -1.04536e+12 -1.31764e+12 -1.00177e+12 -1.09919e+12 -742227000000.0 -985735000000.0 -2.01195e+12 -999811000000.0 -2.53559e+12 -2.072e+12 -2.00967e+12 -2.4565e+12 -2.55312e+12 -2.44188e+12 -2.44848e+12 -2.41523e+12 -2.58311e+12 -3.22713e+12 -4.50372e+12 -2.43035e+12 -4.19732e+12 -3.34153e+12 -2.98627e+12 -3.00684e+12 -2.78417e+12 -2.91172e+12 -2.89699e+12 -2.8577e+12 -1.56196e+12 -1.41806e+12 -1.27774e+12 -2.69319e+12 -2.74912e+12 -2.60865e+12 -2.74906e+12 -2.56355e+12 -2.90244e+12 -2.9725e+12 -1.81411e+12 -3.15478e+12 -3.65488e+12 -2.19765e+12 -1.76036e+12 -1.94005e+12 -2.58641e+12 -428905000000.0 -1.58984e+12 -966626000000.0 -1.24989e+12 -970008000000.0 -772404000000.0 -1.39711e+12 -462918000000.0 -1.0463e+12 -682790000000.0 -870021000000.0 -745965000000.0 -1.09305e+12 -956584000000.0 -907668000000.0 -961247000000.0 -915241000000.0 -961248000000.0 -907669000000.0 -956585000000.0 -1.09305e+12 -745966000000.0 -870023000000.0 -682791000000.0 -1.0463e+12 -462918000000.0 -1.39711e+12 -772404000000.0 -970008000000.0 -1.24989e+12 -966626000000.0 -1.58984e+12 -428905000000.0 -2.58641e+12 -1.94005e+12 -1.76036e+12 -2.19765e+12 -3.65488e+12 -3.15478e+12 -1.81411e+12 -2.9725e+12 -2.90244e+12 -2.56355e+12 -2.74906e+12 -2.60865e+12 -2.74912e+12 -2.69319e+12 -1.27774e+12 -1.1382e+12 -2.50444e+12 -2.45233e+12 -2.6063e+12 -2.50627e+12 -2.38213e+12 -2.34522e+12 -2.61695e+12 -3.05592e+12 -3.6678e+12 -2.32883e+12 -3.38837e+12 -1.05666e+12 -3.1269e+12 -1.4121e+12 -1.01261e+12 -1.02108e+12 -718863000000.0 -769637000000.0 -519123000000.0 -452360000000.0 -908869000000.0 -915835000000.0 -500071000000.0 -685576000000.0 -855267000000.0 -855268000000.0 -685575000000.0 -500073000000.0 -915835000000.0 -908870000000.0 -452360000000.0 -519123000000.0 -769636000000.0 -718863000000.0 -1.02108e+12 -1.01261e+12 -1.4121e+12 -3.1269e+12 -1.05666e+12 -3.38837e+12 -2.32883e+12 -3.66781e+12 -3.05592e+12 -2.61695e+12 -2.34522e+12 -2.38213e+12 -2.50627e+12 -2.6063e+12 -2.45233e+12 -2.50444e+12 -1.1382e+12 -932819000000.0 -1.93504e+12 -2.27802e+12 -2.2777e+12 -2.38426e+12 -2.36188e+12 -2.10811e+12 -2.0717e+12 -1.41613e+12 -2.45736e+12 -4.26889e+12 -2.22136e+12 -2.84411e+12 -1.76546e+12 -2.33931e+12 -1.62573e+12 -2.14918e+12 -1.88754e+12 -1.29282e+12 -853658000000.0 -1.15664e+12 -1.14405e+12 -1.48446e+12 -1.0674e+12 -1.25968e+12 -1.41842e+12 -809404000000.0 -566699000000.0 -656028000000.0 -960844000000.0 -871796000000.0 -804955000000.0 -871800000000.0 -960846000000.0 -656030000000.0 -566700000000.0 -809404000000.0 -1.41842e+12 -1.25968e+12 -1.0674e+12 -1.48446e+12 -1.14405e+12 -1.15664e+12 -853658000000.0 -1.29282e+12 -1.88754e+12 -2.14918e+12 -1.62573e+12 -2.33931e+12 -1.76546e+12 -2.84411e+12 -2.22136e+12 -4.26889e+12 -2.45736e+12 -1.41613e+12 -2.0717e+12 -2.10811e+12 -2.36188e+12 -2.38426e+12 -2.2777e+12 -2.27802e+12 -1.93504e+12 -932819000000.0 -812225000000.0 -1.41445e+12 -2.0198e+12 -2.26004e+12 -2.23658e+12 -2.30436e+12 -2.16916e+12 -1.76826e+12 -2.89058e+12 -2.16054e+12 -2.68288e+12 -2.30117e+12 -2.19718e+12 -2.29234e+12 -2.10649e+12 -509135000000.0 -2.16256e+12 -1.46322e+12 -1.07701e+12 -967436000000.0 -1.0602e+12 -1.05377e+12 -720700000000.0 -952215000000.0 -588870000000.0 -692958000000.0 -268306000000.0 -708887000000.0 -333651000000.0 -755765000000.0 -720764000000.0 -655334000000.0 -720762000000.0 -755772000000.0 -333656000000.0 -708889000000.0 -268309000000.0 -692957000000.0 -588870000000.0 -952215000000.0 -720700000000.0 -1.05377e+12 -1.0602e+12 -967436000000.0 -1.07701e+12 -1.46322e+12 -2.16256e+12 -509135000000.0 -2.10649e+12 -2.29234e+12 -2.19718e+12 -2.30117e+12 -2.68288e+12 -2.16054e+12 -2.89058e+12 -1.76826e+12 -2.16916e+12 -2.30436e+12 -2.23658e+12 -2.26004e+12 -2.0198e+12 -1.41445e+12 -812225000000.0 -590321000000.0 -1.24448e+12 -1.42952e+12 -2.08067e+12 -2.10021e+12 -2.24648e+12 -1.8084e+12 -1.56348e+12 -3.24913e+12 -1.39987e+12 -1.94729e+12 -2.15385e+12 -1.90352e+12 -1.72306e+12 -3.56038e+12 -1.63902e+12 -1.40157e+12 -1.64031e+12 -1.385e+12 -1.54563e+12 -957067000000.0 -981207000000.0 -1.01246e+12 -969780000000.0 -1.29239e+12 -793635000000.0 -1.1592e+12 -1.39388e+12 -461789000000.0 -148794000000.0 -431727000000.0 -431742000000.0 -148794000000.0 -461787000000.0 -1.39388e+12 -1.1592e+12 -793635000000.0 -1.29239e+12 -969781000000.0 -1.01246e+12 -981207000000.0 -957067000000.0 -1.54563e+12 -1.385e+12 -1.64031e+12 -1.40157e+12 -1.63902e+12 -3.56038e+12 -1.72306e+12 -1.90352e+12 -2.15385e+12 -1.94729e+12 -1.39987e+12 -3.24913e+12 -1.56348e+12 -1.8084e+12 -2.24648e+12 -2.10021e+12 -2.08067e+12 -1.42952e+12 -1.24448e+12 -590321000000.0 -92317600000.0 -347573000000.0 -772185000000.0 -978457000000.0 -1.07587e+12 -1.39498e+12 -1.41633e+12 -2.12019e+12 -2.23113e+12 -2.30975e+12 -2.25835e+12 -1.35252e+12 -2.18961e+12 -2.03675e+12 -1.63287e+12 -1.7468e+12 -1.74712e+12 -1.4852e+12 -2.90555e+12 -2.52349e+12 -1.28884e+12 -1.30248e+12 -1.2593e+12 -1.36249e+12 -1.05783e+12 -627503000000.0 -989583000000.0 -630554000000.0 -888923000000.0 -337497000000.0 -497914000000.0 -809337000000.0 -667676000000.0 -628808000000.0 -740576000000.0 -528258000000.0 -721688000000.0 -528259000000.0 -740574000000.0 -628807000000.0 -667676000000.0 -809337000000.0 -497914000000.0 -337497000000.0 -888922000000.0 -630554000000.0 -989583000000.0 -627503000000.0 -1.05783e+12 -1.36249e+12 -1.2593e+12 -1.30248e+12 -1.28884e+12 -2.52349e+12 -2.90555e+12 -1.4852e+12 -1.74712e+12 -1.7468e+12 -1.63287e+12 -2.03675e+12 -2.18961e+12 -1.35252e+12 -2.25835e+12 -2.30975e+12 -2.23112e+12 -2.12019e+12 -1.41633e+12 -1.39498e+12 -1.07587e+12 -978457000000.0 -772185000000.0 -347573000000.0 -92317600000.0 -250528000000.0 -775124000000.0 -578870000000.0 -1.14794e+12 -1.53289e+12 -1.7688e+12 -2.31607e+12 -3.0451e+12 -2.62732e+12 -2.32769e+12 -2.19922e+12 -1.81937e+12 -1.47684e+12 -1.0296e+12 -1.08626e+12 -1.25505e+12 -909358000000.0 -626229000000.0 -759751000000.0 -16243800000.0 -83596100000.0 -573138000000.0 -139993000000.0 -391153000000.0 -395901000000.0 -366749000000.0 -523492000000.0 -285245000000.0 -551582000000.0 -285250000000.0 -523492000000.0 -366748000000.0 -395900000000.0 -391153000000.0 -139993000000.0 -573138000000.0 -83596100000.0 -16243800000.0 -759751000000.0 -626229000000.0 -909358000000.0 -1.25505e+12 -1.08626e+12 -1.0296e+12 -1.47684e+12 -1.81937e+12 -2.19922e+12 -2.32769e+12 -2.62732e+12 -3.0451e+12 -2.31607e+12 -1.7688e+12 -1.53289e+12 -1.14794e+12 -578869000000.0 -775124000000.0 -250527000000.0 -50977700000.0 -370332000000.0 -718243000000.0 -752284000000.0 -1.26085e+12 -1.40271e+12 -2.21719e+12 -3.23601e+12 -1.34002e+12 -1.99778e+12 -1.50233e+12 -1.58433e+12 -1.47622e+12 -1.4944e+12 -1.36992e+12 -1.80151e+12 -1.81721e+12 -1.62973e+12 -1.38547e+12 -1.13583e+12 -1.02212e+12 -857619000000.0 -1.05177e+12 -1.12712e+12 -376924000000.0 -458924000000.0 -399546000000.0 -307380000000.0 -96482600000.0 -269646000000.0 -269656000000.0 -96482800000.0 -307380000000.0 -399546000000.0 -458924000000.0 -376924000000.0 -1.12712e+12 -1.05177e+12 -857619000000.0 -1.02212e+12 -1.13583e+12 -1.38547e+12 -1.62973e+12 -1.81721e+12 -1.80151e+12 -1.36992e+12 -1.4944e+12 -1.47622e+12 -1.58433e+12 -1.50234e+12 -1.99778e+12 -1.34002e+12 -3.23601e+12 -2.21719e+12 -1.40271e+12 -1.26085e+12 -752284000000.0 -718242000000.0 -370332000000.0 -50977700000.0 -29790100000.0 -373346000000.0 -515284000000.0 -880478000000.0 -1.04821e+12 -1.63553e+12 -2.27882e+12 -2.16873e+12 -1.01579e+12 -1.25649e+12 -1.28032e+12 -1.25955e+12 -1.31911e+12 -1.44458e+12 -1.37146e+12 -1.18819e+12 -881691000000.0 -734341000000.0 -675545000000.0 -722359000000.0 -861017000000.0 -894424000000.0 -653542000000.0 -874756000000.0 -532209000000.0 -922043000000.0 -658139000000.0 -448000000000.0 -414369000000.0 -601652000000.0 -394490000000.0 -424791000000.0 -451338000000.0 -587893000000.0 -451341000000.0 -424790000000.0 -394490000000.0 -601652000000.0 -414369000000.0 -448000000000.0 -658139000000.0 -922043000000.0 -532209000000.0 -874756000000.0 -653542000000.0 -894424000000.0 -861017000000.0 -722359000000.0 -675545000000.0 -734341000000.0 -881691000000.0 -1.18819e+12 -1.37146e+12 -1.44458e+12 -1.31911e+12 -1.25955e+12 -1.28032e+12 -1.25649e+12 -1.01579e+12 -2.16873e+12 -2.27882e+12 -1.63553e+12 -1.04821e+12 -880478000000.0 -515284000000.0 -373345000000.0 -29790100000.0 -122328000000.0 -369145000000.0 -230236000000.0 -513742000000.0 -570091000000.0 -996276000000.0 -1.20767e+12 -2.27001e+12 -412229000000.0 -1.82957e+12 -1.88693e+12 -940692000000.0 -1.09203e+12 -1.12397e+12 -1.05183e+12 -1.09625e+12 -1.02043e+12 -956095000000.0 -928246000000.0 -911551000000.0 -799824000000.0 -439798000000.0 -482223000000.0 -302576000000.0 -453437000000.0 -493949000000.0 -185582000000.0 -296168000000.0 -199771000000.0 -269629000000.0 -386118000000.0 -214180000000.0 -472172000000.0 -214177000000.0 -386121000000.0 -269627000000.0 -199771000000.0 -296168000000.0 -185582000000.0 -493949000000.0 -453437000000.0 -302576000000.0 -482223000000.0 -439798000000.0 -799824000000.0 -911551000000.0 -928246000000.0 -956095000000.0 -1.02043e+12 -1.09625e+12 -1.05183e+12 -1.12397e+12 -1.09203e+12 -940692000000.0 -1.88693e+12 -1.82957e+12 -412229000000.0 -2.27001e+12 -1.20767e+12 -996276000000.0 -570090000000.0 -513742000000.0 -230236000000.0 -369145000000.0 -122328000000.0 -143876000000.0 -471261000000.0 -637294000000.0 -866459000000.0 -1.96498e+12 -1.88964e+12 -1.12731e+12 -1.7576e+12 -1.5476e+12 -833927000000.0 -946601000000.0 -949149000000.0 -1.12706e+12 -1.15081e+12 -1.10616e+12 -582881000000.0 -512338000000.0 -541875000000.0 -613977000000.0 -239655000000.0 -310942000000.0 -60136600000.0 -265297000000.0 -226206000000.0 -280794000000.0 -280792000000.0 -226206000000.0 -265297000000.0 -60136700000.0 -310942000000.0 -239655000000.0 -613977000000.0 -541874000000.0 -512338000000.0 -582881000000.0 -1.10616e+12 -1.15081e+12 -1.12706e+12 -949149000000.0 -946601000000.0 -833927000000.0 -1.5476e+12 -1.7576e+12 -1.12731e+12 -1.88964e+12 -1.96498e+12 -866459000000.0 -637294000000.0 -471261000000.0 -143876000000.0 -103530000000.0 -382691000000.0 -657107000000.0 -589227000000.0 -701130000000.0 -1.48571e+12 -1.39805e+12 -1.3541e+12 -1.55258e+12 -1.18237e+12 -651617000000.0 -879077000000.0 -932692000000.0 -927899000000.0 -891352000000.0 -843424000000.0 -706151000000.0 -858672000000.0 -843981000000.0 -871279000000.0 -791888000000.0 -695258000000.0 -547351000000.0 -573877000000.0 -498325000000.0 -479240000000.0 -345104000000.0 -363387000000.0 -354021000000.0 -316861000000.0 -409333000000.0 -666969000000.0 -409333000000.0 -316861000000.0 -354021000000.0 -363387000000.0 -345104000000.0 -479240000000.0 -498325000000.0 -573877000000.0 -547351000000.0 -695258000000.0 -791888000000.0 -871279000000.0 -843981000000.0 -858672000000.0 -706151000000.0 -843424000000.0 -891352000000.0 -927899000000.0 -932692000000.0 -879077000000.0 -651617000000.0 -1.18237e+12 -1.55258e+12 -1.3541e+12 -1.39805e+12 -1.48571e+12 -701130000000.0 -589227000000.0 -657107000000.0 -382691000000.0 -103530000000.0 -188627000000.0 -237546000000.0 -494065000000.0 -315249000000.0 -576430000000.0 -1.27145e+12 -1.21371e+12 -1.28676e+12 -747854000000.0 -414346000000.0 -739184000000.0 -764811000000.0 -766488000000.0 -747131000000.0 -729721000000.0 -742360000000.0 -836259000000.0 -858288000000.0 -863993000000.0 -395407000000.0 -331056000000.0 -262801000000.0 -332263000000.0 -296848000000.0 -374128000000.0 -266279000000.0 -302933000000.0 -207771000000.0 -237238000000.0 -159257000000.0 -317812000000.0 -14699900000.0 -487234000000.0 -14699900000.0 -317813000000.0 -159258000000.0 -237239000000.0 -207771000000.0 -302933000000.0 -266279000000.0 -374128000000.0 -296848000000.0 -332263000000.0 -262801000000.0 -331056000000.0 -395407000000.0 -863993000000.0 -858288000000.0 -836259000000.0 -742360000000.0 -729721000000.0 -747131000000.0 -766488000000.0 -764811000000.0 -739184000000.0 -414346000000.0 -747853000000.0 -1.28676e+12 -1.21371e+12 -1.27145e+12 -576430000000.0 -315249000000.0 -494065000000.0 -237546000000.0 -188627000000.0 -55394600000.0 -210528000000.0 -430538000000.0 -329312000000.0 -576283000000.0 -1.11388e+12 -1.43144e+12 -821338000000.0 -375378000000.0 -594891000000.0 -553164000000.0 -550455000000.0 -583467000000.0 -583329000000.0 -373036000000.0 -378332000000.0 -465803000000.0 -401615000000.0 -418622000000.0 -16871800000.0 -19088900000.0 -55675900000.0 -55675600000.0 -19089600000.0 -16871800000.0 -418622000000.0 -401615000000.0 -465803000000.0 -378332000000.0 -373036000000.0 -583329000000.0 -583467000000.0 -550455000000.0 -553164000000.0 -594891000000.0 -375378000000.0 -821338000000.0 -1.43144e+12 -1.11388e+12 -576283000000.0 -329312000000.0 -430538000000.0 -210528000000.0 -55394600000.0 -40942500000.0 -359308000000.0 -221014000000.0 -263074000000.0 -1.06198e+12 -1.19694e+12 -1.38942e+12 -697260000000.0 -665963000000.0 -632481000000.0 -427455000000.0 -380940000000.0 -152786000000.0 -130248000000.0 -177387000000.0 -185499000000.0 -136422000000.0 -207511000000.0 -95008400000.0 -219877000000.0 -16054400000.0 -220717000000.0 -18572500000.0 -201920000000.0 -130413000000.0 -247081000000.0 -473312000000.0 -247082000000.0 -130413000000.0 -201921000000.0 -18572500000.0 -220717000000.0 -16054400000.0 -219877000000.0 -95008400000.0 -207511000000.0 -136422000000.0 -185499000000.0 -177387000000.0 -130248000000.0 -152786000000.0 -380940000000.0 -427455000000.0 -632481000000.0 -665963000000.0 -697260000000.0 -1.38942e+12 -1.19694e+12 -1.06198e+12 -263074000000.0 -221014000000.0 -359308000000.0 -40942500000.0 -383335000000.0 -349988000000.0 -612651000000.0 -885154000000.0 -927684000000.0 -1.07302e+12 -1.12497e+12 -468698000000.0 -760297000000.0 -636335000000.0 -555772000000.0 -473146000000.0 -403271000000.0 -439739000000.0 -382526000000.0 -50683700000.0 -56795200000.0 -111679000000.0 -69612600000.0 -123628000000.0 -99183700000.0 -167883000000.0 -85518800000.0 -202278000000.0 -38501400000.0 -154110000000.0 -73653100000.0 -120327000000.0 -29597200000.0 -206213000000.0 -20127200000.0 -394850000000.0 -20127200000.0 -206213000000.0 -29597200000.0 -120327000000.0 -73653100000.0 -154110000000.0 -38501400000.0 -202278000000.0 -85518800000.0 -167883000000.0 -99183700000.0 -123628000000.0 -69612600000.0 -111679000000.0 -56795200000.0 -50683700000.0 -382526000000.0 -439739000000.0 -403271000000.0 -473146000000.0 -555772000000.0 -636335000000.0 -760297000000.0 -468698000000.0 -1.12497e+12 -1.07302e+12 -927684000000.0 -885154000000.0 -612651000000.0 -349988000000.0 -383335000000.0 -18911200000.0 -300573000000.0 -61701500000.0 -190096000000.0 -183579000000.0 -423015000000.0 -575281000000.0 -690064000000.0 -787825000000.0 -863125000000.0 -867999000000.0 -543403000000.0 -560750000000.0 -488202000000.0 -413765000000.0 -291958000000.0 -329361000000.0 -344815000000.0 -320203000000.0 -315862000000.0 -261456000000.0 -62981400000.0 -110898000000.0 -110898000000.0 -62981400000.0 -261456000000.0 -315862000000.0 -320203000000.0 -344815000000.0 -329361000000.0 -291958000000.0 -413765000000.0 -488202000000.0 -560750000000.0 -543403000000.0 -867999000000.0 -863125000000.0 -787825000000.0 -690064000000.0 -575280000000.0 -423015000000.0 -183579000000.0 -190096000000.0 -61701500000.0 -300573000000.0 -18911200000.0 -107503000000.0 -197967000000.0 -253049000000.0 -213375000000.0 -256387000000.0 -440456000000.0 -422605000000.0 -524345000000.0 -354446000000.0 -262977000000.0 -230409000000.0 -242574000000.0 -272486000000.0 -243183000000.0 -268382000000.0 -337800000000.0 -270940000000.0 -226725000000.0 -145129000000.0 -140895000000.0 -128856000000.0 -118789000000.0 -123382000000.0 -91420800000.0 -128043000000.0 -79064900000.0 -94415500000.0 -53338700000.0 -135820000000.0 -244729000000.0 -455304000000.0 -244729000000.0 -135820000000.0 -53338700000.0 -94415400000.0 -79064900000.0 -128043000000.0 -91420900000.0 -123382000000.0 -118789000000.0 -128856000000.0 -140895000000.0 -145129000000.0 -226725000000.0 -270940000000.0 -337800000000.0 -268382000000.0 -243183000000.0 -272486000000.0 -242574000000.0 -230409000000.0 -262977000000.0 -354446000000.0 -524345000000.0 -422605000000.0 -440456000000.0 -256387000000.0 -213375000000.0 -253049000000.0 -197967000000.0 -107503000000.0 -45136300000.0 -36003400000.0 -43354700000.0 -151850000000.0 -632932000000.0 -659494000000.0 -611697000000.0 -476133000000.0 -423656000000.0 -194403000000.0 -128116000000.0 -177023000000.0 -12582300000.0 -77486600000.0 -36981200000.0 -33033900000.0 -42825600000.0 -17977900000.0 -47316500000.0 -18296800000.0 -70274200000.0 -17519900000.0 -68745300000.0 -18619800000.0 -98413600000.0 -20705200000.0 -178348000000.0 -15709700000.0 -343455000000.0 -15709700000.0 -178348000000.0 -20705200000.0 -98413600000.0 -18619800000.0 -68745300000.0 -17519900000.0 -70274300000.0 -18296800000.0 -47316500000.0 -17977900000.0 -42825600000.0 -33033900000.0 -36981200000.0 -77486600000.0 -12582300000.0 -177023000000.0 -128116000000.0 -194403000000.0 -423656000000.0 -476133000000.0 -611697000000.0 -659494000000.0 -632932000000.0 -151850000000.0 -43354700000.0 -36003400000.0 -45136300000.0 -51834900000.0 -282495000000.0 -288455000000.0 -332800000000.0 -347085000000.0 -510528000000.0 -506562000000.0 -449572000000.0 -360470000000.0 -301089000000.0 -224440000000.0 -197067000000.0 -154606000000.0 -163230000000.0 -163230000000.0 -154606000000.0 -197067000000.0 -224440000000.0 -301089000000.0 -360470000000.0 -449572000000.0 -506562000000.0 -510528000000.0 -347085000000.0 -332800000000.0 -288455000000.0 -282495000000.0 -51834900000.0 -28449800000.0 -52510200000.0 -72887300000.0 -108631000000.0 -187719000000.0 -177639000000.0 -228903000000.0 -211452000000.0 -186936000000.0 -428550000000.0 -365693000000.0 -317055000000.0 -247622000000.0 -219186000000.0 -229899000000.0 -221203000000.0 -194681000000.0 -239281000000.0 -318036000000.0 -294452000000.0 -301253000000.0 -262025000000.0 -249536000000.0 -221344000000.0 -189166000000.0 -196636000000.0 -155054000000.0 -172583000000.0 -127371000000.0 -169737000000.0 -112723000000.0 -165788000000.0 -103620000000.0 -189856000000.0 -102658000000.0 -258320000000.0 -111810000000.0 -409139000000.0 -111810000000.0 -258320000000.0 -102658000000.0 -189856000000.0 -103620000000.0 -165788000000.0 -112723000000.0 -169737000000.0 -127371000000.0 -172583000000.0 -155054000000.0 -196636000000.0 -189166000000.0 -221344000000.0 -249536000000.0 -262025000000.0 -301253000000.0 -294452000000.0 -318036000000.0 -239281000000.0 -194681000000.0 -221203000000.0 -229899000000.0 -219186000000.0 -247622000000.0 -317055000000.0 -365693000000.0 -428550000000.0 -186936000000.0 -211452000000.0 -228903000000.0 -177639000000.0 -187719000000.0 -108631000000.0 -72887400000.0 -52510200000.0 -28449800000.0 -33529800000.0 -76332300000.0 -119158000000.0 -160229000000.0 -268130000000.0 -284180000000.0 -308130000000.0 -247255000000.0 -178298000000.0 -120886000000.0 -271363000000.0 -232095000000.0 -159468000000.0 -146369000000.0 -140302000000.0 -158518000000.0 -47194900000.0 -71661800000.0 -34335100000.0 -12172900000.0 -45561800000.0 -12091000000.0 -45347300000.0 -12521700000.0 -59461900000.0 -11632000000.0 -59292100000.0 -11550000000.0 -73224700000.0 -11085600000.0 -83192400000.0 -11187200000.0 -111188000000.0 -11044900000.0 -165223000000.0 -9083130000.0 -290543000000.0 -9083130000.0 -165223000000.0 -11044900000.0 -111188000000.0 -11187200000.0 -83192400000.0 -11085600000.0 -73224700000.0 -11550000000.0 -59292100000.0 -11632000000.0 -59461900000.0 -12521700000.0 -45347300000.0 -12091000000.0 -45561800000.0 -12172900000.0 -34335100000.0 -71661800000.0 -47194900000.0 -158518000000.0 -140302000000.0 -146369000000.0 -159468000000.0 -232095000000.0 -271363000000.0 -120886000000.0 -178298000000.0 -247256000000.0 -308130000000.0 -284180000000.0 -268130000000.0 -160229000000.0 -119158000000.0 -76332300000.0 -33529800000.0 -305401000000.0 -305401000000.0 -18615500000.0 -10777900000.0 -10526000000.0 -10731700000.0 -64038300000.0 -82837700000.0 -117550000000.0 -106750000000.0 -83076200000.0 -77202300000.0 -252302000000.0 -277623000000.0 -285574000000.0 -241813000000.0 -230862000000.0 -216145000000.0 -224804000000.0 -151027000000.0 -156522000000.0 -110200000000.0 -80678500000.0 -102058000000.0 -58408300000.0 -81345400000.0 -42236900000.0 -83878500000.0 -32306200000.0 -77046200000.0 -24299300000.0 -82369400000.0 -17627300000.0 -87901700000.0 -11193500000.0 -108949000000.0 -9570770000.0 -151520000000.0 -9820800000.0 -255555000000.0 -9820800000.0 -151520000000.0 -9570770000.0 -108949000000.0 -11193500000.0 -87901700000.0 -17627300000.0 -82369400000.0 -24299300000.0 -77046200000.0 -32306200000.0 -83878500000.0 -42236900000.0 -81345400000.0 -58408300000.0 -102058000000.0 -80678500000.0 -110200000000.0 -156522000000.0 -151027000000.0 -224804000000.0 -216145000000.0 -230862000000.0 -241813000000.0 -285574000000.0 -277623000000.0 -252302000000.0 -77202300000.0 -83076200000.0 -106750000000.0 -117550000000.0 -82837700000.0 -64038300000.0 -10731700000.0 -10526000000.0 -10777900000.0 -18615500000.0 -29692300000.0 -18422200000.0 -24390000000.0 -32408500000.0 -74597500000.0 -101772000000.0 -134502000000.0 -131906000000.0 -115353000000.0 -120614000000.0 -212333000000.0 -185900000000.0 -152605000000.0 -98388000000.0 -90990500000.0 -80747100000.0 -83264500000.0 -41751300000.0 -52513500000.0 -19639700000.0 -9719730000.0 -45395700000.0 -9363520000.0 -41968100000.0 -9385230000.0 -57911100000.0 -9308350000.0 -59846400000.0 -9035750000.0 -70731900000.0 -9035750000.0 -83004800000.0 -9035750000.0 -106101000000.0 -9035750000.0 -138363000000.0 -9035750000.0 -224154000000.0 -9035750000.0 -138363000000.0 -9035750000.0 -106101000000.0 -9035750000.0 -83004800000.0 -9035750000.0 -70731900000.0 -9035750000.0 -59846400000.0 -9308350000.0 -57911100000.0 -9385230000.0 -41968100000.0 -9363520000.0 -45395700000.0 -9719730000.0 -19639700000.0 -52513500000.0 -41751300000.0 -83264500000.0 -80747100000.0 -90990500000.0 -98388000000.0 -152605000000.0 -185900000000.0 -212333000000.0 -120614000000.0 -115353000000.0 -131906000000.0 -134502000000.0 -101772000000.0 -74597500000.0 -32408500000.0 -24390000000.0 -18422200000.0 -29692300000.0 -33822800000.0 -12248900000.0 -12724600000.0 -15928900000.0 -40581100000.0 -63257400000.0 -88047500000.0 -89676200000.0 -79181300000.0 -85998800000.0 -156491000000.0 -152998000000.0 -137548000000.0 -99582200000.0 -94775400000.0 -82941900000.0 -78305500000.0 -51676300000.0 -54747100000.0 -22507800000.0 -13357500000.0 -46806600000.0 -11279000000.0 -41866200000.0 -9490220000.0 -57062000000.0 -9035750000.0 -59284400000.0 -9035750000.0 -69950800000.0 -9035750000.0 -81972900000.0 -9035750000.0 -102419000000.0 -9035750000.0 -126224000000.0 -9035750000.0 -196125000000.0 -9035750000.0 -126224000000.0 -9035750000.0 -102419000000.0 -9035750000.0 -81972900000.0 -9035750000.0 -69950800000.0 -9035750000.0 -59284400000.0 -9035750000.0 -57062000000.0 -9490220000.0 -41866200000.0 -11279000000.0 -46806600000.0 -13357500000.0 -22507800000.0 -54747100000.0 -51676300000.0 -78305500000.0 -82941900000.0 -94775400000.0 -99582100000.0 -137548000000.0 -152998000000.0 -156491000000.0 -85998800000.0 -79181300000.0 -89676200000.0 -88047500000.0 -63257400000.0 -40581100000.0 -15928900000.0 -12724600000.0 -12248900000.0 -33822800000.0 -37587900000.0 -13852300000.0 -15012400000.0 -19736400000.0 -36804300000.0 -58313400000.0 -78852800000.0 -83738800000.0 -80335400000.0 -87934300000.0 -136054000000.0 -130063000000.0 -115487000000.0 -86417600000.0 -82860100000.0 -69272700000.0 -59410300000.0 -43933300000.0 -42712100000.0 -16313900000.0 -9037080000.0 -42359100000.0 -9035750000.0 -39731600000.0 -9035750000.0 -56477700000.0 -9035750000.0 -58546000000.0 -9035750000.0 -68864300000.0 -9035750000.0 -80137500000.0 -9035750000.0 -97736600000.0 -9035750000.0 -114669000000.0 -9035750000.0 -171214000000.0 -9035750000.0 -114669000000.0 -9035750000.0 -97736600000.0 -9035750000.0 -80137500000.0 -9035750000.0 -68864300000.0 -9035750000.0 -58546000000.0 -9035750000.0 -56477700000.0 -9035750000.0 -39731600000.0 -9035750000.0 -42359100000.0 -9037080000.0 -16313900000.0 -42712100000.0 -43933300000.0 -59410300000.0 -69272700000.0 -82860100000.0 -86417600000.0 -115487000000.0 -130063000000.0 -136054000000.0 -87934300000.0 -80335400000.0 -83738800000.0 -78852800000.0 -58313500000.0 -36804300000.0 -19736400000.0 -15012400000.0 -13852300000.0 -37587900000.0 -39181900000.0 -14523800000.0 -15494100000.0 -20779000000.0 -31842400000.0 -50632400000.0 -66978200000.0 -72973400000.0 -73880700000.0 -82995600000.0 -114789000000.0 -112932000000.0 -103047000000.0 -83531900000.0 -80887000000.0 -66125100000.0 -53047100000.0 -43888400000.0 -38423000000.0 -17246900000.0 -9128480000.0 -40966500000.0 -9035760000.0 -39015200000.0 -9035750000.0 -55665800000.0 -9035750000.0 -57477400000.0 -9035760000.0 -67386200000.0 -9035750000.0 -77727200000.0 -9035760000.0 -92360900000.0 -9035750000.0 -103821000000.0 -9035750000.0 -149179000000.0 -9035750000.0 -103821000000.0 -9035750000.0 -92360900000.0 -9035760000.0 -77727200000.0 -9035750000.0 -67386200000.0 -9035760000.0 -57477400000.0 -9035750000.0 -55665800000.0 -9035750000.0 -39015200000.0 -9035760000.0 -40966500000.0 -9128480000.0 -17246900000.0 -38423000000.0 -43888400000.0 -53047100000.0 -66125100000.0 -80887000000.0 -83531900000.0 -103047000000.0 -112932000000.0 -114789000000.0 -82995600000.0 -73880700000.0 -72973400000.0 -66978200000.0 -50632400000.0 -31842400000.0 -20779000000.0 -15494100000.0 -14523800000.0 -39181900000.0 -39523900000.0 -15554600000.0 -16654400000.0 -22723600000.0 -30051000000.0 -46074500000.0 -48454500000.0 -42708300000.0 -34095100000.0 -17892500000.0 -9035750000.0 -39631200000.0 -9035760000.0 -38357800000.0 -9035760000.0 -54573400000.0 -9035760000.0 -56162700000.0 -9035760000.0 -65528300000.0 -9035750000.0 -74883900000.0 -9035760000.0 -86548400000.0 -9035750000.0 -93741200000.0 -9035750000.0 -129784000000.0 -9035750000.0 -93741200000.0 -9035750000.0 -86548400000.0 -9035760000.0 -74883900000.0 -9035750000.0 -65528300000.0 -9035760000.0 -56162700000.0 -9035760000.0 -54573400000.0 -9035760000.0 -38357800000.0 -9035760000.0 -39631200000.0 -9035750000.0 -17892500000.0 -34095100000.0 -42708300000.0 -48454500000.0 -46074500000.0 -30051000000.0 -22723600000.0 -16654400000.0 -15554600000.0 -39523900000.0 -58966800000.0 -65212900000.0 -68995800000.0 -79972700000.0 -97806500000.0 -99924600000.0 -92797800000.0 -81258500000.0 -78900600000.0 -63257000000.0 -63257000000.0 -78900600000.0 -81258500000.0 -92797900000.0 -99924600000.0 -97806500000.0 -79972700000.0 -68995800000.0 -65212900000.0 -58966800000.0 -38752700000.0 -16444700000.0 -17624800000.0 -24312800000.0 -29300100000.0 -42512000000.0 -52369300000.0 -58083200000.0 -63558900000.0 -75822200000.0 -85911300000.0 -89302700000.0 -84606700000.0 -80125000000.0 -77641700000.0 -61542300000.0 -46110700000.0 -41648700000.0 -30760500000.0 -18619400000.0 -9035760000.0 -38363700000.0 -9035760000.0 -37691300000.0 -9035760000.0 -53210900000.0 -9035760000.0 -54643000000.0 -9035760000.0 -63346200000.0 -9035760000.0 -71704500000.0 -9035760000.0 -80509900000.0 -9035750000.0 -84451700000.0 -9035750000.0 -112802000000.0 -9035750000.0 -84451700000.0 -9035750000.0 -80509900000.0 -9035760000.0 -71704500000.0 -9035760000.0 -63346200000.0 -9035760000.0 -54643000000.0 -9035760000.0 -53210900000.0 -9035760000.0 -37691300000.0 -9035760000.0 -38363700000.0 -9035760000.0 -18619400000.0 -30760500000.0 -41648700000.0 -46110700000.0 -61542300000.0 -77641700000.0 -80125000000.0 -84606700000.0 -89302700000.0 -85911300000.0 -75822200000.0 -63558900000.0 -58083200000.0 -52369400000.0 -42512000000.0 -29300200000.0 -24312800000.0 -17624800000.0 -16444700000.0 -38752700000.0 -9035760000.0 -9035760000.0 -9035760000.0 -9035760000.0 -9035760000.0 -9035760000.0 -9035760000.0 -9035750000.0 -9035750000.0 -9035750000.0 -9035750000.0 -9035760000.0 -9035760000.0 -9035760000.0 -9035760000.0 -9035760000.0 -9035760000.0 -9035760000.0 -37157500000.0 -17186600000.0 -18397700000.0 -25536600000.0 -29108600000.0 -39780000000.0 -47141900000.0 -51799700000.0 -58042000000.0 -71057300000.0 -78987700000.0 -80708900000.0 -78074500000.0 -79353900000.0 -76583600000.0 -60278600000.0 -44999200000.0 -40434800000.0 -28023700000.0 -19123700000.0 -37156300000.0 -36972100000.0 -51620800000.0 -52943300000.0 -60910800000.0 -68271200000.0 -74417200000.0 -75945100000.0 -98003600000.0 -75945100000.0 -74417200000.0 -68271200000.0 -60910800000.0 -52943300000.0 -51620800000.0 -36972100000.0 -37156300000.0 -19123700000.0 -28023700000.0 -40434800000.0 -44999200000.0 -60278600000.0 -76583600000.0 -79353900000.0 -78074500000.0 -80708900000.0 -78987700000.0 -71057300000.0 -58042000000.0 -51799700000.0 -47141900000.0 -39780000000.0 -29108600000.0 -25536600000.0 -18397700000.0 -17186600000.0 -37157500000.0 -35066100000.0 -17777600000.0 -18972800000.0 -26399900000.0 -29166100000.0 -37723200000.0 -43180000000.0 -46530700000.0 -52822600000.0 -66245300000.0 -74508700000.0 -73735600000.0 -72889100000.0 -78578900000.0 -75448400000.0 -59243600000.0 -44487600000.0 -39098800000.0 -25795300000.0 -19439500000.0 -9035760000.0 -35993100000.0 -9035760000.0 -36174000000.0 -9035760000.0 -49856100000.0 -9035760000.0 -51090500000.0 -9035760000.0 -58290600000.0 -9035760000.0 -64658800000.0 -9035760000.0 -68406700000.0 -9035750000.0 -68195600000.0 -9035750000.0 -85161000000.0 -9035750000.0 -68195600000.0 -9035750000.0 -68406700000.0 -9035760000.0 -64658800000.0 -9035760000.0 -58290600000.0 -9035760000.0 -51090500000.0 -9035760000.0 -49856100000.0 -9035760000.0 -36174000000.0 -9035760000.0 -35993100000.0 -9035760000.0 -19439500000.0 -25795300000.0 -39098800000.0 -44487600000.0 -59243600000.0 -75448400000.0 -78578900000.0 -72889100000.0 -73735600000.0 -74508700000.0 -66245300000.0 -52822600000.0 -46530700000.0 -43180100000.0 -37723200000.0 -29166100000.0 -26399900000.0 -18972800000.0 -17777600000.0 -35066100000.0 -32767600000.0 -18220000000.0 -19356400000.0 -26920200000.0 -29285200000.0 -36172600000.0 -40276400000.0 -42290900000.0 -48164600000.0 -61774200000.0 -70712300000.0 -68039000000.0 -68771500000.0 -77534100000.0 -74015100000.0 -58232300000.0 -44027500000.0 -37667300000.0 -23981700000.0 -19607400000.0 -9035760000.0 -34854700000.0 -9035760000.0 -35287300000.0 -9035760000.0 -47966300000.0 -9035760000.0 -49116000000.0 -9035760000.0 -55545700000.0 -9035760000.0 -60933700000.0 -9035760000.0 -62582400000.0 -9035750000.0 -61168200000.0 -9035750000.0 -74054600000.0 -9035750000.0 -61168200000.0 -9035750000.0 -62582400000.0 -9035760000.0 -60933700000.0 -9035760000.0 -55545700000.0 -9035760000.0 -49116000000.0 -9035760000.0 -47966300000.0 -9035760000.0 -35287300000.0 -9035760000.0 -34854700000.0 -9035760000.0 -19607400000.0 -23981700000.0 -37667300000.0 -44027500000.0 -58232300000.0 -74015100000.0 -77534100000.0 -68771500000.0 -68039000000.0 -70712300000.0 -61774200000.0 -48164600000.0 -42290900000.0 -40276400000.0 -36172600000.0 -29285200000.0 -26920200000.0 -19356400000.0 -18220000000.0 -32767600000.0 -30473600000.0 -18519800000.0 -19560600000.0 -27124900000.0 -29309900000.0 -34953200000.0 -38179400000.0 -38966100000.0 -44186000000.0 -57815500000.0 -67000500000.0 -63298400000.0 -65438700000.0 -76020200000.0 -72173400000.0 -57031900000.0 -43314300000.0 -36166600000.0 -22494200000.0 -19657200000.0 -9035770000.0 -33723500000.0 -9035760000.0 -34315700000.0 -9035760000.0 -45992000000.0 -9035760000.0 -47052900000.0 -9035760000.0 -52727600000.0 -9035760000.0 -57154900000.0 -9035760000.0 -57022100000.0 -9035750000.0 -54823000000.0 -9035750000.0 -64477900000.0 -9035750000.0 -54823000000.0 -9035750000.0 -57022100000.0 -9035760000.0 -57154900000.0 -9035760000.0 -52727600000.0 -9035760000.0 -47052900000.0 -9035760000.0 -45992000000.0 -9035760000.0 -34315700000.0 -9035760000.0 -33723500000.0 -9035770000.0 -19657200000.0 -22494200000.0 -36166600000.0 -43314300000.0 -57031900000.0 -72173400000.0 -76020200000.0 -65438700000.0 -63298400000.0 -67000500000.0 -57815400000.0 -44186000000.0 -38966100000.0 -38179400000.0 -34953200000.0 -29309900000.0 -27124900000.0 -19560600000.0 -18519800000.0 -30473600000.0 -28322500000.0 -18686300000.0 -19601600000.0 -27049600000.0 -29132300000.0 -33918700000.0 -36645400000.0 -36385200000.0 -40878400000.0 -54395200000.0 -63314100000.0 -59263100000.0 -62615700000.0 -73933400000.0 -69883200000.0 -55489000000.0 -42260100000.0 -34618500000.0 -21253500000.0 -19609700000.0 -9035770000.0 -32586300000.0 -9035760000.0 -33269100000.0 -9035760000.0 -43965400000.0 -9035760000.0 -44931700000.0 -9035760000.0 -49879600000.0 -9035760000.0 -53376700000.0 -9035760000.0 -51780900000.0 -9035750000.0 -49117500000.0 -9035750000.0 -56241000000.0 -9035750000.0 -49117500000.0 -9035750000.0 -51780900000.0 -9035760000.0 -53376700000.0 -9035760000.0 -49879600000.0 -9035760000.0 -44931700000.0 -9035760000.0 -43965400000.0 -9035760000.0 -33269100000.0 -9035760000.0 -32586300000.0 -9035770000.0 -19609700000.0 -21253500000.0 -34618500000.0 -42260100000.0 -55489000000.0 -69883200000.0 -73933400000.0 -62615700000.0 -59263100000.0 -63314100000.0 -54395200000.0 -40878400000.0 -36385200000.0 -36645400000.0 -33918700000.0 -29132300000.0 -27049600000.0 -19601600000.0 -18686300000.0 -28322500000.0 -26391800000.0 -18730900000.0 -19498800000.0 -26734200000.0 -28715800000.0 -32963500000.0 -35467700000.0 -34366800000.0 -38156900000.0 -51457300000.0 -59714800000.0 -55750400000.0 -60071400000.0 -71280400000.0 -67147700000.0 -53555600000.0 -40885400000.0 -33039400000.0 -20192000000.0 -19479300000.0 -9035770000.0 -31435400000.0 -9035760000.0 -32159500000.0 -9035760000.0 -41912100000.0 -9035760000.0 -42778700000.0 -9035760000.0 -47037600000.0 -9035760000.0 -49649500000.0 -9035760000.0 -46894400000.0 -9035750000.0 -44007400000.0 -9035750000.0 -49172000000.0 -9035750000.0 -44007400000.0 -9035750000.0 -46894400000.0 -9035760000.0 -49649500000.0 -9035760000.0 -47037600000.0 -9035760000.0 -42778700000.0 -9035760000.0 -41912100000.0 -9035760000.0 -32159500000.0 -9035760000.0 -31435400000.0 -9035770000.0 -19479300000.0 -20192000000.0 -33039400000.0 -40885400000.0 -53555600000.0 -67147700000.0 -71280400000.0 -60071400000.0 -55750400000.0 -59714800000.0 -51457300000.0 -38156900000.0 -34366800000.0 -35467700000.0 -32963500000.0 -28715800000.0 -26734200000.0 -19498800000.0 -18730900000.0 -26391800000.0 -24709300000.0 -18666500000.0 -19272800000.0 -26220300000.0 -28075900000.0 -32013200000.0 -34485700000.0 -32742700000.0 -35908000000.0 -48907700000.0 -56258000000.0 -52611900000.0 -57634500000.0 -68147600000.0 -64014200000.0 -51269600000.0 -39247400000.0 -31443100000.0 -19256100000.0 -19276300000.0 -9035770000.0 -30267500000.0 -9035760000.0 -30999700000.0 -9035760000.0 -39853000000.0 -9035760000.0 -40615500000.0 -9035760000.0 -44230600000.0 -9035760000.0 -46018000000.0 -9035760000.0 -42383400000.0 -9035750000.0 -39447800000.0 -9035750000.0 -43116600000.0 -9035750000.0 -39447800000.0 -9035750000.0 -42383400000.0 -9035760000.0 -46018000000.0 -9035760000.0 -44230600000.0 -9035760000.0 -40615500000.0 -9035760000.0 -39853000000.0 -9035760000.0 -30999700000.0 -9035760000.0 -30267500000.0 -9035770000.0 -19276300000.0 -19256100000.0 -31443100000.0 -39247400000.0 -51269600000.0 -64014200000.0 -68147600000.0 -57634500000.0 -52611900000.0 -56258000000.0 -48907700000.0 -35908000000.0 -32742700000.0 -34485700000.0 -32013200000.0 -28075900000.0 -26220300000.0 -19272800000.0 -18666500000.0 -24709300000.0 -23266900000.0 -18506500000.0 -18944700000.0 -25548200000.0 -27251300000.0 -31020000000.0 -33580700000.0 -31373600000.0 -34018000000.0 -46643300000.0 -52974100000.0 -49727000000.0 -55192600000.0 -64655300000.0 -60567900000.0 -48710600000.0 -37410100000.0 -29842800000.0 -18405700000.0 -19008400000.0 -9035770000.0 -29083000000.0 -9035760000.0 -29802200000.0 -9035760000.0 -37805000000.0 -9035760000.0 -38460300000.0 -9035760000.0 -41482100000.0 -9035760000.0 -42519700000.0 -9035760000.0 -38256100000.0 -9035750000.0 -35393900000.0 -9035750000.0 -37937700000.0 -9035750000.0 -35393900000.0 -9035750000.0 -38256100000.0 -9035760000.0 -42519700000.0 -9035760000.0 -41482100000.0 -9035760000.0 -38460300000.0 -9035760000.0 -37805000000.0 -9035760000.0 -29802200000.0 -9035760000.0 -29083000000.0 -9035770000.0 -19008400000.0 -18405700000.0 -29842800000.0 -37410100000.0 -48710600000.0 -60567900000.0 -64655300000.0 -55192600000.0 -49727000000.0 -52974100000.0 -46643300000.0 -34018000000.0 -31373600000.0 -33580700000.0 -31020000000.0 -27251300000.0 -25548200000.0 -18944700000.0 -18506500000.0 -23266900000.0 -22035500000.0 -18263600000.0 -18534600000.0 -24754600000.0 -26285800000.0 -29962700000.0 -32670300000.0 -30154200000.0 -32384900000.0 -44567300000.0 -49871000000.0 -47010700000.0 -52688000000.0 -60924900000.0 -56911600000.0 -45967200000.0 -35434900000.0 -28251900000.0 -17613300000.0 -18682100000.0 -9035770000.0 -27884200000.0 -9035760000.0 -28578200000.0 -9035760000.0 -35781600000.0 -9035760000.0 -36328500000.0 -9035760000.0 -38810500000.0 -9035760000.0 -39183500000.0 -9035760000.0 -34511200000.0 -9035750000.0 -31802000000.0 -9035750000.0 -33513700000.0 -9035750000.0 -31802000000.0 -9035750000.0 -34511200000.0 -9035760000.0 -39183500000.0 -9035760000.0 -38810500000.0 -9035760000.0 -36328500000.0 -9035760000.0 -35781600000.0 -9035760000.0 -28578200000.0 -9035760000.0 -27884200000.0 -9035770000.0 -18682100000.0 -17613300000.0 -28251900000.0 -35434900000.0 -45967200000.0 -56911600000.0 -60924900000.0 -52688000000.0 -47010700000.0 -49871000000.0 -44567300000.0 -32384900000.0 -30154200000.0 -32670300000.0 -29962700000.0 -26285800000.0 -24754600000.0 -18534600000.0 -18263600000.0 -22035500000.0 -20976700000.0 -17950000000.0 -18061100000.0 -23872400000.0 -25220800000.0 -28841000000.0 -31704800000.0 -29010100000.0 -30922000000.0 -42598000000.0 -46939200000.0 -44410700000.0 -50104400000.0 -57064200000.0 -53145900000.0 -43121600000.0 -33378200000.0 -26683400000.0 -16862100000.0 -18303000000.0 -9035770000.0 -26675300000.0 -9035760000.0 -27337300000.0 -9035760000.0 -33793900000.0 -9035760000.0 -34233200000.0 -9035760000.0 -36230500000.0 -9035760000.0 -36030400000.0 -9035760000.0 -31138900000.0 -9035750000.0 -28630200000.0 -9035750000.0 -29738400000.0 -9035750000.0 -28630200000.0 -9035750000.0 -31138900000.0 -9035760000.0 -36030400000.0 -9035760000.0 -36230500000.0 -9035760000.0 -34233200000.0 -9035760000.0 -33793900000.0 -9035760000.0 -27337300000.0 -9035760000.0 -26675300000.0 -9035770000.0 -18303000000.0 -16862100000.0 -26683400000.0 -33378200000.0 -43121600000.0 -53145900000.0 -57064200000.0 -50104400000.0 -44410700000.0 -46939200000.0 -42598000000.0 -30922000000.0 -29010100000.0 -31704800000.0 -28841000000.0 -25220800000.0 -23872400000.0 -18061100000.0 -17950000000.0 -20976700000.0 -20050600000.0 -17576700000.0 -17540300000.0 -22929100000.0 -24092200000.0 -27666200000.0 -30660100000.0 -27890800000.0 -29560700000.0 -40672200000.0 -44157600000.0 -41896200000.0 -47450000000.0 -53161800000.0 -49357900000.0 -40243500000.0 -31289500000.0 -25150000000.0 -16143000000.0 -17876500000.0 -9035770000.0 -25461000000.0 -9035760000.0 -26087300000.0 -9035760000.0 -31850100000.0 -9035760000.0 -32185000000.0 -9035760000.0 -33752500000.0 -9035760000.0 -33074200000.0 -9035760000.0 -28122800000.0 -9035750000.0 -25838400000.0 -9035750000.0 -26518800000.0 -9035750000.0 -25838400000.0 -9035750000.0 -28122800000.0 -9035760000.0 -33074200000.0 -9035760000.0 -33752500000.0 -9035760000.0 -32185000000.0 -9035760000.0 -31850100000.0 -9035760000.0 -26087300000.0 -9035760000.0 -25461000000.0 -9035770000.0 -17876500000.0 -16143000000.0 -25150000000.0 -31289500000.0 -40243500000.0 -49357900000.0 -53161800000.0 -47450000000.0 -41896200000.0 -44157600000.0 -40672200000.0 -29560700000.0 -27890800000.0 -30660100000.0 -27666200000.0 -24092200000.0 -22929100000.0 -17540300000.0 -17576700000.0 -20050600000.0 -19220300000.0 -17153000000.0 -16986000000.0 -21947400000.0 -22930100000.0 -26452100000.0 -29530000000.0 -26765300000.0 -28250500000.0 -38745100000.0 -41499800000.0 -39447300000.0 -44742800000.0 -49287400000.0 -45617600000.0 -37389000000.0 -29210400000.0 -23662300000.0 -15452300000.0 -17407900000.0 -9035770000.0 -24246500000.0 -9035760000.0 -24834700000.0 -9035760000.0 -29956300000.0 -9035760000.0 -30192200000.0 -9035760000.0 -31384000000.0 -9035760000.0 -30322300000.0 -9035760000.0 -25441600000.0 -9035750000.0 -23389000000.0 -9035750000.0 -23774100000.0 -9035750000.0 -23389000000.0 -9035750000.0 -25441600000.0 -9035760000.0 -30322300000.0 -9035760000.0 -31384000000.0 -9035760000.0 -30192200000.0 -9035760000.0 -29956300000.0 -9035760000.0 -24834700000.0 -9035760000.0 -24246500000.0 -9035770000.0 -17407900000.0 -15452300000.0 -23662300000.0 -29210400000.0 -37389000000.0 -45617600000.0 -49287400000.0 -44742800000.0 -39447300000.0 -41499800000.0 -38745100000.0 -28250500000.0 -26765300000.0 -29530000000.0 -26452100000.0 -22930100000.0 -21947400000.0 -16986000000.0 -17153000000.0 -19220300000.0 -18454400000.0 -16686800000.0 -16409300000.0 -20945400000.0 -21757800000.0 -25210800000.0 -28317700000.0 -25616600000.0 -26956700000.0 -36787800000.0 -38938300000.0 -37050000000.0 -42002900000.0 -45493100000.0 -41978100000.0 -34601100000.0 -27175000000.0 -22229300000.0 -14789900000.0 -16902100000.0 -9035770000.0 -23036500000.0 -9035760000.0 -23584800000.0 -9035760000.0 -28116100000.0 -9035760000.0 -28260900000.0 -9035760000.0 -29129400000.0 -9035760000.0 -27776600000.0 -9035760000.0 -23070500000.0 -9035750000.0 -21246300000.0 -9035750000.0 -21434600000.0 -9035750000.0 -21246300000.0 -9035750000.0 -23070500000.0 -9035760000.0 -27776600000.0 -9035760000.0 -29129400000.0 -9035760000.0 -28260900000.0 -9035760000.0 -28116100000.0 -9035760000.0 -23584800000.0 -9035760000.0 -23036500000.0 -9035770000.0 -16902100000.0 -14789900000.0 -22229300000.0 -27175000000.0 -34601100000.0 -41978100000.0 -45493100000.0 -42002900000.0 -37050000000.0 -38938300000.0 -36787800000.0 -26956700000.0 -25616600000.0 -28317700000.0 -25210800000.0 -21757800000.0 -20945400000.0 -16409300000.0 -16686800000.0 -18454400000.0 -15818800000.0 -19936200000.0 -20592800000.0 -38476700000.0 -31910800000.0 -25208900000.0 -20857200000.0 -14157400000.0 -16363800000.0 -9035770000.0 -21834900000.0 -9035760000.0 -22341900000.0 -9035760000.0 -26331300000.0 -9035760000.0 -26395000000.0 -9035760000.0 -26990600000.0 -9035760000.0 -25434400000.0 -9035760000.0 -20982800000.0 -9035750000.0 -19377000000.0 -9035750000.0 -19439900000.0 -9035750000.0 -19377000000.0 -9035750000.0 -20982800000.0 -9035760000.0 -25434400000.0 -9035760000.0 -26990600000.0 -9035760000.0 -26395000000.0 -9035760000.0 -26331300000.0 -9035760000.0 -22341900000.0 -9035760000.0 -21834900000.0 -9035770000.0 -16363800000.0 -14157400000.0 -20857200000.0 -25208900000.0 -31910800000.0 -38476700000.0 -20592800000.0 -19936200000.0 -15818800000.0 -17727500000.0 -16184800000.0 -23950800000.0 -27030300000.0 -24438000000.0 -25657000000.0 -34784100000.0 -36447800000.0 -34693300000.0 -39248500000.0 -41815400000.0 -41815400000.0 -39248500000.0 -34693300000.0 -36447800000.0 -34784100000.0 -25657000000.0 -24438000000.0 -27030300000.0 -23950800000.0 -16184800000.0 -17727500000.0 -17019800000.0 -15652200000.0 -15220800000.0 -18929300000.0 -19447100000.0 -22678100000.0 -25675700000.0 -23227900000.0 -24338000000.0 -32727000000.0 -34006800000.0 -32369200000.0 -36494500000.0 -38277800000.0 -35137300000.0 -29338100000.0 -23330600000.0 -19549800000.0 -13556800000.0 -15797500000.0 -9035770000.0 -20645100000.0 -9035760000.0 -21109400000.0 -9035760000.0 -24602000000.0 -9035760000.0 -24596400000.0 -9035760000.0 -24966900000.0 -9035760000.0 -23288800000.0 -9035760000.0 -19150900000.0 -9035750000.0 -17749900000.0 -9035750000.0 -17737900000.0 -9035750000.0 -17749900000.0 -9035750000.0 -19150900000.0 -9035760000.0 -23288800000.0 -9035760000.0 -24966900000.0 -9035760000.0 -24596400000.0 -9035760000.0 -24602000000.0 -9035760000.0 -21109400000.0 -9035760000.0 -20645100000.0 -9035770000.0 -15797500000.0 -13556800000.0 -19549800000.0 -23330600000.0 -29338100000.0 -35137300000.0 -38277800000.0 -36494500000.0 -32369200000.0 -34006800000.0 -32727000000.0 -24338000000.0 -23227900000.0 -25675700000.0 -22678100000.0 -19447100000.0 -18929300000.0 -15220800000.0 -15652200000.0 -17019800000.0 -16316900000.0 -15093300000.0 -14620000000.0 -17930900000.0 -18328300000.0 -21396100000.0 -24261300000.0 -21986600000.0 -22992200000.0 -30616200000.0 -31597700000.0 -30071200000.0 -33752700000.0 -34892600000.0 -31972400000.0 -26894300000.0 -21551700000.0 -18308300000.0 -12989600000.0 -15207600000.0 -9035770000.0 -19469400000.0 -9035760000.0 -19889900000.0 -9035760000.0 -22927000000.0 -9035760000.0 -22865100000.0 -9035760000.0 -23055700000.0 -9035760000.0 -21329800000.0 -9035760000.0 -17547200000.0 -9035750000.0 -16335900000.0 -9035750000.0 -16283600000.0 -9035750000.0 -16335900000.0 -9035750000.0 -17547200000.0 -9035760000.0 -21329800000.0 -9035760000.0 -23055700000.0 -9035760000.0 -22865100000.0 -9035760000.0 -22927000000.0 -9035760000.0 -19889900000.0 -9035760000.0 -19469400000.0 -9035770000.0 -15207600000.0 -12989600000.0 -18308300000.0 -21551700000.0 -26894300000.0 -31972400000.0 -34892600000.0 -33752700000.0 -30071200000.0 -31597700000.0 -30616200000.0 -22992200000.0 -21986600000.0 -24261300000.0 -21396100000.0 -18328300000.0 -17930900000.0 -14620000000.0 -15093300000.0 -16316900000.0 -15608500000.0 -14511600000.0 -14019300000.0 -16944400000.0 -17240300000.0 -20106900000.0 -22793700000.0 -20715500000.0 -21616500000.0 -28455100000.0 -29207500000.0 -27794800000.0 -31031400000.0 -31663300000.0 -28985200000.0 -24582700000.0 -19877400000.0 -17131600000.0 -12456800000.0 -14597800000.0 -9035770000.0 -18309300000.0 -9035760000.0 -18685200000.0 -9035760000.0 -21304000000.0 -9035760000.0 -21199500000.0 -9035760000.0 -21252300000.0 -9035760000.0 -19544600000.0 -9035760000.0 -16144800000.0 -9035750000.0 -15107700000.0 -9035750000.0 -15038000000.0 -9035750000.0 -15107700000.0 -9035750000.0 -16144800000.0 -9035760000.0 -19544600000.0 -9035760000.0 -21252300000.0 -9035760000.0 -21199500000.0 -9035760000.0 -21304000000.0 -9035760000.0 -18685200000.0 -9035760000.0 -18309300000.0 -9035770000.0 -14597800000.0 -12456800000.0 -17131600000.0 -19877400000.0 -24582700000.0 -28985200000.0 -31663300000.0 -31031400000.0 -27794800000.0 -29207500000.0 -28455100000.0 -21616500000.0 -20715500000.0 -22793700000.0 -20106900000.0 -17240300000.0 -16944400000.0 -14019300000.0 -14511600000.0 -15608500000.0 -14887800000.0 -13910100000.0 -13420300000.0 -15971200000.0 -16183900000.0 -18811700000.0 -21278700000.0 -19415700000.0 -20210500000.0 -26249800000.0 -26826700000.0 -25536400000.0 -28336100000.0 -28586300000.0 -26170900000.0 -22400800000.0 -18307800000.0 -16016600000.0 -11958000000.0 -13971600000.0 -9035760000.0 -17165200000.0 -9035760000.0 -17496100000.0 -9035760000.0 -19729500000.0 -9035760000.0 -19596800000.0 -9035760000.0 -19550100000.0 -9035760000.0 -17918400000.0 -9035760000.0 -14917800000.0 -9035750000.0 -14040200000.0 -9035750000.0 -13967400000.0 -9035750000.0 -14040200000.0 -9035750000.0 -14917800000.0 -9035760000.0 -17918400000.0 -9035760000.0 -19550100000.0 -9035760000.0 -19596800000.0 -9035760000.0 -19729500000.0 -9035760000.0 -17496100000.0 -9035760000.0 -17165200000.0 -9035760000.0 -13971600000.0 -11958000000.0 -16016600000.0 -18307800000.0 -22400800000.0 -26170900000.0 -28586300000.0 -28336100000.0 -25536400000.0 -26826700000.0 -26249800000.0 -20210500000.0 -19415700000.0 -21278700000.0 -18811700000.0 -16183900000.0 -15971200000.0 -13420300000.0 -13910100000.0 -14887800000.0 -14150900000.0 -13291200000.0 -12824200000.0 -15011400000.0 -15158200000.0 -17511400000.0 -19722000000.0 -18088300000.0 -18775400000.0 -24007000000.0 -24448800000.0 -23293100000.0 -25669700000.0 -25652500000.0 -23519100000.0 -20341200000.0 -16838800000.0 -14958800000.0 -11491900000.0 -13332100000.0 -9035760000.0 -16037200000.0 -9035760000.0 -16322700000.0 -9035760000.0 -18199700000.0 -9035760000.0 -18052400000.0 -9035760000.0 -17940800000.0 -9035760000.0 -16434900000.0 -9035760000.0 -13841400000.0 -9035750000.0 -13109900000.0 -9035750000.0 -13042200000.0 -9035750000.0 -13109900000.0 -9035750000.0 -13841400000.0 -9035760000.0 -16434900000.0 -9035760000.0 -17940800000.0 -9035760000.0 -18052400000.0 -9035760000.0 -18199700000.0 -9035760000.0 -16322700000.0 -9035760000.0 -16037200000.0 -9035760000.0 -13332100000.0 -11491900000.0 -14958800000.0 -16838800000.0 -20341200000.0 -23519100000.0 -25652500000.0 -25669700000.0 -23293100000.0 -24448800000.0 -24007000000.0 -18775400000.0 -18088300000.0 -19722000000.0 -17511400000.0 -15158200000.0 -15011400000.0 -12824200000.0 -13291200000.0 -14150900000.0 -13396400000.0 -12657300000.0 -12231100000.0 -14063900000.0 -14160400000.0 -16206600000.0 -18128700000.0 -16735300000.0 -17313800000.0 -21733400000.0 -22069900000.0 -21062700000.0 -23032600000.0 -22848600000.0 -21014600000.0 -18392700000.0 -15462400000.0 -13952100000.0 -11056000000.0 -12681900000.0 -9035760000.0 -14924100000.0 -9035760000.0 -15164500000.0 -9035760000.0 -16709800000.0 -9035760000.0 -16561000000.0 -9035760000.0 -16414700000.0 -9035750000.0 -15076200000.0 -9035760000.0 -12892200000.0 -9035750000.0 -12294700000.0 -9035750000.0 -12236500000.0 -9035750000.0 -12294700000.0 -9035750000.0 -12892200000.0 -9035760000.0 -15076200000.0 -9035750000.0 -16414700000.0 -9035760000.0 -16561000000.0 -9035760000.0 -16709800000.0 -9035760000.0 -15164500000.0 -9035760000.0 -14924100000.0 -9035760000.0 -12681900000.0 -11056000000.0 -13952100000.0 -15462400000.0 -18392700000.0 -21014600000.0 -22848600000.0 -23032600000.0 -21062700000.0 -22069900000.0 -21733400000.0 -17313800000.0 -16735300000.0 -18128700000.0 -16206600000.0 -14160400000.0 -14063900000.0 -12231100000.0 -12657300000.0 -13396400000.0 -12624400000.0 -12010800000.0 -11640900000.0 -13127300000.0 -13187100000.0 -14897700000.0 -16504300000.0 -15358700000.0 -15828900000.0 -19435300000.0 -19687900000.0 -18843000000.0 -20423500000.0 -20158100000.0 -18638900000.0 -16541400000.0 -14167900000.0 -12989700000.0 -10647100000.0 -12023400000.0 -9035760000.0 -13824700000.0 -9035760000.0 -14020200000.0 -9035760000.0 -15254500000.0 -9035760000.0 -15115900000.0 -9035760000.0 -14961000000.0 -9035750000.0 -13824100000.0 -9035760000.0 -12048100000.0 -9035750000.0 -11574200000.0 -9035750000.0 -11527200000.0 -9035750000.0 -11574200000.0 -9035750000.0 -12048100000.0 -9035760000.0 -13824100000.0 -9035750000.0 -14961000000.0 -9035760000.0 -15115900000.0 -9035760000.0 -15254500000.0 -9035760000.0 -14020200000.0 -9035760000.0 -13824700000.0 -9035760000.0 -12023400000.0 -10647100000.0 -12989700000.0 -14167900000.0 -16541400000.0 -18638900000.0 -20158100000.0 -20423500000.0 -18843000000.0 -19687900000.0 -19435300000.0 -15828900000.0 -15358700000.0 -16504300000.0 -14897700000.0 -13187100000.0 -13127300000.0 -11640900000.0 -12010800000.0 -12624400000.0 -11836600000.0 -11353700000.0 -11053200000.0 -12199600000.0 -12234200000.0 -13585300000.0 -14854200000.0 -13961600000.0 -14324400000.0 -17118500000.0 -17301900000.0 -16632200000.0 -17839300000.0 -17562500000.0 -16370800000.0 -14771500000.0 -12942700000.0 -12064000000.0 -10261000000.0 -11358500000.0 -9035760000.0 -12737000000.0 -9035760000.0 -12888000000.0 -9035760000.0 -13828200000.0 -9035750000.0 -13709800000.0 -9035750000.0 -13567700000.0 -9035750000.0 -12659500000.0 -9035750000.0 -11288000000.0 -9035750000.0 -10929300000.0 -9035750000.0 -10893700000.0 -9035750000.0 -10929300000.0 -9035750000.0 -11288000000.0 -9035750000.0 -12659500000.0 -9035750000.0 -13567700000.0 -9035750000.0 -13709800000.0 -9035750000.0 -13828200000.0 -9035760000.0 -12888000000.0 -9035760000.0 -12737000000.0 -9035760000.0 -11358500000.0 -10261000000.0 -12064000000.0 -12942700000.0 -14771500000.0 -16370800000.0 -17562500000.0 -17839300000.0 -16632200000.0 -17301900000.0 -17118500000.0 -14324400000.0 -13961600000.0 -14854200000.0 -13585300000.0 -12234200000.0 -12199600000.0 -11053200000.0 -11353700000.0 -11836600000.0 -11035500000.0 -10688400000.0 -10467700000.0 -11278800000.0 -11297100000.0 -12270200000.0 -13183900000.0 -12547800000.0 -12804300000.0 -14787700000.0 -14912000000.0 -14428200000.0 -15275600000.0 -15041400000.0 -14187400000.0 -13065700000.0 -11772600000.0 -11167100000.0 -9893230000.0 -10689100000.0 -9035760000.0 -11658700000.0 -9035760000.0 -11765600000.0 -9035750000.0 -12424600000.0 -9035750000.0 -12334700000.0 -9035750000.0 -12222000000.0 -9035750000.0 -11562900000.0 -9035750000.0 -10592000000.0 -9035750000.0 -10341800000.0 -9035750000.0 -10317200000.0 -9035750000.0 -10341800000.0 -9035750000.0 -10592000000.0 -9035750000.0 -11562900000.0 -9035750000.0 -12222000000.0 -9035750000.0 -12334700000.0 -9035750000.0 -12424600000.0 -9035750000.0 -11765600000.0 -9035760000.0 -11658700000.0 -9035760000.0 -10689100000.0 -9893230000.0 -11167100000.0 -11772600000.0 -13065700000.0 -14187400000.0 -15041400000.0 -15275600000.0 -14428200000.0 -14912000000.0 -14787700000.0 -12804300000.0 -12547800000.0 -13183900000.0 -12270200000.0 -11297100000.0 -11278800000.0 -10467700000.0 -10688400000.0 -11035500000.0 -10224400000.0 -10017100000.0 -9883560000.0 -10362900000.0 -10371200000.0 -10952900000.0 -11499000000.0 -11121400000.0 -11272900000.0 -12447300000.0 -12518800000.0 -12228900000.0 -12727000000.0 -12573800000.0 -12065000000.0 -11405900000.0 -10642100000.0 -10290700000.0 -9538700000.0 -10016500000.0 -9035760000.0 -10587100000.0 -9035750000.0 -10650400000.0 -9035750000.0 -11037300000.0 -9035750000.0 -10981800000.0 -9035750000.0 -10910500000.0 -9035750000.0 -10514700000.0 -9035750000.0 -9940940000.0 -9035750000.0 -9794490000.0 -9035750000.0 -9780240000.0 -9035750000.0 -9794490000.0 -9035750000.0 -9940940000.0 -9035750000.0 -10514700000.0 -9035750000.0 -10910500000.0 -9035750000.0 -10981800000.0 -9035750000.0 -11037300000.0 -9035750000.0 -10650400000.0 -9035750000.0 -10587100000.0 -9035760000.0 -10016500000.0 -9538700000.0 -10290700000.0 -10642100000.0 -11405900000.0 -12065000000.0 -12573800000.0 -12727000000.0 -12228900000.0 -12518800000.0 -12447300000.0 -11272900000.0 -11121400000.0 -11499000000.0 -10952900000.0 -10371200000.0 -10362900000.0 -9883560000.0 -10017100000.0 -10224400000.0 -9407240000.0 -9342350000.0 -9300310000.0 -9449790000.0 -9452100000.0 -9634270000.0 -9805310000.0 -9687360000.0 -9734590000.0 -10101100000.0 -10123200000.0 -10032300000.0 -10187300000.0 -10137700000.0 -9978530000.0 -9773480000.0 -9535330000.0 -9426540000.0 -9192130000.0 -9342010000.0 -9035750000.0 -9519690000.0 -9035750000.0 -9539410000.0 -9035750000.0 -9659790000.0 -9035750000.0 -9642170000.0 -9035750000.0 -9619380000.0 -9035750000.0 -9495170000.0 -9035750000.0 -9316250000.0 -9035750000.0 -9270750000.0 -9035750000.0 -9266340000.0 -9035750000.0 -9270750000.0 -9035750000.0 -9316250000.0 -9035750000.0 -9495170000.0 -9035750000.0 -9619380000.0 -9035750000.0 -9642170000.0 -9035750000.0 -9659790000.0 -9035750000.0 -9539410000.0 -9035750000.0 -9519690000.0 -9035750000.0 -9342010000.0 -9192130000.0 -9426540000.0 -9535330000.0 -9773480000.0 -9978530000.0 -10137700000.0 -10187300000.0 -10032300000.0 -10123200000.0 -10101100000.0 -9734590000.0 -9687360000.0 -9805310000.0 -9634270000.0 -9452100000.0 -9449790000.0 -9300310000.0 -9342350000.0 -9407240000.0 
SCALARS Shear_Stress float 1
LOOKUP_TABLE default
71426800000.0 71426800000.0 9036870000.0 49719400000.0 1516090000.0 1516080000.0 49719400000.0 9036870000.0 9036630000.0 94704600000.0 4613080000.0 36881800000.0 733048000.0 60052500000.0 32523200000.0 11199600000.0 53721300000.0 53721300000.0 11199600000.0 32523200000.0 60052400000.0 733049000.0 36881800000.0 4613070000.0 94704600000.0 9036630000.0 21752400000.0 124118000.0 29334800000.0 13487200000.0 117583000000.0 95529300000.0 72560200000.0 85397400000.0 29195300000.0 85397400000.0 72560200000.0 95529300000.0 117583000000.0 13487200000.0 29334800000.0 124108000.0 21752400000.0 56637100000.0 760477000000.0 552585000000.0 14723200000.0 294493000000.0 238422000000.0 200669000000.0 157269000000.0 165962000000.0 134271000000.0 47554800000.0 36808100000.0 11079700000.0 36808100000.0 47554800000.0 134271000000.0 165962000000.0 157269000000.0 200669000000.0 238422000000.0 294493000000.0 14723200000.0 552585000000.0 760477000000.0 56637200000.0 117108000000.0 205098000000.0 77660300000.0 710709000000.0 639545000000.0 340627000000.0 254001000000.0 184660000000.0 238844000000.0 64793000000.0 21037000000.0 21037000000.0 64793000000.0 238844000000.0 184660000000.0 254000000000.0 340627000000.0 639545000000.0 710709000000.0 77660300000.0 205098000000.0 117108000000.0 169893000000.0 152448000000.0 285048000000.0 131456000000.0 821530000000.0 754438000000.0 270042000000.0 324151000000.0 258091000000.0 98595500000.0 14418700000.0 44373300000.0 14418700000.0 98595500000.0 258091000000.0 324151000000.0 270042000000.0 754438000000.0 821530000000.0 131456000000.0 285048000000.0 152448000000.0 169893000000.0 166288000000.0 340990000000.0 84637300000.0 775209000000.0 807714000000.0 699162000000.0 681274000000.0 500227000000.0 167199000000.0 123771000000.0 51394000000.0 35749400000.0 33898400000.0 85151300000.0 39393100000.0 85151300000.0 33898400000.0 35749400000.0 51393900000.0 123771000000.0 167199000000.0 500227000000.0 681274000000.0 699162000000.0 807714000000.0 775209000000.0 84637300000.0 340990000000.0 166288000000.0 142822000000.0 356373000000.0 268061000000.0 212357000000.0 8595770000.0 345570000000.0 667082000000.0 769863000000.0 705999000000.0 752089000000.0 558378000000.0 665658000000.0 18504500000.0 91124700000.0 14554600000.0 167704000000.0 167704000000.0 14554600000.0 91124800000.0 18504500000.0 665657000000.0 558378000000.0 752089000000.0 705999000000.0 769863000000.0 667082000000.0 345570000000.0 8595750000.0 212357000000.0 268061000000.0 356373000000.0 142822000000.0 105450000000.0 292717000000.0 336798000000.0 251198000000.0 185455000000.0 230631000000.0 649068000000.0 439192000000.0 23969000000.0 178118000000.0 10507100000.0 55440700000.0 25209400000.0 55440700000.0 10507100000.0 178117000000.0 23969100000.0 439192000000.0 649068000000.0 230631000000.0 185455000000.0 251198000000.0 336798000000.0 292717000000.0 105450000000.0 40911300000.0 69451300000.0 257249000000.0 182149000000.0 194877000000.0 222695000000.0 142034000000.0 606766000000.0 250961000000.0 95116100000.0 38748900000.0 232342000000.0 200423000000.0 199401000000.0 171736000000.0 161933000000.0 32322500000.0 144877000000.0 144877000000.0 32322500000.0 161933000000.0 171736000000.0 199401000000.0 200423000000.0 232342000000.0 38749000000.0 95116200000.0 250961000000.0 606766000000.0 142034000000.0 222695000000.0 194877000000.0 182149000000.0 257249000000.0 69451300000.0 40911300000.0 22629200000.0 236295000000.0 130924000000.0 1946480000.0 80517700000.0 10669200000.0 424078000000.0 99814200000.0 328577000000.0 222884000000.0 109250000000.0 284130000000.0 400318000000.0 279851000000.0 97228000000.0 46721300000.0 129096000000.0 7363680000.0 129096000000.0 46721300000.0 97228000000.0 279851000000.0 400318000000.0 284130000000.0 109250000000.0 222884000000.0 328577000000.0 99814200000.0 424078000000.0 10669200000.0 80517700000.0 1946480000.0 130924000000.0 236295000000.0 22629200000.0 15942600000.0 228534000000.0 111579000000.0 110794000000.0 31754700000.0 127063000000.0 857200000.0 788767000000.0 43985200000.0 181998000000.0 420426000000.0 407999000000.0 321875000000.0 86120800000.0 149445000000.0 86120800000.0 321875000000.0 407999000000.0 420426000000.0 181998000000.0 43985200000.0 788767000000.0 857174000.0 127063000000.0 31754700000.0 110794000000.0 111579000000.0 228534000000.0 15942600000.0 20664100000.0 251176000000.0 233838000000.0 128038000000.0 25446300000.0 175316000000.0 300594000000.0 227545000000.0 295690000000.0 81047000000.0 116912000000.0 89784400000.0 330301000000.0 183222000000.0 330916000000.0 386737000000.0 502693000000.0 500135000000.0 514034000000.0 428233000000.0 393791000000.0 387475000000.0 367080000000.0 100100000000.0 100100000000.0 367080000000.0 387475000000.0 393791000000.0 428233000000.0 514035000000.0 500135000000.0 502693000000.0 386737000000.0 330916000000.0 183222000000.0 330301000000.0 89784300000.0 116912000000.0 81047000000.0 295690000000.0 227545000000.0 300594000000.0 175316000000.0 25446300000.0 128038000000.0 233838000000.0 251176000000.0 20664100000.0 57189600000.0 35328800000.0 279405000000.0 157513000000.0 2166980000.0 137450000000.0 172497000000.0 308660000000.0 382621000000.0 296216000000.0 1.09985e+12 896931000000.0 465791000000.0 482170000000.0 561087000000.0 485351000000.0 369952000000.0 295089000000.0 145316000000.0 295089000000.0 369952000000.0 485351000000.0 561087000000.0 482170000000.0 465791000000.0 896931000000.0 1.09985e+12 296216000000.0 382621000000.0 308660000000.0 172497000000.0 137450000000.0 2166980000.0 157513000000.0 279405000000.0 35328800000.0 57189600000.0 80905900000.0 316214000000.0 196920000000.0 96757400000.0 45020300000.0 82311000000.0 278277000000.0 410749000000.0 383644000000.0 106022000000.0 204344000000.0 673825000000.0 886017000000.0 490835000000.0 580694000000.0 589173000000.0 388957000000.0 294661000000.0 132495000000.0 132495000000.0 294661000000.0 388957000000.0 589173000000.0 580694000000.0 490835000000.0 886017000000.0 673825000000.0 204344000000.0 106022000000.0 383644000000.0 410749000000.0 278277000000.0 82311000000.0 45020300000.0 96757400000.0 196920000000.0 316214000000.0 80906000000.0 104538000000.0 392271000000.0 357339000000.0 302381000000.0 245550000000.0 154587000000.0 17578800000.0 216733000000.0 340755000000.0 392831000000.0 462270000000.0 432769000000.0 349153000000.0 93506700000.0 678913000000.0 788656000000.0 570609000000.0 587183000000.0 678464000000.0 642374000000.0 499216000000.0 447121000000.0 347293000000.0 311666000000.0 139610000000.0 90966900000.0 54932400000.0 90966800000.0 139610000000.0 311666000000.0 347293000000.0 447121000000.0 499216000000.0 642374000000.0 678464000000.0 587183000000.0 570609000000.0 788656000000.0 678913000000.0 93506700000.0 349153000000.0 432769000000.0 462270000000.0 392831000000.0 340755000000.0 216733000000.0 17578800000.0 154587000000.0 245550000000.0 302381000000.0 357339000000.0 392271000000.0 104538000000.0 119476000000.0 422774000000.0 359963000000.0 220841000000.0 50113000000.0 61349300000.0 139165000000.0 259915000000.0 419492000000.0 424949000000.0 273771000000.0 456993000000.0 450950000000.0 876718000000.0 894833000000.0 723288000000.0 497845000000.0 399267000000.0 198074000000.0 350983000000.0 325921000000.0 338722000000.0 325921000000.0 350983000000.0 198074000000.0 399267000000.0 497845000000.0 723288000000.0 894833000000.0 876718000000.0 450950000000.0 456993000000.0 273771000000.0 424949000000.0 419492000000.0 259915000000.0 139165000000.0 61349300000.0 50113000000.0 220841000000.0 359963000000.0 422774000000.0 119476000000.0 108846000000.0 122803000000.0 432060000000.0 398391000000.0 367914000000.0 294949000000.0 196032000000.0 118250000000.0 10593100000.0 172924000000.0 357497000000.0 453497000000.0 507970000000.0 580693000000.0 340930000000.0 470148000000.0 674574000000.0 705671000000.0 442794000000.0 459877000000.0 257852000000.0 362725000000.0 380818000000.0 380818000000.0 362725000000.0 257852000000.0 459877000000.0 442794000000.0 705671000000.0 674574000000.0 470148000000.0 340930000000.0 580693000000.0 507971000000.0 453497000000.0 357497000000.0 172924000000.0 10593100000.0 118250000000.0 196032000000.0 294949000000.0 367914000000.0 398391000000.0 432060000000.0 122803000000.0 108846000000.0 78299400000.0 422310000000.0 430385000000.0 434581000000.0 393328000000.0 284626000000.0 77028300000.0 93722200000.0 280851000000.0 373148000000.0 372429000000.0 358114000000.0 347877000000.0 662460000000.0 855663000000.0 248950000000.0 10058400000.0 70384900000.0 497413000000.0 316812000000.0 357444000000.0 373147000000.0 359837000000.0 373147000000.0 357444000000.0 316812000000.0 497413000000.0 70385000000.0 10058300000.0 248950000000.0 855663000000.0 662460000000.0 347877000000.0 358114000000.0 372429000000.0 373148000000.0 280851000000.0 93722200000.0 77028300000.0 284626000000.0 393328000000.0 434581000000.0 430385000000.0 422310000000.0 78299400000.0 37482100000.0 322343000000.0 383263000000.0 403289000000.0 439435000000.0 376043000000.0 256627000000.0 154812000000.0 4883510000.0 25635100000.0 104229000000.0 195640000000.0 310984000000.0 312367000000.0 194089000000.0 772480000000.0 903015000000.0 71526900000.0 717737000000.0 299964000000.0 104322000000.0 432723000000.0 366059000000.0 362166000000.0 327715000000.0 343836000000.0 340592000000.0 358536000000.0 339947000000.0 358368000000.0 338608000000.0 358368000000.0 339946000000.0 358536000000.0 340591000000.0 343836000000.0 327715000000.0 362166000000.0 366059000000.0 432723000000.0 104322000000.0 299964000000.0 717737000000.0 71527000000.0 903014000000.0 772480000000.0 194088000000.0 312368000000.0 310984000000.0 195640000000.0 104229000000.0 25635100000.0 4883460000.0 154812000000.0 256627000000.0 376043000000.0 439435000000.0 403289000000.0 383263000000.0 322343000000.0 37482100000.0 6551220000.0 5172310000.0 254343000000.0 337972000000.0 407572000000.0 437368000000.0 352649000000.0 392494000000.0 73502500000.0 82856800000.0 133819000000.0 553526000000.0 332328000000.0 581874000000.0 96033700000.0 26091900000.0 863027000000.0 659056000000.0 247684000000.0 442087000000.0 316774000000.0 324142000000.0 319930000000.0 319930000000.0 324142000000.0 316774000000.0 442087000000.0 247684000000.0 659056000000.0 863027000000.0 26091900000.0 96033500000.0 581873000000.0 332328000000.0 553526000000.0 133820000000.0 82856900000.0 73502400000.0 392494000000.0 352649000000.0 437368000000.0 407572000000.0 337972000000.0 254343000000.0 5172300000.0 6551230000.0 11097800000.0 215418000000.0 250214000000.0 271262000000.0 360594000000.0 350692000000.0 217133000000.0 192522000000.0 131939000000.0 168845000000.0 137878000000.0 96421400000.0 126223000000.0 258195000000.0 681589000000.0 745498000000.0 133459000000.0 340101000000.0 220080000000.0 185637000000.0 45683200000.0 494081000000.0 311602000000.0 219721000000.0 310968000000.0 299201000000.0 294404000000.0 299200000000.0 310967000000.0 219721000000.0 311602000000.0 494081000000.0 45682800000.0 185637000000.0 220080000000.0 340101000000.0 133459000000.0 745498000000.0 681589000000.0 258195000000.0 126223000000.0 96421600000.0 137879000000.0 168846000000.0 131939000000.0 192522000000.0 217133000000.0 350692000000.0 360594000000.0 271262000000.0 250214000000.0 215418000000.0 11097800000.0 52964900000.0 224316000000.0 146175000000.0 158677000000.0 163672000000.0 301652000000.0 238073000000.0 445409000000.0 199935000000.0 460136000000.0 73045600000.0 71818900000.0 381513000000.0 206793000000.0 46333900000.0 368655000000.0 204380000000.0 1.01149e+12 478864000000.0 370885000000.0 830319000000.0 276302000000.0 262496000000.0 292108000000.0 490658000000.0 195430000000.0 327480000000.0 269506000000.0 290959000000.0 245712000000.0 268508000000.0 235619000000.0 268508000000.0 245711000000.0 290959000000.0 269505000000.0 327480000000.0 195430000000.0 490658000000.0 292108000000.0 262496000000.0 276302000000.0 830319000000.0 370886000000.0 478864000000.0 1.01149e+12 204380000000.0 368655000000.0 46334000000.0 206793000000.0 381513000000.0 71819000000.0 73045500000.0 460137000000.0 199934000000.0 445409000000.0 238073000000.0 301652000000.0 163672000000.0 158677000000.0 146175000000.0 224316000000.0 52964900000.0 105185000000.0 364713000000.0 281853000000.0 206575000000.0 69676600000.0 173837000000.0 151741000000.0 587555000000.0 752055000000.0 340497000000.0 164481000000.0 162076000000.0 427654000000.0 304506000000.0 1779660000.0 134850000000.0 263093000000.0 519893000000.0 115135000000.0 423469000000.0 54137300000.0 352820000000.0 392438000000.0 232263000000.0 206812000000.0 206812000000.0 232263000000.0 392439000000.0 352820000000.0 54137400000.0 423469000000.0 115135000000.0 519893000000.0 263093000000.0 134850000000.0 1779530000.0 304506000000.0 427654000000.0 162076000000.0 164481000000.0 340498000000.0 752055000000.0 587555000000.0 151742000000.0 173838000000.0 69676300000.0 206575000000.0 281853000000.0 364713000000.0 105185000000.0 165073000000.0 145469000000.0 426843000000.0 344882000000.0 70735900000.0 103222000000.0 184991000000.0 306868000000.0 497191000000.0 53562600000.0 938801000000.0 582290000000.0 596848000000.0 66153000000.0 514584000000.0 343034000000.0 432379000000.0 717504000000.0 26735600000.0 143742000000.0 860034000000.0 160180000000.0 319456000000.0 237221000000.0 209360000000.0 57099400000.0 36641500000.0 528275000000.0 186674000000.0 99555800000.0 179988000000.0 161434000000.0 179988000000.0 99555100000.0 186674000000.0 528275000000.0 36641800000.0 57099600000.0 209361000000.0 237221000000.0 319456000000.0 160180000000.0 860034000000.0 143742000000.0 26735100000.0 717504000000.0 432379000000.0 343034000000.0 514584000000.0 66152800000.0 596848000000.0 582289000000.0 938801000000.0 53563500000.0 497191000000.0 306869000000.0 184991000000.0 103223000000.0 70735800000.0 344882000000.0 426843000000.0 145469000000.0 165073000000.0 145122000000.0 445969000000.0 471138000000.0 503083000000.0 262380000000.0 90550800000.0 88594200000.0 688564000000.0 506149000000.0 22222900000.0 440496000000.0 441152000000.0 698279000000.0 343495000000.0 675708000000.0 35205400000.0 331076000000.0 66236900000.0 146628000000.0 62692900000.0 303852000000.0 302708000000.0 120023000000.0 268864000000.0 238034000000.0 38877200000.0 315240000000.0 74112600000.0 222333000000.0 54301700000.0 123619000000.0 75989500000.0 123618000000.0 54300100000.0 222334000000.0 74112800000.0 315241000000.0 38875900000.0 238034000000.0 268863000000.0 120023000000.0 302707000000.0 303852000000.0 62693000000.0 146627000000.0 66236800000.0 331076000000.0 35205400000.0 675708000000.0 343495000000.0 698279000000.0 441152000000.0 440496000000.0 22224100000.0 506148000000.0 688567000000.0 88593500000.0 90550900000.0 262380000000.0 503083000000.0 471138000000.0 445969000000.0 145122000000.0 78020000000.0 414735000000.0 460455000000.0 500650000000.0 584323000000.0 485529000000.0 205598000000.0 482385000000.0 248626000000.0 372729000000.0 747196000000.0 163684000000.0 681656000000.0 690431000000.0 123852000000.0 4130500000.0 30161600000.0 35238900000.0 282404000000.0 211887000000.0 276604000000.0 32282200000.0 152014000000.0 246907000000.0 240025000000.0 41647300000.0 41647300000.0 240024000000.0 246908000000.0 152014000000.0 32282200000.0 276604000000.0 211887000000.0 282404000000.0 35239000000.0 30161500000.0 4130620000.0 123852000000.0 690431000000.0 681657000000.0 163685000000.0 747196000000.0 372726000000.0 248624000000.0 482385000000.0 205599000000.0 485529000000.0 584323000000.0 500650000000.0 460455000000.0 414735000000.0 78020100000.0 38795400000.0 196904000000.0 313074000000.0 335849000000.0 536709000000.0 664635000000.0 622015000000.0 429713000000.0 90583000000.0 383412000000.0 89360900000.0 667308000000.0 855000000000.0 738155000000.0 1.04232e+12 240263000000.0 210368000000.0 280246000000.0 265787000000.0 114571000000.0 85417200000.0 461785000000.0 411070000000.0 665460000000.0 564740000000.0 338457000000.0 303108000000.0 89361200000.0 80707600000.0 240554000000.0 105400000000.0 29676700000.0 105402000000.0 240553000000.0 80705900000.0 89361400000.0 303108000000.0 338457000000.0 564740000000.0 665460000000.0 411070000000.0 461785000000.0 85417300000.0 114571000000.0 265787000000.0 280246000000.0 210368000000.0 240263000000.0 1.04232e+12 738155000000.0 855000000000.0 667307000000.0 89360300000.0 383410000000.0 90586200000.0 429715000000.0 622015000000.0 664635000000.0 536709000000.0 335849000000.0 313074000000.0 196904000000.0 38795500000.0 16053500000.0 38997300000.0 172725000000.0 376259000000.0 460978000000.0 669394000000.0 807262000000.0 432973000000.0 1.17976e+12 223209000000.0 551257000000.0 82640200000.0 30264600000.0 327299000000.0 132473000000.0 323920000000.0 230308000000.0 102176000000.0 240233000000.0 176136000000.0 135881000000.0 294435000000.0 420535000000.0 384868000000.0 261512000000.0 7601700000.0 133140000000.0 352042000000.0 156779000000.0 273080000000.0 35270100000.0 268479000000.0 35273600000.0 273078000000.0 156782000000.0 352040000000.0 133142000000.0 7602210000.0 261512000000.0 384868000000.0 420535000000.0 294435000000.0 135881000000.0 176136000000.0 240233000000.0 102176000000.0 230308000000.0 323920000000.0 132473000000.0 327299000000.0 30264600000.0 82640300000.0 551257000000.0 223210000000.0 1.17976e+12 432974000000.0 807262000000.0 669394000000.0 460978000000.0 376259000000.0 172725000000.0 38997300000.0 16053500000.0 50423000000.0 233340000000.0 197699000000.0 180991000000.0 227345000000.0 599216000000.0 703462000000.0 63680300000.0 899990000000.0 215758000000.0 534724000000.0 507771000000.0 73840100000.0 272600000000.0 642551000000.0 533150000000.0 231433000000.0 49205700000.0 27475000000.0 41783000000.0 246493000000.0 205972000000.0 287224000000.0 465476000000.0 229462000000.0 489156000000.0 221755000000.0 10845800000.0 198014000000.0 40284000000.0 151077000000.0 151075000000.0 40283700000.0 198013000000.0 10845600000.0 221755000000.0 489156000000.0 229462000000.0 465476000000.0 287224000000.0 205972000000.0 246493000000.0 41783000000.0 27475000000.0 49205900000.0 231433000000.0 533150000000.0 642551000000.0 272600000000.0 73840100000.0 507771000000.0 534725000000.0 215757000000.0 899990000000.0 63680700000.0 703461000000.0 599216000000.0 227345000000.0 180991000000.0 197699000000.0 233340000000.0 50423000000.0 44910800000.0 22366300000.0 217302000000.0 7680180000.0 88543200000.0 232058000000.0 247239000000.0 326012000000.0 548078000000.0 619715000000.0 321873000000.0 650497000000.0 758800000000.0 411360000000.0 53037600000.0 382617000000.0 256332000000.0 247647000000.0 496558000000.0 210297000000.0 150628000000.0 69852900000.0 81013000000.0 101082000000.0 154866000000.0 458560000000.0 117276000000.0 257953000000.0 68033700000.0 275703000000.0 188188000000.0 226297000000.0 122694000000.0 151323000000.0 177108000000.0 359765000000.0 437548000000.0 359764000000.0 177108000000.0 151323000000.0 122694000000.0 226297000000.0 188188000000.0 275703000000.0 68033600000.0 257953000000.0 117276000000.0 458560000000.0 154866000000.0 101082000000.0 81013000000.0 69852900000.0 150628000000.0 210297000000.0 496558000000.0 247647000000.0 256332000000.0 382618000000.0 53037800000.0 411360000000.0 758801000000.0 650497000000.0 321873000000.0 619715000000.0 548078000000.0 326012000000.0 247239000000.0 232058000000.0 88543200000.0 7680220000.0 217302000000.0 22366300000.0 44910800000.0 44565500000.0 345441000000.0 34010100000.0 39643900000.0 201366000000.0 157096000000.0 883068000000.0 154090000000.0 62115400000.0 305485000000.0 456055000000.0 11109300000.0 265962000000.0 73819500000.0 129504000000.0 188367000000.0 262193000000.0 28665300000.0 256921000000.0 1724800000.0 51148800000.0 281203000000.0 63211400000.0 41467400000.0 220574000000.0 51993300000.0 299482000000.0 209500000000.0 551582000000.0 209504000000.0 299483000000.0 51992600000.0 220574000000.0 41467100000.0 63211400000.0 281203000000.0 51148800000.0 1724800000.0 256921000000.0 28665200000.0 262193000000.0 188367000000.0 129504000000.0 73819500000.0 265962000000.0 11109300000.0 456055000000.0 305485000000.0 62115500000.0 154090000000.0 883068000000.0 157096000000.0 201366000000.0 39643900000.0 34010100000.0 345441000000.0 44565500000.0 1731030000.0 227895000000.0 191384000000.0 86836400000.0 39386400000.0 199836000000.0 305672000000.0 631632000000.0 797415000000.0 532483000000.0 117877000000.0 246230000000.0 215379000000.0 252196000000.0 95672900000.0 178122000000.0 513494000000.0 359435000000.0 72797500000.0 82255400000.0 62769000000.0 1883840000.0 175368000000.0 78182600000.0 352585000000.0 128479000000.0 237629000000.0 38942500000.0 86325800000.0 154020000000.0 154018000000.0 86325700000.0 38942500000.0 237629000000.0 128479000000.0 352585000000.0 78182600000.0 175368000000.0 1883880000.0 62769000000.0 82255400000.0 72797500000.0 359435000000.0 513494000000.0 178122000000.0 95672800000.0 252196000000.0 215378000000.0 246229000000.0 117877000000.0 532483000000.0 797415000000.0 631632000000.0 305672000000.0 199836000000.0 39386400000.0 86836400000.0 191384000000.0 227895000000.0 1731030000.0 3901510000.0 52260900000.0 153516000000.0 160887000000.0 224515000000.0 218553000000.0 318822000000.0 841520000000.0 201462000000.0 308074000000.0 219349000000.0 11647100000.0 122772000000.0 495742000000.0 514094000000.0 389691000000.0 242402000000.0 196904000000.0 150533000000.0 85932100000.0 138290000000.0 221461000000.0 549347000000.0 260167000000.0 353473000000.0 129948000000.0 437079000000.0 211000000000.0 26447700000.0 160982000000.0 101522000000.0 143241000000.0 310847000000.0 464766000000.0 310849000000.0 143241000000.0 101522000000.0 160982000000.0 26447800000.0 211000000000.0 437079000000.0 129948000000.0 353473000000.0 260167000000.0 549347000000.0 221461000000.0 138290000000.0 85932100000.0 150533000000.0 196904000000.0 242402000000.0 389691000000.0 514094000000.0 495742000000.0 122772000000.0 11647200000.0 219349000000.0 308074000000.0 201462000000.0 841520000000.0 318822000000.0 218553000000.0 224515000000.0 160887000000.0 153516000000.0 52261000000.0 3901510000.0 9039750000.0 56176600000.0 25695500000.0 71001800000.0 39640000000.0 261668000000.0 246269000000.0 813378000000.0 74864500000.0 896694000000.0 756323000000.0 103640000000.0 192864000000.0 80509300000.0 106142000000.0 69216000000.0 194995000000.0 238845000000.0 228764000000.0 180872000000.0 32163900000.0 3873200000.0 136343000000.0 14814300000.0 12435600000.0 107647000000.0 21301000000.0 58263400000.0 100687000000.0 26146700000.0 221348000000.0 152894000000.0 472172000000.0 152893000000.0 221351000000.0 26146800000.0 100687000000.0 58263600000.0 21301200000.0 107647000000.0 12435600000.0 14814300000.0 136343000000.0 3873190000.0 32163900000.0 180872000000.0 228764000000.0 238845000000.0 194995000000.0 69216000000.0 106142000000.0 80509400000.0 192863000000.0 103640000000.0 756323000000.0 896694000000.0 74864600000.0 813378000000.0 246269000000.0 261668000000.0 39640100000.0 71001800000.0 25695500000.0 56176700000.0 9039750000.0 14030500000.0 66290200000.0 185473000000.0 105184000000.0 534221000000.0 332823000000.0 42445100000.0 735106000000.0 500928000000.0 61596800000.0 130775000000.0 93064900000.0 425727000000.0 474935000000.0 346397000000.0 105021000000.0 58728300000.0 15589100000.0 54097500000.0 212359000000.0 103302000000.0 20931000000.0 24771800000.0 1550820000.0 36142700000.0 36142800000.0 1550560000.0 24771700000.0 20931000000.0 103302000000.0 212359000000.0 54097500000.0 15589100000.0 58728300000.0 105021000000.0 346397000000.0 474935000000.0 425727000000.0 93065000000.0 130775000000.0 61596700000.0 500928000000.0 735106000000.0 42445100000.0 332823000000.0 534221000000.0 105184000000.0 185473000000.0 66290300000.0 14030500000.0 53573700000.0 37560100000.0 59046000000.0 93550200000.0 42963600000.0 571457000000.0 359025000000.0 304878000000.0 635516000000.0 304772000000.0 91718700000.0 390160000000.0 436297000000.0 375525000000.0 252416000000.0 173614000000.0 130158000000.0 389150000000.0 369095000000.0 421056000000.0 514826000000.0 364238000000.0 301099000000.0 200867000000.0 271250000000.0 118294000000.0 16187700000.0 11338900000.0 34088400000.0 4200340000.0 154299000000.0 350494000000.0 154301000000.0 4200240000.0 34088400000.0 11338900000.0 16187700000.0 118294000000.0 271250000000.0 200867000000.0 301099000000.0 364238000000.0 514826000000.0 421056000000.0 369095000000.0 389150000000.0 130158000000.0 173614000000.0 252416000000.0 375525000000.0 436297000000.0 390160000000.0 91718800000.0 304772000000.0 635516000000.0 304878000000.0 359025000000.0 571457000000.0 42963600000.0 93550300000.0 59046000000.0 37560000000.0 53573700000.0 68537600000.0 60797300000.0 157137000000.0 55884400000.0 220299000000.0 543385000000.0 358584000000.0 403341000000.0 130972000000.0 35168900000.0 367851000000.0 371722000000.0 342468000000.0 259681000000.0 148078000000.0 13543400000.0 101875000000.0 253249000000.0 373031000000.0 169621000000.0 188943000000.0 131621000000.0 24378200000.0 105502000000.0 25637900000.0 74310400000.0 51367400000.0 68384000000.0 42621200000.0 47753000000.0 214681000000.0 14673300000.0 487234000000.0 14673300000.0 214682000000.0 47752300000.0 42621100000.0 68384100000.0 51367200000.0 74310500000.0 25637800000.0 105502000000.0 24378100000.0 131621000000.0 188943000000.0 169621000000.0 373031000000.0 253249000000.0 101875000000.0 13543400000.0 148078000000.0 259681000000.0 342468000000.0 371722000000.0 367851000000.0 35169000000.0 130972000000.0 403341000000.0 358584000000.0 543385000000.0 220299000000.0 55884400000.0 157137000000.0 60797300000.0 68537600000.0 1207290000.0 128135000000.0 179071000000.0 76592600000.0 248847000000.0 444143000000.0 563282000000.0 22881400000.0 94274600000.0 252167000000.0 201051000000.0 144237000000.0 108398000000.0 117653000000.0 6730560000.0 64415600000.0 83343800000.0 114987000000.0 70656100000.0 16865800000.0 2646680000.0 19758200000.0 19758000000.0 2647320000.0 16865800000.0 70656100000.0 114987000000.0 83343800000.0 64415600000.0 6730570000.0 117653000000.0 108398000000.0 144237000000.0 201051000000.0 252167000000.0 94274400000.0 22881300000.0 563281000000.0 444143000000.0 248847000000.0 76592600000.0 179071000000.0 128135000000.0 1207290000.0 18796400000.0 116774000000.0 60609100000.0 56851000000.0 313171000000.0 368091000000.0 493059000000.0 328747000000.0 293886000000.0 286913000000.0 181050000000.0 150786000000.0 67038100000.0 55803900000.0 7083750000.0 17973500000.0 39005400000.0 60575600000.0 24257000000.0 102418000000.0 15495100000.0 178980000000.0 18393700000.0 154607000000.0 101687000000.0 190621000000.0 410513000000.0 190621000000.0 101687000000.0 154607000000.0 18393700000.0 178980000000.0 15495100000.0 102418000000.0 24257000000.0 60575600000.0 39005400000.0 17973500000.0 7083750000.0 55803900000.0 67038100000.0 150786000000.0 181050000000.0 286913000000.0 293886000000.0 328747000000.0 493059000000.0 368091000000.0 313171000000.0 56851000000.0 60609000000.0 116774000000.0 18796400000.0 175919000000.0 105078000000.0 279426000000.0 336165000000.0 270996000000.0 330290000000.0 193900000000.0 230445000000.0 22657800000.0 151947000000.0 209093000000.0 210319000000.0 179746000000.0 198797000000.0 165915000000.0 22483600000.0 29610500000.0 36924500000.0 13140600000.0 29195400000.0 20589300000.0 37086600000.0 30359200000.0 86626900000.0 2206300000.0 78981200000.0 5392860000.0 54923800000.0 9182160000.0 149893000000.0 20093800000.0 394850000000.0 20093800000.0 149893000000.0 9182180000.0 54923800000.0 5392870000.0 78981200000.0 2206300000.0 86626900000.0 30359200000.0 37086600000.0 20589300000.0 29195300000.0 13140600000.0 36924500000.0 29610500000.0 22483600000.0 165915000000.0 198797000000.0 179746000000.0 210319000000.0 209093000000.0 151947000000.0 22657800000.0 230445000000.0 193900000000.0 330290000000.0 270996000000.0 336165000000.0 279426000000.0 105078000000.0 175919000000.0 228917000.0 126962000000.0 35779800000.0 85174700000.0 17657900000.0 149697000000.0 249128000000.0 225320000000.0 245905000000.0 250854000000.0 67159000000.0 79475900000.0 119488000000.0 156531000000.0 176229000000.0 135460000000.0 149394000000.0 150879000000.0 141673000000.0 134779000000.0 105051000000.0 38595600000.0 61518400000.0 61518300000.0 38595600000.0 105051000000.0 134779000000.0 141673000000.0 150879000000.0 149394000000.0 135460000000.0 176229000000.0 156531000000.0 119488000000.0 79475900000.0 67159000000.0 250854000000.0 245905000000.0 225320000000.0 249128000000.0 149698000000.0 17657900000.0 85174800000.0 35779800000.0 126962000000.0 228915000.0 42768500000.0 69490500000.0 74357600000.0 53516500000.0 8851490000.0 183238000000.0 179010000000.0 170213000000.0 145254000000.0 113933000000.0 104276000000.0 107138000000.0 117311000000.0 73256100000.0 851762000.0 98889300000.0 202932000000.0 141105000000.0 109114000000.0 84450500000.0 50013700000.0 49308500000.0 14231900000.0 32857700000.0 26441600000.0 22656900000.0 34433200000.0 15167400000.0 38128800000.0 100759000000.0 290223000000.0 100759000000.0 38128800000.0 15167300000.0 34433200000.0 22656900000.0 26441600000.0 32857700000.0 14231900000.0 49308500000.0 50013700000.0 84450500000.0 109114000000.0 141105000000.0 202932000000.0 98889300000.0 851762000.0 73256100000.0 117311000000.0 107138000000.0 104276000000.0 113933000000.0 145254000000.0 170213000000.0 179010000000.0 183238000000.0 8851500000.0 53516500000.0 74357600000.0 69490500000.0 42768500000.0 29429200000.0 22541200000.0 16026400000.0 41753700000.0 220580000000.0 225135000000.0 124562000000.0 68208600000.0 134865000000.0 105435000000.0 50790400000.0 79697100000.0 5452360000.0 26997600000.0 6426290000.0 892623000.0 21425900000.0 9214620000.0 33457600000.0 5309460000.0 50327300000.0 6161200000.0 52449200000.0 5006980000.0 80130500000.0 4606050000.0 158803000000.0 15705700000.0 343455000000.0 15705700000.0 158803000000.0 4606050000.0 80130500000.0 5006970000.0 52449200000.0 6161200000.0 50327300000.0 5309460000.0 33457700000.0 9214620000.0 21425900000.0 892622000.0 6426280000.0 26997600000.0 5452360000.0 79697100000.0 50790400000.0 105435000000.0 134865000000.0 68208600000.0 124562000000.0 225135000000.0 220580000000.0 41753700000.0 16026400000.0 22541200000.0 29429200000.0 40546800000.0 80951100000.0 130531000000.0 156231000000.0 114137000000.0 203782000000.0 201112000000.0 146870000000.0 121552000000.0 127848000000.0 105829000000.0 97243000000.0 80504400000.0 85956300000.0 85956300000.0 80504400000.0 97242900000.0 105829000000.0 127848000000.0 121552000000.0 146870000000.0 201112000000.0 203782000000.0 114137000000.0 156231000000.0 130531000000.0 80951100000.0 40546800000.0 790672000.0 22898800000.0 54698700000.0 34288800000.0 60804700000.0 82076200000.0 138683000000.0 127894000000.0 78247500000.0 203439000000.0 175246000000.0 151571000000.0 110899000000.0 62396500000.0 25408000000.0 6950660000.0 45113500000.0 93658700000.0 120627000000.0 187657000000.0 193147000000.0 205747000000.0 177301000000.0 163799000000.0 150011000000.0 111046000000.0 122466000000.0 80663300000.0 100043000000.0 43676900000.0 86074900000.0 24944300000.0 77561000000.0 9443570000.0 75210400000.0 75142300000.0 76984000000.0 225944000000.0 76984000000.0 75142400000.0 75210400000.0 9443590000.0 77561000000.0 24944300000.0 86074900000.0 43676900000.0 100043000000.0 80663300000.0 122466000000.0 111046000000.0 150011000000.0 163799000000.0 177301000000.0 205747000000.0 193147000000.0 187657000000.0 120627000000.0 93658700000.0 45113500000.0 6950650000.0 25408000000.0 62396600000.0 110899000000.0 151571000000.0 175246000000.0 203439000000.0 78247500000.0 127894000000.0 138683000000.0 82076200000.0 60804700000.0 34288800000.0 54698700000.0 22898800000.0 790677000.0 12522100000.0 58600000000.0 101361000000.0 142453000000.0 87011300000.0 79499300000.0 30392400000.0 2351200000.0 17485300000.0 29361800000.0 174264000000.0 150600000000.0 97470600000.0 79457400000.0 64986800000.0 87780300000.0 35964300000.0 59684800000.0 31193200000.0 6985540000.0 37764900000.0 7361770000.0 38507000000.0 6582830000.0 52264000000.0 7393960000.0 54022800000.0 7092010000.0 67882500000.0 7030790000.0 78522800000.0 6935250000.0 106462000000.0 7081710000.0 160976000000.0 9083130000.0 290543000000.0 9083130000.0 160976000000.0 7081710000.0 106462000000.0 6935250000.0 78522800000.0 7030790000.0 67882500000.0 7092010000.0 54022800000.0 7393960000.0 52264000000.0 6582830000.0 38507000000.0 7361770000.0 37764900000.0 6985540000.0 31193200000.0 59684800000.0 35964300000.0 87780300000.0 64986800000.0 79457400000.0 97470600000.0 150600000000.0 174264000000.0 29361800000.0 17485200000.0 2351210000.0 30392400000.0 79499200000.0 87011300000.0 142453000000.0 101361000000.0 58600000000.0 12522100000.0 195015000000.0 195015000000.0 17157500000.0 8462610000.0 8988500000.0 10128100000.0 61602500000.0 78696600000.0 109288000000.0 97796900000.0 75340100000.0 68585700000.0 174943000000.0 110043000000.0 50737500000.0 21056400000.0 33037500000.0 35851900000.0 21031500000.0 73778200000.0 41558300000.0 61962500000.0 61090500000.0 15468700000.0 38602100000.0 1787300000.0 22866300000.0 29602100000.0 13069900000.0 39727700000.0 5518400000.0 59062400000.0 612808000.0 77351200000.0 6919440000.0 107856000000.0 8512550000.0 150028000000.0 8355630000.0 255555000000.0 8355630000.0 150028000000.0 8512550000.0 107856000000.0 6919440000.0 77351200000.0 612808000.0 59062400000.0 5518400000.0 39727700000.0 13069900000.0 29602100000.0 22866300000.0 1787300000.0 38602000000.0 15468700000.0 61090500000.0 61962500000.0 41558300000.0 73778200000.0 21031500000.0 35851900000.0 33037500000.0 21056400000.0 50737500000.0 110043000000.0 174943000000.0 68585700000.0 75340100000.0 97796900000.0 109288000000.0 78696600000.0 61602600000.0 10128100000.0 8988500000.0 8462610000.0 17157500000.0 24783800000.0 3172350000.0 2077530000.0 6124410000.0 24199600000.0 41053100000.0 67173600000.0 62096500000.0 42409000000.0 43085000000.0 147688000000.0 151780000000.0 140800000000.0 96774100000.0 89732500000.0 79825700000.0 82520200000.0 41559100000.0 52326700000.0 19450300000.0 8426380000.0 44191100000.0 8781900000.0 41349800000.0 8691700000.0 57182700000.0 8767820000.0 59286700000.0 9035750000.0 70720000000.0 9035750000.0 83000100000.0 9035750000.0 106099000000.0 9035750000.0 138361000000.0 9035750000.0 224154000000.0 9035750000.0 138361000000.0 9035750000.0 106099000000.0 9035750000.0 83000100000.0 9035750000.0 70720000000.0 9035750000.0 59286700000.0 8767820000.0 57182700000.0 8691700000.0 41349800000.0 8781900000.0 44191100000.0 8426380000.0 19450300000.0 52326700000.0 41559100000.0 82520200000.0 79825700000.0 89732500000.0 96774100000.0 140800000000.0 151780000000.0 147688000000.0 43085000000.0 42409000000.0 62096500000.0 67173600000.0 41053100000.0 24199600000.0 6124410000.0 2077530000.0 3172350000.0 24783800000.0 33615400000.0 11946700000.0 12626100000.0 15927700000.0 40571300000.0 63234400000.0 88001800000.0 89616400000.0 79118100000.0 85891000000.0 152842000000.0 142722000000.0 121927000000.0 82081200000.0 77208700000.0 65081000000.0 60540100000.0 35285100000.0 40711000000.0 11115000000.0 4797440000.0 40498300000.0 6873140000.0 39263500000.0 8585500000.0 57061500000.0 9035750000.0 59284100000.0 9035750000.0 69950600000.0 9035750000.0 81972800000.0 9035750000.0 102419000000.0 9035750000.0 126224000000.0 9035750000.0 196125000000.0 9035750000.0 126224000000.0 9035750000.0 102419000000.0 9035750000.0 81972800000.0 9035750000.0 69950600000.0 9035750000.0 59284100000.0 9035750000.0 57061500000.0 8585500000.0 39263500000.0 6873140000.0 40498300000.0 4797440000.0 11115000000.0 40711000000.0 35285100000.0 60540100000.0 65081000000.0 77208700000.0 82081200000.0 121927000000.0 142722000000.0 152842000000.0 85891000000.0 79118100000.0 89616400000.0 88001800000.0 63234500000.0 40571300000.0 15927700000.0 12626100000.0 11946700000.0 33615400000.0 37277200000.0 12879400000.0 13313000000.0 17261900000.0 33545500000.0 54345000000.0 74301500000.0 78697100000.0 74815200000.0 82327900000.0 131694000000.0 127702000000.0 114609000000.0 86216600000.0 82804400000.0 69265800000.0 59406900000.0 43931700000.0 42711000000.0 16313800000.0 9037080000.0 42358700000.0 9035750000.0 39731600000.0 9035750000.0 56477700000.0 9035750000.0 58546000000.0 9035750000.0 68864300000.0 9035750000.0 80137500000.0 9035750000.0 97736600000.0 9035750000.0 114669000000.0 9035750000.0 171214000000.0 9035750000.0 114669000000.0 9035750000.0 97736600000.0 9035750000.0 80137500000.0 9035750000.0 68864300000.0 9035750000.0 58546000000.0 9035750000.0 56477700000.0 9035750000.0 39731600000.0 9035750000.0 42358700000.0 9037080000.0 16313800000.0 42711000000.0 43931700000.0 59406900000.0 69265800000.0 82804400000.0 86216600000.0 114609000000.0 127702000000.0 131694000000.0 82327900000.0 74815200000.0 78697100000.0 74301500000.0 54345000000.0 33545500000.0 17261900000.0 13313000000.0 12879400000.0 37277200000.0 39181900000.0 14523800000.0 15494100000.0 20779000000.0 31842300000.0 50632300000.0 66978000000.0 72973200000.0 73880500000.0 82994900000.0 114788000000.0 112930000000.0 102628000000.0 82828600000.0 80248200000.0 65337600000.0 52243800000.0 43181300000.0 37763100000.0 16741000000.0 8945800000.0 40966500000.0 9035760000.0 39015200000.0 9035750000.0 55665800000.0 9035750000.0 57477400000.0 9035760000.0 67386200000.0 9035750000.0 77727200000.0 9035760000.0 92360900000.0 9035750000.0 103821000000.0 9035750000.0 149179000000.0 9035750000.0 103821000000.0 9035750000.0 92360900000.0 9035760000.0 77727200000.0 9035750000.0 67386200000.0 9035760000.0 57477400000.0 9035750000.0 55665800000.0 9035750000.0 39015200000.0 9035760000.0 40966500000.0 8945800000.0 16741000000.0 37763100000.0 43181300000.0 52243800000.0 65337600000.0 80248200000.0 82828600000.0 102628000000.0 112930000000.0 114788000000.0 82994900000.0 73880500000.0 72973200000.0 66978000000.0 50632400000.0 31842300000.0 20779000000.0 15494100000.0 14523800000.0 39181900000.0 39523900000.0 15554600000.0 16654400000.0 22723600000.0 30051000000.0 46074500000.0 48454400000.0 42708300000.0 34095100000.0 17892500000.0 9035750000.0 39631200000.0 9035760000.0 38357800000.0 9035760000.0 54573400000.0 9035760000.0 56162700000.0 9035760000.0 65528300000.0 9035750000.0 74883900000.0 9035760000.0 86548400000.0 9035750000.0 93741200000.0 9035750000.0 129784000000.0 9035750000.0 93741200000.0 9035750000.0 86548400000.0 9035760000.0 74883900000.0 9035750000.0 65528300000.0 9035760000.0 56162700000.0 9035760000.0 54573400000.0 9035760000.0 38357800000.0 9035760000.0 39631200000.0 9035750000.0 17892500000.0 34095100000.0 42708300000.0 48454400000.0 46074500000.0 30051000000.0 22723600000.0 16654400000.0 15554600000.0 39523900000.0 58966800000.0 65212500000.0 68995400000.0 79920400000.0 97718700000.0 99860900000.0 92750600000.0 81239400000.0 78900500000.0 63257000000.0 63257000000.0 78900500000.0 81239400000.0 92750600000.0 99860900000.0 97718700000.0 79920400000.0 68995400000.0 65212500000.0 58966800000.0 38752700000.0 16444700000.0 17624800000.0 24312800000.0 29300100000.0 42512000000.0 52369300000.0 58083200000.0 63558900000.0 75822200000.0 85911300000.0 89302700000.0 84606700000.0 80125000000.0 77641700000.0 61542300000.0 46110700000.0 41648700000.0 30760500000.0 18619400000.0 9035760000.0 38363700000.0 9035760000.0 37691300000.0 9035760000.0 53210900000.0 9035760000.0 54643000000.0 9035760000.0 63346200000.0 9035760000.0 71704500000.0 9035760000.0 80509900000.0 9035750000.0 84451700000.0 9035750000.0 112802000000.0 9035750000.0 84451700000.0 9035750000.0 80509900000.0 9035760000.0 71704500000.0 9035760000.0 63346200000.0 9035760000.0 54643000000.0 9035760000.0 53210900000.0 9035760000.0 37691300000.0 9035760000.0 38363700000.0 9035760000.0 18619400000.0 30760500000.0 41648700000.0 46110700000.0 61542300000.0 77641700000.0 80125000000.0 84606700000.0 89302700000.0 85911300000.0 75822200000.0 63558900000.0 58083200000.0 52369400000.0 42512000000.0 29300200000.0 24312800000.0 17624800000.0 16444700000.0 38752700000.0 9035760000.0 9035760000.0 9035760000.0 9035760000.0 9035760000.0 9035760000.0 9035760000.0 9035750000.0 9035750000.0 9035750000.0 9035750000.0 9035760000.0 9035760000.0 9035760000.0 9035760000.0 9035760000.0 9035760000.0 9035760000.0 37157500000.0 17186600000.0 18397700000.0 25536600000.0 29108600000.0 39780000000.0 47141900000.0 51799700000.0 58042000000.0 71057300000.0 78987700000.0 80708900000.0 78074500000.0 79353900000.0 76583600000.0 60278600000.0 44999200000.0 40434800000.0 28023700000.0 19123700000.0 37156300000.0 36972100000.0 51620800000.0 52943300000.0 60910800000.0 68271200000.0 74417200000.0 75945100000.0 98003600000.0 75945100000.0 74417200000.0 68271200000.0 60910800000.0 52943300000.0 51620800000.0 36972100000.0 37156300000.0 19123700000.0 28023700000.0 40434800000.0 44999200000.0 60278600000.0 76583600000.0 79353900000.0 78074500000.0 80708900000.0 78987700000.0 71057300000.0 58042000000.0 51799700000.0 47141900000.0 39780000000.0 29108600000.0 25536600000.0 18397700000.0 17186600000.0 37157500000.0 35066100000.0 17777600000.0 18972800000.0 26399900000.0 29166100000.0 37723200000.0 43180000000.0 46530700000.0 52822600000.0 66245300000.0 74508700000.0 73735600000.0 72889100000.0 78578900000.0 75448400000.0 59243600000.0 44487600000.0 39098800000.0 25795300000.0 19439500000.0 9035760000.0 35993100000.0 9035760000.0 36174000000.0 9035760000.0 49856100000.0 9035760000.0 51090500000.0 9035760000.0 58290600000.0 9035760000.0 64658800000.0 9035760000.0 68406700000.0 9035750000.0 68195600000.0 9035750000.0 85161000000.0 9035750000.0 68195600000.0 9035750000.0 68406700000.0 9035760000.0 64658800000.0 9035760000.0 58290600000.0 9035760000.0 51090500000.0 9035760000.0 49856100000.0 9035760000.0 36174000000.0 9035760000.0 35993100000.0 9035760000.0 19439500000.0 25795300000.0 39098800000.0 44487600000.0 59243600000.0 75448400000.0 78578900000.0 72889100000.0 73735600000.0 74508700000.0 66245300000.0 52822600000.0 46530700000.0 43180100000.0 37723200000.0 29166100000.0 26399900000.0 18972800000.0 17777600000.0 35066100000.0 32767600000.0 18220000000.0 19356400000.0 26920200000.0 29285200000.0 36172600000.0 40276400000.0 42290900000.0 48164600000.0 61774200000.0 70712300000.0 68039000000.0 68771500000.0 77534100000.0 74015100000.0 58232300000.0 44027500000.0 37667300000.0 23981700000.0 19607400000.0 9035760000.0 34854700000.0 9035760000.0 35287300000.0 9035760000.0 47966300000.0 9035760000.0 49116000000.0 9035760000.0 55545700000.0 9035760000.0 60933700000.0 9035760000.0 62582400000.0 9035750000.0 61168200000.0 9035750000.0 74054600000.0 9035750000.0 61168200000.0 9035750000.0 62582400000.0 9035760000.0 60933700000.0 9035760000.0 55545700000.0 9035760000.0 49116000000.0 9035760000.0 47966300000.0 9035760000.0 35287300000.0 9035760000.0 34854700000.0 9035760000.0 19607400000.0 23981700000.0 37667300000.0 44027500000.0 58232300000.0 74015100000.0 77534100000.0 68771500000.0 68039000000.0 70712300000.0 61774200000.0 48164600000.0 42290900000.0 40276400000.0 36172600000.0 29285200000.0 26920200000.0 19356400000.0 18220000000.0 32767600000.0 30473600000.0 18519800000.0 19560600000.0 27124900000.0 29309900000.0 34953200000.0 38179400000.0 38966100000.0 44186000000.0 57815500000.0 67000500000.0 63298400000.0 65438700000.0 76020200000.0 72173400000.0 57031900000.0 43314300000.0 36166600000.0 22494200000.0 19657200000.0 9035770000.0 33723500000.0 9035760000.0 34315700000.0 9035760000.0 45992000000.0 9035760000.0 47052900000.0 9035760000.0 52727600000.0 9035760000.0 57154900000.0 9035760000.0 57022100000.0 9035750000.0 54823000000.0 9035750000.0 64477900000.0 9035750000.0 54823000000.0 9035750000.0 57022100000.0 9035760000.0 57154900000.0 9035760000.0 52727600000.0 9035760000.0 47052900000.0 9035760000.0 45992000000.0 9035760000.0 34315700000.0 9035760000.0 33723500000.0 9035770000.0 19657200000.0 22494200000.0 36166600000.0 43314300000.0 57031900000.0 72173400000.0 76020200000.0 65438700000.0 63298400000.0 67000500000.0 57815400000.0 44186000000.0 38966100000.0 38179400000.0 34953200000.0 29309900000.0 27124900000.0 19560600000.0 18519800000.0 30473600000.0 28322500000.0 18686300000.0 19601600000.0 27049600000.0 29132300000.0 33918700000.0 36645400000.0 36385200000.0 40878400000.0 54395200000.0 63314100000.0 59263100000.0 62615700000.0 73933400000.0 69883200000.0 55489000000.0 42260100000.0 34618500000.0 21253500000.0 19609700000.0 9035770000.0 32586300000.0 9035760000.0 33269100000.0 9035760000.0 43965400000.0 9035760000.0 44931700000.0 9035760000.0 49879600000.0 9035760000.0 53376700000.0 9035760000.0 51780900000.0 9035750000.0 49117500000.0 9035750000.0 56241000000.0 9035750000.0 49117500000.0 9035750000.0 51780900000.0 9035760000.0 53376700000.0 9035760000.0 49879600000.0 9035760000.0 44931700000.0 9035760000.0 43965400000.0 9035760000.0 33269100000.0 9035760000.0 32586300000.0 9035770000.0 19609700000.0 21253500000.0 34618500000.0 42260100000.0 55489000000.0 69883200000.0 73933400000.0 62615700000.0 59263100000.0 63314100000.0 54395200000.0 40878400000.0 36385200000.0 36645400000.0 33918700000.0 29132300000.0 27049600000.0 19601600000.0 18686300000.0 28322500000.0 26391800000.0 18730900000.0 19498800000.0 26734200000.0 28715800000.0 32963500000.0 35467700000.0 34366800000.0 38156900000.0 51457300000.0 59714800000.0 55750400000.0 60071400000.0 71280400000.0 67147700000.0 53555600000.0 40885400000.0 33039400000.0 20192000000.0 19479300000.0 9035770000.0 31435400000.0 9035760000.0 32159500000.0 9035760000.0 41912100000.0 9035760000.0 42778700000.0 9035760000.0 47037600000.0 9035760000.0 49649500000.0 9035760000.0 46894400000.0 9035750000.0 44007400000.0 9035750000.0 49172000000.0 9035750000.0 44007400000.0 9035750000.0 46894400000.0 9035760000.0 49649500000.0 9035760000.0 47037600000.0 9035760000.0 42778700000.0 9035760000.0 41912100000.0 9035760000.0 32159500000.0 9035760000.0 31435400000.0 9035770000.0 19479300000.0 20192000000.0 33039400000.0 40885400000.0 53555600000.0 67147700000.0 71280400000.0 60071400000.0 55750400000.0 59714800000.0 51457300000.0 38156900000.0 34366800000.0 35467700000.0 32963500000.0 28715800000.0 26734200000.0 19498800000.0 18730900000.0 26391800000.0 24709300000.0 18666500000.0 19272800000.0 26220300000.0 28075900000.0 32013200000.0 34485700000.0 32742700000.0 35908000000.0 48907700000.0 56258000000.0 52611900000.0 57634500000.0 68147600000.0 64014200000.0 51269600000.0 39247400000.0 31443100000.0 19256100000.0 19276300000.0 9035770000.0 30267500000.0 9035760000.0 30999700000.0 9035760000.0 39853000000.0 9035760000.0 40615500000.0 9035760000.0 44230600000.0 9035760000.0 46018000000.0 9035760000.0 42383400000.0 9035750000.0 39447800000.0 9035750000.0 43116600000.0 9035750000.0 39447800000.0 9035750000.0 42383400000.0 9035760000.0 46018000000.0 9035760000.0 44230600000.0 9035760000.0 40615500000.0 9035760000.0 39853000000.0 9035760000.0 30999700000.0 9035760000.0 30267500000.0 9035770000.0 19276300000.0 19256100000.0 31443100000.0 39247400000.0 51269600000.0 64014200000.0 68147600000.0 57634500000.0 52611900000.0 56258000000.0 48907700000.0 35908000000.0 32742700000.0 34485700000.0 32013200000.0 28075900000.0 26220300000.0 19272800000.0 18666500000.0 24709300000.0 23266900000.0 18506500000.0 18944700000.0 25548200000.0 27251300000.0 31020000000.0 33580700000.0 31373600000.0 34018000000.0 46643300000.0 52974100000.0 49727000000.0 55192600000.0 64655300000.0 60567900000.0 48710600000.0 37410100000.0 29842800000.0 18405700000.0 19008400000.0 9035770000.0 29083000000.0 9035760000.0 29802200000.0 9035760000.0 37805000000.0 9035760000.0 38460300000.0 9035760000.0 41482100000.0 9035760000.0 42519700000.0 9035760000.0 38256100000.0 9035750000.0 35393900000.0 9035750000.0 37937700000.0 9035750000.0 35393900000.0 9035750000.0 38256100000.0 9035760000.0 42519700000.0 9035760000.0 41482100000.0 9035760000.0 38460300000.0 9035760000.0 37805000000.0 9035760000.0 29802200000.0 9035760000.0 29083000000.0 9035770000.0 19008400000.0 18405700000.0 29842800000.0 37410100000.0 48710600000.0 60567900000.0 64655300000.0 55192600000.0 49727000000.0 52974100000.0 46643300000.0 34018000000.0 31373600000.0 33580700000.0 31020000000.0 27251300000.0 25548200000.0 18944700000.0 18506500000.0 23266900000.0 22035500000.0 18263600000.0 18534600000.0 24754600000.0 26285800000.0 29962700000.0 32670300000.0 30154200000.0 32384900000.0 44567300000.0 49871000000.0 47010700000.0 52688000000.0 60924900000.0 56911600000.0 45967200000.0 35434900000.0 28251900000.0 17613300000.0 18682100000.0 9035770000.0 27884200000.0 9035760000.0 28578200000.0 9035760000.0 35781600000.0 9035760000.0 36328500000.0 9035760000.0 38810500000.0 9035760000.0 39183500000.0 9035760000.0 34511200000.0 9035750000.0 31802000000.0 9035750000.0 33513700000.0 9035750000.0 31802000000.0 9035750000.0 34511200000.0 9035760000.0 39183500000.0 9035760000.0 38810500000.0 9035760000.0 36328500000.0 9035760000.0 35781600000.0 9035760000.0 28578200000.0 9035760000.0 27884200000.0 9035770000.0 18682100000.0 17613300000.0 28251900000.0 35434900000.0 45967200000.0 56911600000.0 60924900000.0 52688000000.0 47010700000.0 49871000000.0 44567300000.0 32384900000.0 30154200000.0 32670300000.0 29962700000.0 26285800000.0 24754600000.0 18534600000.0 18263600000.0 22035500000.0 20976700000.0 17950000000.0 18061100000.0 23872400000.0 25220800000.0 28841000000.0 31704800000.0 29010100000.0 30922000000.0 42598000000.0 46939200000.0 44410700000.0 50104400000.0 57064200000.0 53145900000.0 43121600000.0 33378200000.0 26683400000.0 16862100000.0 18303000000.0 9035770000.0 26675300000.0 9035760000.0 27337300000.0 9035760000.0 33793900000.0 9035760000.0 34233200000.0 9035760000.0 36230500000.0 9035760000.0 36030400000.0 9035760000.0 31138900000.0 9035750000.0 28630200000.0 9035750000.0 29738400000.0 9035750000.0 28630200000.0 9035750000.0 31138900000.0 9035760000.0 36030400000.0 9035760000.0 36230500000.0 9035760000.0 34233200000.0 9035760000.0 33793900000.0 9035760000.0 27337300000.0 9035760000.0 26675300000.0 9035770000.0 18303000000.0 16862100000.0 26683400000.0 33378200000.0 43121600000.0 53145900000.0 57064200000.0 50104400000.0 44410700000.0 46939200000.0 42598000000.0 30922000000.0 29010100000.0 31704800000.0 28841000000.0 25220800000.0 23872400000.0 18061100000.0 17950000000.0 20976700000.0 20050600000.0 17576700000.0 17540300000.0 22929100000.0 24092200000.0 27666200000.0 30660100000.0 27890800000.0 29560700000.0 40672200000.0 44157600000.0 41896200000.0 47450000000.0 53161800000.0 49357900000.0 40243500000.0 31289500000.0 25150000000.0 16143000000.0 17876500000.0 9035770000.0 25461000000.0 9035760000.0 26087300000.0 9035760000.0 31850100000.0 9035760000.0 32185000000.0 9035760000.0 33752500000.0 9035760000.0 33074200000.0 9035760000.0 28122800000.0 9035750000.0 25838400000.0 9035750000.0 26518800000.0 9035750000.0 25838400000.0 9035750000.0 28122800000.0 9035760000.0 33074200000.0 9035760000.0 33752500000.0 9035760000.0 32185000000.0 9035760000.0 31850100000.0 9035760000.0 26087300000.0 9035760000.0 25461000000.0 9035770000.0 17876500000.0 16143000000.0 25150000000.0 31289500000.0 40243500000.0 49357900000.0 53161800000.0 47450000000.0 41896200000.0 44157600000.0 40672200000.0 29560700000.0 27890800000.0 30660100000.0 27666200000.0 24092200000.0 22929100000.0 17540300000.0 17576700000.0 20050600000.0 19220300000.0 17153000000.0 16986000000.0 21947400000.0 22930100000.0 26452100000.0 29530000000.0 26765300000.0 28250500000.0 38745100000.0 41499800000.0 39447300000.0 44742800000.0 49287400000.0 45617600000.0 37389000000.0 29210400000.0 23662300000.0 15452300000.0 17407900000.0 9035770000.0 24246500000.0 9035760000.0 24834700000.0 9035760000.0 29956300000.0 9035760000.0 30192200000.0 9035760000.0 31384000000.0 9035760000.0 30322300000.0 9035760000.0 25441600000.0 9035750000.0 23389000000.0 9035750000.0 23774100000.0 9035750000.0 23389000000.0 9035750000.0 25441600000.0 9035760000.0 30322300000.0 9035760000.0 31384000000.0 9035760000.0 30192200000.0 9035760000.0 29956300000.0 9035760000.0 24834700000.0 9035760000.0 24246500000.0 9035770000.0 17407900000.0 15452300000.0 23662300000.0 29210400000.0 37389000000.0 45617600000.0 49287400000.0 44742800000.0 39447300000.0 41499800000.0 38745100000.0 28250500000.0 26765300000.0 29530000000.0 26452100000.0 22930100000.0 21947400000.0 16986000000.0 17153000000.0 19220300000.0 18454400000.0 16686800000.0 16409300000.0 20945400000.0 21757800000.0 25210800000.0 28317700000.0 25616600000.0 26956700000.0 36787800000.0 38938300000.0 37050000000.0 42002900000.0 45493100000.0 41978100000.0 34601100000.0 27175000000.0 22229300000.0 14789900000.0 16902100000.0 9035770000.0 23036500000.0 9035760000.0 23584800000.0 9035760000.0 28116100000.0 9035760000.0 28260900000.0 9035760000.0 29129400000.0 9035760000.0 27776600000.0 9035760000.0 23070500000.0 9035750000.0 21246300000.0 9035750000.0 21434600000.0 9035750000.0 21246300000.0 9035750000.0 23070500000.0 9035760000.0 27776600000.0 9035760000.0 29129400000.0 9035760000.0 28260900000.0 9035760000.0 28116100000.0 9035760000.0 23584800000.0 9035760000.0 23036500000.0 9035770000.0 16902100000.0 14789900000.0 22229300000.0 27175000000.0 34601100000.0 41978100000.0 45493100000.0 42002900000.0 37050000000.0 38938300000.0 36787800000.0 26956700000.0 25616600000.0 28317700000.0 25210800000.0 21757800000.0 20945400000.0 16409300000.0 16686800000.0 18454400000.0 15818800000.0 19936200000.0 20592800000.0 38476700000.0 31910800000.0 25208900000.0 20857200000.0 14157400000.0 16363800000.0 9035770000.0 21834900000.0 9035760000.0 22341900000.0 9035760000.0 26331300000.0 9035760000.0 26395000000.0 9035760000.0 26990600000.0 9035760000.0 25434400000.0 9035760000.0 20982800000.0 9035750000.0 19377000000.0 9035750000.0 19439900000.0 9035750000.0 19377000000.0 9035750000.0 20982800000.0 9035760000.0 25434400000.0 9035760000.0 26990600000.0 9035760000.0 26395000000.0 9035760000.0 26331300000.0 9035760000.0 22341900000.0 9035760000.0 21834900000.0 9035770000.0 16363800000.0 14157400000.0 20857200000.0 25208900000.0 31910800000.0 38476700000.0 20592800000.0 19936200000.0 15818800000.0 17727500000.0 16184800000.0 23950800000.0 27030300000.0 24438000000.0 25657000000.0 34784100000.0 36447800000.0 34693300000.0 39248500000.0 41815400000.0 41815400000.0 39248500000.0 34693300000.0 36447800000.0 34784100000.0 25657000000.0 24438000000.0 27030300000.0 23950800000.0 16184800000.0 17727500000.0 17019800000.0 15652200000.0 15220800000.0 18929300000.0 19447100000.0 22678100000.0 25675700000.0 23227900000.0 24338000000.0 32727000000.0 34006800000.0 32369200000.0 36494500000.0 38277800000.0 35137300000.0 29338100000.0 23330600000.0 19549800000.0 13556800000.0 15797500000.0 9035770000.0 20645100000.0 9035760000.0 21109400000.0 9035760000.0 24602000000.0 9035760000.0 24596400000.0 9035760000.0 24966900000.0 9035760000.0 23288800000.0 9035760000.0 19150900000.0 9035750000.0 17749900000.0 9035750000.0 17737900000.0 9035750000.0 17749900000.0 9035750000.0 19150900000.0 9035760000.0 23288800000.0 9035760000.0 24966900000.0 9035760000.0 24596400000.0 9035760000.0 24602000000.0 9035760000.0 21109400000.0 9035760000.0 20645100000.0 9035770000.0 15797500000.0 13556800000.0 19549800000.0 23330600000.0 29338100000.0 35137300000.0 38277800000.0 36494500000.0 32369200000.0 34006800000.0 32727000000.0 24338000000.0 23227900000.0 25675700000.0 22678100000.0 19447100000.0 18929300000.0 15220800000.0 15652200000.0 17019800000.0 16316900000.0 15093300000.0 14620000000.0 17930900000.0 18328300000.0 21396100000.0 24261300000.0 21986600000.0 22992200000.0 30616200000.0 31597700000.0 30071200000.0 33752700000.0 34892600000.0 31972400000.0 26894300000.0 21551700000.0 18308300000.0 12989600000.0 15207600000.0 9035770000.0 19469400000.0 9035760000.0 19889900000.0 9035760000.0 22927000000.0 9035760000.0 22865100000.0 9035760000.0 23055700000.0 9035760000.0 21329800000.0 9035760000.0 17547200000.0 9035750000.0 16335900000.0 9035750000.0 16283600000.0 9035750000.0 16335900000.0 9035750000.0 17547200000.0 9035760000.0 21329800000.0 9035760000.0 23055700000.0 9035760000.0 22865100000.0 9035760000.0 22927000000.0 9035760000.0 19889900000.0 9035760000.0 19469400000.0 9035770000.0 15207600000.0 12989600000.0 18308300000.0 21551700000.0 26894300000.0 31972400000.0 34892600000.0 33752700000.0 30071200000.0 31597700000.0 30616200000.0 22992200000.0 21986600000.0 24261300000.0 21396100000.0 18328300000.0 17930900000.0 14620000000.0 15093300000.0 16316900000.0 15608500000.0 14511600000.0 14019300000.0 16944400000.0 17240300000.0 20106900000.0 22793700000.0 20715500000.0 21616500000.0 28455100000.0 29207500000.0 27794800000.0 31031400000.0 31663300000.0 28985200000.0 24582700000.0 19877400000.0 17131600000.0 12456800000.0 14597800000.0 9035770000.0 18309300000.0 9035760000.0 18685200000.0 9035760000.0 21304000000.0 9035760000.0 21199500000.0 9035760000.0 21252300000.0 9035760000.0 19544600000.0 9035760000.0 16144800000.0 9035750000.0 15107700000.0 9035750000.0 15038000000.0 9035750000.0 15107700000.0 9035750000.0 16144800000.0 9035760000.0 19544600000.0 9035760000.0 21252300000.0 9035760000.0 21199500000.0 9035760000.0 21304000000.0 9035760000.0 18685200000.0 9035760000.0 18309300000.0 9035770000.0 14597800000.0 12456800000.0 17131600000.0 19877400000.0 24582700000.0 28985200000.0 31663300000.0 31031400000.0 27794800000.0 29207500000.0 28455100000.0 21616500000.0 20715500000.0 22793700000.0 20106900000.0 17240300000.0 16944400000.0 14019300000.0 14511600000.0 15608500000.0 14887800000.0 13910100000.0 13420300000.0 15971200000.0 16183900000.0 18811700000.0 21278700000.0 19415700000.0 20210500000.0 26249800000.0 26826700000.0 25536400000.0 28336100000.0 28586300000.0 26170900000.0 22400800000.0 18307800000.0 16016600000.0 11958000000.0 13971600000.0 9035760000.0 17165200000.0 9035760000.0 17496100000.0 9035760000.0 19729500000.0 9035760000.0 19596800000.0 9035760000.0 19550100000.0 9035760000.0 17918400000.0 9035760000.0 14917800000.0 9035750000.0 14040200000.0 9035750000.0 13967400000.0 9035750000.0 14040200000.0 9035750000.0 14917800000.0 9035760000.0 17918400000.0 9035760000.0 19550100000.0 9035760000.0 19596800000.0 9035760000.0 19729500000.0 9035760000.0 17496100000.0 9035760000.0 17165200000.0 9035760000.0 13971600000.0 11958000000.0 16016600000.0 18307800000.0 22400800000.0 26170900000.0 28586300000.0 28336100000.0 25536400000.0 26826700000.0 26249800000.0 20210500000.0 19415700000.0 21278700000.0 18811700000.0 16183900000.0 15971200000.0 13420300000.0 13910100000.0 14887800000.0 14150900000.0 13291200000.0 12824200000.0 15011400000.0 15158200000.0 17511400000.0 19722000000.0 18088300000.0 18775400000.0 24007000000.0 24448800000.0 23293100000.0 25669700000.0 25652500000.0 23519100000.0 20341200000.0 16838800000.0 14958800000.0 11491900000.0 13332100000.0 9035760000.0 16037200000.0 9035760000.0 16322700000.0 9035760000.0 18199700000.0 9035760000.0 18052400000.0 9035760000.0 17940800000.0 9035760000.0 16434900000.0 9035760000.0 13841400000.0 9035750000.0 13109900000.0 9035750000.0 13042200000.0 9035750000.0 13109900000.0 9035750000.0 13841400000.0 9035760000.0 16434900000.0 9035760000.0 17940800000.0 9035760000.0 18052400000.0 9035760000.0 18199700000.0 9035760000.0 16322700000.0 9035760000.0 16037200000.0 9035760000.0 13332100000.0 11491900000.0 14958800000.0 16838800000.0 20341200000.0 23519100000.0 25652500000.0 25669700000.0 23293100000.0 24448800000.0 24007000000.0 18775400000.0 18088300000.0 19722000000.0 17511400000.0 15158200000.0 15011400000.0 12824200000.0 13291200000.0 14150900000.0 13396400000.0 12657300000.0 12231100000.0 14063900000.0 14160400000.0 16206600000.0 18128700000.0 16735300000.0 17313800000.0 21733400000.0 22069900000.0 21062700000.0 23032600000.0 22848600000.0 21014600000.0 18392700000.0 15462400000.0 13952100000.0 11056000000.0 12681900000.0 9035760000.0 14924100000.0 9035760000.0 15164500000.0 9035760000.0 16709800000.0 9035760000.0 16561000000.0 9035760000.0 16414700000.0 9035750000.0 15076200000.0 9035760000.0 12892200000.0 9035750000.0 12294700000.0 9035750000.0 12236500000.0 9035750000.0 12294700000.0 9035750000.0 12892200000.0 9035760000.0 15076200000.0 9035750000.0 16414700000.0 9035760000.0 16561000000.0 9035760000.0 16709800000.0 9035760000.0 15164500000.0 9035760000.0 14924100000.0 9035760000.0 12681900000.0 11056000000.0 13952100000.0 15462400000.0 18392700000.0 21014600000.0 22848600000.0 23032600000.0 21062700000.0 22069900000.0 21733400000.0 17313800000.0 16735300000.0 18128700000.0 16206600000.0 14160400000.0 14063900000.0 12231100000.0 12657300000.0 13396400000.0 12624400000.0 12010800000.0 11640900000.0 13127300000.0 13187100000.0 14897700000.0 16504300000.0 15358700000.0 15828900000.0 19435300000.0 19687900000.0 18843000000.0 20423500000.0 20158100000.0 18638900000.0 16541400000.0 14167900000.0 12989700000.0 10647100000.0 12023400000.0 9035760000.0 13824700000.0 9035760000.0 14020200000.0 9035760000.0 15254500000.0 9035760000.0 15115900000.0 9035760000.0 14961000000.0 9035750000.0 13824100000.0 9035760000.0 12048100000.0 9035750000.0 11574200000.0 9035750000.0 11527200000.0 9035750000.0 11574200000.0 9035750000.0 12048100000.0 9035760000.0 13824100000.0 9035750000.0 14961000000.0 9035760000.0 15115900000.0 9035760000.0 15254500000.0 9035760000.0 14020200000.0 9035760000.0 13824700000.0 9035760000.0 12023400000.0 10647100000.0 12989700000.0 14167900000.0 16541400000.0 18638900000.0 20158100000.0 20423500000.0 18843000000.0 19687900000.0 19435300000.0 15828900000.0 15358700000.0 16504300000.0 14897700000.0 13187100000.0 13127300000.0 11640900000.0 12010800000.0 12624400000.0 11836600000.0 11353700000.0 11053200000.0 12199600000.0 12234200000.0 13585300000.0 14854200000.0 13961600000.0 14324400000.0 17118500000.0 17301900000.0 16632200000.0 17839300000.0 17562500000.0 16370800000.0 14771500000.0 12942700000.0 12064000000.0 10261000000.0 11358500000.0 9035760000.0 12737000000.0 9035760000.0 12888000000.0 9035760000.0 13828200000.0 9035750000.0 13709800000.0 9035750000.0 13567700000.0 9035750000.0 12659500000.0 9035750000.0 11288000000.0 9035750000.0 10929300000.0 9035750000.0 10893700000.0 9035750000.0 10929300000.0 9035750000.0 11288000000.0 9035750000.0 12659500000.0 9035750000.0 13567700000.0 9035750000.0 13709800000.0 9035750000.0 13828200000.0 9035760000.0 12888000000.0 9035760000.0 12737000000.0 9035760000.0 11358500000.0 10261000000.0 12064000000.0 12942700000.0 14771500000.0 16370800000.0 17562500000.0 17839300000.0 16632200000.0 17301900000.0 17118500000.0 14324400000.0 13961600000.0 14854200000.0 13585300000.0 12234200000.0 12199600000.0 11053200000.0 11353700000.0 11836600000.0 11035500000.0 10688400000.0 10467700000.0 11278800000.0 11297100000.0 12270200000.0 13183900000.0 12547800000.0 12804300000.0 14787700000.0 14912000000.0 14428200000.0 15275600000.0 15041400000.0 14187400000.0 13065700000.0 11772600000.0 11167100000.0 9893230000.0 10689100000.0 9035760000.0 11658700000.0 9035760000.0 11765600000.0 9035750000.0 12424600000.0 9035750000.0 12334700000.0 9035750000.0 12222000000.0 9035750000.0 11562900000.0 9035750000.0 10592000000.0 9035750000.0 10341800000.0 9035750000.0 10317200000.0 9035750000.0 10341800000.0 9035750000.0 10592000000.0 9035750000.0 11562900000.0 9035750000.0 12222000000.0 9035750000.0 12334700000.0 9035750000.0 12424600000.0 9035750000.0 11765600000.0 9035760000.0 11658700000.0 9035760000.0 10689100000.0 9893230000.0 11167100000.0 11772600000.0 13065700000.0 14187400000.0 15041400000.0 15275600000.0 14428200000.0 14912000000.0 14787700000.0 12804300000.0 12547800000.0 13183900000.0 12270200000.0 11297100000.0 11278800000.0 10467700000.0 10688400000.0 11035500000.0 10224400000.0 10017100000.0 9883560000.0 10362900000.0 10371200000.0 10952900000.0 11499000000.0 11121400000.0 11272900000.0 12447300000.0 12518800000.0 12228900000.0 12727000000.0 12573800000.0 12065000000.0 11405900000.0 10642100000.0 10290700000.0 9538700000.0 10016500000.0 9035760000.0 10587100000.0 9035750000.0 10650400000.0 9035750000.0 11037300000.0 9035750000.0 10981800000.0 9035750000.0 10910500000.0 9035750000.0 10514700000.0 9035750000.0 9940940000.0 9035750000.0 9794490000.0 9035750000.0 9780240000.0 9035750000.0 9794490000.0 9035750000.0 9940940000.0 9035750000.0 10514700000.0 9035750000.0 10910500000.0 9035750000.0 10981800000.0 9035750000.0 11037300000.0 9035750000.0 10650400000.0 9035750000.0 10587100000.0 9035760000.0 10016500000.0 9538700000.0 10290700000.0 10642100000.0 11405900000.0 12065000000.0 12573800000.0 12727000000.0 12228900000.0 12518800000.0 12447300000.0 11272900000.0 11121400000.0 11499000000.0 10952900000.0 10371200000.0 10362900000.0 9883560000.0 10017100000.0 10224400000.0 9407240000.0 9342350000.0 9300310000.0 9449790000.0 9452100000.0 9634270000.0 9805310000.0 9687360000.0 9734590000.0 10101100000.0 10123200000.0 10032300000.0 10187300000.0 10137700000.0 9978530000.0 9773480000.0 9535330000.0 9426540000.0 9192130000.0 9342010000.0 9035750000.0 9519690000.0 9035750000.0 9539410000.0 9035750000.0 9659790000.0 9035750000.0 9642170000.0 9035750000.0 9619380000.0 9035750000.0 9495170000.0 9035750000.0 9316250000.0 9035750000.0 9270750000.0 9035750000.0 9266340000.0 9035750000.0 9270750000.0 9035750000.0 9316250000.0 9035750000.0 9495170000.0 9035750000.0 9619380000.0 9035750000.0 9642170000.0 9035750000.0 9659790000.0 9035750000.0 9539410000.0 9035750000.0 9519690000.0 9035750000.0 9342010000.0 9192130000.0 9426540000.0 9535330000.0 9773480000.0 9978530000.0 10137700000.0 10187300000.0 10032300000.0 10123200000.0 10101100000.0 9734590000.0 9687360000.0 9805310000.0 9634270000.0 9452100000.0 9449790000.0 9300310000.0 9342350000.0 9407240000.0 