# vtk DataFile Version 2.0
Time step 11
ASCII
DATASET UNSTRUCTURED_GRID
POINTS 5000 float
67967.1 460639.0 0
371971.0 460671.0 0
426795.0 457287.0 0
435460.0 462093.0 0
59585.3 465162.0 0
63095.0 463152.0 0
66334.3 464705.0 0
71079.9 464643.0 0
75872.4 460621.0 0
75763.4 465196.0 0
80189.3 462645.0 0
84987.1 462054.0 0
89146.3 462680.0 0
93002.8 463556.0 0
97214.9 463766.0 0
101297.0 463785.0 0
105935.0 463167.0 0
111961.0 463709.0 0
117871.0 463944.0 0
123349.0 464020.0 0
128364.0 464007.0 0
133462.0 463385.0 0
138156.0 464076.0 0
142500.0 463994.0 0
147500.0 463928.0 0
152501.0 463898.0 0
157590.0 463522.0 0
162569.0 463663.0 0
167017.0 463268.0 0
171828.0 462117.0 0
177739.0 462166.0 0
182945.0 461360.0 0
187405.0 463206.0 0
192500.0 464346.0 0
196102.0 463532.0 0
201755.0 462879.0 0
207654.0 463633.0 0
212993.0 463010.0 0
218132.0 464054.0 0
222483.0 464066.0 0
225815.0 463374.0 0
230430.0 463217.0 0
235811.0 464181.0 0
241170.0 462886.0 0
246499.0 464895.0 0
252669.0 462857.0 0
259035.0 463365.0 0
263765.0 464416.0 0
268744.0 463371.0 0
273939.0 463654.0 0
278878.0 462277.0 0
282031.0 465605.0 0
286328.0 463916.0 0
291719.0 464382.0 0
297322.0 462252.0 0
303652.0 463084.0 0
307735.0 465628.0 0
312114.0 463449.0 0
317914.0 464086.0 0
323230.0 463984.0 0
327565.0 464247.0 0
332189.0 463840.0 0
337203.0 463529.0 0
340973.0 464816.0 0
345819.0 463071.0 0
350549.0 465125.0 0
355112.0 464096.0 0
361617.0 462606.0 0
367766.0 463781.0 0
377013.0 462543.0 0
382565.0 463482.0 0
388061.0 462874.0 0
393887.0 462050.0 0
398977.0 463797.0 0
403419.0 461091.0 0
407484.0 464967.0 0
408459.0 460808.0 0
411084.0 463155.0 0
414733.0 462477.0 0
419099.0 461110.0 0
417825.0 465813.0 0
423767.0 461958.0 0
428583.0 461415.0 0
431924.0 463426.0 0
435249.0 465667.0 0
439127.0 464716.0 0
443084.0 467654.0 0
51899.0 470893.0 0
56117.3 467888.0 0
56444.7 472304.0 0
60112.6 468918.0 0
60318.6 472782.0 0
63160.9 466975.0 0
63558.4 470878.0 0
67373.5 468830.0 0
71832.2 469411.0 0
75536.5 469276.0 0
79648.5 467683.0 0
82947.3 470178.0 0
84420.7 466681.0 0
89590.8 467427.0 0
93589.0 469759.0 0
97183.1 468164.0 0
102427.0 468470.0 0
108206.0 467756.0 0
112500.0 469027.0 0
117500.0 469108.0 0
122500.0 469031.0 0
127816.0 468364.0 0
132559.0 468930.0 0
137572.0 468940.0 0
142786.0 468402.0 0
146961.0 468738.0 0
151972.0 468654.0 0
156893.0 467576.0 0
161329.0 468382.0 0
166547.0 467942.0 0
172960.0 467686.0 0
178362.0 467580.0 0
183519.0 466429.0 0
188589.0 467658.0 0
193559.0 468498.0 0
198242.0 467892.0 0
203927.0 468498.0 0
213694.0 467561.0 0
209362.0 468735.0 0
217622.0 469117.0 0
222056.0 468944.0 0
226831.0 467606.0 0
232236.0 468608.0 0
237718.0 469420.0 0
243316.0 469312.0 0
248434.0 468980.0 0
252651.0 469436.0 0
257240.0 468001.0 0
262324.0 468595.0 0
267129.0 468234.0 0
271658.0 467563.0 0
276999.0 467966.0 0
282820.0 469293.0 0
287500.0 469005.0 0
292867.0 468885.0 0
298223.0 467767.0 0
303084.0 468751.0 0
307463.0 468921.0 0
312501.0 469199.0 0
317499.0 468964.0 0
322445.0 468456.0 0
327500.0 468985.0 0
332500.0 469058.0 0
337704.0 468410.0 0
343311.0 467803.0 0
347726.0 468247.0 0
352655.0 468947.0 0
361377.0 467947.0 0
357702.0 468462.0 0
365034.0 467526.0 0
372728.0 467240.0 0
378749.0 467104.0 0
382057.0 467805.0 0
388206.0 467965.0 0
393391.0 468067.0 0
397916.0 468826.0 0
402678.0 467273.0 0
411515.0 467011.0 0
414968.0 469770.0 0
419574.0 470792.0 0
422471.0 466825.0 0
427204.0 466037.0 0
428815.0 470207.0 0
431690.0 467587.0 0
435617.0 469430.0 0
439251.0 469100.0 0
442900.0 472499.0 0
447516.0 470371.0 0
41776.6 477241.0 0
47184.7 474554.0 0
53046.7 476015.0 0
58398.4 476904.0 0
63936.1 475856.0 0
68656.6 473683.0 0
73889.0 473706.0 0
79618.9 473303.0 0
84978.9 473396.0 0
82725.1 476233.0 0
89623.7 472914.0 0
94577.2 474210.0 0
99044.2 472248.0 0
103725.0 474079.0 0
108708.0 472497.0 0
112954.0 473904.0 0
116965.0 473791.0 0
121050.0 473580.0 0
125973.0 472726.0 0
131178.0 474670.0 0
136462.0 474579.0 0
141006.0 472523.0 0
146320.0 473625.0 0
151851.0 475208.0 0
156290.0 472136.0 0
161752.0 474068.0 0
166559.0 475921.0 0
170040.0 472502.0 0
176331.0 473353.0 0
182216.0 471578.0 0
188080.0 473821.0 0
194289.0 473518.0 0
199999.0 472984.0 0
204285.0 473997.0 0
208103.0 473612.0 0
213296.0 472370.0 0
217709.0 474059.0 0
222576.0 473218.0 0
226886.0 472609.0 0
232464.0 474073.0 0
237465.0 473846.0 0
241815.0 474493.0 0
246883.0 473074.0 0
251831.0 474340.0 0
257696.0 472753.0 0
262682.0 473375.0 0
267446.0 472696.0 0
273002.0 472826.0 0
279893.0 471964.0 0
283579.0 474230.0 0
287240.0 474321.0 0
291048.0 473224.0 0
296762.0 472827.0 0
302252.0 473992.0 0
307709.0 473351.0 0
313204.0 474497.0 0
318190.0 473530.0 0
322487.0 472460.0 0
326762.0 474394.0 0
336427.0 473054.0 0
331800.0 474127.0 0
341314.0 471958.0 0
346728.0 472613.0 0
351770.0 473760.0 0
355883.0 472290.0 0
361090.0 472643.0 0
357223.0 476266.0 0
366299.0 471637.0 0
370829.0 473550.0 0
377329.0 472953.0 0
383892.0 471447.0 0
391348.0 472571.0 0
387617.0 474888.0 0
396063.0 472866.0 0
401602.0 473316.0 0
407821.0 471220.0 0
412891.0 473904.0 0
417595.0 475477.0 0
421958.0 475870.0 0
424727.0 471884.0 0
428639.0 474852.0 0
432531.0 472692.0 0
438041.0 473887.0 0
451871.0 473525.0 0
447000.0 475111.0 0
450213.0 477489.0 0
456497.0 475611.0 0
30907.0 482990.0 0
33644.7 480963.0 0
37419.8 479629.0 0
40672.9 482298.0 0
45861.5 480616.0 0
49514.9 478061.0 0
51199.5 481091.0 0
55103.4 480089.0 0
58111.8 481708.0 0
61459.1 479745.0 0
65222.2 480773.0 0
68508.2 478071.0 0
72922.7 478862.0 0
77029.8 477360.0 0
76824.6 481342.0 0
80855.1 479403.0 0
85715.6 478698.0 0
90685.4 477926.0 0
94489.8 480957.0 0
99046.8 477965.0 0
103601.0 480241.0 0
108282.0 478060.0 0
113598.0 478213.0 0
118586.0 478271.0 0
123822.0 477450.0 0
127500.0 479106.0 0
132778.0 479472.0 0
137836.0 478463.0 0
142526.0 478599.0 0
148053.0 478215.0 0
156875.0 477502.0 0
153451.0 479850.0 0
160449.0 478871.0 0
164460.0 479615.0 0
170854.0 478534.0 0
177043.0 479918.0 0
182243.0 477055.0 0
186642.0 479447.0 0
191657.0 478955.0 0
197224.0 478262.0 0
203048.0 478139.0 0
208746.0 479953.0 0
214366.0 478035.0 0
218746.0 479241.0 0
222115.0 477484.0 0
227596.0 478146.0 0
234240.0 478498.0 0
237765.0 477186.0 0
241856.0 479089.0 0
246332.0 478265.0 0
251544.0 479604.0 0
255898.0 477493.0 0
260361.0 477148.0 0
262645.0 480732.0 0
266382.0 477394.0 0
271776.0 479102.0 0
278354.0 477460.0 0
284351.0 478974.0 0
288760.0 477486.0 0
292983.0 479204.0 0
298940.0 479137.0 0
303979.0 479325.0 0
307500.0 479149.0 0
312164.0 478971.0 0
316190.0 478246.0 0
321013.0 477812.0 0
325806.0 479327.0 0
329847.0 477953.0 0
334329.0 479893.0 0
339718.0 477359.0 0
345997.0 478868.0 0
352731.0 479325.0 0
361508.0 478719.0 0
366297.0 476353.0 0
366733.0 481259.0 0
371524.0 479169.0 0
382266.0 477075.0 0
377417.0 480523.0 0
386628.0 479017.0 0
392159.0 479944.0 0
398367.0 478500.0 0
405771.0 476196.0 0
402992.0 478740.0 0
409832.0 477623.0 0
414052.0 478231.0 0
420997.0 479868.0 0
416934.0 481310.0 0
426014.0 478974.0 0
430979.0 478983.0 0
434382.0 477026.0 0
434852.0 481484.0 0
438171.0 478579.0 0
442872.0 477938.0 0
447267.0 479268.0 0
451577.0 481411.0 0
453860.0 477874.0 0
456033.0 480640.0 0
460191.0 478885.0 0
464706.0 480978.0 0
23390.6 487833.0 0
27487.7 486262.0 0
31583.0 486429.0 0
35773.9 484637.0 0
39955.3 486707.0 0
43955.1 485832.0 0
48966.2 485208.0 0
54315.3 485087.0 0
61469.6 484060.0 0
66019.4 485303.0 0
69816.4 482647.0 0
74295.3 485021.0 0
80478.9 484558.0 0
85645.3 483707.0 0
90294.3 482767.0 0
93750.7 485063.0 0
98345.1 483300.0 0
102133.0 484249.0 0
106487.0 483932.0 0
111780.0 482770.0 0
117029.0 483588.0 0
122399.0 482592.0 0
127197.0 483100.0 0
131449.0 483890.0 0
136780.0 483036.0 0
142412.0 484297.0 0
147206.0 482515.0 0
151983.0 484456.0 0
158115.0 483495.0 0
167127.0 482438.0 0
163768.0 484104.0 0
171035.0 484536.0 0
176759.0 486201.0 0
182934.0 483931.0 0
193687.0 483046.0 0
189200.0 483864.0 0
198246.0 484151.0 0
203172.0 483239.0 0
207341.0 485327.0 0
212129.0 484186.0 0
216349.0 482642.0 0
221207.0 482885.0 0
226325.0 484741.0 0
232000.0 483051.0 0
237940.0 481919.0 0
242863.0 483700.0 0
248059.0 483371.0 0
252910.0 483636.0 0
257741.0 482675.0 0
262869.0 486307.0 0
267624.0 483304.0 0
272711.0 484979.0 0
278478.0 484115.0 0
283569.0 483559.0 0
288833.0 482805.0 0
293485.0 483785.0 0
297499.0 485174.0 0
302639.0 483631.0 0
307132.0 483990.0 0
311957.0 483704.0 0
316997.0 482660.0 0
322317.0 483384.0 0
330960.0 483452.0 0
327174.0 484168.0 0
341386.0 482851.0 0
337019.0 483837.0 0
346594.0 484802.0 0
351508.0 484981.0 0
357719.0 482885.0 0
362775.0 483744.0 0
369807.0 484673.0 0
374150.0 484774.0 0
382669.0 483308.0 0
387486.0 483105.0 0
391163.0 486128.0 0
396799.0 484859.0 0
401702.0 482666.0 0
406529.0 481450.0 0
411807.0 481954.0 0
414213.0 484452.0 0
421635.0 483479.0 0
418285.0 485798.0 0
425248.0 483918.0 0
430110.0 483871.0 0
435245.0 486689.0 0
440452.0 483308.0 0
446684.0 483401.0 0
443991.0 487266.0 0
452115.0 486055.0 0
455378.0 483688.0 0
456747.0 487739.0 0
458754.0 483481.0 0
460601.0 487003.0 0
463166.0 484642.0 0
468818.0 484402.0 0
473500.0 486171.0 0
16237.4 492493.0 0
20146.5 490167.0 0
25064.3 491401.0 0
30097.8 490320.0 0
33861.1 489117.0 0
34230.4 493520.0 0
37750.2 489969.0 0
41933.9 490123.0 0
46529.0 489697.0 0
50934.8 488699.0 0
53919.4 490803.0 0
58267.0 488675.0 0
62874.9 488131.0 0
61962.4 492430.0 0
67165.3 490412.0 0
70579.0 487350.0 0
71695.9 490945.0 0
74817.6 489126.0 0
78900.4 489498.0 0
84272.2 489127.0 0
89820.0 487718.0 0
94235.6 489045.0 0
98196.4 487791.0 0
102613.0 488596.0 0
107415.0 489207.0 0
111813.0 487578.0 0
116019.0 488362.0 0
121447.0 488643.0 0
127917.0 488336.0 0
133713.0 488248.0 0
139066.0 488825.0 0
144042.0 488901.0 0
148653.0 488577.0 0
153028.0 489132.0 0
157220.0 489201.0 0
161605.0 487970.0 0
166772.0 487820.0 0
172292.0 490306.0 0
177049.0 490527.0 0
181332.0 490577.0 0
186853.0 488848.0 0
192383.0 488384.0 0
197820.0 489857.0 0
202600.0 487780.0 0
206610.0 489930.0 0
210633.0 488740.0 0
216370.0 488508.0 0
222669.0 488601.0 0
228330.0 490281.0 0
233999.0 491424.0 0
236093.0 486922.0 0
241000.0 489355.0 0
246473.0 489882.0 0
250967.0 487809.0 0
256813.0 488882.0 0
268285.0 488712.0 0
272900.0 489864.0 0
277859.0 490114.0 0
282089.0 487491.0 0
287104.0 488887.0 0
293029.0 488189.0 0
297877.0 490471.0 0
301877.0 487551.0 0
306180.0 489451.0 0
311429.0 489398.0 0
316874.0 487778.0 0
322323.0 489295.0 0
327967.0 488788.0 0
333840.0 487721.0 0
337496.0 491088.0 0
342125.0 488818.0 0
347876.0 489581.0 0
355437.0 487163.0 0
352165.0 489267.0 0
360307.0 488456.0 0
366253.0 488428.0 0
372198.0 489771.0 0
378148.0 488083.0 0
382471.0 487419.0 0
386248.0 487459.0 0
389387.0 490784.0 0
394439.0 490638.0 0
398695.0 489271.0 0
403399.0 488078.0 0
409528.0 486322.0 0
414353.0 489386.0 0
419120.0 490526.0 0
422961.0 487663.0 0
427873.0 488757.0 0
432275.0 490515.0 0
439898.0 489297.0 0
444183.0 492209.0 0
448288.0 488792.0 0
452826.0 491164.0 0
456840.0 492204.0 0
461842.0 491670.0 0
466070.0 488513.0 0
471568.0 490383.0 0
467485.0 492799.0 0
477276.0 489443.0 0
481972.0 492657.0 0
8984.12 496860.0 0
5980.73 497997.0 0
12805.6 494583.0 0
20240.3 494536.0 0
16259.5 496488.0 0
24628.9 496017.0 0
28933.5 494940.0 0
32012.4 498628.0 0
36881.7 497554.0 0
39370.2 493925.0 0
44169.5 494012.0 0
49779.4 493292.0 0
51215.3 497026.0 0
47103.6 497590.0 0
56939.7 494417.0 0
66971.1 495455.0 0
62423.0 497219.0 0
70385.6 494273.0 0
75514.6 494290.0 0
81630.6 494594.0 0
86837.6 495782.0 0
90357.4 492662.0 0
95125.0 493531.0 0
99738.6 492080.0 0
106777.0 493586.0 0
103109.0 494757.0 0
111711.0 493157.0 0
117538.0 493060.0 0
126503.0 493678.0 0
122649.0 494237.0 0
131498.0 493016.0 0
135461.0 494901.0 0
139949.0 494381.0 0
145263.0 493528.0 0
150975.0 493673.0 0
156976.0 494552.0 0
162105.0 492630.0 0
167232.0 492912.0 0
171493.0 495612.0 0
176220.0 494263.0 0
181004.0 496182.0 0
185816.0 494138.0 0
191595.0 494268.0 0
197342.0 495389.0 0
202634.0 493209.0 0
207600.0 493947.0 0
212130.0 493122.0 0
217212.0 494891.0 0
223342.0 494568.0 0
228967.0 496272.0 0
233395.0 495885.0 0
238442.0 495077.0 0
243828.0 494447.0 0
248899.0 494061.0 0
252305.0 492141.0 0
255539.0 494968.0 0
262553.0 493507.0 0
268734.0 493680.0 0
273485.0 494398.0 0
278385.0 495503.0 0
282793.0 492884.0 0
287954.0 494908.0 0
293185.0 493521.0 0
297706.0 495716.0 0
302607.0 493372.0 0
308383.0 494345.0 0
313173.0 493979.0 0
317397.0 493472.0 0
325877.0 492969.0 0
322122.0 494852.0 0
330017.0 493909.0 0
335067.0 494469.0 0
340320.0 494839.0 0
345876.0 495698.0 0
350963.0 493761.0 0
355836.0 491758.0 0
360573.0 494341.0 0
366146.0 494158.0 0
370771.0 494835.0 0
376809.0 495435.0 0
382982.0 491822.0 0
386630.0 495627.0 0
391488.0 495296.0 0
397099.0 495932.0 0
402646.0 494198.0 0
408016.0 492253.0 0
412607.0 493882.0 0
415814.0 493222.0 0
418652.0 494630.0 0
423986.0 493754.0 0
429128.0 493022.0 0
432750.0 495350.0 0
436674.0 492604.0 0
437065.0 497279.0 0
442249.0 497187.0 0
448851.0 493856.0 0
454505.0 494894.0 0
458064.0 495810.0 0
461975.0 496970.0 0
465734.0 495921.0 0
472493.0 495492.0 0
469149.0 498135.0 0
476582.0 494212.0 0
476688.0 498899.0 0
479489.0 496379.0 0
482915.0 497038.0 0
487402.0 495877.0 0
492518.0 498260.0 0
2769.38 500083.0 0
7465.16 501858.0 0
12381.0 499291.0 0
21671.1 499088.0 0
17163.4 501256.0 0
26553.5 500168.0 0
22194.3 503848.0 0
30221.7 503292.0 0
35685.4 502259.0 0
41495.2 498327.0 0
39982.0 502165.0 0
44824.6 501565.0 0
50188.9 501487.0 0
54291.5 498520.0 0
55338.9 502662.0 0
58065.4 499010.0 0
66932.9 500413.0 0
71322.1 497853.0 0
76155.1 500962.0 0
82363.6 500276.0 0
91699.6 497528.0 0
87646.9 500792.0 0
96410.0 499618.0 0
99556.8 496556.0 0
101965.0 500231.0 0
106522.0 498050.0 0
112158.0 499479.0 0
118430.0 498743.0 0
124031.0 498698.0 0
128576.0 497008.0 0
133407.0 499173.0 0
137922.0 498283.0 0
141992.0 499201.0 0
147501.0 498856.0 0
153068.0 498887.0 0
157343.0 500430.0 0
161879.0 498168.0 0
167221.0 497876.0 0
170814.0 499626.0 0
176924.0 499252.0 0
182387.0 500987.0 0
186946.0 499153.0 0
191590.0 499569.0 0
196404.0 500841.0 0
201713.0 498735.0 0
207243.0 498922.0 0
213080.0 498714.0 0
219833.0 500005.0 0
224940.0 499876.0 0
228679.0 500367.0 0
232625.0 499634.0 0
237015.0 500326.0 0
242052.0 498635.0 0
246512.0 498447.0 0
251462.0 497963.0 0
257762.0 500234.0 0
262732.0 499570.0 0
268237.0 499295.0 0
274048.0 499345.0 0
279352.0 501017.0 0
284591.0 499008.0 0
289626.0 499863.0 0
293271.0 498071.0 0
296669.0 500668.0 0
302374.0 499223.0 0
307427.0 499651.0 0
311976.0 498141.0 0
316712.0 498065.0 0
321256.0 499964.0 0
326358.0 498452.0 0
331664.0 498899.0 0
337237.0 500081.0 0
342904.0 500188.0 0
346748.0 500246.0 0
351095.0 498931.0 0
356141.0 497335.0 0
361545.0 500413.0 0
366763.0 499008.0 0
371391.0 499324.0 0
381871.0 499126.0 0
386308.0 500374.0 0
390759.0 499854.0 0
394789.0 500513.0 0
399356.0 500926.0 0
404546.0 499647.0 0
410158.0 498244.0 0
415470.0 497380.0 0
420792.0 499758.0 0
426034.0 501962.0 0
428500.0 497885.0 0
433317.0 500781.0 0
439165.0 501990.0 0
447202.0 497988.0 0
449994.0 501198.0 0
451608.0 497196.0 0
455295.0 498514.0 0
459430.0 500615.0 0
465235.0 500760.0 0
469929.0 502686.0 0
472842.0 499761.0 0
480491.0 499269.0 0
479640.0 503412.0 0
484130.0 500632.0 0
488828.0 501169.0 0
497078.0 500058.0 0
3029.17 505118.0 0
12125.5 504944.0 0
17575.2 506703.0 0
23481.3 508146.0 0
26291.2 504844.0 0
33161.8 507216.0 0
37537.3 505972.0 0
41964.8 506359.0 0
46920.7 505095.0 0
51620.8 507470.0 0
57000.1 506854.0 0
61227.6 503056.0 0
65688.3 506684.0 0
70849.8 504814.0 0
80252.1 504692.0 0
84840.2 505090.0 0
90559.7 505764.0 0
95286.5 503927.0 0
98968.0 503130.0 0
101984.0 505276.0 0
106253.0 503476.0 0
110719.0 504878.0 0
115982.0 504701.0 0
121998.0 503579.0 0
128314.0 503190.0 0
137608.0 502263.0 0
133806.0 503999.0 0
142127.0 504449.0 0
148203.0 505447.0 0
153626.0 503697.0 0
158059.0 504610.0 0
163159.0 503998.0 0
173398.0 502849.0 0
168485.0 503144.0 0
177771.0 503696.0 0
181600.0 505541.0 0
186458.0 504412.0 0
191570.0 504077.0 0
195911.0 506547.0 0
201160.0 504322.0 0
207177.0 504992.0 0
212138.0 503632.0 0
216855.0 504796.0 0
221619.0 505648.0 0
226070.0 504410.0 0
231017.0 503734.0 0
235872.0 504953.0 0
241283.0 503551.0 0
246726.0 503378.0 0
252422.0 503466.0 0
257587.0 505438.0 0
263766.0 505054.0 0
269656.0 504942.0 0
274625.0 504306.0 0
279885.0 506359.0 0
283938.0 503451.0 0
288519.0 504879.0 0
292580.0 503296.0 0
298616.0 505486.0 0
303543.0 504222.0 0
307677.0 504094.0 0
312165.0 503373.0 0
317422.0 502996.0 0
323348.0 504910.0 0
328009.0 503090.0 0
332723.0 503992.0 0
337334.0 505389.0 0
341840.0 504118.0 0
345407.0 503948.0 0
349440.0 503156.0 0
355234.0 503519.0 0
360558.0 505592.0 0
366446.0 503741.0 0
373342.0 504373.0 0
378180.0 501983.0 0
377937.0 506458.0 0
387542.0 504684.0 0
382636.0 505134.0 0
391968.0 504151.0 0
396435.0 504328.0 0
401556.0 505383.0 0
406177.0 504548.0 0
410557.0 503702.0 0
415057.0 502292.0 0
418719.0 504247.0 0
422723.0 505313.0 0
429924.0 505031.0 0
435575.0 506383.0 0
441365.0 507114.0 0
445016.0 502790.0 0
450079.0 505080.0 0
454700.0 503418.0 0
458842.0 504832.0 0
462274.0 504338.0 0
466646.0 505735.0 0
471109.0 507176.0 0
474547.0 503651.0 0
475265.0 507834.0 0
478887.0 507946.0 0
482330.0 507146.0 0
485551.0 504890.0 0
488596.0 507433.0 0
493601.0 502916.0 0
490276.0 504856.0 0
492980.0 507650.0 0
497793.0 504180.0 0
2114.67 509789.0 0
4627.63 512872.0 0
7512.9 508557.0 0
13424.8 510595.0 0
20223.1 510622.0 0
27931.0 509101.0 0
32354.8 512708.0 0
37438.1 510173.0 0
46271.2 509197.0 0
42074.0 512677.0 0
56960.2 511255.0 0
61141.4 508843.0 0
65038.3 511591.0 0
68958.4 509652.0 0
76105.8 507780.0 0
72540.7 511637.0 0
81627.6 509531.0 0
86675.8 509595.0 0
90521.4 510725.0 0
94126.4 509606.0 0
98099.3 507429.0 0
102736.0 509759.0 0
107466.0 508272.0 0
112094.0 509105.0 0
118294.0 510229.0 0
123462.0 508843.0 0
127971.0 508569.0 0
133021.0 509072.0 0
138713.0 508421.0 0
143338.0 509244.0 0
151904.0 509282.0 0
147991.0 511411.0 0
156591.0 509423.0 0
161566.0 508940.0 0
166925.0 508013.0 0
173251.0 509053.0 0
178607.0 509255.0 0
183696.0 510100.0 0
189478.0 509244.0 0
193931.0 510362.0 0
199729.0 509285.0 0
203860.0 509871.0 0
208350.0 510138.0 0
212751.0 508253.0 0
219064.0 509558.0 0
223351.0 509080.0 0
227639.0 509118.0 0
232480.0 508564.0 0
237925.0 509314.0 0
242455.0 509962.0 0
246843.0 508208.0 0
252031.0 509715.0 0
257416.0 509734.0 0
262238.0 511245.0 0
267719.0 509121.0 0
271785.0 508689.0 0
276121.0 509125.0 0
284218.0 507859.0 0
288491.0 510147.0 0
293499.0 507842.0 0
298729.0 510245.0 0
302535.0 509007.0 0
306726.0 508004.0 0
311758.0 509044.0 0
316897.0 507852.0 0
321367.0 509804.0 0
324899.0 508772.0 0
328722.0 507794.0 0
334182.0 509607.0 0
339609.0 509239.0 0
344174.0 508175.0 0
350109.0 508792.0 0
356700.0 510295.0 0
363190.0 510207.0 0
369259.0 508575.0 0
374705.0 509700.0 0
379465.0 510389.0 0
383653.0 510551.0 0
387816.0 509105.0 0
392788.0 509146.0 0
397396.0 508380.0 0
401177.0 509860.0 0
405575.0 509273.0 0
411531.0 509499.0 0
417115.0 507975.0 0
421555.0 510486.0 0
426457.0 508542.0 0
431612.0 510806.0 0
442925.0 511707.0 0
447139.0 508756.0 0
452784.0 508262.0 0
451378.0 512336.0 0
455332.0 511393.0 0
457504.0 508240.0 0
458863.0 511973.0 0
462447.0 508912.0 0
463816.0 513449.0 0
467483.0 510127.0 0
472360.0 511570.0 0
477086.0 511700.0 0
481506.0 510985.0 0
485428.0 509465.0 0
489783.0 511839.0 0
497438.0 508412.0 0
2096.46 515964.0 0
9132.29 513899.0 0
10928.4 517996.0 0
14036.6 515611.0 0
17269.9 513431.0 0
17817.1 517289.0 0
21034.2 514595.0 0
25648.2 513581.0 0
33823.5 516366.0 0
37049.8 514989.0 0
44605.9 517551.0 0
47556.8 513494.0 0
52574.2 513273.0 0
56793.5 516009.0 0
60789.7 513371.0 0
61042.6 517202.0 0
64730.4 515966.0 0
68766.8 514232.0 0
72698.1 515751.0 0
77062.9 513807.0 0
81340.5 516955.0 0
84122.2 513548.0 0
88060.8 513677.0 0
92798.0 514711.0 0
97729.3 512561.0 0
102000.0 514481.0 0
107013.0 513454.0 0
112899.0 514573.0 0
118499.0 515596.0 0
123524.0 514080.0 0
128650.0 513055.0 0
133360.0 514559.0 0
138812.0 514137.0 0
143939.0 513311.0 0
146900.0 515662.0 0
152600.0 513701.0 0
157991.0 513916.0 0
162833.0 513071.0 0
168125.0 513452.0 0
172593.0 514805.0 0
177269.0 514455.0 0
182447.0 515016.0 0
187129.0 514139.0 0
192302.0 514382.0 0
197966.0 514018.0 0
202938.0 513863.0 0
207344.0 514845.0 0
212087.0 513204.0 0
217235.0 514628.0 0
222487.0 513330.0 0
227472.0 514650.0 0
232511.0 513269.0 0
237161.0 513604.0 0
241427.0 514404.0 0
246153.0 513209.0 0
250412.0 514723.0 0
254589.0 514222.0 0
258862.0 514906.0 0
267368.0 514444.0 0
272448.0 512593.0 0
277110.0 514417.0 0
283048.0 513228.0 0
288048.0 514689.0 0
292584.0 513423.0 0
297195.0 514157.0 0
301912.0 514015.0 0
306777.0 512730.0 0
316057.0 512735.0 0
311369.0 514460.0 0
320399.0 514207.0 0
326126.0 513549.0 0
332539.0 515631.0 0
338235.0 514639.0 0
343292.0 513097.0 0
348002.0 514201.0 0
353205.0 514776.0 0
358472.0 515813.0 0
363069.0 515672.0 0
367495.0 514230.0 0
372217.0 513820.0 0
377239.0 515085.0 0
381654.0 513621.0 0
386569.0 513585.0 0
391688.0 513852.0 0
396240.0 512982.0 0
401210.0 514667.0 0
406339.0 514030.0 0
411322.0 515832.0 0
416679.0 513217.0 0
420684.0 516764.0 0
426348.0 514689.0 0
433790.0 515876.0 0
437760.0 512180.0 0
442920.0 516470.0 0
438445.0 516935.0 0
446735.0 513744.0 0
450266.0 517207.0 0
455018.0 514881.0 0
459510.0 515968.0 0
465254.0 517676.0 0
468721.0 514299.0 0
474798.0 515995.0 0
480321.0 514902.0 0
484993.0 514206.0 0
494011.0 513968.0 0
490685.0 516781.0 0
497829.0 512602.0 0
497281.0 517096.0 0
6099.53 518431.0 0
9871.09 522132.0 0
14456.9 520244.0 0
19755.7 522235.0 0
23751.0 518200.0 0
29579.6 517977.0 0
35353.3 519947.0 0
30923.9 522931.0 0
40054.0 518139.0 0
46453.9 522544.0 0
49929.9 518039.0 0
54194.8 519845.0 0
58452.4 520680.0 0
63700.5 520705.0 0
69290.7 519626.0 0
75003.1 519660.0 0
79578.0 521287.0 0
86946.1 519117.0 0
93106.2 520200.0 0
98521.7 518261.0 0
104098.0 518138.0 0
108895.0 518886.0 0
113996.0 519982.0 0
118997.0 520858.0 0
123728.0 519109.0 0
128569.0 518215.0 0
133201.0 519072.0 0
137685.0 519498.0 0
141724.0 521995.0 0
143192.0 517449.0 0
146729.0 519715.0 0
150671.0 517674.0 0
155638.0 517705.0 0
161178.0 517960.0 0
167238.0 519519.0 0
173009.0 519085.0 0
178153.0 519943.0 0
183675.0 519774.0 0
189306.0 518861.0 0
194240.0 518893.0 0
203793.0 518051.0 0
199106.0 519648.0 0
208281.0 519890.0 0
213129.0 518443.0 0
217850.0 519927.0 0
222500.0 519066.0 0
227501.0 519227.0 0
231800.0 517480.0 0
231695.0 521669.0 0
235793.0 517780.0 0
241052.0 518787.0 0
246265.0 519054.0 0
252706.0 519482.0 0
257745.0 518602.0 0
257365.0 521940.0 0
262617.0 517875.0 0
268513.0 519170.0 0
272360.0 517243.0 0
276533.0 519446.0 0
282768.0 519027.0 0
287810.0 519091.0 0
293307.0 518877.0 0
297980.0 517997.0 0
302077.0 520121.0 0
306684.0 517599.0 0
311424.0 519681.0 0
317212.0 518528.0 0
322924.0 518751.0 0
326744.0 518486.0 0
331478.0 520057.0 0
328116.0 522010.0 0
335610.0 520497.0 0
340759.0 519357.0 0
345158.0 517489.0 0
349831.0 518772.0 0
355382.0 520901.0 0
361438.0 520367.0 0
367012.0 519542.0 0
372397.0 518698.0 0
377407.0 520799.0 0
382695.0 518236.0 0
388829.0 518274.0 0
396887.0 518053.0 0
393170.0 520491.0 0
401856.0 520240.0 0
406891.0 518759.0 0
411149.0 521203.0 0
415983.0 519137.0 0
420240.0 521605.0 0
424779.0 520776.0 0
430285.0 519800.0 0
435884.0 520668.0 0
441004.0 521166.0 0
446256.0 518346.0 0
445659.0 521579.0 0
451552.0 522554.0 0
455830.0 519527.0 0
461244.0 520665.0 0
466227.0 522131.0 0
470344.0 518872.0 0
478936.0 518491.0 0
475278.0 521402.0 0
479492.0 521787.0 0
483089.0 518300.0 0
482729.0 522016.0 0
487704.0 521099.0 0
493493.0 520155.0 0
497795.0 521574.0 0
2813.99 522816.0 0
6920.98 525627.0 0
12979.1 524752.0 0
15627.9 523588.0 0
16819.7 527570.0 0
22488.0 527649.0 0
26081.5 523161.0 0
29591.5 527378.0 0
33971.2 524086.0 0
40242.0 523725.0 0
44737.3 527483.0 0
51321.5 522574.0 0
49798.2 526240.0 0
55301.6 524840.0 0
60570.1 525045.0 0
66465.0 526045.0 0
71521.7 525819.0 0
72018.3 522915.0 0
76095.4 525185.0 0
81856.0 525717.0 0
87727.4 525654.0 0
92583.2 524768.0 0
97186.5 524004.0 0
102246.0 522402.0 0
107618.0 524921.0 0
113530.0 524957.0 0
118548.0 526062.0 0
123416.0 524160.0 0
128611.0 523377.0 0
133567.0 523605.0 0
137972.0 525134.0 0
145553.0 524545.0 0
150803.0 523378.0 0
156868.0 522921.0 0
162716.0 523896.0 0
171023.0 523929.0 0
175394.0 525567.0 0
179642.0 524643.0 0
183142.0 523712.0 0
187195.0 523885.0 0
192567.0 523461.0 0
197891.0 525279.0 0
202891.0 523138.0 0
206877.0 525295.0 0
211052.0 523934.0 0
215706.0 524275.0 0
221149.0 524378.0 0
227093.0 524557.0 0
237699.0 523593.0 0
243956.0 524310.0 0
249005.0 524020.0 0
254270.0 525580.0 0
260307.0 523972.0 0
265480.0 523032.0 0
272358.0 523547.0 0
279453.0 524143.0 0
285592.0 523247.0 0
290225.0 522970.0 0
293404.0 526199.0 0
297257.0 523255.0 0
302220.0 525205.0 0
306785.0 522974.0 0
312347.0 525739.0 0
318339.0 524356.0 0
323481.0 523691.0 0
332388.0 524460.0 0
337027.0 525081.0 0
340937.0 523930.0 0
345651.0 522626.0 0
351023.0 524885.0 0
359165.0 525149.0 0
364254.0 524835.0 0
368831.0 524194.0 0
373203.0 523541.0 0
377077.0 525881.0 0
381116.0 524035.0 0
386641.0 524304.0 0
392899.0 525321.0 0
397921.0 523560.0 0
402151.0 525131.0 0
406955.0 524226.0 0
415078.0 524917.0 0
420270.0 526417.0 0
424062.0 524941.0 0
428413.0 524947.0 0
433540.0 525292.0 0
438368.0 525245.0 0
443074.0 524757.0 0
447614.0 526331.0 0
452915.0 527111.0 0
457646.0 524858.0 0
462765.0 525182.0 0
467314.0 526933.0 0
470778.0 523608.0 0
474188.0 525989.0 0
478574.0 525329.0 0
483234.0 525825.0 0
487850.0 526510.0 0
492492.0 524825.0 0
497566.0 525827.0 0
2510.47 527908.0 0
6905.94 530484.0 0
11594.0 528711.0 0
10905.4 532720.0 0
14881.0 532368.0 0
20646.7 532628.0 0
26262.7 531362.0 0
35531.6 528979.0 0
40897.2 528855.0 0
44711.7 531977.0 0
49052.9 529960.0 0
53354.7 529575.0 0
61489.1 529899.0 0
65608.7 531099.0 0
69362.1 530610.0 0
73171.1 529190.0 0
78698.2 529058.0 0
82658.5 530754.0 0
87390.0 531177.0 0
92215.4 529346.0 0
97191.8 529121.0 0
102302.0 528362.0 0
106969.0 530728.0 0
111225.0 529251.0 0
115892.0 530629.0 0
121165.0 530650.0 0
126579.0 528867.0 0
132451.0 528582.0 0
137128.0 529706.0 0
142249.0 528723.0 0
147692.0 528343.0 0
152562.0 529075.0 0
157431.0 528015.0 0
161987.0 529443.0 0
167192.0 527962.0 0
172465.0 528930.0 0
178230.0 529896.0 0
183553.0 527805.0 0
186248.0 532175.0 0
190364.0 528468.0 0
195328.0 529971.0 0
203306.0 528488.0 0
199695.0 530593.0 0
208033.0 529353.0 0
212442.0 528560.0 0
217644.0 529006.0 0
223437.0 529114.0 0
227781.0 529529.0 0
232832.0 528857.0 0
238276.0 529577.0 0
242408.0 528524.0 0
246734.0 528359.0 0
251559.0 530027.0 0
257643.0 529953.0 0
262645.0 528221.0 0
268084.0 528272.0 0
273506.0 530186.0 0
279423.0 530318.0 0
283883.0 527416.0 0
288941.0 528026.0 0
293740.0 530409.0 0
298741.0 528998.0 0
302730.0 528778.0 0
302563.0 531933.0 0
307518.0 528478.0 0
312902.0 531540.0 0
316427.0 529066.0 0
321328.0 529344.0 0
327616.0 527815.0 0
333378.0 529478.0 0
340702.0 528055.0 0
337692.0 530848.0 0
346429.0 529171.0 0
352408.0 529753.0 0
357978.0 530731.0 0
362591.0 528691.0 0
367495.0 529418.0 0
373059.0 528453.0 0
377499.0 530603.0 0
382856.0 529524.0 0
388639.0 530124.0 0
397207.0 528002.0 0
393628.0 530549.0 0
401496.0 529702.0 0
407000.0 530000.0 0
412735.0 530130.0 0
417125.0 528987.0 0
420028.0 530557.0 0
425013.0 529817.0 0
431027.0 529643.0 0
436028.0 528878.0 0
441810.0 529413.0 0
447321.0 532386.0 0
451985.0 530895.0 0
457071.0 531081.0 0
462463.0 529527.0 0
466704.0 531846.0 0
471411.0 528884.0 0
475987.0 530430.0 0
480505.0 529099.0 0
484738.0 530266.0 0
489544.0 531008.0 0
494640.0 529982.0 0
2463.18 532772.0 0
3578.6 537609.0 0
7981.57 535266.0 0
12368.1 536109.0 0
17429.1 536509.0 0
22549.6 536790.0 0
26767.6 536002.0 0
30970.3 533545.0 0
35665.2 534839.0 0
40161.3 533083.0 0
43595.6 535919.0 0
48568.3 534042.0 0
52482.1 533652.0 0
57393.7 533941.0 0
63095.1 534502.0 0
67660.6 534405.0 0
72989.9 534432.0 0
78398.1 533090.0 0
82656.4 535122.0 0
86432.4 535148.0 0
90307.3 534579.0 0
95364.9 534129.0 0
101244.0 534011.0 0
106642.0 535776.0 0
111876.0 534089.0 0
118353.0 535306.0 0
123299.0 535089.0 0
127606.0 533989.0 0
132193.0 533883.0 0
137208.0 534302.0 0
141694.0 535537.0 0
146280.0 533286.0 0
151455.0 535572.0 0
156140.0 532961.0 0
161922.0 535731.0 0
169375.0 534292.0 0
176060.0 535668.0 0
181686.0 534683.0 0
191102.0 533733.0 0
195840.0 534628.0 0
200565.0 535954.0 0
204914.0 533009.0 0
208558.0 535016.0 0
206521.0 537471.0 0
211908.0 533201.0 0
216788.0 534373.0 0
221974.0 533606.0 0
226972.0 534056.0 0
232195.0 533126.0 0
231221.0 537495.0 0
236305.0 534407.0 0
241701.0 533034.0 0
247016.0 533459.0 0
251669.0 534276.0 0
256345.0 535109.0 0
261592.0 533557.0 0
266351.0 532722.0 0
270533.0 535032.0 0
276605.0 535091.0 0
284856.0 532511.0 0
290124.0 532851.0 0
293752.0 535002.0 0
297379.0 533439.0 0
304684.0 536547.0 0
307369.0 532407.0 0
310201.0 534823.0 0
313888.0 536534.0 0
316939.0 533500.0 0
326148.0 533160.0 0
321572.0 535321.0 0
331782.0 534496.0 0
336614.0 534947.0 0
341641.0 533679.0 0
346477.0 534873.0 0
350366.0 533704.0 0
354418.0 534851.0 0
363342.0 534021.0 0
368440.0 534635.0 0
372501.0 533136.0 0
376751.0 535719.0 0
381062.0 534037.0 0
385556.0 534578.0 0
391429.0 535326.0 0
397779.0 533835.0 0
403376.0 534449.0 0
408067.0 535027.0 0
412455.0 535351.0 0
416894.0 533464.0 0
421663.0 534262.0 0
426401.0 536583.0 0
432413.0 535389.0 0
437677.0 533109.0 0
442307.0 535258.0 0
448112.0 537914.0 0
452791.0 534780.0 0
457264.0 536705.0 0
462150.0 534745.0 0
467926.0 536238.0 0
471478.0 533280.0 0
475492.0 535156.0 0
480689.0 534342.0 0
486490.0 534912.0 0
491877.0 535799.0 0
497285.0 534709.0 0
2738.01 542774.0 0
8322.9 540075.0 0
14206.8 540052.0 0
20048.6 540950.0 0
25341.9 540583.0 0
32327.0 540446.0 0
39181.5 538364.0 0
43082.1 542132.0 0
47895.4 539196.0 0
53181.5 537837.0 0
58187.2 540156.0 0
64168.9 539708.0 0
69907.2 539674.0 0
74949.1 540098.0 0
79015.3 537834.0 0
82985.2 539183.0 0
87587.8 539502.0 0
93211.9 539527.0 0
98936.3 539356.0 0
103968.0 539947.0 0
107277.0 539784.0 0
111672.0 539923.0 0
116441.0 542585.0 0
120471.0 540000.0 0
124242.0 539224.0 0
128380.0 538610.0 0
132846.0 538218.0 0
136827.0 538989.0 0
141043.0 539714.0 0
146471.0 539226.0 0
151934.0 540941.0 0
156597.0 538990.0 0
161070.0 541326.0 0
166753.0 540525.0 0
172433.0 539202.0 0
170969.0 542588.0 0
179318.0 539270.0 0
184204.0 539888.0 0
189365.0 538208.0 0
193694.0 539205.0 0
197544.0 539028.0 0
202972.0 539807.0 0
207515.0 542287.0 0
212428.0 538894.0 0
217073.0 538885.0 0
221229.0 538436.0 0
225993.0 539077.0 0
235869.0 539325.0 0
240586.0 538231.0 0
248640.0 538227.0 0
244904.0 542425.0 0
252776.0 537967.0 0
256213.0 540096.0 0
260147.0 538179.0 0
265479.0 538003.0 0
270067.0 542014.0 0
272744.0 538536.0 0
275489.0 539011.0 0
277853.0 542013.0 0
281939.0 538042.0 0
288334.0 537607.0 0
293494.0 539674.0 0
298821.0 537855.0 0
309286.0 538500.0 0
312909.0 541272.0 0
317708.0 538344.0 0
323333.0 540519.0 0
327675.0 537681.0 0
332500.0 539130.0 0
336743.0 539556.0 0
341920.0 539246.0 0
351667.0 538394.0 0
347075.0 539235.0 0
354276.0 542036.0 0
357547.0 538474.0 0
363182.0 540349.0 0
368452.0 538892.0 0
373315.0 540190.0 0
378954.0 540041.0 0
382533.0 538111.0 0
387122.0 540080.0 0
392306.0 541231.0 0
395641.0 538433.0 0
400467.0 539001.0 0
405645.0 538856.0 0
410825.0 540434.0 0
416452.0 539411.0 0
421613.0 539048.0 0
425676.0 542175.0 0
430718.0 541000.0 0
437697.0 538576.0 0
443299.0 540956.0 0
453084.0 539860.0 0
448303.0 542172.0 0
458291.0 540694.0 0
462609.0 539639.0 0
467380.0 541117.0 0
472012.0 538060.0 0
477423.0 539606.0 0
483867.0 538731.0 0
481798.0 542664.0 0
488179.0 539036.0 0
491437.0 541557.0 0
495964.0 539879.0 0
2120.24 547470.0 0
7356.51 544972.0 0
11531.6 543085.0 0
11338.5 546748.0 0
16042.0 545040.0 0
22945.3 545312.0 0
27548.2 544740.0 0
38078.3 545433.0 0
44047.2 546666.0 0
47414.7 544285.0 0
52256.4 543133.0 0
57332.3 546151.0 0
62673.6 544869.0 0
67604.7 544743.0 0
72691.1 544459.0 0
77891.1 543873.0 0
83374.3 543906.0 0
88780.2 544434.0 0
93574.0 544379.0 0
97513.1 543979.0 0
102532.0 545151.0 0
107434.0 543034.0 0
111805.0 546264.0 0
120449.0 545788.0 0
125843.0 543538.0 0
131715.0 542939.0 0
137328.0 543869.0 0
143257.0 544599.0 0
148395.0 543858.0 0
157476.0 543954.0 0
153102.0 545421.0 0
163492.0 543846.0 0
168277.0 545877.0 0
175996.0 543280.0 0
182155.0 545266.0 0
189149.0 543443.0 0
194263.0 543986.0 0
199477.0 543384.0 0
203699.0 545162.0 0
210972.0 545952.0 0
216273.0 544369.0 0
221767.0 542718.0 0
221922.0 547378.0 0
226562.0 544367.0 0
232509.0 543513.0 0
238493.0 543351.0 0
251513.0 543061.0 0
256970.0 544615.0 0
261866.0 542797.0 0
266258.0 546116.0 0
274199.0 544722.0 0
283161.0 544415.0 0
288709.0 542925.0 0
292997.0 545161.0 0
297070.0 542668.0 0
302852.0 542958.0 0
308658.0 543762.0 0
318338.0 543622.0 0
324005.0 545962.0 0
328653.0 542884.0 0
333903.0 544640.0 0
339398.0 543950.0 0
344726.0 543647.0 0
349772.0 543265.0 0
358643.0 544914.0 0
363868.0 545909.0 0
368176.0 543602.0 0
372354.0 544747.0 0
377003.0 544627.0 0
382447.0 543380.0 0
387497.0 544743.0 0
391560.0 545301.0 0
395701.0 544499.0 0
400781.0 544440.0 0
406201.0 544004.0 0
410609.0 545289.0 0
414801.0 544392.0 0
420421.0 544475.0 0
428600.0 545081.0 0
431082.0 544709.0 0
435608.0 544580.0 0
441626.0 546825.0 0
446206.0 545249.0 0
450931.0 545964.0 0
455904.0 544236.0 0
461260.0 544452.0 0
466267.0 546332.0 0
472775.0 543148.0 0
470770.0 547896.0 0
477692.0 544918.0 0
486946.0 543818.0 0
493935.0 544720.0 0
498095.0 543950.0 0
3131.31 552098.0 0
8073.62 549949.0 0
13525.7 549645.0 0
16956.7 549677.0 0
20948.3 549758.0 0
25901.3 550368.0 0
31856.0 548347.0 0
36912.2 550942.0 0
41345.0 550127.0 0
47500.7 550487.0 0
53095.0 549628.0 0
58795.4 551373.0 0
63718.8 549926.0 0
68352.6 549121.0 0
72521.6 549284.0 0
77240.3 548950.0 0
82076.5 549013.0 0
86348.6 548017.0 0
91354.3 548919.0 0
96853.7 548367.0 0
101391.0 551030.0 0
107485.0 551201.0 0
116471.0 548968.0 0
113025.0 551084.0 0
121249.0 550525.0 0
125958.0 549632.0 0
132140.0 549294.0 0
137918.0 549494.0 0
147701.0 548432.0 0
142950.0 549985.0 0
152761.0 550051.0 0
157648.0 548942.0 0
162855.0 548327.0 0
167574.0 550878.0 0
172670.0 548018.0 0
172426.0 552286.0 0
178389.0 548367.0 0
182671.0 550372.0 0
186685.0 547939.0 0
192371.0 548585.0 0
196946.0 549038.0 0
201453.0 548751.0 0
207108.0 548781.0 0
212749.0 549106.0 0
214169.0 552686.0 0
217690.0 550288.0 0
226909.0 549433.0 0
231659.0 549141.0 0
236564.0 548570.0 0
241333.0 547772.0 0
240141.0 551131.0 0
243930.0 552001.0 0
245896.0 547774.0 0
250518.0 548934.0 0
255257.0 548740.0 0
260817.0 548963.0 0
266654.0 551522.0 0
271170.0 548373.0 0
277983.0 548180.0 0
283169.0 551158.0 0
288257.0 548194.0 0
293286.0 550050.0 0
298271.0 547867.0 0
303330.0 548492.0 0
303158.0 552474.0 0
308053.0 548763.0 0
314202.0 548833.0 0
319112.0 548395.0 0
322349.0 551558.0 0
329506.0 548252.0 0
333642.0 548931.0 0
337193.0 548756.0 0
342496.0 549039.0 0
346302.0 551896.0 0
347842.0 548574.0 0
353129.0 547838.0 0
357946.0 549922.0 0
362607.0 550740.0 0
367835.0 549070.0 0
373583.0 549348.0 0
382610.0 548598.0 0
378361.0 549404.0 0
387500.0 549279.0 0
390959.0 549111.0 0
394296.0 548494.0 0
398083.0 548671.0 0
405963.0 550043.0 0
412208.0 549726.0 0
417832.0 549650.0 0
422960.0 549384.0 0
427788.0 548938.0 0
432612.0 549765.0 0
437461.0 550156.0 0
441384.0 551445.0 0
447044.0 549414.0 0
451581.0 551092.0 0
455980.0 549045.0 0
461019.0 550022.0 0
466026.0 550932.0 0
471050.0 552955.0 0
475767.0 549741.0 0
482422.0 548568.0 0
488819.0 548982.0 0
492843.0 551581.0 0
497010.0 548567.0 0
1747.86 556302.0 0
7283.17 554670.0 0
11760.4 553275.0 0
12636.9 557741.0 0
17996.3 553924.0 0
22479.8 553791.0 0
25894.3 554901.0 0
29679.6 556904.0 0
33637.9 554061.0 0
37234.2 556010.0 0
41646.5 555305.0 0
46582.5 555750.0 0
51795.9 554995.0 0
57017.3 555629.0 0
62281.5 555260.0 0
67543.9 553859.0 0
72531.7 553870.0 0
81328.4 554128.0 0
76679.9 554923.0 0
87071.5 553019.0 0
92351.4 554156.0 0
97293.3 554304.0 0
102481.0 556165.0 0
106816.0 556350.0 0
111768.0 555041.0 0
117640.0 554498.0 0
123432.0 554245.0 0
128699.0 554704.0 0
133961.0 554169.0 0
137950.0 554111.0 0
141792.0 554039.0 0
146785.0 554129.0 0
152227.0 554947.0 0
159616.0 553102.0 0
163545.0 553466.0 0
166874.0 555417.0 0
178051.0 553879.0 0
183476.0 555067.0 0
188427.0 552953.0 0
194095.0 553672.0 0
197010.0 557848.0 0
199247.0 553496.0 0
204357.0 553578.0 0
209683.0 553925.0 0
213812.0 557054.0 0
217513.0 554667.0 0
222187.0 552863.0 0
220550.0 557704.0 0
226323.0 553254.0 0
225435.0 557199.0 0
230521.0 554630.0 0
235813.0 553297.0 0
240149.0 554950.0 0
250424.0 554315.0 0
256517.0 554226.0 0
262603.0 554599.0 0
267417.0 557007.0 0
272583.0 553979.0 0
278378.0 553974.0 0
283066.0 556715.0 0
289556.0 553707.0 0
294474.0 554556.0 0
298928.0 553271.0 0
303315.0 557545.0 0
307325.0 553870.0 0
312509.0 554917.0 0
317472.0 553462.0 0
319920.0 557745.0 0
324148.0 556084.0 0
327550.0 552986.0 0
332757.0 553111.0 0
338629.0 554114.0 0
343913.0 554725.0 0
350647.0 553760.0 0
354766.0 557818.0 0
358260.0 554297.0 0
363485.0 555572.0 0
368137.0 554417.0 0
373358.0 554982.0 0
376887.0 557293.0 0
378029.0 553646.0 0
382987.0 553728.0 0
387602.0 554023.0 0
390619.0 554035.0 0
391063.0 557479.0 0
394804.0 553208.0 0
400778.0 553005.0 0
400561.0 557363.0 0
404220.0 556437.0 0
409702.0 555554.0 0
416341.0 555344.0 0
423167.0 554996.0 0
428580.0 553694.0 0
433208.0 554576.0 0
438411.0 555332.0 0
444066.0 555012.0 0
448657.0 554194.0 0
452060.0 555010.0 0
457179.0 554836.0 0
462827.0 554343.0 0
466843.0 555314.0 0
476462.0 555949.0 0
482896.0 555174.0 0
488630.0 554250.0 0
492909.0 555233.0 0
497141.0 554299.0 0
3882.91 559507.0 0
8281.4 558913.0 0
13137.6 563100.0 0
16951.8 558639.0 0
19211.3 563174.0 0
21790.8 558226.0 0
25743.3 558515.0 0
34241.4 558954.0 0
38916.0 559493.0 0
43789.2 560264.0 0
47935.1 559234.0 0
51945.7 560622.0 0
59301.7 560044.0 0
64883.3 560254.0 0
69293.9 558680.0 0
74083.4 558258.0 0
71682.1 563022.0 0
77393.6 558791.0 0
80717.6 559218.0 0
77198.7 562364.0 0
86338.0 559305.0 0
92919.1 559129.0 0
98336.9 559556.0 0
103088.0 560137.0 0
109220.0 559416.0 0
113347.0 559088.0 0
122352.0 558996.0 0
117521.0 560196.0 0
122419.0 562517.0 0
126474.0 559594.0 0
131731.0 558905.0 0
136711.0 558467.0 0
139970.0 560905.0 0
143701.0 559152.0 0
149630.0 558712.0 0
152956.0 562151.0 0
156952.0 557948.0 0
162907.0 558088.0 0
160721.0 562517.0 0
167754.0 559976.0 0
173074.0 557962.0 0
178731.0 559996.0 0
183205.0 559473.0 0
186908.0 558341.0 0
192052.0 558553.0 0
190259.0 562775.0 0
202075.0 558384.0 0
207556.0 559037.0 0
212566.0 562887.0 0
217045.0 559882.0 0
223118.0 562053.0 0
229420.0 559675.0 0
236378.0 558748.0 0
240620.0 560807.0 0
245213.0 558102.0 0
252687.0 559169.0 0
257391.0 559639.0 0
262098.0 559339.0 0
272523.0 560068.0 0
277732.0 558959.0 0
281446.0 562693.0 0
289367.0 558445.0 0
285844.0 560495.0 0
292999.0 558117.0 0
292455.0 562914.0 0
297447.0 559024.0 0
303100.0 562826.0 0
308939.0 559447.0 0
314881.0 560309.0 0
323706.0 560833.0 0
328632.0 558509.0 0
334553.0 558305.0 0
332220.0 562746.0 0
338325.0 560155.0 0
343016.0 560007.0 0
348482.0 558928.0 0
358980.0 558233.0 0
359031.0 562083.0 0
362260.0 559474.0 0
366668.0 559316.0 0
371895.0 560218.0 0
377192.0 561538.0 0
380621.0 557976.0 0
386306.0 558212.0 0
383127.0 562915.0 0
392463.0 562207.0 0
396494.0 558915.0 0
401666.0 562427.0 0
407507.0 561024.0 0
412884.0 561001.0 0
417772.0 560397.0 0
421727.0 559958.0 0
425876.0 559707.0 0
430111.0 558115.0 0
430287.0 562990.0 0
434998.0 560005.0 0
441592.0 560174.0 0
447592.0 559042.0 0
452804.0 559149.0 0
457525.0 560654.0 0
461627.0 558535.0 0
461598.0 562857.0 0
465785.0 559797.0 0
470674.0 558601.0 0
476646.0 561784.0 0
480406.0 559497.0 0
485188.0 560110.0 0
491185.0 559963.0 0
497367.0 559694.0 0
2104.59 563339.0 0
7225.45 563821.0 0
24985.8 563090.0 0
30714.5 563071.0 0
40471.7 563602.0 0
35958.9 564585.0 0
43917.4 565962.0 0
47737.9 563444.0 0
47702.2 568202.0 0
51961.9 565453.0 0
56878.0 564959.0 0
62118.0 565076.0 0
66782.0 564835.0 0
82298.8 564162.0 0
88446.5 565614.0 0
92592.0 563230.0 0
94225.3 567040.0 0
97500.0 564126.0 0
102118.0 563934.0 0
106949.0 563380.0 0
111959.0 563209.0 0
113636.0 567945.0 0
117529.0 564799.0 0
122184.0 566902.0 0
127295.0 564613.0 0
132143.0 563496.0 0
137409.0 563387.0 0
134945.0 566974.0 0
142301.0 564005.0 0
139589.0 567955.0 0
147472.0 563466.0 0
156951.0 564931.0 0
161795.0 567633.0 0
165143.0 563836.0 0
167733.0 567911.0 0
171575.0 563830.0 0
176512.0 564579.0 0
180613.0 564497.0 0
185371.0 563455.0 0
189272.0 567052.0 0
195374.0 563489.0 0
198646.0 567849.0 0
201350.0 563796.0 0
206598.0 564286.0 0
218402.0 564167.0 0
222302.0 567398.0 0
227617.0 564896.0 0
232652.0 563216.0 0
238039.0 564658.0 0
243652.0 564362.0 0
248535.0 563133.0 0
251784.0 566294.0 0
255075.0 563298.0 0
259840.0 563675.0 0
266556.0 564023.0 0
272507.0 564974.0 0
276364.0 563632.0 0
286834.0 565090.0 0
298367.0 564875.0 0
303337.0 567868.0 0
307286.0 564068.0 0
312103.0 565492.0 0
318687.0 564535.0 0
323349.0 565205.0 0
327642.0 564077.0 0
337136.0 563875.0 0
341507.0 565132.0 0
347493.0 564409.0 0
353350.0 563127.0 0
357781.0 567326.0 0
363842.0 563823.0 0
368554.0 563540.0 0
372346.0 564125.0 0
373597.0 567345.0 0
378617.0 566464.0 0
388370.0 564494.0 0
392193.0 567182.0 0
396684.0 564312.0 0
408263.0 565691.0 0
412574.0 565933.0 0
417470.0 564226.0 0
423138.0 563877.0 0
426948.0 567284.0 0
438181.0 563754.0 0
434003.0 564142.0 0
435746.0 567825.0 0
442197.0 567889.0 0
445519.0 563189.0 0
449943.0 563615.0 0
454262.0 563440.0 0
457994.0 565179.0 0
454490.0 567986.0 0
461927.0 567030.0 0
465965.0 564500.0 0
471723.0 564548.0 0
476593.0 566316.0 0
481427.0 564070.0 0
487142.0 565109.0 0
492747.0 565835.0 0
497597.0 564649.0 0
3503.79 568879.0 0
8745.23 570175.0 0
12580.9 568480.0 0
18075.3 569252.0 0
23784.0 568347.0 0
29100.2 568545.0 0
33805.5 568518.0 0
38535.5 569384.0 0
43652.6 570481.0 0
51947.1 569997.0 0
56932.2 570368.0 0
61749.8 569772.0 0
66347.0 569390.0 0
71553.6 568898.0 0
78112.4 569538.0 0
84024.7 568939.0 0
87606.1 570665.0 0
92165.3 572316.0 0
99213.9 568935.0 0
103873.0 569911.0 0
108326.0 568302.0 0
118157.0 569067.0 0
121293.0 572480.0 0
126375.0 569523.0 0
130932.0 568474.0 0
129676.0 572584.0 0
135384.0 572652.0 0
141605.0 572820.0 0
144833.0 568486.0 0
152066.0 568321.0 0
157544.0 570276.0 0
174186.0 569162.0 0
179486.0 568638.0 0
184311.0 568845.0 0
188711.0 572962.0 0
193939.0 569471.0 0
198459.0 572869.0 0
202605.0 569626.0 0
207373.0 569404.0 0
212801.0 569267.0 0
217708.0 568642.0 0
216524.0 573210.0 0
226594.0 569576.0 0
231508.0 568643.0 0
233376.0 572977.0 0
236422.0 569258.0 0
241205.0 569339.0 0
247336.0 568240.0 0
251881.0 570301.0 0
256801.0 568644.0 0
262002.0 568706.0 0
266377.0 571325.0 0
272461.0 569712.0 0
277625.0 568912.0 0
282469.0 568175.0 0
287482.0 570340.0 0
293493.0 569567.0 0
298934.0 569754.0 0
308216.0 568738.0 0
315522.0 569835.0 0
311362.0 570911.0 0
320567.0 569338.0 0
318556.0 573161.0 0
326251.0 569593.0 0
333303.0 568806.0 0
339273.0 569451.0 0
343621.0 568945.0 0
347552.0 569215.0 0
351973.0 568603.0 0
357140.0 572597.0 0
363088.0 568842.0 0
368274.0 568370.0 0
372246.0 571920.0 0
377938.0 572095.0 0
383242.0 569059.0 0
388359.0 570219.0 0
396992.0 568809.0 0
393020.0 572303.0 0
402792.0 569108.0 0
407459.0 569305.0 0
406453.0 573126.0 0
411268.0 570278.0 0
416269.0 568660.0 0
421490.0 568495.0 0
431297.0 570217.0 0
449002.0 569147.0 0
453566.0 572879.0 0
458513.0 569337.0 0
462321.0 572079.0 0
465581.0 569351.0 0
469913.0 569458.0 0
474970.0 570005.0 0
480088.0 569615.0 0
485596.0 570690.0 0
490353.0 569559.0 0
496526.0 570050.0 0
3163.91 575497.0 0
8488.46 574360.0 0
13792.4 573830.0 0
18495.7 576005.0 0
23127.5 573846.0 0
28523.3 573699.0 0
33964.0 573416.0 0
38923.0 574307.0 0
42643.4 574370.0 0
47500.0 573901.0 0
52650.2 574355.0 0
57980.6 575637.0 0
62858.2 574208.0 0
67113.6 573622.0 0
67480.7 577952.0 0
73073.2 574886.0 0
78441.8 575325.0 0
82616.4 573944.0 0
87501.1 574619.0 0
97521.7 574367.0 0
102064.0 573502.0 0
102586.0 577953.0 0
107172.0 574087.0 0
111135.0 577969.0 0
113339.0 573404.0 0
115533.0 578071.0 0
117569.0 574690.0 0
120829.0 578342.0 0
125759.0 575250.0 0
131060.0 578202.0 0
147644.0 574074.0 0
152858.0 573707.0 0
156865.0 574718.0 0
153063.0 577620.0 0
162366.0 573709.0 0
165921.0 577998.0 0
168572.0 573415.0 0
173635.0 574448.0 0
178635.0 573636.0 0
183403.0 574578.0 0
180945.0 577790.0 0
193868.0 574362.0 0
191476.0 577850.0 0
203429.0 573761.0 0
201013.0 576563.0 0
207274.0 573806.0 0
211247.0 574001.0 0
214364.0 577994.0 0
218945.0 577147.0 0
223065.0 573758.0 0
228951.0 573683.0 0
232852.0 578069.0 0
238001.0 573938.0 0
243179.0 574083.0 0
240920.0 578357.0 0
248551.0 573723.0 0
254311.0 574070.0 0
259161.0 573645.0 0
257428.0 577792.0 0
262929.0 575032.0 0
267071.0 577060.0 0
270556.0 573897.0 0
272365.0 578009.0 0
276247.0 573360.0 0
277519.0 577981.0 0
282089.0 574281.0 0
287461.0 575013.0 0
291770.0 575128.0 0
297506.0 574039.0 0
305356.0 573393.0 0
301389.0 578026.0 0
309525.0 574907.0 0
313436.0 574580.0 0
317693.0 577637.0 0
322500.0 574187.0 0
328357.0 574580.0 0
332765.0 574873.0 0
336379.0 577982.0 0
336780.0 573486.0 0
340867.0 573412.0 0
345908.0 573582.0 0
352108.0 574703.0 0
361808.0 573668.0 0
357716.0 578185.0 0
367422.0 574421.0 0
372482.0 577122.0 0
377837.0 578030.0 0
383708.0 575188.0 0
388787.0 574906.0 0
393098.0 578022.0 0
398398.0 574211.0 0
411084.0 574556.0 0
408329.0 576309.0 0
414965.0 573317.0 0
413715.0 578274.0 0
420054.0 573834.0 0
426526.0 573815.0 0
432849.0 574070.0 0
432737.0 578329.0 0
437937.0 573535.0 0
443839.0 573995.0 0
448786.0 574807.0 0
458379.0 573408.0 0
456004.0 576983.0 0
466955.0 574021.0 0
472151.0 573550.0 0
477074.0 573724.0 0
481920.0 574651.0 0
489787.0 573965.0 0
493085.0 575742.0 0
497152.0 575958.0 0
2174.87 580719.0 0
6296.23 579679.0 0
11630.8 579749.0 0
17349.2 580376.0 0
22141.5 579291.0 0
28486.5 578793.0 0
25510.0 583189.0 0
33643.5 578842.0 0
38668.3 578917.0 0
43655.6 578965.0 0
48053.2 578995.0 0
52585.9 579010.0 0
56853.1 579962.0 0
62272.0 579269.0 0
71638.7 580464.0 0
76665.0 579360.0 0
81278.7 578851.0 0
77187.2 583264.0 0
85872.6 578484.0 0
91353.1 578674.0 0
97950.1 579739.0 0
106853.0 580043.0 0
102738.0 582728.0 0
111253.0 583323.0 0
116846.0 582588.0 0
125839.0 580455.0 0
137648.0 578765.0 0
134353.0 582228.0 0
143108.0 578835.0 0
149039.0 579745.0 0
157152.0 579379.0 0
161693.0 580217.0 0
165916.0 583209.0 0
170837.0 578345.0 0
176263.0 579323.0 0
186104.0 579403.0 0
192478.0 582296.0 0
196672.0 578559.0 0
202534.0 581369.0 0
208555.0 578663.0 0
218091.0 581787.0 0
222430.0 579519.0 0
227077.0 578470.0 0
233467.0 583311.0 0
237242.0 581297.0 0
246554.0 579769.0 0
252701.0 579379.0 0
257051.0 582321.0 0
262166.0 580114.0 0
268512.0 583028.0 0
275310.0 581881.0 0
282618.0 581312.0 0
288942.0 579705.0 0
295385.0 579230.0 0
303773.0 582368.0 0
307346.0 579064.0 0
312833.0 579671.0 0
316779.0 582632.0 0
325851.0 578697.0 0
321542.0 580038.0 0
331348.0 579740.0 0
338030.0 582311.0 0
342230.0 578748.0 0
348048.0 578799.0 0
352557.0 580445.0 0
361871.0 583115.0 0
363366.0 578507.0 0
368050.0 579907.0 0
382022.0 581902.0 0
387587.0 579857.0 0
397900.0 580713.0 0
403609.0 578396.0 0
406930.0 583420.0 0
409168.0 579705.0 0
411751.0 583415.0 0
418213.0 579409.0 0
422426.0 578532.0 0
427596.0 580455.0 0
436868.0 578405.0 0
437997.0 582735.0 0
442799.0 579497.0 0
447162.0 578511.0 0
448124.0 582817.0 0
451850.0 578544.0 0
455714.0 582847.0 0
461915.0 578444.0 0
468648.0 579289.0 0
474672.0 578804.0 0
479987.0 578781.0 0
481767.0 582801.0 0
486305.0 578937.0 0
492900.0 580083.0 0
498366.0 580198.0 0
2131.98 585009.0 0
6181.85 584024.0 0
10853.0 586485.0 0
16251.7 584747.0 0
20652.4 584063.0 0
27967.5 587559.0 0
32149.5 584109.0 0
37672.6 583886.0 0
42833.1 584040.0 0
48297.0 583857.0 0
52981.3 584082.0 0
57918.9 584111.0 0
62320.0 583814.0 0
61889.4 588089.0 0
67084.8 583536.0 0
72935.5 584664.0 0
80984.9 583927.0 0
76907.7 587293.0 0
86632.5 583605.0 0
92792.7 585163.0 0
98424.2 584956.0 0
106447.0 585925.0 0
116621.0 588234.0 0
121717.0 585157.0 0
126336.0 584419.0 0
130805.0 584950.0 0
139064.0 584835.0 0
145877.0 584266.0 0
152567.0 584392.0 0
158517.0 583916.0 0
162218.0 586448.0 0
166234.0 588543.0 0
171416.0 583541.0 0
177102.0 585556.0 0
182941.0 584576.0 0
188235.0 585192.0 0
197226.0 585234.0 0
202195.0 586756.0 0
206934.0 585762.0 0
212552.0 583679.0 0
217276.0 587937.0 0
222780.0 584396.0 0
228449.0 583882.0 0
233588.0 588114.0 0
237309.0 585359.0 0
241739.0 583633.0 0
247072.0 586235.0 0
252648.0 584862.0 0
258026.0 587341.0 0
263083.0 585712.0 0
273716.0 586127.0 0
278266.0 584769.0 0
283781.0 587668.0 0
287428.0 584418.0 0
292464.0 584641.0 0
298951.0 584644.0 0
303731.0 587021.0 0
307284.0 584723.0 0
311939.0 584523.0 0
321300.0 584443.0 0
316534.0 587184.0 0
327392.0 584717.0 0
333826.0 585036.0 0
338907.0 586835.0 0
342626.0 584201.0 0
347219.0 583698.0 0
356954.0 583912.0 0
352064.0 585271.0 0
355801.0 588237.0 0
360441.0 588040.0 0
366137.0 583848.0 0
370548.0 584266.0 0
376124.0 583555.0 0
386468.0 584832.0 0
383145.0 586025.0 0
391766.0 583982.0 0
396551.0 584788.0 0
397452.0 588427.0 0
401609.0 585155.0 0
416975.0 583883.0 0
422637.0 583884.0 0
427405.0 585764.0 0
432396.0 584225.0 0
442775.0 585110.0 0
451830.0 586165.0 0
461184.0 584943.0 0
465803.0 583517.0 0
466291.0 588337.0 0
471531.0 584903.0 0
477207.0 583716.0 0
476375.0 587931.0 0
479919.0 586215.0 0
486571.0 585752.0 0
491948.0 585236.0 0
497016.0 584539.0 0
4610.67 589063.0 0
8363.94 590904.0 0
14053.5 590875.0 0
17534.6 588813.0 0
22714.1 589027.0 0
27674.5 593328.0 0
32689.7 589833.0 0
38235.9 589192.0 0
43386.2 588986.0 0
48105.6 589248.0 0
52500.0 589014.0 0
55963.3 593561.0 0
56859.1 588955.0 0
66594.1 588726.0 0
67541.9 593550.0 0
71678.2 589442.0 0
78564.7 592891.0 0
82500.0 589167.0 0
83244.8 593124.0 0
87426.8 588922.0 0
91918.9 591019.0 0
97451.2 589113.0 0
97777.5 593480.0 0
102405.0 588518.0 0
106282.0 590009.0 0
102076.0 593067.0 0
110569.0 589098.0 0
112863.0 593566.0 0
122018.0 590444.0 0
126392.0 588561.0 0
127077.0 592976.0 0
131152.0 590397.0 0
136325.0 590286.0 0
141079.0 593466.0 0
143194.0 588677.0 0
148843.0 589821.0 0
154181.0 589898.0 0
158551.0 588714.0 0
162308.0 591126.0 0
167598.0 593359.0 0
171850.0 589397.0 0
177191.0 591478.0 0
180907.0 589039.0 0
185175.0 589343.0 0
192431.0 588668.0 0
196688.0 590821.0 0
201662.0 591877.0 0
207209.0 590670.0 0
211705.0 589377.0 0
223111.0 590100.0 0
228529.0 589324.0 0
231738.0 592926.0 0
236595.0 591077.0 0
240671.0 589342.0 0
244779.0 592561.0 0
249082.0 591195.0 0
253551.0 589838.0 0
257696.0 593087.0 0
260875.0 590265.0 0
265122.0 591032.0 0
269762.0 588687.0 0
277949.0 590244.0 0
282620.0 592735.0 0
289161.0 589396.0 0
295395.0 589690.0 0
300725.0 590284.0 0
305053.0 590526.0 0
308092.0 588691.0 0
311852.0 588926.0 0
317610.0 593027.0 0
322539.0 589095.0 0
326969.0 590700.0 0
331967.0 589335.0 0
337311.0 592611.0 0
342636.0 590025.0 0
347178.0 588591.0 0
351808.0 590425.0 0
347852.0 592956.0 0
357471.0 592774.0 0
366850.0 588975.0 0
362584.0 592429.0 0
373314.0 589249.0 0
379670.0 588756.0 0
384282.0 591645.0 0
388408.0 589248.0 0
393360.0 590200.0 0
401305.0 591320.0 0
406843.0 588918.0 0
413629.0 589344.0 0
421803.0 588581.0 0
418851.0 590460.0 0
422090.0 593379.0 0
425702.0 589951.0 0
430373.0 589134.0 0
432353.0 593199.0 0
436907.0 588987.0 0
442762.0 590061.0 0
447938.0 588957.0 0
452771.0 589778.0 0
450520.0 593623.0 0
457642.0 589041.0 0
462207.0 588919.0 0
461490.0 593246.0 0
470716.0 591122.0 0
475997.0 592766.0 0
482151.0 589575.0 0
486708.0 591308.0 0
491125.0 589740.0 0
493715.0 593242.0 0
497255.0 590210.0 0
2631.11 593933.0 0
7019.2 594031.0 0
9091.29 598503.0 0
11307.7 594327.0 0
13816.8 598643.0 0
16471.7 594318.0 0
20869.5 593867.0 0
22966.5 597295.0 0
34010.6 594319.0 0
32553.1 598692.0 0
38241.1 594309.0 0
42457.1 593880.0 0
46473.9 593928.0 0
47715.1 598707.0 0
51135.8 593846.0 0
52830.4 598591.0 0
57287.3 597869.0 0
61456.2 593997.0 0
64943.0 598318.0 0
70070.6 598632.0 0
73264.9 594357.0 0
82944.8 597395.0 0
87433.0 593779.0 0
91641.4 595628.0 0
95306.3 596601.0 0
99218.7 598749.0 0
103529.0 597021.0 0
107500.0 593936.0 0
111080.0 598602.0 0
118067.0 594089.0 0
121956.0 598541.0 0
123216.0 594917.0 0
130960.0 596399.0 0
135885.0 594822.0 0
146876.0 595399.0 0
152338.0 594495.0 0
158305.0 594784.0 0
163583.0 594977.0 0
167346.0 598594.0 0
172876.0 595890.0 0
178020.0 595781.0 0
180920.0 593739.0 0
181226.0 597774.0 0
185802.0 595055.0 0
192336.0 594671.0 0
197715.0 595433.0 0
206026.0 594619.0 0
210623.0 594422.0 0
216146.0 593975.0 0
221421.0 595329.0 0
226886.0 595226.0 0
231965.0 598221.0 0
235805.0 594364.0 0
236856.0 598121.0 0
240444.0 595044.0 0
246187.0 597635.0 0
252442.0 594762.0 0
261898.0 593974.0 0
262671.0 598022.0 0
270277.0 593833.0 0
267771.0 598572.0 0
275266.0 595353.0 0
279771.0 595597.0 0
283565.0 596171.0 0
286604.0 593691.0 0
292010.0 594603.0 0
298255.0 595303.0 0
303373.0 594122.0 0
302550.0 598417.0 0
306805.0 596945.0 0
311517.0 594153.0 0
323128.0 594001.0 0
331157.0 593840.0 0
327109.0 597822.0 0
343313.0 595654.0 0
351595.0 595512.0 0
355918.0 597912.0 0
366367.0 594259.0 0
362267.0 598491.0 0
371176.0 594855.0 0
376864.0 594173.0 0
381646.0 594856.0 0
384502.0 597665.0 0
388317.0 594438.0 0
392681.0 594944.0 0
396655.0 593847.0 0
402917.0 596493.0 0
398451.0 598068.0 0
408198.0 594899.0 0
412854.0 595795.0 0
417005.0 594557.0 0
427471.0 594883.0 0
436792.0 595125.0 0
442167.0 595241.0 0
446971.0 596631.0 0
455912.0 595290.0 0
466723.0 594904.0 0
471769.0 596199.0 0
481231.0 594919.0 0
486367.0 595991.0 0
491605.0 597905.0 0
497972.0 594910.0 0
3533.42 600027.0 0
11457.9 603562.0 0
18883.3 599155.0 0
22347.7 603712.0 0
27127.9 599496.0 0
37579.2 598910.0 0
42398.9 599188.0 0
52713.7 603307.0 0
60963.0 600627.0 0
67518.8 603405.0 0
76459.4 599215.0 0
72281.9 603169.0 0
88478.9 598784.0 0
88139.5 603478.0 0
94005.1 601589.0 0
98507.6 602605.0 0
106267.0 599772.0 0
102318.0 603332.0 0
106907.0 603596.0 0
117325.0 600431.0 0
126052.0 599114.0 0
122809.0 603421.0 0
132500.0 601924.0 0
127652.0 603626.0 0
137148.0 599361.0 0
134738.0 603680.0 0
142754.0 599491.0 0
147065.0 599541.0 0
152948.0 599703.0 0
148887.0 603419.0 0
157573.0 600119.0 0
154452.0 603837.0 0
162108.0 599149.0 0
163134.0 603616.0 0
167535.0 603730.0 0
173087.0 601868.0 0
177438.0 599737.0 0
184169.0 601563.0 0
189351.0 599830.0 0
195457.0 599776.0 0
201355.0 599382.0 0
207590.0 599421.0 0
213115.0 598876.0 0
218660.0 600305.0 0
223754.0 599153.0 0
227616.0 601372.0 0
231981.0 603593.0 0
236300.0 602357.0 0
241064.0 600733.0 0
246139.0 603586.0 0
250962.0 599172.0 0
256570.0 599449.0 0
260776.0 603473.0 0
265908.0 603634.0 0
273146.0 600508.0 0
278681.0 599945.0 0
282884.0 600607.0 0
280940.0 603812.0 0
287450.0 599136.0 0
293574.0 599912.0 0
298045.0 600132.0 0
302017.0 603345.0 0
306645.0 601057.0 0
310700.0 602394.0 0
312981.0 598885.0 0
317858.0 599141.0 0
322791.0 599805.0 0
326064.0 602971.0 0
329378.0 601371.0 0
332631.0 598860.0 0
332022.0 603336.0 0
338109.0 599068.0 0
346619.0 599681.0 0
342869.0 600752.0 0
346448.0 603724.0 0
351299.0 600656.0 0
357515.0 602289.0 0
368621.0 599599.0 0
374179.0 599346.0 0
379638.0 599248.0 0
384710.0 603388.0 0
388427.0 599108.0 0
392714.0 598771.0 0
390759.0 602862.0 0
396042.0 602521.0 0
401660.0 601100.0 0
406222.0 600174.0 0
411139.0 599757.0 0
416788.0 600253.0 0
422565.0 598845.0 0
427914.0 600606.0 0
433465.0 599427.0 0
438875.0 600086.0 0
443974.0 600302.0 0
448869.0 600780.0 0
453755.0 600589.0 0
458655.0 599674.0 0
463478.0 599521.0 0
468598.0 599087.0 0
467786.0 603590.0 0
471853.0 600878.0 0
476681.0 598797.0 0
482424.0 600212.0 0
487183.0 601173.0 0
492874.0 603780.0 0
497269.0 599599.0 0
1390.76 604454.0 0
2847.27 608279.0 0
6480.05 604962.0 0
13855.4 608874.0 0
17170.9 604272.0 0
18896.0 608932.0 0
23198.7 607908.0 0
27908.5 605524.0 0
33867.7 604005.0 0
32282.7 608653.0 0
38954.4 604086.0 0
43409.4 603964.0 0
40839.1 608735.0 0
47935.4 603921.0 0
50329.0 608686.0 0
57500.0 604103.0 0
60756.3 608471.0 0
62876.1 604619.0 0
65882.7 608534.0 0
76125.6 605143.0 0
71988.4 608628.0 0
81709.6 604028.0 0
86349.0 607561.0 0
91529.3 607290.0 0
97809.2 607191.0 0
108240.0 607695.0 0
112435.0 604522.0 0
117588.0 606289.0 0
121722.0 607723.0 0
126467.0 608663.0 0
131131.0 605645.0 0
135896.0 608506.0 0
140139.0 605109.0 0
145556.0 608453.0 0
152500.0 607513.0 0
157067.0 608947.0 0
158761.0 604521.0 0
161412.0 608674.0 0
171268.0 606122.0 0
177421.0 604426.0 0
181506.0 605190.0 0
187009.0 607025.0 0
192388.0 604219.0 0
197386.0 604413.0 0
198375.0 608570.0 0
202886.0 605751.0 0
208836.0 604951.0 0
214123.0 604121.0 0
210771.0 608938.0 0
218776.0 605668.0 0
223766.0 605052.0 0
228261.0 605536.0 0
231199.0 608130.0 0
236790.0 607839.0 0
240948.0 604828.0 0
242884.0 608076.0 0
251931.0 604067.0 0
256849.0 605197.0 0
262389.0 608534.0 0
272905.0 605458.0 0
275489.0 608854.0 0
276752.0 604407.0 0
279860.0 607817.0 0
285713.0 604811.0 0
289460.0 608890.0 0
291109.0 603933.0 0
296416.0 604564.0 0
302802.0 607880.0 0
306694.0 605135.0 0
315853.0 604374.0 0
311425.0 608142.0 0
321074.0 604063.0 0
317578.0 608636.0 0
327207.0 607643.0 0
332367.0 607247.0 0
336802.0 604967.0 0
340583.0 608334.0 0
342158.0 604890.0 0
344439.0 608324.0 0
350433.0 605475.0 0
355865.0 607999.0 0
361562.0 605024.0 0
366697.0 604289.0 0
364894.0 608848.0 0
372141.0 604467.0 0
374354.0 608459.0 0
378151.0 605071.0 0
382020.0 608261.0 0
386989.0 608795.0 0
391950.0 607948.0 0
397101.0 607641.0 0
400714.0 605227.0 0
404496.0 604142.0 0
405922.0 608556.0 0
408935.0 604299.0 0
413885.0 605100.0 0
418434.0 605162.0 0
423457.0 603865.0 0
421598.0 607830.0 0
427618.0 605517.0 0
431512.0 603958.0 0
435949.0 604066.0 0
437111.0 608889.0 0
441178.0 604864.0 0
446174.0 604655.0 0
451309.0 604948.0 0
457594.0 604361.0 0
454520.0 608722.0 0
462798.0 604852.0 0
463684.0 608967.0 0
467848.0 608688.0 0
473418.0 604715.0 0
478923.0 604141.0 0
476455.0 608279.0 0
484008.0 604983.0 0
480965.0 608556.0 0
488351.0 605207.0 0
486570.0 608837.0 0
490893.0 608425.0 0
498189.0 604023.0 0
496291.0 608026.0 0
2385.16 613342.0 0
8254.22 609677.0 0
17312.3 613455.0 0
22252.4 612699.0 0
27807.8 610868.0 0
31806.7 613331.0 0
37335.1 609161.0 0
45122.7 609340.0 0
42293.8 613851.0 0
47779.7 613487.0 0
55908.1 609214.0 0
57908.5 613726.0 0
62793.2 613021.0 0
67007.3 612818.0 0
75036.7 613586.0 0
78711.1 609398.0 0
82437.7 609862.0 0
86324.7 613520.0 0
94325.7 612486.0 0
99468.1 613437.0 0
103487.0 610062.0 0
108694.0 612368.0 0
114036.0 609778.0 0
118230.0 609869.0 0
117513.0 612923.0 0
122230.0 612233.0 0
126893.0 613934.0 0
131573.0 609826.0 0
131120.0 614003.0 0
135275.0 613056.0 0
140262.0 611254.0 0
148288.0 613657.0 0
153648.0 612526.0 0
158422.0 613572.0 0
166956.0 609770.0 0
173022.0 610200.0 0
170703.0 614022.0 0
177823.0 609311.0 0
176105.0 613858.0 0
182209.0 609241.0 0
180912.0 613804.0 0
184999.0 612046.0 0
192508.0 609358.0 0
196491.0 613328.0 0
201716.0 611417.0 0
206629.0 610389.0 0
211077.0 613565.0 0
215518.0 609711.0 0
221101.0 609782.0 0
226692.0 611001.0 0
232479.0 613110.0 0
237387.0 613176.0 0
242201.0 613610.0 0
248507.0 608978.0 0
254259.0 609248.0 0
258399.0 612658.0 0
269189.0 609460.0 0
278819.0 612461.0 0
283889.0 609965.0 0
282397.0 614017.0 0
294249.0 608969.0 0
292788.0 613728.0 0
298688.0 609701.0 0
303127.0 612293.0 0
306178.0 609078.0 0
308028.0 612728.0 0
318712.0 613338.0 0
322341.0 609340.0 0
325783.0 613735.0 0
330548.0 611272.0 0
335993.0 610956.0 0
342126.0 613182.0 0
348191.0 609044.0 0
351317.0 612865.0 0
359161.0 613293.0 0
364178.0 613654.0 0
369606.0 609111.0 0
368565.0 613624.0 0
373232.0 612671.0 0
378784.0 611798.0 0
383904.0 611744.0 0
387342.0 614066.0 0
391572.0 613025.0 0
397515.0 613123.0 0
401193.0 609369.0 0
411157.0 609204.0 0
408224.0 612784.0 0
412485.0 613986.0 0
416492.0 609568.0 0
421275.0 612848.0 0
425825.0 609825.0 0
431428.0 609132.0 0
434832.0 613614.0 0
442538.0 610380.0 0
448368.0 609435.0 0
447767.0 614032.0 0
452265.0 613310.0 0
457161.0 612721.0 0
459662.0 608963.0 0
467241.0 613356.0 0
472298.0 609297.0 0
471594.0 613382.0 0
476813.0 613635.0 0
483567.0 613132.0 0
488800.0 613070.0 0
493220.0 612191.0 0
497707.0 612699.0 0
2460.4 618179.0 0
6752.89 614322.0 0
12083.6 614736.0 0
16979.9 617447.0 0
23390.7 617960.0 0
27300.7 615210.0 0
33680.6 618264.0 0
36789.9 614179.0 0
38720.1 618629.0 0
47228.4 618389.0 0
52893.7 614201.0 0
56933.1 618166.0 0
61586.3 617470.0 0
65531.6 618624.0 0
70121.7 616255.0 0
80090.9 615096.0 0
77500.0 619144.0 0
91351.7 617155.0 0
96808.9 617963.0 0
105262.0 614181.0 0
102519.0 617371.0 0
108418.0 617989.0 0
113181.0 614770.0 0
117199.0 617559.0 0
122627.0 617960.0 0
128254.0 618670.0 0
133618.0 618022.0 0
138754.0 618128.0 0
143036.0 615930.0 0
147087.0 618791.0 0
152821.0 618430.0 0
162500.0 614324.0 0
158641.0 618052.0 0
166194.0 615886.0 0
170595.0 618792.0 0
175864.0 618798.0 0
184588.0 615905.0 0
189907.0 614831.0 0
200951.0 616585.0 0
205902.0 615616.0 0
216911.0 615302.0 0
222129.0 614742.0 0
227578.0 615669.0 0
225004.0 619108.0 0
230914.0 619066.0 0
237005.0 618081.0 0
247919.0 614932.0 0
253487.0 614530.0 0
258388.0 617841.0 0
262890.0 614363.0 0
267473.0 615557.0 0
273614.0 614601.0 0
279659.0 618134.0 0
286863.0 614974.0 0
289539.0 619066.0 0
293629.0 618923.0 0
298562.0 615482.0 0
308790.0 617591.0 0
313133.0 614213.0 0
318028.0 618366.0 0
321963.0 616582.0 0
330791.0 616633.0 0
335003.0 618092.0 0
337319.0 615611.0 0
344694.0 618959.0 0
347119.0 615206.0 0
350482.0 618760.0 0
356605.0 618261.0 0
361573.0 617267.0 0
366636.0 618998.0 0
377359.0 616000.0 0
372973.0 618412.0 0
382772.0 617011.0 0
388493.0 618611.0 0
393675.0 617530.0 0
399057.0 618978.0 0
403465.0 614574.0 0
408953.0 617523.0 0
416672.0 614176.0 0
414040.0 618598.0 0
419140.0 617951.0 0
423800.0 617193.0 0
428710.0 614418.0 0
432803.0 618590.0 0
436016.0 617548.0 0
439773.0 615433.0 0
443573.0 619026.0 0
444395.0 614933.0 0
447372.0 617581.0 0
451989.0 619008.0 0
457517.0 617619.0 0
462080.0 614496.0 0
467818.0 618458.0 0
472112.0 617077.0 0
480495.0 617790.0 0
485710.0 618819.0 0
491742.0 617029.0 0
497330.0 617596.0 0
2996.39 623602.0 0
7824.95 619243.0 0
13657.7 619862.0 0
19408.1 622218.0 0
25078.4 622371.0 0
28807.5 619663.0 0
34954.8 623364.0 0
40461.5 623105.0 0
43007.8 619506.0 0
46482.9 623110.0 0
52188.1 619623.0 0
55443.9 624180.0 0
60199.6 622287.0 0
65872.0 623495.0 0
73890.4 619225.0 0
72082.2 624110.0 0
81206.3 622761.0 0
77572.4 623587.0 0
82870.8 619220.0 0
85545.2 624038.0 0
87244.8 619358.0 0
91140.8 622602.0 0
97711.5 623510.0 0
103243.0 623164.0 0
113466.0 620563.0 0
117745.0 622018.0 0
121455.0 623264.0 0
126677.0 623950.0 0
136608.0 621998.0 0
142410.0 621210.0 0
163201.0 619821.0 0
159834.0 623753.0 0
166856.0 620251.0 0
164390.0 624216.0 0
168626.0 623265.0 0
173388.0 623313.0 0
178238.0 624092.0 0
181268.0 619228.0 0
182346.0 623793.0 0
186448.0 619651.0 0
191335.0 621009.0 0
196427.0 619176.0 0
200764.0 620952.0 0
205080.0 620551.0 0
207648.0 624013.0 0
210169.0 619244.0 0
212905.0 623856.0 0
215208.0 619872.0 0
217527.0 623530.0 0
219867.0 619545.0 0
221932.0 624250.0 0
237734.0 623426.0 0
242029.0 620688.0 0
247782.0 620979.0 0
253512.0 619889.0 0
259476.0 622115.0 0
256007.0 624033.0 0
263561.0 619341.0 0
262676.0 623905.0 0
269087.0 620713.0 0
274225.0 619941.0 0
272667.0 624094.0 0
277480.0 623770.0 0
285225.0 620418.0 0
282443.0 624164.0 0
289349.0 623354.0 0
294506.0 623830.0 0
297662.0 620350.0 0
299637.0 623940.0 0
303367.0 619313.0 0
307716.0 621829.0 0
313375.0 619745.0 0
317017.0 623751.0 0
321464.0 619769.0 0
325778.0 619525.0 0
322218.0 623342.0 0
332837.0 622851.0 0
339380.0 619836.0 0
347367.0 623300.0 0
351926.0 623643.0 0
362082.0 622795.0 0
371269.0 623738.0 0
377987.0 619863.0 0
381847.0 623037.0 0
386980.0 623393.0 0
392295.0 622969.0 0
402409.0 623463.0 0
404381.0 620031.0 0
410786.0 622320.0 0
415689.0 623504.0 0
421447.0 623217.0 0
427639.0 619570.0 0
438361.0 621351.0 0
447319.0 621717.0 0
456876.0 623414.0 0
462379.0 620439.0 0
471441.0 622530.0 0
475806.0 619451.0 0
481654.0 622307.0 0
490333.0 622922.0 0
496749.0 623438.0 0
8352.89 625332.0 0
5841.04 628936.0 0
13802.6 624816.0 0
18304.1 628317.0 0
23207.8 626528.0 0
29535.8 624368.0 0
28791.3 629038.0 0
32684.3 627250.0 0
38012.1 626655.0 0
43619.5 625257.0 0
42311.2 628502.0 0
50885.2 624694.0 0
46754.1 629137.0 0
55755.0 629000.0 0
62090.8 628632.0 0
67938.4 628086.0 0
80805.0 627262.0 0
94051.3 627587.0 0
99662.3 628593.0 0
104803.0 628145.0 0
109256.0 624308.0 0
115321.0 624300.0 0
113781.0 627953.0 0
118514.0 627146.0 0
123399.0 628252.0 0
132518.0 625110.0 0
128099.0 629001.0 0
136079.0 629099.0 0
139719.0 625673.0 0
147066.0 624321.0 0
143694.0 628191.0 0
154264.0 624848.0 0
162542.0 628175.0 0
167941.0 628620.0 0
173040.0 627816.0 0
177428.0 628975.0 0
182701.0 628504.0 0
186910.0 624842.0 0
192157.0 626222.0 0
197453.0 624288.0 0
196066.0 628432.0 0
202953.0 624796.0 0
200612.0 629363.0 0
206050.0 628936.0 0
217554.0 628063.0 0
227114.0 624326.0 0
232751.0 624701.0 0
236741.0 628706.0 0
244651.0 625171.0 0
240964.0 625774.0 0
251470.0 625333.0 0
258112.0 628051.0 0
263080.0 628221.0 0
267627.0 625901.0 0
272117.0 628691.0 0
280049.0 628553.0 0
284332.0 628499.0 0
288353.0 628195.0 0
292957.0 628450.0 0
297531.0 628102.0 0
304486.0 625173.0 0
307630.0 629035.0 0
311373.0 624681.0 0
318092.0 629077.0 0
322397.0 627642.0 0
326900.0 624940.0 0
336202.0 627823.0 0
331743.0 629157.0 0
338103.0 624531.0 0
340211.0 628968.0 0
342530.0 624736.0 0
346654.0 629301.0 0
356851.0 624273.0 0
352824.0 628299.0 0
366705.0 624424.0 0
363293.0 628495.0 0
369277.0 628719.0 0
376782.0 624476.0 0
373650.0 627457.0 0
376866.0 629225.0 0
382280.0 629281.0 0
388548.0 628167.0 0
393497.0 628077.0 0
398079.0 624981.0 0
406329.0 625064.0 0
412623.0 627079.0 0
417363.0 628311.0 0
422634.0 629167.0 0
427225.0 624859.0 0
433098.0 624916.0 0
437400.0 629132.0 0
443386.0 625254.0 0
447988.0 629035.0 0
451213.0 624600.0 0
453158.0 628968.0 0
461485.0 625733.0 0
466326.0 624954.0 0
472317.0 629160.0 0
476813.0 625466.0 0
481108.0 629282.0 0
484960.0 626084.0 0
489606.0 628726.0 0
2069.3 629417.0 0
2354.02 633899.0 0
7799.06 632761.0 0
11559.3 629506.0 0
12577.0 634174.0 0
17749.2 633880.0 0
23901.8 632402.0 0
29274.0 633747.0 0
32755.7 631395.0 0
37274.7 630805.0 0
41938.7 633826.0 0
50588.2 629637.0 0
47889.3 634058.0 0
52640.1 633648.0 0
57432.5 634278.0 0
67835.5 632862.0 0
71793.4 629371.0 0
76060.0 629671.0 0
72878.7 633625.0 0
77693.9 634185.0 0
85816.3 629522.0 0
81751.4 632261.0 0
90718.6 632480.0 0
96792.2 633813.0 0
101949.0 633159.0 0
106517.0 634351.0 0
109381.0 630141.0 0
116618.0 632427.0 0
125088.0 634045.0 0
132075.0 629870.0 0
133708.0 632945.0 0
138172.0 633810.0 0
147756.0 629667.0 0
143603.0 632885.0 0
152555.0 630413.0 0
157835.0 629747.0 0
154686.0 633967.0 0
162090.0 632830.0 0
172876.0 633330.0 0
179171.0 634022.0 0
188614.0 630295.0 0
184406.0 633602.0 0
193150.0 630640.0 0
197593.0 633741.0 0
202871.0 634373.0 0
208095.0 633735.0 0
212079.0 629547.0 0
218345.0 633121.0 0
222044.0 629446.0 0
222714.0 633338.0 0
226664.0 629505.0 0
226775.0 634383.0 0
231464.0 629801.0 0
237434.0 634156.0 0
241724.0 629460.0 0
242621.0 634111.0 0
247487.0 630199.0 0
253583.0 629969.0 0
257765.0 633467.0 0
262852.0 632940.0 0
267439.0 631207.0 0
275998.0 631320.0 0
279825.0 633974.0 0
285423.0 633044.0 0
291944.0 633887.0 0
298353.0 633523.0 0
302009.0 629582.0 0
303797.0 633901.0 0
313151.0 629625.0 0
312939.0 633798.0 0
326368.0 630319.0 0
321833.0 631551.0 0
335606.0 633777.0 0
341968.0 634022.0 0
351878.0 633571.0 0
357745.0 629479.0 0
369204.0 634078.0 0
373464.0 631610.0 0
377916.0 633393.0 0
387207.0 633765.0 0
397908.0 630282.0 0
393684.0 633748.0 0
403281.0 630351.0 0
408924.0 629632.0 0
413570.0 631747.0 0
418619.0 633184.0 0
427967.0 630215.0 0
432658.0 631863.0 0
442753.0 630919.0 0
446547.0 634022.0 0
451269.0 633388.0 0
458019.0 629650.0 0
456036.0 634304.0 0
463290.0 629855.0 0
467919.0 629721.0 0
465542.0 633857.0 0
470317.0 633895.0 0
476832.0 631379.0 0
485300.0 630980.0 0
492602.0 633377.0 0
497033.0 629600.0 0
2107.3 638333.0 0
6180.08 637160.0 0
10511.5 638425.0 0
15346.3 638579.0 0
21282.5 638394.0 0
27026.9 637950.0 0
35540.5 635541.0 0
41963.9 639109.0 0
46567.5 639165.0 0
52451.3 638371.0 0
60036.0 639376.0 0
62969.3 634955.0 0
69630.6 637518.0 0
75099.5 638964.0 0
81376.5 638241.0 0
85699.9 634739.0 0
92783.6 638291.0 0
98031.6 639171.0 0
102916.0 638119.0 0
111544.0 634994.0 0
108248.0 639110.0 0
119684.0 637377.0 0
130519.0 634566.0 0
129285.0 638539.0 0
133732.0 638363.0 0
137591.0 638431.0 0
141848.0 637748.0 0
149077.0 635005.0 0
158184.0 635367.0 0
153959.0 638043.0 0
162767.0 638004.0 0
166835.0 634591.0 0
168397.0 638971.0 0
173610.0 638713.0 0
177516.0 639363.0 0
182401.0 638578.0 0
188793.0 635012.0 0
187028.0 638233.0 0
192904.0 634589.0 0
192384.0 639031.0 0
197331.0 638044.0 0
208381.0 638440.0 0
213332.0 635526.0 0
221559.0 637296.0 0
225969.0 639205.0 0
232105.0 635056.0 0
242417.0 639163.0 0
247311.0 636555.0 0
252377.0 634901.0 0
255906.0 638725.0 0
262202.0 639033.0 0
266213.0 636701.0 0
272071.0 634901.0 0
277099.0 639550.0 0
282753.0 637572.0 0
287665.0 638680.0 0
301294.0 638469.0 0
308740.0 634768.0 0
312772.0 638421.0 0
317847.0 634924.0 0
324637.0 635270.0 0
329671.0 634689.0 0
330670.0 638543.0 0
327712.0 638642.0 0
334072.0 639025.0 0
338805.0 638723.0 0
347219.0 635108.0 0
357232.0 634642.0 0
363391.0 635577.0 0
368933.0 638900.0 0
373902.0 637194.0 0
382080.0 636178.0 0
389532.0 639576.0 0
399752.0 635485.0 0
402902.0 639453.0 0
404788.0 635705.0 0
409210.0 634541.0 0
413789.0 637838.0 0
419777.0 638183.0 0
423667.0 634669.0 0
425263.0 639407.0 0
428919.0 635240.0 0
433604.0 636918.0 0
437574.0 634460.0 0
436494.0 639367.0 0
441737.0 635397.0 0
439898.0 639384.0 0
445032.0 638769.0 0
452019.0 639285.0 0
457624.0 638579.0 0
460992.0 634876.0 0
461754.0 639479.0 0
466067.0 638295.0 0
470541.0 638646.0 0
475261.0 636831.0 0
481379.0 634996.0 0
487422.0 635377.0 0
491633.0 639107.0 0
497638.0 634886.0 0
1812.07 642239.0 0
6779.74 642438.0 0
12565.4 642949.0 0
18074.8 643259.0 0
23448.0 644076.0 0
28115.8 643604.0 0
32197.9 639839.0 0
37716.2 640088.0 0
39011.3 643985.0 0
43717.4 643053.0 0
49849.9 641977.0 0
47500.0 644541.0 0
56216.8 639705.0 0
57366.0 643924.0 0
65141.4 639891.0 0
62654.8 644393.0 0
67507.2 644202.0 0
72713.2 644629.0 0
78242.3 643874.0 0
83614.5 643642.0 0
87166.4 639613.0 0
93398.1 644337.0 0
98594.6 643622.0 0
104646.0 643130.0 0
110602.0 643767.0 0
114466.0 639770.0 0
119296.0 642853.0 0
124457.0 640522.0 0
127589.0 643759.0 0
131948.0 642947.0 0
137191.0 642613.0 0
142543.0 643201.0 0
147641.0 640696.0 0
153053.0 643908.0 0
158271.0 639584.0 0
163067.0 643188.0 0
158542.0 643700.0 0
168339.0 643854.0 0
173562.0 642985.0 0
178952.0 644443.0 0
184723.0 643597.0 0
188822.0 641490.0 0
192851.0 644136.0 0
198474.0 642625.0 0
203540.0 639934.0 0
207719.0 643061.0 0
212345.0 640361.0 0
217194.0 640156.0 0
222114.0 642513.0 0
227312.0 644485.0 0
230758.0 640263.0 0
236702.0 640211.0 0
244093.0 644521.0 0
247353.0 640971.0 0
249620.0 644186.0 0
251185.0 639650.0 0
258951.0 643735.0 0
270308.0 640481.0 0
265758.0 641541.0 0
273399.0 644653.0 0
283329.0 642529.0 0
288626.0 644405.0 0
293162.0 639929.0 0
297674.0 641844.0 0
302324.0 644128.0 0
307251.0 640212.0 0
312429.0 644575.0 0
318611.0 641684.0 0
323991.0 639778.0 0
323974.0 644626.0 0
330107.0 643432.0 0
336303.0 643175.0 0
344471.0 639797.0 0
347993.0 644331.0 0
352208.0 639788.0 0
358895.0 640271.0 0
364700.0 641794.0 0
371959.0 643149.0 0
378788.0 640376.0 0
382634.0 644237.0 0
384478.0 640013.0 0
395612.0 639775.0 0
399866.0 641900.0 0
408038.0 639969.0 0
403931.0 644536.0 0
412488.0 643330.0 0
417060.0 642110.0 0
421841.0 642953.0 0
427039.0 644530.0 0
430009.0 640177.0 0
432581.0 644703.0 0
434377.0 640787.0 0
437863.0 643966.0 0
442402.0 643126.0 0
447402.0 644058.0 0
458508.0 644006.0 0
463677.0 642986.0 0
468336.0 642897.0 0
473527.0 642124.0 0
477612.0 644017.0 0
479589.0 640341.0 0
481781.0 644249.0 0
485887.0 640898.0 0
497259.0 639959.0 0
2707.5 646669.0 0
7538.69 649608.0 0
12561.6 647948.0 0
18062.1 649478.0 0
23925.8 649095.0 0
28717.0 648032.0 0
34478.1 645383.0 0
41775.3 647728.0 0
47313.2 648830.0 0
52168.3 645924.0 0
56109.0 649075.0 0
60912.2 649194.0 0
66508.1 649331.0 0
81062.8 648111.0 0
76599.5 648729.0 0
85503.3 649298.0 0
88276.0 645259.0 0
96789.7 648770.0 0
101696.0 647266.0 0
107076.0 647967.0 0
115054.0 644947.0 0
112351.0 648468.0 0
120619.0 648106.0 0
123084.0 644723.0 0
126015.0 647750.0 0
131762.0 648986.0 0
138291.0 648312.0 0
147612.0 645729.0 0
143844.0 648188.0 0
152918.0 649724.0 0
157168.0 647977.0 0
162533.0 648631.0 0
168202.0 649457.0 0
174066.0 648591.0 0
188579.0 647030.0 0
183825.0 649161.0 0
203276.0 645822.0 0
208194.0 649040.0 0
212313.0 645128.0 0
217621.0 645534.0 0
218872.0 649657.0 0
222508.0 648963.0 0
228656.0 649530.0 0
232778.0 645133.0 0
238286.0 646380.0 0
248014.0 648954.0 0
253820.0 645792.0 0
252393.0 649412.0 0
256548.0 649763.0 0
264057.0 645198.0 0
261461.0 648876.0 0
268256.0 644854.0 0
266076.0 648901.0 0
270557.0 648691.0 0
278671.0 645896.0 0
283117.0 648929.0 0
293826.0 645152.0 0
298031.0 646459.0 0
299904.0 649661.0 0
304485.0 649458.0 0
307165.0 645483.0 0
309213.0 648965.0 0
315345.0 649370.0 0
316777.0 646094.0 0
319987.0 647094.0 0
335122.0 648547.0 0
341690.0 645812.0 0
346739.0 648859.0 0
350727.0 649783.0 0
356311.0 644790.0 0
352288.0 646069.0 0
360801.0 645349.0 0
357713.0 649740.0 0
363171.0 649517.0 0
367634.0 646242.0 0
372770.0 649674.0 0
377582.0 645643.0 0
383182.0 648721.0 0
388407.0 646011.0 0
395243.0 646181.0 0
400181.0 647438.0 0
408801.0 645981.0 0
412900.0 648810.0 0
418240.0 646908.0 0
427690.0 649308.0 0
437317.0 649199.0 0
443003.0 648374.0 0
448449.0 649483.0 0
452844.0 645161.0 0
455832.0 649308.0 0
463094.0 646949.0 0
467546.0 648107.0 0
471569.0 646143.0 0
474152.0 649237.0 0
479096.0 648574.0 0
483669.0 649735.0 0
485821.0 646228.0 0
491270.0 645283.0 0
497370.0 645314.0 0
2545.9 651913.0 0
11109.9 653132.0 0
15095.3 654225.0 0
21642.3 654799.0 0
27436.7 652868.0 0
32769.0 651320.0 0
37425.3 649766.0 0
37972.0 654208.0 0
43626.1 652544.0 0
47893.9 654131.0 0
52170.1 651644.0 0
57467.5 653418.0 0
62851.9 653612.0 0
67461.8 654639.0 0
71994.6 649971.0 0
71680.2 654347.0 0
75769.7 653196.0 0
81343.1 653622.0 0
86716.6 653861.0 0
90925.7 650147.0 0
97576.4 654269.0 0
103373.0 652618.0 0
109353.0 653329.0 0
116471.0 652489.0 0
122210.0 652917.0 0
127204.0 652970.0 0
131639.0 654100.0 0
136152.0 653895.0 0
143025.0 653669.0 0
148210.0 650663.0 0
154561.0 653843.0 0
158860.0 652016.0 0
164993.0 652780.0 0
174160.0 653969.0 0
178913.0 651964.0 0
188145.0 652827.0 0
192825.0 649876.0 0
192931.0 654690.0 0
198920.0 650087.0 0
203789.0 650566.0 0
202647.0 654661.0 0
207717.0 654511.0 0
212367.0 654300.0 0
214545.0 649930.0 0
217581.0 654549.0 0
222842.0 654252.0 0
226873.0 653257.0 0
234212.0 650160.0 0
231146.0 654405.0 0
238635.0 651382.0 0
236070.0 654822.0 0
242873.0 649957.0 0
246054.0 654480.0 0
251879.0 653698.0 0
257696.0 654718.0 0
262784.0 653786.0 0
268267.0 653426.0 0
275372.0 650550.0 0
282938.0 653521.0 0
288577.0 650251.0 0
294071.0 650057.0 0
297697.0 653594.0 0
303092.0 654572.0 0
308076.0 653422.0 0
311940.0 651375.0 0
317520.0 653951.0 0
322181.0 651247.0 0
327775.0 649833.0 0
332490.0 654178.0 0
339276.0 650122.0 0
338511.0 654301.0 0
342999.0 651579.0 0
348013.0 653452.0 0
352570.0 653215.0 0
367307.0 650803.0 0
379102.0 650701.0 0
382500.0 654122.0 0
386344.0 651112.0 0
391666.0 651863.0 0
395828.0 654648.0 0
398363.0 650527.0 0
402912.0 650563.0 0
400162.0 654861.0 0
407755.0 650251.0 0
405562.0 654540.0 0
411056.0 654493.0 0
417035.0 653234.0 0
422908.0 649796.0 0
427026.0 653290.0 0
432191.0 649951.0 0
441989.0 653662.0 0
446967.0 654599.0 0
452111.0 652902.0 0
460405.0 649934.0 0
461583.0 654082.0 0
466561.0 654832.0 0
470601.0 651885.0 0
475461.0 654419.0 0
481277.0 653662.0 0
487283.0 649933.0 0
486741.0 654563.0 0
491771.0 651534.0 0
497343.0 650587.0 0
498259.0 654886.0 0
2127.07 656552.0 0
7066.7 655480.0 0
11883.4 657250.0 0
17320.8 658133.0 0
21746.2 659836.0 0
26445.3 658398.0 0
33032.5 657904.0 0
42185.8 656952.0 0
46745.7 658886.0 0
53145.8 658098.0 0
60057.4 657915.0 0
65213.9 658942.0 0
70146.2 658884.0 0
76536.1 657974.0 0
81664.8 659767.0 0
86867.2 658436.0 0
91936.9 656532.0 0
103474.0 658922.0 0
109150.0 658811.0 0
113062.0 656656.0 0
116980.0 658100.0 0
119826.0 655908.0 0
122921.0 657979.0 0
127672.0 658061.0 0
133351.0 659072.0 0
139309.0 658469.0 0
144970.0 659925.0 0
149107.0 655855.0 0
153803.0 658595.0 0
158544.0 656561.0 0
163946.0 657357.0 0
168266.0 659777.0 0
169238.0 654945.0 0
177468.0 656189.0 0
173841.0 659984.0 0
183247.0 655534.0 0
179851.0 659730.0 0
188099.0 657972.0 0
192869.0 659536.0 0
197070.0 654871.0 0
196836.0 658293.0 0
200992.0 659912.0 0
206705.0 659698.0 0
212804.0 659743.0 0
218383.0 659658.0 0
226863.0 657827.0 0
231967.0 659490.0 0
237383.0 659859.0 0
240828.0 654954.0 0
242963.0 658671.0 0
252460.0 658245.0 0
256728.0 659810.0 0
261259.0 658294.0 0
266017.0 658445.0 0
273271.0 655565.0 0
270586.0 659284.0 0
278474.0 655067.0 0
282647.0 659568.0 0
286952.0 655511.0 0
292267.0 655070.0 0
299744.0 658403.0 0
304610.0 659266.0 0
308588.0 657822.0 0
312586.0 655285.0 0
312247.0 659962.0 0
316883.0 659026.0 0
322251.0 656386.0 0
325559.0 659528.0 0
326999.0 655401.0 0
336388.0 659159.0 0
341812.0 658895.0 0
344331.0 655311.0 0
346703.0 657967.0 0
351881.0 658266.0 0
356611.0 655155.0 0
358880.0 658793.0 0
362450.0 655206.0 0
369169.0 655820.0 0
374473.0 655360.0 0
377407.0 658973.0 0
373550.0 659210.0 0
378224.0 655164.0 0
381214.0 658777.0 0
387467.0 654999.0 0
386252.0 659950.0 0
391037.0 657391.0 0
399215.0 659440.0 0
408147.0 658026.0 0
404033.0 659357.0 0
417939.0 659441.0 0
422609.0 655503.0 0
427764.0 658333.0 0
424265.0 659880.0 0
431414.0 655171.0 0
437049.0 654898.0 0
437015.0 659109.0 0
441289.0 659111.0 0
446672.0 659944.0 0
451800.0 658317.0 0
456761.0 655190.0 0
461599.0 659017.0 0
466454.0 659863.0 0
471670.0 659238.0 0
482816.0 658197.0 0
494230.0 656665.0 0
497869.0 659800.0 0
3368.55 661886.0 0
8733.4 660363.0 0
12889.8 661398.0 0
18080.6 664550.0 0
24390.0 663348.0 0
35068.7 664553.0 0
38563.3 660218.0 0
39019.6 664001.0 0
43092.9 662682.0 0
49098.2 662603.0 0
57464.1 662910.0 0
62254.5 662692.0 0
73770.2 660590.0 0
71669.0 665074.0 0
77025.9 663385.0 0
85995.4 663004.0 0
91031.7 665034.0 0
92981.1 660955.0 0
97357.9 660239.0 0
101405.0 664928.0 0
107268.0 663775.0 0
113611.0 660713.0 0
117800.0 662694.0 0
123560.0 663524.0 0
129204.0 662964.0 0
133184.0 664155.0 0
138139.0 664018.0 0
149895.0 660620.0 0
148122.0 663997.0 0
157943.0 661675.0 0
153180.0 664829.0 0
163105.0 664335.0 0
169379.0 664781.0 0
183390.0 664348.0 0
178692.0 664657.0 0
184326.0 660311.0 0
188193.0 663197.0 0
192718.0 663898.0 0
197168.0 663589.0 0
202749.0 664343.0 0
208490.0 664403.0 0
217806.0 664237.0 0
222681.0 660229.0 0
222616.0 664791.0 0
228009.0 663524.0 0
233139.0 663961.0 0
241660.0 662882.0 0
247928.0 660380.0 0
250000.0 665098.0 0
254912.0 665028.0 0
261397.0 664095.0 0
268170.0 663780.0 0
276245.0 660179.0 0
279355.0 664966.0 0
283655.0 664505.0 0
288872.0 660474.0 0
294641.0 660522.0 0
291532.0 664807.0 0
301478.0 663797.0 0
308043.0 663963.0 0
313723.0 664348.0 0
318094.0 663415.0 0
321634.0 660842.0 0
326423.0 663983.0 0
330765.0 660408.0 0
335139.0 663891.0 0
340170.0 664198.0 0
347868.0 662694.0 0
353185.0 663873.0 0
361946.0 661098.0 0
357922.0 662691.0 0
366587.0 661262.0 0
371346.0 663365.0 0
376853.0 663838.0 0
382013.0 663704.0 0
385843.0 664798.0 0
390986.0 664736.0 0
394725.0 660533.0 0
397790.0 663176.0 0
401363.0 663415.0 0
407420.0 663453.0 0
411957.0 660287.0 0
422690.0 662955.0 0
427062.0 663630.0 0
431852.0 660430.0 0
436714.0 663893.0 0
441853.0 664533.0 0
445977.0 664798.0 0
451431.0 664252.0 0
456727.0 660225.0 0
461978.0 663561.0 0
465913.0 664185.0 0
471460.0 664759.0 0
478142.0 660213.0 0
475985.0 664844.0 0
482442.0 664210.0 0
487276.0 660500.0 0
492928.0 661875.0 0
497481.0 664455.0 0
3713.87 668935.0 0
9508.7 665550.0 0
13747.0 669729.0 0
23481.8 668176.0 0
29019.1 666168.0 0
40353.3 667845.0 0
46944.3 667234.0 0
52911.0 665838.0 0
61435.6 668159.0 0
66367.4 665371.0 0
77568.0 668575.0 0
81918.6 665945.0 0
86549.0 668749.0 0
96209.7 665226.0 0
96656.2 669834.0 0
113014.0 666056.0 0
118284.0 668064.0 0
127905.0 668609.0 0
134464.0 668942.0 0
140123.0 669751.0 0
143675.0 665747.0 0
148742.0 668646.0 0
153243.0 669979.0 0
158281.0 668623.0 0
168313.0 668999.0 0
172530.0 669971.0 0
174295.0 665365.0 0
178297.0 669936.0 0
183444.0 668987.0 0
188577.0 668620.0 0
194513.0 668648.0 0
199620.0 669181.0 0
203134.0 669637.0 0
207179.0 668830.0 0
213117.0 665556.0 0
217379.0 669111.0 0
222185.0 669546.0 0
227127.0 669128.0 0
232057.0 668393.0 0
237561.0 665265.0 0
241641.0 668271.0 0
245602.0 665350.0 0
251701.0 669091.0 0
268849.0 668953.0 0
273819.0 665267.0 0
277997.0 669951.0 0
283467.0 668902.0 0
287160.0 665508.0 0
287893.0 669123.0 0
292974.0 669297.0 0
296248.0 665713.0 0
296424.0 669567.0 0
300241.0 669601.0 0
312319.0 669297.0 0
317231.0 667780.0 0
322033.0 665495.0 0
321420.0 669994.0 0
330836.0 666135.0 0
326510.0 669266.0 0
337801.0 668972.0 0
342312.0 668655.0 0
347192.0 668100.0 0
356979.0 666935.0 0
352593.0 669387.0 0
361576.0 665498.0 0
366453.0 666131.0 0
363558.0 669766.0 0
369128.0 669269.0 0
373417.0 668153.0 0
378181.0 669418.0 0
387194.0 668751.0 0
396422.0 667469.0 0
402213.0 668265.0 0
413043.0 665762.0 0
408229.0 669374.0 0
418777.0 665576.0 0
423573.0 668800.0 0
427475.0 668428.0 0
431457.0 665376.0 0
432691.0 669423.0 0
437028.0 669452.0 0
442014.0 668931.0 0
448504.0 669323.0 0
453708.0 669246.0 0
457578.0 665370.0 0
462714.0 668238.0 0
467851.0 668132.0 0
478984.0 668580.0 0
487463.0 666196.0 0
492294.0 666781.0 0
497977.0 668970.0 0
9034.82 672666.0 0
19216.7 671683.0 0
27271.4 671377.0 0
33214.7 670718.0 0
38350.7 673856.0 0
43990.3 672525.0 0
50531.3 671620.0 0
56012.9 670952.0 0
61394.1 673385.0 0
67045.9 671020.0 0
72939.4 670791.0 0
77335.2 674079.0 0
81808.3 671293.0 0
86183.3 673899.0 0
91573.9 670741.0 0
95380.3 674952.0 0
101625.0 670513.0 0
107738.0 670579.0 0
112207.0 674664.0 0
114594.0 671055.0 0
122292.0 671211.0 0
117912.0 673059.0 0
132269.0 673677.0 0
137296.0 674367.0 0
144695.0 671971.0 0
148813.0 674875.0 0
154107.0 674683.0 0
159860.0 674588.0 0
164264.0 670514.0 0
168945.0 673788.0 0
173094.0 675304.0 0
177458.0 674672.0 0
181883.0 673699.0 0
186992.0 673674.0 0
192781.0 674994.0 0
197984.0 673003.0 0
202910.0 674101.0 0
208715.0 674079.0 0
212406.0 670306.0 0
214154.0 674380.0 0
218395.0 673738.0 0
222496.0 674116.0 0
226752.0 674023.0 0
232112.0 673883.0 0
236804.0 670390.0 0
238149.0 674621.0 0
242192.0 673328.0 0
246731.0 670443.0 0
252192.0 673620.0 0
257055.0 670857.0 0
263707.0 670708.0 0
269086.0 674079.0 0
273184.0 670425.0 0
274111.0 674857.0 0
278653.0 674746.0 0
283442.0 674140.0 0
287693.0 674199.0 0
291943.0 673957.0 0
296395.0 672856.0 0
306353.0 670339.0 0
311122.0 675074.0 0
316988.0 673173.0 0
323225.0 674703.0 0
328514.0 674290.0 0
332670.0 670997.0 0
341830.0 673352.0 0
336892.0 674106.0 0
347334.0 673801.0 0
352786.0 674780.0 0
358300.0 672403.0 0
367214.0 673781.0 0
362736.0 674833.0 0
373218.0 673686.0 0
378620.0 674235.0 0
382740.0 670673.0 0
387508.0 673890.0 0
383003.0 675023.0 0
391799.0 670355.0 0
395827.0 673442.0 0
401234.0 673787.0 0
406619.0 675277.0 0
411232.0 673774.0 0
413519.0 670461.0 0
414784.0 674421.0 0
418403.0 671590.0 0
423433.0 674409.0 0
428300.0 672302.0 0
433152.0 674337.0 0
438138.0 673730.0 0
442070.0 673255.0 0
446053.0 673853.0 0
451586.0 674434.0 0
458207.0 670357.0 0
456416.0 673859.0 0
460900.0 674089.0 0
465970.0 672941.0 0
473073.0 670470.0 0
484260.0 670498.0 0
480296.0 673482.0 0
488623.0 670258.0 0
493699.0 670652.0 0
497110.0 673977.0 0
3236.95 675857.0 0
8526.78 677843.0 0
14317.1 675752.0 0
19368.3 676804.0 0
23770.4 675300.0 0
22066.0 679424.0 0
28888.4 675953.0 0
26178.7 679955.0 0
33681.0 676301.0 0
37442.9 680205.0 0
43070.5 678323.0 0
48064.2 675684.0 0
52766.3 676654.0 0
57966.7 675396.0 0
56885.7 679606.0 0
64740.2 675465.0 0
62492.7 679931.0 0
68960.4 678453.0 0
73933.7 675770.0 0
77628.1 679334.0 0
81876.0 676583.0 0
90514.5 675403.0 0
87181.3 678996.0 0
93052.8 679790.0 0
100872.0 675731.0 0
97546.7 679100.0 0
106192.0 676618.0 0
110617.0 679569.0 0
116452.0 678395.0 0
121391.0 676123.0 0
127034.0 675438.0 0
133282.0 678599.0 0
142329.0 676563.0 0
138059.0 679489.0 0
146466.0 679471.0 0
151266.0 679099.0 0
156153.0 680162.0 0
161075.0 679733.0 0
165164.0 676262.0 0
170523.0 679962.0 0
176210.0 679313.0 0
182031.0 679252.0 0
188107.0 679198.0 0
198723.0 678135.0 0
205583.0 678479.0 0
212503.0 678900.0 0
216891.0 679108.0 0
221174.0 678790.0 0
226617.0 679227.0 0
231550.0 678985.0 0
236830.0 679454.0 0
243091.0 678787.0 0
247133.0 675488.0 0
247925.0 679520.0 0
251887.0 678165.0 0
257502.0 675773.0 0
256406.0 679708.0 0
261065.0 675317.0 0
261179.0 679611.0 0
266128.0 678971.0 0
271046.0 678994.0 0
276041.0 679301.0 0
282377.0 678880.0 0
286888.0 678997.0 0
291571.0 678968.0 0
296141.0 677280.0 0
301057.0 675409.0 0
306127.0 675507.0 0
307867.0 678848.0 0
316005.0 678763.0 0
321337.0 679785.0 0
325677.0 678555.0 0
330115.0 679573.0 0
332749.0 675555.0 0
335463.0 678834.0 0
341216.0 679077.0 0
347560.0 679953.0 0
353694.0 680223.0 0
360187.0 679116.0 0
366503.0 679689.0 0
374251.0 678438.0 0
378740.0 679652.0 0
383655.0 679149.0 0
391787.0 675493.0 0
388881.0 679430.0 0
393796.0 678903.0 0
398121.0 678039.0 0
402955.0 679155.0 0
407513.0 678808.0 0
411147.0 678622.0 0
417050.0 678505.0 0
422146.0 679047.0 0
427437.0 678892.0 0
432564.0 679061.0 0
437007.0 678509.0 0
442679.0 678143.0 0
448042.0 678633.0 0
452912.0 680328.0 0
457838.0 678019.0 0
466464.0 678292.0 0
470422.0 675473.0 0
472258.0 679657.0 0
475789.0 676369.0 0
484291.0 675475.0 0
480927.0 678953.0 0
490456.0 675489.0 0
497547.0 679297.0 0
2051.19 680997.0 0
6261.41 681937.0 0
12193.4 681188.0 0
17794.3 681480.0 0
20243.6 684827.0 0
23310.8 683631.0 0
29377.6 684581.0 0
32493.4 680524.0 0
41592.8 683055.0 0
48185.7 680506.0 0
47174.7 684751.0 0
52902.5 682663.0 0
57593.8 684501.0 0
62055.5 685095.0 0
66433.1 683970.0 0
71170.7 683585.0 0
73616.6 680419.0 0
75954.9 684016.0 0
82883.7 681169.0 0
87113.9 684743.0 0
92445.8 684761.0 0
96998.4 683407.0 0
101485.0 685357.0 0
102230.0 680640.0 0
106314.0 681035.0 0
106532.0 685412.0 0
112179.0 685173.0 0
121545.0 680683.0 0
118327.0 685039.0 0
126233.0 681229.0 0
123603.0 684980.0 0
130809.0 683973.0 0
135908.0 683074.0 0
142201.0 681449.0 0
143556.0 684743.0 0
147493.0 684460.0 0
152555.0 683754.0 0
157327.0 684634.0 0
161820.0 684947.0 0
165403.0 681599.0 0
167979.0 685106.0 0
172812.0 685372.0 0
177584.0 683923.0 0
181782.0 684500.0 0
187529.0 685019.0 0
193616.0 681059.0 0
192335.0 685449.0 0
198345.0 683710.0 0
202362.0 680806.0 0
202864.0 684363.0 0
208594.0 683957.0 0
216088.0 682865.0 0
220548.0 683953.0 0
225669.0 684772.0 0
230942.0 683673.0 0
235768.0 684906.0 0
240424.0 684725.0 0
246241.0 684554.0 0
253211.0 684828.0 0
259598.0 684505.0 0
264236.0 684800.0 0
268945.0 683946.0 0
273384.0 683732.0 0
278418.0 684335.0 0
283212.0 683396.0 0
287033.0 683130.0 0
291405.0 684458.0 0
296779.0 682154.0 0
301907.0 680950.0 0
306446.0 682634.0 0
310243.0 684925.0 0
311533.0 680477.0 0
316084.0 684968.0 0
322128.0 685244.0 0
326636.0 683666.0 0
331560.0 685024.0 0
337308.0 684184.0 0
342455.0 683944.0 0
351012.0 684458.0 0
357458.0 685053.0 0
363440.0 684607.0 0
371255.0 681080.0 0
368580.0 683991.0 0
375005.0 684068.0 0
379748.0 684286.0 0
384245.0 683837.0 0
392650.0 682496.0 0
389085.0 684895.0 0
397474.0 683589.0 0
402503.0 682779.0 0
407092.0 683428.0 0
413258.0 683714.0 0
418694.0 684121.0 0
423756.0 683189.0 0
428358.0 684556.0 0
433624.0 683755.0 0
438374.0 682823.0 0
442800.0 684021.0 0
448363.0 683831.0 0
457644.0 682800.0 0
462109.0 680428.0 0
461514.0 684923.0 0
467125.0 684076.0 0
472821.0 683786.0 0
476904.0 681599.0 0
478062.0 685079.0 0
482003.0 684295.0 0
486115.0 680742.0 0
489734.0 684716.0 0
493120.0 681213.0 0
494148.0 685467.0 0
497892.0 683842.0 0
3175.46 685914.0 0
8036.17 685851.0 0
12528.2 686192.0 0
17420.6 687021.0 0
24153.4 687853.0 0
20667.1 690617.0 0
27496.7 688673.0 0
31009.0 689868.0 0
36703.0 686406.0 0
42175.3 687337.0 0
50567.3 686569.0 0
46729.5 689031.0 0
54862.8 689445.0 0
60630.1 689495.0 0
65882.0 689108.0 0
72372.0 689565.0 0
81192.4 685995.0 0
82223.2 690250.0 0
85637.3 689674.0 0
91547.1 690399.0 0
97101.1 688375.0 0
109051.0 690077.0 0
113582.0 689864.0 0
121554.0 690060.0 0
127217.0 688656.0 0
133696.0 689900.0 0
139882.0 685636.0 0
144888.0 688804.0 0
149571.0 690141.0 0
154606.0 688590.0 0
159627.0 689161.0 0
163800.0 689468.0 0
167728.0 689060.0 0
171758.0 690380.0 0
177179.0 689662.0 0
183541.0 689490.0 0
188693.0 689773.0 0
192016.0 688497.0 0
197330.0 689504.0 0
203390.0 689099.0 0
213744.0 685811.0 0
213933.0 689274.0 0
217700.0 688887.0 0
222330.0 689100.0 0
227462.0 689664.0 0
232931.0 689259.0 0
238569.0 689479.0 0
242979.0 689058.0 0
247847.0 690310.0 0
251803.0 689826.0 0
255813.0 690440.0 0
260884.0 689683.0 0
265965.0 688786.0 0
271859.0 689528.0 0
277029.0 688857.0 0
282245.0 689049.0 0
287711.0 687992.0 0
300822.0 685614.0 0
296118.0 687772.0 0
300587.0 690149.0 0
305785.0 688287.0 0
311711.0 689590.0 0
321973.0 690052.0 0
327476.0 689155.0 0
332665.0 689664.0 0
337106.0 689660.0 0
346515.0 685634.0 0
341879.0 688233.0 0
351925.0 689083.0 0
362929.0 689734.0 0
367631.0 688414.0 0
372335.0 688071.0 0
376899.0 689038.0 0
382055.0 688892.0 0
387564.0 690234.0 0
393971.0 689082.0 0
402118.0 686111.0 0
399565.0 689897.0 0
405514.0 690462.0 0
411482.0 688943.0 0
417176.0 689571.0 0
423327.0 688864.0 0
429666.0 689944.0 0
437482.0 686366.0 0
435220.0 689826.0 0
440956.0 688977.0 0
446556.0 689444.0 0
453849.0 685680.0 0
451844.0 690167.0 0
458304.0 689088.0 0
464017.0 689156.0 0
469193.0 689474.0 0
473926.0 688437.0 0
478656.0 689343.0 0
483125.0 688749.0 0
487744.0 689443.0 0
492528.0 689269.0 0
497284.0 688948.0 0
2915.89 691640.0 0
1225.57 695419.0 0
8543.94 690649.0 0
6821.33 695086.0 0
14252.1 690693.0 0
11735.5 694512.0 0
17504.1 694398.0 0
21641.9 694497.0 0
26054.2 692904.0 0
35154.5 691522.0 0
31802.6 694676.0 0
39610.0 691220.0 0
42182.5 694637.0 0
50355.4 691222.0 0
46378.5 693926.0 0
52545.0 695471.0 0
58235.3 694271.0 0
63514.9 693815.0 0
68084.3 693509.0 0
78513.5 690781.0 0
81861.0 694338.0 0
86955.9 694288.0 0
97228.6 694541.0 0
102991.0 691054.0 0
107127.0 695394.0 0
112234.0 694382.0 0
116863.0 692468.0 0
122795.0 695213.0 0
128659.0 694847.0 0
140099.0 691023.0 0
139533.0 695162.0 0
144477.0 693911.0 0
148555.0 695249.0 0
153185.0 694078.0 0
158220.0 693393.0 0
162811.0 693917.0 0
168095.0 693939.0 0
173966.0 693452.0 0
177372.0 695138.0 0
181709.0 694440.0 0
186599.0 694500.0 0
192299.0 693377.0 0
197495.0 695146.0 0
201800.0 693783.0 0
209169.0 691008.0 0
214477.0 693639.0 0
218877.0 694247.0 0
222500.0 694296.0 0
226824.0 695319.0 0
232383.0 694338.0 0
237232.0 694607.0 0
242438.0 693728.0 0
247154.0 695164.0 0
252500.0 694300.0 0
256722.0 695087.0 0
261557.0 694874.0 0
267228.0 694467.0 0
272719.0 695355.0 0
277634.0 693421.0 0
286766.0 693207.0 0
291595.0 690827.0 0
296779.0 693893.0 0
302664.0 694500.0 0
307597.0 693692.0 0
312246.0 694692.0 0
316889.0 691424.0 0
320954.0 694980.0 0
326429.0 695080.0 0
331742.0 694153.0 0
337573.0 695339.0 0
342958.0 693169.0 0
347050.0 690652.0 0
352860.0 694853.0 0
357694.0 691346.0 0
366490.0 692975.0 0
362367.0 694174.0 0
372175.0 693081.0 0
376957.0 693556.0 0
381057.0 693703.0 0
385469.0 695598.0 0
391343.0 695120.0 0
396894.0 694263.0 0
401807.0 694853.0 0
412919.0 693867.0 0
417880.0 695279.0 0
422502.0 694026.0 0
426749.0 694609.0 0
432793.0 693989.0 0
437566.0 694531.0 0
442998.0 693827.0 0
448169.0 694889.0 0
452395.0 694123.0 0
456579.0 694366.0 0
461868.0 694161.0 0
467430.0 694373.0 0
472594.0 692967.0 0
477305.0 693805.0 0
482280.0 693605.0 0
488488.0 694845.0 0
492999.0 693872.0 0
497500.0 693943.0 0
2838.41 699148.0 0
8063.05 700016.0 0
13271.5 699273.0 0
18022.6 698913.0 0
27281.7 698945.0 0
32935.6 700006.0 0
37407.2 696242.0 0
42174.2 699731.0 0
47718.4 698919.0 0
56779.4 699580.0 0
62062.2 698765.0 0
67606.8 699091.0 0
71629.9 695778.0 0
73051.4 700774.0 0
76726.4 695790.0 0
84226.3 699780.0 0
91664.0 696688.0 0
99081.2 699839.0 0
102194.0 696374.0 0
108937.0 699613.0 0
112896.0 698962.0 0
118009.0 697342.0 0
122127.0 700192.0 0
135178.0 696679.0 0
138979.0 700227.0 0
143384.0 698887.0 0
150968.0 699327.0 0
157174.0 698901.0 0
162930.0 698692.0 0
167796.0 699930.0 0
172955.0 697816.0 0
178003.0 699692.0 0
183214.0 699226.0 0
188072.0 699175.0 0
192529.0 698912.0 0
197214.0 699788.0 0
202500.0 699173.0 0
206128.0 696423.0 0
212636.0 698974.0 0
217500.0 699129.0 0
222500.0 698998.0 0
227998.0 700632.0 0
232759.0 699033.0 0
237718.0 699519.0 0
242755.0 698280.0 0
247853.0 699512.0 0
252087.0 698563.0 0
256409.0 699310.0 0
260822.0 699873.0 0
265601.0 699651.0 0
270827.0 700444.0 0
277105.0 699463.0 0
282152.0 696178.0 0
282248.0 700583.0 0
286900.0 699252.0 0
291422.0 695826.0 0
298576.0 700253.0 0
304028.0 699170.0 0
308228.0 698112.0 0
312844.0 699895.0 0
316474.0 696279.0 0
323340.0 699099.0 0
327901.0 700313.0 0
333230.0 699718.0 0
342770.0 699149.0 0
347464.0 695719.0 0
351190.0 699908.0 0
357994.0 696858.0 0
362918.0 699822.0 0
368509.0 697279.0 0
378314.0 697947.0 0
382971.0 700050.0 0
388404.0 700441.0 0
393440.0 700547.0 0
398012.0 699370.0 0
407746.0 696094.0 0
403360.0 699691.0 0
412602.0 699095.0 0
417672.0 700440.0 0
422241.0 698577.0 0
426983.0 700489.0 0
430347.0 697297.0 0
434972.0 699992.0 0
441159.0 699193.0 0
452484.0 699275.0 0
459281.0 699662.0 0
464429.0 698215.0 0
469181.0 699937.0 0
474382.0 697663.0 0
479380.0 698703.0 0
483956.0 698243.0 0
488153.0 700090.0 0
492666.0 697814.0 0
497500.0 698916.0 0
1712.8 704219.0 0
5759.99 704666.0 0
10971.4 704070.0 0
16965.1 704163.0 0
22056.6 701083.0 0
28296.4 704436.0 0
33327.6 705394.0 0
37586.7 701919.0 0
42452.1 704874.0 0
47126.7 704082.0 0
52130.0 701193.0 0
57106.7 705143.0 0
62472.3 704012.0 0
67134.9 704027.0 0
71223.7 705658.0 0
76027.8 705317.0 0
78325.7 700971.0 0
89734.1 701116.0 0
87150.0 704585.0 0
94437.0 701039.0 0
91844.9 705497.0 0
97714.3 705160.0 0
104173.0 700819.0 0
108531.0 704602.0 0
115933.0 701258.0 0
113895.0 705074.0 0
119216.0 704481.0 0
128178.0 702241.0 0
134937.0 701894.0 0
138504.0 704740.0 0
146990.0 701133.0 0
143397.0 703915.0 0
146981.0 705077.0 0
151416.0 705124.0 0
157361.0 705244.0 0
162833.0 703785.0 0
167758.0 704931.0 0
173425.0 704101.0 0
177969.0 705028.0 0
181777.0 704488.0 0
187123.0 703938.0 0
193336.0 704818.0 0
198723.0 703759.0 0
202919.0 703800.0 0
208003.0 701010.0 0
207293.0 705373.0 0
212282.0 704375.0 0
217524.0 703898.0 0
222457.0 704022.0 0
226552.0 705159.0 0
231465.0 703811.0 0
236422.0 704226.0 0
241592.0 702881.0 0
247223.0 704626.0 0
253438.0 703759.0 0
258797.0 704214.0 0
262802.0 704020.0 0
267225.0 704413.0 0
273203.0 704950.0 0
277647.0 705000.0 0
281998.0 704129.0 0
286965.0 704454.0 0
292458.0 700968.0 0
291019.0 705538.0 0
301847.0 704452.0 0
306218.0 703370.0 0
310613.0 704037.0 0
315058.0 705494.0 0
318511.0 700869.0 0
320126.0 705840.0 0
325666.0 705694.0 0
331364.0 704703.0 0
336133.0 705268.0 0
337959.0 701221.0 0
342037.0 705835.0 0
347029.0 702542.0 0
351416.0 705333.0 0
356604.0 702188.0 0
367708.0 704592.0 0
373199.0 700957.0 0
378705.0 705194.0 0
384844.0 704619.0 0
389685.0 705784.0 0
394594.0 704925.0 0
399927.0 704639.0 0
407969.0 701397.0 0
403970.0 703991.0 0
412923.0 704457.0 0
418111.0 705152.0 0
422664.0 703649.0 0
427370.0 705746.0 0
431833.0 704120.0 0
436452.0 705250.0 0
441487.0 705002.0 0
446548.0 701770.0 0
457330.0 705866.0 0
462122.0 704571.0 0
473638.0 704552.0 0
484219.0 702378.0 0
479785.0 704138.0 0
492975.0 703295.0 0
497909.0 705173.0 0
2251.05 708634.0 0
5555.76 710664.0 0
10566.4 710003.0 0
17124.2 710656.0 0
23548.2 706055.0 0
22600.9 710853.0 0
27762.7 709875.0 0
33331.1 710859.0 0
38125.6 706417.0 0
47174.7 709888.0 0
51763.2 705935.0 0
53071.8 710938.0 0
58254.7 710458.0 0
63558.4 709374.0 0
68428.8 709252.0 0
72804.7 710200.0 0
77435.4 710043.0 0
81800.2 706304.0 0
87342.3 708984.0 0
92557.0 710651.0 0
98295.7 710682.0 0
103144.0 706466.0 0
107322.0 709805.0 0
112321.0 709268.0 0
117365.0 709232.0 0
121574.0 710675.0 0
123812.0 706974.0 0
128061.0 708246.0 0
133477.0 706149.0 0
137300.0 709731.0 0
142965.0 709191.0 0
148109.0 709072.0 0
153202.0 710567.0 0
162926.0 708883.0 0
158462.0 710596.0 0
167366.0 709468.0 0
172165.0 709964.0 0
177548.0 708919.0 0
182499.0 709416.0 0
186771.0 709031.0 0
191050.0 710487.0 0
197778.0 709678.0 0
203471.0 708692.0 0
208232.0 709883.0 0
213265.0 709501.0 0
218102.0 708958.0 0
222118.0 708937.0 0
225928.0 709445.0 0
230916.0 709310.0 0
236703.0 709439.0 0
242529.0 708802.0 0
248080.0 710162.0 0
252479.0 709935.0 0
256713.0 708433.0 0
261176.0 710415.0 0
266729.0 710202.0 0
272414.0 709606.0 0
277903.0 710241.0 0
283247.0 708322.0 0
288561.0 709831.0 0
293455.0 710693.0 0
296103.0 706268.0 0
301172.0 709148.0 0
307567.0 709479.0 0
313537.0 710433.0 0
318629.0 710602.0 0
323207.0 710214.0 0
332231.0 709609.0 0
337556.0 710643.0 0
347267.0 707679.0 0
351817.0 710757.0 0
356267.0 708027.0 0
361389.0 705950.0 0
363627.0 710714.0 0
367700.0 709922.0 0
372849.0 707672.0 0
377190.0 710550.0 0
382420.0 709088.0 0
386600.0 709949.0 0
392331.0 710139.0 0
397517.0 709683.0 0
402452.0 709193.0 0
407207.0 706331.0 0
411680.0 709567.0 0
417384.0 710536.0 0
422821.0 708813.0 0
427682.0 710955.0 0
432611.0 708910.0 0
438094.0 709917.0 0
443272.0 710682.0 0
446099.0 706889.0 0
448192.0 710678.0 0
451487.0 705968.0 0
457471.0 710505.0 0
462305.0 709688.0 0
467351.0 705930.0 0
472269.0 710758.0 0
477759.0 709274.0 0
482853.0 709284.0 0
487458.0 706324.0 0
492474.0 709483.0 0
497461.0 709172.0 0
38739.9 711237.0 0
42876.2 712961.0 0
82551.8 711246.0 0
102952.0 711176.0 0
125628.0 711446.0 0
131933.0 711713.0 0
297364.0 712139.0 0
327487.0 711289.0 0
342834.0 711776.0 0
347257.0 711655.0 0
359149.0 711978.0 0
372541.0 712165.0 0
406581.0 711334.0 0
452852.0 711720.0 0
467069.0 711299.0 0
487931.0 711444.0 0
POINT_DATA 5000
SCALARS Radius float 1
LOOKUP_TABLE default
5379.87 5529.52 5191.63 4216.92 4107.03 4478.15 4043.57 5925.6 4792.73 4501.51 4736.58 4931.38 3485.26 4329.05 4151.94 4049.23 5337.48 6124.89 5708.81 5252.48 4780.03 5495.39 3996.0 3856.1 4665.12 3383.4 4133.88 4834.9 3850.77 6044.04 5415.48 5120.0 3863.18 2356.98 4998.37 6182.6 5492.18 5258.36 5061.3 3642.12 3163.97 5812.43 5122.66 5906.14 5484.19 7513.1 5254.28 4436.4 5733.48 4672.91 5580.89 3588.44 5645.7 5176.86 6810.52 5840.26 3672.51 6110.27 5561.06 5073.35 3615.22 5670.04 4380.59 3589.27 6716.79 3607.45 5759.91 7613.27 4951.03 5255.32 6037.08 5096.78 6756.95 4129.43 6324.23 4727.24 3843.58 3320.52 4194.5 4270.53 5082.47 5344.25 4593.7 4150.99 4177.94 4742.68 5634.83 5782.6 5113.21 4862.21 3929.19 4502.5 3771.48 4271.69 5681.38 4138.42 3708.04 5513.6 3240.09 4556.36 6082.81 3191.99 4685.34 5601.05 4929.8 3586.91 3103.0 3554.9 4015.92 5542.21 4487.31 3936.02 4044.71 5980.74 4094.62 4927.02 5546.39 5325.36 5484.83 5085.53 5351.6 4730.36 4715.55 5867.73 3951.75 5013.56 4499.64 4375.68 5542.27 5054.98 6030.06 5170.02 3557.27 4927.31 4688.68 4402.52 4517.56 4182.53 5903.42 3955.56 3761.32 4118.05 4366.19 5553.16 2938.66 4940.78 4231.61 4008.92 3942.53 3379.84 4827.82 3997.1 3260.67 5123.52 3038.33 4392.68 4333.2 7199.21 4523.7 2240.39 5091.39 5293.9 3912.37 6142.94 4602.25 4790.08 5344.0 4763.45 5445.87 3815.26 4704.72 4571.7 4344.58 5896.46 5495.84 5820.48 7034.11 6261.42 5499.11 5922.5 5198.77 5987.17 6013.14 4901.41 2765.2 5110.37 5664.98 4382.74 5927.43 4651.28 4384.42 3693.63 4516.43 5481.78 5637.59 4937.14 5043.05 5816.2 5693.81 5109.54 6483.19 3829.13 5945.65 6759.9 5538.89 7021.47 5416.38 6059.59 2720.68 4955.55 5701.86 3563.63 4238.81 4468.59 5885.03 2837.58 5325.02 5200.76 5017.13 4862.64 5185.34 4432.58 6684.56 3968.64 4688.67 2635.86 5292.64 6166.5 5065.13 5936.02 5305.17 4861.08 4003.05 5390.22 4805.87 4712.33 5227.21 5697.78 4667.36 4091.31 6372.62 4254.17 4295.38 5615.42 7565.34 5923.5 4612.68 4281.49 4973.83 6342.25 6691.39 4840.84 5135.69 4020.32 6045.46 4245.72 5908.1 6048.7 6268.1 5022.8 4178.4 4861.06 3979.26 3471.03 5253.55 5011.84 6946.21 2586.12 5433.8 4011.77 4527.08 3633.87 4850.01 3970.25 5147.67 3979.82 4292.06 5011.31 5138.31 5264.06 4659.59 6327.9 4048.37 6355.42 4362.19 5690.56 4948.92 3115.91 4493.48 3307.12 5924.89 4002.16 4174.52 4138.16 3486.22 4684.5 6230.49 6458.82 5418.62 4601.27 5493.32 5740.68 5926.61 6051.14 5836.15 3261.21 4345.55 6704.06 3653.41 3871.88 3856.01 5246.2 4390.66 5279.39 3673.74 4827.23 5205.43 6116.18 7447.37 4924.6 4385.06 4733.32 7184.19 2899.43 2924.37 3867.67 4290.3 5399.73 4660.72 3888.21 5891.05 6038.78 6902.81 6644.76 5629.19 5090.24 4786.6 5740.84 5530.87 6445.94 4310.18 7134.64 5978.9 4187.56 3629.62 4997.27 4301.06 4290.14 4877.67 6562.18 4156.38 4541.21 5316.75 4164.68 6133.92 3719.84 5934.22 3784.5 3780.23 6481.79 5320.28 4298.67 5960.66 3999.48 6608.73 4359.62 6057.22 5062.71 6125.34 5347.48 4810.12 5643.58 5215.05 5577.04 5006.58 4602.86 3688.8 4548.16 3369.23 5449.18 5492.26 5244.78 5762.84 3937.74 4749.8 6084.86 5478.92 4778.34 5551.36 6894.71 3091.3 4414.54 5789.98 6138.47 7054.71 3641.64 5489.43 5747.75 4277.89 5054.25 4796.33 4195.44 5539.32 5360.19 6496.85 5600.93 4874.39 5541.59 4124.71 5728.85 6337.56 4911.47 5803.39 5863.59 4381.97 6257.19 3255.82 5242.73 2812.98 4065.69 5603.15 4695.45 6052.7 3921.18 3798.62 5308.1 3666.57 4907.89 4937.02 5655.21 4645.41 4433.59 4320.28 5542.14 4218.06 5480.13 6308.71 4716.19 5514.76 3456.98 3498.2 3066.13 5105.16 4302.5 6006.16 6009.88 7055.53 5669.65 5013.67 5624.49 3095.48 5762.59 4166.08 4123.6 5374.51 6739.08 4797.52 4569.12 4796.58 5873.69 4962.09 4203.26 5654.31 5188.81 3745.84 5690.26 4156.2 4497.59 5965.78 4374.35 5252.34 6396.74 2775.04 4138.46 3821.72 4986.77 6318.18 5586.81 3948.17 4621.75 4551.24 5358.59 4220.88 4515.71 6519.71 6640.13 5082.6 5810.84 4230.54 5094.44 3748.24 4655.49 4467.94 4850.81 6038.14 2540.31 6029.66 5527.54 5573.7 5697.4 4727.62 4270.95 4055.8 7325.81 5280.17 6425.26 5143.58 4794.96 6186.19 4839.34 5083.08 6834.49 5525.39 3998.5 5938.34 4024.3 6394.38 5555.28 5169.36 4737.14 4686.65 5834.74 5556.96 5788.23 5581.75 6392.01 3599.45 6730.19 4907.06 4073.93 3735.44 6043.3 5952.75 6332.36 6122.55 2739.94 4931.53 4223.33 5911.67 3323.28 6695.82 6405.76 5794.24 4678.38 5448.61 5050.65 4827.33 5513.57 5729.23 5826.04 5339.78 4143.78 7092.87 5224.12 7042.12 4850.14 6326.39 6817.32 4319.79 2965.01 4471.58 6098.14 3637.61 4472.17 6222.42 5945.21 4938.74 4730.41 5696.88 5607.14 3923.03 4643.85 5975.63 4274.61 5564.02 2965.79 6898.19 6035.6 5137.34 4481.53 5330.45 4581.13 3610.4 4219.07 6387.01 5367.52 3092.35 4322.15 5210.03 3629.96 5478.47 5351.39 6142.37 6061.47 4933.21 5375.47 4723.12 5120.49 5201.36 5262.61 6302.8 5409.61 6038.2 4005.44 5206.78 5555.88 6732.43 5028.96 3866.16 6362.12 4484.76 4840.01 2980.99 5611.2 7933.0 4455.12 5173.87 4894.16 5380.13 5711.87 5118.27 4941.22 5932.23 5791.61 3369.13 4479.66 3043.85 5367.2 5461.13 4726.76 5839.13 5495.68 5489.34 5163.9 5708.14 5537.72 3920.42 8332.24 6155.31 4553.56 5329.64 6049.55 5709.62 5835.78 4127.74 2476.04 3942.07 7443.72 3937.08 5260.34 5206.48 4709.35 6586.45 5226.0 3365.82 4538.95 4970.88 4763.66 5163.55 4666.81 4819.73 4940.42 3382.7 3954.91 6471.55 5085.71 5499.39 5644.82 6643.85 5501.93 6343.14 5463.38 5774.97 5462.21 5750.71 5470.77 3474.39 4831.47 6062.05 4004.04 5082.74 4289.17 6072.45 4410.55 7099.43 5526.14 5423.0 5198.29 5077.33 3856.59 4746.52 5413.79 6338.89 6202.55 5025.39 4714.54 5893.5 3320.11 5030.91 6022.17 5119.37 3982.23 6163.38 4566.18 3459.9 4964.09 4809.42 5024.9 4306.53 5659.17 5094.81 5972.06 5713.22 5861.71 4359.04 3183.98 3794.63 4524.28 3778.1 5152.36 4511.82 5826.64 4220.65 6820.42 4816.2 6321.41 4896.52 4751.02 3372.79 5184.56 5282.64 4715.72 4669.66 4808.52 5046.33 5607.24 5053.92 6352.26 3847.38 3818.59 4863.72 5002.48 6623.85 4262.82 5102.36 4342.9 5069.84 4051.44 4241.89 5054.74 5941.72 5991.09 5133.97 6600.94 4788.58 5371.02 6155.1 5876.71 4373.3 5029.78 4750.78 4163.5 5724.64 5965.15 4780.2 4636.5 3703.1 6090.91 4946.42 5923.4 5081.78 6116.33 6263.44 5960.56 4118.84 4020.95 6313.06 3493.7 6470.3 4200.03 6939.12 4735.33 6915.83 5092.37 6444.77 4287.63 5315.4 6449.45 3975.31 3689.45 3824.16 5572.95 3868.18 6723.16 5584.06 7111.16 4547.19 3817.13 5507.24 6851.54 4583.31 4503.89 5806.08 4853.39 4997.27 4093.08 4449.22 5543.27 4717.05 5287.2 6135.57 5998.38 4312.67 5423.8 4270.24 4989.15 5017.78 5015.69 6175.81 4727.24 6677.09 4305.57 6959.81 4829.35 5201.67 4424.7 4089.76 5526.55 3192.41 5215.15 4987.87 3315.57 5804.71 4764.96 5727.3 4242.52 5356.51 4277.88 3057.03 4087.15 4143.08 7500.97 3948.23 5228.18 5787.31 5065.11 3927.99 4050.9 5868.82 4978.31 4099.77 4981.9 4537.32 4656.78 5126.91 3600.43 5131.24 5196.67 6496.67 5474.8 6262.72 3664.11 6515.84 2990.77 4888.6 5078.86 4918.77 5100.1 4371.99 3561.29 4219.78 4963.34 3885.86 5019.93 3295.83 5235.29 4459.28 4260.92 4479.94 6250.23 6413.02 4863.27 5862.86 6049.79 5374.98 4719.7 6345.13 4406.4 5411.85 4844.57 4027.46 6314.07 4470.98 5776.37 4516.28 3627.82 4044.45 5125.78 5344.43 4373.47 5045.38 5350.88 5372.61 3686.21 6480.17 5023.15 4377.07 3813.22 5101.59 5570.3 4336.42 5243.29 7589.94 3130.65 5628.24 5856.11 3327.49 4109.88 4234.94 4562.29 5013.13 5080.66 3417.33 4926.42 4164.13 4642.34 4520.1 4947.52 5874.89 4293.03 5813.4 4389.21 3791.79 4925.44 4754.05 4951.47 6084.93 4307.28 3697.96 4739.42 5538.93 5020.12 4745.45 2631.9 5281.28 6255.18 4668.71 4758.21 7228.46 6362.14 6719.88 5978.82 5266.5 4523.88 4066.38 4948.98 5227.52 4414.48 4092.24 5163.02 7144.24 4906.82 5687.83 5004.23 6442.69 4648.04 6607.87 5117.47 4721.32 3163.78 4925.63 3293.56 5882.65 5274.14 4739.14 4434.19 5187.7 4623.61 4188.3 6261.75 5177.64 4255.31 5453.3 4094.73 4407.9 3492.19 4440.57 4584.5 5122.63 2315.64 4703.08 5226.56 5274.19 5516.95 5313.22 4413.85 3905.51 3999.94 4864.22 3901.8 5759.46 5083.41 3921.08 4190.31 5678.96 5262.19 4244.9 6070.58 6034.41 5452.83 5130.91 5402.24 4519.22 6445.22 3844.9 3695.36 3963.86 3848.93 4306.11 5935.47 3402.32 5903.66 4528.49 5004.67 5365.89 5992.26 3960.8 5070.39 4980.85 5714.58 5110.45 5208.32 5248.77 4083.97 4607.02 5153.74 3895.51 4528.09 4165.81 6291.51 4128.98 5882.89 6246.22 4188.32 5246.61 4100.38 5344.77 4723.48 4899.11 5097.87 4278.07 7267.18 6256.02 5320.92 5269.18 4406.1 5034.59 4942.77 4263.33 5080.18 4454.63 5912.61 3279.1 4403.98 4560.84 4729.43 5776.57 4562.74 5683.26 5598.74 5139.5 7493.3 4814.55 6320.71 5698.77 3527.05 3464.83 6413.11 4305.16 5092.28 4965.89 4903.82 5746.28 4082.47 5511.6 4338.08 4517.73 4378.3 5469.47 6134.99 4989.56 4718.54 6736.03 5548.29 6766.43 5916.16 3623.87 4390.41 6113.95 5599.49 4097.57 5017.5 5563.79 6171.13 5511.88 4512.11 7055.42 5486.68 6048.86 4285.32 5490.43 5022.28 5197.52 4959.34 4948.5 4527.02 4531.14 5013.42 4564.34 3838.56 4871.44 5076.35 6020.48 6375.99 5200.05 5234.29 5313.66 5419.37 4466.03 4511.54 5409.33 5196.0 4923.9 4973.78 3329.99 3947.47 3296.27 5091.68 4713.25 4204.84 6243.0 6673.96 3556.85 3161.47 5441.96 3435.9 5174.89 4288.3 5370.52 4652.29 5774.81 3746.31 5498.32 5027.98 5346.27 6475.1 4969.21 2691.29 2845.98 4880.14 5289.52 5314.85 4305.43 5450.44 6510.17 5742.65 5592.32 5381.16 5565.13 6193.35 6086.96 5233.78 3701.27 5653.9 5046.21 4929.14 5894.61 3979.54 5304.13 5944.09 5833.06 4923.41 2477.07 4497.31 5384.76 5529.42 5257.12 5243.43 5659.95 4152.85 5551.9 2908.7 4453.64 3757.34 6415.61 4687.64 4419.71 5660.16 4541.8 3838.47 2588.37 5842.56 5887.15 6235.57 5412.31 3087.09 6934.37 4890.5 4050.08 3981.07 5452.42 5328.22 6853.85 3497.9 2395.5 5941.61 5782.48 6248.6 3836.45 5683.61 5100.25 6894.26 4986.51 5339.38 5178.99 5383.07 4591.87 4790.78 4247.15 6552.22 5651.07 6248.81 5273.35 4091.8 4645.58 2651.49 5512.23 5275.32 5985.29 4898.94 4178.15 4613.31 4733.04 6119.09 5788.66 7531.29 5069.25 5048.89 5935.03 3991.03 6390.78 7435.25 6826.57 4788.87 4495.87 3702.37 6022.72 4643.31 5527.33 6917.52 5402.21 4989.09 4982.31 4307.48 3848.54 5941.4 5331.02 4871.96 4863.23 4402.67 4470.61 4631.83 4384.88 6887.27 6008.49 4806.34 4287.53 5612.21 5945.08 4968.03 3306.14 5490.58 4863.79 4702.06 3830.46 6031.67 4689.15 6138.12 4428.78 5409.66 4537.14 4345.67 4765.72 4642.66 4752.14 5329.59 4888.12 5037.06 5512.16 5175.29 3197.63 4863.96 5191.08 5203.08 7480.41 3423.15 4488.85 3731.84 4901.07 5186.3 3436.15 4151.76 4020.4 3493.47 4596.75 4933.65 5443.58 4558.46 5805.86 4049.02 4470.4 5311.03 5255.12 6169.11 5615.35 4027.09 6422.84 4502.18 5379.09 4602.85 4962.77 5872.05 4853.02 6259.23 5181.4 5088.44 5670.2 4711.62 4247.23 4114.24 4268.65 4694.83 5509.42 4354.08 4256.43 5936.36 4520.62 3903.75 4755.47 4485.99 5127.16 5475.8 5314.69 6050.81 5543.46 4249.46 5965.81 4750.17 5660.85 2330.66 3990.25 4177.19 4752.51 3587.05 6229.37 6718.19 5282.91 4425.84 3797.33 7256.35 4800.69 6566.1 3555.86 6386.78 4996.99 4896.39 6081.14 5480.83 4220.46 4607.85 5128.57 6000.7 5604.21 3169.67 3361.92 6710.88 5395.14 3967.48 6213.04 6622.11 3685.13 6790.73 4655.16 5251.4 3867.19 5857.79 4039.91 5276.7 5036.58 6119.63 4950.97 5411.02 4752.9 4287.16 5199.44 4062.5 4435.51 5374.07 4588.7 5163.77 3766.55 4579.69 3554.48 6496.52 5005.85 4216.17 6484.17 4721.02 4254.37 3374.08 4031.78 6098.1 5708.99 5687.85 5346.68 5296.29 4611.53 4285.66 4896.11 5172.53 4135.62 5801.99 5534.94 5210.48 7644.38 7552.94 6101.92 5323.3 4998.21 4662.56 5166.79 5349.31 2976.22 3405.98 4649.22 5394.55 5094.52 4946.74 2682.24 5996.33 5928.32 5229.48 5475.7 4016.18 5526.75 5435.74 4244.99 5327.45 5560.26 6185.89 3997.96 4439.35 3460.94 6184.4 3691.0 3758.07 4373.45 4236.14 4407.87 5733.62 5282.51 4460.92 5945.89 4042.28 4105.55 4340.76 6065.22 4221.28 4456.39 5514.84 3633.79 5421.53 5937.08 6070.3 5233.29 4312.56 4612.06 5204.04 4750.58 5926.11 6667.68 5235.11 5211.38 5089.62 4590.55 4741.26 5920.32 4255.85 5097.69 3988.3 6543.13 5149.72 5776.96 5464.25 5486.48 5301.47 4617.55 5424.88 5415.85 8659.64 5683.95 5469.13 6027.62 5010.2 6123.03 5966.61 5711.11 4575.94 4938.72 3546.71 5768.57 5564.23 5950.04 4231.83 2435.33 6401.43 4558.47 5020.71 2681.29 5094.48 3872.61 4238.4 4318.48 6132.95 5266.22 4860.33 3685.13 6004.68 4051.34 3361.26 3627.55 6239.84 4635.6 4256.67 3457.48 3931.07 6430.39 5417.15 3688.16 4681.72 4945.39 3950.63 5415.19 4612.62 6631.19 3619.07 4467.04 4275.57 6385.23 5817.25 2983.99 2614.4 5061.98 6363.92 6205.93 4923.24 5830.72 3828.81 5309.98 4082.57 5255.18 5169.9 3004.16 4767.78 5235.17 4421.12 4779.5 4435.36 5254.49 6649.96 4303.19 5784.3 4256.57 3914.2 6088.68 4643.56 4135.08 5620.74 4778.82 6124.08 5467.84 5053.95 5266.01 5253.37 5767.9 6515.8 5869.4 3685.65 3701.16 4186.6 5895.77 4732.09 6136.49 4356.25 4757.74 4216.95 4209.49 5742.74 4244.21 4947.24 3645.12 3875.05 6200.54 5148.58 4199.45 6599.66 4055.54 4233.8 5765.42 6098.95 4997.83 4893.49 5325.44 5021.88 5956.65 4498.25 4188.87 3735.24 6574.95 4074.48 6333.29 5731.57 5997.88 5839.71 5576.92 6408.83 3930.79 5226.97 4004.35 3312.06 5180.76 6799.4 5278.36 5865.39 4427.28 6079.11 3082.32 3658.37 7440.72 3949.6 5376.71 5703.6 6326.18 5661.62 6648.68 4713.74 5626.61 5407.78 4084.49 6632.99 4537.6 5147.36 4419.61 7177.44 4563.46 6553.94 5726.66 5460.65 5652.0 5463.41 5225.33 4929.75 6045.22 4614.3 5134.39 3532.3 5769.98 5442.32 2221.99 3580.58 4863.01 5356.79 5657.36 3619.79 5029.47 6306.21 2978.76 2040.66 7016.27 5884.9 3876.21 5689.26 4916.22 6022.7 4940.84 5750.07 4833.46 4809.67 6045.67 3946.28 3821.94 5439.9 5367.73 3540.11 3456.47 4652.01 5421.64 7234.66 4207.54 4886.12 6419.12 4976.12 4817.16 5453.98 3991.42 4388.63 5102.75 4597.29 4200.09 5931.77 5151.21 5398.64 6817.57 4477.04 3614.96 3886.68 5703.74 5662.55 5737.92 5365.24 4360.23 5293.51 4763.96 5754.18 5008.63 3418.99 5132.68 4480.95 4993.35 4409.63 5521.25 3661.9 5370.85 5949.46 3178.54 3776.94 4765.02 4448.13 5070.29 4807.28 4867.08 2261.36 5075.55 4266.03 5280.69 4220.03 6923.84 5227.59 5449.46 6179.96 5703.07 6113.54 4662.43 6260.79 3963.76 4043.66 5528.53 6799.88 3062.43 5990.52 5426.78 2967.38 4159.35 6477.91 3091.67 4237.98 6439.37 4081.97 5401.99 5580.92 5973.33 5067.46 3583.21 2511.46 4011.37 2775.69 4785.25 6519.43 5876.64 5424.46 4857.84 4908.49 4962.21 4858.44 3468.42 4673.35 4771.13 4992.42 5297.19 4351.38 5550.75 5933.7 7248.4 5280.12 4444.97 5984.81 3498.16 4409.27 4640.06 4588.99 5471.74 3548.39 3673.28 4928.27 4858.51 3375.28 5625.65 4301.61 6107.89 4446.84 5660.55 5148.08 4834.87 5760.22 3672.21 5938.17 4795.43 5097.95 5108.06 3573.73 4693.52 6853.04 4745.43 5831.96 4747.55 3056.7 3755.95 6234.32 4586.19 4446.06 3450.93 4270.74 6595.03 4558.15 6218.95 5222.16 4690.55 5107.23 5136.08 5558.68 4802.32 4010.57 5629.39 4599.38 2684.03 5246.47 6157.04 4768.61 4522.21 5506.19 6719.94 4950.67 5832.37 6166.29 5453.6 5409.63 5294.77 4709.05 4630.82 6109.49 4813.08 5860.67 4540.86 5332.65 3764.1 4835.83 5604.35 6316.56 4332.87 6420.81 5208.14 4715.58 4450.7 5151.52 5369.08 3101.75 4347.74 5291.9 4009.62 2081.58 4874.18 6505.78 5461.55 3298.2 4270.15 6865.76 6449.64 6464.8 4684.44 4749.59 5799.69 5571.72 3809.69 3208.96 7051.9 4184.23 4144.57 6834.41 6226.14 5466.33 3000.29 5721.05 4247.69 4514.39 6242.79 4321.21 5950.45 4344.34 3583.49 5052.84 4366.74 5297.16 3184.64 5206.33 5530.49 5653.03 3718.69 4514.79 6192.0 2216.82 4509.89 4940.28 6752.75 5269.38 5607.3 2928.82 4222.4 4000.43 3420.08 4568.41 3624.7 4912.04 4539.07 5464.68 2685.81 5591.76 4585.31 5010.04 6625.18 5323.91 4570.98 5097.45 6293.89 5737.75 2761.07 4983.39 5366.52 3778.02 5533.72 5533.42 7132.12 3678.08 5518.57 4187.31 6191.29 3240.51 7422.36 5161.01 4298.15 4628.4 6051.83 4642.93 5941.9 4263.16 3973.12 3077.84 6642.76 6024.75 4497.78 5567.93 5987.42 4442.22 6451.33 5413.31 4669.06 3012.99 6400.08 4743.59 3317.83 4396.25 3763.05 5092.24 5549.49 5423.42 4518.04 4766.06 6605.86 5012.5 5435.19 7093.13 4953.1 5818.95 4093.99 3940.49 4406.05 4680.94 5089.1 5828.35 5876.72 5236.43 5285.07 4680.14 4608.41 4083.79 4187.94 5980.59 5021.77 3796.15 4801.8 7216.98 5271.02 4209.31 5718.28 5713.03 5849.65 4165.21 5134.67 4215.0 4936.96 4603.5 4481.76 5452.78 5065.26 4304.41 5885.28 6579.31 3004.34 5323.55 3022.6 4811.76 4914.45 4698.87 5351.56 4661.03 5160.59 5262.35 4691.91 4475.83 4255.34 4510.8 5064.79 5889.35 4394.56 5896.26 4275.07 5388.78 5825.38 4185.61 4047.87 5742.47 4917.99 6552.21 4367.78 5417.8 5146.37 4836.16 5300.96 5151.11 5463.48 5730.33 5545.46 4527.99 4543.1 4376.7 5190.61 8325.01 3764.06 4440.81 5434.47 5829.22 5631.14 4243.79 5811.18 5433.65 4008.15 4887.76 4811.32 4286.49 6184.88 5829.32 6405.0 5551.95 3918.87 2275.45 4633.05 4901.2 4383.56 4990.79 3562.79 4516.53 4122.92 3604.14 4452.54 5810.77 4028.32 2711.19 5474.15 7519.2 4099.92 4884.59 3858.06 4511.7 4478.6 4304.63 5263.27 6300.92 4173.54 5599.29 6038.68 5046.12 4807.4 7013.17 3805.67 4601.74 6506.86 5088.57 5580.34 3852.6 5775.31 4706.5 4647.67 5375.12 4356.36 4892.44 5578.94 7610.49 4286.17 3684.56 6028.09 5375.1 4172.6 5313.12 3984.88 5318.53 4732.09 4320.42 4281.98 7165.9 5344.83 5480.3 7509.24 4146.81 6101.13 4573.72 5099.21 6969.28 5636.4 5698.96 4350.12 5227.02 5670.0 4232.16 5222.51 4344.51 5680.94 3834.43 3781.77 5581.55 5193.01 3474.5 6550.44 3860.83 6348.03 5732.27 4523.39 5278.56 5146.37 6917.62 4013.38 4343.78 5263.3 3352.35 4909.65 3747.03 6523.86 7693.4 4326.48 4437.07 3449.37 5491.9 4264.91 4659.16 5789.55 4909.31 6522.59 5711.62 4798.17 5166.79 5425.98 6479.39 2895.63 4405.42 4997.91 5079.22 5381.54 4714.83 6355.68 5484.36 3953.55 4063.9 4469.54 4314.56 3928.53 5606.51 5740.65 3834.47 6349.67 6329.53 4590.01 6101.86 4227.41 5993.0 4803.57 5966.42 4110.59 3332.49 5354.66 4214.44 5378.23 4787.97 3746.36 4981.43 6789.23 3989.7 4777.03 4246.61 5452.36 3804.5 4609.02 6486.37 4638.18 5498.42 4196.37 3344.57 6448.66 5220.76 6945.98 7046.11 3427.63 4863.97 4449.98 6342.48 4840.44 5756.75 4587.67 5599.7 4163.74 3924.14 3665.95 4296.69 4095.75 3319.67 3603.51 4298.45 5283.8 4076.59 6609.84 5135.96 6464.15 5658.37 4707.06 4972.17 6074.94 5491.37 4250.88 4222.77 3783.54 5268.38 3475.67 5527.23 4792.39 4805.33 7038.89 3863.67 4814.12 5067.56 6137.8 6069.3 2735.53 5116.6 5388.39 2783.85 4356.49 4526.81 5048.19 3994.07 4219.94 5907.46 6740.71 5399.29 6487.56 5971.22 5533.19 5417.21 6602.43 3568.28 6063.64 5996.66 3598.08 2995.67 4599.81 5522.21 5698.23 7300.58 3608.06 4923.57 6633.61 5217.95 4867.7 4277.24 4075.28 5291.05 5161.1 4619.2 5166.41 5067.56 2596.96 5701.75 4350.15 4139.3 6541.45 4750.49 5078.31 5391.48 5228.75 4923.43 5131.15 4847.14 3950.27 5116.66 3566.79 5374.67 4741.28 4215.2 5069.89 2603.64 4157.29 6813.72 5327.75 4896.65 4946.23 6083.28 5211.6 4453.97 5138.2 3503.41 5783.48 4701.5 4504.35 4771.65 5589.37 5093.82 5951.81 6918.35 4834.3 6238.32 6804.79 6471.42 5369.5 4428.14 5164.1 4124.49 4479.11 6685.4 5699.53 4850.06 6332.01 7044.29 4234.18 7085.01 5980.95 6193.08 3862.77 5887.01 5168.35 3185.39 5335.47 3728.18 5633.61 4243.26 6799.23 4888.27 4592.15 4901.44 4854.11 4998.22 6104.26 5583.61 4986.71 7382.3 4668.88 4022.56 5027.43 3772.3 4855.01 6208.9 3340.09 5602.53 6061.63 2279.05 6545.43 4829.35 6760.92 8137.11 5484.32 6650.77 4067.96 4824.12 7104.73 6162.3 3272.75 4264.54 3516.27 7043.44 4263.78 4643.9 4807.35 6047.14 5009.83 5210.38 5717.8 3629.44 5003.78 3299.24 5293.75 6246.56 4061.6 5107.0 5473.72 6212.15 6502.97 4783.07 4852.58 6100.73 5806.31 3556.79 5456.71 7317.04 6412.67 7001.83 5012.97 4036.91 5110.11 5439.49 6639.64 5212.43 5454.12 6348.54 4066.57 5642.35 6372.13 6357.47 5404.01 6016.19 5535.91 3230.13 5714.25 6176.67 5325.96 5412.24 5016.02 4920.21 4049.16 5851.61 3936.95 6153.94 6836.82 3858.17 4631.99 4740.98 5128.77 5934.82 7122.87 5797.36 5001.58 4153.84 5119.86 5084.17 5089.26 3886.72 5415.45 3776.8 5096.43 6156.21 4653.83 2460.79 6171.71 3628.89 3908.98 6589.82 5522.75 5867.64 4438.58 6059.93 5073.02 3472.91 4989.2 4711.04 5007.21 7144.05 4506.18 4099.26 2970.9 6542.5 4383.47 5971.21 5261.19 3104.96 3831.52 4263.65 6106.43 6761.81 5467.63 5666.95 4642.2 4811.22 3683.86 4474.83 4918.76 4208.41 5658.14 5826.78 6214.73 2856.55 2205.51 4553.68 5361.87 3758.22 4268.19 4757.2 3205.68 4374.74 5561.74 4504.86 4788.08 4745.79 4198.94 5470.04 4908.75 6556.26 3971.08 6204.65 4482.9 4593.7 4349.13 4891.67 6379.14 5216.26 3687.65 4887.52 5478.95 3851.85 6318.23 4206.98 5156.76 6101.57 4891.38 4793.65 2949.12 5955.86 4532.89 4533.37 4848.46 5742.09 2779.99 5887.38 4581.37 6942.34 3658.05 5478.11 5526.31 5030.15 3644.78 3477.1 4078.93 6015.02 4501.78 4922.49 3572.94 7039.98 4820.17 4729.42 5244.98 4159.81 5792.98 6592.93 4385.81 6350.71 6436.74 4456.11 5096.24 5039.12 5769.14 6328.42 7307.21 3619.72 3381.82 5347.9 4646.51 4565.93 4504.52 7107.63 4831.93 5788.97 4023.93 4928.85 5868.89 3274.85 5556.0 5494.28 5610.53 5206.47 4580.06 4834.39 3926.11 5493.89 5262.47 3512.94 4467.0 4991.35 4994.65 4587.7 4258.98 3787.08 3903.91 5334.36 4568.64 3919.62 4127.53 5750.35 5210.75 4489.99 4548.45 6555.44 4551.26 5730.61 4508.18 6358.93 5175.89 3894.64 3703.49 5232.85 4062.56 4532.7 6200.63 5975.23 3217.67 4473.29 6163.54 4211.82 5684.25 5438.92 6550.4 3766.69 5513.8 6818.91 3503.65 3634.5 4027.63 6631.28 6571.31 4392.65 4058.87 5174.75 5932.07 4984.46 5948.71 5844.72 3856.53 3992.97 5460.89 6040.74 5260.85 2884.65 5393.65 5807.46 4961.99 4648.21 4393.16 3311.29 4549.69 6423.81 6192.77 4312.15 4458.64 4583.52 6418.11 5244.22 5585.14 5832.29 6456.58 4960.64 4983.3 4034.05 7778.01 5690.96 5798.38 3862.91 4125.9 5366.11 3419.87 4824.81 5113.6 4384.28 5944.3 3563.14 5135.5 5851.63 5212.92 5615.84 4464.73 6440.38 5545.59 4954.81 5755.15 4835.97 6419.64 4057.17 7066.96 5917.34 5196.92 4462.87 5644.81 4728.55 4929.6 4945.0 4658.11 5114.07 7124.45 4385.49 5064.67 4383.68 6618.21 2617.39 3717.47 5144.44 4051.18 6816.66 5079.64 5034.69 996.652 4509.46 5212.37 4680.69 6003.78 2628.22 5058.51 5965.58 4244.49 3352.34 5036.98 4050.03 4775.04 5188.53 4521.75 5569.2 5350.88 5420.67 6413.15 6103.11 5048.55 6459.51 4024.31 4955.16 4904.51 4147.31 5989.05 5751.15 4054.22 7228.94 4441.22 5853.89 6551.93 4595.12 3110.13 4386.8 6484.43 4625.67 3485.54 5510.9 3657.69 4883.63 3492.83 6280.13 3684.15 4730.14 2606.51 4438.76 3994.39 6006.89 3965.3 3814.65 4128.1 5372.82 4402.17 5127.82 5124.17 5805.1 7320.78 4064.58 4234.88 4834.44 5782.43 4456.26 4810.98 5091.22 6282.38 5640.72 5657.55 5727.79 5188.82 5043.14 4717.73 5072.5 3904.07 5748.9 3663.0 5553.94 3742.31 6304.49 5134.72 4608.34 5695.79 5464.83 2781.96 5414.58 4431.23 5740.98 5601.55 4346.07 4013.86 6545.99 5630.9 4218.16 4554.68 4368.28 4140.92 4692.32 5984.8 3127.83 4585.04 4212.15 5678.58 4263.18 6570.35 7142.95 4559.74 5836.26 6666.67 4583.94 5969.37 4928.35 3844.54 5849.53 3538.53 4420.11 6500.49 6127.39 4972.18 4607.18 4901.29 4124.76 4120.07 4882.66 3429.57 6746.66 5410.33 4642.74 3908.56 6735.97 5305.59 5416.45 3636.15 4330.58 5754.6 3288.01 4355.83 6870.97 2202.77 5351.86 5950.88 4149.55 6201.86 3380.69 5166.89 4140.4 3639.44 5446.4 5725.37 4725.01 5966.75 3743.76 4505.28 4971.29 6711.21 5510.45 4236.86 4941.02 3864.92 6119.99 2955.36 4618.73 3668.93 4446.58 7541.76 5401.4 5053.15 4775.49 5910.86 3220.29 6239.68 3845.9 4439.71 5667.51 4708.31 4027.33 3873.92 5431.29 5026.76 5023.41 4092.07 4546.44 4213.05 4224.3 4184.21 4700.07 5235.87 5273.37 4732.37 4985.3 5713.36 4966.07 4749.18 3669.32 4704.92 4546.96 5424.55 4287.25 4921.1 4392.75 3814.16 4271.07 4420.6 3622.8 5287.25 4770.51 5577.41 4012.92 5759.79 4177.47 5218.42 2918.64 4512.07 6139.64 4896.43 5236.24 4639.8 5260.52 3185.09 5114.23 4242.63 3269.54 7407.91 6015.22 4454.74 6063.44 4826.52 5046.31 1937.5 4337.32 5241.75 4731.53 4651.99 3763.9 4788.7 5863.0 5640.12 5329.76 3899.7 7200.89 4813.33 4147.49 4952.52 4802.98 3840.21 4833.55 4081.34 4954.76 6334.53 4844.83 5244.78 5652.87 6114.89 5135.63 6384.7 5952.38 3896.27 5807.52 6056.87 5474.01 5307.35 7554.58 4731.21 5491.63 3124.7 3868.62 6102.98 5138.33 5153.18 3425.69 4763.4 5454.11 5393.76 5806.61 4983.1 6010.59 7123.04 4009.24 5906.57 4932.29 4990.23 4681.29 3784.94 5499.59 5749.6 4141.21 4174.44 4564.41 6331.74 4198.9 4833.67 4252.18 4659.88 5325.91 5853.12 5157.38 6203.03 5069.9 6089.45 5810.17 3306.84 5265.21 4657.24 4400.14 4762.1 4316.0 3987.69 6502.99 6219.34 4191.01 4475.38 4589.06 4920.88 4184.47 6511.37 3999.5 5034.05 4598.54 5345.73 4933.49 4770.63 4756.8 5463.06 4462.35 3986.41 4241.68 6102.49 5495.0 2945.34 5064.23 6061.85 2904.46 5512.44 6449.06 5120.92 4685.4 6240.42 5146.0 5721.14 4577.73 5084.5 4918.64 6638.25 2403.72 5078.59 5134.33 5419.57 5162.67 3646.95 7224.99 4749.96 5377.37 5483.7 5018.69 3152.86 5457.66 6394.19 5973.89 5963.36 5230.02 5087.14 4342.18 5169.48 6016.08 6776.22 6064.71 3719.11 4467.13 6060.17 5136.87 5902.67 4708.17 3779.45 5784.37 3142.09 3682.35 5182.13 3756.96 6110.48 6245.52 3954.77 6793.1 3125.13 6016.87 6715.73 5209.55 5426.4 5763.05 5951.86 5357.39 3791.41 5076.84 5247.01 4208.37 5702.4 5685.74 952.938 5473.89 4678.7 3673.6 3450.07 6215.87 5191.26 5866.42 5544.27 3484.81 4666.12 6023.07 5674.63 5340.05 5995.4 5890.25 4216.44 6710.14 4426.02 4816.51 5188.22 4841.23 3990.94 4357.11 5477.8 4176.32 6069.78 5532.75 3469.18 6949.65 3372.95 4095.83 4489.29 5676.61 4301.93 5846.95 5268.15 5819.0 4924.07 3200.6 4629.02 5914.5 4288.45 4987.28 4759.99 4815.47 2646.13 4368.12 4365.58 5214.4 4636.53 5760.98 3629.49 4705.68 5469.35 5384.86 4019.34 4658.24 3623.19 5869.67 4906.11 4311.48 4387.39 4899.73 4564.1 4848.14 5366.22 6193.73 5518.11 3742.11 4192.21 5712.35 3597.43 5701.52 4743.9 4158.91 5311.55 5321.17 3360.86 4869.25 5545.21 3877.8 4333.87 6273.6 3667.93 5024.32 5813.79 2741.2 5790.42 4644.88 7350.26 5591.77 5003.3 4168.52 5106.46 5166.05 4506.66 5515.73 4850.5 5866.91 2820.07 5129.68 4825.73 5288.33 6296.54 4841.7 6740.35 4550.92 6485.77 6060.06 5393.43 5308.33 4685.65 6470.23 6506.63 5322.11 3495.3 5700.79 5735.08 4726.2 4711.15 4750.81 3825.48 3810.68 2804.54 4196.62 5005.6 2809.19 5486.89 7208.19 4549.51 5695.25 5716.42 5701.63 4620.95 6347.72 3460.93 4488.39 5124.86 4927.73 6006.16 4602.57 4608.62 5407.96 6206.98 4071.75 6562.03 4410.82 6443.99 3889.98 5193.58 5399.43 5766.05 5117.64 3835.81 3916.42 4869.48 5429.3 5510.96 4745.16 5825.55 5509.51 5719.79 4316.5 3199.4 5254.24 4914.03 5086.29 5144.56 5139.18 5551.43 3034.16 5049.99 4201.03 5001.87 5684.05 4279.44 5638.7 5058.34 4028.22 5293.13 3852.82 5487.63 3768.46 4507.36 5167.53 7145.73 5800.81 5403.97 4068.31 6562.92 5501.73 5077.29 3671.06 3612.44 7035.54 5233.76 4683.28 6405.69 5679.74 4165.36 4871.77 5811.26 5797.21 6019.35 6075.99 6028.63 5927.2 5146.1 4419.79 3869.39 5960.5 4753.76 6896.55 4638.09 5377.01 5330.26 4140.04 4668.8 5125.17 4697.49 4859.01 5524.45 7133.44 3953.26 4474.39 4658.59 6478.35 4916.7 5453.77 4104.04 5589.53 5025.42 3587.93 4975.85 5196.08 4517.29 5323.95 4495.75 6171.01 5796.26 4603.04 4870.94 5368.93 6121.56 7168.2 3565.32 3419.07 5710.33 4626.72 5344.44 5131.77 5549.71 3186.07 4967.51 7212.97 5490.64 5695.44 5034.34 3422.21 5036.14 5603.68 4944.51 6653.07 5532.72 4697.91 3220.8 4584.81 5179.17 5071.98 5270.51 4371.08 5148.1 7261.51 4968.14 5949.73 4312.48 5527.13 4278.57 5081.08 6318.25 6864.06 6008.81 4493.79 4932.56 4899.19 3487.31 5575.11 3918.94 6599.28 6224.85 5368.66 4795.08 5226.42 4697.24 4983.43 6311.89 4217.36 6734.39 6549.8 4851.18 5368.52 5155.28 5062.77 4884.93 5262.79 4494.15 5035.71 5407.69 4710.88 5152.78 4117.9 4057.4 5534.23 4781.9 4441.91 5828.25 5939.22 4215.05 4271.93 4604.1 5076.11 5990.75 5600.21 5459.92 4096.47 5114.67 5353.66 5030.33 5593.79 4965.24 6379.38 6257.79 4849.5 6229.83 4468.26 5578.18 5271.88 5293.37 5559.79 3763.85 4571.74 4096.86 3622.48 5001.51 6432.8 4369.86 5115.42 5482.76 5173.82 3745.02 3720.7 4211.36 5698.53 3769.2 3604.31 4507.46 4450.49 3468.45 4526.34 5610.95 5042.75 4598.92 5579.39 4979.52 5490.75 5224.64 5214.63 3495.68 5783.94 6370.33 7362.42 4202.77 5836.14 5537.34 5192.49 5726.42 6643.4 4674.9 5461.72 2549.95 3392.26 4361.24 5138.93 4556.19 5648.78 6875.73 4436.48 6081.3 5117.52 6213.24 5942.45 4228.53 4150.76 5005.72 6142.88 5111.26 5388.73 4574.54 5205.38 4764.83 4600.71 1969.87 3957.38 4841.28 5507.38 6889.5 4416.87 5300.17 4052.43 4896.67 3934.11 6025.77 6815.96 5339.6 5917.08 4725.11 3626.86 6371.96 5322.07 5770.07 5101.6 4282.11 5467.51 4625.53 2347.41 4542.16 3543.37 2030.03 2638.82 5527.27 5234.2 5104.39 4612.13 5846.6 5327.05 5438.55 5353.23 5977.66 4523.81 5106.33 5198.94 5933.54 5464.05 5879.24 3148.79 5740.78 4796.12 5997.91 5385.86 6791.86 4082.4 4930.72 4209.0 5728.58 4887.73 6297.99 5378.24 3856.73 5817.74 5887.71 5635.32 4827.61 4316.45 5409.08 5481.64 5673.75 5241.22 6647.08 6263.3 3422.29 4501.05 4407.79 6548.29 5352.24 3990.96 5034.46 5793.12 5469.17 5473.05 4373.2 6022.78 5884.99 6647.85 7025.09 4433.12 5161.74 7336.37 5099.9 6406.8 5118.86 7086.69 6170.9 5833.78 5758.98 5615.35 5288.64 3967.76 5987.88 3579.59 6123.46 6161.94 5057.59 4461.14 5285.6 5615.06 4949.55 5490.54 3132.34 5203.54 4047.95 6142.94 6581.56 3980.46 5383.9 5158.44 3886.56 4466.22 4496.51 6153.71 5483.37 5418.12 5934.05 4714.66 6771.18 4984.17 4656.01 6589.13 5602.62 5714.51 5628.97 4484.78 5157.73 5847.91 4903.84 4109.44 4290.49 4434.65 5209.5 5065.74 5791.25 4028.35 4873.23 5410.6 2980.31 5453.2 6348.93 6824.53 4742.82 4332.64 4422.23 4820.68 6031.22 5485.84 6424.77 4538.89 5918.95 5661.6 6099.28 5285.75 5385.03 3234.26 4169.15 4778.37 5360.67 5968.54 5592.54 4537.03 3247.97 5124.34 4114.2 4904.37 4326.06 4358.81 4651.64 5757.29 5016.46 5061.75 3769.24 3661.67 5517.65 4087.32 4009.68 4622.73 2569.12 4161.32 5932.28 6945.69 4298.7 3902.48 4304.64 4183.4 4733.79 6030.39 4905.53 4823.06 7392.65 5254.49 3757.23 6828.8 6883.86 3350.99 4065.28 5939.29 5418.98 4052.49 5326.03 6189.67 4948.96 5001.69 5256.82 4061.87 5165.31 3798.09 4288.5 5715.51 3721.69 4511.05 6561.94 5259.21 5092.93 2803.01 4444.0 6182.19 5327.39 5781.62 4037.86 4981.81 4138.59 4970.55 4938.33 4621.33 4541.22 4946.08 4934.66 3539.68 4984.01 6217.33 4557.1 6688.53 5927.1 6175.27 5876.51 6731.89 4733.41 5264.83 3901.53 5136.51 6815.51 5232.16 4457.05 3989.26 3618.64 4335.79 5453.69 5432.04 5689.56 3921.27 6556.86 3242.31 5265.63 4898.29 4431.06 5372.25 5730.2 4830.13 3494.16 5134.17 5370.9 4074.16 4529.77 4904.35 6172.27 5390.33 5078.73 5278.54 5729.0 5729.92 4179.87 6224.13 4761.84 5370.1 5129.4 5114.51 3303.49 5585.25 5256.75 6351.89 6530.78 2960.5 5560.23 4975.32 5237.55 3909.94 3799.01 5319.1 3038.91 4181.93 6570.43 3445.92 3820.19 4979.5 5236.69 4745.37 4586.82 6026.04 6200.05 5575.11 4034.41 5061.74 4420.35 5717.45 5117.83 4013.86 4645.93 5448.64 4585.37 6417.61 5395.12 3456.3 5783.69 6074.39 5317.83 3483.61 4256.08 5881.93 4399.52 4554.24 3939.96 5910.66 7415.84 5141.03 4840.44 8123.59 5765.14 4767.54 5121.08 4696.03 6177.68 4605.39 6270.59 6500.45 4907.55 4103.76 4286.61 2932.52 4603.66 4969.68 6636.43 5431.14 6298.8 5313.86 5178.07 5189.91 5777.26 4171.02 5703.84 3530.82 7012.36 5797.32 5028.06 4886.99 5159.67 3702.45 3161.1 5764.52 5684.88 6523.78 4645.86 5620.88 4941.52 5900.0 4325.13 4262.74 3783.79 5317.19 4248.14 5279.19 5192.92 4016.6 5275.57 7050.08 4786.66 5891.25 5095.52 4746.15 3720.38 4655.37 4758.84 4731.37 5023.61 4068.41 4672.86 5059.37 5783.38 3043.77 4139.39 6264.03 5088.64 3562.8 6589.8 6920.92 3729.16 3573.84 4174.22 3783.36 4067.89 3922.28 6294.09 4571.57 4121.07 3133.28 5524.28 6353.81 5859.17 4150.44 3518.14 5522.34 5771.98 2649.69 5899.78 5000.74 5772.57 5268.27 5244.95 4634.25 5901.8 3830.7 5350.9 4262.52 6738.9 4460.89 4157.1 8052.53 4867.12 6520.19 4637.3 1458.87 5734.07 3997.68 4819.83 4801.16 2927.84 5616.66 5688.77 4698.7 6229.64 2848.44 6045.26 6263.87 5743.8 4094.63 5084.76 6605.11 4757.87 3557.46 5971.95 3689.24 3979.46 5151.19 6321.97 6509.54 6119.0 4293.3 5128.59 4002.99 5587.3 3572.73 4864.38 3770.22 4390.64 4608.01 4045.67 5087.97 6005.95 4308.49 4581.1 6241.77 4085.96 5762.82 7360.12 6223.98 5821.49 5617.29 3035.06 5580.44 5998.13 4597.88 6275.25 6892.33 4505.3 4452.36 3976.0 4832.21 6463.71 4742.35 5394.79 5645.54 5264.08 4151.74 4526.87 5192.82 5245.95 5821.42 4515.02 3463.53 6126.03 5131.07 2970.24 4197.87 5105.54 5731.43 3414.67 5444.36 5044.68 6908.32 3467.11 4817.75 6153.26 4813.81 3882.37 4095.4 5188.57 6351.48 3873.79 5357.33 6210.0 5432.4 5037.58 7430.48 5992.06 5545.68 4970.12 6044.01 5973.57 6241.48 6033.28 6286.27 5071.38 4802.36 5368.28 5466.13 4220.43 5075.23 6666.34 4645.91 6834.92 6379.33 5130.57 5652.73 5402.45 3985.93 6412.84 2589.19 6079.55 3792.06 5485.61 4993.49 5310.33 6583.37 3688.83 3402.44 4848.98 5150.84 5184.98 4467.51 5339.82 4519.03 4930.17 5110.27 4745.44 4612.68 4232.33 5462.6 4747.68 5770.92 4262.19 3093.38 4845.91 4878.93 2002.78 5631.32 5793.14 4491.26 4511.34 4609.65 5009.21 5704.61 4379.91 4574.03 5290.37 4227.66 5850.38 4691.01 4594.89 4730.97 3677.85 5214.71 4677.84 4924.52 6044.69 5658.05 5462.1 6593.1 6032.45 5011.37 2827.92 4026.03 4441.44 4232.44 5336.61 5563.09 4848.15 5637.53 5523.81 4718.61 5717.67 5252.37 4499.54 4046.22 5640.67 6080.69 4967.93 6369.66 5678.08 5922.62 5125.45 5957.82 4188.16 6327.54 5507.07 2943.17 5327.71 4880.78 5257.38 5509.09 4975.56 7282.36 4829.77 3826.01 5581.01 3928.99 4125.75 5749.53 5090.48 5034.02 5582.28 5945.25 6071.59 3856.4 4696.06 4137.16 4937.36 5308.4 6581.13 4569.32 5537.61 6084.88 4491.96 4397.06 4199.44 4053.12 4479.5 6261.67 5460.57 3435.13 5065.78 5703.34 4521.42 6668.98 6649.52 6043.34 4939.56 4128.93 4959.72 4712.17 3808.04 4723.71 4461.67 6322.0 6007.1 6345.2 5488.96 5128.03 5410.73 4942.63 5087.3 6139.74 4975.57 7066.26 6150.31 3057.3 5873.62 4996.91 4811.11 5379.52 3920.44 4866.8 5314.67 5563.47 5651.46 4066.36 4000.51 3162.27 6033.93 5516.37 5092.44 5432.2 4612.4 3312.3 4746.19 6381.58 4439.09 3282.57 4798.13 5648.59 6697.45 5515.59 4432.32 3224.81 3775.38 5782.25 6457.89 4844.2 6572.17 3751.73 5555.89 3374.62 4766.47 4926.62 4871.1 6009.93 5872.45 4414.09 5191.29 3784.68 4947.64 3717.22 6305.9 6649.21 4654.92 4859.95 5286.55 4322.56 5522.18 5223.1 5625.02 3873.72 5212.05 5479.86 6474.5 4444.92 6959.88 5971.9 5247.73 3746.62 4876.37 4769.62 5260.13 4649.5 5181.31 5985.75 5475.83 6189.29 5984.55 5803.3 4721.98 5252.82 3543.98 5056.26 5878.55 4014.44 6604.72 6002.77 4431.46 3794.47 4610.55 3207.84 4967.02 3977.98 4614.49 5400.69 4462.5 5573.31 5004.68 4023.88 5348.11 4405.61 6126.5 4034.88 3511.5 5067.92 5357.14 3188.21 5919.27 3720.92 4793.06 6637.38 6188.33 6111.23 6916.18 5786.06 3868.69 5447.74 4450.51 3768.62 6033.72 3851.47 4966.74 4959.94 1635.31 5639.4 6185.73 4083.24 6520.96 3771.91 5217.62 6178.19 4616.81 5715.25 5212.2 5108.42 4630.5 3354.94 6296.36 4451.76 5237.27 7885.41 4907.03 4104.97 4575.72 5114.61 6118.13 2181.29 4420.3 6332.64 3917.09 4083.1 5270.1 3482.73 5130.56 4957.99 4063.26 4997.89 4542.62 3470.69 5093.28 4132.08 6009.88 4699.77 4850.49 4981.55 4592.49 3625.98 5144.23 6188.62 4702.32 6153.07 4763.04 4414.06 5944.52 4413.56 4532.67 2513.38 5316.05 4908.32 3995.08 5019.84 4810.74 3900.93 5784.38 4149.17 4329.8 5728.27 5672.46 3074.49 5202.33 3228.27 3956.24 7558.99 4142.1 5043.14 5333.04 5445.91 4521.99 4812.59 6842.54 7115.67 5675.45 3361.11 6038.56 2807.46 5599.16 4179.8 3488.34 5658.35 5428.24 5108.84 4582.12 4295.25 4520.14 7394.47 4729.45 4850.95 5374.09 6271.22 3421.81 3920.64 6186.24 5822.7 4137.41 3780.07 5466.49 4038.17 5007.41 3692.99 4907.48 6213.74 2329.93 6938.87 5412.07 5512.57 4806.99 4813.55 5856.43 3839.0 5349.85 5799.86 4362.94 4611.21 4469.82 6545.78 4870.14 4404.87 2932.2 5105.72 5767.65 5003.49 4750.76 3964.03 4216.33 5497.27 4081.77 4948.21 4987.01 4202.12 4706.31 2694.25 4735.99 6492.44 4613.32 3996.93 5145.39 6351.95 5195.09 5345.05 7679.2 6131.52 2626.41 4311.92 6729.99 5093.41 5464.34 3621.63 5801.89 5908.57 7296.47 5050.2 4821.41 4924.53 5616.11 4499.52 3874.12 4028.13 4457.73 6476.35 6260.58 4067.24 3053.19 6571.26 5580.95 3393.59 3549.92 4032.06 5246.81 5089.1 5888.95 5394.78 3463.34 5122.38 2853.68 5262.85 4998.37 5329.84 6559.82 3879.83 6565.95 4577.98 4487.51 5886.81 4246.24 6805.02 5354.48 4900.26 6261.13 4167.55 4720.34 5378.75 5244.47 5510.89 4495.33 5282.67 4159.89 5178.55 5146.69 6203.24 6818.23 4369.87 4488.41 6679.12 5652.19 5806.74 6578.62 6284.12 3465.03 4796.04 5229.56 6011.4 5172.1 4672.34 6052.22 5376.41 5003.63 4695.7 4944.08 4082.01 5269.39 4305.35 5210.22 5832.72 2451.27 5617.91 3903.9 4721.2 4444.95 5161.02 3124.49 6265.48 4203.68 5003.81 4739.56 3818.37 3352.46 4701.03 6225.05 5434.04 5200.1 3997.52 4881.51 4909.74 5310.33 6664.54 6842.35 5161.73 5259.48 4777.96 4803.4 6833.5 5742.39 2613.78 4780.16 3834.01 5738.37 4433.23 4813.24 5759.19 3113.64 4490.2 4304.75 5480.86 6139.9 4720.22 4313.38 6598.99 5250.56 3633.58 2468.16 6294.14 4339.97 5203.75 5169.09 4691.15 2459.88 4210.24 5470.67 5901.71 5225.11 5342.9 5733.12 5043.34 6436.29 5402.81 4600.81 4919.13 5640.63 5168.97 5783.88 5002.38 6705.93 4865.11 4731.16 5502.14 6470.87 4131.08 4465.56 5747.9 3864.19 4287.93 5315.71 6158.93 5081.65 4823.14 4621.32 5699.4 3878.8 4698.94 3948.21 5669.15 5296.05 5263.86 3330.85 5056.32 5533.52 5410.33 4747.24 4380.86 5576.16 5648.02 3308.75 4439.17 5677.42 4929.35 5606.22 3943.77 6081.35 5459.52 6262.18 5566.5 5663.36 5579.04 5125.53 5994.21 4444.54 5403.81 5779.9 6964.78 5299.03 4565.36 3922.98 4025.08 4008.67 5254.93 4770.21 6608.94 3796.73 5417.07 5656.84 6789.66 4739.41 5312.2 5847.27 4706.59 5734.84 3982.31 4950.07 4582.24 2832.83 5827.3 6036.99 3010.1 3825.98 4589.22 5087.03 4667.84 3906.41 4123.08 4512.6 4260.38 4636.45 4932.27 5638.51 6793.49 5252.22 3563.33 6060.19 4962.35 6786.37 4333.23 4328.76 5561.63 4124.33 4358.06 5093.51 5647.93 6201.49 5449.09 5154.74 4605.61 6898.8 5386.95 5332.11 4893.72 6004.72 4072.4 5373.78 5438.5 5345.65 5863.36 4632.75 5237.76 4994.98 4286.84 6423.96 6058.13 6988.4 6635.51 4060.17 6051.35 5302.53 4909.13 4287.61 4867.13 4604.34 4863.27 2701.42 5442.79 5051.39 6673.92 5242.38 4884.94 5362.15 4609.98 4738.72 4752.31 4276.59 5569.85 5405.6 3929.35 4884.93 4759.38 5082.25 4374.05 4287.15 5036.84 5282.51 5504.65 5813.68 5732.11 3618.53 5040.9 5596.68 8013.28 3846.55 5283.65 3082.16 4644.68 2892.36 5981.54 5911.29 5416.41 4694.27 6760.64 2515.5 5177.88 5551.79 6981.47 3916.15 4474.96 4084.87 4758.76 4790.63 5259.29 3584.05 4916.75 4818.53 5097.85 5584.64 6189.04 6224.64 4221.03 3799.55 5082.66 4550.77 4337.93 3550.88 4345.51 5536.0 4048.73 3860.8 5145.13 3747.96 5611.29 5940.5 4521.88 6568.45 5004.22 4601.54 4280.92 7263.57 4696.92 5705.96 6437.99 6632.04 6540.57 7360.62 4977.64 4985.45 4983.56 5699.51 4489.18 2489.44 4883.13 4836.76 4752.94 5551.09 3950.53 4501.1 5581.47 5894.69 4987.01 4713.56 6779.82 3999.81 5543.67 6377.45 4182.05 4502.12 3255.93 6853.07 6327.61 5151.68 4633.59 5733.59 5575.8 4455.61 6874.6 5240.97 5106.9 5306.31 5523.96 4223.53 4733.37 4535.94 6960.97 4523.9 5126.08 5604.0 5669.41 4951.02 3919.47 4602.7 3783.35 4868.66 4004.39 5159.9 4987.48 5943.61 4248.58 5479.17 4542.25 5020.37 4414.23 5233.88 4849.21 4785.55 3793.83 5245.4 6189.81 5367.05 4449.73 5647.11 4088.72 3945.62 3743.85 6236.46 5342.17 6379.3 5015.67 3795.63 5189.4 4576.71 6538.04 4894.15 6157.59 5201.3 5848.41 4090.28 6223.33 5438.6 7370.52 4726.5 5467.05 3724.23 4963.88 5888.94 3832.09 5175.88 5267.65 5739.69 4790.16 3509.34 5360.88 3731.58 3166.37 5369.42 5207.08 5205.53 4714.52 5499.37 5543.05 6028.89 5333.16 4888.17 5755.98 5392.85 5077.2 4384.91 4274.05 6550.61 4277.54 5529.09 6094.34 5925.82 5448.68 4739.5 6210.48 4491.62 3865.5 5268.93 3695.72 3037.72 3760.4 4037.16 6395.63 4246.83 5103.3 4727.98 4122.2 4516.26 3647.26 4587.19 5275.27 4531.46 4072.95 
SCALARS Velocity float 1
LOOKUP_TABLE default
1.64145 1.22932 1.99896 1.18513 1.1931 1.17784 1.44105 1.4044 1.50572 1.87703 1.47902 1.51714 1.3254 1.37929 1.30841 1.21922 1.24507 1.20527 1.1915 1.19166 1.22395 1.19286 1.19121 1.19178 1.19178 1.19178 1.19764 1.19963 1.19557 1.19681 1.19474 1.19577 1.19456 1.19178 1.19318 1.19311 1.19176 1.19527 1.19178 1.19168 1.19749 1.1955 1.19306 1.19292 1.19347 1.1919 1.19418 1.19169 1.19484 1.19337 1.19197 1.19157 1.19184 1.19266 1.19213 1.19587 1.19571 1.19223 1.19169 1.19686 1.19056 1.19181 1.19522 1.18434 1.20151 1.17229 1.19866 1.20523 1.23594 1.21594 1.21071 1.18833 1.25355 1.23683 1.24029 1.61441 1.54303 1.46501 1.59829 1.36031 1.31577 1.41409 1.60425 1.25807 1.19163 1.01721 0.975989 1.10776 1.17258 1.09626 1.26763 1.1787 1.29444 1.24641 1.35877 1.46285 1.61059 1.56736 1.49332 1.57928 1.33865 1.12333 1.31198 1.19892 1.2169 1.19178 1.19178 1.19178 1.22551 1.19065 1.19179 1.19426 1.19869 1.19127 1.19878 1.20176 1.19573 1.19821 1.19546 1.19648 1.19634 1.19236 1.1958 1.19389 1.19532 1.19504 1.19118 1.19586 1.1973 1.19296 1.19227 1.19662 1.19424 1.19314 1.19397 1.19178 1.1963 1.19758 1.19727 1.19161 1.19178 1.19362 1.19222 1.19578 1.19574 1.19178 1.19159 1.19728 1.19178 1.19178 1.19634 1.19259 1.19827 1.18434 1.19885 1.20359 1.23751 1.23712 1.2159 1.26487 1.1887 1.22903 1.12927 1.24255 1.49287 1.38677 1.41819 1.30638 1.48355 1.43417 1.12218 1.15339 1.0285 1.01041 0.942402 0.898062 1.04236 1.07461 1.07888 1.04089 1.08691 1.41782 1.4648 0.720652 0.890627 1.44682 1.33138 1.52051 1.24783 1.25065 1.20591 1.19745 1.20129 1.23341 1.19982 1.19375 1.19716 1.1991 1.20523 1.19802 1.20248 1.20064 1.1999 1.1967 1.19747 1.19672 1.19182 1.19445 1.19641 1.19181 1.19513 1.19178 1.19589 1.19706 1.19297 1.19227 1.19157 1.19595 1.19396 1.19402 1.19194 1.19671 1.19906 1.19245 1.19285 1.18773 1.197 1.19372 1.19678 1.1957 1.1986 1.20032 1.19753 1.1885 1.2008 1.20065 1.20152 1.20237 1.1876 1.20577 1.19937 1.19684 1.23752 1.22108 1.22299 1.25429 1.32973 1.18284 1.22347 1.31992 1.27346 1.16661 1.28428 1.20325 1.33668 1.32072 1.2697 1.22131 0.8727 0.962332 0.934173 0.773863 0.776997 0.805116 0.840084 0.865972 1.06351 1.06788 1.06435 1.0629 1.0124 1.01702 0.951361 0.959094 1.40123 1.33771 1.24689 0.906373 1.26969 1.37371 1.15504 1.17983 1.13853 1.20431 1.20445 1.1841 1.19755 1.19178 1.21388 1.20274 1.20103 1.20208 1.21644 1.2102 1.20302 1.20135 1.199 1.19675 1.19729 1.19677 1.19716 1.19284 1.19568 1.19052 1.19479 1.18733 1.19631 1.19621 1.1963 1.19324 1.1911 1.19638 1.19491 1.19564 1.19451 1.19501 1.19786 1.19985 1.19207 1.1931 1.19477 1.19449 1.19477 1.19178 1.19178 1.19178 1.20129 1.2019 1.18816 1.19974 1.19885 1.20133 1.20242 1.18882 1.18575 1.22567 1.22515 1.22204 1.2144 1.21402 1.17935 1.20142 1.24746 1.3538 1.24339 1.34869 1.14299 1.3464 1.09395 1.15034 1.16023 1.21785 1.19357 1.18101 1.01482 0.993688 0.925394 0.929969 0.9252 0.732829 0.724616 0.574945 0.676721 0.757199 0.813909 0.94248 1.18016 1.09382 1.00288 1.07021 1.13328 1.25889 1.24249 0.878973 1.20289 1.34096 1.17248 1.21101 1.04596 1.15896 1.2095 1.13384 1.21113 1.22733 1.20952 1.19941 1.19877 1.19806 1.20391 1.18902 1.20987 1.1998 1.19824 1.19648 1.19341 1.19901 1.1948 1.19132 1.19562 1.18957 1.18958 1.19423 1.18738 1.19221 1.19982 1.19288 1.18768 1.19846 1.1952 1.19554 1.1948 1.19543 1.19964 1.19471 1.19315 1.1947 1.19482 1.19496 1.19178 1.19145 1.19009 1.19982 1.19834 1.20816 1.19413 1.19381 1.20206 1.19318 1.19702 1.18058 1.17201 1.22319 1.20441 1.19131 1.19192 1.20218 1.14393 1.24307 1.25297 1.30611 1.0317 1.31638 1.10113 1.18978 1.13985 1.23476 1.1749 1.06732 1.16357 0.87866 0.938992 0.949384 0.914436 0.946286 0.90562 0.776361 0.696285 0.442056 0.412771 0.562359 0.636247 0.662265 0.69971 0.748913 1.06119 1.08622 0.984544 1.06474 1.07023 1.06989 0.995418 0.861522 1.21003 1.36344 1.12903 0.919835 1.18648 1.34956 1.06293 1.22397 1.36951 1.14965 1.20474 1.14607 1.21766 1.22091 1.20641 1.19641 1.20337 1.201 1.18164 1.1882 1.19117 1.19524 1.19687 1.19664 1.19468 1.19431 1.19505 1.19114 1.19277 1.18897 1.19228 1.19122 1.19112 1.19186 1.18979 1.19295 1.19411 1.19285 1.1963 1.19537 1.19488 1.1992 1.19177 1.19344 1.19451 1.19305 1.19007 1.19282 1.18872 1.1894 1.20015 1.1986 1.19494 1.21108 1.18705 1.19034 1.18376 1.19562 1.19686 1.19003 1.21678 1.19385 1.19135 1.19096 1.20445 1.17702 1.18565 1.13288 1.2485 1.31657 1.02786 1.09203 1.14249 0.947861 0.962781 1.30778 1.34849 1.08285 0.980402 0.978907 0.91741 0.899876 0.865928 0.918566 0.65625 0.578854 0.0979435 0.00765044 0.432064 0.494506 0.70086 0.644359 0.662808 0.827211 0.871288 0.81155 1.15576 0.978727 0.747925 0.885174 1.03343 0.820207 0.89381 1.23728 0.99371 1.19176 1.23513 1.30632 1.11162 1.28603 1.16759 1.17892 1.20456 1.17288 1.19178 1.20953 1.19379 1.20398 1.19055 1.19456 1.18615 1.18843 1.18895 1.19568 1.19533 1.1971 1.19475 1.19501 1.19537 1.19127 1.18868 1.18882 1.19273 1.19065 1.19099 1.19213 1.18972 1.191 1.19804 1.19732 1.19793 1.19403 1.19654 1.19514 1.19881 1.19168 1.19296 1.19286 1.19326 1.18834 1.18666 1.18704 1.19178 1.19582 1.23806 1.19864 1.18454 1.18711 1.18879 1.19586 1.18559 1.19468 1.19086 1.2162 1.1788 1.20146 1.1905 1.13605 1.1674 1.20946 1.24243 1.28954 0.982943 1.00623 1.0367 1.17802 0.923464 0.987949 0.920024 0.985562 1.039 1.31056 0.891837 0.900028 0.885774 0.872587 0.876969 0.953701 0.453945 0.58336 0.478183 0.446314 0.586271 0.612946 1.00053 0.0874555 0.452075 0.820852 0.81902 0.87789 0.395868 0.927194 0.969091 1.2185 1.22515 0.816073 0.869839 1.06391 0.969285 0.909111 0.872857 1.14192 1.02143 1.12151 1.13893 1.16774 1.24698 1.37125 1.29325 1.18378 1.21386 1.15497 1.21417 1.18819 1.19973 1.18479 1.1965 1.19329 1.1923 1.17971 1.19006 1.19563 1.1935 1.19614 1.19386 1.19439 1.19527 1.19157 1.19762 1.18954 1.19857 1.19567 1.19043 1.19212 1.18916 1.19163 1.19183 1.19885 1.19401 1.19272 1.19591 1.19534 1.19818 1.19113 1.19697 1.19341 1.19993 1.1898 1.19795 1.19178 1.18915 1.19444 1.19714 1.20615 1.19654 1.16962 1.19178 1.20266 1.18596 1.18134 1.19319 1.21652 1.18655 1.22309 1.12971 1.16536 1.20228 1.22041 1.23598 1.1024 0.937066 1.01317 0.779032 1.09749 1.06131 1.02652 0.964322 1.07875 1.28936 1.03768 0.926296 0.854272 0.950367 0.967415 0.552855 0.658323 0.498924 0.540491 0.617574 0.0311726 0.765009 0.765093 0.56993 1.10216 0.919625 0.806231 0.869149 0.865587 0.939014 1.00415 0.953234 1.00425 0.926277 1.09822 1.14976 1.15039 1.27297 1.2199 1.17354 1.1973 1.17801 1.13746 1.20416 1.19133 1.19559 1.19845 1.1971 1.19371 1.19188 1.17949 1.19063 1.19257 1.19168 1.19843 1.19281 1.19399 1.19519 1.1937 1.19661 1.18809 1.19677 1.19448 1.19243 1.19066 1.19179 1.19101 1.19244 1.19838 1.19284 1.192 1.19444 1.19462 1.19711 1.19102 1.19578 1.19277 1.19365 1.19616 1.20006 1.19949 1.18943 1.18426 1.19655 1.20639 1.1961 1.17211 1.19122 1.21204 1.18818 1.17956 1.19101 1.21364 1.19392 1.20538 1.20799 1.13976 1.18039 1.17103 1.2091 1.1693 1.22097 1.19726 1.01271 1.16135 1.02258 0.804242 1.063 1.01672 1.00424 1.0852 1.05327 1.06762 0.863171 0.856318 0.897395 0.877619 0.643286 0.500309 0.666839 0.256357 0.628372 0.465276 0.421468 0.439827 0.408391 0.0681673 0.816792 0.786477 0.871861 0.774889 1.0982 0.890756 0.824149 0.886249 0.865045 0.996017 0.982237 0.990451 0.975799 1.01325 1.10858 1.12027 1.15372 1.13494 1.12032 1.24269 1.16628 1.17548 1.16524 1.13757 1.20236 1.19272 1.19609 1.19264 1.19209 1.18694 1.19458 1.18118 1.19419 1.19067 1.19193 1.19165 1.19036 1.19173 1.1945 1.19142 1.19337 1.18969 1.19738 1.1937 1.19172 1.19178 1.20021 1.18645 1.19464 1.19784 1.19253 1.19211 1.1932 1.19519 1.19453 1.19673 1.19554 1.19844 1.19423 1.19634 1.19279 1.20466 1.18851 1.1872 1.19029 1.19126 1.20383 1.18974 1.16167 1.20994 1.18992 1.20201 1.1867 1.20378 1.19309 1.21174 1.12787 1.14415 1.16666 1.21842 1.127 1.16669 1.19287 1.10884 0.993514 1.04122 1.0429 1.00697 1.0537 1.01253 0.971698 1.01053 1.15843 1.34352 0.874367 0.990528 0.778132 1.18813 0.597728 0.648273 0.697254 0.715744 0.54659 0.960746 0.944392 0.633801 0.791246 0.737602 0.790927 0.771465 1.03962 0.808558 0.805667 0.803389 0.85021 0.911656 1.03418 1.00622 1.03311 1.00951 1.01408 1.18011 1.34376 1.1502 1.06716 1.1386 1.11421 1.26013 1.17153 1.17208 1.17401 1.14024 1.20301 1.19436 1.19498 1.19418 1.18891 1.19297 1.19722 1.18991 1.19665 1.18996 1.19752 1.18841 1.18993 1.19141 1.19415 1.19154 1.19353 1.19138 1.19823 1.1949 1.1933 1.18696 1.20016 1.18527 1.19298 1.19671 1.18531 1.1932 1.19413 1.19551 1.19457 1.19633 1.19629 1.19868 1.1944 1.19759 1.18951 1.20438 1.18521 1.18391 1.18811 1.19434 1.18716 1.18751 1.20168 1.18465 1.18123 1.19151 1.18864 1.19149 1.18687 1.19611 1.16551 1.13985 1.12484 1.21072 1.13595 1.18342 1.18267 1.12038 1.21941 1.04636 1.07942 1.13916 1.01677 1.1391 0.891823 0.827194 1.0471 1.30584 0.886515 1.01484 1.01723 0.661097 0.688874 0.896098 0.815093 0.699552 0.82934 1.07543 0.768296 0.78205 0.928306 0.942811 0.994968 0.804873 0.994588 0.881089 0.85904 0.911897 1.058 1.05584 1.0223 1.02621 1.21656 1.12189 1.14997 1.0989 1.19686 1.21026 1.17702 1.17765 1.14369 1.2031 1.19583 1.19396 1.19746 1.18698 1.18339 1.18592 1.1943 1.20281 1.19546 1.18955 1.1967 1.18812 1.19476 1.19226 1.19513 1.18933 1.18805 1.19208 1.19338 1.19638 1.19178 1.18683 1.20307 1.20259 1.1905 1.19216 1.19187 1.18921 1.19185 1.19176 1.19679 1.19598 1.19442 1.19516 1.19621 1.19748 1.19432 1.19812 1.19831 1.20408 1.18369 1.18831 1.19413 1.19579 1.18596 1.19709 1.19206 1.18831 1.19555 1.18398 1.1784 1.18783 1.18984 1.19186 1.19651 1.18255 1.17101 1.23054 1.1562 1.14478 1.16963 1.10425 1.13801 1.10347 1.06517 1.09419 1.11464 1.00667 1.04791 0.948092 0.883481 1.11953 1.16517 0.722039 0.355999 1.07332 0.898465 1.09352 1.07946 0.983341 1.15803 0.847089 0.90337 1.12057 0.949581 1.09814 0.937161 0.919888 0.924352 0.903703 0.783733 0.898404 0.934261 0.857202 1.03448 1.08509 1.07408 1.04248 0.94814 1.17487 1.19097 1.16511 1.06497 1.17918 1.09909 1.1618 1.23222 1.1811 1.17978 1.14961 1.2029 1.19538 1.19212 1.1871 1.18838 1.19447 1.20022 1.19273 1.19397 1.19589 1.19183 1.19559 1.18835 1.19229 1.18915 1.19422 1.18267 1.18959 1.19864 1.19792 1.18899 1.19547 1.19837 1.19407 1.1864 1.19178 1.19663 1.19389 1.19485 1.20035 1.19328 1.19416 1.1946 1.19812 1.20156 1.18384 1.18875 1.19416 1.19963 1.1866 1.18912 1.19752 1.20204 1.18114 1.1887 1.18744 1.19456 1.19177 1.18341 1.19754 1.1591 1.19858 1.16098 1.14278 1.13492 1.12347 1.06436 1.07321 1.11137 1.19245 1.03063 0.957561 0.850465 1.12429 1.03571 0.765749 0.368617 0.888072 1.04241 0.992936 1.071 0.919589 0.956919 1.07859 1.01423 1.10605 1.09007 1.00933 0.945801 0.867173 1.05519 0.962449 0.850177 1.05173 1.21688 1.05359 0.917278 1.03109 1.13333 1.12521 1.03782 1.18185 1.10298 1.15966 1.20357 1.19178 1.18185 1.15505 1.1494 1.20101 1.19193 1.18704 1.18665 1.19171 1.19687 1.20083 1.19132 1.19887 1.20103 1.19327 1.19375 1.1921 1.19066 1.18704 1.19649 1.18648 1.18725 1.19613 1.19986 1.19226 1.18856 1.19202 1.19299 1.20165 1.1961 1.1884 1.19311 1.19422 1.19578 1.19421 1.19438 1.19971 1.19272 1.194 1.20096 1.21511 1.21454 1.20631 1.18259 1.19192 1.18941 1.19544 1.2023 1.18987 1.1864 1.1975 1.20526 1.1822 1.19145 1.18784 1.19302 1.19102 1.18213 1.20037 1.1866 1.16454 1.1655 1.14352 1.16044 1.12733 1.13772 1.08416 1.07198 1.20667 1.08928 0.987439 0.905642 1.1042 0.980724 0.776899 1.07196 0.965169 1.01271 1.02419 1.07785 0.979491 1.0636 1.04131 1.04567 1.05638 1.01742 1.04666 0.942492 1.2146 1.07009 0.968096 0.880472 1.0533 1.19786 1.17057 0.982031 1.04831 1.10414 1.14565 1.04717 1.17072 1.1858 1.13891 1.20121 1.17922 1.17948 1.15562 1.15049 1.20104 1.19655 1.18686 1.19177 1.19115 1.19433 1.20006 1.19045 1.19972 1.19418 1.1916 1.18892 1.1858 1.19574 1.19603 1.1771 1.18955 1.19959 1.20237 1.19614 1.19138 1.19304 1.18958 1.18659 1.20266 1.19602 1.18823 1.19628 1.19631 1.1985 1.20208 1.19061 1.19716 1.19306 1.1937 1.20232 1.20652 1.20624 1.18464 1.20512 1.20251 1.19742 1.18929 1.2026 1.17492 1.1948 1.19719 1.20334 1.18037 1.18133 1.19038 1.19083 1.18864 1.18016 1.18724 1.15389 1.16923 1.17926 1.15785 1.14893 1.21217 1.11053 1.15485 1.05895 1.18038 1.03305 1.03099 0.926492 1.08468 1.03039 0.876292 1.0568 1.02853 1.01062 1.05871 1.05998 1.0011 1.02808 1.07057 1.04927 1.04166 0.986255 1.1349 0.993192 1.14981 1.08473 1.19225 1.15178 0.996376 1.17082 1.13596 1.13118 1.18806 1.15952 1.1597 1.19845 1.1728 1.18354 1.18076 1.18793 1.16334 1.19523 1.19871 1.19537 1.18735 1.19319 1.19065 1.19298 1.19657 1.19162 1.19621 1.19699 1.19599 1.19633 1.19122 1.18846 1.18628 1.1976 1.19377 1.19402 1.19178 1.20164 1.19638 1.19143 1.18636 1.20113 1.19969 1.20262 1.19183 1.19542 1.19617 1.20137 1.20362 1.20492 1.19082 1.19065 1.19588 1.1961 1.19396 1.2013 1.18252 1.20222 1.19295 1.19386 1.20083 1.19178 1.17528 1.19841 1.19178 1.19874 1.20659 1.20206 1.18142 1.19067 1.17867 1.18727 1.1775 1.19511 1.15965 1.17255 1.18347 1.17182 1.15937 1.22439 1.11851 1.11765 1.05944 1.18164 1.04397 0.92682 1.0545 1.09665 1.05932 0.938818 1.10764 1.06583 1.03669 1.08812 1.06272 1.02018 1.05118 1.02819 1.07542 1.00305 0.985263 1.06861 1.09379 1.04295 1.20594 1.13549 1.06783 1.18235 1.15944 1.04797 1.19775 1.16667 1.14872 1.18685 1.16748 1.16374 1.20254 1.17851 1.18444 1.18078 1.17527 1.19981 1.1962 1.18694 1.19206 1.19129 1.19505 1.19101 1.20121 1.19341 1.19887 1.19469 1.18859 1.18997 1.196 1.19148 1.19192 1.19828 1.19789 1.19783 1.19332 1.19306 1.19529 1.19796 1.19435 1.19927 1.20005 1.19418 1.19632 1.19584 1.19669 1.20004 1.20435 1.20193 1.19443 1.19413 1.20071 1.1988 1.20274 1.19683 1.20057 1.20549 1.1822 1.19071 1.1781 1.18037 1.19961 1.19178 1.18622 1.1395 1.19043 1.17187 1.1611 1.22515 1.13207 1.2123 1.1936 1.17411 1.05577 1.03931 1.14627 1.06357 1.08396 0.939586 1.08175 1.09009 1.09307 1.07709 1.14661 1.1102 1.01125 1.07445 1.06594 1.09154 1.08991 1.178 1.13679 1.08215 1.16139 1.12188 1.1445 1.1725 1.07604 1.20608 1.16324 1.19698 1.18643 1.18382 1.16502 1.20037 1.18598 1.17617 1.18723 1.18235 1.18211 1.20044 1.19735 1.18723 1.19116 1.19178 1.19066 1.19476 1.20246 1.19424 1.19466 1.19496 1.19491 1.19443 1.19279 1.19335 1.19163 1.19277 1.20269 1.19178 1.2011 1.197 1.19168 1.19415 1.20018 1.19015 1.18987 1.19716 1.20294 1.19725 1.19173 1.19952 1.19556 1.18877 1.19998 1.194 1.19493 1.19676 1.2007 1.20409 1.20361 1.20102 1.18721 1.19943 1.19335 1.20036 1.19849 1.1971 1.19973 1.20396 1.20406 1.20015 1.20614 1.18252 1.1846 1.18188 1.20119 1.19079 1.19178 1.19178 1.19178 1.16606 1.17115 1.17627 1.10862 1.15969 1.22786 1.20791 1.14732 1.06818 1.05808 1.1447 1.08053 1.10811 0.946018 1.1108 1.09327 1.08738 1.11402 1.12014 1.11419 0.972306 1.06496 1.13135 1.14674 1.09946 1.25154 1.18037 1.10362 1.11853 1.15905 1.16227 1.11666 1.14094 1.16452 1.11228 1.192 1.16308 1.18838 1.19156 1.18562 1.16918 1.18501 1.18704 1.17585 1.181 1.18697 1.18546 1.19648 1.19765 1.19178 1.19195 1.1921 1.19137 1.19959 1.2031 1.19154 1.19435 1.19426 1.1929 1.19379 1.19083 1.19162 1.20139 1.20348 1.19815 1.19629 1.19758 1.19788 1.20015 1.19646 1.19305 1.19954 1.20594 1.19705 1.20347 1.20093 1.19157 1.18802 1.19935 1.19332 1.19092 1.1934 1.19961 1.20351 1.20158 1.18886 1.18373 1.18468 1.19375 1.19635 1.19523 1.19074 1.1962 1.20035 1.19933 1.20625 1.18558 1.18518 1.18352 1.19169 1.19179 1.20201 1.20328 1.18633 1.18558 1.17499 1.16722 1.16941 1.17019 1.17496 1.11247 1.16414 1.22457 1.20643 1.15601 1.14523 1.09838 1.14843 1.11226 1.12531 1.12963 1.11181 1.10624 1.1195 1.1251 1.12697 1.10427 1.09391 1.14589 1.11453 1.12974 1.19201 1.1834 1.13323 1.17082 1.16133 1.12717 1.14352 1.17507 1.17562 1.20092 1.18426 1.18808 1.18962 1.18656 1.18976 1.1846 1.17504 1.18447 1.18622 1.18553 1.18504 1.19636 1.1873 1.19633 1.19548 1.19729 1.19833 1.1846 1.19114 1.19213 1.20249 1.20517 1.19912 1.199 1.18851 1.19471 1.19324 1.19124 1.19352 1.19404 1.19223 1.19993 1.20209 1.19704 1.19572 1.19747 1.19292 1.20018 1.18483 1.19357 1.19287 1.20052 1.20099 1.18633 1.1996 1.19455 1.18889 1.18982 1.1917 1.18993 1.1937 1.20271 1.19178 1.18855 1.18636 1.19591 1.19322 1.19313 1.19417 1.19656 1.19219 1.20843 1.20929 1.19053 1.18695 1.18553 1.19226 1.19189 1.20742 1.19017 1.18891 1.17742 1.17074 1.17421 1.17928 1.11797 1.1761 1.14982 1.21508 1.21183 1.17716 1.16536 1.16247 1.13969 1.13006 1.13034 1.14142 1.14211 1.12714 1.12329 1.12373 1.1119 1.12972 1.1385 1.17072 1.09838 1.18137 1.17481 1.17235 1.19106 1.17776 1.15806 1.15866 1.14382 1.18354 1.18933 1.16993 1.18644 1.17443 1.18066 1.18848 1.19178 1.19158 1.19826 1.19351 1.19436 1.18778 1.19706 1.19318 1.19608 1.19559 1.19295 1.19072 1.19278 1.19166 1.19417 1.19602 1.19017 1.19463 1.19213 1.19918 1.19438 1.19213 1.18986 1.19196 1.19618 1.20022 1.20303 1.20222 1.19838 1.20342 1.19857 1.18376 1.19018 1.20154 1.19088 1.19469 1.2052 1.19288 1.18596 1.18107 1.19071 1.19427 1.20183 1.19211 1.19148 1.18003 1.1915 1.19688 1.19286 1.1951 1.18787 1.20134 1.21465 1.19001 1.19447 1.19418 1.19622 1.18994 1.1793 1.18915 1.18767 1.17721 1.17878 1.11964 1.18049 1.18901 1.18819 1.17712 1.18561 1.18899 1.16835 1.20006 1.13977 1.1475 1.18473 1.14577 1.14421 1.1383 1.14115 1.13805 1.12218 1.12537 1.14835 1.1415 1.17531 1.14529 1.1351 1.18645 1.17991 1.19588 1.18617 1.17309 1.14304 1.18139 1.19118 1.17693 1.18892 1.19538 1.17842 1.17438 1.18839 1.18465 1.19545 1.19758 1.1872 1.18999 1.19313 1.20446 1.19945 1.19345 1.18516 1.19389 1.20112 1.18471 1.1948 1.1899 1.21313 1.19049 1.19045 1.19671 1.18179 1.20247 1.1964 1.20314 1.20109 1.20324 1.19793 1.19812 1.19178 1.18717 1.18027 1.19072 1.20062 1.21092 1.19219 1.18529 1.19877 1.19447 1.19041 1.18656 1.19334 1.19129 1.19386 1.19407 1.18222 1.18743 1.19515 1.19316 1.20165 1.19553 1.18836 1.19748 1.21484 1.18936 1.1946 1.19801 1.1899 1.19138 1.18567 1.19654 1.1912 1.17257 1.18032 1.19506 1.18303 1.18319 1.17889 1.17501 1.20267 1.19635 1.15085 1.14718 1.14712 1.15117 1.14864 1.16868 1.13498 1.17325 1.15548 1.14546 1.17597 1.17514 1.19133 1.18981 1.18355 1.19543 1.18635 1.17387 1.19178 1.14937 1.18159 1.19248 1.18652 1.18768 1.19024 1.19572 1.19178 1.17448 1.18687 1.20184 1.19771 1.19681 1.19362 1.19253 1.19617 1.18963 1.19016 1.19188 1.19105 1.2012 1.19936 1.18421 1.19759 1.19598 1.19217 1.19318 1.19624 1.19177 1.19242 1.192 1.19178 1.19115 1.18583 1.19718 1.2013 1.19418 1.20128 1.19987 1.19317 1.20653 1.19614 1.1872 1.187 1.1868 1.18311 1.19146 1.1971 1.18495 1.17347 1.19362 1.19009 1.19759 1.1968 1.19536 1.19266 1.18395 1.18235 1.19548 1.20678 1.21038 1.18368 1.19329 1.18688 1.19178 1.19068 1.19339 1.18733 1.18712 1.19847 1.1916 1.19708 1.19022 1.19813 1.19934 1.19868 1.19015 1.19206 1.19178 1.19255 1.19752 1.18245 1.18429 1.18712 1.18734 1.18393 1.18921 1.17205 1.17155 1.18969 1.1908 1.19132 1.15901 1.21632 1.16346 1.16817 1.19659 1.15997 1.15623 1.16598 1.16161 1.14776 1.14639 1.17389 1.19228 1.19186 1.18494 1.1937 1.19545 1.1867 1.19174 1.19174 1.14957 1.18827 1.19178 1.19031 1.19127 1.18803 1.19366 1.19296 1.19027 1.18662 1.19621 1.19774 1.19365 1.19477 1.18931 1.1918 1.18708 1.19827 1.19879 1.18372 1.18537 1.19177 1.19498 1.195 1.19286 1.19232 1.19742 1.19764 1.19666 1.19998 1.19566 1.20642 1.19417 1.19055 1.18277 1.1905 1.18116 1.18467 1.19419 1.19513 1.19127 1.18297 1.1864 1.20487 1.20298 1.1932 1.20667 1.18173 1.19625 1.19522 1.19041 1.19688 1.20116 1.19178 1.19351 1.19307 1.19151 1.19219 1.19316 1.18381 1.18461 1.18872 1.18765 1.18911 1.19736 1.19286 1.19276 1.18256 1.18172 1.18639 1.19932 1.20361 1.21258 1.19913 1.18972 1.19017 1.17961 1.15182 1.15428 1.17035 1.16839 1.16718 1.14923 1.19236 1.17671 1.19175 1.19371 1.19736 1.19696 1.18788 1.19178 1.19178 1.19178 1.19499 1.19313 1.19435 1.19054 1.18771 1.18761 1.19405 1.19431 1.19191 1.17954 1.19582 1.19459 1.19244 1.18839 1.18815 1.18945 1.19573 1.19914 1.18405 1.18899 1.19099 1.19551 1.19537 1.19017 1.19375 1.19632 1.19765 1.19698 1.19634 1.19688 1.1938 1.20465 1.19256 1.19178 1.18577 1.17922 1.18957 1.17794 1.18448 1.193 1.19068 1.19113 1.18102 1.18646 1.18443 1.18126 1.19671 1.19374 1.19557 1.20674 1.18042 1.18632 1.19115 1.19761 1.19817 1.19854 1.19102 1.19826 1.19278 1.19298 1.18988 1.18948 1.19335 1.19273 1.19297 1.18275 1.18676 1.18969 1.19712 1.19299 1.1934 1.19334 1.19494 1.18803 1.19537 1.1915 1.19177 1.18693 1.18005 1.18259 1.16572 1.16978 1.16881 1.17249 1.17638 1.15429 1.18798 1.19385 1.19642 1.19729 1.19656 1.18806 1.19181 1.19176 1.19178 1.19703 1.19954 1.19325 1.19611 1.18789 1.19591 1.19178 1.19632 1.19602 1.19037 1.18041 1.21459 1.20599 1.19047 1.20374 1.19415 1.19742 1.19276 1.18825 1.18766 1.18826 1.18764 1.18867 1.1917 1.19691 1.1999 1.18357 1.18417 1.19561 1.19468 1.19489 1.19615 1.19566 1.19496 1.19243 1.19867 1.19632 1.19575 1.19221 1.20413 1.19519 1.17246 1.1896 1.19668 1.17419 1.18617 1.20286 1.19441 1.17545 1.19389 1.18937 1.17724 1.1898 1.18615 1.18321 1.18183 1.19683 1.19287 1.20528 1.19136 1.18088 1.192 1.19256 1.18722 1.19654 1.19118 1.1948 1.19594 1.19343 1.19321 1.19121 1.19104 1.19545 1.19523 1.2006 1.19029 1.20008 1.19188 1.19866 1.2031 1.19658 1.1904 1.19364 1.19296 1.18385 1.19497 1.20284 1.18619 1.19333 1.19916 1.19612 1.19688 1.18833 1.18331 1.17956 1.16909 1.17297 1.18082 1.17582 1.19278 1.19178 1.1919 1.19286 1.1961 1.17835 1.20116 1.20568 1.19618 1.19735 1.18817 1.19689 1.1995 1.19852 1.1906 1.19087 1.19531 1.19301 1.19531 1.19918 1.19021 1.19628 1.19622 1.18938 1.20494 1.19008 1.20239 1.19178 1.19894 1.1955 1.19105 1.19184 1.18527 1.18768 1.19488 1.1978 1.18473 1.18301 1.19898 1.19219 1.19763 1.18726 1.19722 1.1961 1.19387 1.18973 1.198 1.19705 1.19874 1.19339 1.19021 1.19329 1.17235 1.17589 1.18761 1.20056 1.18237 1.18461 1.18436 1.19513 1.20024 1.1826 1.1938 1.18082 1.18658 1.19093 1.18615 1.18206 1.18321 1.17733 1.1921 1.17849 1.19733 1.19434 1.19079 1.19089 1.19244 1.1934 1.19263 1.19131 1.19096 1.19786 1.19178 1.19458 1.19454 1.20056 1.18889 1.19654 1.1976 1.20665 1.1886 1.18765 1.18327 1.19468 1.17697 1.19839 1.19035 1.18897 1.18072 1.16907 1.18233 1.1778 1.19307 1.19708 1.19473 1.19178 1.19697 1.18886 1.19056 1.19044 1.19898 1.20366 1.19518 1.19839 1.19643 1.19702 1.20667 1.19036 1.18898 1.19071 1.19025 1.19589 1.18472 1.20049 1.19178 1.1918 1.18999 1.19773 1.18911 1.19482 1.19605 1.18941 1.18569 1.19766 1.1763 1.20688 1.19875 1.19173 1.19601 1.19516 1.19485 1.19111 1.18862 1.19984 1.20208 1.18671 1.19763 1.18892 1.1918 1.21396 1.18833 1.18776 1.18447 1.20304 1.20626 1.20121 1.18561 1.19763 1.19664 1.19915 1.18524 1.19178 1.18533 1.18448 1.17743 1.1964 1.19218 1.20499 1.20686 1.19537 1.15958 1.19178 1.20193 1.19213 1.19096 1.18843 1.19109 1.18966 1.19113 1.19113 1.19672 1.19474 1.19274 1.19347 1.19441 1.19236 1.19175 1.19062 1.1956 1.20591 1.18782 1.19612 1.18599 1.19035 1.20556 1.18143 1.17459 1.19612 1.20429 1.18237 1.19047 1.18942 1.19178 1.18379 1.18245 1.18081 1.1818 1.17954 1.19275 1.19323 1.19403 1.19439 1.19617 1.19598 1.21049 1.19712 1.20103 1.20142 1.19063 1.19232 1.19213 1.19911 1.19422 1.19178 1.18941 1.1947 1.20064 1.20114 1.19838 1.19573 1.18936 1.20977 1.19149 1.18669 1.19891 1.19483 1.20403 1.1973 1.17175 1.20163 1.19349 1.19302 1.19912 1.18327 1.18647 1.21152 1.19628 1.19633 1.19085 1.19351 1.1916 1.19034 1.19027 1.1876 1.19717 1.19134 1.19393 1.18537 1.17668 1.19129 1.18903 1.21429 1.18843 1.18858 1.18682 1.18468 1.20308 1.18632 1.18226 1.18256 1.19192 1.1869 1.19068 1.19658 1.19914 1.18819 1.17687 1.20356 1.19772 1.20597 1.20176 1.19516 1.2011 1.19634 1.18761 1.19406 1.19454 1.19042 1.18956 1.19168 1.18953 1.1904 1.19753 1.20196 1.19465 1.19201 1.19311 1.1911 1.19164 1.18772 1.19801 1.19953 1.20203 1.18305 1.19009 1.19509 1.19291 1.18512 1.18812 1.20471 1.20707 1.19433 1.17876 1.18483 1.20353 1.19031 1.18363 1.18262 1.1893 1.19178 1.1857 1.18731 1.18067 1.17433 1.17887 1.21178 1.18038 1.17996 1.1838 1.19351 1.19205 1.1969 1.20801 1.19575 1.20068 1.19162 1.19726 1.18837 1.1857 1.19495 1.20272 1.1848 1.20577 1.179 1.19229 1.20067 1.1887 1.19896 1.20607 1.19184 1.18758 1.19763 1.19777 1.2022 1.20295 1.19616 1.18346 1.1839 1.20129 1.19148 1.19199 1.19503 1.22377 1.19019 1.19603 1.19119 1.19601 1.19705 1.19386 1.19104 1.19327 1.19034 1.19292 1.18849 1.18433 1.19326 1.1911 1.18073 1.18673 1.18836 1.21363 1.18841 1.18672 1.18521 1.18477 1.19561 1.19084 1.18658 1.19388 1.19011 1.18948 1.19924 1.18804 1.20681 1.19907 1.20185 1.20466 1.19951 1.19264 1.1938 1.18884 1.20008 1.19988 1.194 1.18849 1.19785 1.19187 1.20288 1.18458 1.19183 1.18886 1.18956 1.19201 1.18766 1.18853 1.192 1.20374 1.18495 1.19368 1.17964 1.18742 1.19011 1.19812 1.18694 1.19215 1.19143 1.1877 1.20062 1.18713 1.18754 1.18499 1.188 1.19578 1.19229 1.18376 1.18635 1.19361 1.19086 1.1917 1.19719 1.20609 1.19392 1.20076 1.20016 1.19933 1.2091 1.18978 1.20486 1.19965 1.19623 1.16713 1.19838 1.19178 1.19396 1.20101 1.19761 1.21342 1.18769 1.19564 1.20586 1.20333 1.19902 1.19384 1.18617 1.19554 1.18857 1.19249 1.19178 1.22354 1.19136 1.18908 1.19804 1.18909 1.18763 1.18381 1.18492 1.19177 1.18143 1.18564 1.18272 1.18711 1.21278 1.18498 1.18486 1.18391 1.19732 1.18891 1.20616 1.19103 1.18716 1.18944 1.18854 1.18222 1.19793 1.19547 1.2036 1.19455 1.19274 1.19778 1.19282 1.18632 1.18705 1.19469 1.1967 1.19324 1.18364 1.18989 1.20276 1.19193 1.18704 1.18653 1.19432 1.1812 1.19348 1.16972 1.2084 1.18232 1.20569 1.18334 1.19246 1.19178 1.19361 1.19976 1.19921 1.19217 1.18977 1.18687 1.18018 1.18545 1.18356 1.18437 1.18894 1.18634 1.18635 1.19339 1.19101 1.19143 1.19978 1.20638 1.19335 1.19921 1.20551 1.21461 1.20558 1.19055 1.18904 1.19049 1.19706 1.19547 1.19954 1.20044 1.19244 1.20219 1.19433 1.19308 1.19353 1.20123 1.1927 1.20017 1.20903 1.20309 1.19838 1.18895 1.19027 1.19403 1.20889 1.1801 1.19616 1.18391 1.19453 1.17561 1.19047 1.19159 1.18329 1.18928 1.1923 1.183 1.18295 1.19178 1.19245 1.19285 1.19478 1.19676 1.19292 1.18218 1.21044 1.20525 1.18312 1.1843 1.18752 1.19145 1.19621 1.19343 1.18625 1.20608 1.20035 1.19691 1.18598 1.19178 1.18925 1.18753 1.1802 1.17808 1.17552 1.19681 1.18746 1.18695 1.19466 1.19853 1.19425 1.19465 1.19146 1.19711 1.19073 1.18951 1.20125 1.19783 1.19267 1.18736 1.18662 1.18194 1.18363 1.22583 1.1994 1.169 1.18412 1.19423 1.19685 1.18737 1.18004 1.18828 1.18849 1.18536 1.18442 1.18605 1.19427 1.19523 1.19096 1.19702 1.20077 1.19254 1.19166 1.19561 1.21074 1.17983 1.18566 1.19679 1.19178 1.1892 1.19079 1.19751 1.19825 1.2011 1.19908 1.19267 1.18906 1.20112 1.20175 1.19706 1.19289 1.18905 1.19963 1.18475 1.19035 1.18599 1.18966 1.19286 1.19559 1.18257 1.19504 1.19714 1.18187 1.18181 1.18932 1.19178 1.1956 1.18233 1.17882 1.18561 1.1961 1.1783 1.18376 1.20253 1.1883 1.19311 1.19391 1.18605 1.19169 1.18355 1.20297 1.19951 1.20506 1.19027 1.1895 1.18212 1.17701 1.18083 1.18773 1.18724 1.19275 1.19923 1.18835 1.19476 1.19047 1.1944 1.19721 1.19557 1.19614 1.18921 1.18348 1.1894 1.19146 1.19921 1.19749 1.19403 1.19237 1.18846 1.18727 1.195 1.18519 1.18874 1.19969 1.19801 1.18323 1.20188 1.20049 1.19196 1.18264 1.18914 1.19081 1.19594 1.18484 1.19418 1.18806 1.1841 1.18281 1.18345 1.17925 1.19732 1.19757 1.19435 1.19613 1.19527 1.19944 1.20473 1.19556 1.21073 1.18529 1.19573 1.1994 1.19312 1.19067 1.19742 1.19805 1.20082 1.19832 1.19841 1.19504 1.19754 1.20126 1.1977 1.19306 1.1901 1.18811 1.19798 1.19475 1.18803 1.19215 1.18799 1.18292 1.18877 1.19347 1.18863 1.20297 1.19523 1.19445 1.20354 1.18317 1.16893 1.18946 1.19887 1.1804 1.18659 1.19053 1.19515 1.20414 1.20208 1.17714 1.17665 1.18061 1.20096 1.19469 1.19107 1.19416 1.18872 1.18607 1.18668 1.1833 1.20505 1.19216 1.20117 1.19291 1.17854 1.17829 1.16654 1.18762 1.18692 1.19773 1.19093 1.19513 1.1922 1.18731 1.19567 1.1914 1.19654 1.1934 1.18837 1.19512 1.18563 1.1919 1.17882 1.19044 1.20052 1.18156 1.19163 1.18779 1.18263 1.17808 1.19432 1.19396 1.19362 1.18383 1.19674 1.18944 1.19178 1.18283 1.18276 1.18531 1.19729 1.19877 1.19718 1.19597 1.19609 1.20154 1.20078 1.18514 1.2012 1.19301 1.1901 1.19045 1.19741 1.19791 1.1975 1.20388 1.19749 1.18678 1.19082 1.1856 1.18845 1.20092 1.19102 1.19269 1.19184 1.18922 1.19467 1.18405 1.18921 1.20142 1.19694 1.20739 1.19178 1.18937 1.17842 1.18203 1.18216 1.19458 1.18886 1.19151 1.19178 1.18563 1.18867 1.19995 1.17638 1.17799 1.19014 1.19313 1.18849 1.1866 1.19014 1.18416 1.1881 1.18277 1.1971 1.20453 1.17098 1.18527 1.18582 1.18644 1.19141 1.19617 1.1948 1.19586 1.19504 1.19086 1.1945 1.19403 1.1925 1.19126 1.19115 1.18627 1.18929 1.18427 1.17839 1.18089 1.17927 1.19178 1.20017 1.19991 1.2002 1.18208 1.17847 1.20066 1.22173 1.18758 1.18934 1.18356 1.17597 1.18849 1.21033 1.20788 1.19462 1.19178 1.18126 1.18354 1.18187 1.18131 1.18571 1.19707 1.19816 1.19528 1.19628 1.19431 1.19466 1.21417 1.17768 1.19178 1.19118 1.20119 1.19178 1.18334 1.18963 1.18935 1.18701 1.18976 1.1893 1.19768 1.19805 1.20179 1.19511 1.1866 1.19137 1.19094 1.18883 1.19986 1.19528 1.19166 1.18961 1.18803 1.19529 1.18262 1.20156 1.18972 1.1966 1.18923 1.18654 1.18759 1.18328 1.1966 1.20825 1.19281 1.18922 1.18077 1.18476 1.18473 1.18362 1.19974 1.17486 1.17718 1.19091 1.19069 1.1906 1.19059 1.1915 1.19052 1.18861 1.18355 1.18938 1.19803 1.18731 1.19393 1.16304 1.17123 1.19028 1.18454 1.18536 1.19625 1.19084 1.19397 1.19266 1.19169 1.19314 1.18751 1.19256 1.19221 1.19539 1.18347 1.1875 1.18841 1.18487 1.17686 1.18016 1.17825 1.19058 1.1968 1.20252 1.17937 1.18011 1.17999 1.17919 1.17639 1.21477 1.18982 1.19079 1.21091 1.19569 1.18197 1.18311 1.18408 1.18429 1.18117 1.18605 1.19688 1.1954 1.19453 1.19321 1.19429 1.19311 1.19862 1.19409 1.19267 1.20208 1.19754 1.18826 1.19139 1.19619 1.20938 1.19158 1.19436 1.19784 1.19183 1.18785 1.19276 1.19133 1.19694 1.19485 1.19198 1.18916 1.18753 1.18083 1.19565 1.19336 1.19207 1.19735 1.18641 1.18554 1.18853 1.19828 1.19302 1.18872 1.18287 1.1836 1.18021 1.19194 1.1845 1.17836 1.18505 1.19089 1.19036 1.19231 1.18517 1.18237 1.18675 1.18585 1.17852 1.18132 1.18349 1.1928 1.19394 1.16395 1.18538 1.18653 1.20522 1.22004 1.18159 1.18242 1.18593 1.19066 1.1913 1.19147 1.18746 1.19477 1.18975 1.19127 1.19383 1.18716 1.1909 1.19453 1.18046 1.18517 1.18792 1.18387 1.17306 1.19182 1.19021 1.20885 1.17765 1.17746 1.19593 1.18767 1.17727 1.18427 1.21177 1.19758 1.18678 1.19408 1.18285 1.17959 1.181 1.17997 1.18621 1.19605 1.19178 1.18731 1.18407 1.1882 1.19596 1.20016 1.19926 1.20701 1.19121 1.20048 1.2029 1.19857 1.19653 1.18911 1.16784 1.20624 1.19427 1.17238 1.1937 1.19567 1.18942 1.18433 1.18581 1.20079 1.19466 1.18769 1.18449 1.19369 1.17909 1.19912 1.19314 1.20648 1.18572 1.1839 1.19777 1.19156 1.19178 1.19228 1.1811 1.18354 1.18852 1.19 1.18257 1.1746 1.18296 1.19892 1.18032 1.18512 1.18466 1.18802 1.18899 1.18825 1.1928 1.18496 1.18694 1.17891 1.18684 1.19315 1.18719 1.19333 1.19921 1.18852 1.20689 1.18131 1.18409 1.18746 1.18752 1.18637 1.18723 1.18435 1.19195 1.19019 1.18526 1.18214 1.17594 1.19178 1.19227 1.1919 1.18672 1.17722 1.17329 1.18364 1.1919 1.18501 1.19025 1.18742 1.18574 1.17504 1.17925 1.20031 1.18511 1.19217 1.18417 1.18089 1.18011 1.20317 1.19044 1.17721 1.18325 1.18553 1.1788 1.18622 1.18656 1.19506 1.19435 1.19512 1.18525 1.18342 1.18731 1.19624 1.20249 1.18608 1.203 1.20396 1.20241 1.18801 1.20468 1.19004 1.17099 1.19264 1.18789 1.18455 1.18274 1.1989 1.19587 1.18228 1.19453 1.18507 1.1859 1.19544 1.1818 1.20029 1.19173 1.20718 1.18856 1.18774 1.1814 1.18258 1.18378 1.1802 1.19656 1.18793 1.19711 1.19636 1.18349 1.18776 1.18941 1.17331 1.19094 1.18595 1.18768 1.18453 1.18569 1.19352 1.18505 1.18802 1.18081 1.18565 1.18946 1.187 1.1865 1.19096 1.18915 1.20006 1.18556 1.19865 1.18106 1.18002 1.18377 1.18756 1.19178 1.19178 1.18664 1.18323 1.18891 1.1927 1.18741 1.1907 1.1871 1.18578 1.18539 1.19213 1.19285 1.19159 1.17377 1.20719 1.19197 1.18911 1.1917 1.18066 1.19127 1.19229 1.1867 1.18434 1.19349 1.18068 1.17508 1.18988 1.19021 1.19351 1.18702 1.19171 1.18876 1.18052 1.18017 1.18862 1.1984 1.18106 1.17715 1.19382 1.19403 1.1951 1.18477 1.18367 1.19794 1.20202 1.19259 1.18785 1.19143 1.20107 1.20164 1.19915 1.16062 1.18502 1.17358 1.18767 1.19083 1.19468 1.1851 1.18194 1.18371 1.19563 1.18152 1.18749 1.18429 1.18543 1.1936 1.19249 1.19265 1.18435 1.19034 1.18663 1.18635 1.18092 1.18493 1.19584 1.18779 1.20302 1.18627 1.18472 1.17303 1.17539 1.17525 1.19176 1.18543 1.1868 1.18694 1.18435 1.18372 1.18806 1.18734 1.18598 1.18558 1.18644 1.19387 1.18923 1.19174 1.19549 1.17624 1.17984 1.18318 1.18788 1.18908 1.18727 1.186 1.18427 1.1892 1.18469 1.17996 1.1875 1.18569 1.19418 1.19573 1.20258 1.18907 1.19254 1.18844 1.19435 1.19374 1.19076 1.18933 1.17784 1.1961 1.17211 1.19461 1.19137 1.18448 1.18863 1.18872 1.18056 1.17922 1.18614 1.19966 1.19367 1.19178 1.18385 1.18331 1.18965 1.19203 1.19183 1.18441 1.18396 1.18982 1.18593 1.19338 1.18391 1.2025 1.18906 1.18069 1.17461 1.19258 1.19207 1.19045 1.18394 1.21703 1.18533 1.18462 1.19146 1.19452 1.19143 1.18422 1.18354 1.18696 1.18357 1.18237 1.18048 1.18601 1.1952 1.18846 1.19189 1.18745 1.1803 1.18867 1.17316 1.17533 1.19121 1.19178 1.1873 1.19071 1.18813 1.1836 1.18718 1.18787 1.18511 1.18635 1.18723 1.19162 1.18774 1.18541 1.19178 1.19302 1.18313 1.18628 1.17815 1.17751 1.18666 1.18675 1.19178 1.18628 1.18711 1.18364 1.18332 1.18051 1.18427 1.18628 1.1854 1.19453 1.19278 1.18813 1.197 1.1941 1.18697 1.18667 1.18548 1.19177 1.1928 1.18646 1.18546 1.19425 1.19128 1.18681 1.18834 1.18837 1.19278 1.19063 1.18489 1.18212 1.1832 1.18959 1.18229 1.18528 1.19072 1.19484 1.1832 1.19087 1.18186 1.17496 1.20156 1.18703 1.17056 1.19322 1.18934 1.1949 1.18528 1.19044 1.18367 1.18628 1.18592 1.18346 1.18994 1.18173 1.18506 1.19393 1.18881 1.19157 1.18561 1.18269 1.18999 1.19391 1.18339 1.1794 1.18423 1.19286 1.18721 1.18967 1.18734 1.17744 1.18757 1.18964 1.20465 1.18525 1.19153 1.18611 1.18619 1.18551 1.19062 1.1872 1.18309 1.18386 1.18839 1.18713 1.18773 1.18784 1.18433 1.1863 1.18709 1.18421 1.18512 1.18011 1.18211 1.18574 1.18016 1.18894 1.18761 1.18513 1.18777 1.18637 1.18244 1.18221 1.18678 1.18415 1.19454 1.19241 1.17765 1.18771 1.17731 1.19207 1.18941 1.19405 1.18578 1.18825 1.18709 1.18669 1.18485 1.1959 1.19442 1.1858 1.19473 1.19123 1.18718 1.18713 1.19061 1.19178 1.18812 1.19134 1.18295 1.18019 1.18361 1.18111 1.18171 1.18701 1.19156 1.1796 1.18517 1.1873 1.19187 1.19249 1.18963 1.19058 1.19215 1.1836 1.19073 1.17792 1.19406 1.17888 1.18219 1.18235 1.18118 1.19794 1.17639 1.1902 1.18693 1.18383 1.19217 1.19069 1.18294 1.18657 1.18652 1.18772 1.18399 1.18898 1.1853 1.18497 1.19293 1.1914 1.19013 1.18424 1.19215 1.18021 1.18848 1.18525 1.18014 1.18379 1.19125 1.18795 1.18271 1.19225 1.19981 1.19606 1.18886 1.18642 1.18622 1.1901 1.18638 1.18515 1.18298 1.18385 1.18512 1.18901 1.18895 1.19015 1.19601 1.18592 1.19112 1.19139 1.18524 1.18634 1.18988 1.17999 1.18901 1.18311 1.18212 1.19225 1.18761 1.18706 1.18766 1.18366 1.18596 1.18142 1.18273 1.18545 1.19456 1.18276 1.17724 1.18917 1.18688 1.194 1.19138 1.19513 1.18647 1.18834 1.18808 1.19321 1.19084 1.18787 1.19487 1.1888 1.18878 1.18592 1.1885 1.19028 1.18513 1.18904 1.18084 1.18008 1.1791 1.17864 1.18732 1.19158 1.17658 1.18589 1.18791 1.18672 1.19031 1.19068 1.19362 1.18835 1.17634 1.18242 1.17533 1.18299 1.1806 1.18917 1.19571 1.19472 1.19056 1.18101 1.19006 1.18428 1.18356 1.1821 1.18328 1.18612 1.18584 1.18859 1.18819 1.18464 1.18423 1.18225 1.18307 1.18329 1.19316 1.19203 1.19137 1.18616 1.19087 1.18936 1.18176 1.18587 1.18745 1.17719 1.18402 1.19067 1.18634 1.19274 1.18985 1.18663 1.18795 1.18165 1.19913 1.19154 1.18922 1.18617 1.18573 1.19317 1.18369 1.1854 1.18943 1.19543 1.19171 1.19178 1.18613 1.19413 1.20571 1.18417 1.18831 1.19161 1.18948 1.17971 1.17348 1.18202 1.18603 1.18648 1.18709 1.18763 1.18099 1.18598 1.18243 1.18449 1.18927 1.18704 1.19037 1.18454 1.17828 1.19293 1.18651 1.19137 1.19179 1.19071 1.18686 1.18866 1.19235 1.19064 1.18749 1.19394 1.18567 1.18844 1.18819 1.18545 1.18525 1.18961 1.18979 1.18046 1.17763 1.19084 1.17705 1.17898 1.17973 1.17659 1.18737 1.18432 1.17555 1.18495 1.18705 1.18817 1.18231 1.19407 1.18725 1.18398 1.18517 1.18026 1.17881 1.18704 1.1835 1.19036 1.19363 1.17467 1.17387 1.18864 1.18232 1.18358 1.18686 1.18887 1.18175 1.18069 1.18133 1.18833 1.19109 1.18627 1.18497 1.18443 1.18856 1.18592 1.18802 1.18502 1.18823 1.19106 1.1921 1.18998 1.1875 1.18915 1.18843 1.19613 1.19298 1.19065 1.18262 1.19146 1.19178 1.18445 1.19997 1.18561 1.18949 1.19499 1.18865 1.18748 1.18092 1.1809 1.1915 1.18862 1.18926 1.18988 1.18011 1.18586 1.18619 1.18699 1.18697 1.18691 1.18018 1.18713 1.18432 1.18844 1.1941 1.18782 1.19693 1.18864 1.19294 1.1887 1.19175 1.18778 1.18664 1.1889 1.1924 1.19013 1.19179 1.19178 1.18551 1.18783 1.18592 1.18753 1.18411 1.18577 1.18971 1.19103 1.19002 1.1935 1.18132 1.17888 1.19178 1.19084 1.19071 1.17432 1.17942 1.18513 1.17973 1.18013 1.17527 1.19416 1.18225 1.18625 1.18286 1.18331 1.18487 1.17772 1.18534 1.18901 1.18759 1.18497 1.1753 1.18154 1.18897 1.19009 1.18199 1.17654 1.18167 1.18096 1.18298 1.18019 1.18848 1.1888 1.18942 1.18495 1.18405 1.18329 1.19424 1.18608 1.18925 1.18485 1.18874 1.18687 1.18781 1.18973 1.19015 1.18115 1.18917 1.19139 1.19178 1.19058 1.1835 1.19149 1.19242 1.18512 1.19178 1.18599 1.18978 1.19245 1.18906 1.18757 1.18444 1.1851 1.18818 1.19017 1.19058 1.18015 1.18166 1.18494 1.18492 1.18612 1.18669 1.18167 1.18722 1.1831 1.18124 1.18831 1.18365 1.19195 1.18759 1.19187 1.18951 1.18897 1.19329 1.18511 1.18648 1.18908 1.19215 1.19564 1.19021 1.18911 1.18615 1.18941 1.18748 1.18451 1.1858 1.1905 1.19064 1.19003 1.19235 1.18157 1.19244 1.19178 1.19059 1.18595 1.17485 1.17986 1.19427 1.17804 1.18178 1.18532 1.17871 1.18813 1.18782 1.18475 1.18392 1.19158 1.17041 1.18455 1.18226 1.19221 1.18318 1.17929 1.18226 1.18223 1.18474 1.18097 1.18434 1.18896 1.18445 1.18327 1.19413 1.18745 1.19039 1.18438 1.18766 1.19144 1.18734 1.18927 1.19178 1.18593 1.19068 1.19178 1.19178 1.19083 1.18479 1.19154 1.19178 1.18766 1.19184 1.18598 1.18971 1.19183 1.18877 1.18761 1.18571 1.18567 1.19145 1.18501 1.18907 1.19109 1.19101 1.18034 1.18101 1.18478 1.18469 1.18621 1.18545 1.18655 1.1834 1.18055 1.18296 1.18689 1.18894 1.18777 1.18944 1.19051 1.19297 1.18967 1.18463 1.18605 1.18899 1.19193 1.18696 1.19123 1.19013 1.18669 1.18717 1.18606 1.18513 1.19022 1.19005 1.19159 1.19248 1.18169 1.1918 1.19178 1.19236 1.19092 1.17956 1.17519 1.1782 1.19587 1.17764 1.18246 1.18499 1.1786 1.18108 1.18778 1.1878 1.18494 1.18786 1.17651 1.17171 1.17918 1.18144 1.18516 1.18579 1.18584 1.18671 1.19004 1.18234 1.1823 1.18472 1.1792 1.18058 1.18455 1.185 1.18883 1.18581 1.18414 1.18305 1.19179 1.18742 1.19015 1.18906 1.18819 1.19178 1.18672 1.18876 1.19177 1.1894 1.18919 1.19076 1.19178 1.1918 1.19096 1.18763 1.19161 1.19178 1.18855 1.19182 1.1927 1.19221 1.1903 1.19052 1.18808 1.18641 1.1914 1.18558 1.18743 1.18659 1.18928 1.1939 1.18354 1.1813 1.18025 1.18509 1.18689 1.1856 1.18476 1.18525 1.18391 1.18316 1.18041 1.18427 1.18826 1.18998 1.18762 1.19002 1.19113 1.19228 1.18795 1.19448 1.1859 1.18877 1.19236 1.18664 1.18971 1.19077 1.18671 1.18894 1.19178 1.1877 1.19162 1.19252 1.19147 1.19131 1.19109 1.19271 1.18945 1.1786 1.17469 1.17834 1.17907 1.1918 1.17745 1.18188 1.1783 1.18118 1.1819 1.18847 1.19286 1.18633 1.18874 1.18612 1.1863 1.18129 1.18552 1.1851 1.18585 1.19125 1.18562 1.18861 1.18663 1.17967 1.17902 1.17847 1.18605 1.18909 1.19178 1.18478 1.19188 1.18314 1.18742 1.19004 1.19178 1.18824 1.19227 1.18734 1.18768 1.19176 1.19066 1.19086 1.19226 1.19249 1.19085 1.18729 1.19143 1.19028 1.1882 1.19136 1.19156 1.19134 1.19007 1.19096 1.1879 1.18857 1.18658 1.19014 1.19107 1.19138 1.18899 1.18329 1.18022 1.18537 1.18702 1.18413 1.18412 1.18308 1.18026 1.18298 1.18514 1.19225 1.18498 1.19178 1.19178 1.19178 1.18882 1.19183 1.19125 1.18831 1.19131 1.18889 1.19178 1.18678 1.19015 1.19114 1.18892 1.18874 1.18951 1.18683 1.19191 1.18755 1.19022 1.19158 1.19221 1.19073 1.19115 1.19178 1.19111 1.18193 1.18079 1.18652 1.18599 1.18771 1.17842 1.18986 1.18896 1.18518 1.18406 1.18519 1.1853 1.18812 1.18689 1.19043 1.19115 
SCALARS Stress float 1
LOOKUP_TABLE default
-1.12247e+12 -45018100000.0 -479039000000.0 -947565000000.0 -696228000000.0 -1.15203e+12 -1.9161e+12 -2.16704e+12 -101801000000.0 -1.17266e+12 -92876200000.0 -119062000000.0 -37534600000.0 -100891000000.0 -80381700000.0 -55352500000.0 -47626100000.0 -25791600000.0 -19590600000.0 -16981200000.0 -25153300000.0 -15540000000.0 -13255500000.0 -12549700000.0 -12549700000.0 -12549700000.0 -13633700000.0 -14837800000.0 -13414400000.0 -15202300000.0 -13703600000.0 -13866200000.0 -13060200000.0 -12549700000.0 -13008000000.0 -13328300000.0 -12608000000.0 -13696900000.0 -12588400000.0 -12633100000.0 -13279500000.0 -15551200000.0 -15358500000.0 -14291900000.0 -14755300000.0 -12892600000.0 -13464800000.0 -12629800000.0 -14231000000.0 -13658300000.0 -12699800000.0 -12664600000.0 -12689700000.0 -12992800000.0 -12796500000.0 -14459900000.0 -13437900000.0 -13459700000.0 -13938400000.0 -15732600000.0 -14738100000.0 -15431400000.0 -15918100000.0 -16673700000.0 -23998800000.0 -27747300000.0 -46281100000.0 -68864400000.0 -108583000000.0 -64166800000.0 -110697000000.0 -129157000000.0 -160409000000.0 -202972000000.0 -101922000000.0 -340689000000.0 -134896000000.0 -194402000000.0 -167239000000.0 -90299500000.0 -385998000000.0 -342774000000.0 -1.31223e+12 -1.28388e+12 -2.15068e+12 -969812000000.0 -2.83223e+12 -2.69924e+12 -1.60665e+12 -2.95654e+12 -1.31854e+12 -2.7673e+12 -759818000000.0 -1.66732e+12 -2.79315e+12 -1.28954e+12 -606682000000.0 -1.41587e+12 -688621000000.0 -534968000000.0 -379493000000.0 -27948000000.0 -95965000000.0 -30530400000.0 -65987400000.0 -12549700000.0 -12549700000.0 -12549700000.0 -40190500000.0 -17282100000.0 -13928500000.0 -13039200000.0 -14450100000.0 -13979800000.0 -17874800000.0 -23283200000.0 -17178800000.0 -22833900000.0 -21828700000.0 -20130700000.0 -19389300000.0 -15251600000.0 -15296300000.0 -16832400000.0 -15456100000.0 -15505600000.0 -13234400000.0 -14509400000.0 -19282800000.0 -13224000000.0 -15808500000.0 -15898400000.0 -15315800000.0 -14483600000.0 -15032100000.0 -12549700000.0 -15805800000.0 -13967000000.0 -17146200000.0 -12568700000.0 -12549700000.0 -13525900000.0 -13033300000.0 -17684700000.0 -14154700000.0 -12549700000.0 -12582700000.0 -15933500000.0 -12549700000.0 -12549700000.0 -13869800000.0 -16778100000.0 -13418000000.0 -21752000000.0 -21500600000.0 -20358900000.0 -39821800000.0 -139283000000.0 -88571300000.0 -18940800000.0 -21563000000.0 -48025700000.0 -52381200000.0 -421636000000.0 -633079000000.0 -1.02175e+12 -1.36295e+12 -777364000000.0 -1.27419e+12 -1.56003e+12 -1.9329e+12 -2.77848e+12 -2.32139e+12 -4.73743e+12 -2.52808e+12 -3.04775e+12 -4.01802e+12 -4.83072e+12 -2.3252e+12 -1.85079e+12 -1.69573e+12 -1.97857e+12 -1.1354e+12 -968907000000.0 -589642000000.0 -984989000000.0 -878966000000.0 -411188000000.0 -473210000000.0 -171775000000.0 -107572000000.0 -54132100000.0 -31176100000.0 -69115000000.0 -26292800000.0 -20843200000.0 -20020800000.0 -25026800000.0 -30926500000.0 -23769500000.0 -38489900000.0 -40384600000.0 -39721900000.0 -36159800000.0 -23632100000.0 -30250300000.0 -21436100000.0 -24530100000.0 -13087300000.0 -12632300000.0 -20212700000.0 -12549700000.0 -15562400000.0 -22090300000.0 -13694800000.0 -14145500000.0 -12810400000.0 -21688500000.0 -18250900000.0 -15784500000.0 -12998200000.0 -18449700000.0 -25965900000.0 -15222300000.0 -15084000000.0 -14101900000.0 -19758600000.0 -20348200000.0 -37492100000.0 -32230700000.0 -34637000000.0 -25550900000.0 -24258300000.0 -26929800000.0 -39266600000.0 -35015100000.0 -39262200000.0 -45037100000.0 -56262900000.0 -45687600000.0 -86904600000.0 -57509700000.0 -113233000000.0 -217640000000.0 -446884000000.0 -76629500000.0 -168167000000.0 -165920000000.0 -235395000000.0 -643346000000.0 -199033000000.0 -534925000000.0 -720829000000.0 -726791000000.0 -1.64937e+12 -1.63144e+12 -3.2443e+12 -3.32978e+12 -3.26319e+12 -3.52543e+12 -3.26867e+12 -2.27136e+12 -1.18198e+12 -1.47751e+12 -2.91275e+12 -3.62476e+12 -6.79204e+12 -1.80438e+12 -4.45705e+12 -2.29905e+12 -2.34133e+12 -1.32639e+12 -1.64917e+12 -527344000000.0 -1.45357e+12 -964911000000.0 -877352000000.0 -933452000000.0 -583823000000.0 -638516000000.0 -364889000000.0 -569882000000.0 -256987000000.0 -335113000000.0 -158551000000.0 -85658700000.0 -97836400000.0 -12549700000.0 -27297400000.0 -17709700000.0 -16829300000.0 -28812500000.0 -21377800000.0 -37093900000.0 -44949800000.0 -39104500000.0 -28802300000.0 -44482300000.0 -22758700000.0 -47599200000.0 -36246100000.0 -35527600000.0 -44681500000.0 -41710500000.0 -32673900000.0 -26525600000.0 -23457800000.0 -36920400000.0 -15837300000.0 -14780000000.0 -13114400000.0 -22104900000.0 -13230700000.0 -23043600000.0 -13420700000.0 -27521400000.0 -26475400000.0 -41966400000.0 -16585800000.0 -18643700000.0 -19444400000.0 -16859300000.0 -34092600000.0 -12549700000.0 -12549700000.0 -12549700000.0 -28561300000.0 -27463600000.0 -32377900000.0 -31700500000.0 -47572100000.0 -53423400000.0 -97625900000.0 -126785000000.0 -56898700000.0 -85464000000.0 -144990000000.0 -155239000000.0 -431215000000.0 -243888000000.0 -490152000000.0 -584077000000.0 -597225000000.0 -787288000000.0 -518775000000.0 -1.11494e+12 -1.1748e+12 -785595000000.0 -1.08616e+12 -2.32525e+12 -1.20615e+12 -2.36711e+12 -2.50593e+12 -2.07735e+12 -3.41257e+12 -1.60265e+12 -4.09461e+12 -2.2407e+12 -1.60476e+12 -3.37053e+12 -3.4263e+12 -2.49537e+12 -3.10324e+12 -3.02121e+12 -5.19276e+12 -3.27502e+12 -5.58635e+12 -3.22608e+12 -2.7428e+12 -2.27424e+12 -2.25437e+12 -2.17918e+12 -1.1862e+12 -459930000000.0 -337141000000.0 -403482000000.0 -14456500000.0 -348652000000.0 -109872000000.0 -268156000000.0 -324700000000.0 -144769000000.0 -151773000000.0 -69865600000.0 -98800500000.0 -56367400000.0 -70012400000.0 -49768700000.0 -95439500000.0 -60248200000.0 -26055900000.0 -37392000000.0 -43524900000.0 -95396800000.0 -71322400000.0 -22130600000.0 -33231300000.0 -22850200000.0 -22301100000.0 -22359200000.0 -35095900000.0 -20311600000.0 -27298900000.0 -37134300000.0 -60203600000.0 -19767600000.0 -18125800000.0 -29521200000.0 -15886100000.0 -33187900000.0 -35300800000.0 -15287300000.0 -46558100000.0 -19098500000.0 -21400900000.0 -25981600000.0 -17531800000.0 -45212600000.0 -12549700000.0 -13658600000.0 -17141300000.0 -38331100000.0 -52551000000.0 -35013500000.0 -28715500000.0 -52744200000.0 -42564600000.0 -19174000000.0 -38597100000.0 -109064000000.0 -123295000000.0 -96662600000.0 -119231000000.0 -181541000000.0 -384087000000.0 -673068000000.0 -389047000000.0 -479369000000.0 -910201000000.0 -28111800000.0 -64542700000.0 -77694000000.0 -977547000000.0 -1.47925e+12 -1.40836e+12 -2.58457e+12 -4.03254e+12 -2.35723e+12 -4.01575e+12 -4.18874e+12 -1.05572e+12 -3.40904e+12 -1.57507e+12 -3.2168e+12 -3.83049e+12 -4.22045e+12 -3.15538e+12 -1.7098e+12 -2.21692e+12 -4.15866e+12 -3.1643e+12 -3.06425e+12 -2.76028e+12 -3.39603e+12 -979035000000.0 -4.2842e+12 -2.09721e+12 -1.98729e+12 -2.65985e+12 -2.70464e+12 -2.26252e+12 -2.6367e+12 -12937100000.0 -1.71328e+12 -1.24241e+12 -913886000000.0 -972638000000.0 -750976000000.0 -401323000000.0 -410360000000.0 -319651000000.0 -450525000000.0 -283625000000.0 -227354000000.0 -382953000000.0 -348709000000.0 -196619000000.0 -199231000000.0 -120500000000.0 -131552000000.0 -35385300000.0 -31296200000.0 -58535800000.0 -13569200000.0 -105514000000.0 -21219800000.0 -14945800000.0 -25802000000.0 -26354400000.0 -23168400000.0 -13228800000.0 -16397500000.0 -12626300000.0 -31386800000.0 -25272800000.0 -20355400000.0 -23923900000.0 -53454600000.0 -59587600000.0 -57404500000.0 -60020800000.0 -83873100000.0 -29259100000.0 -55502300000.0 -25375300000.0 -25737600000.0 -47686300000.0 -43223400000.0 -21370600000.0 -33718200000.0 -42921000000.0 -54238100000.0 -64775300000.0 -98886100000.0 -76078000000.0 -93046000000.0 -83560800000.0 -57761700000.0 -62888100000.0 -91593900000.0 -65081800000.0 -210195000000.0 -212843000000.0 -204341000000.0 -224828000000.0 -172601000000.0 -399553000000.0 -35307300000.0 -593663000000.0 -382765000000.0 -650079000000.0 -1.19081e+12 -1.33517e+12 -1.36533e+12 -1.86795e+12 -776130000000.0 -1.70578e+12 -3.21095e+12 -3.43951e+12 -4.08723e+12 -2.93051e+12 -2.58931e+12 -4.66286e+12 -4.07214e+12 -6.38424e+12 -3.4332e+12 -4.17327e+12 -3.78572e+12 -1.70873e+12 -905318000000.0 -1.59615e+12 -4.9213e+12 -1.29377e+12 -3.61083e+12 -5.35484e+12 -4.24437e+12 -2.82981e+12 -2.01881e+12 -2.99871e+12 -2.26502e+12 -1.84746e+12 -1.50668e+12 -1.63686e+12 -693680000000.0 -1.85161e+12 -19626900000.0 -2.10465e+12 -1.09954e+12 -731011000000.0 -287988000000.0 -451240000000.0 -367330000000.0 -243067000000.0 -320845000000.0 -235907000000.0 -203706000000.0 -12549700000.0 -16717400000.0 -112368000000.0 -113543000000.0 -153231000000.0 -110722000000.0 -157721000000.0 -126648000000.0 -87495000000.0 -77212300000.0 -67902700000.0 -40496100000.0 -34805500000.0 -29825700000.0 -25247100000.0 -19306400000.0 -19321400000.0 -16976000000.0 -15789500000.0 -34301900000.0 -34317900000.0 -21771200000.0 -25804300000.0 -34472300000.0 -15307100000.0 -34148700000.0 -13583800000.0 -29015300000.0 -67354600000.0 -44138800000.0 -74230800000.0 -54730400000.0 -42562100000.0 -24777200000.0 -24702000000.0 -27451100000.0 -34337600000.0 -29302900000.0 -12549700000.0 -14363900000.0 -26490600000.0 -72659400000.0 -47355200000.0 -51977100000.0 -148782000000.0 -174323000000.0 -165165000000.0 -228776000000.0 -168099000000.0 -176365000000.0 -165594000000.0 -526429000000.0 -469615000000.0 -273318000000.0 -394143000000.0 -372562000000.0 -335247000000.0 -301005000000.0 -529142000000.0 -94899100000.0 -964016000000.0 -2.60391e+12 -1.38216e+12 -2.17847e+12 -1.88828e+12 -1.78947e+12 -3.30259e+12 -2.89681e+12 -1.08814e+12 -2.39007e+12 -4.19347e+12 -3.54856e+12 -3.30206e+12 -2.81572e+12 -2.61665e+12 -2.07807e+12 -2.03255e+12 -2.90655e+12 -2.36928e+12 -1.69037e+12 -2.05308e+12 -2.72303e+12 -6.43556e+12 -4.77525e+12 -4.63451e+12 -2.09086e+12 -3.41314e+12 -3.48364e+12 -3.02991e+12 -2.47871e+12 -1.09522e+12 -1.39862e+12 -2.30611e+12 -1.21862e+12 -1.42153e+12 -1.80849e+12 -1.74612e+12 -436759000000.0 -1.18758e+12 -284422000000.0 -571525000000.0 -588152000000.0 -346421000000.0 -156220000000.0 -100693000000.0 -353658000000.0 -237418000000.0 -109773000000.0 -82257300000.0 -70702700000.0 -107203000000.0 -23485100000.0 -76208800000.0 -28101800000.0 -52137500000.0 -25816600000.0 -100161000000.0 -58036900000.0 -85642600000.0 -22339000000.0 -32120500000.0 -27107100000.0 -29874500000.0 -25256500000.0 -15771700000.0 -17176200000.0 -29905000000.0 -15764600000.0 -19479600000.0 -16630500000.0 -18363700000.0 -22811700000.0 -16718900000.0 -24307900000.0 -36537800000.0 -45774200000.0 -67031800000.0 -39950700000.0 -72153200000.0 -62856600000.0 -16953500000.0 -17429500000.0 -14379200000.0 -21395900000.0 -14745500000.0 -12549700000.0 -23008900000.0 -19244500000.0 -95977800000.0 -30699700000.0 -36775800000.0 -50202500000.0 -12549700000.0 -75000500000.0 -24910700000.0 -23967600000.0 -162694000000.0 -133799000000.0 -187087000000.0 -280897000000.0 -363320000000.0 -308938000000.0 -193135000000.0 -551905000000.0 -657496000000.0 -588785000000.0 -1.0289e+12 -646676000000.0 -733208000000.0 -1.48146e+12 -1.75748e+12 -2.10504e+12 -1.60567e+12 -2.84696e+12 -2.3032e+12 -1.90929e+12 -3.28076e+12 -3.70783e+12 -2.11358e+12 -3.3835e+12 -2.4244e+12 -2.72334e+12 -2.72448e+12 -4.50522e+12 -1.4594e+12 -2.74469e+12 -3.65003e+12 -3.60639e+12 -1.42717e+12 -1.77682e+12 -4.71723e+12 -1.7405e+12 -2.07938e+12 -1.74836e+12 -2.31844e+12 -1.97273e+12 -2.60887e+12 -1.21404e+12 -1.85815e+12 -635046000000.0 -735016000000.0 -595945000000.0 -403109000000.0 -243113000000.0 -220386000000.0 -248561000000.0 -110079000000.0 -313647000000.0 -138068000000.0 -80956800000.0 -31532700000.0 -51551000000.0 -116546000000.0 -89189700000.0 -70466800000.0 -65631300000.0 -96926100000.0 -89260300000.0 -45726500000.0 -61747700000.0 -80373500000.0 -37429200000.0 -34844000000.0 -46938700000.0 -53852500000.0 -49567100000.0 -47364800000.0 -39847600000.0 -39308900000.0 -39395000000.0 -43565600000.0 -49015500000.0 -29939600000.0 -41975400000.0 -69680700000.0 -12590800000.0 -51730700000.0 -32437300000.0 -64805800000.0 -27163500000.0 -50482300000.0 -43271100000.0 -13021000000.0 -61115800000.0 -50133500000.0 -48384500000.0 -51050600000.0 -62001900000.0 -53181000000.0 -20777900000.0 -23536600000.0 -23166000000.0 -13927200000.0 -55900000000.0 -72899100000.0 -133053000000.0 -73841500000.0 -32401600000.0 -169550000000.0 -139730000000.0 -80438900000.0 -281160000000.0 -86187300000.0 -268373000000.0 -307104000000.0 -195849000000.0 -439819000000.0 -405538000000.0 -685254000000.0 -853120000000.0 -835970000000.0 -634585000000.0 -2.55935e+12 -974797000000.0 -1.58867e+12 -1.41013e+12 -3.72148e+12 -1.20948e+12 -3.4298e+12 -2.54847e+12 -1.47755e+12 -2.18861e+12 -1.83697e+12 -1.19245e+12 -2.41267e+12 -2.22753e+12 -1.88061e+12 -2.55382e+12 -1.70298e+12 -2.38026e+12 -1.61633e+12 -901419000000.0 -1.39569e+12 -2.06642e+12 -2.97782e+12 -2.00189e+12 -2.61697e+12 -2.39791e+12 -2.1693e+12 -1.86561e+12 -1.80758e+12 -616816000000.0 -2.32919e+12 -920899000000.0 -446304000000.0 -1.24791e+12 -648190000000.0 -733018000000.0 -345268000000.0 -365882000000.0 -136667000000.0 -325141000000.0 -212345000000.0 -78637900000.0 -64376800000.0 -137176000000.0 -80198300000.0 -57018100000.0 -119258000000.0 -107999000000.0 -15333100000.0 -22253200000.0 -38981100000.0 -26580800000.0 -13075300000.0 -85845500000.0 -85632900000.0 -13001300000.0 -67132200000.0 -16772400000.0 -33116500000.0 -13570000000.0 -13109100000.0 -20737500000.0 -17161100000.0 -34211600000.0 -12548400000.0 -12549700000.0 -14297300000.0 -35696900000.0 -33401000000.0 -43707000000.0 -71337100000.0 -12958000000.0 -49409900000.0 -28797000000.0 -16684400000.0 -69979200000.0 -36966300000.0 -34371100000.0 -74345800000.0 -16660700000.0 -12978300000.0 -22844200000.0 -18021200000.0 -39187800000.0 -31841100000.0 -71041800000.0 -50340600000.0 -89578900000.0 -74932100000.0 -121831000000.0 -163143000000.0 -174511000000.0 -271262000000.0 -249081000000.0 -319624000000.0 -262227000000.0 -267928000000.0 -375704000000.0 -456535000000.0 -480774000000.0 -620184000000.0 -668509000000.0 -834267000000.0 -802901000000.0 -916013000000.0 -757929000000.0 -1.91062e+12 -1.76125e+12 -1.83526e+12 -2.41899e+12 -1.61794e+12 -523499000000.0 -1.69853e+12 -299414000000.0 -2.89639e+12 -2.18818e+12 -1.42622e+12 -417492000000.0 -2.16587e+12 -1.90749e+12 -1.23062e+12 -3.40269e+12 -1.98127e+12 -959025000000.0 -2.28547e+12 -1.51429e+12 -1.13018e+12 -530855000000.0 -1.18755e+12 -1.88801e+12 -1.24212e+12 -461936000000.0 -763580000000.0 -1.50131e+12 -2.10661e+12 -1.7795e+12 -1.26582e+12 -892716000000.0 -1.10116e+12 -152638000000.0 -788395000000.0 -515354000000.0 -349187000000.0 -505820000000.0 -379254000000.0 -435296000000.0 -426672000000.0 -282214000000.0 -229905000000.0 -306516000000.0 -206523000000.0 -234877000000.0 -155028000000.0 -151262000000.0 -62233000000.0 -88185500000.0 -12900400000.0 -47718000000.0 -13633300000.0 -18656700000.0 -14836700000.0 -91629100000.0 -14328200000.0 -61179900000.0 -43038300000.0 -64147000000.0 -49453100000.0 -19797400000.0 -18247400000.0 -35604900000.0 -31379800000.0 -46299100000.0 -22325800000.0 -22490900000.0 -26486600000.0 -34492600000.0 -36578700000.0 -26943100000.0 -25353400000.0 -83223100000.0 -66280700000.0 -54754100000.0 -14562400000.0 -85876100000.0 -46938500000.0 -53079900000.0 -55182000000.0 -27573700000.0 -19248500000.0 -33290700000.0 -27356600000.0 -21778600000.0 -43265900000.0 -96292300000.0 -99329600000.0 -32576100000.0 -57914500000.0 -45160700000.0 -50418100000.0 -16834500000.0 -112526000000.0 -81264800000.0 -153262000000.0 -78924400000.0 -25995200000.0 -122339000000.0 -173599000000.0 -32677200000.0 -338521000000.0 -119230000000.0 -312732000000.0 -146176000000.0 -797399000000.0 -2.2429e+12 -637161000000.0 -1.19713e+12 -1.17794e+12 -456618000000.0 -46961100000.0 -1.6472e+12 -709681000000.0 -951035000000.0 -1.72158e+12 -1.43051e+12 -1.75929e+12 -712445000000.0 -1.83256e+12 -1.49019e+12 -1.06624e+12 -1.36043e+12 -1.63128e+12 -2.31818e+12 -1.23739e+12 -548412000000.0 -2.30035e+12 -2.75335e+12 -2.06067e+12 -1.35899e+12 -266415000000.0 -718785000000.0 -1.71992e+12 -1.22488e+12 -692221000000.0 -1.10694e+12 -1.10517e+12 -585456000000.0 -712347000000.0 -549785000000.0 -338660000000.0 -258316000000.0 -54325000000.0 -155049000000.0 -185433000000.0 -126285000000.0 -207114000000.0 -120673000000.0 -107203000000.0 -94619400000.0 -81868500000.0 -102118000000.0 -60460200000.0 -13988300000.0 -40543500000.0 -34667500000.0 -22424000000.0 -100166000000.0 -19323100000.0 -41193500000.0 -30395000000.0 -68007900000.0 -54343000000.0 -35065200000.0 -46559400000.0 -22232100000.0 -14102700000.0 -42522900000.0 -12549700000.0 -13228000000.0 -19197300000.0 -36108400000.0 -24593200000.0 -36573200000.0 -23116000000.0 -63597800000.0 -12700100000.0 -12549300000.0 -68341700000.0 -21070100000.0 -49693000000.0 -106960000000.0 -22910900000.0 -43252600000.0 -49434300000.0 -32248500000.0 -61824100000.0 -46330900000.0 -45804600000.0 -47953400000.0 -46590000000.0 -21376800000.0 -12831000000.0 -29748100000.0 -113732000000.0 -93885300000.0 -115092000000.0 -140288000000.0 -161204000000.0 -215404000000.0 -114776000000.0 -179872000000.0 -176497000000.0 -31308300000.0 -289771000000.0 -79085300000.0 -81578900000.0 -505706000000.0 -365854000000.0 -481221000000.0 -773621000000.0 -62991900000.0 -347847000000.0 -1.28755e+12 -1.21386e+12 -896669000000.0 -711054000000.0 -447243000000.0 -1.51652e+12 -1.06129e+12 -761526000000.0 -1.83926e+12 -1.91878e+12 -929269000000.0 -956621000000.0 -402369000000.0 -1.08653e+12 -805371000000.0 -615579000000.0 -800622000000.0 -947889000000.0 -1.05259e+12 -588253000000.0 -1.01635e+12 -743465000000.0 -1.18654e+12 -1.74552e+12 -2.11598e+12 -1.07155e+12 -426372000000.0 -1.16257e+12 -742520000000.0 -718571000000.0 -194403000000.0 -455067000000.0 -1.2405e+12 -767588000000.0 -281460000000.0 -23790700000.0 -461115000000.0 -698950000000.0 -598434000000.0 -379169000000.0 -248987000000.0 -277813000000.0 -279247000000.0 -96698600000.0 -222214000000.0 -106925000000.0 -85964200000.0 -94782200000.0 -91537400000.0 -103630000000.0 -86339700000.0 -83769300000.0 -112478000000.0 -64901300000.0 -68256200000.0 -89541800000.0 -69840200000.0 -95434000000.0 -37242600000.0 -24683800000.0 -31477400000.0 -28827300000.0 -28718300000.0 -38467500000.0 -44929800000.0 -37529300000.0 -66401900000.0 -21758000000.0 -30721400000.0 -42618000000.0 -12549700000.0 -102420000000.0 -89624000000.0 -129389000000.0 -43408900000.0 -53232500000.0 -47391900000.0 -49853800000.0 -26359900000.0 -45324800000.0 -63091500000.0 -48070300000.0 -61610300000.0 -104447000000.0 -14987400000.0 -31417400000.0 -45160900000.0 -58521900000.0 -49636200000.0 -82468800000.0 -51068100000.0 -78627500000.0 -204027000000.0 -297117000000.0 -550693000000.0 -407111000000.0 -287292000000.0 -317827000000.0 -264278000000.0 -311244000000.0 -181650000000.0 -264609000000.0 -771326000000.0 -460470000000.0 -174701000000.0 -708326000000.0 -1.06793e+12 -853249000000.0 -1.29449e+12 -811335000000.0 -1.34578e+12 -1.0757e+12 -1.17644e+12 -544007000000.0 -810158000000.0 -677504000000.0 -604658000000.0 -963139000000.0 -713456000000.0 -1.43689e+12 -1.21476e+12 -313137000000.0 -689282000000.0 -565818000000.0 -794473000000.0 -1.49551e+12 -213926000000.0 -600314000000.0 -114579000000.0 -147848000000.0 -817075000000.0 -61984300000.0 -258978000000.0 -75127600000.0 -181724000000.0 -203263000000.0 -216986000000.0 -237526000000.0 -63293100000.0 -75871600000.0 -12549700000.0 -141362000000.0 -173066000000.0 -73904100000.0 -58591200000.0 -48366000000.0 -44030900000.0 -115297000000.0 -72825100000.0 -65101700000.0 -34972100000.0 -68539700000.0 -84392400000.0 -51777100000.0 -53201800000.0 -14144600000.0 -13322500000.0 -74574900000.0 -25794400000.0 -14047500000.0 -15859300000.0 -22327100000.0 -15227500000.0 -58770400000.0 -12656800000.0 -20443500000.0 -13310000000.0 -56196600000.0 -15185600000.0 -32213200000.0 -15372800000.0 -46809300000.0 -75233100000.0 -25842900000.0 -32951000000.0 -48753500000.0 -124641000000.0 -93678300000.0 -41957100000.0 -38732100000.0 -13979200000.0 -33029500000.0 -15128800000.0 -35038800000.0 -12887300000.0 -17210300000.0 -91961700000.0 -79706200000.0 -32380500000.0 -49299600000.0 -124086000000.0 -97632600000.0 -140015000000.0 -61707400000.0 -156025000000.0 -157095000000.0 -135413000000.0 -138431000000.0 -153013000000.0 -172914000000.0 -198386000000.0 -412003000000.0 -247480000000.0 -290520000000.0 -20504300000.0 -45058500000.0 -590249000000.0 -467281000000.0 -151023000000.0 -811221000000.0 -1.54792e+12 -962629000000.0 -1.07976e+12 -591520000000.0 -1.33231e+12 -353209000000.0 -1.22321e+12 -904417000000.0 -1.68743e+12 -1.24022e+12 -1.73887e+12 -730610000000.0 -691527000000.0 -813809000000.0 -305008000000.0 -753418000000.0 -102120000000.0 -382396000000.0 -321661000000.0 -814419000000.0 -529930000000.0 -50739800000.0 -499458000000.0 -376656000000.0 -390972000000.0 -587107000000.0 -114894000000.0 -179503000000.0 -174155000000.0 -172767000000.0 -193417000000.0 -13526800000.0 -136927000000.0 -99737000000.0 -74710600000.0 -160956000000.0 -50425400000.0 -28714900000.0 -29009100000.0 -18846300000.0 -22954500000.0 -13710000000.0 -115995000000.0 -52920500000.0 -66692100000.0 -129662000000.0 -136100000000.0 -65830800000.0 -14451200000.0 -65394000000.0 -33432000000.0 -38535700000.0 -26837700000.0 -17358600000.0 -14204900000.0 -20381300000.0 -65314100000.0 -18648000000.0 -25354500000.0 -12869900000.0 -61991300000.0 -61851600000.0 -77969500000.0 -83002100000.0 -63818600000.0 -93320000000.0 -82280900000.0 -39549200000.0 -41216300000.0 -42370000000.0 -148560000000.0 -67982800000.0 -17720800000.0 -14442700000.0 -61244400000.0 -21104500000.0 -23579700000.0 -21951200000.0 -31195600000.0 -72549000000.0 -46008500000.0 -95596200000.0 -63543900000.0 -133676000000.0 -50262700000.0 -44306500000.0 -49417100000.0 -143536000000.0 -41812600000.0 -51647600000.0 -130024000000.0 -16189300000.0 -162412000000.0 -29329400000.0 -229710000000.0 -287655000000.0 -174542000000.0 -222779000000.0 -393537000000.0 -639079000000.0 -492820000000.0 -971721000000.0 -835176000000.0 -477252000000.0 -864062000000.0 -403519000000.0 -486316000000.0 -741740000000.0 -517832000000.0 -844572000000.0 -600791000000.0 -732399000000.0 -909193000000.0 -363663000000.0 -1.01732e+12 -574486000000.0 -517914000000.0 -475711000000.0 -553912000000.0 -557079000000.0 -382307000000.0 -496844000000.0 -597932000000.0 -442285000000.0 -244112000000.0 -303477000000.0 -595686000000.0 -287251000000.0 -302669000000.0 -302966000000.0 -130276000000.0 -272847000000.0 -156463000000.0 -104025000000.0 -73305000000.0 -57797900000.0 -151294000000.0 -58119200000.0 -26469500000.0 -13667400000.0 -26868200000.0 -16331000000.0 -19129100000.0 -13909100000.0 -85232200000.0 -56980500000.0 -40618900000.0 -27156600000.0 -117118000000.0 -84788200000.0 -58763800000.0 -42004700000.0 -43727400000.0 -64120100000.0 -18967900000.0 -20433300000.0 -30359900000.0 -27809400000.0 -12549700000.0 -73075900000.0 -27409500000.0 -36191200000.0 -15259200000.0 -36455900000.0 -35216900000.0 -33335600000.0 -13110700000.0 -33897200000.0 -75784200000.0 -35195400000.0 -71508200000.0 -47166000000.0 -49425200000.0 -109650000000.0 -83482100000.0 -140936000000.0 -31674400000.0 -21200200000.0 -34458700000.0 -62933000000.0 -19723800000.0 -97928200000.0 -132186000000.0 -12549700000.0 -16132700000.0 -65650500000.0 -12549700000.0 -34128300000.0 -52967300000.0 -55660700000.0 -130440000000.0 -44756700000.0 -53354000000.0 -132071000000.0 -62435300000.0 -205520000000.0 -173865000000.0 -114054000000.0 -180501000000.0 -216797000000.0 -299203000000.0 -236646000000.0 -617627000000.0 -231851000000.0 -374493000000.0 -271653000000.0 -527255000000.0 -708596000000.0 -282681000000.0 -242761000000.0 -370092000000.0 -468197000000.0 -283984000000.0 -987767000000.0 -316445000000.0 -661036000000.0 -698177000000.0 -458185000000.0 -760534000000.0 -285907000000.0 -523730000000.0 -270075000000.0 -317877000000.0 -430648000000.0 -151129000000.0 -316948000000.0 -219829000000.0 -378988000000.0 -99751000000.0 -126987000000.0 -336566000000.0 -327823000000.0 -49896400000.0 -115372000000.0 -35546200000.0 -51001800000.0 -164088000000.0 -35874700000.0 -30793100000.0 -20952400000.0 -13462400000.0 -95943700000.0 -81133300000.0 -72330900000.0 -69905900000.0 -72136700000.0 -85660600000.0 -72138700000.0 -28215000000.0 -29207800000.0 -28962200000.0 -128960000000.0 -69558500000.0 -25763200000.0 -45895100000.0 -23920100000.0 -33043400000.0 -12622600000.0 -60607300000.0 -107329000000.0 -13879900000.0 -55616900000.0 -38783700000.0 -55979500000.0 -48554200000.0 -47812800000.0 -51759500000.0 -94475500000.0 -120182000000.0 -88529300000.0 -112991000000.0 -124279000000.0 -42395500000.0 -56010900000.0 -94781800000.0 -48555600000.0 -127891000000.0 -95465300000.0 -105944000000.0 -79020300000.0 -84790700000.0 -87521000000.0 -75827900000.0 -51447600000.0 -119430000000.0 -13812000000.0 -15720400000.0 -153235000000.0 -169847000000.0 -12549700000.0 -16670300000.0 -126344000000.0 -265916000000.0 -351207000000.0 -159738000000.0 -122427000000.0 -511299000000.0 -15419500000.0 -13116400000.0 -317257000000.0 -356651000000.0 -155788000000.0 -231169000000.0 -663260000000.0 -673079000000.0 -488668000000.0 -613814000000.0 -566664000000.0 -716243000000.0 -916332000000.0 -109697000000.0 -416651000000.0 -250137000000.0 -418637000000.0 -192516000000.0 -351135000000.0 -162091000000.0 -149315000000.0 -501341000000.0 -121135000000.0 -268316000000.0 -258270000000.0 -170524000000.0 -110575000000.0 -163899000000.0 -56330700000.0 -112501000000.0 -46896500000.0 -64361400000.0 -70541600000.0 -149304000000.0 -57356900000.0 -57200900000.0 -64972600000.0 -62943200000.0 -19662900000.0 -26506700000.0 -18368700000.0 -14925800000.0 -14384600000.0 -129894000000.0 -12549700000.0 -81407700000.0 -64840700000.0 -64340400000.0 -168250000000.0 -12930900000.0 -63587800000.0 -72045200000.0 -51481200000.0 -43419700000.0 -14806300000.0 -12864600000.0 -36874100000.0 -58386900000.0 -12549700000.0 -47008300000.0 -73914400000.0 -12893000000.0 -34907600000.0 -18957200000.0 -41639900000.0 -12589100000.0 -60809100000.0 -47623500000.0 -59150200000.0 -32144600000.0 -192981000000.0 -14593700000.0 -109604000000.0 -39710500000.0 -70538800000.0 -235139000000.0 -114078000000.0 -74703700000.0 -89772100000.0 -107926000000.0 -80491600000.0 -104170000000.0 -14777800000.0 -120381000000.0 -41488100000.0 -51102400000.0 -30866100000.0 -124642000000.0 -88213100000.0 -16624300000.0 -63247300000.0 -62911200000.0 -65746000000.0 -95361900000.0 -152411000000.0 -104793000000.0 -13321000000.0 -12549700000.0 -12549700000.0 -12549700000.0 -195497000000.0 -163926000000.0 -129020000000.0 -244172000000.0 -201188000000.0 -107273000000.0 -129949000000.0 -332403000000.0 -167608000000.0 -37560600000.0 -198361000000.0 -396330000000.0 -236376000000.0 -53231000000.0 -410569000000.0 -582297000000.0 -521919000000.0 -464901000000.0 -255103000000.0 -516819000000.0 -77130300000.0 -294082000000.0 -184641000000.0 -227334000000.0 -219640000000.0 -59697500000.0 -76547800000.0 -57215700000.0 -197354000000.0 -94946100000.0 -227288000000.0 -50191500000.0 -159729000000.0 -79012400000.0 -115428000000.0 -17119600000.0 -70159700000.0 -36297900000.0 -12746000000.0 -67809700000.0 -93256000000.0 -18734300000.0 -23621000000.0 -20664900000.0 -21575300000.0 -52494100000.0 -20293700000.0 -26939000000.0 -20228400000.0 -12549700000.0 -13703800000.0 -104944000000.0 -56342200000.0 -26716700000.0 -18671600000.0 -135907000000.0 -120906000000.0 -98206800000.0 -42539200000.0 -42008900000.0 -68914800000.0 -53083200000.0 -76740300000.0 -58784500000.0 -20362200000.0 -37215200000.0 -82433200000.0 -67022200000.0 -17787200000.0 -95743000000.0 -49934300000.0 -29644400000.0 -41030000000.0 -94285300000.0 -121179000000.0 -92395300000.0 -58063500000.0 -120048000000.0 -105339000000.0 -14500500000.0 -126552000000.0 -134096000000.0 -90181600000.0 -95178000000.0 -157769000000.0 -187726000000.0 -98281500000.0 -35115700000.0 -40616000000.0 -88178500000.0 -66833500000.0 -80556000000.0 -41070900000.0 -107601000000.0 -123792000000.0 -43416300000.0 -57000000000.0 -57791600000.0 -119102000000.0 -50499100000.0 -12550000000.0 -141256000000.0 -67731900000.0 -68925600000.0 -58906000000.0 -164126000000.0 -99817000000.0 -69648500000.0 -48672500000.0 -233495000000.0 -136852000000.0 -134188000000.0 -35488700000.0 -66233500000.0 -256744000000.0 -206709000000.0 -80323200000.0 -116587000000.0 -365419000000.0 -150796000000.0 -93128400000.0 -526267000000.0 -461095000000.0 -331321000000.0 -197726000000.0 -341835000000.0 -35659500000.0 -289533000000.0 -145808000000.0 -232759000000.0 -284643000000.0 -13382700000.0 -39206400000.0 -105814000000.0 -20272200000.0 -181107000000.0 -17122300000.0 -72870000000.0 -58171200000.0 -84788900000.0 -16247700000.0 -71503700000.0 -93815900000.0 -33744900000.0 -61389600000.0 -39503700000.0 -79019100000.0 -75028200000.0 -21250000000.0 -12878300000.0 -14993100000.0 -16163300000.0 -13099000000.0 -42496600000.0 -14175700000.0 -13715600000.0 -28299600000.0 -26924500000.0 -47596600000.0 -72725900000.0 -85272000000.0 -95478400000.0 -83871900000.0 -79666100000.0 -37429100000.0 -158238000000.0 -46307000000.0 -52736000000.0 -12651600000.0 -114354000000.0 -90161800000.0 -13088700000.0 -96694400000.0 -73715700000.0 -112007000000.0 -41366400000.0 -60804000000.0 -91086800000.0 -32970800000.0 -14143400000.0 -134541000000.0 -15483500000.0 -86164700000.0 -80813400000.0 -133083000000.0 -102231000000.0 -174303000000.0 -148865000000.0 -110772000000.0 -124468000000.0 -192843000000.0 -64103000000.0 -70513000000.0 -12549700000.0 -131948000000.0 -14502400000.0 -91358900000.0 -114353000000.0 -106838000000.0 -45608800000.0 -62749200000.0 -13155300000.0 -94711600000.0 -34440300000.0 -111472000000.0 -65230500000.0 -130615000000.0 -133166000000.0 -142068000000.0 -38876600000.0 -125924000000.0 -87961100000.0 -98261600000.0 -91071900000.0 -79630200000.0 -153471000000.0 -120842000000.0 -146389000000.0 -53618600000.0 -81515900000.0 -45335400000.0 -98580700000.0 -133543000000.0 -177769000000.0 -232980000000.0 -183880000000.0 -230338000000.0 -65777800000.0 -155681000000.0 -464526000000.0 -262497000000.0 -75153200000.0 -195951000000.0 -559622000000.0 -325598000000.0 -15841500000.0 -302662000000.0 -192768000000.0 -186031000000.0 -91926100000.0 -116909000000.0 -39049900000.0 -129270000000.0 -66513100000.0 -120432000000.0 -91009700000.0 -53384900000.0 -110568000000.0 -38693700000.0 -60942200000.0 -66299300000.0 -66109400000.0 -12549700000.0 -12984700000.0 -16299000000.0 -15825500000.0 -41749000000.0 -37601600000.0 -19131900000.0 -18850200000.0 -29693200000.0 -41717100000.0 -62234400000.0 -14159700000.0 -15400800000.0 -95289900000.0 -28430400000.0 -95499000000.0 -76552500000.0 -26715900000.0 -120740000000.0 -47984800000.0 -95526300000.0 -105363000000.0 -81224500000.0 -40831600000.0 -112380000000.0 -75221700000.0 -61224100000.0 -50078900000.0 -40775700000.0 -48902500000.0 -126212000000.0 -70383700000.0 -141612000000.0 -17144600000.0 -50092500000.0 -36667900000.0 -192708000000.0 -239437000000.0 -72639000000.0 -69432500000.0 -49038100000.0 -48301500000.0 -113603000000.0 -22371100000.0 -75871800000.0 -76669400000.0 -41868100000.0 -80863100000.0 -31509300000.0 -17359100000.0 -64364600000.0 -102760000000.0 -101187000000.0 -106637000000.0 -76193700000.0 -12705000000.0 -13970400000.0 -138021000000.0 -65717000000.0 -97500500000.0 -14265600000.0 -26516100000.0 -86802100000.0 -19220900000.0 -88947100000.0 -101021000000.0 -57343200000.0 -56616700000.0 -166155000000.0 -283378000000.0 -226874000000.0 -129765000000.0 -178413000000.0 -263200000000.0 -20763900000.0 -181609000000.0 -99925000000.0 -393094000000.0 -280793000000.0 -55940500000.0 -375881000000.0 -162088000000.0 -209425000000.0 -235054000000.0 -41723900000.0 -49462300000.0 -170359000000.0 -71630900000.0 -63308600000.0 -53316100000.0 -45610000000.0 -33553200000.0 -88707200000.0 -55206300000.0 -40076900000.0 -79321900000.0 -49859500000.0 -33377700000.0 -39405700000.0 -55264600000.0 -63675100000.0 -45416500000.0 -49519800000.0 -40424500000.0 -54727500000.0 -55963000000.0 -24690600000.0 -20017600000.0 -61409900000.0 -142467000000.0 -115092000000.0 -56754300000.0 -175390000000.0 -62927900000.0 -111160000000.0 -78224400000.0 -33786500000.0 -108891000000.0 -113039000000.0 -69685500000.0 -59111500000.0 -84838900000.0 -103031000000.0 -43252300000.0 -91695300000.0 -52552200000.0 -126377000000.0 -129513000000.0 -12549700000.0 -71718200000.0 -79063600000.0 -12650100000.0 -171170000000.0 -25051400000.0 -133531000000.0 -36861800000.0 -15179800000.0 -138726000000.0 -12948600000.0 -183680000000.0 -118540000000.0 -91701800000.0 -72297100000.0 -68683000000.0 -99145100000.0 -35935200000.0 -139819000000.0 -142757000000.0 -28271200000.0 -24054800000.0 -51237200000.0 -67680500000.0 -162875000000.0 -135807000000.0 -83935700000.0 -101841000000.0 -185195000000.0 -72372000000.0 -35345500000.0 -57499700000.0 -98687300000.0 -82158400000.0 -49683700000.0 -26801300000.0 -87064300000.0 -35629600000.0 -61538800000.0 -145862000000.0 -89444300000.0 -134991000000.0 -108529000000.0 -38618500000.0 -170819000000.0 -259165000000.0 -51780700000.0 -256581000000.0 -420459000000.0 -36877800000.0 -288162000000.0 -151167000000.0 -58588300000.0 -120653000000.0 -12777300000.0 -19964300000.0 -23953900000.0 -35823000000.0 -23715300000.0 -14640700000.0 -12549700000.0 -41917900000.0 -22023600000.0 -13221800000.0 -52575100000.0 -57639300000.0 -34106900000.0 -26291200000.0 -12549700000.0 -30801100000.0 -25483500000.0 -23578100000.0 -15512000000.0 -50047900000.0 -70877000000.0 -13343400000.0 -58554000000.0 -14676300000.0 -97153100000.0 -94920000000.0 -123066000000.0 -168513000000.0 -92653000000.0 -71115400000.0 -90342100000.0 -81519600000.0 -136743000000.0 -32848400000.0 -146921000000.0 -107548000000.0 -78450600000.0 -57609400000.0 -12549700000.0 -98532200000.0 -31360700000.0 -69380100000.0 -49417400000.0 -17369100000.0 -100174000000.0 -126254000000.0 -31416200000.0 -35642900000.0 -142037000000.0 -88762800000.0 -38880000000.0 -99065000000.0 -85829500000.0 -178319000000.0 -17704500000.0 -16617400000.0 -16959700000.0 -141084000000.0 -35208100000.0 -83905200000.0 -28652800000.0 -139084000000.0 -197435000000.0 -86181900000.0 -180083000000.0 -76882100000.0 -28226000000.0 -52402400000.0 -14816500000.0 -78604300000.0 -76896200000.0 -12549700000.0 -107020000000.0 -119211000000.0 -107070000000.0 -71591700000.0 -64863200000.0 -110652000000.0 -227607000000.0 -192965000000.0 -64095400000.0 -75062800000.0 -155049000000.0 -209326000000.0 -88317800000.0 -12549700000.0 -115900000000.0 -28928500000.0 -86836800000.0 -90042100000.0 -101311000000.0 -35222100000.0 -132865000000.0 -170889000000.0 -31621500000.0 -22297800000.0 -35066900000.0 -186525000000.0 -96691500000.0 -195888000000.0 -63274400000.0 -52943000000.0 -241376000000.0 -57364800000.0 -186596000000.0 -240004000000.0 -207715000000.0 -311955000000.0 -62359200000.0 -30394900000.0 -71476000000.0 -14091900000.0 -19548100000.0 -19383100000.0 -24033700000.0 -42714000000.0 -25009300000.0 -15743300000.0 -14506300000.0 -24003400000.0 -17042000000.0 -12549700000.0 -32368600000.0 -13452200000.0 -28791100000.0 -12699600000.0 -38498500000.0 -50995500000.0 -14692100000.0 -37643800000.0 -38446800000.0 -45033300000.0 -44961600000.0 -61874000000.0 -13166300000.0 -87720900000.0 -16694000000.0 -172194000000.0 -106284000000.0 -100318000000.0 -39245200000.0 -177753000000.0 -49516400000.0 -102598000000.0 -40993700000.0 -85639000000.0 -212983000000.0 -150367000000.0 -88873800000.0 -126011000000.0 -108605000000.0 -115199000000.0 -125668000000.0 -155301000000.0 -201501000000.0 -97436800000.0 -76967100000.0 -63714200000.0 -131277000000.0 -69370700000.0 -68253700000.0 -195039000000.0 -80981700000.0 -36268500000.0 -82548600000.0 -14413800000.0 -88804100000.0 -77974500000.0 -75964100000.0 -75331200000.0 -137134000000.0 -162872000000.0 -12549700000.0 -116926000000.0 -169786000000.0 -135909000000.0 -185932000000.0 -103000000000.0 -96408000000.0 -99173900000.0 -105448000000.0 -42275400000.0 -89367200000.0 -38773500000.0 -68750200000.0 -163031000000.0 -14455300000.0 -138985000000.0 -172158000000.0 -13092000000.0 -139465000000.0 -91369300000.0 -65864800000.0 -268614000000.0 -99272200000.0 -378376000000.0 -190133000000.0 -167971000000.0 -53786800000.0 -103277000000.0 -182822000000.0 -43099000000.0 -12747800000.0 -41214300000.0 -13639300000.0 -14475500000.0 -40511200000.0 -48243600000.0 -19596300000.0 -12549700000.0 -12549700000.0 -12549700000.0 -17837400000.0 -12770800000.0 -19308400000.0 -55024800000.0 -29008200000.0 -25584500000.0 -30994900000.0 -40861000000.0 -64427000000.0 -36117100000.0 -28951000000.0 -30996500000.0 -23041700000.0 -43456600000.0 -35749700000.0 -118640000000.0 -200603000000.0 -160077000000.0 -167812000000.0 -112749000000.0 -197267000000.0 -132992000000.0 -59507100000.0 -28786800000.0 -95617100000.0 -79364500000.0 -148714000000.0 -70332300000.0 -88384900000.0 -38830000000.0 -155312000000.0 -88796400000.0 -92217200000.0 -12549700000.0 -150899000000.0 -46489600000.0 -109221000000.0 -56063400000.0 -14787100000.0 -146207000000.0 -51183300000.0 -90983900000.0 -40650300000.0 -116232000000.0 -157043000000.0 -51897800000.0 -84610500000.0 -114254000000.0 -120476000000.0 -161760000000.0 -177415000000.0 -70747500000.0 -112380000000.0 -67139400000.0 -129405000000.0 -65232900000.0 -48315400000.0 -51671700000.0 -101092000000.0 -48098200000.0 -91425800000.0 -32716300000.0 -258071000000.0 -78440700000.0 -159489000000.0 -154878000000.0 -72103700000.0 -139561000000.0 -121743000000.0 -115472000000.0 -136713000000.0 -191088000000.0 -17075300000.0 -55845800000.0 -140021000000.0 -154597000000.0 -76257200000.0 -245040000000.0 -191305000000.0 -25381500000.0 -129103000000.0 -214936000000.0 -251062000000.0 -257295000000.0 -35023400000.0 -17764700000.0 -23354800000.0 -15772200000.0 -21719500000.0 -43860400000.0 -37335400000.0 -15945100000.0 -12735000000.0 -12608500000.0 -12549700000.0 -38742600000.0 -23761900000.0 -56669400000.0 -66336000000.0 -19541900000.0 -34246500000.0 -12549700000.0 -12845200000.0 -31935300000.0 -45026300000.0 -13899000000.0 -21425900000.0 -21016300000.0 -13187300000.0 -27857400000.0 -43235000000.0 -53679400000.0 -29161900000.0 -39379700000.0 -52984400000.0 -60897000000.0 -74170000000.0 -146453000000.0 -91469800000.0 -113336000000.0 -48197600000.0 -43623800000.0 -92329600000.0 -15380300000.0 -298941000000.0 -191880000000.0 -37088900000.0 -58719300000.0 -90846200000.0 -13092800000.0 -169953000000.0 -37626900000.0 -35118000000.0 -176467000000.0 -97551300000.0 -85936700000.0 -77885100000.0 -112118000000.0 -96699600000.0 -60605200000.0 -128785000000.0 -121999000000.0 -57254500000.0 -100739000000.0 -162090000000.0 -165252000000.0 -27939500000.0 -111897000000.0 -41249800000.0 -90243800000.0 -39535400000.0 -37151900000.0 -57364700000.0 -176759000000.0 -14475500000.0 -99861000000.0 -16384500000.0 -187509000000.0 -45624000000.0 -103542000000.0 -64556900000.0 -118216000000.0 -67797900000.0 -37593300000.0 -60203700000.0 -117495000000.0 -109511000000.0 -33460600000.0 -165443000000.0 -80952200000.0 -103877000000.0 -89144300000.0 -84604900000.0 -14168800000.0 -25786300000.0 -95775700000.0 -71882900000.0 -45788300000.0 -70132400000.0 -123884000000.0 -75494100000.0 -115100000000.0 -80012900000.0 -180386000000.0 -76233800000.0 -94131900000.0 -231027000000.0 -223524000000.0 -80864000000.0 -213656000000.0 -77217700000.0 -97312100000.0 -166259000000.0 -175949000000.0 -26303200000.0 -12549700000.0 -23669000000.0 -15619200000.0 -22263800000.0 -18035400000.0 -23984600000.0 -32529800000.0 -40330600000.0 -45480500000.0 -26957300000.0 -25860600000.0 -28588500000.0 -26126000000.0 -28414600000.0 -22254700000.0 -31883600000.0 -28565600000.0 -23381200000.0 -90297700000.0 -18522600000.0 -50405400000.0 -39168900000.0 -45026900000.0 -37386900000.0 -26526400000.0 -33038400000.0 -12549700000.0 -53280700000.0 -73337700000.0 -53521900000.0 -48099500000.0 -58082500000.0 -60118200000.0 -168019000000.0 -95247900000.0 -103424000000.0 -13922400000.0 -46373400000.0 -126919000000.0 -66843500000.0 -199770000000.0 -31955800000.0 -291647000000.0 -223179000000.0 -195502000000.0 -124515000000.0 -64838900000.0 -48939200000.0 -168195000000.0 -16365100000.0 -113248000000.0 -66349500000.0 -115170000000.0 -20091200000.0 -121311000000.0 -27981700000.0 -74366800000.0 -164514000000.0 -90116100000.0 -187970000000.0 -109084000000.0 -68990800000.0 -48647000000.0 -62093000000.0 -131180000000.0 -108517000000.0 -49408500000.0 -108315000000.0 -75191300000.0 -94600600000.0 -100726000000.0 -140312000000.0 -134410000000.0 -116721000000.0 -110548000000.0 -122342000000.0 -71448900000.0 -104695000000.0 -121491000000.0 -94526100000.0 -25030700000.0 -12549700000.0 -120838000000.0 -13138900000.0 -58802400000.0 -106452000000.0 -80311200000.0 -50845600000.0 -57565400000.0 -89329500000.0 -80575200000.0 -163606000000.0 -124172000000.0 -162908000000.0 -207907000000.0 -206576000000.0 -238663000000.0 -290893000000.0 -162779000000.0 -291267000000.0 -60025200000.0 -34821600000.0 -23834200000.0 -27044200000.0 -12549700000.0 -72784400000.0 -15623500000.0 -16966100000.0 -14250700000.0 -34935200000.0 -42504100000.0 -76800800000.0 -49388500000.0 -65227400000.0 -60285500000.0 -40401200000.0 -24242300000.0 -34724000000.0 -15783000000.0 -28825600000.0 -92237200000.0 -50994400000.0 -15021900000.0 -12549700000.0 -29492400000.0 -14995500000.0 -19606800000.0 -197143000000.0 -40696500000.0 -38363500000.0 -62403600000.0 -58265000000.0 -13399100000.0 -33274900000.0 -35267600000.0 -46788100000.0 -92664600000.0 -62342100000.0 -17091800000.0 -134092000000.0 -89100400000.0 -139697000000.0 -171164000000.0 -96407500000.0 -176975000000.0 -104650000000.0 -170492000000.0 -124248000000.0 -102848000000.0 -216896000000.0 -169300000000.0 -109980000000.0 -254312000000.0 -71316700000.0 -79453300000.0 -183805000000.0 -52500100000.0 -13337500000.0 -112029000000.0 -121080000000.0 -12549700000.0 -23715800000.0 -86904600000.0 -22804000000.0 -22545700000.0 -22784200000.0 -119067000000.0 -32778400000.0 -94864100000.0 -24509900000.0 -12549700000.0 -29582000000.0 -83629200000.0 -13022800000.0 -54377500000.0 -12644500000.0 -47201100000.0 -124468000000.0 -71507300000.0 -33535000000.0 -94196100000.0 -137834000000.0 -130718000000.0 -13791000000.0 -111215000000.0 -79624400000.0 -44187100000.0 -67651600000.0 -80031500000.0 -88051500000.0 -70802600000.0 -113543000000.0 -121075000000.0 -46101000000.0 -57347500000.0 -83897100000.0 -121637000000.0 -20767400000.0 -19385300000.0 -95710600000.0 -96026400000.0 -12549700000.0 -291163000000.0 -81033400000.0 -65038000000.0 -163358000000.0 -107399000000.0 -25574200000.0 -33233800000.0 -23311900000.0 -21737800000.0 -27075700000.0 -31381400000.0 -18413500000.0 -67527300000.0 -49701400000.0 -52943400000.0 -24885100000.0 -22546700000.0 -12983700000.0 -30169900000.0 -38252800000.0 -12549700000.0 -27715100000.0 -34496100000.0 -106542000000.0 -39021900000.0 -97811700000.0 -82089400000.0 -107628000000.0 -93221400000.0 -25152200000.0 -73336900000.0 -100647000000.0 -49923800000.0 -44283400000.0 -59303600000.0 -16773400000.0 -78552100000.0 -190618000000.0 -46008400000.0 -40613200000.0 -71325800000.0 -56658600000.0 -42745100000.0 -107579000000.0 -51177200000.0 -12896500000.0 -49286200000.0 -193978000000.0 -99372400000.0 -24700300000.0 -174214000000.0 -144617000000.0 -45852300000.0 -201249000000.0 -121812000000.0 -92342600000.0 -13067100000.0 -116400000000.0 -79505400000.0 -12623400000.0 -58735400000.0 -234557000000.0 -28772100000.0 -76851500000.0 -41437800000.0 -152706000000.0 -130326000000.0 -12595800000.0 -173371000000.0 -148860000000.0 -16046200000.0 -41283900000.0 -68834600000.0 -20329200000.0 -103802000000.0 -105336000000.0 -105302000000.0 -31007200000.0 -97340100000.0 -31336100000.0 -110761000000.0 -12816000000.0 -70361500000.0 -74030000000.0 -50128200000.0 -241039000000.0 -206786000000.0 -154316000000.0 -89344500000.0 -129422000000.0 -15208100000.0 -132777000000.0 -110390000000.0 -82518200000.0 -143076000000.0 -138676000000.0 -60807700000.0 -77117500000.0 -99500700000.0 -66238200000.0 -43250600000.0 -48996400000.0 -13368100000.0 -47603700000.0 -75943900000.0 -82122800000.0 -31204100000.0 -114556000000.0 -15949000000.0 -48905700000.0 -145777000000.0 -57313200000.0 -70108000000.0 -26289500000.0 -40706000000.0 -118324000000.0 -12549700000.0 -258603000000.0 -117991000000.0 -56157000000.0 -120770000000.0 -75715700000.0 -22449300000.0 -67105500000.0 -68031100000.0 -163714000000.0 -34322600000.0 -13765400000.0 -13411400000.0 -44846100000.0 -54495600000.0 -99886500000.0 -12637600000.0 -16566600000.0 -73527000000.0 -68182700000.0 -32001200000.0 -58124300000.0 -80992400000.0 -26583900000.0 -104752000000.0 -13314900000.0 -15165600000.0 -135353000000.0 -103975000000.0 -51636000000.0 -49700100000.0 -37957000000.0 -70418200000.0 -12816200000.0 -67978000000.0 -80674400000.0 -78607100000.0 -55822400000.0 -68843600000.0 -98720500000.0 -157414000000.0 -40334700000.0 -89181700000.0 -18233200000.0 -63139900000.0 -83971300000.0 -47626300000.0 -64713300000.0 -122381000000.0 -36345100000.0 -41569200000.0 -47020400000.0 -141559000000.0 -172239000000.0 -87499900000.0 -191371000000.0 -42327500000.0 -256772000000.0 -170047000000.0 -137707000000.0 -85566700000.0 -91307100000.0 -63986400000.0 -125103000000.0 -128226000000.0 -131781000000.0 -175664000000.0 -114794000000.0 -14523200000.0 -77401400000.0 -47494500000.0 -227078000000.0 -25188000000.0 -144173000000.0 -17433500000.0 -162188000000.0 -135632000000.0 -124513000000.0 -139396000000.0 -179743000000.0 -181315000000.0 -194485000000.0 -70984700000.0 -256538000000.0 -16242800000.0 -75905000000.0 -42165700000.0 -13596300000.0 -49807200000.0 -24704700000.0 -135705000000.0 -51462700000.0 -87925700000.0 -131952000000.0 -58275700000.0 -13492100000.0 -110817000000.0 -95800400000.0 -15008300000.0 -146599000000.0 -168562000000.0 -153576000000.0 -38989100000.0 -158245000000.0 -195386000000.0 -12681700000.0 -161386000000.0 -145918000000.0 -56815800000.0 -130630000000.0 -63782600000.0 -74634100000.0 -123457000000.0 -141522000000.0 -12688400000.0 -74076600000.0 -163731000000.0 -34314200000.0 -15910800000.0 -19662200000.0 -15803600000.0 -144722000000.0 -113841000000.0 -62242600000.0 -81390500000.0 -29800100000.0 -29775600000.0 -55218800000.0 -36461700000.0 -51428900000.0 -30083300000.0 -48277300000.0 -109345000000.0 -12549700000.0 -164942000000.0 -255512000000.0 -13294400000.0 -159466000000.0 -218143000000.0 -125315000000.0 -70576700000.0 -75747100000.0 -126279000000.0 -145533000000.0 -58023300000.0 -135205000000.0 -167108000000.0 -167237000000.0 -12549700000.0 -91022100000.0 -27817000000.0 -89682000000.0 -192741000000.0 -40192800000.0 -190395000000.0 -76923200000.0 -130021000000.0 -122929000000.0 -45201500000.0 -58394200000.0 -107769000000.0 -131041000000.0 -87390600000.0 -143490000000.0 -87450300000.0 -72055900000.0 -65993000000.0 -123929000000.0 -22792900000.0 -144187000000.0 -102113000000.0 -18401000000.0 -69066800000.0 -193522000000.0 -144120000000.0 -103474000000.0 -50728200000.0 -102648000000.0 -90594300000.0 -56895800000.0 -58024300000.0 -15088400000.0 -164350000000.0 -327560000000.0 -121644000000.0 -106195000000.0 -158962000000.0 -12697400000.0 -149224000000.0 -195796000000.0 -98772300000.0 -203776000000.0 -72332600000.0 -70208300000.0 -97936800000.0 -95916500000.0 -82882000000.0 -114165000000.0 -37748900000.0 -45640300000.0 -38338200000.0 -12549700000.0 -86364000000.0 -20480200000.0 -13846200000.0 -12703600000.0 -119334000000.0 -52962600000.0 -112531000000.0 -86237400000.0 -27646700000.0 -126838000000.0 -227229000000.0 -53435700000.0 -155179000000.0 -66096700000.0 -12830700000.0 -18499000000.0 -155712000000.0 -56251900000.0 -51863500000.0 -41220100000.0 -40617300000.0 -34693700000.0 -18363100000.0 -41146500000.0 -23391800000.0 -79335500000.0 -30515700000.0 -13211100000.0 -34718800000.0 -57585600000.0 -32228700000.0 -75476200000.0 -40124200000.0 -78029400000.0 -38529700000.0 -150520000000.0 -14390400000.0 -79826500000.0 -15699600000.0 -32585000000.0 -85545600000.0 -109296000000.0 -13149900000.0 -85319400000.0 -44707400000.0 -61386000000.0 -88478700000.0 -96812300000.0 -157655000000.0 -42827200000.0 -127151000000.0 -49686700000.0 -159192000000.0 -84640200000.0 -67907800000.0 -73212700000.0 -65920600000.0 -12549700000.0 -122047000000.0 -111139000000.0 -82180900000.0 -124798000000.0 -94409000000.0 -42144400000.0 -126494000000.0 -73061100000.0 -175495000000.0 -106311000000.0 -22919700000.0 -60425200000.0 -59948800000.0 -29717800000.0 -164188000000.0 -122394000000.0 -59722600000.0 -19864500000.0 -113720000000.0 -12549700000.0 -114674000000.0 -143238000000.0 -59642300000.0 -32007200000.0 -87005400000.0 -95308400000.0 -61250200000.0 -48874000000.0 -91531200000.0 -40840400000.0 -127291000000.0 -188191000000.0 -13296100000.0 -196030000000.0 -165381000000.0 -78427900000.0 -17533800000.0 -170925000000.0 -174187000000.0 -136318000000.0 -154100000000.0 -73504600000.0 -112583000000.0 -62651200000.0 -96455000000.0 -143990000000.0 -65613900000.0 -132424000000.0 -20894000000.0 -117306000000.0 -105363000000.0 -108514000000.0 -55513600000.0 -64442900000.0 -291264000000.0 -256611000000.0 -123246000000.0 -59104500000.0 -130387000000.0 -141580000000.0 -69402700000.0 -18753900000.0 -31003500000.0 -29243800000.0 -55954600000.0 -17479100000.0 -14591500000.0 -39031900000.0 -12549700000.0 -15632300000.0 -81103100000.0 -56592400000.0 -76417800000.0 -91582300000.0 -139158000000.0 -15236600000.0 -87943800000.0 -62682600000.0 -56822300000.0 -83362600000.0 -79704200000.0 -36822100000.0 -65637000000.0 -38675200000.0 -105066000000.0 -100544000000.0 -105465000000.0 -103205000000.0 -84186400000.0 -51135200000.0 -110383000000.0 -23464400000.0 -22249500000.0 -115207000000.0 -94922100000.0 -12549700000.0 -90804100000.0 -101767000000.0 -122418000000.0 -106833000000.0 -140597000000.0 -80851700000.0 -161077000000.0 -30973800000.0 -87106100000.0 -84344600000.0 -62665000000.0 -101778000000.0 -100191000000.0 -106249000000.0 -89571900000.0 -38629500000.0 -33808100000.0 -85733700000.0 -48939600000.0 -152973000000.0 -112444000000.0 -15257200000.0 -67380100000.0 -35571800000.0 -93688600000.0 -137512000000.0 -50649700000.0 -137051000000.0 -105276000000.0 -58453400000.0 -125611000000.0 -183723000000.0 -91917000000.0 -192687000000.0 -24280200000.0 -157304000000.0 -139165000000.0 -138097000000.0 -138130000000.0 -13072900000.0 -77990500000.0 -69180500000.0 -128273000000.0 -94284200000.0 -98858300000.0 -52862300000.0 -17795800000.0 -20186900000.0 -174974000000.0 -137793000000.0 -106214000000.0 -81302400000.0 -233348000000.0 -185759000000.0 -23455000000.0 -62275900000.0 -85473400000.0 -29704400000.0 -107959000000.0 -73709000000.0 -42515800000.0 -196193000000.0 -26850800000.0 -13887100000.0 -51703700000.0 -13789500000.0 -46496900000.0 -149092000000.0 -90973100000.0 -45514400000.0 -40685700000.0 -80418800000.0 -51521100000.0 -36691400000.0 -60590600000.0 -49183700000.0 -47918500000.0 -60528400000.0 -25047100000.0 -50407300000.0 -73619400000.0 -55685200000.0 -84670000000.0 -62720900000.0 -139321000000.0 -19550000000.0 -140249000000.0 -109825000000.0 -111262000000.0 -80979000000.0 -114775000000.0 -51976900000.0 -53854800000.0 -72961200000.0 -146767000000.0 -84828000000.0 -149819000000.0 -65607000000.0 -49601100000.0 -65029100000.0 -181615000000.0 -74807000000.0 -91056400000.0 -46725200000.0 -40814800000.0 -26282000000.0 -88111400000.0 -94433000000.0 -189869000000.0 -82232600000.0 -73410000000.0 -40720500000.0 -71414300000.0 -33199600000.0 -127895000000.0 -69703500000.0 -77170400000.0 -117876000000.0 -94695300000.0 -115749000000.0 -73552700000.0 -59557400000.0 -199194000000.0 -88613900000.0 -101193000000.0 -124788000000.0 -78352400000.0 -116238000000.0 -134717000000.0 -164217000000.0 -56105500000.0 -98366600000.0 -222773000000.0 -175118000000.0 -174863000000.0 -255242000000.0 -191530000000.0 -189239000000.0 -164431000000.0 -157424000000.0 -141903000000.0 -203479000000.0 -51741000000.0 -247990000000.0 -85811600000.0 -81428800000.0 -54527600000.0 -44577100000.0 -73916500000.0 -34024800000.0 -114288000000.0 -60952500000.0 -104400000000.0 -26698300000.0 -61580400000.0 -52285600000.0 -52461200000.0 -79908400000.0 -100731000000.0 -12549700000.0 -99204000000.0 -325008000000.0 -201713000000.0 -22722100000.0 -44668800000.0 -33810900000.0 -78138200000.0 -211002000000.0 -114222000000.0 -61973200000.0 -25137500000.0 -42839500000.0 -18972200000.0 -29563000000.0 -111883000000.0 -82018700000.0 -90672200000.0 -15943300000.0 -49567100000.0 -175012000000.0 -93704500000.0 -180627000000.0 -57353600000.0 -100195000000.0 -107106000000.0 -47306300000.0 -35806000000.0 -12995900000.0 -32974100000.0 -21046700000.0 -206775000000.0 -42944500000.0 -109145000000.0 -84506800000.0 -83861800000.0 -12549700000.0 -99410300000.0 -27183300000.0 -62850900000.0 -45374500000.0 -49901600000.0 -41543100000.0 -30060400000.0 -12549700000.0 -85142000000.0 -100257000000.0 -96396700000.0 -49054200000.0 -135155000000.0 -35925500000.0 -162299000000.0 -112227000000.0 -69508900000.0 -12940100000.0 -86994500000.0 -106695000000.0 -102814000000.0 -31524600000.0 -80070600000.0 -122627000000.0 -125641000000.0 -109725000000.0 -214855000000.0 -13368500000.0 -149477000000.0 -88345500000.0 -69947500000.0 -78259100000.0 -70037400000.0 -206510000000.0 -232247000000.0 -175703000000.0 -32295700000.0 -74180000000.0 -195885000000.0 -66831800000.0 -116501000000.0 -70818600000.0 -26289500000.0 -59799000000.0 -12549700000.0 -40373600000.0 -58281300000.0 -15452700000.0 -103816000000.0 -47170100000.0 -50313100000.0 -15800000000.0 -75949400000.0 -38027400000.0 -101598000000.0 -62540500000.0 -30722000000.0 -65069700000.0 -51891200000.0 -35956200000.0 -12549700000.0 -139218000000.0 -139058000000.0 -128324000000.0 -225775000000.0 -73744200000.0 -53918000000.0 -161084000000.0 -156663000000.0 -217115000000.0 -15318000000.0 -13570800000.0 -128749000000.0 -17626600000.0 -12549700000.0 -37060800000.0 -32866400000.0 -12549700000.0 -14851800000.0 -40250500000.0 -110162000000.0 -87660100000.0 -36065300000.0 -30055200000.0 -95654700000.0 -91187700000.0 -90960200000.0 -109432000000.0 -42045800000.0 -124038000000.0 -108694000000.0 -35723600000.0 -101961000000.0 -86210400000.0 -47203800000.0 -56544100000.0 -65955100000.0 -65055000000.0 -126719000000.0 -123067000000.0 -86392100000.0 -85312700000.0 -88683000000.0 -54595900000.0 -115334000000.0 -32438800000.0 -59274500000.0 -55258100000.0 -128526000000.0 -101642000000.0 -108286000000.0 -79846900000.0 -116932000000.0 -36009700000.0 -84918400000.0 -70914500000.0 -121485000000.0 -16456100000.0 -109043000000.0 -112903000000.0 -84738300000.0 -12856800000.0 -94334200000.0 -37015400000.0 -73636800000.0 -13384200000.0 -102094000000.0 -45619300000.0 -74898800000.0 -69263400000.0 -150849000000.0 -14761300000.0 -139032000000.0 -156535000000.0 -64796000000.0 -14427800000.0 -131834000000.0 -136818000000.0 -232860000000.0 -76086100000.0 -15508500000.0 -190994000000.0 -35009300000.0 -14423800000.0 -126321000000.0 -109492000000.0 -79529900000.0 -162776000000.0 -81698600000.0 -67132800000.0 -116707000000.0 -91072200000.0 -80471700000.0 -68897100000.0 -79124700000.0 -79789200000.0 -81808300000.0 -20010600000.0 -56895100000.0 -35856200000.0 -129707000000.0 -44715700000.0 -87813600000.0 -98339300000.0 -104520000000.0 -65312900000.0 -20765500000.0 -88698800000.0 -94957100000.0 -69515100000.0 -91184100000.0 -132558000000.0 -129557000000.0 -258738000000.0 -17965900000.0 -14552200000.0 -116703000000.0 -61852800000.0 -61459300000.0 -68240100000.0 -60274800000.0 -92080800000.0 -24172800000.0 -136917000000.0 -17179100000.0 -14979900000.0 -20762200000.0 -54565200000.0 -61890100000.0 -193924000000.0 -53598700000.0 -160806000000.0 -144271000000.0 -37695200000.0 -100574000000.0 -100340000000.0 -95156400000.0 -158533000000.0 -148348000000.0 -81219900000.0 -153236000000.0 -120743000000.0 -112500000000.0 -143002000000.0 -64218700000.0 -113128000000.0 -62287100000.0 -53343800000.0 -154381000000.0 -74378100000.0 -13624900000.0 -12682900000.0 -24012100000.0 -118446000000.0 -74188600000.0 -105833000000.0 -75666100000.0 -53719200000.0 -92028100000.0 -93970200000.0 -82549800000.0 -56309000000.0 -93942700000.0 -88456500000.0 -151893000000.0 -26168400000.0 -44574200000.0 -44876100000.0 -29176600000.0 -94767800000.0 -100724000000.0 -48881500000.0 -117798000000.0 -61452900000.0 -44102800000.0 -63241400000.0 -217652000000.0 -48795700000.0 -50855100000.0 -107414000000.0 -71162200000.0 -109240000000.0 -114538000000.0 -91794900000.0 -12826800000.0 -171792000000.0 -170873000000.0 -26999500000.0 -79242500000.0 -125473000000.0 -73106500000.0 -117047000000.0 -92462100000.0 -42006900000.0 -55034100000.0 -51321400000.0 -51536900000.0 -95852300000.0 -95976200000.0 -76197700000.0 -64829700000.0 -60568600000.0 -50385400000.0 -62340700000.0 -87425100000.0 -14678300000.0 -30654300000.0 -175628000000.0 -53364800000.0 -64229100000.0 -12549700000.0 -39092200000.0 -210100000000.0 -18468200000.0 -45282100000.0 -114366000000.0 -138786000000.0 -16529300000.0 -52741800000.0 -37921700000.0 -23904200000.0 -95167700000.0 -74085100000.0 -13292200000.0 -41684500000.0 -47848300000.0 -166146000000.0 -40300600000.0 -83921500000.0 -119683000000.0 -178449000000.0 -38597200000.0 -228375000000.0 -32700200000.0 -40063600000.0 -46979500000.0 -17075200000.0 -192480000000.0 -118034000000.0 -26924800000.0 -98183300000.0 -17816900000.0 -15799600000.0 -152976000000.0 -108996000000.0 -112848000000.0 -12549700000.0 -96400800000.0 -32981900000.0 -55672300000.0 -53588000000.0 -71392500000.0 -131476000000.0 -80737000000.0 -36655300000.0 -36980800000.0 -78150100000.0 -77687400000.0 -80434200000.0 -47348500000.0 -74214100000.0 -91312600000.0 -18210400000.0 -58414400000.0 -45337800000.0 -75682300000.0 -170691000000.0 -23697000000.0 -17675600000.0 -14145500000.0 -35287100000.0 -89372200000.0 -28234200000.0 -55217300000.0 -165598000000.0 -122219000000.0 -164695000000.0 -172360000000.0 -44664700000.0 -115697000000.0 -165659000000.0 -49929800000.0 -53312800000.0 -71184600000.0 -25428600000.0 -12549700000.0 -30855000000.0 -55864900000.0 -15307500000.0 -14784900000.0 -51070600000.0 -24150800000.0 -49548400000.0 -19334000000.0 -69363900000.0 -61097000000.0 -35681800000.0 -33093200000.0 -78045900000.0 -21762500000.0 -33715600000.0 -104132000000.0 -74618300000.0 -73112200000.0 -60990700000.0 -89986300000.0 -156887000000.0 -171079000000.0 -14069200000.0 -221062000000.0 -265343000000.0 -100661000000.0 -33454100000.0 -78544100000.0 -83248000000.0 -47230200000.0 -13993100000.0 -100387000000.0 -228544000000.0 -239324000000.0 -117663000000.0 -178106000000.0 -145202000000.0 -143643000000.0 -49720600000.0 -59270500000.0 -23797400000.0 -231132000000.0 -77104100000.0 -117463000000.0 -176960000000.0 -118381000000.0 -137083000000.0 -70013500000.0 -127032000000.0 -127243000000.0 -110760000000.0 -174651000000.0 -233098000000.0 -97897800000.0 -22432900000.0 -93277000000.0 -144597000000.0 -75292600000.0 -92775600000.0 -38097500000.0 -82902600000.0 -92219000000.0 -76209500000.0 -75990100000.0 -55471500000.0 -21477200000.0 -15385000000.0 -20659400000.0 -53918800000.0 -45202300000.0 -74103800000.0 -64142400000.0 -47812400000.0 -22030700000.0 -36434700000.0 -29604700000.0 -49330100000.0 -24591200000.0 -65035600000.0 -30051500000.0 -23966800000.0 -125550000000.0 -55628700000.0 -96638000000.0 -123710000000.0 -26827400000.0 -25603300000.0 -110206000000.0 -25710700000.0 -14873600000.0 -68152800000.0 -90174000000.0 -129805000000.0 -15081400000.0 -12549700000.0 -12549700000.0 -33662200000.0 -121359000000.0 -138117000000.0 -87907300000.0 -63571700000.0 -140988000000.0 -123598000000.0 -65460300000.0 -161877000000.0 -14568800000.0 -29926300000.0 -41450700000.0 -15617400000.0 -31964100000.0 -39148800000.0 -61923600000.0 -39719200000.0 -25429500000.0 -24024700000.0 -29519400000.0 -22859700000.0 -51383900000.0 -33957700000.0 -40514200000.0 -61967900000.0 -25169700000.0 -13227900000.0 -17869700000.0 -41166300000.0 -86572900000.0 -44434700000.0 -55549800000.0 -66805700000.0 -102027000000.0 -15317400000.0 -92609200000.0 -16638000000.0 -121236000000.0 -89131000000.0 -98943500000.0 -243674000000.0 -174792000000.0 -127465000000.0 -125765000000.0 -12664000000.0 -125404000000.0 -76460000000.0 -59085300000.0 -128576000000.0 -55027900000.0 -107422000000.0 -200554000000.0 -112113000000.0 -188195000000.0 -63954700000.0 -89571100000.0 -193425000000.0 -112821000000.0 -23112500000.0 -112243000000.0 -146784000000.0 -49398900000.0 -46161500000.0 -122241000000.0 -92380600000.0 -108342000000.0 -114658000000.0 -111702000000.0 -102425000000.0 -150701000000.0 -26218200000.0 -61973900000.0 -29720300000.0 -45700000000.0 -15158000000.0 -41774500000.0 -13344600000.0 -25996700000.0 -48443100000.0 -41041000000.0 -38981100000.0 -37020400000.0 -37940700000.0 -61798100000.0 -66129900000.0 -62641500000.0 -85531700000.0 -54526000000.0 -70065800000.0 -67693500000.0 -72088600000.0 -24379400000.0 -86148000000.0 -83624600000.0 -33990200000.0 -110228000000.0 -100400000000.0 -41661700000.0 -122110000000.0 -13110900000.0 -92386800000.0 -127839000000.0 -98737500000.0 -149044000000.0 -80328300000.0 -66325200000.0 -84615800000.0 -106058000000.0 -145086000000.0 -67808200000.0 -33039400000.0 -28232300000.0 -52881600000.0 -22641300000.0 -33161300000.0 -20773800000.0 -24197500000.0 -13028100000.0 -58175100000.0 -45551000000.0 -26412800000.0 -34783900000.0 -44567500000.0 -35056400000.0 -46167300000.0 -64789600000.0 -58957400000.0 -24758100000.0 -38452600000.0 -76731500000.0 -18936800000.0 -29403600000.0 -12549700000.0 -119353000000.0 -72094700000.0 -15004000000.0 -131720000000.0 -12614100000.0 -169247000000.0 -44751600000.0 -134970000000.0 -88751600000.0 -137765000000.0 -85638900000.0 -116724000000.0 -124787000000.0 -115036000000.0 -37100000000.0 -91551800000.0 -160355000000.0 -74000800000.0 -162501000000.0 -59094900000.0 -190695000000.0 -239392000000.0 -191443000000.0 -144747000000.0 -36631900000.0 -19007700000.0 -53112800000.0 -31725600000.0 -121555000000.0 -33279700000.0 -79720900000.0 -34170100000.0 -69327200000.0 -62086500000.0 -16226400000.0 -15281900000.0 -16968600000.0 -71799700000.0 -17712900000.0 -15748100000.0 -12749500000.0 -12549700000.0 -67618500000.0 -28154900000.0 -65756600000.0 -61297400000.0 -54124000000.0 -27820100000.0 -57983500000.0 -22990000000.0 -17953600000.0 -12857300000.0 -44346900000.0 -39348000000.0 -12552100000.0 -71651400000.0 -25861500000.0 -66322600000.0 -98385200000.0 -93179100000.0 -105878000000.0 -64069500000.0 -12549700000.0 -131212000000.0 -107460000000.0 -92593300000.0 -98396100000.0 -26295400000.0 -71291100000.0 -74307900000.0 -57123800000.0 -80201400000.0 -53518900000.0 -82169600000.0 -33738600000.0 -42571200000.0 -72610700000.0 -47247000000.0 -58095200000.0 -12558400000.0 -12648400000.0 -28290600000.0 -17767400000.0 -20481500000.0 -13536300000.0 -40146300000.0 -55336000000.0 -45061000000.0 -13378400000.0 -66602700000.0 -24530600000.0 -111347000000.0 -66725800000.0 -12868100000.0 -182365000000.0 -28490600000.0 -59598200000.0 -84069700000.0 -33223200000.0 -142109000000.0 -81882000000.0 -114565000000.0 -52070900000.0 -87645600000.0 -74566400000.0 -12809400000.0 -108309000000.0 -80990900000.0 -42573000000.0 -113196000000.0 -128370000000.0 -101412000000.0 -16242100000.0 -18992900000.0 -93000600000.0 -15639700000.0 -113884000000.0 -98928100000.0 -94261300000.0 -76677000000.0 -42840700000.0 -68662600000.0 -40202100000.0 -13184700000.0 -92089100000.0 -29338700000.0 -68043700000.0 -73332600000.0 -41495400000.0 -39357500000.0 -31459700000.0 -37817100000.0 -60293000000.0 -49090800000.0 -30906800000.0 -30463600000.0 -33541000000.0 -47650300000.0 -65417500000.0 -39941700000.0 -31907700000.0 -48112600000.0 -40872100000.0 -42980800000.0 -34899600000.0 -31733900000.0 -43126300000.0 -28628400000.0 -60592900000.0 -37242600000.0 -31078700000.0 -57082400000.0 -32113500000.0 -39264400000.0 -38344000000.0 -133314000000.0 -27570400000.0 -37457200000.0 -46843600000.0 -152152000000.0 -62083300000.0 -95311300000.0 -121424000000.0 -134013000000.0 -86187800000.0 -24732400000.0 -51005500000.0 -25753700000.0 -60574300000.0 -28349200000.0 -40120800000.0 -64963700000.0 -77340000000.0 -75102500000.0 -77660300000.0 -40820400000.0 -35759700000.0 -23417400000.0 -46003300000.0 -38039000000.0 -14967600000.0 -14741700000.0 -22227800000.0 -15470500000.0 -26220800000.0 -49986200000.0 -58067500000.0 -12549700000.0 -91950000000.0 -97876300000.0 -35366600000.0 -68149100000.0 -44297800000.0 -45064700000.0 -61339000000.0 -57411400000.0 -31993500000.0 -122167000000.0 -40800800000.0 -18726300000.0 -30738600000.0 -26787200000.0 -64636400000.0 -54165300000.0 -92155900000.0 -78666400000.0 -102159000000.0 -71847100000.0 -16720000000.0 -66293500000.0 -81935700000.0 -74486500000.0 -57194700000.0 -49277300000.0 -18328500000.0 -42931900000.0 -77047600000.0 -104590000000.0 -88328300000.0 -14638300000.0 -150028000000.0 -69375300000.0 -103225000000.0 -118595000000.0 -90061700000.0 -105323000000.0 -110985000000.0 -151174000000.0 -37495400000.0 -12865000000.0 -36615500000.0 -70949500000.0 -52549100000.0 -63401200000.0 -15485700000.0 -96824500000.0 -51597600000.0 -63348700000.0 -74276100000.0 -16240900000.0 -17892600000.0 -55971000000.0 -26826600000.0 -28460700000.0 -31232900000.0 -42177400000.0 -60119400000.0 -40741000000.0 -24622100000.0 -57036400000.0 -56730800000.0 -18235100000.0 -60332700000.0 -15382300000.0 -57091500000.0 -62145500000.0 -46040800000.0 -83510100000.0 -15166800000.0 -18055100000.0 -51090500000.0 -31117800000.0 -68471000000.0 -46157500000.0 -25552300000.0 -101066000000.0 -15976600000.0 -12780500000.0 -64411000000.0 -62519400000.0 -13570000000.0 -120148000000.0 -65519500000.0 -103861000000.0 -89127500000.0 -87735000000.0 -40409300000.0 -32500800000.0 -46667500000.0 -39771200000.0 -41932000000.0 -12897500000.0 -22365200000.0 -16757200000.0 -12547300000.0 -72015900000.0 -39843700000.0 -37830000000.0 -66453200000.0 -56468800000.0 -61378400000.0 -54968600000.0 -47335800000.0 -103414000000.0 -87286200000.0 -49393900000.0 -81423100000.0 -12989400000.0 -89518900000.0 -34137100000.0 -67748800000.0 -91540600000.0 -32720500000.0 -49023500000.0 -113236000000.0 -73804700000.0 -33721100000.0 -29833500000.0 -38368200000.0 -45138400000.0 -37099500000.0 -83242200000.0 -80255600000.0 -38832500000.0 -74700900000.0 -48028400000.0 -42270700000.0 -62971600000.0 -85394500000.0 -35945700000.0 -53974300000.0 -64972800000.0 -114983000000.0 -81362100000.0 -96815400000.0 -103704000000.0 -51391700000.0 -30458700000.0 -58127000000.0 -113391000000.0 -65491600000.0 -87511200000.0 -81932900000.0 -38593600000.0 -181278000000.0 -23069600000.0 -25323600000.0 -12613300000.0 -21676400000.0 -37537100000.0 -26889600000.0 -41847800000.0 -82707100000.0 -22740200000.0 -47702900000.0 -16673800000.0 -26997900000.0 -31154100000.0 -60715700000.0 -12633500000.0 -56831200000.0 -15960700000.0 -52135200000.0 -65189600000.0 -19215700000.0 -17762900000.0 -20127700000.0 -24079900000.0 -50953900000.0 -33502300000.0 -53811100000.0 -33916700000.0 -17415600000.0 -13068100000.0 -19545700000.0 -12549700000.0 -71553900000.0 -21860700000.0 -21748300000.0 -55329500000.0 -16289100000.0 -45634600000.0 -28919800000.0 -22378800000.0 -21997300000.0 -115476000000.0 -52308000000.0 -56385800000.0 -63230600000.0 -91571300000.0 -31779700000.0 -19483300000.0 -135710000000.0 -44962100000.0 -47243100000.0 -32592300000.0 -31738400000.0 -21698100000.0 -24974400000.0 -31217100000.0 -28183900000.0 -34806600000.0 -12549900000.0 -25975400000.0 -65560700000.0 -47756400000.0 -51990900000.0 -40400900000.0 -37388900000.0 -35725200000.0 -36679800000.0 -61431600000.0 -22262200000.0 -41181900000.0 -32695400000.0 -36082700000.0 -27550200000.0 -29487300000.0 -13819200000.0 -17210500000.0 -70042200000.0 -51224100000.0 -31348200000.0 -30527000000.0 -25140500000.0 -15655800000.0 -86442700000.0 -68608300000.0 -34718000000.0 -29297400000.0 -25702800000.0 -44750200000.0 -26640000000.0 -28419500000.0 -94955400000.0 -46641700000.0 -94636200000.0 -52865300000.0 -34723600000.0 -38111700000.0 -88604800000.0 -112621000000.0 -25064400000.0 -51539500000.0 -26465900000.0 -15800200000.0 -71002700000.0 -41925600000.0 -81236500000.0 -118915000000.0 -130721000000.0 -29766800000.0 -24802200000.0 -17791900000.0 -49484100000.0 -39366000000.0 -17525900000.0 -20675700000.0 -22318000000.0 -36939700000.0 -42932700000.0 -29110100000.0 -12891400000.0 -35449900000.0 -27555900000.0 -21492800000.0 -26481600000.0 -21816100000.0 -23618200000.0 -27113400000.0 -39550400000.0 -13108400000.0 -12549700000.0 -29010100000.0 -17154200000.0 -25716500000.0 -25025300000.0 -25335100000.0 -34241200000.0 -43521000000.0 -50571800000.0 -28352300000.0 -52536200000.0 -66971100000.0 -28819700000.0 -56992000000.0 -64513800000.0 -33216800000.0 -47950500000.0 -20221800000.0 -58612300000.0 -38216800000.0 -22032100000.0 -13989200000.0 -40356500000.0 -40546600000.0 -23883200000.0 -31451200000.0 -25436900000.0 -33108300000.0 -17175300000.0 -33352300000.0 -12591300000.0 -38053300000.0 -48292200000.0 -21490800000.0 -19067100000.0 -25315000000.0 -16450500000.0 -12549700000.0 -17748300000.0 -45368200000.0 -43284900000.0 -35771200000.0 -24289900000.0 -46542600000.0 -23662400000.0 -24808300000.0 -23930400000.0 -24311700000.0 -37232300000.0 -15734800000.0 -12549700000.0 -29720400000.0 -16004700000.0 -86069700000.0 -14458700000.0 -60445800000.0 -78329200000.0 -44127500000.0 -20788400000.0 -41886800000.0 -35578600000.0 -14542000000.0 -69237100000.0 -21186100000.0 -44601900000.0 -51646200000.0 -65645300000.0 -67120800000.0 -72337500000.0 -65057600000.0 -108995000000.0 -62398300000.0 -84661400000.0 -72514900000.0 -109479000000.0 -30576900000.0 -46971700000.0 -69902400000.0 -14862300000.0 -69929600000.0 -77513500000.0 -12784100000.0 -55746500000.0 -49980400000.0 -50674000000.0 -34813400000.0 -18472800000.0 -17169700000.0 -18031100000.0 -30517800000.0 -29087100000.0 -18692000000.0 -38876400000.0 -15605200000.0 -15255500000.0 -35934800000.0 -16804200000.0 -12921500000.0 -12549700000.0 -14577800000.0 -24006700000.0 -12862900000.0 -13214800000.0 -22013100000.0 -12549700000.0 -16290100000.0 -15956900000.0 -15065500000.0 -23724400000.0 -33956200000.0 -43795000000.0 -31870800000.0 -36574300000.0 -28658300000.0 -25403200000.0 -36422700000.0 -60149200000.0 -25273100000.0 -29458200000.0 -14172100000.0 -64735900000.0 -15139700000.0 -30672600000.0 -53205100000.0 -124149000000.0 -29126600000.0 -41422900000.0 -13186700000.0 -19931300000.0 -12599100000.0 -13419100000.0 -28934200000.0 -24775000000.0 -27893000000.0 -31039600000.0 -23009700000.0 -17728100000.0 -15727600000.0 -26866800000.0 -25837100000.0 -41629800000.0 -16257400000.0 -32539000000.0 -19839700000.0 -36518600000.0 -12993300000.0 -13217600000.0 -15012800000.0 -12967900000.0 -24312600000.0 -12629100000.0 -12549700000.0 -23721600000.0 -31871000000.0 -91061800000.0 -48346200000.0 -75364800000.0 -79829000000.0 -76956700000.0 -49331000000.0 -86126000000.0 -37514300000.0 -38138700000.0 -34058600000.0 -54644700000.0 -12794700000.0 -72594300000.0 -39068500000.0 -83143400000.0 -26828200000.0 -21042800000.0 -25392100000.0 -31435900000.0 -35262200000.0 -23370900000.0 -50609200000.0 -22000200000.0 -23944600000.0 -33388500000.0 -45895900000.0 -25815700000.0 -26084700000.0 -27019300000.0 -14112800000.0 -19958900000.0 -15049200000.0 -28772500000.0 -14440900000.0 -12549700000.0 -19097200000.0 -15268600000.0 -12549700000.0 -12549700000.0 -13724200000.0 -20101900000.0 -12699600000.0 -12549700000.0 -19334100000.0 -12566300000.0 -13455100000.0 -13037400000.0 -12654700000.0 -18275100000.0 -20715500000.0 -27761300000.0 -16808000000.0 -13237200000.0 -32089400000.0 -22012300000.0 -21166300000.0 -12950700000.0 -17192100000.0 -42825600000.0 -34140400000.0 -39797300000.0 -46903300000.0 -66940700000.0 -51923000000.0 -22145400000.0 -62524400000.0 -46827500000.0 -25620400000.0 -21613900000.0 -18692500000.0 -26505800000.0 -17304300000.0 -17315500000.0 -13498400000.0 -21817500000.0 -27480300000.0 -20304100000.0 -21178400000.0 -22754900000.0 -24602500000.0 -23751500000.0 -30776400000.0 -36782300000.0 -30702800000.0 -16065700000.0 -15671700000.0 -15147600000.0 -12825200000.0 -13106200000.0 -15191300000.0 -14785200000.0 -12549700000.0 -12905300000.0 -15170600000.0 -35852300000.0 -50425000000.0 -67418300000.0 -17126700000.0 -35010900000.0 -29552000000.0 -24230800000.0 -45478400000.0 -32125700000.0 -25923900000.0 -26436100000.0 -27330900000.0 -27470100000.0 -31019300000.0 -35234100000.0 -30413700000.0 -31325000000.0 -41537800000.0 -20712300000.0 -25104100000.0 -31909200000.0 -19161200000.0 -35200900000.0 -19211400000.0 -26161000000.0 -55771200000.0 -28977500000.0 -21502400000.0 -13697900000.0 -19887700000.0 -15322200000.0 -24117300000.0 -23569900000.0 -12571000000.0 -15498800000.0 -15714800000.0 -13452200000.0 -16175200000.0 -12549700000.0 -23783700000.0 -13059900000.0 -12646000000.0 -15469700000.0 -14106900000.0 -13445100000.0 -12549700000.0 -12561900000.0 -12763100000.0 -17975700000.0 -12595100000.0 -12549700000.0 -18422700000.0 -12610500000.0 -13084700000.0 -13389900000.0 -15712400000.0 -13553600000.0 -16546400000.0 -15425200000.0 -12839500000.0 -21465600000.0 -17910800000.0 -13955700000.0 -20886900000.0 -16228300000.0 -22138800000.0 -46278300000.0 -26844800000.0 -26893900000.0 -24561700000.0 -16381100000.0 -22050100000.0 -35895400000.0 -22806600000.0 -30932600000.0 -48897600000.0 -28443800000.0 -26568100000.0 -25934000000.0 -23165400000.0 -17847300000.0 -15263000000.0 -14061800000.0 -22046900000.0 -13046400000.0 -14133400000.0 -15754100000.0 -12975200000.0 -17795400000.0 -15642300000.0 -13517400000.0 -15744400000.0 -22248700000.0 -12549700000.0 -20378500000.0 -15434900000.0 -13669400000.0 -13921400000.0 -15069900000.0 -13367800000.0 -12888300000.0 -13295500000.0 -21334600000.0 -22955000000.0 -24364000000.0 -15897600000.0 -12595400000.0 -18390700000.0 -27244700000.0 -26060800000.0 -29467700000.0 -18395900000.0 -17642200000.0 -17243900000.0 -17671100000.0 -15614600000.0 -16285900000.0 -31147300000.0 -14462100000.0 -14365000000.0 -15167900000.0 -20342000000.0 -12702500000.0 -13440500000.0 -13313000000.0 -13283100000.0 -24626400000.0 -23610400000.0 -28371900000.0 -14128800000.0 -13637900000.0 -12549700000.0 -15274200000.0 -12648100000.0 -15144100000.0 -13434500000.0 -13215300000.0 -12549700000.0 -13515600000.0 -12876200000.0 -14374400000.0 -16729300000.0 -15449000000.0 -14095200000.0 -14484100000.0 -14125500000.0 -13992600000.0 -14191800000.0 -16612900000.0 -14520300000.0 -15022300000.0 -13781800000.0 -12915900000.0 -13233400000.0 -13055300000.0 -14091100000.0 -13492900000.0 -14980700000.0 -15824600000.0 -16176800000.0 -13582500000.0 -16266400000.0 -16194900000.0 -20398000000.0 -20044800000.0 -20243600000.0 -16799200000.0 -18634900000.0 -19355100000.0 -19832800000.0 -16880400000.0 -22463000000.0 -22003900000.0 -15052100000.0 -12846800000.0 -21781100000.0 -12549700000.0 -12549700000.0 -12549700000.0 -13862800000.0 -12999700000.0 -12944500000.0 -15987200000.0 -13112000000.0 -13971000000.0 -12549700000.0 -13857900000.0 -13456200000.0 -13533600000.0 -13864500000.0 -17103700000.0 -13210200000.0 -20391300000.0 -13640600000.0 -15691100000.0 -15745000000.0 -13860500000.0 -13666900000.0 -13542900000.0 -14513100000.0 -12549700000.0 -12627500000.0 -17765700000.0 -15677100000.0 -12982700000.0 -13386400000.0 -13222800000.0 -20402000000.0 -13205800000.0 -15174000000.0 -14894700000.0 -14688500000.0 -14459300000.0 -13290100000.0 -13393000000.0 -14790500000.0 -13975900000.0 -12658700000.0 