# vtk DataFile Version 2.0
Time step 31
ASCII
DATASET UNSTRUCTURED_GRID
POINTS 5000 float
193597.0 382125.0 0
308249.0 383106.0 0
179679.0 390049.0 0
185371.0 386911.0 0
187447.0 390580.0 0
191018.0 386527.0 0
195232.0 388325.0 0
205563.0 388007.0 0
298934.0 388125.0 0
304147.0 386521.0 0
309217.0 387964.0 0
314276.0 387783.0 0
176268.0 392522.0 0
180287.0 392996.0 0
183020.0 390305.0 0
183694.0 394847.0 0
188287.0 395128.0 0
192254.0 391755.0 0
198272.0 388958.0 0
196933.0 392558.0 0
201645.0 391647.0 0
211226.0 388988.0 0
216329.0 390396.0 0
221423.0 389959.0 0
223811.0 393567.0 0
226583.0 391622.0 0
231057.0 391558.0 0
236044.0 393744.0 0
240974.0 391405.0 0
246290.0 393256.0 0
252608.0 392138.0 0
258883.0 392021.0 0
263622.0 392277.0 0
268458.0 391336.0 0
273482.0 391656.0 0
278274.0 390339.0 0
283536.0 391603.0 0
288546.0 392659.0 0
293306.0 389664.0 0
301717.0 391650.0 0
306093.0 391976.0 0
310439.0 392131.0 0
314158.0 392386.0 0
319601.0 391649.0 0
324960.0 393430.0 0
170113.0 396428.0 0
166478.0 399099.0 0
170823.0 399491.0 0
174634.0 396137.0 0
172867.0 394218.0 0
175385.0 399880.0 0
178290.0 396024.0 0
181245.0 399620.0 0
192179.0 396899.0 0
186510.0 399838.0 0
196897.0 397745.0 0
201388.0 399452.0 0
203770.0 395753.0 0
208536.0 393886.0 0
212351.0 397680.0 0
215549.0 394825.0 0
219654.0 394357.0 0
222751.0 397406.0 0
227599.0 396150.0 0
232713.0 397520.0 0
238054.0 398931.0 0
243468.0 397715.0 0
248583.0 397105.0 0
252541.0 398511.0 0
256990.0 396694.0 0
261475.0 396041.0 0
266680.0 396354.0 0
270944.0 395596.0 0
275897.0 396276.0 0
280299.0 394812.0 0
283564.0 396297.0 0
280478.0 398706.0 0
287363.0 396915.0 0
292508.0 395144.0 0
297873.0 394088.0 0
295224.0 398794.0 0
299802.0 397653.0 0
302872.0 395569.0 0
308272.0 399150.0 0
308706.0 395497.0 0
311728.0 397995.0 0
311963.0 394893.0 0
315532.0 396109.0 0
314913.0 400141.0 0
318952.0 396317.0 0
318421.0 399164.0 0
322610.0 397331.0 0
325959.0 399844.0 0
326683.0 396802.0 0
330102.0 396943.0 0
328901.0 400452.0 0
334094.0 400420.0 0
158128.0 404660.0 0
162281.0 401548.0 0
165722.0 402808.0 0
162931.0 405542.0 0
166761.0 405840.0 0
168646.0 402431.0 0
170141.0 405630.0 0
171886.0 402298.0 0
174426.0 405260.0 0
178594.0 403701.0 0
182470.0 404190.0 0
191544.0 402328.0 0
197537.0 403587.0 0
203613.0 403734.0 0
207304.0 399670.0 0
211347.0 401241.0 0
214587.0 403163.0 0
217768.0 399069.0 0
225231.0 400787.0 0
221537.0 401635.0 0
229397.0 400823.0 0
233889.0 403125.0 0
238212.0 403345.0 0
242243.0 402792.0 0
247238.0 401228.0 0
251801.0 403449.0 0
256398.0 401422.0 0
261630.0 400686.0 0
266312.0 400786.0 0
271699.0 400934.0 0
276903.0 400986.0 0
280489.0 403028.0 0
283704.0 404396.0 0
284645.0 400633.0 0
290140.0 400993.0 0
304221.0 400025.0 0
299560.0 401759.0 0
303365.0 404565.0 0
307569.0 403415.0 0
311089.0 401674.0 0
314054.0 404017.0 0
318242.0 403257.0 0
321193.0 400993.0 0
322536.0 405130.0 0
324121.0 401401.0 0
326995.0 403736.0 0
330867.0 403659.0 0
334722.0 405604.0 0
338799.0 402239.0 0
342946.0 405296.0 0
338720.0 405593.0 0
146869.0 410673.0 0
150298.0 408353.0 0
154008.0 406772.0 0
153113.0 410248.0 0
156333.0 409811.0 0
159913.0 408808.0 0
164303.0 409794.0 0
168372.0 409318.0 0
172208.0 408712.0 0
177970.0 408359.0 0
182123.0 407705.0 0
183844.0 410075.0 0
186577.0 405707.0 0
191848.0 407743.0 0
196129.0 408921.0 0
200816.0 408176.0 0
209742.0 405074.0 0
205767.0 408654.0 0
214482.0 408624.0 0
219218.0 405576.0 0
224025.0 404785.0 0
222747.0 408319.0 0
228875.0 407023.0 0
235931.0 407360.0 0
239506.0 406409.0 0
242870.0 408243.0 0
246920.0 406376.0 0
251278.0 408215.0 0
255752.0 406693.0 0
259426.0 404299.0 0
264310.0 405105.0 0
260511.0 408204.0 0
269271.0 407575.0 0
275737.0 406540.0 0
281743.0 407610.0 0
286101.0 406657.0 0
290180.0 407704.0 0
294874.0 405057.0 0
299005.0 407579.0 0
296269.0 409555.0 0
302149.0 408173.0 0
306461.0 407897.0 0
311155.0 406869.0 0
313583.0 410561.0 0
316750.0 407866.0 0
321752.0 410304.0 0
326507.0 407720.0 0
330349.0 406832.0 0
329820.0 410162.0 0
333820.0 410335.0 0
339045.0 410061.0 0
343396.0 410466.0 0
347098.0 408254.0 0
351591.0 410848.0 0
137577.0 416469.0 0
143758.0 412518.0 0
140787.0 414663.0 0
150083.0 411823.0 0
146840.0 414378.0 0
150505.0 415478.0 0
153784.0 413584.0 0
156644.0 412852.0 0
156597.0 416214.0 0
160104.0 413044.0 0
159798.0 416567.0 0
163425.0 413404.0 0
166613.0 413676.0 0
170863.0 413003.0 0
174363.0 415036.0 0
174667.0 410880.0 0
177282.0 412685.0 0
180621.0 411641.0 0
183777.0 414384.0 0
187874.0 411231.0 0
193152.0 413678.0 0
198840.0 412715.0 0
202988.0 412116.0 0
210033.0 410331.0 0
206971.0 414085.0 0
212095.0 414318.0 0
219700.0 410455.0 0
216546.0 413401.0 0
224023.0 412409.0 0
228630.0 414890.0 0
233352.0 411642.0 0
239180.0 411083.0 0
243307.0 414037.0 0
247778.0 411676.0 0
252473.0 412231.0 0
257215.0 411994.0 0
264611.0 410364.0 0
268735.0 413422.0 0
274430.0 413210.0 0
278934.0 411145.0 0
283702.0 412812.0 0
287295.0 410170.0 0
293504.0 409733.0 0
290692.0 412396.0 0
295174.0 412696.0 0
299554.0 411727.0 0
304387.0 411742.0 0
309761.0 411261.0 0
313026.0 413847.0 0
317438.0 413413.0 0
322799.0 416167.0 0
326561.0 412585.0 0
331598.0 414673.0 0
336514.0 414818.0 0
344039.0 413396.0 0
341151.0 415187.0 0
347096.0 412653.0 0
345543.0 415952.0 0
353264.0 415101.0 0
349835.0 415290.0 0
355565.0 412419.0 0
358559.0 413495.0 0
360763.0 415153.0 0
134737.0 418593.0 0
131246.0 420640.0 0
140048.0 419271.0 0
137137.0 421616.0 0
143975.0 416970.0 0
148393.0 418969.0 0
153072.0 417547.0 0
152526.0 421667.0 0
155806.0 419695.0 0
159083.0 419570.0 0
163413.0 417396.0 0
168898.0 417530.0 0
173492.0 419298.0 0
178819.0 417096.0 0
183447.0 418841.0 0
188164.0 417297.0 0
193090.0 420100.0 0
197349.0 417434.0 0
202313.0 416587.0 0
209641.0 418293.0 0
214727.0 417956.0 0
220367.0 417566.0 0
226007.0 419412.0 0
231591.0 419826.0 0
236033.0 416513.0 0
240890.0 418871.0 0
246103.0 417903.0 0
250485.0 416239.0 0
255965.0 418000.0 0
262164.0 415370.0 0
267063.0 418715.0 0
271554.0 417191.0 0
279169.0 415119.0 0
276090.0 418784.0 0
282535.0 418885.0 0
287915.0 416667.0 0
293264.0 416294.0 0
291567.0 420249.0 0
297599.0 416357.0 0
302393.0 416024.0 0
307701.0 415448.0 0
311614.0 416609.0 0
310607.0 420616.0 0
315541.0 418557.0 0
319470.0 417230.0 0
325589.0 420351.0 0
327406.0 416926.0 0
330690.0 419642.0 0
334675.0 418117.0 0
338969.0 419476.0 0
343754.0 419392.0 0
348208.0 418915.0 0
350169.0 421968.0 0
351928.0 418312.0 0
356562.0 416906.0 0
363620.0 417131.0 0
360438.0 418088.0 0
363141.0 420475.0 0
366534.0 419513.0 0
370018.0 421793.0 0
120682.0 426851.0 0
124135.0 425434.0 0
127973.0 422710.0 0
127515.0 425631.0 0
133834.0 421914.0 0
131300.0 424199.0 0
134653.0 424155.0 0
137959.0 425596.0 0
140521.0 423301.0 0
144124.0 422127.0 0
145495.0 426236.0 0
148625.0 423819.0 0
152549.0 426323.0 0
156761.0 423673.0 0
159869.0 426036.0 0
161270.0 422284.0 0
163636.0 425724.0 0
165595.0 421288.0 0
170105.0 422077.0 0
167409.0 424993.0 0
173591.0 424298.0 0
176821.0 421961.0 0
180689.0 422248.0 0
185563.0 422666.0 0
189203.0 421071.0 0
190275.0 424367.0 0
199785.0 421964.0 0
195265.0 424994.0 0
205354.0 420698.0 0
208856.0 424789.0 0
212425.0 421376.0 0
213530.0 425304.0 0
216730.0 422312.0 0
221593.0 423824.0 0
227312.0 425120.0 0
236608.0 422165.0 0
245855.0 422404.0 0
250130.0 423740.0 0
251559.0 420122.0 0
255185.0 424155.0 0
261583.0 422412.0 0
267378.0 423657.0 0
271461.0 421636.0 0
279034.0 423270.0 0
283621.0 425091.0 0
287246.0 421824.0 0
290974.0 425040.0 0
295663.0 423045.0 0
300186.0 420717.0 0
303394.0 424138.0 0
305586.0 420238.0 0
307803.0 425024.0 0
311529.0 424239.0 0
315284.0 423791.0 0
320887.0 421722.0 0
325435.0 424915.0 0
328465.0 422886.0 0
331951.0 423543.0 0
329870.0 426573.0 0
335002.0 421979.0 0
338226.0 423732.0 0
342803.0 423883.0 0
346874.0 422498.0 0
354219.0 421210.0 0
351474.0 425005.0 0
359072.0 422093.0 0
362946.0 424163.0 0
366152.0 423177.0 0
368734.0 425606.0 0
373235.0 423808.0 0
376560.0 425442.0 0
114307.0 431769.0 0
117754.0 428931.0 0
117775.0 431938.0 0
121895.0 430055.0 0
125284.0 428249.0 0
126792.0 431167.0 0
129645.0 427995.0 0
133600.0 426991.0 0
131949.0 430995.0 0
136057.0 429699.0 0
139355.0 428980.0 0
142126.0 426448.0 0
141862.0 430220.0 0
145525.0 430019.0 0
148747.0 427641.0 0
150794.0 431403.0 0
156379.0 429223.0 0
161735.0 429699.0 0
170445.0 426127.0 0
167187.0 429312.0 0
172981.0 429398.0 0
177256.0 426194.0 0
181851.0 426669.0 0
183627.0 430674.0 0
186588.0 427317.0 0
188252.0 431156.0 0
191839.0 428407.0 0
199361.0 427017.0 0
196384.0 429940.0 0
203594.0 425812.0 0
206366.0 429673.0 0
211555.0 429737.0 0
217517.0 427651.0 0
222825.0 429338.0 0
232850.0 425337.0 0
230693.0 428683.0 0
234514.0 429421.0 0
236824.0 426577.0 0
238919.0 430014.0 0
241400.0 425074.0 0
242916.0 429784.0 0
246562.0 427228.0 0
251119.0 428258.0 0
255869.0 429787.0 0
260323.0 428144.0 0
265577.0 428833.0 0
270663.0 426766.0 0
274823.0 424996.0 0
279913.0 428481.0 0
287504.0 426630.0 0
285175.0 429800.0 0
290003.0 429846.0 0
294724.0 428259.0 0
299747.0 426847.0 0
304236.0 427462.0 0
307266.0 429620.0 0
312109.0 427996.0 0
317086.0 428357.0 0
318905.0 425467.0 0
322122.0 428006.0 0
327071.0 429717.0 0
332087.0 430932.0 0
334914.0 426997.0 0
339789.0 427919.0 0
344426.0 428143.0 0
347941.0 426331.0 0
351727.0 429021.0 0
355809.0 426433.0 0
356563.0 430962.0 0
360827.0 427439.0 0
361150.0 431765.0 0
364584.0 429692.0 0
365298.0 426988.0 0
368275.0 429494.0 0
375424.0 428809.0 0
371802.0 427118.0 0
372053.0 430850.0 0
379759.0 427545.0 0
378234.0 430805.0 0
383143.0 429287.0 0
381272.0 431480.0 0
385960.0 431096.0 0
107481.0 435137.0 0
104686.0 436775.0 0
110316.0 433167.0 0
109607.0 436585.0 0
112674.0 435283.0 0
116799.0 435756.0 0
120716.0 434130.0 0
124275.0 433825.0 0
129321.0 433119.0 0
127307.0 435731.0 0
131480.0 434665.0 0
134189.0 436721.0 0
138721.0 432075.0 0
135235.0 433213.0 0
137875.0 435397.0 0
141864.0 433911.0 0
146079.0 433737.0 0
148665.0 436453.0 0
152554.0 435250.0 0
155138.0 433153.0 0
159216.0 433581.0 0
155842.0 436483.0 0
162095.0 436304.0 0
164337.0 433387.0 0
169390.0 433496.0 0
173671.0 433738.0 0
178350.0 431020.0 0
185652.0 433760.0 0
181783.0 434674.0 0
189133.0 435102.0 0
192715.0 432750.0 0
197246.0 434416.0 0
201422.0 431431.0 0
206259.0 434860.0 0
215594.0 432107.0 0
219613.0 433735.0 0
227550.0 430619.0 0
227862.0 435203.0 0
231677.0 432561.0 0
236227.0 433771.0 0
241529.0 434635.0 0
246218.0 432119.0 0
251351.0 433835.0 0
260876.0 433614.0 0
266548.0 434376.0 0
271263.0 434425.0 0
274806.0 430284.0 0
279165.0 432828.0 0
283568.0 434330.0 0
287543.0 432920.0 0
293630.0 433002.0 0
298180.0 431624.0 0
296883.0 435328.0 0
302740.0 430851.0 0
301257.0 435560.0 0
306042.0 433882.0 0
310535.0 432626.0 0
313965.0 435527.0 0
315014.0 431886.0 0
319876.0 432963.0 0
324046.0 432304.0 0
324275.0 436109.0 0
326988.0 433885.0 0
330332.0 434967.0 0
334321.0 435193.0 0
337368.0 432194.0 0
342515.0 431706.0 0
341084.0 435202.0 0
344796.0 435130.0 0
347626.0 431659.0 0
352581.0 433386.0 0
356350.0 434179.0 0
358938.0 435135.0 0
363339.0 436001.0 0
365841.0 432768.0 0
369574.0 433544.0 0
373286.0 433638.0 0
375650.0 432796.0 0
378724.0 434055.0 0
376492.0 436377.0 0
384416.0 433393.0 0
381619.0 435317.0 0
388802.0 432851.0 0
387254.0 435105.0 0
389776.0 436815.0 0
391736.0 435006.0 0
394642.0 437338.0 0
98725.4 441178.0 0
101907.0 438847.0 0
102732.0 442291.0 0
106316.0 439503.0 0
108774.0 442054.0 0
113932.0 438881.0 0
110259.0 439164.0 0
111771.0 442248.0 0
117854.0 440363.0 0
120288.0 437845.0 0
123946.0 437576.0 0
122377.0 441847.0 0
126757.0 440084.0 0
130119.0 438387.0 0
133112.0 440213.0 0
136172.0 439140.0 0
138730.0 441095.0 0
139635.0 437625.0 0
143590.0 438092.0 0
147500.0 441216.0 0
152226.0 439218.0 0
159128.0 437382.0 0
156597.0 440995.0 0
161541.0 439893.0 0
166341.0 437777.0 0
171488.0 437094.0 0
174213.0 440032.0 0
177037.0 436406.0 0
185491.0 437367.0 0
181385.0 439324.0 0
189316.0 438979.0 0
193333.0 437212.0 0
197387.0 440305.0 0
201327.0 436796.0 0
204962.0 439737.0 0
208822.0 439128.0 0
212050.0 435487.0 0
216782.0 437905.0 0
223579.0 435546.0 0
221445.0 439645.0 0
225547.0 438600.0 0
229509.0 439679.0 0
233031.0 436948.0 0
237605.0 438278.0 0
241787.0 439931.0 0
246415.0 436938.0 0
250698.0 439971.0 0
256106.0 436226.0 0
255606.0 440345.0 0
260406.0 439788.0 0
265082.0 438498.0 0
268973.0 438054.0 0
273160.0 439082.0 0
275757.0 435360.0 0
279559.0 437137.0 0
283551.0 439414.0 0
288323.0 437296.0 0
293491.0 437747.0 0
297728.0 439165.0 0
305487.0 438400.0 0
309754.0 437312.0 0
313860.0 439711.0 0
317884.0 437632.0 0
321470.0 440275.0 0
321543.0 437035.0 0
325327.0 440535.0 0
327671.0 437649.0 0
332280.0 440432.0 0
338147.0 438313.0 0
343511.0 438803.0 0
349266.0 438257.0 0
354017.0 441505.0 0
355611.0 437803.0 0
360427.0 439015.0 0
364185.0 439975.0 0
367756.0 437853.0 0
372876.0 437327.0 0
371877.0 441629.0 0
379785.0 438822.0 0
375881.0 440279.0 0
378231.0 442202.0 0
384803.0 437805.0 0
383845.0 441327.0 0
388534.0 440085.0 0
392522.0 440266.0 0
398128.0 439422.0 0
395840.0 441848.0 0
401810.0 442178.0 0
90872.8 447176.0 0
95195.3 443738.0 0
99261.5 444722.0 0
102556.0 446226.0 0
106193.0 444239.0 0
108672.0 447376.0 0
109618.0 444556.0 0
112178.0 445709.0 0
115265.0 443453.0 0
118866.0 444898.0 0
115457.0 446902.0 0
122564.0 446510.0 0
126554.0 443836.0 0
130178.0 442149.0 0
130584.0 445693.0 0
134092.0 443106.0 0
137376.0 445164.0 0
142543.0 443435.0 0
146276.0 446441.0 0
151584.0 444457.0 0
156188.0 445221.0 0
160015.0 443972.0 0
164550.0 442905.0 0
169894.0 442168.0 0
175193.0 444760.0 0
171331.0 446586.0 0
177734.0 441144.0 0
180444.0 443836.0 0
185914.0 443189.0 0
190171.0 445857.0 0
192356.0 442479.0 0
195850.0 446031.0 0
200186.0 444618.0 0
201764.0 440912.0 0
209420.0 442891.0 0
205235.0 444759.0 0
212837.0 440560.0 0
212795.0 445342.0 0
216841.0 442710.0 0
221266.0 444965.0 0
225656.0 442635.0 0
230123.0 444630.0 0
234068.0 441525.0 0
238419.0 442535.0 0
241759.0 445011.0 0
245821.0 442378.0 0
249630.0 444681.0 0
253701.0 444125.0 0
257921.0 443859.0 0
269582.0 441817.0 0
264890.0 443668.0 0
273682.0 444314.0 0
279101.0 442364.0 0
282787.0 445800.0 0
286559.0 443118.0 0
290965.0 441574.0 0
290270.0 445479.0 0
294776.0 441887.0 0
298378.0 443825.0 0
301900.0 440983.0 0
306280.0 443052.0 0
310225.0 442273.0 0
313555.0 443142.0 0
317665.0 443096.0 0
322664.0 444291.0 0
328177.0 445208.0 0
337100.0 442988.0 0
341361.0 442438.0 0
346104.0 443418.0 0
351198.0 443979.0 0
358035.0 441942.0 0
355758.0 444987.0 0
359400.0 445548.0 0
362638.0 443391.0 0
367329.0 442778.0 0
370966.0 446253.0 0
375602.0 444197.0 0
379683.0 445658.0 0
381295.0 442902.0 0
384463.0 446003.0 0
386421.0 443009.0 0
389735.0 444878.0 0
393604.0 444504.0 0
398359.0 443751.0 0
397051.0 447534.0 0
405436.0 443038.0 0
402031.0 446804.0 0
405231.0 445625.0 0
408131.0 444939.0 0
410947.0 447683.0 0
82048.1 451671.0 0
86267.4 449357.0 0
89997.5 452292.0 0
93507.1 450625.0 0
95516.1 447548.0 0
97277.0 451077.0 0
99840.9 447953.0 0
102199.0 450959.0 0
105119.0 447980.0 0
106956.0 451750.0 0
112354.0 449936.0 0
118408.0 449377.0 0
122833.0 450675.0 0
126610.0 447927.0 0
126422.0 451607.0 0
133638.0 447097.0 0
130363.0 450040.0 0
133682.0 450372.0 0
136375.0 448765.0 0
140977.0 448715.0 0
145260.0 451081.0 0
149081.0 449066.0 0
153505.0 449525.0 0
158461.0 447907.0 0
162726.0 446926.0 0
161268.0 450241.0 0
164369.0 450299.0 0
167038.0 446891.0 0
167408.0 450838.0 0
170144.0 449573.0 0
174206.0 450219.0 0
179180.0 448227.0 0
183430.0 447605.0 0
187585.0 449263.0 0
192409.0 448530.0 0
196396.0 451162.0 0
200548.0 449053.0 0
209035.0 447982.0 0
205011.0 450431.0 0
212943.0 450376.0 0
216916.0 447643.0 0
224446.0 447962.0 0
220928.0 450053.0 0
227931.0 448311.0 0
233989.0 445781.0 0
232161.0 449544.0 0
237524.0 447142.0 0
241161.0 449345.0 0
246027.0 448112.0 0
252140.0 449297.0 0
256557.0 447320.0 0
260841.0 447554.0 0
265134.0 448596.0 0
269158.0 447198.0 0
273352.0 449206.0 0
277872.0 447882.0 0
282089.0 450086.0 0
286787.0 448555.0 0
291259.0 449159.0 0
294515.0 446204.0 0
299042.0 448507.0 0
302752.0 445838.0 0
303617.0 450594.0 0
307037.0 447339.0 0
312597.0 447403.0 0
319000.0 448214.0 0
315674.0 450668.0 0
324007.0 448813.0 0
328476.0 450955.0 0
332987.0 451106.0 0
334210.0 446660.0 0
340085.0 447035.0 0
337402.0 451314.0 0
349355.0 446778.0 0
345399.0 448358.0 0
350038.0 450521.0 0
353904.0 448479.0 0
357439.0 451717.0 0
358418.0 448555.0 0
361462.0 451414.0 0
362239.0 447853.0 0
364967.0 450825.0 0
366034.0 447005.0 0
368983.0 449958.0 0
375133.0 447867.0 0
373171.0 450339.0 0
377736.0 447656.0 0
377969.0 451184.0 0
381019.0 449109.0 0
384684.0 450116.0 0
388631.0 448712.0 0
391634.0 451596.0 0
392513.0 448534.0 0
395368.0 451978.0 0
399520.0 451305.0 0
403459.0 450662.0 0
407035.0 448835.0 0
408634.0 452665.0 0
414867.0 448918.0 0
412059.0 451381.0 0
414981.0 451783.0 0
417655.0 451261.0 0
71727.6 457402.0 0
78557.3 452852.0 0
76176.1 456122.0 0
80589.4 454823.0 0
83016.1 456113.0 0
84820.2 453062.0 0
86903.5 456143.0 0
91116.1 457151.0 0
94150.3 454036.0 0
94979.6 457578.0 0
98943.0 454879.0 0
103185.0 455356.0 0
106372.0 455632.0 0
110548.0 455487.0 0
115490.0 453130.0 0
115967.0 457282.0 0
120077.0 454572.0 0
124405.0 454455.0 0
128724.0 454230.0 0
132758.0 453807.0 0
136799.0 452341.0 0
136086.0 456872.0 0
140759.0 453757.0 0
144911.0 455478.0 0
149295.0 453126.0 0
153175.0 454471.0 0
157634.0 453015.0 0
162250.0 453729.0 0
166052.0 454136.0 0
170382.0 453742.0 0
178094.0 454031.0 0
182912.0 451643.0 0
186806.0 454326.0 0
191598.0 453013.0 0
193110.0 456404.0 0
196926.0 456538.0 0
201012.0 453661.0 0
209137.0 453179.0 0
213373.0 454987.0 0
216999.0 452593.0 0
220976.0 454676.0 0
225627.0 452468.0 0
230722.0 454814.0 0
237044.0 453368.0 0
243225.0 453373.0 0
248108.0 453314.0 0
253102.0 455330.0 0
256850.0 450636.0 0
257792.0 454025.0 0
262767.0 452875.0 0
269447.0 453346.0 0
276349.0 453711.0 0
281759.0 454552.0 0
285755.0 453375.0 0
290538.0 453868.0 0
295121.0 451237.0 0
299706.0 453624.0 0
295304.0 455990.0 0
308652.0 452239.0 0
313496.0 453440.0 0
317846.0 453259.0 0
321062.0 451764.0 0
324083.0 453493.0 0
320488.0 456397.0 0
327534.0 456071.0 0
331067.0 454432.0 0
334972.0 455294.0 0
339977.0 456226.0 0
342206.0 451922.0 0
344541.0 455798.0 0
346726.0 453140.0 0
350629.0 454583.0 0
353984.0 452898.0 0
356815.0 454881.0 0
360260.0 454916.0 0
364524.0 455430.0 0
367441.0 453313.0 0
368947.0 456950.0 0
371300.0 453683.0 0
375172.0 453850.0 0
373084.0 457088.0 0
376907.0 456768.0 0
380111.0 455002.0 0
382540.0 452870.0 0
384460.0 456661.0 0
387842.0 453705.0 0
392783.0 455470.0 0
397040.0 455558.0 0
400696.0 454747.0 0
405172.0 454701.0 0
409934.0 456702.0 0
413231.0 455211.0 0
416452.0 454275.0 0
420821.0 454179.0 0
417280.0 457733.0 0
425001.0 456118.0 0
65070.4 461740.0 0
68874.5 460324.0 0
72258.7 461452.0 0
73889.3 459174.0 0
76631.8 460483.0 0
79809.0 458427.0 0
79451.3 462356.0 0
83382.9 459855.0 0
87591.0 460181.0 0
92080.3 460299.0 0
95214.5 460900.0 0
98878.6 458630.0 0
102434.0 458960.0 0
106093.0 458480.0 0
109284.0 461245.0 0
112723.0 459161.0 0
115101.0 461980.0 0
122440.0 457787.0 0
119236.0 459501.0 0
122981.0 461807.0 0
125987.0 457800.0 0
127220.0 461298.0 0
130938.0 458342.0 0
137833.0 461017.0 0
141149.0 458150.0 0
145217.0 460212.0 0
148395.0 457566.0 0
151928.0 457985.0 0
154096.0 461056.0 0
155909.0 457613.0 0
157861.0 461372.0 0
159922.0 457548.0 0
163764.0 457219.0 0
167796.0 458447.0 0
173497.0 457354.0 0
170704.0 461547.0 0
178694.0 459950.0 0
182560.0 456678.0 0
186063.0 458768.0 0
189838.0 457526.0 0
193264.0 460154.0 0
205367.0 456770.0 0
210125.0 457480.0 0
213639.0 459397.0 0
217195.0 457163.0 0
221650.0 459423.0 0
226008.0 457494.0 0
229004.0 460282.0 0
233865.0 459496.0 0
238850.0 458986.0 0
242740.0 457737.0 0
246941.0 457970.0 0
250966.0 460001.0 0
255581.0 460086.0 0
260168.0 458035.0 0
265336.0 458032.0 0
270519.0 459846.0 0
276055.0 459747.0 0
280496.0 458467.0 0
285459.0 458575.0 0
290137.0 458388.0 0
293934.0 460760.0 0
297051.0 458731.0 0
299898.0 457985.0 0
304924.0 456924.0 0
310865.0 457608.0 0
315824.0 457574.0 0
319623.0 461606.0 0
323954.0 458613.0 0
327350.0 460184.0 0
331540.0 459339.0 0
336307.0 460046.0 0
340263.0 461458.0 0
344362.0 459974.0 0
348662.0 458210.0 0
352070.0 461880.0 0
353968.0 457615.0 0
358394.0 458118.0 0
362120.0 458822.0 0
366531.0 460591.0 0
371484.0 460515.0 0
375954.0 460554.0 0
381177.0 459944.0 0
385671.0 460465.0 0
389577.0 459008.0 0
394668.0 459136.0 0
399016.0 459503.0 0
402711.0 458234.0 0
406722.0 459395.0 0
410721.0 460492.0 0
413620.0 459171.0 0
416370.0 461947.0 0
419252.0 460968.0 0
421446.0 458406.0 0
421561.0 462379.0 0
425459.0 460845.0 0
428769.0 458422.0 0
429683.0 462940.0 0
432048.0 460283.0 0
55383.9 467899.0 0
62132.4 463877.0 0
58735.2 465858.0 0
62472.5 467678.0 0
66609.7 464680.0 0
70744.5 465337.0 0
75249.1 463736.0 0
77186.5 466723.0 0
80528.1 465595.0 0
82917.7 463305.0 0
85735.9 463782.0 0
83828.5 467614.0 0
89721.7 463338.0 0
88158.0 466896.0 0
93705.0 465113.0 0
97594.4 467179.0 0
98961.0 462740.0 0
100972.0 466296.0 0
103926.0 462774.0 0
107574.0 465785.0 0
111760.0 464680.0 0
119059.0 463224.0 0
115841.0 467060.0 0
121324.0 466653.0 0
126179.0 465736.0 0
133799.0 462064.0 0
129955.0 463133.0 0
137060.0 465216.0 0
141508.0 462878.0 0
145709.0 464611.0 0
149719.0 462123.0 0
150128.0 467223.0 0
153867.0 464708.0 0
158611.0 466275.0 0
162768.0 461746.0 0
167250.0 464174.0 0
171727.0 465947.0 0
174627.0 462305.0 0
177960.0 466623.0 0
183203.0 461890.0 0
188556.0 462778.0 0
193544.0 465059.0 0
197727.0 461999.0 0
201809.0 460132.0 0
202176.0 464957.0 0
205372.0 462097.0 0
209764.0 462106.0 0
214273.0 463594.0 0
211310.0 465863.0 0
218976.0 463857.0 0
224069.0 463894.0 0
228744.0 464713.0 0
232354.0 463515.0 0
237206.0 464204.0 0
242233.0 462221.0 0
247210.0 463042.0 0
251565.0 464426.0 0
256114.0 465143.0 0
261185.0 463297.0 0
265938.0 462654.0 0
269832.0 465274.0 0
275082.0 465043.0 0
280568.0 463411.0 0
285391.0 463535.0 0
289270.0 462321.0 0
293017.0 464952.0 0
298466.0 461402.0 0
297894.0 465934.0 0
302046.0 461084.0 0
302433.0 464544.0 0
305834.0 462428.0 0
309384.0 461504.0 0
309623.0 465337.0 0
313755.0 462614.0 0
317417.0 466199.0 0
324723.0 463123.0 0
329116.0 463639.0 0
326827.0 466674.0 0
334056.0 465149.0 0
339526.0 465358.0 0
343720.0 464502.0 0
346548.0 466721.0 0
347786.0 463030.0 0
355106.0 465284.0 0
351001.0 466850.0 0
357190.0 461902.0 0
358666.0 466740.0 0
361939.0 463349.0 0
366732.0 466405.0 0
370298.0 463639.0 0
374491.0 464301.0 0
379111.0 464628.0 0
384218.0 464322.0 0
388351.0 463231.0 0
393193.0 462512.0 0
391482.0 465937.0 0
395726.0 466755.0 0
397391.0 463109.0 0
400588.0 466657.0 0
403106.0 462808.0 0
408214.0 463525.0 0
410559.0 467374.0 0
412930.0 464139.0 0
419153.0 464275.0 0
416420.0 465734.0 0
422723.0 465081.0 0
426310.0 464877.0 0
428805.0 467853.0 0
435130.0 463259.0 0
431919.0 465643.0 0
437020.0 467447.0 0
439996.0 465180.0 0
443155.0 468051.0 0
52063.7 471051.0 0
56395.4 471475.0 0
58509.8 468664.0 0
60608.4 471584.0 0
66381.1 468242.0 0
65106.9 472022.0 0
69620.0 469582.0 0
73706.8 468425.0 0
76026.9 470536.0 0
77416.7 472952.0 0
79469.4 469658.0 0
82427.4 472822.0 0
86860.7 470794.0 0
91265.6 469357.0 0
89642.9 472841.0 0
95258.6 470268.0 0
103498.0 467751.0 0
99835.5 470231.0 0
102912.0 471377.0 0
106539.0 470239.0 0
110872.0 468571.0 0
113697.0 472310.0 0
118683.0 470265.0 0
122575.0 471134.0 0
126994.0 470054.0 0
131969.0 467524.0 0
137058.0 469606.0 0
141147.0 467150.0 0
141345.0 471972.0 0
145414.0 469321.0 0
149099.0 471971.0 0
154345.0 468583.0 0
157260.0 470980.0 0
163372.0 466752.0 0
161779.0 471325.0 0
166966.0 469195.0 0
172424.0 471491.0 0
181442.0 470674.0 0
184401.0 466903.0 0
186600.0 470901.0 0
189764.0 468191.0 0
194254.0 469789.0 0
197976.0 466962.0 0
199598.0 470878.0 0
203278.0 468923.0 0
206790.0 466384.0 0
207306.0 470753.0 0
210270.0 468735.0 0
214622.0 468402.0 0
219034.0 468143.0 0
223044.0 468543.0 0
227657.0 469526.0 0
232798.0 467913.0 0
237491.0 469183.0 0
241760.0 467430.0 0
248701.0 467752.0 0
252714.0 468047.0 0
259828.0 467961.0 0
256167.0 470071.0 0
264863.0 467798.0 0
272434.0 468265.0 0
274761.0 469403.0 0
279066.0 469284.0 0
284849.0 468482.0 0
289588.0 466715.0 0
293731.0 469338.0 0
302081.0 468066.0 0
305774.0 466688.0 0
308917.0 469320.0 0
313378.0 468551.0 0
318319.0 470602.0 0
321937.0 466975.0 0
322004.0 470733.0 0
325449.0 470118.0 0
330283.0 469677.0 0
334707.0 470782.0 0
337714.0 468641.0 0
342635.0 469637.0 0
348055.0 470944.0 0
352364.0 471751.0 0
355561.0 469513.0 0
359446.0 471422.0 0
362108.0 468197.0 0
364811.0 471814.0 0
369645.0 471370.0 0
372168.0 467424.0 0
373848.0 471286.0 0
377242.0 468728.0 0
382097.0 468155.0 0
384790.0 471118.0 0
387501.0 468020.0 0
392672.0 469815.0 0
398112.0 471662.0 0
403188.0 470425.0 0
406253.0 467426.0 0
407451.0 472181.0 0
410457.0 470316.0 0
414784.0 469665.0 0
419696.0 468387.0 0
419431.0 472878.0 0
424374.0 468488.0 0
422494.0 471407.0 0
426117.0 471955.0 0
430053.0 471640.0 0
433070.0 469185.0 0
434201.0 472691.0 0
440826.0 471041.0 0
437183.0 471334.0 0
444000.0 473075.0 0
447266.0 470878.0 0
40807.9 478046.0 0
43808.9 475056.0 0
46067.3 478154.0 0
48111.8 473682.0 0
50819.6 476706.0 0
53875.2 474475.0 0
57735.4 475239.0 0
62236.3 475845.0 0
67416.1 476600.0 0
68687.1 473113.0 0
72587.4 473246.0 0
75212.2 476165.0 0
79057.6 476460.0 0
86419.4 474876.0 0
83408.9 477912.0 0
89639.4 475893.0 0
92914.2 473245.0 0
97325.5 474103.0 0
101185.0 473351.0 0
101000.0 475815.0 0
104896.0 474966.0 0
109285.0 472678.0 0
109619.0 476240.0 0
113955.0 477382.0 0
118113.0 474048.0 0
121761.0 475582.0 0
126121.0 474830.0 0
130047.0 472135.0 0
130891.0 475963.0 0
133810.0 472457.0 0
135018.0 476761.0 0
137830.0 473849.0 0
138432.0 477004.0 0
141626.0 476754.0 0
145145.0 474006.0 0
148575.0 475769.0 0
153193.0 472409.0 0
152168.0 476647.0 0
157023.0 475720.0 0
162063.0 476591.0 0
166123.0 473833.0 0
169570.0 475844.0 0
173688.0 476293.0 0
178051.0 474078.0 0
184001.0 474932.0 0
190386.0 473781.0 0
196225.0 474436.0 0
203544.0 473708.0 0
207545.0 475402.0 0
211663.0 473303.0 0
218503.0 473446.0 0
224034.0 472632.0 0
228204.0 474776.0 0
233801.0 473741.0 0
239561.0 473434.0 0
245289.0 472091.0 0
251582.0 472988.0 0
256860.0 474521.0 0
261431.0 472558.0 0
269548.0 471346.0 0
265895.0 475520.0 0
271772.0 475510.0 0
275231.0 473120.0 0
280400.0 475520.0 0
285511.0 473791.0 0
289286.0 471383.0 0
289999.0 476158.0 0
293909.0 474114.0 0
299154.0 472474.0 0
304929.0 471164.0 0
303943.0 475662.0 0
309294.0 474503.0 0
314665.0 473765.0 0
319375.0 475699.0 0
323441.0 473840.0 0
327932.0 474135.0 0
332667.0 474378.0 0
336944.0 475307.0 0
338379.0 472053.0 0
341137.0 474839.0 0
345261.0 474534.0 0
350560.0 476391.0 0
355550.0 473863.0 0
359192.0 476420.0 0
361968.0 474304.0 0
364358.0 476541.0 0
368398.0 475754.0 0
372811.0 474837.0 0
380541.0 472663.0 0
376602.0 473251.0 0
381149.0 477284.0 0
385197.0 475359.0 0
389402.0 472898.0 0
392372.0 476113.0 0
393479.0 473392.0 0
395957.0 476026.0 0
399543.0 477650.0 0
403111.0 474615.0 0
407715.0 476350.0 0
411211.0 477938.0 0
412059.0 473952.0 0
416206.0 473533.0 0
415282.0 475453.0 0
418199.0 476680.0 0
423164.0 473489.0 0
421915.0 476245.0 0
425506.0 475677.0 0
428259.0 474495.0 0
431894.0 475538.0 0
435828.0 476993.0 0
438115.0 474606.0 0
441346.0 475091.0 0
442910.0 478497.0 0
445488.0 476348.0 0
447658.0 474496.0 0
449434.0 476453.0 0
451816.0 473548.0 0
456044.0 475397.0 0
453951.0 478331.0 0
459213.0 476372.0 0
36537.5 478832.0 0
33964.7 481979.0 0
38372.9 481867.0 0
43453.2 481360.0 0
47093.1 482026.0 0
50079.5 480678.0 0
54550.7 478431.0 0
53840.1 483096.0 0
58684.0 479804.0 0
63354.8 479939.0 0
67506.9 481131.0 0
71487.9 478286.0 0
75624.0 480135.0 0
80067.8 479932.0 0
83253.7 482375.0 0
87388.7 479140.0 0
93230.4 477756.0 0
90419.2 481544.0 0
98562.3 478151.0 0
96704.4 480129.0 0
99126.3 482384.0 0
102004.0 479023.0 0
102767.0 482619.0 0
106422.0 479602.0 0
110480.0 480207.0 0
118399.0 479055.0 0
123078.0 479606.0 0
127968.0 479869.0 0
132936.0 480601.0 0
138070.0 480822.0 0
143598.0 481616.0 0
145444.0 477633.0 0
148815.0 480161.0 0
154202.0 481036.0 0
159137.0 479863.0 0
162708.0 481182.0 0
166300.0 478505.0 0
171257.0 479845.0 0
176346.0 479091.0 0
180278.0 478100.0 0
183273.0 480427.0 0
179623.0 481369.0 0
187753.0 478784.0 0
192038.0 478725.0 0
196263.0 480004.0 0
200205.0 477406.0 0
204444.0 479497.0 0
200438.0 481366.0 0
209901.0 479057.0 0
214644.0 477148.0 0
214185.0 480248.0 0
219082.0 479431.0 0
223494.0 477240.0 0
227670.0 479773.0 0
232351.0 479237.0 0
237091.0 477971.0 0
239327.0 480693.0 0
241780.0 478127.0 0
246172.0 477360.0 0
250588.0 478770.0 0
255194.0 478509.0 0
260688.0 478769.0 0
269586.0 479266.0 0
275294.0 479183.0 0
285546.0 479019.0 0
290462.0 480852.0 0
295387.0 478991.0 0
300255.0 477729.0 0
304038.0 480328.0 0
309734.0 480763.0 0
315391.0 479035.0 0
324864.0 478405.0 0
320456.0 480828.0 0
329991.0 478572.0 0
334763.0 478740.0 0
339720.0 478827.0 0
344927.0 479224.0 0
349271.0 481288.0 0
355204.0 477884.0 0
353403.0 481659.0 0
358342.0 481460.0 0
362374.0 479473.0 0
366956.0 480527.0 0
372090.0 479368.0 0
376098.0 481828.0 0
376896.0 477532.0 0
380393.0 482032.0 0
384706.0 479978.0 0
389425.0 478029.0 0
387968.0 482048.0 0
391593.0 481805.0 0
394501.0 479395.0 0
397784.0 480985.0 0
400977.0 480997.0 0
404239.0 478946.0 0
408683.0 480838.0 0
414717.0 478247.0 0
412774.0 481522.0 0
417654.0 481470.0 0
420889.0 479404.0 0
425078.0 480059.0 0
428863.0 477997.0 0
429911.0 482141.0 0
433208.0 479783.0 0
439371.0 478332.0 0
437305.0 480966.0 0
441462.0 482417.0 0
447302.0 478796.0 0
445431.0 480936.0 0
450801.0 479080.0 0
449584.0 482452.0 0
453085.0 482582.0 0
455735.0 481664.0 0
458260.0 479388.0 0
461713.0 478932.0 0
458661.0 483275.0 0
461978.0 482236.0 0
465293.0 480827.0 0
468376.0 483193.0 0
26173.3 486043.0 0
29799.0 484462.0 0
28019.9 488336.0 0
32570.6 486583.0 0
36369.7 485909.0 0
42082.1 483892.0 0
39574.5 485847.0 0
45615.0 484758.0 0
43201.7 487712.0 0
49553.2 485424.0 0
52683.5 487544.0 0
57560.0 483442.0 0
56635.2 486981.0 0
60270.7 483329.0 0
61811.9 487277.0 0
64215.1 483442.0 0
66995.9 485685.0 0
71196.3 483073.0 0
69938.9 487216.0 0
74955.4 484089.0 0
73036.8 487089.0 0
76760.9 487120.0 0
78861.5 483283.0 0
81116.7 486704.0 0
86998.9 483672.0 0
84523.1 486231.0 0
90406.0 485331.0 0
94317.2 483454.0 0
97209.1 486747.0 0
100739.0 485581.0 0
105885.0 483083.0 0
104683.0 486581.0 0
109325.0 484349.0 0
111804.0 487444.0 0
114060.0 482663.0 0
118425.0 483181.0 0
116181.0 487626.0 0
121326.0 482811.0 0
120645.0 485816.0 0
124977.0 484710.0 0
130073.0 483967.0 0
134422.0 485175.0 0
139811.0 485491.0 0
144963.0 486801.0 0
149225.0 484463.0 0
158535.0 484070.0 0
163040.0 485712.0 0
166942.0 482891.0 0
171263.0 484651.0 0
176211.0 483841.0 0
181600.0 485690.0 0
186766.0 483353.0 0
192142.0 484191.0 0
197700.0 484857.0 0
202560.0 484984.0 0
207270.0 483873.0 0
212371.0 484013.0 0
216499.0 482570.0 0
219379.0 484656.0 0
223568.0 482617.0 0
227622.0 483301.0 0
231664.0 484961.0 0
236320.0 482490.0 0
244935.0 481821.0 0
240665.0 483793.0 0
249606.0 483937.0 0
255578.0 483846.0 0
261207.0 484669.0 0
265510.0 482228.0 0
270785.0 484649.0 0
276411.0 484869.0 0
280626.0 481640.0 0
287099.0 484348.0 0
292045.0 485023.0 0
296622.0 484643.0 0
299550.0 481573.0 0
302280.0 484750.0 0
307098.0 486140.0 0
313760.0 482854.0 0
312230.0 486110.0 0
317308.0 484943.0 0
322505.0 485903.0 0
324101.0 482547.0 0
327434.0 482381.0 0
327510.0 487034.0 0
332363.0 483688.0 0
337142.0 482162.0 0
337265.0 485338.0 0
341686.0 483904.0 0
346490.0 483820.0 0
350598.0 485833.0 0
355606.0 486171.0 0
359462.0 485355.0 0
363352.0 483972.0 0
368643.0 485735.0 0
370148.0 482593.0 0
372965.0 483913.0 0
377080.0 485699.0 0
381437.0 486772.0 0
384936.0 484310.0 0
390006.0 486020.0 0
395084.0 484199.0 0
399481.0 483941.0 0
401745.0 487413.0 0
404679.0 483806.0 0
410272.0 485724.0 0
414948.0 484729.0 0
419029.0 486691.0 0
422187.0 483815.0 0
426839.0 484970.0 0
431551.0 486709.0 0
434520.0 483779.0 0
435578.0 488066.0 0
438278.0 485150.0 0
445842.0 484506.0 0
442681.0 486863.0 0
452614.0 485847.0 0
449577.0 486242.0 0
455776.0 485024.0 0
461562.0 485947.0 0
458431.0 487402.0 0
465128.0 484197.0 0
465510.0 488134.0 0
472133.0 485497.0 0
468546.0 486558.0 0
475660.0 487239.0 0
16560.1 492903.0 0
19426.9 490278.0 0
21204.7 493185.0 0
23261.9 488935.0 0
25710.3 492226.0 0
30364.8 490902.0 0
34626.9 489618.0 0
32558.4 493028.0 0
34975.5 492081.0 0
38865.1 490342.0 0
43834.3 492113.0 0
47359.5 489148.0 0
50517.5 489321.0 0
48495.1 493251.0 0
53692.5 492245.0 0
58747.0 490956.0 0
65158.8 488971.0 0
63147.8 492725.0 0
67527.4 489944.0 0
71147.4 490459.0 0
74423.9 490000.0 0
78453.1 491311.0 0
83590.4 490021.0 0
87873.7 488556.0 0
92822.9 488115.0 0
90897.3 491965.0 0
95692.7 490952.0 0
100482.0 489924.0 0
104893.0 490600.0 0
108589.0 488936.0 0
112051.0 491612.0 0
116487.0 492644.0 0
121723.0 490465.0 0
125862.0 488747.0 0
129208.0 487563.0 0
132186.0 489390.0 0
136491.0 489646.0 0
141099.0 489900.0 0
146808.0 490597.0 0
149040.0 488140.0 0
153627.0 486898.0 0
150737.0 491918.0 0
158580.0 488601.0 0
155512.0 491550.0 0
162894.0 491431.0 0
167327.0 487178.0 0
168240.0 491658.0 0
170796.0 488487.0 0
174340.0 487695.0 0
172914.0 491875.0 0
178078.0 490805.0 0
183530.0 491674.0 0
186501.0 487699.0 0
187398.0 491033.0 0
190578.0 489494.0 0
195264.0 489228.0 0
200067.0 489180.0 0
204962.0 489480.0 0
210104.0 488647.0 0
216047.0 487434.0 0
218891.0 490450.0 0
221869.0 487825.0 0
226519.0 487084.0 0
230142.0 489861.0 0
237185.0 487810.0 0
244749.0 488050.0 0
240489.0 491098.0 0
251886.0 488601.0 0
256501.0 489182.0 0
260906.0 489378.0 0
265687.0 487591.0 0
270716.0 490558.0 0
275886.0 489734.0 0
281594.0 487072.0 0
283563.0 491307.0 0
286557.0 488867.0 0
290044.0 488281.0 0
294240.0 489731.0 0
299732.0 488958.0 0
304774.0 491244.0 0
310229.0 490793.0 0
315363.0 489889.0 0
319571.0 488969.0 0
323651.0 491336.0 0
332770.0 489438.0 0
337293.0 488502.0 0
341810.0 489636.0 0
346387.0 487734.0 0
349434.0 489910.0 0
352782.0 490010.0 0
357023.0 490938.0 0
361312.0 489000.0 0
365387.0 487593.0 0
365668.0 490887.0 0
369860.0 490824.0 0
373022.0 487923.0 0
374079.0 492108.0 0
376303.0 489369.0 0
377176.0 491824.0 0
379427.0 489921.0 0
382502.0 490657.0 0
385772.0 488817.0 0
390467.0 491471.0 0
393804.0 488194.0 0
395922.0 492060.0 0
397656.0 487918.0 0
401272.0 491964.0 0
406118.0 489222.0 0
410833.0 490866.0 0
415033.0 489128.0 0
420144.0 491522.0 0
424179.0 489029.0 0
428550.0 489240.0 0
427836.0 492380.0 0
432629.0 492229.0 0
436728.0 491813.0 0
439521.0 489102.0 0
440241.0 493040.0 0
446985.0 488722.0 0
443993.0 491683.0 0
450919.0 489421.0 0
448333.0 492488.0 0
452190.0 492974.0 0
454906.0 489131.0 0
455643.0 492868.0 0
458637.0 491122.0 0
461751.0 490066.0 0
465088.0 491736.0 0
467798.0 491203.0 0
471544.0 489641.0 0
470413.0 493522.0 0
475799.0 490477.0 0
474539.0 493958.0 0
479075.0 489392.0 0
478831.0 492858.0 0
482367.0 491494.0 0
485843.0 493926.0 0
9574.0 496838.0 0
12785.6 494872.0 0
14907.1 497499.0 0
19190.4 496430.0 0
24104.9 496509.0 0
28557.7 494587.0 0
28382.1 498212.0 0
31436.3 495610.0 0
35924.1 495057.0 0
40124.9 494508.0 0
38152.8 498530.0 0
44327.2 497531.0 0
50752.7 496928.0 0
55458.2 497225.0 0
58550.6 494223.0 0
60103.3 497355.0 0
64814.2 497005.0 0
68213.8 493576.0 0
69696.4 497886.0 0
73477.2 494227.0 0
82237.0 494488.0 0
77781.9 496374.0 0
86647.6 493254.0 0
85266.4 497492.0 0
89345.1 496469.0 0
93808.8 494874.0 0
98568.6 494174.0 0
102837.0 493879.0 0
107583.0 493628.0 0
111025.0 496834.0 0
115465.0 496891.0 0
119684.0 494848.0 0
123460.0 495408.0 0
127983.0 492678.0 0
130673.0 496292.0 0
133330.0 493220.0 0
138427.0 494414.0 0
134300.0 497318.0 0
143714.0 493200.0 0
147392.0 493883.0 0
149441.0 496610.0 0
153895.0 496221.0 0
158632.0 494675.0 0
166277.0 495776.0 0
170509.0 495691.0 0
175407.0 496190.0 0
180133.0 495381.0 0
183864.0 496356.0 0
188262.0 494898.0 0
192652.0 493197.0 0
197538.0 494492.0 0
203352.0 494499.0 0
208333.0 493557.0 0
214291.0 493063.0 0
219928.0 494458.0 0
224417.0 492026.0 0
229061.0 494355.0 0
233979.0 492551.0 0
238779.0 495141.0 0
244356.0 494521.0 0
248841.0 492290.0 0
253679.0 492943.0 0
250807.0 496266.0 0
258358.0 493431.0 0
264869.0 494494.0 0
274440.0 494045.0 0
270716.0 495394.0 0
279370.0 493516.0 0
284369.0 495876.0 0
289511.0 493334.0 0
295328.0 495529.0 0
300113.0 493969.0 0
303865.0 495855.0 0
308600.0 496112.0 0
313920.0 494933.0 0
318715.0 493119.0 0
321852.0 496484.0 0
328912.0 492651.0 0
326217.0 496252.0 0
332736.0 494026.0 0
337195.0 493653.0 0
342409.0 494617.0 0
346472.0 492417.0 0
350287.0 494540.0 0
353985.0 493664.0 0
357896.0 495445.0 0
362579.0 493938.0 0
365211.0 497116.0 0
367343.0 494472.0 0
371680.0 495277.0 0
375882.0 496463.0 0
376446.0 493540.0 0
380462.0 494450.0 0
385346.0 493291.0 0
388775.0 496296.0 0
393276.0 495536.0 0
398035.0 497360.0 0
403177.0 496137.0 0
407022.0 493769.0 0
409934.0 497108.0 0
410998.0 494101.0 0
412341.0 496051.0 0
415625.0 494448.0 0
420980.0 496575.0 0
425014.0 494361.0 0
429557.0 495508.0 0
427449.0 497728.0 0
433415.0 496762.0 0
437476.0 496235.0 0
442372.0 496182.0 0
446102.0 495073.0 0
449956.0 496688.0 0
454583.0 496278.0 0
458364.0 494908.0 0
462680.0 493974.0 0
461267.0 497427.0 0
466879.0 494247.0 0
465782.0 498297.0 0
470498.0 497571.0 0
474668.0 498050.0 0
478283.0 496523.0 0
482266.0 495465.0 0
485721.0 498348.0 0
489514.0 496945.0 0
493393.0 499004.0 0
6109.87 499282.0 0
2122.8 500022.0 0
7254.73 502741.0 0
11051.3 500270.0 0
14246.7 500828.0 0
10957.0 504623.0 0
17439.5 500017.0 0
21282.8 500053.0 0
15494.1 503335.0 0
19057.5 502728.0 0
25058.6 501112.0 0
29907.6 502565.0 0
33109.7 498801.0 0
35184.6 502225.0 0
39522.4 501710.0 0
48848.3 501356.0 0
53147.8 500287.0 0
57426.8 502307.0 0
62115.5 500606.0 0
66239.6 501258.0 0
70560.0 502543.0 0
74136.1 499456.0 0
81420.0 498535.0 0
78291.6 500703.0 0
83490.9 500901.0 0
87481.9 500430.0 0
92156.8 498565.0 0
90512.7 500618.0 0
96416.8 498195.0 0
93443.1 501867.0 0
101603.0 497972.0 0
106349.0 498086.0 0
104092.0 502329.0 0
109276.0 501596.0 0
113042.0 500075.0 0
116548.0 501036.0 0
119673.0 498154.0 0
120830.0 502128.0 0
123278.0 499049.0 0
125275.0 502212.0 0
127161.0 498086.0 0
130739.0 499452.0 0
134169.0 501820.0 0
138120.0 499522.0 0
141923.0 497723.0 0
141548.0 501840.0 0
145781.0 497032.0 0
145850.0 501248.0 0
151102.0 500999.0 0
157889.0 500729.0 0
162270.0 496975.0 0
165518.0 500653.0 0
170988.0 500244.0 0
176418.0 501591.0 0
181222.0 499528.0 0
186352.0 499943.0 0
192595.0 497468.0 0
196664.0 500362.0 0
201101.0 498571.0 0
204957.0 500352.0 0
209257.0 498540.0 0
214541.0 499226.0 0
219417.0 498893.0 0
223858.0 497383.0 0
228205.0 498944.0 0
233004.0 497960.0 0
237287.0 499622.0 0
241870.0 499728.0 0
247062.0 499179.0 0
251194.0 500244.0 0
255773.0 498477.0 0
260815.0 498901.0 0
264936.0 501727.0 0
270700.0 500010.0 0
275450.0 498341.0 0
280194.0 498984.0 0
285038.0 500973.0 0
290754.0 499823.0 0
300276.0 498885.0 0
295971.0 500473.0 0
305238.0 499834.0 0
310112.0 501105.0 0
314725.0 499996.0 0
317783.0 497074.0 0
319974.0 501649.0 0
326899.0 502005.0 0
330783.0 497234.0 0
335141.0 498260.0 0
332450.0 501284.0 0
340192.0 498994.0 0
346312.0 497632.0 0
349940.0 501982.0 0
353524.0 497957.0 0
357573.0 499642.0 0
361776.0 498659.0 0
365172.0 501957.0 0
368740.0 498766.0 0
374038.0 501012.0 0
379455.0 499760.0 0
384246.0 498051.0 0
384035.0 501845.0 0
388962.0 501872.0 0
392082.0 498354.0 0
394368.0 500897.0 0
402838.0 501295.0 0
406578.0 498630.0 0
410096.0 502068.0 0
413876.0 499015.0 0
415241.0 502885.0 0
418025.0 499742.0 0
422380.0 501066.0 0
424662.0 498292.0 0
427239.0 501761.0 0
431130.0 499287.0 0
436019.0 500511.0 0
440967.0 500037.0 0
445443.0 498852.0 0
449283.0 501001.0 0
457811.0 498789.0 0
453732.0 500380.0 0
461996.0 501043.0 0
458031.0 502769.0 0
466584.0 503448.0 0
470135.0 501782.0 0
477489.0 500475.0 0
473987.0 501978.0 0
481342.0 500072.0 0
482245.0 504148.0 0
485130.0 501803.0 0
489407.0 502249.0 0
493219.0 502557.0 0
497097.0 500001.0 0
497075.0 503074.0 0
2685.45 503334.0 0
1722.89 506765.0 0
6005.13 506510.0 0
10197.7 508994.0 0
5791.93 510192.0 0
14643.5 506697.0 0
18742.5 505550.0 0
21792.1 503836.0 0
21691.5 507137.0 0
25240.0 505186.0 0
29068.1 506863.0 0
33046.4 505926.0 0
35003.4 508601.0 0
37751.5 505502.0 0
40926.4 507897.0 0
43442.8 503956.0 0
44649.9 508582.0 0
48184.7 506065.0 0
50950.8 507678.0 0
52303.4 504159.0 0
54896.0 507208.0 0
58955.1 507148.0 0
62594.5 504727.0 0
67007.8 505035.0 0
70356.8 507063.0 0
74931.2 504434.0 0
77902.1 507760.0 0
80375.4 504340.0 0
85180.7 504788.0 0
89832.5 503942.0 0
93665.1 506612.0 0
98414.5 502885.0 0
101761.0 505375.0 0
104396.0 507609.0 0
106790.0 504656.0 0
109601.0 506971.0 0
113217.0 503993.0 0
117538.0 505462.0 0
122480.0 506378.0 0
126406.0 505922.0 0
129669.0 503358.0 0
133497.0 506208.0 0
138028.0 503956.0 0
142567.0 507090.0 0
148126.0 505293.0 0
153765.0 506384.0 0
158755.0 505872.0 0
162114.0 504129.0 0
166584.0 506364.0 0
172140.0 505548.0 0
176822.0 506604.0 0
181299.0 504450.0 0
186053.0 504468.0 0
191294.0 503203.0 0
196352.0 504867.0 0
201101.0 503501.0 0
205822.0 504427.0 0
209282.0 502908.0 0
213060.0 503839.0 0
217939.0 503298.0 0
223824.0 503320.0 0
229677.0 503265.0 0
234044.0 502545.0 0
238438.0 504128.0 0
243711.0 504452.0 0
249043.0 504432.0 0
254771.0 504241.0 0
259361.0 502662.0 0
261896.0 505768.0 0
269118.0 504174.0 0
275170.0 502979.0 0
280733.0 504963.0 0
286234.0 505298.0 0
290561.0 505518.0 0
296272.0 504910.0 0
302360.0 504152.0 0
306760.0 503308.0 0
307712.0 506049.0 0
315572.0 504205.0 0
311516.0 505884.0 0
318348.0 505859.0 0
322825.0 505925.0 0
333212.0 505166.0 0
336369.0 502399.0 0
336986.0 506517.0 0
339967.0 503504.0 0
344349.0 502762.0 0
341696.0 507459.0 0
352719.0 506180.0 0
355195.0 502751.0 0
360260.0 503392.0 0
357057.0 507295.0 0
363782.0 504843.0 0
366786.0 506406.0 0
369463.0 503181.0 0
377278.0 505484.0 0
381264.0 503710.0 0
385237.0 505612.0 0
389829.0 507492.0 0
393504.0 504958.0 0
396535.0 506448.0 0
398345.0 503437.0 0
402492.0 506040.0 0
406040.0 504302.0 0
409193.0 506072.0 0
412901.0 506175.0 0
416565.0 506656.0 0
419392.0 503866.0 0
423885.0 505594.0 0
432271.0 503462.0 0
429001.0 506696.0 0
436200.0 504604.0 0
434265.0 508069.0 0
439814.0 503763.0 0
438044.0 506943.0 0
441881.0 507636.0 0
445367.0 503978.0 0
451010.0 504406.0 0
454761.0 504387.0 0
453760.0 507479.0 0
457716.0 506700.0 0
461922.0 505412.0 0
466487.0 508581.0 0
472192.0 506651.0 0
478103.0 504548.0 0
482505.0 508293.0 0
485992.0 505336.0 0
492938.0 505688.0 0
497191.0 507063.0 0
2072.74 509768.0 0
8323.03 512688.0 0
14286.9 510233.0 0
12245.1 513243.0 0
18183.7 508818.0 0
17281.1 513540.0 0
21224.8 510637.0 0
25492.3 509761.0 0
31153.9 510336.0 0
36004.4 512585.0 0
38056.7 509191.0 0
40869.3 511550.0 0
44830.4 512489.0 0
48344.2 509961.0 0
52313.5 511353.0 0
57239.3 510937.0 0
61504.5 511703.0 0
61797.3 508651.0 0
65542.9 509144.0 0
69601.1 511782.0 0
74033.2 509378.0 0
77727.9 511730.0 0
82167.9 509367.0 0
88337.8 509790.0 0
94049.2 511355.0 0
98615.6 508661.0 0
102028.0 512532.0 0
107125.0 511559.0 0
111163.0 510798.0 0
114068.0 508301.0 0
119068.0 509901.0 0
125490.0 509329.0 0
123320.0 512018.0 0
129481.0 508441.0 0
133522.0 510970.0 0
137160.0 507984.0 0
144669.0 512523.0 0
149079.0 510345.0 0
157490.0 510151.0 0
161628.0 508393.0 0
165004.0 511490.0 0
169910.0 510656.0 0
174759.0 510856.0 0
180159.0 510087.0 0
184240.0 507927.0 0
189000.0 509641.0 0
194069.0 508015.0 0
198999.0 508983.0 0
203425.0 507182.0 0
204545.0 511945.0 0
209674.0 507931.0 0
215479.0 507858.0 0
218887.0 511770.0 0
220119.0 507262.0 0
223362.0 509876.0 0
227585.0 507846.0 0
233359.0 507629.0 0
237403.0 511154.0 0
241214.0 508521.0 0
246659.0 510286.0 0
252645.0 509305.0 0
257459.0 508190.0 0
261843.0 510983.0 0
266175.0 507286.0 0
271526.0 507831.0 0
276475.0 508820.0 0
281515.0 511838.0 0
287703.0 509984.0 0
293737.0 509888.0 0
299669.0 509265.0 0
305539.0 509599.0 0
310815.0 510863.0 0
315660.0 508812.0 0
320062.0 508533.0 0
324214.0 510211.0 0
329583.0 507263.0 0
329163.0 512164.0 0
333709.0 509548.0 0
344228.0 511782.0 0
347791.0 507771.0 0
353165.0 511320.0 0
358644.0 511870.0 0
362382.0 508485.0 0
367408.0 511247.0 0
372113.0 507616.0 0
377320.0 511273.0 0
381487.0 508065.0 0
382157.0 512026.0 0
385806.0 510146.0 0
394787.0 509921.0 0
399354.0 508055.0 0
399201.0 512152.0 0
402785.0 510408.0 0
406210.0 508122.0 0
406993.0 512344.0 0
410735.0 509675.0 0
415727.0 511037.0 0
420195.0 508406.0 0
420147.0 512720.0 0
422850.0 510681.0 0
425549.0 509664.0 0
430216.0 512160.0 0
435481.0 512180.0 0
438652.0 510379.0 0
443618.0 512380.0 0
446018.0 508683.0 0
448520.0 511529.0 0
449603.0 507749.0 0
451553.0 513965.0 0
452510.0 510509.0 0
456569.0 510024.0 0
455345.0 513047.0 0
461155.0 509942.0 0
459374.0 513936.0 0
464909.0 514153.0 0
469869.0 512125.0 0
473539.0 511130.0 0
477709.0 509177.0 0
476293.0 512968.0 0
485080.0 511619.0 0
489280.0 508530.0 0
493930.0 508888.0 0
493614.0 512279.0 0
497420.0 510979.0 0
3466.41 514467.0 0
9545.15 516647.0 0
6505.41 518397.0 0
13821.6 517148.0 0
18254.4 518634.0 0
22817.4 514986.0 0
27639.9 513693.0 0
27449.2 518582.0 0
31735.0 515254.0 0
35664.2 516741.0 0
39888.7 515803.0 0
44602.3 516707.0 0
48540.8 513824.0 0
51630.6 515713.0 0
48694.1 517232.0 0
55008.9 514630.0 0
58841.3 514744.0 0
61681.9 516554.0 0
65103.5 513985.0 0
68983.6 516266.0 0
73587.7 513534.0 0
73208.8 517667.0 0
76704.6 515378.0 0
81736.5 515016.0 0
86952.9 514902.0 0
91135.0 514355.0 0
94712.1 515823.0 0
97348.2 513241.0 0
99400.4 517770.0 0
105174.0 516384.0 0
109824.0 515198.0 0
114776.0 513432.0 0
119822.0 514244.0 0
123378.0 516639.0 0
128237.0 513742.0 0
134117.0 515420.0 0
138939.0 512927.0 0
153635.0 512239.0 0
149768.0 516178.0 0
156866.0 516860.0 0
160648.0 512715.0 0
162809.0 516437.0 0
167901.0 515366.0 0
173176.0 515787.0 0
179059.0 515906.0 0
184417.0 513446.0 0
193974.0 512624.0 0
189206.0 515635.0 0
198861.0 515230.0 0
203640.0 517166.0 0
208401.0 516534.0 0
213277.0 513215.0 0
223229.0 514714.0 0
228649.0 513279.0 0
233597.0 512900.0 0
237309.0 515004.0 0
241618.0 513790.0 0
246698.0 516674.0 0
252064.0 514768.0 0
256618.0 512636.0 0
263168.0 516484.0 0
268103.0 513030.0 0
273644.0 512207.0 0
272791.0 516622.0 0
276973.0 515028.0 0
286247.0 514662.0 0
291203.0 515365.0 0
297606.0 515140.0 0
302491.0 513281.0 0
302872.0 517094.0 0
306367.0 514767.0 0
310811.0 515710.0 0
314420.0 512776.0 0
315885.0 516915.0 0
319313.0 512720.0 0
324289.0 516165.0 0
333615.0 514051.0 0
338640.0 512723.0 0
343366.0 516187.0 0
348348.0 513660.0 0
352047.0 516656.0 0
356595.0 515774.0 0
360583.0 516537.0 0
363071.0 513399.0 0
372096.0 513081.0 0
375623.0 517171.0 0
380629.0 515957.0 0
385639.0 515324.0 0
390363.0 512813.0 0
395721.0 516298.0 0
400593.0 515246.0 0
402919.0 517372.0 0
403615.0 514139.0 0
407216.0 516813.0 0
411599.0 514187.0 0
416840.0 517247.0 0
421424.0 516138.0 0
424731.0 514038.0 0
428204.0 517351.0 0
434292.0 516720.0 0
439137.0 514848.0 0
443149.0 517292.0 0
447618.0 515982.0 0
451475.0 517605.0 0
454651.0 516271.0 0
457870.0 517680.0 0
461814.0 517518.0 0
469297.0 516638.0 0
472997.0 514580.0 0
473378.0 518286.0 0
477065.0 516558.0 0
480849.0 513349.0 0
480768.0 518669.0 0
484892.0 516177.0 0
489371.0 513899.0 0
489657.0 518180.0 0
493533.0 516017.0 0
497617.0 514917.0 0
3110.26 520118.0 0
8838.15 521280.0 0
13806.2 522269.0 0
19963.9 522829.0 0
22745.5 519596.0 0
24608.7 522960.0 0
29519.4 523155.0 0
32606.0 519475.0 0
34094.3 523302.0 0
37850.8 520216.0 0
42805.6 520490.0 0
47203.7 520552.0 0
51642.7 519565.0 0
54273.1 522242.0 0
56496.8 518714.0 0
58397.2 523209.0 0
60558.7 519803.0 0
64862.4 519077.0 0
69353.4 520711.0 0
73766.3 522836.0 0
77539.0 518905.0 0
78274.1 522726.0 0
81394.2 520265.0 0
84146.5 521924.0 0
85426.8 518676.0 0
88504.5 521838.0 0
89690.1 517853.0 0
93769.5 520723.0 0
103832.0 520968.0 0
112827.0 518457.0 0
108445.0 519603.0 0
111855.0 522897.0 0
117775.0 518639.0 0
122153.0 521967.0 0
127367.0 519676.0 0
131087.0 517547.0 0
134441.0 520105.0 0
138077.0 517923.0 0
143313.0 518113.0 0
138996.0 522129.0 0
147756.0 521116.0 0
152494.0 521643.0 0
157460.0 522437.0 0
161569.0 520907.0 0
165728.0 519506.0 0
170108.0 520054.0 0
175538.0 521148.0 0
183834.0 517729.0 0
181240.0 521212.0 0
187194.0 520231.0 0
193846.0 518273.0 0
197455.0 521114.0 0
202368.0 522045.0 0
207504.0 521248.0 0
212723.0 519534.0 0
218036.0 517510.0 0
223551.0 520294.0 0
228757.0 518700.0 0
233834.0 517667.0 0
235993.0 521249.0 0
239929.0 519273.0 0
244422.0 521937.0 0
248877.0 521457.0 0
253209.0 519699.0 0
257946.0 517519.0 0
260727.0 520494.0 0
264718.0 522119.0 0
268582.0 518709.0 0
277043.0 520573.0 0
282791.0 518030.0 0
287979.0 520020.0 0
294442.0 520223.0 0
300071.0 520476.0 0
304734.0 520447.0 0
307769.0 518571.0 0
311963.0 519848.0 0
319961.0 519731.0 0
323696.0 522134.0 0
327262.0 520381.0 0
330494.0 517575.0 0
335385.0 519144.0 0
339523.0 518085.0 0
339340.0 522492.0 0
343598.0 520903.0 0
347604.0 518365.0 0
351172.0 520788.0 0
355574.0 520504.0 0
361164.0 521363.0 0
364881.0 517585.0 0
369885.0 517811.0 0
373472.0 522587.0 0
377477.0 520853.0 0
380901.0 520558.0 0
386057.0 520801.0 0
390308.0 517903.0 0
390718.0 521834.0 0
395626.0 522857.0 0
400020.0 519744.0 0
404911.0 520952.0 0
408906.0 520967.0 0
411654.0 518689.0 0
413721.0 522752.0 0
419254.0 522720.0 0
423700.0 519674.0 0
430992.0 519465.0 0
428422.0 522643.0 0
434024.0 522061.0 0
439102.0 520065.0 0
443096.0 520466.0 0
446486.0 520372.0 0
450746.0 520678.0 0
454629.0 519903.0 0
453926.0 523747.0 0
459916.0 522790.0 0
465552.0 519684.0 0
470648.0 521865.0 0
476535.0 520737.0 0
479876.0 522989.0 0
485498.0 521533.0 0
492977.0 518639.0 0
491927.0 522392.0 0
496869.0 519383.0 0
2144.01 524222.0 0
2122.57 527501.0 0
5983.03 524055.0 0
9429.1 524899.0 0
6739.93 528307.0 0
17412.6 525891.0 0
21750.7 526551.0 0
26582.2 526919.0 0
32073.8 527904.0 0
40695.1 523815.0 0
37110.5 526145.0 0
41759.5 528368.0 0
45099.4 524455.0 0
50129.7 524296.0 0
54517.7 526018.0 0
62303.9 522615.0 0
58171.3 527061.0 0
65938.4 523768.0 0
62344.2 526770.0 0
67207.3 528067.0 0
69789.9 524932.0 0
71852.3 528007.0 0
76689.2 527263.0 0
81656.8 524870.0 0
85354.4 524025.0 0
87214.9 524995.0 0
90066.6 525699.0 0
94287.4 526299.0 0
99058.5 523836.0 0
103552.0 525013.0 0
107307.0 523848.0 0
105748.0 528016.0 0
109354.0 526720.0 0
112914.0 527150.0 0
116809.0 524090.0 0
121361.0 527564.0 0
126481.0 524693.0 0
130730.0 523240.0 0
130114.0 527538.0 0
135009.0 525277.0 0
139337.0 526594.0 0
144040.0 524648.0 0
149580.0 526658.0 0
155044.0 526752.0 0
160889.0 526418.0 0
165179.0 523370.0 0
165780.0 527227.0 0
169367.0 524886.0 0
174433.0 527438.0 0
182173.0 525261.0 0
179336.0 527005.0 0
187022.0 525803.0 0
193327.0 524230.0 0
198554.0 525611.0 0
206396.0 525171.0 0
210932.0 524343.0 0
216465.0 523534.0 0
221579.0 525330.0 0
227145.0 525037.0 0
231818.0 522420.0 0
235548.0 524552.0 0
240455.0 524905.0 0
246206.0 526976.0 0
252170.0 524928.0 0
257300.0 523014.0 0
261218.0 524689.0 0
270518.0 523438.0 0
275022.0 525943.0 0
279439.0 525649.0 0
282009.0 522639.0 0
282901.0 527094.0 0
285678.0 524390.0 0
291096.0 524975.0 0
297319.0 525301.0 0
302945.0 524110.0 0
310125.0 524583.0 0
315982.0 522862.0 0
320697.0 525933.0 0
328153.0 524573.0 0
334174.0 524905.0 0
343738.0 525237.0 0
347769.0 523422.0 0
352859.0 525115.0 0
357642.0 525120.0 0
363032.0 525862.0 0
367273.0 523170.0 0
376053.0 526878.0 0
378465.0 524043.0 0
382767.0 524821.0 0
387547.0 525743.0 0
391473.0 525174.0 0
401546.0 524474.0 0
408236.0 525855.0 0
413276.0 526948.0 0
416475.0 525950.0 0
420205.0 527471.0 0
423780.0 524869.0 0
427431.0 527183.0 0
432609.0 527423.0 0
437835.0 525019.0 0
442996.0 524475.0 0
446110.0 528118.0 0
449011.0 524962.0 0
455950.0 528105.0 0
461115.0 528368.0 0
465782.0 524761.0 0
471119.0 527525.0 0
475554.0 524328.0 0
478892.0 526354.0 0
476477.0 528155.0 0
483302.0 526895.0 0
488457.0 525547.0 0
493018.0 527522.0 0
497182.0 524443.0 0
498385.0 528190.0 0
2613.8 531285.0 0
9253.91 531485.0 0
6588.52 532591.0 0
12731.4 528341.0 0
18684.2 529515.0 0
15920.7 531992.0 0
19506.9 533499.0 0
23378.3 531091.0 0
28295.8 530895.0 0
36753.2 530585.0 0
40901.5 532846.0 0
44861.1 531408.0 0
47224.8 528385.0 0
51235.7 528800.0 0
49263.1 533066.0 0
55196.7 530365.0 0
59527.0 530170.0 0
63690.9 532343.0 0
69427.1 532495.0 0
74674.2 532187.0 0
80774.5 529372.0 0
85594.8 528507.0 0
90592.0 530012.0 0
94686.3 530555.0 0
101580.0 528348.0 0
97867.0 528728.0 0
103758.0 532249.0 0
109001.0 530011.0 0
113089.0 532287.0 0
116768.0 528932.0 0
126103.0 528881.0 0
123536.0 531421.0 0
129012.0 532076.0 0
134125.0 530676.0 0
139670.0 531031.0 0
145131.0 530589.0 0
149864.0 530638.0 0
157908.0 530678.0 0
153521.0 531667.0 0
164008.0 531215.0 0
169148.0 530053.0 0
178764.0 530911.0 0
182491.0 528977.0 0
186226.0 531779.0 0
191235.0 529775.0 0
196488.0 529954.0 0
202329.0 529444.0 0
208533.0 529659.0 0
213895.0 528414.0 0
219172.0 530406.0 0
224150.0 528980.0 0
227924.0 531285.0 0
232178.0 528013.0 0
237049.0 528102.0 0
236559.0 532061.0 0
241359.0 530527.0 0
250669.0 529323.0 0
256401.0 529403.0 0
262573.0 528552.0 0
267597.0 527889.0 0
272452.0 530813.0 0
277910.0 529827.0 0
282173.0 530189.0 0
286937.0 529730.0 0
292451.0 530242.0 0
297685.0 530118.0 0
301405.0 528567.0 0
305710.0 527545.0 0
304738.0 531450.0 0
311197.0 529332.0 0
315966.0 528903.0 0
320669.0 530335.0 0
325145.0 529186.0 0
330188.0 528966.0 0
334661.0 531324.0 0
339813.0 528337.0 0
344782.0 529335.0 0
342726.0 532502.0 0
348885.0 528287.0 0
353742.0 530209.0 0
359934.0 530505.0 0
366378.0 528970.0 0
371622.0 527932.0 0
376188.0 531361.0 0
379779.0 528129.0 0
384286.0 529362.0 0
388677.0 529558.0 0
390867.0 532464.0 0
392737.0 528829.0 0
395147.0 532677.0 0
397680.0 528538.0 0
403274.0 529535.0 0
407511.0 531077.0 0
411627.0 530656.0 0
416272.0 529913.0 0
424195.0 530059.0 0
428851.0 531411.0 0
434447.0 532639.0 0
437875.0 529370.0 0
442705.0 530088.0 0
447779.0 531485.0 0
451330.0 528930.0 0
452902.0 533205.0 0
458475.0 532585.0 0
462352.0 531655.0 0
465641.0 529516.0 0
469554.0 532695.0 0
474743.0 532060.0 0
479820.0 531136.0 0
484467.0 531405.0 0
488273.0 529339.0 0
488194.0 533542.0 0
491806.0 531630.0 0
496436.0 531482.0 0
3531.37 536487.0 0
9099.43 537342.0 0
12095.2 534014.0 0
16400.0 535642.0 0
22903.6 536420.0 0
26722.5 534378.0 0
27843.5 538438.0 0
32136.2 534239.0 0
35811.3 538487.0 0
37266.7 534617.0 0
40360.4 537129.0 0
44528.0 535254.0 0
47765.5 537755.0 0
53997.3 534422.0 0
51767.7 537625.0 0
58154.5 534023.0 0
61037.1 536970.0 0
66510.2 536666.0 0
71137.4 537137.0 0
75546.6 536925.0 0
80443.8 534488.0 0
86884.3 534207.0 0
92421.9 534280.0 0
98192.5 533763.0 0
102210.0 535653.0 0
107775.0 533376.0 0
105611.0 537141.0 0
109959.0 536154.0 0
114455.0 537710.0 0
119350.0 533796.0 0
125131.0 534994.0 0
131742.0 533461.0 0
130957.0 536125.0 0
136914.0 534984.0 0
142250.0 536113.0 0
149150.0 534727.0 0
154995.0 535559.0 0
159326.0 534888.0 0
167797.0 534726.0 0
163643.0 535679.0 0
171590.0 536832.0 0
174586.0 533360.0 0
179142.0 535451.0 0
183236.0 535106.0 0
192911.0 534729.0 0
197861.0 534711.0 0
203325.0 535925.0 0
209252.0 535213.0 0
214453.0 533987.0 0
219213.0 535675.0 0
224197.0 535092.0 0
228704.0 535400.0 0
232300.0 533441.0 0
240927.0 534599.0 0
246190.0 533735.0 0
251956.0 534148.0 0
256932.0 535062.0 0
260850.0 533115.0 0
265995.0 533065.0 0
272860.0 535661.0 0
276365.0 534430.0 0
280460.0 533486.0 0
284972.0 535243.0 0
289969.0 534382.0 0
295253.0 534637.0 0
300715.0 533432.0 0
305226.0 535479.0 0
308772.0 532604.0 0
313441.0 533736.0 0
318486.0 534244.0 0
323490.0 534106.0 0
326908.0 532980.0 0
330119.0 533088.0 0
329719.0 536863.0 0
334598.0 537221.0 0
339011.0 534213.0 0
345551.0 535121.0 0
342185.0 537038.0 0
349750.0 533185.0 0
355309.0 534567.0 0
359685.0 536689.0 0
365375.0 533917.0 0
370364.0 532913.0 0
375513.0 536930.0 0
381752.0 534713.0 0
386998.0 532816.0 0
387305.0 536968.0 0
392318.0 536722.0 0
397081.0 536545.0 0
399954.0 533344.0 0
402196.0 537189.0 0
404801.0 534120.0 0
409444.0 534753.0 0
414951.0 535218.0 0
420143.0 533042.0 0
420278.0 537643.0 0
425086.0 535452.0 0
430609.0 535824.0 0
435784.0 537315.0 0
439399.0 533928.0 0
441721.0 538019.0 0
444370.0 534532.0 0
448380.0 535993.0 0
456231.0 536620.0 0
460654.0 537220.0 0
464956.0 534444.0 0
468720.0 536712.0 0
472641.0 536440.0 0
477983.0 536274.0 0
483306.0 535599.0 0
487742.0 537441.0 0
492974.0 536098.0 0
497994.0 535312.0 0
1361.25 540079.0 0
2679.66 543267.0 0
6632.44 540841.0 0
13601.5 538580.0 0
11088.5 542547.0 0
18765.8 539680.0 0
23585.3 540860.0 0
27007.1 542939.0 0
32139.0 542265.0 0
39542.9 541945.0 0
43849.2 539622.0 0
47444.4 541791.0 0
56461.5 538332.0 0
52259.6 542430.0 0
60288.7 540544.0 0
63764.6 539963.0 0
68091.0 541303.0 0
73960.6 541987.0 0
78676.3 539595.0 0
84205.6 540166.0 0
89594.2 538479.0 0
91035.5 542505.0 0
94500.7 538720.0 0
100345.0 539706.0 0
105546.0 542626.0 0
110039.0 540224.0 0
115445.0 542792.0 0
119172.0 539608.0 0
119437.0 542855.0 0
123062.0 538639.0 0
127524.0 539781.0 0
132378.0 541359.0 0
134265.0 537919.0 0
137784.0 539266.0 0
141535.0 542331.0 0
146907.0 540057.0 0
152324.0 539040.0 0
157041.0 538928.0 0
161347.0 538912.0 0
159512.0 542357.0 0
166750.0 540451.0 0
173409.0 540790.0 0
178225.0 540145.0 0
182465.0 538914.0 0
187615.0 537642.0 0
185124.0 542335.0 0
192980.0 539796.0 0
198780.0 538844.0 0
202151.0 541607.0 0
207036.0 540555.0 0
211147.0 539152.0 0
215874.0 539576.0 0
221439.0 539780.0 0
227028.0 540812.0 0
231527.0 537974.0 0
237083.0 537474.0 0
243104.0 538321.0 0
248727.0 539179.0 0
254497.0 539210.0 0
262018.0 538244.0 0
268780.0 539157.0 0
275448.0 538983.0 0
279555.0 537389.0 0
283066.0 540299.0 0
288592.0 539399.0 0
293358.0 539090.0 0
297828.0 539542.0 0
301908.0 537849.0 0
305289.0 539353.0 0
302211.0 542224.0 0
310214.0 538372.0 0
315828.0 538303.0 0
320692.0 539133.0 0
325689.0 538316.0 0
329654.0 541212.0 0
339007.0 537902.0 0
341138.0 542321.0 0
345468.0 539066.0 0
349440.0 537869.0 0
354717.0 540495.0 0
360751.0 541475.0 0
364379.0 538557.0 0
366874.0 542429.0 0
369675.0 538120.0 0
373268.0 540682.0 0
379638.0 539552.0 0
381593.0 542756.0 0
384971.0 540575.0 0
389871.0 541527.0 0
395400.0 540587.0 0
399551.0 539665.0 0
406397.0 538456.0 0
403302.0 542313.0 0
411300.0 539066.0 0
408394.0 542699.0 0
416591.0 539919.0 0
420194.0 541606.0 0
423867.0 540054.0 0
427770.0 539402.0 0
432495.0 540390.0 0
438368.0 541499.0 0
443718.0 541782.0 0
448014.0 540444.0 0
452356.0 538523.0 0
456706.0 541181.0 0
461771.0 541743.0 0
465713.0 539469.0 0
470214.0 539851.0 0
471740.0 543216.0 0
474691.0 540157.0 0
479492.0 541407.0 0
484430.0 540467.0 0
490226.0 541051.0 0
497279.0 539491.0 0
498222.0 543350.0 0
2374.16 548040.0 0
6793.28 545724.0 0
11580.9 548399.0 0
16221.2 544622.0 0
19893.3 547847.0 0
20871.0 543913.0 0
24475.1 546937.0 0
29197.9 546107.0 0
36290.4 545268.0 0
39797.6 545936.0 0
43856.1 543715.0 0
48374.0 546035.0 0
54303.8 547404.0 0
57418.1 543159.0 0
59326.0 547374.0 0
62155.2 543871.0 0
66279.5 546270.0 0
70204.7 544862.0 0
76275.5 547086.0 0
78977.7 543542.0 0
82171.4 544818.0 0
86918.8 546556.0 0
95917.7 544066.0 0
100928.0 545051.0 0
106963.0 546497.0 0
110544.0 544700.0 0
114567.0 547488.0 0
118997.0 545796.0 0
122978.0 543122.0 0
127608.0 544897.0 0
131755.0 545378.0 0
136434.0 543622.0 0
144662.0 546560.0 0
149829.0 544814.0 0
155045.0 543358.0 0
162500.0 543937.0 0
159187.0 546725.0 0
166315.0 546483.0 0
170797.0 544383.0 0
176294.0 544543.0 0
181063.0 544070.0 0
184755.0 546117.0 0
190071.0 545083.0 0
196976.0 543615.0 0
201048.0 547296.0 0
205791.0 545652.0 0
211447.0 543745.0 0
216797.0 545233.0 0
222012.0 544784.0 0
227405.0 545540.0 0
232777.0 542971.0 0
237670.0 542767.0 0
242361.0 543839.0 0
248063.0 545138.0 0
253583.0 544462.0 0
258528.0 542749.0 0
263246.0 543650.0 0
267663.0 545356.0 0
273351.0 544160.0 0
278533.0 542774.0 0
282039.0 544422.0 0
286477.0 545254.0 0
292317.0 543900.0 0
298004.0 545696.0 0
307024.0 543014.0 0
312170.0 544321.0 0
317687.0 543517.0 0
321138.0 546481.0 0
324860.0 543569.0 0
329957.0 546556.0 0
334693.0 543155.0 0
337998.0 546529.0 0
345004.0 545919.0 0
348568.0 542841.0 0
358455.0 545418.0 0
363321.0 545534.0 0
367605.0 546397.0 0
371477.0 544274.0 0
376815.0 543218.0 0
375497.0 547394.0 0
380812.0 547859.0 0
385111.0 544756.0 0
388941.0 546285.0 0
394234.0 545628.0 0
398720.0 543386.0 0
401205.0 547484.0 0
405901.0 546240.0 0
410142.0 546863.0 0
413520.0 543326.0 0
414223.0 547599.0 0
418368.0 545790.0 0
423571.0 544594.0 0
429070.0 544054.0 0
434559.0 544674.0 0
441218.0 546073.0 0
447054.0 545486.0 0
451929.0 543268.0 0
451572.0 548075.0 0
455683.0 546175.0 0
459569.0 544965.0 0
463654.0 545166.0 0
467426.0 543765.0 0
466352.0 548209.0 0
470192.0 546703.0 0
475664.0 543933.0 0
478960.0 546143.0 0
482960.0 544924.0 0
486849.0 543875.0 0
486257.0 547691.0 0
490141.0 545808.0 0
494279.0 543725.0 0
493588.0 548329.0 0
497720.0 546945.0 0
2449.33 552578.0 0
6190.66 550281.0 0
14090.6 552603.0 0
16488.5 549401.0 0
24518.8 552282.0 0
28357.0 549916.0 0
33075.0 548545.0 0
35804.4 553564.0 0
31080.0 553020.0 0
38047.5 549229.0 0
40786.9 553055.0 0
43424.2 548417.0 0
45024.9 552944.0 0
48327.5 550475.0 0
52692.5 552420.0 0
57272.9 551156.0 0
62891.9 549363.0 0
66526.7 550827.0 0
71195.0 549082.0 0
75465.8 551063.0 0
81086.1 548932.0 0
78377.3 551995.0 0
84896.6 552094.0 0
89250.3 551595.0 0
92639.0 548309.0 0
98016.7 549382.0 0
103664.0 548972.0 0
109404.0 550089.0 0
114417.0 552219.0 0
118671.0 550150.0 0
123873.0 548757.0 0
129733.0 549270.0 0
135069.0 548616.0 0
140162.0 548236.0 0
148297.0 549719.0 0
143402.0 551741.0 0
153970.0 549136.0 0
162843.0 549872.0 0
166756.0 550343.0 0
170813.0 549122.0 0
176022.0 549404.0 0
181379.0 549335.0 0
186519.0 549851.0 0
191325.0 551286.0 0
196342.0 549380.0 0
200427.0 551601.0 0
204926.0 550569.0 0
210023.0 549299.0 0
215078.0 549779.0 0
219832.0 549399.0 0
224962.0 549066.0 0
230847.0 548825.0 0
236867.0 547588.0 0
241861.0 550205.0 0
247518.0 551177.0 0
253160.0 549796.0 0
258061.0 547892.0 0
259917.0 551908.0 0
263362.0 548675.0 0
268678.0 550631.0 0
273717.0 549514.0 0
279308.0 548462.0 0
284875.0 550697.0 0
289783.0 548847.0 0
293866.0 548905.0 0
297701.0 550583.0 0
302648.0 549693.0 0
307939.0 547752.0 0
307039.0 551950.0 0
312530.0 549766.0 0
317201.0 548548.0 0
320716.0 549641.0 0
324948.0 549350.0 0
334621.0 547830.0 0
337828.0 550959.0 0
343019.0 549775.0 0
348936.0 548703.0 0
354878.0 549304.0 0
360346.0 549400.0 0
365484.0 550889.0 0
371627.0 549780.0 0
376511.0 551042.0 0
386141.0 550157.0 0
391345.0 550340.0 0
396760.0 551009.0 0
401844.0 552760.0 0
406701.0 550812.0 0
412027.0 551043.0 0
417154.0 550970.0 0
421695.0 549317.0 0
426569.0 548828.0 0
424218.0 552913.0 0
431820.0 548890.0 0
436908.0 549162.0 0
434146.0 550800.0 0
441194.0 551742.0 0
447736.0 549884.0 0
444455.0 549245.0 0
445180.0 552434.0 0
450901.0 553195.0 0
456167.0 551037.0 0
461314.0 549073.0 0
466825.0 553058.0 0
469965.0 550180.0 0
474620.0 548764.0 0
477601.0 553066.0 0
481900.0 550217.0 0
489515.0 549681.0 0
492418.0 552973.0 0
497347.0 551374.0 0
3945.69 557470.0 0
9257.39 553987.0 0
14001.9 557169.0 0
19185.6 553857.0 0
23444.9 557609.0 0
27570.1 555848.0 0
32034.5 557273.0 0
38953.6 557485.0 0
43871.9 556884.0 0
48556.4 554922.0 0
47400.0 558172.0 0
52385.3 557446.0 0
56413.6 555273.0 0
61326.3 554075.0 0
66777.4 555413.0 0
72746.8 555237.0 0
81186.4 553285.0 0
78081.8 555391.0 0
82255.4 557578.0 0
87830.8 556197.0 0
93751.8 553473.0 0
99085.8 554655.0 0
104598.0 554423.0 0
110437.0 556124.0 0
115383.0 556006.0 0
117964.0 553936.0 0
121801.0 553728.0 0
119158.0 557798.0 0
127007.0 553930.0 0
132724.0 555424.0 0
137216.0 552979.0 0
140331.0 556521.0 0
148263.0 555039.0 0
154588.0 555489.0 0
159882.0 553575.0 0
164425.0 554068.0 0
168669.0 553451.0 0
173398.0 553768.0 0
178354.0 553690.0 0
182492.0 553883.0 0
187046.0 555025.0 0
192293.0 556432.0 0
197296.0 553968.0 0
203215.0 554981.0 0
207764.0 553696.0 0
212887.0 553813.0 0
217494.0 553373.0 0
221830.0 554431.0 0
227011.0 554281.0 0
232646.0 554473.0 0
237557.0 552930.0 0
244237.0 555256.0 0
240513.0 555614.0 0
251776.0 554987.0 0
256284.0 553493.0 0
258017.0 557686.0 0
263175.0 553595.0 0
267457.0 555837.0 0
272456.0 553770.0 0
277166.0 554086.0 0
282070.0 554005.0 0
284303.0 557024.0 0
289302.0 553110.0 0
294405.0 553830.0 0
299753.0 554119.0 0
304472.0 555757.0 0
310539.0 554903.0 0
316109.0 553774.0 0
321235.0 553210.0 0
325856.0 554785.0 0
321735.0 557473.0 0
331765.0 552838.0 0
337229.0 555497.0 0
341577.0 554680.0 0
346457.0 553486.0 0
351007.0 553387.0 0
355650.0 555062.0 0
360750.0 554001.0 0
365441.0 556124.0 0
369838.0 554924.0 0
375674.0 555570.0 0
380619.0 553808.0 0
385564.0 555061.0 0
390851.0 555475.0 0
396695.0 556928.0 0
401080.0 556611.0 0
405116.0 556823.0 0
409559.0 554888.0 0
414453.0 555373.0 0
419938.0 555849.0 0
425569.0 557692.0 0
429421.0 553549.0 0
435467.0 554609.0 0
441348.0 557037.0 0
446413.0 555949.0 0
455789.0 556878.0 0
461128.0 554272.0 0
465165.0 558125.0 0
472287.0 553788.0 0
470408.0 558463.0 0
476271.0 558312.0 0
481475.0 555568.0 0
486652.0 553681.0 0
490761.0 558227.0 0
496768.0 556869.0 0
2049.79 561925.0 0
9122.33 559431.0 0
5640.55 561855.0 0
13263.0 562034.0 0
18817.6 559890.0 0
28889.4 560485.0 0
35144.8 559724.0 0
38286.8 562199.0 0
42053.1 560545.0 0
45917.8 561241.0 0
49431.8 560001.0 0
52533.9 562202.0 0
56978.0 559888.0 0
63104.7 560309.0 0
69242.7 559686.0 0
73243.4 560300.0 0
77455.1 559860.0 0
86038.8 561236.0 0
91315.3 562884.0 0
95445.0 558760.0 0
101015.0 559484.0 0
106046.0 559347.0 0
110257.0 561776.0 0
114504.0 559651.0 0
124014.0 558333.0 0
128691.0 558881.0 0
132390.0 560457.0 0
136266.0 559353.0 0
144517.0 558448.0 0
148376.0 560294.0 0
153097.0 560985.0 0
158332.0 560164.0 0
162763.0 558046.0 0
162891.0 562706.0 0
168107.0 558793.0 0
173218.0 558247.0 0
177730.0 558552.0 0
183006.0 558859.0 0
188775.0 560478.0 0
193935.0 560368.0 0
196552.0 557794.0 0
200847.0 559522.0 0
206285.0 559092.0 0
212319.0 559517.0 0
217748.0 557895.0 0
222288.0 559072.0 0
226886.0 559458.0 0
231684.0 559655.0 0
236853.0 558171.0 0
241772.0 559160.0 0
247491.0 560031.0 0
253563.0 559759.0 0
262957.0 558196.0 0
262795.0 562881.0 0
267374.0 561128.0 0
271914.0 558365.0 0
280289.0 558512.0 0
275926.0 560763.0 0
285043.0 562610.0 0
288230.0 557931.0 0
292811.0 558362.0 0
297388.0 558121.0 0
301721.0 559958.0 0
308024.0 559234.0 0
312579.0 559703.0 0
317474.0 559007.0 0
321230.0 561394.0 0
325695.0 560139.0 0
331041.0 559198.0 0
335588.0 558806.0 0
339687.0 559079.0 0
345460.0 559332.0 0
351443.0 558438.0 0
356135.0 560215.0 0
361695.0 559676.0 0
368144.0 559942.0 0
372424.0 558369.0 0
375741.0 559791.0 0
372547.0 562439.0 0
381559.0 559883.0 0
387557.0 559621.0 0
392427.0 560273.0 0
396890.0 562146.0 0
402177.0 561943.0 0
407769.0 561223.0 0
411404.0 558738.0 0
412482.0 563106.0 0
416394.0 559964.0 0
421499.0 561528.0 0
427090.0 562707.0 0
431050.0 559004.0 0
436584.0 560621.0 0
441251.0 563030.0 0
446019.0 560979.0 0
450427.0 558417.0 0
453084.0 561922.0 0
457688.0 562376.0 0
460445.0 558935.0 0
462800.0 562639.0 0
467680.0 562259.0 0
472684.0 562800.0 0
480792.0 561270.0 0
485039.0 559011.0 0
488525.0 562991.0 0
497043.0 562681.0 0
4034.99 565597.0 0
8740.88 564650.0 0
13164.5 566495.0 0
17999.9 565247.0 0
23996.5 563492.0 0
29383.3 564751.0 0
33302.1 563364.0 0
36858.8 566801.0 0
42636.9 565429.0 0
48541.5 565203.0 0
53129.9 566500.0 0
57758.9 565303.0 0
63151.1 566444.0 0
67765.3 564112.0 0
72724.5 564492.0 0
77500.5 564588.0 0
81714.3 563313.0 0
86415.1 566147.0 0
97074.5 564165.0 0
102093.0 564271.0 0
106586.0 565012.0 0
113250.0 565946.0 0
118206.0 563199.0 0
120670.0 568241.0 0
125482.0 564120.0 0
130900.0 563774.0 0
130125.0 567834.0 0
134423.0 563275.0 0
134415.0 567836.0 0
138922.0 563745.0 0
142437.0 567799.0 0
144355.0 563090.0 0
149694.0 565548.0 0
155999.0 563814.0 0
154994.0 567778.0 0
159247.0 565582.0 0
167560.0 564551.0 0
163517.0 567934.0 0
173619.0 563729.0 0
179892.0 563424.0 0
185023.0 564245.0 0
193169.0 564253.0 0
189231.0 565486.0 0
197916.0 563846.0 0
203230.0 564461.0 0
208456.0 563809.0 0
213467.0 565508.0 0
218418.0 562973.0 0
222803.0 562993.0 0
221822.0 567002.0 0
226788.0 564316.0 0
232129.0 564937.0 0
237387.0 563639.0 0
242585.0 563827.0 0
247230.0 566391.0 0
252301.0 564688.0 0
257704.0 563281.0 0
266170.0 566615.0 0
272207.0 564574.0 0
279479.0 563757.0 0
282533.0 567222.0 0
291533.0 563678.0 0
297938.0 563569.0 0
303349.0 564323.0 0
308337.0 564765.0 0
312527.0 563847.0 0
317425.0 564913.0 0
323859.0 564903.0 0
328916.0 564538.0 0
334846.0 563891.0 0
341170.0 564195.0 0
346552.0 565006.0 0
351295.0 563763.0 0
356527.0 565281.0 0
362686.0 566183.0 0
368521.0 565209.0 0
377113.0 563723.0 0
373497.0 567691.0 0
381125.0 566470.0 0
386484.0 565085.0 0
392869.0 565696.0 0
398948.0 567127.0 0
403954.0 566948.0 0
408355.0 565989.0 0
417334.0 564777.0 0
423693.0 566522.0 0
432583.0 564124.0 0
428895.0 567355.0 0
437254.0 565841.0 0
441191.0 567390.0 0
445104.0 565923.0 0
449685.0 565005.0 0
454439.0 566105.0 0
460150.0 566877.0 0
464746.0 566470.0 0
469388.0 566549.0 0
477152.0 564032.0 0
484109.0 563891.0 0
480987.0 568268.0 0
487015.0 567770.0 0
492725.0 566180.0 0
497643.0 567836.0 0
2104.91 569439.0 0
1811.94 573231.0 0
6806.85 568966.0 0
10966.0 570360.0 0
16184.2 570177.0 0
21630.2 569515.0 0
27218.8 568915.0 0
32526.1 569896.0 0
37564.2 571667.0 0
41672.1 570507.0 0
46200.7 569764.0 0
48457.8 573238.0 0
52170.2 570964.0 0
56079.5 570409.0 0
59864.4 570369.0 0
65456.4 571126.0 0
69791.8 568600.0 0
75307.5 569527.0 0
81517.8 568676.0 0
88063.4 570845.0 0
93242.8 568650.0 0
98433.2 569350.0 0
103335.0 569008.0 0
109138.0 569281.0 0
115343.0 570974.0 0
125779.0 570611.0 0
132279.0 572513.0 0
137512.0 572464.0 0
138200.0 568335.0 0
148005.0 571049.0 0
159116.0 569783.0 0
168147.0 568964.0 0
163708.0 573089.0 0
171874.0 568896.0 0
176965.0 568968.0 0
174155.0 572535.0 0
181901.0 568642.0 0
186525.0 568258.0 0
192681.0 568705.0 0
189139.0 570871.0 0
197161.0 568028.0 0
198569.0 572487.0 0
203753.0 570029.0 0
208578.0 568503.0 0
207968.0 573121.0 0
212563.0 570360.0 0
217369.0 569724.0 0
222185.0 572247.0 0
226128.0 569142.0 0
230911.0 570183.0 0
236840.0 569863.0 0
242564.0 568877.0 0
247458.0 570827.0 0
251117.0 569450.0 0
255830.0 568527.0 0
262023.0 568695.0 0
270452.0 570165.0 0
265741.0 571445.0 0
277017.0 569454.0 0
282998.0 572177.0 0
287395.0 568432.0 0
292898.0 569675.0 0
300543.0 568684.0 0
297095.0 572207.0 0
306809.0 570086.0 0
312367.0 568426.0 0
318253.0 571641.0 0
323492.0 569429.0 0
330227.0 568319.0 0
327274.0 568594.0 0
333574.0 569152.0 0
338296.0 568954.0 0
343997.0 569755.0 0
351675.0 569959.0 0
358234.0 570801.0 0
364332.0 572271.0 0
368844.0 569992.0 0
378284.0 570901.0 0
384069.0 569833.0 0
389015.0 570712.0 0
395017.0 571501.0 0
402383.0 570786.0 0
399393.0 573261.0 0
407493.0 571306.0 0
413344.0 568620.0 0
416938.0 573286.0 0
419367.0 569297.0 0
425705.0 570941.0 0
430307.0 572088.0 0
433683.0 568736.0 0
435915.0 571198.0 0
434193.0 573027.0 0
439263.0 571129.0 0
444411.0 570681.0 0
451130.0 570705.0 0
456628.0 569967.0 0
461395.0 571127.0 0
465807.0 570572.0 0
470174.0 571009.0 0
474621.0 568711.0 0
477869.0 572741.0 0
485362.0 572993.0 0
491155.0 571493.0 0
496682.0 572707.0 0
2700.16 577552.0 0
7345.28 574200.0 0
13471.9 574549.0 0
19039.3 574589.0 0
24429.3 574260.0 0
28997.8 573448.0 0
28608.8 577885.0 0
33858.7 575690.0 0
39878.6 574239.0 0
44087.2 573987.0 0
41168.6 577976.0 0
46953.8 575433.0 0
51641.2 576362.0 0
56799.8 574500.0 0
62071.3 574903.0 0
68139.5 575074.0 0
73236.1 575230.0 0
78640.8 574182.0 0
83889.9 574014.0 0
88494.4 575666.0 0
93558.4 574640.0 0
98733.3 573818.0 0
105809.0 573481.0 0
102242.0 577064.0 0
110843.0 574146.0 0
116132.0 575871.0 0
120284.0 573593.0 0
124285.0 574725.0 0
126519.0 578212.0 0
128267.0 574331.0 0
142828.0 573221.0 0
138813.0 578117.0 0
144386.0 578124.0 0
148380.0 576004.0 0
153556.0 573507.0 0
157264.0 577933.0 0
159224.0 573898.0 0
168987.0 573659.0 0
179425.0 574354.0 0
185132.0 573156.0 0
188593.0 576705.0 0
192907.0 573850.0 0
203392.0 575649.0 0
212593.0 575125.0 0
217899.0 575546.0 0
227340.0 574344.0 0
232794.0 575107.0 0
238319.0 576294.0 0
244077.0 574277.0 0
249771.0 574035.0 0
254069.0 575411.0 0
259201.0 573331.0 0
264197.0 575161.0 0
268462.0 574574.0 0
273362.0 574459.0 0
278582.0 575810.0 0
288211.0 574239.0 0
293383.0 575075.0 0
297527.0 576576.0 0
301839.0 574272.0 0
306794.0 575148.0 0
312102.0 574565.0 0
316443.0 576033.0 0
319604.0 577113.0 0
323534.0 574644.0 0
329615.0 573378.0 0
335795.0 573304.0 0
341276.0 575762.0 0
347398.0 574307.0 0
351679.0 575961.0 0
355806.0 575326.0 0
360410.0 575697.0 0
367571.0 576493.0 0
372583.0 573424.0 0
377747.0 576215.0 0
382600.0 574166.0 0
387937.0 576984.0 0
394725.0 577759.0 0
403479.0 575807.0 0
412322.0 573914.0 0
408517.0 576281.0 0
421759.0 573797.0 0
418476.0 577920.0 0
426726.0 575811.0 0
432218.0 576850.0 0
437393.0 575652.0 0
441895.0 574674.0 0
447141.0 575581.0 0
452501.0 576757.0 0
458008.0 575100.0 0
463501.0 574327.0 0
462358.0 578028.0 0
467999.0 575021.0 0
473310.0 574114.0 0
471184.0 577979.0 0
476944.0 576658.0 0
481013.0 575880.0 0
484907.0 578118.0 0
490387.0 577378.0 0
497371.0 577925.0 0
2643.69 582665.0 0
7588.8 580263.0 0
12739.7 579439.0 0
11125.0 582824.0 0
18274.1 580527.0 0
23994.5 579257.0 0
27174.7 583290.0 0
32322.1 581539.0 0
36895.9 579977.0 0
43105.8 582366.0 0
46767.5 579170.0 0
55678.5 579317.0 0
51535.8 581555.0 0
60625.2 579742.0 0
57500.8 583400.0 0
66098.7 579757.0 0
71452.2 580304.0 0
75688.4 582866.0 0
76896.6 578535.0 0
81367.6 578444.0 0
85885.1 579133.0 0
91197.1 580476.0 0
97393.2 578619.0 0
103148.0 582603.0 0
107443.0 578508.0 0
112706.0 578693.0 0
116670.0 582727.0 0
121190.0 578816.0 0
123156.0 583438.0 0
132323.0 578842.0 0
128112.0 583249.0 0
152948.0 579499.0 0
148361.0 580904.0 0
162649.0 578428.0 0
159076.0 581909.0 0
168335.0 579222.0 0
165200.0 582512.0 0
174180.0 578182.0 0
178950.0 581690.0 0
183748.0 578653.0 0
188033.0 582360.0 0
192817.0 579583.0 0
198911.0 579762.0 0
203852.0 580281.0 0
208310.0 578852.0 0
219111.0 579680.0 0
214817.0 579936.0 0
222639.0 578560.0 0
229326.0 579174.0 0
226921.0 582534.0 0
234184.0 580142.0 0
238626.0 581302.0 0
242810.0 579711.0 0
247956.0 578740.0 0
252349.0 578900.0 0
251692.0 583168.0 0
256451.0 579613.0 0
261345.0 578636.0 0
265948.0 578999.0 0
270420.0 578598.0 0
275254.0 580422.0 0
283187.0 578612.0 0
282977.0 583205.0 0
288615.0 580068.0 0
294106.0 579920.0 0
299902.0 579428.0 0
304486.0 579353.0 0
309203.0 578991.0 0
315109.0 579324.0 0
311834.0 581499.0 0
322073.0 581102.0 0
327710.0 579894.0 0
334947.0 578662.0 0
339107.0 580163.0 0
346686.0 578923.0 0
342839.0 581482.0 0
350679.0 579847.0 0
352519.0 583279.0 0
357515.0 580130.0 0
363145.0 579594.0 0
367203.0 581061.0 0
372647.0 579890.0 0
382387.0 578612.0 0
378818.0 581332.0 0
384975.0 581542.0 0
390702.0 583028.0 0
399717.0 578615.0 0
398140.0 581804.0 0
402913.0 581249.0 0
407823.0 580580.0 0
412976.0 579171.0 0
417146.0 583509.0 0
423418.0 580271.0 0
428382.0 580166.0 0
432398.0 582063.0 0
437299.0 580817.0 0
442788.0 579665.0 0
448172.0 580869.0 0
455958.0 580472.0 0
460361.0 581378.0 0
466419.0 580004.0 0
474570.0 579841.0 0
470764.0 582030.0 0
479390.0 580658.0 0
483781.0 581943.0 0
487316.0 581222.0 0
491766.0 583335.0 0
497346.0 583137.0 0
2122.18 587178.0 0
6979.24 586027.0 0
14969.7 584900.0 0
11760.8 587776.0 0
17561.5 588556.0 0
22000.3 585561.0 0
33217.6 587967.0 0
38150.2 584252.0 0
42446.0 586858.0 0
47497.6 584387.0 0
53049.0 587851.0 0
59940.0 587897.0 0
63099.9 583910.0 0
68012.8 584760.0 0
72206.8 585294.0 0
81187.1 583911.0 0
76820.3 587540.0 0
86654.1 583829.0 0
91915.0 586865.0 0
97326.6 584129.0 0
109767.0 583734.0 0
113452.0 587012.0 0
120236.0 585870.0 0
117469.0 588140.0 0
123062.0 588246.0 0
132579.0 583952.0 0
127795.0 588309.0 0
137040.0 583790.0 0
139457.0 588455.0 0
142982.0 583498.0 0
149491.0 585989.0 0
154826.0 583521.0 0
158787.0 586447.0 0
164209.0 587091.0 0
169459.0 584699.0 0
174375.0 583685.0 0
177806.0 586026.0 0
183263.0 585281.0 0
188252.0 587506.0 0
192935.0 584385.0 0
196929.0 584490.0 0
196930.0 587920.0 0
202564.0 584391.0 0
207634.0 584297.0 0
212283.0 584110.0 0
217748.0 584624.0 0
222946.0 583745.0 0
226550.0 587526.0 0
230985.0 584294.0 0
235920.0 584639.0 0
240764.0 584907.0 0
245973.0 584268.0 0
252407.0 587697.0 0
257712.0 584547.0 0
262783.0 583513.0 0
261008.0 587927.0 0
268278.0 583454.0 0
265748.0 588339.0 0
273327.0 585486.0 0
278520.0 584836.0 0
286935.0 585310.0 0
292257.0 584908.0 0
297773.0 583406.0 0
299745.0 588247.0 0
303105.0 584453.0 0
308099.0 583405.0 0
308625.0 587782.0 0
312559.0 585387.0 0
317427.0 583836.0 0
322148.0 586237.0 0
326905.0 585341.0 0
332394.0 584262.0 0
338408.0 584321.0 0
344073.0 585258.0 0
346455.0 587907.0 0
347956.0 583495.0 0
351596.0 588308.0 0
356435.0 585469.0 0
362442.0 585270.0 0
369137.0 586041.0 0
374356.0 585149.0 0
382228.0 583870.0 0
378023.0 585733.0 0
381289.0 587837.0 0
386044.0 585357.0 0
390826.0 588532.0 0
395688.0 584476.0 0
400419.0 585643.0 0
405980.0 584837.0 0
411227.0 584739.0 0
408165.0 588060.0 0
422534.0 585975.0 0
426836.0 583778.0 0
430395.0 586848.0 0
435936.0 586131.0 0
440686.0 584421.0 0
445629.0 585481.0 0
452170.0 583696.0 0
457338.0 585527.0 0
462321.0 585068.0 0
467239.0 585434.0 0
475226.0 585038.0 0
480978.0 585886.0 0
486458.0 585657.0 0
494012.0 588434.0 0
498261.0 587395.0 0
3366.92 592389.0 0
8667.48 590857.0 0
12803.8 591891.0 0
22045.2 590475.0 0
26763.3 589194.0 0
38813.2 589998.0 0
43063.9 592883.0 0
46763.5 589175.0 0
49410.3 592619.0 0
57521.2 592573.0 0
65131.0 588650.0 0
62324.7 592513.0 0
70006.0 589364.0 0
73950.2 590021.0 0
81633.8 590019.0 0
76740.9 593279.0 0
85993.9 593200.0 0
86750.9 588443.0 0
93363.1 591156.0 0
97643.5 590061.0 0
103784.0 588886.0 0
109462.0 589065.0 0
113477.0 591050.0 0
117705.0 592769.0 0
129044.0 592975.0 0
133501.0 589121.0 0
145134.0 589778.0 0
150082.0 590436.0 0
154055.0 588498.0 0
158186.0 591561.0 0
168512.0 589542.0 0
174085.0 589750.0 0
180087.0 589643.0 0
184577.0 589998.0 0
188504.0 592733.0 0
192975.0 589204.0 0
197208.0 593354.0 0
201029.0 589677.0 0
206745.0 589504.0 0
212847.0 589544.0 0
218426.0 589753.0 0
222710.0 590451.0 0
227864.0 593187.0 0
231942.0 589356.0 0
237355.0 589639.0 0
243013.0 588559.0 0
241578.0 592734.0 0
248024.0 590122.0 0
256535.0 589603.0 0
270348.0 588967.0 0
276266.0 590106.0 0
282651.0 589392.0 0
288880.0 590314.0 0
294650.0 590345.0 0
304624.0 589145.0 0
312195.0 590054.0 0
316791.0 588922.0 0
318022.0 593316.0 0
325303.0 589505.0 0
321458.0 590682.0 0
330489.0 590384.0 0
336110.0 589101.0 0
341641.0 588926.0 0
347530.0 592645.0 0
358930.0 588901.0 0
361704.0 591492.0 0
357536.0 592656.0 0
366308.0 591298.0 0
371155.0 593161.0 0
373815.0 589054.0 0
377788.0 589348.0 0
385760.0 590360.0 0
394901.0 591057.0 0
399395.0 590146.0 0
398150.0 593441.0 0
401705.0 593575.0 0
404147.0 589477.0 0
407434.0 593639.0 0
411835.0 590496.0 0
417799.0 589760.0 0
422700.0 590626.0 0
426264.0 589253.0 0
431331.0 591945.0 0
434708.0 590131.0 0
440642.0 589510.0 0
445851.0 590787.0 0
450715.0 588736.0 0
455716.0 590316.0 0
460642.0 589596.0 0
465546.0 590152.0 0
471089.0 589515.0 0
477778.0 590775.0 0
482829.0 590046.0 0
487670.0 591261.0 0
492872.0 593603.0 0
497870.0 591224.0 0
9500.2 595965.0 0
18088.3 594826.0 0
24486.5 594048.0 0
29523.6 595993.0 0
35573.3 594463.0 0
39464.2 593582.0 0
40564.8 598144.0 0
47213.3 597159.0 0
53204.2 595820.0 0
61410.4 597933.0 0
66390.8 595208.0 0
71668.7 595666.0 0
77364.1 598473.0 0
81666.4 595767.0 0
86365.2 598437.0 0
91097.4 595045.0 0
96286.7 594986.0 0
101498.0 594833.0 0
107395.0 593925.0 0
113078.0 596362.0 0
118603.0 597522.0 0
123424.0 593798.0 0
127999.0 598656.0 0
133013.0 594173.0 0
138283.0 593996.0 0
143857.0 595606.0 0
148301.0 593809.0 0
148928.0 598447.0 0
153368.0 594632.0 0
158470.0 598434.0 0
163347.0 594194.0 0
169625.0 594552.0 0
174517.0 595297.0 0
183588.0 594024.0 0
178911.0 594570.0 0
188595.0 598174.0 0
193000.0 593569.0 0
194532.0 598407.0 0
202852.0 594081.0 0
208438.0 594243.0 0
213071.0 595366.0 0
217835.0 594331.0 0
222630.0 595014.0 0
232972.0 593863.0 0
231984.0 598163.0 0
237432.0 595047.0 0
241579.0 597884.0 0
245611.0 595056.0 0
250013.0 594885.0 0
254927.0 594893.0 0
261370.0 593717.0 0
268148.0 593568.0 0
273769.0 595156.0 0
279423.0 594852.0 0
283706.0 594318.0 0
287209.0 595300.0 0
291573.0 594635.0 0
296219.0 595553.0 0
301455.0 593645.0 0
308012.0 594086.0 0
313698.0 594414.0 0
316846.0 597625.0 0
326144.0 593925.0 0
321828.0 595623.0 0
330563.0 596086.0 0
334871.0 593841.0 0
339894.0 594183.0 0
337711.0 598586.0 0
342187.0 598555.0 0
347065.0 598060.0 0
352826.0 593919.0 0
356775.0 596935.0 0
361082.0 595837.0 0
366196.0 596132.0 0
376618.0 593839.0 0
373107.0 598015.0 0
381729.0 593910.0 0
385481.0 595157.0 0
390406.0 594428.0 0
395773.0 597233.0 0
401465.0 598409.0 0
412271.0 595990.0 0
417954.0 595945.0 0
422181.0 594015.0 0
426544.0 594006.0 0
427474.0 598029.0 0
423572.0 598413.0 0
430590.0 596370.0 0
436694.0 594465.0 0
441859.0 594026.0 0
445686.0 595593.0 0
451182.0 594563.0 0
457171.0 595319.0 0
461718.0 593928.0 0
462854.0 598398.0 0
465660.0 594494.0 0
467933.0 598249.0 0
471538.0 594962.0 0
475977.0 595502.0 0
482178.0 594559.0 0
486951.0 596760.0 0
491523.0 598301.0 0
497486.0 595823.0 0
3712.35 599332.0 0
9065.32 602956.0 0
13675.9 599904.0 0
19156.5 601768.0 0
23801.8 598863.0 0
28091.9 601299.0 0
33693.2 600569.0 0
38832.1 603697.0 0
44513.5 602542.0 0
50638.3 601662.0 0
56133.6 601011.0 0
61306.9 603140.0 0
67020.0 600850.0 0
72923.6 601070.0 0
77348.2 603688.0 0
81681.5 601099.0 0
86133.4 603592.0 0
91350.2 600763.0 0
96380.0 599611.0 0
101326.0 600425.0 0
107437.0 600420.0 0
114869.0 601253.0 0
122294.0 601026.0 0
118129.0 603297.0 0
132211.0 603553.0 0
134546.0 598873.0 0
140217.0 599555.0 0
144824.0 601691.0 0
153425.0 599782.0 0
164424.0 600382.0 0
168419.0 598731.0 0
172599.0 599855.0 0
169060.0 603362.0 0
178369.0 599840.0 0
183471.0 598664.0 0
182107.0 603457.0 0
187219.0 603296.0 0
198115.0 602672.0 0
199653.0 598787.0 0
203158.0 599319.0 0
207236.0 598701.0 0
212250.0 600106.0 0
216991.0 599148.0 0
218422.0 603613.0 0
222059.0 599754.0 0
227094.0 598807.0 0
232145.0 603707.0 0
236830.0 600197.0 0
242053.0 602949.0 0
246660.0 600170.0 0
251656.0 598910.0 0
252118.0 603448.0 0
257014.0 600743.0 0
263658.0 600337.0 0
268854.0 598733.0 0
273153.0 600315.0 0
277967.0 599815.0 0
283570.0 598745.0 0
288025.0 598886.0 0
292844.0 599172.0 0
296262.0 599107.0 0
300061.0 599409.0 0
296140.0 602565.0 0
305951.0 600357.0 0
311887.0 599212.0 0
321179.0 600111.0 0
316589.0 603033.0 0
326226.0 599184.0 0
332638.0 600839.0 0
341787.0 603255.0 0
352432.0 599443.0 0
358173.0 602387.0 0
363470.0 599872.0 0
368873.0 599241.0 0
373150.0 603526.0 0
378002.0 598899.0 0
382389.0 600698.0 0
386938.0 598998.0 0
391518.0 600606.0 0
395829.0 603267.0 0
407450.0 599486.0 0
410965.0 603571.0 0
413561.0 600512.0 0
418347.0 601943.0 0
432884.0 599844.0 0
428589.0 601855.0 0
437162.0 599971.0 0
441725.0 598686.0 0
442697.0 602881.0 0
448625.0 599779.0 0
453790.0 599336.0 0
458284.0 600223.0 0
456762.0 603750.0 0
465939.0 602973.0 0
473073.0 600693.0 0
479051.0 599104.0 0
484186.0 601246.0 0
488484.0 600631.0 0
494226.0 601329.0 0
497978.0 600271.0 0
3230.57 606189.0 0
8536.04 608113.0 0
14401.2 605901.0 0
19511.7 606632.0 0
24053.0 604900.0 0
29288.2 605993.0 0
34087.4 606128.0 0
43169.3 608224.0 0
48432.6 605887.0 0
53221.7 606109.0 0
58083.7 605447.0 0
64628.1 605244.0 0
68965.9 608047.0 0
74242.0 605966.0 0
81894.3 606381.0 0
90342.4 605430.0 0
86737.0 608757.0 0
95196.6 604751.0 0
100683.0 605661.0 0
106027.0 606490.0 0
111961.0 604433.0 0
116381.0 608190.0 0
121352.0 605937.0 0
127020.0 605456.0 0
137395.0 604203.0 0
133377.0 608451.0 0
142467.0 606282.0 0
148945.0 604589.0 0
154240.0 604493.0 0
159992.0 604422.0 0
165345.0 605933.0 0
173340.0 605177.0 0
177718.0 604606.0 0
192966.0 604797.0 0
198542.0 607840.0 0
203019.0 603860.0 0
208817.0 604117.0 0
205476.0 608363.0 0
214157.0 604116.0 0
212315.0 608571.0 0
216708.0 608547.0 0
222528.0 603986.0 0
220993.0 608272.0 0
226780.0 603707.0 0
231357.0 608782.0 0
238084.0 604458.0 0
242882.0 608419.0 0
247106.0 605216.0 0
251688.0 607988.0 0
257589.0 605646.0 0
261124.0 605007.0 0
268935.0 603859.0 0
265971.0 608745.0 0
273932.0 604776.0 0
270898.0 608726.0 0
278470.0 604634.0 0
283249.0 603972.0 0
282029.0 608672.0 0
287494.0 604143.0 0
286542.0 608608.0 0
291735.0 603818.0 0
295735.0 606979.0 0
291222.0 608818.0 0
300702.0 605242.0 0
305765.0 605527.0 0
310750.0 604993.0 0
307790.0 608704.0 0
315773.0 608660.0 0
323223.0 604720.0 0
325603.0 608346.0 0
328491.0 604087.0 0
332711.0 605394.0 0
335424.0 608674.0 0
336851.0 603948.0 0
347276.0 603753.0 0
352697.0 604821.0 0
367170.0 603813.0 0
362663.0 604712.0 0
374252.0 608244.0 0
378560.0 603746.0 0
387323.0 604080.0 0
382797.0 605082.0 0
391741.0 605231.0 0
393566.0 608570.0 0
397892.0 607972.0 0
401201.0 603944.0 0
406529.0 605501.0 0
411307.0 608409.0 0
414473.0 604407.0 0
417182.0 608211.0 0
422274.0 608494.0 0
423735.0 603932.0 0
427548.0 608572.0 0
433213.0 604730.0 0
436998.0 608461.0 0
438920.0 603980.0 0
442680.0 608324.0 0
446409.0 604365.0 0
448204.0 608641.0 0
452021.0 604632.0 0
457713.0 607874.0 0
460860.0 604024.0 0
466163.0 608286.0 0
470247.0 605668.0 0
475541.0 606717.0 0
480139.0 604050.0 0
484236.0 606151.0 0
490361.0 605768.0 0
497112.0 605055.0 0
2050.24 611286.0 0
6264.07 612192.0 0
12301.6 611329.0 0
17905.8 611271.0 0
22100.0 609060.0 0
23327.7 613373.0 0
26187.6 609689.0 0
32639.3 610260.0 0
37598.9 610236.0 0
41818.6 612978.0 0
48139.2 610711.0 0
52928.0 612706.0 0
56868.3 609606.0 0
62473.9 609749.0 0
71215.9 613164.0 0
66495.4 613700.0 0
73631.6 609979.0 0
75966.9 613869.0 0
77712.3 609216.0 0
82490.9 611046.0 0
92764.3 609536.0 0
96932.2 613278.0 0
97271.3 608947.0 0
102152.0 610543.0 0
106242.0 610898.0 0
110524.0 609365.0 0
121513.0 610487.0 0
126174.0 611240.0 0
130846.0 613825.0 0
135951.0 612958.0 0
138191.0 609113.0 0
142190.0 611160.0 0
146513.0 609304.0 0
151308.0 608867.0 0
152752.0 613476.0 0
156229.0 609767.0 0
161170.0 609580.0 0
165476.0 611508.0 0
170562.0 609728.0 0
176276.0 609322.0 0
177788.0 613888.0 0
182095.0 609014.0 0
188174.0 608857.0 0
193634.0 610884.0 0
198435.0 613424.0 0
202156.0 610547.0 0
208716.0 613862.0 0
215974.0 612319.0 0
220393.0 613570.0 0
226417.0 608916.0 0
230807.0 613478.0 0
236639.0 609259.0 0
247699.0 609285.0 0
256225.0 609498.0 0
261003.0 609301.0 0
268974.0 613607.0 0
273415.0 613343.0 0
275885.0 609212.0 0
283259.0 613096.0 0
287019.0 612353.0 0
296647.0 611810.0 0
301806.0 610742.0 0
306330.0 612463.0 0
311363.0 610533.0 0
321092.0 609703.0 0
330036.0 609380.0 0
326526.0 613445.0 0
341294.0 608992.0 0
342275.0 613913.0 0
347637.0 609896.0 0
353770.0 610218.0 0
360222.0 609056.0 0
366534.0 609697.0 0
371322.0 610938.0 0
368747.0 613924.0 0
375162.0 613804.0 0
378670.0 609638.0 0
383567.0 609189.0 0
384420.0 613839.0 0
388763.0 609557.0 0
392798.0 612262.0 0
397583.0 613527.0 0
402702.0 609141.0 0
402132.0 612727.0 0
407711.0 608941.0 0
407073.0 613176.0 0
413237.0 613555.0 0
418671.0 613872.0 0
423676.0 612701.0 0
432608.0 609269.0 0
433505.0 613970.0 0
438342.0 612754.0 0
448283.0 613823.0 0
452989.0 610546.0 0
457584.0 612651.0 0
461852.0 610488.0 0
471622.0 609531.0 0
472409.0 613747.0 0
476642.0 611936.0 0
480656.0 609328.0 0
485914.0 610940.0 0
492919.0 611492.0 0
497549.0 610305.0 0
2941.66 615969.0 0
7971.66 616132.0 0
12471.9 616327.0 0
20295.2 614661.0 0
17416.8 616787.0 0
24037.7 617620.0 0
29458.7 614258.0 0
27419.4 618269.0 0
36450.3 616363.0 0
41967.3 617286.0 0
46196.5 614630.0 0
50370.8 616465.0 0
46539.8 618929.0 0
57661.8 614476.0 0
62141.9 614921.0 0
65757.4 618810.0 0
81147.8 615994.0 0
87017.1 614504.0 0
92354.9 614576.0 0
101411.0 615264.0 0
97187.0 618241.0 0
106463.0 615273.0 0
112110.0 614962.0 0
118259.0 614810.0 0
123532.0 614982.0 0
127267.0 618538.0 0
139992.0 615414.0 0
147701.0 614255.0 0
143632.0 614374.0 0
144923.0 618491.0 0
157178.0 614294.0 0
154646.0 618376.0 0
161673.0 614618.0 0
159669.0 618933.0 0
168135.0 614951.0 0
167784.0 618896.0 0
172972.0 615094.0 0
182008.0 614268.0 0
187521.0 614674.0 0
192321.0 615055.0 0
192177.0 618115.0 0
202967.0 614046.0 0
203502.0 618783.0 0
213944.0 615492.0 0
213885.0 618963.0 0
217633.0 618396.0 0
222262.0 618687.0 0
225506.0 614447.0 0
235632.0 614725.0 0
240275.0 614282.0 0
242979.0 618670.0 0
246099.0 614353.0 0
253071.0 614646.0 0
259453.0 614206.0 0
264175.0 614342.0 0
265860.0 618360.0 0
278484.0 614143.0 0
276909.0 618610.0 0
282114.0 619012.0 0
287585.0 617976.0 0
291150.0 614312.0 0
300739.0 615414.0 0
295979.0 617462.0 0
305697.0 618108.0 0
310125.0 614763.0 0
315967.0 614871.0 0
322018.0 615032.0 0
331447.0 614836.0 0
327332.0 618935.0 0
337193.0 613954.0 0
341778.0 618209.0 0
346362.0 615532.0 0
350832.0 614273.0 0
352016.0 618835.0 0
357549.0 615025.0 0
363525.0 614622.0 0
367685.0 618310.0 0
372365.0 617717.0 0
376898.0 618827.0 0
379912.0 614215.0 0
382031.0 618319.0 0
389440.0 614947.0 0
393812.0 618825.0 0
402212.0 616063.0 0
411473.0 618773.0 0
423288.0 618411.0 0
428198.0 614275.0 0
437514.0 616289.0 0
442727.0 614082.0 0
440847.0 619024.0 0
454040.0 615831.0 0
461327.0 614986.0 0
466740.0 614030.0 0
474006.0 618247.0 0
477820.0 615392.0 0
481703.0 614368.0 0
483176.0 618698.0 0
489508.0 614914.0 0
493916.0 615720.0 0
497893.0 614805.0 0
2916.29 621607.0 0
8591.72 620916.0 0
14528.1 620675.0 0
20596.6 620440.0 0
25954.9 622489.0 0
30884.3 619602.0 0
34932.2 621486.0 0
39384.8 621148.0 0
50200.4 621069.0 0
46194.7 623830.0 0
54705.2 619281.0 0
60502.7 619246.0 0
58187.4 624026.0 0
63474.5 623555.0 0
68054.3 623223.0 0
72256.8 619178.0 0
78337.0 620717.0 0
85420.4 619406.0 0
82063.5 620275.0 0
91623.9 620240.0 0
86907.7 623979.0 0
103014.0 620941.0 0
109074.0 619925.0 0
113606.0 619629.0 0
116880.0 622254.0 0
121554.0 619788.0 0
133753.0 619755.0 0
140178.0 620804.0 0
144627.0 623597.0 0
149594.0 619875.0 0
153312.0 623887.0 0
158350.0 623199.0 0
162966.0 623454.0 0
163846.0 619175.0 0
168243.0 623767.0 0
171853.0 620089.0 0
177324.0 619407.0 0
174101.0 623132.0 0
183690.0 619283.0 0
188852.0 619386.0 0
192381.0 623069.0 0
197441.0 619224.0 0
201779.0 623420.0 0
209205.0 620921.0 0
214631.0 623299.0 0
219036.0 623870.0 0
222500.0 623909.0 0
227391.0 619305.0 0
232876.0 619135.0 0
238567.0 619092.0 0
242328.0 623321.0 0
247821.0 620079.0 0
251759.0 619454.0 0
252500.0 623912.0 0
255741.0 620228.0 0
260798.0 619370.0 0
267185.0 624054.0 0
271734.0 619264.0 0
277578.0 623171.0 0
286736.0 623058.0 0
291566.0 620679.0 0
300455.0 619824.0 0
296693.0 623606.0 0
307557.0 623493.0 0
311603.0 619504.0 0
316783.0 621331.0 0
321832.0 619840.0 0
332515.0 619481.0 0
331729.0 623996.0 0
336954.0 619435.0 0
342979.0 623113.0 0
347178.0 620515.0 0
357771.0 621317.0 0
363015.0 619737.0 0
366515.0 622856.0 0
362427.0 624163.0 0
372030.0 622685.0 0
376790.0 623341.0 0
380994.0 623300.0 0
387415.0 620095.0 0
396909.0 623891.0 0
399494.0 619558.0 0
405554.0 620436.0 0
412808.0 623720.0 0
417169.0 619324.0 0
422338.0 623551.0 0
429594.0 619638.0 0
432730.0 623675.0 0
435123.0 619641.0 0
442944.0 623829.0 0
446435.0 619403.0 0
451706.0 620124.0 0
452335.0 624044.0 0
458390.0 619334.0 0
464087.0 619324.0 0
469266.0 619214.0 0
467374.0 624062.0 0
472612.0 622757.0 0
478714.0 619211.0 0
477274.0 623629.0 0
482245.0 623428.0 0
487716.0 619680.0 0
492494.0 619592.0 0
493001.0 623475.0 0
497243.0 619437.0 0
497622.0 624226.0 0
1225.06 625370.0 0
2838.58 629085.0 0
6416.23 625147.0 0
12069.4 624526.0 0
17707.6 624434.0 0
18087.6 628957.0 0
21834.1 624727.0 0
27250.7 628515.0 0
31422.7 624460.0 0
37232.9 626184.0 0
41995.7 624535.0 0
47706.5 628780.0 0
52495.8 625266.0 0
62048.1 628511.0 0
67598.3 628802.0 0
71618.7 625477.0 0
76716.5 625790.0 0
81805.9 624164.0 0
91582.3 626474.0 0
97106.1 624197.0 0
101996.0 626224.0 0
107165.0 625269.0 0
112269.0 624226.0 0
112965.0 628805.0 0
118122.0 627112.0 0
122846.0 624928.0 0
128739.0 624730.0 0
135255.0 626535.0 0
139582.0 624939.0 0
143520.0 628573.0 0
148674.0 625052.0 0
151092.0 629132.0 0
157301.0 628712.0 0
163044.0 628229.0 0
172997.0 627473.0 0
177472.0 624888.0 0
181816.0 624219.0 0
183306.0 629010.0 0
186707.0 624317.0 0
188160.0 628819.0 0
192620.0 628607.0 0
197503.0 624870.0 0
202494.0 628788.0 0
205993.0 626238.0 0
212716.0 628608.0 0
217500.0 628741.0 0
222500.0 628610.0 0
226783.0 624963.0 0
232042.0 624178.0 0
232911.0 628809.0 0
237220.0 624219.0 0
237778.0 629123.0 0
242755.0 627893.0 0
246993.0 624914.0 0
247945.0 629215.0 0
252127.0 628142.0 0
256692.0 624867.0 0
256409.0 629092.0 0
261522.0 624554.0 0
272652.0 625081.0 0
277011.0 629215.0 0
282079.0 625963.0 0
286943.0 628949.0 0
291390.0 625681.0 0
302599.0 624144.0 0
304069.0 628784.0 0
308306.0 627892.0 0
312184.0 624602.0 0
320933.0 624793.0 0
316413.0 626194.0 0
326409.0 624878.0 0
323335.0 628905.0 0
337551.0 625108.0 0
342738.0 628940.0 0
347495.0 625593.0 0
352894.0 624757.0 0
358014.0 626836.0 0
368489.0 627177.0 0
378362.0 627655.0 0
385294.0 625435.0 0
391372.0 624837.0 0
401775.0 624757.0 0
398030.0 628992.0 0
407894.0 626019.0 0
412721.0 628952.0 0
417792.0 625041.0 0
422296.0 628141.0 0
426570.0 624217.0 0
430169.0 626896.0 0
437494.0 624297.0 0
440944.0 629121.0 0
448119.0 624780.0 0
452377.0 629181.0 0
456478.0 624531.0 0
461752.0 624221.0 0
464298.0 628274.0 0
474419.0 627524.0 0
479461.0 628325.0 0
484170.0 627966.0 0
488567.0 625032.0 0
493036.0 627524.0 0
497569.0 628866.0 0
1428.91 633815.0 0
8093.04 629740.0 0
5471.9 634298.0 0
13340.3 629366.0 0
10707.9 633989.0 0
17140.2 634177.0 0
22182.4 631009.0 0
28267.0 633969.0 0
32810.8 630004.0 0
37557.2 631681.0 0
42140.5 629473.0 0
47047.5 633941.0 0
52137.3 631019.0 0
56764.4 629339.0 0
62405.3 633761.0 0
67071.5 633735.0 0
73071.4 630390.0 0
78457.3 630931.0 0
84317.0 629542.0 0
89802.4 630967.0 0
94501.8 630738.0 0
99124.0 629440.0 0
104208.0 630558.0 0
109006.0 629475.0 0
116054.0 631036.0 0
122274.0 629916.0 0
119371.0 634230.0 0
128269.0 632133.0 0
134932.0 631749.0 0
139139.0 629995.0 0
147088.0 630880.0 0
143457.0 633603.0 0
162834.0 633397.0 0
167862.0 629654.0 0
173392.0 633764.0 0
178042.0 629450.0 0
181739.0 634236.0 0
187123.0 633551.0 0
197299.0 629516.0 0
198766.0 633503.0 0
202961.0 633413.0 0
208115.0 630716.0 0
212269.0 634003.0 0
217524.0 633510.0 0
222452.0 633634.0 0
227996.0 630268.0 0
231393.0 633522.0 0
236422.0 633840.0 0
241627.0 632509.0 0
253410.0 633392.0 0
258698.0 633796.0 0
260832.0 629560.0 0
262705.0 633616.0 0
265606.0 629252.0 0
267121.0 634078.0 0
270808.0 630188.0 0
282344.0 630362.0 0
281772.0 633872.0 0
286929.0 634150.0 0
292533.0 630801.0 0
298630.0 629925.0 0
301812.0 634192.0 0
306163.0 633035.0 0
310537.0 633823.0 0
312867.0 629795.0 0
318535.0 630751.0 0
327903.0 630103.0 0
333235.0 629516.0 0
337949.0 631063.0 0
351153.0 629786.0 0
346966.0 632377.0 0
356573.0 632156.0 0
362937.0 629804.0 0
373281.0 630718.0 0
382926.0 629949.0 0
388420.0 630151.0 0
393462.0 630192.0 0
400072.0 634226.0 0
403356.0 629584.0 0
408024.0 631120.0 0
404099.0 633490.0 0
413058.0 634310.0 0
417815.0 630204.0 0
422634.0 633222.0 0
426959.0 630243.0 0
431704.0 633867.0 0
434740.0 629672.0 0
446397.0 631550.0 0
459155.0 629712.0 0
469156.0 629625.0 0
473626.0 634216.0 0
484174.0 632108.0 0
479760.0 633862.0 0
488174.0 630248.0 0
493045.0 633014.0 0
2251.05 638226.0 0
23660.6 635984.0 0
33189.9 635392.0 0
38032.6 636189.0 0
42352.2 634620.0 0
51702.3 635755.0 0
57038.9 634903.0 0
63543.0 639105.0 0
71175.5 635338.0 0
68413.7 638959.0 0
75993.7 635189.0 0
81792.4 636030.0 0
87176.2 634408.0 0
87360.1 638809.0 0
92011.2 635258.0 0
97784.1 634861.0 0
103205.0 636210.0 0
108588.0 634333.0 0
113952.0 634820.0 0
112254.0 638966.0 0
117319.0 638899.0 0
123894.0 636859.0 0
128141.0 638139.0 0
133571.0 636038.0 0
138575.0 634499.0 0
147031.0 634795.0 0
142945.0 638872.0 0
151466.0 634936.0 0
148039.0 638733.0 0
157411.0 635059.0 0
162930.0 638488.0 0
167734.0 634655.0 0
167352.0 639193.0 0
177926.0 634739.0 0
177548.0 638531.0 0
182508.0 639158.0 0
186766.0 638632.0 0
193326.0 634530.0 0
197790.0 639371.0 0
203475.0 638338.0 0
207341.0 635069.0 0
213252.0 639129.0 0
218086.0 638563.0 0
222103.0 638537.0 0
226541.0 634793.0 0
225910.0 639077.0 0
230899.0 639026.0 0
236688.0 639059.0 0
242517.0 638451.0 0
247256.0 634324.0 0
256703.0 638057.0 0
273309.0 634626.0 0
272406.0 639261.0 0
277752.0 634730.0 0
283212.0 638005.0 0
290958.0 635325.0 0
296061.0 635901.0 0
301126.0 638791.0 0
307520.0 639144.0 0
314977.0 635298.0 0
320038.0 635758.0 0
325572.0 635444.0 0
331274.0 634465.0 0
336037.0 635070.0 0
332179.0 639365.0 0
341944.0 635621.0 0
351329.0 635211.0 0
347156.0 637515.0 0
356250.0 637997.0 0
361360.0 635917.0 0
367851.0 634443.0 0
373014.0 637486.0 0
378825.0 634904.0 0
382435.0 638734.0 0
384974.0 634435.0 0
389845.0 635457.0 0
394741.0 634538.0 0
397563.0 639293.0 0
402501.0 638831.0 0
407173.0 636039.0 0
411614.0 639318.0 0
418152.0 634924.0 0
422698.0 638479.0 0
427251.0 635506.0 0
432571.0 638638.0 0
436362.0 634888.0 0
441403.0 634915.0 0
446062.0 636676.0 0
451469.0 635877.0 0
457330.0 635473.0 0
462112.0 634535.0 0
467376.0 635712.0 0
477790.0 638988.0 0
482884.0 638934.0 0
487496.0 635984.0 0
492474.0 639096.0 0
497910.0 635017.0 0
497409.0 639006.0 0
5513.92 640323.0 0
10553.2 639934.0 0
17102.0 640671.0 0
22581.6 640754.0 0
27799.7 639513.0 0
33291.1 640856.0 0
38710.3 641003.0 0
42823.1 642783.0 0
47151.5 639751.0 0
53063.2 640745.0 0
58241.4 640205.0 0
72798.1 639869.0 0
77431.2 639774.0 0
82585.3 640966.0 0
92599.8 640429.0 0
98306.2 640390.0 0
102958.0 640918.0 0
107351.0 639529.0 0
121418.0 640406.0 0
125476.0 641150.0 0
132019.0 641602.0 0
137304.0 639474.0 0
153300.0 640364.0 0
158549.0 640405.0 0
172156.0 639632.0 0
191009.0 640187.0 0
208224.0 639587.0 0
248074.0 639866.0 0
252469.0 639558.0 0
261168.0 640035.0 0
266722.0 639874.0 0
277885.0 639975.0 0
288496.0 639616.0 0
293416.0 640327.0 0
297321.0 641787.0 0
313468.0 640241.0 0
318556.0 640525.0 0
323117.0 639966.0 0
327413.0 640981.0 0
337493.0 640459.0 0
342751.0 641561.0 0
351744.0 640635.0 0
347175.0 641491.0 0
359349.0 641780.0 0
363839.0 640560.0 0
367856.0 639517.0 0
377170.0 640197.0 0
372508.0 641961.0 0
386621.0 639564.0 0
392389.0 639871.0 0
406589.0 641048.0 0
417317.0 640291.0 0
427669.0 640708.0 0
438071.0 639541.0 0
443224.0 640457.0 0
448231.0 640421.0 0
452852.0 641622.0 0
457380.0 640105.0 0
462260.0 639646.0 0
467097.0 641016.0 0
472290.0 640425.0 0
487940.0 641106.0 0
POINT_DATA 5000
SCALARS Radius float 1
LOOKUP_TABLE default
5120.0 5073.35 4133.88 4834.9 6044.04 5415.48 3863.18 6182.6 5840.26 6110.27 5670.04 6716.79 4665.12 4094.62 3850.77 5546.39 5325.36 5085.53 2356.98 5351.6 4998.37 5492.18 5258.36 5061.3 3642.12 3163.97 5812.43 5122.66 5906.14 5484.19 7513.1 5254.28 4436.4 5733.48 4672.91 5580.89 5645.7 5176.86 6810.52 3672.51 5561.06 3615.22 4380.59 7613.27 4951.03 4780.03 5495.39 3856.1 3383.4 3936.02 5980.74 4927.02 6483.19 5484.83 5945.65 5538.89 4730.36 4715.55 5867.73 5013.56 3951.75 4499.64 4375.68 5542.27 5054.98 6030.06 5170.02 3557.27 4927.31 4688.68 4402.52 4517.56 4182.53 5903.42 3588.44 3761.32 3955.56 4118.05 4366.19 5553.16 5065.13 2938.66 4940.78 4231.61 4008.92 3942.53 3379.84 4827.82 4805.87 3607.45 3589.27 5759.91 3038.33 4333.2 5529.52 4295.38 7199.21 6124.89 5252.48 3554.9 5708.81 4015.92 3996.0 4487.31 4044.71 5816.2 5109.54 4174.52 6759.9 7021.47 5416.38 6059.59 2720.68 4955.55 5701.86 4238.81 3563.63 4468.59 5885.03 2837.58 5325.02 5200.76 5017.13 4862.64 5185.34 4432.58 6684.56 3968.64 4688.67 2635.86 5292.64 6166.5 5305.17 5936.02 4290.3 4861.08 4003.05 4712.33 5227.21 3997.1 5697.78 3260.67 5123.52 4392.68 5615.42 5255.32 6037.08 4523.7 4382.74 4049.23 5337.48 3586.91 4929.8 5481.78 5542.21 5043.05 4002.16 5693.81 3829.13 3091.3 6230.49 5418.62 4601.27 5493.32 5926.61 5740.68 6051.14 5836.15 4345.55 3261.21 6704.06 3653.41 3871.88 3856.01 5246.2 4390.66 5279.39 3673.74 5205.43 4827.23 6116.18 7447.37 4924.6 4385.06 4733.32 7184.19 2924.37 2899.43 3867.67 5399.73 5390.22 3888.21 6038.78 6902.81 4667.36 4091.31 4254.17 6372.62 7565.34 5091.39 6756.95 6324.23 4329.05 4151.94 4685.34 5601.05 4651.28 4384.42 4516.43 3103.0 4948.92 5637.59 3115.91 3307.12 4937.14 5924.89 4778.34 4138.16 3486.22 4684.5 5789.98 6458.82 7054.71 5489.43 3641.64 4277.89 5747.75 5054.25 4195.44 4796.33 5539.32 5360.19 6496.85 5600.93 4874.39 5541.59 4124.71 5728.85 4911.47 5803.39 5863.59 4381.97 6257.19 3255.82 2812.98 5242.73 4065.69 5603.15 4695.45 4660.72 3921.18 5891.05 5308.1 6644.76 5629.19 5090.24 2240.39 5923.5 5096.78 4612.68 4129.43 5293.9 4727.24 3320.52 3843.58 4931.38 4736.58 6082.81 5110.37 5927.43 6355.42 4362.19 5690.56 3693.63 4493.48 6084.86 5478.92 5551.36 6894.71 4414.54 6138.47 6029.66 5527.54 5573.7 4727.62 4055.8 7325.81 5280.17 6425.26 4794.96 6186.19 4839.34 5083.08 6834.49 6337.56 5525.39 3998.5 4024.3 5938.34 6394.38 5555.28 4737.14 5169.36 4686.65 5556.96 6052.7 3798.62 5581.75 6392.01 3666.57 4907.89 4937.02 5655.21 4786.6 5740.84 5530.87 4973.83 4281.49 3912.37 6142.94 4194.5 4602.25 4270.53 5191.63 5344.25 4043.57 5379.87 4792.73 4501.51 3485.26 4556.36 3240.09 5664.98 3191.99 6327.9 4048.37 5492.26 5244.78 5762.84 3937.74 4749.8 5082.6 5810.84 5094.44 4230.54 4655.49 4467.94 4850.81 6038.14 2540.31 5120.49 6302.8 5262.61 5697.4 6038.2 4270.95 4005.44 5206.78 5555.88 6732.43 5143.58 4484.76 4840.01 2980.99 5611.2 7933.0 4455.12 5173.87 5380.13 5711.87 5118.27 4941.22 5932.23 5834.74 4479.66 5788.23 5367.2 3043.85 5461.13 6730.19 4907.06 3735.44 4073.93 5163.9 4645.41 4433.59 6445.94 4310.18 6342.25 4218.06 6691.39 4790.08 5082.47 4840.84 5344.0 4593.7 5681.38 4478.15 4138.42 5925.6 3708.04 6013.14 5513.6 4901.41 5138.31 5264.06 3688.8 4659.59 4548.16 5449.18 4220.88 6519.71 6640.13 5478.47 3748.24 6142.37 6061.47 4933.21 5375.47 4566.18 4723.12 4964.09 5201.36 4306.53 5024.9 5409.61 5094.81 5972.06 5713.22 5861.71 5028.96 3183.98 3794.63 3866.16 4524.28 6362.12 3778.1 5152.36 4511.82 5826.64 4220.65 6820.42 4816.2 4894.16 4896.52 3372.79 4751.02 5184.56 5282.64 5791.61 3369.13 4808.52 5607.24 4726.76 3599.45 5839.13 5495.68 5489.34 6043.3 5952.75 4320.28 5542.14 4931.53 7134.64 5480.13 5978.9 6308.71 3629.62 4187.56 4997.27 6045.46 5135.69 4301.06 4763.45 3815.26 4150.99 5445.87 4216.92 4107.03 3929.19 3771.48 4271.69 5198.77 5147.67 5987.17 3979.82 2765.2 5006.58 4602.86 4581.13 3369.23 4621.75 4551.24 5358.59 4515.71 5367.52 4322.15 3092.35 5210.03 4714.54 3320.11 5351.39 5119.37 3982.23 6163.38 3459.9 4997.27 4093.08 4809.42 4717.05 5659.17 6135.57 4312.67 5423.8 4359.04 4989.15 5017.78 5015.69 6175.81 4727.24 6677.09 6959.81 4829.35 5201.67 6321.41 4089.76 5526.55 3192.41 4987.87 4715.72 3315.57 4669.66 5804.71 4764.96 5046.33 4242.52 5053.92 6352.26 3847.38 4087.15 3818.59 4863.72 5002.48 5708.14 5537.72 4262.82 3920.42 6332.36 6122.55 2739.94 4223.33 5911.67 4716.19 5514.76 3456.98 4290.14 4020.32 4877.67 4704.72 4245.72 4177.94 4571.7 4344.58 4742.68 5634.83 5113.21 4502.5 5499.11 5922.5 3633.87 5643.58 3970.25 4850.01 5577.04 4292.06 5011.31 6318.18 4481.53 5586.81 3856.59 4219.07 5413.79 3610.4 6387.01 6202.55 5025.39 3629.96 5893.5 5030.91 6022.17 4583.31 4503.89 5806.08 4853.39 5243.29 4449.22 5543.27 5856.11 5287.2 4109.88 4234.94 5998.38 5013.13 4270.24 5080.66 3417.33 4926.42 4164.13 4642.34 4520.1 4947.52 5874.89 4305.57 4293.03 5813.4 4389.21 3791.79 4925.44 4424.7 4754.05 4951.47 6084.93 5215.15 4739.42 5020.12 5727.3 5281.28 5356.51 4277.88 3057.03 4758.21 4143.08 7500.97 6623.85 5102.36 8332.24 4342.9 6155.31 5329.64 3323.28 6695.82 6405.76 5835.78 6562.18 3498.2 3066.13 5908.1 4541.21 6048.7 5896.46 5495.84 4164.68 6268.1 7034.11 5782.6 4862.21 4527.08 5347.48 4810.12 2775.04 4138.46 5215.05 4986.77 3821.72 5137.34 5330.45 3948.17 5077.33 4746.52 5572.95 6338.89 5584.06 7111.16 3817.13 4547.19 5507.24 6851.54 5570.3 3813.22 4336.42 4306.11 7589.94 3130.65 5628.24 5004.67 5365.89 3327.49 3960.8 5992.26 4562.29 5070.39 4980.85 5714.58 5110.45 5208.32 5248.77 4083.97 4607.02 5153.74 3895.51 4528.09 4165.81 4128.98 6291.51 5882.89 6246.22 4188.32 5246.61 4307.28 4100.38 3697.96 4723.48 5538.93 4899.11 4745.45 2631.9 6255.18 4668.71 7228.46 3948.23 5228.18 5787.31 5065.11 4553.56 5069.84 4051.44 6049.55 5709.62 5941.72 5794.24 5105.16 4302.5 6006.16 4156.38 6009.88 5316.75 5022.8 7055.53 3784.5 6133.92 3719.84 4178.4 5934.22 5253.55 5820.48 6946.21 2586.12 6261.42 6125.34 4011.77 5965.78 4374.35 6396.74 6898.19 6035.6 5198.29 5423.0 3975.31 3689.45 5125.78 3824.16 3868.18 6723.16 5372.61 3686.21 6480.17 5023.15 4377.07 3844.9 3695.36 5101.59 3963.86 3848.93 6020.48 5935.47 3402.32 5903.66 4528.49 5419.37 4466.03 4511.54 5409.33 5196.0 4923.9 3329.99 4973.78 3947.47 3296.27 5091.68 4713.25 4204.84 6243.0 6673.96 3556.85 5441.96 3435.9 5174.89 4288.3 5370.52 4652.29 5774.81 3746.31 5344.77 5027.98 5097.87 5346.27 4278.07 7267.18 6256.02 2691.29 5320.92 5269.18 4406.1 6362.14 6719.88 5034.59 3927.99 5978.82 5266.5 5868.82 4066.38 4050.9 4978.31 4241.89 4099.77 5054.74 4981.9 4127.74 4537.32 2476.04 5991.09 4678.38 5448.61 5050.65 3937.08 4827.33 5513.57 5013.67 5729.23 5669.65 5826.04 3780.23 5624.49 3095.48 4861.06 3979.26 3471.03 6608.73 4359.62 3745.84 5011.84 6057.22 5062.71 5433.8 4497.59 5975.63 5252.34 2965.79 7099.43 5526.14 5315.4 6449.45 4044.45 5344.43 4373.47 5045.38 6034.41 5350.88 5130.91 5402.24 4519.22 6445.22 4564.34 4871.44 5076.35 6375.99 5200.05 5234.29 5313.66 2651.49 5512.23 5275.32 4898.94 4178.15 4613.31 4733.04 6119.09 5788.66 7531.29 5069.25 5048.89 5935.03 3161.47 3991.03 6390.78 7435.25 6826.57 4788.87 4495.87 6022.72 5498.32 5527.33 4643.31 6475.1 4969.21 4880.14 2845.98 5289.52 4982.31 5314.85 4305.43 5450.44 6510.17 4942.77 4263.33 5080.18 4454.63 4523.88 3279.1 4948.98 5227.52 4414.48 4729.43 5163.02 4656.78 4092.24 4562.74 5126.91 3942.07 5133.97 7443.72 5371.02 5260.34 5206.48 6586.45 5226.0 5339.78 4166.08 6481.79 5762.59 5320.28 4298.67 5960.66 4962.09 3999.48 4203.26 5188.81 4730.41 5696.88 5690.26 4156.2 4289.17 5564.02 4274.61 4410.55 6314.07 4287.63 5776.37 3627.82 4516.28 5678.96 5262.19 4244.9 6070.58 5022.28 5452.83 4959.34 4948.5 4527.02 4591.87 4531.14 4247.15 5013.42 3838.56 5651.07 6248.81 4602.85 5872.05 5273.35 4091.8 4645.58 5181.4 5985.29 4247.23 4268.65 4694.83 5509.42 4354.08 4256.43 5936.36 4520.62 3903.75 4755.47 4485.99 5127.16 5475.8 5314.69 6050.81 5543.46 4249.46 5965.81 3702.37 5660.85 2330.66 4177.19 6917.52 5402.21 4989.09 6718.19 4307.48 3848.54 5941.4 5331.02 4871.96 5742.65 5592.32 5381.16 5912.61 4403.98 4560.84 6086.96 5233.78 5776.57 7144.24 3600.43 6600.94 4788.58 6155.1 4709.35 5876.71 4373.3 4750.78 5029.78 3365.82 5374.51 4123.6 7092.87 5224.12 4970.88 4850.14 4471.58 4796.58 4569.12 6098.14 5873.69 6222.42 5654.31 5470.77 4643.85 3923.03 4004.04 6062.05 5607.14 5082.74 6915.83 5092.37 6072.45 4027.46 6444.77 5759.46 3921.08 4190.31 7055.42 5486.68 6048.86 5490.43 4285.32 4986.51 5197.52 5178.99 5383.07 5615.35 4790.78 6422.84 6552.22 5379.09 5210.48 4962.77 7552.94 4853.02 6259.23 5088.44 5670.2 4711.62 4662.56 4114.24 5349.31 4649.22 2976.22 5394.55 5094.52 4946.74 2682.24 5928.32 5229.48 5475.7 4016.18 5526.75 5435.74 4244.99 5327.45 5560.26 6185.89 3997.96 4750.17 3460.94 3990.25 6184.4 3691.0 3758.07 4752.51 3587.05 4236.14 6229.37 4407.87 5282.91 4425.84 3797.33 7256.35 4800.69 4863.23 3555.86 4402.67 4470.61 6386.78 5565.13 4631.83 6193.35 6887.27 3701.27 4806.34 5683.26 5598.74 4906.82 5131.24 5687.83 5004.23 5196.67 6442.69 6496.67 5474.8 4648.04 6262.72 4163.5 3664.11 4143.78 4538.95 5965.15 6739.08 4763.66 7042.12 4797.52 6326.39 6343.14 5501.93 3637.61 5463.38 4472.17 5945.21 5750.71 4938.74 3474.39 4200.03 4831.47 6939.12 4735.33 5411.85 4413.85 4844.57 4470.98 4864.22 3901.8 5511.88 5083.41 6248.6 3836.45 5683.61 5100.25 6894.26 5311.03 5339.38 5255.12 6169.11 4896.11 4027.09 4135.62 4502.18 5801.99 5534.94 7644.38 4051.34 6101.92 3627.55 5323.3 4635.6 4998.21 4256.67 3457.48 5166.79 3931.07 3405.98 5417.15 3688.16 4681.72 4945.39 5996.33 3950.63 5415.19 4612.62 3619.07 4275.57 4467.04 6385.23 2983.99 2614.4 6363.92 6205.93 4439.35 5830.72 3828.81 4373.45 4082.57 5733.62 5169.9 5282.51 3004.16 4460.92 5945.89 4042.28 4105.55 6566.1 6065.22 4221.28 4996.99 4896.39 4384.88 6081.14 5480.83 6008.49 4220.46 5653.9 5046.21 4929.14 5894.61 5139.5 7493.3 4814.55 6320.71 5833.06 3527.05 6607.87 6515.84 5117.47 5724.64 2990.77 4925.63 4888.6 4666.81 5078.86 5163.55 4780.2 4819.73 6817.32 6263.44 4319.79 5960.56 6643.85 5774.97 4020.95 5462.21 6313.06 6345.13 3493.7 6470.3 4719.7 5516.95 4406.4 5313.22 3905.51 3999.94 6171.13 2395.5 3497.9 5941.61 4512.11 4933.65 6098.1 5443.58 4558.46 5805.86 4049.02 5346.68 4470.4 5296.29 4611.53 2681.29 5094.48 4285.66 4238.4 5172.53 4318.48 6132.95 5266.22 4860.33 3685.13 3312.06 6004.68 6799.4 6239.84 5865.39 6079.11 3082.32 6430.39 7440.72 3949.6 5703.6 6326.18 5661.62 6631.19 6648.68 4713.74 5626.61 5817.25 5407.78 4084.49 5061.98 6632.99 4537.6 4923.24 5147.36 4419.61 7177.44 5309.98 4563.46 6553.94 5255.18 5460.65 4767.78 5235.17 4779.5 4421.12 4340.76 4435.36 5254.49 6649.96 4456.39 5514.84 3633.79 3914.2 5421.53 4607.85 5612.21 4287.53 5128.57 6000.7 5945.08 3169.67 3979.54 4968.03 5304.13 5944.09 4863.79 4702.06 5698.77 3464.83 2477.07 4497.31 3163.78 4721.32 4305.16 3293.56 5882.65 4739.14 4918.77 4636.5 5100.1 4940.42 3382.7 3954.91 6471.55 5085.71 5923.4 3295.83 2965.01 5644.82 6413.02 4863.27 4118.84 5122.63 5862.86 6766.43 6049.79 5374.98 5226.56 5274.19 5599.49 4097.57 5017.5 5563.79 6853.85 4151.76 4020.4 3493.47 4721.02 4596.75 4254.37 5782.48 4031.78 5708.99 5687.85 6401.43 5020.71 5997.88 5839.71 3872.61 5576.92 6408.83 3930.79 4004.35 5226.97 5754.18 5180.76 3361.26 4480.95 3418.99 5278.36 4409.63 5521.25 4427.28 5370.85 3661.9 5949.46 3658.37 3178.54 4765.02 5376.71 4448.13 5070.29 4807.28 2261.36 4867.08 4266.03 5280.69 4220.03 6923.84 5449.46 6179.96 6113.54 4662.43 6260.79 3963.76 5528.53 6799.88 5726.66 5652.0 5426.78 5463.41 5225.33 4929.75 6045.22 4614.3 4303.19 5134.39 5784.3 4256.57 6088.68 5937.08 4135.08 6070.3 5620.74 5233.29 5604.21 4312.56 4612.06 5204.04 3361.92 3306.14 5490.58 5395.14 4923.41 3967.48 6213.04 3830.46 6413.11 5092.28 5529.42 5274.14 4434.19 4903.82 5746.28 3703.1 4371.99 4946.42 6090.91 3561.29 4219.78 4963.34 5081.78 4188.3 5019.93 4459.28 5235.29 4260.92 5499.39 4479.94 6250.23 4407.9 3492.19 4440.57 4584.5 6235.57 5548.29 3623.87 2315.64 5916.16 4703.08 6934.37 4390.41 4890.5 6113.95 3731.84 4050.08 3981.07 4901.07 5452.42 5186.3 5328.22 3436.15 4216.17 6484.17 4938.72 3546.71 3374.08 5768.57 5564.23 3735.24 5950.04 4231.83 6574.95 2435.33 4074.48 6333.29 4558.47 5731.57 5662.55 5737.92 4360.23 5365.24 5293.51 4763.96 5008.63 5132.68 6595.03 4993.35 6218.95 5222.16 5107.23 5136.08 5558.68 3776.94 4010.57 5629.39 2684.03 6157.04 4768.61 5075.55 4522.21 5506.19 6719.94 4950.67 5227.59 6166.29 5453.6 5703.07 5294.77 4709.05 4630.82 4043.66 4813.08 5860.67 3062.43 4540.86 5990.52 4835.83 2967.38 4159.35 5604.35 6477.91 4237.98 3091.67 6439.37 4081.97 5401.99 5580.92 3532.3 5769.98 5442.32 2221.99 4643.56 4863.01 5356.79 4778.82 6124.08 5467.84 4750.58 5053.95 6710.88 6667.68 5235.11 5211.38 6031.67 5384.76 6138.12 5257.12 4428.78 4965.89 5187.7 5659.95 4082.47 4152.85 4623.61 5511.6 4453.64 3885.86 6261.75 5177.64 4517.73 4338.08 5660.16 4255.31 4541.8 6116.33 6134.99 5453.3 4718.54 3838.47 2588.37 6736.03 5203.08 5412.31 3087.09 5374.07 7480.41 5163.77 3423.15 6027.62 4488.85 4579.69 3554.48 6496.52 5005.85 5711.11 4575.94 5325.44 5021.88 5956.65 4498.25 4188.87 5151.21 5398.64 6817.57 3614.96 4477.04 3886.68 5703.74 4747.55 3056.7 3755.95 6234.32 5591.76 4586.19 4585.31 6625.18 4446.06 5323.91 3450.93 4270.74 5097.45 6293.89 5737.75 4558.15 2761.07 4983.39 5366.52 4690.55 5533.72 5533.42 4802.32 3678.08 4599.38 5246.47 4187.31 6191.29 7422.36 3240.51 5161.01 4298.15 4628.4 5832.37 6051.83 4642.93 5409.63 3973.12 4263.16 3077.84 6024.75 6109.49 5567.93 5987.42 5332.65 3764.1 6451.33 6316.56 4332.87 6420.81 4715.58 3317.83 4450.7 5151.52 5973.33 3583.21 4347.74 5291.9 5067.46 4009.62 3580.58 2511.46 4011.37 2775.69 5657.36 6519.43 3619.79 5876.64 5029.47 6306.21 5926.11 5253.37 5767.9 6515.8 6622.11 4689.15 3685.13 6790.73 4655.16 5243.43 4741.26 5409.66 5920.32 4537.14 4186.6 5251.4 5551.9 3867.19 4345.67 4765.72 2908.7 3757.34 6415.61 4642.66 4752.14 5276.7 4378.3 4687.64 4419.71 4888.12 4950.97 5037.06 4989.56 5175.29 5842.56 4094.73 5191.08 4062.5 5887.15 4435.51 5415.85 8659.64 4588.7 5683.95 3766.55 5469.13 5765.42 5010.2 6098.95 6123.03 5966.61 4997.83 4893.49 4388.63 4834.87 5102.75 4597.29 4200.09 5931.77 5097.95 5108.06 3573.73 4693.52 6853.04 3420.08 4745.43 5831.96 4912.04 5464.68 2685.81 4510.8 5889.35 5010.04 4570.98 4275.07 5825.38 4185.61 4047.87 5742.47 3778.02 6552.21 5417.8 5146.37 7132.12 4836.16 5518.57 5151.11 5463.48 5730.33 5545.46 4527.99 4376.7 4543.1 5190.61 8325.01 4440.81 3764.06 5941.9 5434.47 6642.76 5829.22 4497.78 4243.79 5811.18 5433.65 4442.22 4887.76 5413.31 4669.06 3012.99 6400.08 4743.59 5208.14 4396.25 3763.05 5092.24 5369.08 3101.75 4518.04 4766.06 4874.18 2081.58 6505.78 4785.25 5461.55 4270.15 6865.76 5424.46 5266.01 4908.49 2978.76 2040.66 7016.27 5884.9 5089.62 4590.55 3685.65 3876.21 5869.4 4916.22 3701.16 6022.7 4255.85 5097.69 5857.79 3988.3 4039.91 6136.49 6543.13 5149.72 5036.58 5469.47 5329.59 6119.63 5464.25 5411.02 4244.21 4752.9 5512.16 3197.63 5301.47 4287.16 4863.96 4617.55 3645.12 5199.44 6200.54 5424.88 5148.58 4199.45 6599.66 4055.54 6419.12 4233.8 4976.12 4817.16 5453.98 3991.42 5148.08 3718.69 4514.79 3672.21 2216.82 5760.22 4509.89 5938.17 4795.43 5269.38 5607.3 2928.82 4914.45 4222.4 4698.87 4000.43 4661.03 4568.41 3624.7 5262.35 4691.91 4539.07 4255.34 4475.83 5064.79 5480.3 7509.24 4394.56 5896.26 5388.78 6101.13 4573.72 5099.21 4917.99 5636.4 4367.78 4350.12 5227.02 5670.0 4232.16 5300.96 4344.51 5680.94 3781.77 5581.55 5193.01 3474.5 6550.44 3860.83 6348.03 5732.27 4523.39 5278.56 5146.37 6917.62 5631.14 4013.38 4343.78 5263.3 4909.65 4008.15 6523.86 7693.4 4811.32 4286.49 4326.48 6184.88 5829.32 6405.0 5551.95 3918.87 5549.49 4633.05 5423.42 6605.86 5012.5 5435.19 3562.79 7093.13 3298.2 4953.1 6449.64 4857.84 6464.8 4962.21 4684.44 4749.59 4858.44 3468.42 5799.69 4673.35 5689.26 4992.42 5297.19 4940.84 4732.09 5895.77 5750.07 4833.46 5933.7 4809.67 4356.25 4757.74 5776.96 4216.95 4209.49 5742.74 3946.28 3821.94 5984.81 5439.9 3498.16 5486.48 5367.73 4409.27 4947.24 3875.05 3456.47 3540.11 5471.74 4344.34 4652.01 3548.39 5421.64 3673.28 7234.66 4858.51 4207.54 3375.28 4886.12 5625.65 4301.61 6107.89 4446.84 5530.49 5660.55 4304.41 5653.03 6192.0 4940.28 5885.28 6752.75 3004.34 5323.55 3022.6 5375.1 4811.76 5313.12 5351.56 3984.88 5160.59 4732.09 4320.42 7165.9 5344.83 7046.11 3427.63 4146.81 6342.48 5756.75 4587.67 5599.7 4163.74 6969.28 3665.95 5698.96 4095.75 3603.51 4298.45 5222.51 6609.84 5135.96 3834.43 5658.37 4707.06 6074.94 5491.37 4250.88 3783.54 3475.67 4792.39 7038.89 3863.67 4814.12 5067.56 6137.8 3352.35 2735.53 3747.03 5116.6 2783.85 4356.49 3994.07 4437.07 4219.94 3449.37 5491.9 5907.46 4264.91 4659.16 5789.55 5399.29 2275.45 4909.31 4901.2 5711.62 4383.56 4990.79 5166.79 4516.53 2895.63 5818.95 4093.99 3940.49 3604.14 4452.54 4406.05 4680.94 5828.35 5571.72 5876.72 3809.69 5236.43 4771.13 3208.96 5285.07 7051.9 4608.41 4184.23 4144.57 4351.38 5550.75 6834.41 7248.4 6045.67 5466.33 5280.12 4444.97 5721.05 4209.31 4247.69 4640.06 4514.39 4588.99 6242.79 4321.21 5950.45 5713.03 5849.65 3583.49 4928.27 5052.84 4366.74 5297.16 4936.96 4481.76 3184.64 5206.33 5452.78 5065.26 4892.44 5578.94 7610.49 4286.17 6579.31 6028.09 5452.36 3804.5 4172.6 5498.42 3344.57 4196.37 5318.53 5220.76 4281.98 5138.2 5783.48 4449.98 4863.97 4771.65 4840.44 5093.82 5951.81 3924.14 6918.35 4296.69 6238.32 3319.67 6804.79 6471.42 5283.8 5369.5 4076.59 4428.14 5164.1 6464.15 4479.11 4972.17 6685.4 5699.53 4222.77 6332.01 5268.38 5527.23 4805.33 7085.01 5980.95 6193.08 6069.3 5887.01 5168.35 5388.39 3728.18 5335.47 4526.81 5633.61 5048.19 4888.27 6740.71 6487.56 4854.11 5971.22 5533.19 6522.59 6602.43 4798.17 3568.28 5425.98 6479.39 4122.92 4405.42 4997.91 5079.22 4599.81 5381.54 5810.77 5089.1 4714.83 2711.19 4028.32 7519.2 4099.92 4884.59 6355.68 3858.06 4478.6 4680.14 4511.7 4083.79 4187.94 4304.63 5980.59 5263.27 6300.92 5021.77 3796.15 6226.14 4173.54 4801.8 7216.98 3000.29 5046.12 5271.02 7013.17 5718.28 3805.67 4601.74 6101.86 6506.86 5088.57 5993.0 5580.34 3852.6 5134.67 5775.31 4165.21 4215.0 3332.49 4603.5 4647.67 4214.44 5375.12 4787.97 4356.36 4981.43 3746.36 6789.23 3989.7 4777.03 4246.61 3684.56 6813.72 5327.75 4609.02 6486.37 4638.18 5211.6 6448.66 4453.97 6945.98 4701.5 6412.67 7001.83 4504.35 5012.97 5589.37 5439.49 6639.64 5212.43 4834.3 5454.12 6348.54 4066.57 5642.35 6372.13 5404.01 6016.19 4124.49 3230.13 5714.25 6176.67 5325.96 4850.06 5016.02 7044.29 4234.18 4920.21 4049.16 3936.95 6153.94 6836.82 3862.77 3858.17 4631.99 4740.98 3185.39 5934.82 5128.77 7122.87 4243.26 6799.23 5119.86 4592.15 5084.17 4901.44 3776.8 4998.22 5417.21 6104.26 5583.61 6063.64 5996.66 7382.3 2995.67 4022.56 3598.08 5522.21 5698.23 7300.58 3608.06 5474.15 4923.57 6633.61 5217.95 4867.7 5484.36 3953.55 4063.9 4469.54 4314.56 5161.1 3928.53 4619.2 5606.51 5599.29 5166.41 5740.65 6038.68 5067.56 3834.47 4807.4 6329.53 4590.01 6541.45 4750.49 4227.41 5078.31 5391.48 4803.57 4923.43 5966.42 4110.59 4847.14 4706.5 3950.27 5354.66 5116.66 3566.79 5378.23 5374.67 6246.56 4741.28 4061.6 4215.2 2603.64 5069.89 5107.0 4157.29 6212.15 4783.07 4896.65 4946.23 4852.58 6083.28 6100.73 5806.31 3556.79 5456.71 3503.41 7317.04 4908.75 3971.08 6204.65 4482.9 4593.7 4036.91 5110.11 6379.14 3687.65 5216.26 4887.52 5478.95 3851.85 6318.23 4206.98 5156.76 6357.47 6101.57 4891.38 5535.91 2949.12 5955.86 4532.89 4533.37 4848.46 5412.24 2779.99 5887.38 4581.37 6942.34 5851.61 5478.11 5526.31 5030.15 3644.78 3477.1 4078.93 4501.78 4922.49 3572.94 5797.36 5001.58 4153.84 4820.17 4729.42 5089.26 3886.72 5415.45 6592.93 5096.43 6156.21 6436.74 2460.79 4653.83 6171.71 4986.71 3628.89 6589.82 4668.88 5027.43 3772.3 4855.01 5522.75 5867.64 6208.9 3340.09 6059.93 5602.53 6061.63 2279.05 4829.35 4075.28 4277.24 4989.2 8137.11 5291.05 6650.77 4067.96 4824.12 7104.73 2596.96 6162.3 6349.67 4350.15 4264.54 4139.3 3516.27 5261.19 4263.78 4643.9 5228.75 6047.14 5131.15 5009.83 5666.95 5210.38 5717.8 4811.22 3629.44 3683.86 5003.78 4918.76 5293.75 3299.24 4208.41 5826.78 5473.72 2856.55 2205.51 4553.68 5361.87 6502.97 3758.22 4757.2 4374.74 3205.68 4532.7 5561.74 5975.23 4788.08 4745.79 4198.94 5470.04 4211.82 6556.26 5684.25 5438.92 6550.4 4349.13 3766.69 4891.67 6818.91 3634.5 3503.65 6631.28 6571.31 4392.65 4058.87 5174.75 5932.07 4984.46 5948.71 4793.65 3856.53 5460.89 6040.74 5260.85 5742.09 2884.65 5807.46 4648.21 4393.16 3658.05 3311.29 4549.69 6423.81 6192.77 4312.15 6418.11 6015.02 5244.22 5585.14 7039.98 4159.81 5244.98 5792.98 4385.81 4034.05 6350.71 3862.91 4456.11 5096.24 5039.12 3908.98 6328.42 7307.21 3381.82 3619.72 4646.51 4438.58 4565.93 7107.63 5073.02 6545.43 3472.91 6760.92 5868.89 4711.04 5484.32 7144.05 4506.18 2970.9 4099.26 6542.5 4383.47 5971.21 5701.75 3272.75 5262.47 3104.96 3512.94 7043.44 4263.65 3831.52 4258.98 6106.43 4807.35 5467.63 4568.64 3919.62 4642.2 4127.53 5750.35 5210.75 4474.83 6555.44 5658.14 5730.61 4508.18 6214.73 5175.89 3894.64 4268.19 3703.49 5232.85 4062.56 6200.63 4504.86 4473.29 3217.67 5079.64 6163.54 5212.37 6003.78 2628.22 4244.49 5058.51 5036.98 5513.8 4521.75 4027.63 5569.2 5350.88 5420.67 6413.15 6103.11 5048.55 6459.51 4024.31 4955.16 5844.72 3992.97 4147.31 5989.05 4054.22 7228.94 5393.65 4961.99 6551.93 4595.12 3110.13 6484.43 4625.67 3485.54 4458.64 4583.52 3657.69 3492.83 6280.13 3684.15 5832.29 4438.76 6006.89 6456.58 3965.3 3814.65 4960.64 4983.3 7778.01 5690.96 5798.38 5805.1 4125.9 5366.11 3419.87 4234.88 4824.81 4384.28 5769.14 5944.3 3563.14 5135.5 5347.9 5851.63 4504.52 5212.92 4831.93 5788.97 4928.85 4023.93 6440.38 5556.0 3274.85 5007.21 5494.28 5610.53 5206.47 4580.06 4834.39 4835.97 3926.11 5493.89 7066.96 4467.0 4991.35 4587.7 5196.92 3787.08 5644.81 6761.81 5334.36 3903.91 4728.55 4929.6 4368.28 4489.99 4692.32 4548.45 4658.11 4551.26 5114.07 4385.49 7124.45 6358.93 5064.67 6618.21 2617.39 3717.47 5144.44 4051.18 5969.37 6816.66 5034.69 996.652 4509.46 4680.69 6500.49 5965.58 3352.34 4901.29 4775.04 4050.03 4120.07 5188.53 4882.66 3429.57 5410.33 4642.74 6735.97 5305.59 5416.45 4330.58 5754.6 3288.01 4904.51 2202.77 5751.15 5950.88 4149.55 4441.22 5853.89 3380.69 4140.4 4386.8 5446.4 4725.01 5966.75 5510.9 4505.28 4883.63 4971.29 5510.45 4730.14 2606.51 3994.39 3864.92 6119.99 4618.73 4128.1 3668.93 5372.82 4402.17 5401.4 5127.82 5124.17 6239.68 7320.78 4064.58 4834.44 5782.43 4456.26 5113.6 3873.92 4810.98 5091.22 6282.38 5640.72 4546.44 5657.55 5727.79 5188.82 5615.84 5043.14 4464.73 4717.73 3904.07 5748.9 5545.59 3663.0 4954.81 6304.49 5755.15 4608.34 6419.64 4057.17 2781.96 5414.58 4431.23 4994.65 5917.34 5601.55 4462.87 4013.86 6545.99 5630.9 4554.68 4512.07 4945.0 5984.8 3127.83 4212.15 5678.58 6570.35 4263.18 7142.95 4383.68 4559.74 5836.26 6666.67 6063.44 4583.94 5046.31 4928.35 1937.5 3844.54 5849.53 4651.99 3538.53 4420.11 5863.0 6127.39 4972.18 4607.18 4124.76 3899.7 7200.89 4813.33 4952.52 3840.21 6746.66 4081.34 4954.76 3908.56 4844.83 5244.78 3636.15 6114.89 5135.63 6384.7 4355.83 6870.97 5351.86 6056.87 5474.01 6201.86 7554.58 5166.89 3639.44 5491.63 5725.37 3868.62 5138.33 3743.76 3425.69 5153.18 6711.21 4236.86 5393.76 4941.02 4983.1 2955.36 7123.04 4009.24 4446.58 7541.76 4775.49 5053.15 4681.29 5910.86 3220.29 3845.9 4141.21 4439.71 5667.51 4708.31 4027.33 5026.76 5431.29 5023.41 4833.67 4092.07 4213.05 4224.3 4184.21 4700.07 5273.37 4732.37 4985.3 5072.5 5713.36 4749.18 5553.94 3742.31 4316.0 4546.96 5424.55 5134.72 5695.79 5464.83 3622.8 4770.51 5577.41 6511.37 5740.98 4012.92 4346.07 5759.79 4177.47 4218.16 2918.64 4140.92 4896.43 5463.06 5236.24 4639.8 4585.04 5260.52 3185.09 5114.23 4242.63 3269.54 7407.91 6015.22 4454.74 2904.46 4826.52 5120.92 4337.32 5241.75 4731.53 3763.9 4788.7 5084.5 5640.12 5329.76 2403.72 5078.59 5134.33 4147.49 4802.98 4833.55 3646.95 7224.99 6334.53 4749.96 5377.37 5652.87 5483.7 5018.69 3152.86 5952.38 3896.27 5807.52 5963.36 5230.02 5307.35 4342.18 5169.48 6016.08 4731.21 3124.7 6064.71 6102.98 6060.17 4763.4 5902.67 5454.11 3779.45 5806.61 5784.37 6010.59 3682.35 3756.96 5906.57 4932.29 4990.23 3784.94 5499.59 5749.6 3125.13 6715.73 4174.44 4564.41 6331.74 4198.9 5951.86 4252.18 4659.88 5325.91 3791.41 5853.12 5157.38 6203.03 5235.87 6089.45 5810.17 4966.07 5265.21 4657.24 4400.14 3669.32 4704.92 4762.1 3987.69 4287.25 4392.75 4921.1 3814.16 4271.07 4420.6 5287.25 4475.38 4589.06 4920.88 4184.47 4216.44 3999.5 5034.05 4598.54 5218.42 5345.73 4816.51 4933.49 4770.63 6139.64 3990.94 4756.8 5477.8 4462.35 3986.41 4241.68 6102.49 3469.18 5495.0 2945.34 4489.29 4301.93 5064.23 6061.85 5512.44 6449.06 4924.07 4685.4 6240.42 5146.0 5721.14 4577.73 4918.64 4987.28 6638.25 4759.99 2646.13 5419.57 5162.67 5760.98 4705.68 5469.35 5384.86 4019.34 4658.24 5869.67 4311.48 4899.73 5457.66 6394.19 5973.89 5366.22 6193.73 5518.11 5087.14 3742.11 5712.35 5701.52 4743.9 6776.22 5321.17 3719.11 4467.13 3877.8 6273.6 5136.87 3667.93 5024.32 4708.17 2741.2 5790.42 3142.09 5591.77 5182.13 6110.48 6245.52 3954.77 6793.1 6016.87 4506.66 5209.55 5426.4 5763.05 5129.68 5357.39 5076.84 5247.01 4208.37 5702.4 4841.7 5069.9 5473.89 952.938 4678.7 3306.84 3673.6 3450.07 6215.87 5191.26 5866.42 5544.27 3484.81 6502.99 4666.12 6219.34 4191.01 5674.63 5340.05 5995.4 5890.25 5700.79 6710.14 4726.2 4426.02 4711.15 5188.22 4841.23 4357.11 2804.54 5005.6 4176.32 6069.78 5532.75 6949.65 3372.95 4095.83 5695.25 5676.61 5846.95 5268.15 5819.0 6347.72 3460.93 3200.6 4629.02 5124.86 5914.5 6006.16 4288.45 5407.96 6206.98 6562.03 4815.47 4368.12 4365.58 5214.4 4636.53 3629.49 5766.05 5117.64 3835.81 4869.48 3623.19 4906.11 4387.39 4564.1 5825.55 5509.51 4848.14 4316.5 3199.4 5254.24 4192.21 4914.03 3597.43 5144.56 4158.91 5311.55 3360.86 3034.16 4869.25 5545.21 4333.87 5684.05 5638.7 5813.79 4644.88 5293.13 4028.22 7350.26 3768.46 5167.53 5003.3 4168.52 5800.81 5106.46 4068.31 5166.05 5077.29 5515.73 4850.5 5866.91 6405.69 2820.07 5679.74 4825.73 5288.33 6296.54 5797.21 5685.74 6740.35 6028.63 4550.92 6485.77 6060.06 5960.5 5308.33 5393.43 6896.55 4685.65 6023.07 6470.23 6506.63 4140.04 5322.11 3495.3 4697.49 5735.08 4750.81 3825.48 4658.59 3810.68 4196.62 2809.19 4916.7 5486.89 7208.19 4549.51 3587.93 4975.85 5323.95 6171.01 5716.42 5701.63 4620.95 5368.93 4488.39 4927.73 4602.57 3565.32 4608.62 4071.75 4626.72 5131.77 5549.71 4410.82 4967.51 6443.99 3889.98 5193.58 5399.43 5695.44 3422.21 3916.42 5429.3 5510.96 6653.07 4745.16 4697.91 4584.81 5071.98 5719.79 4371.08 7261.51 4968.14 5086.29 4312.48 5527.13 5139.18 5551.43 4278.57 6318.25 5049.99 4201.03 5001.87 4493.79 4279.44 4899.19 5058.34 3918.94 5575.11 5487.63 3852.82 4507.36 7145.73 5403.97 4795.08 6562.92 5501.73 3671.06 3612.44 4697.24 7035.54 5233.76 4683.28 4217.36 6549.8 4851.18 4165.36 5368.52 4871.77 5811.26 5062.77 6019.35 6075.99 5262.79 5927.2 5146.1 4419.79 5407.69 3869.39 5152.78 4117.9 4753.76 4638.09 5377.01 5330.26 5939.22 4668.8 5125.17 4859.01 5524.45 7133.44 3953.26 4474.39 5459.92 6478.35 5453.77 4104.04 5589.53 5593.79 5025.42 5196.08 4517.29 4495.75 4849.5 5796.26 4603.04 4870.94 5271.88 6121.56 5559.79 7168.2 3763.85 4571.74 3419.07 4096.86 5710.33 5001.51 5344.44 6432.8 3186.07 5115.42 4369.86 5173.82 5482.76 7212.97 5490.64 5034.34 4507.46 3769.2 5036.14 5603.68 4944.51 5610.95 5532.72 3220.8 5042.75 5179.17 5579.39 5270.51 5148.1 5490.75 5224.64 5949.73 5783.94 6370.33 5081.08 4202.77 6864.06 6008.81 4932.56 5192.49 3487.31 6643.4 4674.9 5461.72 6599.28 6224.85 4556.19 5368.66 5648.78 6875.73 5226.42 4983.43 6081.3 5117.52 6311.89 6734.39 5942.45 4150.76 5005.72 5155.28 5388.73 4884.93 5205.38 4600.71 3957.38 4494.15 5035.71 4710.88 5300.17 4057.4 5534.23 4781.9 4441.91 6815.96 5339.6 5828.25 4725.11 4215.05 3626.86 4271.93 4604.1 5076.11 5990.75 5600.21 5467.51 4625.53 4096.47 5114.67 3543.37 5353.66 2638.82 5030.33 5234.2 4965.24 6379.38 6257.79 5353.23 6229.83 4468.26 5578.18 5293.37 5933.54 5879.24 5740.78 4796.12 3622.48 5385.86 4082.4 3745.02 4930.72 3720.7 4211.36 4887.73 5698.53 3604.31 4450.49 3856.73 3468.45 5887.71 5635.32 4526.34 4827.61 4316.45 5409.08 5481.64 4598.92 5241.22 6647.08 4979.52 3422.29 4407.79 5214.63 3495.68 5352.24 3990.96 7362.42 5793.12 5836.14 5473.05 5537.34 4373.2 5884.99 5726.42 7025.09 4433.12 2549.95 3392.26 4361.24 5138.93 6406.8 7086.69 6170.9 5833.78 4436.48 5615.35 3967.76 6213.24 5987.88 4228.53 3579.59 6123.46 6142.88 4461.14 5111.26 4574.54 4949.55 4764.83 1969.87 3132.34 4841.28 5507.38 6889.5 4416.87 4052.43 4896.67 3934.11 6025.77 4466.22 6153.71 5917.08 5483.37 5418.12 6371.96 5322.07 5770.07 5101.6 4282.11 4656.01 6589.13 2347.41 4542.16 5602.62 2030.03 5628.97 5527.27 5104.39 4612.13 5846.6 5327.05 5438.55 4434.65 5977.66 4523.81 5106.33 5065.74 5198.94 4028.35 5464.05 2980.31 5453.2 3148.79 5997.91 6824.53 4332.64 4742.82 6791.86 4820.68 4209.0 5728.58 6297.99 5378.24 4538.89 5817.74 5661.6 5285.75 5385.03 5673.75 5360.67 5968.54 6263.3 4501.05 4537.03 6548.29 4114.2 4326.06 5034.46 5757.29 5469.17 5061.75 3769.24 6022.78 4087.32 6647.85 2569.12 4161.32 5161.74 7336.37 5099.9 6945.69 5118.86 4183.4 4304.64 4733.79 4823.06 5758.98 5254.49 5288.64 6828.8 6883.86 6161.94 5057.59 4065.28 5285.6 5418.98 5615.06 5490.54 5203.54 4047.95 6142.94 5001.69 6581.56 3980.46 4061.87 5383.9 5158.44 3798.09 3886.56 4496.51 4511.05 6561.94 5259.21 5092.93 5934.05 4714.66 2803.01 6771.18 4984.17 5327.39 5781.62 4037.86 4138.59 5714.51 4484.78 4938.33 5157.73 4621.33 5847.91 4934.66 4984.01 4109.44 4903.84 4290.49 6688.53 5209.5 6175.27 5791.25 4873.23 6731.89 5410.6 4733.41 6348.93 5264.83 4422.23 5232.16 6031.22 3989.26 5485.84 3618.64 6424.77 5453.69 5918.95 5432.04 5689.56 6556.86 3242.31 6099.28 3234.26 5372.25 4169.15 4778.37 3494.16 5134.17 4074.16 4904.35 5592.54 3247.97 5390.33 5124.34 4904.37 4358.81 4651.64 5729.92 5016.46 4179.87 6224.13 4761.84 3661.67 5517.65 4009.68 4622.73 3303.49 5256.75 6351.89 5932.28 2960.5 4298.7 4975.32 3902.48 3909.94 6030.39 4905.53 3799.01 7392.65 3757.23 5319.1 4181.93 6570.43 3350.99 3820.19 4979.5 4745.37 5939.29 6200.05 5575.11 4052.49 5061.74 5326.03 6189.67 4948.96 5256.82 4013.86 5165.31 4288.5 4585.37 5715.51 3721.69 3456.3 6074.39 5317.83 4256.08 5881.93 4444.0 4399.52 4554.24 6182.19 7415.84 4981.81 5141.03 4970.55 8123.59 5765.14 4541.22 4946.08 3539.68 6217.33 4696.03 4557.1 6270.59 5927.1 5876.51 4103.76 2932.52 4286.61 4603.66 3901.53 4969.68 5136.51 5431.14 6815.51 5313.86 4457.05 5189.91 5777.26 5703.84 4335.79 3530.82 5797.32 4886.99 3921.27 3702.45 3161.1 5265.63 4898.29 4431.06 5730.2 4830.13 5620.88 5370.9 4529.77 4325.13 6172.27 3783.79 5078.73 5278.54 4248.14 5729.0 5279.19 5192.92 5275.57 4786.66 5891.25 5370.1 5095.52 5129.4 5114.51 3720.38 4655.37 5585.25 5023.61 4672.86 6530.78 5560.23 3043.77 4139.39 5237.55 6264.03 5088.64 6589.8 6920.92 3729.16 3038.91 3783.36 4067.89 3922.28 4571.57 3445.92 5236.69 4586.82 6026.04 3133.28 5859.17 4034.41 5522.34 5771.98 4420.35 5717.45 5117.83 5268.27 4645.93 5448.64 6417.61 5395.12 5783.69 5350.9 3483.61 6738.9 4460.89 4157.1 3939.96 5910.66 4637.3 5734.07 4840.44 3997.68 4819.83 4767.54 4801.16 5121.08 2927.84 6177.68 5688.77 4698.7 4605.39 2848.44 6045.26 6500.45 4907.55 4094.63 5084.76 4757.87 6636.43 6298.8 3689.24 5178.07 5151.19 4171.02 7012.36 5028.06 4002.99 5587.3 5159.67 4864.38 5764.52 5684.88 6523.78 4645.86 4045.67 6005.95 4941.52 5900.0 4262.74 4581.1 6241.77 5317.19 4016.6 5821.49 7050.08 5580.44 5998.13 4746.15 4758.84 4731.37 4452.36 4068.41 3976.0 6463.71 5059.37 5783.38 5645.54 3562.8 4151.74 4526.87 5192.82 5245.95 4174.22 3573.84 6294.09 5131.07 4121.07 2970.24 4197.87 5524.28 5105.54 5731.43 6353.81 3518.14 4150.44 5044.68 2649.69 5899.78 5000.74 5772.57 4813.81 5244.95 4634.25 5901.8 6351.48 3830.7 6210.0 5432.4 4262.52 5992.06 8052.53 4867.12 6044.01 6520.19 1458.87 5973.57 6241.48 6033.28 6286.27 5071.38 5616.66 4802.36 5368.28 5466.13 6229.64 4220.43 6263.87 5743.8 6666.34 4645.91 6605.11 6834.92 3557.46 5971.95 5652.73 3979.46 5402.45 6321.97 6412.84 6509.54 6119.0 3792.06 4293.3 5128.59 5310.33 3572.73 6583.37 3770.22 4390.64 5150.84 4608.01 5087.97 4308.49 4519.03 4930.17 5110.27 4745.44 4085.96 5762.82 7360.12 6223.98 5462.6 5617.29 3035.06 4262.19 4597.88 4878.93 6275.25 6892.33 4505.3 4491.26 4832.21 4511.34 5009.21 4742.35 5394.79 4379.91 4574.03 5290.37 5264.08 4227.66 4691.01 4594.89 5821.42 5214.71 4515.02 3463.53 6126.03 6044.69 5658.05 5462.1 6032.45 3414.67 5444.36 2827.92 5011.37 4026.03 6908.32 3467.11 4817.75 6153.26 5637.53 3882.37 5523.81 4095.4 4718.61 5188.57 3873.79 5357.33 5252.37 4499.54 5037.58 7430.48 5640.67 5545.68 6080.69 4970.12 4967.93 6369.66 5678.08 5922.62 5125.45 5957.82 4188.16 6327.54 5507.07 2943.17 5327.71 4880.78 5257.38 5075.23 4975.56 7282.36 3826.01 5581.01 3928.99 4125.75 6379.33 5130.57 5090.48 3985.93 6071.59 2589.19 6079.55 3856.4 5485.61 4993.49 4937.36 5308.4 4569.32 3688.83 3402.44 4848.98 4491.96 5184.98 4199.44 4467.51 5339.82 6261.67 5460.57 5065.78 5703.34 4612.68 4521.42 6668.98 6649.52 4232.33 4939.56 4747.68 5770.92 3093.38 4845.91 2002.78 5631.32 4461.67 6322.0 5793.14 4609.65 6345.2 5704.61 5410.73 4942.63 5850.38 7066.26 4730.97 3677.85 5873.62 4677.84 4811.11 4924.52 4866.8 5314.67 6593.1 4066.36 4000.51 6033.93 4441.44 5092.44 4232.44 5336.61 3312.3 5563.09 4848.15 4439.09 3282.57 5648.59 6697.45 5717.67 5515.59 3224.81 3775.38 4046.22 6457.89 4844.2 6572.17 3751.73 5555.89 4766.47 4871.1 5872.45 4414.09 5191.29 3784.68 3717.22 6649.21 4654.92 5286.55 4322.56 5522.18 5509.09 5625.02 5212.05 4829.77 6474.5 4444.92 6959.88 5749.53 5971.9 5247.73 5034.02 5582.28 5945.25 5181.31 4696.06 4137.16 6581.13 5803.3 5537.61 6084.88 4721.98 4397.06 5252.82 3543.98 4053.12 5056.26 4479.5 4014.44 3435.13 6002.77 4431.46 4610.55 3207.84 3977.98 6043.34 5400.69 4128.93 4462.5 4959.72 4712.17 5004.68 3808.04 4023.88 4723.71 4405.61 5348.11 6126.5 4034.88 6007.1 3511.5 5067.92 5488.96 3188.21 5128.03 3720.92 4793.06 5087.3 6139.74 4975.57 6150.31 3057.3 3868.69 4996.91 5379.52 3920.44 3768.62 3851.47 4966.74 5563.47 5651.46 5639.4 3162.27 6185.73 4083.24 5516.37 6520.96 5432.2 5217.62 4612.4 6178.19 4746.19 4616.81 6381.58 5212.2 4798.13 5108.42 4630.5 6296.36 4432.32 4451.76 7885.41 5782.25 4104.97 4575.72 5114.61 6118.13 3374.62 4420.3 4926.62 3917.09 6009.93 4083.1 5270.1 5130.56 4947.64 6305.9 4542.62 4997.89 3470.69 5093.28 4859.95 4132.08 5223.1 4850.49 3873.72 4592.49 3625.98 5479.86 4702.32 4763.04 5944.52 4413.56 3746.62 4532.67 4876.37 4769.62 4908.32 5260.13 4649.5 4810.74 5985.75 5475.83 4149.17 6189.29 5984.55 5672.46 5202.33 3228.27 7558.99 4142.1 5043.14 5878.55 5445.91 6604.72 3794.47 4967.02 4614.49 6038.56 2807.46 5573.31 4179.8 3488.34 5428.24 5108.84 4582.12 4520.14 5357.14 5919.27 4850.95 6637.38 3421.81 6188.33 6111.23 6916.18 5786.06 4137.41 3780.07 5466.49 5447.74 4450.51 5007.41 6033.72 3692.99 6213.74 4959.94 2329.93 1635.31 6938.87 5412.07 5512.57 4806.99 3771.91 5856.43 3839.0 5799.86 5715.25 4362.94 4611.21 3354.94 4870.14 4404.87 5237.27 5767.65 4750.76 4907.03 5497.27 4081.77 4948.21 2181.29 4987.01 4202.12 6332.64 2694.25 6492.44 4613.32 3482.73 3996.93 5145.39 4957.99 4063.26 5345.05 6131.52 6009.88 4699.77 4981.55 5093.41 5144.23 6188.62 6153.07 4414.06 5908.57 5050.2 5316.05 2513.38 4821.41 3995.08 5616.11 5019.84 4499.52 3900.93 4028.13 5784.38 4329.8 5728.27 3074.49 3053.19 3956.24 5580.95 3393.59 3549.92 4032.06 5246.81 5333.04 4521.99 4812.59 3463.34 6842.54 7115.67 5675.45 3361.11 5329.84 5599.16 3879.83 6565.95 4577.98 5658.35 4487.51 5886.81 6805.02 4295.25 7394.47 4729.45 5374.09 6261.13 6271.22 5244.47 5378.75 3920.64 5510.89 6186.24 5822.7 5282.67 4159.89 5178.55 4038.17 5146.69 4907.48 6818.23 4369.87 5652.19 6578.62 4813.55 3465.03 5349.85 5229.56 5172.1 4469.82 6545.78 4695.7 2932.2 5105.72 4082.01 5003.49 3964.03 4216.33 5832.72 5617.91 4721.2 4706.31 6265.48 4735.99 4203.68 4739.56 3352.46 4701.03 6351.95 5195.09 5434.04 5200.1 3997.52 7679.2 4881.51 4311.92 2626.41 6729.99 5310.33 6842.35 5464.34 3621.63 4777.96 5801.89 7296.47 5742.39 4780.16 4924.53 5738.37 4433.23 4813.24 3874.12 5759.19 4457.73 6476.35 3113.64 6260.58 4067.24 6139.9 6571.26 4313.38 6598.99 5250.56 3633.58 2468.16 5089.1 5888.95 5394.78 5169.09 5122.38 2853.68 2459.88 5262.85 4998.37 5901.71 6559.82 5342.9 5733.12 5043.34 4246.24 6436.29 4600.81 5354.48 5640.63 4900.26 4167.55 5002.38 4720.34 4865.11 4731.16 6470.87 4495.33 4131.08 4465.56 5747.9 3864.19 4287.93 6203.24 5081.65 4488.41 6679.12 4621.32 5806.74 3878.8 6284.12 3948.21 4796.04 5296.05 6011.4 4672.34 3330.85 6052.22 5376.41 5003.63 5410.33 4747.24 4944.08 4380.86 5576.16 5269.39 4305.35 3308.75 5210.22 4439.17 2451.27 5677.42 3903.9 4444.95 5161.02 3943.77 3124.49 6081.35 5003.81 6262.18 3818.37 5663.36 6225.05 5125.53 5994.21 4444.54 5779.9 4909.74 5299.03 6664.54 3922.98 5161.73 5259.48 4008.67 5254.93 4803.4 6833.5 6608.94 2613.78 5417.07 3834.01 5656.84 6789.66 4739.41 5847.27 4490.2 4304.75 5734.84 5480.86 3982.31 4950.07 4720.22 2832.83 5827.3 6036.99 3010.1 3825.98 6294.14 4339.97 5087.03 5203.75 4667.84 3906.41 4691.15 4123.08 4512.6 4210.24 4260.38 5470.67 5225.11 6793.49 5252.22 6060.19 4962.35 5402.81 4333.23 4328.76 4919.13 5168.97 4124.33 5783.88 4358.06 6705.93 6201.49 5449.09 5502.14 4605.61 5386.95 5332.11 5315.71 6158.93 4823.14 5373.78 5438.5 5863.36 5699.4 5237.76 4698.94 4286.84 5669.15 6058.13 5263.86 6988.4 5056.32 5533.52 4060.17 5302.53 4909.13 4287.61 5648.02 4604.34 4863.27 2701.42 4929.35 5442.79 5606.22 5051.39 6673.92 5242.38 4884.94 5459.52 4609.98 5566.5 4752.31 4276.59 5579.04 5405.6 3929.35 5403.81 5082.25 6964.78 4374.05 5036.84 4565.36 5813.68 4025.08 3618.53 4770.21 5596.68 8013.28 3846.55 3796.73 3082.16 4644.68 5416.41 5312.2 6760.64 4706.59 5177.88 5551.79 4582.24 3916.15 4474.96 4084.87 4790.63 5259.29 3584.05 4589.22 4818.53 5097.85 5584.64 6224.64 4221.03 4636.45 3799.55 4932.27 5082.66 5638.51 3563.33 3550.88 4345.51 5536.0 6786.37 3860.8 5145.13 3747.96 5561.63 5940.5 5093.51 5647.93 4280.92 5154.74 4696.92 6437.99 6898.8 6540.57 4893.72 6004.72 4072.4 5699.51 5345.65 4489.18 2489.44 4883.13 4632.75 4752.94 4994.98 3950.53 6423.96 5894.69 6635.51 6051.35 6779.82 3999.81 5543.67 4867.13 6377.45 4502.12 5151.68 5362.15 4455.61 4738.72 5240.97 5569.85 5523.96 4884.93 4223.53 4759.38 6960.97 4287.15 4523.9 5282.51 5504.65 5669.41 5732.11 5040.9 3919.47 4602.7 4868.66 4004.39 5159.9 5283.65 2892.36 5943.61 5981.54 4248.58 5911.29 4542.25 4694.27 4414.23 2515.5 4849.21 4785.55 3793.83 6981.47 6189.81 5367.05 4758.76 5647.11 4088.72 3945.62 4916.75 3743.85 6236.46 5342.17 6379.3 6189.04 5189.4 4550.77 4894.15 4337.93 5201.3 4048.73 6223.33 5438.6 7370.52 5611.29 4521.88 6568.45 5004.22 4601.54 4963.88 7263.57 5705.96 3832.09 5267.65 5739.69 6632.04 5360.88 7360.62 3166.37 4977.64 4985.45 4983.56 5205.53 4714.52 5499.37 5543.05 4836.76 5333.16 5551.09 5755.98 4501.1 5581.47 4384.91 6550.61 4987.01 4713.56 6094.34 5448.68 4739.5 6210.48 4491.62 4182.05 3865.5 3255.93 6853.07 6327.61 4633.59 5733.59 5575.8 5268.93 3695.72 6874.6 5106.9 5306.31 4733.37 4535.94 3037.72 5126.08 5604.0 3760.4 4951.02 3783.35 4037.16 6395.63 4987.48 5479.17 5020.37 5233.88 5245.4 4449.73 5015.67 3795.63 4576.71 6538.04 6157.59 5848.41 4090.28 4246.83 4726.5 5467.05 3724.23 5103.3 5888.94 4727.98 5175.88 4122.2 4516.26 4790.16 3509.34 3731.58 3647.26 5369.42 5207.08 4587.19 6028.89 4888.17 5392.85 5077.2 4274.05 5275.27 4277.54 5529.09 4531.46 5925.82 4072.95 
SCALARS Velocity float 1
LOOKUP_TABLE default
1.74554 1.70872 1.31389 1.91447 1.27509 1.64151 1.4025 1.65097 1.7929 1.91779 1.65762 1.22099 1.4786 1.40175 1.51493 1.55173 1.44895 1.61196 1.44824 1.47273 1.65907 1.49762 1.49907 1.45968 1.18909 1.28339 1.22195 1.27294 1.32818 1.33348 1.21772 1.36219 1.39635 1.39154 1.26811 1.48153 1.40877 1.28053 1.5068 1.71814 1.95298 1.77795 1.34291 1.2987 1.48661 1.73337 1.38412 1.10091 1.15202 1.82663 0.964696 1.15314 1.35981 2.13755 1.06966 2.00508 1.5729 1.58723 1.44528 1.33649 1.49365 1.49609 1.20465 1.18192 1.27829 1.25894 1.25434 1.34398 1.29134 1.2445 1.38115 1.31918 1.37044 1.28364 1.43581 1.39147 1.31576 1.33005 1.38083 1.73863 1.36236 1.75004 1.60439 1.32503 1.83355 1.62221 1.86191 1.48411 1.33682 1.42494 1.3316 1.27841 1.45721 1.36618 0.958981 1.41876 1.14589 1.17604 1.24402 1.20063 1.15185 1.12001 1.08841 1.12869 1.02854 1.09784 1.36013 1.88667 1.55562 1.45796 1.21267 1.4433 1.36866 1.43957 1.49275 1.45109 1.52444 1.20619 1.09921 1.25317 1.26759 1.29425 1.22237 1.26037 1.3924 1.34093 1.35467 1.30333 1.29879 1.39249 1.37161 1.38977 1.40415 1.26079 1.3299 1.15491 1.43354 1.33728 1.48451 1.20262 1.36589 1.25525 1.40581 1.41297 1.31202 1.19085 1.23274 1.34072 1.09986 1.15124 1.16478 1.12739 1.11072 1.10723 1.08834 1.06164 0.98691 1.33588 1.52856 1.17587 1.3912 1.32122 1.3417 1.23029 1.39313 1.12742 1.47603 1.50571 1.44113 1.42423 1.30437 1.09118 1.26061 1.12054 1.30843 1.33477 1.13567 1.2938 1.37742 1.29553 1.31429 1.30533 1.26553 1.61044 1.34798 1.35521 1.27945 1.36071 1.37351 1.26576 0.876766 0.953064 1.17322 0.850341 1.31293 1.33336 1.23863 1.20589 1.22608 1.14217 1.22986 1.15522 1.00053 1.07068 1.03744 1.12396 1.09393 1.07428 1.06558 1.05735 1.04671 1.07035 1.02878 1.10244 1.11746 1.1358 1.44076 1.36022 1.32384 1.30054 1.13459 1.17441 1.25033 1.26583 1.18604 1.22561 1.21338 1.22101 1.51591 1.44814 1.30533 1.11856 1.14246 1.25205 1.27257 1.30707 1.37322 1.11952 1.33119 1.32523 1.27512 1.30018 1.20944 1.62447 1.43791 1.47801 1.41464 1.33291 1.3115 1.30869 1.53605 1.62913 0.753479 1.07718 1.13728 1.14729 1.04382 1.16381 1.10871 1.05903 1.06335 1.07961 1.14892 1.10156 1.04782 0.992288 1.00755 1.05356 1.03997 1.07951 1.06111 1.04848 1.04146 1.04612 1.04518 1.05253 1.02591 1.24857 1.20206 1.11595 1.18296 1.29214 1.33689 1.24655 1.24133 1.09186 1.23145 1.08236 1.1965 1.22524 1.2426 1.30307 1.35502 1.10857 1.18774 1.28122 1.47839 1.33217 1.26577 1.2341 1.1355 1.50973 1.1035 1.41273 1.33283 1.26702 0.912958 1.06901 1.00841 1.60064 0.791383 0.99119 1.02569 1.13835 1.15751 1.224 1.05506 1.06071 1.10444 1.08302 0.986564 1.03798 1.00197 0.927717 0.906264 0.935965 0.928102 0.996844 0.917639 0.979077 0.957829 0.987664 1.00903 1.02381 1.04639 1.02435 1.03639 1.03928 1.05286 1.08282 1.06718 1.10284 1.07085 1.17074 1.15721 1.21987 1.20598 1.08341 1.16153 1.23639 1.28192 1.21569 1.1397 1.24261 1.17629 1.14666 1.19246 1.22561 1.2122 1.13111 1.22588 1.29796 1.16773 1.29203 1.11285 1.21469 1.25808 1.45962 1.15422 1.21057 1.20087 1.14935 1.01018 1.42039 1.33678 1.28759 1.22403 1.09021 1.0544 1.24368 0.999092 0.848875 0.924578 0.917631 1.05821 1.08065 1.13476 1.31786 1.16711 0.854835 1.07129 1.07517 0.999544 0.984808 0.880008 0.8669 0.90115 0.914384 0.884454 0.886443 0.868306 0.950563 0.926583 0.948321 0.984646 1.02293 1.01942 1.02409 1.04524 1.04022 1.03695 1.04797 1.06894 1.10171 1.18054 1.15762 1.20934 1.28531 1.22254 1.1656 1.23697 0.996266 1.05513 1.20731 1.22004 1.26827 1.19637 1.19251 1.20712 1.18778 1.18345 1.18465 1.20434 1.2546 1.21773 1.27108 1.23431 1.23172 1.09746 1.13538 1.27781 1.25243 1.22704 1.35505 0.991298 1.12757 1.22112 1.152 1.10679 1.0866 1.19868 1.15068 1.18321 1.21966 1.10641 1.03317 1.0167 0.986498 0.942123 0.987994 1.05652 1.14263 1.00345 1.02559 1.00043 0.990588 0.929832 0.981618 1.03263 1.02923 0.906547 0.97386 1.06668 0.875852 0.897407 0.881614 0.840205 0.8732 0.903775 0.905516 0.907808 0.913868 0.907533 0.901959 0.897228 0.933263 0.973703 0.963953 0.996767 1.0396 1.02551 1.025 1.03295 1.03447 1.03623 1.04501 1.0443 1.06198 1.08378 1.06906 1.0904 1.11835 1.13321 1.09525 1.23458 1.03535 1.11816 1.02504 1.12447 1.16547 1.12346 1.20584 1.2079 1.17322 1.15998 1.17141 1.22945 1.21854 1.24099 1.24362 1.07096 1.26347 1.22623 1.24051 1.34164 1.14012 1.21274 1.2332 1.13432 1.13209 1.14194 1.14166 1.16961 1.14365 1.11394 1.12971 1.28424 1.28353 1.05129 0.925954 1.10251 1.13685 1.10525 0.901312 1.02839 0.959439 1.01043 1.06631 0.99016 0.977416 0.951855 0.89671 0.970577 1.02676 1.13928 0.938783 0.967479 0.947014 0.888393 0.939735 0.863798 0.885547 0.879904 0.815141 0.817733 0.904496 0.908691 0.900671 0.909485 0.886128 0.903757 0.898597 0.901435 0.915135 0.925508 0.952426 0.951234 0.984883 1.00819 1.03934 1.02752 1.02973 1.02906 1.03941 1.03961 1.04335 1.06956 1.05349 1.07091 1.09109 1.09373 1.13554 1.16976 1.03889 1.08094 0.953263 0.981726 1.12145 1.14624 1.22098 1.24952 1.21791 1.20436 1.18272 1.1949 1.167 1.16143 1.25302 1.24846 1.25496 1.23925 1.07196 1.04687 1.09713 1.3034 1.15475 1.21677 1.21566 1.34492 1.1262 1.19494 1.24441 1.12599 1.14572 1.19273 1.08903 1.13936 1.08613 1.13175 1.33047 0.769408 1.08062 1.07995 1.19934 1.04627 1.03062 1.03506 1.00189 0.969452 0.937291 0.927854 1.03593 0.965535 1.03475 0.997885 0.964205 0.949664 1.25971 1.05853 0.957563 0.817718 1.11764 0.682228 0.87206 0.888255 0.876211 0.867841 0.883104 0.875677 0.885377 0.897116 0.898142 0.921079 0.889638 0.948257 0.986961 1.01061 0.996586 1.01699 1.03485 1.03885 1.02635 1.0279 1.03978 1.05415 1.07499 1.09221 1.12323 1.09189 1.13535 1.03147 0.986247 0.977892 0.967967 0.906286 1.20343 1.19328 1.26455 1.22195 1.2202 1.20939 1.21304 1.20995 1.15479 1.20233 1.26468 1.26751 1.10447 1.03614 1.07801 1.05139 1.25037 1.24129 1.17394 1.19132 1.15131 1.08015 1.15967 1.21202 1.17046 1.14056 1.14966 1.1727 1.20777 1.04647 1.08796 1.18094 1.03015 0.843085 1.13712 1.2004 1.07 1.0674 1.01672 1.05568 1.03713 0.985297 0.946159 0.969971 0.921429 0.918763 0.990261 0.984211 1.3866 1.20837 0.75942 1.11615 0.600758 0.652241 0.896457 0.627344 0.696369 0.7333 0.850951 0.878007 0.873073 0.861095 0.839989 0.877596 0.857913 0.877987 0.875386 0.885684 0.890953 0.918398 0.944545 0.973007 0.984026 1.02424 0.997585 1.02219 1.02798 1.02754 1.00744 0.998303 1.01246 1.03805 1.05703 1.0471 1.06131 1.07661 1.06404 1.07246 1.07854 1.0393 0.99752 0.974796 0.977149 0.801337 1.0975 1.12244 1.2137 1.24823 1.23719 1.24078 1.20049 1.27714 1.27383 1.3009 1.33233 1.13458 1.14177 1.04821 1.39718 1.1574 1.19579 1.15754 1.17397 1.17686 1.019 1.1808 1.13957 1.11754 1.14252 1.16471 1.15481 1.17765 1.10189 1.31648 1.03593 0.981375 0.982222 1.09441 1.02897 1.07191 1.06131 1.04349 0.990018 1.02293 1.04261 1.03536 1.03409 1.01601 1.01497 1.00043 0.983736 1.004 0.892558 1.01363 0.890229 0.855951 0.8217 0.875498 0.980117 1.11802 1.0005 1.2368 0.77869 1.06777 0.712766 0.779552 0.775999 0.700474 0.785192 0.739585 0.873816 0.902661 0.926432 0.867886 0.830741 0.85357 0.867314 0.962736 0.922738 0.851341 0.884345 0.913927 0.900038 0.907074 0.926126 0.919753 0.931659 0.990269 0.99375 1.0097 1.01174 1.00044 1.00623 0.985167 0.97581 1.01363 1.0325 1.05413 1.06004 1.07482 1.01336 0.978002 0.981662 0.950397 1.08065 0.964186 1.15698 1.30771 1.24788 1.18392 1.17894 1.28036 1.20782 1.21549 1.16302 1.10736 1.05542 1.39129 1.2751 1.17944 1.16088 1.16798 0.987206 1.22876 1.12486 1.12376 1.1549 1.10905 1.13085 1.05748 1.1114 1.60122 0.837642 0.955651 0.92905 1.00127 1.05905 1.02423 1.04295 0.999788 1.01938 1.02536 1.03838 1.05767 1.01373 0.99079 1.0216 0.983012 1.04521 1.13236 0.96719 1.06903 0.807054 0.880486 0.850406 0.904183 0.930308 1.03768 0.54463 0.964585 0.786707 0.703718 0.786799 0.756444 0.753033 0.775534 0.854788 0.862356 0.830677 0.797863 0.895563 0.92029 0.745458 0.880707 1.09704 0.846409 0.836097 0.853683 0.900239 0.889703 0.907032 0.903045 0.921322 0.911311 0.913322 0.950578 0.979637 1.01123 1.00544 0.985249 0.986453 0.95026 0.937718 0.981585 0.997116 1.00699 1.05115 1.04589 1.05274 1.04361 1.03388 1.0475 0.987768 0.965557 1.07561 1.04163 1.02198 1.33418 1.25483 1.12188 1.18455 1.15002 1.29077 1.1323 1.08309 1.19093 1.22089 1.1016 1.06834 1.08702 1.2194 1.16936 1.18051 1.14223 0.981236 1.19799 1.07836 1.01483 1.11874 1.16039 1.17567 1.13042 1.12371 1.02345 1.05295 0.976369 0.98597 1.06652 1.01815 1.00849 0.991479 0.982561 1.02749 1.08731 1.01374 1.00284 0.984312 1.03133 0.952243 0.915042 0.89773 0.956127 0.977166 0.57642 0.890013 0.815921 0.760226 0.835974 0.799559 0.763734 0.786204 0.787729 0.778953 0.810554 0.766728 0.762651 0.817114 0.790027 0.761696 0.803479 0.817872 0.906783 0.441987 0.397299 0.500604 0.80814 0.727123 0.62647 0.668722 0.773448 0.920327 0.860886 0.906999 0.904601 0.908705 0.914642 0.933971 0.937115 0.94348 1.0247 0.993414 1.01393 0.969923 0.963739 0.94394 0.945758 0.895009 0.970264 1.06535 1.05531 1.06288 1.03774 1.01564 0.965854 1.14469 1.04824 0.951902 0.8606 1.76166 1.36309 1.30008 1.21127 1.13309 1.19429 1.20942 1.10207 1.13961 1.01477 1.1572 1.26197 1.08507 1.12715 1.13294 1.20356 1.18367 1.17982 1.1412 1.04727 1.2201 1.12742 0.995088 1.10738 1.17198 1.1712 1.19426 1.15775 1.13734 1.14384 1.11582 1.08149 1.08065 0.963265 1.12351 1.01231 0.976443 0.987759 0.97285 0.990188 0.987917 0.988689 0.988545 0.976204 0.935675 0.976955 1.00493 1.0066 0.981619 0.942364 0.947775 0.969171 1.0107 0.984373 0.946789 0.960945 0.905075 0.943267 0.947332 0.874711 0.813619 0.864115 0.803644 0.803661 0.808479 0.771783 0.835842 0.807264 0.697636 0.715646 0.758931 0.710298 0.733 0.745143 0.795857 0.767356 0.733121 0.648738 0.626197 0.709791 0.635094 0.77831 0.765529 0.761341 0.843599 0.927934 0.921535 0.904696 0.922865 0.909088 0.915351 0.949489 0.893773 0.885315 0.961131 0.973417 0.958609 0.954381 0.926109 0.92159 0.836623 1.09117 1.06845 1.05033 1.05318 1.06798 1.04238 1.12846 1.13649 1.06423 1.0056 0.925606 0.823188 0.785974 1.19719 1.24008 1.23999 1.20944 1.16096 1.21397 1.12165 1.14745 1.12784 1.29942 1.2788 1.12725 1.13206 1.17667 1.14328 1.17776 1.18041 1.08186 1.07521 1.23478 1.13827 1.0261 1.18777 1.18005 1.15819 1.11611 1.1209 1.02214 0.999586 1.0201 1.16769 1.33175 1.03769 0.973114 0.960938 1.00504 0.976247 0.963077 0.958059 0.974932 1.00448 1.01875 1.06963 0.985633 0.940921 0.968996 0.951715 1.00142 0.957053 0.897988 1.00152 0.941793 0.661956 0.854747 0.839424 0.829887 0.822257 0.821296 0.799273 0.78072 0.819733 0.799604 0.758195 0.830947 0.728121 0.715372 0.839374 0.867609 0.613561 0.807982 0.635795 0.64898 0.704313 0.788987 0.77178 0.766731 0.722329 0.754623 0.768209 0.771201 0.742883 0.482725 1.08419 0.956739 0.930296 0.911038 0.901162 0.91011 0.832823 0.892807 0.876685 0.914319 0.971759 0.97845 0.977147 0.960399 0.94621 0.939185 0.931532 0.894214 0.87803 0.843173 1.12907 1.10581 1.07135 1.06512 1.0984 1.03578 0.903185 1.21814 0.959557 1.06821 0.881588 1.14323 1.06139 1.17857 1.21448 1.1626 1.14942 1.13522 1.21683 1.15454 1.1381 1.15655 1.17412 1.15256 1.18202 1.08575 1.10174 1.09674 1.21472 1.17307 1.17895 1.02882 1.13683 1.17075 1.15751 1.1374 1.10363 1.14231 0.967364 1.02893 1.13673 1.02101 1.16109 1.1415 0.921914 0.950452 0.977888 0.979526 0.933802 0.946056 0.962897 0.985838 0.895533 1.1178 0.766122 0.89639 0.961791 0.917644 1.04319 1.09753 0.950632 0.909682 0.912083 0.839088 0.808404 0.857313 0.821861 0.828652 0.819458 0.82943 0.815586 0.800586 0.783372 0.79339 0.808914 0.721007 0.672483 0.739697 0.676862 0.656617 0.684476 0.758593 0.591453 0.736524 0.69772 0.660335 0.925901 0.601249 0.456341 0.587824 0.710502 0.91905 0.830631 0.827131 0.780734 0.764492 0.74025 0.737173 0.736869 0.725085 0.985442 0.970915 0.908235 0.927094 0.90475 0.892912 0.872641 0.848658 0.851136 0.883568 0.968221 0.973623 0.957653 0.935384 0.894841 0.855302 0.996845 1.14355 1.08674 1.05346 1.1053 0.855974 1.25085 1.08828 0.983392 1.09336 0.85048 1.59386 0.976937 1.10956 1.15445 1.11864 1.15326 1.19508 1.18785 1.2226 1.17046 1.15938 1.12247 1.19166 1.1999 1.22431 1.16901 1.13481 1.17391 1.15866 1.10514 1.04785 1.17049 1.1775 1.05699 1.1343 1.15358 1.08999 1.09958 0.994715 1.13564 1.03754 1.13809 1.0434 0.880795 0.918981 0.909579 0.895901 0.920329 0.985084 0.954571 0.969176 1.022 1.02184 0.905016 0.827598 0.869585 0.848437 0.911295 0.865114 0.736997 0.841397 0.901244 0.867356 0.815165 0.81801 0.805268 0.813278 0.81632 0.814942 0.814275 0.799554 0.791809 0.809304 0.82269 0.734051 0.692054 0.676552 0.738004 0.651421 0.639256 0.71345 0.687725 0.743808 0.740513 0.650034 0.537737 0.583136 0.646125 0.508447 0.269116 0.57087 0.684043 0.743192 0.565146 0.216219 1.02317 0.694877 0.842414 0.774866 0.839165 0.742072 0.795126 0.738462 0.74602 0.731274 0.717213 0.727247 0.744889 0.721969 0.760725 0.863262 0.827608 0.940838 0.948538 0.880784 0.870702 0.873891 0.860289 0.853196 0.710935 0.898381 0.833604 0.834889 0.950318 0.926931 0.943896 0.953487 0.9361 0.916455 0.760874 0.871007 1.05947 0.908574 0.973844 0.923244 1.18624 1.05836 0.847785 1.36478 1.08083 1.10452 1.14581 1.16604 1.16316 1.13526 1.18135 1.15679 1.1397 1.20652 1.1781 1.18764 1.15431 1.18333 1.14044 1.0892 1.12485 1.04849 1.09773 1.16036 1.19353 1.09507 1.12398 1.14622 1.08916 1.08185 1.11296 1.07183 1.0051 1.06136 0.980153 0.928652 1.04017 1.28313 1.84768 1.06174 1.10494 1.08547 0.953119 0.930768 0.985281 0.967583 0.979459 0.987516 1.01205 0.902247 0.900167 0.913614 0.873748 0.787551 0.806121 0.810627 0.809977 0.797554 0.785902 0.800977 0.81072 0.817288 0.78872 0.801039 0.756406 0.981279 0.681466 0.726946 1.10161 0.623129 0.589483 0.512751 0.553426 0.471889 0.463932 0.475202 0.418722 0.465691 0.497557 0.459598 0.51369 0.460618 0.292473 0.569593 0.959517 0.798714 0.528088 0.618185 0.671482 0.533721 0.78707 0.689212 0.703301 0.722058 0.70205 0.712953 0.695658 0.705298 0.747919 0.82228 0.89117 0.918886 0.877942 0.859183 0.842225 0.825973 0.808938 0.764392 0.95028 0.988367 0.986657 0.976135 0.936613 0.911605 0.873493 0.89789 0.961153 1.11121 1.10498 1.07887 1.11531 0.931719 0.956204 1.00023 0.993358 1.07693 1.03667 1.06211 0.931931 0.90475 1.04844 1.37266 1.1192 1.07484 1.09248 1.19099 1.12903 1.09922 1.12148 1.16012 1.15923 1.20088 1.15693 1.136 1.1743 1.187 1.14559 1.12185 1.13249 1.05887 1.12022 1.08213 1.16521 1.19717 1.1929 1.10765 1.04607 1.11752 1.1108 1.06184 1.03728 1.01387 1.04815 0.709869 1.3407 1.58704 0.838219 0.980921 0.932903 1.00843 0.991522 0.975864 0.969746 0.995559 0.951199 0.919471 0.809504 0.843316 0.92299 0.924745 0.896695 0.913458 0.875388 0.883291 0.776338 0.78984 0.78227 0.771553 0.783126 0.791537 0.781548 0.795806 0.790469 0.790308 0.797311 0.718666 0.743845 0.829019 0.738613 0.780687 0.431328 0.324181 0.409744 0.531844 0.443503 0.440709 0.419767 0.399963 0.389556 0.45548 0.430646 0.37989 0.389007 0.370933 0.403329 0.448451 0.480038 0.466897 0.381647 0.109176 0.484384 0.806362 0.49703 0.708383 0.630916 0.608016 0.706115 0.70269 0.707162 0.707903 0.68787 0.688248 0.704995 0.708965 0.822444 0.782486 0.864909 0.856783 0.858967 0.850459 0.840042 0.812726 0.85095 0.789063 0.848356 1.00929 1.01387 0.95719 0.917412 0.930244 0.911507 0.953472 0.978271 1.17668 1.14764 1.06139 1.06195 0.986575 1.03973 1.06248 1.12724 0.956368 1.00436 1.21709 1.07919 1.10168 1.15984 1.1584 1.10199 1.14112 1.17042 1.19512 1.1122 1.15322 1.17024 1.15721 1.14339 1.17432 1.13695 1.14163 1.13537 1.06274 1.09184 1.18099 1.18103 1.11912 1.01973 1.12878 1.11355 1.07675 1.07597 1.1012 1.06591 1.04676 0.939961 0.827274 1.03981 0.989583 0.84412 0.952813 0.964516 0.966014 0.985896 0.996603 0.899958 0.923914 0.8827 0.923561 0.913469 0.925245 0.906066 0.864533 0.727004 0.771938 0.752279 0.749515 0.765896 0.758094 0.770017 0.77462 0.767554 0.790273 0.784985 0.778759 0.78396 0.789785 0.647271 0.42341 0.416881 0.483303 0.413627 0.51128 0.457036 0.481695 0.513227 0.290947 0.238905 0.52975 0.938105 0.291176 1.30356 0.242505 0.459499 1.19781 0.100962 0.670414 0.468683 0.645694 0.372869 0.579941 0.637371 0.66242 0.667473 0.563813 0.682485 0.740889 0.766148 0.672873 0.690949 0.754167 0.760649 0.833971 0.817612 0.853089 0.861737 0.846805 0.856607 0.841571 0.849786 0.799959 0.835423 0.842832 0.853617 0.81092 0.898868 0.841734 0.879974 0.913677 0.870316 0.876772 0.964445 0.969344 0.956019 0.957323 0.923589 1.14631 1.12019 1.10609 1.11531 1.20824 0.95079 0.933931 1.00869 1.06395 1.06648 1.21344 1.09947 1.11555 1.13579 1.17073 1.16422 1.11326 1.14233 1.17733 1.20204 1.10658 1.10653 1.09729 1.13799 1.17234 1.1493 1.13737 1.13911 1.14903 1.07163 1.11442 1.18684 1.15541 1.11358 1.0074 1.14459 1.1125 1.07786 1.13031 1.05642 1.05895 0.992712 1.03624 0.963172 0.981115 0.956423 0.945527 0.98442 0.990435 1.02968 1.00269 0.915097 0.896588 0.90394 0.872632 0.903231 0.909478 0.892185 0.940686 0.749235 0.78433 0.761427 0.758468 0.747184 0.743382 0.761322 0.762656 0.782479 0.80703 0.831193 0.857066 0.845782 0.626133 0.734588 0.558801 0.70901 0.664305 0.432927 0.541072 0.484904 0.462425 0.957229 0.497702 0.52659 0.783496 2.10455 0.444011 0.156643 0.206109 0.159559 0.112341 0.222469 0.49366 0.600457 0.571179 0.656315 0.599975 0.674716 0.687597 0.66467 0.600162 0.51758 0.598246 0.691641 0.735731 0.806165 0.766489 0.73321 0.847746 0.624333 0.734186 0.781305 0.807367 0.857791 0.838709 0.866051 0.864236 0.84502 0.848306 0.854659 0.89506 0.876522 0.906813 0.8956 0.971336 0.74562 0.896145 0.980612 1.02327 0.949422 0.975064 1.15257 1.1183 1.08964 0.88913 0.99321 0.964554 1.06509 1.11295 1.12656 1.16057 1.12033 1.10407 1.14942 1.17469 1.16556 1.13761 1.14658 1.17386 1.19509 1.10735 1.12561 1.11357 1.16115 1.12643 1.09577 1.13505 1.15278 1.08434 1.1416 1.16257 1.11503 1.18371 0.930752 1.01985 1.08715 1.21604 0.941238 1.12833 1.00486 1.01066 0.99894 0.956453 1.0213 0.957019 0.98044 0.980054 1.00374 1.0019 1.01997 1.01396 1.04444 1.00262 0.922407 0.890224 0.900148 0.88681 0.885534 0.896189 0.922242 0.956291 0.869873 0.803259 0.776592 0.743361 0.739656 0.788425 0.777888 0.814549 0.803337 0.837539 0.821253 0.846202 0.888521 0.847535 0.757317 0.871387 0.782813 0.689314 0.784405 0.815089 0.821698 1.07047 1.53673 0.748122 0.260262 0.373611 0.0485998 0.562995 0.473734 0.680035 0.787152 0.799214 0.709843 0.717444 0.594446 0.611267 0.553831 1.01846 0.868019 0.823478 0.901662 0.538389 0.328883 0.713291 0.898065 0.863212 0.86162 0.855077 0.878293 0.829846 0.884776 0.934976 0.903215 0.95921 0.92205 0.87722 0.916424 1.04438 1.06727 0.995513 0.988333 0.962908 1.15877 1.00191 0.951198 0.99159 1.02356 1.05774 1.13304 1.14076 1.16656 1.14619 1.10214 1.11493 1.10745 1.16818 1.15108 1.15658 1.15169 1.12843 1.18004 1.1932 1.16043 1.13603 1.11962 1.1804 1.14216 1.10414 1.14051 1.14541 1.06233 1.08769 1.15316 1.15818 1.063 1.16026 1.22709 1.00657 0.903107 1.15713 1.06352 1.03797 1.01283 0.972266 0.991224 0.996421 1.0256 1.02134 1.03232 1.07329 1.04638 0.956825 0.984026 0.921836 0.875222 0.904017 0.892134 0.943711 0.94135 0.947617 0.867392 0.812781 0.755368 0.741057 0.766674 0.747153 0.792869 0.809155 0.823319 0.837777 0.89006 0.873837 0.921874 0.798258 0.964213 0.924876 1.03504 0.807978 0.820964 0.770503 0.442457 0.603062 1.01267 0.553276 1.23217 1.14092 0.493006 0.607413 0.402862 0.463308 0.602304 0.913924 0.926316 0.617562 0.747465 0.747464 0.690078 0.678186 0.423088 0.209952 0.937722 0.858093 0.710052 0.760524 0.878203 0.357213 1.27276 1.016 0.834302 0.846467 0.828135 0.847841 0.844913 0.877388 0.822819 1.03838 0.956971 0.927961 0.880564 0.809634 0.800757 0.933459 1.01805 1.06476 1.02602 1.0261 1.07013 1.11144 1.06297 0.997947 1.01744 1.02637 1.06323 1.1425 1.19869 1.13133 1.15068 1.10865 1.09988 1.10152 1.15805 1.12595 1.17814 1.19362 1.17009 1.13987 1.12184 1.1883 1.14696 1.10918 1.15536 1.10889 1.10806 1.1467 1.17316 1.17723 1.10432 1.08942 1.09092 1.16628 1.2062 1.07715 1.08936 1.01307 1.12004 1.00727 0.91016 0.963094 0.96148 0.986015 1.01837 0.987205 1.03719 1.06901 1.06538 1.03969 0.954356 0.930429 0.876912 0.91121 0.953606 0.970423 0.976722 0.888103 0.888118 0.684216 0.755242 0.783065 0.807531 0.812951 0.793749 0.825189 0.714391 0.760953 0.514776 0.696492 0.73754 0.656341 0.81412 0.877405 0.941324 0.969612 0.833808 0.867173 0.669605 0.580606 0.468033 0.46854 0.693627 0.96141 0.754082 0.728545 0.655131 0.569673 0.564905 0.561991 0.308549 0.91314 0.767632 0.572949 0.684128 0.625401 0.813574 1.07968 0.828344 0.784637 0.831296 0.83808 0.840379 0.857867 0.873989 0.848155 0.899394 0.867886 1.01549 0.883219 0.802044 0.845211 0.813079 0.932195 1.02614 1.04846 1.19721 0.955893 0.98113 0.963806 1.02315 1.00499 1.10869 1.07166 1.03755 1.04078 1.05513 1.11005 1.22107 1.20973 1.12864 1.20379 1.15077 1.11947 1.11825 1.09252 1.16148 1.13722 1.18135 1.19432 1.15983 1.15868 1.23909 1.1428 1.19761 1.17016 1.12258 1.07159 1.1694 1.12506 1.09433 1.12629 1.1516 1.14037 1.19178 1.18946 1.17023 1.12675 1.12375 1.09433 1.02762 1.08177 0.879578 0.87621 0.968501 0.953855 0.987309 1.00814 0.983145 1.06436 1.02965 1.0301 1.07213 1.01273 0.931099 0.985007 0.965936 0.82438 0.887756 0.959919 1.0325 0.8777 0.876742 0.891782 0.716815 0.787919 0.770424 0.796557 0.826055 0.814535 0.765164 0.59622 0.652694 0.548728 0.602094 0.723055 0.942137 0.797076 0.815825 0.661158 0.540459 0.593152 0.509101 0.580702 0.647742 0.330784 0.613592 0.506856 1.025 0.700636 0.572234 0.584188 0.760627 0.810877 0.74834 0.811187 0.712599 0.845684 0.98361 0.733801 0.833137 0.933341 0.865935 0.790759 0.722582 0.846361 0.87713 0.923641 0.908405 0.883816 0.985303 0.927231 0.874304 0.851781 0.867152 1.03502 0.902349 0.959197 1.04022 0.999167 0.910584 0.914112 0.997296 1.04533 1.0186 1.08622 1.1033 1.03148 1.04028 1.04796 1.05817 1.10008 1.11011 1.05348 1.11678 1.21486 1.14916 1.11697 1.12032 1.0759 1.14056 1.14958 1.19085 1.15491 1.16801 1.20974 1.13276 1.17854 1.13622 1.21807 1.12415 1.11805 1.10863 1.15236 1.14047 1.11181 1.17243 1.18921 1.19144 1.12731 1.11139 1.09868 1.09621 0.962299 0.970598 1.02093 0.980781 1.00495 1.01123 1.03476 1.05468 1.00344 0.97805 0.96317 0.880722 0.951652 0.898741 0.919556 0.903735 0.759215 0.813 0.756362 0.829067 0.863391 0.898715 0.723373 0.64329 0.685753 0.883851 0.883994 0.824706 0.664394 0.843804 0.70861 0.636139 0.621034 0.534766 0.560476 0.678553 0.70053 0.596902 0.811513 0.885025 0.75856 0.84232 0.730268 0.551363 0.743085 0.78404 0.805632 0.788836 0.773291 0.845526 1.01973 0.905069 0.901199 0.900525 0.889818 0.906012 0.918862 0.939289 0.97994 0.889233 0.96581 0.902521 1.03497 0.926249 0.943206 0.974032 1.0065 1.08366 1.0193 1.05209 1.04149 1.02205 1.16451 1.19257 1.05667 1.06167 1.06874 1.11409 1.11646 1.19498 1.12142 1.21178 1.15126 1.16836 1.14945 1.14481 1.13603 1.13021 1.17347 1.17858 1.16617 1.14003 1.16857 1.16256 1.23255 1.13854 1.12651 1.16414 1.12887 1.12249 1.17179 1.13598 1.11269 1.14343 1.19823 1.14696 1.11342 1.07507 1.11583 1.08538 1.05273 1.27914 1.14325 0.980539 1.0591 1.00324 1.01442 1.01439 1.0258 1.03427 1.00126 0.997251 0.969538 0.967516 0.944906 0.842885 0.909026 0.935944 0.940321 0.922833 1.02269 0.835481 0.797157 0.823319 0.845828 1.01781 0.899164 0.832264 0.719356 0.763672 0.870702 0.837782 0.814674 0.834069 0.686162 0.649833 0.702451 0.656002 0.66509 0.775052 0.859839 0.780967 0.749681 0.736343 0.69389 0.75628 0.619291 0.687115 0.732793 0.815998 0.848472 0.908202 1.00621 0.93493 0.923985 0.906944 0.890736 0.925887 0.916587 0.927231 0.95614 0.969036 0.989293 0.960703 1.03246 1.04496 0.973094 0.926144 0.910743 1.103 0.995294 1.0364 1.05462 1.05938 0.970971 1.13443 1.1844 1.10437 1.07697 1.16025 1.09679 1.06536 1.17341 1.14834 1.10429 1.19561 1.14611 1.17229 1.15626 1.15366 1.188 1.16307 1.17021 1.14536 1.1572 1.17002 1.16851 1.20632 1.14593 1.17919 1.15119 1.13022 1.11584 1.12489 1.13932 1.14399 1.18333 1.17015 1.1089 1.06152 1.07636 1.14139 1.10419 1.04638 1.25106 1.19479 1.21698 1.02422 1.03245 1.02892 1.01417 0.993895 1.05805 0.991546 1.03739 1.0585 0.940517 0.971218 0.882925 0.900598 0.921606 0.940579 0.944845 0.952152 0.992639 1.02545 0.890145 0.807342 0.798528 0.936184 0.985869 0.984719 0.82902 0.806016 0.828998 0.805622 0.775453 0.815859 0.701682 0.757947 0.699952 0.742304 0.830532 0.862797 0.856908 0.791261 0.850094 0.744776 0.747423 0.76909 0.799011 0.836344 0.887577 0.964141 0.993026 0.889391 0.902065 0.852139 0.944711 0.943765 0.91714 0.990262 0.985371 0.987861 0.994917 1.00281 1.04113 0.993197 0.952629 0.931288 0.900533 1.15093 1.0579 1.09714 1.07039 1.07504 0.982184 0.982699 0.96591 1.16464 1.18123 1.18298 1.11343 1.12921 1.09379 1.19178 1.07967 1.12744 1.147 1.12864 1.15848 1.19126 1.14817 1.16461 1.15761 1.17583 1.17189 1.18007 1.14984 1.15767 1.16524 1.1664 1.18546 1.17027 1.16878 1.15875 1.11117 1.14207 1.12151 1.1447 1.14339 1.14848 1.14083 1.07984 1.16376 1.12858 1.12439 1.24833 1.23369 1.19637 1.07692 1.0193 1.03039 1.04121 1.04235 1.01838 1.0377 1.04519 1.07141 1.18255 1.02074 0.979501 0.962373 0.936341 0.958489 0.949041 0.953338 0.966298 0.964788 1.07436 0.969332 0.944049 0.904547 0.839587 1.00713 0.908323 0.915245 0.82426 0.829281 0.782687 0.832543 0.796235 0.789891 0.743657 0.781348 0.798292 0.836673 0.848122 0.873973 0.852222 0.857491 0.777222 0.755767 0.718853 0.84957 0.940018 0.8005 0.903752 0.939897 0.957741 0.983072 0.975767 0.864233 1.00747 0.948811 0.918084 0.891031 1.03889 0.995478 1.02814 1.02779 1.02203 1.00498 0.973051 0.921695 1.12366 1.06434 1.10323 1.09486 1.01464 1.09183 1.10287 1.19178 1.20069 1.11703 1.12946 1.11389 1.08534 1.12658 1.17011 1.13334 1.12085 1.19302 1.1469 1.16209 1.15716 1.17357 1.17318 1.18329 1.15142 1.15798 1.17199 1.14053 1.21308 1.17882 1.18799 1.14757 1.14077 1.16388 1.13808 1.13907 1.14044 1.15882 1.17239 1.16511 1.12464 1.13792 1.04037 1.14045 1.17039 1.13468 1.0207 1.04051 1.05394 1.06055 1.02596 1.03397 1.06902 1.16305 0.992121 1.05603 0.949955 0.957443 0.947187 0.973691 0.975813 0.994662 0.993256 1.02189 0.977191 1.01939 0.788426 0.962397 0.979625 0.963803 0.988153 0.880838 0.943608 0.918389 0.956541 0.87898 0.780029 0.75577 0.771205 0.758134 0.782274 0.827794 0.866987 0.884477 0.87879 0.84526 0.851598 0.937114 0.947612 0.699261 0.87418 1.02842 0.805341 0.993927 0.828276 0.913876 0.907807 0.931949 0.957679 0.984902 0.980198 1.19278 0.973823 0.879217 0.955559 1.06852 1.1346 0.989784 0.997759 1.06178 1.04771 1.01197 1.01439 0.981308 0.932856 1.10894 1.09266 1.12233 1.19033 1.11498 1.16189 1.10343 1.09881 1.11497 1.13292 1.1172 1.09285 1.1458 1.17248 1.14345 1.12332 1.19999 1.15226 1.17154 1.16973 1.16533 1.18243 1.18985 1.18807 1.16 1.17637 1.14686 1.18812 1.2122 1.1723 1.18853 1.14618 1.15814 1.17841 1.14004 1.14261 1.15506 1.15205 1.15611 1.15479 1.17662 1.16506 1.12923 1.19178 1.14963 1.11153 1.15775 1.09834 1.01045 1.06439 1.06198 1.07632 0.951276 1.02492 1.07503 0.958382 0.937968 1.00243 1.00905 0.999326 1.00403 1.0101 1.01391 1.00609 0.986971 1.09583 0.955774 0.923424 0.935318 0.969302 1.02776 0.951661 1.00422 0.898127 0.792437 0.889885 0.791291 0.869668 0.897569 0.90944 1.09985 0.775121 1.03735 1.11622 1.14445 0.798671 1.0041 0.943248 0.909354 0.980628 0.984453 1.00781 1.04426 1.19723 0.986082 0.954453 1.0848 1.15497 1.15843 1.00723 1.07747 1.06889 1.03133 0.996686 0.971685 0.973861 1.0932 1.05032 1.13168 1.14425 1.11756 1.14341 1.10468 1.08255 1.12581 1.10239 1.14635 1.1195 1.16683 1.08671 1.14608 1.17097 1.18272 1.1623 1.19178 1.16526 1.17965 1.17441 1.16481 1.18262 1.18996 1.16331 1.17696 1.17294 1.20102 1.19782 1.18951 1.17141 1.1828 1.14267 1.1666 1.27098 1.17863 1.14656 1.14769 1.15334 1.16334 1.16626 1.16718 1.14435 1.16762 1.16008 1.15743 1.13277 1.10165 1.20109 1.10247 1.08091 1.06771 1.08055 1.11353 1.07739 0.955058 1.02499 1.07014 0.870604 1.09618 1.02318 1.02049 1.01753 1.01754 1.01079 1.01709 1.08702 0.998691 1.02726 0.967491 0.956261 0.876072 0.724769 0.962838 0.804166 0.898236 0.895533 0.947734 1.09899 0.755454 1.02921 1.17557 1.1199 1.15387 1.01938 0.972122 0.954518 1.03909 0.939272 1.00311 1.07074 1.11618 0.955481 1.00919 1.15852 1.0302 1.16742 1.09531 1.05042 0.995992 0.995305 0.97006 1.12991 1.14314 1.19165 1.16645 1.10661 1.10841 1.09774 1.09552 1.13073 1.14123 1.15161 1.1149 1.18049 1.15459 1.15673 1.18384 1.20869 1.17467 1.14656 1.16525 1.18228 1.18867 1.16645 1.18075 1.19898 1.18765 1.18143 1.1793 1.16765 1.16811 1.17406 1.18038 1.17348 1.20375 1.18108 1.18404 1.1554 1.15 1.15764 1.15568 1.16895 1.16798 1.16801 1.15475 1.16515 1.16071 1.14031 1.12761 1.16391 1.10108 1.08697 1.08174 1.10622 1.12613 1.11447 1.08652 0.991107 1.04724 1.06529 1.10633 1.08616 1.03556 1.04991 1.02922 1.02235 1.02721 1.00805 1.03762 1.02574 1.0411 0.989498 1.04153 1.03469 0.987305 0.964812 0.901625 0.804292 1.12108 0.946654 0.952583 0.998307 1.09463 1.22018 1.01919 1.11926 1.11065 1.15468 1.02172 1.00669 1.01453 1.07654 0.970071 1.07931 1.1099 1.0018 1.0462 1.14165 1.14868 1.06264 1.07822 1.04923 1.05068 1.10987 1.08429 1.03329 1.11838 1.2364 1.23513 1.14055 1.22614 1.13924 1.13266 1.11643 1.11262 1.11146 1.12673 1.15897 1.14986 1.15936 1.11571 1.21279 1.15813 1.18885 1.13326 1.17324 1.17875 1.15684 1.16605 1.18126 1.18791 1.18668 1.16848 1.18197 1.1982 1.18722 1.18154 1.18096 1.17847 1.17331 1.19901 1.17743 1.1787 1.1591 1.15341 1.1621 1.17775 1.17198 1.17079 1.16403 1.15805 1.16235 1.14282 1.14529 1.16087 1.10158 1.09861 1.08971 1.14167 1.12468 1.15594 1.01132 1.06131 1.10011 1.10979 1.09142 1.04161 1.02665 1.02133 1.04334 1.03246 1.03448 1.03243 1.09384 1.04387 1.01922 0.938812 0.953108 1.01366 1.02799 0.984279 1.01202 1.04535 1.02201 1.12536 1.11601 1.15057 0.957441 1.09974 1.12608 1.14293 1.09831 1.04073 1.03251 1.06415 1.06046 0.991912 1.26409 1.10122 1.11302 1.01451 1.11625 1.14287 1.06734 1.14266 1.16544 1.0603 1.17275 1.06766 1.13567 1.22719 1.14393 1.14053 1.1328 1.16203 1.13211 1.15664 1.15971 1.23239 1.20609 1.18267 1.13351 1.18955 1.17635 1.18086 1.18943 1.17615 1.16019 1.16376 1.16836 1.20184 1.18473 1.1695 1.18314 1.19066 1.18832 1.18151 1.18188 1.1806 1.19006 1.19582 1.17529 1.17635 1.17682 1.16303 1.1608 1.16045 1.16343 1.17945 1.17397 1.17515 1.16208 1.16638 1.1522 1.1542 1.13509 1.16386 1.16034 1.10447 1.10411 1.09581 1.13531 1.2337 1.03598 1.08262 1.10564 1.09984 1.09568 1.06206 1.03185 1.04885 1.04795 1.03899 1.02354 1.02195 1.03978 1.04857 1.02972 1.10908 1.01644 1.09977 1.00901 0.978397 1.08417 1.07234 1.01144 1.07241 1.04514 1.10875 1.11049 1.03071 1.10412 1.14047 1.15021 1.15051 1.09971 1.21494 1.05637 1.1356 1.0343 1.03597 1.13737 1.11319 1.14164 1.13102 1.11599 1.12552 1.08056 1.1459 1.16305 1.12772 1.17777 1.11731 1.05903 1.04379 1.15401 1.12694 1.10525 1.14109 1.14795 1.14567 1.14214 1.14447 1.15687 1.16107 1.18914 1.19414 1.19325 1.18974 1.17606 1.1768 1.17099 1.17824 1.19289 1.18126 1.1813 1.18547 1.18362 1.19288 1.18946 1.17331 1.19631 1.17391 1.17615 1.1854 1.1741 1.17487 1.16352 1.17965 1.17664 1.17785 1.16808 1.16757 1.15586 1.15014 1.1687 1.15814 1.16981 1.09524 1.11605 1.1645 1.12744 1.13005 1.22531 1.0522 1.09359 1.10727 1.07721 1.1038 1.06952 1.04569 1.05262 1.03967 1.05627 1.04417 1.04417 1.23051 1.09569 1.04204 1.03285 0.957162 1.05824 1.03412 1.07229 1.12043 1.03843 1.1111 1.06472 1.11036 1.10813 1.04027 1.05515 1.1121 1.14919 1.14738 1.129 1.0902 1.12366 1.05782 1.11124 1.07564 1.13414 1.12882 1.14805 1.15231 1.13938 1.12308 1.12505 1.06633 1.12491 1.17373 1.16601 1.11793 1.10523 1.12028 1.05525 1.05971 1.17837 1.13658 1.19064 1.15018 1.15623 1.15934 1.18873 1.17079 1.20624 1.1928 1.19238 1.18626 1.1785 1.18042 1.19178 1.17906 1.17967 1.17587 1.19295 1.19365 1.19424 1.18341 1.18173 1.18567 1.18605 1.19897 1.19878 1.18356 1.18316 1.16829 1.18124 1.17982 1.19247 1.19268 1.18711 1.17852 1.19009 1.17345 1.17361 1.17878 1.17347 1.17576 1.15642 1.15547 1.16924 1.15334 1.17132 1.15845 1.16004 1.10666 1.16232 1.17693 1.13919 1.23167 1.13209 1.1283 1.07624 1.124 1.11245 1.11835 1.11509 1.09144 1.06415 1.02638 1.13315 1.06214 1.05204 1.05945 1.05211 1.15211 1.0944 0.950822 1.04999 1.04665 1.09727 1.01194 1.08022 1.13529 1.07959 1.11759 1.11094 1.12605 1.10419 1.13371 1.12004 1.14086 1.10595 1.11538 1.0815 1.11153 1.14418 1.14661 1.15188 1.08271 1.13651 1.14887 1.19178 1.12271 1.17675 1.14291 1.12634 1.12231 1.11984 1.15561 1.17926 1.14313 1.15544 1.15743 1.14844 1.15641 1.18671 1.16373 1.17797 1.18577 1.1923 1.18996 1.18731 1.18811 1.17864 1.18789 1.18814 1.18441 1.17963 1.18321 1.1754 1.1966 1.19085 1.18602 1.18316 1.18104 1.186 1.19871 1.18578 1.18649 1.19183 1.1753 1.18216 1.17713 1.18937 1.18972 1.18212 1.18361 1.17826 1.17791 1.17592 1.17783 1.17486 1.1807 1.17608 1.15698 1.15995 1.17292 1.16717 1.16801 1.15567 1.16581 1.11876 1.16733 1.16347 1.12899 1.12443 1.14656 1.21792 1.14815 1.08302 1.14903 1.1124 1.12554 1.11564 1.09668 1.16359 1.17723 1.08854 1.06797 1.15568 1.15229 1.08179 1.15241 1.10687 1.13991 1.07221 1.09357 1.07138 1.12381 1.09279 1.12488 1.11418 1.10193 1.12772 1.13818 1.16643 1.13916 1.0963 1.12565 1.14447 1.16757 1.15789 1.13226 1.1726 1.14933 1.17469 1.13667 1.19027 1.13719 1.18122 1.17006 1.14752 1.13382 1.12277 1.14977 1.17675 1.16749 1.15633 1.1528 1.16389 1.18545 1.20011 1.18305 1.18971 1.18887 1.18915 1.18432 1.18428 1.17994 1.18427 1.17623 1.18296 1.19182 1.18599 1.1839 1.1836 1.18483 1.18753 1.18824 1.18869 1.17877 1.18809 1.1825 1.18284 1.18145 1.17595 1.18084 1.18234 1.17965 1.17531 1.16811 1.17284 1.16516 1.16897 1.15022 1.13639 1.16592 1.1665 1.16654 1.13033 1.14502 1.14548 1.10787 1.11397 1.11317 1.11935 1.12029 1.14086 1.13149 1.14459 1.16229 1.10955 1.08518 1.0697 1.14734 1.1495 1.12883 1.15711 1.12525 1.1564 1.14172 1.0876 1.07786 1.09309 1.12119 1.10324 1.12112 1.13853 1.13396 1.16372 1.15598 1.19342 1.13942 1.15256 1.13733 1.15989 1.17363 1.15338 1.17235 1.16296 1.1788 1.16155 1.18376 1.17446 1.16181 1.14188 1.12136 1.15766 1.15719 1.17696 1.16583 1.17079 1.16189 1.16554 1.18308 1.18848 1.17775 1.18975 1.17528 1.1879 1.18179 1.18987 1.18959 1.18813 1.18463 1.17918 1.1848 1.17726 1.18344 1.18653 1.18703 1.18445 1.19161 1.18845 1.1867 1.18602 1.19251 1.18563 1.18102 1.18205 1.18916 1.1867 1.18239 1.18424 1.18145 1.17753 1.17747 1.18057 1.17042 1.17172 1.17057 1.17291 1.16352 1.19177 1.17318 1.17297 1.16754 1.16866 1.14343 1.16878 1.17046 1.1743 1.12767 1.14767 1.14668 1.13995 1.12949 1.13801 1.14521 1.14146 1.13105 1.13547 1.19178 1.09611 1.09016 1.16958 1.14831 1.14017 1.16849 1.14284 1.15071 1.15709 1.16031 1.14436 1.1034 1.0768 1.11424 1.12095 1.10548 1.1322 1.15327 1.14191 1.14373 1.1373 1.16267 1.16291 1.14745 1.14955 1.17077 1.15196 1.16281 1.17586 1.15965 1.19178 1.17062 1.17853 1.16516 1.18241 1.17818 1.16698 1.15218 1.15771 1.17017 1.18021 1.17087 1.17445 1.18618 1.18403 1.17676 1.19443 1.18077 1.19343 1.1839 1.18839 1.18876 1.18964 1.19128 1.19225 1.18959 1.17962 1.18619 1.17864 1.17918 1.18525 1.19192 1.18733 1.18498 1.19155 1.18842 1.18653 1.18674 1.18608 1.1929 1.18703 1.18128 1.18379 1.18316 1.18808 1.18271 1.20587 1.18428 1.18669 1.18048 1.1828 1.17344 1.18115 1.17165 1.17931 1.17608 1.16487 1.17279 1.15548 1.17107 1.17491 1.18475 1.19446 1.15707 1.11284 1.17403 1.14787 1.17545 1.15615 1.14707 1.15222 1.18867 1.09082 1.18514 1.20291 1.14722 1.14126 1.1697 1.17348 1.15786 1.13552 1.09683 1.13877 1.12277 1.11167 1.11134 1.1383 1.1577 1.14534 1.15082 1.18129 1.16354 1.16821 1.15882 1.16256 1.18295 1.15239 1.17867 1.19093 1.16749 1.1788 1.16683 1.17666 1.17774 1.1785 1.16652 1.17759 1.17783 1.16147 1.16306 1.17322 1.18316 1.18467 1.18536 1.17979 1.18665 1.18943 1.18304 1.18321 1.18721 1.19116 1.18742 1.18587 1.18661 1.18694 1.1868 1.19269 1.18642 1.18728 1.1919 1.18764 1.18496 1.19175 1.1887 1.18711 1.1867 1.19049 1.18773 1.18669 1.18101 1.18908 1.18393 1.1841 1.18533 1.18093 1.19247 1.18442 1.18692 1.18573 1.18434 1.18095 1.18384 1.18273 1.18118 1.17967 1.17916 1.1801 1.17988 1.1781 1.17754 1.17728 1.1666 1.16354 1.18315 1.17661 1.1834 1.16007 1.18575 1.19033 1.17777 1.15955 1.13242 1.15034 1.17946 1.1698 1.19069 1.18913 1.18722 1.18426 1.15155 1.15498 1.12095 1.16168 1.14242 1.14738 1.14583 1.17549 1.17168 1.16015 1.14928 1.1657 1.1059 1.14499 1.12975 1.11636 1.1413 1.16021 1.15273 1.16213 1.14455 1.19066 1.17791 1.1744 1.16161 1.16251 1.16241 1.16288 1.15781 1.18041 1.1864 1.18479 1.1698 1.17606 1.17141 1.17973 1.16978 1.17988 1.17872 1.18067 1.16849 1.17642 1.16386 1.16618 1.18314 1.18578 1.19152 1.18516 1.17948 1.18644 1.18793 1.19027 1.18728 1.18333 1.18795 1.17987 1.18189 1.18912 1.18987 1.18704 1.1899 1.18981 1.18665 1.19287 1.19176 1.19069 1.18777 1.18575 1.1883 1.1888 1.19068 1.18842 1.19178 1.18269 1.1894 1.19775 1.18854 1.18628 1.18161 1.18644 1.18226 1.18114 1.18463 1.1785 1.17828 1.1797 1.17167 1.17786 1.16642 1.1741 1.17041 1.18069 1.18545 1.18643 1.1896 1.16097 1.1733 1.16131 1.16545 1.17871 1.17599 1.18188 1.17471 1.18394 1.18799 1.15126 1.15284 1.1645 1.1513 1.15142 1.17533 1.16397 1.18515 1.17524 1.16515 1.16429 1.1421 1.13726 1.12233 1.14767 1.15932 1.15537 1.16479 1.16541 1.19213 1.18043 1.18751 1.16824 1.16532 1.17897 1.17558 1.1798 1.16093 1.17981 1.1872 1.17778 1.18051 1.18515 1.18125 1.18031 1.16957 1.17897 1.17252 1.17344 1.18657 1.18576 1.18049 1.18479 1.1871 1.18862 1.18607 1.18987 1.18797 1.18525 1.18577 1.19031 1.18932 1.19064 1.18856 1.18816 1.19092 1.19114 1.19063 1.19072 1.19322 1.19216 1.1909 1.18617 1.19313 1.19178 1.18833 1.18876 1.19042 1.19178 1.18894 1.18733 1.18926 1.18366 1.18663 1.18654 1.18553 1.19032 1.18224 1.18469 1.18228 1.18751 1.18195 1.18501 1.18511 1.179 1.18179 1.17644 1.18018 1.17645 1.16617 1.17137 1.18057 1.18169 1.18777 1.19906 1.16686 1.16534 1.17735 1.1779 1.20023 1.18575 1.16886 1.16097 1.16557 1.15589 1.16412 1.16324 1.18163 1.15789 1.1624 1.17416 1.15111 1.13825 1.12569 1.14964 1.16114 1.16198 1.17888 1.19001 1.17722 1.16688 1.17097 1.17852 1.18076 1.17533 1.18581 1.18363 1.18615 1.186 1.18787 1.18318 1.18617 1.17607 1.18516 1.18994 1.18187 1.17996 1.17978 1.18843 1.18173 1.18358 1.1859 1.19032 1.18978 1.18715 1.18857 1.1931 1.1889 1.18575 1.19075 1.18841 1.19023 1.18789 1.19193 1.19069 1.18985 1.19178 1.18679 1.19137 1.19163 1.19178 1.19075 1.18695 1.19178 1.1924 1.18868 1.18859 1.19178 1.18922 1.19056 1.19228 1.18845 1.18948 1.18652 1.18772 1.18959 1.18915 1.18308 1.18217 1.18261 1.18771 1.18185 1.18087 1.18585 1.18088 1.18388 1.17859 1.16728 1.17463 1.16973 1.19242 1.18244 1.19349 1.17208 1.17394 1.18711 1.17374 1.17854 1.18453 1.2016 1.1856 1.18903 1.17823 1.16401 1.16263 1.17093 1.17174 1.15213 1.15519 1.17294 1.1809 1.17885 1.16502 1.16629 1.17473 1.1555 1.14007 1.19178 1.12949 1.13329 1.15092 1.15199 1.17126 1.16582 1.17517 1.17505 1.15631 1.19154 1.18163 1.17 1.1756 1.18482 1.18471 1.18639 1.18976 1.1891 1.18188 1.18708 1.18798 1.18999 1.18328 1.1881 1.18616 1.18614 1.1885 1.18172 1.18637 1.18471 1.18601 1.19072 1.18644 1.187 1.18834 1.19313 1.19094 1.18848 1.18852 1.18864 1.18745 1.18744 1.19084 1.18984 1.19045 1.18827 1.19165 1.19178 1.19178 1.19087 1.18725 1.18838 1.19184 1.19229 1.19178 1.18888 1.18993 1.19255 1.18961 1.18958 1.19084 1.18889 1.18865 1.18881 1.18675 1.18586 1.19075 1.19154 1.1837 1.18279 1.18669 1.18286 1.18503 1.18619 1.1869 1.18703 1.18328 1.1835 1.17963 1.17694 1.18716 1.17492 1.18277 1.17273 1.17448 1.17486 1.17956 1.18419 1.19685 1.18956 1.19428 1.17989 1.16805 1.16568 1.17228 1.16234 1.16775 1.17008 1.16517 1.19122 1.18087 1.16001 1.18188 1.13407 1.19253 1.18923 1.19118 1.16901 1.17956 1.17425 1.1811 1.19178 1.17265 1.19002 1.18413 1.18551 1.18517 1.18429 1.18639 1.19011 1.19149 1.18322 1.18871 1.18636 1.19191 1.19201 1.18861 1.18742 1.18812 1.18972 1.18904 1.18679 1.1855 1.18742 1.18886 1.19078 1.19178 1.1902 1.19089 1.18835 1.18958 1.19178 1.18987 1.18951 1.19178 1.19028 1.19177 1.19178 1.19178 1.19161 1.18982 1.19178 1.19115 1.1908 1.19243 1.19069 1.19215 1.19213 1.19061 1.18858 1.18903 1.18981 1.1868 1.18657 1.19025 1.18981 1.19132 1.18527 1.18333 1.18455 1.18521 1.18667 1.18538 1.18427 1.18632 1.1823 1.17156 1.18587 1.17058 1.18515 1.19138 1.19295 1.17316 1.18741 1.2001 1.17977 1.18428 1.19503 1.18652 1.17918 1.1856 1.18304 1.16557 1.18673 1.1864 1.18078 1.18162 1.16229 1.18175 1.19241 1.18017 1.17361 1.18973 1.18416 1.18569 1.18441 1.18674 1.19114 1.19041 1.18629 1.19011 1.18828 1.18839 1.18865 1.19087 1.18908 1.18773 1.18979 1.19036 1.19093 1.18643 1.18688 1.18583 1.18796 1.19059 1.19106 1.18716 1.18945 1.18844 1.19205 1.1903 1.19028 1.19019 1.19178 1.18976 1.19192 1.19068 1.19093 1.19123 1.1906 1.19172 1.19185 1.19194 1.19157 1.19159 1.18973 1.19168 1.19113 1.19016 1.19153 1.19027 1.19081 1.18939 1.19088 1.18711 1.19037 1.18982 1.19155 1.18692 1.18374 1.1867 1.18785 1.18636 1.18831 1.18732 1.1844 1.18555 1.18235 1.17432 1.18051 1.18448 1.19015 1.18701 1.17701 1.18755 1.19346 1.19193 1.1907 1.18937 1.18414 1.18367 1.18614 1.18652 1.18055 1.18903 1.169 1.18245 1.17299 1.1925 1.16682 1.18116 1.17851 1.19148 1.1902 1.19178 1.16729 1.16829 1.19038 1.17963 1.17476 1.18085 1.18615 1.17416 1.19051 1.18436 1.18567 1.18613 1.18481 1.19114 1.18938 1.1903 1.18814 1.19091 1.18909 1.18808 1.18972 1.19051 1.18596 1.18791 1.18757 1.18867 1.1908 1.19082 1.19048 1.19009 1.19158 1.19163 1.19049 1.18939 1.18767 1.19094 1.19074 1.18682 1.1835 1.18608 1.18742 1.18613 1.18766 1.1847 1.18561 1.18755 1.18347 1.19238 1.19178 1.1856 1.19148 1.18474 1.18895 1.18476 1.18703 1.1918 1.18275 1.18494 1.1735 1.19245 1.16735 1.181 1.18523 1.18998 
SCALARS Stress float 1
LOOKUP_TABLE default
-238490000000.0 -883222000000.0 -1.58085e+12 -1.54227e+12 -4.46291e+12 -743469000000.0 -137966000000.0 -478880000000.0 -1.7518e+12 -1.9614e+12 -3.78999e+12 -3.49272e+12 -1.84454e+12 -3.03331e+12 -1.6011e+12 -3.07188e+12 -4.16693e+12 -1.52565e+12 -35208000000.0 -1.42732e+12 -1.06961e+12 -386632000000.0 -309362000000.0 -154020000000.0 -88905700000.0 -43713200000.0 -58645000000.0 -209499000000.0 -186691000000.0 -353979000000.0 -313427000000.0 -355874000000.0 -424038000000.0 -456456000000.0 -520653000000.0 -487041000000.0 -739919000000.0 -1.27275e+12 -1.32694e+12 -870063000000.0 -2.23518e+12 -1.16058e+12 -3.13414e+12 -4.3141e+12 -2.63888e+12 -2.38689e+12 -3.15626e+12 -2.62133e+12 -2.03309e+12 -1.91955e+12 -4.6068e+12 -4.00607e+12 -5.73078e+12 -3.18587e+12 -3.38794e+12 -2.22188e+12 -1.39127e+12 -1.01782e+12 -523446000000.0 -611470000000.0 -494239000000.0 -296503000000.0 -258882000000.0 -25496500000.0 -207823000000.0 -218686000000.0 -225402000000.0 -151234000000.0 -137755000000.0 -44791600000.0 -349106000000.0 -67318000000.0 -180226000000.0 -472049000000.0 -287642000000.0 -259154000000.0 -52891200000.0 -729243000000.0 -386981000000.0 -335331000000.0 -636972000000.0 -768353000000.0 -1.562e+12 -2.03058e+12 -1.26865e+12 -1.79157e+12 -1.81587e+12 -2.82388e+12 -3.3848e+12 -3.10416e+12 -1.86221e+12 -4.60366e+12 -1.67481e+12 -3.56498e+12 -3.83197e+12 -3.81007e+12 -6.58467e+12 -4.74894e+12 -3.41372e+12 -3.17239e+12 -6.98221e+12 -3.10699e+12 -2.99586e+12 -3.94549e+12 -3.63666e+12 -5.70625e+12 -4.51028e+12 -2.77309e+12 -4.76141e+12 -3.59518e+12 -1.41439e+12 -883111000000.0 -469983000000.0 -859219000000.0 -367603000000.0 -559819000000.0 -353665000000.0 -465996000000.0 -358232000000.0 -104686000000.0 -167662000000.0 -266664000000.0 -102676000000.0 -199414000000.0 -579197000000.0 -492450000000.0 -769472000000.0 -574022000000.0 -903884000000.0 -438485000000.0 -856310000000.0 -1.36765e+12 -2.59771e+12 -3.12162e+12 -1.50918e+12 -2.14095e+12 -1.89341e+12 -3.9005e+12 -4.31435e+12 -3.20735e+12 -4.6839e+12 -2.02594e+12 -4.04424e+12 -4.38659e+12 -5.93368e+12 -3.62427e+12 -4.89054e+12 -5.23271e+12 -2.77627e+12 -2.28783e+12 -3.98661e+12 -3.53277e+12 -4.88329e+12 -6.66137e+12 -5.65603e+12 -4.70676e+12 -3.12576e+12 -4.70198e+12 -1.63662e+12 -1.42547e+12 -3.34991e+12 -2.90061e+12 -2.16214e+12 -3.05855e+12 -1.33773e+12 -2.75696e+12 -1.37636e+12 -1.32349e+12 -693498000000.0 -278220000000.0 -529983000000.0 -244548000000.0 -258041000000.0 -228462000000.0 -338419000000.0 -373842000000.0 -370011000000.0 -619676000000.0 -426265000000.0 -1.02182e+12 -803213000000.0 -1.51307e+12 -641800000000.0 -885346000000.0 -1.65602e+12 -3.45673e+12 -514890000000.0 -905149000000.0 -1.21254e+12 -3.10673e+12 -2.66705e+12 -2.05609e+12 -4.42933e+12 -6.75884e+12 -3.67526e+12 -2.71907e+12 -3.87747e+12 -7.41261e+12 -1.06912e+13 -6.09655e+12 -6.84082e+12 -6.13655e+12 -3.10118e+12 -2.66078e+12 -3.64505e+12 -6.75806e+12 -5.34963e+12 -4.71106e+12 -4.26577e+12 -2.71851e+12 -4.81439e+12 -5.85371e+12 -2.78646e+12 -3.05603e+12 -4.6765e+12 -5.90308e+12 -4.02574e+12 -2.99865e+12 -2.23e+12 -3.03976e+12 -5.09326e+12 -5.37668e+12 -4.44135e+12 -3.37025e+12 -1.13893e+12 -1.38096e+12 -1.90815e+12 -1.32317e+12 -505028000000.0 -1.50927e+12 -745778000000.0 -895212000000.0 -1.0638e+12 -648418000000.0 -685625000000.0 -426493000000.0 -568649000000.0 -840310000000.0 -759966000000.0 -1.0091e+12 -560080000000.0 -1.37245e+12 -1.29612e+12 -835634000000.0 -413726000000.0 -1.62169e+12 -1.08707e+12 -2.25153e+12 -2.18764e+12 -2.18388e+12 -1.73971e+12 -4.01536e+12 -2.95082e+12 -7.77454e+12 -5.02496e+12 -4.76397e+12 -1.84358e+12 -6.71633e+12 -6.43297e+12 -4.9823e+12 -4.41392e+12 -6.33226e+12 -3.77371e+12 -2.01852e+12 -2.48935e+12 -3.74998e+12 -3.52036e+12 -7.93144e+12 -5.9277e+12 -7.85657e+12 -8.26967e+12 -4.10428e+12 -6.51217e+12 -3.30583e+12 -3.81503e+12 -5.52727e+12 -4.39133e+12 -4.24524e+12 -5.42963e+12 -3.19063e+12 -3.5197e+12 -3.00314e+12 -4.22356e+12 -2.3493e+12 -1.30972e+12 -176742000000.0 -1.89537e+12 -1.25428e+12 -1.10638e+12 -349770000000.0 -1.01931e+12 -892048000000.0 -785817000000.0 -1.00659e+12 -271854000000.0 -530664000000.0 -643344000000.0 -739245000000.0 -1.11787e+12 -1.32885e+12 -1.39824e+12 -1.83466e+12 -2.65976e+12 -1.19547e+12 -3.21648e+12 -3.69874e+12 -2.81237e+12 -3.12565e+12 -4.90263e+12 -2.87079e+12 -3.2715e+12 -4.78911e+12 -4.8782e+12 -4.4768e+12 -5.09393e+12 -6.1949e+12 -5.15755e+12 -3.77971e+12 -3.55819e+12 -7.6884e+12 -2.97196e+12 -5.42462e+12 -5.15907e+12 -4.43194e+12 -4.83742e+12 -2.85696e+12 -4.49177e+12 -3.50742e+12 -5.08524e+12 -3.46736e+12 -5.30753e+12 -3.15439e+12 -6.7372e+12 -3.06432e+12 -8.20007e+12 -4.00563e+12 -6.51967e+12 -5.20331e+12 -5.47129e+12 -3.24188e+12 -3.7888e+12 -4.65517e+12 -6.05282e+12 -4.54407e+12 -3.94081e+12 -2.96764e+12 -3.16796e+12 -2.87173e+12 -3.90455e+12 -1.33723e+12 -2.97255e+12 -2.77777e+12 -1.88733e+12 -2.30345e+12 -2.42578e+12 -1.1068e+12 -1.12947e+12 -1.50903e+12 -1.03683e+12 -1.43996e+12 -1.22085e+12 -692109000000.0 -499984000000.0 -58516400000.0 -532275000000.0 -1.69592e+12 -1.09496e+12 -1.05664e+12 -2.21469e+12 -2.49092e+12 -1.88298e+12 -1.58062e+12 -2.99188e+12 -3.0099e+12 -2.87918e+12 -3.90582e+12 -2.51565e+12 -1.86954e+12 -2.65211e+12 -3.99928e+12 -2.84931e+12 -2.65123e+12 -3.35119e+12 -4.12572e+12 -3.71921e+12 -4.11268e+12 -6.9602e+12 -4.26921e+12 -8.60472e+12 -4.35321e+12 -1.01017e+13 -5.78401e+12 -6.41625e+12 -5.71103e+12 -4.7384e+12 -3.56044e+12 -4.82221e+12 -3.25066e+12 -4.7737e+12 -8.04929e+12 -4.21794e+12 -7.85339e+12 -6.85573e+12 -5.81207e+12 -6.18607e+12 -6.14038e+12 -3.47916e+12 -4.34612e+12 -4.37915e+12 -5.08926e+12 -4.22987e+12 -5.8391e+12 -6.43331e+12 -4.8213e+12 -2.72914e+12 -5.04287e+12 -3.33188e+12 -2.74414e+12 -2.81097e+12 -1.79513e+12 -2.18356e+12 -2.62421e+12 -3.0397e+12 -1.71022e+12 -1.81372e+12 -2.38993e+12 -1.89154e+12 -1.98877e+12 -927455000000.0 -1.14431e+12 -1.2156e+12 -367894000000.0 -351460000000.0 -1.08795e+12 -559800000000.0 -1.33503e+12 -538013000000.0 -497552000000.0 -497878000000.0 -1.0538e+12 -1.06834e+12 -1.56242e+12 -1.15106e+12 -1.81672e+12 -713089000000.0 -1.05375e+12 -1.09945e+12 -1.48224e+12 -1.89917e+12 -2.12363e+12 -1.17935e+12 -2.00393e+12 -2.65125e+12 -2.41922e+12 -2.8068e+12 -3.50688e+12 -3.53987e+12 -3.69258e+12 -4.95002e+12 -6.52512e+12 -4.06377e+12 -4.89989e+12 -4.82367e+12 -1.02978e+13 -5.79684e+12 -7.65124e+12 -8.07038e+12 -3.48716e+12 -4.34138e+12 -5.60486e+12 -8.15918e+12 -6.19317e+12 -4.76139e+12 -4.00167e+12 -4.25115e+12 -2.84543e+12 -6.90097e+12 -2.93607e+12 -2.65868e+12 -2.6761e+12 -2.45995e+12 -4.49386e+12 -6.34354e+12 -6.64424e+12 -7.99606e+12 -4.54477e+12 -2.61276e+12 -5.79563e+12 -5.03408e+12 -4.78439e+12 -2.6678e+12 -4.86652e+12 -4.00096e+12 -5.10668e+12 -3.91746e+12 -5.13074e+12 -3.94451e+12 -1.71371e+12 -3.48893e+12 -3.7551e+12 -1.85739e+12 -4.06152e+12 -2.91024e+12 -1.90476e+12 -3.14318e+12 -1.58376e+12 -2.75167e+12 -1.43409e+12 -2.09824e+12 -1.15339e+12 -647220000000.0 -1.81918e+12 -1.6369e+12 -1.61335e+12 -642074000000.0 -1.20111e+12 -1.22895e+12 -1.07708e+12 -896088000000.0 -853077000000.0 -1.08857e+12 -1.40454e+12 -1.1459e+12 -1.31217e+12 -1.77572e+12 -598298000000.0 -1.52366e+12 -679673000000.0 -1.36222e+12 -1.12208e+12 -652076000000.0 -1.36254e+12 -2.15994e+12 -1.8485e+12 -2.87043e+12 -2.45942e+12 -3.7008e+12 -4.26071e+12 -2.34286e+12 -1.40218e+12 -2.19771e+12 -3.76487e+12 -4.58998e+12 -3.53193e+12 -5.49301e+12 -3.2796e+12 -3.23679e+12 -6.38233e+12 -7.39576e+12 -2.47154e+12 -4.09407e+12 -7.38728e+12 -5.22966e+12 -7.0244e+12 -3.3493e+12 -4.46279e+12 -4.48092e+12 -5.50295e+12 -5.61002e+12 -5.12908e+12 -2.79815e+12 -5.35555e+12 -4.97133e+12 -3.5621e+12 -5.22931e+12 -4.49493e+12 -3.64094e+12 -7.31938e+12 -8.02962e+12 -3.79047e+12 -7.3997e+12 -4.29347e+12 -5.65305e+12 -7.02574e+12 -5.0293e+12 -5.82924e+12 -8.16955e+12 -4.61525e+12 -6.4718e+12 -3.52829e+12 -3.34714e+12 -5.28491e+12 -3.02653e+12 -6.94899e+12 -7.0512e+12 -4.39141e+12 -2.62452e+12 -4.65791e+12 -3.66237e+12 -3.74024e+12 -2.21541e+12 -3.14958e+12 -3.06523e+12 -2.7408e+12 -3.08712e+12 -2.86114e+12 -3.02707e+12 -2.32104e+12 -1.62189e+12 -686251000000.0 -1.25308e+12 -1.73753e+12 -848896000000.0 -1.15441e+12 -279837000000.0 -611744000000.0 -905179000000.0 -221975000000.0 -522955000000.0 -357973000000.0 -461640000000.0 -852550000000.0 -654598000000.0 -843323000000.0 -1.33231e+12 -958526000000.0 -596676000000.0 -480838000000.0 -1.11962e+12 -1.45456e+12 -1.63076e+12 -1.71036e+12 -2.03656e+12 -1.86853e+12 -3.10501e+12 -3.7518e+12 -4.33066e+12 -3.61083e+12 -2.31547e+12 -1.65454e+12 -2.15292e+12 -2.47457e+12 -6.04049e+12 -5.77272e+12 -4.17229e+12 -9.91223e+12 -4.17142e+12 -6.99831e+12 -5.61055e+12 -3.09293e+12 -9.05807e+12 -8.6121e+12 -7.4148e+12 -9.05113e+12 -3.28024e+12 -2.88578e+12 -8.16739e+12 -5.624e+12 -8.67441e+12 -8.1047e+12 -5.29471e+12 -5.01102e+12 -6.43053e+12 -8.08837e+12 -5.7071e+12 -6.39436e+12 -5.34094e+12 -6.8263e+12 -5.75934e+12 -2.49523e+12 -4.52161e+12 -6.32963e+12 -5.71145e+12 -3.94227e+12 -5.57943e+12 -5.79718e+12 -3.31941e+12 -4.76711e+12 -3.36675e+12 -5.97867e+12 -7.46864e+12 -5.26607e+12 -7.51905e+12 -2.63508e+12 -2.88747e+12 -4.32004e+12 -5.63721e+12 -2.72415e+12 -2.24596e+12 -2.81377e+12 -1.91341e+12 -4.56212e+12 -1.34636e+12 -2.12273e+12 -1.74915e+12 -2.962e+12 -965065000000.0 -1.22701e+12 -1.65406e+12 -812306000000.0 -1.32836e+12 -1.23858e+12 -1.88436e+12 -1.3151e+12 -1.23429e+12 -912735000000.0 -512237000000.0 -484396000000.0 -383073000000.0 -423269000000.0 -794491000000.0 -667460000000.0 -638364000000.0 -1.24661e+12 -1.50314e+12 -1.57335e+12 -573886000000.0 -1.02812e+12 -956662000000.0 -1.44413e+12 -854029000000.0 -1.70304e+12 -3.53751e+12 -2.3783e+12 -2.47365e+12 -1.64241e+12 -4.17823e+12 -1.80167e+12 -5.57932e+12 -2.23336e+12 -4.47248e+12 -4.25082e+12 -3.9917e+12 -4.1516e+12 -4.65304e+12 -3.52599e+12 -6.39396e+12 -6.57465e+12 -6.68609e+12 -6.56103e+12 -5.45359e+12 -4.68427e+12 -7.72349e+12 -4.90487e+12 -8.37688e+12 -7.37622e+12 -7.32718e+12 -1.08825e+13 -2.5287e+12 -9.12823e+12 -3.86822e+12 -3.28188e+12 -6.01767e+12 -4.23534e+12 -5.94833e+12 -1.12112e+13 -3.05858e+12 -9.212e+12 -8.73272e+12 -4.81437e+12 -8.13384e+12 -5.17509e+12 -8.87544e+12 -9.59331e+12 -6.89815e+12 -5.5597e+12 -5.89746e+12 -3.55985e+12 -2.37374e+12 -4.29545e+12 -3.08183e+12 -3.51292e+12 -7.30458e+12 -4.58141e+12 -2.39202e+12 -6.03547e+12 -3.88481e+12 -2.57013e+12 -2.86889e+12 -1.64033e+12 -2.99972e+12 -2.95621e+12 -2.70407e+12 -3.83672e+12 -3.50499e+12 -1.38855e+12 -2.71686e+12 -1.91593e+12 -1.14428e+12 -1.44951e+12 -1.17746e+12 -1.15626e+12 -1.50248e+12 -1.23488e+12 -437247000000.0 -1.4472e+12 -907509000000.0 -468806000000.0 -320331000000.0 -440565000000.0 -808080000000.0 -1.00269e+12 -1.57754e+12 -731937000000.0 -1.09096e+12 -112909000000.0 -875786000000.0 -913750000000.0 -955632000000.0 -1.00302e+12 -1.46521e+12 -966201000000.0 -1.98029e+12 -1.81299e+12 -2.37106e+12 -2.20511e+12 -1.11927e+12 -3.68021e+12 -4.17376e+12 -1.5255e+12 -3.47817e+12 -2.37324e+12 -2.43403e+12 -4.08971e+12 -5.70137e+12 -2.62888e+12 -2.72517e+12 -5.21303e+12 -4.82673e+12 -4.7189e+12 -2.53694e+12 -2.56368e+12 -3.84264e+12 -3.21257e+12 -2.7711e+12 -4.66703e+12 -4.92081e+12 -3.94329e+12 -4.22784e+12 -1.84466e+12 -6.19584e+12 -4.89978e+12 -7.01578e+12 -6.22127e+12 -4.30482e+12 -6.15303e+12 -7.24839e+12 -6.35852e+12 -7.86744e+12 -7.62716e+12 -8.39267e+12 -2.7029e+12 -7.18863e+12 -3.1962e+12 -3.97635e+12 -2.90954e+12 -2.40435e+12 -7.05734e+12 -4.96413e+12 -4.03715e+12 -6.53182e+12 -8.7324e+12 -6.38411e+12 -7.16631e+12 -4.847e+12 -7.97109e+12 -5.80191e+12 -2.95951e+12 -9.71701e+12 -7.03143e+12 -6.05584e+12 -7.57562e+12 -3.27712e+12 -5.18616e+12 -3.24233e+12 -4.53479e+12 -4.8803e+12 -4.50651e+12 -4.26814e+12 -3.99842e+12 -3.6012e+12 -6.25537e+12 -3.1946e+12 -3.60665e+12 -2.88627e+12 -3.94666e+12 -2.65735e+12 -2.78699e+12 -1.66467e+12 -829019000000.0 -1.19937e+12 -1.54692e+12 -1.12243e+12 -297154000000.0 -825621000000.0 -1.44668e+12 -1.86009e+12 -1.09336e+12 -995914000000.0 -642479000000.0 -793241000000.0 -886509000000.0 -118779000000.0 -374370000000.0 -1.23292e+12 -1.7047e+12 -1.37072e+12 -1.64906e+12 -1.3354e+12 -1.84426e+12 -2.74289e+12 -1.93076e+12 -1.07208e+12 -4.25121e+12 -2.42995e+12 -2.81649e+12 -1.27155e+12 -3.17457e+12 -2.96164e+12 -3.61999e+12 -3.0022e+12 -4.11506e+12 -5.37275e+12 -3.20609e+12 -3.11857e+12 -3.79144e+12 -3.79002e+12 -3.45275e+12 -2.18734e+12 -4.22574e+12 -3.3523e+12 -4.20038e+12 -3.99186e+12 -5.30227e+12 -4.5186e+12 -3.33696e+12 -4.53914e+12 -5.35426e+12 -3.22608e+12 -5.32971e+12 -1.0959e+13 -6.89979e+12 -6.42528e+12 -6.726e+12 -9.73155e+12 -6.76621e+12 -6.93949e+12 -5.03544e+12 -7.16177e+12 -8.20343e+12 -5.35293e+12 -3.39004e+12 -5.91455e+12 -6.31765e+12 -4.32335e+12 -5.05974e+12 -6.62942e+12 -5.3854e+12 -7.08542e+12 -7.27542e+12 -4.32067e+12 -4.68986e+12 -6.52344e+12 -4.15521e+12 -4.26858e+12 -7.45713e+12 -5.03947e+12 -5.92917e+12 -2.85338e+12 -3.70699e+12 -5.09779e+12 -4.9923e+12 -3.67137e+12 -5.5287e+12 -5.04174e+12 -4.92766e+12 -3.58323e+12 -4.12522e+12 -3.39178e+12 -3.50655e+12 -3.19748e+12 -2.14193e+12 -3.71417e+12 -2.63953e+12 -2.55234e+12 -3.71532e+12 -3.3624e+12 -2.67624e+12 -2.81204e+12 -1.98584e+12 -2.02036e+12 -2.49981e+12 -1.61886e+12 -1.11854e+12 -885442000000.0 -788557000000.0 -1.36696e+12 -677608000000.0 -622381000000.0 -1.05746e+12 -825432000000.0 -436340000000.0 -434473000000.0 -630584000000.0 -1.11138e+12 -1.09344e+12 -1.06007e+12 -1.18943e+12 -1.20216e+12 -1.25778e+12 -445908000000.0 -986706000000.0 -1.65629e+12 -793879000000.0 -1.80505e+12 -2.61218e+12 -1.47032e+12 -1.64921e+12 -4.0221e+12 -1.91012e+12 -2.32816e+12 -3.73466e+12 -4.32542e+12 -3.74091e+12 -4.99276e+12 -3.57401e+12 -4.14128e+12 -4.98167e+12 -3.57019e+12 -3.53005e+12 -4.94474e+12 -4.70113e+12 -6.48814e+12 -9.3983e+12 -3.19234e+12 -8.07586e+12 -5.1423e+12 -8.04386e+12 -6.20209e+12 -8.12391e+12 -5.11142e+12 -5.65182e+12 -6.02006e+12 -3.5394e+12 -7.79426e+12 -4.66733e+12 -1.11606e+13 -4.81599e+12 -6.4978e+12 -4.02071e+12 -3.39193e+12 -4.02502e+12 -3.45799e+12 -8.79044e+12 -8.18739e+12 -9.0927e+12 -7.23234e+12 -6.46294e+12 -5.24447e+12 -4.05997e+12 -4.10665e+12 -7.54949e+12 -7.03703e+12 -5.6556e+12 -9.19982e+12 -5.97975e+12 -7.59175e+12 -3.98986e+12 -7.70888e+12 -6.69501e+12 -3.5017e+12 -3.77382e+12 -8.16111e+12 -4.7258e+12 -5.29744e+12 -4.86269e+12 -3.63888e+12 -3.72115e+12 -4.17008e+12 -3.6284e+12 -3.09967e+12 -3.4809e+12 -3.2376e+12 -3.72029e+12 -4.52084e+12 -3.26975e+12 -2.8776e+12 -3.90531e+12 -2.9249e+12 -1.41406e+12 -2.30335e+12 -1.51758e+12 -2.32085e+12 -1.7204e+12 -431227000000.0 -986136000000.0 -1.12785e+12 -1.23444e+12 -318611000000.0 -1.19924e+12 -959065000000.0 -937792000000.0 -36402400000.0 -894537000000.0 -1.04781e+12 -954201000000.0 -421568000000.0 -1.10172e+12 -451048000000.0 -390605000000.0 -1.25029e+12 -1.01372e+12 -1.28149e+12 -833124000000.0 -1.10749e+12 -613886000000.0 -1.56499e+12 -2.1152e+12 -1.11341e+12 -1.05887e+12 -1.6046e+12 -1.32915e+12 -828867000000.0 -2.15279e+12 -1.94631e+12 -3.31341e+12 -2.20614e+12 -1.45702e+12 -4.89414e+12 -3.39828e+12 -3.23246e+12 -1.80761e+12 -2.10906e+12 -3.78846e+12 -5.54839e+12 -4.19547e+12 -2.98026e+12 -5.72283e+12 -6.87005e+12 -2.56687e+12 -3.72693e+12 -5.95635e+12 -5.62659e+12 -4.93764e+12 -5.02865e+12 -6.66145e+12 -5.29981e+12 -5.41761e+12 -8.53699e+12 -8.62385e+12 -7.0779e+12 -5.17799e+12 -8.07868e+12 -4.40821e+12 -4.10498e+12 -4.76872e+12 -5.65439e+12 -7.98173e+12 -7.25755e+12 -6.01466e+12 -1.10679e+13 -4.12368e+12 -6.61982e+12 -6.38985e+12 -7.46536e+12 -4.16812e+12 -7.56813e+12 -5.51718e+12 -8.50584e+12 -7.86535e+12 -6.06832e+12 -3.24243e+12 -4.15377e+12 -5.49404e+12 -9.17545e+12 -5.05899e+12 -5.93392e+12 -4.16681e+12 -4.96503e+12 -4.00923e+12 -4.22277e+12 -3.42933e+12 -6.02067e+12 -5.18879e+12 -6.29589e+12 -3.00979e+12 -4.60698e+12 -4.38191e+12 -5.21718e+12 -4.12049e+12 -4.22169e+12 -3.98914e+12 -6.02919e+12 -3.42404e+12 -2.28385e+12 -2.09546e+12 -2.86712e+12 -1.92808e+12 -2.92416e+12 -4.80408e+12 -1.80213e+12 -2.47246e+12 -1.38795e+12 -1.78212e+12 -781198000000.0 -1.51019e+12 -990310000000.0 -12664000000.0 -575785000000.0 -684565000000.0 -504663000000.0 -879480000000.0 -902888000000.0 -548279000000.0 -312695000000.0 -1.31092e+12 -321257000000.0 -597961000000.0 -371182000000.0 -358248000000.0 -913893000000.0 -556435000000.0 -1.52751e+12 -631979000000.0 -427867000000.0 -1.9749e+12 -1.53484e+12 -934115000000.0 -2.7463e+12 -1.41494e+12 -1.27347e+12 -1.1811e+12 -1.309e+12 -1.58024e+12 -1.8405e+12 -1.33833e+12 -1.7684e+12 -3.12079e+12 -1.44662e+12 -2.85509e+12 -4.08386e+12 -5.53467e+12 -2.86871e+12 -3.50847e+12 -2.08486e+12 -3.38922e+12 -5.03587e+12 -5.0982e+12 -6.38816e+12 -3.76819e+12 -4.51084e+12 -4.20354e+12 -5.06553e+12 -5.4857e+12 -5.06857e+12 -9.39006e+12 -5.8633e+12 -7.85706e+12 -6.65956e+12 -3.24809e+12 -8.0622e+12 -8.822e+12 -5.08712e+12 -7.5396e+12 -2.74309e+12 -5.33164e+12 -5.76919e+12 -5.59141e+12 -6.08716e+12 -6.81211e+12 -5.85664e+12 -6.10952e+12 -7.14923e+12 -5.98867e+12 -3.46621e+12 -8.50032e+12 -7.05193e+12 -7.9245e+12 -4.87601e+12 -7.33194e+12 -8.93528e+12 -7.9975e+12 -3.97905e+12 -7.82326e+12 -5.33606e+12 -6.44012e+12 -4.33221e+12 -5.68874e+12 -3.62817e+12 -3.5571e+12 -6.4239e+12 -1.31107e+12 -2.72216e+12 -5.17115e+12 -4.0938e+12 -4.11767e+12 -6.14896e+12 -4.72737e+12 -3.85904e+12 -4.50065e+12 -2.83116e+12 -4.52609e+12 -2.78852e+12 -4.628e+12 -3.3095e+12 -1.87206e+12 -2.39016e+12 -2.33224e+12 -2.56962e+12 -3.09479e+12 -2.06416e+12 -3.13946e+12 -2.21484e+12 -1.8788e+12 -1.55224e+12 -1.26404e+12 -2.34045e+12 -2.97353e+12 -1.04701e+12 -1.11493e+12 -1.248e+12 -604197000000.0 -1.42841e+12 -1.35873e+12 -460096000000.0 -1.05554e+12 -1.4606e+12 -1.00065e+12 -1.3885e+12 -1.10906e+12 -907125000000.0 -802800000000.0 -893979000000.0 -584230000000.0 -1.18335e+12 -1.08626e+12 -1.16507e+12 -709288000000.0 -1.49128e+12 -1.34158e+12 -1.56025e+12 -2.03465e+12 -2.50853e+12 -1.15651e+12 -2.16882e+12 -1.85962e+12 -1.99581e+12 -2.60561e+12 -2.53368e+12 -1.35759e+12 -2.19135e+12 -2.83405e+12 -2.01819e+12 -4.08264e+12 -3.10813e+12 -1.94562e+12 -3.71549e+12 -2.79875e+12 -2.05363e+12 -4.3506e+12 -3.32831e+12 -4.52539e+12 -3.46986e+12 -4.95488e+12 -6.5477e+12 -5.93315e+12 -2.14129e+12 -3.92722e+12 -5.35704e+12 -4.43672e+12 -6.7979e+12 -4.65347e+12 -4.76624e+12 -5.80251e+12 -2.88924e+12 -1.78751e+12 -3.93839e+12 -2.5461e+12 -4.62978e+12 -4.30908e+12 -3.19762e+12 -7.56693e+12 -5.29389e+12 -5.78968e+12 -5.48424e+12 -5.91117e+12 -5.71274e+12 -3.82485e+12 -4.22869e+12 -6.60148e+12 -4.30934e+12 -7.58858e+12 -2.04042e+12 -1.55602e+12 -4.75957e+12 -8.63419e+12 -5.77215e+12 -4.50705e+12 -6.40484e+12 -8.22949e+12 -9.20598e+12 -8.00997e+12 -6.44277e+12 -5.82318e+12 -5.77359e+12 -5.98501e+12 -3.93361e+12 -3.92341e+12 -5.11364e+12 -7.41804e+12 -4.04592e+12 -2.85275e+12 -3.30898e+12 -3.2035e+12 -3.37897e+12 -3.26321e+12 -5.09018e+12 -3.15712e+12 -4.74141e+12 -4.77861e+12 -6.45021e+12 -3.44928e+12 -3.66589e+12 -2.69301e+12 -2.38516e+12 -3.04162e+12 -3.30863e+12 -1.3824e+12 -435876000000.0 -2.62054e+12 -2.22532e+12 -2.20558e+12 -731191000000.0 -790178000000.0 -902959000000.0 -2.31148e+12 -1.37454e+12 -1.70291e+12 -1.15205e+12 -632501000000.0 -619843000000.0 -1.21106e+12 -723080000000.0 -727154000000.0 -536332000000.0 -936710000000.0 -258125000000.0 -127509000000.0 -833799000000.0 -59281300000.0 -550214000000.0 -483003000000.0 -648235000000.0 -585348000000.0 -558725000000.0 -1.62584e+12 -543295000000.0 -1.6833e+12 -1.08355e+12 -996558000000.0 -698262000000.0 -1.91805e+12 -2.7586e+12 -1.79602e+12 -2.26069e+12 -2.04198e+12 -2.70442e+12 -2.87787e+12 -1.91101e+12 -3.19512e+12 -2.98073e+12 -2.68702e+12 -2.68168e+12 -3.43919e+12 -2.63074e+12 -4.70608e+12 -5.00173e+12 -2.91702e+12 -5.04728e+12 -3.58544e+12 -4.71568e+12 -4.74609e+12 -3.93101e+12 -4.47584e+12 -4.01693e+12 -2.00776e+12 -2.26847e+12 -5.70142e+12 -5.5522e+12 -4.85303e+12 -3.06441e+12 -6.65642e+12 -3.57227e+12 -7.88479e+12 -5.98193e+12 -6.5531e+12 -6.32498e+12 -4.96083e+12 -5.42093e+12 -6.98964e+12 -3.69567e+12 -4.84033e+12 -5.52832e+12 -7.76274e+12 -3.28626e+12 -4.61118e+12 -5.77626e+12 -4.05908e+12 -4.31662e+12 -5.92808e+12 -3.36469e+12 -4.1247e+12 -3.08013e+12 -4.64926e+12 -5.20571e+12 -8.34443e+12 -4.98842e+12 -3.57549e+12 -5.39111e+12 -4.95219e+12 -8.45984e+12 -6.29468e+12 -3.5134e+12 -2.07448e+12 -7.04722e+12 -4.99838e+12 -9.30696e+12 -4.77924e+12 -4.47516e+12 -6.54979e+12 -3.08565e+12 -3.97913e+12 -3.19886e+12 -4.92928e+12 -5.956e+12 -4.75079e+12 -5.2964e+12 -2.47186e+12 -3.95044e+12 -7.40745e+12 -3.79521e+12 -2.30496e+12 -3.00033e+12 -5.0024e+12 -3.95685e+12 -2.18125e+12 -4.80553e+12 -3.07828e+12 -5.27442e+12 -1.09079e+12 -2.9856e+12 -4.47111e+12 -3.27395e+12 -3.08837e+12 -3.61597e+12 -2.34933e+12 -1.61557e+12 -2.55906e+12 -1.75047e+12 -1.46987e+12 -1.77679e+12 -1.31351e+12 -1.48049e+12 -1.61216e+12 -513013000000.0 -1.34685e+12 -1.22643e+12 -797526000000.0 -1.84114e+12 -1.00796e+12 -850103000000.0 -586695000000.0 -171453000000.0 -561071000000.0 -755398000000.0 -544417000000.0 -425051000000.0 -948117000000.0 -717306000000.0 -557577000000.0 -993704000000.0 -1.12901e+12 -839227000000.0 -1.05572e+12 -651041000000.0 -655083000000.0 -267592000000.0 -917104000000.0 -1.82334e+12 -1.604e+12 -1.31384e+12 -608908000000.0 -2.11579e+12 -650994000000.0 -641937000000.0 -1.20049e+12 -1.217e+12 -2.79552e+12 -2.38033e+12 -988515000000.0 -3.37783e+12 -2.02817e+12 -2.30277e+12 -2.73656e+12 -2.44714e+12 -3.62602e+12 -2.49543e+12 -1.19445e+12 -3.17555e+12 -2.7147e+12 -4.09973e+12 -3.30886e+12 -5.24009e+12 -4.19476e+12 -3.97054e+12 -5.33251e+12 -7.51851e+12 -6.9512e+12 -5.68348e+12 -5.0949e+12 -7.02205e+12 -6.15448e+12 -7.45435e+12 -6.01869e+12 -4.32512e+12 -5.42959e+12 -6.32539e+12 -6.93235e+12 -3.90462e+12 -4.49039e+12 -4.87074e+12 -6.96455e+12 -4.44494e+12 -4.22804e+12 -7.93807e+12 -4.41466e+12 -5.29396e+12 -2.92201e+12 -4.38275e+12 -3.02652e+12 -4.77964e+12 -5.65046e+12 -7.88834e+12 -6.27505e+12 -5.40129e+12 -3.62924e+12 -2.42938e+12 -8.86076e+12 -6.20396e+12 -6.02286e+12 -2.598e+12 -5.57927e+12 -8.80081e+12 -6.1109e+12 -3.10278e+12 -5.17351e+12 -3.61851e+12 -4.00847e+12 -2.93458e+12 -6.65958e+12 -4.36287e+12 -4.88495e+12 -3.30809e+12 -4.38089e+12 -3.70883e+12 -4.95813e+12 -3.91156e+12 -2.05163e+12 -2.38867e+12 -4.20509e+12 -4.42151e+12 -2.99824e+12 -2.72625e+12 -1.53764e+12 -4.03146e+12 -2.77356e+12 -670809000000.0 -1.75551e+12 -2.35474e+12 -2.29464e+12 -1.6674e+12 -1.99746e+12 -2.50063e+12 -1.35449e+12 -2.78248e+12 -1.392e+12 -1.80941e+12 -2.55632e+12 -2.47741e+12 -1.49676e+12 -1.59899e+12 -1.09966e+12 -1.47847e+12 -1.53085e+12 -591037000000.0 -1.30886e+12 -1.46955e+12 -489415000000.0 -550748000000.0 -886789000000.0 -778938000000.0 -456129000000.0 -401852000000.0 -549076000000.0 -302294000000.0 -443503000000.0 -414335000000.0 -471357000000.0 -987841000000.0 -1.12089e+12 -540073000000.0 -88986300000.0 -614839000000.0 -768970000000.0 -323261000000.0 -1.70189e+12 -2.23571e+12 -1.23466e+12 -2.3661e+12 -1.79953e+12 -1.0894e+12 -2.22385e+12 -3.51702e+12 -2.37301e+12 -4.28028e+12 -2.33318e+12 -1.22259e+12 -1.75261e+12 -2.99628e+12 -4.02527e+12 -2.31634e+12 -2.73397e+12 -2.8466e+12 -3.54028e+12 -1.46866e+12 -2.12763e+12 -1.16258e+12 -2.51311e+12 -1.0228e+12 -4.81523e+12 -5.52124e+12 -2.1956e+12 -5.14857e+12 -4.19557e+12 -5.27826e+12 -5.69905e+12 -4.36513e+12 -5.88925e+12 -7.47222e+12 -7.23453e+12 -5.0104e+12 -2.8712e+12 -7.13383e+12 -5.07572e+12 -5.86283e+12 -5.36252e+12 -6.39052e+12 -6.69033e+12 -4.56021e+12 -3.79842e+12 -5.74215e+12 -6.28856e+12 -3.72473e+12 -4.05619e+12 -5.22578e+12 -2.56451e+12 -3.7567e+12 -8.53079e+12 -5.18406e+12 -5.42081e+12 -5.95587e+12 -2.68816e+12 -4.98654e+12 -2.60711e+12 -3.33815e+12 -3.5521e+12 -3.70146e+12 -4.80282e+12 -5.19347e+12 -6.30033e+12 -3.842e+12 -5.3509e+12 -3.74198e+12 -7.04024e+12 -5.04571e+12 -5.57586e+12 -1.18581e+13 -3.3286e+12 -5.55498e+12 -2.97788e+12 -4.83289e+12 -5.9897e+12 -4.17775e+12 -6.42889e+12 -5.408e+12 -6.15903e+12 -4.10006e+12 -3.72685e+12 -2.72683e+12 -2.76122e+12 -3.85149e+12 -2.62805e+12 -2.36389e+12 -4.46356e+12 -2.3659e+12 -2.8032e+12 -1.82176e+12 -2.34441e+12 -4.02546e+12 -1.44988e+12 -2.17937e+12 -2.28311e+12 -2.65284e+12 -2.62486e+12 -774078000000.0 -2.30934e+12 -3.53472e+12 -2.3037e+12 -1.45712e+12 -1.05446e+12 -1.73104e+12 -894250000000.0 -1.21067e+12 -1.085e+12 -440115000000.0 -1.01803e+12 -1.07822e+12 -896313000000.0 -1.50233e+12 -766673000000.0 -512470000000.0 -529157000000.0 -714451000000.0 -558832000000.0 -85334900000.0 -352640000000.0 -263802000000.0 -505132000000.0 -927008000000.0 -1.28674e+12 -701002000000.0 -580990000000.0 -1.08249e+12 -1.12859e+12 -1.47071e+12 -403782000000.0 -884082000000.0 -1.14204e+12 -1.54723e+12 -1.0481e+12 -780162000000.0 -1.45924e+12 -2.72476e+12 -1.73003e+12 -656132000000.0 -2.36006e+12 -2.60502e+12 -2.50987e+12 -1.16145e+12 -1.41167e+12 -2.16145e+12 -2.77659e+12 -1.35599e+12 -2.30329e+12 -2.0399e+12 -2.8542e+12 -956866000000.0 -4.67772e+12 -2.82216e+12 -4.28079e+12 -2.83667e+12 -5.28035e+12 -5.51154e+12 -3.69692e+12 -4.50195e+12 -1.94799e+12 -1.57992e+12 -7.13571e+12 -5.87295e+12 -3.43614e+12 -3.59281e+12 -2.48408e+12 -2.81342e+12 -5.26081e+12 -4.68781e+12 -3.02973e+12 -6.31502e+12 -3.7032e+12 -5.27817e+12 -6.35614e+12 -4.00857e+12 -3.71404e+12 -6.79527e+12 -7.86409e+12 -5.94904e+12 -5.60475e+12 -6.30685e+12 -5.80048e+12 -4.96255e+12 -4.25978e+12 -3.78403e+12 -2.04339e+12 -4.60415e+12 -5.2567e+12 -2.65207e+12 -4.40789e+12 -3.98893e+12 -4.60223e+12 -3.56382e+12 -2.87694e+12 -5.08995e+12 -6.22387e+12 -5.64506e+12 -4.61389e+12 -3.60821e+12 -8.04628e+12 -3.29395e+12 -4.4211e+12 -3.47961e+12 -4.20683e+12 -3.40346e+12 -4.66462e+12 -2.65133e+12 -4.30172e+12 -1.67685e+12 -2.44381e+12 -2.17017e+12 -762059000000.0 -5.27271e+12 -2.93769e+12 -4.38912e+12 -2.71592e+12 -2.53346e+12 -2.7547e+12 -680785000000.0 -2.92148e+12 -1.83227e+12 -2.34425e+12 -2.2609e+12 -1.75927e+12 -1.08592e+12 -1.30539e+12 -2.99691e+12 -1.94572e+12 -1.90211e+12 -1.64225e+12 -2.62615e+12 -1.61281e+12 -1.22157e+12 -2.90357e+12 -1.3114e+12 -1.52356e+12 -921133000000.0 -1.82182e+12 -641948000000.0 -549774000000.0 -909627000000.0 -1.67649e+12 -856121000000.0 -388463000000.0 -516204000000.0 -966888000000.0 -349646000000.0 -603116000000.0 -680648000000.0 -577661000000.0 -400396000000.0 -663045000000.0 -472274000000.0 -300282000000.0 -1.00967e+12 -511502000000.0 -623320000000.0 -488037000000.0 -354962000000.0 -686340000000.0 -843013000000.0 -1.26255e+12 -1.05375e+12 -656429000000.0 -294566000000.0 -1.39255e+12 -1.04884e+12 -1.34487e+12 -1.74365e+12 -2.43586e+12 -880773000000.0 -943565000000.0 -1.57009e+12 -2.02205e+12 -1.80701e+12 -3.15639e+12 -2.25582e+12 -1.79956e+12 -3.43692e+12 -1.42811e+12 -2.91918e+12 -3.49985e+12 -1.49016e+12 -3.10883e+12 -2.01189e+12 -5.14788e+12 -2.21788e+12 -3.769e+12 -5.84831e+12 -4.43659e+12 -5.54969e+12 -4.54826e+12 -3.29276e+12 -3.08577e+12 -3.48043e+12 -2.32795e+12 -4.48912e+12 -3.23716e+12 -4.30269e+12 -3.40948e+12 -5.24685e+12 -5.29386e+12 -4.38945e+12 -5.85222e+12 -6.45444e+12 -4.39171e+12 -6.03584e+12 -4.83038e+12 -4.61422e+12 -4.5263e+12 -6.33875e+12 -3.85381e+12 -4.16577e+12 -4.91588e+12 -3.87373e+12 -2.21972e+12 -5.02671e+12 -3.77307e+12 -1.65214e+12 -4.3178e+12 -3.96594e+12 -3.77573e+12 -4.20751e+12 -2.33697e+12 -1.86576e+12 -1.59695e+12 -5.15362e+12 -3.7805e+12 -3.52483e+12 -2.40263e+12 -4.49238e+12 -2.90323e+12 -8.85263e+12 -3.96715e+12 -2.5343e+12 -2.10094e+12 -3.82999e+12 -5.07016e+12 -3.09796e+12 -5.45762e+12 -3.64935e+12 -4.26028e+12 -3.421e+12 -2.96119e+12 -4.10906e+12 -5.61566e+12 -3.49548e+12 -4.23385e+12 -5.78465e+12 -1.9218e+12 -2.22816e+12 -1.75272e+12 -2.1391e+12 -2.30904e+12 -3.11859e+12 -2.40627e+12 -2.37675e+12 -2.15768e+12 -2.0284e+12 -1.19072e+12 -2.53337e+12 -2.70749e+12 -2.85716e+12 -929153000000.0 -1.28613e+12 -2.18569e+12 -1.41011e+12 -1.68121e+12 -1.06566e+12 -644264000000.0 -1.14992e+12 -326033000000.0 -927039000000.0 -391406000000.0 -188386000000.0 -455273000000.0 -575067000000.0 -116501000000.0 -579077000000.0 -258338000000.0 -390531000000.0 -260725000000.0 -363832000000.0 -594245000000.0 -63156300000.0 -29054800000.0 -488300000000.0 -39479200000.0 -1.08553e+12 -51765500000.0 -519575000000.0 -238211000000.0 -1.16065e+12 -757197000000.0 -380771000000.0 -178765000000.0 -803045000000.0 -350170000000.0 -1.5366e+12 -524131000000.0 -974446000000.0 -782799000000.0 -936661000000.0 -1.48649e+12 -2.35222e+12 -1.72732e+12 -1.24828e+12 -2.82952e+12 -2.37527e+12 -813585000000.0 -2.43384e+12 -3.44535e+12 -3.29887e+12 -2.22866e+12 -2.98139e+12 -2.50667e+12 -2.33519e+12 -2.01613e+12 -3.84679e+12 -1.64352e+12 -2.4146e+12 -2.61275e+12 -2.9432e+12 -3.2449e+12 -2.95815e+12 -4.48143e+12 -4.77521e+12 -5.04663e+12 -2.76991e+12 -2.90131e+12 -3.30282e+12 -1.82165e+12 -4.64751e+12 -6.10118e+12 -3.42626e+12 -3.55555e+12 -2.52666e+12 -3.13402e+12 -5.67586e+12 -7.65707e+12 -6.85295e+12 -5.64603e+12 -4.08206e+12 -5.70002e+12 -3.81264e+12 -4.66819e+12 -2.02857e+12 -3.25434e+12 -4.31908e+12 -3.16065e+12 -3.62037e+12 -5.46377e+12 -3.39254e+12 -4.81143e+12 -4.18443e+12 -4.58263e+12 -2.75811e+12 -3.41504e+12 -4.29193e+12 -2.85103e+12 -3.37066e+12 -3.24841e+12 -2.31162e+12 -2.05081e+12 -2.71705e+12 -3.50295e+12 -3.4653e+12 -3.01918e+12 -2.99791e+12 -5.13712e+12 -1.14945e+12 -4.94776e+12 -4.33173e+12 -3.02878e+12 -1.91784e+12 -885748000000.0 -2.92588e+12 -788143000000.0 -920600000000.0 -2.81573e+12 -1.77195e+12 -1.49774e+12 -2.26366e+12 -2.36072e+12 -1.41274e+12 -1.60989e+12 -1.07953e+12 -488723000000.0 -491053000000.0 -1.81534e+12 -1.21146e+12 -1.58954e+12 -895210000000.0 -971428000000.0 -440134000000.0 -1.33305e+12 -560018000000.0 -561396000000.0 -683617000000.0 -304909000000.0 -372000000000.0 -414564000000.0 -385090000000.0 -542957000000.0 -580077000000.0 -607992000000.0 -513914000000.0 -248361000000.0 -604066000000.0 -588553000000.0 -440753000000.0 -634943000000.0 -734056000000.0 -420919000000.0 -744767000000.0 -1.35833e+12 -597975000000.0 -545935000000.0 -652272000000.0 -709771000000.0 -1.08401e+12 -668972000000.0 -990652000000.0 -777028000000.0 -2.1665e+12 -2.32114e+12 -2.0802e+12 -1.84558e+12 -2.87204e+12 -1.64607e+12 -2.93477e+12 -3.18443e+12 -2.24238e+12 -1.21177e+12 -3.39431e+12 -4.78401e+12 -1.9009e+12 -2.41422e+12 -2.91759e+12 -3.73056e+12 -2.39006e+12 -4.01077e+12 -3.36731e+12 -3.32563e+12 -2.9638e+12 -1.22025e+12 -2.36618e+12 -7.18634e+12 -2.84216e+12 -3.26834e+12 -5.07078e+12 -2.82075e+12 -2.80571e+12 -2.99591e+12 -3.31275e+12 -2.29273e+12 -2.44804e+12 -3.08646e+12 -5.75533e+12 -3.71817e+12 -4.60304e+12 -3.63749e+12 -2.91618e+12 -6.47359e+12 -3.55507e+12 -4.23542e+12 -7.43879e+12 -2.01003e+12 -4.19743e+12 -3.83588e+12 -4.46858e+12 -4.27798e+12 -3.30899e+12 -3.18979e+12 -5.24799e+12 -5.48788e+12 -4.66574e+12 -3.68331e+12 -4.74281e+12 -2.48988e+12 -3.09721e+12 -4.16897e+12 -2.20973e+12 -2.63537e+12 -1.77566e+12 -3.45898e+12 -3.31676e+12 -2.59813e+12 -3.3111e+12 -2.62418e+12 -2.20975e+12 -2.48788e+12 -1.9342e+12 -3.42931e+12 -1.5888e+12 -2.93974e+12 -1.76172e+12 -1.38009e+12 -3.5326e+12 -2.48568e+12 -1.69919e+12 -3.33743e+12 -2.89777e+12 -1.91204e+12 -1.49016e+12 -1.35222e+12 -2.84513e+12 -977794000000.0 -912663000000.0 -970029000000.0 -1.52081e+12 -1.19652e+12 -1.34303e+12 -748589000000.0 -1.48613e+12 -660227000000.0 -195850000000.0 -748807000000.0 -309504000000.0 -509571000000.0 -910092000000.0 -379326000000.0 -661562000000.0 -407903000000.0 -357313000000.0 -20663800000.0 -630693000000.0 -443383000000.0 -225223000000.0 -457179000000.0 -40973600000.0 -756784000000.0 -293356000000.0 -471100000000.0 -44797700000.0 -219322000000.0 -633516000000.0 -1.0369e+12 -481636000000.0 -144148000000.0 -356712000000.0 -589457000000.0 -432857000000.0 -1.01312e+12 -462213000000.0 -1.36666e+12 -1.0818e+12 -1.37342e+12 -1.75274e+12 -679356000000.0 -1.67772e+12 -1.71515e+12 -1.08247e+12 -2.39363e+12 -3.14663e+12 -3.04443e+12 -3.35599e+12 -3.76173e+12 -4.04556e+12 -4.3421e+12 -867960000000.0 -2.18188e+12 -1.28816e+12 -3.12924e+12 -4.21907e+12 -4.45024e+12 -2.69169e+12 -3.22546e+12 -2.83807e+12 -5.70581e+12 -3.54677e+12 -3.20211e+12 -3.73304e+12 -2.47122e+12 -2.7837e+12 -3.47687e+12 -3.17025e+12 -3.52258e+12 -2.28863e+12 -3.7366e+12 -5.11201e+12 -4.05853e+12 -3.53628e+12 -5.26939e+12 -6.26391e+12 -4.06566e+12 -1.85704e+12 -2.52691e+12 -4.25398e+12 -2.37511e+12 -3.38588e+12 -2.67723e+12 -2.90717e+12 -3.01719e+12 -3.33774e+12 -2.6483e+12 -3.58207e+12 -3.68712e+12 -1.74312e+12 -2.82938e+12 -2.0632e+12 -2.16793e+12 -2.47183e+12 -2.21254e+12 -1.33469e+12 -2.66431e+12 -3.6487e+12 -3.73478e+12 -1.98818e+12 -2.32333e+12 -1.64526e+12 -826063000000.0 -3.10047e+12 -2.6631e+12 -1.73423e+12 -1.77284e+12 -1.47381e+12 -2.25275e+12 -2.02078e+12 -1.23394e+12 -2.92051e+12 -2.53002e+12 -2.3359e+12 -1.31704e+12 -1.75346e+12 -681533000000.0 -3.00792e+12 -938392000000.0 -943893000000.0 -1.66516e+12 -1.12606e+12 -505375000000.0 -934877000000.0 -851146000000.0 -1.15517e+12 -439073000000.0 -822720000000.0 -564771000000.0 -405761000000.0 -250553000000.0 -680994000000.0 -388693000000.0 -430059000000.0 -282037000000.0 -684496000000.0 -199214000000.0 -194307000000.0 -186264000000.0 -303723000000.0 -151052000000.0 -353698000000.0 -102274000000.0 -187705000000.0 -69446500000.0 -187900000000.0 -448706000000.0 -528934000000.0 -743256000000.0 -614889000000.0 -576764000000.0 -274675000000.0 -12549700000.0 -12500800000.0 -515013000000.0 -1.17192e+12 -1.13415e+12 -1.2734e+12 -1.50262e+12 -872674000000.0 -850008000000.0 -677471000000.0 -964692000000.0 -1.41553e+12 -1.24793e+12 -1.53146e+12 -2.75309e+12 -2.07429e+12 -2.95307e+12 -2.63836e+12 -469092000000.0 -1.60517e+12 -3.04252e+12 -2.44538e+12 -925619000000.0 -2.44553e+12 -2.26424e+12 -2.83049e+12 -2.00834e+12 -3.64165e+12 -1.87691e+12 -3.19829e+12 -3.35258e+12 -2.40978e+12 -3.21541e+12 -4.04918e+12 -3.8256e+12 -1.01977e+12 -2.52489e+12 -2.13153e+12 -2.33659e+12 -3.3676e+12 -6.0566e+12 -2.75308e+12 -4.98678e+12 -1.95539e+12 -2.43329e+12 -6.12746e+12 -1.74067e+12 -4.55697e+12 -4.00712e+12 -2.41671e+12 -1.83926e+12 -1.86909e+12 -1.26572e+12 -1.25501e+12 -1.86877e+12 -1.95288e+12 -2.92216e+12 -2.69445e+12 -4.2767e+12 -3.0771e+12 -2.71928e+12 -2.99009e+12 -2.90939e+12 -2.70715e+12 -1.41799e+12 -1.66117e+12 -2.83732e+12 -987430000000.0 -2.39053e+12 -831959000000.0 -327039000000.0 -2.74841e+12 -2.86423e+12 -967020000000.0 -1.10007e+12 -2.46687e+12 -2.40822e+12 -3.0191e+12 -1.56589e+12 -1.83431e+12 -1.13514e+12 -932017000000.0 -1.29851e+12 -1.0698e+12 -1.70894e+12 -1.44564e+12 -1.65289e+12 -374637000000.0 -1.75534e+12 -1.12593e+12 -1.98104e+12 -852080000000.0 -659726000000.0 -1.44107e+12 -985658000000.0 -768365000000.0 -682423000000.0 -1.58458e+12 -894290000000.0 -609948000000.0 -1.14317e+12 -453373000000.0 -434858000000.0 -327094000000.0 -241534000000.0 -153708000000.0 -434165000000.0 -258592000000.0 -97302100000.0 -192988000000.0 -247143000000.0 -28864300000.0 -331483000000.0 -266370000000.0 -160865000000.0 -297677000000.0 -421050000000.0 -403624000000.0 -210257000000.0 -277830000000.0 -288876000000.0 -894056000000.0 -377989000000.0 -98741300000.0 -747782000000.0 -664469000000.0 -660172000000.0 -1.4569e+12 -1.40886e+12 -820103000000.0 -1.22448e+12 -1.80241e+12 -1.14762e+12 -1.54975e+12 -1.30196e+12 -1.36265e+12 -1.59796e+12 -2.22573e+12 -1.97913e+12 -1.87612e+12 -3.81073e+12 -2.94634e+12 -980651000000.0 -1.63508e+12 -1.75797e+12 -808722000000.0 -2.85551e+12 -4.64171e+12 -3.14883e+12 -4.19724e+12 -2.25889e+12 -5.41985e+12 -2.86872e+12 -2.02177e+12 -2.96756e+12 -5.41711e+12 -1.66254e+12 -1.08893e+12 -1.88272e+12 -4.44499e+12 -2.8384e+12 -3.96829e+12 -3.01871e+12 -1.07943e+12 -2.50668e+12 -1.12709e+12 -1.04684e+12 -3.91588e+12 -1.41174e+12 -1.76016e+12 -1.9544e+12 -3.57061e+12 -3.47619e+12 -2.80794e+12 -2.00637e+12 -1.65209e+12 -1.6205e+12 -1.58816e+12 -1.15302e+12 -2.53148e+12 -2.84267e+12 -2.90951e+12 -2.32167e+12 -1.81753e+12 -2.57751e+12 -3.01381e+12 -2.44178e+12 -1.65496e+12 -1.11852e+12 -820570000000.0 -1.18874e+12 -1.46856e+12 -2.27789e+12 -1.74177e+12 -1.64477e+12 -861668000000.0 -1.51242e+12 -1.57558e+12 -1.03934e+12 -895617000000.0 -369000000000.0 -588133000000.0 -641348000000.0 -234536000000.0 -1.06432e+12 -500615000000.0 -377791000000.0 -586240000000.0 -810372000000.0 -476321000000.0 -227397000000.0 -470660000000.0 -367056000000.0 -586756000000.0 -255671000000.0 -229205000000.0 -208147000000.0 -339119000000.0 -279219000000.0 -262443000000.0 -43878300000.0 -536775000000.0 -373420000000.0 -360348000000.0 -450081000000.0 -133801000000.0 -81049300000.0 -635848000000.0 -261309000000.0 -29980300000.0 -329263000000.0 -501530000000.0 -322544000000.0 -354063000000.0 -851736000000.0 -450785000000.0 -749413000000.0 -705776000000.0 -1.28847e+12 -1.29412e+12 -544845000000.0 -431055000000.0 -1.00046e+12 -892977000000.0 -1.93131e+12 -1.74191e+12 -2.05736e+12 -1.3814e+12 -491033000000.0 -2.00971e+12 -500349000000.0 -1.4894e+12 -1.44407e+12 -664886000000.0 -1.94677e+12 -3.53749e+12 -1.01186e+12 -2.20344e+12 -2.85363e+12 -3.23928e+12 -1.37076e+12 -2.60577e+12 -2.51945e+12 -3.36523e+12 -1.49673e+12 -2.10317e+12 -3.40516e+12 -2.72013e+12 -1.6348e+12 -2.02059e+12 -3.61073e+12 -3.57171e+12 -1.7378e+12 -3.07175e+12 -2.64024e+12 -2.47308e+12 -1.92566e+12 -2.21403e+12 -3.08047e+12 -727582000000.0 -1.48866e+12 -2.54856e+12 -1.52637e+12 -1.46665e+12 -1.91603e+12 -2.474e+12 -2.83311e+12 -1.90414e+12 -2.0646e+12 -2.36502e+12 -1.80254e+12 -2.0461e+12 -1.93201e+12 -1.63442e+12 -1.51108e+12 -1.10589e+12 -1.75868e+12 -1.50225e+12 -3.03206e+12 -2.35739e+12 -1.67332e+12 -1.82813e+12 -738003000000.0 -1.00723e+12 -650809000000.0 -1.21197e+12 -2.33227e+12 -887633000000.0 -878446000000.0 -8752760000.0 -800530000000.0 -1.07384e+12 -776272000000.0 -1.24193e+12 -94464700000.0 -395127000000.0 -874273000000.0 -459921000000.0 -329217000000.0 -249789000000.0 -414991000000.0 -125760000000.0 -500405000000.0 -378500000000.0 -330789000000.0 -365067000000.0 -56805800000.0 -396225000000.0 -92093900000.0 -18575800000.0 -167399000000.0 -13041700000.0 -249694000000.0 -374928000000.0 -22796600000.0 -206164000000.0 -25028600000.0 -369812000000.0 -153243000000.0 -238672000000.0 -477051000000.0 -205816000000.0 -511065000000.0 -549824000000.0 -386112000000.0 -503926000000.0 -885751000000.0 -649502000000.0 -433006000000.0 -180546000000.0 -461750000000.0 -467915000000.0 -695386000000.0 -390205000000.0 -418547000000.0 -66944700000.0 -894673000000.0 -148445000000.0 -1.45749e+12 -970154000000.0 -820686000000.0 -1.60765e+12 -1.68982e+12 -1.1485e+12 -1.1872e+12 -2.36758e+12 -1.53775e+12 -1.40718e+12 -739017000000.0 -1.82081e+12 -2.00812e+12 -1.98476e+12 -2.78855e+12 -1.05207e+12 -1.21594e+12 -2.14132e+12 -1.9518e+12 -3.02507e+12 -2.21653e+12 -1.39925e+12 -1.66594e+12 -1.46257e+12 -2.80661e+12 -3.1869e+12 -1.83261e+12 -2.4318e+12 -3.65489e+12 -2.79599e+12 -2.66941e+12 -2.73428e+12 -1.4178e+12 -1.32936e+12 -2.1108e+12 -1.6818e+12 -1.9598e+12 -2.82728e+12 -1.22207e+12 -1.22229e+12 -1.07998e+12 -2.48137e+12 -1.96959e+12 -1.73116e+12 -1.88094e+12 -582295000000.0 -2.26883e+12 -685340000000.0 -1.27565e+12 -1.9087e+12 -1.76529e+12 -1.27724e+12 -2.01988e+12 -1.01973e+12 -810678000000.0 -2.10717e+12 -2.31112e+12 -1.53458e+12 -1.02569e+12 -953025000000.0 -1.18137e+12 -305799000000.0 -994933000000.0 -1.02428e+12 -597497000000.0 -776621000000.0 -817050000000.0 -970771000000.0 -1.42001e+12 -358264000000.0 -491537000000.0 -378384000000.0 -308877000000.0 -544626000000.0 -292987000000.0 -350432000000.0 -12549700000.0 -531378000000.0 -252024000000.0 -503497000000.0 -103148000000.0 -146406000000.0 -353079000000.0 -426577000000.0 -454815000000.0 -333700000000.0 -261884000000.0 -171059000000.0 -283220000000.0 -132505000000.0 -95076200000.0 -148227000000.0 -265308000000.0 -356019000000.0 -172408000000.0 -25541400000.0 -184680000000.0 -287390000000.0 -222546000000.0 -75844300000.0 -214432000000.0 -285811000000.0 -479536000000.0 -559423000000.0 -37505200000.0 -407055000000.0 -510000000000.0 -398515000000.0 -369338000000.0 -913760000000.0 -508266000000.0 -654963000000.0 -901761000000.0 -1.03324e+12 -1.46502e+12 -1.0129e+12 -1.12514e+12 -1.0525e+12 -1.02119e+12 -1.13723e+12 -857026000000.0 -903402000000.0 -1.29734e+12 -1.1337e+12 -1.47364e+12 -990714000000.0 -1.76473e+12 -1.13417e+12 -581228000000.0 -1.55659e+12 -927616000000.0 -1.31004e+12 -1.6432e+12 -1.547e+12 -1.98642e+12 -1.69691e+12 -1.96864e+12 -1.65193e+12 -2.49993e+12 -2.71429e+12 -828394000000.0 -1.31622e+12 -1.69851e+12 -1.81011e+12 -2.01643e+12 -2.92466e+12 -1.99893e+12 -1.49563e+12 -1.0122e+12 -2.86189e+12 -2.59587e+12 -1.28244e+12 -629876000000.0 -1.55869e+12 -1.47381e+12 -1.69252e+12 -1.0671e+12 -613661000000.0 -1.28339e+12 -1.04715e+12 -1.10051e+12 -1.64526e+12 -1.03046e+12 -676354000000.0 -767615000000.0 -875915000000.0 -1.231e+12 -1.01993e+12 -939976000000.0 -2.36464e+12 -1.82468e+12 -769326000000.0 -831621000000.0 -556073000000.0 -832653000000.0 -333932000000.0 -198013000000.0 -590083000000.0 -432438000000.0 -334222000000.0 -550432000000.0 -935340000000.0 -497838000000.0 -12549700000.0 -406446000000.0 -392838000000.0 -151523000000.0 -357876000000.0 -195909000000.0 -213869000000.0 -182568000000.0 -415173000000.0 -176123000000.0 -234421000000.0 -127442000000.0 -245046000000.0 -135551000000.0 -77757600000.0 -106434000000.0 -229029000000.0 -131090000000.0 -159800000000.0 -167519000000.0 -241377000000.0 -63623600000.0 -232846000000.0 -67176900000.0 -170355000000.0 -306983000000.0 -272556000000.0 -562779000000.0 -581130000000.0 -482341000000.0 -364207000000.0 -410400000000.0 -243714000000.0 -259730000000.0 -273604000000.0 -688069000000.0 -583566000000.0 -650153000000.0 -841646000000.0 -986518000000.0 -542968000000.0 -878539000000.0 -1.36364e+12 -995708000000.0 -129721000000.0 -1.53173e+12 -696552000000.0 -1.20185e+12 -1.5816e+12 -1.1965e+12 -1.36086e+12 -1.0616e+12 -982846000000.0 -1.17212e+12 -1.09223e+12 -1.83641e+12 -1.11844e+12 -2.33951e+12 -1.42227e+12 -2.1044e+12 -1.61761e+12 -1.13215e+12 -2.07622e+12 -1.1996e+12 -2.24695e+12 -861988000000.0 -1.42901e+12 -1.21147e+12 -1.56007e+12 -2.05891e+12 -1.87357e+12 -2.07216e+12 -1.50448e+12 -1.18311e+12 -1.50193e+12 -2.29542e+12 -1.12107e+12 -1.47173e+12 -970743000000.0 -840928000000.0 -1.45111e+12 -961460000000.0 -895247000000.0 -1.77505e+12 -505671000000.0 -1.06941e+12 -1.70684e+12 -1.14475e+12 -772744000000.0 -1.46773e+12 -1.17888e+12 -1.38932e+12 -1.4611e+12 -1.20484e+12 -557521000000.0 -985798000000.0 -1.18122e+12 -734444000000.0 -853397000000.0 -407266000000.0 -232504000000.0 -891738000000.0 -964309000000.0 -1.25676e+12 -896332000000.0 -1.50042e+12 -1.24757e+12 -460474000000.0 -430151000000.0 -433513000000.0 -542094000000.0 -112651000000.0 -846305000000.0 -22860000000.0 -1.01116e+12 -385479000000.0 -15495100000.0 -317537000000.0 -535178000000.0 -329017000000.0 -311515000000.0 -288038000000.0 -239845000000.0 -181360000000.0 -96228100000.0 -190558000000.0 -115024000000.0 -146339000000.0 -235083000000.0 -192324000000.0 -206450000000.0 -130364000000.0 -202984000000.0 -206965000000.0 -169059000000.0 -20586400000.0 -143190000000.0 -361335000000.0 -224668000000.0 -333118000000.0 -184599000000.0 -38434400000.0 -180417000000.0 -278503000000.0 -294620000000.0 -559857000000.0 -352713000000.0 -214002000000.0 -132962000000.0 -213222000000.0 -196066000000.0 -12549700000.0 -762117000000.0 -360562000000.0 -908530000000.0 -1.03398e+12 -80787400000.0 -1.5878e+12 -1.1087e+12 -948117000000.0 -626713000000.0 -1.78991e+12 -949307000000.0 -708307000000.0 -351653000000.0 -1.44228e+12 -764641000000.0 -445041000000.0 -2.23275e+12 -1.77144e+12 -851578000000.0 -1.99627e+12 -11259900000.0 -267323000000.0 -506359000000.0 -1.03181e+12 -521592000000.0 -2.05785e+12 -102197000000.0 -2.27533e+12 -1.18335e+12 -776104000000.0 -2.60716e+12 -1.40741e+12 -1.69195e+12 -1.64895e+12 -2.56631e+12 -1.63976e+12 -944132000000.0 -872761000000.0 -1.43777e+12 -1.32885e+12 -296087000000.0 -279207000000.0 -1.02032e+12 -1.05096e+12 -706584000000.0 -576003000000.0 -313525000000.0 -695667000000.0 -603283000000.0 -1.03097e+12 -1.52906e+12 -1.57724e+12 -304361000000.0 -597683000000.0 -702613000000.0 -469483000000.0 -992503000000.0 -935565000000.0 -348210000000.0 -902006000000.0 -635461000000.0 -426933000000.0 -256227000000.0 -641501000000.0 -556280000000.0 -152230000000.0 -380272000000.0 -385642000000.0 -708043000000.0 -824564000000.0 -174890000000.0 -293639000000.0 -274385000000.0 -272952000000.0 -53580600000.0 -29267100000.0 -106963000000.0 -216848000000.0 -14322200000.0 -229772000000.0 -12549700000.0 -179565000000.0 -147608000000.0 -42030900000.0 -157495000000.0 -174991000000.0 -132442000000.0 -69473400000.0 -80459600000.0 -64585800000.0 -52092600000.0 -107491000000.0 -13047900000.0 -238025000000.0 -91123500000.0 -87173000000.0 -15708700000.0 -39149800000.0 -180687000000.0 -389044000000.0 -89324700000.0 -223136000000.0 -225782000000.0 -264327000000.0 -336795000000.0 -421737000000.0 -129995000000.0 -440954000000.0 -285519000000.0 -551157000000.0 -613336000000.0 -136083000000.0 -1.13925e+12 -848995000000.0 -656876000000.0 -509534000000.0 -509955000000.0 -689562000000.0 -381072000000.0 -1.5045e+12 -948279000000.0 -503028000000.0 -1.43465e+12 -1.49242e+12 -1.30828e+12 -1.74493e+12 -1.67493e+12 -923377000000.0 -1.50558e+12 -398839000000.0 -965712000000.0 -1.48721e+12 -2.38817e+12 -2.70484e+12 -1.13285e+12 -1.6738e+12 -1.71191e+12 -287449000000.0 -1.01323e+12 -2.52429e+12 -2.02076e+12 -727426000000.0 -894567000000.0 -592411000000.0 -852051000000.0 -1.11445e+12 -624055000000.0 -726515000000.0 -1.06228e+12 -885879000000.0 -274013000000.0 -116085000000.0 -970235000000.0 -927495000000.0 -1.52426e+12 -426072000000.0 -489510000000.0 -137089000000.0 -1.17586e+12 -779578000000.0 -781215000000.0 -972600000000.0 -494407000000.0 -1.18813e+12 -706034000000.0 -495388000000.0 -179889000000.0 -173896000000.0 -193970000000.0 -405833000000.0 -686139000000.0 -647831000000.0 -339213000000.0 -254792000000.0 -187381000000.0 -169007000000.0 -221408000000.0 -81269400000.0 -44965400000.0 -150859000000.0 -22979600000.0 -114687000000.0 -176307000000.0 -202324000000.0 -260195000000.0 -161068000000.0 -85645300000.0 -137368000000.0 -129030000000.0 -93993300000.0 -139061000000.0 -145267000000.0 -165010000000.0 -116850000000.0 -94893800000.0 -195266000000.0 -126291000000.0 -62750800000.0 -99230300000.0 -106757000000.0 -110099000000.0 -234043000000.0 -205920000000.0 -235935000000.0 -35921800000.0 -185953000000.0 -150473000000.0 -329452000000.0 -532717000000.0 -305298000000.0 -427543000000.0 -266263000000.0 -1.2124e+12 -817395000000.0 -580072000000.0 -681504000000.0 -373822000000.0 -397128000000.0 -316678000000.0 -454588000000.0 -603601000000.0 -963941000000.0 -877471000000.0 -400140000000.0 -796750000000.0 -574225000000.0 -879521000000.0 -1.08511e+12 -602506000000.0 -1.01325e+12 -753365000000.0 -1.56266e+12 -1.86415e+12 -1.48267e+12 -1.61679e+12 -2.05607e+12 -1.11e+12 -1.41645e+12 -953615000000.0 -1.54935e+12 -584301000000.0 -678970000000.0 -1.23264e+12 -818102000000.0 -2.16419e+12 -1.23581e+12 -648282000000.0 -509939000000.0 -1.40956e+12 -947164000000.0 -907996000000.0 -245928000000.0 -165945000000.0 -709301000000.0 -1.05484e+12 -634905000000.0 -471153000000.0 -290295000000.0 -1.21065e+12 -741267000000.0 -676140000000.0 -301993000000.0 -275434000000.0 -418683000000.0 -684766000000.0 -983252000000.0 -724574000000.0 -508120000000.0 -792221000000.0 -694513000000.0 -266087000000.0 -155329000000.0 -193417000000.0 -103108000000.0 -100553000000.0 -191669000000.0 -254300000000.0 -394022000000.0 -566043000000.0 -293480000000.0 -196080000000.0 -203290000000.0 -315663000000.0 -222460000000.0 -336668000000.0 -230313000000.0 -214450000000.0 -39511800000.0 -39205600000.0 -36523700000.0 -104326000000.0 -148190000000.0 -107959000000.0 -65508700000.0 -22866200000.0 -63764200000.0 -65675500000.0 -93502800000.0 -37425200000.0 -86392100000.0 -78058300000.0 -45169600000.0 -96798200000.0 -140594000000.0 -59577200000.0 -140382000000.0 -90114200000.0 -272860000000.0 -185904000000.0 -218238000000.0 -159027000000.0 -211240000000.0 -339075000000.0 -52050200000.0 -258066000000.0 -443445000000.0 -809878000000.0 -309679000000.0 -277380000000.0 -521841000000.0 -744511000000.0 -586319000000.0 -910331000000.0 -805767000000.0 -707965000000.0 -859187000000.0 -1.34387e+12 -623518000000.0 -237543000000.0 -677165000000.0 -946155000000.0 -690661000000.0 -641913000000.0 -689497000000.0 -314103000000.0 -730948000000.0 -700767000000.0 -449705000000.0 -663387000000.0 -1.13247e+12 -845824000000.0 -1.01361e+12 -632854000000.0 -1.16059e+12 -908673000000.0 -964644000000.0 -1.43991e+12 -479681000000.0 -275944000000.0 -244806000000.0 -264346000000.0 -758316000000.0 -672604000000.0 -998115000000.0 -718273000000.0 -504080000000.0 -474288000000.0 -368020000000.0 -807836000000.0 -530126000000.0 -436238000000.0 -107953000000.0 -507938000000.0 -670817000000.0 -352411000000.0 -693981000000.0 -171705000000.0 -664870000000.0 -900131000000.0 -312418000000.0 -770948000000.0 -264336000000.0 -483362000000.0 -366223000000.0 -110611000000.0 -132353000000.0 -142048000000.0 -490197000000.0 -95138100000.0 -24548700000.0 -167154000000.0 -44420100000.0 -33248200000.0 -95512000000.0 -38751200000.0 -93732100000.0 -15212300000.0 -91641100000.0 -17130800000.0 -101886000000.0 -138255000000.0 -134129000000.0 -80548000000.0 -135035000000.0 -52063200000.0 -108473000000.0 -105477000000.0 -125250000000.0 -29748900000.0 -56366400000.0 -56660100000.0 -31881100000.0 -63897900000.0 -12994800000.0 -33211000000.0 -100322000000.0 -94330300000.0 -221871000000.0 -173128000000.0 -82938200000.0 -218674000000.0 -132776000000.0 -23113600000.0 -173244000000.0 -292579000000.0 -124722000000.0 -25618700000.0 -161838000000.0 -246911000000.0 -359671000000.0 -525767000000.0 -75673300000.0 -660779000000.0 -295291000000.0 -273180000000.0 -449426000000.0 -240201000000.0 -790182000000.0 -817960000000.0 -283896000000.0 -180491000000.0 -629862000000.0 -686397000000.0 -363362000000.0 -637392000000.0 -515411000000.0 -630857000000.0 -365132000000.0 -118719000000.0 -116182000000.0 -456161000000.0 -768165000000.0 -811061000000.0 -742568000000.0 -619296000000.0 -581800000000.0 -525446000000.0 -489231000000.0 -615127000000.0 -905560000000.0 -1.14184e+12 -382203000000.0 -675278000000.0 -735322000000.0 -270475000000.0 -964719000000.0 -204929000000.0 -287504000000.0 -48325500000.0 -720920000000.0 -57553900000.0 -444086000000.0 -400306000000.0 -276252000000.0 -620845000000.0 -426262000000.0 -304736000000.0 -511471000000.0 -433214000000.0 -582506000000.0 -544757000000.0 -268400000000.0 -386699000000.0 -64829900000.0 -654145000000.0 -178443000000.0 -457343000000.0 -61740700000.0 -613189000000.0 -213845000000.0 -422290000000.0 -145768000000.0 -395539000000.0 -327992000000.0 -90820800000.0 -284872000000.0 -186252000000.0 -187789000000.0 -89474000000.0 -72392300000.0 -64719600000.0 -30836400000.0 -33680300000.0 -130671000000.0 -124938000000.0 -152192000000.0 -83855600000.0 -48010400000.0 -115655000000.0 -59198300000.0 -95328300000.0 -30260800000.0 -31713100000.0 -58942400000.0 -89422700000.0 -42541100000.0 -27007600000.0 -201640000000.0 -87792300000.0 -101906000000.0 -32980700000.0 -202197000000.0 -85449300000.0 -246876000000.0 -158633000000.0 -77933800000.0 -121591000000.0 -357102000000.0 -370388000000.0 -274133000000.0 -248586000000.0 -184534000000.0 -301798000000.0 -421449000000.0 -21554800000.0 -382523000000.0 -276519000000.0 -247648000000.0 -520126000000.0 -627621000000.0 -595335000000.0 -906000000000.0 -241952000000.0 -472797000000.0 -367696000000.0 -691703000000.0 -258846000000.0 -392013000000.0 -192756000000.0 -1.27708e+12 -256611000000.0 -785574000000.0 -513817000000.0 -499206000000.0 -816552000000.0 -433605000000.0 -642911000000.0 -556441000000.0 -330371000000.0 -455362000000.0 -892459000000.0 -251831000000.0 -365600000000.0 -588304000000.0 -394065000000.0 -19655600000.0 -1.1134e+12 -104164000000.0 -343075000000.0 -659897000000.0 -363066000000.0 -291462000000.0 -377009000000.0 -248130000000.0 -247171000000.0 -250779000000.0 -418131000000.0 -366665000000.0 -52979100000.0 -139303000000.0 -197711000000.0 -369474000000.0 -81271700000.0 -226318000000.0 -243342000000.0 -181128000000.0 -591269000000.0 -468197000000.0 -583753000000.0 -484761000000.0 -152410000000.0 -207680000000.0 -291190000000.0 -83810800000.0 -316432000000.0 -152581000000.0 -125496000000.0 -88832700000.0 -49082600000.0 -80517400000.0 -77072800000.0 -63689800000.0 -108230000000.0 -128232000000.0 -118811000000.0 -12549700000.0 -66325400000.0 -14926800000.0 -123722000000.0 -13142600000.0 -26342100000.0 -28410000000.0 -90321900000.0 -60716800000.0 -47792300000.0 -94615500000.0 -66700400000.0 -15723500000.0 -77591200000.0 -89165200000.0 -85728100000.0 -75111800000.0 -199072000000.0 -12742400000.0 -13442300000.0 -20250000000.0 -45429300000.0 -27051800000.0 -175436000000.0 -134288000000.0 -131181000000.0 -102783000000.0 -134938000000.0 -229258000000.0 -280662000000.0 -151713000000.0 -104528000000.0 -129861000000.0 -76282400000.0 -44026800000.0 -366989000000.0 -162790000000.0 -114641000000.0 -490963000000.0 -209181000000.0 -263039000000.0 -262366000000.0 -402285000000.0 -198558000000.0 -189369000000.0 -314514000000.0 -113351000000.0 -621247000000.0 -436745000000.0 -101082000000.0 -456261000000.0 -558527000000.0 -606231000000.0 -784050000000.0 -549627000000.0 -776927000000.0 -461838000000.0 -276504000000.0 -639753000000.0 -584468000000.0 -680234000000.0 -500719000000.0 -289587000000.0 -873240000000.0 -316304000000.0 -444447000000.0 -403432000000.0 -325928000000.0 -300100000000.0 -67571200000.0 -775573000000.0 -587392000000.0 -154794000000.0 -386609000000.0 -215037000000.0 -508036000000.0 -464044000000.0 -190365000000.0 -122166000000.0 -44798600000.0 -252718000000.0 -96367400000.0 -12549700000.0 -231046000000.0 -263043000000.0 -316041000000.0 -267566000000.0 -234022000000.0 -172742000000.0 -201739000000.0 -177293000000.0 -232120000000.0 -206457000000.0 -278059000000.0 -240429000000.0 -207703000000.0 -13546500000.0 -155452000000.0 -86856700000.0 -22446000000.0 -13124500000.0 -33201600000.0 -87174500000.0 -39351800000.0 -14497400000.0 -18072900000.0 -20115200000.0 -62462000000.0 -68622700000.0 -67736700000.0 -72075600000.0 -33553300000.0 -37260600000.0 -51038000000.0 -51601300000.0 -28002000000.0 -40209200000.0 -23701300000.0 -37318500000.0 -44579800000.0 -36787400000.0 -74124000000.0 -29338100000.0 -167045000000.0 -49345600000.0 -18960500000.0 -31970000000.0 -32129100000.0 -159360000000.0 -154389000000.0 -80911200000.0 -38494300000.0 -86284300000.0 -159742000000.0 -43143600000.0 -40473200000.0 -386074000000.0 -184908000000.0 -88288700000.0 -222550000000.0 -98022500000.0 -208229000000.0 -357889000000.0 -110995000000.0 -367533000000.0 -145131000000.0 -19964600000.0 -230393000000.0 -120105000000.0 -271750000000.0 -233122000000.0 -17620600000.0 -266279000000.0 -278984000000.0 -619535000000.0 -184532000000.0 -462868000000.0 -357382000000.0 -520205000000.0 -362630000000.0 -314924000000.0 -179759000000.0 -704194000000.0 -61575900000.0 -451284000000.0 -425534000000.0 -755436000000.0 -524272000000.0 -1.04372e+12 -438087000000.0 -130241000000.0 -542548000000.0 -379055000000.0 -184842000000.0 -488558000000.0 -330786000000.0 -373922000000.0 -224884000000.0 -437425000000.0 -347697000000.0 -90028400000.0 -91123000000.0 -280459000000.0 -79586900000.0 -74871800000.0 -374768000000.0 -210784000000.0 -120013000000.0 -113999000000.0 -121227000000.0 -207420000000.0 -132712000000.0 -217748000000.0 -198039000000.0 -208861000000.0 -95199100000.0 -181572000000.0 -144355000000.0 -64770900000.0 -138751000000.0 -154110000000.0 -80489300000.0 -89437600000.0 -92679500000.0 -49615200000.0 -46191700000.0 -21970400000.0 -42664500000.0 -54434400000.0 -44540200000.0 -54230200000.0 -53033600000.0 -29655700000.0 -27561500000.0 -21034500000.0 -46337900000.0 -36459800000.0 -47656200000.0 -30860400000.0 -49439700000.0 -71165100000.0 -111644000000.0 -85853000000.0 -70105300000.0 -120787000000.0 -36337700000.0 -111178000000.0 -100341000000.0 -105442000000.0 -25730000000.0 -15637400000.0 -293601000000.0 -22114800000.0 -207024000000.0 -126245000000.0 -227189000000.0 -192613000000.0 -121649000000.0 -321018000000.0 -86174200000.0 -20943300000.0 -136166000000.0 -446226000000.0 -160755000000.0 -202676000000.0 -112926000000.0 -274213000000.0 -361482000000.0 -44249000000.0 -352657000000.0 -139866000000.0 -98750200000.0 -184050000000.0 -327159000000.0 -65557500000.0 -395568000000.0 -454105000000.0 -648797000000.0 -159236000000.0 -351834000000.0 -76346300000.0 -309450000000.0 -361678000000.0 -153951000000.0 -847294000000.0 -549486000000.0 -128367000000.0 -143491000000.0 -509265000000.0 -296613000000.0 -190742000000.0 -421484000000.0 -12689200000.0 -192508000000.0 -277811000000.0 -161121000000.0 -137279000000.0 -179467000000.0 -158138000000.0 -62764600000.0 -106786000000.0 -96434600000.0 -217470000000.0 -152045000000.0 -189639000000.0 -189057000000.0 -249043000000.0 -91286100000.0 -198539000000.0 -302226000000.0 -83193900000.0 -130380000000.0 -97949400000.0 -109645000000.0 -61689300000.0 -91873900000.0 -20112200000.0 -119833000000.0 -133088000000.0 -28779400000.0 -18809200000.0 -51223900000.0 -43954100000.0 -31901600000.0 -48432500000.0 -13605400000.0 -26235500000.0 -51035000000.0 -43667800000.0 -30953600000.0 -28188800000.0 -13450900000.0 -50580900000.0 -21445100000.0 -46265100000.0 -42647200000.0 -76968700000.0 -56964800000.0 -81654700000.0 -35087400000.0 -72100300000.0 -38982500000.0 -47970600000.0 -69250700000.0 -20093200000.0 -113116000000.0 -70031200000.0 -88333300000.0 -25829800000.0 -124866000000.0 -115826000000.0 -150161000000.0 -108769000000.0 -182857000000.0 -14057000000.0 -156193000000.0 -156713000000.0 -102001000000.0 -119475000000.0 -89915400000.0 -157681000000.0 -278747000000.0 -183998000000.0 -164089000000.0 -224612000000.0 -124774000000.0 -183487000000.0 -337793000000.0 -363089000000.0 -236318000000.0 -205269000000.0 -234039000000.0 -18858900000.0 -12549700000.0 -196288000000.0 -275332000000.0 -31719900000.0 -301376000000.0 -337157000000.0 -49711000000.0 -240599000000.0 -338249000000.0 -63231100000.0 -269395000000.0 -293412000000.0 -217883000000.0 -214891000000.0 -623659000000.0 -280771000000.0 -274291000000.0 -503445000000.0 -308791000000.0 -323402000000.0 -282332000000.0 -185549000000.0 -126307000000.0 -232566000000.0 -41072800000.0 -268382000000.0 -84828300000.0 -125922000000.0 -93256700000.0 -83008800000.0 -72160500000.0 -12549700000.0 -90285700000.0 -55835200000.0 -67346300000.0 -85429000000.0 -122555000000.0 -148829000000.0 -109883000000.0 -117559000000.0 -83082400000.0 -76371300000.0 -306496000000.0 -147036000000.0 -115006000000.0 -25060700000.0 -52098500000.0 -32393900000.0 -85475500000.0 -13031600000.0 -63577900000.0 -24880400000.0 -45502100000.0 -43304500000.0 -38148100000.0 -14186400000.0 -14015300000.0 -16394200000.0 -44362500000.0 -26144600000.0 -23724000000.0 -18728900000.0 -13325800000.0 -32926400000.0 -46604800000.0 -25730100000.0 -32130900000.0 -37484000000.0 -27210100000.0 -29199400000.0 -27914700000.0 -56479600000.0 -35332800000.0 -41051700000.0 -35094000000.0 -12779800000.0 -39743400000.0 -23264000000.0 -100257000000.0 -51166900000.0 -63621600000.0 -85092600000.0 -132578000000.0 -139725000000.0 -112916000000.0 -74373100000.0 -184743000000.0 -158702000000.0 -175808000000.0 -176666000000.0 -132768000000.0 -155015000000.0 -20600500000.0 -42007500000.0 -235567000000.0 -127388000000.0 -87666400000.0 -249819000000.0 -70330500000.0 -94759800000.0 -126607000000.0 -225144000000.0 -74357400000.0 -233765000000.0 -149281000000.0 -92363800000.0 -358902000000.0 -239234000000.0 -220292000000.0 -59125200000.0 -379669000000.0 -84338700000.0 -232417000000.0 -424955000000.0 -269927000000.0 -180338000000.0 -161054000000.0 -207930000000.0 -180078000000.0 -130794000000.0 -103615000000.0 -20473000000.0 -88402800000.0 -166513000000.0 -188456000000.0 -57840300000.0 -63303400000.0 -100633000000.0 -103379000000.0 -58409800000.0 -32363700000.0 -98879800000.0 -85745800000.0 -70306400000.0 -74143700000.0 -96274100000.0 -67918100000.0 -68004100000.0 -26357900000.0 -96632700000.0 -120954000000.0 -89707500000.0 -80312300000.0 -67255700000.0 -77496600000.0 -49186400000.0 -57337400000.0 -14756800000.0 -54263000000.0 -17183600000.0 -39713700000.0 -13734500000.0 -34422100000.0 -43477100000.0 -15223800000.0 -25330100000.0 -41814600000.0 -25578600000.0 -27079700000.0 -28387900000.0 -25302900000.0 -31132800000.0 -31286000000.0 -28632100000.0 -15893200000.0 -34821400000.0 -16180800000.0 -14581500000.0 -53692800000.0 -45217700000.0 -35657700000.0 -37887300000.0 -53054700000.0 -47670700000.0 -16281500000.0 -38350200000.0 -15835800000.0 -62898200000.0 -24081300000.0 -42818700000.0 -63374100000.0 -46542500000.0 -75597200000.0 -49381400000.0 -72305000000.0 -31950700000.0 -15444400000.0 -60215900000.0 -75887900000.0 -15971300000.0 -91523300000.0 -138303000000.0 -192782000000.0 -222055000000.0 -33273900000.0 -96159900000.0 -69412600000.0 -169998000000.0 -54231200000.0 -34454000000.0 -111180000000.0 -184362000000.0 -287902000000.0 -283586000000.0 -182314000000.0 -31737100000.0 -111630000000.0 -116237000000.0 -121553000000.0 -123837000000.0 -100096000000.0 -161412000000.0 -135869000000.0 -72549900000.0 -203787000000.0 -117293000000.0 -224625000000.0 -148678000000.0 -131207000000.0 -215302000000.0 -197113000000.0 -224141000000.0 -151062000000.0 -271368000000.0 -339696000000.0 -328414000000.0 -149841000000.0 -137274000000.0 -134872000000.0 -88611100000.0 -45599400000.0 -34504600000.0 -79684000000.0 -54637400000.0 -138157000000.0 -114356000000.0 -61037200000.0 -80569600000.0 -151379000000.0 -85132800000.0 -83191500000.0 -76741300000.0 -52348100000.0 -56855200000.0 -64726300000.0 -30179700000.0 -22677900000.0 -75971800000.0 -63079700000.0 -40448600000.0 -33351000000.0 -80491800000.0 -71307800000.0 -77730100000.0 -100579000000.0 -21971000000.0 -12845400000.0 -23024000000.0 -45554500000.0 -66503900000.0 -37063500000.0 -42679600000.0 -47864000000.0 -49327000000.0 -46306000000.0 -36279200000.0 -21057100000.0 -44639800000.0 -40522700000.0 -32647400000.0 -28339500000.0 -13984400000.0 -37427600000.0 -14025400000.0 -13741200000.0 -26973300000.0 -15762200000.0 -42003700000.0 -33358200000.0 -38232100000.0 -36351500000.0 -33438300000.0 -12549700000.0 -56775000000.0 -15238500000.0 -14906600000.0 -14522200000.0 -37413700000.0 -51991000000.0 -17848400000.0 -16026400000.0 -87603200000.0 -53579800000.0 -108964000000.0 -41242000000.0 -57532000000.0 -143302000000.0 -71843900000.0 -177027000000.0 -80467000000.0 -62177600000.0 -53363300000.0 -95331900000.0 -103533000000.0 -14502700000.0 -222768000000.0 -25223300000.0 -94549600000.0 -74011500000.0 -35542900000.0 -24450700000.0 -18679800000.0 -111047000000.0 -68595800000.0 -81484800000.0 -155294000000.0 -105695000000.0 -80694800000.0 -136556000000.0 -272616000000.0 -35268800000.0 -69349000000.0 -13808600000.0 -105803000000.0 -129167000000.0 -191380000000.0 -115924000000.0 -215955000000.0 -225688000000.0 -98656000000.0 -92319000000.0 -94104200000.0 -24330400000.0 -56460800000.0 -29358800000.0 -68525400000.0 -49377900000.0 -49969200000.0 -113215000000.0 -16398500000.0 -57117800000.0 -77737900000.0 -63230500000.0 -40237700000.0 -37126900000.0 -75009900000.0 -80892200000.0 -60626200000.0 -75305500000.0 -16406500000.0 -46873700000.0 -101904000000.0 -86148500000.0 -36167900000.0 -57207300000.0 -24201100000.0 -25283300000.0 -12788800000.0 -21834000000.0 -18608300000.0 -42003800000.0 -19321700000.0 -23779700000.0 -26434100000.0 -23626500000.0 -30920800000.0 -29135700000.0 -20209400000.0 -13567200000.0 -12990600000.0 -27367800000.0 -15402300000.0 -14193700000.0 -15360200000.0 -14794500000.0 -15653100000.0 -15295700000.0 -30080100000.0 -19909800000.0 -12549700000.0 -28711300000.0 -23637800000.0 -14510600000.0 -12549700000.0 -20144500000.0 -47237400000.0 -25949200000.0 -44590300000.0 -28071900000.0 -43700100000.0 -31223300000.0 -42514700000.0 -74742900000.0 -17553300000.0 -79613400000.0 -42600500000.0 -61052800000.0 -61231700000.0 -66310700000.0 -39166700000.0 -41977800000.0 -33315800000.0 -16311200000.0 -156860000000.0 -107334000000.0 -60628300000.0 -23537300000.0 -39429300000.0 -13188100000.0 -27277700000.0 -123340000000.0 -80527500000.0 -70566900000.0 -98550600000.0 -34960800000.0 -74834200000.0 -117833000000.0 -56585800000.0 -107368000000.0 -174725000000.0 -64992100000.0 -221680000000.0 -54205900000.0 -47206000000.0 -78245500000.0 -105276000000.0 -162185000000.0 -48758700000.0 -118481000000.0 -77601500000.0 -82505600000.0 -93872900000.0 -28643000000.0 -49965700000.0 -26048200000.0 -37027700000.0 -93974200000.0 -34773600000.0 -35670900000.0 -54990900000.0 -20930100000.0 -53980300000.0 -49391600000.0 -31995300000.0 -48278900000.0 -53698400000.0 -23716200000.0 -15830300000.0 -20841500000.0 -33680400000.0 -67473400000.0 -45438600000.0 -22499100000.0 -30762700000.0 -43963500000.0 -78250900000.0 -46307400000.0 -30811800000.0 -14471900000.0 -37999500000.0 -15291800000.0 -13434900000.0 -18810900000.0 -14780500000.0 -19300500000.0 -19401000000.0 -17693900000.0 -32031900000.0 -19890200000.0 -21344900000.0 -16391400000.0 -16230100000.0 -22570200000.0 -13682800000.0 -12698300000.0 -12549700000.0 -18025600000.0 -25298200000.0 -12549700000.0 -13252600000.0 -19901800000.0 -15934600000.0 -12549700000.0 -19300400000.0 -19016800000.0 -14143900000.0 -33051300000.0 -17348500000.0 -48191100000.0 -23395600000.0 -43956000000.0 -31027100000.0 -26269300000.0 -57042400000.0 -42652800000.0 -34069700000.0 -29552800000.0 -15953200000.0 -49402500000.0 -31344200000.0 -22317300000.0 -132014000000.0 -68964700000.0 -44009900000.0 -75910500000.0 -14237600000.0 -27867100000.0 -13359900000.0 -78830200000.0 -55072500000.0 -13707600000.0 -91995300000.0 -46729600000.0 -40267100000.0 -26270200000.0 -58658500000.0 -25513900000.0 -50776500000.0 -129742000000.0 -135934000000.0 -115461000000.0 -114749000000.0 -116136000000.0 -147483000000.0 -58576400000.0 -16393700000.0 -16466200000.0 -86880900000.0 -49005500000.0 -28939000000.0 -169013000000.0 -38124700000.0 -12549700000.0 -85737100000.0 -48293600000.0 -42366700000.0 -36577200000.0 -15932500000.0 -78736700000.0 -60674400000.0 -59082400000.0 -24648700000.0 -66740800000.0 -16518500000.0 -81152500000.0 -16779000000.0 -48340400000.0 -34125500000.0 -31722500000.0 -19357900000.0 -25553700000.0 -32755400000.0 -31405400000.0 -36118900000.0 -37203100000.0 -19554200000.0 -24372100000.0 -27147400000.0 -20447800000.0 -19192000000.0 -15243400000.0 -36285500000.0 -34608900000.0 -13041800000.0 -16835300000.0 -28038400000.0 -23888600000.0 -23961600000.0 -17297600000.0 -17801900000.0 -19168600000.0 -21329700000.0 -17103200000.0 -17192200000.0 -14591200000.0 -16823900000.0 -16627500000.0 -12702700000.0 -17414900000.0 -13278200000.0 -12549700000.0 -12549700000.0 -14035000000.0 -19088600000.0 -16709700000.0 -12833900000.0 -13503600000.0 -12549700000.0 -16882800000.0 -16068500000.0 -13227500000.0 -14867500000.0 -14538100000.0 -14293700000.0 -26201500000.0 -20294500000.0 -23671700000.0 -17598400000.0 -30811900000.0 -15690100000.0 -19149500000.0 -20397300000.0 -28807300000.0 -16023400000.0 -29271200000.0 -37262800000.0 -31748600000.0 -49452100000.0 -46280800000.0 -52879900000.0 -64338900000.0 -49380400000.0 -32136300000.0 -30889400000.0 -44835400000.0 -29806600000.0 -46624800000.0 -20327700000.0 -24273800000.0 -40426600000.0 -32897300000.0 -18780300000.0 -30457300000.0 -35589800000.0 -55171200000.0 -81348900000.0 -62951700000.0 -103008000000.0 -94984500000.0 -96215900000.0 -52084100000.0 -42028600000.0 -13561900000.0 -17121900000.0 -111828000000.0 -32303900000.0 -31196400000.0 -12989500000.0 -34301500000.0 -15641900000.0 -86108400000.0 -35241700000.0 -47359700000.0 -60497700000.0 -12549700000.0 -72271400000.0 -15134800000.0 -33790400000.0 -24361800000.0 -29240800000.0 -40114000000.0 -21664700000.0 -16162800000.0 -12933900000.0 -20609400000.0 -23511100000.0 -24873100000.0 -15222800000.0 -12753800000.0 -17321900000.0 -21396900000.0 -20352600000.0 -15560400000.0 -17736900000.0 -29309700000.0 -21992700000.0 -17181100000.0 -13054600000.0 -14401300000.0 -12549700000.0 -16991100000.0 -14349000000.0 -13285800000.0 -14722500000.0 -12549700000.0 -13978400000.0 -12928400000.0 -12616900000.0 -14701800000.0 -12577300000.0 -12549700000.0 -12552700000.0 -12917300000.0 -15036700000.0 -12549700000.0 -12881400000.0 -13081000000.0 -12951000000.0 -13597200000.0 -13215700000.0 -13395500000.0 -15022300000.0 -18055800000.0 -14173300000.0 -13496600000.0 -13714900000.0 -21115200000.0 -22834200000.0 -15250600000.0 -16139300000.0 -16204100000.0 -24961200000.0 -40796500000.0 -35742800000.0 -39027400000.0 -20956400000.0 -27878400000.0 -17807800000.0 -37887700000.0 -66990600000.0 -34807200000.0 -34419900000.0 -20163500000.0 -12835300000.0 -16145800000.0 -24868300000.0 -21526200000.0 -13942500000.0 -20667400000.0 -25502700000.0 -14652600000.0 -21470400000.0 -36745100000.0 -63879600000.0 -42616700000.0 -105863000000.0 -55806300000.0 -71863200000.0 -64701400000.0 -70978100000.0 -100127000000.0 -67559100000.0 -12773700000.0 -28786500000.0 -32995600000.0 -16817400000.0 -18119000000.0 -22724000000.0 -23312100000.0 -16391500000.0 -16362300000.0 -14763200000.0 -17552900000.0 -18406800000.0 -17172300000.0 -13182100000.0 -15903300000.0 -14562900000.0 -15496400000.0 -17001100000.0 -13939500000.0 -12763100000.0 -12761400000.0 -17402900000.0 -16432300000.0 -20628200000.0 -15657300000.0 -13115500000.0 -13125200000.0 -20013600000.0 -13466300000.0 -16571900000.0 -12753400000.0 -13583500000.0 -12955000000.0 -13099300000.0 -12549700000.0 -13076800000.0 -12641600000.0 -14942800000.0 -13432500000.0 -13220700000.0 -13889400000.0 -12773900000.0 -12819700000.0 -12842200000.0 -12603900000.0 -12930100000.0 -14021500000.0 -13173900000.0 -13522800000.0 -15271900000.0 -12877700000.0 -13628900000.0 -12956000000.0 -15277300000.0 -13695800000.0 -16874400000.0 -14479600000.0 -14408500000.0 -14606800000.0 -18513400000.0 -23022900000.0 -25460100000.0 -20478200000.0 -15663500000.0 -16039600000.0 -29990800000.0 -25921200000.0 -18491600000.0 -20015800000.0 -26654900000.0 -33464200000.0 -22015900000.0 -27134700000.0 -13806100000.0 -27900300000.0 -25307900000.0 -18296000000.0 -13630400000.0 -13640600000.0 -16651800000.0 -18085400000.0 -18149300000.0 -21660400000.0 -30550000000.0 -19663600000.0 -14096500000.0 -26216600000.0 -27726800000.0 -42044900000.0 -12753900000.0 -59620800000.0 -44013200000.0 -21670100000.0 -13014000000.0 -14706000000.0 -12549700000.0 -39790100000.0 -15300700000.0 -13045800000.0 -20756600000.0 -23100200000.0 -15522900000.0 -18951900000.0 -22325100000.0 -15950400000.0 -14723000000.0 -19053300000.0 -14572800000.0 -15953800000.0 -13838400000.0 -14166800000.0 -12681000000.0 -13618600000.0 -12894900000.0 -12916600000.0 -13642200000.0 -12863600000.0 -12775800000.0 -15942900000.0 -13839400000.0 -14407300000.0 -13745300000.0 -12958100000.0 -12951400000.0 -12870300000.0 -13135400000.0 -12726800000.0 -12727700000.0 -13446000000.0 -13766800000.0 -14668300000.0 -12802200000.0 -12882900000.0 -15561900000.0 -16321100000.0 -13824800000.0 -14477900000.0 -17344200000.0 -14063400000.0 -15973400000.0 -14174600000.0 -13773700000.0 -15286100000.0 -12843700000.0 -12549600000.0 -13276500000.0 -12967400000.0 -15606000000.0 -13321100000.0 -19692700000.0 -14251600000.0 -16192300000.0 -16869000000.0 -14492000000.0 -20552200000.0 -16674200000.0 -27353200000.0 -20169200000.0 -21602700000.0 -12858000000.0 