# vtk DataFile Version 2.0
Time step 80
ASCII
DATASET UNSTRUCTURED_GRID
POINTS 5000 float
219590.0 170898.0 0
227300.0 171387.0 0
232831.0 168740.0 0
231601.0 171896.0 0
236387.0 171460.0 0
242535.0 172741.0 0
273376.0 170942.0 0
279640.0 170141.0 0
195419.0 176967.0 0
201377.0 175741.0 0
208321.0 173890.0 0
214132.0 174783.0 0
224053.0 174477.0 0
219561.0 176428.0 0
228194.0 176072.0 0
233206.0 176151.0 0
238509.0 176426.0 0
243564.0 178416.0 0
249007.0 174352.0 0
255341.0 173888.0 0
259866.0 175495.0 0
264002.0 173978.0 0
269047.0 174563.0 0
265516.0 177994.0 0
274567.0 175349.0 0
279066.0 176296.0 0
284341.0 174557.0 0
290072.0 173724.0 0
286559.0 178177.0 0
293366.0 177510.0 0
298196.0 176732.0 0
303590.0 177460.0 0
192308.0 182078.0 0
198682.0 180219.0 0
201720.0 179593.0 0
201949.0 183502.0 0
205315.0 178865.0 0
207394.0 183631.0 0
210459.0 179188.0 0
212798.0 183595.0 0
215409.0 179691.0 0
224386.0 178910.0 0
220011.0 182306.0 0
228886.0 180423.0 0
233451.0 181340.0 0
238942.0 181830.0 0
248426.0 180554.0 0
252402.0 178711.0 0
253461.0 182793.0 0
256522.0 178707.0 0
258414.0 183240.0 0
261529.0 179605.0 0
268236.0 182182.0 0
272174.0 178677.0 0
273000.0 182735.0 0
277063.0 181209.0 0
283098.0 179332.0 0
281231.0 183087.0 0
289824.0 178973.0 0
286869.0 182157.0 0
292968.0 181913.0 0
298160.0 182425.0 0
303746.0 182820.0 0
192106.0 187914.0 0
196744.0 184235.0 0
216653.0 187177.0 0
221915.0 186190.0 0
225496.0 184057.0 0
227811.0 188600.0 0
230381.0 184796.0 0
232012.0 188287.0 0
235293.0 185569.0 0
244268.0 183728.0 0
240068.0 187465.0 0
249289.0 185501.0 0
254823.0 187992.0 0
263291.0 183711.0 0
260736.0 187767.0 0
266602.0 188167.0 0
271348.0 186040.0 0
274181.0 187682.0 0
277856.0 186330.0 0
284311.0 187082.0 0
290233.0 186500.0 0
294960.0 185972.0 0
299031.0 187763.0 0
303865.0 187824.0 0
309272.0 186650.0 0
189878.0 192328.0 0
197585.0 189301.0 0
203607.0 189336.0 0
210442.0 188914.0 0
215277.0 192571.0 0
221541.0 190471.0 0
225987.0 192675.0 0
230865.0 192821.0 0
235578.0 189791.0 0
243472.0 192207.0 0
240375.0 191996.0 0
245345.0 188779.0 0
246598.0 193050.0 0
250105.0 190333.0 0
254179.0 192738.0 0
258062.0 191175.0 0
262683.0 193015.0 0
271769.0 189872.0 0
275917.0 190898.0 0
280371.0 190374.0 0
285540.0 193533.0 0
294879.0 190082.0 0
290866.0 191443.0 0
298461.0 192310.0 0
301846.0 191094.0 0
306816.0 193353.0 0
193829.0 194849.0 0
190970.0 198716.0 0
199522.0 194458.0 0
205101.0 195131.0 0
210516.0 194971.0 0
214622.0 197753.0 0
219422.0 195834.0 0
225445.0 196673.0 0
229160.0 196915.0 0
236406.0 194979.0 0
242210.0 196112.0 0
246776.0 196809.0 0
250152.0 194844.0 0
253633.0 197675.0 0
258028.0 195372.0 0
264006.0 198779.0 0
269082.0 194724.0 0
275150.0 195559.0 0
272589.0 198567.0 0
279814.0 194715.0 0
282217.0 197697.0 0
290695.0 195360.0 0
285915.0 198412.0 0
288603.0 197761.0 0
294866.0 194662.0 0
297387.0 198254.0 0
301063.0 195820.0 0
304587.0 198450.0 0
308539.0 198655.0 0
312704.0 197790.0 0
187044.0 199915.0 0
189993.0 203335.0 0
195389.0 201582.0 0
201490.0 200047.0 0
208052.0 200444.0 0
213845.0 202794.0 0
217672.0 200341.0 0
222267.0 200328.0 0
227608.0 200527.0 0
232650.0 199485.0 0
238459.0 200859.0 0
244667.0 200741.0 0
249352.0 199774.0 0
253073.0 202820.0 0
258388.0 200634.0 0
269416.0 200547.0 0
274168.0 202842.0 0
278531.0 199294.0 0
279281.0 203993.0 0
283571.0 201667.0 0
288527.0 201111.0 0
292860.0 199373.0 0
296721.0 202552.0 0
301038.0 200619.0 0
306381.0 202754.0 0
311370.0 202207.0 0
185480.0 204906.0 0
188544.0 207914.0 0
193464.0 207493.0 0
199396.0 205042.0 0
203989.0 204919.0 0
203428.0 209175.0 0
209332.0 206652.0 0
218783.0 204453.0 0
214868.0 208216.0 0
224767.0 205712.0 0
229154.0 208538.0 0
230808.0 204281.0 0
233293.0 208290.0 0
237473.0 206286.0 0
242063.0 204765.0 0
248047.0 204427.0 0
245138.0 206960.0 0
252027.0 208446.0 0
257435.0 206359.0 0
261462.0 204147.0 0
262464.0 208655.0 0
266002.0 204137.0 0
270268.0 205655.0 0
273665.0 208646.0 0
278545.0 208231.0 0
282991.0 206738.0 0
287243.0 205052.0 0
292138.0 204672.0 0
296759.0 207856.0 0
301746.0 205515.0 0
310695.0 206273.0 0
306584.0 208172.0 0
314220.0 207106.0 0
186655.0 211044.0 0
190237.0 211432.0 0
198735.0 209962.0 0
194005.0 212436.0 0
202967.0 213762.0 0
206577.0 210402.0 0
206882.0 213059.0 0
210809.0 212213.0 0
216329.0 213846.0 0
219996.0 209488.0 0
225824.0 211301.0 0
230466.0 212534.0 0
236241.0 212431.0 0
241607.0 209692.0 0
246806.0 210316.0 0
250569.0 213699.0 0
257467.0 213012.0 0
263947.0 213616.0 0
268142.0 210181.0 0
272216.0 213809.0 0
276815.0 212606.0 0
282054.0 211720.0 0
287183.0 209840.0 0
291872.0 209380.0 0
295124.0 213438.0 0
301985.0 210890.0 0
310744.0 210371.0 0
307930.0 213764.0 0
314396.0 210251.0 0
312771.0 214190.0 0
187668.0 214981.0 0
187522.0 219343.0 0
191805.0 217910.0 0
197358.0 214883.0 0
196321.0 219145.0 0
200459.0 218072.0 0
207163.0 216230.0 0
211962.0 217709.0 0
221928.0 214381.0 0
224028.0 218220.0 0
226842.0 215312.0 0
232732.0 216603.0 0
237679.0 217701.0 0
241233.0 214673.0 0
243404.0 219293.0 0
245767.0 214606.0 0
248711.0 218138.0 0
253259.0 217222.0 0
261965.0 217314.0 0
268105.0 216538.0 0
274222.0 218587.0 0
279616.0 216820.0 0
284975.0 216143.0 0
289859.0 214428.0 0
288717.0 218755.0 0
292476.0 218241.0 0
299475.0 214806.0 0
297131.0 219057.0 0
303700.0 217538.0 0
189328.0 223352.0 0
193732.0 222129.0 0
197585.0 222927.0 0
202283.0 222560.0 0
207050.0 220451.0 0
211271.0 222743.0 0
218889.0 219473.0 0
215981.0 224409.0 0
224007.0 222796.0 0
228508.0 219542.0 0
233951.0 221713.0 0
239109.0 221543.0 0
237592.0 224303.0 0
242200.0 223970.0 0
247473.0 222388.0 0
252193.0 221798.0 0
257678.0 219858.0 0
265069.0 220311.0 0
261588.0 223429.0 0
269824.0 221194.0 0
273870.0 223672.0 0
278793.0 221911.0 0
284778.0 221561.0 0
291045.0 223077.0 0
296273.0 224045.0 0
301051.0 223163.0 0
305777.0 222326.0 0
310443.0 219447.0 0
316657.0 220533.0 0
188130.0 228886.0 0
194682.0 226659.0 0
202044.0 228198.0 0
206501.0 225095.0 0
210125.0 226356.0 0
213032.0 228123.0 0
217215.0 229551.0 0
220535.0 226355.0 0
229166.0 224864.0 0
225068.0 228010.0 0
234355.0 227282.0 0
239274.0 227326.0 0
243159.0 227459.0 0
245925.0 225463.0 0
250109.0 226085.0 0
256354.0 225931.0 0
261767.0 227839.0 0
266512.0 225270.0 0
269442.0 229581.0 0
271018.0 226148.0 0
273817.0 229243.0 0
277635.0 226619.0 0
282102.0 225595.0 0
281162.0 228788.0 0
286619.0 226754.0 0
292483.0 229198.0 0
298820.0 228639.0 0
305651.0 227814.0 0
311106.0 225293.0 0
192193.0 232831.0 0
197226.0 231222.0 0
201504.0 233403.0 0
207901.0 230590.0 0
213394.0 232728.0 0
218607.0 234629.0 0
221591.0 230823.0 0
225795.0 233296.0 0
229760.0 230097.0 0
233846.0 231735.0 0
237548.0 231207.0 0
241684.0 231098.0 0
244260.0 234355.0 0
246779.0 229850.0 0
248448.0 234095.0 0
252485.0 230940.0 0
258166.0 231199.0 0
262636.0 232540.0 0
265480.0 229795.0 0
267519.0 233811.0 0
271563.0 232690.0 0
275315.0 233670.0 0
278431.0 230946.0 0
284070.0 231270.0 0
287930.0 230147.0 0
288758.0 233760.0 0
295152.0 233961.0 0
300024.0 234357.0 0
305008.0 233645.0 0
311322.0 230720.0 0
191626.0 238241.0 0
197250.0 236881.0 0
202328.0 237206.0 0
200576.0 239547.0 0
205417.0 235067.0 0
205937.0 239403.0 0
209752.0 236015.0 0
214382.0 237258.0 0
219752.0 239654.0 0
222900.0 236995.0 0
227460.0 238426.0 0
231383.0 235594.0 0
235861.0 234783.0 0
239710.0 235218.0 0
236064.0 238898.0 0
242800.0 238020.0 0
239872.0 238985.0 0
246727.0 237765.0 0
251723.0 236900.0 0
255754.0 234814.0 0
259440.0 235463.0 0
256051.0 238434.0 0
259681.0 239080.0 0
263304.0 236600.0 0
267323.0 238277.0 0
272032.0 237136.0 0
279891.0 234781.0 0
276781.0 237079.0 0
280346.0 239390.0 0
284172.0 235762.0 0
284906.0 239686.0 0
287851.0 237691.0 0
292138.0 237655.0 0
297664.0 238901.0 0
303802.0 239040.0 0
309683.0 236217.0 0
193428.0 244262.0 0
194910.0 241007.0 0
198099.0 241632.0 0
202157.0 242784.0 0
207682.0 243929.0 0
211079.0 240361.0 0
212839.0 244408.0 0
216023.0 241376.0 0
220547.0 244117.0 0
223796.0 241322.0 0
228349.0 242821.0 0
231995.0 240441.0 0
231861.0 244476.0 0
235462.0 243560.0 0
239694.0 242517.0 0
244240.0 241525.0 0
248977.0 240988.0 0
253257.0 241092.0 0
251215.0 244362.0 0
254679.0 244318.0 0
256950.0 242144.0 0
260105.0 243098.0 0
263237.0 240704.0 0
266974.0 242270.0 0
271161.0 242213.0 0
274504.0 244626.0 0
275648.0 240516.0 0
278791.0 243920.0 0
283801.0 243791.0 0
288857.0 241694.0 0
293927.0 242337.0 0
298644.0 242421.0 0
197774.0 246088.0 0
200513.0 249754.0 0
203466.0 246740.0 0
207428.0 248276.0 0
211013.0 246933.0 0
210853.0 249990.0 0
216760.0 245410.0 0
215136.0 249495.0 0
219084.0 247793.0 0
222288.0 248581.0 0
225187.0 245764.0 0
229461.0 247150.0 0
233634.0 247990.0 0
238335.0 247421.0 0
242687.0 245747.0 0
242125.0 249351.0 0
247051.0 245006.0 0
249947.0 247936.0 0
245813.0 249191.0 0
253357.0 247129.0 0
257896.0 247333.0 0
263470.0 245810.0 0
268151.0 245776.0 0
266609.0 249192.0 0
271240.0 247951.0 0
276404.0 248201.0 0
281114.0 248399.0 0
285558.0 247742.0 0
287988.0 245561.0 0
289006.0 249547.0 0
291650.0 246181.0 0
294122.0 249764.0 0
297017.0 245673.0 0
300041.0 247675.0 0
302941.0 244905.0 0
202272.0 253417.0 0
204627.0 250702.0 0
208405.0 252375.0 0
206074.0 254624.0 0
212581.0 253404.0 0
223026.0 252353.0 0
219398.0 251702.0 0
226754.0 250574.0 0
230476.0 250233.0 0
232834.0 251867.0 0
229932.0 254710.0 0
236222.0 251701.0 0
240035.0 251983.0 0
243738.0 252442.0 0
249231.0 251437.0 0
246648.0 253036.0 0
253730.0 251356.0 0
258126.0 253029.0 0
261992.0 250448.0 0
265167.0 252687.0 0
268977.0 252628.0 0
273810.0 251868.0 0
278083.0 252122.0 0
281468.0 252736.0 0
285093.0 251376.0 0
283495.0 254663.0 0
287117.0 254817.0 0
290899.0 252783.0 0
294768.0 254757.0 0
297746.0 251788.0 0
298381.0 254959.0 0
203093.0 257905.0 0
207649.0 258842.0 0
209746.0 255807.0 0
212971.0 256876.0 0
211490.0 260088.0 0
216930.0 255241.0 0
221383.0 255740.0 0
220123.0 259737.0 0
224168.0 259425.0 0
225478.0 255413.0 0
228226.0 259331.0 0
234170.0 255718.0 0
231992.0 259331.0 0
237956.0 255712.0 0
235892.0 259707.0 0
241898.0 255821.0 0
244123.0 259286.0 0
240008.0 260052.0 0
245753.0 256060.0 0
247685.0 260067.0 0
250150.0 255935.0 0
254829.0 256386.0 0
258607.0 257648.0 0
255895.0 259695.0 0
261747.0 255350.0 0
262366.0 260097.0 0
265568.0 256323.0 0
268712.0 256777.0 0
271931.0 255863.0 0
270608.0 259864.0 0
274117.0 258816.0 0
276017.0 255605.0 0
279755.0 256218.0 0
277045.0 259424.0 0
283397.0 258234.0 0
287065.0 259765.0 0
291120.0 256873.0 0
294869.0 258871.0 0
297888.0 257754.0 0
197272.0 263072.0 0
202012.0 261920.0 0
205846.0 262604.0 0
210113.0 263918.0 0
215871.0 260300.0 0
214442.0 264320.0 0
218588.0 263816.0 0
222787.0 263436.0 0
226293.0 262403.0 0
229904.0 263248.0 0
234009.0 263410.0 0
237978.0 263754.0 0
243549.0 264247.0 0
249127.0 264183.0 0
252084.0 260380.0 0
255012.0 262462.0 0
252833.0 264225.0 0
258605.0 261715.0 0
261272.0 264637.0 0
265049.0 264127.0 0
266741.0 260312.0 0
269410.0 263870.0 0
273761.0 262556.0 0
280155.0 260827.0 0
277156.0 262148.0 0
279288.0 264312.0 0
276430.0 265007.0 0
283530.0 263438.0 0
287742.0 264826.0 0
291507.0 261618.0 0
295369.0 262669.0 0
297994.0 261003.0 0
297898.0 264656.0 0
202893.0 265896.0 0
202255.0 269710.0 0
207448.0 267154.0 0
205456.0 269980.0 0
212261.0 268864.0 0
216992.0 267544.0 0
220862.0 266517.0 0
222551.0 268966.0 0
219678.0 270228.0 0
226524.0 267155.0 0
231935.0 267012.0 0
235744.0 267332.0 0
239426.0 267069.0 0
242674.0 269855.0 0
246834.0 268150.0 0
251763.0 268352.0 0
256836.0 266355.0 0
263662.0 267477.0 0
260752.0 268787.0 0
267395.0 267826.0 0
272580.0 267856.0 0
277421.0 268319.0 0
281261.0 267021.0 0
284977.0 268758.0 0
289300.0 268204.0 0
292943.0 266060.0 0
296911.0 268535.0 0
203089.0 273732.0 0
208656.0 272513.0 0
212570.0 273175.0 0
214240.0 275226.0 0
215965.0 272052.0 0
223392.0 271775.0 0
220206.0 274218.0 0
226906.0 272952.0 0
230537.0 270559.0 0
234524.0 271534.0 0
230941.0 274643.0 0
238398.0 270617.0 0
237669.0 274452.0 0
240764.0 273435.0 0
243893.0 274693.0 0
248615.0 271310.0 0
245538.0 271898.0 0
247373.0 274885.0 0
251442.0 273738.0 0
256056.0 272061.0 0
264802.0 271370.0 0
260778.0 272760.0 0
269698.0 272403.0 0
275092.0 272860.0 0
272149.0 275255.0 0
280397.0 272083.0 0
284638.0 273296.0 0
288279.0 272419.0 0
292366.0 270519.0 0
295054.0 272657.0 0
292203.0 275109.0 0
298156.0 272425.0 0
202957.0 278096.0 0
207152.0 276731.0 0
208197.0 280270.0 0
211251.0 276462.0 0
211979.0 280120.0 0
217009.0 275695.0 0
215400.0 278727.0 0
223992.0 275891.0 0
220327.0 279148.0 0
227921.0 277282.0 0
225122.0 280201.0 0
234201.0 276255.0 0
231234.0 279216.0 0
237349.0 278141.0 0
240986.0 277619.0 0
249833.0 277875.0 0
245391.0 278818.0 0
254042.0 277298.0 0
258275.0 277187.0 0
263070.0 276289.0 0
261898.0 279993.0 0
266936.0 275825.0 0
270262.0 277759.0 0
274565.0 278191.0 0
278003.0 276467.0 0
282265.0 277206.0 0
287690.0 278066.0 0
292863.0 280348.0 0
296746.0 276474.0 0
297776.0 280443.0 0
302750.0 276805.0 0
201537.0 281272.0 0
202480.0 284121.0 0
204810.0 281165.0 0
206426.0 284602.0 0
213776.0 283231.0 0
210274.0 283729.0 0
216826.0 282540.0 0
219734.0 283658.0 0
223089.0 283933.0 0
228287.0 281120.0 0
227104.0 284613.0 0
230499.0 283036.0 0
233366.0 284360.0 0
234778.0 281099.0 0
238921.0 281906.0 0
236185.0 284362.0 0
242585.0 281467.0 0
241666.0 284007.0 0
248470.0 282054.0 0
245368.0 284048.0 0
249782.0 285120.0 0
252202.0 281310.0 0
253315.0 284788.0 0
258903.0 281274.0 0
255669.0 280920.0 0
257376.0 284603.0 0
262180.0 284138.0 0
266330.0 281077.0 0
265414.0 285296.0 0
267930.0 285135.0 0
270894.0 281866.0 0
274671.0 282353.0 0
270671.0 285433.0 0
273120.0 284725.0 0
279315.0 281536.0 0
284159.0 281929.0 0
283418.0 285423.0 0
288164.0 283822.0 0
292973.0 285027.0 0
297324.0 283879.0 0
304194.0 282575.0 0
202398.0 287522.0 0
202289.0 290797.0 0
209171.0 287320.0 0
205671.0 287880.0 0
208097.0 289759.0 0
205529.0 290696.0 0
212860.0 286634.0 0
211186.0 289802.0 0
216658.0 286101.0 0
219045.0 289033.0 0
215322.0 289845.0 0
219650.0 286407.0 0
223166.0 288118.0 0
227104.0 288784.0 0
230551.0 286862.0 0
234473.0 287765.0 0
230524.0 290194.0 0
238865.0 285901.0 0
237993.0 289493.0 0
242773.0 287275.0 0
244822.0 290420.0 0
247627.0 287871.0 0
251666.0 288241.0 0
250467.0 290669.0 0
255404.0 288573.0 0
260009.0 288295.0 0
263982.0 287442.0 0
266666.0 287904.0 0
269906.0 288740.0 0
273301.0 287723.0 0
276597.0 285748.0 0
280036.0 286267.0 0
277309.0 290127.0 0
281905.0 290152.0 0
290019.0 287560.0 0
286453.0 288363.0 0
294662.0 288819.0 0
291663.0 289633.0 0
297942.0 287090.0 0
297980.0 290366.0 0
197681.0 294736.0 0
202322.0 294004.0 0
209109.0 291801.0 0
206070.0 293845.0 0
212353.0 292617.0 0
209675.0 295163.0 0
218507.0 292301.0 0
215512.0 293698.0 0
218440.0 295748.0 0
221293.0 291398.0 0
221513.0 294510.0 0
224603.0 292459.0 0
228225.0 292923.0 0
233424.0 291482.0 0
231856.0 295068.0 0
236703.0 292600.0 0
239782.0 294397.0 0
235479.0 295125.0 0
241131.0 290879.0 0
244047.0 294192.0 0
247688.0 291982.0 0
254085.0 292623.0 0
250604.0 294012.0 0
257623.0 291215.0 0
257667.0 294152.0 0
264069.0 291154.0 0
260447.0 292397.0 0
260761.0 295247.0 0
264098.0 295778.0 0
267645.0 290948.0 0
270309.0 292227.0 0
267362.0 293929.0 0
273231.0 291433.0 0
273928.0 294700.0 0
277519.0 294151.0 0
280828.0 294043.0 0
285554.0 293378.0 0
289642.0 292278.0 0
293891.0 292516.0 0
294334.0 295785.0 0
297531.0 293357.0 0
202673.0 297423.0 0
202489.0 300753.0 0
206259.0 297610.0 0
206174.0 300986.0 0
213740.0 296898.0 0
210184.0 299722.0 0
216752.0 300181.0 0
221044.0 298419.0 0
224700.0 296912.0 0
228417.0 297119.0 0
228904.0 300703.0 0
232039.0 299480.0 0
237474.0 296471.0 0
234818.0 297993.0 0
238031.0 300677.0 0
240590.0 297469.0 0
243308.0 297931.0 0
242101.0 300837.0 0
247985.0 296755.0 0
246069.0 300707.0 0
253161.0 297471.0 0
250641.0 300702.0 0
256166.0 296107.0 0
258973.0 297155.0 0
256571.0 300074.0 0
262149.0 299664.0 0
270336.0 296103.0 0
266699.0 297829.0 0
269306.0 300229.0 0
273504.0 299265.0 0
280142.0 297879.0 0
276583.0 298045.0 0
283387.0 296531.0 0
284580.0 299432.0 0
290742.0 296269.0 0
287354.0 297005.0 0
287607.0 300650.0 0
294401.0 298557.0 0
291022.0 299983.0 0
297657.0 296632.0 0
297573.0 299781.0 0
201780.0 303663.0 0
204827.0 303353.0 0
208598.0 303737.0 0
206452.0 305808.0 0
213031.0 303051.0 0
219272.0 304086.0 0
215543.0 306078.0 0
221981.0 301513.0 0
223570.0 304923.0 0
225480.0 301620.0 0
227375.0 305845.0 0
233887.0 302759.0 0
230186.0 303665.0 0
243224.0 303801.0 0
239928.0 304807.0 0
247281.0 303962.0 0
254038.0 302963.0 0
250726.0 305564.0 0
259851.0 303573.0 0
256417.0 305607.0 0
263523.0 304915.0 0
265701.0 301573.0 0
267969.0 305996.0 0
275447.0 302679.0 0
271717.0 303565.0 0
277792.0 301256.0 0
279925.0 304223.0 0
276732.0 305135.0 0
281540.0 301051.0 0
284232.0 302781.0 0
283567.0 305950.0 0
287697.0 304461.0 0
294202.0 301030.0 0
291156.0 303213.0 0
293852.0 303586.0 0
297411.0 302995.0 0
196515.0 308369.0 0
202925.0 306744.0 0
202227.0 309756.0 0
207695.0 307833.0 0
205462.0 309221.0 0
210688.0 306325.0 0
213320.0 308749.0 0
209554.0 310154.0 0
217726.0 308506.0 0
221352.0 308087.0 0
225123.0 308604.0 0
231928.0 306496.0 0
229961.0 309098.0 0
233487.0 309137.0 0
236131.0 306584.0 0
238680.0 309506.0 0
235775.0 310581.0 0
241289.0 307874.0 0
244883.0 307163.0 0
243114.0 310931.0 0
248380.0 309155.0 0
253618.0 307969.0 0
252170.0 310641.0 0
260017.0 307947.0 0
257038.0 309822.0 0
262810.0 307942.0 0
266075.0 309816.0 0
273669.0 306599.0 0
270908.0 308625.0 0
273131.0 310170.0 0
280190.0 307908.0 0
276669.0 308754.0 0
283947.0 309586.0 0
281079.0 311028.0 0
290730.0 306708.0 0
286711.0 307950.0 0
289651.0 310372.0 0
293905.0 306729.0 0
294516.0 310152.0 0
297417.0 306323.0 0
298335.0 308892.0 0
303051.0 307700.0 0
195692.0 313287.0 0
202867.0 312697.0 0
206594.0 312094.0 0
206222.0 315545.0 0
212397.0 313402.0 0
209451.0 315004.0 0
216527.0 311246.0 0
216484.0 314870.0 0
220198.0 311849.0 0
223922.0 312770.0 0
219700.0 315237.0 0
227534.0 311912.0 0
226996.0 315978.0 0
232661.0 311810.0 0
230485.0 314699.0 0
236009.0 313611.0 0
238083.0 315920.0 0
239881.0 312608.0 0
243355.0 315698.0 0
239943.0 315812.0 0
245999.0 312105.0 0
247178.0 315318.0 0
249796.0 315896.0 0
254404.0 312263.0 0
250041.0 313091.0 0
252609.0 314799.0 0
259000.0 312834.0 0
255993.0 315525.0 0
262256.0 311589.0 0
263472.0 314719.0 0
269642.0 311545.0 0
266357.0 312989.0 0
270346.0 314875.0 0
267100.0 315950.0 0
273525.0 313274.0 0
277434.0 312758.0 0
280196.0 315339.0 0
282451.0 313404.0 0
284430.0 316051.0 0
285953.0 312593.0 0
289307.0 315428.0 0
293330.0 313885.0 0
297913.0 311255.0 0
297777.0 313830.0 0
202888.0 316403.0 0
201937.0 319708.0 0
208403.0 318267.0 0
205305.0 319450.0 0
213635.0 317342.0 0
211278.0 318565.0 0
211761.0 321110.0 0
217524.0 318215.0 0
215162.0 320688.0 0
223372.0 317270.0 0
220113.0 319735.0 0
228782.0 318504.0 0
233969.0 316756.0 0
231788.0 319729.0 0
237350.0 318970.0 0
235174.0 321155.0 0
240641.0 318150.0 0
244706.0 319440.0 0
241952.0 320496.0 0
247807.0 318266.0 0
251455.0 317930.0 0
255093.0 319648.0 0
258607.0 321133.0 0
260240.0 316740.0 0
263859.0 318223.0 0
262115.0 320959.0 0
267593.0 319793.0 0
273913.0 316770.0 0
271481.0 318783.0 0
274255.0 320406.0 0
276750.0 317161.0 0
278271.0 320897.0 0
281855.0 318277.0 0
284309.0 321020.0 0
286484.0 317540.0 0
290689.0 319042.0 0
287826.0 320564.0 0
293653.0 318205.0 0
294673.0 321202.0 0
297079.0 317038.0 0
297695.0 320230.0 0
202002.0 322220.0 0
202162.0 324789.0 0
208912.0 321458.0 0
205490.0 322363.0 0
205673.0 325619.0 0
209160.0 324514.0 0
211720.0 323622.0 0
218553.0 322104.0 0
214706.0 323937.0 0
217664.0 324671.0 0
221685.0 323057.0 0
225537.0 321568.0 0
229352.0 322476.0 0
228058.0 326338.0 0
232597.0 323205.0 0
239320.0 322150.0 0
236537.0 324108.0 0
242654.0 323558.0 0
240012.0 326200.0 0
243205.0 326420.0 0
249447.0 321468.0 0
246150.0 323075.0 0
252853.0 323392.0 0
250788.0 326287.0 0
255534.0 325533.0 0
258697.0 324678.0 0
264567.0 322395.0 0
261849.0 324255.0 0
269011.0 323270.0 0
265868.0 325354.0 0
271552.0 321795.0 0
273394.0 323309.0 0
271292.0 326006.0 0
276472.0 324584.0 0
278622.0 326505.0 0
281560.0 323249.0 0
285548.0 323700.0 0
281948.0 326219.0 0
285241.0 326206.0 0
288384.0 323212.0 0
288577.0 326431.0 0
291745.0 321877.0 0
294946.0 323674.0 0
291645.0 324942.0 0
298154.0 322607.0 0
298004.0 324868.0 0
202055.0 327333.0 0
202751.0 330173.0 0
206449.0 329096.0 0
210192.0 327724.0 0
213571.0 326891.0 0
211282.0 330941.0 0
217075.0 327920.0 0
214489.0 330610.0 0
217896.0 331449.0 0
220890.0 326804.0 0
221187.0 331033.0 0
224638.0 326700.0 0
224970.0 330752.0 0
227918.0 330728.0 0
231621.0 327004.0 0
231534.0 331307.0 0
235165.0 327124.0 0
237256.0 329211.0 0
239769.0 331156.0 0
241855.0 329307.0 0
244690.0 330484.0 0
247014.0 327129.0 0
249578.0 330690.0 0
252352.0 328932.0 0
259855.0 327809.0 0
255513.0 328663.0 0
258272.0 331267.0 0
263168.0 326640.0 0
263258.0 329719.0 0
268020.0 328071.0 0
266596.0 331221.0 0
274401.0 327598.0 0
270960.0 329261.0 0
272549.0 331185.0 0
278080.0 329090.0 0
275916.0 330656.0 0
281198.0 329386.0 0
285480.0 329311.0 0
283836.0 331174.0 0
288617.0 329459.0 0
293532.0 328137.0 0
291422.0 330088.0 0
296824.0 327756.0 0
297975.0 330642.0 0
196497.0 333233.0 0
202494.0 333181.0 0
201800.0 335752.0 0
207686.0 332362.0 0
205485.0 334393.0 0
210854.0 334719.0 0
214912.0 334035.0 0
217973.0 334808.0 0
221528.0 334782.0 0
225191.0 334270.0 0
227807.0 333996.0 0
227204.0 336719.0 0
230660.0 334693.0 0
233468.0 336270.0 0
234798.0 331967.0 0
237649.0 333358.0 0
235956.0 335764.0 0
240730.0 334405.0 0
243657.0 333944.0 0
247340.0 332779.0 0
248455.0 335814.0 0
253498.0 331753.0 0
251345.0 333693.0 0
253489.0 336596.0 0
255717.0 333346.0 0
259060.0 334927.0 0
256963.0 336399.0 0
261500.0 332037.0 0
262014.0 335676.0 0
265120.0 334520.0 0
269715.0 332751.0 0
270528.0 336222.0 0
273579.0 334937.0 0
279609.0 331659.0 0
277105.0 334261.0 0
282020.0 333452.0 0
280789.0 336328.0 0
285710.0 334305.0 0
288078.0 332268.0 0
289409.0 335982.0 0
291801.0 333220.0 0
294770.0 331991.0 0
294166.0 335497.0 0
297735.0 333210.0 0
297138.0 336151.0 0
303399.0 333603.0 0
202496.0 338313.0 0
201977.0 341171.0 0
209154.0 337489.0 0
205790.0 337432.0 0
205446.0 341125.0 0
208955.0 341084.0 0
214263.0 337361.0 0
212334.0 339747.0 0
217401.0 338315.0 0
217461.0 341755.0 0
220375.0 337743.0 0
222630.0 339741.0 0
224698.0 337546.0 0
229544.0 337490.0 0
226374.0 339984.0 0
228333.0 339824.0 0
232597.0 339448.0 0
229930.0 341776.0 0
238990.0 338271.0 0
236033.0 340479.0 0
242591.0 338715.0 0
245240.0 337176.0 0
246768.0 340800.0 0
250459.0 339348.0 0
254930.0 339676.0 0
258137.0 339599.0 0
261538.0 339574.0 0
267311.0 337297.0 0
265588.0 340212.0 0
268703.0 341580.0 0
274175.0 338748.0 0
271178.0 340227.0 0
274632.0 341806.0 0
276413.0 338100.0 0
279308.0 340002.0 0
284170.0 337927.0 0
282340.0 341448.0 0
290630.0 339856.0 0
287346.0 339099.0 0
290621.0 341314.0 0
292385.0 337781.0 0
294321.0 340410.0 0
297807.0 339040.0 0
297992.0 341739.0 0
197463.0 346251.0 0
202011.0 343530.0 0
201314.0 345489.0 0
205497.0 343753.0 0
204517.0 346205.0 0
207775.0 346689.0 0
214167.0 342015.0 0
209497.0 344172.0 0
212600.0 344626.0 0
217277.0 344972.0 0
215267.0 346789.0 0
220773.0 342081.0 0
219696.0 346408.0 0
222515.0 345093.0 0
225358.0 342730.0 0
228036.0 344248.0 0
232478.0 343249.0 0
231048.0 346349.0 0
235913.0 344106.0 0
239263.0 344573.0 0
240440.0 342088.0 0
243487.0 342110.0 0
244128.0 345126.0 0
241265.0 346931.0 0
247834.0 344262.0 0
252600.0 343522.0 0
256989.0 342724.0 0
258862.0 344445.0 0
261728.0 343849.0 0
265242.0 343980.0 0
268477.0 343567.0 0
269668.0 346063.0 0
266159.0 346938.0 0
272080.0 343963.0 0
274266.0 345965.0 0
277275.0 342391.0 0
277723.0 345717.0 0
284557.0 342672.0 0
280878.0 344424.0 0
282920.0 345872.0 0
287581.0 342125.0 0
290318.0 343405.0 0
285872.0 345450.0 0
288862.0 345277.0 0
293560.0 343532.0 0
297897.0 344012.0 0
297163.0 346773.0 0
201901.0 347580.0 0
202058.0 350004.0 0
205828.0 349723.0 0
212389.0 348047.0 0
209975.0 348050.0 0
212811.0 351185.0 0
209238.0 351461.0 0
219085.0 348846.0 0
216241.0 349766.0 0
224305.0 347601.0 0
221611.0 349536.0 0
224137.0 350794.0 0
219993.0 351733.0 0
226922.0 347360.0 0
226603.0 350830.0 0
229481.0 349752.0 0
233413.0 351109.0 0
234861.0 347848.0 0
237881.0 348801.0 0
237722.0 351549.0 0
244671.0 350159.0 0
241399.0 350685.0 0
245515.0 347876.0 0
247985.0 347900.0 0
249184.0 351078.0 0
246405.0 351585.0 0
250382.0 347083.0 0
254841.0 347152.0 0
251555.0 349260.0 0
254113.0 350664.0 0
258320.0 347788.0 0
258924.0 350868.0 0
262003.0 347439.0 0
263346.0 349917.0 0
266660.0 350010.0 0
270590.0 348694.0 0
273386.0 348495.0 0
270557.0 351251.0 0
275444.0 351290.0 0
278500.0 349135.0 0
280299.0 352016.0 0
281594.0 348149.0 0
283937.0 349316.0 0
286626.0 348617.0 0
290066.0 348330.0 0
290277.0 351678.0 0
293231.0 347083.0 0
294221.0 350043.0 0
297723.0 349694.0 0
202297.0 352530.0 0
203338.0 355613.0 0
205748.0 353101.0 0
209124.0 354722.0 0
213810.0 353683.0 0
211816.0 355931.0 0
217118.0 352650.0 0
217728.0 355318.0 0
221394.0 353109.0 0
224392.0 353843.0 0
220330.0 355678.0 0
223109.0 356799.0 0
229417.0 353299.0 0
227052.0 354348.0 0
227646.0 357093.0 0
232029.0 355098.0 0
235868.0 352672.0 0
239226.0 353900.0 0
234719.0 354856.0 0
237090.0 355248.0 0
242953.0 353891.0 0
241441.0 356722.0 0
249235.0 355587.0 0
245913.0 354621.0 0
251921.0 352855.0 0
252724.0 355386.0 0
256066.0 352675.0 0
255954.0 356146.0 0
259843.0 355832.0 0
261750.0 352873.0 0
264731.0 355043.0 0
267560.0 353218.0 0
269837.0 355927.0 0
272715.0 353015.0 0
273832.0 355240.0 0
277188.0 354452.0 0
279618.0 355338.0 0
275693.0 356753.0 0
283351.0 352151.0 0
283345.0 355901.0 0
286988.0 352096.0 0
287009.0 355781.0 0
290187.0 354928.0 0
293502.0 352340.0 0
293501.0 355250.0 0
297291.0 352494.0 0
297430.0 355282.0 0
201732.0 358458.0 0
201888.0 360466.0 0
206497.0 358013.0 0
206235.0 361474.0 0
210277.0 358683.0 0
211792.0 360808.0 0
214197.0 362112.0 0
214654.0 357389.0 0
217424.0 359985.0 0
220453.0 359526.0 0
225408.0 359338.0 0
228336.0 361346.0 0
229918.0 357489.0 0
233607.0 358263.0 0
230826.0 360341.0 0
235821.0 357192.0 0
239044.0 357477.0 0
237712.0 359383.0 0
235456.0 361310.0 0
244722.0 358258.0 0
242334.0 360352.0 0
239860.0 361170.0 0
247589.0 359276.0 0
251445.0 358000.0 0
254486.0 359476.0 0
250272.0 360853.0 0
252761.0 361818.0 0
258113.0 359388.0 0
257287.0 362134.0 0
261265.0 358830.0 0
264635.0 358552.0 0
260463.0 361934.0 0
264824.0 361950.0 0
267901.0 358465.0 0
269154.0 360970.0 0
272564.0 357901.0 0
272590.0 360991.0 0
277175.0 358757.0 0
279093.0 358011.0 0
276015.0 360853.0 0
280402.0 361695.0 0
282384.0 359367.0 0
285454.0 360918.0 0
290744.0 358111.0 0
288157.0 359314.0 0
293475.0 358436.0 0
292672.0 361675.0 0
297362.0 358129.0 0
296992.0 361262.0 0
202583.0 362815.0 0
202846.0 365747.0 0
206892.0 365672.0 0
209763.0 363235.0 0
212018.0 365879.0 0
218114.0 363712.0 0
214921.0 365203.0 0
218570.0 366659.0 0
223326.0 362373.0 0
221040.0 364684.0 0
226857.0 364354.0 0
224999.0 366634.0 0
228758.0 367151.0 0
232913.0 363856.0 0
230055.0 364867.0 0
238528.0 363813.0 0
236459.0 366834.0 0
243987.0 363553.0 0
241609.0 365848.0 0
247183.0 363369.0 0
249690.0 365180.0 0
253104.0 365196.0 0
256760.0 365747.0 0
262599.0 364257.0 0
264853.0 366416.0 0
267447.0 362806.0 0
269896.0 364443.0 0
267407.0 365735.0 0
272909.0 364430.0 0
278053.0 363121.0 0
276000.0 366039.0 0
282462.0 364042.0 0
285517.0 363885.0 0
280917.0 366279.0 0
290019.0 362392.0 0
286926.0 366884.0 0
290442.0 365817.0 0
293648.0 366853.0 0
296419.0 364597.0 0
302895.0 366454.0 0
202156.0 370835.0 0
202091.0 368453.0 0
205384.0 370759.0 0
205453.0 368552.0 0
208432.0 371977.0 0
208233.0 369783.0 0
210268.0 368172.0 0
212240.0 371026.0 0
214292.0 369447.0 0
216409.0 368104.0 0
218714.0 370505.0 0
221890.0 368154.0 0
221624.0 371995.0 0
224716.0 370520.0 0
226940.0 369216.0 0
229098.0 370751.0 0
233336.0 368434.0 0
230764.0 368632.0 0
234018.0 372161.0 0
239465.0 369453.0 0
244228.0 368200.0 0
242851.0 370836.0 0
246440.0 367669.0 0
248960.0 369114.0 0
245626.0 370996.0 0
252065.0 369002.0 0
253256.0 371884.0 0
260068.0 367381.0 0
255532.0 369579.0 0
257518.0 371139.0 0
264669.0 368917.0 0
261891.0 370239.0 0
268836.0 367925.0 0
266122.0 369174.0 0
268709.0 370659.0 0
271391.0 367399.0 0
273295.0 369349.0 0
271522.0 371531.0 0
275323.0 371062.0 0
278328.0 368754.0 0
279448.0 372070.0 0
283338.0 367713.0 0
282418.0 370166.0 0
284605.0 371337.0 0
290808.0 369401.0 0
287434.0 370187.0 0
294654.0 370173.0 0
292035.0 372030.0 0
298196.0 370494.0 0
298122.0 368203.0 0
202634.0 373221.0 0
200833.0 377343.0 0
203363.0 375528.0 0
206161.0 372922.0 0
207030.0 374673.0 0
210272.0 373014.0 0
210044.0 375791.0 0
213011.0 375900.0 0
214288.0 373326.0 0
217067.0 373265.0 0
217505.0 377060.0 0
219812.0 375106.0 0
222595.0 374739.0 0
225518.0 373501.0 0
227963.0 373867.0 0
231338.0 373288.0 0
231529.0 376985.0 0
237468.0 372767.0 0
236626.0 376730.0 0
243248.0 374024.0 0
240563.0 374956.0 0
248211.0 372578.0 0
246041.0 375539.0 0
249287.0 377461.0 0
250975.0 374220.0 0
253309.0 376976.0 0
255414.0 373915.0 0
257576.0 374796.0 0
259398.0 372914.0 0
263497.0 373712.0 0
261746.0 376193.0 0
266537.0 372700.0 0
268739.0 375986.0 0
272377.0 375313.0 0
276372.0 373689.0 0
277056.0 376560.0 0
279357.0 376137.0 0
281280.0 374372.0 0
284169.0 373811.0 0
282378.0 376961.0 0
288962.0 373091.0 0
286577.0 375498.0 0
293922.0 374407.0 0
290896.0 376772.0 0
297350.0 372956.0 0
298656.0 377442.0 0
198509.0 378595.0 0
194218.0 381842.0 0
196701.0 380589.0 0
202597.0 379816.0 0
199820.0 382284.0 0
204516.0 381654.0 0
205542.0 377779.0 0
208528.0 378958.0 0
208471.0 382234.0 0
211759.0 379630.0 0
213799.0 381959.0 0
214660.0 378415.0 0
218220.0 380445.0 0
220394.0 378191.0 0
220659.0 380735.0 0
222974.0 377987.0 0
223474.0 381303.0 0
225910.0 377625.0 0
228427.0 377976.0 0
226163.0 381799.0 0
229062.0 381663.0 0
234310.0 378634.0 0
231754.0 382019.0 0
238308.0 381029.0 0
240190.0 378614.0 0
243307.0 378688.0 0
243104.0 381984.0 0
245957.0 379109.0 0
245278.0 382583.0 0
248030.0 381161.0 0
251367.0 379232.0 0
250888.0 381700.0 0
258906.0 377757.0 0
255707.0 379484.0 0
258138.0 382027.0 0
264190.0 378540.0 0
261797.0 381332.0 0
265097.0 381757.0 0
266465.0 377807.0 0
267334.0 381119.0 0
269385.0 380125.0 0
270895.0 379752.0 0
273930.0 378919.0 0
272499.0 382158.0 0
278621.0 379417.0 0
276552.0 381581.0 0
280845.0 379066.0 0
285266.0 378443.0 0
283195.0 381210.0 0
289003.0 379422.0 0
286137.0 381724.0 0
288200.0 382172.0 0
293307.0 381010.0 0
294167.0 378312.0 0
297412.0 378137.0 0
300107.0 380973.0 0
297206.0 382237.0 0
301951.0 378265.0 0
303443.0 379449.0 0
305069.0 381342.0 0
301864.0 382564.0 0
184589.0 387432.0 0
186623.0 386264.0 0
191985.0 383961.0 0
189156.0 384975.0 0
197281.0 384150.0 0
195366.0 385795.0 0
196911.0 387565.0 0
200916.0 384714.0 0
200542.0 387625.0 0
205393.0 384353.0 0
205114.0 387394.0 0
208925.0 386789.0 0
211478.0 384444.0 0
213827.0 386954.0 0
216575.0 383225.0 0
216560.0 386108.0 0
218648.0 387392.0 0
219446.0 383624.0 0
222352.0 385307.0 0
228473.0 385206.0 0
225780.0 386401.0 0
231057.0 385612.0 0
233829.0 386565.0 0
235207.0 382869.0 0
238230.0 384943.0 0
241069.0 383773.0 0
242691.0 387076.0 0
245276.0 385213.0 0
247791.0 385068.0 0
253645.0 382757.0 0
250684.0 385796.0 0
253246.0 387004.0 0
258029.0 384400.0 0
259757.0 386136.0 0
255537.0 385569.0 0
261934.0 384415.0 0
264114.0 386930.0 0
265525.0 384536.0 0
268180.0 384283.0 0
268656.0 386954.0 0
270778.0 383130.0 0
271583.0 385846.0 0
274867.0 383997.0 0
274002.0 386563.0 0
277940.0 385699.0 0
278777.0 383712.0 0
276618.0 387593.0 0
279887.0 387369.0 0
281260.0 383463.0 0
284807.0 383508.0 0
282005.0 386672.0 0
284391.0 386345.0 0
286889.0 385276.0 0
289741.0 385181.0 0
291480.0 382898.0 0
293574.0 385009.0 0
296557.0 384307.0 0
297595.0 387299.0 0
300288.0 387124.0 0
301543.0 384853.0 0
304755.0 385528.0 0
307180.0 382805.0 0
309503.0 384599.0 0
309243.0 387694.0 0
312600.0 384971.0 0
314133.0 387089.0 0
177998.0 390663.0 0
176480.0 391939.0 0
182393.0 388422.0 0
180709.0 390215.0 0
180513.0 392783.0 0
188628.0 389207.0 0
185816.0 390797.0 0
191639.0 388042.0 0
189436.0 391829.0 0
192924.0 390155.0 0
196196.0 390129.0 0
194805.0 392154.0 0
197884.0 392051.0 0
200644.0 390564.0 0
205220.0 390550.0 0
207624.0 392367.0 0
209681.0 389617.0 0
212528.0 390112.0 0
215671.0 390153.0 0
219454.0 390197.0 0
222244.0 389169.0 0
224084.0 391106.0 0
221420.0 392509.0 0
227089.0 390324.0 0
229959.0 389158.0 0
232903.0 390301.0 0
235490.0 391163.0 0
236603.0 387959.0 0
239523.0 389101.0 0
237889.0 392013.0 0
244756.0 389600.0 0
242153.0 392033.0 0
247313.0 388492.0 0
246180.0 392405.0 0
253720.0 390686.0 0
250724.0 390014.0 0
256326.0 388250.0 0
257781.0 390204.0 0
259276.0 387756.0 0
260055.0 391265.0 0
262157.0 388976.0 0
263836.0 392591.0 0
266344.0 388248.0 0
269223.0 390168.0 0
266639.0 391675.0 0
270804.0 388482.0 0
273109.0 389747.0 0
275651.0 391355.0 0
278004.0 390045.0 0
280336.0 391968.0 0
283060.0 390188.0 0
285526.0 389510.0 0
287830.0 388691.0 0
290547.0 388140.0 0
288970.0 391434.0 0
292830.0 387875.0 0
291251.0 391919.0 0
295457.0 389117.0 0
293404.0 391438.0 0
298141.0 391623.0 0
300586.0 391443.0 0
302601.0 388920.0 0
305669.0 388305.0 0
303595.0 392596.0 0
307111.0 391640.0 0
311489.0 389556.0 0
313264.0 391733.0 0
315927.0 392371.0 0
316344.0 388347.0 0
318540.0 389563.0 0
320784.0 390633.0 0
318772.0 392689.0 0
322783.0 392041.0 0
325470.0 392599.0 0
170797.0 395320.0 0
172872.0 394595.0 0
169127.0 396464.0 0
172449.0 397599.0 0
175103.0 393759.0 0
176758.0 396084.0 0
179334.0 395085.0 0
181113.0 396915.0 0
184574.0 393132.0 0
187421.0 395233.0 0
183841.0 395793.0 0
190134.0 394119.0 0
192927.0 393914.0 0
189821.0 397334.0 0
194383.0 396690.0 0
197267.0 394654.0 0
202195.0 393001.0 0
199797.0 395916.0 0
202995.0 396292.0 0
204647.0 394252.0 0
206618.0 395224.0 0
209919.0 394088.0 0
209975.0 396442.0 0
212081.0 397080.0 0
212298.0 393165.0 0
214381.0 395069.0 0
217398.0 393238.0 0
219244.0 395774.0 0
223126.0 394977.0 0
225211.0 397481.0 0
227223.0 394212.0 0
228861.0 396992.0 0
229824.0 393169.0 0
232243.0 393683.0 0
231908.0 397636.0 0
234804.0 394444.0 0
236868.0 395011.0 0
240378.0 394422.0 0
244256.0 394007.0 0
244881.0 396253.0 0
241944.0 396923.0 0
248930.0 393444.0 0
247807.0 396938.0 0
252110.0 394784.0 0
254827.0 395869.0 0
250860.0 397709.0 0
255941.0 392884.0 0
258952.0 393891.0 0
258315.0 397801.0 0
262108.0 395954.0 0
264682.0 397829.0 0
266389.0 395840.0 0
268984.0 393900.0 0
268601.0 396646.0 0
271904.0 392888.0 0
271266.0 396988.0 0
275049.0 394527.0 0
277659.0 394670.0 0
281539.0 395213.0 0
284947.0 393120.0 0
284529.0 396335.0 0
287342.0 393402.0 0
286376.0 397929.0 0
289110.0 396016.0 0
295461.0 393649.0 0
291257.0 394272.0 0
293610.0 397676.0 0
293175.0 395005.0 0
297449.0 395892.0 0
300169.0 396127.0 0
305491.0 395968.0 0
302568.0 395136.0 0
308735.0 394182.0 0
308783.0 397435.0 0
312284.0 394833.0 0
313672.0 396954.0 0
320237.0 394472.0 0
316570.0 395027.0 0
318515.0 396905.0 0
323443.0 394763.0 0
324015.0 397584.0 0
326805.0 393803.0 0
328314.0 395000.0 0
327049.0 397004.0 0
329826.0 396866.0 0
332112.0 397750.0 0
162390.0 400688.0 0
160546.0 402989.0 0
165597.0 400148.0 0
167611.0 398150.0 0
165940.0 402899.0 0
170957.0 399815.0 0
168965.0 401923.0 0
172860.0 402861.0 0
174888.0 398066.0 0
175395.0 400666.0 0
178004.0 398467.0 0
179249.0 401163.0 0
182279.0 399991.0 0
183658.0 402759.0 0
184800.0 398682.0 0
187341.0 398187.0 0
186206.0 401070.0 0
185744.0 402462.0 0
188159.0 400342.0 0
192121.0 398929.0 0
191353.0 401430.0 0
188879.0 402528.0 0
196464.0 398545.0 0
194963.0 400772.0 0
196434.0 402824.0 0
199229.0 399695.0 0
201966.0 401167.0 0
205121.0 398429.0 0
208297.0 398217.0 0
206193.0 401634.0 0
207940.0 402363.0 0
213880.0 398846.0 0
210031.0 400318.0 0
212647.0 402025.0 0
215839.0 402508.0 0
216192.0 397961.0 0
217910.0 399946.0 0
218431.0 402777.0 0
220605.0 398646.0 0
222233.0 401464.0 0
225394.0 400581.0 0
228593.0 400153.0 0
230418.0 402837.0 0
234773.0 399230.0 0
238037.0 398148.0 0
239876.0 402101.0 0
242389.0 399762.0 0
244282.0 401116.0 0
244732.0 398710.0 0
247427.0 400391.0 0
252870.0 399915.0 0
250293.0 402401.0 0
256345.0 401693.0 0
259756.0 402380.0 0
261270.0 399858.0 0
262985.0 401519.0 0
268493.0 399341.0 0
265903.0 400855.0 0
270124.0 400739.0 0
273286.0 402291.0 0
274019.0 398611.0 0
277528.0 398689.0 0
277603.0 402038.0 0
279721.0 402378.0 0
280624.0 398392.0 0
282915.0 400421.0 0
286622.0 401273.0 0
290448.0 401883.0 0
291241.0 398443.0 0
293782.0 402690.0 0
296329.0 398531.0 0
298921.0 398958.0 0
296517.0 401523.0 0
300770.0 398898.0 0
299557.0 400769.0 0
300800.0 401651.0 0
304426.0 397960.0 0
302929.0 399765.0 0
304388.0 402437.0 0
306384.0 398847.0 0
309380.0 400184.0 0
306808.0 401546.0 0
311213.0 402682.0 0
311516.0 398411.0 0
315563.0 399077.0 0
312713.0 400391.0 0
316249.0 401553.0 0
320577.0 398779.0 0
320374.0 401243.0 0
325853.0 400601.0 0
323685.0 402525.0 0
328779.0 399845.0 0
331174.0 401441.0 0
334086.0 399916.0 0
334047.0 403027.0 0
336921.0 401028.0 0
152115.0 407601.0 0
155888.0 404958.0 0
154260.0 406845.0 0
158548.0 404199.0 0
163223.0 404317.0 0
158239.0 407467.0 0
163033.0 407059.0 0
167570.0 405214.0 0
165868.0 407757.0 0
170449.0 405169.0 0
170239.0 407801.0 0
176723.0 403666.0 0
173740.0 406032.0 0
177126.0 406083.0 0
180307.0 403910.0 0
183076.0 404900.0 0
179227.0 406096.0 0
181272.0 406505.0 0
187298.0 404208.0 0
185839.0 406642.0 0
193231.0 403922.0 0
190535.0 405634.0 0
188776.0 407823.0 0
192271.0 407692.0 0
197884.0 404797.0 0
194406.0 406318.0 0
196194.0 407565.0 0
200835.0 404404.0 0
201819.0 406862.0 0
204397.0 403455.0 0
205212.0 405725.0 0
207942.0 404744.0 0
210667.0 405659.0 0
213711.0 406346.0 0
216165.0 405972.0 0
218877.0 407046.0 0
221043.0 404700.0 0
222570.0 407946.0 0
224147.0 405052.0 0
226239.0 406856.0 0
226309.0 403334.0 0
229277.0 406165.0 0
233724.0 403194.0 0
233758.0 406928.0 0
237136.0 403595.0 0
237056.0 407394.0 0
239975.0 407371.0 0
242269.0 404887.0 0
245791.0 404442.0 0
248396.0 407345.0 0
251463.0 405655.0 0
254858.0 405131.0 0
256526.0 407483.0 0
258790.0 405436.0 0
261690.0 404571.0 0
264911.0 405620.0 0
267726.0 404061.0 0
270565.0 404225.0 0
273308.0 406829.0 0
271145.0 407244.0 0
275824.0 405018.0 0
278790.0 405811.0 0
282224.0 403277.0 0
281555.0 406113.0 0
284609.0 407106.0 0
285713.0 404189.0 0
288019.0 406505.0 0
290231.0 405339.0 0
292526.0 407547.0 0
294313.0 405870.0 0
298674.0 404097.0 0
297011.0 406407.0 0
299613.0 407052.0 0
301963.0 404656.0 0
303262.0 408049.0 0
308577.0 404845.0 0
306200.0 406451.0 0
310166.0 408087.0 0
313711.0 403751.0 0
312526.0 406601.0 0
315569.0 406200.0 0
318172.0 403323.0 0
318190.0 406960.0 0
321441.0 404012.0 0
325499.0 404867.0 0
321436.0 407245.0 0
324277.0 406578.0 0
326083.0 406838.0 0
327592.0 403765.0 0
330341.0 403454.0 0
329056.0 406578.0 0
334103.0 405048.0 0
331954.0 406527.0 0
337057.0 405546.0 0
339069.0 403374.0 0
340718.0 407549.0 0
341860.0 404091.0 0
344266.0 405350.0 0
346254.0 407685.0 0
145320.0 411173.0 0
149947.0 408827.0 0
148263.0 410748.0 0
152124.0 410572.0 0
155707.0 409491.0 0
154371.0 412538.0 0
160516.0 408712.0 0
158215.0 411217.0 0
161799.0 411263.0 0
164620.0 410503.0 0
167683.0 409609.0 0
164299.0 412524.0 0
172076.0 408936.0 0
168526.0 412259.0 0
171320.0 411435.0 0
175278.0 408660.0 0
178346.0 409953.0 0
174152.0 412134.0 0
177219.0 412716.0 0
181027.0 409574.0 0
181330.0 412544.0 0
184468.0 409172.0 0
184827.0 412346.0 0
187473.0 412355.0 0
189174.0 410161.0 0
192327.0 410039.0 0
192195.0 413041.0 0
194924.0 409768.0 0
198903.0 408385.0 0
196025.0 411388.0 0
203183.0 409379.0 0
199059.0 411124.0 0
202948.0 412636.0 0
206404.0 408296.0 0
206932.0 412809.0 0
213229.0 409521.0 0
209684.0 409853.0 0
211939.0 413032.0 0
215661.0 409419.0 0
214392.0 412394.0 0
218143.0 410454.0 0
220933.0 410091.0 0
223367.0 412856.0 0
225269.0 409663.0 0
228206.0 410978.0 0
231161.0 409448.0 0
234164.0 410813.0 0
236915.0 411155.0 0
239510.0 412026.0 0
242421.0 409884.0 0
245189.0 408574.0 0
246913.0 410835.0 0
249952.0 411439.0 0
252601.0 409026.0 0
255014.0 410607.0 0
258034.0 412287.0 0
259187.0 408948.0 0
261933.0 408356.0 0
264003.0 411221.0 0
261625.0 413103.0 0
266121.0 408337.0 0
266953.0 412737.0 0
268690.0 408506.0 0
270265.0 410784.0 0
272802.0 410639.0 0
275723.0 409606.0 0
278675.0 409851.0 0
281489.0 410179.0 0
285146.0 411272.0 0
288272.0 409397.0 0
290271.0 413136.0 0
290803.0 409961.0 0
295261.0 410325.0 0
293195.0 411474.0 0
297601.0 409529.0 0
300652.0 409953.0 0
305477.0 411022.0 0
308005.0 410507.0 0
310376.0 413254.0 0
314927.0 408954.0 0
312547.0 410851.0 0
316203.0 412535.0 0
318063.0 409720.0 0
321933.0 410436.0 0
325460.0 411226.0 0
327544.0 409244.0 0
330284.0 410637.0 0
331026.0 413196.0 0
331831.0 409279.0 0
333878.0 410307.0 0
334843.0 408246.0 0
333301.0 411959.0 0
336733.0 411315.0 0
337994.0 408808.0 0
339974.0 411605.0 0
342886.0 408625.0 0
342684.0 411928.0 0
345277.0 412210.0 0
348488.0 409272.0 0
351656.0 409932.0 0
348806.0 412778.0 0
353961.0 412241.0 0
136775.0 417602.0 0
139187.0 416059.0 0
141092.0 414304.0 0
143586.0 413305.0 0
145819.0 415529.0 0
143328.0 417671.0 0
147773.0 418144.0 0
148813.0 413499.0 0
152082.0 414731.0 0
150819.0 417631.0 0
157668.0 414101.0 0
154416.0 416975.0 0
161197.0 413784.0 0
162283.0 415504.0 0
158321.0 416769.0 0
160846.0 418297.0 0
165940.0 413969.0 0
165202.0 416265.0 0
170063.0 415232.0 0
172897.0 414863.0 0
168653.0 417203.0 0
177782.0 415257.0 0
174767.0 417016.0 0
180890.0 414806.0 0
181777.0 418040.0 0
183791.0 414420.0 0
184506.0 416715.0 0
186646.0 416574.0 0
189184.0 414725.0 0
190339.0 417250.0 0
192938.0 418193.0 0
194752.0 414663.0 0
197982.0 414106.0 0
196534.0 417322.0 0
198337.0 417703.0 0
201492.0 416238.0 0
204955.0 417319.0 0
208080.0 416137.0 0
211765.0 416263.0 0
216929.0 413634.0 0
215065.0 416467.0 0
218149.0 417218.0 0
220099.0 414267.0 0
220906.0 417153.0 0
223385.0 416848.0 0
226021.0 416275.0 0
227568.0 413943.0 0
231465.0 413603.0 0
234625.0 414430.0 0
230101.0 416753.0 0
237089.0 415733.0 0
239608.0 415713.0 0
244749.0 413553.0 0
241758.0 413929.0 0
243040.0 417655.0 0
248054.0 415157.0 0
252914.0 413749.0 0
250896.0 416933.0 0
253598.0 418113.0 0
255889.0 415593.0 0
260126.0 415719.0 0
262352.0 417309.0 0
263667.0 415572.0 0
269921.0 413308.0 0
266707.0 416601.0 0
270042.0 417229.0 0
272870.0 414961.0 0
278918.0 413362.0 0
276276.0 413916.0 0
277604.0 416903.0 0
280036.0 417219.0 0
281727.0 414423.0 0
282808.0 418261.0 0
284275.0 416496.0 0
287457.0 414427.0 0
288971.0 417768.0 0
293021.0 414371.0 0
291822.0 416796.0 0
295827.0 414698.0 0
293757.0 418334.0 0
298286.0 413674.0 0
300962.0 413559.0 0
296637.0 418263.0 0
299220.0 417374.0 0
303951.0 413398.0 0
301771.0 417215.0 0
305656.0 416490.0 0
308833.0 415557.0 0
313229.0 414687.0 0
313463.0 416970.0 0
320137.0 413319.0 0
316542.0 416519.0 0
321287.0 416295.0 0
325654.0 414256.0 0
324539.0 417132.0 0
328799.0 414580.0 0
329105.0 417687.0 0
335942.0 413437.0 0
332182.0 417789.0 0
334355.0 415799.0 0
338677.0 413878.0 0
337404.0 418024.0 0
340014.0 416868.0 0
342268.0 415174.0 0
345013.0 416378.0 0
347036.0 414871.0 0
351401.0 414016.0 0
348702.0 417137.0 0
351401.0 416427.0 0
356498.0 414121.0 0
354669.0 416563.0 0
359109.0 415592.0 0
361869.0 416511.0 0
126436.0 423382.0 0
132115.0 421140.0 0
129287.0 422530.0 0
134717.0 419355.0 0
136972.0 422232.0 0
140848.0 419117.0 0
139506.0 421634.0 0
144075.0 421161.0 0
146645.0 420911.0 0
151710.0 420145.0 0
149366.0 421868.0 0
155904.0 418811.0 0
153867.0 421911.0 0
157830.0 420795.0 0
156664.0 423025.0 0
160006.0 421074.0 0
164149.0 419034.0 0
167770.0 419525.0 0
164064.0 421738.0 0
167100.0 421489.0 0
171319.0 418585.0 0
170106.0 421090.0 0
174452.0 420351.0 0
177023.0 422294.0 0
178580.0 418917.0 0
182878.0 420951.0 0
179056.0 421310.0 0
187979.0 419674.0 0
185523.0 420421.0 0
190702.0 421209.0 0
193583.0 423354.0 0
195136.0 420466.0 0
197954.0 420834.0 0
201417.0 420844.0 0
208211.0 419891.0 0
205121.0 420942.0 0
212004.0 419884.0 0
209588.0 422222.0 0
212233.0 423067.0 0
215029.0 419992.0 0
218105.0 420010.0 0
214904.0 423067.0 0
218463.0 423041.0 0
224068.0 419731.0 0
220879.0 419669.0 0
227721.0 419483.0 0
227039.0 423126.0 0
231188.0 421484.0 0
233330.0 418555.0 0
233872.0 422966.0 0
236228.0 419210.0 0
236499.0 422662.0 0
239227.0 419681.0 0
241843.0 421841.0 0
244679.0 423042.0 0
246220.0 419190.0 0
249522.0 420880.0 0
252630.0 421903.0 0
258234.0 418646.0 0
255167.0 420115.0 0
256678.0 421950.0 0
261293.0 420849.0 0
264648.0 419432.0 0
266223.0 422949.0 0
267793.0 420311.0 0
271403.0 420785.0 0
275002.0 419019.0 0
277537.0 421338.0 0
285708.0 418889.0 0
280689.0 420446.0 0
284094.0 421054.0 0
287462.0 421365.0 0
290422.0 420612.0 0
292795.0 419946.0 0
294017.0 421941.0 0
296456.0 421555.0 0
299614.0 421405.0 0
302777.0 420711.0 0
310897.0 418803.0 0
306650.0 420743.0 0
310612.0 422912.0 0
314139.0 419901.0 0
313972.0 423219.0 0
316729.0 419186.0 0
320267.0 419148.0 0
317099.0 422536.0 0
320219.0 421898.0 0
323246.0 420254.0 0
323194.0 422745.0 0
326338.0 423268.0 0
326734.0 419755.0 0
330124.0 421408.0 0
334998.0 419619.0 0
332688.0 420785.0 0
334638.0 423249.0 0
337495.0 421614.0 0
340875.0 423232.0 0
342076.0 419992.0 0
344822.0 419085.0 0
348482.0 419707.0 0
351269.0 420306.0 0
347012.0 422203.0 0
352015.0 422755.0 0
353071.0 418489.0 0
355595.0 419849.0 0
354608.0 422586.0 0
357708.0 418926.0 0
359747.0 420359.0 0
361375.0 419545.0 0
359527.0 423395.0 0
362199.0 422979.0 0
364254.0 418459.0 0
367046.0 419460.0 0
364052.0 421336.0 0
366520.0 423467.0 0
368985.0 421146.0 0
371766.0 422121.0 0
373751.0 423056.0 0
118755.0 427396.0 0
122001.0 427251.0 0
124486.0 425730.0 0
127237.0 427423.0 0
129711.0 425797.0 0
134472.0 424055.0 0
136845.0 425006.0 0
132807.0 426996.0 0
139538.0 424958.0 0
142415.0 423592.0 0
139077.0 427861.0 0
142351.0 427597.0 0
143958.0 425114.0 0
146526.0 423913.0 0
144910.0 427501.0 0
150038.0 423726.0 0
148021.0 425599.0 0
152678.0 424974.0 0
149864.0 427554.0 0
158045.0 425456.0 0
155269.0 426704.0 0
161090.0 423896.0 0
166341.0 424327.0 0
163614.0 427404.0 0
169803.0 424454.0 0
170218.0 427923.0 0
173408.0 428323.0 0
173525.0 423701.0 0
177834.0 424171.0 0
175447.0 426054.0 0
177521.0 427934.0 0
181099.0 423906.0 0
180661.0 427547.0 0
185184.0 424765.0 0
188099.0 423940.0 0
184374.0 428561.0 0
188465.0 428057.0 0
191033.0 425125.0 0
191866.0 428560.0 0
197265.0 423998.0 0
195028.0 426513.0 0
200103.0 425178.0 0
203206.0 423976.0 0
203090.0 426953.0 0
205829.0 424177.0 0
205501.0 428158.0 0
208954.0 425988.0 0
212497.0 426780.0 0
214927.0 426067.0 0
217878.0 426309.0 0
222644.0 423494.0 0
220935.0 427227.0 0
225825.0 426445.0 0
228742.0 426721.0 0
229925.0 424354.0 0
232642.0 426030.0 0
239556.0 424386.0 0
236202.0 426844.0 0
240312.0 428393.0 0
242689.0 425437.0 0
244003.0 427675.0 0
247770.0 425505.0 0
251836.0 425727.0 0
258629.0 423557.0 0
255171.0 424439.0 0
256412.0 427346.0 0
259720.0 426393.0 0
262928.0 424339.0 0
264116.0 427611.0 0
269326.0 424038.0 0
266488.0 426121.0 0
268030.0 427098.0 0
273778.0 423564.0 0
271582.0 426416.0 0
274096.0 427988.0 0
276367.0 424970.0 0
279389.0 425088.0 0
281296.0 423663.0 0
282203.0 426649.0 0
284380.0 424618.0 0
285472.0 428506.0 0
287765.0 424030.0 0
289030.0 427555.0 0
291647.0 423970.0 0
294305.0 427133.0 0
296657.0 424382.0 0
298082.0 427915.0 0
299846.0 425172.0 0
303123.0 424251.0 0
301776.0 427711.0 0
305846.0 427836.0 0
306540.0 424018.0 0
310057.0 426690.0 0
312796.0 426535.0 0
315171.0 426563.0 0
318373.0 426284.0 0
321759.0 425625.0 0
329727.0 423595.0 0
326562.0 426949.0 0
329711.0 426651.0 0
332182.0 425279.0 0
333272.0 428242.0 0
335536.0 427366.0 0
336771.0 425270.0 0
339559.0 426091.0 0
337759.0 427974.0 0
344872.0 424550.0 0
343817.0 427520.0 0
350073.0 424103.0 0
348466.0 427113.0 0
351958.0 427082.0 0
353653.0 425710.0 0
357117.0 424647.0 0
356188.0 427772.0 0
359899.0 427918.0 0
362196.0 426908.0 0
364577.0 425661.0 0
366587.0 427855.0 0
370056.0 424694.0 0
369756.0 427569.0 0
373634.0 425587.0 0
375684.0 424862.0 0
373025.0 427892.0 0
376601.0 427965.0 0
377852.0 425478.0 0
379462.0 427775.0 0
381888.0 428515.0 0
111966.0 433187.0 0
117087.0 429731.0 0
114849.0 431831.0 0
120325.0 430126.0 0
121230.0 433233.0 0
124646.0 429588.0 0
124688.0 431865.0 0
128247.0 429596.0 0
131065.0 429775.0 0
132251.0 431751.0 0
128005.0 432383.0 0
135629.0 428800.0 0
135119.0 431964.0 0
137740.0 433653.0 0
140358.0 431009.0 0
146192.0 430057.0 0
143295.0 431876.0 0
147915.0 432487.0 0
151545.0 429809.0 0
151016.0 433016.0 0
154838.0 429534.0 0
157918.0 430101.0 0
154803.0 432500.0 0
157914.0 433044.0 0
159622.0 428574.0 0
161882.0 431021.0 0
166980.0 428922.0 0
164513.0 432030.0 0
167053.0 432036.0 0
170328.0 431531.0 0
174002.0 430997.0 0
177083.0 430805.0 0
180142.0 430917.0 0
179520.0 433246.0 0
182880.0 431795.0 0
186866.0 431083.0 0
189424.0 430349.0 0
189679.0 432574.0 0
193822.0 431811.0 0
197644.0 428733.0 0
198453.0 431784.0 0
201270.0 429585.0 0
203571.0 430260.0 0
201288.0 432660.0 0
203972.0 433439.0 0
205959.0 431063.0 0
207145.0 433531.0 0
209363.0 430189.0 0
209712.0 433531.0 0
212825.0 430265.0 0
212270.0 433563.0 0
216133.0 429936.0 0
219538.0 430716.0 0
223698.0 428802.0 0
222493.0 431182.0 0
224667.0 433287.0 0
226880.0 430191.0 0
230948.0 429791.0 0
234864.0 430027.0 0
234719.0 433346.0 0
238169.0 431466.0 0
242220.0 431352.0 0
245391.0 430595.0 0
249009.0 429688.0 0
253027.0 429219.0 0
252054.0 433010.0 0
257545.0 430292.0 0
255552.0 431942.0 0
261031.0 429809.0 0
263539.0 431842.0 0
269886.0 429445.0 0
266492.0 430441.0 0
273259.0 430867.0 0
270829.0 433484.0 0
276894.0 428817.0 0
280009.0 428626.0 0
276117.0 432223.0 0
279084.0 432192.0 0
282829.0 430715.0 0
285391.0 433655.0 0
287951.0 431851.0 0
291769.0 430747.0 0
294276.0 433416.0 0
300316.0 429996.0 0
296142.0 430522.0 0
298169.0 431312.0 0
303992.0 431579.0 0
308709.0 431386.0 0
311845.0 430268.0 0
314404.0 429224.0 0
316188.0 432787.0 0
316515.0 430532.0 0
319093.0 429569.0 0
320577.0 432173.0 0
323098.0 428628.0 0
324156.0 432226.0 0
331145.0 429733.0 0
328197.0 431414.0 0
333289.0 431991.0 0
334572.0 430715.0 0
336510.0 433315.0 0
336850.0 430724.0 0
341735.0 428933.0 0
339974.0 430834.0 0
344454.0 431011.0 0
346726.0 429607.0 0
343874.0 433673.0 0
350894.0 430109.0 0
348724.0 432059.0 0
354467.0 428688.0 0
353757.0 431611.0 0
356707.0 432192.0 0
358346.0 429684.0 0
361654.0 431973.0 0
363107.0 429797.0 0
365671.0 430198.0 0
367270.0 432704.0 0
369976.0 430580.0 0
374918.0 430040.0 0
372501.0 431975.0 0
377440.0 432306.0 0
379360.0 430804.0 0
381732.0 431508.0 0
384007.0 430268.0 0
386185.0 431728.0 0
388811.0 433004.0 0
105913.0 436146.0 0
109024.0 434928.0 0
109648.0 438145.0 0
112912.0 436586.0 0
117316.0 433806.0 0
115454.0 436066.0 0
120761.0 437356.0 0
125467.0 434453.0 0
124916.0 436379.0 0
127350.0 437134.0 0
130201.0 435071.0 0
131973.0 438705.0 0
133862.0 434679.0 0
135907.0 437294.0 0
140400.0 435396.0 0
139654.0 437753.0 0
143737.0 435251.0 0
146659.0 435015.0 0
143533.0 438362.0 0
146252.0 438761.0 0
151858.0 436192.0 0
148314.0 437069.0 0
155449.0 435649.0 0
154233.0 438573.0 0
157678.0 437541.0 0
160725.0 433874.0 0
163385.0 436300.0 0
167153.0 435085.0 0
170846.0 435419.0 0
174506.0 434600.0 0
177821.0 434350.0 0
175659.0 438257.0 0
181931.0 434875.0 0
179508.0 437552.0 0
185481.0 434004.0 0
183954.0 436756.0 0
185991.0 438396.0 0
188390.0 435998.0 0
192433.0 435871.0 0
196751.0 433906.0 0
195754.0 437998.0 0
199848.0 435715.0 0
202629.0 437139.0 0
205777.0 436230.0 0
209099.0 436615.0 0
212556.0 437306.0 0
215485.0 434265.0 0
218874.0 434354.0 0
216254.0 438704.0 0
221742.0 434371.0 0
219505.0 437718.0 0
222191.0 436799.0 0
228278.0 434104.0 0
225351.0 437196.0 0
229523.0 438152.0 0
231708.0 434348.0 0
233354.0 436942.0 0
236814.0 435566.0 0
240632.0 434706.0 0
244637.0 434603.0 0
248411.0 433753.0 0
247631.0 437723.0 0
251088.0 436817.0 0
259272.0 433772.0 0
255241.0 435804.0 0
258922.0 437562.0 0
263222.0 435349.0 0
267020.0 434485.0 0
269673.0 437226.0 0
274440.0 436247.0 0
278441.0 435527.0 0
281632.0 434670.0 0
281606.0 438520.0 0
284837.0 436931.0 0
290309.0 434014.0 0
288059.0 435635.0 0
292285.0 437411.0 0
297662.0 434451.0 0
296528.0 437988.0 0
300383.0 438335.0 0
301421.0 433864.0 0
304786.0 437713.0 0
306651.0 434116.0 0
310584.0 435063.0 0
309159.0 438235.0 0
313671.0 433842.0 0
312555.0 438491.0 0
315872.0 437519.0 0
318812.0 434783.0 0
321378.0 438246.0 0
323919.0 435519.0 0
328125.0 434997.0 0
326559.0 436672.0 0
328882.0 438223.0 0
330306.0 436405.0 0
331766.0 433892.0 0
334932.0 435799.0 0
332689.0 438478.0 0
340394.0 433739.0 0
339276.0 436478.0 0
343463.0 436581.0 0
346569.0 437669.0 0
347412.0 434544.0 0
351251.0 437427.0 0
352079.0 434188.0 0
355262.0 435057.0 0
355199.0 437534.0 0
359087.0 434359.0 0
357727.0 436867.0 0
361941.0 436989.0 0
364149.0 434301.0 0
365882.0 436651.0 0
369210.0 434976.0 0
368314.0 437905.0 0
372804.0 435765.0 0
375943.0 434925.0 0
378244.0 436573.0 0
379904.0 434599.0 0
381944.0 433864.0 0
380962.0 438034.0 0
384530.0 434578.0 0
387189.0 435235.0 0
383646.0 437708.0 0
391146.0 434875.0 0
389694.0 437155.0 0
391870.0 438643.0 0
393995.0 436635.0 0
94951.5 443033.0 0
97602.5 441919.0 0
100327.0 440365.0 0
101570.0 443634.0 0
103389.0 438811.0 0
104076.0 442120.0 0
106426.0 439101.0 0
106834.0 441083.0 0
105848.0 443198.0 0
110763.0 441055.0 0
108224.0 442997.0 0
113946.0 439589.0 0
117196.0 440056.0 0
112512.0 443502.0 0
115553.0 443658.0 0
119571.0 442958.0 0
123414.0 440772.0 0
126823.0 439904.0 0
129480.0 441602.0 0
131935.0 443670.0 0
134077.0 441591.0 0
136805.0 440723.0 0
140228.0 440051.0 0
141220.0 442799.0 0
144089.0 441186.0 0
146309.0 443059.0 0
148525.0 440597.0 0
151398.0 439745.0 0
150098.0 442503.0 0
151657.0 442966.0 0
153395.0 441257.0 0
155676.0 439897.0 0
154862.0 443390.0 0
157461.0 442076.0 0
160409.0 439614.0 0
162746.0 441418.0 0
165777.0 438899.0 0
164972.0 441128.0 0
165820.0 443502.0 0
168984.0 439295.0 0
172402.0 439569.0 0
168682.0 442604.0 0
173266.0 442252.0 0
171195.0 442613.0 0
176230.0 441784.0 0
178830.0 440702.0 0
182445.0 439367.0 0
180500.0 442755.0 0
184223.0 442382.0 0
187690.0 441345.0 0
190358.0 439388.0 0
193285.0 441732.0 0
197108.0 442521.0 0
199490.0 439731.0 0
203180.0 440126.0 0
201131.0 443667.0 0
205971.0 439545.0 0
209202.0 440387.0 0
213154.0 441420.0 0
216392.0 442521.0 0
218912.0 441067.0 0
222186.0 440225.0 0
224253.0 443799.0 0
226224.0 440627.0 0
228931.0 442999.0 0
232237.0 440354.0 0
235548.0 438808.0 0
239256.0 438929.0 0
235894.0 442543.0 0
239604.0 442931.0 0
243428.0 439020.0 0
247582.0 442236.0 0
250486.0 439695.0 0
253679.0 439566.0 0
251906.0 442523.0 0
255660.0 442980.0 0
257177.0 439906.0 0
259678.0 441902.0 0
261616.0 439122.0 0
263224.0 443097.0 0
266513.0 439913.0 0
269775.0 443569.0 0
272235.0 440088.0 0
275182.0 442354.0 0
278057.0 439647.0 0
281333.0 443117.0 0
284411.0 440887.0 0
287563.0 438832.0 0
287085.0 442390.0 0
290192.0 441487.0 0
292643.0 442983.0 0
294486.0 441084.0 0
297581.0 441257.0 0
300804.0 441906.0 0
304255.0 442126.0 0
308641.0 441885.0 0
312546.0 441872.0 0
316161.0 441534.0 0
319802.0 441761.0 0
326068.0 439569.0 0
324179.0 441572.0 0
325925.0 443460.0 0
330413.0 440211.0 0
328025.0 441618.0 0
331884.0 442774.0 0
334920.0 441828.0 0
336860.0 439002.0 0
341636.0 439159.0 0
339385.0 441848.0 0
345523.0 441351.0 0
349590.0 441205.0 0
353690.0 440655.0 0
356639.0 440805.0 0
352160.0 443496.0 0
360506.0 440454.0 0
365142.0 438829.0 0
364775.0 442120.0 0
367978.0 440370.0 0
371696.0 439239.0 0
370408.0 441885.0 0
374423.0 440400.0 0
376365.0 438845.0 0
374759.0 442769.0 0
377496.0 443224.0 0
379057.0 440796.0 0
381933.0 442441.0 0
384023.0 441236.0 0
387127.0 438825.0 0
385661.0 443421.0 0
388570.0 441750.0 0
391055.0 440486.0 0
393370.0 440782.0 0
396436.0 438886.0 0
393830.0 443735.0 0
396966.0 442568.0 0
399416.0 439559.0 0
401637.0 441484.0 0
404520.0 443201.0 0
89896.3 446359.0 0
87495.5 448502.0 0
92891.6 445396.0 0
94814.6 447890.0 0
98057.5 445269.0 0
99767.0 447411.0 0
102942.0 446265.0 0
105310.0 445399.0 0
107055.0 446612.0 0
108736.0 445249.0 0
111384.0 446373.0 0
114549.0 447098.0 0
117110.0 448329.0 0
117515.0 445261.0 0
120472.0 445073.0 0
120502.0 448032.0 0
124029.0 444034.0 0
127455.0 444400.0 0
123901.0 447348.0 0
126764.0 447516.0 0
130088.0 446964.0 0
134973.0 444129.0 0
133378.0 446508.0 0
136367.0 447496.0 0
137864.0 444145.0 0
139990.0 446635.0 0
143372.0 446074.0 0
146581.0 448467.0 0
148662.0 445202.0 0
152313.0 446333.0 0
156971.0 445867.0 0
154559.0 448720.0 0
159997.0 443955.0 0
162908.0 444041.0 0
160480.0 446834.0 0
163069.0 446611.0 0
166259.0 446606.0 0
173460.0 445332.0 0
170036.0 446234.0 0
177614.0 445175.0 0
175205.0 448978.0 0
181921.0 445850.0 0
179573.0 448384.0 0
185780.0 445917.0 0
189433.0 444709.0 0
189970.0 448599.0 0
193721.0 446039.0 0
197153.0 445887.0 0
200469.0 448016.0 0
203483.0 447689.0 0
205884.0 444234.0 0
210506.0 444581.0 0
214026.0 444932.0 0
209188.0 448570.0 0
212665.0 447642.0 0
216660.0 445670.0 0
220186.0 444346.0 0
219859.0 448662.0 0
223662.0 447780.0 0
227098.0 446262.0 0
232348.0 444747.0 0
230051.0 448079.0 0
233609.0 448628.0 0
236231.0 446467.0 0
239681.0 447041.0 0
243446.0 444019.0 0
242851.0 448090.0 0
246256.0 447164.0 0
253360.0 445374.0 0
250003.0 446068.0 0
258928.0 444756.0 0
256111.0 447077.0 0
259166.0 448950.0 0
261833.0 446106.0 0
266363.0 446040.0 0
269969.0 448314.0 0
273202.0 445659.0 0
278291.0 444278.0 0
276888.0 447069.0 0
281249.0 448048.0 0
284982.0 445669.0 0
288949.0 445574.0 0
293202.0 446923.0 0
296499.0 444269.0 0
300017.0 445129.0 0
297391.0 448565.0 0
304066.0 446085.0 0
308571.0 446191.0 0
312914.0 445842.0 0
316114.0 445220.0 0
318848.0 444906.0 0
317596.0 448051.0 0
319920.0 447257.0 0
322726.0 444702.0 0
325671.0 447402.0 0
329041.0 445378.0 0
335624.0 445861.0 0
332770.0 446222.0 0
338616.0 444777.0 0
340782.0 447060.0 0
343345.0 444598.0 0
346687.0 446276.0 0
344808.0 448350.0 0
348003.0 444539.0 0
350648.0 446277.0 0
349112.0 448680.0 0
355889.0 444762.0 0
353255.0 447547.0 0
359955.0 444428.0 0
357305.0 448340.0 0
360319.0 447397.0 0
363075.0 444998.0 0
363494.0 447344.0 0
366078.0 447484.0 0
367568.0 444469.0 0
370585.0 446753.0 0
372743.0 444218.0 0
376476.0 447105.0 0
379458.0 445839.0 0
381437.0 444679.0 0
381520.0 448574.0 0
383184.0 446645.0 0
385353.0 445705.0 0
388064.0 446272.0 0
390386.0 444419.0 0
388441.0 448849.0 0
391961.0 448526.0 0
395076.0 447127.0 0
399771.0 444331.0 0
398347.0 447390.0 0
403081.0 446128.0 0
407179.0 444647.0 0
406238.0 447331.0 0
409739.0 446212.0 0
412409.0 447710.0 0
81510.6 451837.0 0
78769.5 453800.0 0
84383.7 450080.0 0
86150.5 452607.0 0
90841.4 450234.0 0
88940.2 453055.0 0
93040.5 452252.0 0
96362.7 450552.0 0
96443.8 453469.0 0
100009.0 450470.0 0
100698.0 453401.0 0
103716.0 449333.0 0
107033.0 449445.0 0
104019.0 452549.0 0
110384.0 449060.0 0
110530.0 451651.0 0
107203.0 452745.0 0
113711.0 449979.0 0
117225.0 451118.0 0
113125.0 452453.0 0
115581.0 452742.0 0
121101.0 451037.0 0
119337.0 453666.0 0
124272.0 449981.0 0
126958.0 449957.0 0
126596.0 452088.0 0
124088.0 453024.0 0
130215.0 450270.0 0
128650.0 453362.0 0
134073.0 450745.0 0
137449.0 452638.0 0
138958.0 449283.0 0
142211.0 449971.0 0
141289.0 453672.0 0
145283.0 451897.0 0
150367.0 450293.0 0
148397.0 453892.0 0
157331.0 449068.0 0
154043.0 452116.0 0
157426.0 452048.0 0
160434.0 449960.0 0
160049.0 454072.0 0
163733.0 449721.0 0
167195.0 450004.0 0
163882.0 453052.0 0
167323.0 453381.0 0
171068.0 450283.0 0
173024.0 453107.0 0
178558.0 451255.0 0
175139.0 452361.0 0
183107.0 449236.0 0
181681.0 452723.0 0
186739.0 449067.0 0
185564.0 452483.0 0
188310.0 451572.0 0
191092.0 452250.0 0
193932.0 449992.0 0
196942.0 449076.0 0
198663.0 451578.0 0
195409.0 453865.0 0
202848.0 452076.0 0
205857.0 449200.0 0
207616.0 453004.0 0
211776.0 451180.0 0
215585.0 449325.0 0
215528.0 454000.0 0
218768.0 451937.0 0
222661.0 452390.0 0
226604.0 450385.0 0
228111.0 453173.0 0
233986.0 451416.0 0
230928.0 451972.0 0
237208.0 450652.0 0
244608.0 450757.0 0
240927.0 451060.0 0
248960.0 450812.0 0
246377.0 453775.0 0
253111.0 449143.0 0
252514.0 452838.0 0
256189.0 451839.0 0
263793.0 449580.0 0
260764.0 452804.0 0
267436.0 451190.0 0
273921.0 450472.0 0
270680.0 452541.0 0
277959.0 450328.0 0
277125.0 453712.0 0
280110.0 452092.0 0
285633.0 449320.0 0
283600.0 452284.0 0
289425.0 450443.0 0
286976.0 453237.0 0
291535.0 453972.0 0
294774.0 452082.0 0
300577.0 449513.0 0
299028.0 452827.0 0
304475.0 450080.0 0
302444.0 452273.0 0
304799.0 452944.0 0
308031.0 450911.0 0
311777.0 449739.0 0
314903.0 449972.0 0
311489.0 453122.0 0
315104.0 454040.0 0
318662.0 451488.0 0
322536.0 450068.0 0
326167.0 452193.0 0
328024.0 449978.0 0
331619.0 449655.0 0
329413.0 452802.0 0
335160.0 450009.0 0
332380.0 453743.0 0
338314.0 448991.0 0
339935.0 451761.0 0
342220.0 449971.0 0
346749.0 451045.0 0
344197.0 452009.0 0
351329.0 451289.0 0
348615.0 453856.0 0
354204.0 449922.0 0
355929.0 452790.0 0
358883.0 451701.0 0
362324.0 450912.0 0
366090.0 451523.0 0
368832.0 449559.0 0
372132.0 452613.0 0
373664.0 449021.0 0
376572.0 452612.0 0
378934.0 450249.0 0
379069.0 453825.0 0
381421.0 452852.0 0
383847.0 450935.0 0
385663.0 449074.0 0
386725.0 453732.0 0
388641.0 451431.0 0
391438.0 451412.0 0
391822.0 453542.0 0
395417.0 451194.0 0
394644.0 453934.0 0
399476.0 451442.0 0
402421.0 449109.0 0
406368.0 450875.0 0
403930.0 453932.0 0
409898.0 449166.0 0
411782.0 451392.0 0
409607.0 453237.0 0
414541.0 449683.0 0
417549.0 450930.0 0
414949.0 453167.0 0
420044.0 453016.0 0
72541.0 457042.0 0
75723.6 455793.0 0
79903.8 456196.0 0
78110.7 458201.0 0
80860.7 459158.0 0
83093.2 454523.0 0
82345.6 457033.0 0
85827.6 455571.0 0
84257.0 458524.0 0
90060.4 455732.0 0
87105.1 457765.0 0
91051.1 458932.0 0
93370.5 455085.0 0
95019.0 458020.0 0
98193.6 455511.0 0
100315.0 458258.0 0
103162.0 456128.0 0
106189.0 455854.0 0
108780.0 457317.0 0
110214.0 454356.0 0
111688.0 458790.0 0
112995.0 455753.0 0
116445.0 456250.0 0
122092.0 455765.0 0
119192.0 458777.0 0
126346.0 455946.0 0
129593.0 456869.0 0
132180.0 454428.0 0
132151.0 458906.0 0
135682.0 457036.0 0
140360.0 458227.0 0
144545.0 455599.0 0
147404.0 458127.0 0
151810.0 455409.0 0
151326.0 458511.0 0
155765.0 455595.0 0
162642.0 456768.0 0
159135.0 458986.0 0
164722.0 455871.0 0
167559.0 458512.0 0
170375.0 454623.0 0
171760.0 458126.0 0
173721.0 455669.0 0
177148.0 454895.0 0
175331.0 458487.0 0
178144.0 458828.0 0
180520.0 456481.0 0
188608.0 455060.0 0
184613.0 456851.0 0
188083.0 459096.0 0
192293.0 455237.0 0
191199.0 458382.0 0
194883.0 458668.0 0
199370.0 456167.0 0
204315.0 456428.0 0
208069.0 458090.0 0
211233.0 455404.0 0
214226.0 457950.0 0
217774.0 458804.0 0
219653.0 455326.0 0
222149.0 457442.0 0
225532.0 455362.0 0
234298.0 454931.0 0
229811.0 456476.0 0
232807.0 458752.0 0
238399.0 454569.0 0
236830.0 459158.0 0
242688.0 454756.0 0
240472.0 458026.0 0
246084.0 457499.0 0
249864.0 456189.0 0
254411.0 455910.0 0
258086.0 455351.0 0
264750.0 454398.0 0
261705.0 457316.0 0
265202.0 458699.0 0
268886.0 456687.0 0
273546.0 455128.0 0
277213.0 457983.0 0
280999.0 455767.0 0
285628.0 456489.0 0
289631.0 455636.0 0
288561.0 458579.0 0
293338.0 456509.0 0
297066.0 456435.0 0
302320.0 456342.0 0
307355.0 454854.0 0
306404.0 458804.0 0
311221.0 457511.0 0
315983.0 458892.0 0
318759.0 455362.0 0
322810.0 454885.0 0
325139.0 458919.0 0
327790.0 455662.0 0
331367.0 457004.0 0
336550.0 454203.0 0
334734.0 457337.0 0
340146.0 456575.0 0
342178.0 454141.0 0
345593.0 456168.0 0
343132.0 459039.0 0
351390.0 456676.0 0
353331.0 454137.0 0
356840.0 456258.0 0
354579.0 458455.0 0
359730.0 455217.0 0
358406.0 458863.0 0
361306.0 458548.0 0
363110.0 454937.0 0
365669.0 456669.0 0
368377.0 454473.0 0
369999.0 458263.0 0
373511.0 456666.0 0
376987.0 456188.0 0
380235.0 456462.0 0
383772.0 456070.0 0
386780.0 458155.0 0
390029.0 456458.0 0
394113.0 457142.0 0
397389.0 455196.0 0
397311.0 458201.0 0
400311.0 455496.0 0
400761.0 458832.0 0
405391.0 458310.0 0
409003.0 456080.0 0
412894.0 454579.0 0
412447.0 458150.0 0
417657.0 455295.0 0
416108.0 458317.0 0
420892.0 456918.0 0
423089.0 454684.0 0
423281.0 458809.0 0
426000.0 457180.0 0
63587.1 462218.0 0
66164.7 463453.0 0
66715.7 460777.0 0
69987.0 459317.0 0
70579.4 462112.0 0
74087.4 459531.0 0
73758.6 462683.0 0
76985.1 460443.0 0
80185.6 461343.0 0
78003.8 464038.0 0
83772.5 461759.0 0
86660.8 464010.0 0
88237.2 460909.0 0
90603.6 463880.0 0
92677.1 461406.0 0
95191.6 463226.0 0
97550.6 460514.0 0
99692.0 462968.0 0
102238.0 460834.0 0
104667.0 459477.0 0
103255.0 463933.0 0
105788.0 462754.0 0
107544.0 460198.0 0
110177.0 462112.0 0
114451.0 459862.0 0
113257.0 463820.0 0
117542.0 462102.0 0
120843.0 462487.0 0
123367.0 459764.0 0
127072.0 459464.0 0
124752.0 463417.0 0
129730.0 459895.0 0
128359.0 462943.0 0
133205.0 463127.0 0
137698.0 462188.0 0
141564.0 463792.0 0
144012.0 459972.0 0
145972.0 463371.0 0
149165.0 461860.0 0
152316.0 463182.0 0
154758.0 459594.0 0
156330.0 463180.0 0
160424.0 463334.0 0
163529.0 459828.0 0
164742.0 464022.0 0
173033.0 461173.0 0
169278.0 462754.0 0
177138.0 462541.0 0
181343.0 460641.0 0
185560.0 462469.0 0
190959.0 462649.0 0
198241.0 461199.0 0
194873.0 462647.0 0
201807.0 459538.0 0
201446.0 462995.0 0
204989.0 461429.0 0
209091.0 462312.0 0
211656.0 459606.0 0
212612.0 463421.0 0
214580.0 460575.0 0
216921.0 463473.0 0
221225.0 461463.0 0
225847.0 460214.0 0
229960.0 461060.0 0
233694.0 462423.0 0
243532.0 459740.0 0
240253.0 461986.0 0
243979.0 463602.0 0
247637.0 461058.0 0
252054.0 460236.0 0
250226.0 463821.0 0
257422.0 460158.0 0
262768.0 462136.0 0
269918.0 460787.0 0
267114.0 462701.0 0
273153.0 459553.0 0
271421.0 463511.0 0
275836.0 463382.0 0
279731.0 461235.0 0
282899.0 459218.0 0
283801.0 463957.0 0
286619.0 460875.0 0
289507.0 461839.0 0
291598.0 459270.0 0
295508.0 460623.0 0
292482.0 463367.0 0
299619.0 459995.0 0
299367.0 463817.0 0
303847.0 462456.0 0
309191.0 462163.0 0
313519.0 462456.0 0
320621.0 460219.0 0
317447.0 463612.0 0
324591.0 463959.0 0
329045.0 461093.0 0
333772.0 460279.0 0
336517.0 463285.0 0
338257.0 459975.0 0
346187.0 461799.0 0
342009.0 462839.0 0
348446.0 459312.0 0
351859.0 461760.0 0
356573.0 462054.0 0
360608.0 462248.0 0
364146.0 459304.0 0
367068.0 459761.0 0
364265.0 462489.0 0
371449.0 461923.0 0
367826.0 463103.0 0
374519.0 459822.0 0
377393.0 459799.0 0
375162.0 462859.0 0
380126.0 459365.0 0
378118.0 463456.0 0
381646.0 462737.0 0
383640.0 459524.0 0
386824.0 461080.0 0
385596.0 464002.0 0
390394.0 460669.0 0
393766.0 460251.0 0
396533.0 461271.0 0
393400.0 464021.0 0
400254.0 462852.0 0
404516.0 463000.0 0
409206.0 460981.0 0
412744.0 462396.0 0
408214.0 464022.0 0
416576.0 463402.0 0
419945.0 460431.0 0
423766.0 462425.0 0
427219.0 460959.0 0
430217.0 459431.0 0
431608.0 462459.0 0
428733.0 464279.0 0
433737.0 460737.0 0
436174.0 463483.0 0
57473.1 466454.0 0
61037.6 464925.0 0
59770.3 468066.0 0
64038.7 466168.0 0
66802.7 467656.0 0
69114.1 464557.0 0
69843.1 468030.0 0
73411.8 466442.0 0
77374.3 468361.0 0
81187.0 469366.0 0
81812.7 465051.0 0
84954.4 467202.0 0
88864.6 466779.0 0
91261.3 468344.0 0
93329.9 465976.0 0
96181.2 468235.0 0
97459.3 465064.0 0
100934.0 467002.0 0
105074.0 466268.0 0
106949.0 468345.0 0
107790.0 464889.0 0
110156.0 466623.0 0
116800.0 465379.0 0
114077.0 468708.0 0
119554.0 464858.0 0
118516.0 467393.0 0
121918.0 464458.0 0
122101.0 467783.0 0
125712.0 466687.0 0
129384.0 467020.0 0
137278.0 466850.0 0
133552.0 467806.0 0
141282.0 467576.0 0
145006.0 467082.0 0
149313.0 466325.0 0
153925.0 466676.0 0
158047.0 466988.0 0
161708.0 466920.0 0
163587.0 467933.0 0
167653.0 467536.0 0
173185.0 465914.0 0
177759.0 466838.0 0
180907.0 464824.0 0
180752.0 469314.0 0
183880.0 466664.0 0
187951.0 466421.0 0
191307.0 467075.0 0
193987.0 465694.0 0
198245.0 466381.0 0
203281.0 465867.0 0
206757.0 465112.0 0
206062.0 468631.0 0
209993.0 467046.0 0
214258.0 466570.0 0
217623.0 468025.0 0
220247.0 465324.0 0
223692.0 464903.0 0
221884.0 468321.0 0
227224.0 464821.0 0
225683.0 468737.0 0
229542.0 468826.0 0
230782.0 464867.0 0
233650.0 466819.0 0
237088.0 464390.0 0
240892.0 466491.0 0
244088.0 468913.0 0
247114.0 465927.0 0
254409.0 465124.0 0
250561.0 467899.0 0
253613.0 469124.0 0
259627.0 465801.0 0
256940.0 469371.0 0
264368.0 467398.0 0
268896.0 467035.0 0
273174.0 466837.0 0
279868.0 465529.0 0
277093.0 468159.0 0
280124.0 468454.0 0
283402.0 468912.0 0
288415.0 466294.0 0
293280.0 467159.0 0
296060.0 465253.0 0
298853.0 467585.0 0
302269.0 466842.0 0
307352.0 466569.0 0
311466.0 465230.0 0
314947.0 466152.0 0
311824.0 468756.0 0
320611.0 465005.0 0
318622.0 468061.0 0
322426.0 468005.0 0
325849.0 467794.0 0
328831.0 466119.0 0
332665.0 464479.0 0
332109.0 468669.0 0
335952.0 467141.0 0
339559.0 465669.0 0
345154.0 465179.0 0
343234.0 467925.0 0
349401.0 464957.0 0
347273.0 468731.0 0
354103.0 465738.0 0
357838.0 465872.0 0
361917.0 466741.0 0
366161.0 466275.0 0
370439.0 465787.0 0
369017.0 468604.0 0
374024.0 466016.0 0
381936.0 466485.0 0
378099.0 467814.0 0
386223.0 467586.0 0
389823.0 464678.0 0
390244.0 468383.0 0
396861.0 465100.0 0
393881.0 467903.0 0
401022.0 466502.0 0
398232.0 468912.0 0
404379.0 466599.0 0
407617.0 467269.0 0
411291.0 464905.0 0
411107.0 468204.0 0
414037.0 466040.0 0
418110.0 467527.0 0
420884.0 464480.0 0
421965.0 467269.0 0
425202.0 465718.0 0
426656.0 468986.0 0
433507.0 466192.0 0
429779.0 467910.0 0
438317.0 468186.0 0
439560.0 465442.0 0
442977.0 467335.0 0
446157.0 469074.0 0
50503.9 472002.0 0
46432.9 473447.0 0
54886.1 469691.0 0
58784.1 470943.0 0
57938.4 474166.0 0
62637.9 469814.0 0
66167.7 471007.0 0
62204.3 473873.0 0
69594.1 471177.0 0
72822.1 470194.0 0
75694.1 472463.0 0
79710.9 472585.0 0
84338.9 472050.0 0
87280.3 469794.0 0
89756.3 471131.0 0
87677.3 473919.0 0
91812.4 473969.0 0
93614.2 470744.0 0
95910.3 472947.0 0
99101.3 470938.0 0
101854.0 473228.0 0
103786.0 469535.0 0
105812.0 473174.0 0
109494.0 470517.0 0
112250.0 472913.0 0
115353.0 472945.0 0
118534.0 470819.0 0
122003.0 471698.0 0
125789.0 470529.0 0
130781.0 471006.0 0
127727.0 474388.0 0
134907.0 471123.0 0
138710.0 470943.0 0
143213.0 470840.0 0
147273.0 470293.0 0
145649.0 474196.0 0
151574.0 470330.0 0
149341.0 473651.0 0
155915.0 470900.0 0
157523.0 474421.0 0
160408.0 470521.0 0
164409.0 471269.0 0
167949.0 472009.0 0
171146.0 470248.0 0
171065.0 474429.0 0
175721.0 471100.0 0
179394.0 473902.0 0
183064.0 472632.0 0
185489.0 469919.0 0
186766.0 474447.0 0
189677.0 470788.0 0
194399.0 470328.0 0
198682.0 471331.0 0
201896.0 469847.0 0
204761.0 472317.0 0
208653.0 471966.0 0
213174.0 470614.0 0
215193.0 474396.0 0
217363.0 471663.0 0
219940.0 471065.0 0
223560.0 472787.0 0
227897.0 472567.0 0
232750.0 470518.0 0
231194.0 473693.0 0
234690.0 473417.0 0
237200.0 469570.0 0
241079.0 470827.0 0
244135.0 473777.0 0
247581.0 470638.0 0
251107.0 471681.0 0
254815.0 471897.0 0
258340.0 474075.0 0
260412.0 470038.0 0
263205.0 471982.0 0
267131.0 471261.0 0
271507.0 471121.0 0
274683.0 469797.0 0
279629.0 471184.0 0
276002.0 472723.0 0
283043.0 474262.0 0
287343.0 472031.0 0
291874.0 470767.0 0
294778.0 473492.0 0
296328.0 469776.0 0
300211.0 470561.0 0
298275.0 473495.0 0
304537.0 470734.0 0
302252.0 474404.0 0
309012.0 471736.0 0
315411.0 469587.0 0
313802.0 473143.0 0
317394.0 471885.0 0
321359.0 472456.0 0
324744.0 470596.0 0
325787.0 474338.0 0
328886.0 471029.0 0
335221.0 470234.0 0
333561.0 473762.0 0
339593.0 471256.0 0
345170.0 472181.0 0
351910.0 469426.0 0
349056.0 472200.0 0
356875.0 469981.0 0
361760.0 471379.0 0
365548.0 469910.0 0
365121.0 473430.0 0
369039.0 472819.0 0
372910.0 469561.0 0
376533.0 471531.0 0
373471.0 474191.0 0
380118.0 473050.0 0
382914.0 470274.0 0
387564.0 471810.0 0
392432.0 472687.0 0
395196.0 470296.0 0
396382.0 472371.0 0
399918.0 472493.0 0
402964.0 470451.0 0
406648.0 470711.0 0
406125.0 473608.0 0
410036.0 471454.0 0
413014.0 472864.0 0
414750.0 469432.0 0
416888.0 472332.0 0
420032.0 471187.0 0
423520.0 470211.0 0
427869.0 472295.0 0
424168.0 473672.0 0
431692.0 471387.0 0
435859.0 470484.0 0
441365.0 470128.0 0
439729.0 473580.0 0
444046.0 471144.0 0
445960.0 472221.0 0
444102.0 474323.0 0
449289.0 471909.0 0
453247.0 473993.0 0
39586.5 477666.0 0
43475.0 475792.0 0
46831.7 476867.0 0
49118.9 475546.0 0
50354.2 478108.0 0
53857.5 475020.0 0
53335.0 479493.0 0
56736.7 477760.0 0
60462.9 478050.0 0
64825.8 478297.0 0
66573.8 474732.0 0
70918.4 474807.0 0
68455.2 478539.0 0
75271.3 477002.0 0
71974.6 478781.0 0
78329.2 475354.0 0
78657.7 478700.0 0
81854.9 475553.0 0
85436.6 476372.0 0
86108.1 479249.0 0
89544.9 477431.0 0
94529.4 476453.0 0
98669.5 475031.0 0
98345.8 479556.0 0
102300.0 476689.0 0
105862.0 477707.0 0
109564.0 475045.0 0
109494.0 478972.0 0
113813.0 477022.0 0
118841.0 475372.0 0
121109.0 479142.0 0
123294.0 474769.0 0
125100.0 478336.0 0
130165.0 478184.0 0
132756.0 474749.0 0
136420.0 474828.0 0
134331.0 478936.0 0
141116.0 474642.0 0
138729.0 478833.0 0
143895.0 478440.0 0
148887.0 477990.0 0
153015.0 479005.0 0
153243.0 474851.0 0
155716.0 477541.0 0
161429.0 474701.0 0
158749.0 477968.0 0
162372.0 478270.0 0
166040.0 476027.0 0
170010.0 479235.0 0
175027.0 476756.0 0
183024.0 476631.0 0
179280.0 477608.0 0
191504.0 475628.0 0
196517.0 474861.0 0
195003.0 478280.0 0
198973.0 478588.0 0
201332.0 474827.0 0
205907.0 476330.0 0
210921.0 476501.0 0
215846.0 478468.0 0
219394.0 475201.0 0
219652.0 479446.0 0
222689.0 477820.0 0
226059.0 475808.0 0
229227.0 476564.0 0
233679.0 477538.0 0
238878.0 474919.0 0
242355.0 478540.0 0
248673.0 474658.0 0
246022.0 477603.0 0
253214.0 475299.0 0
250420.0 479429.0 0
255982.0 478868.0 0
259804.0 478632.0 0
262151.0 475726.0 0
265854.0 475405.0 0
269744.0 475004.0 0
268416.0 478957.0 0
273283.0 475077.0 0
272116.0 478436.0 0
278974.0 475045.0 0
276194.0 477645.0 0
281199.0 478908.0 0
290811.0 475996.0 0
286392.0 476873.0 0
288698.0 479360.0 0
295622.0 478002.0 0
300013.0 477099.0 0
304020.0 479232.0 0
306331.0 475502.0 0
310133.0 475522.0 0
313529.0 477816.0 0
318155.0 476279.0 0
322900.0 477496.0 0
329377.0 475209.0 0
327143.0 478118.0 0
330867.0 478037.0 0
334568.0 478190.0 0
339083.0 476730.0 0
342935.0 474960.0 0
345871.0 475883.0 0
343909.0 478307.0 0
348699.0 475148.0 0
347521.0 478490.0 0
350135.0 477812.0 0
353311.0 474625.0 0
352576.0 479213.0 0
356833.0 479379.0 0
358789.0 474942.0 0
362811.0 475475.0 0
366798.0 477430.0 0
370741.0 477113.0 0
377412.0 476190.0 0
374205.0 478796.0 0
381426.0 477482.0 0
384551.0 474670.0 0
385897.0 478628.0 0
389015.0 475939.0 0
393780.0 477345.0 0
398010.0 475868.0 0
403049.0 475027.0 0
401308.0 478622.0 0
406428.0 476745.0 0
409077.0 474849.0 0
412416.0 476252.0 0
409628.0 479427.0 0
416519.0 475941.0 0
420700.0 475323.0 0
427464.0 475759.0 0
424510.0 478097.0 0
430818.0 475327.0 0
429116.0 478677.0 0
432463.0 478522.0 0
435007.0 475428.0 0
438730.0 477811.0 0
442545.0 477828.0 0
446970.0 475114.0 0
446153.0 478559.0 0
450247.0 477101.0 0
457128.0 475040.0 0
455214.0 477777.0 0
459699.0 477941.0 0
463237.0 479325.0 0
28751.8 483610.0 0
32440.0 483782.0 0
36258.0 480310.0 0
39360.9 480816.0 0
39975.3 483089.0 0
37101.0 483847.0 0
43474.7 479924.0 0
42728.7 484156.0 0
46869.7 483640.0 0
47766.6 479618.0 0
50231.4 481751.0 0
53534.6 483423.0 0
56720.2 481145.0 0
59717.2 481817.0 0
63026.9 481736.0 0
61342.3 484501.0 0
66437.2 482200.0 0
70292.6 481820.0 0
74942.0 481297.0 0
79349.4 482224.0 0
82646.2 479728.0 0
85091.6 482015.0 0
82743.7 483493.0 0
85655.8 484253.0 0
88381.7 482066.0 0
91169.5 484272.0 0
92492.0 480263.0 0
95187.3 483497.0 0
99988.5 484280.0 0
103201.0 480906.0 0
107203.0 481916.0 0
112236.0 482058.0 0
116935.0 480290.0 0
116079.0 483964.0 0
120032.0 483520.0 0
123520.0 482389.0 0
127256.0 481230.0 0
126273.0 484459.0 0
131327.0 483426.0 0
136327.0 483519.0 0
141630.0 483025.0 0
146538.0 482356.0 0
150825.0 482278.0 0
155802.0 482126.0 0
160574.0 481198.0 0
165293.0 481741.0 0
169684.0 484346.0 0
173637.0 481956.0 0
177427.0 480334.0 0
177371.0 484404.0 0
181672.0 481228.0 0
187030.0 479627.0 0
184946.0 484112.0 0
192104.0 480912.0 0
196405.0 480752.0 0
202852.0 479596.0 0
199587.0 482525.0 0
203814.0 484508.0 0
207720.0 480980.0 0
212682.0 482054.0 0
217334.0 481998.0 0
222053.0 483799.0 0
226162.0 479608.0 0
226992.0 483615.0 0
230177.0 480795.0 0
234029.0 482827.0 0
237903.0 480127.0 0
241170.0 482741.0 0
245758.0 482629.0 0
249988.0 484237.0 0
254013.0 483302.0 0
259260.0 483363.0 0
263691.0 479690.0 0
263156.0 483257.0 0
267021.0 483111.0 0
274051.0 481113.0 0
271123.0 482350.0 0
277771.0 482121.0 0
285227.0 480739.0 0
282217.0 484340.0 0
288725.0 482900.0 0
291955.0 480887.0 0
295385.0 483313.0 0
299565.0 481267.0 0
302774.0 483288.0 0
309074.0 479687.0 0
306379.0 483384.0 0
310186.0 483704.0 0
313126.0 482000.0 0
316631.0 480365.0 0
320527.0 480981.0 0
317011.0 484295.0 0
325355.0 482257.0 0
329394.0 481247.0 0
333117.0 481681.0 0
337279.0 481342.0 0
341458.0 481335.0 0
339242.0 484456.0 0
346078.0 482121.0 0
349983.0 481069.0 0
353930.0 483628.0 0
362153.0 479744.0 0
358617.0 483961.0 0
361708.0 483837.0 0
366563.0 481337.0 0
364587.0 483893.0 0
370486.0 480861.0 0
368247.0 484434.0 0
374901.0 482414.0 0
378256.0 480082.0 0
382599.0 481459.0 0
379212.0 484268.0 0
387127.0 482896.0 0
390296.0 479888.0 0
391084.0 483895.0 0
394311.0 481950.0 0
397631.0 480305.0 0
397440.0 483771.0 0
400987.0 482139.0 0
399407.0 484439.0 0
405033.0 479803.0 0
404765.0 483169.0 0
408173.0 483197.0 0
412437.0 483127.0 0
414393.0 479722.0 0
416534.0 482903.0 0
419609.0 479950.0 0
424038.0 482394.0 0
427701.0 481144.0 0
431639.0 481647.0 0
428727.0 484566.0 0
432782.0 484615.0 0
435863.0 480339.0 0
435118.0 483639.0 0
438459.0 484101.0 0
440169.0 481010.0 0
443586.0 480930.0 0
442384.0 483910.0 0
446707.0 483052.0 0
449741.0 480769.0 0
453160.0 480964.0 0
451276.0 484191.0 0
457263.0 481388.0 0
454690.0 483912.0 0
461259.0 482530.0 0
466073.0 481910.0 0
469629.0 483056.0 0
24209.3 487594.0 0
20942.9 489714.0 0
27116.4 485430.0 0
28527.8 488255.0 0
32032.9 488509.0 0
35686.4 487581.0 0
39581.9 486534.0 0
43636.5 487866.0 0
47705.8 487346.0 0
50656.4 485654.0 0
53793.9 487358.0 0
57339.8 485441.0 0
60658.7 487923.0 0
64487.2 485666.0 0
66853.0 488234.0 0
68422.7 485140.0 0
70408.3 488604.0 0
72296.9 484837.0 0
76516.5 484989.0 0
74210.7 487914.0 0
80253.3 485756.0 0
78259.3 489547.0 0
83690.5 487386.0 0
88003.0 486402.0 0
89592.8 488766.0 0
92676.4 487534.0 0
96844.5 487124.0 0
100354.0 488571.0 0
104175.0 485394.0 0
106759.0 488258.0 0
108998.0 485299.0 0
109802.0 489336.0 0
113177.0 486445.0 0
118233.0 487713.0 0
123124.0 486555.0 0
128191.0 488016.0 0
133741.0 488414.0 0
139092.0 487923.0 0
144455.0 486978.0 0
148463.0 485232.0 0
152079.0 486102.0 0
156028.0 487266.0 0
160890.0 485879.0 0
165979.0 487115.0 0
173445.0 486845.0 0
169843.0 489315.0 0
177234.0 489057.0 0
181325.0 486318.0 0
185128.0 488237.0 0
188861.0 484991.0 0
192091.0 487988.0 0
195328.0 484856.0 0
199403.0 487016.0 0
202934.0 489265.0 0
207942.0 485027.0 0
206989.0 489146.0 0
211554.0 487181.0 0
216367.0 485679.0 0
219405.0 489251.0 0
223519.0 488849.0 0
226329.0 487114.0 0
230077.0 485555.0 0
230337.0 489554.0 0
234018.0 487697.0 0
237983.0 485194.0 0
242464.0 487264.0 0
247539.0 487539.0 0
251847.0 487345.0 0
255840.0 486650.0 0
259162.0 488888.0 0
264028.0 487288.0 0
269942.0 487499.0 0
274195.0 484985.0 0
278202.0 486807.0 0
283817.0 488793.0 0
286404.0 485676.0 0
291534.0 485219.0 0
295193.0 488990.0 0
299613.0 485741.0 0
303788.0 486901.0 0
308735.0 487795.0 0
313346.0 486168.0 0
317588.0 489776.0 0
321447.0 485861.0 0
325823.0 487106.0 0
330767.0 486031.0 0
335849.0 484880.0 0
335050.0 487803.0 0
339210.0 488868.0 0
342766.0 485704.0 0
346574.0 486596.0 0
349842.0 484986.0 0
349307.0 489347.0 0
352467.0 487612.0 0
356823.0 488304.0 0
361913.0 487185.0 0
365842.0 487218.0 0
371959.0 484810.0 0
370005.0 488901.0 0
375433.0 487134.0 0
380445.0 489157.0 0
384188.0 486327.0 0
389234.0 487690.0 0
394415.0 486439.0 0
398628.0 487542.0 0
402349.0 485525.0 0
406216.0 486244.0 0
403207.0 489196.0 0
410538.0 486702.0 0
415804.0 487267.0 0
420091.0 484711.0 0
420703.0 488765.0 0
424267.0 486444.0 0
427848.0 488098.0 0
432281.0 488041.0 0
436138.0 486482.0 0
440809.0 488036.0 0
445005.0 486749.0 0
449185.0 487400.0 0
453909.0 487816.0 0
457950.0 485355.0 0
458455.0 489135.0 0
461551.0 486954.0 0
464324.0 484991.0 0
464944.0 487966.0 0
468677.0 486540.0 0
472527.0 485455.0 0
475440.0 487728.0 0
14632.4 493241.0 0
11805.9 494718.0 0
17487.2 491448.0 0
20473.7 493399.0 0
24949.7 491868.0 0
29559.9 492494.0 0
34076.5 492018.0 0
39007.2 491091.0 0
43081.6 491856.0 0
46550.6 490450.0 0
50995.8 490646.0 0
46110.6 494094.0 0
54607.4 493410.0 0
56585.7 489908.0 0
60028.3 491208.0 0
58493.9 494130.0 0
63780.8 490355.0 0
62412.8 494086.0 0
67385.1 492285.0 0
70455.0 491761.0 0
73584.6 491401.0 0
75830.2 494786.0 0
79462.4 493363.0 0
82669.4 491403.0 0
81678.6 494291.0 0
86926.4 491053.0 0
91434.0 491565.0 0
96249.3 491295.0 0
100372.0 492831.0 0
103697.0 490002.0 0
106944.0 491159.0 0
104582.0 493971.0 0
109408.0 494019.0 0
113812.0 490903.0 0
118248.0 492753.0 0
122197.0 490312.0 0
122032.0 494871.0 0
126296.0 492363.0 0
130496.0 491385.0 0
133300.0 492558.0 0
137293.0 492482.0 0
142706.0 492582.0 0
147284.0 494666.0 0
148643.0 490000.0 0
151153.0 494181.0 0
153329.0 490741.0 0
154785.0 494542.0 0
158637.0 491810.0 0
163265.0 490284.0 0
163223.0 494781.0 0
166511.0 491713.0 0
169711.0 493721.0 0
173590.0 491605.0 0
177572.0 493509.0 0
181327.0 490874.0 0
188424.0 490212.0 0
185149.0 493011.0 0
191692.0 491974.0 0
189110.0 494419.0 0
195827.0 490679.0 0
200120.0 491450.0 0
204122.0 494082.0 0
208228.0 492829.0 0
211711.0 492497.0 0
215210.0 490126.0 0
216276.0 494535.0 0
222066.0 493755.0 0
226648.0 491257.0 0
229860.0 492461.0 0
233684.0 493207.0 0
238149.0 490195.0 0
242014.0 492548.0 0
244942.0 490397.0 0
247284.0 491002.0 0
246317.0 494430.0 0
250392.0 491994.0 0
254774.0 490643.0 0
258113.0 494140.0 0
262739.0 492468.0 0
266885.0 491240.0 0
274620.0 490006.0 0
270763.0 493122.0 0
279721.0 491582.0 0
284690.0 493320.0 0
289026.0 489876.0 0
292979.0 494357.0 0
300538.0 490262.0 0
297927.0 494308.0 0
305043.0 491555.0 0
309804.0 493165.0 0
312845.0 490375.0 0
319355.0 494254.0 0
323035.0 491399.0 0
328608.0 491162.0 0
334464.0 491862.0 0
340113.0 494212.0 0
344460.0 490576.0 0
344649.0 494569.0 0
348997.0 493562.0 0
353116.0 491326.0 0
360616.0 491007.0 0
357277.0 493821.0 0
361868.0 494290.0 0
365377.0 491325.0 0
369188.0 492709.0 0
373354.0 490086.0 0
376666.0 491669.0 0
372601.0 492810.0 0
381028.0 493766.0 0
385671.0 491582.0 0
390158.0 491788.0 0
392691.0 490066.0 0
395901.0 490725.0 0
393223.0 493243.0 0
396708.0 494097.0 0
399894.0 491735.0 0
407709.0 490280.0 0
404389.0 493584.0 0
412591.0 491578.0 0
409011.0 494579.0 0
417722.0 491941.0 0
421861.0 492788.0 0
424874.0 490123.0 0
425767.0 493986.0 0
429085.0 491450.0 0
433242.0 492531.0 0
436802.0 490162.0 0
437203.0 493881.0 0
440934.0 493074.0 0
445937.0 491194.0 0
451007.0 491258.0 0
453023.0 494302.0 0
455347.0 491605.0 0
459282.0 492697.0 0
463182.0 491224.0 0
468216.0 491136.0 0
472308.0 489892.0 0
471392.0 494679.0 0
475169.0 493034.0 0
478771.0 490454.0 0
482897.0 492723.0 0
486456.0 494234.0 0
8959.56 497499.0 0
5538.47 499497.0 0
12680.0 498916.0 0
16513.9 496367.0 0
20509.9 496918.0 0
23344.0 495499.0 0
22963.8 499409.0 0
27039.5 496668.0 0
31916.8 496418.0 0
34417.1 499887.0 0
36726.9 495898.0 0
39320.6 499320.0 0
41273.5 495321.0 0
44277.3 498181.0 0
50369.1 496567.0 0
55851.9 497548.0 0
60592.2 497654.0 0
65833.3 496971.0 0
70836.3 495021.0 0
70016.8 499184.0 0
73278.4 498372.0 0
80033.1 496765.0 0
76725.6 499508.0 0
84755.8 495550.0 0
89122.5 495104.0 0
87529.2 499046.0 0
93442.4 494971.0 0
92044.3 499035.0 0
97191.4 495929.0 0
101273.0 497138.0 0
106128.0 498134.0 0
110840.0 498430.0 0
114165.0 495637.0 0
118150.0 497393.0 0
121946.0 499660.0 0
125839.0 497294.0 0
130284.0 495474.0 0
128808.0 499528.0 0
132487.0 499698.0 0
134999.0 496279.0 0
139477.0 497181.0 0
144571.0 498973.0 0
149321.0 497462.0 0
152975.0 497846.0 0
158303.0 497898.0 0
163011.0 499337.0 0
167082.0 497427.0 0
170396.0 496678.0 0
170799.0 499903.0 0
173854.0 496256.0 0
178365.0 497880.0 0
181378.0 494923.0 0
182620.0 498332.0 0
186206.0 496820.0 0
193222.0 495087.0 0
190236.0 498822.0 0
198153.0 495752.0 0
194519.0 498372.0 0
201923.0 498617.0 0
206181.0 499057.0 0
209202.0 495855.0 0
212484.0 496109.0 0
215925.0 499440.0 0
219451.0 497934.0 0
223838.0 499451.0 0
228895.0 494971.0 0
226088.0 495799.0 0
228360.0 498854.0 0
231367.0 497213.0 0
238420.0 495277.0 0
235199.0 498126.0 0
239210.0 499881.0 0
242545.0 496972.0 0
246603.0 499120.0 0
250167.0 496783.0 0
253751.0 494920.0 0
253740.0 498767.0 0
257719.0 498785.0 0
261780.0 497156.0 0
266303.0 495480.0 0
275375.0 495095.0 0
270573.0 498743.0 0
280717.0 497466.0 0
288775.0 495254.0 0
285808.0 497872.0 0
291304.0 498963.0 0
295387.0 498286.0 0
299598.0 499059.0 0
302437.0 495517.0 0
306634.0 496086.0 0
310341.0 497705.0 0
314837.0 495149.0 0
318799.0 498509.0 0
322761.0 496608.0 0
326336.0 494908.0 0
330751.0 496177.0 0
326874.0 499370.0 0
335850.0 497501.0 0
339755.0 498865.0 0
346916.0 496836.0 0
343096.0 497915.0 0
350879.0 498226.0 0
353152.0 494999.0 0
355631.0 498060.0 0
360431.0 498163.0 0
365613.0 496141.0 0
364419.0 499995.0 0
370664.0 496239.0 0
368408.0 499995.0 0
376365.0 496428.0 0
381241.0 497768.0 0
384645.0 496080.0 0
386596.0 499947.0 0
389492.0 495715.0 0
394367.0 497174.0 0
397787.0 499177.0 0
400567.0 496054.0 0
406039.0 497832.0 0
411491.0 498269.0 0
415155.0 495472.0 0
416593.0 499815.0 0
419920.0 496570.0 0
424413.0 497528.0 0
429938.0 496578.0 0
434412.0 495950.0 0
437672.0 497013.0 0
434658.0 499076.0 0
440897.0 497154.0 0
444836.0 496014.0 0
447790.0 499299.0 0
449195.0 495259.0 0
452583.0 498324.0 0
457220.0 495940.0 0
456992.0 499704.0 0
462298.0 495516.0 0
461132.0 498921.0 0
466541.0 495343.0 0
465451.0 498963.0 0
469922.0 499007.0 0
475294.0 498600.0 0
479383.0 495743.0 0
484360.0 498006.0 0
480262.0 499855.0 0
489425.0 496554.0 0
493123.0 498730.0 0
2117.51 500097.0 0
3338.0 504568.0 0
8990.26 502806.0 0
13531.9 502929.0 0
15959.4 500765.0 0
18945.5 500499.0 0
17131.5 503792.0 0
21484.8 503518.0 0
25880.1 501176.0 0
29823.6 500546.0 0
31854.3 503689.0 0
36746.4 503927.0 0
42523.5 502594.0 0
47779.0 501424.0 0
52879.8 501203.0 0
57921.5 501421.0 0
63036.5 501501.0 0
67838.4 502117.0 0
72708.5 502508.0 0
77100.7 503442.0 0
82525.0 501486.0 0
88391.9 503935.0 0
92931.6 503165.0 0
97277.0 500810.0 0
102510.0 501566.0 0
106697.0 502873.0 0
108899.0 500782.0 0
111345.0 503431.0 0
114716.0 500458.0 0
118447.0 501752.0 0
121479.0 504689.0 0
125570.0 501960.0 0
129750.0 503243.0 0
136349.0 500014.0 0
134472.0 503526.0 0
139938.0 502739.0 0
145464.0 504832.0 0
149377.0 501139.0 0
150399.0 504939.0 0
154455.0 501998.0 0
160412.0 503961.0 0
166514.0 502515.0 0
171428.0 504078.0 0
175161.0 501003.0 0
180351.0 502527.0 0
185752.0 500869.0 0
184575.0 504849.0 0
189140.0 504144.0 0
194091.0 502466.0 0
198501.0 500864.0 0
202726.0 503268.0 0
207469.0 503174.0 0
211333.0 500291.0 0
219333.0 502168.0 0
215167.0 503857.0 0
223103.0 504616.0 0
227616.0 503150.0 0
231914.0 501169.0 0
236139.0 503216.0 0
243198.0 500937.0 0
241150.0 504817.0 0
245820.0 503623.0 0
250626.0 502449.0 0
255706.0 502371.0 0
259061.0 505000.0 0
260683.0 501366.0 0
265020.0 500617.0 0
268300.0 503889.0 0
272022.0 503485.0 0
274941.0 504706.0 0
275850.0 500408.0 0
280260.0 503487.0 0
284040.0 501412.0 0
287740.0 501318.0 0
291355.0 504006.0 0
296560.0 503134.0 0
304611.0 500005.0 0
301433.0 503175.0 0
308839.0 501882.0 0
314131.0 501400.0 0
319009.0 503146.0 0
322804.0 501456.0 0
326780.0 504403.0 0
331941.0 501842.0 0
337242.0 502053.0 0
341860.0 502423.0 0
346385.0 500665.0 0
350348.0 503145.0 0
353879.0 501410.0 0
357628.0 502333.0 0
362007.0 503155.0 0
365918.0 503012.0 0
370192.0 504567.0 0
373428.0 500640.0 0
378692.0 501518.0 0
382564.0 500423.0 0
380175.0 504385.0 0
383581.0 504183.0 0
391598.0 500609.0 0
388985.0 504925.0 0
395302.0 501076.0 0
394213.0 504833.0 0
398577.0 503187.0 0
401778.0 500094.0 0
404955.0 501323.0 0
403242.0 503831.0 0
408798.0 503004.0 0
413648.0 502008.0 0
417357.0 503857.0 0
421744.0 501534.0 0
427110.0 500779.0 0
431560.0 500554.0 0
430519.0 504083.0 0
434887.0 502746.0 0
438677.0 500681.0 0
438041.0 504949.0 0
441559.0 503485.0 0
443513.0 500105.0 0
446038.0 504005.0 0
450647.0 502563.0 0
454885.0 501665.0 0
459579.0 503433.0 0
463906.0 502118.0 0
467724.0 502710.0 0
472962.0 503709.0 0
478668.0 503829.0 0
483768.0 502737.0 0
488967.0 501576.0 0
494207.0 503194.0 0
497326.0 500069.0 0
498297.0 503221.0 0
8334.42 507607.0 0
13427.4 507057.0 0
19101.1 507299.0 0
26418.0 506142.0 0
29937.5 510022.0 0
32464.8 507379.0 0
36455.8 509398.0 0
40996.2 507376.0 0
44486.7 509952.0 0
46026.5 505945.0 0
50317.4 505214.0 0
49462.8 509936.0 0
54673.0 505382.0 0
60196.6 506529.0 0
65420.3 505695.0 0
63940.5 508183.0 0
69845.3 506545.0 0
75083.0 507553.0 0
79900.5 506264.0 0
79640.4 509765.0 0
84181.6 507149.0 0
88836.8 509703.0 0
91974.8 506518.0 0
95358.4 505271.0 0
94881.4 509873.0 0
99778.6 506171.0 0
104280.0 505490.0 0
104334.0 509453.0 0
107976.0 506817.0 0
111919.0 507540.0 0
116182.0 505487.0 0
119911.0 508869.0 0
125884.0 506308.0 0
131065.0 508181.0 0
136938.0 507433.0 0
141291.0 507224.0 0
144227.0 509885.0 0
149104.0 509535.0 0
154729.0 507599.0 0
164049.0 507104.0 0
167951.0 507475.0 0
164674.0 510191.0 0
172250.0 508056.0 0
176096.0 505769.0 0
181152.0 508684.0 0
186974.0 508554.0 0
193179.0 508275.0 0
198168.0 505308.0 0
197596.0 508640.0 0
201239.0 509057.0 0
206059.0 507339.0 0
210927.0 505683.0 0
218841.0 507118.0 0
214437.0 508164.0 0
223882.0 508728.0 0
227347.0 507543.0 0
231995.0 506516.0 0
237190.0 507936.0 0
245554.0 508618.0 0
250149.0 507226.0 0
254483.0 506671.0 0
263808.0 505674.0 0
268102.0 508019.0 0
272746.0 508344.0 0
277249.0 507253.0 0
281809.0 508843.0 0
286366.0 505671.0 0
290073.0 508205.0 0
294608.0 508377.0 0
300442.0 508008.0 0
305513.0 505352.0 0
310797.0 506279.0 0
307431.0 509935.0 0
316330.0 507395.0 0
322087.0 506714.0 0
326479.0 509420.0 0
330813.0 507064.0 0
334989.0 505732.0 0
339058.0 505727.0 0
345987.0 505634.0 0
342300.0 508843.0 0
350238.0 507229.0 0
354287.0 505839.0 0
352660.0 510069.0 0
359184.0 507502.0 0
365198.0 507743.0 0
370382.0 509387.0 0
372848.0 507323.0 0
375420.0 505110.0 0
374685.0 509593.0 0
379840.0 508288.0 0
385746.0 508944.0 0
391706.0 509585.0 0
395975.0 508781.0 0
400750.0 507905.0 0
405725.0 506694.0 0
409632.0 508353.0 0
413437.0 505856.0 0
417195.0 507562.0 0
421177.0 506753.0 0
425892.0 505236.0 0
429982.0 508353.0 0
433459.0 509834.0 0
434024.0 506480.0 0
437268.0 508674.0 0
441949.0 507533.0 0
446314.0 508279.0 0
450131.0 507288.0 0
454915.0 505845.0 0
459568.0 508540.0 0
464402.0 506385.0 0
468887.0 506632.0 0
472359.0 508405.0 0
476309.0 508013.0 0
482975.0 506322.0 0
480293.0 507981.0 0
487606.0 506472.0 0
492787.0 507061.0 0
497871.0 506093.0 0
497497.0 509788.0 0
3686.61 510813.0 0
10250.1 511913.0 0
15841.8 511719.0 0
22065.9 511316.0 0
22693.1 515142.0 0
26730.8 511360.0 0
30051.6 513867.0 0
25735.1 514630.0 0
32895.1 511247.0 0
35740.8 513710.0 0
40341.4 512585.0 0
45410.7 514289.0 0
55077.4 510671.0 0
51209.9 515299.0 0
60876.3 512101.0 0
66178.6 510662.0 0
71250.4 511299.0 0
75991.7 512472.0 0
80004.6 513465.0 0
83785.0 511628.0 0
87175.7 514620.0 0
91728.0 514201.0 0
100146.0 510978.0 0
103558.0 513970.0 0
109189.0 511771.0 0
114971.0 510632.0 0
119444.0 514190.0 0
125367.0 511609.0 0
130435.0 513062.0 0
134840.0 512113.0 0
139707.0 511352.0 0
143265.0 514547.0 0
147842.0 514413.0 0
153931.0 514443.0 0
159964.0 510590.0 0
168021.0 512332.0 0
163911.0 514629.0 0
171397.0 511139.0 0
171217.0 514012.0 0
175569.0 511206.0 0
179813.0 514745.0 0
184991.0 513147.0 0
189651.0 512329.0 0
193464.0 514497.0 0
197318.0 512118.0 0
201500.0 514161.0 0
204843.0 511675.0 0
210170.0 511520.0 0
216251.0 512861.0 0
221019.0 511473.0 0
229515.0 510753.0 0
225601.0 513241.0 0
233966.0 511905.0 0
240629.0 512287.0 0
252038.0 511099.0 0
258876.0 510396.0 0
264473.0 510591.0 0
269532.0 512937.0 0
276773.0 512139.0 0
282973.0 513719.0 0
286766.0 510953.0 0
291998.0 514130.0 0
297546.0 512498.0 0
303640.0 511658.0 0
306558.0 514772.0 0
311958.0 510864.0 0
311235.0 515161.0 0
316822.0 513731.0 0
322181.0 511557.0 0
326092.0 514788.0 0
331170.0 512312.0 0
336967.0 510576.0 0
341971.0 514623.0 0
347483.0 511253.0 0
356585.0 512201.0 0
352053.0 514677.0 0
362000.0 512845.0 0
367512.0 512815.0 0
372197.0 513225.0 0
377349.0 514047.0 0
382929.0 513264.0 0
388297.0 513509.0 0
393999.0 515062.0 0
398087.0 512227.0 0
401991.0 512683.0 0
405532.0 510736.0 0
409614.0 512934.0 0
413221.0 515055.0 0
414303.0 510773.0 0
419225.0 510849.0 0
421866.0 513905.0 0
425375.0 510455.0 0
430740.0 513155.0 0
435674.0 512919.0 0
440051.0 511751.0 0
444465.0 512058.0 0
447796.0 515131.0 0
449293.0 511461.0 0
454532.0 511173.0 0
459211.0 512698.0 0
463653.0 511218.0 0
468863.0 510867.0 0
466326.0 514729.0 0
474224.0 512265.0 0
479178.0 511753.0 0
482363.0 514121.0 0
484439.0 510507.0 0
489799.0 510830.0 0
493692.0 510517.0 0
493587.0 514276.0 0
498005.0 513611.0 0
3200.42 516684.0 0
8179.89 515716.0 0
12642.8 515935.0 0
10448.5 520006.0 0
15292.6 519929.0 0
18962.2 516240.0 0
23851.9 518174.0 0
28201.9 517737.0 0
33138.2 517871.0 0
38661.0 516945.0 0
40056.9 520151.0 0
42978.5 518649.0 0
47211.5 518221.0 0
50220.7 519883.0 0
54152.3 519689.0 0
56709.9 515720.0 0
58045.1 519740.0 0
61844.7 517053.0 0
65153.3 519842.0 0
67033.2 515790.0 0
72462.6 516312.0 0
77826.8 517007.0 0
82859.0 516670.0 0
89458.4 517950.0 0
93073.5 518912.0 0
97546.7 515623.0 0
102598.0 518922.0 0
107347.0 516789.0 0
110809.0 515547.0 0
111719.0 519205.0 0
114133.0 515314.0 0
116759.0 519166.0 0
123895.0 517077.0 0
128221.0 516306.0 0
133060.0 516968.0 0
137665.0 515440.0 0
137052.0 520235.0 0
140583.0 517876.0 0
144621.0 519187.0 0
149342.0 518866.0 0
153476.0 520232.0 0
157942.0 519585.0 0
159626.0 515618.0 0
162969.0 519554.0 0
168543.0 517500.0 0
174402.0 516826.0 0
178922.0 520258.0 0
188459.0 516691.0 0
183951.0 518197.0 0
197471.0 517077.0 0
206109.0 515968.0 0
279735.0 516081.0 0
286499.0 515759.0 0
296872.0 517491.0 0
301436.0 515516.0 0
308714.0 519200.0 0
314070.0 519544.0 0
319323.0 519168.0 0
321725.0 515768.0 0
323861.0 519093.0 0
330423.0 517956.0 0
335328.0 516230.0 0
339143.0 519991.0 0
343635.0 519307.0 0
347286.0 516890.0 0
356414.0 517048.0 0
361330.0 518579.0 0
365496.0 516458.0 0
369951.0 517346.0 0
374965.0 519059.0 0
380538.0 518772.0 0
385037.0 517401.0 0
389523.0 518761.0 0
393681.0 520152.0 0
397512.0 519420.0 0
400241.0 516177.0 0
405303.0 515983.0 0
407402.0 520261.0 0
410154.0 517483.0 0
413999.0 518214.0 0
417412.0 515438.0 0
421792.0 518647.0 0
426363.0 515836.0 0
430602.0 518221.0 0
435027.0 517590.0 0
439150.0 515571.0 0
443665.0 517331.0 0
439429.0 519788.0 0
448631.0 519480.0 0
451973.0 515632.0 0
456727.0 515966.0 0
458601.0 519404.0 0
461863.0 516432.0 0
466680.0 519194.0 0
470421.0 515541.0 0
471082.0 519620.0 0
478782.0 515784.0 0
474974.0 517379.0 0
482226.0 517373.0 0
487624.0 516180.0 0
492977.0 518880.0 0
497552.0 517542.0 0
2037.28 521471.0 0
6090.29 520569.0 0
8148.5 524682.0 0
12923.7 523816.0 0
17696.7 524394.0 0
20577.1 520852.0 0
23062.8 524054.0 0
26701.1 521711.0 0
31793.7 523625.0 0
36811.2 521389.0 0
40921.2 523179.0 0
46150.1 522909.0 0
51694.5 523547.0 0
56565.9 523466.0 0
61259.7 522089.0 0
65365.8 523236.0 0
69581.4 521259.0 0
75254.5 521256.0 0
80494.8 521188.0 0
85969.0 520972.0 0
87658.5 525473.0 0
90991.4 522805.0 0
96883.4 521723.0 0
101329.0 523986.0 0
107069.0 522656.0 0
112430.0 523895.0 0
117064.0 524215.0 0
121493.0 521450.0 0
127014.0 521124.0 0
124404.0 524937.0 0
132350.0 522535.0 0
141132.0 521508.0 0
138436.0 524723.0 0
147083.0 522515.0 0
143458.0 525356.0 0
150826.0 523128.0 0
155724.0 524810.0 0
171917.0 521241.0 0
334164.0 520935.0 0
346537.0 521235.0 0
343038.0 523410.0 0
351886.0 520893.0 0
347850.0 524638.0 0
354812.0 525163.0 0
357660.0 522264.0 0
366189.0 520785.0 0
362340.0 523860.0 0
371054.0 522514.0 0
375873.0 524864.0 0
377835.0 521502.0 0
380508.0 523575.0 0
385347.0 522424.0 0
391120.0 523380.0 0
395930.0 523913.0 0
402572.0 521078.0 0
406979.0 524014.0 0
411853.0 522136.0 0
417031.0 520653.0 0
421208.0 523733.0 0
426653.0 520931.0 0
431852.0 523741.0 0
435994.0 521474.0 0
439226.0 525034.0 0
444626.0 522776.0 0
454064.0 520518.0 0
449757.0 524433.0 0
458669.0 523298.0 0
462532.0 521178.0 0
462730.0 525391.0 0
465549.0 522991.0 0
469280.0 523294.0 0
474331.0 522573.0 0
479046.0 520423.0 0
484265.0 521333.0 0
480995.0 525053.0 0
489579.0 521599.0 0
486966.0 524769.0 0
493878.0 523090.0 0
490525.0 525053.0 0
497913.0 521589.0 0
2790.23 525898.0 0
7803.6 529656.0 0
11677.0 527672.0 0
15845.3 528929.0 0
21598.5 528899.0 0
26853.0 526558.0 0
30593.3 527889.0 0
33439.4 530527.0 0
37110.7 526522.0 0
42672.7 527416.0 0
48994.9 528241.0 0
53728.6 526876.0 0
57854.3 528321.0 0
62882.7 526671.0 0
66100.4 530123.0 0
67831.6 526056.0 0
72733.9 525915.0 0
75944.8 530339.0 0
77998.9 525555.0 0
81188.9 530515.0 0
83113.3 525658.0 0
86446.4 529948.0 0
90763.9 527951.0 0
94561.8 525911.0 0
94371.0 530566.0 0
98677.7 527870.0 0
104429.0 528958.0 0
109816.0 527309.0 0
114284.0 528464.0 0
120890.0 527894.0 0
128520.0 526157.0 0
134678.0 526679.0 0
358465.0 527250.0 0
366998.0 525766.0 0
363286.0 529207.0 0
371605.0 527602.0 0
378374.0 529137.0 0
383149.0 527665.0 0
388129.0 526848.0 0
392799.0 527669.0 0
397098.0 529406.0 0
400335.0 525957.0 0
404801.0 528193.0 0
410567.0 527877.0 0
416258.0 525914.0 0
421164.0 528977.0 0
425973.0 526061.0 0
429895.0 528881.0 0
435016.0 529626.0 0
440654.0 530379.0 0
443960.0 527383.0 0
447979.0 528901.0 0
454621.0 525886.0 0
458876.0 527900.0 0
463297.0 530109.0 0
466797.0 526872.0 0
472136.0 527038.0 0
476674.0 526585.0 0
479594.0 529413.0 0
484309.0 528822.0 0
489273.0 528719.0 0
493731.0 527600.0 0
497787.0 525652.0 0
497580.0 530069.0 0
2905.48 531375.0 0
1222.88 535105.0 0
7357.41 534872.0 0
12142.4 532259.0 0
17895.8 534370.0 0
24490.0 534567.0 0
28608.9 531088.0 0
39430.0 531328.0 0
35833.2 535201.0 0
44815.0 532106.0 0
49715.6 533899.0 0
53593.0 530976.0 0
57424.4 533251.0 0
60682.4 535662.0 0
61688.1 531626.0 0
70735.1 530740.0 0
67107.9 535588.0 0
73476.4 535013.0 0
100055.0 531357.0 0
109504.0 531605.0 0
389660.0 531981.0 0
401238.0 532145.0 0
407160.0 532725.0 0
411509.0 532942.0 0
415084.0 530860.0 0
418954.0 534061.0 0
426230.0 531006.0 0
424329.0 535345.0 0
430642.0 533394.0 0
435495.0 535384.0 0
440233.0 534885.0 0
445072.0 532945.0 0
452918.0 530836.0 0
449652.0 534865.0 0
458490.0 533126.0 0
463982.0 535524.0 0
469048.0 531772.0 0
475172.0 531094.0 0
478166.0 535181.0 0
481761.0 532796.0 0
486745.0 534016.0 0
492869.0 532847.0 0
497911.0 534461.0 0
3460.54 536294.0 0
11898.9 537124.0 0
15411.0 538721.0 0
41335.9 536139.0 0
473194.0 536131.0 0
490584.0 537686.0 0
495164.0 537353.0 0
POINT_DATA 5000
SCALARS Radius float 1
LOOKUP_TABLE default
5258.36 5061.3 3163.97 3642.12 5812.43 5906.14 5580.89 6810.52 5415.48 5120.0 6182.6 5492.18 3951.75 5867.73 4499.64 5542.27 5122.66 5484.19 7513.1 5254.28 4402.52 4436.4 5733.48 4182.53 3588.44 5645.7 5553.16 6110.27 2938.66 4008.92 5840.26 5073.35 4834.9 3863.18 2356.98 5484.83 4998.37 5538.89 5351.6 4730.36 4715.55 5013.56 6059.59 4375.68 5054.98 6030.06 5170.02 3557.27 4927.31 4688.68 5185.34 4517.56 5903.42 4672.91 3761.32 5176.86 4366.19 4118.05 3672.51 5065.13 4940.78 5561.06 5670.04 6044.04 5085.53 5926.61 2720.68 5701.86 4955.55 4238.81 3563.63 4468.59 5325.02 5885.03 5200.76 4862.64 4432.58 5205.43 6684.56 3955.56 2635.86 5292.64 6166.5 5936.02 3615.22 5305.17 4380.59 6716.79 3850.77 5325.36 6759.9 7021.47 5416.38 6051.14 4195.44 5836.15 4345.55 2837.58 3653.41 5246.2 3871.88 5017.13 4827.23 3673.74 6116.18 3968.64 4688.67 4385.06 7184.19 4231.61 4290.3 3942.53 3379.84 7613.27 5546.39 4094.62 5945.65 5418.62 5493.32 4601.27 5740.68 4277.89 3261.21 6704.06 5600.93 3856.01 4390.66 5279.39 4911.47 5803.39 7447.37 4924.6 3255.82 4733.32 2812.98 3867.67 2899.43 2924.37 4861.08 4003.05 4827.82 3607.45 3589.27 4951.03 4133.88 4927.02 6483.19 6230.49 7054.71 5489.43 3641.64 5747.75 4796.33 5539.32 6496.85 5541.59 4124.71 5728.85 6337.56 4381.97 6257.19 5242.73 4737.14 5603.15 4065.69 5399.73 4712.33 4805.87 5759.91 4333.2 4665.12 3936.02 5980.74 4174.52 5109.54 3829.13 6458.82 5054.25 5527.54 7325.81 4055.8 5360.19 4794.96 4874.39 4839.34 5083.08 2980.99 6834.49 5525.39 3998.5 5938.34 5863.59 4024.3 5555.28 4686.65 4695.45 4660.72 5390.22 6038.78 5227.21 3997.1 5123.52 3260.67 3383.4 3856.1 5816.2 4044.71 5693.81 3091.3 2540.31 5789.98 6138.47 5573.7 4727.62 5206.78 6425.26 6186.19 4840.01 5611.2 7933.0 5173.87 6394.38 5118.27 5169.36 5834.74 5556.96 3888.21 6052.7 5697.78 4295.38 4667.36 3038.33 4392.68 4780.03 3554.9 5495.39 4487.31 4002.16 4778.34 4138.16 6029.66 5697.4 4270.95 4005.44 5280.17 5028.96 5143.58 6362.12 4484.76 5152.36 4220.65 4455.12 5380.13 5711.87 5932.23 5581.75 5788.23 3666.57 3798.62 3921.18 5891.05 6902.81 5252.48 3996.0 4015.92 5708.81 4684.5 5120.49 6302.8 5409.61 6038.2 5555.88 6732.43 3866.16 3183.98 4524.28 4511.82 5826.64 6820.42 4894.16 4816.2 4896.52 4941.22 5791.61 6392.01 6644.76 4254.17 5615.42 4091.31 7199.21 5529.52 6124.89 5542.21 5924.89 5043.05 3486.22 4414.54 5201.36 5262.61 5713.22 5094.81 5861.71 5017.78 3794.63 3778.1 4727.24 6959.81 4829.35 6321.41 4751.02 3372.79 5184.56 5282.64 4479.66 3369.13 5308.1 6730.19 6372.62 7565.34 4523.7 5337.48 5481.78 4937.14 6894.71 5551.36 6038.14 4306.53 6135.57 5972.06 4312.67 4359.04 5015.69 4947.52 6175.81 4520.1 6677.09 5813.4 5201.67 4089.76 5526.55 3192.41 4987.87 4715.72 5367.2 3043.85 5461.13 4907.89 5629.19 4937.02 5255.32 5637.59 6084.86 3307.12 3115.91 4467.94 5478.92 4933.21 4850.81 4723.12 5024.9 5659.17 5998.38 4270.24 4989.15 5423.8 4164.13 3417.33 4642.34 5874.89 4305.57 3791.79 4293.03 4424.7 4754.05 4951.47 6084.93 4669.66 3315.57 5607.24 4808.52 4726.76 3599.45 5655.21 5091.39 6756.95 6037.08 4049.23 3103.0 3586.91 4948.92 5810.84 5094.44 4655.49 5375.47 4809.42 4717.05 5287.2 4562.29 4234.94 5013.13 5080.66 4926.42 5153.74 4165.81 4528.09 3556.85 4389.21 4128.98 4925.44 5246.61 5215.15 5046.33 4764.96 5053.92 5839.13 5090.24 5923.5 2240.39 5601.05 4382.74 4516.43 4749.8 3748.24 4230.54 4566.18 6163.38 3459.9 4964.09 5856.11 4109.88 4980.85 5714.58 5110.45 3329.99 5248.77 4083.97 5208.32 3895.51 6291.51 6246.22 4307.28 4100.38 5804.71 5020.12 6352.26 3735.44 4073.93 4786.6 4645.41 5740.84 5096.78 4727.24 6324.23 4651.28 4384.42 4493.48 4362.19 5082.6 4093.08 4997.27 5543.27 3327.49 3960.8 5992.26 4923.9 4973.78 3947.47 4607.02 3296.27 6673.96 5174.89 5882.89 4188.32 5538.93 5727.3 4242.52 3847.38 4907.06 3057.03 5163.9 4433.59 4973.83 4612.68 3320.52 6355.42 5690.56 3693.63 3937.74 5478.47 6061.47 4449.22 5806.08 4853.39 5628.24 5365.89 5070.39 4511.54 4613.31 5196.0 5091.68 4204.84 6119.09 4713.25 5069.25 6243.0 5441.96 4288.3 3435.9 5370.52 5774.81 4739.42 3697.96 4899.11 4723.48 4278.07 4745.45 5356.51 3818.59 5495.68 6043.3 5530.87 3912.37 4310.18 4929.8 4151.94 5244.78 5762.84 6142.37 5119.37 3982.23 5243.29 3130.65 5004.67 5409.33 4178.15 7531.29 5935.03 5048.89 3991.03 3161.47 4652.29 4495.87 5027.98 5344.77 5097.87 5281.28 4863.72 2631.9 4087.15 4143.08 5489.34 5952.75 6445.94 4281.49 4129.43 4320.28 5927.43 4685.34 5492.26 4220.88 6640.13 5351.39 4336.42 3402.32 4583.31 7589.94 4466.03 4898.94 4733.04 5788.66 4755.47 6390.78 6826.57 3746.31 4788.87 5346.27 7267.18 4758.21 5002.48 5708.14 4262.82 5537.72 6342.25 6327.9 6519.71 3092.35 3629.96 5210.03 4306.11 6022.17 5903.66 5419.37 5985.29 4528.49 4247.23 4268.65 4694.83 4354.08 4485.99 3903.75 4520.62 5475.8 7435.25 5498.32 5543.46 6475.1 6255.18 2691.29 7500.97 3920.42 6332.36 5542.14 4218.06 4931.53 3843.58 6082.81 5449.18 5367.52 4714.54 5030.91 3320.11 5507.24 4503.89 6851.54 5313.66 5935.47 5275.32 5512.23 4649.22 5509.42 5475.7 5936.36 5314.69 6050.81 6022.72 4643.31 5527.33 4969.21 6256.02 4277.88 6623.85 8332.24 7134.64 6691.39 4602.25 5293.9 3191.99 5110.37 4048.37 5664.98 4322.15 4659.59 5101.59 3813.22 5570.3 2651.49 5234.29 4711.62 4114.24 5349.31 5394.55 2976.22 4256.43 2682.24 5229.48 5415.19 4016.18 5127.16 5435.74 4249.46 4244.99 5560.26 5965.81 6917.52 2330.66 4177.19 5402.21 4668.71 3691.0 2845.98 7228.46 5102.36 5228.18 5787.31 6122.55 5480.13 6142.94 4931.38 4736.58 4548.16 3485.26 3240.09 4556.36 5025.39 3688.8 4377.07 3695.36 5893.5 3848.93 6020.48 5200.05 4645.58 5670.2 4091.8 5094.52 5166.79 5928.32 3950.63 5526.75 4275.57 3619.07 5327.45 6185.89 3702.37 3990.25 4752.51 4880.14 5320.92 3948.23 6362.14 6719.88 4342.9 5978.82 5978.9 2739.94 4270.53 4194.5 4329.05 4792.73 3369.23 5264.06 4515.71 5358.59 4547.19 3817.13 5023.15 3963.86 3844.9 5076.35 5273.35 5181.4 6259.23 4662.56 5417.15 3457.48 4946.74 5996.33 4612.62 6385.23 4467.04 2983.99 3997.96 5660.85 4750.17 3460.94 6184.4 3758.07 3587.05 4373.45 4989.09 4982.31 5269.18 4406.1 6155.31 6308.71 4790.08 4187.56 5082.47 5513.6 5138.31 4901.41 4551.24 6202.55 6387.01 7111.16 4871.44 6375.99 4853.02 5088.44 4998.21 3405.98 3931.07 7440.72 3688.16 4681.72 3949.6 6631.19 5661.62 5817.25 5626.61 2614.4 4439.35 6363.92 6205.93 6229.37 3828.81 5309.98 5289.52 5034.59 5314.85 5065.11 4553.56 5911.67 4223.33 5069.84 3629.62 5329.64 4840.84 4997.27 3708.04 3610.4 4621.75 4581.13 6338.89 6480.17 5584.06 4564.34 3838.56 6248.81 5872.05 6079.11 4256.67 4945.39 5376.71 4867.08 5407.78 6648.68 6632.99 5061.98 4923.24 5830.72 7177.44 4307.48 6718.19 4305.43 5450.44 3848.54 4942.77 3927.99 5266.5 5868.82 3323.28 4051.44 4301.06 5344.25 4501.51 6013.14 4602.86 3856.59 2765.2 4219.07 5372.61 5413.79 3686.21 6445.22 4962.77 4427.28 5323.3 3082.32 6430.39 4765.02 3658.37 4448.13 5703.6 5070.29 6326.18 4713.74 4266.03 4537.6 6179.96 4419.61 6260.79 4407.87 4082.57 4236.14 5080.18 5941.4 4454.63 4263.33 4716.19 4050.9 6695.82 5135.69 5514.76 5344.0 3456.98 5191.63 5379.87 5925.6 5572.95 3979.82 6723.16 4746.52 5402.24 4948.5 5013.42 5651.07 5210.48 6101.92 3627.55 4635.6 6239.84 5370.85 3178.54 5629.39 6157.04 2684.03 4807.28 4768.61 2261.36 4084.49 5075.55 4220.03 5703.07 5449.46 5147.36 4662.43 4563.46 3963.76 5169.9 5733.62 5282.91 6510.17 4871.96 4066.38 4523.88 6049.55 5709.62 6405.76 4290.14 4593.7 5987.17 4043.57 5586.81 5006.58 5130.91 3868.18 3689.45 4527.02 5383.07 7552.94 4519.22 4409.63 5865.39 5521.25 5949.46 3661.9 3776.94 5246.47 4010.57 4522.21 5280.69 6923.84 6166.29 6113.54 4043.66 5294.77 6553.94 4425.84 5282.51 3797.33 5331.02 7256.35 5742.65 5592.32 4241.89 5835.78 5054.74 4877.67 4020.32 6045.46 4763.45 4138.42 4481.53 3824.16 5011.31 5330.45 5077.33 3948.17 4531.14 4959.34 4247.15 4602.85 7644.38 4051.34 6004.68 5278.36 5136.08 5107.23 4187.31 5558.68 3240.51 5506.19 6191.29 6719.94 5161.01 4950.67 5453.6 4709.05 3077.84 5255.18 5528.53 3004.16 4460.92 5460.65 5945.89 4105.55 4800.69 3279.1 5912.61 4978.31 4099.77 4981.9 3498.2 4245.72 5941.72 3815.26 4150.99 4292.06 5681.38 6318.18 5045.38 5350.88 5125.78 4790.78 5452.83 4591.87 6552.22 6422.84 5379.09 5534.94 5180.76 6799.4 6218.95 5222.16 5533.42 4802.32 4599.38 5730.33 7422.36 4527.99 4628.4 5409.63 5227.59 6051.83 4630.82 4813.08 5726.66 6799.88 4767.78 3062.43 5426.78 4042.28 4863.23 4402.67 4403.98 5381.16 4948.98 5794.24 4537.32 6562.18 4216.92 4478.15 5147.67 3771.48 5577.04 4986.77 6034.41 5178.99 4027.09 5801.99 4502.18 3312.06 3361.26 4993.35 4690.55 5533.72 3678.08 5146.37 5518.57 5463.48 4543.1 5545.46 4376.7 5190.61 5832.37 4298.15 3973.12 4642.93 4263.16 6024.75 5860.67 4540.86 5990.52 5235.17 3555.86 6566.1 4560.84 6386.78 5227.52 4414.48 6086.96 5163.02 4127.74 4541.21 4704.72 5908.1 5445.87 5198.77 4107.03 5423.0 5643.58 5215.05 5137.34 5197.52 5344.43 5615.35 6169.11 4135.62 5266.22 4860.33 4983.39 3685.13 3418.99 5366.52 4480.95 7132.12 5417.8 4836.16 5680.94 5581.55 6550.44 3764.06 5941.9 6642.76 5987.42 6109.49 3764.1 4340.76 5652.0 4421.12 4435.36 6065.22 5565.13 4996.99 3066.13 6193.35 2476.04 4302.5 6048.7 4571.7 4177.94 4850.01 4138.46 2775.04 3975.31 5198.29 4044.45 4373.47 6070.58 5490.43 4896.11 5022.28 5172.53 4318.48 6132.95 5226.97 5754.18 4558.15 5132.68 6552.21 5227.02 4232.16 5151.11 5300.96 5670.0 5193.01 8325.01 4440.81 4523.39 5829.22 5567.93 2967.38 4835.83 5811.18 5463.41 4929.75 5254.49 6045.22 4470.61 4221.28 4456.39 4656.78 4156.38 4631.83 4092.24 6009.88 4344.58 5896.46 3970.25 4271.69 6035.6 4285.32 3627.82 5262.19 6449.45 4285.66 5339.38 5008.63 4004.35 4763.96 3872.61 4270.74 3450.93 6293.89 5737.75 6595.03 4350.12 3603.51 3834.43 6609.84 4344.51 4707.06 5491.37 3781.77 3474.5 6348.03 3860.83 4792.39 5732.27 5434.47 4497.78 4243.79 5332.65 4779.5 4237.98 4159.35 6439.37 6649.96 4896.39 3701.27 4729.43 5105.16 5991.09 5126.91 6006.16 4164.68 4742.68 4810.12 6898.19 3821.72 5526.14 4244.9 4470.4 4986.51 5311.03 3930.79 5293.51 4238.4 5365.24 5097.45 4446.06 4047.87 5742.47 3778.02 4095.75 2761.07 4367.78 5135.96 5222.51 6074.94 5658.37 4250.88 3475.67 5278.56 7038.89 5146.37 6917.62 5433.65 6451.33 5604.35 5225.33 3091.67 4614.3 4384.88 4332.87 5233.78 6887.27 4562.74 6008.49 4806.34 4678.38 5050.65 5634.83 5316.75 3633.87 3929.19 7099.43 6396.74 4516.28 5315.4 4611.53 6048.86 6894.26 5255.12 6625.18 4573.72 4185.61 4917.99 5099.21 3319.67 4076.59 4298.45 5636.4 4972.17 5164.1 4428.14 5699.53 3783.54 5527.23 4222.77 5268.38 3863.67 4805.33 5631.14 6137.8 4814.12 5067.56 4442.22 4887.76 5413.31 6477.91 4303.19 3633.79 4081.97 5514.84 6081.14 5421.53 3942.07 5480.83 5448.61 4827.33 5495.84 6268.1 5347.48 5922.5 5776.37 5486.68 5100.25 5094.48 5678.96 2681.29 6408.83 5576.92 5323.91 4586.19 4296.69 6969.28 4163.74 5283.8 6471.42 6464.15 6016.19 6685.4 4850.06 6332.01 7044.29 5980.95 4013.38 4343.78 3012.99 5263.3 6316.56 5401.99 6420.81 3914.2 5653.9 5134.39 5776.57 7144.24 5133.97 6600.94 7443.72 5022.8 4502.5 4374.35 4011.77 4527.08 2965.79 4287.63 5805.86 5346.68 4049.02 5296.29 5997.88 6234.32 4360.23 4585.31 4570.98 4275.07 5698.96 3665.95 6238.32 6372.13 4124.49 5369.5 4479.11 5714.25 3230.13 5325.96 5016.02 7085.01 4581.37 4234.18 3352.35 6193.08 4909.65 2735.53 5116.6 4008.15 4811.32 4669.06 4286.49 6400.08 5580.92 4256.57 4607.85 4220.46 3600.43 5683.26 5371.02 4906.82 3784.5 3937.08 5499.11 5113.21 5252.34 4410.55 3921.08 4190.31 5683.61 4558.46 5020.71 5839.71 5737.92 3755.95 5889.35 5010.04 5388.78 5825.38 5599.7 6804.79 5642.35 5535.91 5404.01 6176.67 5955.86 4533.37 5412.24 5887.38 4920.21 4049.16 3936.95 6069.3 6153.94 5887.01 6523.86 7693.4 4715.58 4743.59 3317.83 5784.3 4287.53 3532.3 5598.74 6088.68 5131.24 6070.3 5513.57 6133.92 4862.21 5782.6 6261.42 5965.78 6125.34 4274.61 5083.41 7055.42 5443.58 3836.45 5731.57 5662.55 5464.68 3056.7 2685.81 5591.76 5896.26 4394.56 6101.13 4587.67 5951.81 6918.35 4834.3 4066.57 6357.47 4793.65 4891.38 4532.89 2949.12 6040.74 2779.99 4848.46 5851.61 6942.34 3658.05 3862.77 6836.82 3858.17 5168.35 4631.99 3747.03 2783.85 6184.88 4326.48 5208.14 5829.32 4450.7 5769.98 5973.33 5937.08 2221.99 4643.56 4788.58 6155.1 7055.53 5013.67 5260.34 3719.84 4178.4 5669.65 5729.23 5011.84 5253.55 7034.11 5820.48 2586.12 5433.8 5564.02 5975.63 6444.77 6314.07 6248.6 5687.85 6401.43 5703.74 4747.55 4539.07 4475.83 4510.8 7509.24 5093.82 5756.75 3924.14 6318.23 6348.54 5156.76 6101.57 5948.71 3856.53 5460.89 5742.09 5260.85 2884.65 4393.16 3311.29 5807.46 5478.11 5030.15 3477.1 5388.39 4740.98 4356.49 3728.18 4437.07 5335.47 3449.37 4396.25 4526.81 3763.05 5151.52 3583.21 5092.24 4347.74 5442.32 4135.08 5612.21 5046.21 5894.61 5687.83 5196.67 5206.48 4709.35 5934.22 6586.45 5876.71 3780.23 5826.04 3471.03 4004.04 4359.62 5690.26 5607.14 5062.71 6057.22 6946.21 4156.2 4289.17 4497.59 4470.98 4512.11 5759.46 5708.99 6333.29 4558.47 5831.96 5064.79 5480.3 4146.81 4840.44 3427.63 6639.64 5212.43 5454.12 4058.87 4206.98 5932.07 5174.75 5844.72 4984.46 4054.22 3992.97 5393.65 7228.94 4648.21 4595.12 3110.13 4549.69 5526.31 6423.81 3644.78 4078.93 6192.77 3185.39 5128.77 3994.07 5491.9 6405.0 5551.95 3918.87 5291.9 5067.46 4518.04 5128.57 4009.62 4929.14 4863.01 6000.7 5945.08 5004.23 6496.67 5139.5 6442.69 5474.8 6320.71 5226.0 5624.49 5339.78 4750.78 4373.3 5029.78 3095.48 3745.84 4730.41 3923.03 4643.85 5696.88 5082.74 5411.85 3999.94 6915.83 4027.46 4844.57 6072.45 5511.88 3901.8 5941.61 4933.65 6098.1 5950.04 4231.83 2435.33 4074.48 4477.04 3614.96 3886.68 4691.91 5344.83 7046.11 4863.97 6342.48 5439.49 5216.26 4887.52 3687.65 5478.95 6571.31 3851.85 4392.65 5048.55 4024.31 4147.31 4955.16 5989.05 5950.88 4441.22 5853.89 4149.55 4961.99 4386.8 6551.93 6484.43 4625.67 3485.54 4312.15 4583.52 5934.82 4501.78 5633.61 4219.94 5907.46 4659.16 4264.91 5369.08 5399.29 5549.49 5620.74 3101.75 4766.06 3580.58 5356.79 5233.29 3979.54 5604.21 7493.3 4968.03 4814.55 5304.13 3527.05 4648.04 5833.06 6262.72 6607.87 3664.11 4166.08 3365.82 5762.59 4861.06 3979.26 5960.66 6608.73 5188.81 5654.31 6062.05 3999.48 6939.12 4203.26 4735.33 4413.85 6853.85 6171.13 4020.4 5092.37 4864.22 2395.5 3374.08 3497.9 5782.48 5564.23 4188.87 4031.78 3735.24 5398.64 6574.95 6817.57 6853.04 4745.43 3420.08 4320.42 4255.34 4912.04 7165.9 4701.5 4449.98 4771.65 4036.91 5589.37 5110.11 6379.14 3634.5 6631.28 6413.15 6103.11 6459.51 4904.51 3288.01 2202.77 5751.15 6201.86 5474.01 7554.58 3380.69 4140.4 4725.01 4458.64 5966.75 3657.69 6418.11 7122.87 5048.19 4243.26 3572.94 6799.23 4888.27 6740.71 6487.56 5789.55 5423.42 4874.18 2081.58 6605.86 4011.37 2511.46 2775.69 4312.56 4778.82 5657.36 3169.67 5204.04 4612.06 5467.84 3361.92 5944.09 3306.14 5490.58 5698.77 4863.79 6515.84 4702.06 4163.5 5374.51 6481.79 4123.6 5320.28 4796.58 4298.67 5750.71 5873.69 4962.09 4472.17 5470.77 4831.47 5516.95 5563.79 4151.76 4406.4 3905.51 4721.02 3493.47 4596.75 3546.71 4254.37 4498.25 5768.57 5151.21 5108.06 4222.4 4000.43 4693.52 3573.73 4661.03 4568.41 5160.59 3624.7 5262.35 4281.98 5783.48 4504.35 5012.97 4891.67 6818.91 3429.57 3503.65 5569.2 4027.63 5350.88 5420.67 5305.59 5416.45 6114.89 4330.58 5754.6 6870.97 5351.86 6056.87 5307.35 4342.18 3639.44 5446.4 5725.37 5510.9 4883.63 3492.83 4505.28 6015.02 4922.49 4153.84 5797.36 5001.58 5119.86 4820.17 4592.15 5084.17 4854.11 4901.2 4633.05 2275.45 6505.78 6522.59 6124.08 5012.5 6519.43 5029.47 3619.79 5876.64 4750.58 5053.95 5395.14 3464.83 6710.88 3967.48 2477.07 5117.47 4143.78 4923.41 4538.95 5724.64 4970.88 7092.87 4763.66 5224.12 4850.14 6739.08 3637.61 4569.12 6098.14 3493.7 4938.74 6470.3 6222.42 4200.03 5313.22 3474.39 5328.22 3436.15 4216.17 5711.11 4575.94 6484.17 4938.72 5021.88 4597.29 5956.65 4200.09 5931.77 5097.95 5313.12 4914.45 4698.87 5351.56 3984.88 5318.53 3344.57 4732.09 5220.76 6945.98 5138.2 6412.67 4593.7 7001.83 4482.9 4349.13 3766.69 5188.53 4521.75 6746.66 5410.33 4642.74 6735.97 3636.15 5483.7 5135.63 6384.7 4355.83 3896.27 5963.36 5230.02 5169.48 6016.08 5166.89 5491.63 6064.71 4731.21 3868.62 6102.98 5138.33 3425.69 4971.29 6280.13 5244.22 5585.14 7039.98 4729.42 4159.81 5089.26 4901.44 3886.72 5971.22 4909.31 5711.62 4785.25 5435.19 4270.15 5461.55 7093.13 3298.2 5926.11 6667.68 6213.04 4497.31 5211.38 2990.77 3163.78 4925.63 3830.46 4305.16 5965.15 4888.6 4666.81 5882.65 5078.86 7042.12 4797.52 4780.2 6326.39 5501.93 5462.21 4471.58 5463.38 6313.06 5374.98 5226.56 5945.21 6345.13 5274.19 5599.49 4050.08 4719.7 4097.57 5452.42 5017.5 5005.85 4893.49 5325.44 5102.75 4834.87 5938.17 5760.22 4795.43 5607.3 2928.82 4811.76 4638.18 5498.42 4196.37 5806.31 6448.66 4453.97 3556.79 3503.41 7317.04 3971.08 6204.65 6550.4 5513.8 5036.98 4120.07 4882.66 3840.21 4081.34 3908.56 4844.83 5244.78 5652.87 5377.37 4311.48 5018.69 5952.38 3152.86 6394.19 5807.52 5087.14 5518.11 4192.21 5712.35 4743.9 3124.7 3719.11 3743.76 6060.17 5153.18 6711.21 3684.15 5510.45 4236.86 4730.14 5832.29 2606.51 4438.76 6456.58 6006.89 5244.98 3814.65 5415.45 3965.3 4998.22 5533.19 5792.98 3776.8 5417.21 5096.43 6156.21 6602.43 3562.79 4383.56 6306.21 4990.79 6865.76 5253.37 5424.46 5235.11 5266.01 4721.32 5767.9 6515.8 3293.56 6031.67 6413.11 5092.28 4739.14 4918.77 5163.55 4636.5 4819.73 6817.32 3382.7 6471.55 5085.71 4319.79 6643.85 5960.56 6343.14 4020.95 6049.79 5862.86 4390.41 6113.95 4901.07 3981.07 5186.3 6496.52 3991.42 3718.69 4388.63 5966.61 4514.79 4940.28 2216.82 3672.21 4509.89 6752.75 3004.34 5269.38 5375.1 3022.6 5211.6 4172.6 4745.79 5470.04 5456.71 4908.75 6556.26 5438.92 5684.25 4244.49 4124.76 4050.03 4775.04 4952.52 4813.33 4833.55 4954.76 3646.95 6334.53 4749.96 4906.11 5869.67 4387.39 4899.73 4564.1 5457.66 4848.14 5366.22 5973.89 6193.73 5254.24 5701.52 3742.11 3597.43 6776.22 4467.13 5321.17 3877.8 6273.6 5902.67 5454.11 3994.39 5393.76 4941.02 3864.92 4618.73 2955.36 3668.93 4960.64 4983.3 6592.93 6104.26 6350.71 6436.74 3568.28 5583.61 4798.17 4953.1 5425.98 5166.79 2895.63 4516.53 5818.95 6449.64 3940.49 2040.66 4857.84 6464.8 5384.76 7016.27 5529.42 5274.14 5257.12 4434.19 6138.12 4428.78 4903.82 5100.1 4965.89 4940.42 3954.91 3703.1 5746.28 4371.99 5923.4 4623.61 4946.42 5187.7 5409.66 4082.47 3561.29 2965.01 6235.57 6263.44 4863.27 5122.63 5774.97 2315.64 6766.43 4703.08 4890.5 6934.37 3423.15 4488.85 3731.84 5010.2 3554.48 4579.69 4997.83 6123.03 5578.94 5148.08 6192.0 5885.28 7610.49 6579.31 6028.09 4609.02 5323.55 3804.5 5452.36 4896.65 6486.37 5561.74 6083.28 6100.73 5975.23 4788.08 4198.94 6163.54 4211.82 5212.37 6003.78 2628.22 5058.51 4901.29 3899.7 7200.89 4147.49 4802.98 4705.68 7224.99 5384.86 4869.48 3623.19 4658.24 4745.16 5509.51 5825.55 5719.79 3199.4 4316.5 7261.51 4968.14 4158.91 4914.03 5086.29 5144.56 5311.55 5139.18 4869.25 3360.86 3034.16 4763.4 5545.21 4333.87 5024.32 4708.17 3779.45 2741.2 5806.61 5790.42 4983.1 5784.37 6119.99 7123.04 4128.1 4009.24 5372.82 4385.81 4402.17 7778.01 4034.05 5690.96 2460.79 4653.83 6063.64 5996.66 4093.99 6479.39 4122.92 5079.22 4997.91 3604.14 2978.76 4908.49 4452.54 6622.11 4962.21 4689.15 5884.9 5089.62 3685.65 6790.73 3685.13 4590.55 5243.43 5659.95 4741.26 6090.91 5920.32 4186.6 4537.14 3701.16 4152.85 3295.83 5551.9 4219.78 5644.82 5203.08 6413.02 5412.31 6736.03 3492.19 5374.07 4584.5 4118.84 3623.87 5548.29 5916.16 5163.77 5469.13 6027.62 6098.95 5765.42 4817.16 5453.98 5660.55 5653.03 4157.29 3989.7 5107.0 4777.03 4246.61 4286.17 3684.56 5327.75 4946.23 4852.58 4532.7 4504.86 3217.67 4473.29 5079.64 996.652 4680.69 6500.49 5965.58 3352.34 4607.18 2403.72 5078.59 4365.58 5134.33 2646.13 5419.57 4636.53 5162.67 3629.49 5760.98 5469.35 4019.34 3835.81 5429.3 5510.96 6653.07 4697.91 4584.81 5071.98 4371.08 5148.1 5224.64 5949.73 5214.63 4312.48 3495.68 5527.13 4278.57 5049.99 5551.43 4201.03 6318.25 5136.87 5638.7 5001.87 3667.93 5813.79 4644.88 5293.13 6010.59 5591.77 4446.58 3682.35 3756.96 5401.4 5127.82 5798.38 4456.11 3862.91 4125.9 5096.24 5366.11 4986.71 6171.71 4405.42 7382.3 2995.67 3598.08 4022.56 4599.81 4684.44 5381.54 4406.05 4749.59 5698.23 4858.44 4680.94 3468.42 5828.35 5799.69 4673.35 5571.72 3876.21 4655.16 5869.4 4916.22 6022.7 5297.19 5251.4 3867.19 4188.3 4963.34 5081.78 4459.28 4260.92 5499.39 6250.23 4407.9 4440.57 4718.54 8659.64 3087.09 4055.54 4588.7 7480.41 5683.95 3766.55 6107.89 4976.12 4233.8 5530.49 4304.41 5065.26 3746.36 6789.23 4892.44 5069.89 2205.51 5361.87 6212.15 6813.72 4783.07 6200.63 6816.66 3844.54 5241.75 5034.69 5849.53 4509.46 3538.53 4420.11 6127.39 5640.12 4972.18 6638.25 5329.76 4759.99 5214.4 5193.58 5399.43 5766.05 5117.64 5695.44 3916.42 4507.46 3422.21 4944.51 5603.68 5610.95 5532.72 3220.8 5179.17 5579.39 5270.51 5490.75 4979.52 4407.79 5783.94 6548.29 3990.96 6370.33 5081.08 4202.77 6864.06 4493.79 5684.05 4932.56 4279.44 3142.09 4028.22 7350.26 5182.13 5167.53 6110.48 5906.57 7541.76 5053.15 5910.86 4775.49 5124.17 4681.29 6239.68 5805.1 7320.78 5039.12 3908.98 4064.58 3419.87 3628.89 4668.88 6589.82 4824.81 5522.21 5027.43 3772.3 4855.01 5810.77 7300.58 5089.1 2711.19 4714.83 5876.72 4028.32 5236.43 5689.26 3809.69 4992.42 4771.13 7051.9 4940.84 4255.85 4345.67 4453.64 5097.69 5019.93 3885.86 5511.6 5235.29 4517.73 3757.34 5177.64 4255.31 5191.08 5453.3 5148.58 6116.33 3838.47 4479.94 2588.37 4062.5 5887.15 4199.45 4435.51 7234.66 5415.85 4858.51 4207.54 6599.66 4886.12 6419.12 4481.76 4301.61 5206.33 4446.84 5452.78 4356.36 5473.72 4741.28 4215.2 2603.64 2856.55 4553.68 3703.49 3894.64 4268.19 6502.97 3758.22 4757.2 3205.68 4583.94 5969.37 4928.35 5046.31 4337.32 1937.5 4731.53 3763.9 4651.99 4788.7 5863.0 5084.5 4918.64 6562.03 4410.82 4815.47 4368.12 6443.99 3889.98 5490.64 5034.34 3769.2 3468.45 5036.14 5635.32 4526.34 5409.08 5042.75 4598.92 5241.22 5673.75 5360.67 6647.08 6263.3 3422.29 4537.03 4501.05 5124.34 4114.2 4326.06 5352.24 5034.46 7362.42 5793.12 5836.14 5473.05 6008.81 5537.34 5192.49 4899.19 3487.31 5058.34 3918.94 3768.46 3852.82 4507.36 5003.3 6245.52 4932.29 5499.59 5749.6 4834.44 3845.9 3125.13 4234.88 4141.21 4439.71 5782.43 4384.28 6328.42 5769.14 7307.21 5522.75 3608.06 5474.15 5867.64 7519.2 4099.92 6633.61 3208.96 5285.07 4884.59 3858.06 4680.14 4478.6 4608.41 5895.77 4732.09 4765.72 6261.75 3988.3 5857.79 2908.7 4039.91 6415.61 6136.49 4642.66 4338.08 5276.7 5149.72 4541.8 5660.16 6134.99 6200.54 5424.88 4652.01 4928.27 3583.49 3673.28 3548.39 5421.64 4366.74 5297.16 3375.28 4603.5 5354.66 5625.65 4936.96 4647.67 4214.44 5378.23 3184.64 4787.97 4981.43 5375.12 4061.6 6214.73 5836.26 5175.89 6618.21 5232.85 2617.39 4374.74 4062.56 3717.47 4051.18 4685.4 5146.0 6240.42 5721.14 6006.16 4577.73 4288.45 4987.28 6206.98 5131.77 5549.71 4967.51 5173.82 3720.7 7212.97 5698.53 3856.73 5378.24 3604.31 4450.49 5887.71 5661.6 4827.61 4316.45 5481.64 5385.03 4169.15 4778.37 5134.17 5968.54 4074.16 4904.35 3247.97 5592.54 4358.81 4904.37 5278.54 4651.64 5757.29 5016.46 5469.17 4373.2 5061.75 6022.78 5884.99 5726.42 6643.4 5575.11 5487.63 4674.9 6599.28 7145.73 5800.81 4990.23 3220.29 3954.77 3784.94 6016.87 5166.05 6715.73 5667.51 4174.44 4456.26 5113.6 5944.3 3563.14 4810.98 3381.82 5135.5 5431.29 6208.9 3619.72 4923.57 5347.9 4646.51 3340.09 4438.58 4565.93 6059.93 5602.53 5217.95 6355.68 4083.79 4184.23 4511.7 4144.57 4833.46 4351.38 5750.07 4187.94 5980.59 5550.75 6543.13 5933.7 4809.67 4752.14 4757.74 4687.64 4378.3 4950.97 5411.02 5037.06 5175.29 5842.56 4863.96 4094.73 5713.03 3852.6 5849.65 5131.15 5134.67 5775.31 4110.59 5052.84 3332.49 4847.14 4165.21 3950.27 4215.0 3683.86 5116.66 4918.76 3566.79 3629.44 3299.24 5003.78 5374.67 4208.41 6246.56 5826.78 4508.18 5064.67 6358.93 4383.68 6666.67 6015.22 5144.44 6063.44 2904.46 4826.52 6449.06 5120.92 4629.02 4924.07 4927.73 5914.5 3565.32 4608.62 3419.07 5407.96 5344.44 4071.75 4626.72 3186.07 4369.86 5482.76 3745.02 4887.73 5728.58 6297.99 4211.36 5918.95 4538.89 5817.74 6556.86 3242.31 6099.28 5285.75 3234.26 3494.16 4830.13 5370.9 4325.13 4529.77 6172.27 4262.74 5390.33 3783.79 5078.73 5729.92 5729.0 5275.57 6224.13 4179.87 3769.24 4761.84 3661.67 4087.32 5517.65 6647.85 4009.68 2569.12 7025.09 5461.72 4433.12 4361.24 3392.26 2549.95 6224.85 4168.52 5403.97 4556.19 5368.66 5106.46 6793.1 4068.31 4506.66 5515.73 3671.06 5209.55 5077.29 4708.31 4564.41 3873.92 4198.9 4027.33 5026.76 5951.86 5091.22 4833.67 5023.41 6282.38 5640.72 4504.52 7107.63 6061.63 5073.02 5484.36 2279.05 4867.7 4829.35 4304.63 6545.43 3953.55 4063.9 4075.28 5263.27 4277.24 6834.41 5021.77 7248.4 6300.92 4356.25 3796.15 5161.1 5469.47 4419.71 5036.58 5329.59 4244.21 5512.16 3197.63 4617.55 3875.05 4989.56 4287.16 3645.12 3456.47 5199.44 5471.74 4344.34 5580.34 5966.42 5009.83 5210.38 5717.8 4706.5 5210.75 4811.22 4658.11 4474.83 6555.44 5293.75 5658.14 5114.07 4385.49 5730.61 4263.18 7124.45 7142.95 4559.74 6061.85 4454.74 5268.15 5512.44 3460.93 6347.72 3200.6 7168.2 4602.57 4571.74 3763.85 5710.33 4096.86 3622.48 5001.51 5115.42 6432.8 4209.0 4082.4 4930.72 5485.84 6424.77 5453.69 5432.04 5689.56 3702.45 5265.63 4898.29 4431.06 5372.25 5620.88 5730.2 4045.67 4941.52 6005.95 5900.0 4308.49 4581.1 6241.77 5317.19 4248.14 5192.92 5279.19 4016.6 7050.08 4786.66 5891.25 5370.1 5114.51 4622.73 3303.49 4161.32 5161.74 7336.37 5138.93 5099.9 6945.69 6406.8 4795.08 6562.92 5648.78 5501.73 4697.24 7035.54 3612.44 4983.43 4850.5 6331.74 5233.76 5763.05 4252.18 5357.39 5129.68 4659.88 2820.07 5076.84 5325.91 4546.44 5851.63 5657.55 5727.79 5212.92 4831.93 5788.97 3472.91 6760.92 4989.2 4469.54 4023.93 4314.56 5868.89 8137.11 5291.05 3928.53 6650.77 5776.96 6045.67 4209.49 4888.12 4216.95 6119.63 3498.16 4247.69 4409.27 5439.9 4752.9 4588.99 4947.24 4321.21 3540.11 6506.86 5950.45 4803.57 5088.57 4728.55 4923.43 4568.64 5666.95 4642.2 4127.53 4489.99 4945.0 4212.15 4548.45 5260.52 4551.26 6102.49 5678.58 3185.09 6570.35 4242.63 5114.23 3269.54 5495.0 7407.91 5846.95 5716.42 5064.23 5701.63 4620.95 5368.93 5819.0 4488.39 6121.56 5124.86 5879.24 4796.12 5740.78 5997.91 5385.86 6791.86 6031.22 5703.84 3618.64 4335.79 3530.82 5797.32 4886.99 3921.27 5159.67 3161.1 5764.52 5684.88 6523.78 4645.86 5087.97 4930.17 4519.03 5110.27 4745.44 5762.82 4085.96 7360.12 6223.98 3035.06 5821.49 5580.44 4262.19 5998.13 5095.52 5129.4 6275.25 4746.15 3720.38 4655.37 5585.25 4758.84 5256.75 5023.61 6351.89 5932.28 5118.86 7086.69 4298.7 6170.9 6875.73 5226.42 4436.48 6081.3 5117.52 5615.35 5426.4 5866.91 6405.69 5679.74 3791.41 4092.07 4825.73 5853.12 5247.01 4213.05 4224.3 4208.37 4184.21 5157.38 6203.03 4700.07 5188.82 5235.87 5615.84 4464.73 4928.85 5043.14 6440.38 5556.0 5484.32 5007.21 4711.04 7144.05 6226.14 5466.33 5742.74 5464.25 3946.28 5280.12 3821.94 5984.81 4209.31 5486.48 3805.67 5718.28 4514.39 5301.47 4640.06 6242.79 5993.0 6047.14 5391.48 5467.63 4554.68 4368.28 4929.6 5750.35 3919.62 5984.8 3127.83 3986.41 4585.04 4241.68 3469.18 6949.65 2945.34 4095.83 3372.95 5695.25 4489.29 5676.61 5796.26 4301.93 4603.04 4870.94 5293.37 5271.88 5559.79 2980.31 3148.79 6348.93 6824.53 4332.64 4742.82 5232.16 4422.23 4820.68 3989.26 4171.02 7012.36 5028.06 4002.99 4293.3 5587.3 3572.73 4864.38 3770.22 4390.64 4848.98 5150.84 4491.96 5184.98 4608.01 4467.51 5339.82 5460.57 5065.78 5703.34 6668.98 4612.68 3207.84 6649.52 3977.98 5462.6 5617.29 4597.88 4878.93 4845.91 2002.78 5631.32 6892.33 4505.3 4731.37 3976.0 4672.86 6530.78 2960.5 4975.32 5560.23 4183.4 5237.55 3902.48 4304.64 4733.79 5833.78 4905.53 4823.06 5758.98 3967.76 5254.49 6311.89 5288.64 4683.28 4217.36 6549.8 4851.18 4165.36 5005.72 5288.33 4841.7 6296.54 5702.4 5273.37 5069.9 4717.73 5473.89 4732.37 6089.45 4985.3 5072.5 3904.07 5713.36 3274.85 5545.59 4173.54 4619.2 5599.29 5606.51 7216.98 4801.8 4444.97 5721.05 5271.02 4807.4 6329.53 4350.15 7013.17 4590.01 4601.74 5367.73 5078.31 6101.86 4807.35 4227.41 6761.81 3903.91 5630.9 4140.92 4512.07 4756.8 4896.43 4692.32 4176.32 5463.06 4639.8 5236.24 6069.78 5532.75 3587.93 4517.29 4975.85 4495.75 5323.95 6171.01 6229.83 4468.26 5578.18 5106.33 5198.94 4873.23 5933.54 4028.35 5464.05 4733.41 5453.2 5264.83 3901.53 5136.51 5431.14 6815.51 5313.86 4457.05 5189.91 5151.19 5777.26 6119.0 3792.06 5128.59 4993.49 5310.33 6583.37 4569.32 3688.83 3402.44 6084.88 4397.06 4479.5 4053.12 4014.44 6261.67 3435.13 6002.77 4431.46 4521.42 4614.49 6043.34 4232.33 4939.56 4747.68 5770.92 3093.38 4461.67 4723.71 6126.5 6322.0 5793.14 4491.26 4452.36 4068.41 4511.34 6463.71 4832.21 5059.37 3043.77 5783.38 4139.39 6264.03 3909.94 5088.64 6030.39 3799.01 6589.8 7392.65 5319.1 6213.24 3757.23 6734.39 5942.45 4150.76 4228.53 6123.46 5368.52 4871.77 6142.88 5811.26 5797.21 5685.74 6740.35 952.938 4678.7 3673.6 5810.17 4966.07 3306.84 4657.24 4400.14 5748.9 4749.18 5553.94 4506.18 5166.41 5494.28 5740.65 6038.68 5046.12 7104.73 3000.29 2596.96 5067.56 6349.67 5701.75 4264.54 5261.19 3516.27 4139.3 4263.65 6541.45 4750.49 4263.78 6106.43 5644.81 5228.75 6545.99 4177.47 5334.36 4218.16 2918.64 4933.49 6139.64 3990.94 4357.11 5477.8 5486.89 4462.35 7208.19 4549.51 5025.42 5196.08 4965.24 6379.38 6257.79 5438.55 4849.5 5353.23 5977.66 4523.81 5065.74 5209.5 5791.25 6175.27 5876.51 6731.89 4286.61 5410.6 2932.52 4969.68 4603.66 3557.46 6636.43 5971.95 6298.8 5178.07 3689.24 6509.54 6079.55 2589.19 4696.06 5485.61 5308.4 6581.13 5803.3 5537.61 3228.27 4721.98 3543.98 4199.44 5878.55 6604.72 4812.59 4610.55 3794.47 4967.02 7115.67 5400.69 4462.5 4128.93 4959.72 4712.17 5004.68 3808.04 4023.88 4405.61 5348.11 5428.24 6007.1 4034.88 3511.5 6345.2 4609.65 5704.61 5009.21 4742.35 5394.79 5645.54 5264.08 3562.8 4526.87 4151.74 5192.82 6920.92 3729.16 3783.36 4174.22 4181.93 3573.84 3038.91 6828.8 3922.28 6570.43 5987.88 3579.59 6161.94 4065.28 5155.28 5057.59 5111.26 5388.73 5285.6 5062.77 6019.35 6075.99 6028.63 4600.71 3450.07 5265.21 4550.92 5927.2 6215.87 5191.26 4067.96 5866.42 4824.12 4704.92 3663.0 6542.5 4099.26 5206.47 3834.47 4834.39 6162.3 3272.75 5971.21 5493.89 4057.17 2781.96 7066.96 5262.47 3512.94 3104.96 4467.0 7043.44 4587.7 5601.55 3831.52 4258.98 5196.92 4643.9 3787.08 4013.86 4598.54 4816.51 5218.42 5345.73 4770.63 4841.23 2804.54 4196.62 2809.19 5005.6 4104.04 5589.53 5593.79 5104.39 5234.2 4612.13 5846.6 5327.05 4109.44 4903.84 4290.49 4434.65 4557.1 6688.53 5927.1 6500.45 4907.55 4103.76 6605.11 4757.87 6379.33 5130.57 5652.73 3979.46 5402.45 6321.97 6412.84 3985.93 6071.59 3856.4 4937.36 4137.16 6189.29 5984.55 5672.46 3956.24 7558.99 5252.82 4142.1 5056.26 5333.04 5445.91 4521.99 6842.54 2853.68 5675.45 6038.56 5573.31 2807.46 5599.16 3488.34 4179.8 5658.35 5108.84 5886.81 4582.12 4520.14 5067.92 5488.96 3188.21 5410.73 5128.03 3720.92 4379.91 4574.03 5290.37 4942.63 5850.38 4227.66 4691.01 4594.89 5245.95 3677.85 5821.42 4067.89 6294.09 6883.86 4571.57 3445.92 3350.99 3820.19 4979.5 5236.69 4745.37 4461.14 5418.98 5939.29 5575.11 5205.38 4574.54 4949.55 4884.93 3132.34 4764.83 1969.87 5262.79 3957.38 4494.15 5035.71 5146.1 4419.79 6485.77 6060.06 3669.32 4762.1 5544.27 3484.81 5610.53 3742.31 4316.0 4954.81 2970.9 4546.96 6304.49 4383.47 4608.34 4580.06 4835.97 3926.11 5695.79 5464.83 3622.8 4770.51 4920.88 4184.47 5414.58 4431.23 4991.35 4994.65 5740.98 4346.07 4462.87 4012.92 5759.79 4426.02 4711.15 4474.39 3825.48 5459.92 4658.59 5188.22 4096.47 3810.68 6478.35 5453.77 4916.7 2638.82 5030.33 5157.73 4541.22 5847.91 3539.68 4934.66 4696.03 4984.01 6217.33 4605.39 6270.59 6045.26 6263.87 5743.8 4094.63 5084.76 5581.01 6834.92 5749.53 5090.48 5247.73 5034.02 5582.28 4649.5 5945.25 5181.31 5985.75 5475.83 4329.8 3074.49 5728.27 6571.26 5202.33 5580.95 3549.92 3393.59 5043.14 4032.06 5246.81 5089.1 5394.78 5122.38 4998.37 3361.11 5901.71 6559.82 6565.95 4577.98 5043.34 4246.24 4487.51 4295.25 7394.47 5357.14 4850.95 5919.27 5087.3 6637.38 6139.74 4975.57 7066.26 4730.97 3057.3 6150.31 5214.71 4677.84 4515.02 4811.11 3463.53 6126.03 5131.07 4121.07 4586.82 5524.28 6026.04 5731.43 6200.05 5859.17 5615.06 5490.54 4841.28 4047.95 5203.54 5507.38 6889.5 4710.88 5001.69 5407.69 3869.39 5960.5 3987.69 6502.99 4287.25 5424.55 5755.15 5134.72 4921.1 4271.07 4191.01 3814.16 6419.64 4589.06 5340.05 4215.05 3626.86 4140.04 4668.8 5995.4 5577.41 5917.34 6511.37 4216.44 3999.5 6710.14 5735.08 4726.2 5034.05 3953.26 4750.81 5467.51 4282.11 4625.53 2347.41 4542.16 5714.51 3543.37 5114.67 2030.03 5353.66 5527.27 5765.14 4767.54 4946.08 2927.84 5121.08 5688.77 6177.68 5466.13 4698.7 5257.38 6229.64 2848.44 4220.43 4975.56 7282.36 4829.77 6666.34 3826.01 4645.91 4444.92 6959.88 4125.75 5971.9 3746.62 4532.67 4876.37 4769.62 5260.13 4810.74 5019.84 3900.93 4028.13 5784.38 4149.17 6260.58 3053.19 4720.22 4313.38 5827.3 6598.99 5250.56 2468.16 6294.14 5888.95 5203.75 3463.34 2459.88 5169.09 5262.85 5329.84 5470.67 5225.11 3879.83 5733.12 5252.22 6436.29 5402.81 6805.02 5354.48 4729.45 5640.63 6261.13 5374.09 4793.06 3421.81 6188.33 6111.23 6916.18 5786.06 5873.62 4137.41 4996.91 4924.52 4866.8 5379.52 3768.62 6044.69 2970.24 3133.28 5105.54 4197.87 5462.1 6353.81 3414.67 4052.49 4034.41 3518.14 4150.44 5061.74 6189.67 5326.03 6142.94 4420.35 4948.96 5117.83 4416.87 5256.82 5300.17 5152.78 5308.33 4117.9 5393.43 6896.55 4666.12 4638.09 4392.75 4685.65 6219.34 6023.07 4420.6 5674.63 5287.25 6506.63 5939.22 4725.11 5418.12 5092.93 5934.05 6371.96 4271.93 3495.3 5125.17 5890.25 5322.11 4859.01 5700.79 5076.11 4697.49 5524.45 7133.44 5600.21 4656.01 6589.13 5602.62 4037.86 4138.59 4938.33 4970.55 5628.97 4484.78 4819.83 4621.33 6286.27 4801.16 5071.38 5616.66 4802.36 5368.28 4880.78 5509.09 5075.23 5625.02 3873.72 4592.49 5212.05 5479.86 6474.5 3928.99 4763.04 5944.52 4413.56 5050.2 2513.38 4821.41 5316.05 4908.32 3995.08 4499.52 3874.12 4457.73 5759.19 6476.35 3113.64 4304.75 5480.86 4067.24 2832.83 4474.96 4084.87 6036.99 3633.58 3010.1 3584.05 3825.98 4339.97 4589.22 5087.03 4667.84 4691.15 4512.6 4210.24 4260.38 4636.45 4932.27 5342.9 4962.35 6793.49 6786.37 4600.81 4333.23 4919.13 4124.33 5168.97 4900.26 4167.55 4720.34 6271.22 5244.47 5378.75 3920.64 6186.24 5510.89 5822.7 3780.07 3868.69 4159.89 5447.74 3920.44 4450.51 6033.72 5314.67 3851.47 5658.05 4966.74 6593.1 4066.36 4000.51 6033.93 6032.45 5444.36 4026.03 5522.34 5771.98 5899.78 5717.45 5000.74 5772.57 4813.81 6581.56 4052.43 3980.46 4061.87 4057.4 5534.23 4585.37 4753.76 5383.9 6025.77 3934.11 4441.91 5158.44 5377.01 4466.22 5330.26 6470.23 5828.25 5917.08 4475.38 5483.37 5259.21 4256.08 6738.9 5881.93 4460.89 2803.01 4604.1 4157.1 4714.66 4399.52 5322.07 4444.0 6771.18 5770.07 5990.75 5101.6 5327.39 5781.62 4981.81 5141.03 4840.44 8123.59 6033.28 4188.16 6327.54 5507.07 4654.92 2943.17 5286.55 5327.71 4322.56 5223.1 4850.49 4981.55 3625.98 5144.23 6188.62 6153.07 4702.32 4414.06 5908.57 7296.47 5742.39 4780.16 4924.53 5616.11 4813.24 4433.23 5312.2 5847.27 4490.2 5734.84 3982.31 6139.9 4758.76 4582.24 4790.63 5259.29 4916.75 4818.53 3906.41 5584.64 4123.08 6224.64 4221.03 4576.71 3799.55 5638.51 4550.77 3563.33 3550.88 6060.19 5536.0 3860.8 4328.76 5561.63 5940.5 5783.88 4358.06 5002.38 6705.93 4865.11 4731.16 5502.14 6470.87 4495.33 5282.67 5466.49 5178.55 4038.17 5007.41 4907.48 3692.99 6213.74 5563.47 5651.46 3162.27 1635.31 5639.4 5011.37 6185.73 2827.92 5516.37 5092.44 5044.68 2649.69 4441.44 6908.32 3467.11 4817.75 6153.26 5268.27 4013.86 5244.95 4645.93 5165.31 3882.37 4634.25 4896.67 5448.64 5901.8 3798.09 6417.61 4288.5 4781.9 6815.96 6153.71 5339.6 6561.94 5350.9 5317.83 3483.61 5640.67 5992.06 5545.68 8052.53 3939.96 4554.24 5555.89 6182.19 4967.93 4984.17 4867.12 6044.01 5910.66 7415.84 4637.3 1458.87 5734.07 6241.48 3997.68 4414.09 5125.45 5957.82 3784.68 3717.22 6305.9 6649.21 3470.69 5093.28 4859.95 4132.08 5522.18 4699.77 5093.41 6842.35 5464.34 3621.63 4777.96 5801.89 6833.5 2613.78 5417.07 3796.73 3834.01 5738.37 6789.66 4739.41 6760.64 4706.59 2515.5 5177.88 5551.79 4950.07 5367.05 3916.15 4088.72 3743.85 6236.46 5097.85 6189.04 3795.63 5189.4 5082.66 4337.93 5201.3 4345.51 6223.33 5145.13 3747.96 5611.29 6568.45 5093.51 5647.93 5004.22 6201.49 5449.09 5154.74 4605.61 4465.56 4131.08 5747.9 5386.95 3864.19 5146.69 4287.93 6203.24 6818.23 4488.41 2329.93 4959.94 4369.87 6938.87 5412.07 5512.57 4083.24 6520.96 4232.44 4612.4 5336.61 3312.3 5563.09 5637.53 4848.15 3282.57 4439.09 4798.13 5523.81 4095.4 5188.57 6351.48 5395.12 5715.51 4496.51 3886.56 4511.05 3456.3 3830.7 6074.39 5432.4 4262.52 5037.58 7430.48 4844.2 6572.17 6080.69 2181.29 3751.73 4926.62 4420.3 3374.62 4766.47 4970.12 6369.66 6520.19 6009.93 5973.57 5922.62 5130.56 4957.99 4063.26 5191.29 4947.64 4997.89 4542.62 4881.51 6131.52 6009.88 6729.99 6664.54 3922.98 5161.73 5259.48 5254.93 4803.4 8013.28 6608.94 4644.68 5283.65 3082.16 2892.36 5656.84 5911.29 5416.41 4694.27 4414.23 4849.21 4785.55 3793.83 6981.47 6189.81 4449.73 3945.62 5647.11 5342.17 6379.3 5015.67 6538.04 4894.15 6157.59 5848.41 4048.73 5438.6 7370.52 4521.88 3724.23 5103.3 4280.92 4601.54 7263.57 4696.92 5705.96 6437.99 6898.8 6632.04 6540.57 5315.71 5332.11 6158.93 5081.65 4823.14 6679.12 5652.19 5806.74 6578.62 4806.99 3771.91 5432.2 5217.62 3839.0 6178.19 4746.19 4616.81 6381.58 5715.25 5212.2 4611.21 5648.59 4469.82 4718.61 6697.45 3873.79 5717.67 5357.33 4432.32 5783.69 5252.37 3224.81 6210.0 4499.54 3775.38 5782.25 4046.22 6457.89 4081.77 5114.61 4948.21 4987.01 6118.13 4706.31 4202.12 6332.64 4871.1 2694.25 4735.99 3917.09 4083.1 4613.32 5678.08 3482.73 5872.45 3996.93 5270.1 6351.95 5195.09 5345.05 3997.52 4444.54 7679.2 5779.9 4909.74 2626.41 5310.33 4311.92 5299.03 5036.84 4565.36 5813.68 4025.08 5040.9 4008.67 4770.21 4868.66 4004.39 5159.9 3846.55 4987.48 5943.61 5981.54 5479.17 4542.25 5020.37 5233.88 5245.4 4090.28 4246.83 4726.5 5467.05 4963.88 5888.94 4727.98 3832.09 4122.2 5175.88 5267.65 5739.69 3509.34 5360.88 4893.72 6004.72 4072.4 5373.78 5345.65 5438.5 4621.32 5699.4 3878.8 4698.94 4813.55 5856.43 3948.21 4796.04 3465.03 5349.85 6011.4 5799.86 4672.34 5172.1 4362.94 6052.22 5056.32 5376.41 5108.42 4630.5 3354.94 6296.36 5105.72 5515.59 4082.01 3721.69 5237.27 4451.76 7885.41 4750.76 4907.03 4104.97 4575.72 5617.91 4444.95 5606.22 4721.2 3943.77 5161.02 6265.48 5003.81 4203.68 6492.44 4739.56 4701.03 5145.39 3352.46 6225.05 5434.04 5200.1 5994.21 3929.35 4884.93 5403.81 5082.25 6964.78 4374.05 5282.51 5504.65 5669.41 3760.4 5732.11 3618.53 4602.7 3783.35 5596.68 4037.16 6395.63 4248.58 4516.26 3647.26 4790.16 7360.62 3731.58 3166.37 4977.64 4983.56 4985.45 5699.51 5499.37 2489.44 4489.18 5863.36 4632.75 5237.76 6284.12 4286.84 5669.15 5229.56 5296.05 5263.86 6988.4 3330.85 6635.51 5533.52 6545.78 5410.33 4870.14 4404.87 4695.7 2932.2 4944.08 5576.16 5767.65 5003.49 5269.39 3964.03 4305.35 5210.22 3308.75 4216.33 5497.27 4929.35 3903.9 5051.39 6673.92 5242.38 3124.49 5151.68 6081.35 5459.52 6262.18 3818.37 5566.5 5663.36 4752.31 4276.59 5579.04 5569.85 5125.53 5306.31 5405.6 5523.96 4223.53 4759.38 4733.37 4535.94 6960.97 4287.15 5126.08 5604.0 4951.02 3919.47 5369.42 5205.53 5207.08 4714.52 4587.19 5543.05 4883.13 4836.76 4752.94 4994.98 5551.09 6423.96 6058.13 5581.47 5894.69 4274.05 6550.61 4987.01 4060.17 4713.56 5003.63 4747.24 5302.53 4380.86 4909.13 4287.61 3999.81 5648.02 4867.13 4604.34 4439.17 4863.27 5832.72 2451.27 5677.42 5442.79 6853.07 6327.61 4633.59 4884.94 5733.59 5362.15 5268.93 4609.98 4455.61 3695.72 4738.72 5240.97 6874.6 5106.9 3037.72 4523.9 6028.89 5333.16 4888.17 3950.53 4501.1 5755.98 4384.91 5392.85 5077.2 5275.27 4277.54 5529.09 6051.35 4531.46 6094.34 5925.82 6779.82 5543.67 4739.5 4072.95 6210.48 6377.45 4182.05 2701.42 4502.12 3255.93 5575.8 5448.68 4491.62 3865.5 
SCALARS Velocity float 1
LOOKUP_TABLE default
1.31811 1.30237 1.40632 1.3877 1.38569 1.33642 1.28434 1.29701 1.28006 1.28142 1.32983 1.30967 1.36271 1.32009 1.33469 1.37052 1.39562 1.39257 1.38683 1.27455 1.25647 1.31017 1.32911 1.30979 1.29136 1.2982 1.30922 1.29734 1.32292 1.32923 1.2408 1.22037 1.25797 1.32684 1.28144 1.28731 1.38583 1.37035 1.33621 1.34028 1.30832 1.36023 1.31587 1.36635 1.36677 1.38686 1.39828 1.32489 1.33034 1.25244 1.26385 1.25506 1.30611 1.33601 1.34703 1.31754 1.30333 1.31744 1.32467 1.32799 1.32862 1.24054 1.22757 1.23188 1.3561 1.35071 1.32703 1.36406 1.35473 1.3364 1.32107 1.37443 1.38791 1.37836 1.40075 1.42754 1.30269 1.31021 1.28117 1.32672 1.31921 1.33376 1.33446 1.33219 1.25981 1.25963 1.24335 1.26065 1.21683 1.34834 1.29791 1.36349 1.36582 1.33747 1.37524 1.33206 1.37662 1.3457 1.36026 1.38146 1.39323 1.40226 1.43261 1.4455 1.28445 1.31758 1.33467 1.36142 1.35262 1.22195 1.35725 1.25167 1.24924 1.24889 1.20025 1.23667 1.32868 1.30163 1.34908 1.33884 1.36729 1.38948 1.39005 1.37424 1.33473 1.39821 1.39482 1.43775 1.45388 1.28882 1.28386 1.34161 1.31894 1.36278 1.41289 1.36641 1.35711 1.42845 1.24001 1.21655 1.23129 1.20942 1.28282 1.32575 1.24836 1.25813 1.24644 1.30889 1.31304 1.28792 1.33834 1.37952 1.3931 1.42697 1.35566 1.37132 1.40943 1.44987 1.4535 1.2916 1.32205 1.36939 1.38711 1.41834 1.43321 1.28051 1.29331 1.24032 1.24486 1.31872 1.19629 1.18751 1.2972 1.24242 1.31009 1.31727 1.29089 1.35529 1.25257 1.38071 1.4527 1.42777 1.43231 1.29381 1.4243 1.42773 1.49812 1.45232 1.46607 1.47437 1.42848 1.31238 1.38561 1.28764 1.38815 1.41829 1.42291 1.27202 1.31229 1.26328 1.3211 1.22133 1.18069 1.35803 1.30674 1.24215 1.35708 1.25743 1.35718 1.35915 1.26136 1.28549 1.36704 1.37813 1.51693 1.50845 1.40717 1.50423 1.45931 1.44753 1.42722 1.44169 1.53044 1.32651 1.45278 1.42519 1.20528 1.28471 1.2538 1.34901 1.32048 1.21791 1.33997 1.35283 1.22308 1.46677 1.37304 1.25623 1.43372 1.35999 1.23439 1.39504 1.45008 1.42993 1.50099 1.49013 1.41363 1.44258 1.47952 1.45946 1.44962 1.3887 1.55218 1.56885 1.44165 1.62595 1.60435 1.56546 1.56391 1.16376 1.19303 1.27868 1.2336 1.42561 1.17616 1.39211 1.4587 1.41536 1.32712 1.54704 1.43577 1.43737 1.47501 1.50376 1.48463 1.46523 1.46225 1.42739 1.46421 1.52006 1.53899 1.57704 1.54349 1.47695 1.58282 1.54322 1.22419 1.28407 1.27177 1.31378 1.19302 1.27712 1.55136 1.34762 1.40329 1.38055 1.54187 1.5081 1.56849 1.44873 1.4882 1.48065 1.47245 1.46968 1.48649 1.45312 1.48151 1.5206 1.53479 1.51807 1.52495 1.5136 1.50878 1.51694 1.49291 1.59554 1.46967 1.29962 1.25763 1.2911 1.11473 1.56419 1.44725 1.45456 1.58762 1.458 1.49604 1.53607 1.50508 1.504 1.48727 1.48348 1.47785 1.46941 1.49593 1.4964 1.49804 1.52148 1.51854 1.4944 1.52827 1.49876 1.50742 1.57488 1.58859 1.52778 1.74158 1.6877 1.52627 1.13962 1.33395 1.63396 1.38768 1.43884 1.59726 1.52681 1.60869 1.72484 1.42063 1.57521 1.561 1.53518 1.50715 1.51259 1.52071 1.48237 1.54875 1.50636 1.51178 1.48892 1.53091 1.48027 1.53073 1.50296 1.45083 1.55321 1.54447 1.52635 1.56247 1.48394 1.56341 1.55884 1.67632 1.76811 1.54855 1.15314 1.67232 1.21902 1.5285 1.29485 1.59508 1.62829 1.95522 1.90276 1.51785 1.55708 1.553 1.55747 1.56861 1.55298 1.5465 1.50817 1.51782 1.49822 1.50669 1.50984 1.50304 1.52149 1.52025 1.43088 1.60722 1.55444 1.54177 1.54552 1.64282 1.64722 1.96462 1.64222 1.7861 2.09562 1.7355 1.50017 1.61655 1.55595 1.92825 1.66563 1.79027 1.54587 1.53569 1.56446 1.56822 1.55318 1.53077 1.53639 1.51467 1.51169 1.5242 1.51263 1.50841 1.48162 1.51222 1.52045 1.49434 1.57027 1.58686 1.57928 1.63558 1.79823 2.02211 1.86449 2.41722 2.27847 2.93464 1.03272 1.8627 1.85884 1.58564 1.65585 1.54917 1.76256 1.5468 1.56269 1.55814 1.54689 1.55642 1.54139 1.52952 1.51724 1.52312 1.51112 1.50619 1.49234 1.51662 1.51794 1.5405 1.59601 1.63659 1.61436 1.59618 1.4722 1.64383 1.86995 3.16565 2.19261 1.28219 1.57315 1.75076 1.6042 1.52819 1.69223 1.68385 1.66921 1.6458 1.57717 1.55171 1.54243 1.53217 1.54034 1.53322 1.53054 1.52189 1.52653 1.52229 1.51329 1.51568 1.50682 1.50668 1.50489 1.50365 1.50123 1.51585 1.52017 1.53916 1.52729 1.53905 1.55796 1.63535 1.58974 1.56753 1.46448 1.56741 1.56975 1.58947 1.19178 1.37508 1.44109 1.51011 1.56584 1.52882 1.55989 1.63312 1.575 1.53693 1.53377 1.52326 1.51388 1.50578 1.50748 1.50471 1.50192 1.50108 1.49081 1.49902 1.51168 1.515 1.54291 1.58937 1.57003 1.55657 1.52778 1.51737 1.44871 1.48534 1.52137 1.47612 1.4417 1.43982 1.44132 1.46123 1.46052 1.50568 1.52938 1.48019 1.35127 1.45018 1.52855 1.54641 1.52528 1.51547 1.51046 1.50741 1.49562 1.4976 1.49091 1.47879 1.49297 1.51383 1.51606 1.51557 1.48548 1.47085 1.47928 1.41872 1.44573 1.48318 1.47581 1.49178 1.49168 1.38669 1.42878 1.50173 1.56086 1.525 1.52097 1.51536 1.51321 1.5069 1.51257 1.49765 1.51317 1.49984 1.48697 1.48214 1.48129 1.46092 1.48634 1.48698 1.46681 1.49277 1.4684 1.47886 1.45089 1.42033 1.4444 1.41919 1.42855 1.47715 1.44684 1.43751 1.39277 1.46583 1.47437 1.42014 1.44298 1.48794 1.42621 1.50316 1.50175 1.50006 1.50612 1.48697 1.49815 1.46935 1.46757 1.45168 1.4453 1.48878 1.46601 1.45921 1.47756 1.47012 1.46504 1.43172 1.42052 1.4171 1.19178 1.41975 1.41066 1.41197 1.41611 1.39315 1.40939 1.50259 1.43112 1.46986 1.47316 1.44376 1.47318 1.46774 1.4936 1.50662 1.51902 1.48559 1.48293 1.4848 1.46428 1.48253 1.46925 1.4631 1.45856 1.45831 1.43441 1.45019 1.46758 1.4713 1.46103 1.44831 1.43658 1.43093 1.42225 1.45521 1.46583 1.45619 1.44181 1.42393 1.41606 1.19178 1.40665 1.40269 1.38812 1.40148 1.37063 1.40517 1.39716 1.38648 1.43705 1.42711 1.41963 1.39403 1.4505 1.411 1.45527 1.47546 1.42864 1.50396 1.42722 1.47547 1.47704 1.48095 1.49183 1.51457 1.42421 1.40852 1.48505 1.46451 1.43423 1.39906 1.42633 1.44296 1.40121 1.45498 1.42419 1.43384 1.41377 1.4173 1.41186 1.41019 1.19178 1.40263 1.37336 1.39894 1.38821 1.37087 1.40592 1.41419 1.40008 1.47206 1.44547 1.43479 1.42412 1.45497 1.46712 1.39987 1.39342 1.41631 1.37179 1.38679 1.44272 1.4505 1.50698 1.39833 1.44166 1.49408 1.4234 1.3282 1.43052 1.4249 1.39135 1.39581 1.36941 1.34996 1.41115 1.42396 1.43844 1.41168 1.41672 1.42156 1.40706 1.39955 1.39508 1.39192 1.39752 1.38312 1.3728 1.37183 1.44958 1.42615 1.42547 1.43011 1.45026 1.40654 1.43462 1.42156 1.40016 1.37389 1.38152 1.3481 1.33742 1.4542 1.33585 1.43676 1.26732 1.36145 1.38366 1.42244 1.43617 1.42884 1.41848 1.4583 1.36819 1.35736 1.30135 1.40812 1.39452 1.40209 1.41904 1.39071 1.39684 1.39112 1.39383 1.39148 1.38353 1.38115 1.3813 1.34584 1.37925 1.42537 1.40534 1.42108 1.43502 1.43406 1.4523 1.37224 1.40021 1.33705 1.33192 1.30698 1.42079 1.34918 1.40747 1.4296 1.42954 1.38492 1.4257 1.38631 1.36348 1.38047 1.42645 1.35572 1.33348 1.40355 1.40938 1.38333 1.40102 1.38208 1.19178 1.391 1.38714 1.37804 1.38465 1.38389 1.37758 1.37781 1.37962 1.34125 1.4166 1.4173 1.36255 1.38721 1.40782 1.39255 1.37606 1.39459 1.36906 1.39538 1.31918 1.33009 1.32917 1.39726 1.35753 1.41432 1.42385 1.38903 1.42423 1.35833 1.36874 1.3727 1.35954 1.3766 1.39925 1.37974 1.38978 1.39335 1.38119 1.37921 1.37477 1.19178 1.19178 1.38637 1.38394 1.37987 1.36704 1.37108 1.38162 1.36756 1.3548 1.37681 1.36093 1.36559 1.37062 1.35351 1.35706 1.35716 1.35447 1.37956 1.36609 1.37309 1.35318 1.36675 1.3463 1.33919 1.34965 1.34444 1.38723 1.35657 1.39787 1.37843 1.41088 1.40807 1.39887 1.40161 1.35293 1.37302 1.37161 1.37121 1.37544 1.37571 1.37908 1.37211 1.3714 1.36889 1.38388 1.37892 1.3684 1.37761 1.35986 1.36502 1.36146 1.36233 1.35679 1.3621 1.35915 1.35824 1.34952 1.35225 1.35182 1.34662 1.36169 1.3654 1.36314 1.3636 1.35131 1.35672 1.36366 1.38427 1.37712 1.3848 1.38397 1.35726 1.39377 1.3699 1.36965 1.36689 1.37028 1.37415 1.37825 1.37189 1.38015 1.36201 1.35552 1.35938 1.35205 1.37638 1.37236 1.36618 1.37057 1.36262 1.3632 1.36273 1.35554 1.35427 1.35237 1.35281 1.34778 1.3561 1.35639 1.34973 1.35212 1.34398 1.35781 1.33669 1.35538 1.36133 1.36224 1.35515 1.3646 1.3561 1.36174 1.36763 1.36848 1.38425 1.36781 1.3866 1.37213 1.38117 1.36504 1.36333 1.36927 1.37853 1.36439 1.38916 1.37814 1.38177 1.36094 1.34591 1.34992 1.34706 1.33978 1.36702 1.36216 1.35968 1.35966 1.36296 1.35839 1.34192 1.3632 1.32749 1.34316 1.33076 1.3448 1.3426 1.3553 1.35638 1.36284 1.34685 1.33192 1.33382 1.34039 1.35992 1.35901 1.36217 1.36207 1.35804 1.35508 1.35422 1.36135 1.35593 1.37063 1.35703 1.36986 1.37159 1.38802 1.3591 1.37225 1.32686 1.40507 1.37512 1.37925 1.33017 1.35313 1.33297 1.32749 1.19178 1.35857 1.35726 1.36058 1.35933 1.36362 1.35298 1.32495 1.3179 1.33348 1.3503 1.33955 1.34877 1.37238 1.33635 1.32903 1.30812 1.34719 1.35235 1.35552 1.34819 1.3612 1.35948 1.35937 1.35548 1.35768 1.35797 1.35645 1.35955 1.34776 1.3682 1.3756 1.40076 1.31629 1.34895 1.308 1.31743 1.28018 1.35862 1.29154 1.36493 1.33581 1.41057 1.33058 1.31053 1.19178 1.35809 1.35972 1.36251 1.35928 1.36132 1.34319 1.35095 1.35798 1.33079 1.31631 1.31309 1.30767 1.30777 1.34072 1.33025 1.33576 1.35352 1.33224 1.3247 1.33875 1.34958 1.34738 1.34231 1.35086 1.36572 1.36137 1.35561 1.34838 1.34751 1.3198 1.36562 1.32185 1.3331 1.33847 1.31032 1.26445 1.33062 1.26436 1.32725 1.25377 1.39452 1.36515 1.30538 1.33577 1.19178 1.36033 1.35878 1.36819 1.35077 1.35102 1.36003 1.33311 1.35771 1.30989 1.28987 1.30672 1.30805 1.30852 1.33056 1.32635 1.34051 1.33277 1.34162 1.35711 1.338 1.34069 1.3447 1.33395 1.33735 1.35304 1.38548 1.34608 1.34713 1.33323 1.31829 1.29417 1.31588 1.29922 1.29851 1.32819 1.3137 1.25361 1.3335 1.31207 1.34337 1.28136 1.27131 1.33306 1.37472 1.35015 1.33302 1.35418 1.35609 1.31402 1.35925 1.37376 1.32823 1.39556 1.29742 1.28365 1.31376 1.3002 1.29974 1.28768 1.31381 1.3138 1.32844 1.33469 1.33836 1.35008 1.33936 1.3314 1.31397 1.3394 1.356 1.36077 1.34279 1.34543 1.3711 1.35782 1.39366 1.29031 1.28006 1.32485 1.31526 1.31107 1.29369 1.29477 1.29745 1.28418 1.29326 1.41362 1.34732 1.30224 1.29235 1.3243 1.31987 1.34722 1.34012 1.31786 1.34877 1.33968 1.31344 1.37638 1.30174 1.34341 1.26862 1.26071 1.30155 1.29309 1.31082 1.29872 1.327 1.31456 1.30986 1.33681 1.3382 1.30842 1.33097 1.32473 1.30599 1.28559 1.36077 1.32782 1.36214 1.29268 1.32486 1.337 1.27307 1.27249 1.26354 1.30576 1.29028 1.30639 1.31667 1.28599 1.75446 1.20503 1.28612 1.35287 1.3537 1.32032 1.30642 1.32429 1.28952 1.30488 1.25596 1.33591 1.33453 1.30359 1.38336 1.34085 1.3092 1.31528 1.29375 1.31293 1.29281 1.30971 1.27971 1.32294 1.31871 1.31767 1.32384 1.30697 1.30881 1.30617 1.29626 1.28461 1.29031 1.31595 1.25121 1.31956 1.20475 1.27384 1.27382 1.25701 1.28708 1.28369 1.28633 1.29582 1.29673 1.29373 1.30354 1.30706 1.17498 2.05041 1.26592 1.58309 1.41328 1.3449 1.27697 1.27028 1.27089 1.26139 1.19285 1.14247 1.34134 1.44008 1.63771 1.33055 1.25143 1.27703 1.34698 1.31249 1.32833 1.33176 1.2456 1.18471 1.26082 1.28432 1.26502 1.2907 1.29535 1.29231 1.28243 1.26783 1.22898 1.27008 1.22672 1.31986 1.26891 1.28161 1.27815 1.26015 1.28296 1.1899 1.25232 1.40614 1.37245 1.44197 1.28894 1.28915 1.25105 1.29284 1.19689 1.19178 1.58436 1.54166 1.75939 1.80484 1.44503 1.6146 1.23932 1.14323 1.25245 1.20792 1.40287 1.38894 1.21409 1.14826 1.2064 1.27523 1.23894 1.23465 1.2337 1.30197 1.29335 1.29889 1.26456 1.24166 1.2622 1.22573 1.20118 1.29958 1.24796 1.22452 1.1394 1.42743 1.28557 1.35754 1.27163 1.21473 1.1868 1.09929 1.27387 1.2498 1.22429 1.33141 1.31461 1.3705 1.19441 1.26222 1.00144 1.2677 2.48727 2.07423 1.52498 0.840454 1.87655 1.75686 1.50679 1.3545 1.3883 1.45545 1.40208 1.39826 1.37972 1.29442 1.11234 1.13049 1.3001 1.12524 1.09503 1.29518 1.32922 1.32133 1.28015 1.24112 1.22319 1.2396 1.21555 1.23997 1.25477 1.14769 1.27477 1.59993 1.67346 1.35139 1.12726 1.07975 1.29352 1.2749 1.26732 1.43509 1.34201 1.43895 1.35436 1.4446 2.46741 1.63105 1.97368 2.55366 0.945553 1.07119 1.02493 1.2892 1.13379 1.10424 1.72855 1.57097 1.61075 1.40666 1.16506 1.35832 1.19251 1.1855 1.17977 1.1033 1.23265 1.21105 1.09422 1.18231 1.10262 1.162 1.10373 1.26732 1.27859 1.3782 1.30449 1.10127 1.20696 1.26533 1.28347 1.25424 1.16751 1.27906 1.2255 1.3408 1.21678 1.20698 1.24736 1.23955 1.18716 1.1162 1.13264 1.12915 1.13347 1.22688 1.47451 1.2829 1.36379 1.55002 1.07098 1.13541 1.06173 3.12134 3.31667 1.65009 1.65457 1.55737 0.286928 0.315954 1.04418 0.922764 0.936043 0.951192 0.942485 1.17461 1.14729 0.783659 1.12702 0.878382 1.12798 0.782853 0.993097 1.13154 1.12461 1.20828 1.04667 1.26641 1.18075 1.27975 1.14783 1.26148 1.07358 1.10356 1.18132 1.24035 1.06086 1.1324 1.2186 1.2584 1.2416 1.3422 1.45796 1.00143 0.447339 1.22951 1.22793 1.27911 1.20396 1.2163 1.22214 1.18295 1.14048 1.17733 1.21119 1.20661 1.12408 1.11115 1.18972 1.28969 1.09164 1.22704 1.08177 1.20206 1.145 0.753731 1.14724 0.968012 1.13313 0.897106 0.735136 1.18158 0.93459 0.854637 1.03293 0.764349 0.760431 0.81014 0.821648 0.908278 0.882463 0.834535 0.890681 0.868538 0.925808 0.815705 0.740341 0.817367 0.871992 0.988213 0.938518 0.883334 0.996566 1.01873 1.22975 1.0523 1.10882 1.24784 1.39322 1.23395 1.37283 1.08565 1.09229 1.05772 1.16114 1.10891 1.13473 1.16783 1.12805 1.22397 1.18769 0.900734 1.2471 1.3027 1.42035 0.892148 0.914896 0.865401 1.00115 1.12964 1.142 1.0967 1.14169 1.10923 0.990358 1.15375 1.13005 1.17326 1.07211 1.08333 0.996863 1.02224 0.982058 0.969556 0.724093 1.03438 0.812884 1.16486 1.08247 0.894034 0.972227 0.948741 0.990655 1.04908 1.09691 0.78047 0.815029 0.815279 0.765045 0.821132 0.743873 0.758728 0.759654 0.752138 0.765967 0.780694 0.802134 0.853254 0.843003 0.850554 0.825339 0.841667 0.829749 0.808155 0.797671 0.795119 0.874143 0.826809 0.871115 0.92113 0.95284 0.990609 1.07678 1.1354 1.15611 1.12634 1.1061 0.878769 1.2798 1.37408 0.654681 1.45959 1.40677 1.24004 0.957214 1.03872 1.05414 1.16493 1.09796 1.19267 1.18394 1.05222 1.02187 1.11989 0.986943 0.903278 0.926292 1.00694 1.1036 0.953059 1.11026 1.07261 0.957842 1.10176 1.20599 1.07901 1.05963 0.957499 1.03251 1.06524 1.00843 0.867339 1.05002 0.922064 0.908141 0.894507 1.12032 0.654902 1.02901 0.835553 0.797847 0.832592 0.840434 0.703743 0.565488 0.49151 0.584216 0.660424 0.899468 0.817865 0.739512 0.746157 0.691851 0.67709 0.748917 0.710036 0.726923 0.735848 0.716295 0.748841 0.75465 0.732793 0.765196 0.735502 0.757268 0.769439 0.85486 0.931871 0.720819 0.777196 0.753161 0.800349 0.792221 0.789612 0.770844 0.803562 0.812619 0.81276 0.794751 0.884284 0.865596 0.920732 0.935953 0.926302 1.02202 1.15798 0.964993 1.08117 0.728475 0.962496 0.807041 0.96384 0.918166 1.18616 1.00046 1.08412 1.00714 0.889964 1.18188 0.887865 1.22144 0.853713 0.980518 1.00957 1.02069 1.14476 1.18487 0.908181 0.804827 1.00327 0.885895 0.906929 0.897921 1.21614 1.13532 1.02378 0.849574 0.993321 0.958087 0.941263 0.945417 1.09222 1.03951 0.933968 0.982919 0.934353 0.922268 0.497592 0.851057 0.827728 0.771851 1.03438 1.0284 0.554182 0.863966 1.22744 0.62159 1.02975 0.79779 0.728558 0.722679 0.720331 0.844382 0.701557 0.713647 0.744793 0.732419 0.7017 0.734269 0.694192 0.722446 0.691459 0.722244 0.664487 0.702099 0.68082 0.702522 0.74601 0.687523 0.733033 0.740201 0.704315 0.730606 0.695368 0.646418 0.645047 0.707028 0.725591 0.759963 0.723619 0.778711 0.789966 0.768521 0.887008 0.876835 0.953744 0.876746 0.909071 0.934222 0.795232 0.933968 0.898704 0.930129 0.939284 0.935359 0.513169 0.895408 0.803328 0.985781 1.13123 0.907461 0.75053 1.09184 0.791018 1.02171 1.26097 0.937558 0.929268 0.946058 0.982511 0.988349 1.05646 0.907449 0.769313 1.05308 0.964088 0.923554 0.980161 0.895648 1.15876 1.09207 0.948621 1.05785 0.857752 0.914518 1.01378 0.882024 0.923706 1.04126 0.937671 0.954165 0.894404 0.912572 0.916543 0.923265 0.810903 0.927719 0.738715 0.115417 1.43347 0.581753 0.703086 0.492564 0.696714 0.688312 0.795729 0.664292 0.693996 0.684034 0.679848 0.665285 0.732174 0.772743 0.686927 0.787649 0.722116 0.71809 0.718652 0.687857 0.700301 0.695708 0.683708 0.618297 0.658408 0.641357 0.657672 0.684396 0.62004 0.738401 0.661753 0.667228 0.697404 0.729969 0.631892 0.654313 0.654328 0.649936 0.701658 0.760554 0.729487 0.75302 0.781186 0.762406 0.75269 0.705099 1.08186 0.882031 0.755744 0.804446 0.806708 0.859318 0.835983 0.789604 0.8532 0.786103 0.643311 0.718066 0.824819 0.666826 0.90882 0.76215 0.881474 0.859382 0.932975 0.891593 1.11628 0.966095 0.805012 0.869993 0.98039 0.974522 1.00438 0.919616 0.828719 0.812515 0.812391 0.86263 0.980284 1.10409 0.927025 0.938485 1.04114 0.923753 0.935819 0.986538 0.946165 0.932113 0.927617 0.859219 0.89118 0.857713 0.889077 0.867008 0.905296 0.846155 0.897397 0.874252 0.760987 0.847144 1.10152 0.839884 0.501623 0.70363 0.721332 0.658767 0.700907 0.694243 0.692688 0.698644 0.680628 0.675045 0.712008 0.674708 0.702791 0.721115 0.599102 0.650502 0.658387 0.6514 0.654135 0.67695 0.675216 0.672235 0.672999 0.566226 0.580791 0.594333 0.606775 0.601367 0.586925 0.608213 0.613118 0.620164 0.622098 0.652478 0.646601 0.666205 0.675797 0.670135 0.686653 0.704385 0.688026 0.714994 0.715166 0.664344 0.761527 0.8042 0.74339 0.707779 0.643834 0.600881 0.908998 0.766387 0.863599 0.843568 0.839147 0.839917 0.825508 0.808662 0.80084 0.780023 0.761451 0.992362 0.988188 0.812511 0.649771 0.815823 0.739302 0.801929 0.811367 0.909959 0.859438 0.935538 0.91029 1.01089 0.893574 0.841641 1.00993 0.841289 0.831022 0.838015 0.793065 0.911738 0.905606 0.803265 0.749387 1.00789 0.881942 0.949611 0.759659 0.877034 0.870817 0.942033 0.924793 0.847915 0.828617 0.841282 0.826403 0.835205 0.854213 0.8742 0.839669 0.865147 0.832769 0.870341 0.792642 0.90313 0.815537 0.778909 0.947117 0.778061 0.903862 0.814238 0.799637 0.705807 0.864419 0.668552 0.700079 0.647698 0.701501 0.711405 0.672996 0.681837 0.694694 0.684521 0.672761 0.669558 0.663611 0.658707 0.659665 0.670775 0.664298 0.664209 0.67118 0.668215 0.670537 0.669727 0.550647 0.562573 0.554566 0.568072 0.578868 0.579263 0.578183 0.609157 0.613003 0.631343 0.64953 0.667875 0.696632 0.71251 0.730915 0.702772 0.69125 0.699168 0.701578 0.679097 0.714228 0.68817 0.696818 0.707002 0.814206 0.757913 0.70958 0.920092 0.889519 0.756995 0.753696 0.775205 0.776717 0.784426 0.727477 0.736537 0.825818 0.533084 0.770937 0.681777 0.657158 0.720474 0.698002 0.767695 0.747292 0.863924 0.851351 0.96103 0.957929 0.941248 1.00079 0.980875 0.853278 0.77864 0.880229 0.839202 0.912188 0.679606 0.945168 0.933023 1.23931 0.721565 0.984599 0.90133 0.778312 0.69052 0.866778 0.839 0.831112 0.874149 0.841568 0.839099 0.843162 0.85795 0.816629 0.794834 0.793336 0.797119 0.748534 0.508232 0.587606 0.634357 0.633832 0.692773 0.951273 0.495522 0.632845 0.77106 0.834631 0.789272 0.651727 0.704004 0.686894 0.708541 0.702351 0.679844 0.655268 0.669502 0.658773 0.653886 0.656751 0.688579 0.653811 0.660859 0.66208 0.658438 0.665905 0.664217 0.663968 0.647605 0.65137 0.666186 0.671512 0.660096 0.633838 0.659467 0.626211 0.595342 0.544178 0.544015 0.553219 0.55332 0.561941 0.57237 0.584875 0.578663 0.55459 0.588936 0.583479 0.598682 0.588423 0.614441 0.608397 0.613478 0.573547 0.599433 0.632397 0.704319 0.706101 0.705364 0.687609 0.672756 0.67356 0.677249 0.643338 0.663597 0.640248 0.664307 0.620273 0.563671 0.644153 0.574765 0.714886 0.648468 0.815593 0.757747 0.868283 0.765835 0.795253 0.800442 0.716394 0.589039 0.618911 0.575797 0.554846 0.755372 0.742639 0.727814 0.72398 0.733846 0.754002 0.933007 0.955892 0.976428 0.638102 0.833533 0.738322 0.786787 0.835349 0.930167 0.930772 0.936304 0.812464 0.367076 0.972043 0.505796 0.768771 0.873286 0.850235 0.604603 0.711427 0.772018 0.767391 0.707684 0.839084 0.846915 0.822882 0.836381 0.799729 0.832138 0.816896 0.832756 0.821954 0.821849 0.830318 0.812362 0.841392 0.79789 0.804579 0.746355 0.748289 0.662796 0.613964 0.610258 0.407449 0.722411 0.703384 0.725909 0.755577 0.703168 0.77731 0.660602 0.655015 0.732837 0.660397 0.559511 0.677744 0.651502 0.607128 0.67461 0.665727 0.638249 0.634451 0.628719 0.613372 0.60855 0.605724 0.606512 0.588616 0.556509 0.595112 0.570272 0.54973 0.55262 0.551334 0.546542 0.548653 0.566515 0.542669 0.577835 0.56685 0.611933 0.589016 0.588649 0.59963 0.589671 0.606129 0.596679 0.554812 0.597171 0.639969 0.664503 0.686631 0.681197 0.70683 0.71455 0.665399 0.686686 0.663846 0.668942 0.653624 0.678098 0.653978 0.667404 0.6637 0.64211 0.629768 0.687616 0.658257 0.672582 0.877725 0.868238 0.715644 0.743459 0.811952 0.692602 0.693471 0.599842 0.623183 0.598157 0.604426 0.681913 0.68445 0.776694 0.767049 0.822433 0.713839 0.769347 0.751966 0.757251 0.753919 0.744426 0.944993 0.780664 0.794292 0.80796 0.588524 0.720279 0.959114 0.852548 0.832903 0.46025 1.00754 1.00484 0.656482 0.490599 0.758578 0.692792 0.578417 0.676659 0.815525 0.686182 0.705808 0.803315 0.815433 0.791342 0.760167 0.789644 0.813064 0.824267 0.816701 0.814445 0.830328 0.763385 0.720994 0.701228 0.703844 0.779658 0.684856 0.570181 0.560403 0.672672 0.618003 0.673252 0.648439 0.653872 0.638695 0.796479 0.560603 0.662304 0.526269 0.615619 0.541915 0.587323 0.604344 0.544616 0.604054 0.614012 0.607436 0.646964 0.62181 0.601963 0.607248 0.587869 0.598695 0.571804 0.568109 0.561581 0.551776 0.552515 0.547123 0.525721 0.530009 0.518031 0.517839 0.537103 0.523068 0.629339 0.608094 0.637262 0.612865 0.606813 0.625917 0.585062 0.624782 0.661277 0.68851 0.682689 0.695208 0.704209 0.727411 0.686496 0.708759 0.687044 0.675398 0.686004 0.676746 0.693567 0.658936 0.459771 0.370612 0.6802 0.651083 0.555684 0.576834 0.796555 0.816144 0.70546 0.667227 0.688209 0.710337 0.681393 0.618718 0.71458 0.718315 0.828532 0.769113 0.714127 0.824235 0.66111 0.777664 0.825741 0.760691 0.726588 0.757373 0.838336 1.10563 0.8236 0.670993 0.659835 0.58973 0.816326 0.707451 0.756185 0.767684 0.900928 0.7192 0.717992 0.704631 0.622559 0.683696 0.711713 0.657261 0.686278 0.698275 0.733321 0.770136 0.690246 0.817811 0.781997 0.746887 0.761332 0.758389 0.792652 0.74608 0.805293 0.697601 0.701083 0.670773 0.668594 0.634999 0.640508 0.597189 0.605518 0.602303 0.620628 0.628254 0.658865 0.617284 0.575968 0.643746 0.639354 0.621984 0.617531 0.600883 0.58561 0.588335 0.590819 0.617736 0.603974 0.6045 0.620684 0.626405 0.604971 0.598128 0.602239 0.591133 0.584589 0.559588 0.568128 0.559017 0.557498 0.546258 0.555454 0.542002 0.540673 0.538779 0.53646 0.550408 0.537113 0.537695 0.542562 0.539339 0.534122 0.531966 0.533376 0.543423 0.553897 0.558564 0.526197 0.632706 0.572546 0.594817 0.588249 0.61013 0.607399 0.606389 0.602457 0.616288 0.650759 0.668867 0.693451 0.731699 0.665161 0.711018 0.712412 0.635931 0.608352 0.623188 0.649772 0.637343 0.678008 0.687426 0.665995 0.765948 0.677114 0.524561 0.613752 0.696082 0.462157 1.02795 1.50262 1.13234 0.935774 0.805653 0.626591 0.59065 0.619822 0.630668 0.658275 0.704881 0.678295 0.66259 0.635002 0.660007 0.777986 0.747605 0.645459 0.836371 0.844764 0.747209 0.778332 0.673235 0.557614 0.784517 0.610794 0.721891 0.588786 0.634845 0.713104 0.715768 0.738334 0.69636 0.623381 0.874438 0.962128 0.667849 0.626955 0.647764 0.680142 0.681504 0.679065 0.716427 0.799161 0.731151 0.614404 0.588651 0.530518 0.687096 0.739017 0.770059 0.746459 0.749224 0.735374 0.621821 0.652299 0.660931 0.630548 0.650585 0.671672 0.627416 0.639082 0.644503 0.631621 0.630818 0.619993 0.615208 0.630766 0.612242 0.59732 0.596631 0.5914 0.593007 0.58465 0.593312 0.577979 0.581438 0.588927 0.577724 0.56944 0.583344 0.576751 0.556328 0.55541 0.547262 0.544983 0.550718 0.539727 0.539321 0.536578 0.531509 0.532851 0.530587 0.530252 0.528784 0.525229 0.563781 0.592348 0.545666 0.587417 0.553108 0.558501 0.549046 0.551616 0.553815 0.557422 0.562997 0.569839 0.624697 0.60231 0.615489 0.588421 0.59107 0.574025 0.55878 0.539367 0.566229 0.670317 0.626746 0.550589 0.668263 0.593226 0.65507 0.569464 0.5934 0.577668 0.603008 0.587981 0.613961 0.596556 0.61894 0.58253 0.50822 0.736598 0.892294 0.636175 0.692631 0.445934 0.594525 0.577565 0.610894 0.609087 0.685327 0.718956 0.603217 0.688695 0.702679 0.820618 0.69362 0.726235 0.659326 0.526134 0.872715 1.02126 0.846268 0.710493 0.562192 0.56251 0.522673 0.63996 0.597523 0.636998 0.636726 0.63892 0.652935 0.681264 0.641891 0.738557 0.575143 0.247876 0.660526 0.64126 0.65953 0.625329 0.59027 0.616649 0.992471 0.563682 0.698417 0.751762 0.743247 0.725303 0.75428 0.779176 0.703611 0.611569 0.652859 0.56567 0.600465 0.669016 0.777538 0.658651 0.644542 0.687295 0.62204 0.636228 0.621435 0.606994 0.639786 0.614662 0.59528 0.603978 0.586476 0.588129 0.596096 0.576334 0.571721 0.594884 0.59743 0.601476 0.589608 0.588842 0.592127 0.578528 0.56861 0.563403 0.561942 0.561613 0.546519 0.55175 0.541421 0.541167 0.546547 0.52723 0.528424 0.527847 0.523644 0.522432 0.518033 0.515954 0.506998 0.560894 0.605979 0.563148 0.571496 0.588846 0.59625 0.622601 0.562154 0.542391 0.538224 0.550792 0.548569 0.555555 0.539129 0.555501 0.557585 0.536649 0.57153 0.575094 0.550038 0.563975 0.556726 0.563178 0.538772 0.56101 0.563426 0.560042 0.582893 0.581443 0.532695 0.532845 0.527184 0.619397 0.587588 0.597386 0.585971 0.622977 0.641153 0.613714 0.621216 0.604626 0.552867 0.563817 0.689964 0.544643 0.580993 0.711779 0.676692 0.573983 0.675951 0.548587 0.546655 0.605672 0.565705 0.584153 0.589332 0.688161 0.772264 0.495585 0.456123 0.591494 0.624552 0.632424 0.514527 0.558638 0.399519 1.12036 0.738351 0.488471 0.379267 0.52228 0.498262 0.588811 0.638448 0.617953 0.647887 0.641507 0.684692 0.642561 0.633907 0.473332 0.619825 0.601284 0.614635 0.533217 0.605062 0.584689 0.699083 1.05883 0.888731 0.220673 0.40484 0.287806 0.550529 0.676652 0.525245 0.717514 0.589647 0.597784 0.736673 0.718255 0.628567 0.6481 0.565044 0.595504 0.569275 0.500307 0.784735 0.670586 0.738716 0.726387 0.627635 0.603675 0.535201 0.673192 0.602258 0.666472 0.608826 0.634226 0.592555 0.607383 0.568087 0.553444 0.59636 0.584255 0.58459 0.587304 0.583894 0.575812 0.577077 0.564344 0.572527 0.541951 0.55273 0.526707 0.526279 0.532586 0.523586 0.525091 0.519122 0.521535 0.516623 0.514379 0.507999 0.500399 0.515318 0.501723 0.483339 0.481257 0.471579 0.608507 0.58658 0.666451 0.591134 0.592487 0.609295 0.612076 0.601141 0.64109 0.675321 0.657312 0.360954 0.513854 0.470648 0.52561 0.460991 0.510932 0.521546 0.499599 0.522658 0.525227 0.531309 0.551798 0.581143 0.513594 0.607737 0.610415 0.52429 0.619951 0.594053 0.680147 0.631929 0.615823 0.573397 0.52675 0.567196 0.556462 0.610564 0.54273 0.660051 0.698156 0.794326 0.680193 0.541915 0.529197 0.538739 0.533393 0.536974 0.523186 0.509942 0.401692 0.418919 0.482345 0.538691 0.630892 0.508027 0.332683 0.617634 0.686372 1.34029 0.517366 0.595606 0.556305 0.600904 0.604241 0.608868 0.572629 0.642504 0.62677 0.628345 0.639183 0.621323 0.642689 0.560371 0.62195 0.594703 0.555958 0.511868 0.560723 0.927761 0.548116 0.460864 0.520183 0.473419 0.529079 0.536501 0.572893 0.538227 0.513821 0.495759 0.563198 0.511672 0.496985 0.432557 0.372269 0.767155 0.446828 0.939812 0.588615 0.63193 0.709244 0.638012 0.645189 0.660979 0.638293 0.558238 0.644616 0.568807 0.56036 0.543452 0.609569 0.592495 0.616933 0.574926 0.559017 0.551875 0.548625 0.537636 0.520944 0.519339 0.513057 0.516668 0.518941 0.508126 0.507057 0.500693 0.509629 0.479188 0.494789 0.473 0.465479 0.466659 0.461783 0.408803 0.238958 0.529469 0.568484 0.50962 0.523181 0.343312 0.537578 0.442098 0.298026 0.332873 0.233683 0.231687 0.52491 0.468698 0.413799 0.42494 0.395285 0.422607 0.470872 0.439368 0.470422 0.504345 0.497143 0.515337 0.516926 0.526227 0.480577 0.488924 0.525218 0.542238 0.581024 0.51382 0.316683 0.528062 0.472791 0.690621 0.270088 0.359867 0.548735 0.67201 0.472853 0.47821 0.600006 0.477094 0.51222 0.378593 0.508717 0.512614 0.507677 0.471655 0.516997 0.489381 0.601127 0.536333 0.536682 0.587582 0.607901 0.70133 0.703611 0.613255 0.369714 0.625702 0.59017 0.579227 0.701836 0.596476 0.786474 0.623841 0.620992 0.604218 0.647091 0.627132 0.583122 0.598093 0.593381 0.557232 0.536188 0.330166 0.848427 0.571871 0.725708 0.613731 0.521918 0.518693 0.582264 0.531745 0.535063 0.532519 0.513031 0.503277 0.496845 0.493719 0.500298 0.46318 0.413834 0.454703 0.542605 0.636512 0.50223 0.640808 0.626075 0.643029 0.59052 0.565966 0.542141 0.549269 0.563761 0.525502 0.619751 0.562807 0.604115 0.574411 0.526964 0.576217 0.55757 0.553355 0.550279 0.546162 0.531436 0.52404 0.510673 0.521873 0.509331 0.504418 0.505107 0.501156 0.507926 0.475219 0.464097 0.459799 0.437657 0.434264 0.461702 0.434141 0.426381 0.36546 0.400209 0.309768 0.268612 0.349121 0.367677 0.263589 0.0964949 0.291221 0.422051 0.35113 0.309704 0.534342 0.494835 0.441581 0.395847 0.38039 0.423086 0.455098 0.478999 0.47483 0.483718 0.516697 0.464536 0.507747 0.43864 0.547132 0.425012 0.453896 0.369759 0.50764 0.41438 0.533812 0.431273 0.502466 0.536854 0.49182 0.489873 0.499117 0.474174 0.534545 0.521625 0.513912 0.518438 0.511106 0.500353 0.497786 0.493927 0.505378 0.521373 0.568868 0.566396 0.643254 0.666321 0.538054 0.205361 0.442274 0.449452 0.690758 0.529954 0.604547 0.583449 0.529254 0.523113 0.587494 0.325237 0.596072 0.685379 0.661384 0.703918 0.699354 0.743583 0.633992 0.546128 0.525387 0.380002 0.542979 0.461297 0.547715 0.603301 0.578393 0.55605 0.553204 0.538584 0.521372 0.511822 0.503685 0.514149 0.493997 0.497965 0.500129 0.503117 0.486647 0.455135 0.496814 0.490743 0.451525 0.50058 0.454487 0.584623 0.478858 0.59296 0.593815 0.519812 0.488382 0.504621 0.478865 0.52561 0.519351 0.478441 0.493162 0.54005 0.507222 0.485249 0.469188 0.513782 0.447966 0.517271 0.505667 0.503268 0.494631 0.497636 0.495197 0.482473 0.466009 0.472058 0.460373 0.422596 0.472978 0.413287 0.416427 0.405241 0.390564 0.349166 0.353773 0.34172 0.294934 0.319683 0.265028 0.248685 0.315769 0.226356 0.22265 0.463243 0.524899 0.512271 0.571895 0.47025 0.519106 0.467724 0.440043 0.471963 0.468452 0.473637 0.474875 0.465428 0.46455 0.459427 0.452236 0.440821 0.443168 0.452542 0.469894 0.481477 0.49891 0.532455 0.476824 0.511108 0.51144 0.52758 0.521372 0.525413 0.524309 0.509359 0.501636 0.507225 0.524582 0.520581 0.523959 0.521219 0.520536 0.514761 0.531626 0.525481 0.514047 0.519768 0.527526 0.537809 0.585814 0.636042 0.640642 0.609242 0.576376 0.548572 0.560554 0.481163 0.473657 0.523511 0.534882 0.463178 0.427173 0.536319 0.646801 0.734737 0.783962 0.752369 0.637539 0.587527 0.543533 0.525723 0.535614 0.534817 0.540616 0.62641 0.579407 0.558832 0.562355 0.550194 0.544851 0.539689 0.546261 0.527742 0.506406 0.520801 0.511037 0.508216 0.512348 0.512865 0.502238 0.505759 0.502208 0.478656 0.474385 0.536561 0.487297 0.531031 0.489247 0.484383 0.482539 0.483016 0.477666 0.45016 0.479426 0.456058 0.495377 0.493444 0.516638 0.445266 0.439798 0.447792 0.471786 0.481755 0.41755 0.494468 0.480343 0.489981 0.484636 0.483279 0.458389 0.455452 0.457852 0.451581 0.40421 0.40525 0.390111 0.395613 0.38132 0.389982 0.368255 0.344195 0.373727 0.359733 0.348445 0.345376 0.340874 0.339403 0.322409 0.306812 0.307076 0.337581 0.361003 0.393906 0.359786 0.428304 0.385429 0.509341 0.464808 0.516253 0.532236 0.456785 0.483922 0.483939 0.47552 0.481541 0.472751 0.462636 0.458916 0.459024 0.457753 0.451584 0.471273 0.460636 0.480756 0.495797 0.493248 0.510655 0.504718 0.497323 0.503625 0.515444 0.520034 0.525058 0.523119 0.523676 0.515864 0.522599 0.520165 0.516426 0.524098 0.525769 0.533001 0.530497 0.550074 0.518904 0.533513 0.554369 0.537064 0.530217 0.610529 0.73166 0.644595 0.608381 0.595047 0.583447 0.50493 0.503294 0.472468 0.456692 0.549499 0.465117 0.675487 0.561987 0.681453 0.790717 0.665287 0.581719 0.546898 0.594416 0.575958 0.519648 0.595167 0.523306 0.617529 0.579419 0.67681 0.621198 0.551144 0.55491 0.555771 0.542489 0.535154 0.534386 0.521321 0.517354 0.509628 0.517568 0.513151 0.506889 0.488024 0.485072 0.481986 0.490182 0.492412 0.489672 0.498314 0.512913 0.509629 0.507756 0.51014 0.489623 0.481419 0.477726 0.462651 0.474486 0.464541 0.475752 0.475021 0.476898 0.478249 0.395143 0.436875 0.429035 0.434821 0.41951 0.423219 0.4246 0.470234 0.473746 0.448396 0.462411 0.441203 0.452952 0.422765 0.404298 0.406645 0.391465 0.380446 0.382448 0.367203 0.321987 0.342447 0.309413 0.278458 0.418099 0.408049 0.390805 0.377106 0.385326 0.39303 0.36366 0.369832 0.3499 0.348139 0.339722 0.326472 0.314548 0.313724 0.338364 0.348573 0.356858 0.374411 0.421776 0.438297 0.465552 0.464327 0.457637 0.466316 0.482634 0.476592 0.480131 0.475553 0.474496 0.471392 0.464882 0.466721 0.465885 0.472459 0.477493 0.482157 0.490998 0.491916 0.50763 0.508851 0.516776 0.52133 0.52239 0.524106 0.524624 0.52451 0.531099 0.53231 0.53431 0.53987 0.542164 0.548528 0.559339 0.562197 0.572864 0.53395 0.517166 0.486357 0.541132 0.70849 0.673623 0.521565 0.512521 0.535595 0.541894 0.531847 0.496342 0.505162 0.465546 0.472644 0.649768 0.719168 0.577362 0.4246 0.588089 0.595346 0.541486 0.492094 0.866391 0.546253 0.751608 0.565463 0.582227 0.566321 0.568462 0.547357 0.559103 0.552851 0.544973 0.534258 0.528452 0.543903 0.521254 0.522306 0.514503 0.503421 0.495291 0.506894 0.497556 0.499922 0.508556 0.496201 0.504306 0.496333 0.486361 0.493421 0.478901 0.487133 0.475228 0.467424 0.469657 0.472239 0.479411 0.478321 0.489206 0.488314 0.453425 0.478595 0.455072 0.475732 0.425399 0.438979 0.40999 0.436654 0.429045 0.443029 0.479525 0.485748 0.488493 0.479917 0.513422 0.585381 0.379228 0.415688 0.369278 0.384988 0.379838 0.376821 0.378977 0.374251 0.366051 0.371002 0.343591 0.362577 0.309702 0.260721 0.229332 0.426451 0.433136 0.424005 0.395816 0.404631 0.393507 0.374123 0.352667 0.332812 0.329515 0.319494 0.327658 0.352531 0.359124 0.386767 0.382817 0.422628 0.420704 0.433563 0.427627 0.449914 0.448203 0.466442 0.477495 0.469332 0.474884 0.472369 0.472528 0.468771 0.469723 0.469224 0.474078 0.473741 0.481042 0.487189 0.511757 0.510779 0.515923 0.519915 0.521426 0.523675 0.52683 0.527888 0.531997 0.537535 0.53667 0.544396 0.552114 0.562141 0.568355 0.533513 0.542992 0.502476 0.515458 0.433923 0.480566 0.71065 0.614882 0.407916 0.494883 0.559631 0.570364 0.631009 0.559809 0.54383 0.511044 0.49315 0.606263 0.659362 0.671168 0.482416 0.5647 0.54341 0.414698 0.532546 0.325185 0.645739 0.595532 0.582362 0.57342 0.562876 0.552807 0.553152 0.541978 0.536396 0.533166 0.51578 0.525682 0.518886 0.505729 0.505554 0.506111 0.513462 0.512118 0.510135 0.501968 0.494623 0.481637 0.492676 0.481213 0.477726 0.473821 0.487784 0.502363 0.487183 0.456939 0.444054 0.465808 0.399108 0.46918 0.500343 0.548444 0.455876 0.447285 0.481051 0.364126 0.320661 0.367401 0.368433 0.36136 0.346719 0.346114 0.317797 0.29315 0.289163 0.26009 0.203625 0.16124 0.404293 0.382415 0.464253 0.467779 0.395256 0.42262 0.41068 0.38727 0.339392 0.323609 0.323733 0.32867 0.326933 0.332715 0.361554 0.349001 0.371893 0.348816 0.432893 0.441386 0.438138 0.459404 0.461221 0.466768 0.470888 0.471781 0.476725 0.473271 0.470402 0.469646 0.472824 0.473689 0.480014 0.480425 0.483358 0.480451 0.496847 0.504619 0.505636 0.509484 0.514335 0.520468 0.526523 0.524356 0.528766 0.528095 0.531161 0.532012 0.533834 0.538469 0.53729 0.53856 0.540854 0.545062 0.552821 0.547632 0.551194 0.52302 0.52603 0.520846 0.511957 0.45771 0.369061 0.575239 0.58982 0.62728 0.533072 0.646424 0.714814 0.5331 0.547877 0.58788 0.551533 0.464147 0.530524 0.632296 0.541463 0.591326 0.510313 0.555373 0.525588 0.577157 0.442099 0.50119 0.463367 0.528868 0.587092 0.5787 0.576193 0.56856 0.559701 0.559072 0.550133 0.542131 0.536561 0.53234 0.518654 0.529062 0.522667 0.516783 0.510573 0.517555 0.520021 0.502182 0.503299 0.49008 0.488763 0.496465 0.486829 0.476855 0.497518 0.501733 0.539428 0.512275 0.610249 0.51386 0.478268 0.533654 0.406158 0.565893 0.467723 0.661567 0.455955 0.570921 0.529202 0.577708 0.47049 0.69042 0.428455 0.392829 0.364405 0.326714 0.3499 0.348139 0.3175 0.278215 0.251974 0.271987 0.24415 0.127367 0.0905927 0.0568157 0.261008 0.233037 0.449931 0.516546 0.508041 0.425456 0.442213 0.463664 0.46555 0.431379 0.417525 0.381609 0.352823 0.328694 0.329704 0.359642 0.379491 0.419772 0.440826 0.451628 0.463856 0.470718 0.473283 0.475932 0.475717 0.477783 0.474896 0.477736 0.467325 0.473548 0.482518 0.488343 0.486333 0.495095 0.505313 0.508105 0.507546 0.509848 0.513384 0.512985 0.519831 0.527042 0.529369 0.532398 0.537215 0.541326 0.540527 0.540431 0.544237 0.541196 0.538053 0.549303 0.537464 0.521716 0.515011 0.516749 0.493476 0.507087 0.480895 0.505382 0.515421 0.577238 0.549447 0.518882 0.399683 0.759897 0.389399 0.438795 0.460337 0.601419 0.649525 0.66154 0.575012 0.548223 0.672149 0.51009 0.399227 0.599956 0.40873 0.508434 0.487108 0.64546 0.432492 0.490078 0.493053 0.509237 0.569623 0.581229 0.573259 0.576326 0.570512 0.563468 0.564811 0.559823 0.552695 0.548829 0.559738 0.544755 0.542175 0.533835 0.536491 0.532639 0.525082 0.530244 0.523786 0.517147 0.523036 0.513355 0.520893 0.502735 0.49996 0.481772 0.485599 0.458947 0.424712 0.407891 0.640243 0.395961 0.485229 0.230817 0.353635 0.314877 0.152753 0.461066 0.416887 0.515492 0.39364 0.105836 0.293117 0.306819 0.324223 0.320511 0.32304 0.316837 0.343049 0.303389 0.306384 0.278892 0.287454 0.27239 0.176382 0.0839491 0.220073 0.0512605 0.0757884 1.08083 0.183407 0.303436 0.406188 0.416076 0.353781 0.285151 0.105128 0.774921 0.579845 0.357285 0.31334 0.308745 0.336103 0.365379 0.391229 0.404158 0.452975 0.471578 0.487578 0.482241 0.468777 0.466139 0.47093 0.482983 0.492192 0.490538 0.498139 0.496657 0.502426 0.51151 0.510237 0.512939 0.518613 0.520361 0.526368 0.534587 0.533111 0.535567 0.537134 0.544311 0.54527 0.544872 0.54225 0.551514 0.497829 0.513124 0.546104 0.526818 0.493231 0.502008 0.508126 0.516387 0.471157 0.51283 0.462671 0.524888 0.60942 0.506994 0.613665 0.684514 0.468101 0.255594 0.513438 0.291613 0.477398 0.295861 0.502576 0.965116 0.334976 0.435499 0.370186 0.465921 0.521094 0.571228 0.616211 0.577972 0.601481 0.571342 0.568107 0.568781 0.566429 0.567503 0.556911 0.551179 0.546638 0.540129 0.541883 0.536997 0.534807 0.531036 0.527618 0.52734 0.517626 0.509454 0.503172 0.511046 0.511419 0.470371 0.495937 0.452035 0.453951 0.410917 0.457633 0.419593 0.440632 0.442313 0.453963 0.387678 0.331072 0.259946 0.426719 0.375298 0.429699 0.373309 0.407164 0.39737 0.222503 0.332841 0.340764 0.331571 0.33042 0.309687 0.316466 0.319349 0.312942 0.227213 0.0595314 0.0576086 0.813625 0.0534192 0.306847 0.301706 0.195881 0.372453 0.246104 0.246626 0.266394 0.29629 0.341244 0.344752 0.380776 0.376254 0.414089 0.408988 0.452377 0.483979 0.472321 0.490661 0.482723 0.447892 0.478324 0.440932 0.454085 0.461409 0.458945 0.478115 0.493992 0.514909 0.503747 0.503338 0.504038 0.515843 0.510039 0.52255 0.528934 0.533659 0.541352 0.538017 0.542505 0.5334 0.545099 0.546997 0.546893 0.546617 0.531127 0.576098 0.526398 0.478541 0.454249 0.418517 0.493772 0.497549 0.489598 0.462982 0.437314 0.630382 0.536042 0.303571 0.58724 0.250102 0.618034 0.272075 0.690457 0.816922 0.368138 0.360267 0.644976 0.527438 0.591512 0.608147 0.589393 0.573094 0.602488 0.572293 0.572904 0.574245 0.565773 0.560289 0.554816 0.549123 0.555896 0.548067 0.543259 0.549685 0.540624 0.535177 0.53277 0.52797 0.526046 0.529216 0.529524 0.529182 0.504234 0.429606 0.424319 0.453944 0.459139 0.452581 0.432297 0.339994 0.357483 0.426807 0.351972 0.352075 0.294602 0.365228 0.371118 0.35424 0.355658 0.358919 0.316745 0.35168 0.362378 0.359836 0.300376 0.300891 0.445852 0.747591 0.0687622 0.108951 0.364947 0.468098 0.269576 0.320411 0.259472 0.271564 0.236542 0.240705 0.230755 0.260309 0.300219 0.384263 0.396443 0.313484 0.398157 0.446573 0.507966 0.4288 0.434295 0.450451 0.398183 0.430612 0.514417 0.551611 0.505124 0.507035 0.538958 0.52304 0.528919 0.533879 0.538277 0.551469 0.543444 0.552194 0.553065 0.55047 0.551177 0.548387 0.554225 0.540427 0.547893 0.554167 0.532036 0.33305 0.413457 0.583608 0.520216 0.488318 0.415665 0.455936 0.649726 0.316334 0.410055 0.0629799 0.457566 0.508802 0.454026 0.423556 0.701336 0.323575 0.415185 0.514557 0.586112 0.592797 0.589767 0.586841 0.580787 0.5857 0.585261 0.585862 0.572299 0.567307 0.567438 0.555928 0.548714 0.55719 0.545525 0.541336 0.535159 0.529821 0.530024 0.529083 0.520741 0.39946 0.421304 0.442668 0.447237 0.444171 0.472268 0.479022 0.486197 0.416945 0.523305 0.413751 0.378741 0.36289 0.32935 0.371405 0.373572 0.369441 0.358455 0.387639 0.341191 0.40207 0.438372 0.612734 0.318042 0.166573 0.38942 0.251446 0.171884 0.468362 0.538903 0.387259 0.423962 0.422181 0.285636 0.198561 0.268483 0.198471 0.167347 0.323074 0.358872 0.246525 0.224775 0.227638 0.299106 0.204821 0.172918 0.208419 0.212938 0.387461 0.400162 0.416884 0.404092 0.571311 0.543948 0.556719 0.533482 0.525802 0.520546 0.521992 0.558636 0.511362 0.525189 0.539892 0.543649 0.558927 0.556626 0.565128 0.55533 0.565569 0.567428 0.557249 0.567262 0.552254 0.547928 0.55753 0.522847 0.539315 0.531687 0.480813 0.747662 0.30144 0.375565 0.528709 0.594138 0.584812 0.585346 0.58715 0.587371 0.584925 0.57349 0.575262 0.571317 0.565112 0.556842 0.554156 0.549582 0.549412 0.54423 0.520427 0.526378 0.529065 0.532518 0.498445 0.390778 0.438083 0.495175 0.433403 0.441243 0.45404 0.488662 0.461352 0.524485 0.270359 0.334209 0.280427 0.26226 0.262453 0.32854 0.344497 0.332108 0.333426 0.345672 0.376701 0.360848 0.245709 0.378342 0.172215 0.0992661 0.250408 0.286056 0.531113 0.479947 0.438621 0.459574 0.438128 0.220876 0.48129 0.410332 0.267798 0.282966 0.21813 0.200353 0.245831 0.212727 0.149535 0.326737 0.349024 0.399268 0.416493 0.425881 0.477955 0.541895 0.517247 0.537235 0.504216 0.456803 0.517116 0.515831 0.537024 0.547945 0.556643 0.564463 0.550045 0.553914 0.552719 0.565599 0.568154 0.548842 0.58561 0.571796 0.576 0.56541 0.576385 0.568629 0.558907 0.555521 0.555467 0.56214 0.577697 0.541714 0.535836 0.539295 0.53626 0.555945 0.421344 0.401478 0.439561 0.453132 0.457645 0.470634 0.523065 0.152678 0.129495 0.124073 0.285526 0.19531 0.292276 0.311764 0.298537 0.326778 0.365153 0.364957 0.374995 0.226386 0.410621 0.265991 0.340872 0.31146 0.235523 0.318025 0.58331 0.417087 0.429236 0.379881 0.507143 0.214207 0.208726 0.469772 0.312983 0.373032 0.301156 0.442181 0.45626 0.426928 0.369304 0.322429 0.387647 0.502122 0.449368 0.439396 0.424816 0.48328 0.481605 0.518795 0.554135 0.551282 0.453878 0.435892 0.512587 0.54776 0.563123 0.545666 0.566973 0.551152 0.567935 0.550995 0.571363 0.525843 0.530622 0.52272 0.464115 0.555136 0.644119 0.399003 0.443439 0.449106 0.459562 0.470653 0.506064 0.334123 0.135285 0.135979 0.228244 0.247718 0.281594 0.326849 0.385119 0.367941 0.352162 0.537669 0.239046 0.298741 0.289108 0.317837 0.567249 0.584231 0.453094 0.383476 0.422564 0.513869 0.301905 0.203951 0.25416 0.437985 0.553703 0.49927 0.420959 0.345387 0.38106 0.427884 0.485834 0.577841 0.56555 0.383709 0.530818 0.499527 0.650792 0.345283 0.401127 0.39712 0.438441 0.405006 0.453245 0.421798 0.0539945 0.348345 0.166663 0.374077 0.205646 0.255996 0.291838 0.372974 0.441425 0.425718 0.593618 0.271636 0.344289 0.425837 0.413762 0.494254 0.208412 0.331608 0.421306 0.299959 
SCALARS Stress float 1
LOOKUP_TABLE default
-61380100000.0 -76923200000.0 -42808500000.0 -104040000000.0 -134403000000.0 -160525000000.0 -55283200000.0 -86924000000.0 -51719300000.0 -55022900000.0 -92713200000.0 -65436200000.0 -100698000000.0 -222266000000.0 -82512600000.0 -255257000000.0 -425297000000.0 -115882000000.0 -324487000000.0 -111002000000.0 -90943800000.0 -57938700000.0 -132278000000.0 -192560000000.0 -92286700000.0 -312407000000.0 -169586000000.0 -124854000000.0 -30049700000.0 -175220000000.0 -82536100000.0 -43570700000.0 -47707900000.0 -124461000000.0 -34708900000.0 -282344000000.0 -183535000000.0 -536572000000.0 -321041000000.0 -282604000000.0 -298489000000.0 -208420000000.0 -600264000000.0 -206221000000.0 -461241000000.0 -651532000000.0 -440751000000.0 -59544900000.0 -256651000000.0 -59444600000.0 -361011000000.0 -182097000000.0 -280027000000.0 -195141000000.0 -429367000000.0 -450064000000.0 -106846000000.0 -305360000000.0 -53772700000.0 -158640000000.0 -253545000000.0 -122639000000.0 -71663800000.0 -64341300000.0 -195148000000.0 -540244000000.0 -225165000000.0 -774716000000.0 -732682000000.0 -134217000000.0 -220141000000.0 -456091000000.0 -290679000000.0 -875022000000.0 -713258000000.0 -84248600000.0 -62383700000.0 -483337000000.0 -770451000000.0 -441309000000.0 -122246000000.0 -287014000000.0 -740806000000.0 -489819000000.0 -50872500000.0 -131732000000.0 -106279000000.0 -82151900000.0 -30065400000.0 -358538000000.0 -363593000000.0 -1.03021e+12 -963240000000.0 -636356000000.0 -710203000000.0 -1.05911e+12 -713938000000.0 -470460000000.0 -785651000000.0 -877108000000.0 -485803000000.0 -882519000000.0 -799536000000.0 -303472000000.0 -1.07991e+12 -436875000000.0 -272504000000.0 -548164000000.0 -638998000000.0 -52502000000.0 -381651000000.0 -250442000000.0 -158031000000.0 -213270000000.0 -95606300000.0 -64853800000.0 -575787000000.0 -554071000000.0 -1.05253e+12 -248314000000.0 -1.17096e+12 -599719000000.0 -354007000000.0 -2.4286e+12 -1.18147e+12 -776234000000.0 -1.06166e+12 -1.39728e+12 -1.37207e+12 -686251000000.0 -1.21442e+12 -508433000000.0 -647536000000.0 -762494000000.0 -42214200000.0 -644539000000.0 -539587000000.0 -407997000000.0 -330609000000.0 -179340000000.0 -59254900000.0 -152799000000.0 -117330000000.0 -64445500000.0 -39429000000.0 -145605000000.0 -260934000000.0 -737795000000.0 -1.52941e+12 -206704000000.0 -369133000000.0 -1.79612e+12 -665767000000.0 -963165000000.0 -1.37225e+12 -1.63884e+12 -280480000000.0 -1.98071e+12 -2.17978e+12 -473323000000.0 -1.3285e+12 -814835000000.0 -1.5403e+12 -856464000000.0 -440242000000.0 -360969000000.0 -222332000000.0 -262825000000.0 -281599000000.0 -127075000000.0 -40961500000.0 -48975600000.0 -277310000000.0 -153610000000.0 -816235000000.0 -524325000000.0 -1.98728e+12 -483486000000.0 -737083000000.0 -3.10376e+12 -1.60219e+12 -1.39188e+12 -1.6321e+12 -738389000000.0 -1.81419e+12 -1.17341e+12 -600255000000.0 -3.75791e+12 -1.37459e+12 -1.64405e+12 -2.35402e+12 -1.53753e+12 -1.44682e+12 -1.43379e+12 -1.3813e+12 -560351000000.0 -1.06122e+12 -365718000000.0 -756897000000.0 -514270000000.0 -151078000000.0 -172023000000.0 -18463600000.0 -52026000000.0 -79999300000.0 -391695000000.0 -235007000000.0 -792791000000.0 -319833000000.0 -522913000000.0 -1.40674e+12 -1.40879e+12 -1.82167e+12 -1.30886e+12 -1.45087e+12 -2.50636e+12 -2.70504e+12 -1.42357e+12 -2.69826e+12 -2.31401e+12 -1.96813e+12 -1.95101e+12 -1.58669e+12 -1.99428e+12 -2.08827e+12 -1.21209e+12 -25556300000.0 -1.59689e+12 -399603000000.0 -183910000000.0 -260420000000.0 -24825900000.0 -104163000000.0 -120467000000.0 -31092700000.0 -319970000000.0 -394680000000.0 -283528000000.0 -1.14088e+12 -476436000000.0 -1.50147e+12 -1.99785e+12 -1.72055e+12 -658907000000.0 -2.69888e+12 -1.88769e+12 -2.91288e+12 -2.99438e+12 -1.28985e+12 -2.45648e+12 -1.65861e+12 -1.86814e+12 -1.2326e+12 -1.20808e+12 -2.56095e+12 -2.53772e+12 -2.3918e+12 -909394000000.0 -583355000000.0 -1.22353e+12 -348468000000.0 -1.16139e+12 -119903000000.0 -484207000000.0 -340956000000.0 -1.48093e+12 -555763000000.0 -1.58592e+12 -465953000000.0 -1.23956e+12 -2.73283e+12 -2.03539e+12 -4.40538e+12 -1.43243e+12 -1.55266e+12 -2.00262e+12 -2.06696e+12 -3.56077e+12 -4.69329e+12 -1.62224e+12 -1.91431e+12 -1.23204e+12 -1.45488e+12 -2.45531e+12 -2.46902e+12 -1.78613e+12 -376027000000.0 -543217000000.0 -1.12979e+12 -468262000000.0 -100239000000.0 -148410000000.0 -621217000000.0 -745203000000.0 -1.7002e+12 -1.86787e+12 -1.53692e+12 -2.38599e+12 -2.7059e+12 -2.68681e+12 -2.21853e+12 -3.33307e+12 -3.14513e+12 -2.50459e+12 -1.6747e+12 -1.67589e+12 -4.10091e+12 -1.98221e+12 -3.08482e+12 -2.56157e+12 -1.05151e+12 -2.05508e+12 -3.14002e+12 -2.07476e+12 -1.71724e+12 -1.76563e+12 -2.01863e+12 -897212000000.0 -1.38731e+12 -67336100000.0 -339626000000.0 -1.25087e+12 -1.49298e+12 -2.52481e+12 -2.83964e+12 -2.8798e+12 -1.54469e+12 -3.7892e+12 -4.40182e+12 -3.31409e+12 -2.16818e+12 -3.47882e+12 -3.57004e+12 -4.59211e+12 -3.57929e+12 -4.42981e+12 -4.58566e+12 -3.43535e+12 -2.42577e+12 -2.75366e+12 -852752000000.0 -2.90567e+12 -2.54927e+12 -1.73426e+12 -1.47878e+12 -2.15222e+12 -1.59432e+12 -1.60654e+12 -1.53973e+12 -71668800000.0 -271591000000.0 -702606000000.0 -752200000000.0 -1.06762e+12 -2.29709e+12 -2.21126e+12 -1.77225e+12 -2.63328e+12 -2.69554e+12 -3.77853e+12 -4.46696e+12 -3.42844e+12 -3.10457e+12 -2.63722e+12 -2.85425e+12 -2.76651e+12 -2.1871e+12 -3.13266e+12 -4.15477e+12 -2.8486e+12 -1.56302e+12 -2.66952e+12 -2.59529e+12 -2.77844e+12 -3.54862e+12 -3.4454e+12 -1.85636e+12 -1.15859e+12 -2.77283e+12 -2.05899e+12 -3.64153e+12 -1.70105e+12 -2.71132e+12 -891569000000.0 -1.6348e+12 -213340000000.0 -155850000000.0 -173020000000.0 -394769000000.0 -1.22383e+12 -3.1626e+12 -2.52436e+12 -2.70984e+12 -3.56254e+12 -2.27539e+12 -2.99846e+12 -4.46238e+12 -2.51554e+12 -3.26527e+12 -3.27639e+12 -3.12571e+12 -3.05016e+12 -4.05908e+12 -2.59502e+12 -3.61685e+12 -2.51751e+12 -2.78228e+12 -3.08313e+12 -3.9744e+12 -5.2004e+12 -3.14125e+12 -4.398e+12 -2.65345e+12 -3.29648e+12 -3.82779e+12 -2.11458e+12 -4.06702e+12 -63918700000.0 -775225000000.0 -1.38944e+12 -1.72146e+12 -3.69737e+12 -2.43531e+12 -3.91933e+12 -3.81612e+12 -4.9082e+12 -2.3782e+12 -4.14595e+12 -5.35422e+12 -2.54367e+12 -3.22261e+12 -4.1947e+12 -4.18786e+12 -2.15996e+12 -4.58678e+12 -2.89358e+12 -4.2841e+12 -3.28017e+12 -4.78541e+12 -6.02058e+12 -3.46099e+12 -2.54821e+12 -4.50631e+12 -4.02433e+12 -5.86237e+12 -2.62643e+12 -2.55127e+12 -2.7396e+12 -2.92927e+12 -3.84892e+12 -2.85223e+12 -2.72986e+12 -2.50302e+12 -2.88935e+12 -2.68115e+12 -3.44616e+12 -3.48221e+12 -4.97204e+12 -3.57867e+12 -4.39165e+12 -4.58887e+12 -2.05461e+12 -3.35072e+12 -5.75742e+12 -4.10711e+12 -4.39857e+12 -2.85493e+12 -4.48107e+12 -2.43618e+12 -7.31052e+12 -4.38289e+12 -5.9576e+12 -3.70389e+12 -4.75984e+12 -5.90046e+12 -3.14659e+12 -3.00393e+12 -3.84451e+12 -2.00565e+12 -4.15702e+12 -3.41143e+12 -3.69441e+12 -2.36336e+12 -1.80607e+12 -5.33028e+12 -6.16379e+12 -2.47188e+12 -3.68931e+12 -5.9367e+12 -5.89924e+12 -3.59359e+12 -6.36664e+12 -4.65416e+12 -6.02051e+12 -5.51697e+12 -4.75571e+12 -3.71008e+12 -4.04917e+12 -5.17535e+12 -5.0561e+12 -4.34425e+12 -7.23405e+12 -4.33381e+12 -5.00864e+12 -6.6822e+12 -5.43949e+12 -3.32935e+12 -2.75766e+12 -5.37847e+12 -5.60988e+12 -4.12203e+12 -3.13672e+12 -4.94133e+12 -4.71193e+12 -4.10807e+12 -4.43657e+12 -4.7757e+12 -2.69263e+12 -5.54078e+12 -7.32953e+12 -5.94167e+12 -2.9693e+12 -2.56301e+12 -12549700000.0 -2.92219e+12 -5.73711e+12 -6.66017e+12 -7.35996e+12 -5.44861e+12 -3.27732e+12 -5.44402e+12 -2.42464e+12 -4.77187e+12 -5.35399e+12 -3.42062e+12 -9.68204e+12 -6.85871e+12 -4.37422e+12 -3.77288e+12 -2.59391e+12 -4.30605e+12 -4.01454e+12 -4.99204e+12 -5.73909e+12 -5.3909e+12 -5.20652e+12 -4.59273e+12 -1.77397e+12 -3.41989e+12 -4.14766e+12 -5.31955e+12 -7.18739e+12 -8.56869e+12 -4.13374e+12 -2.40553e+12 -2.74085e+12 -5.14705e+12 -3.84311e+12 -6.48008e+12 -4.77447e+12 -8.44013e+12 -5.83902e+12 -4.0591e+12 -3.26104e+12 -4.84511e+12 -9.65822e+12 -4.07406e+12 -4.68197e+12 -5.02064e+12 -6.54469e+12 -5.14617e+12 -8.14129e+12 -8.70187e+12 -3.26923e+12 -4.88788e+12 -6.11219e+12 -1.01309e+13 -5.22924e+12 -5.64268e+12 -6.31724e+12 -4.76527e+12 -6.23123e+12 -5.93087e+12 -6.48547e+12 -8.50268e+12 -2.74569e+12 -3.26083e+12 -5.54433e+12 -4.33245e+12 -7.50467e+12 -7.41762e+12 -6.69303e+12 -6.54501e+12 -5.00555e+12 -4.0619e+12 -4.15039e+12 -4.87278e+12 -4.30473e+12 -4.80872e+12 -3.71877e+12 -4.95998e+12 -6.86253e+12 -1.09411e+13 -6.12646e+12 -7.15803e+12 -8.53655e+12 -8.06133e+12 -2.61939e+12 -1.11646e+13 -4.4995e+12 -8.6986e+12 -7.0213e+12 -4.93443e+12 -6.49127e+12 -2.81487e+12 -5.92754e+12 -6.84356e+12 -6.23134e+12 -4.86445e+12 -5.701e+12 -3.14703e+12 -6.5144e+12 -5.10968e+12 -9.70759e+12 -6.22785e+12 -7.61188e+12 -6.0504e+12 -6.4064e+12 -5.21452e+12 -6.33669e+12 -7.0296e+12 -7.42422e+12 -6.62275e+12 -8.08803e+12 -8.01779e+12 -5.85175e+12 -6.90556e+12 -5.85421e+12 -8.14957e+12 -5.12761e+12 -1.01494e+13 -1.4153e+13 -1.11402e+13 -7.21281e+12 -4.13993e+12 -12549700000.0 -2.17098e+12 -4.42848e+12 -4.45539e+12 -7.22731e+12 -4.52379e+12 -5.62347e+12 -5.94858e+12 -3.97722e+12 -7.2198e+12 -2.25384e+12 -6.07056e+12 -5.1086e+12 -4.32027e+12 -6.22479e+12 -6.28625e+12 -2.76154e+12 -4.51215e+12 -2.52706e+12 -6.20489e+12 -6.3426e+12 -3.97197e+12 -5.99119e+12 -6.48871e+12 -4.80426e+12 -4.56145e+12 -7.23582e+12 -8.06669e+12 -9.70335e+12 -1.89967e+12 -4.15604e+12 -6.58993e+12 -5.71174e+12 -3.55485e+12 -2.64496e+12 -1.06552e+13 -7.0797e+12 -6.54973e+12 -7.94037e+12 -8.27264e+12 -5.20217e+12 -12549700000.0 -4.14329e+12 -3.85457e+12 -4.95805e+12 -3.28018e+12 -2.73083e+12 -4.76603e+12 -5.8805e+12 -3.68361e+12 -4.57122e+12 -3.72701e+12 -7.54221e+12 -3.82125e+12 -7.72338e+12 -6.34878e+12 -5.22585e+12 -6.8132e+12 -4.35122e+12 -5.89937e+12 -6.20809e+12 -7.72427e+12 -4.62006e+12 -6.6266e+12 -4.54592e+12 -3.74241e+12 -6.89349e+12 -8.71428e+12 -3.86623e+12 -3.85858e+12 -5.14605e+12 -5.93658e+12 -6.853e+12 -4.55464e+12 -8.87271e+12 -9.93106e+12 -5.34407e+12 -8.50624e+12 -7.97482e+12 -2.68878e+12 -3.42631e+12 -3.32601e+12 -12549700000.0 -4.01562e+12 -3.18112e+12 -6.57023e+12 -5.28543e+12 -7.34326e+12 -5.17514e+12 -4.38674e+12 -6.49441e+12 -4.11946e+12 -4.22192e+12 -6.31583e+12 -6.62666e+12 -6.09974e+12 -8.58628e+12 -4.95667e+12 -6.55084e+12 -3.40781e+12 -6.11572e+12 -8.35998e+12 -5.62746e+12 -8.59837e+12 -5.62203e+12 -3.25136e+12 -4.23988e+12 -7.39283e+12 -5.72784e+12 -3.59777e+12 -8.19853e+12 -3.76555e+12 -3.57041e+12 -5.14155e+12 -5.82903e+12 -6.00114e+12 -6.55638e+12 -5.4282e+12 -8.88536e+12 -8.71746e+12 -5.67877e+12 -4.63031e+12 -4.57933e+12 -5.21206e+12 -4.71579e+12 -6.28051e+12 -5.36439e+12 -9.22159e+12 -9.85792e+12 -1.18427e+13 -6.11002e+12 -8.73514e+12 -6.34968e+12 -6.21936e+12 -6.34852e+12 -3.67726e+12 -4.79038e+12 -1.22361e+13 -4.03046e+12 -5.8514e+12 -4.70216e+12 -1.04501e+13 -7.93776e+12 -8.08722e+12 -8.2622e+12 -2.63839e+12 -4.88626e+12 -9.2463e+12 -8.97845e+12 -8.41102e+12 -4.54441e+12 -7.69863e+12 -7.30676e+12 -6.28185e+12 -6.55585e+12 -6.21999e+12 -5.20398e+12 -7.82286e+12 -4.83956e+12 -6.10974e+12 -3.86279e+12 -6.38095e+12 -4.14846e+12 -4.26544e+12 -2.83609e+12 -4.21931e+12 -5.73074e+12 -4.91726e+12 -9.40335e+12 -9.74463e+12 -7.62518e+12 -5.73196e+12 -5.01712e+12 -8.74692e+12 -7.87303e+12 -8.99285e+12 -4.87792e+12 -6.41075e+12 -7.19448e+12 -6.62073e+12 -7.22215e+12 -1.01496e+13 -9.85863e+12 -6.95421e+12 -6.51721e+12 -7.96982e+12 -1.17273e+13 -4.7311e+12 -1.00738e+13 -4.91626e+12 -6.98078e+12 -3.93108e+12 -5.86948e+12 -4.52272e+12 -6.95465e+12 -7.83629e+12 -3.29364e+12 -4.47052e+12 -4.87611e+12 -5.04835e+12 -12549700000.0 -6.2461e+12 -3.92406e+12 -3.8126e+12 -2.49388e+12 -4.86473e+12 -7.46076e+12 -7.35188e+12 -4.38626e+12 -9.48383e+12 -6.74589e+12 -5.71821e+12 -6.94387e+12 -3.32621e+12 -1.01078e+13 -6.04597e+12 -4.2283e+12 -5.35785e+12 -7.84008e+12 -6.83615e+12 -9.60929e+12 -5.84308e+12 -5.15109e+12 -5.55471e+12 -8.6818e+12 -5.6224e+12 -8.99226e+12 -5.25976e+12 -4.86825e+12 -5.18434e+12 -6.58377e+12 -8.14064e+12 -5.18957e+12 -4.84034e+12 -5.68949e+12 -5.01228e+12 -1.08613e+13 -6.49565e+12 -7.70631e+12 -5.46131e+12 -2.50849e+12 -12549700000.0 -12549700000.0 -6.30146e+12 -7.62342e+12 -5.58731e+12 -1.08766e+13 -6.25553e+12 -7.74192e+12 -7.04213e+12 -6.47705e+12 -8.67947e+12 -7.65132e+12 -8.66099e+12 -4.54111e+12 -5.79928e+12 -9.52659e+12 -7.08376e+12 -3.55183e+12 -7.63255e+12 -9.29507e+12 -2.85479e+12 -6.47793e+12 -5.96247e+12 -2.325e+12 -4.7167e+12 -6.81677e+12 -4.80194e+12 -8.09016e+12 -7.69313e+12 -6.7842e+12 -6.05334e+12 -5.72163e+12 -4.73772e+12 -6.91466e+12 -8.01199e+12 -7.06281e+12 -1.01432e+13 -6.6245e+12 -4.69215e+12 -5.69007e+12 -8.75699e+12 -8.5625e+12 -1.05349e+13 -3.37543e+12 -4.23047e+12 -6.48386e+12 -3.43402e+12 -7.46168e+12 -6.77765e+12 -7.03155e+12 -3.98253e+12 -4.02175e+12 -6.16088e+12 -6.97264e+12 -1.25963e+13 -6.06528e+12 -5.8964e+12 -8.27496e+12 -7.92874e+12 -8.45996e+12 -4.45102e+12 -4.34621e+12 -6.95788e+12 -4.43416e+12 -5.78446e+12 -7.51467e+12 -1.10077e+13 -9.07397e+12 -1.00139e+13 -5.38186e+12 -7.49891e+12 -1.05121e+13 -5.33412e+12 -6.92603e+12 -4.75715e+12 -7.75578e+12 -1.23409e+13 -8.35906e+12 -7.84251e+12 -5.61772e+12 -8.44277e+12 -6.23129e+12 -6.43604e+12 -4.66333e+12 -6.99965e+12 -4.30941e+12 -3.35299e+12 -4.12191e+12 -4.3829e+12 -6.75232e+12 -7.36225e+12 -6.83717e+12 -4.58038e+12 -5.99395e+12 -6.4571e+12 -5.21913e+12 -6.14837e+12 -1.34743e+13 -5.68949e+12 -9.45025e+12 -7.80751e+12 -6.91821e+12 -7.38105e+12 -5.19231e+12 -8.25546e+12 -4.01398e+12 -8.37372e+12 -8.90279e+12 -1.05975e+13 -6.96198e+12 -6.315e+12 -7.27447e+12 -6.09649e+12 -3.31955e+12 -7.97973e+12 -7.48713e+12 -3.2159e+12 -5.84901e+12 -7.4822e+12 -8.55421e+12 -4.52181e+12 -6.06784e+12 -3.29229e+12 -8.47066e+12 -6.17742e+12 -5.03089e+12 -6.54433e+12 -3.64115e+12 -5.42773e+12 -8.49176e+12 -2.82207e+12 -3.48486e+12 -4.17918e+12 -6.22559e+12 -1.02436e+13 -6.58931e+12 -7.82777e+12 -8.08894e+12 -7.12451e+12 -7.86622e+12 -6.24231e+12 -1.04555e+13 -1.03121e+13 -8.10394e+12 -8.241e+12 -7.5903e+12 -1.15201e+13 -8.90746e+12 -7.63152e+12 -7.9609e+12 -6.56e+12 -6.04875e+12 -8.29686e+12 -1.33463e+13 -6.15034e+12 -5.89304e+12 -7.96138e+12 -7.20492e+12 -9.07351e+12 -5.50527e+12 -6.52469e+12 -8.42152e+12 -1.05443e+13 -6.08696e+12 -3.24092e+12 -8.04068e+12 -4.54092e+12 -6.27895e+12 -5.46408e+12 -5.57796e+12 -7.26099e+12 -6.29334e+12 -8.05528e+12 -5.5499e+12 -8.35088e+12 -3.60657e+12 -12549700000.0 -4.78777e+12 -3.27962e+12 -8.13435e+12 -6.99174e+12 -9.74489e+12 -7.7586e+12 -5.01674e+12 -9.15439e+12 -6.07133e+12 -3.48676e+12 -3.39754e+12 -6.48055e+12 -6.07355e+12 -8.59917e+12 -5.0887e+12 -7.59885e+12 -8.19643e+12 -7.82273e+12 -6.66838e+12 -8.55575e+12 -5.82647e+12 -7.32886e+12 -9.43482e+12 -5.62251e+12 -4.81729e+12 -6.03687e+12 -5.95098e+12 -9.80489e+12 -8.92228e+12 -6.13198e+12 -9.03731e+12 -7.6257e+12 -4.33806e+12 -1.1007e+13 -6.38007e+12 -1.06667e+13 -8.4186e+12 -6.35507e+12 -9.95217e+12 -6.95997e+12 -5.84751e+12 -6.27059e+12 -4.48047e+12 -6.58331e+12 -12549700000.0 -5.62173e+12 -3.35964e+12 -7.93843e+12 -8.38486e+12 -8.00546e+12 -7.55858e+12 -7.24626e+12 -8.48507e+12 -8.15664e+12 -9.3703e+12 -5.12967e+12 -7.6935e+12 -6.09488e+12 -6.83724e+12 -4.26201e+12 -3.26001e+12 -7.6534e+12 -5.75168e+12 -1.18429e+13 -7.81722e+12 -7.1858e+12 -8.67943e+12 -9.31642e+12 -1.15221e+13 -5.74418e+12 -9.7597e+12 -1.02276e+13 -9.57094e+12 -1.00766e+13 -4.72805e+12 -5.4439e+12 -8.93702e+12 -6.41555e+12 -6.60045e+12 -9.56694e+12 -8.41248e+12 -6.45119e+12 -3.60476e+12 -9.4868e+12 -2.78383e+12 -5.13838e+12 -9.54712e+12 -4.2955e+12 -3.82812e+12 -12549700000.0 -3.69411e+12 -1.96257e+12 -4.57128e+12 -7.47729e+12 -5.33281e+12 -5.21295e+12 -9.65951e+12 -8.4004e+12 -7.1436e+12 -6.76645e+12 -7.81599e+12 -5.18564e+12 -9.83725e+12 -7.24883e+12 -8.92062e+12 -7.02618e+12 -7.92441e+12 -1.11571e+13 -7.23487e+12 -5.53983e+12 -7.30623e+12 -7.38243e+12 -8.01185e+12 -8.33593e+12 -1.68844e+13 -6.24783e+12 -5.85937e+12 -1.00411e+13 -8.41354e+12 -3.28256e+12 -6.27259e+12 -8.94639e+12 -7.60273e+12 -7.32833e+12 -7.00222e+12 -8.89055e+12 -5.95742e+12 -5.50112e+12 -5.59795e+12 -6.08266e+12 -5.03162e+12 -6.1684e+12 -5.36076e+12 -9.21213e+12 -3.80242e+12 -7.45346e+12 -3.49327e+12 -3.84864e+12 -1.01118e+13 -6.53654e+12 -4.92197e+12 -7.58957e+12 -1.10507e+13 -5.51653e+12 -7.57704e+12 -6.54573e+12 -5.33415e+12 -5.96912e+12 -4.58571e+12 -5.52554e+12 -4.44779e+12 -1.07065e+13 -9.01544e+12 -1.1539e+13 -6.13117e+12 -4.75669e+12 -4.39789e+12 -1.10328e+13 -5.76621e+12 -6.39643e+12 -8.35058e+12 -4.39991e+12 -4.8641e+12 -1.09869e+13 -5.43852e+12 -6.49372e+12 -8.34618e+12 -8.16847e+12 -6.14983e+12 -5.50587e+12 -7.67671e+12 -6.53452e+12 -5.17469e+12 -5.70591e+12 -1.08487e+13 -1.09175e+13 -8.08002e+12 -4.41304e+12 -6.53587e+12 -7.40906e+12 -9.11231e+12 -7.57044e+12 -9.2279e+12 -6.28959e+12 -4.4824e+12 -5.14617e+12 -9.66608e+12 -6.38863e+12 -8.74619e+12 -5.90847e+12 -5.78017e+12 -7.00312e+12 -8.21086e+12 -5.20096e+12 -7.57613e+12 -5.68672e+12 -8.2031e+12 -7.62165e+12 -5.31262e+12 -4.58491e+12 -8.2847e+12 -4.44034e+12 -5.82394e+12 -3.05833e+12 -5.12605e+12 -7.38084e+12 -7.76984e+12 -9.54896e+12 -9.35512e+12 -6.11722e+12 -4.20069e+12 -7.62675e+12 -1.281e+13 -7.88763e+12 -1.30902e+13 -8.15953e+12 -1.0995e+13 -8.40774e+12 -7.90902e+12 -3.98336e+12 -6.03845e+12 -5.72461e+12 -5.22454e+12 -7.83185e+12 -1.2867e+13 -7.15308e+12 -1.00702e+13 -7.16913e+12 -6.11815e+12 -7.81612e+12 -6.63596e+12 -5.46086e+12 -3.29029e+12 -3.85422e+12 -1.23395e+13 -1.16655e+13 -7.35994e+12 -7.78023e+12 -7.3704e+12 -1.04232e+13 -1.31393e+13 -8.72355e+12 -1.25839e+13 -6.48008e+12 -5.82638e+12 -7.2991e+12 -7.39032e+12 -3.82243e+12 -4.91638e+12 -5.41119e+12 -9.35741e+12 -7.5089e+12 -7.14181e+12 -6.29254e+12 -9.57369e+12 -5.51418e+12 -8.14581e+12 -5.80543e+12 -7.92908e+12 -6.08878e+12 -6.83235e+12 -9.32508e+12 -9.29073e+12 -7.70865e+12 -7.91901e+12 -5.60257e+12 -7.4984e+12 -8.14313e+12 -1.0485e+13 -5.13168e+12 -4.72273e+12 -5.30194e+12 -8.14043e+12 -9.46449e+12 -9.15871e+12 -5.64996e+12 -8.22667e+12 -8.9173e+12 -7.54937e+12 -6.0699e+12 -7.92949e+12 -5.87158e+12 -7.86177e+12 -1.0448e+13 -9.25697e+12 -7.14708e+12 -8.33684e+12 -8.94795e+12 -3.82078e+12 -1.19616e+13 -8.31129e+12 -8.29143e+12 -7.34372e+12 -6.30695e+12 -1.32944e+13 -4.87747e+12 -8.59514e+12 -1.2736e+13 -1.12435e+13 -1.05689e+13 -1.16568e+13 -7.22857e+12 -1.07205e+13 -1.30241e+13 -9.63994e+12 -5.22646e+12 -4.92995e+12 -3.94622e+12 -7.74285e+12 -1.10482e+13 -8.17157e+12 -1.112e+13 -5.33359e+12 -8.88126e+12 -8.62423e+12 -1.0476e+13 -1.36723e+13 -7.68697e+12 -1.12227e+13 -1.04774e+13 -12549700000.0 -4.2824e+12 -4.1414e+12 -5.27587e+12 -6.96949e+12 -3.39691e+12 -6.66361e+12 -9.62206e+12 -8.20454e+12 -5.90329e+12 -8.08593e+12 -9.63581e+12 -1.08969e+13 -6.85565e+12 -6.80863e+12 -5.95028e+12 -5.87783e+12 -9.34231e+12 -3.83007e+12 -1.01346e+13 -1.05063e+13 -5.54586e+12 -8.60066e+12 -6.27151e+12 -8.78629e+12 -4.3012e+12 -8.64668e+12 -7.69805e+12 -1.26139e+13 -7.53458e+12 -6.25912e+12 -3.61554e+12 -1.02871e+13 -6.52644e+12 -3.26635e+12 -7.6679e+12 -5.46108e+12 -7.436e+12 -6.84709e+12 -6.69582e+12 -1.10799e+13 -8.25499e+12 -6.15826e+12 -7.69214e+12 -6.41815e+12 -5.83067e+12 -8.73797e+12 -9.22459e+12 -7.29006e+12 -3.19345e+12 -3.99359e+12 -6.77184e+12 -7.70635e+12 -8.1632e+12 -6.23592e+12 -5.91425e+12 -5.80149e+12 -9.88445e+12 -6.7892e+12 -7.82076e+12 -9.42376e+12 -9.67859e+12 -5.18417e+12 -9.75182e+12 -6.86683e+12 -8.94905e+12 -9.41404e+12 -9.51896e+12 -1.27064e+13 -9.7886e+12 -8.70863e+12 -9.35916e+12 -1.06384e+13 -9.44849e+12 -7.14432e+12 -8.40818e+12 -9.25145e+12 -7.59733e+12 -5.54381e+12 -5.4169e+12 -9.29533e+12 -1.08071e+13 -1.00997e+13 -1.17222e+13 -1.55339e+13 -6.85064e+12 -7.96039e+12 -4.28845e+12 -9.87682e+12 -5.53826e+12 -4.71367e+12 -8.55659e+12 -1.17441e+13 -9.02555e+12 -1.12152e+13 -7.14724e+12 -8.89062e+12 -6.25748e+12 -7.16621e+12 -1.02883e+13 -1.31753e+13 -1.2783e+13 -6.94834e+12 -8.24357e+12 -1.46882e+13 -9.30023e+12 -6.0234e+12 -1.01304e+13 -9.46731e+12 -1.0066e+13 -3.92907e+12 -3.3512e+12 -8.84439e+12 -1.02561e+13 -6.48727e+12 -1.13118e+13 -7.42716e+12 -9.84909e+12 -1.35526e+13 -7.72632e+12 -6.18938e+12 -1.21113e+13 -7.02583e+12 -7.54155e+12 -6.16847e+12 -3.47844e+12 -9.65771e+12 -3.63439e+12 -7.08798e+12 -9.19473e+12 -1.30281e+13 -5.06299e+12 -4.91998e+12 -1.33123e+13 -5.38183e+12 -8.04345e+12 -6.38128e+12 -4.98929e+12 -3.3635e+12 -1.14285e+13 -5.99133e+12 -8.46041e+12 -9.5664e+12 -6.36805e+12 -9.62669e+12 -9.8492e+12 -1.14074e+13 -2.97809e+12 -7.43665e+12 -8.96684e+12 -1.3114e+13 -1.42002e+13 -1.10319e+13 -1.063e+13 -4.94894e+12 -4.6587e+12 -8.81446e+12 -1.13129e+13 -6.81351e+12 -7.7419e+12 -1.23823e+13 -8.45076e+12 -4.07365e+12 -1.0718e+13 -1.05201e+13 -1.14526e+13 -1.41689e+13 -1.32818e+13 -1.22976e+13 -1.18308e+13 -1.14701e+13 -1.0557e+13 -6.88042e+12 -6.13291e+12 -6.56876e+12 -7.14852e+12 -1.51025e+13 -8.25758e+12 -9.28483e+12 -5.07623e+12 -1.14612e+13 -1.06635e+13 -8.92096e+12 -1.03246e+13 -9.99256e+12 -4.92788e+12 -8.74291e+12 -8.34211e+12 -8.72024e+12 -3.93299e+12 -6.63241e+12 -3.59845e+12 -8.84535e+12 -8.65241e+12 -6.73091e+12 -4.24061e+12 -7.95108e+12 -6.46522e+12 -5.35132e+12 -5.01042e+12 -6.19303e+12 -7.20514e+12 -4.19004e+12 -5.78295e+12 -6.32632e+12 -5.27343e+12 -8.1247e+12 -5.04503e+12 -6.85068e+12 -6.42398e+12 -9.25756e+12 -6.84501e+12 -1.01281e+13 -9.63272e+12 -1.13823e+13 -1.13479e+13 -9.74863e+12 -9.87479e+12 -9.48568e+12 -8.29598e+12 -1.21051e+13 -1.23715e+13 -3.59246e+12 -9.94466e+12 -3.52851e+12 -4.26024e+12 -4.96914e+12 -9.16126e+12 -1.04818e+13 -1.01213e+13 -1.23431e+13 -1.75263e+13 -7.34863e+12 -6.31779e+12 -7.87724e+12 -7.73732e+12 -8.1719e+12 -1.05846e+13 -1.00828e+13 -1.28703e+13 -6.61599e+12 -1.14761e+13 -8.98073e+12 -9.41924e+12 -6.12727e+12 -7.47823e+12 -5.0402e+12 -1.20487e+13 -8.37315e+12 -8.19294e+12 -5.55852e+12 -5.86763e+12 -1.0361e+13 -7.85276e+12 -1.00176e+13 -7.85379e+12 -5.08719e+12 -5.11342e+12 -8.16908e+12 -1.38578e+13 -5.97934e+12 -6.76977e+12 -3.47815e+12 -6.52866e+12 -9.63486e+12 -1.02429e+13 -4.32531e+12 -5.90045e+12 -1.0375e+13 -3.65698e+12 -8.04467e+12 -5.91318e+12 -8.20994e+12 -1.09872e+13 -9.76962e+12 -4.85324e+12 -8.86571e+12 -8.32133e+12 -6.60517e+12 -8.42096e+12 -5.14299e+12 -8.30193e+12 -8.27805e+12 -1.20041e+13 -1.17359e+13 -9.5445e+12 -1.4634e+13 -1.03921e+13 -1.27932e+13 -1.06332e+13 -1.43977e+13 -9.17878e+12 -7.84053e+12 -7.37913e+12 -5.52733e+12 -7.81489e+12 -6.24682e+12 -2.89107e+12 -3.85068e+12 -5.44562e+12 -4.37394e+12 -8.02862e+12 -8.22386e+12 -8.88403e+12 -1.01257e+13 -7.15808e+12 -1.57082e+13 -6.48776e+12 -8.82664e+12 -1.32332e+13 -9.59453e+12 -5.70787e+12 -1.21395e+13 -8.37522e+12 -1.28042e+13 -1.25948e+13 -6.83544e+12 -3.62209e+12 -6.24737e+12 -6.36311e+12 -3.99562e+12 -5.43571e+12 -7.57536e+12 -8.48592e+12 -1.44439e+13 -7.25488e+12 -1.22775e+13 -8.6442e+12 -8.92388e+12 -7.4298e+12 -5.08167e+12 -8.51476e+12 -1.11653e+13 -5.05114e+12 -6.08067e+12 -7.55198e+12 -5.82751e+12 -4.69934e+12 -6.83879e+12 -9.34897e+12 -9.07455e+12 -6.77706e+12 -1.01046e+13 -5.91533e+12 -7.43518e+12 -7.0865e+12 -1.20271e+13 -1.12072e+13 -6.79643e+12 -4.76886e+12 -5.95516e+12 -6.01481e+12 -1.04449e+13 -6.54781e+12 -9.0526e+12 -6.47614e+12 -9.79413e+12 -7.06959e+12 -6.71576e+12 -8.53842e+12 -9.21274e+12 -9.06287e+12 -9.78828e+12 -3.61677e+12 -7.90698e+12 -4.91265e+12 -9.25753e+12 -8.89434e+12 -6.84144e+12 -1.07761e+13 -1.83273e+13 -8.00554e+12 -7.93136e+12 -9.98021e+12 -5.36571e+12 -8.52184e+12 -1.25337e+13 -1.27828e+13 -1.35653e+13 -4.15536e+12 -4.20565e+12 -5.84039e+12 -9.93204e+12 -5.57894e+12 -4.51303e+12 -8.67034e+12 -1.13739e+13 -6.58883e+12 -1.09845e+13 -1.30624e+13 -8.17045e+12 -1.5136e+13 -7.38882e+12 -8.81149e+12 -7.93139e+12 -1.44044e+13 -1.17269e+13 -5.89945e+12 -8.19308e+12 -7.64475e+12 -2.68137e+12 -4.60337e+12 -4.81088e+12 -1.06538e+13 -9.28748e+12 -5.51004e+12 -6.43262e+12 -6.49105e+12 -8.73931e+12 -1.34926e+13 -1.35992e+13 -1.46759e+13 -6.69216e+12 -4.53952e+12 -7.39755e+12 -6.21376e+12 -7.27792e+12 -1.49801e+13 -6.47683e+12 -6.84586e+12 -7.06338e+12 -5.53094e+12 -9.66818e+12 -7.5838e+12 -1.22781e+13 -5.0667e+12 -1.27982e+13 -1.1421e+13 -1.05697e+13 -1.09874e+13 -7.04386e+12 -4.2358e+12 -2.59057e+12 -9.50054e+12 -1.08097e+13 -8.38137e+12 -1.54923e+13 -4.46536e+12 -6.35091e+12 -6.46008e+12 -5.6921e+12 -9.67839e+12 -5.36749e+12 -1.04956e+13 -1.3502e+13 -7.23938e+12 -7.01428e+12 -4.61343e+12 -1.2986e+13 -7.18615e+12 -1.26038e+13 -1.19331e+13 -1.02973e+13 -8.37621e+12 -7.2231e+12 -2.73363e+12 -1.36233e+13 -5.69301e+12 -2.64711e+12 -4.10092e+12 -6.3332e+12 -7.69873e+12 -9.82215e+12 -4.52124e+12 -8.923e+12 -6.86527e+12 -9.00727e+12 -5.24631e+12 -1.1249e+13 -5.52313e+12 -9.91975e+12 -1.08658e+13 -8.7526e+12 -1.35554e+13 -8.45505e+12 -6.41564e+12 -1.10178e+13 -1.10261e+13 -7.72091e+12 -6.38501e+12 -5.63596e+12 -4.18571e+12 -8.5433e+12 -8.94703e+12 -1.00541e+13 -7.40051e+12 -1.03114e+13 -8.56282e+12 -1.03343e+13 -1.0628e+13 -6.14093e+12 -7.30102e+12 -6.34479e+12 -7.79856e+12 -5.12641e+12 -7.52121e+12 -4.93735e+12 -6.38262e+12 -6.21281e+12 -9.87116e+12 -8.49196e+12 -9.02805e+12 -6.02668e+12 -5.84642e+12 -7.13339e+12 -4.41408e+12 -6.5609e+12 -7.09315e+12 -7.92046e+12 -4.54972e+12 -8.39981e+12 -6.01736e+12 -9.91875e+12 -7.11505e+12 -8.37521e+12 -7.06909e+12 -1.27421e+13 -4.49122e+12 -4.2476e+12 -9.3718e+12 -5.42083e+12 -7.85046e+12 -8.158e+12 -8.91751e+12 -8.58051e+12 -1.03771e+13 -5.17066e+12 -8.97859e+12 -1.3019e+13 -8.51699e+12 -9.86177e+12 -7.57502e+12 -5.55036e+12 -4.96094e+12 -8.34669e+12 -9.83212e+12 -7.85388e+12 -6.4765e+12 -4.61916e+12 -5.75862e+12 -9.18515e+12 -7.25094e+12 -5.94111e+12 -9.51821e+12 -8.10714e+12 -8.34148e+12 -7.90568e+12 -6.69072e+12 -7.36668e+12 -7.47043e+12 -6.73857e+12 -7.14593e+12 -3.4908e+12 -1.22445e+13 -1.20374e+13 -1.15289e+13 -9.2795e+12 -1.38283e+13 -8.39232e+12 -5.65334e+12 -1.10582e+13 -8.79575e+12 -8.57205e+12 -9.79912e+12 -5.04478e+12 -1.38847e+13 -6.56658e+12 -3.19826e+12 -9.44097e+12 -6.02239e+12 -7.48052e+12 -7.21056e+12 -1.13292e+13 -8.9641e+12 -1.31736e+13 -9.04502e+12 -6.04989e+12 -6.23759e+12 -1.02307e+13 -3.92199e+12 -5.0411e+12 -9.62319e+12 -6.04826e+12 -8.62981e+12 -1.23401e+13 -1.23278e+13 -7.55284e+12 -9.3343e+12 -5.76658e+12 -8.94316e+12 -4.36483e+12 -6.63769e+12 -9.53962e+12 -8.40366e+12 -1.34979e+13 -7.37434e+12 -8.68773e+12 -7.08408e+12 -1.07809e+13 -6.30307e+12 -1.12442e+13 -8.37969e+12 -7.95912e+12 -8.30342e+12 -6.24009e+12 -8.37414e+12 -5.43978e+12 -8.35525e+12 -4.0737e+12 -7.63323e+12 -8.61392e+12 -1.29591e+13 -9.07472e+12 -1.22358e+13 -6.76261e+12 -1.21966e+13 -6.56759e+12 -6.27436e+12 -4.96086e+12 -7.48544e+12 -6.5605e+12 -1.16164e+13 -7.84168e+12 -6.86968e+12 -1.15617e+13 -5.25075e+12 -7.62565e+12 -6.88486e+12 -1.12315e+13 -6.01425e+12 -5.44148e+12 -9.39187e+12 -8.16238e+12 -7.71108e+12 -9.27602e+12 -7.31005e+12 -8.46405e+12 -8.90805e+12 -6.15706e+12 -5.07037e+12 -9.62641e+12 -7.73764e+12 -4.12196e+12 -7.40711e+12 -1.07252e+13 -7.59685e+12 -9.32697e+12 -1.30669e+13 -6.83367e+12 -5.43486e+12 -7.68563e+12 -7.40484e+12 -5.28544e+12 -9.83767e+12 -7.53857e+12 -1.01973e+13 -7.49227e+12 -8.77773e+12 -7.17555e+12 -9.36417e+12 -1.51913e+13 -5.45754e+12 -1.10523e+13 -1.33483e+13 -1.18164e+13 -7.8115e+12 -8.39587e+12 -3.83439e+12 -3.68743e+12 -8.80374e+12 -5.99838e+12 -6.84599e+12 -1.15306e+13 -8.66737e+12 -8.42499e+12 -1.08041e+13 -1.01529e+13 -1.14194e+13 -5.72661e+12 -8.34741e+12 -9.54608e+12 -7.06978e+12 -7.4272e+12 -5.1175e+12 -7.64658e+12 -1.26178e+13 -1.08001e+13 -9.34566e+12 -1.1913e+13 -1.17512e+13 -9.48692e+12 -9.40933e+12 -6.80391e+12 -7.40632e+12 -6.346e+12 -9.00903e+12 -7.57324e+12 -8.23458e+12 -7.10023e+12 -8.74568e+12 -8.08977e+12 -7.55211e+12 -1.11804e+13 -1.00571e+13 -7.39316e+12 -8.86722e+12 -3.23048e+12 -7.1341e+12 -6.49948e+12 -9.30017e+12 -5.68659e+12 -1.01612e+13 -1.13241e+13 -6.82101e+12 -5.35199e+12 -4.90481e+12 -1.47594e+13 -6.08602e+12 -1.02838e+13 -1.18056e+13 -8.03686e+12 -6.84917e+12 -5.48852e+12 -7.06925e+12 -4.69724e+12 -4.93735e+12 -5.42711e+12 -6.79838e+12 -8.09789e+12 -8.63204e+12 -8.1221e+12 -5.39746e+12 -6.88864e+12 -9.34835e+12 -4.46146e+12 -1.09944e+13 -9.12402e+12 -7.58826e+12 -8.23128e+12 -5.32967e+12 -8.94112e+12 -7.31832e+12 -3.47395e+12 -4.76687e+12 -4.94846e+12 -8.60025e+12 -7.5471e+12 -1.17089e+13 -4.42009e+12 -8.88673e+12 -5.49495e+12 -5.848e+12 -9.53314e+12 -2.977e+12 -6.26703e+12 -1.10359e+13 -9.32962e+12 -7.99424e+12 -4.10249e+12 -8.10955e+12 -5.0853e+12 -7.14951e+12 -9.03366e+12 -9.09718e+12 -4.64439e+12 -9.03079e+12 -8.03908e+12 -1.16073e+13 -1.22819e+13 -5.39134e+12 -6.77375e+12 -1.12726e+13 -8.23438e+12 -1.41064e+13 -9.03139e+12 -8.91466e+12 -9.55075e+12 -8.98332e+12 -7.05723e+12 -1.05416e+13 -1.29117e+13 -4.64988e+12 -1.1219e+13 -1.3045e+13 -8.84156e+12 -7.92396e+12 -7.85931e+12 -9.80768e+12 -7.7287e+12 -8.2535e+12 -1.03575e+13 -5.36727e+12 -9.45248e+12 -5.46066e+12 -4.4709e+12 -1.02239e+13 -8.17084e+12 -9.43684e+12 -5.83293e+12 -1.07928e+13 -1.05028e+13 -6.96507e+12 -1.2128e+13 -7.56472e+12 -5.74251e+12 -8.17016e+12 -1.34436e+13 -6.41847e+12 -5.07369e+12 -6.19555e+12 -1.04199e+13 -6.67416e+12 -7.86735e+12 -2.7773e+12 -5.74391e+12 -7.02967e+12 -1.29237e+13 -3.77064e+12 -9.51582e+12 -8.50958e+12 -3.53267e+12 -8.04783e+12 -5.97928e+12 -7.50545e+12 -8.73295e+12 -8.20553e+12 -7.32831e+12 -1.12889e+13 -8.55666e+12 -9.07751e+12 -5.48218e+12 -5.36021e+12 -5.22214e+12 -6.70957e+12 -6.85919e+12 -6.18465e+12 -6.48508e+12 -7.1039e+12 -4.38077e+12 -1.00475e+13 -6.80373e+12 -6.5448e+12 -8.93184e+12 -5.48031e+12 -6.08766e+12 -5.72589e+12 -8.43598e+12 -6.62156e+12 -7.74414e+12 -9.22657e+12 -9.54892e+12 -7.26278e+12 -8.09106e+12 -4.06027e+12 -4.43152e+12 -1.13782e+13 -5.72934e+12 -7.47504e+12 -5.30532e+12 -9.93864e+12 -9.0896e+12 -7.80077e+12 -4.97669e+12 -6.95911e+12 -6.6221e+12 -5.10833e+12 -6.24249e+12 -2.85305e+12 -4.34853e+12 -6.3449e+12 -7.25602e+12 -1.15445e+13 -1.08999e+13 -1.17699e+13 -1.08684e+13 -5.07535e+12 -9.09051e+12 -7.36071e+12 -7.32427e+12 -8.74092e+12 -8.77865e+12 -4.08658e+12 -6.57869e+12 -9.41668e+12 -1.19277e+13 -6.1777e+12 -3.20613e+12 -7.58323e+12 -1.19759e+13 -9.20398e+12 -1.42318e+13 -1.06592e+13 -1.02736e+13 -8.36203e+12 -7.58624e+12 -1.13869e+13 -6.12749e+12 -7.95128e+12 -8.25693e+12 -7.89261e+12 -8.2105e+12 -5.54089e+12 -6.25381e+12 -9.73372e+12 -7.06185e+12 -7.88297e+12 -5.26551e+12 -8.49662e+12 -9.18087e+12 -7.02076e+12 -3.95755e+12 -3.46608e+12 -2.78959e+12 -8.79241e+12 -8.154e+12 -7.04987e+12 -9.36867e+12 -1.19851e+13 -2.85954e+12 -1.39586e+13 -6.66826e+12 -8.40082e+12 -1.40437e+13 -4.93277e+12 -6.08098e+12 -4.81241e+12 -8.01991e+12 -5.43595e+12 -6.87713e+12 -7.0159e+12 -1.07147e+13 -9.60537e+12 -8.04687e+12 -1.17276e+13 -1.08474e+13 -1.63322e+13 -1.13542e+13 -1.05506e+13 -6.52897e+12 -8.15675e+12 -4.99629e+12 -7.37144e+12 -7.17613e+12 -1.14223e+13 -8.65264e+12 -1.04613e+13 -9.91279e+12 -9.86932e+12 -7.52029e+12 -5.98975e+12 -9.97394e+12 -6.15821e+12 -7.9714e+12 -1.00189e+13 -3.61392e+12 -6.70454e+12 -6.94615e+12 -4.8051e+12 -1.26441e+13 -4.85691e+12 -6.13294e+12 -6.66661e+12 -1.30436e+13 -7.50069e+12 -6.62227e+12 -4.29165e+12 -5.63274e+12 -5.82482e+12 -7.94104e+12 -8.71199e+12 -7.78859e+12 -3.66258e+12 -5.17127e+12 -1.20274e+13 -6.89002e+12 -5.1939e+12 -6.21893e+12 -6.26804e+12 -6.8968e+12 -7.28985e+12 -6.9385e+12 -6.49689e+12 -3.59258e+12 -3.24711e+12 -6.5906e+12 -7.52661e+12 -4.98681e+12 -6.78094e+12 -6.34791e+12 -4.29002e+12 -3.04429e+12 -8.45178e+12 -8.54033e+12 -7.25086e+12 -1.01081e+13 -9.64939e+12 -1.24568e+13 -5.25504e+12 -5.32715e+12 -8.06787e+12 -6.74105e+12 -6.17076e+12 -1.44238e+13 -6.15617e+12 -9.17962e+12 -2.81633e+12 -6.28832e+12 -1.04785e+13 -1.08834e+13 -6.43359e+12 -1.1725e+13 -6.30649e+12 -7.22428e+12 -7.68637e+12 -4.49562e+12 -4.09171e+12 -7.00287e+12 -6.1407e+12 -1.26878e+13 -8.21313e+12 -7.54064e+12 -1.09971e+13 -8.15905e+12 -5.08556e+12 -1.3449e+13 -4.75246e+12 -6.67388e+12 -8.63331e+12 -9.68447e+12 -8.1265e+12 -1.14579e+13 -1.02814e+13 -6.15712e+12 -4.42897e+12 -5.24027e+12 -5.61452e+12 -2.72962e+12 -7.73783e+12 -4.20219e+12 -6.82246e+12 -6.43324e+12 -8.21111e+12 -8.24517e+12 -1.2626e+13 -4.87887e+12 -9.1895e+12 -6.97258e+12 -6.04554e+12 -5.02426e+12 -8.70751e+12 -1.04722e+13 -8.4107e+12 -8.86032e+12 -1.07146e+13 -1.01038e+13 -1.02361e+13 -7.41309e+12 -8.48755e+12 -9.25937e+12 -9.93678e+12 -5.35146e+12 -5.94224e+12 -7.77994e+12 -7.50638e+12 -5.81308e+12 -6.02714e+12 -5.07129e+12 -8.74659e+12 -7.71248e+12 -6.76941e+12 -6.20466e+12 -6.23722e+12 -3.30757e+12 -5.97409e+12 -7.27441e+12 -1.26461e+12 -6.88272e+12 -1.038e+13 -9.24071e+12 -3.97884e+12 -6.0013e+12 -2.49289e+12 -6.62502e+12 -5.03379e+12 -6.73388e+12 -2.69652e+12 -7.34187e+12 -5.90294e+12 -7.42027e+12 -3.85428e+12 -8.17616e+12 -7.54326e+12 -4.81498e+12 -4.37431e+12 -7.22041e+12 -7.94348e+12 -1.03547e+13 -5.70462e+12 -5.49697e+12 -6.9497e+12 -5.46031e+12 -6.81047e+12 -7.34238e+12 -8.45216e+12 -7.20855e+12 -5.29346e+12 -4.05875e+12 -7.17218e+12 -5.50197e+12 -6.67199e+12 -7.4009e+12 -5.17301e+12 -9.62512e+12 -7.02445e+12 -7.53451e+12 -6.29402e+12 -4.5906e+12 -8.23787e+12 -5.85429e+12 -7.81888e+12 -9.18913e+12 -7.97558e+12 -5.47894e+12 -4.59219e+12 -4.27722e+12 -8.357e+12 -8.08657e+12 -9.14107e+12 -5.09408e+12 -4.35107e+12 -5.30187e+12 -7.25432e+12 -7.94907e+12 -8.0679e+12 -9.6863e+12 -5.72326e+12 -1.3829e+13 -3.00788e+12 -3.71536e+12 -4.98892e+12 -6.43935e+12 -6.19627e+12 -8.43745e+12 -6.118e+12 -7.10333e+12 -8.64926e+12 -7.64902e+12 -6.20945e+12 -4.60176e+12 -9.28186e+12 -9.13098e+12 -7.07175e+12 -9.71489e+12 -5.02735e+12 -7.61531e+12 -9.37323e+12 -7.65047e+12 -1.11849e+13 -9.01425e+12 -8.69947e+12 -5.02878e+12 -6.51519e+12 -5.51214e+12 -5.35554e+12 -4.17976e+12 -4.78814e+12 -6.1153e+12 -1.08765e+13 -6.9178e+12 -7.55879e+12 -8.7658e+12 -1.9345e+13 -4.77199e+12 -6.73354e+12 -6.84766e+12 -1.56554e+13 -8.79964e+12 -5.44679e+12 -1.10624e+13 -8.32665e+12 -5.61971e+12 -8.26488e+12 -5.63228e+12 -7.07355e+12 -4.78507e+12 -1.17687e+13 -7.18504e+12 -7.05709e+12 -2.49536e+12 -7.97035e+12 -9.92512e+12 -1.10863e+13 -6.94946e+12 -1.02139e+13 -1.19129e+13 -4.48486e+12 -7.27533e+12 -6.9809e+12 -8.43043e+12 -5.70418e+12 -4.02802e+12 -5.54251e+12 -9.45501e+12 -9.01786e+12 -7.31995e+12 -1.07775e+13 -7.35651e+12 -5.90926e+12 -6.20153e+12 -6.52453e+12 -7.75103e+12 -8.33844e+12 -6.47465e+12 -7.88741e+12 -4.47492e+12 -5.13766e+12 -3.58323e+12 -7.14637e+12 -7.68177e+12 -7.56869e+12 -7.19615e+12 -3.13253e+12 -6.61004e+12 -7.63519e+12 -7.26409e+12 -7.40686e+12 -6.51273e+12 -5.4279e+12 -8.31751e+12 -9.62185e+12 -4.70257e+12 -9.37239e+12 -6.95969e+12 -5.74568e+12 -1.05076e+13 -5.95623e+12 -7.82482e+12 -6.33158e+12 -5.29093e+12 -3.92346e+12 -5.08958e+12 -1.18853e+13 -7.17628e+12 -7.177e+12 -9.73231e+12 -9.45264e+12 -1.40234e+13 -7.15146e+12 -9.69482e+12 -6.4775e+12 -6.85643e+12 -6.34484e+12 -9.98143e+12 -8.83428e+12 -1.32118e+13 -7.36207e+12 -4.8246e+12 -4.79182e+12 -3.80752e+12 -4.0521e+12 -6.2595e+12 -1.06208e+13 -6.34107e+12 -8.27724e+12 -6.80518e+12 -5.19997e+12 -8.06652e+12 -9.6727e+12 -1.41507e+13 -8.17544e+12 -3.61923e+12 -6.72024e+12 -1.01589e+13 -5.56273e+12 -8.30347e+12 -9.51757e+12 -5.23021e+12 -7.87523e+12 -7.42567e+12 -1.388e+13 -7.84947e+12 -6.20395e+12 -6.21768e+12 -5.95707e+12 -7.70515e+12 -8.01951e+12 -6.06222e+12 -8.50203e+12 -5.78874e+12 -6.52979e+12 -5.46758e+12 -5.73406e+12 -4.36245e+12 -5.58908e+12 -5.88284e+12 -8.47664e+12 -7.40255e+12 -4.78494e+12 -6.30114e+12 -3.04298e+12 -4.76153e+12 -8.81738e+12 -5.27967e+12 -7.2566e+12 -1.40624e+13 -8.56304e+12 -6.74352e+12 -6.5463e+12 -1.26356e+13 -7.25037e+12 -1.13578e+13 -6.01896e+12 -6.1931e+12 -7.68951e+12 -5.64297e+12 -8.38647e+12 -5.65017e+12 -7.70302e+12 -6.26302e+12 -5.12108e+12 -2.55995e+12 -2.96716e+12 -5.72297e+12 -4.16703e+12 -4.6116e+12 -5.55306e+12 -1.07746e+13 -4.35438e+12 -6.30307e+12 -2.95855e+12 -5.59125e+12 -8.36902e+12 -7.09639e+12 -6.41771e+12 -4.72912e+12 -1.58444e+12 -6.22531e+12 -4.33586e+12 -6.19941e+12 -6.29476e+12 -8.63147e+12 -6.67656e+12 -6.78063e+12 -1.01964e+13 -5.89622e+12 -6.57813e+12 -5.43668e+12 -9.90094e+12 -4.56305e+12 -7.76533e+12 -6.45802e+12 -4.00001e+12 -3.69048e+12 -6.459e+12 -7.48512e+12 -5.55114e+12 -6.81595e+12 -6.32656e+12 -5.45953e+12 -7.07722e+12 -7.51328e+12 -6.74942e+12 -1.01807e+13 -8.92664e+12 -3.56106e+12 -5.29156e+12 -5.23809e+12 -6.04803e+12 -4.53852e+12 -4.5453e+12 -7.20839e+12 -6.25539e+12 -1.20484e+13 -7.88692e+12 -8.09043e+12 -6.75837e+12 -8.33778e+12 -7.24106e+12 -6.57426e+12 -6.42872e+12 -3.97446e+12 -6.32548e+12 -4.36649e+12 -4.37842e+12 -4.47839e+12 -5.63685e+12 -6.79899e+12 -9.9629e+12 -6.14638e+12 -7.74826e+12 -8.3346e+12 -6.27532e+12 -4.90152e+12 -3.586e+12 -4.73857e+12 -4.88715e+12 -5.68252e+12 -8.44658e+12 -6.43663e+12 -1.07461e+13 -8.71438e+12 -1.32788e+13 -8.64778e+12 -5.15585e+12 -8.55776e+12 -9.28359e+12 -1.45e+13 -6.23752e+12 -1.10107e+13 -4.17006e+12 -7.73673e+12 -6.80011e+12 -4.83852e+12 -7.18275e+12 -6.05203e+12 -5.95114e+12 -9.65387e+12 -5.8847e+12 -7.67209e+12 -1.09931e+13 -4.9645e+12 -1.00219e+13 -3.49482e+12 -5.59084e+12 -8.82243e+12 -1.13408e+13 -6.93898e+12 -4.5232e+12 -5.52795e+12 -6.13197e+12 -4.72558e+12 -6.77407e+12 -7.47404e+12 -1.00678e+13 -8.47672e+12 -6.94212e+12 -6.65405e+12 -3.85366e+12 -4.0269e+12 -3.90405e+12 -7.94873e+12 -5.86378e+12 -7.16013e+12 -4.01796e+12 -6.12437e+12 -7.03312e+12 -8.26728e+12 -7.24553e+12 -6.06247e+12 -5.63252e+12 -8.13279e+12 -3.82044e+12 -6.32422e+12 -6.97555e+12 -7.26913e+12 -5.7091e+12 -9.56305e+12 -8.82832e+12 -7.76167e+12 -1.10356e+13 -7.02827e+12 -2.99981e+12 -5.42659e+12 -4.40668e+12 -4.11703e+12 -4.36541e+12 -5.97477e+12 -6.60349e+12 -9.399e+12 -7.85223e+12 -8.58814e+12 -6.0471e+12 -5.0038e+12 -6.3072e+12 -9.26969e+12 -6.51249e+12 -7.80758e+12 -6.16728e+12 -6.70229e+12 -4.34415e+12 -1.16572e+13 -8.06748e+12 -3.91971e+12 -6.84324e+12 -3.69918e+12 -5.04481e+12 -7.84984e+12 -7.43442e+12 -5.85716e+12 -4.83204e+12 -7.0614e+12 -6.26431e+12 -4.34286e+12 -5.45646e+12 -5.99103e+12 -8.214e+12 -4.318e+12 -5.84802e+12 -3.3041e+12 -7.24534e+12 -4.67338e+12 -5.49345e+12 -6.47364e+12 -5.31067e+12 -7.28031e+12 -5.93847e+12 -6.78713e+12 -4.91764e+12 -6.1826e+12 -7.67171e+12 -7.74658e+12 -7.7241e+12 -1.03687e+13 -7.44458e+12 -7.24538e+12 -5.9923e+12 -1.02349e+13 -1.15053e+13 -8.16565e+12 -6.04798e+12 -3.45041e+12 -4.08435e+12 -4.01582e+12 -8.951e+12 -6.86127e+12 -1.04949e+13 -7.82968e+12 -5.14341e+12 -5.75891e+12 -6.48856e+12 -9.14765e+12 -4.40978e+12 -6.60382e+12 -4.08994e+12 -6.44971e+12 -7.34682e+12 -1.04134e+13 -4.57073e+12 -7.36632e+12 -7.7948e+12 -6.31524e+12 -3.87218e+12 -5.52724e+12 -6.08013e+12 -9.30778e+12 -8.64011e+12 -8.07765e+12 -1.01657e+13 -5.17303e+12 -5.15417e+12 -5.84568e+12 -4.55945e+12 -5.98372e+12 -6.27169e+12 -8.58832e+12 -5.13123e+12 -1.04445e+13 -8.75496e+12 -1.2132e+13 -1.00976e+13 -7.43753e+12 -4.56782e+12 -7.41406e+12 -4.8468e+12 -3.9862e+12 -4.76416e+12 -5.8383e+12 -5.00037e+12 -7.77655e+12 -9.80356e+12 -6.47186e+12 -5.22345e+12 -8.32198e+12 -4.58317e+12 -8.67463e+12 -6.97431e+12 -6.94037e+12 -8.63642e+12 -5.95154e+12 -6.36874e+12 -3.76357e+12 -6.12744e+12 -5.40151e+12 -4.30443e+12 -5.16836e+12 -4.16552e+12 -7.13086e+12 -6.46757e+12 -4.15539e+12 -3.76763e+12 -3.3527e+12 -6.36222e+12 -7.74835e+12 -4.93083e+12 -9.92624e+12 -8.41052e+12 -5.79933e+12 -7.13682e+12 -9.94696e+12 -5.71775e+12 -1.07414e+13 -8.76255e+12 -6.73295e+12 -9.04999e+12 -3.31309e+12 -5.90956e+12 -9.17571e+12 -6.21443e+12 -5.90163e+12 -6.07043e+12 -5.93455e+12 -7.99963e+12 -3.57874e+12 -5.30068e+12 -3.39217e+12 -6.88304e+12 -6.7915e+12 -4.29972e+12 -5.49238e+12 -3.09776e+12 -4.97189e+12 -6.80762e+12 -4.01657e+12 -6.20595e+12 -7.27325e+12 -8.76851e+12 -4.98379e+12 -7.75096e+12 -5.25728e+12 -7.31745e+12 -8.92648e+12 -3.55009e+12 -7.69833e+12 -6.105e+12 -3.09867e+12 -3.37347e+12 -5.00056e+12 -6.02079e+12 -4.55968e+12 -4.73541e+12 -8.01832e+12 -4.88336e+12 -6.53053e+12 -3.93313e+12 -5.46671e+12 -7.30377e+12 -7.16588e+12 -5.95476e+12 -8.03838e+12 -4.54668e+12 -4.03704e+12 -5.20524e+12 -3.67033e+12 -4.23594e+12 -6.21931e+12 -9.21223e+12 -4.17778e+12 -2.36496e+12 -1.03311e+13 -7.0619e+12 -5.09056e+12 -5.1559e+12 -3.60581e+12 -2.57527e+12 -8.85198e+12 -5.35333e+12 -6.90244e+12 -5.5806e+12 -7.00678e+12 -6.59173e+12 -1.03778e+13 -4.77104e+12 -5.47803e+12 -7.38917e+12 -3.98313e+12 -6.98228e+12 -6.38906e+12 -6.14919e+12 -5.07646e+12 -4.2089e+12 -4.64356e+12 -4.63645e+12 -5.98904e+12 -8.82116e+12 -6.32445e+12 -6.17524e+12 -6.39911e+12 -9.84869e+12 -8.02341e+12 -6.14921e+12 -1.21285e+13 -9.93622e+12 -7.39135e+12 -7.82581e+12 -2.50631e+12 -6.79105e+12 -6.06657e+12 -5.87616e+12 -1.06166e+13 -4.79703e+12 -4.65594e+12 -4.8392e+12 -8.59699e+12 -5.05722e+12 -1.15822e+13 -8.50613e+12 -1.29888e+13 -1.05629e+13 -6.35841e+12 -4.70083e+12 -7.05225e+12 -5.78124e+12 -4.60731e+12 -7.11867e+12 -5.48483e+12 -3.55491e+12 -5.59887e+12 -3.6034e+12 -5.81839e+12 -4.26352e+12 -7.05242e+12 -4.49723e+12 -4.16775e+12 -3.58238e+12 -6.67546e+12 -7.48481e+12 -5.97699e+12 -8.34861e+12 -8.75886e+12 -7.08781e+12 -7.2841e+12 -8.02217e+12 -6.05353e+12 -6.78693e+12 -6.205e+12 -5.57445e+12 -5.53121e+12 -1.0028e+13 -7.91244e+12 -8.22654e+12 -6.98218e+12 -5.19762e+12 -8.65612e+12 -5.5101e+12 -1.18887e+13 -1.18273e+13 -6.37469e+12 -8.57039e+12 -5.49725e+12 -6.74794e+12 -7.85116e+12 -3.80253e+12 -9.55636e+12 -3.14646e+12 -1.03003e+13 -5.61852e+12 -5.1339e+12 -3.70364e+12 -7.18829e+12 -4.31964e+12 -3.84604e+12 -6.21328e+12 -6.20456e+12 -9.07258e+12 -4.9135e+12 -4.42945e+12 -5.62013e+12 -6.17607e+12 -8.93432e+12 -6.80703e+12 -6.42977e+12 -7.14294e+12 -3.62191e+12 -5.6351e+12 -5.63987e+12 -4.55774e+12 -6.23326e+12 -6.29866e+12 -6.48242e+12 -4.17501e+12 -5.29824e+12 -6.76149e+12 -6.86652e+12 -4.44188e+12 -4.92243e+12 -7.49882e+12 -6.3045e+12 -4.67759e+12 -6.05421e+12 -6.13003e+12 -4.03589e+12 -8.83648e+12 -5.32901e+12 -6.74122e+12 -5.94849e+12 -5.37455e+12 -4.43008e+12 -2.73831e+12 -3.90864e+12 -6.24871e+12 -1.05564e+13 -6.56839e+12 -6.76437e+12 -1.0252e+13 -8.93362e+12 -6.04561e+12 -1.00565e+13 -8.15809e+12 -7.14592e+12 -5.31922e+12 -1.0673e+13 -3.76312e+12 -6.28565e+12 -5.98108e+12 -9.03405e+12 -6.57016e+12 -7.97e+12 -5.42657e+12 -6.75043e+12 -6.63563e+12 -5.87224e+12 -2.74711e+12 -5.98655e+12 -7.26333e+12 -5.19838e+12 -8.4409e+12 -8.00644e+12 -8.05119e+12 -6.81354e+12 -6.01687e+12 -7.91404e+12 -4.61941e+12 -1.10846e+13 -6.72204e+12 -6.0695e+12 -4.47547e+12 -6.09294e+12 -8.97743e+12 -1.58143e+13 -8.34881e+12 -4.63057e+12 -1.15778e+13 -8.71069e+12 -9.33121e+12 -5.69569e+12 -4.56768e+12 -5.95469e+12 -6.53578e+12 -2.51201e+12 -4.55604e+12 -3.66129e+12 -5.20567e+12 -5.72706e+12 -6.08783e+12 -6.72301e+12 -5.20721e+12 -4.40755e+12 -1.006e+13 -8.7424e+12 -6.2097e+12 -6.75699e+12 -5.47452e+12 -6.55241e+12 -5.06824e+12 -7.89765e+12 -5.84983e+12 -4.67465e+12 -5.61795e+12 -5.85872e+12 -4.62901e+12 -5.19145e+12 -6.5917e+12 -5.71358e+12 -8.62085e+12 -7.47778e+12 -3.33016e+12 -9.77245e+12 -5.07682e+12 -6.1408e+12 -3.64877e+12 -7.49374e+12 -1.20772e+13 -8.719e+12 -7.6823e+12 -6.57405e+12 -7.44253e+12 -5.5413e+12 -6.76413e+12 -7.7769e+12 -5.39955e+12 -8.36736e+12 -6.68886e+12 -7.2946e+12 -5.58792e+12 -7.49562e+12 -7.53834e+12 -6.7648e+12 -9.06127e+12 -6.63425e+12 -7.00219e+12 -3.30484e+12 -4.89926e+12 -3.48739e+12 -6.79583e+12 -5.18272e+12 -3.53776e+12 -5.40831e+12 -2.68307e+12 -6.32843e+12 -6.50671e+12 -7.88767e+12 -4.65871e+12 -5.46962e+12 -5.00208e+12 -4.32025e+12 -4.9814e+12 -3.89172e+12 -6.80482e+12 -3.92681e+12 -1.04896e+13 -7.73502e+12 -2.89055e+12 -5.68059e+12 -6.52327e+12 -3.8644e+12 -6.44439e+12 -5.62469e+12 -5.72906e+12 -7.88757e+12 -4.59353e+12 -3.30568e+12 -4.41487e+12 -5.65904e+12 -4.86416e+12 -6.58395e+12 -5.30123e+12 -8.01262e+12 -7.67247e+12 -5.8405e+12 -1.06005e+13 -4.1789e+12 -7.93769e+12 -9.96951e+12 -6.80778e+12 -5.21257e+12 -7.92977e+12 -6.1837e+12 -6.86352e+12 -7.01863e+12 -8.28113e+12 -8.89609e+12 -7.48677e+12 -3.80991e+12 -4.52405e+12 -5.84819e+12 -8.03381e+12 -6.41681e+12 -4.95823e+12 -4.46815e+12 -4.84372e+12 -4.83456e+12 -6.27855e+12 -8.62074e+12 -6.06129e+12 -7.0008e+12 -6.73924e+12 -7.82165e+12 -5.38775e+12 -6.61842e+12 -6.53744e+12 -9.84352e+12 -8.03974e+12 -8.69188e+12 -6.90168e+12 -5.52677e+12 -1.19991e+13 -1.0498e+13 -7.58518e+12 -8.71002e+12 -5.45455e+12 -4.99211e+12 -7.75694e+12 -2.83227e+12 -6.08614e+12 -3.30374e+12 -5.00304e+12 -4.26371e+12 -7.51372e+12 -5.5199e+12 -7.25946e+12 -6.00212e+12 -9.80031e+12 -8.75588e+12 -8.35854e+12 -7.57662e+12 -7.66474e+12 -5.41654e+12 -4.54885e+12 -5.95137e+12 -7.54414e+12 -4.56222e+12 -8.43668e+12 -2.98064e+12 -3.91892e+12 -4.73592e+12 -5.03427e+12 -3.92069e+12 -1.0361e+13 -2.72129e+12 -4.43591e+12 -3.03935e+12 -7.18357e+12 -5.20912e+12 -7.40974e+12 -7.54836e+12 -5.09405e+12 -5.28004e+12 -5.66729e+12 -6.3521e+12 -6.36217e+12 -6.89595e+12 -2.37906e+12 -2.48977e+12 -8.1334e+12 -9.61117e+12 -4.58466e+12 -4.94008e+12 -5.00369e+12 -4.5475e+12 -4.98136e+12 -3.75517e+12 -4.19454e+12 -8.48336e+12 -5.22734e+12 -3.88591e+12 -3.70512e+12 -5.53964e+12 -3.07144e+12 -4.08136e+12 -3.46846e+12 -3.71748e+12 -4.40198e+12 -5.06814e+12 -3.37612e+12 -4.45237e+12 -4.58802e+12 -3.98429e+12 -5.46494e+12 -5.40632e+12 -4.71724e+12 -5.71516e+12 -8.16606e+12 -4.21188e+12 -2.53258e+12 -8.69947e+12 -3.08371e+12 -4.28954e+12 -5.59911e+12 -4.25169e+12 -4.96624e+12 -4.0596e+12 -1.39821e+12 -5.53878e+12 -7.72412e+12 -4.42376e+12 -4.20679e+12 -3.38268e+12 -4.38334e+12 -7.92256e+12 -2.52704e+12 -5.05505e+12 -6.03357e+12 -4.22881e+12 -4.82844e+12 -3.2444e+12 -4.36697e+12 -5.17347e+12 -7.66489e+12 -5.48221e+12 -5.7327e+12 -7.15448e+12 -4.25612e+12 -6.22576e+12 -8.50625e+12 -6.4162e+12 -5.63024e+12 -4.99705e+12 -8.95675e+12 -5.59716e+12 -4.56888e+12 -5.68509e+12 -6.54277e+12 -6.33794e+12 -8.14242e+12 -7.89964e+12 -7.06604e+12 -6.55367e+12 -6.38156e+12 -7.24862e+12 -6.15155e+12 -8.14183e+12 -6.30267e+12 -5.85401e+12 -4.1677e+12 -7.4246e+12 -3.90602e+12 -7.58136e+12 -5.82625e+12 -5.55058e+12 -8.02741e+12 -7.4334e+12 -1.2418e+13 -6.41138e+12 -5.457e+12 -6.03062e+12 -4.71518e+12 -3.86972e+12 -6.75919e+12 -3.20986e+12 -8.09385e+12 -5.59534e+12 -5.63962e+12 -7.33663e+12 -6.34635e+12 -8.71585e+12 -5.84953e+12 -5.44328e+12 -9.79318e+12 -4.35489e+12 -7.19837e+12 -4.44682e+12 -4.93389e+12 -5.35412e+12 -5.58942e+12 -5.20438e+12 -4.35233e+12 -6.85987e+12 -5.28255e+12 -6.25684e+12 -7.52871e+12 -6.93441e+12 -3.8225e+12 -5.46324e+12 -6.10397e+12 -4.8888e+12 -6.30797e+12 -8.05995e+12 -8.12418e+12 -4.46796e+12 -6.79141e+12 -5.96819e+12 -5.91914e+12 -5.20023e+12 -7.34799e+12 -4.07313e+12 -6.49544e+12 -4.29359e+12 -5.56931e+12 -5.7238e+12 -4.01341e+12 -6.3726e+12 -5.86153e+12 -8.43626e+12 -5.53267e+12 -4.3827e+12 -5.28214e+12 -5.00322e+12 -6.44439e+12 -6.48973e+12 -3.06651e+12 -5.01316e+12 -5.21476e+12 -5.02949e+12 -7.3917e+12 -4.83652e+12 -3.15805e+12 -2.58443e+12 -5.81656e+12 -2.68415e+12 -3.96959e+12 -2.7605e+12 -3.45395e+12 -6.55632e+12 -2.45019e+12 -5.08334e+12 -3.46066e+12 -3.77408e+12 -4.48695e+12 -4.64253e+12 -3.52398e+12 -3.97627e+12 -3.67984e+12 -5.61772e+12 -2.61888e+12 -3.67537e+12 -3.36652e+12 -6.19049e+12 -7.06827e+12 -6.35084e+12 -4.09029e+12 -2.94363e+12 -2.84374e+12 -3.28212e+12 -7.66084e+12 -4.11263e+12 -5.04311e+12 -2.48475e+12 -5.67347e+12 -3.87971e+12 -6.60107e+12 -3.81821e+12 -5.14146e+12 -6.69419e+12 -4.16374e+12 -7.23936e+12 -9.91756e+12 -5.3722e+12 -8.32321e+12 -3.47061e+12 -9.3006e+12 -7.69196e+12 -4.44182e+12 -4.46445e+12 -7.74932e+12 -6.62638e+12 -5.79643e+12 -8.03529e+12 -7.26396e+12 -7.75557e+12 -7.64518e+12 -9.41201e+12 -915451000000.0 -5.4504e+12 -4.26144e+12 -7.6864e+12 -5.89328e+12 -3.11209e+12 -5.08735e+12 -4.98361e+12 -7.55296e+12 -5.7126e+12 -7.23499e+12 -5.35056e+12 -6.55618e+12 -7.51471e+12 -8.45302e+12 -9.06901e+12 -6.13909e+12 -1.13184e+13 -2.8351e+12 -2.54524e+12 -5.92368e+12 -6.52469e+12 -5.6248e+12 -2.90645e+12 -4.30423e+12 -3.51005e+12 -4.50449e+12 -4.31767e+12 -9.70785e+12 -5.48569e+12 -4.94392e+12 -7.95146e+12 -7.18384e+12 -6.69581e+12 -9.29545e+12 -4.4427e+12 -6.91526e+12 -4.81066e+12 -3.07741e+12 -5.5389e+12 -7.61098e+12 -4.02437e+12 -4.29582e+12 -6.28497e+12 -6.63103e+12 -5.07461e+12 -9.82565e+12 -4.74572e+12 -5.33958e+12 -6.33398e+12 -5.65131e+12 -8.20042e+12 -7.88017e+12 -5.97184e+12 -5.14322e+12 -6.12595e+12 -7.35572e+12 -4.39415e+12 -5.33802e+12 -5.36531e+12 -7.07413e+12 -7.68603e+12 -7.10321e+12 -7.93182e+12 -4.04079e+12 -5.43679e+12 -1.84248e+12 -4.8721e+12 -3.94514e+12 -2.90121e+12 -7.74449e+12 -6.36225e+12 -6.61279e+12 -5.20629e+12 -3.16234e+12 -6.53771e+12 -6.50052e+12 -1.40952e+12 -3.76883e+12 -4.54509e+12 -4.62756e+12 -6.37125e+12 -6.02355e+12 -5.01678e+12 -1.82304e+12 -3.2573e+12 -2.37869e+12 -2.45836e+12 -4.45116e+12 -6.23405e+12 -3.25043e+12 -3.32019e+12 -2.58958e+12 -4.16713e+12 -7.60153e+12 -4.30517e+12 -3.72062e+12 -3.52766e+12 -4.12877e+12 -3.69692e+12 -3.99456e+12 -2.72911e+12 -2.24467e+12 -3.95087e+12 -3.92392e+12 -3.88568e+12 -5.51111e+12 -2.63363e+12 -2.46967e+12 -6.01775e+12 -4.34257e+12 -4.37872e+12 -4.37398e+12 -4.76739e+12 -5.22651e+12 -4.7097e+12 -4.33144e+12 -2.79583e+12 -3.63667e+12 -3.12949e+12 -5.85082e+12 -8.51482e+12 -3.64826e+12 -3.16533e+12 -3.3708e+12 -3.42137e+12 -2.3974e+12 -2.04866e+12 -8.13446e+12 -3.57597e+12 -8.26164e+12 -7.50211e+12 -3.39615e+12 -7.08322e+12 -4.20347e+12 -5.86422e+12 -5.26003e+12 -5.5732e+12 -6.52024e+12 -5.92819e+12 -5.98893e+12 -7.43154e+12 -7.65757e+12 -7.48627e+12 -5.16251e+12 -3.34755e+12 -6.17686e+12 -5.2864e+12 -6.94237e+12 -8.3882e+12 -6.6455e+12 -4.74127e+12 -7.61135e+12 -6.06298e+12 -5.02799e+12 -3.92809e+12 -1.00342e+13 -5.03894e+12 -6.39958e+12 -4.1589e+12 -5.42954e+12 -8.83686e+12 -2.03221e+12 -8.18384e+12 -4.71908e+12 -2.85969e+12 -1.77288e+12 -6.72087e+12 -3.93549e+12 -3.43988e+12 -2.75117e+12 -4.92548e+12 -1.02465e+13 -5.37199e+12 -6.61251e+12 -3.82112e+12 -4.25398e+12 -5.95036e+12 -5.2075e+12 -3.73351e+12 -3.92999e+12 -4.77436e+12 -4.81049e+12 -5.64708e+12 -5.89869e+12 -4.82821e+12 -4.93177e+12 -2.16334e+12 -3.72154e+12 -1.963e+12 -4.84067e+12 -3.86129e+12 -6.55784e+12 -6.57142e+12 -5.36903e+12 -5.62792e+12 -4.11483e+12 -6.08391e+12 -5.65229e+12 -3.76004e+12 -4.43975e+12 -3.75717e+12 -4.67738e+12 -4.53172e+12 -7.77282e+12 -6.35207e+12 -7.79744e+12 -4.24682e+12 -2.66718e+12 -6.0318e+12 -4.78648e+12 -6.21048e+12 -4.15769e+12 -5.62764e+12 -3.56789e+12 -5.09322e+12 -6.47407e+12 -5.89707e+12 -2.90682e+12 -5.95997e+12 -2.7972e+12 -3.16861e+12 -2.09895e+12 -4.79836e+12 -4.91807e+12 -4.22003e+12 -2.94941e+12 -5.35721e+12 -4.48538e+12 -3.16027e+12 -3.776e+12 -3.77693e+12 -4.19577e+12 -3.51078e+12 -6.13437e+12 -968264000000.0 -4.77469e+12 -2.9942e+12 -4.36981e+12 -1.94154e+12 -5.33048e+12 -2.09307e+12 -2.06414e+12 -4.95824e+12 -3.7149e+12 -4.27906e+12 -3.4705e+12 -2.96765e+12 -3.47773e+12 -5.08258e+12 -1.75489e+12 -3.87456e+12 -3.96753e+12 -2.46586e+12 -2.88534e+12 -4.15536e+12 -4.35348e+12 -3.60881e+12 -4.22848e+12 -3.49909e+12 -4.08829e+12 -4.25402e+12 -5.10062e+12 -2.91465e+12 -5.48452e+12 -2.94795e+12 -6.47894e+12 -7.95864e+12 -3.72632e+12 -3.11439e+12 -2.50408e+12 -2.86797e+12 -4.16854e+12 -5.10297e+12 -4.21064e+12 -4.00957e+12 -5.86719e+12 -6.53641e+12 -6.2914e+12 -5.76395e+12 -4.77235e+12 -4.95087e+12 -5.12002e+12 -1.83479e+12 -4.30758e+12 -1.28691e+12 -5.32073e+12 -3.55106e+12 -4.11269e+12 -5.36326e+12 -6.05008e+12 -4.753e+12 -8.70204e+12 -7.72003e+12 -3.47935e+12 -4.75395e+12 -5.98608e+12 -2.99367e+12 -6.49631e+12 -3.21492e+12 -4.10463e+12 -5.44873e+12 -2.74521e+12 -4.81815e+12 -7.77237e+12 -4.94195e+12 -5.20233e+12 -4.95262e+12 -5.73155e+12 -3.91112e+12 -6.74996e+12 -4.49745e+12 -2.35115e+12 -3.62522e+12 -3.60682e+12 -2.77871e+12 -5.79346e+12 -4.81788e+12 -5.85818e+12 -5.79595e+12 -6.48046e+12 -4.65918e+12 -4.48505e+12 -3.93929e+12 -6.59649e+12 -3.92454e+12 -3.8594e+12 -4.42608e+12 -3.24514e+12 -5.40314e+12 -4.49723e+12 -5.68036e+12 -4.11613e+12 -3.4895e+12 -6.55925e+12 -4.83668e+12 -4.00106e+12 -2.12796e+12 -4.50424e+12 -5.59358e+12 -3.54367e+12 -5.6989e+12 -2.8856e+12 -4.40212e+12 -4.03312e+12 -4.5756e+12 -5.91521e+12 -2.94801e+12 -5.98497e+12 -4.8488e+12 -6.34159e+12 -5.50737e+12 -3.33627e+12 -4.13379e+12 -6.06429e+12 -7.09049e+12 -5.30913e+12 -3.86025e+12 -3.98789e+12 -3.67553e+12 -5.24238e+12 -2.84779e+12 -4.61285e+12 -4.79697e+12 -4.72811e+12 -4.3688e+12 -3.26394e+12 -1.80817e+12 -4.01113e+12 -5.64109e+12 -3.74731e+12 -3.87404e+12 -1.42406e+12 -751037000000.0 -3.10482e+12 -2.13601e+12 -3.58651e+12 -3.28481e+12 -2.505e+12 -2.71561e+12 -3.22046e+12 -1.65062e+12 -4.79391e+12 -5.50972e+12 -4.83819e+12 -2.48365e+12 -3.71322e+12 -1.71687e+12 -2.88078e+12 -2.32294e+12 -6.54568e+12 -4.29607e+12 -3.2377e+12 -4.30327e+12 -3.81536e+12 -5.06409e+12 -5.77082e+12 -4.3838e+12 -6.16884e+12 -3.85635e+12 -2.39134e+12 -4.99464e+12 -4.81436e+12 -4.43036e+12 -3.48706e+12 -3.379e+12 -2.23469e+12 -4.87507e+12 -3.76625e+12 -3.33049e+12 -4.29821e+12 -3.72019e+12 -6.03257e+12 -5.64464e+12 -7.00943e+12 -5.62313e+12 -5.17566e+12 -5.23404e+12 -4.80055e+12 -3.38221e+12 -5.25009e+12 -5.89558e+12 -8.08304e+12 -4.86697e+12 -4.78593e+12 -5.88119e+12 -3.58455e+12 -6.47035e+12 -3.41895e+12 -7.39037e+12 -4.74069e+12 -6.15306e+12 -6.02382e+12 -5.73786e+12 -4.8907e+12 -4.05083e+12 -4.36487e+12 -3.92511e+12 -7.96609e+12 -3.07148e+12 -3.9378e+12 -2.76499e+12 -1.66734e+12 -2.37241e+12 -4.47438e+12 -6.68213e+12 -6.33783e+12 -7.05343e+12 -7.90356e+12 -4.23747e+12 -4.11002e+12 -7.33946e+12 -6.03059e+12 -4.73282e+12 -4.15133e+12 -3.5091e+12 -4.07205e+12 -5.25082e+12 -3.37497e+12 -3.68671e+12 -1.68081e+12 -4.02191e+12 -5.09654e+12 -3.17118e+12 -5.20081e+12 -1.42995e+12 -4.51853e+12 -5.68295e+12 -5.12784e+12 -3.50124e+12 -4.46909e+12 -1.8446e+12 -4.26422e+12 -4.36043e+12 -6.61349e+12 -4.99541e+12 -3.60516e+12 -4.53087e+12 -5.99607e+12 -1.30807e+12 -3.39083e+12 -3.38954e+12 -6.74386e+12 -4.30054e+12 -6.37633e+12 -1.80069e+12 -3.11829e+12 -3.27762e+12 -6.63819e+12 -3.17885e+12 -4.28775e+12 -1.63759e+12 -1.92443e+12 -2.84516e+12 -2.6855e+12 -4.02662e+12 -3.21319e+12 -2.6831e+12 -2.66622e+12 -1.51811e+12 -3.70711e+12 -2.81056e+12 -2.93384e+12 -1.52533e+12 -1.71571e+12 -2.68898e+12 -2.36577e+12 -3.95312e+12 -2.60986e+12 -1.31153e+12 -3.10099e+12 -4.19833e+12 -3.19649e+12 -1.87613e+12 -1.32023e+12 -2.48104e+12 -2.60331e+12 -4.01313e+12 -3.10527e+12 -3.22367e+12 -1.77143e+12 -3.8884e+12 -2.25595e+12 -4.36601e+12 -3.15814e+12 -4.20493e+12 -2.83315e+12 -2.80424e+12 -3.28991e+12 -5.40014e+12 -3.81585e+12 -3.92752e+12 -1.02595e+12 -4.20645e+12 -5.54057e+12 -5.65507e+12 -2.76073e+12 -3.71653e+12 -2.65801e+12 -2.00739e+12 -3.27991e+12 -4.29835e+12 -2.75283e+12 -2.24338e+12 -4.63972e+12 -1.41676e+12 -2.57093e+12 -4.70894e+12 -2.59406e+12 -4.75041e+12 -5.49749e+12 -2.21319e+12 -3.21673e+12 -2.63218e+12 -1.5634e+12 -2.85168e+12 -4.47326e+12 -7.16094e+12 -4.77987e+12 -6.35816e+12 -3.35432e+12 -4.50255e+12 -4.91447e+12 -4.05148e+12 -5.55992e+12 -5.63091e+12 -5.33602e+12 -5.50726e+12 -3.50894e+12 -4.84882e+12 -8.01288e+12 -3.98479e+12 -4.41246e+12 -3.79912e+12 -4.75503e+12 -6.8938e+12 -7.26531e+12 -3.5467e+12 -5.49532e+12 -4.78943e+12 -6.27166e+12 -5.25872e+12 -3.76013e+12 -3.96391e+12 -3.70574e+12 -6.42296e+12 -6.61231e+12 -4.27301e+12 -2.96985e+12 -4.64501e+12 -5.94192e+12 -5.24998e+12 -3.62415e+12 -5.81862e+12 -3.79043e+12 -3.97639e+12 -4.84534e+12 -7.87456e+12 -5.33381e+12 -3.17091e+12 -5.52176e+12 -5.11284e+12 -3.02812e+12 -3.26595e+12 -4.65066e+12 -3.82983e+12 -4.81708e+12 -3.18947e+12 -4.28137e+12 -4.07295e+12 -5.23527e+12 -3.40916e+12 -3.53173e+12 -4.18168e+12 -3.49525e+12 -4.62038e+12 -3.65288e+12 -4.61297e+12 -4.14502e+12 -4.30598e+12 -2.56918e+12 -2.79083e+12 -4.16263e+12 -3.50864e+12 -3.66612e+12 -2.38408e+12 -2.67031e+12 -2.24266e+12 -2.44449e+12 -2.72545e+12 -1.41344e+12 -2.59869e+12 -2.44832e+12 -2.27903e+12 -2.01506e+12 -2.27971e+12 -1.58064e+12 -1.92668e+12 -2.52455e+12 -3.92189e+12 -1.09489e+12 -2.40285e+12 -3.07023e+12 -1.28224e+12 -602203000000.0 -1.78809e+12 -1.97501e+12 -2.46233e+12 -974242000000.0 -872076000000.0 -600266000000.0 -1.70892e+12 -795389000000.0 -1.63395e+12 -1.95832e+12 -1.87941e+12 -1.47085e+12 -1.48022e+12 -1.87798e+12 -1.79338e+12 -1.98158e+12 -2.37856e+12 -2.96697e+12 -811999000000.0 -3.59277e+12 -3.53512e+12 -2.51499e+12 -1.81085e+12 -1.61525e+12 -1.18818e+12 -2.78902e+12 -3.0202e+12 -2.3349e+12 -2.39293e+12 -3.39476e+12 -2.94987e+12 -3.56172e+12 -2.4448e+12 -5.48872e+12 -3.61513e+12 -3.96197e+12 -1.74658e+12 -2.47873e+12 -1.77924e+12 -2.97799e+12 -2.11446e+12 -1.87639e+12 -3.47986e+12 -3.12706e+12 -2.32419e+12 -4.15124e+12 -3.39746e+12 -5.29301e+12 -2.17541e+12 -2.27529e+12 -4.69444e+12 -4.30316e+12 -3.91396e+12 -2.55323e+12 -4.2997e+12 -4.3061e+12 -4.53582e+12 -5.85851e+12 -3.4492e+12 -5.1722e+12 -3.77758e+12 -6.24391e+12 -3.55445e+12 -2.9117e+12 -2.51218e+12 -2.99809e+12 -5.48002e+12 -2.64756e+12 -3.67797e+12 -4.03314e+12 -5.74383e+12 -2.97032e+12 -3.44979e+12 -4.52527e+12 -4.98188e+12 -3.11306e+12 -4.16374e+12 -5.34803e+12 -6.25455e+12 -5.22971e+12 -3.75376e+12 -4.22159e+12 -4.04396e+12 -2.05333e+12 -3.91177e+12 -4.43144e+12 -3.84131e+12 -1.76829e+12 -3.89749e+12 -2.41975e+12 -3.23924e+12 -4.13227e+12 -4.47869e+12 -3.14738e+12 -6.10655e+12 -5.04853e+12 -5.62519e+12 -4.00149e+12 -4.11e+12 -4.7707e+12 -3.14903e+12 -2.41454e+12 -4.07919e+12 -8.41849e+12 -3.60008e+12 -3.07357e+12 -4.55388e+12 -4.2754e+12 -3.194e+12 -2.09594e+12 -2.86567e+12 -3.95687e+12 -3.1641e+12 -2.25083e+12 -3.01701e+12 -3.05679e+12 -1.87751e+12 -2.71037e+12 -2.55305e+12 -1.93774e+12 -1.88415e+12 -2.3198e+12 -3.42897e+12 -3.18977e+12 -2.16109e+12 -1.67062e+12 -1.75505e+12 -1.29449e+12 -2.25075e+12 -1.82869e+12 -1.82029e+12 -3.06158e+12 -1.79642e+12 -1.80094e+12 -1.49159e+12 -2.45035e+12 -1.27472e+12 -664065000000.0 -1.34002e+12 -1.71966e+12 -1.62703e+12 -1.13374e+12 -1.7187e+12 -959029000000.0 -759363000000.0 -1.52756e+12 -1.05475e+12 -620641000000.0 -858046000000.0 -2.51871e+12 -1.21687e+12 -885881000000.0 -1.33821e+12 -3.53739e+12 -1.7359e+12 -1.13426e+12 -1.80984e+12 -1.97383e+12 -1.90955e+12 -3.11177e+12 -2.05317e+12 -2.98396e+12 -3.53809e+12 -3.09863e+12 -1.77424e+12 -2.09712e+12 -3.19878e+12 -1.48883e+12 -2.17436e+12 -3.94448e+12 -3.34152e+12 -2.30685e+12 -2.40209e+12 -2.51535e+12 -2.15242e+12 -4.6991e+12 -3.83733e+12 -2.83815e+12 -1.90742e+12 -892393000000.0 -3.65584e+12 -3.00342e+12 -4.38351e+12 -851307000000.0 -2.89008e+12 -2.84215e+12 -4.07566e+12 -1.884e+12 -2.62941e+12 -5.30541e+12 -1.73445e+12 -3.0174e+12 -4.20488e+12 -4.1212e+12 -3.02373e+12 -4.14468e+12 -3.11564e+12 -3.44646e+12 -1.58518e+12 -3.78181e+12 -3.58308e+12 -2.9656e+12 -5.65089e+12 -2.86452e+12 -6.08175e+12 -3.6254e+12 -3.26952e+12 -5.66074e+12 -4.27711e+12 -4.10503e+12 -5.98321e+12 -4.28167e+12 -2.89729e+12 -1.94767e+12 -4.37788e+12 -3.67418e+12 -3.50383e+12 -5.89181e+12 -2.78338e+12 -2.39847e+12 -4.32338e+12 -5.92173e+12 -4.17489e+12 -3.56096e+12 -3.79115e+12 -3.58278e+12 -5.49854e+12 -7.19757e+12 -3.16818e+12 -758645000000.0 -3.86993e+12 -3.81756e+12 -2.25666e+12 -1.8835e+12 -2.70413e+12 -1.93255e+12 -2.23189e+12 -2.13238e+12 -3.26341e+12 -4.96819e+12 -1.77334e+12 -2.3971e+12 -2.7578e+12 -2.09563e+12 -1.91215e+12 -1.29597e+12 -2.71068e+12 -3.82011e+12 -2.60753e+12 -811507000000.0 -1.69127e+12 -1.85628e+12 -4.80556e+12 -318752000000.0 -1.81819e+12 -1.27035e+12 -1.31324e+12 -2.67617e+12 -1.92119e+12 -528385000000.0 -1.92393e+12 -1.13652e+12 -758238000000.0 -682779000000.0 -2.15084e+12 -969976000000.0 -535127000000.0 -327147000000.0 -849104000000.0 -620441000000.0 -1.87383e+12 -1.31142e+12 -744842000000.0 -719990000000.0 -617150000000.0 -284819000000.0 -805935000000.0 -539260000000.0 -1.52521e+12 -1.93562e+12 -506709000000.0 -768929000000.0 -1.24214e+12 -1.82755e+12 -695191000000.0 -2.13821e+12 -947988000000.0 -1.78886e+12 -1.35002e+12 -1.17605e+12 -1.04326e+12 -1.82067e+12 -1.46636e+12 -3.31894e+12 -2.5518e+12 -1.70754e+12 -2.01375e+12 -1.23388e+12 -2.88978e+12 -4.08945e+12 -2.00335e+12 -1.11048e+12 -2.46965e+12 -1.68067e+12 -4.34724e+12 -2.53769e+12 -2.0573e+12 -1.96093e+12 -4.09672e+12 -2.75359e+12 -2.03272e+12 -3.83581e+12 -1.53436e+12 -3.68233e+12 -4.16544e+12 -2.61779e+12 -1.36888e+12 -2.6027e+12 -2.77959e+12 -3.04284e+12 -2.38733e+12 -3.53887e+12 -6.63752e+12 -3.85407e+12 -3.75184e+12 -3.07428e+12 -2.20194e+12 -2.02348e+12 -1.64983e+12 -1.96641e+12 -4.69565e+12 -3.12559e+12 -1.73008e+12 -2.04562e+12 -4.10521e+12 -1.2789e+12 -4.3305e+12 -3.00364e+12 -827134000000.0 -2.2535e+12 -2.36247e+12 -2.32698e+12 -1.45396e+12 -2.59861e+12 -1.67514e+12 -4.21724e+12 -4.53133e+12 -2.2653e+12 -4.08336e+12 -2.72084e+12 -2.50712e+12 -2.29481e+12 -2.25284e+12 -2.51303e+12 -2.29764e+12 -1.68009e+12 -2.64538e+12 -1.29988e+12 -1.71369e+12 -3.24808e+12 -3.21879e+12 -1.75026e+12 -1.14243e+12 -2.04153e+12 -2.01656e+12 -1.9872e+12 -1.49785e+12 -2.3933e+12 -3.05327e+12 -1.28637e+12 -1.32636e+12 -746429000000.0 -447178000000.0 -1.34184e+12 -1.38721e+12 -1.23654e+12 -1.25662e+12 -370771000000.0 -845184000000.0 -446838000000.0 -483745000000.0 -1.50936e+12 -1.0219e+12 -958760000000.0 -463197000000.0 -400931000000.0 -265199000000.0 -486712000000.0 -162070000000.0 -526247000000.0 -384754000000.0 -266551000000.0 -308976000000.0 -349556000000.0 -1.43926e+12 -1.24055e+12 -602625000000.0 -893858000000.0 -792571000000.0 -573673000000.0 -578140000000.0 -1.87274e+12 -909643000000.0 -1.3336e+12 -2.63256e+12 -3.40547e+12 -1.67516e+12 -2.33378e+12 -1.80344e+12 -1.22422e+12 -2.01188e+12 -1.85477e+12 -2.1168e+12 -3.87114e+12 -2.9271e+12 -2.6559e+12 -2.1792e+12 -2.74982e+12 -1.71758e+12 -3.59064e+12 -3.06044e+12 -2.14201e+12 -3.82045e+12 -2.31506e+12 -2.7456e+12 -3.84912e+12 -2.40517e+12 -3.05826e+12 -2.85297e+12 -3.68446e+12 -3.06335e+12 -2.41334e+12 -4.75328e+12 -1.79317e+12 -3.78813e+12 -2.50244e+12 -2.90899e+12 -3.02024e+12 -2.61695e+12 -1.3187e+12 -3.83671e+12 -1.53977e+12 -2.62068e+12 -3.37011e+12 -1.67359e+12 -3.05628e+12 -541788000000.0 -2.00426e+12 -1.29262e+12 -1.38524e+12 -3.13751e+12 -1.96147e+12 -1.59384e+12 -3.23912e+12 -1.38113e+12 -1.16651e+12 -1.72049e+12 -1.93764e+12 -2.03727e+12 -1.40561e+12 -3.41687e+12 -957984000000.0 -3.27878e+12 -1.69746e+12 -1.49851e+12 -3.41844e+12 -2.22167e+12 -2.05078e+12 -1.45398e+12 -1.65931e+12 -5.0615e+12 -2.66745e+12 -940792000000.0 -663639000000.0 -1.55182e+12 -1.15626e+12 -1.49908e+12 -2.14507e+12 -1.48406e+12 -1.63151e+12 -621840000000.0 -1.0509e+12 -1.16659e+12 -620923000000.0 -500981000000.0 -684856000000.0 -597560000000.0 -799218000000.0 -212793000000.0 -552051000000.0 -765629000000.0 -235074000000.0 -171295000000.0 -221318000000.0 -216845000000.0 -267463000000.0 -115169000000.0 -215897000000.0 -344858000000.0 -556489000000.0 -241920000000.0 -404849000000.0 -197502000000.0 -824507000000.0 -105738000000.0 -370623000000.0 -772911000000.0 -654006000000.0 -365214000000.0 -1.44108e+12 -1.16086e+12 -2.00701e+12 -1.33418e+12 -1.30638e+12 -1.26193e+12 -1.20682e+12 -1.95063e+12 -2.62321e+12 -1.32088e+12 -1.45254e+12 -1.78169e+12 -2.25666e+12 -1.20463e+12 -2.21128e+12 -1.09795e+12 -1.51944e+12 -3.3725e+12 -3.75835e+12 -1.57592e+12 -1.76059e+12 -2.1593e+12 -3.38766e+12 -2.68806e+12 -2.48515e+12 -2.58036e+12 -1.67589e+12 -1.06889e+12 -3.68719e+12 -1.27071e+12 -3.62266e+12 -1.97905e+12 -1.1977e+12 -2.32515e+12 -2.71823e+12 -4.43755e+12 -2.0135e+12 -1.3625e+12 -982991000000.0 -1.9904e+12 -1.48587e+12 -964018000000.0 -2.02752e+12 -2.12838e+12 -897610000000.0 -1.9485e+12 -1.62741e+12 -2.06206e+12 -894720000000.0 -2.25783e+12 -1.10669e+12 -458618000000.0 -1.67111e+12 -737549000000.0 -2.29773e+12 -1.56659e+12 -1.10547e+12 -1.68341e+12 -677726000000.0 -656476000000.0 -1.51724e+12 -1.15096e+12 -2.34245e+12 -595793000000.0 -1.07366e+12 -950364000000.0 -1.01203e+12 -383499000000.0 -856720000000.0 -320651000000.0 -223068000000.0 -389902000000.0 -273010000000.0 -256769000000.0 -322058000000.0 -138335000000.0 -211132000000.0 -521394000000.0 -213042000000.0 -1.58836e+12 -95841900000.0 -188223000000.0 -938378000000.0 -840692000000.0 -395438000000.0 -1.72572e+12 -800051000000.0 -449482000000.0 -937751000000.0 -1.0521e+12 -949982000000.0 -1.0521e+12 -1.43899e+12 -676012000000.0 -866751000000.0 -1.7255e+12 -1.78523e+12 -1.9636e+12 -1.60041e+12 -1.32739e+12 -2.36626e+12 -1.32394e+12 -3.19642e+12 -1.20683e+12 -1.54616e+12 -1.58498e+12 -1.36164e+12 -473828000000.0 -1.61165e+12 -2.2076e+12 -2.79502e+12 -1.41069e+12 -1.68837e+12 -361641000000.0 -721357000000.0 -2.19488e+12 -832274000000.0 -1.2139e+12 -694609000000.0 -926205000000.0 -560073000000.0 -1.35424e+12 -1.51645e+12 -1.10014e+12 -863192000000.0 -788414000000.0 -1.42646e+12 -1.32415e+12 -1.13411e+12 -976040000000.0 -1.19592e+12 -2.08444e+12 -1.5122e+12 -382481000000.0 -1.19146e+12 -889443000000.0 -873797000000.0 -592984000000.0 -995072000000.0 -458187000000.0 -464145000000.0 -858612000000.0 -131200000000.0 -264430000000.0 -500756000000.0 -546768000000.0 -268747000000.0 -285231000000.0 -236897000000.0 -115607000000.0 -370902000000.0 -656393000000.0 -296987000000.0 -161812000000.0 -201575000000.0 -507453000000.0 -882793000000.0 -787065000000.0 -454072000000.0 -1.20243e+12 -1.20574e+12 -1.10235e+12 -1.51741e+12 -643996000000.0 -1.80613e+12 -1.01189e+12 -1.39155e+12 -881664000000.0 -415245000000.0 -679090000000.0 -1.41667e+12 -910447000000.0 -813579000000.0 -905645000000.0 -1.10643e+12 -871717000000.0 -297735000000.0 -1.60129e+12 -945901000000.0 -1.0468e+12 -722129000000.0 -775970000000.0 -689867000000.0 -80820000000.0 -439534000000.0 -866782000000.0 -546771000000.0 -342163000000.0 -361482000000.0 -415312000000.0 -385009000000.0 -816550000000.0 -319096000000.0 -504673000000.0 -227052000000.0 -84244800000.0 -447360000000.0 -984997000000.0 -363273000000.0 -196137000000.0 -51181400000.0 -133829000000.0 -269216000000.0 -263267000000.0 -215565000000.0 -208815000000.0 -542352000000.0 -376008000000.0 -513394000000.0 -247369000000.0 -177699000000.0 -210438000000.0 -135156000000.0 -445293000000.0 -694495000000.0 -216032000000.0 -369688000000.0 -317270000000.0 -832872000000.0 -656671000000.0 -238335000000.0 -298037000000.0 -437025000000.0 -924071000000.0 -166424000000.0 -71039300000.0 -170194000000.0 -77866000000.0 -362442000000.0 -304339000000.0 -166052000000.0 -117538000000.0 