# vtk DataFile Version 2.0
Time step 84
ASCII
DATASET UNSTRUCTURED_GRID
POINTS 5000 float
219421.0 155810.0 0
232044.0 153093.0 0
235828.0 155497.0 0
273458.0 156071.0 0
279721.0 154707.0 0
199583.0 160984.0 0
207706.0 158374.0 0
213412.0 159532.0 0
223025.0 158643.0 0
226477.0 155772.0 0
227861.0 160329.0 0
230791.0 156248.0 0
232862.0 160318.0 0
238169.0 160402.0 0
242381.0 156864.0 0
248948.0 158193.0 0
255243.0 159198.0 0
259843.0 160642.0 0
263877.0 158906.0 0
268909.0 159425.0 0
275493.0 160170.0 0
285283.0 159063.0 0
291052.0 158449.0 0
193684.0 162196.0 0
197419.0 164905.0 0
201140.0 164661.0 0
204293.0 162773.0 0
209462.0 163848.0 0
218782.0 161330.0 0
214400.0 164521.0 0
223940.0 162986.0 0
228303.0 164715.0 0
232893.0 165543.0 0
243009.0 162495.0 0
247958.0 164394.0 0
252091.0 162715.0 0
256735.0 163921.0 0
261217.0 164878.0 0
265213.0 163178.0 0
272576.0 163065.0 0
280041.0 160885.0 0
277623.0 165611.0 0
284197.0 163892.0 0
287613.0 162604.0 0
290934.0 163315.0 0
294557.0 162073.0 0
299461.0 162017.0 0
304860.0 162747.0 0
190246.0 167718.0 0
195088.0 168718.0 0
200343.0 168495.0 0
205752.0 167770.0 0
211879.0 168549.0 0
218953.0 167266.0 0
221493.0 170739.0 0
224732.0 168184.0 0
229656.0 168827.0 0
238378.0 165918.0 0
234649.0 169869.0 0
243697.0 167788.0 0
248667.0 169422.0 0
252956.0 166816.0 0
258149.0 168630.0 0
263943.0 168386.0 0
268778.0 166729.0 0
273541.0 167108.0 0
272162.0 170572.0 0
278538.0 170702.0 0
281854.0 167391.0 0
288075.0 166565.0 0
291129.0 171126.0 0
293842.0 166470.0 0
298921.0 167678.0 0
304510.0 168095.0 0
190064.0 173625.0 0
195711.0 173854.0 0
201683.0 174397.0 0
208406.0 173308.0 0
215676.0 172275.0 0
221003.0 174965.0 0
227259.0 172697.0 0
231481.0 172254.0 0
239409.0 171695.0 0
234930.0 174214.0 0
244766.0 172862.0 0
249561.0 174291.0 0
254045.0 171484.0 0
257469.0 173997.0 0
261567.0 172490.0 0
267487.0 172853.0 0
274944.0 172227.0 0
272558.0 174457.0 0
276766.0 175356.0 0
285129.0 171260.0 0
281205.0 174629.0 0
295895.0 171381.0 0
296747.0 175207.0 0
292584.0 175950.0 0
300801.0 172735.0 0
305627.0 172965.0 0
304398.0 176595.0 0
311074.0 172031.0 0
187937.0 178086.0 0
191767.0 180791.0 0
197241.0 179221.0 0
202747.0 180267.0 0
212927.0 177216.0 0
208060.0 179551.0 0
217641.0 179620.0 0
223074.0 180078.0 0
225647.0 176856.0 0
226803.0 180306.0 0
230560.0 176792.0 0
235982.0 179570.0 0
243001.0 176388.0 0
239838.0 176308.0 0
241898.0 180370.0 0
246202.0 177152.0 0
246503.0 180943.0 0
253901.0 176185.0 0
249906.0 178861.0 0
258209.0 178189.0 0
263552.0 177671.0 0
270360.0 179612.0 0
276772.0 180082.0 0
281424.0 179022.0 0
287103.0 177522.0 0
293172.0 179905.0 0
300902.0 177307.0 0
297367.0 179694.0 0
303272.0 180985.0 0
309289.0 178943.0 0
184661.0 185680.0 0
188542.0 184336.0 0
199313.0 184884.0 0
205956.0 185455.0 0
212299.0 182134.0 0
215876.0 183984.0 0
220500.0 184190.0 0
225690.0 184123.0 0
230604.0 182320.0 0
235284.0 185926.0 0
244494.0 185045.0 0
249479.0 183520.0 0
254027.0 180991.0 0
259003.0 183635.0 0
264920.0 183172.0 0
271362.0 185394.0 0
274322.0 183187.0 0
280323.0 183692.0 0
283899.0 181844.0 0
285542.0 185689.0 0
287761.0 182370.0 0
290320.0 181358.0 0
290272.0 184766.0 0
294936.0 184175.0 0
299607.0 183421.0 0
307056.0 184038.0 0
303283.0 185787.0 0
310871.0 184275.0 0
314920.0 183003.0 0
183438.0 190396.0 0
187941.0 188781.0 0
193260.0 186704.0 0
196733.0 190697.0 0
201283.0 190047.0 0
211911.0 187093.0 0
216982.0 188106.0 0
223075.0 189722.0 0
229447.0 187399.0 0
237038.0 190990.0 0
240663.0 188172.0 0
244212.0 189725.0 0
248550.0 187967.0 0
253601.0 186134.0 0
258165.0 189362.0 0
262435.0 187268.0 0
267268.0 188136.0 0
276181.0 187510.0 0
271761.0 189605.0 0
281412.0 188400.0 0
285370.0 190679.0 0
289492.0 188923.0 0
294327.0 189481.0 0
298958.0 187662.0 0
303840.0 190722.0 0
308742.0 188372.0 0
313695.0 187478.0 0
312620.0 191492.0 0
186727.0 193149.0 0
183659.0 196575.0 0
187247.0 197001.0 0
191643.0 192698.0 0
196618.0 195645.0 0
201700.0 194393.0 0
206580.0 192028.0 0
204546.0 196271.0 0
212417.0 192467.0 0
217801.0 193090.0 0
228061.0 191646.0 0
224820.0 195263.0 0
232391.0 191364.0 0
229734.0 195503.0 0
235403.0 195992.0 0
241667.0 193577.0 0
246868.0 192518.0 0
252587.0 191887.0 0
263226.0 191921.0 0
268991.0 193827.0 0
274772.0 193209.0 0
279584.0 192424.0 0
283747.0 195325.0 0
289282.0 193927.0 0
293955.0 194040.0 0
298756.0 192969.0 0
303934.0 196123.0 0
308679.0 193736.0 0
316510.0 191612.0 0
314852.0 194983.0 0
318031.0 196789.0 0
184936.0 200636.0 0
191123.0 197648.0 0
194424.0 200285.0 0
201055.0 199022.0 0
205011.0 198940.0 0
206434.0 201769.0 0
208803.0 197520.0 0
214544.0 197733.0 0
220333.0 197757.0 0
226820.0 198908.0 0
231310.0 200056.0 0
236094.0 201284.0 0
240298.0 198904.0 0
244832.0 197771.0 0
249549.0 196730.0 0
253408.0 199472.0 0
258075.0 195913.0 0
264331.0 197044.0 0
268867.0 199336.0 0
273671.0 198263.0 0
278517.0 197067.0 0
282539.0 200657.0 0
287823.0 199096.0 0
293197.0 198737.0 0
298887.0 198869.0 0
303432.0 200842.0 0
311390.0 197729.0 0
315314.0 199943.0 0
186033.0 204655.0 0
189840.0 202220.0 0
190400.0 206893.0 0
193926.0 205013.0 0
197974.0 203158.0 0
202635.0 203789.0 0
211300.0 202742.0 0
217413.0 202917.0 0
223370.0 201156.0 0
222306.0 205987.0 0
227347.0 203370.0 0
232771.0 205583.0 0
239373.0 203674.0 0
244029.0 203026.0 0
249126.0 201530.0 0
248450.0 206072.0 0
253372.0 204200.0 0
259050.0 202473.0 0
264177.0 201471.0 0
263470.0 205939.0 0
267760.0 203708.0 0
272435.0 204701.0 0
277053.0 202236.0 0
281495.0 205768.0 0
292133.0 203333.0 0
287357.0 204742.0 0
295780.0 202713.0 0
300242.0 204459.0 0
308489.0 202583.0 0
314758.0 205700.0 0
320891.0 207259.0 0
184067.0 208595.0 0
188660.0 211310.0 0
193058.0 209843.0 0
197479.0 208277.0 0
206969.0 206163.0 0
202604.0 208415.0 0
206084.0 210545.0 0
209839.0 209611.0 0
214040.0 207430.0 0
218166.0 210335.0 0
222960.0 211007.0 0
227443.0 208493.0 0
232183.0 211180.0 0
237386.0 206284.0 0
237197.0 210160.0 0
240897.0 207439.0 0
242947.0 210924.0 0
244767.0 207719.0 0
252068.0 208651.0 0
257761.0 208521.0 0
263266.0 210514.0 0
268322.0 208415.0 0
276496.0 207303.0 0
272933.0 209039.0 0
280335.0 210473.0 0
284981.0 209424.0 0
289794.0 209772.0 0
295217.0 207886.0 0
300462.0 209423.0 0
304920.0 207470.0 0
309658.0 207976.0 0
316789.0 211196.0 0
183862.0 214538.0 0
189218.0 216689.0 0
195978.0 213825.0 0
202308.0 214109.0 0
208441.0 214189.0 0
213414.0 212458.0 0
217119.0 214818.0 0
221966.0 215985.0 0
227225.0 213919.0 0
231648.0 215639.0 0
235612.0 214506.0 0
240037.0 213856.0 0
247726.0 211193.0 0
253478.0 213552.0 0
259371.0 213837.0 0
263975.0 215282.0 0
267059.0 212760.0 0
271260.0 212635.0 0
275806.0 212110.0 0
273660.0 215472.0 0
281493.0 214592.0 0
285071.0 213112.0 0
288986.0 214666.0 0
292941.0 213312.0 0
297766.0 214022.0 0
304310.0 213156.0 0
311260.0 213527.0 0
316397.0 217372.0 0
185146.0 220105.0 0
190581.0 223105.0 0
193801.0 218706.0 0
195965.0 221997.0 0
198344.0 218646.0 0
202691.0 219671.0 0
207225.0 218890.0 0
212705.0 217799.0 0
217819.0 219051.0 0
223312.0 221127.0 0
228449.0 219241.0 0
233486.0 218768.0 0
238096.0 217994.0 0
244365.0 215168.0 0
242303.0 218888.0 0
248742.0 215976.0 0
246276.0 219340.0 0
252204.0 219155.0 0
256778.0 217485.0 0
260662.0 218090.0 0
256639.0 221074.0 0
264593.0 219481.0 0
268931.0 216823.0 0
268797.0 221466.0 0
273709.0 219723.0 0
277553.0 216581.0 0
281211.0 218259.0 0
284929.0 216991.0 0
288473.0 219648.0 0
293082.0 217578.0 0
295192.0 221160.0 0
299433.0 222130.0 0
301958.0 217944.0 0
307118.0 218404.0 0
312093.0 219993.0 0
184673.0 225503.0 0
188684.0 227569.0 0
194872.0 224928.0 0
199789.0 223739.0 0
204957.0 223749.0 0
210044.0 222558.0 0
214786.0 222547.0 0
219205.0 223072.0 0
226983.0 224321.0 0
231472.0 222972.0 0
235980.0 222046.0 0
234407.0 226310.0 0
239186.0 225176.0 0
240122.0 221461.0 0
243715.0 223177.0 0
248815.0 222791.0 0
253515.0 223429.0 0
260647.0 221739.0 0
257517.0 224676.0 0
260940.0 225649.0 0
264585.0 223592.0 0
268610.0 225872.0 0
272821.0 224411.0 0
277415.0 225346.0 0
278765.0 221139.0 0
282094.0 226085.0 0
283762.0 221542.0 0
287239.0 225542.0 0
291544.0 222782.0 0
295536.0 225256.0 0
304542.0 222803.0 0
301785.0 227303.0 0
305601.0 226449.0 0
309785.0 225279.0 0
315992.0 224469.0 0
184150.0 233344.0 0
185134.0 229829.0 0
188781.0 232142.0 0
192758.0 228284.0 0
193641.0 232829.0 0
197946.0 228889.0 0
202408.0 227343.0 0
205382.0 229638.0 0
208200.0 226684.0 0
210363.0 230891.0 0
212637.0 226420.0 0
214742.0 229542.0 0
217009.0 226478.0 0
218708.0 230292.0 0
222320.0 226710.0 0
226569.0 228702.0 0
230126.0 226977.0 0
232299.0 230256.0 0
237535.0 229855.0 0
242348.0 227901.0 0
246769.0 226877.0 0
251152.0 226424.0 0
254910.0 226647.0 0
249805.0 229989.0 0
253467.0 229294.0 0
258351.0 229793.0 0
264319.0 228545.0 0
269414.0 229669.0 0
273931.0 229087.0 0
279221.0 229646.0 0
284658.0 230912.0 0
289280.0 229516.0 0
291714.0 226943.0 0
297404.0 229160.0 0
306439.0 230014.0 0
311654.0 232072.0 0
189014.0 237136.0 0
197869.0 234040.0 0
193300.0 237157.0 0
197295.0 238377.0 0
201857.0 231939.0 0
205994.0 233886.0 0
214980.0 233352.0 0
219071.0 234014.0 0
223317.0 231924.0 0
228346.0 231437.0 0
230644.0 233725.0 0
234654.0 233891.0 0
239068.0 234185.0 0
241548.0 231567.0 0
243046.0 234660.0 0
245470.0 231318.0 0
249018.0 233515.0 0
246222.0 235162.0 0
253727.0 233552.0 0
258429.0 235449.0 0
262640.0 233248.0 0
266972.0 232213.0 0
266750.0 235595.0 0
271009.0 233745.0 0
276135.0 233420.0 0
280615.0 233657.0 0
286353.0 235519.0 0
293319.0 230753.0 0
289572.0 233309.0 0
293847.0 235377.0 0
297363.0 233032.0 0
302212.0 233072.0 0
303824.0 238279.0 0
307005.0 234819.0 0
311528.0 237577.0 0
188617.0 241634.0 0
193918.0 242377.0 0
201457.0 240397.0 0
201414.0 235880.0 0
204611.0 237501.0 0
210719.0 236211.0 0
216688.0 237195.0 0
221625.0 236985.0 0
226756.0 235645.0 0
227700.0 240317.0 0
231739.0 237460.0 0
236554.0 237552.0 0
240830.0 238079.0 0
245057.0 238212.0 0
249823.0 238044.0 0
254839.0 238614.0 0
258980.0 239913.0 0
262555.0 237785.0 0
266438.0 239112.0 0
269825.0 237809.0 0
273731.0 237456.0 0
275914.0 240707.0 0
278250.0 237328.0 0
279420.0 240846.0 0
289452.0 236835.0 0
282689.0 237230.0 0
287019.0 239913.0 0
292387.0 239859.0 0
298813.0 237327.0 0
302191.0 242315.0 0
306192.0 242430.0 0
307839.0 239025.0 0
198582.0 243920.0 0
204501.0 244132.0 0
207607.0 240352.0 0
209725.0 244816.0 0
213246.0 240709.0 0
214544.0 245305.0 0
218387.0 245529.0 0
218593.0 241348.0 0
222316.0 244732.0 0
223565.0 240788.0 0
225871.0 243773.0 0
231324.0 241771.0 0
229285.0 244840.0 0
234128.0 245284.0 0
234764.0 240817.0 0
238828.0 242392.0 0
237819.0 246584.0 0
243230.0 241429.0 0
243244.0 246390.0 0
247222.0 242122.0 0
249046.0 246276.0 0
251988.0 242502.0 0
252904.0 246390.0 0
256073.0 241880.0 0
255118.0 244592.0 0
258902.0 243959.0 0
262921.0 242531.0 0
265692.0 246368.0 0
267800.0 242521.0 0
270189.0 245766.0 0
271701.0 241158.0 0
274405.0 244421.0 0
277783.0 243325.0 0
280548.0 244359.0 0
282921.0 241493.0 0
285088.0 245064.0 0
289752.0 244223.0 0
297242.0 242403.0 0
298709.0 246705.0 0
306433.0 246908.0 0
195703.0 247509.0 0
200868.0 247787.0 0
206412.0 248356.0 0
211707.0 250018.0 0
216628.0 249245.0 0
220646.0 248377.0 0
222268.0 251143.0 0
226051.0 248894.0 0
231387.0 248268.0 0
235103.0 249859.0 0
239124.0 249743.0 0
246828.0 250290.0 0
251895.0 250553.0 0
257063.0 248564.0 0
261696.0 247016.0 0
264219.0 249786.0 0
261130.0 251173.0 0
268119.0 250025.0 0
273411.0 249730.0 0
277680.0 246550.0 0
278027.0 250443.0 0
281409.0 248074.0 0
285534.0 249721.0 0
289470.0 248601.0 0
293816.0 246737.0 0
302492.0 246367.0 0
296895.0 250645.0 0
202286.0 251772.0 0
203095.0 255943.0 0
205483.0 251744.0 0
208551.0 254299.0 0
212258.0 254673.0 0
215549.0 253726.0 0
219381.0 252212.0 0
223123.0 253982.0 0
219764.0 256433.0 0
226892.0 254535.0 0
230803.0 252146.0 0
234490.0 254442.0 0
238143.0 253101.0 0
242632.0 252136.0 0
240611.0 255764.0 0
248737.0 253527.0 0
245642.0 254110.0 0
251616.0 256032.0 0
256348.0 254403.0 0
265310.0 253708.0 0
261190.0 255259.0 0
270405.0 254664.0 0
275744.0 254966.0 0
281559.0 253761.0 0
285017.0 256531.0 0
288085.0 253799.0 0
292095.0 251633.0 0
294732.0 254547.0 0
298140.0 254612.0 0
202965.0 260667.0 0
207129.0 258829.0 0
213638.0 256933.0 0
211029.0 258816.0 0
216472.0 257440.0 0
215200.0 260502.0 0
223706.0 258018.0 0
220113.0 261522.0 0
227462.0 258933.0 0
230699.0 256724.0 0
233762.0 259054.0 0
230369.0 261627.0 0
237548.0 257162.0 0
237175.0 260744.0 0
243875.0 256945.0 0
240986.0 260036.0 0
247445.0 257168.0 0
249953.0 260217.0 0
245396.0 261165.0 0
254239.0 259737.0 0
258562.0 259684.0 0
263521.0 258808.0 0
267492.0 258145.0 0
270846.0 260182.0 0
272910.0 257665.0 0
275302.0 260690.0 0
278432.0 258101.0 0
281974.0 259854.0 0
288049.0 260385.0 0
291999.0 256811.0 0
296726.0 258612.0 0
302750.0 262727.0 0
201541.0 264046.0 0
208107.0 262745.0 0
204729.0 264020.0 0
212042.0 262931.0 0
213633.0 266642.0 0
210179.0 266473.0 0
216222.0 264625.0 0
219046.0 266191.0 0
222656.0 266238.0 0
225140.0 262561.0 0
227947.0 264265.0 0
230388.0 265754.0 0
233264.0 267158.0 0
234318.0 263610.0 0
238804.0 264346.0 0
236010.0 266726.0 0
242552.0 263962.0 0
241580.0 266587.0 0
248388.0 264414.0 0
245319.0 266585.0 0
252225.0 263798.0 0
259022.0 263897.0 0
255809.0 263483.0 0
262096.0 262593.0 0
262387.0 266780.0 0
266677.0 263551.0 0
271274.0 264433.0 0
274865.0 265043.0 0
279537.0 264412.0 0
284479.0 264301.0 0
288311.0 266455.0 0
293004.0 262652.0 0
297776.0 262895.0 0
297324.0 266559.0 0
304194.0 268497.0 0
202477.0 267084.0 0
202409.0 270604.0 0
206414.0 267439.0 0
209104.0 270279.0 0
205727.0 270942.0 0
212647.0 269923.0 0
216612.0 268854.0 0
218992.0 271795.0 0
219792.0 269105.0 0
223290.0 270816.0 0
226772.0 267485.0 0
227375.0 271907.0 0
230405.0 269635.0 0
234518.0 270437.0 0
238661.0 268366.0 0
242676.0 269985.0 0
249819.0 267556.0 0
247609.0 270440.0 0
253537.0 267363.0 0
251702.0 270743.0 0
257618.0 267360.0 0
255447.0 271383.0 0
260103.0 271209.0 0
264137.0 270018.0 0
265714.0 267828.0 0
268294.0 267750.0 0
266836.0 270535.0 0
270025.0 271585.0 0
271020.0 268207.0 0
273381.0 267585.0 0
273416.0 270828.0 0
276714.0 268623.0 0
280188.0 269207.0 0
283631.0 268078.0 0
290100.0 270277.0 0
286477.0 271277.0 0
293051.0 267612.0 0
294683.0 271671.0 0
297940.0 269909.0 0
202294.0 273983.0 0
202323.0 277230.0 0
208190.0 272893.0 0
205556.0 273872.0 0
209030.0 275186.0 0
206032.0 277208.0 0
211119.0 273134.0 0
212370.0 275953.0 0
215346.0 272881.0 0
218534.0 275373.0 0
215505.0 276816.0 0
221208.0 274061.0 0
224476.0 275311.0 0
228256.0 275929.0 0
231038.0 273190.0 0
234436.0 274425.0 0
238399.0 272245.0 0
237750.0 275942.0 0
244927.0 273158.0 0
241638.0 274203.0 0
247808.0 274671.0 0
250511.0 273233.0 0
253783.0 275474.0 0
250091.0 276839.0 0
257518.0 274148.0 0
257326.0 277108.0 0
264101.0 273803.0 0
260324.0 275473.0 0
267595.0 273754.0 0
270028.0 275139.0 0
266973.0 276933.0 0
273168.0 274723.0 0
277345.0 273103.0 0
277686.0 277068.0 0
282005.0 273035.0 0
281291.0 277196.0 0
285553.0 276659.0 0
289587.0 275049.0 0
291677.0 272494.0 0
293827.0 275474.0 0
297978.0 273307.0 0
297524.0 276376.0 0
197681.0 280658.0 0
202678.0 280762.0 0
206370.0 281083.0 0
209758.0 278610.0 0
213943.0 280331.0 0
218364.0 279012.0 0
221469.0 277407.0 0
221136.0 281356.0 0
224796.0 279882.0 0
228646.0 280108.0 0
232135.0 277806.0 0
232315.0 282304.0 0
235847.0 278190.0 0
237937.0 279694.0 0
235156.0 281003.0 0
240723.0 278017.0 0
244923.0 277353.0 0
240923.0 281184.0 0
243814.0 281398.0 0
248410.0 280287.0 0
253147.0 280303.0 0
259763.0 278716.0 0
256049.0 279166.0 0
258157.0 280851.0 0
263420.0 278602.0 0
270130.0 279035.0 0
266257.0 280720.0 0
274123.0 278127.0 0
273331.0 282444.0 0
280230.0 280623.0 0
276729.0 281318.0 0
283864.0 280463.0 0
290583.0 279252.0 0
287314.0 280676.0 0
294257.0 278754.0 0
294465.0 281539.0 0
297656.0 279786.0 0
202496.0 284175.0 0
201783.0 287105.0 0
206182.0 284416.0 0
204878.0 286913.0 0
208596.0 287153.0 0
210396.0 283202.0 0
213063.0 286712.0 0
216987.0 283851.0 0
219930.0 287910.0 0
222025.0 284603.0 0
229024.0 283628.0 0
225526.0 284659.0 0
233976.0 285829.0 0
230388.0 286486.0 0
238196.0 284051.0 0
242352.0 284450.0 0
243203.0 287508.0 0
246268.0 284442.0 0
247253.0 287820.0 0
250706.0 284424.0 0
253874.0 287168.0 0
255932.0 283759.0 0
259607.0 286846.0 0
261737.0 282765.0 0
269035.0 283164.0 0
265342.0 284532.0 0
275392.0 285910.0 0
271638.0 286718.0 0
277673.0 284408.0 0
284525.0 283837.0 0
281014.0 284029.0 0
283023.0 286848.0 0
287895.0 283948.0 0
286677.0 287810.0 0
291424.0 283080.0 0
294469.0 284300.0 0
290717.0 286552.0 0
293656.0 286904.0 0
297580.0 283096.0 0
297405.0 286512.0 0
202925.0 290235.0 0
206613.0 289484.0 0
207538.0 291736.0 0
205331.0 292899.0 0
210591.0 289991.0 0
213611.0 292166.0 0
216018.0 289556.0 0
218116.0 292124.0 0
223882.0 288251.0 0
221926.0 292085.0 0
227694.0 288830.0 0
225690.0 291853.0 0
231808.0 289717.0 0
230136.0 292746.0 0
233429.0 292620.0 0
235901.0 289945.0 0
239836.0 288337.0 0
240993.0 291491.0 0
244699.0 290965.0 0
250580.0 289540.0 0
253486.0 292019.0 0
256407.0 289450.0 0
259895.0 291521.0 0
263229.0 288084.0 0
262678.0 291166.0 0
267719.0 288870.0 0
273197.0 290208.0 0
270690.0 291890.0 0
279424.0 287791.0 0
276202.0 288754.0 0
279572.0 291428.0 0
275959.0 292497.0 0
283138.0 290370.0 0
290070.0 289613.0 0
286648.0 291625.0 0
293612.0 290015.0 0
297399.0 289808.0 0
298342.0 292495.0 0
303051.0 293623.0 0
196515.0 294291.0 0
195692.0 299209.0 0
202229.0 293384.0 0
202871.0 296373.0 0
206695.0 295823.0 0
209836.0 293808.0 0
212574.0 296923.0 0
216714.0 294820.0 0
220136.0 295746.0 0
223970.0 296506.0 0
227439.0 295529.0 0
232615.0 295584.0 0
238343.0 293072.0 0
235570.0 294206.0 0
235945.0 297409.0 0
239675.0 296288.0 0
242807.0 294604.0 0
248187.0 293144.0 0
245667.0 295974.0 0
249870.0 297084.0 0
252019.0 294655.0 0
254317.0 296261.0 0
256916.0 293711.0 0
259031.0 296565.0 0
262277.0 294960.0 0
266075.0 292852.0 0
269322.0 295022.0 0
266034.0 296314.0 0
272567.0 294187.0 0
273371.0 297336.0 0
277204.0 296441.0 0
283701.0 293584.0 0
280599.0 294424.0 0
282359.0 296827.0 0
290112.0 293711.0 0
286417.0 296050.0 0
294771.0 293678.0 0
293400.0 297615.0 0
297923.0 295055.0 0
297776.0 297678.0 0
202893.0 300086.0 0
206294.0 299247.0 0
208383.0 302042.0 0
205291.0 303196.0 0
209632.0 298770.0 0
213594.0 301169.0 0
211256.0 302512.0 0
216426.0 298682.0 0
217540.0 302101.0 0
219695.0 299112.0 0
223426.0 301116.0 0
227022.0 299661.0 0
228626.0 302410.0 0
230408.0 298469.0 0
233839.0 300612.0 0
237945.0 299790.0 0
237211.0 302864.0 0
243138.0 299535.0 0
239744.0 299561.0 0
240490.0 302011.0 0
244581.0 303327.0 0
247007.0 299167.0 0
249667.0 299909.0 0
247652.0 302151.0 0
252491.0 298790.0 0
251412.0 301914.0 0
255975.0 299400.0 0
263175.0 298436.0 0
260149.0 300698.0 0
263787.0 302069.0 0
270087.0 298236.0 0
266705.0 299396.0 0
273972.0 300778.0 0
271190.0 301966.0 0
280235.0 298875.0 0
276917.0 300849.0 0
284479.0 299237.0 0
281935.0 301838.0 0
289455.0 299028.0 0
286582.0 301005.0 0
290667.0 302729.0 0
293684.0 302059.0 0
297080.0 300971.0 0
201939.0 303446.0 0
202002.0 305987.0 0
208864.0 305328.0 0
205478.0 306191.0 0
209096.0 308453.0 0
211721.0 305027.0 0
211666.0 307559.0 0
215131.0 304602.0 0
218529.0 306038.0 0
214671.0 307904.0 0
220176.0 303659.0 0
221588.0 307141.0 0
225438.0 305697.0 0
229322.0 306442.0 0
231635.0 303615.0 0
232546.0 307220.0 0
235038.0 305072.0 0
239204.0 306073.0 0
236474.0 308100.0 0
241822.0 304384.0 0
242544.0 307509.0 0
249390.0 305386.0 0
246024.0 306973.0 0
252956.0 307379.0 0
255073.0 303578.0 0
258674.0 305141.0 0
262231.0 304955.0 0
264866.0 306206.0 0
262046.0 308151.0 0
267609.0 303417.0 0
269435.0 306860.0 0
274323.0 304126.0 0
271836.0 304894.0 0
273384.0 307153.0 0
278407.0 304632.0 0
276538.0 308257.0 0
284503.0 304182.0 0
281649.0 306916.0 0
285061.0 306990.0 0
287927.0 304433.0 0
288464.0 306962.0 0
294666.0 305127.0 0
291810.0 305699.0 0
294951.0 307749.0 0
297692.0 304235.0 0
298151.0 306622.0 0
202161.0 308608.0 0
202056.0 311250.0 0
205641.0 309587.0 0
206448.0 313130.0 0
210152.0 311726.0 0
213492.0 310868.0 0
217582.0 308656.0 0
216995.0 312005.0 0
220742.0 310915.0 0
227989.0 310390.0 0
224510.0 310856.0 0
231583.0 311045.0 0
235132.0 311195.0 0
237214.0 313297.0 0
239945.0 310218.0 0
243167.0 310397.0 0
241831.0 313305.0 0
246997.0 311067.0 0
250724.0 310141.0 0
252395.0 312828.0 0
255604.0 309543.0 0
258825.0 308692.0 0
260073.0 311759.0 0
255693.0 312677.0 0
263389.0 310446.0 0
266156.0 309119.0 0
268239.0 311788.0 0
271487.0 310048.0 0
274686.0 311494.0 0
271231.0 313304.0 0
278848.0 310200.0 0
277988.0 312760.0 0
282033.0 310140.0 0
285847.0 309258.0 0
280924.0 313600.0 0
285028.0 312545.0 0
288860.0 310588.0 0
288266.0 313357.0 0
291706.0 308840.0 0
293417.0 312384.0 0
298004.0 308908.0 0
296817.0 311822.0 0
196497.0 319155.0 0
202752.0 314178.0 0
202496.0 317234.0 0
207706.0 316442.0 0
205492.0 318455.0 0
211287.0 315009.0 0
214453.0 314650.0 0
217857.0 315656.0 0
214939.0 318186.0 0
221102.0 315236.0 0
224875.0 314892.0 0
227854.0 314813.0 0
225178.0 318429.0 0
227770.0 318129.0 0
231470.0 315365.0 0
239757.0 315234.0 0
234758.0 316094.0 0
237605.0 317493.0 0
244697.0 314476.0 0
240750.0 318477.0 0
243727.0 317925.0 0
249652.0 314604.0 0
247431.0 316737.0 0
253656.0 315663.0 0
251463.0 317616.0 0
258520.0 315235.0 0
255874.0 317331.0 0
263551.0 313573.0 0
261830.0 315956.0 0
266895.0 315105.0 0
265575.0 318453.0 0
270184.0 316386.0 0
273455.0 314896.0 0
276861.0 315114.0 0
279872.0 316072.0 0
277388.0 319044.0 0
283818.0 315154.0 0
282396.0 317809.0 0
285807.0 318881.0 0
287393.0 316101.0 0
291230.0 314360.0 0
290929.0 317259.0 0
294623.0 316058.0 0
297968.0 314755.0 0
297734.0 317299.0 0
303399.0 319525.0 0
201802.0 319824.0 0
202499.0 322397.0 0
209140.0 321619.0 0
205813.0 321542.0 0
210901.0 318847.0 0
217988.0 319098.0 0
214257.0 321595.0 0
217349.0 322613.0 0
221515.0 319068.0 0
220325.0 322108.0 0
227141.0 320919.0 0
224629.0 321800.0 0
229488.0 321693.0 0
230574.0 318829.0 0
233430.0 320316.0 0
232542.0 323603.0 0
236010.0 320008.0 0
239041.0 322428.0 0
242678.0 322731.0 0
248567.0 319793.0 0
245309.0 321167.0 0
253664.0 320536.0 0
250553.0 323310.0 0
255057.0 323556.0 0
259290.0 318852.0 0
257237.0 320369.0 0
258366.0 323614.0 0
262347.0 319528.0 0
261853.0 323343.0 0
267787.0 321382.0 0
270868.0 319791.0 0
273977.0 318689.0 0
273598.0 322558.0 0
276155.0 322743.0 0
280798.0 320814.0 0
284221.0 322510.0 0
289312.0 320344.0 0
287659.0 323597.0 0
293966.0 318963.0 0
292435.0 321474.0 0
297131.0 320300.0 0
297801.0 323273.0 0
201978.0 325317.0 0
202011.0 327748.0 0
205442.0 325295.0 0
208911.0 325344.0 0
205412.0 328012.0 0
212232.0 323976.0 0
214059.0 326237.0 0
209395.0 328527.0 0
212566.0 328886.0 0
217371.0 326141.0 0
222562.0 324115.0 0
220662.0 326479.0 0
226331.0 324226.0 0
228280.0 324072.0 0
225291.0 327026.0 0
227978.0 328521.0 0
229894.0 326027.0 0
232466.0 327489.0 0
235957.0 324632.0 0
235958.0 328282.0 0
239357.0 328621.0 0
240469.0 326148.0 0
243566.0 326150.0 0
246860.0 324810.0 0
247892.0 328342.0 0
252663.0 327488.0 0
257034.0 326568.0 0
258741.0 328730.0 0
261562.0 327819.0 0
265056.0 328061.0 0
265652.0 324219.0 0
268594.0 325909.0 0
268296.0 327867.0 0
271088.0 324587.0 0
274336.0 326047.0 0
271824.0 328486.0 0
279314.0 324720.0 0
276812.0 326890.0 0
280533.0 328758.0 0
282654.0 325786.0 0
284559.0 327469.0 0
290360.0 325906.0 0
287260.0 326556.0 0
290557.0 327850.0 0
290873.0 324256.0 0
294015.0 324108.0 0
293897.0 327412.0 0
297990.0 325783.0 0
297907.0 328112.0 0
197463.0 332174.0 0
201317.0 329778.0 0
201902.0 331973.0 0
204462.0 330599.0 0
207551.0 331123.0 0
205803.0 334381.0 0
212444.0 332316.0 0
209940.0 332327.0 0
217150.0 329396.0 0
215287.0 331317.0 0
219089.0 333346.0 0
219621.0 330833.0 0
222434.0 329502.0 0
224291.0 331951.0 0
221583.0 334004.0 0
226913.0 331690.0 0
229519.0 333985.0 0
231100.0 330602.0 0
234969.0 332094.0 0
238140.0 332852.0 0
244170.0 329123.0 0
241350.0 331188.0 0
245431.0 332036.0 0
247990.0 331909.0 0
250558.0 331076.0 0
255175.0 331219.0 0
251661.0 333165.0 0
258785.0 332325.0 0
262048.0 331672.0 0
269370.0 330503.0 0
265883.0 331138.0 0
270236.0 333245.0 0
273911.0 330477.0 0
273019.0 333077.0 0
277306.0 330228.0 0
278206.0 333646.0 0
282435.0 330221.0 0
281330.0 332510.0 0
283692.0 333749.0 0
285465.0 330262.0 0
288398.0 329353.0 0
286643.0 333138.0 0
289991.0 332496.0 0
293067.0 331223.0 0
297155.0 330920.0 0
297718.0 333799.0 0
202056.0 334430.0 0
202301.0 337078.0 0
205832.0 337826.0 0
209017.0 339126.0 0
212859.0 335621.0 0
209411.0 335704.0 0
213965.0 338235.0 0
216293.0 334320.0 0
217204.0 337335.0 0
224141.0 335198.0 0
219999.0 336322.0 0
221505.0 337629.0 0
226579.0 335169.0 0
224473.0 338365.0 0
229478.0 337465.0 0
227137.0 338656.0 0
233555.0 335374.0 0
237848.0 335670.0 0
236110.0 336936.0 0
239442.0 338239.0 0
234942.0 339221.0 0
244737.0 334388.0 0
241525.0 335246.0 0
243392.0 338373.0 0
249222.0 335030.0 0
246475.0 335759.0 0
246200.0 339166.0 0
254290.0 334576.0 0
252149.0 336635.0 0
258931.0 335435.0 0
256063.0 336973.0 0
263108.0 334360.0 0
261781.0 337581.0 0
266387.0 334330.0 0
270176.0 335870.0 0
267153.0 337802.0 0
275100.0 335810.0 0
272265.0 337635.0 0
280066.0 336348.0 0
276667.0 338980.0 0
279378.0 339266.0 0
283230.0 336498.0 0
290357.0 335978.0 0
287016.0 336420.0 0
290248.0 339299.0 0
294208.0 334145.0 0
293515.0 336524.0 0
297285.0 336621.0 0
203338.0 340284.0 0
201730.0 343174.0 0
206451.0 342876.0 0
211750.0 340222.0 0
210076.0 343088.0 0
217959.0 340146.0 0
214669.0 341976.0 0
220563.0 340240.0 0
223310.0 341460.0 0
220955.0 344344.0 0
227864.0 341291.0 0
225876.0 343869.0 0
232270.0 339243.0 0
230216.0 341559.0 0
233992.0 342677.0 0
237287.0 339477.0 0
236038.0 341585.0 0
239050.0 341853.0 0
238052.0 343909.0 0
241566.0 341034.0 0
249430.0 339357.0 0
245645.0 342626.0 0
248267.0 344141.0 0
252550.0 339306.0 0
250898.0 342302.0 0
253582.0 343231.0 0
255805.0 340501.0 0
259651.0 340524.0 0
257376.0 344008.0 0
264591.0 340163.0 0
260882.0 343531.0 0
264508.0 343361.0 0
269679.0 340649.0 0
267926.0 343207.0 0
273675.0 339865.0 0
272609.0 342553.0 0
275760.0 341664.0 0
277274.0 343550.0 0
279097.0 341786.0 0
283413.0 340125.0 0
282317.0 343519.0 0
287085.0 340109.0 0
290705.0 342587.0 0
288062.0 343690.0 0
293488.0 339590.0 0
293388.0 342895.0 0
297421.0 339422.0 0
297363.0 342136.0 0
201899.0 345208.0 0
202601.0 347545.0 0
206505.0 346412.0 0
212105.0 344898.0 0
210890.0 347685.0 0
214806.0 346784.0 0
217916.0 344635.0 0
218779.0 348608.0 0
223979.0 347102.0 0
221560.0 349451.0 0
228745.0 345349.0 0
226866.0 349289.0 0
231387.0 344399.0 0
232947.0 348442.0 0
229484.0 348343.0 0
235759.0 345858.0 0
238356.0 348414.0 0
242929.0 343919.0 0
240243.0 345558.0 0
243725.0 347628.0 0
247092.0 347993.0 0
250887.0 346036.0 0
253836.0 346311.0 0
257119.0 346851.0 0
260126.0 346444.0 0
264745.0 346615.0 0
262567.0 348810.0 0
269119.0 345773.0 0
267378.0 347646.0 0
269861.0 349345.0 0
272515.0 345760.0 0
272810.0 349393.0 0
275811.0 345744.0 0
280172.0 345725.0 0
277977.0 347963.0 0
285277.0 345280.0 0
282364.0 348223.0 0
285472.0 348302.0 0
289798.0 346933.0 0
292427.0 346202.0 0
296992.0 345200.0 0
296370.0 348439.0 0
202842.0 350350.0 0
202091.0 353077.0 0
207982.0 349851.0 0
205320.0 354325.0 0
205694.0 351665.0 0
207928.0 354706.0 0
212812.0 350617.0 0
210170.0 352879.0 0
215860.0 349953.0 0
219297.0 351833.0 0
214567.0 353750.0 0
217186.0 353197.0 0
222678.0 352904.0 0
225485.0 352016.0 0
228946.0 351850.0 0
227910.0 354325.0 0
232952.0 354307.0 0
231076.0 351806.0 0
235823.0 351658.0 0
239627.0 353775.0 0
241337.0 350277.0 0
244320.0 352202.0 0
246783.0 351751.0 0
248880.0 353778.0 0
250155.0 349519.0 0
253180.0 350342.0 0
251947.0 353846.0 0
256702.0 350922.0 0
256337.0 354620.0 0
264976.0 351043.0 0
260303.0 351590.0 0
264712.0 353359.0 0
261654.0 354800.0 0
267468.0 350617.0 0
268725.0 352987.0 0
265940.0 354238.0 0
271331.0 352444.0 0
273035.0 354502.0 0
275807.0 350949.0 0
278170.0 353581.0 0
280752.0 350464.0 0
282964.0 352102.0 0
281824.0 354669.0 0
286594.0 351494.0 0
290339.0 350461.0 0
290267.0 353849.0 0
286653.0 354860.0 0
293618.0 351210.0 0
294117.0 354191.0 0
298177.0 353491.0 0
298126.0 351416.0 0
302895.0 352377.0 0
202163.0 355371.0 0
202653.0 357913.0 0
208651.0 356805.0 0
205670.0 357149.0 0
207595.0 359021.0 0
212400.0 355455.0 0
210747.0 357565.0 0
214960.0 357391.0 0
217970.0 357101.0 0
220824.0 355567.0 0
223006.0 357583.0 0
221172.0 360053.0 0
225783.0 355868.0 0
227176.0 358789.0 0
229726.0 358708.0 0
230171.0 355597.0 0
234801.0 357279.0 0
232726.0 359772.0 0
238216.0 357274.0 0
243317.0 354976.0 0
243847.0 357976.0 0
241112.0 359382.0 0
246015.0 355011.0 0
248541.0 357435.0 0
253683.0 356020.0 0
251248.0 358925.0 0
258288.0 356353.0 0
255738.0 358531.0 0
259561.0 358569.0 0
263432.0 357519.0 0
268695.0 355706.0 0
266575.0 357783.0 0
271406.0 356920.0 0
275144.0 355843.0 0
279079.0 357091.0 0
275561.0 358388.0 0
283709.0 356060.0 0
280337.0 359494.0 0
283574.0 358462.0 0
288237.0 357514.0 0
291354.0 356347.0 0
292922.0 358609.0 0
297333.0 355868.0 0
296595.0 358865.0 0
202450.0 363466.0 0
202525.0 360668.0 0
206339.0 364470.0 0
205943.0 361005.0 0
210665.0 360459.0 0
213817.0 359976.0 0
209988.0 363806.0 0
213344.0 363861.0 0
218761.0 360836.0 0
215915.0 361958.0 0
224360.0 360300.0 0
221175.0 363068.0 0
224029.0 363263.0 0
227588.0 362455.0 0
229542.0 363812.0 0
232473.0 363269.0 0
237156.0 361740.0 0
235610.0 365079.0 0
241120.0 362928.0 0
244416.0 362819.0 0
246397.0 360395.0 0
248841.0 362343.0 0
253382.0 361108.0 0
250902.0 362974.0 0
254743.0 364199.0 0
257635.0 360257.0 0
258708.0 363175.0 0
262012.0 360964.0 0
262773.0 364503.0 0
265165.0 362795.0 0
268086.0 361148.0 0
268417.0 364825.0 0
272157.0 360824.0 0
271531.0 365536.0 0
275492.0 362508.0 0
277365.0 360790.0 0
276918.0 365005.0 0
279479.0 362878.0 0
282270.0 361454.0 0
284467.0 363735.0 0
285980.0 360309.0 0
289656.0 361488.0 0
287576.0 365153.0 0
292526.0 362669.0 0
297051.0 361986.0 0
297582.0 364670.0 0
202331.0 366125.0 0
202951.0 368915.0 0
206223.0 367727.0 0
210881.0 367142.0 0
215966.0 365630.0 0
219106.0 365240.0 0
214539.0 368561.0 0
221476.0 365610.0 0
224473.0 366139.0 0
219979.0 368365.0 0
227444.0 366894.0 0
229933.0 368121.0 0
232540.0 368052.0 0
238950.0 366126.0 0
235871.0 369244.0 0
239144.0 369784.0 0
241875.0 366303.0 0
244482.0 366572.0 0
242126.0 369751.0 0
245940.0 365045.0 0
248712.0 365888.0 0
245139.0 368803.0 0
247869.0 369252.0 0
252000.0 366230.0 0
252080.0 369630.0 0
255977.0 367470.0 0
259774.0 366805.0 0
263619.0 366801.0 0
260722.0 370347.0 0
263459.0 369287.0 0
266194.0 366325.0 0
268478.0 367372.0 0
265948.0 369888.0 0
268476.0 370149.0 0
270587.0 369026.0 0
274330.0 367060.0 0
272425.0 370663.0 0
275862.0 369537.0 0
279332.0 367225.0 0
281868.0 365404.0 0
284393.0 367266.0 0
282462.0 368507.0 0
286181.0 368419.0 0
290188.0 366558.0 0
288746.0 369979.0 0
293764.0 365451.0 0
294310.0 368286.0 0
298230.0 366924.0 0
302910.0 368901.0 0
297267.0 369638.0 0
197444.0 379816.0 0
202162.0 374851.0 0
200462.0 378677.0 0
203045.0 371871.0 0
204719.0 374822.0 0
204043.0 377275.0 0
206949.0 372452.0 0
208948.0 375304.0 0
208813.0 369849.0 0
212707.0 371519.0 0
215992.0 373748.0 0
217625.0 369745.0 0
218410.0 372192.0 0
221111.0 372542.0 0
223458.0 369815.0 0
224068.0 374795.0 0
229362.0 371617.0 0
226145.0 371595.0 0
232059.0 371729.0 0
232121.0 375726.0 0
234953.0 372831.0 0
238479.0 373072.0 0
243456.0 372933.0 0
240561.0 374900.0 0
246431.0 371934.0 0
249989.0 372378.0 0
252614.0 373411.0 0
254709.0 373743.0 0
257755.0 370836.0 0
259261.0 373852.0 0
255017.0 370339.0 0
256239.0 375721.0 0
257760.0 373350.0 0
261946.0 373040.0 0
265034.0 372561.0 0
269153.0 372561.0 0
264880.0 374915.0 0
267485.0 373641.0 0
271568.0 373629.0 0
274729.0 373981.0 0
275018.0 371571.0 0
277361.0 373027.0 0
278623.0 369914.0 0
280697.0 371527.0 0
283468.0 370831.0 0
282336.0 375104.0 0
285538.0 372133.0 0
284755.0 375495.0 0
287402.0 375313.0 0
292156.0 370002.0 0
289248.0 372995.0 0
291933.0 374110.0 0
297308.0 373004.0 0
294552.0 373028.0 0
295715.0 377005.0 0
298783.0 376787.0 0
300366.0 378889.0 0
303614.0 379313.0 0
192903.0 382216.0 0
190657.0 383251.0 0
188957.0 385042.0 0
195136.0 380958.0 0
197320.0 383672.0 0
201120.0 382242.0 0
206958.0 377784.0 0
204480.0 380516.0 0
206292.0 382619.0 0
208536.0 381045.0 0
212164.0 375285.0 0
211205.0 379872.0 0
214057.0 381032.0 0
214760.0 377784.0 0
217749.0 376620.0 0
221002.0 375373.0 0
218742.0 379095.0 0
222487.0 378168.0 0
225583.0 378163.0 0
226416.0 375851.0 0
229333.0 375645.0 0
229458.0 379789.0 0
235349.0 376517.0 0
232011.0 379330.0 0
234840.0 379707.0 0
238044.0 376702.0 0
240508.0 379013.0 0
237888.0 379842.0 0
243262.0 377921.0 0
241178.0 382067.0 0
243974.0 381346.0 0
245765.0 376002.0 0
245733.0 379949.0 0
249179.0 375916.0 0
248587.0 380541.0 0
252583.0 376979.0 0
258622.0 376989.0 0
254885.0 379081.0 0
257502.0 379531.0 0
261166.0 376459.0 0
262340.0 380645.0 0
267718.0 375965.0 0
264714.0 377783.0 0
267141.0 379709.0 0
270159.0 376516.0 0
272828.0 377609.0 0
269855.0 380176.0 0
275138.0 376869.0 0
277836.0 377957.0 0
274687.0 380833.0 0
279604.0 374773.0 0
280551.0 379052.0 0
282589.0 378982.0 0
284834.0 378610.0 0
286781.0 379898.0 0
284585.0 381717.0 0
288906.0 377594.0 0
291248.0 379096.0 0
292430.0 381979.0 0
293186.0 376663.0 0
295898.0 380639.0 0
300551.0 381785.0 0
305624.0 381731.0 0
303178.0 383117.0 0
308117.0 383220.0 0
310347.0 384450.0 0
180722.0 389678.0 0
186120.0 385592.0 0
184666.0 386816.0 0
182979.0 388803.0 0
187494.0 389378.0 0
189163.0 387515.0 0
193285.0 387842.0 0
191674.0 390567.0 0
194201.0 385080.0 0
198081.0 385799.0 0
196294.0 389324.0 0
201215.0 385001.0 0
199295.0 388183.0 0
204497.0 384175.0 0
204283.0 386729.0 0
207460.0 387425.0 0
209107.0 385102.0 0
211870.0 386464.0 0
211294.0 383356.0 0
213466.0 384167.0 0
216651.0 381731.0 0
216752.0 384636.0 0
215427.0 386120.0 0
218918.0 384840.0 0
219667.0 382014.0 0
223145.0 382096.0 0
226286.0 385277.0 0
222243.0 385581.0 0
226876.0 381267.0 0
229274.0 384988.0 0
231444.0 383163.0 0
234582.0 383061.0 0
238380.0 382782.0 0
235946.0 386706.0 0
239242.0 386633.0 0
242358.0 384866.0 0
245083.0 383776.0 0
248083.0 383900.0 0
245400.0 386246.0 0
251497.0 380566.0 0
253713.0 382521.0 0
251502.0 384507.0 0
256499.0 384374.0 0
259502.0 382234.0 0
261237.0 385796.0 0
263285.0 384307.0 0
265581.0 382541.0 0
268343.0 383434.0 0
265407.0 385705.0 0
272229.0 381429.0 0
272844.0 384721.0 0
277289.0 382056.0 0
276069.0 386019.0 0
280172.0 382643.0 0
279376.0 385845.0 0
282554.0 382569.0 0
283828.0 385783.0 0
285967.0 384322.0 0
287820.0 382284.0 0
289940.0 384354.0 0
290975.0 387593.0 0
294318.0 384745.0 0
293586.0 387582.0 0
297722.0 384120.0 0
296295.0 388276.0 0
299664.0 387296.0 0
302837.0 386876.0 0
305842.0 386043.0 0
310150.0 387545.0 0
307723.0 387634.0 0
312614.0 385521.0 0
314705.0 386964.0 0
313041.0 388773.0 0
316743.0 388947.0 0
319637.0 388971.0 0
321006.0 390150.0 0
176830.0 391645.0 0
173233.0 395380.0 0
175284.0 393361.0 0
178576.0 390453.0 0
180079.0 392605.0 0
178666.0 394949.0 0
184955.0 390647.0 0
182472.0 392806.0 0
185741.0 392685.0 0
189222.0 391660.0 0
188487.0 394653.0 0
191495.0 394638.0 0
195467.0 392508.0 0
198079.0 391833.0 0
193260.0 392911.0 0
196966.0 394345.0 0
201874.0 388627.0 0
200360.0 392699.0 0
204069.0 390351.0 0
203033.0 392657.0 0
207151.0 391088.0 0
210579.0 391856.0 0
212879.0 389551.0 0
214951.0 392597.0 0
216303.0 388936.0 0
219659.0 386722.0 0
219234.0 390379.0 0
220807.0 393433.0 0
222426.0 389304.0 0
224343.0 391396.0 0
224835.0 387698.0 0
227385.0 389713.0 0
230298.0 388510.0 0
232774.0 386896.0 0
232660.0 391841.0 0
235516.0 390313.0 0
238256.0 392052.0 0
241000.0 390113.0 0
243568.0 387713.0 0
245583.0 388947.0 0
248270.0 387315.0 0
251785.0 388160.0 0
250205.0 391494.0 0
255467.0 388467.0 0
258300.0 390678.0 0
259351.0 387493.0 0
260965.0 390253.0 0
263550.0 388585.0 0
266791.0 388528.0 0
264937.0 391779.0 0
271036.0 389894.0 0
269627.0 386498.0 0
274241.0 388962.0 0
274402.0 391818.0 0
277688.0 389669.0 0
276430.0 392074.0 0
281614.0 387379.0 0
281015.0 390755.0 0
287757.0 386805.0 0
284761.0 391970.0 0
286246.0 389057.0 0
289711.0 390363.0 0
292497.0 390228.0 0
290542.0 393289.0 0
294898.0 390443.0 0
293125.0 391533.0 0
293824.0 393401.0 0
296320.0 392025.0 0
301883.0 391859.0 0
298911.0 390411.0 0
299353.0 392667.0 0
301992.0 394623.0 0
304061.0 390280.0 0
306569.0 390312.0 0
304610.0 393206.0 0
305916.0 393779.0 0
311229.0 390343.0 0
308889.0 392224.0 0
316900.0 391910.0 0
313571.0 392491.0 0
322650.0 391467.0 0
320271.0 391958.0 0
318672.0 394793.0 0
321921.0 394930.0 0
324021.0 393250.0 0
326262.0 394106.0 0
163121.0 400428.0 0
165942.0 399573.0 0
169954.0 395962.0 0
168064.0 398289.0 0
170735.0 399637.0 0
173390.0 398205.0 0
176351.0 397217.0 0
175211.0 400538.0 0
180143.0 397838.0 0
178325.0 400292.0 0
183137.0 395218.0 0
185923.0 396379.0 0
183058.0 399114.0 0
190054.0 397549.0 0
186914.0 398966.0 0
190582.0 399403.0 0
194514.0 395087.0 0
192719.0 396628.0 0
196130.0 396168.0 0
194432.0 398022.0 0
200300.0 395649.0 0
203244.0 396354.0 0
198955.0 397860.0 0
203676.0 398289.0 0
205500.0 394297.0 0
207210.0 396485.0 0
209941.0 395157.0 0
213492.0 394298.0 0
210899.0 397678.0 0
216803.0 393347.0 0
213630.0 396233.0 0
215506.0 398346.0 0
217185.0 395736.0 0
219829.0 396330.0 0
223255.0 397215.0 0
224454.0 394362.0 0
226190.0 398609.0 0
227060.0 396414.0 0
229749.0 396820.0 0
227597.0 392756.0 0
230069.0 393736.0 0
234641.0 395246.0 0
238200.0 395358.0 0
241678.0 395276.0 0
243351.0 392674.0 0
246784.0 392268.0 0
248820.0 396186.0 0
252260.0 394166.0 0
255074.0 392426.0 0
256275.0 396019.0 0
257679.0 393673.0 0
258048.0 397759.0 0
260216.0 393263.0 0
263676.0 394538.0 0
260854.0 396927.0 0
264830.0 398281.0 0
267767.0 391618.0 0
268602.0 394432.0 0
266726.0 396320.0 0
270792.0 396644.0 0
271888.0 393706.0 0
274232.0 395893.0 0
277152.0 394985.0 0
280164.0 393940.0 0
281246.0 397456.0 0
287471.0 394259.0 0
283450.0 395462.0 0
285146.0 397682.0 0
287809.0 397510.0 0
292115.0 396248.0 0
290188.0 398354.0 0
296897.0 394680.0 0
295169.0 397233.0 0
299639.0 395884.0 0
302704.0 399753.0 0
299912.0 398969.0 0
304012.0 396742.0 0
306458.0 396849.0 0
309013.0 394814.0 0
309358.0 398179.0 0
312017.0 397123.0 0
313119.0 394949.0 0
315979.0 396526.0 0
314970.0 398934.0 0
317984.0 399467.0 0
319776.0 397764.0 0
321811.0 399273.0 0
325632.0 398075.0 0
328232.0 396288.0 0
327958.0 399969.0 0
323405.0 396959.0 0
330813.0 397208.0 0
332899.0 399551.0 0
335554.0 400136.0 0
158972.0 403308.0 0
161280.0 402439.0 0
156812.0 404541.0 0
165271.0 402659.0 0
162618.0 404857.0 0
170637.0 402648.0 0
167954.0 403647.0 0
171220.0 405606.0 0
173692.0 402772.0 0
175008.0 405205.0 0
177935.0 402887.0 0
180630.0 402385.0 0
177945.0 404959.0 0
184116.0 401272.0 0
186192.0 401210.0 0
182767.0 403947.0 0
186127.0 405037.0 0
188510.0 400807.0 0
188575.0 403783.0 0
191458.0 403997.0 0
193169.0 400583.0 0
197086.0 399334.0 0
194484.0 404341.0 0
196500.0 401884.0 0
200489.0 399871.0 0
198835.0 402747.0 0
201290.0 403020.0 0
202571.0 400721.0 0
205211.0 401195.0 0
202678.0 404473.0 0
205341.0 404241.0 0
207148.0 399094.0 0
208956.0 401954.0 0
211350.0 400357.0 0
214295.0 402450.0 0
217887.0 400519.0 0
219902.0 399147.0 0
219005.0 402878.0 0
222368.0 400495.0 0
224942.0 400660.0 0
227482.0 403341.0 0
229027.0 400314.0 0
232508.0 402074.0 0
232928.0 398398.0 0
235641.0 399573.0 0
238519.0 398377.0 0
240947.0 400326.0 0
243611.0 398247.0 0
244133.0 401783.0 0
245722.0 396257.0 0
246591.0 399995.0 0
249569.0 399337.0 0
253299.0 397164.0 0
253805.0 399948.0 0
256927.0 401071.0 0
262633.0 400136.0 0
260017.0 401718.0 0
264865.0 403100.0 0
266688.0 400303.0 0
268760.0 398672.0 0
268249.0 402483.0 0
271220.0 400531.0 0
273786.0 398909.0 0
276716.0 400447.0 0
278272.0 397918.0 0
279771.0 403040.0 0
281673.0 400249.0 0
284807.0 400575.0 0
287364.0 403909.0 0
287820.0 401461.0 0
290955.0 401526.0 0
292936.0 399419.0 0
296880.0 400409.0 0
294321.0 402268.0 0
298936.0 403600.0 0
301301.0 403551.0 0
304741.0 402189.0 0
306950.0 400030.0 0
307451.0 404709.0 0
310812.0 401061.0 0
308825.0 402309.0 0
311458.0 404083.0 0
314002.0 401615.0 0
318182.0 401522.0 0
315615.0 404414.0 0
319959.0 401150.0 0
321668.0 404233.0 0
325915.0 401569.0 0
323387.0 401655.0 0
324969.0 404711.0 0
326468.0 404701.0 0
330440.0 401544.0 0
328300.0 403208.0 0
331617.0 405001.0 0
334257.0 403488.0 0
337961.0 401406.0 0
336472.0 404618.0 0
339871.0 403702.0 0
342077.0 405267.0 0
345210.0 405903.0 0
147454.0 410327.0 0
150062.0 409244.0 0
151943.0 407026.0 0
154993.0 406516.0 0
155379.0 409181.0 0
158971.0 406230.0 0
160800.0 408246.0 0
158418.0 410656.0 0
164366.0 406238.0 0
163574.0 409823.0 0
167238.0 406380.0 0
169708.0 407502.0 0
166744.0 409000.0 0
168076.0 410622.0 0
174032.0 407504.0 0
171427.0 408858.0 0
175701.0 410095.0 0
178891.0 406948.0 0
181713.0 406535.0 0
178294.0 409491.0 0
185726.0 407885.0 0
183335.0 409536.0 0
188649.0 407834.0 0
191059.0 407580.0 0
187460.0 410392.0 0
190287.0 410328.0 0
193173.0 408681.0 0
195845.0 406763.0 0
196454.0 409786.0 0
198861.0 405899.0 0
201042.0 407736.0 0
204092.0 407523.0 0
208657.0 405714.0 0
207388.0 409703.0 0
212276.0 405684.0 0
213979.0 408979.0 0
216979.0 404738.0 0
217521.0 408235.0 0
221522.0 403751.0 0
220425.0 406725.0 0
222420.0 408303.0 0
224372.0 404713.0 0
224667.0 407554.0 0
227053.0 407506.0 0
229374.0 407578.0 0
230630.0 404895.0 0
234984.0 403909.0 0
233369.0 406858.0 0
237279.0 402208.0 0
239388.0 404502.0 0
241850.0 403544.0 0
243980.0 406521.0 0
246511.0 403505.0 0
249323.0 404212.0 0
252028.0 402808.0 0
250028.0 407552.0 0
252834.0 407265.0 0
254704.0 404817.0 0
257834.0 405212.0 0
259839.0 407194.0 0
260413.0 404291.0 0
263057.0 406007.0 0
266064.0 408251.0 0
268875.0 406007.0 0
272199.0 403845.0 0
273583.0 406444.0 0
274955.0 402998.0 0
275408.0 408664.0 0
277150.0 405696.0 0
279676.0 407865.0 0
283044.0 406140.0 0
284365.0 403186.0 0
286876.0 406469.0 0
286811.0 409550.0 0
289916.0 407151.0 0
291121.0 404798.0 0
294453.0 405509.0 0
293850.0 408030.0 0
297390.0 406140.0 0
298536.0 409461.0 0
301898.0 408313.0 0
303924.0 406047.0 0
306399.0 407986.0 0
310038.0 407080.0 0
313727.0 407494.0 0
318835.0 405279.0 0
319099.0 408606.0 0
321862.0 409712.0 0
323414.0 406776.0 0
325259.0 408502.0 0
327141.0 406647.0 0
329428.0 406568.0 0
329730.0 409216.0 0
332067.0 409447.0 0
333433.0 407410.0 0
336283.0 407892.0 0
335605.0 410989.0 0
338854.0 408236.0 0
342350.0 408753.0 0
340483.0 410855.0 0
347463.0 408182.0 0
344899.0 410016.0 0
349944.0 410025.0 0
142962.0 413709.0 0
145501.0 412104.0 0
140888.0 415507.0 0
149577.0 413594.0 0
146994.0 415202.0 0
152224.0 411176.0 0
154006.0 413803.0 0
156999.0 413599.0 0
160517.0 412982.0 0
157808.0 416113.0 0
164371.0 412542.0 0
162033.0 414761.0 0
166931.0 413654.0 0
170925.0 411310.0 0
170129.0 414146.0 0
174273.0 412170.0 0
173941.0 414437.0 0
180627.0 411317.0 0
177318.0 413166.0 0
176426.0 415771.0 0
180509.0 414901.0 0
184158.0 413538.0 0
187295.0 412896.0 0
191196.0 412388.0 0
193883.0 411668.0 0
191242.0 415060.0 0
195541.0 413969.0 0
198716.0 411047.0 0
200305.0 413518.0 0
202334.0 410581.0 0
204055.0 411202.0 0
203232.0 414024.0 0
210857.0 410359.0 0
207138.0 413992.0 0
211025.0 414063.0 0
214013.0 412806.0 0
216932.0 412694.0 0
219442.0 411392.0 0
222328.0 411066.0 0
224982.0 410329.0 0
227209.0 410995.0 0
230950.0 410327.0 0
230400.0 413967.0 0
234283.0 411921.0 0
236052.0 408899.0 0
236770.0 413787.0 0
238317.0 406819.0 0
238516.0 411163.0 0
241228.0 408610.0 0
242172.0 411641.0 0
244933.0 412561.0 0
246443.0 409101.0 0
249956.0 411430.0 0
252943.0 411933.0 0
254176.0 409335.0 0
257079.0 408747.0 0
255630.0 412455.0 0
259167.0 411789.0 0
261833.0 409111.0 0
262454.0 413503.0 0
264107.0 410748.0 0
267870.0 411706.0 0
271241.0 409380.0 0
273261.0 412229.0 0
277692.0 409538.0 0
276182.0 412239.0 0
280206.0 410031.0 0
279149.0 412507.0 0
282098.0 412507.0 0
283935.0 410073.0 0
285620.0 413348.0 0
287725.0 412335.0 0
288776.0 410801.0 0
291521.0 410183.0 0
289602.0 413982.0 0
292180.0 413475.0 0
295296.0 410480.0 0
295459.0 413776.0 0
299217.0 413583.0 0
302816.0 414543.0 0
306579.0 410545.0 0
304096.0 411350.0 0
306874.0 413947.0 0
309656.0 410517.0 0
309125.0 413174.0 0
315370.0 410446.0 0
318005.0 412285.0 0
312712.0 412341.0 0
315422.0 414177.0 0
322283.0 412483.0 0
319834.0 415105.0 0
325252.0 413182.0 0
327523.0 411132.0 0
328119.0 414996.0 0
325711.0 416115.0 0
330550.0 413643.0 0
333280.0 412664.0 0
338417.0 412403.0 0
335115.0 415770.0 0
338023.0 414867.0 0
342163.0 413000.0 0
342078.0 415580.0 0
344930.0 412402.0 0
348195.0 412532.0 0
344768.0 416255.0 0
346602.0 414452.0 0
352541.0 411497.0 0
349110.0 415779.0 0
351284.0 414879.0 0
353152.0 416316.0 0
355241.0 412375.0 0
355004.0 415693.0 0
357432.0 414221.0 0
360029.0 415095.0 0
132244.0 419747.0 0
135156.0 418850.0 0
138217.0 417327.0 0
140084.0 420347.0 0
142781.0 419226.0 0
144976.0 417585.0 0
142514.0 421679.0 0
145651.0 421053.0 0
149731.0 417404.0 0
148163.0 419648.0 0
150065.0 421075.0 0
152487.0 416563.0 0
155252.0 417534.0 0
152349.0 419621.0 0
155778.0 419415.0 0
153766.0 421292.0 0
160001.0 418030.0 0
158068.0 420834.0 0
164168.0 416403.0 0
163242.0 418526.0 0
164569.0 421039.0 0
166426.0 416618.0 0
170449.0 416829.0 0
167613.0 419369.0 0
173382.0 416314.0 0
172819.0 419203.0 0
176205.0 419147.0 0
179871.0 418482.0 0
183176.0 417128.0 0
184891.0 416118.0 0
184245.0 418914.0 0
181750.0 420663.0 0
188235.0 415823.0 0
187504.0 418797.0 0
191524.0 419920.0 0
193334.0 416947.0 0
196131.0 418091.0 0
198472.0 415945.0 0
200488.0 418621.0 0
202814.0 416861.0 0
205779.0 418082.0 0
208884.0 417176.0 0
211188.0 417476.0 0
214867.0 415811.0 0
213958.0 419586.0 0
217719.0 415456.0 0
220278.0 414817.0 0
217480.0 418176.0 0
219741.0 419176.0 0
223404.0 413884.0 0
221732.0 417490.0 0
224563.0 418809.0 0
226680.0 415179.0 0
229360.0 417958.0 0
231980.0 417449.0 0
233095.0 415057.0 0
235917.0 416692.0 0
239695.0 417681.0 0
240223.0 414476.0 0
243092.0 415296.0 0
244700.0 417277.0 0
247942.0 415385.0 0
251874.0 416096.0 0
254853.0 415456.0 0
257973.0 415079.0 0
255578.0 418929.0 0
258617.0 418095.0 0
261619.0 416794.0 0
265714.0 414361.0 0
264672.0 416762.0 0
265172.0 418757.0 0
268206.0 417439.0 0
269877.0 414404.0 0
271221.0 418592.0 0
272583.0 415557.0 0
274784.0 417027.0 0
276586.0 415345.0 0
277857.0 418090.0 0
279744.0 416169.0 0
282935.0 415176.0 0
284571.0 418245.0 0
287713.0 416276.0 0
290217.0 419234.0 0
292390.0 416294.0 0
295414.0 417294.0 0
298602.0 416994.0 0
297401.0 419997.0 0
300975.0 418260.0 0
304968.0 417309.0 0
308257.0 417768.0 0
310486.0 415855.0 0
313135.0 420054.0 0
313173.0 415944.0 0
316340.0 416295.0 0
316408.0 419656.0 0
319956.0 419081.0 0
322991.0 416414.0 0
323171.0 418890.0 0
327602.0 418522.0 0
326084.0 420886.0 0
330561.0 417373.0 0
330003.0 420824.0 0
334016.0 418910.0 0
338190.0 420261.0 0
340034.0 417596.0 0
343325.0 419613.0 0
345578.0 418722.0 0
348257.0 418470.0 0
353028.0 419436.0 0
350529.0 420731.0 0
355680.0 418862.0 0
357795.0 417715.0 0
359509.0 420891.0 0
361717.0 419434.0 0
361983.0 416745.0 0
364740.0 417724.0 0
368706.0 419924.0 0
366179.0 419857.0 0
370414.0 421540.0 0
124460.0 423829.0 0
122807.0 426162.0 0
127738.0 423670.0 0
130256.0 422117.0 0
126099.0 426479.0 0
133003.0 423740.0 0
130385.0 426019.0 0
133861.0 425970.0 0
135468.0 422055.0 0
138520.0 423431.0 0
136686.0 426097.0 0
144779.0 423965.0 0
141285.0 425301.0 0
148175.0 423588.0 0
150535.0 423478.0 0
155342.0 423484.0 0
152142.0 425930.0 0
157665.0 425387.0 0
160690.0 424580.0 0
161480.0 421870.0 0
163652.0 425437.0 0
165708.0 424063.0 0
170086.0 422531.0 0
167583.0 426202.0 0
173852.0 423381.0 0
176814.0 422845.0 0
179700.0 423251.0 0
183669.0 422712.0 0
186719.0 422485.0 0
182771.0 425500.0 0
186007.0 425833.0 0
190150.0 423653.0 0
194354.0 421885.0 0
193477.0 425053.0 0
195877.0 423896.0 0
197395.0 421083.0 0
199316.0 423879.0 0
203024.0 421424.0 0
203313.0 424795.0 0
206180.0 422899.0 0
208147.0 420271.0 0
210317.0 421498.0 0
208298.0 423630.0 0
210526.0 424675.0 0
213414.0 424153.0 0
216680.0 422572.0 0
219889.0 422337.0 0
223336.0 422203.0 0
226285.0 422928.0 0
227333.0 420517.0 0
230511.0 421507.0 0
234317.0 420239.0 0
234942.0 424103.0 0
238074.0 420607.0 0
238048.0 424312.0 0
240828.0 422873.0 0
242813.0 419471.0 0
243964.0 423495.0 0
246304.0 421408.0 0
248510.0 419507.0 0
252263.0 419969.0 0
251016.0 423357.0 0
254553.0 422913.0 0
256695.0 422104.0 0
262870.0 420136.0 0
259863.0 421631.0 0
261869.0 424258.0 0
267683.0 420727.0 0
265189.0 422781.0 0
269857.0 422360.0 0
272629.0 421219.0 0
273484.0 424726.0 0
275671.0 420081.0 0
275805.0 423890.0 0
281435.0 419931.0 0
278790.0 421702.0 0
283902.0 423036.0 0
286961.0 421892.0 0
291261.0 422707.0 0
293205.0 423695.0 0
293675.0 420014.0 0
295087.0 422114.0 0
297414.0 424673.0 0
300611.0 422338.0 0
304470.0 421067.0 0
307350.0 420786.0 0
306571.0 424371.0 0
310117.0 420499.0 0
309052.0 423023.0 0
311157.0 424475.0 0
313629.0 423629.0 0
317268.0 423367.0 0
320795.0 422886.0 0
323683.0 421973.0 0
327058.0 423934.0 0
325096.0 425342.0 0
328613.0 426337.0 0
329164.0 422820.0 0
333043.0 421824.0 0
331268.0 423644.0 0
331027.0 426120.0 0
337545.0 423259.0 0
335073.0 424326.0 0
342174.0 422258.0 0
338417.0 426224.0 0
340952.0 424871.0 0
345339.0 423307.0 0
346666.0 421410.0 0
345335.0 426009.0 0
348469.0 423648.0 0
351572.0 423779.0 0
354841.0 422696.0 0
353943.0 425220.0 0
357338.0 422221.0 0
358070.0 424965.0 0
362061.0 423097.0 0
365021.0 422702.0 0
360597.0 425250.0 0
364658.0 426250.0 0
369395.0 423244.0 0
367566.0 424321.0 0
369645.0 427229.0 0
371511.0 425084.0 0
372648.0 422225.0 0
374106.0 424447.0 0
376556.0 425186.0 0
378546.0 426875.0 0
114518.0 431487.0 0
117540.0 429695.0 0
120544.0 428270.0 0
123387.0 430129.0 0
126964.0 429800.0 0
130331.0 428307.0 0
133784.0 428768.0 0
131385.0 430804.0 0
138136.0 428090.0 0
136225.0 431305.0 0
139981.0 430917.0 0
141231.0 428361.0 0
144011.0 429836.0 0
146332.0 426937.0 0
149233.0 427877.0 0
146525.0 431555.0 0
149793.0 431169.0 0
153941.0 428344.0 0
152721.0 430843.0 0
157084.0 428605.0 0
160714.0 427949.0 0
163565.0 428324.0 0
161387.0 431320.0 0
169829.0 427452.0 0
166277.0 429354.0 0
172345.0 426263.0 0
176202.0 426346.0 0
172706.0 429492.0 0
175904.0 429967.0 0
179950.0 426440.0 0
179884.0 430029.0 0
184856.0 427955.0 0
183209.0 428923.0 0
189215.0 426660.0 0
187553.0 429222.0 0
192076.0 428029.0 0
190042.0 430150.0 0
196221.0 426240.0 0
194606.0 430211.0 0
198232.0 429360.0 0
200924.0 426722.0 0
205751.0 426117.0 0
203664.0 428782.0 0
208347.0 426783.0 0
209362.0 429607.0 0
211575.0 427315.0 0
214682.0 426985.0 0
212932.0 429976.0 0
217100.0 425865.0 0
216776.0 430005.0 0
219913.0 426483.0 0
223311.0 425978.0 0
225891.0 426070.0 0
223680.0 429502.0 0
226137.0 428915.0 0
228826.0 424885.0 0
228968.0 428827.0 0
232231.0 425459.0 0
232553.0 429071.0 0
235616.0 427127.0 0
238750.0 427561.0 0
242034.0 426919.0 0
245714.0 426581.0 0
248318.0 424675.0 0
247322.0 429726.0 0
250128.0 427915.0 0
253813.0 426527.0 0
258073.0 425713.0 0
257773.0 428960.0 0
262383.0 427884.0 0
269600.0 425811.0 0
265698.0 426152.0 0
267500.0 429029.0 0
272620.0 429262.0 0
276193.0 427710.0 0
278655.0 425649.0 0
281835.0 424881.0 0
280397.0 428690.0 0
285335.0 425704.0 0
283079.0 427418.0 0
286852.0 429417.0 0
288824.0 425203.0 0
292027.0 426643.0 0
290924.0 429945.0 0
295351.0 427124.0 0
303347.0 425859.0 0
300372.0 427673.0 0
304390.0 429331.0 0
307864.0 427680.0 0
310512.0 426711.0 0
312822.0 428821.0 0
315006.0 426652.0 0
318298.0 427657.0 0
317524.0 430931.0 0
322095.0 427148.0 0
321864.0 430898.0 0
327171.0 427556.0 0
325561.0 429447.0 0
330816.0 428806.0 0
329042.0 431087.0 0
334148.0 426708.0 0
338333.0 429074.0 0
334745.0 429323.0 0
342700.0 427017.0 0
341733.0 429767.0 0
349138.0 426451.0 0
346764.0 428821.0 0
351651.0 427886.0 0
349601.0 430345.0 0
353312.0 430307.0 0
356312.0 427161.0 0
358306.0 429382.0 0
361725.0 427871.0 0
363002.0 430557.0 0
366818.0 428092.0 0
371773.0 429226.0 0
374182.0 427485.0 0
369873.0 432098.0 0
373792.0 430855.0 0
376306.0 428438.0 0
376575.0 430793.0 0
379328.0 431115.0 0
380776.0 428341.0 0
383531.0 429695.0 0
381997.0 431849.0 0
385932.0 431608.0 0
105659.0 437037.0 0
108686.0 435494.0 0
111313.0 432764.0 0
111714.0 435599.0 0
115031.0 434571.0 0
118453.0 432930.0 0
119451.0 435625.0 0
121288.0 432151.0 0
123078.0 435684.0 0
126995.0 434105.0 0
131008.0 432723.0 0
133449.0 433524.0 0
133063.0 436275.0 0
138143.0 434871.0 0
142079.0 433508.0 0
145872.0 433961.0 0
142974.0 436978.0 0
149751.0 434364.0 0
146399.0 436203.0 0
152416.0 434546.0 0
154478.0 432805.0 0
154676.0 436318.0 0
157943.0 431845.0 0
160335.0 434281.0 0
157548.0 435443.0 0
163739.0 433076.0 0
161830.0 435527.0 0
169322.0 431434.0 0
166638.0 435016.0 0
171346.0 435907.0 0
171911.0 433524.0 0
175161.0 433902.0 0
178466.0 434262.0 0
182195.0 433044.0 0
185559.0 432003.0 0
185444.0 435544.0 0
191488.0 432239.0 0
188588.0 433348.0 0
192718.0 435371.0 0
195531.0 433501.0 0
200901.0 431861.0 0
198379.0 435282.0 0
204252.0 433548.0 0
206313.0 430639.0 0
207696.0 433946.0 0
209809.0 432732.0 0
212802.0 433604.0 0
220492.0 430389.0 0
216290.0 433504.0 0
219549.0 433487.0 0
222515.0 433188.0 0
225307.0 432476.0 0
228435.0 432043.0 0
232033.0 432804.0 0
235841.0 430108.0 0
239364.0 431334.0 0
235522.0 433706.0 0
243308.0 431215.0 0
247225.0 434422.0 0
249753.0 431407.0 0
252392.0 430745.0 0
251212.0 434253.0 0
254387.0 434273.0 0
255406.0 430426.0 0
257328.0 432864.0 0
259956.0 431232.0 0
264974.0 432194.0 0
269914.0 432231.0 0
272786.0 435498.0 0
278136.0 430613.0 0
275378.0 432731.0 0
280616.0 433199.0 0
282843.0 431060.0 0
282833.0 435158.0 0
285536.0 433853.0 0
289233.0 433098.0 0
291642.0 434241.0 0
293830.0 431785.0 0
295187.0 435281.0 0
298161.0 430878.0 0
302177.0 432047.0 0
298619.0 435434.0 0
302517.0 435534.0 0
306327.0 431997.0 0
309767.0 431506.0 0
314462.0 432878.0 0
317449.0 435222.0 0
319896.0 432262.0 0
322928.0 433564.0 0
320211.0 434868.0 0
324437.0 431884.0 0
326911.0 433833.0 0
324653.0 435512.0 0
333524.0 431900.0 0
331192.0 434221.0 0
337817.0 431998.0 0
336047.0 434569.0 0
340879.0 433154.0 0
340175.0 436713.0 0
344840.0 435711.0 0
345328.0 431934.0 0
349240.0 435302.0 0
348863.0 432776.0 0
351660.0 432712.0 0
352452.0 435740.0 0
356024.0 432168.0 0
356372.0 435768.0 0
359840.0 431693.0 0
362806.0 433880.0 0
360155.0 433840.0 0
362743.0 436247.0 0
366490.0 431884.0 0
366515.0 435395.0 0
369243.0 436260.0 0
373482.0 433113.0 0
371268.0 434830.0 0
376024.0 434460.0 0
378780.0 434499.0 0
384471.0 433836.0 0
381973.0 435521.0 0
386681.0 435358.0 0
388792.0 433383.0 0
385888.0 437166.0 0
391233.0 435639.0 0
394227.0 436317.0 0
98362.5 441979.0 0
100401.0 439630.0 0
102976.0 438570.0 0
103580.0 441976.0 0
107026.0 440336.0 0
109478.0 438741.0 0
112200.0 437569.0 0
111346.0 439719.0 0
113730.0 439420.0 0
110905.0 441894.0 0
114393.0 441634.0 0
116076.0 437320.0 0
118158.0 439532.0 0
120895.0 439257.0 0
124850.0 439222.0 0
122985.0 440782.0 0
129586.0 437279.0 0
126746.0 440463.0 0
130583.0 440587.0 0
135870.0 437871.0 0
133938.0 440619.0 0
138336.0 440175.0 0
140273.0 437736.0 0
140966.0 440391.0 0
144104.0 440264.0 0
147461.0 438939.0 0
150219.0 437146.0 0
152487.0 438803.0 0
154793.0 440911.0 0
156248.0 438216.0 0
157774.0 438708.0 0
159492.0 436950.0 0
160901.0 439052.0 0
163544.0 437552.0 0
163127.0 441240.0 0
166164.0 439123.0 0
169189.0 436558.0 0
168758.0 439477.0 0
171495.0 438730.0 0
174540.0 437257.0 0
175824.0 440577.0 0
179412.0 436735.0 0
177143.0 437084.0 0
179213.0 439669.0 0
182552.0 436200.0 0
186337.0 438562.0 0
183121.0 439612.0 0
189181.0 436539.0 0
190813.0 439934.0 0
194430.0 438718.0 0
198267.0 439574.0 0
201996.0 436498.0 0
205846.0 437553.0 0
201802.0 439744.0 0
210690.0 437781.0 0
215150.0 437770.0 0
218363.0 436124.0 0
218590.0 439333.0 0
221914.0 436658.0 0
225675.0 436227.0 0
226004.0 439899.0 0
229336.0 439179.0 0
229287.0 435598.0 0
232902.0 437320.0 0
239395.0 435216.0 0
236422.0 437775.0 0
239664.0 439558.0 0
243081.0 436116.0 0
246560.0 438978.0 0
253444.0 437234.0 0
250443.0 438006.0 0
258294.0 435668.0 0
256360.0 438113.0 0
261454.0 434910.0 0
260455.0 438583.0 0
268193.0 436212.0 0
264510.0 437845.0 0
271106.0 439186.0 0
278270.0 435790.0 0
275622.0 437665.0 0
281570.0 438400.0 0
288280.0 435686.0 0
285685.0 438086.0 0
288922.0 440843.0 0
291065.0 437250.0 0
294480.0 438511.0 0
298237.0 439654.0 0
302871.0 439881.0 0
305894.0 435018.0 0
307177.0 439088.0 0
309437.0 435697.0 0
310718.0 440289.0 0
313507.0 440594.0 0
312943.0 436833.0 0
316510.0 438709.0 0
319530.0 437691.0 0
322335.0 436888.0 0
322580.0 440453.0 0
326080.0 438042.0 0
326790.0 440952.0 0
329281.0 436982.0 0
333768.0 437154.0 0
329858.0 441101.0 0
332807.0 440046.0 0
337493.0 439837.0 0
341843.0 440589.0 0
343605.0 438893.0 0
347639.0 437785.0 0
345869.0 440772.0 0
351092.0 439566.0 0
359741.0 438018.0 0
354870.0 439804.0 0
357826.0 440746.0 0
362291.0 440476.0 0
365170.0 437833.0 0
369448.0 438704.0 0
367482.0 440289.0 0
372097.0 439325.0 0
373843.0 437132.0 0
376568.0 438879.0 0
378751.0 438050.0 0
375904.0 441164.0 0
380068.0 442339.0 0
380430.0 440095.0 0
383327.0 438436.0 0
385041.0 441012.0 0
388176.0 437556.0 0
388527.0 440577.0 0
391712.0 439300.0 0
394476.0 441125.0 0
396429.0 438235.0 0
399307.0 439946.0 0
402009.0 441412.0 0
92832.4 445156.0 0
89624.1 446799.0 0
95335.8 442961.0 0
96244.8 446765.0 0
100323.0 444472.0 0
101793.0 447242.0 0
105327.0 444181.0 0
108505.0 442897.0 0
105413.0 447215.0 0
109344.0 445730.0 0
112706.0 443048.0 0
112838.0 445838.0 0
117044.0 442527.0 0
116173.0 445436.0 0
119429.0 446023.0 0
120178.0 443139.0 0
122987.0 443413.0 0
122524.0 446276.0 0
126104.0 443605.0 0
129065.0 443847.0 0
129122.0 446606.0 0
131817.0 444123.0 0
134956.0 443500.0 0
131884.0 446557.0 0
138087.0 442830.0 0
135227.0 446844.0 0
139456.0 446390.0 0
141794.0 443177.0 0
144332.0 445110.0 0
145924.0 442853.0 0
149476.0 442112.0 0
147843.0 446016.0 0
152619.0 444086.0 0
158400.0 442120.0 0
160362.0 444969.0 0
156158.0 446093.0 0
163001.0 444402.0 0
166093.0 445215.0 0
166364.0 442145.0 0
169042.0 442062.0 0
169476.0 445028.0 0
172235.0 441761.0 0
172904.0 445016.0 0
180709.0 443524.0 0
176543.0 444430.0 0
184915.0 442630.0 0
183993.0 445676.0 0
187815.0 441359.0 0
188066.0 445043.0 0
190956.0 443353.0 0
194207.0 442868.0 0
192172.0 445724.0 0
197617.0 443420.0 0
200948.0 442698.0 0
204749.0 442014.0 0
201981.0 445282.0 0
207898.0 441109.0 0
206264.0 445831.0 0
209184.0 443189.0 0
212241.0 442142.0 0
215294.0 441153.0 0
214501.0 444881.0 0
218174.0 442988.0 0
222333.0 440887.0 0
221425.0 444585.0 0
225133.0 444518.0 0
228903.0 442859.0 0
232700.0 441356.0 0
234832.0 444242.0 0
235989.0 440938.0 0
238084.0 443771.0 0
243146.0 439856.0 0
241612.0 442888.0 0
245097.0 442425.0 0
249509.0 442453.0 0
253858.0 441045.0 0
252796.0 444707.0 0
258403.0 441549.0 0
256281.0 444631.0 0
263047.0 441858.0 0
260908.0 445372.0 0
267647.0 440863.0 0
266168.0 444337.0 0
271294.0 444005.0 0
274421.0 440576.0 0
278682.0 441016.0 0
275514.0 443585.0 0
278093.0 445015.0 0
284001.0 441492.0 0
281653.0 444057.0 0
286643.0 444933.0 0
293120.0 441650.0 0
296488.0 443497.0 0
300378.0 443816.0 0
304431.0 444388.0 0
307519.0 442681.0 0
313138.0 443357.0 0
310180.0 444435.0 0
315509.0 442398.0 0
314308.0 446506.0 0
318035.0 445383.0 0
319122.0 441401.0 0
321813.0 445033.0 0
325230.0 444077.0 0
328596.0 444940.0 0
332289.0 444169.0 0
335052.0 442380.0 0
337576.0 444502.0 0
339838.0 442561.0 0
344080.0 443106.0 0
341745.0 445365.0 0
348243.0 442098.0 0
346289.0 445817.0 0
349037.0 444738.0 0
351981.0 443333.0 0
355085.0 443039.0 0
357883.0 443198.0 0
357165.0 447193.0 0
360547.0 443282.0 0
360751.0 446916.0 0
363530.0 445487.0 0
365165.0 442711.0 0
368197.0 445201.0 0
370944.0 443251.0 0
373846.0 442087.0 0
373308.0 446564.0 0
375828.0 444930.0 0
377613.0 442911.0 0
382841.0 443150.0 0
382376.0 446103.0 0
379818.0 445328.0 0
386042.0 445359.0 0
389565.0 443793.0 0
393083.0 444115.0 0
397904.0 442848.0 0
397397.0 445714.0 0
401221.0 444052.0 0
404703.0 443050.0 0
405129.0 445880.0 0
407598.0 444689.0 0
409892.0 446774.0 0
83807.4 450650.0 0
86635.6 448634.0 0
88303.3 451188.0 0
91362.3 449247.0 0
94200.7 449504.0 0
91156.2 452187.0 0
98424.6 448798.0 0
95266.7 452122.0 0
98554.1 451687.0 0
101775.0 450151.0 0
103395.0 452207.0 0
106127.0 450306.0 0
109215.0 448760.0 0
112844.0 448778.0 0
110786.0 451298.0 0
116621.0 448133.0 0
119168.0 448744.0 0
115309.0 450402.0 0
117656.0 451871.0 0
121837.0 448417.0 0
124196.0 450090.0 0
125889.0 447153.0 0
129048.0 449665.0 0
126741.0 451782.0 0
131516.0 448618.0 0
133571.0 449898.0 0
137388.0 450262.0 0
142676.0 448387.0 0
146403.0 449573.0 0
149878.0 450260.0 0
150919.0 447105.0 0
154018.0 449606.0 0
159684.0 448133.0 0
157499.0 451276.0 0
162952.0 447289.0 0
165735.0 449292.0 0
161815.0 451170.0 0
169579.0 448235.0 0
170044.0 450898.0 0
173011.0 448450.0 0
176142.0 448070.0 0
179319.0 447099.0 0
181800.0 447411.0 0
179190.0 449750.0 0
182283.0 450516.0 0
185990.0 448531.0 0
190413.0 447705.0 0
194629.0 446770.0 0
193301.0 450189.0 0
198404.0 447269.0 0
196329.0 450287.0 0
202830.0 449505.0 0
210586.0 446976.0 0
207088.0 450605.0 0
214077.0 449083.0 0
218385.0 447550.0 0
222434.0 447938.0 0
228797.0 446390.0 0
226596.0 448859.0 0
231800.0 445572.0 0
235024.0 448027.0 0
230731.0 449871.0 0
238732.0 447448.0 0
242730.0 446465.0 0
241111.0 450258.0 0
246544.0 445218.0 0
245920.0 448775.0 0
249942.0 447712.0 0
254207.0 448308.0 0
257921.0 447975.0 0
264409.0 447742.0 0
260943.0 450081.0 0
268628.0 446873.0 0
267932.0 451069.0 0
272044.0 448629.0 0
275216.0 446681.0 0
279681.0 448137.0 0
283370.0 450671.0 0
283521.0 447413.0 0
289137.0 448298.0 0
286959.0 449517.0 0
291966.0 445897.0 0
290870.0 450448.0 0
294341.0 450568.0 0
296186.0 447314.0 0
299102.0 446184.0 0
301542.0 446569.0 0
299689.0 450375.0 0
304156.0 448676.0 0
307613.0 446965.0 0
311264.0 448611.0 0
315106.0 450209.0 0
319115.0 449848.0 0
322549.0 447987.0 0
324227.0 451231.0 0
325031.0 447171.0 0
327405.0 448859.0 0
331607.0 448584.0 0
335238.0 446356.0 0
339368.0 446448.0 0
335075.0 451043.0 0
337245.0 448747.0 0
343698.0 448325.0 0
340566.0 450466.0 0
348193.0 448966.0 0
350755.0 447895.0 0
353545.0 446710.0 0
351663.0 451370.0 0
354618.0 450466.0 0
358450.0 451326.0 0
362425.0 450349.0 0
366489.0 448732.0 0
370958.0 448868.0 0
373433.0 450112.0 0
375850.0 449216.0 0
378171.0 447312.0 0
378155.0 452283.0 0
381391.0 449875.0 0
384789.0 448373.0 0
388251.0 447682.0 0
387381.0 450094.0 0
390188.0 450981.0 0
391061.0 447816.0 0
394892.0 448266.0 0
392722.0 451991.0 0
395555.0 452381.0 0
399128.0 450692.0 0
401478.0 447513.0 0
404547.0 449810.0 0
407079.0 448142.0 0
410667.0 450458.0 0
407910.0 450693.0 0
413016.0 448105.0 0
415654.0 450262.0 0
413593.0 452621.0 0
418804.0 452005.0 0
77451.1 453968.0 0
74273.6 456632.0 0
77816.8 456639.0 0
80690.6 452682.0 0
83389.8 455114.0 0
80741.4 456443.0 0
84982.2 452955.0 0
86254.3 455760.0 0
87567.2 453524.0 0
89508.5 455195.0 0
92239.1 454522.0 0
95605.2 455446.0 0
99925.9 454557.0 0
102144.0 457149.0 0
105154.0 455092.0 0
108277.0 453299.0 0
109317.0 456811.0 0
113485.0 453270.0 0
111879.0 455646.0 0
116168.0 455052.0 0
118942.0 455985.0 0
121053.0 452569.0 0
123797.0 455212.0 0
128048.0 455288.0 0
131564.0 452516.0 0
131933.0 455972.0 0
134318.0 455640.0 0
135027.0 453053.0 0
137440.0 454993.0 0
140726.0 452643.0 0
145317.0 454166.0 0
149399.0 454019.0 0
152979.0 453465.0 0
156465.0 454666.0 0
160181.0 454875.0 0
165071.0 454427.0 0
168274.0 452193.0 0
169060.0 455544.0 0
173091.0 453048.0 0
176660.0 451346.0 0
178937.0 453331.0 0
176406.0 455868.0 0
181654.0 454089.0 0
185200.0 452975.0 0
184342.0 456578.0 0
189052.0 451749.0 0
192518.0 453905.0 0
196049.0 454043.0 0
199510.0 451997.0 0
200533.0 455910.0 0
203750.0 453587.0 0
207134.0 455313.0 0
210710.0 451899.0 0
211124.0 455998.0 0
214036.0 453289.0 0
216601.0 451580.0 0
220026.0 452067.0 0
216922.0 454125.0 0
223677.0 451246.0 0
223193.0 455285.0 0
227519.0 453820.0 0
233878.0 451931.0 0
231563.0 454566.0 0
235254.0 455627.0 0
237835.0 452183.0 0
243871.0 451619.0 0
241330.0 454488.0 0
245210.0 455396.0 0
247744.0 452062.0 0
251666.0 452394.0 0
256621.0 452853.0 0
263998.0 451920.0 0
261651.0 455100.0 0
269475.0 454823.0 0
272552.0 453136.0 0
276120.0 450613.0 0
276988.0 454990.0 0
280189.0 452633.0 0
284116.0 454590.0 0
286443.0 452516.0 0
287134.0 455536.0 0
289382.0 453047.0 0
293131.0 454654.0 0
297201.0 453996.0 0
303490.0 452978.0 0
307930.0 451767.0 0
312542.0 453563.0 0
317099.0 455161.0 0
321509.0 454058.0 0
327909.0 452600.0 0
325429.0 456582.0 0
331072.0 452295.0 0
330118.0 455821.0 0
333980.0 454643.0 0
338397.0 453595.0 0
343175.0 453795.0 0
346254.0 451471.0 0
349226.0 453472.0 0
352922.0 454272.0 0
355737.0 454001.0 0
358263.0 456278.0 0
360207.0 454214.0 0
364017.0 454173.0 0
361575.0 457215.0 0
367591.0 452743.0 0
368545.0 455970.0 0
371207.0 452419.0 0
374484.0 452745.0 0
371425.0 455831.0 0
374498.0 455586.0 0
377992.0 455678.0 0
381458.0 453904.0 0
385194.0 452724.0 0
381204.0 456649.0 0
384970.0 456677.0 0
389198.0 454000.0 0
388403.0 457112.0 0
392426.0 454962.0 0
395999.0 455600.0 0
400744.0 455005.0 0
404368.0 452740.0 0
407937.0 454510.0 0
411713.0 455471.0 0
415661.0 457828.0 0
416668.0 454309.0 0
419067.0 456140.0 0
421808.0 454556.0 0
426177.0 456907.0 0
67143.8 459969.0 0
64562.9 462724.0 0
69017.2 460832.0 0
70821.3 458201.0 0
72099.2 461450.0 0
74748.8 459831.0 0
78131.1 459809.0 0
81884.5 460235.0 0
84297.9 457793.0 0
88163.4 458417.0 0
85609.0 461457.0 0
90525.1 461190.0 0
92440.7 457983.0 0
94971.1 459965.0 0
97193.1 457589.0 0
97513.4 462220.0 0
99555.5 459673.0 0
104066.0 459745.0 0
101655.0 461672.0 0
106713.0 457867.0 0
107668.0 461019.0 0
110385.0 459519.0 0
112197.0 461869.0 0
113863.0 458299.0 0
117128.0 459841.0 0
121628.0 458434.0 0
120649.0 461510.0 0
123664.0 460853.0 0
125170.0 458533.0 0
128488.0 459155.0 0
125932.0 460902.0 0
132185.0 459280.0 0
136659.0 459259.0 0
141113.0 457630.0 0
144866.0 459304.0 0
148965.0 458255.0 0
152389.0 457323.0 0
152528.0 461506.0 0
155678.0 458314.0 0
159188.0 458590.0 0
163382.0 458610.0 0
167538.0 459538.0 0
172389.0 458168.0 0
180076.0 457635.0 0
176224.0 460852.0 0
180728.0 461916.0 0
183909.0 460209.0 0
188725.0 457018.0 0
186970.0 461267.0 0
193649.0 457833.0 0
190797.0 461363.0 0
197521.0 457490.0 0
196979.0 460545.0 0
203977.0 457201.0 0
201254.0 460975.0 0
205994.0 460123.0 0
209028.0 459060.0 0
214666.0 456848.0 0
212228.0 460578.0 0
219097.0 456854.0 0
216529.0 459645.0 0
222310.0 459025.0 0
225711.0 458598.0 0
229185.0 458399.0 0
232692.0 458398.0 0
235627.0 460044.0 0
238701.0 457469.0 0
242622.0 458822.0 0
248931.0 455576.0 0
247322.0 459380.0 0
252748.0 457628.0 0
250274.0 461679.0 0
258195.0 458437.0 0
262616.0 460475.0 0
265781.0 456207.0 0
267137.0 460687.0 0
269712.0 457390.0 0
273567.0 457515.0 0
270950.0 460980.0 0
277706.0 459285.0 0
281261.0 457328.0 0
285920.0 459800.0 0
290046.0 457131.0 0
290741.0 460847.0 0
293579.0 459183.0 0
296864.0 457835.0 0
299659.0 460981.0 0
301249.0 456659.0 0
304580.0 460957.0 0
306413.0 456508.0 0
308549.0 459821.0 0
310479.0 457056.0 0
314172.0 458463.0 0
311841.0 460957.0 0
317185.0 460016.0 0
321056.0 459110.0 0
325477.0 461443.0 0
329353.0 459886.0 0
333283.0 458691.0 0
337320.0 457571.0 0
336471.0 461659.0 0
341339.0 456857.0 0
340194.0 460306.0 0
344195.0 460485.0 0
346279.0 456620.0 0
348398.0 460625.0 0
351047.0 457266.0 0
351878.0 461504.0 0
354957.0 457947.0 0
359245.0 459396.0 0
362981.0 460879.0 0
365491.0 457944.0 0
369196.0 459084.0 0
367065.0 461649.0 0
370692.0 462635.0 0
372501.0 459113.0 0
376343.0 459135.0 0
380770.0 459728.0 0
384868.0 460201.0 0
388491.0 460636.0 0
391539.0 457909.0 0
395432.0 459381.0 0
392141.0 461712.0 0
399775.0 459666.0 0
404582.0 457575.0 0
403388.0 460695.0 0
407880.0 458995.0 0
406454.0 461600.0 0
411691.0 460152.0 0
419584.0 459702.0 0
416315.0 461567.0 0
420818.0 462964.0 0
423130.0 458265.0 0
424504.0 461672.0 0
427505.0 460019.0 0
429691.0 458216.0 0
432145.0 460969.0 0
435575.0 462956.0 0
61055.1 464218.0 0
58420.5 467490.0 0
63287.5 466038.0 0
67437.9 464080.0 0
66378.0 467626.0 0
70372.4 464907.0 0
73441.5 464781.0 0
76841.1 463622.0 0
76765.4 467270.0 0
80818.4 464367.0 0
84572.8 465785.0 0
88486.6 463983.0 0
93030.6 462713.0 0
91347.5 465637.0 0
93836.7 467090.0 0
95361.6 464429.0 0
97536.3 467182.0 0
100148.0 464750.0 0
103058.0 467491.0 0
104994.0 463749.0 0
107903.0 466048.0 0
109427.0 463035.0 0
111248.0 465112.0 0
113858.0 466922.0 0
114578.0 462968.0 0
118341.0 464963.0 0
122636.0 463256.0 0
122600.0 466970.0 0
126047.0 464138.0 0
129329.0 462569.0 0
133012.0 463441.0 0
129656.0 466696.0 0
137245.0 463850.0 0
134760.0 467271.0 0
138807.0 466998.0 0
140893.0 462489.0 0
142476.0 466520.0 0
144950.0 463091.0 0
148546.0 462252.0 0
146897.0 466263.0 0
150739.0 465616.0 0
156914.0 462089.0 0
154864.0 465734.0 0
159161.0 466277.0 0
161052.0 462318.0 0
164625.0 462319.0 0
163573.0 465917.0 0
166592.0 463374.0 0
167655.0 466617.0 0
170676.0 462785.0 0
174337.0 465215.0 0
178876.0 466108.0 0
183876.0 464370.0 0
188405.0 464765.0 0
194276.0 462023.0 0
192629.0 465579.0 0
197451.0 465073.0 0
201663.0 465637.0 0
205251.0 464347.0 0
208910.0 463014.0 0
211923.0 465810.0 0
215673.0 463426.0 0
219805.0 461492.0 0
218963.0 465477.0 0
223922.0 461985.0 0
221516.0 464563.0 0
227659.0 462287.0 0
229466.0 465917.0 0
231568.0 462382.0 0
234975.0 463569.0 0
239353.0 462688.0 0
244485.0 462770.0 0
242285.0 465263.0 0
247909.0 464415.0 0
253121.0 462199.0 0
251593.0 465294.0 0
255351.0 464775.0 0
255683.0 461445.0 0
258949.0 463103.0 0
262001.0 465240.0 0
265360.0 464222.0 0
269403.0 465559.0 0
272206.0 463525.0 0
274981.0 461854.0 0
277863.0 462259.0 0
277725.0 465000.0 0
281112.0 462461.0 0
284906.0 465298.0 0
289417.0 464325.0 0
293807.0 463575.0 0
296335.0 461548.0 0
297544.0 464595.0 0
301740.0 465017.0 0
308738.0 463474.0 0
305971.0 466368.0 0
312196.0 464471.0 0
314141.0 466835.0 0
315351.0 463046.0 0
319055.0 463120.0 0
322469.0 462871.0 0
321402.0 465683.0 0
328829.0 464012.0 0
325475.0 466237.0 0
332697.0 462426.0 0
331987.0 465520.0 0
340340.0 463914.0 0
336220.0 466891.0 0
344342.0 464672.0 0
348530.0 464691.0 0
352952.0 466179.0 0
356012.0 462263.0 0
357992.0 467166.0 0
360278.0 463386.0 0
364692.0 464259.0 0
362028.0 466357.0 0
368374.0 465634.0 0
374722.0 463828.0 0
378643.0 462717.0 0
379015.0 466650.0 0
382575.0 463643.0 0
386421.0 464225.0 0
390154.0 464699.0 0
394200.0 465923.0 0
391261.0 467292.0 0
396181.0 462995.0 0
399456.0 463366.0 0
398607.0 467247.0 0
402737.0 463888.0 0
402198.0 467478.0 0
406249.0 464915.0 0
409175.0 462759.0 0
409961.0 466185.0 0
413337.0 464188.0 0
415280.0 467813.0 0
417473.0 464169.0 0
418589.0 467312.0 0
422023.0 466235.0 0
425452.0 465131.0 0
429475.0 463712.0 0
434357.0 465706.0 0
439047.0 464879.0 0
437487.0 467661.0 0
442287.0 466656.0 0
49881.8 471296.0 0
54010.4 469815.0 0
52597.7 473388.0 0
57378.4 472943.0 0
62371.2 468914.0 0
61398.7 472079.0 0
65919.9 471477.0 0
70115.6 468417.0 0
70553.4 471869.0 0
73484.9 467955.0 0
74976.3 471592.0 0
80059.2 469130.0 0
82571.1 472129.0 0
84160.8 469499.0 0
88267.2 468414.0 0
86207.8 472580.0 0
91873.8 469736.0 0
95725.1 470363.0 0
99841.5 469420.0 0
102694.0 471482.0 0
105942.0 469615.0 0
109967.0 469694.0 0
113695.0 471425.0 0
116469.0 469305.0 0
119477.0 469252.0 0
122845.0 471677.0 0
125993.0 468105.0 0
127293.0 471109.0 0
131620.0 470498.0 0
136745.0 470814.0 0
140347.0 470608.0 0
149332.0 469664.0 0
144923.0 470198.0 0
152866.0 469093.0 0
156744.0 470276.0 0
160944.0 469821.0 0
164850.0 470059.0 0
169508.0 471258.0 0
171253.0 467187.0 0
174418.0 469475.0 0
178403.0 471793.0 0
182608.0 468897.0 0
186245.0 467645.0 0
189937.0 469296.0 0
186317.0 471578.0 0
194668.0 470206.0 0
199737.0 469594.0 0
204213.0 468751.0 0
208335.0 467388.0 0
207343.0 471860.0 0
212244.0 471023.0 0
216027.0 467884.0 0
220705.0 468638.0 0
225075.0 466264.0 0
227646.0 469055.0 0
232910.0 466612.0 0
230832.0 469599.0 0
234995.0 470686.0 0
236422.0 466495.0 0
240020.0 468721.0 0
245199.0 467908.0 0
249383.0 468437.0 0
253677.0 468716.0 0
258181.0 467838.0 0
262234.0 469154.0 0
265691.0 468405.0 0
269889.0 470056.0 0
274217.0 465744.0 0
272727.0 468536.0 0
276343.0 468900.0 0
280655.0 468050.0 0
288593.0 469376.0 0
284555.0 469711.0 0
292403.0 467124.0 0
295724.0 467454.0 0
299474.0 468590.0 0
297298.0 471204.0 0
303251.0 470015.0 0
306929.0 470266.0 0
310588.0 467990.0 0
318021.0 467536.0 0
314771.0 471276.0 0
322337.0 469488.0 0
325881.0 470414.0 0
330096.0 469043.0 0
339362.0 470629.0 0
341844.0 468028.0 0
342169.0 471784.0 0
345002.0 470985.0 0
345851.0 467998.0 0
349565.0 470495.0 0
355084.0 470898.0 0
358931.0 471462.0 0
361202.0 469635.0 0
365301.0 469013.0 0
369962.0 470205.0 0
372269.0 466990.0 0
373454.0 472548.0 0
375710.0 469175.0 0
380418.0 470836.0 0
383536.0 467843.0 0
384837.0 472136.0 0
388071.0 468886.0 0
392247.0 469517.0 0
395794.0 469591.0 0
399179.0 471926.0 0
402215.0 470389.0 0
405598.0 468485.0 0
404803.0 471990.0 0
408595.0 469898.0 0
412246.0 469082.0 0
412296.0 472806.0 0
420054.0 470487.0 0
416468.0 471651.0 0
424183.0 469262.0 0
423364.0 472495.0 0
427960.0 468648.0 0
426905.0 472515.0 0
431123.0 473054.0 0
432094.0 468127.0 0
435905.0 471212.0 0
440167.0 468722.0 0
440273.0 471930.0 0
442119.0 469794.0 0
445486.0 469531.0 0
443155.0 472703.0 0
449511.0 471659.0 0
453452.0 472743.0 0
39336.5 478383.0 0
42843.2 475629.0 0
46877.5 473665.0 0
42501.5 478661.0 0
46773.6 477733.0 0
50292.6 474755.0 0
51253.9 477472.0 0
53896.2 475980.0 0
56927.9 477569.0 0
60155.9 475922.0 0
63867.4 475672.0 0
68510.8 475411.0 0
72453.1 475357.0 0
75943.9 475613.0 0
79260.2 473629.0 0
82577.9 475407.0 0
86426.9 476753.0 0
89978.3 472330.0 0
89868.8 475585.0 0
93510.0 473823.0 0
98501.6 472869.0 0
96495.5 476678.0 0
102353.0 475972.0 0
106332.0 473087.0 0
107218.0 477310.0 0
109910.0 474146.0 0
113538.0 475341.0 0
117896.0 473420.0 0
121021.0 476660.0 0
125144.0 475466.0 0
129139.0 474614.0 0
134148.0 474214.0 0
131350.0 477424.0 0
138364.0 474863.0 0
142695.0 474555.0 0
147736.0 474004.0 0
152614.0 473496.0 0
156727.0 474486.0 0
159290.0 472958.0 0
162309.0 473353.0 0
164258.0 476538.0 0
165931.0 473576.0 0
168950.0 476964.0 0
173542.0 474344.0 0
177204.0 477016.0 0
182658.0 472595.0 0
180912.0 475317.0 0
185161.0 476170.0 0
190395.0 474457.0 0
195372.0 475315.0 0
198143.0 472799.0 0
199793.0 475004.0 0
202735.0 473086.0 0
205708.0 475556.0 0
210437.0 476226.0 0
215286.0 476082.0 0
217421.0 471859.0 0
219313.0 475570.0 0
221201.0 472736.0 0
224201.0 471017.0 0
227782.0 472646.0 0
231654.0 473838.0 0
238913.0 473714.0 0
243424.0 472527.0 0
246914.0 471775.0 0
251141.0 473143.0 0
256130.0 472762.0 0
259772.0 472028.0 0
263371.0 473213.0 0
267156.0 472398.0 0
270339.0 474216.0 0
273842.0 472350.0 0
272985.0 476201.0 0
270614.0 477910.0 0
278499.0 472617.0 0
276521.0 476683.0 0
282639.0 472883.0 0
286260.0 472616.0 0
285561.0 476037.0 0
289169.0 474335.0 0
292984.0 471798.0 0
296548.0 475372.0 0
300955.0 473678.0 0
305773.0 474417.0 0
310192.0 472683.0 0
309578.0 476897.0 0
313119.0 475350.0 0
319397.0 472629.0 0
316934.0 476063.0 0
323551.0 473298.0 0
327241.0 473252.0 0
325690.0 476424.0 0
329317.0 477010.0 0
330864.0 473538.0 0
333429.0 476817.0 0
335413.0 472289.0 0
337570.0 476978.0 0
340104.0 474045.0 0
343734.0 474328.0 0
346329.0 473649.0 0
348701.0 475063.0 0
346086.0 476906.0 0
352934.0 475277.0 0
358220.0 475759.0 0
362909.0 473534.0 0
362522.0 477438.0 0
366935.0 473109.0 0
370135.0 474952.0 0
366421.0 476953.0 0
374141.0 476332.0 0
377354.0 473586.0 0
378350.0 477647.0 0
381691.0 474838.0 0
389721.0 473639.0 0
386007.0 476017.0 0
394280.0 473029.0 0
393658.0 477149.0 0
397539.0 475720.0 0
402231.0 473848.0 0
405465.0 476602.0 0
401125.0 477016.0 0
408188.0 473312.0 0
410167.0 476712.0 0
415513.0 476448.0 0
420271.0 474810.0 0
424782.0 475500.0 0
423388.0 478096.0 0
428417.0 475747.0 0
431649.0 478233.0 0
434573.0 475558.0 0
438498.0 475467.0 0
442220.0 476137.0 0
446428.0 474709.0 0
445875.0 478347.0 0
451492.0 475411.0 0
456051.0 475660.0 0
459672.0 477096.0 0
31309.4 482030.0 0
29442.0 483963.0 0
35300.5 481982.0 0
40130.1 481750.0 0
43125.2 480857.0 0
45955.5 481911.0 0
50219.8 481348.0 0
53849.7 479640.0 0
57437.5 481475.0 0
54087.7 483338.0 0
60511.6 479404.0 0
61586.2 483790.0 0
63429.5 479544.0 0
66750.2 478864.0 0
65152.0 481940.0 0
70512.0 478842.0 0
68732.7 482103.0 0
72324.3 482099.0 0
74294.5 478745.0 0
76242.0 481688.0 0
78899.3 478033.0 0
83204.0 479072.0 0
80394.1 481815.0 0
86797.1 480290.0 0
84257.8 482490.0 0
89133.7 478543.0 0
89732.0 480780.0 0
92344.7 478408.0 0
92080.3 482864.0 0
95162.8 480669.0 0
99204.5 479932.0 0
104018.0 480700.0 0
108222.0 481797.0 0
111249.0 478318.0 0
113058.0 481681.0 0
116289.0 478422.0 0
117254.0 482787.0 0
120160.0 480296.0 0
124160.0 479875.0 0
127607.0 478678.0 0
127322.0 482881.0 0
130386.0 480641.0 0
135466.0 479396.0 0
140441.0 479365.0 0
145656.0 478713.0 0
150448.0 477934.0 0
154655.0 477794.0 0
152411.0 480809.0 0
159562.0 477576.0 0
156011.0 481629.0 0
164708.0 481216.0 0
169777.0 482303.0 0
173364.0 479472.0 0
177127.0 481905.0 0
180966.0 479386.0 0
184972.0 481194.0 0
188580.0 478962.0 0
192555.0 479807.0 0
198234.0 479176.0 0
202346.0 477476.0 0
201948.0 482130.0 0
206429.0 479998.0 0
210256.0 480305.0 0
214206.0 481141.0 0
219114.0 479786.0 0
223880.0 476784.0 0
228642.0 476663.0 0
228055.0 480180.0 0
235192.0 476137.0 0
231563.0 478616.0 0
234925.0 481311.0 0
238647.0 478780.0 0
242004.0 476330.0 0
242746.0 480638.0 0
246714.0 476964.0 0
250997.0 477594.0 0
254696.0 477644.0 0
250636.0 480934.0 0
259465.0 476875.0 0
254184.0 481267.0 0
263237.0 476905.0 0
263372.0 481136.0 0
266810.0 477011.0 0
269103.0 482268.0 0
273637.0 480159.0 0
277697.0 481227.0 0
281242.0 477421.0 0
285347.0 480027.0 0
288659.0 478345.0 0
292378.0 477068.0 0
299415.0 477716.0 0
296061.0 479863.0 0
302910.0 478016.0 0
300129.0 481403.0 0
306588.0 478549.0 0
313275.0 479292.0 0
309540.0 481105.0 0
317605.0 480951.0 0
321676.0 477464.0 0
321865.0 482335.0 0
326788.0 481290.0 0
331880.0 480315.0 0
335259.0 480006.0 0
338736.0 481352.0 0
342151.0 477875.0 0
342510.0 482332.0 0
349931.0 479490.0 0
345819.0 480798.0 0
354565.0 479898.0 0
357630.0 479830.0 0
360490.0 479970.0 0
364113.0 480537.0 0
367775.0 480942.0 0
370745.0 478596.0 0
374952.0 480530.0 0
379821.0 482567.0 0
382801.0 479133.0 0
386680.0 480032.0 0
389942.0 478034.0 0
389795.0 482654.0 0
392554.0 480362.0 0
394602.0 480054.0 0
397275.0 479298.0 0
398810.0 482694.0 0
401121.0 480476.0 0
404234.0 480691.0 0
408178.0 480283.0 0
412475.0 479496.0 0
415975.0 481258.0 0
419870.0 479199.0 0
424747.0 481580.0 0
427192.0 478439.0 0
428667.0 481184.0 0
431363.0 481815.0 0
434710.0 481774.0 0
436142.0 478633.0 0
439633.0 478537.0 0
438557.0 481549.0 0
442861.0 480613.0 0
449352.0 478531.0 0
447478.0 481753.0 0
450923.0 481463.0 0
453528.0 479014.0 0
454252.0 482937.0 0
457615.0 480186.0 0
460691.0 482640.0 0
462553.0 479705.0 0
466245.0 480934.0 0
469245.0 483401.0 0
26543.6 486146.0 0
23162.1 488337.0 0
31213.3 486395.0 0
34878.7 486627.0 0
38766.1 485491.0 0
42737.1 484250.0 0
46894.9 485592.0 0
42390.1 488798.0 0
50960.7 485004.0 0
49723.2 488193.0 0
57320.9 485044.0 0
54174.1 488258.0 0
59683.6 487692.0 0
65997.0 485234.0 0
67719.8 488692.0 0
70071.9 485308.0 0
74067.6 485353.0 0
78028.3 484761.0 0
77574.8 488121.0 0
82267.3 486215.0 0
87789.2 484029.0 0
86732.8 487992.0 0
93660.0 485265.0 0
91050.3 487600.0 0
96731.9 483977.0 0
95561.3 488054.0 0
100898.0 483571.0 0
100347.0 487768.0 0
104422.0 485004.0 0
107775.0 486415.0 0
110828.0 484647.0 0
113887.0 485703.0 0
111034.0 487548.0 0
117917.0 487227.0 0
122327.0 484007.0 0
126215.0 486571.0 0
132495.0 484036.0 0
137968.0 484332.0 0
134704.0 487377.0 0
143255.0 483716.0 0
148519.0 482650.0 0
152741.0 485603.0 0
159954.0 482741.0 0
157398.0 486274.0 0
162691.0 487241.0 0
167185.0 485564.0 0
173640.0 484456.0 0
170411.0 486868.0 0
177350.0 486676.0 0
180923.0 484010.0 0
185028.0 485699.0 0
188798.0 483038.0 0
192051.0 484998.0 0
195025.0 487020.0 0
195910.0 483027.0 0
199099.0 486152.0 0
203236.0 486542.0 0
205871.0 484398.0 0
210129.0 484384.0 0
214496.0 486703.0 0
217788.0 484178.0 0
222023.0 483818.0 0
225014.0 481215.0 0
227232.0 484127.0 0
231020.0 482578.0 0
230503.0 485354.0 0
238942.0 483949.0 0
241680.0 487809.0 0
246817.0 482719.0 0
243363.0 484477.0 0
245504.0 486123.0 0
249172.0 486743.0 0
253334.0 484820.0 0
257984.0 482330.0 0
261601.0 486078.0 0
265734.0 485467.0 0
274055.0 484924.0 0
279362.0 485985.0 0
281790.0 481779.0 0
285506.0 484918.0 0
291274.0 482836.0 0
296583.0 484249.0 0
300815.0 486298.0 0
304851.0 482619.0 0
308853.0 485298.0 0
313624.0 484778.0 0
318969.0 486541.0 0
324526.0 486411.0 0
330985.0 483208.0 0
330301.0 487246.0 0
335101.0 484397.0 0
340281.0 486237.0 0
345148.0 485128.0 0
348342.0 483446.0 0
348885.0 487164.0 0
352651.0 484213.0 0
357741.0 483193.0 0
356346.0 486978.0 0
361647.0 483310.0 0
361071.0 487423.0 0
365733.0 485028.0 0
369020.0 486312.0 0
371132.0 483362.0 0
372249.0 487978.0 0
376006.0 485475.0 0
384817.0 483969.0 0
381013.0 487862.0 0
388351.0 486563.0 0
394800.0 483352.0 0
391767.0 485991.0 0
395051.0 487899.0 0
398993.0 486429.0 0
402364.0 483991.0 0
406343.0 484475.0 0
411524.0 483762.0 0
413555.0 487686.0 0
416800.0 485032.0 0
420424.0 483194.0 0
420923.0 486925.0 0
424037.0 485076.0 0
428583.0 485084.0 0
432789.0 484428.0 0
433184.0 487907.0 0
437300.0 485825.0 0
441361.0 484355.0 0
445486.0 484996.0 0
450235.0 485359.0 0
454800.0 486721.0 0
457887.0 484568.0 0
461342.0 485517.0 0
465179.0 484193.0 0
472387.0 485807.0 0
468885.0 487535.0 0
476028.0 488741.0 0
13262.0 493793.0 0
16219.1 492281.0 0
19571.3 490157.0 0
23326.0 491998.0 0
27661.1 490326.0 0
32440.2 490564.0 0
37312.7 489824.0 0
40490.8 493479.0 0
46355.1 489774.0 0
44756.6 493406.0 0
49469.5 491921.0 0
57769.3 491107.0 0
61827.9 491248.0 0
63578.3 487845.0 0
65319.8 491389.0 0
71660.6 489089.0 0
74662.1 488526.0 0
74817.0 491874.0 0
79834.4 491447.0 0
83506.8 489980.0 0
85788.3 490853.0 0
88894.5 492108.0 0
93267.7 491651.0 0
97570.4 491497.0 0
101319.0 492438.0 0
104474.0 489287.0 0
108688.0 490382.0 0
113530.0 490383.0 0
118330.0 491957.0 0
122358.0 489068.0 0
126245.0 491063.0 0
130435.0 488312.0 0
134519.0 491408.0 0
137526.0 488467.0 0
139273.0 492144.0 0
141527.0 488328.0 0
146910.0 488316.0 0
151503.0 490303.0 0
155333.0 489755.0 0
158940.0 490067.0 0
167359.0 490105.0 0
173534.0 488915.0 0
174358.0 491853.0 0
177741.0 491316.0 0
181335.0 488420.0 0
185107.0 489727.0 0
188808.0 487820.0 0
189760.0 491741.0 0
192559.0 489378.0 0
196523.0 490255.0 0
201468.0 491021.0 0
207196.0 489129.0 0
211275.0 488168.0 0
212945.0 490752.0 0
219053.0 488663.0 0
216042.0 491355.0 0
224719.0 488620.0 0
229407.0 487767.0 0
228524.0 490844.0 0
234183.0 486723.0 0
231390.0 490446.0 0
238108.0 489977.0 0
241978.0 492278.0 0
245702.0 489688.0 0
249577.0 491568.0 0
252864.0 489183.0 0
257066.0 487822.0 0
260807.0 490666.0 0
269585.0 487587.0 0
265180.0 489598.0 0
273625.0 489923.0 0
283366.0 489600.0 0
286833.0 491897.0 0
289592.0 488614.0 0
294305.0 488299.0 0
298334.0 490373.0 0
302495.0 490932.0 0
305629.0 487940.0 0
310712.0 490056.0 0
315227.0 489303.0 0
318541.0 491732.0 0
322152.0 490107.0 0
326503.0 491481.0 0
335854.0 489747.0 0
340358.0 490216.0 0
344717.0 489312.0 0
342556.0 492529.0 0
348806.0 490833.0 0
352944.0 489737.0 0
357445.0 490298.0 0
364851.0 488785.0 0
361099.0 492233.0 0
368218.0 489036.0 0
366118.0 492368.0 0
371852.0 492782.0 0
376460.0 490240.0 0
379952.0 492487.0 0
385353.0 487955.0 0
384561.0 492083.0 0
387886.0 489660.0 0
391148.0 489264.0 0
394250.0 492324.0 0
398620.0 490866.0 0
403365.0 488543.0 0
405935.0 492643.0 0
408790.0 488955.0 0
413328.0 491741.0 0
417533.0 489101.0 0
421645.0 490820.0 0
425191.0 488372.0 0
426326.0 493293.0 0
429518.0 489739.0 0
433240.0 491569.0 0
437296.0 490953.0 0
441473.0 493773.0 0
442325.0 488903.0 0
445791.0 492793.0 0
447442.0 488819.0 0
449536.0 491942.0 0
451757.0 489186.0 0
455700.0 490297.0 0
453699.0 493560.0 0
459549.0 488787.0 0
458758.0 493144.0 0
464603.0 488619.0 0
462969.0 492791.0 0
467812.0 491989.0 0
471990.0 490662.0 0
476216.0 494014.0 0
480249.0 491087.0 0
483971.0 492676.0 0
10422.7 496590.0 0
6572.4 498883.0 0
15134.0 497376.0 0
19500.5 494733.0 0
18539.2 498856.0 0
23782.4 495681.0 0
26425.5 494315.0 0
26314.4 498582.0 0
21950.2 498903.0 0
30238.5 495026.0 0
35326.1 493974.0 0
34178.7 498133.0 0
38503.6 496974.0 0
42877.7 497777.0 0
47832.7 496200.0 0
53801.8 494270.0 0
59498.2 494963.0 0
64224.6 494872.0 0
69550.6 493798.0 0
73894.9 495879.0 0
77316.6 495167.0 0
80869.9 496021.0 0
84167.5 493306.0 0
86601.4 498055.0 0
91644.1 495620.0 0
96167.4 495606.0 0
101408.0 497376.0 0
105392.0 493610.0 0
106618.0 498042.0 0
110254.0 494524.0 0
113070.0 497105.0 0
115015.0 494751.0 0
118979.0 496725.0 0
122396.0 493682.0 0
122791.0 498040.0 0
126272.0 495821.0 0
130125.0 493299.0 0
133156.0 495484.0 0
129991.0 497974.0 0
136837.0 495591.0 0
143776.0 492974.0 0
140705.0 495848.0 0
148892.0 494668.0 0
153577.0 493061.0 0
153743.0 496735.0 0
157213.0 493414.0 0
158812.0 497524.0 0
162530.0 493339.0 0
167209.0 494720.0 0
171158.0 492802.0 0
174917.0 495092.0 0
179263.0 496079.0 0
182188.0 492758.0 0
184314.0 497341.0 0
186328.0 493086.0 0
189197.0 495910.0 0
193620.0 493876.0 0
197837.0 493468.0 0
197576.0 497485.0 0
205303.0 493742.0 0
201943.0 496061.0 0
209561.0 493886.0 0
214424.0 495409.0 0
218673.0 493665.0 0
222067.0 492504.0 0
221889.0 496779.0 0
226383.0 494355.0 0
231055.0 493891.0 0
234289.0 496516.0 0
234633.0 492052.0 0
238428.0 494543.0 0
242380.0 496454.0 0
245918.0 494192.0 0
253408.0 492955.0 0
250393.0 496676.0 0
257269.0 492771.0 0
255351.0 496579.0 0
259213.0 496304.0 0
263491.0 494634.0 0
269260.0 493350.0 0
274696.0 495898.0 0
278497.0 491775.0 0
283138.0 494165.0 0
279610.0 496593.0 0
287191.0 495935.0 0
283154.0 498150.0 0
290671.0 493111.0 0
294929.0 493495.0 0
300065.0 494737.0 0
306249.0 492416.0 0
304560.0 496417.0 0
309823.0 496328.0 0
314539.0 493543.0 0
318453.0 496573.0 0
322561.0 494577.0 0
327545.0 497168.0 0
331536.0 492922.0 0
332813.0 497505.0 0
335386.0 494383.0 0
338729.0 493514.0 0
341935.0 496343.0 0
346461.0 494011.0 0
349366.0 497258.0 0
351183.0 493946.0 0
355928.0 494165.0 0
359829.0 496075.0 0
363778.0 496124.0 0
368701.0 496827.0 0
373870.0 497962.0 0
376747.0 494428.0 0
377764.0 497402.0 0
381868.0 496471.0 0
389640.0 493179.0 0
386718.0 496769.0 0
390216.0 496625.0 0
393112.0 496252.0 0
397576.0 495626.0 0
402086.0 493758.0 0
401293.0 497079.0 0
409612.0 494501.0 0
414136.0 496470.0 0
417675.0 493622.0 0
421792.0 494973.0 0
424538.0 498008.0 0
430792.0 493789.0 0
428912.0 497178.0 0
434729.0 494404.0 0
432350.0 496616.0 0
435953.0 498500.0 0
437950.0 495193.0 0
440743.0 498266.0 0
444668.0 496799.0 0
449179.0 496053.0 0
453439.0 497438.0 0
457494.0 496565.0 0
461776.0 496407.0 0
466235.0 496376.0 0
471494.0 495723.0 0
478140.0 497601.0 0
481866.0 496295.0 0
487078.0 495084.0 0
490866.0 497316.0 0
2804.96 500054.0 0
3325.46 503641.0 0
11314.5 501157.0 0
15921.6 502039.0 0
19392.7 501579.0 0
23083.1 502765.0 0
30290.5 499426.0 0
33241.1 502171.0 0
38375.2 501582.0 0
46507.9 500682.0 0
51734.2 499248.0 0
50044.8 503536.0 0
56685.3 498708.0 0
54538.2 503159.0 0
61857.0 498678.0 0
58896.4 502486.0 0
66866.2 498531.0 0
71700.0 498812.0 0
69362.7 502468.0 0
76544.8 499204.0 0
73623.3 503258.0 0
81040.8 499933.0 0
83857.1 502771.0 0
92474.6 500523.0 0
97034.5 499754.0 0
96019.0 503114.0 0
99465.5 501845.0 0
103913.0 502808.0 0
108460.0 501834.0 0
110878.0 499213.0 0
112265.0 503093.0 0
115568.0 499695.0 0
120402.0 501691.0 0
125996.0 500827.0 0
134194.0 499186.0 0
130416.0 502330.0 0
138910.0 499388.0 0
144348.0 498511.0 0
149908.0 500497.0 0
145785.0 502964.0 0
154822.0 500531.0 0
164766.0 499390.0 0
168431.0 502579.0 0
170770.0 497912.0 0
172372.0 502894.0 0
175674.0 499232.0 0
180421.0 500867.0 0
188292.0 500049.0 0
192669.0 499122.0 0
201589.0 500511.0 0
206115.0 498311.0 0
210660.0 498210.0 0
209318.0 502486.0 0
214022.0 500837.0 0
218016.0 498771.0 0
225612.0 499543.0 0
221531.0 501773.0 0
229965.0 498019.0 0
233620.0 501937.0 0
238125.0 499185.0 0
242555.0 501092.0 0
245903.0 498311.0 0
248496.0 501233.0 0
252958.0 501355.0 0
257551.0 500139.0 0
262068.0 499492.0 0
266717.0 498322.0 0
270607.0 498074.0 0
273338.0 500128.0 0
269704.0 502174.0 0
277706.0 500626.0 0
282413.0 502628.0 0
287112.0 500614.0 0
291944.0 497906.0 0
296721.0 497759.0 0
301335.0 499705.0 0
306333.0 501134.0 0
311839.0 502372.0 0
314639.0 498195.0 0
317618.0 501832.0 0
322343.0 499594.0 0
326313.0 502354.0 0
330498.0 501126.0 0
337398.0 497983.0 0
334557.0 501219.0 0
341418.0 501304.0 0
345816.0 498918.0 0
345618.0 503003.0 0
349674.0 501697.0 0
353066.0 498276.0 0
357388.0 499207.0 0
361255.0 499120.0 0
365444.0 500764.0 0
370544.0 501333.0 0
376536.0 499963.0 0
379787.0 500758.0 0
385197.0 501574.0 0
390373.0 500152.0 0
395214.0 499500.0 0
399764.0 499379.0 0
405633.0 498382.0 0
402544.0 502174.0 0
410796.0 498373.0 0
410031.0 501957.0 0
414307.0 500511.0 0
418983.0 498699.0 0
422980.0 502269.0 0
427784.0 501072.0 0
431934.0 500119.0 0
434837.0 502724.0 0
438428.0 501683.0 0
442770.0 502519.0 0
447081.0 500482.0 0
451323.0 499504.0 0
451536.0 503704.0 0
456079.0 501139.0 0
460361.0 499628.0 0
464179.0 500138.0 0
465557.0 504093.0 0
469391.0 500974.0 0
474954.0 500135.0 0
480434.0 501272.0 0
486019.0 499947.0 0
491157.0 501643.0 0
494884.0 499887.0 0
498287.0 500054.0 0
3699.25 509251.0 0
8325.85 504850.0 0
13681.2 506140.0 0
9605.69 509212.0 0
19359.1 505663.0 0
28103.2 504349.0 0
32062.4 507962.0 0
34751.5 505624.0 0
38854.1 507108.0 0
43119.1 504132.0 0
47169.2 506602.0 0
52471.6 507596.0 0
58414.7 507693.0 0
64226.7 503914.0 0
68139.1 504879.0 0
69838.7 507627.0 0
75006.9 507753.0 0
78969.2 504050.0 0
83459.9 506255.0 0
88196.3 503688.0 0
87669.8 508131.0 0
92811.8 506343.0 0
98909.9 506428.0 0
108700.0 505696.0 0
104768.0 507674.0 0
113565.0 508057.0 0
116212.0 503812.0 0
119343.0 506870.0 0
124194.0 504883.0 0
129988.0 507643.0 0
135612.0 504110.0 0
139448.0 507977.0 0
141451.0 503256.0 0
144288.0 507129.0 0
148761.0 505557.0 0
153614.0 505158.0 0
159186.0 503122.0 0
164493.0 505986.0 0
169211.0 505661.0 0
172534.0 507902.0 0
176678.0 503031.0 0
175405.0 505827.0 0
179648.0 506410.0 0
185235.0 504074.0 0
190941.0 503732.0 0
193676.0 507565.0 0
196639.0 503220.0 0
200305.0 507530.0 0
200965.0 503984.0 0
204566.0 504247.0 0
208196.0 506809.0 0
213516.0 506745.0 0
217482.0 503313.0 0
225545.0 503957.0 0
222184.0 506455.0 0
228825.0 502222.0 0
230364.0 505692.0 0
234617.0 507526.0 0
238515.0 504118.0 0
245967.0 505490.0 0
251275.0 506077.0 0
256789.0 505549.0 0
262140.0 505391.0 0
265307.0 502399.0 0
267158.0 507177.0 0
273994.0 503760.0 0
272767.0 508544.0 0
278296.0 506381.0 0
283754.0 507581.0 0
287126.0 504904.0 0
291447.0 503567.0 0
297002.0 502805.0 0
295098.0 507804.0 0
302444.0 504458.0 0
299085.0 507222.0 0
307550.0 505769.0 0
317745.0 506651.0 0
322008.0 504578.0 0
326599.0 507608.0 0
332363.0 506005.0 0
337700.0 504438.0 0
342800.0 506965.0 0
347992.0 505896.0 0
354510.0 503493.0 0
351857.0 508133.0 0
360507.0 503868.0 0
365723.0 505624.0 0
368086.0 503584.0 0
370092.0 505748.0 0
375274.0 503947.0 0
381350.0 505198.0 0
389286.0 505348.0 0
393160.0 503379.0 0
394230.0 507437.0 0
397835.0 503778.0 0
406163.0 504105.0 0
402139.0 506541.0 0
410626.0 506940.0 0
413753.0 503996.0 0
415467.0 507373.0 0
417971.0 503704.0 0
426977.0 505361.0 0
422183.0 507261.0 0
430369.0 507323.0 0
431068.0 503946.0 0
434136.0 506597.0 0
438808.0 505907.0 0
443155.0 506806.0 0
446938.0 505487.0 0
456392.0 506265.0 0
461034.0 503856.0 0
460789.0 508719.0 0
466030.0 508225.0 0
469346.0 505633.0 0
473326.0 504745.0 0
477132.0 503893.0 0
480011.0 505446.0 0
482356.0 509487.0 0
484166.0 504757.0 0
487345.0 508746.0 0
489065.0 504943.0 0
494358.0 504370.0 0
497890.0 503307.0 0
497490.0 507361.0 0
3204.81 515085.0 0
7784.8 512938.0 0
12278.8 512746.0 0
17286.1 510454.0 0
23636.6 509254.0 0
24720.1 513151.0 0
28561.8 509392.0 0
27588.9 512659.0 0
31959.0 511649.0 0
35323.3 509507.0 0
38833.6 511492.0 0
43186.3 509381.0 0
48126.5 511364.0 0
54509.8 512475.0 0
60007.0 512814.0 0
64365.7 509426.0 0
70210.3 512937.0 0
75811.4 512735.0 0
79640.8 508940.0 0
81319.8 513348.0 0
83670.2 509838.0 0
86413.2 512947.0 0
91061.0 511350.0 0
95750.9 510771.0 0
101706.0 512067.0 0
108516.0 510200.0 0
112113.0 513151.0 0
115518.0 511758.0 0
118844.0 511558.0 0
124085.0 510171.0 0
128529.0 513159.0 0
132875.0 512288.0 0
135062.0 509003.0 0
137739.0 512849.0 0
142328.0 511262.0 0
147926.0 510226.0 0
152480.0 510078.0 0
158536.0 509963.0 0
164177.0 511017.0 0
168384.0 510052.0 0
172806.0 513130.0 0
176075.0 508606.0 0
178530.0 512068.0 0
183905.0 510060.0 0
189088.0 508439.0 0
192583.0 511955.0 0
196853.0 510578.0 0
204754.0 509130.0 0
201175.0 512477.0 0
209318.0 511105.0 0
218826.0 510386.0 0
226678.0 508618.0 0
240959.0 509119.0 0
276695.0 511372.0 0
280628.0 510956.0 0
284527.0 512294.0 0
289646.0 509657.0 0
298156.0 511674.0 0
302693.0 509295.0 0
307085.0 510138.0 0
312444.0 508688.0 0
317218.0 510896.0 0
321532.0 509941.0 0
330642.0 511641.0 0
337214.0 510211.0 0
342482.0 512588.0 0
347296.0 510496.0 0
351632.0 512972.0 0
357249.0 508896.0 0
362814.0 508927.0 0
360671.0 512529.0 0
367640.0 509461.0 0
372968.0 509948.0 0
378446.0 508961.0 0
385104.0 508622.0 0
381530.0 512297.0 0
390631.0 510997.0 0
398234.0 508486.0 0
396174.0 511820.0 0
405970.0 508914.0 0
401440.0 511742.0 0
409521.0 511208.0 0
413718.0 511774.0 0
418289.0 510285.0 0
422731.0 512569.0 0
427307.0 510108.0 0
432242.0 510860.0 0
436684.0 510007.0 0
435737.0 513864.0 0
441199.0 510574.0 0
444599.0 513593.0 0
446171.0 509822.0 0
451522.0 509118.0 0
449125.0 513639.0 0
456396.0 510415.0 0
454081.0 513742.0 0
463748.0 512129.0 0
468028.0 512668.0 0
471846.0 509153.0 0
476963.0 507951.0 0
475599.0 511678.0 0
478758.0 511754.0 0
481847.0 514025.0 0
487793.0 514214.0 0
492440.0 508491.0 0
497985.0 511436.0 0
2021.67 519762.0 0
9658.49 516707.0 0
5988.33 519146.0 0
16010.7 515636.0 0
21222.8 514559.0 0
26281.9 516614.0 0
22612.0 519137.0 0
30467.9 515519.0 0
35523.9 515217.0 0
42451.7 513930.0 0
39979.5 518153.0 0
43305.6 517310.0 0
46413.9 516119.0 0
50502.9 515208.0 0
53537.8 517008.0 0
57441.8 516801.0 0
61273.8 516926.0 0
65083.7 514411.0 0
68406.7 517187.0 0
73089.7 517841.0 0
78787.9 517569.0 0
84075.1 517420.0 0
93694.1 514574.0 0
89570.7 517005.0 0
97471.9 515719.0 0
101604.0 518157.0 0
107188.0 515019.0 0
116525.0 515476.0 0
121620.0 515255.0 0
126302.0 517659.0 0
131814.0 517123.0 0
141835.0 515980.0 0
145332.0 513599.0 0
149384.0 514845.0 0
145931.0 517223.0 0
154088.0 514495.0 0
151883.0 518160.0 0
158241.0 515766.0 0
162677.0 515029.0 0
167698.0 515025.0 0
176407.0 516661.0 0
183001.0 515568.0 0
188077.0 513484.0 0
293715.0 513978.0 0
304316.0 513979.0 0
309689.0 514578.0 0
314921.0 514347.0 0
319331.0 514248.0 0
325707.0 513241.0 0
334307.0 515534.0 0
329324.0 516325.0 0
338792.0 514924.0 0
341643.0 516914.0 0
346994.0 516695.0 0
352746.0 518168.0 0
356536.0 514645.0 0
361425.0 516877.0 0
365065.0 513430.0 0
370067.0 514644.0 0
373662.0 516079.0 0
376989.0 514066.0 0
385793.0 514057.0 0
381374.0 517403.0 0
389746.0 515973.0 0
393696.0 515554.0 0
398697.0 516835.0 0
403411.0 515963.0 0
406378.0 513523.0 0
410279.0 514385.0 0
408219.0 518229.0 0
413347.0 516971.0 0
418075.0 515059.0 0
422890.0 517640.0 0
426970.0 514946.0 0
431535.0 515583.0 0
435569.0 518250.0 0
440241.0 515895.0 0
446277.0 517593.0 0
451740.0 518431.0 0
456177.0 517058.0 0
459344.0 514017.0 0
460440.0 518672.0 0
464502.0 516496.0 0
469066.0 516829.0 0
472591.0 514270.0 0
477436.0 515814.0 0
482105.0 518240.0 0
489627.0 519592.0 0
493920.0 512858.0 0
493263.0 517416.0 0
497571.0 515565.0 0
4048.19 523604.0 0
9475.64 522063.0 0
13293.1 519064.0 0
13810.9 522985.0 0
17956.7 520235.0 0
26206.2 520779.0 0
30240.9 519739.0 0
35389.8 521072.0 0
40738.9 523514.0 0
44497.1 520213.0 0
49688.4 520094.0 0
55105.6 520716.0 0
57224.6 524017.0 0
59748.1 520621.0 0
64424.8 519423.0 0
66659.9 523753.0 0
69316.7 520464.0 0
71729.3 523251.0 0
76478.9 522296.0 0
81691.9 521770.0 0
86792.5 521804.0 0
91263.6 521545.0 0
94418.8 518827.0 0
98135.3 521459.0 0
102378.0 523027.0 0
106109.0 520161.0 0
111765.0 518880.0 0
114462.0 523581.0 0
117104.0 520188.0 0
121754.0 520282.0 0
129348.0 521027.0 0
133484.0 522123.0 0
137203.0 518416.0 0
139592.0 522525.0 0
143282.0 520446.0 0
148303.0 521048.0 0
155644.0 518706.0 0
160579.0 520298.0 0
338116.0 519038.0 0
342870.0 520345.0 0
349849.0 521016.0 0
353488.0 523139.0 0
357551.0 519935.0 0
362295.0 521788.0 0
366441.0 518556.0 0
368396.0 523302.0 0
371808.0 519580.0 0
376525.0 518772.0 0
378576.0 523186.0 0
383526.0 522130.0 0
386797.0 518883.0 0
388102.0 523339.0 0
391557.0 519885.0 0
396109.0 521595.0 0
403595.0 519653.0 0
412488.0 522231.0 0
417596.0 520190.0 0
422345.0 522831.0 0
428211.0 520301.0 0
433121.0 521332.0 0
437617.0 523394.0 0
442614.0 520750.0 0
447676.0 522575.0 0
452651.0 523812.0 0
456566.0 520941.0 0
460739.0 522825.0 0
463556.0 520364.0 0
467338.0 520392.0 0
464898.0 523963.0 0
473022.0 519261.0 0
470428.0 523775.0 0
474699.0 523536.0 0
478133.0 520895.0 0
485872.0 520026.0 0
490864.0 522590.0 0
494307.0 521878.0 0
497905.0 519870.0 0
497794.0 524177.0 0
2910.38 528928.0 0
7783.21 526836.0 0
12711.6 527492.0 0
17221.1 525281.0 0
22676.0 524458.0 0
28500.7 524510.0 0
31532.2 528301.0 0
32510.5 524581.0 0
36059.6 526534.0 0
46281.7 524564.0 0
42991.0 528337.0 0
52461.5 525463.0 0
57159.0 528072.0 0
61492.5 525293.0 0
65318.9 528643.0 0
69817.0 527319.0 0
74569.7 527157.0 0
79804.5 526576.0 0
85042.8 526732.0 0
90274.0 526031.0 0
94525.9 523853.0 0
98400.0 526086.0 0
104219.0 526280.0 0
109080.0 525189.0 0
114124.0 527881.0 0
118982.0 524540.0 0
125708.0 523813.0 0
358351.0 524958.0 0
373667.0 524167.0 0
384617.0 527377.0 0
392542.0 524751.0 0
400819.0 523328.0 0
396974.0 526979.0 0
402876.0 528029.0 0
406638.0 523875.0 0
410906.0 527114.0 0
417329.0 525416.0 0
426539.0 525414.0 0
423093.0 527770.0 0
431763.0 525909.0 0
436660.0 528930.0 0
442615.0 525203.0 0
446378.0 527269.0 0
451434.0 528994.0 0
457064.0 525572.0 0
461687.0 527464.0 0
467557.0 528653.0 0
478113.0 525467.0 0
473582.0 527935.0 0
482529.0 523711.0 0
480795.0 528250.0 0
487508.0 524107.0 0
492334.0 526919.0 0
497574.0 528687.0 0
1224.39 532677.0 0
3754.87 533085.0 0
7777.44 531964.0 0
12819.4 532392.0 0
19686.0 530415.0 0
26221.3 529723.0 0
38602.4 531175.0 0
44415.7 533246.0 0
48274.5 529423.0 0
53291.2 531062.0 0
61045.0 530221.0 0
64267.0 532669.0 0
71792.1 532529.0 0
77604.7 531302.0 0
407168.0 528984.0 0
414738.0 530329.0 0
420122.0 531448.0 0
427535.0 529855.0 0
432367.0 531670.0 0
438456.0 533138.0 0
441893.0 529722.0 0
446951.0 531759.0 0
457180.0 530847.0 0
462855.0 532811.0 0
471807.0 532984.0 0
477526.0 531104.0 0
485706.0 529094.0 0
490199.0 531848.0 0
494322.0 531516.0 0
497912.0 533153.0 0
16275.5 534087.0 0
POINT_DATA 5000
SCALARS Radius float 1
LOOKUP_TABLE default
5258.36 3163.97 5812.43 5580.89 6810.52 5120.0 6182.6 5492.18 3951.75 5061.3 4499.64 3642.12 5542.27 5122.66 5906.14 7513.1 5254.28 4402.52 4436.4 5733.48 3588.44 5553.16 6110.27 5415.48 3863.18 2356.98 4998.37 5351.6 5867.73 4715.55 5013.56 4375.68 5054.98 5484.19 5170.02 3557.27 4688.68 4517.56 4182.53 4672.91 5645.7 5176.86 4366.19 2938.66 3672.51 4008.92 5840.26 5073.35 4834.9 5085.53 5484.83 5538.89 4730.36 6059.59 2720.68 5701.86 4238.81 6030.06 4468.59 5325.02 5200.76 4927.31 5185.34 4432.58 5903.42 3761.32 3955.56 5292.64 4118.05 5065.13 5936.02 4940.78 5561.06 5670.04 6044.04 5325.36 6759.9 7021.47 5926.61 6051.14 4955.55 3563.63 5885.03 4345.55 5246.2 5017.13 4862.64 3673.74 5205.43 6684.56 2635.86 3968.64 4688.67 6166.5 4385.06 3615.22 4231.61 4290.3 5305.17 4380.59 3379.84 6716.79 3850.77 5546.39 5945.65 5418.62 5416.38 5493.32 5740.68 4277.89 4195.44 3261.21 5836.15 6704.06 2837.58 3653.41 5600.93 3871.88 3856.01 4827.23 4390.66 4911.47 6116.18 7447.37 4924.6 4733.32 7184.19 3867.67 3942.53 4861.08 4827.82 7613.27 4133.88 4094.62 6230.49 7054.71 4601.27 3641.64 5747.75 4796.33 5539.32 6496.85 5541.59 4124.71 5279.39 6337.56 5803.39 4381.97 3255.82 5242.73 2812.98 5603.15 2899.43 2924.37 4065.69 5399.73 4003.05 3607.45 4805.87 3589.27 4951.03 4665.12 4927.02 6483.19 4174.52 5109.54 5489.43 5054.25 7325.81 5360.19 4874.39 4839.34 2980.99 5083.08 5728.85 5525.39 3998.5 5863.59 6257.19 4024.3 4737.14 4695.45 4660.72 5390.22 4712.33 5227.21 5759.91 4333.2 3997.1 3936.02 3383.4 3856.1 5980.74 5816.2 3829.13 6458.82 3091.3 5527.54 5573.7 4055.8 4727.62 4794.96 5206.78 6425.26 6186.19 4840.01 6834.49 5938.34 6394.38 5555.28 4686.65 5834.74 5556.96 3888.21 6038.78 5697.78 5123.52 3260.67 4295.38 3038.33 4780.03 4044.71 4487.31 5693.81 2540.31 4138.16 5789.98 6138.47 5697.4 4005.44 5280.17 5028.96 5143.58 4484.76 5611.2 4220.65 7933.0 5173.87 5380.13 5118.27 5169.36 5932.23 5581.75 5788.23 6052.7 3921.18 4667.36 4392.68 3554.9 5495.39 3996.0 4002.16 4778.34 4684.5 6029.66 6302.8 4270.95 6038.2 5555.88 6732.43 3866.16 6362.12 5152.36 4511.82 5826.64 6820.42 4455.12 4816.2 4894.16 4896.52 5711.87 5791.61 3666.57 6392.01 3798.62 5891.05 6902.81 7199.21 5529.52 5252.48 5542.21 4015.92 5708.81 5120.49 5043.05 3486.22 4414.54 5409.61 5262.61 5094.81 5713.22 5861.71 3183.98 5017.78 4524.28 3794.63 3778.1 4727.24 6959.81 4829.35 6321.41 4941.22 3372.79 5282.64 4479.66 5308.1 6644.76 4254.17 5615.42 4091.31 4523.7 6124.89 5481.78 5924.89 6894.71 5551.36 5201.36 4306.53 6135.57 5972.06 4312.67 4359.04 5015.69 6175.81 6677.09 5813.4 5201.67 4089.76 4751.02 5184.56 3192.41 4715.72 3369.13 5367.2 3043.85 6730.19 6372.62 7565.34 5255.32 5337.48 6084.86 4937.14 3307.12 4467.94 4933.21 4850.81 6038.14 5024.9 5659.17 5998.38 4270.24 4989.15 4947.52 4164.13 4520.1 4642.34 5874.89 4305.57 3791.79 4293.03 4754.05 5526.55 4951.47 6084.93 4987.87 3315.57 4669.66 4808.52 5461.13 3599.45 5655.21 4907.89 5629.19 4937.02 5637.59 3586.91 3115.91 5478.92 5094.44 5375.47 4723.12 4717.05 5287.2 4562.29 5423.8 5013.13 5080.66 3417.33 4926.42 5153.74 4165.81 4424.7 4389.21 4128.98 4925.44 5246.61 5215.15 5046.33 4764.96 5053.92 5607.24 5839.13 4726.76 5090.24 5091.39 5923.5 2240.39 6756.95 6037.08 4049.23 3103.0 5601.05 4948.92 4516.43 5810.84 3748.24 4230.54 4655.49 6163.38 4566.18 3459.9 4809.42 4964.09 5856.11 4109.88 4234.94 4980.85 5714.58 5110.45 5248.77 4528.09 3556.85 4083.97 3895.51 6291.51 6246.22 4307.28 5804.71 5020.12 6352.26 3735.44 4073.93 4645.41 5096.78 6324.23 4382.74 4749.8 4384.42 4362.19 4493.48 5082.6 4997.27 4093.08 5543.27 3327.49 3960.8 4923.9 4973.78 3329.99 3947.47 5208.32 4607.02 3296.27 6673.96 5174.89 5882.89 4100.38 4188.32 5538.93 5727.3 4242.52 3847.38 4786.6 4907.06 5163.9 4433.59 5740.84 4973.83 4612.68 4727.24 4651.28 6355.42 5690.56 3693.63 3937.74 6061.47 4449.22 5628.24 5992.26 5365.89 5070.39 4613.31 5091.68 4713.25 6243.0 5441.96 4288.3 5370.52 4739.42 3697.96 4899.11 4278.07 4745.45 3818.59 3057.03 5356.51 5495.68 6043.3 5530.87 3912.37 4310.18 3320.52 4151.94 5244.78 5478.47 5762.84 6142.37 5119.37 3982.23 5806.08 5243.29 4853.39 3130.65 4511.54 5004.67 5409.33 5196.0 6119.09 4178.15 4204.84 7531.29 5069.25 5935.03 5048.89 3161.47 3435.9 3991.03 4652.29 5774.81 5027.98 5344.77 5097.87 4723.48 5281.28 2631.9 4087.15 4863.72 5489.34 5952.75 6445.94 4281.49 4129.43 4929.8 5927.43 5492.26 6640.13 5351.39 4336.42 3402.32 7589.94 4466.03 4898.94 4733.04 4755.47 6390.78 6826.57 4495.87 3746.31 4788.87 5346.27 7267.18 4143.08 4758.21 5002.48 5708.14 4262.82 5537.72 4320.28 6342.25 4685.34 6327.9 4220.88 6519.71 3092.35 5210.03 4583.31 4306.11 6022.17 5903.66 5419.37 5985.29 4247.23 5788.66 4694.83 4485.99 3903.75 5475.8 7435.25 5498.32 5543.46 6475.1 6255.18 7500.97 3920.42 6332.36 5542.14 4218.06 3843.58 6082.81 5449.18 3629.96 4714.54 3320.11 5507.24 4503.89 6851.54 5313.66 4528.49 5275.32 5512.23 4268.65 4649.22 4354.08 5509.42 4520.62 5475.7 5936.36 5314.69 6050.81 6022.72 5527.33 4969.21 2691.29 6256.02 4277.88 6623.85 8332.24 4931.53 6691.39 5293.9 3191.99 5367.52 4048.37 5030.91 4322.15 4659.59 5101.59 3813.22 5570.3 5935.47 2651.49 4711.62 4114.24 5349.31 5394.55 2976.22 4256.43 2682.24 5229.48 5415.19 5127.16 4249.46 4244.99 4643.31 5965.81 6917.52 5402.21 4668.71 7228.46 5102.36 5787.31 7134.64 4602.25 5480.13 6142.94 5110.37 4931.38 5664.98 4548.16 3485.26 5025.39 4377.07 3695.36 3848.93 6020.48 5234.29 5200.05 4645.58 5670.2 5094.52 5928.32 4016.18 5526.75 5435.74 4275.57 5560.26 5327.45 6185.89 3702.37 2330.66 4177.19 3990.25 4752.51 3691.0 2845.98 4880.14 5320.92 3948.23 5228.18 4342.9 5978.82 6122.55 5978.9 4270.53 4736.58 4792.73 3240.09 4556.36 3369.23 5264.06 3688.8 4515.71 5893.5 4547.19 3817.13 3963.86 5076.35 5273.35 4091.8 5181.4 5166.79 4662.56 3950.63 4946.74 4612.62 3619.07 6385.23 4467.04 2983.99 3997.96 5660.85 4750.17 3758.07 3587.05 4373.45 4989.09 6362.14 5269.18 6719.88 4406.1 6155.31 6308.71 2739.94 4790.08 4194.5 5082.47 4329.05 5513.6 4901.41 5358.59 6202.55 5023.15 3844.9 4871.44 6375.99 4853.02 6259.23 4998.21 3457.48 3405.98 3931.07 5417.15 5996.33 3688.16 4681.72 6631.19 5817.25 3460.94 2614.4 4439.35 6184.4 6229.37 3828.81 4982.31 5289.52 5034.59 5314.85 5065.11 5911.67 4223.33 4187.56 3629.62 4840.84 5138.31 3708.04 4551.24 3610.4 4621.75 6387.01 6338.89 7111.16 6480.17 4564.34 5088.44 6248.81 6079.11 4256.67 7440.72 3949.6 4945.39 5661.62 4867.08 5626.61 5407.78 6363.92 6632.99 6205.93 5309.98 5830.72 4307.48 6718.19 4305.43 4553.56 4942.77 3927.99 5069.84 5868.82 5329.64 3323.28 4051.44 4301.06 4997.27 5344.25 6013.14 4581.13 3856.59 2765.2 4219.07 5372.61 5584.06 3686.21 3838.56 6445.22 5872.05 4962.77 4427.28 5323.3 3082.32 6430.39 5376.71 4448.13 5703.6 6648.68 4713.74 5061.98 4537.6 4923.24 4419.61 7177.44 4407.87 4082.57 5450.44 3848.54 5080.18 5941.4 5266.5 4716.19 4050.9 5135.69 5344.0 3456.98 5191.63 4501.51 5379.87 4602.86 5925.6 5572.95 5413.79 6723.16 5402.24 5013.42 5651.07 6101.92 4635.6 4765.02 3658.37 5370.85 5629.39 5070.29 6326.18 4807.28 5075.55 4266.03 4084.49 6179.96 5703.07 5147.36 6260.79 4563.46 3963.76 4236.14 5282.91 6510.17 4454.63 4263.33 4066.38 6695.82 6049.55 5514.76 6405.76 4290.14 4593.7 5987.17 3979.82 5586.81 5006.58 4746.52 5130.91 3868.18 4948.5 4527.02 5210.48 7552.94 3627.55 4409.63 6239.84 5865.39 3178.54 5949.46 6157.04 2684.03 3776.94 5246.47 4768.61 2261.36 4522.21 4220.03 5280.69 5449.46 4662.43 6113.54 4043.66 5169.9 5733.62 4425.84 5282.51 4871.96 5331.02 4523.88 5742.65 5709.62 4241.89 5835.78 4877.67 6045.46 4043.57 4138.42 3824.16 5011.31 5077.33 3689.45 3948.17 5383.07 4531.14 4959.34 4519.22 4602.85 7644.38 4051.34 5521.25 5278.36 3661.9 5136.08 5107.23 4010.57 4187.31 5506.19 6191.29 6719.94 6923.84 6166.29 5294.77 4709.05 3077.84 6553.94 5255.18 3797.33 3004.16 4460.92 7256.35 5945.89 5592.32 4800.69 3279.1 5054.74 4099.77 4020.32 3498.2 4245.72 4763.45 3815.26 4481.53 4292.06 5330.45 6318.18 5045.38 5350.88 4247.15 4790.78 6552.22 6004.68 5379.09 6799.4 5222.16 5533.42 5558.68 3240.51 4599.38 7422.36 5161.01 4628.4 4950.67 5453.6 5409.63 5227.59 4630.82 5528.53 5726.66 5460.65 4767.78 3062.43 4105.55 4042.28 5912.61 4978.31 4402.67 4403.98 4981.9 4948.98 5941.72 5794.24 4150.99 6562.18 4478.15 5681.38 5147.67 5577.04 4986.77 5125.78 5452.83 4591.87 5178.99 6422.84 5534.94 5180.76 4502.18 3312.06 6218.95 4802.32 5533.72 3678.08 5730.33 5518.57 5463.48 4527.99 4543.1 4376.7 5190.61 6051.83 4298.15 4813.08 4263.16 6799.88 5860.67 4540.86 5426.78 4863.23 3555.86 6566.1 5381.16 4560.84 5227.52 4414.48 4537.32 5163.02 4127.74 4216.92 4704.72 5445.87 3771.48 5198.77 5423.0 5643.58 6034.41 4027.09 5197.52 5615.35 5801.99 4135.62 3361.26 4860.33 4983.39 4993.35 4690.55 5366.52 5146.37 7132.12 4836.16 5545.46 5680.94 5832.37 6550.44 3764.06 3973.12 4642.93 5941.9 6024.75 6642.76 5987.42 5990.52 5235.17 4340.76 4435.36 6386.78 5565.13 6086.96 6193.35 4541.21 4302.5 5908.1 4571.7 4107.03 4138.46 5215.05 5137.34 3975.31 5344.43 4373.47 6070.58 5490.43 6169.11 5266.22 5172.53 3685.13 3418.99 5226.97 5754.18 4480.95 4558.15 5417.8 6552.21 5227.02 4232.16 5151.11 5581.55 5193.01 8325.01 4440.81 4523.39 5829.22 5567.93 6109.49 3764.1 2967.38 5652.0 4421.12 5463.41 6065.22 5254.49 4221.28 4996.99 4470.61 2476.04 4656.78 4156.38 3066.13 6048.7 6009.88 4177.94 4344.58 4850.01 2775.04 3970.25 5198.29 4044.45 6035.6 4285.32 3627.82 4896.11 5022.28 4285.66 4318.48 6132.95 5008.63 4004.35 4270.74 6293.89 5132.68 6595.03 4350.12 5300.96 5670.0 4344.51 4707.06 3474.5 6348.03 3860.83 5732.27 4497.78 4835.83 5811.18 4779.5 4929.75 4237.98 6045.22 6649.96 4456.39 3701.27 4729.43 4631.83 4092.24 5105.16 5991.09 6006.16 5896.46 4742.68 4271.69 4810.12 3821.72 5526.14 5262.19 6449.45 4244.9 5339.38 4986.51 4763.96 3872.61 3930.79 3450.93 5293.51 5097.45 4446.06 5737.75 3603.51 3778.02 4095.75 2761.07 3834.43 6609.84 5135.96 5491.37 3781.77 5658.37 4792.39 4250.88 5434.47 5278.56 4243.79 6917.62 5332.65 4159.35 6451.33 6439.37 5225.33 4896.39 4614.3 4384.88 5233.78 5126.91 4562.74 4806.34 4164.68 4678.38 5634.83 6898.19 3633.87 7099.43 4470.4 4516.28 5311.03 6048.86 4238.4 5365.24 5255.12 4047.87 6625.18 5742.47 4185.61 4917.99 4367.78 3319.67 4076.59 4298.45 5222.51 6074.94 4972.17 5699.53 3475.67 3783.54 5527.23 7038.89 5146.37 3863.67 5433.65 5631.14 6137.8 5604.35 4442.22 3091.67 5413.31 4332.87 4303.19 3633.79 6887.27 6081.14 6008.49 3942.07 5480.83 5050.65 5448.61 5316.75 5495.84 3929.19 5347.48 6396.74 5315.4 5486.68 4611.53 6894.26 5094.48 6408.83 5576.92 4573.72 5323.91 5099.21 6969.28 4163.74 5636.4 5283.8 5164.1 4428.14 6464.15 6685.4 4222.77 5268.38 4805.33 4814.12 5067.56 5980.95 4887.76 4343.78 3012.99 6477.91 6316.56 4081.97 5514.84 5401.99 5421.53 3914.2 5653.9 5776.57 4827.33 6268.1 7443.72 5922.5 4374.35 5776.37 4011.77 4527.08 4287.63 5100.25 5805.86 5678.96 2681.29 4049.02 5296.29 6234.32 4586.19 4296.69 4570.98 5698.96 3665.95 6471.42 6372.13 6016.19 4124.49 4479.11 5714.25 4850.06 6332.01 5325.96 7044.29 4581.37 4013.38 7085.01 3352.35 6193.08 5263.3 4909.65 2735.53 4008.15 4811.32 6420.81 6400.08 5134.39 4256.57 4607.85 7144.24 5133.97 3600.43 5683.26 6600.94 5371.02 3784.5 3937.08 5022.8 4502.5 5499.11 2965.79 4410.55 3921.08 5346.68 4190.31 5020.71 5839.71 5997.88 4360.23 3755.95 4585.31 5010.04 5388.78 4275.07 6238.32 5825.38 6804.79 5369.5 5535.91 5404.01 3230.13 6176.67 5016.02 5412.24 4234.18 4920.21 3936.95 6069.3 5116.6 5887.01 4669.06 4286.49 5580.92 4715.58 4220.46 5784.3 4287.53 5598.74 4906.82 5131.24 5513.57 7055.53 5113.21 5252.34 5965.78 5083.41 5683.61 4558.46 7055.42 3836.45 5737.92 5662.55 5889.35 3056.7 5591.76 4394.56 6101.13 5599.7 5642.35 6918.35 6357.47 4793.65 5955.86 4533.37 5887.38 2779.99 6942.34 4049.16 5851.61 6153.94 3862.77 5168.35 6523.86 3747.03 7693.4 6184.88 4743.59 3317.83 5208.14 4450.7 3532.3 5769.98 6088.68 6070.3 5937.08 6155.1 6133.92 5013.67 4862.21 6125.34 4274.61 5443.58 5731.57 5464.68 6401.43 2685.81 5896.26 4510.8 4587.67 5951.81 4834.3 4066.57 6348.54 5156.76 4891.38 2949.12 6101.57 4532.89 6040.74 3856.53 5460.89 4848.46 5742.09 3658.05 6836.82 3858.17 5478.11 3477.1 4631.99 2783.85 5388.39 4356.49 4326.48 5829.32 4437.07 4396.25 5151.52 5973.33 2221.99 3583.21 4643.56 4788.58 5612.21 5260.34 5894.61 3719.84 4178.4 5729.23 5820.48 5782.6 7034.11 6261.42 2586.12 5433.8 5975.63 6444.77 6314.07 5687.85 5703.74 4747.55 4539.07 4475.83 7509.24 4146.81 5093.82 5756.75 3924.14 5212.43 6318.23 4206.98 5948.71 5932.07 4054.22 5260.85 2884.65 4648.21 4393.16 3311.29 5807.46 4595.12 3110.13 5030.15 4740.98 3728.18 3644.78 3185.39 5335.47 4526.81 3449.37 3763.05 5092.24 4347.74 5442.32 5291.9 4135.08 5067.46 5128.57 5046.21 5687.83 5196.67 5669.65 5206.48 4709.35 5934.22 6586.45 3780.23 5011.84 4359.62 5690.26 5253.55 5062.71 6946.21 5564.02 4497.59 4512.11 5759.46 6248.6 5708.99 6333.29 4558.47 5831.96 5064.79 4691.91 5480.3 3427.63 4840.44 6639.64 5216.26 5454.12 3687.65 5478.95 4058.87 5174.75 3851.85 4984.46 5048.55 4024.31 5844.72 3992.97 7228.94 5989.05 5393.65 4549.69 4961.99 4386.8 5526.31 6423.81 4078.93 6192.77 4312.15 5128.77 3994.07 5934.82 5491.9 6405.0 4219.94 5551.95 3918.87 4518.04 4009.62 4863.01 3101.75 4929.14 6000.7 5945.08 5004.23 6496.67 5876.71 5826.04 5474.8 5624.49 5339.78 4730.41 3471.03 4004.04 5696.88 5411.85 5607.14 6915.83 4844.57 6057.22 4156.2 6072.45 4289.17 5511.88 4470.98 4933.65 5950.04 6098.1 4231.83 2435.33 4074.48 4477.04 3614.96 4745.43 3886.68 5344.83 7046.11 4863.97 4449.98 6342.48 5439.49 4887.52 6571.31 4392.65 6413.15 6103.11 4955.16 4147.31 5950.88 2202.77 4441.22 5853.89 4149.55 6551.93 6484.43 4625.67 3485.54 4583.52 4501.78 4458.64 5633.61 5048.19 5907.46 6799.23 4659.16 4264.91 5369.08 5549.49 3580.58 5620.74 5356.79 5233.29 5139.5 5604.21 6442.69 3979.54 7493.3 6320.71 5226.0 4373.3 4648.04 4750.78 5029.78 3527.05 6262.72 3095.48 3664.11 3923.03 6608.73 5188.81 3745.84 4643.85 6062.05 5082.74 4203.26 4413.85 3999.94 6171.13 5092.37 4027.46 3901.8 4864.22 3497.9 5941.61 5782.48 4031.78 3735.24 6574.95 6817.57 6853.04 3420.08 4912.04 4255.34 7165.9 4701.5 4771.65 4036.91 5589.37 5110.11 6379.14 3634.5 6631.28 5420.67 5416.45 6459.51 4904.51 3288.01 5751.15 6201.86 5474.01 7554.58 3380.69 4140.4 4725.01 5966.75 3657.69 5510.9 6418.11 7122.87 4243.26 3572.94 4888.27 4153.84 5399.29 6740.71 4766.06 6487.56 5789.55 4874.18 2081.58 6605.86 4011.37 2511.46 2775.69 4778.82 4968.03 4312.56 3169.67 5204.04 4814.55 5304.13 3361.92 3306.14 5833.06 5944.09 6607.87 5698.77 4166.08 3365.82 6515.84 4163.5 5762.59 4861.06 4298.67 5873.69 3979.26 5960.66 4962.09 5654.31 3999.48 4831.47 6939.12 5563.79 4735.33 6853.85 4406.4 4020.4 3493.47 4596.75 2395.5 3374.08 4188.87 4498.25 5564.23 5151.21 5108.06 3573.73 5398.64 4693.52 4568.41 3624.7 5262.35 4320.42 4281.98 5783.48 4504.35 5012.97 4891.67 6818.91 3429.57 3503.65 5569.2 4027.63 5350.88 5305.59 6114.89 4330.58 5754.6 6870.97 5351.86 6056.87 5307.35 4342.18 3639.44 5166.89 5446.4 5725.37 5491.63 3868.62 4883.63 4505.28 5138.33 3492.83 6015.02 4922.49 5797.36 5119.86 4820.17 5423.42 4592.15 5084.17 4854.11 4901.2 4633.05 5657.36 6505.78 4612.06 6124.08 5012.5 5467.84 5029.47 5490.58 5876.64 4750.58 4863.79 4702.06 5395.14 3464.83 5117.47 4923.41 5374.51 6481.79 4123.6 4143.78 5320.28 7092.87 5224.12 4796.58 5750.71 4569.12 4472.17 4938.74 5470.77 6222.42 3474.39 5516.95 5328.22 4151.76 3905.51 4216.17 4721.02 3546.71 6484.17 4938.72 4254.37 5956.65 5931.77 5768.57 4222.4 5313.12 4914.45 4000.43 4698.87 3984.88 4661.03 5318.53 3344.57 5220.76 5160.59 4732.09 5138.2 7001.83 4593.7 4349.13 3766.69 5188.53 4521.75 6746.66 5410.33 4642.74 6735.97 3636.15 5483.7 5135.63 6384.7 3152.86 4355.83 3896.27 5963.36 5230.02 5169.48 6016.08 6064.71 4731.21 6102.98 3425.69 4971.29 3743.76 6280.13 5244.22 5585.14 5001.58 7039.98 4729.42 5089.26 3886.72 4901.44 5971.22 2275.45 6522.59 4909.31 5711.62 4785.25 6519.43 3619.79 5461.55 5053.95 4270.15 3298.2 6710.88 3967.48 5926.11 2477.07 6213.04 4538.95 5724.64 2990.77 3163.78 4970.88 4925.63 5965.15 4763.66 4850.14 4666.81 6739.08 7042.12 4797.52 4471.58 5463.38 3637.61 6098.14 5945.21 3493.7 6470.3 6345.13 4200.03 5599.49 5313.22 3436.15 4719.7 4097.57 5711.11 5005.85 5325.44 4575.94 5021.88 5102.75 4597.29 5938.17 4200.09 5097.95 4795.43 2928.82 4638.18 5498.42 4196.37 5351.56 6448.66 4453.97 6945.98 7317.04 6412.67 6204.65 4482.9 6550.4 5513.8 5036.98 4120.07 4882.66 3840.21 4081.34 3908.56 4844.83 5244.78 5377.37 5652.87 4311.48 5018.69 6394.19 5952.38 5807.52 5087.14 5518.11 4192.21 5712.35 4743.9 3124.7 3719.11 6060.17 5153.18 6711.21 5510.45 4236.86 3684.15 4730.14 5832.29 4438.76 6456.58 4159.81 5244.98 3814.65 5415.45 4998.22 5533.19 3776.8 5417.21 6156.21 6602.43 5435.19 3562.79 7093.13 6306.21 6667.68 5253.37 5235.11 4497.31 5211.38 3830.46 4305.16 4721.32 3293.56 4888.6 5882.65 5092.28 5078.86 4780.2 4918.77 6326.39 5163.55 6817.32 5501.93 5462.21 6343.14 5374.98 6049.79 6313.06 5226.56 5274.19 4050.08 4901.07 5452.42 5186.3 5017.5 4893.49 5966.61 4834.87 4514.79 5760.22 3672.21 4509.89 6752.75 5269.38 5607.3 4811.76 5211.6 4172.6 4745.79 5806.31 5456.71 3556.79 3503.41 4908.75 3971.08 6556.26 5684.25 5438.92 4244.49 4775.04 4952.52 3646.95 4954.76 6334.53 4749.96 4906.11 5869.67 4387.39 4899.73 4564.1 5457.66 4848.14 5366.22 5973.89 6193.73 5254.24 3742.11 5701.52 3597.43 6776.22 4467.13 5321.17 3877.8 6273.6 5902.67 5454.11 2606.51 5393.76 3994.39 4941.02 3864.92 6006.89 4618.73 2955.36 3965.3 5792.98 3668.93 4960.64 5096.43 4983.3 6592.93 6350.71 4383.56 6104.26 3568.28 4990.79 4798.17 6865.76 5424.46 4953.1 2895.63 5266.01 6449.64 5767.9 6515.8 2040.66 4857.84 6031.67 6413.11 4739.14 5529.42 5274.14 4636.5 5257.12 4819.73 3382.7 4434.19 4903.82 6471.55 5100.1 4940.42 3954.91 5085.71 3703.1 5923.4 4623.61 4319.79 5960.56 6643.85 5774.97 4020.95 5862.86 2315.64 4703.08 4390.41 4890.5 4488.85 6113.95 3981.07 3731.84 3554.48 4579.69 6496.52 4997.83 3991.42 3718.69 5578.94 4388.63 4940.28 6192.0 2216.82 5885.28 6579.31 5323.55 3004.34 3022.6 3804.5 5452.36 5375.1 6486.37 6083.28 6100.73 4198.94 5470.04 5212.37 4211.82 6003.78 2628.22 4901.29 4124.76 7200.89 4050.03 4813.33 4147.49 4802.98 4833.55 4705.68 5384.86 7224.99 4869.48 3623.19 4658.24 4745.16 5825.55 5509.51 3199.4 4316.5 7261.51 4968.14 4914.03 4158.91 5086.29 5144.56 5311.55 4869.25 3360.86 3034.16 5545.21 4763.4 4333.87 5024.32 4708.17 3779.45 2741.2 5806.61 4983.1 5784.37 6119.99 7123.04 4128.1 5372.82 4385.81 4402.17 4034.05 6436.74 5583.61 5425.98 6063.64 5166.79 4516.53 5996.66 5818.95 3940.49 4093.99 6464.8 5079.22 5384.76 2978.76 7016.27 6622.11 6138.12 4689.15 4428.78 4965.89 5746.28 6790.73 4371.99 4946.42 5659.95 5187.7 5409.66 4082.47 3561.29 6090.91 4537.14 2965.01 5203.08 6235.57 6263.44 5412.31 4863.27 3492.19 4584.5 5122.63 6766.43 4118.84 6934.37 5916.16 3423.15 5010.2 6123.03 6098.95 5453.98 5653.03 5148.08 4157.29 4777.03 7610.49 4246.61 4286.17 6028.09 4609.02 4896.65 5561.74 4532.7 4504.86 5975.23 4788.08 5079.64 996.652 6163.54 6500.49 5965.58 3352.34 4607.18 5058.51 3899.7 2403.72 5134.33 5419.57 5162.67 5760.98 5469.35 3835.81 4019.34 5510.96 6653.07 5532.72 4697.91 4584.81 5071.98 5719.79 4371.08 5148.1 5224.64 5949.73 5214.63 3495.68 4312.48 5139.18 5527.13 4278.57 5049.99 5551.43 4201.03 5136.87 5001.87 5638.7 3667.93 5790.42 5813.79 5293.13 6010.59 3682.35 3756.96 4009.24 4446.58 5401.4 7778.01 5690.96 2460.79 5798.38 4653.83 4456.11 4125.9 5096.24 4986.71 6479.39 4122.92 4997.91 4405.42 3598.08 3604.14 4908.49 4452.54 4599.81 4962.21 4684.44 5884.9 4406.05 4749.59 5089.62 3685.65 4858.44 3468.42 3685.13 4590.55 4673.35 5243.43 3876.21 4741.26 5920.32 4655.16 4916.22 4186.6 3701.16 6022.7 4152.85 3295.83 5551.9 4219.78 4963.34 5499.39 5644.82 6413.02 4440.57 6736.03 5374.07 5548.29 3087.09 3623.87 7480.41 3766.55 5163.77 5469.13 6027.62 5765.42 4976.12 5530.49 4817.16 4304.41 5660.55 3989.7 5107.0 5069.89 3684.56 6212.15 5327.75 4946.23 4783.07 6200.63 4852.58 6816.66 3217.67 3844.54 4473.29 5034.69 4509.46 3538.53 4680.69 6127.39 5640.12 4972.18 5078.59 5329.76 4365.58 5214.4 2646.13 4636.53 5193.58 3629.49 5399.43 5766.05 5117.64 3916.42 4507.46 3422.21 5429.3 5603.68 4944.51 5610.95 3220.8 5179.17 5579.39 5270.51 5490.75 4979.52 4407.79 6548.29 5783.94 3990.96 6370.33 6318.25 5081.08 4202.77 6864.06 4493.79 5684.05 4644.88 4279.44 3142.09 4028.22 7350.26 5591.77 5182.13 5167.53 5906.57 5127.82 5053.15 5910.86 5124.17 3862.91 5805.1 5366.11 6171.71 5039.12 7382.3 3908.98 2995.67 4668.88 4022.56 6589.82 5381.54 5698.23 5522.21 4680.94 5810.77 5828.35 5089.1 5799.69 2711.19 5876.72 5571.72 5689.26 5869.4 4992.42 5297.19 5251.4 3867.19 4940.84 4345.67 4188.3 4453.64 5019.93 5081.78 4459.28 3885.86 5235.29 5453.3 6116.33 4260.92 4479.94 6250.23 4407.9 4435.51 4718.54 7234.66 8659.64 4055.54 4588.7 4886.12 5683.95 6107.89 4233.8 5206.33 5065.26 4446.84 3746.36 4892.44 4741.28 6789.23 2205.51 4215.2 5361.87 3703.49 6813.72 6502.97 3205.68 4757.2 5969.37 4928.35 5241.75 5849.53 3763.9 4420.11 4651.99 5084.5 4918.64 6638.25 6562.03 4815.47 4759.99 4368.12 3889.98 5490.64 5695.44 5034.34 3769.2 3468.45 5036.14 4526.34 5042.75 4598.92 5241.22 5673.75 6647.08 6263.3 3422.29 4537.03 4501.05 5124.34 4114.2 4326.06 5352.24 7362.42 5836.14 5473.05 4932.56 6008.81 5192.49 4899.19 3487.31 5058.34 3768.46 3852.82 6110.48 4507.36 7541.76 4775.49 5003.3 6245.52 4681.29 6239.68 7320.78 3845.9 4064.58 3419.87 4834.44 3628.89 4824.81 4234.88 5027.43 4384.28 3772.3 6328.42 4855.01 7307.21 5522.75 7300.58 3608.06 4714.83 4028.32 5474.15 5236.43 7519.2 3809.69 4771.13 4099.92 3208.96 7051.9 5285.07 3858.06 4255.85 4680.14 5097.69 5511.6 4517.73 6261.75 3757.34 5177.64 2908.7 6415.61 4338.08 6134.99 4255.31 5191.08 5424.88 5148.58 3838.47 2588.37 4062.5 4199.45 3583.49 3548.39 5887.15 5415.85 4858.51 4207.54 3375.28 6599.66 4603.5 5625.65 6419.12 4936.96 4481.76 4301.61 3184.64 5375.12 5452.78 4356.36 5473.72 5175.89 2603.64 2856.55 4553.68 3894.64 4268.19 5232.85 4374.74 3758.22 4062.56 4583.94 5046.31 6240.42 4337.32 1937.5 5146.0 4731.53 4788.7 5721.14 5863.0 4987.28 6206.98 5549.71 4410.82 6443.99 4967.51 7212.97 5698.53 3856.73 4450.49 5887.71 5635.32 4827.61 4316.45 5409.08 5481.64 5360.67 4778.37 5134.17 5968.54 4904.35 3247.97 5592.54 4358.81 4904.37 5034.46 4651.64 5793.12 5757.29 5469.17 5537.34 4373.2 5884.99 3918.94 5726.42 6643.4 5575.11 5487.63 6599.28 7145.73 4932.29 5800.81 5499.59 4990.23 3220.29 5749.6 6016.87 3125.13 4141.21 6715.73 4439.71 4174.44 5782.43 5769.14 5667.51 4456.26 5944.3 3563.14 3381.82 5867.64 5135.5 6208.9 6633.61 4923.57 3340.09 6059.93 4884.59 4478.6 5217.95 4608.41 5895.77 4732.09 4765.72 4184.23 4833.46 3988.3 5857.79 5750.07 4039.91 6136.49 4642.66 6543.13 5276.7 5149.72 4752.14 5660.16 5037.06 4541.8 5842.56 6200.54 5713.03 4652.01 4928.27 5849.65 5134.67 3673.28 5775.31 5421.64 5052.84 4165.21 4366.74 5297.16 3950.27 5354.66 4647.67 3566.79 4214.44 5378.23 3629.44 4787.97 5374.67 6246.56 4981.43 4508.18 4061.6 6214.73 5064.67 5836.26 6618.21 2617.39 6666.67 5144.44 4826.52 3717.47 4051.18 5120.92 4685.4 4629.02 6006.16 5914.5 4288.45 4608.62 4577.73 5407.96 4071.75 5131.77 3186.07 5482.76 3745.02 5173.82 4887.73 3720.7 6297.99 4211.36 5378.24 3604.31 4538.89 5817.74 5661.6 3242.31 6099.28 5285.75 5385.03 3494.16 4169.15 5370.9 4074.16 4529.77 4325.13 6172.27 5390.33 3783.79 5278.54 5078.73 5729.92 5729.0 5016.46 5275.57 6224.13 5061.75 6022.78 3769.24 3661.67 4087.32 5517.65 6647.85 4674.9 5461.72 4361.24 6224.85 4168.52 3954.77 5403.97 3784.94 5106.46 6793.1 5166.05 4506.66 5515.73 5209.55 4708.31 5113.6 3873.92 4810.98 5431.29 4198.9 3619.72 5026.76 5091.22 5347.9 4646.51 4438.58 6282.38 4565.93 5640.72 4504.52 5602.53 6061.63 6355.68 4083.79 5484.36 4511.7 4144.57 4351.38 4187.94 4304.63 5980.59 5550.75 5933.7 4809.67 5021.77 4757.74 4687.64 4356.25 4378.3 5469.47 5411.02 4950.97 4989.56 5175.29 4863.96 3645.12 4094.73 5199.44 5580.34 3852.6 5009.83 5131.15 4110.59 4847.14 4706.5 3332.49 4215.0 4811.22 4474.83 3683.86 4918.76 5116.66 5003.78 5293.75 3299.24 4208.41 5730.61 5826.78 6358.93 4559.74 4383.68 6015.22 6063.44 4454.74 2904.46 6449.06 5512.44 4924.07 3200.6 4927.73 4602.57 3565.32 3419.07 3763.85 5710.33 5344.44 4626.72 4369.86 5115.42 5728.58 4082.4 6424.77 5918.95 5453.69 5689.56 6556.86 4898.29 3234.26 5372.25 4830.13 5620.88 5730.2 4941.52 5900.0 4308.49 4262.74 4581.1 6241.77 5317.19 4248.14 5192.92 5279.19 4179.87 7050.08 4786.66 4761.84 5370.1 5114.51 4009.68 2569.12 4622.73 7025.09 4161.32 5161.74 4433.12 3392.26 2549.95 7336.37 5138.93 4556.19 5368.66 4795.08 6562.92 4068.31 5501.73 3671.06 5077.29 7035.54 4564.41 4027.33 4983.43 4850.5 5951.86 6331.74 4252.18 4833.67 5023.41 5357.39 4659.88 5325.91 5851.63 7107.63 5073.02 2279.05 4867.7 4829.35 5788.97 6545.43 3953.55 4063.9 4075.28 4277.24 5263.27 6834.41 4469.54 4314.56 6300.92 7248.4 5161.1 3796.15 5036.58 3928.53 4419.71 5329.59 5776.96 4888.12 4244.21 5439.9 4588.99 5512.16 4617.55 4321.21 3197.63 3875.05 4287.16 3456.47 5471.74 4344.34 5966.42 5666.95 5210.38 5717.8 4489.99 5210.75 4548.45 4658.11 4551.26 6555.44 5658.14 6570.35 5114.07 4242.63 3269.54 4385.49 4263.18 7124.45 7142.95 5064.23 6061.85 5268.15 5819.0 6347.72 3460.93 5124.86 7168.2 4571.74 4096.86 4796.12 3622.48 5001.51 5385.86 6432.8 4209.0 4930.72 5485.84 5703.84 4335.79 5797.32 5432.04 4886.99 3921.27 3702.45 5265.63 3161.1 4431.06 5684.88 6523.78 4045.67 4645.86 5087.97 6005.95 4930.17 4519.03 5110.27 4745.44 5762.82 7360.12 4016.6 6223.98 3035.06 5580.44 5891.25 5095.52 5129.4 4746.15 3303.49 3720.38 4655.37 5585.25 5256.75 5099.9 6945.69 6406.8 7086.69 5648.78 4697.24 6875.73 3612.44 5226.42 6081.3 5233.76 5426.4 5763.05 5129.68 2820.07 5076.84 3791.41 4546.44 5657.55 4092.07 5727.79 4213.05 5212.92 4831.93 4224.3 4184.21 4700.07 3472.91 6760.92 5188.82 5615.84 4989.2 4464.73 4023.93 5868.89 8137.11 5291.05 6650.77 6045.67 6226.14 4209.49 4216.95 6119.63 5464.25 3498.16 5486.48 4247.69 4409.27 5301.47 4752.9 4947.24 6506.86 3540.11 5950.45 5391.48 4803.57 5088.57 4728.55 4923.43 4929.6 4568.64 4642.2 3919.62 4127.53 4945.0 4212.15 4585.04 5260.52 6102.49 5678.58 3469.18 2945.34 3185.09 5114.23 3372.95 5495.0 7407.91 5846.95 5716.42 5701.63 4620.95 5293.37 5368.93 4488.39 6121.56 5879.24 5740.78 5997.91 6824.53 4332.64 4742.82 6791.86 4422.23 6031.22 4820.68 3618.64 4171.02 3530.82 7012.36 5028.06 4002.99 5159.67 5587.3 5764.52 3572.73 3770.22 4390.64 5150.84 4608.01 4467.51 5339.82 5460.57 4085.96 5703.34 6668.98 4612.68 6649.52 5462.6 5821.49 5617.29 4262.19 5998.13 4597.88 4878.93 6275.25 6892.33 4758.84 4505.3 4731.37 5023.61 4672.86 6351.89 6530.78 5932.28 2960.5 5118.86 4298.7 4975.32 4183.4 6170.9 4733.79 5833.78 4436.48 5615.35 5758.98 5117.52 3967.76 6311.89 5866.91 4683.28 6405.69 4217.36 5679.74 4825.73 5247.01 5853.12 4208.37 4165.36 5288.33 5157.38 6203.03 5235.87 5273.37 5043.14 4928.85 6440.38 4717.73 5556.0 5484.32 4711.04 5007.21 3904.07 7144.05 5466.33 4173.54 5599.29 5742.74 5280.12 3946.28 3821.94 5984.81 5721.05 4209.31 7013.17 3805.67 5718.28 5367.73 4514.39 4640.06 6242.79 4227.41 5993.0 6047.14 5467.63 4554.68 4140.92 4512.07 4368.28 4692.32 5750.35 5463.06 5984.8 5236.24 3127.83 3986.41 5532.75 4241.68 6949.65 4095.83 4975.85 5695.25 4489.29 5676.61 5323.95 4301.93 6171.01 4468.26 5796.26 5578.18 4603.04 4870.94 5106.33 5198.94 5271.88 5933.54 5464.05 5559.79 2980.31 5453.2 3148.79 5264.83 6348.93 5136.51 6815.51 5232.16 5189.91 3989.26 5777.26 6119.0 3792.06 5128.59 4293.3 5310.33 6583.37 4864.38 3688.83 4848.98 3402.44 4491.96 4397.06 5184.98 4479.5 6261.67 5065.78 3435.13 4431.46 3207.84 4521.42 4614.49 3977.98 4232.33 4939.56 4747.68 5770.92 3093.38 4845.91 2002.78 4461.67 5631.32 6322.0 5793.14 4452.36 3976.0 4068.41 6463.71 5560.23 5059.37 3043.77 4139.39 5237.55 3902.48 4304.64 3909.94 4905.53 6030.39 4823.06 3799.01 5254.49 7392.65 5288.64 6213.24 6734.39 6549.8 5942.45 4851.18 5005.72 4150.76 5368.52 6296.54 4841.7 5797.21 5702.4 5069.9 5473.89 6089.45 952.938 4732.37 4985.3 5810.17 5072.5 4966.07 5713.36 3274.85 5748.9 5545.59 5553.94 4619.2 4506.18 5606.51 4801.8 7216.98 4444.97 5271.02 5046.12 4807.4 4350.15 6329.53 4139.3 6541.45 4590.01 4601.74 6101.86 5078.31 5228.75 4807.35 6545.99 6761.81 2918.64 3903.91 5630.9 6139.64 4756.8 4896.43 4176.32 4462.35 4639.8 6069.78 5196.08 3587.93 4517.29 6257.79 4495.75 4849.5 6229.83 4523.81 5065.74 4873.23 5791.25 4028.35 5410.6 4733.41 4969.68 6636.43 3901.53 5431.14 6298.8 5313.86 4457.05 5151.19 5178.07 6509.54 6079.55 5485.61 4993.49 5308.4 6581.13 4569.32 5537.61 6084.88 3543.98 4053.12 4199.44 5878.55 4014.44 6604.72 6002.77 4610.55 4967.02 6043.34 4128.93 4959.72 4712.17 4723.71 3808.04 4405.61 6126.5 6007.1 4034.88 4491.26 4511.34 4832.21 4609.65 5009.21 4742.35 5783.38 6264.03 5645.54 5088.64 3562.8 6589.8 3729.16 5319.1 3783.36 4181.93 3757.23 6828.8 5987.88 3579.59 4228.53 6123.46 6142.88 4871.77 5155.28 5811.26 5388.73 5685.74 5062.77 6740.35 4678.7 3673.6 6028.63 3306.84 4657.24 5265.21 4400.14 4749.18 6215.87 5494.28 5191.26 5166.41 4067.96 5740.65 4824.12 6542.5 6038.68 7104.73 3000.29 5067.56 2596.96 6349.67 3834.47 5701.75 3272.75 5262.47 4264.54 5261.19 3512.94 7043.44 3516.27 3831.52 4263.65 4750.49 4263.78 6106.43 5644.81 4177.47 4218.16 5334.36 4933.49 4841.23 3990.94 4357.11 5477.8 5486.89 5589.53 7208.19 4549.51 5234.2 5025.42 4965.24 6379.38 5327.05 5438.55 5353.23 5977.66 4434.65 5209.5 6175.27 5876.51 6731.89 4286.61 2932.52 4603.66 4757.87 3557.46 6379.33 5971.95 5652.73 3689.24 3979.46 6321.97 6412.84 6071.59 2589.19 3856.4 4696.06 4937.36 5984.55 5672.46 5803.3 3956.24 3228.27 4721.98 5252.82 5056.26 5445.91 4812.59 3794.47 7115.67 5400.69 4462.5 5573.31 5004.68 4023.88 5348.11 3488.34 4179.8 5428.24 5658.35 5108.84 3511.5 4582.12 4520.14 6345.2 5488.96 5704.61 5410.73 5394.79 4379.91 4574.03 5264.08 5290.37 4526.87 4151.74 4227.66 4691.01 5192.82 4594.89 6920.92 5245.95 4174.22 3573.84 3038.91 3922.28 4067.89 6570.43 6883.86 6161.94 3350.99 4065.28 5057.59 4979.5 4461.14 5111.26 5418.98 5285.6 6019.35 5205.38 6075.99 4884.93 4600.71 3450.07 5927.2 5262.79 4550.92 5146.1 6485.77 5866.42 4704.92 3669.32 3663.0 5610.53 4099.26 5206.47 4834.39 6162.3 4383.47 5971.21 5493.89 4057.17 2781.96 4184.47 7066.96 4467.0 3104.96 4587.7 5601.55 4258.98 5196.92 4462.87 4643.9 5759.79 3787.08 4013.86 4598.54 4816.51 4711.15 3825.48 5218.42 4658.59 5345.73 4770.63 5188.22 4196.62 3810.68 2804.54 2809.19 5005.6 4916.7 4104.04 5593.79 5104.39 5847.91 4612.13 4934.66 5846.6 4984.01 4109.44 4903.84 4290.49 4605.39 4557.1 6688.53 5927.1 6500.45 4907.55 4103.76 4094.63 6605.11 5084.76 6834.92 5749.53 5130.57 5090.48 5402.45 5582.28 3985.93 5945.25 5985.75 4137.16 5475.83 6189.29 3074.49 6571.26 5202.33 7558.99 4142.1 3393.59 5333.04 5043.14 5246.81 5089.1 4521.99 5394.78 6842.54 2853.68 5675.45 4998.37 6038.56 3361.11 2807.46 6559.82 5599.16 6565.95 4577.98 5043.34 5886.81 4487.51 4295.25 5067.92 3188.21 5357.14 5128.03 4850.95 3720.92 4942.63 5087.3 6139.74 5850.38 4975.57 7066.26 4730.97 3677.85 5214.71 5821.42 4677.84 6294.09 4515.02 4571.57 3445.92 3820.19 5236.69 4586.82 4745.37 5939.29 6200.05 5575.11 4574.54 4949.55 5615.06 3132.34 1969.87 4764.83 4841.28 3957.38 4494.15 5035.71 4419.79 4710.88 6060.06 5544.27 4762.1 3484.81 3742.31 4316.0 4954.81 2970.9 4546.96 6304.49 4608.34 4580.06 3926.11 4835.97 5134.72 5695.79 4191.01 5464.83 3622.8 4589.06 4770.51 4920.88 5414.58 4431.23 4991.35 4994.65 5740.98 6511.37 4346.07 3999.5 4012.92 6710.14 5034.05 4426.02 5467.51 4474.39 5459.92 4096.47 4542.16 6478.35 5453.77 5114.67 2638.82 5353.66 5030.33 5527.27 5157.73 5765.14 4541.22 4946.08 3539.68 4696.03 2927.84 6177.68 6217.33 4698.7 6270.59 6045.26 2848.44 6263.87 5743.8 6666.34 5581.01 4645.91 6959.88 4125.75 5247.73 3746.62 4876.37 5034.02 5260.13 4649.5 4810.74 3900.93 5181.31 5784.38 4149.17 4329.8 5728.27 4720.22 4313.38 5580.95 3549.92 5250.56 4032.06 2468.16 5888.95 5203.75 5122.38 3463.34 2459.88 5262.85 5329.84 5901.71 5225.11 3879.83 5733.12 6436.29 4246.24 6805.02 7394.47 4729.45 6261.13 5919.27 4793.06 6637.38 6188.33 6111.23 3057.3 6916.18 6150.31 5873.62 4811.11 3463.53 4924.52 6126.03 5131.07 4866.8 4121.07 6044.69 5524.28 3133.28 6026.04 5105.54 5731.43 5859.17 6353.81 4052.49 5490.54 4034.41 5061.74 5203.54 4047.95 5507.38 6889.5 4948.96 5001.69 5407.69 4416.87 3869.39 5960.5 3987.69 5308.33 6502.99 4287.25 5424.55 5755.15 4921.1 4271.07 3814.16 6419.64 5340.05 4420.6 6506.63 3626.86 4215.05 4140.04 4668.8 5995.4 5577.41 5917.34 5700.79 4216.44 4697.49 5735.08 4726.2 4750.81 3953.26 4282.11 4625.53 2347.41 5602.62 5714.51 3543.37 2030.03 5628.97 4484.78 4621.33 4801.16 4767.54 5121.08 5688.77 5368.28 5466.13 5257.38 6229.64 5625.02 4220.43 5212.05 4975.56 7282.36 4829.77 3826.01 4444.92 5971.9 4532.67 2513.38 5316.05 4769.62 3995.08 5019.84 3874.12 4028.13 4457.73 6476.35 6260.58 3053.19 4067.24 5827.3 2832.83 6598.99 3633.58 3010.1 6294.14 3825.98 4339.97 4667.84 5169.09 4512.6 4210.24 5470.67 4932.27 5252.22 5342.9 4962.35 5402.81 4600.81 5354.48 5640.63 4900.26 4167.55 5374.09 6271.22 3421.81 5378.75 3920.64 6186.24 5786.06 4137.41 4996.91 3868.69 3920.44 5379.52 3768.62 2970.24 5314.67 4197.87 5658.05 6593.1 5462.1 4000.51 3414.67 6032.45 3518.14 4150.44 5522.34 5326.03 6189.67 4420.35 6142.94 5717.45 5117.83 5256.82 5300.17 6581.56 5152.78 4117.9 5393.43 5534.23 6896.55 4753.76 4666.12 4638.09 4392.75 4685.65 6025.77 6219.34 4441.91 6023.07 5377.01 5674.63 5287.25 5828.25 5939.22 4725.11 5418.12 5092.93 5934.05 6371.96 2803.01 4271.93 3495.3 5125.17 4604.1 5890.25 5322.11 5322.07 4859.01 5076.11 5524.45 7133.44 5600.21 4656.01 6589.13 4037.86 4138.59 4970.55 4938.33 8123.59 4819.83 6286.27 6327.54 5071.38 5507.07 5616.66 2943.17 4802.36 5327.71 4880.78 4322.56 5509.09 5075.23 3873.72 4850.49 4592.49 5479.86 3625.98 6474.5 3928.99 4702.32 4763.04 5908.57 5944.52 4413.56 5050.2 4821.41 4924.53 4908.32 5616.11 4499.52 4813.24 5759.19 3113.64 5847.27 4304.75 4490.2 5480.86 6139.9 4474.96 4084.87 4758.76 6036.99 3584.05 4916.75 4589.22 5087.03 3906.41 4691.15 4260.38 6224.64 4636.45 4221.03 3799.55 5638.51 6793.49 6060.19 6786.37 4333.23 3860.8 4919.13 4328.76 4124.33 5168.97 5783.88 4720.34 5002.38 6705.93 5244.47 4731.16 5510.89 6470.87 5822.7 4495.33 3780.07 4159.89 5466.49 5447.74 4038.17 4450.51 6033.72 3851.47 4966.74 5563.47 5651.46 4066.36 3162.27 6033.93 5444.36 5011.37 2827.92 4026.03 5044.68 5771.98 2649.69 5899.78 5000.74 5772.57 4813.81 5268.27 4052.43 4013.86 3980.46 4061.87 5165.31 4057.4 4896.67 4585.37 5383.9 3934.11 5158.44 4466.22 5330.26 6470.23 4475.38 5917.08 5483.37 5259.21 4256.08 6738.9 5881.93 4460.89 4157.1 4714.66 4399.52 4444.0 6771.18 5770.07 5990.75 4984.17 5101.6 4867.12 5327.39 5910.66 5781.62 4981.81 4637.3 5141.03 5734.07 4840.44 3997.68 6033.28 4188.16 3784.68 3717.22 6649.21 3470.69 4654.92 4859.95 5286.55 5522.18 5223.1 4981.55 5093.41 5144.23 6188.62 6153.07 3621.63 4414.06 7296.47 2613.78 5742.39 5417.07 4780.16 5738.37 4433.23 5312.2 4706.59 5734.84 3982.31 5551.79 4950.07 4582.24 4790.63 5367.05 5259.29 6236.46 4818.53 5584.64 4123.08 3795.63 5189.4 4576.71 5082.66 4550.77 3563.33 3550.88 5201.3 5536.0 5145.13 5561.63 5940.5 4358.06 5093.51 5647.93 6201.49 4865.11 5449.09 5502.14 4605.61 4465.56 5282.67 4131.08 5747.9 5178.55 3864.19 5146.69 5007.41 4907.48 3692.99 6213.74 4959.94 1635.31 5639.4 6185.73 5516.37 5092.44 4441.44 6908.32 4232.44 3467.11 5336.61 4817.75 6153.26 5637.53 5244.95 4645.93 3882.37 4634.25 5448.64 5901.8 3798.09 6351.48 6417.61 4288.5 4781.9 4496.51 6815.96 6153.71 5339.6 6561.94 5350.9 5317.83 3483.61 7430.48 5640.67 5992.06 4844.2 5545.68 8052.53 3939.96 4554.24 5555.89 6182.19 4967.93 6044.01 6520.19 7415.84 1458.87 5922.62 5130.56 6241.48 4414.09 5125.45 5191.29 5957.82 6305.9 5093.28 4542.62 6131.52 4132.08 6009.88 4699.77 6664.54 6842.35 5161.73 5464.34 5259.48 4777.96 5801.89 6833.5 6608.94 3796.73 4644.68 3834.01 3082.16 5656.84 6789.66 4739.41 4694.27 6760.64 4849.21 2515.5 5177.88 3793.83 6981.47 3916.15 4088.72 4449.73 3743.85 3945.62 5342.17 5097.85 6189.04 5015.67 6538.04 4894.15 4337.93 6157.59 4345.51 5848.41 6223.33 5438.6 3747.96 5611.29 6568.45 4521.88 5004.22 3724.23 4280.92 4696.92 5154.74 6437.99 6898.8 5386.95 6540.57 4287.93 6203.24 5315.71 6818.23 4488.41 2329.93 4369.87 6938.87 5412.07 5512.57 4083.24 4806.99 6520.96 4612.4 5432.2 6178.19 3312.3 4746.19 5563.09 4848.15 6381.58 3282.57 4439.09 4798.13 5523.81 4095.4 5188.57 5395.12 5715.51 5717.67 5357.33 3886.56 4511.05 3830.7 3456.3 6210.0 6074.39 4499.54 5432.4 3775.38 4262.52 5037.58 6457.89 4081.77 5114.61 6572.17 6080.69 2181.29 3751.73 4420.3 4926.62 3374.62 4766.47 4970.12 6369.66 6009.93 5678.08 5973.57 5270.1 6351.95 4957.99 5195.09 4063.26 5345.05 4947.64 4997.89 7679.2 4881.51 4909.74 2626.41 4311.92 6729.99 5036.84 4565.36 3922.98 5813.68 4025.08 5254.93 4803.4 8013.28 3846.55 5283.65 5943.61 2892.36 5981.54 5911.29 5416.41 4542.25 4414.23 4785.55 5233.88 5245.4 6189.81 5647.11 6379.3 4090.28 4048.73 4246.83 7370.52 5467.05 5103.3 4601.54 7263.57 3832.09 5705.96 5267.65 6632.04 5360.88 5332.11 4893.72 6158.93 5081.65 4072.4 4823.14 6679.12 5652.19 5806.74 4621.32 6578.62 3771.91 4813.55 5217.62 5856.43 3839.0 5349.85 4616.81 5799.86 5715.25 5212.2 4611.21 4362.94 5648.59 4469.82 4718.61 6697.45 5108.42 3873.79 4630.5 4432.32 5515.59 5783.69 5252.37 3721.69 3224.81 4451.76 7885.41 5782.25 4046.22 4104.97 4948.21 4575.72 4987.01 6118.13 4706.31 4721.2 4202.12 6332.64 4871.1 5003.81 2694.25 4735.99 3917.09 4083.1 4613.32 3482.73 5872.45 3996.93 6225.05 5434.04 5200.1 3997.52 5994.21 4444.54 5403.81 5779.9 5310.33 5299.03 5504.65 5669.41 5040.9 4008.67 4770.21 3618.53 4868.66 3783.35 4004.39 5159.9 4987.48 4248.58 5479.17 5020.37 4726.5 4963.88 5888.94 4727.98 4122.2 5175.88 5739.69 4516.26 3509.34 3647.26 7360.62 4977.64 6004.72 4983.56 5373.78 5345.65 2489.44 5438.5 5699.4 5863.36 3878.8 4698.94 6284.12 3948.21 4796.04 3465.03 5669.15 5229.56 6011.4 5263.86 4672.34 5172.1 5056.32 6052.22 5376.41 6545.78 3354.94 6296.36 4404.87 5105.72 4082.01 5237.27 5767.65 5003.49 3964.03 4750.76 5210.22 4907.03 5497.27 5617.91 4444.95 3903.9 5606.22 3943.77 5161.02 6265.48 6081.35 4203.68 6492.44 4739.56 3818.37 4701.03 5145.39 5663.36 3352.46 4276.59 5579.04 5125.53 5405.6 3929.35 4884.93 4759.38 4535.94 5082.25 6964.78 4287.15 4374.05 5282.51 3760.4 4951.02 5732.11 3919.47 4602.7 5596.68 4037.16 6395.63 4790.16 3731.58 3166.37 5369.42 4985.45 5205.53 5699.51 4714.52 5499.37 4489.18 5543.05 4883.13 4632.75 4836.76 5237.76 4994.98 4286.84 6058.13 5296.05 5894.69 6988.4 3330.85 6635.51 5533.52 5410.33 5003.63 4870.14 4695.7 2932.2 4944.08 4380.86 5576.16 4909.13 4287.61 5269.39 4305.35 3308.75 4604.34 4216.33 4439.17 5832.72 4929.35 5442.79 5051.39 6673.92 5242.38 4633.59 3124.49 5151.68 5459.52 4884.94 6262.18 4609.98 5566.5 4738.72 4752.31 5240.97 5569.85 5306.31 5523.96 4223.53 4733.37 3037.72 6960.97 4523.9 5126.08 5604.0 5207.08 4587.19 6028.89 4752.94 5551.09 5333.16 4888.17 6423.96 4501.1 5581.47 4274.05 4384.91 6550.61 4987.01 4060.17 4713.56 6051.35 4747.24 5302.53 6779.82 3999.81 5543.67 5648.02 4072.95 4867.13 6377.45 4863.27 2451.27 2701.42 5677.42 4502.12 6853.07 6327.61 5733.59 5575.8 5362.15 5268.93 4455.61 3695.72 6874.6 5106.9 3950.53 5755.98 5392.85 5077.2 5275.27 4277.54 5529.09 4531.46 6094.34 5925.82 5448.68 4739.5 6210.48 4491.62 3865.5 4182.05 3255.93 
SCALARS Velocity float 1
LOOKUP_TABLE default
1.26872 1.29717 1.31791 1.22811 1.28821 1.26879 1.2972 1.26307 1.33369 1.30799 1.31586 1.305 1.3195 1.313 1.31362 1.345 1.25951 1.2687 1.26535 1.25687 1.27327 1.29481 1.30445 1.25237 1.28171 1.25507 1.34048 1.28038 1.2544 1.25508 1.34138 1.30835 1.31962 1.30889 1.33291 1.40746 1.26826 1.26738 1.25918 1.31644 1.29543 1.32249 1.29315 1.29263 1.30694 1.27106 1.24271 1.2414 1.21175 1.28563 1.28201 1.32831 1.22142 1.2521 1.27786 1.33813 1.36215 1.31128 1.32433 1.30241 1.31135 1.37537 1.27419 1.31162 1.31559 1.31119 1.30882 1.31727 1.32987 1.29335 1.25258 1.26963 1.2457 1.24119 1.21755 1.28772 1.28035 1.30607 1.23072 1.26949 1.35085 1.36893 1.30497 1.31331 1.2988 1.29699 1.37593 1.42789 1.32544 1.31893 1.30519 1.30653 1.30784 1.33713 1.32072 1.22103 1.25229 1.27766 1.29036 1.26778 1.24353 1.26365 1.20419 1.19995 1.29009 1.28581 1.30687 1.30731 1.33678 1.46785 1.33553 1.29352 1.37017 1.2835 1.30512 1.29761 1.30475 1.2872 1.27328 1.38096 1.28677 1.4223 1.33998 1.25318 1.30734 1.32872 1.37807 1.28948 1.30432 1.2701 1.26468 1.2525 1.25679 1.27028 1.2926 1.31714 1.30544 1.46727 1.36559 1.24904 1.39073 1.2871 1.27795 1.4867 1.38859 1.41754 1.38179 1.25318 1.265 1.31893 1.34699 1.38239 1.39252 1.42272 1.41965 1.26548 1.23604 1.26615 1.26915 1.2402 1.24547 1.21643 1.2683 1.29072 1.27341 1.2856 1.31382 1.43272 1.28034 1.35643 1.29392 1.35837 1.47054 1.49374 1.39277 1.39344 1.39944 1.39762 1.26687 1.38644 1.33583 1.40118 1.41747 1.24679 1.23585 1.262 1.25358 1.25153 1.24365 1.20694 1.20233 1.20555 1.27911 1.2716 1.2909 1.35207 1.36574 1.32843 1.3959 1.39218 1.27723 1.29595 1.35433 1.2914 1.34878 1.53982 1.38985 1.40459 1.4155 1.3037 1.37824 1.42827 1.41211 1.22337 1.23206 1.26645 1.25673 1.38732 1.3385 1.14094 1.15857 1.24756 1.21915 1.27832 1.38775 1.40979 1.37768 1.35061 1.37444 1.3435 1.31143 1.268 1.30924 1.34107 1.47464 1.53782 1.3924 1.41574 1.44351 1.29003 1.37568 1.42351 1.435 1.19783 1.24448 1.2578 1.34471 1.20545 1.15125 1.24933 1.23822 1.34651 1.19703 1.31503 1.36115 1.36622 1.46019 1.47485 1.35495 1.28843 1.40651 1.34792 1.39929 1.40428 1.53224 1.4451 1.43274 1.43294 1.40585 1.36743 1.39035 1.40781 1.19499 1.41786 1.19797 1.25278 1.33742 1.20988 1.17445 1.33867 1.34231 1.13795 1.2516 1.43548 1.38223 1.48363 1.48836 1.40293 1.44199 1.43759 1.37212 1.34944 1.49219 1.51387 1.32184 1.32206 1.35375 1.50485 1.43715 1.42612 1.39515 1.42497 1.45646 1.39416 1.39726 1.39947 1.19211 1.25447 1.33557 1.29854 1.30582 1.21393 1.36043 1.17522 1.35252 1.50551 1.44726 1.49606 1.43023 1.37144 1.35852 1.47886 1.50304 1.43676 1.45074 1.43356 1.41901 1.41875 1.41988 1.48798 1.52693 1.48853 1.43427 1.35282 1.30246 1.22064 1.33368 1.37482 1.33055 1.20324 1.05497 1.42016 1.37604 1.52939 1.4226 1.66959 1.49565 1.54598 1.43952 1.39386 1.31145 1.4909 1.575 1.59347 1.39868 1.53137 1.46234 1.45704 1.41679 1.46283 1.41599 1.43627 1.44618 1.58584 1.5631 1.46557 1.38828 1.29896 1.20762 1.61083 1.18032 1.2878 1.35519 1.3213 1.27794 1.27641 0.917726 1.41847 1.4233 1.61297 1.55869 1.5808 1.41012 1.39498 1.44084 1.45199 1.49198 1.52481 1.5457 1.59195 1.48174 1.41601 1.44845 1.43786 1.4275 1.46679 1.58711 1.47386 1.52327 1.33753 1.36545 1.51206 1.63627 1.47026 1.29338 1.2819 1.309 1.32168 1.35842 1.19087 1.24296 1.23526 1.40148 1.48034 1.39747 1.41681 1.51135 1.52469 1.56091 1.58522 1.57968 1.60192 1.6134 1.55191 1.47656 1.37915 1.45511 1.49496 1.52388 1.57765 1.56492 1.47257 1.55162 1.51912 1.47214 1.47057 1.44213 1.52178 1.45213 1.37264 1.50267 1.53361 1.65286 1.31797 1.36601 1.45131 1.41364 1.70984 1.57076 1.53185 1.56163 1.5452 1.59936 1.57281 1.56626 1.50707 1.4937 1.51506 1.51722 1.5271 1.54314 1.53692 1.53183 1.51652 1.48962 1.4851 1.45729 1.47861 1.48309 1.47589 1.53386 1.60683 1.603 1.58588 1.55831 1.65512 1.34263 1.24073 1.28803 1.28425 1.60742 1.70523 1.64999 1.60484 1.61311 1.63589 1.52495 1.58505 1.59956 1.56713 1.54571 1.52735 1.52488 1.52239 1.52299 1.50905 1.49763 1.4911 1.49577 1.50069 1.50827 1.54689 1.51769 1.47634 1.63393 1.88379 1.64064 1.43134 1.54693 1.30683 1.24931 1.18268 2.05931 1.72586 1.62917 1.7036 1.7263 1.78205 1.44672 1.48099 1.58538 1.63854 1.6052 1.5418 1.56749 1.54209 1.56209 1.52583 1.50746 1.51777 1.50865 1.51702 1.51037 1.51426 1.51118 1.50836 1.51425 1.50314 1.49521 1.49967 1.50377 1.5317 1.51942 1.54888 1.52256 1.62479 1.82885 1.70458 1.50098 1.69851 1.95469 2.02801 1.35536 1.94754 1.94609 1.94433 1.66123 1.49502 1.50365 1.58408 1.55741 1.51974 1.49304 1.50298 1.50717 1.51065 1.49735 1.49823 1.50222 1.51132 1.58238 1.57829 1.59788 1.58964 1.75596 1.87143 2.06269 2.07823 1.59864 1.95398 1.61792 1.20923 1.27188 2.09883 1.82644 1.57558 1.50605 1.46995 1.59857 1.54962 1.50446 1.49182 1.48653 1.47939 1.501 1.49499 1.50094 1.50426 1.49881 1.49953 1.51563 1.62766 1.6544 1.51989 1.58468 1.79243 1.59804 1.57478 1.51162 1.52384 1.77738 1.26522 2.0824 1.73618 1.57575 1.46933 1.59391 1.53735 1.49506 1.52277 1.48451 1.47627 1.48983 1.47961 1.49381 1.49629 1.49131 1.49969 1.4935 1.50586 1.4891 1.5302 1.52969 1.55166 1.8088 1.51998 1.57464 1.63177 1.57552 1.19178 1.48925 1.48705 1.48289 1.52882 1.50823 1.54324 1.58027 1.51034 1.49009 1.52465 1.45618 1.48681 1.44505 1.4813 1.47051 1.47387 1.4817 1.47265 1.50114 1.49253 1.49817 1.48526 1.49215 1.49645 1.49114 1.50644 1.54258 1.54498 1.37378 1.54538 1.5278 1.58965 1.56452 1.56334 1.19178 1.47509 1.46988 1.48562 1.51522 1.48107 1.51427 1.52272 1.49879 1.5066 1.47394 1.46718 1.44441 1.46002 1.44089 1.45817 1.47154 1.5127 1.51387 1.49071 1.50783 1.47565 1.46229 1.47038 1.47815 1.4958 1.50419 1.49761 1.49205 1.52109 1.52047 1.48756 1.4795 1.40711 1.46042 1.52905 1.45481 1.54896 1.49576 1.53705 1.46024 1.45284 1.50025 1.46759 1.4741 1.45362 1.49298 1.47837 1.49663 1.46856 1.49463 1.48402 1.46232 1.44356 1.4377 1.42139 1.43014 1.3779 1.49461 1.43915 1.55819 1.49973 1.45701 1.44417 1.4712 1.48954 1.46981 1.46144 1.49331 1.47427 1.47727 1.46937 1.48505 1.49343 1.43192 1.43133 1.40752 1.48242 1.4942 1.48292 1.51485 1.49377 1.19178 1.4372 1.45387 1.45592 1.47811 1.44268 1.46737 1.46408 1.44133 1.44475 1.45362 1.46811 1.42346 1.43605 1.438 1.40563 1.50532 1.3515 1.45845 1.38286 1.43231 1.4518 1.51334 1.46327 1.44295 1.45925 1.46232 1.45996 1.44401 1.48289 1.50478 1.38298 1.44469 1.36914 1.48727 1.47548 1.47475 1.42588 1.43119 1.48917 1.3996 1.50494 1.44389 1.29768 1.37645 1.44908 1.52079 1.45649 1.42568 1.43684 1.46702 1.37663 1.42112 1.40091 1.40499 1.39511 1.38794 1.37576 1.39468 1.4136 1.4598 1.41891 1.52948 1.50063 1.37497 1.5241 1.34901 1.44384 1.37067 1.38941 1.37889 1.43997 1.44367 1.41124 1.43074 1.453 1.42788 1.43003 1.34777 1.25249 1.35438 1.37071 1.50566 1.46887 1.37242 1.42472 1.3541 1.42343 1.43128 1.42281 1.39798 1.398 1.40255 1.39275 1.38387 1.38504 1.38006 1.37956 1.38966 1.38178 1.47463 1.46332 1.52096 1.2814 1.38481 1.42893 1.36197 1.41813 1.37271 1.3667 1.4388 1.39401 1.42655 1.41942 1.40957 1.19178 1.19178 1.19178 1.37938 1.35679 1.33906 1.39543 1.44672 1.39589 1.34268 1.38753 1.43455 1.38191 1.38887 1.3882 1.37954 1.38004 1.38026 1.38286 1.37682 1.37182 1.37795 1.38004 1.37823 1.37275 1.42709 1.45074 1.35136 1.40035 1.34186 1.36606 1.39009 1.38554 1.4161 1.40449 1.43729 1.40488 1.40781 1.39635 1.39859 1.39382 1.36212 1.3618 1.37531 1.36057 1.37382 1.37715 1.34152 1.3502 1.35189 1.36486 1.38909 1.41322 1.37313 1.38744 1.3776 1.37344 1.37145 1.3733 1.37422 1.37123 1.3676 1.36822 1.36888 1.36634 1.37769 1.3665 1.38937 1.39464 1.34311 1.36857 1.37254 1.3711 1.36968 1.38604 1.39943 1.38562 1.41814 1.39304 1.43963 1.39021 1.4036 1.40256 1.38658 1.36229 1.36151 1.35859 1.35998 1.35345 1.35686 1.35571 1.36581 1.35997 1.36031 1.36038 1.33271 1.34304 1.36549 1.37899 1.36201 1.37271 1.37031 1.366 1.37012 1.36625 1.36364 1.36989 1.3579 1.39291 1.32747 1.35136 1.37035 1.35422 1.37064 1.37764 1.38368 1.39723 1.38251 1.38345 1.38726 1.43451 1.38328 1.38776 1.26642 1.33631 1.40697 1.41663 1.36692 1.38031 1.37151 1.35954 1.35257 1.34989 1.34472 1.35051 1.35357 1.35674 1.34706 1.33885 1.35111 1.33505 1.35445 1.35629 1.36035 1.36721 1.36579 1.36979 1.36723 1.3717 1.36001 1.32895 1.33398 1.34313 1.33809 1.3635 1.37166 1.3855 1.36331 1.38326 1.37005 1.37214 1.38164 1.36167 1.43937 1.35788 1.42823 1.2823 1.34404 1.44393 1.37292 1.35467 1.34649 1.19178 1.34623 1.34221 1.33941 1.34199 1.34468 1.34499 1.33425 1.33445 1.33395 1.33938 1.34526 1.33984 1.34275 1.34883 1.36133 1.35248 1.35689 1.36308 1.35543 1.36765 1.36243 1.36383 1.35439 1.35607 1.34247 1.34083 1.35991 1.34294 1.3674 1.36083 1.45189 1.41541 1.29999 1.30207 1.26254 1.36679 1.32635 1.3214 1.36775 1.25192 1.33756 1.36001 1.34346 1.33582 1.19178 1.34009 1.33831 1.33479 1.33791 1.33659 1.32729 1.32627 1.32554 1.32966 1.32408 1.33875 1.33335 1.33871 1.34382 1.34498 1.34192 1.35316 1.35444 1.36454 1.35877 1.36477 1.34902 1.35463 1.35126 1.3478 1.34205 1.33886 1.35544 1.37573 1.32618 1.45724 1.38687 1.41728 1.29056 1.30167 1.30042 1.34434 1.32164 1.41561 1.38831 1.33336 1.30493 1.32943 1.32169 1.33119 1.32537 1.31778 1.32545 1.3249 1.31914 1.32183 1.32135 1.32448 1.32184 1.33513 1.33375 1.3321 1.33001 1.33395 1.33851 1.34764 1.3474 1.35505 1.36228 1.36666 1.35838 1.34426 1.34693 1.34534 1.33117 1.36027 1.35439 1.34875 1.31997 1.33354 1.33355 1.34532 1.32691 1.30647 1.29259 1.32411 1.2957 1.28999 1.30578 1.32752 1.30899 1.33204 1.40796 1.40327 1.31928 1.29289 1.19178 1.31637 1.3092 1.308 1.30507 1.29789 1.32098 1.31311 1.31991 1.31701 1.31706 1.32131 1.32087 1.32531 1.31998 1.3218 1.32644 1.33341 1.34183 1.36777 1.36083 1.31855 1.3343 1.3397 1.34154 1.33742 1.34232 1.32585 1.35134 1.33656 1.34773 1.32421 1.32333 1.31718 1.31185 1.32296 1.31381 1.30464 1.27301 1.27254 1.32335 1.28706 1.33283 1.3633 1.30874 1.31946 1.30863 1.30695 1.29152 1.29394 1.31746 1.30269 1.31462 1.31744 1.30813 1.31891 1.31183 1.31433 1.3179 1.30697 1.32347 1.31582 1.32386 1.37346 1.35147 1.33199 1.31294 1.32431 1.30146 1.28831 1.33755 1.31699 1.26727 1.34749 1.3555 1.32682 1.32361 1.3332 1.30689 1.34143 1.31371 1.32176 1.32196 1.30513 1.30272 1.31735 1.28403 1.29053 1.32628 1.29971 1.32567 1.36146 1.34725 1.32283 1.3087 1.31557 1.28801 1.32288 1.31752 1.29597 1.29836 1.31024 1.29838 1.29246 1.31987 1.30606 1.31804 1.31569 1.30912 1.39816 1.32241 1.30792 1.23381 1.3422 1.38907 1.33795 1.25893 1.34181 1.38478 1.33091 1.31436 1.31572 1.3143 1.27533 1.29854 1.28566 1.30485 1.30365 1.3065 1.2986 1.27635 1.25251 1.29107 1.30292 1.30106 1.31219 1.31834 1.31483 1.32623 1.32031 1.32214 1.33007 1.3104 1.32125 1.28666 1.32723 1.31477 1.30362 1.29313 1.28496 1.29224 1.29516 1.31932 1.2866 1.3158 1.2988 1.30883 1.31344 1.28353 1.57022 1.32945 1.43327 1.3412 1.33245 1.31018 1.29615 1.29109 1.28131 1.29248 1.30204 1.2623 1.27392 1.2835 1.28227 1.26555 1.2832 1.25643 1.30253 1.29068 1.30219 1.31014 1.32017 1.33586 1.33858 1.33038 1.32113 1.28467 1.33188 1.31872 1.29929 1.31696 1.31633 1.30011 1.28208 1.32616 1.28899 1.28784 1.26754 1.27244 1.26048 1.26895 1.29056 1.30079 1.29181 1.28341 1.3467 1.39476 1.40509 1.38601 1.31341 1.32383 1.2874 1.31471 1.26731 1.28431 1.25234 1.27517 1.25339 1.26017 1.25934 1.27218 1.26408 1.2604 1.24612 1.27873 1.28374 1.26869 1.30044 1.30834 1.32646 1.30257 1.3428 1.34387 1.3523 1.3578 1.19178 1.32841 1.30542 1.33488 1.33631 1.39157 1.32911 1.31857 1.32305 1.32576 1.29274 1.25223 1.30214 1.26369 1.31197 1.22402 1.2468 1.29035 1.19708 1.30357 1.27506 1.32468 1.27879 1.37129 1.39349 1.308 1.27491 1.34258 1.3144 1.36524 1.26475 1.25801 1.26214 1.25501 1.25102 1.21122 1.24258 1.28004 1.21945 1.2999 1.31301 1.3391 1.31757 1.36768 1.38922 1.14033 1.24845 1.17172 1.30109 1.34988 1.32201 1.34648 1.36524 1.3426 1.33537 1.25891 1.32083 1.26591 1.32948 1.24888 1.09201 1.21762 1.1743 1.28283 1.36498 1.39202 1.43592 1.26832 1.23519 1.23782 1.37382 1.46353 1.25729 1.2009 1.2672 1.26679 1.2769 1.25422 1.26396 1.21724 1.22919 1.20461 1.28388 1.31053 1.20643 1.2768 1.31303 1.23146 1.20292 1.44517 1.32914 1.06228 1.26186 1.08902 1.32216 1.39836 1.31902 1.38827 1.31421 1.28172 1.32202 1.39715 0.996209 1.19139 1.25471 1.3052 1.24034 1.31369 1.48 1.30598 1.36684 1.45183 1.45266 1.42594 1.22678 1.17612 1.02029 1.36072 1.35478 1.46441 1.43045 1.31545 1.30568 1.33006 1.33759 1.293 1.25449 1.29185 1.25819 1.28178 1.35497 1.22113 1.27045 1.17702 1.28793 1.33433 1.25309 1.10091 1.28238 1.19178 1.2365 1.52469 9.90402 0.792065 2.97909 4.85375 1.51601 1.58988 1.04567 1.16797 1.24516 1.13042 1.37743 1.45652 1.24192 1.33795 1.3307 0.893971 1.37053 1.23911 1.18731 1.29332 1.28405 1.33917 1.21971 1.50698 0.953026 1.19412 1.13875 1.09211 1.11264 1.13284 1.29303 1.23266 1.45108 1.40668 1.33643 1.457 1.38843 1.31714 1.22142 1.21406 1.27174 1.35387 1.21999 1.27279 1.17911 1.19372 1.26231 1.2624 1.13837 1.32659 1.53454 0.901674 1.4684 2.76424 5.10485 1.39297 0.821519 1.14551 0.952218 0.795491 1.33689 1.0441 1.18976 1.21147 1.653 1.18388 1.46319 1.16663 1.34428 1.29115 1.23156 1.41555 1.35596 1.24541 1.26731 1.39702 1.46383 1.21816 1.22544 1.23062 1.12886 1.19933 1.27317 1.34013 1.34811 1.31528 1.22694 0.951009 1.66329 1.22468 0.942296 1.29058 1.12876 1.12284 1.27074 1.21637 1.13145 0.852223 1.35664 1.42642 1.45802 1.31785 1.23997 1.29221 1.23817 1.22896 1.24589 1.35522 1.29661 1.06746 1.24025 1.33168 1.18547 1.28413 1.43091 1.29359 1.28063 1.60837 1.55636 0.68613 0.593011 1.01434 1.0035 0.843196 0.795156 0.819296 0.796423 0.842956 0.93028 0.904163 0.881083 0.889194 0.839865 0.823302 0.79983 1.05536 1.18471 1.0023 1.02759 1.07517 1.33442 1.18419 1.30049 1.27719 1.39875 1.32828 1.2429 1.20707 1.36049 1.26841 1.13768 1.36308 1.14345 1.07172 1.25446 1.22511 1.15212 1.12919 1.05973 1.07016 1.24034 1.09121 1.13166 1.28183 1.22799 1.25055 1.10654 1.00033 0.895424 1.28399 1.34616 1.18573 1.28255 1.27743 1.23305 1.23234 1.18877 1.20063 1.24837 1.27087 1.28065 1.34056 1.46899 1.34398 1.10236 1.39701 1.19462 1.11206 1.13166 0.81238 1.03065 0.968291 0.985534 0.96676 0.948105 0.87858 0.881603 0.822756 0.794604 0.747617 0.755714 0.755993 0.788233 0.801283 0.833758 0.839654 0.818368 0.853578 0.786323 0.778263 0.735091 0.771678 0.899172 0.80459 0.840848 1.08943 1.00276 1.02107 1.03307 1.011 1.0911 1.18307 1.1026 1.09311 1.04449 1.08518 0.98388 0.986549 0.974894 1.35454 1.05778 0.989181 1.07325 1.06543 1.12081 1.13378 1.16035 1.04092 1.04589 1.19026 1.15828 1.1655 1.26854 0.983918 1.0212 0.980916 1.08122 1.1135 1.07572 1.23998 1.2656 1.24478 1.18388 1.1109 1.17363 1.18074 1.33827 1.33811 1.02346 1.00868 1.09555 1.35008 0.967437 0.90762 1.50018 1.22106 0.959088 0.631586 0.632106 0.968104 0.861785 1.06483 0.918705 0.86382 0.923677 0.898801 0.960776 0.873186 0.839204 0.760039 0.835327 0.832828 0.8517 0.750942 0.746548 0.737656 0.744204 0.740178 0.744922 0.736735 0.71553 0.722589 0.732562 0.80333 0.812768 0.864183 0.724139 0.799352 0.522881 0.661358 0.770976 0.68499 0.642085 0.781523 0.785512 0.898025 0.999961 0.934752 0.928472 1.00558 1.04722 1.06077 1.05682 1.03959 1.14966 1.07485 0.903345 1.06938 0.903952 0.829588 0.780525 0.885385 0.911899 1.01571 0.96418 1.03817 1.05457 1.18734 1.1917 1.11579 0.916669 0.98628 1.13871 1.2157 0.921318 0.856628 0.906435 1.02224 0.936935 0.949708 0.783336 1.20364 1.27554 1.08671 1.17183 1.12353 1.04815 1.2071 1.05018 0.77528 0.956872 1.38813 1.3518 1.24466 0.913769 1.08213 1.00192 0.961483 0.826954 0.784016 0.879726 0.825337 0.881347 0.790525 0.765688 0.613277 0.87077 0.808244 0.693421 0.761281 0.776018 0.77485 0.718207 0.697664 0.674271 0.78545 0.674421 0.69191 0.66721 0.720056 0.729677 0.722326 0.741217 0.723543 0.727663 0.741497 0.640157 0.746141 0.615163 0.784898 0.837292 0.784886 0.695109 0.646605 0.713435 0.606362 0.674461 0.637244 0.61567 0.675258 0.883907 0.810889 0.854143 0.910516 0.834472 0.894725 0.939411 0.932132 0.863414 0.859973 0.994083 0.943992 0.954798 0.856549 0.844665 0.907502 0.893189 0.894889 0.855713 0.900594 0.938807 0.947415 0.992505 1.01321 1.32303 0.861228 1.02404 0.991212 0.989791 1.02098 1.00488 1.14099 1.00148 0.985308 0.898129 0.978758 0.824622 1.08995 1.33415 1.13499 0.729741 1.08859 1.08824 1.11153 0.839468 0.619479 0.838932 0.889492 1.11648 1.00592 0.938095 0.929796 0.926805 0.887512 0.882624 0.750416 0.88178 0.548234 0.753526 0.861324 0.762593 0.766382 0.73401 0.744733 0.762669 0.725484 0.767178 0.785925 0.781614 0.836935 0.641176 0.797591 0.628496 0.647262 0.665224 0.632675 0.656146 0.65807 0.661145 0.641326 0.685135 0.716089 0.715944 0.720174 0.719693 0.716667 0.682657 0.722758 0.643513 0.690801 0.575055 0.591219 0.596203 0.559793 0.559356 0.532313 0.610624 0.691373 0.670102 0.500026 0.627027 0.700375 0.76756 0.80833 0.765131 0.791658 0.810247 0.816062 0.847925 0.865994 0.836605 0.870981 0.818247 0.858461 0.861192 0.85365 0.848083 0.871671 0.855403 0.847648 0.869192 0.865595 0.87253 0.866788 0.893183 0.967935 0.8953 1.13673 0.87125 0.931016 0.931413 1.04695 0.939151 0.893792 0.885954 0.862062 0.934502 1.06258 1.01878 0.98636 0.866565 0.790358 0.829513 0.896553 1.04853 1.12081 0.777814 0.905656 0.808917 0.796236 0.851304 0.991723 0.812581 0.85115 0.953833 0.948287 0.93087 0.8894 0.91271 0.843311 0.894156 0.59964 0.689018 0.740466 0.780374 0.773624 0.797073 0.729807 0.741947 0.763483 0.875004 0.775216 0.676422 0.714742 0.659193 0.688629 0.637192 0.656442 0.655572 0.660698 0.659778 0.662431 0.709856 0.669643 0.649866 0.62826 0.543357 0.706623 0.67012 0.644935 0.636654 0.636558 0.59096 0.612194 0.610442 0.549485 0.57174 0.55341 0.596908 0.687684 0.652152 0.62529 0.682977 0.716957 0.70252 0.729441 0.773915 0.729847 0.739261 0.859724 0.783945 0.846256 0.770154 0.775808 0.857692 0.848134 0.827744 0.895732 0.77606 0.814333 0.837608 0.851399 0.847382 0.844133 0.822877 0.825152 0.828889 0.798706 0.93294 0.853609 0.964389 0.913049 1.16696 0.953174 0.825856 0.889314 0.810022 1.07706 0.604171 1.21163 0.774793 0.882758 0.903954 0.960468 0.837284 0.693818 0.855611 0.856183 0.710125 0.827363 0.758441 0.777623 0.788226 0.836149 0.680872 0.812976 0.791576 0.741982 0.877193 0.792715 0.880042 0.904042 0.567537 0.974518 0.814895 0.503218 0.871495 0.620201 0.679458 0.650549 0.737552 0.757491 0.653073 0.74563 0.768378 0.758045 0.757512 0.773038 0.742129 0.663361 0.776631 0.737008 0.666089 0.651469 0.661207 0.669558 0.662136 0.67293 0.659029 0.677624 0.684094 0.679396 0.64949 0.700826 0.63568 0.58716 0.582938 0.604042 0.676941 0.493083 0.467117 0.422133 0.575365 0.777009 0.487614 0.609705 0.834354 0.63949 0.657315 0.698138 0.66876 0.723506 0.622861 0.62577 0.632929 0.635749 0.641463 0.622112 0.606783 0.608813 0.595875 0.625327 0.661926 0.697564 0.704934 0.696373 0.712642 0.729967 0.740882 0.730498 0.731921 0.702306 0.741827 0.767767 0.841922 0.836171 0.834875 0.838819 0.688109 0.755559 0.754501 0.785459 0.816759 0.803795 0.757378 0.835892 0.776422 0.777535 0.817818 0.815937 0.831782 0.826874 0.754679 0.725854 0.683865 1.05698 1.11742 0.925282 0.884921 0.753251 0.924702 0.851352 0.661188 0.581708 1.3858 0.759524 0.476835 1.06976 0.898971 0.796854 0.473399 0.703077 0.798024 0.738777 0.801311 0.79659 0.793725 0.824293 0.837417 0.772535 0.745338 0.746519 0.739638 0.783912 0.809444 0.536817 0.935211 0.644724 0.677217 0.628435 0.555102 0.586957 0.719331 0.65581 0.731484 0.668053 0.750569 0.707552 0.727843 0.729053 0.770888 0.708128 0.638132 0.661676 0.704829 0.666662 0.73683 0.704478 0.830411 0.588298 0.62029 0.654955 0.446842 0.550395 0.490353 0.559438 0.558217 0.563525 0.571872 0.561719 0.57927 0.563868 0.544108 0.574461 0.558194 0.547482 0.52917 0.511647 0.593449 0.545468 0.524532 0.61539 0.657606 0.626299 0.672974 0.607936 0.61406 0.648521 0.62345 0.682876 0.696921 0.728601 0.723718 0.734177 0.732559 0.733048 0.753842 0.750156 0.765892 0.791561 0.784654 0.880347 0.839232 0.776119 0.749683 0.763159 0.704898 0.709526 0.721329 0.729007 0.770886 0.794359 0.750334 0.734557 0.819056 0.860163 0.805291 0.788859 0.790719 0.676092 0.686996 0.816452 0.637623 0.772291 1.00509 0.888557 0.867406 0.819927 0.838669 0.687183 0.642606 0.619496 0.834606 0.588861 0.728031 0.759927 0.731552 0.785352 0.723971 0.769176 0.778643 0.779926 0.79669 0.819292 0.827259 0.796546 0.806321 0.828899 0.72422 0.82146 0.752062 0.728045 0.704075 0.835066 0.757984 0.703435 0.593257 0.562379 0.611716 0.666781 0.58224 0.628276 0.711743 0.714273 0.716707 0.67892 0.688026 0.738254 0.732332 0.665389 0.795264 0.74243 0.670398 0.802395 0.716014 0.697214 0.699427 0.62987 0.736944 0.694217 0.758128 0.666045 0.72359 0.649621 0.487814 0.722702 0.553765 0.356337 0.496901 0.467192 0.596922 0.508055 0.549507 0.553186 0.552406 0.578496 0.552087 0.551299 0.574355 0.600117 0.569239 0.607925 0.596207 0.58574 0.601794 0.59145 0.606419 0.603752 0.627242 0.624303 0.634396 0.640341 0.603192 0.596608 0.595568 0.619506 0.59113 0.660528 0.704274 0.706233 0.708441 0.725642 0.702444 0.752706 0.732239 0.75977 0.741206 0.805676 0.868568 0.800806 0.812198 0.798973 0.747837 0.666001 0.595241 0.770742 0.700202 0.734948 0.763109 0.703609 0.75342 0.708874 0.827156 0.776917 0.675318 0.618084 0.569877 0.954842 0.851415 0.794096 0.772117 0.681719 0.638609 0.59178 0.791583 0.862717 0.811146 0.800114 0.73132 0.753895 0.72293 0.623979 0.759441 0.585689 0.606946 0.685093 0.728295 0.740007 0.759207 0.754487 0.783429 0.759369 0.791331 0.757545 0.758569 0.71706 0.766688 0.717384 0.76886 0.772134 0.754585 0.768522 0.719019 0.679313 0.597994 0.659677 0.55348 0.571061 0.566017 0.558342 0.659158 0.542329 0.628409 0.538406 0.659659 0.769456 0.545338 0.628956 0.74843 0.597315 0.611292 0.583632 0.607409 0.598221 0.711814 0.637171 0.58111 0.551007 0.406417 0.634521 0.622555 0.44323 0.466204 0.476668 0.45396 0.4439 0.470026 0.454837 0.511387 0.51919 0.538735 0.540191 0.555122 0.565676 0.576233 0.585405 0.594948 0.595537 0.612995 0.603889 0.61052 0.6018 0.601864 0.641052 0.594614 0.647624 0.592215 0.65597 0.629539 0.625688 0.596819 0.597842 0.592195 0.633027 0.602216 0.663376 0.663647 0.714596 0.715009 0.690128 0.672484 0.659009 0.665493 0.679253 0.708062 0.72692 0.708415 0.677333 0.563351 0.663843 0.773756 0.741096 0.717156 0.707125 0.671173 0.782304 0.714872 0.750098 0.645605 0.653722 0.754359 0.792635 0.601557 0.556109 0.579049 0.689646 0.689101 0.754414 0.722503 0.70058 0.733322 0.776006 0.804412 0.648251 0.645539 0.463536 0.517241 0.729385 0.649446 0.702278 0.743768 0.766145 0.826982 0.696983 0.622094 0.752184 0.684819 0.804997 0.769085 0.731312 0.631184 0.828528 0.82125 0.72214 0.709447 0.656569 0.648524 0.65167 0.529788 0.582007 0.634145 0.531741 0.603442 0.414318 0.574414 0.37946 0.519735 0.535198 0.621607 0.592705 0.62068 0.519509 0.546551 0.552682 0.529766 0.57449 0.519242 0.59112 0.569186 0.66639 0.54408 0.581558 0.430749 0.650764 0.450651 0.383933 0.447808 0.471914 0.452813 0.460981 0.469867 0.470296 0.47101 0.49583 0.503574 0.508665 0.513012 0.523828 0.535142 0.54544 0.542613 0.553359 0.552171 0.5655 0.554452 0.580838 0.582358 0.594437 0.5967 0.607889 0.585622 0.589691 0.598479 0.589612 0.57518 0.583816 0.584304 0.59882 0.628487 0.638017 0.640728 0.651979 0.614214 0.598722 0.586857 0.576667 0.681348 0.935274 0.800284 0.74105 0.701434 0.679935 0.678051 0.670689 0.666405 0.669615 0.665578 0.67468 0.637145 0.659871 0.665765 0.734828 0.694762 0.675619 0.706713 0.724357 0.701006 0.694255 0.762144 0.769133 0.65863 0.626462 0.719598 0.632574 0.724617 0.855114 0.614144 0.637008 0.479927 0.66036 0.858511 0.798492 0.701553 0.657101 0.815483 0.568054 0.681647 0.840465 0.543719 0.761206 0.732394 0.646309 0.670105 0.345481 0.717341 1.01594 0.664485 0.653083 0.714687 0.708257 0.611189 0.773486 0.68235 0.819688 0.664004 0.597434 0.69688 0.712939 0.687504 0.675777 0.662269 0.638209 0.622351 0.639 0.636927 0.644502 0.654029 0.590851 0.567894 0.607217 0.579961 0.595671 0.585513 0.501545 0.56268 0.539812 0.505833 0.541829 0.63197 0.509406 0.633916 0.579582 0.625845 0.465493 0.610848 0.449589 0.458506 0.485162 0.47347 0.4671 0.467972 0.477507 0.474728 0.473965 0.47557 0.476659 0.49815 0.492575 0.495241 0.504556 0.510988 0.505251 0.527851 0.538496 0.525022 0.564234 0.563923 0.568559 0.577048 0.57984 0.585685 0.589717 0.585423 0.579922 0.576428 0.578902 0.577866 0.578734 0.566396 0.566889 0.569925 0.557641 0.573026 0.593677 0.567663 0.607636 0.649116 0.62292 0.640054 0.671216 0.569484 0.566903 0.719096 0.616517 0.703826 0.67893 0.65022 0.688244 0.654023 0.668769 0.65721 0.644514 0.560333 0.644355 0.535893 0.690374 0.652254 0.780636 0.584793 0.647848 0.666917 0.707748 0.664345 0.661393 0.656006 0.622873 0.712945 0.583896 0.647968 0.581308 0.653542 0.641034 0.740084 0.683632 0.594731 0.527403 0.583646 0.971699 0.9533 0.76438 0.618618 0.566294 0.600502 0.526903 0.579102 1.04849 0.58258 0.485357 0.613402 0.703365 0.824808 0.862563 0.722564 0.67685 0.624917 0.986051 0.22774 0.663779 0.709245 0.68815 0.638847 0.642376 0.523866 0.625419 0.598965 0.51006 0.57472 0.657417 0.606343 0.637245 0.617499 0.643596 0.644698 0.638326 0.598915 0.632844 0.621437 0.610271 0.626541 0.603253 0.629451 0.559734 0.546814 0.487645 0.544511 0.553034 0.533944 0.520247 0.510087 0.571331 0.63431 0.559123 0.532604 0.625166 0.448735 0.459852 0.505424 0.480407 0.471435 0.478969 0.474883 0.459148 0.454654 0.456253 0.447435 0.451725 0.446368 0.501242 0.491041 0.522505 0.49786 0.51178 0.525259 0.49858 0.480547 0.455789 0.517088 0.533647 0.550757 0.55825 0.580292 0.57871 0.587748 0.582924 0.571525 0.533121 0.582638 0.524773 0.567802 0.550009 0.545959 0.554015 0.525004 0.527597 0.518731 0.559093 0.558408 0.587864 0.530227 0.403736 0.496416 0.668799 0.68971 0.742972 0.637693 0.582534 0.629904 0.649807 0.662034 0.594423 0.612457 0.565108 0.600384 0.708086 0.524538 0.540096 0.678952 0.700261 0.702812 0.554345 0.558194 0.573684 0.650209 0.679487 0.677118 0.648179 0.70597 0.589821 0.6308 0.445746 0.697284 0.627613 0.680376 0.697496 0.681712 0.620389 0.693913 0.0769476 0.548578 0.646635 0.384322 0.7312 0.669641 0.76344 0.655346 0.795429 0.100656 0.517072 0.602456 0.311057 0.570295 0.688036 0.66782 0.671613 0.641721 0.617376 0.62665 0.622803 0.529321 0.574113 0.519139 0.539896 0.602965 0.598018 0.634671 0.629559 0.628183 0.629151 0.637281 0.62265 0.67135 0.616493 0.614719 0.598989 0.628899 0.592167 0.527283 0.595306 0.560636 0.553076 0.551802 0.547397 0.576184 0.544366 0.540274 0.481891 0.494857 0.462306 0.459997 0.502317 0.520898 0.490436 0.487246 0.48166 0.479909 0.471642 0.437149 0.440731 0.450665 0.440768 0.440157 0.438289 0.442479 0.478283 0.45676 0.422397 0.479342 0.483521 0.461624 0.506986 0.493407 0.506867 0.462949 0.452637 0.392314 0.545362 0.555647 0.533094 0.540414 0.453499 0.530451 0.494446 0.503595 0.490844 0.524415 0.498819 0.514759 0.526778 0.499318 0.503444 0.526573 0.511728 0.533072 0.507706 0.529517 0.545151 0.461374 0.64646 0.610571 0.619432 0.691557 0.635599 0.619463 0.565989 0.541 0.568218 0.596946 0.506874 0.661562 0.444358 0.587722 0.674165 0.610515 0.617246 0.516057 0.543054 0.55754 0.595487 0.595642 0.688927 0.616089 0.675905 0.701959 0.622658 0.581627 0.600738 0.553387 0.536178 0.607073 0.58995 0.617396 0.701437 0.649302 0.633382 0.355198 0.528442 0.483501 0.767581 0.709584 0.619997 0.704576 0.645824 0.56117 0.526428 0.519554 0.490952 0.539364 0.602435 0.594226 0.584959 0.547894 0.560025 0.558632 0.534354 0.620674 0.554127 0.630261 0.638409 0.687681 0.607805 0.629498 0.627584 0.632534 0.617861 0.574114 0.591919 0.581644 0.58329 0.611484 0.563017 0.551514 0.602016 0.548012 0.539904 0.517514 0.506704 0.525938 0.503345 0.491658 0.514972 0.529312 0.504623 0.482357 0.477691 0.46752 0.456318 0.445834 0.44208 0.446761 0.443193 0.432487 0.0788814 0.231529 0.60044 0.571459 0.364321 0.399602 0.47796 0.46601 0.484848 0.44548 0.44536 0.413302 0.401698 0.635618 0.639178 0.585491 0.549039 0.515016 0.486894 0.514966 0.446754 0.450608 0.433242 0.454874 0.455051 0.465049 0.474966 0.500552 0.485151 0.467443 0.445421 0.461622 0.475782 0.487235 0.466965 0.4722 0.491968 0.464579 0.412116 0.528418 0.512302 0.577216 0.548898 0.519537 0.505687 0.491638 0.476064 0.553359 0.560813 0.528549 0.527857 0.531133 0.481668 0.545488 0.498405 0.552825 0.50857 0.645321 0.610567 0.778949 0.840681 0.689442 0.581976 0.59474 0.561829 0.561624 0.558768 0.599295 0.661615 0.592622 0.599043 0.53971 0.58233 0.576977 0.554945 0.494966 0.401498 0.746141 0.518609 0.688132 0.594661 0.54416 0.555637 0.547544 0.534639 0.515971 0.52271 0.541629 0.532438 0.563264 0.53171 0.524555 0.528657 0.51218 0.522718 0.536095 0.514494 0.522964 0.566861 0.632845 0.555536 0.608017 0.598738 0.569307 0.667128 0.597127 0.669398 0.573161 0.637076 0.593835 0.586304 0.575206 0.612127 0.573482 0.668432 0.562593 0.465864 0.503083 0.522172 0.499665 0.517072 0.502306 0.511986 0.502401 0.482375 0.497026 0.471006 0.485071 0.467077 0.445154 0.448134 0.446624 0.443178 0.443475 0.433152 0.432754 0.433696 0.430798 0.243068 0.283424 0.36388 0.409468 0.435667 0.48411 0.577184 0.47486 0.468211 0.456839 0.407613 0.365856 0.605993 0.617138 0.525069 0.593386 0.397327 0.415944 0.366409 0.404751 0.389207 0.432639 0.388641 0.479951 0.452226 0.475288 0.500114 0.485041 0.428362 0.444656 0.462957 0.458811 0.451189 0.460136 0.460955 0.45787 0.457143 0.456687 0.459656 0.465831 0.471992 0.510211 0.496188 0.507936 0.524603 0.557544 0.533005 0.544241 0.52251 0.522031 0.500235 0.484802 0.502048 0.490888 0.524614 0.494087 0.366381 0.44809 0.622865 0.452981 0.649371 0.904507 0.736326 0.617746 0.565941 0.621057 0.582627 0.57586 0.562137 0.581597 0.573009 0.581697 0.577272 0.557863 0.571785 0.551154 0.552965 0.571102 0.563219 0.50559 0.540171 0.60965 0.618257 0.631527 0.653573 0.670101 0.604346 0.587128 0.583966 0.536622 0.541406 0.547531 0.528314 0.516517 0.502098 0.508329 0.506338 0.511273 0.514997 0.531431 0.511766 0.509152 0.509327 0.527116 0.51545 0.53591 0.52372 0.517097 0.498075 0.475657 0.54721 0.449731 0.524625 0.583012 0.387569 0.613272 0.498845 0.265446 0.559169 0.383181 0.421255 0.397058 0.40428 0.416895 0.515417 0.510971 0.427615 0.52261 0.481803 0.485097 0.462623 0.448585 0.461129 0.448272 0.444191 0.439048 0.443157 0.442766 0.428721 0.428154 0.427056 0.42985 0.425238 0.319764 0.31294 0.268688 0.189599 0.389138 0.289663 0.36047 0.421147 0.499131 0.483897 0.538465 0.465529 0.454861 0.469791 0.50306 0.478024 0.574307 0.426326 0.39143 0.391715 0.403001 0.430437 0.485179 0.479251 0.481632 0.470356 0.452037 0.457291 0.463544 0.466646 0.466691 0.478577 0.471208 0.48814 0.499964 0.51061 0.515192 0.505712 0.507428 0.493853 0.486513 0.48327 0.477599 0.462025 0.457198 0.51651 0.476322 0.858968 0.430826 0.47838 0.424374 0.680339 0.571072 0.602408 0.621848 0.58782 0.606489 0.590789 0.574584 0.579577 0.551132 0.557229 0.554283 0.512619 0.457566 0.508883 0.613245 0.488785 0.441431 0.550779 0.63972 0.612356 0.631539 0.578858 0.542394 0.582084 0.51892 0.531532 0.513024 0.505735 0.507264 0.510984 0.509679 0.507853 0.506249 0.518602 0.516969 0.518192 0.495445 0.496749 0.474741 0.454222 0.446956 0.391448 0.340739 0.370013 0.96033 0.405845 0.630615 0.562038 0.478341 0.497515 0.459444 0.421354 0.399548 0.39023 0.523793 0.401423 0.446355 0.407635 0.443625 0.425843 0.437117 0.438812 0.438086 0.430796 0.43249 0.426571 0.419111 0.421398 0.413758 0.423225 0.407779 0.42296 0.42321 0.412564 0.422005 0.420232 0.320168 0.335661 0.33076 0.327192 0.305947 0.290491 0.274165 0.249281 0.247013 0.252337 0.293612 0.553986 0.54733 0.558301 0.483969 0.465497 0.394359 0.544212 0.428997 0.438876 0.409428 0.41109 0.409748 0.417075 0.431477 0.444036 0.480501 0.473368 0.462532 0.457506 0.458338 0.467761 0.461419 0.476513 0.480933 0.48516 0.492511 0.502703 0.504098 0.507764 0.508143 0.508783 0.508559 0.49751 0.499566 0.466487 0.48553 0.47897 0.463841 0.444321 0.517777 1.19811 0.898821 0.578467 0.374418 0.447996 0.568395 0.574189 0.617479 0.571157 0.648372 0.605799 0.588222 0.554852 0.542313 0.553734 0.552791 0.469464 0.437644 0.480884 0.557422 0.559014 0.578822 0.696487 0.517372 0.442148 0.623848 0.64407 0.651874 0.630643 0.57507 0.552319 0.495514 0.522262 0.514076 0.530681 0.522117 0.513151 0.522017 0.511857 0.511135 0.518644 0.516525 0.507284 0.513276 0.509693 0.51005 0.510783 0.506047 0.488326 0.478548 0.492812 0.465191 0.466166 0.436378 0.490156 0.529706 0.518243 0.535033 0.300167 0.370199 0.415556 0.438404 0.454774 0.445865 0.413634 0.434574 0.41775 0.385159 0.394404 0.399441 0.429072 0.407957 0.419432 0.427307 0.428498 0.421765 0.425018 0.414695 0.413769 0.411241 0.408146 0.413876 0.408728 0.416989 0.41626 0.410416 0.179945 0.0673754 0.305493 0.320332 0.315694 0.29938 0.284929 0.287178 0.427789 0.364579 0.406517 0.472479 0.474959 0.562866 0.646314 0.615941 0.613466 0.588237 0.568038 0.454706 0.475871 0.391131 0.412428 0.380488 0.343643 0.40863 0.401368 0.416963 0.395619 0.398056 0.407111 0.425658 0.442619 0.45812 0.449618 0.46063 0.456629 0.460939 0.459951 0.458884 0.463276 0.462715 0.48476 0.491411 0.49258 0.495138 0.500513 0.499865 0.503953 0.503344 0.508869 0.514111 0.505878 0.504106 0.49483 0.502918 0.498672 0.483865 0.903299 0.468367 0.309464 0.163032 0.420219 0.392636 0.560005 0.660859 0.646271 0.645371 0.578098 0.574758 0.566876 0.597431 0.560979 0.556134 0.540954 0.585054 0.528245 0.589018 0.453283 0.517182 0.351432 0.349735 0.515183 0.455017 0.605974 0.59414 0.592728 0.635618 0.624382 0.582644 0.541971 0.557767 0.536319 0.562805 0.539237 0.537158 0.551541 0.537239 0.522543 0.534877 0.52491 0.517822 0.513812 0.509334 0.503895 0.505098 0.479221 0.493768 0.4672 0.474548 0.46662 0.481445 0.505434 0.457957 0.359605 0.432676 0.452149 0.454564 0.443014 0.457048 0.440341 0.442258 0.432992 0.429838 0.393258 0.397576 0.404575 0.409391 0.4194 0.42089 0.413817 0.42167 0.413177 0.401429 0.399502 0.410233 0.407506 0.400294 0.401895 0.410604 0.405589 0.407967 0.414661 0.408349 0.414523 0.415898 0.40499 0.387587 0.374561 0.179536 0.231164 0.374375 0.333712 0.332897 0.31441 0.315573 0.314864 0.347418 0.348418 0.401788 0.348479 0.405871 0.487836 0.542899 0.548165 0.472138 0.419552 0.272164 0.364491 0.39917 0.405156 0.396071 0.396228 0.402717 0.394661 0.42018 0.413456 0.4269 0.437129 0.443576 0.448328 0.442007 0.452638 0.45733 0.445101 0.497433 0.503473 0.465088 0.498884 0.499074 0.504113 0.506151 0.507908 0.511935 0.514422 0.509681 0.519037 0.507913 0.504963 0.498711 0.494379 0.616383 0.506316 0.7938 0.2493 0.274792 0.130696 0.313917 0.419156 0.525505 0.562381 0.630177 0.640022 0.587432 0.586779 0.627459 0.532561 0.505798 0.514414 0.528419 0.42016 0.530831 0.477864 0.430484 0.388774 0.328409 0.580757 0.703963 0.614064 0.563013 0.539756 0.580034 0.56202 0.5671 0.556805 0.552214 0.542962 0.523916 0.534629 0.520951 0.514923 0.50196 0.488734 0.498337 0.479226 0.467733 0.47535 0.464738 0.463535 0.480354 0.468089 0.474297 0.467626 0.425528 0.459675 0.460381 0.471489 0.439464 0.468504 0.467859 0.422755 0.395014 0.403383 0.415959 0.427603 0.418361 0.41568 0.404112 0.403503 0.399541 0.392867 0.383677 0.386175 0.38653 0.389791 0.397262 0.400351 0.408098 0.410611 0.409143 0.34039 0.402224 0.280759 0.299441 0.234714 0.263167 0.320876 0.356208 0.373978 0.357518 0.351598 0.301435 0.309692 0.288622 0.441882 0.476824 0.387308 0.648774 0.382934 0.340488 0.36835 0.403176 0.384393 0.395248 0.411872 0.409289 0.417702 0.416219 0.425212 0.436512 0.445523 0.45417 0.449677 0.465511 0.477968 0.485713 0.492456 0.499167 0.496158 0.500813 0.507886 0.510206 0.510369 0.522548 0.506851 0.514533 0.513954 0.510958 0.522665 0.553807 0.483555 0.483231 0.358965 0.291321 0.310438 0.32835 0.413518 0.555465 0.542682 0.606604 0.615028 0.585793 0.529805 0.537581 0.361933 0.490028 0.513036 0.45314 0.440733 0.515713 0.429817 0.402959 0.382123 0.353299 0.366201 0.344338 0.573654 0.651265 0.680028 0.641697 0.582199 0.581572 0.567968 0.562822 0.552325 0.546846 0.530641 0.524336 0.511788 0.523714 0.506769 0.496844 0.491101 0.482293 0.49764 0.471237 0.510843 0.485284 0.453089 0.467475 0.472404 0.475241 0.481549 0.479837 0.497695 0.49085 0.378402 0.380454 0.409542 0.382649 0.406178 0.393348 0.393892 0.385317 0.387512 0.377747 0.37024 0.353149 0.373574 0.362487 0.378513 0.370357 0.386797 0.390466 0.373412 0.399263 0.383102 0.409272 0.391821 0.410647 0.393371 0.398889 0.224282 0.160021 0.380498 0.350231 0.530645 0.303191 1.04558 0.321564 0.38441 0.610622 0.790762 0.449538 0.398615 0.413485 0.363834 0.337767 0.326403 0.375285 0.321986 0.455395 0.415437 0.399883 0.430537 0.363197 0.389954 0.457777 0.443887 0.430386 0.42285 0.42846 0.4256 0.439028 0.451405 0.453796 0.466948 0.461677 0.470909 0.4785 0.488361 0.496827 0.500873 0.503056 0.503425 0.507138 0.510332 0.512273 0.518811 0.512075 0.520816 0.5202 0.520097 0.51251 0.51624 0.511124 0.508942 0.490643 0.473902 0.466854 0.415966 0.384906 0.474882 0.374791 0.406002 0.420847 0.50501 0.578366 0.588363 0.586783 0.567309 0.52599 0.452342 0.470839 0.352093 0.451072 0.514062 0.429067 0.414849 0.472939 0.463693 0.432049 0.379048 0.345985 0.354592 0.705047 0.512736 0.736539 0.48487 0.558883 0.480177 0.614785 0.653122 0.616105 0.623329 0.600085 0.574722 0.569568 0.557505 0.550391 0.541313 0.541985 0.538567 0.532301 0.528463 0.519255 0.520245 0.51137 0.505946 0.504538 0.507583 0.517943 0.512439 0.452793 0.460327 0.480363 0.492723 0.488693 0.522328 0.498808 0.545451 0.519289 0.104564 0.373216 0.365503 0.377964 0.379175 0.376042 0.379163 0.382555 0.369218 0.373708 0.362247 0.359526 0.346854 0.346463 0.356024 0.359148 0.365716 0.370112 0.385364 0.429575 0.337459 0.144137 0.112053 0.106449 1.54804 0.114003 0.229271 0.791584 0.773266 0.688998 0.482888 0.357503 0.146729 0.503159 0.460564 0.616406 0.344085 0.519521 0.448652 0.534224 0.407964 0.455015 0.474915 0.50966 0.479703 0.466102 0.460486 0.442484 0.43194 0.428866 0.428748 0.419658 0.442104 0.447631 0.472904 0.46455 0.471007 0.501909 0.507239 0.510441 0.510831 0.512583 0.519032 0.519523 0.521954 0.522644 0.503828 0.518541 0.516059 0.516629 0.510362 0.487121 0.473836 0.436936 0.429554 0.486745 0.508658 0.511924 0.566419 0.539311 0.58629 0.501176 0.416231 0.363072 0.393442 0.495002 0.469518 0.389664 0.465563 0.39878 0.382774 0.395492 0.395018 0.385968 0.276593 0.168089 0.384412 0.426487 0.610771 0.631168 0.611652 0.596386 0.58027 0.570825 0.563564 0.554889 0.544167 0.539918 0.53556 0.534075 0.526045 0.527691 0.525196 0.515012 0.511551 0.510765 0.515639 0.527939 0.497686 0.436128 0.445104 0.468698 0.469487 0.563827 0.393263 0.523014 0.368291 0.401733 0.376203 0.370359 0.372706 0.377661 0.389276 0.400771 0.345472 0.326111 0.331826 0.344193 0.333947 0.350147 0.352699 0.338463 0.339099 0.334561 0.398899 0.287577 0.181408 0.141655 0.0712917 2.34179 0.0610546 0.233521 0.522853 0.257935 0.971179 0.471628 0.107427 0.112254 0.149486 0.394862 0.481918 0.0756649 0.360767 0.425008 0.446637 0.396188 0.415725 0.452337 0.435757 0.459027 0.440961 0.431321 0.421618 0.48342 0.479693 0.500492 0.485208 0.492456 0.494671 0.512534 0.513698 0.518984 0.516317 0.52234 0.522295 0.525384 0.524956 0.528788 0.520533 0.523639 0.515686 0.521819 0.518441 0.503697 0.493657 0.499104 0.485396 0.473098 0.467915 0.528749 0.490884 0.472476 0.436974 0.486898 0.543217 0.491997 0.446146 0.394328 0.360022 0.310442 0.302973 0.39069 0.635354 0.432757 0.48199 0.34092 0.416998 0.244476 0.237256 0.326258 0.360175 0.643125 0.651823 0.635658 0.6336 0.581412 0.55209 0.558179 0.55108 0.543898 0.529101 0.527801 0.520785 0.518975 0.513689 0.515038 0.513577 0.516539 0.518686 0.542381 0.434478 0.444657 0.435621 0.425027 0.439198 0.466849 0.467729 0.438254 0.400003 0.414706 0.377342 0.368332 0.371211 0.371086 0.379862 0.374298 0.294494 0.306291 0.323359 0.33792 0.349537 0.335162 0.323405 0.346855 0.352864 0.381267 0.327485 0.28373 0.291717 0.264004 0.505653 0.265464 0.202566 0.238538 0.0254946 0.247491 0.42316 0.506312 0.816639 0.985149 0.419188 0.483826 0.357314 0.00997581 0.202378 0.480464 0.310881 0.411286 0.41217 0.358131 0.405343 0.415588 0.423726 0.427597 0.430562 0.435749 0.427747 0.432372 0.445756 0.514272 0.512306 0.511576 0.512287 0.522469 0.505686 0.514274 0.515986 0.52225 0.525561 0.524199 0.527841 0.528979 0.528681 0.52262 0.524969 0.517053 0.525167 0.516223 0.505154 0.506807 0.479967 0.504806 0.501437 0.471837 0.441251 0.454135 0.325782 0.378368 0.27849 0.268155 0.264133 0.652515 0.61287 0.600591 0.566341 0.53517 0.557195 0.544134 0.539512 0.533913 0.522936 0.514437 0.516722 0.517054 0.519018 0.508342 0.516986 0.555678 0.475597 0.552061 0.451902 0.435633 0.431392 0.457389 0.454389 0.445163 0.431782 0.410469 0.399686 0.360508 0.375881 0.375372 0.352979 0.316457 0.31172 0.323075 0.324176 0.33368 0.329636 0.314082 0.338157 0.345759 0.353368 0.330631 0.357324 0.293932 0.220291 0.394125 0.525352 0.394944 0.0513824 0.419388 0.183323 0.369493 0.409104 0.523396 0.218419 0.453866 0.430383 0.659594 0.646457 0.285993 0.253123 0.423843 0.382127 0.400908 0.414981 0.411027 0.414615 0.421859 0.429703 0.441 0.447054 0.452523 0.434643 0.487696 0.503056 0.512483 0.532553 0.510256 0.523968 0.532219 0.528365 0.532231 0.531817 0.534659 0.539996 0.532146 0.535862 0.523865 0.535226 0.524645 0.508427 0.209494 0.612242 0.588484 0.516001 0.530203 0.557592 0.542715 0.55882 0.542161 0.542094 0.531931 0.545276 0.505372 0.502534 0.529802 0.585141 0.632312 0.506771 0.526259 0.540265 0.507286 0.466897 0.478539 0.469554 0.456682 0.450595 0.466282 0.453077 0.425559 0.413704 0.417707 0.460191 0.491896 0.277742 0.254611 0.305449 0.322486 0.32347 0.31983 0.344337 0.431262 0.344763 0.334826 0.340852 0.412756 0.538881 0.547102 0.530308 0.0923908 0.479935 0.499358 0.993067 0.257517 0.301487 0.342761 0.386304 0.635033 0.57203 0.444323 0.432293 0.418907 0.421063 0.416742 0.436151 0.42662 0.419936 0.429394 0.439502 0.443162 0.434558 0.429106 0.486631 0.502171 0.508271 0.506792 0.496555 0.494604 0.507548 0.530669 0.538835 0.533234 0.539787 0.541645 0.540841 0.533318 0.547526 0.542153 0.545605 0.516016 0.520008 0.489916 0.497327 0.495731 0.453874 0.555527 0.468835 0.518495 0.59806 0.566504 0.579859 0.546148 0.548047 0.491259 0.456284 0.384172 0.362135 0.410289 0.434684 0.480799 0.146506 0.212343 0.283794 0.320838 0.304728 0.314629 0.319337 0.264547 0.482417 0.364603 0.387308 0.562825 0.780594 0.477297 0.541435 0.539371 0.618048 0.161485 0.0861718 0.787136 0.408184 0.342405 0.422275 0.421249 0.387325 0.489671 0.365331 0.458366 0.429268 0.387689 0.438003 0.431615 0.428247 0.439988 0.451876 0.459097 0.464906 0.491903 0.432297 0.496865 0.501869 0.485928 0.505673 0.532618 0.501473 0.603659 0.633382 0.564055 0.546408 0.580474 0.545679 0.503366 0.508366 0.441818 0.356602 0.294766 0.382004 0.417273 0.455675 0.403497 0.415789 0.330553 0.325728 0.308577 0.369796 0.315352 0.85525 0.63261 0.30489 0.610548 0.627676 0.262927 0.13919 0.103386 0.798789 0.655026 0.643672 0.293736 0.50542 0.444159 0.37566 0.431971 0.429124 0.448425 0.458488 0.522143 0.516272 0.552302 0.321518 0.345078 0.525207 0.163194 0.35862 0.413082 0.386627 0.334743 0.486595 0.231119 0.627962 0.562255 0.50984 0.413997 
SCALARS Stress float 1
LOOKUP_TABLE default
-46777200000.0 -26926400000.0 -87816100000.0 -29770300000.0 -80046700000.0 -54679700000.0 -93715300000.0 -81993500000.0 -106565000000.0 -66644100000.0 -118661000000.0 -64310200000.0 -222365000000.0 -228536000000.0 -93669600000.0 -182699000000.0 -57958200000.0 -91752600000.0 -78130900000.0 -101774000000.0 -60877700000.0 -148316000000.0 -109372000000.0 -43793300000.0 -114794000000.0 -20271800000.0 -157825000000.0 -164731000000.0 -114886000000.0 -193055000000.0 -254348000000.0 -183780000000.0 -382790000000.0 -220888000000.0 -284034000000.0 -109461000000.0 -172192000000.0 -95451900000.0 -36877100000.0 -161312000000.0 -300439000000.0 -428868000000.0 -67759600000.0 -37813600000.0 -115460000000.0 -94193600000.0 -70527900000.0 -42539300000.0 -32822500000.0 -115068000000.0 -284125000000.0 -449250000000.0 -24460400000.0 -293677000000.0 -337060000000.0 -559751000000.0 -131565000000.0 -340586000000.0 -332367000000.0 -330528000000.0 -475218000000.0 -305122000000.0 -127740000000.0 -214409000000.0 -236848000000.0 -396072000000.0 -393177000000.0 -298677000000.0 -229288000000.0 -194898000000.0 -267200000000.0 -161043000000.0 -141094000000.0 -82253700000.0 -66177200000.0 -247531000000.0 -510865000000.0 -735465000000.0 -92403000000.0 -542714000000.0 -591682000000.0 -180507000000.0 -517918000000.0 -184490000000.0 -585233000000.0 -767654000000.0 -359209000000.0 -226583000000.0 -413857000000.0 -534306000000.0 -187799000000.0 -283853000000.0 -232874000000.0 -596963000000.0 -479629000000.0 -20039200000.0 -94114100000.0 -273633000000.0 -161841000000.0 -140937000000.0 -240058000000.0 -90944100000.0 -31449200000.0 -131467000000.0 -360612000000.0 -744413000000.0 -919840000000.0 -336939000000.0 -1.09341e+12 -362682000000.0 -604949000000.0 -286102000000.0 -914547000000.0 -1.26419e+12 -320218000000.0 -480795000000.0 -862632000000.0 -254028000000.0 -510289000000.0 -908843000000.0 -567255000000.0 -635134000000.0 -1.06074e+12 -450006000000.0 -338042000000.0 -631009000000.0 -614770000000.0 -440008000000.0 -312330000000.0 -482888000000.0 -59035500000.0 -278717000000.0 -39182900000.0 -96202500000.0 -460120000000.0 -634959000000.0 -363796000000.0 -276526000000.0 -1.71472e+12 -287928000000.0 -943313000000.0 -944963000000.0 -1.15934e+12 -198292000000.0 -1.30465e+12 -1.17311e+12 -1.43518e+12 -514856000000.0 -344635000000.0 -624586000000.0 -64772300000.0 -835554000000.0 -578366000000.0 -417943000000.0 -298942000000.0 -180320000000.0 -229272000000.0 -169516000000.0 -234241000000.0 -162639000000.0 -43605200000.0 -39000600000.0 -161364000000.0 -171055000000.0 -172522000000.0 -561337000000.0 -531683000000.0 -746077000000.0 -1.75763e+12 -887160000000.0 -1.76881e+12 -680670000000.0 -108591000000.0 -1.1254e+12 -1.37696e+12 -746677000000.0 -688089000000.0 -1.78311e+12 -923733000000.0 -889520000000.0 -1.23659e+12 -1.08053e+12 -733216000000.0 -556710000000.0 -320092000000.0 -341080000000.0 -317476000000.0 -42557100000.0 -54869800000.0 -61229800000.0 -18487600000.0 -60114200000.0 -376632000000.0 -512710000000.0 -272423000000.0 -1.03508e+12 -218567000000.0 -765576000000.0 -1.52172e+12 -1.29168e+12 -707048000000.0 -704691000000.0 -1.45349e+12 -1.59481e+12 -945139000000.0 -891764000000.0 -3.03968e+12 -2.13724e+12 -1.55918e+12 -922338000000.0 -1.07112e+12 -1.46359e+12 -519411000000.0 -294047000000.0 -578519000000.0 -489663000000.0 -360928000000.0 -37412100000.0 -118132000000.0 -21234800000.0 -24182000000.0 -148383000000.0 -176067000000.0 -836486000000.0 -501868000000.0 -767360000000.0 -1.04617e+12 -1.60857e+12 -1.32979e+12 -725805000000.0 -1.66303e+12 -2.11274e+12 -1.11005e+12 -692618000000.0 -2.18944e+12 -891136000000.0 -3.82104e+12 -1.5879e+12 -1.89388e+12 -1.07661e+12 -708268000000.0 -2.14415e+12 -1.69937e+12 -910402000000.0 -1.0942e+12 -313735000000.0 -379803000000.0 -57983600000.0 -19944100000.0 -112942000000.0 -123269000000.0 -56316500000.0 -351685000000.0 -650003000000.0 -1.06467e+12 -1.5192e+12 -1.19504e+12 -1.87797e+12 -2.31553e+12 -2.96547e+12 -1.23565e+12 -2.01732e+12 -2.15604e+12 -913436000000.0 -2.6405e+12 -3.74643e+12 -1.58795e+12 -897782000000.0 -2.39256e+12 -454534000000.0 -1.01714e+12 -2.29979e+12 -116729000000.0 -1.35232e+12 -192855000000.0 -1.16918e+12 -686206000000.0 -262625000000.0 -69294900000.0 -97642800000.0 -501988000000.0 -453513000000.0 -800617000000.0 -845084000000.0 -1.38931e+12 -480436000000.0 -1.13084e+12 -1.60128e+12 -1.03568e+12 -2.56497e+12 -2.49105e+12 -3.26015e+12 -918944000000.0 -1.33868e+12 -924122000000.0 -745598000000.0 -1.33353e+12 -2.4646e+12 -3.24357e+12 -1.04296e+12 -2.94514e+12 -1.21322e+12 -607710000000.0 -2.43641e+12 -807691000000.0 -1.26863e+12 -726519000000.0 -439388000000.0 -1.17596e+12 -278276000000.0 -85101300000.0 -156647000000.0 -581803000000.0 -383154000000.0 -1.12178e+12 -1.44236e+12 -1.48204e+12 -1.32097e+12 -2.88419e+12 -3.16714e+12 -2.38399e+12 -1.36953e+12 -1.97029e+12 -2.82769e+12 -3.56011e+12 -3.81494e+12 -2.90685e+12 -2.10652e+12 -1.94924e+12 -1.84238e+12 -911700000000.0 -2.27484e+12 -696849000000.0 -1.66345e+12 -53455300000.0 -739118000000.0 -905192000000.0 -490875000000.0 -87330700000.0 -257912000000.0 -90553400000.0 -829542000000.0 -462629000000.0 -463119000000.0 -1.7548e+12 -1.34225e+12 -1.57537e+12 -2.26059e+12 -2.87368e+12 -2.76677e+12 -1.46122e+12 -2.14433e+12 -1.87713e+12 -1.43218e+12 -2.27499e+12 -1.94451e+12 -3.22712e+12 -2.15012e+12 -1.22591e+12 -2.15625e+12 -2.00482e+12 -2.09338e+12 -2.48415e+12 -3.12101e+12 -1.91683e+12 -1.08308e+12 -1.99879e+12 -1.14515e+12 -1.30916e+12 -1.12294e+12 -1.70058e+12 -1.12928e+12 -935667000000.0 -281349000000.0 -243681000000.0 -288107000000.0 -138163000000.0 -1.05017e+12 -1.15643e+12 -2.24222e+12 -1.74637e+12 -3.02638e+12 -2.93219e+12 -1.88396e+12 -3.82147e+12 -2.98301e+12 -3.01771e+12 -1.40019e+12 -979417000000.0 -2.63987e+12 -1.85216e+12 -1.60923e+12 -2.2196e+12 -2.56503e+12 -3.0447e+12 -3.9156e+12 -3.41876e+12 -2.27831e+12 -1.43908e+12 -2.18636e+12 -2.38701e+12 -2.02587e+12 -1.32082e+12 -1.98579e+12 -1.11955e+12 -1.49924e+12 -356621000000.0 -882489000000.0 -231274000000.0 -62090000000.0 -72447400000.0 -306849000000.0 -541400000000.0 -699277000000.0 -934076000000.0 -498256000000.0 -1.23586e+12 -2.48274e+12 -3.53101e+12 -1.83226e+12 -1.3967e+12 -2.44368e+12 -2.72644e+12 -2.46739e+12 -1.5603e+12 -2.05999e+12 -2.69978e+12 -3.20592e+12 -3.16915e+12 -3.39242e+12 -2.83879e+12 -2.00781e+12 -1.97856e+12 -2.59644e+12 -3.09705e+12 -4.89702e+12 -2.73135e+12 -3.29973e+12 -2.26165e+12 -1.90802e+12 -1.48754e+12 -1.62793e+12 -2.24298e+12 -803817000000.0 -281945000000.0 -124313000000.0 -997741000000.0 -602851000000.0 -1.04823e+12 -922634000000.0 -2.11293e+12 -2.52978e+12 -2.49526e+12 -2.59327e+12 -931693000000.0 -2.68048e+12 -3.26274e+12 -3.84274e+12 -1.63194e+12 -2.14723e+12 -3.34963e+12 -4.06793e+12 -2.03416e+12 -6.06055e+12 -3.65096e+12 -5.27014e+12 -3.12757e+12 -2.29928e+12 -3.40824e+12 -4.52618e+12 -2.31879e+12 -1.60728e+12 -1.45714e+12 -2.29014e+12 -2.40568e+12 -2.0733e+12 -989866000000.0 -478126000000.0 -332694000000.0 -102303000000.0 -226550000000.0 -1.24019e+12 -2.4618e+12 -780474000000.0 -2.0101e+12 -3.95677e+12 -2.08109e+12 -3.645e+12 -3.84923e+12 -4.24113e+12 -2.93534e+12 -3.04658e+12 -4.13714e+12 -3.60911e+12 -5.59848e+12 -4.68898e+12 -2.64064e+12 -4.58054e+12 -4.04554e+12 -1.83445e+12 -3.44319e+12 -2.81243e+12 -3.00596e+12 -2.15335e+12 -1.19671e+12 -3.28508e+12 -3.24158e+12 -4.15253e+12 -1.89463e+12 -558626000000.0 -154104000000.0 -169564000000.0 -1.49669e+12 -3.10088e+12 -3.01982e+12 -4.46117e+12 -4.47999e+12 -3.83419e+12 -3.08666e+12 -3.7574e+12 -4.59046e+12 -3.6047e+12 -1.76699e+12 -4.18619e+12 -4.49784e+12 -4.50892e+12 -5.26642e+12 -5.74377e+12 -3.55103e+12 -3.7228e+12 -8.53039e+12 -4.18119e+12 -6.15951e+12 -3.50012e+12 -2.19278e+12 -2.3406e+12 -3.40712e+12 -3.81035e+12 -4.97076e+12 -4.50015e+12 -5.1166e+12 -4.6847e+12 -3.09508e+12 -4.77446e+12 -1.1917e+12 -2.64506e+12 -4.23278e+12 -4.11605e+12 -5.06766e+12 -3.82666e+12 -2.51824e+12 -281898000000.0 -631689000000.0 -2.8654e+12 -3.91407e+12 -6.08425e+12 -5.18342e+12 -3.71321e+12 -3.1189e+12 -8.40337e+12 -4.16588e+12 -3.76511e+12 -4.73765e+12 -4.57376e+12 -7.29689e+12 -7.87855e+12 -3.52221e+12 -2.92162e+12 -4.32101e+12 -5.30089e+12 -9.03414e+12 -2.98081e+12 -5.00681e+12 -4.44201e+12 -5.81424e+12 -2.83277e+12 -3.71447e+12 -814481000000.0 -5.44104e+12 -3.51216e+12 -5.82731e+12 -4.10774e+12 -7.1718e+12 -2.34836e+12 -4.82701e+12 -4.32578e+12 -3.72218e+12 -6.79148e+12 -6.75735e+12 -5.61239e+12 -6.73377e+12 -3.63099e+12 -6.02965e+12 -4.63783e+12 -4.57623e+12 -3.54011e+12 -6.35562e+12 -9.97901e+12 -5.26183e+12 -6.75558e+12 -7.53154e+12 -7.27124e+12 -9.33817e+12 -4.84658e+12 -6.81748e+12 -5.23395e+12 -4.35847e+12 -2.61098e+12 -5.49659e+12 -6.55725e+12 -2.99306e+12 -4.0706e+12 -2.85396e+12 -6.13928e+12 -4.38073e+12 -8.65941e+12 -6.16783e+12 -4.42453e+12 -5.86205e+12 -5.92639e+12 -3.97442e+12 -5.0752e+12 -3.97233e+12 -6.03259e+12 -4.58847e+12 -6.64383e+12 -6.88014e+12 -6.05161e+12 -7.42581e+12 -7.55652e+12 -6.47265e+12 -5.0676e+12 -2.29e+12 -7.04355e+12 -4.63041e+12 -9.16667e+12 -1.30768e+13 -4.71206e+12 -6.42312e+12 -12549700000.0 -2.02651e+12 -5.51568e+12 -4.29763e+12 -5.33058e+12 -4.39331e+12 -5.07405e+12 -5.70247e+12 -3.6962e+12 -6.80391e+12 -6.9496e+12 -2.32558e+12 -4.95345e+12 -4.25117e+12 -5.98851e+12 -5.8811e+12 -2.61009e+12 -4.25718e+12 -2.2547e+12 -6.02023e+12 -5.80409e+12 -5.68776e+12 -4.56804e+12 -4.13411e+12 -5.57851e+12 -7.52009e+12 -8.83554e+12 -5.85681e+12 -5.50553e+12 -1.02487e+13 -6.78329e+12 -7.12701e+12 -9.95102e+12 -3.93325e+12 -4.76168e+12 -12549700000.0 -4.26807e+12 -3.77593e+12 -6.641e+12 -4.74058e+12 -3.1091e+12 -5.59692e+12 -4.126e+12 -3.35966e+12 -3.73174e+12 -7.46052e+12 -5.70133e+12 -6.03707e+12 -4.88842e+12 -6.579e+12 -5.72129e+12 -7.44883e+12 -3.66054e+12 -6.24741e+12 -6.19995e+12 -4.20055e+12 -6.85155e+12 -6.47729e+12 -8.22817e+12 -3.67359e+12 -1.67574e+12 -3.81872e+12 -3.60238e+12 -4.75906e+12 -3.32469e+12 -2.45962e+12 -5.69762e+12 -6.62921e+12 -4.33896e+12 -6.24019e+12 -5.11255e+12 -7.90066e+12 -8.02545e+12 -7.41609e+12 -3.29722e+12 -3.6847e+12 -3.91202e+12 -2.64957e+12 -4.48605e+12 -3.0475e+12 -6.34926e+12 -3.47797e+12 -4.93229e+12 -7.05454e+12 -4.91295e+12 -4.21355e+12 -3.94237e+12 -6.03079e+12 -6.44765e+12 -4.13129e+12 -6.24203e+12 -6.33111e+12 -5.21394e+12 -4.43091e+12 -6.13192e+12 -4.9872e+12 -3.59759e+12 -7.96536e+12 -5.25091e+12 -2.97838e+12 -3.98061e+12 -7.14004e+12 -5.66317e+12 -3.64303e+12 -3.43695e+12 -4.89003e+12 -5.50236e+12 -8.49375e+12 -6.31255e+12 -9.48638e+12 -5.21577e+12 -8.60327e+12 -8.59618e+12 -2.63928e+12 -5.4374e+12 -3.21579e+12 -4.2549e+12 -12549700000.0 -5.07623e+12 -6.03289e+12 -7.06096e+12 -8.83895e+12 -6.26447e+12 -3.97684e+12 -5.87963e+12 -8.33431e+12 -6.06579e+12 -8.29068e+12 -6.10986e+12 -3.31914e+12 -3.56016e+12 -4.39728e+12 -6.65443e+12 -8.02536e+12 -4.03394e+12 -5.80704e+12 -9.89301e+12 -7.79791e+12 -3.56774e+12 -2.15196e+12 -4.78435e+12 -8.09817e+12 -8.13875e+12 -4.17121e+12 -6.03499e+12 -7.10078e+12 -6.02653e+12 -6.45664e+12 -6.11365e+12 -7.60103e+12 -4.56222e+12 -4.47252e+12 -3.76722e+12 -4.06653e+12 -4.52764e+12 -2.78568e+12 -5.17405e+12 -4.07465e+12 -5.61723e+12 -9.48388e+12 -9.17445e+12 -1.15127e+13 -9.59607e+12 -5.45652e+12 -6.13626e+12 -8.20761e+12 -8.60516e+12 -4.75029e+12 -1.168e+13 -4.53847e+12 -6.19672e+12 -7.76493e+12 -6.29283e+12 -8.26566e+12 -7.4906e+12 -8.91733e+12 -9.61583e+12 -8.39185e+12 -7.39508e+12 -7.81487e+12 -4.81476e+12 -9.98691e+12 -4.60458e+12 -5.19253e+12 -6.02113e+12 -4.50044e+12 -5.99079e+12 -7.86001e+12 -6.34187e+12 -3.40149e+12 -4.46905e+12 -4.44673e+12 -4.25773e+12 -4.89818e+12 -6.15629e+12 -4.90882e+12 -3.92484e+12 -2.54766e+12 -4.79393e+12 -7.35206e+12 -7.68389e+12 -4.25508e+12 -4.6292e+12 -9.23293e+12 -7.8088e+12 -6.44217e+12 -5.56112e+12 -6.80744e+12 -3.21016e+12 -9.65662e+12 -6.82129e+12 -5.18106e+12 -7.657e+12 -9.74047e+12 -5.88519e+12 -6.54133e+12 -5.22816e+12 -6.1882e+12 -5.44844e+12 -1.1631e+13 -5.19807e+12 -4.80257e+12 -7.05607e+12 -4.19065e+12 -6.33244e+12 -7.81504e+12 -6.74082e+12 -5.68084e+12 -5.04969e+12 -6.51799e+12 -5.16348e+12 -2.63407e+12 -12549700000.0 -12549700000.0 -12549700000.0 -3.81056e+12 -6.24117e+12 -7.33637e+12 -7.20002e+12 -1.07058e+13 -7.27899e+12 -6.5288e+12 -8.39863e+12 -8.40308e+12 -5.61557e+12 -5.71541e+12 -4.03054e+12 -6.84014e+12 -7.36422e+12 -6.60834e+12 -9.29393e+12 -6.30724e+12 -6.54309e+12 -5.02783e+12 -4.56879e+12 -8.59195e+12 -7.90661e+12 -6.70195e+12 -9.05403e+12 -5.44423e+12 -4.74973e+12 -4.81099e+12 -6.98784e+12 -9.80147e+12 -5.11089e+12 -4.64505e+12 -4.66126e+12 -1.09098e+13 -8.7122e+12 -7.87643e+12 -1.04521e+13 -3.49299e+12 -4.14703e+12 -6.36393e+12 -5.38942e+12 -7.29607e+12 -6.65945e+12 -6.04191e+12 -6.90974e+12 -3.95249e+12 -6.96071e+12 -5.90766e+12 -7.27658e+12 -1.23816e+13 -4.56226e+12 -5.79361e+12 -9.14728e+12 -8.08416e+12 -3.45866e+12 -8.11106e+12 -8.94449e+12 -2.70577e+12 -4.23203e+12 -6.72108e+12 -5.88484e+12 -2.30736e+12 -5.62789e+12 -4.77035e+12 -7.28642e+12 -7.56807e+12 -6.13483e+12 -9.8231e+12 -5.22037e+12 -6.27735e+12 -7.9479e+12 -4.89861e+12 -6.98171e+12 -6.319e+12 -7.89883e+12 -5.59878e+12 -8.24067e+12 -8.24863e+12 -5.61305e+12 -8.24745e+12 -6.2795e+12 -6.90256e+12 -3.36299e+12 -3.33637e+12 -4.31644e+12 -6.62453e+12 -6.67118e+12 -3.7837e+12 -4.42107e+12 -6.8196e+12 -5.77073e+12 -6.2878e+12 -5.99403e+12 -6.02505e+12 -1.33352e+13 -5.46127e+12 -7.67762e+12 -7.63557e+12 -4.28978e+12 -6.74311e+12 -7.07786e+12 -4.33071e+12 -4.96922e+12 -8.19502e+12 -8.80246e+12 -1.03864e+13 -1.09606e+13 -9.06618e+12 -7.40301e+12 -5.8928e+12 -3.15175e+12 -1.01862e+13 -7.59247e+12 -4.69338e+12 -3.20879e+12 -5.62796e+12 -1.15803e+13 -8.45858e+12 -7.6318e+12 -6.14012e+12 -3.51974e+12 -6.11217e+12 -4.91588e+12 -4.56031e+12 -3.65933e+12 -5.10461e+12 -4.20101e+12 -2.77509e+12 -4.09932e+12 -4.13608e+12 -7.30634e+12 -1.00448e+13 -6.39875e+12 -7.71807e+12 -5.17349e+12 -6.87356e+12 -1.01277e+13 -9.2017e+12 -8.01631e+12 -1.12368e+13 -7.49866e+12 -7.71605e+12 -8.0802e+12 -3.92885e+12 -5.94115e+12 -1.293e+13 -6.824e+12 -5.91067e+12 -6.0642e+12 -7.1913e+12 -7.70786e+12 -7.13108e+12 -5.46936e+12 -7.04287e+12 -8.15769e+12 -7.62823e+12 -5.86603e+12 -3.46974e+12 -4.54605e+12 -4.30952e+12 -8.37237e+12 -6.3539e+12 -5.27307e+12 -5.69562e+12 -6.85904e+12 -6.44824e+12 -8.32504e+12 -7.90996e+12 -3.48531e+12 -8.19826e+12 -12549700000.0 -6.0594e+12 -4.67568e+12 -7.87999e+12 -6.76298e+12 -7.90093e+12 -7.75298e+12 -6.04103e+12 -7.55699e+12 -1.01092e+13 -7.93619e+12 -7.43136e+12 -5.93817e+12 -3.33283e+12 -8.81432e+12 -6.35054e+12 -8.30004e+12 -4.92138e+12 -8.05887e+12 -8.07002e+12 -7.68579e+12 -5.93314e+12 -6.51328e+12 -5.62329e+12 -7.14063e+12 -8.89028e+12 -5.56098e+12 -6.13951e+12 -5.79481e+12 -1.0286e+13 -8.70987e+12 -6.02212e+12 -7.4682e+12 -6.73024e+12 -4.2158e+12 -1.08813e+13 -7.80459e+12 -5.76693e+12 -8.22318e+12 -5.82844e+12 -5.44744e+12 -6.90277e+12 -5.54558e+12 -3.51985e+12 -4.47544e+12 -12549700000.0 -3.2325e+12 -5.48998e+12 -7.7651e+12 -8.15989e+12 -9.51649e+12 -4.95153e+12 -7.10173e+12 -7.91566e+12 -8.84126e+12 -5.02452e+12 -3.26527e+12 -6.05388e+12 -6.6369e+12 -6.32091e+12 -5.90033e+12 -7.38547e+12 -7.57202e+12 -1.17097e+13 -7.09579e+12 -8.36893e+12 -8.45313e+12 -9.11722e+12 -1.12259e+13 -5.68537e+12 -4.74708e+12 -5.97857e+12 -9.15707e+12 -9.37724e+12 -1.04554e+13 -8.76527e+12 -9.398e+12 -7.64901e+12 -5.82549e+12 -6.21182e+12 -1.02546e+13 -8.18006e+12 -9.58013e+12 -9.48092e+12 -6.11409e+12 -5.30643e+12 -6.67404e+12 -4.24341e+12 -3.3313e+12 -3.63608e+12 -7.78875e+12 -7.39359e+12 -4.50693e+12 -8.13098e+12 -5.04992e+12 -9.41577e+12 -8.45932e+12 -9.00857e+12 -7.5173e+12 -7.65332e+12 -4.14617e+12 -3.12785e+12 -7.05805e+12 -8.68733e+12 -5.57634e+12 -6.82249e+12 -7.67685e+12 -1.08435e+13 -7.14567e+12 -5.38446e+12 -7.1761e+12 -9.25621e+12 -8.01247e+12 -1.67161e+13 -6.37399e+12 -5.97212e+12 -9.95569e+12 -8.47007e+12 -9.97532e+12 -4.70089e+12 -3.2195e+12 -8.88186e+12 -5.89116e+12 -7.57502e+12 -9.7333e+12 -7.32007e+12 -5.30913e+12 -6.74771e+12 -5.32292e+12 -2.71649e+12 -5.95056e+12 -5.30375e+12 -3.64622e+12 -9.00862e+12 -9.61194e+12 -3.9296e+12 -3.87406e+12 -12549700000.0 -1.94186e+12 -3.3606e+12 -7.34219e+12 -5.28592e+12 -9.78473e+12 -6.43996e+12 -4.59955e+12 -6.74849e+12 -6.81616e+12 -5.23329e+12 -5.12695e+12 -9.50565e+12 -6.4124e+12 -5.1336e+12 -5.35061e+12 -1.04122e+13 -7.66279e+12 -1.12125e+13 -6.18737e+12 -7.41676e+12 -7.89358e+12 -5.65402e+12 -6.05416e+12 -4.68665e+12 -1.06068e+13 -5.4611e+12 -8.70789e+12 -5.63944e+12 -6.35183e+12 -8.93405e+12 -6.35864e+12 -7.10579e+12 -4.95358e+12 -8.82364e+12 -1.04034e+13 -5.57889e+12 -4.28438e+12 -6.63272e+12 -6.33217e+12 -4.82386e+12 -7.31943e+12 -9.04752e+12 -8.89987e+12 -7.48093e+12 -4.32562e+12 -3.84394e+12 -5.10487e+12 -6.10681e+12 -8.658e+12 -7.3812e+12 -1.09437e+13 -5.56812e+12 -7.41762e+12 -6.79362e+12 -5.7509e+12 -4.41334e+12 -4.94674e+12 -4.40093e+12 -7.55046e+12 -7.6642e+12 -5.00515e+12 -8.82044e+12 -4.69035e+12 -4.40492e+12 -5.67477e+12 -2.90804e+12 -4.21528e+12 -1.10134e+13 -7.09008e+12 -8.06266e+12 -4.59713e+12 -8.22772e+12 -6.3498e+12 -6.23269e+12 -8.0644e+12 -7.43197e+12 -5.83875e+12 -1.31086e+13 -7.91609e+12 -5.54202e+12 -1.09891e+13 -1.07139e+13 -7.96368e+12 -7.84367e+12 -6.06697e+12 -5.1251e+12 -7.57881e+12 -7.59505e+12 -6.99316e+12 -6.95661e+12 -6.25547e+12 -5.94614e+12 -6.5865e+12 -9.41919e+12 -3.31282e+12 -1.21281e+13 -5.97829e+12 -7.15344e+12 -7.79412e+12 -1.03897e+13 -5.63981e+12 -7.78311e+12 -8.42803e+12 -4.80859e+12 -1.19468e+13 -8.26479e+12 -5.81665e+12 -6.85314e+12 -4.99764e+12 -3.58408e+12 -4.88019e+12 -5.1983e+12 -7.70613e+12 -1.00819e+13 -7.48727e+12 -9.07373e+12 -4.43978e+12 -4.55409e+12 -8.32793e+12 -1.24449e+13 -7.29261e+12 -5.81452e+12 -8.54478e+12 -9.31754e+12 -9.20318e+12 -8.15732e+12 -5.49685e+12 -4.01652e+12 -7.81733e+12 -5.21541e+12 -5.17084e+12 -5.111e+12 -1.28483e+13 -8.9224e+12 -9.7487e+12 -5.46696e+12 -8.25786e+12 -7.74266e+12 -8.6892e+12 -5.18617e+12 -6.39011e+12 -3.59798e+12 -5.47518e+12 -1.09633e+13 -7.46443e+12 -8.88055e+12 -7.5259e+12 -1.26223e+13 -7.85037e+12 -1.10938e+13 -8.04272e+12 -6.71188e+12 -7.9254e+12 -7.81079e+12 -1.30687e+13 -5.1702e+12 -9.0618e+12 -8.90999e+12 -6.896e+12 -6.60805e+12 -1.12501e+13 -1.13205e+13 -6.56148e+12 -7.88678e+12 -6.83717e+12 -7.30267e+12 -7.20347e+12 -9.66425e+12 -6.98522e+12 -4.91029e+12 -3.55253e+12 -1.01348e+13 -1.08349e+13 -5.42966e+12 -8.32587e+12 -8.43925e+12 -8.87739e+12 -5.27205e+12 -8.48201e+12 -1.01635e+13 -7.60592e+12 -7.81772e+12 -1.08059e+13 -7.7296e+12 -4.16384e+12 -9.34425e+12 -5.10469e+12 -6.3118e+12 -5.56028e+12 -7.79939e+12 -9.20954e+12 -8.88615e+12 -3.51543e+12 -5.92624e+12 -8.46436e+12 -1.0207e+13 -6.77416e+12 -6.05724e+12 -5.45709e+12 -8.98175e+12 -4.25179e+12 -1.20742e+13 -1.0537e+13 -1.01183e+13 -5.8705e+12 -6.15017e+12 -8.69095e+12 -7.06287e+12 -1.02268e+13 -8.69344e+12 -1.30839e+13 -7.15059e+12 -5.06608e+12 -1.31172e+13 -4.01291e+12 -9.81417e+12 -7.4903e+12 -6.25157e+12 -2.98057e+12 -5.29952e+12 -7.1186e+12 -1.10085e+13 -1.09397e+13 -8.54813e+12 -5.98689e+12 -6.9231e+12 -1.28579e+13 -7.19613e+12 -5.74125e+12 -8.87583e+12 -1.09941e+13 -8.7515e+12 -3.20999e+12 -3.95616e+12 -12549700000.0 -4.28077e+12 -6.09073e+12 -3.18617e+12 -6.28025e+12 -4.74613e+12 -7.7062e+12 -5.57226e+12 -7.70832e+12 -9.0155e+12 -9.05364e+12 -6.11786e+12 -5.0777e+12 -6.71307e+12 -6.67197e+12 -7.94712e+12 -5.33424e+12 -1.07647e+13 -9.78394e+12 -1.27629e+13 -8.4214e+12 -9.10638e+12 -8.73136e+12 -4.60467e+12 -1.06669e+13 -6.82749e+12 -8.12768e+12 -5.41132e+12 -7.70009e+12 -5.92872e+12 -9.18157e+12 -7.27136e+12 -9.87727e+12 -6.63567e+12 -6.19206e+12 -8.46618e+12 -7.07414e+12 -5.34291e+12 -8.38601e+12 -5.75012e+12 -9.01587e+12 -6.64049e+12 -8.74979e+12 -6.01601e+12 -1.05358e+13 -5.84094e+12 -5.40941e+12 -1.04363e+13 -9.29171e+12 -8.80469e+12 -6.41888e+12 -1.32555e+13 -5.91281e+12 -8.84015e+12 -9.80971e+12 -9.37694e+12 -3.68008e+12 -8.23998e+12 -6.22653e+12 -1.09255e+13 -8.5363e+12 -1.04595e+13 -1.30932e+13 -1.15852e+13 -6.82477e+12 -9.94192e+12 -6.78695e+12 -9.22055e+12 -3.66785e+12 -1.33471e+13 -5.94213e+12 -9.33304e+12 -1.08831e+13 -5.75578e+12 -7.56476e+12 -1.1767e+13 -5.16058e+12 -1.47872e+13 -1.07947e+13 -7.29547e+12 -4.25175e+12 -7.69823e+12 -6.68834e+12 -5.37884e+12 -8.58551e+12 -1.12073e+13 -1.03378e+13 -1.07652e+13 -1.13616e+13 -7.96439e+12 -5.95783e+12 -4.98761e+12 -7.99654e+12 -6.00604e+12 -9.16446e+12 -9.43908e+12 -9.46947e+12 -1.11912e+13 -3.63531e+12 -9.39862e+12 -6.35676e+12 -6.83421e+12 -9.65339e+12 -7.37792e+12 -6.42385e+12 -1.13316e+13 -8.19496e+12 -7.62799e+12 -3.25558e+12 -9.74567e+12 -6.65398e+12 -1.00249e+13 -5.36224e+12 -8.05415e+12 -6.34824e+12 -9.57219e+12 -4.79108e+12 -1.37277e+13 -5.1908e+12 -7.8947e+12 -4.53888e+12 -5.78923e+12 -3.64329e+12 -7.94707e+12 -5.34747e+12 -5.84263e+12 -9.70882e+12 -6.49026e+12 -5.7201e+12 -7.93244e+12 -9.63946e+12 -2.60387e+12 -4.75745e+12 -6.74195e+12 -8.10066e+12 -9.07587e+12 -7.93222e+12 -9.67889e+12 -3.2096e+12 -12549700000.0 -7.4839e+12 -8.57536e+12 -9.22007e+12 -1.24721e+13 -8.56356e+12 -4.50207e+12 -1.05266e+13 -1.0746e+13 -1.22696e+13 -1.17719e+13 -9.83661e+12 -1.02563e+13 -7.40741e+12 -6.92729e+12 -5.6442e+12 -1.45936e+13 -6.24252e+12 -7.28504e+12 -9.52195e+12 -6.05487e+12 -8.25637e+12 -1.11337e+13 -6.03209e+12 -9.52244e+12 -1.05825e+13 -6.3549e+12 -7.74449e+12 -4.03953e+12 -6.24444e+12 -6.03843e+12 -4.4852e+12 -8.74752e+12 -6.40461e+12 -3.34072e+12 -6.86842e+12 -6.53691e+12 -4.51181e+12 -4.88649e+12 -3.50714e+12 -8.04764e+12 -6.08862e+12 -4.07922e+12 -4.72998e+12 -7.09572e+12 -6.05855e+12 -7.85297e+12 -8.34302e+12 -6.29577e+12 -7.60857e+12 -7.68439e+12 -8.69659e+12 -9.24481e+12 -8.43466e+12 -6.80614e+12 -9.16125e+12 -8.38429e+12 -8.60094e+12 -1.17734e+13 -4.51517e+12 -6.77668e+12 -5.1556e+12 -9.03023e+12 -7.04423e+12 -1.00865e+13 -1.57949e+13 -9.66624e+12 -8.98873e+12 -6.98454e+12 -1.01776e+13 -1.08761e+13 -1.01475e+13 -1.13928e+13 -7.60317e+12 -9.60541e+12 -7.68653e+12 -7.75831e+12 -1.02117e+13 -4.8789e+12 -6.40443e+12 -1.21196e+13 -7.05094e+12 -8.13763e+12 -5.2065e+12 -8.26712e+12 -5.69565e+12 -7.80818e+12 -5.60327e+12 -7.73164e+12 -7.60334e+12 -5.60908e+12 -9.77965e+12 -5.52796e+12 -1.30453e+13 -1.038e+13 -8.38403e+12 -5.82846e+12 -7.54682e+12 -6.50697e+12 -8.71577e+12 -1.13588e+13 -5.37224e+12 -1.07475e+13 -6.11031e+12 -7.37194e+12 -5.826e+12 -9.89781e+12 -8.39415e+12 -1.19189e+13 -6.23462e+12 -8.40437e+12 -5.19028e+12 -6.90038e+12 -5.12163e+12 -7.30241e+12 -4.00843e+12 -8.03663e+12 -1.17726e+13 -1.05569e+13 -8.04769e+12 -1.64223e+13 -1.33302e+13 -8.4916e+12 -1.2086e+13 -7.52627e+12 -6.70351e+12 -5.48256e+12 -3.46609e+12 -4.39261e+12 -7.97592e+12 -1.12117e+13 -1.0114e+13 -1.46823e+13 -9.18654e+12 -1.2921e+13 -7.68881e+12 -1.34532e+13 -7.57405e+12 -9.45258e+12 -7.64031e+12 -8.77631e+12 -1.13848e+13 -1.15385e+13 -6.0376e+12 -3.37742e+12 -5.76153e+12 -5.92391e+12 -4.62851e+12 -7.63724e+12 -5.2064e+12 -8.71277e+12 -1.36316e+13 -8.24622e+12 -7.25652e+12 -1.16259e+13 -8.81409e+12 -6.96315e+12 -1.188e+13 -6.95859e+12 -1.14249e+13 -1.14486e+13 -7.24219e+12 -5.54668e+12 -9.52161e+12 -2.52751e+12 -7.01774e+12 -9.66357e+12 -6.30992e+12 -1.1875e+13 -1.03246e+13 -6.9906e+12 -5.00817e+12 -7.12186e+12 -6.79963e+12 -6.94864e+12 -9.40073e+12 -7.48965e+12 -1.08566e+13 -1.27601e+13 -6.47547e+12 -6.70055e+12 -8.77803e+12 -9.66881e+12 -4.80917e+12 -1.04924e+13 -9.38676e+12 -8.71662e+12 -1.01223e+13 -1.0057e+13 -1.4626e+13 -6.92994e+12 -1.75682e+13 -1.30604e+13 -1.03766e+13 -7.33466e+12 -8.44305e+12 -5.59967e+12 -6.19076e+12 -5.85764e+12 -1.0278e+13 -2.9818e+12 -4.18937e+12 -4.22053e+12 -1.08274e+13 -6.27768e+12 -3.6228e+12 -8.00672e+12 -1.29413e+13 -8.23964e+12 -7.69567e+12 -8.48294e+12 -6.37679e+12 -1.19397e+13 -8.49389e+12 -5.71464e+12 -5.62764e+12 -8.38828e+12 -4.79593e+12 -1.09941e+13 -1.12923e+13 -6.54845e+12 -6.23971e+12 -1.35069e+13 -1.23943e+13 -1.4533e+13 -4.6895e+12 -6.7693e+12 -5.91664e+12 -1.41626e+13 -7.20486e+12 -7.28139e+12 -6.15844e+12 -9.46964e+12 -7.96481e+12 -1.1821e+13 -5.14225e+12 -1.16191e+13 -8.61488e+12 -8.47673e+12 -1.19027e+13 -8.16005e+12 -3.87002e+12 -1.02966e+13 -1.04232e+13 -9.35758e+12 -1.46711e+13 -4.87263e+12 -6.37981e+12 -7.06031e+12 -9.7774e+12 -5.92797e+12 -9.05796e+12 -1.14681e+13 -1.432e+13 -6.29572e+12 -5.05851e+12 -7.50762e+12 -5.77044e+12 -8.85918e+12 -1.32688e+13 -8.10925e+12 -1.19614e+13 -1.04016e+13 -8.34416e+12 -3.00302e+12 -1.31393e+13 -5.14645e+12 -2.87505e+12 -4.10401e+12 -7.22486e+12 -8.63243e+12 -6.39236e+12 -4.70995e+12 -8.62285e+12 -8.09018e+12 -1.04559e+13 -5.21629e+12 -5.28441e+12 -1.24913e+13 -1.09271e+13 -1.39112e+13 -1.20628e+13 -4.0964e+12 -5.55643e+12 -1.34196e+13 -6.41186e+12 -9.5572e+12 -5.4822e+12 -4.32387e+12 -8.30889e+12 -4.51981e+12 -8.47509e+12 -9.95633e+12 -1.06775e+13 -8.29037e+12 -8.2196e+12 -1.48938e+13 -9.91207e+12 -8.49317e+12 -1.5558e+13 -6.82092e+12 -6.88483e+12 -4.62383e+12 -6.95817e+12 -3.13569e+12 -4.75372e+12 -6.15396e+12 -6.63629e+12 -9.11401e+12 -9.01853e+12 -7.59915e+12 -4.59871e+12 -9.1376e+12 -6.84878e+12 -6.9923e+12 -4.95656e+12 -9.02897e+12 -5.76762e+12 -5.42446e+12 -1.06012e+13 -5.66273e+12 -8.29341e+12 -7.71764e+12 -1.37282e+13 -4.66728e+12 -4.28852e+12 -9.22484e+12 -5.37857e+12 -9.14608e+12 -8.73923e+12 -9.03535e+12 -5.80979e+12 -9.18014e+12 -1.33251e+13 -8.96089e+12 -1.03494e+13 -8.67671e+12 -6.02679e+12 -3.95331e+12 -7.83736e+12 -8.52359e+12 -9.08623e+12 -8.27632e+12 -5.36964e+12 -8.21777e+12 -6.73329e+12 -7.17203e+12 -5.32446e+12 -1.02985e+13 -6.74018e+12 -1.01626e+13 -8.58571e+12 -7.42477e+12 -9.2917e+12 -6.87578e+12 -7.87974e+12 -7.84072e+12 -7.00535e+12 -7.07317e+12 -9.20653e+12 -1.32827e+13 -7.75077e+12 -1.21202e+13 -8.20499e+12 -9.55113e+12 -8.69206e+12 -1.08509e+13 -1.11339e+13 -8.80495e+12 -9.03177e+12 -8.90582e+12 -9.48436e+12 -5.0383e+12 -8.878e+12 -8.27769e+12 -1.05733e+13 -1.11854e+13 -7.75683e+12 -7.07592e+12 -6.30927e+12 -1.34963e+13 -6.13464e+12 -5.80548e+12 -7.6536e+12 -4.89897e+12 -7.92279e+12 -8.08649e+12 -9.11554e+12 -1.22903e+13 -6.13243e+12 -1.04499e+13 -8.76114e+12 -6.52263e+12 -5.99367e+12 -5.85392e+12 -7.81961e+12 -5.47929e+12 -1.34862e+13 -7.46238e+12 -6.89656e+12 -1.1057e+13 -1.07626e+13 -1.12254e+13 -6.51072e+12 -9.19184e+12 -7.45048e+12 -5.40402e+12 -6.71836e+12 -5.88995e+12 -6.92974e+12 -8.25193e+12 -4.21093e+12 -8.86543e+12 -8.13266e+12 -8.40989e+12 -7.77087e+12 -1.39149e+13 -6.75076e+12 -5.67378e+12 -4.95413e+12 -7.66175e+12 -7.02892e+12 -1.17935e+13 -9.20986e+12 -6.95014e+12 -1.28473e+13 -4.2017e+12 -9.33864e+12 -7.34475e+12 -1.0837e+13 -4.09842e+12 -6.25772e+12 -5.01608e+12 -1.04808e+13 -8.2587e+12 -7.64038e+12 -9.86741e+12 -9.85512e+12 -6.77897e+12 -1.02211e+13 -4.80653e+12 -7.07354e+12 -5.62343e+12 -1.08146e+13 -7.70591e+12 -8.77762e+12 -8.44623e+12 -1.41708e+13 -6.98521e+12 -7.67412e+12 -5.63941e+12 -7.58001e+12 -1.02628e+13 -3.19125e+12 -1.22486e+13 -8.22752e+12 -9.96788e+12 -8.28987e+12 -1.25512e+13 -5.60273e+12 -9.20107e+12 -8.31772e+12 -7.59994e+12 -5.69121e+12 -1.46195e+13 -7.16089e+12 -1.01906e+13 -3.52089e+12 -1.16675e+13 -7.05871e+12 -9.76032e+12 -4.51351e+12 -3.51781e+12 -8.41356e+12 -8.78161e+12 -1.20812e+13 -9.05005e+12 -6.55657e+12 -8.54794e+12 -1.03227e+13 -1.17512e+13 -5.70802e+12 -5.16297e+12 -6.84662e+12 -4.16546e+12 -9.38111e+12 -1.16052e+13 -5.23465e+12 -1.28771e+13 -1.24805e+13 -7.36477e+12 -9.97951e+12 -9.25003e+12 -4.7771e+12 -7.06305e+12 -6.69793e+12 -1.0527e+13 -8.03596e+12 -8.97608e+12 -7.29388e+12 -8.14811e+12 -8.00279e+12 -7.13228e+12 -1.13159e+13 -6.21232e+12 -8.46187e+12 -7.65325e+12 -3.83381e+12 -7.00371e+12 -9.77595e+12 -5.7703e+12 -8.71112e+12 -1.21695e+13 -7.02794e+12 -1.33851e+13 -1.51394e+13 -1.21162e+13 -9.9488e+12 -7.05265e+12 -1.14866e+13 -7.95283e+12 -7.29434e+12 -5.31517e+12 -7.4341e+12 -4.36559e+12 -5.52125e+12 -5.35244e+12 -6.89425e+12 -7.46723e+12 -7.73861e+12 -9.74912e+12 -5.62957e+12 -7.68603e+12 -9.67924e+12 -1.00374e+13 -8.72628e+12 -7.1703e+12 -8.33668e+12 -5.07023e+12 -9.26849e+12 -6.90826e+12 -4.18896e+12 -4.50477e+12 -9.55559e+12 -7.96246e+12 -1.32908e+13 -8.251e+12 -6.20169e+12 -5.2317e+12 -7.15699e+12 -9.76262e+12 -6.68861e+12 -1.12096e+13 -6.56048e+12 -8.41351e+12 -4.85943e+12 -8.69069e+12 -7.65305e+12 -9.99308e+12 -5.15829e+12 -9.22454e+12 -9.83779e+12 -1.27105e+13 -9.00806e+12 -5.9424e+12 -1.45496e+13 -1.26402e+13 -1.43231e+13 -9.2533e+12 -9.02895e+12 -6.93215e+12 -8.88364e+12 -5.9365e+12 -6.33307e+12 -8.54221e+12 -4.10072e+12 -8.70243e+12 -1.11406e+13 -8.8053e+12 -1.01101e+13 -8.61827e+12 -7.88624e+12 -9.8052e+12 -9.92987e+12 -1.04876e+13 -7.22669e+12 -7.12901e+12 -9.39423e+12 -1.10005e+13 -1.14972e+13 -1.29374e+13 -9.45767e+12 -9.55045e+12 -6.45417e+12 -7.47038e+12 -9.41214e+12 -8.27831e+12 -7.74655e+12 -7.39583e+12 -1.05068e+13 -7.93996e+12 -7.02405e+12 -1.03575e+13 -5.96434e+12 -7.03211e+12 -1.29953e+13 -9.46997e+12 -8.61213e+12 -7.60512e+12 -7.91737e+12 -5.40993e+12 -6.64937e+12 -1.04961e+13 -7.91836e+12 -5.44586e+12 -5.01965e+12 -7.2214e+12 -5.91692e+12 -1.15505e+13 -9.33262e+12 -7.75288e+12 -6.0709e+12 -6.0289e+12 -6.75215e+12 -4.4281e+12 -7.05884e+12 -1.1165e+13 -7.12566e+12 -6.77794e+12 -9.39388e+12 -5.80108e+12 -6.78786e+12 -6.85578e+12 -8.26603e+12 -6.65834e+12 -7.87155e+12 -1.01445e+13 -1.04299e+13 -7.15825e+12 -4.23149e+12 -9.26863e+12 -4.66068e+12 -1.10479e+13 -6.44308e+12 -7.40674e+12 -5.20662e+12 -1.0623e+13 -9.18482e+12 -8.09964e+12 -3.24404e+12 -7.56217e+12 -5.2111e+12 -6.8855e+12 -5.37279e+12 -1.0152e+13 -6.59932e+12 -3.11361e+12 -4.87091e+12 -8.72108e+12 -4.49761e+12 -6.86872e+12 -8.72791e+12 -7.41253e+12 -1.31893e+13 -1.03413e+13 -6.62431e+12 -1.1142e+13 -5.46142e+12 -7.4064e+12 -6.92656e+12 -1.35034e+13 -9.35412e+12 -8.4362e+12 -4.20523e+12 -8.75404e+12 -1.17064e+13 -1.07512e+13 -1.24422e+13 -3.07118e+12 -7.03648e+12 -1.14885e+13 -1.32413e+13 -7.64663e+12 -1.08091e+13 -1.0332e+13 -7.84347e+12 -8.75255e+12 -8.34621e+12 -5.41272e+12 -7.40471e+12 -7.95668e+12 -9.68348e+12 -8.21603e+12 -8.03504e+12 -5.48689e+12 -5.5498e+12 -5.89192e+12 -8.59742e+12 -4.75724e+12 -4.5828e+12 -8.2418e+12 -9.57387e+12 -1.19738e+13 -6.16515e+12 -1.09017e+13 -3.17181e+12 -6.74258e+12 -7.20524e+12 -8.24771e+12 -6.28601e+12 -1.22035e+13 -5.76789e+12 -4.72126e+12 -5.31195e+12 -7.22636e+12 -1.30023e+13 -8.61305e+12 -6.31347e+12 -5.66487e+12 -9.99843e+12 -6.50438e+12 -7.95994e+12 -1.15879e+13 -2.74096e+12 -1.11763e+13 -1.20166e+13 -8.06077e+12 -3.85659e+12 -4.22068e+12 -4.86602e+12 -7.99947e+12 -8.75071e+12 -1.09298e+13 -1.02456e+13 -1.07599e+13 -5.7138e+12 -9.10578e+12 -8.063e+12 -6.03217e+12 -9.94381e+12 -3.4739e+12 -6.85901e+12 -6.05524e+12 -1.24599e+13 -4.38444e+12 -6.67401e+12 -5.13264e+12 -6.56894e+12 -6.38041e+12 -6.0165e+12 -7.38205e+12 -1.25988e+13 -6.96777e+12 -4.20683e+12 -6.16706e+12 -6.25163e+12 -8.2039e+12 -7.75621e+12 -3.978e+12 -5.15756e+12 -1.24697e+13 -7.43093e+12 -6.85866e+12 -5.16165e+12 -6.75112e+12 -7.15861e+12 -7.91498e+12 -7.0082e+12 -4.12041e+12 -3.40552e+12 -8.16845e+12 -6.82163e+12 -5.78105e+12 -6.99378e+12 -5.81838e+12 -4.64154e+12 -3.29691e+12 -9.59234e+12 -7.83607e+12 -1.02371e+13 -1.05928e+13 -1.31253e+13 -5.75119e+12 -8.67859e+12 -6.40454e+12 -6.29495e+12 -6.19011e+12 -1.08793e+13 -8.96082e+12 -8.45252e+12 -1.02022e+13 -7.97354e+12 -7.17814e+12 -1.10102e+13 -1.00876e+13 -6.13484e+12 -6.67775e+12 -1.18441e+13 -7.13052e+12 -8.76795e+12 -4.17158e+12 -1.44089e+13 -1.3152e+13 -1.14402e+13 -7.86361e+12 -6.18902e+12 -7.99789e+12 -9.45651e+12 -1.27973e+13 -6.76515e+12 -9.2672e+12 -9.73596e+12 -9.30008e+12 -7.74839e+12 -3.9803e+12 -3.00699e+12 -9.20811e+12 -5.09704e+12 -2.79589e+12 -6.32778e+12 -8.54943e+12 -8.12876e+12 -8.44809e+12 -7.08178e+12 -4.78805e+12 -6.96844e+12 -9.21287e+12 -1.38353e+13 -6.31639e+12 -1.43387e+13 -1.05639e+13 -5.12511e+12 -8.13287e+12 -1.11366e+13 -1.00557e+13 -8.25709e+12 -9.60505e+12 -8.15195e+12 -5.77197e+12 -7.21835e+12 -1.65609e+13 -5.68723e+12 -7.24142e+12 -1.01686e+13 -6.51648e+12 -6.94105e+12 -8.55819e+12 -6.07772e+12 -6.67265e+12 -1.04625e+13 -7.29574e+12 -6.85205e+12 -1.33765e+12 -1.01965e+13 -1.09705e+13 -9.80518e+12 -4.57414e+12 -6.13793e+12 -6.95119e+12 -4.82463e+12 -2.33026e+12 -6.44037e+12 -8.09329e+12 -7.61408e+12 -8.04273e+12 -7.516e+12 -4.42208e+12 -5.08972e+12 -8.23526e+12 -1.07896e+13 -7.65908e+12 -6.62921e+12 -5.69002e+12 -6.50639e+12 -7.97125e+12 -6.02431e+12 -6.23566e+12 -7.25497e+12 -8.75962e+12 -7.02052e+12 -4.13142e+12 -5.3449e+12 -7.38919e+12 -7.95916e+12 -5.92303e+12 -6.66052e+12 -7.66925e+12 -4.88566e+12 -6.59257e+12 -7.00717e+12 -7.67606e+12 -4.52647e+12 -8.46948e+12 -8.82271e+12 -7.45634e+12 -9.59581e+12 -4.78789e+12 -4.25912e+12 -4.9961e+12 -5.83462e+12 -7.7963e+12 -1.58031e+13 -9.43133e+12 -3.20899e+12 -9.31471e+12 -5.97811e+12 -5.19586e+12 -5.16616e+12 -7.53899e+12 -8.0995e+12 -1.24749e+13 -5.83763e+12 -7.64749e+12 -6.08577e+12 -4.09629e+12 -4.50807e+12 -6.71165e+12 -6.66107e+12 -6.18126e+12 -7.79123e+12 -7.14001e+12 -1.09465e+13 -6.04931e+12 -7.12736e+12 -7.87765e+12 -5.27809e+12 -7.31476e+12 -4.66418e+12 -5.4047e+12 -7.31594e+12 -6.68787e+12 -8.44293e+12 -5.20914e+12 -7.68083e+12 -9.17396e+12 -7.3709e+12 -8.05204e+12 -6.17487e+12 -5.21552e+12 -1.15087e+13 -6.0458e+12 -2.87932e+12 -7.21772e+12 -4.16362e+12 -5.47093e+12 -6.00709e+12 -6.87927e+12 -8.16574e+12 -7.94489e+12 -1.19394e+13 -9.33594e+12 -8.61594e+12 -4.56535e+12 -5.2347e+12 -1.55113e+13 -5.36734e+12 -8.49193e+12 -8.79284e+12 -1.0619e+13 -1.01266e+13 -8.22471e+12 -8.18294e+12 -7.60953e+12 -5.60419e+12 -9.19296e+12 -6.08044e+12 -7.45363e+12 -7.42433e+12 -5.77378e+12 -1.07724e+13 -8.49496e+12 -7.77498e+12 -7.05598e+12 -1.00913e+13 -6.86989e+12 -1.20332e+13 -3.46968e+12 -4.63202e+12 -5.77287e+12 -6.76918e+12 -5.71946e+12 -3.99441e+12 -6.27457e+12 -9.03377e+12 -8.46028e+12 -6.953e+12 -6.409e+12 -7.08815e+12 -4.65682e+12 -6.47579e+12 -2.97768e+12 -5.59122e+12 -7.04336e+12 -4.25043e+12 -7.47143e+12 -8.55089e+12 -6.74191e+12 -4.43817e+12 -5.31427e+12 -3.49444e+12 -7.11599e+12 -7.93641e+12 -6.888e+12 -7.19478e+12 -3.67778e+12 -6.51101e+12 -8.02596e+12 -7.10618e+12 -7.2245e+12 -6.3007e+12 -5.38114e+12 -1.01165e+13 -8.4446e+12 -4.88797e+12 -9.77142e+12 -1.00421e+13 -6.93242e+12 -5.76977e+12 -1.09563e+13 -5.55388e+12 -7.86698e+12 -6.03183e+12 -5.12585e+12 -4.13479e+12 -5.07748e+12 -1.27192e+13 -8.14577e+12 -7.25978e+12 -7.17293e+12 -9.45819e+12 -7.95166e+12 -8.23834e+12 -9.30681e+12 -7.18498e+12 -4.44649e+12 -9.64129e+12 -7.64074e+12 -1.08075e+13 -7.01063e+12 -1.33845e+13 -4.80119e+12 -3.26774e+12 -6.39373e+12 -5.23235e+12 -1.10027e+13 -8.48172e+12 -8.98355e+12 -8.11558e+12 -7.10437e+12 -9.38523e+12 -9.8526e+12 -8.0905e+12 -9.08571e+12 -3.71316e+12 -1.00365e+13 -9.7799e+12 -9.43823e+12 -9.97585e+12 -8.03183e+12 -8.14113e+12 -7.97239e+12 -5.57514e+12 -7.83616e+12 -6.05205e+12 -6.10281e+12 -6.26174e+12 -8.31414e+12 -5.27859e+12 -4.27353e+12 -6.1566e+12 -5.89268e+12 -5.89176e+12 -7.49576e+12 -4.79999e+12 -6.25364e+12 -1.08134e+13 -7.13138e+12 -7.52259e+12 -8.41236e+12 -1.33457e+13 -1.95127e+13 -6.472e+12 -6.89134e+12 -7.47996e+12 -8.74807e+12 -1.11466e+13 -5.52642e+12 -7.51309e+12 -6.93885e+12 -5.75481e+12 -4.84267e+12 -7.1929e+12 -6.21975e+12 -1.18514e+13 -2.51406e+12 -5.13489e+12 -8.07429e+12 -4.06672e+12 -1.1132e+13 -1.0912e+13 -3.45845e+12 -6.32761e+12 -8.83352e+12 -7.155e+12 -7.40652e+12 -8.3441e+12 -4.71655e+12 -5.64778e+12 -6.15761e+12 -6.7482e+12 -6.58462e+12 -1.07327e+13 -1.02184e+13 -6.50439e+12 -5.95773e+12 -5.5504e+12 -4.55505e+12 -7.47345e+12 -7.67817e+12 -6.41365e+12 -4.29787e+12 -3.76064e+12 -6.10364e+12 -5.15015e+12 -6.67585e+12 -5.77555e+12 -7.17356e+12 -7.97328e+12 -1.05619e+13 -9.4336e+12 -3.63939e+12 -5.37023e+12 -5.36512e+12 -6.12923e+12 -4.68075e+12 -4.74732e+12 -7.41384e+12 -1.29682e+13 -9.02466e+12 -7.07731e+12 -6.34522e+12 -9.01624e+12 -6.72744e+12 -6.59177e+12 -3.65846e+12 -6.8609e+12 -4.54643e+12 -4.24638e+12 -9.21997e+12 -6.22685e+12 -1.40039e+13 -6.37102e+12 -6.52949e+12 -9.96657e+12 -6.33962e+12 -1.03913e+13 -1.37264e+13 -4.46949e+12 -4.69594e+12 -3.75994e+12 -5.49842e+12 -4.32098e+12 -6.3467e+12 -4.7173e+12 -6.88316e+12 -6.28736e+12 -5.0416e+12 -1.11218e+13 -8.19572e+12 -1.3192e+13 -8.36088e+12 -1.38135e+13 -4.48293e+12 -6.63054e+12 -4.86599e+12 -8.92532e+12 -8.05586e+12 -1.40358e+13 -5.45959e+12 -7.78861e+12 -5.68146e+12 -3.92506e+12 -1.35479e+13 -8.09989e+12 -4.3932e+12 -6.47157e+12 -6.33614e+12 -7.87196e+12 -8.55707e+12 -6.47648e+12 -1.09101e+13 -5.49594e+12 -5.70447e+12 -3.48751e+12 -8.71479e+12 -4.47819e+12 -7.43589e+12 -4.31756e+12 -5.50461e+12 -8.38071e+12 -8.31309e+12 -4.7879e+12 -3.05813e+12 -4.68905e+12 -5.31751e+12 -3.90376e+12 -3.70074e+12 -9.01092e+12 -7.74676e+12 -7.36605e+12 -6.39355e+12 -3.76064e+12 -1.1629e+13 -6.65562e+12 -8.53571e+12 -1.10744e+13 -7.09072e+12 -5.56636e+12 -6.35439e+12 -3.66039e+12 -7.53448e+12 -8.22876e+12 -5.5035e+12 -7.92509e+12 -7.73213e+12 -2.5732e+12 -3.00336e+12 -5.63703e+12 -4.59688e+12 -5.69384e+12 -7.08438e+12 -5.36118e+12 -4.29187e+12 -4.68093e+12 -6.01564e+12 -6.44777e+12 -9.44064e+12 -4.88512e+12 -2.02316e+12 -6.66232e+12 -5.99117e+12 -6.099e+12 -8.01186e+12 -8.50039e+12 -6.4239e+12 -9.50806e+12 -7.77576e+12 -6.11707e+12 -1.02988e+13 -6.40641e+12 -1.15428e+13 -7.97815e+12 -4.55125e+12 -5.54595e+12 -7.77163e+12 -7.06562e+12 -5.81425e+12 -5.20696e+12 -6.98551e+12 -7.22598e+12 -7.23789e+12 -5.81663e+12 -6.4601e+12 -8.4309e+12 -6.21013e+12 -3.25636e+12 -7.34807e+12 -4.93278e+12 -5.73477e+12 -6.64047e+12 -5.86225e+12 -8.721e+12 -8.06584e+12 -7.23693e+12 -7.04773e+12 -5.08002e+12 -7.79793e+12 -4.42848e+12 -8.02245e+12 -9.89194e+12 -7.54152e+12 -6.92506e+12 -1.03827e+13 -1.17529e+13 -6.85162e+12 -8.16699e+12 -8.41107e+12 -6.52615e+12 -3.6153e+12 -8.04981e+12 -8.83085e+12 -3.83092e+12 -5.03493e+12 -1.05565e+13 -5.86792e+12 -5.55042e+12 -8.80405e+12 -8.53467e+12 -7.85863e+12 -5.90496e+12 -9.583e+12 -4.52709e+12 -4.42473e+12 -9.19495e+12 -6.60527e+12 -1.00865e+13 -1.17374e+13 -7.93728e+12 -4.22185e+12 -9.14695e+12 -6.87409e+12 -6.29563e+12 -8.14303e+12 -6.00435e+12 -9.83021e+12 -6.11919e+12 -7.76281e+12 -5.12089e+12 -6.03522e+12 -4.90879e+12 -9.75807e+12 -8.80683e+12 -5.60988e+12 -1.09457e+13 -6.88243e+12 -1.18526e+13 -5.50041e+12 -5.98797e+12 -4.52726e+12 -6.88009e+12 -4.94948e+12 -4.65353e+12 -9.62663e+12 -9.95778e+12 -8.0769e+12 -6.89094e+12 -6.25278e+12 -8.57349e+12 -7.18501e+12 -3.89393e+12 -8.13884e+12 -7.99346e+12 -6.31454e+12 -5.37445e+12 -5.70689e+12 -7.31342e+12 -4.51797e+12 -7.11162e+12 -6.07818e+12 -3.98213e+12 -5.60583e+12 -7.71978e+12 -3.85122e+12 -6.33704e+12 -7.87431e+12 -1.03285e+13 -6.89085e+12 -5.8835e+12 -5.42493e+12 -9.45197e+12 -6.84199e+12 -8.77944e+12 -1.11029e+13 -3.01121e+12 -1.08185e+13 -7.03206e+12 -5.89054e+12 -4.28271e+12 -4.29946e+12 -6.37805e+12 -6.00235e+12 -5.48325e+12 -9.21378e+12 -8.19172e+12 -5.35463e+12 -5.46481e+12 -5.62496e+12 -6.93281e+12 -4.4019e+12 -6.42875e+12 -2.9318e+12 -7.09945e+12 -4.2056e+12 -6.78391e+12 -6.4687e+12 -4.2263e+12 -9.11895e+12 -4.78748e+12 -6.63506e+12 -3.70594e+12 -5.38088e+12 -7.45984e+12 -7.36686e+12 -3.52194e+12 -8.03137e+12 -6.58731e+12 -6.36739e+12 -3.43043e+12 -4.41794e+12 -6.09991e+12 -4.57836e+12 -5.08555e+12 -4.73569e+12 -8.34141e+12 -6.73825e+12 -4.1142e+12 -6.59032e+12 -5.89798e+12 -7.58745e+12 -7.0178e+12 -6.36452e+12 -6.18387e+12 -8.06583e+12 -6.22489e+12 -8.06689e+12 -4.0744e+12 -3.83369e+12 -4.85688e+12 -6.87546e+12 -9.6052e+12 -6.20013e+12 -7.35339e+12 -5.57402e+12 -8.65701e+12 -4.97102e+12 -4.23865e+12 -6.77029e+12 -4.62452e+12 -6.42383e+12 -1.00938e+13 -7.1764e+12 -5.72606e+12 -7.34644e+12 -7.4868e+12 -6.59939e+12 -6.53851e+12 -4.18483e+12 -6.43002e+12 -7.45623e+12 -4.64731e+12 -4.63299e+12 -5.86444e+12 -6.26271e+12 -7.89963e+12 -6.29218e+12 -5.34774e+12 -9.52517e+12 -6.39605e+12 -8.39421e+12 -6.42231e+12 -8.56221e+12 -1.01857e+13 -1.02303e+13 -5.11331e+12 -7.9324e+12 -6.15846e+12 -4.84644e+12 -6.21502e+12 -5.57625e+12 -5.98926e+12 -9.83462e+12 -9.03156e+12 -1.01626e+13 -7.16712e+12 -8.17191e+12 -7.17259e+12 -5.05878e+12 -6.04257e+12 -4.05303e+12 -5.72574e+12 -5.70836e+12 -4.60667e+12 -6.80692e+12 -7.49824e+12 -6.40133e+12 -4.08972e+12 -5.10625e+12 -7.22929e+12 -7.95934e+12 -4.41345e+12 -6.98823e+12 -6.73759e+12 -5.6087e+12 -6.62726e+12 -5.77966e+12 -3.32878e+12 -5.07375e+12 -5.64658e+12 -5.48839e+12 -4.31041e+12 -6.28772e+12 -7.35162e+12 -6.15344e+12 -7.52151e+12 -3.28239e+12 -5.13198e+12 -8.58793e+12 -8.341e+12 -9.88257e+12 -5.84513e+12 -5.45976e+12 -8.65108e+12 -8.93651e+12 -5.88679e+12 -3.09183e+12 -9.60409e+12 -7.75466e+12 -5.98363e+12 -3.37219e+12 -5.9093e+12 -5.28575e+12 -3.82322e+12 -3.39802e+12 -3.78179e+12 -6.90175e+12 -6.97545e+12 -5.23953e+12 -4.71791e+12 -5.76357e+12 -7.51391e+12 -4.39864e+12 -9.33567e+12 -7.93263e+12 -6.84324e+12 -7.40858e+12 -9.11496e+12 -5.72409e+12 -3.25186e+12 -6.6619e+12 -5.49473e+12 -6.63478e+12 -6.87236e+12 -5.76225e+12 -7.12346e+12 -4.54696e+12 -4.98392e+12 -5.26552e+12 -8.13063e+12 -6.67262e+12 -4.82672e+12 -6.12956e+12 -6.38791e+12 -4.79009e+12 -9.66096e+12 -5.56879e+12 -5.24004e+12 -6.20407e+12 -5.75004e+12 -4.34115e+12 -2.55147e+12 -4.66388e+12 -1.09596e+13 -4.06669e+12 -6.35838e+12 -5.53314e+12 -3.55916e+12 -2.51613e+12 -1.08738e+13 -6.85103e+12 -5.69491e+12 -7.28293e+12 -6.19634e+12 -9.58548e+12 -4.52733e+12 -7.5247e+12 -3.97355e+12 -6.50185e+12 -1.12131e+13 -5.81191e+12 -4.88796e+12 -6.2822e+12 -5.99527e+12 -8.93441e+12 -9.23863e+12 -5.28861e+12 -5.80844e+12 -6.76796e+12 -6.66846e+12 -6.01589e+12 -7.44809e+12 -8.55035e+12 -1.23194e+13 -7.16601e+12 -2.50988e+12 -6.53895e+12 -6.31052e+12 -8.22913e+12 -1.0786e+13 -5.64866e+12 -5.1977e+12 -5.02804e+12 -5.21139e+12 -8.12605e+12 -1.2141e+13 -6.06745e+12 -6.11063e+12 -1.06659e+13 -1.32268e+13 -7.5918e+12 -4.55506e+12 -7.46742e+12 -5.18173e+12 -4.35387e+12 -5.36787e+12 -8.6047e+12 -4.54123e+12 -3.26713e+12 -4.96249e+12 -5.46735e+12 -5.47577e+12 -5.97953e+12 -5.44965e+12 -3.38148e+12 -4.54695e+12 -4.49568e+12 -3.73373e+12 -6.98997e+12 -5.45547e+12 -8.88653e+12 -7.90225e+12 -7.31379e+12 -8.32787e+12 -5.3446e+12 -7.16518e+12 -5.55345e+12 -5.59109e+12 -5.70366e+12 -1.01485e+13 -8.15158e+12 -1.00002e+13 -6.7104e+12 -4.74984e+12 -3.35162e+12 -4.93024e+12 -5.62589e+12 -1.18028e+13 -1.18038e+13 -6.8879e+12 -8.50323e+12 -6.41541e+12 -8.05321e+12 -9.74014e+12 -3.93766e+12 -6.63001e+12 -1.07383e+13 -5.1043e+12 -4.04899e+12 -5.83943e+12 -3.90128e+12 -6.55666e+12 -6.71827e+12 -9.08629e+12 -4.78494e+12 -5.31972e+12 -7.0417e+12 -6.69615e+12 -4.68557e+12 -6.64754e+12 -6.61265e+12 -5.36483e+12 -3.82531e+12 -3.82012e+12 -5.93273e+12 -2.81882e+12 -5.09702e+12 -7.07956e+12 -8.33583e+12 -4.24047e+12 -4.8063e+12 -5.61158e+12 -7.0176e+12 -5.24973e+12 -4.47569e+12 -5.50793e+12 -5.25074e+12 -7.33963e+12 -1.08285e+13 -4.38509e+12 -8.13997e+12 -2.8669e+12 -6.61053e+12 -7.36452e+12 -5.97719e+12 -6.01782e+12 -5.05918e+12 -3.0321e+12 -3.59911e+12 -4.53509e+12 -6.08752e+12 -6.66333e+12 -6.92283e+12 -1.01759e+13 -8.87295e+12 -1.0626e+13 -8.15069e+12 -5.84992e+12 -1.02386e+13 -4.10071e+12 -6.94924e+12 -8.43199e+12 -7.04743e+12 -7.38517e+12 -8.08542e+12 -6.48219e+12 -2.71656e+12 -6.29989e+12 -4.06232e+12 -5.5393e+12 -8.03928e+12 -4.95237e+12 -7.94495e+12 -4.78761e+12 -6.76228e+12 -6.03845e+12 -4.54064e+12 -4.91984e+12 -5.76309e+12 -4.3907e+12 -1.12572e+13 -6.82873e+12 -7.6051e+12 -6.84685e+12 -5.29457e+12 -4.2878e+12 -9.01927e+12 -1.58003e+13 -8.1452e+12 -1.12524e+13 -9.53133e+12 -1.04616e+13 -5.43203e+12 -5.83199e+12 -6.4039e+12 -5.28559e+12 -2.11124e+12 -4.85665e+12 -4.49132e+12 -3.52355e+12 -7.26121e+12 -6.12267e+12 -6.80502e+12 -9.83673e+12 -4.36751e+12 -8.31764e+12 -7.51779e+12 -5.83492e+12 -6.62293e+12 -5.25134e+12 -6.25812e+12 -6.02814e+12 -5.21174e+12 -5.85168e+12 -4.64324e+12 -4.7594e+12 -6.0538e+12 -4.62938e+12 -4.8071e+12 -6.48278e+12 -8.68932e+12 -7.57828e+12 -3.89677e+12 -2.57507e+12 -3.47095e+12 -6.05517e+12 -3.0751e+12 -7.68276e+12 -1.17778e+13 -9.0054e+12 -7.75148e+12 -7.57114e+12 -5.51048e+12 -6.36707e+12 -6.57873e+12 -5.41429e+12 -8.48352e+12 -7.52679e+12 -7.89393e+12 -7.85957e+12 -9.62598e+12 -4.76809e+12 -4.94328e+12 -9.18596e+12 -4.46657e+12 -7.5494e+12 -5.41384e+12 -3.35971e+12 -4.31823e+12 -3.42086e+12 -8.72548e+12 -5.1418e+12 -3.76525e+12 -5.65852e+12 -5.87626e+12 -6.66631e+12 -3.4729e+12 -3.77139e+12 -4.07943e+12 -5.22497e+12 -4.62105e+12 -4.14015e+12 -5.55578e+12 -5.88862e+12 -4.15581e+12 -5.89007e+12 -7.9847e+12 -4.63438e+12 -8.95209e+12 -4.94461e+12 -6.48517e+12 -6.0265e+12 -4.27201e+12 -7.13443e+12 -4.6222e+12 -5.37662e+12 -7.91879e+12 -8.5479e+12 -5.1553e+12 -4.55679e+12 -4.50655e+12 -5.58847e+12 -4.71839e+12 -8.26084e+12 -8.1908e+12 -7.81535e+12 -2.67251e+12 -5.68417e+12 -4.21438e+12 -5.15025e+12 -4.27853e+12 -7.98296e+12 -5.19492e+12 -7.66912e+12 -5.32446e+12 -7.49193e+12 -7.57195e+12 -6.46122e+12 -4.57831e+12 -8.45609e+12 -8.63779e+12 -5.73502e+12 -8.71457e+12 -4.87443e+12 -7.39874e+12 -5.92347e+12 -6.48107e+12 -7.97883e+12 -4.92057e+12 -4.71828e+12 -6.67301e+12 -6.52264e+12 -9.17729e+12 -7.08087e+12 -6.92754e+12 -6.34118e+12 -6.62949e+12 -9.68152e+12 -6.22681e+12 -8.10803e+12 -8.52805e+12 -5.54145e+12 -6.82484e+12 -4.23741e+12 -1.19144e+13 -7.71099e+12 -5.51307e+12 -7.59168e+12 -8.41992e+12 -7.51203e+12 -4.76777e+12 -2.72936e+12 -5.91865e+12 -5.83135e+12 -3.27974e+12 -7.84708e+12 -4.25882e+12 -7.74111e+12 -7.01433e+12 -5.42268e+12 -5.58016e+12 -9.48788e+12 -5.32086e+12 -8.61432e+12 -8.89746e+12 -7.54937e+12 -5.07984e+12 -4.26233e+12 -5.00006e+12 -4.74875e+12 -5.22445e+12 -7.67549e+12 -6.84787e+12 -8.37757e+12 -6.29146e+12 -2.87783e+12 -4.03538e+12 -6.87789e+12 -4.80375e+12 -1.0428e+13 -4.35947e+12 -6.16587e+12 -7.14312e+12 -5.30749e+12 -7.58412e+12 -6.41671e+12 -5.15959e+12 -8.15536e+12 -4.47448e+12 -7.63536e+12 -6.8383e+12 -5.35695e+12 -5.695e+12 -5.99303e+12 -5.94167e+12 -6.56054e+12 -7.37657e+12 -6.60468e+12 -6.88908e+12 -2.55932e+12 -5.82054e+12 -2.69199e+12 -5.87054e+12 -8.24718e+12 -6.37813e+12 -8.64173e+12 -5.34312e+12 -5.44282e+12 -4.01808e+12 -6.73579e+12 -6.84152e+12 -3.42155e+12 -5.03848e+12 -3.37079e+12 -5.20137e+12 -8.42776e+12 -4.68218e+12 -3.21928e+12 -4.8248e+12 -2.75601e+12 -3.77006e+12 -3.31637e+12 -4.47288e+12 -4.25739e+12 -6.20098e+12 -4.8519e+12 -3.38243e+12 -3.50922e+12 -2.54349e+12 -3.87086e+12 -4.16651e+12 -3.79744e+12 -3.29357e+12 -4.16576e+12 -4.67636e+12 -5.26374e+12 -2.83275e+12 -4.92361e+12 -1.51477e+12 -4.03452e+12 -5.97047e+12 -7.7728e+12 -6.70756e+12 -3.30252e+12 -3.56269e+12 -3.06234e+12 -7.8222e+12 -6.16992e+12 -5.15284e+12 -2.57739e+12 -3.95723e+12 -4.90799e+12 -3.38301e+12 -4.36516e+12 -3.84245e+12 -5.52887e+12 -6.8076e+12 -5.59122e+12 -4.12104e+12 -6.65086e+12 -1.00468e+13 -6.51312e+12 -7.87116e+12 -9.85548e+12 -9.34242e+12 -7.7588e+12 -5.89031e+12 -5.8519e+12 -4.52854e+12 -6.77741e+12 -9.0498e+12 -6.72267e+12 -8.05016e+12 -8.10924e+12 -6.80242e+12 -7.31933e+12 -8.12285e+12 -988223000000.0 -5.97206e+12 -5.79126e+12 -7.60403e+12 -6.09037e+12 -5.74582e+12 -7.5885e+12 -3.7333e+12 -7.61127e+12 -7.37632e+12 -6.96031e+12 -5.64426e+12 -5.2845e+12 -7.63193e+12 -6.45958e+12 -1.20234e+13 -5.06069e+12 -4.57574e+12 -6.08314e+12 -3.78267e+12 -3.07529e+12 -6.59941e+12 -4.39794e+12 -9.37934e+12 -5.50686e+12 -5.40917e+12 -8.50214e+12 -6.14044e+12 -6.51194e+12 -5.78437e+12 -9.23686e+12 -1.0064e+13 -2.93958e+12 -4.445e+12 -7.34438e+12 -7.72425e+12 -5.35324e+12 -5.61131e+12 -4.3973e+12 -5.05843e+12 -5.25325e+12 -7.61944e+12 -6.3035e+12 -3.8029e+12 -5.46285e+12 -7.90023e+12 -5.00044e+12 -5.20072e+12 -8.09658e+12 -4.45201e+12 -5.3788e+12 -5.24086e+12 -7.13687e+12 -4.12054e+12 -5.59783e+12 -4.48168e+12 -5.00571e+12 -7.92968e+12 -4.07731e+12 -6.02054e+12 -6.86974e+12 -5.71385e+12 -4.55124e+12 -5.18425e+12 -5.39276e+12 -7.15292e+12 -6.39367e+12 -5.5527e+12 -4.48264e+12 -4.71693e+12 -6.20572e+12 -4.1569e+12 -5.09742e+12 -6.20527e+12 -2.68915e+12 -2.71585e+12 -2.90185e+12 -5.04704e+12 -3.37797e+12 -7.07864e+12 -5.9188e+12 -3.72984e+12 -4.59404e+12 -5.93866e+12 -3.52652e+12 -3.63628e+12 -3.86945e+12 -4.51328e+12 -3.10501e+12 -3.73925e+12 -6.25901e+12 -6.37327e+12 -3.85156e+12 -4.41859e+12 -3.52012e+12 -4.26833e+12 -4.52984e+12 -4.50582e+12 -4.86615e+12 -5.87393e+12 -6.73485e+12 -4.92747e+12 -5.21613e+12 -2.82359e+12 -7.36976e+12 -3.72531e+12 -5.61671e+12 -3.26937e+12 -3.69082e+12 -3.69155e+12 -8.43246e+12 -7.72302e+12 -3.37828e+12 -4.52099e+12 -7.97057e+12 -7.91519e+12 -5.96039e+12 -6.03039e+12 -7.13388e+12 -6.44921e+12 -7.73181e+12 -5.93121e+12 -9.70088e+12 -5.64481e+12 -4.24003e+12 -7.25454e+12 -3.01377e+12 -5.20226e+12 -5.93874e+12 -5.03746e+12 -5.59062e+12 -8.40432e+12 -7.32822e+12 -6.27057e+12 -6.79448e+12 -4.70198e+12 -8.32913e+12 -6.01045e+12 -9.75463e+12 -9.12494e+12 -1.10709e+13 -2.77806e+12 -5.83805e+12 -2.49606e+12 -6.41941e+12 -4.13387e+12 -5.50545e+12 -1.96064e+12 -3.54098e+12 -2.62232e+12 -4.08737e+12 -3.27056e+12 -9.92322e+12 -3.30454e+12 -3.67332e+12 -4.17368e+12 -5.31925e+12 -4.74923e+12 -7.83177e+12 -7.3022e+12 -4.55129e+12 -4.74453e+12 -6.7451e+12 -5.47841e+12 -5.22687e+12 -4.33455e+12 -4.38895e+12 -6.20358e+12 -6.59109e+12 -6.52297e+12 -9.76809e+12 -4.69927e+12 -5.59325e+12 -5.34278e+12 -5.63308e+12 -8.25131e+12 -5.63221e+12 -5.99168e+12 -6.15753e+12 -7.39959e+12 -4.69321e+12 -5.47657e+12 -7.74596e+12 -7.17481e+12 -8.06063e+12 -4.09152e+12 -1.87599e+12 -4.04556e+12 -4.87556e+12 -2.97049e+12 -6.44256e+12 -6.54005e+12 -5.77089e+12 -3.25243e+12 -3.6358e+12 -6.71166e+12 -6.13132e+12 -6.5111e+12 -1.78125e+12 -2.5104e+12 -3.37432e+12 -4.67353e+12 -4.85512e+12 -4.84873e+12 -6.05339e+12 -3.27082e+12 -2.14416e+12 -3.82224e+12 -4.95361e+12 -4.29593e+12 -4.83769e+12 -3.57388e+12 -2.70412e+12 -8.14023e+12 -4.88862e+12 -4.12211e+12 -4.86238e+12 -4.8411e+12 -2.77135e+12 -4.32618e+12 -2.424e+12 -3.44865e+12 -4.91945e+12 -5.21215e+12 -4.57366e+12 -2.74861e+12 -3.52229e+12 -3.39358e+12 -6.49658e+12 -5.48106e+12 -4.72179e+12 -4.15838e+12 -5.39697e+12 -3.04133e+12 -4.21538e+12 -4.46955e+12 -4.44145e+12 -3.71213e+12 -3.18424e+12 -3.60982e+12 -4.16759e+12 -5.88824e+12 -4.33945e+12 -8.70487e+12 -5.23312e+12 -3.50843e+12 -2.49863e+12 -2.09255e+12 -3.63688e+12 -3.08198e+12 -8.35313e+12 -8.13106e+12 -7.19145e+12 -2.6091e+12 -4.21497e+12 -5.35742e+12 -4.29941e+12 -4.17644e+12 -5.65856e+12 -5.96837e+12 -6.07612e+12 -7.28706e+12 -5.87106e+12 -7.89288e+12 -4.7335e+12 -5.07317e+12 -3.26949e+12 -6.96401e+12 -5.19551e+12 -5.27202e+12 -5.95155e+12 -8.63568e+12 -7.50192e+12 -5.01039e+12 -3.46083e+12 -3.8209e+12 -5.9413e+12 -4.85495e+12 -6.30085e+12 -5.27422e+12 -8.69585e+12 -4.86924e+12 -8.06217e+12 -4.63675e+12 -2.78872e+12 -1.46591e+12 -2.65139e+12 -6.03792e+12 -4.70566e+12 -2.5935e+12 -5.2412e+12 -6.41929e+12 -4.08079e+12 -5.59104e+12 -4.41912e+12 -4.80255e+12 -5.51728e+12 -3.4861e+12 -4.05358e+12 -4.71907e+12 -5.06864e+12 -4.48013e+12 -3.17972e+12 -5.60811e+12 -4.46951e+12 -5.82784e+12 -4.90774e+12 -5.69243e+12 -3.79458e+12 -3.46971e+12 -2.14119e+12 -1.90705e+12 -4.67074e+12 -3.85879e+12 -3.80132e+12 -6.5189e+12 -5.31919e+12 -5.65598e+12 -4.11143e+12 -4.39174e+12 -6.06763e+12 -4.57324e+12 -3.75279e+12 -4.39434e+12 -3.73946e+12 -2.74721e+12 -4.4995e+12 -7.88277e+12 -6.44682e+12 -7.88515e+12 -4.35168e+12 -2.78482e+12 -3.39018e+12 -6.23886e+12 -4.20619e+12 -7.26182e+12 -5.48088e+12 -4.29726e+12 -3.99556e+12 -5.24294e+12 -5.36259e+12 -2.96485e+12 -4.49995e+12 -5.42574e+12 -2.32642e+12 -3.94149e+12 -5.50534e+12 -2.33783e+12 -5.37094e+12 -3.31082e+12 -7.02227e+12 -3.51589e+12 -1.17425e+12 -4.24125e+12 -3.94605e+12 -3.67844e+12 -3.8501e+12 -3.98644e+12 -4.5044e+12 -5.66538e+12 -2.15545e+12 -4.30718e+12 -3.05129e+12 -4.69595e+12 -2.64579e+12 -2.1112e+12 -5.41144e+12 -4.69514e+12 -5.31836e+12 -3.08281e+12 -3.43045e+12 -4.52607e+12 -2.88572e+12 -3.13488e+12 -3.96437e+12 -1.8325e+12 -4.55172e+12 -4.10876e+12 -3.39072e+12 -2.49809e+12 -3.7235e+12 -3.89008e+12 -5.85997e+12 -4.31638e+12 -4.53928e+12 -6.26988e+12 -3.93772e+12 -2.97555e+12 -4.9273e+12 -5.63351e+12 -4.49956e+12 -6.62955e+12 -3.59548e+12 -3.79439e+12 -3.13415e+12 -2.93701e+12 -5.15018e+12 -4.33335e+12 -4.30383e+12 -6.66514e+12 -7.08101e+12 -6.31411e+12 -4.79916e+12 -5.09936e+12 -5.51357e+12 -2.48388e+12 -1.29649e+12 -4.43729e+12 -4.90682e+12 -3.41317e+12 -3.91736e+12 -5.41718e+12 -4.72111e+12 -4.73623e+12 -7.54718e+12 -5.78709e+12 -4.95497e+12 -3.10854e+12 -3.39193e+12 -3.91975e+12 -5.26325e+12 -2.62517e+12 -4.67899e+12 -7.61635e+12 -5.13357e+12 -4.83994e+12 -3.87617e+12 -5.66169e+12 -5.71947e+12 -6.69911e+12 -4.30943e+12 -4.39337e+12 -2.21595e+12 -2.9911e+12 -3.22232e+12 -3.03002e+12 -5.11032e+12 -4.67646e+12 -5.67962e+12 -5.6772e+12 -6.34199e+12 -7.74922e+12 -4.61875e+12 -4.05321e+12 -3.78168e+12 -7.38697e+12 -4.76799e+12 -3.88829e+12 -5.47024e+12 -3.88711e+12 -5.28035e+12 -4.01362e+12 -3.91482e+12 -6.43648e+12 -4.76578e+12 -5.15087e+12 -2.09964e+12 -4.43673e+12 -4.41379e+12 -5.62073e+12 -5.55759e+12 -5.01254e+12 -3.4964e+12 -4.44173e+12 -2.87307e+12 -4.02453e+12 -1.82902e+12 -6.59953e+12 -5.90616e+12 -3.83631e+12 -6.20183e+12 -5.0232e+12 -1.3301e+12 -6.4731e+12 -5.60559e+12 -6.48698e+12 -6.10949e+12 -3.18219e+12 -6.7225e+12 -3.26722e+12 -4.1032e+12 -1.86653e+12 -2.938e+12 -3.80107e+12 -4.18001e+12 -2.92987e+12 -3.17513e+12 -2.87048e+12 -4.60392e+12 -4.85366e+12 -2.96867e+12 -3.33975e+12 -4.04758e+12 -1.59466e+12 -2.67382e+12 -2.95057e+12 -2.60487e+12 -3.32494e+12 -1.95129e+12 -1.33515e+12 -4.09234e+12 -3.48681e+12 -3.15466e+12 -1.91791e+12 -656863000000.0 -2.72118e+12 -3.56323e+12 -3.27685e+12 -3.11518e+12 -2.06517e+12 -3.15057e+12 -4.79776e+12 -3.06815e+12 -5.82839e+12 -5.63797e+12 -3.30865e+12 -4.79867e+12 -4.29984e+12 -3.98214e+12 -5.22923e+12 -4.38123e+12 -5.66963e+12 -2.42816e+12 -5.80364e+12 -5.14253e+12 -3.88712e+12 -3.47366e+12 -2.30515e+12 -3.37437e+12 -5.01093e+12 -3.86485e+12 -4.36452e+12 -3.38445e+12 -4.65753e+12 -3.85355e+12 -2.59877e+12 -6.15365e+12 -4.77889e+12 -5.81845e+12 -5.56052e+12 -5.7734e+12 -2.8981e+12 -4.84624e+12 -3.51565e+12 -4.53239e+12 -4.77298e+12 -3.1241e+12 -5.49527e+12 -8.23833e+12 -5.38535e+12 -4.79701e+12 -5.77616e+12 -3.75711e+12 -3.43761e+12 -5.65926e+12 -3.76417e+12 -5.23716e+12 -7.4248e+12 -4.69098e+12 -6.03258e+12 -5.9751e+12 -4.87983e+12 -4.07259e+12 -3.93284e+12 -7.97274e+12 -3.94701e+12 -3.77402e+12 -5.90997e+12 -1.77924e+12 -1.93164e+12 -1.72562e+12 -3.9364e+12 -5.71485e+12 -5.93049e+12 -6.86257e+12 -5.76278e+12 -4.08422e+12 -3.51616e+12 -5.96876e+12 -5.00751e+12 -4.10928e+12 -2.70555e+12 -3.64087e+12 -4.06066e+12 -1.76941e+12 -4.91886e+12 -5.01066e+12 -3.14735e+12 -1.43389e+12 -4.73523e+12 -3.11151e+12 -4.00922e+12 -3.30688e+12 -3.4382e+12 -4.2217e+12 -4.30745e+12 -4.63099e+12 -5.06909e+12 -4.5428e+12 -5.76065e+12 -4.2717e+12 -3.40618e+12 -4.16506e+12 -3.48985e+12 -6.88255e+12 -4.36127e+12 -1.84499e+12 -3.31051e+12 -4.25559e+12 -1.89678e+12 -1.46475e+12 -2.60174e+12 -2.87375e+12 -2.21065e+12 -2.84554e+12 -1.73463e+12 -1.71765e+12 -2.46268e+12 -4.45207e+12 -3.71851e+12 -1.60107e+12 -1.12051e+12 -2.22596e+12 -795828000000.0 -4.70662e+12 -1.42044e+12 -1.34055e+12 -2.63949e+12 -1.92819e+12 -1.47964e+12 -2.07475e+12 -3.289e+12 -1.62057e+12 -1.94272e+12 -2.67522e+12 -3.07822e+12 -2.75132e+12 -3.0254e+12 -2.24838e+12 -4.1722e+12 -2.81325e+12 -3.10992e+12 -3.02604e+12 -3.39851e+12 -2.11327e+12 -3.75759e+12 -3.48995e+12 -1.10312e+12 -3.63932e+12 -2.51263e+12 -5.59663e+12 -2.92734e+12 -2.7234e+12 -2.14137e+12 -2.53149e+12 -2.18101e+12 -2.86816e+12 -2.28405e+12 -1.53244e+12 -3.30225e+12 -2.64354e+12 -4.16027e+12 -5.23356e+12 -4.76495e+12 -2.49353e+12 -2.42484e+12 -4.92734e+12 -2.49958e+12 -2.93482e+12 -4.69005e+12 -4.66506e+12 -5.57186e+12 -3.44869e+12 -5.72298e+12 -5.89319e+12 -4.97696e+12 -5.26483e+12 -5.37251e+12 -7.07215e+12 -5.08874e+12 -3.46183e+12 -4.4061e+12 -5.3255e+12 -7.90327e+12 -3.81574e+12 -3.99747e+12 -4.40407e+12 -3.74817e+12 -4.70989e+12 -5.81007e+12 -6.92024e+12 -3.38799e+12 -7.42497e+12 -5.2198e+12 -5.95217e+12 -5.05835e+12 -5.03528e+12 -4.75254e+12 -3.64066e+12 -3.63708e+12 -2.11251e+12 -5.04019e+12 -6.49327e+12 -1.68924e+12 -3.90181e+12 -2.31026e+12 -3.22037e+12 -3.52196e+12 -4.88602e+12 -5.09772e+12 -4.89358e+12 -4.70839e+12 -2.3863e+12 -4.54805e+12 -7.95439e+12 -5.18358e+12 -3.23641e+12 -5.09035e+12 -2.98195e+12 -3.13606e+12 -3.99454e+12 -4.66181e+12 -8.30302e+12 -4.19303e+12 -5.11097e+12 -4.30477e+12 -3.43364e+12 -4.14273e+12 -4.10681e+12 -2.10745e+12 -3.48859e+12 -3.97679e+12 -3.61154e+12 -3.029e+12 -4.58966e+12 -4.0826e+12 -2.58086e+12 -3.02328e+12 -2.79292e+12 -3.57145e+12 -1.89478e+12 -3.76377e+12 -2.45624e+12 -1.90744e+12 -2.67972e+12 -3.54674e+12 -2.31004e+12 -2.53177e+12 -2.94369e+12 -2.7407e+12 -1.83297e+12 -2.61095e+12 -1.73813e+12 -2.68418e+12 -2.25282e+12 -2.89722e+12 -1.39936e+12 -3.27879e+12 -2.61496e+12 -2.10802e+12 -2.81476e+12 -3.2468e+12 -1.90443e+12 -2.04652e+12 -1.25831e+12 -2.77343e+12 -664980000000.0 -1.84473e+12 -1.79369e+12 -2.14215e+12 -472862000000.0 -1.75208e+12 -1.96308e+12 -2.61835e+12 -1.73998e+12 -995130000000.0 -649328000000.0 -2.04563e+12 -3.08288e+12 -2.66203e+12 -5.04507e+12 -1.49725e+12 -955447000000.0 -2.03177e+12 -1.14042e+12 -1.0035e+12 -1.82237e+12 -3.28506e+12 -2.68824e+12 -2.92724e+12 -3.54067e+12 -2.99915e+12 -1.85255e+12 -3.71125e+12 -3.33845e+12 -4.06634e+12 -1.57595e+12 -1.80883e+12 -1.86169e+12 -4.02787e+12 -3.09749e+12 -2.35525e+12 -1.96889e+12 -3.64795e+12 -2.39972e+12 -3.50992e+12 -4.06579e+12 -3.17167e+12 -1.79259e+12 -1.71933e+12 -4.31843e+12 -4.17844e+12 -3.39339e+12 -1.86566e+12 -1.89075e+12 -2.792e+12 -5.15158e+12 -1.50147e+12 -5.47305e+12 -3.84132e+12 -5.97705e+12 -4.92161e+12 -4.37608e+12 -2.80242e+12 -2.28568e+12 -2.65421e+12 -3.06617e+12 -3.54601e+12 -3.05613e+12 -3.15463e+12 -3.22902e+12 -4.16415e+12 -3.06585e+12 -4.69149e+12 -3.08792e+12 -4.39401e+12 -6.69168e+12 -4.22456e+12 -5.09709e+12 -3.99362e+12 -3.2841e+12 -2.43772e+12 -5.32115e+12 -4.52095e+12 -2.48672e+12 -3.11312e+12 -3.14383e+12 -3.83694e+12 -3.34836e+12 -5.47598e+12 -4.98713e+12 -5.6622e+12 -4.17016e+12 -3.92087e+12 -3.03183e+12 -4.33373e+12 -6.14523e+12 -4.6865e+12 -3.25721e+12 -3.35572e+12 -2.56545e+12 -3.81333e+12 -3.86154e+12 -2.08517e+12 -3.42484e+12 -2.98711e+12 -2.1367e+12 -2.0293e+12 -4.44262e+12 -1.76575e+12 -3.19165e+12 -2.78505e+12 -2.93239e+12 -2.1532e+12 -2.31243e+12 -3.08275e+12 -2.75958e+12 -2.74325e+12 -2.63281e+12 -2.00513e+12 -847988000000.0 -2.35154e+12 -3.41908e+12 -202272000000.0 -2.24323e+12 -1.54915e+12 -1.82488e+12 -2.69473e+12 -1.87182e+12 -2.23676e+12 -1.1022e+12 -1.97634e+12 -1.62362e+12 -2.1906e+12 -1.23117e+12 -1.59867e+12 -1.47206e+12 -1.70649e+12 -2.57915e+12 -1.95451e+12 -1.3762e+12 -1.94224e+12 -1.39992e+12 -226923000000.0 -1.05707e+12 -822655000000.0 -1.27378e+12 -689089000000.0 -1.00482e+12 -1.13732e+12 -1.1355e+12 -1.22326e+12 -1.18495e+12 -2.42752e+12 -1.62763e+12 -1.757e+12 -2.01103e+12 -1.8134e+12 -1.8114e+12 -3.11894e+12 -1.35703e+12 -2.20644e+12 -1.11828e+12 -1.88435e+12 -2.29794e+12 -1.51427e+12 -3.3716e+12 -3.40358e+12 -1.74226e+12 -2.10504e+12 -2.47483e+12 -2.57325e+12 -2.21805e+12 -4.88468e+12 -2.98896e+12 -616687000000.0 -4.61465e+12 -3.05885e+12 -2.93326e+12 -3.23768e+12 -2.42496e+12 -3.72888e+12 -2.53972e+12 -1.75733e+12 -3.57784e+12 -3.00872e+12 -4.64821e+12 -4.31784e+12 -4.07379e+12 -3.16339e+12 -1.60431e+12 -3.59338e+12 -3.42789e+12 -4.99557e+12 -2.76262e+12 -6.36409e+12 -6.03362e+12 -3.66163e+12 -3.30971e+12 -2.91004e+12 -5.96135e+12 -4.92028e+12 -3.0902e+12 -5.58071e+12 -4.86502e+12 -3.02193e+12 -1.38266e+12 -4.57805e+12 -3.99931e+12 -3.08311e+12 -2.46899e+12 -2.80259e+12 -7.00081e+12 -2.25399e+12 -2.40915e+12 -3.99465e+12 -5.13267e+12 -3.07208e+12 -3.89939e+12 -3.05798e+12 -6.40301e+12 -1.01628e+12 -1.66455e+12 -2.86498e+12 -3.89975e+12 -1.84712e+12 -2.66678e+12 -2.29343e+12 -1.53931e+12 -3.16359e+12 -2.68909e+12 -2.49936e+12 -1.69039e+12 -2.12674e+12 -3.17764e+12 -1.4829e+12 -1.82139e+12 -3.87822e+12 -2.06706e+12 -2.6543e+12 -2.03476e+12 -1.77661e+12 -1.87927e+12 -4.91382e+12 -3.13277e+12 -1.30357e+12 -1.08468e+12 -1.78904e+12 -798864000000.0 -1.17349e+12 -2.46563e+12 -328212000000.0 -1.37682e+12 -2.45076e+12 -437727000000.0 -624237000000.0 -954086000000.0 -602604000000.0 -1.17132e+12 -794372000000.0 -572191000000.0 -572286000000.0 -710644000000.0 -319464000000.0 -228028000000.0 -1.09176e+12 -1.0003e+12 -791637000000.0 -1.20403e+12 -1.03704e+12 -1.37699e+12 -850510000000.0 -1.07294e+12 -832307000000.0 -1.09186e+12 -1.34596e+12 -1.12015e+12 -1.65656e+12 -2.59122e+12 -705854000000.0 -887963000000.0 -750597000000.0 -366273000000.0 -1.18642e+12 -1.31036e+12 -2.81593e+12 -3.59836e+12 -2.65846e+12 -2.38293e+12 -1.24437e+12 -2.92967e+12 -1.88349e+12 -4.1419e+12 -1.89968e+12 -1.17509e+12 -1.5587e+12 -3.51279e+12 -3.24051e+12 -1.97294e+12 -2.25836e+12 -1.91372e+12 -5.29887e+12 -1.59764e+12 -3.67158e+12 -3.79504e+12 -1.49481e+12 -2.75843e+12 -3.51635e+12 -2.68358e+12 -4.41259e+12 -1.31332e+12 -2.59354e+12 -2.55652e+12 -3.1418e+12 -2.36706e+12 -3.34865e+12 -3.66656e+12 -3.93127e+12 -3.48988e+12 -2.70379e+12 -2.02558e+12 -1.83973e+12 -2.15134e+12 -1.69355e+12 -3.48693e+12 -5.49611e+12 -2.47628e+12 -4.40449e+12 -1.06569e+12 -1.64871e+12 -1.42187e+12 -3.14405e+12 -1.37835e+12 -1.90987e+12 -4.01451e+12 -1.56713e+12 -736662000000.0 -1.96665e+12 -1.78919e+12 -2.49793e+12 -493501000000.0 -2.13036e+12 -1.87938e+12 -3.43856e+12 -2.30838e+12 -3.25498e+12 -3.51197e+12 -1.07688e+12 -2.87685e+12 -2.3265e+12 -2.20819e+12 -2.28793e+12 -2.39644e+12 -1.55858e+12 -1.44823e+12 -4.61201e+12 -1.48802e+12 -1.20211e+12 -513890000000.0 -1.28267e+12 -3.22014e+12 -1.90251e+12 -1.47051e+12 -1.17035e+12 -1.67525e+12 -603792000000.0 -2.04148e+12 -1.55139e+12 -2.57617e+12 -1.01813e+12 -1.58844e+12 -679972000000.0 -525813000000.0 -930502000000.0 -1.45174e+12 -1.32273e+12 -164568000000.0 -348814000000.0 -554601000000.0 -282061000000.0 -235099000000.0 -432261000000.0 -270152000000.0 -393970000000.0 -271036000000.0 -306321000000.0 -179661000000.0 -1.22307e+12 -458156000000.0 -1.24914e+12 -1.19226e+12 -2.17784e+12 -923636000000.0 -1.62511e+12 -770548000000.0 -1.69285e+12 -1.47132e+12 -1.23682e+12 -1.08225e+12 -1.98091e+12 -1.80865e+12 -1.41299e+12 -1.64663e+12 -3.65273e+12 -3.28943e+12 -1.89074e+12 -1.78231e+12 -2.55646e+12 -1.56278e+12 -915785000000.0 -2.87726e+12 -1.95278e+12 -2.07947e+12 -1.50515e+12 -2.45553e+12 -3.86917e+12 -3.00624e+12 -2.3746e+12 -2.60814e+12 -1.65845e+12 -3.15068e+12 -2.44543e+12 -1.99673e+12 -4.44063e+12 -2.36239e+12 -1.61391e+12 -1.48326e+12 -2.82772e+12 -3.33848e+12 -2.77822e+12 -1.99859e+12 -1.77521e+12 -1.02271e+12 -2.1522e+12 -2.04109e+12 -2.24852e+12 -888046000000.0 -1.3745e+12 -1.44474e+12 -2.28652e+12 -2.03989e+12 -2.75604e+12 -1.00964e+12 -2.38167e+12 -1.56576e+12 -2.79288e+12 -1.4872e+12 -1.29767e+12 -1.1831e+12 -2.00692e+12 -1.71466e+12 -2.14662e+12 -1.57928e+12 -1.02374e+12 -3.39376e+12 -1.36507e+12 -2.09355e+12 -1.55035e+12 -1.22478e+12 -1.17017e+12 -1.74073e+12 -1.41661e+12 -1.62373e+12 -2.111e+12 -1.35258e+12 -1.50055e+12 -857516000000.0 -924088000000.0 -1.06641e+12 -1.2036e+12 -619705000000.0 -306795000000.0 -578881000000.0 -393331000000.0 -712978000000.0 -622778000000.0 -237148000000.0 -138557000000.0 -235847000000.0 -215622000000.0 -285649000000.0 -183443000000.0 -370613000000.0 -251077000000.0 -127072000000.0 -462389000000.0 -725800000000.0 -248215000000.0 -399708000000.0 -543082000000.0 -1.58845e+12 -950986000000.0 -1.94133e+12 -760357000000.0 -1.73185e+12 -1.499e+12 -154904000000.0 -1.48722e+12 -2.6599e+12 -1.10241e+12 -1.35457e+12 -1.41732e+12 -1.52565e+12 -1.57218e+12 -1.81826e+12 -1.10803e+12 -1.13204e+12 -1.74645e+12 -3.31939e+12 -1.65011e+12 -1.79019e+12 -1.90064e+12 -1.79379e+12 -2.28641e+12 -2.71772e+12 -2.96241e+12 -1.1081e+12 -3.30789e+12 -1.52739e+12 -989045000000.0 -1.66182e+12 -2.95701e+12 -2.1993e+12 -1.62978e+12 -1.37142e+12 -1.67969e+12 -1.94347e+12 -1.36056e+12 -1.34856e+12 -1.4714e+12 -1.46297e+12 -1.00656e+12 -1.38725e+12 -1.44572e+12 -1.56518e+12 -2.33053e+12 -1.24514e+12 -775101000000.0 -2.77633e+12 -1.27614e+12 -885033000000.0 -731000000000.0 -1.63842e+12 -1.94084e+12 -870316000000.0 -242600000000.0 -1.45241e+12 -1.06953e+12 -989271000000.0 -839167000000.0 -1.36879e+12 -1.1016e+12 -359364000000.0 -1.33215e+12 -2.30336e+12 -524510000000.0 -603343000000.0 -1.07148e+12 -413334000000.0 -255644000000.0 -880332000000.0 -115888000000.0 -233204000000.0 -280721000000.0 -242857000000.0 -321137000000.0 -221682000000.0 -96686200000.0 -178375000000.0 -376046000000.0 -229239000000.0 -580543000000.0 -1.16368e+12 -167958000000.0 -904537000000.0 -883704000000.0 -449172000000.0 -879544000000.0 -775185000000.0 -734364000000.0 -1.0544e+12 -1.06381e+12 -1.11941e+12 -1.15448e+12 -1.37863e+12 -1.28463e+12 -1.98692e+12 -678347000000.0 -1.75228e+12 -2.38971e+12 -993616000000.0 -1.05539e+12 -1.24602e+12 -1.41515e+12 -362314000000.0 -1.70456e+12 -971756000000.0 -1.32891e+12 -1.05514e+12 -1.86376e+12 -1.87347e+12 -1.0573e+12 -1.39064e+12 -1.5259e+12 -584793000000.0 -537310000000.0 -490540000000.0 -1.1985e+12 -681145000000.0 -1.79696e+12 -1.84827e+12 -997211000000.0 -174849000000.0 -471864000000.0 -678701000000.0 -1.25083e+12 -682659000000.0 -980168000000.0 -410629000000.0 -912547000000.0 -423881000000.0 -1.24287e+12 -778206000000.0 -1.05432e+12 -607152000000.0 -451169000000.0 -378866000000.0 -138225000000.0 -69340600000.0 -519026000000.0 -136719000000.0 -272018000000.0 -303047000000.0 -325675000000.0 -192545000000.0 -263956000000.0 -435905000000.0 -1.18966e+12 -291229000000.0 -213346000000.0 -1.20523e+12 -537538000000.0 -601192000000.0 -1.0552e+12 -532963000000.0 -1.2269e+12 -408539000000.0 -778758000000.0 -509932000000.0 -413244000000.0 -705788000000.0 -819018000000.0 -925653000000.0 -539967000000.0 -875041000000.0 -734365000000.0 -440833000000.0 -1.27567e+12 -818426000000.0 -388262000000.0 -41045800000.0 -49567400000.0 -303234000000.0 -158951000000.0 -617891000000.0 -413542000000.0 -307993000000.0 -204025000000.0 -381542000000.0 -261639000000.0 -258093000000.0 -89412200000.0 -427121000000.0 -287477000000.0 -141767000000.0 -422958000000.0 -296116000000.0 -204973000000.0 -242369000000.0 -137242000000.0 -331539000000.0 -142379000000.0 -342494000000.0 -322015000000.0 -264362000000.0 -177323000000.0 -618927000000.0 -237504000000.0 -321575000000.0 -126882000000.0 -83445500000.0 