# vtk DataFile Version 2.0
Time step 65
ASCII
DATASET UNSTRUCTURED_GRID
POINTS 4650 float
202000.0 357103.0 0
210757.0 356067.0 0
289243.0 356067.0 0
298000.0 357103.0 0
207063.0 357614.0 0
215269.0 358169.0 0
222308.0 359148.0 0
248019.0 358851.0 0
251981.0 358851.0 0
277692.0 359148.0 0
284731.0 358169.0 0
292937.0 357614.0 0
204187.0 360432.0 0
208024.0 361472.0 0
211697.0 359921.0 0
218428.0 360589.0 0
225880.0 360931.0 0
231489.0 361382.0 0
235143.0 359844.0 0
238557.0 361862.0 0
241976.0 359825.0 0
245426.0 361818.0 0
254574.0 361818.0 0
258024.0 359825.0 0
261442.0 361862.0 0
264857.0 359844.0 0
268511.0 361382.0 0
274120.0 360931.0 0
281572.0 360589.0 0
288303.0 359921.0 0
291976.0 361472.0 0
295813.0 360432.0 0
201999.0 363751.0 0
211202.0 363825.0 0
214866.0 362342.0 0
221535.0 363036.0 0
228484.0 363943.0 0
235138.0 363901.0 0
242021.0 363810.0 0
250000.0 363562.0 0
257979.0 363810.0 0
264862.0 363901.0 0
271516.0 363943.0 0
278465.0 363036.0 0
285134.0 362342.0 0
288798.0 363825.0 0
298001.0 363751.0 0
203046.0 367578.0 0
205947.0 364847.0 0
214357.0 366286.0 0
217990.0 364785.0 0
221258.0 366993.0 0
224799.0 365212.0 0
231801.0 366036.0 0
238629.0 365825.0 0
246563.0 365587.0 0
253437.0 365587.0 0
261371.0 365825.0 0
268199.0 366036.0 0
275201.0 365212.0 0
278742.0 366993.0 0
282010.0 364785.0 0
285643.0 366286.0 0
294053.0 364847.0 0
296954.0 367578.0 0
206879.0 368668.0 0
210662.0 367646.0 0
217682.0 368743.0 0
224602.0 369123.0 0
228419.0 368122.0 0
231926.0 369984.0 0
235281.0 367886.0 0
239745.0 369592.0 0
243140.0 367583.0 0
246590.0 369530.0 0
250000.0 367540.0 0
253409.0 369529.0 0
256860.0 367583.0 0
260255.0 369592.0 0
264719.0 367885.0 0
268074.0 369984.0 0
271581.0 368122.0 0
275398.0 369123.0 0
282318.0 368743.0 0
289338.0 367646.0 0
293121.0 368668.0 0
201988.0 371385.0 0
205634.0 372322.0 0
209984.0 371435.0 0
213729.0 370163.0 0
216841.0 372565.0 0
221058.0 370899.0 0
228591.0 372105.0 0
236387.0 371636.0 0
243213.0 371517.0 0
250000.0 371489.0 0
256787.0 371516.0 0
263613.0 371636.0 0
271410.0 372104.0 0
278942.0 370899.0 0
283159.0 372565.0 0
286271.0 370163.0 0
290016.0 371435.0 0
294365.0 372322.0 0
298012.0 371385.0 0
200517.0 375481.0 0
208370.0 374863.0 0
213205.0 374049.0 0
220128.0 374641.0 0
224756.0 372995.0 0
233070.0 373718.0 0
239874.0 373515.0 0
246634.0 373466.0 0
253366.0 373466.0 0
260126.0 373514.0 0
266930.0 373717.0 0
275244.0 372995.0 0
279872.0 374641.0 0
286795.0 374049.0 0
291629.0 374863.0 0
299483.0 375481.0 0
197990.0 378552.0 0
204396.0 376088.0 0
211225.0 377325.0 0
216729.0 376483.0 0
223404.0 376571.0 0
229815.0 375856.0 0
233338.0 377625.0 0
236577.0 375543.0 0
240036.0 377424.0 0
243313.0 375444.0 0
246690.0 377406.0 0
250000.0 375433.0 0
253310.0 377406.0 0
256687.0 375444.0 0
259964.0 377423.0 0
263423.0 375542.0 0
266663.0 377624.0 0
270186.0 375855.0 0
276597.0 376571.0 0
283272.0 376483.0 0
288775.0 377325.0 0
295604.0 376088.0 0
302010.0 378552.0 0
194767.0 380576.0 0
197966.0 381962.0 0
201168.0 379368.0 0
204343.0 380447.0 0
207449.0 378465.0 0
210105.0 380945.0 0
214344.0 379416.0 0
220117.0 378577.0 0
223603.0 380461.0 0
226777.0 378208.0 0
230219.0 379823.0 0
236808.0 379439.0 0
243435.0 379373.0 0
250000.0 379384.0 0
256565.0 379373.0 0
263193.0 379438.0 0
269782.0 379822.0 0
273224.0 378207.0 0
276397.0 380461.0 0
279884.0 378576.0 0
285656.0 379416.0 0
289895.0 380945.0 0
292551.0 378465.0 0
295657.0 380447.0 0
298832.0 379368.0 0
302034.0 381962.0 0
305233.0 380576.0 0
188328.0 384600.0 0
191545.0 382590.0 0
194710.0 384056.0 0
201111.0 383195.0 0
206916.0 382871.0 0
212996.0 382894.0 0
217590.0 381386.0 0
220979.0 383173.0 0
227120.0 382112.0 0
233659.0 381538.0 0
240226.0 381321.0 0
246757.0 381359.0 0
253243.0 381359.0 0
259775.0 381320.0 0
266342.0 381537.0 0
272881.0 382111.0 0
279020.0 383174.0 0
282409.0 381387.0 0
287004.0 382894.0 0
293084.0 382871.0 0
298889.0 383195.0 0
305290.0 384056.0 0
308455.0 382590.0 0
311672.0 384600.0 0
185119.0 386605.0 0
191468.0 386086.0 0
197852.0 385503.0 0
203966.0 384998.0 0
209856.0 384876.0 0
215831.0 384688.0 0
218763.0 386197.0 0
224472.0 384789.0 0
230588.0 383735.0 0
233984.0 385435.0 0
237065.0 383325.0 0
240430.0 385195.0 0
243577.0 383312.0 0
246836.0 385334.0 0
250000.0 383353.0 0
253165.0 385334.0 0
256424.0 383312.0 0
259571.0 385194.0 0
262936.0 383324.0 0
266018.0 385433.0 0
269413.0 383734.0 0
275527.0 384790.0 0
281237.0 386197.0 0
284169.0 384688.0 0
290144.0 384876.0 0
296034.0 384998.0 0
302148.0 385503.0 0
308532.0 386086.0 0
314881.0 386605.0 0
181919.0 388604.0 0
188247.0 388097.0 0
191362.0 389632.0 0
194594.0 387600.0 0
197674.0 389169.0 0
200860.0 387060.0 0
203844.0 388893.0 0
206873.0 386918.0 0
212785.0 386822.0 0
215788.0 388583.0 0
221871.0 387490.0 0
225144.0 388799.0 0
227981.0 386372.0 0
231462.0 388068.0 0
237317.0 387192.0 0
243727.0 387275.0 0
250001.0 387390.0 0
256274.0 387275.0 0
262685.0 387189.0 0
268536.0 388069.0 0
272018.0 386373.0 0
274856.0 388799.0 0
278128.0 387490.0 0
284212.0 388583.0 0
287215.0 386822.0 0
293127.0 386918.0 0
296156.0 388893.0 0
299140.0 387060.0 0
302326.0 389169.0 0
305406.0 387600.0 0
308638.0 389632.0 0
311753.0 388097.0 0
318081.0 388604.0 0
178722.0 390601.0 0
181857.0 392083.0 0
185046.0 390097.0 0
188160.0 391643.0 0
194456.0 391211.0 0
200728.0 390852.0 0
206835.0 390880.0 0
209806.0 388872.0 0
212796.0 390780.0 0
218914.0 390038.0 0
222198.0 391311.0 0
228502.0 390297.0 0
234946.0 389878.0 0
240594.0 389005.0 0
246863.0 389439.0 0
253138.0 389442.0 0
259409.0 389002.0 0
265053.0 389879.0 0
271498.0 390298.0 0
277802.0 391311.0 0
281086.0 390038.0 0
287204.0 390780.0 0
290194.0 388872.0 0
293165.0 390880.0 0
299272.0 390852.0 0
305544.0 391211.0 0
311840.0 391643.0 0
314954.0 390097.0 0
318143.0 392083.0 0
321278.0 390601.0 0
172296.0 394615.0 0
175518.0 392602.0 0
178662.0 394057.0 0
184982.0 393635.0 0
191254.0 393232.0 0
197536.0 392848.0 0
200634.0 394569.0 0
203804.0 392722.0 0
209842.0 392838.0 0
215840.0 392497.0 0
219142.0 393804.0 0
225553.0 392658.0 0
231921.0 391933.0 0
238413.0 391820.0 0
242335.0 392341.0 0
245997.0 393076.0 0
250005.0 392275.0 0
254014.0 393077.0 0
257673.0 392338.0 0
261586.0 391821.0 0
268079.0 391933.0 0
274446.0 392659.0 0
280858.0 393805.0 0
284160.0 392497.0 0
290158.0 392838.0 0
296196.0 392722.0 0
299366.0 394569.0 0
302464.0 392848.0 0
308746.0 393232.0 0
315018.0 393635.0 0
321338.0 394057.0 0
324482.0 392602.0 0
327704.0 394615.0 0
169049.0 396643.0 0
175445.0 396031.0 0
178603.0 397533.0 0
181804.0 395595.0 0
184937.0 397215.0 0
188091.0 395241.0 0
191182.0 396886.0 0
194329.0 394857.0 0
197395.0 396512.0 0
203821.0 396419.0 0
206918.0 394837.0 0
212743.0 394910.0 0
216069.0 396338.0 0
222543.0 395067.0 0
226022.0 396433.0 0
228975.0 394151.0 0
232465.0 395736.0 0
235378.0 393695.0 0
239965.0 395313.0 0
243775.0 396371.0 0
248205.0 395938.0 0
251794.0 395929.0 0
256228.0 396377.0 0
260036.0 395315.0 0
264621.0 393696.0 0
267535.0 395737.0 0
271025.0 394151.0 0
273978.0 396433.0 0
277457.0 395067.0 0
283931.0 396338.0 0
287257.0 394910.0 0
293082.0 394837.0 0
296179.0 396419.0 0
302605.0 396512.0 0
305671.0 394857.0 0
308818.0 396886.0 0
311909.0 395241.0 0
315063.0 397215.0 0
318196.0 395595.0 0
321397.0 397533.0 0
324555.0 396031.0 0
330951.0 396643.0 0
165775.0 398688.0 0
168922.0 400023.0 0
172199.0 398016.0 0
175366.0 399470.0 0
181765.0 399133.0 0
188055.0 398886.0 0
194266.0 398552.0 0
200474.0 398177.0 0
203581.0 399830.0 0
209664.0 397294.0 0
213049.0 398825.0 0
219473.0 397511.0 0
222997.0 398735.0 0
229576.0 397923.0 0
233315.0 399371.0 0
236604.0 397271.0 0
240101.0 399074.0 0
246558.0 399163.0 0
253436.0 399160.0 0
259898.0 399074.0 0
263396.0 397272.0 0
266684.0 399371.0 0
270424.0 397924.0 0
277003.0 398735.0 0
280527.0 397512.0 0
286951.0 398825.0 0
290336.0 397294.0 0
296419.0 399830.0 0
299526.0 398177.0 0
305734.0 398552.0 0
311945.0 398886.0 0
318235.0 399133.0 0
324634.0 399470.0 0
327801.0 398016.0 0
331078.0 400023.0 0
334225.0 398688.0 0
159155.0 402824.0 0
162476.0 400749.0 0
165618.0 402052.0 0
172091.0 401425.0 0
175284.0 402909.0 0
178550.0 401018.0 0
181743.0 402683.0 0
184919.0 400831.0 0
191166.0 400583.0 0
194294.0 402274.0 0
197368.0 400216.0 0
200526.0 401847.0 0
206985.0 399971.0 0
210233.0 401426.0 0
216463.0 400207.0 0
219960.0 401107.0 0
226570.0 400114.0 0
230168.0 401578.0 0
236801.0 401101.0 0
243363.0 401017.0 0
249998.0 400906.0 0
256633.0 401014.0 0
263198.0 401101.0 0
269832.0 401579.0 0
273430.0 400114.0 0
280040.0 401107.0 0
283537.0 400207.0 0
289767.0 401426.0 0
293015.0 399971.0 0
299474.0 401847.0 0
302632.0 400216.0 0
305706.0 402274.0 0
308834.0 400583.0 0
315081.0 400831.0 0
318257.0 402683.0 0
321450.0 401018.0 0
324716.0 402909.0 0
327909.0 401425.0 0
334382.0 402052.0 0
337524.0 400749.0 0
340845.0 402824.0 0
155817.0 404910.0 0
162293.0 404104.0 0
165456.0 405429.0 0
168785.0 403411.0 0
171977.0 404835.0 0
178501.0 404497.0 0
184925.0 404478.0 0
188057.0 402568.0 0
191200.0 404302.0 0
197480.0 403925.0 0
203891.0 403253.0 0
207321.0 403943.0 0
213573.0 402790.0 0
216940.0 404156.0 0
223541.0 402331.0 0
227071.0 403768.0 0
233614.0 403209.0 0
240139.0 402990.0 0
246718.0 402985.0 0
253280.0 402984.0 0
259859.0 402989.0 0
266385.0 403209.0 0
272929.0 403768.0 0
276459.0 402331.0 0
283060.0 404156.0 0
286426.0 402790.0 0
292679.0 403943.0 0
296109.0 403253.0 0
302520.0 403925.0 0
308800.0 404302.0 0
311943.0 402568.0 0
315075.0 404478.0 0
321499.0 404497.0 0
328023.0 404835.0 0
331215.0 403411.0 0
334544.0 405429.0 0
337707.0 404104.0 0
344183.0 404910.0 0
152467.0 407004.0 0
158954.0 406177.0 0
162118.0 407478.0 0
168644.0 406806.0 0
175197.0 406339.0 0
178446.0 407950.0 0
181734.0 406227.0 0
188085.0 406280.0 0
194389.0 405992.0 0
197667.0 407589.0 0
200798.0 405451.0 0
204203.0 406798.0 0
210665.0 405362.0 0
214081.0 406785.0 0
220498.0 404559.0 0
223986.0 405931.0 0
230473.0 405369.0 0
233784.0 407103.0 0
236948.0 405016.0 0
240237.0 406919.0 0
243454.0 404930.0 0
246742.0 406892.0 0
249999.0 404889.0 0
253257.0 406891.0 0
256544.0 404928.0 0
259762.0 406918.0 0
263051.0 405016.0 0
266215.0 407103.0 0
269526.0 405369.0 0
276014.0 405931.0 0
279501.0 404560.0 0
285919.0 406785.0 0
289335.0 405362.0 0
295797.0 406798.0 0
299202.0 405451.0 0
302333.0 407589.0 0
305611.0 405992.0 0
311915.0 406280.0 0
318266.0 406227.0 0
321554.0 407950.0 0
324803.0 406339.0 0
331356.0 406806.0 0
337882.0 407478.0 0
341046.0 406177.0 0
347533.0 407004.0 0
149110.0 409104.0 0
152258.0 410370.0 0
155608.0 408266.0 0
158780.0 409553.0 0
165305.0 408822.0 0
168511.0 410214.0 0
171854.0 408243.0 0
175088.0 409751.0 0
181723.0 409735.0 0
184944.0 408164.0 0
188114.0 410024.0 0
191264.0 408032.0 0
194515.0 409695.0 0
201018.0 409066.0 0
207625.0 407844.0 0
210980.0 409262.0 0
217266.0 408812.0 0
220785.0 407941.0 0
224136.0 409588.0 0
227338.0 407518.0 0
230622.0 409220.0 0
237048.0 408951.0 0
243504.0 408866.0 0
250000.0 408843.0 0
256495.0 408865.0 0
262951.0 408950.0 0
269378.0 409219.0 0
272662.0 407518.0 0
275864.0 409588.0 0
279215.0 407941.0 0
282734.0 408812.0 0
289020.0 409262.0 0
292375.0 407844.0 0
298982.0 409066.0 0
305485.0 409695.0 0
308736.0 408032.0 0
311886.0 410024.0 0
315056.0 408164.0 0
318277.0 409735.0 0
324912.0 409751.0 0
328146.0 408243.0 0
331489.0 410214.0 0
334695.0 408822.0 0
341220.0 409553.0 0
344392.0 408266.0 0
347742.0 410370.0 0
350890.0 409104.0 0
142389.0 413309.0 0
145748.0 411207.0 0
148907.0 412485.0 0
155444.0 411648.0 0
158659.0 412956.0 0
161976.0 410875.0 0
165191.0 412240.0 0
171733.0 411657.0 0
174966.0 413158.0 0
178346.0 411356.0 0
181623.0 413134.0 0
184943.0 411923.0 0
191343.0 411767.0 0
197832.0 411260.0 0
201175.0 412744.0 0
204372.0 410441.0 0
207720.0 411701.0 0
214190.0 410994.0 0
217448.0 412873.0 0
220787.0 411417.0 0
227411.0 411303.0 0
233864.0 411018.0 0
240289.0 410867.0 0
246757.0 410829.0 0
253242.0 410828.0 0
259710.0 410866.0 0
266136.0 411018.0 0
272588.0 411303.0 0
279212.0 411417.0 0
282552.0 412873.0 0
285809.0 410994.0 0
292280.0 411701.0 0
295628.0 410441.0 0
298825.0 412744.0 0
302168.0 411260.0 0
308657.0 411767.0 0
315057.0 411923.0 0
318377.0 413134.0 0
321654.0 411356.0 0
325034.0 413158.0 0
328267.0 411657.0 0
334809.0 412240.0 0
338024.0 410875.0 0
341341.0 412956.0 0
344556.0 411648.0 0
351093.0 412485.0 0
354252.0 411207.0 0
357611.0 413309.0 0
139043.0 415404.0 0
145560.0 414614.0 0
148783.0 415889.0 0
152111.0 413760.0 0
155350.0 415056.0 0
161894.0 414302.0 0
165147.0 415690.0 0
168421.0 413647.0 0
171662.0 415100.0 0
178208.0 414731.0 0
188154.0 413797.0 0
194644.0 413405.0 0
197983.0 414970.0 0
204511.0 414160.0 0
210978.0 413203.0 0
214231.0 414899.0 0
220744.0 415050.0 0
224104.0 413268.0 0
227371.0 415094.0 0
230649.0 413085.0 0
233858.0 414936.0 0
237083.0 412896.0 0
240298.0 414820.0 0
243525.0 412815.0 0
246761.0 414778.0 0
250000.0 412795.0 0
253239.0 414777.0 0
256474.0 412815.0 0
259701.0 414819.0 0
262917.0 412895.0 0
266141.0 414936.0 0
269351.0 413085.0 0
272629.0 415094.0 0
275896.0 413268.0 0
279256.0 415050.0 0
285768.0 414899.0 0
289022.0 413203.0 0
295489.0 414160.0 0
302017.0 414970.0 0
305356.0 413405.0 0
311846.0 413797.0 0
321792.0 414731.0 0
328338.0 415100.0 0
331579.0 413647.0 0
334853.0 415690.0 0
338106.0 414302.0 0
344650.0 415056.0 0
347889.0 413760.0 0
351217.0 415889.0 0
354440.0 414614.0 0
360957.0 415404.0 0
135720.0 417485.0 0
142226.0 416757.0 0
145465.0 418047.0 0
152048.0 417176.0 0
155342.0 418490.0 0
158613.0 416389.0 0
161896.0 417759.0 0
168414.0 417115.0 0
174915.0 416597.0 0
178202.0 418124.0 0
181494.0 416373.0 0
184985.0 415790.0 0
188271.0 417603.0 0
191450.0 415512.0 0
194797.0 417143.0 0
201328.0 416484.0 0
207814.0 415564.0 0
211060.0 417108.0 0
217482.0 416762.0 0
224048.0 416999.0 0
230593.0 416954.0 0
237060.0 416837.0 0
243520.0 416768.0 0
250000.0 416748.0 0
256480.0 416767.0 0
262940.0 416837.0 0
269407.0 416954.0 0
275952.0 416999.0 0
282518.0 416762.0 0
288940.0 417108.0 0
292186.0 415564.0 0
298672.0 416484.0 0
305203.0 417143.0 0
308550.0 415512.0 0
311729.0 417603.0 0
315015.0 415790.0 0
318506.0 416373.0 0
321798.0 418124.0 0
325085.0 416597.0 0
331586.0 417115.0 0
338104.0 417759.0 0
341387.0 416389.0 0
344658.0 418490.0 0
347952.0 417176.0 0
354535.0 418047.0 0
357774.0 416757.0 0
364280.0 417485.0 0
132434.0 419545.0 0
135647.0 421053.0 0
138917.0 418906.0 0
142171.0 420236.0 0
148753.0 419315.0 0
152080.0 420614.0 0
158659.0 419852.0 0
165195.0 419172.0 0
168514.0 420608.0 0
171700.0 418579.0 0
175023.0 420064.0 0
181610.0 419556.0 0
185163.0 419736.0 0
191625.0 419285.0 0
198160.0 418728.0 0
201513.0 420290.0 0
204652.0 417948.0 0
207931.0 419454.0 0
211165.0 421012.0 0
214287.0 418781.0 0
220752.0 418807.0 0
227290.0 418917.0 0
233793.0 418850.0 0
240269.0 418768.0 0
246753.0 418727.0 0
253247.0 418727.0 0
259731.0 418767.0 0
266207.0 418850.0 0
272710.0 418917.0 0
279248.0 418807.0 0
285713.0 418781.0 0
288835.0 421012.0 0
292069.0 419454.0 0
295348.0 417948.0 0
298487.0 420290.0 0
301840.0 418728.0 0
308375.0 419285.0 0
314837.0 419736.0 0
318390.0 419556.0 0
324977.0 420064.0 0
328300.0 418579.0 0
331486.0 420608.0 0
334805.0 419172.0 0
341341.0 419852.0 0
347920.0 420614.0 0
351247.0 419315.0 0
357829.0 420236.0 0
361083.0 418906.0 0
364353.0 421053.0 0
367566.0 419545.0 0
126012.0 423575.0 0
129193.0 421577.0 0
132425.0 423190.0 0
138917.0 422447.0 0
142233.0 423746.0 0
145475.0 421503.0 0
148826.0 422756.0 0
155432.0 421947.0 0
158800.0 423344.0 0
161991.0 421243.0 0
165340.0 422680.0 0
171869.0 422073.0 0
175285.0 423521.0 0
178427.0 421517.0 0
181935.0 422799.0 0
188489.0 421444.0 0
191872.0 423083.0 0
195010.0 420921.0 0
198398.0 422532.0 0
204846.0 421783.0 0
214351.0 422648.0 0
217517.0 420598.0 0
220697.0 422643.0 0
223982.0 420810.0 0
227176.0 422783.0 0
230494.0 420837.0 0
233694.0 422762.0 0
236996.0 420770.0 0
240215.0 422704.0 0
243494.0 420714.0 0
246737.0 422670.0 0
250000.0 420695.0 0
253263.0 422670.0 0
256506.0 420714.0 0
259785.0 422704.0 0
263004.0 420769.0 0
266306.0 422762.0 0
269505.0 420837.0 0
272824.0 422783.0 0
276018.0 420810.0 0
279303.0 422642.0 0
282483.0 420598.0 0
285649.0 422648.0 0
295154.0 421783.0 0
301602.0 422532.0 0
304990.0 420921.0 0
308127.0 423083.0 0
311511.0 421444.0 0
318065.0 422799.0 0
321573.0 421517.0 0
324715.0 423521.0 0
328131.0 422073.0 0
334660.0 422680.0 0
338009.0 421243.0 0
341200.0 423344.0 0
344568.0 421947.0 0
351174.0 422756.0 0
354525.0 421503.0 0
357767.0 423746.0 0
361083.0 422447.0 0
367575.0 423190.0 0
370807.0 421577.0 0
373988.0 423575.0 0
122895.0 425528.0 0
129266.0 425313.0 0
135717.0 424666.0 0
139048.0 426032.0 0
145591.0 424977.0 0
149000.0 426200.0 0
152214.0 424075.0 0
155617.0 425421.0 0
162177.0 424748.0 0
165569.0 426217.0 0
168712.0 424111.0 0
172131.0 425563.0 0
178784.0 424917.0 0
185402.0 423666.0 0
188762.0 425296.0 0
195273.0 424730.0 0
201780.0 424171.0 0
208167.0 423381.0 0
211441.0 424955.0 0
217409.0 424413.0 0
223855.0 424681.0 0
230362.0 424734.0 0
236911.0 424692.0 0
243455.0 424650.0 0
250000.0 424633.0 0
256545.0 424649.0 0
263088.0 424692.0 0
269638.0 424734.0 0
276145.0 424681.0 0
282591.0 424413.0 0
288559.0 424955.0 0
291833.0 423381.0 0
298220.0 424171.0 0
304727.0 424730.0 0
311238.0 425296.0 0
314598.0 423666.0 0
321216.0 424917.0 0
327869.0 425563.0 0
331288.0 424111.0 0
334431.0 426217.0 0
337823.0 424748.0 0
344383.0 425421.0 0
347786.0 424075.0 0
351000.0 426200.0 0
354409.0 424977.0 0
360952.0 426032.0 0
364283.0 424666.0 0
370734.0 425313.0 0
377105.0 425528.0 0
117294.0 429005.0 0
126170.0 427423.0 0
129537.0 429102.0 0
132588.0 426886.0 0
135940.0 428334.0 0
142403.0 427291.0 0
145801.0 428456.0 0
152446.0 427564.0 0
155887.0 428902.0 0
159032.0 426873.0 0
162437.0 428267.0 0
168975.0 427611.0 0
175598.0 426965.0 0
179101.0 428351.0 0
182324.0 426198.0 0
185715.0 427521.0 0
192118.0 426890.0 0
198691.0 426351.0 0
205156.0 425612.0 0
209555.0 428333.0 0
213448.0 428072.0 0
217155.0 428005.0 0
220546.0 426516.0 0
226997.0 426679.0 0
233580.0 426668.0 0
240149.0 426630.0 0
246716.0 426602.0 0
253284.0 426602.0 0
259851.0 426630.0 0
266420.0 426668.0 0
273003.0 426679.0 0
279454.0 426516.0 0
282845.0 428005.0 0
286552.0 428072.0 0
290445.0 428333.0 0
294844.0 425612.0 0
301309.0 426351.0 0
307882.0 426890.0 0
314285.0 427521.0 0
317676.0 426198.0 0
320899.0 428351.0 0
324402.0 426965.0 0
331025.0 427611.0 0
337563.0 428267.0 0
340968.0 426873.0 0
344113.0 428902.0 0
347554.0 427564.0 0
354199.0 428456.0 0
357597.0 427291.0 0
364060.0 428334.0 0
367412.0 426886.0 0
370463.0 429102.0 0
373830.0 427423.0 0
382706.0 429005.0 0
114113.0 430983.0 0
117304.0 432410.0 0
120559.0 428216.0 0
123606.0 430006.0 0
132925.0 430640.0 0
139293.0 429672.0 0
142669.0 430865.0 0
149264.0 429622.0 0
152760.0 431104.0 0
159337.0 430467.0 0
165866.0 429805.0 0
169275.0 431105.0 0
172423.0 429069.0 0
175864.0 430425.0 0
182550.0 429756.0 0
189052.0 429205.0 0
192428.0 430697.0 0
195483.0 428553.0 0
198763.0 430091.0 0
202122.0 428201.0 0
205818.0 429118.0 0
220069.0 430454.0 0
223587.0 428598.0 0
226807.0 430550.0 0
230214.0 428623.0 0
233464.0 430565.0 0
236820.0 428605.0 0
240078.0 430546.0 0
243409.0 428574.0 0
246692.0 430524.0 0
250000.0 428561.0 0
253308.0 430524.0 0
256591.0 428574.0 0
259922.0 430546.0 0
263180.0 428604.0 0
266536.0 430565.0 0
269786.0 428623.0 0
273193.0 430550.0 0
276413.0 428598.0 0
279931.0 430454.0 0
294182.0 429118.0 0
297878.0 428201.0 0
301237.0 430091.0 0
304517.0 428553.0 0
307572.0 430697.0 0
310948.0 429205.0 0
317450.0 429756.0 0
324136.0 430425.0 0
327577.0 429069.0 0
330725.0 431105.0 0
334134.0 429805.0 0
340663.0 430467.0 0
347240.0 431104.0 0
350736.0 429622.0 0
357331.0 430865.0 0
360707.0 429672.0 0
367075.0 430640.0 0
376394.0 430006.0 0
379441.0 428216.0 0
382696.0 432410.0 0
385887.0 430983.0 0
107646.0 435031.0 0
110891.0 432999.0 0
114082.0 434417.0 0
120672.0 432181.0 0
126769.0 431521.0 0
130047.0 432992.0 0
136290.0 432084.0 0
139651.0 433376.0 0
146092.0 431924.0 0
149594.0 432974.0 0
156196.0 432353.0 0
162762.0 431767.0 0
166267.0 433508.0 0
172724.0 432650.0 0
179273.0 431863.0 0
182634.0 433338.0 0
185938.0 431332.0 0
196621.0 433344.0 0
200525.0 433151.0 0
204210.0 432488.0 0
208103.0 432033.0 0
211872.0 431549.0 0
215712.0 431305.0 0
223335.0 432444.0 0
230087.0 432497.0 0
236721.0 432512.0 0
243361.0 432489.0 0
250000.0 432477.0 0
256639.0 432489.0 0
263279.0 432512.0 0
269913.0 432497.0 0
276665.0 432444.0 0
284288.0 431305.0 0
288128.0 431549.0 0
291897.0 432033.0 0
295790.0 432488.0 0
299475.0 433151.0 0
303379.0 433344.0 0
314062.0 431332.0 0
317366.0 433338.0 0
320727.0 431863.0 0
327276.0 432650.0 0
333733.0 433508.0 0
337238.0 431767.0 0
343804.0 432353.0 0
350406.0 432974.0 0
353908.0 431924.0 0
360349.0 433376.0 0
363710.0 432084.0 0
369953.0 432992.0 0
373231.0 431521.0 0
379328.0 432181.0 0
385918.0 434417.0 0
389109.0 432999.0 0
392354.0 435031.0 0
104383.0 437075.0 0
110862.0 436485.0 0
117362.0 435747.0 0
120791.0 436110.0 0
123830.0 433883.0 0
127096.0 435373.0 0
133387.0 434491.0 0
136770.0 435914.0 0
143032.0 434469.0 0
146427.0 435364.0 0
149823.0 436165.0 0
153073.0 434783.0 0
156498.0 435591.0 0
159708.0 434183.0 0
163153.0 435103.0 0
169671.0 434542.0 0
172957.0 436478.0 0
176017.0 433934.0 0
179399.0 435442.0 0
185824.0 435090.0 0
189269.0 433181.0 0
192910.0 434226.0 0
202760.0 436137.0 0
206536.0 435580.0 0
210367.0 435133.0 0
214204.0 434721.0 0
218403.0 434015.0 0
226708.0 434388.0 0
233339.0 434464.0 0
240004.0 434453.0 0
246668.0 434434.0 0
253332.0 434434.0 0
259996.0 434453.0 0
266661.0 434464.0 0
273292.0 434388.0 0
281597.0 434015.0 0
285796.0 434721.0 0
289633.0 435133.0 0
293464.0 435580.0 0
297240.0 436137.0 0
307090.0 434226.0 0
310731.0 433181.0 0
314176.0 435090.0 0
320601.0 435442.0 0
323983.0 433934.0 0
327043.0 436478.0 0
330329.0 434542.0 0
336847.0 435103.0 0
340292.0 434183.0 0
343502.0 435591.0 0
346927.0 434783.0 0
350177.0 436165.0 0
353573.0 435364.0 0
356968.0 434469.0 0
363230.0 435914.0 0
366613.0 434491.0 0
372904.0 435373.0 0
376170.0 433883.0 0
379209.0 436110.0 0
382638.0 435747.0 0
389138.0 436485.0 0
395617.0 437075.0 0
101105.0 439129.0 0
107625.0 438570.0 0
110930.0 439993.0 0
114146.0 437863.0 0
117495.0 439129.0 0
124015.0 437697.0 0
130426.0 436843.0 0
133836.0 438352.0 0
140224.0 437140.0 0
143751.0 438112.0 0
147342.0 438813.0 0
151136.0 439001.0 0
154604.0 438429.0 0
158519.0 438246.0 0
162070.0 438174.0 0
165897.0 437475.0 0
169497.0 437782.0 0
176405.0 437342.0 0
182430.0 436988.0 0
188186.0 437675.0 0
191608.0 437673.0 0
195274.0 437095.0 0
198924.0 436575.0 0
208788.0 438707.0 0
212610.0 438270.0 0
216417.0 437825.0 0
220065.0 437440.0 0
223419.0 436248.0 0
229933.0 436399.0 0
233213.0 438359.0 0
236622.0 436412.0 0
239934.0 438352.0 0
243313.0 436393.0 0
246645.0 438335.0 0
250000.0 436383.0 0
253355.0 438335.0 0
256687.0 436393.0 0
260066.0 438352.0 0
263378.0 436412.0 0
266787.0 438359.0 0
270067.0 436399.0 0
276581.0 436247.0 0
279935.0 437439.0 0
283583.0 437825.0 0
287390.0 438270.0 0
291212.0 438707.0 0
301076.0 436575.0 0
304726.0 437095.0 0
308392.0 437673.0 0
311814.0 437675.0 0
317570.0 436988.0 0
323595.0 437342.0 0
330503.0 437782.0 0
334103.0 437475.0 0
337930.0 438174.0 0
341481.0 438246.0 0
345396.0 438429.0 0
348864.0 439001.0 0
352658.0 438813.0 0
356249.0 438112.0 0
359776.0 437140.0 0
366164.0 438352.0 0
369574.0 436843.0 0
375985.0 437697.0 0
382505.0 439129.0 0
385854.0 437863.0 0
389070.0 439993.0 0
392375.0 438570.0 0
398895.0 439129.0 0
97826.0 441185.0 0
104371.0 440670.0 0
107692.0 442131.0 0
114284.0 441343.0 0
120896.0 439976.0 0
124162.0 441484.0 0
127300.0 439162.0 0
130593.0 440621.0 0
137412.0 439747.0 0
141174.0 440869.0 0
145071.0 441631.0 0
156680.0 441495.0 0
160439.0 441399.0 0
164258.0 441001.0 0
167947.0 440815.0 0
171955.0 440324.0 0
175691.0 440522.0 0
179494.0 439366.0 0
184860.0 439132.0 0
189682.0 441150.0 0
193551.0 440769.0 0
197349.0 440218.0 0
201146.0 439691.0 0
204981.0 439201.0 0
214951.0 441382.0 0
218910.0 441054.0 0
222813.0 440228.0 0
226512.0 438332.0 0
229773.0 440294.0 0
236533.0 440303.0 0
243270.0 440290.0 0
250000.0 440281.0 0
256730.0 440290.0 0
263467.0 440303.0 0
270227.0 440294.0 0
273488.0 438332.0 0
277187.0 440228.0 0
281090.0 441054.0 0
285049.0 441383.0 0
295019.0 439201.0 0
298854.0 439691.0 0
302651.0 440218.0 0
306449.0 440769.0 0
310318.0 441150.0 0
315140.0 439132.0 0
320506.0 439366.0 0
324309.0 440522.0 0
328045.0 440324.0 0
332053.0 440815.0 0
335742.0 441001.0 0
339561.0 441399.0 0
343320.0 441495.0 0
354929.0 441631.0 0
358826.0 440869.0 0
362588.0 439747.0 0
369407.0 440621.0 0
372700.0 439162.0 0
375838.0 441484.0 0
379104.0 439976.0 0
385716.0 441343.0 0
392308.0 442131.0 0
395629.0 440670.0 0
402174.0 441185.0 0
94557.3 443236.0 0
97902.2 444931.0 0
101122.0 442793.0 0
104461.0 444302.0 0
111056.0 443528.0 0
114441.0 444876.0 0
117661.0 442609.0 0
120992.0 443791.0 0
127458.0 442956.0 0
133810.0 442124.0 0
136976.0 443491.0 0
149039.0 441910.0 0
152963.0 441864.0 0
166301.0 444119.0 0
170147.0 443733.0 0
173920.0 443551.0 0
178291.0 442976.0 0
182140.0 442057.0 0
186013.0 442273.0 0
195690.0 443825.0 0
199536.0 443299.0 0
203376.0 442790.0 0
207223.0 442308.0 0
211069.0 441837.0 0
226218.0 442191.0 0
233111.0 442241.0 0
239875.0 442244.0 0
246625.0 442230.0 0
253375.0 442230.0 0
260125.0 442244.0 0
266889.0 442241.0 0
273782.0 442191.0 0
288931.0 441837.0 0
292777.0 442308.0 0
296624.0 442790.0 0
300464.0 443299.0 0
304310.0 443825.0 0
313987.0 442273.0 0
317860.0 442057.0 0
321709.0 442976.0 0
326080.0 443551.0 0
329853.0 443733.0 0
333699.0 444119.0 0
347037.0 441864.0 0
350961.0 441910.0 0
363024.0 443491.0 0
366190.0 442124.0 0
372542.0 442956.0 0
379008.0 443791.0 0
382339.0 442609.0 0
385559.0 444876.0 0
388944.0 443528.0 0
395539.0 444302.0 0
398878.0 442793.0 0
402098.0 444931.0 0
405443.0 443236.0 0
89184.8 446594.0 0
92897.8 446568.0 0
101279.0 446512.0 0
107832.0 445730.0 0
111213.0 447111.0 0
117806.0 446204.0 0
124258.0 445262.0 0
127492.0 446746.0 0
130750.0 444484.0 0
134124.0 446020.0 0
140221.0 444436.0 0
143616.0 444844.0 0
147236.0 444905.0 0
151064.0 444966.0 0
154913.0 444848.0 0
158677.0 444633.0 0
162513.0 444377.0 0
176282.0 446327.0 0
180205.0 445965.0 0
183996.0 445449.0 0
188037.0 445089.0 0
191815.0 444304.0 0
201755.0 446391.0 0
205616.0 445904.0 0
209475.0 445433.0 0
213333.0 444963.0 0
217204.0 444500.0 0
221548.0 444022.0 0
229659.0 444143.0 0
233041.0 446124.0 0
236463.0 444190.0 0
239829.0 446136.0 0
243234.0 444183.0 0
246609.0 446122.0 0
250000.0 444174.0 0
253391.0 446122.0 0
256766.0 444183.0 0
260171.0 446136.0 0
263537.0 444190.0 0
266959.0 446124.0 0
270341.0 444143.0 0
278452.0 444022.0 0
282796.0 444500.0 0
286667.0 444963.0 0
290525.0 445433.0 0
294384.0 445904.0 0
298245.0 446391.0 0
308185.0 444304.0 0
311963.0 445089.0 0
316004.0 445449.0 0
319795.0 445965.0 0
323718.0 446327.0 0
337487.0 444377.0 0
341323.0 444633.0 0
345087.0 444848.0 0
348936.0 444966.0 0
352764.0 444905.0 0
356384.0 444844.0 0
359779.0 444436.0 0
365876.0 446020.0 0
369250.0 444484.0 0
372508.0 446746.0 0
375742.0 445262.0 0
382194.0 446204.0 0
388787.0 447111.0 0
392168.0 445730.0 0
398721.0 446512.0 0
407102.0 446568.0 0
410815.0 446594.0 0
85861.1 448679.0 0
89311.3 450357.0 0
96305.7 448277.0 0
99782.8 449887.0 0
104665.0 447992.0 0
108037.0 449395.0 0
114578.0 448486.0 0
117900.0 449899.0 0
121096.0 447582.0 0
124360.0 449082.0 0
130649.0 448269.0 0
137734.0 447291.0 0
141546.0 447971.0 0
145372.0 448115.0 0
149169.0 448119.0 0
153016.0 448069.0 0
156862.0 447930.0 0
160704.0 447696.0 0
164553.0 447449.0 0
168423.0 447128.0 0
172288.0 446829.0 0
182312.0 448986.0 0
186205.0 448500.0 0
190154.0 448018.0 0
194002.0 447402.0 0
197886.0 446895.0 0
207870.0 449038.0 0
211735.0 448580.0 0
215575.0 448113.0 0
219368.0 447591.0 0
223008.0 448035.0 0
226260.0 446052.0 0
229634.0 448046.0 0
236417.0 448083.0 0
243205.0 448077.0 0
250000.0 448065.0 0
256795.0 448077.0 0
263583.0 448083.0 0
270366.0 448046.0 0
273740.0 446052.0 0
276992.0 448035.0 0
280632.0 447591.0 0
284425.0 448113.0 0
288265.0 448580.0 0
292129.0 449038.0 0
302114.0 446895.0 0
305998.0 447402.0 0
309846.0 448019.0 0
313795.0 448500.0 0
317688.0 448986.0 0
327712.0 446829.0 0
331577.0 447128.0 0
335447.0 447449.0 0
339296.0 447696.0 0
343138.0 447930.0 0
346984.0 448069.0 0
350831.0 448119.0 0
354628.0 448115.0 0
358454.0 447971.0 0
362266.0 447291.0 0
369350.0 448269.0 0
375640.0 449082.0 0
378904.0 447582.0 0
382100.0 449899.0 0
385422.0 448486.0 0
391963.0 449395.0 0
395335.0 447992.0 0
400217.0 449887.0 0
403694.0 448277.0 0
410689.0 450357.0 0
414139.0 448679.0 0
82533.2 450769.0 0
86051.8 452565.0 0
93105.7 450455.0 0
96615.9 452113.0 0
103318.0 451423.0 0
111375.0 450768.0 0
114675.0 452178.0 0
121198.0 451382.0 0
127615.0 450623.0 0
133693.0 449739.0 0
136761.0 450860.0 0
140032.0 451278.0 0
143573.0 451318.0 0
147305.0 451356.0 0
151112.0 451303.0 0
154967.0 451197.0 0
158842.0 451015.0 0
162720.0 450778.0 0
166618.0 450494.0 0
170524.0 450180.0 0
174469.0 449775.0 0
178386.0 449388.0 0
188394.0 451536.0 0
192332.0 451024.0 0
196220.0 450483.0 0
200113.0 449986.0 0
203996.0 449504.0 0
214051.0 451738.0 0
217963.0 451232.0 0
226256.0 450009.0 0
233016.0 450035.0 0
239794.0 450037.0 0
246596.0 450015.0 0
253405.0 450015.0 0
260207.0 450038.0 0
266984.0 450035.0 0
273744.0 450009.0 0
282037.0 451232.0 0
285949.0 451738.0 0
296004.0 449504.0 0
299887.0 449986.0 0
303780.0 450483.0 0
307668.0 451024.0 0
311606.0 451536.0 0
321614.0 449388.0 0
325531.0 449775.0 0
329476.0 450180.0 0
333382.0 450494.0 0
337280.0 450778.0 0
341158.0 451015.0 0
345033.0 451197.0 0
348888.0 451303.0 0
352695.0 451356.0 0
356427.0 451318.0 0
359968.0 451278.0 0
363239.0 450860.0 0
366307.0 449739.0 0
372385.0 450623.0 0
378802.0 451382.0 0
385325.0 452178.0 0
388625.0 450768.0 0
396682.0 451423.0 0
403384.0 452113.0 0
406894.0 450455.0 0
413948.0 452565.0 0
417467.0 450769.0 0
79687.4 453504.0 0
83253.2 455280.0 0
89631.0 454140.0 0
93441.2 454355.0 0
100161.0 453697.0 0
103757.0 455202.0 0
106919.0 452903.0 0
110566.0 454362.0 0
117968.0 453640.0 0
124513.0 452921.0 0
127902.0 454495.0 0
130869.0 452227.0 0
134199.0 453618.0 0
137767.0 454462.0 0
149145.0 454576.0 0
153019.0 454475.0 0
156918.0 454322.0 0
160828.0 454113.0 0
164747.0 453852.0 0
168678.0 453553.0 0
172624.0 453201.0 0
176563.0 452834.0 0
180506.0 452452.0 0
184454.0 452032.0 0
190602.0 454583.0 0
194546.0 454082.0 0
198458.0 453576.0 0
202360.0 453100.0 0
206255.0 452640.0 0
210150.0 452190.0 0
221892.0 451843.0 0
229636.0 451956.0 0
232974.0 453982.0 0
236382.0 451994.0 0
239768.0 453953.0 0
243182.0 451975.0 0
246584.0 453908.0 0
250000.0 451956.0 0
253416.0 453908.0 0
256818.0 451975.0 0
260232.0 453953.0 0
263618.0 451994.0 0
267026.0 453982.0 0
270364.0 451956.0 0
278108.0 451843.0 0
289850.0 452190.0 0
293745.0 452640.0 0
297640.0 453100.0 0
301542.0 453576.0 0
305454.0 454082.0 0
309398.0 454583.0 0
315546.0 452032.0 0
319494.0 452452.0 0
323437.0 452834.0 0
327376.0 453201.0 0
331322.0 453553.0 0
335253.0 453852.0 0
339172.0 454113.0 0
343082.0 454322.0 0
346981.0 454475.0 0
350855.0 454576.0 0
362233.0 454462.0 0
365801.0 453618.0 0
369131.0 452227.0 0
372098.0 454495.0 0
375487.0 452921.0 0
382032.0 453640.0 0
389434.0 454362.0 0
393081.0 452903.0 0
396243.0 455202.0 0
399839.0 453697.0 0
406559.0 454355.0 0
410369.0 454140.0 0
416747.0 455280.0 0
420313.0 453504.0 0
88061.6 457624.0 0
96977.1 455981.0 0
100586.0 457525.0 0
107381.0 456662.0 0
114225.0 455857.0 0
117855.0 457367.0 0
121291.0 455175.0 0
124710.0 456707.0 0
131402.0 456173.0 0
141518.0 454627.0 0
145302.0 454619.0 0
166778.0 456934.0 0
170734.0 456616.0 0
174689.0 456274.0 0
178648.0 455917.0 0
182617.0 455534.0 0
186638.0 455076.0 0
199949.0 457098.0 0
203815.0 456655.0 0
207684.0 456225.0 0
211548.0 455807.0 0
215398.0 455390.0 0
219217.0 454910.0 0
222947.0 455676.0 0
226238.0 453867.0 0
229534.0 455865.0 0
236348.0 455902.0 0
243162.0 455879.0 0
250000.0 455847.0 0
256838.0 455879.0 0
263653.0 455902.0 0
270466.0 455865.0 0
273762.0 453867.0 0
277053.0 455676.0 0
280783.0 454910.0 0
284602.0 455390.0 0
288452.0 455807.0 0
292316.0 456225.0 0
296185.0 456655.0 0
300051.0 457098.0 0
313362.0 455076.0 0
317383.0 455534.0 0
321352.0 455917.0 0
325311.0 456274.0 0
329266.0 456616.0 0
333222.0 456934.0 0
354698.0 454619.0 0
358482.0 454627.0 0
368598.0 456173.0 0
375290.0 456707.0 0
378709.0 455175.0 0
382145.0 457367.0 0
385775.0 455857.0 0
392619.0 456662.0 0
399414.0 457525.0 0
403023.0 455981.0 0
411938.0 457624.0 0
83143.2 459233.0 0
93741.3 458258.0 0
97408.2 459831.0 0
104208.0 459015.0 0
107830.0 460461.0 0
111017.0 458106.0 0
114652.0 459637.0 0
121413.0 458918.0 0
128227.0 458240.0 0
135095.0 457344.0 0
139242.0 457809.0 0
143180.0 457882.0 0
147096.0 457847.0 0
151018.0 457764.0 0
154948.0 457631.0 0
158885.0 457448.0 0
162827.0 457214.0 0
172773.0 459712.0 0
176723.0 459385.0 0
180650.0 459056.0 0
184540.0 458737.0 0
188401.0 458387.0 0
192247.0 457984.0 0
196093.0 457550.0 0
209933.0 459421.0 0
213824.0 459015.0 0
217722.0 458591.0 0
221567.0 459277.0 0
225497.0 458709.0 0
232869.0 457946.0 0
239747.0 457891.0 0
246574.0 457801.0 0
253427.0 457802.0 0
260253.0 457892.0 0
267131.0 457946.0 0
274502.0 458709.0 0
278433.0 459278.0 0
282278.0 458591.0 0
286176.0 459015.0 0
290067.0 459422.0 0
303907.0 457550.0 0
307753.0 457984.0 0
311599.0 458387.0 0
315459.0 458737.0 0
319350.0 459056.0 0
323277.0 459385.0 0
327227.0 459712.0 0
337172.0 457214.0 0
341115.0 457448.0 0
345052.0 457631.0 0
348982.0 457764.0 0
352904.0 457847.0 0
356820.0 457882.0 0
360758.0 457809.0 0
364905.0 457344.0 0
371773.0 458240.0 0
378587.0 458918.0 0
385348.0 459637.0 0
388983.0 458106.0 0
392170.0 460461.0 0
395792.0 459015.0 0
402592.0 459831.0 0
406259.0 458258.0 0
416857.0 459233.0 0
86582.2 461270.0 0
90564.6 460651.0 0
94226.4 462163.0 0
101063.0 461380.0 0
104697.0 462883.0 0
111460.0 461863.0 0
118230.0 461180.0 0
124928.0 460439.0 0
128404.0 461870.0 0
132123.0 460077.0 0
136739.0 460717.0 0
141025.0 461091.0 0
145004.0 461105.0 0
148974.0 461046.0 0
152940.0 460940.0 0
156905.0 460785.0 0
160869.0 460579.0 0
164841.0 460318.0 0
168809.0 460028.0 0
182681.0 462244.0 0
186594.0 461921.0 0
190496.0 461553.0 0
194387.0 461144.0 0
198271.0 460705.0 0
202157.0 460263.0 0
206046.0 459835.0 0
229327.0 459701.0 0
236311.0 459762.0 0
239564.0 461975.0 0
243141.0 459783.0 0
246567.0 461689.0 0
250000.0 459735.0 0
253434.0 461690.0 0
256859.0 459783.0 0
260436.0 461975.0 0
263689.0 459763.0 0
270673.0 459701.0 0
293954.0 459835.0 0
297843.0 460263.0 0
301728.0 460705.0 0
305613.0 461144.0 0
309504.0 461553.0 0
313406.0 461921.0 0
317319.0 462244.0 0
331191.0 460028.0 0
335159.0 460318.0 0
339131.0 460579.0 0
343095.0 460785.0 0
347060.0 460940.0 0
351026.0 461046.0 0
354996.0 461105.0 0
358975.0 461091.0 0
363261.0 460717.0 0
367877.0 460077.0 0
371596.0 461870.0 0
375072.0 460439.0 0
381770.0 461180.0 0
388540.0 461863.0 0
395303.0 462883.0 0
398937.0 461380.0 0
405774.0 462163.0 0
409435.0 460651.0 0
413418.0 461270.0 0
91060.1 464586.0 0
97901.9 463722.0 0
108301.0 464313.0 0
115100.0 463500.0 0
118691.0 465034.0 0
121796.0 462730.0 0
125353.0 464262.0 0
130881.0 464367.0 0
134630.0 463904.0 0
138563.0 464055.0 0
142901.0 464352.0 0
146908.0 464320.0 0
150904.0 464244.0 0
154896.0 464119.0 0
158881.0 463951.0 0
162885.0 463703.0 0
166867.0 463442.0 0
170848.0 463144.0 0
174812.0 462847.0 0
178757.0 462546.0 0
192638.0 464721.0 0
196561.0 464308.0 0
200469.0 463868.0 0
204383.0 463439.0 0
208286.0 463035.0 0
212189.0 462630.0 0
216099.0 462233.0 0
219953.0 462837.0 0
223886.0 462453.0 0
227724.0 463213.0 0
231683.0 462850.0 0
235562.0 463502.0 0
243122.0 463664.0 0
250000.0 463619.0 0
256878.0 463665.0 0
264437.0 463503.0 0
268316.0 462851.0 0
272275.0 463214.0 0
276113.0 462454.0 0
280047.0 462838.0 0
283900.0 462233.0 0
287811.0 462630.0 0
291714.0 463035.0 0
295616.0 463439.0 0
299531.0 463868.0 0
303439.0 464308.0 0
307362.0 464721.0 0
321243.0 462546.0 0
325188.0 462847.0 0
329152.0 463144.0 0
333133.0 463442.0 0
337115.0 463703.0 0
341119.0 463951.0 0
345104.0 464119.0 0
349096.0 464244.0 0
353092.0 464320.0 0
357099.0 464352.0 0
361437.0 464055.0 0
365370.0 463904.0 0
369119.0 464367.0 0
374647.0 464262.0 0
378204.0 462730.0 0
381309.0 465034.0 0
384900.0 463500.0 0
391699.0 464313.0 0
402098.0 463722.0 0
408940.0 464586.0 0
94747.5 466065.0 0
101570.0 465275.0 0
105243.0 466783.0 0
111889.0 465571.0 0
122269.0 466583.0 0
127966.0 467001.0 0
136451.0 467346.0 0
140434.0 467349.0 0
152866.0 467451.0 0
156856.0 467325.0 0
160925.0 467088.0 0
164910.0 466859.0 0
168924.0 466569.0 0
172898.0 466295.0 0
176861.0 466020.0 0
180813.0 465740.0 0
184759.0 465439.0 0
188702.0 465100.0 0
202696.0 467029.0 0
206619.0 466651.0 0
210532.0 466252.0 0
214440.0 465855.0 0
218312.0 466425.0 0
222219.0 466073.0 0
226071.0 466751.0 0
229984.0 466439.0 0
233870.0 467014.0 0
237837.0 466661.0 0
241735.0 467295.0 0
246544.0 465570.0 0
253456.0 465572.0 0
258264.0 467296.0 0
262163.0 466662.0 0
266129.0 467015.0 0
270015.0 466440.0 0
273928.0 466751.0 0
277780.0 466074.0 0
281688.0 466425.0 0
285559.0 465855.0 0
289468.0 466253.0 0
293381.0 466651.0 0
297304.0 467029.0 0
311298.0 465100.0 0
315241.0 465439.0 0
319187.0 465740.0 0
323139.0 466020.0 0
327102.0 466295.0 0
331076.0 466569.0 0
335090.0 466859.0 0
339075.0 467088.0 0
343144.0 467325.0 0
347134.0 467451.0 0
359566.0 467349.0 0
363549.0 467346.0 0
372034.0 467001.0 0
377731.0 466583.0 0
388111.0 465571.0 0
394757.0 466783.0 0
398430.0 465275.0 0
405253.0 466065.0 0
95201.9 469975.0 0
98422.2 467647.0 0
102143.0 469214.0 0
108941.0 468214.0 0
112828.0 469079.0 0
116643.0 468259.0 0
120289.0 469887.0 0
124858.0 469488.0 0
132540.0 467617.0 0
144825.0 467592.0 0
148844.0 467543.0 0
167004.0 469988.0 0
170980.0 469739.0 0
174950.0 469483.0 0
178917.0 469222.0 0
182891.0 468947.0 0
186874.0 468632.0 0
190854.0 468280.0 0
194824.0 467894.0 0
198774.0 467484.0 0
215887.0 469550.0 0
223612.0 469807.0 0
246596.0 469429.0 0
249999.0 467485.0 0
253400.0 469434.0 0
276387.0 469807.0 0
284113.0 469550.0 0
301225.0 467484.0 0
305176.0 467894.0 0
309145.0 468280.0 0
313126.0 468632.0 0
317109.0 468947.0 0
321083.0 469222.0 0
325050.0 469483.0 0
329019.0 469739.0 0
332996.0 469988.0 0
351156.0 467543.0 0
355175.0 467592.0 0
367460.0 467617.0 0
375142.0 469488.0 0
379711.0 469887.0 0
383357.0 468259.0 0
387172.0 469079.0 0
391059.0 468214.0 0
397857.0 469214.0 0
401578.0 467647.0 0
404798.0 469975.0 0
98970.3 471593.0 0
105018.0 472017.0 0
109249.0 472170.0 0
113209.0 472723.0 0
117118.0 472130.0 0
129754.0 470353.0 0
134480.0 470800.0 0
138406.0 470678.0 0
142383.0 470627.0 0
146754.0 470835.0 0
150807.0 470773.0 0
154808.0 470699.0 0
158945.0 470466.0 0
162934.0 470280.0 0
180929.0 472464.0 0
184851.0 472233.0 0
188751.0 471984.0 0
192638.0 471700.0 0
196519.0 471379.0 0
200398.0 471032.0 0
204275.0 470570.0 0
208174.0 470260.0 0
212025.0 469894.0 0
219733.0 470137.0 0
227486.0 470447.0 0
231409.0 470123.0 0
235296.0 470679.0 0
239207.0 470350.0 0
243064.0 470992.0 0
249997.0 471392.0 0
256935.0 470992.0 0
260791.0 470352.0 0
264703.0 470680.0 0
268589.0 470124.0 0
272513.0 470447.0 0
280266.0 470137.0 0
287975.0 469894.0 0
291826.0 470260.0 0
295725.0 470570.0 0
299601.0 471032.0 0
303481.0 471379.0 0
307362.0 471700.0 0
311249.0 471984.0 0
315149.0 472233.0 0
319071.0 472464.0 0
337066.0 470280.0 0
341055.0 470466.0 0
345192.0 470699.0 0
349193.0 470773.0 0
353246.0 470835.0 0
357617.0 470627.0 0
361594.0 470678.0 0
365520.0 470800.0 0
370246.0 470353.0 0
382882.0 472130.0 0
386791.0 472723.0 0
390751.0 472170.0 0
394982.0 472017.0 0
401030.0 471593.0 0
95715.5 473895.0 0
101876.0 474502.0 0
119582.0 475256.0 0
122807.0 472912.0 0
126787.0 472888.0 0
131739.0 473615.0 0
136381.0 474079.0 0
140352.0 473983.0 0
144339.0 473916.0 0
148694.0 474081.0 0
152721.0 474053.0 0
156950.0 473846.0 0
160938.0 473700.0 0
165080.0 473402.0 0
169058.0 473182.0 0
173027.0 472947.0 0
176985.0 472705.0 0
194754.0 474960.0 0
198670.0 474638.0 0
202570.0 474293.0 0
206444.0 473815.0 0
210362.0 473800.0 0
214233.0 473168.0 0
218105.0 473759.0 0
221989.0 473413.0 0
225851.0 474080.0 0
229739.0 473700.0 0
233625.0 474283.0 0
237541.0 473929.0 0
241448.0 474536.0 0
246265.0 473336.0 0
253737.0 473342.0 0
258550.0 474537.0 0
262457.0 473931.0 0
266374.0 474283.0 0
270260.0 473701.0 0
274149.0 474079.0 0
278011.0 473413.0 0
281895.0 473759.0 0
285767.0 473168.0 0
289638.0 473800.0 0
293556.0 473815.0 0
297430.0 474293.0 0
301330.0 474638.0 0
305246.0 474960.0 0
323015.0 472705.0 0
326973.0 472947.0 0
330942.0 473182.0 0
334920.0 473402.0 0
339062.0 473700.0 0
343050.0 473846.0 0
347279.0 474053.0 0
351306.0 474081.0 0
355661.0 473916.0 0
359648.0 473983.0 0
363619.0 474079.0 0
368261.0 473615.0 0
373213.0 472888.0 0
377193.0 472912.0 0
380418.0 475256.0 0
398124.0 474502.0 0
404285.0 473895.0 0
96609.6 477765.0 0
107007.0 475468.0 0
110952.0 475782.0 0
115613.0 475708.0 0
124844.0 476291.0 0
128816.0 476262.0 0
133662.0 476939.0 0
138322.0 477370.0 0
142310.0 477287.0 0
146307.0 477219.0 0
150578.0 477372.0 0
154890.0 477201.0 0
158930.0 477119.0 0
163151.0 476812.0 0
167134.0 476623.0 0
171110.0 476411.0 0
175075.0 476189.0 0
179026.0 475963.0 0
182965.0 475739.0 0
186899.0 475512.0 0
190829.0 475256.0 0
208175.0 477314.0 0
215684.0 476870.0 0
223345.0 477145.0 0
231145.0 477387.0 0
238942.0 477610.0 0
246577.0 477232.0 0
249999.0 475237.0 0
253417.0 477240.0 0
261055.0 477611.0 0
268853.0 477387.0 0
276654.0 477144.0 0
284316.0 476870.0 0
291825.0 477314.0 0
309171.0 475256.0 0
313101.0 475512.0 0
317035.0 475739.0 0
320974.0 475963.0 0
324925.0 476189.0 0
328890.0 476411.0 0
332866.0 476623.0 0
336849.0 476812.0 0
341070.0 477119.0 0
345110.0 477201.0 0
349422.0 477372.0 0
353693.0 477219.0 0
357690.0 477287.0 0
361678.0 477370.0 0
366338.0 476939.0 0
371184.0 476262.0 0
375156.0 476291.0 0
384387.0 475708.0 0
389048.0 475782.0 0
392993.0 475468.0 0
403390.0 477765.0 0
100556.0 478341.0 0
104534.0 478561.0 0
109022.0 479116.0 0
113390.0 478930.0 0
117798.0 478872.0 0
121717.0 478637.0 0
126816.0 479698.0 0
130797.0 479664.0 0
135630.0 480266.0 0
156854.0 480496.0 0
161209.0 480219.0 0
165206.0 480062.0 0
169195.0 479871.0 0
173172.0 479669.0 0
177135.0 479460.0 0
181084.0 479248.0 0
185021.0 479032.0 0
188942.0 478816.0 0
192838.0 478592.0 0
196712.0 478343.0 0
200563.0 478086.0 0
204368.0 477797.0 0
211941.0 477775.0 0
219469.0 477762.0 0
227220.0 477838.0 0
235028.0 478018.0 0
242809.0 478234.0 0
249994.0 479132.0 0
257187.0 478235.0 0
264970.0 478017.0 0
272779.0 477836.0 0
280530.0 477761.0 0
288059.0 477775.0 0
295631.0 477797.0 0
299437.0 478086.0 0
303288.0 478343.0 0
307162.0 478592.0 0
311058.0 478816.0 0
314979.0 479032.0 0
318916.0 479248.0 0
322865.0 479460.0 0
326828.0 479669.0 0
330805.0 479871.0 0
334794.0 480062.0 0
338791.0 480219.0 0
343146.0 480496.0 0
364370.0 480266.0 0
369203.0 479664.0 0
373184.0 479698.0 0
378283.0 478637.0 0
382202.0 478872.0 0
386610.0 478930.0 0
390978.0 479116.0 0
395466.0 478561.0 0
399444.0 478341.0 0
99301.8 482137.0 0
103379.0 482364.0 0
107356.0 482622.0 0
111546.0 482403.0 0
115693.0 482217.0 0
119918.0 482186.0 0
123879.0 482361.0 0
140268.0 480675.0 0
144260.0 480606.0 0
148249.0 480563.0 0
152735.0 480516.0 0
175254.0 482953.0 0
179220.0 482756.0 0
183171.0 482552.0 0
187108.0 482345.0 0
191034.0 482140.0 0
194953.0 481908.0 0
198867.0 481659.0 0
202801.0 481731.0 0
206670.0 480993.0 0
210517.0 481784.0 0
214351.0 480874.0 0
218142.0 481803.0 0
221940.0 480858.0 0
225761.0 481672.0 0
229611.0 481027.0 0
233478.0 481694.0 0
237391.0 481241.0 0
241307.0 481878.0 0
245577.0 481074.0 0
254422.0 481081.0 0
258694.0 481877.0 0
262610.0 481241.0 0
266523.0 481693.0 0
270390.0 481026.0 0
274240.0 481672.0 0
278061.0 480857.0 0
281859.0 481803.0 0
285650.0 480874.0 0
289483.0 481783.0 0
293330.0 480993.0 0
297199.0 481731.0 0
301133.0 481659.0 0
305047.0 481908.0 0
308965.0 482140.0 0
312892.0 482345.0 0
316829.0 482552.0 0
320780.0 482756.0 0
324746.0 482953.0 0
347265.0 480516.0 0
351751.0 480563.0 0
355740.0 480606.0 0
359732.0 480675.0 0
376121.0 482361.0 0
380082.0 482186.0 0
384307.0 482217.0 0
388454.0 482403.0 0
392644.0 482622.0 0
396621.0 482364.0 0
400698.0 482137.0 0
128813.0 483107.0 0
132811.0 483055.0 0
137608.0 483615.0 0
142206.0 484001.0 0
146197.0 483954.0 0
150448.0 483762.0 0
154676.0 483809.0 0
159165.0 483586.0 0
163258.0 483489.0 0
167285.0 483326.0 0
171275.0 483144.0 0
199826.0 485489.0 0
207660.0 484835.0 0
215410.0 484715.0 0
223134.0 484665.0 0
230941.0 484778.0 0
238780.0 484967.0 0
246551.0 484909.0 0
250003.0 482953.0 0
253446.0 484918.0 0
261222.0 484967.0 0
269060.0 484778.0 0
276867.0 484664.0 0
284591.0 484715.0 0
292340.0 484835.0 0
300174.0 485489.0 0
328725.0 483144.0 0
332715.0 483326.0 0
336742.0 483489.0 0
340835.0 483586.0 0
345324.0 483809.0 0
349552.0 483762.0 0
353803.0 483954.0 0
357794.0 484001.0 0
362392.0 483615.0 0
367189.0 483055.0 0
371187.0 483107.0 0
101170.0 485673.0 0
105213.0 485918.0 0
109653.0 485873.0 0
113797.0 485706.0 0
117873.0 485576.0 0
121887.0 485826.0 0
125882.0 485806.0 0
130839.0 486505.0 0
134835.0 486464.0 0
139588.0 486994.0 0
144132.0 487355.0 0
148376.0 487163.0 0
152367.0 487155.0 0
156346.0 487255.0 0
160284.0 487266.0 0
164221.0 487211.0 0
168163.0 487086.0 0
172115.0 486929.0 0
176073.0 486759.0 0
180032.0 486579.0 0
183992.0 486384.0 0
187954.0 486178.0 0
191916.0 485977.0 0
195865.0 485740.0 0
203772.0 485597.0 0
211541.0 485623.0 0
219286.0 485607.0 0
227030.0 485453.0 0
234853.0 485430.0 0
242684.0 485591.0 0
249993.0 486821.0 0
257317.0 485591.0 0
265149.0 485430.0 0
272972.0 485454.0 0
280715.0 485607.0 0
288460.0 485623.0 0
296228.0 485597.0 0
304135.0 485740.0 0
308084.0 485977.0 0
312046.0 486178.0 0
316008.0 486384.0 0
319968.0 486579.0 0
323927.0 486759.0 0
327885.0 486929.0 0
331837.0 487086.0 0
335779.0 487211.0 0
339716.0 487266.0 0
343654.0 487255.0 0
347633.0 487155.0 0
351624.0 487163.0 0
355868.0 487355.0 0
360412.0 486994.0 0
365165.0 486464.0 0
369161.0 486505.0 0
374118.0 485806.0 0
378113.0 485826.0 0
382127.0 485576.0 0
386203.0 485706.0 0
390347.0 485873.0 0
394787.0 485918.0 0
398830.0 485673.0 0
100387.0 489587.0 0
104375.0 489779.0 0
108450.0 489655.0 0
112619.0 489511.0 0
116685.0 489372.0 0
120677.0 489638.0 0
124672.0 489612.0 0
128658.0 489836.0 0
132851.0 489925.0 0
136850.0 489892.0 0
141567.0 490405.0 0
146305.0 490572.0 0
150282.0 490563.0 0
154243.0 490605.0 0
158229.0 490659.0 0
162220.0 490635.0 0
166214.0 490545.0 0
170202.0 490409.0 0
174186.0 490253.0 0
178167.0 490087.0 0
182147.0 489911.0 0
186123.0 489712.0 0
190097.0 489508.0 0
194077.0 489317.0 0
198044.0 489042.0 0
202015.0 489264.0 0
205981.0 488903.0 0
209938.0 489280.0 0
213893.0 488819.0 0
217832.0 489302.0 0
221790.0 488828.0 0
225756.0 489232.0 0
229729.0 488851.0 0
233700.0 489242.0 0
237674.0 488842.0 0
241623.0 489402.0 0
246000.0 488866.0 0
250117.0 490643.0 0
254000.0 488868.0 0
258378.0 489402.0 0
262326.0 488842.0 0
266300.0 489242.0 0
270271.0 488851.0 0
274244.0 489233.0 0
278210.0 488828.0 0
282168.0 489302.0 0
286107.0 488819.0 0
290062.0 489280.0 0
294019.0 488902.0 0
297985.0 489264.0 0
301956.0 489042.0 0
305923.0 489317.0 0
309903.0 489508.0 0
313877.0 489712.0 0
317853.0 489911.0 0
321833.0 490087.0 0
325814.0 490253.0 0
329797.0 490409.0 0
333786.0 490545.0 0
337780.0 490635.0 0
341771.0 490659.0 0
345757.0 490605.0 0
349718.0 490563.0 0
353695.0 490572.0 0
358433.0 490405.0 0
363150.0 489892.0 0
367149.0 489925.0 0
371342.0 489836.0 0
375328.0 489612.0 0
379323.0 489638.0 0
383315.0 489372.0 0
387381.0 489511.0 0
391550.0 489655.0 0
395625.0 489779.0 0
399613.0 489587.0 0
191212.0 493309.0 0
199028.0 492883.0 0
206834.0 492795.0 0
214665.0 492729.0 0
222515.0 492761.0 0
230414.0 492797.0 0
238347.0 492834.0 0
246267.0 492854.0 0
253719.0 492860.0 0
261652.0 492834.0 0
269586.0 492797.0 0
277485.0 492761.0 0
285335.0 492729.0 0
293166.0 492795.0 0
300972.0 492883.0 0
308788.0 493309.0 0
102251.0 493134.0 0
106386.0 493211.0 0
110377.0 493149.0 0
114367.0 493106.0 0
118361.0 493049.0 0
122409.0 493244.0 0
126409.0 493226.0 0
130589.0 493333.0 0
134778.0 493406.0 0
138774.0 493387.0 0
143445.0 493903.0 0
147629.0 494245.0 0
151618.0 494251.0 0
155610.0 494270.0 0
159596.0 494299.0 0
163568.0 494279.0 0
167534.0 494205.0 0
171495.0 494093.0 0
175456.0 493960.0 0
179414.0 493820.0 0
183365.0 493675.0 0
187295.0 493497.0 0
195122.0 493219.0 0
202932.0 493240.0 0
210749.0 493193.0 0
218587.0 493209.0 0
226459.0 493162.0 0
234376.0 493172.0 0
242311.0 493305.0 0
249902.0 494477.0 0
257686.0 493305.0 0
265623.0 493173.0 0
273541.0 493163.0 0
281413.0 493209.0 0
289251.0 493193.0 0
297068.0 493240.0 0
304878.0 493219.0 0
312705.0 493497.0 0
316635.0 493675.0 0
320586.0 493820.0 0
324544.0 493960.0 0
328505.0 494093.0 0
332466.0 494205.0 0
336432.0 494279.0 0
340404.0 494299.0 0
344390.0 494270.0 0
348382.0 494251.0 0
352371.0 494245.0 0
356555.0 493903.0 0
361226.0 493387.0 0
365222.0 493406.0 0
369411.0 493333.0 0
373591.0 493226.0 0
377591.0 493244.0 0
381639.0 493049.0 0
385633.0 493106.0 0
389623.0 493149.0 0
393614.0 493211.0 0
397749.0 493134.0 0
101559.0 497076.0 0
105555.0 497110.0 0
109552.0 497058.0 0
113547.0 497037.0 0
117538.0 497016.0 0
121524.0 497147.0 0
125509.0 497155.0 0
129490.0 497178.0 0
133470.0 497174.0 0
137453.0 497160.0 0
141429.0 497349.0 0
145407.0 497541.0 0
149566.0 497675.0 0
153558.0 497684.0 0
157550.0 497703.0 0
161554.0 497707.0 0
165560.0 497658.0 0
169557.0 497570.0 0
173545.0 497450.0 0
177528.0 497325.0 0
181514.0 497187.0 0
185666.0 497131.0 0
189704.0 496994.0 0
193927.0 497036.0 0
197934.0 496853.0 0
201925.0 497102.0 0
205949.0 496857.0 0
209940.0 497097.0 0
213955.0 496861.0 0
217943.0 497133.0 0
221970.0 496864.0 0
225961.0 497119.0 0
229974.0 496866.0 0
233964.0 497138.0 0
237955.0 496866.0 0
241935.0 497254.0 0
246000.0 496868.0 0
250063.0 498318.0 0
254000.0 496868.0 0
258065.0 497254.0 0
262045.0 496866.0 0
266036.0 497139.0 0
270026.0 496866.0 0
274039.0 497119.0 0
278030.0 496864.0 0
282057.0 497133.0 0
286045.0 496861.0 0
290060.0 497097.0 0
294051.0 496857.0 0
298075.0 497102.0 0
302066.0 496853.0 0
306073.0 497036.0 0
310296.0 496994.0 0
314334.0 497131.0 0
318486.0 497187.0 0
322472.0 497325.0 0
326455.0 497450.0 0
330443.0 497570.0 0
334440.0 497658.0 0
338446.0 497707.0 0
342450.0 497703.0 0
346442.0 497684.0 0
350434.0 497675.0 0
354593.0 497541.0 0
358571.0 497349.0 0
362547.0 497160.0 0
366530.0 497174.0 0
370510.0 497178.0 0
374491.0 497155.0 0
378476.0 497147.0 0
382462.0 497016.0 0
386453.0 497037.0 0
390448.0 497058.0 0
394445.0 497110.0 0
398441.0 497076.0 0
102029.0 501048.0 0
106038.0 501069.0 0
110037.0 501024.0 0
114035.0 501011.0 0
118035.0 501003.0 0
122051.0 501111.0 0
126051.0 501118.0 0
130067.0 501134.0 0
134074.0 501118.0 0
138074.0 501130.0 0
142190.0 501269.0 0
146434.0 501390.0 0
150656.0 501478.0 0
154654.0 501481.0 0
158649.0 501490.0 0
162635.0 501491.0 0
166609.0 501447.0 0
170569.0 501375.0 0
174517.0 501269.0 0
178458.0 501169.0 0
182397.0 501048.0 0
186338.0 501064.0 0
190285.0 500939.0 0
194241.0 501023.0 0
198203.0 500844.0 0
202168.0 501086.0 0
206139.0 500852.0 0
210115.0 501082.0 0
214095.0 500858.0 0
218077.0 501111.0 0
222060.0 500863.0 0
226046.0 501106.0 0
230034.0 500866.0 0
234022.0 501125.0 0
238012.0 500867.0 0
242023.0 501222.0 0
246006.0 500867.0 0
249976.0 502175.0 0
253994.0 500867.0 0
257977.0 501223.0 0
261988.0 500867.0 0
265978.0 501125.0 0
269966.0 500866.0 0
273954.0 501106.0 0
277940.0 500863.0 0
281923.0 501111.0 0
285905.0 500858.0 0
289885.0 501082.0 0
293861.0 500852.0 0
297832.0 501086.0 0
301797.0 500844.0 0
305759.0 501023.0 0
309715.0 500939.0 0
313662.0 501064.0 0
317603.0 501048.0 0
321542.0 501169.0 0
325483.0 501269.0 0
329431.0 501375.0 0
333391.0 501447.0 0
337365.0 501491.0 0
341351.0 501490.0 0
345346.0 501481.0 0
349344.0 501478.0 0
353566.0 501390.0 0
357810.0 501269.0 0
361926.0 501130.0 0
365926.0 501118.0 0
369933.0 501134.0 0
373949.0 501118.0 0
377949.0 501111.0 0
381965.0 501003.0 0
385965.0 501011.0 0
389963.0 501024.0 0
393962.0 501069.0 0
397971.0 501048.0 0
101959.0 505046.0 0
105958.0 505057.0 0
109956.0 505019.0 0
113953.0 505010.0 0
117949.0 505001.0 0
121942.0 505108.0 0
125934.0 505116.0 0
129925.0 505129.0 0
133912.0 505106.0 0
137898.0 505126.0 0
141877.0 505249.0 0
145855.0 505333.0 0
149830.0 505357.0 0
153808.0 505353.0 0
157788.0 505351.0 0
161772.0 505345.0 0
165762.0 505301.0 0
169758.0 505243.0 0
173814.0 505161.0 0
177905.0 505096.0 0
181940.0 504995.0 0
185969.0 505035.0 0
189981.0 504917.0 0
193989.0 505012.0 0
197996.0 504867.0 0
201991.0 505071.0 0
205998.0 504868.0 0
209993.0 505067.0 0
214000.0 504868.0 0
217994.0 505093.0 0
222000.0 504868.0 0
225997.0 505093.0 0
230000.0 504868.0 0
233998.0 505111.0 0
238000.0 504868.0 0
241992.0 505194.0 0
246000.0 504868.0 0
250007.0 506044.0 0
254000.0 504868.0 0
258008.0 505194.0 0
262000.0 504868.0 0
266002.0 505111.0 0
270000.0 504868.0 0
274003.0 505093.0 0
278000.0 504868.0 0
282006.0 505093.0 0
286000.0 504868.0 0
290007.0 505067.0 0
294002.0 504868.0 0
298009.0 505071.0 0
302004.0 504867.0 0
306011.0 505012.0 0
310019.0 504917.0 0
314031.0 505035.0 0
318060.0 504995.0 0
322095.0 505096.0 0
326186.0 505161.0 0
330242.0 505243.0 0
334238.0 505301.0 0
338228.0 505345.0 0
342212.0 505351.0 0
346192.0 505353.0 0
350170.0 505357.0 0
354145.0 505333.0 0
358123.0 505249.0 0
362102.0 505126.0 0
366088.0 505106.0 0
370075.0 505129.0 0
374066.0 505116.0 0
378058.0 505108.0 0
382051.0 505001.0 0
386047.0 505010.0 0
390044.0 505019.0 0
394042.0 505057.0 0
398041.0 505046.0 0
102002.0 509044.0 0
106002.0 509047.0 0
110002.0 509014.0 0
114002.0 509008.0 0
118002.0 509000.0 0
122005.0 509104.0 0
126005.0 509113.0 0
130006.0 509124.0 0
134006.0 509095.0 0
138006.0 509124.0 0
142024.0 509238.0 0
146043.0 509312.0 0
150056.0 509319.0 0
154059.0 509312.0 0
158059.0 509302.0 0
162058.0 509290.0 0
166056.0 509242.0 0
170051.0 509191.0 0
174045.0 509116.0 0
178039.0 509066.0 0
182032.0 508973.0 0
186027.0 509024.0 0
190022.0 508908.0 0
194018.0 509008.0 0
198014.0 508867.0 0
202008.0 509061.0 0
206003.0 508868.0 0
210000.0 509056.0 0
214000.0 508868.0 0
218000.0 509078.0 0
222000.0 508868.0 0
226000.0 509081.0 0
230000.0 508868.0 0
234000.0 509098.0 0
238000.0 508868.0 0
242002.0 509168.0 0
246000.0 508868.0 0
249998.0 509923.0 0
254000.0 508868.0 0
257998.0 509169.0 0
262000.0 508868.0 0
266000.0 509098.0 0
270000.0 508868.0 0
274000.0 509081.0 0
278000.0 508868.0 0
282000.0 509078.0 0
286000.0 508868.0 0
290000.0 509055.0 0
293997.0 508868.0 0
297992.0 509061.0 0
301986.0 508867.0 0
305982.0 509008.0 0
309978.0 508908.0 0
313973.0 509024.0 0
317968.0 508973.0 0
321961.0 509066.0 0
325955.0 509116.0 0
329949.0 509191.0 0
333944.0 509242.0 0
337942.0 509290.0 0
341941.0 509302.0 0
345941.0 509312.0 0
349944.0 509319.0 0
353957.0 509312.0 0
357976.0 509238.0 0
361994.0 509124.0 0
365994.0 509095.0 0
369994.0 509124.0 0
373995.0 509113.0 0
377995.0 509104.0 0
381998.0 509000.0 0
385998.0 509008.0 0
389998.0 509014.0 0
393998.0 509047.0 0
397998.0 509044.0 0
101998.0 513042.0 0
105998.0 513038.0 0
109998.0 513010.0 0
113998.0 513007.0 0
117998.0 512999.0 0
121996.0 513099.0 0
125995.0 513110.0 0
129995.0 513119.0 0
133994.0 513087.0 0
137993.0 513122.0 0
141990.0 513228.0 0
145988.0 513294.0 0
149987.0 513290.0 0
153986.0 513281.0 0
157985.0 513265.0 0
161984.0 513248.0 0
165983.0 513198.0 0
169988.0 513153.0 0
173991.0 513082.0 0
177995.0 513043.0 0
181997.0 512958.0 0
185998.0 513013.0 0
189999.0 512899.0 0
194000.0 513004.0 0
198000.0 512868.0 0
202000.0 513051.0 0
206000.0 512868.0 0
210000.0 513045.0 0
214000.0 512868.0 0
218000.0 513064.0 0
222000.0 512868.0 0
226000.0 513069.0 0
230000.0 512868.0 0
234000.0 513084.0 0
238000.0 512868.0 0
242000.0 513145.0 0
246000.0 512868.0 0
250000.0 513812.0 0
254000.0 512868.0 0
258000.0 513145.0 0
262000.0 512868.0 0
266000.0 513084.0 0
270000.0 512868.0 0
274000.0 513069.0 0
278000.0 512868.0 0
282000.0 513064.0 0
286000.0 512868.0 0
290000.0 513045.0 0
294000.0 512868.0 0
298000.0 513051.0 0
302000.0 512868.0 0
306000.0 513004.0 0
310001.0 512899.0 0
314002.0 513013.0 0
318003.0 512958.0 0
322005.0 513043.0 0
326009.0 513082.0 0
330012.0 513153.0 0
334017.0 513198.0 0
338016.0 513248.0 0
342015.0 513265.0 0
346014.0 513281.0 0
350013.0 513290.0 0
354012.0 513294.0 0
358010.0 513228.0 0
362007.0 513122.0 0
366006.0 513087.0 0
370005.0 513119.0 0
374005.0 513110.0 0
378004.0 513099.0 0
382002.0 512999.0 0
386002.0 513007.0 0
390002.0 513010.0 0
394002.0 513038.0 0
398002.0 513042.0 0
102000.0 517039.0 0
106000.0 517030.0 0
110000.0 517005.0 0
114000.0 517005.0 0
118000.0 516997.0 0
122000.0 517094.0 0
126000.0 517107.0 0
130000.0 517113.0 0
134000.0 517079.0 0
138000.0 517121.0 0
142003.0 517217.0 0
146004.0 517276.0 0
150004.0 517263.0 0
154004.0 517253.0 0
158004.0 517232.0 0
162004.0 517212.0 0
166004.0 517160.0 0
170003.0 517121.0 0
174002.0 517054.0 0
178002.0 517024.0 0
182001.0 516946.0 0
186001.0 517003.0 0
190000.0 516892.0 0
194000.0 516999.0 0
198000.0 516868.0 0
202000.0 517041.0 0
206000.0 516868.0 0
210000.0 517035.0 0
214000.0 516868.0 0
218000.0 517052.0 0
222000.0 516868.0 0
226000.0 517057.0 0
230000.0 516868.0 0
234000.0 517071.0 0
238000.0 516868.0 0
242000.0 517123.0 0
246000.0 516868.0 0
250000.0 517710.0 0
254000.0 516868.0 0
258000.0 517123.0 0
262000.0 516868.0 0
266000.0 517071.0 0
270000.0 516868.0 0
274000.0 517057.0 0
278000.0 516868.0 0
282000.0 517052.0 0
286000.0 516868.0 0
290000.0 517035.0 0
294000.0 516868.0 0
298000.0 517041.0 0
302000.0 516868.0 0
306000.0 516999.0 0
310000.0 516892.0 0
313999.0 517003.0 0
317999.0 516946.0 0
321998.0 517024.0 0
325998.0 517054.0 0
329997.0 517121.0 0
333996.0 517160.0 0
337996.0 517212.0 0
341996.0 517232.0 0
345996.0 517253.0 0
349996.0 517263.0 0
353996.0 517276.0 0
357997.0 517217.0 0
362000.0 517121.0 0
366000.0 517079.0 0
370000.0 517113.0 0
374000.0 517107.0 0
378000.0 517094.0 0
382000.0 516997.0 0
386000.0 517005.0 0
390000.0 517005.0 0
394000.0 517030.0 0
398000.0 517039.0 0
102000.0 521035.0 0
106000.0 521023.0 0
110000.0 521001.0 0
114000.0 521003.0 0
118000.0 520995.0 0
122000.0 521089.0 0
126000.0 521102.0 0
130000.0 521107.0 0
134000.0 521071.0 0
138000.0 521118.0 0
141999.0 521206.0 0
145998.0 521258.0 0
149998.0 521238.0 0
153999.0 521228.0 0
157999.0 521202.0 0
161999.0 521180.0 0
165999.0 521127.0 0
170000.0 521093.0 0
174000.0 521030.0 0
178000.0 521009.0 0
182000.0 520936.0 0
186000.0 520994.0 0
190000.0 520886.0 0
194000.0 520994.0 0
198000.0 520868.0 0
202000.0 521032.0 0
206000.0 520868.0 0
210000.0 521025.0 0
214000.0 520868.0 0
218000.0 521041.0 0
222000.0 520868.0 0
226000.0 521046.0 0
230000.0 520868.0 0
234000.0 521058.0 0
238000.0 520868.0 0
242000.0 521103.0 0
246000.0 520868.0 0
250000.0 521618.0 0
254000.0 520868.0 0
258000.0 521103.0 0
262000.0 520868.0 0
266000.0 521057.0 0
270000.0 520868.0 0
274000.0 521046.0 0
278000.0 520868.0 0
282000.0 521041.0 0
286000.0 520868.0 0
290000.0 521025.0 0
294000.0 520868.0 0
298000.0 521032.0 0
302000.0 520868.0 0
306000.0 520994.0 0
310000.0 520886.0 0
314000.0 520994.0 0
318000.0 520936.0 0
322000.0 521009.0 0
326000.0 521030.0 0
330000.0 521093.0 0
334001.0 521127.0 0
338001.0 521180.0 0
342001.0 521202.0 0
346001.0 521228.0 0
350002.0 521238.0 0
354002.0 521258.0 0
358001.0 521206.0 0
362000.0 521118.0 0
366000.0 521071.0 0
370000.0 521107.0 0
374000.0 521102.0 0
378000.0 521089.0 0
382000.0 520995.0 0
386000.0 521003.0 0
390000.0 521001.0 0
394000.0 521023.0 0
398000.0 521035.0 0
102000.0 525031.0 0
106000.0 525016.0 0
110000.0 524996.0 0
114000.0 525001.0 0
118000.0 524993.0 0
122000.0 525082.0 0
126000.0 525097.0 0
130000.0 525101.0 0
134000.0 525064.0 0
138000.0 525115.0 0
142000.0 525195.0 0
146000.0 525239.0 0
150000.0 525215.0 0
154000.0 525205.0 0
158000.0 525175.0 0
162000.0 525151.0 0
166000.0 525099.0 0
170000.0 525069.0 0
174000.0 525009.0 0
178000.0 524996.0 0
182000.0 524927.0 0
186000.0 524986.0 0
190000.0 524881.0 0
194000.0 524988.0 0
198000.0 524868.0 0
202000.0 525024.0 0
206000.0 524868.0 0
210000.0 525017.0 0
214000.0 524868.0 0
218000.0 525031.0 0
222000.0 524868.0 0
226000.0 525035.0 0
230000.0 524868.0 0
234000.0 525045.0 0
238000.0 524868.0 0
242000.0 525084.0 0
246000.0 524868.0 0
250000.0 525534.0 0
254000.0 524868.0 0
258000.0 525084.0 0
262000.0 524868.0 0
266000.0 525045.0 0
270000.0 524868.0 0
274000.0 525035.0 0
278000.0 524868.0 0
282000.0 525031.0 0
286000.0 524868.0 0
290000.0 525017.0 0
294000.0 524868.0 0
298000.0 525024.0 0
302000.0 524868.0 0
306000.0 524988.0 0
310000.0 524881.0 0
314000.0 524986.0 0
318000.0 524927.0 0
322000.0 524996.0 0
326000.0 525009.0 0
330000.0 525069.0 0
334000.0 525099.0 0
338000.0 525151.0 0
342000.0 525175.0 0
346000.0 525205.0 0
350000.0 525215.0 0
354000.0 525239.0 0
358000.0 525195.0 0
362000.0 525115.0 0
366000.0 525064.0 0
370000.0 525101.0 0
374000.0 525097.0 0
378000.0 525082.0 0
382000.0 524993.0 0
386000.0 525001.0 0
390000.0 524996.0 0
394000.0 525016.0 0
398000.0 525031.0 0
102000.0 529027.0 0
106000.0 529010.0 0
110000.0 528992.0 0
114000.0 528998.0 0
118000.0 528990.0 0
122000.0 529076.0 0
126000.0 529092.0 0
130000.0 529095.0 0
134000.0 529058.0 0
138000.0 529112.0 0
142000.0 529184.0 0
146000.0 529221.0 0
150000.0 529194.0 0
154000.0 529185.0 0
158000.0 529152.0 0
162000.0 529127.0 0
166000.0 529074.0 0
170000.0 529049.0 0
174000.0 528992.0 0
178000.0 528985.0 0
182000.0 528919.0 0
186000.0 528979.0 0
190000.0 528877.0 0
194000.0 528983.0 0
198000.0 528868.0 0
202000.0 529015.0 0
206000.0 528868.0 0
210000.0 529009.0 0
214000.0 528868.0 0
218000.0 529021.0 0
222000.0 528868.0 0
226000.0 529024.0 0
230000.0 528868.0 0
234000.0 529033.0 0
238000.0 528868.0 0
242000.0 529066.0 0
246000.0 528868.0 0
250000.0 529458.0 0
254000.0 528868.0 0
258000.0 529066.0 0
262000.0 528868.0 0
266000.0 529033.0 0
270000.0 528868.0 0
274000.0 529024.0 0
278000.0 528868.0 0
282000.0 529021.0 0
286000.0 528868.0 0
290000.0 529009.0 0
294000.0 528868.0 0
298000.0 529015.0 0
302000.0 528868.0 0
306000.0 528983.0 0
310000.0 528877.0 0
314000.0 528979.0 0
318000.0 528919.0 0
322000.0 528985.0 0
326000.0 528992.0 0
330000.0 529049.0 0
334000.0 529074.0 0
338000.0 529127.0 0
342000.0 529152.0 0
346000.0 529185.0 0
350000.0 529194.0 0
354000.0 529221.0 0
358000.0 529184.0 0
362000.0 529112.0 0
366000.0 529058.0 0
370000.0 529095.0 0
374000.0 529092.0 0
378000.0 529076.0 0
382000.0 528990.0 0
386000.0 528998.0 0
390000.0 528992.0 0
394000.0 529010.0 0
398000.0 529027.0 0
102000.0 533023.0 0
106000.0 533005.0 0
110000.0 532989.0 0
114000.0 532996.0 0
118000.0 532987.0 0
122000.0 533069.0 0
126000.0 533086.0 0
130000.0 533088.0 0
134000.0 533053.0 0
138000.0 533108.0 0
142000.0 533172.0 0
146000.0 533203.0 0
150000.0 533174.0 0
154000.0 533166.0 0
158000.0 533131.0 0
162000.0 533105.0 0
166000.0 533052.0 0
170000.0 533032.0 0
174000.0 532977.0 0
178000.0 532975.0 0
182000.0 532911.0 0
186000.0 532973.0 0
190000.0 532874.0 0
194000.0 532978.0 0
198000.0 532868.0 0
202000.0 533008.0 0
206000.0 532868.0 0
210000.0 533001.0 0
214000.0 532868.0 0
218000.0 533012.0 0
222000.0 532868.0 0
226000.0 533015.0 0
230000.0 532868.0 0
234000.0 533021.0 0
238000.0 532868.0 0
242000.0 533050.0 0
246000.0 532868.0 0
250000.0 533390.0 0
254000.0 532868.0 0
258000.0 533050.0 0
262000.0 532868.0 0
266000.0 533021.0 0
270000.0 532868.0 0
274000.0 533015.0 0
278000.0 532868.0 0
282000.0 533012.0 0
286000.0 532868.0 0
290000.0 533001.0 0
294000.0 532868.0 0
298000.0 533008.0 0
302000.0 532868.0 0
306000.0 532978.0 0
310000.0 532874.0 0
314000.0 532973.0 0
318000.0 532911.0 0
322000.0 532975.0 0
326000.0 532977.0 0
330000.0 533032.0 0
334000.0 533052.0 0
338000.0 533105.0 0
342000.0 533131.0 0
346000.0 533166.0 0
350000.0 533174.0 0
354000.0 533203.0 0
358000.0 533172.0 0
362000.0 533108.0 0
366000.0 533053.0 0
370000.0 533088.0 0
374000.0 533086.0 0
378000.0 533069.0 0
382000.0 532987.0 0
386000.0 532996.0 0
390000.0 532989.0 0
394000.0 533005.0 0
398000.0 533023.0 0
102000.0 537019.0 0
106000.0 537000.0 0
110000.0 536985.0 0
114000.0 536993.0 0
118000.0 536984.0 0
122000.0 537062.0 0
126000.0 537080.0 0
130000.0 537082.0 0
134000.0 537047.0 0
138000.0 537104.0 0
142000.0 537161.0 0
146000.0 537186.0 0
150000.0 537156.0 0
154000.0 537148.0 0
158000.0 537111.0 0
162000.0 537086.0 0
166000.0 537034.0 0
170000.0 537017.0 0
174000.0 536965.0 0
178000.0 536967.0 0
182000.0 536904.0 0
186000.0 536968.0 0
190000.0 536872.0 0
194000.0 536974.0 0
198000.0 536868.0 0
202000.0 537001.0 0
206000.0 536868.0 0
210000.0 536994.0 0
214000.0 536868.0 0
218000.0 537004.0 0
222000.0 536868.0 0
226000.0 537005.0 0
230000.0 536868.0 0
234000.0 537010.0 0
238000.0 536868.0 0
242000.0 537035.0 0
246000.0 536868.0 0
250000.0 537330.0 0
254000.0 536868.0 0
258000.0 537035.0 0
262000.0 536868.0 0
266000.0 537010.0 0
270000.0 536868.0 0
274000.0 537005.0 0
278000.0 536868.0 0
282000.0 537004.0 0
286000.0 536868.0 0
290000.0 536994.0 0
294000.0 536868.0 0
298000.0 537001.0 0
302000.0 536868.0 0
306000.0 536974.0 0
310000.0 536872.0 0
314000.0 536968.0 0
318000.0 536904.0 0
322000.0 536967.0 0
326000.0 536965.0 0
330000.0 537017.0 0
334000.0 537034.0 0
338000.0 537086.0 0
342000.0 537111.0 0
346000.0 537148.0 0
350000.0 537156.0 0
354000.0 537186.0 0
358000.0 537161.0 0
362000.0 537104.0 0
366000.0 537047.0 0
370000.0 537082.0 0
374000.0 537080.0 0
378000.0 537062.0 0
382000.0 536984.0 0
386000.0 536993.0 0
390000.0 536985.0 0
394000.0 537000.0 0
398000.0 537019.0 0
102000.0 541016.0 0
106000.0 540996.0 0
110000.0 540982.0 0
114000.0 540990.0 0
118000.0 540981.0 0
122000.0 541056.0 0
126000.0 541074.0 0
130000.0 541076.0 0
134000.0 541043.0 0
138000.0 541100.0 0
142000.0 541150.0 0
146000.0 541169.0 0
150000.0 541139.0 0
154000.0 541132.0 0
158000.0 541094.0 0
162000.0 541070.0 0
166000.0 541018.0 0
170000.0 541004.0 0
174000.0 540954.0 0
178000.0 540959.0 0
182000.0 540898.0 0
186000.0 540963.0 0
190000.0 540870.0 0
194000.0 540969.0 0
198000.0 540868.0 0
202000.0 540994.0 0
206000.0 540868.0 0
210000.0 540987.0 0
214000.0 540868.0 0
218000.0 540996.0 0
222000.0 540868.0 0
226000.0 540996.0 0
230000.0 540868.0 0
234000.0 540999.0 0
238000.0 540868.0 0
242000.0 541022.0 0
246000.0 540868.0 0
250000.0 541275.0 0
254000.0 540868.0 0
258000.0 541021.0 0
262000.0 540868.0 0
266000.0 540999.0 0
270000.0 540868.0 0
274000.0 540996.0 0
278000.0 540868.0 0
282000.0 540996.0 0
286000.0 540868.0 0
290000.0 540987.0 0
294000.0 540868.0 0
298000.0 540994.0 0
302000.0 540868.0 0
306000.0 540969.0 0
310000.0 540870.0 0
314000.0 540963.0 0
318000.0 540898.0 0
322000.0 540959.0 0
326000.0 540954.0 0
330000.0 541004.0 0
334000.0 541018.0 0
338000.0 541070.0 0
342000.0 541094.0 0
346000.0 541132.0 0
350000.0 541139.0 0
354000.0 541169.0 0
358000.0 541150.0 0
362000.0 541100.0 0
366000.0 541043.0 0
370000.0 541076.0 0
374000.0 541074.0 0
378000.0 541056.0 0
382000.0 540981.0 0
386000.0 540990.0 0
390000.0 540982.0 0
394000.0 540996.0 0
398000.0 541016.0 0
102000.0 545012.0 0
106000.0 544992.0 0
110000.0 544979.0 0
114000.0 544987.0 0
118000.0 544978.0 0
122000.0 545049.0 0
126000.0 545068.0 0
130000.0 545070.0 0
134000.0 545038.0 0
158000.0 545079.0 0
162000.0 545055.0 0
166000.0 545004.0 0
170000.0 544992.0 0
174000.0 544944.0 0
178000.0 544952.0 0
182000.0 544893.0 0
186000.0 544958.0 0
190000.0 544869.0 0
194000.0 544964.0 0
198000.0 544868.0 0
202000.0 544987.0 0
206000.0 544868.0 0
210000.0 544980.0 0
214000.0 544868.0 0
218000.0 544988.0 0
222000.0 544868.0 0
226000.0 544988.0 0
230000.0 544868.0 0
234000.0 544989.0 0
238000.0 544868.0 0
242000.0 545009.0 0
246000.0 544868.0 0
254000.0 544868.0 0
258000.0 545009.0 0
262000.0 544868.0 0
266000.0 544989.0 0
270000.0 544868.0 0
274000.0 544988.0 0
278000.0 544868.0 0
282000.0 544988.0 0
286000.0 544868.0 0
290000.0 544980.0 0
294000.0 544868.0 0
298000.0 544987.0 0
302000.0 544868.0 0
306000.0 544964.0 0
310000.0 544869.0 0
314000.0 544958.0 0
318000.0 544893.0 0
322000.0 544952.0 0
326000.0 544944.0 0
330000.0 544992.0 0
334000.0 545004.0 0
338000.0 545055.0 0
342000.0 545079.0 0
366000.0 545038.0 0
370000.0 545070.0 0
374000.0 545068.0 0
378000.0 545049.0 0
382000.0 544978.0 0
386000.0 544987.0 0
390000.0 544979.0 0
394000.0 544992.0 0
398000.0 545012.0 0
138000.0 545096.0 0
142000.0 545139.0 0
146000.0 545153.0 0
150000.0 545123.0 0
154000.0 545117.0 0
250000.0 545227.0 0
346000.0 545117.0 0
350000.0 545123.0 0
354000.0 545153.0 0
358000.0 545139.0 0
362000.0 545096.0 0
102000.0 549009.0 0
106000.0 548989.0 0
110000.0 548976.0 0
114000.0 548984.0 0
118000.0 548974.0 0
122000.0 549043.0 0
126000.0 549062.0 0
130000.0 549064.0 0
134000.0 549034.0 0
138000.0 549092.0 0
142000.0 549128.0 0
146000.0 549137.0 0
150000.0 549108.0 0
154000.0 549103.0 0
158000.0 549064.0 0
162000.0 549042.0 0
166000.0 548992.0 0
170000.0 548983.0 0
174000.0 548936.0 0
178000.0 548946.0 0
182000.0 548888.0 0
186000.0 548954.0 0
190000.0 548869.0 0
194000.0 548960.0 0
198000.0 548868.0 0
202000.0 548981.0 0
206000.0 548868.0 0
210000.0 548974.0 0
214000.0 548868.0 0
218000.0 548981.0 0
222000.0 548868.0 0
226000.0 548980.0 0
230000.0 548868.0 0
234000.0 548980.0 0
238000.0 548868.0 0
242000.0 548997.0 0
246000.0 548868.0 0
250000.0 549184.0 0
254000.0 548868.0 0
258000.0 548997.0 0
262000.0 548868.0 0
266000.0 548980.0 0
270000.0 548868.0 0
274000.0 548980.0 0
278000.0 548868.0 0
282000.0 548981.0 0
286000.0 548868.0 0
290000.0 548974.0 0
294000.0 548868.0 0
298000.0 548981.0 0
302000.0 548868.0 0
306000.0 548960.0 0
310000.0 548869.0 0
314000.0 548954.0 0
318000.0 548888.0 0
322000.0 548946.0 0
326000.0 548936.0 0
330000.0 548983.0 0
334000.0 548992.0 0
338000.0 549042.0 0
342000.0 549064.0 0
346000.0 549103.0 0
350000.0 549108.0 0
354000.0 549137.0 0
358000.0 549128.0 0
362000.0 549092.0 0
366000.0 549034.0 0
370000.0 549064.0 0
374000.0 549062.0 0
378000.0 549043.0 0
382000.0 548974.0 0
386000.0 548984.0 0
390000.0 548976.0 0
394000.0 548989.0 0
398000.0 549009.0 0
182000.0 552884.0 0
190000.0 552868.0 0
198000.0 552868.0 0
206000.0 552868.0 0
214000.0 552868.0 0
222000.0 552868.0 0
230000.0 552868.0 0
238000.0 552868.0 0
246000.0 552868.0 0
254000.0 552868.0 0
262000.0 552868.0 0
270000.0 552868.0 0
278000.0 552868.0 0
286000.0 552868.0 0
294000.0 552868.0 0
302000.0 552868.0 0
310000.0 552868.0 0
318000.0 552884.0 0
102000.0 553006.0 0
106000.0 552986.0 0
110000.0 552973.0 0
114000.0 552981.0 0
118000.0 552971.0 0
122000.0 553037.0 0
126000.0 553056.0 0
130000.0 553059.0 0
134000.0 553030.0 0
138000.0 553087.0 0
142000.0 553118.0 0
146000.0 553123.0 0
150000.0 553094.0 0
154000.0 553090.0 0
158000.0 553052.0 0
162000.0 553030.0 0
166000.0 552982.0 0
170000.0 552974.0 0
174000.0 552929.0 0
178000.0 552940.0 0
186000.0 552951.0 0
194000.0 552956.0 0
202000.0 552975.0 0
210000.0 552969.0 0
218000.0 552975.0 0
226000.0 552973.0 0
234000.0 552971.0 0
242000.0 552986.0 0
250000.0 553146.0 0
258000.0 552986.0 0
266000.0 552971.0 0
274000.0 552973.0 0
282000.0 552975.0 0
290000.0 552969.0 0
298000.0 552975.0 0
306000.0 552956.0 0
314000.0 552951.0 0
322000.0 552940.0 0
326000.0 552929.0 0
330000.0 552974.0 0
334000.0 552982.0 0
338000.0 553030.0 0
342000.0 553052.0 0
346000.0 553090.0 0
350000.0 553094.0 0
354000.0 553123.0 0
358000.0 553118.0 0
362000.0 553087.0 0
366000.0 553030.0 0
370000.0 553059.0 0
374000.0 553056.0 0
378000.0 553037.0 0
382000.0 552971.0 0
386000.0 552981.0 0
390000.0 552973.0 0
394000.0 552986.0 0
398000.0 553006.0 0
102000.0 557003.0 0
106000.0 556983.0 0
110000.0 556971.0 0
114000.0 556978.0 0
118000.0 556968.0 0
122000.0 557031.0 0
126000.0 557050.0 0
130000.0 557054.0 0
134000.0 557026.0 0
138000.0 557083.0 0
142000.0 557107.0 0
146000.0 557109.0 0
150000.0 557081.0 0
154000.0 557078.0 0
158000.0 557040.0 0
162000.0 557020.0 0
166000.0 556972.0 0
170000.0 556966.0 0
174000.0 556922.0 0
178000.0 556935.0 0
182000.0 556881.0 0
186000.0 556947.0 0
190000.0 556868.0 0
194000.0 556952.0 0
198000.0 556868.0 0
202000.0 556970.0 0
206000.0 556868.0 0
210000.0 556963.0 0
214000.0 556868.0 0
218000.0 556968.0 0
222000.0 556868.0 0
226000.0 556966.0 0
230000.0 556868.0 0
234000.0 556963.0 0
238000.0 556868.0 0
242000.0 556976.0 0
246000.0 556868.0 0
250000.0 557113.0 0
254000.0 556868.0 0
258000.0 556976.0 0
262000.0 556868.0 0
266000.0 556963.0 0
270000.0 556868.0 0
274000.0 556966.0 0
278000.0 556868.0 0
282000.0 556968.0 0
286000.0 556868.0 0
290000.0 556963.0 0
294000.0 556868.0 0
298000.0 556970.0 0
302000.0 556868.0 0
306000.0 556952.0 0
310000.0 556868.0 0
314000.0 556947.0 0
318000.0 556881.0 0
322000.0 556935.0 0
326000.0 556922.0 0
330000.0 556966.0 0
334000.0 556972.0 0
338000.0 557020.0 0
342000.0 557040.0 0
346000.0 557078.0 0
350000.0 557081.0 0
354000.0 557109.0 0
358000.0 557107.0 0
362000.0 557083.0 0
366000.0 557026.0 0
370000.0 557054.0 0
374000.0 557050.0 0
378000.0 557031.0 0
382000.0 556968.0 0
386000.0 556978.0 0
390000.0 556971.0 0
394000.0 556983.0 0
398000.0 557003.0 0
102000.0 561001.0 0
106000.0 560981.0 0
110000.0 560969.0 0
114000.0 560976.0 0
118000.0 560964.0 0
122000.0 561025.0 0
126000.0 561045.0 0
130000.0 561050.0 0
134000.0 561023.0 0
138000.0 561079.0 0
142000.0 561098.0 0
146000.0 561096.0 0
150000.0 561069.0 0
154000.0 561067.0 0
158000.0 561029.0 0
162000.0 561011.0 0
166000.0 560964.0 0
170000.0 560959.0 0
174000.0 560917.0 0
178000.0 560931.0 0
182000.0 560878.0 0
186000.0 560944.0 0
190000.0 560868.0 0
194000.0 560949.0 0
198000.0 560868.0 0
202000.0 560965.0 0
206000.0 560868.0 0
210000.0 560958.0 0
214000.0 560868.0 0
218000.0 560963.0 0
222000.0 560868.0 0
226000.0 560959.0 0
230000.0 560868.0 0
234000.0 560956.0 0
238000.0 560868.0 0
242000.0 560967.0 0
246000.0 560868.0 0
250000.0 561083.0 0
254000.0 560868.0 0
258000.0 560967.0 0
262000.0 560868.0 0
266000.0 560956.0 0
270000.0 560868.0 0
274000.0 560959.0 0
278000.0 560868.0 0
282000.0 560963.0 0
286000.0 560868.0 0
290000.0 560958.0 0
294000.0 560868.0 0
298000.0 560965.0 0
302000.0 560868.0 0
306000.0 560949.0 0
310000.0 560868.0 0
314000.0 560944.0 0
318000.0 560878.0 0
322000.0 560931.0 0
326000.0 560917.0 0
330000.0 560959.0 0
334000.0 560964.0 0
338000.0 561011.0 0
342000.0 561029.0 0
346000.0 561067.0 0
350000.0 561069.0 0
354000.0 561096.0 0
358000.0 561098.0 0
362000.0 561079.0 0
366000.0 561023.0 0
370000.0 561050.0 0
374000.0 561045.0 0
378000.0 561025.0 0
382000.0 560964.0 0
386000.0 560976.0 0
390000.0 560969.0 0
394000.0 560981.0 0
398000.0 561001.0 0
102000.0 564998.0 0
106000.0 564980.0 0
110000.0 564967.0 0
114000.0 564973.0 0
118000.0 564961.0 0
122000.0 565020.0 0
126000.0 565040.0 0
130000.0 565045.0 0
134000.0 565019.0 0
138000.0 565075.0 0
142000.0 565089.0 0
146000.0 565085.0 0
150000.0 565058.0 0
154000.0 565057.0 0
158000.0 565019.0 0
162000.0 565002.0 0
166000.0 564957.0 0
170000.0 564953.0 0
174000.0 564911.0 0
178000.0 564927.0 0
182000.0 564876.0 0
186000.0 564942.0 0
190000.0 564868.0 0
194000.0 564945.0 0
198000.0 564868.0 0
202000.0 564960.0 0
206000.0 564868.0 0
210000.0 564954.0 0
214000.0 564868.0 0
218000.0 564957.0 0
222000.0 564868.0 0
226000.0 564954.0 0
230000.0 564868.0 0
234000.0 564949.0 0
238000.0 564868.0 0
242000.0 564958.0 0
246000.0 564868.0 0
250000.0 565057.0 0
254000.0 564868.0 0
258000.0 564958.0 0
262000.0 564868.0 0
266000.0 564949.0 0
270000.0 564868.0 0
274000.0 564954.0 0
278000.0 564868.0 0
282000.0 564957.0 0
286000.0 564868.0 0
290000.0 564954.0 0
294000.0 564868.0 0
298000.0 564960.0 0
302000.0 564868.0 0
306000.0 564945.0 0
310000.0 564868.0 0
314000.0 564942.0 0
318000.0 564876.0 0
322000.0 564927.0 0
326000.0 564911.0 0
330000.0 564953.0 0
334000.0 564957.0 0
338000.0 565002.0 0
342000.0 565019.0 0
346000.0 565057.0 0
350000.0 565058.0 0
354000.0 565085.0 0
358000.0 565089.0 0
362000.0 565075.0 0
366000.0 565019.0 0
370000.0 565045.0 0
374000.0 565040.0 0
378000.0 565020.0 0
382000.0 564961.0 0
386000.0 564973.0 0
390000.0 564967.0 0
394000.0 564980.0 0
398000.0 564998.0 0
102000.0 568996.0 0
106000.0 568978.0 0
110000.0 568966.0 0
114000.0 568971.0 0
118000.0 568959.0 0
122000.0 569015.0 0
126000.0 569035.0 0
130000.0 569041.0 0
134000.0 569016.0 0
138000.0 569071.0 0
142000.0 569080.0 0
146000.0 569074.0 0
150000.0 569048.0 0
154000.0 569048.0 0
158000.0 569011.0 0
162000.0 568995.0 0
166000.0 568950.0 0
170000.0 568948.0 0
174000.0 568907.0 0
178000.0 568923.0 0
182000.0 568874.0 0
186000.0 568939.0 0
190000.0 568868.0 0
194000.0 568942.0 0
198000.0 568868.0 0
202000.0 568956.0 0
206000.0 568868.0 0
210000.0 568950.0 0
214000.0 568868.0 0
218000.0 568952.0 0
222000.0 568868.0 0
226000.0 568948.0 0
230000.0 568868.0 0
234000.0 568943.0 0
238000.0 568868.0 0
242000.0 568951.0 0
246000.0 568868.0 0
250000.0 569035.0 0
254000.0 568868.0 0
258000.0 568951.0 0
262000.0 568868.0 0
266000.0 568943.0 0
270000.0 568868.0 0
274000.0 568948.0 0
278000.0 568868.0 0
282000.0 568952.0 0
286000.0 568868.0 0
290000.0 568950.0 0
294000.0 568868.0 0
298000.0 568956.0 0
302000.0 568868.0 0
306000.0 568942.0 0
310000.0 568868.0 0
314000.0 568939.0 0
318000.0 568874.0 0
322000.0 568923.0 0
326000.0 568907.0 0
330000.0 568948.0 0
334000.0 568950.0 0
338000.0 568995.0 0
342000.0 569011.0 0
346000.0 569048.0 0
350000.0 569048.0 0
354000.0 569074.0 0
358000.0 569080.0 0
362000.0 569071.0 0
366000.0 569016.0 0
370000.0 569041.0 0
374000.0 569035.0 0
378000.0 569015.0 0
382000.0 568959.0 0
386000.0 568971.0 0
390000.0 568966.0 0
394000.0 568978.0 0
398000.0 568996.0 0
102000.0 572994.0 0
106000.0 572977.0 0
110000.0 572964.0 0
114000.0 572969.0 0
118000.0 572956.0 0
122000.0 573011.0 0
126000.0 573030.0 0
130000.0 573038.0 0
134000.0 573013.0 0
138000.0 573067.0 0
142000.0 573072.0 0
146000.0 573064.0 0
150000.0 573039.0 0
154000.0 573040.0 0
158000.0 573003.0 0
162000.0 572988.0 0
166000.0 572944.0 0
170000.0 572943.0 0
174000.0 572903.0 0
178000.0 572921.0 0
182000.0 572873.0 0
186000.0 572937.0 0
190000.0 572868.0 0
194000.0 572939.0 0
198000.0 572868.0 0
202000.0 572952.0 0
206000.0 572868.0 0
210000.0 572946.0 0
214000.0 572868.0 0
218000.0 572948.0 0
222000.0 572868.0 0
226000.0 572943.0 0
230000.0 572868.0 0
234000.0 572937.0 0
238000.0 572868.0 0
242000.0 572944.0 0
246000.0 572868.0 0
250000.0 573015.0 0
254000.0 572868.0 0
258000.0 572944.0 0
262000.0 572868.0 0
266000.0 572937.0 0
270000.0 572868.0 0
274000.0 572943.0 0
278000.0 572868.0 0
282000.0 572948.0 0
286000.0 572868.0 0
290000.0 572946.0 0
294000.0 572868.0 0
298000.0 572952.0 0
302000.0 572868.0 0
306000.0 572939.0 0
310000.0 572868.0 0
314000.0 572937.0 0
318000.0 572873.0 0
322000.0 572921.0 0
326000.0 572903.0 0
330000.0 572943.0 0
334000.0 572944.0 0
338000.0 572988.0 0
342000.0 573003.0 0
346000.0 573040.0 0
350000.0 573039.0 0
354000.0 573064.0 0
358000.0 573072.0 0
362000.0 573067.0 0
366000.0 573013.0 0
370000.0 573038.0 0
374000.0 573030.0 0
378000.0 573011.0 0
382000.0 572956.0 0
386000.0 572969.0 0
390000.0 572964.0 0
394000.0 572977.0 0
398000.0 572994.0 0
102000.0 576993.0 0
106000.0 576976.0 0
110000.0 576963.0 0
114000.0 576967.0 0
118000.0 576953.0 0
122000.0 577007.0 0
126000.0 577026.0 0
130000.0 577035.0 0
134000.0 577011.0 0
138000.0 577064.0 0
142000.0 577065.0 0
146000.0 577056.0 0
150000.0 577031.0 0
154000.0 577032.0 0
158000.0 576996.0 0
162000.0 576983.0 0
166000.0 576939.0 0
170000.0 576939.0 0
174000.0 576900.0 0
178000.0 576918.0 0
182000.0 576872.0 0
186000.0 576934.0 0
190000.0 576868.0 0
194000.0 576937.0 0
198000.0 576868.0 0
202000.0 576949.0 0
206000.0 576868.0 0
210000.0 576943.0 0
214000.0 576868.0 0
218000.0 576944.0 0
222000.0 576868.0 0
226000.0 576939.0 0
230000.0 576868.0 0
234000.0 576932.0 0
238000.0 576868.0 0
242000.0 576938.0 0
246000.0 576868.0 0
250000.0 576998.0 0
254000.0 576868.0 0
258000.0 576938.0 0
262000.0 576868.0 0
266000.0 576932.0 0
270000.0 576868.0 0
274000.0 576939.0 0
278000.0 576868.0 0
282000.0 576944.0 0
286000.0 576868.0 0
290000.0 576943.0 0
294000.0 576868.0 0
298000.0 576949.0 0
302000.0 576868.0 0
306000.0 576937.0 0
310000.0 576868.0 0
314000.0 576934.0 0
318000.0 576872.0 0
322000.0 576918.0 0
326000.0 576900.0 0
330000.0 576939.0 0
334000.0 576939.0 0
338000.0 576983.0 0
342000.0 576996.0 0
346000.0 577032.0 0
350000.0 577031.0 0
354000.0 577056.0 0
358000.0 577065.0 0
362000.0 577064.0 0
366000.0 577011.0 0
370000.0 577035.0 0
374000.0 577026.0 0
378000.0 577007.0 0
382000.0 576953.0 0
386000.0 576967.0 0
390000.0 576963.0 0
394000.0 576976.0 0
398000.0 576993.0 0
102000.0 580991.0 0
106000.0 580975.0 0
110000.0 580962.0 0
114000.0 580965.0 0
118000.0 580951.0 0
122000.0 581004.0 0
126000.0 581023.0 0
130000.0 581032.0 0
134000.0 581008.0 0
138000.0 581061.0 0
142000.0 581059.0 0
146000.0 581048.0 0
150000.0 581024.0 0
154000.0 581026.0 0
158000.0 580990.0 0
162000.0 580978.0 0
166000.0 580935.0 0
170000.0 580936.0 0
174000.0 580897.0 0
178000.0 580916.0 0
182000.0 580871.0 0
186000.0 580932.0 0
190000.0 580868.0 0
194000.0 580934.0 0
198000.0 580868.0 0
202000.0 580946.0 0
206000.0 580868.0 0
210000.0 580940.0 0
214000.0 580868.0 0
218000.0 580940.0 0
222000.0 580868.0 0
226000.0 580935.0 0
230000.0 580868.0 0
234000.0 580928.0 0
238000.0 580868.0 0
242000.0 580933.0 0
246000.0 580868.0 0
250000.0 580984.0 0
254000.0 580868.0 0
258000.0 580933.0 0
262000.0 580868.0 0
266000.0 580928.0 0
270000.0 580868.0 0
274000.0 580935.0 0
278000.0 580868.0 0
282000.0 580940.0 0
286000.0 580868.0 0
290000.0 580940.0 0
294000.0 580868.0 0
298000.0 580946.0 0
302000.0 580868.0 0
306000.0 580934.0 0
310000.0 580868.0 0
314000.0 580932.0 0
318000.0 580871.0 0
322000.0 580916.0 0
326000.0 580897.0 0
330000.0 580936.0 0
334000.0 580935.0 0
338000.0 580978.0 0
342000.0 580990.0 0
346000.0 581026.0 0
350000.0 581024.0 0
354000.0 581048.0 0
358000.0 581059.0 0
362000.0 581061.0 0
366000.0 581008.0 0
370000.0 581032.0 0
374000.0 581023.0 0
378000.0 581004.0 0
382000.0 580951.0 0
386000.0 580965.0 0
390000.0 580962.0 0
394000.0 580975.0 0
398000.0 580991.0 0
102000.0 584990.0 0
106000.0 584974.0 0
110000.0 584961.0 0
114000.0 584964.0 0
118000.0 584949.0 0
122000.0 585001.0 0
126000.0 585020.0 0
130000.0 585029.0 0
134000.0 585006.0 0
138000.0 585058.0 0
142000.0 585053.0 0
146000.0 585042.0 0
150000.0 585018.0 0
154000.0 585020.0 0
158000.0 584984.0 0
162000.0 584973.0 0
166000.0 584931.0 0
170000.0 584933.0 0
174000.0 584894.0 0
178000.0 584914.0 0
182000.0 584870.0 0
186000.0 584931.0 0
190000.0 584868.0 0
194000.0 584932.0 0
198000.0 584868.0 0
202000.0 584943.0 0
206000.0 584868.0 0
210000.0 584937.0 0
214000.0 584868.0 0
218000.0 584937.0 0
222000.0 584868.0 0
226000.0 584931.0 0
230000.0 584868.0 0
234000.0 584924.0 0
238000.0 584868.0 0
242000.0 584928.0 0
246000.0 584868.0 0
250000.0 584972.0 0
254000.0 584868.0 0
258000.0 584928.0 0
262000.0 584868.0 0
266000.0 584924.0 0
270000.0 584868.0 0
274000.0 584931.0 0
278000.0 584868.0 0
282000.0 584937.0 0
286000.0 584868.0 0
290000.0 584937.0 0
294000.0 584868.0 0
298000.0 584943.0 0
302000.0 584868.0 0
306000.0 584932.0 0
310000.0 584868.0 0
314000.0 584931.0 0
318000.0 584870.0 0
322000.0 584914.0 0
326000.0 584894.0 0
330000.0 584933.0 0
334000.0 584931.0 0
338000.0 584973.0 0
342000.0 584984.0 0
346000.0 585020.0 0
350000.0 585018.0 0
354000.0 585042.0 0
358000.0 585053.0 0
362000.0 585058.0 0
366000.0 585006.0 0
370000.0 585029.0 0
374000.0 585020.0 0
378000.0 585001.0 0
382000.0 584949.0 0
386000.0 584964.0 0
390000.0 584961.0 0
394000.0 584974.0 0
398000.0 584990.0 0
102000.0 588989.0 0
106000.0 588973.0 0
110000.0 588960.0 0
114000.0 588962.0 0
118000.0 588948.0 0
122000.0 588998.0 0
126000.0 589017.0 0
130000.0 589027.0 0
134000.0 589005.0 0
138000.0 589056.0 0
142000.0 589048.0 0
146000.0 589036.0 0
150000.0 589013.0 0
154000.0 589015.0 0
158000.0 588980.0 0
162000.0 588970.0 0
166000.0 588928.0 0
170000.0 588930.0 0
174000.0 588892.0 0
178000.0 588913.0 0
182000.0 588870.0 0
186000.0 588929.0 0
190000.0 588868.0 0
194000.0 588931.0 0
198000.0 588868.0 0
202000.0 588941.0 0
206000.0 588868.0 0
210000.0 588935.0 0
214000.0 588868.0 0
218000.0 588935.0 0
222000.0 588868.0 0
226000.0 588928.0 0
230000.0 588868.0 0
234000.0 588921.0 0
238000.0 588868.0 0
242000.0 588924.0 0
246000.0 588868.0 0
250000.0 588962.0 0
254000.0 588868.0 0
258000.0 588924.0 0
262000.0 588868.0 0
266000.0 588921.0 0
270000.0 588868.0 0
274000.0 588928.0 0
278000.0 588868.0 0
282000.0 588935.0 0
286000.0 588868.0 0
290000.0 588935.0 0
294000.0 588868.0 0
298000.0 588941.0 0
302000.0 588868.0 0
306000.0 588931.0 0
310000.0 588868.0 0
314000.0 588929.0 0
318000.0 588870.0 0
322000.0 588913.0 0
326000.0 588892.0 0
330000.0 588930.0 0
334000.0 588928.0 0
338000.0 588970.0 0
342000.0 588980.0 0
346000.0 589015.0 0
350000.0 589013.0 0
354000.0 589036.0 0
358000.0 589048.0 0
362000.0 589056.0 0
366000.0 589005.0 0
370000.0 589027.0 0
374000.0 589017.0 0
378000.0 588998.0 0
382000.0 588948.0 0
386000.0 588962.0 0
390000.0 588960.0 0
394000.0 588973.0 0
398000.0 588989.0 0
102000.0 592988.0 0
106000.0 592973.0 0
110000.0 592960.0 0
114000.0 592961.0 0
118000.0 592946.0 0
122000.0 592996.0 0
126000.0 593015.0 0
130000.0 593025.0 0
134000.0 593003.0 0
138000.0 593054.0 0
142000.0 593044.0 0
146000.0 593031.0 0
150000.0 593008.0 0
154000.0 593011.0 0
158000.0 592976.0 0
162000.0 592967.0 0
166000.0 592926.0 0
170000.0 592928.0 0
174000.0 592891.0 0
178000.0 592912.0 0
182000.0 592869.0 0
186000.0 592928.0 0
190000.0 592868.0 0
194000.0 592929.0 0
198000.0 592868.0 0
202000.0 592939.0 0
206000.0 592868.0 0
210000.0 592933.0 0
214000.0 592868.0 0
218000.0 592932.0 0
222000.0 592868.0 0
226000.0 592926.0 0
230000.0 592868.0 0
234000.0 592918.0 0
238000.0 592868.0 0
242000.0 592921.0 0
246000.0 592868.0 0
250000.0 592954.0 0
254000.0 592868.0 0
258000.0 592921.0 0
262000.0 592868.0 0
266000.0 592918.0 0
270000.0 592868.0 0
274000.0 592926.0 0
278000.0 592868.0 0
282000.0 592932.0 0
286000.0 592868.0 0
290000.0 592933.0 0
294000.0 592868.0 0
298000.0 592939.0 0
302000.0 592868.0 0
306000.0 592929.0 0
310000.0 592868.0 0
314000.0 592928.0 0
318000.0 592869.0 0
322000.0 592912.0 0
326000.0 592891.0 0
330000.0 592928.0 0
334000.0 592926.0 0
338000.0 592967.0 0
342000.0 592976.0 0
346000.0 593011.0 0
350000.0 593008.0 0
354000.0 593031.0 0
358000.0 593044.0 0
362000.0 593054.0 0
366000.0 593003.0 0
370000.0 593025.0 0
374000.0 593015.0 0
378000.0 592996.0 0
382000.0 592946.0 0
386000.0 592961.0 0
390000.0 592960.0 0
394000.0 592973.0 0
398000.0 592988.0 0
102000.0 596987.0 0
106000.0 596973.0 0
110000.0 596959.0 0
114000.0 596960.0 0
118000.0 596945.0 0
122000.0 596995.0 0
126000.0 597013.0 0
130000.0 597024.0 0
134000.0 597002.0 0
138000.0 597052.0 0
142000.0 597041.0 0
146000.0 597028.0 0
150000.0 597005.0 0
154000.0 597008.0 0
158000.0 596973.0 0
162000.0 596964.0 0
166000.0 596924.0 0
170000.0 596926.0 0
174000.0 596889.0 0
178000.0 596911.0 0
182000.0 596869.0 0
186000.0 596927.0 0
190000.0 596868.0 0
194000.0 596928.0 0
198000.0 596868.0 0
202000.0 596937.0 0
206000.0 596868.0 0
210000.0 596931.0 0
214000.0 596868.0 0
218000.0 596931.0 0
222000.0 596868.0 0
226000.0 596924.0 0
230000.0 596868.0 0
234000.0 596916.0 0
238000.0 596868.0 0
242000.0 596918.0 0
246000.0 596868.0 0
250000.0 596948.0 0
254000.0 596868.0 0
258000.0 596918.0 0
262000.0 596868.0 0
266000.0 596916.0 0
270000.0 596868.0 0
274000.0 596924.0 0
278000.0 596868.0 0
282000.0 596931.0 0
286000.0 596868.0 0
290000.0 596931.0 0
294000.0 596868.0 0
298000.0 596937.0 0
302000.0 596868.0 0
306000.0 596928.0 0
310000.0 596868.0 0
314000.0 596927.0 0
318000.0 596869.0 0
322000.0 596911.0 0
326000.0 596889.0 0
330000.0 596926.0 0
334000.0 596924.0 0
338000.0 596964.0 0
342000.0 596973.0 0
346000.0 597008.0 0
350000.0 597005.0 0
354000.0 597028.0 0
358000.0 597041.0 0
362000.0 597052.0 0
366000.0 597002.0 0
370000.0 597024.0 0
374000.0 597013.0 0
378000.0 596995.0 0
382000.0 596945.0 0
386000.0 596960.0 0
390000.0 596959.0 0
394000.0 596973.0 0
398000.0 596987.0 0
102000.0 600986.0 0
106000.0 600972.0 0
110000.0 600959.0 0
114000.0 600960.0 0
118000.0 600944.0 0
122000.0 600993.0 0
126000.0 601012.0 0
130000.0 601023.0 0
134000.0 601001.0 0
138000.0 601051.0 0
142000.0 601038.0 0
146000.0 601025.0 0
150000.0 601002.0 0
154000.0 601006.0 0
158000.0 600971.0 0
162000.0 600962.0 0
166000.0 600922.0 0
170000.0 600925.0 0
174000.0 600889.0 0
178000.0 600910.0 0
182000.0 600869.0 0
186000.0 600926.0 0
190000.0 600868.0 0
194000.0 600927.0 0
198000.0 600868.0 0
202000.0 600936.0 0
206000.0 600868.0 0
210000.0 600930.0 0
214000.0 600868.0 0
218000.0 600929.0 0
222000.0 600868.0 0
226000.0 600922.0 0
230000.0 600868.0 0
234000.0 600914.0 0
238000.0 600868.0 0
242000.0 600916.0 0
246000.0 600868.0 0
250000.0 600943.0 0
254000.0 600868.0 0
258000.0 600916.0 0
262000.0 600868.0 0
266000.0 600914.0 0
270000.0 600868.0 0
274000.0 600922.0 0
278000.0 600868.0 0
282000.0 600929.0 0
286000.0 600868.0 0
290000.0 600930.0 0
294000.0 600868.0 0
298000.0 600936.0 0
302000.0 600868.0 0
306000.0 600927.0 0
310000.0 600868.0 0
314000.0 600926.0 0
318000.0 600869.0 0
322000.0 600910.0 0
326000.0 600889.0 0
330000.0 600925.0 0
334000.0 600922.0 0
338000.0 600962.0 0
342000.0 600971.0 0
346000.0 601006.0 0
350000.0 601002.0 0
354000.0 601025.0 0
358000.0 601038.0 0
362000.0 601051.0 0
366000.0 601001.0 0
370000.0 601023.0 0
374000.0 601012.0 0
378000.0 600993.0 0
382000.0 600944.0 0
386000.0 600960.0 0
390000.0 600959.0 0
394000.0 600972.0 0
398000.0 600986.0 0
106000.0 604972.0 0
110000.0 604959.0 0
114000.0 604959.0 0
118000.0 604944.0 0
158000.0 604970.0 0
162000.0 604961.0 0
166000.0 604921.0 0
170000.0 604924.0 0
174000.0 604888.0 0
178000.0 604910.0 0
182000.0 604869.0 0
186000.0 604926.0 0
190000.0 604868.0 0
194000.0 604927.0 0
198000.0 604868.0 0
202000.0 604935.0 0
206000.0 604868.0 0
210000.0 604930.0 0
214000.0 604868.0 0
218000.0 604928.0 0
222000.0 604868.0 0
226000.0 604922.0 0
230000.0 604868.0 0
234000.0 604913.0 0
238000.0 604868.0 0
242000.0 604915.0 0
246000.0 604868.0 0
250000.0 604940.0 0
254000.0 604868.0 0
258000.0 604915.0 0
262000.0 604868.0 0
266000.0 604913.0 0
270000.0 604868.0 0
274000.0 604922.0 0
278000.0 604868.0 0
282000.0 604928.0 0
286000.0 604868.0 0
290000.0 604930.0 0
294000.0 604868.0 0
298000.0 604935.0 0
302000.0 604868.0 0
306000.0 604927.0 0
310000.0 604868.0 0
314000.0 604926.0 0
318000.0 604869.0 0
322000.0 604910.0 0
326000.0 604888.0 0
330000.0 604924.0 0
334000.0 604921.0 0
338000.0 604961.0 0
342000.0 604970.0 0
382000.0 604944.0 0
386000.0 604959.0 0
390000.0 604959.0 0
394000.0 604972.0 0
102000.0 604986.0 0
122000.0 604993.0 0
126000.0 605011.0 0
130000.0 605022.0 0
134000.0 605000.0 0
138000.0 605050.0 0
142000.0 605036.0 0
146000.0 605023.0 0
150000.0 605001.0 0
154000.0 605004.0 0
346000.0 605004.0 0
350000.0 605001.0 0
354000.0 605023.0 0
358000.0 605036.0 0
362000.0 605050.0 0
366000.0 605000.0 0
370000.0 605022.0 0
374000.0 605011.0 0
378000.0 604993.0 0
398000.0 604986.0 0
102000.0 608986.0 0
106000.0 608972.0 0
110000.0 608958.0 0
114000.0 608959.0 0
118000.0 608943.0 0
122000.0 608992.0 0
126000.0 609010.0 0
130000.0 609022.0 0
134000.0 609000.0 0
138000.0 609050.0 0
142000.0 609035.0 0
146000.0 609022.0 0
150000.0 609000.0 0
154000.0 609003.0 0
158000.0 608969.0 0
162000.0 608961.0 0
166000.0 608921.0 0
170000.0 608924.0 0
174000.0 608888.0 0
178000.0 608910.0 0
182000.0 608869.0 0
186000.0 608926.0 0
190000.0 608868.0 0
194000.0 608926.0 0
198000.0 608868.0 0
202000.0 608935.0 0
206000.0 608868.0 0
210000.0 608929.0 0
214000.0 608868.0 0
218000.0 608928.0 0
222000.0 608868.0 0
226000.0 608921.0 0
230000.0 608868.0 0
234000.0 608913.0 0
238000.0 608868.0 0
242000.0 608914.0 0
246000.0 608868.0 0
250000.0 608938.0 0
254000.0 608868.0 0
258000.0 608914.0 0
262000.0 608868.0 0
266000.0 608913.0 0
270000.0 608868.0 0
274000.0 608921.0 0
278000.0 608868.0 0
282000.0 608928.0 0
286000.0 608868.0 0
290000.0 608929.0 0
294000.0 608868.0 0
298000.0 608935.0 0
302000.0 608868.0 0
306000.0 608926.0 0
310000.0 608868.0 0
314000.0 608926.0 0
318000.0 608869.0 0
322000.0 608910.0 0
326000.0 608888.0 0
330000.0 608924.0 0
334000.0 608921.0 0
338000.0 608961.0 0
342000.0 608969.0 0
346000.0 609003.0 0
350000.0 609000.0 0
354000.0 609022.0 0
358000.0 609035.0 0
362000.0 609050.0 0
366000.0 609000.0 0
370000.0 609022.0 0
374000.0 609010.0 0
378000.0 608992.0 0
382000.0 608943.0 0
386000.0 608959.0 0
390000.0 608958.0 0
394000.0 608972.0 0
398000.0 608986.0 0
POINT_DATA 4650
SCALARS Radius float 1
LOOKUP_TABLE default
4000.0 4000.0 4000.0 4000.0 4000.0 4000.0 4000.0 4000.0 4000.0 4000.0 4000.0 4000.0 4000.0 4000.0 4000.0 4000.0 4000.0 4000.0 4000.0 4000.0 4000.0 4000.0 4000.0 4000.0 4000.0 4000.0 4000.0 4000.0 4000.0 4000.0 4000.0 4000.0 4000.0 4000.0 4000.0 4000.0 4000.0 4000.0 4000.0 4000.0 4000.0 4000.0 4000.0 4000.0 4000.0 4000.0 4000.0 4000.0 4000.0 4000.0 4000.0 4000.0 4000.0 4000.0 4000.0 4000.0 4000.0 4000.0 4000.0 4000.0 4000.0 4000.0 4000.0 4000.0 4000.0 4000.0 4000.0 4000.0 4000.0 4000.0 4000.0 4000.0 4000.0 4000.0 4000.0 4000.0 4000.0 4000.0 4000.0 4000.0 4000.0 4000.0 4000.0 4000.0 4000.0 4000.0 4000.0 4000.0 4000.0 4000.0 4000.0 4000.0 4000.0 4000.0 4000.0 4000.0 4000.0 4000.0 4000.0 4000.0 4000.0 4000.0 4000.0 4000.0 4000.0 4000.0 4000.0 4000.0 4000.0 4000.0 4000.0 4000.0 4000.0 4000.0 4000.0 4000.0 4000.0 4000.0 4000.0 4000.0 4000.0 4000.0 4000.0 4000.0 4000.0 4000.0 4000.0 4000.0 4000.0 4000.0 4000.0 4000.0 4000.0 4000.0 4000.0 4000.0 4000.0 4000.0 4000.0 4000.0 4000.0 4000.0 4000.0 4000.0 4000.0 4000.0 4000.0 4000.0 4000.0 4000.0 4000.0 4000.0 4000.0 4000.0 4000.0 4000.0 4000.0 4000.0 4000.0 4000.0 4000.0 4000.0 4000.0 4000.0 4000.0 4000.0 4000.0 4000.0 4000.0 4000.0 4000.0 4000.0 4000.0 4000.0 4000.0 4000.0 4000.0 4000.0 4000.0 4000.0 4000.0 4000.0 4000.0 4000.0 4000.0 4000.0 4000.0 4000.0 4000.0 4000.0 4000.0 4000.0 4000.0 4000.0 4000.0 4000.0 4000.0 4000.0 4000.0 4000.0 4000.0 4000.0 4000.0 4000.0 4000.0 4000.0 4000.0 4000.0 4000.0 4000.0 4000.0 4000.0 4000.0 4000.0 4000.0 4000.0 4000.0 4000.0 4000.0 4000.0 4000.0 4000.0 4000.0 4000.0 4000.0 4000.0 4000.0 4000.0 4000.0 4000.0 4000.0 4000.0 4000.0 4000.0 4000.0 4000.0 4000.0 4000.0 4000.0 4000.0 4000.0 4000.0 4000.0 4000.0 4000.0 4000.0 4000.0 4000.0 4000.0 4000.0 4000.0 4000.0 4000.0 4000.0 4000.0 4000.0 4000.0 4000.0 4000.0 4000.0 4000.0 4000.0 4000.0 4000.0 4000.0 4000.0 4000.0 4000.0 4000.0 4000.0 4000.0 4000.0 4000.0 4000.0 4000.0 4000.0 4000.0 4000.0 4000.0 4000.0 4000.0 4000.0 4000.0 4000.0 4000.0 4000.0 4000.0 4000.0 4000.0 4000.0 4000.0 4000.0 4000.0 4000.0 4000.0 4000.0 4000.0 4000.0 4000.0 4000.0 4000.0 4000.0 4000.0 4000.0 4000.0 4000.0 4000.0 4000.0 4000.0 4000.0 4000.0 4000.0 4000.0 4000.0 4000.0 4000.0 4000.0 4000.0 4000.0 4000.0 4000.0 4000.0 4000.0 4000.0 4000.0 4000.0 4000.0 4000.0 4000.0 4000.0 4000.0 4000.0 4000.0 4000.0 4000.0 4000.0 4000.0 4000.0 4000.0 4000.0 4000.0 4000.0 4000.0 4000.0 4000.0 4000.0 4000.0 4000.0 4000.0 4000.0 4000.0 4000.0 4000.0 4000.0 4000.0 4000.0 4000.0 4000.0 4000.0 4000.0 4000.0 4000.0 4000.0 4000.0 4000.0 4000.0 4000.0 4000.0 4000.0 4000.0 4000.0 4000.0 4000.0 4000.0 4000.0 4000.0 4000.0 4000.0 4000.0 4000.0 4000.0 4000.0 4000.0 4000.0 4000.0 4000.0 4000.0 4000.0 4000.0 4000.0 4000.0 4000.0 4000.0 4000.0 4000.0 4000.0 4000.0 4000.0 4000.0 4000.0 4000.0 4000.0 4000.0 4000.0 4000.0 4000.0 4000.0 4000.0 4000.0 4000.0 4000.0 4000.0 4000.0 4000.0 4000.0 4000.0 4000.0 4000.0 4000.0 4000.0 4000.0 4000.0 4000.0 4000.0 4000.0 4000.0 4000.0 4000.0 4000.0 4000.0 4000.0 4000.0 4000.0 4000.0 4000.0 4000.0 4000.0 4000.0 4000.0 4000.0 4000.0 4000.0 4000.0 4000.0 4000.0 4000.0 4000.0 4000.0 4000.0 4000.0 4000.0 4000.0 4000.0 4000.0 4000.0 4000.0 4000.0 4000.0 4000.0 4000.0 4000.0 4000.0 4000.0 4000.0 4000.0 4000.0 4000.0 4000.0 4000.0 4000.0 4000.0 4000.0 4000.0 4000.0 4000.0 4000.0 4000.0 4000.0 4000.0 4000.0 4000.0 4000.0 4000.0 4000.0 4000.0 4000.0 4000.0 4000.0 4000.0 4000.0 4000.0 4000.0 4000.0 4000.0 4000.0 4000.0 4000.0 4000.0 4000.0 4000.0 4000.0 4000.0 4000.0 4000.0 4000.0 4000.0 4000.0 4000.0 4000.0 4000.0 4000.0 4000.0 4000.0 4000.0 4000.0 4000.0 4000.0 4000.0 4000.0 4000.0 4000.0 4000.0 4000.0 4000.0 4000.0 4000.0 4000.0 4000.0 4000.0 4000.0 4000.0 4000.0 4000.0 4000.0 4000.0 4000.0 4000.0 4000.0 4000.0 4000.0 4000.0 4000.0 4000.0 4000.0 4000.0 4000.0 4000.0 4000.0 4000.0 4000.0 4000.0 4000.0 4000.0 4000.0 4000.0 4000.0 4000.0 4000.0 4000.0 4000.0 4000.0 4000.0 4000.0 4000.0 4000.0 4000.0 4000.0 4000.0 4000.0 4000.0 4000.0 4000.0 4000.0 4000.0 4000.0 4000.0 4000.0 4000.0 4000.0 4000.0 4000.0 4000.0 4000.0 4000.0 4000.0 4000.0 4000.0 4000.0 4000.0 4000.0 4000.0 4000.0 4000.0 4000.0 4000.0 4000.0 4000.0 4000.0 4000.0 4000.0 4000.0 4000.0 4000.0 4000.0 4000.0 4000.0 4000.0 4000.0 4000.0 4000.0 4000.0 4000.0 4000.0 4000.0 4000.0 4000.0 4000.0 4000.0 4000.0 4000.0 4000.0 4000.0 4000.0 4000.0 4000.0 4000.0 4000.0 4000.0 4000.0 4000.0 4000.0 4000.0 4000.0 4000.0 4000.0 4000.0 4000.0 4000.0 4000.0 4000.0 4000.0 4000.0 4000.0 4000.0 4000.0 4000.0 4000.0 4000.0 4000.0 4000.0 4000.0 4000.0 4000.0 4000.0 4000.0 4000.0 4000.0 4000.0 4000.0 4000.0 4000.0 4000.0 4000.0 4000.0 4000.0 4000.0 4000.0 4000.0 4000.0 4000.0 4000.0 4000.0 4000.0 4000.0 4000.0 4000.0 4000.0 4000.0 4000.0 4000.0 4000.0 4000.0 4000.0 4000.0 4000.0 4000.0 4000.0 4000.0 4000.0 4000.0 4000.0 4000.0 4000.0 4000.0 4000.0 4000.0 4000.0 4000.0 4000.0 4000.0 4000.0 4000.0 4000.0 4000.0 4000.0 4000.0 4000.0 4000.0 4000.0 4000.0 4000.0 4000.0 4000.0 4000.0 4000.0 4000.0 4000.0 4000.0 4000.0 4000.0 4000.0 4000.0 4000.0 4000.0 4000.0 4000.0 4000.0 4000.0 4000.0 4000.0 4000.0 4000.0 4000.0 4000.0 4000.0 4000.0 4000.0 4000.0 4000.0 4000.0 4000.0 4000.0 4000.0 4000.0 4000.0 4000.0 4000.0 4000.0 4000.0 4000.0 4000.0 4000.0 4000.0 4000.0 4000.0 4000.0 4000.0 4000.0 4000.0 4000.0 4000.0 4000.0 4000.0 4000.0 4000.0 4000.0 4000.0 4000.0 4000.0 4000.0 4000.0 4000.0 4000.0 4000.0 4000.0 4000.0 4000.0 4000.0 4000.0 4000.0 4000.0 4000.0 4000.0 4000.0 4000.0 4000.0 4000.0 4000.0 4000.0 4000.0 4000.0 4000.0 4000.0 4000.0 4000.0 4000.0 4000.0 4000.0 4000.0 4000.0 4000.0 4000.0 4000.0 4000.0 4000.0 4000.0 4000.0 4000.0 4000.0 4000.0 4000.0 4000.0 4000.0 4000.0 4000.0 4000.0 4000.0 4000.0 4000.0 4000.0 4000.0 4000.0 4000.0 4000.0 4000.0 4000.0 4000.0 4000.0 4000.0 4000.0 4000.0 4000.0 4000.0 4000.0 4000.0 4000.0 4000.0 4000.0 4000.0 4000.0 4000.0 4000.0 4000.0 4000.0 4000.0 4000.0 4000.0 4000.0 4000.0 4000.0 4000.0 4000.0 4000.0 4000.0 4000.0 4000.0 4000.0 4000.0 4000.0 4000.0 4000.0 4000.0 4000.0 4000.0 4000.0 4000.0 4000.0 4000.0 4000.0 4000.0 4000.0 4000.0 4000.0 4000.0 4000.0 4000.0 4000.0 4000.0 4000.0 4000.0 4000.0 4000.0 4000.0 4000.0 4000.0 4000.0 4000.0 4000.0 4000.0 4000.0 4000.0 4000.0 4000.0 4000.0 4000.0 4000.0 4000.0 4000.0 4000.0 4000.0 4000.0 4000.0 4000.0 4000.0 4000.0 4000.0 4000.0 4000.0 4000.0 4000.0 4000.0 4000.0 4000.0 4000.0 4000.0 4000.0 4000.0 4000.0 4000.0 4000.0 4000.0 4000.0 4000.0 4000.0 4000.0 4000.0 4000.0 4000.0 4000.0 4000.0 4000.0 4000.0 4000.0 4000.0 4000.0 4000.0 4000.0 4000.0 4000.0 4000.0 4000.0 4000.0 4000.0 4000.0 4000.0 4000.0 4000.0 4000.0 4000.0 4000.0 4000.0 4000.0 4000.0 4000.0 4000.0 4000.0 4000.0 4000.0 4000.0 4000.0 4000.0 4000.0 4000.0 4000.0 4000.0 4000.0 4000.0 4000.0 4000.0 4000.0 4000.0 4000.0 4000.0 4000.0 4000.0 4000.0 4000.0 4000.0 4000.0 4000.0 4000.0 4000.0 4000.0 4000.0 4000.0 4000.0 4000.0 4000.0 4000.0 4000.0 4000.0 4000.0 4000.0 4000.0 4000.0 4000.0 4000.0 4000.0 4000.0 4000.0 4000.0 4000.0 4000.0 4000.0 4000.0 4000.0 4000.0 4000.0 4000.0 4000.0 4000.0 4000.0 4000.0 4000.0 4000.0 4000.0 4000.0 4000.0 4000.0 4000.0 4000.0 4000.0 4000.0 4000.0 4000.0 4000.0 4000.0 4000.0 4000.0 4000.0 4000.0 4000.0 4000.0 4000.0 4000.0 4000.0 4000.0 4000.0 4000.0 4000.0 4000.0 4000.0 4000.0 4000.0 4000.0 4000.0 4000.0 4000.0 4000.0 4000.0 4000.0 4000.0 4000.0 4000.0 4000.0 4000.0 4000.0 4000.0 4000.0 4000.0 4000.0 4000.0 4000.0 4000.0 4000.0 4000.0 4000.0 4000.0 4000.0 4000.0 4000.0 4000.0 4000.0 4000.0 4000.0 4000.0 4000.0 4000.0 4000.0 4000.0 4000.0 4000.0 4000.0 4000.0 4000.0 4000.0 4000.0 4000.0 4000.0 4000.0 4000.0 4000.0 4000.0 4000.0 4000.0 4000.0 4000.0 4000.0 4000.0 4000.0 4000.0 4000.0 4000.0 4000.0 4000.0 4000.0 4000.0 4000.0 4000.0 4000.0 4000.0 4000.0 4000.0 4000.0 4000.0 4000.0 4000.0 4000.0 4000.0 4000.0 4000.0 4000.0 4000.0 4000.0 4000.0 4000.0 4000.0 4000.0 4000.0 4000.0 4000.0 4000.0 4000.0 4000.0 4000.0 4000.0 4000.0 4000.0 4000.0 4000.0 4000.0 4000.0 4000.0 4000.0 4000.0 4000.0 4000.0 4000.0 4000.0 4000.0 4000.0 4000.0 4000.0 4000.0 4000.0 4000.0 4000.0 4000.0 4000.0 4000.0 4000.0 4000.0 4000.0 4000.0 4000.0 4000.0 4000.0 4000.0 4000.0 4000.0 4000.0 4000.0 4000.0 4000.0 4000.0 4000.0 4000.0 4000.0 4000.0 4000.0 4000.0 4000.0 4000.0 4000.0 4000.0 4000.0 4000.0 4000.0 4000.0 4000.0 4000.0 4000.0 4000.0 4000.0 4000.0 4000.0 4000.0 4000.0 4000.0 4000.0 4000.0 4000.0 4000.0 4000.0 4000.0 4000.0 4000.0 4000.0 4000.0 4000.0 4000.0 4000.0 4000.0 4000.0 4000.0 4000.0 4000.0 4000.0 4000.0 4000.0 4000.0 4000.0 4000.0 4000.0 4000.0 4000.0 4000.0 4000.0 4000.0 4000.0 4000.0 4000.0 4000.0 4000.0 4000.0 4000.0 4000.0 4000.0 4000.0 4000.0 4000.0 4000.0 4000.0 4000.0 4000.0 4000.0 4000.0 4000.0 4000.0 4000.0 4000.0 4000.0 4000.0 4000.0 4000.0 4000.0 4000.0 4000.0 4000.0 4000.0 4000.0 4000.0 4000.0 4000.0 4000.0 4000.0 4000.0 4000.0 4000.0 4000.0 4000.0 4000.0 4000.0 4000.0 4000.0 4000.0 4000.0 4000.0 4000.0 4000.0 4000.0 4000.0 4000.0 4000.0 4000.0 4000.0 4000.0 4000.0 4000.0 4000.0 4000.0 4000.0 4000.0 4000.0 4000.0 4000.0 4000.0 4000.0 4000.0 4000.0 4000.0 4000.0 4000.0 4000.0 4000.0 4000.0 4000.0 4000.0 4000.0 4000.0 4000.0 4000.0 4000.0 4000.0 4000.0 4000.0 4000.0 4000.0 4000.0 4000.0 4000.0 4000.0 4000.0 4000.0 4000.0 4000.0 4000.0 4000.0 4000.0 4000.0 4000.0 4000.0 4000.0 4000.0 4000.0 4000.0 4000.0 4000.0 4000.0 4000.0 4000.0 4000.0 4000.0 4000.0 4000.0 4000.0 4000.0 4000.0 4000.0 4000.0 4000.0 4000.0 4000.0 4000.0 4000.0 4000.0 4000.0 4000.0 4000.0 4000.0 4000.0 4000.0 4000.0 4000.0 4000.0 4000.0 4000.0 4000.0 4000.0 4000.0 4000.0 4000.0 4000.0 4000.0 4000.0 4000.0 4000.0 4000.0 4000.0 4000.0 4000.0 4000.0 4000.0 4000.0 4000.0 4000.0 4000.0 4000.0 4000.0 4000.0 4000.0 4000.0 4000.0 4000.0 4000.0 4000.0 4000.0 4000.0 4000.0 4000.0 4000.0 4000.0 4000.0 4000.0 4000.0 4000.0 4000.0 4000.0 4000.0 4000.0 4000.0 4000.0 4000.0 4000.0 4000.0 4000.0 4000.0 4000.0 4000.0 4000.0 4000.0 4000.0 4000.0 4000.0 4000.0 4000.0 4000.0 4000.0 4000.0 4000.0 4000.0 4000.0 4000.0 4000.0 4000.0 4000.0 4000.0 4000.0 4000.0 4000.0 4000.0 4000.0 4000.0 4000.0 4000.0 4000.0 4000.0 4000.0 4000.0 4000.0 4000.0 4000.0 4000.0 4000.0 4000.0 4000.0 4000.0 4000.0 4000.0 4000.0 4000.0 4000.0 4000.0 4000.0 4000.0 4000.0 4000.0 4000.0 4000.0 4000.0 4000.0 4000.0 4000.0 4000.0 4000.0 4000.0 4000.0 4000.0 4000.0 4000.0 4000.0 4000.0 4000.0 4000.0 4000.0 4000.0 4000.0 4000.0 4000.0 4000.0 4000.0 4000.0 4000.0 4000.0 4000.0 4000.0 4000.0 4000.0 4000.0 4000.0 4000.0 4000.0 4000.0 4000.0 4000.0 4000.0 4000.0 4000.0 4000.0 4000.0 4000.0 4000.0 4000.0 4000.0 4000.0 4000.0 4000.0 4000.0 4000.0 4000.0 4000.0 4000.0 4000.0 4000.0 4000.0 4000.0 4000.0 4000.0 4000.0 4000.0 4000.0 4000.0 4000.0 4000.0 4000.0 4000.0 4000.0 4000.0 4000.0 4000.0 4000.0 4000.0 4000.0 4000.0 4000.0 4000.0 4000.0 4000.0 4000.0 4000.0 4000.0 4000.0 4000.0 4000.0 4000.0 4000.0 4000.0 4000.0 4000.0 4000.0 4000.0 4000.0 4000.0 4000.0 4000.0 4000.0 4000.0 4000.0 4000.0 4000.0 4000.0 4000.0 4000.0 4000.0 4000.0 4000.0 4000.0 4000.0 4000.0 4000.0 4000.0 4000.0 4000.0 4000.0 4000.0 4000.0 4000.0 4000.0 4000.0 4000.0 4000.0 4000.0 4000.0 4000.0 4000.0 4000.0 4000.0 4000.0 4000.0 4000.0 4000.0 4000.0 4000.0 4000.0 4000.0 4000.0 4000.0 4000.0 4000.0 4000.0 4000.0 4000.0 4000.0 4000.0 4000.0 4000.0 4000.0 4000.0 4000.0 4000.0 4000.0 4000.0 4000.0 4000.0 4000.0 4000.0 4000.0 4000.0 4000.0 4000.0 4000.0 4000.0 4000.0 4000.0 4000.0 4000.0 4000.0 4000.0 4000.0 4000.0 4000.0 4000.0 4000.0 4000.0 4000.0 4000.0 4000.0 4000.0 4000.0 4000.0 4000.0 4000.0 4000.0 4000.0 4000.0 4000.0 4000.0 4000.0 4000.0 4000.0 4000.0 4000.0 4000.0 4000.0 4000.0 4000.0 4000.0 4000.0 4000.0 4000.0 4000.0 4000.0 4000.0 4000.0 4000.0 4000.0 4000.0 4000.0 4000.0 4000.0 4000.0 4000.0 4000.0 4000.0 4000.0 4000.0 4000.0 4000.0 4000.0 4000.0 4000.0 4000.0 4000.0 4000.0 4000.0 4000.0 4000.0 4000.0 4000.0 4000.0 4000.0 4000.0 4000.0 4000.0 4000.0 4000.0 4000.0 4000.0 4000.0 4000.0 4000.0 4000.0 4000.0 4000.0 4000.0 4000.0 4000.0 4000.0 4000.0 4000.0 4000.0 4000.0 4000.0 4000.0 4000.0 4000.0 4000.0 4000.0 4000.0 4000.0 4000.0 4000.0 4000.0 4000.0 4000.0 4000.0 4000.0 4000.0 4000.0 4000.0 4000.0 4000.0 4000.0 4000.0 4000.0 4000.0 4000.0 4000.0 4000.0 4000.0 4000.0 4000.0 4000.0 4000.0 4000.0 4000.0 4000.0 4000.0 4000.0 4000.0 4000.0 4000.0 4000.0 4000.0 4000.0 4000.0 4000.0 4000.0 4000.0 4000.0 4000.0 4000.0 4000.0 4000.0 4000.0 4000.0 4000.0 4000.0 4000.0 4000.0 4000.0 4000.0 4000.0 4000.0 4000.0 4000.0 4000.0 4000.0 4000.0 4000.0 4000.0 4000.0 4000.0 4000.0 4000.0 4000.0 4000.0 4000.0 4000.0 4000.0 4000.0 4000.0 4000.0 4000.0 4000.0 4000.0 4000.0 4000.0 4000.0 4000.0 4000.0 4000.0 4000.0 4000.0 4000.0 4000.0 4000.0 4000.0 4000.0 4000.0 4000.0 4000.0 4000.0 4000.0 4000.0 4000.0 4000.0 4000.0 4000.0 4000.0 4000.0 4000.0 4000.0 4000.0 4000.0 4000.0 4000.0 4000.0 4000.0 4000.0 4000.0 4000.0 4000.0 4000.0 4000.0 4000.0 4000.0 4000.0 4000.0 4000.0 4000.0 4000.0 4000.0 4000.0 4000.0 4000.0 4000.0 4000.0 4000.0 4000.0 4000.0 4000.0 4000.0 4000.0 4000.0 4000.0 4000.0 4000.0 4000.0 4000.0 4000.0 4000.0 4000.0 4000.0 4000.0 4000.0 4000.0 4000.0 4000.0 4000.0 4000.0 4000.0 4000.0 4000.0 4000.0 4000.0 4000.0 4000.0 4000.0 4000.0 4000.0 4000.0 4000.0 4000.0 4000.0 4000.0 4000.0 4000.0 4000.0 4000.0 4000.0 4000.0 4000.0 4000.0 4000.0 4000.0 4000.0 4000.0 4000.0 4000.0 4000.0 4000.0 4000.0 4000.0 4000.0 4000.0 4000.0 4000.0 4000.0 4000.0 4000.0 4000.0 4000.0 4000.0 4000.0 4000.0 4000.0 4000.0 4000.0 4000.0 4000.0 4000.0 4000.0 4000.0 4000.0 4000.0 4000.0 4000.0 4000.0 4000.0 4000.0 4000.0 4000.0 4000.0 4000.0 4000.0 4000.0 4000.0 4000.0 4000.0 4000.0 4000.0 4000.0 4000.0 4000.0 4000.0 4000.0 4000.0 4000.0 4000.0 4000.0 4000.0 4000.0 4000.0 4000.0 4000.0 4000.0 4000.0 4000.0 4000.0 4000.0 4000.0 4000.0 4000.0 4000.0 4000.0 4000.0 4000.0 4000.0 4000.0 4000.0 4000.0 4000.0 4000.0 4000.0 4000.0 4000.0 4000.0 4000.0 4000.0 4000.0 4000.0 4000.0 4000.0 4000.0 4000.0 4000.0 4000.0 4000.0 4000.0 4000.0 4000.0 4000.0 4000.0 4000.0 4000.0 4000.0 4000.0 4000.0 4000.0 4000.0 4000.0 4000.0 4000.0 4000.0 4000.0 4000.0 4000.0 4000.0 4000.0 4000.0 4000.0 4000.0 4000.0 4000.0 4000.0 4000.0 4000.0 4000.0 4000.0 4000.0 4000.0 4000.0 4000.0 4000.0 4000.0 4000.0 4000.0 4000.0 4000.0 4000.0 4000.0 4000.0 4000.0 4000.0 4000.0 4000.0 4000.0 4000.0 4000.0 4000.0 4000.0 4000.0 4000.0 4000.0 4000.0 4000.0 4000.0 4000.0 4000.0 4000.0 4000.0 4000.0 4000.0 4000.0 4000.0 4000.0 4000.0 4000.0 4000.0 4000.0 4000.0 4000.0 4000.0 4000.0 4000.0 4000.0 4000.0 4000.0 4000.0 4000.0 4000.0 4000.0 4000.0 4000.0 4000.0 4000.0 4000.0 4000.0 4000.0 4000.0 4000.0 4000.0 4000.0 4000.0 4000.0 4000.0 4000.0 4000.0 4000.0 4000.0 4000.0 4000.0 4000.0 4000.0 4000.0 4000.0 4000.0 4000.0 4000.0 4000.0 4000.0 4000.0 4000.0 4000.0 4000.0 4000.0 4000.0 4000.0 4000.0 4000.0 4000.0 4000.0 4000.0 4000.0 4000.0 4000.0 4000.0 4000.0 4000.0 4000.0 4000.0 4000.0 4000.0 4000.0 4000.0 4000.0 4000.0 4000.0 4000.0 4000.0 4000.0 4000.0 4000.0 4000.0 4000.0 4000.0 4000.0 4000.0 4000.0 4000.0 4000.0 4000.0 4000.0 4000.0 4000.0 4000.0 4000.0 4000.0 4000.0 4000.0 4000.0 4000.0 4000.0 4000.0 4000.0 4000.0 4000.0 4000.0 4000.0 4000.0 4000.0 4000.0 4000.0 4000.0 4000.0 4000.0 4000.0 4000.0 4000.0 4000.0 4000.0 4000.0 4000.0 4000.0 4000.0 4000.0 4000.0 4000.0 4000.0 4000.0 4000.0 4000.0 4000.0 4000.0 4000.0 4000.0 4000.0 4000.0 4000.0 4000.0 4000.0 4000.0 4000.0 4000.0 4000.0 4000.0 4000.0 4000.0 4000.0 4000.0 4000.0 4000.0 4000.0 4000.0 4000.0 4000.0 4000.0 4000.0 4000.0 4000.0 4000.0 4000.0 4000.0 4000.0 4000.0 4000.0 4000.0 4000.0 4000.0 4000.0 4000.0 4000.0 4000.0 4000.0 4000.0 4000.0 4000.0 4000.0 4000.0 4000.0 4000.0 4000.0 4000.0 4000.0 4000.0 4000.0 4000.0 4000.0 4000.0 4000.0 4000.0 4000.0 4000.0 4000.0 4000.0 4000.0 4000.0 4000.0 4000.0 4000.0 4000.0 4000.0 4000.0 4000.0 4000.0 4000.0 4000.0 4000.0 4000.0 4000.0 4000.0 4000.0 4000.0 4000.0 4000.0 4000.0 4000.0 4000.0 4000.0 4000.0 4000.0 4000.0 4000.0 4000.0 4000.0 4000.0 4000.0 4000.0 4000.0 4000.0 4000.0 4000.0 4000.0 4000.0 4000.0 4000.0 4000.0 4000.0 4000.0 4000.0 4000.0 4000.0 4000.0 4000.0 4000.0 4000.0 4000.0 4000.0 4000.0 4000.0 4000.0 4000.0 4000.0 4000.0 4000.0 4000.0 4000.0 4000.0 4000.0 4000.0 4000.0 4000.0 4000.0 4000.0 4000.0 4000.0 4000.0 4000.0 4000.0 4000.0 4000.0 4000.0 4000.0 4000.0 4000.0 4000.0 4000.0 4000.0 4000.0 4000.0 4000.0 4000.0 4000.0 4000.0 4000.0 4000.0 4000.0 4000.0 4000.0 4000.0 4000.0 4000.0 4000.0 4000.0 4000.0 4000.0 4000.0 4000.0 4000.0 4000.0 4000.0 4000.0 4000.0 4000.0 4000.0 4000.0 4000.0 4000.0 4000.0 4000.0 4000.0 4000.0 4000.0 4000.0 4000.0 4000.0 4000.0 4000.0 4000.0 4000.0 4000.0 4000.0 4000.0 4000.0 4000.0 4000.0 4000.0 4000.0 4000.0 4000.0 4000.0 4000.0 4000.0 4000.0 4000.0 4000.0 4000.0 4000.0 4000.0 4000.0 4000.0 4000.0 4000.0 4000.0 4000.0 4000.0 4000.0 4000.0 4000.0 4000.0 4000.0 4000.0 4000.0 4000.0 4000.0 4000.0 4000.0 4000.0 4000.0 4000.0 4000.0 4000.0 4000.0 4000.0 4000.0 4000.0 4000.0 4000.0 4000.0 4000.0 4000.0 4000.0 4000.0 4000.0 4000.0 4000.0 4000.0 4000.0 4000.0 4000.0 4000.0 4000.0 4000.0 4000.0 4000.0 4000.0 4000.0 4000.0 4000.0 4000.0 4000.0 4000.0 4000.0 4000.0 4000.0 4000.0 4000.0 4000.0 4000.0 4000.0 4000.0 4000.0 4000.0 4000.0 4000.0 4000.0 4000.0 4000.0 4000.0 4000.0 4000.0 4000.0 4000.0 4000.0 4000.0 4000.0 4000.0 4000.0 4000.0 4000.0 4000.0 4000.0 4000.0 4000.0 4000.0 4000.0 4000.0 4000.0 4000.0 4000.0 4000.0 4000.0 4000.0 4000.0 4000.0 4000.0 4000.0 4000.0 4000.0 4000.0 4000.0 4000.0 4000.0 4000.0 4000.0 4000.0 4000.0 4000.0 4000.0 4000.0 4000.0 4000.0 4000.0 4000.0 4000.0 4000.0 4000.0 4000.0 4000.0 4000.0 4000.0 4000.0 4000.0 4000.0 4000.0 4000.0 4000.0 4000.0 4000.0 4000.0 4000.0 4000.0 4000.0 4000.0 4000.0 4000.0 4000.0 4000.0 4000.0 4000.0 4000.0 4000.0 4000.0 4000.0 4000.0 4000.0 4000.0 4000.0 4000.0 4000.0 4000.0 4000.0 4000.0 4000.0 4000.0 4000.0 4000.0 4000.0 4000.0 4000.0 4000.0 4000.0 4000.0 4000.0 4000.0 4000.0 4000.0 4000.0 4000.0 4000.0 4000.0 4000.0 4000.0 4000.0 4000.0 4000.0 4000.0 4000.0 4000.0 4000.0 4000.0 4000.0 4000.0 4000.0 4000.0 4000.0 4000.0 4000.0 4000.0 4000.0 4000.0 4000.0 4000.0 4000.0 4000.0 4000.0 4000.0 4000.0 4000.0 4000.0 4000.0 4000.0 4000.0 4000.0 4000.0 4000.0 4000.0 4000.0 4000.0 4000.0 4000.0 4000.0 4000.0 4000.0 4000.0 4000.0 4000.0 4000.0 4000.0 4000.0 4000.0 4000.0 4000.0 4000.0 4000.0 4000.0 4000.0 4000.0 4000.0 4000.0 4000.0 4000.0 4000.0 4000.0 4000.0 4000.0 4000.0 4000.0 4000.0 4000.0 4000.0 4000.0 4000.0 4000.0 4000.0 4000.0 4000.0 4000.0 4000.0 4000.0 4000.0 4000.0 4000.0 4000.0 4000.0 4000.0 4000.0 4000.0 4000.0 4000.0 4000.0 4000.0 4000.0 4000.0 4000.0 4000.0 4000.0 4000.0 4000.0 4000.0 4000.0 4000.0 4000.0 4000.0 4000.0 4000.0 4000.0 4000.0 4000.0 4000.0 4000.0 4000.0 4000.0 4000.0 4000.0 4000.0 4000.0 4000.0 4000.0 4000.0 4000.0 4000.0 4000.0 4000.0 4000.0 4000.0 4000.0 4000.0 4000.0 4000.0 4000.0 4000.0 4000.0 4000.0 4000.0 4000.0 4000.0 4000.0 4000.0 4000.0 4000.0 4000.0 4000.0 4000.0 4000.0 4000.0 4000.0 4000.0 4000.0 4000.0 4000.0 4000.0 4000.0 4000.0 4000.0 4000.0 4000.0 4000.0 4000.0 4000.0 4000.0 4000.0 4000.0 4000.0 4000.0 4000.0 4000.0 4000.0 4000.0 4000.0 4000.0 4000.0 4000.0 4000.0 4000.0 4000.0 4000.0 4000.0 4000.0 4000.0 4000.0 4000.0 4000.0 4000.0 4000.0 4000.0 4000.0 4000.0 4000.0 4000.0 4000.0 4000.0 4000.0 4000.0 4000.0 4000.0 4000.0 4000.0 4000.0 4000.0 4000.0 4000.0 4000.0 4000.0 4000.0 4000.0 4000.0 4000.0 4000.0 4000.0 4000.0 4000.0 4000.0 4000.0 4000.0 4000.0 4000.0 4000.0 4000.0 4000.0 4000.0 4000.0 4000.0 4000.0 4000.0 4000.0 4000.0 4000.0 4000.0 4000.0 4000.0 4000.0 4000.0 4000.0 4000.0 4000.0 4000.0 4000.0 4000.0 4000.0 4000.0 4000.0 4000.0 4000.0 4000.0 4000.0 4000.0 4000.0 4000.0 4000.0 4000.0 4000.0 4000.0 4000.0 4000.0 4000.0 4000.0 4000.0 4000.0 4000.0 4000.0 4000.0 4000.0 4000.0 4000.0 4000.0 4000.0 4000.0 4000.0 4000.0 4000.0 4000.0 4000.0 4000.0 4000.0 4000.0 4000.0 4000.0 4000.0 4000.0 4000.0 4000.0 4000.0 4000.0 4000.0 4000.0 4000.0 4000.0 4000.0 4000.0 4000.0 4000.0 4000.0 4000.0 4000.0 4000.0 4000.0 4000.0 4000.0 4000.0 4000.0 4000.0 4000.0 4000.0 4000.0 4000.0 4000.0 4000.0 4000.0 4000.0 4000.0 4000.0 4000.0 4000.0 4000.0 4000.0 4000.0 4000.0 4000.0 4000.0 4000.0 4000.0 4000.0 4000.0 4000.0 4000.0 4000.0 4000.0 4000.0 4000.0 4000.0 4000.0 4000.0 4000.0 4000.0 4000.0 4000.0 4000.0 4000.0 4000.0 4000.0 4000.0 4000.0 4000.0 4000.0 4000.0 4000.0 4000.0 4000.0 4000.0 4000.0 4000.0 4000.0 4000.0 4000.0 4000.0 4000.0 4000.0 4000.0 4000.0 4000.0 4000.0 4000.0 4000.0 4000.0 4000.0 4000.0 4000.0 4000.0 4000.0 4000.0 4000.0 4000.0 4000.0 4000.0 4000.0 4000.0 4000.0 4000.0 4000.0 4000.0 4000.0 4000.0 4000.0 4000.0 4000.0 4000.0 4000.0 4000.0 4000.0 4000.0 4000.0 4000.0 4000.0 4000.0 4000.0 4000.0 4000.0 4000.0 4000.0 4000.0 4000.0 4000.0 4000.0 4000.0 4000.0 4000.0 4000.0 4000.0 4000.0 4000.0 4000.0 4000.0 4000.0 4000.0 4000.0 4000.0 4000.0 4000.0 4000.0 4000.0 4000.0 4000.0 4000.0 4000.0 4000.0 4000.0 4000.0 4000.0 4000.0 4000.0 4000.0 4000.0 4000.0 4000.0 4000.0 4000.0 4000.0 4000.0 4000.0 4000.0 4000.0 4000.0 4000.0 4000.0 4000.0 4000.0 4000.0 4000.0 4000.0 4000.0 4000.0 4000.0 4000.0 4000.0 4000.0 4000.0 4000.0 4000.0 4000.0 4000.0 4000.0 4000.0 4000.0 4000.0 4000.0 4000.0 4000.0 4000.0 4000.0 4000.0 4000.0 4000.0 4000.0 4000.0 4000.0 4000.0 4000.0 4000.0 4000.0 4000.0 4000.0 4000.0 4000.0 4000.0 4000.0 4000.0 4000.0 4000.0 4000.0 4000.0 4000.0 4000.0 4000.0 4000.0 4000.0 4000.0 4000.0 4000.0 4000.0 4000.0 4000.0 4000.0 4000.0 4000.0 4000.0 4000.0 4000.0 4000.0 4000.0 4000.0 4000.0 4000.0 4000.0 4000.0 4000.0 4000.0 4000.0 4000.0 4000.0 4000.0 4000.0 4000.0 4000.0 4000.0 4000.0 4000.0 4000.0 4000.0 4000.0 4000.0 4000.0 4000.0 4000.0 4000.0 4000.0 4000.0 4000.0 4000.0 4000.0 4000.0 4000.0 4000.0 4000.0 4000.0 4000.0 4000.0 4000.0 4000.0 4000.0 4000.0 4000.0 4000.0 4000.0 4000.0 4000.0 4000.0 4000.0 4000.0 4000.0 4000.0 4000.0 4000.0 4000.0 4000.0 4000.0 4000.0 4000.0 4000.0 4000.0 4000.0 4000.0 4000.0 4000.0 4000.0 4000.0 4000.0 4000.0 4000.0 4000.0 4000.0 4000.0 4000.0 4000.0 4000.0 4000.0 4000.0 4000.0 4000.0 4000.0 4000.0 4000.0 4000.0 4000.0 4000.0 4000.0 4000.0 4000.0 4000.0 4000.0 4000.0 4000.0 4000.0 4000.0 4000.0 4000.0 4000.0 4000.0 4000.0 4000.0 4000.0 4000.0 4000.0 4000.0 4000.0 4000.0 4000.0 4000.0 4000.0 4000.0 4000.0 4000.0 4000.0 4000.0 4000.0 4000.0 4000.0 4000.0 4000.0 4000.0 4000.0 4000.0 4000.0 4000.0 4000.0 4000.0 4000.0 4000.0 4000.0 4000.0 4000.0 4000.0 4000.0 4000.0 4000.0 4000.0 4000.0 4000.0 4000.0 4000.0 4000.0 4000.0 4000.0 4000.0 4000.0 4000.0 4000.0 4000.0 4000.0 4000.0 4000.0 4000.0 4000.0 4000.0 4000.0 4000.0 4000.0 4000.0 4000.0 4000.0 4000.0 4000.0 4000.0 4000.0 4000.0 4000.0 4000.0 4000.0 4000.0 4000.0 4000.0 4000.0 4000.0 4000.0 4000.0 4000.0 4000.0 4000.0 4000.0 4000.0 4000.0 4000.0 4000.0 4000.0 4000.0 4000.0 4000.0 4000.0 4000.0 4000.0 4000.0 4000.0 4000.0 4000.0 4000.0 4000.0 4000.0 4000.0 4000.0 4000.0 4000.0 4000.0 4000.0 4000.0 4000.0 4000.0 4000.0 4000.0 4000.0 4000.0 4000.0 4000.0 4000.0 4000.0 4000.0 4000.0 4000.0 4000.0 4000.0 4000.0 4000.0 4000.0 4000.0 4000.0 4000.0 4000.0 4000.0 4000.0 4000.0 4000.0 4000.0 4000.0 4000.0 4000.0 4000.0 4000.0 4000.0 4000.0 4000.0 4000.0 4000.0 4000.0 4000.0 4000.0 4000.0 4000.0 4000.0 4000.0 4000.0 4000.0 4000.0 4000.0 4000.0 4000.0 4000.0 4000.0 4000.0 4000.0 4000.0 4000.0 4000.0 4000.0 4000.0 4000.0 4000.0 4000.0 4000.0 4000.0 4000.0 4000.0 4000.0 4000.0 4000.0 4000.0 4000.0 4000.0 4000.0 4000.0 4000.0 4000.0 4000.0 4000.0 4000.0 4000.0 4000.0 4000.0 4000.0 4000.0 4000.0 4000.0 4000.0 4000.0 4000.0 4000.0 4000.0 4000.0 4000.0 4000.0 4000.0 4000.0 4000.0 4000.0 4000.0 4000.0 4000.0 4000.0 4000.0 4000.0 4000.0 4000.0 4000.0 4000.0 4000.0 4000.0 4000.0 4000.0 4000.0 4000.0 4000.0 4000.0 4000.0 4000.0 4000.0 4000.0 4000.0 4000.0 4000.0 4000.0 4000.0 4000.0 4000.0 4000.0 4000.0 4000.0 4000.0 4000.0 4000.0 4000.0 4000.0 4000.0 4000.0 4000.0 4000.0 4000.0 4000.0 4000.0 4000.0 4000.0 4000.0 4000.0 4000.0 4000.0 4000.0 4000.0 4000.0 4000.0 4000.0 4000.0 4000.0 4000.0 4000.0 4000.0 4000.0 4000.0 4000.0 4000.0 4000.0 4000.0 4000.0 4000.0 4000.0 4000.0 4000.0 4000.0 4000.0 4000.0 4000.0 4000.0 4000.0 4000.0 4000.0 4000.0 4000.0 4000.0 4000.0 4000.0 4000.0 4000.0 4000.0 4000.0 4000.0 4000.0 4000.0 4000.0 4000.0 4000.0 4000.0 4000.0 4000.0 4000.0 4000.0 4000.0 4000.0 4000.0 4000.0 4000.0 4000.0 4000.0 4000.0 4000.0 4000.0 4000.0 4000.0 4000.0 4000.0 4000.0 4000.0 4000.0 4000.0 4000.0 4000.0 4000.0 4000.0 4000.0 4000.0 4000.0 4000.0 4000.0 4000.0 4000.0 4000.0 4000.0 4000.0 4000.0 4000.0 4000.0 4000.0 4000.0 4000.0 4000.0 4000.0 4000.0 4000.0 4000.0 4000.0 4000.0 4000.0 4000.0 4000.0 4000.0 4000.0 4000.0 4000.0 4000.0 4000.0 4000.0 4000.0 4000.0 4000.0 4000.0 4000.0 4000.0 4000.0 4000.0 4000.0 4000.0 4000.0 4000.0 4000.0 4000.0 4000.0 4000.0 4000.0 4000.0 4000.0 4000.0 4000.0 4000.0 4000.0 4000.0 4000.0 4000.0 4000.0 4000.0 4000.0 4000.0 4000.0 4000.0 4000.0 4000.0 4000.0 4000.0 4000.0 4000.0 4000.0 4000.0 4000.0 4000.0 4000.0 4000.0 4000.0 4000.0 4000.0 4000.0 4000.0 4000.0 4000.0 4000.0 4000.0 4000.0 4000.0 4000.0 4000.0 4000.0 4000.0 4000.0 4000.0 4000.0 4000.0 4000.0 4000.0 4000.0 4000.0 4000.0 4000.0 4000.0 4000.0 4000.0 4000.0 4000.0 4000.0 4000.0 4000.0 4000.0 4000.0 4000.0 4000.0 4000.0 4000.0 4000.0 4000.0 4000.0 4000.0 4000.0 4000.0 4000.0 4000.0 4000.0 4000.0 4000.0 4000.0 4000.0 4000.0 4000.0 4000.0 4000.0 4000.0 4000.0 4000.0 4000.0 4000.0 4000.0 4000.0 4000.0 4000.0 4000.0 4000.0 4000.0 4000.0 4000.0 4000.0 4000.0 4000.0 4000.0 4000.0 4000.0 4000.0 4000.0 4000.0 4000.0 4000.0 4000.0 4000.0 4000.0 4000.0 4000.0 4000.0 4000.0 4000.0 4000.0 4000.0 4000.0 4000.0 4000.0 4000.0 4000.0 4000.0 4000.0 4000.0 4000.0 4000.0 4000.0 4000.0 4000.0 4000.0 4000.0 4000.0 4000.0 4000.0 4000.0 4000.0 4000.0 4000.0 4000.0 4000.0 4000.0 4000.0 4000.0 4000.0 4000.0 4000.0 4000.0 4000.0 4000.0 4000.0 4000.0 4000.0 4000.0 4000.0 4000.0 4000.0 4000.0 4000.0 4000.0 4000.0 4000.0 4000.0 4000.0 4000.0 4000.0 4000.0 4000.0 4000.0 4000.0 4000.0 4000.0 4000.0 4000.0 4000.0 4000.0 4000.0 4000.0 4000.0 4000.0 4000.0 4000.0 4000.0 4000.0 4000.0 4000.0 4000.0 4000.0 4000.0 4000.0 4000.0 4000.0 4000.0 4000.0 4000.0 4000.0 4000.0 4000.0 4000.0 4000.0 4000.0 4000.0 4000.0 4000.0 4000.0 4000.0 4000.0 4000.0 4000.0 4000.0 4000.0 4000.0 4000.0 4000.0 4000.0 4000.0 4000.0 4000.0 4000.0 4000.0 4000.0 4000.0 4000.0 4000.0 4000.0 4000.0 4000.0 4000.0 4000.0 4000.0 4000.0 4000.0 4000.0 4000.0 4000.0 4000.0 4000.0 4000.0 4000.0 4000.0 4000.0 4000.0 4000.0 4000.0 4000.0 4000.0 4000.0 4000.0 4000.0 4000.0 4000.0 4000.0 4000.0 4000.0 4000.0 4000.0 4000.0 4000.0 4000.0 4000.0 4000.0 4000.0 4000.0 4000.0 4000.0 4000.0 4000.0 4000.0 4000.0 4000.0 4000.0 4000.0 4000.0 4000.0 4000.0 4000.0 4000.0 4000.0 4000.0 4000.0 4000.0 4000.0 4000.0 4000.0 4000.0 4000.0 4000.0 4000.0 4000.0 4000.0 4000.0 4000.0 4000.0 4000.0 4000.0 4000.0 4000.0 4000.0 4000.0 4000.0 4000.0 4000.0 4000.0 4000.0 4000.0 4000.0 4000.0 4000.0 4000.0 4000.0 4000.0 4000.0 4000.0 4000.0 4000.0 4000.0 4000.0 4000.0 4000.0 4000.0 4000.0 4000.0 4000.0 4000.0 4000.0 4000.0 4000.0 4000.0 4000.0 4000.0 4000.0 4000.0 4000.0 4000.0 4000.0 4000.0 4000.0 4000.0 4000.0 4000.0 4000.0 4000.0 4000.0 4000.0 4000.0 4000.0 4000.0 4000.0 4000.0 4000.0 4000.0 4000.0 4000.0 4000.0 4000.0 4000.0 4000.0 4000.0 4000.0 4000.0 4000.0 4000.0 4000.0 4000.0 4000.0 4000.0 4000.0 4000.0 4000.0 4000.0 4000.0 4000.0 4000.0 4000.0 4000.0 4000.0 4000.0 4000.0 4000.0 4000.0 4000.0 4000.0 4000.0 4000.0 4000.0 4000.0 4000.0 4000.0 4000.0 4000.0 4000.0 4000.0 4000.0 4000.0 4000.0 4000.0 4000.0 4000.0 4000.0 4000.0 4000.0 4000.0 4000.0 4000.0 4000.0 4000.0 4000.0 4000.0 4000.0 4000.0 4000.0 4000.0 4000.0 4000.0 4000.0 4000.0 4000.0 4000.0 4000.0 4000.0 4000.0 4000.0 4000.0 4000.0 4000.0 4000.0 4000.0 4000.0 4000.0 4000.0 4000.0 4000.0 4000.0 4000.0 4000.0 4000.0 4000.0 4000.0 4000.0 4000.0 4000.0 4000.0 4000.0 4000.0 4000.0 4000.0 4000.0 4000.0 4000.0 4000.0 4000.0 4000.0 4000.0 4000.0 4000.0 4000.0 4000.0 4000.0 4000.0 4000.0 4000.0 4000.0 4000.0 4000.0 4000.0 4000.0 4000.0 4000.0 4000.0 4000.0 4000.0 4000.0 4000.0 4000.0 4000.0 4000.0 4000.0 4000.0 4000.0 4000.0 4000.0 4000.0 4000.0 4000.0 4000.0 4000.0 4000.0 4000.0 4000.0 4000.0 4000.0 4000.0 4000.0 4000.0 4000.0 4000.0 4000.0 4000.0 4000.0 4000.0 4000.0 4000.0 4000.0 4000.0 4000.0 4000.0 4000.0 4000.0 4000.0 4000.0 4000.0 4000.0 4000.0 4000.0 4000.0 4000.0 4000.0 4000.0 4000.0 4000.0 4000.0 4000.0 4000.0 4000.0 4000.0 4000.0 4000.0 4000.0 4000.0 4000.0 4000.0 4000.0 4000.0 4000.0 4000.0 4000.0 4000.0 4000.0 4000.0 4000.0 4000.0 4000.0 4000.0 4000.0 4000.0 4000.0 4000.0 4000.0 4000.0 4000.0 4000.0 4000.0 4000.0 4000.0 4000.0 4000.0 4000.0 4000.0 4000.0 4000.0 4000.0 4000.0 4000.0 4000.0 4000.0 4000.0 4000.0 4000.0 4000.0 4000.0 4000.0 4000.0 4000.0 4000.0 4000.0 4000.0 4000.0 4000.0 4000.0 4000.0 4000.0 4000.0 4000.0 4000.0 4000.0 4000.0 4000.0 4000.0 4000.0 4000.0 4000.0 4000.0 4000.0 4000.0 4000.0 4000.0 4000.0 4000.0 4000.0 4000.0 4000.0 4000.0 4000.0 4000.0 4000.0 4000.0 4000.0 4000.0 4000.0 4000.0 4000.0 4000.0 4000.0 4000.0 4000.0 4000.0 4000.0 4000.0 4000.0 4000.0 4000.0 4000.0 4000.0 4000.0 4000.0 4000.0 4000.0 4000.0 4000.0 4000.0 4000.0 4000.0 4000.0 4000.0 4000.0 4000.0 4000.0 4000.0 4000.0 4000.0 4000.0 4000.0 4000.0 4000.0 4000.0 4000.0 4000.0 4000.0 4000.0 4000.0 4000.0 4000.0 4000.0 4000.0 4000.0 4000.0 4000.0 4000.0 4000.0 4000.0 4000.0 4000.0 4000.0 4000.0 4000.0 4000.0 4000.0 4000.0 4000.0 4000.0 4000.0 4000.0 4000.0 4000.0 4000.0 4000.0 4000.0 4000.0 4000.0 4000.0 4000.0 4000.0 4000.0 4000.0 4000.0 4000.0 4000.0 4000.0 4000.0 4000.0 4000.0 4000.0 4000.0 4000.0 4000.0 4000.0 4000.0 4000.0 4000.0 4000.0 4000.0 4000.0 4000.0 4000.0 4000.0 4000.0 4000.0 4000.0 4000.0 4000.0 4000.0 4000.0 4000.0 4000.0 4000.0 4000.0 4000.0 4000.0 4000.0 4000.0 4000.0 4000.0 4000.0 4000.0 4000.0 4000.0 4000.0 4000.0 4000.0 4000.0 4000.0 4000.0 4000.0 4000.0 4000.0 4000.0 4000.0 4000.0 4000.0 4000.0 4000.0 4000.0 4000.0 4000.0 4000.0 4000.0 4000.0 4000.0 4000.0 4000.0 4000.0 4000.0 4000.0 4000.0 4000.0 4000.0 4000.0 4000.0 4000.0 4000.0 4000.0 4000.0 4000.0 4000.0 4000.0 4000.0 4000.0 4000.0 4000.0 4000.0 4000.0 4000.0 4000.0 4000.0 4000.0 4000.0 4000.0 4000.0 4000.0 4000.0 4000.0 4000.0 4000.0 4000.0 4000.0 4000.0 4000.0 4000.0 4000.0 4000.0 4000.0 4000.0 4000.0 4000.0 4000.0 4000.0 4000.0 4000.0 4000.0 4000.0 4000.0 4000.0 4000.0 4000.0 4000.0 4000.0 4000.0 4000.0 4000.0 4000.0 4000.0 4000.0 4000.0 4000.0 4000.0 4000.0 4000.0 4000.0 4000.0 4000.0 4000.0 4000.0 4000.0 4000.0 4000.0 4000.0 4000.0 4000.0 4000.0 4000.0 4000.0 4000.0 4000.0 4000.0 4000.0 4000.0 4000.0 4000.0 4000.0 4000.0 4000.0 4000.0 4000.0 4000.0 4000.0 4000.0 4000.0 4000.0 4000.0 4000.0 4000.0 4000.0 4000.0 4000.0 4000.0 4000.0 4000.0 4000.0 4000.0 4000.0 4000.0 4000.0 4000.0 4000.0 4000.0 4000.0 4000.0 4000.0 4000.0 4000.0 4000.0 4000.0 4000.0 4000.0 4000.0 4000.0 4000.0 4000.0 4000.0 4000.0 4000.0 4000.0 4000.0 4000.0 4000.0 4000.0 4000.0 4000.0 4000.0 4000.0 4000.0 4000.0 4000.0 4000.0 4000.0 4000.0 4000.0 4000.0 4000.0 4000.0 4000.0 4000.0 4000.0 4000.0 4000.0 4000.0 4000.0 4000.0 4000.0 4000.0 4000.0 4000.0 4000.0 4000.0 4000.0 4000.0 4000.0 4000.0 4000.0 4000.0 4000.0 4000.0 4000.0 4000.0 4000.0 4000.0 4000.0 4000.0 4000.0 4000.0 4000.0 4000.0 4000.0 4000.0 4000.0 4000.0 4000.0 4000.0 4000.0 4000.0 4000.0 4000.0 4000.0 4000.0 4000.0 4000.0 4000.0 4000.0 4000.0 4000.0 4000.0 4000.0 4000.0 4000.0 4000.0 4000.0 4000.0 4000.0 4000.0 4000.0 4000.0 4000.0 4000.0 4000.0 4000.0 4000.0 4000.0 4000.0 4000.0 4000.0 4000.0 4000.0 4000.0 4000.0 4000.0 4000.0 4000.0 4000.0 4000.0 4000.0 4000.0 4000.0 4000.0 4000.0 4000.0 4000.0 4000.0 4000.0 4000.0 4000.0 4000.0 4000.0 4000.0 4000.0 4000.0 4000.0 4000.0 4000.0 4000.0 4000.0 4000.0 4000.0 4000.0 4000.0 4000.0 4000.0 4000.0 4000.0 4000.0 4000.0 4000.0 4000.0 4000.0 4000.0 4000.0 4000.0 4000.0 4000.0 4000.0 4000.0 4000.0 4000.0 4000.0 4000.0 4000.0 4000.0 4000.0 4000.0 4000.0 4000.0 4000.0 4000.0 4000.0 4000.0 4000.0 4000.0 4000.0 4000.0 4000.0 4000.0 4000.0 4000.0 4000.0 4000.0 4000.0 4000.0 4000.0 4000.0 4000.0 4000.0 4000.0 4000.0 4000.0 4000.0 4000.0 4000.0 4000.0 4000.0 4000.0 4000.0 4000.0 4000.0 4000.0 4000.0 4000.0 4000.0 4000.0 4000.0 4000.0 4000.0 4000.0 4000.0 4000.0 4000.0 4000.0 4000.0 4000.0 4000.0 4000.0 4000.0 4000.0 4000.0 4000.0 4000.0 4000.0 4000.0 4000.0 4000.0 4000.0 4000.0 4000.0 4000.0 4000.0 4000.0 4000.0 SCALARS Mass float 1
LOOKUP_TABLE default
11309700000.0 11309700000.0 11309700000.0 11309700000.0 11309700000.0 11309700000.0 11309700000.0 11309700000.0 11309700000.0 11309700000.0 11309700000.0 11309700000.0 11309700000.0 11309700000.0 11309700000.0 11309700000.0 11309700000.0 11309700000.0 11309700000.0 11309700000.0 11309700000.0 11309700000.0 11309700000.0 11309700000.0 11309700000.0 11309700000.0 11309700000.0 11309700000.0 11309700000.0 11309700000.0 11309700000.0 11309700000.0 11309700000.0 11309700000.0 11309700000.0 11309700000.0 11309700000.0 11309700000.0 11309700000.0 11309700000.0 11309700000.0 11309700000.0 11309700000.0 11309700000.0 11309700000.0 11309700000.0 11309700000.0 11309700000.0 11309700000.0 11309700000.0 11309700000.0 11309700000.0 11309700000.0 11309700000.0 11309700000.0 11309700000.0 11309700000.0 11309700000.0 11309700000.0 11309700000.0 11309700000.0 11309700000.0 11309700000.0 11309700000.0 11309700000.0 11309700000.0 11309700000.0 11309700000.0 11309700000.0 11309700000.0 11309700000.0 11309700000.0 11309700000.0 11309700000.0 11309700000.0 11309700000.0 11309700000.0 11309700000.0 11309700000.0 11309700000.0 11309700000.0 11309700000.0 11309700000.0 11309700000.0 11309700000.0 11309700000.0 11309700000.0 11309700000.0 11309700000.0 11309700000.0 11309700000.0 11309700000.0 11309700000.0 11309700000.0 11309700000.0 11309700000.0 11309700000.0 11309700000.0 11309700000.0 11309700000.0 11309700000.0 11309700000.0 11309700000.0 11309700000.0 11309700000.0 11309700000.0 11309700000.0 11309700000.0 11309700000.0 11309700000.0 11309700000.0 11309700000.0 11309700000.0 11309700000.0 11309700000.0 11309700000.0 11309700000.0 11309700000.0 11309700000.0 11309700000.0 11309700000.0 11309700000.0 11309700000.0 11309700000.0 11309700000.0 11309700000.0 11309700000.0 11309700000.0 11309700000.0 11309700000.0 11309700000.0 11309700000.0 11309700000.0 11309700000.0 11309700000.0 11309700000.0 11309700000.0 11309700000.0 11309700000.0 11309700000.0 11309700000.0 11309700000.0 11309700000.0 11309700000.0 11309700000.0 11309700000.0 11309700000.0 11309700000.0 11309700000.0 11309700000.0 11309700000.0 11309700000.0 11309700000.0 11309700000.0 11309700000.0 11309700000.0 11309700000.0 11309700000.0 11309700000.0 11309700000.0 11309700000.0 11309700000.0 11309700000.0 11309700000.0 11309700000.0 11309700000.0 11309700000.0 11309700000.0 11309700000.0 11309700000.0 11309700000.0 11309700000.0 11309700000.0 11309700000.0 11309700000.0 11309700000.0 11309700000.0 11309700000.0 11309700000.0 11309700000.0 11309700000.0 11309700000.0 11309700000.0 11309700000.0 11309700000.0 11309700000.0 11309700000.0 11309700000.0 11309700000.0 11309700000.0 11309700000.0 11309700000.0 11309700000.0 11309700000.0 11309700000.0 11309700000.0 11309700000.0 11309700000.0 11309700000.0 11309700000.0 11309700000.0 11309700000.0 11309700000.0 11309700000.0 11309700000.0 11309700000.0 11309700000.0 11309700000.0 11309700000.0 11309700000.0 11309700000.0 11309700000.0 11309700000.0 11309700000.0 11309700000.0 11309700000.0 11309700000.0 11309700000.0 11309700000.0 11309700000.0 11309700000.0 11309700000.0 11309700000.0 11309700000.0 11309700000.0 11309700000.0 11309700000.0 11309700000.0 11309700000.0 11309700000.0 11309700000.0 11309700000.0 11309700000.0 11309700000.0 11309700000.0 11309700000.0 11309700000.0 11309700000.0 11309700000.0 11309700000.0 11309700000.0 11309700000.0 11309700000.0 11309700000.0 11309700000.0 11309700000.0 11309700000.0 11309700000.0 11309700000.0 11309700000.0 11309700000.0 11309700000.0 11309700000.0 11309700000.0 11309700000.0 11309700000.0 11309700000.0 11309700000.0 11309700000.0 11309700000.0 11309700000.0 11309700000.0 11309700000.0 11309700000.0 11309700000.0 11309700000.0 11309700000.0 11309700000.0 11309700000.0 11309700000.0 11309700000.0 11309700000.0 11309700000.0 11309700000.0 11309700000.0 11309700000.0 11309700000.0 11309700000.0 11309700000.0 11309700000.0 11309700000.0 11309700000.0 11309700000.0 11309700000.0 11309700000.0 11309700000.0 11309700000.0 11309700000.0 11309700000.0 11309700000.0 11309700000.0 11309700000.0 11309700000.0 11309700000.0 11309700000.0 11309700000.0 11309700000.0 11309700000.0 11309700000.0 11309700000.0 11309700000.0 11309700000.0 11309700000.0 11309700000.0 11309700000.0 11309700000.0 11309700000.0 11309700000.0 11309700000.0 11309700000.0 11309700000.0 11309700000.0 11309700000.0 11309700000.0 11309700000.0 11309700000.0 11309700000.0 11309700000.0 11309700000.0 11309700000.0 11309700000.0 11309700000.0 11309700000.0 11309700000.0 11309700000.0 11309700000.0 11309700000.0 11309700000.0 11309700000.0 11309700000.0 11309700000.0 11309700000.0 11309700000.0 11309700000.0 11309700000.0 11309700000.0 11309700000.0 11309700000.0 11309700000.0 11309700000.0 11309700000.0 11309700000.0 11309700000.0 11309700000.0 11309700000.0 11309700000.0 11309700000.0 11309700000.0 11309700000.0 11309700000.0 11309700000.0 11309700000.0 11309700000.0 11309700000.0 11309700000.0 11309700000.0 11309700000.0 11309700000.0 11309700000.0 11309700000.0 11309700000.0 11309700000.0 11309700000.0 11309700000.0 11309700000.0 11309700000.0 11309700000.0 11309700000.0 11309700000.0 11309700000.0 11309700000.0 11309700000.0 11309700000.0 11309700000.0 11309700000.0 11309700000.0 11309700000.0 11309700000.0 11309700000.0 11309700000.0 11309700000.0 11309700000.0 11309700000.0 11309700000.0 11309700000.0 11309700000.0 11309700000.0 11309700000.0 11309700000.0 11309700000.0 11309700000.0 11309700000.0 11309700000.0 11309700000.0 11309700000.0 11309700000.0 11309700000.0 11309700000.0 11309700000.0 11309700000.0 11309700000.0 11309700000.0 11309700000.0 11309700000.0 11309700000.0 11309700000.0 11309700000.0 11309700000.0 11309700000.0 11309700000.0 11309700000.0 11309700000.0 11309700000.0 11309700000.0 11309700000.0 11309700000.0 11309700000.0 11309700000.0 11309700000.0 11309700000.0 11309700000.0 11309700000.0 11309700000.0 11309700000.0 11309700000.0 11309700000.0 11309700000.0 11309700000.0 11309700000.0 11309700000.0 11309700000.0 11309700000.0 11309700000.0 11309700000.0 11309700000.0 11309700000.0 11309700000.0 11309700000.0 11309700000.0 11309700000.0 11309700000.0 11309700000.0 11309700000.0 11309700000.0 11309700000.0 11309700000.0 11309700000.0 11309700000.0 11309700000.0 11309700000.0 11309700000.0 11309700000.0 11309700000.0 11309700000.0 11309700000.0 11309700000.0 11309700000.0 11309700000.0 11309700000.0 11309700000.0 11309700000.0 11309700000.0 11309700000.0 11309700000.0 11309700000.0 11309700000.0 11309700000.0 11309700000.0 11309700000.0 11309700000.0 11309700000.0 11309700000.0 11309700000.0 11309700000.0 11309700000.0 11309700000.0 11309700000.0 11309700000.0 11309700000.0 11309700000.0 11309700000.0 11309700000.0 11309700000.0 11309700000.0 11309700000.0 11309700000.0 11309700000.0 11309700000.0 11309700000.0 11309700000.0 11309700000.0 11309700000.0 11309700000.0 11309700000.0 11309700000.0 11309700000.0 11309700000.0 11309700000.0 11309700000.0 11309700000.0 11309700000.0 11309700000.0 11309700000.0 11309700000.0 11309700000.0 11309700000.0 11309700000.0 11309700000.0 11309700000.0 11309700000.0 11309700000.0 11309700000.0 11309700000.0 11309700000.0 11309700000.0 11309700000.0 11309700000.0 11309700000.0 11309700000.0 11309700000.0 11309700000.0 11309700000.0 11309700000.0 11309700000.0 11309700000.0 11309700000.0 11309700000.0 11309700000.0 11309700000.0 11309700000.0 11309700000.0 11309700000.0 11309700000.0 11309700000.0 11309700000.0 11309700000.0 11309700000.0 11309700000.0 11309700000.0 11309700000.0 11309700000.0 11309700000.0 11309700000.0 11309700000.0 11309700000.0 11309700000.0 11309700000.0 11309700000.0 11309700000.0 11309700000.0 11309700000.0 11309700000.0 11309700000.0 11309700000.0 11309700000.0 11309700000.0 11309700000.0 11309700000.0 11309700000.0 11309700000.0 11309700000.0 11309700000.0 11309700000.0 11309700000.0 11309700000.0 11309700000.0 11309700000.0 11309700000.0 11309700000.0 11309700000.0 11309700000.0 11309700000.0 11309700000.0 11309700000.0 11309700000.0 11309700000.0 11309700000.0 11309700000.0 11309700000.0 11309700000.0 11309700000.0 11309700000.0 11309700000.0 11309700000.0 11309700000.0 11309700000.0 11309700000.0 11309700000.0 11309700000.0 11309700000.0 11309700000.0 11309700000.0 11309700000.0 11309700000.0 11309700000.0 11309700000.0 11309700000.0 11309700000.0 11309700000.0 11309700000.0 11309700000.0 11309700000.0 11309700000.0 11309700000.0 11309700000.0 11309700000.0 11309700000.0 11309700000.0 11309700000.0 11309700000.0 11309700000.0 11309700000.0 11309700000.0 11309700000.0 11309700000.0 11309700000.0 11309700000.0 11309700000.0 11309700000.0 11309700000.0 11309700000.0 11309700000.0 11309700000.0 11309700000.0 11309700000.0 11309700000.0 11309700000.0 11309700000.0 11309700000.0 11309700000.0 11309700000.0 11309700000.0 11309700000.0 11309700000.0 11309700000.0 11309700000.0 11309700000.0 11309700000.0 11309700000.0 11309700000.0 11309700000.0 11309700000.0 11309700000.0 11309700000.0 11309700000.0 11309700000.0 11309700000.0 11309700000.0 11309700000.0 11309700000.0 11309700000.0 11309700000.0 11309700000.0 11309700000.0 11309700000.0 11309700000.0 11309700000.0 11309700000.0 11309700000.0 11309700000.0 11309700000.0 11309700000.0 11309700000.0 11309700000.0 11309700000.0 11309700000.0 11309700000.0 11309700000.0 11309700000.0 11309700000.0 11309700000.0 11309700000.0 11309700000.0 11309700000.0 11309700000.0 11309700000.0 11309700000.0 11309700000.0 11309700000.0 11309700000.0 11309700000.0 11309700000.0 11309700000.0 11309700000.0 11309700000.0 11309700000.0 11309700000.0 11309700000.0 11309700000.0 11309700000.0 11309700000.0 11309700000.0 11309700000.0 11309700000.0 11309700000.0 11309700000.0 11309700000.0 11309700000.0 11309700000.0 11309700000.0 11309700000.0 11309700000.0 11309700000.0 11309700000.0 11309700000.0 11309700000.0 11309700000.0 11309700000.0 11309700000.0 11309700000.0 11309700000.0 11309700000.0 11309700000.0 11309700000.0 11309700000.0 11309700000.0 11309700000.0 11309700000.0 11309700000.0 11309700000.0 11309700000.0 11309700000.0 11309700000.0 11309700000.0 11309700000.0 11309700000.0 11309700000.0 11309700000.0 11309700000.0 11309700000.0 11309700000.0 11309700000.0 11309700000.0 11309700000.0 11309700000.0 11309700000.0 11309700000.0 11309700000.0 11309700000.0 11309700000.0 11309700000.0 11309700000.0 11309700000.0 11309700000.0 11309700000.0 11309700000.0 11309700000.0 11309700000.0 11309700000.0 11309700000.0 11309700000.0 11309700000.0 11309700000.0 11309700000.0 11309700000.0 11309700000.0 11309700000.0 11309700000.0 11309700000.0 11309700000.0 11309700000.0 11309700000.0 11309700000.0 11309700000.0 11309700000.0 11309700000.0 11309700000.0 11309700000.0 11309700000.0 11309700000.0 11309700000.0 11309700000.0 11309700000.0 11309700000.0 11309700000.0 11309700000.0 11309700000.0 11309700000.0 11309700000.0 11309700000.0 11309700000.0 11309700000.0 11309700000.0 11309700000.0 11309700000.0 11309700000.0 11309700000.0 11309700000.0 11309700000.0 11309700000.0 11309700000.0 11309700000.0 11309700000.0 11309700000.0 11309700000.0 11309700000.0 11309700000.0 11309700000.0 11309700000.0 11309700000.0 11309700000.0 11309700000.0 11309700000.0 11309700000.0 11309700000.0 11309700000.0 11309700000.0 11309700000.0 11309700000.0 11309700000.0 11309700000.0 11309700000.0 11309700000.0 11309700000.0 11309700000.0 11309700000.0 11309700000.0 11309700000.0 11309700000.0 11309700000.0 11309700000.0 11309700000.0 11309700000.0 11309700000.0 11309700000.0 11309700000.0 11309700000.0 11309700000.0 11309700000.0 11309700000.0 11309700000.0 11309700000.0 11309700000.0 11309700000.0 11309700000.0 11309700000.0 11309700000.0 11309700000.0 11309700000.0 11309700000.0 11309700000.0 11309700000.0 11309700000.0 11309700000.0 11309700000.0 11309700000.0 11309700000.0 11309700000.0 11309700000.0 11309700000.0 11309700000.0 11309700000.0 11309700000.0 11309700000.0 11309700000.0 11309700000.0 11309700000.0 11309700000.0 11309700000.0 11309700000.0 11309700000.0 11309700000.0 11309700000.0 11309700000.0 11309700000.0 11309700000.0 11309700000.0 11309700000.0 11309700000.0 11309700000.0 11309700000.0 11309700000.0 11309700000.0 11309700000.0 11309700000.0 11309700000.0 11309700000.0 11309700000.0 11309700000.0 11309700000.0 11309700000.0 11309700000.0 11309700000.0 11309700000.0 11309700000.0 11309700000.0 11309700000.0 11309700000.0 11309700000.0 11309700000.0 11309700000.0 11309700000.0 11309700000.0 11309700000.0 11309700000.0 11309700000.0 11309700000.0 11309700000.0 11309700000.0 11309700000.0 11309700000.0 11309700000.0 11309700000.0 11309700000.0 11309700000.0 11309700000.0 11309700000.0 11309700000.0 11309700000.0 11309700000.0 11309700000.0 11309700000.0 11309700000.0 11309700000.0 11309700000.0 11309700000.0 11309700000.0 11309700000.0 11309700000.0 11309700000.0 11309700000.0 11309700000.0 11309700000.0 11309700000.0 11309700000.0 11309700000.0 11309700000.0 11309700000.0 11309700000.0 11309700000.0 11309700000.0 11309700000.0 11309700000.0 11309700000.0 11309700000.0 11309700000.0 11309700000.0 11309700000.0 11309700000.0 11309700000.0 11309700000.0 11309700000.0 11309700000.0 11309700000.0 11309700000.0 11309700000.0 11309700000.0 11309700000.0 11309700000.0 11309700000.0 11309700000.0 11309700000.0 11309700000.0 11309700000.0 11309700000.0 11309700000.0 11309700000.0 11309700000.0 11309700000.0 11309700000.0 11309700000.0 11309700000.0 11309700000.0 11309700000.0 11309700000.0 11309700000.0 11309700000.0 11309700000.0 11309700000.0 11309700000.0 11309700000.0 11309700000.0 11309700000.0 11309700000.0 11309700000.0 11309700000.0 11309700000.0 11309700000.0 11309700000.0 11309700000.0 11309700000.0 11309700000.0 11309700000.0 11309700000.0 11309700000.0 11309700000.0 11309700000.0 11309700000.0 11309700000.0 11309700000.0 11309700000.0 11309700000.0 11309700000.0 11309700000.0 11309700000.0 11309700000.0 11309700000.0 11309700000.0 11309700000.0 11309700000.0 11309700000.0 11309700000.0 11309700000.0 11309700000.0 11309700000.0 11309700000.0 11309700000.0 11309700000.0 11309700000.0 11309700000.0 11309700000.0 11309700000.0 11309700000.0 11309700000.0 11309700000.0 11309700000.0 11309700000.0 11309700000.0 11309700000.0 11309700000.0 11309700000.0 11309700000.0 11309700000.0 11309700000.0 11309700000.0 11309700000.0 11309700000.0 11309700000.0 11309700000.0 11309700000.0 11309700000.0 11309700000.0 11309700000.0 11309700000.0 11309700000.0 11309700000.0 11309700000.0 11309700000.0 11309700000.0 11309700000.0 11309700000.0 11309700000.0 11309700000.0 11309700000.0 11309700000.0 11309700000.0 11309700000.0 11309700000.0 11309700000.0 11309700000.0 11309700000.0 11309700000.0 11309700000.0 11309700000.0 11309700000.0 11309700000.0 11309700000.0 11309700000.0 11309700000.0 11309700000.0 11309700000.0 11309700000.0 11309700000.0 11309700000.0 11309700000.0 11309700000.0 11309700000.0 11309700000.0 11309700000.0 11309700000.0 11309700000.0 11309700000.0 11309700000.0 11309700000.0 11309700000.0 11309700000.0 11309700000.0 11309700000.0 11309700000.0 11309700000.0 11309700000.0 11309700000.0 11309700000.0 11309700000.0 11309700000.0 11309700000.0 11309700000.0 11309700000.0 11309700000.0 11309700000.0 11309700000.0 11309700000.0 11309700000.0 11309700000.0 11309700000.0 11309700000.0 11309700000.0 11309700000.0 11309700000.0 11309700000.0 11309700000.0 11309700000.0 11309700000.0 11309700000.0 11309700000.0 11309700000.0 11309700000.0 11309700000.0 11309700000.0 11309700000.0 11309700000.0 11309700000.0 11309700000.0 11309700000.0 11309700000.0 11309700000.0 11309700000.0 11309700000.0 11309700000.0 11309700000.0 11309700000.0 11309700000.0 11309700000.0 11309700000.0 11309700000.0 11309700000.0 11309700000.0 11309700000.0 11309700000.0 11309700000.0 11309700000.0 11309700000.0 11309700000.0 11309700000.0 11309700000.0 11309700000.0 11309700000.0 11309700000.0 11309700000.0 11309700000.0 11309700000.0 11309700000.0 11309700000.0 11309700000.0 11309700000.0 11309700000.0 11309700000.0 11309700000.0 11309700000.0 11309700000.0 11309700000.0 11309700000.0 11309700000.0 11309700000.0 11309700000.0 11309700000.0 11309700000.0 11309700000.0 11309700000.0 11309700000.0 11309700000.0 11309700000.0 11309700000.0 11309700000.0 11309700000.0 11309700000.0 11309700000.0 11309700000.0 11309700000.0 11309700000.0 11309700000.0 11309700000.0 11309700000.0 11309700000.0 11309700000.0 11309700000.0 11309700000.0 11309700000.0 11309700000.0 11309700000.0 11309700000.0 11309700000.0 11309700000.0 11309700000.0 11309700000.0 11309700000.0 11309700000.0 11309700000.0 11309700000.0 11309700000.0 11309700000.0 11309700000.0 11309700000.0 11309700000.0 11309700000.0 11309700000.0 11309700000.0 11309700000.0 11309700000.0 11309700000.0 11309700000.0 11309700000.0 11309700000.0 11309700000.0 11309700000.0 11309700000.0 11309700000.0 11309700000.0 11309700000.0 11309700000.0 11309700000.0 11309700000.0 11309700000.0 11309700000.0 11309700000.0 11309700000.0 11309700000.0 11309700000.0 11309700000.0 11309700000.0 11309700000.0 11309700000.0 11309700000.0 11309700000.0 11309700000.0 11309700000.0 11309700000.0 11309700000.0 11309700000.0 11309700000.0 11309700000.0 11309700000.0 11309700000.0 11309700000.0 11309700000.0 11309700000.0 11309700000.0 11309700000.0 11309700000.0 11309700000.0 11309700000.0 11309700000.0 11309700000.0 11309700000.0 11309700000.0 11309700000.0 11309700000.0 11309700000.0 11309700000.0 11309700000.0 11309700000.0 11309700000.0 11309700000.0 11309700000.0 11309700000.0 11309700000.0 11309700000.0 11309700000.0 11309700000.0 11309700000.0 11309700000.0 11309700000.0 11309700000.0 11309700000.0 11309700000.0 11309700000.0 11309700000.0 11309700000.0 11309700000.0 11309700000.0 11309700000.0 11309700000.0 11309700000.0 11309700000.0 11309700000.0 11309700000.0 11309700000.0 11309700000.0 11309700000.0 11309700000.0 11309700000.0 11309700000.0 11309700000.0 11309700000.0 11309700000.0 11309700000.0 11309700000.0 11309700000.0 11309700000.0 11309700000.0 11309700000.0 11309700000.0 11309700000.0 11309700000.0 11309700000.0 11309700000.0 11309700000.0 11309700000.0 11309700000.0 11309700000.0 11309700000.0 11309700000.0 11309700000.0 11309700000.0 11309700000.0 11309700000.0 11309700000.0 11309700000.0 11309700000.0 11309700000.0 11309700000.0 11309700000.0 11309700000.0 11309700000.0 11309700000.0 11309700000.0 11309700000.0 11309700000.0 11309700000.0 11309700000.0 11309700000.0 11309700000.0 11309700000.0 11309700000.0 11309700000.0 11309700000.0 11309700000.0 11309700000.0 11309700000.0 11309700000.0 11309700000.0 11309700000.0 11309700000.0 11309700000.0 11309700000.0 11309700000.0 11309700000.0 11309700000.0 11309700000.0 11309700000.0 11309700000.0 11309700000.0 11309700000.0 11309700000.0 11309700000.0 11309700000.0 11309700000.0 11309700000.0 11309700000.0 11309700000.0 11309700000.0 11309700000.0 11309700000.0 11309700000.0 11309700000.0 11309700000.0 11309700000.0 11309700000.0 11309700000.0 11309700000.0 11309700000.0 11309700000.0 11309700000.0 11309700000.0 11309700000.0 11309700000.0 11309700000.0 11309700000.0 11309700000.0 11309700000.0 11309700000.0 11309700000.0 11309700000.0 11309700000.0 11309700000.0 11309700000.0 11309700000.0 11309700000.0 11309700000.0 11309700000.0 11309700000.0 11309700000.0 11309700000.0 11309700000.0 11309700000.0 11309700000.0 11309700000.0 11309700000.0 11309700000.0 11309700000.0 11309700000.0 11309700000.0 11309700000.0 11309700000.0 11309700000.0 11309700000.0 11309700000.0 11309700000.0 11309700000.0 11309700000.0 11309700000.0 11309700000.0 11309700000.0 11309700000.0 11309700000.0 11309700000.0 11309700000.0 11309700000.0 11309700000.0 11309700000.0 11309700000.0 11309700000.0 11309700000.0 11309700000.0 11309700000.0 11309700000.0 11309700000.0 11309700000.0 11309700000.0 11309700000.0 11309700000.0 11309700000.0 11309700000.0 11309700000.0 11309700000.0 11309700000.0 11309700000.0 11309700000.0 11309700000.0 11309700000.0 11309700000.0 11309700000.0 11309700000.0 11309700000.0 11309700000.0 11309700000.0 11309700000.0 11309700000.0 11309700000.0 11309700000.0 11309700000.0 11309700000.0 11309700000.0 11309700000.0 11309700000.0 11309700000.0 11309700000.0 11309700000.0 11309700000.0 11309700000.0 11309700000.0 11309700000.0 11309700000.0 11309700000.0 11309700000.0 11309700000.0 11309700000.0 11309700000.0 11309700000.0 11309700000.0 11309700000.0 11309700000.0 11309700000.0 11309700000.0 11309700000.0 11309700000.0 11309700000.0 11309700000.0 11309700000.0 11309700000.0 11309700000.0 11309700000.0 11309700000.0 11309700000.0 11309700000.0 11309700000.0 11309700000.0 11309700000.0 11309700000.0 11309700000.0 11309700000.0 11309700000.0 11309700000.0 11309700000.0 11309700000.0 11309700000.0 11309700000.0 11309700000.0 11309700000.0 11309700000.0 11309700000.0 11309700000.0 11309700000.0 11309700000.0 11309700000.0 11309700000.0 11309700000.0 11309700000.0 11309700000.0 11309700000.0 11309700000.0 11309700000.0 11309700000.0 11309700000.0 11309700000.0 11309700000.0 11309700000.0 11309700000.0 11309700000.0 11309700000.0 11309700000.0 11309700000.0 11309700000.0 11309700000.0 11309700000.0 11309700000.0 11309700000.0 11309700000.0 11309700000.0 11309700000.0 11309700000.0 11309700000.0 11309700000.0 11309700000.0 11309700000.0 11309700000.0 11309700000.0 11309700000.0 11309700000.0 11309700000.0 11309700000.0 11309700000.0 11309700000.0 11309700000.0 11309700000.0 11309700000.0 11309700000.0 11309700000.0 11309700000.0 11309700000.0 11309700000.0 11309700000.0 11309700000.0 11309700000.0 11309700000.0 11309700000.0 11309700000.0 11309700000.0 11309700000.0 11309700000.0 11309700000.0 11309700000.0 11309700000.0 11309700000.0 11309700000.0 11309700000.0 11309700000.0 11309700000.0 11309700000.0 11309700000.0 11309700000.0 11309700000.0 11309700000.0 11309700000.0 11309700000.0 11309700000.0 11309700000.0 11309700000.0 11309700000.0 11309700000.0 11309700000.0 11309700000.0 11309700000.0 11309700000.0 11309700000.0 11309700000.0 11309700000.0 11309700000.0 11309700000.0 11309700000.0 11309700000.0 11309700000.0 11309700000.0 11309700000.0 11309700000.0 11309700000.0 11309700000.0 11309700000.0 11309700000.0 11309700000.0 11309700000.0 11309700000.0 11309700000.0 11309700000.0 11309700000.0 11309700000.0 11309700000.0 11309700000.0 11309700000.0 11309700000.0 11309700000.0 11309700000.0 11309700000.0 11309700000.0 11309700000.0 11309700000.0 11309700000.0 11309700000.0 11309700000.0 11309700000.0 11309700000.0 11309700000.0 11309700000.0 11309700000.0 11309700000.0 11309700000.0 11309700000.0 11309700000.0 11309700000.0 11309700000.0 11309700000.0 11309700000.0 11309700000.0 11309700000.0 11309700000.0 11309700000.0 11309700000.0 11309700000.0 11309700000.0 11309700000.0 11309700000.0 11309700000.0 11309700000.0 11309700000.0 11309700000.0 11309700000.0 11309700000.0 11309700000.0 11309700000.0 11309700000.0 11309700000.0 11309700000.0 11309700000.0 11309700000.0 11309700000.0 11309700000.0 11309700000.0 11309700000.0 11309700000.0 11309700000.0 11309700000.0 11309700000.0 11309700000.0 11309700000.0 11309700000.0 11309700000.0 11309700000.0 11309700000.0 11309700000.0 11309700000.0 11309700000.0 11309700000.0 11309700000.0 11309700000.0 11309700000.0 11309700000.0 11309700000.0 11309700000.0 11309700000.0 11309700000.0 11309700000.0 11309700000.0 11309700000.0 11309700000.0 11309700000.0 11309700000.0 11309700000.0 11309700000.0 11309700000.0 11309700000.0 11309700000.0 11309700000.0 11309700000.0 11309700000.0 11309700000.0 11309700000.0 11309700000.0 11309700000.0 11309700000.0 11309700000.0 11309700000.0 11309700000.0 11309700000.0 11309700000.0 11309700000.0 11309700000.0 11309700000.0 11309700000.0 11309700000.0 11309700000.0 11309700000.0 11309700000.0 11309700000.0 11309700000.0 11309700000.0 11309700000.0 11309700000.0 11309700000.0 11309700000.0 11309700000.0 11309700000.0 11309700000.0 11309700000.0 11309700000.0 11309700000.0 11309700000.0 11309700000.0 11309700000.0 11309700000.0 11309700000.0 11309700000.0 11309700000.0 11309700000.0 11309700000.0 11309700000.0 11309700000.0 11309700000.0 11309700000.0 11309700000.0 11309700000.0 11309700000.0 11309700000.0 11309700000.0 11309700000.0 11309700000.0 11309700000.0 11309700000.0 11309700000.0 11309700000.0 11309700000.0 11309700000.0 11309700000.0 11309700000.0 11309700000.0 11309700000.0 11309700000.0 11309700000.0 11309700000.0 11309700000.0 11309700000.0 11309700000.0 11309700000.0 11309700000.0 11309700000.0 11309700000.0 11309700000.0 11309700000.0 11309700000.0 11309700000.0 11309700000.0 11309700000.0 11309700000.0 11309700000.0 11309700000.0 11309700000.0 11309700000.0 11309700000.0 11309700000.0 11309700000.0 11309700000.0 11309700000.0 11309700000.0 11309700000.0 11309700000.0 11309700000.0 11309700000.0 11309700000.0 11309700000.0 11309700000.0 11309700000.0 11309700000.0 11309700000.0 11309700000.0 11309700000.0 11309700000.0 11309700000.0 11309700000.0 11309700000.0 11309700000.0 11309700000.0 11309700000.0 11309700000.0 11309700000.0 11309700000.0 11309700000.0 11309700000.0 11309700000.0 11309700000.0 11309700000.0 11309700000.0 11309700000.0 11309700000.0 11309700000.0 11309700000.0 11309700000.0 11309700000.0 11309700000.0 11309700000.0 11309700000.0 11309700000.0 11309700000.0 11309700000.0 11309700000.0 11309700000.0 11309700000.0 11309700000.0 11309700000.0 11309700000.0 11309700000.0 11309700000.0 11309700000.0 11309700000.0 11309700000.0 11309700000.0 11309700000.0 11309700000.0 11309700000.0 11309700000.0 11309700000.0 11309700000.0 11309700000.0 11309700000.0 11309700000.0 11309700000.0 11309700000.0 11309700000.0 11309700000.0 11309700000.0 11309700000.0 11309700000.0 11309700000.0 11309700000.0 11309700000.0 11309700000.0 11309700000.0 11309700000.0 11309700000.0 11309700000.0 11309700000.0 11309700000.0 11309700000.0 11309700000.0 11309700000.0 11309700000.0 11309700000.0 11309700000.0 11309700000.0 11309700000.0 11309700000.0 11309700000.0 11309700000.0 11309700000.0 11309700000.0 11309700000.0 11309700000.0 11309700000.0 11309700000.0 11309700000.0 11309700000.0 11309700000.0 11309700000.0 11309700000.0 11309700000.0 11309700000.0 11309700000.0 11309700000.0 11309700000.0 11309700000.0 11309700000.0 11309700000.0 11309700000.0 11309700000.0 11309700000.0 11309700000.0 11309700000.0 11309700000.0 11309700000.0 11309700000.0 11309700000.0 11309700000.0 11309700000.0 11309700000.0 11309700000.0 11309700000.0 11309700000.0 11309700000.0 11309700000.0 11309700000.0 11309700000.0 11309700000.0 11309700000.0 11309700000.0 11309700000.0 11309700000.0 11309700000.0 11309700000.0 11309700000.0 11309700000.0 11309700000.0 11309700000.0 11309700000.0 11309700000.0 11309700000.0 11309700000.0 11309700000.0 11309700000.0 11309700000.0 11309700000.0 11309700000.0 11309700000.0 11309700000.0 11309700000.0 11309700000.0 11309700000.0 11309700000.0 11309700000.0 11309700000.0 11309700000.0 11309700000.0 11309700000.0 11309700000.0 11309700000.0 11309700000.0 11309700000.0 11309700000.0 11309700000.0 11309700000.0 11309700000.0 11309700000.0 11309700000.0 11309700000.0 11309700000.0 11309700000.0 11309700000.0 11309700000.0 11309700000.0 11309700000.0 11309700000.0 11309700000.0 11309700000.0 11309700000.0 11309700000.0 11309700000.0 11309700000.0 11309700000.0 11309700000.0 11309700000.0 11309700000.0 11309700000.0 11309700000.0 11309700000.0 11309700000.0 11309700000.0 11309700000.0 11309700000.0 11309700000.0 11309700000.0 11309700000.0 11309700000.0 11309700000.0 11309700000.0 11309700000.0 11309700000.0 11309700000.0 11309700000.0 11309700000.0 11309700000.0 11309700000.0 11309700000.0 11309700000.0 11309700000.0 11309700000.0 11309700000.0 11309700000.0 11309700000.0 11309700000.0 11309700000.0 11309700000.0 11309700000.0 11309700000.0 11309700000.0 11309700000.0 11309700000.0 11309700000.0 11309700000.0 11309700000.0 11309700000.0 11309700000.0 11309700000.0 11309700000.0 11309700000.0 11309700000.0 11309700000.0 11309700000.0 11309700000.0 11309700000.0 11309700000.0 11309700000.0 11309700000.0 11309700000.0 11309700000.0 11309700000.0 11309700000.0 11309700000.0 11309700000.0 11309700000.0 11309700000.0 11309700000.0 11309700000.0 11309700000.0 11309700000.0 11309700000.0 11309700000.0 11309700000.0 11309700000.0 11309700000.0 11309700000.0 11309700000.0 11309700000.0 11309700000.0 11309700000.0 11309700000.0 11309700000.0 11309700000.0 11309700000.0 11309700000.0 11309700000.0 11309700000.0 11309700000.0 11309700000.0 11309700000.0 11309700000.0 11309700000.0 11309700000.0 11309700000.0 11309700000.0 11309700000.0 11309700000.0 11309700000.0 11309700000.0 11309700000.0 11309700000.0 11309700000.0 11309700000.0 11309700000.0 11309700000.0 11309700000.0 11309700000.0 11309700000.0 11309700000.0 11309700000.0 11309700000.0 11309700000.0 11309700000.0 11309700000.0 11309700000.0 11309700000.0 11309700000.0 11309700000.0 11309700000.0 11309700000.0 11309700000.0 11309700000.0 11309700000.0 11309700000.0 11309700000.0 11309700000.0 11309700000.0 11309700000.0 11309700000.0 11309700000.0 11309700000.0 11309700000.0 11309700000.0 11309700000.0 11309700000.0 11309700000.0 11309700000.0 11309700000.0 11309700000.0 11309700000.0 11309700000.0 11309700000.0 11309700000.0 11309700000.0 11309700000.0 11309700000.0 11309700000.0 11309700000.0 11309700000.0 11309700000.0 11309700000.0 11309700000.0 11309700000.0 11309700000.0 11309700000.0 11309700000.0 11309700000.0 11309700000.0 11309700000.0 11309700000.0 11309700000.0 11309700000.0 11309700000.0 11309700000.0 11309700000.0 11309700000.0 11309700000.0 11309700000.0 11309700000.0 11309700000.0 11309700000.0 11309700000.0 11309700000.0 11309700000.0 11309700000.0 11309700000.0 11309700000.0 11309700000.0 11309700000.0 11309700000.0 11309700000.0 11309700000.0 11309700000.0 11309700000.0 11309700000.0 11309700000.0 11309700000.0 11309700000.0 11309700000.0 11309700000.0 11309700000.0 11309700000.0 11309700000.0 11309700000.0 11309700000.0 11309700000.0 11309700000.0 11309700000.0 11309700000.0 11309700000.0 11309700000.0 11309700000.0 11309700000.0 11309700000.0 11309700000.0 11309700000.0 11309700000.0 11309700000.0 11309700000.0 11309700000.0 11309700000.0 11309700000.0 11309700000.0 11309700000.0 11309700000.0 11309700000.0 11309700000.0 11309700000.0 11309700000.0 11309700000.0 11309700000.0 11309700000.0 11309700000.0 11309700000.0 11309700000.0 11309700000.0 11309700000.0 11309700000.0 11309700000.0 11309700000.0 11309700000.0 11309700000.0 11309700000.0 11309700000.0 11309700000.0 11309700000.0 11309700000.0 11309700000.0 11309700000.0 11309700000.0 11309700000.0 11309700000.0 11309700000.0 11309700000.0 11309700000.0 11309700000.0 11309700000.0 11309700000.0 11309700000.0 11309700000.0 11309700000.0 11309700000.0 11309700000.0 11309700000.0 11309700000.0 11309700000.0 11309700000.0 11309700000.0 11309700000.0 11309700000.0 11309700000.0 11309700000.0 11309700000.0 11309700000.0 11309700000.0 11309700000.0 11309700000.0 11309700000.0 11309700000.0 11309700000.0 11309700000.0 11309700000.0 11309700000.0 11309700000.0 11309700000.0 11309700000.0 11309700000.0 11309700000.0 11309700000.0 11309700000.0 11309700000.0 11309700000.0 11309700000.0 11309700000.0 11309700000.0 11309700000.0 11309700000.0 11309700000.0 11309700000.0 11309700000.0 11309700000.0 11309700000.0 11309700000.0 11309700000.0 11309700000.0 11309700000.0 11309700000.0 11309700000.0 11309700000.0 11309700000.0 11309700000.0 11309700000.0 11309700000.0 11309700000.0 11309700000.0 11309700000.0 11309700000.0 11309700000.0 11309700000.0 11309700000.0 11309700000.0 11309700000.0 11309700000.0 11309700000.0 11309700000.0 11309700000.0 11309700000.0 11309700000.0 11309700000.0 11309700000.0 11309700000.0 11309700000.0 11309700000.0 11309700000.0 11309700000.0 11309700000.0 11309700000.0 11309700000.0 11309700000.0 11309700000.0 11309700000.0 11309700000.0 11309700000.0 11309700000.0 11309700000.0 11309700000.0 11309700000.0 11309700000.0 11309700000.0 11309700000.0 11309700000.0 11309700000.0 11309700000.0 11309700000.0 11309700000.0 11309700000.0 11309700000.0 11309700000.0 11309700000.0 11309700000.0 11309700000.0 11309700000.0 11309700000.0 11309700000.0 11309700000.0 11309700000.0 11309700000.0 11309700000.0 11309700000.0 11309700000.0 11309700000.0 11309700000.0 11309700000.0 11309700000.0 11309700000.0 11309700000.0 11309700000.0 11309700000.0 11309700000.0 11309700000.0 11309700000.0 11309700000.0 11309700000.0 11309700000.0 11309700000.0 11309700000.0 11309700000.0 11309700000.0 11309700000.0 11309700000.0 11309700000.0 11309700000.0 11309700000.0 11309700000.0 11309700000.0 11309700000.0 11309700000.0 11309700000.0 11309700000.0 11309700000.0 11309700000.0 11309700000.0 11309700000.0 11309700000.0 11309700000.0 11309700000.0 11309700000.0 11309700000.0 11309700000.0 11309700000.0 11309700000.0 11309700000.0 11309700000.0 11309700000.0 11309700000.0 11309700000.0 11309700000.0 11309700000.0 11309700000.0 11309700000.0 11309700000.0 11309700000.0 11309700000.0 11309700000.0 11309700000.0 11309700000.0 11309700000.0 11309700000.0 11309700000.0 11309700000.0 11309700000.0 11309700000.0 11309700000.0 11309700000.0 11309700000.0 11309700000.0 11309700000.0 11309700000.0 11309700000.0 11309700000.0 11309700000.0 11309700000.0 11309700000.0 11309700000.0 11309700000.0 11309700000.0 11309700000.0 11309700000.0 11309700000.0 11309700000.0 11309700000.0 11309700000.0 11309700000.0 11309700000.0 11309700000.0 11309700000.0 11309700000.0 11309700000.0 11309700000.0 11309700000.0 11309700000.0 11309700000.0 11309700000.0 11309700000.0 11309700000.0 11309700000.0 11309700000.0 11309700000.0 11309700000.0 11309700000.0 11309700000.0 11309700000.0 11309700000.0 11309700000.0 11309700000.0 11309700000.0 11309700000.0 11309700000.0 11309700000.0 11309700000.0 11309700000.0 11309700000.0 11309700000.0 11309700000.0 11309700000.0 11309700000.0 11309700000.0 11309700000.0 11309700000.0 11309700000.0 11309700000.0 11309700000.0 11309700000.0 11309700000.0 11309700000.0 11309700000.0 11309700000.0 11309700000.0 11309700000.0 11309700000.0 11309700000.0 11309700000.0 11309700000.0 11309700000.0 11309700000.0 11309700000.0 11309700000.0 11309700000.0 11309700000.0 11309700000.0 11309700000.0 11309700000.0 11309700000.0 11309700000.0 11309700000.0 11309700000.0 11309700000.0 11309700000.0 11309700000.0 11309700000.0 11309700000.0 11309700000.0 11309700000.0 11309700000.0 11309700000.0 11309700000.0 11309700000.0 11309700000.0 11309700000.0 11309700000.0 11309700000.0 11309700000.0 11309700000.0 11309700000.0 11309700000.0 11309700000.0 11309700000.0 11309700000.0 11309700000.0 11309700000.0 11309700000.0 11309700000.0 11309700000.0 11309700000.0 11309700000.0 11309700000.0 11309700000.0 11309700000.0 11309700000.0 11309700000.0 11309700000.0 11309700000.0 11309700000.0 11309700000.0 11309700000.0 11309700000.0 11309700000.0 11309700000.0 11309700000.0 11309700000.0 11309700000.0 11309700000.0 11309700000.0 11309700000.0 11309700000.0 11309700000.0 11309700000.0 11309700000.0 11309700000.0 11309700000.0 11309700000.0 11309700000.0 11309700000.0 11309700000.0 11309700000.0 11309700000.0 11309700000.0 11309700000.0 11309700000.0 11309700000.0 11309700000.0 11309700000.0 11309700000.0 11309700000.0 11309700000.0 11309700000.0 11309700000.0 11309700000.0 11309700000.0 11309700000.0 11309700000.0 11309700000.0 11309700000.0 11309700000.0 11309700000.0 11309700000.0 11309700000.0 11309700000.0 11309700000.0 11309700000.0 11309700000.0 11309700000.0 11309700000.0 11309700000.0 11309700000.0 11309700000.0 11309700000.0 11309700000.0 11309700000.0 11309700000.0 11309700000.0 11309700000.0 11309700000.0 11309700000.0 11309700000.0 11309700000.0 11309700000.0 11309700000.0 11309700000.0 11309700000.0 11309700000.0 11309700000.0 11309700000.0 11309700000.0 11309700000.0 11309700000.0 11309700000.0 11309700000.0 11309700000.0 11309700000.0 11309700000.0 11309700000.0 11309700000.0 11309700000.0 11309700000.0 11309700000.0 11309700000.0 11309700000.0 11309700000.0 11309700000.0 11309700000.0 11309700000.0 11309700000.0 11309700000.0 11309700000.0 11309700000.0 11309700000.0 11309700000.0 11309700000.0 11309700000.0 11309700000.0 11309700000.0 11309700000.0 11309700000.0 11309700000.0 11309700000.0 11309700000.0 11309700000.0 11309700000.0 11309700000.0 11309700000.0 11309700000.0 11309700000.0 11309700000.0 11309700000.0 11309700000.0 11309700000.0 11309700000.0 11309700000.0 11309700000.0 11309700000.0 11309700000.0 11309700000.0 11309700000.0 11309700000.0 11309700000.0 11309700000.0 11309700000.0 11309700000.0 11309700000.0 11309700000.0 11309700000.0 11309700000.0 11309700000.0 11309700000.0 11309700000.0 11309700000.0 11309700000.0 11309700000.0 11309700000.0 11309700000.0 11309700000.0 11309700000.0 11309700000.0 11309700000.0 11309700000.0 11309700000.0 11309700000.0 11309700000.0 11309700000.0 11309700000.0 11309700000.0 11309700000.0 11309700000.0 11309700000.0 11309700000.0 11309700000.0 11309700000.0 11309700000.0 11309700000.0 11309700000.0 11309700000.0 11309700000.0 11309700000.0 11309700000.0 11309700000.0 11309700000.0 11309700000.0 11309700000.0 11309700000.0 11309700000.0 11309700000.0 11309700000.0 11309700000.0 11309700000.0 11309700000.0 11309700000.0 11309700000.0 11309700000.0 11309700000.0 11309700000.0 11309700000.0 11309700000.0 11309700000.0 11309700000.0 11309700000.0 11309700000.0 11309700000.0 11309700000.0 11309700000.0 11309700000.0 11309700000.0 11309700000.0 11309700000.0 11309700000.0 11309700000.0 11309700000.0 11309700000.0 11309700000.0 11309700000.0 11309700000.0 11309700000.0 11309700000.0 11309700000.0 11309700000.0 11309700000.0 11309700000.0 11309700000.0 11309700000.0 11309700000.0 11309700000.0 11309700000.0 11309700000.0 11309700000.0 11309700000.0 11309700000.0 11309700000.0 11309700000.0 11309700000.0 11309700000.0 11309700000.0 11309700000.0 11309700000.0 11309700000.0 11309700000.0 11309700000.0 11309700000.0 11309700000.0 11309700000.0 11309700000.0 11309700000.0 11309700000.0 11309700000.0 11309700000.0 11309700000.0 11309700000.0 11309700000.0 11309700000.0 11309700000.0 11309700000.0 11309700000.0 11309700000.0 11309700000.0 11309700000.0 11309700000.0 11309700000.0 11309700000.0 11309700000.0 11309700000.0 11309700000.0 11309700000.0 11309700000.0 11309700000.0 11309700000.0 11309700000.0 11309700000.0 11309700000.0 11309700000.0 11309700000.0 11309700000.0 11309700000.0 11309700000.0 11309700000.0 11309700000.0 11309700000.0 11309700000.0 11309700000.0 11309700000.0 11309700000.0 11309700000.0 11309700000.0 11309700000.0 11309700000.0 11309700000.0 11309700000.0 11309700000.0 11309700000.0 11309700000.0 11309700000.0 11309700000.0 11309700000.0 11309700000.0 11309700000.0 11309700000.0 11309700000.0 11309700000.0 11309700000.0 11309700000.0 11309700000.0 11309700000.0 11309700000.0 11309700000.0 11309700000.0 11309700000.0 11309700000.0 11309700000.0 11309700000.0 11309700000.0 11309700000.0 11309700000.0 11309700000.0 11309700000.0 11309700000.0 11309700000.0 11309700000.0 11309700000.0 11309700000.0 11309700000.0 11309700000.0 11309700000.0 11309700000.0 11309700000.0 11309700000.0 11309700000.0 11309700000.0 11309700000.0 11309700000.0 11309700000.0 11309700000.0 11309700000.0 11309700000.0 11309700000.0 11309700000.0 11309700000.0 11309700000.0 11309700000.0 11309700000.0 11309700000.0 11309700000.0 11309700000.0 11309700000.0 11309700000.0 11309700000.0 11309700000.0 11309700000.0 11309700000.0 11309700000.0 11309700000.0 11309700000.0 11309700000.0 11309700000.0 11309700000.0 11309700000.0 11309700000.0 11309700000.0 11309700000.0 11309700000.0 11309700000.0 11309700000.0 11309700000.0 11309700000.0 11309700000.0 11309700000.0 11309700000.0 11309700000.0 11309700000.0 11309700000.0 11309700000.0 11309700000.0 11309700000.0 11309700000.0 11309700000.0 11309700000.0 11309700000.0 11309700000.0 11309700000.0 11309700000.0 11309700000.0 11309700000.0 11309700000.0 11309700000.0 11309700000.0 11309700000.0 11309700000.0 11309700000.0 11309700000.0 11309700000.0 11309700000.0 11309700000.0 11309700000.0 11309700000.0 11309700000.0 11309700000.0 11309700000.0 11309700000.0 11309700000.0 11309700000.0 11309700000.0 11309700000.0 11309700000.0 11309700000.0 11309700000.0 11309700000.0 11309700000.0 11309700000.0 11309700000.0 11309700000.0 11309700000.0 11309700000.0 11309700000.0 11309700000.0 11309700000.0 11309700000.0 11309700000.0 11309700000.0 11309700000.0 11309700000.0 11309700000.0 11309700000.0 11309700000.0 11309700000.0 11309700000.0 11309700000.0 11309700000.0 11309700000.0 11309700000.0 11309700000.0 11309700000.0 11309700000.0 11309700000.0 11309700000.0 11309700000.0 11309700000.0 11309700000.0 11309700000.0 11309700000.0 11309700000.0 11309700000.0 11309700000.0 11309700000.0 11309700000.0 11309700000.0 11309700000.0 11309700000.0 11309700000.0 11309700000.0 11309700000.0 11309700000.0 11309700000.0 11309700000.0 11309700000.0 11309700000.0 11309700000.0 11309700000.0 11309700000.0 11309700000.0 11309700000.0 11309700000.0 11309700000.0 11309700000.0 11309700000.0 11309700000.0 11309700000.0 11309700000.0 11309700000.0 11309700000.0 11309700000.0 11309700000.0 11309700000.0 11309700000.0 11309700000.0 11309700000.0 11309700000.0 11309700000.0 11309700000.0 11309700000.0 11309700000.0 11309700000.0 11309700000.0 11309700000.0 11309700000.0 11309700000.0 11309700000.0 11309700000.0 11309700000.0 11309700000.0 11309700000.0 11309700000.0 11309700000.0 11309700000.0 11309700000.0 11309700000.0 11309700000.0 11309700000.0 11309700000.0 11309700000.0 11309700000.0 11309700000.0 11309700000.0 11309700000.0 11309700000.0 11309700000.0 11309700000.0 11309700000.0 11309700000.0 11309700000.0 11309700000.0 11309700000.0 11309700000.0 11309700000.0 11309700000.0 11309700000.0 11309700000.0 11309700000.0 11309700000.0 11309700000.0 11309700000.0 11309700000.0 11309700000.0 11309700000.0 11309700000.0 11309700000.0 11309700000.0 11309700000.0 11309700000.0 11309700000.0 11309700000.0 11309700000.0 11309700000.0 11309700000.0 11309700000.0 11309700000.0 11309700000.0 11309700000.0 11309700000.0 11309700000.0 11309700000.0 11309700000.0 11309700000.0 11309700000.0 11309700000.0 11309700000.0 11309700000.0 11309700000.0 11309700000.0 11309700000.0 11309700000.0 11309700000.0 11309700000.0 11309700000.0 11309700000.0 11309700000.0 11309700000.0 11309700000.0 11309700000.0 11309700000.0 11309700000.0 11309700000.0 11309700000.0 11309700000.0 11309700000.0 11309700000.0 11309700000.0 11309700000.0 11309700000.0 11309700000.0 11309700000.0 11309700000.0 11309700000.0 11309700000.0 11309700000.0 11309700000.0 11309700000.0 11309700000.0 11309700000.0 11309700000.0 11309700000.0 11309700000.0 11309700000.0 11309700000.0 11309700000.0 11309700000.0 11309700000.0 11309700000.0 11309700000.0 11309700000.0 11309700000.0 11309700000.0 11309700000.0 11309700000.0 11309700000.0 11309700000.0 11309700000.0 11309700000.0 11309700000.0 11309700000.0 11309700000.0 11309700000.0 11309700000.0 11309700000.0 11309700000.0 11309700000.0 11309700000.0 11309700000.0 11309700000.0 11309700000.0 11309700000.0 11309700000.0 11309700000.0 11309700000.0 11309700000.0 11309700000.0 11309700000.0 11309700000.0 11309700000.0 11309700000.0 11309700000.0 11309700000.0 11309700000.0 11309700000.0 11309700000.0 11309700000.0 11309700000.0 11309700000.0 11309700000.0 11309700000.0 11309700000.0 11309700000.0 11309700000.0 11309700000.0 11309700000.0 11309700000.0 11309700000.0 11309700000.0 11309700000.0 11309700000.0 11309700000.0 11309700000.0 11309700000.0 11309700000.0 11309700000.0 11309700000.0 11309700000.0 11309700000.0 11309700000.0 11309700000.0 11309700000.0 11309700000.0 11309700000.0 11309700000.0 11309700000.0 11309700000.0 11309700000.0 11309700000.0 11309700000.0 11309700000.0 11309700000.0 11309700000.0 11309700000.0 11309700000.0 11309700000.0 11309700000.0 11309700000.0 11309700000.0 11309700000.0 11309700000.0 11309700000.0 11309700000.0 11309700000.0 11309700000.0 11309700000.0 11309700000.0 11309700000.0 11309700000.0 11309700000.0 11309700000.0 11309700000.0 11309700000.0 11309700000.0 11309700000.0 11309700000.0 11309700000.0 11309700000.0 11309700000.0 11309700000.0 11309700000.0 11309700000.0 11309700000.0 11309700000.0 11309700000.0 11309700000.0 11309700000.0 11309700000.0 11309700000.0 11309700000.0 11309700000.0 11309700000.0 11309700000.0 11309700000.0 11309700000.0 11309700000.0 11309700000.0 11309700000.0 11309700000.0 11309700000.0 11309700000.0 11309700000.0 11309700000.0 11309700000.0 11309700000.0 11309700000.0 11309700000.0 11309700000.0 11309700000.0 11309700000.0 11309700000.0 11309700000.0 11309700000.0 11309700000.0 11309700000.0 11309700000.0 11309700000.0 11309700000.0 11309700000.0 11309700000.0 11309700000.0 11309700000.0 11309700000.0 11309700000.0 11309700000.0 11309700000.0 11309700000.0 11309700000.0 11309700000.0 11309700000.0 11309700000.0 11309700000.0 11309700000.0 11309700000.0 11309700000.0 11309700000.0 11309700000.0 11309700000.0 11309700000.0 11309700000.0 11309700000.0 11309700000.0 11309700000.0 11309700000.0 11309700000.0 11309700000.0 11309700000.0 11309700000.0 11309700000.0 11309700000.0 11309700000.0 11309700000.0 11309700000.0 11309700000.0 11309700000.0 11309700000.0 11309700000.0 11309700000.0 11309700000.0 11309700000.0 11309700000.0 11309700000.0 11309700000.0 11309700000.0 11309700000.0 11309700000.0 11309700000.0 11309700000.0 11309700000.0 11309700000.0 11309700000.0 11309700000.0 11309700000.0 11309700000.0 11309700000.0 11309700000.0 11309700000.0 11309700000.0 11309700000.0 11309700000.0 11309700000.0 11309700000.0 11309700000.0 11309700000.0 11309700000.0 11309700000.0 11309700000.0 11309700000.0 11309700000.0 11309700000.0 11309700000.0 11309700000.0 11309700000.0 11309700000.0 11309700000.0 11309700000.0 11309700000.0 11309700000.0 11309700000.0 11309700000.0 11309700000.0 11309700000.0 11309700000.0 11309700000.0 11309700000.0 11309700000.0 11309700000.0 11309700000.0 11309700000.0 11309700000.0 11309700000.0 11309700000.0 11309700000.0 11309700000.0 11309700000.0 11309700000.0 11309700000.0 11309700000.0 11309700000.0 11309700000.0 11309700000.0 11309700000.0 11309700000.0 11309700000.0 11309700000.0 11309700000.0 11309700000.0 11309700000.0 11309700000.0 11309700000.0 11309700000.0 11309700000.0 11309700000.0 11309700000.0 11309700000.0 11309700000.0 11309700000.0 11309700000.0 11309700000.0 11309700000.0 11309700000.0 11309700000.0 11309700000.0 11309700000.0 11309700000.0 11309700000.0 11309700000.0 11309700000.0 11309700000.0 11309700000.0 11309700000.0 11309700000.0 11309700000.0 11309700000.0 11309700000.0 11309700000.0 11309700000.0 11309700000.0 11309700000.0 11309700000.0 11309700000.0 11309700000.0 11309700000.0 11309700000.0 11309700000.0 11309700000.0 11309700000.0 11309700000.0 11309700000.0 11309700000.0 11309700000.0 11309700000.0 11309700000.0 11309700000.0 11309700000.0 11309700000.0 11309700000.0 11309700000.0 11309700000.0 11309700000.0 11309700000.0 11309700000.0 11309700000.0 11309700000.0 11309700000.0 11309700000.0 11309700000.0 11309700000.0 11309700000.0 11309700000.0 11309700000.0 11309700000.0 11309700000.0 11309700000.0 11309700000.0 11309700000.0 11309700000.0 11309700000.0 11309700000.0 11309700000.0 11309700000.0 11309700000.0 11309700000.0 11309700000.0 11309700000.0 11309700000.0 11309700000.0 11309700000.0 11309700000.0 11309700000.0 11309700000.0 11309700000.0 11309700000.0 11309700000.0 11309700000.0 11309700000.0 11309700000.0 11309700000.0 11309700000.0 11309700000.0 11309700000.0 11309700000.0 11309700000.0 11309700000.0 11309700000.0 11309700000.0 11309700000.0 11309700000.0 11309700000.0 11309700000.0 11309700000.0 11309700000.0 11309700000.0 11309700000.0 11309700000.0 11309700000.0 11309700000.0 11309700000.0 11309700000.0 11309700000.0 11309700000.0 11309700000.0 11309700000.0 11309700000.0 11309700000.0 11309700000.0 11309700000.0 11309700000.0 11309700000.0 11309700000.0 11309700000.0 11309700000.0 11309700000.0 11309700000.0 11309700000.0 11309700000.0 11309700000.0 11309700000.0 11309700000.0 11309700000.0 11309700000.0 11309700000.0 11309700000.0 11309700000.0 11309700000.0 11309700000.0 11309700000.0 11309700000.0 11309700000.0 11309700000.0 11309700000.0 11309700000.0 11309700000.0 11309700000.0 11309700000.0 11309700000.0 11309700000.0 11309700000.0 11309700000.0 11309700000.0 11309700000.0 11309700000.0 11309700000.0 11309700000.0 11309700000.0 11309700000.0 11309700000.0 11309700000.0 11309700000.0 11309700000.0 11309700000.0 11309700000.0 11309700000.0 11309700000.0 11309700000.0 11309700000.0 11309700000.0 11309700000.0 11309700000.0 11309700000.0 11309700000.0 11309700000.0 11309700000.0 11309700000.0 11309700000.0 11309700000.0 11309700000.0 11309700000.0 11309700000.0 11309700000.0 11309700000.0 11309700000.0 11309700000.0 11309700000.0 11309700000.0 11309700000.0 11309700000.0 11309700000.0 11309700000.0 11309700000.0 11309700000.0 11309700000.0 11309700000.0 11309700000.0 11309700000.0 11309700000.0 11309700000.0 11309700000.0 11309700000.0 11309700000.0 11309700000.0 11309700000.0 11309700000.0 11309700000.0 11309700000.0 11309700000.0 11309700000.0 11309700000.0 11309700000.0 11309700000.0 11309700000.0 11309700000.0 11309700000.0 11309700000.0 11309700000.0 11309700000.0 11309700000.0 11309700000.0 11309700000.0 11309700000.0 11309700000.0 11309700000.0 11309700000.0 11309700000.0 11309700000.0 11309700000.0 11309700000.0 11309700000.0 11309700000.0 11309700000.0 11309700000.0 11309700000.0 11309700000.0 11309700000.0 11309700000.0 11309700000.0 11309700000.0 11309700000.0 11309700000.0 11309700000.0 11309700000.0 11309700000.0 11309700000.0 11309700000.0 11309700000.0 11309700000.0 11309700000.0 11309700000.0 11309700000.0 11309700000.0 11309700000.0 11309700000.0 11309700000.0 11309700000.0 11309700000.0 11309700000.0 11309700000.0 11309700000.0 11309700000.0 11309700000.0 11309700000.0 11309700000.0 11309700000.0 11309700000.0 11309700000.0 11309700000.0 11309700000.0 11309700000.0 11309700000.0 11309700000.0 11309700000.0 11309700000.0 11309700000.0 11309700000.0 11309700000.0 11309700000.0 11309700000.0 11309700000.0 11309700000.0 11309700000.0 11309700000.0 11309700000.0 11309700000.0 11309700000.0 11309700000.0 11309700000.0 11309700000.0 11309700000.0 11309700000.0 11309700000.0 11309700000.0 11309700000.0 11309700000.0 11309700000.0 11309700000.0 11309700000.0 11309700000.0 11309700000.0 11309700000.0 11309700000.0 11309700000.0 11309700000.0 11309700000.0 11309700000.0 11309700000.0 11309700000.0 11309700000.0 11309700000.0 11309700000.0 11309700000.0 11309700000.0 11309700000.0 11309700000.0 11309700000.0 11309700000.0 11309700000.0 11309700000.0 11309700000.0 11309700000.0 11309700000.0 11309700000.0 11309700000.0 11309700000.0 11309700000.0 11309700000.0 11309700000.0 11309700000.0 11309700000.0 11309700000.0 11309700000.0 11309700000.0 11309700000.0 11309700000.0 11309700000.0 11309700000.0 11309700000.0 11309700000.0 11309700000.0 11309700000.0 11309700000.0 11309700000.0 11309700000.0 11309700000.0 11309700000.0 11309700000.0 11309700000.0 11309700000.0 11309700000.0 11309700000.0 11309700000.0 11309700000.0 11309700000.0 11309700000.0 11309700000.0 11309700000.0 11309700000.0 11309700000.0 11309700000.0 11309700000.0 11309700000.0 11309700000.0 11309700000.0 11309700000.0 11309700000.0 11309700000.0 11309700000.0 11309700000.0 11309700000.0 11309700000.0 11309700000.0 11309700000.0 11309700000.0 11309700000.0 11309700000.0 11309700000.0 11309700000.0 11309700000.0 11309700000.0 11309700000.0 11309700000.0 11309700000.0 11309700000.0 11309700000.0 11309700000.0 11309700000.0 11309700000.0 11309700000.0 11309700000.0 11309700000.0 11309700000.0 11309700000.0 11309700000.0 11309700000.0 11309700000.0 11309700000.0 11309700000.0 11309700000.0 11309700000.0 11309700000.0 11309700000.0 11309700000.0 11309700000.0 11309700000.0 11309700000.0 11309700000.0 11309700000.0 11309700000.0 11309700000.0 11309700000.0 11309700000.0 11309700000.0 11309700000.0 11309700000.0 11309700000.0 11309700000.0 11309700000.0 11309700000.0 11309700000.0 11309700000.0 11309700000.0 11309700000.0 11309700000.0 11309700000.0 11309700000.0 11309700000.0 11309700000.0 11309700000.0 11309700000.0 11309700000.0 11309700000.0 11309700000.0 11309700000.0 11309700000.0 11309700000.0 11309700000.0 11309700000.0 11309700000.0 11309700000.0 11309700000.0 11309700000.0 11309700000.0 11309700000.0 11309700000.0 11309700000.0 11309700000.0 11309700000.0 11309700000.0 11309700000.0 11309700000.0 11309700000.0 11309700000.0 11309700000.0 11309700000.0 11309700000.0 11309700000.0 11309700000.0 11309700000.0 11309700000.0 11309700000.0 11309700000.0 11309700000.0 11309700000.0 11309700000.0 11309700000.0 11309700000.0 11309700000.0 11309700000.0 11309700000.0 11309700000.0 11309700000.0 11309700000.0 11309700000.0 11309700000.0 11309700000.0 11309700000.0 11309700000.0 11309700000.0 11309700000.0 11309700000.0 11309700000.0 11309700000.0 11309700000.0 11309700000.0 11309700000.0 11309700000.0 11309700000.0 11309700000.0 11309700000.0 11309700000.0 11309700000.0 11309700000.0 11309700000.0 11309700000.0 11309700000.0 11309700000.0 11309700000.0 11309700000.0 11309700000.0 11309700000.0 11309700000.0 11309700000.0 11309700000.0 11309700000.0 11309700000.0 11309700000.0 11309700000.0 11309700000.0 11309700000.0 11309700000.0 11309700000.0 11309700000.0 11309700000.0 11309700000.0 11309700000.0 11309700000.0 11309700000.0 11309700000.0 11309700000.0 11309700000.0 11309700000.0 11309700000.0 11309700000.0 11309700000.0 11309700000.0 11309700000.0 11309700000.0 11309700000.0 11309700000.0 11309700000.0 11309700000.0 11309700000.0 11309700000.0 11309700000.0 11309700000.0 11309700000.0 11309700000.0 11309700000.0 11309700000.0 11309700000.0 11309700000.0 11309700000.0 11309700000.0 11309700000.0 11309700000.0 11309700000.0 11309700000.0 11309700000.0 11309700000.0 11309700000.0 11309700000.0 11309700000.0 11309700000.0 11309700000.0 11309700000.0 11309700000.0 11309700000.0 11309700000.0 11309700000.0 11309700000.0 11309700000.0 11309700000.0 11309700000.0 11309700000.0 11309700000.0 11309700000.0 11309700000.0 11309700000.0 11309700000.0 11309700000.0 11309700000.0 11309700000.0 11309700000.0 11309700000.0 11309700000.0 11309700000.0 11309700000.0 11309700000.0 11309700000.0 11309700000.0 11309700000.0 11309700000.0 11309700000.0 11309700000.0 11309700000.0 11309700000.0 11309700000.0 11309700000.0 11309700000.0 11309700000.0 11309700000.0 11309700000.0 11309700000.0 11309700000.0 11309700000.0 11309700000.0 11309700000.0 11309700000.0 11309700000.0 11309700000.0 11309700000.0 11309700000.0 11309700000.0 11309700000.0 11309700000.0 11309700000.0 11309700000.0 11309700000.0 11309700000.0 11309700000.0 11309700000.0 11309700000.0 11309700000.0 11309700000.0 11309700000.0 11309700000.0 11309700000.0 11309700000.0 11309700000.0 11309700000.0 11309700000.0 11309700000.0 11309700000.0 11309700000.0 11309700000.0 11309700000.0 11309700000.0 11309700000.0 11309700000.0 11309700000.0 11309700000.0 11309700000.0 11309700000.0 11309700000.0 11309700000.0 11309700000.0 11309700000.0 11309700000.0 11309700000.0 11309700000.0 11309700000.0 11309700000.0 11309700000.0 11309700000.0 11309700000.0 11309700000.0 11309700000.0 11309700000.0 11309700000.0 11309700000.0 11309700000.0 11309700000.0 11309700000.0 11309700000.0 11309700000.0 11309700000.0 11309700000.0 11309700000.0 11309700000.0 11309700000.0 11309700000.0 11309700000.0 11309700000.0 11309700000.0 11309700000.0 11309700000.0 11309700000.0 11309700000.0 11309700000.0 11309700000.0 11309700000.0 11309700000.0 11309700000.0 11309700000.0 11309700000.0 11309700000.0 11309700000.0 11309700000.0 11309700000.0 11309700000.0 11309700000.0 11309700000.0 11309700000.0 11309700000.0 11309700000.0 11309700000.0 11309700000.0 11309700000.0 11309700000.0 11309700000.0 11309700000.0 11309700000.0 11309700000.0 11309700000.0 11309700000.0 11309700000.0 11309700000.0 11309700000.0 11309700000.0 11309700000.0 11309700000.0 11309700000.0 11309700000.0 11309700000.0 11309700000.0 11309700000.0 11309700000.0 11309700000.0 11309700000.0 11309700000.0 11309700000.0 11309700000.0 11309700000.0 11309700000.0 11309700000.0 11309700000.0 11309700000.0 11309700000.0 11309700000.0 11309700000.0 11309700000.0 11309700000.0 11309700000.0 11309700000.0 11309700000.0 11309700000.0 11309700000.0 11309700000.0 11309700000.0 11309700000.0 11309700000.0 11309700000.0 11309700000.0 11309700000.0 11309700000.0 11309700000.0 11309700000.0 11309700000.0 11309700000.0 11309700000.0 11309700000.0 11309700000.0 11309700000.0 11309700000.0 11309700000.0 11309700000.0 11309700000.0 11309700000.0 11309700000.0 11309700000.0 11309700000.0 11309700000.0 11309700000.0 11309700000.0 11309700000.0 11309700000.0 11309700000.0 11309700000.0 11309700000.0 11309700000.0 11309700000.0 11309700000.0 11309700000.0 11309700000.0 11309700000.0 11309700000.0 11309700000.0 11309700000.0 11309700000.0 11309700000.0 11309700000.0 11309700000.0 11309700000.0 11309700000.0 11309700000.0 11309700000.0 11309700000.0 11309700000.0 11309700000.0 11309700000.0 11309700000.0 11309700000.0 11309700000.0 11309700000.0 11309700000.0 11309700000.0 11309700000.0 11309700000.0 11309700000.0 11309700000.0 11309700000.0 11309700000.0 11309700000.0 11309700000.0 11309700000.0 11309700000.0 11309700000.0 11309700000.0 11309700000.0 11309700000.0 11309700000.0 11309700000.0 11309700000.0 11309700000.0 11309700000.0 11309700000.0 11309700000.0 11309700000.0 11309700000.0 11309700000.0 11309700000.0 11309700000.0 11309700000.0 11309700000.0 11309700000.0 11309700000.0 11309700000.0 11309700000.0 11309700000.0 11309700000.0 11309700000.0 11309700000.0 11309700000.0 11309700000.0 11309700000.0 11309700000.0 11309700000.0 11309700000.0 11309700000.0 11309700000.0 11309700000.0 11309700000.0 11309700000.0 11309700000.0 11309700000.0 11309700000.0 11309700000.0 11309700000.0 11309700000.0 11309700000.0 11309700000.0 11309700000.0 11309700000.0 11309700000.0 11309700000.0 11309700000.0 11309700000.0 11309700000.0 11309700000.0 11309700000.0 11309700000.0 11309700000.0 11309700000.0 11309700000.0 11309700000.0 11309700000.0 11309700000.0 11309700000.0 11309700000.0 11309700000.0 11309700000.0 11309700000.0 11309700000.0 11309700000.0 11309700000.0 11309700000.0 11309700000.0 11309700000.0 11309700000.0 11309700000.0 11309700000.0 11309700000.0 11309700000.0 11309700000.0 11309700000.0 11309700000.0 11309700000.0 11309700000.0 11309700000.0 11309700000.0 11309700000.0 11309700000.0 11309700000.0 11309700000.0 11309700000.0 11309700000.0 11309700000.0 11309700000.0 11309700000.0 11309700000.0 11309700000.0 11309700000.0 11309700000.0 11309700000.0 11309700000.0 11309700000.0 11309700000.0 11309700000.0 11309700000.0 11309700000.0 11309700000.0 11309700000.0 11309700000.0 11309700000.0 11309700000.0 11309700000.0 11309700000.0 11309700000.0 11309700000.0 11309700000.0 11309700000.0 11309700000.0 11309700000.0 11309700000.0 11309700000.0 11309700000.0 11309700000.0 11309700000.0 11309700000.0 11309700000.0 11309700000.0 11309700000.0 11309700000.0 11309700000.0 11309700000.0 11309700000.0 11309700000.0 11309700000.0 11309700000.0 11309700000.0 11309700000.0 11309700000.0 11309700000.0 11309700000.0 11309700000.0 11309700000.0 11309700000.0 11309700000.0 11309700000.0 11309700000.0 11309700000.0 11309700000.0 11309700000.0 11309700000.0 11309700000.0 11309700000.0 11309700000.0 11309700000.0 11309700000.0 11309700000.0 11309700000.0 11309700000.0 11309700000.0 11309700000.0 11309700000.0 11309700000.0 11309700000.0 11309700000.0 11309700000.0 11309700000.0 11309700000.0 11309700000.0 11309700000.0 11309700000.0 11309700000.0 11309700000.0 11309700000.0 11309700000.0 11309700000.0 11309700000.0 11309700000.0 11309700000.0 11309700000.0 11309700000.0 11309700000.0 11309700000.0 11309700000.0 11309700000.0 11309700000.0 11309700000.0 11309700000.0 11309700000.0 11309700000.0 11309700000.0 11309700000.0 11309700000.0 11309700000.0 11309700000.0 11309700000.0 11309700000.0 11309700000.0 11309700000.0 11309700000.0 11309700000.0 11309700000.0 11309700000.0 11309700000.0 11309700000.0 11309700000.0 11309700000.0 11309700000.0 11309700000.0 11309700000.0 11309700000.0 11309700000.0 11309700000.0 11309700000.0 11309700000.0 11309700000.0 11309700000.0 11309700000.0 11309700000.0 11309700000.0 11309700000.0 11309700000.0 11309700000.0 11309700000.0 11309700000.0 11309700000.0 11309700000.0 11309700000.0 11309700000.0 11309700000.0 11309700000.0 11309700000.0 11309700000.0 11309700000.0 11309700000.0 11309700000.0 11309700000.0 11309700000.0 11309700000.0 11309700000.0 11309700000.0 11309700000.0 11309700000.0 11309700000.0 11309700000.0 11309700000.0 11309700000.0 11309700000.0 11309700000.0 11309700000.0 11309700000.0 11309700000.0 11309700000.0 11309700000.0 11309700000.0 11309700000.0 11309700000.0 11309700000.0 11309700000.0 11309700000.0 11309700000.0 11309700000.0 11309700000.0 11309700000.0 11309700000.0 11309700000.0 11309700000.0 11309700000.0 11309700000.0 11309700000.0 11309700000.0 11309700000.0 11309700000.0 11309700000.0 11309700000.0 11309700000.0 11309700000.0 11309700000.0 11309700000.0 11309700000.0 11309700000.0 11309700000.0 11309700000.0 11309700000.0 11309700000.0 11309700000.0 11309700000.0 11309700000.0 11309700000.0 11309700000.0 11309700000.0 11309700000.0 11309700000.0 11309700000.0 11309700000.0 11309700000.0 11309700000.0 11309700000.0 11309700000.0 11309700000.0 11309700000.0 11309700000.0 11309700000.0 11309700000.0 11309700000.0 11309700000.0 11309700000.0 11309700000.0 11309700000.0 11309700000.0 11309700000.0 11309700000.0 11309700000.0 11309700000.0 11309700000.0 11309700000.0 11309700000.0 11309700000.0 11309700000.0 11309700000.0 11309700000.0 11309700000.0 11309700000.0 11309700000.0 11309700000.0 11309700000.0 11309700000.0 11309700000.0 11309700000.0 11309700000.0 11309700000.0 11309700000.0 11309700000.0 11309700000.0 11309700000.0 11309700000.0 11309700000.0 11309700000.0 11309700000.0 11309700000.0 11309700000.0 11309700000.0 11309700000.0 11309700000.0 11309700000.0 11309700000.0 11309700000.0 11309700000.0 11309700000.0 11309700000.0 11309700000.0 11309700000.0 11309700000.0 11309700000.0 11309700000.0 11309700000.0 11309700000.0 11309700000.0 11309700000.0 11309700000.0 11309700000.0 11309700000.0 11309700000.0 11309700000.0 11309700000.0 11309700000.0 11309700000.0 11309700000.0 11309700000.0 11309700000.0 11309700000.0 11309700000.0 11309700000.0 11309700000.0 11309700000.0 11309700000.0 11309700000.0 11309700000.0 11309700000.0 11309700000.0 11309700000.0 11309700000.0 11309700000.0 11309700000.0 11309700000.0 11309700000.0 11309700000.0 11309700000.0 11309700000.0 11309700000.0 11309700000.0 11309700000.0 11309700000.0 11309700000.0 11309700000.0 11309700000.0 11309700000.0 11309700000.0 11309700000.0 11309700000.0 11309700000.0 11309700000.0 11309700000.0 11309700000.0 11309700000.0 11309700000.0 11309700000.0 11309700000.0 11309700000.0 11309700000.0 11309700000.0 11309700000.0 11309700000.0 11309700000.0 11309700000.0 11309700000.0 11309700000.0 11309700000.0 11309700000.0 11309700000.0 11309700000.0 11309700000.0 11309700000.0 11309700000.0 11309700000.0 11309700000.0 11309700000.0 11309700000.0 11309700000.0 11309700000.0 11309700000.0 11309700000.0 11309700000.0 11309700000.0 11309700000.0 11309700000.0 11309700000.0 11309700000.0 11309700000.0 11309700000.0 11309700000.0 11309700000.0 11309700000.0 11309700000.0 11309700000.0 11309700000.0 11309700000.0 11309700000.0 11309700000.0 11309700000.0 11309700000.0 11309700000.0 11309700000.0 11309700000.0 11309700000.0 11309700000.0 11309700000.0 11309700000.0 11309700000.0 11309700000.0 11309700000.0 11309700000.0 11309700000.0 11309700000.0 11309700000.0 11309700000.0 11309700000.0 11309700000.0 11309700000.0 11309700000.0 11309700000.0 11309700000.0 11309700000.0 11309700000.0 11309700000.0 11309700000.0 11309700000.0 11309700000.0 11309700000.0 11309700000.0 11309700000.0 11309700000.0 11309700000.0 11309700000.0 11309700000.0 11309700000.0 11309700000.0 11309700000.0 11309700000.0 11309700000.0 11309700000.0 11309700000.0 11309700000.0 11309700000.0 11309700000.0 11309700000.0 11309700000.0 11309700000.0 11309700000.0 11309700000.0 11309700000.0 11309700000.0 11309700000.0 11309700000.0 11309700000.0 11309700000.0 11309700000.0 11309700000.0 11309700000.0 11309700000.0 11309700000.0 11309700000.0 11309700000.0 11309700000.0 11309700000.0 11309700000.0 11309700000.0 11309700000.0 11309700000.0 11309700000.0 11309700000.0 11309700000.0 11309700000.0 11309700000.0 11309700000.0 11309700000.0 11309700000.0 11309700000.0 11309700000.0 11309700000.0 11309700000.0 11309700000.0 11309700000.0 11309700000.0 11309700000.0 11309700000.0 11309700000.0 11309700000.0 11309700000.0 11309700000.0 11309700000.0 11309700000.0 
SCALARS Velocity float 1
LOOKUP_TABLE default
1.01693 1.15753 1.15758 1.01696 1.09904 1.07744 1.19412 1.23904 1.23906 1.19418 1.07745 1.09904 1.00309 1.09991 1.17682 1.13097 0.990851 1.06127 1.14043 1.14884 1.1611 1.17937 1.17939 1.16118 1.149 1.14045 1.06126 0.990967 1.13101 1.17687 1.09989 1.0031 0.986697 1.16299 1.22534 1.17567 1.11764 1.14254 1.16637 1.15724 1.16644 1.14282 1.11777 1.17571 1.22542 1.16308 0.986696 0.971343 1.29208 1.22565 1.25041 1.16768 1.09683 1.12756 1.15768 1.1594 1.15944 1.15784 1.12797 1.09692 1.16776 1.25046 1.22573 1.29207 0.971337 1.23593 1.12395 1.24644 1.10354 1.11513 1.13955 1.14873 1.14514 1.1527 1.16871 1.16578 1.16877 1.15281 1.14537 1.14902 1.14002 1.11578 1.10367 1.24655 1.12417 1.23582 0.974015 1.12892 1.10876 1.23453 1.21698 1.17192 1.12026 1.13412 1.1659 1.17943 1.16606 1.13451 1.12094 1.17202 1.21721 1.23462 1.10899 1.12863 0.973975 1.67112 1.28393 1.24118 1.13526 1.10696 1.11947 1.15756 1.18537 1.18547 1.15787 1.12006 1.10711 1.13557 1.24126 1.28387 1.67109 0.555392 1.25072 1.33962 1.18048 1.1142 1.0959 1.12198 1.14284 1.17185 1.18402 1.21023 1.20158 1.21037 1.18423 1.17229 1.14335 1.1227 1.09669 1.11471 1.18089 1.33927 1.25057 0.555445 0.613618 0.709526 1.8483 0.575597 1.28112 1.22257 1.25386 1.14236 1.11498 1.07477 1.09492 1.15305 1.2055 1.23353 1.20572 1.15374 1.09581 1.07566 1.11579 1.14284 1.25338 1.22241 1.28123 0.575926 1.84829 0.709545 0.61366 0.67498 0.650213 0.751039 1.43979 0.99294 1.13958 1.18163 1.10836 1.07217 1.13511 1.1858 1.24016 1.24038 1.18637 1.13603 1.07301 1.10763 1.18098 1.13941 0.992831 1.43977 0.751057 0.650242 0.674996 0.676315 0.750541 1.04126 0.926496 1.16752 1.05139 0.906993 0.979059 1.11483 1.16696 1.16949 1.20571 1.22532 1.26257 1.27021 1.26301 1.22546 1.20647 1.17037 1.16801 1.11602 0.977965 0.906904 1.05118 1.16744 0.926463 1.04126 0.750554 0.676322 0.668565 0.727211 0.779969 0.859901 0.932377 1.06451 0.922091 1.0554 1.15353 0.987551 0.796577 0.863446 0.927158 1.01318 1.20666 1.25495 1.13823 1.25461 1.20776 1.01282 0.926973 0.863837 0.796362 0.98746 1.15338 1.05536 0.922062 1.06449 0.93238 0.859912 0.779977 0.727218 0.668569 0.653939 0.670132 0.694516 0.728012 0.837434 0.936225 1.08655 1.1579 1.14648 0.81861 0.860156 0.992983 1.10964 1.25937 0.998434 0.996182 1.25941 1.10951 0.993015 0.860358 0.818551 1.14635 1.1578 1.08648 0.936214 0.837441 0.728017 0.69452 0.670135 0.653942 0.61676 0.636357 0.646182 0.693795 0.767504 0.899815 0.94974 0.937681 1.17664 0.842623 0.872907 0.976972 1.08372 1.20923 0.817543 1.10608 0.894025 1.10706 0.803556 1.2006 1.08375 0.977185 0.873028 0.842656 1.17655 0.93767 0.949736 0.899816 0.76751 0.693799 0.646185 0.636359 0.616762 0.600056 0.623731 0.635947 0.663612 0.689328 0.722844 0.759708 0.822195 0.877255 0.979763 1.15912 0.857014 0.824082 0.977565 1.0214 1.02623 1.14516 1.22567 0.731159 0.995676 1.13246 1.13549 0.992988 0.731676 1.22484 1.14532 1.02637 1.02165 0.977706 0.82421 0.85712 1.15906 0.979732 0.87726 0.8222 0.759713 0.722848 0.689331 0.663615 0.635949 0.623733 0.600058 0.589335 0.59438 0.606978 0.616097 0.656824 0.718485 0.80028 0.906284 0.657824 0.975139 0.832777 0.997904 1.01297 1.00817 0.657213 0.740983 0.752849 1.02167 1.0217 0.751955 0.740265 0.65666 1.00822 1.01298 0.99796 0.832889 0.975209 0.657861 0.90628 0.800286 0.718489 0.656827 0.6161 0.60698 0.594382 0.589336 0.571673 0.579398 0.584024 0.601343 0.610356 0.629059 0.652303 0.686378 0.746289 0.764426 0.824053 0.718659 1.10912 0.895874 0.713867 1.0447 0.932815 0.579945 0.707142 0.878441 0.983352 0.878815 0.706697 0.579319 0.932908 1.04474 0.714015 0.895927 1.10915 0.718677 0.824059 0.764435 0.746296 0.686381 0.652306 0.629062 0.610358 0.601345 0.584025 0.5794 0.571674 0.563047 0.577805 0.582556 0.589784 0.600338 0.623817 0.686744 0.714547 0.726282 0.7194 0.556108 1.0933 0.776237 0.627975 0.940355 0.687747 0.641003 0.761047 0.958603 0.958827 0.761207 0.64068 0.687523 0.940346 0.628106 0.776337 1.09331 0.556128 0.719412 0.72629 0.714551 0.686746 0.62382 0.60034 0.589786 0.582558 0.577806 0.563048 0.555376 0.569556 0.575103 0.593348 0.610424 0.621211 0.644062 0.708949 0.704582 0.657413 0.635366 0.521751 0.846275 0.608021 1.03735 0.763252 0.606437 0.634029 0.683566 0.768637 0.859477 0.902964 0.94104 0.903262 0.859705 0.768639 0.683308 0.634054 0.606442 0.763188 1.03741 0.608148 0.846322 0.521759 0.635371 0.657426 0.704596 0.708953 0.644065 0.621214 0.610426 0.59335 0.575105 0.569557 0.555377 0.552422 0.556586 0.562039 0.569216 0.58432 0.600585 0.607324 0.621358 0.636874 0.69681 0.716832 0.703994 0.663269 0.603728 1.0787 0.662652 0.581123 0.973749 0.773187 0.675916 0.638138 0.707734 0.832814 0.891803 0.833187 0.707947 0.63784 0.675856 0.773108 0.973709 0.580878 0.662658 1.07869 0.603731 0.663287 0.704004 0.716838 0.696812 0.636877 0.62136 0.607326 0.600587 0.584322 0.569217 0.562041 0.556587 0.552423 0.561561 0.553783 0.556822 0.564734 0.572057 0.576804 0.588382 0.61486 0.631702 0.638176 0.65419 0.73689 0.686801 0.625811 0.635693 0.611141 1.09828 0.405696 0.638897 0.840177 0.725249 0.684038 0.77448 0.858785 0.858917 0.774821 0.684117 0.725202 0.840169 0.638931 0.405627 1.09831 0.611133 0.635698 0.625831 0.686812 0.736892 0.654193 0.638179 0.631704 0.614862 0.588383 0.576805 0.572058 0.564735 0.556822 0.553784 0.561562 0.571617 0.560023 0.562587 0.562904 0.570012 0.579679 0.588618 0.602732 0.613795 0.642992 0.711725 0.65101 0.64701 0.741988 0.561578 0.554312 0.75974 0.771466 0.734905 0.699857 0.737409 0.743705 0.779814 0.815975 0.828877 0.852543 0.8288 0.816036 0.779849 0.743802 0.737484 0.699881 0.735136 0.771576 0.759839 0.554411 0.561393 0.741948 0.647031 0.651029 0.711732 0.642995 0.613797 0.602733 0.58862 0.579681 0.570013 0.562905 0.562588 0.560024 0.571617 0.588945 0.57219 0.568889 0.572352 0.576339 0.575708 0.581481 0.597144 0.621982 0.599758 0.591232 0.73978 0.714852 0.687363 0.677197 0.711522 0.914765 0.647808 0.623092 0.75051 0.743735 0.7645 0.801982 0.821735 0.802068 0.764651 0.743987 0.750663 0.623192 0.647927 0.915077 0.711513 0.677212 0.687374 0.714859 0.739784 0.591237 0.599762 0.621984 0.597145 0.581483 0.575709 0.57634 0.572353 0.56889 0.57219 0.588946 0.599847 0.607691 0.586109 0.586663 0.572947 0.581034 0.579264 0.584556 0.588613 0.602353 0.591957 0.548542 0.743969 0.706188 0.726783 0.802136 0.889578 0.90863 0.696195 0.52543 0.717978 0.75161 0.761844 0.782457 0.806594 0.806662 0.782601 0.76206 0.751801 0.718062 0.525531 0.696232 0.908645 0.889612 0.802148 0.726797 0.706199 0.743973 0.548548 0.59196 0.602355 0.588615 0.584558 0.579265 0.581035 0.572948 0.586664 0.58611 0.607692 0.599847 0.610202 0.635288 0.616072 0.600755 0.584818 0.580815 0.578467 0.582426 0.579228 0.580947 0.581482 0.587844 0.57953 0.567838 0.551354 0.720245 0.730275 0.739745 0.830864 0.828182 0.473007 0.615542 0.712662 0.7513 0.765392 0.763389 0.771171 0.77556 0.782575 0.789505 0.790774 0.801675 0.790864 0.789688 0.782752 0.775782 0.771341 0.763593 0.765496 0.751391 0.712754 0.615645 0.47311 0.828225 0.830867 0.739758 0.73028 0.72025 0.551358 0.567841 0.579533 0.587847 0.581484 0.580948 0.579229 0.582427 0.578467 0.580815 0.584818 0.600755 0.616074 0.635289 0.610202 0.663112 0.659655 0.624948 0.576952 0.572626 0.572895 0.580872 0.576859 0.578325 0.577509 0.584015 0.584333 0.576878 0.718625 0.738991 0.746021 0.725411 0.950765 0.536718 0.673513 0.735478 0.77467 0.777089 0.78128 0.787697 0.781388 0.777219 0.774777 0.735562 0.673608 0.536718 0.950824 0.725442 0.746024 0.738993 0.718627 0.576881 0.584336 0.584017 0.57751 0.578326 0.57686 0.580872 0.572895 0.572627 0.576952 0.624948 0.659654 0.663111 0.539404 0.590182 0.678582 0.655196 0.56264 0.560569 0.550826 0.564735 0.566705 0.566214 0.56753 0.58373 0.592847 0.624872 0.644242 0.742151 0.745347 0.79996 1.01726 0.569441 0.518629 0.656187 0.689159 0.767675 0.774682 0.77585 0.780191 0.780231 0.775945 0.774772 0.767761 0.689253 0.656241 0.518638 0.56949 1.01729 0.799958 0.745346 0.742154 0.644246 0.624875 0.59285 0.583732 0.567531 0.566215 0.566705 0.564735 0.550825 0.560569 0.562639 0.655196 0.678581 0.590183 0.539403 0.386348 0.55321 1.56716 1.21274 0.521167 0.568394 0.529414 0.55647 0.554717 0.540404 0.568157 0.597642 0.59161 0.617901 0.681095 0.75993 0.760742 0.69995 0.992726 1.40878 0.532949 0.74901 0.757044 0.785818 0.781886 0.784626 0.773711 0.769957 0.774311 0.768305 0.773795 0.768321 0.774354 0.770005 0.77378 0.784687 0.781961 0.785907 0.757145 0.74911 0.53297 1.40879 0.992749 0.699958 0.760741 0.759932 0.681099 0.617904 0.591612 0.597644 0.568159 0.540405 0.554718 0.55647 0.529414 0.568394 0.521167 1.21275 1.56716 0.553211 0.386347 0.371212 0.366591 0.377387 1.33455 1.03118 0.640255 0.567582 0.520854 0.539131 0.530355 0.551449 0.557923 0.591511 0.614816 0.645232 0.696666 0.755284 0.769799 0.545135 0.520045 0.552441 0.581765 0.591073 0.785991 0.791019 0.776904 0.76545 0.761647 0.765474 0.77695 0.791085 0.78612 0.591127 0.581767 0.552432 0.520069 0.545147 0.769815 0.755284 0.696668 0.645235 0.614818 0.591513 0.557924 0.55145 0.530355 0.53913 0.520854 0.567581 0.640256 1.03118 1.33456 0.377386 0.366591 0.371214 0.351344 0.389935 0.569812 1.18538 1.0935 0.86508 0.602417 0.542941 0.530949 0.52152 0.519413 0.549258 0.515722 0.515106 0.606596 0.65028 0.585583 0.628722 0.677007 0.751836 0.734791 0.67819 0.546557 0.555029 0.591945 0.581072 0.771745 0.795814 0.793806 0.770576 0.757033 0.75704 0.770603 0.793851 0.79589 0.771854 0.581082 0.591972 0.555084 0.546572 0.678194 0.734792 0.751837 0.67701 0.628725 0.585586 0.650281 0.606597 0.515107 0.515723 0.549258 0.519413 0.52152 0.530948 0.542942 0.602416 0.865081 1.0935 1.18539 0.569814 0.389936 0.351345 0.313845 0.364829 0.356947 0.400113 0.406279 0.920718 0.665025 0.610207 0.531889 0.527017 0.496508 0.426928 0.487641 0.44533 0.565403 0.519059 0.582949 0.676874 0.691425 0.700789 0.657732 0.686316 0.598057 0.591839 0.590219 0.590085 0.544501 0.818137 0.792549 0.785408 0.77897 0.767431 0.759549 0.750051 0.750984 0.750047 0.759556 0.767437 0.778997 0.785428 0.792588 0.81826 0.544531 0.590093 0.590226 0.591846 0.598058 0.686318 0.657731 0.700783 0.691427 0.676876 0.582949 0.51906 0.565403 0.44533 0.48764 0.426928 0.496508 0.527017 0.531888 0.610206 0.665025 0.92072 0.406281 0.400112 0.356949 0.364831 0.313846 0.245361 0.318495 0.292623 0.316849 0.992616 0.770811 0.779136 0.684099 0.588396 0.544744 0.511776 0.478318 0.526936 0.551344 0.556042 0.561814 0.629985 0.645749 0.581199 0.653848 0.593429 0.59659 0.577088 0.578878 0.61116 0.530371 0.678776 0.844507 0.772414 0.787929 0.75401 0.745185 0.753992 0.787931 0.772441 0.844548 0.678754 0.530369 0.611155 0.57889 0.577082 0.596582 0.593425 0.653843 0.581197 0.645751 0.629984 0.561816 0.556042 0.551344 0.526936 0.478317 0.511776 0.544744 0.588395 0.684098 0.779136 0.770812 0.992619 0.316852 0.292626 0.318496 0.245362 0.209754 0.224382 0.254962 0.255176 0.196288 0.0792849 0.242386 0.755903 0.719189 0.650272 0.600624 0.468262 0.471605 0.562177 0.572177 0.59132 0.628826 0.585123 0.529811 0.584868 0.589128 0.595879 0.601156 0.605258 0.886697 0.7954 0.762997 0.746641 0.74662 0.762971 0.795391 0.886713 0.605244 0.601137 0.595862 0.589111 0.584856 0.529809 0.585122 0.628827 0.591318 0.572179 0.562177 0.471605 0.468262 0.600624 0.650271 0.719189 0.755906 0.242391 0.0792898 0.196291 0.25518 0.254967 0.224383 0.209756 0.505123 0.452987 0.250684 0.192309 0.106567 0.329905 0.688696 0.655616 0.681456 0.632033 0.551702 0.536564 0.506976 0.491821 0.49005 0.520028 0.540651 0.626796 0.600809 0.548839 0.501272 0.602433 0.598688 0.605502 0.605466 0.605509 0.572605 0.728446 0.795244 0.782066 0.779401 0.757786 0.749095 0.74628 0.746047 0.746243 0.749048 0.757728 0.779372 0.78216 0.795239 0.728449 0.5726 0.605488 0.605434 0.605468 0.598658 0.602426 0.501272 0.548837 0.600804 0.626796 0.540651 0.520028 0.49005 0.491821 0.506976 0.536564 0.551702 0.632032 0.681456 0.655617 0.688697 0.329903 0.106567 0.192311 0.250685 0.452983 0.50512 0.488256 0.477754 0.504761 0.494749 0.294792 0.318566 0.297029 0.500639 0.640849 0.62354 0.653974 0.595361 0.55481 0.536929 0.518895 0.512283 0.519106 0.541122 0.558062 0.5815 0.593928 0.564993 0.526379 0.525649 0.580938 0.587181 0.611561 0.605839 0.587284 0.568623 0.836573 0.878521 0.815964 0.758989 0.748875 0.747496 0.748802 0.758981 0.815995 0.878491 0.836444 0.568663 0.587269 0.605796 0.611508 0.587156 0.58092 0.525637 0.526373 0.564997 0.593926 0.5815 0.558061 0.541122 0.519106 0.512282 0.518895 0.536929 0.55481 0.59536 0.653974 0.623541 0.64085 0.500638 0.297027 0.318565 0.294793 0.494745 0.504757 0.47775 0.488255 0.45179 0.461274 0.407185 0.395029 0.485044 0.391886 0.495337 0.604202 0.611716 0.61825 0.596528 0.566662 0.563824 0.541492 0.534056 0.538425 0.5429 0.558308 0.578563 0.599074 0.620113 0.596476 0.536307 0.557085 0.583795 0.59479 0.606214 0.60912 0.597404 0.885812 0.809059 0.752447 0.749077 0.749029 0.752373 0.809551 0.885806 0.59744 0.609069 0.606163 0.594748 0.583764 0.557062 0.536293 0.596474 0.620105 0.599073 0.578563 0.558307 0.542899 0.538425 0.534056 0.541492 0.563824 0.566662 0.596528 0.61825 0.611717 0.604202 0.495336 0.391884 0.485041 0.395026 0.407182 0.461272 0.451784 0.954119 0.973158 0.415245 0.309048 0.327384 0.290899 0.464773 0.424655 0.554239 0.585369 0.543446 0.607757 0.599995 0.593321 0.555413 0.554305 0.559081 0.569329 0.580638 0.596185 0.61218 0.606485 0.589541 0.5537 0.550755 0.571675 0.592014 0.603628 0.617776 0.617519 0.774206 0.8253 0.904399 0.775194 0.757693 0.752162 0.755163 0.751473 0.755108 0.752072 0.757498 0.77528 0.904413 0.825383 0.774026 0.617442 0.617699 0.603566 0.591963 0.571635 0.550725 0.553687 0.589545 0.606485 0.612175 0.596182 0.580636 0.569327 0.55908 0.554306 0.555413 0.59332 0.599995 0.607757 0.543447 0.58537 0.554238 0.424652 0.464771 0.290891 0.327378 0.309049 0.415243 0.973156 0.954117 1.25007 0.269499 0.163164 0.237569 0.431352 0.438231 0.600491 0.483865 0.569851 0.578157 0.567933 0.59857 0.610319 0.617784 0.614184 0.570199 0.547807 0.627413 0.634125 0.657805 0.671997 0.662615 0.653222 0.727544 0.909582 0.819394 0.782778 0.758699 0.759986 0.758655 0.782736 0.819209 0.909483 0.727332 0.653336 0.662613 0.671984 0.657803 0.634134 0.627428 0.547787 0.570188 0.614182 0.617782 0.610322 0.598568 0.567933 0.578157 0.569852 0.483866 0.600492 0.438231 0.43135 0.237564 0.163164 0.269499 1.25007 0.409749 0.464569 0.399842 0.132727 0.139878 0.261685 0.354671 0.514227 0.484167 0.60026 0.607269 0.588823 0.576769 0.572329 0.57214 0.576772 0.583837 0.624468 0.639004 0.666034 0.656606 0.643354 0.632124 0.625744 0.67463 0.677384 0.662077 0.743716 0.766399 0.960334 0.760364 0.764747 0.764675 0.760206 0.959642 0.766539 0.743483 0.662184 0.677397 0.674632 0.625763 0.632142 0.643373 0.656624 0.666036 0.639005 0.624477 0.583831 0.576769 0.572141 0.57233 0.576768 0.588822 0.60727 0.60026 0.484167 0.514228 0.354669 0.261684 0.139876 0.132724 0.399842 0.464572 0.409755 0.619535 0.753966 0.534069 0.392884 0.26736 0.252109 0.403627 0.48144 0.450752 0.5788 0.61928 0.620519 0.593474 0.588581 0.586154 0.585012 0.580231 0.605042 0.612811 0.669385 0.651987 0.639369 0.636001 0.630541 0.631245 0.653943 0.819638 0.775229 0.791208 0.76753 0.774041 0.769085 0.77382 0.767561 0.791491 0.775041 0.819257 0.653953 0.631232 0.630547 0.636012 0.639382 0.652003 0.669394 0.612812 0.605036 0.580224 0.58501 0.586156 0.588581 0.593473 0.620519 0.619281 0.5788 0.450752 0.481441 0.403627 0.252108 0.267377 0.392888 0.534064 0.753961 0.619542 0.726323 0.541191 0.255289 0.403926 0.324663 0.460619 0.450748 0.79008 0.639195 0.620436 0.617072 0.600724 0.596634 0.594237 0.580356 0.616023 0.619622 0.634151 0.647732 0.669459 0.641261 0.649311 0.646615 0.631652 0.673276 0.693308 0.670413 0.770941 0.719059 0.823518 0.776144 0.761048 0.768334 0.783496 0.767854 0.761307 0.775907 0.823348 0.718864 0.770712 0.670455 0.69336 0.673298 0.631656 0.646556 0.64932 0.641272 0.669465 0.647741 0.634156 0.61962 0.616018 0.580351 0.594238 0.596634 0.600723 0.617071 0.620437 0.639196 0.790081 0.450748 0.460619 0.324662 0.403926 0.255303 0.541184 0.72632 0.694475 0.543161 0.668735 0.303783 0.50002 0.751099 0.627617 0.606653 0.601787 0.585893 0.630095 0.618008 0.646127 0.655564 0.668467 0.674414 0.667698 0.650572 0.624074 0.641055 0.714426 0.691839 0.802467 0.731236 0.823958 0.778811 0.774563 0.729237 0.700011 0.792196 0.791156 0.698576 0.728529 0.77473 0.778379 0.824385 0.730764 0.802427 0.691896 0.714585 0.64108 0.624107 0.650584 0.667709 0.674425 0.668475 0.655571 0.646128 0.618 0.630104 0.585886 0.601787 0.606653 0.627617 0.751098 0.500019 0.303784 0.668721 0.543153 0.69447 0.678725 0.662906 0.740839 0.750075 0.562293 0.682202 0.792867 0.822271 0.700881 0.623031 0.60579 0.65834 0.663087 0.66987 0.675455 0.67463 0.664704 0.65053 0.651083 0.669188 0.737784 0.775584 0.808999 0.794669 0.806857 0.775251 0.737991 0.669284 0.651093 0.650538 0.664717 0.674642 0.675462 0.669877 0.663093 0.658346 0.605789 0.623032 0.700881 0.822268 0.792868 0.682202 0.562292 0.75006 0.740833 0.662899 0.67872 0.704369 1.01578 0.762174 0.245914 0.485258 0.637009 0.657166 0.621205 0.611137 0.6271 0.613536 0.583911 0.651791 0.611447 0.683778 0.689192 0.680511 0.648512 0.629888 0.672729 0.573489 0.589947 0.755898 0.864539 0.830883 0.776936 0.765539 0.716942 0.658961 0.786201 0.658895 0.715693 0.764902 0.776557 0.832343 0.86467 0.756271 0.589928 0.573526 0.67276 0.629885 0.64853 0.680531 0.689205 0.683786 0.611451 0.651772 0.583922 0.613533 0.627101 0.611138 0.621204 0.657166 0.637009 0.485258 0.245912 0.762172 1.01578 0.704365 0.649358 0.893832 0.654406 0.894045 0.719287 0.58872 0.642519 0.626104 0.617195 0.634432 0.581228 0.67277 0.613366 0.670934 0.672169 0.674127 0.678069 0.636171 0.645586 0.730166 0.600598 0.777559 0.758152 0.895992 0.795232 0.84293 0.788861 0.78391 0.730327 0.702322 0.830231 0.828421 0.700713 0.729287 0.786138 0.788209 0.843551 0.795129 0.896213 0.758413 0.777573 0.600587 0.730386 0.645588 0.636186 0.678076 0.674134 0.672174 0.670949 0.613356 0.672768 0.581225 0.634431 0.617195 0.626104 0.642519 0.58872 0.719286 0.894048 0.654409 0.893832 0.649354 0.625231 0.985917 0.599107 0.462713 0.790339 0.731194 0.570731 0.644651 0.632504 0.620651 0.606814 0.707796 0.59375 0.689123 0.676816 0.68107 0.684494 0.68679 0.688605 0.691715 0.661056 0.726617 0.834401 0.817265 0.788818 0.717576 0.785656 0.780436 0.782954 0.717769 0.788881 0.817333 0.834277 0.726413 0.661076 0.691734 0.688616 0.686799 0.684502 0.681076 0.67682 0.689128 0.593768 0.70778 0.606813 0.620651 0.632504 0.644652 0.570731 0.731194 0.79034 0.462714 0.599107 0.985918 0.625229 0.909579 0.803019 0.753039 0.653652 0.526193 0.560853 0.792933 0.713166 0.563001 0.5815 0.706154 0.687803 0.688068 0.692775 0.694428 0.694304 0.699702 0.72843 0.72558 0.698326 0.673483 0.797218 0.898429 0.841776 0.843518 0.771082 0.723746 0.770385 0.719483 0.769867 0.842491 0.846149 0.89979 0.797152 0.673381 0.698375 0.725645 0.728473 0.699729 0.694319 0.694438 0.692782 0.688073 0.687809 0.706169 0.581489 0.563001 0.713166 0.792933 0.560853 0.526192 0.653652 0.753041 0.803019 0.909579 0.88008 0.850655 0.56072 0.747993 0.782706 0.499971 0.759617 0.649803 0.632532 0.599517 0.737383 0.701524 0.702819 0.706575 0.718107 0.732165 0.71067 0.67272 0.910002 0.733177 0.85794 0.833369 0.776494 0.816213 0.797546 0.802399 0.796921 0.740034 0.752534 0.775953 0.770332 0.754063 0.738758 0.792236 0.804343 0.79751 0.815341 0.775953 0.834684 0.857598 0.733238 0.910069 0.672786 0.710737 0.732222 0.71815 0.706602 0.702836 0.701535 0.737383 0.599515 0.632531 0.649803 0.759618 0.499972 0.782706 0.747993 0.560719 0.850656 0.88008 0.731615 0.704784 0.560879 0.648403 0.619268 0.723728 0.610621 0.717917 0.699432 0.696935 0.702757 0.653271 0.791228 0.802982 0.805283 0.794405 0.747394 0.759929 0.764657 0.782598 0.742895 0.803032 0.803686 0.803409 0.791681 0.653287 0.702764 0.696944 0.699439 0.717928 0.610611 0.723732 0.619266 0.648403 0.560879 0.704784 0.731615 0.812164 0.851588 0.605289 0.775788 0.772767 0.888087 0.815946 0.71458 0.703682 0.553845 0.634996 0.725932 0.699482 0.698007 0.6835 0.668976 0.665343 0.672233 0.67364 0.675302 0.674375 0.678873 0.700023 0.688781 0.892352 0.838408 0.762932 0.806768 0.782633 0.767477 0.750707 0.768861 0.782891 0.80711 0.76282 0.837757 0.89194 0.688791 0.700062 0.678905 0.674396 0.675317 0.673649 0.672242 0.665351 0.668984 0.683507 0.698013 0.699486 0.725936 0.634995 0.553844 0.703682 0.71458 0.815944 0.888087 0.772767 0.775788 0.605289 0.851588 0.812164 0.829943 0.733156 0.713508 0.764058 0.723815 0.869955 0.842993 0.785729 0.704029 0.695582 0.528408 0.730778 0.709033 0.697334 0.687361 0.67483 0.670324 0.671385 0.678712 0.689594 0.682909 0.668944 0.692879 0.699949 0.669011 0.86929 0.869054 0.819623 0.847102 0.776499 0.925354 0.838599 0.906636 0.833707 0.916539 0.81266 0.894294 0.775375 0.852679 0.813893 0.916437 0.835312 0.906455 0.839164 0.924869 0.77624 0.846883 0.818426 0.869077 0.86926 0.669014 0.699978 0.692924 0.668979 0.682933 0.689611 0.678726 0.671397 0.670333 0.674838 0.687367 0.697339 0.709037 0.730782 0.528407 0.695582 0.704029 0.785729 0.842993 0.869955 0.723814 0.764059 0.713508 0.733155 0.829943 0.729603 0.715618 0.90136 0.902075 0.968133 0.939973 0.917636 0.955919 0.907048 0.917759 0.939958 0.968444 0.902808 0.901489 0.715569 0.729583 0.799221 0.842495 0.858697 0.866889 0.897242 0.892507 0.893833 0.868447 0.829813 0.829694 0.756223 0.740782 0.729204 0.719778 0.711177 0.702567 0.693014 0.716002 0.740745 0.744146 0.738297 0.696382 0.859045 0.851191 0.864329 0.834054 0.888692 0.8897 0.85114 0.751302 0.862917 0.890697 0.888959 0.833544 0.864175 0.851203 0.859045 0.696364 0.738284 0.744135 0.740737 0.715997 0.69301 0.702566 0.711175 0.719776 0.729203 0.740782 0.756223 0.829694 0.829813 0.868447 0.893833 0.892507 0.897242 0.866889 0.858697 0.842495 0.799222 0.897183 0.876313 0.887484 0.894918 0.899154 0.89954 0.896216 0.897822 0.885785 0.890266 0.891562 0.840656 0.733286 0.723682 0.713479 0.701445 0.697941 0.711153 0.724628 0.75026 0.757754 0.843715 0.857119 0.89065 0.901422 0.883153 0.900667 0.884578 0.899096 0.857359 0.897343 0.895987 0.895692 0.896013 0.895689 0.867977 0.893957 0.787158 0.893961 0.86963 0.895686 0.897123 0.89568 0.895518 0.897345 0.856735 0.899102 0.884503 0.90067 0.88314 0.901423 0.890638 0.85711 0.843708 0.757743 0.750252 0.724622 0.711148 0.697938 0.701444 0.713477 0.723681 0.733286 0.840656 0.891562 0.890265 0.885785 0.897822 0.896216 0.89954 0.899154 0.894918 0.887484 0.876313 0.897183 0.902388 0.884576 0.894608 0.897615 0.897753 0.905018 0.902129 0.903254 0.890408 0.896686 0.900325 0.886156 0.845354 0.834399 0.821892 0.806735 0.798528 0.79526 0.798886 0.816826 0.818914 0.898458 0.897456 0.906712 0.918855 0.89129 0.909342 0.88623 0.903375 0.868172 0.89943 0.894072 0.896868 0.896462 0.89493 0.870755 0.894017 0.794393 0.894012 0.871107 0.894928 0.89689 0.896872 0.893201 0.899436 0.867842 0.903376 0.886225 0.909341 0.891274 0.918856 0.906711 0.897449 0.898453 0.818912 0.816824 0.798885 0.79526 0.798528 0.806735 0.821892 0.834399 0.845354 0.886156 0.900325 0.896686 0.890408 0.903254 0.902129 0.905018 0.897753 0.897615 0.894608 0.884576 0.902388 0.901922 0.886269 0.895116 0.898268 0.898635 0.904739 0.903245 0.903822 0.891337 0.901606 0.906154 0.907117 0.872397 0.869086 0.86414 0.856361 0.847706 0.848063 0.846639 0.838027 0.836323 0.889682 0.889469 0.900775 0.894365 0.889437 0.894014 0.885047 0.893832 0.874684 0.893832 0.891446 0.893832 0.895167 0.893832 0.872654 0.893832 0.796802 0.893832 0.873142 0.893832 0.894754 0.893832 0.890783 0.893832 0.874586 0.893832 0.885062 0.894014 0.889426 0.894365 0.900772 0.889465 0.889679 0.836321 0.838025 0.846639 0.848062 0.847706 0.85636 0.86414 0.869086 0.872397 0.907117 0.906154 0.901606 0.891337 0.903822 0.903245 0.904739 0.898635 0.898268 0.895116 0.886269 0.901922 0.900653 0.886765 0.89445 0.897975 0.898296 0.902959 0.902363 0.901574 0.88908 0.900429 0.902364 0.902964 0.872477 0.868485 0.860516 0.852137 0.844872 0.846554 0.84418 0.85002 0.85381 0.886089 0.885226 0.898031 0.894493 0.889167 0.894 0.885608 0.893832 0.87912 0.893832 0.890274 0.893832 0.893642 0.893832 0.87518 0.893832 0.798018 0.893832 0.87524 0.893832 0.892982 0.893832 0.889968 0.893832 0.879126 0.893832 0.885625 0.894 0.889161 0.894493 0.898029 0.885224 0.886087 0.853809 0.850019 0.84418 0.846554 0.844872 0.852137 0.860516 0.868485 0.872477 0.902965 0.902364 0.900429 0.88908 0.901574 0.902363 0.902959 0.898296 0.897975 0.89445 0.886765 0.900653 0.899151 0.886797 0.893642 0.897588 0.897926 0.90123 0.901422 0.8995 0.887921 0.899708 0.899587 0.899193 0.872718 0.868196 0.859669 0.850642 0.845024 0.848396 0.847173 0.858205 0.86904 0.88417 0.882489 0.896238 0.893832 0.889147 0.893832 0.886615 0.893832 0.882341 0.893832 0.889789 0.893832 0.892096 0.893832 0.877498 0.893832 0.800302 0.893832 0.877004 0.893832 0.891645 0.893832 0.889711 0.893832 0.882372 0.893832 0.886629 0.893832 0.889143 0.893832 0.896237 0.882487 0.884169 0.869039 0.858204 0.847173 0.848396 0.845024 0.850641 0.859669 0.868196 0.872718 0.899194 0.899587 0.899708 0.887921 0.8995 0.901422 0.90123 0.897926 0.897588 0.893642 0.886797 0.899151 0.897583 0.886927 0.892817 0.897124 0.897504 0.899589 0.900386 0.897605 0.887469 0.898991 0.897471 0.896215 0.874289 0.869869 0.861439 0.852588 0.847764 0.852074 0.852679 0.864708 0.881508 0.883914 0.881731 0.894955 0.893832 0.889303 0.893832 0.887634 0.893832 0.884803 0.893832 0.889571 0.893832 0.890834 0.893832 0.879163 0.893832 0.804428 0.893832 0.87857 0.893832 0.890653 0.893832 0.889583 0.893832 0.884831 0.893832 0.887644 0.893832 0.889301 0.893832 0.894954 0.88173 0.883914 0.881507 0.864708 0.852679 0.852074 0.847764 0.852588 0.861439 0.869869 0.874289 0.896215 0.897471 0.898991 0.887469 0.897605 0.900386 0.899589 0.897504 0.897124 0.892817 0.886927 0.897583 0.896045 0.88726 0.892141 0.896605 0.897045 0.898052 0.899293 0.89599 0.887631 0.898299 0.895939 0.8939 0.876285 0.872397 0.864443 0.856449 0.852058 0.856724 0.859399 0.871572 0.887413 0.884554 0.882237 0.893988 0.893832 0.889543 0.893832 0.888477 0.893832 0.886568 0.893832 0.889479 0.893832 0.889894 0.893832 0.880386 0.893832 0.809662 0.893832 0.880023 0.893832 0.889869 0.893832 0.88951 0.893832 0.886589 0.893832 0.888484 0.893832 0.889542 0.893832 0.893988 0.882237 0.884553 0.887412 0.871572 0.859399 0.856724 0.852058 0.856449 0.864442 0.872397 0.876285 0.8939 0.895939 0.898299 0.887631 0.89599 0.899293 0.898052 0.897045 0.896605 0.892141 0.88726 0.896045 0.894646 0.887639 0.891717 0.896052 0.896554 0.89665 0.898173 0.894666 0.888217 0.897618 0.894819 0.892069 0.878354 0.875179 0.867918 0.860951 0.857171 0.861899 0.865418 0.878011 0.888324 0.885558 0.883437 0.893293 0.893832 0.889785 0.893832 0.88912 0.893832 0.887714 0.893832 0.88944 0.893832 0.889222 0.893832 0.881405 0.893832 0.815347 0.893832 0.881286 0.893832 0.88925 0.893832 0.889467 0.893832 0.887727 0.893832 0.889126 0.893832 0.889784 0.893832 0.893293 0.883437 0.885558 0.888323 0.878011 0.865418 0.861899 0.857171 0.860951 0.867917 0.875179 0.878354 0.892069 0.894819 0.897618 0.888217 0.894666 0.898173 0.89665 0.896554 0.896052 0.891717 0.887639 0.894646 0.893497 0.887977 0.891513 0.895487 0.896042 0.8954 0.89705 0.893593 0.889003 0.896948 0.893981 0.890576 0.880272 0.877861 0.871391 0.865473 0.862405 0.867084 0.870558 0.882823 0.887512 0.886665 0.884996 0.892808 0.893832 0.889999 0.893832 0.889605 0.893832 0.888435 0.893832 0.889411 0.893832 0.888756 0.893832 0.882312 0.893832 0.821195 0.893832 0.882321 0.893832 0.888791 0.893832 0.889431 0.893832 0.888444 0.893832 0.889609 0.893832 0.889998 0.893832 0.892807 0.884996 0.886665 0.887512 0.882823 0.870558 0.867084 0.862405 0.865473 0.871391 0.877861 0.880272 0.890576 0.893981 0.896948 0.889003 0.893593 0.89705 0.8954 0.896042 0.895487 0.891513 0.887977 0.893497 0.892648 0.888292 0.891441 0.894931 0.895521 0.894299 0.895953 0.892735 0.889803 0.896292 0.893315 0.889334 0.881878 0.880187 0.874564 0.869709 0.867314 0.871792 0.875073 0.885511 0.886707 0.887747 0.886684 0.892469 0.893832 0.890174 0.893832 0.889945 0.893832 0.888916 0.893832 0.889384 0.893832 0.888441 0.893832 0.883119 0.893832 0.827027 0.893832 0.883164 0.893832 0.888468 0.893832 0.889397 0.893832 0.888922 0.893832 0.889947 0.893832 0.890174 0.893832 0.892469 0.886684 0.887746 0.886707 0.885511 0.875072 0.871792 0.867314 0.869709 0.874564 0.880187 0.881878 0.889334 0.893315 0.896292 0.889803 0.892735 0.895953 0.894299 0.895521 0.894931 0.891441 0.888292 0.892648 0.892085 0.888624 0.89143 0.894402 0.895004 0.893341 0.894914 0.892068 0.8905 0.895651 0.892722 0.88828 0.883097 0.882035 0.87728 0.873457 0.871662 0.875806 0.878885 0.88659 0.886347 0.888727 0.888308 0.892227 0.893832 0.890298 0.893832 0.890139 0.893832 0.889264 0.893832 0.88936 0.893832 0.888236 0.893832 0.883822 0.893832 0.832694 0.893832 0.883864 0.893832 0.888255 0.893832 0.889369 0.893832 0.889268 0.893832 0.890141 0.893832 0.890298 0.893832 0.892227 0.888308 0.888727 0.886346 0.88659 0.878885 0.875806 0.871662 0.873457 0.87728 0.882035 0.883097 0.88828 0.892722 0.895651 0.8905 0.892068 0.894914 0.893341 0.895004 0.894402 0.89143 0.888624 0.892085 0.891756 0.888989 0.891444 0.893914 0.8945 0.89252 0.893961 0.891567 0.891046 0.895031 0.892129 0.887361 0.883945 0.883398 0.879496 0.876624 0.875352 0.879071 0.881854 0.886934 0.886408 0.889567 0.889735 0.892047 0.893832 0.890372 0.893832 0.890222 0.893832 0.889524 0.893832 0.88934 0.893832 0.888113 0.893832 0.884425 0.893832 0.838099 0.893832 0.884455 0.893832 0.888126 0.893832 0.889347 0.893832 0.889526 0.893832 0.890223 0.893832 0.890372 0.893832 0.892047 0.889735 0.889567 0.886408 0.886934 0.881854 0.879071 0.875352 0.876624 0.879496 0.883398 0.883945 0.887361 0.892129 0.895031 0.891046 0.891567 0.893961 0.89252 0.8945 0.893914 0.891444 0.888989 0.891756 0.891605 0.889387 0.891471 0.893477 0.894022 0.891835 0.893109 0.891204 0.891436 0.881227 0.879206 0.878385 0.881612 0.884002 0.887137 0.886776 0.890249 0.890904 0.891903 0.893832 0.890407 0.893832 0.890246 0.893832 0.889713 0.893832 0.889327 0.893832 0.888051 0.893832 0.884937 0.893832 0.893832 0.884956 0.893832 0.88806 0.893832 0.889331 0.893832 0.889714 0.893832 0.890247 0.893832 0.890407 0.893832 0.891903 0.890904 0.890249 0.886776 0.887137 0.884002 0.881612 0.878385 0.879206 0.881227 0.891437 0.891204 0.893109 0.891835 0.894022 0.893477 0.891471 0.889387 0.891605 0.894437 0.891509 0.886552 0.884485 0.884326 0.843189 0.884326 0.884485 0.886552 0.891509 0.894437 0.891577 0.889806 0.891508 0.893099 0.893576 0.891278 0.892366 0.89095 0.891684 0.893875 0.890867 0.885865 0.884788 0.8849 0.882532 0.881248 0.880819 0.883531 0.885484 0.88742 0.887339 0.89078 0.891813 0.891784 0.893832 0.890419 0.893832 0.890255 0.893832 0.889842 0.893832 0.889317 0.893832 0.888036 0.893832 0.885371 0.893832 0.847938 0.893832 0.885383 0.893832 0.888041 0.893832 0.889319 0.893832 0.889843 0.893832 0.890255 0.893832 0.890419 0.893832 0.891784 0.891813 0.890779 0.887339 0.88742 0.885484 0.883531 0.880819 0.881248 0.882532 0.8849 0.884788 0.885865 0.890867 0.893875 0.891684 0.89095 0.892366 0.891278 0.893576 0.893099 0.891508 0.889806 0.891577 0.888009 0.892489 0.893832 0.893832 0.893832 0.893832 0.893832 0.893832 0.893832 0.893832 0.893832 0.893832 0.893832 0.893832 0.893832 0.893832 0.892489 0.888009 0.891625 0.890235 0.891561 0.892781 0.893168 0.890837 0.891737 0.890778 0.891812 0.893349 0.890223 0.885313 0.88492 0.885219 0.883489 0.88283 0.882726 0.884968 0.886484 0.887808 0.891172 0.891681 0.890413 0.89027 0.889922 0.88931 0.888054 0.885743 0.852332 0.88575 0.888058 0.889312 0.889923 0.89027 0.890413 0.891681 0.891172 0.887808 0.886484 0.884968 0.882726 0.88283 0.883489 0.885219 0.88492 0.885313 0.890223 0.893349 0.891812 0.890778 0.891737 0.890837 0.893168 0.892781 0.891561 0.890235 0.891625 0.891711 0.890658 0.891635 0.892522 0.892804 0.890498 0.891217 0.890669 0.891847 0.892863 0.889599 0.884894 0.884948 0.885377 0.884188 0.884043 0.884189 0.886044 0.887172 0.888266 0.888722 0.891447 0.892974 0.891592 0.893832 0.890398 0.893832 0.890295 0.893832 0.889962 0.893832 0.889305 0.893832 0.888099 0.893832 0.886064 0.893832 0.856366 0.893832 0.886068 0.893832 0.888101 0.893832 0.889307 0.893832 0.889963 0.893832 0.890295 0.893832 0.890398 0.893832 0.891592 0.892974 0.891447 0.888722 0.888266 0.887172 0.886044 0.884189 0.884043 0.884188 0.885377 0.884948 0.884894 0.889599 0.892863 0.891847 0.890669 0.891217 0.890498 0.892804 0.892522 0.891635 0.890658 0.891711 0.89181 0.891061 0.891732 0.892319 0.892485 0.890247 0.8908 0.890605 0.891818 0.892419 0.889012 0.8846 0.884932 0.885453 0.884708 0.884968 0.8853 0.886855 0.88769 0.888752 0.889429 0.891626 0.893307 0.891514 0.893832 0.890378 0.893832 0.890326 0.893832 0.889973 0.893832 0.889302 0.893832 0.888162 0.893832 0.886344 0.893832 0.860041 0.893832 0.886347 0.893832 0.888163 0.893832 0.889303 0.893832 0.889973 0.893832 0.890326 0.893832 0.890378 0.893832 0.891514 0.893307 0.891626 0.889429 0.888752 0.88769 0.886855 0.8853 0.884968 0.884708 0.885453 0.884932 0.8846 0.889012 0.892419 0.891818 0.890605 0.8908 0.890247 0.892485 0.892319 0.891732 0.891061 0.89181 0.891903 0.891433 0.891848 0.892164 0.892211 0.89007 0.890475 0.890572 0.891747 0.892017 0.888475 0.884422 0.884912 0.885501 0.885111 0.885679 0.88615 0.887474 0.888135 0.889239 0.890097 0.891731 0.893525 0.891448 0.893832 0.890358 0.893832 0.890358 0.893832 0.889961 0.893832 0.889301 0.893832 0.888238 0.893832 0.886593 0.893832 0.863362 0.893832 0.886594 0.893832 0.888239 0.893832 0.889301 0.893832 0.889961 0.893832 0.890358 0.893832 0.890358 0.893832 0.891448 0.893525 0.891731 0.890097 0.889239 0.888135 0.887474 0.88615 0.885679 0.885111 0.885501 0.884912 0.884422 0.888475 0.892017 0.891747 0.890572 0.890475 0.89007 0.892211 0.892164 0.891848 0.891433 0.891903 0.891982 0.891766 0.891978 0.892051 0.89198 0.889954 0.890229 0.890558 0.891656 0.891658 0.887996 0.88435 0.884916 0.885556 0.885443 0.886238 0.886811 0.887965 0.888557 0.889703 0.890706 0.89178 0.893662 0.891392 0.893832 0.890342 0.893832 0.890385 0.893832 0.889935 0.893832 0.8893 0.893832 0.888322 0.893832 0.886815 0.893832 0.866339 0.893832 0.886816 0.893832 0.888323 0.893832 0.889301 0.893832 0.889935 0.893832 0.890385 0.893832 0.890342 0.893832 0.891392 0.893662 0.89178 0.890706 0.889703 0.888557 0.887965 0.886811 0.886238 0.885443 0.885556 0.884916 0.88435 0.887996 0.891658 0.891656 0.890558 0.890229 0.889954 0.89198 0.892051 0.891978 0.891766 0.891982 0.892041 0.892054 0.892113 0.891974 0.891789 0.889887 0.890048 0.890554 0.891558 0.89134 0.887579 0.884369 0.884959 0.885636 0.885732 0.886689 0.887336 0.888376 0.888969 0.890129 0.891244 0.89179 0.893744 0.891345 0.893832 0.89033 0.893832 0.890405 0.893832 0.8899 0.893832 0.889301 0.893832 0.88841 0.893832 0.887015 0.893832 0.868983 0.893832 0.887016 0.893832 0.888411 0.893832 0.889301 0.893832 0.8899 0.893832 0.890405 0.893832 0.89033 0.893832 0.891345 0.893744 0.89179 0.891244 0.890129 0.888969 0.888376 0.887336 0.886689 0.885732 0.885636 0.884959 0.884369 0.887579 0.89134 0.891558 0.890554 0.890048 0.889887 0.891789 0.891974 0.892113 0.892054 0.892041 0.892082 0.892297 0.892247 0.891925 0.891635 0.889856 0.889921 0.890556 0.891461 0.891061 0.887224 0.884456 0.885045 0.885747 0.885996 0.887065 0.887766 0.888738 0.889365 0.89051 0.891706 0.891774 0.89379 0.891307 0.893832 0.890321 0.893832 0.890417 0.893832 0.889861 0.893832 0.889303 0.893832 0.888498 0.893832 0.887195 0.893832 0.871309 0.893832 0.887196 0.893832 0.888499 0.893832 0.889303 0.893832 0.889861 0.893832 0.890417 0.893832 0.890321 0.893832 0.891307 0.89379 0.891774 0.891706 0.89051 0.889365 0.888738 0.887766 0.887065 0.885996 0.885747 0.885045 0.884456 0.887224 0.891061 0.891461 0.890556 0.889921 0.889856 0.891635 0.891925 0.892247 0.892297 0.892082 0.892106 0.892495 0.892372 0.891896 0.891512 0.889852 0.889835 0.89056 0.891369 0.890819 0.886925 0.884592 0.885168 0.885885 0.886242 0.887387 0.888126 0.889064 0.889735 0.89084 0.892095 0.891742 0.893814 0.891276 0.893832 0.890315 0.893832 0.890421 0.893832 0.889821 0.893832 0.889306 0.893832 0.888583 0.893832 0.887357 0.893832 0.873331 0.893832 0.887357 0.893832 0.888584 0.893832 0.889306 0.893832 0.889821 0.893832 0.890421 0.893832 0.890315 0.893832 0.891276 0.893814 0.891742 0.892095 0.89084 0.889735 0.889064 0.888126 0.887387 0.886242 0.885885 0.885168 0.884592 0.886925 0.890819 0.891369 0.89056 0.889835 0.889852 0.891512 0.891896 0.892372 0.892495 0.892106 0.892118 0.892652 0.892484 0.891883 0.891418 0.889867 0.889779 0.890563 0.891286 0.890613 0.88668 0.884754 0.885316 0.886038 0.886471 0.887664 0.888434 0.889356 0.890068 0.89112 0.892414 0.891704 0.893825 0.891253 0.893832 0.890311 0.893832 0.890418 0.893832 0.889783 0.893832 0.889309 0.893832 0.888663 0.893832 0.887501 0.893832 0.875062 0.893832 0.887501 0.893832 0.888663 0.893832 0.889309 0.893832 0.889783 0.893832 0.890418 0.893832 0.890311 0.893832 0.891253 0.893825 0.891704 0.892414 0.89112 0.890068 0.889356 0.888434 0.887664 0.886471 0.886038 0.885316 0.884754 0.88668 0.890613 0.891286 0.890563 0.889779 0.889867 0.891418 0.891883 0.892484 0.892652 0.892118 0.89212 0.892773 0.892581 0.89188 0.891346 0.889891 0.889746 0.890565 0.891212 0.890441 0.886482 0.884925 0.885474 0.886194 0.886677 0.887902 0.888698 0.889612 0.890357 0.89135 0.89267 0.891665 0.89383 0.891234 0.893832 0.890308 0.893832 0.890411 0.893832 0.889748 0.893832 0.889313 0.893832 0.888734 0.893832 0.887626 0.893832 0.876517 0.893832 0.887626 0.893832 0.888735 0.893832 0.889313 0.893832 0.889748 0.893832 0.890411 0.893832 0.890308 0.893832 0.891234 0.89383 0.891665 0.89267 0.89135 0.890357 0.889612 0.888698 0.887902 0.886677 0.886194 0.885474 0.884925 0.886482 0.890441 0.891212 0.890565 0.889746 0.889891 0.891346 0.89188 0.892581 0.892773 0.89212 0.892116 0.892863 0.892662 0.891884 0.891293 0.889921 0.889728 0.890566 0.891147 0.8903 0.886326 0.88509 0.885627 0.886339 0.886857 0.888102 0.888919 0.889828 0.890599 0.891535 0.892871 0.891629 0.893831 0.891221 0.893832 0.890305 0.893832 0.890401 0.893832 0.889718 0.893832 0.889316 0.893832 0.888796 0.893832 0.887731 0.893832 0.877709 0.893832 0.887732 0.893832 0.888797 0.893832 0.889316 0.893832 0.889718 0.893832 0.890401 0.893832 0.890305 0.893832 0.891221 0.893831 0.891629 0.892871 0.891535 0.890599 0.889828 0.888919 0.888102 0.886857 0.886339 0.885627 0.88509 0.886326 0.8903 0.891147 0.890566 0.889728 0.889921 0.891293 0.891884 0.892662 0.892863 0.892116 0.89211 0.892927 0.892725 0.89189 0.891256 0.88995 0.889719 0.890565 0.891094 0.890189 0.886207 0.885235 0.885763 0.886466 0.887006 0.888263 0.889097 0.890001 0.890792 0.891676 0.893023 0.891599 0.893832 0.891212 0.893832 0.890303 0.893832 0.89039 0.893832 0.889693 0.893832 0.889319 0.893832 0.888848 0.893832 0.887817 0.893832 0.878648 0.893832 0.887818 0.893832 0.888848 0.893832 0.889319 0.893832 0.889693 0.893832 0.89039 0.893832 0.890303 0.893832 0.891212 0.893832 0.891599 0.893023 0.891676 0.890792 0.890001 0.889097 0.888263 0.887006 0.886466 0.885763 0.885235 0.886207 0.890189 0.891094 0.890565 0.889719 0.88995 0.891256 0.89189 0.892725 0.892927 0.89211 0.892103 0.89297 0.892771 0.891896 0.89123 0.889974 0.889716 0.890565 0.891053 0.890107 0.886123 0.885353 0.885873 0.886566 0.887119 0.888383 0.889232 0.890131 0.890936 0.891779 0.893131 0.891575 0.893832 0.891205 0.893832 0.890301 0.893832 0.89038 0.893832 0.889674 0.893832 0.889322 0.893832 0.888887 0.893832 0.887883 0.893832 0.879344 0.893832 0.887883 0.893832 0.888887 0.893832 0.889322 0.893832 0.889674 0.893832 0.89038 0.893832 0.890301 0.893832 0.891205 0.893832 0.891575 0.893131 0.891779 0.890936 0.890131 0.889232 0.888383 0.887119 0.886566 0.885873 0.885353 0.886123 0.890107 0.891053 0.890565 0.889716 0.889974 0.89123 0.891896 0.892771 0.89297 0.892103 0.892997 0.892802 0.891901 0.891215 0.887196 0.888464 0.889322 0.890217 0.891032 0.891846 0.893201 0.891559 0.893832 0.891201 0.893832 0.8903 0.893832 0.890372 0.893832 0.889662 0.893832 0.889323 0.893832 0.888913 0.893832 0.887927 0.893832 0.879804 0.893832 0.887927 0.893832 0.888913 0.893832 0.889323 0.893832 0.889662 0.893832 0.890372 0.893832 0.8903 0.893832 0.891201 0.893832 0.891559 0.893201 0.891846 0.891032 0.890217 0.889322 0.888464 0.887196 0.891215 0.891901 0.892802 0.892997 0.892097 0.889992 0.889715 0.890564 0.891025 0.890052 0.886068 0.885435 0.88595 0.886635 0.886635 0.88595 0.885435 0.886068 0.890052 0.891025 0.890564 0.889715 0.889992 0.892097 0.892094 0.89301 0.892817 0.891904 0.891207 0.890002 0.889715 0.890564 0.891011 0.890025 0.886041 0.885477 0.885989 0.88667 0.887234 0.888505 0.889367 0.89026 0.891079 0.891879 0.893235 0.891551 0.893832 0.891199 0.893832 0.8903 0.893832 0.890368 0.893832 0.889655 0.893832 0.889324 0.893832 0.888927 0.893832 0.887949 0.893832 0.880033 0.893832 0.887949 0.893832 0.888927 0.893832 0.889324 0.893832 0.889655 0.893832 0.890368 0.893832 0.8903 0.893832 0.891199 0.893832 0.891551 0.893235 0.891879 0.891079 0.89026 0.889367 0.888505 0.887234 0.88667 0.885989 0.885477 0.886041 0.890025 0.891011 0.890564 0.889715 0.890002 0.891207 0.891904 0.892817 0.89301 0.892094 
SCALARS Axial_Stress float 1
LOOKUP_TABLE default
-45204000000.0 -81144300000.0 -81159800000.0 -45213800000.0 -61606100000.0 -96077900000.0 -100457000000.0 -210689000000.0 -210697000000.0 -100488000000.0 -96085500000.0 -61602300000.0 -141948000000.0 -299202000000.0 -302095000000.0 -202781000000.0 -62113500000.0 -184629000000.0 -151307000000.0 -284471000000.0 -117700000000.0 -397002000000.0 -397053000000.0 -117750000000.0 -284613000000.0 -151322000000.0 -184645000000.0 -62186400000.0 -202826000000.0 -302124000000.0 -299177000000.0 -141976000000.0 -122534000000.0 -599377000000.0 -309525000000.0 -487578000000.0 -505100000000.0 -182645000000.0 -441393000000.0 -102493000000.0 -441459000000.0 -182854000000.0 -505340000000.0 -487659000000.0 -309596000000.0 -599573000000.0 -122552000000.0 -234317000000.0 -256049000000.0 -466649000000.0 -486103000000.0 -545492000000.0 -601578000000.0 -510639000000.0 -498771000000.0 -441848000000.0 -441941000000.0 -498941000000.0 -511092000000.0 -601765000000.0 -545579000000.0 -486090000000.0 -466504000000.0 -255973000000.0 -234296000000.0 -610609000000.0 -924128000000.0 -283163000000.0 -667750000000.0 -258847000000.0 -535502000000.0 -551129000000.0 -615133000000.0 -531080000000.0 -723142000000.0 -551954000000.0 -723239000000.0 -531268000000.0 -615457000000.0 -551495000000.0 -536077000000.0 -259111000000.0 -667939000000.0 -283434000000.0 -924347000000.0 -610626000000.0 -550371000000.0 -1.29316e+12 -792713000000.0 -600873000000.0 -839060000000.0 -538994000000.0 -368012000000.0 -739436000000.0 -847993000000.0 -866233000000.0 -848189000000.0 -739908000000.0 -368773000000.0 -539215000000.0 -840060000000.0 -601447000000.0 -792809000000.0 -1.2928e+12 -550199000000.0 -339880000000.0 -1.8739e+12 -644043000000.0 -1.27177e+12 -719091000000.0 -824630000000.0 -987567000000.0 -1.02562e+12 -1.02573e+12 -988016000000.0 -825183000000.0 -719482000000.0 -1.27278e+12 -644118000000.0 -1.87361e+12 -339863000000.0 -2.60439e+12 -485455000000.0 -1.75357e+12 -882914000000.0 -1.69084e+12 -768302000000.0 -1.24043e+12 -1.13024e+12 -1.36154e+12 -1.17795e+12 -1.34529e+12 -1.18395e+12 -1.34544e+12 -1.17814e+12 -1.36223e+12 -1.13099e+12 -1.24154e+12 -768968000000.0 -1.69206e+12 -883432000000.0 -1.75296e+12 -485420000000.0 -2.60433e+12 -2.55443e+12 -4.01696e+12 -2.74915e+12 -2.49062e+12 -2.15167e+12 -2.60956e+12 -1.78082e+12 -956396000000.0 -1.15182e+12 -1.53171e+12 -1.48651e+12 -1.54428e+12 -1.51352e+12 -1.50258e+12 -1.5135e+12 -1.54558e+12 -1.4879e+12 -1.53195e+12 -1.153e+12 -957280000000.0 -1.78036e+12 -2.60977e+12 -2.15147e+12 -2.49053e+12 -2.74911e+12 -4.01693e+12 -2.55439e+12 -2.59651e+12 -2.5506e+12 -4.12968e+12 -2.71284e+12 -2.79175e+12 -3.15923e+12 -1.62664e+12 -1.52628e+12 -1.44856e+12 -1.75991e+12 -1.77255e+12 -1.66015e+12 -1.66036e+12 -1.77369e+12 -1.76189e+12 -1.45017e+12 -1.52572e+12 -1.62621e+12 -3.15945e+12 -2.79178e+12 -2.71283e+12 -4.12966e+12 -2.55058e+12 -2.59649e+12 -2.65441e+12 -4.23559e+12 -3.65796e+12 -3.32809e+12 -3.00909e+12 -3.46379e+12 -3.35938e+12 -1.50289e+12 -1.82721e+12 -2.15545e+12 -2.02561e+12 -2.26078e+12 -1.82353e+12 -1.91963e+12 -1.8097e+12 -1.9205e+12 -1.82256e+12 -2.26228e+12 -2.02772e+12 -2.15882e+12 -1.82977e+12 -1.50237e+12 -3.35929e+12 -3.46404e+12 -3.00919e+12 -3.32809e+12 -3.65794e+12 -4.23557e+12 -2.65441e+12 -2.7015e+12 -4.33932e+12 -4.11735e+12 -3.95735e+12 -3.73753e+12 -3.4088e+12 -3.4251e+12 -3.2164e+12 -3.1971e+12 -3.12571e+12 -2.88451e+12 -2.41671e+12 -1.66506e+12 -1.805e+12 -2.47734e+12 -2.01414e+12 -1.8141e+12 -2.007e+12 -2.48168e+12 -1.80468e+12 -1.66519e+12 -2.41564e+12 -2.88395e+12 -3.12571e+12 -3.19719e+12 -3.21642e+12 -3.4251e+12 -3.40879e+12 -3.73751e+12 -3.95733e+12 -4.11733e+12 -4.33931e+12 -2.7015e+12 -2.72323e+12 -4.49645e+12 -4.42841e+12 -4.23071e+12 -3.91707e+12 -3.56984e+12 -3.19169e+12 -3.16739e+12 -3.03687e+12 -2.84107e+12 -2.65126e+12 -2.27706e+12 -1.88844e+12 -2.83192e+12 -1.33384e+12 -1.32949e+12 -2.83816e+12 -1.89004e+12 -2.2769e+12 -2.65075e+12 -2.84079e+12 -3.03677e+12 -3.16742e+12 -3.19169e+12 -3.56983e+12 -3.91706e+12 -4.2307e+12 -4.4284e+12 -4.49644e+12 -2.72322e+12 -2.67617e+12 -2.71418e+12 -4.54344e+12 -4.30585e+12 -4.04719e+12 -3.75708e+12 -3.65071e+12 -3.47182e+12 -3.12847e+12 -2.4167e+12 -2.57174e+12 -2.50815e+12 -2.36098e+12 -2.04723e+12 -1.41356e+12 -1.74514e+12 -9039650000.0 -1.75e+12 -1.43854e+12 -2.06446e+12 -2.36082e+12 -2.50779e+12 -2.57145e+12 -2.41662e+12 -3.12844e+12 -3.47182e+12 -3.65069e+12 -3.75706e+12 -4.04717e+12 -4.30584e+12 -4.54343e+12 -2.71418e+12 -2.67617e+12 -2.61671e+12 -4.56655e+12 -4.41001e+12 -4.36796e+12 -4.1672e+12 -4.11654e+12 -3.95125e+12 -3.90597e+12 -3.85627e+12 -3.46652e+12 -2.84448e+12 -1.9694e+12 -2.12873e+12 -2.59753e+12 -2.55086e+12 -2.47863e+12 -2.60783e+12 -2.52804e+12 -1.47462e+12 -266551000000.0 -2.13387e+12 -2.13026e+12 -268433000000.0 -1.48098e+12 -2.52881e+12 -2.60769e+12 -2.47862e+12 -2.55085e+12 -2.59731e+12 -2.12856e+12 -1.96926e+12 -2.84447e+12 -3.46653e+12 -3.85624e+12 -3.90595e+12 -3.95124e+12 -4.11653e+12 -4.16719e+12 -4.36795e+12 -4.41e+12 -4.56655e+12 -2.61671e+12 -2.54616e+12 -4.54206e+12 -4.56481e+12 -4.42406e+12 -4.23149e+12 -3.97166e+12 -3.83817e+12 -3.97753e+12 -4.44192e+12 -1.73172e+12 -1.75666e+12 -2.57512e+12 -2.72343e+12 -2.38929e+12 -1.49429e+12 -1.27379e+12 -1.37749e+12 -1.98767e+12 -1.97826e+12 -1.37988e+12 -1.27731e+12 -1.4956e+12 -2.38978e+12 -2.72327e+12 -2.5749e+12 -1.75649e+12 -1.73163e+12 -4.44186e+12 -3.9775e+12 -3.83815e+12 -3.97165e+12 -4.23148e+12 -4.42406e+12 -4.5648e+12 -4.54206e+12 -2.54616e+12 -2.40557e+12 -2.47387e+12 -4.50554e+12 -4.4113e+12 -4.28434e+12 -4.27554e+12 -4.08857e+12 -3.99994e+12 -3.80467e+12 -3.6857e+12 -3.81331e+12 -3.9404e+12 -2.24041e+12 -2.19097e+12 -1.79031e+12 -2.96463e+12 -2.63622e+12 -2.20393e+12 -1.59866e+12 -1.75889e+12 -1.05082e+12 -1.74894e+12 -1.59936e+12 -2.20362e+12 -2.63615e+12 -2.96437e+12 -1.79018e+12 -2.19091e+12 -2.24033e+12 -3.94036e+12 -3.81328e+12 -3.68567e+12 -3.80465e+12 -3.99993e+12 -4.08856e+12 -4.27553e+12 -4.28433e+12 -4.41129e+12 -4.50553e+12 -2.47387e+12 -2.40557e+12 -2.34208e+12 -4.46107e+12 -4.34366e+12 -4.38093e+12 -4.26583e+12 -4.14542e+12 -3.78462e+12 -3.7849e+12 -3.60034e+12 -3.62291e+12 -3.66697e+12 -2.0461e+12 -1.84944e+12 -1.69137e+12 -3.00725e+12 -2.67294e+12 -1.9441e+12 -1.75953e+12 -1.74142e+12 -1.73665e+12 -1.75711e+12 -1.94404e+12 -2.67274e+12 -3.00704e+12 -1.69118e+12 -1.8493e+12 -2.04603e+12 -3.66693e+12 -3.62287e+12 -3.60032e+12 -3.78489e+12 -3.78461e+12 -4.14541e+12 -4.26583e+12 -4.38092e+12 -4.34365e+12 -4.46106e+12 -2.34208e+12 -2.27996e+12 -4.40831e+12 -4.29991e+12 -4.24036e+12 -4.15527e+12 -4.03076e+12 -3.94723e+12 -3.53879e+12 -3.45029e+12 -3.26586e+12 -3.42713e+12 -2.98115e+12 -1.85494e+12 -1.27035e+12 -3.57804e+12 -3.17178e+12 -2.33781e+12 -2.09465e+12 -1.87963e+12 -1.82503e+12 -1.72824e+12 -1.7597e+12 -1.59091e+12 -1.75777e+12 -1.72441e+12 -1.82343e+12 -1.87858e+12 -2.09399e+12 -2.33749e+12 -3.17155e+12 -3.5778e+12 -1.27028e+12 -1.85488e+12 -2.98109e+12 -3.42708e+12 -3.26581e+12 -3.45026e+12 -3.53878e+12 -3.94723e+12 -4.03075e+12 -4.15526e+12 -4.24036e+12 -4.29991e+12 -4.40831e+12 -2.27996e+12 -2.21819e+12 -4.2569e+12 -4.34191e+12 -4.24314e+12 -4.20918e+12 -4.13881e+12 -4.15238e+12 -4.08384e+12 -3.81968e+12 -3.46871e+12 -3.18651e+12 -3.31985e+12 -3.12753e+12 -3.00642e+12 -2.01022e+12 -1.64548e+12 -1.53907e+12 -3.54365e+12 -2.98434e+12 -2.69397e+12 -2.34713e+12 -1.94994e+12 -1.78644e+12 -1.71637e+12 -1.7846e+12 -1.94893e+12 -2.34668e+12 -2.69368e+12 -2.98414e+12 -3.54358e+12 -1.53888e+12 -1.64547e+12 -2.01012e+12 -3.00636e+12 -3.12749e+12 -3.31983e+12 -3.18649e+12 -3.46869e+12 -3.81967e+12 -4.08384e+12 -4.15238e+12 -4.13881e+12 -4.20918e+12 -4.24314e+12 -4.34191e+12 -4.2569e+12 -2.21819e+12 -2.10542e+12 -2.15735e+12 -4.15076e+12 -4.17041e+12 -4.09877e+12 -4.16361e+12 -4.10206e+12 -4.0991e+12 -4.11206e+12 -4.04208e+12 -4.01748e+12 -2.8346e+12 -2.97477e+12 -2.92698e+12 -2.71003e+12 -2.72027e+12 -2.04483e+12 -1.90962e+12 -1.79841e+12 -2.9715e+12 -2.55327e+12 -2.10975e+12 -1.85859e+12 -1.77499e+12 -1.77409e+12 -1.85751e+12 -2.10907e+12 -2.5529e+12 -2.97144e+12 -1.79811e+12 -1.90928e+12 -2.04478e+12 -2.72019e+12 -2.70999e+12 -2.92693e+12 -2.97474e+12 -2.83457e+12 -4.01749e+12 -4.04207e+12 -4.11206e+12 -4.0991e+12 -4.10206e+12 -4.16361e+12 -4.09877e+12 -4.17041e+12 -4.15076e+12 -2.15735e+12 -2.10542e+12 -2.06769e+12 -4.01852e+12 -3.96345e+12 -4.07746e+12 -4.01993e+12 -4.04375e+12 -4.00307e+12 -4.0686e+12 -4.07532e+12 -4.2402e+12 -2.74667e+12 -2.81096e+12 -2.65127e+12 -2.4563e+12 -1.95247e+12 -2.13865e+12 -2.50027e+12 -2.62918e+12 -2.36387e+12 -2.26548e+12 -2.05556e+12 -1.95307e+12 -1.85224e+12 -1.80366e+12 -1.77184e+12 -1.75358e+12 -1.77141e+12 -1.80275e+12 -1.85156e+12 -1.95233e+12 -2.055e+12 -2.26496e+12 -2.36347e+12 -2.6289e+12 -2.50007e+12 -2.13841e+12 -1.95224e+12 -2.45626e+12 -2.65124e+12 -2.81093e+12 -2.74665e+12 -4.24019e+12 -4.07532e+12 -4.06859e+12 -4.00307e+12 -4.04375e+12 -4.01993e+12 -4.07746e+12 -3.96345e+12 -4.01852e+12 -2.06769e+12 -2.04334e+12 -3.86623e+12 -3.81963e+12 -3.92099e+12 -3.88585e+12 -3.96649e+12 -3.92684e+12 -3.99302e+12 -4.1514e+12 -4.31313e+12 -4.45118e+12 -2.12076e+12 -2.40144e+12 -2.64832e+12 -2.54677e+12 -2.46284e+12 -2.1306e+12 -2.20225e+12 -2.28584e+12 -2.39685e+12 -2.13785e+12 -1.91001e+12 -1.78863e+12 -1.74885e+12 -1.78809e+12 -1.90946e+12 -2.13738e+12 -2.39659e+12 -2.28564e+12 -2.20206e+12 -2.13045e+12 -2.46279e+12 -2.54674e+12 -2.6483e+12 -2.40143e+12 -2.12075e+12 -4.45117e+12 -4.31313e+12 -4.15139e+12 -3.99302e+12 -3.92684e+12 -3.96649e+12 -3.88585e+12 -3.92099e+12 -3.81963e+12 -3.86623e+12 -2.04334e+12 -2.01949e+12 -3.49533e+12 -3.6946e+12 -3.65328e+12 -3.80862e+12 -3.78356e+12 -3.83645e+12 -3.88908e+12 -3.88125e+12 -4.01057e+12 -4.06007e+12 -4.34306e+12 -1.93882e+12 -2.41189e+12 -2.43455e+12 -2.24824e+12 -2.32856e+12 -2.22751e+12 -2.42273e+12 -2.42468e+12 -2.44327e+12 -2.19501e+12 -1.96085e+12 -1.81179e+12 -1.74588e+12 -1.74561e+12 -1.81131e+12 -1.96039e+12 -2.19469e+12 -2.44312e+12 -2.4245e+12 -2.42258e+12 -2.22739e+12 -2.32849e+12 -2.24818e+12 -2.43452e+12 -2.41187e+12 -1.93881e+12 -4.34305e+12 -4.06007e+12 -4.01056e+12 -3.88125e+12 -3.88908e+12 -3.83644e+12 -3.78356e+12 -3.80862e+12 -3.65328e+12 -3.6946e+12 -3.49533e+12 -2.01949e+12 -1.91364e+12 -1.98875e+12 -3.24329e+12 -3.46584e+12 -3.47108e+12 -3.65573e+12 -3.68788e+12 -3.76593e+12 -3.6978e+12 -3.80663e+12 -3.74849e+12 -3.85758e+12 -3.80585e+12 -4.06051e+12 -3.84218e+12 -2.24736e+12 -2.30903e+12 -2.35135e+12 -2.26483e+12 -2.31496e+12 -2.79787e+12 -2.61633e+12 -2.37167e+12 -2.25899e+12 -2.04102e+12 -1.99931e+12 -1.84456e+12 -1.83452e+12 -1.7455e+12 -1.74499e+12 -1.69587e+12 -1.71544e+12 -1.69571e+12 -1.74464e+12 -1.74519e+12 -1.83412e+12 -1.84425e+12 -1.99897e+12 -2.04081e+12 -2.25881e+12 -2.37156e+12 -2.61619e+12 -2.79775e+12 -2.31488e+12 -2.26479e+12 -2.35133e+12 -2.30901e+12 -2.24735e+12 -3.84217e+12 -4.0605e+12 -3.80584e+12 -3.85758e+12 -3.74849e+12 -3.80662e+12 -3.6978e+12 -3.76593e+12 -3.68787e+12 -3.65573e+12 -3.47108e+12 -3.46584e+12 -3.2433e+12 -1.98875e+12 -1.91364e+12 -1.7851e+12 -2.89229e+12 -3.24893e+12 -3.2646e+12 -3.52272e+12 -3.61056e+12 -3.65538e+12 -3.6642e+12 -3.68879e+12 -3.57139e+12 -3.73928e+12 -3.64612e+12 -3.61905e+12 -2.04343e+12 -2.23293e+12 -2.1877e+12 -1.91604e+12 -2.20057e+12 -2.09106e+12 -2.81957e+12 -2.10767e+12 -1.83766e+12 -1.74265e+12 -1.67795e+12 -1.6578e+12 -1.67775e+12 -1.74241e+12 -1.83745e+12 -2.10754e+12 -2.81951e+12 -2.09095e+12 -2.20047e+12 -1.91595e+12 -2.18768e+12 -2.23291e+12 -2.04342e+12 -3.61904e+12 -3.64611e+12 -3.73928e+12 -3.57139e+12 -3.68879e+12 -3.6642e+12 -3.65538e+12 -3.61056e+12 -3.52272e+12 -3.2646e+12 -3.24893e+12 -2.89229e+12 -1.7851e+12 -2.57069e+12 -2.27603e+12 -2.53445e+12 -2.97404e+12 -3.02544e+12 -3.30951e+12 -3.43047e+12 -3.51791e+12 -3.60584e+12 -3.52745e+12 -3.59099e+12 -3.61601e+12 -3.55084e+12 -3.29722e+12 -3.1379e+12 -2.42817e+12 -2.33618e+12 -2.0523e+12 -2.18892e+12 -917979000000.0 -1.7334e+12 -2.90192e+12 -2.27004e+12 -1.80228e+12 -1.72672e+12 -1.66164e+12 -1.6252e+12 -1.62512e+12 -1.66147e+12 -1.72654e+12 -1.80214e+12 -2.26993e+12 -2.90171e+12 -1.73338e+12 -917838000000.0 -2.18886e+12 -2.05228e+12 -2.33616e+12 -2.42816e+12 -3.13789e+12 -3.29721e+12 -3.55083e+12 -3.61601e+12 -3.59099e+12 -3.52745e+12 -3.60584e+12 -3.51791e+12 -3.43047e+12 -3.30951e+12 -3.02544e+12 -2.97404e+12 -2.53445e+12 -2.27603e+12 -2.57068e+12 -2.70903e+12 -4.44409e+12 -2.77519e+12 -3.22153e+12 -2.72745e+12 -3.06845e+12 -3.17156e+12 -3.61638e+12 -3.30951e+12 -3.21902e+12 -3.30672e+12 -3.62149e+12 -3.45342e+12 -3.48185e+12 -2.98009e+12 -1.99564e+12 -2.20002e+12 -2.19002e+12 -2.49385e+12 -891356000000.0 -2.53139e+12 -955559000000.0 -1.66805e+12 -1.60869e+12 -1.6937e+12 -1.62482e+12 -1.64326e+12 -1.55936e+12 -1.59283e+12 -1.53894e+12 -1.58118e+12 -1.53889e+12 -1.59273e+12 -1.55925e+12 -1.64311e+12 -1.62469e+12 -1.69357e+12 -1.60861e+12 -1.66797e+12 -955542000000.0 -2.53136e+12 -891325000000.0 -2.49379e+12 -2.18999e+12 -2.20001e+12 -1.99563e+12 -2.98008e+12 -3.48185e+12 -3.45342e+12 -3.62148e+12 -3.30672e+12 -3.21902e+12 -3.30951e+12 -3.61638e+12 -3.17156e+12 -3.06845e+12 -2.72745e+12 -3.22153e+12 -2.77518e+12 -4.44408e+12 -2.70903e+12 -2.26525e+12 -2.49139e+12 -4.34671e+12 -2.65155e+12 -2.89537e+12 -2.68228e+12 -2.7692e+12 -2.85568e+12 -3.42121e+12 -3.79167e+12 -3.55506e+12 -3.52745e+12 -2.67026e+12 -3.31577e+12 -3.23943e+12 -3.17499e+12 -2.35429e+12 -834748000000.0 -2.40827e+12 -1.53279e+12 -1.68876e+12 -1.44075e+12 -1.96199e+12 -1.29371e+12 -1.62309e+12 -1.52084e+12 -1.49576e+12 -1.49047e+12 -1.4957e+12 -1.52074e+12 -1.62298e+12 -1.29374e+12 -1.96189e+12 -1.4407e+12 -1.6887e+12 -1.53276e+12 -2.40826e+12 -834710000000.0 -2.35428e+12 -3.17498e+12 -3.23942e+12 -3.31577e+12 -2.67026e+12 -3.52745e+12 -3.55506e+12 -3.79167e+12 -3.42121e+12 -2.85568e+12 -2.7692e+12 -2.68227e+12 -2.89537e+12 -2.65155e+12 -4.34671e+12 -2.49139e+12 -2.26524e+12 -2.03918e+12 -3.9908e+12 -4.20754e+12 -2.52606e+12 -2.93318e+12 -2.71504e+12 -2.52966e+12 -2.37302e+12 -3.15353e+12 -3.84066e+12 -5.04284e+12 -2.57536e+12 -5.04101e+12 -2.42581e+12 -4.61985e+12 -4.04106e+12 -2.121e+12 -3.52433e+12 -3.54417e+12 -2.32496e+12 -925962000000.0 -2.64741e+12 -1.86595e+12 -1.5174e+12 -1.5404e+12 -1.46675e+12 -854038000000.0 -1.6683e+12 -1.47565e+12 -1.4479e+12 -1.44217e+12 -1.44214e+12 -1.44782e+12 -1.47555e+12 -1.66823e+12 -854008000000.0 -1.46669e+12 -1.54036e+12 -1.51735e+12 -1.86592e+12 -2.64738e+12 -925951000000.0 -2.32495e+12 -3.54417e+12 -3.52432e+12 -2.12099e+12 -4.04105e+12 -4.61985e+12 -2.42581e+12 -5.04101e+12 -2.57536e+12 -5.04284e+12 -3.84066e+12 -3.15353e+12 -2.37301e+12 -2.52966e+12 -2.71504e+12 -2.93318e+12 -2.52606e+12 -4.20754e+12 -3.9908e+12 -2.03918e+12 -1.82335e+12 -3.62197e+12 -3.60469e+12 -3.95243e+12 -3.75618e+12 -2.7452e+12 -2.45125e+12 -1.90499e+12 -2.45805e+12 -2.98003e+12 -3.96713e+12 -4.36914e+12 -3.02567e+12 -3.13086e+12 -3.68042e+12 -1.99965e+12 -4.32027e+12 -4.35288e+12 -3.5169e+12 -2.94589e+12 -2.79095e+12 -2.14034e+12 -1.7215e+12 -1.46209e+12 -1.53713e+12 -1.5855e+12 -2.31895e+12 -2.08671e+12 -1.41271e+12 -1.32157e+12 -1.39277e+12 -1.33665e+12 -1.39201e+12 -1.33946e+12 -1.39054e+12 -1.33943e+12 -1.39195e+12 -1.33658e+12 -1.39269e+12 -1.32149e+12 -1.41262e+12 -2.08661e+12 -2.31889e+12 -1.58548e+12 -1.53709e+12 -1.46204e+12 -1.72147e+12 -2.14031e+12 -2.79093e+12 -2.94588e+12 -3.5169e+12 -4.35287e+12 -4.32026e+12 -1.99964e+12 -3.68042e+12 -3.13086e+12 -3.02567e+12 -4.36914e+12 -3.96713e+12 -2.98003e+12 -2.45805e+12 -1.90499e+12 -2.45125e+12 -2.7452e+12 -3.75618e+12 -3.95243e+12 -3.60469e+12 -3.62197e+12 -1.82335e+12 -1.60814e+12 -3.24918e+12 -3.26656e+12 -3.51751e+12 -2.475e+12 -2.59464e+12 -2.61885e+12 -2.45184e+12 -1.4323e+12 -1.49529e+12 -2.22847e+12 -2.91722e+12 -3.28547e+12 -2.7392e+12 -2.94078e+12 -2.0495e+12 -3.3679e+12 -1.98465e+12 -3.01102e+12 -1.36218e+12 -1.7888e+12 -1.64466e+12 -1.54604e+12 -1.55364e+12 -1.17048e+12 -822527000000.0 -328832000000.0 -1.37149e+12 -1.2281e+12 -1.27772e+12 -1.28572e+12 -1.28706e+12 -1.28566e+12 -1.27764e+12 -1.22801e+12 -1.3714e+12 -328869000000.0 -822463000000.0 -1.17046e+12 -1.55359e+12 -1.54601e+12 -1.64463e+12 -1.78878e+12 -1.36217e+12 -3.01102e+12 -1.98464e+12 -3.3679e+12 -2.04949e+12 -2.94078e+12 -2.7392e+12 -3.28547e+12 -2.91722e+12 -2.22847e+12 -1.49529e+12 -1.4323e+12 -2.45184e+12 -2.61885e+12 -2.59464e+12 -2.47499e+12 -3.51751e+12 -3.26656e+12 -3.24918e+12 -1.60814e+12 -1.25908e+12 -2.25545e+12 -2.8503e+12 -2.91924e+12 -3.24586e+12 -3.1276e+12 -3.27613e+12 -2.48528e+12 -2.4525e+12 -2.62446e+12 -3.03914e+12 -3.25595e+12 -3.47389e+12 -2.76068e+12 -2.39692e+12 -2.96997e+12 -2.20078e+12 -1.02123e+12 -3.01419e+12 -1.49553e+12 -1.44894e+12 -1.38576e+12 -1.35768e+12 -1.2945e+12 -752983000000.0 -1.20391e+12 -1.2265e+12 -1.23542e+12 -1.23538e+12 -1.22643e+12 -1.20384e+12 -752951000000.0 -1.29445e+12 -1.35762e+12 -1.38571e+12 -1.4489e+12 -1.4955e+12 -3.01417e+12 -1.02122e+12 -2.20078e+12 -2.96996e+12 -2.39691e+12 -2.76068e+12 -3.47389e+12 -3.25594e+12 -3.03914e+12 -2.62445e+12 -2.45249e+12 -2.48528e+12 -3.27613e+12 -3.1276e+12 -3.24586e+12 -2.91923e+12 -2.85029e+12 -2.25545e+12 -1.25907e+12 -1.12899e+12 -1.62021e+12 -2.39881e+12 -2.97582e+12 -2.97954e+12 -2.84534e+12 -2.56282e+12 -2.53672e+12 -2.21137e+12 -1.89379e+12 -3.44055e+12 -3.51993e+12 -3.05056e+12 -3.09577e+12 -3.03012e+12 -2.88723e+12 -2.73107e+12 -1.68687e+12 -2.07864e+12 -1.64154e+12 -2.14456e+12 -1.34554e+12 -1.28597e+12 -1.24193e+12 -1.20981e+12 -1.18009e+12 -1.29565e+12 -64295800000.0 -1.04188e+12 -1.06226e+12 -1.16642e+12 -1.11892e+12 -1.18009e+12 -1.1346e+12 -1.18484e+12 -1.13452e+12 -1.18002e+12 -1.11885e+12 -1.16635e+12 -1.06229e+12 -1.04181e+12 -64297700000.0 -1.29567e+12 -1.18005e+12 -1.20973e+12 -1.24186e+12 -1.28591e+12 -1.34552e+12 -2.14455e+12 -1.64154e+12 -2.07863e+12 -1.68686e+12 -2.73107e+12 -2.88723e+12 -3.03011e+12 -3.09576e+12 -3.05056e+12 -3.51993e+12 -3.44054e+12 -1.89379e+12 -2.21137e+12 -2.53672e+12 -2.56282e+12 -2.84534e+12 -2.97953e+12 -2.97582e+12 -2.39881e+12 -1.62021e+12 -1.129e+12 -816410000000.0 -1.65749e+12 -1.76643e+12 -1.75161e+12 -2.55077e+12 -2.70182e+12 -2.85971e+12 -2.64898e+12 -2.53705e+12 -2.4584e+12 -2.70004e+12 -1.78476e+12 -2.30041e+12 -2.81213e+12 -2.74034e+12 -2.73174e+12 -2.70884e+12 -2.5413e+12 -2.50057e+12 -2.31243e+12 -2.32295e+12 -1.69603e+12 -1.47809e+12 -1.61026e+12 -1.26002e+12 -1.32001e+12 -1.10105e+12 -1.08096e+12 -1.19216e+12 -1.56197e+12 -1.42449e+12 -1.08353e+12 -1.03701e+12 -1.06554e+12 -1.07655e+12 -1.08993e+12 -1.07644e+12 -1.06551e+12 -1.03701e+12 -1.08338e+12 -1.42447e+12 -1.56205e+12 -1.1921e+12 -1.08085e+12 -1.10093e+12 -1.31996e+12 -1.25999e+12 -1.61024e+12 -1.47807e+12 -1.69603e+12 -2.32295e+12 -2.31242e+12 -2.50057e+12 -2.5413e+12 -2.70884e+12 -2.73173e+12 -2.74034e+12 -2.81212e+12 -2.3004e+12 -1.78476e+12 -2.70004e+12 -2.4584e+12 -2.53705e+12 -2.64898e+12 -2.85971e+12 -2.70182e+12 -2.55076e+12 -1.75161e+12 -1.76644e+12 -1.6575e+12 -816411000000.0 -343219000000.0 -808965000000.0 -1.24507e+12 -1.4419e+12 -1.65328e+12 -2.78052e+12 -2.66889e+12 -2.38905e+12 -2.43567e+12 -3.34822e+12 -3.84827e+12 -3.43087e+12 -2.79735e+12 -2.65935e+12 -2.51326e+12 -2.45183e+12 -2.36558e+12 -2.27119e+12 -2.15335e+12 -2.07007e+12 -1.76999e+12 -1.71471e+12 -1.27241e+12 -1.27248e+12 -1.18128e+12 -1.17844e+12 -1.14224e+12 -762228000000.0 -712852000000.0 -1.12202e+12 -1.01471e+12 -1.00472e+12 -1.0424e+12 -1.04225e+12 -1.00466e+12 -1.01496e+12 -1.12226e+12 -712795000000.0 -762004000000.0 -1.14215e+12 -1.17837e+12 -1.18123e+12 -1.27244e+12 -1.27238e+12 -1.7147e+12 -1.76998e+12 -2.07006e+12 -2.15335e+12 -2.27118e+12 -2.36558e+12 -2.45183e+12 -2.51326e+12 -2.65934e+12 -2.79735e+12 -3.43087e+12 -3.84827e+12 -3.34821e+12 -2.43567e+12 -2.38905e+12 -2.66889e+12 -2.78052e+12 -1.65329e+12 -1.44191e+12 -1.24507e+12 -808965000000.0 -343217000000.0 -147997000000.0 -328861000000.0 -1.25619e+12 -1.11665e+12 -1.41217e+12 -1.37157e+12 -1.5165e+12 -1.39114e+12 -2.44551e+12 -2.22992e+12 -2.12791e+12 -2.43339e+12 -2.6613e+12 -2.50712e+12 -2.26249e+12 -2.19189e+12 -2.12874e+12 -2.06029e+12 -1.96511e+12 -1.8786e+12 -1.70878e+12 -1.589e+12 -1.45579e+12 -1.3138e+12 -1.01043e+12 -1.03071e+12 -1.02564e+12 -1.00121e+12 -948786000000.0 -866259000000.0 -166522000000.0 -1.15446e+12 -858111000000.0 -978451000000.0 -887751000000.0 -983180000000.0 -964418000000.0 -1.00668e+12 -964088000000.0 -982983000000.0 -887576000000.0 -978422000000.0 -858628000000.0 -1.15453e+12 -166281000000.0 -866065000000.0 -948641000000.0 -1.00111e+12 -1.02557e+12 -1.03065e+12 -1.01038e+12 -1.31379e+12 -1.45578e+12 -1.58899e+12 -1.70877e+12 -1.8786e+12 -1.96511e+12 -2.06028e+12 -2.12874e+12 -2.19188e+12 -2.26249e+12 -2.50711e+12 -2.6613e+12 -2.43339e+12 -2.12791e+12 -2.22992e+12 -2.44551e+12 -1.39114e+12 -1.5165e+12 -1.37157e+12 -1.41218e+12 -1.11666e+12 -1.2562e+12 -328861000000.0 -147996000000.0 -629373000000.0 -1.07286e+12 -1.10343e+12 -1.32737e+12 -1.30807e+12 -1.34211e+12 -2.10117e+12 -1.96376e+12 -1.37492e+12 -2.49532e+12 -2.32677e+12 -1.70114e+12 -1.59144e+12 -1.47948e+12 -1.31333e+12 -1.10299e+12 -1.05308e+12 -1.0961e+12 -1.01265e+12 -956265000000.0 -923359000000.0 -934695000000.0 -935495000000.0 -1.22975e+12 -1.22191e+12 -1.05591e+12 -931156000000.0 -909368000000.0 -940225000000.0 -909018000000.0 -930462000000.0 -1.05502e+12 -1.22202e+12 -1.22964e+12 -935566000000.0 -934561000000.0 -923172000000.0 -956080000000.0 -1.01248e+12 -1.09594e+12 -1.05305e+12 -1.10297e+12 -1.31334e+12 -1.47947e+12 -1.59143e+12 -1.70113e+12 -2.32677e+12 -2.49532e+12 -1.37492e+12 -1.96376e+12 -2.10117e+12 -1.34211e+12 -1.30807e+12 -1.32737e+12 -1.10343e+12 -1.07286e+12 -629385000000.0 -98054700000.0 -449689000000.0 -733050000000.0 -1.08933e+12 -1.1249e+12 -1.35999e+12 -1.25939e+12 -1.60476e+12 -1.903e+12 -1.17045e+12 -1.73185e+12 -1.9395e+12 -1.94329e+12 -1.92827e+12 -1.88332e+12 -1.83292e+12 -1.76608e+12 -1.40673e+12 -1.33151e+12 -1.30026e+12 -1.38683e+12 -1.41413e+12 -1.33306e+12 -1.23084e+12 -824437000000.0 -739078000000.0 -511255000000.0 -834529000000.0 -225279000000.0 -517153000000.0 -714118000000.0 -908538000000.0 -907588000000.0 -714092000000.0 -517530000000.0 -224802000000.0 -834016000000.0 -510619000000.0 -738676000000.0 -824158000000.0 -1.23071e+12 -1.33295e+12 -1.41403e+12 -1.38676e+12 -1.3002e+12 -1.33149e+12 -1.40671e+12 -1.76607e+12 -1.83291e+12 -1.88332e+12 -1.92827e+12 -1.94329e+12 -1.9395e+12 -1.73185e+12 -1.17045e+12 -1.903e+12 -1.60476e+12 -1.25939e+12 -1.35999e+12 -1.12491e+12 -1.08934e+12 -733052000000.0 -449687000000.0 -98054900000.0 -139629000000.0 -335914000000.0 -479543000000.0 -819211000000.0 -893440000000.0 -1.35607e+12 -1.36068e+12 -1.86367e+12 -2.20683e+12 -62570900000.0 -1.49529e+12 -1.5317e+12 -1.65006e+12 -1.66732e+12 -1.64615e+12 -1.60423e+12 -1.54391e+12 -1.52828e+12 -1.46381e+12 -1.18663e+12 -1.18613e+12 -1.15515e+12 -1.09206e+12 -1.02655e+12 -951879000000.0 -893346000000.0 -889943000000.0 -1.14303e+12 -257802000000.0 -875523000000.0 -886748000000.0 -902255000000.0 -884723000000.0 -874494000000.0 -257343000000.0 -1.14247e+12 -889224000000.0 -893141000000.0 -951692000000.0 -1.02639e+12 -1.09193e+12 -1.15504e+12 -1.18604e+12 -1.18656e+12 -1.4638e+12 -1.52827e+12 -1.5439e+12 -1.60422e+12 -1.64615e+12 -1.66732e+12 -1.65005e+12 -1.5317e+12 -1.49529e+12 -62570800000.0 -2.20683e+12 -1.86367e+12 -1.36068e+12 -1.35608e+12 -893442000000.0 -819214000000.0 -479548000000.0 -335923000000.0 -139631000000.0 -151556000000.0 -553068000000.0 -1.07783e+12 -966403000000.0 -1.21556e+12 -1.50676e+12 -1.45687e+12 -2.05748e+12 -1.09722e+12 -1.36155e+12 -1.37222e+12 -1.43963e+12 -1.41545e+12 -1.3961e+12 -1.3013e+12 -1.36784e+12 -1.30111e+12 -1.30518e+12 -1.25058e+12 -1.19872e+12 -898175000000.0 -855865000000.0 -853341000000.0 -808266000000.0 -730322000000.0 -672218000000.0 -508659000000.0 -678310000000.0 -434167000000.0 -801319000000.0 -373848000000.0 -899402000000.0 -797247000000.0 -855240000000.0 -797311000000.0 -898644000000.0 -372905000000.0 -800912000000.0 -433233000000.0 -677841000000.0 -507932000000.0 -671827000000.0 -730088000000.0 -808070000000.0 -853179000000.0 -855711000000.0 -898055000000.0 -1.19868e+12 -1.25055e+12 -1.30517e+12 -1.30108e+12 -1.36783e+12 -1.3013e+12 -1.3961e+12 -1.41545e+12 -1.43963e+12 -1.37222e+12 -1.36155e+12 -1.09723e+12 -2.05748e+12 -1.45687e+12 -1.50676e+12 -1.21556e+12 -966407000000.0 -1.07783e+12 -553073000000.0 -151558000000.0 -448079000000.0 -515292000000.0 -507115000000.0 -1.96586e+12 -1.19777e+12 -973753000000.0 -887589000000.0 -1.22401e+12 -1.2527e+12 -1.13717e+12 -1.27042e+12 -1.15368e+12 -1.23141e+12 -1.16758e+12 -1.10052e+12 -1.03082e+12 -972357000000.0 -935229000000.0 -785982000000.0 -596143000000.0 -586700000000.0 -544065000000.0 -573648000000.0 -487846000000.0 -752009000000.0 -571896000000.0 -582555000000.0 -475394000000.0 -535129000000.0 -830549000000.0 -821203000000.0 -535957000000.0 -474727000000.0 -583085000000.0 -570383000000.0 -752239000000.0 -486481000000.0 -573452000000.0 -543539000000.0 -586603000000.0 -595907000000.0 -785881000000.0 -935141000000.0 -972291000000.0 -1.03077e+12 -1.10048e+12 -1.16756e+12 -1.23142e+12 -1.15366e+12 -1.27041e+12 -1.13717e+12 -1.2527e+12 -1.22401e+12 -887588000000.0 -973751000000.0 -1.19777e+12 -1.96586e+12 -507116000000.0 -515300000000.0 -448087000000.0 -276774000000.0 -287063000000.0 -233117000000.0 -345343000000.0 -1.51441e+12 -750963000000.0 -658254000000.0 -450409000000.0 -1.4955e+12 -1.30775e+12 -1.28315e+12 -1.17358e+12 -1.0951e+12 -1.01872e+12 -911777000000.0 -772281000000.0 -697028000000.0 -659559000000.0 -638889000000.0 -618616000000.0 -650020000000.0 -634099000000.0 -1.00096e+12 -957750000000.0 -992707000000.0 -632588000000.0 -649288000000.0 -618430000000.0 -638749000000.0 -659468000000.0 -696962000000.0 -772230000000.0 -911718000000.0 -1.01869e+12 -1.09509e+12 -1.17359e+12 -1.28314e+12 -1.30775e+12 -1.4955e+12 -450408000000.0 -658255000000.0 -750961000000.0 -1.51441e+12 -345350000000.0 -233119000000.0 -287067000000.0 -276778000000.0 -133009000000.0 -46215100000.0 -111588000000.0 -1.4094e+12 -786118000000.0 -1.1071e+12 -1.23767e+12 -1.0517e+12 -1.09079e+12 -1.20619e+12 -1.12933e+12 -981403000000.0 -1.14388e+12 -1.02688e+12 -904777000000.0 -954239000000.0 -959921000000.0 -926442000000.0 -859256000000.0 -752929000000.0 -791597000000.0 -661238000000.0 -726411000000.0 -580548000000.0 -476802000000.0 -547854000000.0 -583255000000.0 -627005000000.0 -856136000000.0 -773209000000.0 -855087000000.0 -626800000000.0 -581919000000.0 -546732000000.0 -476853000000.0 -579591000000.0 -726289000000.0 -660954000000.0 -791428000000.0 -752730000000.0 -859105000000.0 -926340000000.0 -959857000000.0 -954204000000.0 -904767000000.0 -1.02688e+12 -1.14387e+12 -981406000000.0 -1.12933e+12 -1.20619e+12 -1.09079e+12 -1.0517e+12 -1.23767e+12 -1.1071e+12 -786117000000.0 -1.4094e+12 -111588000000.0 -46215200000.0 -133010000000.0 -179031000000.0 -9035750000.0 -84438100000.0 -326199000000.0 -696794000000.0 -907485000000.0 -989547000000.0 -958586000000.0 -954205000000.0 -1.06986e+12 -923792000000.0 -998194000000.0 -902863000000.0 -1.10043e+12 -1.02644e+12 -964994000000.0 -915293000000.0 -683045000000.0 -630385000000.0 -642238000000.0 -821888000000.0 -320627000000.0 -513302000000.0 -539676000000.0 -555335000000.0 -462312000000.0 -620881000000.0 -407966000000.0 -554603000000.0 -489072000000.0 -405662000000.0 -398106000000.0 -485859000000.0 -549003000000.0 -407596000000.0 -618941000000.0 -463396000000.0 -555473000000.0 -539115000000.0 -513531000000.0 -320674000000.0 -821791000000.0 -642309000000.0 -630253000000.0 -682972000000.0 -915269000000.0 -964978000000.0 -1.02644e+12 -1.10043e+12 -902844000000.0 -998199000000.0 -923785000000.0 -1.06986e+12 -954204000000.0 -958586000000.0 -989547000000.0 -907484000000.0 -696796000000.0 -326197000000.0 -84436600000.0 -9035750000.0 -179033000000.0 -81656600000.0 -233491000000.0 -800380000000.0 -1.0301e+12 -633884000000.0 -470858000000.0 -769469000000.0 -877927000000.0 -844499000000.0 -761832000000.0 -951389000000.0 -874355000000.0 -773145000000.0 -989031000000.0 -931697000000.0 -882036000000.0 -840077000000.0 -816064000000.0 -813493000000.0 -779548000000.0 -717279000000.0 -946224000000.0 -674374000000.0 -478768000000.0 -493740000000.0 -588148000000.0 -693633000000.0 -661742000000.0 -685853000000.0 -584277000000.0 -491831000000.0 -478108000000.0 -673834000000.0 -946715000000.0 -717228000000.0 -779525000000.0 -813467000000.0 -816043000000.0 -840058000000.0 -882024000000.0 -931690000000.0 -989031000000.0 -773115000000.0 -874363000000.0 -951389000000.0 -761830000000.0 -844498000000.0 -877927000000.0 -769468000000.0 -470858000000.0 -633883000000.0 -1.0301e+12 -800380000000.0 -233491000000.0 -81657100000.0 -68008800000.0 -169056000000.0 -519743000000.0 -341854000000.0 -669606000000.0 -367637000000.0 -385178000000.0 -420656000000.0 -638330000000.0 -731077000000.0 -845117000000.0 -795497000000.0 -778434000000.0 -747144000000.0 -725010000000.0 -719517000000.0 -724233000000.0 -750780000000.0 -801706000000.0 -820984000000.0 -846549000000.0 -910888000000.0 -833121000000.0 -449851000000.0 -258138000000.0 -314496000000.0 -668553000000.0 -902110000000.0 -660624000000.0 -312534000000.0 -259100000000.0 -449374000000.0 -833715000000.0 -911228000000.0 -846402000000.0 -820799000000.0 -801555000000.0 -750669000000.0 -724178000000.0 -719480000000.0 -724986000000.0 -747127000000.0 -778423000000.0 -795484000000.0 -845113000000.0 -731064000000.0 -638330000000.0 -420655000000.0 -385178000000.0 -367637000000.0 -669607000000.0 -341854000000.0 -519743000000.0 -169056000000.0 -68008900000.0 -14460800000.0 -132150000000.0 -435747000000.0 -239179000000.0 -160185000000.0 -325282000000.0 -180606000000.0 -782284000000.0 -734127000000.0 -680998000000.0 -851463000000.0 -589380000000.0 -580063000000.0 -590328000000.0 -608786000000.0 -591605000000.0 -605247000000.0 -566798000000.0 -284753000000.0 -502832000000.0 -322166000000.0 -493650000000.0 -433838000000.0 -515841000000.0 -437244000000.0 -508489000000.0 -347776000000.0 -346812000000.0 -281071000000.0 -220300000000.0 -210227000000.0 -279945000000.0 -350360000000.0 -342403000000.0 -510334000000.0 -437633000000.0 -516038000000.0 -433657000000.0 -494862000000.0 -322657000000.0 -503392000000.0 -284804000000.0 -566779000000.0 -605181000000.0 -591527000000.0 -608718000000.0 -590278000000.0 -580030000000.0 -589358000000.0 -851462000000.0 -680998000000.0 -734127000000.0 -782284000000.0 -180607000000.0 -325282000000.0 -160185000000.0 -239179000000.0 -435747000000.0 -132150000000.0 -14460700000.0 -275275000000.0 -309922000000.0 -499671000000.0 -679991000000.0 -627213000000.0 -524973000000.0 -738669000000.0 -693861000000.0 -691662000000.0 -638165000000.0 -605105000000.0 -322827000000.0 -226920000000.0 -149063000000.0 -189246000000.0 -188133000000.0 -252496000000.0 -432893000000.0 -739634000000.0 -431847000000.0 -250658000000.0 -186483000000.0 -190331000000.0 -150110000000.0 -227999000000.0 -322989000000.0 -605093000000.0 -638159000000.0 -691655000000.0 -693856000000.0 -738667000000.0 -524967000000.0 -627213000000.0 -679991000000.0 -499670000000.0 -309922000000.0 -275275000000.0 -68421000000.0 -242752000000.0 -195934000000.0 -104313000000.0 -132449000000.0 -26749300000.0 -92086400000.0 -254725000000.0 -200582000000.0 -352127000000.0 -562670000000.0 -512204000000.0 -413972000000.0 -798011000000.0 -833317000000.0 -829905000000.0 -727914000000.0 -631395000000.0 -553623000000.0 -486917000000.0 -433804000000.0 -400970000000.0 -380765000000.0 -362744000000.0 -262129000000.0 -270382000000.0 -240045000000.0 -167024000000.0 -239289000000.0 -408129000000.0 -833163000000.0 -401149000000.0 -237024000000.0 -167505000000.0 -240417000000.0 -271919000000.0 -262624000000.0 -362698000000.0 -380683000000.0 -400902000000.0 -433754000000.0 -486878000000.0 -553591000000.0 -631369000000.0 -727894000000.0 -829889000000.0 -833307000000.0 -798007000000.0 -413970000000.0 -512200000000.0 -562669000000.0 -352127000000.0 -200582000000.0 -254725000000.0 -92087000000.0 -26749000000.0 -132449000000.0 -104313000000.0 -195934000000.0 -242752000000.0 -68421100000.0 -41615900000.0 -219191000000.0 -86807600000.0 -44073600000.0 -49565100000.0 -20530000000.0 -46874200000.0 -69873600000.0 -135400000000.0 -100094000000.0 -204110000000.0 -488068000000.0 -487762000000.0 -515623000000.0 -547207000000.0 -545219000000.0 -529379000000.0 -492434000000.0 -444959000000.0 -381291000000.0 -307709000000.0 -294491000000.0 -289040000000.0 -127375000000.0 -304321000000.0 -89211900000.0 -171766000000.0 -116265000000.0 -198250000000.0 -194116000000.0 -64591100000.0 -92363800000.0 -46864400000.0 -98981200000.0 -45628900000.0 -191694000000.0 -24343300000.0 -650035000000.0 -30599100000.0 -189569000000.0 -45199300000.0 -97750400000.0 -46562200000.0 -92566600000.0 -64274500000.0 -194851000000.0 -198580000000.0 -117303000000.0 -172065000000.0 -89311400000.0 -304344000000.0 -127323000000.0 -288986000000.0 -294436000000.0 -307665000000.0 -381254000000.0 -444932000000.0 -492413000000.0 -529364000000.0 -545210000000.0 -547200000000.0 -515619000000.0 -487759000000.0 -488065000000.0 -204110000000.0 -100094000000.0 -135400000000.0 -69873600000.0 -46874400000.0 -20530000000.0 -49565200000.0 -44073500000.0 -86807500000.0 -219191000000.0 -41616100000.0 -446881000000.0 -388880000000.0 -307680000000.0 -246315000000.0 -174065000000.0 -105561000000.0 -54894700000.0 -92621700000.0 -24781800000.0 -50353200000.0 -105654000000.0 -173580000000.0 -245436000000.0 -307576000000.0 -388990000000.0 -446961000000.0 -64498700000.0 -95913300000.0 -75200000000.0 -43848300000.0 -20109000000.0 -9008990000.0 -9035780000.0 -21754000000.0 -80039000000.0 -40189600000.0 -81402100000.0 -384822000000.0 -323212000000.0 -368386000000.0 -499751000000.0 -550855000000.0 -546842000000.0 -506363000000.0 -454164000000.0 -408625000000.0 -374477000000.0 -399877000000.0 -337816000000.0 -327513000000.0 -280860000000.0 -283555000000.0 -174458000000.0 -125647000000.0 -199128000000.0 -652277000000.0 -172565000000.0 -124942000000.0 -174990000000.0 -283421000000.0 -280729000000.0 -327594000000.0 -337904000000.0 -399934000000.0 -374517000000.0 -408647000000.0 -454177000000.0 -506371000000.0 -546847000000.0 -550861000000.0 -499755000000.0 -368388000000.0 -323212000000.0 -384821000000.0 -81402100000.0 -40189600000.0 -80038800000.0 -21754000000.0 -9035780000.0 -9008990000.0 -20109000000.0 -43848300000.0 -75200100000.0 -95913500000.0 -64498500000.0 -16730600000.0 -73332900000.0 -44381500000.0 -36280500000.0 -50339200000.0 -64940900000.0 -75609700000.0 -92645100000.0 -126175000000.0 -85816300000.0 -109394000000.0 -124426000000.0 -244559000000.0 -277971000000.0 -302729000000.0 -318426000000.0 -341964000000.0 -334764000000.0 -343655000000.0 -286024000000.0 -232522000000.0 -64618900000.0 -70753600000.0 -9449010000.0 -13622500000.0 -48065300000.0 -13575900000.0 -60034000000.0 -14283700000.0 -98288800000.0 -11505300000.0 -57727200000.0 -10878300000.0 -62137400000.0 -12782000000.0 -139156000000.0 -9068980000.0 -579460000000.0 -9068840000.0 -138307000000.0 -12806900000.0 -62074300000.0 -10858700000.0 -58534000000.0 -11545300000.0 -98684200000.0 -14307200000.0 -60044400000.0 -13576200000.0 -48084900000.0 -13624500000.0 -9453690000.0 -70766000000.0 -64628600000.0 -232530000000.0 -286033000000.0 -343662000000.0 -334768000000.0 -341965000000.0 -318427000000.0 -302730000000.0 -277971000000.0 -244558000000.0 -124425000000.0 -109394000000.0 -85816100000.0 -126175000000.0 -92644900000.0 -75609500000.0 -64940800000.0 -50339100000.0 -36280400000.0 -44381500000.0 -73333000000.0 -16730600000.0 -11494200000.0 -55411200000.0 -30822500000.0 -13084600000.0 -10988700000.0 -14849600000.0 -11285000000.0 -18932500000.0 -49439600000.0 -11509700000.0 -37454400000.0 -71563100000.0 -166408000000.0 -188335000000.0 -245480000000.0 -312823000000.0 -379819000000.0 -402478000000.0 -425359000000.0 -396289000000.0 -372153000000.0 -267868000000.0 -237690000000.0 -169157000000.0 -133437000000.0 -145191000000.0 -88893800000.0 -118934000000.0 -59075000000.0 -121011000000.0 -40675300000.0 -80374300000.0 -25199800000.0 -71102800000.0 -12206300000.0 -125560000000.0 -9878280000.0 -534591000000.0 -9858670000.0 -125692000000.0 -12208200000.0 -71394400000.0 -25161800000.0 -80971500000.0 -40595000000.0 -121126000000.0 -59066200000.0 -118919000000.0 -88911600000.0 -145221000000.0 -133447000000.0 -169166000000.0 -237701000000.0 -267876000000.0 -372157000000.0 -396292000000.0 -425359000000.0 -402478000000.0 -379818000000.0 -312823000000.0 -245480000000.0 -188334000000.0 -166407000000.0 -71562900000.0 -37454400000.0 -11509700000.0 -49439600000.0 -18932500000.0 -11285000000.0 -14849600000.0 -10988700000.0 -13084600000.0 -30822500000.0 -55411200000.0 -11494200000.0 -16988500000.0 -55084700000.0 -36174000000.0 -25892200000.0 -31523900000.0 -46277800000.0 -49191400000.0 -66596500000.0 -99275300000.0 -76431900000.0 -121911000000.0 -163615000000.0 -230483000000.0 -229342000000.0 -246320000000.0 -248073000000.0 -236544000000.0 -193112000000.0 -173509000000.0 -130346000000.0 -101318000000.0 -54167300000.0 -46630000000.0 -23302300000.0 -9649400000.0 -51731300000.0 -9487080000.0 -57588000000.0 -9035750000.0 -73892500000.0 -9035750000.0 -59127100000.0 -9035750000.0 -62935100000.0 -9035750000.0 -115526000000.0 -9035750000.0 -495417000000.0 -9035750000.0 -115786000000.0 -9035750000.0 -63452300000.0 -9035750000.0 -59514300000.0 -9035750000.0 -73902900000.0 -9035750000.0 -57557800000.0 -9486890000.0 -51741800000.0 -9649500000.0 -23305700000.0 -46634400000.0 -54170900000.0 -101320000000.0 -130348000000.0 -173509000000.0 -193112000000.0 -236543000000.0 -248073000000.0 -246320000000.0 -229342000000.0 -230482000000.0 -163615000000.0 -121911000000.0 -76431900000.0 -99275200000.0 -66596400000.0 -49191300000.0 -46277800000.0 -31523900000.0 -25892200000.0 -36174100000.0 -55084700000.0 -16988500000.0 -18023400000.0 -46237100000.0 -27272700000.0 -13609700000.0 -13140600000.0 -24232200000.0 -18614100000.0 -27096300000.0 -44501800000.0 -12784300000.0 -46253400000.0 -76229100000.0 -128123000000.0 -133899000000.0 -161215000000.0 -183849000000.0 -200213000000.0 -183009000000.0 -173715000000.0 -130794000000.0 -99075000000.0 -68830400000.0 -56779100000.0 -35690200000.0 -15229100000.0 -52911000000.0 -10204000000.0 -53707600000.0 -9035750000.0 -66140300000.0 -9035750000.0 -58109700000.0 -9035750000.0 -63156300000.0 -9035750000.0 -106948000000.0 -9035750000.0 -458301000000.0 -9035750000.0 -107343000000.0 -9035750000.0 -63598700000.0 -9035750000.0 -58243000000.0 -9035750000.0 -66100300000.0 -9035750000.0 -53682100000.0 -10203900000.0 -52917100000.0 -15229000000.0 -35692400000.0 -56781800000.0 -68832600000.0 -99076200000.0 -130794000000.0 -173715000000.0 -183009000000.0 -200213000000.0 -183849000000.0 -161216000000.0 -133899000000.0 -128123000000.0 -76229000000.0 -46253400000.0 -12784300000.0 -44501700000.0 -27096300000.0 -18614100000.0 -24232200000.0 -13140600000.0 -13609700000.0 -27272700000.0 -46237100000.0 -18023400000.0 -20733800000.0 -43491400000.0 -27771300000.0 -16090800000.0 -16277500000.0 -29634200000.0 -24339200000.0 -32940800000.0 -45720800000.0 -19417700000.0 -54552300000.0 -84974500000.0 -124376000000.0 -127866000000.0 -149950000000.0 -163610000000.0 -168679000000.0 -144971000000.0 -130967000000.0 -90463300000.0 -62973200000.0 -49863100000.0 -40377200000.0 -28231800000.0 -9035750000.0 -47775100000.0 -9035750000.0 -50393300000.0 -9035750000.0 -60176400000.0 -9035750000.0 -56578800000.0 -9035750000.0 -62825100000.0 -9035750000.0 -99255000000.0 -9035750000.0 -421941000000.0 -9035750000.0 -99719600000.0 -9035750000.0 -63051100000.0 -9035750000.0 -56577200000.0 -9035750000.0 -60132300000.0 -9035750000.0 -50374100000.0 -9035750000.0 -47778600000.0 -9035750000.0 -28233200000.0 -40378900000.0 -49864500000.0 -62974000000.0 -90463800000.0 -130967000000.0 -144971000000.0 -168679000000.0 -163610000000.0 -149950000000.0 -127866000000.0 -124376000000.0 -84974400000.0 -54552300000.0 -19417700000.0 -45720800000.0 -32940800000.0 -24339200000.0 -29634200000.0 -16277500000.0 -16090800000.0 -27771300000.0 -43491400000.0 -20733800000.0 -22549100000.0 -40131400000.0 -26898400000.0 -16596700000.0 -16549800000.0 -30749900000.0 -25113100000.0 -32240600000.0 -39853700000.0 -17625600000.0 -51938900000.0 -81652500000.0 -111088000000.0 -113606000000.0 -132960000000.0 -144725000000.0 -149641000000.0 -128223000000.0 -113912000000.0 -77505600000.0 -52881500000.0 -46167700000.0 -35868700000.0 -29125000000.0 -9035750000.0 -45813100000.0 -9035750000.0 -47438000000.0 -9035750000.0 -55466800000.0 -9035750000.0 -54827800000.0 -9035750000.0 -61911600000.0 -9035750000.0 -92461000000.0 -9035750000.0 -386376000000.0 -9035750000.0 -92805800000.0 -9035750000.0 -61960800000.0 -9035750000.0 -54783700000.0 -9035750000.0 -55432700000.0 -9035750000.0 -47424200000.0 -9035750000.0 -45815000000.0 -9035750000.0 -29125800000.0 -35869700000.0 -46168500000.0 -52882000000.0 -77505900000.0 -113913000000.0 -128223000000.0 -149641000000.0 -144725000000.0 -132960000000.0 -113606000000.0 -111088000000.0 -81652500000.0 -51938900000.0 -17625600000.0 -39853700000.0 -32240600000.0 -25113100000.0 -30749900000.0 -16549800000.0 -16596700000.0 -26898400000.0 -40131400000.0 -22549100000.0 -23882800000.0 -37223500000.0 -26406500000.0 -17893500000.0 -18031700000.0 -32953400000.0 -27700900000.0 -33622800000.0 -37326500000.0 -19764200000.0 -53487800000.0 -82507100000.0 -103280000000.0 -104007000000.0 -119908000000.0 -128065000000.0 -130847000000.0 -110938000000.0 -96939600000.0 -65555600000.0 -46497700000.0 -42054800000.0 -31089100000.0 -29505300000.0 -9035750000.0 -43908200000.0 -9035750000.0 -44865000000.0 -9035750000.0 -51708100000.0 -9035750000.0 -52979000000.0 -9035750000.0 -60505900000.0 -9035750000.0 -86358500000.0 -9035750000.0 -352161000000.0 -9035750000.0 -86504200000.0 -9035750000.0 -60471900000.0 -9035750000.0 -52934100000.0 -9035750000.0 -51684600000.0 -9035750000.0 -44855300000.0 -9035750000.0 -43909200000.0 -9035750000.0 -29505900000.0 -31089700000.0 -42055300000.0 -46498000000.0 -65555800000.0 -96939700000.0 -110938000000.0 -130847000000.0 -128065000000.0 -119908000000.0 -104007000000.0 -103280000000.0 -82507000000.0 -53487800000.0 -19764200000.0 -37326400000.0 -33622800000.0 -27700900000.0 -32953400000.0 -18031700000.0 -17893500000.0 -26406500000.0 -37223500000.0 -23882800000.0 -24626500000.0 -34442400000.0 -25662500000.0 -18965300000.0 -19308800000.0 -34521900000.0 -29813500000.0 -34355800000.0 -34865300000.0 -21517500000.0 -54134800000.0 -82114600000.0 -96162300000.0 -95514100000.0 -108288000000.0 -113349000000.0 -114472000000.0 -96405400000.0 -83374200000.0 -56638600000.0 -43185400000.0 -38327100000.0 -26527800000.0 -29501000000.0 -9035750000.0 -42091000000.0 -9035750000.0 -42614600000.0 -9035750000.0 -48650500000.0 -9035750000.0 -51086200000.0 -9035750000.0 -58729200000.0 -9035750000.0 -80763500000.0 -9035750000.0 -319740000000.0 -9035750000.0 -80764300000.0 -9035750000.0 -58676500000.0 -9035750000.0 -51051700000.0 -9035750000.0 -48634900000.0 -9035750000.0 -42607800000.0 -9035750000.0 -42091500000.0 -9035750000.0 -29501300000.0 -26528200000.0 -38327500000.0 -43185600000.0 -56638700000.0 -83374300000.0 -96405400000.0 -114472000000.0 -113349000000.0 -108288000000.0 -95514100000.0 -96162300000.0 -82114600000.0 -54134800000.0 -21517500000.0 -34865300000.0 -34355800000.0 -29813500000.0 -34521900000.0 -19308800000.0 -18965300000.0 -25662500000.0 -34442400000.0 -24626500000.0 -24840800000.0 -31823200000.0 -24747600000.0 -19801400000.0 -20370600000.0 -35513700000.0 -31448000000.0 -34557600000.0 -32620600000.0 -23016900000.0 -54439500000.0 -81083800000.0 -89782100000.0 -87928900000.0 -97865100000.0 -100291000000.0 -100009000000.0 -83806500000.0 -72137000000.0 -49995700000.0 -40582200000.0 -34994000000.0 -22450700000.0 -29215500000.0 -9035750000.0 -40363900000.0 -9035750000.0 -40608400000.0 -9035750000.0 -46063500000.0 -9035750000.0 -49174100000.0 -9035750000.0 -56686400000.0 -9035750000.0 -75580000000.0 -9035750000.0 -289321000000.0 -9035750000.0 -75522100000.0 -9035750000.0 -56641100000.0 -9035750000.0 -49150100000.0 -9035750000.0 -46053500000.0 -9035750000.0 -40603700000.0 -9035750000.0 -40364100000.0 -9035750000.0 -29215700000.0 -22450900000.0 -34994200000.0 -40582300000.0 -49995800000.0 -72137100000.0 -83806500000.0 -100009000000.0 -100291000000.0 -97865100000.0 -87928900000.0 -89782100000.0 -81083800000.0 -54439500000.0 -23016900000.0 -32620600000.0 -34557600000.0 -31448000000.0 -35513700000.0 -20370600000.0 -19801400000.0 -24747600000.0 -31823100000.0 -24840800000.0 -24619900000.0 -29360400000.0 -23744200000.0 -20400700000.0 -21211300000.0 -35993900000.0 -32611600000.0 -34332900000.0 -30667500000.0 -24227300000.0 -54373500000.0 -79454200000.0 -84156900000.0 -81399600000.0 -88806800000.0 -88971600000.0 -87524800000.0 -73156100000.0 -62867300000.0 -45189700000.0 -37837100000.0 -32096900000.0 -18985700000.0 -28730800000.0 -9035750000.0 -38715700000.0 -9035750000.0 -38784400000.0 -9035750000.0 -43775800000.0 -9035750000.0 -47250000000.0 -9035750000.0 -54459500000.0 -9035750000.0 -70757200000.0 -9035750000.0 -260995000000.0 -9035750000.0 -70694600000.0 -9035750000.0 -54426800000.0 -9035750000.0 -47233800000.0 -9035750000.0 -43769300000.0 -9035750000.0 -38781200000.0 -9035750000.0 -38715800000.0 -9035750000.0 -28731000000.0 -18985900000.0 -32097000000.0 -37837200000.0 -45189800000.0 -62867300000.0 -73156100000.0 -87524800000.0 -88971600000.0 -88806800000.0 -81399600000.0 -84156900000.0 -79454200000.0 -54373500000.0 -24227300000.0 -30667500000.0 -34332900000.0 -32611600000.0 -35993900000.0 -21211300000.0 -20400700000.0 -23744200000.0 -29360400000.0 -24619900000.0 -24076000000.0 -27045600000.0 -22707800000.0 -20770000000.0 -21829800000.0 -36027400000.0 -33321700000.0 -33769300000.0 -29014000000.0 -25156100000.0 -54004300000.0 -77311900000.0 -79128800000.0 -75738500000.0 -80953400000.0 -79267500000.0 -76914900000.0 -64296600000.0 -55294800000.0 -41529300000.0 -34847400000.0 -29624000000.0 -16175400000.0 -28105700000.0 -9035750000.0 -37132200000.0 -9035750000.0 -37091600000.0 -9035750000.0 -41684100000.0 -9035750000.0 -45314900000.0 -9035750000.0 -52109100000.0 -9035750000.0 -66254600000.0 -9035750000.0 -234787000000.0 -9035750000.0 -66206500000.0 -9035750000.0 -52087000000.0 -9035750000.0 -45304200000.0 -9035750000.0 -41679900000.0 -9035750000.0 -37089500000.0 -9035750000.0 -37132200000.0 -9035750000.0 -28105800000.0 -16175500000.0 -29624100000.0 -34847400000.0 -41529400000.0 -55294800000.0 -64296600000.0 -76914900000.0 -79267400000.0 -80953400000.0 -75738500000.0 -79128800000.0 -77311900000.0 -54004300000.0 -25156100000.0 -29014000000.0 -33769300000.0 -33321700000.0 -36027400000.0 -21829800000.0 -20770000000.0 -22707800000.0 -27045500000.0 -24076000000.0 -23316900000.0 -24882100000.0 -21667100000.0 -20923000000.0 -22230000000.0 -35675400000.0 -33607100000.0 -32942300000.0 -27623000000.0 -25812200000.0 -53365700000.0 -74740000000.0 -74557400000.0 -70772500000.0 -74138500000.0 -71002600000.0 -67978000000.0 -56979400000.0 -49165800000.0 -38406200000.0 -31751800000.0 -27534900000.0 -13995700000.0 -27379300000.0 -9035750000.0 -35595300000.0 -9035750000.0 -35480700000.0 -9035750000.0 -39729600000.0 -9035750000.0 -43370000000.0 -9035750000.0 -49679700000.0 -9035750000.0 -62032300000.0 -9035750000.0 -210666000000.0 -9035750000.0 -61999900000.0 -9035750000.0 -49665200000.0 -9035750000.0 -43363000000.0 -9035750000.0 -39726900000.0 -9035750000.0 -35479300000.0 -9035750000.0 -35595300000.0 -9035750000.0 -27379400000.0 -13995700000.0 -27535000000.0 -31751900000.0 -38406300000.0 -49165800000.0 -56979400000.0 -67978000000.0 -71002600000.0 -74138500000.0 -70772600000.0 -74557400000.0 -74740000000.0 -53365700000.0 -25812200000.0 -27623000000.0 -32942300000.0 -33607100000.0 -35675400000.0 -22230000000.0 -20923000000.0 -21667100000.0 -24882100000.0 -23316900000.0 -22432500000.0 -22880500000.0 -20636200000.0 -20878500000.0 -22420000000.0 -34995600000.0 -33505800000.0 -31917800000.0 -26437500000.0 -68177100000.0 -63963400000.0 -60470100000.0 -50930500000.0 -44185400000.0 -35493900000.0 -28705600000.0 -25773600000.0 -12372800000.0 -26577100000.0 -9035750000.0 -34086300000.0 -9035750000.0 -33910300000.0 -9035750000.0 -37875200000.0 -9035750000.0 -41417200000.0 -9035750000.0 -47204200000.0 -9035750000.0 -58051600000.0 -9035750000.0 -9035750000.0 -58031000000.0 -9035750000.0 -47194800000.0 -9035750000.0 -41412600000.0 -9035750000.0 -37873500000.0 -9035750000.0 -33909300000.0 -9035750000.0 -34086300000.0 -9035750000.0 -26577100000.0 -12372800000.0 -25773600000.0 -28705700000.0 -35493900000.0 -44185400000.0 -50930500000.0 -60470100000.0 -63963300000.0 -68177100000.0 -26437500000.0 -31917800000.0 -33505800000.0 -34995600000.0 -22420000000.0 -20878500000.0 -20636200000.0 -22880500000.0 -22432500000.0 -26206000000.0 -52465600000.0 -71801900000.0 -70305500000.0 -66323900000.0 -188562000000.0 -66323900000.0 -70305500000.0 -71801900000.0 -52465600000.0 -26206000000.0 -21490200000.0 -21050600000.0 -19622300000.0 -20658800000.0 -22411800000.0 -34043500000.0 -33061500000.0 -30750200000.0 -25397900000.0 -26350300000.0 -51299800000.0 -68548000000.0 -66258900000.0 -62233200000.0 -62889900000.0 -57930800000.0 -54143800000.0 -45881400000.0 -40057600000.0 -32700300000.0 -25824600000.0 -24278400000.0 -11208500000.0 -25715000000.0 -9035750000.0 -32590600000.0 -9035750000.0 -32355300000.0 -9035750000.0 -36092700000.0 -9035750000.0 -39458200000.0 -9035750000.0 -44707300000.0 -9035750000.0 -54277400000.0 -9035750000.0 -168376000000.0 -9035750000.0 -54264600000.0 -9035750000.0 -44701200000.0 -9035750000.0 -39455300000.0 -9035750000.0 -36091500000.0 -9035750000.0 -32354700000.0 -9035750000.0 -32590600000.0 -9035750000.0 -25715000000.0 -11208500000.0 -24278400000.0 -25824600000.0 -32700400000.0 -40057600000.0 -45881400000.0 -54143700000.0 -57930800000.0 -62889900000.0 -62233300000.0 -66258900000.0 -68548000000.0 -51299900000.0 -26350300000.0 -25397900000.0 -30750200000.0 -33061500000.0 -34043500000.0 -22411800000.0 -20658800000.0 -19622300000.0 -21050600000.0 -21490200000.0 -23182300000.0 -10402100000.0 -9035750000.0 -9035750000.0 -9035750000.0 -9035750000.0 -9035750000.0 -9035750000.0 -9035750000.0 -9035750000.0 -9035750000.0 -9035750000.0 -9035750000.0 -9035750000.0 -9035750000.0 -9035750000.0 -10402100000.0 -23182300000.0 -20536500000.0 -19398300000.0 -18631100000.0 -20288300000.0 -22220200000.0 -32870900000.0 -32320300000.0 -29482500000.0 -24449700000.0 -26259600000.0 -49864800000.0 -65029600000.0 -62331100000.0 -58371000000.0 -58117600000.0 -52701400000.0 -48771500000.0 -41595300000.0 -36535100000.0 -30039000000.0 -22989400000.0 -24803200000.0 -31098700000.0 -30806900000.0 -34358500000.0 -37494900000.0 -42207200000.0 -50679600000.0 -149996000000.0 -50671600000.0 -42203300000.0 -37493000000.0 -34357800000.0 -30806500000.0 -31098800000.0 -24803200000.0 -22989400000.0 -30039100000.0 -36535100000.0 -41595300000.0 -48771500000.0 -52701300000.0 -58117600000.0 -58371000000.0 -62331100000.0 -65029600000.0 -49864800000.0 -26259600000.0 -24449700000.0 -29482500000.0 -32320300000.0 -32870900000.0 -22220200000.0 -20288300000.0 -18631100000.0 -19398200000.0 -20536500000.0 -19600500000.0 -17924200000.0 -17668900000.0 -19791600000.0 -21862300000.0 -31524900000.0 -31328600000.0 -28147000000.0 -23547700000.0 -25950100000.0 -48163500000.0 -61301900000.0 -58460700000.0 -54642100000.0 -53729400000.0 -48099800000.0 -44153600000.0 -37885300000.0 -33435000000.0 -27544300000.0 -20818300000.0 -21852500000.0 -9863140000.0 -23849100000.0 -9035750000.0 -29604800000.0 -9035750000.0 -29265200000.0 -9035750000.0 -32653400000.0 -9035750000.0 -35528500000.0 -9035750000.0 -39717500000.0 -9035750000.0 -47233100000.0 -9035750000.0 -133300000000.0 -9035750000.0 -47228100000.0 -9035750000.0 -39715000000.0 -9035750000.0 -35527300000.0 -9035750000.0 -32652900000.0 -9035750000.0 -29265000000.0 -9035750000.0 -29604800000.0 -9035750000.0 -23849100000.0 -9863150000.0 -21852500000.0 -20818300000.0 -27544300000.0 -33435000000.0 -37885300000.0 -44153600000.0 -48099800000.0 -53729400000.0 -54642100000.0 -58460700000.0 -61301900000.0 -48163500000.0 -25950100000.0 -23547700000.0 -28147000000.0 -31328600000.0 -31524900000.0 -21862300000.0 -19791600000.0 -17668900000.0 -17924100000.0 -19600500000.0 -18696800000.0 -16623700000.0 -16742900000.0 -19192900000.0 -21356600000.0 -30046600000.0 -30130700000.0 -26768000000.0 -22656700000.0 -25439100000.0 -46206500000.0 -57419300000.0 -54610400000.0 -50986200000.0 -49626300000.0 -43983800000.0 -40120800000.0 -34612100000.0 -30634600000.0 -25240200000.0 -18746400000.0 -20821500000.0 -9516410000.0 -22858400000.0 -9035750000.0 -28104900000.0 -9035750000.0 -27733000000.0 -9035750000.0 -30962000000.0 -9035750000.0 -33559900000.0 -9035750000.0 -37248200000.0 -9035750000.0 -43917900000.0 -9035750000.0 -118161000000.0 -9035750000.0 -43914600000.0 -9035750000.0 -37246500000.0 -9035750000.0 -33559200000.0 -9035750000.0 -30961700000.0 -9035750000.0 -27732800000.0 -9035750000.0 -28104900000.0 -9035750000.0 -22858400000.0 -9516420000.0 -20821500000.0 -18746500000.0 -25240200000.0 -30634600000.0 -34612100000.0 -40120800000.0 -43983800000.0 -49626300000.0 -50986200000.0 -54610400000.0 -57419300000.0 -46206500000.0 -25439100000.0 -22656700000.0 -26768000000.0 -30130700000.0 -30046600000.0 -21356600000.0 -19192900000.0 -16742900000.0 -16623700000.0 -18696800000.0 -17830400000.0 -15487400000.0 -15861000000.0 -18514100000.0 -20721900000.0 -28470900000.0 -28767800000.0 -25363000000.0 -21751800000.0 -24744700000.0 -44010500000.0 -53431300000.0 -50763900000.0 -47371500000.0 -45738500000.0 -40242100000.0 -36537000000.0 -31672900000.0 -28062000000.0 -23136700000.0 -16962300000.0 -19859000000.0 -9302380000.0 -21836200000.0 -9035750000.0 -26597300000.0 -9035750000.0 -26211900000.0 -9035750000.0 -29272600000.0 -9035750000.0 -31589800000.0 -9035750000.0 -34806400000.0 -9035750000.0 -40717700000.0 -9035750000.0 -104446000000.0 -9035750000.0 -40715500000.0 -9035750000.0 -34805300000.0 -9035750000.0 -31589300000.0 -9035750000.0 -29272400000.0 -9035750000.0 -26211800000.0 -9035750000.0 -26597300000.0 -9035750000.0 -21836200000.0 -9302390000.0 -19859000000.0 -16962300000.0 -23136700000.0 -28062000000.0 -31672900000.0 -36537000000.0 -40242100000.0 -45738500000.0 -47371500000.0 -50763900000.0 -53431300000.0 -44010500000.0 -24744700000.0 -21751800000.0 -25363000000.0 -28767800000.0 -28470900000.0 -20721900000.0 -18514100000.0 -15861000000.0 -15487400000.0 -17830400000.0 -16999000000.0 -14501200000.0 -15029300000.0 -17774900000.0 -19976700000.0 -26827100000.0 -27276500000.0 -23944100000.0 -20817400000.0 -23885000000.0 -41596800000.0 -49382900000.0 -46920500000.0 -43786700000.0 -42020000000.0 -36790900000.0 -33299300000.0 -28992700000.0 -25681500000.0 -21231700000.0 -15448900000.0 -18936100000.0 -9176100000.0 -20787100000.0 -9035750000.0 -25082000000.0 -9035750000.0 -24701800000.0 -9035750000.0 -27577000000.0 -9035750000.0 -29618800000.0 -9035750000.0 -32396900000.0 -9035750000.0 -37619300000.0 -9035750000.0 -92025400000.0 -9035750000.0 -37617700000.0 -9035750000.0 -32396200000.0 -9035750000.0 -29618400000.0 -9035750000.0 -27576900000.0 -9035750000.0 -24701700000.0 -9035750000.0 -25082100000.0 -9035750000.0 -20787100000.0 -9176100000.0 -18936100000.0 -15448900000.0 -21231700000.0 -25681500000.0 -28992700000.0 -33299300000.0 -36790900000.0 -42020000000.0 -43786700000.0 -46920500000.0 -49382900000.0 -41596800000.0 -23885000000.0 -20817400000.0 -23944100000.0 -27276500000.0 -26827100000.0 -19976700000.0 -17774900000.0 -15029300000.0 -14501200000.0 -16999000000.0 -16197200000.0 -13648400000.0 -14252100000.0 -16991800000.0 -19138900000.0 -25139100000.0 -25687900000.0 -22518700000.0 -19845100000.0 -22877600000.0 -38989800000.0 -45313800000.0 -43088400000.0 -40232800000.0 -38440800000.0 -33569100000.0 -30332500000.0 -26518600000.0 -23478500000.0 -19514800000.0 -14181400000.0 -18031100000.0 -9105260000.0 -19715300000.0 -9035750000.0 -23560200000.0 -9035750000.0 -23201000000.0 -9035750000.0 -25869700000.0 -9035750000.0 -27647300000.0 -9035750000.0 -30022500000.0 -9035750000.0 -34611700000.0 -9035750000.0 -80766700000.0 -9035750000.0 -34610500000.0 -9035750000.0 -30022000000.0 -9035750000.0 -27647100000.0 -9035750000.0 -25869600000.0 -9035750000.0 -23201000000.0 -9035750000.0 -23560200000.0 -9035750000.0 -19715300000.0 -9105270000.0 -18031100000.0 -14181400000.0 -19514800000.0 -23478500000.0 -26518600000.0 -30332500000.0 -33569100000.0 -38440800000.0 -40232800000.0 -43088400000.0 -45313800000.0 -38989800000.0 -22877700000.0 -19845100000.0 -22518700000.0 -25687900000.0 -25139100000.0 -19138900000.0 -16991800000.0 -14252100000.0 -13648400000.0 -16197200000.0 -15417800000.0 -12910700000.0 -13530400000.0 -16178600000.0 -18224700000.0 -23425800000.0 -24028000000.0 -21091200000.0 -18831800000.0 -21740200000.0 -36214600000.0 -41257500000.0 -39280600000.0 -36717000000.0 -34982200000.0 -30532600000.0 -27581700000.0 -24216000000.0 -21445100000.0 -17970200000.0 -13130400000.0 -17129000000.0 -9067820000.0 -18624700000.0 -9035750000.0 -22033100000.0 -9035750000.0 -21706800000.0 -9035750000.0 -24147300000.0 -9035750000.0 -25675900000.0 -9035750000.0 -27684200000.0 -9035750000.0 -31685500000.0 -9035750000.0 -70542000000.0 -9035750000.0 -31684600000.0 -9035750000.0 -27683900000.0 -9035750000.0 -25675700000.0 -9035750000.0 -24147300000.0 -9035750000.0 -21706700000.0 -9035750000.0 -22033100000.0 -9035750000.0 -18624700000.0 -9067820000.0 -17129000000.0 -13130400000.0 -17970200000.0 -21445100000.0 -24216000000.0 -27581700000.0 -30532600000.0 -34982200000.0 -36717000000.0 -39280600000.0 -41257500000.0 -36214600000.0 -21740200000.0 -18831800000.0 -21091200000.0 -24028000000.0 -23425800000.0 -18224700000.0 -16178600000.0 -13530400000.0 -12910700000.0 -15417800000.0 -14653600000.0 -12269500000.0 -12862800000.0 -15346200000.0 -17248800000.0 -21701300000.0 -22317600000.0 -19663900000.0 -17778500000.0 -20489100000.0 -33296100000.0 -37239200000.0 -35511400000.0 -33249100000.0 -31631900000.0 -27649600000.0 -25007000000.0 -22062100000.0 -19572500000.0 -16578700000.0 -12265100000.0 -16219800000.0 -9049390000.0 -17518700000.0 -9035750000.0 -20502200000.0 -9035750000.0 -20216000000.0 -9035750000.0 -22408600000.0 -9035750000.0 -23704900000.0 -9035750000.0 -25381600000.0 -9035750000.0 -28832200000.0 -9035750000.0 -61226300000.0 -9035750000.0 -28831500000.0 -9035750000.0 -25381400000.0 -9035750000.0 -23704800000.0 -9035750000.0 -22408500000.0 -9035750000.0 -20216000000.0 -9035750000.0 -20502200000.0 -9035750000.0 -17518700000.0 -9049390000.0 -16219800000.0 -12265100000.0 -16578700000.0 -19572500000.0 -22062100000.0 -25007000000.0 -27649600000.0 -31631900000.0 -33249200000.0 -35511400000.0 -37239200000.0 -33296100000.0 -20489100000.0 -17778500000.0 -19663900000.0 -22317600000.0 -21701300000.0 -17248800000.0 -15346200000.0 -12862800000.0 -12269500000.0 -14653600000.0 -13898500000.0 -11706900000.0 -12245400000.0 -14502800000.0 -16224200000.0 -19975800000.0 -20572900000.0 -18237300000.0 -16687500000.0 -19140400000.0 -30257600000.0 -33275600000.0 -31792900000.0 -29837100000.0 -28380600000.0 -24896400000.0 -22578900000.0 -20040000000.0 -17848300000.0 -15319300000.0 -11555600000.0 -15297800000.0 -9041050000.0 -16400500000.0 -9035750000.0 -18968600000.0 -9035750000.0 -18725900000.0 -9035750000.0 -20653300000.0 -9035750000.0 -21734600000.0 -9035750000.0 -23113000000.0 -9035750000.0 -26043500000.0 -9035750000.0 -52698400000.0 -9035750000.0 -26042900000.0 -9035750000.0 -23112900000.0 -9035750000.0 -21734500000.0 -9035750000.0 -20653200000.0 -9035750000.0 -18725900000.0 -9035750000.0 -18968600000.0 -9035750000.0 -16400500000.0 -9041050000.0 -15297800000.0 -11555600000.0 -15319300000.0 -17848300000.0 -20040000000.0 -22578900000.0 -24896400000.0 -28380600000.0 -29837100000.0 -31792900000.0 -33275600000.0 -30257600000.0 -19140400000.0 -16687500000.0 -18237300000.0 -20572900000.0 -19975800000.0 -16224200000.0 -14502800000.0 -12245400000.0 -11706900000.0 -13898500000.0 -13147500000.0 -11206500000.0 -11672800000.0 -13654100000.0 -15161800000.0 -18255900000.0 -18805700000.0 -16811400000.0 -15562700000.0 -17708900000.0 -27120500000.0 -29375400000.0 -28132400000.0 -26484900000.0 -25219500000.0 -22253600000.0 -20274100000.0 -18134100000.0 -16256500000.0 -14171200000.0 -10973300000.0 -14360600000.0 -9037620000.0 -15272700000.0 -9035750000.0 -17432800000.0 -9035750000.0 -17234200000.0 -9035750000.0 -18882300000.0 -9035750000.0 -19765100000.0 -9035750000.0 -20875600000.0 -9035750000.0 -23311400000.0 -9035750000.0 -44841500000.0 -9035750000.0 -23310900000.0 -9035750000.0 -20875500000.0 -9035750000.0 -19765100000.0 -9035750000.0 -18882300000.0 -9035750000.0 -17234200000.0 -9035750000.0 -17432800000.0 -9035750000.0 -15272700000.0 -9037620000.0 -14360600000.0 -10973300000.0 -14171200000.0 -16256500000.0 -18134100000.0 -20274100000.0 -22253600000.0 -25219500000.0 -26485000000.0 -28132400000.0 -29375400000.0 -27120500000.0 -17708900000.0 -15562700000.0 -16811400000.0 -18805700000.0 -18255900000.0 -15161800000.0 -13654100000.0 -11672800000.0 -11206500000.0 -13147500000.0 -12397400000.0 -10753900000.0 -11138400000.0 -12804100000.0 -14071000000.0 -16545300000.0 -17024700000.0 -15386000000.0 -14408100000.0 -16208800000.0 -23904300000.0 -25540200000.0 -24532000000.0 -23192100000.0 -22138400000.0 -19703900000.0 -18072900000.0 -16328600000.0 -14778400000.0 -13114000000.0 -10492700000.0 -13408200000.0 -9036350000.0 -14137500000.0 -9035750000.0 -15895400000.0 -9035750000.0 -15739100000.0 -9035750000.0 -17097200000.0 -9035750000.0 -17796600000.0 -9035750000.0 -18665900000.0 -9035750000.0 -20627700000.0 -9035750000.0 -37542800000.0 -9035750000.0 -20627400000.0 -9035750000.0 -18665800000.0 -9035750000.0 -17796600000.0 -9035750000.0 -17097200000.0 -9035750000.0 -15739100000.0 -9035750000.0 -15895400000.0 -9035750000.0 -14137500000.0 -9036350000.0 -13408200000.0 -10492700000.0 -13114000000.0 -14778400000.0 -16328600000.0 -18072900000.0 -19703900000.0 -22138400000.0 -23192100000.0 -24532000000.0 -25540200000.0 -23904300000.0 -16208800000.0 -14408100000.0 -15386000000.0 -17024700000.0 -16545300000.0 -14071000000.0 -12804100000.0 -11138400000.0 -10753900000.0 -12397400000.0 -11646000000.0 -10336500000.0 -10635000000.0 -11955100000.0 -12959200000.0 -14845400000.0 -15235800000.0 -13960700000.0 -13228500000.0 -14653600000.0 -20626300000.0 -21765500000.0 -20988000000.0 -19953200000.0 -19125100000.0 -17230500000.0 -15956600000.0 -14605900000.0 -13393800000.0 -12128400000.0 -10090700000.0 -12441800000.0 -9035930000.0 -12997000000.0 -9035750000.0 -14356800000.0 -9035750000.0 -14240000000.0 -9035750000.0 -15300100000.0 -9035750000.0 -15828800000.0 -9035750000.0 -16479400000.0 -9035750000.0 -17984000000.0 -9035750000.0 -30693400000.0 -9035750000.0 -17983800000.0 -9035750000.0 -16479300000.0 -9035750000.0 -15828800000.0 -9035750000.0 -15300100000.0 -9035750000.0 -14240000000.0 -9035750000.0 -14356800000.0 -9035750000.0 -12997000000.0 -9035930000.0 -12441800000.0 -10090700000.0 -12128400000.0 -13393800000.0 -14605900000.0 -15956600000.0 -17230500000.0 -19125100000.0 -19953200000.0 -20988000000.0 -21765500000.0 -20626300000.0 -14653600000.0 -13228500000.0 -13960700000.0 -15235800000.0 -14845400000.0 -12959200000.0 -11955100000.0 -10635000000.0 -10336500000.0 -11646000000.0 -10892500000.0 -9944090000.0 -10155600000.0 -11107900000.0 -11832600000.0 -13155400000.0 -13442700000.0 -12535200000.0 -12028900000.0 -13056200000.0 -17302100000.0 -18042100000.0 -17491900000.0 -16759400000.0 -16165800000.0 -14816500000.0 -13906500000.0 -12948100000.0 -12081800000.0 -11196700000.0 -9746670000.0 -11464000000.0 -9035800000.0 -11852600000.0 -9035750000.0 -12817000000.0 -9035750000.0 -12736800000.0 -9035750000.0 -13493400000.0 -9035750000.0 -13861700000.0 -9035750000.0 -14311300000.0 -9035750000.0 -15371500000.0 -9035750000.0 -24187900000.0 -9035750000.0 -15371400000.0 -9035750000.0 -14311300000.0 -9035750000.0 -13861700000.0 -9035750000.0 -13493400000.0 -9035750000.0 -12736800000.0 -9035750000.0 -12817000000.0 -9035750000.0 -11852600000.0 -9035800000.0 -11464000000.0 -9746670000.0 -11196700000.0 -12081800000.0 -12948100000.0 -13906500000.0 -14816500000.0 -16165800000.0 -16759400000.0 -17491900000.0 -18042100000.0 -17302100000.0 -13056200000.0 -12028900000.0 -12535200000.0 -13442700000.0 -13155400000.0 -11832600000.0 -11107900000.0 -10155600000.0 -9944090000.0 -10892500000.0 -9568060000.0 -9692930000.0 -10262600000.0 -10696300000.0 -13245500000.0 -12444800000.0 -11903700000.0 -11336300000.0 -10821100000.0 -10302200000.0 -9442330000.0 -10477700000.0 -9035760000.0 -10705600000.0 -9035750000.0 -11276400000.0 -9035750000.0 -11230000000.0 -9035750000.0 -11679600000.0 -9035750000.0 -11894900000.0 -9035750000.0 -12156400000.0 -9035750000.0 -12781300000.0 -9035750000.0 -17923500000.0 -9035750000.0 -12781200000.0 -9035750000.0 -12156400000.0 -9035750000.0 -11894900000.0 -9035750000.0 -11679600000.0 -9035750000.0 -11230000000.0 -9035750000.0 -11276400000.0 -9035750000.0 -10705600000.0 -9035760000.0 -10477700000.0 -9442330000.0 -10302200000.0 -10821100000.0 -11336300000.0 -11903700000.0 -12444800000.0 -13245500000.0 -10696300000.0 -10262600000.0 -9692930000.0 -9568050000.0 -10136800000.0 -11473400000.0 -11647400000.0 -11109300000.0 -10814700000.0 -11429000000.0 -13945600000.0 -14357000000.0 -14032000000.0 -13599100000.0 -13599100000.0 -14032000000.0 -14357000000.0 -13945600000.0 -11429000000.0 -10814700000.0 -11109300000.0 -11647400000.0 -11473400000.0 -10136800000.0 -9379530000.0 -9201170000.0 -9240110000.0 -9418580000.0 -9554510000.0 -9796270000.0 -9851040000.0 -9683010000.0 -9591720000.0 -9784150000.0 -10569900000.0 -10695100000.0 -10593700000.0 -10458700000.0 -10348100000.0 -10098000000.0 -9928800000.0 -9751740000.0 -9590670000.0 -9429390000.0 -9160870000.0 -9486240000.0 -9035750000.0 -9557100000.0 -9035750000.0 -9735210000.0 -9035750000.0 -9720850000.0 -9035750000.0 -9861340000.0 -9035750000.0 -9928230000.0 -9035750000.0 -10009300000.0 -9035750000.0 -10203900000.0 -9035750000.0 -11799500000.0 -9035750000.0 -10203900000.0 -9035750000.0 -10009300000.0 -9035750000.0 -9928230000.0 -9035750000.0 -9861340000.0 -9035750000.0 -9720850000.0 -9035750000.0 -9735210000.0 -9035750000.0 -9557100000.0 -9035750000.0 -9486240000.0 -9160870000.0 -9429390000.0 -9590670000.0 -9751740000.0 -9928800000.0 -10098000000.0 -10348100000.0 -10458700000.0 -10593700000.0 -10695100000.0 -10569900000.0 -9784150000.0 -9591720000.0 -9683010000.0 -9851040000.0 -9796270000.0 -9554510000.0 -9418580000.0 -9240110000.0 -9201170000.0 -9379530000.0 
SCALARS Shear_Stress float 1
LOOKUP_TABLE default
24985500000.0 73452200000.0 73466500000.0 24990200000.0 55811400000.0 23615300000.0 72687200000.0 44154400000.0 44151500000.0 72685300000.0 23617300000.0 55808500000.0 1196070000.0 1416030000.0 146076000000.0 52878300000.0 7849630000.0 52734900000.0 66484100000.0 9041460000.0 9732770000.0 65768200000.0 65767100000.0 9708810000.0 9064770000.0 66494900000.0 52748700000.0 7846500000.0 52893300000.0 146147000000.0 1397810000.0 1196590000.0 84609200000.0 307151000000.0 62801100000.0 10812400000.0 219560000000.0 23767500000.0 19499900000.0 37697000000.0 19496300000.0 23769100000.0 219671000000.0 10834900000.0 62840600000.0 307244000000.0 84622300000.0 120209000000.0 165037000000.0 7078250000.0 134950000000.0 118731000000.0 81821100000.0 73937700000.0 77312700000.0 137329000000.0 137322000000.0 77370400000.0 73911800000.0 81850700000.0 118770000000.0 134804000000.0 7229270000.0 165015000000.0 120169000000.0 184529000000.0 304955000000.0 207576000000.0 254518000000.0 108300000000.0 157046000000.0 26072400000.0 129063000000.0 123057000000.0 18175300000.0 38962900000.0 18167800000.0 123058000000.0 129243000000.0 26221300000.0 157390000000.0 108161000000.0 254588000000.0 207740000000.0 305050000000.0 184455000000.0 293772000000.0 140317000000.0 468689000000.0 182695000000.0 96736100000.0 390526000000.0 23953800000.0 158571000000.0 8391380000.0 89083200000.0 8412740000.0 159076000000.0 23632700000.0 390584000000.0 96809800000.0 182587000000.0 468786000000.0 140212000000.0 293665000000.0 892139000.0 632818000000.0 216224000000.0 31005700000.0 396567000000.0 125860000000.0 19215300000.0 118163000000.0 118185000000.0 19658200000.0 126646000000.0 396577000000.0 31060200000.0 216338000000.0 632999000000.0 890984000.0 181673000000.0 134660000000.0 171737000000.0 100607000000.0 134559000000.0 100591000000.0 81103500000.0 25052100000.0 86638900000.0 135509000000.0 304104000000.0 237798000000.0 304181000000.0 135607000000.0 85808800000.0 26024200000.0 79890200000.0 99758900000.0 134538000000.0 101049000000.0 172222000000.0 134643000000.0 181656000000.0 37003800000.0 327585000000.0 1.42848e+12 1.15137e+12 34005000000.0 154922000000.0 121768000000.0 1670330000.0 20656000000.0 507037000000.0 449350000000.0 109441000000.0 320205000000.0 443472000000.0 320837000000.0 107827000000.0 448437000000.0 507027000000.0 20279100000.0 1303890000.0 122388000000.0 154832000000.0 34217600000.0 1.15132e+12 1.42845e+12 327578000000.0 36996300000.0 55230700000.0 38683900000.0 269081000000.0 644688000000.0 776499000000.0 516392000000.0 30122800000.0 201732000000.0 261406000000.0 312142000000.0 176386000000.0 529481000000.0 529502000000.0 174646000000.0 310567000000.0 261470000000.0 201010000000.0 29412900000.0 516376000000.0 776497000000.0 644669000000.0 269078000000.0 38678800000.0 55227800000.0 67021000000.0 216674000000.0 98554700000.0 1.00664e+12 959044000000.0 837032000000.0 1.06048e+12 346995000000.0 420655000000.0 441085000000.0 247081000000.0 157834000000.0 549624000000.0 736037000000.0 687649000000.0 736035000000.0 551914000000.0 152310000000.0 244282000000.0 440080000000.0 420255000000.0 346292000000.0 1.06056e+12 837045000000.0 959000000000.0 1.00664e+12 98555900000.0 216673000000.0 67019400000.0 57723500000.0 181202000000.0 89498800000.0 125460000000.0 130826000000.0 686583000000.0 684155000000.0 1.12755e+12 976184000000.0 915682000000.0 1.05601e+12 891500000000.0 329661000000.0 146107000000.0 383928000000.0 799255000000.0 711823000000.0 799285000000.0 381932000000.0 143586000000.0 327917000000.0 891128000000.0 1.05599e+12 915445000000.0 976117000000.0 1.12753e+12 684151000000.0 686577000000.0 130827000000.0 125459000000.0 89498500000.0 181203000000.0 57722600000.0 24517700000.0 227229000000.0 178796000000.0 59650900000.0 28433400000.0 341878000000.0 1.06451e+12 1.10512e+12 1.11558e+12 564812000000.0 447533000000.0 586252000000.0 55762600000.0 166449000000.0 129730000000.0 129025000000.0 171829000000.0 57927800000.0 584801000000.0 447470000000.0 564662000000.0 1.11552e+12 1.10505e+12 1.06448e+12 341879000000.0 28435400000.0 59651400000.0 178796000000.0 227229000000.0 24517000000.0 72928400000.0 23186500000.0 309455000000.0 94070000000.0 71286000000.0 106225000000.0 5870230000.0 279235000000.0 1.02284e+12 637686000000.0 184881000000.0 403035000000.0 275300000000.0 22176800000.0 195050000000.0 188460000000.0 9039650000.0 176958000000.0 210903000000.0 36424000000.0 273951000000.0 402890000000.0 184874000000.0 637546000000.0 1.02284e+12 279220000000.0 5862880000.0 106231000000.0 71285700000.0 94070400000.0 309456000000.0 23187100000.0 72929000000.0 117440000000.0 396053000000.0 344128000000.0 203933000000.0 28884800000.0 56128600000.0 194516000000.0 178798000000.0 212292000000.0 485307000000.0 966269000000.0 668683000000.0 575006000000.0 4449360000.0 78103000000.0 286166000000.0 75424400000.0 118243000000.0 576721000000.0 47817900000.0 143678000000.0 149415000000.0 48692700000.0 579187000000.0 117268000000.0 75669300000.0 285388000000.0 78063000000.0 4366260000.0 574891000000.0 668683000000.0 966285000000.0 485302000000.0 212290000000.0 178798000000.0 194515000000.0 56128100000.0 28885300000.0 203934000000.0 344129000000.0 396053000000.0 117440000000.0 153758000000.0 510215000000.0 464902000000.0 463881000000.0 223447000000.0 137508000000.0 280684000000.0 95121600000.0 211288000000.0 463639000000.0 681663000000.0 170538000000.0 373846000000.0 308102000000.0 427287000000.0 387316000000.0 244288000000.0 301523000000.0 300549000000.0 248666000000.0 387684000000.0 427706000000.0 308139000000.0 373895000000.0 170523000000.0 681644000000.0 463626000000.0 211311000000.0 95116900000.0 280681000000.0 137507000000.0 223448000000.0 463882000000.0 464903000000.0 510216000000.0 153759000000.0 200130000000.0 181494000000.0 534072000000.0 539729000000.0 565312000000.0 427421000000.0 298327000000.0 16508100000.0 246866000000.0 253066000000.0 262973000000.0 69468200000.0 1.49493e+12 1.01415e+12 805129000000.0 492723000000.0 353639000000.0 276180000000.0 56288500000.0 581204000000.0 475864000000.0 579750000000.0 53330000000.0 276821000000.0 353939000000.0 492851000000.0 804998000000.0 1.01411e+12 1.49491e+12 69449200000.0 262963000000.0 253057000000.0 246863000000.0 16507300000.0 298329000000.0 427423000000.0 565314000000.0 539730000000.0 534073000000.0 181494000000.0 200131000000.0 212780000000.0 542760000000.0 576972000000.0 573631000000.0 623475000000.0 566083000000.0 73479500000.0 184044000000.0 229680000000.0 106984000000.0 336137000000.0 1.10834e+12 1.03456e+12 1.1831e+12 442220000000.0 180839000000.0 215544000000.0 370346000000.0 52188200000.0 54621600000.0 365879000000.0 213701000000.0 181380000000.0 442570000000.0 1.18295e+12 1.03453e+12 1.10834e+12 336149000000.0 106967000000.0 229674000000.0 184043000000.0 73478300000.0 566086000000.0 623476000000.0 573632000000.0 576973000000.0 542760000000.0 212780000000.0 220321000000.0 545193000000.0 568287000000.0 616929000000.0 688620000000.0 765086000000.0 455438000000.0 214157000000.0 125090000000.0 91577200000.0 233732000000.0 280287000000.0 663248000000.0 603816000000.0 657736000000.0 262678000000.0 175145000000.0 450820000000.0 447264000000.0 480212000000.0 368139000000.0 353880000000.0 557968000000.0 356424000000.0 370749000000.0 479689000000.0 444684000000.0 449468000000.0 174285000000.0 263075000000.0 657946000000.0 603824000000.0 663181000000.0 280315000000.0 233752000000.0 91601000000.0 125076000000.0 214154000000.0 455443000000.0 765091000000.0 688622000000.0 616930000000.0 568288000000.0 545193000000.0 220321000000.0 222376000000.0 557574000000.0 550872000000.0 567242000000.0 585521000000.0 606533000000.0 673508000000.0 760062000000.0 774020000000.0 226252000000.0 201055000000.0 151934000000.0 7941100000.0 218523000000.0 654249000000.0 530044000000.0 919482000000.0 849009000000.0 256280000000.0 89504800000.0 338885000000.0 546146000000.0 481633000000.0 511644000000.0 483645000000.0 545407000000.0 338161000000.0 88946200000.0 256551000000.0 849174000000.0 919437000000.0 529961000000.0 654233000000.0 218560000000.0 7955940000.0 151925000000.0 201049000000.0 226251000000.0 774028000000.0 760064000000.0 673509000000.0 606534000000.0 585521000000.0 567243000000.0 550872000000.0 557574000000.0 222376000000.0 167816000000.0 207585000000.0 562718000000.0 580222000000.0 572822000000.0 568066000000.0 556469000000.0 635074000000.0 685943000000.0 892299000000.0 1.05652e+12 519749000000.0 50985700000.0 115977000000.0 63006200000.0 70796400000.0 502840000000.0 605602000000.0 648582000000.0 748913000000.0 88656200000.0 505480000000.0 552769000000.0 473947000000.0 475380000000.0 553289000000.0 504949000000.0 88257800000.0 749150000000.0 648464000000.0 605524000000.0 502780000000.0 70844200000.0 63034400000.0 116000000000.0 50975600000.0 519747000000.0 1.05652e+12 892301000000.0 685943000000.0 635075000000.0 556470000000.0 568066000000.0 572823000000.0 580222000000.0 562718000000.0 207585000000.0 167816000000.0 102263000000.0 537305000000.0 610844000000.0 597243000000.0 601311000000.0 551870000000.0 514342000000.0 547372000000.0 538290000000.0 786906000000.0 149267000000.0 52987700000.0 38611600000.0 102099000000.0 623788000000.0 424956000000.0 396856000000.0 292138000000.0 73503800000.0 333444000000.0 474970000000.0 562382000000.0 551484000000.0 530360000000.0 507505000000.0 517137000000.0 508265000000.0 531639000000.0 552073000000.0 562444000000.0 474921000000.0 333140000000.0 73324500000.0 292401000000.0 397120000000.0 424909000000.0 623644000000.0 102070000000.0 38628200000.0 53000900000.0 149258000000.0 786907000000.0 538291000000.0 547373000000.0 514343000000.0 551871000000.0 601312000000.0 597243000000.0 610844000000.0 537305000000.0 102263000000.0 7849810000.0 472724000000.0 569578000000.0 628996000000.0 619821000000.0 567411000000.0 535920000000.0 495937000000.0 557931000000.0 689172000000.0 1.10537e+12 869446000000.0 168978000000.0 3997580000.0 14371800000.0 120956000000.0 544115000000.0 610960000000.0 337328000000.0 94840200000.0 311177000000.0 512294000000.0 517512000000.0 502509000000.0 518287000000.0 512587000000.0 311164000000.0 95019400000.0 337241000000.0 610907000000.0 544008000000.0 120938000000.0 14386900000.0 3985710000.0 168971000000.0 869441000000.0 1.10538e+12 689177000000.0 557934000000.0 495939000000.0 535921000000.0 567411000000.0 619821000000.0 628996000000.0 569578000000.0 472724000000.0 7849840000.0 114422000000.0 237631000000.0 368558000000.0 465992000000.0 655163000000.0 647649000000.0 551302000000.0 483096000000.0 504585000000.0 490178000000.0 573812000000.0 1.08203e+12 1.00086e+12 26938500000.0 70357100000.0 352966000000.0 274170000000.0 693495000000.0 795973000000.0 460283000000.0 51308400000.0 172799000000.0 415980000000.0 495171000000.0 482593000000.0 483036000000.0 495682000000.0 416145000000.0 172740000000.0 51156900000.0 460219000000.0 795967000000.0 693430000000.0 274111000000.0 352950000000.0 70338700000.0 26927700000.0 1.00085e+12 1.08203e+12 573816000000.0 490181000000.0 504588000000.0 483097000000.0 551303000000.0 647649000000.0 655163000000.0 465992000000.0 368558000000.0 237632000000.0 114422000000.0 493444000000.0 274877000000.0 66149200000.0 307992000000.0 413533000000.0 587870000000.0 712693000000.0 640146000000.0 505157000000.0 529228000000.0 452766000000.0 549010000000.0 742438000000.0 787470000000.0 952217000000.0 254131000000.0 64369000000.0 59355400000.0 109612000000.0 299280000000.0 890912000000.0 261524000000.0 309049000000.0 183111000000.0 288369000000.0 316250000000.0 344211000000.0 431104000000.0 411346000000.0 458966000000.0 420118000000.0 454806000000.0 420396000000.0 459484000000.0 411765000000.0 431453000000.0 344431000000.0 316337000000.0 288375000000.0 183027000000.0 308983000000.0 261444000000.0 890894000000.0 299217000000.0 109582000000.0 59338700000.0 64366600000.0 254126000000.0 952221000000.0 787475000000.0 742442000000.0 549014000000.0 452768000000.0 529229000000.0 505158000000.0 640146000000.0 712693000000.0 587870000000.0 413534000000.0 307992000000.0 66149400000.0 274876000000.0 493444000000.0 355076000000.0 139588000000.0 129599000000.0 175177000000.0 602332000000.0 816060000000.0 636675000000.0 676706000000.0 539793000000.0 359611000000.0 567551000000.0 614761000000.0 935696000000.0 725810000000.0 464619000000.0 83678200000.0 680032000000.0 859702000000.0 86310200000.0 217361000000.0 397534000000.0 257099000000.0 342810000000.0 377245000000.0 380713000000.0 377585000000.0 343110000000.0 257222000000.0 397495000000.0 217341000000.0 86316400000.0 859661000000.0 680006000000.0 83681300000.0 464611000000.0 725799000000.0 935700000000.0 614764000000.0 567553000000.0 359612000000.0 539795000000.0 676707000000.0 636675000000.0 816061000000.0 602332000000.0 175177000000.0 129599000000.0 139587000000.0 355078000000.0 156242000000.0 358495000000.0 300748000000.0 67697900000.0 97424100000.0 314396000000.0 620091000000.0 548848000000.0 795689000000.0 373647000000.0 620320000000.0 641943000000.0 852128000000.0 878714000000.0 814889000000.0 383954000000.0 128589000000.0 227966000000.0 460200000000.0 309558000000.0 237508000000.0 225932000000.0 650471000000.0 187741000000.0 254409000000.0 324149000000.0 336157000000.0 336326000000.0 324451000000.0 254615000000.0 187794000000.0 650399000000.0 225937000000.0 237435000000.0 309577000000.0 460229000000.0 227969000000.0 128582000000.0 383948000000.0 814893000000.0 878717000000.0 852131000000.0 641945000000.0 620321000000.0 373648000000.0 795690000000.0 548848000000.0 620092000000.0 314396000000.0 97423500000.0 67697400000.0 300749000000.0 358497000000.0 156240000000.0 5563190000.0 319441000000.0 1.16608e+12 883630000000.0 316360000000.0 54352500000.0 158114000000.0 1.02286e+12 191387000000.0 46575700000.0 47075800000.0 748636000000.0 479657000000.0 745357000000.0 667300000000.0 722236000000.0 540290000000.0 636427000000.0 399480000000.0 562657000000.0 521888000000.0 85459300000.0 98148600000.0 44909000000.0 137469000000.0 196616000000.0 263297000000.0 233233000000.0 286682000000.0 242034000000.0 290773000000.0 242145000000.0 286905000000.0 233450000000.0 263532000000.0 196793000000.0 137607000000.0 44818000000.0 98143400000.0 85454400000.0 521918000000.0 562645000000.0 399487000000.0 636425000000.0 540289000000.0 722230000000.0 667305000000.0 745360000000.0 479660000000.0 748638000000.0 47077200000.0 46577200000.0 191388000000.0 1.02286e+12 158115000000.0 54352200000.0 316359000000.0 883630000000.0 1.16608e+12 319441000000.0 5564000000.0 2781000000.0 8301460000.0 435186000000.0 1.41452e+12 932700000000.0 688465000000.0 403471000000.0 383318000000.0 617134000000.0 1.39394e+12 1.26997e+12 1.01615e+12 799586000000.0 269750000000.0 600675000000.0 380875000000.0 13284000000.0 366209000000.0 201413000000.0 112504000000.0 95654600000.0 213361000000.0 572140000000.0 351218000000.0 151313000000.0 174653000000.0 192154000000.0 195140000000.0 192316000000.0 174840000000.0 151437000000.0 351180000000.0 572085000000.0 213365000000.0 95686500000.0 112497000000.0 201419000000.0 366221000000.0 13287800000.0 380883000000.0 600679000000.0 269748000000.0 799584000000.0 1.01615e+12 1.26997e+12 1.39394e+12 617135000000.0 383318000000.0 403470000000.0 688463000000.0 932699000000.0 1.41452e+12 435186000000.0 8301000000.0 2780360000.0 8777940000.0 402685000000.0 514487000000.0 1.10022e+12 531195000000.0 430950000000.0 564090000000.0 530253000000.0 246126000000.0 39856300000.0 825466000000.0 816368000000.0 532201000000.0 864337000000.0 710532000000.0 974971000000.0 937301000000.0 710507000000.0 521138000000.0 2687750000.0 557304000000.0 633464000000.0 94606300000.0 201867000000.0 71171600000.0 368596000000.0 319527000000.0 200717000000.0 119865000000.0 136526000000.0 147712000000.0 147799000000.0 136698000000.0 120010000000.0 200783000000.0 319513000000.0 368563000000.0 71203600000.0 201901000000.0 94611600000.0 633468000000.0 557296000000.0 2693710000.0 521136000000.0 710509000000.0 937297000000.0 974972000000.0 710532000000.0 864336000000.0 532202000000.0 816367000000.0 825466000000.0 39856700000.0 246126000000.0 530251000000.0 564088000000.0 430950000000.0 531196000000.0 1.10022e+12 514488000000.0 402686000000.0 8777230000.0 51933100000.0 378423000000.0 480500000000.0 518270000000.0 533790000000.0 334373000000.0 271502000000.0 15374500000.0 438396000000.0 243378000000.0 346980000000.0 364926000000.0 81381600000.0 139170000000.0 554357000000.0 740632000000.0 732606000000.0 778331000000.0 324258000000.0 1.08001e+12 758991000000.0 755822000000.0 375341000000.0 196215000000.0 156994000000.0 578168000000.0 652698000000.0 634431000000.0 92577000000.0 334037000.0 73068100000.0 45697400000.0 98491500000.0 60285100000.0 103242000000.0 60376300000.0 98632200000.0 45858700000.0 73225400000.0 210913000.0 92677000000.0 634367000000.0 652662000000.0 578172000000.0 157039000000.0 196255000000.0 375343000000.0 755826000000.0 758989000000.0 1.08001e+12 324250000000.0 778333000000.0 732607000000.0 740631000000.0 554357000000.0 139169000000.0 81381800000.0 364927000000.0 346980000000.0 243377000000.0 438395000000.0 15373500000.0 271501000000.0 334375000000.0 533792000000.0 518271000000.0 480500000000.0 378424000000.0 51932600000.0 127974000000.0 297847000000.0 407441000000.0 535210000000.0 697181000000.0 223488000000.0 303878000000.0 398353000000.0 260576000000.0 606943000000.0 1.00356e+12 27138100000.0 475977000000.0 108709000000.0 619835000000.0 63381800000.0 949146000000.0 97438500000.0 227946000000.0 24427100000.0 9849910000.0 200980000000.0 147697000000.0 147208000000.0 225296000000.0 433954000000.0 78818300000.0 76840900000.0 135322000000.0 14253800000.0 17709800000.0 22617200000.0 17869600000.0 14098300000.0 135236000000.0 76873400000.0 78814500000.0 433931000000.0 225282000000.0 147235000000.0 147707000000.0 200987000000.0 9846590000.0 24427800000.0 227946000000.0 97442100000.0 949148000000.0 63381300000.0 619834000000.0 108710000000.0 475977000000.0 27137700000.0 1.00356e+12 606945000000.0 260578000000.0 398352000000.0 303878000000.0 223489000000.0 697184000000.0 535211000000.0 407442000000.0 297848000000.0 127974000000.0 84958300000.0 112913000000.0 153849000000.0 222726000000.0 482727000000.0 445143000000.0 400840000000.0 435084000000.0 203571000000.0 621415000000.0 927593000000.0 1.14036e+12 642804000000.0 361364000000.0 28052300000.0 677415000000.0 601209000000.0 160197000000.0 826718000000.0 6839600000.0 77150200000.0 96965500000.0 93823300000.0 5473380000.0 410557000000.0 83582000000.0 22635200000.0 12670300000.0 12539800000.0 22446700000.0 83472000000.0 410476000000.0 5524780000.0 93863800000.0 96987700000.0 77159900000.0 6833580000.0 826719000000.0 160191000000.0 601208000000.0 677413000000.0 28052400000.0 361364000000.0 642805000000.0 1.14036e+12 927592000000.0 621413000000.0 203571000000.0 435087000000.0 400843000000.0 445145000000.0 482728000000.0 222728000000.0 153850000000.0 112914000000.0 84956200000.0 157291000000.0 228640000000.0 107812000000.0 295080000000.0 324413000000.0 202726000000.0 326475000000.0 489509000000.0 213454000000.0 9714910000.0 976988000000.0 619571000000.0 58485900000.0 469417000000.0 334949000000.0 287310000000.0 225999000000.0 380110000000.0 234841000000.0 249595000000.0 399986000000.0 84845600000.0 37955500000.0 78320100000.0 95361700000.0 80302500000.0 279786000000.0 9253500000.0 196480000000.0 75177600000.0 63675200000.0 50193200000.0 39462000000.0 67761100000.0 43767400000.0 67533900000.0 39232800000.0 49936200000.0 63476500000.0 75115700000.0 196401000000.0 9259430000.0 279754000000.0 80373900000.0 95425800000.0 78354600000.0 37969500000.0 84846900000.0 399984000000.0 249595000000.0 234841000000.0 380110000000.0 225999000000.0 287310000000.0 334950000000.0 469417000000.0 58485800000.0 619570000000.0 976987000000.0 9714390000.0 213454000000.0 489509000000.0 326475000000.0 202729000000.0 324414000000.0 295082000000.0 107814000000.0 228641000000.0 157285000000.0 108092000000.0 195909000000.0 110557000000.0 216529000000.0 85112300000.0 75569200000.0 228304000000.0 29686900000.0 323907000000.0 392485000000.0 787867000000.0 271323000000.0 457147000000.0 366369000000.0 298463000000.0 400637000000.0 401000000000.0 325506000000.0 407607000000.0 343461000000.0 702764000000.0 333961000000.0 310923000000.0 233967000000.0 19919200000.0 25585600000.0 93683800000.0 184589000000.0 296538000000.0 617682000000.0 870484000000.0 15730200000.0 44772300000.0 49001000000.0 74529100000.0 95463200000.0 74161800000.0 48717200000.0 44604800000.0 15764100000.0 870572000000.0 617691000000.0 296610000000.0 184665000000.0 93725300000.0 25580400000.0 19923300000.0 233966000000.0 310922000000.0 333965000000.0 702762000000.0 343459000000.0 407606000000.0 325506000000.0 401001000000.0 400638000000.0 298464000000.0 366371000000.0 457149000000.0 271324000000.0 787867000000.0 392486000000.0 323909000000.0 29688300000.0 228307000000.0 75571000000.0 85114400000.0 216527000000.0 110558000000.0 195920000000.0 108092000000.0 122518000000.0 16743100000.0 252897000000.0 49323400000.0 377796000000.0 87041800000.0 67290300000.0 191889000000.0 557147000000.0 986507000000.0 1.10543e+12 1.02432e+12 536609000000.0 9940900000.0 235230000000.0 382100000000.0 408865000000.0 435207000000.0 450319000000.0 567540000000.0 420431000000.0 392703000000.0 318596000000.0 173459000000.0 47931800000.0 27923700000.0 32667600000.0 60438200000.0 206852000000.0 7172260000.0 77465700000.0 41510900000.0 109435000000.0 109002000000.0 41141000000.0 77267800000.0 7083330000.0 206940000000.0 60386500000.0 32686000000.0 27915600000.0 47924800000.0 173451000000.0 318586000000.0 392704000000.0 420430000000.0 567541000000.0 450319000000.0 435207000000.0 408865000000.0 382101000000.0 235231000000.0 9942060000.0 536609000000.0 1.02432e+12 1.10543e+12 986507000000.0 557147000000.0 191890000000.0 67291200000.0 87043200000.0 377795000000.0 49323700000.0 252897000000.0 16742200000.0 122517000000.0 32095000000.0 54916300000.0 141307000000.0 229927000000.0 188115000000.0 295168000000.0 561742000000.0 730767000000.0 67805500000.0 149347000000.0 2303690000.0 982188000000.0 589344000000.0 93131700000.0 287633000000.0 389164000000.0 449168000000.0 476480000000.0 490064000000.0 533135000000.0 473875000000.0 431661000000.0 407304000000.0 335840000000.0 397008000000.0 278283000000.0 167752000000.0 101355000000.0 53008400000.0 31209100000.0 57457700000.0 38450000000.0 156910000000.0 52336700000.0 7485940000.0 93389900000.0 146233000000.0 138031000000.0 145342000000.0 92813800000.0 7801280000.0 51842900000.0 156544000000.0 38924100000.0 57343200000.0 31165700000.0 52972800000.0 101326000000.0 167723000000.0 278256000000.0 396983000000.0 335835000000.0 407304000000.0 431664000000.0 473873000000.0 533133000000.0 490063000000.0 476481000000.0 449169000000.0 389166000000.0 287634000000.0 93130800000.0 589344000000.0 982188000000.0 2302590000.0 149347000000.0 67805600000.0 730766000000.0 561741000000.0 295167000000.0 188115000000.0 229928000000.0 141316000000.0 54916600000.0 32094500000.0 327577000000.0 138368000000.0 192698000000.0 387368000000.0 673578000000.0 522245000000.0 104002000000.0 251860000000.0 448271000000.0 65824900000.0 115949000000.0 532135000000.0 500283000000.0 468308000000.0 448998000000.0 439801000000.0 464595000000.0 68907300000.0 72959600000.0 110267000000.0 179534000000.0 266196000000.0 398916000000.0 317540000000.0 194736000000.0 213886000000.0 216169000000.0 113935000000.0 180537000000.0 113092000000.0 215674000000.0 213599000000.0 194678000000.0 317602000000.0 398956000000.0 266328000000.0 179608000000.0 110278000000.0 72936800000.0 68875100000.0 464573000000.0 439779000000.0 448991000000.0 468306000000.0 500285000000.0 532136000000.0 115950000000.0 65826900000.0 448271000000.0 251859000000.0 104002000000.0 522244000000.0 673578000000.0 387367000000.0 192703000000.0 138370000000.0 327585000000.0 85754800000.0 234288000000.0 251967000000.0 169394000000.0 211345000000.0 542126000000.0 238477000000.0 332875000000.0 707730000000.0 387276000000.0 676412000000.0 553460000000.0 472193000000.0 486355000000.0 498219000000.0 511383000000.0 518111000000.0 431517000000.0 299455000000.0 128078000000.0 15502000000.0 36813400000.0 71558200000.0 66620900000.0 134665000000.0 125129000000.0 236633000000.0 140982000000.0 112581000000.0 156884000000.0 175886000000.0 189075000000.0 187382000000.0 176012000000.0 156776000000.0 112273000000.0 141453000000.0 236321000000.0 124943000000.0 134532000000.0 66591600000.0 71529300000.0 36783400000.0 15536000000.0 128108000000.0 299489000000.0 431535000000.0 518110000000.0 511385000000.0 498222000000.0 486357000000.0 472194000000.0 553460000000.0 676412000000.0 387275000000.0 707730000000.0 332873000000.0 238477000000.0 542125000000.0 211343000000.0 169394000000.0 251971000000.0 234291000000.0 85753900000.0 85635900000.0 24633800000.0 138337000000.0 145490000000.0 11086200000.0 643673000000.0 133947000000.0 134948000000.0 292877000000.0 58202500000.0 670984000000.0 607490000000.0 631090000000.0 593619000000.0 567266000000.0 545996000000.0 534860000000.0 546682000000.0 497403000000.0 132095000000.0 79486700000.0 17481300000.0 45262400000.0 83876200000.0 97358000000.0 112623000000.0 389092000000.0 344827000000.0 117181000000.0 188100000000.0 232170000000.0 216748000000.0 227568000000.0 187682000000.0 116946000000.0 344425000000.0 388840000000.0 112518000000.0 97287800000.0 83825900000.0 45222200000.0 17524900000.0 79525700000.0 132124000000.0 497409000000.0 546687000000.0 534865000000.0 546002000000.0 567269000000.0 593621000000.0 631090000000.0 607492000000.0 670984000000.0 58202500000.0 292875000000.0 134946000000.0 133945000000.0 643671000000.0 11081600000.0 145494000000.0 138338000000.0 24637700000.0 85635100000.0 18445300000.0 112983000000.0 183045000000.0 127859000000.0 31689100000.0 80152100000.0 7221930000.0 33929500000.0 280408000000.0 409983000000.0 586339000000.0 654202000000.0 619961000000.0 586407000000.0 534550000000.0 570721000000.0 504577000000.0 469554000000.0 347351000000.0 218237000000.0 78289300000.0 1768750000.0 25151300000.0 41902500000.0 112513000000.0 114484000000.0 237229000000.0 50277500000.0 187453000000.0 137571000000.0 91819100000.0 398276000000.0 209373000000.0 302583000000.0 209863000000.0 398475000000.0 91916500000.0 137942000000.0 187086000000.0 49722000000.0 236938000000.0 114235000000.0 112344000000.0 41793900000.0 25091400000.0 1735280000.0 78342800000.0 218259000000.0 347374000000.0 469577000000.0 504581000000.0 570724000000.0 534549000000.0 586408000000.0 619960000000.0 654200000000.0 586340000000.0 409982000000.0 280410000000.0 33931500000.0 7220400000.0 80150700000.0 31686700000.0 127860000000.0 183039000000.0 112983000000.0 18446900000.0 162525000000.0 44033400000.0 30438100000.0 620798000000.0 175266000000.0 213471000000.0 155408000000.0 480139000000.0 553945000000.0 468440000000.0 533677000000.0 461664000000.0 484960000000.0 381795000000.0 295089000000.0 222962000000.0 176990000000.0 139703000000.0 77116000000.0 59239100000.0 96016600000.0 183270000000.0 173703000000.0 230370000000.0 86431200000.0 122071000000.0 73276800000.0 38157300000.0 195301000000.0 339491000000.0 334051000000.0 195711000000.0 37229000000.0 72597600000.0 122833000000.0 85518000000.0 230289000000.0 173124000000.0 183229000000.0 95778500000.0 59162000000.0 77210800000.0 139750000000.0 177026000000.0 222981000000.0 295103000000.0 381807000000.0 484967000000.0 461652000000.0 533674000000.0 468437000000.0 553943000000.0 480139000000.0 155409000000.0 213471000000.0 175265000000.0 620799000000.0 30438100000.0 44033900000.0 162528000000.0 197269000000.0 60223800000.0 7264170000.0 61095900000.0 971642000000.0 151724000000.0 78046700000.0 119992000000.0 454718000000.0 560563000000.0 585422000000.0 463886000000.0 375332000000.0 318419000000.0 291218000000.0 289079000000.0 298978000000.0 268222000000.0 194343000000.0 69291400000.0 333791000000.0 221945000000.0 101319000000.0 184598000000.0 93576500000.0 221160000000.0 333311000000.0 69313700000.0 194387000000.0 268268000000.0 299020000000.0 289117000000.0 291239000000.0 318435000000.0 375344000000.0 463889000000.0 585420000000.0 560563000000.0 454720000000.0 119993000000.0 78046700000.0 151723000000.0 971643000000.0 61099600000.0 7261040000.0 60226200000.0 197272000000.0 4485920000.0 28685600000.0 84455000000.0 692800000000.0 200275000000.0 342064000000.0 320919000000.0 230331000000.0 400797000000.0 526529000000.0 525541000000.0 423000000000.0 478903000000.0 405959000000.0 65297500000.0 19180700000.0 92266400000.0 137481000000.0 167695000000.0 190440000000.0 118662000000.0 267650000000.0 350580000000.0 309108000000.0 139764000000.0 100089000000.0 109655000000.0 131350000000.0 119037000000.0 340747000000.0 119285000000.0 132507000000.0 110075000000.0 100189000000.0 138697000000.0 308259000000.0 350147000000.0 267539000000.0 118519000000.0 190367000000.0 167645000000.0 137427000000.0 92223400000.0 19156800000.0 65306100000.0 405946000000.0 478892000000.0 423001000000.0 525540000000.0 526529000000.0 400797000000.0 230331000000.0 320919000000.0 342065000000.0 200274000000.0 692801000000.0 84456200000.0 28685700000.0 4487860000.0 131531000000.0 9035750000.0 6651120000.0 41726100000.0 166229000000.0 307752000000.0 358582000000.0 341972000000.0 378185000000.0 490967000000.0 397464000000.0 402499000000.0 343462000000.0 426500000000.0 344031000000.0 264966000000.0 171799000000.0 68116500000.0 150152000000.0 207470000000.0 98243900000.0 299343000000.0 191542000000.0 274679000000.0 216203000000.0 281850000000.0 129467000000.0 194364000000.0 20070000000.0 155434000000.0 315933000000.0 308819000000.0 155223000000.0 18907600000.0 191722000000.0 130031000000.0 280847000000.0 216140000000.0 274697000000.0 191427000000.0 299389000000.0 98266600000.0 207356000000.0 150181000000.0 68093500000.0 171796000000.0 264969000000.0 344032000000.0 426494000000.0 343452000000.0 402505000000.0 397460000000.0 490967000000.0 378185000000.0 341973000000.0 358583000000.0 307751000000.0 166229000000.0 41725100000.0 6651060000.0 9035750000.0 131533000000.0 31502600000.0 29147700000.0 190585000000.0 382800000000.0 96584500000.0 83973800000.0 282522000000.0 356198000000.0 366760000000.0 337611000000.0 402499000000.0 368137000000.0 312988000000.0 383068000000.0 332201000000.0 261398000000.0 176188000000.0 94635000000.0 45270700000.0 9370950000.0 29502800000.0 526846000000.0 377451000000.0 146571000000.0 49371300000.0 99098000000.0 66730200000.0 433943000000.0 71612000000.0 96809300000.0 49682600000.0 145894000000.0 377131000000.0 527160000000.0 29486800000.0 9389720000.0 45287000000.0 94646400000.0 176193000000.0 261403000000.0 332203000000.0 383065000000.0 312972000000.0 368143000000.0 402498000000.0 337611000000.0 366760000000.0 356199000000.0 282522000000.0 83974300000.0 96584600000.0 382799000000.0 190584000000.0 29147800000.0 31502700000.0 40325600000.0 34788900000.0 287916000000.0 147752000000.0 59829500000.0 165069000000.0 95973300000.0 103610000000.0 237725000000.0 290003000000.0 344842000000.0 344203000000.0 284408000000.0 198920000000.0 113011000000.0 36242400000.0 41620400000.0 140182000000.0 234706000000.0 336354000000.0 484620000000.0 533269000000.0 590134000000.0 308761000000.0 194596000000.0 209109000000.0 145855000000.0 368478000000.0 145671000000.0 207873000000.0 193677000000.0 307904000000.0 590114000000.0 533307000000.0 484595000000.0 336217000000.0 234577000000.0 140091000000.0 41554500000.0 36278000000.0 113031000000.0 198931000000.0 284415000000.0 344202000000.0 344837000000.0 289996000000.0 237725000000.0 103610000000.0 95973400000.0 165069000000.0 59829700000.0 147752000000.0 287916000000.0 34788900000.0 40325800000.0 13022400000.0 35758300000.0 184459000000.0 132243000000.0 78956200000.0 51098700000.0 51862400000.0 333307000000.0 305060000000.0 254764000000.0 354692000000.0 232215000000.0 137195000000.0 54267100000.0 10307300000.0 75285400000.0 99631300000.0 94650400000.0 208355000000.0 106379000000.0 184329000000.0 203090000000.0 263307000000.0 229468000000.0 313925000000.0 203949000000.0 203696000000.0 65958300000.0 89765100000.0 136203000000.0 130297000000.0 87882000000.0 65080500000.0 206482000000.0 203741000000.0 314041000000.0 228825000000.0 263142000000.0 202918000000.0 184669000000.0 106448000000.0 208385000000.0 94637100000.0 99606600000.0 75233900000.0 10246700000.0 54321400000.0 137230000000.0 232236000000.0 354695000000.0 254763000000.0 305059000000.0 333307000000.0 51862400000.0 51098300000.0 78956200000.0 132243000000.0 184460000000.0 35758300000.0 13022300000.0 114862000000.0 115425000000.0 194408000000.0 294554000000.0 253525000000.0 224456000000.0 398183000000.0 383143000000.0 443724000000.0 395316000000.0 322215000000.0 39091800000.0 79108200000.0 51421600000.0 83497700000.0 83325100000.0 130948000000.0 142840000000.0 535511000000.0 127283000000.0 128256000000.0 82199300000.0 83979500000.0 51789000000.0 79921900000.0 39204200000.0 322225000000.0 395318000000.0 443721000000.0 383137000000.0 398182000000.0 224453000000.0 253524000000.0 294553000000.0 194408000000.0 115425000000.0 114862000000.0 39783300000.0 147161000000.0 116658000000.0 67052500000.0 79553900000.0 4322040000.0 20954800000.0 110533000000.0 65151400000.0 146157000000.0 244313000000.0 204349000000.0 131600000000.0 199291000000.0 148032000000.0 172195000000.0 167541000000.0 160260000000.0 135577000000.0 100621000000.0 77600300000.0 64473700000.0 15554000000.0 392391000.0 121106000000.0 37146800000.0 12091600000.0 58604500000.0 88069500000.0 81088900000.0 472274000000.0 77806400000.0 88188200000.0 58420500000.0 12172900000.0 38003500000.0 121589000000.0 364275000.0 15634800000.0 64554500000.0 77664900000.0 100668000000.0 135611000000.0 160285000000.0 167559000000.0 172207000000.0 148038000000.0 199290000000.0 131601000000.0 204347000000.0 244313000000.0 146158000000.0 65151200000.0 110533000000.0 20955300000.0 4322010000.0 79554000000.0 67052500000.0 116658000000.0 147160000000.0 39783400000.0 7011300000.0 123246000000.0 63991400000.0 35804600000.0 41435900000.0 1005560000.0 5981370000.0 11375500000.0 66937200000.0 37826400000.0 96257800000.0 200051000000.0 109483000000.0 147555000000.0 266396000000.0 291513000000.0 277304000000.0 227908000000.0 177159000000.0 130428000000.0 73669400000.0 49414100000.0 62057700000.0 51658700000.0 39838200000.0 71492800000.0 28807300000.0 59029700000.0 42802900000.0 367296000.0 41058700000.0 1733610000.0 27628600000.0 28339700000.0 25669100000.0 127310000000.0 23944800000.0 646305000000.0 29735000000.0 126050000000.0 25256300000.0 27619100000.0 27336300000.0 764066000.0 40879400000.0 461099000.0 43677400000.0 59258200000.0 29210400000.0 71590900000.0 39884300000.0 51604600000.0 62138900000.0 49489200000.0 73732700000.0 130475000000.0 177193000000.0 227932000000.0 277320000000.0 291524000000.0 266403000000.0 147560000000.0 109485000000.0 200050000000.0 96257800000.0 37826300000.0 66937000000.0 11375500000.0 5981340000.0 1005500000.0 41436000000.0 35804500000.0 63991300000.0 123246000000.0 7011230000.0 229210000000.0 242680000000.0 227501000000.0 169330000000.0 146900000000.0 84437200000.0 35409800000.0 45290200000.0 6195460000.0 31022200000.0 84522000000.0 146523000000.0 168921000000.0 227488000000.0 242757000000.0 229255000000.0 31619600000.0 36165300000.0 8370910000.0 18281800000.0 2096640000.0 9008920000.0 9035640000.0 16490600000.0 38483800000.0 12471600000.0 43544900000.0 209310000000.0 151751000000.0 166589000000.0 180729000000.0 149096000000.0 119092000000.0 85105200000.0 44712300000.0 13784800000.0 110856000000.0 190858000000.0 318419000000.0 269222000000.0 196232000000.0 93772200000.0 79539600000.0 11442600000.0 89694800000.0 583105000000.0 112219000000.0 11381600000.0 78857800000.0 92534700000.0 195809000000.0 269283000000.0 318497000000.0 190889000000.0 110873000000.0 13795700000.0 44706900000.0 85101900000.0 119089000000.0 149094000000.0 180728000000.0 166588000000.0 151751000000.0 209309000000.0 43544800000.0 12471700000.0 38483800000.0 16490600000.0 9035640000.0 9008920000.0 2096640000.0 18281900000.0 8370980000.0 36165400000.0 31619500000.0 1869390000.0 43219700000.0 10876600000.0 18263100000.0 32089200000.0 43571400000.0 57300500000.0 61135600000.0 30401700000.0 62605500000.0 42304600000.0 23084000000.0 133391000000.0 127969000000.0 169226000000.0 205800000000.0 213027000000.0 174929000000.0 140434000000.0 97554700000.0 113860000000.0 50598200000.0 58310400000.0 9362220000.0 7758670000.0 39602300000.0 7490300000.0 51794700000.0 5719860000.0 87163100000.0 8136220000.0 53608900000.0 7898330000.0 58595300000.0 5413850000.0 130526000000.0 9068980000.0 577690000000.0 9068840000.0 129628000000.0 5389430000.0 58568600000.0 7913610000.0 54312600000.0 8086280000.0 87494200000.0 5694730000.0 51805500000.0 7492260000.0 39618000000.0 7757450000.0 9366020000.0 58320400000.0 50605500000.0 113863000000.0 97553000000.0 140431000000.0 174926000000.0 213026000000.0 205801000000.0 169226000000.0 127970000000.0 133391000000.0 23084000000.0 42304300000.0 62605200000.0 30401500000.0 61135400000.0 57300400000.0 43571300000.0 32089100000.0 18263000000.0 10876700000.0 43219700000.0 1869390000.0 11485800000.0 50583600000.0 22149700000.0 6694300000.0 8878540000.0 14556500000.0 11045300000.0 18755500000.0 44685000000.0 7717790000.0 36261100000.0 65590500000.0 138595000000.0 138064000000.0 141916000000.0 123551000000.0 88357900000.0 22350700000.0 21358100000.0 80163400000.0 105301000000.0 165543000000.0 132685000000.0 138339000000.0 110978000000.0 50272700000.0 67086600000.0 4927380000.0 38634200000.0 43031600000.0 20753100000.0 35534600000.0 6282120000.0 52420800000.0 5920950000.0 123889000000.0 8273950000.0 534201000000.0 8292610000.0 124059000000.0 5919210000.0 52732500000.0 6247550000.0 36276400000.0 20683500000.0 43219100000.0 38627500000.0 4961120000.0 67102300000.0 50272400000.0 110988000000.0 138344000000.0 132682000000.0 165540000000.0 105299000000.0 80161800000.0 21357200000.0 22351300000.0 88357900000.0 123552000000.0 141916000000.0 138064000000.0 138595000000.0 65590300000.0 36261100000.0 7717800000.0 44684900000.0 18755500000.0 11045400000.0 14556500000.0 8878540000.0 6694300000.0 22149800000.0 50583600000.0 11485800000.0 12857000000.0 43650400000.0 17276000000.0 2702550000.0 8639880000.0 7007980000.0 19518100000.0 20332000000.0 7446630000.0 55075700000.0 38982000000.0 22599800000.0 39394700000.0 55533700000.0 93846200000.0 134096000000.0 171846000000.0 169376000000.0 166702000000.0 127402000000.0 99811500000.0 53757800000.0 46398500000.0 23251900000.0 8656760000.0 50652400000.0 8620890000.0 56674700000.0 9035750000.0 73861700000.0 9035750000.0 59119400000.0 9035750000.0 62933100000.0 9035750000.0 115518000000.0 9035750000.0 495374000000.0 9035750000.0 115778000000.0 9035750000.0 63450300000.0 9035750000.0 59506500000.0 9035750000.0 73872100000.0 9035750000.0 56644900000.0 8621090000.0 50662700000.0 8656660000.0 23255300000.0 46402800000.0 53761400000.0 99813500000.0 127403000000.0 166702000000.0 169376000000.0 171846000000.0 134096000000.0 93846400000.0 55533500000.0 39394300000.0 22599900000.0 38981900000.0 55075600000.0 7446610000.0 20331900000.0 19518000000.0 7007970000.0 8639870000.0 2702540000.0 17276100000.0 43650400000.0 12857000000.0 18022600000.0 45982700000.0 26742300000.0 13192300000.0 13001500000.0 24186900000.0 18569600000.0 27089400000.0 44040100000.0 12341300000.0 46202100000.0 76064500000.0 127653000000.0 133219000000.0 157023000000.0 170440000000.0 173393000000.0 143400000000.0 126601000000.0 84268800000.0 58979300000.0 36544600000.0 31747400000.0 16985400000.0 3097290000.0 46261600000.0 7905210000.0 53707400000.0 9035750000.0 66140200000.0 9035750000.0 58109700000.0 9035750000.0 63156300000.0 9035750000.0 106948000000.0 9035750000.0 458298000000.0 9035750000.0 107343000000.0 9035750000.0 63598700000.0 9035750000.0 58242900000.0 9035750000.0 66100100000.0 9035750000.0 53682000000.0 7905260000.0 46267900000.0 3097400000.0 16987600000.0 31750100000.0 36546900000.0 58980600000.0 84269800000.0 126602000000.0 143400000000.0 173393000000.0 170440000000.0 157023000000.0 133219000000.0 127653000000.0 76064400000.0 46202100000.0 12341300000.0 44040100000.0 27089500000.0 18569600000.0 24186900000.0 13001500000.0 13192300000.0 26742300000.0 45982700000.0 18022600000.0 20456000000.0 42688600000.0 26421100000.0 14087200000.0 13518500000.0 26056100000.0 19794000000.0 27228300000.0 38808600000.0 11100400000.0 44753600000.0 74396900000.0 114535000000.0 119294000000.0 142294000000.0 158426000000.0 167034000000.0 144928000000.0 130940000000.0 90451900000.0 62968200000.0 49860800000.0 40376100000.0 28231400000.0 9035750000.0 47774900000.0 9035750000.0 50393300000.0 9035750000.0 60176400000.0 9035750000.0 56578800000.0 9035750000.0 62825100000.0 9035750000.0 99255000000.0 9035750000.0 421941000000.0 9035750000.0 99719600000.0 9035750000.0 63051100000.0 9035750000.0 56577200000.0 9035750000.0 60132300000.0 9035750000.0 50374100000.0 9035750000.0 47778500000.0 9035750000.0 28232800000.0 40377800000.0 49862200000.0 62969100000.0 90452500000.0 130941000000.0 144928000000.0 167034000000.0 158426000000.0 142294000000.0 119294000000.0 114535000000.0 74396800000.0 44753600000.0 11100400000.0 38808600000.0 27228300000.0 19794000000.0 26056100000.0 13518500000.0 14087200000.0 26421100000.0 42688600000.0 20456000000.0 22549100000.0 40131400000.0 26896200000.0 16594500000.0 16549800000.0 30749800000.0 25113100000.0 32240600000.0 39853600000.0 17625500000.0 51938400000.0 81651100000.0 111023000000.0 113387000000.0 132438000000.0 143703000000.0 148013000000.0 126240000000.0 112060000000.0 76096900000.0 52019300000.0 45872700000.0 35868700000.0 29125000000.0 9035750000.0 45813100000.0 9035750000.0 47438000000.0 9035750000.0 55466800000.0 9035750000.0 54827800000.0 9035750000.0 61911600000.0 9035750000.0 92461000000.0 9035750000.0 386376000000.0 9035750000.0 92805800000.0 9035750000.0 61960800000.0 9035750000.0 54783700000.0 9035750000.0 55432700000.0 9035750000.0 47424200000.0 9035750000.0 45815000000.0 9035750000.0 29125800000.0 35869700000.0 45873600000.0 52019800000.0 76097300000.0 112061000000.0 126240000000.0 148013000000.0 143703000000.0 132438000000.0 113387000000.0 111023000000.0 81651100000.0 51938400000.0 17625500000.0 39853600000.0 32240600000.0 25113100000.0 30749800000.0 16549800000.0 16594500000.0 26896200000.0 40131400000.0 22549100000.0 23882800000.0 37223500000.0 26406500000.0 17893500000.0 18031700000.0 32953400000.0 27700900000.0 33622800000.0 37326500000.0 19681800000.0 53220000000.0 82192400000.0 103150000000.0 104007000000.0 119907000000.0 128064000000.0 130847000000.0 110938000000.0 96939600000.0 65555600000.0 46497700000.0 42054800000.0 31089100000.0 29505300000.0 9035750000.0 43908200000.0 9035750000.0 44865000000.0 9035750000.0 51708100000.0 9035750000.0 52979000000.0 9035750000.0 60505900000.0 9035750000.0 86358500000.0 9035750000.0 352161000000.0 9035750000.0 86504200000.0 9035750000.0 60471900000.0 9035750000.0 52934100000.0 9035750000.0 51684600000.0 9035750000.0 44855300000.0 9035750000.0 43909200000.0 9035750000.0 29505900000.0 31089700000.0 42055300000.0 46498000000.0 65555800000.0 96939700000.0 110938000000.0 130847000000.0 128065000000.0 119907000000.0 104007000000.0 103150000000.0 82192400000.0 53220000000.0 19681800000.0 37326400000.0 33622800000.0 27700900000.0 32953400000.0 18031700000.0 17893500000.0 26406500000.0 37223500000.0 23882800000.0 24626500000.0 34442400000.0 25662500000.0 18965300000.0 19308800000.0 34521900000.0 29813500000.0 34355800000.0 34865300000.0 21517500000.0 54134800000.0 82076900000.0 96069500000.0 95391300000.0 108180000000.0 113308000000.0 114472000000.0 96405400000.0 83374200000.0 56638600000.0 43185400000.0 38327100000.0 26527800000.0 29501000000.0 9035750000.0 42091000000.0 9035750000.0 42614600000.0 9035750000.0 48650500000.0 9035750000.0 51086200000.0 9035750000.0 58729200000.0 9035750000.0 80763500000.0 9035750000.0 319740000000.0 9035750000.0 80764300000.0 9035750000.0 58676500000.0 9035750000.0 51051700000.0 9035750000.0 48634900000.0 9035750000.0 42607800000.0 9035750000.0 42091500000.0 9035750000.0 29501300000.0 26528200000.0 38327500000.0 43185600000.0 56638700000.0 83374300000.0 96405400000.0 114472000000.0 113308000000.0 108180000000.0 95391300000.0 96069500000.0 82076900000.0 54134800000.0 21517500000.0 34865300000.0 34355800000.0 29813500000.0 34521900000.0 19308800000.0 18965300000.0 25662500000.0 34442400000.0 24626500000.0 24840800000.0 31823200000.0 24747600000.0 19801400000.0 20370600000.0 35513700000.0 31448000000.0 34557600000.0 32620600000.0 23016900000.0 54439500000.0 81083800000.0 89782100000.0 87928900000.0 97865100000.0 100291000000.0 100009000000.0 83806500000.0 72137000000.0 49995700000.0 40582200000.0 34994000000.0 22450700000.0 29215500000.0 9035750000.0 40363900000.0 9035750000.0 40608400000.0 9035750000.0 46063500000.0 9035750000.0 49174100000.0 9035750000.0 56686400000.0 9035750000.0 75580000000.0 9035750000.0 289321000000.0 9035750000.0 75522100000.0 9035750000.0 56641100000.0 9035750000.0 49150100000.0 9035750000.0 46053500000.0 9035750000.0 40603700000.0 9035750000.0 40364100000.0 9035750000.0 29215700000.0 22450900000.0 34994200000.0 40582300000.0 49995800000.0 72137100000.0 83806500000.0 100009000000.0 100291000000.0 97865100000.0 87928900000.0 89782100000.0 81083800000.0 54439500000.0 23016900000.0 32620600000.0 34557600000.0 31448000000.0 35513700000.0 20370600000.0 19801400000.0 24747600000.0 31823100000.0 24840800000.0 24619900000.0 29360400000.0 23744200000.0 20400700000.0 21211300000.0 35993900000.0 32611600000.0 34332900000.0 30667500000.0 24227300000.0 54373500000.0 79454200000.0 84156900000.0 81399600000.0 88806800000.0 88971600000.0 87524800000.0 73156100000.0 62867300000.0 45189700000.0 37837100000.0 32096900000.0 18985700000.0 28730800000.0 9035750000.0 38715700000.0 9035750000.0 38784400000.0 9035750000.0 43775800000.0 9035750000.0 47250000000.0 9035750000.0 54459500000.0 9035750000.0 70757200000.0 9035750000.0 260995000000.0 9035750000.0 70694600000.0 9035750000.0 54426800000.0 9035750000.0 47233800000.0 9035750000.0 43769300000.0 9035750000.0 38781200000.0 9035750000.0 38715800000.0 9035750000.0 28731000000.0 18985900000.0 32097000000.0 37837200000.0 45189800000.0 62867300000.0 73156100000.0 87524800000.0 88971600000.0 88806800000.0 81399600000.0 84156900000.0 79454200000.0 54373500000.0 24227300000.0 30667500000.0 34332900000.0 32611600000.0 35993900000.0 21211300000.0 20400700000.0 23744200000.0 29360400000.0 24619900000.0 24076000000.0 27045600000.0 22707800000.0 20770000000.0 21829800000.0 36027400000.0 33321700000.0 33769300000.0 29014000000.0 25156100000.0 54004300000.0 77311900000.0 79128800000.0 75738500000.0 80953400000.0 79267500000.0 76914900000.0 64296600000.0 55294800000.0 41529300000.0 34847400000.0 29624000000.0 16175400000.0 28105700000.0 9035750000.0 37132200000.0 9035750000.0 37091600000.0 9035750000.0 41684100000.0 9035750000.0 45314900000.0 9035750000.0 52109100000.0 9035750000.0 66254600000.0 9035750000.0 234787000000.0 9035750000.0 66206500000.0 9035750000.0 52087000000.0 9035750000.0 45304200000.0 9035750000.0 41679900000.0 9035750000.0 37089500000.0 9035750000.0 37132200000.0 9035750000.0 28105800000.0 16175500000.0 29624100000.0 34847400000.0 41529400000.0 55294800000.0 64296600000.0 76914900000.0 79267400000.0 80953400000.0 75738500000.0 79128800000.0 77311900000.0 54004300000.0 25156100000.0 29014000000.0 33769300000.0 33321700000.0 36027400000.0 21829800000.0 20770000000.0 22707800000.0 27045500000.0 24076000000.0 23316900000.0 24882100000.0 21667100000.0 20923000000.0 22230000000.0 35675400000.0 33607100000.0 32942300000.0 27623000000.0 25812200000.0 53365700000.0 74740000000.0 74557400000.0 70772500000.0 74138500000.0 71002600000.0 67978000000.0 56979400000.0 49165800000.0 38406200000.0 31751800000.0 27534900000.0 13995700000.0 27379300000.0 9035750000.0 35595300000.0 9035750000.0 35480700000.0 9035750000.0 39729600000.0 9035750000.0 43370000000.0 9035750000.0 49679700000.0 9035750000.0 62032300000.0 9035750000.0 210666000000.0 9035750000.0 61999900000.0 9035750000.0 49665200000.0 9035750000.0 43363000000.0 9035750000.0 39726900000.0 9035750000.0 35479300000.0 9035750000.0 35595300000.0 9035750000.0 27379400000.0 13995700000.0 27535000000.0 31751900000.0 38406300000.0 49165800000.0 56979400000.0 67978000000.0 71002600000.0 74138500000.0 70772600000.0 74557400000.0 74740000000.0 53365700000.0 25812200000.0 27623000000.0 32942300000.0 33607100000.0 35675400000.0 22230000000.0 20923000000.0 21667100000.0 24882100000.0 23316900000.0 22432500000.0 22880500000.0 20636200000.0 20878500000.0 22420000000.0 34995600000.0 33505800000.0 31917800000.0 26437500000.0 68177100000.0 63963400000.0 60470100000.0 50930500000.0 44185400000.0 35493900000.0 28705600000.0 25773600000.0 12372800000.0 26577100000.0 9035750000.0 34086300000.0 9035750000.0 33910300000.0 9035750000.0 37875200000.0 9035750000.0 41417200000.0 9035750000.0 47204200000.0 9035750000.0 58051600000.0 9035750000.0 9035750000.0 58031000000.0 9035750000.0 47194800000.0 9035750000.0 41412600000.0 9035750000.0 37873500000.0 9035750000.0 33909300000.0 9035750000.0 34086300000.0 9035750000.0 26577100000.0 12372800000.0 25773600000.0 28705700000.0 35493900000.0 44185400000.0 50930500000.0 60470100000.0 63963300000.0 68177100000.0 26437500000.0 31917800000.0 33505800000.0 34995600000.0 22420000000.0 20878500000.0 20636200000.0 22880500000.0 22432500000.0 26206000000.0 52465600000.0 71801900000.0 70305500000.0 66323900000.0 188562000000.0 66323900000.0 70305500000.0 71801900000.0 52465600000.0 26206000000.0 21490200000.0 21050600000.0 19622300000.0 20658800000.0 22411800000.0 34043500000.0 33061500000.0 30750200000.0 25397900000.0 26350300000.0 51299800000.0 68548000000.0 66258900000.0 62233200000.0 62889900000.0 57930800000.0 54143800000.0 45881400000.0 40057600000.0 32700300000.0 25824600000.0 24278400000.0 11208500000.0 25715000000.0 9035750000.0 32590600000.0 9035750000.0 32355300000.0 9035750000.0 36092700000.0 9035750000.0 39458200000.0 9035750000.0 44707300000.0 9035750000.0 54277400000.0 9035750000.0 168376000000.0 9035750000.0 54264600000.0 9035750000.0 44701200000.0 9035750000.0 39455300000.0 9035750000.0 36091500000.0 9035750000.0 32354700000.0 9035750000.0 32590600000.0 9035750000.0 25715000000.0 11208500000.0 24278400000.0 25824600000.0 32700400000.0 40057600000.0 45881400000.0 54143700000.0 57930800000.0 62889900000.0 62233300000.0 66258900000.0 68548000000.0 51299900000.0 26350300000.0 25397900000.0 30750200000.0 33061500000.0 34043500000.0 22411800000.0 20658800000.0 19622300000.0 21050600000.0 21490200000.0 23182300000.0 10402100000.0 9035750000.0 9035750000.0 9035750000.0 9035750000.0 9035750000.0 9035750000.0 9035750000.0 9035750000.0 9035750000.0 9035750000.0 9035750000.0 9035750000.0 9035750000.0 9035750000.0 10402100000.0 23182300000.0 20536500000.0 19398300000.0 18631100000.0 20288300000.0 22220200000.0 32870900000.0 32320300000.0 29482500000.0 24449700000.0 26259600000.0 49864800000.0 65029600000.0 62331100000.0 58371000000.0 58117600000.0 52701400000.0 48771500000.0 41595300000.0 36535100000.0 30039000000.0 22989400000.0 24803200000.0 31098700000.0 30806900000.0 34358500000.0 37494900000.0 42207200000.0 50679600000.0 149996000000.0 50671600000.0 42203300000.0 37493000000.0 34357800000.0 30806500000.0 31098800000.0 24803200000.0 22989400000.0 30039100000.0 36535100000.0 41595300000.0 48771500000.0 52701300000.0 58117600000.0 58371000000.0 62331100000.0 65029600000.0 49864800000.0 26259600000.0 24449700000.0 29482500000.0 32320300000.0 32870900000.0 22220200000.0 20288300000.0 18631100000.0 19398200000.0 20536500000.0 19600500000.0 17924200000.0 17668900000.0 19791600000.0 21862300000.0 31524900000.0 31328600000.0 28147000000.0 23547700000.0 25950100000.0 48163500000.0 61301900000.0 58460700000.0 54642100000.0 53729400000.0 48099800000.0 44153600000.0 37885300000.0 33435000000.0 27544300000.0 20818300000.0 21852500000.0 9863140000.0 23849100000.0 9035750000.0 29604800000.0 9035750000.0 29265200000.0 9035750000.0 32653400000.0 9035750000.0 35528500000.0 9035750000.0 39717500000.0 9035750000.0 47233100000.0 9035750000.0 133300000000.0 9035750000.0 47228100000.0 9035750000.0 39715000000.0 9035750000.0 35527300000.0 9035750000.0 32652900000.0 9035750000.0 29265000000.0 9035750000.0 29604800000.0 9035750000.0 23849100000.0 9863150000.0 21852500000.0 20818300000.0 27544300000.0 33435000000.0 37885300000.0 44153600000.0 48099800000.0 53729400000.0 54642100000.0 58460700000.0 61301900000.0 48163500000.0 25950100000.0 23547700000.0 28147000000.0 31328600000.0 31524900000.0 21862300000.0 19791600000.0 17668900000.0 17924100000.0 19600500000.0 18696800000.0 16623700000.0 16742900000.0 19192900000.0 21356600000.0 30046600000.0 30130700000.0 26768000000.0 22656700000.0 25439100000.0 46206500000.0 57419300000.0 54610400000.0 50986200000.0 49626300000.0 43983800000.0 40120800000.0 34612100000.0 30634600000.0 25240200000.0 18746400000.0 20821500000.0 9516410000.0 22858400000.0 9035750000.0 28104900000.0 9035750000.0 27733000000.0 9035750000.0 30962000000.0 9035750000.0 33559900000.0 9035750000.0 37248200000.0 9035750000.0 43917900000.0 9035750000.0 118161000000.0 9035750000.0 43914600000.0 9035750000.0 37246500000.0 9035750000.0 33559200000.0 9035750000.0 30961700000.0 9035750000.0 27732800000.0 9035750000.0 28104900000.0 9035750000.0 22858400000.0 9516420000.0 20821500000.0 18746500000.0 25240200000.0 30634600000.0 34612100000.0 40120800000.0 43983800000.0 49626300000.0 50986200000.0 54610400000.0 57419300000.0 46206500000.0 25439100000.0 22656700000.0 26768000000.0 30130700000.0 30046600000.0 21356600000.0 19192900000.0 16742900000.0 16623700000.0 18696800000.0 17830400000.0 15487400000.0 15861000000.0 18514100000.0 20721900000.0 28470900000.0 28767800000.0 25363000000.0 21751800000.0 24744700000.0 44010500000.0 53431300000.0 50763900000.0 47371500000.0 45738500000.0 40242100000.0 36537000000.0 31672900000.0 28062000000.0 23136700000.0 16962300000.0 19859000000.0 9302380000.0 21836200000.0 9035750000.0 26597300000.0 9035750000.0 26211900000.0 9035750000.0 29272600000.0 9035750000.0 31589800000.0 9035750000.0 34806400000.0 9035750000.0 40717700000.0 9035750000.0 104446000000.0 9035750000.0 40715500000.0 9035750000.0 34805300000.0 9035750000.0 31589300000.0 9035750000.0 29272400000.0 9035750000.0 26211800000.0 9035750000.0 26597300000.0 9035750000.0 21836200000.0 9302390000.0 19859000000.0 16962300000.0 23136700000.0 28062000000.0 31672900000.0 36537000000.0 40242100000.0 45738500000.0 47371500000.0 50763900000.0 53431300000.0 44010500000.0 24744700000.0 21751800000.0 25363000000.0 28767800000.0 28470900000.0 20721900000.0 18514100000.0 15861000000.0 15487400000.0 17830400000.0 16999000000.0 14501200000.0 15029300000.0 17774900000.0 19976700000.0 26827100000.0 27276500000.0 23944100000.0 20817400000.0 23885000000.0 41596800000.0 49382900000.0 46920500000.0 43786700000.0 42020000000.0 36790900000.0 33299300000.0 28992700000.0 25681500000.0 21231700000.0 15448900000.0 18936100000.0 9176100000.0 20787100000.0 9035750000.0 25082000000.0 9035750000.0 24701800000.0 9035750000.0 27577000000.0 9035750000.0 29618800000.0 9035750000.0 32396900000.0 9035750000.0 37619300000.0 9035750000.0 92025400000.0 9035750000.0 37617700000.0 9035750000.0 32396200000.0 9035750000.0 29618400000.0 9035750000.0 27576900000.0 9035750000.0 24701700000.0 9035750000.0 25082100000.0 9035750000.0 20787100000.0 9176100000.0 18936100000.0 15448900000.0 21231700000.0 25681500000.0 28992700000.0 33299300000.0 36790900000.0 42020000000.0 43786700000.0 46920500000.0 49382900000.0 41596800000.0 23885000000.0 20817400000.0 23944100000.0 27276500000.0 26827100000.0 19976700000.0 17774900000.0 15029300000.0 14501200000.0 16999000000.0 16197200000.0 13648400000.0 14252100000.0 16991800000.0 19138900000.0 25139100000.0 25687900000.0 22518700000.0 19845100000.0 22877600000.0 38989800000.0 45313800000.0 43088400000.0 40232800000.0 38440800000.0 33569100000.0 30332500000.0 26518600000.0 23478500000.0 19514800000.0 14181400000.0 18031100000.0 9105260000.0 19715300000.0 9035750000.0 23560200000.0 9035750000.0 23201000000.0 9035750000.0 25869700000.0 9035750000.0 27647300000.0 9035750000.0 30022500000.0 9035750000.0 34611700000.0 9035750000.0 80766700000.0 9035750000.0 34610500000.0 9035750000.0 30022000000.0 9035750000.0 27647100000.0 9035750000.0 25869600000.0 9035750000.0 23201000000.0 9035750000.0 23560200000.0 9035750000.0 19715300000.0 9105270000.0 18031100000.0 14181400000.0 19514800000.0 23478500000.0 26518600000.0 30332500000.0 33569100000.0 38440800000.0 40232800000.0 43088400000.0 45313800000.0 38989800000.0 22877700000.0 19845100000.0 22518700000.0 25687900000.0 25139100000.0 19138900000.0 16991800000.0 14252100000.0 13648400000.0 16197200000.0 15417800000.0 12910700000.0 13530400000.0 16178600000.0 18224700000.0 23425800000.0 24028000000.0 21091200000.0 18831800000.0 21740200000.0 36214600000.0 41257500000.0 39280600000.0 36717000000.0 34982200000.0 30532600000.0 27581700000.0 24216000000.0 21445100000.0 17970200000.0 13130400000.0 17129000000.0 9067820000.0 18624700000.0 9035750000.0 22033100000.0 9035750000.0 21706800000.0 9035750000.0 24147300000.0 9035750000.0 25675900000.0 9035750000.0 27684200000.0 9035750000.0 31685500000.0 9035750000.0 70542000000.0 9035750000.0 31684600000.0 9035750000.0 27683900000.0 9035750000.0 25675700000.0 9035750000.0 24147300000.0 9035750000.0 21706700000.0 9035750000.0 22033100000.0 9035750000.0 18624700000.0 9067820000.0 17129000000.0 13130400000.0 17970200000.0 21445100000.0 24216000000.0 27581700000.0 30532600000.0 34982200000.0 36717000000.0 39280600000.0 41257500000.0 36214600000.0 21740200000.0 18831800000.0 21091200000.0 24028000000.0 23425800000.0 18224700000.0 16178600000.0 13530400000.0 12910700000.0 15417800000.0 14653600000.0 12269500000.0 12862800000.0 15346200000.0 17248800000.0 21701300000.0 22317600000.0 19663900000.0 17778500000.0 20489100000.0 33296100000.0 37239200000.0 35511400000.0 33249100000.0 31631900000.0 27649600000.0 25007000000.0 22062100000.0 19572500000.0 16578700000.0 12265100000.0 16219800000.0 9049390000.0 17518700000.0 9035750000.0 20502200000.0 9035750000.0 20216000000.0 9035750000.0 22408600000.0 9035750000.0 23704900000.0 9035750000.0 25381600000.0 9035750000.0 28832200000.0 9035750000.0 61226300000.0 9035750000.0 28831500000.0 9035750000.0 25381400000.0 9035750000.0 23704800000.0 9035750000.0 22408500000.0 9035750000.0 20216000000.0 9035750000.0 20502200000.0 9035750000.0 17518700000.0 9049390000.0 16219800000.0 12265100000.0 16578700000.0 19572500000.0 22062100000.0 25007000000.0 27649600000.0 31631900000.0 33249200000.0 35511400000.0 37239200000.0 33296100000.0 20489100000.0 17778500000.0 19663900000.0 22317600000.0 21701300000.0 17248800000.0 15346200000.0 12862800000.0 12269500000.0 14653600000.0 13898500000.0 11706900000.0 12245400000.0 14502800000.0 16224200000.0 19975800000.0 20572900000.0 18237300000.0 16687500000.0 19140400000.0 30257600000.0 33275600000.0 31792900000.0 29837100000.0 28380600000.0 24896400000.0 22578900000.0 20040000000.0 17848300000.0 15319300000.0 11555600000.0 15297800000.0 9041050000.0 16400500000.0 9035750000.0 18968600000.0 9035750000.0 18725900000.0 9035750000.0 20653300000.0 9035750000.0 21734600000.0 9035750000.0 23113000000.0 9035750000.0 26043500000.0 9035750000.0 52698400000.0 9035750000.0 26042900000.0 9035750000.0 23112900000.0 9035750000.0 21734500000.0 9035750000.0 20653200000.0 9035750000.0 18725900000.0 9035750000.0 18968600000.0 9035750000.0 16400500000.0 9041050000.0 15297800000.0 11555600000.0 15319300000.0 17848300000.0 20040000000.0 22578900000.0 24896400000.0 28380600000.0 29837100000.0 31792900000.0 33275600000.0 30257600000.0 19140400000.0 16687500000.0 18237300000.0 20572900000.0 19975800000.0 16224200000.0 14502800000.0 12245400000.0 11706900000.0 13898500000.0 13147500000.0 11206500000.0 11672800000.0 13654100000.0 15161800000.0 18255900000.0 18805700000.0 16811400000.0 15562700000.0 17708900000.0 27120500000.0 29375400000.0 28132400000.0 26484900000.0 25219500000.0 22253600000.0 20274100000.0 18134100000.0 16256500000.0 14171200000.0 10973300000.0 14360600000.0 9037620000.0 15272700000.0 9035750000.0 17432800000.0 9035750000.0 17234200000.0 9035750000.0 18882300000.0 9035750000.0 19765100000.0 9035750000.0 20875600000.0 9035750000.0 23311400000.0 9035750000.0 44841500000.0 9035750000.0 23310900000.0 9035750000.0 20875500000.0 9035750000.0 19765100000.0 9035750000.0 18882300000.0 9035750000.0 17234200000.0 9035750000.0 17432800000.0 9035750000.0 15272700000.0 9037620000.0 14360600000.0 10973300000.0 14171200000.0 16256500000.0 18134100000.0 20274100000.0 22253600000.0 25219500000.0 26485000000.0 28132400000.0 29375400000.0 27120500000.0 17708900000.0 15562700000.0 16811400000.0 18805700000.0 18255900000.0 15161800000.0 13654100000.0 11672800000.0 11206500000.0 13147500000.0 12397400000.0 10753900000.0 11138400000.0 12804100000.0 14071000000.0 16545300000.0 17024700000.0 15386000000.0 14408100000.0 16208800000.0 23904300000.0 25540200000.0 24532000000.0 23192100000.0 22138400000.0 19703900000.0 18072900000.0 16328600000.0 14778400000.0 13114000000.0 10492700000.0 13408200000.0 9036350000.0 14137500000.0 9035750000.0 15895400000.0 9035750000.0 15739100000.0 9035750000.0 17097200000.0 9035750000.0 17796600000.0 9035750000.0 18665900000.0 9035750000.0 20627700000.0 9035750000.0 37542800000.0 9035750000.0 20627400000.0 9035750000.0 18665800000.0 9035750000.0 17796600000.0 9035750000.0 17097200000.0 9035750000.0 15739100000.0 9035750000.0 15895400000.0 9035750000.0 14137500000.0 9036350000.0 13408200000.0 10492700000.0 13114000000.0 14778400000.0 16328600000.0 18072900000.0 19703900000.0 22138400000.0 23192100000.0 24532000000.0 25540200000.0 23904300000.0 16208800000.0 14408100000.0 15386000000.0 17024700000.0 16545300000.0 14071000000.0 12804100000.0 11138400000.0 10753900000.0 12397400000.0 11646000000.0 10336500000.0 10635000000.0 11955100000.0 12959200000.0 14845400000.0 15235800000.0 13960700000.0 13228500000.0 14653600000.0 20626300000.0 21765500000.0 20988000000.0 19953200000.0 19125100000.0 17230500000.0 15956600000.0 14605900000.0 13393800000.0 12128400000.0 10090700000.0 12441800000.0 9035930000.0 12997000000.0 9035750000.0 14356800000.0 9035750000.0 14240000000.0 9035750000.0 15300100000.0 9035750000.0 15828800000.0 9035750000.0 16479400000.0 9035750000.0 17984000000.0 9035750000.0 30693400000.0 9035750000.0 17983800000.0 9035750000.0 16479300000.0 9035750000.0 15828800000.0 9035750000.0 15300100000.0 9035750000.0 14240000000.0 9035750000.0 14356800000.0 9035750000.0 12997000000.0 9035930000.0 12441800000.0 10090700000.0 12128400000.0 13393800000.0 14605900000.0 15956600000.0 17230500000.0 19125100000.0 19953200000.0 20988000000.0 21765500000.0 20626300000.0 14653600000.0 13228500000.0 13960700000.0 15235800000.0 14845400000.0 12959200000.0 11955100000.0 10635000000.0 10336500000.0 11646000000.0 10892500000.0 9944090000.0 10155600000.0 11107900000.0 11832600000.0 13155400000.0 13442700000.0 12535200000.0 12028900000.0 13056200000.0 17302100000.0 18042100000.0 17491900000.0 16759400000.0 16165800000.0 14816500000.0 13906500000.0 12948100000.0 12081800000.0 11196700000.0 9746670000.0 11464000000.0 9035800000.0 11852600000.0 9035750000.0 12817000000.0 9035750000.0 12736800000.0 9035750000.0 13493400000.0 9035750000.0 13861700000.0 9035750000.0 14311300000.0 9035750000.0 15371500000.0 9035750000.0 24187900000.0 9035750000.0 15371400000.0 9035750000.0 14311300000.0 9035750000.0 13861700000.0 9035750000.0 13493400000.0 9035750000.0 12736800000.0 9035750000.0 12817000000.0 9035750000.0 11852600000.0 9035800000.0 11464000000.0 9746670000.0 11196700000.0 12081800000.0 12948100000.0 13906500000.0 14816500000.0 16165800000.0 16759400000.0 17491900000.0 18042100000.0 17302100000.0 13056200000.0 12028900000.0 12535200000.0 13442700000.0 13155400000.0 11832600000.0 11107900000.0 10155600000.0 9944090000.0 10892500000.0 9568060000.0 9692930000.0 10262600000.0 10696300000.0 13245500000.0 12444800000.0 11903700000.0 11336300000.0 10821100000.0 10302200000.0 9442330000.0 10477700000.0 9035760000.0 10705600000.0 9035750000.0 11276400000.0 9035750000.0 11230000000.0 9035750000.0 11679600000.0 9035750000.0 11894900000.0 9035750000.0 12156400000.0 9035750000.0 12781300000.0 9035750000.0 17923500000.0 9035750000.0 12781200000.0 9035750000.0 12156400000.0 9035750000.0 11894900000.0 9035750000.0 11679600000.0 9035750000.0 11230000000.0 9035750000.0 11276400000.0 9035750000.0 10705600000.0 9035760000.0 10477700000.0 9442330000.0 10302200000.0 10821100000.0 11336300000.0 11903700000.0 12444800000.0 13245500000.0 10696300000.0 10262600000.0 9692930000.0 9568050000.0 10136800000.0 11473400000.0 11647400000.0 11109300000.0 10814700000.0 11429000000.0 13945600000.0 14357000000.0 14032000000.0 13599100000.0 13599100000.0 14032000000.0 14357000000.0 13945600000.0 11429000000.0 10814700000.0 11109300000.0 11647400000.0 11473400000.0 10136800000.0 9379530000.0 9201170000.0 9240110000.0 9418580000.0 9554510000.0 9796270000.0 9851040000.0 9683010000.0 9591720000.0 9784150000.0 10569900000.0 10695100000.0 10593700000.0 10458700000.0 10348100000.0 10098000000.0 9928800000.0 9751740000.0 9590670000.0 9429390000.0 9160870000.0 9486240000.0 9035750000.0 9557100000.0 9035750000.0 9735210000.0 9035750000.0 9720850000.0 9035750000.0 9861340000.0 9035750000.0 9928230000.0 9035750000.0 10009300000.0 9035750000.0 10203900000.0 9035750000.0 11799500000.0 9035750000.0 10203900000.0 9035750000.0 10009300000.0 9035750000.0 9928230000.0 9035750000.0 9861340000.0 9035750000.0 9720850000.0 9035750000.0 9735210000.0 9035750000.0 9557100000.0 9035750000.0 9486240000.0 9160870000.0 9429390000.0 9590670000.0 9751740000.0 9928800000.0 10098000000.0 10348100000.0 10458700000.0 10593700000.0 10695100000.0 10569900000.0 9784150000.0 9591720000.0 9683010000.0 9851040000.0 9796270000.0 9554510000.0 9418580000.0 9240110000.0 9201170000.0 9379530000.0 