# vtk DataFile Version 2.0
Time step 61
ASCII
DATASET UNSTRUCTURED_GRID
POINTS 4650 float
210448.0 367229.0 0
289552.0 367229.0 0
201998.0 367494.0 0
206635.0 368976.0 0
214261.0 369453.0 0
285739.0 369453.0 0
293365.0 368976.0 0
298002.0 367494.0 0
203399.0 371144.0 0
210734.0 371204.0 0
218026.0 370707.0 0
222183.0 370080.0 0
226146.0 370564.0 0
230219.0 371783.0 0
233954.0 370475.0 0
240545.0 370704.0 0
246772.0 371359.0 0
253228.0 371359.0 0
259455.0 370704.0 0
266046.0 370475.0 0
269781.0 371783.0 0
273854.0 370564.0 0
277817.0 370080.0 0
281974.0 370707.0 0
289266.0 371204.0 0
296601.0 371144.0 0
201989.0 374592.0 0
207194.0 372926.0 0
214083.0 373443.0 0
220627.0 373728.0 0
227278.0 374386.0 0
233642.0 374463.0 0
237181.0 372786.0 0
243417.0 373445.0 0
250000.0 373659.0 0
256583.0 373445.0 0
262819.0 372786.0 0
266358.0 374463.0 0
272722.0 374386.0 0
279373.0 373728.0 0
285917.0 373443.0 0
292806.0 372926.0 0
298011.0 374592.0 0
198415.0 378308.0 0
205085.0 376219.0 0
207947.0 378142.0 0
210525.0 375168.0 0
213793.0 377464.0 0
217283.0 375785.0 0
223800.0 376092.0 0
230473.0 376705.0 0
236627.0 377139.0 0
240076.0 375454.0 0
243250.0 377704.0 0
246634.0 375712.0 0
250000.0 377725.0 0
253366.0 375712.0 0
256750.0 377704.0 0
259924.0 375454.0 0
263373.0 377139.0 0
269527.0 376705.0 0
276200.0 376092.0 0
282717.0 375785.0 0
286207.0 377464.0 0
289475.0 375168.0 0
292053.0 378142.0 0
294915.0 376219.0 0
301585.0 378308.0 0
195110.0 380369.0 0
198326.0 381851.0 0
201957.0 378531.0 0
204916.0 380603.0 0
210925.0 380006.0 0
217058.0 379767.0 0
220500.0 378055.0 0
227023.0 378383.0 0
233459.0 379229.0 0
239783.0 379580.0 0
246609.0 379711.0 0
253391.0 379711.0 0
260217.0 379580.0 0
266541.0 379229.0 0
272977.0 378383.0 0
279500.0 378055.0 0
282942.0 379767.0 0
289075.0 380006.0 0
295084.0 380603.0 0
298043.0 378531.0 0
301674.0 381851.0 0
304890.0 380369.0 0
188566.0 384463.0 0
191835.0 382419.0 0
195075.0 383963.0 0
201703.0 382765.0 0
207983.0 382482.0 0
213990.0 381971.0 0
220383.0 381976.0 0
223756.0 380318.0 0
230101.0 380855.0 0
236447.0 381661.0 0
243176.0 381666.0 0
250000.0 381705.0 0
256824.0 381666.0 0
263553.0 381661.0 0
269899.0 380855.0 0
276244.0 380318.0 0
279617.0 381976.0 0
286010.0 381971.0 0
292017.0 382482.0 0
298297.0 382765.0 0
304925.0 383963.0 0
308165.0 382419.0 0
311434.0 384463.0 0
185283.0 386512.0 0
191822.0 386024.0 0
198355.0 385437.0 0
204794.0 384606.0 0
211077.0 384346.0 0
217220.0 383918.0 0
223659.0 384278.0 0
226905.0 382685.0 0
229535.0 385525.0 0
232970.0 383552.0 0
236349.0 385601.0 0
239792.0 383652.0 0
243176.0 385646.0 0
246584.0 383676.0 0
250000.0 385663.0 0
253416.0 383676.0 0
256824.0 385646.0 0
260208.0 383652.0 0
263651.0 385601.0 0
267030.0 383552.0 0
270465.0 385525.0 0
273095.0 382685.0 0
276341.0 384278.0 0
282780.0 383918.0 0
288923.0 384346.0 0
295206.0 384606.0 0
301645.0 385437.0 0
308178.0 386024.0 0
314717.0 386512.0 0
181972.0 388578.0 0
188542.0 388054.0 0
191822.0 389648.0 0
195107.0 387591.0 0
198412.0 389125.0 0
201619.0 386782.0 0
204812.0 388563.0 0
207957.0 386453.0 0
211225.0 388272.0 0
214282.0 386138.0 0
217612.0 387895.0 0
220521.0 385884.0 0
226028.0 387418.0 0
232905.0 387524.0 0
239744.0 387606.0 0
246581.0 387636.0 0
253419.0 387636.0 0
260256.0 387606.0 0
267095.0 387524.0 0
273972.0 387418.0 0
279479.0 385884.0 0
282388.0 387895.0 0
285718.0 386138.0 0
288775.0 388272.0 0
292043.0 386453.0 0
295188.0 388563.0 0
298381.0 386782.0 0
301588.0 389125.0 0
304893.0 387591.0 0
308178.0 389648.0 0
311458.0 388054.0 0
318028.0 388578.0 0
178621.0 390668.0 0
181790.0 392072.0 0
185218.0 390062.0 0
188495.0 391654.0 0
195137.0 391256.0 0
201659.0 390714.0 0
208082.0 390360.0 0
214622.0 390037.0 0
221604.0 389540.0 0
229424.0 389445.0 0
236298.0 389544.0 0
243151.0 389598.0 0
250000.0 389613.0 0
256849.0 389598.0 0
263702.0 389544.0 0
270576.0 389445.0 0
278396.0 389540.0 0
285378.0 390037.0 0
291918.0 390360.0 0
298341.0 390714.0 0
304863.0 391256.0 0
311505.0 391654.0 0
314782.0 390062.0 0
318210.0 392072.0 0
321379.0 390668.0 0
171955.0 394833.0 0
175280.0 392755.0 0
178431.0 394161.0 0
184911.0 393565.0 0
191833.0 393285.0 0
195189.0 394964.0 0
198446.0 392894.0 0
204927.0 392469.0 0
211460.0 392114.0 0
214958.0 393785.0 0
218232.0 391632.0 0
221743.0 393381.0 0
225125.0 391268.0 0
228530.0 393234.0 0
232831.0 391453.0 0
236247.0 393469.0 0
239707.0 391547.0 0
246570.0 391579.0 0
253430.0 391579.0 0
260293.0 391547.0 0
263753.0 393469.0 0
267169.0 391453.0 0
271470.0 393234.0 0
274875.0 391268.0 0
278257.0 393381.0 0
281768.0 391632.0 0
285042.0 393785.0 0
288540.0 392114.0 0
295073.0 392469.0 0
301554.0 392894.0 0
304811.0 394964.0 0
308167.0 393285.0 0
315089.0 393565.0 0
321569.0 394161.0 0
324720.0 392755.0 0
328045.0 394833.0 0
168645.0 396902.0 0
175105.0 396253.0 0
181548.0 395624.0 0
184611.0 397177.0 0
187937.0 395150.0 0
190905.0 396743.0 0
198554.0 396688.0 0
201753.0 394588.0 0
205099.0 396335.0 0
208275.0 394218.0 0
211704.0 395903.0 0
218423.0 395474.0 0
225147.0 395216.0 0
231873.0 395219.0 0
239679.0 395471.0 0
243130.0 393534.0 0
246563.0 395505.0 0
250000.0 393547.0 0
253437.0 395505.0 0
256870.0 393534.0 0
260321.0 395471.0 0
268127.0 395219.0 0
274853.0 395216.0 0
281577.0 395474.0 0
288296.0 395903.0 0
291725.0 394218.0 0
294901.0 396335.0 0
298247.0 394588.0 0
301446.0 396688.0 0
309095.0 396743.0 0
312063.0 395150.0 0
315389.0 397177.0 0
318452.0 395624.0 0
324895.0 396253.0 0
331355.0 396902.0 0
165345.0 398965.0 0
171800.0 398334.0 0
174942.0 399808.0 0
178235.0 397718.0 0
181331.0 399249.0 0
187642.0 398805.0 0
193844.0 398334.0 0
201932.0 398443.0 0
208494.0 398052.0 0
215138.0 397586.0 0
221826.0 397275.0 0
228483.0 397176.0 0
235163.0 397198.0 0
243123.0 397454.0 0
250000.0 397469.0 0
256877.0 397454.0 0
264837.0 397198.0 0
271517.0 397176.0 0
278174.0 397275.0 0
284862.0 397586.0 0
291506.0 398052.0 0
298068.0 398443.0 0
306156.0 398334.0 0
312358.0 398805.0 0
318669.0 399249.0 0
321765.0 397718.0 0
325058.0 399808.0 0
328200.0 398334.0 0
334655.0 398965.0 0
162050.0 401025.0 0
165216.0 402467.0 0
168506.0 400405.0 0
171660.0 401885.0 0
178066.0 401334.0 0
184404.0 400859.0 0
187469.0 402527.0 0
190661.0 400456.0 0
193686.0 402108.0 0
196786.0 399906.0 0
199761.0 401443.0 0
205335.0 400201.0 0
208735.0 401924.0 0
211899.0 399723.0 0
215292.0 401418.0 0
218537.0 399333.0 0
221880.0 401186.0 0
225161.0 399166.0 0
228448.0 401140.0 0
231777.0 399161.0 0
235047.0 401134.0 0
238425.0 399144.0 0
241681.0 401051.0 0
246568.0 399421.0 0
253432.0 399421.0 0
258319.0 401051.0 0
261575.0 399144.0 0
264953.0 401134.0 0
268223.0 399161.0 0
271552.0 401140.0 0
274839.0 399166.0 0
278120.0 401186.0 0
281463.0 399333.0 0
284708.0 401418.0 0
288101.0 399723.0 0
291265.0 401924.0 0
294665.0 400201.0 0
300239.0 401443.0 0
303214.0 399906.0 0
306314.0 402108.0 0
309339.0 400456.0 0
312531.0 402527.0 0
315596.0 400859.0 0
321934.0 401334.0 0
328340.0 401885.0 0
331494.0 400405.0 0
334784.0 402467.0 0
337950.0 401025.0 0
155458.0 405145.0 0
158755.0 403084.0 0
161926.0 404524.0 0
168380.0 403951.0 0
174802.0 403414.0 0
177934.0 404997.0 0
181171.0 402926.0 0
184270.0 404582.0 0
190544.0 404218.0 0
196739.0 403734.0 0
202804.0 402939.0 0
205924.0 404414.0 0
212115.0 403576.0 0
218636.0 403213.0 0
225167.0 403125.0 0
231708.0 403125.0 0
238319.0 403069.0 0
244940.0 402930.0 0
250000.0 401388.0 0
255060.0 402930.0 0
261681.0 403069.0 0
268292.0 403125.0 0
274833.0 403125.0 0
281364.0 403213.0 0
287885.0 403576.0 0
294076.0 404414.0 0
297196.0 402939.0 0
303261.0 403734.0 0
309456.0 404218.0 0
315730.0 404582.0 0
318829.0 402926.0 0
322066.0 404997.0 0
325198.0 403414.0 0
331620.0 403951.0 0
338074.0 404524.0 0
341245.0 403084.0 0
344542.0 405145.0 0
152157.0 407208.0 0
158634.0 406581.0 0
165098.0 406008.0 0
168268.0 407537.0 0
171538.0 405481.0 0
174689.0 407061.0 0
181060.0 406638.0 0
187379.0 406283.0 0
193646.0 405906.0 0
196786.0 407566.0 0
199837.0 405312.0 0
202979.0 406843.0 0
209121.0 405902.0 0
215441.0 405279.0 0
221924.0 405116.0 0
228411.0 405121.0 0
234972.0 405080.0 0
241612.0 404969.0 0
248148.0 404849.0 0
251852.0 404849.0 0
258388.0 404969.0 0
265028.0 405080.0 0
271589.0 405121.0 0
278076.0 405116.0 0
284559.0 405279.0 0
290879.0 405902.0 0
297021.0 406843.0 0
300163.0 405312.0 0
303214.0 407566.0 0
306354.0 405906.0 0
312621.0 406283.0 0
318940.0 406638.0 0
325311.0 407061.0 0
328462.0 405481.0 0
331732.0 407537.0 0
334902.0 406008.0 0
341366.0 406581.0 0
347843.0 407208.0 0
148849.0 409276.0 0
152032.0 410702.0 0
155336.0 408640.0 0
158521.0 410112.0 0
161813.0 408060.0 0
164993.0 409585.0 0
171435.0 409115.0 0
177836.0 408692.0 0
180987.0 410372.0 0
184193.0 408330.0 0
187349.0 410055.0 0
190513.0 408001.0 0
193684.0 409718.0 0
199963.0 409177.0 0
206153.0 408346.0 0
212339.0 407497.0 0
215578.0 409144.0 0
218728.0 407114.0 0
221949.0 409071.0 0
225153.0 407097.0 0
228332.0 409122.0 0
231644.0 407097.0 0
234934.0 409012.0 0
238272.0 406989.0 0
241617.0 408868.0 0
244924.0 406868.0 0
250000.0 408267.0 0
255076.0 406868.0 0
258383.0 408868.0 0
261728.0 406989.0 0
265066.0 409012.0 0
268356.0 407097.0 0
271668.0 409122.0 0
274847.0 407097.0 0
278051.0 409071.0 0
281272.0 407114.0 0
284422.0 409144.0 0
287661.0 407497.0 0
293847.0 408346.0 0
300037.0 409177.0 0
306316.0 409718.0 0
309487.0 408001.0 0
312651.0 410055.0 0
315807.0 408330.0 0
319013.0 410372.0 0
322164.0 408692.0 0
328565.0 409115.0 0
335007.0 409585.0 0
338187.0 408060.0 0
341479.0 410112.0 0
344664.0 408640.0 0
347968.0 410702.0 0
351151.0 409276.0 0
145536.0 411347.0 0
148722.0 412770.0 0
155222.0 412167.0 0
161709.0 411629.0 0
168172.0 411158.0 0
171348.0 412780.0 0
174598.0 410740.0 0
177763.0 412411.0 0
184157.0 412090.0 0
190541.0 411795.0 0
196890.0 411411.0 0
203171.0 410751.0 0
206401.0 412300.0 0
209331.0 409863.0 0
212504.0 411415.0 0
218799.0 411034.0 0
225048.0 411171.0 0
231599.0 411046.0 0
238285.0 410881.0 0
243271.0 412257.0 0
246625.0 410252.0 0
250000.0 412166.0 0
253375.0 410252.0 0
256729.0 412257.0 0
261715.0 410881.0 0
268401.0 411046.0 0
274952.0 411171.0 0
281201.0 411034.0 0
287496.0 411415.0 0
290669.0 409863.0 0
293599.0 412300.0 0
296829.0 410751.0 0
303110.0 411411.0 0
309459.0 411795.0 0
315843.0 412090.0 0
322237.0 412411.0 0
325402.0 410740.0 0
328652.0 412780.0 0
331828.0 411158.0 0
338291.0 411629.0 0
344778.0 412167.0 0
351278.0 412770.0 0
354464.0 411347.0 0
138892.0 415500.0 0
142216.0 413422.0 0
145405.0 414843.0 0
151916.0 414228.0 0
155117.0 415724.0 0
158417.0 413674.0 0
161616.0 415228.0 0
164899.0 413195.0 0
168089.0 414810.0 0
174526.0 414446.0 0
180941.0 414120.0 0
187358.0 413833.0 0
193773.0 413543.0 0
197033.0 415279.0 0
200126.0 413056.0 0
203385.0 414672.0 0
209655.0 413896.0 0
215694.0 412949.0 0
221782.0 413194.0 0
228271.0 413098.0 0
234941.0 412908.0 0
239932.0 414265.0 0
246652.0 414141.0 0
253348.0 414141.0 0
260068.0 414265.0 0
265059.0 412908.0 0
271729.0 413098.0 0
278218.0 413194.0 0
284306.0 412949.0 0
290345.0 413896.0 0
296615.0 414672.0 0
299874.0 413056.0 0
302967.0 415279.0 0
306227.0 413543.0 0
312642.0 413833.0 0
319059.0 414120.0 0
325474.0 414446.0 0
331911.0 414810.0 0
335101.0 413195.0 0
338384.0 415228.0 0
341583.0 413674.0 0
344883.0 415724.0 0
348084.0 414228.0 0
354595.0 414843.0 0
357784.0 413422.0 0
361108.0 415500.0 0
135564.0 417581.0 0
142086.0 416923.0 0
145290.0 418371.0 0
148605.0 416295.0 0
151811.0 417783.0 0
158323.0 417265.0 0
164817.0 416833.0 0
171278.0 416472.0 0
177710.0 416149.0 0
180910.0 417879.0 0
184144.0 415855.0 0
187382.0 417608.0 0
190604.0 415588.0 0
193891.0 417379.0 0
200319.0 416948.0 0
206676.0 416239.0 0
213024.0 415346.0 0
218456.0 415095.0 0
224933.0 415154.0 0
231590.0 414956.0 0
236608.0 416277.0 0
243314.0 416136.0 0
250000.0 416075.0 0
256686.0 416136.0 0
263392.0 416277.0 0
268410.0 414956.0 0
275067.0 415154.0 0
281544.0 415095.0 0
286976.0 415346.0 0
293324.0 416239.0 0
299681.0 416948.0 0
306109.0 417379.0 0
309396.0 415588.0 0
312618.0 417608.0 0
315856.0 415855.0 0
319090.0 417879.0 0
322290.0 416149.0 0
328722.0 416472.0 0
335183.0 416833.0 0
341677.0 417265.0 0
348189.0 417783.0 0
351395.0 416295.0 0
354710.0 418371.0 0
357914.0 416923.0 0
364436.0 417581.0 0
132233.0 419663.0 0
135439.0 421097.0 0
138763.0 419008.0 0
141973.0 420457.0 0
148502.0 419848.0 0
155023.0 419310.0 0
158239.0 420884.0 0
161533.0 418853.0 0
164747.0 420495.0 0
168019.0 418488.0 0
171224.0 420188.0 0
174471.0 418174.0 0
177674.0 419903.0 0
184135.0 419623.0 0
190665.0 419365.0 0
197204.0 419177.0 0
203652.0 418610.0 0
207029.0 420116.0 0
210043.0 417838.0 0
213566.0 418931.0 0
217849.0 418827.0 0
221525.0 417145.0 0
224786.0 419063.0 0
228216.0 417022.0 0
230010.0 420304.0 0
233300.0 418294.0 0
236660.0 420157.0 0
239985.0 418142.0 0
243334.0 420039.0 0
246665.0 418047.0 0
250000.0 419993.0 0
253335.0 418047.0 0
256666.0 420039.0 0
260015.0 418142.0 0
263340.0 420157.0 0
266700.0 418294.0 0
269990.0 420304.0 0
271784.0 417022.0 0
275214.0 419063.0 0
278475.0 417145.0 0
282151.0 418827.0 0
286434.0 418931.0 0
289957.0 417838.0 0
292971.0 420116.0 0
296348.0 418610.0 0
302796.0 419177.0 0
309335.0 419365.0 0
315865.0 419623.0 0
322326.0 419903.0 0
325529.0 418174.0 0
328776.0 420188.0 0
331981.0 418488.0 0
335253.0 420495.0 0
338467.0 418853.0 0
341761.0 420884.0 0
344977.0 419310.0 0
351498.0 419848.0 0
358027.0 420457.0 0
361237.0 419008.0 0
364561.0 421097.0 0
367767.0 419663.0 0
125564.0 423834.0 0
128899.0 421748.0 0
132114.0 423190.0 0
138656.0 422550.0 0
145190.0 421928.0 0
148417.0 423435.0 0
151721.0 421367.0 0
154946.0 422928.0 0
161463.0 422502.0 0
167965.0 422188.0 0
174436.0 421924.0 0
180891.0 421652.0 0
187385.0 421379.0 0
190668.0 423104.0 0
193985.0 421217.0 0
200593.0 420833.0 0
208110.0 423610.0 0
215483.0 421803.0 0
221110.0 420975.0 0
226719.0 422263.0 0
233335.0 422181.0 0
240002.0 422043.0 0
246670.0 421965.0 0
253330.0 421965.0 0
259998.0 422043.0 0
266665.0 422181.0 0
273281.0 422263.0 0
278890.0 420975.0 0
284517.0 421803.0 0
291890.0 423610.0 0
299407.0 420833.0 0
306015.0 421217.0 0
309332.0 423104.0 0
312615.0 421379.0 0
319109.0 421652.0 0
325564.0 421924.0 0
332035.0 422188.0 0
338537.0 422502.0 0
345054.0 422928.0 0
348279.0 421367.0 0
351583.0 423435.0 0
354810.0 421928.0 0
361344.0 422550.0 0
367886.0 423190.0 0
371101.0 421748.0 0
374436.0 423834.0 0
122225.0 425922.0 0
128790.0 425287.0 0
135343.0 424649.0 0
138577.0 426132.0 0
141880.0 424025.0 0
145113.0 425518.0 0
151651.0 424983.0 0
158175.0 424531.0 0
164694.0 424178.0 0
167929.0 425909.0 0
171187.0 423924.0 0
174417.0 425691.0 0
177666.0 423677.0 0
180925.0 425456.0 0
184120.0 423404.0 0
187327.0 425173.0 0
193939.0 425066.0 0
197305.0 423099.0 0
200790.0 424522.0 0
204282.0 422955.0 0
211715.0 422443.0 0
218384.0 423748.0 0
223359.0 424065.0 0
229996.0 424202.0 0
236663.0 424057.0 0
243338.0 423953.0 0
250000.0 423917.0 0
256662.0 423953.0 0
263337.0 424057.0 0
270004.0 424202.0 0
276641.0 424065.0 0
281616.0 423748.0 0
288285.0 422443.0 0
295718.0 422955.0 0
299210.0 424522.0 0
302695.0 423099.0 0
306061.0 425066.0 0
312673.0 425173.0 0
315880.0 423404.0 0
319075.0 425456.0 0
322334.0 423677.0 0
325583.0 425691.0 0
328813.0 423924.0 0
332071.0 425909.0 0
335306.0 424178.0 0
341825.0 424531.0 0
348349.0 424983.0 0
354887.0 425518.0 0
358120.0 424025.0 0
361423.0 426132.0 0
364657.0 424649.0 0
371210.0 425287.0 0
377775.0 425922.0 0
118879.0 428014.0 0
125465.0 427383.0 0
128726.0 428862.0 0
132032.0 426754.0 0
135284.0 428241.0 0
141815.0 427632.0 0
145070.0 429139.0 0
148358.0 427058.0 0
151609.0 428627.0 0
154893.0 426577.0 0
158130.0 428211.0 0
161411.0 426171.0 0
164655.0 427879.0 0
171173.0 427678.0 0
177663.0 427451.0 0
184231.0 427243.0 0
190449.0 426771.0 0
196520.0 427805.0 0
200035.0 428107.0 0
203614.0 427112.0 0
207233.0 427190.0 0
210861.0 426345.0 0
214445.0 425367.0 0
220491.0 426553.0 0
226621.0 426167.0 0
229920.0 428115.0 0
233306.0 426081.0 0
236652.0 427957.0 0
240000.0 425952.0 0
243329.0 427875.0 0
246668.0 425889.0 0
250000.0 427845.0 0
253332.0 425889.0 0
256671.0 427875.0 0
260000.0 425952.0 0
263348.0 427957.0 0
266694.0 426081.0 0
270080.0 428115.0 0
273379.0 426167.0 0
279509.0 426553.0 0
285555.0 425367.0 0
289139.0 426345.0 0
292767.0 427190.0 0
296386.0 427112.0 0
299965.0 428107.0 0
303480.0 427805.0 0
309551.0 426771.0 0
315769.0 427243.0 0
322337.0 427451.0 0
328827.0 427678.0 0
335345.0 427879.0 0
338589.0 426171.0 0
341870.0 428211.0 0
345107.0 426577.0 0
348391.0 428627.0 0
351642.0 427058.0 0
354930.0 429139.0 0
358185.0 427632.0 0
364716.0 428241.0 0
367968.0 426754.0 0
371274.0 428862.0 0
374535.0 427383.0 0
381121.0 428014.0 0
115525.0 430112.0 0
118795.0 431579.0 0
122135.0 429479.0 0
125416.0 430965.0 0
132000.0 430359.0 0
138540.0 429763.0 0
141804.0 431281.0 0
148337.0 430712.0 0
154860.0 430256.0 0
161372.0 429855.0 0
167904.0 429645.0 0
174432.0 429485.0 0
180920.0 429244.0 0
187603.0 429204.0 0
193042.0 428916.0 0
202049.0 431165.0 0
205794.0 430663.0 0
209664.0 430141.0 0
213384.0 429302.0 0
216996.0 428084.0 0
220009.0 430317.0 0
223534.0 428457.0 0
233303.0 429969.0 0
239982.0 429871.0 0
246660.0 429817.0 0
253340.0 429817.0 0
260018.0 429871.0 0
266697.0 429969.0 0
276466.0 428457.0 0
279991.0 430317.0 0
283004.0 428084.0 0
286616.0 429302.0 0
290336.0 430141.0 0
294206.0 430663.0 0
297951.0 431165.0 0
306958.0 428916.0 0
312397.0 429204.0 0
319080.0 429244.0 0
325568.0 429485.0 0
332096.0 429645.0 0
338628.0 429855.0 0
345140.0 430256.0 0
351663.0 430712.0 0
358196.0 431281.0 0
361460.0 429763.0 0
368000.0 430359.0 0
374584.0 430965.0 0
377865.0 429479.0 0
381205.0 431579.0 0
384475.0 430112.0 0
108791.0 434325.0 0
112160.0 432217.0 0
115443.0 433689.0 0
122098.0 433062.0 0
128714.0 432474.0 0
132024.0 434003.0 0
135282.0 431880.0 0
138567.0 433443.0 0
145086.0 432785.0 0
148374.0 434432.0 0
151598.0 432304.0 0
154859.0 433977.0 0
158101.0 431929.0 0
161359.0 433538.0 0
164632.0 431597.0 0
167881.0 433400.0 0
171159.0 431434.0 0
174422.0 433284.0 0
177739.0 431243.0 0
181141.0 433143.0 0
184139.0 430959.0 0
186957.0 433013.0 0
190566.0 431913.0 0
194428.0 432144.0 0
198141.0 431453.0 0
216227.0 431963.0 0
223206.0 432312.0 0
226677.0 430408.0 0
230004.0 432022.0 0
236630.0 431873.0 0
243310.0 431803.0 0
250000.0 431775.0 0
256690.0 431803.0 0
263370.0 431873.0 0
269996.0 432022.0 0
273323.0 430408.0 0
276794.0 432312.0 0
283773.0 431963.0 0
301859.0 431453.0 0
305572.0 432144.0 0
309434.0 431913.0 0
313043.0 433013.0 0
315861.0 430959.0 0
318859.0 433143.0 0
322261.0 431243.0 0
325578.0 433284.0 0
328841.0 431434.0 0
332119.0 433400.0 0
335368.0 431597.0 0
338641.0 433538.0 0
341899.0 431929.0 0
345141.0 433977.0 0
348402.0 432304.0 0
351626.0 434432.0 0
354914.0 432785.0 0
361433.0 433443.0 0
364718.0 431880.0 0
367976.0 434003.0 0
371286.0 432474.0 0
377902.0 433062.0 0
384557.0 433689.0 0
387840.0 432217.0 0
391209.0 434325.0 0
105427.0 436431.0 0
112085.0 435817.0 0
118765.0 435164.0 0
122118.0 436667.0 0
125424.0 434578.0 0
128763.0 436122.0 0
135343.0 435554.0 0
141852.0 434969.0 0
145170.0 436435.0 0
151627.0 436019.0 0
154872.0 437752.0 0
158107.0 435702.0 0
164657.0 435343.0 0
171112.0 435187.0 0
177750.0 434915.0 0
184832.0 436259.0 0
188787.0 436074.0 0
192562.0 435448.0 0
196546.0 435120.0 0
200386.0 434644.0 0
204299.0 434259.0 0
208190.0 433736.0 0
212225.0 433109.0 0
219515.0 434072.0 0
226396.0 434378.0 0
229879.0 435861.0 0
233288.0 433905.0 0
236576.0 435803.0 0
239950.0 433801.0 0
243281.0 435731.0 0
246647.0 433746.0 0
250000.0 435702.0 0
253353.0 433746.0 0
256719.0 435731.0 0
260050.0 433801.0 0
263424.0 435803.0 0
266712.0 433905.0 0
270121.0 435861.0 0
273604.0 434378.0 0
280485.0 434072.0 0
287775.0 433109.0 0
291810.0 433736.0 0
295701.0 434259.0 0
299614.0 434644.0 0
303454.0 435120.0 0
307438.0 435448.0 0
311213.0 436074.0 0
315168.0 436259.0 0
322250.0 434915.0 0
328888.0 435187.0 0
335343.0 435343.0 0
341893.0 435702.0 0
345128.0 437752.0 0
348373.0 436019.0 0
354830.0 436435.0 0
358148.0 434969.0 0
364657.0 435554.0 0
371237.0 436122.0 0
374576.0 434578.0 0
377882.0 436667.0 0
381235.0 435164.0 0
387915.0 435817.0 0
394573.0 436431.0 0
102080.0 438529.0 0
108735.0 437962.0 0
112083.0 439444.0 0
115421.0 437286.0 0
118794.0 438765.0 0
125490.0 438221.0 0
132113.0 437684.0 0
135489.0 439250.0 0
138661.0 437182.0 0
141946.0 438704.0 0
161440.0 437151.0 0
167872.0 437215.0 0
174288.0 437136.0 0
177586.0 438475.0 0
181044.0 436934.0 0
194833.0 438604.0 0
198746.0 438214.0 0
202640.0 437785.0 0
206585.0 437352.0 0
210603.0 436730.0 0
215139.0 435760.0 0
219335.0 437869.0 0
222848.0 436145.0 0
233162.0 437841.0 0
239902.0 437735.0 0
246629.0 437672.0 0
253371.0 437672.0 0
260098.0 437735.0 0
266838.0 437841.0 0
277152.0 436145.0 0
280665.0 437869.0 0
284861.0 435760.0 0
289397.0 436730.0 0
293415.0 437352.0 0
297360.0 437785.0 0
301254.0 438214.0 0
305167.0 438604.0 0
318956.0 436934.0 0
322414.0 438475.0 0
325712.0 437136.0 0
332128.0 437215.0 0
338560.0 437151.0 0
358054.0 438704.0 0
361339.0 437182.0 0
364511.0 439250.0 0
367887.0 437684.0 0
374510.0 438221.0 0
381206.0 438765.0 0
384579.0 437286.0 0
387917.0 439444.0 0
391265.0 437962.0 0
397920.0 438529.0 0
98764.6 440608.0 0
102135.0 442293.0 0
105410.0 440123.0 0
108775.0 441639.0 0
115463.0 440904.0 0
122196.0 440290.0 0
125610.0 441897.0 0
128867.0 439805.0 0
132251.0 441392.0 0
138878.0 441030.0 0
145283.0 439989.0 0
148506.0 438259.0 0
151815.0 439754.0 0
157929.0 439537.0 0
161407.0 440514.0 0
164809.0 439163.0 0
171004.0 438947.0 0
179677.0 441220.0 0
183296.0 439948.0 0
187079.0 439501.0 0
190989.0 439091.0 0
200947.0 441360.0 0
204803.0 440960.0 0
208607.0 440607.0 0
212338.0 440168.0 0
216013.0 439585.0 0
222497.0 440042.0 0
226052.0 438336.0 0
229662.0 439684.0 0
236494.0 439698.0 0
243238.0 439657.0 0
250000.0 439624.0 0
256762.0 439657.0 0
263506.0 439698.0 0
270338.0 439684.0 0
273948.0 438336.0 0
277503.0 440042.0 0
283987.0 439585.0 0
287662.0 440168.0 0
291393.0 440607.0 0
295197.0 440960.0 0
299053.0 441360.0 0
309011.0 439091.0 0
312921.0 439501.0 0
316704.0 439948.0 0
320323.0 441220.0 0
328996.0 438947.0 0
335191.0 439163.0 0
338593.0 440514.0 0
342071.0 439537.0 0
348185.0 439754.0 0
351494.0 438259.0 0
354717.0 439989.0 0
361122.0 441030.0 0
367749.0 441392.0 0
371133.0 439805.0 0
374390.0 441897.0 0
377804.0 440290.0 0
384537.0 440904.0 0
391225.0 441639.0 0
394590.0 440123.0 0
397865.0 442293.0 0
401235.0 440608.0 0
93644.2 443806.0 0
97340.2 444077.0 0
105536.0 443870.0 0
112158.0 443105.0 0
115548.0 444544.0 0
118873.0 442377.0 0
122311.0 443919.0 0
129024.0 443530.0 0
135682.0 442903.0 0
142252.0 442519.0 0
145923.0 443233.0 0
149538.0 442761.0 0
153360.0 442994.0 0
156982.0 443128.0 0
164341.0 442918.0 0
167931.0 441470.0 0
171695.0 442326.0 0
175421.0 441521.0 0
185461.0 443115.0 0
189314.0 442644.0 0
193194.0 442200.0 0
197064.0 441760.0 0
214685.0 443305.0 0
218509.0 442565.0 0
225686.0 442298.0 0
229349.0 443517.0 0
232918.0 441802.0 0
236358.0 443547.0 0
239827.0 441678.0 0
243189.0 443562.0 0
246608.0 441589.0 0
250000.0 443538.0 0
253392.0 441589.0 0
256811.0 443562.0 0
260173.0 441678.0 0
263642.0 443547.0 0
267082.0 441802.0 0
270651.0 443517.0 0
274314.0 442298.0 0
281491.0 442565.0 0
285315.0 443305.0 0
302936.0 441760.0 0
306806.0 442200.0 0
310686.0 442644.0 0
314539.0 443115.0 0
324579.0 441521.0 0
328305.0 442326.0 0
332069.0 441470.0 0
335659.0 442918.0 0
343018.0 443128.0 0
346640.0 442994.0 0
350462.0 442761.0 0
354077.0 443233.0 0
357748.0 442519.0 0
364318.0 442903.0 0
370976.0 443530.0 0
377689.0 443919.0 0
381127.0 442377.0 0
384452.0 444544.0 0
387842.0 443105.0 0
394464.0 443870.0 0
402660.0 444077.0 0
406356.0 443806.0 0
90314.8 445890.0 0
93725.6 447572.0 0
100703.0 445760.0 0
108938.0 445374.0 0
112323.0 446825.0 0
118939.0 445991.0 0
125768.0 445608.0 0
132458.0 445137.0 0
135972.0 446395.0 0
139742.0 445507.0 0
143629.0 446082.0 0
147606.0 446271.0 0
151323.0 446214.0 0
155074.0 446407.0 0
160559.0 443658.0 0
166457.0 445923.0 0
170134.0 445608.0 0
174020.0 445187.0 0
177816.0 444591.0 0
181742.0 444163.0 0
187689.0 446261.0 0
191546.0 445791.0 0
195415.0 445346.0 0
199294.0 444937.0 0
203162.0 444557.0 0
207015.0 444204.0 0
210861.0 443813.0 0
222106.0 443883.0 0
232446.0 445857.0 0
239649.0 445648.0 0
246583.0 445495.0 0
253417.0 445495.0 0
260351.0 445648.0 0
267554.0 445857.0 0
277894.0 443883.0 0
289139.0 443813.0 0
292985.0 444204.0 0
296838.0 444557.0 0
300706.0 444937.0 0
304585.0 445346.0 0
308454.0 445791.0 0
312311.0 446261.0 0
318258.0 444163.0 0
322184.0 444591.0 0
325980.0 445187.0 0
329866.0 445608.0 0
333543.0 445923.0 0
339441.0 443658.0 0
344926.0 446407.0 0
348677.0 446214.0 0
352394.0 446271.0 0
356371.0 446082.0 0
360258.0 445507.0 0
364028.0 446395.0 0
367542.0 445137.0 0
374232.0 445608.0 0
381061.0 445991.0 0
387677.0 446825.0 0
391062.0 445374.0 0
399297.0 445760.0 0
406274.0 447572.0 0
409685.0 445890.0 0
83594.5 450101.0 0
86964.4 447989.0 0
90408.3 449711.0 0
97477.6 447946.0 0
100935.0 449593.0 0
104123.0 447340.0 0
107590.0 448866.0 0
115680.0 448239.0 0
118993.0 449652.0 0
122309.0 447518.0 0
125557.0 449276.0 0
129295.0 447289.0 0
133130.0 448925.0 0
138082.0 449144.0 0
141741.0 449239.0 0
145546.0 449425.0 0
149386.0 449569.0 0
153151.0 449649.0 0
158782.0 446644.0 0
162713.0 446456.0 0
172356.0 448703.0 0
176213.0 448226.0 0
180041.0 447687.0 0
183919.0 447143.0 0
193783.0 448955.0 0
197645.0 448514.0 0
201538.0 448151.0 0
205398.0 447790.0 0
209311.0 447421.0 0
213192.0 446998.0 0
217067.0 446387.0 0
220764.0 447504.0 0
224913.0 446541.0 0
228727.0 447346.0 0
236056.0 447367.0 0
243125.0 447434.0 0
250000.0 447442.0 0
256875.0 447434.0 0
263944.0 447367.0 0
271273.0 447346.0 0
275087.0 446541.0 0
279236.0 447504.0 0
282933.0 446387.0 0
286808.0 446998.0 0
290689.0 447421.0 0
294602.0 447790.0 0
298462.0 448151.0 0
302355.0 448514.0 0
306217.0 448955.0 0
316081.0 447143.0 0
319959.0 447687.0 0
323787.0 448226.0 0
327644.0 448703.0 0
337287.0 446456.0 0
341218.0 446644.0 0
346849.0 449649.0 0
350614.0 449569.0 0
354454.0 449425.0 0
358259.0 449239.0 0
361918.0 449144.0 0
366870.0 448925.0 0
370705.0 447289.0 0
374443.0 449276.0 0
377691.0 447518.0 0
381007.0 449652.0 0
384320.0 448239.0 0
392410.0 448866.0 0
395877.0 447340.0 0
399065.0 449593.0 0
402522.0 447946.0 0
409592.0 449711.0 0
413036.0 447989.0 0
416405.0 450101.0 0
87077.7 451863.0 0
93908.7 451357.0 0
97715.6 451826.0 0
104437.0 451161.0 0
111091.0 450356.0 0
114627.0 451811.0 0
122232.0 451188.0 0
128730.0 450915.0 0
132022.0 452510.0 0
156951.0 449807.0 0
160854.0 449751.0 0
164743.0 449489.0 0
168527.0 449119.0 0
178400.0 451309.0 0
182263.0 450750.0 0
186125.0 450169.0 0
189929.0 449423.0 0
199861.0 451694.0 0
207667.0 450962.0 0
211652.0 450954.0 0
215631.0 450106.0 0
223526.0 450221.0 0
227398.0 451058.0 0
231777.0 449766.0 0
235463.0 451181.0 0
239271.0 449606.0 0
242851.0 451289.0 0
246539.0 449390.0 0
250000.0 451321.0 0
253461.0 449390.0 0
257149.0 451289.0 0
260729.0 449606.0 0
264537.0 451181.0 0
268223.0 449766.0 0
272602.0 451058.0 0
276474.0 450221.0 0
284369.0 450106.0 0
288348.0 450954.0 0
292333.0 450962.0 0
300139.0 451694.0 0
310071.0 449423.0 0
313875.0 450169.0 0
317737.0 450750.0 0
321600.0 451309.0 0
331473.0 449119.0 0
335257.0 449489.0 0
339146.0 449751.0 0
343049.0 449807.0 0
367978.0 452510.0 0
371270.0 450915.0 0
377768.0 451188.0 0
385373.0 451811.0 0
388909.0 450356.0 0
395563.0 451161.0 0
402284.0 451826.0 0
406091.0 451357.0 0
412922.0 451863.0 0
83723.0 454041.0 0
90622.0 453553.0 0
94205.8 455182.0 0
101253.0 453433.0 0
107960.0 452688.0 0
111488.0 454170.0 0
118207.0 453255.0 0
121812.0 454772.0 0
125387.0 453118.0 0
128762.0 454584.0 0
135839.0 452205.0 0
139717.0 452533.0 0
143533.0 452673.0 0
147370.0 452818.0 0
151212.0 452947.0 0
155049.0 453037.0 0
158952.0 453038.0 0
162877.0 452894.0 0
166777.0 452630.0 0
170652.0 452255.0 0
174526.0 451813.0 0
184514.0 453813.0 0
188372.0 453225.0 0
192187.0 452601.0 0
196021.0 452141.0 0
203775.0 451441.0 0
219678.0 451274.0 0
231822.0 453688.0 0
239270.0 453560.0 0
246511.0 453272.0 0
253489.0 453272.0 0
260730.0 453560.0 0
268178.0 453688.0 0
280322.0 451274.0 0
296225.0 451441.0 0
303979.0 452141.0 0
307813.0 452601.0 0
311628.0 453225.0 0
315486.0 453813.0 0
325474.0 451813.0 0
329348.0 452255.0 0
333223.0 452630.0 0
337123.0 452894.0 0
341048.0 453038.0 0
344951.0 453037.0 0
348788.0 452947.0 0
352630.0 452818.0 0
356467.0 452673.0 0
360283.0 452533.0 0
364161.0 452205.0 0
371238.0 454584.0 0
374613.0 453118.0 0
378188.0 454772.0 0
381793.0 453255.0 0
388512.0 454170.0 0
392040.0 452688.0 0
398747.0 453433.0 0
405794.0 455182.0 0
409378.0 453553.0 0
416277.0 454041.0 0
87315.0 455759.0 0
90940.5 457423.0 0
98052.0 455707.0 0
104814.0 454998.0 0
108378.0 456545.0 0
115017.0 455592.0 0
118534.0 456985.0 0
134002.0 455620.0 0
137694.0 455756.0 0
141516.0 455964.0 0
145358.0 456099.0 0
149216.0 456223.0 0
153100.0 456318.0 0
157013.0 456337.0 0
160955.0 456256.0 0
164905.0 456065.0 0
168851.0 455778.0 0
172789.0 455393.0 0
176718.0 454919.0 0
180629.0 454385.0 0
190289.0 456552.0 0
194169.0 455992.0 0
198017.0 455497.0 0
201869.0 454972.0 0
205647.0 455233.0 0
209402.0 454400.0 0
213102.0 455184.0 0
216755.0 453906.0 0
220473.0 455171.0 0
224256.0 454017.0 0
228065.0 454954.0 0
235550.0 455040.0 0
243005.0 455146.0 0
250000.0 455183.0 0
256995.0 455146.0 0
264450.0 455040.0 0
271935.0 454954.0 0
275744.0 454017.0 0
279527.0 455171.0 0
283245.0 453906.0 0
286898.0 455184.0 0
290598.0 454400.0 0
294353.0 455233.0 0
298131.0 454972.0 0
301983.0 455497.0 0
305831.0 455992.0 0
309711.0 456552.0 0
319371.0 454385.0 0
323282.0 454919.0 0
327211.0 455393.0 0
331149.0 455778.0 0
335095.0 456065.0 0
339045.0 456256.0 0
342987.0 456337.0 0
346900.0 456318.0 0
350784.0 456223.0 0
354642.0 456099.0 0
358484.0 455964.0 0
362306.0 455756.0 0
365998.0 455620.0 0
381466.0 456985.0 0
384983.0 455592.0 0
391622.0 456545.0 0
395186.0 454998.0 0
401948.0 455707.0 0
409059.0 457423.0 0
412685.0 455759.0 0
87671.5 459699.0 0
94571.0 459076.0 0
98459.3 459580.0 0
101648.0 457287.0 0
105256.0 458863.0 0
111929.0 458031.0 0
115479.0 459424.0 0
122003.0 458384.0 0
125723.0 456983.0 0
130805.0 457433.0 0
135598.0 459106.0 0
139445.0 459260.0 0
143321.0 459404.0 0
147208.0 459524.0 0
166935.0 459250.0 0
170871.0 458973.0 0
174771.0 458639.0 0
178653.0 458212.0 0
182532.0 457704.0 0
186411.0 457141.0 0
192630.0 459647.0 0
200412.0 458608.0 0
208244.0 458184.0 0
215939.0 457850.0 0
219687.0 459060.0 0
223421.0 457831.0 0
227250.0 458843.0 0
231022.0 457562.0 0
234776.0 458864.0 0
238650.0 457474.0 0
242343.0 458959.0 0
246437.0 457186.0 0
250000.0 459038.0 0
253563.0 457186.0 0
257657.0 458959.0 0
261350.0 457474.0 0
265224.0 458864.0 0
268978.0 457562.0 0
272750.0 458843.0 0
276579.0 457831.0 0
280313.0 459060.0 0
284061.0 457850.0 0
291756.0 458184.0 0
299588.0 458608.0 0
307370.0 459647.0 0
313589.0 457141.0 0
317468.0 457704.0 0
321347.0 458212.0 0
325229.0 458639.0 0
329129.0 458973.0 0
333065.0 459250.0 0
352792.0 459524.0 0
356679.0 459404.0 0
360555.0 459260.0 0
364402.0 459106.0 0
369195.0 457433.0 0
374277.0 456983.0 0
377997.0 458384.0 0
384521.0 459424.0 0
388071.0 458031.0 0
394744.0 458863.0 0
398352.0 457287.0 0
401541.0 459580.0 0
405429.0 459076.0 0
412328.0 459699.0 0
91323.2 461358.0 0
102084.0 461155.0 0
108868.0 460457.0 0
112488.0 461942.0 0
119039.0 460788.0 0
124664.0 460657.0 0
128314.0 460259.0 0
132156.0 460773.0 0
137367.0 462605.0 0
141275.0 462730.0 0
145183.0 462852.0 0
151110.0 459612.0 0
155047.0 459654.0 0
159003.0 459612.0 0
162971.0 459473.0 0
176930.0 461810.0 0
180888.0 461339.0 0
184825.0 460799.0 0
188739.0 460226.0 0
196543.0 459328.0 0
204357.0 459048.0 0
212129.0 459055.0 0
231743.0 461436.0 0
239201.0 461380.0 0
246472.0 461108.0 0
253528.0 461108.0 0
260799.0 461380.0 0
268257.0 461436.0 0
287871.0 459055.0 0
295643.0 459048.0 0
303457.0 459328.0 0
311261.0 460226.0 0
315175.0 460799.0 0
319112.0 461339.0 0
323070.0 461810.0 0
337029.0 459473.0 0
340997.0 459612.0 0
344953.0 459654.0 0
348890.0 459612.0 0
354817.0 462852.0 0
358725.0 462730.0 0
362633.0 462605.0 0
367844.0 460773.0 0
371686.0 460259.0 0
375336.0 460657.0 0
380961.0 460788.0 0
387512.0 461942.0 0
391132.0 460457.0 0
397916.0 461155.0 0
408677.0 461358.0 0
94880.6 463368.0 0
98871.3 463452.0 0
105726.0 462742.0 0
109504.0 464456.0 0
116146.0 463269.0 0
121856.0 463238.0 0
125844.0 464057.0 0
129762.0 463852.0 0
133742.0 464006.0 0
139255.0 466096.0 0
149102.0 462942.0 0
153056.0 462974.0 0
157039.0 462971.0 0
161029.0 462874.0 0
165017.0 462698.0 0
168992.0 462465.0 0
172959.0 462184.0 0
186648.0 464221.0 0
190499.0 463705.0 0
194323.0 463164.0 0
198135.0 463038.0 0
201893.0 462213.0 0
205616.0 463072.0 0
209321.0 461953.0 0
213056.0 462938.0 0
216758.0 461720.0 0
220494.0 462944.0 0
224227.0 461675.0 0
228015.0 462739.0 0
235485.0 462724.0 0
242900.0 462825.0 0
250000.0 462908.0 0
257100.0 462825.0 0
264515.0 462724.0 0
271985.0 462739.0 0
275773.0 461675.0 0
279506.0 462944.0 0
283242.0 461720.0 0
286944.0 462938.0 0
290679.0 461953.0 0
294384.0 463072.0 0
298107.0 462213.0 0
301865.0 463038.0 0
305677.0 463164.0 0
309501.0 463705.0 0
313352.0 464221.0 0
327041.0 462184.0 0
331008.0 462465.0 0
334983.0 462698.0 0
338971.0 462874.0 0
342961.0 462971.0 0
346944.0 462974.0 0
350898.0 462942.0 0
360745.0 466096.0 0
366258.0 464006.0 0
370238.0 463852.0 0
374156.0 464057.0 0
378144.0 463238.0 0
383854.0 463269.0 0
390496.0 464456.0 0
394274.0 462742.0 0
401129.0 463452.0 0
405119.0 463368.0 0
97848.8 467217.0 0
102535.0 465024.0 0
106203.0 466618.0 0
113827.0 466320.0 0
118968.0 465940.0 0
123078.0 466764.0 0
127728.0 467244.0 0
131604.0 467233.0 0
143171.0 466213.0 0
147099.0 466314.0 0
151056.0 466328.0 0
155034.0 466312.0 0
159082.0 466268.0 0
163101.0 466136.0 0
167087.0 465941.0 0
171057.0 465699.0 0
175000.0 465434.0 0
178907.0 465115.0 0
182782.0 464708.0 0
192894.0 466858.0 0
200699.0 466059.0 0
208368.0 465888.0 0
212180.0 466804.0 0
215957.0 465627.0 0
219708.0 466817.0 0
223470.0 465580.0 0
227283.0 466632.0 0
231024.0 465338.0 0
234778.0 466582.0 0
238531.0 465288.0 0
242247.0 466685.0 0
246191.0 465063.0 0
250000.0 466758.0 0
253809.0 465063.0 0
257753.0 466685.0 0
261469.0 465288.0 0
265222.0 466582.0 0
268976.0 465338.0 0
272717.0 466632.0 0
276530.0 465580.0 0
280292.0 466817.0 0
284043.0 465627.0 0
287820.0 466804.0 0
291632.0 465888.0 0
299301.0 466059.0 0
307106.0 466858.0 0
317218.0 464708.0 0
321093.0 465115.0 0
325000.0 465434.0 0
328943.0 465699.0 0
332913.0 465941.0 0
336899.0 466136.0 0
340918.0 466268.0 0
344966.0 466312.0 0
348944.0 466328.0 0
352901.0 466314.0 0
356829.0 466213.0 0
368396.0 467233.0 0
372272.0 467244.0 0
376922.0 466764.0 0
381032.0 465940.0 0
386173.0 466320.0 0
393797.0 466618.0 0
397465.0 465024.0 0
402151.0 467217.0 0
94646.5 469569.0 0
101527.0 468763.0 0
110492.0 468284.0 0
116494.0 469249.0 0
120441.0 469546.0 0
125019.0 470007.0 0
135542.0 467222.0 0
141221.0 469630.0 0
145147.0 469744.0 0
161169.0 469558.0 0
165198.0 469413.0 0
169187.0 469204.0 0
173170.0 468954.0 0
177148.0 468674.0 0
181111.0 468327.0 0
185056.0 467867.0 0
188984.0 467370.0 0
196822.0 466814.0 0
204542.0 466896.0 0
230536.0 469299.0 0
238503.0 469274.0 0
246371.0 469016.0 0
253629.0 469016.0 0
261497.0 469274.0 0
269464.0 469299.0 0
295458.0 466896.0 0
303178.0 466814.0 0
311016.0 467370.0 0
314944.0 467867.0 0
318889.0 468327.0 0
322852.0 468674.0 0
326830.0 468954.0 0
330813.0 469204.0 0
334802.0 469413.0 0
338831.0 469558.0 0
354853.0 469744.0 0
358779.0 469630.0 0
364458.0 467222.0 0
374981.0 470007.0 0
379559.0 469546.0 0
383506.0 469249.0 0
389508.0 468284.0 0
398473.0 468763.0 0
405353.0 469569.0 0
98331.8 471139.0 0
105262.0 470403.0 0
108946.0 471832.0 0
113178.0 471464.0 0
129546.0 470579.0 0
133479.0 470556.0 0
137418.0 470449.0 0
149097.0 469723.0 0
153079.0 469689.0 0
157073.0 469629.0 0
175336.0 472198.0 0
179358.0 471904.0 0
183427.0 471488.0 0
187408.0 471007.0 0
191370.0 470522.0 0
195334.0 470564.0 0
199259.0 469961.0 0
203167.0 470621.0 0
207095.0 469940.0 0
211013.0 470596.0 0
214909.0 469677.0 0
218764.0 470648.0 0
222646.0 469493.0 0
226501.0 470500.0 0
234477.0 470485.0 0
242724.0 470583.0 0
250000.0 470625.0 0
257276.0 470583.0 0
265523.0 470485.0 0
273499.0 470500.0 0
277354.0 469493.0 0
281236.0 470648.0 0
285091.0 469677.0 0
288987.0 470596.0 0
292905.0 469940.0 0
296833.0 470621.0 0
300741.0 469961.0 0
304666.0 470564.0 0
308630.0 470522.0 0
312592.0 471007.0 0
316573.0 471488.0 0
320642.0 471904.0 0
324664.0 472198.0 0
342927.0 469629.0 0
346921.0 469689.0 0
350903.0 469723.0 0
362582.0 470449.0 0
366521.0 470556.0 0
370454.0 470579.0 0
386822.0 471464.0 0
391054.0 471832.0 0
394738.0 470403.0 0
401668.0 471139.0 0
102033.0 472640.0 0
118351.0 472796.0 0
122430.0 472908.0 0
126832.0 473355.0 0
131453.0 473922.0 0
135416.0 473848.0 0
139366.0 473689.0 0
143251.0 473237.0 0
147183.0 473166.0 0
151149.0 473107.0 0
155134.0 473033.0 0
159159.0 472939.0 0
163268.0 472859.0 0
167315.0 472706.0 0
171325.0 472467.0 0
185788.0 474633.0 0
189782.0 474156.0 0
193806.0 474280.0 0
197820.0 473692.0 0
201765.0 474348.0 0
205702.0 473685.0 0
209636.0 474341.0 0
213566.0 473646.0 0
217474.0 474398.0 0
221392.0 473628.0 0
225321.0 474283.0 0
229287.0 473344.0 0
233181.0 474203.0 0
237320.0 473266.0 0
241190.0 474203.0 0
245971.0 472983.0 0
250000.0 474484.0 0
254029.0 472983.0 0
258810.0 474203.0 0
262680.0 473266.0 0
266819.0 474203.0 0
270713.0 473344.0 0
274679.0 474283.0 0
278608.0 473628.0 0
282526.0 474398.0 0
286434.0 473646.0 0
290364.0 474341.0 0
294298.0 473685.0 0
298235.0 474348.0 0
302180.0 473692.0 0
306194.0 474280.0 0
310218.0 474156.0 0
314212.0 474633.0 0
328675.0 472467.0 0
332685.0 472706.0 0
336732.0 472859.0 0
340841.0 472939.0 0
344866.0 473033.0 0
348851.0 473107.0 0
352817.0 473166.0 0
356749.0 473237.0 0
360634.0 473689.0 0
364584.0 473848.0 0
368547.0 473922.0 0
373168.0 473355.0 0
377570.0 472908.0 0
381649.0 472796.0 0
397967.0 472640.0 0
98896.7 475063.0 0
102670.0 476503.0 0
106890.0 475173.0 0
111237.0 475037.0 0
115181.0 475062.0 0
120369.0 476213.0 0
124352.0 476347.0 0
128714.0 476711.0 0
133433.0 477254.0 0
137415.0 477131.0 0
141381.0 476949.0 0
145303.0 476663.0 0
149258.0 476564.0 0
153236.0 476472.0 0
157229.0 476369.0 0
161261.0 476266.0 0
165373.0 476174.0 0
169482.0 475987.0 0
173508.0 475722.0 0
177527.0 475446.0 0
181689.0 475071.0 0
238478.0 477109.0 0
246267.0 476962.0 0
253733.0 476962.0 0
261522.0 477109.0 0
318311.0 475071.0 0
322473.0 475446.0 0
326492.0 475722.0 0
330518.0 475987.0 0
334627.0 476174.0 0
338739.0 476266.0 0
342771.0 476369.0 0
346764.0 476472.0 0
350742.0 476564.0 0
354697.0 476663.0 0
358619.0 476949.0 0
362585.0 477131.0 0
366567.0 477254.0 0
371286.0 476711.0 0
375648.0 476347.0 0
379631.0 476213.0 0
384819.0 475062.0 0
388763.0 475037.0 0
393110.0 475173.0 0
397330.0 476503.0 0
401103.0 475063.0 0
99553.7 478967.0 0
105761.0 478947.0 0
109722.0 478702.0 0
113688.0 478722.0 0
117644.0 479009.0 0
122310.0 479676.0 0
126297.0 479790.0 0
130674.0 480069.0 0
155336.0 479834.0 0
159329.0 479720.0 0
163367.0 479608.0 0
167542.0 479462.0 0
171690.0 479257.0 0
175690.0 478995.0 0
179669.0 478743.0 0
183631.0 478502.0 0
187558.0 478148.0 0
191478.0 477719.0 0
195383.0 478052.0 0
199275.0 477449.0 0
203180.0 478090.0 0
207095.0 477422.0 0
211014.0 478092.0 0
214944.0 477478.0 0
218883.0 478119.0 0
222792.0 477368.0 0
226728.0 478002.0 0
230632.0 477246.0 0
234579.0 477920.0 0
242413.0 477972.0 0
250000.0 478360.0 0
257587.0 477972.0 0
265421.0 477920.0 0
269368.0 477246.0 0
273272.0 478002.0 0
277208.0 477368.0 0
281117.0 478119.0 0
285056.0 477478.0 0
288986.0 478092.0 0
292905.0 477422.0 0
296820.0 478090.0 0
300725.0 477449.0 0
304617.0 478052.0 0
308522.0 477719.0 0
312442.0 478148.0 0
316369.0 478502.0 0
320331.0 478743.0 0
324310.0 478995.0 0
328310.0 479257.0 0
332458.0 479462.0 0
336633.0 479608.0 0
340671.0 479720.0 0
344664.0 479834.0 0
369326.0 480069.0 0
373703.0 479790.0 0
377690.0 479676.0 0
382356.0 479009.0 0
386312.0 478722.0 0
390278.0 478702.0 0
394239.0 478947.0 0
400446.0 478967.0 0
103691.0 482319.0 0
107913.0 482254.0 0
111890.0 482268.0 0
115862.0 482525.0 0
135469.0 480568.0 0
139457.0 480421.0 0
143432.0 480243.0 0
147380.0 480056.0 0
151352.0 479941.0 0
173881.0 482553.0 0
177867.0 482302.0 0
181850.0 482055.0 0
185892.0 481781.0 0
189859.0 481360.0 0
193823.0 481779.0 0
197776.0 481229.0 0
201711.0 481853.0 0
205647.0 481217.0 0
209584.0 481823.0 0
213525.0 481221.0 0
217466.0 481841.0 0
221510.0 481241.0 0
225469.0 481780.0 0
229546.0 481245.0 0
233509.0 481752.0 0
237593.0 481235.0 0
241540.0 481842.0 0
245995.0 481184.0 0
250000.0 482242.0 0
254005.0 481184.0 0
258460.0 481842.0 0
262407.0 481235.0 0
266491.0 481752.0 0
270454.0 481245.0 0
274531.0 481780.0 0
278490.0 481241.0 0
282534.0 481841.0 0
286475.0 481221.0 0
290416.0 481823.0 0
294353.0 481217.0 0
298289.0 481853.0 0
302224.0 481229.0 0
306177.0 481779.0 0
310141.0 481360.0 0
314108.0 481781.0 0
318150.0 482055.0 0
322133.0 482302.0 0
326119.0 482553.0 0
348648.0 479941.0 0
352620.0 480056.0 0
356568.0 480243.0 0
360543.0 480421.0 0
364531.0 480568.0 0
384138.0 482525.0 0
388110.0 482268.0 0
392087.0 482254.0 0
396309.0 482319.0 0
99196.9 482915.0 0
119837.0 482710.0 0
124253.0 483148.0 0
128294.0 483216.0 0
132725.0 483416.0 0
137519.0 483882.0 0
141509.0 483733.0 0
145491.0 483574.0 0
149460.0 483431.0 0
153439.0 483316.0 0
157427.0 483203.0 0
161424.0 483082.0 0
165547.0 482916.0 0
169749.0 482737.0 0
330251.0 482737.0 0
334453.0 482916.0 0
338576.0 483082.0 0
342573.0 483203.0 0
346561.0 483316.0 0
350540.0 483431.0 0
354509.0 483574.0 0
358491.0 483733.0 0
362481.0 483882.0 0
367275.0 483416.0 0
371706.0 483216.0 0
375747.0 483148.0 0
380163.0 482710.0 0
400803.0 482915.0 0
101885.0 485859.0 0
105870.0 485672.0 0
109858.0 485710.0 0
113814.0 485911.0 0
117781.0 486078.0 0
121762.0 486211.0 0
126243.0 486597.0 0
130377.0 486611.0 0
134799.0 486774.0 0
139568.0 487214.0 0
143565.0 487066.0 0
147551.0 486932.0 0
151533.0 486810.0 0
155519.0 486696.0 0
159511.0 486579.0 0
163508.0 486460.0 0
167503.0 486367.0 0
171493.0 486285.0 0
175476.0 486189.0 0
179439.0 485950.0 0
183391.0 485708.0 0
187336.0 485821.0 0
191217.0 485084.0 0
195108.0 485745.0 0
198993.0 485024.0 0
202889.0 485717.0 0
206792.0 485040.0 0
210709.0 485658.0 0
214632.0 485064.0 0
218558.0 485675.0 0
222491.0 485117.0 0
226431.0 485650.0 0
230376.0 485157.0 0
234324.0 485652.0 0
238272.0 485176.0 0
242209.0 485755.0 0
246142.0 485177.0 0
250000.0 486137.0 0
253858.0 485177.0 0
257791.0 485755.0 0
261728.0 485176.0 0
265676.0 485652.0 0
269624.0 485157.0 0
273569.0 485650.0 0
277509.0 485117.0 0
281442.0 485675.0 0
285368.0 485064.0 0
289291.0 485658.0 0
293208.0 485040.0 0
297111.0 485717.0 0
301007.0 485024.0 0
304892.0 485745.0 0
308783.0 485084.0 0
312664.0 485821.0 0
316609.0 485708.0 0
320561.0 485950.0 0
324524.0 486189.0 0
328507.0 486285.0 0
332497.0 486367.0 0
336492.0 486460.0 0
340489.0 486579.0 0
344481.0 486696.0 0
348467.0 486810.0 0
352449.0 486932.0 0
356435.0 487066.0 0
360432.0 487214.0 0
365201.0 486774.0 0
369623.0 486611.0 0
373757.0 486597.0 0
378238.0 486211.0 0
382219.0 486078.0 0
386186.0 485911.0 0
390142.0 485710.0 0
394130.0 485672.0 0
398115.0 485859.0 0
100860.0 489705.0 0
104850.0 489534.0 0
108832.0 489561.0 0
112801.0 489755.0 0
116770.0 489917.0 0
120744.0 490051.0 0
124716.0 490256.0 0
128709.0 490218.0 0
132708.0 490170.0 0
136860.0 490153.0 0
145626.0 490424.0 0
149616.0 490307.0 0
153605.0 490198.0 0
157596.0 490083.0 0
161586.0 489967.0 0
165572.0 489862.0 0
169562.0 489775.0 0
173556.0 489679.0 0
177694.0 489538.0 0
181792.0 489360.0 0
185855.0 489534.0 0
189868.0 489290.0 0
193859.0 489535.0 0
197864.0 489294.0 0
201853.0 489571.0 0
205887.0 489299.0 0
209878.0 489561.0 0
213880.0 489305.0 0
217868.0 489599.0 0
221901.0 489308.0 0
225889.0 489597.0 0
229907.0 489311.0 0
233895.0 489610.0 0
237914.0 489311.0 0
241893.0 489707.0 0
246000.0 489314.0 0
250000.0 490034.0 0
254000.0 489314.0 0
258107.0 489707.0 0
262086.0 489311.0 0
266105.0 489610.0 0
270093.0 489311.0 0
274111.0 489597.0 0
278099.0 489308.0 0
282132.0 489599.0 0
286120.0 489305.0 0
290122.0 489561.0 0
294113.0 489299.0 0
298147.0 489571.0 0
302136.0 489294.0 0
306141.0 489535.0 0
310132.0 489290.0 0
314145.0 489534.0 0
318208.0 489360.0 0
322306.0 489538.0 0
326444.0 489679.0 0
330438.0 489775.0 0
334428.0 489862.0 0
338414.0 489967.0 0
342404.0 490083.0 0
346395.0 490198.0 0
350384.0 490307.0 0
354374.0 490424.0 0
363140.0 490153.0 0
367292.0 490170.0 0
371291.0 490218.0 0
375284.0 490256.0 0
379256.0 490051.0 0
383230.0 489917.0 0
387199.0 489755.0 0
391168.0 489561.0 0
395150.0 489534.0 0
399140.0 489705.0 0
141633.0 490550.0 0
358367.0 490550.0 0
102039.0 493518.0 0
106036.0 493452.0 0
110035.0 493440.0 0
114130.0 493515.0 0
118351.0 493575.0 0
122448.0 493656.0 0
126617.0 493752.0 0
130610.0 493729.0 0
134601.0 493693.0 0
138596.0 493758.0 0
143043.0 494224.0 0
147010.0 494125.0 0
150958.0 494037.0 0
154895.0 493961.0 0
158830.0 493866.0 0
162764.0 493771.0 0
166699.0 493682.0 0
170635.0 493608.0 0
174573.0 493517.0 0
178507.0 493451.0 0
182447.0 493299.0 0
186391.0 493498.0 0
190341.0 493261.0 0
194297.0 493505.0 0
198259.0 493274.0 0
202223.0 493547.0 0
206192.0 493286.0 0
210166.0 493542.0 0
214144.0 493296.0 0
218122.0 493576.0 0
222103.0 493303.0 0
226087.0 493577.0 0
230072.0 493308.0 0
234059.0 493589.0 0
238047.0 493313.0 0
242037.0 493670.0 0
246021.0 493314.0 0
250000.0 493942.0 0
253979.0 493314.0 0
257963.0 493670.0 0
261953.0 493313.0 0
265941.0 493589.0 0
269928.0 493308.0 0
273913.0 493577.0 0
277897.0 493303.0 0
281878.0 493576.0 0
285856.0 493296.0 0
289834.0 493542.0 0
293808.0 493286.0 0
297777.0 493547.0 0
301741.0 493274.0 0
305703.0 493505.0 0
309659.0 493261.0 0
313609.0 493498.0 0
317553.0 493299.0 0
321493.0 493451.0 0
325427.0 493517.0 0
329365.0 493608.0 0
333301.0 493682.0 0
337236.0 493771.0 0
341170.0 493866.0 0
345105.0 493961.0 0
349042.0 494037.0 0
352990.0 494125.0 0
356957.0 494224.0 0
361404.0 493758.0 0
365399.0 493693.0 0
369390.0 493729.0 0
373383.0 493752.0 0
377552.0 493656.0 0
381649.0 493575.0 0
385870.0 493515.0 0
389965.0 493440.0 0
393964.0 493452.0 0
397961.0 493518.0 0
101841.0 497506.0 0
105836.0 497449.0 0
109828.0 497436.0 0
113815.0 497493.0 0
117800.0 497524.0 0
121781.0 497591.0 0
125761.0 497644.0 0
129740.0 497628.0 0
133716.0 497594.0 0
137687.0 497664.0 0
141644.0 497919.0 0
145627.0 497839.0 0
149621.0 497781.0 0
153635.0 497743.0 0
157682.0 497683.0 0
161731.0 497624.0 0
165755.0 497556.0 0
169854.0 497516.0 0
173910.0 497440.0 0
177970.0 497411.0 0
181981.0 497312.0 0
185977.0 497472.0 0
189985.0 497313.0 0
193981.0 497483.0 0
197986.0 497313.0 0
201979.0 497529.0 0
205991.0 497314.0 0
209985.0 497527.0 0
213993.0 497314.0 0
217985.0 497558.0 0
221996.0 497314.0 0
225988.0 497561.0 0
229998.0 497314.0 0
233989.0 497571.0 0
237999.0 497314.0 0
241986.0 497636.0 0
246000.0 497314.0 0
250000.0 497861.0 0
254000.0 497314.0 0
258014.0 497636.0 0
262001.0 497314.0 0
266011.0 497571.0 0
270002.0 497314.0 0
274012.0 497561.0 0
278004.0 497314.0 0
282015.0 497558.0 0
286007.0 497314.0 0
290015.0 497527.0 0
294009.0 497314.0 0
298021.0 497529.0 0
302014.0 497313.0 0
306019.0 497483.0 0
310015.0 497313.0 0
314023.0 497472.0 0
318019.0 497312.0 0
322030.0 497411.0 0
326090.0 497440.0 0
330146.0 497516.0 0
334245.0 497556.0 0
338269.0 497624.0 0
342318.0 497683.0 0
346365.0 497743.0 0
350379.0 497781.0 0
354373.0 497839.0 0
358356.0 497919.0 0
362313.0 497664.0 0
366284.0 497594.0 0
370260.0 497628.0 0
374239.0 497644.0 0
378219.0 497591.0 0
382200.0 497524.0 0
386185.0 497493.0 0
390172.0 497436.0 0
394164.0 497449.0 0
398159.0 497506.0 0
102004.0 501497.0 0
106003.0 501445.0 0
110003.0 501433.0 0
114009.0 501479.0 0
118025.0 501505.0 0
122034.0 501572.0 0
126048.0 501619.0 0
130048.0 501609.0 0
134047.0 501578.0 0
138056.0 501647.0 0
142128.0 501843.0 0
146123.0 501775.0 0
150115.0 501727.0 0
154106.0 501701.0 0
158096.0 501648.0 0
162087.0 501596.0 0
166077.0 501529.0 0
170069.0 501496.0 0
174060.0 501420.0 0
178053.0 501406.0 0
182046.0 501312.0 0
186038.0 501466.0 0
190031.0 501312.0 0
194025.0 501474.0 0
198019.0 501313.0 0
202013.0 501519.0 0
206007.0 501314.0 0
210002.0 501517.0 0
214000.0 501314.0 0
218003.0 501543.0 0
222000.0 501314.0 0
226003.0 501545.0 0
230000.0 501314.0 0
234003.0 501553.0 0
238000.0 501314.0 0
242003.0 501605.0 0
246000.0 501314.0 0
250000.0 501789.0 0
254000.0 501314.0 0
257997.0 501605.0 0
262000.0 501314.0 0
265997.0 501553.0 0
270000.0 501314.0 0
273997.0 501545.0 0
278000.0 501314.0 0
281997.0 501543.0 0
286000.0 501314.0 0
289998.0 501517.0 0
293993.0 501314.0 0
297987.0 501519.0 0
301981.0 501313.0 0
305975.0 501474.0 0
309969.0 501312.0 0
313962.0 501466.0 0
317954.0 501312.0 0
321947.0 501406.0 0
325940.0 501420.0 0
329931.0 501496.0 0
333923.0 501529.0 0
337913.0 501596.0 0
341904.0 501648.0 0
345894.0 501701.0 0
349885.0 501727.0 0
353877.0 501775.0 0
357872.0 501843.0 0
361944.0 501647.0 0
365953.0 501578.0 0
369952.0 501609.0 0
373952.0 501619.0 0
377966.0 501572.0 0
381975.0 501505.0 0
385991.0 501479.0 0
389997.0 501433.0 0
393997.0 501445.0 0
397996.0 501497.0 0
101991.0 505492.0 0
105990.0 505445.0 0
109990.0 505432.0 0
113989.0 505470.0 0
117987.0 505492.0 0
121985.0 505560.0 0
125983.0 505604.0 0
129982.0 505599.0 0
133980.0 505572.0 0
137977.0 505643.0 0
141971.0 505797.0 0
145970.0 505741.0 0
149969.0 505700.0 0
153969.0 505683.0 0
157971.0 505631.0 0
161975.0 505581.0 0
165983.0 505514.0 0
169990.0 505481.0 0
173995.0 505406.0 0
177998.0 505401.0 0
182000.0 505314.0 0
185997.0 505460.0 0
190000.0 505314.0 0
193999.0 505466.0 0
198000.0 505314.0 0
201999.0 505508.0 0
206000.0 505314.0 0
210000.0 505506.0 0
214000.0 505314.0 0
218000.0 505529.0 0
222000.0 505314.0 0
226000.0 505531.0 0
230000.0 505314.0 0
234000.0 505535.0 0
238000.0 505314.0 0
242000.0 505575.0 0
246000.0 505314.0 0
250000.0 505726.0 0
254000.0 505314.0 0
258000.0 505575.0 0
262000.0 505314.0 0
266000.0 505535.0 0
270000.0 505314.0 0
274000.0 505531.0 0
278000.0 505314.0 0
282000.0 505529.0 0
286000.0 505314.0 0
290000.0 505506.0 0
294000.0 505314.0 0
298001.0 505508.0 0
302000.0 505314.0 0
306001.0 505466.0 0
310000.0 505314.0 0
314003.0 505460.0 0
318000.0 505314.0 0
322002.0 505401.0 0
326005.0 505406.0 0
330010.0 505481.0 0
334017.0 505514.0 0
338025.0 505581.0 0
342029.0 505631.0 0
346031.0 505683.0 0
350031.0 505700.0 0
354030.0 505741.0 0
358029.0 505797.0 0
362023.0 505643.0 0
366020.0 505572.0 0
370018.0 505599.0 0
374017.0 505604.0 0
378015.0 505560.0 0
382013.0 505492.0 0
386011.0 505470.0 0
390010.0 505432.0 0
394010.0 505445.0 0
398009.0 505492.0 0
102000.0 509488.0 0
106000.0 509444.0 0
110000.0 509432.0 0
114000.0 509463.0 0
118001.0 509480.0 0
122002.0 509548.0 0
126002.0 509590.0 0
130003.0 509589.0 0
134003.0 509565.0 0
138005.0 509638.0 0
142011.0 509757.0 0
146010.0 509710.0 0
150010.0 509675.0 0
154009.0 509665.0 0
158008.0 509615.0 0
162007.0 509567.0 0
166006.0 509499.0 0
170005.0 509468.0 0
174004.0 509394.0 0
178004.0 509397.0 0
182003.0 509314.0 0
186000.0 509454.0 0
190000.0 509314.0 0
194000.0 509458.0 0
198000.0 509314.0 0
202000.0 509498.0 0
206000.0 509314.0 0
210000.0 509496.0 0
214000.0 509314.0 0
218000.0 509515.0 0
222000.0 509314.0 0
226000.0 509516.0 0
230000.0 509314.0 0
234000.0 509518.0 0
238000.0 509314.0 0
242000.0 509547.0 0
246000.0 509314.0 0
250000.0 509670.0 0
254000.0 509314.0 0
258000.0 509547.0 0
262000.0 509314.0 0
266000.0 509518.0 0
270000.0 509314.0 0
274000.0 509516.0 0
278000.0 509314.0 0
282000.0 509515.0 0
286000.0 509314.0 0
290000.0 509496.0 0
294000.0 509314.0 0
298000.0 509498.0 0
302000.0 509314.0 0
306000.0 509458.0 0
310000.0 509314.0 0
314000.0 509454.0 0
317997.0 509314.0 0
321996.0 509397.0 0
325996.0 509394.0 0
329995.0 509468.0 0
333994.0 509499.0 0
337993.0 509567.0 0
341992.0 509615.0 0
345991.0 509665.0 0
349990.0 509675.0 0
353990.0 509710.0 0
357989.0 509757.0 0
361995.0 509638.0 0
365997.0 509565.0 0
369997.0 509589.0 0
373998.0 509590.0 0
377998.0 509548.0 0
381999.0 509480.0 0
386000.0 509463.0 0
390000.0 509432.0 0
394000.0 509444.0 0
398000.0 509488.0 0
102000.0 513484.0 0
106000.0 513443.0 0
110000.0 513431.0 0
114000.0 513457.0 0
118000.0 513468.0 0
121999.0 513536.0 0
165999.0 513485.0 0
170000.0 513457.0 0
174000.0 513385.0 0
178000.0 513392.0 0
182000.0 513314.0 0
186000.0 513447.0 0
190000.0 513314.0 0
194000.0 513450.0 0
198000.0 513314.0 0
202000.0 513488.0 0
206000.0 513314.0 0
210000.0 513485.0 0
214000.0 513314.0 0
218000.0 513502.0 0
222000.0 513314.0 0
226000.0 513502.0 0
230000.0 513314.0 0
234000.0 513500.0 0
238000.0 513314.0 0
242000.0 513522.0 0
246000.0 513314.0 0
250000.0 513622.0 0
254000.0 513314.0 0
258000.0 513522.0 0
262000.0 513314.0 0
266000.0 513500.0 0
270000.0 513314.0 0
274000.0 513502.0 0
278000.0 513314.0 0
282000.0 513502.0 0
286000.0 513314.0 0
290000.0 513485.0 0
294000.0 513314.0 0
298000.0 513488.0 0
302000.0 513314.0 0
306000.0 513450.0 0
310000.0 513314.0 0
314000.0 513447.0 0
318000.0 513314.0 0
322000.0 513392.0 0
326000.0 513385.0 0
330000.0 513457.0 0
334001.0 513485.0 0
378001.0 513536.0 0
382000.0 513468.0 0
386000.0 513457.0 0
390000.0 513431.0 0
394000.0 513443.0 0
398000.0 513484.0 0
125999.0 513576.0 0
129999.0 513578.0 0
133999.0 513557.0 0
137998.0 513631.0 0
141997.0 513720.0 0
145997.0 513681.0 0
149997.0 513651.0 0
153997.0 513647.0 0
157997.0 513598.0 0
161998.0 513553.0 0
338002.0 513553.0 0
342003.0 513598.0 0
346003.0 513647.0 0
350003.0 513651.0 0
354003.0 513681.0 0
358003.0 513720.0 0
362002.0 513631.0 0
366001.0 513557.0 0
370001.0 513578.0 0
374001.0 513576.0 0
102000.0 517480.0 0
106000.0 517442.0 0
110000.0 517429.0 0
114000.0 517451.0 0
118000.0 517458.0 0
122000.0 517524.0 0
126000.0 517562.0 0
130000.0 517567.0 0
134000.0 517548.0 0
138000.0 517623.0 0
142001.0 517687.0 0
146001.0 517653.0 0
150001.0 517628.0 0
154001.0 517629.0 0
158001.0 517581.0 0
162000.0 517538.0 0
166000.0 517471.0 0
170000.0 517446.0 0
174000.0 517377.0 0
178000.0 517388.0 0
182000.0 517314.0 0
186000.0 517440.0 0
190000.0 517314.0 0
194000.0 517442.0 0
198000.0 517314.0 0
202000.0 517478.0 0
206000.0 517314.0 0
210000.0 517475.0 0
214000.0 517314.0 0
218000.0 517488.0 0
222000.0 517314.0 0
226000.0 517488.0 0
230000.0 517314.0 0
234000.0 517484.0 0
238000.0 517314.0 0
242000.0 517499.0 0
246000.0 517314.0 0
250000.0 517579.0 0
254000.0 517314.0 0
258000.0 517499.0 0
262000.0 517314.0 0
266000.0 517484.0 0
270000.0 517314.0 0
274000.0 517488.0 0
278000.0 517314.0 0
282000.0 517488.0 0
286000.0 517314.0 0
290000.0 517475.0 0
294000.0 517314.0 0
298000.0 517478.0 0
302000.0 517314.0 0
306000.0 517442.0 0
310000.0 517314.0 0
314000.0 517440.0 0
318000.0 517314.0 0
322000.0 517388.0 0
326000.0 517377.0 0
330000.0 517446.0 0
334000.0 517471.0 0
338000.0 517538.0 0
341999.0 517581.0 0
345999.0 517629.0 0
349999.0 517628.0 0
353999.0 517653.0 0
357999.0 517687.0 0
362000.0 517623.0 0
366000.0 517548.0 0
370000.0 517567.0 0
374000.0 517562.0 0
378000.0 517524.0 0
382000.0 517458.0 0
386000.0 517451.0 0
390000.0 517429.0 0
394000.0 517442.0 0
398000.0 517480.0 0
182000.0 521314.0 0
190000.0 521314.0 0
198000.0 521314.0 0
206000.0 521314.0 0
214000.0 521314.0 0
222000.0 521314.0 0
230000.0 521314.0 0
238000.0 521314.0 0
246000.0 521314.0 0
254000.0 521314.0 0
262000.0 521314.0 0
270000.0 521314.0 0
278000.0 521314.0 0
286000.0 521314.0 0
294000.0 521314.0 0
302000.0 521314.0 0
310000.0 521314.0 0
318000.0 521314.0 0
102000.0 521476.0 0
106000.0 521441.0 0
110000.0 521428.0 0
114000.0 521447.0 0
118000.0 521449.0 0
122000.0 521514.0 0
126000.0 521549.0 0
130000.0 521556.0 0
134000.0 521538.0 0
138000.0 521613.0 0
142000.0 521657.0 0
146000.0 521628.0 0
150000.0 521606.0 0
154000.0 521610.0 0
158000.0 521564.0 0
162000.0 521524.0 0
166000.0 521458.0 0
170000.0 521436.0 0
174000.0 521370.0 0
178000.0 521384.0 0
186000.0 521433.0 0
194000.0 521435.0 0
202000.0 521468.0 0
210000.0 521465.0 0
218000.0 521476.0 0
226000.0 521475.0 0
234000.0 521468.0 0
242000.0 521477.0 0
250000.0 521542.0 0
258000.0 521477.0 0
266000.0 521468.0 0
274000.0 521475.0 0
282000.0 521476.0 0
290000.0 521465.0 0
298000.0 521468.0 0
306000.0 521435.0 0
314000.0 521433.0 0
322000.0 521384.0 0
326000.0 521370.0 0
330000.0 521436.0 0
334000.0 521458.0 0
338000.0 521524.0 0
342000.0 521564.0 0
346000.0 521610.0 0
350000.0 521606.0 0
354000.0 521628.0 0
358000.0 521657.0 0
362000.0 521613.0 0
366000.0 521538.0 0
370000.0 521556.0 0
374000.0 521549.0 0
378000.0 521514.0 0
382000.0 521449.0 0
386000.0 521447.0 0
390000.0 521428.0 0
394000.0 521441.0 0
398000.0 521476.0 0
102000.0 525472.0 0
106000.0 525440.0 0
110000.0 525427.0 0
114000.0 525442.0 0
118000.0 525440.0 0
122000.0 525504.0 0
126000.0 525537.0 0
130000.0 525545.0 0
134000.0 525528.0 0
138000.0 525603.0 0
142000.0 525630.0 0
146000.0 525604.0 0
150000.0 525585.0 0
154000.0 525593.0 0
158000.0 525547.0 0
162000.0 525511.0 0
166000.0 525446.0 0
170000.0 525427.0 0
174000.0 525364.0 0
178000.0 525381.0 0
182000.0 525314.0 0
186000.0 525427.0 0
190000.0 525314.0 0
194000.0 525428.0 0
198000.0 525314.0 0
202000.0 525459.0 0
206000.0 525314.0 0
210000.0 525455.0 0
214000.0 525314.0 0
218000.0 525464.0 0
222000.0 525314.0 0
226000.0 525462.0 0
230000.0 525314.0 0
234000.0 525453.0 0
238000.0 525314.0 0
242000.0 525458.0 0
246000.0 525314.0 0
250000.0 525509.0 0
254000.0 525314.0 0
258000.0 525458.0 0
262000.0 525314.0 0
266000.0 525453.0 0
270000.0 525314.0 0
274000.0 525462.0 0
278000.0 525314.0 0
282000.0 525464.0 0
286000.0 525314.0 0
290000.0 525455.0 0
294000.0 525314.0 0
298000.0 525459.0 0
302000.0 525314.0 0
306000.0 525428.0 0
310000.0 525314.0 0
314000.0 525427.0 0
318000.0 525314.0 0
322000.0 525381.0 0
326000.0 525364.0 0
330000.0 525427.0 0
334000.0 525446.0 0
338000.0 525511.0 0
342000.0 525547.0 0
346000.0 525593.0 0
350000.0 525585.0 0
354000.0 525604.0 0
358000.0 525630.0 0
362000.0 525603.0 0
366000.0 525528.0 0
370000.0 525545.0 0
374000.0 525537.0 0
378000.0 525504.0 0
382000.0 525440.0 0
386000.0 525442.0 0
390000.0 525427.0 0
394000.0 525440.0 0
398000.0 525472.0 0
102000.0 529468.0 0
106000.0 529438.0 0
110000.0 529425.0 0
114000.0 529438.0 0
118000.0 529433.0 0
122000.0 529494.0 0
126000.0 529526.0 0
130000.0 529535.0 0
134000.0 529518.0 0
138000.0 529592.0 0
142000.0 529605.0 0
146000.0 529583.0 0
150000.0 529566.0 0
154000.0 529575.0 0
158000.0 529531.0 0
162000.0 529498.0 0
166000.0 529435.0 0
170000.0 529419.0 0
174000.0 529359.0 0
178000.0 529377.0 0
182000.0 529314.0 0
186000.0 529420.0 0
190000.0 529314.0 0
194000.0 529421.0 0
198000.0 529314.0 0
202000.0 529450.0 0
206000.0 529314.0 0
210000.0 529445.0 0
214000.0 529314.0 0
218000.0 529452.0 0
222000.0 529314.0 0
226000.0 529449.0 0
230000.0 529314.0 0
234000.0 529439.0 0
238000.0 529314.0 0
242000.0 529441.0 0
246000.0 529314.0 0
250000.0 529481.0 0
254000.0 529314.0 0
258000.0 529441.0 0
262000.0 529314.0 0
266000.0 529439.0 0
270000.0 529314.0 0
274000.0 529449.0 0
278000.0 529314.0 0
282000.0 529452.0 0
286000.0 529314.0 0
290000.0 529445.0 0
294000.0 529314.0 0
298000.0 529450.0 0
302000.0 529314.0 0
306000.0 529421.0 0
310000.0 529314.0 0
314000.0 529420.0 0
318000.0 529314.0 0
322000.0 529377.0 0
326000.0 529359.0 0
330000.0 529419.0 0
334000.0 529435.0 0
338000.0 529498.0 0
342000.0 529531.0 0
346000.0 529575.0 0
350000.0 529566.0 0
354000.0 529583.0 0
358000.0 529605.0 0
362000.0 529592.0 0
366000.0 529518.0 0
370000.0 529535.0 0
374000.0 529526.0 0
378000.0 529494.0 0
382000.0 529433.0 0
386000.0 529438.0 0
390000.0 529425.0 0
394000.0 529438.0 0
398000.0 529468.0 0
102000.0 533464.0 0
106000.0 533436.0 0
110000.0 533423.0 0
114000.0 533435.0 0
118000.0 533426.0 0
122000.0 533486.0 0
126000.0 533515.0 0
130000.0 533525.0 0
134000.0 533508.0 0
138000.0 533581.0 0
142000.0 533584.0 0
146000.0 533563.0 0
150000.0 533548.0 0
154000.0 533559.0 0
158000.0 533516.0 0
162000.0 533485.0 0
166000.0 533424.0 0
170000.0 533411.0 0
174000.0 533354.0 0
178000.0 533375.0 0
182000.0 533314.0 0
186000.0 533414.0 0
190000.0 533314.0 0
194000.0 533415.0 0
198000.0 533314.0 0
202000.0 533441.0 0
206000.0 533314.0 0
210000.0 533436.0 0
214000.0 533314.0 0
218000.0 533441.0 0
222000.0 533314.0 0
226000.0 533437.0 0
230000.0 533314.0 0
234000.0 533425.0 0
238000.0 533314.0 0
242000.0 533425.0 0
246000.0 533314.0 0
250000.0 533457.0 0
254000.0 533314.0 0
258000.0 533425.0 0
262000.0 533314.0 0
266000.0 533425.0 0
270000.0 533314.0 0
274000.0 533437.0 0
278000.0 533314.0 0
282000.0 533441.0 0
286000.0 533314.0 0
290000.0 533436.0 0
294000.0 533314.0 0
298000.0 533441.0 0
302000.0 533314.0 0
306000.0 533415.0 0
310000.0 533314.0 0
314000.0 533414.0 0
318000.0 533314.0 0
322000.0 533375.0 0
326000.0 533354.0 0
330000.0 533411.0 0
334000.0 533424.0 0
338000.0 533485.0 0
342000.0 533516.0 0
346000.0 533559.0 0
350000.0 533548.0 0
354000.0 533563.0 0
358000.0 533584.0 0
362000.0 533581.0 0
366000.0 533508.0 0
370000.0 533525.0 0
374000.0 533515.0 0
378000.0 533486.0 0
382000.0 533426.0 0
386000.0 533435.0 0
390000.0 533423.0 0
394000.0 533436.0 0
398000.0 533464.0 0
102000.0 537459.0 0
106000.0 537435.0 0
110000.0 537421.0 0
114000.0 537431.0 0
118000.0 537420.0 0
122000.0 537478.0 0
126000.0 537505.0 0
130000.0 537516.0 0
134000.0 537499.0 0
138000.0 537570.0 0
142000.0 537564.0 0
146000.0 537546.0 0
150000.0 537531.0 0
154000.0 537543.0 0
158000.0 537501.0 0
162000.0 537474.0 0
166000.0 537415.0 0
170000.0 537405.0 0
174000.0 537350.0 0
178000.0 537372.0 0
182000.0 537314.0 0
186000.0 537408.0 0
190000.0 537314.0 0
194000.0 537409.0 0
198000.0 537314.0 0
202000.0 537432.0 0
206000.0 537314.0 0
210000.0 537427.0 0
214000.0 537314.0 0
218000.0 537431.0 0
222000.0 537314.0 0
226000.0 537426.0 0
230000.0 537314.0 0
234000.0 537413.0 0
238000.0 537314.0 0
242000.0 537411.0 0
246000.0 537314.0 0
250000.0 537436.0 0
254000.0 537314.0 0
258000.0 537411.0 0
262000.0 537314.0 0
266000.0 537413.0 0
270000.0 537314.0 0
274000.0 537426.0 0
278000.0 537314.0 0
282000.0 537431.0 0
286000.0 537314.0 0
290000.0 537427.0 0
294000.0 537314.0 0
298000.0 537432.0 0
302000.0 537314.0 0
306000.0 537409.0 0
310000.0 537314.0 0
314000.0 537408.0 0
318000.0 537314.0 0
322000.0 537372.0 0
326000.0 537350.0 0
330000.0 537405.0 0
334000.0 537415.0 0
338000.0 537474.0 0
342000.0 537501.0 0
346000.0 537543.0 0
350000.0 537531.0 0
354000.0 537546.0 0
358000.0 537564.0 0
362000.0 537570.0 0
366000.0 537499.0 0
370000.0 537516.0 0
374000.0 537505.0 0
378000.0 537478.0 0
382000.0 537420.0 0
386000.0 537431.0 0
390000.0 537421.0 0
394000.0 537435.0 0
398000.0 537459.0 0
102000.0 541455.0 0
106000.0 541433.0 0
110000.0 541419.0 0
114000.0 541428.0 0
118000.0 541415.0 0
122000.0 541471.0 0
126000.0 541496.0 0
130000.0 541507.0 0
134000.0 541490.0 0
138000.0 541559.0 0
142000.0 541547.0 0
146000.0 541530.0 0
150000.0 541515.0 0
154000.0 541528.0 0
158000.0 541487.0 0
162000.0 541462.0 0
166000.0 541406.0 0
170000.0 541398.0 0
174000.0 541346.0 0
178000.0 541369.0 0
182000.0 541314.0 0
186000.0 541402.0 0
190000.0 541314.0 0
194000.0 541403.0 0
198000.0 541314.0 0
202000.0 541424.0 0
206000.0 541314.0 0
210000.0 541419.0 0
214000.0 541314.0 0
218000.0 541421.0 0
222000.0 541314.0 0
226000.0 541415.0 0
230000.0 541314.0 0
234000.0 541402.0 0
238000.0 541314.0 0
242000.0 541399.0 0
246000.0 541314.0 0
250000.0 541418.0 0
254000.0 541314.0 0
258000.0 541399.0 0
262000.0 541314.0 0
266000.0 541402.0 0
270000.0 541314.0 0
274000.0 541415.0 0
278000.0 541314.0 0
282000.0 541421.0 0
286000.0 541314.0 0
290000.0 541419.0 0
294000.0 541314.0 0
298000.0 541424.0 0
302000.0 541314.0 0
306000.0 541403.0 0
310000.0 541314.0 0
314000.0 541402.0 0
318000.0 541314.0 0
322000.0 541369.0 0
326000.0 541346.0 0
330000.0 541398.0 0
334000.0 541406.0 0
338000.0 541462.0 0
342000.0 541487.0 0
346000.0 541528.0 0
350000.0 541515.0 0
354000.0 541530.0 0
358000.0 541547.0 0
362000.0 541559.0 0
366000.0 541490.0 0
370000.0 541507.0 0
374000.0 541496.0 0
378000.0 541471.0 0
382000.0 541415.0 0
386000.0 541428.0 0
390000.0 541419.0 0
394000.0 541433.0 0
398000.0 541455.0 0
102000.0 545451.0 0
106000.0 545431.0 0
110000.0 545417.0 0
114000.0 545424.0 0
118000.0 545410.0 0
122000.0 545464.0 0
126000.0 545488.0 0
130000.0 545499.0 0
134000.0 545482.0 0
138000.0 545548.0 0
142000.0 545532.0 0
146000.0 545515.0 0
150000.0 545501.0 0
154000.0 545513.0 0
158000.0 545474.0 0
162000.0 545452.0 0
166000.0 545398.0 0
170000.0 545392.0 0
174000.0 545343.0 0
178000.0 545367.0 0
182000.0 545314.0 0
186000.0 545397.0 0
190000.0 545314.0 0
194000.0 545398.0 0
198000.0 545314.0 0
202000.0 545416.0 0
206000.0 545314.0 0
210000.0 545411.0 0
214000.0 545314.0 0
218000.0 545412.0 0
222000.0 545314.0 0
226000.0 545405.0 0
230000.0 545314.0 0
234000.0 545391.0 0
238000.0 545314.0 0
242000.0 545388.0 0
246000.0 545314.0 0
250000.0 545403.0 0
254000.0 545314.0 0
258000.0 545388.0 0
262000.0 545314.0 0
266000.0 545391.0 0
270000.0 545314.0 0
274000.0 545405.0 0
278000.0 545314.0 0
282000.0 545412.0 0
286000.0 545314.0 0
290000.0 545411.0 0
294000.0 545314.0 0
298000.0 545416.0 0
302000.0 545314.0 0
306000.0 545398.0 0
310000.0 545314.0 0
314000.0 545397.0 0
318000.0 545314.0 0
322000.0 545367.0 0
326000.0 545343.0 0
330000.0 545392.0 0
334000.0 545398.0 0
338000.0 545452.0 0
342000.0 545474.0 0
346000.0 545513.0 0
350000.0 545501.0 0
354000.0 545515.0 0
358000.0 545532.0 0
362000.0 545548.0 0
366000.0 545482.0 0
370000.0 545499.0 0
374000.0 545488.0 0
378000.0 545464.0 0
382000.0 545410.0 0
386000.0 545424.0 0
390000.0 545417.0 0
394000.0 545431.0 0
398000.0 545451.0 0
102000.0 549447.0 0
106000.0 549429.0 0
110000.0 549415.0 0
114000.0 549421.0 0
118000.0 549405.0 0
122000.0 549458.0 0
126000.0 549481.0 0
130000.0 549492.0 0
134000.0 549474.0 0
138000.0 549538.0 0
142000.0 549518.0 0
146000.0 549502.0 0
150000.0 549488.0 0
154000.0 549500.0 0
158000.0 549461.0 0
162000.0 549442.0 0
166000.0 549390.0 0
170000.0 549387.0 0
174000.0 549340.0 0
178000.0 549364.0 0
182000.0 549314.0 0
186000.0 549392.0 0
190000.0 549314.0 0
194000.0 549392.0 0
198000.0 549314.0 0
202000.0 549409.0 0
206000.0 549314.0 0
210000.0 549403.0 0
214000.0 549314.0 0
218000.0 549403.0 0
222000.0 549314.0 0
226000.0 549396.0 0
230000.0 549314.0 0
234000.0 549382.0 0
238000.0 549314.0 0
242000.0 549378.0 0
246000.0 549314.0 0
250000.0 549389.0 0
254000.0 549314.0 0
258000.0 549378.0 0
262000.0 549314.0 0
266000.0 549382.0 0
270000.0 549314.0 0
274000.0 549396.0 0
278000.0 549314.0 0
282000.0 549403.0 0
286000.0 549314.0 0
290000.0 549403.0 0
294000.0 549314.0 0
298000.0 549409.0 0
302000.0 549314.0 0
306000.0 549392.0 0
310000.0 549314.0 0
314000.0 549392.0 0
318000.0 549314.0 0
322000.0 549364.0 0
326000.0 549340.0 0
330000.0 549387.0 0
334000.0 549390.0 0
338000.0 549442.0 0
342000.0 549461.0 0
346000.0 549500.0 0
350000.0 549488.0 0
354000.0 549502.0 0
358000.0 549518.0 0
362000.0 549538.0 0
366000.0 549474.0 0
370000.0 549492.0 0
374000.0 549481.0 0
378000.0 549458.0 0
382000.0 549405.0 0
386000.0 549421.0 0
390000.0 549415.0 0
394000.0 549429.0 0
398000.0 549447.0 0
102000.0 553443.0 0
106000.0 553427.0 0
110000.0 553413.0 0
114000.0 553417.0 0
118000.0 553401.0 0
122000.0 553452.0 0
126000.0 553474.0 0
130000.0 553485.0 0
134000.0 553467.0 0
138000.0 553528.0 0
142000.0 553505.0 0
146000.0 553490.0 0
150000.0 553475.0 0
154000.0 553487.0 0
158000.0 553449.0 0
162000.0 553433.0 0
166000.0 553383.0 0
170000.0 553382.0 0
174000.0 553337.0 0
178000.0 553362.0 0
182000.0 553314.0 0
186000.0 553387.0 0
190000.0 553314.0 0
194000.0 553387.0 0
198000.0 553314.0 0
202000.0 553402.0 0
206000.0 553314.0 0
210000.0 553396.0 0
214000.0 553314.0 0
218000.0 553395.0 0
222000.0 553314.0 0
226000.0 553387.0 0
230000.0 553314.0 0
234000.0 553374.0 0
238000.0 553314.0 0
242000.0 553369.0 0
246000.0 553314.0 0
250000.0 553378.0 0
254000.0 553314.0 0
258000.0 553369.0 0
262000.0 553314.0 0
266000.0 553374.0 0
270000.0 553314.0 0
274000.0 553387.0 0
278000.0 553314.0 0
282000.0 553395.0 0
286000.0 553314.0 0
290000.0 553396.0 0
294000.0 553314.0 0
298000.0 553402.0 0
302000.0 553314.0 0
306000.0 553387.0 0
310000.0 553314.0 0
314000.0 553387.0 0
318000.0 553314.0 0
322000.0 553362.0 0
326000.0 553337.0 0
330000.0 553382.0 0
334000.0 553383.0 0
338000.0 553433.0 0
342000.0 553449.0 0
346000.0 553487.0 0
350000.0 553475.0 0
354000.0 553490.0 0
358000.0 553505.0 0
362000.0 553528.0 0
366000.0 553467.0 0
370000.0 553485.0 0
374000.0 553474.0 0
378000.0 553452.0 0
382000.0 553401.0 0
386000.0 553417.0 0
390000.0 553413.0 0
394000.0 553427.0 0
398000.0 553443.0 0
102000.0 557440.0 0
106000.0 557425.0 0
110000.0 557411.0 0
114000.0 557414.0 0
118000.0 557397.0 0
122000.0 557447.0 0
126000.0 557467.0 0
130000.0 557479.0 0
134000.0 557461.0 0
138000.0 557519.0 0
142000.0 557494.0 0
146000.0 557480.0 0
150000.0 557464.0 0
154000.0 557475.0 0
158000.0 557438.0 0
162000.0 557424.0 0
166000.0 557377.0 0
170000.0 557377.0 0
174000.0 557334.0 0
178000.0 557360.0 0
182000.0 557314.0 0
186000.0 557382.0 0
190000.0 557314.0 0
194000.0 557383.0 0
198000.0 557314.0 0
202000.0 557395.0 0
206000.0 557314.0 0
210000.0 557389.0 0
214000.0 557314.0 0
218000.0 557387.0 0
222000.0 557314.0 0
226000.0 557379.0 0
230000.0 557314.0 0
234000.0 557366.0 0
238000.0 557314.0 0
242000.0 557362.0 0
246000.0 557314.0 0
250000.0 557368.0 0
254000.0 557314.0 0
258000.0 557362.0 0
262000.0 557314.0 0
266000.0 557366.0 0
270000.0 557314.0 0
274000.0 557379.0 0
278000.0 557314.0 0
282000.0 557387.0 0
286000.0 557314.0 0
290000.0 557389.0 0
294000.0 557314.0 0
298000.0 557395.0 0
302000.0 557314.0 0
306000.0 557383.0 0
310000.0 557314.0 0
314000.0 557382.0 0
318000.0 557314.0 0
322000.0 557360.0 0
326000.0 557334.0 0
330000.0 557377.0 0
334000.0 557377.0 0
338000.0 557424.0 0
342000.0 557438.0 0
346000.0 557475.0 0
350000.0 557464.0 0
354000.0 557480.0 0
358000.0 557494.0 0
362000.0 557519.0 0
366000.0 557461.0 0
370000.0 557479.0 0
374000.0 557467.0 0
378000.0 557447.0 0
382000.0 557397.0 0
386000.0 557414.0 0
390000.0 557411.0 0
394000.0 557425.0 0
398000.0 557440.0 0
102000.0 561436.0 0
106000.0 561423.0 0
110000.0 561409.0 0
114000.0 561411.0 0
118000.0 561393.0 0
122000.0 561442.0 0
126000.0 561461.0 0
130000.0 561473.0 0
134000.0 561455.0 0
138000.0 561511.0 0
142000.0 561483.0 0
146000.0 561470.0 0
150000.0 561454.0 0
154000.0 561464.0 0
158000.0 561428.0 0
162000.0 561416.0 0
166000.0 561371.0 0
170000.0 561373.0 0
174000.0 561332.0 0
178000.0 561358.0 0
182000.0 561314.0 0
186000.0 561378.0 0
190000.0 561314.0 0
194000.0 561378.0 0
198000.0 561314.0 0
202000.0 561389.0 0
206000.0 561314.0 0
210000.0 561383.0 0
214000.0 561314.0 0
218000.0 561381.0 0
222000.0 561314.0 0
226000.0 561372.0 0
230000.0 561314.0 0
234000.0 561359.0 0
238000.0 561314.0 0
242000.0 561355.0 0
246000.0 561314.0 0
250000.0 561360.0 0
254000.0 561314.0 0
258000.0 561355.0 0
262000.0 561314.0 0
266000.0 561359.0 0
270000.0 561314.0 0
274000.0 561372.0 0
278000.0 561314.0 0
282000.0 561381.0 0
286000.0 561314.0 0
290000.0 561383.0 0
294000.0 561314.0 0
298000.0 561389.0 0
302000.0 561314.0 0
306000.0 561378.0 0
310000.0 561314.0 0
314000.0 561378.0 0
318000.0 561314.0 0
322000.0 561358.0 0
326000.0 561332.0 0
330000.0 561373.0 0
334000.0 561371.0 0
338000.0 561416.0 0
342000.0 561428.0 0
346000.0 561464.0 0
350000.0 561454.0 0
354000.0 561470.0 0
358000.0 561483.0 0
362000.0 561511.0 0
366000.0 561455.0 0
370000.0 561473.0 0
374000.0 561461.0 0
378000.0 561442.0 0
382000.0 561393.0 0
386000.0 561411.0 0
390000.0 561409.0 0
394000.0 561423.0 0
398000.0 561436.0 0
102000.0 565433.0 0
106000.0 565421.0 0
110000.0 565407.0 0
114000.0 565408.0 0
118000.0 565389.0 0
122000.0 565437.0 0
126000.0 565456.0 0
130000.0 565468.0 0
134000.0 565449.0 0
138000.0 565503.0 0
142000.0 565474.0 0
146000.0 565461.0 0
150000.0 565444.0 0
154000.0 565453.0 0
158000.0 565418.0 0
162000.0 565409.0 0
166000.0 565366.0 0
170000.0 565369.0 0
174000.0 565330.0 0
178000.0 565356.0 0
182000.0 565314.0 0
186000.0 565374.0 0
190000.0 565314.0 0
194000.0 565374.0 0
198000.0 565314.0 0
202000.0 565383.0 0
206000.0 565314.0 0
210000.0 565377.0 0
214000.0 565314.0 0
218000.0 565374.0 0
222000.0 565314.0 0
226000.0 565366.0 0
230000.0 565314.0 0
234000.0 565353.0 0
238000.0 565314.0 0
242000.0 565349.0 0
246000.0 565314.0 0
250000.0 565353.0 0
254000.0 565314.0 0
258000.0 565349.0 0
262000.0 565314.0 0
266000.0 565353.0 0
270000.0 565314.0 0
274000.0 565366.0 0
278000.0 565314.0 0
282000.0 565374.0 0
286000.0 565314.0 0
290000.0 565377.0 0
294000.0 565314.0 0
298000.0 565383.0 0
302000.0 565314.0 0
306000.0 565374.0 0
310000.0 565314.0 0
314000.0 565374.0 0
318000.0 565314.0 0
322000.0 565356.0 0
326000.0 565330.0 0
330000.0 565369.0 0
334000.0 565366.0 0
338000.0 565409.0 0
342000.0 565418.0 0
346000.0 565453.0 0
350000.0 565444.0 0
354000.0 565461.0 0
358000.0 565474.0 0
362000.0 565503.0 0
366000.0 565449.0 0
370000.0 565468.0 0
374000.0 565456.0 0
378000.0 565437.0 0
382000.0 565389.0 0
386000.0 565408.0 0
390000.0 565407.0 0
394000.0 565421.0 0
398000.0 565433.0 0
102000.0 569431.0 0
106000.0 569420.0 0
110000.0 569406.0 0
114000.0 569405.0 0
118000.0 569386.0 0
122000.0 569433.0 0
126000.0 569451.0 0
130000.0 569464.0 0
134000.0 569444.0 0
138000.0 569495.0 0
142000.0 569465.0 0
146000.0 569453.0 0
150000.0 569435.0 0
154000.0 569443.0 0
158000.0 569409.0 0
162000.0 569402.0 0
166000.0 569361.0 0
170000.0 569365.0 0
174000.0 569328.0 0
178000.0 569354.0 0
182000.0 569314.0 0
186000.0 569370.0 0
190000.0 569314.0 0
194000.0 569371.0 0
198000.0 569314.0 0
202000.0 569378.0 0
206000.0 569314.0 0
210000.0 569372.0 0
214000.0 569314.0 0
218000.0 569368.0 0
222000.0 569314.0 0
226000.0 569360.0 0
230000.0 569314.0 0
234000.0 569348.0 0
238000.0 569314.0 0
242000.0 569344.0 0
246000.0 569314.0 0
250000.0 569347.0 0
254000.0 569314.0 0
258000.0 569344.0 0
262000.0 569314.0 0
266000.0 569348.0 0
270000.0 569314.0 0
274000.0 569360.0 0
278000.0 569314.0 0
282000.0 569368.0 0
286000.0 569314.0 0
290000.0 569372.0 0
294000.0 569314.0 0
298000.0 569378.0 0
302000.0 569314.0 0
306000.0 569371.0 0
310000.0 569314.0 0
314000.0 569370.0 0
318000.0 569314.0 0
322000.0 569354.0 0
326000.0 569328.0 0
330000.0 569365.0 0
334000.0 569361.0 0
338000.0 569402.0 0
342000.0 569409.0 0
346000.0 569443.0 0
350000.0 569435.0 0
354000.0 569453.0 0
358000.0 569465.0 0
362000.0 569495.0 0
366000.0 569444.0 0
370000.0 569464.0 0
374000.0 569451.0 0
378000.0 569433.0 0
382000.0 569386.0 0
386000.0 569405.0 0
390000.0 569406.0 0
394000.0 569420.0 0
398000.0 569431.0 0
110000.0 573404.0 0
114000.0 573402.0 0
118000.0 573383.0 0
158000.0 573401.0 0
162000.0 573395.0 0
166000.0 573356.0 0
170000.0 573362.0 0
174000.0 573326.0 0
178000.0 573352.0 0
182000.0 573314.0 0
186000.0 573367.0 0
190000.0 573314.0 0
194000.0 573367.0 0
198000.0 573314.0 0
202000.0 573373.0 0
206000.0 573314.0 0
210000.0 573367.0 0
214000.0 573314.0 0
218000.0 573363.0 0
222000.0 573314.0 0
226000.0 573354.0 0
230000.0 573314.0 0
234000.0 573343.0 0
238000.0 573314.0 0
242000.0 573340.0 0
246000.0 573314.0 0
250000.0 573342.0 0
254000.0 573314.0 0
258000.0 573340.0 0
262000.0 573314.0 0
266000.0 573343.0 0
270000.0 573314.0 0
274000.0 573354.0 0
278000.0 573314.0 0
282000.0 573363.0 0
286000.0 573314.0 0
290000.0 573367.0 0
294000.0 573314.0 0
298000.0 573373.0 0
302000.0 573314.0 0
306000.0 573367.0 0
310000.0 573314.0 0
314000.0 573367.0 0
318000.0 573314.0 0
322000.0 573352.0 0
326000.0 573326.0 0
330000.0 573362.0 0
334000.0 573356.0 0
338000.0 573395.0 0
342000.0 573401.0 0
382000.0 573383.0 0
386000.0 573402.0 0
390000.0 573404.0 0
102000.0 573428.0 0
106000.0 573418.0 0
122000.0 573429.0 0
126000.0 573446.0 0
130000.0 573460.0 0
134000.0 573439.0 0
138000.0 573489.0 0
142000.0 573458.0 0
146000.0 573446.0 0
150000.0 573427.0 0
154000.0 573434.0 0
346000.0 573434.0 0
350000.0 573427.0 0
354000.0 573446.0 0
358000.0 573458.0 0
362000.0 573489.0 0
366000.0 573439.0 0
370000.0 573460.0 0
374000.0 573446.0 0
378000.0 573429.0 0
394000.0 573418.0 0
398000.0 573428.0 0
102000.0 577426.0 0
106000.0 577417.0 0
110000.0 577403.0 0
114000.0 577400.0 0
118000.0 577380.0 0
122000.0 577426.0 0
126000.0 577442.0 0
130000.0 577456.0 0
134000.0 577435.0 0
138000.0 577482.0 0
142000.0 577451.0 0
146000.0 577439.0 0
150000.0 577420.0 0
154000.0 577426.0 0
158000.0 577393.0 0
162000.0 577390.0 0
166000.0 577352.0 0
170000.0 577359.0 0
174000.0 577325.0 0
178000.0 577351.0 0
182000.0 577314.0 0
186000.0 577364.0 0
190000.0 577314.0 0
194000.0 577364.0 0
198000.0 577314.0 0
202000.0 577369.0 0
206000.0 577314.0 0
210000.0 577363.0 0
214000.0 577314.0 0
218000.0 577358.0 0
222000.0 577314.0 0
226000.0 577350.0 0
230000.0 577314.0 0
234000.0 577339.0 0
238000.0 577314.0 0
242000.0 577336.0 0
246000.0 577314.0 0
250000.0 577338.0 0
254000.0 577314.0 0
258000.0 577336.0 0
262000.0 577314.0 0
266000.0 577339.0 0
270000.0 577314.0 0
274000.0 577350.0 0
278000.0 577314.0 0
282000.0 577358.0 0
286000.0 577314.0 0
290000.0 577363.0 0
294000.0 577314.0 0
298000.0 577369.0 0
302000.0 577314.0 0
306000.0 577364.0 0
310000.0 577314.0 0
314000.0 577364.0 0
318000.0 577314.0 0
322000.0 577351.0 0
326000.0 577325.0 0
330000.0 577359.0 0
334000.0 577352.0 0
338000.0 577390.0 0
342000.0 577393.0 0
346000.0 577426.0 0
350000.0 577420.0 0
354000.0 577439.0 0
358000.0 577451.0 0
362000.0 577482.0 0
366000.0 577435.0 0
370000.0 577456.0 0
374000.0 577442.0 0
378000.0 577426.0 0
382000.0 577380.0 0
386000.0 577400.0 0
390000.0 577403.0 0
394000.0 577417.0 0
398000.0 577426.0 0
102000.0 581424.0 0
106000.0 581415.0 0
110000.0 581401.0 0
114000.0 581398.0 0
118000.0 581378.0 0
122000.0 581422.0 0
126000.0 581438.0 0
130000.0 581452.0 0
134000.0 581431.0 0
138000.0 581477.0 0
142000.0 581444.0 0
146000.0 581433.0 0
150000.0 581413.0 0
154000.0 581419.0 0
158000.0 581387.0 0
162000.0 581384.0 0
166000.0 581348.0 0
170000.0 581356.0 0
174000.0 581324.0 0
178000.0 581349.0 0
182000.0 581314.0 0
186000.0 581361.0 0
190000.0 581314.0 0
194000.0 581361.0 0
198000.0 581314.0 0
202000.0 581365.0 0
206000.0 581314.0 0
210000.0 581359.0 0
214000.0 581314.0 0
218000.0 581354.0 0
222000.0 581314.0 0
226000.0 581346.0 0
230000.0 581314.0 0
234000.0 581336.0 0
238000.0 581314.0 0
242000.0 581333.0 0
246000.0 581314.0 0
250000.0 581334.0 0
254000.0 581314.0 0
258000.0 581333.0 0
262000.0 581314.0 0
266000.0 581336.0 0
270000.0 581314.0 0
274000.0 581346.0 0
278000.0 581314.0 0
282000.0 581354.0 0
286000.0 581314.0 0
290000.0 581359.0 0
294000.0 581314.0 0
298000.0 581365.0 0
302000.0 581314.0 0
306000.0 581361.0 0
310000.0 581314.0 0
314000.0 581361.0 0
318000.0 581314.0 0
322000.0 581349.0 0
326000.0 581324.0 0
330000.0 581356.0 0
334000.0 581348.0 0
338000.0 581384.0 0
342000.0 581387.0 0
346000.0 581419.0 0
350000.0 581413.0 0
354000.0 581433.0 0
358000.0 581444.0 0
362000.0 581477.0 0
366000.0 581431.0 0
370000.0 581452.0 0
374000.0 581438.0 0
378000.0 581422.0 0
382000.0 581378.0 0
386000.0 581398.0 0
390000.0 581401.0 0
394000.0 581415.0 0
398000.0 581424.0 0
102000.0 585422.0 0
106000.0 585414.0 0
110000.0 585400.0 0
114000.0 585395.0 0
118000.0 585376.0 0
122000.0 585420.0 0
126000.0 585435.0 0
130000.0 585449.0 0
134000.0 585428.0 0
138000.0 585472.0 0
142000.0 585439.0 0
146000.0 585428.0 0
150000.0 585407.0 0
154000.0 585412.0 0
158000.0 585381.0 0
162000.0 585380.0 0
166000.0 585345.0 0
170000.0 585354.0 0
174000.0 585323.0 0
178000.0 585348.0 0
182000.0 585314.0 0
186000.0 585358.0 0
190000.0 585314.0 0
194000.0 585358.0 0
198000.0 585314.0 0
202000.0 585361.0 0
206000.0 585314.0 0
210000.0 585355.0 0
214000.0 585314.0 0
218000.0 585350.0 0
222000.0 585314.0 0
226000.0 585342.0 0
230000.0 585314.0 0
234000.0 585333.0 0
238000.0 585314.0 0
242000.0 585330.0 0
246000.0 585314.0 0
250000.0 585331.0 0
254000.0 585314.0 0
258000.0 585330.0 0
262000.0 585314.0 0
266000.0 585333.0 0
270000.0 585314.0 0
274000.0 585342.0 0
278000.0 585314.0 0
282000.0 585350.0 0
286000.0 585314.0 0
290000.0 585355.0 0
294000.0 585314.0 0
298000.0 585361.0 0
302000.0 585314.0 0
306000.0 585358.0 0
310000.0 585314.0 0
314000.0 585358.0 0
318000.0 585314.0 0
322000.0 585348.0 0
326000.0 585323.0 0
330000.0 585354.0 0
334000.0 585345.0 0
338000.0 585380.0 0
342000.0 585381.0 0
346000.0 585412.0 0
350000.0 585407.0 0
354000.0 585428.0 0
358000.0 585439.0 0
362000.0 585472.0 0
366000.0 585428.0 0
370000.0 585449.0 0
374000.0 585435.0 0
378000.0 585420.0 0
382000.0 585376.0 0
386000.0 585395.0 0
390000.0 585400.0 0
394000.0 585414.0 0
398000.0 585422.0 0
102000.0 589420.0 0
106000.0 589413.0 0
110000.0 589399.0 0
114000.0 589394.0 0
118000.0 589374.0 0
122000.0 589417.0 0
126000.0 589432.0 0
130000.0 589447.0 0
134000.0 589425.0 0
138000.0 589467.0 0
142000.0 589434.0 0
146000.0 589423.0 0
150000.0 589402.0 0
154000.0 589407.0 0
158000.0 589375.0 0
162000.0 589376.0 0
166000.0 589342.0 0
170000.0 589351.0 0
174000.0 589322.0 0
178000.0 589347.0 0
182000.0 589314.0 0
186000.0 589356.0 0
190000.0 589314.0 0
194000.0 589356.0 0
198000.0 589314.0 0
202000.0 589358.0 0
206000.0 589314.0 0
210000.0 589352.0 0
214000.0 589314.0 0
218000.0 589347.0 0
222000.0 589314.0 0
226000.0 589339.0 0
230000.0 589314.0 0
234000.0 589330.0 0
238000.0 589314.0 0
242000.0 589328.0 0
246000.0 589314.0 0
250000.0 589329.0 0
254000.0 589314.0 0
258000.0 589328.0 0
262000.0 589314.0 0
266000.0 589330.0 0
270000.0 589314.0 0
274000.0 589339.0 0
278000.0 589314.0 0
282000.0 589347.0 0
286000.0 589314.0 0
290000.0 589352.0 0
294000.0 589314.0 0
298000.0 589358.0 0
302000.0 589314.0 0
306000.0 589356.0 0
310000.0 589314.0 0
314000.0 589356.0 0
318000.0 589314.0 0
322000.0 589347.0 0
326000.0 589322.0 0
330000.0 589351.0 0
334000.0 589342.0 0
338000.0 589376.0 0
342000.0 589375.0 0
346000.0 589407.0 0
350000.0 589402.0 0
354000.0 589423.0 0
358000.0 589434.0 0
362000.0 589467.0 0
366000.0 589425.0 0
370000.0 589447.0 0
374000.0 589432.0 0
378000.0 589417.0 0
382000.0 589374.0 0
386000.0 589394.0 0
390000.0 589399.0 0
394000.0 589413.0 0
398000.0 589420.0 0
102000.0 593419.0 0
106000.0 593412.0 0
110000.0 593398.0 0
114000.0 593392.0 0
118000.0 593372.0 0
122000.0 593415.0 0
126000.0 593429.0 0
130000.0 593444.0 0
134000.0 593422.0 0
138000.0 593463.0 0
142000.0 593430.0 0
146000.0 593419.0 0
150000.0 593397.0 0
154000.0 593401.0 0
158000.0 593371.0 0
162000.0 593372.0 0
166000.0 593340.0 0
170000.0 593350.0 0
174000.0 593321.0 0
178000.0 593346.0 0
182000.0 593314.0 0
186000.0 593354.0 0
190000.0 593314.0 0
194000.0 593354.0 0
198000.0 593314.0 0
202000.0 593356.0 0
206000.0 593314.0 0
210000.0 593349.0 0
214000.0 593314.0 0
218000.0 593344.0 0
222000.0 593314.0 0
226000.0 593336.0 0
230000.0 593314.0 0
234000.0 593328.0 0
238000.0 593314.0 0
242000.0 593326.0 0
246000.0 593314.0 0
250000.0 593327.0 0
254000.0 593314.0 0
258000.0 593326.0 0
262000.0 593314.0 0
266000.0 593328.0 0
270000.0 593314.0 0
274000.0 593336.0 0
278000.0 593314.0 0
282000.0 593344.0 0
286000.0 593314.0 0
290000.0 593349.0 0
294000.0 593314.0 0
298000.0 593356.0 0
302000.0 593314.0 0
306000.0 593354.0 0
310000.0 593314.0 0
314000.0 593354.0 0
318000.0 593314.0 0
322000.0 593346.0 0
326000.0 593321.0 0
330000.0 593350.0 0
334000.0 593340.0 0
338000.0 593372.0 0
342000.0 593371.0 0
346000.0 593401.0 0
350000.0 593397.0 0
354000.0 593419.0 0
358000.0 593430.0 0
362000.0 593463.0 0
366000.0 593422.0 0
370000.0 593444.0 0
374000.0 593429.0 0
378000.0 593415.0 0
382000.0 593372.0 0
386000.0 593392.0 0
390000.0 593398.0 0
394000.0 593412.0 0
398000.0 593419.0 0
102000.0 597418.0 0
106000.0 597411.0 0
110000.0 597397.0 0
114000.0 597391.0 0
118000.0 597370.0 0
122000.0 597413.0 0
126000.0 597427.0 0
130000.0 597442.0 0
134000.0 597420.0 0
138000.0 597460.0 0
142000.0 597426.0 0
146000.0 597416.0 0
150000.0 597393.0 0
154000.0 597397.0 0
158000.0 597367.0 0
162000.0 597369.0 0
166000.0 597338.0 0
170000.0 597348.0 0
174000.0 597320.0 0
178000.0 597345.0 0
182000.0 597314.0 0
186000.0 597353.0 0
190000.0 597314.0 0
194000.0 597352.0 0
198000.0 597314.0 0
202000.0 597353.0 0
206000.0 597314.0 0
210000.0 597347.0 0
214000.0 597314.0 0
218000.0 597342.0 0
222000.0 597314.0 0
226000.0 597334.0 0
230000.0 597314.0 0
234000.0 597326.0 0
238000.0 597314.0 0
242000.0 597325.0 0
246000.0 597314.0 0
250000.0 597325.0 0
254000.0 597314.0 0
258000.0 597325.0 0
262000.0 597314.0 0
266000.0 597326.0 0
270000.0 597314.0 0
274000.0 597334.0 0
278000.0 597314.0 0
282000.0 597342.0 0
286000.0 597314.0 0
290000.0 597347.0 0
294000.0 597314.0 0
298000.0 597353.0 0
302000.0 597314.0 0
306000.0 597352.0 0
310000.0 597314.0 0
314000.0 597353.0 0
318000.0 597314.0 0
322000.0 597345.0 0
326000.0 597320.0 0
330000.0 597348.0 0
334000.0 597338.0 0
338000.0 597369.0 0
342000.0 597367.0 0
346000.0 597397.0 0
350000.0 597393.0 0
354000.0 597416.0 0
358000.0 597426.0 0
362000.0 597460.0 0
366000.0 597420.0 0
370000.0 597442.0 0
374000.0 597427.0 0
378000.0 597413.0 0
382000.0 597370.0 0
386000.0 597391.0 0
390000.0 597397.0 0
394000.0 597411.0 0
398000.0 597418.0 0
102000.0 601417.0 0
106000.0 601410.0 0
110000.0 601396.0 0
114000.0 601389.0 0
118000.0 601369.0 0
122000.0 601411.0 0
126000.0 601425.0 0
130000.0 601440.0 0
134000.0 601418.0 0
138000.0 601457.0 0
142000.0 601423.0 0
146000.0 601413.0 0
150000.0 601390.0 0
154000.0 601394.0 0
158000.0 601364.0 0
162000.0 601367.0 0
166000.0 601336.0 0
170000.0 601347.0 0
174000.0 601320.0 0
178000.0 601344.0 0
182000.0 601314.0 0
186000.0 601351.0 0
190000.0 601314.0 0
194000.0 601351.0 0
198000.0 601314.0 0
202000.0 601351.0 0
206000.0 601314.0 0
210000.0 601345.0 0
214000.0 601314.0 0
218000.0 601340.0 0
222000.0 601314.0 0
226000.0 601332.0 0
230000.0 601314.0 0
234000.0 601325.0 0
238000.0 601314.0 0
242000.0 601323.0 0
246000.0 601314.0 0
250000.0 601324.0 0
254000.0 601314.0 0
258000.0 601323.0 0
262000.0 601314.0 0
266000.0 601325.0 0
270000.0 601314.0 0
274000.0 601332.0 0
278000.0 601314.0 0
282000.0 601340.0 0
286000.0 601314.0 0
290000.0 601345.0 0
294000.0 601314.0 0
298000.0 601351.0 0
302000.0 601314.0 0
306000.0 601351.0 0
310000.0 601314.0 0
314000.0 601351.0 0
318000.0 601314.0 0
322000.0 601344.0 0
326000.0 601320.0 0
330000.0 601347.0 0
334000.0 601336.0 0
338000.0 601367.0 0
342000.0 601364.0 0
346000.0 601394.0 0
350000.0 601390.0 0
354000.0 601413.0 0
358000.0 601423.0 0
362000.0 601457.0 0
366000.0 601418.0 0
370000.0 601440.0 0
374000.0 601425.0 0
378000.0 601411.0 0
382000.0 601369.0 0
386000.0 601389.0 0
390000.0 601396.0 0
394000.0 601410.0 0
398000.0 601417.0 0
102000.0 605416.0 0
106000.0 605409.0 0
110000.0 605396.0 0
114000.0 605388.0 0
118000.0 605368.0 0
122000.0 605410.0 0
126000.0 605423.0 0
130000.0 605439.0 0
134000.0 605417.0 0
138000.0 605455.0 0
142000.0 605420.0 0
146000.0 605411.0 0
150000.0 605387.0 0
154000.0 605391.0 0
158000.0 605361.0 0
162000.0 605365.0 0
166000.0 605335.0 0
170000.0 605346.0 0
174000.0 605319.0 0
178000.0 605343.0 0
182000.0 605314.0 0
186000.0 605350.0 0
190000.0 605314.0 0
194000.0 605350.0 0
198000.0 605314.0 0
202000.0 605350.0 0
206000.0 605314.0 0
210000.0 605344.0 0
214000.0 605314.0 0
218000.0 605338.0 0
222000.0 605314.0 0
226000.0 605330.0 0
230000.0 605314.0 0
234000.0 605324.0 0
238000.0 605314.0 0
242000.0 605322.0 0
246000.0 605314.0 0
250000.0 605323.0 0
254000.0 605314.0 0
258000.0 605322.0 0
262000.0 605314.0 0
266000.0 605324.0 0
270000.0 605314.0 0
274000.0 605330.0 0
278000.0 605314.0 0
282000.0 605338.0 0
286000.0 605314.0 0
290000.0 605344.0 0
294000.0 605314.0 0
298000.0 605350.0 0
302000.0 605314.0 0
306000.0 605350.0 0
310000.0 605314.0 0
314000.0 605350.0 0
318000.0 605314.0 0
322000.0 605343.0 0
326000.0 605319.0 0
330000.0 605346.0 0
334000.0 605335.0 0
338000.0 605365.0 0
342000.0 605361.0 0
346000.0 605391.0 0
350000.0 605387.0 0
354000.0 605411.0 0
358000.0 605420.0 0
362000.0 605455.0 0
366000.0 605417.0 0
370000.0 605439.0 0
374000.0 605423.0 0
378000.0 605410.0 0
382000.0 605368.0 0
386000.0 605388.0 0
390000.0 605396.0 0
394000.0 605409.0 0
398000.0 605416.0 0
102000.0 609415.0 0
106000.0 609409.0 0
110000.0 609395.0 0
114000.0 609388.0 0
118000.0 609367.0 0
122000.0 609409.0 0
126000.0 609422.0 0
130000.0 609438.0 0
134000.0 609416.0 0
138000.0 609453.0 0
142000.0 609419.0 0
146000.0 609409.0 0
150000.0 609386.0 0
154000.0 609389.0 0
158000.0 609359.0 0
162000.0 609363.0 0
166000.0 609334.0 0
170000.0 609345.0 0
174000.0 609319.0 0
178000.0 609343.0 0
182000.0 609314.0 0
186000.0 609349.0 0
190000.0 609314.0 0
194000.0 609349.0 0
198000.0 609314.0 0
202000.0 609349.0 0
206000.0 609314.0 0
210000.0 609343.0 0
214000.0 609314.0 0
218000.0 609337.0 0
222000.0 609314.0 0
226000.0 609329.0 0
230000.0 609314.0 0
234000.0 609323.0 0
238000.0 609314.0 0
242000.0 609322.0 0
246000.0 609314.0 0
250000.0 609322.0 0
254000.0 609314.0 0
258000.0 609322.0 0
262000.0 609314.0 0
266000.0 609323.0 0
270000.0 609314.0 0
274000.0 609329.0 0
278000.0 609314.0 0
282000.0 609337.0 0
286000.0 609314.0 0
290000.0 609343.0 0
294000.0 609314.0 0
298000.0 609349.0 0
302000.0 609314.0 0
306000.0 609349.0 0
310000.0 609314.0 0
314000.0 609349.0 0
318000.0 609314.0 0
322000.0 609343.0 0
326000.0 609319.0 0
330000.0 609345.0 0
334000.0 609334.0 0
338000.0 609363.0 0
342000.0 609359.0 0
346000.0 609389.0 0
350000.0 609386.0 0
354000.0 609409.0 0
358000.0 609419.0 0
362000.0 609453.0 0
366000.0 609416.0 0
370000.0 609438.0 0
374000.0 609422.0 0
378000.0 609409.0 0
382000.0 609367.0 0
386000.0 609388.0 0
390000.0 609395.0 0
394000.0 609409.0 0
398000.0 609415.0 0
102000.0 613415.0 0
106000.0 613409.0 0
110000.0 613395.0 0
114000.0 613387.0 0
118000.0 613367.0 0
122000.0 613408.0 0
126000.0 613421.0 0
130000.0 613437.0 0
134000.0 613415.0 0
138000.0 613452.0 0
142000.0 613417.0 0
146000.0 613408.0 0
150000.0 613384.0 0
154000.0 613387.0 0
158000.0 613358.0 0
162000.0 613362.0 0
166000.0 613333.0 0
170000.0 613344.0 0
174000.0 613319.0 0
178000.0 613343.0 0
182000.0 613314.0 0
186000.0 613349.0 0
190000.0 613314.0 0
194000.0 613348.0 0
198000.0 613314.0 0
202000.0 613348.0 0
206000.0 613314.0 0
210000.0 613342.0 0
214000.0 613314.0 0
218000.0 613336.0 0
222000.0 613314.0 0
226000.0 613329.0 0
230000.0 613314.0 0
234000.0 613322.0 0
238000.0 613314.0 0
242000.0 613321.0 0
246000.0 613314.0 0
250000.0 613321.0 0
254000.0 613314.0 0
258000.0 613321.0 0
262000.0 613314.0 0
266000.0 613322.0 0
270000.0 613314.0 0
274000.0 613329.0 0
278000.0 613314.0 0
282000.0 613336.0 0
286000.0 613314.0 0
290000.0 613342.0 0
294000.0 613314.0 0
298000.0 613348.0 0
302000.0 613314.0 0
306000.0 613348.0 0
310000.0 613314.0 0
314000.0 613349.0 0
318000.0 613314.0 0
322000.0 613343.0 0
326000.0 613319.0 0
330000.0 613344.0 0
334000.0 613333.0 0
338000.0 613362.0 0
342000.0 613358.0 0
346000.0 613387.0 0
350000.0 613384.0 0
354000.0 613408.0 0
358000.0 613417.0 0
362000.0 613452.0 0
366000.0 613415.0 0
370000.0 613437.0 0
374000.0 613421.0 0
378000.0 613408.0 0
382000.0 613367.0 0
386000.0 613387.0 0
390000.0 613395.0 0
394000.0 613409.0 0
398000.0 613415.0 0
102000.0 617415.0 0
106000.0 617408.0 0
110000.0 617395.0 0
114000.0 617387.0 0
118000.0 617367.0 0
122000.0 617408.0 0
126000.0 617421.0 0
130000.0 617437.0 0
134000.0 617415.0 0
138000.0 617451.0 0
142000.0 617417.0 0
146000.0 617408.0 0
150000.0 617384.0 0
154000.0 617387.0 0
158000.0 617357.0 0
162000.0 617362.0 0
166000.0 617332.0 0
170000.0 617344.0 0
174000.0 617319.0 0
178000.0 617342.0 0
182000.0 617314.0 0
186000.0 617348.0 0
190000.0 617314.0 0
194000.0 617348.0 0
198000.0 617314.0 0
202000.0 617348.0 0
206000.0 617314.0 0
210000.0 617341.0 0
214000.0 617314.0 0
218000.0 617336.0 0
222000.0 617314.0 0
226000.0 617328.0 0
230000.0 617314.0 0
234000.0 617322.0 0
238000.0 617314.0 0
242000.0 617321.0 0
246000.0 617314.0 0
250000.0 617321.0 0
254000.0 617314.0 0
258000.0 617321.0 0
262000.0 617314.0 0
266000.0 617322.0 0
270000.0 617314.0 0
274000.0 617328.0 0
278000.0 617314.0 0
282000.0 617336.0 0
286000.0 617314.0 0
290000.0 617341.0 0
294000.0 617314.0 0
298000.0 617348.0 0
302000.0 617314.0 0
306000.0 617348.0 0
310000.0 617314.0 0
314000.0 617348.0 0
318000.0 617314.0 0
322000.0 617342.0 0
326000.0 617319.0 0
330000.0 617344.0 0
334000.0 617332.0 0
338000.0 617362.0 0
342000.0 617357.0 0
346000.0 617387.0 0
350000.0 617384.0 0
354000.0 617408.0 0
358000.0 617417.0 0
362000.0 617451.0 0
366000.0 617415.0 0
370000.0 617437.0 0
374000.0 617421.0 0
378000.0 617408.0 0
382000.0 617367.0 0
386000.0 617387.0 0
390000.0 617395.0 0
394000.0 617408.0 0
398000.0 617415.0 0
POINT_DATA 4650
SCALARS Radius float 1
LOOKUP_TABLE default
4000.0 4000.0 4000.0 4000.0 4000.0 4000.0 4000.0 4000.0 4000.0 4000.0 4000.0 4000.0 4000.0 4000.0 4000.0 4000.0 4000.0 4000.0 4000.0 4000.0 4000.0 4000.0 4000.0 4000.0 4000.0 4000.0 4000.0 4000.0 4000.0 4000.0 4000.0 4000.0 4000.0 4000.0 4000.0 4000.0 4000.0 4000.0 4000.0 4000.0 4000.0 4000.0 4000.0 4000.0 4000.0 4000.0 4000.0 4000.0 4000.0 4000.0 4000.0 4000.0 4000.0 4000.0 4000.0 4000.0 4000.0 4000.0 4000.0 4000.0 4000.0 4000.0 4000.0 4000.0 4000.0 4000.0 4000.0 4000.0 4000.0 4000.0 4000.0 4000.0 4000.0 4000.0 4000.0 4000.0 4000.0 4000.0 4000.0 4000.0 4000.0 4000.0 4000.0 4000.0 4000.0 4000.0 4000.0 4000.0 4000.0 4000.0 4000.0 4000.0 4000.0 4000.0 4000.0 4000.0 4000.0 4000.0 4000.0 4000.0 4000.0 4000.0 4000.0 4000.0 4000.0 4000.0 4000.0 4000.0 4000.0 4000.0 4000.0 4000.0 4000.0 4000.0 4000.0 4000.0 4000.0 4000.0 4000.0 4000.0 4000.0 4000.0 4000.0 4000.0 4000.0 4000.0 4000.0 4000.0 4000.0 4000.0 4000.0 4000.0 4000.0 4000.0 4000.0 4000.0 4000.0 4000.0 4000.0 4000.0 4000.0 4000.0 4000.0 4000.0 4000.0 4000.0 4000.0 4000.0 4000.0 4000.0 4000.0 4000.0 4000.0 4000.0 4000.0 4000.0 4000.0 4000.0 4000.0 4000.0 4000.0 4000.0 4000.0 4000.0 4000.0 4000.0 4000.0 4000.0 4000.0 4000.0 4000.0 4000.0 4000.0 4000.0 4000.0 4000.0 4000.0 4000.0 4000.0 4000.0 4000.0 4000.0 4000.0 4000.0 4000.0 4000.0 4000.0 4000.0 4000.0 4000.0 4000.0 4000.0 4000.0 4000.0 4000.0 4000.0 4000.0 4000.0 4000.0 4000.0 4000.0 4000.0 4000.0 4000.0 4000.0 4000.0 4000.0 4000.0 4000.0 4000.0 4000.0 4000.0 4000.0 4000.0 4000.0 4000.0 4000.0 4000.0 4000.0 4000.0 4000.0 4000.0 4000.0 4000.0 4000.0 4000.0 4000.0 4000.0 4000.0 4000.0 4000.0 4000.0 4000.0 4000.0 4000.0 4000.0 4000.0 4000.0 4000.0 4000.0 4000.0 4000.0 4000.0 4000.0 4000.0 4000.0 4000.0 4000.0 4000.0 4000.0 4000.0 4000.0 4000.0 4000.0 4000.0 4000.0 4000.0 4000.0 4000.0 4000.0 4000.0 4000.0 4000.0 4000.0 4000.0 4000.0 4000.0 4000.0 4000.0 4000.0 4000.0 4000.0 4000.0 4000.0 4000.0 4000.0 4000.0 4000.0 4000.0 4000.0 4000.0 4000.0 4000.0 4000.0 4000.0 4000.0 4000.0 4000.0 4000.0 4000.0 4000.0 4000.0 4000.0 4000.0 4000.0 4000.0 4000.0 4000.0 4000.0 4000.0 4000.0 4000.0 4000.0 4000.0 4000.0 4000.0 4000.0 4000.0 4000.0 4000.0 4000.0 4000.0 4000.0 4000.0 4000.0 4000.0 4000.0 4000.0 4000.0 4000.0 4000.0 4000.0 4000.0 4000.0 4000.0 4000.0 4000.0 4000.0 4000.0 4000.0 4000.0 4000.0 4000.0 4000.0 4000.0 4000.0 4000.0 4000.0 4000.0 4000.0 4000.0 4000.0 4000.0 4000.0 4000.0 4000.0 4000.0 4000.0 4000.0 4000.0 4000.0 4000.0 4000.0 4000.0 4000.0 4000.0 4000.0 4000.0 4000.0 4000.0 4000.0 4000.0 4000.0 4000.0 4000.0 4000.0 4000.0 4000.0 4000.0 4000.0 4000.0 4000.0 4000.0 4000.0 4000.0 4000.0 4000.0 4000.0 4000.0 4000.0 4000.0 4000.0 4000.0 4000.0 4000.0 4000.0 4000.0 4000.0 4000.0 4000.0 4000.0 4000.0 4000.0 4000.0 4000.0 4000.0 4000.0 4000.0 4000.0 4000.0 4000.0 4000.0 4000.0 4000.0 4000.0 4000.0 4000.0 4000.0 4000.0 4000.0 4000.0 4000.0 4000.0 4000.0 4000.0 4000.0 4000.0 4000.0 4000.0 4000.0 4000.0 4000.0 4000.0 4000.0 4000.0 4000.0 4000.0 4000.0 4000.0 4000.0 4000.0 4000.0 4000.0 4000.0 4000.0 4000.0 4000.0 4000.0 4000.0 4000.0 4000.0 4000.0 4000.0 4000.0 4000.0 4000.0 4000.0 4000.0 4000.0 4000.0 4000.0 4000.0 4000.0 4000.0 4000.0 4000.0 4000.0 4000.0 4000.0 4000.0 4000.0 4000.0 4000.0 4000.0 4000.0 4000.0 4000.0 4000.0 4000.0 4000.0 4000.0 4000.0 4000.0 4000.0 4000.0 4000.0 4000.0 4000.0 4000.0 4000.0 4000.0 4000.0 4000.0 4000.0 4000.0 4000.0 4000.0 4000.0 4000.0 4000.0 4000.0 4000.0 4000.0 4000.0 4000.0 4000.0 4000.0 4000.0 4000.0 4000.0 4000.0 4000.0 4000.0 4000.0 4000.0 4000.0 4000.0 4000.0 4000.0 4000.0 4000.0 4000.0 4000.0 4000.0 4000.0 4000.0 4000.0 4000.0 4000.0 4000.0 4000.0 4000.0 4000.0 4000.0 4000.0 4000.0 4000.0 4000.0 4000.0 4000.0 4000.0 4000.0 4000.0 4000.0 4000.0 4000.0 4000.0 4000.0 4000.0 4000.0 4000.0 4000.0 4000.0 4000.0 4000.0 4000.0 4000.0 4000.0 4000.0 4000.0 4000.0 4000.0 4000.0 4000.0 4000.0 4000.0 4000.0 4000.0 4000.0 4000.0 4000.0 4000.0 4000.0 4000.0 4000.0 4000.0 4000.0 4000.0 4000.0 4000.0 4000.0 4000.0 4000.0 4000.0 4000.0 4000.0 4000.0 4000.0 4000.0 4000.0 4000.0 4000.0 4000.0 4000.0 4000.0 4000.0 4000.0 4000.0 4000.0 4000.0 4000.0 4000.0 4000.0 4000.0 4000.0 4000.0 4000.0 4000.0 4000.0 4000.0 4000.0 4000.0 4000.0 4000.0 4000.0 4000.0 4000.0 4000.0 4000.0 4000.0 4000.0 4000.0 4000.0 4000.0 4000.0 4000.0 4000.0 4000.0 4000.0 4000.0 4000.0 4000.0 4000.0 4000.0 4000.0 4000.0 4000.0 4000.0 4000.0 4000.0 4000.0 4000.0 4000.0 4000.0 4000.0 4000.0 4000.0 4000.0 4000.0 4000.0 4000.0 4000.0 4000.0 4000.0 4000.0 4000.0 4000.0 4000.0 4000.0 4000.0 4000.0 4000.0 4000.0 4000.0 4000.0 4000.0 4000.0 4000.0 4000.0 4000.0 4000.0 4000.0 4000.0 4000.0 4000.0 4000.0 4000.0 4000.0 4000.0 4000.0 4000.0 4000.0 4000.0 4000.0 4000.0 4000.0 4000.0 4000.0 4000.0 4000.0 4000.0 4000.0 4000.0 4000.0 4000.0 4000.0 4000.0 4000.0 4000.0 4000.0 4000.0 4000.0 4000.0 4000.0 4000.0 4000.0 4000.0 4000.0 4000.0 4000.0 4000.0 4000.0 4000.0 4000.0 4000.0 4000.0 4000.0 4000.0 4000.0 4000.0 4000.0 4000.0 4000.0 4000.0 4000.0 4000.0 4000.0 4000.0 4000.0 4000.0 4000.0 4000.0 4000.0 4000.0 4000.0 4000.0 4000.0 4000.0 4000.0 4000.0 4000.0 4000.0 4000.0 4000.0 4000.0 4000.0 4000.0 4000.0 4000.0 4000.0 4000.0 4000.0 4000.0 4000.0 4000.0 4000.0 4000.0 4000.0 4000.0 4000.0 4000.0 4000.0 4000.0 4000.0 4000.0 4000.0 4000.0 4000.0 4000.0 4000.0 4000.0 4000.0 4000.0 4000.0 4000.0 4000.0 4000.0 4000.0 4000.0 4000.0 4000.0 4000.0 4000.0 4000.0 4000.0 4000.0 4000.0 4000.0 4000.0 4000.0 4000.0 4000.0 4000.0 4000.0 4000.0 4000.0 4000.0 4000.0 4000.0 4000.0 4000.0 4000.0 4000.0 4000.0 4000.0 4000.0 4000.0 4000.0 4000.0 4000.0 4000.0 4000.0 4000.0 4000.0 4000.0 4000.0 4000.0 4000.0 4000.0 4000.0 4000.0 4000.0 4000.0 4000.0 4000.0 4000.0 4000.0 4000.0 4000.0 4000.0 4000.0 4000.0 4000.0 4000.0 4000.0 4000.0 4000.0 4000.0 4000.0 4000.0 4000.0 4000.0 4000.0 4000.0 4000.0 4000.0 4000.0 4000.0 4000.0 4000.0 4000.0 4000.0 4000.0 4000.0 4000.0 4000.0 4000.0 4000.0 4000.0 4000.0 4000.0 4000.0 4000.0 4000.0 4000.0 4000.0 4000.0 4000.0 4000.0 4000.0 4000.0 4000.0 4000.0 4000.0 4000.0 4000.0 4000.0 4000.0 4000.0 4000.0 4000.0 4000.0 4000.0 4000.0 4000.0 4000.0 4000.0 4000.0 4000.0 4000.0 4000.0 4000.0 4000.0 4000.0 4000.0 4000.0 4000.0 4000.0 4000.0 4000.0 4000.0 4000.0 4000.0 4000.0 4000.0 4000.0 4000.0 4000.0 4000.0 4000.0 4000.0 4000.0 4000.0 4000.0 4000.0 4000.0 4000.0 4000.0 4000.0 4000.0 4000.0 4000.0 4000.0 4000.0 4000.0 4000.0 4000.0 4000.0 4000.0 4000.0 4000.0 4000.0 4000.0 4000.0 4000.0 4000.0 4000.0 4000.0 4000.0 4000.0 4000.0 4000.0 4000.0 4000.0 4000.0 4000.0 4000.0 4000.0 4000.0 4000.0 4000.0 4000.0 4000.0 4000.0 4000.0 4000.0 4000.0 4000.0 4000.0 4000.0 4000.0 4000.0 4000.0 4000.0 4000.0 4000.0 4000.0 4000.0 4000.0 4000.0 4000.0 4000.0 4000.0 4000.0 4000.0 4000.0 4000.0 4000.0 4000.0 4000.0 4000.0 4000.0 4000.0 4000.0 4000.0 4000.0 4000.0 4000.0 4000.0 4000.0 4000.0 4000.0 4000.0 4000.0 4000.0 4000.0 4000.0 4000.0 4000.0 4000.0 4000.0 4000.0 4000.0 4000.0 4000.0 4000.0 4000.0 4000.0 4000.0 4000.0 4000.0 4000.0 4000.0 4000.0 4000.0 4000.0 4000.0 4000.0 4000.0 4000.0 4000.0 4000.0 4000.0 4000.0 4000.0 4000.0 4000.0 4000.0 4000.0 4000.0 4000.0 4000.0 4000.0 4000.0 4000.0 4000.0 4000.0 4000.0 4000.0 4000.0 4000.0 4000.0 4000.0 4000.0 4000.0 4000.0 4000.0 4000.0 4000.0 4000.0 4000.0 4000.0 4000.0 4000.0 4000.0 4000.0 4000.0 4000.0 4000.0 4000.0 4000.0 4000.0 4000.0 4000.0 4000.0 4000.0 4000.0 4000.0 4000.0 4000.0 4000.0 4000.0 4000.0 4000.0 4000.0 4000.0 4000.0 4000.0 4000.0 4000.0 4000.0 4000.0 4000.0 4000.0 4000.0 4000.0 4000.0 4000.0 4000.0 4000.0 4000.0 4000.0 4000.0 4000.0 4000.0 4000.0 4000.0 4000.0 4000.0 4000.0 4000.0 4000.0 4000.0 4000.0 4000.0 4000.0 4000.0 4000.0 4000.0 4000.0 4000.0 4000.0 4000.0 4000.0 4000.0 4000.0 4000.0 4000.0 4000.0 4000.0 4000.0 4000.0 4000.0 4000.0 4000.0 4000.0 4000.0 4000.0 4000.0 4000.0 4000.0 4000.0 4000.0 4000.0 4000.0 4000.0 4000.0 4000.0 4000.0 4000.0 4000.0 4000.0 4000.0 4000.0 4000.0 4000.0 4000.0 4000.0 4000.0 4000.0 4000.0 4000.0 4000.0 4000.0 4000.0 4000.0 4000.0 4000.0 4000.0 4000.0 4000.0 4000.0 4000.0 4000.0 4000.0 4000.0 4000.0 4000.0 4000.0 4000.0 4000.0 4000.0 4000.0 4000.0 4000.0 4000.0 4000.0 4000.0 4000.0 4000.0 4000.0 4000.0 4000.0 4000.0 4000.0 4000.0 4000.0 4000.0 4000.0 4000.0 4000.0 4000.0 4000.0 4000.0 4000.0 4000.0 4000.0 4000.0 4000.0 4000.0 4000.0 4000.0 4000.0 4000.0 4000.0 4000.0 4000.0 4000.0 4000.0 4000.0 4000.0 4000.0 4000.0 4000.0 4000.0 4000.0 4000.0 4000.0 4000.0 4000.0 4000.0 4000.0 4000.0 4000.0 4000.0 4000.0 4000.0 4000.0 4000.0 4000.0 4000.0 4000.0 4000.0 4000.0 4000.0 4000.0 4000.0 4000.0 4000.0 4000.0 4000.0 4000.0 4000.0 4000.0 4000.0 4000.0 4000.0 4000.0 4000.0 4000.0 4000.0 4000.0 4000.0 4000.0 4000.0 4000.0 4000.0 4000.0 4000.0 4000.0 4000.0 4000.0 4000.0 4000.0 4000.0 4000.0 4000.0 4000.0 4000.0 4000.0 4000.0 4000.0 4000.0 4000.0 4000.0 4000.0 4000.0 4000.0 4000.0 4000.0 4000.0 4000.0 4000.0 4000.0 4000.0 4000.0 4000.0 4000.0 4000.0 4000.0 4000.0 4000.0 4000.0 4000.0 4000.0 4000.0 4000.0 4000.0 4000.0 4000.0 4000.0 4000.0 4000.0 4000.0 4000.0 4000.0 4000.0 4000.0 4000.0 4000.0 4000.0 4000.0 4000.0 4000.0 4000.0 4000.0 4000.0 4000.0 4000.0 4000.0 4000.0 4000.0 4000.0 4000.0 4000.0 4000.0 4000.0 4000.0 4000.0 4000.0 4000.0 4000.0 4000.0 4000.0 4000.0 4000.0 4000.0 4000.0 4000.0 4000.0 4000.0 4000.0 4000.0 4000.0 4000.0 4000.0 4000.0 4000.0 4000.0 4000.0 4000.0 4000.0 4000.0 4000.0 4000.0 4000.0 4000.0 4000.0 4000.0 4000.0 4000.0 4000.0 4000.0 4000.0 4000.0 4000.0 4000.0 4000.0 4000.0 4000.0 4000.0 4000.0 4000.0 4000.0 4000.0 4000.0 4000.0 4000.0 4000.0 4000.0 4000.0 4000.0 4000.0 4000.0 4000.0 4000.0 4000.0 4000.0 4000.0 4000.0 4000.0 4000.0 4000.0 4000.0 4000.0 4000.0 4000.0 4000.0 4000.0 4000.0 4000.0 4000.0 4000.0 4000.0 4000.0 4000.0 4000.0 4000.0 4000.0 4000.0 4000.0 4000.0 4000.0 4000.0 4000.0 4000.0 4000.0 4000.0 4000.0 4000.0 4000.0 4000.0 4000.0 4000.0 4000.0 4000.0 4000.0 4000.0 4000.0 4000.0 4000.0 4000.0 4000.0 4000.0 4000.0 4000.0 4000.0 4000.0 4000.0 4000.0 4000.0 4000.0 4000.0 4000.0 4000.0 4000.0 4000.0 4000.0 4000.0 4000.0 4000.0 4000.0 4000.0 4000.0 4000.0 4000.0 4000.0 4000.0 4000.0 4000.0 4000.0 4000.0 4000.0 4000.0 4000.0 4000.0 4000.0 4000.0 4000.0 4000.0 4000.0 4000.0 4000.0 4000.0 4000.0 4000.0 4000.0 4000.0 4000.0 4000.0 4000.0 4000.0 4000.0 4000.0 4000.0 4000.0 4000.0 4000.0 4000.0 4000.0 4000.0 4000.0 4000.0 4000.0 4000.0 4000.0 4000.0 4000.0 4000.0 4000.0 4000.0 4000.0 4000.0 4000.0 4000.0 4000.0 4000.0 4000.0 4000.0 4000.0 4000.0 4000.0 4000.0 4000.0 4000.0 4000.0 4000.0 4000.0 4000.0 4000.0 4000.0 4000.0 4000.0 4000.0 4000.0 4000.0 4000.0 4000.0 4000.0 4000.0 4000.0 4000.0 4000.0 4000.0 4000.0 4000.0 4000.0 4000.0 4000.0 4000.0 4000.0 4000.0 4000.0 4000.0 4000.0 4000.0 4000.0 4000.0 4000.0 4000.0 4000.0 4000.0 4000.0 4000.0 4000.0 4000.0 4000.0 4000.0 4000.0 4000.0 4000.0 4000.0 4000.0 4000.0 4000.0 4000.0 4000.0 4000.0 4000.0 4000.0 4000.0 4000.0 4000.0 4000.0 4000.0 4000.0 4000.0 4000.0 4000.0 4000.0 4000.0 4000.0 4000.0 4000.0 4000.0 4000.0 4000.0 4000.0 4000.0 4000.0 4000.0 4000.0 4000.0 4000.0 4000.0 4000.0 4000.0 4000.0 4000.0 4000.0 4000.0 4000.0 4000.0 4000.0 4000.0 4000.0 4000.0 4000.0 4000.0 4000.0 4000.0 4000.0 4000.0 4000.0 4000.0 4000.0 4000.0 4000.0 4000.0 4000.0 4000.0 4000.0 4000.0 4000.0 4000.0 4000.0 4000.0 4000.0 4000.0 4000.0 4000.0 4000.0 4000.0 4000.0 4000.0 4000.0 4000.0 4000.0 4000.0 4000.0 4000.0 4000.0 4000.0 4000.0 4000.0 4000.0 4000.0 4000.0 4000.0 4000.0 4000.0 4000.0 4000.0 4000.0 4000.0 4000.0 4000.0 4000.0 4000.0 4000.0 4000.0 4000.0 4000.0 4000.0 4000.0 4000.0 4000.0 4000.0 4000.0 4000.0 4000.0 4000.0 4000.0 4000.0 4000.0 4000.0 4000.0 4000.0 4000.0 4000.0 4000.0 4000.0 4000.0 4000.0 4000.0 4000.0 4000.0 4000.0 4000.0 4000.0 4000.0 4000.0 4000.0 4000.0 4000.0 4000.0 4000.0 4000.0 4000.0 4000.0 4000.0 4000.0 4000.0 4000.0 4000.0 4000.0 4000.0 4000.0 4000.0 4000.0 4000.0 4000.0 4000.0 4000.0 4000.0 4000.0 4000.0 4000.0 4000.0 4000.0 4000.0 4000.0 4000.0 4000.0 4000.0 4000.0 4000.0 4000.0 4000.0 4000.0 4000.0 4000.0 4000.0 4000.0 4000.0 4000.0 4000.0 4000.0 4000.0 4000.0 4000.0 4000.0 4000.0 4000.0 4000.0 4000.0 4000.0 4000.0 4000.0 4000.0 4000.0 4000.0 4000.0 4000.0 4000.0 4000.0 4000.0 4000.0 4000.0 4000.0 4000.0 4000.0 4000.0 4000.0 4000.0 4000.0 4000.0 4000.0 4000.0 4000.0 4000.0 4000.0 4000.0 4000.0 4000.0 4000.0 4000.0 4000.0 4000.0 4000.0 4000.0 4000.0 4000.0 4000.0 4000.0 4000.0 4000.0 4000.0 4000.0 4000.0 4000.0 4000.0 4000.0 4000.0 4000.0 4000.0 4000.0 4000.0 4000.0 4000.0 4000.0 4000.0 4000.0 4000.0 4000.0 4000.0 4000.0 4000.0 4000.0 4000.0 4000.0 4000.0 4000.0 4000.0 4000.0 4000.0 4000.0 4000.0 4000.0 4000.0 4000.0 4000.0 4000.0 4000.0 4000.0 4000.0 4000.0 4000.0 4000.0 4000.0 4000.0 4000.0 4000.0 4000.0 4000.0 4000.0 4000.0 4000.0 4000.0 4000.0 4000.0 4000.0 4000.0 4000.0 4000.0 4000.0 4000.0 4000.0 4000.0 4000.0 4000.0 4000.0 4000.0 4000.0 4000.0 4000.0 4000.0 4000.0 4000.0 4000.0 4000.0 4000.0 4000.0 4000.0 4000.0 4000.0 4000.0 4000.0 4000.0 4000.0 4000.0 4000.0 4000.0 4000.0 4000.0 4000.0 4000.0 4000.0 4000.0 4000.0 4000.0 4000.0 4000.0 4000.0 4000.0 4000.0 4000.0 4000.0 4000.0 4000.0 4000.0 4000.0 4000.0 4000.0 4000.0 4000.0 4000.0 4000.0 4000.0 4000.0 4000.0 4000.0 4000.0 4000.0 4000.0 4000.0 4000.0 4000.0 4000.0 4000.0 4000.0 4000.0 4000.0 4000.0 4000.0 4000.0 4000.0 4000.0 4000.0 4000.0 4000.0 4000.0 4000.0 4000.0 4000.0 4000.0 4000.0 4000.0 4000.0 4000.0 4000.0 4000.0 4000.0 4000.0 4000.0 4000.0 4000.0 4000.0 4000.0 4000.0 4000.0 4000.0 4000.0 4000.0 4000.0 4000.0 4000.0 4000.0 4000.0 4000.0 4000.0 4000.0 4000.0 4000.0 4000.0 4000.0 4000.0 4000.0 4000.0 4000.0 4000.0 4000.0 4000.0 4000.0 4000.0 4000.0 4000.0 4000.0 4000.0 4000.0 4000.0 4000.0 4000.0 4000.0 4000.0 4000.0 4000.0 4000.0 4000.0 4000.0 4000.0 4000.0 4000.0 4000.0 4000.0 4000.0 4000.0 4000.0 4000.0 4000.0 4000.0 4000.0 4000.0 4000.0 4000.0 4000.0 4000.0 4000.0 4000.0 4000.0 4000.0 4000.0 4000.0 4000.0 4000.0 4000.0 4000.0 4000.0 4000.0 4000.0 4000.0 4000.0 4000.0 4000.0 4000.0 4000.0 4000.0 4000.0 4000.0 4000.0 4000.0 4000.0 4000.0 4000.0 4000.0 4000.0 4000.0 4000.0 4000.0 4000.0 4000.0 4000.0 4000.0 4000.0 4000.0 4000.0 4000.0 4000.0 4000.0 4000.0 4000.0 4000.0 4000.0 4000.0 4000.0 4000.0 4000.0 4000.0 4000.0 4000.0 4000.0 4000.0 4000.0 4000.0 4000.0 4000.0 4000.0 4000.0 4000.0 4000.0 4000.0 4000.0 4000.0 4000.0 4000.0 4000.0 4000.0 4000.0 4000.0 4000.0 4000.0 4000.0 4000.0 4000.0 4000.0 4000.0 4000.0 4000.0 4000.0 4000.0 4000.0 4000.0 4000.0 4000.0 4000.0 4000.0 4000.0 4000.0 4000.0 4000.0 4000.0 4000.0 4000.0 4000.0 4000.0 4000.0 4000.0 4000.0 4000.0 4000.0 4000.0 4000.0 4000.0 4000.0 4000.0 4000.0 4000.0 4000.0 4000.0 4000.0 4000.0 4000.0 4000.0 4000.0 4000.0 4000.0 4000.0 4000.0 4000.0 4000.0 4000.0 4000.0 4000.0 4000.0 4000.0 4000.0 4000.0 4000.0 4000.0 4000.0 4000.0 4000.0 4000.0 4000.0 4000.0 4000.0 4000.0 4000.0 4000.0 4000.0 4000.0 4000.0 4000.0 4000.0 4000.0 4000.0 4000.0 4000.0 4000.0 4000.0 4000.0 4000.0 4000.0 4000.0 4000.0 4000.0 4000.0 4000.0 4000.0 4000.0 4000.0 4000.0 4000.0 4000.0 4000.0 4000.0 4000.0 4000.0 4000.0 4000.0 4000.0 4000.0 4000.0 4000.0 4000.0 4000.0 4000.0 4000.0 4000.0 4000.0 4000.0 4000.0 4000.0 4000.0 4000.0 4000.0 4000.0 4000.0 4000.0 4000.0 4000.0 4000.0 4000.0 4000.0 4000.0 4000.0 4000.0 4000.0 4000.0 4000.0 4000.0 4000.0 4000.0 4000.0 4000.0 4000.0 4000.0 4000.0 4000.0 4000.0 4000.0 4000.0 4000.0 4000.0 4000.0 4000.0 4000.0 4000.0 4000.0 4000.0 4000.0 4000.0 4000.0 4000.0 4000.0 4000.0 4000.0 4000.0 4000.0 4000.0 4000.0 4000.0 4000.0 4000.0 4000.0 4000.0 4000.0 4000.0 4000.0 4000.0 4000.0 4000.0 4000.0 4000.0 4000.0 4000.0 4000.0 4000.0 4000.0 4000.0 4000.0 4000.0 4000.0 4000.0 4000.0 4000.0 4000.0 4000.0 4000.0 4000.0 4000.0 4000.0 4000.0 4000.0 4000.0 4000.0 4000.0 4000.0 4000.0 4000.0 4000.0 4000.0 4000.0 4000.0 4000.0 4000.0 4000.0 4000.0 4000.0 4000.0 4000.0 4000.0 4000.0 4000.0 4000.0 4000.0 4000.0 4000.0 4000.0 4000.0 4000.0 4000.0 4000.0 4000.0 4000.0 4000.0 4000.0 4000.0 4000.0 4000.0 4000.0 4000.0 4000.0 4000.0 4000.0 4000.0 4000.0 4000.0 4000.0 4000.0 4000.0 4000.0 4000.0 4000.0 4000.0 4000.0 4000.0 4000.0 4000.0 4000.0 4000.0 4000.0 4000.0 4000.0 4000.0 4000.0 4000.0 4000.0 4000.0 4000.0 4000.0 4000.0 4000.0 4000.0 4000.0 4000.0 4000.0 4000.0 4000.0 4000.0 4000.0 4000.0 4000.0 4000.0 4000.0 4000.0 4000.0 4000.0 4000.0 4000.0 4000.0 4000.0 4000.0 4000.0 4000.0 4000.0 4000.0 4000.0 4000.0 4000.0 4000.0 4000.0 4000.0 4000.0 4000.0 4000.0 4000.0 4000.0 4000.0 4000.0 4000.0 4000.0 4000.0 4000.0 4000.0 4000.0 4000.0 4000.0 4000.0 4000.0 4000.0 4000.0 4000.0 4000.0 4000.0 4000.0 4000.0 4000.0 4000.0 4000.0 4000.0 4000.0 4000.0 4000.0 4000.0 4000.0 4000.0 4000.0 4000.0 4000.0 4000.0 4000.0 4000.0 4000.0 4000.0 4000.0 4000.0 4000.0 4000.0 4000.0 4000.0 4000.0 4000.0 4000.0 4000.0 4000.0 4000.0 4000.0 4000.0 4000.0 4000.0 4000.0 4000.0 4000.0 4000.0 4000.0 4000.0 4000.0 4000.0 4000.0 4000.0 4000.0 4000.0 4000.0 4000.0 4000.0 4000.0 4000.0 4000.0 4000.0 4000.0 4000.0 4000.0 4000.0 4000.0 4000.0 4000.0 4000.0 4000.0 4000.0 4000.0 4000.0 4000.0 4000.0 4000.0 4000.0 4000.0 4000.0 4000.0 4000.0 4000.0 4000.0 4000.0 4000.0 4000.0 4000.0 4000.0 4000.0 4000.0 4000.0 4000.0 4000.0 4000.0 4000.0 4000.0 4000.0 4000.0 4000.0 4000.0 4000.0 4000.0 4000.0 4000.0 4000.0 4000.0 4000.0 4000.0 4000.0 4000.0 4000.0 4000.0 4000.0 4000.0 4000.0 4000.0 4000.0 4000.0 4000.0 4000.0 4000.0 4000.0 4000.0 4000.0 4000.0 4000.0 4000.0 4000.0 4000.0 4000.0 4000.0 4000.0 4000.0 4000.0 4000.0 4000.0 4000.0 4000.0 4000.0 4000.0 4000.0 4000.0 4000.0 4000.0 4000.0 4000.0 4000.0 4000.0 4000.0 4000.0 4000.0 4000.0 4000.0 4000.0 4000.0 4000.0 4000.0 4000.0 4000.0 4000.0 4000.0 4000.0 4000.0 4000.0 4000.0 4000.0 4000.0 4000.0 4000.0 4000.0 4000.0 4000.0 4000.0 4000.0 4000.0 4000.0 4000.0 4000.0 4000.0 4000.0 4000.0 4000.0 4000.0 4000.0 4000.0 4000.0 4000.0 4000.0 4000.0 4000.0 4000.0 4000.0 4000.0 4000.0 4000.0 4000.0 4000.0 4000.0 4000.0 4000.0 4000.0 4000.0 4000.0 4000.0 4000.0 4000.0 4000.0 4000.0 4000.0 4000.0 4000.0 4000.0 4000.0 4000.0 4000.0 4000.0 4000.0 4000.0 4000.0 4000.0 4000.0 4000.0 4000.0 4000.0 4000.0 4000.0 4000.0 4000.0 4000.0 4000.0 4000.0 4000.0 4000.0 4000.0 4000.0 4000.0 4000.0 4000.0 4000.0 4000.0 4000.0 4000.0 4000.0 4000.0 4000.0 4000.0 4000.0 4000.0 4000.0 4000.0 4000.0 4000.0 4000.0 4000.0 4000.0 4000.0 4000.0 4000.0 4000.0 4000.0 4000.0 4000.0 4000.0 4000.0 4000.0 4000.0 4000.0 4000.0 4000.0 4000.0 4000.0 4000.0 4000.0 4000.0 4000.0 4000.0 4000.0 4000.0 4000.0 4000.0 4000.0 4000.0 4000.0 4000.0 4000.0 4000.0 4000.0 4000.0 4000.0 4000.0 4000.0 4000.0 4000.0 4000.0 4000.0 4000.0 4000.0 4000.0 4000.0 4000.0 4000.0 4000.0 4000.0 4000.0 4000.0 4000.0 4000.0 4000.0 4000.0 4000.0 4000.0 4000.0 4000.0 4000.0 4000.0 4000.0 4000.0 4000.0 4000.0 4000.0 4000.0 4000.0 4000.0 4000.0 4000.0 4000.0 4000.0 4000.0 4000.0 4000.0 4000.0 4000.0 4000.0 4000.0 4000.0 4000.0 4000.0 4000.0 4000.0 4000.0 4000.0 4000.0 4000.0 4000.0 4000.0 4000.0 4000.0 4000.0 4000.0 4000.0 4000.0 4000.0 4000.0 4000.0 4000.0 4000.0 4000.0 4000.0 4000.0 4000.0 4000.0 4000.0 4000.0 4000.0 4000.0 4000.0 4000.0 4000.0 4000.0 4000.0 4000.0 4000.0 4000.0 4000.0 4000.0 4000.0 4000.0 4000.0 4000.0 4000.0 4000.0 4000.0 4000.0 4000.0 4000.0 4000.0 4000.0 4000.0 4000.0 4000.0 4000.0 4000.0 4000.0 4000.0 4000.0 4000.0 4000.0 4000.0 4000.0 4000.0 4000.0 4000.0 4000.0 4000.0 4000.0 4000.0 4000.0 4000.0 4000.0 4000.0 4000.0 4000.0 4000.0 4000.0 4000.0 4000.0 4000.0 4000.0 4000.0 4000.0 4000.0 4000.0 4000.0 4000.0 4000.0 4000.0 4000.0 4000.0 4000.0 4000.0 4000.0 4000.0 4000.0 4000.0 4000.0 4000.0 4000.0 4000.0 4000.0 4000.0 4000.0 4000.0 4000.0 4000.0 4000.0 4000.0 4000.0 4000.0 4000.0 4000.0 4000.0 4000.0 4000.0 4000.0 4000.0 4000.0 4000.0 4000.0 4000.0 4000.0 4000.0 4000.0 4000.0 4000.0 4000.0 4000.0 4000.0 4000.0 4000.0 4000.0 4000.0 4000.0 4000.0 4000.0 4000.0 4000.0 4000.0 4000.0 4000.0 4000.0 4000.0 4000.0 4000.0 4000.0 4000.0 4000.0 4000.0 4000.0 4000.0 4000.0 4000.0 4000.0 4000.0 4000.0 4000.0 4000.0 4000.0 4000.0 4000.0 4000.0 4000.0 4000.0 4000.0 4000.0 4000.0 4000.0 4000.0 4000.0 4000.0 4000.0 4000.0 4000.0 4000.0 4000.0 4000.0 4000.0 4000.0 4000.0 4000.0 4000.0 4000.0 4000.0 4000.0 4000.0 4000.0 4000.0 4000.0 4000.0 4000.0 4000.0 4000.0 4000.0 4000.0 4000.0 4000.0 4000.0 4000.0 4000.0 4000.0 4000.0 4000.0 4000.0 4000.0 4000.0 4000.0 4000.0 4000.0 4000.0 4000.0 4000.0 4000.0 4000.0 4000.0 4000.0 4000.0 4000.0 4000.0 4000.0 4000.0 4000.0 4000.0 4000.0 4000.0 4000.0 4000.0 4000.0 4000.0 4000.0 4000.0 4000.0 4000.0 4000.0 4000.0 4000.0 4000.0 4000.0 4000.0 4000.0 4000.0 4000.0 4000.0 4000.0 4000.0 4000.0 4000.0 4000.0 4000.0 4000.0 4000.0 4000.0 4000.0 4000.0 4000.0 4000.0 4000.0 4000.0 4000.0 4000.0 4000.0 4000.0 4000.0 4000.0 4000.0 4000.0 4000.0 4000.0 4000.0 4000.0 4000.0 4000.0 4000.0 4000.0 4000.0 4000.0 4000.0 4000.0 4000.0 4000.0 4000.0 4000.0 4000.0 4000.0 4000.0 4000.0 4000.0 4000.0 4000.0 4000.0 4000.0 4000.0 4000.0 4000.0 4000.0 4000.0 4000.0 4000.0 4000.0 4000.0 4000.0 4000.0 4000.0 4000.0 4000.0 4000.0 4000.0 4000.0 4000.0 4000.0 4000.0 4000.0 4000.0 4000.0 4000.0 4000.0 4000.0 4000.0 4000.0 4000.0 4000.0 4000.0 4000.0 4000.0 4000.0 4000.0 4000.0 4000.0 4000.0 4000.0 4000.0 4000.0 4000.0 4000.0 4000.0 4000.0 4000.0 4000.0 4000.0 4000.0 4000.0 4000.0 4000.0 4000.0 4000.0 4000.0 4000.0 4000.0 4000.0 4000.0 4000.0 4000.0 4000.0 4000.0 4000.0 4000.0 4000.0 4000.0 4000.0 4000.0 4000.0 4000.0 4000.0 4000.0 4000.0 4000.0 4000.0 4000.0 4000.0 4000.0 4000.0 4000.0 4000.0 4000.0 4000.0 4000.0 4000.0 4000.0 4000.0 4000.0 4000.0 4000.0 4000.0 4000.0 4000.0 4000.0 4000.0 4000.0 4000.0 4000.0 4000.0 4000.0 4000.0 4000.0 4000.0 4000.0 4000.0 4000.0 4000.0 4000.0 4000.0 4000.0 4000.0 4000.0 4000.0 4000.0 4000.0 4000.0 4000.0 4000.0 4000.0 4000.0 4000.0 4000.0 4000.0 4000.0 4000.0 4000.0 4000.0 4000.0 4000.0 4000.0 4000.0 4000.0 4000.0 4000.0 4000.0 4000.0 4000.0 4000.0 4000.0 4000.0 4000.0 4000.0 4000.0 4000.0 4000.0 4000.0 4000.0 4000.0 4000.0 4000.0 4000.0 4000.0 4000.0 4000.0 4000.0 4000.0 4000.0 4000.0 4000.0 4000.0 4000.0 4000.0 4000.0 4000.0 4000.0 4000.0 4000.0 4000.0 4000.0 4000.0 4000.0 4000.0 4000.0 4000.0 4000.0 4000.0 4000.0 4000.0 4000.0 4000.0 4000.0 4000.0 4000.0 4000.0 4000.0 4000.0 4000.0 4000.0 4000.0 4000.0 4000.0 4000.0 4000.0 4000.0 4000.0 4000.0 4000.0 4000.0 4000.0 4000.0 4000.0 4000.0 4000.0 4000.0 4000.0 4000.0 4000.0 4000.0 4000.0 4000.0 4000.0 4000.0 4000.0 4000.0 4000.0 4000.0 4000.0 4000.0 4000.0 4000.0 4000.0 4000.0 4000.0 4000.0 4000.0 4000.0 4000.0 4000.0 4000.0 4000.0 4000.0 4000.0 4000.0 4000.0 4000.0 4000.0 4000.0 4000.0 4000.0 4000.0 4000.0 4000.0 4000.0 4000.0 4000.0 4000.0 4000.0 4000.0 4000.0 4000.0 4000.0 4000.0 4000.0 4000.0 4000.0 4000.0 4000.0 4000.0 4000.0 4000.0 4000.0 4000.0 4000.0 4000.0 4000.0 4000.0 4000.0 4000.0 4000.0 4000.0 4000.0 4000.0 4000.0 4000.0 4000.0 4000.0 4000.0 4000.0 4000.0 4000.0 4000.0 4000.0 4000.0 4000.0 4000.0 4000.0 4000.0 4000.0 4000.0 4000.0 4000.0 4000.0 4000.0 4000.0 4000.0 4000.0 4000.0 4000.0 4000.0 4000.0 4000.0 4000.0 4000.0 4000.0 4000.0 4000.0 4000.0 4000.0 4000.0 4000.0 4000.0 4000.0 4000.0 4000.0 4000.0 4000.0 4000.0 4000.0 4000.0 4000.0 4000.0 4000.0 4000.0 4000.0 4000.0 4000.0 4000.0 4000.0 4000.0 4000.0 4000.0 4000.0 4000.0 4000.0 4000.0 4000.0 4000.0 4000.0 4000.0 4000.0 4000.0 4000.0 4000.0 4000.0 4000.0 4000.0 4000.0 4000.0 4000.0 4000.0 4000.0 4000.0 4000.0 4000.0 4000.0 4000.0 4000.0 4000.0 4000.0 4000.0 4000.0 4000.0 4000.0 4000.0 4000.0 4000.0 4000.0 4000.0 4000.0 4000.0 4000.0 4000.0 4000.0 4000.0 4000.0 4000.0 4000.0 4000.0 4000.0 4000.0 4000.0 4000.0 4000.0 4000.0 4000.0 4000.0 4000.0 4000.0 4000.0 4000.0 4000.0 4000.0 4000.0 4000.0 4000.0 4000.0 4000.0 4000.0 4000.0 4000.0 4000.0 4000.0 4000.0 4000.0 4000.0 4000.0 4000.0 4000.0 4000.0 4000.0 4000.0 4000.0 4000.0 4000.0 4000.0 4000.0 4000.0 4000.0 4000.0 4000.0 4000.0 4000.0 4000.0 4000.0 4000.0 4000.0 4000.0 4000.0 4000.0 4000.0 4000.0 4000.0 4000.0 4000.0 4000.0 4000.0 4000.0 4000.0 4000.0 4000.0 4000.0 4000.0 4000.0 4000.0 4000.0 4000.0 4000.0 4000.0 4000.0 4000.0 4000.0 4000.0 4000.0 4000.0 4000.0 4000.0 4000.0 4000.0 4000.0 4000.0 4000.0 4000.0 4000.0 4000.0 4000.0 4000.0 4000.0 4000.0 4000.0 4000.0 4000.0 4000.0 4000.0 4000.0 4000.0 4000.0 4000.0 4000.0 4000.0 4000.0 4000.0 4000.0 4000.0 4000.0 4000.0 4000.0 4000.0 4000.0 4000.0 4000.0 4000.0 4000.0 4000.0 4000.0 4000.0 4000.0 4000.0 4000.0 4000.0 4000.0 4000.0 4000.0 4000.0 4000.0 4000.0 4000.0 4000.0 4000.0 4000.0 4000.0 4000.0 4000.0 4000.0 4000.0 4000.0 4000.0 4000.0 4000.0 4000.0 4000.0 4000.0 4000.0 4000.0 4000.0 4000.0 4000.0 4000.0 4000.0 4000.0 4000.0 4000.0 4000.0 4000.0 4000.0 4000.0 4000.0 4000.0 4000.0 4000.0 4000.0 4000.0 4000.0 4000.0 4000.0 4000.0 4000.0 4000.0 4000.0 4000.0 4000.0 4000.0 4000.0 4000.0 4000.0 4000.0 4000.0 4000.0 4000.0 4000.0 4000.0 4000.0 4000.0 4000.0 4000.0 4000.0 4000.0 4000.0 4000.0 4000.0 4000.0 4000.0 4000.0 4000.0 4000.0 4000.0 4000.0 4000.0 4000.0 4000.0 4000.0 4000.0 4000.0 4000.0 4000.0 4000.0 4000.0 4000.0 4000.0 4000.0 4000.0 4000.0 4000.0 4000.0 4000.0 4000.0 4000.0 4000.0 4000.0 4000.0 4000.0 4000.0 4000.0 4000.0 4000.0 4000.0 4000.0 4000.0 4000.0 4000.0 4000.0 4000.0 4000.0 4000.0 4000.0 4000.0 4000.0 4000.0 4000.0 4000.0 4000.0 4000.0 4000.0 4000.0 4000.0 4000.0 4000.0 4000.0 4000.0 4000.0 4000.0 4000.0 4000.0 4000.0 4000.0 4000.0 4000.0 4000.0 4000.0 4000.0 4000.0 4000.0 4000.0 4000.0 4000.0 4000.0 4000.0 4000.0 4000.0 4000.0 4000.0 4000.0 4000.0 4000.0 4000.0 4000.0 4000.0 4000.0 4000.0 4000.0 4000.0 4000.0 4000.0 4000.0 4000.0 4000.0 4000.0 4000.0 4000.0 4000.0 4000.0 4000.0 4000.0 4000.0 4000.0 4000.0 4000.0 4000.0 4000.0 4000.0 4000.0 4000.0 4000.0 4000.0 4000.0 4000.0 4000.0 4000.0 4000.0 4000.0 4000.0 4000.0 4000.0 4000.0 4000.0 4000.0 4000.0 4000.0 4000.0 4000.0 4000.0 4000.0 4000.0 4000.0 4000.0 4000.0 4000.0 4000.0 4000.0 4000.0 4000.0 4000.0 4000.0 4000.0 4000.0 4000.0 4000.0 4000.0 4000.0 4000.0 4000.0 4000.0 4000.0 4000.0 4000.0 4000.0 4000.0 4000.0 4000.0 4000.0 4000.0 4000.0 4000.0 4000.0 4000.0 4000.0 4000.0 4000.0 4000.0 4000.0 4000.0 4000.0 4000.0 4000.0 4000.0 4000.0 4000.0 4000.0 4000.0 4000.0 4000.0 4000.0 4000.0 4000.0 4000.0 4000.0 4000.0 4000.0 4000.0 4000.0 4000.0 4000.0 4000.0 4000.0 4000.0 4000.0 4000.0 4000.0 4000.0 4000.0 4000.0 4000.0 4000.0 4000.0 4000.0 4000.0 4000.0 4000.0 4000.0 4000.0 4000.0 4000.0 4000.0 4000.0 4000.0 4000.0 4000.0 4000.0 4000.0 4000.0 4000.0 4000.0 4000.0 4000.0 4000.0 4000.0 4000.0 4000.0 4000.0 4000.0 4000.0 4000.0 4000.0 4000.0 4000.0 4000.0 4000.0 4000.0 4000.0 4000.0 4000.0 4000.0 4000.0 4000.0 4000.0 4000.0 4000.0 4000.0 4000.0 4000.0 4000.0 4000.0 4000.0 4000.0 4000.0 4000.0 4000.0 4000.0 4000.0 4000.0 4000.0 4000.0 4000.0 4000.0 4000.0 4000.0 4000.0 4000.0 4000.0 4000.0 4000.0 4000.0 4000.0 4000.0 4000.0 4000.0 4000.0 4000.0 4000.0 4000.0 4000.0 4000.0 4000.0 4000.0 4000.0 4000.0 4000.0 4000.0 4000.0 4000.0 4000.0 4000.0 4000.0 4000.0 4000.0 4000.0 4000.0 4000.0 4000.0 4000.0 4000.0 4000.0 4000.0 4000.0 4000.0 4000.0 4000.0 4000.0 4000.0 4000.0 4000.0 4000.0 4000.0 4000.0 4000.0 4000.0 4000.0 4000.0 4000.0 4000.0 4000.0 4000.0 4000.0 4000.0 4000.0 4000.0 4000.0 4000.0 4000.0 4000.0 4000.0 4000.0 4000.0 4000.0 4000.0 4000.0 4000.0 4000.0 4000.0 4000.0 4000.0 4000.0 4000.0 4000.0 4000.0 4000.0 4000.0 4000.0 4000.0 4000.0 4000.0 4000.0 4000.0 4000.0 4000.0 4000.0 4000.0 4000.0 4000.0 4000.0 4000.0 4000.0 4000.0 4000.0 4000.0 4000.0 4000.0 4000.0 4000.0 4000.0 4000.0 4000.0 4000.0 4000.0 4000.0 4000.0 4000.0 4000.0 4000.0 4000.0 4000.0 4000.0 4000.0 4000.0 4000.0 4000.0 4000.0 4000.0 4000.0 4000.0 4000.0 4000.0 4000.0 4000.0 4000.0 4000.0 4000.0 4000.0 4000.0 4000.0 4000.0 4000.0 4000.0 4000.0 4000.0 4000.0 4000.0 4000.0 4000.0 4000.0 4000.0 4000.0 4000.0 4000.0 4000.0 4000.0 4000.0 4000.0 4000.0 4000.0 4000.0 4000.0 4000.0 4000.0 4000.0 4000.0 4000.0 4000.0 4000.0 4000.0 4000.0 4000.0 4000.0 4000.0 4000.0 4000.0 4000.0 4000.0 4000.0 4000.0 4000.0 4000.0 4000.0 4000.0 4000.0 4000.0 4000.0 4000.0 4000.0 4000.0 4000.0 4000.0 4000.0 4000.0 4000.0 4000.0 4000.0 4000.0 4000.0 4000.0 4000.0 4000.0 4000.0 4000.0 4000.0 4000.0 4000.0 4000.0 4000.0 4000.0 4000.0 4000.0 4000.0 4000.0 4000.0 4000.0 4000.0 4000.0 4000.0 4000.0 4000.0 4000.0 4000.0 4000.0 4000.0 4000.0 4000.0 4000.0 4000.0 4000.0 4000.0 4000.0 4000.0 4000.0 4000.0 4000.0 4000.0 4000.0 4000.0 4000.0 4000.0 4000.0 4000.0 4000.0 4000.0 4000.0 4000.0 4000.0 4000.0 4000.0 4000.0 4000.0 4000.0 4000.0 4000.0 4000.0 4000.0 4000.0 4000.0 4000.0 4000.0 4000.0 4000.0 4000.0 4000.0 4000.0 4000.0 4000.0 4000.0 4000.0 4000.0 4000.0 4000.0 4000.0 4000.0 4000.0 4000.0 4000.0 4000.0 4000.0 4000.0 4000.0 4000.0 4000.0 4000.0 4000.0 4000.0 4000.0 4000.0 4000.0 4000.0 4000.0 4000.0 4000.0 4000.0 4000.0 4000.0 4000.0 4000.0 4000.0 4000.0 4000.0 4000.0 4000.0 4000.0 4000.0 4000.0 4000.0 4000.0 4000.0 4000.0 4000.0 4000.0 4000.0 4000.0 4000.0 4000.0 4000.0 4000.0 4000.0 4000.0 4000.0 4000.0 4000.0 4000.0 4000.0 4000.0 4000.0 4000.0 4000.0 4000.0 4000.0 4000.0 4000.0 4000.0 4000.0 4000.0 4000.0 4000.0 4000.0 4000.0 4000.0 4000.0 4000.0 4000.0 4000.0 4000.0 4000.0 4000.0 4000.0 4000.0 4000.0 4000.0 4000.0 4000.0 4000.0 4000.0 4000.0 4000.0 4000.0 4000.0 4000.0 4000.0 4000.0 4000.0 4000.0 4000.0 4000.0 4000.0 4000.0 4000.0 4000.0 4000.0 4000.0 4000.0 4000.0 4000.0 4000.0 4000.0 4000.0 4000.0 4000.0 4000.0 4000.0 4000.0 4000.0 4000.0 4000.0 4000.0 4000.0 4000.0 4000.0 4000.0 4000.0 4000.0 4000.0 4000.0 4000.0 4000.0 4000.0 4000.0 4000.0 4000.0 4000.0 4000.0 4000.0 4000.0 4000.0 4000.0 4000.0 4000.0 4000.0 4000.0 4000.0 4000.0 4000.0 4000.0 4000.0 4000.0 4000.0 4000.0 4000.0 4000.0 4000.0 4000.0 4000.0 4000.0 4000.0 4000.0 4000.0 4000.0 4000.0 4000.0 4000.0 4000.0 4000.0 4000.0 4000.0 4000.0 4000.0 4000.0 4000.0 4000.0 4000.0 4000.0 4000.0 4000.0 4000.0 4000.0 4000.0 4000.0 4000.0 4000.0 4000.0 4000.0 4000.0 4000.0 4000.0 4000.0 4000.0 4000.0 4000.0 4000.0 4000.0 4000.0 4000.0 4000.0 4000.0 4000.0 4000.0 4000.0 4000.0 4000.0 4000.0 4000.0 4000.0 4000.0 4000.0 4000.0 4000.0 4000.0 4000.0 4000.0 4000.0 4000.0 4000.0 4000.0 4000.0 4000.0 4000.0 4000.0 4000.0 4000.0 4000.0 4000.0 4000.0 4000.0 4000.0 4000.0 4000.0 4000.0 4000.0 4000.0 4000.0 4000.0 4000.0 4000.0 4000.0 4000.0 4000.0 4000.0 4000.0 4000.0 4000.0 4000.0 4000.0 4000.0 4000.0 4000.0 4000.0 4000.0 4000.0 4000.0 4000.0 4000.0 4000.0 4000.0 4000.0 4000.0 4000.0 4000.0 4000.0 4000.0 4000.0 4000.0 4000.0 4000.0 4000.0 4000.0 4000.0 4000.0 4000.0 4000.0 4000.0 4000.0 4000.0 4000.0 4000.0 4000.0 4000.0 4000.0 4000.0 4000.0 4000.0 4000.0 4000.0 4000.0 4000.0 4000.0 4000.0 4000.0 4000.0 4000.0 4000.0 4000.0 4000.0 4000.0 4000.0 4000.0 4000.0 4000.0 4000.0 4000.0 4000.0 4000.0 4000.0 4000.0 4000.0 4000.0 4000.0 4000.0 4000.0 4000.0 4000.0 4000.0 4000.0 4000.0 4000.0 4000.0 4000.0 4000.0 4000.0 4000.0 4000.0 4000.0 4000.0 4000.0 4000.0 4000.0 4000.0 4000.0 4000.0 4000.0 4000.0 4000.0 4000.0 4000.0 4000.0 4000.0 4000.0 4000.0 4000.0 4000.0 4000.0 4000.0 4000.0 4000.0 4000.0 4000.0 4000.0 4000.0 4000.0 4000.0 4000.0 4000.0 4000.0 4000.0 4000.0 4000.0 4000.0 4000.0 4000.0 4000.0 4000.0 4000.0 4000.0 4000.0 4000.0 4000.0 4000.0 4000.0 4000.0 4000.0 4000.0 4000.0 4000.0 4000.0 4000.0 4000.0 4000.0 4000.0 4000.0 4000.0 4000.0 4000.0 4000.0 4000.0 4000.0 4000.0 4000.0 4000.0 4000.0 4000.0 4000.0 4000.0 4000.0 4000.0 4000.0 4000.0 4000.0 4000.0 4000.0 4000.0 4000.0 4000.0 4000.0 4000.0 4000.0 4000.0 4000.0 4000.0 4000.0 4000.0 4000.0 4000.0 4000.0 4000.0 4000.0 4000.0 4000.0 4000.0 4000.0 4000.0 4000.0 4000.0 4000.0 4000.0 4000.0 4000.0 4000.0 4000.0 4000.0 4000.0 4000.0 4000.0 4000.0 4000.0 4000.0 4000.0 4000.0 4000.0 4000.0 4000.0 4000.0 4000.0 4000.0 4000.0 4000.0 4000.0 4000.0 4000.0 4000.0 4000.0 4000.0 4000.0 4000.0 4000.0 4000.0 4000.0 4000.0 4000.0 4000.0 4000.0 4000.0 4000.0 4000.0 4000.0 4000.0 4000.0 4000.0 4000.0 4000.0 4000.0 4000.0 4000.0 4000.0 4000.0 4000.0 4000.0 4000.0 4000.0 4000.0 4000.0 4000.0 4000.0 4000.0 4000.0 4000.0 4000.0 4000.0 4000.0 4000.0 4000.0 4000.0 4000.0 4000.0 4000.0 4000.0 4000.0 4000.0 4000.0 4000.0 4000.0 4000.0 4000.0 4000.0 4000.0 4000.0 4000.0 4000.0 4000.0 4000.0 4000.0 4000.0 4000.0 4000.0 4000.0 4000.0 4000.0 4000.0 4000.0 4000.0 4000.0 4000.0 4000.0 4000.0 4000.0 4000.0 4000.0 4000.0 4000.0 4000.0 4000.0 4000.0 4000.0 4000.0 4000.0 4000.0 4000.0 4000.0 4000.0 4000.0 4000.0 4000.0 4000.0 4000.0 4000.0 4000.0 4000.0 4000.0 4000.0 4000.0 SCALARS Mass float 1
LOOKUP_TABLE default
11309700000.0 11309700000.0 11309700000.0 11309700000.0 11309700000.0 11309700000.0 11309700000.0 11309700000.0 11309700000.0 11309700000.0 11309700000.0 11309700000.0 11309700000.0 11309700000.0 11309700000.0 11309700000.0 11309700000.0 11309700000.0 11309700000.0 11309700000.0 11309700000.0 11309700000.0 11309700000.0 11309700000.0 11309700000.0 11309700000.0 11309700000.0 11309700000.0 11309700000.0 11309700000.0 11309700000.0 11309700000.0 11309700000.0 11309700000.0 11309700000.0 11309700000.0 11309700000.0 11309700000.0 11309700000.0 11309700000.0 11309700000.0 11309700000.0 11309700000.0 11309700000.0 11309700000.0 11309700000.0 11309700000.0 11309700000.0 11309700000.0 11309700000.0 11309700000.0 11309700000.0 11309700000.0 11309700000.0 11309700000.0 11309700000.0 11309700000.0 11309700000.0 11309700000.0 11309700000.0 11309700000.0 11309700000.0 11309700000.0 11309700000.0 11309700000.0 11309700000.0 11309700000.0 11309700000.0 11309700000.0 11309700000.0 11309700000.0 11309700000.0 11309700000.0 11309700000.0 11309700000.0 11309700000.0 11309700000.0 11309700000.0 11309700000.0 11309700000.0 11309700000.0 11309700000.0 11309700000.0 11309700000.0 11309700000.0 11309700000.0 11309700000.0 11309700000.0 11309700000.0 11309700000.0 11309700000.0 11309700000.0 11309700000.0 11309700000.0 11309700000.0 11309700000.0 11309700000.0 11309700000.0 11309700000.0 11309700000.0 11309700000.0 11309700000.0 11309700000.0 11309700000.0 11309700000.0 11309700000.0 11309700000.0 11309700000.0 11309700000.0 11309700000.0 11309700000.0 11309700000.0 11309700000.0 11309700000.0 11309700000.0 11309700000.0 11309700000.0 11309700000.0 11309700000.0 11309700000.0 11309700000.0 11309700000.0 11309700000.0 11309700000.0 11309700000.0 11309700000.0 11309700000.0 11309700000.0 11309700000.0 11309700000.0 11309700000.0 11309700000.0 11309700000.0 11309700000.0 11309700000.0 11309700000.0 11309700000.0 11309700000.0 11309700000.0 11309700000.0 11309700000.0 11309700000.0 11309700000.0 11309700000.0 11309700000.0 11309700000.0 11309700000.0 11309700000.0 11309700000.0 11309700000.0 11309700000.0 11309700000.0 11309700000.0 11309700000.0 11309700000.0 11309700000.0 11309700000.0 11309700000.0 11309700000.0 11309700000.0 11309700000.0 11309700000.0 11309700000.0 11309700000.0 11309700000.0 11309700000.0 11309700000.0 11309700000.0 11309700000.0 11309700000.0 11309700000.0 11309700000.0 11309700000.0 11309700000.0 11309700000.0 11309700000.0 11309700000.0 11309700000.0 11309700000.0 11309700000.0 11309700000.0 11309700000.0 11309700000.0 11309700000.0 11309700000.0 11309700000.0 11309700000.0 11309700000.0 11309700000.0 11309700000.0 11309700000.0 11309700000.0 11309700000.0 11309700000.0 11309700000.0 11309700000.0 11309700000.0 11309700000.0 11309700000.0 11309700000.0 11309700000.0 11309700000.0 11309700000.0 11309700000.0 11309700000.0 11309700000.0 11309700000.0 11309700000.0 11309700000.0 11309700000.0 11309700000.0 11309700000.0 11309700000.0 11309700000.0 11309700000.0 11309700000.0 11309700000.0 11309700000.0 11309700000.0 11309700000.0 11309700000.0 11309700000.0 11309700000.0 11309700000.0 11309700000.0 11309700000.0 11309700000.0 11309700000.0 11309700000.0 11309700000.0 11309700000.0 11309700000.0 11309700000.0 11309700000.0 11309700000.0 11309700000.0 11309700000.0 11309700000.0 11309700000.0 11309700000.0 11309700000.0 11309700000.0 11309700000.0 11309700000.0 11309700000.0 11309700000.0 11309700000.0 11309700000.0 11309700000.0 11309700000.0 11309700000.0 11309700000.0 11309700000.0 11309700000.0 11309700000.0 11309700000.0 11309700000.0 11309700000.0 11309700000.0 11309700000.0 11309700000.0 11309700000.0 11309700000.0 11309700000.0 11309700000.0 11309700000.0 11309700000.0 11309700000.0 11309700000.0 11309700000.0 11309700000.0 11309700000.0 11309700000.0 11309700000.0 11309700000.0 11309700000.0 11309700000.0 11309700000.0 11309700000.0 11309700000.0 11309700000.0 11309700000.0 11309700000.0 11309700000.0 11309700000.0 11309700000.0 11309700000.0 11309700000.0 11309700000.0 11309700000.0 11309700000.0 11309700000.0 11309700000.0 11309700000.0 11309700000.0 11309700000.0 11309700000.0 11309700000.0 11309700000.0 11309700000.0 11309700000.0 11309700000.0 11309700000.0 11309700000.0 11309700000.0 11309700000.0 11309700000.0 11309700000.0 11309700000.0 11309700000.0 11309700000.0 11309700000.0 11309700000.0 11309700000.0 11309700000.0 11309700000.0 11309700000.0 11309700000.0 11309700000.0 11309700000.0 11309700000.0 11309700000.0 11309700000.0 11309700000.0 11309700000.0 11309700000.0 11309700000.0 11309700000.0 11309700000.0 11309700000.0 11309700000.0 11309700000.0 11309700000.0 11309700000.0 11309700000.0 11309700000.0 11309700000.0 11309700000.0 11309700000.0 11309700000.0 11309700000.0 11309700000.0 11309700000.0 11309700000.0 11309700000.0 11309700000.0 11309700000.0 11309700000.0 11309700000.0 11309700000.0 11309700000.0 11309700000.0 11309700000.0 11309700000.0 11309700000.0 11309700000.0 11309700000.0 11309700000.0 11309700000.0 11309700000.0 11309700000.0 11309700000.0 11309700000.0 11309700000.0 11309700000.0 11309700000.0 11309700000.0 11309700000.0 11309700000.0 11309700000.0 11309700000.0 11309700000.0 11309700000.0 11309700000.0 11309700000.0 11309700000.0 11309700000.0 11309700000.0 11309700000.0 11309700000.0 11309700000.0 11309700000.0 11309700000.0 11309700000.0 11309700000.0 11309700000.0 11309700000.0 11309700000.0 11309700000.0 11309700000.0 11309700000.0 11309700000.0 11309700000.0 11309700000.0 11309700000.0 11309700000.0 11309700000.0 11309700000.0 11309700000.0 11309700000.0 11309700000.0 11309700000.0 11309700000.0 11309700000.0 11309700000.0 11309700000.0 11309700000.0 11309700000.0 11309700000.0 11309700000.0 11309700000.0 11309700000.0 11309700000.0 11309700000.0 11309700000.0 11309700000.0 11309700000.0 11309700000.0 11309700000.0 11309700000.0 11309700000.0 11309700000.0 11309700000.0 11309700000.0 11309700000.0 11309700000.0 11309700000.0 11309700000.0 11309700000.0 11309700000.0 11309700000.0 11309700000.0 11309700000.0 11309700000.0 11309700000.0 11309700000.0 11309700000.0 11309700000.0 11309700000.0 11309700000.0 11309700000.0 11309700000.0 11309700000.0 11309700000.0 11309700000.0 11309700000.0 11309700000.0 11309700000.0 11309700000.0 11309700000.0 11309700000.0 11309700000.0 11309700000.0 11309700000.0 11309700000.0 11309700000.0 11309700000.0 11309700000.0 11309700000.0 11309700000.0 11309700000.0 11309700000.0 11309700000.0 11309700000.0 11309700000.0 11309700000.0 11309700000.0 11309700000.0 11309700000.0 11309700000.0 11309700000.0 11309700000.0 11309700000.0 11309700000.0 11309700000.0 11309700000.0 11309700000.0 11309700000.0 11309700000.0 11309700000.0 11309700000.0 11309700000.0 11309700000.0 11309700000.0 11309700000.0 11309700000.0 11309700000.0 11309700000.0 11309700000.0 11309700000.0 11309700000.0 11309700000.0 11309700000.0 11309700000.0 11309700000.0 11309700000.0 11309700000.0 11309700000.0 11309700000.0 11309700000.0 11309700000.0 11309700000.0 11309700000.0 11309700000.0 11309700000.0 11309700000.0 11309700000.0 11309700000.0 11309700000.0 11309700000.0 11309700000.0 11309700000.0 11309700000.0 11309700000.0 11309700000.0 11309700000.0 11309700000.0 11309700000.0 11309700000.0 11309700000.0 11309700000.0 11309700000.0 11309700000.0 11309700000.0 11309700000.0 11309700000.0 11309700000.0 11309700000.0 11309700000.0 11309700000.0 11309700000.0 11309700000.0 11309700000.0 11309700000.0 11309700000.0 11309700000.0 11309700000.0 11309700000.0 11309700000.0 11309700000.0 11309700000.0 11309700000.0 11309700000.0 11309700000.0 11309700000.0 11309700000.0 11309700000.0 11309700000.0 11309700000.0 11309700000.0 11309700000.0 11309700000.0 11309700000.0 11309700000.0 11309700000.0 11309700000.0 11309700000.0 11309700000.0 11309700000.0 11309700000.0 11309700000.0 11309700000.0 11309700000.0 11309700000.0 11309700000.0 11309700000.0 11309700000.0 11309700000.0 11309700000.0 11309700000.0 11309700000.0 11309700000.0 11309700000.0 11309700000.0 11309700000.0 11309700000.0 11309700000.0 11309700000.0 11309700000.0 11309700000.0 11309700000.0 11309700000.0 11309700000.0 11309700000.0 11309700000.0 11309700000.0 11309700000.0 11309700000.0 11309700000.0 11309700000.0 11309700000.0 11309700000.0 11309700000.0 11309700000.0 11309700000.0 11309700000.0 11309700000.0 11309700000.0 11309700000.0 11309700000.0 11309700000.0 11309700000.0 11309700000.0 11309700000.0 11309700000.0 11309700000.0 11309700000.0 11309700000.0 11309700000.0 11309700000.0 11309700000.0 11309700000.0 11309700000.0 11309700000.0 11309700000.0 11309700000.0 11309700000.0 11309700000.0 11309700000.0 11309700000.0 11309700000.0 11309700000.0 11309700000.0 11309700000.0 11309700000.0 11309700000.0 11309700000.0 11309700000.0 11309700000.0 11309700000.0 11309700000.0 11309700000.0 11309700000.0 11309700000.0 11309700000.0 11309700000.0 11309700000.0 11309700000.0 11309700000.0 11309700000.0 11309700000.0 11309700000.0 11309700000.0 11309700000.0 11309700000.0 11309700000.0 11309700000.0 11309700000.0 11309700000.0 11309700000.0 11309700000.0 11309700000.0 11309700000.0 11309700000.0 11309700000.0 11309700000.0 11309700000.0 11309700000.0 11309700000.0 11309700000.0 11309700000.0 11309700000.0 11309700000.0 11309700000.0 11309700000.0 11309700000.0 11309700000.0 11309700000.0 11309700000.0 11309700000.0 11309700000.0 11309700000.0 11309700000.0 11309700000.0 11309700000.0 11309700000.0 11309700000.0 11309700000.0 11309700000.0 11309700000.0 11309700000.0 11309700000.0 11309700000.0 11309700000.0 11309700000.0 11309700000.0 11309700000.0 11309700000.0 11309700000.0 11309700000.0 11309700000.0 11309700000.0 11309700000.0 11309700000.0 11309700000.0 11309700000.0 11309700000.0 11309700000.0 11309700000.0 11309700000.0 11309700000.0 11309700000.0 11309700000.0 11309700000.0 11309700000.0 11309700000.0 11309700000.0 11309700000.0 11309700000.0 11309700000.0 11309700000.0 11309700000.0 11309700000.0 11309700000.0 11309700000.0 11309700000.0 11309700000.0 11309700000.0 11309700000.0 11309700000.0 11309700000.0 11309700000.0 11309700000.0 11309700000.0 11309700000.0 11309700000.0 11309700000.0 11309700000.0 11309700000.0 11309700000.0 11309700000.0 11309700000.0 11309700000.0 11309700000.0 11309700000.0 11309700000.0 11309700000.0 11309700000.0 11309700000.0 11309700000.0 11309700000.0 11309700000.0 11309700000.0 11309700000.0 11309700000.0 11309700000.0 11309700000.0 11309700000.0 11309700000.0 11309700000.0 11309700000.0 11309700000.0 11309700000.0 11309700000.0 11309700000.0 11309700000.0 11309700000.0 11309700000.0 11309700000.0 11309700000.0 11309700000.0 11309700000.0 11309700000.0 11309700000.0 11309700000.0 11309700000.0 11309700000.0 11309700000.0 11309700000.0 11309700000.0 11309700000.0 11309700000.0 11309700000.0 11309700000.0 11309700000.0 11309700000.0 11309700000.0 11309700000.0 11309700000.0 11309700000.0 11309700000.0 11309700000.0 11309700000.0 11309700000.0 11309700000.0 11309700000.0 11309700000.0 11309700000.0 11309700000.0 11309700000.0 11309700000.0 11309700000.0 11309700000.0 11309700000.0 11309700000.0 11309700000.0 11309700000.0 11309700000.0 11309700000.0 11309700000.0 11309700000.0 11309700000.0 11309700000.0 11309700000.0 11309700000.0 11309700000.0 11309700000.0 11309700000.0 11309700000.0 11309700000.0 11309700000.0 11309700000.0 11309700000.0 11309700000.0 11309700000.0 11309700000.0 11309700000.0 11309700000.0 11309700000.0 11309700000.0 11309700000.0 11309700000.0 11309700000.0 11309700000.0 11309700000.0 11309700000.0 11309700000.0 11309700000.0 11309700000.0 11309700000.0 11309700000.0 11309700000.0 11309700000.0 11309700000.0 11309700000.0 11309700000.0 11309700000.0 11309700000.0 11309700000.0 11309700000.0 11309700000.0 11309700000.0 11309700000.0 11309700000.0 11309700000.0 11309700000.0 11309700000.0 11309700000.0 11309700000.0 11309700000.0 11309700000.0 11309700000.0 11309700000.0 11309700000.0 11309700000.0 11309700000.0 11309700000.0 11309700000.0 11309700000.0 11309700000.0 11309700000.0 11309700000.0 11309700000.0 11309700000.0 11309700000.0 11309700000.0 11309700000.0 11309700000.0 11309700000.0 11309700000.0 11309700000.0 11309700000.0 11309700000.0 11309700000.0 11309700000.0 11309700000.0 11309700000.0 11309700000.0 11309700000.0 11309700000.0 11309700000.0 11309700000.0 11309700000.0 11309700000.0 11309700000.0 11309700000.0 11309700000.0 11309700000.0 11309700000.0 11309700000.0 11309700000.0 11309700000.0 11309700000.0 11309700000.0 11309700000.0 11309700000.0 11309700000.0 11309700000.0 11309700000.0 11309700000.0 11309700000.0 11309700000.0 11309700000.0 11309700000.0 11309700000.0 11309700000.0 11309700000.0 11309700000.0 11309700000.0 11309700000.0 11309700000.0 11309700000.0 11309700000.0 11309700000.0 11309700000.0 11309700000.0 11309700000.0 11309700000.0 11309700000.0 11309700000.0 11309700000.0 11309700000.0 11309700000.0 11309700000.0 11309700000.0 11309700000.0 11309700000.0 11309700000.0 11309700000.0 11309700000.0 11309700000.0 11309700000.0 11309700000.0 11309700000.0 11309700000.0 11309700000.0 11309700000.0 11309700000.0 11309700000.0 11309700000.0 11309700000.0 11309700000.0 11309700000.0 11309700000.0 11309700000.0 11309700000.0 11309700000.0 11309700000.0 11309700000.0 11309700000.0 11309700000.0 11309700000.0 11309700000.0 11309700000.0 11309700000.0 11309700000.0 11309700000.0 11309700000.0 11309700000.0 11309700000.0 11309700000.0 11309700000.0 11309700000.0 11309700000.0 11309700000.0 11309700000.0 11309700000.0 11309700000.0 11309700000.0 11309700000.0 11309700000.0 11309700000.0 11309700000.0 11309700000.0 11309700000.0 11309700000.0 11309700000.0 11309700000.0 11309700000.0 11309700000.0 11309700000.0 11309700000.0 11309700000.0 11309700000.0 11309700000.0 11309700000.0 11309700000.0 11309700000.0 11309700000.0 11309700000.0 11309700000.0 11309700000.0 11309700000.0 11309700000.0 11309700000.0 11309700000.0 11309700000.0 11309700000.0 11309700000.0 11309700000.0 11309700000.0 11309700000.0 11309700000.0 11309700000.0 11309700000.0 11309700000.0 11309700000.0 11309700000.0 11309700000.0 11309700000.0 11309700000.0 11309700000.0 11309700000.0 11309700000.0 11309700000.0 11309700000.0 11309700000.0 11309700000.0 11309700000.0 11309700000.0 11309700000.0 11309700000.0 11309700000.0 11309700000.0 11309700000.0 11309700000.0 11309700000.0 11309700000.0 11309700000.0 11309700000.0 11309700000.0 11309700000.0 11309700000.0 11309700000.0 11309700000.0 11309700000.0 11309700000.0 11309700000.0 11309700000.0 11309700000.0 11309700000.0 11309700000.0 11309700000.0 11309700000.0 11309700000.0 11309700000.0 11309700000.0 11309700000.0 11309700000.0 11309700000.0 11309700000.0 11309700000.0 11309700000.0 11309700000.0 11309700000.0 11309700000.0 11309700000.0 11309700000.0 11309700000.0 11309700000.0 11309700000.0 11309700000.0 11309700000.0 11309700000.0 11309700000.0 11309700000.0 11309700000.0 11309700000.0 11309700000.0 11309700000.0 11309700000.0 11309700000.0 11309700000.0 11309700000.0 11309700000.0 11309700000.0 11309700000.0 11309700000.0 11309700000.0 11309700000.0 11309700000.0 11309700000.0 11309700000.0 11309700000.0 11309700000.0 11309700000.0 11309700000.0 11309700000.0 11309700000.0 11309700000.0 11309700000.0 11309700000.0 11309700000.0 11309700000.0 11309700000.0 11309700000.0 11309700000.0 11309700000.0 11309700000.0 11309700000.0 11309700000.0 11309700000.0 11309700000.0 11309700000.0 11309700000.0 11309700000.0 11309700000.0 11309700000.0 11309700000.0 11309700000.0 11309700000.0 11309700000.0 11309700000.0 11309700000.0 11309700000.0 11309700000.0 11309700000.0 11309700000.0 11309700000.0 11309700000.0 11309700000.0 11309700000.0 11309700000.0 11309700000.0 11309700000.0 11309700000.0 11309700000.0 11309700000.0 11309700000.0 11309700000.0 11309700000.0 11309700000.0 11309700000.0 11309700000.0 11309700000.0 11309700000.0 11309700000.0 11309700000.0 11309700000.0 11309700000.0 11309700000.0 11309700000.0 11309700000.0 11309700000.0 11309700000.0 11309700000.0 11309700000.0 11309700000.0 11309700000.0 11309700000.0 11309700000.0 11309700000.0 11309700000.0 11309700000.0 11309700000.0 11309700000.0 11309700000.0 11309700000.0 11309700000.0 11309700000.0 11309700000.0 11309700000.0 11309700000.0 11309700000.0 11309700000.0 11309700000.0 11309700000.0 11309700000.0 11309700000.0 11309700000.0 11309700000.0 11309700000.0 11309700000.0 11309700000.0 11309700000.0 11309700000.0 11309700000.0 11309700000.0 11309700000.0 11309700000.0 11309700000.0 11309700000.0 11309700000.0 11309700000.0 11309700000.0 11309700000.0 11309700000.0 11309700000.0 11309700000.0 11309700000.0 11309700000.0 11309700000.0 11309700000.0 11309700000.0 11309700000.0 11309700000.0 11309700000.0 11309700000.0 11309700000.0 11309700000.0 11309700000.0 11309700000.0 11309700000.0 11309700000.0 11309700000.0 11309700000.0 11309700000.0 11309700000.0 11309700000.0 11309700000.0 11309700000.0 11309700000.0 11309700000.0 11309700000.0 11309700000.0 11309700000.0 11309700000.0 11309700000.0 11309700000.0 11309700000.0 11309700000.0 11309700000.0 11309700000.0 11309700000.0 11309700000.0 11309700000.0 11309700000.0 11309700000.0 11309700000.0 11309700000.0 11309700000.0 11309700000.0 11309700000.0 11309700000.0 11309700000.0 11309700000.0 11309700000.0 11309700000.0 11309700000.0 11309700000.0 11309700000.0 11309700000.0 11309700000.0 11309700000.0 11309700000.0 11309700000.0 11309700000.0 11309700000.0 11309700000.0 11309700000.0 11309700000.0 11309700000.0 11309700000.0 11309700000.0 11309700000.0 11309700000.0 11309700000.0 11309700000.0 11309700000.0 11309700000.0 11309700000.0 11309700000.0 11309700000.0 11309700000.0 11309700000.0 11309700000.0 11309700000.0 11309700000.0 11309700000.0 11309700000.0 11309700000.0 11309700000.0 11309700000.0 11309700000.0 11309700000.0 11309700000.0 11309700000.0 11309700000.0 11309700000.0 11309700000.0 11309700000.0 11309700000.0 11309700000.0 11309700000.0 11309700000.0 11309700000.0 11309700000.0 11309700000.0 11309700000.0 11309700000.0 11309700000.0 11309700000.0 11309700000.0 11309700000.0 11309700000.0 11309700000.0 11309700000.0 11309700000.0 11309700000.0 11309700000.0 11309700000.0 11309700000.0 11309700000.0 11309700000.0 11309700000.0 11309700000.0 11309700000.0 11309700000.0 11309700000.0 11309700000.0 11309700000.0 11309700000.0 11309700000.0 11309700000.0 11309700000.0 11309700000.0 11309700000.0 11309700000.0 11309700000.0 11309700000.0 11309700000.0 11309700000.0 11309700000.0 11309700000.0 11309700000.0 11309700000.0 11309700000.0 11309700000.0 11309700000.0 11309700000.0 11309700000.0 11309700000.0 11309700000.0 11309700000.0 11309700000.0 11309700000.0 11309700000.0 11309700000.0 11309700000.0 11309700000.0 11309700000.0 11309700000.0 11309700000.0 11309700000.0 11309700000.0 11309700000.0 11309700000.0 11309700000.0 11309700000.0 11309700000.0 11309700000.0 11309700000.0 11309700000.0 11309700000.0 11309700000.0 11309700000.0 11309700000.0 11309700000.0 11309700000.0 11309700000.0 11309700000.0 11309700000.0 11309700000.0 11309700000.0 11309700000.0 11309700000.0 11309700000.0 11309700000.0 11309700000.0 11309700000.0 11309700000.0 11309700000.0 11309700000.0 11309700000.0 11309700000.0 11309700000.0 11309700000.0 11309700000.0 11309700000.0 11309700000.0 11309700000.0 11309700000.0 11309700000.0 11309700000.0 11309700000.0 11309700000.0 11309700000.0 11309700000.0 11309700000.0 11309700000.0 11309700000.0 11309700000.0 11309700000.0 11309700000.0 11309700000.0 11309700000.0 11309700000.0 11309700000.0 11309700000.0 11309700000.0 11309700000.0 11309700000.0 11309700000.0 11309700000.0 11309700000.0 11309700000.0 11309700000.0 11309700000.0 11309700000.0 11309700000.0 11309700000.0 11309700000.0 11309700000.0 11309700000.0 11309700000.0 11309700000.0 11309700000.0 11309700000.0 11309700000.0 11309700000.0 11309700000.0 11309700000.0 11309700000.0 11309700000.0 11309700000.0 11309700000.0 11309700000.0 11309700000.0 11309700000.0 11309700000.0 11309700000.0 11309700000.0 11309700000.0 11309700000.0 11309700000.0 11309700000.0 11309700000.0 11309700000.0 11309700000.0 11309700000.0 11309700000.0 11309700000.0 11309700000.0 11309700000.0 11309700000.0 11309700000.0 11309700000.0 11309700000.0 11309700000.0 11309700000.0 11309700000.0 11309700000.0 11309700000.0 11309700000.0 11309700000.0 11309700000.0 11309700000.0 11309700000.0 11309700000.0 11309700000.0 11309700000.0 11309700000.0 11309700000.0 11309700000.0 11309700000.0 11309700000.0 11309700000.0 11309700000.0 11309700000.0 11309700000.0 11309700000.0 11309700000.0 11309700000.0 11309700000.0 11309700000.0 11309700000.0 11309700000.0 11309700000.0 11309700000.0 11309700000.0 11309700000.0 11309700000.0 11309700000.0 11309700000.0 11309700000.0 11309700000.0 11309700000.0 11309700000.0 11309700000.0 11309700000.0 11309700000.0 11309700000.0 11309700000.0 11309700000.0 11309700000.0 11309700000.0 11309700000.0 11309700000.0 11309700000.0 11309700000.0 11309700000.0 11309700000.0 11309700000.0 11309700000.0 11309700000.0 11309700000.0 11309700000.0 11309700000.0 11309700000.0 11309700000.0 11309700000.0 11309700000.0 11309700000.0 11309700000.0 11309700000.0 11309700000.0 11309700000.0 11309700000.0 11309700000.0 11309700000.0 11309700000.0 11309700000.0 11309700000.0 11309700000.0 11309700000.0 11309700000.0 11309700000.0 11309700000.0 11309700000.0 11309700000.0 11309700000.0 11309700000.0 11309700000.0 11309700000.0 11309700000.0 11309700000.0 11309700000.0 11309700000.0 11309700000.0 11309700000.0 11309700000.0 11309700000.0 11309700000.0 11309700000.0 11309700000.0 11309700000.0 11309700000.0 11309700000.0 11309700000.0 11309700000.0 11309700000.0 11309700000.0 11309700000.0 11309700000.0 11309700000.0 11309700000.0 11309700000.0 11309700000.0 11309700000.0 11309700000.0 11309700000.0 11309700000.0 11309700000.0 11309700000.0 11309700000.0 11309700000.0 11309700000.0 11309700000.0 11309700000.0 11309700000.0 11309700000.0 11309700000.0 11309700000.0 11309700000.0 11309700000.0 11309700000.0 11309700000.0 11309700000.0 11309700000.0 11309700000.0 11309700000.0 11309700000.0 11309700000.0 11309700000.0 11309700000.0 11309700000.0 11309700000.0 11309700000.0 11309700000.0 11309700000.0 11309700000.0 11309700000.0 11309700000.0 11309700000.0 11309700000.0 11309700000.0 11309700000.0 11309700000.0 11309700000.0 11309700000.0 11309700000.0 11309700000.0 11309700000.0 11309700000.0 11309700000.0 11309700000.0 11309700000.0 11309700000.0 11309700000.0 11309700000.0 11309700000.0 11309700000.0 11309700000.0 11309700000.0 11309700000.0 11309700000.0 11309700000.0 11309700000.0 11309700000.0 11309700000.0 11309700000.0 11309700000.0 11309700000.0 11309700000.0 11309700000.0 11309700000.0 11309700000.0 11309700000.0 11309700000.0 11309700000.0 11309700000.0 11309700000.0 11309700000.0 11309700000.0 11309700000.0 11309700000.0 11309700000.0 11309700000.0 11309700000.0 11309700000.0 11309700000.0 11309700000.0 11309700000.0 11309700000.0 11309700000.0 11309700000.0 11309700000.0 11309700000.0 11309700000.0 11309700000.0 11309700000.0 11309700000.0 11309700000.0 11309700000.0 11309700000.0 11309700000.0 11309700000.0 11309700000.0 11309700000.0 11309700000.0 11309700000.0 11309700000.0 11309700000.0 11309700000.0 11309700000.0 11309700000.0 11309700000.0 11309700000.0 11309700000.0 11309700000.0 11309700000.0 11309700000.0 11309700000.0 11309700000.0 11309700000.0 11309700000.0 11309700000.0 11309700000.0 11309700000.0 11309700000.0 11309700000.0 11309700000.0 11309700000.0 11309700000.0 11309700000.0 11309700000.0 11309700000.0 11309700000.0 11309700000.0 11309700000.0 11309700000.0 11309700000.0 11309700000.0 11309700000.0 11309700000.0 11309700000.0 11309700000.0 11309700000.0 11309700000.0 11309700000.0 11309700000.0 11309700000.0 11309700000.0 11309700000.0 11309700000.0 11309700000.0 11309700000.0 11309700000.0 11309700000.0 11309700000.0 11309700000.0 11309700000.0 11309700000.0 11309700000.0 11309700000.0 11309700000.0 11309700000.0 11309700000.0 11309700000.0 11309700000.0 11309700000.0 11309700000.0 11309700000.0 11309700000.0 11309700000.0 11309700000.0 11309700000.0 11309700000.0 11309700000.0 11309700000.0 11309700000.0 11309700000.0 11309700000.0 11309700000.0 11309700000.0 11309700000.0 11309700000.0 11309700000.0 11309700000.0 11309700000.0 11309700000.0 11309700000.0 11309700000.0 11309700000.0 11309700000.0 11309700000.0 11309700000.0 11309700000.0 11309700000.0 11309700000.0 11309700000.0 11309700000.0 11309700000.0 11309700000.0 11309700000.0 11309700000.0 11309700000.0 11309700000.0 11309700000.0 11309700000.0 11309700000.0 11309700000.0 11309700000.0 11309700000.0 11309700000.0 11309700000.0 11309700000.0 11309700000.0 11309700000.0 11309700000.0 11309700000.0 11309700000.0 11309700000.0 11309700000.0 11309700000.0 11309700000.0 11309700000.0 11309700000.0 11309700000.0 11309700000.0 11309700000.0 11309700000.0 11309700000.0 11309700000.0 11309700000.0 11309700000.0 11309700000.0 11309700000.0 11309700000.0 11309700000.0 11309700000.0 11309700000.0 11309700000.0 11309700000.0 11309700000.0 11309700000.0 11309700000.0 11309700000.0 11309700000.0 11309700000.0 11309700000.0 11309700000.0 11309700000.0 11309700000.0 11309700000.0 11309700000.0 11309700000.0 11309700000.0 11309700000.0 11309700000.0 11309700000.0 11309700000.0 11309700000.0 11309700000.0 11309700000.0 11309700000.0 11309700000.0 11309700000.0 11309700000.0 11309700000.0 11309700000.0 11309700000.0 11309700000.0 11309700000.0 11309700000.0 11309700000.0 11309700000.0 11309700000.0 11309700000.0 11309700000.0 11309700000.0 11309700000.0 11309700000.0 11309700000.0 11309700000.0 11309700000.0 11309700000.0 11309700000.0 11309700000.0 11309700000.0 11309700000.0 11309700000.0 11309700000.0 11309700000.0 11309700000.0 11309700000.0 11309700000.0 11309700000.0 11309700000.0 11309700000.0 11309700000.0 11309700000.0 11309700000.0 11309700000.0 11309700000.0 11309700000.0 11309700000.0 11309700000.0 11309700000.0 11309700000.0 11309700000.0 11309700000.0 11309700000.0 11309700000.0 11309700000.0 11309700000.0 11309700000.0 11309700000.0 11309700000.0 11309700000.0 11309700000.0 11309700000.0 11309700000.0 11309700000.0 11309700000.0 11309700000.0 11309700000.0 11309700000.0 11309700000.0 11309700000.0 11309700000.0 11309700000.0 11309700000.0 11309700000.0 11309700000.0 11309700000.0 11309700000.0 11309700000.0 11309700000.0 11309700000.0 11309700000.0 11309700000.0 11309700000.0 11309700000.0 11309700000.0 11309700000.0 11309700000.0 11309700000.0 11309700000.0 11309700000.0 11309700000.0 11309700000.0 11309700000.0 11309700000.0 11309700000.0 11309700000.0 11309700000.0 11309700000.0 11309700000.0 11309700000.0 11309700000.0 11309700000.0 11309700000.0 11309700000.0 11309700000.0 11309700000.0 11309700000.0 11309700000.0 11309700000.0 11309700000.0 11309700000.0 11309700000.0 11309700000.0 11309700000.0 11309700000.0 11309700000.0 11309700000.0 11309700000.0 11309700000.0 11309700000.0 11309700000.0 11309700000.0 11309700000.0 11309700000.0 11309700000.0 11309700000.0 11309700000.0 11309700000.0 11309700000.0 11309700000.0 11309700000.0 11309700000.0 11309700000.0 11309700000.0 11309700000.0 11309700000.0 11309700000.0 11309700000.0 11309700000.0 11309700000.0 11309700000.0 11309700000.0 11309700000.0 11309700000.0 11309700000.0 11309700000.0 11309700000.0 11309700000.0 11309700000.0 11309700000.0 11309700000.0 11309700000.0 11309700000.0 11309700000.0 11309700000.0 11309700000.0 11309700000.0 11309700000.0 11309700000.0 11309700000.0 11309700000.0 11309700000.0 11309700000.0 11309700000.0 11309700000.0 11309700000.0 11309700000.0 11309700000.0 11309700000.0 11309700000.0 11309700000.0 11309700000.0 11309700000.0 11309700000.0 11309700000.0 11309700000.0 11309700000.0 11309700000.0 11309700000.0 11309700000.0 11309700000.0 11309700000.0 11309700000.0 11309700000.0 11309700000.0 11309700000.0 11309700000.0 11309700000.0 11309700000.0 11309700000.0 11309700000.0 11309700000.0 11309700000.0 11309700000.0 11309700000.0 11309700000.0 11309700000.0 11309700000.0 11309700000.0 11309700000.0 11309700000.0 11309700000.0 11309700000.0 11309700000.0 11309700000.0 11309700000.0 11309700000.0 11309700000.0 11309700000.0 11309700000.0 11309700000.0 11309700000.0 11309700000.0 11309700000.0 11309700000.0 11309700000.0 11309700000.0 11309700000.0 11309700000.0 11309700000.0 11309700000.0 11309700000.0 11309700000.0 11309700000.0 11309700000.0 11309700000.0 11309700000.0 11309700000.0 11309700000.0 11309700000.0 11309700000.0 11309700000.0 11309700000.0 11309700000.0 11309700000.0 11309700000.0 11309700000.0 11309700000.0 11309700000.0 11309700000.0 11309700000.0 11309700000.0 11309700000.0 11309700000.0 11309700000.0 11309700000.0 11309700000.0 11309700000.0 11309700000.0 11309700000.0 11309700000.0 11309700000.0 11309700000.0 11309700000.0 11309700000.0 11309700000.0 11309700000.0 11309700000.0 11309700000.0 11309700000.0 11309700000.0 11309700000.0 11309700000.0 11309700000.0 11309700000.0 11309700000.0 11309700000.0 11309700000.0 11309700000.0 11309700000.0 11309700000.0 11309700000.0 11309700000.0 11309700000.0 11309700000.0 11309700000.0 11309700000.0 11309700000.0 11309700000.0 11309700000.0 11309700000.0 11309700000.0 11309700000.0 11309700000.0 11309700000.0 11309700000.0 11309700000.0 11309700000.0 11309700000.0 11309700000.0 11309700000.0 11309700000.0 11309700000.0 11309700000.0 11309700000.0 11309700000.0 11309700000.0 11309700000.0 11309700000.0 11309700000.0 11309700000.0 11309700000.0 11309700000.0 11309700000.0 11309700000.0 11309700000.0 11309700000.0 11309700000.0 11309700000.0 11309700000.0 11309700000.0 11309700000.0 11309700000.0 11309700000.0 11309700000.0 11309700000.0 11309700000.0 11309700000.0 11309700000.0 11309700000.0 11309700000.0 11309700000.0 11309700000.0 11309700000.0 11309700000.0 11309700000.0 11309700000.0 11309700000.0 11309700000.0 11309700000.0 11309700000.0 11309700000.0 11309700000.0 11309700000.0 11309700000.0 11309700000.0 11309700000.0 11309700000.0 11309700000.0 11309700000.0 11309700000.0 11309700000.0 11309700000.0 11309700000.0 11309700000.0 11309700000.0 11309700000.0 11309700000.0 11309700000.0 11309700000.0 11309700000.0 11309700000.0 11309700000.0 11309700000.0 11309700000.0 11309700000.0 11309700000.0 11309700000.0 11309700000.0 11309700000.0 11309700000.0 11309700000.0 11309700000.0 11309700000.0 11309700000.0 11309700000.0 11309700000.0 11309700000.0 11309700000.0 11309700000.0 11309700000.0 11309700000.0 11309700000.0 11309700000.0 11309700000.0 11309700000.0 11309700000.0 11309700000.0 11309700000.0 11309700000.0 11309700000.0 11309700000.0 11309700000.0 11309700000.0 11309700000.0 11309700000.0 11309700000.0 11309700000.0 11309700000.0 11309700000.0 11309700000.0 11309700000.0 11309700000.0 11309700000.0 11309700000.0 11309700000.0 11309700000.0 11309700000.0 11309700000.0 11309700000.0 11309700000.0 11309700000.0 11309700000.0 11309700000.0 11309700000.0 11309700000.0 11309700000.0 11309700000.0 11309700000.0 11309700000.0 11309700000.0 11309700000.0 11309700000.0 11309700000.0 11309700000.0 11309700000.0 11309700000.0 11309700000.0 11309700000.0 11309700000.0 11309700000.0 11309700000.0 11309700000.0 11309700000.0 11309700000.0 11309700000.0 11309700000.0 11309700000.0 11309700000.0 11309700000.0 11309700000.0 11309700000.0 11309700000.0 11309700000.0 11309700000.0 11309700000.0 11309700000.0 11309700000.0 11309700000.0 11309700000.0 11309700000.0 11309700000.0 11309700000.0 11309700000.0 11309700000.0 11309700000.0 11309700000.0 11309700000.0 11309700000.0 11309700000.0 11309700000.0 11309700000.0 11309700000.0 11309700000.0 11309700000.0 11309700000.0 11309700000.0 11309700000.0 11309700000.0 11309700000.0 11309700000.0 11309700000.0 11309700000.0 11309700000.0 11309700000.0 11309700000.0 11309700000.0 11309700000.0 11309700000.0 11309700000.0 11309700000.0 11309700000.0 11309700000.0 11309700000.0 11309700000.0 11309700000.0 11309700000.0 11309700000.0 11309700000.0 11309700000.0 11309700000.0 11309700000.0 11309700000.0 11309700000.0 11309700000.0 11309700000.0 11309700000.0 11309700000.0 11309700000.0 11309700000.0 11309700000.0 11309700000.0 11309700000.0 11309700000.0 11309700000.0 11309700000.0 11309700000.0 11309700000.0 11309700000.0 11309700000.0 11309700000.0 11309700000.0 11309700000.0 11309700000.0 11309700000.0 11309700000.0 11309700000.0 11309700000.0 11309700000.0 11309700000.0 11309700000.0 11309700000.0 11309700000.0 11309700000.0 11309700000.0 11309700000.0 11309700000.0 11309700000.0 11309700000.0 11309700000.0 11309700000.0 11309700000.0 11309700000.0 11309700000.0 11309700000.0 11309700000.0 11309700000.0 11309700000.0 11309700000.0 11309700000.0 11309700000.0 11309700000.0 11309700000.0 11309700000.0 11309700000.0 11309700000.0 11309700000.0 11309700000.0 11309700000.0 11309700000.0 11309700000.0 11309700000.0 11309700000.0 11309700000.0 11309700000.0 11309700000.0 11309700000.0 11309700000.0 11309700000.0 11309700000.0 11309700000.0 11309700000.0 11309700000.0 11309700000.0 11309700000.0 11309700000.0 11309700000.0 11309700000.0 11309700000.0 11309700000.0 11309700000.0 11309700000.0 11309700000.0 11309700000.0 11309700000.0 11309700000.0 11309700000.0 11309700000.0 11309700000.0 11309700000.0 11309700000.0 11309700000.0 11309700000.0 11309700000.0 11309700000.0 11309700000.0 11309700000.0 11309700000.0 11309700000.0 11309700000.0 11309700000.0 11309700000.0 11309700000.0 11309700000.0 11309700000.0 11309700000.0 11309700000.0 11309700000.0 11309700000.0 11309700000.0 11309700000.0 11309700000.0 11309700000.0 11309700000.0 11309700000.0 11309700000.0 11309700000.0 11309700000.0 11309700000.0 11309700000.0 11309700000.0 11309700000.0 11309700000.0 11309700000.0 11309700000.0 11309700000.0 11309700000.0 11309700000.0 11309700000.0 11309700000.0 11309700000.0 11309700000.0 11309700000.0 11309700000.0 11309700000.0 11309700000.0 11309700000.0 11309700000.0 11309700000.0 11309700000.0 11309700000.0 11309700000.0 11309700000.0 11309700000.0 11309700000.0 11309700000.0 11309700000.0 11309700000.0 11309700000.0 11309700000.0 11309700000.0 11309700000.0 11309700000.0 11309700000.0 11309700000.0 11309700000.0 11309700000.0 11309700000.0 11309700000.0 11309700000.0 11309700000.0 11309700000.0 11309700000.0 11309700000.0 11309700000.0 11309700000.0 11309700000.0 11309700000.0 11309700000.0 11309700000.0 11309700000.0 11309700000.0 11309700000.0 11309700000.0 11309700000.0 11309700000.0 11309700000.0 11309700000.0 11309700000.0 11309700000.0 11309700000.0 11309700000.0 11309700000.0 11309700000.0 11309700000.0 11309700000.0 11309700000.0 11309700000.0 11309700000.0 11309700000.0 11309700000.0 11309700000.0 11309700000.0 11309700000.0 11309700000.0 11309700000.0 11309700000.0 11309700000.0 11309700000.0 11309700000.0 11309700000.0 11309700000.0 11309700000.0 11309700000.0 11309700000.0 11309700000.0 11309700000.0 11309700000.0 11309700000.0 11309700000.0 11309700000.0 11309700000.0 11309700000.0 11309700000.0 11309700000.0 11309700000.0 11309700000.0 11309700000.0 11309700000.0 11309700000.0 11309700000.0 11309700000.0 11309700000.0 11309700000.0 11309700000.0 11309700000.0 11309700000.0 11309700000.0 11309700000.0 11309700000.0 11309700000.0 11309700000.0 11309700000.0 11309700000.0 11309700000.0 11309700000.0 11309700000.0 11309700000.0 11309700000.0 11309700000.0 11309700000.0 11309700000.0 11309700000.0 11309700000.0 11309700000.0 11309700000.0 11309700000.0 11309700000.0 11309700000.0 11309700000.0 11309700000.0 11309700000.0 11309700000.0 11309700000.0 11309700000.0 11309700000.0 11309700000.0 11309700000.0 11309700000.0 11309700000.0 11309700000.0 11309700000.0 11309700000.0 11309700000.0 11309700000.0 11309700000.0 11309700000.0 11309700000.0 11309700000.0 11309700000.0 11309700000.0 11309700000.0 11309700000.0 11309700000.0 11309700000.0 11309700000.0 11309700000.0 11309700000.0 11309700000.0 11309700000.0 11309700000.0 11309700000.0 11309700000.0 11309700000.0 11309700000.0 11309700000.0 11309700000.0 11309700000.0 11309700000.0 11309700000.0 11309700000.0 11309700000.0 11309700000.0 11309700000.0 11309700000.0 11309700000.0 11309700000.0 11309700000.0 11309700000.0 11309700000.0 11309700000.0 11309700000.0 11309700000.0 11309700000.0 11309700000.0 11309700000.0 11309700000.0 11309700000.0 11309700000.0 11309700000.0 11309700000.0 11309700000.0 11309700000.0 11309700000.0 11309700000.0 11309700000.0 11309700000.0 11309700000.0 11309700000.0 11309700000.0 11309700000.0 11309700000.0 11309700000.0 11309700000.0 11309700000.0 11309700000.0 11309700000.0 11309700000.0 11309700000.0 11309700000.0 11309700000.0 11309700000.0 11309700000.0 11309700000.0 11309700000.0 11309700000.0 11309700000.0 11309700000.0 11309700000.0 11309700000.0 11309700000.0 11309700000.0 11309700000.0 11309700000.0 11309700000.0 11309700000.0 11309700000.0 11309700000.0 11309700000.0 11309700000.0 11309700000.0 11309700000.0 11309700000.0 11309700000.0 11309700000.0 11309700000.0 11309700000.0 11309700000.0 11309700000.0 11309700000.0 11309700000.0 11309700000.0 11309700000.0 11309700000.0 11309700000.0 11309700000.0 11309700000.0 11309700000.0 11309700000.0 11309700000.0 11309700000.0 11309700000.0 11309700000.0 11309700000.0 11309700000.0 11309700000.0 11309700000.0 11309700000.0 11309700000.0 11309700000.0 11309700000.0 11309700000.0 11309700000.0 11309700000.0 11309700000.0 11309700000.0 11309700000.0 11309700000.0 11309700000.0 11309700000.0 11309700000.0 11309700000.0 11309700000.0 11309700000.0 11309700000.0 11309700000.0 11309700000.0 11309700000.0 11309700000.0 11309700000.0 11309700000.0 11309700000.0 11309700000.0 11309700000.0 11309700000.0 11309700000.0 11309700000.0 11309700000.0 11309700000.0 11309700000.0 11309700000.0 11309700000.0 11309700000.0 11309700000.0 11309700000.0 11309700000.0 11309700000.0 11309700000.0 11309700000.0 11309700000.0 11309700000.0 11309700000.0 11309700000.0 11309700000.0 11309700000.0 11309700000.0 11309700000.0 11309700000.0 11309700000.0 11309700000.0 11309700000.0 11309700000.0 11309700000.0 11309700000.0 11309700000.0 11309700000.0 11309700000.0 11309700000.0 11309700000.0 11309700000.0 11309700000.0 11309700000.0 11309700000.0 11309700000.0 11309700000.0 11309700000.0 11309700000.0 11309700000.0 11309700000.0 11309700000.0 11309700000.0 11309700000.0 11309700000.0 11309700000.0 11309700000.0 11309700000.0 11309700000.0 11309700000.0 11309700000.0 11309700000.0 11309700000.0 11309700000.0 11309700000.0 11309700000.0 11309700000.0 11309700000.0 11309700000.0 11309700000.0 11309700000.0 11309700000.0 11309700000.0 11309700000.0 11309700000.0 11309700000.0 11309700000.0 11309700000.0 11309700000.0 11309700000.0 11309700000.0 11309700000.0 11309700000.0 11309700000.0 11309700000.0 11309700000.0 11309700000.0 11309700000.0 11309700000.0 11309700000.0 11309700000.0 11309700000.0 11309700000.0 11309700000.0 11309700000.0 11309700000.0 11309700000.0 11309700000.0 11309700000.0 11309700000.0 11309700000.0 11309700000.0 11309700000.0 11309700000.0 11309700000.0 11309700000.0 11309700000.0 11309700000.0 11309700000.0 11309700000.0 11309700000.0 11309700000.0 11309700000.0 11309700000.0 11309700000.0 11309700000.0 11309700000.0 11309700000.0 11309700000.0 11309700000.0 11309700000.0 11309700000.0 11309700000.0 11309700000.0 11309700000.0 11309700000.0 11309700000.0 11309700000.0 11309700000.0 11309700000.0 11309700000.0 11309700000.0 11309700000.0 11309700000.0 11309700000.0 11309700000.0 11309700000.0 11309700000.0 11309700000.0 11309700000.0 11309700000.0 11309700000.0 11309700000.0 11309700000.0 11309700000.0 11309700000.0 11309700000.0 11309700000.0 11309700000.0 11309700000.0 11309700000.0 11309700000.0 11309700000.0 11309700000.0 11309700000.0 11309700000.0 11309700000.0 11309700000.0 11309700000.0 11309700000.0 11309700000.0 11309700000.0 11309700000.0 11309700000.0 11309700000.0 11309700000.0 11309700000.0 11309700000.0 11309700000.0 11309700000.0 11309700000.0 11309700000.0 11309700000.0 11309700000.0 11309700000.0 11309700000.0 11309700000.0 11309700000.0 11309700000.0 11309700000.0 11309700000.0 11309700000.0 11309700000.0 11309700000.0 11309700000.0 11309700000.0 11309700000.0 11309700000.0 11309700000.0 11309700000.0 11309700000.0 11309700000.0 11309700000.0 11309700000.0 11309700000.0 11309700000.0 11309700000.0 11309700000.0 11309700000.0 11309700000.0 11309700000.0 11309700000.0 11309700000.0 11309700000.0 11309700000.0 11309700000.0 11309700000.0 11309700000.0 11309700000.0 11309700000.0 11309700000.0 11309700000.0 11309700000.0 11309700000.0 11309700000.0 11309700000.0 11309700000.0 11309700000.0 11309700000.0 11309700000.0 11309700000.0 11309700000.0 11309700000.0 11309700000.0 11309700000.0 11309700000.0 11309700000.0 11309700000.0 11309700000.0 11309700000.0 11309700000.0 11309700000.0 11309700000.0 11309700000.0 11309700000.0 11309700000.0 11309700000.0 11309700000.0 11309700000.0 11309700000.0 11309700000.0 11309700000.0 11309700000.0 11309700000.0 11309700000.0 11309700000.0 11309700000.0 11309700000.0 11309700000.0 11309700000.0 11309700000.0 11309700000.0 11309700000.0 11309700000.0 11309700000.0 11309700000.0 11309700000.0 11309700000.0 11309700000.0 11309700000.0 11309700000.0 11309700000.0 11309700000.0 11309700000.0 11309700000.0 11309700000.0 11309700000.0 11309700000.0 11309700000.0 11309700000.0 11309700000.0 11309700000.0 11309700000.0 11309700000.0 11309700000.0 11309700000.0 11309700000.0 11309700000.0 11309700000.0 11309700000.0 11309700000.0 11309700000.0 11309700000.0 11309700000.0 11309700000.0 11309700000.0 11309700000.0 11309700000.0 11309700000.0 11309700000.0 11309700000.0 11309700000.0 11309700000.0 11309700000.0 11309700000.0 11309700000.0 11309700000.0 11309700000.0 11309700000.0 11309700000.0 11309700000.0 11309700000.0 11309700000.0 11309700000.0 11309700000.0 11309700000.0 11309700000.0 11309700000.0 11309700000.0 11309700000.0 11309700000.0 11309700000.0 11309700000.0 11309700000.0 11309700000.0 11309700000.0 11309700000.0 11309700000.0 11309700000.0 11309700000.0 11309700000.0 11309700000.0 11309700000.0 11309700000.0 11309700000.0 11309700000.0 11309700000.0 11309700000.0 11309700000.0 11309700000.0 11309700000.0 11309700000.0 11309700000.0 11309700000.0 11309700000.0 11309700000.0 11309700000.0 11309700000.0 11309700000.0 11309700000.0 11309700000.0 11309700000.0 11309700000.0 11309700000.0 11309700000.0 11309700000.0 11309700000.0 11309700000.0 11309700000.0 11309700000.0 11309700000.0 11309700000.0 11309700000.0 11309700000.0 11309700000.0 11309700000.0 11309700000.0 11309700000.0 11309700000.0 11309700000.0 11309700000.0 11309700000.0 11309700000.0 11309700000.0 11309700000.0 11309700000.0 11309700000.0 11309700000.0 11309700000.0 11309700000.0 11309700000.0 11309700000.0 11309700000.0 11309700000.0 11309700000.0 11309700000.0 11309700000.0 11309700000.0 11309700000.0 11309700000.0 11309700000.0 11309700000.0 11309700000.0 11309700000.0 11309700000.0 11309700000.0 11309700000.0 11309700000.0 11309700000.0 11309700000.0 11309700000.0 11309700000.0 11309700000.0 11309700000.0 11309700000.0 11309700000.0 11309700000.0 11309700000.0 11309700000.0 11309700000.0 11309700000.0 11309700000.0 11309700000.0 11309700000.0 11309700000.0 11309700000.0 11309700000.0 11309700000.0 11309700000.0 11309700000.0 11309700000.0 11309700000.0 11309700000.0 11309700000.0 11309700000.0 11309700000.0 11309700000.0 11309700000.0 11309700000.0 11309700000.0 11309700000.0 11309700000.0 11309700000.0 11309700000.0 11309700000.0 11309700000.0 11309700000.0 11309700000.0 11309700000.0 11309700000.0 11309700000.0 11309700000.0 11309700000.0 11309700000.0 11309700000.0 11309700000.0 11309700000.0 11309700000.0 11309700000.0 11309700000.0 11309700000.0 11309700000.0 11309700000.0 11309700000.0 11309700000.0 11309700000.0 11309700000.0 11309700000.0 11309700000.0 11309700000.0 11309700000.0 11309700000.0 11309700000.0 11309700000.0 11309700000.0 11309700000.0 11309700000.0 11309700000.0 11309700000.0 11309700000.0 11309700000.0 11309700000.0 11309700000.0 11309700000.0 11309700000.0 11309700000.0 11309700000.0 11309700000.0 11309700000.0 11309700000.0 11309700000.0 11309700000.0 11309700000.0 11309700000.0 11309700000.0 11309700000.0 11309700000.0 11309700000.0 11309700000.0 11309700000.0 11309700000.0 11309700000.0 11309700000.0 11309700000.0 11309700000.0 11309700000.0 11309700000.0 11309700000.0 11309700000.0 11309700000.0 11309700000.0 11309700000.0 11309700000.0 11309700000.0 11309700000.0 11309700000.0 11309700000.0 11309700000.0 11309700000.0 11309700000.0 11309700000.0 11309700000.0 11309700000.0 11309700000.0 11309700000.0 11309700000.0 11309700000.0 11309700000.0 11309700000.0 11309700000.0 11309700000.0 11309700000.0 11309700000.0 11309700000.0 11309700000.0 11309700000.0 11309700000.0 11309700000.0 11309700000.0 11309700000.0 11309700000.0 11309700000.0 11309700000.0 11309700000.0 11309700000.0 11309700000.0 11309700000.0 11309700000.0 11309700000.0 11309700000.0 11309700000.0 11309700000.0 11309700000.0 11309700000.0 11309700000.0 11309700000.0 11309700000.0 11309700000.0 11309700000.0 11309700000.0 11309700000.0 11309700000.0 11309700000.0 11309700000.0 11309700000.0 11309700000.0 11309700000.0 11309700000.0 11309700000.0 11309700000.0 11309700000.0 11309700000.0 11309700000.0 11309700000.0 11309700000.0 11309700000.0 11309700000.0 11309700000.0 11309700000.0 11309700000.0 11309700000.0 11309700000.0 11309700000.0 11309700000.0 11309700000.0 11309700000.0 11309700000.0 11309700000.0 11309700000.0 11309700000.0 11309700000.0 11309700000.0 11309700000.0 11309700000.0 11309700000.0 11309700000.0 11309700000.0 11309700000.0 11309700000.0 11309700000.0 11309700000.0 11309700000.0 11309700000.0 11309700000.0 11309700000.0 11309700000.0 11309700000.0 11309700000.0 11309700000.0 11309700000.0 11309700000.0 11309700000.0 11309700000.0 11309700000.0 11309700000.0 11309700000.0 11309700000.0 11309700000.0 11309700000.0 11309700000.0 11309700000.0 11309700000.0 11309700000.0 11309700000.0 11309700000.0 11309700000.0 11309700000.0 11309700000.0 11309700000.0 11309700000.0 11309700000.0 11309700000.0 11309700000.0 11309700000.0 11309700000.0 11309700000.0 11309700000.0 11309700000.0 11309700000.0 11309700000.0 11309700000.0 11309700000.0 11309700000.0 11309700000.0 11309700000.0 11309700000.0 11309700000.0 11309700000.0 11309700000.0 11309700000.0 11309700000.0 11309700000.0 11309700000.0 11309700000.0 11309700000.0 11309700000.0 11309700000.0 11309700000.0 11309700000.0 11309700000.0 11309700000.0 11309700000.0 11309700000.0 11309700000.0 11309700000.0 11309700000.0 11309700000.0 11309700000.0 11309700000.0 11309700000.0 11309700000.0 11309700000.0 11309700000.0 11309700000.0 11309700000.0 11309700000.0 11309700000.0 11309700000.0 11309700000.0 11309700000.0 11309700000.0 11309700000.0 11309700000.0 11309700000.0 11309700000.0 11309700000.0 11309700000.0 11309700000.0 11309700000.0 11309700000.0 11309700000.0 11309700000.0 11309700000.0 11309700000.0 11309700000.0 11309700000.0 11309700000.0 11309700000.0 11309700000.0 11309700000.0 11309700000.0 11309700000.0 11309700000.0 11309700000.0 11309700000.0 11309700000.0 11309700000.0 11309700000.0 11309700000.0 11309700000.0 11309700000.0 11309700000.0 11309700000.0 11309700000.0 11309700000.0 11309700000.0 11309700000.0 11309700000.0 11309700000.0 11309700000.0 11309700000.0 11309700000.0 11309700000.0 11309700000.0 11309700000.0 11309700000.0 11309700000.0 11309700000.0 11309700000.0 11309700000.0 11309700000.0 11309700000.0 11309700000.0 11309700000.0 11309700000.0 11309700000.0 11309700000.0 11309700000.0 11309700000.0 11309700000.0 11309700000.0 11309700000.0 11309700000.0 11309700000.0 11309700000.0 11309700000.0 11309700000.0 11309700000.0 11309700000.0 11309700000.0 11309700000.0 11309700000.0 11309700000.0 11309700000.0 11309700000.0 11309700000.0 11309700000.0 11309700000.0 11309700000.0 11309700000.0 11309700000.0 11309700000.0 11309700000.0 11309700000.0 11309700000.0 11309700000.0 11309700000.0 11309700000.0 11309700000.0 11309700000.0 11309700000.0 11309700000.0 11309700000.0 11309700000.0 11309700000.0 11309700000.0 11309700000.0 11309700000.0 11309700000.0 11309700000.0 11309700000.0 11309700000.0 11309700000.0 11309700000.0 11309700000.0 11309700000.0 11309700000.0 11309700000.0 11309700000.0 11309700000.0 11309700000.0 11309700000.0 11309700000.0 11309700000.0 11309700000.0 11309700000.0 11309700000.0 11309700000.0 11309700000.0 11309700000.0 11309700000.0 11309700000.0 11309700000.0 11309700000.0 11309700000.0 11309700000.0 11309700000.0 11309700000.0 11309700000.0 11309700000.0 11309700000.0 11309700000.0 11309700000.0 11309700000.0 11309700000.0 11309700000.0 11309700000.0 11309700000.0 11309700000.0 11309700000.0 11309700000.0 11309700000.0 11309700000.0 11309700000.0 11309700000.0 11309700000.0 11309700000.0 11309700000.0 11309700000.0 11309700000.0 11309700000.0 11309700000.0 11309700000.0 11309700000.0 11309700000.0 11309700000.0 11309700000.0 11309700000.0 11309700000.0 11309700000.0 11309700000.0 11309700000.0 11309700000.0 11309700000.0 11309700000.0 11309700000.0 11309700000.0 11309700000.0 11309700000.0 11309700000.0 11309700000.0 11309700000.0 11309700000.0 11309700000.0 11309700000.0 11309700000.0 11309700000.0 11309700000.0 11309700000.0 11309700000.0 11309700000.0 11309700000.0 11309700000.0 11309700000.0 11309700000.0 11309700000.0 11309700000.0 11309700000.0 11309700000.0 11309700000.0 11309700000.0 11309700000.0 11309700000.0 11309700000.0 11309700000.0 11309700000.0 11309700000.0 11309700000.0 11309700000.0 11309700000.0 11309700000.0 11309700000.0 11309700000.0 11309700000.0 11309700000.0 11309700000.0 11309700000.0 11309700000.0 11309700000.0 11309700000.0 11309700000.0 11309700000.0 11309700000.0 11309700000.0 11309700000.0 11309700000.0 11309700000.0 11309700000.0 11309700000.0 11309700000.0 11309700000.0 11309700000.0 11309700000.0 11309700000.0 11309700000.0 11309700000.0 11309700000.0 11309700000.0 11309700000.0 11309700000.0 11309700000.0 11309700000.0 11309700000.0 11309700000.0 11309700000.0 11309700000.0 11309700000.0 11309700000.0 11309700000.0 11309700000.0 11309700000.0 11309700000.0 11309700000.0 11309700000.0 11309700000.0 11309700000.0 11309700000.0 11309700000.0 11309700000.0 11309700000.0 11309700000.0 11309700000.0 11309700000.0 11309700000.0 11309700000.0 11309700000.0 11309700000.0 11309700000.0 11309700000.0 11309700000.0 11309700000.0 11309700000.0 11309700000.0 11309700000.0 11309700000.0 11309700000.0 11309700000.0 11309700000.0 11309700000.0 11309700000.0 11309700000.0 11309700000.0 11309700000.0 11309700000.0 11309700000.0 11309700000.0 11309700000.0 11309700000.0 11309700000.0 11309700000.0 11309700000.0 11309700000.0 11309700000.0 11309700000.0 11309700000.0 11309700000.0 11309700000.0 11309700000.0 11309700000.0 11309700000.0 11309700000.0 11309700000.0 11309700000.0 11309700000.0 11309700000.0 11309700000.0 11309700000.0 11309700000.0 11309700000.0 11309700000.0 11309700000.0 11309700000.0 11309700000.0 11309700000.0 11309700000.0 11309700000.0 11309700000.0 11309700000.0 11309700000.0 11309700000.0 11309700000.0 11309700000.0 11309700000.0 11309700000.0 11309700000.0 11309700000.0 11309700000.0 11309700000.0 11309700000.0 11309700000.0 11309700000.0 11309700000.0 11309700000.0 11309700000.0 11309700000.0 11309700000.0 11309700000.0 11309700000.0 11309700000.0 11309700000.0 11309700000.0 11309700000.0 11309700000.0 11309700000.0 11309700000.0 11309700000.0 11309700000.0 11309700000.0 11309700000.0 11309700000.0 11309700000.0 11309700000.0 11309700000.0 11309700000.0 11309700000.0 11309700000.0 11309700000.0 11309700000.0 11309700000.0 11309700000.0 11309700000.0 11309700000.0 11309700000.0 11309700000.0 11309700000.0 11309700000.0 11309700000.0 11309700000.0 11309700000.0 11309700000.0 11309700000.0 11309700000.0 11309700000.0 11309700000.0 11309700000.0 11309700000.0 11309700000.0 11309700000.0 11309700000.0 11309700000.0 11309700000.0 11309700000.0 11309700000.0 11309700000.0 11309700000.0 11309700000.0 11309700000.0 11309700000.0 11309700000.0 11309700000.0 11309700000.0 11309700000.0 11309700000.0 11309700000.0 11309700000.0 11309700000.0 11309700000.0 11309700000.0 11309700000.0 11309700000.0 11309700000.0 11309700000.0 11309700000.0 11309700000.0 11309700000.0 11309700000.0 11309700000.0 11309700000.0 11309700000.0 11309700000.0 11309700000.0 11309700000.0 11309700000.0 11309700000.0 11309700000.0 11309700000.0 11309700000.0 11309700000.0 11309700000.0 11309700000.0 11309700000.0 11309700000.0 11309700000.0 11309700000.0 11309700000.0 11309700000.0 11309700000.0 11309700000.0 11309700000.0 11309700000.0 11309700000.0 11309700000.0 11309700000.0 11309700000.0 11309700000.0 11309700000.0 11309700000.0 11309700000.0 11309700000.0 11309700000.0 11309700000.0 11309700000.0 11309700000.0 11309700000.0 11309700000.0 11309700000.0 11309700000.0 11309700000.0 11309700000.0 11309700000.0 11309700000.0 11309700000.0 11309700000.0 11309700000.0 11309700000.0 11309700000.0 11309700000.0 11309700000.0 11309700000.0 11309700000.0 11309700000.0 11309700000.0 11309700000.0 11309700000.0 11309700000.0 11309700000.0 11309700000.0 11309700000.0 11309700000.0 11309700000.0 11309700000.0 11309700000.0 11309700000.0 11309700000.0 11309700000.0 11309700000.0 11309700000.0 11309700000.0 11309700000.0 11309700000.0 11309700000.0 11309700000.0 11309700000.0 11309700000.0 11309700000.0 11309700000.0 11309700000.0 11309700000.0 11309700000.0 11309700000.0 11309700000.0 11309700000.0 11309700000.0 11309700000.0 11309700000.0 11309700000.0 11309700000.0 11309700000.0 11309700000.0 11309700000.0 11309700000.0 11309700000.0 11309700000.0 11309700000.0 11309700000.0 11309700000.0 11309700000.0 11309700000.0 11309700000.0 11309700000.0 11309700000.0 11309700000.0 11309700000.0 11309700000.0 11309700000.0 11309700000.0 11309700000.0 11309700000.0 11309700000.0 11309700000.0 11309700000.0 11309700000.0 11309700000.0 11309700000.0 11309700000.0 11309700000.0 11309700000.0 11309700000.0 11309700000.0 11309700000.0 11309700000.0 11309700000.0 11309700000.0 11309700000.0 11309700000.0 11309700000.0 11309700000.0 11309700000.0 11309700000.0 11309700000.0 11309700000.0 11309700000.0 11309700000.0 11309700000.0 11309700000.0 11309700000.0 11309700000.0 11309700000.0 11309700000.0 11309700000.0 11309700000.0 11309700000.0 11309700000.0 11309700000.0 11309700000.0 11309700000.0 11309700000.0 11309700000.0 11309700000.0 11309700000.0 11309700000.0 11309700000.0 11309700000.0 11309700000.0 11309700000.0 11309700000.0 11309700000.0 11309700000.0 11309700000.0 11309700000.0 11309700000.0 11309700000.0 11309700000.0 11309700000.0 11309700000.0 11309700000.0 11309700000.0 11309700000.0 11309700000.0 11309700000.0 11309700000.0 11309700000.0 11309700000.0 11309700000.0 11309700000.0 11309700000.0 11309700000.0 11309700000.0 11309700000.0 11309700000.0 11309700000.0 11309700000.0 11309700000.0 11309700000.0 11309700000.0 11309700000.0 11309700000.0 11309700000.0 11309700000.0 11309700000.0 11309700000.0 11309700000.0 11309700000.0 11309700000.0 11309700000.0 11309700000.0 11309700000.0 11309700000.0 11309700000.0 11309700000.0 11309700000.0 11309700000.0 11309700000.0 11309700000.0 11309700000.0 11309700000.0 11309700000.0 11309700000.0 11309700000.0 11309700000.0 11309700000.0 11309700000.0 11309700000.0 11309700000.0 11309700000.0 11309700000.0 11309700000.0 11309700000.0 11309700000.0 11309700000.0 11309700000.0 11309700000.0 11309700000.0 11309700000.0 11309700000.0 11309700000.0 11309700000.0 11309700000.0 11309700000.0 11309700000.0 11309700000.0 11309700000.0 11309700000.0 11309700000.0 11309700000.0 11309700000.0 11309700000.0 11309700000.0 11309700000.0 11309700000.0 11309700000.0 11309700000.0 11309700000.0 11309700000.0 11309700000.0 11309700000.0 11309700000.0 11309700000.0 11309700000.0 11309700000.0 11309700000.0 11309700000.0 11309700000.0 11309700000.0 11309700000.0 11309700000.0 11309700000.0 11309700000.0 11309700000.0 11309700000.0 11309700000.0 11309700000.0 11309700000.0 11309700000.0 11309700000.0 11309700000.0 11309700000.0 11309700000.0 11309700000.0 11309700000.0 11309700000.0 11309700000.0 11309700000.0 11309700000.0 11309700000.0 11309700000.0 11309700000.0 11309700000.0 11309700000.0 11309700000.0 11309700000.0 11309700000.0 11309700000.0 11309700000.0 11309700000.0 11309700000.0 11309700000.0 11309700000.0 11309700000.0 11309700000.0 11309700000.0 11309700000.0 11309700000.0 11309700000.0 11309700000.0 11309700000.0 11309700000.0 11309700000.0 11309700000.0 11309700000.0 11309700000.0 11309700000.0 11309700000.0 11309700000.0 11309700000.0 11309700000.0 11309700000.0 11309700000.0 11309700000.0 11309700000.0 11309700000.0 11309700000.0 11309700000.0 11309700000.0 11309700000.0 11309700000.0 11309700000.0 11309700000.0 11309700000.0 11309700000.0 11309700000.0 11309700000.0 11309700000.0 11309700000.0 11309700000.0 11309700000.0 11309700000.0 11309700000.0 11309700000.0 11309700000.0 11309700000.0 11309700000.0 11309700000.0 11309700000.0 11309700000.0 11309700000.0 11309700000.0 11309700000.0 11309700000.0 11309700000.0 11309700000.0 11309700000.0 11309700000.0 11309700000.0 11309700000.0 11309700000.0 11309700000.0 11309700000.0 11309700000.0 11309700000.0 11309700000.0 11309700000.0 11309700000.0 11309700000.0 11309700000.0 11309700000.0 11309700000.0 11309700000.0 11309700000.0 11309700000.0 11309700000.0 11309700000.0 11309700000.0 11309700000.0 11309700000.0 11309700000.0 11309700000.0 11309700000.0 11309700000.0 11309700000.0 11309700000.0 11309700000.0 11309700000.0 11309700000.0 11309700000.0 11309700000.0 11309700000.0 11309700000.0 11309700000.0 11309700000.0 11309700000.0 11309700000.0 11309700000.0 11309700000.0 11309700000.0 11309700000.0 11309700000.0 11309700000.0 11309700000.0 11309700000.0 11309700000.0 11309700000.0 11309700000.0 11309700000.0 11309700000.0 11309700000.0 11309700000.0 11309700000.0 11309700000.0 11309700000.0 11309700000.0 11309700000.0 11309700000.0 11309700000.0 11309700000.0 11309700000.0 11309700000.0 11309700000.0 11309700000.0 11309700000.0 11309700000.0 11309700000.0 11309700000.0 11309700000.0 11309700000.0 11309700000.0 11309700000.0 11309700000.0 11309700000.0 11309700000.0 11309700000.0 11309700000.0 11309700000.0 11309700000.0 11309700000.0 11309700000.0 11309700000.0 11309700000.0 11309700000.0 11309700000.0 11309700000.0 11309700000.0 11309700000.0 11309700000.0 11309700000.0 11309700000.0 11309700000.0 11309700000.0 11309700000.0 11309700000.0 11309700000.0 11309700000.0 11309700000.0 11309700000.0 11309700000.0 11309700000.0 11309700000.0 11309700000.0 11309700000.0 11309700000.0 11309700000.0 11309700000.0 11309700000.0 11309700000.0 11309700000.0 11309700000.0 11309700000.0 11309700000.0 11309700000.0 11309700000.0 11309700000.0 11309700000.0 11309700000.0 11309700000.0 11309700000.0 11309700000.0 11309700000.0 11309700000.0 11309700000.0 11309700000.0 11309700000.0 11309700000.0 11309700000.0 11309700000.0 11309700000.0 11309700000.0 11309700000.0 11309700000.0 11309700000.0 11309700000.0 11309700000.0 11309700000.0 11309700000.0 11309700000.0 11309700000.0 11309700000.0 11309700000.0 11309700000.0 11309700000.0 11309700000.0 11309700000.0 11309700000.0 11309700000.0 11309700000.0 11309700000.0 11309700000.0 11309700000.0 11309700000.0 11309700000.0 11309700000.0 11309700000.0 11309700000.0 11309700000.0 11309700000.0 11309700000.0 11309700000.0 11309700000.0 11309700000.0 11309700000.0 11309700000.0 11309700000.0 11309700000.0 11309700000.0 11309700000.0 11309700000.0 11309700000.0 11309700000.0 11309700000.0 11309700000.0 11309700000.0 11309700000.0 11309700000.0 11309700000.0 11309700000.0 11309700000.0 11309700000.0 11309700000.0 11309700000.0 11309700000.0 11309700000.0 11309700000.0 11309700000.0 11309700000.0 11309700000.0 11309700000.0 11309700000.0 11309700000.0 11309700000.0 11309700000.0 11309700000.0 11309700000.0 11309700000.0 11309700000.0 11309700000.0 11309700000.0 11309700000.0 11309700000.0 11309700000.0 11309700000.0 11309700000.0 11309700000.0 11309700000.0 11309700000.0 11309700000.0 11309700000.0 11309700000.0 11309700000.0 11309700000.0 11309700000.0 11309700000.0 11309700000.0 11309700000.0 11309700000.0 11309700000.0 11309700000.0 11309700000.0 11309700000.0 11309700000.0 11309700000.0 11309700000.0 11309700000.0 11309700000.0 11309700000.0 11309700000.0 11309700000.0 11309700000.0 11309700000.0 11309700000.0 11309700000.0 11309700000.0 11309700000.0 11309700000.0 11309700000.0 11309700000.0 11309700000.0 11309700000.0 11309700000.0 11309700000.0 11309700000.0 11309700000.0 11309700000.0 11309700000.0 11309700000.0 11309700000.0 11309700000.0 11309700000.0 11309700000.0 11309700000.0 11309700000.0 11309700000.0 11309700000.0 11309700000.0 11309700000.0 11309700000.0 11309700000.0 11309700000.0 11309700000.0 11309700000.0 11309700000.0 11309700000.0 11309700000.0 11309700000.0 11309700000.0 11309700000.0 11309700000.0 11309700000.0 11309700000.0 11309700000.0 11309700000.0 11309700000.0 11309700000.0 11309700000.0 11309700000.0 11309700000.0 11309700000.0 11309700000.0 11309700000.0 11309700000.0 11309700000.0 11309700000.0 11309700000.0 11309700000.0 11309700000.0 11309700000.0 11309700000.0 11309700000.0 11309700000.0 11309700000.0 11309700000.0 11309700000.0 11309700000.0 11309700000.0 11309700000.0 11309700000.0 11309700000.0 11309700000.0 11309700000.0 11309700000.0 11309700000.0 11309700000.0 11309700000.0 11309700000.0 11309700000.0 11309700000.0 11309700000.0 11309700000.0 11309700000.0 11309700000.0 11309700000.0 11309700000.0 11309700000.0 11309700000.0 11309700000.0 11309700000.0 11309700000.0 11309700000.0 11309700000.0 11309700000.0 11309700000.0 11309700000.0 11309700000.0 11309700000.0 11309700000.0 11309700000.0 11309700000.0 11309700000.0 11309700000.0 11309700000.0 11309700000.0 11309700000.0 11309700000.0 11309700000.0 11309700000.0 11309700000.0 11309700000.0 11309700000.0 11309700000.0 11309700000.0 11309700000.0 11309700000.0 11309700000.0 11309700000.0 11309700000.0 11309700000.0 11309700000.0 11309700000.0 11309700000.0 11309700000.0 11309700000.0 11309700000.0 11309700000.0 11309700000.0 11309700000.0 11309700000.0 11309700000.0 11309700000.0 11309700000.0 11309700000.0 11309700000.0 11309700000.0 11309700000.0 11309700000.0 11309700000.0 11309700000.0 11309700000.0 11309700000.0 11309700000.0 11309700000.0 11309700000.0 11309700000.0 11309700000.0 11309700000.0 11309700000.0 11309700000.0 11309700000.0 11309700000.0 11309700000.0 11309700000.0 11309700000.0 11309700000.0 11309700000.0 11309700000.0 11309700000.0 11309700000.0 11309700000.0 11309700000.0 11309700000.0 11309700000.0 11309700000.0 11309700000.0 11309700000.0 11309700000.0 11309700000.0 11309700000.0 11309700000.0 11309700000.0 11309700000.0 11309700000.0 11309700000.0 11309700000.0 11309700000.0 11309700000.0 11309700000.0 11309700000.0 11309700000.0 11309700000.0 11309700000.0 11309700000.0 11309700000.0 11309700000.0 11309700000.0 11309700000.0 11309700000.0 11309700000.0 11309700000.0 11309700000.0 11309700000.0 11309700000.0 11309700000.0 11309700000.0 11309700000.0 11309700000.0 11309700000.0 11309700000.0 11309700000.0 11309700000.0 11309700000.0 11309700000.0 11309700000.0 11309700000.0 11309700000.0 11309700000.0 11309700000.0 11309700000.0 11309700000.0 11309700000.0 11309700000.0 11309700000.0 11309700000.0 11309700000.0 11309700000.0 11309700000.0 11309700000.0 11309700000.0 11309700000.0 11309700000.0 11309700000.0 11309700000.0 11309700000.0 11309700000.0 11309700000.0 11309700000.0 11309700000.0 11309700000.0 11309700000.0 11309700000.0 11309700000.0 11309700000.0 11309700000.0 11309700000.0 11309700000.0 11309700000.0 11309700000.0 11309700000.0 11309700000.0 11309700000.0 11309700000.0 11309700000.0 11309700000.0 11309700000.0 11309700000.0 11309700000.0 11309700000.0 11309700000.0 11309700000.0 11309700000.0 11309700000.0 11309700000.0 11309700000.0 11309700000.0 11309700000.0 11309700000.0 11309700000.0 11309700000.0 11309700000.0 11309700000.0 11309700000.0 11309700000.0 11309700000.0 11309700000.0 11309700000.0 11309700000.0 11309700000.0 11309700000.0 11309700000.0 11309700000.0 11309700000.0 11309700000.0 11309700000.0 11309700000.0 11309700000.0 11309700000.0 11309700000.0 11309700000.0 11309700000.0 11309700000.0 11309700000.0 11309700000.0 11309700000.0 11309700000.0 11309700000.0 11309700000.0 11309700000.0 11309700000.0 11309700000.0 11309700000.0 11309700000.0 11309700000.0 11309700000.0 11309700000.0 11309700000.0 11309700000.0 11309700000.0 11309700000.0 11309700000.0 11309700000.0 11309700000.0 11309700000.0 11309700000.0 11309700000.0 11309700000.0 11309700000.0 11309700000.0 11309700000.0 11309700000.0 11309700000.0 11309700000.0 11309700000.0 11309700000.0 11309700000.0 11309700000.0 11309700000.0 11309700000.0 11309700000.0 11309700000.0 11309700000.0 11309700000.0 11309700000.0 11309700000.0 11309700000.0 11309700000.0 11309700000.0 
SCALARS Velocity float 1
LOOKUP_TABLE default
1.03584 1.03584 1.55111 1.65388 1.2478 1.2478 1.65388 1.55111 1.62714 1.08683 0.921055 1.1571 0.998984 1.17585 1.15776 1.23963 1.26086 1.26086 1.23963 1.15776 1.17585 0.998983 1.1571 0.921055 1.08683 1.62714 1.25333 1.17419 1.19231 1.10632 1.11254 1.16569 1.20313 1.22422 1.04016 1.22422 1.20313 1.16569 1.11254 1.10632 1.19231 1.17419 1.25333 0.618247 1.11385 1.385 1.04161 1.27525 1.23584 1.1412 1.16307 1.26387 1.20102 0.974909 0.998054 0.992824 0.998054 0.974909 1.20102 1.26387 1.16307 1.1412 1.23584 1.27525 1.04161 1.385 1.11385 0.618247 0.619181 0.584971 1.43596 0.893907 1.39645 1.27103 1.2767 1.22316 1.21584 0.992187 0.992188 0.992188 0.992187 1.21584 1.22316 1.2767 1.27103 1.39645 0.893907 1.43596 0.584971 0.619181 0.605367 0.588979 0.573483 1.00183 1.09444 1.21768 1.30808 1.34571 1.30282 0.938434 0.989409 0.991227 0.989409 0.938434 1.30282 1.34571 1.30808 1.21768 1.09444 1.00183 0.573483 0.588979 0.605367 0.647875 0.590501 0.633158 0.986182 1.10145 1.21097 1.38603 1.42205 1.00057 0.965186 0.971704 0.975344 0.989229 0.992406 0.992465 0.992406 0.989229 0.975344 0.971704 0.965186 1.00057 1.42205 1.38603 1.21097 1.10145 0.986182 0.633158 0.590501 0.647875 0.693811 0.645745 0.69612 0.654255 0.820336 0.895016 0.976761 1.03908 1.03839 1.0185 1.27243 1.3875 0.966785 0.993406 0.989512 0.994365 0.994366 0.989512 0.993406 0.966784 1.3875 1.27243 1.0185 1.03839 1.03908 0.976761 0.895016 0.820336 0.654256 0.69612 0.645745 0.693811 0.65553 0.652693 0.701128 0.775326 0.794992 0.928329 1.00896 1.06404 1.10969 1.00416 0.997075 0.999249 0.997347 0.999249 0.997075 1.00416 1.10969 1.06404 1.00896 0.928329 0.794992 0.775326 0.701128 0.652693 0.65553 0.605082 0.627936 0.624041 0.50417 0.834222 0.927921 0.899348 0.96733 1.00782 0.807481 0.887142 1.04393 0.987808 1.03332 1.00747 1.01716 1.0077 1.0026 1.0026 1.0077 1.01716 1.00747 1.03332 0.987808 1.04393 0.887142 0.807482 1.00782 0.96733 0.899348 0.927921 0.834222 0.50417 0.624041 0.627936 0.605082 0.584753 0.60508 0.560527 0.474369 0.424167 0.440501 0.951296 0.941293 0.915977 0.959632 0.820167 0.926815 0.988852 1.02037 1.02626 1.01286 1.00862 0.99965 1.00862 1.01286 1.02626 1.02037 0.988852 0.926815 0.820167 0.959632 0.915977 0.941293 0.951296 0.440501 0.424167 0.474369 0.560527 0.60508 0.584753 0.568265 0.589288 0.588433 0.583671 0.539903 0.445531 0.600674 0.897216 0.861693 0.846323 0.96886 1.0217 1.0161 1.02898 0.994156 1.02898 1.0161 1.0217 0.96886 0.846323 0.861693 0.897216 0.600674 0.445531 0.539903 0.583671 0.588433 0.589288 0.568265 0.553429 0.560099 0.574895 0.581561 0.57305 0.500629 0.52753 0.525965 0.675011 0.765244 0.815064 0.814563 0.75072 0.799996 0.815524 0.902899 0.963747 0.991284 1.02726 1.03006 1.03089 1.01116 0.997293 1.01583 1.01583 0.997293 1.01116 1.03089 1.03006 1.02726 0.991284 0.963747 0.902899 0.815524 0.799996 0.75072 0.814563 0.815064 0.765244 0.675011 0.525965 0.52753 0.500629 0.57305 0.581561 0.574895 0.560099 0.553429 0.522846 0.539283 0.545849 0.569542 0.582953 0.580128 0.551629 0.556191 0.624183 0.773403 0.781171 0.742534 0.78547 0.91769 1.01201 1.04091 1.02206 0.970938 0.973146 0.970938 1.02206 1.04091 1.01201 0.917689 0.78547 0.742534 0.781171 0.773403 0.624183 0.556191 0.551629 0.580128 0.582953 0.569542 0.545849 0.539283 0.522846 0.513313 0.529065 0.554517 0.568478 0.580424 0.590056 0.584794 0.608308 0.721052 0.762008 0.783102 0.741205 0.724889 0.857017 0.994381 1.0446 1.0413 0.999015 0.904855 0.904856 0.999016 1.0413 1.0446 0.994381 0.857017 0.724889 0.741205 0.783102 0.762008 0.721052 0.608308 0.584794 0.590056 0.580424 0.568478 0.554517 0.529065 0.513313 0.509803 0.505011 0.515747 0.522238 0.539611 0.550415 0.584798 0.600068 0.618096 0.611833 0.659998 0.681838 0.738533 0.751097 0.730709 0.819795 0.934653 0.963848 1.02942 1.03873 1.04967 1.05198 1.05987 1.03215 1.00922 0.944403 0.78657 0.944404 1.00922 1.03215 1.05987 1.05198 1.04967 1.03873 1.02942 0.963848 0.934653 0.819795 0.730709 0.751097 0.738533 0.681838 0.659998 0.611833 0.618096 0.600068 0.584798 0.550415 0.539611 0.522237 0.515747 0.505011 0.509803 0.506881 0.505435 0.509872 0.534322 0.570537 0.596047 0.603774 0.62473 0.650949 0.707873 0.743268 0.71543 0.738856 0.727151 0.8938 1.01908 1.04406 1.07737 1.06318 0.724593 0.743926 0.758815 0.743926 0.724591 1.06318 1.07737 1.04406 1.01908 0.8938 0.727151 0.738856 0.715429 0.743268 0.707873 0.650948 0.62473 0.603774 0.596047 0.570537 0.534322 0.509872 0.505435 0.506881 0.500038 0.502024 0.498006 0.502604 0.51155 0.517143 0.532351 0.552262 0.577938 0.623635 0.649536 0.688502 0.727567 0.720472 0.716932 0.739173 0.878298 1.03342 1.0273 1.0847 1.10392 0.704936 0.744936 0.744935 0.704934 1.10392 1.0847 1.0273 1.03342 0.878298 0.739173 0.716932 0.720472 0.727567 0.688502 0.649536 0.623635 0.577938 0.552262 0.53235 0.517143 0.51155 0.502603 0.498006 0.502024 0.500038 0.49661 0.494459 0.499267 0.509434 0.519035 0.516031 0.558129 0.611255 0.651046 0.681218 0.681078 0.703391 0.715476 0.728504 0.708565 0.854484 1.03547 0.968709 1.08933 1.13172 0.680998 0.7277 0.751245 0.727698 0.680995 1.13172 1.08933 0.968709 1.03547 0.854485 0.708565 0.728504 0.715476 0.703391 0.681078 0.681217 0.651046 0.611255 0.558129 0.516031 0.519035 0.509434 0.499267 0.494459 0.49661 0.486291 0.481187 0.48762 0.474256 0.503894 0.512699 0.523164 0.533111 0.577428 0.594675 0.643734 0.651224 0.686454 0.702629 0.713757 0.71951 0.791751 1.03558 1.01318 1.29864 0.871027 1.08934 1.15483 1.14836 0.643621 0.658552 0.684601 0.707097 0.726364 0.741815 0.745629 0.741815 0.726364 0.707096 0.6846 0.65855 0.643621 1.14836 1.15483 1.08934 0.871028 1.29864 1.01318 1.03558 0.791751 0.71951 0.713757 0.702629 0.686454 0.651224 0.643734 0.594675 0.577428 0.533111 0.523164 0.512699 0.503894 0.474257 0.48762 0.481187 0.486291 0.47802 0.482667 0.474177 0.457388 0.486579 0.486084 0.524178 0.525634 0.556782 0.63372 0.691977 0.708595 0.709873 0.694424 0.709341 0.706685 0.705827 0.743644 1.13072 0.61281 0.668754 0.708619 0.737232 0.737233 0.70862 0.668754 0.61281 1.13072 0.743644 0.705828 0.706685 0.709342 0.694424 0.709874 0.708595 0.691977 0.63372 0.556782 0.525633 0.524178 0.486084 0.486579 0.457388 0.474177 0.482667 0.47802 0.482701 0.471693 0.454744 0.410549 0.44801 0.479204 0.538257 0.552556 0.604473 0.666203 0.684222 0.740784 0.723001 0.733857 0.718551 0.716995 0.695605 0.696241 0.649004 1.2978 1.08057 1.19528 0.591356 0.663604 0.693008 0.724186 0.737814 0.724186 0.693009 0.663602 0.591355 1.19529 1.08057 1.2978 0.649004 0.696241 0.695604 0.716995 0.718551 0.733857 0.723001 0.740784 0.684222 0.666203 0.604473 0.552556 0.538257 0.479204 0.44801 0.410549 0.454744 0.471693 0.482701 0.488821 0.481384 0.475298 0.459099 0.438245 0.466991 0.533911 0.522716 0.542779 0.536283 0.539533 0.567802 0.62934 0.740774 0.753697 0.728944 0.673698 0.753495 0.663019 0.741265 0.73711 0.91041 0.863846 0.599272 0.605421 0.688148 0.690105 0.691712 0.708824 0.723814 0.73187 0.731313 0.73187 0.723814 0.708822 0.69171 0.690104 0.688144 0.60542 0.599276 0.863844 0.91041 0.73711 0.741266 0.66302 0.753495 0.673698 0.728944 0.753697 0.740774 0.62934 0.567802 0.539533 0.536283 0.54278 0.522715 0.533911 0.46699 0.438245 0.459099 0.475298 0.481384 0.488821 0.482506 0.485997 0.485539 0.485548 0.462684 0.458995 0.553701 0.555588 0.506944 0.588414 0.727274 0.79877 0.736379 0.681584 0.751503 0.544091 0.680253 0.7659 0.778562 0.703809 0.625111 0.74304 0.669309 0.716537 0.728315 0.728319 0.716536 0.669313 0.74304 0.625113 0.703807 0.778561 0.7659 0.680254 0.544091 0.751503 0.681584 0.736379 0.79877 0.727274 0.588414 0.506944 0.555589 0.553701 0.458995 0.462684 0.485548 0.485539 0.485997 0.482506 0.485631 0.477495 0.480145 0.486319 0.484098 0.46411 0.420453 0.490261 0.561117 0.56369 0.54572 0.553702 0.568506 0.640505 0.67467 0.817131 0.804817 0.869301 0.759116 0.698923 0.705721 0.646568 0.787791 0.548025 0.599428 0.754621 0.752475 0.8613 0.702432 0.703602 0.724851 0.728292 0.724856 0.703599 0.702432 0.861299 0.752474 0.75462 0.599427 0.548026 0.787792 0.646568 0.705721 0.698923 0.759116 0.869301 0.804817 0.817131 0.67467 0.640505 0.568505 0.553701 0.545721 0.56369 0.561117 0.49026 0.420453 0.46411 0.484098 0.486319 0.480145 0.477495 0.485631 0.508313 0.483479 0.493143 0.502848 0.494781 0.498291 0.426371 0.522013 0.515271 0.6578 0.758362 0.672475 0.786535 0.907302 0.64324 0.645723 0.591113 0.589102 0.600423 0.594459 0.665139 0.727556 0.785691 0.626862 0.888777 0.661936 0.706626 0.725624 0.722575 0.723355 0.725768 0.725726 0.72577 0.723357 0.722572 0.725627 0.706626 0.661941 0.888777 0.626858 0.785689 0.727556 0.665139 0.594459 0.600423 0.589102 0.591113 0.645723 0.64324 0.907302 0.786535 0.672474 0.758363 0.6578 0.515271 0.522014 0.426371 0.498291 0.494781 0.502848 0.493143 0.483479 0.508313 0.54198 0.495375 0.498248 0.496792 0.505972 0.50632 0.45752 0.415861 0.493079 0.501806 0.761646 0.98794 0.982819 0.580549 0.663513 0.577043 0.589804 0.617017 0.689122 0.808354 0.775089 0.654009 0.785915 0.733906 0.733339 0.722828 0.722839 0.733346 0.733909 0.785909 0.654013 0.775088 0.808352 0.689121 0.617017 0.589804 0.577043 0.663513 0.580549 0.982819 0.987941 0.761644 0.501806 0.493079 0.415861 0.45752 0.50632 0.505972 0.496792 0.498248 0.495375 0.54198 0.59583 0.564732 0.514291 0.514334 0.510949 0.504259 0.482506 0.497997 0.498057 0.467607 0.499943 0.526569 0.53172 1.36838 1.25371 0.908267 0.984619 0.633779 0.65001 0.597495 0.575823 0.586067 0.615762 0.631485 0.682245 0.724602 0.825204 0.929059 0.643345 0.7169 0.730551 0.719801 0.730569 0.716902 0.643346 0.929057 0.825205 0.724601 0.682247 0.631485 0.615762 0.586066 0.575823 0.597496 0.65001 0.633779 0.984619 0.908268 1.25371 1.36839 0.53172 0.526569 0.499943 0.467607 0.498057 0.497997 0.482506 0.504259 0.510949 0.514334 0.514291 0.564732 0.59583 0.509823 0.738898 0.562414 0.51913 0.5089 0.500658 0.486733 0.4351 0.519552 0.401973 0.220111 0.573921 0.335941 0.77904 0.634769 1.11148 0.463324 0.677964 0.574976 0.570038 0.562591 0.575668 0.736143 0.872959 0.952353 0.673992 0.765001 0.699305 0.763248 0.723399 0.722645 0.726083 0.722672 0.723461 0.763257 0.69933 0.765005 0.673988 0.952353 0.872959 0.736142 0.575668 0.562591 0.570038 0.574976 0.677964 0.463324 1.11148 0.634769 0.77904 0.335941 0.573921 0.220111 0.401973 0.519553 0.4351 0.486733 0.500658 0.5089 0.51913 0.562414 0.738898 0.509823 0.437052 0.489855 0.67202 0.562225 0.549354 0.494519 0.465468 0.393163 0.363134 0.535975 0.297607 0.366766 0.433292 0.500195 0.97175 0.465585 0.534752 0.638955 0.68567 0.521036 0.558933 0.552688 0.5705 0.587613 0.608971 0.653884 0.685483 0.85091 0.888786 0.826116 0.731605 0.731595 0.826109 0.888785 0.850912 0.685483 0.653884 0.60897 0.587613 0.5705 0.552688 0.558933 0.521037 0.68567 0.638955 0.534752 0.465587 0.971749 0.500195 0.433292 0.366766 0.297607 0.535974 0.363134 0.393163 0.465468 0.494519 0.549354 0.562225 0.67202 0.489855 0.437052 0.443298 0.387983 0.382046 0.637355 0.577358 0.622203 0.574136 0.514939 0.487264 0.499032 0.555932 0.373522 0.76028 0.349828 0.249519 0.359588 0.426507 0.500789 0.751699 0.723865 0.63901 0.663335 0.603417 0.535713 0.562946 0.602067 0.610885 0.653119 0.691231 0.730686 0.750087 0.849639 0.860641 0.748249 0.716365 0.713496 0.73684 0.713524 0.716383 0.748246 0.860639 0.849638 0.750087 0.730686 0.691231 0.653119 0.610885 0.602067 0.562946 0.535713 0.603417 0.663335 0.63901 0.723865 0.751697 0.500789 0.426508 0.359588 0.249519 0.349828 0.76028 0.373522 0.555932 0.499032 0.487264 0.514939 0.574136 0.622203 0.577358 0.637354 0.382045 0.387983 0.443298 0.398052 0.414861 0.575616 0.537143 0.51519 0.459101 0.476082 0.47777 0.425248 0.602466 0.709228 0.725312 0.6111 0.623538 0.567705 0.516558 0.546738 0.612452 0.696104 0.916087 0.777539 0.84534 0.774589 0.9223 0.808057 0.906535 0.829191 0.741812 0.740068 0.741743 0.829245 0.90654 0.808059 0.922293 0.774591 0.845338 0.777539 0.916087 0.696104 0.612453 0.546739 0.516558 0.567705 0.623538 0.611101 0.725313 0.709228 0.602466 0.425248 0.477771 0.476082 0.459101 0.51519 0.537143 0.575615 0.414861 0.398052 0.478489 0.337292 0.439123 0.523992 0.507087 0.461422 0.393136 0.335702 0.485172 0.290448 0.301132 0.305658 0.341946 0.422798 0.507613 0.618052 0.690988 0.739367 0.721074 0.689554 0.660239 0.530756 0.500976 0.543641 0.622316 0.637141 0.832743 0.814518 0.796833 0.761106 0.761122 0.796835 0.814516 0.832743 0.637141 0.622317 0.543642 0.500976 0.530756 0.660239 0.689554 0.721074 0.739367 0.690988 0.618052 0.507614 0.422798 0.341946 0.305659 0.301132 0.290449 0.485172 0.335702 0.393137 0.461422 0.507087 0.523992 0.439123 0.337293 0.478489 0.38177 0.530464 0.552775 0.483988 0.466007 0.410947 0.342384 0.543918 0.385078 0.341176 0.404854 0.522297 0.626433 0.696167 0.732427 0.729243 0.721474 0.675267 0.630787 0.582201 0.574123 0.549327 0.693829 0.661801 0.946712 0.807635 0.849289 0.790628 0.831891 0.8404 0.796218 0.718756 0.673059 0.748187 0.673056 0.718759 0.796222 0.8404 0.831894 0.790627 0.84929 0.807635 0.946712 0.661801 0.693829 0.549328 0.574123 0.582201 0.630787 0.675267 0.721474 0.729243 0.732427 0.696167 0.626433 0.522297 0.404854 0.341176 0.385078 0.543917 0.342384 0.410947 0.466007 0.483988 0.552775 0.530464 0.38177 0.559229 0.668797 0.570698 0.493014 0.470497 0.423017 0.38005 0.291337 0.745421 0.72549 0.356298 0.376697 0.36557 0.488438 0.724619 0.740036 0.730951 0.713555 0.677735 0.629174 0.515762 0.66868 0.830469 0.830636 0.829355 0.828489 0.808233 0.819724 0.748569 0.827925 0.685533 0.797613 0.744407 0.797618 0.685549 0.827929 0.748569 0.819723 0.808234 0.828489 0.829356 0.830637 0.830469 0.66868 0.515762 0.629174 0.677735 0.713555 0.730951 0.740036 0.724619 0.488438 0.36557 0.376697 0.356298 0.72549 0.74542 0.291338 0.38005 0.423017 0.470497 0.493014 0.570698 0.668797 0.559229 0.672876 0.507419 0.460642 0.413812 0.311917 0.661882 0.833883 0.632113 0.332644 0.289469 0.355066 0.599806 0.706343 0.763007 0.728264 0.717543 0.683108 0.632549 0.570601 0.840337 0.846526 0.84635 0.799025 0.77653 0.816595 0.816594 0.776545 0.799024 0.846351 0.846526 0.840337 0.570601 0.632549 0.683108 0.717543 0.728264 0.763007 0.706343 0.599805 0.355066 0.289469 0.332644 0.632113 0.833882 0.661882 0.311917 0.413812 0.460642 0.507419 0.672875 0.901113 0.528291 0.450648 1.08042 0.383369 0.733485 0.498053 0.706684 0.700923 0.346481 0.555484 0.693669 0.786738 0.727459 0.723832 0.729283 0.727905 0.654865 0.594271 0.516084 0.940614 0.734618 0.862081 0.870377 0.834756 0.829779 0.811385 0.786405 0.793034 0.744612 0.656376 0.736256 0.656383 0.744615 0.793035 0.786405 0.811386 0.829781 0.834756 0.870377 0.862081 0.734618 0.940614 0.516084 0.594271 0.654865 0.727904 0.729283 0.723832 0.727459 0.786738 0.693669 0.555485 0.346481 0.700923 0.706684 0.498053 0.733485 0.383369 1.08042 0.450648 0.528291 0.901113 0.711527 0.520715 0.543407 0.551272 0.783201 0.507629 0.613663 0.698569 0.495945 0.70385 0.720649 0.831452 0.715449 0.720292 0.724399 0.721006 0.712618 0.711954 0.694201 0.515771 0.847408 0.768569 0.816172 0.826061 0.823981 0.7734 0.809668 0.805669 0.760139 0.776589 0.662337 0.862887 0.722557 0.862909 0.662327 0.776593 0.76014 0.805669 0.809669 0.773399 0.823981 0.826063 0.816172 0.768569 0.847408 0.515771 0.694201 0.711954 0.712618 0.721006 0.724399 0.720292 0.715449 0.831452 0.720649 0.70385 0.495946 0.698569 0.613663 0.507629 0.783201 0.551272 0.543407 0.520715 0.711527 0.829558 0.711571 1.09193 0.703739 0.592618 0.562645 0.786832 0.248202 0.717557 0.723175 0.722517 0.71861 0.709599 0.71105 0.708369 0.673396 0.605719 0.94086 0.863739 0.814956 0.763477 0.857338 0.85735 0.763477 0.814956 0.863739 0.94086 0.605719 0.673396 0.708369 0.71105 0.709599 0.71861 0.722517 0.723175 0.717557 0.248202 0.786832 0.562645 0.592618 0.703739 1.09193 0.711571 0.829558 0.709557 0.495072 0.673473 0.849717 0.638297 0.71882 0.742382 0.72642 0.770626 0.699299 0.712836 0.707967 0.693785 0.640627 0.541339 0.8825 0.846044 0.875183 0.803864 0.824601 0.674395 0.830678 0.763235 0.828213 0.778738 0.69717 0.714721 0.697165 0.778739 0.828213 0.763235 0.830678 0.674395 0.824602 0.803864 0.875183 0.846044 0.8825 0.541339 0.640627 0.693785 0.707967 0.712836 0.699299 0.770625 0.726421 0.742382 0.71882 0.638297 0.849717 0.673473 0.495072 0.709557 0.706111 0.632153 0.649419 0.546511 0.67353 0.710367 0.734628 0.832034 0.745636 0.756022 0.677887 0.721744 0.741127 0.725867 0.709198 0.665015 0.599579 0.893832 0.853692 0.892093 0.823185 0.838729 0.781259 0.830658 0.812374 0.807329 0.814686 0.785304 0.789111 0.780405 0.873392 0.730113 0.873402 0.780402 0.789109 0.785304 0.814686 0.807328 0.812374 0.830658 0.781259 0.838729 0.823185 0.892093 0.853692 0.893832 0.599579 0.665015 0.709198 0.725867 0.741127 0.721744 0.677887 0.756023 0.745636 0.832034 0.734628 0.710367 0.67353 0.546511 0.649419 0.632153 0.706111 0.831712 0.67339 0.864911 0.752712 0.750884 0.659275 0.665229 0.550756 0.697614 0.707134 0.70663 0.797605 0.77075 0.707666 0.721677 0.762162 0.761123 0.716807 0.719345 0.708625 0.692712 0.747575 0.885074 0.885082 0.747572 0.692712 0.708625 0.719345 0.716807 0.761123 0.762162 0.721677 0.707666 0.77075 0.797605 0.70663 0.707134 0.697614 0.550756 0.665229 0.659275 0.750884 0.752712 0.864911 0.67339 0.831712 0.696905 0.73986 0.731159 0.707028 0.721474 0.655303 0.67847 0.548925 0.765379 0.774138 0.793382 0.754584 0.727555 0.715245 0.70654 0.714149 0.754702 0.686764 0.908732 0.882474 0.911869 0.831068 0.836699 0.832683 0.815752 0.801592 0.789976 0.710598 0.806497 0.825059 0.745104 0.825059 0.806496 0.710596 0.789976 0.801592 0.815752 0.832682 0.836699 0.831068 0.911868 0.882474 0.908732 0.686764 0.754702 0.714149 0.70654 0.715245 0.727555 0.754584 0.793382 0.774138 0.765378 0.548925 0.67847 0.655303 0.721474 0.707028 0.731159 0.73986 0.696905 0.805268 0.753829 0.727229 0.75018 0.687602 0.699632 0.717769 0.76268 0.762308 0.729938 0.707842 0.706196 0.728987 0.727328 0.870051 0.887258 0.853643 0.899536 0.839602 0.936929 0.833127 0.91107 0.836719 0.910273 0.84151 0.914316 0.86785 0.934958 0.759456 0.934958 0.867851 0.914316 0.841509 0.910272 0.836719 0.91107 0.833126 0.936929 0.839602 0.899536 0.853643 0.887258 0.870051 0.727328 0.728987 0.706196 0.707842 0.729938 0.762308 0.76268 0.717769 0.699632 0.687602 0.75018 0.727229 0.75383 0.805268 0.702756 0.736079 0.659803 0.68347 0.555601 0.692313 0.708117 0.737447 0.764721 0.778867 0.791298 0.800557 0.774171 0.761377 0.761377 0.774171 0.800557 0.791298 0.778867 0.764721 0.737447 0.708117 0.692313 0.555601 0.68347 0.659803 0.736079 0.702756 0.76182 0.818243 0.746239 0.76482 0.733472 0.735214 0.666195 0.68163 0.664158 0.690918 0.724224 0.749523 0.771974 0.788679 0.807205 0.826709 0.838639 0.81699 0.771206 0.732756 0.735731 0.820031 0.76476 0.820532 0.927241 0.8491 0.924195 0.864264 0.961833 0.86069 0.947749 0.874199 0.936262 0.875813 0.936516 0.884602 0.937457 0.770727 0.937457 0.884602 0.936516 0.875812 0.936262 0.874199 0.947749 0.86069 0.961833 0.864264 0.924195 0.8491 0.927241 0.820532 0.76476 0.820031 0.735731 0.732756 0.771206 0.81699 0.838639 0.826709 0.807205 0.788679 0.771974 0.749523 0.724224 0.690918 0.664158 0.68163 0.666195 0.735214 0.733472 0.76482 0.746239 0.818243 0.76182 0.824098 0.865891 0.797669 0.798948 0.753884 0.752058 0.742281 0.751603 0.776325 0.635395 0.736581 0.760452 0.780458 0.797138 0.817576 0.832502 0.828051 0.792229 0.838049 0.839498 0.871563 0.904203 0.868728 0.902666 0.880383 0.901071 0.885489 0.898883 0.880159 0.897444 0.886188 0.894839 0.889533 0.896042 0.885295 0.894093 0.782048 0.894093 0.885295 0.896042 0.889532 0.894839 0.886188 0.897444 0.880159 0.898883 0.885489 0.901071 0.880383 0.902666 0.868728 0.904203 0.871563 0.839498 0.838049 0.792229 0.828051 0.832502 0.817576 0.797138 0.780458 0.760452 0.736581 0.635395 0.776325 0.751603 0.742281 0.752058 0.753884 0.798948 0.797669 0.865891 0.824098 0.710908 0.710908 0.873587 0.894169 0.893938 0.878852 0.885221 0.885532 0.859285 0.879187 0.89129 0.895676 0.767894 0.791021 0.810781 0.827545 0.840299 0.856471 0.865274 0.863296 0.831891 0.894088 0.886676 0.896844 0.931053 0.888485 0.920245 0.892817 0.911835 0.893249 0.906352 0.887172 0.901959 0.890779 0.899645 0.895513 0.895542 0.880561 0.894283 0.793213 0.894283 0.880561 0.895542 0.895513 0.899645 0.890779 0.901959 0.887172 0.906352 0.893249 0.911835 0.892817 0.920245 0.888485 0.931053 0.896844 0.886676 0.894088 0.831891 0.863296 0.865274 0.856471 0.840299 0.827545 0.810781 0.791021 0.767894 0.895676 0.89129 0.879187 0.859285 0.885532 0.885221 0.878852 0.893938 0.894169 0.873587 0.883852 0.896702 0.897513 0.886579 0.89712 0.905604 0.892179 0.909982 0.922452 0.91516 0.859199 0.88113 0.895479 0.907247 0.903969 0.902924 0.903102 0.889922 0.86111 0.897775 0.895054 0.899776 0.894906 0.890495 0.894486 0.893964 0.893961 0.894254 0.89399 0.889191 0.893948 0.891435 0.893928 0.895286 0.894156 0.876674 0.893832 0.80366 0.893832 0.876674 0.894156 0.895286 0.893928 0.891435 0.893948 0.889191 0.89399 0.894254 0.893961 0.893964 0.894486 0.890495 0.894906 0.899776 0.895054 0.897775 0.86111 0.889922 0.903102 0.902924 0.903969 0.907247 0.895479 0.88113 0.859199 0.91516 0.922452 0.909982 0.892179 0.905604 0.89712 0.886579 0.897513 0.896702 0.883852 0.886281 0.896463 0.896855 0.884322 0.891281 0.900447 0.894518 0.907618 0.917085 0.917297 0.867043 0.887733 0.900523 0.910901 0.90696 0.903924 0.900568 0.887446 0.867029 0.895242 0.895757 0.898434 0.895337 0.890572 0.894775 0.893803 0.894199 0.894045 0.893832 0.89032 0.893832 0.891697 0.893832 0.893563 0.893832 0.874531 0.893832 0.813143 0.893832 0.874531 0.893832 0.893563 0.893832 0.891697 0.893832 0.89032 0.893832 0.894045 0.894199 0.893803 0.894775 0.890572 0.895337 0.898434 0.895757 0.895242 0.867029 0.887446 0.900568 0.903924 0.90696 0.910901 0.900523 0.887733 0.867043 0.917297 0.917085 0.907618 0.894518 0.900447 0.891281 0.884322 0.896855 0.896463 0.886281 0.889447 0.896296 0.896767 0.883391 0.886867 0.894927 0.893238 0.904663 0.910838 0.914988 0.864112 0.883158 0.894747 0.904748 0.90258 0.899574 0.894578 0.884759 0.871681 0.892997 0.893871 0.89681 0.893832 0.89057 0.893832 0.893412 0.893832 0.893598 0.893832 0.890553 0.893832 0.891729 0.893832 0.891553 0.893832 0.873711 0.893832 0.821744 0.893832 0.873711 0.893832 0.891553 0.893832 0.891729 0.893832 0.890553 0.893832 0.893598 0.893832 0.893412 0.893832 0.89057 0.893832 0.89681 0.893871 0.892997 0.871681 0.884759 0.894578 0.899574 0.90258 0.904748 0.894747 0.883158 0.864112 0.914988 0.910838 0.904663 0.893238 0.894928 0.886867 0.883391 0.896767 0.896296 0.889447 0.892154 0.896078 0.896492 0.884167 0.884641 0.89097 0.891554 0.90057 0.905869 0.911619 0.862261 0.878985 0.889411 0.899092 0.898275 0.895634 0.890294 0.883734 0.876083 0.891607 0.893891 0.895377 0.893832 0.890639 0.893832 0.893027 0.893832 0.89323 0.893832 0.890245 0.893832 0.891506 0.893832 0.889769 0.893832 0.873586 0.893832 0.829568 0.893832 0.873586 0.893832 0.889769 0.893832 0.891506 0.893832 0.890245 0.893832 0.89323 0.893832 0.893027 0.893832 0.890639 0.893832 0.895377 0.893891 0.891607 0.876083 0.883734 0.890294 0.895634 0.898275 0.899092 0.889411 0.878985 0.862261 0.911619 0.905869 0.90057 0.891554 0.89097 0.884641 0.884167 0.896492 0.896078 0.892154 0.894403 0.89585 0.896173 0.885852 0.883872 0.888473 0.887593 0.883732 0.88003 0.890845 0.893832 0.894202 0.893832 0.890762 0.893832 0.892604 0.893832 0.892795 0.893832 0.889782 0.893832 0.891061 0.893832 0.88827 0.893832 0.873929 0.893832 0.836692 0.893832 0.873929 0.893832 0.88827 0.893832 0.891061 0.893832 0.889782 0.893832 0.892795 0.893832 0.892604 0.893832 0.890762 0.893832 0.894202 0.893832 0.890845 0.88003 0.883732 0.887593 0.888473 0.883872 0.885852 0.896173 0.89585 0.894403 0.889723 0.896282 0.901423 0.907865 0.862044 0.876188 0.885489 0.894788 0.894684 0.892561 0.892561 0.894684 0.894788 0.885489 0.876188 0.862044 0.907865 0.901423 0.896282 0.889723 0.895644 0.895614 0.895848 0.887808 0.884039 0.887139 0.887881 0.893024 0.897572 0.90422 0.863032 0.8747 0.882935 0.891711 0.891973 0.890435 0.886087 0.884385 0.883356 0.890622 0.893832 0.893261 0.893832 0.890905 0.893832 0.892152 0.893832 0.892228 0.893832 0.889354 0.893832 0.890456 0.893832 0.887041 0.893832 0.874599 0.893832 0.843173 0.893832 0.874599 0.893832 0.887041 0.893832 0.890456 0.893832 0.889354 0.893832 0.892228 0.893832 0.892152 0.893832 0.890905 0.893832 0.893261 0.893832 0.890622 0.883356 0.884385 0.886087 0.890435 0.891973 0.891711 0.882935 0.8747 0.863032 0.90422 0.897572 0.893024 0.887881 0.887139 0.884039 0.887808 0.895848 0.895614 0.895644 0.893832 0.893832 0.893832 0.893832 0.893832 0.893832 0.893832 0.893832 0.893832 0.893832 0.893832 0.893832 0.893832 0.893832 0.893832 0.893832 0.893832 0.893832 0.895741 0.895371 0.895524 0.88965 0.884778 0.886637 0.886475 0.890758 0.894569 0.90088 0.864855 0.87429 0.881495 0.889638 0.890111 0.889119 0.885452 0.885393 0.885964 0.890813 0.89256 0.891028 0.891706 0.89163 0.889022 0.889763 0.88609 0.875488 0.849058 0.875488 0.88609 0.889763 0.889022 0.89163 0.891706 0.891028 0.89256 0.890813 0.885964 0.885393 0.885452 0.889119 0.890111 0.889638 0.881495 0.87429 0.864855 0.90088 0.894569 0.890758 0.886475 0.886637 0.884778 0.88965 0.895524 0.895371 0.895741 0.895179 0.895125 0.895205 0.891184 0.885815 0.886686 0.885726 0.889193 0.892395 0.897921 0.867225 0.874688 0.880898 0.888331 0.888914 0.888393 0.885424 0.886492 0.887877 0.891208 0.893832 0.89207 0.893832 0.891123 0.893832 0.89129 0.893832 0.891098 0.893832 0.888789 0.893832 0.889074 0.893832 0.885408 0.893832 0.876513 0.893832 0.854383 0.893832 0.876513 0.893832 0.885408 0.893832 0.889074 0.893832 0.888789 0.893832 0.891098 0.893832 0.89129 0.893832 0.891123 0.893832 0.89207 0.893832 0.891208 0.887877 0.886492 0.885424 0.888393 0.888914 0.888331 0.880898 0.874688 0.867225 0.897921 0.892395 0.889193 0.885726 0.886686 0.885815 0.891184 0.895205 0.895125 0.895179 0.894423 0.894879 0.894898 0.892325 0.886945 0.887061 0.885572 0.88819 0.890878 0.89539 0.869883 0.875643 0.880925 0.887561 0.888174 0.888052 0.885771 0.887548 0.889195 0.891647 0.893832 0.891735 0.893832 0.891194 0.893832 0.890916 0.893832 0.890665 0.893832 0.888633 0.893832 0.888466 0.893832 0.884966 0.893832 0.877616 0.893832 0.859181 0.893832 0.877616 0.893832 0.884966 0.893832 0.888466 0.893832 0.888633 0.893832 0.890665 0.893832 0.890916 0.893832 0.891194 0.893832 0.891735 0.893832 0.891647 0.889195 0.887548 0.885771 0.888052 0.888174 0.887561 0.880925 0.875643 0.869883 0.89539 0.890878 0.88819 0.885572 0.887061 0.886945 0.892325 0.894898 0.894879 0.894423 0.893694 0.894641 0.894609 0.893059 0.888026 0.8876 0.885841 0.88766 0.889855 0.893308 0.872612 0.87694 0.881382 0.887142 0.887728 0.887946 0.886309 0.888496 0.890008 0.892051 0.893832 0.891511 0.893832 0.891243 0.893832 0.890591 0.893832 0.890325 0.893832 0.888531 0.893832 0.88798 0.893832 0.884731 0.893832 0.878759 0.893832 0.863485 0.893832 0.878759 0.893832 0.884731 0.893832 0.88798 0.893832 0.888531 0.893832 0.890325 0.893832 0.890591 0.893832 0.891243 0.893832 0.891511 0.893832 0.892051 0.890008 0.888496 0.886309 0.887946 0.887728 0.887142 0.881382 0.87694 0.872612 0.893308 0.889855 0.88766 0.885841 0.8876 0.888026 0.893059 0.894609 0.894641 0.893694 0.893062 0.894411 0.894337 0.893437 0.888977 0.88819 0.88636 0.887495 0.889209 0.89167 0.875245 0.878403 0.882093 0.886936 0.887462 0.887974 0.886915 0.889279 0.890445 0.892388 0.893832 0.891362 0.893832 0.891273 0.893832 0.89032 0.893832 0.890066 0.893832 0.888466 0.893832 0.887629 0.893832 0.884677 0.893832 0.879911 0.893832 0.867327 0.893832 0.879911 0.893832 0.884677 0.893832 0.887629 0.893832 0.888466 0.893832 0.890066 0.893832 0.89032 0.893832 0.891273 0.893832 0.891362 0.893832 0.892388 0.890445 0.889279 0.886915 0.887974 0.887462 0.886936 0.882093 0.878403 0.875245 0.89167 0.889209 0.887495 0.88636 0.88819 0.888977 0.893437 0.894337 0.894411 0.893062 0.892548 0.894193 0.894085 0.893544 0.889763 0.88876 0.886995 0.887591 0.888849 0.890444 0.877662 0.879903 0.882919 0.886843 0.8873 0.888066 0.887521 0.889862 0.89068 0.892647 0.893832 0.891265 0.893832 0.891284 0.893832 0.890106 0.893832 0.889872 0.893832 0.888431 0.893832 0.887409 0.893832 0.88478 0.893832 0.881051 0.893832 0.870744 0.893832 0.881051 0.893832 0.88478 0.893832 0.887409 0.893832 0.888431 0.893832 0.889872 0.893832 0.890106 0.893832 0.891284 0.893832 0.891265 0.893832 0.892647 0.89068 0.889862 0.887521 0.888066 0.8873 0.886843 0.882919 0.879903 0.877662 0.890444 0.888849 0.887591 0.886995 0.88876 0.889763 0.893544 0.894085 0.894193 0.892548 0.892152 0.893986 0.893852 0.893461 0.890379 0.889271 0.887657 0.887856 0.888704 0.88958 0.879793 0.881344 0.883762 0.8868 0.887192 0.888175 0.888083 0.890255 0.890855 0.892827 0.893832 0.891205 0.893832 0.89128 0.893832 0.889949 0.893832 0.889734 0.893832 0.888423 0.893832 0.887306 0.893832 0.885016 0.893832 0.88216 0.893832 0.873771 0.893832 0.88216 0.893832 0.885016 0.893832 0.887306 0.893832 0.888423 0.893832 0.889734 0.893832 0.889949 0.893832 0.89128 0.893832 0.891205 0.893832 0.892827 0.890855 0.890255 0.888083 0.888175 0.887192 0.8868 0.883762 0.881344 0.879793 0.88958 0.888704 0.887856 0.887657 0.889271 0.890379 0.893461 0.893852 0.893986 0.892152 0.891866 0.893792 0.89364 0.893264 0.890839 0.889705 0.888286 0.88822 0.888715 0.88901 0.881609 0.882668 0.884557 0.886769 0.88711 0.888275 0.888574 0.890497 0.891037 0.892935 0.893832 0.891169 0.893832 0.891265 0.893832 0.889843 0.893832 0.889642 0.893832 0.888443 0.893832 0.887303 0.893832 0.885358 0.893832 0.883225 0.893832 0.876444 0.893832 0.883225 0.893832 0.885358 0.893832 0.887303 0.893832 0.888443 0.893832 0.889642 0.893832 0.889843 0.893832 0.891265 0.893832 0.891169 0.893832 0.892935 0.891037 0.890497 0.888574 0.888275 0.88711 0.886769 0.884557 0.882668 0.881609 0.88901 0.888715 0.88822 0.888286 0.889705 0.890839 0.893264 0.89364 0.893792 0.891866 0.891676 0.893611 0.893449 0.893018 0.891164 0.890059 0.888847 0.888624 0.888833 0.888669 0.883115 0.88384 0.885267 0.886734 0.887042 0.888353 0.88898 0.890637 0.891239 0.892981 0.893832 0.89115 0.893832 0.891243 0.893832 0.88978 0.893832 0.88959 0.893832 0.88849 0.893832 0.887383 0.893832 0.885781 0.893832 0.884238 0.893832 0.878794 0.893832 0.884238 0.893832 0.885781 0.893832 0.887383 0.893832 0.88849 0.893832 0.88959 0.893832 0.88978 0.893832 0.891243 0.893832 0.89115 0.893832 0.892981 0.891239 0.890637 0.88898 0.888353 0.887042 0.886734 0.885267 0.88384 0.883115 0.888669 0.888833 0.888624 0.888847 0.890059 0.891164 0.893018 0.893449 0.893611 0.891676 0.891568 0.893444 0.893279 0.892769 0.891378 0.890337 0.889321 0.88903 0.889017 0.888492 0.884335 0.884848 0.885871 0.886693 0.886988 0.888411 0.889301 0.890717 0.891451 0.892981 0.893832 0.891143 0.893832 0.891218 0.893832 0.889752 0.893832 0.889573 0.893832 0.888565 0.893832 0.88753 0.893832 0.88626 0.893832 0.885192 0.893832 0.880852 0.893832 0.885192 0.893832 0.88626 0.893832 0.88753 0.893832 0.888565 0.893832 0.889573 0.893832 0.889752 0.893832 0.891218 0.893832 0.891143 0.893832 0.892981 0.891451 0.890717 0.889301 0.888411 0.886988 0.886693 0.885871 0.884848 0.884335 0.888492 0.889017 0.88903 0.889321 0.890337 0.891378 0.892769 0.893279 0.893444 0.891568 0.891524 0.893292 0.89313 0.892542 0.891506 0.890546 0.889702 0.889408 0.889234 0.888428 0.885303 0.885691 0.886366 0.886652 0.88695 0.888453 0.889546 0.890767 0.891659 0.892948 0.893832 0.891143 0.893832 0.891194 0.893832 0.889753 0.893832 0.889583 0.893832 0.888663 0.893832 0.88773 0.893832 0.886773 0.893832 0.88608 0.893832 0.882647 0.893832 0.88608 0.893832 0.886773 0.893832 0.88773 0.893832 0.888663 0.893832 0.889583 0.893832 0.889753 0.893832 0.891194 0.893832 0.891143 0.893832 0.892948 0.891659 0.890767 0.889546 0.888453 0.88695 0.886652 0.886366 0.885691 0.885303 0.888428 0.889234 0.889408 0.889702 0.890546 0.891506 0.892542 0.89313 0.893292 0.891524 0.89153 0.893154 0.893001 0.892345 0.891571 0.890697 0.889993 0.889742 0.889459 0.888434 0.886057 0.886382 0.886758 0.886618 0.886935 0.888489 0.889729 0.890808 0.891852 0.892894 0.893832 0.891148 0.893832 0.891173 0.893832 0.889775 0.893832 0.889616 0.893832 0.888783 0.893832 0.887968 0.893832 0.887302 0.893832 0.8869 0.893832 0.884206 0.893832 0.8869 0.893832 0.887302 0.893832 0.887968 0.893832 0.888783 0.893832 0.889616 0.893832 0.889775 0.893832 0.891173 0.893832 0.891148 0.893832 0.892894 0.891852 0.890808 0.889729 0.888489 0.886935 0.886618 0.886758 0.886382 0.886057 0.888434 0.889459 0.889742 0.889993 0.890697 0.891571 0.892345 0.893001 0.893154 0.89153 0.89157 0.89303 0.892892 0.892181 0.891595 0.8908 0.890202 0.890023 0.889674 0.888477 0.886636 0.886936 0.887059 0.8866 0.886947 0.888528 0.889866 0.890853 0.892025 0.892829 0.893832 0.891157 0.893832 0.891156 0.893832 0.889814 0.893832 0.889668 0.893832 0.88892 0.893832 0.888232 0.893832 0.88783 0.893832 0.887651 0.893832 0.885554 0.893832 0.887651 0.893832 0.88783 0.893832 0.888232 0.893832 0.88892 0.893832 0.889668 0.893832 0.889814 0.893832 0.891156 0.893832 0.891157 0.893832 0.892829 0.892025 0.890853 0.889866 0.888528 0.886947 0.8866 0.887059 0.886936 0.886636 0.888477 0.889674 0.890023 0.890202 0.8908 0.891595 0.892181 0.892892 0.89303 0.89157 0.8928 0.892048 0.891594 0.886988 0.888574 0.889974 0.890907 0.892177 0.892761 0.893832 0.891168 0.893832 0.891144 0.893832 0.889865 0.893832 0.889733 0.893832 0.889069 0.893832 0.888512 0.893832 0.888346 0.893832 0.888331 0.893832 0.886714 0.893832 0.888331 0.893832 0.888346 0.893832 0.888512 0.893832 0.889069 0.893832 0.889733 0.893832 0.889865 0.893832 0.891144 0.893832 0.891168 0.893832 0.892761 0.892177 0.890907 0.889974 0.888574 0.886988 0.891594 0.892048 0.8928 0.891629 0.89292 0.890865 0.89034 0.890249 0.889866 0.888534 0.887075 0.887374 0.887282 0.886603 0.886603 0.887282 0.887374 0.887075 0.888534 0.889866 0.890249 0.89034 0.890865 0.89292 0.891629 0.891699 0.892822 0.892725 0.891942 0.89158 0.890902 0.89042 0.890423 0.89003 0.88859 0.887405 0.887715 0.887444 0.88663 0.887057 0.888633 0.890064 0.89097 0.892307 0.892695 0.893832 0.891181 0.893832 0.891137 0.893832 0.889925 0.893832 0.889808 0.893832 0.889226 0.893832 0.888798 0.893832 0.888838 0.893832 0.888942 0.893832 0.887708 0.893832 0.888942 0.893832 0.888838 0.893832 0.888798 0.893832 0.889226 0.893832 0.889808 0.893832 0.889925 0.893832 0.891137 0.893832 0.891181 0.893832 0.892695 0.892307 0.89097 0.890064 0.888633 0.887057 0.88663 0.887444 0.887715 0.887405 0.88859 0.89003 0.890423 0.89042 0.890902 0.89158 0.891942 0.892725 0.892822 0.891699 0.891768 0.892738 0.892664 0.89186 0.891564 0.890918 0.890454 0.890549 0.890163 0.888636 0.88765 0.887976 0.88756 0.886682 0.887151 0.888705 0.890146 0.891041 0.892418 0.892632 0.893832 0.891194 0.893832 0.891135 0.893832 0.889989 0.893832 0.889889 0.893832 0.889385 0.893832 0.889082 0.893832 0.8893 0.893832 0.889486 0.893832 0.888555 0.893832 0.889486 0.893832 0.8893 0.893832 0.889082 0.893832 0.889385 0.893832 0.889889 0.893832 0.889989 0.893832 0.891135 0.893832 0.891194 0.893832 0.892632 0.892418 0.891041 0.890146 0.888705 0.887151 0.886682 0.88756 0.887976 0.88765 0.888636 0.890163 0.890549 0.890454 0.890918 0.891564 0.89186 0.892664 0.892738 0.891768 0.891833 0.892664 0.892616 0.891799 0.89155 0.89092 0.890455 0.890636 0.890265 0.888669 0.887832 0.888175 0.88764 0.886756 0.887266 0.888788 0.890226 0.891115 0.892511 0.892577 0.893832 0.891208 0.893832 0.891137 0.893832 0.890056 0.893832 0.889972 0.893832 0.889541 0.893832 0.889356 0.893832 0.889724 0.893832 0.889966 0.893832 0.889271 0.893832 0.889966 0.893832 0.889724 0.893832 0.889356 0.893832 0.889541 0.893832 0.889972 0.893832 0.890056 0.893832 0.891137 0.893832 0.891208 0.893832 0.892577 0.892511 0.891115 0.890226 0.888788 0.887266 0.886756 0.88764 0.888175 0.887832 0.888669 0.890265 0.890636 0.890455 0.89092 0.89155 0.891799 0.892616 0.892664 0.891833 0.89189 0.892602 0.892579 0.891755 0.891541 0.890914 0.890433 0.890691 0.89034 0.888687 0.887968 0.888324 0.887697 0.886847 0.887394 0.888879 0.890306 0.891189 0.892589 0.892528 0.893832 0.891223 0.893832 0.891142 0.893832 0.890121 0.893832 0.890053 0.893832 0.889692 0.893832 0.889614 0.893832 0.890107 0.893832 0.890384 0.893832 0.889873 0.893832 0.890384 0.893832 0.890107 0.893832 0.889614 0.893832 0.889692 0.893832 0.890053 0.893832 0.890121 0.893832 0.891142 0.893832 0.891223 0.893832 0.892528 0.892589 0.891189 0.890306 0.888879 0.887394 0.886847 0.887697 0.888324 0.887968 0.888687 0.89034 0.890691 0.890433 0.890914 0.891541 0.891755 0.892579 0.892602 0.89189 0.891936 0.892549 0.89255 0.891724 0.891537 0.890904 0.890398 0.890722 0.890392 0.888692 0.888068 0.888436 0.887736 0.886948 0.887529 0.888975 0.890385 0.89126 0.892653 0.892486 0.893832 0.891237 0.893832 0.891149 0.893832 0.890184 0.893832 0.890131 0.893832 0.889831 0.893832 0.889851 0.893832 0.890445 0.893832 0.890742 0.893832 0.890372 0.893832 0.890742 0.893832 0.890445 0.893832 0.889851 0.893832 0.889831 0.893832 0.890131 0.893832 0.890184 0.893832 0.891149 0.893832 0.891237 0.893832 0.892486 0.892653 0.89126 0.890385 0.888975 0.887529 0.886948 0.887736 0.888436 0.888068 0.888692 0.890392 0.890722 0.890398 0.890904 0.891537 0.891724 0.89255 0.892549 0.891936 0.891972 0.892505 0.892529 0.891704 0.891538 0.890891 0.890356 0.890735 0.890425 0.888688 0.888143 0.888518 0.887764 0.887051 0.887663 0.88907 0.890462 0.891326 0.892707 0.892452 0.893832 0.89125 0.893832 0.891158 0.893832 0.890241 0.893832 0.890202 0.893832 0.889957 0.893832 0.890062 0.893832 0.890737 0.893832 0.891044 0.893832 0.89078 0.893832 0.891044 0.893832 0.890737 0.893832 0.890062 0.893832 0.889957 0.893832 0.890202 0.893832 0.890241 0.893832 0.891158 0.893832 0.89125 0.893832 0.892452 0.892707 0.891326 0.890462 0.88907 0.887663 0.887051 0.887764 0.888518 0.888143 0.888688 0.890425 0.890735 0.890356 0.890891 0.891538 0.891704 0.892529 0.892505 0.891972 0.891999 0.89247 0.892514 0.891692 0.891542 0.89088 0.890314 0.890737 0.890444 0.888678 0.888198 0.888579 0.887785 0.887151 0.887787 0.889158 0.890533 0.891385 0.89275 0.892424 0.893832 0.891262 0.893832 0.891167 0.893832 0.890291 0.893832 0.890265 0.893832 0.890066 0.893832 0.890244 0.893832 0.890981 0.893832 0.891292 0.893832 0.891107 0.893832 0.891292 0.893832 0.890981 0.893832 0.890244 0.893832 0.890066 0.893832 0.890265 0.893832 0.890291 0.893832 0.891167 0.893832 0.891262 0.893832 0.892424 0.89275 0.891385 0.890533 0.889158 0.887787 0.887151 0.887785 0.888579 0.888198 0.888678 0.890444 0.890737 0.890314 0.89088 0.891542 0.891692 0.892514 0.89247 0.891999 0.892018 0.892442 0.892504 0.891684 0.891548 0.890869 0.890276 0.890734 0.890453 0.888666 0.888238 0.888622 0.887799 0.88724 0.887896 0.889236 0.890595 0.891433 0.892784 0.892402 0.893832 0.891272 0.893832 0.891175 0.893832 0.890333 0.893832 0.890317 0.893832 0.890156 0.893832 0.890393 0.893832 0.891177 0.893832 0.891488 0.893832 0.891359 0.893832 0.891488 0.893832 0.891177 0.893832 0.890393 0.893832 0.890156 0.893832 0.890317 0.893832 0.890333 0.893832 0.891175 0.893832 0.891272 0.893832 0.892402 0.892784 0.891433 0.890595 0.889236 0.887896 0.88724 0.887799 0.888622 0.888238 0.888666 0.890453 0.890734 0.890276 0.890869 0.891548 0.891684 0.892504 0.892442 0.892018 0.892031 0.892422 0.892497 0.89168 0.891554 0.890861 0.890245 0.890727 0.890457 0.888654 0.888266 0.888651 0.88781 0.887311 0.887983 0.889299 0.890645 0.891471 0.892809 0.892386 0.893832 0.891281 0.893832 0.891182 0.893832 0.890365 0.893832 0.890357 0.893832 0.890225 0.893832 0.890506 0.893832 0.891324 0.893832 0.891633 0.893832 0.891543 0.893832 0.891633 0.893832 0.891324 0.893832 0.890506 0.893832 0.890225 0.893832 0.890357 0.893832 0.890365 0.893832 0.891182 0.893832 0.891281 0.893832 0.892386 0.892809 0.891471 0.890645 0.889299 0.887983 0.887311 0.88781 0.888651 0.888266 0.888654 0.890457 0.890727 0.890245 0.890861 0.891554 0.89168 0.892497 0.892422 0.892031 0.892039 0.892409 0.892493 0.891679 0.891559 0.890855 0.890224 0.890722 0.890458 0.888644 0.888283 0.88867 0.887817 0.887362 0.888043 0.889343 0.89068 0.891497 0.892826 0.892375 0.893832 0.891286 0.893832 0.891186 0.893832 0.890387 0.893832 0.890385 0.893832 0.890272 0.893832 0.890583 0.893832 0.891422 0.893832 0.891729 0.893832 0.891664 0.893832 0.891729 0.893832 0.891422 0.893832 0.890583 0.893832 0.890272 0.893832 0.890385 0.893832 0.890387 0.893832 0.891186 0.893832 0.891286 0.893832 0.892375 0.892826 0.891497 0.89068 0.889343 0.888043 0.887362 0.887817 0.88867 0.888283 0.888644 0.890458 0.890722 0.890224 0.890855 0.891559 0.891679 0.892493 0.892409 0.892039 0.892042 0.892402 0.892491 0.891678 0.891562 0.890852 0.890213 0.890719 0.890458 0.888639 0.888292 0.888679 0.88782 0.887388 0.888075 0.889365 0.890698 0.89151 0.892834 0.89237 0.893832 0.891289 0.893832 0.891189 0.893832 0.890398 0.893832 0.890399 0.893832 0.890296 0.893832 0.890622 0.893832 0.891471 0.893832 0.891777 0.893832 0.891723 0.893832 0.891777 0.893832 0.891471 0.893832 0.890622 0.893832 0.890296 0.893832 0.890399 0.893832 0.890398 0.893832 0.891189 0.893832 0.891289 0.893832 0.89237 0.892834 0.89151 0.890698 0.889365 0.888075 0.887388 0.88782 0.888679 0.888292 0.888639 0.890458 0.890719 0.890213 0.890852 0.891562 0.891678 0.892491 0.892402 0.892042 
SCALARS Axial_Stress float 1
LOOKUP_TABLE default
-41475500000.0 -41475500000.0 -203695000000.0 -257784000000.0 -214640000000.0 -214640000000.0 -257784000000.0 -203695000000.0 -923362000000.0 -348802000000.0 -99902200000.0 -97863600000.0 -53999800000.0 -242063000000.0 -159651000000.0 -164238000000.0 -188561000000.0 -188561000000.0 -164238000000.0 -159651000000.0 -242063000000.0 -53999800000.0 -97863600000.0 -99902200000.0 -348802000000.0 -923362000000.0 -1.52849e+12 -335993000000.0 -187238000000.0 -341410000000.0 -530952000000.0 -409743000000.0 -455037000000.0 -498340000000.0 -383617000000.0 -498340000000.0 -455037000000.0 -409743000000.0 -530952000000.0 -341410000000.0 -187238000000.0 -335993000000.0 -1.52849e+12 -1.81796e+12 -2.23447e+12 -2.14143e+12 -304389000000.0 -606263000000.0 -623114000000.0 -742852000000.0 -834703000000.0 -737987000000.0 -860835000000.0 -724073000000.0 -549923000000.0 -632956000000.0 -549923000000.0 -724073000000.0 -860835000000.0 -737987000000.0 -834703000000.0 -742852000000.0 -623114000000.0 -606263000000.0 -304389000000.0 -2.14143e+12 -2.23447e+12 -1.81796e+12 -2.01485e+12 -3.48381e+12 -1.85851e+12 -1.86767e+12 -2.1492e+12 -783306000000.0 -970680000000.0 -907934000000.0 -1.36696e+12 -313670000000.0 -618187000000.0 -618187000000.0 -313670000000.0 -1.36696e+12 -907934000000.0 -970680000000.0 -783306000000.0 -2.1492e+12 -1.86767e+12 -1.85851e+12 -3.48381e+12 -2.01485e+12 -1.97021e+12 -1.99469e+12 -3.39752e+12 -1.85829e+12 -2.11794e+12 -1.97363e+12 -1.35154e+12 -1.12748e+12 -1.32987e+12 -837860000000.0 -491370000000.0 -617374000000.0 -491370000000.0 -837860000000.0 -1.32987e+12 -1.12748e+12 -1.35154e+12 -1.97363e+12 -2.11794e+12 -1.85829e+12 -3.39752e+12 -1.99469e+12 -1.97021e+12 -1.95732e+12 -3.3156e+12 -3.07528e+12 -2.05096e+12 -2.35352e+12 -1.87845e+12 -1.75996e+12 -1.6706e+12 -679860000000.0 -442134000000.0 -641099000000.0 -688060000000.0 -616958000000.0 -576143000000.0 -592304000000.0 -576143000000.0 -616958000000.0 -688060000000.0 -641098000000.0 -442134000000.0 -679860000000.0 -1.6706e+12 -1.75996e+12 -1.87845e+12 -2.35352e+12 -2.05096e+12 -3.07528e+12 -3.3156e+12 -1.95732e+12 -1.93955e+12 -3.31607e+12 -3.03763e+12 -3.03746e+12 -2.5987e+12 -1.94747e+12 -2.15844e+12 -2.19732e+12 -2.19118e+12 -2.31597e+12 -2.28263e+12 -2.51498e+12 -348418000000.0 -621371000000.0 -623161000000.0 -611423000000.0 -611423000000.0 -623161000000.0 -621371000000.0 -348418000000.0 -2.51498e+12 -2.28263e+12 -2.31597e+12 -2.19118e+12 -2.19732e+12 -2.15844e+12 -1.94747e+12 -2.5987e+12 -3.03746e+12 -3.03763e+12 -3.31607e+12 -1.93955e+12 -2.02479e+12 -3.66245e+12 -3.35199e+12 -2.9442e+12 -2.72782e+12 -2.19839e+12 -2.14111e+12 -2.0637e+12 -886838000000.0 -599614000000.0 -636093000000.0 -616141000000.0 -621239000000.0 -616142000000.0 -636093000000.0 -599614000000.0 -886838000000.0 -2.0637e+12 -2.14111e+12 -2.19839e+12 -2.72782e+12 -2.9442e+12 -3.35199e+12 -3.66245e+12 -2.02479e+12 -2.15769e+12 -2.09892e+12 -3.79609e+12 -3.5765e+12 -2.65166e+12 -2.37145e+12 -2.42561e+12 -2.14369e+12 -2.05576e+12 -1.73043e+12 -1.187e+12 -1.10051e+12 -516010000000.0 -841205000000.0 -608994000000.0 -585751000000.0 -620715000000.0 -630115000000.0 -630115000000.0 -620715000000.0 -585751000000.0 -608994000000.0 -841205000000.0 -516010000000.0 -1.10051e+12 -1.187e+12 -1.73043e+12 -2.05576e+12 -2.14369e+12 -2.42561e+12 -2.37145e+12 -2.65166e+12 -3.5765e+12 -3.79609e+12 -2.09892e+12 -2.15769e+12 -2.19785e+12 -3.86783e+12 -3.6552e+12 -3.63139e+12 -3.69231e+12 -3.70391e+12 -2.11281e+12 -2.16043e+12 -2.02718e+12 -2.04563e+12 -1.89722e+12 -1.47591e+12 -1.0567e+12 -1.03951e+12 -581184000000.0 -630933000000.0 -664201000000.0 -647919000000.0 -664201000000.0 -630933000000.0 -581184000000.0 -1.03951e+12 -1.0567e+12 -1.47591e+12 -1.89722e+12 -2.04563e+12 -2.02718e+12 -2.16043e+12 -2.11281e+12 -3.70391e+12 -3.69231e+12 -3.63139e+12 -3.6552e+12 -3.86783e+12 -2.19785e+12 -2.22015e+12 -3.90676e+12 -3.7433e+12 -3.7087e+12 -3.60114e+12 -3.63587e+12 -3.64083e+12 -1.89649e+12 -1.9199e+12 -1.78744e+12 -1.40675e+12 -1.16109e+12 -1.22089e+12 -618982000000.0 -693770000000.0 -618982000000.0 -1.22089e+12 -1.16109e+12 -1.40675e+12 -1.78744e+12 -1.9199e+12 -1.89649e+12 -3.64083e+12 -3.63588e+12 -3.60114e+12 -3.7087e+12 -3.7433e+12 -3.90676e+12 -2.22015e+12 -2.22726e+12 -3.93217e+12 -3.92618e+12 -3.76464e+12 -3.60111e+12 -3.53277e+12 -3.46933e+12 -3.58662e+12 -3.48145e+12 -3.51329e+12 -3.32707e+12 -1.7859e+12 -1.79474e+12 -1.91158e+12 -1.95118e+12 -1.69718e+12 -1.62779e+12 -1.35526e+12 -1.35151e+12 -1.25214e+12 -1.33802e+12 -1.35267e+12 -1.44254e+12 -686176000000.0 -686176000000.0 -1.44254e+12 -1.35267e+12 -1.33802e+12 -1.25214e+12 -1.35151e+12 -1.35526e+12 -1.62779e+12 -1.69718e+12 -1.95118e+12 -1.91158e+12 -1.79474e+12 -1.7859e+12 -3.32707e+12 -3.51329e+12 -3.48145e+12 -3.58662e+12 -3.46933e+12 -3.53277e+12 -3.60111e+12 -3.76464e+12 -3.92618e+12 -3.93217e+12 -2.22726e+12 -2.20467e+12 -2.22169e+12 -3.92803e+12 -3.77473e+12 -3.6099e+12 -3.46708e+12 -3.48364e+12 -3.38379e+12 -3.37076e+12 -3.31403e+12 -3.05375e+12 -2.71752e+12 -2.0646e+12 -1.90748e+12 -1.55057e+12 -1.35854e+12 -1.40871e+12 -1.51276e+12 -638452000000.0 -1.51276e+12 -1.40871e+12 -1.35854e+12 -1.55057e+12 -1.90748e+12 -2.0646e+12 -2.71752e+12 -3.05375e+12 -3.31403e+12 -3.37076e+12 -3.38379e+12 -3.48364e+12 -3.46708e+12 -3.6099e+12 -3.77473e+12 -3.92803e+12 -2.22169e+12 -2.20467e+12 -2.18e+12 -3.91431e+12 -3.77471e+12 -3.62142e+12 -3.61813e+12 -3.46517e+12 -3.33779e+12 -3.28056e+12 -3.22176e+12 -3.01431e+12 -3.08139e+12 -2.79887e+12 -2.34239e+12 -2.19167e+12 -1.82618e+12 -1.45531e+12 -1.37838e+12 -1.47114e+12 -1.7843e+12 -1.78431e+12 -1.47114e+12 -1.37838e+12 -1.45531e+12 -1.82618e+12 -2.19167e+12 -2.34239e+12 -2.79887e+12 -3.08139e+12 -3.01431e+12 -3.22176e+12 -3.28056e+12 -3.33779e+12 -3.46517e+12 -3.61813e+12 -3.62142e+12 -3.77471e+12 -3.91431e+12 -2.18e+12 -2.15106e+12 -3.86255e+12 -3.8921e+12 -3.74895e+12 -3.7663e+12 -3.61802e+12 -3.46771e+12 -3.3189e+12 -3.17933e+12 -3.21572e+12 -3.07844e+12 -3.14237e+12 -2.94857e+12 -2.77095e+12 -2.52401e+12 -2.3895e+12 -2.61114e+12 -2.14657e+12 -1.99721e+12 -1.70969e+12 -1.37006e+12 -1.37528e+12 -1.40023e+12 -1.42949e+12 -1.42483e+12 -1.51404e+12 -968603000000.0 -1.51404e+12 -1.42483e+12 -1.42949e+12 -1.40023e+12 -1.37528e+12 -1.37005e+12 -1.70969e+12 -1.99721e+12 -2.14657e+12 -2.61114e+12 -2.3895e+12 -2.52401e+12 -2.77095e+12 -2.94857e+12 -3.14237e+12 -3.07844e+12 -3.21572e+12 -3.17933e+12 -3.3189e+12 -3.46771e+12 -3.61802e+12 -3.7663e+12 -3.74895e+12 -3.8921e+12 -3.86255e+12 -2.15106e+12 -2.1187e+12 -3.82969e+12 -3.72571e+12 -3.60818e+12 -3.46811e+12 -3.31643e+12 -3.31486e+12 -3.16476e+12 -3.03712e+12 -2.90602e+12 -2.70691e+12 -2.49917e+12 -2.28372e+12 -2.4302e+12 -2.63192e+12 -2.42462e+12 -1.53425e+12 -1.37741e+12 -1.36469e+12 -1.30668e+12 -1.20461e+12 -1.28535e+12 -1.20461e+12 -1.30668e+12 -1.36469e+12 -1.37741e+12 -1.53425e+12 -2.42462e+12 -2.63192e+12 -2.4302e+12 -2.28372e+12 -2.49917e+12 -2.70691e+12 -2.90602e+12 -3.03712e+12 -3.16476e+12 -3.31486e+12 -3.31643e+12 -3.46811e+12 -3.60818e+12 -3.72571e+12 -3.82969e+12 -2.1187e+12 -2.04656e+12 -2.08315e+12 -3.7887e+12 -3.69867e+12 -3.57004e+12 -3.5907e+12 -3.45573e+12 -3.46486e+12 -3.31727e+12 -3.16265e+12 -3.01596e+12 -2.8701e+12 -2.66795e+12 -2.37344e+12 -2.47636e+12 -2.21899e+12 -2.19333e+12 -3.45459e+12 -1.84012e+12 -1.37619e+12 -1.31827e+12 -1.37202e+12 -1.3512e+12 -1.3512e+12 -1.37201e+12 -1.31827e+12 -1.37619e+12 -1.84012e+12 -3.45459e+12 -2.19333e+12 -2.21899e+12 -2.47636e+12 -2.37344e+12 -2.66795e+12 -2.8701e+12 -3.01596e+12 -3.16265e+12 -3.31727e+12 -3.46486e+12 -3.45573e+12 -3.5907e+12 -3.57004e+12 -3.69867e+12 -3.7887e+12 -2.08315e+12 -2.04656e+12 -2.00763e+12 -3.73848e+12 -3.62408e+12 -3.66779e+12 -3.546e+12 -3.43771e+12 -3.31549e+12 -3.1659e+12 -3.01162e+12 -2.86018e+12 -2.8598e+12 -2.67587e+12 -2.67591e+12 -2.35876e+12 -2.17476e+12 -2.17314e+12 -2.32975e+12 -2.19737e+12 -1.43394e+12 -1.26173e+12 -1.43162e+12 -1.40257e+12 -1.34772e+12 -1.40257e+12 -1.43161e+12 -1.26173e+12 -1.43394e+12 -2.19737e+12 -2.32975e+12 -2.17314e+12 -2.17476e+12 -2.35876e+12 -2.67591e+12 -2.67587e+12 -2.8598e+12 -2.86018e+12 -3.01162e+12 -3.1659e+12 -3.31549e+12 -3.43771e+12 -3.546e+12 -3.66779e+12 -3.62408e+12 -3.73848e+12 -2.00763e+12 -1.96487e+12 -3.61341e+12 -3.67994e+12 -3.56568e+12 -3.5068e+12 -3.41484e+12 -3.28494e+12 -3.3066e+12 -3.17145e+12 -3.16875e+12 -3.01515e+12 -3.01055e+12 -2.86518e+12 -2.70868e+12 -2.49745e+12 -1.89535e+12 -1.90016e+12 -1.92185e+12 -1.81146e+12 -2.27436e+12 -984019000000.0 -1.46569e+12 -1.10328e+12 -1.17382e+12 -1.64096e+12 -1.51737e+12 -1.4758e+12 -1.4406e+12 -1.388e+12 -1.36919e+12 -1.35586e+12 -1.36919e+12 -1.388e+12 -1.4406e+12 -1.47579e+12 -1.51737e+12 -1.64096e+12 -1.17382e+12 -1.10328e+12 -1.46569e+12 -984019000000.0 -2.27436e+12 -1.81146e+12 -1.92185e+12 -1.90016e+12 -1.89535e+12 -2.49745e+12 -2.70868e+12 -2.86518e+12 -3.01055e+12 -3.01515e+12 -3.16875e+12 -3.17145e+12 -3.3066e+12 -3.28494e+12 -3.41484e+12 -3.5068e+12 -3.56568e+12 -3.67994e+12 -3.61341e+12 -1.96487e+12 -1.86802e+12 -1.91882e+12 -3.53595e+12 -3.49811e+12 -3.45622e+12 -3.33268e+12 -3.38487e+12 -3.25966e+12 -3.16721e+12 -3.02628e+12 -2.84921e+12 -2.72336e+12 -2.52653e+12 -2.47782e+12 -2.04259e+12 -1.63408e+12 -2.07016e+12 -3.0893e+12 -1.03887e+12 -1.72851e+12 -1.50807e+12 -1.40004e+12 -1.35427e+12 -1.35427e+12 -1.40004e+12 -1.50807e+12 -1.72851e+12 -1.03886e+12 -3.0893e+12 -2.07016e+12 -1.63408e+12 -2.04259e+12 -2.47782e+12 -2.52653e+12 -2.72336e+12 -2.84922e+12 -3.02628e+12 -3.16721e+12 -3.25966e+12 -3.38487e+12 -3.33268e+12 -3.45622e+12 -3.49811e+12 -3.53595e+12 -1.91882e+12 -1.86802e+12 -1.80839e+12 -3.45085e+12 -3.42578e+12 -3.31062e+12 -3.38571e+12 -3.28311e+12 -3.22657e+12 -3.14036e+12 -3.03639e+12 -2.88383e+12 -2.87227e+12 -2.70096e+12 -2.69443e+12 -2.4888e+12 -2.63154e+12 -2.52965e+12 -1.60994e+12 -1.15999e+12 -2.28237e+12 -674073000000.0 -823844000000.0 -1.9806e+12 -1.32054e+12 -1.48108e+12 -1.40292e+12 -1.35464e+12 -1.33082e+12 -1.35464e+12 -1.40292e+12 -1.48108e+12 -1.32054e+12 -1.9806e+12 -823845000000.0 -674073000000.0 -2.28237e+12 -1.15999e+12 -1.60994e+12 -2.52965e+12 -2.63154e+12 -2.4888e+12 -2.69443e+12 -2.70096e+12 -2.87227e+12 -2.88383e+12 -3.03639e+12 -3.14036e+12 -3.22657e+12 -3.28311e+12 -3.38571e+12 -3.31062e+12 -3.42578e+12 -3.45085e+12 -1.80839e+12 -1.7363e+12 -3.35697e+12 -3.24355e+12 -3.3396e+12 -3.23519e+12 -3.20347e+12 -3.14758e+12 -3.17561e+12 -3.09218e+12 -3.11797e+12 -2.99496e+12 -3.04786e+12 -2.91756e+12 -2.72386e+12 -2.604e+12 -2.25129e+12 -3.24137e+12 -1.93597e+12 -2.90037e+12 -1.54714e+12 -2.57586e+12 -1.55604e+12 -1.58126e+12 -2.73165e+12 -1.22957e+12 -1.10414e+12 -1.35589e+12 -1.35718e+12 -1.35475e+12 -1.30227e+12 -1.31471e+12 -1.28201e+12 -1.31471e+12 -1.30227e+12 -1.35475e+12 -1.35718e+12 -1.35589e+12 -1.10414e+12 -1.22956e+12 -2.73165e+12 -1.58125e+12 -1.55604e+12 -2.57585e+12 -1.54714e+12 -2.90037e+12 -1.93597e+12 -3.24137e+12 -2.25129e+12 -2.604e+12 -2.72386e+12 -2.91756e+12 -3.04786e+12 -2.99496e+12 -3.11797e+12 -3.09218e+12 -3.17561e+12 -3.14758e+12 -3.20347e+12 -3.23519e+12 -3.3396e+12 -3.24355e+12 -3.35697e+12 -1.7363e+12 -1.64998e+12 -3.13722e+12 -3.25592e+12 -3.14566e+12 -3.13705e+12 -3.11691e+12 -3.03461e+12 -3.01768e+12 -2.9762e+12 -2.96348e+12 -2.76379e+12 -2.47713e+12 -2.46953e+12 -1.16728e+12 -2.87896e+12 -1.81375e+12 -1.47051e+12 -1.30351e+12 -1.18545e+12 -1.7843e+12 -1.7318e+12 -1.88298e+12 -1.34453e+12 -1.2902e+12 -1.25539e+12 -1.25539e+12 -1.2902e+12 -1.34453e+12 -1.88298e+12 -1.7318e+12 -1.7843e+12 -1.18545e+12 -1.30351e+12 -1.4705e+12 -1.81375e+12 -2.87896e+12 -1.16728e+12 -2.46953e+12 -2.47713e+12 -2.76379e+12 -2.96348e+12 -2.9762e+12 -3.01768e+12 -3.03461e+12 -3.11691e+12 -3.13705e+12 -3.14566e+12 -3.25592e+12 -3.13722e+12 -1.64998e+12 -1.46744e+12 -1.55688e+12 -2.99516e+12 -3.0427e+12 -3.03184e+12 -2.92979e+12 -3.04821e+12 -2.9114e+12 -3.05012e+12 -2.81535e+12 -2.96401e+12 -2.80978e+12 -2.82489e+12 -2.95873e+12 -2.82827e+12 -2.69796e+12 -2.6281e+12 -2.23614e+12 -2.3404e+12 -1.65737e+12 -2.83635e+12 -2.59774e+12 -907603000000.0 -2.5588e+12 -1.09331e+12 -586462000000.0 -1.44618e+12 -1.30105e+12 -1.677e+12 -1.29541e+12 -1.23099e+12 -1.21668e+12 -1.23099e+12 -1.2954e+12 -1.67699e+12 -1.30105e+12 -1.44618e+12 -586462000000.0 -1.09331e+12 -2.5588e+12 -907603000000.0 -2.59774e+12 -2.83635e+12 -1.65737e+12 -2.3404e+12 -2.23614e+12 -2.6281e+12 -2.69796e+12 -2.82827e+12 -2.95873e+12 -2.82489e+12 -2.80978e+12 -2.96401e+12 -2.81535e+12 -3.05012e+12 -2.9114e+12 -3.04821e+12 -2.92979e+12 -3.03184e+12 -3.0427e+12 -2.99516e+12 -1.55688e+12 -1.46744e+12 -1.38023e+12 -2.82942e+12 -2.92215e+12 -2.83987e+12 -2.93041e+12 -2.80799e+12 -2.87018e+12 -2.84539e+12 -3.01487e+12 -2.94275e+12 -2.79574e+12 -2.50807e+12 -2.80802e+12 -2.68601e+12 -2.52305e+12 -729924000000.0 -2.00995e+12 -1.01072e+12 -1.51176e+12 -1.25843e+12 -1.32233e+12 -960782000000.0 -386256000000.0 -1.11497e+12 -959882000000.0 -1.49945e+12 -1.35523e+12 -1.22628e+12 -1.19949e+12 -1.15188e+12 -1.18243e+12 -1.13713e+12 -1.18243e+12 -1.15188e+12 -1.19949e+12 -1.22628e+12 -1.35523e+12 -1.49945e+12 -959879000000.0 -1.11496e+12 -386255000000.0 -960783000000.0 -1.32233e+12 -1.25843e+12 -1.51176e+12 -1.01072e+12 -2.00995e+12 -729924000000.0 -2.52305e+12 -2.68601e+12 -2.80802e+12 -2.50807e+12 -2.79574e+12 -2.94275e+12 -3.01487e+12 -2.84539e+12 -2.87018e+12 -2.80799e+12 -2.93041e+12 -2.83987e+12 -2.92215e+12 -2.82942e+12 -1.38023e+12 -1.28396e+12 -2.63505e+12 -2.61365e+12 -2.77752e+12 -2.73044e+12 -2.7133e+12 -2.69304e+12 -2.66473e+12 -2.64707e+12 -2.67345e+12 -3.16123e+12 -2.64807e+12 -2.05402e+12 -3.40772e+12 -1.80893e+12 -1.18164e+12 -1.27884e+12 -1.07797e+12 -771776000000.0 -655862000000.0 -375484000000.0 -1.35278e+12 -1.08414e+12 -1.00062e+12 -1.10415e+12 -1.09593e+12 -1.09594e+12 -1.10416e+12 -1.00061e+12 -1.08414e+12 -1.35278e+12 -375484000000.0 -655862000000.0 -771776000000.0 -1.07797e+12 -1.27884e+12 -1.18164e+12 -1.80893e+12 -3.40772e+12 -2.05402e+12 -2.64807e+12 -3.16123e+12 -2.67345e+12 -2.64707e+12 -2.66473e+12 -2.69304e+12 -2.7133e+12 -2.73044e+12 -2.77752e+12 -2.61365e+12 -2.63505e+12 -1.28396e+12 -1.07907e+12 -1.95957e+12 -2.38976e+12 -2.42488e+12 -2.60193e+12 -2.65389e+12 -2.46555e+12 -2.57119e+12 -2.44599e+12 -2.02332e+12 -3.42692e+12 -2.30636e+12 -2.95682e+12 -2.376e+12 -4.01333e+12 -2.42851e+12 -2.67961e+12 -2.28285e+12 -1.4527e+12 -1.29434e+12 -1.43867e+12 -1.15929e+12 -1.12802e+12 -1.41611e+12 -1.56152e+12 -1.48237e+12 -1.05418e+12 -728049000000.0 -1.22414e+12 -1.21862e+12 -1.05677e+12 -1.05118e+12 -1.05678e+12 -1.21862e+12 -1.22414e+12 -728046000000.0 -1.05418e+12 -1.48237e+12 -1.56152e+12 -1.41611e+12 -1.12802e+12 -1.15929e+12 -1.43867e+12 -1.29434e+12 -1.4527e+12 -2.28285e+12 -2.67961e+12 -2.42851e+12 -4.01333e+12 -2.376e+12 -2.95682e+12 -2.30636e+12 -3.42692e+12 -2.02332e+12 -2.44599e+12 -2.57119e+12 -2.46555e+12 -2.65389e+12 -2.60193e+12 -2.42488e+12 -2.38976e+12 -1.95957e+12 -1.07907e+12 -1.12962e+12 -1.71906e+12 -2.07153e+12 -2.47482e+12 -2.53708e+12 -2.57671e+12 -2.46081e+12 -2.26568e+12 -2.6701e+12 -2.02875e+12 -3.82001e+12 -1.62727e+12 -2.45207e+12 -2.40306e+12 -2.13919e+12 -810513000000.0 -2.82405e+12 -1.21302e+12 -1.17027e+12 -1.17681e+12 -1.23116e+12 -1.14336e+12 -981465000000.0 -757256000000.0 -669119000000.0 -1.11611e+12 -650593000000.0 -1.1912e+12 -873971000000.0 -1.0043e+12 -1.00825e+12 -952964000000.0 -1.00826e+12 -1.00434e+12 -873981000000.0 -1.19121e+12 -650584000000.0 -1.11611e+12 -669115000000.0 -757256000000.0 -981464000000.0 -1.14336e+12 -1.23116e+12 -1.17681e+12 -1.17027e+12 -1.21302e+12 -2.82405e+12 -810512000000.0 -2.13919e+12 -2.40306e+12 -2.45207e+12 -1.62727e+12 -3.82001e+12 -2.02875e+12 -2.6701e+12 -2.26568e+12 -2.46081e+12 -2.57671e+12 -2.53708e+12 -2.47482e+12 -2.07153e+12 -1.71906e+12 -1.12962e+12 -950438000000.0 -1.75264e+12 -1.86969e+12 -2.19847e+12 -2.33837e+12 -2.61673e+12 -1.96993e+12 -2.14396e+12 -2.91315e+12 -582703000000.0 -2.01743e+12 -2.39159e+12 -2.02168e+12 -2.3861e+12 -3.93919e+12 -2.03336e+12 -2.0436e+12 -1.89888e+12 -1.31351e+12 -1.8352e+12 -1.06427e+12 -1.09134e+12 -1.11765e+12 -1.04527e+12 -1.0316e+12 -1.01826e+12 -1.07657e+12 -1.29307e+12 -477187000000.0 -506122000000.0 -902369000000.0 -902391000000.0 -506183000000.0 -477180000000.0 -1.29307e+12 -1.07657e+12 -1.01826e+12 -1.0316e+12 -1.04527e+12 -1.11765e+12 -1.09134e+12 -1.06426e+12 -1.8352e+12 -1.31351e+12 -1.89888e+12 -2.0436e+12 -2.03336e+12 -3.9392e+12 -2.3861e+12 -2.02168e+12 -2.39159e+12 -2.01743e+12 -582703000000.0 -2.91315e+12 -2.14396e+12 -1.96993e+12 -2.61673e+12 -2.33837e+12 -2.19847e+12 -1.86969e+12 -1.75264e+12 -950438000000.0 -351184000000.0 -668085000000.0 -1.35117e+12 -1.43279e+12 -1.58079e+12 -1.82638e+12 -1.76044e+12 -2.52484e+12 -2.77175e+12 -2.65771e+12 -2.54534e+12 -1.55894e+12 -1.13648e+12 -2.38987e+12 -2.08098e+12 -2.01367e+12 -2.10581e+12 -2.02191e+12 -2.79966e+12 -2.62553e+12 -1.59888e+12 -1.50127e+12 -1.41201e+12 -1.52704e+12 -1.0183e+12 -1.05575e+12 -888490000000.0 -850601000000.0 -753568000000.0 -578216000000.0 -654192000000.0 -935280000000.0 -598237000000.0 -760494000000.0 -964130000000.0 -891608000000.0 -804529000000.0 -891650000000.0 -964128000000.0 -760497000000.0 -598237000000.0 -935278000000.0 -654191000000.0 -578215000000.0 -753568000000.0 -850601000000.0 -888490000000.0 -1.05575e+12 -1.0183e+12 -1.52704e+12 -1.41201e+12 -1.50127e+12 -1.59888e+12 -2.62553e+12 -2.79966e+12 -2.02191e+12 -2.10581e+12 -2.01367e+12 -2.08098e+12 -2.38987e+12 -1.13648e+12 -1.55894e+12 -2.54534e+12 -2.65771e+12 -2.77175e+12 -2.52484e+12 -1.76044e+12 -1.82638e+12 -1.58079e+12 -1.43279e+12 -1.35117e+12 -668085000000.0 -351184000000.0 -835097000000.0 -1.37759e+12 -1.12438e+12 -1.58877e+12 -1.70044e+12 -1.64519e+12 -2.93108e+12 -2.60481e+12 -2.25922e+12 -2.27754e+12 -2.1734e+12 -2.01314e+12 -1.85185e+12 -1.25635e+12 -1.25618e+12 -1.32926e+12 -960233000000.0 -1.11187e+12 -857450000000.0 -39037600000.0 -203958000000.0 -742182000000.0 -288438000000.0 -538509000000.0 -649714000000.0 -397253000000.0 -628260000000.0 -696428000000.0 -663461000000.0 -696505000000.0 -628257000000.0 -397255000000.0 -649710000000.0 -538510000000.0 -288439000000.0 -742182000000.0 -203956000000.0 -39037700000.0 -857451000000.0 -1.11187e+12 -960232000000.0 -1.32926e+12 -1.25618e+12 -1.25635e+12 -1.85185e+12 -2.01314e+12 -2.1734e+12 -2.27754e+12 -2.25922e+12 -2.60481e+12 -2.93108e+12 -1.64519e+12 -1.70044e+12 -1.58877e+12 -1.12438e+12 -1.37759e+12 -835098000000.0 -154665000000.0 -931698000000.0 -920553000000.0 -1.28443e+12 -1.56055e+12 -1.55898e+12 -1.58986e+12 -1.78352e+12 -1.8007e+12 -2.57258e+12 -1.16377e+12 -1.87682e+12 -1.74319e+12 -1.76818e+12 -1.83126e+12 -1.85997e+12 -1.83316e+12 -1.73633e+12 -1.63258e+12 -1.40537e+12 -1.26969e+12 -1.07268e+12 -1.15333e+12 -908827000000.0 -975415000000.0 -365369000000.0 -356951000000.0 -386394000000.0 -172250000000.0 -499656000000.0 -499592000000.0 -172253000000.0 -386384000000.0 -356951000000.0 -365369000000.0 -975414000000.0 -908827000000.0 -1.15333e+12 -1.07268e+12 -1.26969e+12 -1.40537e+12 -1.63258e+12 -1.73633e+12 -1.83316e+12 -1.85997e+12 -1.83126e+12 -1.76818e+12 -1.74319e+12 -1.87682e+12 -1.16377e+12 -2.57258e+12 -1.8007e+12 -1.78352e+12 -1.58986e+12 -1.55898e+12 -1.56055e+12 -1.28443e+12 -920553000000.0 -931698000000.0 -154665000000.0 -384723000000.0 -476566000000.0 -927770000000.0 -1.30441e+12 -1.25206e+12 -1.65097e+12 -1.95448e+12 -2.29624e+12 -1.52357e+12 -1.57859e+12 -1.52879e+12 -1.5476e+12 -1.56931e+12 -1.52542e+12 -1.46748e+12 -1.37999e+12 -1.18292e+12 -976998000000.0 -946763000000.0 -996182000000.0 -874620000000.0 -602813000000.0 -788942000000.0 -1.08927e+12 -844869000000.0 -1.0882e+12 -895258000000.0 -605227000000.0 -406235000000.0 -695324000000.0 -488791000000.0 -651341000000.0 -588469000000.0 -639693000000.0 -588444000000.0 -651331000000.0 -488785000000.0 -695318000000.0 -406230000000.0 -605225000000.0 -895258000000.0 -1.0882e+12 -844869000000.0 -1.08927e+12 -788942000000.0 -602813000000.0 -874620000000.0 -996182000000.0 -946764000000.0 -976998000000.0 -1.18292e+12 -1.37999e+12 -1.46748e+12 -1.52542e+12 -1.56931e+12 -1.5476e+12 -1.52879e+12 -1.57859e+12 -1.52357e+12 -2.29624e+12 -1.95448e+12 -1.65097e+12 -1.25206e+12 -1.30441e+12 -927770000000.0 -476566000000.0 -384723000000.0 -124583000000.0 -417007000000.0 -807500000000.0 -1.04457e+12 -1.01015e+12 -1.27835e+12 -1.52728e+12 -2.45578e+12 -878032000000.0 -2.62351e+12 -1.19554e+12 -1.17121e+12 -1.25249e+12 -1.26309e+12 -1.11936e+12 -1.08932e+12 -1.08366e+12 -1.02902e+12 -975775000000.0 -923612000000.0 -767426000000.0 -699650000000.0 -459450000000.0 -430402000000.0 -480911000000.0 -607719000000.0 -230106000000.0 -411598000000.0 -446207000000.0 -344324000000.0 -545468000000.0 -338660000000.0 -536360000000.0 -338646000000.0 -545444000000.0 -344322000000.0 -446210000000.0 -411604000000.0 -230103000000.0 -607720000000.0 -480907000000.0 -430402000000.0 -459450000000.0 -699650000000.0 -767426000000.0 -923612000000.0 -975775000000.0 -1.02902e+12 -1.08366e+12 -1.08932e+12 -1.11936e+12 -1.26309e+12 -1.25249e+12 -1.17121e+12 -1.19554e+12 -2.62351e+12 -878031000000.0 -2.45578e+12 -1.52728e+12 -1.27835e+12 -1.01015e+12 -1.04457e+12 -807500000000.0 -417007000000.0 -124583000000.0 -159202000000.0 -832969000000.0 -797833000000.0 -849114000000.0 -1.87866e+12 -2.89689e+12 -1.5322e+12 -2.20824e+12 -737118000000.0 -905902000000.0 -942971000000.0 -1.27943e+12 -1.26233e+12 -1.21831e+12 -1.1792e+12 -680069000000.0 -669632000000.0 -692018000000.0 -701724000000.0 -282205000000.0 -103912000000.0 -83353800000.0 -418853000000.0 -405320000000.0 -382755000000.0 -382757000000.0 -405311000000.0 -418855000000.0 -83353200000.0 -103912000000.0 -282205000000.0 -701724000000.0 -692018000000.0 -669632000000.0 -680069000000.0 -1.1792e+12 -1.21831e+12 -1.26233e+12 -1.27943e+12 -942971000000.0 -905901000000.0 -737118000000.0 -2.20824e+12 -1.5322e+12 -2.89689e+12 -1.87866e+12 -849114000000.0 -797833000000.0 -832969000000.0 -159202000000.0 -26094400000.0 -545236000000.0 -796450000000.0 -403208000000.0 -1.30612e+12 -1.44854e+12 -1.67555e+12 -1.00794e+12 -1.81033e+12 -603775000000.0 -977749000000.0 -1.02259e+12 -958222000000.0 -942727000000.0 -932690000000.0 -890700000000.0 -756957000000.0 -866024000000.0 -839101000000.0 -892897000000.0 -735147000000.0 -842186000000.0 -780760000000.0 -680632000000.0 -647905000000.0 -541163000000.0 -464379000000.0 -434734000000.0 -420262000000.0 -521858000000.0 -526971000000.0 -701824000000.0 -526969000000.0 -521859000000.0 -420260000000.0 -434736000000.0 -464379000000.0 -541162000000.0 -647905000000.0 -680632000000.0 -780760000000.0 -842187000000.0 -735147000000.0 -892897000000.0 -839101000000.0 -866024000000.0 -756957000000.0 -890700000000.0 -932690000000.0 -942727000000.0 -958222000000.0 -1.02259e+12 -977749000000.0 -603775000000.0 -1.81033e+12 -1.00794e+12 -1.67555e+12 -1.44854e+12 -1.30612e+12 -403208000000.0 -796450000000.0 -545236000000.0 -26094400000.0 -367017000000.0 -631402000000.0 -491291000000.0 -652678000000.0 -522631000000.0 -1.49142e+12 -1.52215e+12 -1.40196e+12 -662297000000.0 -668303000000.0 -804990000000.0 -883346000000.0 -779726000000.0 -762148000000.0 -760536000000.0 -751486000000.0 -853412000000.0 -914770000000.0 -907411000000.0 -475689000000.0 -314001000000.0 -370345000000.0 -461262000000.0 -333510000000.0 -468814000000.0 -268663000000.0 -357693000000.0 -306667000000.0 -475900000000.0 -259376000000.0 -374751000000.0 -203506000000.0 -552504000000.0 -203485000000.0 -374754000000.0 -259380000000.0 -475904000000.0 -306670000000.0 -357694000000.0 -268665000000.0 -468815000000.0 -333511000000.0 -461261000000.0 -370345000000.0 -314001000000.0 -475689000000.0 -907411000000.0 -914770000000.0 -853412000000.0 -751486000000.0 -760536000000.0 -762148000000.0 -779726000000.0 -883347000000.0 -804990000000.0 -668303000000.0 -662297000000.0 -1.40196e+12 -1.52215e+12 -1.49142e+12 -522632000000.0 -652678000000.0 -491291000000.0 -631402000000.0 -367017000000.0 -61291600000.0 -486610000000.0 -607905000000.0 -188315000000.0 -1.05562e+12 -1.25587e+12 -1.59563e+12 -485469000000.0 -437876000000.0 -649307000000.0 -590027000000.0 -572853000000.0 -600024000000.0 -592355000000.0 -527355000000.0 -603891000000.0 -582404000000.0 -294566000000.0 -393232000000.0 -24880800000.0 -33573700000.0 -239871000000.0 -239853000000.0 -33573700000.0 -24880800000.0 -393232000000.0 -294566000000.0 -582404000000.0 -603891000000.0 -527355000000.0 -592355000000.0 -600024000000.0 -572853000000.0 -590027000000.0 -649307000000.0 -437876000000.0 -485469000000.0 -1.59563e+12 -1.25587e+12 -1.05562e+12 -188315000000.0 -607905000000.0 -486610000000.0 -61291600000.0 -219255000000.0 -434196000000.0 -622168000000.0 -31143500000.0 -1.17837e+12 -1.2467e+12 -1.35762e+12 -597107000000.0 -689457000000.0 -721077000000.0 -494291000000.0 -365242000000.0 -391217000000.0 -411477000000.0 -310858000000.0 -146281000000.0 -180555000000.0 -246916000000.0 -149917000000.0 -191367000000.0 -129812000000.0 -285799000000.0 -91583100000.0 -257462000000.0 -342722000000.0 -343266000000.0 -657215000000.0 -343269000000.0 -342725000000.0 -257462000000.0 -91583000000.0 -285799000000.0 -129812000000.0 -191367000000.0 -149917000000.0 -246917000000.0 -180555000000.0 -146281000000.0 -310858000000.0 -411477000000.0 -391217000000.0 -365242000000.0 -494291000000.0 -721078000000.0 -689458000000.0 -597107000000.0 -1.35762e+12 -1.2467e+12 -1.17837e+12 -31143400000.0 -622167000000.0 -434196000000.0 -219255000000.0 -572387000000.0 -531501000000.0 -727913000000.0 -1.11298e+12 -925406000000.0 -1.03693e+12 -1.09289e+12 -378453000000.0 -457165000000.0 -529127000000.0 -603020000000.0 -560458000000.0 -513106000000.0 -414820000000.0 -474105000000.0 -322546000000.0 -289641000000.0 -9035750000.0 -19982700000.0 -105627000000.0 -122671000000.0 -89751200000.0 -111693000000.0 -199295000000.0 -120558000000.0 -183245000000.0 -69245100000.0 -271166000000.0 -87744800000.0 -302156000000.0 -54940600000.0 -517754000000.0 -54934200000.0 -302160000000.0 -87746700000.0 -271168000000.0 -69245400000.0 -183245000000.0 -120558000000.0 -199295000000.0 -111693000000.0 -89751200000.0 -122671000000.0 -105627000000.0 -19982700000.0 -9035750000.0 -289641000000.0 -322546000000.0 -474105000000.0 -414820000000.0 -513106000000.0 -560458000000.0 -603020000000.0 -529127000000.0 -457165000000.0 -378453000000.0 -1.09289e+12 -1.03693e+12 -925406000000.0 -1.11298e+12 -727913000000.0 -531501000000.0 -572387000000.0 -231079000000.0 -342404000000.0 -279256000000.0 -304158000000.0 -412921000000.0 -548529000000.0 -651620000000.0 -859836000000.0 -724587000000.0 -830116000000.0 -812731000000.0 -345101000000.0 -413409000000.0 -455413000000.0 -456207000000.0 -406652000000.0 -366319000000.0 -340261000000.0 -406073000000.0 -333497000000.0 -290601000000.0 -91761100000.0 -88385600000.0 -88382800000.0 -91763100000.0 -290601000000.0 -333497000000.0 -406073000000.0 -340261000000.0 -366319000000.0 -406652000000.0 -456208000000.0 -455413000000.0 -413409000000.0 -345101000000.0 -812731000000.0 -830116000000.0 -724587000000.0 -859836000000.0 -651620000000.0 -548529000000.0 -412921000000.0 -304157000000.0 -279256000000.0 -342404000000.0 -231079000000.0 -212184000000.0 -498840000000.0 -233526000000.0 -282793000000.0 -374452000000.0 -481554000000.0 -489448000000.0 -591643000000.0 -357573000000.0 -330088000000.0 -264291000000.0 -289732000000.0 -276951000000.0 -266141000000.0 -317235000000.0 -378125000000.0 -459336000000.0 -411200000000.0 -334740000000.0 -262145000000.0 -182334000000.0 -146420000000.0 -115257000000.0 -99617800000.0 -142097000000.0 -107209000000.0 -162526000000.0 -112960000000.0 -143221000000.0 -179339000000.0 -531484000000.0 -179339000000.0 -143223000000.0 -112961000000.0 -162526000000.0 -107209000000.0 -142097000000.0 -99617900000.0 -115257000000.0 -146420000000.0 -182334000000.0 -262145000000.0 -334740000000.0 -411200000000.0 -459336000000.0 -378125000000.0 -317235000000.0 -266141000000.0 -276951000000.0 -289732000000.0 -264291000000.0 -330089000000.0 -357573000000.0 -591643000000.0 -489448000000.0 -481554000000.0 -374452000000.0 -282793000000.0 -233526000000.0 -498839000000.0 -212184000000.0 -145223000000.0 -290641000000.0 -144324000000.0 -288769000000.0 -627914000000.0 -643383000000.0 -570637000000.0 -351387000000.0 -365910000000.0 -176560000000.0 -193669000000.0 -214301000000.0 -66358700000.0 -253392000000.0 -54928800000.0 -131163000000.0 -65286100000.0 -120644000000.0 -82831600000.0 -58971600000.0 -89753700000.0 -20078500000.0 -77073300000.0 -20126900000.0 -91202300000.0 -23374700000.0 -145365000000.0 -19105800000.0 -439729000000.0 -19105800000.0 -145365000000.0 -23374800000.0 -91203600000.0 -20127000000.0 -77073500000.0 -20078500000.0 -89753900000.0 -58971600000.0 -82831600000.0 -120644000000.0 -65286100000.0 -131163000000.0 -54928800000.0 -253392000000.0 -66358700000.0 -214301000000.0 -193669000000.0 -176560000000.0 -365910000000.0 -351387000000.0 -570637000000.0 -643382000000.0 -627913000000.0 -288769000000.0 -144324000000.0 -290641000000.0 -145223000000.0 -104331000000.0 -330414000000.0 -318880000000.0 -305106000000.0 -412549000000.0 -517963000000.0 -477259000000.0 -414056000000.0 -326825000000.0 -297791000000.0 -265129000000.0 -216067000000.0 -172154000000.0 -230698000000.0 -230698000000.0 -172154000000.0 -216067000000.0 -265129000000.0 -297791000000.0 -326825000000.0 -414056000000.0 -477259000000.0 -517963000000.0 -412549000000.0 -305106000000.0 -318880000000.0 -330414000000.0 -104331000000.0 -145428000000.0 -101059000000.0 -208547000000.0 -274693000000.0 -264897000000.0 -204546000000.0 -200021000000.0 -159885000000.0 -274421000000.0 -364172000000.0 -367011000000.0 -317183000000.0 -256216000000.0 -219913000000.0 -185417000000.0 -123485000000.0 -150563000000.0 -227144000000.0 -189599000000.0 -221627000000.0 -289196000000.0 -215151000000.0 -281147000000.0 -227435000000.0 -218574000000.0 -188813000000.0 -173929000000.0 -165897000000.0 -128272000000.0 -174339000000.0 -115201000000.0 -160988000000.0 -103845000000.0 -165054000000.0 -98286000000.0 -229232000000.0 -117289000000.0 -506423000000.0 -117289000000.0 -229232000000.0 -98285900000.0 -165055000000.0 -103844000000.0 -160988000000.0 -115201000000.0 -174339000000.0 -128272000000.0 -165897000000.0 -173929000000.0 -188813000000.0 -218574000000.0 -227435000000.0 -281147000000.0 -215151000000.0 -289196000000.0 -221627000000.0 -189599000000.0 -227144000000.0 -150563000000.0 -123485000000.0 -185417000000.0 -219913000000.0 -256216000000.0 -317183000000.0 -367011000000.0 -364172000000.0 -274421000000.0 -159885000000.0 -200021000000.0 -204546000000.0 -264897000000.0 -274693000000.0 -208547000000.0 -101059000000.0 -145428000000.0 -76748300000.0 -67466800000.0 -125252000000.0 -187294000000.0 -199771000000.0 -177025000000.0 -175334000000.0 -88971000000.0 -34250800000.0 -95168100000.0 -272990000000.0 -222794000000.0 -161983000000.0 -150286000000.0 -140187000000.0 -141013000000.0 -133458000000.0 -164667000000.0 -34967300000.0 -46843100000.0 -13508400000.0 -14741800000.0 -42248500000.0 -13894000000.0 -44170700000.0 -13251900000.0 -48240600000.0 -13662700000.0 -74721900000.0 -12500000000.0 -72789600000.0 -11651900000.0 -83164000000.0 -13141500000.0 -150898000000.0 -9099930000.0 -387802000000.0 -9099930000.0 -150898000000.0 -13141500000.0 -83164500000.0 -11651900000.0 -72789600000.0 -12500000000.0 -74721900000.0 -13662700000.0 -48240600000.0 -13251900000.0 -44170700000.0 -13894000000.0 -42248500000.0 -14741800000.0 -13508400000.0 -46843100000.0 -34967300000.0 -164667000000.0 -133458000000.0 -141013000000.0 -140187000000.0 -150286000000.0 -161983000000.0 -222794000000.0 -272990000000.0 -95168100000.0 -34250800000.0 -88971000000.0 -175334000000.0 -177025000000.0 -199771000000.0 -187294000000.0 -125252000000.0 -67466800000.0 -76748300000.0 -323849000000.0 -323849000000.0 -44678500000.0 -14723000000.0 -10904600000.0 -52852300000.0 -63977200000.0 -51796900000.0 -93152700000.0 -67425800000.0 -35998700000.0 -17959000000.0 -294864000000.0 -339816000000.0 -351718000000.0 -327677000000.0 -329854000000.0 -318918000000.0 -317528000000.0 -321308000000.0 -357125000000.0 -262975000000.0 -234130000000.0 -204129000000.0 -170019000000.0 -174006000000.0 -125710000000.0 -139840000000.0 -90932000000.0 -112826000000.0 -62827800000.0 -111359000000.0 -43394300000.0 -94320100000.0 -27123200000.0 -90296900000.0 -13370200000.0 -144700000000.0 -10759300000.0 -345841000000.0 -10759300000.0 -144700000000.0 -13370200000.0 -90297100000.0 -27123200000.0 -94320100000.0 -43394300000.0 -111359000000.0 -62827800000.0 -112826000000.0 -90932000000.0 -139840000000.0 -125710000000.0 -174006000000.0 -170019000000.0 -204129000000.0 -234130000000.0 -262975000000.0 -357125000000.0 -321308000000.0 -317528000000.0 -318918000000.0 -329854000000.0 -327677000000.0 -351718000000.0 -339816000000.0 -294864000000.0 -17959000000.0 -35998700000.0 -67425800000.0 -93152700000.0 -51796900000.0 -63977200000.0 -52852400000.0 -10904600000.0 -14723000000.0 -44678500000.0 -40868100000.0 -32923400000.0 -50281900000.0 -102806000000.0 -125931000000.0 -125298000000.0 -148283000000.0 -123367000000.0 -118767000000.0 -135139000000.0 -298574000000.0 -189118000000.0 -115949000000.0 -64323300000.0 -63154800000.0 -56507500000.0 -61416900000.0 -66393900000.0 -84244400000.0 -24821700000.0 -9891770000.0 -29678900000.0 -10062300000.0 -45371400000.0 -9859320000.0 -50209400000.0 -9555820000.0 -51418700000.0 -9600290000.0 -69547700000.0 -9467690000.0 -69671900000.0 -9354820000.0 -80316200000.0 -9627480000.0 -138043000000.0 -9035750000.0 -307610000000.0 -9035750000.0 -138043000000.0 -9627480000.0 -80316300000.0 -9354820000.0 -69671900000.0 -9467690000.0 -69547700000.0 -9600290000.0 -51418700000.0 -9555820000.0 -50209400000.0 -9859320000.0 -45371400000.0 -10062300000.0 -29678900000.0 -9891770000.0 -24821800000.0 -84244400000.0 -66393900000.0 -61416900000.0 -56507500000.0 -63154800000.0 -64323300000.0 -115949000000.0 -189118000000.0 -298574000000.0 -135139000000.0 -118767000000.0 -123367000000.0 -148283000000.0 -125298000000.0 -125931000000.0 -102806000000.0 -50281900000.0 -32923400000.0 -40868100000.0 -29819400000.0 -10402900000.0 -9885450000.0 -43482900000.0 -59847600000.0 -54168700000.0 -67838700000.0 -44409400000.0 -25761300000.0 -15358200000.0 -193242000000.0 -161185000000.0 -137165000000.0 -106015000000.0 -103478000000.0 -95549800000.0 -98562000000.0 -96816000000.0 -100710000000.0 -53346100000.0 -31325500000.0 -49589700000.0 -22888300000.0 -53798400000.0 -16302100000.0 -53922900000.0 -10520900000.0 -50955700000.0 -9035750000.0 -66898400000.0 -9035750000.0 -68169700000.0 -9035750000.0 -80094400000.0 -9035750000.0 -130267000000.0 -9035750000.0 -273006000000.0 -9035750000.0 -130267000000.0 -9035750000.0 -80094400000.0 -9035750000.0 -68169700000.0 -9035750000.0 -66898400000.0 -9035750000.0 -50955700000.0 -10520900000.0 -53922900000.0 -16302100000.0 -53798400000.0 -22888300000.0 -49589700000.0 -31325500000.0 -53346100000.0 -100710000000.0 -96815900000.0 -98562000000.0 -95549800000.0 -103478000000.0 -106015000000.0 -137165000000.0 -161185000000.0 -193242000000.0 -15358200000.0 -25761300000.0 -44409400000.0 -67838700000.0 -54168700000.0 -59847600000.0 -43483000000.0 -9885450000.0 -10402900000.0 -29819400000.0 -27404400000.0 -12773200000.0 -13968100000.0 -44122500000.0 -63804500000.0 -62409000000.0 -72619200000.0 -53992200000.0 -42055600000.0 -34727000000.0 -180093000000.0 -135895000000.0 -105930000000.0 -75664700000.0 -71624400000.0 -63637800000.0 -66524600000.0 -61860300000.0 -59716100000.0 -27272200000.0 -9236060000.0 -34572900000.0 -9035750000.0 -42578000000.0 -9035750000.0 -49786700000.0 -9035750000.0 -50924400000.0 -9035750000.0 -65205700000.0 -9035750000.0 -67127500000.0 -9035750000.0 -79573000000.0 -9035750000.0 -122172000000.0 -9035750000.0 -241784000000.0 -9035750000.0 -122172000000.0 -9035750000.0 -79573000000.0 -9035750000.0 -67127500000.0 -9035750000.0 -65205700000.0 -9035750000.0 -50924400000.0 -9035750000.0 -49786700000.0 -9035750000.0 -42578000000.0 -9035750000.0 -34572900000.0 -9236060000.0 -27272200000.0 -59716100000.0 -61860300000.0 -66524600000.0 -63637800000.0 -71624400000.0 -75664700000.0 -105930000000.0 -135895000000.0 -180093000000.0 -34727000000.0 -42055600000.0 -53992200000.0 -72619200000.0 -62409000000.0 -63804500000.0 -44122500000.0 -13968100000.0 -12773200000.0 -27404400000.0 -25242500000.0 -12046400000.0 -12124400000.0 -35989400000.0 -55717400000.0 -56664400000.0 -65378700000.0 -50548200000.0 -40054500000.0 -32917400000.0 -160632000000.0 -128993000000.0 -106845000000.0 -81984000000.0 -77153900000.0 -67983000000.0 -68715300000.0 -60076400000.0 -52488900000.0 -27984000000.0 -9895130000.0 -35841600000.0 -9035750000.0 -41197800000.0 -9035750000.0 -49491100000.0 -9035750000.0 -50690100000.0 -9035750000.0 -63643700000.0 -9035750000.0 -66049900000.0 -9035750000.0 -78279000000.0 -9035750000.0 -113768000000.0 -9035750000.0 -213687000000.0 -9035750000.0 -113768000000.0 -9035750000.0 -78279000000.0 -9035750000.0 -66049900000.0 -9035750000.0 -63643700000.0 -9035750000.0 -50690100000.0 -9035750000.0 -49491100000.0 -9035750000.0 -41197800000.0 -9035750000.0 -35841600000.0 -9895130000.0 -27984000000.0 -52488900000.0 -60076400000.0 -68715300000.0 -67983000000.0 -77153900000.0 -81984000000.0 -106845000000.0 -128993000000.0 -160632000000.0 -32917400000.0 -40054500000.0 -50548200000.0 -65378700000.0 -56664400000.0 -55717400000.0 -35989400000.0 -12124400000.0 -12046400000.0 -25242500000.0 -24549200000.0 -12969800000.0 -13206900000.0 -32361700000.0 -52128200000.0 -55530900000.0 -64888800000.0 -54145100000.0 -44002200000.0 -26009900000.0 -9035750000.0 -35973000000.0 -9035760000.0 -39845500000.0 -9035750000.0 -49026500000.0 -9035750000.0 -50273700000.0 -9035750000.0 -61995000000.0 -9035750000.0 -64852400000.0 -9035750000.0 -76283800000.0 -9035750000.0 -105346000000.0 -9035750000.0 -188477000000.0 -9035750000.0 -105346000000.0 -9035750000.0 -76283800000.0 -9035750000.0 -64852400000.0 -9035750000.0 -61995000000.0 -9035750000.0 -50273700000.0 -9035750000.0 -49026500000.0 -9035750000.0 -39845500000.0 -9035760000.0 -35973000000.0 -9035750000.0 -26010000000.0 -44002200000.0 -54145100000.0 -64888800000.0 -55530900000.0 -52128200000.0 -32361700000.0 -13206900000.0 -12969800000.0 -24549200000.0 -64150400000.0 -53054500000.0 -44832300000.0 -40203300000.0 -147520000000.0 -121176000000.0 -102570000000.0 -81482100000.0 -76227000000.0 -66098100000.0 -66098100000.0 -76227000000.0 -81482100000.0 -102570000000.0 -121176000000.0 -147520000000.0 -40203300000.0 -44832300000.0 -53054500000.0 -64150400000.0 -24615100000.0 -13792500000.0 -14152800000.0 -29295800000.0 -47993500000.0 -53094700000.0 -61996200000.0 -53552900000.0 -47301800000.0 -45228400000.0 -134468000000.0 -113729000000.0 -98880800000.0 -81627300000.0 -76355500000.0 -65418700000.0 -62230600000.0 -50096200000.0 -38492100000.0 -24836900000.0 -9035760000.0 -36016400000.0 -9035760000.0 -38537400000.0 -9035760000.0 -48384400000.0 -9035750000.0 -49677700000.0 -9035760000.0 -60180700000.0 -9035750000.0 -63463500000.0 -9035760000.0 -73706800000.0 -9035750000.0 -97087900000.0 -9035750000.0 -165933000000.0 -9035750000.0 -97087900000.0 -9035750000.0 -73706800000.0 -9035760000.0 -63463500000.0 -9035750000.0 -60180700000.0 -9035760000.0 -49677800000.0 -9035750000.0 -48384400000.0 -9035760000.0 -38537400000.0 -9035760000.0 -36016400000.0 -9035760000.0 -24836900000.0 -38492100000.0 -50096200000.0 -62230600000.0 -65418700000.0 -76355500000.0 -81627300000.0 -98880800000.0 -113729000000.0 -134468000000.0 -45228400000.0 -47301800000.0 -53552900000.0 -61996200000.0 -53094700000.0 -47993500000.0 -29295800000.0 -14152800000.0 -13792500000.0 -24615100000.0 -9035760000.0 -9035760000.0 -9035760000.0 -9035760000.0 -9035760000.0 -9035750000.0 -9035760000.0 -9035750000.0 -9035750000.0 -9035750000.0 -9035750000.0 -9035760000.0 -9035750000.0 -9035760000.0 -9035760000.0 -9035760000.0 -9035760000.0 -9035760000.0 -25148800000.0 -14511700000.0 -14959200000.0 -26978100000.0 -44069700000.0 -50327300000.0 -59384300000.0 -52979800000.0 -48569400000.0 -49121600000.0 -122101000000.0 -105830000000.0 -94245900000.0 -80552800000.0 -75378200000.0 -63882200000.0 -59004800000.0 -46301900000.0 -34243900000.0 -23576000000.0 -35692100000.0 -37282400000.0 -47557800000.0 -48866000000.0 -58203300000.0 -61834100000.0 -70660100000.0 -89119800000.0 -145843000000.0 -89119800000.0 -70660100000.0 -61834100000.0 -58203400000.0 -48866000000.0 -47557800000.0 -37282400000.0 -35692100000.0 -23576000000.0 -34243900000.0 -46301900000.0 -59004800000.0 -63882200000.0 -75378200000.0 -80552800000.0 -94245900000.0 -105830000000.0 -122101000000.0 -49121600000.0 -48569400000.0 -52979800000.0 -59384300000.0 -50327300000.0 -44069700000.0 -26978100000.0 -14959200000.0 -14511700000.0 -25148800000.0 -25755600000.0 -15125900000.0 -15627500000.0 -25343100000.0 -40438700000.0 -47371500000.0 -56291500000.0 -51529400000.0 -48658200000.0 -51667700000.0 -110484000000.0 -97823400000.0 -89090300000.0 -78673300000.0 -73689800000.0 -61844000000.0 -55543400000.0 -42896000000.0 -30992200000.0 -22378400000.0 -9035760000.0 -35090200000.0 -9035760000.0 -36074800000.0 -9035760000.0 -46550500000.0 -9035760000.0 -47824100000.0 -9035760000.0 -56095400000.0 -9035750000.0 -59939500000.0 -9035760000.0 -67254900000.0 -9035750000.0 -81527600000.0 -9035750000.0 -128004000000.0 -9035750000.0 -81527600000.0 -9035750000.0 -67254900000.0 -9035760000.0 -59939500000.0 -9035750000.0 -56095400000.0 -9035760000.0 -47824100000.0 -9035760000.0 -46550500000.0 -9035760000.0 -36074800000.0 -9035760000.0 -35090200000.0 -9035760000.0 -22378400000.0 -30992200000.0 -42896000000.0 -55543400000.0 -61844000000.0 -73689800000.0 -78673300000.0 -89090300000.0 -97823400000.0 -110484000000.0 -51667700000.0 -48658200000.0 -51529400000.0 -56291500000.0 -47371500000.0 -40438700000.0 -25343100000.0 -15627500000.0 -15125900000.0 -25755600000.0 -26167100000.0 -15634700000.0 -16160800000.0 -24276000000.0 -37211300000.0 -44438500000.0 -52939000000.0 -49491000000.0 -47890900000.0 -53037900000.0 -99809800000.0 -90009600000.0 -83732700000.0 -76273100000.0 -71519800000.0 -59515800000.0 -52076500000.0 -39912900000.0 -28480100000.0 -21327000000.0 -9035760000.0 -34291600000.0 -9035760000.0 -34903200000.0 -9035760000.0 -45376800000.0 -9035760000.0 -46573200000.0 -9035760000.0 -53893800000.0 -9035760000.0 -57784700000.0 -9035760000.0 -63599200000.0 -9035750000.0 -74365000000.0 -9035750000.0 -112223000000.0 -9035750000.0 -74365000000.0 -9035750000.0 -63599200000.0 -9035760000.0 -57784700000.0 -9035760000.0 -53893800000.0 -9035760000.0 -46573200000.0 -9035760000.0 -45376800000.0 -9035760000.0 -34903200000.0 -9035760000.0 -34291600000.0 -9035760000.0 -21327000000.0 -28480100000.0 -39912900000.0 -52076500000.0 -59515800000.0 -71519800000.0 -76273100000.0 -83732700000.0 -90009600000.0 -99809800000.0 -53037900000.0 -47890900000.0 -49491000000.0 -52939000000.0 -44438500000.0 -37211300000.0 -24276000000.0 -16160800000.0 -15634700000.0 -26167100000.0 -26289900000.0 -16038900000.0 -16564800000.0 -23631300000.0 -34422500000.0 -41654400000.0 -49542200000.0 -47083700000.0 -46531600000.0 -53414100000.0 -90180100000.0 -82594400000.0 -78404700000.0 -73559800000.0 -69047400000.0 -57048400000.0 -48749000000.0 -37330700000.0 -26491700000.0 -20442400000.0 -9035760000.0 -33358800000.0 -9035760000.0 -33757500000.0 -9035760000.0 -44055500000.0 -9035760000.0 -45150300000.0 -9035760000.0 -51629900000.0 -9035760000.0 -55401700000.0 -9035760000.0 -59789900000.0 -9035750000.0 -67663000000.0 -9035750000.0 -98311800000.0 -9035750000.0 -67663000000.0 -9035750000.0 -59789900000.0 -9035760000.0 -55401700000.0 -9035760000.0 -51629900000.0 -9035760000.0 -45150300000.0 -9035760000.0 -44055500000.0 -9035760000.0 -33757500000.0 -9035760000.0 -33358800000.0 -9035760000.0 -20442400000.0 -26491700000.0 -37330700000.0 -48749000000.0 -57048400000.0 -69047400000.0 -73559800000.0 -78404700000.0 -82594400000.0 -90180100000.0 -53414100000.0 -46531600000.0 -47083700000.0 -49542200000.0 -41654400000.0 -34422500000.0 -23631300000.0 -16564800000.0 -16038900000.0 -26289900000.0 -26128400000.0 -16341700000.0 -16846700000.0 -23258000000.0 -32053800000.0 -39082200000.0 -46259600000.0 -44486700000.0 -44779400000.0 -52979300000.0 -81616300000.0 -75703100000.0 -73265700000.0 -70669800000.0 -66388800000.0 -54533400000.0 -45635400000.0 -35105400000.0 -24846500000.0 -19711400000.0 -9035760000.0 -32335900000.0 -9035760000.0 -32628900000.0 -9035760000.0 -42607200000.0 -9035760000.0 -43593100000.0 -9035760000.0 -49326800000.0 -9035760000.0 -52838300000.0 -9035760000.0 -55910600000.0 -9035750000.0 -61436000000.0 -9035750000.0 -86089600000.0 -9035750000.0 -61436000000.0 -9035750000.0 -55910500000.0 -9035760000.0 -52838300000.0 -9035760000.0 -49326800000.0 -9035760000.0 -43593100000.0 -9035760000.0 -42607200000.0 -9035760000.0 -32628900000.0 -9035760000.0 -32335900000.0 -9035760000.0 -19711400000.0 -24846500000.0 -35105400000.0 -45635400000.0 -54533400000.0 -66388800000.0 -70669800000.0 -73265700000.0 -75703100000.0 -81616300000.0 -52979300000.0 -44779400000.0 -44486700000.0 -46259600000.0 -39082200000.0 -32053800000.0 -23258000000.0 -16846700000.0 -16341700000.0 -26128400000.0 -25720800000.0 -16547200000.0 -17015000000.0 -23023600000.0 -30054800000.0 -36742100000.0 -43186000000.0 -41839000000.0 -42783400000.0 -51909600000.0 -74079000000.0 -69395800000.0 -68410000000.0 -67686900000.0 -63616200000.0 -52022800000.0 -42761300000.0 -33177200000.0 -23402900000.0 -19107700000.0 -9035760000.0 -31253200000.0 -9035760000.0 -31510000000.0 -9035760000.0 -41054200000.0 -9035760000.0 -41934100000.0 -9035760000.0 -47001200000.0 -9035760000.0 -50148000000.0 -9035760000.0 -52032600000.0 -9035750000.0 -55687100000.0 -9035750000.0 -75385600000.0 -9035750000.0 -55687100000.0 -9035750000.0 -52032600000.0 -9035760000.0 -50148000000.0 -9035760000.0 -47001200000.0 -9035760000.0 -41934100000.0 -9035760000.0 -41054200000.0 -9035760000.0 -31510000000.0 -9035760000.0 -31253200000.0 -9035760000.0 -19107700000.0 -23402900000.0 -33177200000.0 -42761300000.0 -52022800000.0 -63616200000.0 -67686900000.0 -68410000000.0 -69395800000.0 -74079000000.0 -51909600000.0 -42783400000.0 -41839000000.0 -43186000000.0 -36742100000.0 -30054800000.0 -23023600000.0 -17015000000.0 -16547200000.0 -25720800000.0 -25114500000.0 -16660300000.0 -17078000000.0 -22826300000.0 -28361000000.0 -34626300000.0 -40365200000.0 -39239500000.0 -40656200000.0 -50366000000.0 -67485000000.0 -63683200000.0 -63880000000.0 -64657300000.0 -60772700000.0 -49542500000.0 -40124000000.0 -31474700000.0 -22075300000.0 -18600800000.0 -9035760000.0 -30131800000.0 -9035760000.0 -30393900000.0 -9035760000.0 -39419300000.0 -9035760000.0 -40200300000.0 -9035760000.0 -44666400000.0 -9035760000.0 -47382200000.0 -9035760000.0 -48217300000.0 -9035750000.0 -50410200000.0 -9035750000.0 -66039300000.0 -9035750000.0 -50410200000.0 -9035750000.0 -48217300000.0 -9035760000.0 -47382200000.0 -9035760000.0 -44666400000.0 -9035760000.0 -40200300000.0 -9035760000.0 -39419300000.0 -9035760000.0 -30393900000.0 -9035760000.0 -30131800000.0 -9035760000.0 -18600800000.0 -22075300000.0 -31474700000.0 -40124000000.0 -49542500000.0 -60772700000.0 -64657400000.0 -63880000000.0 -63683200000.0 -67485000000.0 -50366000000.0 -40656200000.0 -39239500000.0 -40365200000.0 -34626300000.0 -28361000000.0 -22826300000.0 -17078000000.0 -16660300000.0 -25114500000.0 -24356600000.0 -16686500000.0 -17044600000.0 -22594900000.0 -26906100000.0 -32711100000.0 -37805200000.0 -36751800000.0 -38480900000.0 -48488100000.0 -61724200000.0 -58540800000.0 -59680200000.0 -61603400000.0 -57882400000.0 -47101100000.0 -37705500000.0 -29928300000.0 -20830400000.0 -18160100000.0 -9035760000.0 -28986300000.0 -9035760000.0 -29275200000.0 -9035760000.0 -37724800000.0 -9035760000.0 -38414400000.0 -9035760000.0 -42334400000.0 -9035760000.0 -44587300000.0 -9035760000.0 -44515700000.0 -9035750000.0 -45592100000.0 -9035750000.0 -57901200000.0 -9035750000.0 -45592100000.0 -9035750000.0 -44515700000.0 -9035760000.0 -44587300000.0 -9035760000.0 -42334400000.0 -9035760000.0 -38414400000.0 -9035760000.0 -37724800000.0 -9035760000.0 -29275200000.0 -9035760000.0 -28986300000.0 -9035760000.0 -18160100000.0 -20830400000.0 -29928300000.0 -37705500000.0 -47101100000.0 -57882400000.0 -61603400000.0 -59680200000.0 -58540800000.0 -61724200000.0 -48488100000.0 -38480900000.0 -36751800000.0 -37805200000.0 -32711100000.0 -26906100000.0 -22594900000.0 -17044600000.0 -16686500000.0 -24356600000.0 -23490900000.0 -16631500000.0 -16923800000.0 -22285800000.0 -25629300000.0 -30966100000.0 -35491800000.0 -34411900000.0 -36316900000.0 -46389500000.0 -56675400000.0 -53921500000.0 -55791100000.0 -58533000000.0 -54958700000.0 -44697000000.0 -35478100000.0 -28481500000.0 -19664900000.0 -17758000000.0 -9035770000.0 -27826700000.0 -9035760000.0 -28150000000.0 -9035760000.0 -35990700000.0 -9035760000.0 -36595100000.0 -9035760000.0 -40016600000.0 -9035760000.0 -41802900000.0 -9035760000.0 -40968500000.0 -9035750000.0 -41214300000.0 -9035750000.0 -50833900000.0 -9035750000.0 -41214300000.0 -9035750000.0 -40968500000.0 -9035760000.0 -41802900000.0 -9035760000.0 -40016600000.0 -9035760000.0 -36595100000.0 -9035760000.0 -35990700000.0 -9035760000.0 -28150000000.0 -9035760000.0 -27826700000.0 -9035770000.0 -17758000000.0 -19664900000.0 -28481500000.0 -35478100000.0 -44697000000.0 -54958700000.0 -58533000000.0 -55791100000.0 -53921500000.0 -56675400000.0 -46389500000.0 -36316900000.0 -34411900000.0 -35491800000.0 -30966100000.0 -25629300000.0 -22285800000.0 -16923800000.0 -16631500000.0 -23490900000.0 -22554800000.0 -16501000000.0 -16724600000.0 -21879600000.0 -24478200000.0 -29359700000.0 -33396900000.0 -32233900000.0 -34204100000.0 -44157900000.0 -52218300000.0 -49764900000.0 -52178300000.0 -55447400000.0 -52009700000.0 -42324200000.0 -33409700000.0 -27095400000.0 -18583400000.0 -17371100000.0 -9035770000.0 -26659800000.0 -9035760000.0 -27016000000.0 -9035760000.0 -34234100000.0 -9035760000.0 -34758800000.0 -9035760000.0 -37724400000.0 -9035760000.0 -39061800000.0 -9035760000.0 -37606100000.0 -9035750000.0 -37254600000.0 -9035750000.0 -44711200000.0 -9035750000.0 -37254600000.0 -9035750000.0 -37606100000.0 -9035760000.0 -39061800000.0 -9035760000.0 -37724400000.0 -9035760000.0 -34758800000.0 -9035760000.0 -34234100000.0 -9035760000.0 -27016000000.0 -9035760000.0 -26659800000.0 -9035770000.0 -17371100000.0 -18583400000.0 -27095400000.0 -33409700000.0 -42324200000.0 -52009700000.0 -55447400000.0 -52178300000.0 -49764900000.0 -52218300000.0 -44157900000.0 -34204100000.0 -32233900000.0 -33396900000.0 -29359700000.0 -24478200000.0 -21879600000.0 -16724600000.0 -16501000000.0 -22554800000.0 -21579800000.0 -16301200000.0 -16455900000.0 -21374400000.0 -23410200000.0 -27861600000.0 -31485700000.0 -30216700000.0 -32166800000.0 -41856600000.0 -48241400000.0 -46006100000.0 -48800900000.0 -52346900000.0 -49042900000.0 -39976000000.0 -31468500000.0 -25746400000.0 -17588400000.0 -16981800000.0 -9035770000.0 -25490200000.0 -9035760000.0 -25872300000.0 -9035760000.0 -32469100000.0 -9035760000.0 -32918800000.0 -9035760000.0 -35468200000.0 -9035760000.0 -36390000000.0 -9035760000.0 -34449300000.0 -9035750000.0 -33687700000.0 -9035750000.0 -39417900000.0 -9035750000.0 -33687700000.0 -9035750000.0 -34449300000.0 -9035760000.0 -36390000000.0 -9035760000.0 -35468200000.0 -9035760000.0 -32918800000.0 -9035760000.0 -32469100000.0 -9035760000.0 -25872300000.0 -9035760000.0 -25490200000.0 -9035770000.0 -16981800000.0 -17588400000.0 -25746400000.0 -31468500000.0 -39976000000.0 -49042900000.0 -52346900000.0 -48800900000.0 -46006100000.0 -48241400000.0 -41856600000.0 -32166800000.0 -30216700000.0 -31485700000.0 -27861600000.0 -23410200000.0 -21374400000.0 -16455900000.0 -16301200000.0 -21579800000.0 -20590600000.0 -16038100000.0 -16126600000.0 -20778300000.0 -22392100000.0 -26444900000.0 -29721300000.0 -28348400000.0 -30216800000.0 -39528700000.0 -44646400000.0 -42580500000.0 -45616500000.0 -49233100000.0 -46066500000.0 -37648100000.0 -29625900000.0 -24422500000.0 -16677700000.0 -16577400000.0 -9035770000.0 -24321000000.0 -9035760000.0 -24719400000.0 -9035760000.0 -30707000000.0 -9035760000.0 -31086300000.0 -9035760000.0 -33257600000.0 -9035760000.0 -33807700000.0 -9035760000.0 -31510200000.0 -9035750000.0 -30486500000.0 -9035750000.0 -34849600000.0 -9035750000.0 -30486500000.0 -9035750000.0 -31510200000.0 -9035760000.0 -33807700000.0 -9035760000.0 -33257600000.0 -9035760000.0 -31086300000.0 -9035760000.0 -30707000000.0 -9035760000.0 -24719400000.0 -9035760000.0 -24321000000.0 -9035770000.0 -16577400000.0 -16677700000.0 -24422500000.0 -29625900000.0 -37648100000.0 -46066500000.0 -49233100000.0 -45616500000.0 -42580500000.0 -44646400000.0 -39528700000.0 -30216800000.0 -28348400000.0 -29721300000.0 -26444900000.0 -22392100000.0 -20778300000.0 -16126600000.0 -16038100000.0 -20590600000.0 -19605700000.0 -15718000000.0 -15745100000.0 -20103600000.0 -21400100000.0 -25086700000.0 -28068100000.0 -26610800000.0 -28355900000.0 -37200700000.0 -41349600000.0 -39428000000.0 -42585000000.0 -46110200000.0 -43090200000.0 -35338700000.0 -27858700000.0 -23119700000.0 -15845400000.0 -16150400000.0 -9035770000.0 -23154200000.0 -9035760000.0 -23558500000.0 -9035760000.0 -28956300000.0 -9035760000.0 -29270300000.0 -9035760000.0 -31100500000.0 -9035760000.0 -31329200000.0 -9035760000.0 -28793200000.0 -9035750000.0 -27622600000.0 -9035750000.0 -30911800000.0 -9035750000.0 -27622600000.0 -9035750000.0 -28793200000.0 -9035760000.0 -31329200000.0 -9035760000.0 -31100500000.0 -9035760000.0 -29270300000.0 -9035760000.0 -28956300000.0 -9035760000.0 -23558500000.0 -9035760000.0 -23154200000.0 -9035770000.0 -16150400000.0 -15845400000.0 -23119700000.0 -27858700000.0 -35338700000.0 -43090200000.0 -46110200000.0 -42585000000.0 -39428000000.0 -41349600000.0 -37200700000.0 -28355900000.0 -26610800000.0 -28068100000.0 -25086700000.0 -21400100000.0 -20103600000.0 -15745100000.0 -15718000000.0 -19605700000.0 -15319500000.0 -19363300000.0 -20418300000.0 -40125000000.0 -33049200000.0 -26149700000.0 -21838500000.0 -15083600000.0 -15696500000.0 -9035770000.0 -21991400000.0 -9035760000.0 -22391300000.0 -9035760000.0 -27223400000.0 -9035760000.0 -27477900000.0 -9035760000.0 -29003000000.0 -9035760000.0 -28964300000.0 -9035760000.0 -26296900000.0 -9035750000.0 -25066700000.0 -9035750000.0 -27519900000.0 -9035750000.0 -25066700000.0 -9035750000.0 -26296900000.0 -9035760000.0 -28964300000.0 -9035760000.0 -29003000000.0 -9035760000.0 -27477900000.0 -9035760000.0 -27223400000.0 -9035760000.0 -22391300000.0 -9035760000.0 -21991400000.0 -9035770000.0 -15696500000.0 -15083600000.0 -21838500000.0 -26149700000.0 -33049200000.0 -40125000000.0 -20418300000.0 -19363300000.0 -15319500000.0 -18637700000.0 -15346800000.0 -23768100000.0 -26493800000.0 -24982600000.0 -26579300000.0 -34887000000.0 -38282300000.0 -36495100000.0 -39670900000.0 -42985100000.0 -42985100000.0 -39670900000.0 -36495100000.0 -38282300000.0 -34887000000.0 -26579300000.0 -24982600000.0 -26493800000.0 -23768100000.0 -15346800000.0 -18637700000.0 -17694000000.0 -14930200000.0 -14857100000.0 -18570000000.0 -19437100000.0 -22474300000.0 -24971000000.0 -23442200000.0 -24877900000.0 -32592900000.0 -35389200000.0 -33735500000.0 -36844300000.0 -39866300000.0 -37182100000.0 -30782900000.0 -24487300000.0 -20581900000.0 -14383600000.0 -15214800000.0 -9035760000.0 -20833300000.0 -9035760000.0 -21219700000.0 -9035760000.0 -25512800000.0 -9035760000.0 -25714100000.0 -9035760000.0 -26969400000.0 -9035760000.0 -26718000000.0 -9035760000.0 -24014500000.0 -9035750000.0 -22789600000.0 -9035750000.0 -24598100000.0 -9035750000.0 -22789600000.0 -9035750000.0 -24014500000.0 -9035760000.0 -26718000000.0 -9035760000.0 -26969400000.0 -9035760000.0 -25714100000.0 -9035760000.0 -25512800000.0 -9035760000.0 -21219700000.0 -9035760000.0 -20833300000.0 -9035760000.0 -15214800000.0 -14383600000.0 -20581900000.0 -24487300000.0 -30782900000.0 -37182100000.0 -39866300000.0 -36844300000.0 -33735500000.0 -35389200000.0 -32592900000.0 -24877900000.0 -23442200000.0 -24971000000.0 -22474300000.0 -19437100000.0 -18570000000.0 -14857100000.0 -14930200000.0 -17694000000.0 -16777700000.0 -14473800000.0 -14364500000.0 -17734700000.0 -18451900000.0 -21194500000.0 -23477000000.0 -21968800000.0 -23239900000.0 -30318200000.0 -32627000000.0 -31111000000.0 -34081400000.0 -36763100000.0 -34272000000.0 -28544200000.0 -22864700000.0 -19352800000.0 -13736500000.0 -14705700000.0 -9035760000.0 -19680500000.0 -9035760000.0 -20045800000.0 -9035760000.0 -23827600000.0 -9035760000.0 -23982300000.0 -9035760000.0 -25001900000.0 -9035760000.0 -24591500000.0 -9035760000.0 -21935200000.0 -9035750000.0 -20762500000.0 -9035750000.0 -22078700000.0 -9035750000.0 -20762500000.0 -9035750000.0 -21935200000.0 -9035760000.0 -24591500000.0 -9035760000.0 -25001900000.0 -9035760000.0 -23982300000.0 -9035760000.0 -23827600000.0 -9035760000.0 -20045800000.0 -9035760000.0 -19680500000.0 -9035760000.0 -14705700000.0 -13736500000.0 -19352800000.0 -22864700000.0 -28544200000.0 -34272000000.0 -36763100000.0 -34081400000.0 -31111000000.0 -32627000000.0 -30318200000.0 -23239900000.0 -21968800000.0 -23477000000.0 -21194500000.0 -18451900000.0 -17734700000.0 -14364500000.0 -14473800000.0 -16777700000.0 -15889000000.0 -13982700000.0 -13847500000.0 -16867200000.0 -17461200000.0 -19920500000.0 -21994500000.0 -20544100000.0 -21653200000.0 -28059100000.0 -29962400000.0 -28590100000.0 -31363800000.0 -33684400000.0 -31403900000.0 -26337400000.0 -21278100000.0 -18153700000.0 -13134500000.0 -14171400000.0 -9035760000.0 -18533500000.0 -9035760000.0 -18871500000.0 -9035760000.0 -22169300000.0 -9035760000.0 -22284200000.0 -9035760000.0 -23100500000.0 -9035760000.0 -22582700000.0 -9035760000.0 -20045100000.0 -9035750000.0 -18957200000.0 -9035750000.0 -19901900000.0 -9035750000.0 -18957200000.0 -9035750000.0 -20045100000.0 -9035760000.0 -22582700000.0 -9035760000.0 -23100500000.0 -9035760000.0 -22284200000.0 -9035760000.0 -22169300000.0 -9035760000.0 -18871500000.0 -9035760000.0 -18533500000.0 -9035760000.0 -14171400000.0 -13134500000.0 -18153700000.0 -21278100000.0 -26337500000.0 -31403900000.0 -33684400000.0 -31363800000.0 -28590100000.0 -29962400000.0 -28059100000.0 -21653200000.0 -20544100000.0 -21994500000.0 -19920500000.0 -17461200000.0 -16867200000.0 -13847500000.0 -13982700000.0 -15889000000.0 -15025600000.0 -13461800000.0 -13311400000.0 -15975500000.0 -16465800000.0 -18647200000.0 -20510700000.0 -19152700000.0 -20105900000.0 -25810700000.0 -27370200000.0 -26148000000.0 -28678000000.0 -30637800000.0 -28584600000.0 -24166400000.0 -19726000000.0 -16985400000.0 -12570400000.0 -13614400000.0 -9035760000.0 -17392400000.0 -9035760000.0 -17698100000.0 -9035760000.0 -20538300000.0 -9035760000.0 -20620300000.0 -9035760000.0 -21263500000.0 -9035750000.0 -20686500000.0 -9035760000.0 -18327900000.0 -9035750000.0 -17346700000.0 -9035750000.0 -18014300000.0 -9035750000.0 -17346700000.0 -9035750000.0 -18327900000.0 -9035760000.0 -20686500000.0 -9035750000.0 -21263500000.0 -9035760000.0 -20620300000.0 -9035760000.0 -20538300000.0 -9035760000.0 -17698100000.0 -9035760000.0 -17392400000.0 -9035760000.0 -13614400000.0 -12570400000.0 -16985400000.0 -19726000000.0 -24166400000.0 -28584600000.0 -30637800000.0 -28678000000.0 -26148000000.0 -27370200000.0 -25810700000.0 -20105900000.0 -19152700000.0 -20510700000.0 -18647200000.0 -16465800000.0 -15975500000.0 -13311400000.0 -13461800000.0 -15025600000.0 -14184200000.0 -12915500000.0 -12760400000.0 -15066400000.0 -15467200000.0 -17371200000.0 -19017300000.0 -17782300000.0 -18587400000.0 -23567800000.0 -24831600000.0 -23764900000.0 -26014200000.0 -27628500000.0 -25818200000.0 -22033500000.0 -18207300000.0 -15847400000.0 -12037900000.0 -13037700000.0 -9035760000.0 -16257100000.0 -9035760000.0 -16526900000.0 -9035760000.0 -18933800000.0 -9035760000.0 -18989500000.0 -9035760000.0 -19487300000.0 -9035750000.0 -18895000000.0 -9035760000.0 -16765500000.0 -9035750000.0 -15904900000.0 -9035750000.0 -16368400000.0 -9035750000.0 -15904900000.0 -9035750000.0 -16765500000.0 -9035760000.0 -18895000000.0 -9035750000.0 -19487300000.0 -9035760000.0 -18989500000.0 -9035760000.0 -18933800000.0 -9035760000.0 -16526900000.0 -9035760000.0 -16257100000.0 -9035760000.0 -13037700000.0 -12037900000.0 -15847400000.0 -18207300000.0 -22033500000.0 -25818200000.0 -27628500000.0 -26014200000.0 -23764900000.0 -24831600000.0 -23567800000.0 -18587400000.0 -17782300000.0 -19017300000.0 -17371200000.0 -15467200000.0 -15066400000.0 -12760400000.0 -12915500000.0 -14184200000.0 -13360800000.0 -12348000000.0 -12198100000.0 -14145000000.0 -14467300000.0 -16090900000.0 -17509200000.0 -16423600000.0 -17088700000.0 -21326000000.0 -22332500000.0 -21425700000.0 -23365600000.0 -24659400000.0 -23105600000.0 -19939000000.0 -16720900000.0 -14738100000.0 -11531500000.0 -12444300000.0 -9035760000.0 -15127400000.0 -9035760000.0 -15358600000.0 -9035760000.0 -17354200000.0 -9035760000.0 -17389600000.0 -9035760000.0 -17767000000.0 -9035750000.0 -17198500000.0 -9035760000.0 -15338500000.0 -9035750000.0 -14606500000.0 -9035750000.0 -14922000000.0 -9035750000.0 -14606500000.0 -9035750000.0 -15338500000.0 -9035760000.0 -17198500000.0 -9035750000.0 -17767000000.0 -9035760000.0 -17389600000.0 -9035760000.0 -17354200000.0 -9035760000.0 -15358600000.0 -9035760000.0 -15127400000.0 -9035760000.0 -12444300000.0 -11531500000.0 -14738100000.0 -16720900000.0 -19939000000.0 -23105600000.0 -24659400000.0 -23365600000.0 -21425700000.0 -22332500000.0 -21326000000.0 -17088700000.0 -16423600000.0 -17509200000.0 -16090900000.0 -14467300000.0 -14145000000.0 -12198100000.0 -12348000000.0 -13360800000.0 -12551600000.0 -11763100000.0 -11627500000.0 -13215500000.0 -13467800000.0 -14805700000.0 -15984600000.0 -15070100000.0 -15602700000.0 -19081900000.0 -19862300000.0 -19118700000.0 -20727500000.0 -21730100000.0 -20444800000.0 -17881600000.0 -15264800000.0 -13654700000.0 -11046400000.0 -11837100000.0 -9035760000.0 -14002800000.0 -9035760000.0 -14193600000.0 -9035760000.0 -15796800000.0 -9035750000.0 -15817700000.0 -9035750000.0 -16096000000.0 -9035750000.0 -15585000000.0 -9035750000.0 -14026700000.0 -9035750000.0 -13427600000.0 -9035750000.0 -13637200000.0 -9035750000.0 -13427600000.0 -9035750000.0 -14026700000.0 -9035750000.0 -15585000000.0 -9035750000.0 -16096000000.0 -9035750000.0 -15817700000.0 -9035750000.0 -15796800000.0 -9035760000.0 -14193600000.0 -9035760000.0 -14002800000.0 -9035760000.0 -11837100000.0 -11046400000.0 -13654700000.0 -15264800000.0 -17881600000.0 -20444800000.0 -21730100000.0 -20727500000.0 -19118700000.0 -19862300000.0 -19081900000.0 -15602700000.0 -15070100000.0 -15984600000.0 -14805700000.0 -13467800000.0 -13215500000.0 -11627500000.0 -11763100000.0 -12551600000.0 -11752900000.0 -11164400000.0 -11050800000.0 -12280700000.0 -12469800000.0 -13515800000.0 -14443800000.0 -13717700000.0 -14124100000.0 -16833600000.0 -17413100000.0 -16834800000.0 -18096600000.0 -18837700000.0 -17830800000.0 -15857700000.0 -13835800000.0 -12593700000.0 -10578200000.0 -11219000000.0 -9035760000.0 -12882700000.0 -9035760000.0 -13031700000.0 -9035760000.0 -14258500000.0 -9035750000.0 -14269500000.0 -9035750000.0 -14466700000.0 -9035750000.0 -14041400000.0 -9035750000.0 -12809500000.0 -9035750000.0 -12344900000.0 -9035750000.0 -12479600000.0 -9035750000.0 -12344900000.0 -9035750000.0 -12809500000.0 -9035750000.0 -14041400000.0 -9035750000.0 -14466700000.0 -9035750000.0 -14269500000.0 -9035750000.0 -14258500000.0 -9035760000.0 -13031700000.0 -9035760000.0 -12882700000.0 -9035760000.0 -11219000000.0 -10578200000.0 -12593700000.0 -13835800000.0 -15857700000.0 -17830800000.0 -18837700000.0 -18096600000.0 -16834800000.0 -17413100000.0 -16833600000.0 -14124100000.0 -13717700000.0 -14443800000.0 -13515800000.0 -12469800000.0 -12280700000.0 -11050800000.0 -11164400000.0 -11752900000.0 -10961600000.0 -10555300000.0 -10470000000.0 -11342900000.0 -11473700000.0 -12221800000.0 -12888900000.0 -12364200000.0 -12649500000.0 -14580400000.0 -14978500000.0 -14566800000.0 -15470500000.0 -15976600000.0 -15255700000.0 -13861800000.0 -12429400000.0 -11550600000.0 -10122800000.0 -10592600000.0 -9035760000.0 -11766200000.0 -9035760000.0 -11872600000.0 -9035750000.0 -12735500000.0 -9035750000.0 -12740500000.0 -9035750000.0 -12870700000.0 -9035750000.0 -12553000000.0 -9035750000.0 -11665700000.0 -9035750000.0 -11336000000.0 -9035750000.0 -11417600000.0 -9035750000.0 -11336000000.0 -9035750000.0 -11665700000.0 -9035750000.0 -12553000000.0 -9035750000.0 -12870700000.0 -9035750000.0 -12740500000.0 -9035750000.0 -12735500000.0 -9035750000.0 -11872600000.0 -9035760000.0 -11766200000.0 -9035760000.0 -10592600000.0 -10122800000.0 -11550600000.0 -12429400000.0 -13861800000.0 -15255700000.0 -15976600000.0 -15470500000.0 -14566800000.0 -14978500000.0 -14580400000.0 -12649500000.0 -12364200000.0 -12888900000.0 -12221800000.0 -11473700000.0 -11342900000.0 -10470000000.0 -10555300000.0 -10961600000.0 -10175100000.0 -9938760000.0 -9886440000.0 -10403200000.0 -10479400000.0 -10924600000.0 -11323000000.0 -11008700000.0 -11176400000.0 -12322800000.0 -12553400000.0 -12309200000.0 -12847300000.0 -13139000000.0 -12709700000.0 -11886900000.0 -11039800000.0 -10520700000.0 -9676410000.0 -9960330000.0 -9035750000.0 -10652500000.0 -9035750000.0 -10715700000.0 -9035750000.0 -11223600000.0 -9035750000.0 -11225400000.0 -9035750000.0 -11298700000.0 -9035750000.0 -11104400000.0 -9035750000.0 -10574200000.0 -9035750000.0 -10379100000.0 -9035750000.0 -10422200000.0 -9035750000.0 -10379100000.0 -9035750000.0 -10574200000.0 -9035750000.0 -11104400000.0 -9035750000.0 -11298700000.0 -9035750000.0 -11225400000.0 -9035750000.0 -11223600000.0 -9035750000.0 -10715700000.0 -9035750000.0 -10652500000.0 -9035750000.0 -9960330000.0 -9676410000.0 -10520700000.0 -11039800000.0 -11886900000.0 -12709700000.0 -13139000000.0 -12847300000.0 -12309200000.0 -12553400000.0 -12322800000.0 -11176400000.0 -11008700000.0 -11323000000.0 -10924600000.0 -10479400000.0 -10403200000.0 -9886440000.0 -9938760000.0 -10175100000.0 -9391170000.0 -9317950000.0 -9301400000.0 -9462660000.0 -9486280000.0 -9625500000.0 -9750220000.0 -9651720000.0 -9703900000.0 -10062000000.0 -10133400000.0 -10057100000.0 -10225400000.0 -10315500000.0 -10181200000.0 -9924780000.0 -9660520000.0 -9498660000.0 -9235320000.0 -9324610000.0 -9035750000.0 -9540280000.0 -9035750000.0 -9560030000.0 -9035750000.0 -9718160000.0 -9035750000.0 -9718610000.0 -9035750000.0 -9741010000.0 -9035750000.0 -9679650000.0 -9035750000.0 -9513560000.0 -9035750000.0 -9452680000.0 -9035750000.0 -9465510000.0 -9035750000.0 -9452680000.0 -9035750000.0 -9513560000.0 -9035750000.0 -9679650000.0 -9035750000.0 -9741010000.0 -9035750000.0 -9718610000.0 -9035750000.0 -9718160000.0 -9035750000.0 -9560030000.0 -9035750000.0 -9540280000.0 -9035750000.0 -9324610000.0 -9235320000.0 -9498660000.0 -9660520000.0 -9924780000.0 -10181200000.0 -10315500000.0 -10225400000.0 -10057100000.0 -10133400000.0 -10062000000.0 -9703900000.0 -9651720000.0 -9750220000.0 -9625500000.0 -9486280000.0 -9462660000.0 -9301400000.0 -9317950000.0 -9391170000.0 
SCALARS Shear_Stress float 1
LOOKUP_TABLE default
41167300000.0 41167300000.0 158367000000.0 47220700000.0 98663400000.0 98663400000.0 47220700000.0 158367000000.0 442191000000.0 53411700000.0 36656000000.0 46993900000.0 19541300000.0 67776500000.0 70587800000.0 24964000000.0 49560200000.0 49560200000.0 24964000000.0 70587800000.0 67776500000.0 19541300000.0 46993900000.0 36656000000.0 53411700000.0 442191000000.0 2088630000.0 33572400000.0 51894900000.0 27731800000.0 163526000000.0 167311000000.0 158213000000.0 164727000000.0 138585000000.0 164727000000.0 158213000000.0 167311000000.0 163526000000.0 27731800000.0 51894900000.0 33572400000.0 2088580000.0 77964300000.0 853892000000.0 772214000000.0 27161200000.0 183773000000.0 243036000000.0 338214000000.0 316990000000.0 331880000000.0 348182000000.0 199318000000.0 222663000000.0 227574000000.0 222663000000.0 199317000000.0 348182000000.0 331880000000.0 316990000000.0 338214000000.0 243036000000.0 183773000000.0 27161300000.0 772214000000.0 853892000000.0 77964300000.0 4217920000.0 164904000000.0 960819000000.0 695534000000.0 757466000000.0 285265000000.0 225584000000.0 415717000000.0 536312000000.0 130523000000.0 178619000000.0 178619000000.0 130523000000.0 536312000000.0 415717000000.0 225584000000.0 285265000000.0 757466000000.0 695534000000.0 960819000000.0 164904000000.0 4217910000.0 59110100000.0 8429670000.0 238247000000.0 1.19174e+12 770359000000.0 705437000000.0 183777000000.0 424995000000.0 619750000000.0 137414000000.0 54923800000.0 102456000000.0 54923700000.0 137414000000.0 619750000000.0 424995000000.0 183777000000.0 705437000000.0 770359000000.0 1.19174e+12 238247000000.0 8429670000.0 59110100000.0 150409000000.0 293950000000.0 166640000000.0 790269000000.0 758089000000.0 730161000000.0 784684000000.0 714914000000.0 52567300000.0 70794200000.0 38763700000.0 186500000000.0 87745500000.0 46530000000.0 6352580000.0 46529900000.0 87745400000.0 186500000000.0 38763900000.0 70794200000.0 52567400000.0 714914000000.0 784684000000.0 730161000000.0 758089000000.0 790269000000.0 166640000000.0 293950000000.0 150409000000.0 238900000000.0 371904000000.0 371511000000.0 271799000000.0 72540900000.0 906582000000.0 611854000000.0 641003000000.0 355291000000.0 730030000000.0 335336000000.0 433842000000.0 69485800000.0 5198270000.0 14047400000.0 161104000.0 161073000.0 14047500000.0 5198330000.0 69485800000.0 433842000000.0 335336000000.0 730030000000.0 355291000000.0 641003000000.0 611853000000.0 906582000000.0 72540900000.0 271799000000.0 371511000000.0 371904000000.0 238900000000.0 152979000000.0 374474000000.0 595631000000.0 656006000000.0 263730000000.0 563562000000.0 352294000000.0 4116650000.0 492134000000.0 238915000000.0 85401100000.0 39686800000.0 46389200000.0 39686900000.0 85401100000.0 238915000000.0 492134000000.0 4116890000.0 352294000000.0 563562000000.0 263730000000.0 656006000000.0 595632000000.0 374474000000.0 152979000000.0 88999400000.0 112231000000.0 301621000000.0 301720000000.0 593947000000.0 386560000000.0 32361800000.0 388759000000.0 14340800000.0 332481000000.0 427264000000.0 208039000000.0 24904000000.0 65354200000.0 223509000000.0 247901000000.0 102154000000.0 84357000000.0 84357000000.0 102154000000.0 247901000000.0 223509000000.0 65354100000.0 24903800000.0 208039000000.0 427263000000.0 332481000000.0 14340600000.0 388759000000.0 32361900000.0 386560000000.0 593947000000.0 301720000000.0 301621000000.0 112231000000.0 88999400000.0 77514900000.0 282756000000.0 134418000000.0 56841900000.0 128414000000.0 138149000000.0 118797000000.0 307064000000.0 247162000000.0 151779000000.0 111848000000.0 94048600000.0 209543000000.0 15055500000.0 245562000000.0 124781000000.0 146518000000.0 115291000000.0 146518000000.0 124781000000.0 245562000000.0 15055500000.0 209543000000.0 94048500000.0 111848000000.0 151779000000.0 247163000000.0 307064000000.0 118797000000.0 138149000000.0 128414000000.0 56841900000.0 134418000000.0 282756000000.0 77514900000.0 75285300000.0 284484000000.0 160426000000.0 132805000000.0 49209500000.0 189337000000.0 434113000000.0 101606000000.0 147858000000.0 117522000000.0 121583000000.0 264625000000.0 83064400000.0 236529000000.0 133145000000.0 236529000000.0 83064300000.0 264625000000.0 121583000000.0 117521000000.0 147858000000.0 101606000000.0 434113000000.0 189337000000.0 49209600000.0 132805000000.0 160426000000.0 284484000000.0 75285300000.0 78876200000.0 312778000000.0 295978000000.0 192959000000.0 8366870000.0 192890000000.0 288449000000.0 354712000000.0 511915000000.0 715447000000.0 940210000000.0 243166000000.0 398542000000.0 59890600000.0 96286200000.0 90373800000.0 305442000000.0 367964000000.0 455537000000.0 306806000000.0 283166000000.0 129424000000.0 162468000000.0 212261000000.0 212261000000.0 162468000000.0 129424000000.0 283166000000.0 306806000000.0 455537000000.0 367965000000.0 305442000000.0 90373900000.0 96286400000.0 59890700000.0 398542000000.0 243166000000.0 940210000000.0 715447000000.0 511915000000.0 354712000000.0 288449000000.0 192890000000.0 8366810000.0 192959000000.0 295978000000.0 312778000000.0 78876200000.0 97100900000.0 87296900000.0 331319000000.0 226563000000.0 67422900000.0 60957400000.0 135281000000.0 238105000000.0 379363000000.0 652548000000.0 1.09351e+12 1.13672e+12 355699000000.0 275863000000.0 501322000000.0 432957000000.0 218407000000.0 247488000000.0 244088000000.0 247488000000.0 218406000000.0 432957000000.0 501322000000.0 275863000000.0 355699000000.0 1.13672e+12 1.09351e+12 652548000000.0 379363000000.0 238105000000.0 135281000000.0 60957500000.0 67422800000.0 226563000000.0 331319000000.0 87296900000.0 97100900000.0 108209000000.0 351165000000.0 258706000000.0 170091000000.0 121306000000.0 8111510000.0 166007000000.0 297272000000.0 463616000000.0 555227000000.0 768655000000.0 891210000000.0 1.06334e+12 264242000000.0 494409000000.0 595797000000.0 290279000000.0 172177000000.0 732224000000.0 732223000000.0 172177000000.0 290279000000.0 595797000000.0 494409000000.0 264242000000.0 1.06334e+12 891210000000.0 768655000000.0 555227000000.0 463616000000.0 297272000000.0 166008000000.0 8111460000.0 121306000000.0 170091000000.0 258706000000.0 351165000000.0 108209000000.0 117375000000.0 381106000000.0 367537000000.0 317657000000.0 290811000000.0 213925000000.0 69741100000.0 92924800000.0 160623000000.0 227736000000.0 248770000000.0 338999000000.0 400530000000.0 649144000000.0 1.00009e+12 730708000000.0 300071000000.0 466492000000.0 716813000000.0 667421000000.0 533300000000.0 401268000000.0 171397000000.0 138862000000.0 90138700000.0 88667900000.0 280932000000.0 88667500000.0 90139200000.0 138862000000.0 171397000000.0 401268000000.0 533301000000.0 667421000000.0 716813000000.0 466492000000.0 300071000000.0 730708000000.0 1.00009e+12 649144000000.0 400530000000.0 338999000000.0 248770000000.0 227736000000.0 160623000000.0 92924900000.0 69741100000.0 213925000000.0 290811000000.0 317657000000.0 367537000000.0 381106000000.0 117375000000.0 125889000000.0 394063000000.0 340851000000.0 257332000000.0 125169000000.0 32595300000.0 27962000000.0 101921000000.0 179676000000.0 251264000000.0 504788000000.0 784342000000.0 845864000000.0 1.11123e+12 950555000000.0 784696000000.0 602317000000.0 244973000000.0 151063000000.0 192047000000.0 178116000000.0 69182900000.0 178117000000.0 192048000000.0 151063000000.0 244973000000.0 602318000000.0 784696000000.0 950556000000.0 1.11123e+12 845865000000.0 784342000000.0 504788000000.0 251264000000.0 179676000000.0 101921000000.0 27962100000.0 32595200000.0 125169000000.0 257332000000.0 340851000000.0 394063000000.0 125889000000.0 133886000000.0 131082000000.0 398625000000.0 353860000000.0 311468000000.0 288671000000.0 230009000000.0 179858000000.0 90851500000.0 51153100000.0 135493000000.0 161231000000.0 331114000000.0 492873000000.0 575187000000.0 734716000000.0 907738000000.0 719298000000.0 629868000000.0 357158000000.0 165395000000.0 180807000000.0 63356900000.0 63356900000.0 180808000000.0 165395000000.0 357159000000.0 629868000000.0 719298000000.0 907738000000.0 734716000000.0 575187000000.0 492874000000.0 331114000000.0 161231000000.0 135493000000.0 51153200000.0 90851500000.0 179858000000.0 230009000000.0 288671000000.0 311468000000.0 353860000000.0 398625000000.0 131082000000.0 133886000000.0 136333000000.0 396993000000.0 371697000000.0 370204000000.0 325255000000.0 260059000000.0 156046000000.0 4174070000.0 103939000000.0 121490000000.0 116555000000.0 64734800000.0 104725000000.0 216896000000.0 452315000000.0 590212000000.0 181201000000.0 201638000000.0 363719000000.0 157944000000.0 151282000000.0 53911700000.0 145293000000.0 53911700000.0 151282000000.0 157944000000.0 363719000000.0 201639000000.0 181200000000.0 590213000000.0 452316000000.0 216896000000.0 104725000000.0 64734800000.0 116555000000.0 121490000000.0 103939000000.0 4174020000.0 156046000000.0 260059000000.0 325255000000.0 370204000000.0 371697000000.0 396993000000.0 136333000000.0 136343000000.0 393661000000.0 395573000000.0 358270000000.0 333505000000.0 272869000000.0 224705000000.0 208284000000.0 139439000000.0 69496300000.0 12131200000.0 71594500000.0 114052000000.0 89885400000.0 112209000000.0 419751000000.0 779326000000.0 236484000000.0 870273000000.0 572678000000.0 412197000000.0 105230000000.0 201240000000.0 156982000000.0 4159390000.0 97287200000.0 86994700000.0 62522200000.0 139374000000.0 148652000000.0 190173000000.0 148652000000.0 139375000000.0 62522100000.0 86994600000.0 97287000000.0 4159320000.0 156982000000.0 201240000000.0 105230000000.0 412198000000.0 572677000000.0 870273000000.0 236483000000.0 779326000000.0 419751000000.0 112209000000.0 89885500000.0 114052000000.0 71594600000.0 12131300000.0 69496200000.0 139439000000.0 208284000000.0 224705000000.0 272869000000.0 333505000000.0 358270000000.0 395573000000.0 393661000000.0 136343000000.0 144626000000.0 137091000000.0 389545000000.0 346295000000.0 337235000000.0 286514000000.0 292648000000.0 228108000000.0 192909000000.0 53626000000.0 79691300000.0 166640000000.0 60373800000.0 371121000000.0 112353000000.0 365830000000.0 498637000000.0 244283000000.0 322318000000.0 113792000000.0 121731000000.0 130195000000.0 190181000000.0 190182000000.0 130196000000.0 121731000000.0 113792000000.0 322319000000.0 244282000000.0 498635000000.0 365830000000.0 112353000000.0 371121000000.0 60373900000.0 166640000000.0 79691300000.0 53625900000.0 192909000000.0 228108000000.0 292648000000.0 286514000000.0 337235000000.0 346296000000.0 389545000000.0 137091000000.0 144626000000.0 159626000000.0 391239000000.0 345186000000.0 264597000000.0 304677000000.0 300833000000.0 256468000000.0 169422000000.0 128121000000.0 49383800000.0 22987600000.0 114699000000.0 69541900000.0 77042100000.0 233365000000.0 701179000000.0 3132010000.0 446150000000.0 561649000000.0 411250000000.0 587329000000.0 84051900000.0 240150000000.0 170540000000.0 107459000000.0 177418000000.0 206987000000.0 177419000000.0 107460000000.0 170540000000.0 240150000000.0 84050900000.0 587328000000.0 411250000000.0 561649000000.0 446149000000.0 3131690000.0 701179000000.0 233365000000.0 77042100000.0 69541900000.0 114699000000.0 22987600000.0 49383700000.0 128121000000.0 169422000000.0 256468000000.0 300833000000.0 304677000000.0 264597000000.0 345186000000.0 391239000000.0 159626000000.0 178750000000.0 410477000000.0 361029000000.0 342172000000.0 275280000000.0 229548000000.0 264990000000.0 230674000000.0 198472000000.0 176385000000.0 80079000000.0 183605000000.0 115520000000.0 11429900000.0 73928400000.0 171341000000.0 321941000000.0 1.30036e+12 310120000000.0 1.16736e+12 245285000000.0 830729000000.0 34326200000.0 5351640000.0 240687000000.0 16023400000.0 55332400000.0 127865000000.0 158492000000.0 187519000000.0 200192000000.0 197939000000.0 200192000000.0 187519000000.0 158493000000.0 127867000000.0 55334700000.0 16025900000.0 240687000000.0 5352560000.0 34326700000.0 830726000000.0 245285000000.0 1.16736e+12 310120000000.0 1.30036e+12 321941000000.0 171341000000.0 73928400000.0 11429800000.0 115520000000.0 183605000000.0 80079000000.0 176385000000.0 198473000000.0 230674000000.0 264990000000.0 229548000000.0 275280000000.0 342172000000.0 361029000000.0 410477000000.0 178750000000.0 192562000000.0 483603000000.0 446472000000.0 401042000000.0 292700000000.0 161202000000.0 137428000000.0 97247600000.0 95255500000.0 204765000000.0 28900500000.0 86721800000.0 369919000000.0 55295000000.0 5019130000.0 37106300000.0 62978100000.0 214641000000.0 546173000000.0 540218000000.0 426736000000.0 416262000000.0 144767000000.0 181528000000.0 183884000000.0 183883000000.0 181528000000.0 144769000000.0 416262000000.0 426736000000.0 540217000000.0 546172000000.0 214640000000.0 62978200000.0 37105900000.0 5018990000.0 55295000000.0 369919000000.0 86721600000.0 28900100000.0 204765000000.0 95255900000.0 97247800000.0 137428000000.0 161202000000.0 292700000000.0 401042000000.0 446472000000.0 483603000000.0 192562000000.0 150867000000.0 186844000000.0 496358000000.0 473892000000.0 326840000000.0 243581000000.0 212455000000.0 23262700000.0 277542000000.0 221623000000.0 119749000000.0 29243600000.0 67986400000.0 382684000000.0 57417400000.0 133467000000.0 66621800000.0 177731000000.0 334104000000.0 119318000000.0 406338000000.0 80470500000.0 560890000000.0 354606000000.0 319681000000.0 84482900000.0 150075000000.0 606646000000.0 159397000000.0 176763000000.0 172096000000.0 165788000000.0 172095000000.0 176765000000.0 159398000000.0 606645000000.0 150076000000.0 84484100000.0 319681000000.0 354607000000.0 560890000000.0 80470500000.0 406338000000.0 119318000000.0 334104000000.0 177730000000.0 66621600000.0 133468000000.0 57417500000.0 382684000000.0 67986700000.0 29242500000.0 119749000000.0 221623000000.0 277541000000.0 23262400000.0 212455000000.0 243581000000.0 326840000000.0 473892000000.0 496358000000.0 186844000000.0 150867000000.0 78246100000.0 460533000000.0 533354000000.0 514125000000.0 397735000000.0 297945000000.0 198997000000.0 19539600000.0 543964000000.0 13849000000.0 701346000000.0 259936000000.0 193487000000.0 54506800000.0 733359000000.0 216936000000.0 322690000000.0 3491890000.0 226866000000.0 39282500000.0 193472000000.0 193091000000.0 92567900000.0 627228000000.0 376516000000.0 135029000000.0 293998000000.0 88986600000.0 180656000000.0 130896000000.0 144185000000.0 108167000000.0 144182000000.0 130893000000.0 180656000000.0 88987400000.0 293997000000.0 135030000000.0 376514000000.0 627228000000.0 92567600000.0 193091000000.0 193472000000.0 39282700000.0 226866000000.0 3491680000.0 322690000000.0 216936000000.0 733358000000.0 54507000000.0 193486000000.0 259937000000.0 701345000000.0 13848400000.0 543964000000.0 19539400000.0 198997000000.0 297945000000.0 397735000000.0 514125000000.0 533354000000.0 460533000000.0 78246100000.0 32227000000.0 369843000000.0 431356000000.0 528935000000.0 588361000000.0 386385000000.0 227497000000.0 402231000000.0 267519000000.0 303027000000.0 944660000000.0 737425000000.0 759449000000.0 353233000000.0 143218000000.0 3891050000.0 130013000000.0 161499000000.0 230842000000.0 281291000000.0 213581000000.0 119287000000.0 162132000000.0 216732000000.0 177866000000.0 73011400000.0 72999600000.0 177866000000.0 216733000000.0 162137000000.0 119286000000.0 213582000000.0 281291000000.0 230842000000.0 161499000000.0 130013000000.0 3890850000.0 143218000000.0 353233000000.0 759449000000.0 737426000000.0 944660000000.0 303027000000.0 267519000000.0 402231000000.0 227497000000.0 386385000000.0 588361000000.0 528935000000.0 431356000000.0 369843000000.0 32227000000.0 4314430000.0 151219000000.0 218383000000.0 235473000000.0 521783000000.0 581446000000.0 372329000000.0 249702000000.0 180229000000.0 642872000000.0 919998000000.0 763801000000.0 369593000000.0 241494000000.0 979956000000.0 138718000000.0 660828000000.0 406237000000.0 350509000000.0 103746000000.0 38250800000.0 102054000000.0 343887000000.0 493513000000.0 623279000000.0 521421000000.0 194061000000.0 261966000000.0 266872000000.0 127778000000.0 23909800000.0 31365500000.0 23895300000.0 127778000000.0 266878000000.0 261966000000.0 194062000000.0 521421000000.0 623278000000.0 493512000000.0 343887000000.0 102054000000.0 38251200000.0 103746000000.0 350509000000.0 406237000000.0 660829000000.0 138717000000.0 979957000000.0 241494000000.0 369592000000.0 763802000000.0 919997000000.0 642872000000.0 180229000000.0 249702000000.0 372329000000.0 581446000000.0 521783000000.0 235473000000.0 218383000000.0 151219000000.0 4314420000.0 162506000000.0 223849000000.0 104692000000.0 267096000000.0 347156000000.0 649436000000.0 765107000000.0 218100000000.0 836821000000.0 241054000000.0 604106000000.0 701761000000.0 177068000000.0 624728000000.0 212147000000.0 491707000000.0 842554000000.0 537416000.0 185492000000.0 81803300000.0 37938400000.0 54959100000.0 252819000000.0 393537000000.0 339099000000.0 191495000000.0 234150000000.0 303501000000.0 188518000000.0 144240000000.0 21198400000.0 64255000000.0 21225800000.0 144259000000.0 188514000000.0 303492000000.0 234148000000.0 191501000000.0 339098000000.0 393537000000.0 252819000000.0 54958700000.0 37938100000.0 81803000000.0 185492000000.0 537542000.0 842555000000.0 491706000000.0 212147000000.0 624727000000.0 177068000000.0 701760000000.0 604106000000.0 241054000000.0 836821000000.0 218100000000.0 765107000000.0 649436000000.0 347156000000.0 267096000000.0 104692000000.0 223849000000.0 162506000000.0 8127220000.0 140466000000.0 9744500000.0 44040800000.0 1538060000.0 482792000000.0 664998000000.0 73421300000.0 447868000000.0 313615000000.0 641619000000.0 360948000000.0 458223000000.0 249667000000.0 777153000000.0 554109000000.0 24307700000.0 55091500000.0 27277200000.0 207428000000.0 216147000000.0 147106000000.0 89529500000.0 116171000000.0 205623000000.0 242623000000.0 235796000000.0 98861800000.0 111314000000.0 100761000000.0 133075000000.0 133099000000.0 100784000000.0 111310000000.0 98864500000.0 235796000000.0 242623000000.0 205623000000.0 116171000000.0 89529000000.0 147106000000.0 216147000000.0 207429000000.0 27277200000.0 55091400000.0 24307400000.0 554110000000.0 777152000000.0 249667000000.0 458223000000.0 360948000000.0 641619000000.0 313615000000.0 447868000000.0 73421300000.0 664998000000.0 482792000000.0 1538040000.0 44040800000.0 9744430000.0 140466000000.0 8127240000.0 18129600000.0 7379020000.0 223586000000.0 235307000000.0 53057200000.0 37933700000.0 69324100000.0 8526740000.0 129655000000.0 551025000000.0 22542100000.0 771303000000.0 611312000000.0 16294900000.0 444943000000.0 34356900000.0 39960100000.0 203104000000.0 353985000000.0 283278000000.0 28515900000.0 89411200000.0 27439300000.0 18137000000.0 204196000000.0 105487000000.0 163728000000.0 163903000000.0 62957700000.0 244711000000.0 290039000000.0 110073000000.0 92818000000.0 83879400000.0 383363000000.0 306483000000.0 233962000000.0 306484000000.0 383355000000.0 83882000000.0 92817800000.0 110072000000.0 290039000000.0 244712000000.0 62957900000.0 163903000000.0 163728000000.0 105486000000.0 204195000000.0 18136900000.0 27439300000.0 89411300000.0 28515900000.0 283277000000.0 353986000000.0 203104000000.0 39960000000.0 34356600000.0 444943000000.0 16295000000.0 611312000000.0 771303000000.0 22542400000.0 551026000000.0 129655000000.0 8526720000.0 69323900000.0 37933600000.0 53057100000.0 235307000000.0 223586000000.0 7379110000.0 18129600000.0 195666000000.0 201377000000.0 88193700000.0 54545500000.0 141560000000.0 328403000000.0 407873000000.0 350463000000.0 193737000000.0 273765000000.0 416588000000.0 57203800000.0 80477100000.0 44059500000.0 53264400000.0 110463000000.0 262394000000.0 82086200000.0 179368000000.0 21669700000.0 109495000000.0 254867000000.0 110403000000.0 97945100000.0 455123000000.0 31036900000.0 476573000000.0 308382000000.0 424559000000.0 308377000000.0 476574000000.0 31038500000.0 455118000000.0 97943600000.0 110403000000.0 254864000000.0 109494000000.0 21669700000.0 179368000000.0 82085800000.0 262393000000.0 110462000000.0 53264400000.0 44059600000.0 80477400000.0 57203500000.0 416588000000.0 273765000000.0 193737000000.0 350463000000.0 407873000000.0 328403000000.0 141559000000.0 54545400000.0 88193700000.0 201377000000.0 195666000000.0 89010500000.0 285797000000.0 148747000000.0 125526000000.0 20204400000.0 58055300000.0 653197000000.0 1.14536e+12 206681000000.0 314064000000.0 284232000000.0 141180000000.0 109296000000.0 32007500000.0 5835430000.0 166542000000.0 369938000000.0 324553000000.0 178565000000.0 25130600000.0 29247900000.0 16817300000.0 154012000000.0 343644000000.0 315299000000.0 275612000000.0 143782000000.0 131241000000.0 168332000000.0 348429000000.0 348460000000.0 168335000000.0 131248000000.0 143781000000.0 275612000000.0 315299000000.0 343643000000.0 154012000000.0 16817300000.0 29248000000.0 25130500000.0 178565000000.0 324553000000.0 369938000000.0 166542000000.0 5835420000.0 32007500000.0 109296000000.0 141180000000.0 284233000000.0 314065000000.0 206682000000.0 1.14536e+12 653197000000.0 58055500000.0 20204500000.0 125526000000.0 148747000000.0 285798000000.0 89010600000.0 216480000000.0 242853000000.0 38837400000.0 71295400000.0 123467000000.0 10327600000.0 52433800000.0 288573000000.0 591188000000.0 149200000000.0 92147600000.0 28028000000.0 181508000000.0 312785000000.0 385775000000.0 369673000000.0 271781000000.0 176427000000.0 139539000000.0 72610400000.0 57930700000.0 256503000000.0 307610000000.0 354412000000.0 641931000000.0 398484000000.0 565710000000.0 256272000000.0 85964800000.0 208272000000.0 63708700000.0 372736000000.0 478551000000.0 504844000000.0 478564000000.0 372739000000.0 63704500000.0 208275000000.0 85964400000.0 256271000000.0 565710000000.0 398484000000.0 641932000000.0 354412000000.0 307610000000.0 256503000000.0 57930700000.0 72610300000.0 139539000000.0 176427000000.0 271781000000.0 369673000000.0 385775000000.0 312785000000.0 181508000000.0 28028000000.0 92147600000.0 149200000000.0 591188000000.0 288573000000.0 52433900000.0 10327500000.0 123467000000.0 71295300000.0 38837400000.0 242853000000.0 216480000000.0 70320100000.0 17647300000.0 146365000000.0 163456000000.0 115897000000.0 223887000000.0 152170000000.0 92193100000.0 422808000000.0 545053000000.0 154910000000.0 197282000000.0 49959800000.0 20644700000.0 259662000000.0 82691000000.0 32933500000.0 63784400000.0 48617200000.0 38494400000.0 37494500000.0 122291000000.0 160541000000.0 29465100000.0 89829100000.0 121144000000.0 16159000000.0 116356000000.0 270965000000.0 123671000000.0 370595000000.0 318251000000.0 536360000000.0 318231000000.0 370594000000.0 123679000000.0 270966000000.0 116357000000.0 16155300000.0 121146000000.0 89831400000.0 29464600000.0 160541000000.0 122291000000.0 37494500000.0 38494500000.0 48617200000.0 63784400000.0 32933500000.0 82691100000.0 259662000000.0 20644700000.0 49959900000.0 197282000000.0 154910000000.0 545054000000.0 422807000000.0 92193600000.0 152170000000.0 223887000000.0 115897000000.0 163456000000.0 146365000000.0 17647200000.0 70320100000.0 66250300000.0 216479000000.0 190698000000.0 252424000000.0 160399000000.0 101426000000.0 580457000000.0 568127000000.0 161182000000.0 78117800000.0 28180800000.0 157313000000.0 293186000000.0 360339000000.0 368087000000.0 219693000000.0 174481000000.0 103367000000.0 514214000.0 256526000000.0 84034800000.0 5205270000.0 23343800000.0 44105800000.0 138585000000.0 138570000000.0 44108400000.0 23346000000.0 5205580000.0 84034700000.0 256526000000.0 514287000.0 103367000000.0 174481000000.0 219693000000.0 368087000000.0 360339000000.0 293186000000.0 157312000000.0 28180900000.0 78118100000.0 161182000000.0 568127000000.0 580457000000.0 101426000000.0 160398000000.0 252424000000.0 190698000000.0 216479000000.0 66250200000.0 8179200000.0 304294000000.0 203482000000.0 8124120000.0 36425900000.0 292527000000.0 680317000000.0 244835000000.0 648488000000.0 253005000000.0 113169000000.0 306638000000.0 377288000000.0 390206000000.0 345747000000.0 277049000000.0 231586000000.0 197785000000.0 281320000000.0 432441000000.0 594832000000.0 428001000000.0 460247000000.0 298748000000.0 313683000000.0 170564000000.0 49183700000.0 21356200000.0 64633200000.0 139481000000.0 235874000000.0 455475000000.0 235864000000.0 139485000000.0 64636200000.0 21355600000.0 49185600000.0 170564000000.0 313683000000.0 298748000000.0 460247000000.0 428001000000.0 594832000000.0 432441000000.0 281320000000.0 197785000000.0 231586000000.0 277049000000.0 345747000000.0 390206000000.0 377288000000.0 306638000000.0 113169000000.0 253005000000.0 648488000000.0 244835000000.0 680317000000.0 292528000000.0 36426200000.0 8124090000.0 203482000000.0 304294000000.0 8179190000.0 228703000000.0 346404000000.0 308174000000.0 28827700000.0 133738000000.0 604138000000.0 284856000000.0 142434000000.0 123915000000.0 1376880000.0 199604000000.0 356702000000.0 360511000000.0 324907000000.0 251142000000.0 125398000000.0 14283100000.0 100966000000.0 168734000000.0 121421000000.0 192496000000.0 204285000000.0 82375600000.0 154733000000.0 17203800000.0 96237300000.0 36150400000.0 59248000000.0 195708000000.0 1401160000.0 256127000000.0 145525000000.0 552504000000.0 145506000000.0 256126000000.0 1397370000.0 195708000000.0 59248700000.0 36147600000.0 96238000000.0 17202800000.0 154734000000.0 82375800000.0 204285000000.0 192496000000.0 121421000000.0 168734000000.0 100966000000.0 14283100000.0 125398000000.0 251142000000.0 324907000000.0 360511000000.0 356702000000.0 199604000000.0 1376870000.0 123915000000.0 142434000000.0 284857000000.0 604138000000.0 133738000000.0 28827700000.0 308174000000.0 346404000000.0 228702000000.0 12585500000.0 360209000000.0 132813000000.0 77990100000.0 281357000000.0 430239000000.0 309932000000.0 269449000000.0 136711000000.0 298561000000.0 255041000000.0 210365000000.0 204241000000.0 163473000000.0 67112400000.0 48923700000.0 14797000000.0 210788000000.0 85179900000.0 24353600000.0 33570900000.0 33171200000.0 33161500000.0 33570900000.0 24353700000.0 85179700000.0 210788000000.0 14797000000.0 48923700000.0 67112400000.0 163473000000.0 204241000000.0 210365000000.0 255041000000.0 298561000000.0 136711000000.0 269449000000.0 309932000000.0 430239000000.0 281357000000.0 77990000000.0 132812000000.0 360209000000.0 12585500000.0 142848000000.0 52670200000.0 211615000000.0 1066380000.0 297136000000.0 242064000000.0 188888000000.0 95833400000.0 264722000000.0 321145000000.0 217547000000.0 140669000000.0 150979000000.0 149053000000.0 31935500000.0 114735000000.0 106476000000.0 7869210000.0 52710100000.0 33706500000.0 34911200000.0 119484000000.0 23817200000.0 141546000000.0 268637000000.0 194095000000.0 452620000000.0 194096000000.0 268639000000.0 141546000000.0 23817000000.0 119484000000.0 34911200000.0 33706400000.0 52710100000.0 7869130000.0 106476000000.0 114735000000.0 31935500000.0 149053000000.0 150979000000.0 140669000000.0 217547000000.0 321145000000.0 264722000000.0 95833500000.0 188888000000.0 242064000000.0 297136000000.0 1066360000.0 211615000000.0 52670200000.0 142848000000.0 251731000000.0 77980700000.0 269742000000.0 402646000000.0 264470000000.0 255592000000.0 127157000000.0 261679000000.0 65495100000.0 123892000000.0 252272000000.0 261711000000.0 236477000000.0 185826000000.0 209030000000.0 156127000000.0 147795000000.0 9035750000.0 9374480000.0 30877600000.0 4080690000.0 9976250000.0 40456800000.0 47279900000.0 19445000000.0 75687700000.0 13963000000.0 134447000000.0 26121900000.0 131887000000.0 54172000000.0 517754000000.0 54165700000.0 131885000000.0 26122900000.0 134447000000.0 13963100000.0 75687700000.0 19444900000.0 47280100000.0 40456900000.0 9976330000.0 4080690000.0 30877700000.0 9374480000.0 9035750000.0 147795000000.0 156127000000.0 209030000000.0 185826000000.0 236477000000.0 261711000000.0 252273000000.0 123892000000.0 65495000000.0 261679000000.0 127157000000.0 255592000000.0 264470000000.0 402646000000.0 269742000000.0 77980700000.0 251731000000.0 126510000000.0 120950000000.0 172962000000.0 18698400000.0 103724000000.0 132649000000.0 210276000000.0 305472000000.0 246048000000.0 259023000000.0 93799900000.0 152233000000.0 21240200000.0 151148000000.0 205531000000.0 191372000000.0 163646000000.0 149667000000.0 180053000000.0 139210000000.0 126926000000.0 22482900000.0 19437000000.0 19438300000.0 22483700000.0 126926000000.0 139210000000.0 180053000000.0 149667000000.0 163646000000.0 191372000000.0 205532000000.0 151148000000.0 21240300000.0 152233000000.0 93799900000.0 259023000000.0 246048000000.0 305472000000.0 210276000000.0 132649000000.0 103724000000.0 18698300000.0 172962000000.0 120950000000.0 126510000000.0 137823000000.0 97752100000.0 59607700000.0 32520200000.0 12431100000.0 154728000000.0 166387000000.0 207186000000.0 122215000000.0 146927000000.0 121503000000.0 123789000000.0 123067000000.0 76979700000.0 13304700000.0 65716100000.0 102297000000.0 171589000000.0 250268000000.0 178224000000.0 115080000000.0 69016700000.0 68907700000.0 46651600000.0 11063700000.0 38797000000.0 2574810000.0 28086500000.0 55262000000.0 99597000000.0 434528000000.0 99597100000.0 55262100000.0 28086700000.0 2574390000.0 38797200000.0 11063800000.0 46651700000.0 68907800000.0 69016700000.0 115080000000.0 178224000000.0 250268000000.0 171589000000.0 102297000000.0 65716100000.0 13304700000.0 76979700000.0 123067000000.0 123789000000.0 121503000000.0 146927000000.0 122215000000.0 207186000000.0 166387000000.0 154728000000.0 12431100000.0 32520200000.0 59607700000.0 97752000000.0 137823000000.0 75253200000.0 72899700000.0 47343900000.0 32877700000.0 229799000000.0 212825000000.0 62425300000.0 42298300000.0 64700400000.0 75030600000.0 56664200000.0 93041800000.0 2007810000.0 63291600000.0 36588500000.0 2169520000.0 46031400000.0 24171200000.0 37019800000.0 32461700000.0 35948400000.0 3249020000.0 50345300000.0 2573640000.0 64924200000.0 323255000.0 112026000000.0 19080800000.0 439729000000.0 19080800000.0 112026000000.0 323356000.0 64925100000.0 2573430000.0 50345400000.0 3248980000.0 35948500000.0 32461800000.0 37019800000.0 24171200000.0 46031400000.0 2169530000.0 36588500000.0 63291600000.0 2007810000.0 93041800000.0 56664200000.0 75030600000.0 64700500000.0 42298300000.0 62425300000.0 212825000000.0 229799000000.0 32877700000.0 47343800000.0 72899700000.0 75253200000.0 76879900000.0 50309100000.0 127162000000.0 125235000000.0 139737000000.0 196007000000.0 156040000000.0 67457200000.0 23108700000.0 63804200000.0 96552500000.0 100190000000.0 82300500000.0 117060000000.0 117060000000.0 82300500000.0 100190000000.0 96552500000.0 63804200000.0 23108700000.0 67457200000.0 156040000000.0 196007000000.0 139737000000.0 125235000000.0 127162000000.0 50309100000.0 76879900000.0 52104100000.0 9627350000.0 31209300000.0 47860500000.0 15202400000.0 46174700000.0 113307000000.0 74169500000.0 103889000000.0 165301000000.0 139808000000.0 72351400000.0 42372800000.0 53799300000.0 67910900000.0 44391900000.0 40662100000.0 51934000000.0 26786500000.0 83028200000.0 112464000000.0 185027000000.0 129987000000.0 167482000000.0 136914000000.0 129597000000.0 112710000000.0 94446700000.0 97767200000.0 42809000000.0 86755900000.0 33252000000.0 77486600000.0 12703300000.0 71624300000.0 46569600000.0 71355700000.0 328074000000.0 71355700000.0 46569800000.0 71624300000.0 12702400000.0 77486400000.0 33251800000.0 86755700000.0 42808900000.0 97767200000.0 94446600000.0 112710000000.0 129597000000.0 136914000000.0 167482000000.0 129987000000.0 185027000000.0 112464000000.0 83028200000.0 26786500000.0 51934000000.0 40662100000.0 44391900000.0 67910900000.0 53799300000.0 42372800000.0 72351400000.0 139808000000.0 165301000000.0 103889000000.0 74169500000.0 113307000000.0 46174600000.0 15202400000.0 47860500000.0 31209300000.0 9627360000.0 52104100000.0 44351400000.0 29640400000.0 57542900000.0 40987200000.0 23785800000.0 22475500000.0 18954600000.0 29915200000.0 15254300000.0 43184600000.0 118003000000.0 77391000000.0 44445600000.0 41451100000.0 20893400000.0 19495500000.0 42202600000.0 93088100000.0 26234700000.0 37301000000.0 12149200000.0 7949230000.0 31633800000.0 8096840000.0 35736300000.0 8029250000.0 41165900000.0 6210270000.0 65063200000.0 6883250000.0 65861900000.0 6478080000.0 77017800000.0 5070090000.0 141753000000.0 9099930000.0 387802000000.0 9099930000.0 141753000000.0 5070090000.0 77018300000.0 6478050000.0 65861900000.0 6883250000.0 65063200000.0 6210270000.0 41165900000.0 8029250000.0 35736200000.0 8096840000.0 31633800000.0 7949230000.0 12149200000.0 37301000000.0 26234700000.0 93088100000.0 42202600000.0 19495500000.0 20893400000.0 41451100000.0 44445600000.0 77391000000.0 118003000000.0 43184600000.0 15254300000.0 29915200000.0 18954600000.0 22475500000.0 23785800000.0 40987200000.0 57542900000.0 29640400000.0 44351400000.0 173358000000.0 173358000000.0 33694000000.0 3358460000.0 7165680000.0 46966100000.0 52985100000.0 41618800000.0 42598500000.0 5015570000.0 17291400000.0 46567600.0 112035000000.0 30128900000.0 124845000000.0 185044000000.0 190916000000.0 197283000000.0 189260000000.0 177355000000.0 151203000000.0 218644000000.0 192057000000.0 166742000000.0 145391000000.0 95597900000.0 102310000000.0 51948000000.0 68675600000.0 18137800000.0 42292000000.0 26611000000.0 23574900000.0 43614900000.0 8680390000.0 68311300000.0 4782930000.0 141205000000.0 7470030000.0 345841000000.0 7470020000.0 141206000000.0 4782930000.0 68311600000.0 8680380000.0 43615000000.0 23574900000.0 26611000000.0 42291900000.0 18137800000.0 68675600000.0 51948000000.0 102310000000.0 95597900000.0 145391000000.0 166742000000.0 192057000000.0 218644000000.0 151203000000.0 177355000000.0 189260000000.0 197283000000.0 190916000000.0 185044000000.0 124845000000.0 30128800000.0 112035000000.0 46571900.0 17291400000.0 5015570000.0 42598500000.0 41618700000.0 52985100000.0 46966100000.0 7165690000.0 3358460000.0 33694000000.0 25673400000.0 14591300000.0 32187000000.0 10031300000.0 8205580000.0 26502900000.0 17151000000.0 54856300000.0 90356200000.0 114986000000.0 69487800000.0 81689600000.0 81210700000.0 57855300000.0 57936800000.0 52893200000.0 58072500000.0 63872600000.0 81720100000.0 24546800000.0 8746660000.0 28328300000.0 8465820000.0 43543100000.0 8470830000.0 48667000000.0 8523390000.0 50299000000.0 8481250000.0 68354700000.0 8611490000.0 68777600000.0 8722980000.0 79662000000.0 8463910000.0 136855000000.0 9035750000.0 307610000000.0 9035750000.0 136856000000.0 8463900000.0 79662100000.0 8722980000.0 68777600000.0 8611490000.0 68354700000.0 8481250000.0 50299000000.0 8523390000.0 48667000000.0 8470840000.0 43543100000.0 8465820000.0 28328300000.0 8746660000.0 24546800000.0 81720100000.0 63872600000.0 58072500000.0 52893200000.0 57936800000.0 57855300000.0 81210700000.0 81689600000.0 69487800000.0 114986000000.0 90356200000.0 54856300000.0 17151000000.0 26502900000.0 8205580000.0 10031300000.0 32187000000.0 14591300000.0 25673400000.0 29164700000.0 9463820000.0 9564090000.0 43395200000.0 59676000000.0 53983300000.0 64550300000.0 38582600000.0 23020800000.0 15346600000.0 170927000000.0 108924000000.0 68151900000.0 31576100000.0 29508300000.0 23942300000.0 29902200000.0 31746800000.0 40156900000.0 160797000.0 12626200000.0 14495400000.0 4308610000.0 33356000000.0 2061290000.0 45514800000.0 7570140000.0 50954900000.0 9035750000.0 66897100000.0 9035750000.0 68168800000.0 9035750000.0 80093500000.0 9035750000.0 130265000000.0 9035750000.0 273006000000.0 9035750000.0 130265000000.0 9035750000.0 80093600000.0 9035750000.0 68168800000.0 9035750000.0 66897200000.0 9035750000.0 50954900000.0 7570140000.0 45514800000.0 2061290000.0 33356000000.0 4308610000.0 14495400000.0 12626200000.0 160792000.0 40156900000.0 31746800000.0 29902200000.0 23942300000.0 29508400000.0 31576100000.0 68151900000.0 108924000000.0 170927000000.0 15346600000.0 23020800000.0 38582600000.0 64550300000.0 53983300000.0 59676000000.0 43395200000.0 9564090000.0 9463820000.0 29164700000.0 26287300000.0 9288000000.0 7934670000.0 35673600000.0 53437600000.0 50506400000.0 59553100000.0 39519700000.0 25173700000.0 14692000000.0 163842000000.0 128905000000.0 104058000000.0 75553000000.0 71556500000.0 63590400000.0 66489700000.0 61837400000.0 59700300000.0 27268600000.0 8847900000.0 34182200000.0 9035750000.0 42576500000.0 9035750000.0 49786200000.0 9035750000.0 50924300000.0 9035750000.0 65205700000.0 9035750000.0 67127500000.0 9035750000.0 79572900000.0 9035750000.0 122172000000.0 9035750000.0 241784000000.0 9035750000.0 122172000000.0 9035750000.0 79572900000.0 9035750000.0 67127500000.0 9035750000.0 65205700000.0 9035750000.0 50924300000.0 9035750000.0 49786200000.0 9035750000.0 42576500000.0 9035750000.0 34182200000.0 8847890000.0 27268700000.0 59700300000.0 61837400000.0 66489700000.0 63590400000.0 71556500000.0 75553000000.0 104058000000.0 128905000000.0 163842000000.0 14692000000.0 25173700000.0 39519700000.0 59553100000.0 50506400000.0 53437600000.0 35673700000.0 7934680000.0 9288000000.0 26287200000.0 25242400000.0 12046400000.0 12124400000.0 35989100000.0 55716800000.0 56663600000.0 65377400000.0 50547100000.0 40053500000.0 32916300000.0 159509000000.0 126052000000.0 102747000000.0 77330800000.0 72343200000.0 63248500000.0 64341800000.0 56319500000.0 49560100000.0 25811900000.0 8190400000.0 35071600000.0 9035750000.0 41197800000.0 9035750000.0 49491100000.0 9035750000.0 50690100000.0 9035750000.0 63643700000.0 9035750000.0 66049900000.0 9035750000.0 78279000000.0 9035750000.0 113768000000.0 9035750000.0 213687000000.0 9035750000.0 113768000000.0 9035750000.0 78279000000.0 9035750000.0 66049900000.0 9035750000.0 63643700000.0 9035750000.0 50690100000.0 9035750000.0 49491100000.0 9035750000.0 41197800000.0 9035750000.0 35071600000.0 8190400000.0 25811900000.0 49560100000.0 56319500000.0 64341800000.0 63248500000.0 72343200000.0 77330800000.0 102747000000.0 126052000000.0 159509000000.0 32916300000.0 40053500000.0 50547100000.0 65377400000.0 56663600000.0 55716800000.0 35989100000.0 12124400000.0 12046400000.0 25242400000.0 24549200000.0 12969800000.0 13206900000.0 32310500000.0 51863800000.0 55177100000.0 64888600000.0 54145000000.0 44002100000.0 26009900000.0 9035750000.0 35973000000.0 9035760000.0 39845500000.0 9035750000.0 49026500000.0 9035750000.0 50273700000.0 9035750000.0 61995000000.0 9035750000.0 64852400000.0 9035750000.0 76283800000.0 9035750000.0 105346000000.0 9035750000.0 188477000000.0 9035750000.0 105346000000.0 9035750000.0 76283800000.0 9035750000.0 64852400000.0 9035750000.0 61995000000.0 9035750000.0 50273700000.0 9035750000.0 49026500000.0 9035750000.0 39845500000.0 9035760000.0 35973000000.0 9035750000.0 26009900000.0 44002100000.0 54144900000.0 64888600000.0 55177100000.0 51863800000.0 32310500000.0 13206900000.0 12969800000.0 24549200000.0 63843200000.0 52646300000.0 44257300000.0 39488200000.0 147031000000.0 121069000000.0 102569000000.0 81481300000.0 76226400000.0 66097800000.0 66097800000.0 76226400000.0 81481300000.0 102569000000.0 121069000000.0 147031000000.0 39488200000.0 44257300000.0 52646300000.0 63843200000.0 24615100000.0 13792500000.0 14152800000.0 29295800000.0 47993500000.0 53094700000.0 61996200000.0 53552900000.0 47301800000.0 45228400000.0 134468000000.0 113729000000.0 98880600000.0 81607200000.0 76302600000.0 65385800000.0 62230600000.0 50096200000.0 38492100000.0 24836900000.0 9035760000.0 36016400000.0 9035760000.0 38537400000.0 9035760000.0 48384400000.0 9035750000.0 49677700000.0 9035760000.0 60180700000.0 9035750000.0 63463500000.0 9035760000.0 73706800000.0 9035750000.0 97087900000.0 9035750000.0 165933000000.0 9035750000.0 97087900000.0 9035750000.0 73706800000.0 9035760000.0 63463500000.0 9035750000.0 60180700000.0 9035760000.0 49677800000.0 9035750000.0 48384400000.0 9035760000.0 38537400000.0 9035760000.0 36016400000.0 9035760000.0 24836900000.0 38492100000.0 50096200000.0 62230600000.0 65385800000.0 76302600000.0 81607200000.0 98880600000.0 113729000000.0 134468000000.0 45228400000.0 47301800000.0 53552900000.0 61996200000.0 53094700000.0 47993500000.0 29295800000.0 14152800000.0 13792500000.0 24615100000.0 9035760000.0 9035760000.0 9035760000.0 9035760000.0 9035760000.0 9035750000.0 9035760000.0 9035750000.0 9035750000.0 9035750000.0 9035750000.0 9035760000.0 9035750000.0 9035760000.0 9035760000.0 9035760000.0 9035760000.0 9035760000.0 25148800000.0 14511700000.0 14959200000.0 26978100000.0 44069700000.0 50327300000.0 59384300000.0 52979800000.0 48569400000.0 49121600000.0 122101000000.0 105830000000.0 94245600000.0 80552500000.0 75378200000.0 63882200000.0 59004800000.0 46301900000.0 34243900000.0 23576000000.0 35692100000.0 37282400000.0 47557800000.0 48866000000.0 58203300000.0 61834100000.0 70660100000.0 89119800000.0 145843000000.0 89119800000.0 70660100000.0 61834100000.0 58203400000.0 48866000000.0 47557800000.0 37282400000.0 35692100000.0 23576000000.0 34243900000.0 46301900000.0 59004800000.0 63882200000.0 75378200000.0 80552500000.0 94245600000.0 105830000000.0 122101000000.0 49121600000.0 48569400000.0 52979800000.0 59384300000.0 50327300000.0 44069700000.0 26978100000.0 14959200000.0 14511700000.0 25148800000.0 25755600000.0 15125900000.0 15627500000.0 25343100000.0 40438700000.0 47371500000.0 56291500000.0 51529400000.0 48658200000.0 51667700000.0 110484000000.0 97823400000.0 89090300000.0 78673300000.0 73689800000.0 61844000000.0 55543400000.0 42896000000.0 30992200000.0 22378400000.0 9035760000.0 35090200000.0 9035760000.0 36074800000.0 9035760000.0 46550500000.0 9035760000.0 47824100000.0 9035760000.0 56095400000.0 9035750000.0 59939500000.0 9035760000.0 67254900000.0 9035750000.0 81527600000.0 9035750000.0 128004000000.0 9035750000.0 81527600000.0 9035750000.0 67254900000.0 9035760000.0 59939500000.0 9035750000.0 56095400000.0 9035760000.0 47824100000.0 9035760000.0 46550500000.0 9035760000.0 36074800000.0 9035760000.0 35090200000.0 9035760000.0 22378400000.0 30992200000.0 42896000000.0 55543400000.0 61844000000.0 73689800000.0 78673300000.0 89090300000.0 97823400000.0 110484000000.0 51667700000.0 48658200000.0 51529400000.0 56291500000.0 47371500000.0 40438700000.0 25343100000.0 15627500000.0 15125900000.0 25755600000.0 26167100000.0 15634700000.0 16160800000.0 24276000000.0 37211300000.0 44438500000.0 52939000000.0 49491000000.0 47890900000.0 53037900000.0 99809800000.0 90009600000.0 83732700000.0 76273100000.0 71519800000.0 59515800000.0 52076500000.0 39912900000.0 28480100000.0 21327000000.0 9035760000.0 34291600000.0 9035760000.0 34903200000.0 9035760000.0 45376800000.0 9035760000.0 46573200000.0 9035760000.0 53893800000.0 9035760000.0 57784700000.0 9035760000.0 63599200000.0 9035750000.0 74365000000.0 9035750000.0 112223000000.0 9035750000.0 74365000000.0 9035750000.0 63599200000.0 9035760000.0 57784700000.0 9035760000.0 53893800000.0 9035760000.0 46573200000.0 9035760000.0 45376800000.0 9035760000.0 34903200000.0 9035760000.0 34291600000.0 9035760000.0 21327000000.0 28480100000.0 39912900000.0 52076500000.0 59515800000.0 71519800000.0 76273100000.0 83732700000.0 90009600000.0 99809800000.0 53037900000.0 47890900000.0 49491000000.0 52939000000.0 44438500000.0 37211300000.0 24276000000.0 16160800000.0 15634700000.0 26167100000.0 26289900000.0 16038900000.0 16564800000.0 23631300000.0 34422500000.0 41654400000.0 49542200000.0 47083700000.0 46531600000.0 53414100000.0 90180100000.0 82594400000.0 78404700000.0 73559800000.0 69047400000.0 57048400000.0 48749000000.0 37330700000.0 26491700000.0 20442400000.0 9035760000.0 33358800000.0 9035760000.0 33757500000.0 9035760000.0 44055500000.0 9035760000.0 45150300000.0 9035760000.0 51629900000.0 9035760000.0 55401700000.0 9035760000.0 59789900000.0 9035750000.0 67663000000.0 9035750000.0 98311800000.0 9035750000.0 67663000000.0 9035750000.0 59789900000.0 9035760000.0 55401700000.0 9035760000.0 51629900000.0 9035760000.0 45150300000.0 9035760000.0 44055500000.0 9035760000.0 33757500000.0 9035760000.0 33358800000.0 9035760000.0 20442400000.0 26491700000.0 37330700000.0 48749000000.0 57048400000.0 69047400000.0 73559800000.0 78404700000.0 82594400000.0 90180100000.0 53414100000.0 46531600000.0 47083700000.0 49542200000.0 41654400000.0 34422500000.0 23631300000.0 16564800000.0 16038900000.0 26289900000.0 26128400000.0 16341700000.0 16846700000.0 23258000000.0 32053800000.0 39082200000.0 46259600000.0 44486700000.0 44779400000.0 52979300000.0 81616300000.0 75703100000.0 73265700000.0 70669800000.0 66388800000.0 54533400000.0 45635400000.0 35105400000.0 24846500000.0 19711400000.0 9035760000.0 32335900000.0 9035760000.0 32628900000.0 9035760000.0 42607200000.0 9035760000.0 43593100000.0 9035760000.0 49326800000.0 9035760000.0 52838300000.0 9035760000.0 55910600000.0 9035750000.0 61436000000.0 9035750000.0 86089600000.0 9035750000.0 61436000000.0 9035750000.0 55910500000.0 9035760000.0 52838300000.0 9035760000.0 49326800000.0 9035760000.0 43593100000.0 9035760000.0 42607200000.0 9035760000.0 32628900000.0 9035760000.0 32335900000.0 9035760000.0 19711400000.0 24846500000.0 35105400000.0 45635400000.0 54533400000.0 66388800000.0 70669800000.0 73265700000.0 75703100000.0 81616300000.0 52979300000.0 44779400000.0 44486700000.0 46259600000.0 39082200000.0 32053800000.0 23258000000.0 16846700000.0 16341700000.0 26128400000.0 25720800000.0 16547200000.0 17015000000.0 23023600000.0 30054800000.0 36742100000.0 43186000000.0 41839000000.0 42783400000.0 51909600000.0 74079000000.0 69395800000.0 68410000000.0 67686900000.0 63616200000.0 52022800000.0 42761300000.0 33177200000.0 23402900000.0 19107700000.0 9035760000.0 31253200000.0 9035760000.0 31510000000.0 9035760000.0 41054200000.0 9035760000.0 41934100000.0 9035760000.0 47001200000.0 9035760000.0 50148000000.0 9035760000.0 52032600000.0 9035750000.0 55687100000.0 9035750000.0 75385600000.0 9035750000.0 55687100000.0 9035750000.0 52032600000.0 9035760000.0 50148000000.0 9035760000.0 47001200000.0 9035760000.0 41934100000.0 9035760000.0 41054200000.0 9035760000.0 31510000000.0 9035760000.0 31253200000.0 9035760000.0 19107700000.0 23402900000.0 33177200000.0 42761300000.0 52022800000.0 63616200000.0 67686900000.0 68410000000.0 69395800000.0 74079000000.0 51909600000.0 42783400000.0 41839000000.0 43186000000.0 36742100000.0 30054800000.0 23023600000.0 17015000000.0 16547200000.0 25720800000.0 25114500000.0 16660300000.0 17078000000.0 22826300000.0 28361000000.0 34626300000.0 40365200000.0 39239500000.0 40656200000.0 50366000000.0 67485000000.0 63683200000.0 63880000000.0 64657300000.0 60772700000.0 49542500000.0 40124000000.0 31474700000.0 22075300000.0 18600800000.0 9035760000.0 30131800000.0 9035760000.0 30393900000.0 9035760000.0 39419300000.0 9035760000.0 40200300000.0 9035760000.0 44666400000.0 9035760000.0 47382200000.0 9035760000.0 48217300000.0 9035750000.0 50410200000.0 9035750000.0 66039300000.0 9035750000.0 50410200000.0 9035750000.0 48217300000.0 9035760000.0 47382200000.0 9035760000.0 44666400000.0 9035760000.0 40200300000.0 9035760000.0 39419300000.0 9035760000.0 30393900000.0 9035760000.0 30131800000.0 9035760000.0 18600800000.0 22075300000.0 31474700000.0 40124000000.0 49542500000.0 60772700000.0 64657400000.0 63880000000.0 63683200000.0 67485000000.0 50366000000.0 40656200000.0 39239500000.0 40365200000.0 34626300000.0 28361000000.0 22826300000.0 17078000000.0 16660300000.0 25114500000.0 24356600000.0 16686500000.0 17044600000.0 22594900000.0 26906100000.0 32711100000.0 37805200000.0 36751800000.0 38480900000.0 48488100000.0 61724200000.0 58540800000.0 59680200000.0 61603400000.0 57882400000.0 47101100000.0 37705500000.0 29928300000.0 20830400000.0 18160100000.0 9035760000.0 28986300000.0 9035760000.0 29275200000.0 9035760000.0 37724800000.0 9035760000.0 38414400000.0 9035760000.0 42334400000.0 9035760000.0 44587300000.0 9035760000.0 44515700000.0 9035750000.0 45592100000.0 9035750000.0 57901200000.0 9035750000.0 45592100000.0 9035750000.0 44515700000.0 9035760000.0 44587300000.0 9035760000.0 42334400000.0 9035760000.0 38414400000.0 9035760000.0 37724800000.0 9035760000.0 29275200000.0 9035760000.0 28986300000.0 9035760000.0 18160100000.0 20830400000.0 29928300000.0 37705500000.0 47101100000.0 57882400000.0 61603400000.0 59680200000.0 58540800000.0 61724200000.0 48488100000.0 38480900000.0 36751800000.0 37805200000.0 32711100000.0 26906100000.0 22594900000.0 17044600000.0 16686500000.0 24356600000.0 23490900000.0 16631500000.0 16923800000.0 22285800000.0 25629300000.0 30966100000.0 35491800000.0 34411900000.0 36316900000.0 46389500000.0 56675400000.0 53921500000.0 55791100000.0 58533000000.0 54958700000.0 44697000000.0 35478100000.0 28481500000.0 19664900000.0 17758000000.0 9035770000.0 27826700000.0 9035760000.0 28150000000.0 9035760000.0 35990700000.0 9035760000.0 36595100000.0 9035760000.0 40016600000.0 9035760000.0 41802900000.0 9035760000.0 40968500000.0 9035750000.0 41214300000.0 9035750000.0 50833900000.0 9035750000.0 41214300000.0 9035750000.0 40968500000.0 9035760000.0 41802900000.0 9035760000.0 40016600000.0 9035760000.0 36595100000.0 9035760000.0 35990700000.0 9035760000.0 28150000000.0 9035760000.0 27826700000.0 9035770000.0 17758000000.0 19664900000.0 28481500000.0 35478100000.0 44697000000.0 54958700000.0 58533000000.0 55791100000.0 53921500000.0 56675400000.0 46389500000.0 36316900000.0 34411900000.0 35491800000.0 30966100000.0 25629300000.0 22285800000.0 16923800000.0 16631500000.0 23490900000.0 22554800000.0 16501000000.0 16724600000.0 21879600000.0 24478200000.0 29359700000.0 33396900000.0 32233900000.0 34204100000.0 44157900000.0 52218300000.0 49764900000.0 52178300000.0 55447400000.0 52009700000.0 42324200000.0 33409700000.0 27095400000.0 18583400000.0 17371100000.0 9035770000.0 26659800000.0 9035760000.0 27016000000.0 9035760000.0 34234100000.0 9035760000.0 34758800000.0 9035760000.0 37724400000.0 9035760000.0 39061800000.0 9035760000.0 37606100000.0 9035750000.0 37254600000.0 9035750000.0 44711200000.0 9035750000.0 37254600000.0 9035750000.0 37606100000.0 9035760000.0 39061800000.0 9035760000.0 37724400000.0 9035760000.0 34758800000.0 9035760000.0 34234100000.0 9035760000.0 27016000000.0 9035760000.0 26659800000.0 9035770000.0 17371100000.0 18583400000.0 27095400000.0 33409700000.0 42324200000.0 52009700000.0 55447400000.0 52178300000.0 49764900000.0 52218300000.0 44157900000.0 34204100000.0 32233900000.0 33396900000.0 29359700000.0 24478200000.0 21879600000.0 16724600000.0 16501000000.0 22554800000.0 21579800000.0 16301200000.0 16455900000.0 21374400000.0 23410200000.0 27861600000.0 31485700000.0 30216700000.0 32166800000.0 41856600000.0 48241400000.0 46006100000.0 48800900000.0 52346900000.0 49042900000.0 39976000000.0 31468500000.0 25746400000.0 17588400000.0 16981800000.0 9035770000.0 25490200000.0 9035760000.0 25872300000.0 9035760000.0 32469100000.0 9035760000.0 32918800000.0 9035760000.0 35468200000.0 9035760000.0 36390000000.0 9035760000.0 34449300000.0 9035750000.0 33687700000.0 9035750000.0 39417900000.0 9035750000.0 33687700000.0 9035750000.0 34449300000.0 9035760000.0 36390000000.0 9035760000.0 35468200000.0 9035760000.0 32918800000.0 9035760000.0 32469100000.0 9035760000.0 25872300000.0 9035760000.0 25490200000.0 9035770000.0 16981800000.0 17588400000.0 25746400000.0 31468500000.0 39976000000.0 49042900000.0 52346900000.0 48800900000.0 46006100000.0 48241400000.0 41856600000.0 32166800000.0 30216700000.0 31485700000.0 27861600000.0 23410200000.0 21374400000.0 16455900000.0 16301200000.0 21579800000.0 20590600000.0 16038100000.0 16126600000.0 20778300000.0 22392100000.0 26444900000.0 29721300000.0 28348400000.0 30216800000.0 39528700000.0 44646400000.0 42580500000.0 45616500000.0 49233100000.0 46066500000.0 37648100000.0 29625900000.0 24422500000.0 16677700000.0 16577400000.0 9035770000.0 24321000000.0 9035760000.0 24719400000.0 9035760000.0 30707000000.0 9035760000.0 31086300000.0 9035760000.0 33257600000.0 9035760000.0 33807700000.0 9035760000.0 31510200000.0 9035750000.0 30486500000.0 9035750000.0 34849600000.0 9035750000.0 30486500000.0 9035750000.0 31510200000.0 9035760000.0 33807700000.0 9035760000.0 33257600000.0 9035760000.0 31086300000.0 9035760000.0 30707000000.0 9035760000.0 24719400000.0 9035760000.0 24321000000.0 9035770000.0 16577400000.0 16677700000.0 24422500000.0 29625900000.0 37648100000.0 46066500000.0 49233100000.0 45616500000.0 42580500000.0 44646400000.0 39528700000.0 30216800000.0 28348400000.0 29721300000.0 26444900000.0 22392100000.0 20778300000.0 16126600000.0 16038100000.0 20590600000.0 19605700000.0 15718000000.0 15745100000.0 20103600000.0 21400100000.0 25086700000.0 28068100000.0 26610800000.0 28355900000.0 37200700000.0 41349600000.0 39428000000.0 42585000000.0 46110200000.0 43090200000.0 35338700000.0 27858700000.0 23119700000.0 15845400000.0 16150400000.0 9035770000.0 23154200000.0 9035760000.0 23558500000.0 9035760000.0 28956300000.0 9035760000.0 29270300000.0 9035760000.0 31100500000.0 9035760000.0 31329200000.0 9035760000.0 28793200000.0 9035750000.0 27622600000.0 9035750000.0 30911800000.0 9035750000.0 27622600000.0 9035750000.0 28793200000.0 9035760000.0 31329200000.0 9035760000.0 31100500000.0 9035760000.0 29270300000.0 9035760000.0 28956300000.0 9035760000.0 23558500000.0 9035760000.0 23154200000.0 9035770000.0 16150400000.0 15845400000.0 23119700000.0 27858700000.0 35338700000.0 43090200000.0 46110200000.0 42585000000.0 39428000000.0 41349600000.0 37200700000.0 28355900000.0 26610800000.0 28068100000.0 25086700000.0 21400100000.0 20103600000.0 15745100000.0 15718000000.0 19605700000.0 15319500000.0 19363300000.0 20418300000.0 40125000000.0 33049200000.0 26149700000.0 21838500000.0 15083600000.0 15696500000.0 9035770000.0 21991400000.0 9035760000.0 22391300000.0 9035760000.0 27223400000.0 9035760000.0 27477900000.0 9035760000.0 29003000000.0 9035760000.0 28964300000.0 9035760000.0 26296900000.0 9035750000.0 25066700000.0 9035750000.0 27519900000.0 9035750000.0 25066700000.0 9035750000.0 26296900000.0 9035760000.0 28964300000.0 9035760000.0 29003000000.0 9035760000.0 27477900000.0 9035760000.0 27223400000.0 9035760000.0 22391300000.0 9035760000.0 21991400000.0 9035770000.0 15696500000.0 15083600000.0 21838500000.0 26149700000.0 33049200000.0 40125000000.0 20418300000.0 19363300000.0 15319500000.0 18637700000.0 15346800000.0 23768100000.0 26493800000.0 24982600000.0 26579300000.0 34887000000.0 38282300000.0 36495100000.0 39670900000.0 42985100000.0 42985100000.0 39670900000.0 36495100000.0 38282300000.0 34887000000.0 26579300000.0 24982600000.0 26493800000.0 23768100000.0 15346800000.0 18637700000.0 17694000000.0 14930200000.0 14857100000.0 18570000000.0 19437100000.0 22474300000.0 24971000000.0 23442200000.0 24877900000.0 32592900000.0 35389200000.0 33735500000.0 36844300000.0 39866300000.0 37182100000.0 30782900000.0 24487300000.0 20581900000.0 14383600000.0 15214800000.0 9035760000.0 20833300000.0 9035760000.0 21219700000.0 9035760000.0 25512800000.0 9035760000.0 25714100000.0 9035760000.0 26969400000.0 9035760000.0 26718000000.0 9035760000.0 24014500000.0 9035750000.0 22789600000.0 9035750000.0 24598100000.0 9035750000.0 22789600000.0 9035750000.0 24014500000.0 9035760000.0 26718000000.0 9035760000.0 26969400000.0 9035760000.0 25714100000.0 9035760000.0 25512800000.0 9035760000.0 21219700000.0 9035760000.0 20833300000.0 9035760000.0 15214800000.0 14383600000.0 20581900000.0 24487300000.0 30782900000.0 37182100000.0 39866300000.0 36844300000.0 33735500000.0 35389200000.0 32592900000.0 24877900000.0 23442200000.0 24971000000.0 22474300000.0 19437100000.0 18570000000.0 14857100000.0 14930200000.0 17694000000.0 16777700000.0 14473800000.0 14364500000.0 17734700000.0 18451900000.0 21194500000.0 23477000000.0 21968800000.0 23239900000.0 30318200000.0 32627000000.0 31111000000.0 34081400000.0 36763100000.0 34272000000.0 28544200000.0 22864700000.0 19352800000.0 13736500000.0 14705700000.0 9035760000.0 19680500000.0 9035760000.0 20045800000.0 9035760000.0 23827600000.0 9035760000.0 23982300000.0 9035760000.0 25001900000.0 9035760000.0 24591500000.0 9035760000.0 21935200000.0 9035750000.0 20762500000.0 9035750000.0 22078700000.0 9035750000.0 20762500000.0 9035750000.0 21935200000.0 9035760000.0 24591500000.0 9035760000.0 25001900000.0 9035760000.0 23982300000.0 9035760000.0 23827600000.0 9035760000.0 20045800000.0 9035760000.0 19680500000.0 9035760000.0 14705700000.0 13736500000.0 19352800000.0 22864700000.0 28544200000.0 34272000000.0 36763100000.0 34081400000.0 31111000000.0 32627000000.0 30318200000.0 23239900000.0 21968800000.0 23477000000.0 21194500000.0 18451900000.0 17734700000.0 14364500000.0 14473800000.0 16777700000.0 15889000000.0 13982700000.0 13847500000.0 16867200000.0 17461200000.0 19920500000.0 21994500000.0 20544100000.0 21653200000.0 28059100000.0 29962400000.0 28590100000.0 31363800000.0 33684400000.0 31403900000.0 26337400000.0 21278100000.0 18153700000.0 13134500000.0 14171400000.0 9035760000.0 18533500000.0 9035760000.0 18871500000.0 9035760000.0 22169300000.0 9035760000.0 22284200000.0 9035760000.0 23100500000.0 9035760000.0 22582700000.0 9035760000.0 20045100000.0 9035750000.0 18957200000.0 9035750000.0 19901900000.0 9035750000.0 18957200000.0 9035750000.0 20045100000.0 9035760000.0 22582700000.0 9035760000.0 23100500000.0 9035760000.0 22284200000.0 9035760000.0 22169300000.0 9035760000.0 18871500000.0 9035760000.0 18533500000.0 9035760000.0 14171400000.0 13134500000.0 18153700000.0 21278100000.0 26337500000.0 31403900000.0 33684400000.0 31363800000.0 28590100000.0 29962400000.0 28059100000.0 21653200000.0 20544100000.0 21994500000.0 19920500000.0 17461200000.0 16867200000.0 13847500000.0 13982700000.0 15889000000.0 15025600000.0 13461800000.0 13311400000.0 15975500000.0 16465800000.0 18647200000.0 20510700000.0 19152700000.0 20105900000.0 25810700000.0 27370200000.0 26148000000.0 28678000000.0 30637800000.0 28584600000.0 24166400000.0 19726000000.0 16985400000.0 12570400000.0 13614400000.0 9035760000.0 17392400000.0 9035760000.0 17698100000.0 9035760000.0 20538300000.0 9035760000.0 20620300000.0 9035760000.0 21263500000.0 9035750000.0 20686500000.0 9035760000.0 18327900000.0 9035750000.0 17346700000.0 9035750000.0 18014300000.0 9035750000.0 17346700000.0 9035750000.0 18327900000.0 9035760000.0 20686500000.0 9035750000.0 21263500000.0 9035760000.0 20620300000.0 9035760000.0 20538300000.0 9035760000.0 17698100000.0 9035760000.0 17392400000.0 9035760000.0 13614400000.0 12570400000.0 16985400000.0 19726000000.0 24166400000.0 28584600000.0 30637800000.0 28678000000.0 26148000000.0 27370200000.0 25810700000.0 20105900000.0 19152700000.0 20510700000.0 18647200000.0 16465800000.0 15975500000.0 13311400000.0 13461800000.0 15025600000.0 14184200000.0 12915500000.0 12760400000.0 15066400000.0 15467200000.0 17371200000.0 19017300000.0 17782300000.0 18587400000.0 23567800000.0 24831600000.0 23764900000.0 26014200000.0 27628500000.0 25818200000.0 22033500000.0 18207300000.0 15847400000.0 12037900000.0 13037700000.0 9035760000.0 16257100000.0 9035760000.0 16526900000.0 9035760000.0 18933800000.0 9035760000.0 18989500000.0 9035760000.0 19487300000.0 9035750000.0 18895000000.0 9035760000.0 16765500000.0 9035750000.0 15904900000.0 9035750000.0 16368400000.0 9035750000.0 15904900000.0 9035750000.0 16765500000.0 9035760000.0 18895000000.0 9035750000.0 19487300000.0 9035760000.0 18989500000.0 9035760000.0 18933800000.0 9035760000.0 16526900000.0 9035760000.0 16257100000.0 9035760000.0 13037700000.0 12037900000.0 15847400000.0 18207300000.0 22033500000.0 25818200000.0 27628500000.0 26014200000.0 23764900000.0 24831600000.0 23567800000.0 18587400000.0 17782300000.0 19017300000.0 17371200000.0 15467200000.0 15066400000.0 12760400000.0 12915500000.0 14184200000.0 13360800000.0 12348000000.0 12198100000.0 14145000000.0 14467300000.0 16090900000.0 17509200000.0 16423600000.0 17088700000.0 21326000000.0 22332500000.0 21425700000.0 23365600000.0 24659400000.0 23105600000.0 19939000000.0 16720900000.0 14738100000.0 11531500000.0 12444300000.0 9035760000.0 15127400000.0 9035760000.0 15358600000.0 9035760000.0 17354200000.0 9035760000.0 17389600000.0 9035760000.0 17767000000.0 9035750000.0 17198500000.0 9035760000.0 15338500000.0 9035750000.0 14606500000.0 9035750000.0 14922000000.0 9035750000.0 14606500000.0 9035750000.0 15338500000.0 9035760000.0 17198500000.0 9035750000.0 17767000000.0 9035760000.0 17389600000.0 9035760000.0 17354200000.0 9035760000.0 15358600000.0 9035760000.0 15127400000.0 9035760000.0 12444300000.0 11531500000.0 14738100000.0 16720900000.0 19939000000.0 23105600000.0 24659400000.0 23365600000.0 21425700000.0 22332500000.0 21326000000.0 17088700000.0 16423600000.0 17509200000.0 16090900000.0 14467300000.0 14145000000.0 12198100000.0 12348000000.0 13360800000.0 12551600000.0 11763100000.0 11627500000.0 13215500000.0 13467800000.0 14805700000.0 15984600000.0 15070100000.0 15602700000.0 19081900000.0 19862300000.0 19118700000.0 20727500000.0 21730100000.0 20444800000.0 17881600000.0 15264800000.0 13654700000.0 11046400000.0 11837100000.0 9035760000.0 14002800000.0 9035760000.0 14193600000.0 9035760000.0 15796800000.0 9035750000.0 15817700000.0 9035750000.0 16096000000.0 9035750000.0 15585000000.0 9035750000.0 14026700000.0 9035750000.0 13427600000.0 9035750000.0 13637200000.0 9035750000.0 13427600000.0 9035750000.0 14026700000.0 9035750000.0 15585000000.0 9035750000.0 16096000000.0 9035750000.0 15817700000.0 9035750000.0 15796800000.0 9035760000.0 14193600000.0 9035760000.0 14002800000.0 9035760000.0 11837100000.0 11046400000.0 13654700000.0 15264800000.0 17881600000.0 20444800000.0 21730100000.0 20727500000.0 19118700000.0 19862300000.0 19081900000.0 15602700000.0 15070100000.0 15984600000.0 14805700000.0 13467800000.0 13215500000.0 11627500000.0 11763100000.0 12551600000.0 11752900000.0 11164400000.0 11050800000.0 12280700000.0 12469800000.0 13515800000.0 14443800000.0 13717700000.0 14124100000.0 16833600000.0 17413100000.0 16834800000.0 18096600000.0 18837700000.0 17830800000.0 15857700000.0 13835800000.0 12593700000.0 10578200000.0 11219000000.0 9035760000.0 12882700000.0 9035760000.0 13031700000.0 9035760000.0 14258500000.0 9035750000.0 14269500000.0 9035750000.0 14466700000.0 9035750000.0 14041400000.0 9035750000.0 12809500000.0 9035750000.0 12344900000.0 9035750000.0 12479600000.0 9035750000.0 12344900000.0 9035750000.0 12809500000.0 9035750000.0 14041400000.0 9035750000.0 14466700000.0 9035750000.0 14269500000.0 9035750000.0 14258500000.0 9035760000.0 13031700000.0 9035760000.0 12882700000.0 9035760000.0 11219000000.0 10578200000.0 12593700000.0 13835800000.0 15857700000.0 17830800000.0 18837700000.0 18096600000.0 16834800000.0 17413100000.0 16833600000.0 14124100000.0 13717700000.0 14443800000.0 13515800000.0 12469800000.0 12280700000.0 11050800000.0 11164400000.0 11752900000.0 10961600000.0 10555300000.0 10470000000.0 11342900000.0 11473700000.0 12221800000.0 12888900000.0 12364200000.0 12649500000.0 14580400000.0 14978500000.0 14566800000.0 15470500000.0 15976600000.0 15255700000.0 13861800000.0 12429400000.0 11550600000.0 10122800000.0 10592600000.0 9035760000.0 11766200000.0 9035760000.0 11872600000.0 9035750000.0 12735500000.0 9035750000.0 12740500000.0 9035750000.0 12870700000.0 9035750000.0 12553000000.0 9035750000.0 11665700000.0 9035750000.0 11336000000.0 9035750000.0 11417600000.0 9035750000.0 11336000000.0 9035750000.0 11665700000.0 9035750000.0 12553000000.0 9035750000.0 12870700000.0 9035750000.0 12740500000.0 9035750000.0 12735500000.0 9035750000.0 11872600000.0 9035760000.0 11766200000.0 9035760000.0 10592600000.0 10122800000.0 11550600000.0 12429400000.0 13861800000.0 15255700000.0 15976600000.0 15470500000.0 14566800000.0 14978500000.0 14580400000.0 12649500000.0 12364200000.0 12888900000.0 12221800000.0 11473700000.0 11342900000.0 10470000000.0 10555300000.0 10961600000.0 10175100000.0 9938760000.0 9886440000.0 10403200000.0 10479400000.0 10924600000.0 11323000000.0 11008700000.0 11176400000.0 12322800000.0 12553400000.0 12309200000.0 12847300000.0 13139000000.0 12709700000.0 11886900000.0 11039800000.0 10520700000.0 9676410000.0 9960330000.0 9035750000.0 10652500000.0 9035750000.0 10715700000.0 9035750000.0 11223600000.0 9035750000.0 11225400000.0 9035750000.0 11298700000.0 9035750000.0 11104400000.0 9035750000.0 10574200000.0 9035750000.0 10379100000.0 9035750000.0 10422200000.0 9035750000.0 10379100000.0 9035750000.0 10574200000.0 9035750000.0 11104400000.0 9035750000.0 11298700000.0 9035750000.0 11225400000.0 9035750000.0 11223600000.0 9035750000.0 10715700000.0 9035750000.0 10652500000.0 9035750000.0 9960330000.0 9676410000.0 10520700000.0 11039800000.0 11886900000.0 12709700000.0 13139000000.0 12847300000.0 12309200000.0 12553400000.0 12322800000.0 11176400000.0 11008700000.0 11323000000.0 10924600000.0 10479400000.0 10403200000.0 9886440000.0 9938760000.0 10175100000.0 9391170000.0 9317950000.0 9301400000.0 9462660000.0 9486280000.0 9625500000.0 9750220000.0 9651720000.0 9703900000.0 10062000000.0 10133400000.0 10057100000.0 10225400000.0 10315500000.0 10181200000.0 9924780000.0 9660520000.0 9498660000.0 9235320000.0 9324610000.0 9035750000.0 9540280000.0 9035750000.0 9560030000.0 9035750000.0 9718160000.0 9035750000.0 9718610000.0 9035750000.0 9741010000.0 9035750000.0 9679650000.0 9035750000.0 9513560000.0 9035750000.0 9452680000.0 9035750000.0 9465510000.0 9035750000.0 9452680000.0 9035750000.0 9513560000.0 9035750000.0 9679650000.0 9035750000.0 9741010000.0 9035750000.0 9718610000.0 9035750000.0 9718160000.0 9035750000.0 9560030000.0 9035750000.0 9540280000.0 9035750000.0 9324610000.0 9235320000.0 9498660000.0 9660520000.0 9924780000.0 10181200000.0 10315500000.0 10225400000.0 10057100000.0 10133400000.0 10062000000.0 9703900000.0 9651720000.0 9750220000.0 9625500000.0 9486280000.0 9462660000.0 9301400000.0 9317950000.0 9391170000.0 