# vtk DataFile Version 2.0
Time step 0
ASCII
DATASET UNSTRUCTURED_GRID
POINTS 4650 float
102000.0 502000.0 0
106000.0 502000.0 0
110000.0 502000.0 0
114000.0 502000.0 0
118000.0 502000.0 0
122000.0 502000.0 0
126000.0 502000.0 0
130000.0 502000.0 0
134000.0 502000.0 0
138000.0 502000.0 0
142000.0 502000.0 0
146000.0 502000.0 0
150000.0 502000.0 0
154000.0 502000.0 0
158000.0 502000.0 0
162000.0 502000.0 0
166000.0 502000.0 0
170000.0 502000.0 0
174000.0 502000.0 0
178000.0 502000.0 0
182000.0 502000.0 0
186000.0 502000.0 0
190000.0 502000.0 0
194000.0 502000.0 0
198000.0 502000.0 0
202000.0 502000.0 0
206000.0 502000.0 0
210000.0 502000.0 0
214000.0 502000.0 0
218000.0 502000.0 0
222000.0 502000.0 0
226000.0 502000.0 0
230000.0 502000.0 0
234000.0 502000.0 0
238000.0 502000.0 0
242000.0 502000.0 0
246000.0 502000.0 0
250000.0 502000.0 0
254000.0 502000.0 0
258000.0 502000.0 0
262000.0 502000.0 0
266000.0 502000.0 0
270000.0 502000.0 0
274000.0 502000.0 0
278000.0 502000.0 0
282000.0 502000.0 0
286000.0 502000.0 0
290000.0 502000.0 0
294000.0 502000.0 0
298000.0 502000.0 0
302000.0 502000.0 0
306000.0 502000.0 0
310000.0 502000.0 0
314000.0 502000.0 0
318000.0 502000.0 0
322000.0 502000.0 0
326000.0 502000.0 0
330000.0 502000.0 0
334000.0 502000.0 0
338000.0 502000.0 0
342000.0 502000.0 0
346000.0 502000.0 0
350000.0 502000.0 0
354000.0 502000.0 0
358000.0 502000.0 0
362000.0 502000.0 0
366000.0 502000.0 0
370000.0 502000.0 0
374000.0 502000.0 0
378000.0 502000.0 0
382000.0 502000.0 0
386000.0 502000.0 0
390000.0 502000.0 0
394000.0 502000.0 0
398000.0 502000.0 0
102000.0 506000.0 0
106000.0 506000.0 0
110000.0 506000.0 0
114000.0 506000.0 0
118000.0 506000.0 0
122000.0 506000.0 0
126000.0 506000.0 0
130000.0 506000.0 0
134000.0 506000.0 0
138000.0 506000.0 0
142000.0 506000.0 0
146000.0 506000.0 0
150000.0 506000.0 0
154000.0 506000.0 0
158000.0 506000.0 0
162000.0 506000.0 0
166000.0 506000.0 0
170000.0 506000.0 0
174000.0 506000.0 0
178000.0 506000.0 0
182000.0 506000.0 0
186000.0 506000.0 0
190000.0 506000.0 0
194000.0 506000.0 0
198000.0 506000.0 0
202000.0 506000.0 0
206000.0 506000.0 0
210000.0 506000.0 0
214000.0 506000.0 0
218000.0 506000.0 0
222000.0 506000.0 0
226000.0 506000.0 0
230000.0 506000.0 0
234000.0 506000.0 0
238000.0 506000.0 0
242000.0 506000.0 0
246000.0 506000.0 0
250000.0 506000.0 0
254000.0 506000.0 0
258000.0 506000.0 0
262000.0 506000.0 0
266000.0 506000.0 0
270000.0 506000.0 0
274000.0 506000.0 0
278000.0 506000.0 0
282000.0 506000.0 0
286000.0 506000.0 0
290000.0 506000.0 0
294000.0 506000.0 0
298000.0 506000.0 0
302000.0 506000.0 0
306000.0 506000.0 0
310000.0 506000.0 0
314000.0 506000.0 0
318000.0 506000.0 0
322000.0 506000.0 0
326000.0 506000.0 0
330000.0 506000.0 0
334000.0 506000.0 0
338000.0 506000.0 0
342000.0 506000.0 0
346000.0 506000.0 0
350000.0 506000.0 0
354000.0 506000.0 0
358000.0 506000.0 0
362000.0 506000.0 0
366000.0 506000.0 0
370000.0 506000.0 0
374000.0 506000.0 0
378000.0 506000.0 0
382000.0 506000.0 0
386000.0 506000.0 0
390000.0 506000.0 0
394000.0 506000.0 0
398000.0 506000.0 0
102000.0 510000.0 0
106000.0 510000.0 0
110000.0 510000.0 0
114000.0 510000.0 0
118000.0 510000.0 0
122000.0 510000.0 0
126000.0 510000.0 0
130000.0 510000.0 0
134000.0 510000.0 0
138000.0 510000.0 0
142000.0 510000.0 0
146000.0 510000.0 0
150000.0 510000.0 0
154000.0 510000.0 0
158000.0 510000.0 0
162000.0 510000.0 0
166000.0 510000.0 0
170000.0 510000.0 0
174000.0 510000.0 0
178000.0 510000.0 0
182000.0 510000.0 0
186000.0 510000.0 0
190000.0 510000.0 0
194000.0 510000.0 0
198000.0 510000.0 0
202000.0 510000.0 0
206000.0 510000.0 0
210000.0 510000.0 0
214000.0 510000.0 0
218000.0 510000.0 0
222000.0 510000.0 0
226000.0 510000.0 0
230000.0 510000.0 0
234000.0 510000.0 0
238000.0 510000.0 0
242000.0 510000.0 0
246000.0 510000.0 0
250000.0 510000.0 0
254000.0 510000.0 0
258000.0 510000.0 0
262000.0 510000.0 0
266000.0 510000.0 0
270000.0 510000.0 0
274000.0 510000.0 0
278000.0 510000.0 0
282000.0 510000.0 0
286000.0 510000.0 0
290000.0 510000.0 0
294000.0 510000.0 0
298000.0 510000.0 0
302000.0 510000.0 0
306000.0 510000.0 0
310000.0 510000.0 0
314000.0 510000.0 0
318000.0 510000.0 0
322000.0 510000.0 0
326000.0 510000.0 0
330000.0 510000.0 0
334000.0 510000.0 0
338000.0 510000.0 0
342000.0 510000.0 0
346000.0 510000.0 0
350000.0 510000.0 0
354000.0 510000.0 0
358000.0 510000.0 0
362000.0 510000.0 0
366000.0 510000.0 0
370000.0 510000.0 0
374000.0 510000.0 0
378000.0 510000.0 0
382000.0 510000.0 0
386000.0 510000.0 0
390000.0 510000.0 0
394000.0 510000.0 0
398000.0 510000.0 0
102000.0 514000.0 0
106000.0 514000.0 0
110000.0 514000.0 0
114000.0 514000.0 0
118000.0 514000.0 0
122000.0 514000.0 0
126000.0 514000.0 0
130000.0 514000.0 0
134000.0 514000.0 0
138000.0 514000.0 0
142000.0 514000.0 0
146000.0 514000.0 0
150000.0 514000.0 0
154000.0 514000.0 0
158000.0 514000.0 0
162000.0 514000.0 0
166000.0 514000.0 0
170000.0 514000.0 0
174000.0 514000.0 0
178000.0 514000.0 0
182000.0 514000.0 0
186000.0 514000.0 0
190000.0 514000.0 0
194000.0 514000.0 0
198000.0 514000.0 0
202000.0 514000.0 0
206000.0 514000.0 0
210000.0 514000.0 0
214000.0 514000.0 0
218000.0 514000.0 0
222000.0 514000.0 0
226000.0 514000.0 0
230000.0 514000.0 0
234000.0 514000.0 0
238000.0 514000.0 0
242000.0 514000.0 0
246000.0 514000.0 0
250000.0 514000.0 0
254000.0 514000.0 0
258000.0 514000.0 0
262000.0 514000.0 0
266000.0 514000.0 0
270000.0 514000.0 0
274000.0 514000.0 0
278000.0 514000.0 0
282000.0 514000.0 0
286000.0 514000.0 0
290000.0 514000.0 0
294000.0 514000.0 0
298000.0 514000.0 0
302000.0 514000.0 0
306000.0 514000.0 0
310000.0 514000.0 0
314000.0 514000.0 0
318000.0 514000.0 0
322000.0 514000.0 0
326000.0 514000.0 0
330000.0 514000.0 0
334000.0 514000.0 0
338000.0 514000.0 0
342000.0 514000.0 0
346000.0 514000.0 0
350000.0 514000.0 0
354000.0 514000.0 0
358000.0 514000.0 0
362000.0 514000.0 0
366000.0 514000.0 0
370000.0 514000.0 0
374000.0 514000.0 0
378000.0 514000.0 0
382000.0 514000.0 0
386000.0 514000.0 0
390000.0 514000.0 0
394000.0 514000.0 0
398000.0 514000.0 0
102000.0 518000.0 0
106000.0 518000.0 0
110000.0 518000.0 0
114000.0 518000.0 0
118000.0 518000.0 0
122000.0 518000.0 0
126000.0 518000.0 0
130000.0 518000.0 0
134000.0 518000.0 0
138000.0 518000.0 0
142000.0 518000.0 0
146000.0 518000.0 0
150000.0 518000.0 0
154000.0 518000.0 0
158000.0 518000.0 0
162000.0 518000.0 0
166000.0 518000.0 0
170000.0 518000.0 0
174000.0 518000.0 0
178000.0 518000.0 0
182000.0 518000.0 0
186000.0 518000.0 0
190000.0 518000.0 0
194000.0 518000.0 0
198000.0 518000.0 0
202000.0 518000.0 0
206000.0 518000.0 0
210000.0 518000.0 0
214000.0 518000.0 0
218000.0 518000.0 0
222000.0 518000.0 0
226000.0 518000.0 0
230000.0 518000.0 0
234000.0 518000.0 0
238000.0 518000.0 0
242000.0 518000.0 0
246000.0 518000.0 0
250000.0 518000.0 0
254000.0 518000.0 0
258000.0 518000.0 0
262000.0 518000.0 0
266000.0 518000.0 0
270000.0 518000.0 0
274000.0 518000.0 0
278000.0 518000.0 0
282000.0 518000.0 0
286000.0 518000.0 0
290000.0 518000.0 0
294000.0 518000.0 0
298000.0 518000.0 0
302000.0 518000.0 0
306000.0 518000.0 0
310000.0 518000.0 0
314000.0 518000.0 0
318000.0 518000.0 0
322000.0 518000.0 0
326000.0 518000.0 0
330000.0 518000.0 0
334000.0 518000.0 0
338000.0 518000.0 0
342000.0 518000.0 0
346000.0 518000.0 0
350000.0 518000.0 0
354000.0 518000.0 0
358000.0 518000.0 0
362000.0 518000.0 0
366000.0 518000.0 0
370000.0 518000.0 0
374000.0 518000.0 0
378000.0 518000.0 0
382000.0 518000.0 0
386000.0 518000.0 0
390000.0 518000.0 0
394000.0 518000.0 0
398000.0 518000.0 0
102000.0 522000.0 0
106000.0 522000.0 0
110000.0 522000.0 0
114000.0 522000.0 0
118000.0 522000.0 0
122000.0 522000.0 0
126000.0 522000.0 0
130000.0 522000.0 0
134000.0 522000.0 0
138000.0 522000.0 0
142000.0 522000.0 0
146000.0 522000.0 0
150000.0 522000.0 0
154000.0 522000.0 0
158000.0 522000.0 0
162000.0 522000.0 0
166000.0 522000.0 0
170000.0 522000.0 0
174000.0 522000.0 0
178000.0 522000.0 0
182000.0 522000.0 0
186000.0 522000.0 0
190000.0 522000.0 0
194000.0 522000.0 0
198000.0 522000.0 0
202000.0 522000.0 0
206000.0 522000.0 0
210000.0 522000.0 0
214000.0 522000.0 0
218000.0 522000.0 0
222000.0 522000.0 0
226000.0 522000.0 0
230000.0 522000.0 0
234000.0 522000.0 0
238000.0 522000.0 0
242000.0 522000.0 0
246000.0 522000.0 0
250000.0 522000.0 0
254000.0 522000.0 0
258000.0 522000.0 0
262000.0 522000.0 0
266000.0 522000.0 0
270000.0 522000.0 0
274000.0 522000.0 0
278000.0 522000.0 0
282000.0 522000.0 0
286000.0 522000.0 0
290000.0 522000.0 0
294000.0 522000.0 0
298000.0 522000.0 0
302000.0 522000.0 0
306000.0 522000.0 0
310000.0 522000.0 0
314000.0 522000.0 0
318000.0 522000.0 0
322000.0 522000.0 0
326000.0 522000.0 0
330000.0 522000.0 0
334000.0 522000.0 0
338000.0 522000.0 0
342000.0 522000.0 0
346000.0 522000.0 0
350000.0 522000.0 0
354000.0 522000.0 0
358000.0 522000.0 0
362000.0 522000.0 0
366000.0 522000.0 0
370000.0 522000.0 0
374000.0 522000.0 0
378000.0 522000.0 0
382000.0 522000.0 0
386000.0 522000.0 0
390000.0 522000.0 0
394000.0 522000.0 0
398000.0 522000.0 0
102000.0 526000.0 0
106000.0 526000.0 0
110000.0 526000.0 0
114000.0 526000.0 0
118000.0 526000.0 0
122000.0 526000.0 0
126000.0 526000.0 0
130000.0 526000.0 0
134000.0 526000.0 0
138000.0 526000.0 0
142000.0 526000.0 0
146000.0 526000.0 0
150000.0 526000.0 0
154000.0 526000.0 0
158000.0 526000.0 0
162000.0 526000.0 0
166000.0 526000.0 0
170000.0 526000.0 0
174000.0 526000.0 0
178000.0 526000.0 0
182000.0 526000.0 0
186000.0 526000.0 0
190000.0 526000.0 0
194000.0 526000.0 0
198000.0 526000.0 0
202000.0 526000.0 0
206000.0 526000.0 0
210000.0 526000.0 0
214000.0 526000.0 0
218000.0 526000.0 0
222000.0 526000.0 0
226000.0 526000.0 0
230000.0 526000.0 0
234000.0 526000.0 0
238000.0 526000.0 0
242000.0 526000.0 0
246000.0 526000.0 0
250000.0 526000.0 0
254000.0 526000.0 0
258000.0 526000.0 0
262000.0 526000.0 0
266000.0 526000.0 0
270000.0 526000.0 0
274000.0 526000.0 0
278000.0 526000.0 0
282000.0 526000.0 0
286000.0 526000.0 0
290000.0 526000.0 0
294000.0 526000.0 0
298000.0 526000.0 0
302000.0 526000.0 0
306000.0 526000.0 0
310000.0 526000.0 0
314000.0 526000.0 0
318000.0 526000.0 0
322000.0 526000.0 0
326000.0 526000.0 0
330000.0 526000.0 0
334000.0 526000.0 0
338000.0 526000.0 0
342000.0 526000.0 0
346000.0 526000.0 0
350000.0 526000.0 0
354000.0 526000.0 0
358000.0 526000.0 0
362000.0 526000.0 0
366000.0 526000.0 0
370000.0 526000.0 0
374000.0 526000.0 0
378000.0 526000.0 0
382000.0 526000.0 0
386000.0 526000.0 0
390000.0 526000.0 0
394000.0 526000.0 0
398000.0 526000.0 0
102000.0 530000.0 0
106000.0 530000.0 0
110000.0 530000.0 0
114000.0 530000.0 0
118000.0 530000.0 0
122000.0 530000.0 0
126000.0 530000.0 0
130000.0 530000.0 0
134000.0 530000.0 0
138000.0 530000.0 0
142000.0 530000.0 0
146000.0 530000.0 0
150000.0 530000.0 0
154000.0 530000.0 0
158000.0 530000.0 0
162000.0 530000.0 0
166000.0 530000.0 0
170000.0 530000.0 0
174000.0 530000.0 0
178000.0 530000.0 0
182000.0 530000.0 0
186000.0 530000.0 0
190000.0 530000.0 0
194000.0 530000.0 0
198000.0 530000.0 0
202000.0 530000.0 0
206000.0 530000.0 0
210000.0 530000.0 0
214000.0 530000.0 0
218000.0 530000.0 0
222000.0 530000.0 0
226000.0 530000.0 0
230000.0 530000.0 0
234000.0 530000.0 0
238000.0 530000.0 0
242000.0 530000.0 0
246000.0 530000.0 0
250000.0 530000.0 0
254000.0 530000.0 0
258000.0 530000.0 0
262000.0 530000.0 0
266000.0 530000.0 0
270000.0 530000.0 0
274000.0 530000.0 0
278000.0 530000.0 0
282000.0 530000.0 0
286000.0 530000.0 0
290000.0 530000.0 0
294000.0 530000.0 0
298000.0 530000.0 0
302000.0 530000.0 0
306000.0 530000.0 0
310000.0 530000.0 0
314000.0 530000.0 0
318000.0 530000.0 0
322000.0 530000.0 0
326000.0 530000.0 0
330000.0 530000.0 0
334000.0 530000.0 0
338000.0 530000.0 0
342000.0 530000.0 0
346000.0 530000.0 0
350000.0 530000.0 0
354000.0 530000.0 0
358000.0 530000.0 0
362000.0 530000.0 0
366000.0 530000.0 0
370000.0 530000.0 0
374000.0 530000.0 0
378000.0 530000.0 0
382000.0 530000.0 0
386000.0 530000.0 0
390000.0 530000.0 0
394000.0 530000.0 0
398000.0 530000.0 0
102000.0 534000.0 0
106000.0 534000.0 0
110000.0 534000.0 0
114000.0 534000.0 0
118000.0 534000.0 0
122000.0 534000.0 0
126000.0 534000.0 0
130000.0 534000.0 0
134000.0 534000.0 0
138000.0 534000.0 0
142000.0 534000.0 0
146000.0 534000.0 0
150000.0 534000.0 0
154000.0 534000.0 0
158000.0 534000.0 0
162000.0 534000.0 0
166000.0 534000.0 0
170000.0 534000.0 0
174000.0 534000.0 0
178000.0 534000.0 0
182000.0 534000.0 0
186000.0 534000.0 0
190000.0 534000.0 0
194000.0 534000.0 0
198000.0 534000.0 0
202000.0 534000.0 0
206000.0 534000.0 0
210000.0 534000.0 0
214000.0 534000.0 0
218000.0 534000.0 0
222000.0 534000.0 0
226000.0 534000.0 0
230000.0 534000.0 0
234000.0 534000.0 0
238000.0 534000.0 0
242000.0 534000.0 0
246000.0 534000.0 0
250000.0 534000.0 0
254000.0 534000.0 0
258000.0 534000.0 0
262000.0 534000.0 0
266000.0 534000.0 0
270000.0 534000.0 0
274000.0 534000.0 0
278000.0 534000.0 0
282000.0 534000.0 0
286000.0 534000.0 0
290000.0 534000.0 0
294000.0 534000.0 0
298000.0 534000.0 0
302000.0 534000.0 0
306000.0 534000.0 0
310000.0 534000.0 0
314000.0 534000.0 0
318000.0 534000.0 0
322000.0 534000.0 0
326000.0 534000.0 0
330000.0 534000.0 0
334000.0 534000.0 0
338000.0 534000.0 0
342000.0 534000.0 0
346000.0 534000.0 0
350000.0 534000.0 0
354000.0 534000.0 0
358000.0 534000.0 0
362000.0 534000.0 0
366000.0 534000.0 0
370000.0 534000.0 0
374000.0 534000.0 0
378000.0 534000.0 0
382000.0 534000.0 0
386000.0 534000.0 0
390000.0 534000.0 0
394000.0 534000.0 0
398000.0 534000.0 0
102000.0 538000.0 0
106000.0 538000.0 0
110000.0 538000.0 0
114000.0 538000.0 0
118000.0 538000.0 0
122000.0 538000.0 0
126000.0 538000.0 0
130000.0 538000.0 0
134000.0 538000.0 0
138000.0 538000.0 0
142000.0 538000.0 0
146000.0 538000.0 0
150000.0 538000.0 0
154000.0 538000.0 0
158000.0 538000.0 0
162000.0 538000.0 0
166000.0 538000.0 0
170000.0 538000.0 0
174000.0 538000.0 0
178000.0 538000.0 0
182000.0 538000.0 0
186000.0 538000.0 0
190000.0 538000.0 0
194000.0 538000.0 0
198000.0 538000.0 0
202000.0 538000.0 0
206000.0 538000.0 0
210000.0 538000.0 0
214000.0 538000.0 0
218000.0 538000.0 0
222000.0 538000.0 0
226000.0 538000.0 0
230000.0 538000.0 0
234000.0 538000.0 0
238000.0 538000.0 0
242000.0 538000.0 0
246000.0 538000.0 0
250000.0 538000.0 0
254000.0 538000.0 0
258000.0 538000.0 0
262000.0 538000.0 0
266000.0 538000.0 0
270000.0 538000.0 0
274000.0 538000.0 0
278000.0 538000.0 0
282000.0 538000.0 0
286000.0 538000.0 0
290000.0 538000.0 0
294000.0 538000.0 0
298000.0 538000.0 0
302000.0 538000.0 0
306000.0 538000.0 0
310000.0 538000.0 0
314000.0 538000.0 0
318000.0 538000.0 0
322000.0 538000.0 0
326000.0 538000.0 0
330000.0 538000.0 0
334000.0 538000.0 0
338000.0 538000.0 0
342000.0 538000.0 0
346000.0 538000.0 0
350000.0 538000.0 0
354000.0 538000.0 0
358000.0 538000.0 0
362000.0 538000.0 0
366000.0 538000.0 0
370000.0 538000.0 0
374000.0 538000.0 0
378000.0 538000.0 0
382000.0 538000.0 0
386000.0 538000.0 0
390000.0 538000.0 0
394000.0 538000.0 0
398000.0 538000.0 0
102000.0 542000.0 0
106000.0 542000.0 0
110000.0 542000.0 0
114000.0 542000.0 0
118000.0 542000.0 0
122000.0 542000.0 0
126000.0 542000.0 0
130000.0 542000.0 0
134000.0 542000.0 0
138000.0 542000.0 0
142000.0 542000.0 0
146000.0 542000.0 0
150000.0 542000.0 0
154000.0 542000.0 0
158000.0 542000.0 0
162000.0 542000.0 0
166000.0 542000.0 0
170000.0 542000.0 0
174000.0 542000.0 0
178000.0 542000.0 0
182000.0 542000.0 0
186000.0 542000.0 0
190000.0 542000.0 0
194000.0 542000.0 0
198000.0 542000.0 0
202000.0 542000.0 0
206000.0 542000.0 0
210000.0 542000.0 0
214000.0 542000.0 0
218000.0 542000.0 0
222000.0 542000.0 0
226000.0 542000.0 0
230000.0 542000.0 0
234000.0 542000.0 0
238000.0 542000.0 0
242000.0 542000.0 0
246000.0 542000.0 0
250000.0 542000.0 0
254000.0 542000.0 0
258000.0 542000.0 0
262000.0 542000.0 0
266000.0 542000.0 0
270000.0 542000.0 0
274000.0 542000.0 0
278000.0 542000.0 0
282000.0 542000.0 0
286000.0 542000.0 0
290000.0 542000.0 0
294000.0 542000.0 0
298000.0 542000.0 0
302000.0 542000.0 0
306000.0 542000.0 0
310000.0 542000.0 0
314000.0 542000.0 0
318000.0 542000.0 0
322000.0 542000.0 0
326000.0 542000.0 0
330000.0 542000.0 0
334000.0 542000.0 0
338000.0 542000.0 0
342000.0 542000.0 0
346000.0 542000.0 0
350000.0 542000.0 0
354000.0 542000.0 0
358000.0 542000.0 0
362000.0 542000.0 0
366000.0 542000.0 0
370000.0 542000.0 0
374000.0 542000.0 0
378000.0 542000.0 0
382000.0 542000.0 0
386000.0 542000.0 0
390000.0 542000.0 0
394000.0 542000.0 0
398000.0 542000.0 0
102000.0 546000.0 0
106000.0 546000.0 0
110000.0 546000.0 0
114000.0 546000.0 0
118000.0 546000.0 0
122000.0 546000.0 0
126000.0 546000.0 0
130000.0 546000.0 0
134000.0 546000.0 0
138000.0 546000.0 0
142000.0 546000.0 0
146000.0 546000.0 0
150000.0 546000.0 0
154000.0 546000.0 0
158000.0 546000.0 0
162000.0 546000.0 0
166000.0 546000.0 0
170000.0 546000.0 0
174000.0 546000.0 0
178000.0 546000.0 0
182000.0 546000.0 0
186000.0 546000.0 0
190000.0 546000.0 0
194000.0 546000.0 0
198000.0 546000.0 0
202000.0 546000.0 0
206000.0 546000.0 0
210000.0 546000.0 0
214000.0 546000.0 0
218000.0 546000.0 0
222000.0 546000.0 0
226000.0 546000.0 0
230000.0 546000.0 0
234000.0 546000.0 0
238000.0 546000.0 0
242000.0 546000.0 0
246000.0 546000.0 0
250000.0 546000.0 0
254000.0 546000.0 0
258000.0 546000.0 0
262000.0 546000.0 0
266000.0 546000.0 0
270000.0 546000.0 0
274000.0 546000.0 0
278000.0 546000.0 0
282000.0 546000.0 0
286000.0 546000.0 0
290000.0 546000.0 0
294000.0 546000.0 0
298000.0 546000.0 0
302000.0 546000.0 0
306000.0 546000.0 0
310000.0 546000.0 0
314000.0 546000.0 0
318000.0 546000.0 0
322000.0 546000.0 0
326000.0 546000.0 0
330000.0 546000.0 0
334000.0 546000.0 0
338000.0 546000.0 0
342000.0 546000.0 0
346000.0 546000.0 0
350000.0 546000.0 0
354000.0 546000.0 0
358000.0 546000.0 0
362000.0 546000.0 0
366000.0 546000.0 0
370000.0 546000.0 0
374000.0 546000.0 0
378000.0 546000.0 0
382000.0 546000.0 0
386000.0 546000.0 0
390000.0 546000.0 0
394000.0 546000.0 0
398000.0 546000.0 0
102000.0 550000.0 0
106000.0 550000.0 0
110000.0 550000.0 0
114000.0 550000.0 0
118000.0 550000.0 0
122000.0 550000.0 0
126000.0 550000.0 0
130000.0 550000.0 0
134000.0 550000.0 0
138000.0 550000.0 0
142000.0 550000.0 0
146000.0 550000.0 0
150000.0 550000.0 0
154000.0 550000.0 0
158000.0 550000.0 0
162000.0 550000.0 0
166000.0 550000.0 0
170000.0 550000.0 0
174000.0 550000.0 0
178000.0 550000.0 0
182000.0 550000.0 0
186000.0 550000.0 0
190000.0 550000.0 0
194000.0 550000.0 0
198000.0 550000.0 0
202000.0 550000.0 0
206000.0 550000.0 0
210000.0 550000.0 0
214000.0 550000.0 0
218000.0 550000.0 0
222000.0 550000.0 0
226000.0 550000.0 0
230000.0 550000.0 0
234000.0 550000.0 0
238000.0 550000.0 0
242000.0 550000.0 0
246000.0 550000.0 0
250000.0 550000.0 0
254000.0 550000.0 0
258000.0 550000.0 0
262000.0 550000.0 0
266000.0 550000.0 0
270000.0 550000.0 0
274000.0 550000.0 0
278000.0 550000.0 0
282000.0 550000.0 0
286000.0 550000.0 0
290000.0 550000.0 0
294000.0 550000.0 0
298000.0 550000.0 0
302000.0 550000.0 0
306000.0 550000.0 0
310000.0 550000.0 0
314000.0 550000.0 0
318000.0 550000.0 0
322000.0 550000.0 0
326000.0 550000.0 0
330000.0 550000.0 0
334000.0 550000.0 0
338000.0 550000.0 0
342000.0 550000.0 0
346000.0 550000.0 0
350000.0 550000.0 0
354000.0 550000.0 0
358000.0 550000.0 0
362000.0 550000.0 0
366000.0 550000.0 0
370000.0 550000.0 0
374000.0 550000.0 0
378000.0 550000.0 0
382000.0 550000.0 0
386000.0 550000.0 0
390000.0 550000.0 0
394000.0 550000.0 0
398000.0 550000.0 0
102000.0 554000.0 0
106000.0 554000.0 0
110000.0 554000.0 0
114000.0 554000.0 0
118000.0 554000.0 0
122000.0 554000.0 0
126000.0 554000.0 0
130000.0 554000.0 0
134000.0 554000.0 0
138000.0 554000.0 0
142000.0 554000.0 0
146000.0 554000.0 0
150000.0 554000.0 0
154000.0 554000.0 0
158000.0 554000.0 0
162000.0 554000.0 0
166000.0 554000.0 0
170000.0 554000.0 0
174000.0 554000.0 0
178000.0 554000.0 0
182000.0 554000.0 0
186000.0 554000.0 0
190000.0 554000.0 0
194000.0 554000.0 0
198000.0 554000.0 0
202000.0 554000.0 0
206000.0 554000.0 0
210000.0 554000.0 0
214000.0 554000.0 0
218000.0 554000.0 0
222000.0 554000.0 0
226000.0 554000.0 0
230000.0 554000.0 0
234000.0 554000.0 0
238000.0 554000.0 0
242000.0 554000.0 0
246000.0 554000.0 0
250000.0 554000.0 0
254000.0 554000.0 0
258000.0 554000.0 0
262000.0 554000.0 0
266000.0 554000.0 0
270000.0 554000.0 0
274000.0 554000.0 0
278000.0 554000.0 0
282000.0 554000.0 0
286000.0 554000.0 0
290000.0 554000.0 0
294000.0 554000.0 0
298000.0 554000.0 0
302000.0 554000.0 0
306000.0 554000.0 0
310000.0 554000.0 0
314000.0 554000.0 0
318000.0 554000.0 0
322000.0 554000.0 0
326000.0 554000.0 0
330000.0 554000.0 0
334000.0 554000.0 0
338000.0 554000.0 0
342000.0 554000.0 0
346000.0 554000.0 0
350000.0 554000.0 0
354000.0 554000.0 0
358000.0 554000.0 0
362000.0 554000.0 0
366000.0 554000.0 0
370000.0 554000.0 0
374000.0 554000.0 0
378000.0 554000.0 0
382000.0 554000.0 0
386000.0 554000.0 0
390000.0 554000.0 0
394000.0 554000.0 0
398000.0 554000.0 0
102000.0 558000.0 0
106000.0 558000.0 0
110000.0 558000.0 0
114000.0 558000.0 0
118000.0 558000.0 0
122000.0 558000.0 0
126000.0 558000.0 0
130000.0 558000.0 0
134000.0 558000.0 0
138000.0 558000.0 0
142000.0 558000.0 0
146000.0 558000.0 0
150000.0 558000.0 0
154000.0 558000.0 0
158000.0 558000.0 0
162000.0 558000.0 0
166000.0 558000.0 0
170000.0 558000.0 0
174000.0 558000.0 0
178000.0 558000.0 0
182000.0 558000.0 0
186000.0 558000.0 0
190000.0 558000.0 0
194000.0 558000.0 0
198000.0 558000.0 0
202000.0 558000.0 0
206000.0 558000.0 0
210000.0 558000.0 0
214000.0 558000.0 0
218000.0 558000.0 0
222000.0 558000.0 0
226000.0 558000.0 0
230000.0 558000.0 0
234000.0 558000.0 0
238000.0 558000.0 0
242000.0 558000.0 0
246000.0 558000.0 0
250000.0 558000.0 0
254000.0 558000.0 0
258000.0 558000.0 0
262000.0 558000.0 0
266000.0 558000.0 0
270000.0 558000.0 0
274000.0 558000.0 0
278000.0 558000.0 0
282000.0 558000.0 0
286000.0 558000.0 0
290000.0 558000.0 0
294000.0 558000.0 0
298000.0 558000.0 0
302000.0 558000.0 0
306000.0 558000.0 0
310000.0 558000.0 0
314000.0 558000.0 0
318000.0 558000.0 0
322000.0 558000.0 0
326000.0 558000.0 0
330000.0 558000.0 0
334000.0 558000.0 0
338000.0 558000.0 0
342000.0 558000.0 0
346000.0 558000.0 0
350000.0 558000.0 0
354000.0 558000.0 0
358000.0 558000.0 0
362000.0 558000.0 0
366000.0 558000.0 0
370000.0 558000.0 0
374000.0 558000.0 0
378000.0 558000.0 0
382000.0 558000.0 0
386000.0 558000.0 0
390000.0 558000.0 0
394000.0 558000.0 0
398000.0 558000.0 0
102000.0 562000.0 0
106000.0 562000.0 0
110000.0 562000.0 0
114000.0 562000.0 0
118000.0 562000.0 0
122000.0 562000.0 0
126000.0 562000.0 0
130000.0 562000.0 0
134000.0 562000.0 0
138000.0 562000.0 0
142000.0 562000.0 0
146000.0 562000.0 0
150000.0 562000.0 0
154000.0 562000.0 0
158000.0 562000.0 0
162000.0 562000.0 0
166000.0 562000.0 0
170000.0 562000.0 0
174000.0 562000.0 0
178000.0 562000.0 0
182000.0 562000.0 0
186000.0 562000.0 0
190000.0 562000.0 0
194000.0 562000.0 0
198000.0 562000.0 0
202000.0 562000.0 0
206000.0 562000.0 0
210000.0 562000.0 0
214000.0 562000.0 0
218000.0 562000.0 0
222000.0 562000.0 0
226000.0 562000.0 0
230000.0 562000.0 0
234000.0 562000.0 0
238000.0 562000.0 0
242000.0 562000.0 0
246000.0 562000.0 0
250000.0 562000.0 0
254000.0 562000.0 0
258000.0 562000.0 0
262000.0 562000.0 0
266000.0 562000.0 0
270000.0 562000.0 0
274000.0 562000.0 0
278000.0 562000.0 0
282000.0 562000.0 0
286000.0 562000.0 0
290000.0 562000.0 0
294000.0 562000.0 0
298000.0 562000.0 0
302000.0 562000.0 0
306000.0 562000.0 0
310000.0 562000.0 0
314000.0 562000.0 0
318000.0 562000.0 0
322000.0 562000.0 0
326000.0 562000.0 0
330000.0 562000.0 0
334000.0 562000.0 0
338000.0 562000.0 0
342000.0 562000.0 0
346000.0 562000.0 0
350000.0 562000.0 0
354000.0 562000.0 0
358000.0 562000.0 0
362000.0 562000.0 0
366000.0 562000.0 0
370000.0 562000.0 0
374000.0 562000.0 0
378000.0 562000.0 0
382000.0 562000.0 0
386000.0 562000.0 0
390000.0 562000.0 0
394000.0 562000.0 0
398000.0 562000.0 0
102000.0 566000.0 0
106000.0 566000.0 0
110000.0 566000.0 0
114000.0 566000.0 0
118000.0 566000.0 0
122000.0 566000.0 0
126000.0 566000.0 0
130000.0 566000.0 0
134000.0 566000.0 0
138000.0 566000.0 0
142000.0 566000.0 0
146000.0 566000.0 0
150000.0 566000.0 0
154000.0 566000.0 0
158000.0 566000.0 0
162000.0 566000.0 0
166000.0 566000.0 0
170000.0 566000.0 0
174000.0 566000.0 0
178000.0 566000.0 0
182000.0 566000.0 0
186000.0 566000.0 0
190000.0 566000.0 0
194000.0 566000.0 0
198000.0 566000.0 0
202000.0 566000.0 0
206000.0 566000.0 0
210000.0 566000.0 0
214000.0 566000.0 0
218000.0 566000.0 0
222000.0 566000.0 0
226000.0 566000.0 0
230000.0 566000.0 0
234000.0 566000.0 0
238000.0 566000.0 0
242000.0 566000.0 0
246000.0 566000.0 0
250000.0 566000.0 0
254000.0 566000.0 0
258000.0 566000.0 0
262000.0 566000.0 0
266000.0 566000.0 0
270000.0 566000.0 0
274000.0 566000.0 0
278000.0 566000.0 0
282000.0 566000.0 0
286000.0 566000.0 0
290000.0 566000.0 0
294000.0 566000.0 0
298000.0 566000.0 0
302000.0 566000.0 0
306000.0 566000.0 0
310000.0 566000.0 0
314000.0 566000.0 0
318000.0 566000.0 0
322000.0 566000.0 0
326000.0 566000.0 0
330000.0 566000.0 0
334000.0 566000.0 0
338000.0 566000.0 0
342000.0 566000.0 0
346000.0 566000.0 0
350000.0 566000.0 0
354000.0 566000.0 0
358000.0 566000.0 0
362000.0 566000.0 0
366000.0 566000.0 0
370000.0 566000.0 0
374000.0 566000.0 0
378000.0 566000.0 0
382000.0 566000.0 0
386000.0 566000.0 0
390000.0 566000.0 0
394000.0 566000.0 0
398000.0 566000.0 0
102000.0 570000.0 0
106000.0 570000.0 0
110000.0 570000.0 0
114000.0 570000.0 0
118000.0 570000.0 0
122000.0 570000.0 0
126000.0 570000.0 0
130000.0 570000.0 0
134000.0 570000.0 0
138000.0 570000.0 0
142000.0 570000.0 0
146000.0 570000.0 0
150000.0 570000.0 0
154000.0 570000.0 0
158000.0 570000.0 0
162000.0 570000.0 0
166000.0 570000.0 0
170000.0 570000.0 0
174000.0 570000.0 0
178000.0 570000.0 0
182000.0 570000.0 0
186000.0 570000.0 0
190000.0 570000.0 0
194000.0 570000.0 0
198000.0 570000.0 0
202000.0 570000.0 0
206000.0 570000.0 0
210000.0 570000.0 0
214000.0 570000.0 0
218000.0 570000.0 0
222000.0 570000.0 0
226000.0 570000.0 0
230000.0 570000.0 0
234000.0 570000.0 0
238000.0 570000.0 0
242000.0 570000.0 0
246000.0 570000.0 0
250000.0 570000.0 0
254000.0 570000.0 0
258000.0 570000.0 0
262000.0 570000.0 0
266000.0 570000.0 0
270000.0 570000.0 0
274000.0 570000.0 0
278000.0 570000.0 0
282000.0 570000.0 0
286000.0 570000.0 0
290000.0 570000.0 0
294000.0 570000.0 0
298000.0 570000.0 0
302000.0 570000.0 0
306000.0 570000.0 0
310000.0 570000.0 0
314000.0 570000.0 0
318000.0 570000.0 0
322000.0 570000.0 0
326000.0 570000.0 0
330000.0 570000.0 0
334000.0 570000.0 0
338000.0 570000.0 0
342000.0 570000.0 0
346000.0 570000.0 0
350000.0 570000.0 0
354000.0 570000.0 0
358000.0 570000.0 0
362000.0 570000.0 0
366000.0 570000.0 0
370000.0 570000.0 0
374000.0 570000.0 0
378000.0 570000.0 0
382000.0 570000.0 0
386000.0 570000.0 0
390000.0 570000.0 0
394000.0 570000.0 0
398000.0 570000.0 0
102000.0 574000.0 0
106000.0 574000.0 0
110000.0 574000.0 0
114000.0 574000.0 0
118000.0 574000.0 0
122000.0 574000.0 0
126000.0 574000.0 0
130000.0 574000.0 0
134000.0 574000.0 0
138000.0 574000.0 0
142000.0 574000.0 0
146000.0 574000.0 0
150000.0 574000.0 0
154000.0 574000.0 0
158000.0 574000.0 0
162000.0 574000.0 0
166000.0 574000.0 0
170000.0 574000.0 0
174000.0 574000.0 0
178000.0 574000.0 0
182000.0 574000.0 0
186000.0 574000.0 0
190000.0 574000.0 0
194000.0 574000.0 0
198000.0 574000.0 0
202000.0 574000.0 0
206000.0 574000.0 0
210000.0 574000.0 0
214000.0 574000.0 0
218000.0 574000.0 0
222000.0 574000.0 0
226000.0 574000.0 0
230000.0 574000.0 0
234000.0 574000.0 0
238000.0 574000.0 0
242000.0 574000.0 0
246000.0 574000.0 0
250000.0 574000.0 0
254000.0 574000.0 0
258000.0 574000.0 0
262000.0 574000.0 0
266000.0 574000.0 0
270000.0 574000.0 0
274000.0 574000.0 0
278000.0 574000.0 0
282000.0 574000.0 0
286000.0 574000.0 0
290000.0 574000.0 0
294000.0 574000.0 0
298000.0 574000.0 0
302000.0 574000.0 0
306000.0 574000.0 0
310000.0 574000.0 0
314000.0 574000.0 0
318000.0 574000.0 0
322000.0 574000.0 0
326000.0 574000.0 0
330000.0 574000.0 0
334000.0 574000.0 0
338000.0 574000.0 0
342000.0 574000.0 0
346000.0 574000.0 0
350000.0 574000.0 0
354000.0 574000.0 0
358000.0 574000.0 0
362000.0 574000.0 0
366000.0 574000.0 0
370000.0 574000.0 0
374000.0 574000.0 0
378000.0 574000.0 0
382000.0 574000.0 0
386000.0 574000.0 0
390000.0 574000.0 0
394000.0 574000.0 0
398000.0 574000.0 0
102000.0 578000.0 0
106000.0 578000.0 0
110000.0 578000.0 0
114000.0 578000.0 0
118000.0 578000.0 0
122000.0 578000.0 0
126000.0 578000.0 0
130000.0 578000.0 0
134000.0 578000.0 0
138000.0 578000.0 0
142000.0 578000.0 0
146000.0 578000.0 0
150000.0 578000.0 0
154000.0 578000.0 0
158000.0 578000.0 0
162000.0 578000.0 0
166000.0 578000.0 0
170000.0 578000.0 0
174000.0 578000.0 0
178000.0 578000.0 0
182000.0 578000.0 0
186000.0 578000.0 0
190000.0 578000.0 0
194000.0 578000.0 0
198000.0 578000.0 0
202000.0 578000.0 0
206000.0 578000.0 0
210000.0 578000.0 0
214000.0 578000.0 0
218000.0 578000.0 0
222000.0 578000.0 0
226000.0 578000.0 0
230000.0 578000.0 0
234000.0 578000.0 0
238000.0 578000.0 0
242000.0 578000.0 0
246000.0 578000.0 0
250000.0 578000.0 0
254000.0 578000.0 0
258000.0 578000.0 0
262000.0 578000.0 0
266000.0 578000.0 0
270000.0 578000.0 0
274000.0 578000.0 0
278000.0 578000.0 0
282000.0 578000.0 0
286000.0 578000.0 0
290000.0 578000.0 0
294000.0 578000.0 0
298000.0 578000.0 0
302000.0 578000.0 0
306000.0 578000.0 0
310000.0 578000.0 0
314000.0 578000.0 0
318000.0 578000.0 0
322000.0 578000.0 0
326000.0 578000.0 0
330000.0 578000.0 0
334000.0 578000.0 0
338000.0 578000.0 0
342000.0 578000.0 0
346000.0 578000.0 0
350000.0 578000.0 0
354000.0 578000.0 0
358000.0 578000.0 0
362000.0 578000.0 0
366000.0 578000.0 0
370000.0 578000.0 0
374000.0 578000.0 0
378000.0 578000.0 0
382000.0 578000.0 0
386000.0 578000.0 0
390000.0 578000.0 0
394000.0 578000.0 0
398000.0 578000.0 0
102000.0 582000.0 0
106000.0 582000.0 0
110000.0 582000.0 0
114000.0 582000.0 0
118000.0 582000.0 0
122000.0 582000.0 0
126000.0 582000.0 0
130000.0 582000.0 0
134000.0 582000.0 0
138000.0 582000.0 0
142000.0 582000.0 0
146000.0 582000.0 0
150000.0 582000.0 0
154000.0 582000.0 0
158000.0 582000.0 0
162000.0 582000.0 0
166000.0 582000.0 0
170000.0 582000.0 0
174000.0 582000.0 0
178000.0 582000.0 0
182000.0 582000.0 0
186000.0 582000.0 0
190000.0 582000.0 0
194000.0 582000.0 0
198000.0 582000.0 0
202000.0 582000.0 0
206000.0 582000.0 0
210000.0 582000.0 0
214000.0 582000.0 0
218000.0 582000.0 0
222000.0 582000.0 0
226000.0 582000.0 0
230000.0 582000.0 0
234000.0 582000.0 0
238000.0 582000.0 0
242000.0 582000.0 0
246000.0 582000.0 0
250000.0 582000.0 0
254000.0 582000.0 0
258000.0 582000.0 0
262000.0 582000.0 0
266000.0 582000.0 0
270000.0 582000.0 0
274000.0 582000.0 0
278000.0 582000.0 0
282000.0 582000.0 0
286000.0 582000.0 0
290000.0 582000.0 0
294000.0 582000.0 0
298000.0 582000.0 0
302000.0 582000.0 0
306000.0 582000.0 0
310000.0 582000.0 0
314000.0 582000.0 0
318000.0 582000.0 0
322000.0 582000.0 0
326000.0 582000.0 0
330000.0 582000.0 0
334000.0 582000.0 0
338000.0 582000.0 0
342000.0 582000.0 0
346000.0 582000.0 0
350000.0 582000.0 0
354000.0 582000.0 0
358000.0 582000.0 0
362000.0 582000.0 0
366000.0 582000.0 0
370000.0 582000.0 0
374000.0 582000.0 0
378000.0 582000.0 0
382000.0 582000.0 0
386000.0 582000.0 0
390000.0 582000.0 0
394000.0 582000.0 0
398000.0 582000.0 0
102000.0 586000.0 0
106000.0 586000.0 0
110000.0 586000.0 0
114000.0 586000.0 0
118000.0 586000.0 0
122000.0 586000.0 0
126000.0 586000.0 0
130000.0 586000.0 0
134000.0 586000.0 0
138000.0 586000.0 0
142000.0 586000.0 0
146000.0 586000.0 0
150000.0 586000.0 0
154000.0 586000.0 0
158000.0 586000.0 0
162000.0 586000.0 0
166000.0 586000.0 0
170000.0 586000.0 0
174000.0 586000.0 0
178000.0 586000.0 0
182000.0 586000.0 0
186000.0 586000.0 0
190000.0 586000.0 0
194000.0 586000.0 0
198000.0 586000.0 0
202000.0 586000.0 0
206000.0 586000.0 0
210000.0 586000.0 0
214000.0 586000.0 0
218000.0 586000.0 0
222000.0 586000.0 0
226000.0 586000.0 0
230000.0 586000.0 0
234000.0 586000.0 0
238000.0 586000.0 0
242000.0 586000.0 0
246000.0 586000.0 0
250000.0 586000.0 0
254000.0 586000.0 0
258000.0 586000.0 0
262000.0 586000.0 0
266000.0 586000.0 0
270000.0 586000.0 0
274000.0 586000.0 0
278000.0 586000.0 0
282000.0 586000.0 0
286000.0 586000.0 0
290000.0 586000.0 0
294000.0 586000.0 0
298000.0 586000.0 0
302000.0 586000.0 0
306000.0 586000.0 0
310000.0 586000.0 0
314000.0 586000.0 0
318000.0 586000.0 0
322000.0 586000.0 0
326000.0 586000.0 0
330000.0 586000.0 0
334000.0 586000.0 0
338000.0 586000.0 0
342000.0 586000.0 0
346000.0 586000.0 0
350000.0 586000.0 0
354000.0 586000.0 0
358000.0 586000.0 0
362000.0 586000.0 0
366000.0 586000.0 0
370000.0 586000.0 0
374000.0 586000.0 0
378000.0 586000.0 0
382000.0 586000.0 0
386000.0 586000.0 0
390000.0 586000.0 0
394000.0 586000.0 0
398000.0 586000.0 0
102000.0 590000.0 0
106000.0 590000.0 0
110000.0 590000.0 0
114000.0 590000.0 0
118000.0 590000.0 0
122000.0 590000.0 0
126000.0 590000.0 0
130000.0 590000.0 0
134000.0 590000.0 0
138000.0 590000.0 0
142000.0 590000.0 0
146000.0 590000.0 0
150000.0 590000.0 0
154000.0 590000.0 0
158000.0 590000.0 0
162000.0 590000.0 0
166000.0 590000.0 0
170000.0 590000.0 0
174000.0 590000.0 0
178000.0 590000.0 0
182000.0 590000.0 0
186000.0 590000.0 0
190000.0 590000.0 0
194000.0 590000.0 0
198000.0 590000.0 0
202000.0 590000.0 0
206000.0 590000.0 0
210000.0 590000.0 0
214000.0 590000.0 0
218000.0 590000.0 0
222000.0 590000.0 0
226000.0 590000.0 0
230000.0 590000.0 0
234000.0 590000.0 0
238000.0 590000.0 0
242000.0 590000.0 0
246000.0 590000.0 0
250000.0 590000.0 0
254000.0 590000.0 0
258000.0 590000.0 0
262000.0 590000.0 0
266000.0 590000.0 0
270000.0 590000.0 0
274000.0 590000.0 0
278000.0 590000.0 0
282000.0 590000.0 0
286000.0 590000.0 0
290000.0 590000.0 0
294000.0 590000.0 0
298000.0 590000.0 0
302000.0 590000.0 0
306000.0 590000.0 0
310000.0 590000.0 0
314000.0 590000.0 0
318000.0 590000.0 0
322000.0 590000.0 0
326000.0 590000.0 0
330000.0 590000.0 0
334000.0 590000.0 0
338000.0 590000.0 0
342000.0 590000.0 0
346000.0 590000.0 0
350000.0 590000.0 0
354000.0 590000.0 0
358000.0 590000.0 0
362000.0 590000.0 0
366000.0 590000.0 0
370000.0 590000.0 0
374000.0 590000.0 0
378000.0 590000.0 0
382000.0 590000.0 0
386000.0 590000.0 0
390000.0 590000.0 0
394000.0 590000.0 0
398000.0 590000.0 0
102000.0 594000.0 0
106000.0 594000.0 0
110000.0 594000.0 0
114000.0 594000.0 0
118000.0 594000.0 0
122000.0 594000.0 0
126000.0 594000.0 0
130000.0 594000.0 0
134000.0 594000.0 0
138000.0 594000.0 0
142000.0 594000.0 0
146000.0 594000.0 0
150000.0 594000.0 0
154000.0 594000.0 0
158000.0 594000.0 0
162000.0 594000.0 0
166000.0 594000.0 0
170000.0 594000.0 0
174000.0 594000.0 0
178000.0 594000.0 0
182000.0 594000.0 0
186000.0 594000.0 0
190000.0 594000.0 0
194000.0 594000.0 0
198000.0 594000.0 0
202000.0 594000.0 0
206000.0 594000.0 0
210000.0 594000.0 0
214000.0 594000.0 0
218000.0 594000.0 0
222000.0 594000.0 0
226000.0 594000.0 0
230000.0 594000.0 0
234000.0 594000.0 0
238000.0 594000.0 0
242000.0 594000.0 0
246000.0 594000.0 0
250000.0 594000.0 0
254000.0 594000.0 0
258000.0 594000.0 0
262000.0 594000.0 0
266000.0 594000.0 0
270000.0 594000.0 0
274000.0 594000.0 0
278000.0 594000.0 0
282000.0 594000.0 0
286000.0 594000.0 0
290000.0 594000.0 0
294000.0 594000.0 0
298000.0 594000.0 0
302000.0 594000.0 0
306000.0 594000.0 0
310000.0 594000.0 0
314000.0 594000.0 0
318000.0 594000.0 0
322000.0 594000.0 0
326000.0 594000.0 0
330000.0 594000.0 0
334000.0 594000.0 0
338000.0 594000.0 0
342000.0 594000.0 0
346000.0 594000.0 0
350000.0 594000.0 0
354000.0 594000.0 0
358000.0 594000.0 0
362000.0 594000.0 0
366000.0 594000.0 0
370000.0 594000.0 0
374000.0 594000.0 0
378000.0 594000.0 0
382000.0 594000.0 0
386000.0 594000.0 0
390000.0 594000.0 0
394000.0 594000.0 0
398000.0 594000.0 0
102000.0 598000.0 0
106000.0 598000.0 0
110000.0 598000.0 0
114000.0 598000.0 0
118000.0 598000.0 0
122000.0 598000.0 0
126000.0 598000.0 0
130000.0 598000.0 0
134000.0 598000.0 0
138000.0 598000.0 0
142000.0 598000.0 0
146000.0 598000.0 0
150000.0 598000.0 0
154000.0 598000.0 0
158000.0 598000.0 0
162000.0 598000.0 0
166000.0 598000.0 0
170000.0 598000.0 0
174000.0 598000.0 0
178000.0 598000.0 0
182000.0 598000.0 0
186000.0 598000.0 0
190000.0 598000.0 0
194000.0 598000.0 0
198000.0 598000.0 0
202000.0 598000.0 0
206000.0 598000.0 0
210000.0 598000.0 0
214000.0 598000.0 0
218000.0 598000.0 0
222000.0 598000.0 0
226000.0 598000.0 0
230000.0 598000.0 0
234000.0 598000.0 0
238000.0 598000.0 0
242000.0 598000.0 0
246000.0 598000.0 0
250000.0 598000.0 0
254000.0 598000.0 0
258000.0 598000.0 0
262000.0 598000.0 0
266000.0 598000.0 0
270000.0 598000.0 0
274000.0 598000.0 0
278000.0 598000.0 0
282000.0 598000.0 0
286000.0 598000.0 0
290000.0 598000.0 0
294000.0 598000.0 0
298000.0 598000.0 0
302000.0 598000.0 0
306000.0 598000.0 0
310000.0 598000.0 0
314000.0 598000.0 0
318000.0 598000.0 0
322000.0 598000.0 0
326000.0 598000.0 0
330000.0 598000.0 0
334000.0 598000.0 0
338000.0 598000.0 0
342000.0 598000.0 0
346000.0 598000.0 0
350000.0 598000.0 0
354000.0 598000.0 0
358000.0 598000.0 0
362000.0 598000.0 0
366000.0 598000.0 0
370000.0 598000.0 0
374000.0 598000.0 0
378000.0 598000.0 0
382000.0 598000.0 0
386000.0 598000.0 0
390000.0 598000.0 0
394000.0 598000.0 0
398000.0 598000.0 0
102000.0 602000.0 0
106000.0 602000.0 0
110000.0 602000.0 0
114000.0 602000.0 0
118000.0 602000.0 0
122000.0 602000.0 0
126000.0 602000.0 0
130000.0 602000.0 0
134000.0 602000.0 0
138000.0 602000.0 0
142000.0 602000.0 0
146000.0 602000.0 0
150000.0 602000.0 0
154000.0 602000.0 0
158000.0 602000.0 0
162000.0 602000.0 0
166000.0 602000.0 0
170000.0 602000.0 0
174000.0 602000.0 0
178000.0 602000.0 0
182000.0 602000.0 0
186000.0 602000.0 0
190000.0 602000.0 0
194000.0 602000.0 0
198000.0 602000.0 0
202000.0 602000.0 0
206000.0 602000.0 0
210000.0 602000.0 0
214000.0 602000.0 0
218000.0 602000.0 0
222000.0 602000.0 0
226000.0 602000.0 0
230000.0 602000.0 0
234000.0 602000.0 0
238000.0 602000.0 0
242000.0 602000.0 0
246000.0 602000.0 0
250000.0 602000.0 0
254000.0 602000.0 0
258000.0 602000.0 0
262000.0 602000.0 0
266000.0 602000.0 0
270000.0 602000.0 0
274000.0 602000.0 0
278000.0 602000.0 0
282000.0 602000.0 0
286000.0 602000.0 0
290000.0 602000.0 0
294000.0 602000.0 0
298000.0 602000.0 0
302000.0 602000.0 0
306000.0 602000.0 0
310000.0 602000.0 0
314000.0 602000.0 0
318000.0 602000.0 0
322000.0 602000.0 0
326000.0 602000.0 0
330000.0 602000.0 0
334000.0 602000.0 0
338000.0 602000.0 0
342000.0 602000.0 0
346000.0 602000.0 0
350000.0 602000.0 0
354000.0 602000.0 0
358000.0 602000.0 0
362000.0 602000.0 0
366000.0 602000.0 0
370000.0 602000.0 0
374000.0 602000.0 0
378000.0 602000.0 0
382000.0 602000.0 0
386000.0 602000.0 0
390000.0 602000.0 0
394000.0 602000.0 0
398000.0 602000.0 0
102000.0 606000.0 0
106000.0 606000.0 0
110000.0 606000.0 0
114000.0 606000.0 0
118000.0 606000.0 0
122000.0 606000.0 0
126000.0 606000.0 0
130000.0 606000.0 0
134000.0 606000.0 0
138000.0 606000.0 0
142000.0 606000.0 0
146000.0 606000.0 0
150000.0 606000.0 0
154000.0 606000.0 0
158000.0 606000.0 0
162000.0 606000.0 0
166000.0 606000.0 0
170000.0 606000.0 0
174000.0 606000.0 0
178000.0 606000.0 0
182000.0 606000.0 0
186000.0 606000.0 0
190000.0 606000.0 0
194000.0 606000.0 0
198000.0 606000.0 0
202000.0 606000.0 0
206000.0 606000.0 0
210000.0 606000.0 0
214000.0 606000.0 0
218000.0 606000.0 0
222000.0 606000.0 0
226000.0 606000.0 0
230000.0 606000.0 0
234000.0 606000.0 0
238000.0 606000.0 0
242000.0 606000.0 0
246000.0 606000.0 0
250000.0 606000.0 0
254000.0 606000.0 0
258000.0 606000.0 0
262000.0 606000.0 0
266000.0 606000.0 0
270000.0 606000.0 0
274000.0 606000.0 0
278000.0 606000.0 0
282000.0 606000.0 0
286000.0 606000.0 0
290000.0 606000.0 0
294000.0 606000.0 0
298000.0 606000.0 0
302000.0 606000.0 0
306000.0 606000.0 0
310000.0 606000.0 0
314000.0 606000.0 0
318000.0 606000.0 0
322000.0 606000.0 0
326000.0 606000.0 0
330000.0 606000.0 0
334000.0 606000.0 0
338000.0 606000.0 0
342000.0 606000.0 0
346000.0 606000.0 0
350000.0 606000.0 0
354000.0 606000.0 0
358000.0 606000.0 0
362000.0 606000.0 0
366000.0 606000.0 0
370000.0 606000.0 0
374000.0 606000.0 0
378000.0 606000.0 0
382000.0 606000.0 0
386000.0 606000.0 0
390000.0 606000.0 0
394000.0 606000.0 0
398000.0 606000.0 0
102000.0 610000.0 0
106000.0 610000.0 0
110000.0 610000.0 0
114000.0 610000.0 0
118000.0 610000.0 0
122000.0 610000.0 0
126000.0 610000.0 0
130000.0 610000.0 0
134000.0 610000.0 0
138000.0 610000.0 0
142000.0 610000.0 0
146000.0 610000.0 0
150000.0 610000.0 0
154000.0 610000.0 0
158000.0 610000.0 0
162000.0 610000.0 0
166000.0 610000.0 0
170000.0 610000.0 0
174000.0 610000.0 0
178000.0 610000.0 0
182000.0 610000.0 0
186000.0 610000.0 0
190000.0 610000.0 0
194000.0 610000.0 0
198000.0 610000.0 0
202000.0 610000.0 0
206000.0 610000.0 0
210000.0 610000.0 0
214000.0 610000.0 0
218000.0 610000.0 0
222000.0 610000.0 0
226000.0 610000.0 0
230000.0 610000.0 0
234000.0 610000.0 0
238000.0 610000.0 0
242000.0 610000.0 0
246000.0 610000.0 0
250000.0 610000.0 0
254000.0 610000.0 0
258000.0 610000.0 0
262000.0 610000.0 0
266000.0 610000.0 0
270000.0 610000.0 0
274000.0 610000.0 0
278000.0 610000.0 0
282000.0 610000.0 0
286000.0 610000.0 0
290000.0 610000.0 0
294000.0 610000.0 0
298000.0 610000.0 0
302000.0 610000.0 0
306000.0 610000.0 0
310000.0 610000.0 0
314000.0 610000.0 0
318000.0 610000.0 0
322000.0 610000.0 0
326000.0 610000.0 0
330000.0 610000.0 0
334000.0 610000.0 0
338000.0 610000.0 0
342000.0 610000.0 0
346000.0 610000.0 0
350000.0 610000.0 0
354000.0 610000.0 0
358000.0 610000.0 0
362000.0 610000.0 0
366000.0 610000.0 0
370000.0 610000.0 0
374000.0 610000.0 0
378000.0 610000.0 0
382000.0 610000.0 0
386000.0 610000.0 0
390000.0 610000.0 0
394000.0 610000.0 0
398000.0 610000.0 0
102000.0 614000.0 0
106000.0 614000.0 0
110000.0 614000.0 0
114000.0 614000.0 0
118000.0 614000.0 0
122000.0 614000.0 0
126000.0 614000.0 0
130000.0 614000.0 0
134000.0 614000.0 0
138000.0 614000.0 0
142000.0 614000.0 0
146000.0 614000.0 0
150000.0 614000.0 0
154000.0 614000.0 0
158000.0 614000.0 0
162000.0 614000.0 0
166000.0 614000.0 0
170000.0 614000.0 0
174000.0 614000.0 0
178000.0 614000.0 0
182000.0 614000.0 0
186000.0 614000.0 0
190000.0 614000.0 0
194000.0 614000.0 0
198000.0 614000.0 0
202000.0 614000.0 0
206000.0 614000.0 0
210000.0 614000.0 0
214000.0 614000.0 0
218000.0 614000.0 0
222000.0 614000.0 0
226000.0 614000.0 0
230000.0 614000.0 0
234000.0 614000.0 0
238000.0 614000.0 0
242000.0 614000.0 0
246000.0 614000.0 0
250000.0 614000.0 0
254000.0 614000.0 0
258000.0 614000.0 0
262000.0 614000.0 0
266000.0 614000.0 0
270000.0 614000.0 0
274000.0 614000.0 0
278000.0 614000.0 0
282000.0 614000.0 0
286000.0 614000.0 0
290000.0 614000.0 0
294000.0 614000.0 0
298000.0 614000.0 0
302000.0 614000.0 0
306000.0 614000.0 0
310000.0 614000.0 0
314000.0 614000.0 0
318000.0 614000.0 0
322000.0 614000.0 0
326000.0 614000.0 0
330000.0 614000.0 0
334000.0 614000.0 0
338000.0 614000.0 0
342000.0 614000.0 0
346000.0 614000.0 0
350000.0 614000.0 0
354000.0 614000.0 0
358000.0 614000.0 0
362000.0 614000.0 0
366000.0 614000.0 0
370000.0 614000.0 0
374000.0 614000.0 0
378000.0 614000.0 0
382000.0 614000.0 0
386000.0 614000.0 0
390000.0 614000.0 0
394000.0 614000.0 0
398000.0 614000.0 0
102000.0 618000.0 0
106000.0 618000.0 0
110000.0 618000.0 0
114000.0 618000.0 0
118000.0 618000.0 0
122000.0 618000.0 0
126000.0 618000.0 0
130000.0 618000.0 0
134000.0 618000.0 0
138000.0 618000.0 0
142000.0 618000.0 0
146000.0 618000.0 0
150000.0 618000.0 0
154000.0 618000.0 0
158000.0 618000.0 0
162000.0 618000.0 0
166000.0 618000.0 0
170000.0 618000.0 0
174000.0 618000.0 0
178000.0 618000.0 0
182000.0 618000.0 0
186000.0 618000.0 0
190000.0 618000.0 0
194000.0 618000.0 0
198000.0 618000.0 0
202000.0 618000.0 0
206000.0 618000.0 0
210000.0 618000.0 0
214000.0 618000.0 0
218000.0 618000.0 0
222000.0 618000.0 0
226000.0 618000.0 0
230000.0 618000.0 0
234000.0 618000.0 0
238000.0 618000.0 0
242000.0 618000.0 0
246000.0 618000.0 0
250000.0 618000.0 0
254000.0 618000.0 0
258000.0 618000.0 0
262000.0 618000.0 0
266000.0 618000.0 0
270000.0 618000.0 0
274000.0 618000.0 0
278000.0 618000.0 0
282000.0 618000.0 0
286000.0 618000.0 0
290000.0 618000.0 0
294000.0 618000.0 0
298000.0 618000.0 0
302000.0 618000.0 0
306000.0 618000.0 0
310000.0 618000.0 0
314000.0 618000.0 0
318000.0 618000.0 0
322000.0 618000.0 0
326000.0 618000.0 0
330000.0 618000.0 0
334000.0 618000.0 0
338000.0 618000.0 0
342000.0 618000.0 0
346000.0 618000.0 0
350000.0 618000.0 0
354000.0 618000.0 0
358000.0 618000.0 0
362000.0 618000.0 0
366000.0 618000.0 0
370000.0 618000.0 0
374000.0 618000.0 0
378000.0 618000.0 0
382000.0 618000.0 0
386000.0 618000.0 0
390000.0 618000.0 0
394000.0 618000.0 0
398000.0 618000.0 0
102000.0 622000.0 0
106000.0 622000.0 0
110000.0 622000.0 0
114000.0 622000.0 0
118000.0 622000.0 0
122000.0 622000.0 0
126000.0 622000.0 0
130000.0 622000.0 0
134000.0 622000.0 0
138000.0 622000.0 0
142000.0 622000.0 0
146000.0 622000.0 0
150000.0 622000.0 0
154000.0 622000.0 0
158000.0 622000.0 0
162000.0 622000.0 0
166000.0 622000.0 0
170000.0 622000.0 0
174000.0 622000.0 0
178000.0 622000.0 0
182000.0 622000.0 0
186000.0 622000.0 0
190000.0 622000.0 0
194000.0 622000.0 0
198000.0 622000.0 0
202000.0 622000.0 0
206000.0 622000.0 0
210000.0 622000.0 0
214000.0 622000.0 0
218000.0 622000.0 0
222000.0 622000.0 0
226000.0 622000.0 0
230000.0 622000.0 0
234000.0 622000.0 0
238000.0 622000.0 0
242000.0 622000.0 0
246000.0 622000.0 0
250000.0 622000.0 0
254000.0 622000.0 0
258000.0 622000.0 0
262000.0 622000.0 0
266000.0 622000.0 0
270000.0 622000.0 0
274000.0 622000.0 0
278000.0 622000.0 0
282000.0 622000.0 0
286000.0 622000.0 0
290000.0 622000.0 0
294000.0 622000.0 0
298000.0 622000.0 0
302000.0 622000.0 0
306000.0 622000.0 0
310000.0 622000.0 0
314000.0 622000.0 0
318000.0 622000.0 0
322000.0 622000.0 0
326000.0 622000.0 0
330000.0 622000.0 0
334000.0 622000.0 0
338000.0 622000.0 0
342000.0 622000.0 0
346000.0 622000.0 0
350000.0 622000.0 0
354000.0 622000.0 0
358000.0 622000.0 0
362000.0 622000.0 0
366000.0 622000.0 0
370000.0 622000.0 0
374000.0 622000.0 0
378000.0 622000.0 0
382000.0 622000.0 0
386000.0 622000.0 0
390000.0 622000.0 0
394000.0 622000.0 0
398000.0 622000.0 0
102000.0 626000.0 0
106000.0 626000.0 0
110000.0 626000.0 0
114000.0 626000.0 0
118000.0 626000.0 0
122000.0 626000.0 0
126000.0 626000.0 0
130000.0 626000.0 0
134000.0 626000.0 0
138000.0 626000.0 0
142000.0 626000.0 0
146000.0 626000.0 0
150000.0 626000.0 0
154000.0 626000.0 0
158000.0 626000.0 0
162000.0 626000.0 0
166000.0 626000.0 0
170000.0 626000.0 0
174000.0 626000.0 0
178000.0 626000.0 0
182000.0 626000.0 0
186000.0 626000.0 0
190000.0 626000.0 0
194000.0 626000.0 0
198000.0 626000.0 0
202000.0 626000.0 0
206000.0 626000.0 0
210000.0 626000.0 0
214000.0 626000.0 0
218000.0 626000.0 0
222000.0 626000.0 0
226000.0 626000.0 0
230000.0 626000.0 0
234000.0 626000.0 0
238000.0 626000.0 0
242000.0 626000.0 0
246000.0 626000.0 0
250000.0 626000.0 0
254000.0 626000.0 0
258000.0 626000.0 0
262000.0 626000.0 0
266000.0 626000.0 0
270000.0 626000.0 0
274000.0 626000.0 0
278000.0 626000.0 0
282000.0 626000.0 0
286000.0 626000.0 0
290000.0 626000.0 0
294000.0 626000.0 0
298000.0 626000.0 0
302000.0 626000.0 0
306000.0 626000.0 0
310000.0 626000.0 0
314000.0 626000.0 0
318000.0 626000.0 0
322000.0 626000.0 0
326000.0 626000.0 0
330000.0 626000.0 0
334000.0 626000.0 0
338000.0 626000.0 0
342000.0 626000.0 0
346000.0 626000.0 0
350000.0 626000.0 0
354000.0 626000.0 0
358000.0 626000.0 0
362000.0 626000.0 0
366000.0 626000.0 0
370000.0 626000.0 0
374000.0 626000.0 0
378000.0 626000.0 0
382000.0 626000.0 0
386000.0 626000.0 0
390000.0 626000.0 0
394000.0 626000.0 0
398000.0 626000.0 0
102000.0 630000.0 0
106000.0 630000.0 0
110000.0 630000.0 0
114000.0 630000.0 0
118000.0 630000.0 0
122000.0 630000.0 0
126000.0 630000.0 0
130000.0 630000.0 0
134000.0 630000.0 0
138000.0 630000.0 0
142000.0 630000.0 0
146000.0 630000.0 0
150000.0 630000.0 0
154000.0 630000.0 0
158000.0 630000.0 0
162000.0 630000.0 0
166000.0 630000.0 0
170000.0 630000.0 0
174000.0 630000.0 0
178000.0 630000.0 0
182000.0 630000.0 0
186000.0 630000.0 0
190000.0 630000.0 0
194000.0 630000.0 0
198000.0 630000.0 0
202000.0 630000.0 0
206000.0 630000.0 0
210000.0 630000.0 0
214000.0 630000.0 0
218000.0 630000.0 0
222000.0 630000.0 0
226000.0 630000.0 0
230000.0 630000.0 0
234000.0 630000.0 0
238000.0 630000.0 0
242000.0 630000.0 0
246000.0 630000.0 0
250000.0 630000.0 0
254000.0 630000.0 0
258000.0 630000.0 0
262000.0 630000.0 0
266000.0 630000.0 0
270000.0 630000.0 0
274000.0 630000.0 0
278000.0 630000.0 0
282000.0 630000.0 0
286000.0 630000.0 0
290000.0 630000.0 0
294000.0 630000.0 0
298000.0 630000.0 0
302000.0 630000.0 0
306000.0 630000.0 0
310000.0 630000.0 0
314000.0 630000.0 0
318000.0 630000.0 0
322000.0 630000.0 0
326000.0 630000.0 0
330000.0 630000.0 0
334000.0 630000.0 0
338000.0 630000.0 0
342000.0 630000.0 0
346000.0 630000.0 0
350000.0 630000.0 0
354000.0 630000.0 0
358000.0 630000.0 0
362000.0 630000.0 0
366000.0 630000.0 0
370000.0 630000.0 0
374000.0 630000.0 0
378000.0 630000.0 0
382000.0 630000.0 0
386000.0 630000.0 0
390000.0 630000.0 0
394000.0 630000.0 0
398000.0 630000.0 0
102000.0 634000.0 0
106000.0 634000.0 0
110000.0 634000.0 0
114000.0 634000.0 0
118000.0 634000.0 0
122000.0 634000.0 0
126000.0 634000.0 0
130000.0 634000.0 0
134000.0 634000.0 0
138000.0 634000.0 0
142000.0 634000.0 0
146000.0 634000.0 0
150000.0 634000.0 0
154000.0 634000.0 0
158000.0 634000.0 0
162000.0 634000.0 0
166000.0 634000.0 0
170000.0 634000.0 0
174000.0 634000.0 0
178000.0 634000.0 0
182000.0 634000.0 0
186000.0 634000.0 0
190000.0 634000.0 0
194000.0 634000.0 0
198000.0 634000.0 0
202000.0 634000.0 0
206000.0 634000.0 0
210000.0 634000.0 0
214000.0 634000.0 0
218000.0 634000.0 0
222000.0 634000.0 0
226000.0 634000.0 0
230000.0 634000.0 0
234000.0 634000.0 0
238000.0 634000.0 0
242000.0 634000.0 0
246000.0 634000.0 0
250000.0 634000.0 0
254000.0 634000.0 0
258000.0 634000.0 0
262000.0 634000.0 0
266000.0 634000.0 0
270000.0 634000.0 0
274000.0 634000.0 0
278000.0 634000.0 0
282000.0 634000.0 0
286000.0 634000.0 0
290000.0 634000.0 0
294000.0 634000.0 0
298000.0 634000.0 0
302000.0 634000.0 0
306000.0 634000.0 0
310000.0 634000.0 0
314000.0 634000.0 0
318000.0 634000.0 0
322000.0 634000.0 0
326000.0 634000.0 0
330000.0 634000.0 0
334000.0 634000.0 0
338000.0 634000.0 0
342000.0 634000.0 0
346000.0 634000.0 0
350000.0 634000.0 0
354000.0 634000.0 0
358000.0 634000.0 0
362000.0 634000.0 0
366000.0 634000.0 0
370000.0 634000.0 0
374000.0 634000.0 0
378000.0 634000.0 0
382000.0 634000.0 0
386000.0 634000.0 0
390000.0 634000.0 0
394000.0 634000.0 0
398000.0 634000.0 0
102000.0 638000.0 0
106000.0 638000.0 0
110000.0 638000.0 0
114000.0 638000.0 0
118000.0 638000.0 0
122000.0 638000.0 0
126000.0 638000.0 0
130000.0 638000.0 0
134000.0 638000.0 0
138000.0 638000.0 0
142000.0 638000.0 0
146000.0 638000.0 0
150000.0 638000.0 0
154000.0 638000.0 0
158000.0 638000.0 0
162000.0 638000.0 0
166000.0 638000.0 0
170000.0 638000.0 0
174000.0 638000.0 0
178000.0 638000.0 0
182000.0 638000.0 0
186000.0 638000.0 0
190000.0 638000.0 0
194000.0 638000.0 0
198000.0 638000.0 0
202000.0 638000.0 0
206000.0 638000.0 0
210000.0 638000.0 0
214000.0 638000.0 0
218000.0 638000.0 0
222000.0 638000.0 0
226000.0 638000.0 0
230000.0 638000.0 0
234000.0 638000.0 0
238000.0 638000.0 0
242000.0 638000.0 0
246000.0 638000.0 0
250000.0 638000.0 0
254000.0 638000.0 0
258000.0 638000.0 0
262000.0 638000.0 0
266000.0 638000.0 0
270000.0 638000.0 0
274000.0 638000.0 0
278000.0 638000.0 0
282000.0 638000.0 0
286000.0 638000.0 0
290000.0 638000.0 0
294000.0 638000.0 0
298000.0 638000.0 0
302000.0 638000.0 0
306000.0 638000.0 0
310000.0 638000.0 0
314000.0 638000.0 0
318000.0 638000.0 0
322000.0 638000.0 0
326000.0 638000.0 0
330000.0 638000.0 0
334000.0 638000.0 0
338000.0 638000.0 0
342000.0 638000.0 0
346000.0 638000.0 0
350000.0 638000.0 0
354000.0 638000.0 0
358000.0 638000.0 0
362000.0 638000.0 0
366000.0 638000.0 0
370000.0 638000.0 0
374000.0 638000.0 0
378000.0 638000.0 0
382000.0 638000.0 0
386000.0 638000.0 0
390000.0 638000.0 0
394000.0 638000.0 0
398000.0 638000.0 0
102000.0 642000.0 0
106000.0 642000.0 0
110000.0 642000.0 0
114000.0 642000.0 0
118000.0 642000.0 0
122000.0 642000.0 0
126000.0 642000.0 0
130000.0 642000.0 0
134000.0 642000.0 0
138000.0 642000.0 0
142000.0 642000.0 0
146000.0 642000.0 0
150000.0 642000.0 0
154000.0 642000.0 0
158000.0 642000.0 0
162000.0 642000.0 0
166000.0 642000.0 0
170000.0 642000.0 0
174000.0 642000.0 0
178000.0 642000.0 0
182000.0 642000.0 0
186000.0 642000.0 0
190000.0 642000.0 0
194000.0 642000.0 0
198000.0 642000.0 0
202000.0 642000.0 0
206000.0 642000.0 0
210000.0 642000.0 0
214000.0 642000.0 0
218000.0 642000.0 0
222000.0 642000.0 0
226000.0 642000.0 0
230000.0 642000.0 0
234000.0 642000.0 0
238000.0 642000.0 0
242000.0 642000.0 0
246000.0 642000.0 0
250000.0 642000.0 0
254000.0 642000.0 0
258000.0 642000.0 0
262000.0 642000.0 0
266000.0 642000.0 0
270000.0 642000.0 0
274000.0 642000.0 0
278000.0 642000.0 0
282000.0 642000.0 0
286000.0 642000.0 0
290000.0 642000.0 0
294000.0 642000.0 0
298000.0 642000.0 0
302000.0 642000.0 0
306000.0 642000.0 0
310000.0 642000.0 0
314000.0 642000.0 0
318000.0 642000.0 0
322000.0 642000.0 0
326000.0 642000.0 0
330000.0 642000.0 0
334000.0 642000.0 0
338000.0 642000.0 0
342000.0 642000.0 0
346000.0 642000.0 0
350000.0 642000.0 0
354000.0 642000.0 0
358000.0 642000.0 0
362000.0 642000.0 0
366000.0 642000.0 0
370000.0 642000.0 0
374000.0 642000.0 0
378000.0 642000.0 0
382000.0 642000.0 0
386000.0 642000.0 0
390000.0 642000.0 0
394000.0 642000.0 0
398000.0 642000.0 0
102000.0 646000.0 0
106000.0 646000.0 0
110000.0 646000.0 0
114000.0 646000.0 0
118000.0 646000.0 0
122000.0 646000.0 0
126000.0 646000.0 0
130000.0 646000.0 0
134000.0 646000.0 0
138000.0 646000.0 0
142000.0 646000.0 0
146000.0 646000.0 0
150000.0 646000.0 0
154000.0 646000.0 0
158000.0 646000.0 0
162000.0 646000.0 0
166000.0 646000.0 0
170000.0 646000.0 0
174000.0 646000.0 0
178000.0 646000.0 0
182000.0 646000.0 0
186000.0 646000.0 0
190000.0 646000.0 0
194000.0 646000.0 0
198000.0 646000.0 0
202000.0 646000.0 0
206000.0 646000.0 0
210000.0 646000.0 0
214000.0 646000.0 0
218000.0 646000.0 0
222000.0 646000.0 0
226000.0 646000.0 0
230000.0 646000.0 0
234000.0 646000.0 0
238000.0 646000.0 0
242000.0 646000.0 0
246000.0 646000.0 0
250000.0 646000.0 0
254000.0 646000.0 0
258000.0 646000.0 0
262000.0 646000.0 0
266000.0 646000.0 0
270000.0 646000.0 0
274000.0 646000.0 0
278000.0 646000.0 0
282000.0 646000.0 0
286000.0 646000.0 0
290000.0 646000.0 0
294000.0 646000.0 0
298000.0 646000.0 0
302000.0 646000.0 0
306000.0 646000.0 0
310000.0 646000.0 0
314000.0 646000.0 0
318000.0 646000.0 0
322000.0 646000.0 0
326000.0 646000.0 0
330000.0 646000.0 0
334000.0 646000.0 0
338000.0 646000.0 0
342000.0 646000.0 0
346000.0 646000.0 0
350000.0 646000.0 0
354000.0 646000.0 0
358000.0 646000.0 0
362000.0 646000.0 0
366000.0 646000.0 0
370000.0 646000.0 0
374000.0 646000.0 0
378000.0 646000.0 0
382000.0 646000.0 0
386000.0 646000.0 0
390000.0 646000.0 0
394000.0 646000.0 0
398000.0 646000.0 0
102000.0 650000.0 0
106000.0 650000.0 0
110000.0 650000.0 0
114000.0 650000.0 0
118000.0 650000.0 0
122000.0 650000.0 0
126000.0 650000.0 0
130000.0 650000.0 0
134000.0 650000.0 0
138000.0 650000.0 0
142000.0 650000.0 0
146000.0 650000.0 0
150000.0 650000.0 0
154000.0 650000.0 0
158000.0 650000.0 0
162000.0 650000.0 0
166000.0 650000.0 0
170000.0 650000.0 0
174000.0 650000.0 0
178000.0 650000.0 0
182000.0 650000.0 0
186000.0 650000.0 0
190000.0 650000.0 0
194000.0 650000.0 0
198000.0 650000.0 0
202000.0 650000.0 0
206000.0 650000.0 0
210000.0 650000.0 0
214000.0 650000.0 0
218000.0 650000.0 0
222000.0 650000.0 0
226000.0 650000.0 0
230000.0 650000.0 0
234000.0 650000.0 0
238000.0 650000.0 0
242000.0 650000.0 0
246000.0 650000.0 0
250000.0 650000.0 0
254000.0 650000.0 0
258000.0 650000.0 0
262000.0 650000.0 0
266000.0 650000.0 0
270000.0 650000.0 0
274000.0 650000.0 0
278000.0 650000.0 0
282000.0 650000.0 0
286000.0 650000.0 0
290000.0 650000.0 0
294000.0 650000.0 0
298000.0 650000.0 0
302000.0 650000.0 0
306000.0 650000.0 0
310000.0 650000.0 0
314000.0 650000.0 0
318000.0 650000.0 0
322000.0 650000.0 0
326000.0 650000.0 0
330000.0 650000.0 0
334000.0 650000.0 0
338000.0 650000.0 0
342000.0 650000.0 0
346000.0 650000.0 0
350000.0 650000.0 0
354000.0 650000.0 0
358000.0 650000.0 0
362000.0 650000.0 0
366000.0 650000.0 0
370000.0 650000.0 0
374000.0 650000.0 0
378000.0 650000.0 0
382000.0 650000.0 0
386000.0 650000.0 0
390000.0 650000.0 0
394000.0 650000.0 0
398000.0 650000.0 0
102000.0 654000.0 0
106000.0 654000.0 0
110000.0 654000.0 0
114000.0 654000.0 0
118000.0 654000.0 0
122000.0 654000.0 0
126000.0 654000.0 0
130000.0 654000.0 0
134000.0 654000.0 0
138000.0 654000.0 0
142000.0 654000.0 0
146000.0 654000.0 0
150000.0 654000.0 0
154000.0 654000.0 0
158000.0 654000.0 0
162000.0 654000.0 0
166000.0 654000.0 0
170000.0 654000.0 0
174000.0 654000.0 0
178000.0 654000.0 0
182000.0 654000.0 0
186000.0 654000.0 0
190000.0 654000.0 0
194000.0 654000.0 0
198000.0 654000.0 0
202000.0 654000.0 0
206000.0 654000.0 0
210000.0 654000.0 0
214000.0 654000.0 0
218000.0 654000.0 0
222000.0 654000.0 0
226000.0 654000.0 0
230000.0 654000.0 0
234000.0 654000.0 0
238000.0 654000.0 0
242000.0 654000.0 0
246000.0 654000.0 0
250000.0 654000.0 0
254000.0 654000.0 0
258000.0 654000.0 0
262000.0 654000.0 0
266000.0 654000.0 0
270000.0 654000.0 0
274000.0 654000.0 0
278000.0 654000.0 0
282000.0 654000.0 0
286000.0 654000.0 0
290000.0 654000.0 0
294000.0 654000.0 0
298000.0 654000.0 0
302000.0 654000.0 0
306000.0 654000.0 0
310000.0 654000.0 0
314000.0 654000.0 0
318000.0 654000.0 0
322000.0 654000.0 0
326000.0 654000.0 0
330000.0 654000.0 0
334000.0 654000.0 0
338000.0 654000.0 0
342000.0 654000.0 0
346000.0 654000.0 0
350000.0 654000.0 0
354000.0 654000.0 0
358000.0 654000.0 0
362000.0 654000.0 0
366000.0 654000.0 0
370000.0 654000.0 0
374000.0 654000.0 0
378000.0 654000.0 0
382000.0 654000.0 0
386000.0 654000.0 0
390000.0 654000.0 0
394000.0 654000.0 0
398000.0 654000.0 0
102000.0 658000.0 0
106000.0 658000.0 0
110000.0 658000.0 0
114000.0 658000.0 0
118000.0 658000.0 0
122000.0 658000.0 0
126000.0 658000.0 0
130000.0 658000.0 0
134000.0 658000.0 0
138000.0 658000.0 0
142000.0 658000.0 0
146000.0 658000.0 0
150000.0 658000.0 0
154000.0 658000.0 0
158000.0 658000.0 0
162000.0 658000.0 0
166000.0 658000.0 0
170000.0 658000.0 0
174000.0 658000.0 0
178000.0 658000.0 0
182000.0 658000.0 0
186000.0 658000.0 0
190000.0 658000.0 0
194000.0 658000.0 0
198000.0 658000.0 0
202000.0 658000.0 0
206000.0 658000.0 0
210000.0 658000.0 0
214000.0 658000.0 0
218000.0 658000.0 0
222000.0 658000.0 0
226000.0 658000.0 0
230000.0 658000.0 0
234000.0 658000.0 0
238000.0 658000.0 0
242000.0 658000.0 0
246000.0 658000.0 0
250000.0 658000.0 0
254000.0 658000.0 0
258000.0 658000.0 0
262000.0 658000.0 0
266000.0 658000.0 0
270000.0 658000.0 0
274000.0 658000.0 0
278000.0 658000.0 0
282000.0 658000.0 0
286000.0 658000.0 0
290000.0 658000.0 0
294000.0 658000.0 0
298000.0 658000.0 0
302000.0 658000.0 0
306000.0 658000.0 0
310000.0 658000.0 0
314000.0 658000.0 0
318000.0 658000.0 0
322000.0 658000.0 0
326000.0 658000.0 0
330000.0 658000.0 0
334000.0 658000.0 0
338000.0 658000.0 0
342000.0 658000.0 0
346000.0 658000.0 0
350000.0 658000.0 0
354000.0 658000.0 0
358000.0 658000.0 0
362000.0 658000.0 0
366000.0 658000.0 0
370000.0 658000.0 0
374000.0 658000.0 0
378000.0 658000.0 0
382000.0 658000.0 0
386000.0 658000.0 0
390000.0 658000.0 0
394000.0 658000.0 0
398000.0 658000.0 0
102000.0 662000.0 0
106000.0 662000.0 0
110000.0 662000.0 0
114000.0 662000.0 0
118000.0 662000.0 0
122000.0 662000.0 0
126000.0 662000.0 0
130000.0 662000.0 0
134000.0 662000.0 0
138000.0 662000.0 0
142000.0 662000.0 0
146000.0 662000.0 0
150000.0 662000.0 0
154000.0 662000.0 0
158000.0 662000.0 0
162000.0 662000.0 0
166000.0 662000.0 0
170000.0 662000.0 0
174000.0 662000.0 0
178000.0 662000.0 0
182000.0 662000.0 0
186000.0 662000.0 0
190000.0 662000.0 0
194000.0 662000.0 0
198000.0 662000.0 0
202000.0 662000.0 0
206000.0 662000.0 0
210000.0 662000.0 0
214000.0 662000.0 0
218000.0 662000.0 0
222000.0 662000.0 0
226000.0 662000.0 0
230000.0 662000.0 0
234000.0 662000.0 0
238000.0 662000.0 0
242000.0 662000.0 0
246000.0 662000.0 0
250000.0 662000.0 0
254000.0 662000.0 0
258000.0 662000.0 0
262000.0 662000.0 0
266000.0 662000.0 0
270000.0 662000.0 0
274000.0 662000.0 0
278000.0 662000.0 0
282000.0 662000.0 0
286000.0 662000.0 0
290000.0 662000.0 0
294000.0 662000.0 0
298000.0 662000.0 0
302000.0 662000.0 0
306000.0 662000.0 0
310000.0 662000.0 0
314000.0 662000.0 0
318000.0 662000.0 0
322000.0 662000.0 0
326000.0 662000.0 0
330000.0 662000.0 0
334000.0 662000.0 0
338000.0 662000.0 0
342000.0 662000.0 0
346000.0 662000.0 0
350000.0 662000.0 0
354000.0 662000.0 0
358000.0 662000.0 0
362000.0 662000.0 0
366000.0 662000.0 0
370000.0 662000.0 0
374000.0 662000.0 0
378000.0 662000.0 0
382000.0 662000.0 0
386000.0 662000.0 0
390000.0 662000.0 0
394000.0 662000.0 0
398000.0 662000.0 0
102000.0 666000.0 0
106000.0 666000.0 0
110000.0 666000.0 0
114000.0 666000.0 0
118000.0 666000.0 0
122000.0 666000.0 0
126000.0 666000.0 0
130000.0 666000.0 0
134000.0 666000.0 0
138000.0 666000.0 0
142000.0 666000.0 0
146000.0 666000.0 0
150000.0 666000.0 0
154000.0 666000.0 0
158000.0 666000.0 0
162000.0 666000.0 0
166000.0 666000.0 0
170000.0 666000.0 0
174000.0 666000.0 0
178000.0 666000.0 0
182000.0 666000.0 0
186000.0 666000.0 0
190000.0 666000.0 0
194000.0 666000.0 0
198000.0 666000.0 0
202000.0 666000.0 0
206000.0 666000.0 0
210000.0 666000.0 0
214000.0 666000.0 0
218000.0 666000.0 0
222000.0 666000.0 0
226000.0 666000.0 0
230000.0 666000.0 0
234000.0 666000.0 0
238000.0 666000.0 0
242000.0 666000.0 0
246000.0 666000.0 0
250000.0 666000.0 0
254000.0 666000.0 0
258000.0 666000.0 0
262000.0 666000.0 0
266000.0 666000.0 0
270000.0 666000.0 0
274000.0 666000.0 0
278000.0 666000.0 0
282000.0 666000.0 0
286000.0 666000.0 0
290000.0 666000.0 0
294000.0 666000.0 0
298000.0 666000.0 0
302000.0 666000.0 0
306000.0 666000.0 0
310000.0 666000.0 0
314000.0 666000.0 0
318000.0 666000.0 0
322000.0 666000.0 0
326000.0 666000.0 0
330000.0 666000.0 0
334000.0 666000.0 0
338000.0 666000.0 0
342000.0 666000.0 0
346000.0 666000.0 0
350000.0 666000.0 0
354000.0 666000.0 0
358000.0 666000.0 0
362000.0 666000.0 0
366000.0 666000.0 0
370000.0 666000.0 0
374000.0 666000.0 0
378000.0 666000.0 0
382000.0 666000.0 0
386000.0 666000.0 0
390000.0 666000.0 0
394000.0 666000.0 0
398000.0 666000.0 0
102000.0 670000.0 0
106000.0 670000.0 0
110000.0 670000.0 0
114000.0 670000.0 0
118000.0 670000.0 0
122000.0 670000.0 0
126000.0 670000.0 0
130000.0 670000.0 0
134000.0 670000.0 0
138000.0 670000.0 0
142000.0 670000.0 0
146000.0 670000.0 0
150000.0 670000.0 0
154000.0 670000.0 0
158000.0 670000.0 0
162000.0 670000.0 0
166000.0 670000.0 0
170000.0 670000.0 0
174000.0 670000.0 0
178000.0 670000.0 0
182000.0 670000.0 0
186000.0 670000.0 0
190000.0 670000.0 0
194000.0 670000.0 0
198000.0 670000.0 0
202000.0 670000.0 0
206000.0 670000.0 0
210000.0 670000.0 0
214000.0 670000.0 0
218000.0 670000.0 0
222000.0 670000.0 0
226000.0 670000.0 0
230000.0 670000.0 0
234000.0 670000.0 0
238000.0 670000.0 0
242000.0 670000.0 0
246000.0 670000.0 0
250000.0 670000.0 0
254000.0 670000.0 0
258000.0 670000.0 0
262000.0 670000.0 0
266000.0 670000.0 0
270000.0 670000.0 0
274000.0 670000.0 0
278000.0 670000.0 0
282000.0 670000.0 0
286000.0 670000.0 0
290000.0 670000.0 0
294000.0 670000.0 0
298000.0 670000.0 0
302000.0 670000.0 0
306000.0 670000.0 0
310000.0 670000.0 0
314000.0 670000.0 0
318000.0 670000.0 0
322000.0 670000.0 0
326000.0 670000.0 0
330000.0 670000.0 0
334000.0 670000.0 0
338000.0 670000.0 0
342000.0 670000.0 0
346000.0 670000.0 0
350000.0 670000.0 0
354000.0 670000.0 0
358000.0 670000.0 0
362000.0 670000.0 0
366000.0 670000.0 0
370000.0 670000.0 0
374000.0 670000.0 0
378000.0 670000.0 0
382000.0 670000.0 0
386000.0 670000.0 0
390000.0 670000.0 0
394000.0 670000.0 0
398000.0 670000.0 0
102000.0 674000.0 0
106000.0 674000.0 0
110000.0 674000.0 0
114000.0 674000.0 0
118000.0 674000.0 0
122000.0 674000.0 0
126000.0 674000.0 0
130000.0 674000.0 0
134000.0 674000.0 0
138000.0 674000.0 0
142000.0 674000.0 0
146000.0 674000.0 0
150000.0 674000.0 0
154000.0 674000.0 0
158000.0 674000.0 0
162000.0 674000.0 0
166000.0 674000.0 0
170000.0 674000.0 0
174000.0 674000.0 0
178000.0 674000.0 0
182000.0 674000.0 0
186000.0 674000.0 0
190000.0 674000.0 0
194000.0 674000.0 0
198000.0 674000.0 0
202000.0 674000.0 0
206000.0 674000.0 0
210000.0 674000.0 0
214000.0 674000.0 0
218000.0 674000.0 0
222000.0 674000.0 0
226000.0 674000.0 0
230000.0 674000.0 0
234000.0 674000.0 0
238000.0 674000.0 0
242000.0 674000.0 0
246000.0 674000.0 0
250000.0 674000.0 0
254000.0 674000.0 0
258000.0 674000.0 0
262000.0 674000.0 0
266000.0 674000.0 0
270000.0 674000.0 0
274000.0 674000.0 0
278000.0 674000.0 0
282000.0 674000.0 0
286000.0 674000.0 0
290000.0 674000.0 0
294000.0 674000.0 0
298000.0 674000.0 0
302000.0 674000.0 0
306000.0 674000.0 0
310000.0 674000.0 0
314000.0 674000.0 0
318000.0 674000.0 0
322000.0 674000.0 0
326000.0 674000.0 0
330000.0 674000.0 0
334000.0 674000.0 0
338000.0 674000.0 0
342000.0 674000.0 0
346000.0 674000.0 0
350000.0 674000.0 0
354000.0 674000.0 0
358000.0 674000.0 0
362000.0 674000.0 0
366000.0 674000.0 0
370000.0 674000.0 0
374000.0 674000.0 0
378000.0 674000.0 0
382000.0 674000.0 0
386000.0 674000.0 0
390000.0 674000.0 0
394000.0 674000.0 0
398000.0 674000.0 0
102000.0 678000.0 0
106000.0 678000.0 0
110000.0 678000.0 0
114000.0 678000.0 0
118000.0 678000.0 0
122000.0 678000.0 0
126000.0 678000.0 0
130000.0 678000.0 0
134000.0 678000.0 0
138000.0 678000.0 0
142000.0 678000.0 0
146000.0 678000.0 0
150000.0 678000.0 0
154000.0 678000.0 0
158000.0 678000.0 0
162000.0 678000.0 0
166000.0 678000.0 0
170000.0 678000.0 0
174000.0 678000.0 0
178000.0 678000.0 0
182000.0 678000.0 0
186000.0 678000.0 0
190000.0 678000.0 0
194000.0 678000.0 0
198000.0 678000.0 0
202000.0 678000.0 0
206000.0 678000.0 0
210000.0 678000.0 0
214000.0 678000.0 0
218000.0 678000.0 0
222000.0 678000.0 0
226000.0 678000.0 0
230000.0 678000.0 0
234000.0 678000.0 0
238000.0 678000.0 0
242000.0 678000.0 0
246000.0 678000.0 0
250000.0 678000.0 0
254000.0 678000.0 0
258000.0 678000.0 0
262000.0 678000.0 0
266000.0 678000.0 0
270000.0 678000.0 0
274000.0 678000.0 0
278000.0 678000.0 0
282000.0 678000.0 0
286000.0 678000.0 0
290000.0 678000.0 0
294000.0 678000.0 0
298000.0 678000.0 0
302000.0 678000.0 0
306000.0 678000.0 0
310000.0 678000.0 0
314000.0 678000.0 0
318000.0 678000.0 0
322000.0 678000.0 0
326000.0 678000.0 0
330000.0 678000.0 0
334000.0 678000.0 0
338000.0 678000.0 0
342000.0 678000.0 0
346000.0 678000.0 0
350000.0 678000.0 0
354000.0 678000.0 0
358000.0 678000.0 0
362000.0 678000.0 0
366000.0 678000.0 0
370000.0 678000.0 0
374000.0 678000.0 0
378000.0 678000.0 0
382000.0 678000.0 0
386000.0 678000.0 0
390000.0 678000.0 0
394000.0 678000.0 0
398000.0 678000.0 0
102000.0 682000.0 0
106000.0 682000.0 0
110000.0 682000.0 0
114000.0 682000.0 0
118000.0 682000.0 0
122000.0 682000.0 0
126000.0 682000.0 0
130000.0 682000.0 0
134000.0 682000.0 0
138000.0 682000.0 0
142000.0 682000.0 0
146000.0 682000.0 0
150000.0 682000.0 0
154000.0 682000.0 0
158000.0 682000.0 0
162000.0 682000.0 0
166000.0 682000.0 0
170000.0 682000.0 0
174000.0 682000.0 0
178000.0 682000.0 0
182000.0 682000.0 0
186000.0 682000.0 0
190000.0 682000.0 0
194000.0 682000.0 0
198000.0 682000.0 0
202000.0 682000.0 0
206000.0 682000.0 0
210000.0 682000.0 0
214000.0 682000.0 0
218000.0 682000.0 0
222000.0 682000.0 0
226000.0 682000.0 0
230000.0 682000.0 0
234000.0 682000.0 0
238000.0 682000.0 0
242000.0 682000.0 0
246000.0 682000.0 0
250000.0 682000.0 0
254000.0 682000.0 0
258000.0 682000.0 0
262000.0 682000.0 0
266000.0 682000.0 0
270000.0 682000.0 0
274000.0 682000.0 0
278000.0 682000.0 0
282000.0 682000.0 0
286000.0 682000.0 0
290000.0 682000.0 0
294000.0 682000.0 0
298000.0 682000.0 0
302000.0 682000.0 0
306000.0 682000.0 0
310000.0 682000.0 0
314000.0 682000.0 0
318000.0 682000.0 0
322000.0 682000.0 0
326000.0 682000.0 0
330000.0 682000.0 0
334000.0 682000.0 0
338000.0 682000.0 0
342000.0 682000.0 0
346000.0 682000.0 0
350000.0 682000.0 0
354000.0 682000.0 0
358000.0 682000.0 0
362000.0 682000.0 0
366000.0 682000.0 0
370000.0 682000.0 0
374000.0 682000.0 0
378000.0 682000.0 0
382000.0 682000.0 0
386000.0 682000.0 0
390000.0 682000.0 0
394000.0 682000.0 0
398000.0 682000.0 0
102000.0 686000.0 0
106000.0 686000.0 0
110000.0 686000.0 0
114000.0 686000.0 0
118000.0 686000.0 0
122000.0 686000.0 0
126000.0 686000.0 0
130000.0 686000.0 0
134000.0 686000.0 0
138000.0 686000.0 0
142000.0 686000.0 0
146000.0 686000.0 0
150000.0 686000.0 0
154000.0 686000.0 0
158000.0 686000.0 0
162000.0 686000.0 0
166000.0 686000.0 0
170000.0 686000.0 0
174000.0 686000.0 0
178000.0 686000.0 0
182000.0 686000.0 0
186000.0 686000.0 0
190000.0 686000.0 0
194000.0 686000.0 0
198000.0 686000.0 0
202000.0 686000.0 0
206000.0 686000.0 0
210000.0 686000.0 0
214000.0 686000.0 0
218000.0 686000.0 0
222000.0 686000.0 0
226000.0 686000.0 0
230000.0 686000.0 0
234000.0 686000.0 0
238000.0 686000.0 0
242000.0 686000.0 0
246000.0 686000.0 0
250000.0 686000.0 0
254000.0 686000.0 0
258000.0 686000.0 0
262000.0 686000.0 0
266000.0 686000.0 0
270000.0 686000.0 0
274000.0 686000.0 0
278000.0 686000.0 0
282000.0 686000.0 0
286000.0 686000.0 0
290000.0 686000.0 0
294000.0 686000.0 0
298000.0 686000.0 0
302000.0 686000.0 0
306000.0 686000.0 0
310000.0 686000.0 0
314000.0 686000.0 0
318000.0 686000.0 0
322000.0 686000.0 0
326000.0 686000.0 0
330000.0 686000.0 0
334000.0 686000.0 0
338000.0 686000.0 0
342000.0 686000.0 0
346000.0 686000.0 0
350000.0 686000.0 0
354000.0 686000.0 0
358000.0 686000.0 0
362000.0 686000.0 0
366000.0 686000.0 0
370000.0 686000.0 0
374000.0 686000.0 0
378000.0 686000.0 0
382000.0 686000.0 0
386000.0 686000.0 0
390000.0 686000.0 0
394000.0 686000.0 0
398000.0 686000.0 0
102000.0 690000.0 0
106000.0 690000.0 0
110000.0 690000.0 0
114000.0 690000.0 0
118000.0 690000.0 0
122000.0 690000.0 0
126000.0 690000.0 0
130000.0 690000.0 0
134000.0 690000.0 0
138000.0 690000.0 0
142000.0 690000.0 0
146000.0 690000.0 0
150000.0 690000.0 0
154000.0 690000.0 0
158000.0 690000.0 0
162000.0 690000.0 0
166000.0 690000.0 0
170000.0 690000.0 0
174000.0 690000.0 0
178000.0 690000.0 0
182000.0 690000.0 0
186000.0 690000.0 0
190000.0 690000.0 0
194000.0 690000.0 0
198000.0 690000.0 0
202000.0 690000.0 0
206000.0 690000.0 0
210000.0 690000.0 0
214000.0 690000.0 0
218000.0 690000.0 0
222000.0 690000.0 0
226000.0 690000.0 0
230000.0 690000.0 0
234000.0 690000.0 0
238000.0 690000.0 0
242000.0 690000.0 0
246000.0 690000.0 0
250000.0 690000.0 0
254000.0 690000.0 0
258000.0 690000.0 0
262000.0 690000.0 0
266000.0 690000.0 0
270000.0 690000.0 0
274000.0 690000.0 0
278000.0 690000.0 0
282000.0 690000.0 0
286000.0 690000.0 0
290000.0 690000.0 0
294000.0 690000.0 0
298000.0 690000.0 0
302000.0 690000.0 0
306000.0 690000.0 0
310000.0 690000.0 0
314000.0 690000.0 0
318000.0 690000.0 0
322000.0 690000.0 0
326000.0 690000.0 0
330000.0 690000.0 0
334000.0 690000.0 0
338000.0 690000.0 0
342000.0 690000.0 0
346000.0 690000.0 0
350000.0 690000.0 0
354000.0 690000.0 0
358000.0 690000.0 0
362000.0 690000.0 0
366000.0 690000.0 0
370000.0 690000.0 0
374000.0 690000.0 0
378000.0 690000.0 0
382000.0 690000.0 0
386000.0 690000.0 0
390000.0 690000.0 0
394000.0 690000.0 0
398000.0 690000.0 0
102000.0 694000.0 0
106000.0 694000.0 0
110000.0 694000.0 0
114000.0 694000.0 0
118000.0 694000.0 0
122000.0 694000.0 0
126000.0 694000.0 0
130000.0 694000.0 0
134000.0 694000.0 0
138000.0 694000.0 0
142000.0 694000.0 0
146000.0 694000.0 0
150000.0 694000.0 0
154000.0 694000.0 0
158000.0 694000.0 0
162000.0 694000.0 0
166000.0 694000.0 0
170000.0 694000.0 0
174000.0 694000.0 0
178000.0 694000.0 0
182000.0 694000.0 0
186000.0 694000.0 0
190000.0 694000.0 0
194000.0 694000.0 0
198000.0 694000.0 0
202000.0 694000.0 0
206000.0 694000.0 0
210000.0 694000.0 0
214000.0 694000.0 0
218000.0 694000.0 0
222000.0 694000.0 0
226000.0 694000.0 0
230000.0 694000.0 0
234000.0 694000.0 0
238000.0 694000.0 0
242000.0 694000.0 0
246000.0 694000.0 0
250000.0 694000.0 0
254000.0 694000.0 0
258000.0 694000.0 0
262000.0 694000.0 0
266000.0 694000.0 0
270000.0 694000.0 0
274000.0 694000.0 0
278000.0 694000.0 0
282000.0 694000.0 0
286000.0 694000.0 0
290000.0 694000.0 0
294000.0 694000.0 0
298000.0 694000.0 0
302000.0 694000.0 0
306000.0 694000.0 0
310000.0 694000.0 0
314000.0 694000.0 0
318000.0 694000.0 0
322000.0 694000.0 0
326000.0 694000.0 0
330000.0 694000.0 0
334000.0 694000.0 0
338000.0 694000.0 0
342000.0 694000.0 0
346000.0 694000.0 0
350000.0 694000.0 0
354000.0 694000.0 0
358000.0 694000.0 0
362000.0 694000.0 0
366000.0 694000.0 0
370000.0 694000.0 0
374000.0 694000.0 0
378000.0 694000.0 0
382000.0 694000.0 0
386000.0 694000.0 0
390000.0 694000.0 0
394000.0 694000.0 0
398000.0 694000.0 0
102000.0 698000.0 0
106000.0 698000.0 0
110000.0 698000.0 0
114000.0 698000.0 0
118000.0 698000.0 0
122000.0 698000.0 0
126000.0 698000.0 0
130000.0 698000.0 0
134000.0 698000.0 0
138000.0 698000.0 0
142000.0 698000.0 0
146000.0 698000.0 0
150000.0 698000.0 0
154000.0 698000.0 0
158000.0 698000.0 0
162000.0 698000.0 0
166000.0 698000.0 0
170000.0 698000.0 0
174000.0 698000.0 0
178000.0 698000.0 0
182000.0 698000.0 0
186000.0 698000.0 0
190000.0 698000.0 0
194000.0 698000.0 0
198000.0 698000.0 0
202000.0 698000.0 0
206000.0 698000.0 0
210000.0 698000.0 0
214000.0 698000.0 0
218000.0 698000.0 0
222000.0 698000.0 0
226000.0 698000.0 0
230000.0 698000.0 0
234000.0 698000.0 0
238000.0 698000.0 0
242000.0 698000.0 0
246000.0 698000.0 0
250000.0 698000.0 0
254000.0 698000.0 0
258000.0 698000.0 0
262000.0 698000.0 0
266000.0 698000.0 0
270000.0 698000.0 0
274000.0 698000.0 0
278000.0 698000.0 0
282000.0 698000.0 0
286000.0 698000.0 0
290000.0 698000.0 0
294000.0 698000.0 0
298000.0 698000.0 0
302000.0 698000.0 0
306000.0 698000.0 0
310000.0 698000.0 0
314000.0 698000.0 0
318000.0 698000.0 0
322000.0 698000.0 0
326000.0 698000.0 0
330000.0 698000.0 0
334000.0 698000.0 0
338000.0 698000.0 0
342000.0 698000.0 0
346000.0 698000.0 0
350000.0 698000.0 0
354000.0 698000.0 0
358000.0 698000.0 0
362000.0 698000.0 0
366000.0 698000.0 0
370000.0 698000.0 0
374000.0 698000.0 0
378000.0 698000.0 0
382000.0 698000.0 0
386000.0 698000.0 0
390000.0 698000.0 0
394000.0 698000.0 0
398000.0 698000.0 0
102000.0 702000.0 0
106000.0 702000.0 0
110000.0 702000.0 0
114000.0 702000.0 0
118000.0 702000.0 0
122000.0 702000.0 0
126000.0 702000.0 0
130000.0 702000.0 0
134000.0 702000.0 0
138000.0 702000.0 0
142000.0 702000.0 0
146000.0 702000.0 0
150000.0 702000.0 0
154000.0 702000.0 0
158000.0 702000.0 0
162000.0 702000.0 0
166000.0 702000.0 0
170000.0 702000.0 0
174000.0 702000.0 0
178000.0 702000.0 0
182000.0 702000.0 0
186000.0 702000.0 0
190000.0 702000.0 0
194000.0 702000.0 0
198000.0 702000.0 0
202000.0 702000.0 0
206000.0 702000.0 0
210000.0 702000.0 0
214000.0 702000.0 0
218000.0 702000.0 0
222000.0 702000.0 0
226000.0 702000.0 0
230000.0 702000.0 0
234000.0 702000.0 0
238000.0 702000.0 0
242000.0 702000.0 0
246000.0 702000.0 0
250000.0 702000.0 0
254000.0 702000.0 0
258000.0 702000.0 0
262000.0 702000.0 0
266000.0 702000.0 0
270000.0 702000.0 0
274000.0 702000.0 0
278000.0 702000.0 0
282000.0 702000.0 0
286000.0 702000.0 0
290000.0 702000.0 0
294000.0 702000.0 0
298000.0 702000.0 0
302000.0 702000.0 0
306000.0 702000.0 0
310000.0 702000.0 0
314000.0 702000.0 0
318000.0 702000.0 0
322000.0 702000.0 0
326000.0 702000.0 0
330000.0 702000.0 0
334000.0 702000.0 0
338000.0 702000.0 0
342000.0 702000.0 0
346000.0 702000.0 0
350000.0 702000.0 0
354000.0 702000.0 0
358000.0 702000.0 0
362000.0 702000.0 0
366000.0 702000.0 0
370000.0 702000.0 0
374000.0 702000.0 0
378000.0 702000.0 0
382000.0 702000.0 0
386000.0 702000.0 0
390000.0 702000.0 0
394000.0 702000.0 0
398000.0 702000.0 0
102000.0 706000.0 0
106000.0 706000.0 0
110000.0 706000.0 0
114000.0 706000.0 0
118000.0 706000.0 0
122000.0 706000.0 0
126000.0 706000.0 0
130000.0 706000.0 0
134000.0 706000.0 0
138000.0 706000.0 0
142000.0 706000.0 0
146000.0 706000.0 0
150000.0 706000.0 0
154000.0 706000.0 0
158000.0 706000.0 0
162000.0 706000.0 0
166000.0 706000.0 0
170000.0 706000.0 0
174000.0 706000.0 0
178000.0 706000.0 0
182000.0 706000.0 0
186000.0 706000.0 0
190000.0 706000.0 0
194000.0 706000.0 0
198000.0 706000.0 0
202000.0 706000.0 0
206000.0 706000.0 0
210000.0 706000.0 0
214000.0 706000.0 0
218000.0 706000.0 0
222000.0 706000.0 0
226000.0 706000.0 0
230000.0 706000.0 0
234000.0 706000.0 0
238000.0 706000.0 0
242000.0 706000.0 0
246000.0 706000.0 0
250000.0 706000.0 0
254000.0 706000.0 0
258000.0 706000.0 0
262000.0 706000.0 0
266000.0 706000.0 0
270000.0 706000.0 0
274000.0 706000.0 0
278000.0 706000.0 0
282000.0 706000.0 0
286000.0 706000.0 0
290000.0 706000.0 0
294000.0 706000.0 0
298000.0 706000.0 0
302000.0 706000.0 0
306000.0 706000.0 0
310000.0 706000.0 0
314000.0 706000.0 0
318000.0 706000.0 0
322000.0 706000.0 0
326000.0 706000.0 0
330000.0 706000.0 0
334000.0 706000.0 0
338000.0 706000.0 0
342000.0 706000.0 0
346000.0 706000.0 0
350000.0 706000.0 0
354000.0 706000.0 0
358000.0 706000.0 0
362000.0 706000.0 0
366000.0 706000.0 0
370000.0 706000.0 0
374000.0 706000.0 0
378000.0 706000.0 0
382000.0 706000.0 0
386000.0 706000.0 0
390000.0 706000.0 0
394000.0 706000.0 0
398000.0 706000.0 0
102000.0 710000.0 0
106000.0 710000.0 0
110000.0 710000.0 0
114000.0 710000.0 0
118000.0 710000.0 0
122000.0 710000.0 0
126000.0 710000.0 0
130000.0 710000.0 0
134000.0 710000.0 0
138000.0 710000.0 0
142000.0 710000.0 0
146000.0 710000.0 0
150000.0 710000.0 0
154000.0 710000.0 0
158000.0 710000.0 0
162000.0 710000.0 0
166000.0 710000.0 0
170000.0 710000.0 0
174000.0 710000.0 0
178000.0 710000.0 0
182000.0 710000.0 0
186000.0 710000.0 0
190000.0 710000.0 0
194000.0 710000.0 0
198000.0 710000.0 0
202000.0 710000.0 0
206000.0 710000.0 0
210000.0 710000.0 0
214000.0 710000.0 0
218000.0 710000.0 0
222000.0 710000.0 0
226000.0 710000.0 0
230000.0 710000.0 0
234000.0 710000.0 0
238000.0 710000.0 0
242000.0 710000.0 0
246000.0 710000.0 0
250000.0 710000.0 0
254000.0 710000.0 0
258000.0 710000.0 0
262000.0 710000.0 0
266000.0 710000.0 0
270000.0 710000.0 0
274000.0 710000.0 0
278000.0 710000.0 0
282000.0 710000.0 0
286000.0 710000.0 0
290000.0 710000.0 0
294000.0 710000.0 0
298000.0 710000.0 0
302000.0 710000.0 0
306000.0 710000.0 0
310000.0 710000.0 0
314000.0 710000.0 0
318000.0 710000.0 0
322000.0 710000.0 0
326000.0 710000.0 0
330000.0 710000.0 0
334000.0 710000.0 0
338000.0 710000.0 0
342000.0 710000.0 0
346000.0 710000.0 0
350000.0 710000.0 0
354000.0 710000.0 0
358000.0 710000.0 0
362000.0 710000.0 0
366000.0 710000.0 0
370000.0 710000.0 0
374000.0 710000.0 0
378000.0 710000.0 0
382000.0 710000.0 0
386000.0 710000.0 0
390000.0 710000.0 0
394000.0 710000.0 0
398000.0 710000.0 0
102000.0 714000.0 0
106000.0 714000.0 0
110000.0 714000.0 0
114000.0 714000.0 0
118000.0 714000.0 0
122000.0 714000.0 0
126000.0 714000.0 0
130000.0 714000.0 0
134000.0 714000.0 0
138000.0 714000.0 0
142000.0 714000.0 0
146000.0 714000.0 0
150000.0 714000.0 0
154000.0 714000.0 0
158000.0 714000.0 0
162000.0 714000.0 0
166000.0 714000.0 0
170000.0 714000.0 0
174000.0 714000.0 0
178000.0 714000.0 0
182000.0 714000.0 0
186000.0 714000.0 0
190000.0 714000.0 0
194000.0 714000.0 0
198000.0 714000.0 0
202000.0 714000.0 0
206000.0 714000.0 0
210000.0 714000.0 0
214000.0 714000.0 0
218000.0 714000.0 0
222000.0 714000.0 0
226000.0 714000.0 0
230000.0 714000.0 0
234000.0 714000.0 0
238000.0 714000.0 0
242000.0 714000.0 0
246000.0 714000.0 0
250000.0 714000.0 0
254000.0 714000.0 0
258000.0 714000.0 0
262000.0 714000.0 0
266000.0 714000.0 0
270000.0 714000.0 0
274000.0 714000.0 0
278000.0 714000.0 0
282000.0 714000.0 0
286000.0 714000.0 0
290000.0 714000.0 0
294000.0 714000.0 0
298000.0 714000.0 0
302000.0 714000.0 0
306000.0 714000.0 0
310000.0 714000.0 0
314000.0 714000.0 0
318000.0 714000.0 0
322000.0 714000.0 0
326000.0 714000.0 0
330000.0 714000.0 0
334000.0 714000.0 0
338000.0 714000.0 0
342000.0 714000.0 0
346000.0 714000.0 0
350000.0 714000.0 0
354000.0 714000.0 0
358000.0 714000.0 0
362000.0 714000.0 0
366000.0 714000.0 0
370000.0 714000.0 0
374000.0 714000.0 0
378000.0 714000.0 0
382000.0 714000.0 0
386000.0 714000.0 0
390000.0 714000.0 0
394000.0 714000.0 0
398000.0 714000.0 0
102000.0 718000.0 0
106000.0 718000.0 0
110000.0 718000.0 0
114000.0 718000.0 0
118000.0 718000.0 0
122000.0 718000.0 0
126000.0 718000.0 0
130000.0 718000.0 0
134000.0 718000.0 0
138000.0 718000.0 0
142000.0 718000.0 0
146000.0 718000.0 0
150000.0 718000.0 0
154000.0 718000.0 0
158000.0 718000.0 0
162000.0 718000.0 0
166000.0 718000.0 0
170000.0 718000.0 0
174000.0 718000.0 0
178000.0 718000.0 0
182000.0 718000.0 0
186000.0 718000.0 0
190000.0 718000.0 0
194000.0 718000.0 0
198000.0 718000.0 0
202000.0 718000.0 0
206000.0 718000.0 0
210000.0 718000.0 0
214000.0 718000.0 0
218000.0 718000.0 0
222000.0 718000.0 0
226000.0 718000.0 0
230000.0 718000.0 0
234000.0 718000.0 0
238000.0 718000.0 0
242000.0 718000.0 0
246000.0 718000.0 0
250000.0 718000.0 0
254000.0 718000.0 0
258000.0 718000.0 0
262000.0 718000.0 0
266000.0 718000.0 0
270000.0 718000.0 0
274000.0 718000.0 0
278000.0 718000.0 0
282000.0 718000.0 0
286000.0 718000.0 0
290000.0 718000.0 0
294000.0 718000.0 0
298000.0 718000.0 0
302000.0 718000.0 0
306000.0 718000.0 0
310000.0 718000.0 0
314000.0 718000.0 0
318000.0 718000.0 0
322000.0 718000.0 0
326000.0 718000.0 0
330000.0 718000.0 0
334000.0 718000.0 0
338000.0 718000.0 0
342000.0 718000.0 0
346000.0 718000.0 0
350000.0 718000.0 0
354000.0 718000.0 0
358000.0 718000.0 0
362000.0 718000.0 0
366000.0 718000.0 0
370000.0 718000.0 0
374000.0 718000.0 0
378000.0 718000.0 0
382000.0 718000.0 0
386000.0 718000.0 0
390000.0 718000.0 0
394000.0 718000.0 0
398000.0 718000.0 0
102000.0 722000.0 0
106000.0 722000.0 0
110000.0 722000.0 0
114000.0 722000.0 0
118000.0 722000.0 0
122000.0 722000.0 0
126000.0 722000.0 0
130000.0 722000.0 0
134000.0 722000.0 0
138000.0 722000.0 0
142000.0 722000.0 0
146000.0 722000.0 0
150000.0 722000.0 0
154000.0 722000.0 0
158000.0 722000.0 0
162000.0 722000.0 0
166000.0 722000.0 0
170000.0 722000.0 0
174000.0 722000.0 0
178000.0 722000.0 0
182000.0 722000.0 0
186000.0 722000.0 0
190000.0 722000.0 0
194000.0 722000.0 0
198000.0 722000.0 0
202000.0 722000.0 0
206000.0 722000.0 0
210000.0 722000.0 0
214000.0 722000.0 0
218000.0 722000.0 0
222000.0 722000.0 0
226000.0 722000.0 0
230000.0 722000.0 0
234000.0 722000.0 0
238000.0 722000.0 0
242000.0 722000.0 0
246000.0 722000.0 0
250000.0 722000.0 0
254000.0 722000.0 0
258000.0 722000.0 0
262000.0 722000.0 0
266000.0 722000.0 0
270000.0 722000.0 0
274000.0 722000.0 0
278000.0 722000.0 0
282000.0 722000.0 0
286000.0 722000.0 0
290000.0 722000.0 0
294000.0 722000.0 0
298000.0 722000.0 0
302000.0 722000.0 0
306000.0 722000.0 0
310000.0 722000.0 0
314000.0 722000.0 0
318000.0 722000.0 0
322000.0 722000.0 0
326000.0 722000.0 0
330000.0 722000.0 0
334000.0 722000.0 0
338000.0 722000.0 0
342000.0 722000.0 0
346000.0 722000.0 0
350000.0 722000.0 0
354000.0 722000.0 0
358000.0 722000.0 0
362000.0 722000.0 0
366000.0 722000.0 0
370000.0 722000.0 0
374000.0 722000.0 0
378000.0 722000.0 0
382000.0 722000.0 0
386000.0 722000.0 0
390000.0 722000.0 0
394000.0 722000.0 0
398000.0 722000.0 0
102000.0 726000.0 0
106000.0 726000.0 0
110000.0 726000.0 0
114000.0 726000.0 0
118000.0 726000.0 0
122000.0 726000.0 0
126000.0 726000.0 0
130000.0 726000.0 0
134000.0 726000.0 0
138000.0 726000.0 0
142000.0 726000.0 0
146000.0 726000.0 0
150000.0 726000.0 0
154000.0 726000.0 0
158000.0 726000.0 0
162000.0 726000.0 0
166000.0 726000.0 0
170000.0 726000.0 0
174000.0 726000.0 0
178000.0 726000.0 0
182000.0 726000.0 0
186000.0 726000.0 0
190000.0 726000.0 0
194000.0 726000.0 0
198000.0 726000.0 0
202000.0 726000.0 0
206000.0 726000.0 0
210000.0 726000.0 0
214000.0 726000.0 0
218000.0 726000.0 0
222000.0 726000.0 0
226000.0 726000.0 0
230000.0 726000.0 0
234000.0 726000.0 0
238000.0 726000.0 0
242000.0 726000.0 0
246000.0 726000.0 0
250000.0 726000.0 0
254000.0 726000.0 0
258000.0 726000.0 0
262000.0 726000.0 0
266000.0 726000.0 0
270000.0 726000.0 0
274000.0 726000.0 0
278000.0 726000.0 0
282000.0 726000.0 0
286000.0 726000.0 0
290000.0 726000.0 0
294000.0 726000.0 0
298000.0 726000.0 0
302000.0 726000.0 0
306000.0 726000.0 0
310000.0 726000.0 0
314000.0 726000.0 0
318000.0 726000.0 0
322000.0 726000.0 0
326000.0 726000.0 0
330000.0 726000.0 0
334000.0 726000.0 0
338000.0 726000.0 0
342000.0 726000.0 0
346000.0 726000.0 0
350000.0 726000.0 0
354000.0 726000.0 0
358000.0 726000.0 0
362000.0 726000.0 0
366000.0 726000.0 0
370000.0 726000.0 0
374000.0 726000.0 0
378000.0 726000.0 0
382000.0 726000.0 0
386000.0 726000.0 0
390000.0 726000.0 0
394000.0 726000.0 0
398000.0 726000.0 0
102000.0 730000.0 0
106000.0 730000.0 0
110000.0 730000.0 0
114000.0 730000.0 0
118000.0 730000.0 0
122000.0 730000.0 0
126000.0 730000.0 0
130000.0 730000.0 0
134000.0 730000.0 0
138000.0 730000.0 0
142000.0 730000.0 0
146000.0 730000.0 0
150000.0 730000.0 0
154000.0 730000.0 0
158000.0 730000.0 0
162000.0 730000.0 0
166000.0 730000.0 0
170000.0 730000.0 0
174000.0 730000.0 0
178000.0 730000.0 0
182000.0 730000.0 0
186000.0 730000.0 0
190000.0 730000.0 0
194000.0 730000.0 0
198000.0 730000.0 0
202000.0 730000.0 0
206000.0 730000.0 0
210000.0 730000.0 0
214000.0 730000.0 0
218000.0 730000.0 0
222000.0 730000.0 0
226000.0 730000.0 0
230000.0 730000.0 0
234000.0 730000.0 0
238000.0 730000.0 0
242000.0 730000.0 0
246000.0 730000.0 0
250000.0 730000.0 0
254000.0 730000.0 0
258000.0 730000.0 0
262000.0 730000.0 0
266000.0 730000.0 0
270000.0 730000.0 0
274000.0 730000.0 0
278000.0 730000.0 0
282000.0 730000.0 0
286000.0 730000.0 0
290000.0 730000.0 0
294000.0 730000.0 0
298000.0 730000.0 0
302000.0 730000.0 0
306000.0 730000.0 0
310000.0 730000.0 0
314000.0 730000.0 0
318000.0 730000.0 0
322000.0 730000.0 0
326000.0 730000.0 0
330000.0 730000.0 0
334000.0 730000.0 0
338000.0 730000.0 0
342000.0 730000.0 0
346000.0 730000.0 0
350000.0 730000.0 0
354000.0 730000.0 0
358000.0 730000.0 0
362000.0 730000.0 0
366000.0 730000.0 0
370000.0 730000.0 0
374000.0 730000.0 0
378000.0 730000.0 0
382000.0 730000.0 0
386000.0 730000.0 0
390000.0 730000.0 0
394000.0 730000.0 0
398000.0 730000.0 0
102000.0 734000.0 0
106000.0 734000.0 0
110000.0 734000.0 0
114000.0 734000.0 0
118000.0 734000.0 0
122000.0 734000.0 0
126000.0 734000.0 0
130000.0 734000.0 0
134000.0 734000.0 0
138000.0 734000.0 0
142000.0 734000.0 0
146000.0 734000.0 0
150000.0 734000.0 0
154000.0 734000.0 0
158000.0 734000.0 0
162000.0 734000.0 0
166000.0 734000.0 0
170000.0 734000.0 0
174000.0 734000.0 0
178000.0 734000.0 0
182000.0 734000.0 0
186000.0 734000.0 0
190000.0 734000.0 0
194000.0 734000.0 0
198000.0 734000.0 0
202000.0 734000.0 0
206000.0 734000.0 0
210000.0 734000.0 0
214000.0 734000.0 0
218000.0 734000.0 0
222000.0 734000.0 0
226000.0 734000.0 0
230000.0 734000.0 0
234000.0 734000.0 0
238000.0 734000.0 0
242000.0 734000.0 0
246000.0 734000.0 0
250000.0 734000.0 0
254000.0 734000.0 0
258000.0 734000.0 0
262000.0 734000.0 0
266000.0 734000.0 0
270000.0 734000.0 0
274000.0 734000.0 0
278000.0 734000.0 0
282000.0 734000.0 0
286000.0 734000.0 0
290000.0 734000.0 0
294000.0 734000.0 0
298000.0 734000.0 0
302000.0 734000.0 0
306000.0 734000.0 0
310000.0 734000.0 0
314000.0 734000.0 0
318000.0 734000.0 0
322000.0 734000.0 0
326000.0 734000.0 0
330000.0 734000.0 0
334000.0 734000.0 0
338000.0 734000.0 0
342000.0 734000.0 0
346000.0 734000.0 0
350000.0 734000.0 0
354000.0 734000.0 0
358000.0 734000.0 0
362000.0 734000.0 0
366000.0 734000.0 0
370000.0 734000.0 0
374000.0 734000.0 0
378000.0 734000.0 0
382000.0 734000.0 0
386000.0 734000.0 0
390000.0 734000.0 0
394000.0 734000.0 0
398000.0 734000.0 0
102000.0 738000.0 0
106000.0 738000.0 0
110000.0 738000.0 0
114000.0 738000.0 0
118000.0 738000.0 0
122000.0 738000.0 0
126000.0 738000.0 0
130000.0 738000.0 0
134000.0 738000.0 0
138000.0 738000.0 0
142000.0 738000.0 0
146000.0 738000.0 0
150000.0 738000.0 0
154000.0 738000.0 0
158000.0 738000.0 0
162000.0 738000.0 0
166000.0 738000.0 0
170000.0 738000.0 0
174000.0 738000.0 0
178000.0 738000.0 0
182000.0 738000.0 0
186000.0 738000.0 0
190000.0 738000.0 0
194000.0 738000.0 0
198000.0 738000.0 0
202000.0 738000.0 0
206000.0 738000.0 0
210000.0 738000.0 0
214000.0 738000.0 0
218000.0 738000.0 0
222000.0 738000.0 0
226000.0 738000.0 0
230000.0 738000.0 0
234000.0 738000.0 0
238000.0 738000.0 0
242000.0 738000.0 0
246000.0 738000.0 0
250000.0 738000.0 0
254000.0 738000.0 0
258000.0 738000.0 0
262000.0 738000.0 0
266000.0 738000.0 0
270000.0 738000.0 0
274000.0 738000.0 0
278000.0 738000.0 0
282000.0 738000.0 0
286000.0 738000.0 0
290000.0 738000.0 0
294000.0 738000.0 0
298000.0 738000.0 0
302000.0 738000.0 0
306000.0 738000.0 0
310000.0 738000.0 0
314000.0 738000.0 0
318000.0 738000.0 0
322000.0 738000.0 0
326000.0 738000.0 0
330000.0 738000.0 0
334000.0 738000.0 0
338000.0 738000.0 0
342000.0 738000.0 0
346000.0 738000.0 0
350000.0 738000.0 0
354000.0 738000.0 0
358000.0 738000.0 0
362000.0 738000.0 0
366000.0 738000.0 0
370000.0 738000.0 0
374000.0 738000.0 0
378000.0 738000.0 0
382000.0 738000.0 0
386000.0 738000.0 0
390000.0 738000.0 0
394000.0 738000.0 0
398000.0 738000.0 0
102000.0 742000.0 0
106000.0 742000.0 0
110000.0 742000.0 0
114000.0 742000.0 0
118000.0 742000.0 0
122000.0 742000.0 0
126000.0 742000.0 0
130000.0 742000.0 0
134000.0 742000.0 0
138000.0 742000.0 0
142000.0 742000.0 0
146000.0 742000.0 0
150000.0 742000.0 0
154000.0 742000.0 0
158000.0 742000.0 0
162000.0 742000.0 0
166000.0 742000.0 0
170000.0 742000.0 0
174000.0 742000.0 0
178000.0 742000.0 0
182000.0 742000.0 0
186000.0 742000.0 0
190000.0 742000.0 0
194000.0 742000.0 0
198000.0 742000.0 0
202000.0 742000.0 0
206000.0 742000.0 0
210000.0 742000.0 0
214000.0 742000.0 0
218000.0 742000.0 0
222000.0 742000.0 0
226000.0 742000.0 0
230000.0 742000.0 0
234000.0 742000.0 0
238000.0 742000.0 0
242000.0 742000.0 0
246000.0 742000.0 0
250000.0 742000.0 0
254000.0 742000.0 0
258000.0 742000.0 0
262000.0 742000.0 0
266000.0 742000.0 0
270000.0 742000.0 0
274000.0 742000.0 0
278000.0 742000.0 0
282000.0 742000.0 0
286000.0 742000.0 0
290000.0 742000.0 0
294000.0 742000.0 0
298000.0 742000.0 0
302000.0 742000.0 0
306000.0 742000.0 0
310000.0 742000.0 0
314000.0 742000.0 0
318000.0 742000.0 0
322000.0 742000.0 0
326000.0 742000.0 0
330000.0 742000.0 0
334000.0 742000.0 0
338000.0 742000.0 0
342000.0 742000.0 0
346000.0 742000.0 0
350000.0 742000.0 0
354000.0 742000.0 0
358000.0 742000.0 0
362000.0 742000.0 0
366000.0 742000.0 0
370000.0 742000.0 0
374000.0 742000.0 0
378000.0 742000.0 0
382000.0 742000.0 0
386000.0 742000.0 0
390000.0 742000.0 0
394000.0 742000.0 0
398000.0 742000.0 0
102000.0 746000.0 0
106000.0 746000.0 0
110000.0 746000.0 0
114000.0 746000.0 0
118000.0 746000.0 0
122000.0 746000.0 0
126000.0 746000.0 0
130000.0 746000.0 0
134000.0 746000.0 0
138000.0 746000.0 0
142000.0 746000.0 0
146000.0 746000.0 0
150000.0 746000.0 0
154000.0 746000.0 0
158000.0 746000.0 0
162000.0 746000.0 0
166000.0 746000.0 0
170000.0 746000.0 0
174000.0 746000.0 0
178000.0 746000.0 0
182000.0 746000.0 0
186000.0 746000.0 0
190000.0 746000.0 0
194000.0 746000.0 0
198000.0 746000.0 0
202000.0 746000.0 0
206000.0 746000.0 0
210000.0 746000.0 0
214000.0 746000.0 0
218000.0 746000.0 0
222000.0 746000.0 0
226000.0 746000.0 0
230000.0 746000.0 0
234000.0 746000.0 0
238000.0 746000.0 0
242000.0 746000.0 0
246000.0 746000.0 0
250000.0 746000.0 0
254000.0 746000.0 0
258000.0 746000.0 0
262000.0 746000.0 0
266000.0 746000.0 0
270000.0 746000.0 0
274000.0 746000.0 0
278000.0 746000.0 0
282000.0 746000.0 0
286000.0 746000.0 0
290000.0 746000.0 0
294000.0 746000.0 0
298000.0 746000.0 0
302000.0 746000.0 0
306000.0 746000.0 0
310000.0 746000.0 0
314000.0 746000.0 0
318000.0 746000.0 0
322000.0 746000.0 0
326000.0 746000.0 0
330000.0 746000.0 0
334000.0 746000.0 0
338000.0 746000.0 0
342000.0 746000.0 0
346000.0 746000.0 0
350000.0 746000.0 0
354000.0 746000.0 0
358000.0 746000.0 0
362000.0 746000.0 0
366000.0 746000.0 0
370000.0 746000.0 0
374000.0 746000.0 0
378000.0 746000.0 0
382000.0 746000.0 0
386000.0 746000.0 0
390000.0 746000.0 0
394000.0 746000.0 0
398000.0 746000.0 0
POINT_DATA 4650
SCALARS Radius float 1
LOOKUP_TABLE default
4000.0 4000.0 4000.0 4000.0 4000.0 4000.0 4000.0 4000.0 4000.0 4000.0 4000.0 4000.0 4000.0 4000.0 4000.0 4000.0 4000.0 4000.0 4000.0 4000.0 4000.0 4000.0 4000.0 4000.0 4000.0 4000.0 4000.0 4000.0 4000.0 4000.0 4000.0 4000.0 4000.0 4000.0 4000.0 4000.0 4000.0 4000.0 4000.0 4000.0 4000.0 4000.0 4000.0 4000.0 4000.0 4000.0 4000.0 4000.0 4000.0 4000.0 4000.0 4000.0 4000.0 4000.0 4000.0 4000.0 4000.0 4000.0 4000.0 4000.0 4000.0 4000.0 4000.0 4000.0 4000.0 4000.0 4000.0 4000.0 4000.0 4000.0 4000.0 4000.0 4000.0 4000.0 4000.0 4000.0 4000.0 4000.0 4000.0 4000.0 4000.0 4000.0 4000.0 4000.0 4000.0 4000.0 4000.0 4000.0 4000.0 4000.0 4000.0 4000.0 4000.0 4000.0 4000.0 4000.0 4000.0 4000.0 4000.0 4000.0 4000.0 4000.0 4000.0 4000.0 4000.0 4000.0 4000.0 4000.0 4000.0 4000.0 4000.0 4000.0 4000.0 4000.0 4000.0 4000.0 4000.0 4000.0 4000.0 4000.0 4000.0 4000.0 4000.0 4000.0 4000.0 4000.0 4000.0 4000.0 4000.0 4000.0 4000.0 4000.0 4000.0 4000.0 4000.0 4000.0 4000.0 4000.0 4000.0 4000.0 4000.0 4000.0 4000.0 4000.0 4000.0 4000.0 4000.0 4000.0 4000.0 4000.0 4000.0 4000.0 4000.0 4000.0 4000.0 4000.0 4000.0 4000.0 4000.0 4000.0 4000.0 4000.0 4000.0 4000.0 4000.0 4000.0 4000.0 4000.0 4000.0 4000.0 4000.0 4000.0 4000.0 4000.0 4000.0 4000.0 4000.0 4000.0 4000.0 4000.0 4000.0 4000.0 4000.0 4000.0 4000.0 4000.0 4000.0 4000.0 4000.0 4000.0 4000.0 4000.0 4000.0 4000.0 4000.0 4000.0 4000.0 4000.0 4000.0 4000.0 4000.0 4000.0 4000.0 4000.0 4000.0 4000.0 4000.0 4000.0 4000.0 4000.0 4000.0 4000.0 4000.0 4000.0 4000.0 4000.0 4000.0 4000.0 4000.0 4000.0 4000.0 4000.0 4000.0 4000.0 4000.0 4000.0 4000.0 4000.0 4000.0 4000.0 4000.0 4000.0 4000.0 4000.0 4000.0 4000.0 4000.0 4000.0 4000.0 4000.0 4000.0 4000.0 4000.0 4000.0 4000.0 4000.0 4000.0 4000.0 4000.0 4000.0 4000.0 4000.0 4000.0 4000.0 4000.0 4000.0 4000.0 4000.0 4000.0 4000.0 4000.0 4000.0 4000.0 4000.0 4000.0 4000.0 4000.0 4000.0 4000.0 4000.0 4000.0 4000.0 4000.0 4000.0 4000.0 4000.0 4000.0 4000.0 4000.0 4000.0 4000.0 4000.0 4000.0 4000.0 4000.0 4000.0 4000.0 4000.0 4000.0 4000.0 4000.0 4000.0 4000.0 4000.0 4000.0 4000.0 4000.0 4000.0 4000.0 4000.0 4000.0 4000.0 4000.0 4000.0 4000.0 4000.0 4000.0 4000.0 4000.0 4000.0 4000.0 4000.0 4000.0 4000.0 4000.0 4000.0 4000.0 4000.0 4000.0 4000.0 4000.0 4000.0 4000.0 4000.0 4000.0 4000.0 4000.0 4000.0 4000.0 4000.0 4000.0 4000.0 4000.0 4000.0 4000.0 4000.0 4000.0 4000.0 4000.0 4000.0 4000.0 4000.0 4000.0 4000.0 4000.0 4000.0 4000.0 4000.0 4000.0 4000.0 4000.0 4000.0 4000.0 4000.0 4000.0 4000.0 4000.0 4000.0 4000.0 4000.0 4000.0 4000.0 4000.0 4000.0 4000.0 4000.0 4000.0 4000.0 4000.0 4000.0 4000.0 4000.0 4000.0 4000.0 4000.0 4000.0 4000.0 4000.0 4000.0 4000.0 4000.0 4000.0 4000.0 4000.0 4000.0 4000.0 4000.0 4000.0 4000.0 4000.0 4000.0 4000.0 4000.0 4000.0 4000.0 4000.0 4000.0 4000.0 4000.0 4000.0 4000.0 4000.0 4000.0 4000.0 4000.0 4000.0 4000.0 4000.0 4000.0 4000.0 4000.0 4000.0 4000.0 4000.0 4000.0 4000.0 4000.0 4000.0 4000.0 4000.0 4000.0 4000.0 4000.0 4000.0 4000.0 4000.0 4000.0 4000.0 4000.0 4000.0 4000.0 4000.0 4000.0 4000.0 4000.0 4000.0 4000.0 4000.0 4000.0 4000.0 4000.0 4000.0 4000.0 4000.0 4000.0 4000.0 4000.0 4000.0 4000.0 4000.0 4000.0 4000.0 4000.0 4000.0 4000.0 4000.0 4000.0 4000.0 4000.0 4000.0 4000.0 4000.0 4000.0 4000.0 4000.0 4000.0 4000.0 4000.0 4000.0 4000.0 4000.0 4000.0 4000.0 4000.0 4000.0 4000.0 4000.0 4000.0 4000.0 4000.0 4000.0 4000.0 4000.0 4000.0 4000.0 4000.0 4000.0 4000.0 4000.0 4000.0 4000.0 4000.0 4000.0 4000.0 4000.0 4000.0 4000.0 4000.0 4000.0 4000.0 4000.0 4000.0 4000.0 4000.0 4000.0 4000.0 4000.0 4000.0 4000.0 4000.0 4000.0 4000.0 4000.0 4000.0 4000.0 4000.0 4000.0 4000.0 4000.0 4000.0 4000.0 4000.0 4000.0 4000.0 4000.0 4000.0 4000.0 4000.0 4000.0 4000.0 4000.0 4000.0 4000.0 4000.0 4000.0 4000.0 4000.0 4000.0 4000.0 4000.0 4000.0 4000.0 4000.0 4000.0 4000.0 4000.0 4000.0 4000.0 4000.0 4000.0 4000.0 4000.0 4000.0 4000.0 4000.0 4000.0 4000.0 4000.0 4000.0 4000.0 4000.0 4000.0 4000.0 4000.0 4000.0 4000.0 4000.0 4000.0 4000.0 4000.0 4000.0 4000.0 4000.0 4000.0 4000.0 4000.0 4000.0 4000.0 4000.0 4000.0 4000.0 4000.0 4000.0 4000.0 4000.0 4000.0 4000.0 4000.0 4000.0 4000.0 4000.0 4000.0 4000.0 4000.0 4000.0 4000.0 4000.0 4000.0 4000.0 4000.0 4000.0 4000.0 4000.0 4000.0 4000.0 4000.0 4000.0 4000.0 4000.0 4000.0 4000.0 4000.0 4000.0 4000.0 4000.0 4000.0 4000.0 4000.0 4000.0 4000.0 4000.0 4000.0 4000.0 4000.0 4000.0 4000.0 4000.0 4000.0 4000.0 4000.0 4000.0 4000.0 4000.0 4000.0 4000.0 4000.0 4000.0 4000.0 4000.0 4000.0 4000.0 4000.0 4000.0 4000.0 4000.0 4000.0 4000.0 4000.0 4000.0 4000.0 4000.0 4000.0 4000.0 4000.0 4000.0 4000.0 4000.0 4000.0 4000.0 4000.0 4000.0 4000.0 4000.0 4000.0 4000.0 4000.0 4000.0 4000.0 4000.0 4000.0 4000.0 4000.0 4000.0 4000.0 4000.0 4000.0 4000.0 4000.0 4000.0 4000.0 4000.0 4000.0 4000.0 4000.0 4000.0 4000.0 4000.0 4000.0 4000.0 4000.0 4000.0 4000.0 4000.0 4000.0 4000.0 4000.0 4000.0 4000.0 4000.0 4000.0 4000.0 4000.0 4000.0 4000.0 4000.0 4000.0 4000.0 4000.0 4000.0 4000.0 4000.0 4000.0 4000.0 4000.0 4000.0 4000.0 4000.0 4000.0 4000.0 4000.0 4000.0 4000.0 4000.0 4000.0 4000.0 4000.0 4000.0 4000.0 4000.0 4000.0 4000.0 4000.0 4000.0 4000.0 4000.0 4000.0 4000.0 4000.0 4000.0 4000.0 4000.0 4000.0 4000.0 4000.0 4000.0 4000.0 4000.0 4000.0 4000.0 4000.0 4000.0 4000.0 4000.0 4000.0 4000.0 4000.0 4000.0 4000.0 4000.0 4000.0 4000.0 4000.0 4000.0 4000.0 4000.0 4000.0 4000.0 4000.0 4000.0 4000.0 4000.0 4000.0 4000.0 4000.0 4000.0 4000.0 4000.0 4000.0 4000.0 4000.0 4000.0 4000.0 4000.0 4000.0 4000.0 4000.0 4000.0 4000.0 4000.0 4000.0 4000.0 4000.0 4000.0 4000.0 4000.0 4000.0 4000.0 4000.0 4000.0 4000.0 4000.0 4000.0 4000.0 4000.0 4000.0 4000.0 4000.0 4000.0 4000.0 4000.0 4000.0 4000.0 4000.0 4000.0 4000.0 4000.0 4000.0 4000.0 4000.0 4000.0 4000.0 4000.0 4000.0 4000.0 4000.0 4000.0 4000.0 4000.0 4000.0 4000.0 4000.0 4000.0 4000.0 4000.0 4000.0 4000.0 4000.0 4000.0 4000.0 4000.0 4000.0 4000.0 4000.0 4000.0 4000.0 4000.0 4000.0 4000.0 4000.0 4000.0 4000.0 4000.0 4000.0 4000.0 4000.0 4000.0 4000.0 4000.0 4000.0 4000.0 4000.0 4000.0 4000.0 4000.0 4000.0 4000.0 4000.0 4000.0 4000.0 4000.0 4000.0 4000.0 4000.0 4000.0 4000.0 4000.0 4000.0 4000.0 4000.0 4000.0 4000.0 4000.0 4000.0 4000.0 4000.0 4000.0 4000.0 4000.0 4000.0 4000.0 4000.0 4000.0 4000.0 4000.0 4000.0 4000.0 4000.0 4000.0 4000.0 4000.0 4000.0 4000.0 4000.0 4000.0 4000.0 4000.0 4000.0 4000.0 4000.0 4000.0 4000.0 4000.0 4000.0 4000.0 4000.0 4000.0 4000.0 4000.0 4000.0 4000.0 4000.0 4000.0 4000.0 4000.0 4000.0 4000.0 4000.0 4000.0 4000.0 4000.0 4000.0 4000.0 4000.0 4000.0 4000.0 4000.0 4000.0 4000.0 4000.0 4000.0 4000.0 4000.0 4000.0 4000.0 4000.0 4000.0 4000.0 4000.0 4000.0 4000.0 4000.0 4000.0 4000.0 4000.0 4000.0 4000.0 4000.0 4000.0 4000.0 4000.0 4000.0 4000.0 4000.0 4000.0 4000.0 4000.0 4000.0 4000.0 4000.0 4000.0 4000.0 4000.0 4000.0 4000.0 4000.0 4000.0 4000.0 4000.0 4000.0 4000.0 4000.0 4000.0 4000.0 4000.0 4000.0 4000.0 4000.0 4000.0 4000.0 4000.0 4000.0 4000.0 4000.0 4000.0 4000.0 4000.0 4000.0 4000.0 4000.0 4000.0 4000.0 4000.0 4000.0 4000.0 4000.0 4000.0 4000.0 4000.0 4000.0 4000.0 4000.0 4000.0 4000.0 4000.0 4000.0 4000.0 4000.0 4000.0 4000.0 4000.0 4000.0 4000.0 4000.0 4000.0 4000.0 4000.0 4000.0 4000.0 4000.0 4000.0 4000.0 4000.0 4000.0 4000.0 4000.0 4000.0 4000.0 4000.0 4000.0 4000.0 4000.0 4000.0 4000.0 4000.0 4000.0 4000.0 4000.0 4000.0 4000.0 4000.0 4000.0 4000.0 4000.0 4000.0 4000.0 4000.0 4000.0 4000.0 4000.0 4000.0 4000.0 4000.0 4000.0 4000.0 4000.0 4000.0 4000.0 4000.0 4000.0 4000.0 4000.0 4000.0 4000.0 4000.0 4000.0 4000.0 4000.0 4000.0 4000.0 4000.0 4000.0 4000.0 4000.0 4000.0 4000.0 4000.0 4000.0 4000.0 4000.0 4000.0 4000.0 4000.0 4000.0 4000.0 4000.0 4000.0 4000.0 4000.0 4000.0 4000.0 4000.0 4000.0 4000.0 4000.0 4000.0 4000.0 4000.0 4000.0 4000.0 4000.0 4000.0 4000.0 4000.0 4000.0 4000.0 4000.0 4000.0 4000.0 4000.0 4000.0 4000.0 4000.0 4000.0 4000.0 4000.0 4000.0 4000.0 4000.0 4000.0 4000.0 4000.0 4000.0 4000.0 4000.0 4000.0 4000.0 4000.0 4000.0 4000.0 4000.0 4000.0 4000.0 4000.0 4000.0 4000.0 4000.0 4000.0 4000.0 4000.0 4000.0 4000.0 4000.0 4000.0 4000.0 4000.0 4000.0 4000.0 4000.0 4000.0 4000.0 4000.0 4000.0 4000.0 4000.0 4000.0 4000.0 4000.0 4000.0 4000.0 4000.0 4000.0 4000.0 4000.0 4000.0 4000.0 4000.0 4000.0 4000.0 4000.0 4000.0 4000.0 4000.0 4000.0 4000.0 4000.0 4000.0 4000.0 4000.0 4000.0 4000.0 4000.0 4000.0 4000.0 4000.0 4000.0 4000.0 4000.0 4000.0 4000.0 4000.0 4000.0 4000.0 4000.0 4000.0 4000.0 4000.0 4000.0 4000.0 4000.0 4000.0 4000.0 4000.0 4000.0 4000.0 4000.0 4000.0 4000.0 4000.0 4000.0 4000.0 4000.0 4000.0 4000.0 4000.0 4000.0 4000.0 4000.0 4000.0 4000.0 4000.0 4000.0 4000.0 4000.0 4000.0 4000.0 4000.0 4000.0 4000.0 4000.0 4000.0 4000.0 4000.0 4000.0 4000.0 4000.0 4000.0 4000.0 4000.0 4000.0 4000.0 4000.0 4000.0 4000.0 4000.0 4000.0 4000.0 4000.0 4000.0 4000.0 4000.0 4000.0 4000.0 4000.0 4000.0 4000.0 4000.0 4000.0 4000.0 4000.0 4000.0 4000.0 4000.0 4000.0 4000.0 4000.0 4000.0 4000.0 4000.0 4000.0 4000.0 4000.0 4000.0 4000.0 4000.0 4000.0 4000.0 4000.0 4000.0 4000.0 4000.0 4000.0 4000.0 4000.0 4000.0 4000.0 4000.0 4000.0 4000.0 4000.0 4000.0 4000.0 4000.0 4000.0 4000.0 4000.0 4000.0 4000.0 4000.0 4000.0 4000.0 4000.0 4000.0 4000.0 4000.0 4000.0 4000.0 4000.0 4000.0 4000.0 4000.0 4000.0 4000.0 4000.0 4000.0 4000.0 4000.0 4000.0 4000.0 4000.0 4000.0 4000.0 4000.0 4000.0 4000.0 4000.0 4000.0 4000.0 4000.0 4000.0 4000.0 4000.0 4000.0 4000.0 4000.0 4000.0 4000.0 4000.0 4000.0 4000.0 4000.0 4000.0 4000.0 4000.0 4000.0 4000.0 4000.0 4000.0 4000.0 4000.0 4000.0 4000.0 4000.0 4000.0 4000.0 4000.0 4000.0 4000.0 4000.0 4000.0 4000.0 4000.0 4000.0 4000.0 4000.0 4000.0 4000.0 4000.0 4000.0 4000.0 4000.0 4000.0 4000.0 4000.0 4000.0 4000.0 4000.0 4000.0 4000.0 4000.0 4000.0 4000.0 4000.0 4000.0 4000.0 4000.0 4000.0 4000.0 4000.0 4000.0 4000.0 4000.0 4000.0 4000.0 4000.0 4000.0 4000.0 4000.0 4000.0 4000.0 4000.0 4000.0 4000.0 4000.0 4000.0 4000.0 4000.0 4000.0 4000.0 4000.0 4000.0 4000.0 4000.0 4000.0 4000.0 4000.0 4000.0 4000.0 4000.0 4000.0 4000.0 4000.0 4000.0 4000.0 4000.0 4000.0 4000.0 4000.0 4000.0 4000.0 4000.0 4000.0 4000.0 4000.0 4000.0 4000.0 4000.0 4000.0 4000.0 4000.0 4000.0 4000.0 4000.0 4000.0 4000.0 4000.0 4000.0 4000.0 4000.0 4000.0 4000.0 4000.0 4000.0 4000.0 4000.0 4000.0 4000.0 4000.0 4000.0 4000.0 4000.0 4000.0 4000.0 4000.0 4000.0 4000.0 4000.0 4000.0 4000.0 4000.0 4000.0 4000.0 4000.0 4000.0 4000.0 4000.0 4000.0 4000.0 4000.0 4000.0 4000.0 4000.0 4000.0 4000.0 4000.0 4000.0 4000.0 4000.0 4000.0 4000.0 4000.0 4000.0 4000.0 4000.0 4000.0 4000.0 4000.0 4000.0 4000.0 4000.0 4000.0 4000.0 4000.0 4000.0 4000.0 4000.0 4000.0 4000.0 4000.0 4000.0 4000.0 4000.0 4000.0 4000.0 4000.0 4000.0 4000.0 4000.0 4000.0 4000.0 4000.0 4000.0 4000.0 4000.0 4000.0 4000.0 4000.0 4000.0 4000.0 4000.0 4000.0 4000.0 4000.0 4000.0 4000.0 4000.0 4000.0 4000.0 4000.0 4000.0 4000.0 4000.0 4000.0 4000.0 4000.0 4000.0 4000.0 4000.0 4000.0 4000.0 4000.0 4000.0 4000.0 4000.0 4000.0 4000.0 4000.0 4000.0 4000.0 4000.0 4000.0 4000.0 4000.0 4000.0 4000.0 4000.0 4000.0 4000.0 4000.0 4000.0 4000.0 4000.0 4000.0 4000.0 4000.0 4000.0 4000.0 4000.0 4000.0 4000.0 4000.0 4000.0 4000.0 4000.0 4000.0 4000.0 4000.0 4000.0 4000.0 4000.0 4000.0 4000.0 4000.0 4000.0 4000.0 4000.0 4000.0 4000.0 4000.0 4000.0 4000.0 4000.0 4000.0 4000.0 4000.0 4000.0 4000.0 4000.0 4000.0 4000.0 4000.0 4000.0 4000.0 4000.0 4000.0 4000.0 4000.0 4000.0 4000.0 4000.0 4000.0 4000.0 4000.0 4000.0 4000.0 4000.0 4000.0 4000.0 4000.0 4000.0 4000.0 4000.0 4000.0 4000.0 4000.0 4000.0 4000.0 4000.0 4000.0 4000.0 4000.0 4000.0 4000.0 4000.0 4000.0 4000.0 4000.0 4000.0 4000.0 4000.0 4000.0 4000.0 4000.0 4000.0 4000.0 4000.0 4000.0 4000.0 4000.0 4000.0 4000.0 4000.0 4000.0 4000.0 4000.0 4000.0 4000.0 4000.0 4000.0 4000.0 4000.0 4000.0 4000.0 4000.0 4000.0 4000.0 4000.0 4000.0 4000.0 4000.0 4000.0 4000.0 4000.0 4000.0 4000.0 4000.0 4000.0 4000.0 4000.0 4000.0 4000.0 4000.0 4000.0 4000.0 4000.0 4000.0 4000.0 4000.0 4000.0 4000.0 4000.0 4000.0 4000.0 4000.0 4000.0 4000.0 4000.0 4000.0 4000.0 4000.0 4000.0 4000.0 4000.0 4000.0 4000.0 4000.0 4000.0 4000.0 4000.0 4000.0 4000.0 4000.0 4000.0 4000.0 4000.0 4000.0 4000.0 4000.0 4000.0 4000.0 4000.0 4000.0 4000.0 4000.0 4000.0 4000.0 4000.0 4000.0 4000.0 4000.0 4000.0 4000.0 4000.0 4000.0 4000.0 4000.0 4000.0 4000.0 4000.0 4000.0 4000.0 4000.0 4000.0 4000.0 4000.0 4000.0 4000.0 4000.0 4000.0 4000.0 4000.0 4000.0 4000.0 4000.0 4000.0 4000.0 4000.0 4000.0 4000.0 4000.0 4000.0 4000.0 4000.0 4000.0 4000.0 4000.0 4000.0 4000.0 4000.0 4000.0 4000.0 4000.0 4000.0 4000.0 4000.0 4000.0 4000.0 4000.0 4000.0 4000.0 4000.0 4000.0 4000.0 4000.0 4000.0 4000.0 4000.0 4000.0 4000.0 4000.0 4000.0 4000.0 4000.0 4000.0 4000.0 4000.0 4000.0 4000.0 4000.0 4000.0 4000.0 4000.0 4000.0 4000.0 4000.0 4000.0 4000.0 4000.0 4000.0 4000.0 4000.0 4000.0 4000.0 4000.0 4000.0 4000.0 4000.0 4000.0 4000.0 4000.0 4000.0 4000.0 4000.0 4000.0 4000.0 4000.0 4000.0 4000.0 4000.0 4000.0 4000.0 4000.0 4000.0 4000.0 4000.0 4000.0 4000.0 4000.0 4000.0 4000.0 4000.0 4000.0 4000.0 4000.0 4000.0 4000.0 4000.0 4000.0 4000.0 4000.0 4000.0 4000.0 4000.0 4000.0 4000.0 4000.0 4000.0 4000.0 4000.0 4000.0 4000.0 4000.0 4000.0 4000.0 4000.0 4000.0 4000.0 4000.0 4000.0 4000.0 4000.0 4000.0 4000.0 4000.0 4000.0 4000.0 4000.0 4000.0 4000.0 4000.0 4000.0 4000.0 4000.0 4000.0 4000.0 4000.0 4000.0 4000.0 4000.0 4000.0 4000.0 4000.0 4000.0 4000.0 4000.0 4000.0 4000.0 4000.0 4000.0 4000.0 4000.0 4000.0 4000.0 4000.0 4000.0 4000.0 4000.0 4000.0 4000.0 4000.0 4000.0 4000.0 4000.0 4000.0 4000.0 4000.0 4000.0 4000.0 4000.0 4000.0 4000.0 4000.0 4000.0 4000.0 4000.0 4000.0 4000.0 4000.0 4000.0 4000.0 4000.0 4000.0 4000.0 4000.0 4000.0 4000.0 4000.0 4000.0 4000.0 4000.0 4000.0 4000.0 4000.0 4000.0 4000.0 4000.0 4000.0 4000.0 4000.0 4000.0 4000.0 4000.0 4000.0 4000.0 4000.0 4000.0 4000.0 4000.0 4000.0 4000.0 4000.0 4000.0 4000.0 4000.0 4000.0 4000.0 4000.0 4000.0 4000.0 4000.0 4000.0 4000.0 4000.0 4000.0 4000.0 4000.0 4000.0 4000.0 4000.0 4000.0 4000.0 4000.0 4000.0 4000.0 4000.0 4000.0 4000.0 4000.0 4000.0 4000.0 4000.0 4000.0 4000.0 4000.0 4000.0 4000.0 4000.0 4000.0 4000.0 4000.0 4000.0 4000.0 4000.0 4000.0 4000.0 4000.0 4000.0 4000.0 4000.0 4000.0 4000.0 4000.0 4000.0 4000.0 4000.0 4000.0 4000.0 4000.0 4000.0 4000.0 4000.0 4000.0 4000.0 4000.0 4000.0 4000.0 4000.0 4000.0 4000.0 4000.0 4000.0 4000.0 4000.0 4000.0 4000.0 4000.0 4000.0 4000.0 4000.0 4000.0 4000.0 4000.0 4000.0 4000.0 4000.0 4000.0 4000.0 4000.0 4000.0 4000.0 4000.0 4000.0 4000.0 4000.0 4000.0 4000.0 4000.0 4000.0 4000.0 4000.0 4000.0 4000.0 4000.0 4000.0 4000.0 4000.0 4000.0 4000.0 4000.0 4000.0 4000.0 4000.0 4000.0 4000.0 4000.0 4000.0 4000.0 4000.0 4000.0 4000.0 4000.0 4000.0 4000.0 4000.0 4000.0 4000.0 4000.0 4000.0 4000.0 4000.0 4000.0 4000.0 4000.0 4000.0 4000.0 4000.0 4000.0 4000.0 4000.0 4000.0 4000.0 4000.0 4000.0 4000.0 4000.0 4000.0 4000.0 4000.0 4000.0 4000.0 4000.0 4000.0 4000.0 4000.0 4000.0 4000.0 4000.0 4000.0 4000.0 4000.0 4000.0 4000.0 4000.0 4000.0 4000.0 4000.0 4000.0 4000.0 4000.0 4000.0 4000.0 4000.0 4000.0 4000.0 4000.0 4000.0 4000.0 4000.0 4000.0 4000.0 4000.0 4000.0 4000.0 4000.0 4000.0 4000.0 4000.0 4000.0 4000.0 4000.0 4000.0 4000.0 4000.0 4000.0 4000.0 4000.0 4000.0 4000.0 4000.0 4000.0 4000.0 4000.0 4000.0 4000.0 4000.0 4000.0 4000.0 4000.0 4000.0 4000.0 4000.0 4000.0 4000.0 4000.0 4000.0 4000.0 4000.0 4000.0 4000.0 4000.0 4000.0 4000.0 4000.0 4000.0 4000.0 4000.0 4000.0 4000.0 4000.0 4000.0 4000.0 4000.0 4000.0 4000.0 4000.0 4000.0 4000.0 4000.0 4000.0 4000.0 4000.0 4000.0 4000.0 4000.0 4000.0 4000.0 4000.0 4000.0 4000.0 4000.0 4000.0 4000.0 4000.0 4000.0 4000.0 4000.0 4000.0 4000.0 4000.0 4000.0 4000.0 4000.0 4000.0 4000.0 4000.0 4000.0 4000.0 4000.0 4000.0 4000.0 4000.0 4000.0 4000.0 4000.0 4000.0 4000.0 4000.0 4000.0 4000.0 4000.0 4000.0 4000.0 4000.0 4000.0 4000.0 4000.0 4000.0 4000.0 4000.0 4000.0 4000.0 4000.0 4000.0 4000.0 4000.0 4000.0 4000.0 4000.0 4000.0 4000.0 4000.0 4000.0 4000.0 4000.0 4000.0 4000.0 4000.0 4000.0 4000.0 4000.0 4000.0 4000.0 4000.0 4000.0 4000.0 4000.0 4000.0 4000.0 4000.0 4000.0 4000.0 4000.0 4000.0 4000.0 4000.0 4000.0 4000.0 4000.0 4000.0 4000.0 4000.0 4000.0 4000.0 4000.0 4000.0 4000.0 4000.0 4000.0 4000.0 4000.0 4000.0 4000.0 4000.0 4000.0 4000.0 4000.0 4000.0 4000.0 4000.0 4000.0 4000.0 4000.0 4000.0 4000.0 4000.0 4000.0 4000.0 4000.0 4000.0 4000.0 4000.0 4000.0 4000.0 4000.0 4000.0 4000.0 4000.0 4000.0 4000.0 4000.0 4000.0 4000.0 4000.0 4000.0 4000.0 4000.0 4000.0 4000.0 4000.0 4000.0 4000.0 4000.0 4000.0 4000.0 4000.0 4000.0 4000.0 4000.0 4000.0 4000.0 4000.0 4000.0 4000.0 4000.0 4000.0 4000.0 4000.0 4000.0 4000.0 4000.0 4000.0 4000.0 4000.0 4000.0 4000.0 4000.0 4000.0 4000.0 4000.0 4000.0 4000.0 4000.0 4000.0 4000.0 4000.0 4000.0 4000.0 4000.0 4000.0 4000.0 4000.0 4000.0 4000.0 4000.0 4000.0 4000.0 4000.0 4000.0 4000.0 4000.0 4000.0 4000.0 4000.0 4000.0 4000.0 4000.0 4000.0 4000.0 4000.0 4000.0 4000.0 4000.0 4000.0 4000.0 4000.0 4000.0 4000.0 4000.0 4000.0 4000.0 4000.0 4000.0 4000.0 4000.0 4000.0 4000.0 4000.0 4000.0 4000.0 4000.0 4000.0 4000.0 4000.0 4000.0 4000.0 4000.0 4000.0 4000.0 4000.0 4000.0 4000.0 4000.0 4000.0 4000.0 4000.0 4000.0 4000.0 4000.0 4000.0 4000.0 4000.0 4000.0 4000.0 4000.0 4000.0 4000.0 4000.0 4000.0 4000.0 4000.0 4000.0 4000.0 4000.0 4000.0 4000.0 4000.0 4000.0 4000.0 4000.0 4000.0 4000.0 4000.0 4000.0 4000.0 4000.0 4000.0 4000.0 4000.0 4000.0 4000.0 4000.0 4000.0 4000.0 4000.0 4000.0 4000.0 4000.0 4000.0 4000.0 4000.0 4000.0 4000.0 4000.0 4000.0 4000.0 4000.0 4000.0 4000.0 4000.0 4000.0 4000.0 4000.0 4000.0 4000.0 4000.0 4000.0 4000.0 4000.0 4000.0 4000.0 4000.0 4000.0 4000.0 4000.0 4000.0 4000.0 4000.0 4000.0 4000.0 4000.0 4000.0 4000.0 4000.0 4000.0 4000.0 4000.0 4000.0 4000.0 4000.0 4000.0 4000.0 4000.0 4000.0 4000.0 4000.0 4000.0 4000.0 4000.0 4000.0 4000.0 4000.0 4000.0 4000.0 4000.0 4000.0 4000.0 4000.0 4000.0 4000.0 4000.0 4000.0 4000.0 4000.0 4000.0 4000.0 4000.0 4000.0 4000.0 4000.0 4000.0 4000.0 4000.0 4000.0 4000.0 4000.0 4000.0 4000.0 4000.0 4000.0 4000.0 4000.0 4000.0 4000.0 4000.0 4000.0 4000.0 4000.0 4000.0 4000.0 4000.0 4000.0 4000.0 4000.0 4000.0 4000.0 4000.0 4000.0 4000.0 4000.0 4000.0 4000.0 4000.0 4000.0 4000.0 4000.0 4000.0 4000.0 4000.0 4000.0 4000.0 4000.0 4000.0 4000.0 4000.0 4000.0 4000.0 4000.0 4000.0 4000.0 4000.0 4000.0 4000.0 4000.0 4000.0 4000.0 4000.0 4000.0 4000.0 4000.0 4000.0 4000.0 4000.0 4000.0 4000.0 4000.0 4000.0 4000.0 4000.0 4000.0 4000.0 4000.0 4000.0 4000.0 4000.0 4000.0 4000.0 4000.0 4000.0 4000.0 4000.0 4000.0 4000.0 4000.0 4000.0 4000.0 4000.0 4000.0 4000.0 4000.0 4000.0 4000.0 4000.0 4000.0 4000.0 4000.0 4000.0 4000.0 4000.0 4000.0 4000.0 4000.0 4000.0 4000.0 4000.0 4000.0 4000.0 4000.0 4000.0 4000.0 4000.0 4000.0 4000.0 4000.0 4000.0 4000.0 4000.0 4000.0 4000.0 4000.0 4000.0 4000.0 4000.0 4000.0 4000.0 4000.0 4000.0 4000.0 4000.0 4000.0 4000.0 4000.0 4000.0 4000.0 4000.0 4000.0 4000.0 4000.0 4000.0 4000.0 4000.0 4000.0 4000.0 4000.0 4000.0 4000.0 4000.0 4000.0 4000.0 4000.0 4000.0 4000.0 4000.0 4000.0 4000.0 4000.0 4000.0 4000.0 4000.0 4000.0 4000.0 4000.0 4000.0 4000.0 4000.0 4000.0 4000.0 4000.0 4000.0 4000.0 4000.0 4000.0 4000.0 4000.0 4000.0 4000.0 4000.0 4000.0 4000.0 4000.0 4000.0 4000.0 4000.0 4000.0 4000.0 4000.0 4000.0 4000.0 4000.0 4000.0 4000.0 4000.0 4000.0 4000.0 4000.0 4000.0 4000.0 4000.0 4000.0 4000.0 4000.0 4000.0 4000.0 4000.0 4000.0 4000.0 4000.0 4000.0 4000.0 4000.0 4000.0 4000.0 4000.0 4000.0 4000.0 4000.0 4000.0 4000.0 4000.0 4000.0 4000.0 4000.0 4000.0 4000.0 4000.0 4000.0 4000.0 4000.0 4000.0 4000.0 4000.0 4000.0 4000.0 4000.0 4000.0 4000.0 4000.0 4000.0 4000.0 4000.0 4000.0 4000.0 4000.0 4000.0 4000.0 4000.0 4000.0 4000.0 4000.0 4000.0 4000.0 4000.0 4000.0 4000.0 4000.0 4000.0 4000.0 4000.0 4000.0 4000.0 4000.0 4000.0 4000.0 4000.0 4000.0 4000.0 4000.0 4000.0 4000.0 4000.0 4000.0 4000.0 4000.0 4000.0 4000.0 4000.0 4000.0 4000.0 4000.0 4000.0 4000.0 4000.0 4000.0 4000.0 4000.0 4000.0 4000.0 4000.0 4000.0 4000.0 4000.0 4000.0 4000.0 4000.0 4000.0 4000.0 4000.0 4000.0 4000.0 4000.0 4000.0 4000.0 4000.0 4000.0 4000.0 4000.0 4000.0 4000.0 4000.0 4000.0 4000.0 4000.0 4000.0 4000.0 4000.0 4000.0 4000.0 4000.0 4000.0 4000.0 4000.0 4000.0 4000.0 4000.0 4000.0 4000.0 4000.0 4000.0 4000.0 4000.0 4000.0 4000.0 4000.0 4000.0 4000.0 4000.0 4000.0 4000.0 4000.0 4000.0 4000.0 4000.0 4000.0 4000.0 4000.0 4000.0 4000.0 4000.0 4000.0 4000.0 4000.0 4000.0 4000.0 4000.0 4000.0 4000.0 4000.0 4000.0 4000.0 4000.0 4000.0 4000.0 4000.0 4000.0 4000.0 4000.0 4000.0 4000.0 4000.0 4000.0 4000.0 4000.0 4000.0 4000.0 4000.0 4000.0 4000.0 4000.0 4000.0 4000.0 4000.0 4000.0 4000.0 4000.0 4000.0 4000.0 4000.0 4000.0 4000.0 4000.0 4000.0 4000.0 4000.0 4000.0 4000.0 4000.0 4000.0 4000.0 4000.0 4000.0 4000.0 4000.0 4000.0 4000.0 4000.0 4000.0 4000.0 4000.0 4000.0 4000.0 4000.0 4000.0 4000.0 4000.0 4000.0 4000.0 4000.0 4000.0 4000.0 4000.0 4000.0 4000.0 4000.0 4000.0 4000.0 4000.0 4000.0 4000.0 4000.0 4000.0 4000.0 4000.0 4000.0 4000.0 4000.0 4000.0 4000.0 4000.0 4000.0 4000.0 4000.0 4000.0 4000.0 4000.0 4000.0 4000.0 4000.0 4000.0 4000.0 4000.0 4000.0 4000.0 4000.0 4000.0 4000.0 4000.0 4000.0 4000.0 4000.0 4000.0 4000.0 4000.0 4000.0 4000.0 4000.0 4000.0 4000.0 4000.0 4000.0 4000.0 4000.0 4000.0 4000.0 4000.0 4000.0 4000.0 4000.0 4000.0 4000.0 4000.0 4000.0 4000.0 4000.0 4000.0 4000.0 4000.0 4000.0 4000.0 4000.0 4000.0 4000.0 4000.0 4000.0 4000.0 4000.0 4000.0 4000.0 4000.0 4000.0 4000.0 4000.0 4000.0 4000.0 4000.0 4000.0 4000.0 4000.0 4000.0 4000.0 4000.0 4000.0 4000.0 4000.0 4000.0 4000.0 4000.0 4000.0 4000.0 4000.0 4000.0 4000.0 4000.0 4000.0 4000.0 4000.0 4000.0 4000.0 4000.0 4000.0 4000.0 4000.0 4000.0 4000.0 4000.0 4000.0 4000.0 4000.0 4000.0 4000.0 4000.0 4000.0 4000.0 4000.0 4000.0 4000.0 4000.0 4000.0 4000.0 4000.0 4000.0 4000.0 4000.0 4000.0 4000.0 4000.0 4000.0 4000.0 4000.0 4000.0 4000.0 4000.0 4000.0 4000.0 4000.0 4000.0 4000.0 4000.0 4000.0 4000.0 4000.0 4000.0 4000.0 4000.0 4000.0 4000.0 4000.0 4000.0 4000.0 4000.0 4000.0 4000.0 4000.0 4000.0 4000.0 4000.0 4000.0 4000.0 4000.0 4000.0 4000.0 4000.0 4000.0 4000.0 4000.0 4000.0 4000.0 4000.0 4000.0 4000.0 4000.0 4000.0 4000.0 4000.0 4000.0 4000.0 4000.0 4000.0 4000.0 4000.0 4000.0 4000.0 4000.0 4000.0 4000.0 4000.0 4000.0 4000.0 4000.0 4000.0 4000.0 4000.0 4000.0 4000.0 4000.0 4000.0 4000.0 4000.0 4000.0 4000.0 4000.0 4000.0 4000.0 4000.0 4000.0 4000.0 4000.0 4000.0 4000.0 4000.0 4000.0 4000.0 4000.0 4000.0 4000.0 4000.0 4000.0 4000.0 4000.0 4000.0 4000.0 4000.0 4000.0 4000.0 4000.0 4000.0 4000.0 4000.0 4000.0 4000.0 4000.0 4000.0 4000.0 4000.0 4000.0 4000.0 4000.0 4000.0 4000.0 4000.0 4000.0 4000.0 4000.0 4000.0 4000.0 4000.0 4000.0 4000.0 4000.0 4000.0 4000.0 4000.0 4000.0 4000.0 4000.0 4000.0 4000.0 4000.0 4000.0 4000.0 4000.0 4000.0 4000.0 4000.0 4000.0 4000.0 4000.0 4000.0 4000.0 4000.0 4000.0 4000.0 4000.0 4000.0 4000.0 4000.0 4000.0 4000.0 4000.0 4000.0 4000.0 4000.0 4000.0 4000.0 4000.0 4000.0 4000.0 4000.0 4000.0 4000.0 4000.0 4000.0 4000.0 4000.0 4000.0 4000.0 4000.0 4000.0 4000.0 4000.0 4000.0 4000.0 4000.0 4000.0 4000.0 4000.0 4000.0 4000.0 4000.0 4000.0 4000.0 4000.0 4000.0 4000.0 4000.0 4000.0 4000.0 4000.0 4000.0 4000.0 4000.0 4000.0 4000.0 4000.0 4000.0 4000.0 4000.0 4000.0 4000.0 4000.0 4000.0 4000.0 4000.0 4000.0 4000.0 4000.0 4000.0 4000.0 4000.0 4000.0 4000.0 4000.0 4000.0 4000.0 4000.0 4000.0 4000.0 4000.0 4000.0 4000.0 4000.0 4000.0 4000.0 4000.0 4000.0 4000.0 4000.0 4000.0 4000.0 4000.0 4000.0 4000.0 4000.0 4000.0 4000.0 4000.0 4000.0 4000.0 4000.0 4000.0 4000.0 4000.0 4000.0 4000.0 4000.0 4000.0 4000.0 4000.0 4000.0 4000.0 4000.0 4000.0 4000.0 4000.0 4000.0 4000.0 4000.0 4000.0 4000.0 4000.0 4000.0 4000.0 4000.0 4000.0 4000.0 4000.0 4000.0 4000.0 4000.0 4000.0 4000.0 4000.0 4000.0 4000.0 4000.0 4000.0 4000.0 4000.0 4000.0 4000.0 4000.0 4000.0 4000.0 4000.0 4000.0 4000.0 4000.0 4000.0 4000.0 4000.0 4000.0 4000.0 4000.0 4000.0 4000.0 4000.0 4000.0 4000.0 4000.0 4000.0 4000.0 4000.0 4000.0 4000.0 4000.0 4000.0 4000.0 4000.0 4000.0 4000.0 4000.0 4000.0 4000.0 4000.0 4000.0 4000.0 4000.0 4000.0 4000.0 4000.0 4000.0 4000.0 4000.0 4000.0 4000.0 4000.0 4000.0 4000.0 4000.0 4000.0 4000.0 4000.0 4000.0 4000.0 4000.0 4000.0 4000.0 4000.0 4000.0 4000.0 4000.0 4000.0 4000.0 4000.0 4000.0 4000.0 4000.0 4000.0 4000.0 4000.0 4000.0 4000.0 4000.0 4000.0 4000.0 4000.0 4000.0 4000.0 4000.0 4000.0 4000.0 4000.0 4000.0 4000.0 4000.0 4000.0 4000.0 4000.0 4000.0 4000.0 4000.0 4000.0 4000.0 4000.0 4000.0 4000.0 4000.0 4000.0 4000.0 4000.0 4000.0 4000.0 4000.0 4000.0 4000.0 4000.0 4000.0 4000.0 4000.0 4000.0 4000.0 4000.0 4000.0 4000.0 4000.0 4000.0 4000.0 4000.0 4000.0 4000.0 4000.0 4000.0 4000.0 4000.0 4000.0 4000.0 4000.0 4000.0 4000.0 4000.0 4000.0 4000.0 4000.0 4000.0 4000.0 4000.0 4000.0 4000.0 4000.0 4000.0 4000.0 4000.0 4000.0 4000.0 4000.0 4000.0 4000.0 4000.0 4000.0 4000.0 4000.0 4000.0 4000.0 4000.0 4000.0 4000.0 4000.0 4000.0 4000.0 4000.0 4000.0 4000.0 4000.0 4000.0 4000.0 4000.0 4000.0 4000.0 4000.0 4000.0 4000.0 4000.0 4000.0 4000.0 4000.0 4000.0 4000.0 4000.0 4000.0 4000.0 4000.0 4000.0 4000.0 4000.0 4000.0 4000.0 4000.0 4000.0 4000.0 4000.0 4000.0 4000.0 4000.0 4000.0 4000.0 4000.0 4000.0 4000.0 4000.0 4000.0 4000.0 4000.0 4000.0 4000.0 4000.0 4000.0 4000.0 4000.0 4000.0 4000.0 4000.0 4000.0 4000.0 4000.0 4000.0 4000.0 4000.0 4000.0 4000.0 4000.0 4000.0 4000.0 4000.0 4000.0 4000.0 4000.0 4000.0 4000.0 4000.0 4000.0 4000.0 4000.0 4000.0 4000.0 4000.0 4000.0 4000.0 4000.0 4000.0 4000.0 4000.0 4000.0 4000.0 4000.0 4000.0 4000.0 4000.0 4000.0 4000.0 4000.0 4000.0 4000.0 4000.0 4000.0 4000.0 4000.0 4000.0 4000.0 4000.0 4000.0 4000.0 4000.0 4000.0 4000.0 4000.0 4000.0 4000.0 4000.0 4000.0 4000.0 4000.0 4000.0 4000.0 4000.0 4000.0 4000.0 4000.0 4000.0 4000.0 4000.0 4000.0 4000.0 4000.0 4000.0 4000.0 4000.0 4000.0 4000.0 4000.0 4000.0 4000.0 4000.0 4000.0 4000.0 4000.0 4000.0 4000.0 4000.0 4000.0 4000.0 4000.0 4000.0 4000.0 4000.0 4000.0 4000.0 4000.0 4000.0 4000.0 4000.0 4000.0 4000.0 4000.0 4000.0 4000.0 4000.0 4000.0 4000.0 4000.0 4000.0 4000.0 4000.0 4000.0 4000.0 4000.0 4000.0 4000.0 4000.0 4000.0 4000.0 4000.0 4000.0 4000.0 4000.0 4000.0 4000.0 4000.0 4000.0 4000.0 4000.0 4000.0 4000.0 4000.0 4000.0 4000.0 4000.0 4000.0 4000.0 4000.0 4000.0 4000.0 4000.0 4000.0 4000.0 4000.0 4000.0 4000.0 4000.0 4000.0 4000.0 4000.0 4000.0 4000.0 4000.0 4000.0 4000.0 4000.0 4000.0 4000.0 4000.0 4000.0 4000.0 4000.0 4000.0 4000.0 4000.0 4000.0 4000.0 4000.0 4000.0 4000.0 4000.0 4000.0 4000.0 4000.0 4000.0 4000.0 4000.0 4000.0 4000.0 4000.0 4000.0 4000.0 4000.0 4000.0 4000.0 4000.0 4000.0 4000.0 4000.0 4000.0 4000.0 4000.0 4000.0 4000.0 4000.0 4000.0 4000.0 4000.0 4000.0 4000.0 4000.0 4000.0 4000.0 4000.0 4000.0 4000.0 4000.0 4000.0 4000.0 4000.0 4000.0 4000.0 4000.0 4000.0 4000.0 4000.0 4000.0 4000.0 4000.0 4000.0 4000.0 4000.0 4000.0 4000.0 4000.0 4000.0 4000.0 4000.0 4000.0 4000.0 4000.0 4000.0 4000.0 4000.0 4000.0 4000.0 4000.0 4000.0 4000.0 4000.0 4000.0 4000.0 4000.0 4000.0 4000.0 4000.0 4000.0 4000.0 4000.0 4000.0 4000.0 4000.0 4000.0 4000.0 4000.0 4000.0 4000.0 4000.0 4000.0 4000.0 4000.0 4000.0 4000.0 4000.0 4000.0 4000.0 4000.0 4000.0 4000.0 4000.0 4000.0 4000.0 4000.0 4000.0 4000.0 4000.0 4000.0 4000.0 4000.0 4000.0 4000.0 4000.0 4000.0 4000.0 4000.0 4000.0 4000.0 4000.0 4000.0 4000.0 4000.0 4000.0 4000.0 4000.0 4000.0 4000.0 4000.0 4000.0 4000.0 4000.0 4000.0 4000.0 4000.0 4000.0 4000.0 4000.0 4000.0 4000.0 4000.0 4000.0 4000.0 4000.0 4000.0 4000.0 4000.0 4000.0 4000.0 4000.0 4000.0 4000.0 4000.0 4000.0 4000.0 4000.0 4000.0 4000.0 4000.0 4000.0 4000.0 4000.0 4000.0 4000.0 4000.0 4000.0 4000.0 4000.0 4000.0 4000.0 4000.0 4000.0 4000.0 4000.0 4000.0 4000.0 4000.0 4000.0 4000.0 4000.0 4000.0 4000.0 4000.0 4000.0 4000.0 4000.0 4000.0 4000.0 4000.0 4000.0 4000.0 4000.0 4000.0 4000.0 4000.0 4000.0 4000.0 4000.0 4000.0 4000.0 4000.0 4000.0 4000.0 4000.0 4000.0 4000.0 4000.0 4000.0 4000.0 4000.0 4000.0 4000.0 4000.0 4000.0 4000.0 4000.0 4000.0 4000.0 4000.0 4000.0 4000.0 4000.0 4000.0 4000.0 4000.0 4000.0 4000.0 4000.0 4000.0 4000.0 4000.0 4000.0 4000.0 4000.0 4000.0 4000.0 4000.0 4000.0 4000.0 4000.0 4000.0 4000.0 4000.0 4000.0 4000.0 4000.0 4000.0 4000.0 4000.0 4000.0 4000.0 4000.0 4000.0 4000.0 4000.0 4000.0 4000.0 4000.0 4000.0 4000.0 4000.0 4000.0 4000.0 4000.0 4000.0 4000.0 4000.0 4000.0 4000.0 4000.0 4000.0 4000.0 4000.0 4000.0 4000.0 4000.0 4000.0 4000.0 4000.0 4000.0 4000.0 4000.0 4000.0 4000.0 4000.0 4000.0 4000.0 4000.0 4000.0 4000.0 4000.0 4000.0 4000.0 4000.0 4000.0 4000.0 4000.0 4000.0 4000.0 4000.0 4000.0 4000.0 4000.0 4000.0 4000.0 4000.0 4000.0 4000.0 4000.0 4000.0 4000.0 4000.0 4000.0 4000.0 4000.0 4000.0 4000.0 4000.0 4000.0 4000.0 4000.0 4000.0 4000.0 4000.0 4000.0 4000.0 4000.0 4000.0 4000.0 4000.0 4000.0 4000.0 4000.0 4000.0 4000.0 4000.0 4000.0 4000.0 4000.0 4000.0 4000.0 4000.0 4000.0 4000.0 4000.0 4000.0 4000.0 4000.0 4000.0 4000.0 4000.0 4000.0 4000.0 4000.0 4000.0 4000.0 4000.0 4000.0 4000.0 4000.0 4000.0 4000.0 4000.0 4000.0 4000.0 4000.0 4000.0 4000.0 4000.0 4000.0 4000.0 4000.0 4000.0 4000.0 4000.0 4000.0 4000.0 4000.0 4000.0 4000.0 4000.0 4000.0 4000.0 4000.0 4000.0 4000.0 4000.0 4000.0 4000.0 4000.0 4000.0 4000.0 4000.0 4000.0 4000.0 4000.0 4000.0 4000.0 4000.0 4000.0 4000.0 4000.0 4000.0 4000.0 4000.0 4000.0 4000.0 4000.0 4000.0 4000.0 4000.0 4000.0 4000.0 4000.0 4000.0 4000.0 4000.0 4000.0 4000.0 4000.0 4000.0 4000.0 4000.0 4000.0 4000.0 4000.0 4000.0 4000.0 4000.0 4000.0 4000.0 4000.0 4000.0 4000.0 4000.0 4000.0 4000.0 4000.0 4000.0 4000.0 4000.0 4000.0 4000.0 4000.0 4000.0 4000.0 4000.0 4000.0 4000.0 4000.0 4000.0 4000.0 4000.0 4000.0 4000.0 4000.0 4000.0 4000.0 4000.0 4000.0 4000.0 4000.0 4000.0 4000.0 4000.0 4000.0 4000.0 4000.0 4000.0 4000.0 4000.0 4000.0 4000.0 4000.0 4000.0 4000.0 4000.0 4000.0 4000.0 4000.0 4000.0 4000.0 4000.0 4000.0 4000.0 4000.0 4000.0 4000.0 4000.0 4000.0 4000.0 4000.0 4000.0 4000.0 4000.0 4000.0 4000.0 4000.0 4000.0 4000.0 4000.0 4000.0 4000.0 4000.0 4000.0 4000.0 4000.0 4000.0 4000.0 4000.0 4000.0 4000.0 4000.0 4000.0 4000.0 4000.0 4000.0 4000.0 4000.0 4000.0 4000.0 4000.0 4000.0 4000.0 4000.0 4000.0 4000.0 4000.0 4000.0 4000.0 4000.0 4000.0 4000.0 4000.0 4000.0 4000.0 4000.0 4000.0 4000.0 4000.0 4000.0 4000.0 4000.0 4000.0 4000.0 4000.0 4000.0 4000.0 4000.0 4000.0 4000.0 4000.0 4000.0 4000.0 4000.0 4000.0 4000.0 4000.0 4000.0 4000.0 4000.0 4000.0 4000.0 4000.0 4000.0 4000.0 4000.0 4000.0 4000.0 4000.0 4000.0 4000.0 4000.0 4000.0 4000.0 4000.0 4000.0 4000.0 4000.0 4000.0 4000.0 4000.0 4000.0 4000.0 4000.0 4000.0 4000.0 4000.0 4000.0 4000.0 4000.0 4000.0 4000.0 4000.0 4000.0 4000.0 4000.0 4000.0 4000.0 4000.0 4000.0 4000.0 4000.0 4000.0 4000.0 4000.0 4000.0 4000.0 4000.0 4000.0 4000.0 4000.0 4000.0 4000.0 4000.0 4000.0 4000.0 4000.0 4000.0 4000.0 4000.0 4000.0 4000.0 4000.0 4000.0 4000.0 4000.0 4000.0 4000.0 4000.0 4000.0 4000.0 4000.0 4000.0 4000.0 4000.0 4000.0 4000.0 4000.0 4000.0 4000.0 4000.0 4000.0 4000.0 4000.0 4000.0 4000.0 4000.0 4000.0 4000.0 4000.0 4000.0 4000.0 4000.0 4000.0 4000.0 4000.0 4000.0 4000.0 4000.0 4000.0 4000.0 4000.0 4000.0 4000.0 4000.0 4000.0 4000.0 4000.0 4000.0 4000.0 4000.0 4000.0 4000.0 4000.0 4000.0 4000.0 4000.0 4000.0 4000.0 4000.0 4000.0 4000.0 4000.0 4000.0 4000.0 4000.0 4000.0 4000.0 4000.0 4000.0 4000.0 4000.0 4000.0 4000.0 4000.0 4000.0 4000.0 4000.0 4000.0 4000.0 4000.0 4000.0 4000.0 4000.0 4000.0 4000.0 4000.0 4000.0 4000.0 4000.0 4000.0 4000.0 4000.0 4000.0 4000.0 4000.0 4000.0 4000.0 4000.0 4000.0 4000.0 4000.0 4000.0 4000.0 4000.0 4000.0 4000.0 4000.0 4000.0 4000.0 4000.0 4000.0 4000.0 4000.0 4000.0 4000.0 4000.0 4000.0 4000.0 4000.0 4000.0 4000.0 4000.0 4000.0 4000.0 4000.0 4000.0 4000.0 4000.0 4000.0 4000.0 4000.0 4000.0 4000.0 4000.0 4000.0 4000.0 4000.0 4000.0 4000.0 4000.0 4000.0 4000.0 4000.0 4000.0 4000.0 4000.0 4000.0 4000.0 4000.0 4000.0 4000.0 4000.0 4000.0 4000.0 4000.0 4000.0 4000.0 4000.0 4000.0 4000.0 4000.0 4000.0 4000.0 4000.0 4000.0 4000.0 4000.0 4000.0 4000.0 4000.0 4000.0 4000.0 4000.0 4000.0 4000.0 4000.0 4000.0 4000.0 4000.0 4000.0 4000.0 4000.0 4000.0 4000.0 4000.0 4000.0 4000.0 4000.0 4000.0 4000.0 4000.0 4000.0 4000.0 4000.0 4000.0 4000.0 4000.0 4000.0 4000.0 4000.0 4000.0 4000.0 4000.0 4000.0 4000.0 4000.0 4000.0 4000.0 4000.0 4000.0 4000.0 4000.0 4000.0 4000.0 4000.0 4000.0 4000.0 4000.0 4000.0 4000.0 4000.0 4000.0 4000.0 4000.0 4000.0 4000.0 4000.0 4000.0 4000.0 4000.0 4000.0 4000.0 4000.0 4000.0 4000.0 4000.0 4000.0 4000.0 4000.0 4000.0 4000.0 4000.0 SCALARS Mass float 1
LOOKUP_TABLE default
11309700000.0 11309700000.0 11309700000.0 11309700000.0 11309700000.0 11309700000.0 11309700000.0 11309700000.0 11309700000.0 11309700000.0 11309700000.0 11309700000.0 11309700000.0 11309700000.0 11309700000.0 11309700000.0 11309700000.0 11309700000.0 11309700000.0 11309700000.0 11309700000.0 11309700000.0 11309700000.0 11309700000.0 11309700000.0 11309700000.0 11309700000.0 11309700000.0 11309700000.0 11309700000.0 11309700000.0 11309700000.0 11309700000.0 11309700000.0 11309700000.0 11309700000.0 11309700000.0 11309700000.0 11309700000.0 11309700000.0 11309700000.0 11309700000.0 11309700000.0 11309700000.0 11309700000.0 11309700000.0 11309700000.0 11309700000.0 11309700000.0 11309700000.0 11309700000.0 11309700000.0 11309700000.0 11309700000.0 11309700000.0 11309700000.0 11309700000.0 11309700000.0 11309700000.0 11309700000.0 11309700000.0 11309700000.0 11309700000.0 11309700000.0 11309700000.0 11309700000.0 11309700000.0 11309700000.0 11309700000.0 11309700000.0 11309700000.0 11309700000.0 11309700000.0 11309700000.0 11309700000.0 11309700000.0 11309700000.0 11309700000.0 11309700000.0 11309700000.0 11309700000.0 11309700000.0 11309700000.0 11309700000.0 11309700000.0 11309700000.0 11309700000.0 11309700000.0 11309700000.0 11309700000.0 11309700000.0 11309700000.0 11309700000.0 11309700000.0 11309700000.0 11309700000.0 11309700000.0 11309700000.0 11309700000.0 11309700000.0 11309700000.0 11309700000.0 11309700000.0 11309700000.0 11309700000.0 11309700000.0 11309700000.0 11309700000.0 11309700000.0 11309700000.0 11309700000.0 11309700000.0 11309700000.0 11309700000.0 11309700000.0 11309700000.0 11309700000.0 11309700000.0 11309700000.0 11309700000.0 11309700000.0 11309700000.0 11309700000.0 11309700000.0 11309700000.0 11309700000.0 11309700000.0 11309700000.0 11309700000.0 11309700000.0 11309700000.0 11309700000.0 11309700000.0 11309700000.0 11309700000.0 11309700000.0 11309700000.0 11309700000.0 11309700000.0 11309700000.0 11309700000.0 11309700000.0 11309700000.0 11309700000.0 11309700000.0 11309700000.0 11309700000.0 11309700000.0 11309700000.0 11309700000.0 11309700000.0 11309700000.0 11309700000.0 11309700000.0 11309700000.0 11309700000.0 11309700000.0 11309700000.0 11309700000.0 11309700000.0 11309700000.0 11309700000.0 11309700000.0 11309700000.0 11309700000.0 11309700000.0 11309700000.0 11309700000.0 11309700000.0 11309700000.0 11309700000.0 11309700000.0 11309700000.0 11309700000.0 11309700000.0 11309700000.0 11309700000.0 11309700000.0 11309700000.0 11309700000.0 11309700000.0 11309700000.0 11309700000.0 11309700000.0 11309700000.0 11309700000.0 11309700000.0 11309700000.0 11309700000.0 11309700000.0 11309700000.0 11309700000.0 11309700000.0 11309700000.0 11309700000.0 11309700000.0 11309700000.0 11309700000.0 11309700000.0 11309700000.0 11309700000.0 11309700000.0 11309700000.0 11309700000.0 11309700000.0 11309700000.0 11309700000.0 11309700000.0 11309700000.0 11309700000.0 11309700000.0 11309700000.0 11309700000.0 11309700000.0 11309700000.0 11309700000.0 11309700000.0 11309700000.0 11309700000.0 11309700000.0 11309700000.0 11309700000.0 11309700000.0 11309700000.0 11309700000.0 11309700000.0 11309700000.0 11309700000.0 11309700000.0 11309700000.0 11309700000.0 11309700000.0 11309700000.0 11309700000.0 11309700000.0 11309700000.0 11309700000.0 11309700000.0 11309700000.0 11309700000.0 11309700000.0 11309700000.0 11309700000.0 11309700000.0 11309700000.0 11309700000.0 11309700000.0 11309700000.0 11309700000.0 11309700000.0 11309700000.0 11309700000.0 11309700000.0 11309700000.0 11309700000.0 11309700000.0 11309700000.0 11309700000.0 11309700000.0 11309700000.0 11309700000.0 11309700000.0 11309700000.0 11309700000.0 11309700000.0 11309700000.0 11309700000.0 11309700000.0 11309700000.0 11309700000.0 11309700000.0 11309700000.0 11309700000.0 11309700000.0 11309700000.0 11309700000.0 11309700000.0 11309700000.0 11309700000.0 11309700000.0 11309700000.0 11309700000.0 11309700000.0 11309700000.0 11309700000.0 11309700000.0 11309700000.0 11309700000.0 11309700000.0 11309700000.0 11309700000.0 11309700000.0 11309700000.0 11309700000.0 11309700000.0 11309700000.0 11309700000.0 11309700000.0 11309700000.0 11309700000.0 11309700000.0 11309700000.0 11309700000.0 11309700000.0 11309700000.0 11309700000.0 11309700000.0 11309700000.0 11309700000.0 11309700000.0 11309700000.0 11309700000.0 11309700000.0 11309700000.0 11309700000.0 11309700000.0 11309700000.0 11309700000.0 11309700000.0 11309700000.0 11309700000.0 11309700000.0 11309700000.0 11309700000.0 11309700000.0 11309700000.0 11309700000.0 11309700000.0 11309700000.0 11309700000.0 11309700000.0 11309700000.0 11309700000.0 11309700000.0 11309700000.0 11309700000.0 11309700000.0 11309700000.0 11309700000.0 11309700000.0 11309700000.0 11309700000.0 11309700000.0 11309700000.0 11309700000.0 11309700000.0 11309700000.0 11309700000.0 11309700000.0 11309700000.0 11309700000.0 11309700000.0 11309700000.0 11309700000.0 11309700000.0 11309700000.0 11309700000.0 11309700000.0 11309700000.0 11309700000.0 11309700000.0 11309700000.0 11309700000.0 11309700000.0 11309700000.0 11309700000.0 11309700000.0 11309700000.0 11309700000.0 11309700000.0 11309700000.0 11309700000.0 11309700000.0 11309700000.0 11309700000.0 11309700000.0 11309700000.0 11309700000.0 11309700000.0 11309700000.0 11309700000.0 11309700000.0 11309700000.0 11309700000.0 11309700000.0 11309700000.0 11309700000.0 11309700000.0 11309700000.0 11309700000.0 11309700000.0 11309700000.0 11309700000.0 11309700000.0 11309700000.0 11309700000.0 11309700000.0 11309700000.0 11309700000.0 11309700000.0 11309700000.0 11309700000.0 11309700000.0 11309700000.0 11309700000.0 11309700000.0 11309700000.0 11309700000.0 11309700000.0 11309700000.0 11309700000.0 11309700000.0 11309700000.0 11309700000.0 11309700000.0 11309700000.0 11309700000.0 11309700000.0 11309700000.0 11309700000.0 11309700000.0 11309700000.0 11309700000.0 11309700000.0 11309700000.0 11309700000.0 11309700000.0 11309700000.0 11309700000.0 11309700000.0 11309700000.0 11309700000.0 11309700000.0 11309700000.0 11309700000.0 11309700000.0 11309700000.0 11309700000.0 11309700000.0 11309700000.0 11309700000.0 11309700000.0 11309700000.0 11309700000.0 11309700000.0 11309700000.0 11309700000.0 11309700000.0 11309700000.0 11309700000.0 11309700000.0 11309700000.0 11309700000.0 11309700000.0 11309700000.0 11309700000.0 11309700000.0 11309700000.0 11309700000.0 11309700000.0 11309700000.0 11309700000.0 11309700000.0 11309700000.0 11309700000.0 11309700000.0 11309700000.0 11309700000.0 11309700000.0 11309700000.0 11309700000.0 11309700000.0 11309700000.0 11309700000.0 11309700000.0 11309700000.0 11309700000.0 11309700000.0 11309700000.0 11309700000.0 11309700000.0 11309700000.0 11309700000.0 11309700000.0 11309700000.0 11309700000.0 11309700000.0 11309700000.0 11309700000.0 11309700000.0 11309700000.0 11309700000.0 11309700000.0 11309700000.0 11309700000.0 11309700000.0 11309700000.0 11309700000.0 11309700000.0 11309700000.0 11309700000.0 11309700000.0 11309700000.0 11309700000.0 11309700000.0 11309700000.0 11309700000.0 11309700000.0 11309700000.0 11309700000.0 11309700000.0 11309700000.0 11309700000.0 11309700000.0 11309700000.0 11309700000.0 11309700000.0 11309700000.0 11309700000.0 11309700000.0 11309700000.0 11309700000.0 11309700000.0 11309700000.0 11309700000.0 11309700000.0 11309700000.0 11309700000.0 11309700000.0 11309700000.0 11309700000.0 11309700000.0 11309700000.0 11309700000.0 11309700000.0 11309700000.0 11309700000.0 11309700000.0 11309700000.0 11309700000.0 11309700000.0 11309700000.0 11309700000.0 11309700000.0 11309700000.0 11309700000.0 11309700000.0 11309700000.0 11309700000.0 11309700000.0 11309700000.0 11309700000.0 11309700000.0 11309700000.0 11309700000.0 11309700000.0 11309700000.0 11309700000.0 11309700000.0 11309700000.0 11309700000.0 11309700000.0 11309700000.0 11309700000.0 11309700000.0 11309700000.0 11309700000.0 11309700000.0 11309700000.0 11309700000.0 11309700000.0 11309700000.0 11309700000.0 11309700000.0 11309700000.0 11309700000.0 11309700000.0 11309700000.0 11309700000.0 11309700000.0 11309700000.0 11309700000.0 11309700000.0 11309700000.0 11309700000.0 11309700000.0 11309700000.0 11309700000.0 11309700000.0 11309700000.0 11309700000.0 11309700000.0 11309700000.0 11309700000.0 11309700000.0 11309700000.0 11309700000.0 11309700000.0 11309700000.0 11309700000.0 11309700000.0 11309700000.0 11309700000.0 11309700000.0 11309700000.0 11309700000.0 11309700000.0 11309700000.0 11309700000.0 11309700000.0 11309700000.0 11309700000.0 11309700000.0 11309700000.0 11309700000.0 11309700000.0 11309700000.0 11309700000.0 11309700000.0 11309700000.0 11309700000.0 11309700000.0 11309700000.0 11309700000.0 11309700000.0 11309700000.0 11309700000.0 11309700000.0 11309700000.0 11309700000.0 11309700000.0 11309700000.0 11309700000.0 11309700000.0 11309700000.0 11309700000.0 11309700000.0 11309700000.0 11309700000.0 11309700000.0 11309700000.0 11309700000.0 11309700000.0 11309700000.0 11309700000.0 11309700000.0 11309700000.0 11309700000.0 11309700000.0 11309700000.0 11309700000.0 11309700000.0 11309700000.0 11309700000.0 11309700000.0 11309700000.0 11309700000.0 11309700000.0 11309700000.0 11309700000.0 11309700000.0 11309700000.0 11309700000.0 11309700000.0 11309700000.0 11309700000.0 11309700000.0 11309700000.0 11309700000.0 11309700000.0 11309700000.0 11309700000.0 11309700000.0 11309700000.0 11309700000.0 11309700000.0 11309700000.0 11309700000.0 11309700000.0 11309700000.0 11309700000.0 11309700000.0 11309700000.0 11309700000.0 11309700000.0 11309700000.0 11309700000.0 11309700000.0 11309700000.0 11309700000.0 11309700000.0 11309700000.0 11309700000.0 11309700000.0 11309700000.0 11309700000.0 11309700000.0 11309700000.0 11309700000.0 11309700000.0 11309700000.0 11309700000.0 11309700000.0 11309700000.0 11309700000.0 11309700000.0 11309700000.0 11309700000.0 11309700000.0 11309700000.0 11309700000.0 11309700000.0 11309700000.0 11309700000.0 11309700000.0 11309700000.0 11309700000.0 11309700000.0 11309700000.0 11309700000.0 11309700000.0 11309700000.0 11309700000.0 11309700000.0 11309700000.0 11309700000.0 11309700000.0 11309700000.0 11309700000.0 11309700000.0 11309700000.0 11309700000.0 11309700000.0 11309700000.0 11309700000.0 11309700000.0 11309700000.0 11309700000.0 11309700000.0 11309700000.0 11309700000.0 11309700000.0 11309700000.0 11309700000.0 11309700000.0 11309700000.0 11309700000.0 11309700000.0 11309700000.0 11309700000.0 11309700000.0 11309700000.0 11309700000.0 11309700000.0 11309700000.0 11309700000.0 11309700000.0 11309700000.0 11309700000.0 11309700000.0 11309700000.0 11309700000.0 11309700000.0 11309700000.0 11309700000.0 11309700000.0 11309700000.0 11309700000.0 11309700000.0 11309700000.0 11309700000.0 11309700000.0 11309700000.0 11309700000.0 11309700000.0 11309700000.0 11309700000.0 11309700000.0 11309700000.0 11309700000.0 11309700000.0 11309700000.0 11309700000.0 11309700000.0 11309700000.0 11309700000.0 11309700000.0 11309700000.0 11309700000.0 11309700000.0 11309700000.0 11309700000.0 11309700000.0 11309700000.0 11309700000.0 11309700000.0 11309700000.0 11309700000.0 11309700000.0 11309700000.0 11309700000.0 11309700000.0 11309700000.0 11309700000.0 11309700000.0 11309700000.0 11309700000.0 11309700000.0 11309700000.0 11309700000.0 11309700000.0 11309700000.0 11309700000.0 11309700000.0 11309700000.0 11309700000.0 11309700000.0 11309700000.0 11309700000.0 11309700000.0 11309700000.0 11309700000.0 11309700000.0 11309700000.0 11309700000.0 11309700000.0 11309700000.0 11309700000.0 11309700000.0 11309700000.0 11309700000.0 11309700000.0 11309700000.0 11309700000.0 11309700000.0 11309700000.0 11309700000.0 11309700000.0 11309700000.0 11309700000.0 11309700000.0 11309700000.0 11309700000.0 11309700000.0 11309700000.0 11309700000.0 11309700000.0 11309700000.0 11309700000.0 11309700000.0 11309700000.0 11309700000.0 11309700000.0 11309700000.0 11309700000.0 11309700000.0 11309700000.0 11309700000.0 11309700000.0 11309700000.0 11309700000.0 11309700000.0 11309700000.0 11309700000.0 11309700000.0 11309700000.0 11309700000.0 11309700000.0 11309700000.0 11309700000.0 11309700000.0 11309700000.0 11309700000.0 11309700000.0 11309700000.0 11309700000.0 11309700000.0 11309700000.0 11309700000.0 11309700000.0 11309700000.0 11309700000.0 11309700000.0 11309700000.0 11309700000.0 11309700000.0 11309700000.0 11309700000.0 11309700000.0 11309700000.0 11309700000.0 11309700000.0 11309700000.0 11309700000.0 11309700000.0 11309700000.0 11309700000.0 11309700000.0 11309700000.0 11309700000.0 11309700000.0 11309700000.0 11309700000.0 11309700000.0 11309700000.0 11309700000.0 11309700000.0 11309700000.0 11309700000.0 11309700000.0 11309700000.0 11309700000.0 11309700000.0 11309700000.0 11309700000.0 11309700000.0 11309700000.0 11309700000.0 11309700000.0 11309700000.0 11309700000.0 11309700000.0 11309700000.0 11309700000.0 11309700000.0 11309700000.0 11309700000.0 11309700000.0 11309700000.0 11309700000.0 11309700000.0 11309700000.0 11309700000.0 11309700000.0 11309700000.0 11309700000.0 11309700000.0 11309700000.0 11309700000.0 11309700000.0 11309700000.0 11309700000.0 11309700000.0 11309700000.0 11309700000.0 11309700000.0 11309700000.0 11309700000.0 11309700000.0 11309700000.0 11309700000.0 11309700000.0 11309700000.0 11309700000.0 11309700000.0 11309700000.0 11309700000.0 11309700000.0 11309700000.0 11309700000.0 11309700000.0 11309700000.0 11309700000.0 11309700000.0 11309700000.0 11309700000.0 11309700000.0 11309700000.0 11309700000.0 11309700000.0 11309700000.0 11309700000.0 11309700000.0 11309700000.0 11309700000.0 11309700000.0 11309700000.0 11309700000.0 11309700000.0 11309700000.0 11309700000.0 11309700000.0 11309700000.0 11309700000.0 11309700000.0 11309700000.0 11309700000.0 11309700000.0 11309700000.0 11309700000.0 11309700000.0 11309700000.0 11309700000.0 11309700000.0 11309700000.0 11309700000.0 11309700000.0 11309700000.0 11309700000.0 11309700000.0 11309700000.0 11309700000.0 11309700000.0 11309700000.0 11309700000.0 11309700000.0 11309700000.0 11309700000.0 11309700000.0 11309700000.0 11309700000.0 11309700000.0 11309700000.0 11309700000.0 11309700000.0 11309700000.0 11309700000.0 11309700000.0 11309700000.0 11309700000.0 11309700000.0 11309700000.0 11309700000.0 11309700000.0 11309700000.0 11309700000.0 11309700000.0 11309700000.0 11309700000.0 11309700000.0 11309700000.0 11309700000.0 11309700000.0 11309700000.0 11309700000.0 11309700000.0 11309700000.0 11309700000.0 11309700000.0 11309700000.0 11309700000.0 11309700000.0 11309700000.0 11309700000.0 11309700000.0 11309700000.0 11309700000.0 11309700000.0 11309700000.0 11309700000.0 11309700000.0 11309700000.0 11309700000.0 11309700000.0 11309700000.0 11309700000.0 11309700000.0 11309700000.0 11309700000.0 11309700000.0 11309700000.0 11309700000.0 11309700000.0 11309700000.0 11309700000.0 11309700000.0 11309700000.0 11309700000.0 11309700000.0 11309700000.0 11309700000.0 11309700000.0 11309700000.0 11309700000.0 11309700000.0 11309700000.0 11309700000.0 11309700000.0 11309700000.0 11309700000.0 11309700000.0 11309700000.0 11309700000.0 11309700000.0 11309700000.0 11309700000.0 11309700000.0 11309700000.0 11309700000.0 11309700000.0 11309700000.0 11309700000.0 11309700000.0 11309700000.0 11309700000.0 11309700000.0 11309700000.0 11309700000.0 11309700000.0 11309700000.0 11309700000.0 11309700000.0 11309700000.0 11309700000.0 11309700000.0 11309700000.0 11309700000.0 11309700000.0 11309700000.0 11309700000.0 11309700000.0 11309700000.0 11309700000.0 11309700000.0 11309700000.0 11309700000.0 11309700000.0 11309700000.0 11309700000.0 11309700000.0 11309700000.0 11309700000.0 11309700000.0 11309700000.0 11309700000.0 11309700000.0 11309700000.0 11309700000.0 11309700000.0 11309700000.0 11309700000.0 11309700000.0 11309700000.0 11309700000.0 11309700000.0 11309700000.0 11309700000.0 11309700000.0 11309700000.0 11309700000.0 11309700000.0 11309700000.0 11309700000.0 11309700000.0 11309700000.0 11309700000.0 11309700000.0 11309700000.0 11309700000.0 11309700000.0 11309700000.0 11309700000.0 11309700000.0 11309700000.0 11309700000.0 11309700000.0 11309700000.0 11309700000.0 11309700000.0 11309700000.0 11309700000.0 11309700000.0 11309700000.0 11309700000.0 11309700000.0 11309700000.0 11309700000.0 11309700000.0 11309700000.0 11309700000.0 11309700000.0 11309700000.0 11309700000.0 11309700000.0 11309700000.0 11309700000.0 11309700000.0 11309700000.0 11309700000.0 11309700000.0 11309700000.0 11309700000.0 11309700000.0 11309700000.0 11309700000.0 11309700000.0 11309700000.0 11309700000.0 11309700000.0 11309700000.0 11309700000.0 11309700000.0 11309700000.0 11309700000.0 11309700000.0 11309700000.0 11309700000.0 11309700000.0 11309700000.0 11309700000.0 11309700000.0 11309700000.0 11309700000.0 11309700000.0 11309700000.0 11309700000.0 11309700000.0 11309700000.0 11309700000.0 11309700000.0 11309700000.0 11309700000.0 11309700000.0 11309700000.0 11309700000.0 11309700000.0 11309700000.0 11309700000.0 11309700000.0 11309700000.0 11309700000.0 11309700000.0 11309700000.0 11309700000.0 11309700000.0 11309700000.0 11309700000.0 11309700000.0 11309700000.0 11309700000.0 11309700000.0 11309700000.0 11309700000.0 11309700000.0 11309700000.0 11309700000.0 11309700000.0 11309700000.0 11309700000.0 11309700000.0 11309700000.0 11309700000.0 11309700000.0 11309700000.0 11309700000.0 11309700000.0 11309700000.0 11309700000.0 11309700000.0 11309700000.0 11309700000.0 11309700000.0 11309700000.0 11309700000.0 11309700000.0 11309700000.0 11309700000.0 11309700000.0 11309700000.0 11309700000.0 11309700000.0 11309700000.0 11309700000.0 11309700000.0 11309700000.0 11309700000.0 11309700000.0 11309700000.0 11309700000.0 11309700000.0 11309700000.0 11309700000.0 11309700000.0 11309700000.0 11309700000.0 11309700000.0 11309700000.0 11309700000.0 11309700000.0 11309700000.0 11309700000.0 11309700000.0 11309700000.0 11309700000.0 11309700000.0 11309700000.0 11309700000.0 11309700000.0 11309700000.0 11309700000.0 11309700000.0 11309700000.0 11309700000.0 11309700000.0 11309700000.0 11309700000.0 11309700000.0 11309700000.0 11309700000.0 11309700000.0 11309700000.0 11309700000.0 11309700000.0 11309700000.0 11309700000.0 11309700000.0 11309700000.0 11309700000.0 11309700000.0 11309700000.0 11309700000.0 11309700000.0 11309700000.0 11309700000.0 11309700000.0 11309700000.0 11309700000.0 11309700000.0 11309700000.0 11309700000.0 11309700000.0 11309700000.0 11309700000.0 11309700000.0 11309700000.0 11309700000.0 11309700000.0 11309700000.0 11309700000.0 11309700000.0 11309700000.0 11309700000.0 11309700000.0 11309700000.0 11309700000.0 11309700000.0 11309700000.0 11309700000.0 11309700000.0 11309700000.0 11309700000.0 11309700000.0 11309700000.0 11309700000.0 11309700000.0 11309700000.0 11309700000.0 11309700000.0 11309700000.0 11309700000.0 11309700000.0 11309700000.0 11309700000.0 11309700000.0 11309700000.0 11309700000.0 11309700000.0 11309700000.0 11309700000.0 11309700000.0 11309700000.0 11309700000.0 11309700000.0 11309700000.0 11309700000.0 11309700000.0 11309700000.0 11309700000.0 11309700000.0 11309700000.0 11309700000.0 11309700000.0 11309700000.0 11309700000.0 11309700000.0 11309700000.0 11309700000.0 11309700000.0 11309700000.0 11309700000.0 11309700000.0 11309700000.0 11309700000.0 11309700000.0 11309700000.0 11309700000.0 11309700000.0 11309700000.0 11309700000.0 11309700000.0 11309700000.0 11309700000.0 11309700000.0 11309700000.0 11309700000.0 11309700000.0 11309700000.0 11309700000.0 11309700000.0 11309700000.0 11309700000.0 11309700000.0 11309700000.0 11309700000.0 11309700000.0 11309700000.0 11309700000.0 11309700000.0 11309700000.0 11309700000.0 11309700000.0 11309700000.0 11309700000.0 11309700000.0 11309700000.0 11309700000.0 11309700000.0 11309700000.0 11309700000.0 11309700000.0 11309700000.0 11309700000.0 11309700000.0 11309700000.0 11309700000.0 11309700000.0 11309700000.0 11309700000.0 11309700000.0 11309700000.0 11309700000.0 11309700000.0 11309700000.0 11309700000.0 11309700000.0 11309700000.0 11309700000.0 11309700000.0 11309700000.0 11309700000.0 11309700000.0 11309700000.0 11309700000.0 11309700000.0 11309700000.0 11309700000.0 11309700000.0 11309700000.0 11309700000.0 11309700000.0 11309700000.0 11309700000.0 11309700000.0 11309700000.0 11309700000.0 11309700000.0 11309700000.0 11309700000.0 11309700000.0 11309700000.0 11309700000.0 11309700000.0 11309700000.0 11309700000.0 11309700000.0 11309700000.0 11309700000.0 11309700000.0 11309700000.0 11309700000.0 11309700000.0 11309700000.0 11309700000.0 11309700000.0 11309700000.0 11309700000.0 11309700000.0 11309700000.0 11309700000.0 11309700000.0 11309700000.0 11309700000.0 11309700000.0 11309700000.0 11309700000.0 11309700000.0 11309700000.0 11309700000.0 11309700000.0 11309700000.0 11309700000.0 11309700000.0 11309700000.0 11309700000.0 11309700000.0 11309700000.0 11309700000.0 11309700000.0 11309700000.0 11309700000.0 11309700000.0 11309700000.0 11309700000.0 11309700000.0 11309700000.0 11309700000.0 11309700000.0 11309700000.0 11309700000.0 11309700000.0 11309700000.0 11309700000.0 11309700000.0 11309700000.0 11309700000.0 11309700000.0 11309700000.0 11309700000.0 11309700000.0 11309700000.0 11309700000.0 11309700000.0 11309700000.0 11309700000.0 11309700000.0 11309700000.0 11309700000.0 11309700000.0 11309700000.0 11309700000.0 11309700000.0 11309700000.0 11309700000.0 11309700000.0 11309700000.0 11309700000.0 11309700000.0 11309700000.0 11309700000.0 11309700000.0 11309700000.0 11309700000.0 11309700000.0 11309700000.0 11309700000.0 11309700000.0 11309700000.0 11309700000.0 11309700000.0 11309700000.0 11309700000.0 11309700000.0 11309700000.0 11309700000.0 11309700000.0 11309700000.0 11309700000.0 11309700000.0 11309700000.0 11309700000.0 11309700000.0 11309700000.0 11309700000.0 11309700000.0 11309700000.0 11309700000.0 11309700000.0 11309700000.0 11309700000.0 11309700000.0 11309700000.0 11309700000.0 11309700000.0 11309700000.0 11309700000.0 11309700000.0 11309700000.0 11309700000.0 11309700000.0 11309700000.0 11309700000.0 11309700000.0 11309700000.0 11309700000.0 11309700000.0 11309700000.0 11309700000.0 11309700000.0 11309700000.0 11309700000.0 11309700000.0 11309700000.0 11309700000.0 11309700000.0 11309700000.0 11309700000.0 11309700000.0 11309700000.0 11309700000.0 11309700000.0 11309700000.0 11309700000.0 11309700000.0 11309700000.0 11309700000.0 11309700000.0 11309700000.0 11309700000.0 11309700000.0 11309700000.0 11309700000.0 11309700000.0 11309700000.0 11309700000.0 11309700000.0 11309700000.0 11309700000.0 11309700000.0 11309700000.0 11309700000.0 11309700000.0 11309700000.0 11309700000.0 11309700000.0 11309700000.0 11309700000.0 11309700000.0 11309700000.0 11309700000.0 11309700000.0 11309700000.0 11309700000.0 11309700000.0 11309700000.0 11309700000.0 11309700000.0 11309700000.0 11309700000.0 11309700000.0 11309700000.0 11309700000.0 11309700000.0 11309700000.0 11309700000.0 11309700000.0 11309700000.0 11309700000.0 11309700000.0 11309700000.0 11309700000.0 11309700000.0 11309700000.0 11309700000.0 11309700000.0 11309700000.0 11309700000.0 11309700000.0 11309700000.0 11309700000.0 11309700000.0 11309700000.0 11309700000.0 11309700000.0 11309700000.0 11309700000.0 11309700000.0 11309700000.0 11309700000.0 11309700000.0 11309700000.0 11309700000.0 11309700000.0 11309700000.0 11309700000.0 11309700000.0 11309700000.0 11309700000.0 11309700000.0 11309700000.0 11309700000.0 11309700000.0 11309700000.0 11309700000.0 11309700000.0 11309700000.0 11309700000.0 11309700000.0 11309700000.0 11309700000.0 11309700000.0 11309700000.0 11309700000.0 11309700000.0 11309700000.0 11309700000.0 11309700000.0 11309700000.0 11309700000.0 11309700000.0 11309700000.0 11309700000.0 11309700000.0 11309700000.0 11309700000.0 11309700000.0 11309700000.0 11309700000.0 11309700000.0 11309700000.0 11309700000.0 11309700000.0 11309700000.0 11309700000.0 11309700000.0 11309700000.0 11309700000.0 11309700000.0 11309700000.0 11309700000.0 11309700000.0 11309700000.0 11309700000.0 11309700000.0 11309700000.0 11309700000.0 11309700000.0 11309700000.0 11309700000.0 11309700000.0 11309700000.0 11309700000.0 11309700000.0 11309700000.0 11309700000.0 11309700000.0 11309700000.0 11309700000.0 11309700000.0 11309700000.0 11309700000.0 11309700000.0 11309700000.0 11309700000.0 11309700000.0 11309700000.0 11309700000.0 11309700000.0 11309700000.0 11309700000.0 11309700000.0 11309700000.0 11309700000.0 11309700000.0 11309700000.0 11309700000.0 11309700000.0 11309700000.0 11309700000.0 11309700000.0 11309700000.0 11309700000.0 11309700000.0 11309700000.0 11309700000.0 11309700000.0 11309700000.0 11309700000.0 11309700000.0 11309700000.0 11309700000.0 11309700000.0 11309700000.0 11309700000.0 11309700000.0 11309700000.0 11309700000.0 11309700000.0 11309700000.0 11309700000.0 11309700000.0 11309700000.0 11309700000.0 11309700000.0 11309700000.0 11309700000.0 11309700000.0 11309700000.0 11309700000.0 11309700000.0 11309700000.0 11309700000.0 11309700000.0 11309700000.0 11309700000.0 11309700000.0 11309700000.0 11309700000.0 11309700000.0 11309700000.0 11309700000.0 11309700000.0 11309700000.0 11309700000.0 11309700000.0 11309700000.0 11309700000.0 11309700000.0 11309700000.0 11309700000.0 11309700000.0 11309700000.0 11309700000.0 11309700000.0 11309700000.0 11309700000.0 11309700000.0 11309700000.0 11309700000.0 11309700000.0 11309700000.0 11309700000.0 11309700000.0 11309700000.0 11309700000.0 11309700000.0 11309700000.0 11309700000.0 11309700000.0 11309700000.0 11309700000.0 11309700000.0 11309700000.0 11309700000.0 11309700000.0 11309700000.0 11309700000.0 11309700000.0 11309700000.0 11309700000.0 11309700000.0 11309700000.0 11309700000.0 11309700000.0 11309700000.0 11309700000.0 11309700000.0 11309700000.0 11309700000.0 11309700000.0 11309700000.0 11309700000.0 11309700000.0 11309700000.0 11309700000.0 11309700000.0 11309700000.0 11309700000.0 11309700000.0 11309700000.0 11309700000.0 11309700000.0 11309700000.0 11309700000.0 11309700000.0 11309700000.0 11309700000.0 11309700000.0 11309700000.0 11309700000.0 11309700000.0 11309700000.0 11309700000.0 11309700000.0 11309700000.0 11309700000.0 11309700000.0 11309700000.0 11309700000.0 11309700000.0 11309700000.0 11309700000.0 11309700000.0 11309700000.0 11309700000.0 11309700000.0 11309700000.0 11309700000.0 11309700000.0 11309700000.0 11309700000.0 11309700000.0 11309700000.0 11309700000.0 11309700000.0 11309700000.0 11309700000.0 11309700000.0 11309700000.0 11309700000.0 11309700000.0 11309700000.0 11309700000.0 11309700000.0 11309700000.0 11309700000.0 11309700000.0 11309700000.0 11309700000.0 11309700000.0 11309700000.0 11309700000.0 11309700000.0 11309700000.0 11309700000.0 11309700000.0 11309700000.0 11309700000.0 11309700000.0 11309700000.0 11309700000.0 11309700000.0 11309700000.0 11309700000.0 11309700000.0 11309700000.0 11309700000.0 11309700000.0 11309700000.0 11309700000.0 11309700000.0 11309700000.0 11309700000.0 11309700000.0 11309700000.0 11309700000.0 11309700000.0 11309700000.0 11309700000.0 11309700000.0 11309700000.0 11309700000.0 11309700000.0 11309700000.0 11309700000.0 11309700000.0 11309700000.0 11309700000.0 11309700000.0 11309700000.0 11309700000.0 11309700000.0 11309700000.0 11309700000.0 11309700000.0 11309700000.0 11309700000.0 11309700000.0 11309700000.0 11309700000.0 11309700000.0 11309700000.0 11309700000.0 11309700000.0 11309700000.0 11309700000.0 11309700000.0 11309700000.0 11309700000.0 11309700000.0 11309700000.0 11309700000.0 11309700000.0 11309700000.0 11309700000.0 11309700000.0 11309700000.0 11309700000.0 11309700000.0 11309700000.0 11309700000.0 11309700000.0 11309700000.0 11309700000.0 11309700000.0 11309700000.0 11309700000.0 11309700000.0 11309700000.0 11309700000.0 11309700000.0 11309700000.0 11309700000.0 11309700000.0 11309700000.0 11309700000.0 11309700000.0 11309700000.0 11309700000.0 11309700000.0 11309700000.0 11309700000.0 11309700000.0 11309700000.0 11309700000.0 11309700000.0 11309700000.0 11309700000.0 11309700000.0 11309700000.0 11309700000.0 11309700000.0 11309700000.0 11309700000.0 11309700000.0 11309700000.0 11309700000.0 11309700000.0 11309700000.0 11309700000.0 11309700000.0 11309700000.0 11309700000.0 11309700000.0 11309700000.0 11309700000.0 11309700000.0 11309700000.0 11309700000.0 11309700000.0 11309700000.0 11309700000.0 11309700000.0 11309700000.0 11309700000.0 11309700000.0 11309700000.0 11309700000.0 11309700000.0 11309700000.0 11309700000.0 11309700000.0 11309700000.0 11309700000.0 11309700000.0 11309700000.0 11309700000.0 11309700000.0 11309700000.0 11309700000.0 11309700000.0 11309700000.0 11309700000.0 11309700000.0 11309700000.0 11309700000.0 11309700000.0 11309700000.0 11309700000.0 11309700000.0 11309700000.0 11309700000.0 11309700000.0 11309700000.0 11309700000.0 11309700000.0 11309700000.0 11309700000.0 11309700000.0 11309700000.0 11309700000.0 11309700000.0 11309700000.0 11309700000.0 11309700000.0 11309700000.0 11309700000.0 11309700000.0 11309700000.0 11309700000.0 11309700000.0 11309700000.0 11309700000.0 11309700000.0 11309700000.0 11309700000.0 11309700000.0 11309700000.0 11309700000.0 11309700000.0 11309700000.0 11309700000.0 11309700000.0 11309700000.0 11309700000.0 11309700000.0 11309700000.0 11309700000.0 11309700000.0 11309700000.0 11309700000.0 11309700000.0 11309700000.0 11309700000.0 11309700000.0 11309700000.0 11309700000.0 11309700000.0 11309700000.0 11309700000.0 11309700000.0 11309700000.0 11309700000.0 11309700000.0 11309700000.0 11309700000.0 11309700000.0 11309700000.0 11309700000.0 11309700000.0 11309700000.0 11309700000.0 11309700000.0 11309700000.0 11309700000.0 11309700000.0 11309700000.0 11309700000.0 11309700000.0 11309700000.0 11309700000.0 11309700000.0 11309700000.0 11309700000.0 11309700000.0 11309700000.0 11309700000.0 11309700000.0 11309700000.0 11309700000.0 11309700000.0 11309700000.0 11309700000.0 11309700000.0 11309700000.0 11309700000.0 11309700000.0 11309700000.0 11309700000.0 11309700000.0 11309700000.0 11309700000.0 11309700000.0 11309700000.0 11309700000.0 11309700000.0 11309700000.0 11309700000.0 11309700000.0 11309700000.0 11309700000.0 11309700000.0 11309700000.0 11309700000.0 11309700000.0 11309700000.0 11309700000.0 11309700000.0 11309700000.0 11309700000.0 11309700000.0 11309700000.0 11309700000.0 11309700000.0 11309700000.0 11309700000.0 11309700000.0 11309700000.0 11309700000.0 11309700000.0 11309700000.0 11309700000.0 11309700000.0 11309700000.0 11309700000.0 11309700000.0 11309700000.0 11309700000.0 11309700000.0 11309700000.0 11309700000.0 11309700000.0 11309700000.0 11309700000.0 11309700000.0 11309700000.0 11309700000.0 11309700000.0 11309700000.0 11309700000.0 11309700000.0 11309700000.0 11309700000.0 11309700000.0 11309700000.0 11309700000.0 11309700000.0 11309700000.0 11309700000.0 11309700000.0 11309700000.0 11309700000.0 11309700000.0 11309700000.0 11309700000.0 11309700000.0 11309700000.0 11309700000.0 11309700000.0 11309700000.0 11309700000.0 11309700000.0 11309700000.0 11309700000.0 11309700000.0 11309700000.0 11309700000.0 11309700000.0 11309700000.0 11309700000.0 11309700000.0 11309700000.0 11309700000.0 11309700000.0 11309700000.0 11309700000.0 11309700000.0 11309700000.0 11309700000.0 11309700000.0 11309700000.0 11309700000.0 11309700000.0 11309700000.0 11309700000.0 11309700000.0 11309700000.0 11309700000.0 11309700000.0 11309700000.0 11309700000.0 11309700000.0 11309700000.0 11309700000.0 11309700000.0 11309700000.0 11309700000.0 11309700000.0 11309700000.0 11309700000.0 11309700000.0 11309700000.0 11309700000.0 11309700000.0 11309700000.0 11309700000.0 11309700000.0 11309700000.0 11309700000.0 11309700000.0 11309700000.0 11309700000.0 11309700000.0 11309700000.0 11309700000.0 11309700000.0 11309700000.0 11309700000.0 11309700000.0 11309700000.0 11309700000.0 11309700000.0 11309700000.0 11309700000.0 11309700000.0 11309700000.0 11309700000.0 11309700000.0 11309700000.0 11309700000.0 11309700000.0 11309700000.0 11309700000.0 11309700000.0 11309700000.0 11309700000.0 11309700000.0 11309700000.0 11309700000.0 11309700000.0 11309700000.0 11309700000.0 11309700000.0 11309700000.0 11309700000.0 11309700000.0 11309700000.0 11309700000.0 11309700000.0 11309700000.0 11309700000.0 11309700000.0 11309700000.0 11309700000.0 11309700000.0 11309700000.0 11309700000.0 11309700000.0 11309700000.0 11309700000.0 11309700000.0 11309700000.0 11309700000.0 11309700000.0 11309700000.0 11309700000.0 11309700000.0 11309700000.0 11309700000.0 11309700000.0 11309700000.0 11309700000.0 11309700000.0 11309700000.0 11309700000.0 11309700000.0 11309700000.0 11309700000.0 11309700000.0 11309700000.0 11309700000.0 11309700000.0 11309700000.0 11309700000.0 11309700000.0 11309700000.0 11309700000.0 11309700000.0 11309700000.0 11309700000.0 11309700000.0 11309700000.0 11309700000.0 11309700000.0 11309700000.0 11309700000.0 11309700000.0 11309700000.0 11309700000.0 11309700000.0 11309700000.0 11309700000.0 11309700000.0 11309700000.0 11309700000.0 11309700000.0 11309700000.0 11309700000.0 11309700000.0 11309700000.0 11309700000.0 11309700000.0 11309700000.0 11309700000.0 11309700000.0 11309700000.0 11309700000.0 11309700000.0 11309700000.0 11309700000.0 11309700000.0 11309700000.0 11309700000.0 11309700000.0 11309700000.0 11309700000.0 11309700000.0 11309700000.0 11309700000.0 11309700000.0 11309700000.0 11309700000.0 11309700000.0 11309700000.0 11309700000.0 11309700000.0 11309700000.0 11309700000.0 11309700000.0 11309700000.0 11309700000.0 11309700000.0 11309700000.0 11309700000.0 11309700000.0 11309700000.0 11309700000.0 11309700000.0 11309700000.0 11309700000.0 11309700000.0 11309700000.0 11309700000.0 11309700000.0 11309700000.0 11309700000.0 11309700000.0 11309700000.0 11309700000.0 11309700000.0 11309700000.0 11309700000.0 11309700000.0 11309700000.0 11309700000.0 11309700000.0 11309700000.0 11309700000.0 11309700000.0 11309700000.0 11309700000.0 11309700000.0 11309700000.0 11309700000.0 11309700000.0 11309700000.0 11309700000.0 11309700000.0 11309700000.0 11309700000.0 11309700000.0 11309700000.0 11309700000.0 11309700000.0 11309700000.0 11309700000.0 11309700000.0 11309700000.0 11309700000.0 11309700000.0 11309700000.0 11309700000.0 11309700000.0 11309700000.0 11309700000.0 11309700000.0 11309700000.0 11309700000.0 11309700000.0 11309700000.0 11309700000.0 11309700000.0 11309700000.0 11309700000.0 11309700000.0 11309700000.0 11309700000.0 11309700000.0 11309700000.0 11309700000.0 11309700000.0 11309700000.0 11309700000.0 11309700000.0 11309700000.0 11309700000.0 11309700000.0 11309700000.0 11309700000.0 11309700000.0 11309700000.0 11309700000.0 11309700000.0 11309700000.0 11309700000.0 11309700000.0 11309700000.0 11309700000.0 11309700000.0 11309700000.0 11309700000.0 11309700000.0 11309700000.0 11309700000.0 11309700000.0 11309700000.0 11309700000.0 11309700000.0 11309700000.0 11309700000.0 11309700000.0 11309700000.0 11309700000.0 11309700000.0 11309700000.0 11309700000.0 11309700000.0 11309700000.0 11309700000.0 11309700000.0 11309700000.0 11309700000.0 11309700000.0 11309700000.0 11309700000.0 11309700000.0 11309700000.0 11309700000.0 11309700000.0 11309700000.0 11309700000.0 11309700000.0 11309700000.0 11309700000.0 11309700000.0 11309700000.0 11309700000.0 11309700000.0 11309700000.0 11309700000.0 11309700000.0 11309700000.0 11309700000.0 11309700000.0 11309700000.0 11309700000.0 11309700000.0 11309700000.0 11309700000.0 11309700000.0 11309700000.0 11309700000.0 11309700000.0 11309700000.0 11309700000.0 11309700000.0 11309700000.0 11309700000.0 11309700000.0 11309700000.0 11309700000.0 11309700000.0 11309700000.0 11309700000.0 11309700000.0 11309700000.0 11309700000.0 11309700000.0 11309700000.0 11309700000.0 11309700000.0 11309700000.0 11309700000.0 11309700000.0 11309700000.0 11309700000.0 11309700000.0 11309700000.0 11309700000.0 11309700000.0 11309700000.0 11309700000.0 11309700000.0 11309700000.0 11309700000.0 11309700000.0 11309700000.0 11309700000.0 11309700000.0 11309700000.0 11309700000.0 11309700000.0 11309700000.0 11309700000.0 11309700000.0 11309700000.0 11309700000.0 11309700000.0 11309700000.0 11309700000.0 11309700000.0 11309700000.0 11309700000.0 11309700000.0 11309700000.0 11309700000.0 11309700000.0 11309700000.0 11309700000.0 11309700000.0 11309700000.0 11309700000.0 11309700000.0 11309700000.0 11309700000.0 11309700000.0 11309700000.0 11309700000.0 11309700000.0 11309700000.0 11309700000.0 11309700000.0 11309700000.0 11309700000.0 11309700000.0 11309700000.0 11309700000.0 11309700000.0 11309700000.0 11309700000.0 11309700000.0 11309700000.0 11309700000.0 11309700000.0 11309700000.0 11309700000.0 11309700000.0 11309700000.0 11309700000.0 11309700000.0 11309700000.0 11309700000.0 11309700000.0 11309700000.0 11309700000.0 11309700000.0 11309700000.0 11309700000.0 11309700000.0 11309700000.0 11309700000.0 11309700000.0 11309700000.0 11309700000.0 11309700000.0 11309700000.0 11309700000.0 11309700000.0 11309700000.0 11309700000.0 11309700000.0 11309700000.0 11309700000.0 11309700000.0 11309700000.0 11309700000.0 11309700000.0 11309700000.0 11309700000.0 11309700000.0 11309700000.0 11309700000.0 11309700000.0 11309700000.0 11309700000.0 11309700000.0 11309700000.0 11309700000.0 11309700000.0 11309700000.0 11309700000.0 11309700000.0 11309700000.0 11309700000.0 11309700000.0 11309700000.0 11309700000.0 11309700000.0 11309700000.0 11309700000.0 11309700000.0 11309700000.0 11309700000.0 11309700000.0 11309700000.0 11309700000.0 11309700000.0 11309700000.0 11309700000.0 11309700000.0 11309700000.0 11309700000.0 11309700000.0 11309700000.0 11309700000.0 11309700000.0 11309700000.0 11309700000.0 11309700000.0 11309700000.0 11309700000.0 11309700000.0 11309700000.0 11309700000.0 11309700000.0 11309700000.0 11309700000.0 11309700000.0 11309700000.0 11309700000.0 11309700000.0 11309700000.0 11309700000.0 11309700000.0 11309700000.0 11309700000.0 11309700000.0 11309700000.0 11309700000.0 11309700000.0 11309700000.0 11309700000.0 11309700000.0 11309700000.0 11309700000.0 11309700000.0 11309700000.0 11309700000.0 11309700000.0 11309700000.0 11309700000.0 11309700000.0 11309700000.0 11309700000.0 11309700000.0 11309700000.0 11309700000.0 11309700000.0 11309700000.0 11309700000.0 11309700000.0 11309700000.0 11309700000.0 11309700000.0 11309700000.0 11309700000.0 11309700000.0 11309700000.0 11309700000.0 11309700000.0 11309700000.0 11309700000.0 11309700000.0 11309700000.0 11309700000.0 11309700000.0 11309700000.0 11309700000.0 11309700000.0 11309700000.0 11309700000.0 11309700000.0 11309700000.0 11309700000.0 11309700000.0 11309700000.0 11309700000.0 11309700000.0 11309700000.0 11309700000.0 11309700000.0 11309700000.0 11309700000.0 11309700000.0 11309700000.0 11309700000.0 11309700000.0 11309700000.0 11309700000.0 11309700000.0 11309700000.0 11309700000.0 11309700000.0 11309700000.0 11309700000.0 11309700000.0 11309700000.0 11309700000.0 11309700000.0 11309700000.0 11309700000.0 11309700000.0 11309700000.0 11309700000.0 11309700000.0 11309700000.0 11309700000.0 11309700000.0 11309700000.0 11309700000.0 11309700000.0 11309700000.0 11309700000.0 11309700000.0 11309700000.0 11309700000.0 11309700000.0 11309700000.0 11309700000.0 11309700000.0 11309700000.0 11309700000.0 11309700000.0 11309700000.0 11309700000.0 11309700000.0 11309700000.0 11309700000.0 11309700000.0 11309700000.0 11309700000.0 11309700000.0 11309700000.0 11309700000.0 11309700000.0 11309700000.0 11309700000.0 11309700000.0 11309700000.0 11309700000.0 11309700000.0 11309700000.0 11309700000.0 11309700000.0 11309700000.0 11309700000.0 11309700000.0 11309700000.0 11309700000.0 11309700000.0 11309700000.0 11309700000.0 11309700000.0 11309700000.0 11309700000.0 11309700000.0 11309700000.0 11309700000.0 11309700000.0 11309700000.0 11309700000.0 11309700000.0 11309700000.0 11309700000.0 11309700000.0 11309700000.0 11309700000.0 11309700000.0 11309700000.0 11309700000.0 11309700000.0 11309700000.0 11309700000.0 11309700000.0 11309700000.0 11309700000.0 11309700000.0 11309700000.0 11309700000.0 11309700000.0 11309700000.0 11309700000.0 11309700000.0 11309700000.0 11309700000.0 11309700000.0 11309700000.0 11309700000.0 11309700000.0 11309700000.0 11309700000.0 11309700000.0 11309700000.0 11309700000.0 11309700000.0 11309700000.0 11309700000.0 11309700000.0 11309700000.0 11309700000.0 11309700000.0 11309700000.0 11309700000.0 11309700000.0 11309700000.0 11309700000.0 11309700000.0 11309700000.0 11309700000.0 11309700000.0 11309700000.0 11309700000.0 11309700000.0 11309700000.0 11309700000.0 11309700000.0 11309700000.0 11309700000.0 11309700000.0 11309700000.0 11309700000.0 11309700000.0 11309700000.0 11309700000.0 11309700000.0 11309700000.0 11309700000.0 11309700000.0 11309700000.0 11309700000.0 11309700000.0 11309700000.0 11309700000.0 11309700000.0 11309700000.0 11309700000.0 11309700000.0 11309700000.0 11309700000.0 11309700000.0 11309700000.0 11309700000.0 11309700000.0 11309700000.0 11309700000.0 11309700000.0 11309700000.0 11309700000.0 11309700000.0 11309700000.0 11309700000.0 11309700000.0 11309700000.0 11309700000.0 11309700000.0 11309700000.0 11309700000.0 11309700000.0 11309700000.0 11309700000.0 11309700000.0 11309700000.0 11309700000.0 11309700000.0 11309700000.0 11309700000.0 11309700000.0 11309700000.0 11309700000.0 11309700000.0 11309700000.0 11309700000.0 11309700000.0 11309700000.0 11309700000.0 11309700000.0 11309700000.0 11309700000.0 11309700000.0 11309700000.0 11309700000.0 11309700000.0 11309700000.0 11309700000.0 11309700000.0 11309700000.0 11309700000.0 11309700000.0 11309700000.0 11309700000.0 11309700000.0 11309700000.0 11309700000.0 11309700000.0 11309700000.0 11309700000.0 11309700000.0 11309700000.0 11309700000.0 11309700000.0 11309700000.0 11309700000.0 11309700000.0 11309700000.0 11309700000.0 11309700000.0 11309700000.0 11309700000.0 11309700000.0 11309700000.0 11309700000.0 11309700000.0 11309700000.0 11309700000.0 11309700000.0 11309700000.0 11309700000.0 11309700000.0 11309700000.0 11309700000.0 11309700000.0 11309700000.0 11309700000.0 11309700000.0 11309700000.0 11309700000.0 11309700000.0 11309700000.0 11309700000.0 11309700000.0 11309700000.0 11309700000.0 11309700000.0 11309700000.0 11309700000.0 11309700000.0 11309700000.0 11309700000.0 11309700000.0 11309700000.0 11309700000.0 11309700000.0 11309700000.0 11309700000.0 11309700000.0 11309700000.0 11309700000.0 11309700000.0 11309700000.0 11309700000.0 11309700000.0 11309700000.0 11309700000.0 11309700000.0 11309700000.0 11309700000.0 11309700000.0 11309700000.0 11309700000.0 11309700000.0 11309700000.0 11309700000.0 11309700000.0 11309700000.0 11309700000.0 11309700000.0 11309700000.0 11309700000.0 11309700000.0 11309700000.0 11309700000.0 11309700000.0 11309700000.0 11309700000.0 11309700000.0 11309700000.0 11309700000.0 11309700000.0 11309700000.0 11309700000.0 11309700000.0 11309700000.0 11309700000.0 11309700000.0 11309700000.0 11309700000.0 11309700000.0 11309700000.0 11309700000.0 11309700000.0 11309700000.0 11309700000.0 11309700000.0 11309700000.0 11309700000.0 11309700000.0 11309700000.0 11309700000.0 11309700000.0 11309700000.0 11309700000.0 11309700000.0 11309700000.0 11309700000.0 11309700000.0 11309700000.0 11309700000.0 11309700000.0 11309700000.0 11309700000.0 11309700000.0 11309700000.0 11309700000.0 11309700000.0 11309700000.0 11309700000.0 11309700000.0 11309700000.0 11309700000.0 11309700000.0 11309700000.0 11309700000.0 11309700000.0 11309700000.0 11309700000.0 11309700000.0 11309700000.0 11309700000.0 11309700000.0 11309700000.0 11309700000.0 11309700000.0 11309700000.0 11309700000.0 11309700000.0 11309700000.0 11309700000.0 11309700000.0 11309700000.0 11309700000.0 11309700000.0 11309700000.0 11309700000.0 11309700000.0 11309700000.0 11309700000.0 11309700000.0 11309700000.0 11309700000.0 11309700000.0 11309700000.0 11309700000.0 11309700000.0 11309700000.0 11309700000.0 11309700000.0 11309700000.0 11309700000.0 11309700000.0 11309700000.0 11309700000.0 11309700000.0 11309700000.0 11309700000.0 11309700000.0 11309700000.0 11309700000.0 11309700000.0 11309700000.0 11309700000.0 11309700000.0 11309700000.0 11309700000.0 11309700000.0 11309700000.0 11309700000.0 11309700000.0 11309700000.0 11309700000.0 11309700000.0 11309700000.0 11309700000.0 11309700000.0 11309700000.0 11309700000.0 11309700000.0 11309700000.0 11309700000.0 11309700000.0 11309700000.0 11309700000.0 11309700000.0 11309700000.0 11309700000.0 11309700000.0 11309700000.0 11309700000.0 11309700000.0 11309700000.0 11309700000.0 11309700000.0 11309700000.0 11309700000.0 11309700000.0 11309700000.0 11309700000.0 11309700000.0 11309700000.0 11309700000.0 11309700000.0 11309700000.0 11309700000.0 11309700000.0 11309700000.0 11309700000.0 11309700000.0 11309700000.0 11309700000.0 11309700000.0 11309700000.0 11309700000.0 11309700000.0 11309700000.0 11309700000.0 11309700000.0 11309700000.0 11309700000.0 11309700000.0 11309700000.0 11309700000.0 11309700000.0 11309700000.0 11309700000.0 11309700000.0 11309700000.0 11309700000.0 11309700000.0 11309700000.0 11309700000.0 11309700000.0 11309700000.0 11309700000.0 11309700000.0 11309700000.0 11309700000.0 11309700000.0 11309700000.0 11309700000.0 11309700000.0 11309700000.0 11309700000.0 11309700000.0 11309700000.0 11309700000.0 11309700000.0 11309700000.0 11309700000.0 11309700000.0 11309700000.0 11309700000.0 11309700000.0 11309700000.0 11309700000.0 11309700000.0 11309700000.0 11309700000.0 11309700000.0 11309700000.0 11309700000.0 11309700000.0 11309700000.0 11309700000.0 11309700000.0 11309700000.0 11309700000.0 11309700000.0 11309700000.0 11309700000.0 11309700000.0 11309700000.0 11309700000.0 11309700000.0 11309700000.0 11309700000.0 11309700000.0 11309700000.0 11309700000.0 11309700000.0 11309700000.0 11309700000.0 11309700000.0 11309700000.0 11309700000.0 11309700000.0 11309700000.0 11309700000.0 11309700000.0 11309700000.0 11309700000.0 11309700000.0 11309700000.0 11309700000.0 11309700000.0 11309700000.0 11309700000.0 11309700000.0 11309700000.0 11309700000.0 11309700000.0 11309700000.0 11309700000.0 11309700000.0 11309700000.0 11309700000.0 11309700000.0 11309700000.0 11309700000.0 11309700000.0 11309700000.0 11309700000.0 11309700000.0 11309700000.0 11309700000.0 11309700000.0 11309700000.0 11309700000.0 11309700000.0 11309700000.0 11309700000.0 11309700000.0 11309700000.0 11309700000.0 11309700000.0 11309700000.0 11309700000.0 11309700000.0 11309700000.0 11309700000.0 11309700000.0 11309700000.0 11309700000.0 11309700000.0 11309700000.0 11309700000.0 11309700000.0 11309700000.0 11309700000.0 11309700000.0 11309700000.0 11309700000.0 11309700000.0 11309700000.0 11309700000.0 11309700000.0 11309700000.0 11309700000.0 11309700000.0 11309700000.0 11309700000.0 11309700000.0 11309700000.0 11309700000.0 11309700000.0 11309700000.0 11309700000.0 11309700000.0 11309700000.0 11309700000.0 11309700000.0 11309700000.0 11309700000.0 11309700000.0 11309700000.0 11309700000.0 11309700000.0 11309700000.0 11309700000.0 11309700000.0 11309700000.0 11309700000.0 11309700000.0 11309700000.0 11309700000.0 11309700000.0 11309700000.0 11309700000.0 11309700000.0 11309700000.0 11309700000.0 11309700000.0 11309700000.0 11309700000.0 11309700000.0 11309700000.0 11309700000.0 11309700000.0 11309700000.0 11309700000.0 11309700000.0 11309700000.0 11309700000.0 11309700000.0 11309700000.0 11309700000.0 11309700000.0 11309700000.0 11309700000.0 11309700000.0 11309700000.0 11309700000.0 11309700000.0 11309700000.0 11309700000.0 11309700000.0 11309700000.0 11309700000.0 11309700000.0 11309700000.0 11309700000.0 11309700000.0 11309700000.0 11309700000.0 11309700000.0 11309700000.0 11309700000.0 11309700000.0 11309700000.0 11309700000.0 11309700000.0 11309700000.0 11309700000.0 11309700000.0 11309700000.0 11309700000.0 11309700000.0 11309700000.0 11309700000.0 11309700000.0 11309700000.0 11309700000.0 11309700000.0 11309700000.0 11309700000.0 11309700000.0 11309700000.0 11309700000.0 11309700000.0 11309700000.0 11309700000.0 11309700000.0 11309700000.0 11309700000.0 11309700000.0 11309700000.0 11309700000.0 11309700000.0 11309700000.0 11309700000.0 11309700000.0 11309700000.0 11309700000.0 11309700000.0 11309700000.0 11309700000.0 11309700000.0 11309700000.0 11309700000.0 11309700000.0 11309700000.0 11309700000.0 11309700000.0 11309700000.0 11309700000.0 11309700000.0 11309700000.0 11309700000.0 11309700000.0 11309700000.0 11309700000.0 11309700000.0 11309700000.0 11309700000.0 11309700000.0 11309700000.0 11309700000.0 11309700000.0 11309700000.0 11309700000.0 11309700000.0 11309700000.0 11309700000.0 11309700000.0 11309700000.0 11309700000.0 11309700000.0 11309700000.0 11309700000.0 11309700000.0 11309700000.0 11309700000.0 11309700000.0 11309700000.0 11309700000.0 11309700000.0 11309700000.0 11309700000.0 11309700000.0 11309700000.0 11309700000.0 11309700000.0 11309700000.0 11309700000.0 11309700000.0 11309700000.0 11309700000.0 11309700000.0 11309700000.0 11309700000.0 11309700000.0 11309700000.0 11309700000.0 11309700000.0 11309700000.0 11309700000.0 11309700000.0 11309700000.0 11309700000.0 11309700000.0 11309700000.0 11309700000.0 11309700000.0 11309700000.0 11309700000.0 11309700000.0 11309700000.0 11309700000.0 11309700000.0 11309700000.0 11309700000.0 11309700000.0 11309700000.0 11309700000.0 11309700000.0 11309700000.0 11309700000.0 11309700000.0 11309700000.0 11309700000.0 11309700000.0 11309700000.0 11309700000.0 11309700000.0 11309700000.0 11309700000.0 11309700000.0 11309700000.0 11309700000.0 11309700000.0 11309700000.0 11309700000.0 11309700000.0 11309700000.0 11309700000.0 11309700000.0 11309700000.0 11309700000.0 11309700000.0 11309700000.0 11309700000.0 11309700000.0 11309700000.0 11309700000.0 11309700000.0 11309700000.0 11309700000.0 11309700000.0 11309700000.0 11309700000.0 11309700000.0 11309700000.0 11309700000.0 11309700000.0 11309700000.0 11309700000.0 11309700000.0 11309700000.0 11309700000.0 11309700000.0 11309700000.0 11309700000.0 11309700000.0 11309700000.0 11309700000.0 11309700000.0 11309700000.0 11309700000.0 11309700000.0 11309700000.0 11309700000.0 11309700000.0 11309700000.0 11309700000.0 11309700000.0 11309700000.0 11309700000.0 11309700000.0 11309700000.0 11309700000.0 11309700000.0 11309700000.0 11309700000.0 11309700000.0 11309700000.0 11309700000.0 11309700000.0 11309700000.0 11309700000.0 11309700000.0 11309700000.0 11309700000.0 11309700000.0 11309700000.0 11309700000.0 11309700000.0 11309700000.0 11309700000.0 11309700000.0 11309700000.0 11309700000.0 11309700000.0 11309700000.0 11309700000.0 11309700000.0 11309700000.0 11309700000.0 11309700000.0 11309700000.0 11309700000.0 11309700000.0 11309700000.0 11309700000.0 11309700000.0 11309700000.0 11309700000.0 11309700000.0 11309700000.0 11309700000.0 11309700000.0 11309700000.0 11309700000.0 11309700000.0 11309700000.0 11309700000.0 11309700000.0 11309700000.0 11309700000.0 11309700000.0 11309700000.0 11309700000.0 11309700000.0 11309700000.0 11309700000.0 11309700000.0 11309700000.0 11309700000.0 11309700000.0 11309700000.0 11309700000.0 11309700000.0 11309700000.0 11309700000.0 11309700000.0 11309700000.0 11309700000.0 11309700000.0 11309700000.0 11309700000.0 11309700000.0 11309700000.0 11309700000.0 11309700000.0 11309700000.0 11309700000.0 11309700000.0 11309700000.0 11309700000.0 11309700000.0 11309700000.0 11309700000.0 11309700000.0 11309700000.0 11309700000.0 11309700000.0 11309700000.0 11309700000.0 11309700000.0 11309700000.0 11309700000.0 11309700000.0 11309700000.0 11309700000.0 11309700000.0 11309700000.0 11309700000.0 11309700000.0 11309700000.0 11309700000.0 11309700000.0 11309700000.0 11309700000.0 11309700000.0 11309700000.0 11309700000.0 11309700000.0 11309700000.0 11309700000.0 11309700000.0 11309700000.0 11309700000.0 11309700000.0 11309700000.0 11309700000.0 11309700000.0 11309700000.0 11309700000.0 11309700000.0 11309700000.0 11309700000.0 11309700000.0 11309700000.0 11309700000.0 11309700000.0 11309700000.0 11309700000.0 11309700000.0 11309700000.0 11309700000.0 11309700000.0 11309700000.0 11309700000.0 11309700000.0 11309700000.0 11309700000.0 11309700000.0 11309700000.0 11309700000.0 11309700000.0 11309700000.0 11309700000.0 11309700000.0 11309700000.0 11309700000.0 11309700000.0 11309700000.0 11309700000.0 11309700000.0 11309700000.0 11309700000.0 11309700000.0 11309700000.0 11309700000.0 11309700000.0 11309700000.0 11309700000.0 11309700000.0 11309700000.0 11309700000.0 11309700000.0 11309700000.0 11309700000.0 11309700000.0 11309700000.0 11309700000.0 11309700000.0 11309700000.0 11309700000.0 11309700000.0 11309700000.0 11309700000.0 11309700000.0 11309700000.0 11309700000.0 11309700000.0 11309700000.0 11309700000.0 11309700000.0 11309700000.0 11309700000.0 11309700000.0 11309700000.0 11309700000.0 11309700000.0 11309700000.0 11309700000.0 11309700000.0 11309700000.0 11309700000.0 11309700000.0 11309700000.0 11309700000.0 11309700000.0 11309700000.0 11309700000.0 11309700000.0 11309700000.0 11309700000.0 11309700000.0 11309700000.0 11309700000.0 11309700000.0 11309700000.0 11309700000.0 11309700000.0 11309700000.0 11309700000.0 11309700000.0 11309700000.0 11309700000.0 11309700000.0 11309700000.0 11309700000.0 11309700000.0 11309700000.0 11309700000.0 11309700000.0 11309700000.0 11309700000.0 11309700000.0 11309700000.0 11309700000.0 11309700000.0 11309700000.0 11309700000.0 11309700000.0 11309700000.0 11309700000.0 11309700000.0 11309700000.0 11309700000.0 11309700000.0 11309700000.0 11309700000.0 11309700000.0 11309700000.0 11309700000.0 11309700000.0 11309700000.0 11309700000.0 11309700000.0 11309700000.0 11309700000.0 11309700000.0 11309700000.0 11309700000.0 11309700000.0 11309700000.0 11309700000.0 11309700000.0 11309700000.0 11309700000.0 11309700000.0 11309700000.0 11309700000.0 11309700000.0 11309700000.0 11309700000.0 11309700000.0 11309700000.0 11309700000.0 11309700000.0 11309700000.0 11309700000.0 11309700000.0 11309700000.0 11309700000.0 11309700000.0 11309700000.0 11309700000.0 11309700000.0 11309700000.0 11309700000.0 11309700000.0 11309700000.0 11309700000.0 11309700000.0 11309700000.0 11309700000.0 11309700000.0 11309700000.0 11309700000.0 11309700000.0 11309700000.0 11309700000.0 11309700000.0 11309700000.0 11309700000.0 11309700000.0 11309700000.0 11309700000.0 11309700000.0 11309700000.0 11309700000.0 11309700000.0 11309700000.0 11309700000.0 11309700000.0 11309700000.0 11309700000.0 11309700000.0 11309700000.0 11309700000.0 11309700000.0 11309700000.0 11309700000.0 11309700000.0 11309700000.0 11309700000.0 11309700000.0 11309700000.0 11309700000.0 11309700000.0 11309700000.0 11309700000.0 11309700000.0 11309700000.0 11309700000.0 11309700000.0 11309700000.0 11309700000.0 11309700000.0 11309700000.0 11309700000.0 11309700000.0 11309700000.0 11309700000.0 11309700000.0 11309700000.0 11309700000.0 11309700000.0 11309700000.0 11309700000.0 11309700000.0 11309700000.0 11309700000.0 11309700000.0 11309700000.0 11309700000.0 11309700000.0 11309700000.0 11309700000.0 11309700000.0 11309700000.0 11309700000.0 11309700000.0 11309700000.0 11309700000.0 11309700000.0 11309700000.0 11309700000.0 11309700000.0 11309700000.0 11309700000.0 11309700000.0 11309700000.0 11309700000.0 11309700000.0 11309700000.0 11309700000.0 11309700000.0 11309700000.0 11309700000.0 11309700000.0 11309700000.0 11309700000.0 11309700000.0 11309700000.0 11309700000.0 11309700000.0 11309700000.0 11309700000.0 11309700000.0 11309700000.0 11309700000.0 11309700000.0 11309700000.0 11309700000.0 11309700000.0 11309700000.0 11309700000.0 11309700000.0 11309700000.0 11309700000.0 11309700000.0 11309700000.0 11309700000.0 11309700000.0 11309700000.0 11309700000.0 11309700000.0 11309700000.0 11309700000.0 11309700000.0 11309700000.0 11309700000.0 11309700000.0 11309700000.0 11309700000.0 11309700000.0 11309700000.0 11309700000.0 11309700000.0 11309700000.0 11309700000.0 11309700000.0 11309700000.0 11309700000.0 11309700000.0 11309700000.0 11309700000.0 11309700000.0 11309700000.0 11309700000.0 11309700000.0 11309700000.0 11309700000.0 11309700000.0 11309700000.0 11309700000.0 11309700000.0 11309700000.0 11309700000.0 11309700000.0 11309700000.0 11309700000.0 11309700000.0 11309700000.0 11309700000.0 11309700000.0 11309700000.0 11309700000.0 11309700000.0 11309700000.0 11309700000.0 11309700000.0 11309700000.0 11309700000.0 11309700000.0 11309700000.0 11309700000.0 11309700000.0 11309700000.0 11309700000.0 11309700000.0 11309700000.0 11309700000.0 11309700000.0 11309700000.0 11309700000.0 11309700000.0 11309700000.0 11309700000.0 11309700000.0 11309700000.0 11309700000.0 11309700000.0 11309700000.0 11309700000.0 11309700000.0 11309700000.0 11309700000.0 11309700000.0 11309700000.0 11309700000.0 11309700000.0 11309700000.0 11309700000.0 11309700000.0 11309700000.0 11309700000.0 11309700000.0 11309700000.0 11309700000.0 11309700000.0 11309700000.0 11309700000.0 11309700000.0 11309700000.0 11309700000.0 11309700000.0 11309700000.0 11309700000.0 11309700000.0 11309700000.0 11309700000.0 11309700000.0 11309700000.0 11309700000.0 11309700000.0 11309700000.0 11309700000.0 11309700000.0 11309700000.0 11309700000.0 11309700000.0 11309700000.0 11309700000.0 11309700000.0 11309700000.0 11309700000.0 11309700000.0 11309700000.0 11309700000.0 11309700000.0 11309700000.0 11309700000.0 11309700000.0 11309700000.0 11309700000.0 11309700000.0 11309700000.0 11309700000.0 11309700000.0 11309700000.0 11309700000.0 11309700000.0 11309700000.0 11309700000.0 11309700000.0 11309700000.0 11309700000.0 11309700000.0 11309700000.0 11309700000.0 11309700000.0 11309700000.0 11309700000.0 11309700000.0 11309700000.0 11309700000.0 11309700000.0 11309700000.0 11309700000.0 11309700000.0 11309700000.0 11309700000.0 11309700000.0 11309700000.0 11309700000.0 11309700000.0 11309700000.0 11309700000.0 11309700000.0 11309700000.0 11309700000.0 11309700000.0 11309700000.0 11309700000.0 11309700000.0 11309700000.0 11309700000.0 11309700000.0 11309700000.0 11309700000.0 11309700000.0 11309700000.0 11309700000.0 11309700000.0 11309700000.0 11309700000.0 11309700000.0 11309700000.0 11309700000.0 11309700000.0 11309700000.0 11309700000.0 11309700000.0 11309700000.0 11309700000.0 11309700000.0 11309700000.0 11309700000.0 11309700000.0 11309700000.0 11309700000.0 11309700000.0 11309700000.0 11309700000.0 11309700000.0 11309700000.0 11309700000.0 11309700000.0 11309700000.0 11309700000.0 11309700000.0 11309700000.0 11309700000.0 11309700000.0 11309700000.0 11309700000.0 11309700000.0 11309700000.0 11309700000.0 11309700000.0 11309700000.0 11309700000.0 11309700000.0 11309700000.0 11309700000.0 11309700000.0 11309700000.0 11309700000.0 11309700000.0 11309700000.0 11309700000.0 11309700000.0 11309700000.0 11309700000.0 11309700000.0 11309700000.0 11309700000.0 11309700000.0 11309700000.0 11309700000.0 11309700000.0 11309700000.0 11309700000.0 11309700000.0 11309700000.0 11309700000.0 11309700000.0 11309700000.0 11309700000.0 11309700000.0 11309700000.0 11309700000.0 11309700000.0 11309700000.0 11309700000.0 11309700000.0 11309700000.0 11309700000.0 11309700000.0 11309700000.0 11309700000.0 11309700000.0 11309700000.0 11309700000.0 11309700000.0 11309700000.0 11309700000.0 11309700000.0 11309700000.0 11309700000.0 11309700000.0 11309700000.0 11309700000.0 11309700000.0 11309700000.0 11309700000.0 11309700000.0 11309700000.0 11309700000.0 11309700000.0 11309700000.0 11309700000.0 11309700000.0 11309700000.0 11309700000.0 11309700000.0 11309700000.0 11309700000.0 11309700000.0 11309700000.0 11309700000.0 11309700000.0 11309700000.0 11309700000.0 11309700000.0 11309700000.0 11309700000.0 11309700000.0 11309700000.0 11309700000.0 11309700000.0 11309700000.0 11309700000.0 11309700000.0 11309700000.0 11309700000.0 11309700000.0 11309700000.0 11309700000.0 11309700000.0 11309700000.0 11309700000.0 11309700000.0 11309700000.0 11309700000.0 11309700000.0 11309700000.0 11309700000.0 11309700000.0 11309700000.0 11309700000.0 11309700000.0 11309700000.0 11309700000.0 11309700000.0 11309700000.0 11309700000.0 11309700000.0 11309700000.0 11309700000.0 11309700000.0 11309700000.0 11309700000.0 11309700000.0 11309700000.0 11309700000.0 11309700000.0 11309700000.0 11309700000.0 11309700000.0 11309700000.0 11309700000.0 11309700000.0 11309700000.0 11309700000.0 11309700000.0 11309700000.0 11309700000.0 11309700000.0 11309700000.0 11309700000.0 11309700000.0 11309700000.0 11309700000.0 11309700000.0 11309700000.0 11309700000.0 11309700000.0 11309700000.0 11309700000.0 11309700000.0 11309700000.0 11309700000.0 11309700000.0 11309700000.0 11309700000.0 11309700000.0 11309700000.0 11309700000.0 11309700000.0 11309700000.0 11309700000.0 11309700000.0 11309700000.0 11309700000.0 11309700000.0 11309700000.0 11309700000.0 11309700000.0 11309700000.0 11309700000.0 11309700000.0 11309700000.0 11309700000.0 11309700000.0 11309700000.0 11309700000.0 11309700000.0 11309700000.0 11309700000.0 11309700000.0 11309700000.0 11309700000.0 11309700000.0 11309700000.0 11309700000.0 11309700000.0 11309700000.0 11309700000.0 11309700000.0 11309700000.0 11309700000.0 11309700000.0 11309700000.0 11309700000.0 11309700000.0 11309700000.0 11309700000.0 11309700000.0 11309700000.0 11309700000.0 11309700000.0 11309700000.0 11309700000.0 11309700000.0 11309700000.0 11309700000.0 11309700000.0 11309700000.0 11309700000.0 11309700000.0 11309700000.0 11309700000.0 11309700000.0 11309700000.0 11309700000.0 11309700000.0 11309700000.0 11309700000.0 11309700000.0 11309700000.0 11309700000.0 11309700000.0 11309700000.0 11309700000.0 11309700000.0 11309700000.0 11309700000.0 11309700000.0 11309700000.0 11309700000.0 11309700000.0 11309700000.0 11309700000.0 11309700000.0 11309700000.0 11309700000.0 11309700000.0 11309700000.0 11309700000.0 11309700000.0 11309700000.0 11309700000.0 11309700000.0 11309700000.0 11309700000.0 11309700000.0 11309700000.0 11309700000.0 11309700000.0 11309700000.0 11309700000.0 11309700000.0 11309700000.0 11309700000.0 11309700000.0 11309700000.0 11309700000.0 11309700000.0 11309700000.0 11309700000.0 11309700000.0 11309700000.0 11309700000.0 11309700000.0 11309700000.0 11309700000.0 11309700000.0 11309700000.0 11309700000.0 11309700000.0 11309700000.0 11309700000.0 11309700000.0 11309700000.0 11309700000.0 11309700000.0 11309700000.0 11309700000.0 11309700000.0 11309700000.0 11309700000.0 11309700000.0 11309700000.0 11309700000.0 11309700000.0 11309700000.0 11309700000.0 11309700000.0 11309700000.0 11309700000.0 11309700000.0 11309700000.0 11309700000.0 11309700000.0 11309700000.0 11309700000.0 11309700000.0 11309700000.0 11309700000.0 11309700000.0 11309700000.0 11309700000.0 11309700000.0 11309700000.0 11309700000.0 11309700000.0 11309700000.0 11309700000.0 11309700000.0 11309700000.0 11309700000.0 11309700000.0 11309700000.0 11309700000.0 11309700000.0 11309700000.0 11309700000.0 11309700000.0 11309700000.0 11309700000.0 11309700000.0 11309700000.0 11309700000.0 11309700000.0 11309700000.0 11309700000.0 11309700000.0 11309700000.0 11309700000.0 11309700000.0 11309700000.0 11309700000.0 11309700000.0 11309700000.0 11309700000.0 11309700000.0 11309700000.0 11309700000.0 11309700000.0 11309700000.0 11309700000.0 11309700000.0 11309700000.0 11309700000.0 11309700000.0 11309700000.0 11309700000.0 11309700000.0 11309700000.0 11309700000.0 11309700000.0 11309700000.0 11309700000.0 11309700000.0 11309700000.0 11309700000.0 11309700000.0 11309700000.0 11309700000.0 11309700000.0 11309700000.0 11309700000.0 11309700000.0 11309700000.0 11309700000.0 11309700000.0 11309700000.0 11309700000.0 11309700000.0 11309700000.0 11309700000.0 11309700000.0 11309700000.0 11309700000.0 11309700000.0 11309700000.0 11309700000.0 11309700000.0 11309700000.0 11309700000.0 11309700000.0 11309700000.0 11309700000.0 11309700000.0 11309700000.0 11309700000.0 11309700000.0 11309700000.0 11309700000.0 11309700000.0 11309700000.0 11309700000.0 11309700000.0 11309700000.0 11309700000.0 11309700000.0 11309700000.0 11309700000.0 11309700000.0 11309700000.0 11309700000.0 11309700000.0 11309700000.0 11309700000.0 11309700000.0 11309700000.0 11309700000.0 11309700000.0 11309700000.0 11309700000.0 11309700000.0 11309700000.0 11309700000.0 11309700000.0 11309700000.0 11309700000.0 11309700000.0 11309700000.0 11309700000.0 11309700000.0 11309700000.0 11309700000.0 11309700000.0 11309700000.0 11309700000.0 11309700000.0 11309700000.0 11309700000.0 11309700000.0 11309700000.0 11309700000.0 11309700000.0 11309700000.0 11309700000.0 11309700000.0 11309700000.0 11309700000.0 11309700000.0 11309700000.0 11309700000.0 11309700000.0 11309700000.0 11309700000.0 11309700000.0 11309700000.0 11309700000.0 11309700000.0 11309700000.0 11309700000.0 11309700000.0 11309700000.0 11309700000.0 11309700000.0 11309700000.0 11309700000.0 11309700000.0 11309700000.0 11309700000.0 11309700000.0 11309700000.0 11309700000.0 11309700000.0 11309700000.0 11309700000.0 11309700000.0 11309700000.0 11309700000.0 
SCALARS Velocity float 1
LOOKUP_TABLE default
0.0 0.0 0.0 0.0 0.0 0.0 0.0 0.0 0.0 0.0 0.0 0.0 0.0 0.0 0.0 0.0 0.0 0.0 0.0 0.0 0.0 0.0 0.0 0.0 0.0 0.0 0.0 0.0 0.0 0.0 0.0 0.0 0.0 0.0 0.0 0.0 0.0 0.0 0.0 0.0 0.0 0.0 0.0 0.0 0.0 0.0 0.0 0.0 0.0 0.0 0.0 0.0 0.0 0.0 0.0 0.0 0.0 0.0 0.0 0.0 0.0 0.0 0.0 0.0 0.0 0.0 0.0 0.0 0.0 0.0 0.0 0.0 0.0 0.0 0.0 0.0 0.0 0.0 0.0 0.0 0.0 0.0 0.0 0.0 0.0 0.0 0.0 0.0 0.0 0.0 0.0 0.0 0.0 0.0 0.0 0.0 0.0 0.0 0.0 0.0 0.0 0.0 0.0 0.0 0.0 0.0 0.0 0.0 0.0 0.0 0.0 0.0 0.0 0.0 0.0 0.0 0.0 0.0 0.0 0.0 0.0 0.0 0.0 0.0 0.0 0.0 0.0 0.0 0.0 0.0 0.0 0.0 0.0 0.0 0.0 0.0 0.0 0.0 0.0 0.0 0.0 0.0 0.0 0.0 0.0 0.0 0.0 0.0 0.0 0.0 0.0 0.0 0.0 0.0 0.0 0.0 0.0 0.0 0.0 0.0 0.0 0.0 0.0 0.0 0.0 0.0 0.0 0.0 0.0 0.0 0.0 0.0 0.0 0.0 0.0 0.0 0.0 0.0 0.0 0.0 0.0 0.0 0.0 0.0 0.0 0.0 0.0 0.0 0.0 0.0 0.0 0.0 0.0 0.0 0.0 0.0 0.0 0.0 0.0 0.0 0.0 0.0 0.0 0.0 0.0 0.0 0.0 0.0 0.0 0.0 0.0 0.0 0.0 0.0 0.0 0.0 0.0 0.0 0.0 0.0 0.0 0.0 0.0 0.0 0.0 0.0 0.0 0.0 0.0 0.0 0.0 0.0 0.0 0.0 0.0 0.0 0.0 0.0 0.0 0.0 0.0 0.0 0.0 0.0 0.0 0.0 0.0 0.0 0.0 0.0 0.0 0.0 0.0 0.0 0.0 0.0 0.0 0.0 0.0 0.0 0.0 0.0 0.0 0.0 0.0 0.0 0.0 0.0 0.0 0.0 0.0 0.0 0.0 0.0 0.0 0.0 0.0 0.0 0.0 0.0 0.0 0.0 0.0 0.0 0.0 0.0 0.0 0.0 0.0 0.0 0.0 0.0 0.0 0.0 0.0 0.0 0.0 0.0 0.0 0.0 0.0 0.0 0.0 0.0 0.0 0.0 0.0 0.0 0.0 0.0 0.0 0.0 0.0 0.0 0.0 0.0 0.0 0.0 0.0 0.0 0.0 0.0 0.0 0.0 0.0 0.0 0.0 0.0 0.0 0.0 0.0 0.0 0.0 0.0 0.0 0.0 0.0 0.0 0.0 0.0 0.0 0.0 0.0 0.0 0.0 0.0 0.0 0.0 0.0 0.0 0.0 0.0 0.0 0.0 0.0 0.0 0.0 0.0 0.0 0.0 0.0 0.0 0.0 0.0 0.0 0.0 0.0 0.0 0.0 0.0 0.0 0.0 0.0 0.0 0.0 0.0 0.0 0.0 0.0 0.0 0.0 0.0 0.0 0.0 0.0 0.0 0.0 0.0 0.0 0.0 0.0 0.0 0.0 0.0 0.0 0.0 0.0 0.0 0.0 0.0 0.0 0.0 0.0 0.0 0.0 0.0 0.0 0.0 0.0 0.0 0.0 0.0 0.0 0.0 0.0 0.0 0.0 0.0 0.0 0.0 0.0 0.0 0.0 0.0 0.0 0.0 0.0 0.0 0.0 0.0 0.0 0.0 0.0 0.0 0.0 0.0 0.0 0.0 0.0 0.0 0.0 0.0 0.0 0.0 0.0 0.0 0.0 0.0 0.0 0.0 0.0 0.0 0.0 0.0 0.0 0.0 0.0 0.0 0.0 0.0 0.0 0.0 0.0 0.0 0.0 0.0 0.0 0.0 0.0 0.0 0.0 0.0 0.0 0.0 0.0 0.0 0.0 0.0 0.0 0.0 0.0 0.0 0.0 0.0 0.0 0.0 0.0 0.0 0.0 0.0 0.0 0.0 0.0 0.0 0.0 0.0 0.0 0.0 0.0 0.0 0.0 0.0 0.0 0.0 0.0 0.0 0.0 0.0 0.0 0.0 0.0 0.0 0.0 0.0 0.0 0.0 0.0 0.0 0.0 0.0 0.0 0.0 0.0 0.0 0.0 0.0 0.0 0.0 0.0 0.0 0.0 0.0 0.0 0.0 0.0 0.0 0.0 0.0 0.0 0.0 0.0 0.0 0.0 0.0 0.0 0.0 0.0 0.0 0.0 0.0 0.0 0.0 0.0 0.0 0.0 0.0 0.0 0.0 0.0 0.0 0.0 0.0 0.0 0.0 0.0 0.0 0.0 0.0 0.0 0.0 0.0 0.0 0.0 0.0 0.0 0.0 0.0 0.0 0.0 0.0 0.0 0.0 0.0 0.0 0.0 0.0 0.0 0.0 0.0 0.0 0.0 0.0 0.0 0.0 0.0 0.0 0.0 0.0 0.0 0.0 0.0 0.0 0.0 0.0 0.0 0.0 0.0 0.0 0.0 0.0 0.0 0.0 0.0 0.0 0.0 0.0 0.0 0.0 0.0 0.0 0.0 0.0 0.0 0.0 0.0 0.0 0.0 0.0 0.0 0.0 0.0 0.0 0.0 0.0 0.0 0.0 0.0 0.0 0.0 0.0 0.0 0.0 0.0 0.0 0.0 0.0 0.0 0.0 0.0 0.0 0.0 0.0 0.0 0.0 0.0 0.0 0.0 0.0 0.0 0.0 0.0 0.0 0.0 0.0 0.0 0.0 0.0 0.0 0.0 0.0 0.0 0.0 0.0 0.0 0.0 0.0 0.0 0.0 0.0 0.0 0.0 0.0 0.0 0.0 0.0 0.0 0.0 0.0 0.0 0.0 0.0 0.0 0.0 0.0 0.0 0.0 0.0 0.0 0.0 0.0 0.0 0.0 0.0 0.0 0.0 0.0 0.0 0.0 0.0 0.0 0.0 0.0 0.0 0.0 0.0 0.0 0.0 0.0 0.0 0.0 0.0 0.0 0.0 0.0 0.0 0.0 0.0 0.0 0.0 0.0 0.0 0.0 0.0 0.0 0.0 0.0 0.0 0.0 0.0 0.0 0.0 0.0 0.0 0.0 0.0 0.0 0.0 0.0 0.0 0.0 0.0 0.0 0.0 0.0 0.0 0.0 0.0 0.0 0.0 0.0 0.0 0.0 0.0 0.0 0.0 0.0 0.0 0.0 0.0 0.0 0.0 0.0 0.0 0.0 0.0 0.0 0.0 0.0 0.0 0.0 0.0 0.0 0.0 0.0 0.0 0.0 0.0 0.0 0.0 0.0 0.0 0.0 0.0 0.0 0.0 0.0 0.0 0.0 0.0 0.0 0.0 0.0 0.0 0.0 0.0 0.0 0.0 0.0 0.0 0.0 0.0 0.0 0.0 0.0 0.0 0.0 0.0 0.0 0.0 0.0 0.0 0.0 0.0 0.0 0.0 0.0 0.0 0.0 0.0 0.0 0.0 0.0 0.0 0.0 0.0 0.0 0.0 0.0 0.0 0.0 0.0 0.0 0.0 0.0 0.0 0.0 0.0 0.0 0.0 0.0 0.0 0.0 0.0 0.0 0.0 0.0 0.0 0.0 0.0 0.0 0.0 0.0 0.0 0.0 0.0 0.0 0.0 0.0 0.0 0.0 0.0 0.0 0.0 0.0 0.0 0.0 0.0 0.0 0.0 0.0 0.0 0.0 0.0 0.0 0.0 0.0 0.0 0.0 0.0 0.0 0.0 0.0 0.0 0.0 0.0 0.0 0.0 0.0 0.0 0.0 0.0 0.0 0.0 0.0 0.0 0.0 0.0 0.0 0.0 0.0 0.0 0.0 0.0 0.0 0.0 0.0 0.0 0.0 0.0 0.0 0.0 0.0 0.0 0.0 0.0 0.0 0.0 0.0 0.0 0.0 0.0 0.0 0.0 0.0 0.0 0.0 0.0 0.0 0.0 0.0 0.0 0.0 0.0 0.0 0.0 0.0 0.0 0.0 0.0 0.0 0.0 0.0 0.0 0.0 0.0 0.0 0.0 0.0 0.0 0.0 0.0 0.0 0.0 0.0 0.0 0.0 0.0 0.0 0.0 0.0 0.0 0.0 0.0 0.0 0.0 0.0 0.0 0.0 0.0 0.0 0.0 0.0 0.0 0.0 0.0 0.0 0.0 0.0 0.0 0.0 0.0 0.0 0.0 0.0 0.0 0.0 0.0 0.0 0.0 0.0 0.0 0.0 0.0 0.0 0.0 0.0 0.0 0.0 0.0 0.0 0.0 0.0 0.0 0.0 0.0 0.0 0.0 0.0 0.0 0.0 0.0 0.0 0.0 0.0 0.0 0.0 0.0 0.0 0.0 0.0 0.0 0.0 0.0 0.0 0.0 0.0 0.0 0.0 0.0 0.0 0.0 0.0 0.0 0.0 0.0 0.0 0.0 0.0 0.0 0.0 0.0 0.0 0.0 0.0 0.0 0.0 0.0 0.0 0.0 0.0 0.0 0.0 0.0 0.0 0.0 0.0 0.0 0.0 0.0 0.0 0.0 0.0 0.0 0.0 0.0 0.0 0.0 0.0 0.0 0.0 0.0 0.0 0.0 0.0 0.0 0.0 0.0 0.0 0.0 0.0 0.0 0.0 0.0 0.0 0.0 0.0 0.0 0.0 0.0 0.0 0.0 0.0 0.0 0.0 0.0 0.0 0.0 0.0 0.0 0.0 0.0 0.0 0.0 0.0 0.0 0.0 0.0 0.0 0.0 0.0 0.0 0.0 0.0 0.0 0.0 0.0 0.0 0.0 0.0 0.0 0.0 0.0 0.0 0.0 0.0 0.0 0.0 0.0 0.0 0.0 0.0 0.0 0.0 0.0 0.0 0.0 0.0 0.0 0.0 0.0 0.0 0.0 0.0 0.0 0.0 0.0 0.0 0.0 0.0 0.0 0.0 0.0 0.0 0.0 0.0 0.0 0.0 0.0 0.0 0.0 0.0 0.0 0.0 0.0 0.0 0.0 0.0 0.0 0.0 0.0 0.0 0.0 0.0 0.0 0.0 0.0 0.0 0.0 0.0 0.0 0.0 0.0 0.0 0.0 0.0 0.0 0.0 0.0 0.0 0.0 0.0 0.0 0.0 0.0 0.0 0.0 0.0 0.0 0.0 0.0 0.0 0.0 0.0 0.0 0.0 0.0 0.0 0.0 0.0 0.0 0.0 0.0 0.0 0.0 0.0 0.0 0.0 0.0 0.0 0.0 0.0 0.0 0.0 0.0 0.0 0.0 0.0 0.0 0.0 0.0 0.0 0.0 0.0 0.0 0.0 0.0 0.0 0.0 0.0 0.0 0.0 0.0 0.0 0.0 0.0 0.0 0.0 0.0 0.0 0.0 0.0 0.0 0.0 0.0 0.0 0.0 0.0 0.0 0.0 0.0 0.0 0.0 0.0 0.0 0.0 0.0 0.0 0.0 0.0 0.0 0.0 0.0 0.0 0.0 0.0 0.0 0.0 0.0 0.0 0.0 0.0 0.0 0.0 0.0 0.0 0.0 0.0 0.0 0.0 0.0 0.0 0.0 0.0 0.0 0.0 0.0 0.0 0.0 0.0 0.0 0.0 0.0 0.0 0.0 0.0 0.0 0.0 0.0 0.0 0.0 0.0 0.0 0.0 0.0 0.0 0.0 0.0 0.0 0.0 0.0 0.0 0.0 0.0 0.0 0.0 0.0 0.0 0.0 0.0 0.0 0.0 0.0 0.0 0.0 0.0 0.0 0.0 0.0 0.0 0.0 0.0 0.0 0.0 0.0 0.0 0.0 0.0 0.0 0.0 0.0 0.0 0.0 0.0 0.0 0.0 0.0 0.0 0.0 0.0 0.0 0.0 0.0 0.0 0.0 0.0 0.0 0.0 0.0 0.0 0.0 0.0 0.0 0.0 0.0 0.0 0.0 0.0 0.0 0.0 0.0 0.0 0.0 0.0 0.0 0.0 0.0 0.0 0.0 0.0 0.0 0.0 0.0 0.0 0.0 0.0 0.0 0.0 0.0 0.0 0.0 0.0 0.0 0.0 0.0 0.0 0.0 0.0 0.0 0.0 0.0 0.0 0.0 0.0 0.0 0.0 0.0 0.0 0.0 0.0 0.0 0.0 0.0 0.0 0.0 0.0 0.0 0.0 0.0 0.0 0.0 0.0 0.0 0.0 0.0 0.0 0.0 0.0 0.0 0.0 0.0 0.0 0.0 0.0 0.0 0.0 0.0 0.0 0.0 0.0 0.0 0.0 0.0 0.0 0.0 0.0 0.0 0.0 0.0 0.0 0.0 0.0 0.0 0.0 0.0 0.0 0.0 0.0 0.0 0.0 0.0 0.0 0.0 0.0 0.0 0.0 0.0 0.0 0.0 0.0 0.0 0.0 0.0 0.0 0.0 0.0 0.0 0.0 0.0 0.0 0.0 0.0 0.0 0.0 0.0 0.0 0.0 0.0 0.0 0.0 0.0 0.0 0.0 0.0 0.0 0.0 0.0 0.0 0.0 0.0 0.0 0.0 0.0 0.0 0.0 0.0 0.0 0.0 0.0 0.0 0.0 0.0 0.0 0.0 0.0 0.0 0.0 0.0 0.0 0.0 0.0 0.0 0.0 0.0 0.0 0.0 0.0 0.0 0.0 0.0 0.0 0.0 0.0 0.0 0.0 0.0 0.0 0.0 0.0 0.0 0.0 0.0 0.0 0.0 0.0 0.0 0.0 0.0 0.0 0.0 0.0 0.0 0.0 0.0 0.0 0.0 0.0 0.0 0.0 0.0 0.0 0.0 0.0 0.0 0.0 0.0 0.0 0.0 0.0 0.0 0.0 0.0 0.0 0.0 0.0 0.0 0.0 0.0 0.0 0.0 0.0 0.0 0.0 0.0 0.0 0.0 0.0 0.0 0.0 0.0 0.0 0.0 0.0 0.0 0.0 0.0 0.0 0.0 0.0 0.0 0.0 0.0 0.0 0.0 0.0 0.0 0.0 0.0 0.0 0.0 0.0 0.0 0.0 0.0 0.0 0.0 0.0 0.0 0.0 0.0 0.0 0.0 0.0 0.0 0.0 0.0 0.0 0.0 0.0 0.0 0.0 0.0 0.0 0.0 0.0 0.0 0.0 0.0 0.0 0.0 0.0 0.0 0.0 0.0 0.0 0.0 0.0 0.0 0.0 0.0 0.0 0.0 0.0 0.0 0.0 0.0 0.0 0.0 0.0 0.0 0.0 0.0 0.0 0.0 0.0 0.0 0.0 0.0 0.0 0.0 0.0 0.0 0.0 0.0 0.0 0.0 0.0 0.0 0.0 0.0 0.0 0.0 0.0 0.0 0.0 0.0 0.0 0.0 0.0 0.0 0.0 0.0 0.0 0.0 0.0 0.0 0.0 0.0 0.0 0.0 0.0 0.0 0.0 0.0 0.0 0.0 0.0 0.0 0.0 0.0 0.0 0.0 0.0 0.0 0.0 0.0 0.0 0.0 0.0 0.0 0.0 0.0 0.0 0.0 0.0 0.0 0.0 0.0 0.0 0.0 0.0 0.0 0.0 0.0 0.0 0.0 0.0 0.0 0.0 0.0 0.0 0.0 0.0 0.0 0.0 0.0 0.0 0.0 0.0 0.0 0.0 0.0 0.0 0.0 0.0 0.0 0.0 0.0 0.0 0.0 0.0 0.0 0.0 0.0 0.0 0.0 0.0 0.0 0.0 0.0 0.0 0.0 0.0 0.0 0.0 0.0 0.0 0.0 0.0 0.0 0.0 0.0 0.0 0.0 0.0 0.0 0.0 0.0 0.0 0.0 0.0 0.0 0.0 0.0 0.0 0.0 0.0 0.0 0.0 0.0 0.0 0.0 0.0 0.0 0.0 0.0 0.0 0.0 0.0 0.0 0.0 0.0 0.0 0.0 0.0 0.0 0.0 0.0 0.0 0.0 0.0 0.0 0.0 0.0 0.0 0.0 0.0 0.0 0.0 0.0 0.0 0.0 0.0 0.0 0.0 0.0 0.0 0.0 0.0 0.0 0.0 0.0 0.0 0.0 0.0 0.0 0.0 0.0 0.0 0.0 0.0 0.0 0.0 0.0 0.0 0.0 0.0 0.0 0.0 0.0 0.0 0.0 0.0 0.0 0.0 0.0 0.0 0.0 0.0 0.0 0.0 0.0 0.0 0.0 0.0 0.0 0.0 0.0 0.0 0.0 0.0 0.0 0.0 0.0 0.0 0.0 0.0 0.0 0.0 0.0 0.0 0.0 0.0 0.0 0.0 0.0 0.0 0.0 0.0 0.0 0.0 0.0 0.0 0.0 0.0 0.0 0.0 0.0 0.0 0.0 0.0 0.0 0.0 0.0 0.0 0.0 0.0 0.0 0.0 0.0 0.0 0.0 0.0 0.0 0.0 0.0 0.0 0.0 0.0 0.0 0.0 0.0 0.0 0.0 0.0 0.0 0.0 0.0 0.0 0.0 0.0 0.0 0.0 0.0 0.0 0.0 0.0 0.0 0.0 0.0 0.0 0.0 0.0 0.0 0.0 0.0 0.0 0.0 0.0 0.0 0.0 0.0 0.0 0.0 0.0 0.0 0.0 0.0 0.0 0.0 0.0 0.0 0.0 0.0 0.0 0.0 0.0 0.0 0.0 0.0 0.0 0.0 0.0 0.0 0.0 0.0 0.0 0.0 0.0 0.0 0.0 0.0 0.0 0.0 0.0 0.0 0.0 0.0 0.0 0.0 0.0 0.0 0.0 0.0 0.0 0.0 0.0 0.0 0.0 0.0 0.0 0.0 0.0 0.0 0.0 0.0 0.0 0.0 0.0 0.0 0.0 0.0 0.0 0.0 0.0 0.0 0.0 0.0 0.0 0.0 0.0 0.0 0.0 0.0 0.0 0.0 0.0 0.0 0.0 0.0 0.0 0.0 0.0 0.0 0.0 0.0 0.0 0.0 0.0 0.0 0.0 0.0 0.0 0.0 0.0 0.0 0.0 0.0 0.0 0.0 0.0 0.0 0.0 0.0 0.0 0.0 0.0 0.0 0.0 0.0 0.0 0.0 0.0 0.0 0.0 0.0 0.0 0.0 0.0 0.0 0.0 0.0 0.0 0.0 0.0 0.0 0.0 0.0 0.0 0.0 0.0 0.0 0.0 0.0 0.0 0.0 0.0 0.0 0.0 0.0 0.0 0.0 0.0 0.0 0.0 0.0 0.0 0.0 0.0 0.0 0.0 0.0 0.0 0.0 0.0 0.0 0.0 0.0 0.0 0.0 0.0 0.0 0.0 0.0 0.0 0.0 0.0 0.0 0.0 0.0 0.0 0.0 0.0 0.0 0.0 0.0 0.0 0.0 0.0 0.0 0.0 0.0 0.0 0.0 0.0 0.0 0.0 0.0 0.0 0.0 0.0 0.0 0.0 0.0 0.0 0.0 0.0 0.0 0.0 0.0 0.0 0.0 0.0 0.0 0.0 0.0 0.0 0.0 0.0 0.0 0.0 0.0 0.0 0.0 0.0 0.0 0.0 0.0 0.0 0.0 0.0 0.0 0.0 0.0 0.0 0.0 0.0 0.0 0.0 0.0 0.0 0.0 0.0 0.0 0.0 0.0 0.0 0.0 0.0 0.0 0.0 0.0 0.0 0.0 0.0 0.0 0.0 0.0 0.0 0.0 0.0 0.0 0.0 0.0 0.0 0.0 0.0 0.0 0.0 0.0 0.0 0.0 0.0 0.0 0.0 0.0 0.0 0.0 0.0 0.0 0.0 0.0 0.0 0.0 0.0 0.0 0.0 0.0 0.0 0.0 0.0 0.0 0.0 0.0 0.0 0.0 0.0 0.0 0.0 0.0 0.0 0.0 0.0 0.0 0.0 0.0 0.0 0.0 0.0 0.0 0.0 0.0 0.0 0.0 0.0 0.0 0.0 0.0 0.0 0.0 0.0 0.0 0.0 0.0 0.0 0.0 0.0 0.0 0.0 0.0 0.0 0.0 0.0 0.0 0.0 0.0 0.0 0.0 0.0 0.0 0.0 0.0 0.0 0.0 0.0 0.0 0.0 0.0 0.0 0.0 0.0 0.0 0.0 0.0 0.0 0.0 0.0 0.0 0.0 0.0 0.0 0.0 0.0 0.0 0.0 0.0 0.0 0.0 0.0 0.0 0.0 0.0 0.0 0.0 0.0 0.0 0.0 0.0 0.0 0.0 0.0 0.0 0.0 0.0 0.0 0.0 0.0 0.0 0.0 0.0 0.0 0.0 0.0 0.0 0.0 0.0 0.0 0.0 0.0 0.0 0.0 0.0 0.0 0.0 0.0 0.0 0.0 0.0 0.0 0.0 0.0 0.0 0.0 0.0 0.0 0.0 0.0 0.0 0.0 0.0 0.0 0.0 0.0 0.0 0.0 0.0 0.0 0.0 0.0 0.0 0.0 0.0 0.0 0.0 0.0 0.0 0.0 0.0 0.0 0.0 0.0 0.0 0.0 0.0 0.0 0.0 0.0 0.0 0.0 0.0 0.0 0.0 0.0 0.0 0.0 0.0 0.0 0.0 0.0 0.0 0.0 0.0 0.0 0.0 0.0 0.0 0.0 0.0 0.0 0.0 0.0 0.0 0.0 0.0 0.0 0.0 0.0 0.0 0.0 0.0 0.0 0.0 0.0 0.0 0.0 0.0 0.0 0.0 0.0 0.0 0.0 0.0 0.0 0.0 0.0 0.0 0.0 0.0 0.0 0.0 0.0 0.0 0.0 0.0 0.0 0.0 0.0 0.0 0.0 0.0 0.0 0.0 0.0 0.0 0.0 0.0 0.0 0.0 0.0 0.0 0.0 0.0 0.0 0.0 0.0 0.0 0.0 0.0 0.0 0.0 0.0 0.0 0.0 0.0 0.0 0.0 0.0 0.0 0.0 0.0 0.0 0.0 0.0 0.0 0.0 0.0 0.0 0.0 0.0 0.0 0.0 0.0 0.0 0.0 0.0 0.0 0.0 0.0 0.0 0.0 0.0 0.0 0.0 0.0 0.0 0.0 0.0 0.0 0.0 0.0 0.0 0.0 0.0 0.0 0.0 0.0 0.0 0.0 0.0 0.0 0.0 0.0 0.0 0.0 0.0 0.0 0.0 0.0 0.0 0.0 0.0 0.0 0.0 0.0 0.0 0.0 0.0 0.0 0.0 0.0 0.0 0.0 0.0 0.0 0.0 0.0 0.0 0.0 0.0 0.0 0.0 0.0 0.0 0.0 0.0 0.0 0.0 0.0 0.0 0.0 0.0 0.0 0.0 0.0 0.0 0.0 0.0 0.0 0.0 0.0 0.0 0.0 0.0 0.0 0.0 0.0 0.0 0.0 0.0 0.0 0.0 0.0 0.0 0.0 0.0 0.0 0.0 0.0 0.0 0.0 0.0 0.0 0.0 0.0 0.0 0.0 0.0 0.0 0.0 0.0 0.0 0.0 0.0 0.0 0.0 0.0 0.0 0.0 0.0 0.0 0.0 0.0 0.0 0.0 0.0 0.0 0.0 0.0 0.0 0.0 0.0 0.0 0.0 0.0 0.0 0.0 0.0 0.0 0.0 0.0 0.0 0.0 0.0 0.0 0.0 0.0 0.0 0.0 0.0 0.0 0.0 0.0 0.0 0.0 0.0 0.0 0.0 0.0 0.0 0.0 0.0 0.0 0.0 0.0 0.0 0.0 0.0 0.0 0.0 0.0 0.0 0.0 0.0 0.0 0.0 0.0 0.0 0.0 0.0 0.0 0.0 0.0 0.0 0.0 0.0 0.0 0.0 0.0 0.0 0.0 0.0 0.0 0.0 0.0 0.0 0.0 0.0 0.0 0.0 0.0 0.0 0.0 0.0 0.0 0.0 0.0 0.0 0.0 0.0 0.0 0.0 0.0 0.0 0.0 0.0 0.0 0.0 0.0 0.0 0.0 0.0 0.0 0.0 0.0 0.0 0.0 0.0 0.0 0.0 0.0 0.0 0.0 0.0 0.0 0.0 0.0 0.0 0.0 0.0 0.0 0.0 0.0 0.0 0.0 0.0 0.0 0.0 0.0 0.0 0.0 0.0 0.0 0.0 0.0 0.0 0.0 0.0 0.0 0.0 0.0 0.0 0.0 0.0 0.0 0.0 0.0 0.0 0.0 0.0 0.0 0.0 0.0 0.0 0.0 0.0 0.0 0.0 0.0 0.0 0.0 0.0 0.0 0.0 0.0 0.0 0.0 0.0 0.0 0.0 0.0 0.0 0.0 0.0 0.0 0.0 0.0 0.0 0.0 0.0 0.0 0.0 0.0 0.0 0.0 0.0 0.0 0.0 0.0 0.0 0.0 0.0 0.0 0.0 0.0 0.0 0.0 0.0 0.0 0.0 0.0 0.0 0.0 0.0 0.0 0.0 0.0 0.0 0.0 0.0 0.0 0.0 0.0 0.0 0.0 0.0 0.0 0.0 0.0 0.0 0.0 0.0 0.0 0.0 0.0 0.0 0.0 0.0 0.0 0.0 0.0 0.0 0.0 0.0 0.0 0.0 0.0 0.0 0.0 0.0 0.0 0.0 0.0 0.0 0.0 0.0 0.0 0.0 0.0 0.0 0.0 0.0 0.0 0.0 0.0 0.0 0.0 0.0 0.0 0.0 0.0 0.0 0.0 0.0 0.0 0.0 0.0 0.0 0.0 0.0 0.0 0.0 0.0 0.0 0.0 0.0 0.0 0.0 0.0 0.0 0.0 0.0 0.0 0.0 0.0 0.0 0.0 0.0 0.0 0.0 0.0 0.0 0.0 0.0 0.0 0.0 0.0 0.0 0.0 0.0 0.0 0.0 0.0 0.0 0.0 0.0 0.0 0.0 0.0 0.0 0.0 0.0 0.0 0.0 0.0 0.0 0.0 0.0 0.0 0.0 0.0 0.0 0.0 0.0 0.0 0.0 0.0 0.0 0.0 0.0 0.0 0.0 0.0 0.0 0.0 0.0 0.0 0.0 0.0 0.0 0.0 0.0 0.0 0.0 0.0 0.0 0.0 0.0 0.0 0.0 0.0 0.0 0.0 0.0 0.0 0.0 0.0 0.0 0.0 0.0 0.0 0.0 0.0 0.0 0.0 0.0 0.0 0.0 0.0 0.0 0.0 0.0 0.0 0.0 0.0 0.0 0.0 0.0 0.0 0.0 0.0 0.0 0.0 0.0 0.0 0.0 0.0 0.0 0.0 0.0 0.0 0.0 0.0 0.0 0.0 0.0 0.0 0.0 0.0 0.0 0.0 0.0 0.0 0.0 0.0 0.0 0.0 0.0 0.0 0.0 0.0 0.0 0.0 0.0 0.0 0.0 0.0 0.0 0.0 0.0 0.0 0.0 0.0 0.0 0.0 0.0 0.0 0.0 0.0 0.0 0.0 0.0 0.0 0.0 0.0 0.0 0.0 0.0 0.0 0.0 0.0 0.0 0.0 0.0 0.0 0.0 0.0 0.0 0.0 0.0 0.0 0.0 0.0 0.0 0.0 0.0 0.0 0.0 0.0 0.0 0.0 0.0 0.0 0.0 0.0 0.0 0.0 0.0 0.0 0.0 0.0 0.0 0.0 0.0 0.0 0.0 0.0 0.0 0.0 0.0 0.0 0.0 0.0 0.0 0.0 0.0 0.0 0.0 0.0 0.0 0.0 0.0 0.0 0.0 0.0 0.0 0.0 0.0 0.0 0.0 0.0 0.0 0.0 0.0 0.0 0.0 0.0 0.0 0.0 0.0 0.0 0.0 0.0 0.0 0.0 0.0 0.0 0.0 0.0 0.0 0.0 0.0 0.0 0.0 0.0 0.0 0.0 0.0 0.0 0.0 0.0 0.0 0.0 0.0 0.0 0.0 0.0 0.0 0.0 0.0 0.0 0.0 0.0 0.0 0.0 0.0 0.0 0.0 0.0 0.0 0.0 0.0 0.0 0.0 0.0 0.0 0.0 0.0 0.0 0.0 0.0 0.0 0.0 0.0 0.0 0.0 0.0 0.0 0.0 0.0 0.0 0.0 0.0 0.0 0.0 0.0 0.0 0.0 0.0 0.0 0.0 0.0 0.0 0.0 0.0 0.0 0.0 0.0 0.0 0.0 0.0 0.0 0.0 0.0 0.0 0.0 0.0 0.0 0.0 0.0 0.0 0.0 0.0 0.0 0.0 0.0 0.0 0.0 0.0 0.0 0.0 0.0 0.0 0.0 0.0 0.0 0.0 0.0 0.0 0.0 0.0 0.0 0.0 0.0 0.0 0.0 0.0 0.0 0.0 0.0 0.0 0.0 0.0 0.0 0.0 0.0 0.0 0.0 0.0 0.0 0.0 0.0 0.0 0.0 0.0 0.0 0.0 0.0 0.0 0.0 0.0 0.0 0.0 0.0 0.0 0.0 0.0 0.0 0.0 0.0 0.0 0.0 0.0 0.0 0.0 0.0 0.0 0.0 0.0 0.0 0.0 0.0 0.0 0.0 0.0 0.0 0.0 0.0 0.0 0.0 0.0 0.0 0.0 0.0 0.0 0.0 0.0 0.0 0.0 0.0 0.0 0.0 0.0 0.0 0.0 0.0 0.0 0.0 0.0 0.0 0.0 0.0 0.0 0.0 0.0 0.0 0.0 0.0 0.0 0.0 0.0 0.0 0.0 0.0 0.0 0.0 0.0 0.0 0.0 0.0 0.0 0.0 0.0 0.0 0.0 0.0 0.0 0.0 0.0 0.0 0.0 0.0 0.0 0.0 0.0 0.0 0.0 0.0 0.0 0.0 0.0 0.0 0.0 0.0 0.0 0.0 0.0 0.0 0.0 0.0 0.0 0.0 0.0 0.0 0.0 0.0 0.0 0.0 0.0 0.0 0.0 0.0 0.0 0.0 0.0 0.0 0.0 0.0 0.0 0.0 0.0 0.0 0.0 0.0 0.0 0.0 0.0 0.0 0.0 0.0 0.0 0.0 0.0 0.0 0.0 0.0 0.0 0.0 0.0 0.0 0.0 0.0 0.0 0.0 0.0 0.0 0.0 0.0 0.0 0.0 0.0 0.0 0.0 0.0 0.0 0.0 0.0 0.0 0.0 0.0 0.0 0.0 0.0 0.0 0.0 0.0 0.0 0.0 0.0 0.0 0.0 0.0 0.0 0.0 0.0 0.0 0.0 0.0 0.0 0.0 0.0 0.0 0.0 0.0 0.0 0.0 0.0 0.0 0.0 0.0 0.0 0.0 0.0 0.0 0.0 0.0 0.0 0.0 0.0 0.0 0.0 0.0 0.0 0.0 0.0 0.0 0.0 0.0 0.0 0.0 0.0 0.0 0.0 0.0 0.0 0.0 0.0 0.0 0.0 0.0 0.0 0.0 0.0 0.0 0.0 0.0 0.0 0.0 0.0 0.0 0.0 0.0 0.0 0.0 0.0 0.0 0.0 0.0 0.0 0.0 0.0 0.0 0.0 0.0 0.0 0.0 0.0 0.0 0.0 0.0 0.0 0.0 0.0 0.0 0.0 0.0 0.0 0.0 0.0 0.0 0.0 0.0 0.0 0.0 0.0 0.0 0.0 0.0 0.0 0.0 0.0 0.0 0.0 0.0 0.0 0.0 0.0 0.0 0.0 0.0 0.0 0.0 0.0 0.0 0.0 0.0 0.0 0.0 0.0 0.0 0.0 0.0 0.0 0.0 0.0 0.0 0.0 0.0 0.0 0.0 0.0 0.0 0.0 0.0 0.0 0.0 0.0 0.0 0.0 0.0 0.0 0.0 0.0 0.0 0.0 0.0 0.0 0.0 0.0 0.0 0.0 0.0 0.0 0.0 0.0 0.0 0.0 0.0 0.0 0.0 0.0 0.0 0.0 0.0 0.0 0.0 0.0 0.0 0.0 0.0 0.0 0.0 0.0 0.0 0.0 0.0 0.0 0.0 0.0 0.0 0.0 0.0 0.0 0.0 0.0 0.0 0.0 0.0 0.0 0.0 0.0 0.0 0.0 0.0 0.0 0.0 0.0 0.0 0.0 0.0 0.0 0.0 0.0 0.0 0.0 0.0 0.0 0.0 0.0 0.0 0.0 0.0 0.0 0.0 0.0 0.0 0.0 0.0 0.0 0.0 0.0 0.0 0.0 0.0 0.0 0.0 0.0 0.0 0.0 0.0 0.0 0.0 0.0 0.0 0.0 0.0 0.0 0.0 0.0 0.0 0.0 0.0 0.0 0.0 0.0 0.0 0.0 0.0 0.0 0.0 0.0 0.0 0.0 0.0 0.0 0.0 0.0 0.0 0.0 0.0 0.0 0.0 0.0 0.0 0.0 0.0 0.0 0.0 0.0 0.0 0.0 0.0 0.0 0.0 0.0 0.0 0.0 0.0 0.0 0.0 0.0 0.0 0.0 0.0 0.0 0.0 0.0 0.0 0.0 0.0 0.0 0.0 0.0 0.0 0.0 0.0 0.0 0.0 0.0 0.0 0.0 0.0 0.0 0.0 0.0 0.0 0.0 0.0 0.0 0.0 0.0 0.0 0.0 0.0 0.0 0.0 0.0 0.0 0.0 0.0 0.0 0.0 0.0 0.0 0.0 0.0 0.0 0.0 0.0 0.0 0.0 0.0 0.0 0.0 0.0 0.0 0.0 0.0 0.0 0.0 0.0 0.0 0.0 0.0 0.0 0.0 0.0 0.0 0.0 0.0 0.0 0.0 0.0 0.0 0.0 0.0 0.0 0.0 0.0 0.0 0.0 0.0 0.0 0.0 0.0 0.0 0.0 0.0 0.0 0.0 0.0 0.0 0.0 0.0 0.0 0.0 0.0 0.0 0.0 0.0 0.0 0.0 0.0 0.0 0.0 0.0 0.0 0.0 0.0 0.0 0.0 0.0 0.0 0.0 0.0 0.0 0.0 0.0 0.0 0.0 0.0 0.0 0.0 0.0 0.0 0.0 0.0 0.0 0.0 0.0 0.0 0.0 0.0 0.0 0.0 0.0 0.0 0.0 0.0 0.0 0.0 0.0 0.0 0.0 0.0 0.0 0.0 0.0 0.0 0.0 0.0 0.0 0.0 0.0 0.0 0.0 0.0 0.0 0.0 0.0 0.0 0.0 0.0 0.0 0.0 0.0 0.0 0.0 0.0 0.0 0.0 0.0 0.0 0.0 0.0 0.0 0.0 0.0 0.0 0.0 0.0 0.0 0.0 0.0 0.0 0.0 0.0 0.0 0.0 0.0 0.0 0.0 0.0 0.0 0.0 0.0 0.0 0.0 0.0 0.0 0.0 0.0 0.0 0.0 0.0 0.0 0.0 0.0 0.0 0.0 0.0 0.0 0.0 0.0 0.0 0.0 0.0 0.0 0.0 0.0 0.0 0.0 0.0 0.0 0.0 0.0 0.0 0.0 0.0 0.0 0.0 0.0 0.0 0.0 0.0 0.0 0.0 0.0 0.0 0.0 0.0 0.0 0.0 0.0 0.0 0.0 0.0 0.0 0.0 0.0 0.0 0.0 0.0 0.0 0.0 0.0 0.0 0.0 0.0 0.0 0.0 0.0 0.0 0.0 0.0 0.0 0.0 0.0 0.0 0.0 0.0 0.0 0.0 0.0 0.0 0.0 0.0 0.0 0.0 0.0 0.0 0.0 0.0 0.0 0.0 0.0 0.0 0.0 0.0 0.0 0.0 0.0 0.0 0.0 0.0 0.0 0.0 0.0 0.0 0.0 0.0 0.0 0.0 0.0 0.0 0.0 0.0 0.0 0.0 0.0 0.0 0.0 0.0 0.0 0.0 0.0 0.0 0.0 0.0 0.0 0.0 0.0 0.0 0.0 0.0 0.0 0.0 0.0 0.0 0.0 0.0 0.0 0.0 0.0 0.0 0.0 0.0 0.0 0.0 0.0 0.0 0.0 0.0 0.0 0.0 0.0 0.0 0.0 0.0 0.0 0.0 0.0 0.0 0.0 0.0 0.0 0.0 0.0 0.0 0.0 0.0 0.0 0.0 0.0 0.0 0.0 0.0 0.0 0.0 0.0 0.0 0.0 0.0 0.0 0.0 0.0 0.0 0.0 0.0 0.0 0.0 0.0 0.0 0.0 0.0 0.0 0.0 0.0 0.0 0.0 0.0 0.0 0.0 0.0 0.0 0.0 0.0 0.0 0.0 0.0 0.0 0.0 0.0 0.0 0.0 0.0 0.0 0.0 0.0 0.0 0.0 0.0 0.0 0.0 0.0 0.0 0.0 0.0 0.0 0.0 0.0 0.0 0.0 0.0 0.0 0.0 0.0 0.0 0.0 0.0 0.0 0.0 0.0 0.0 0.0 0.0 0.0 0.0 0.0 0.0 0.0 0.0 0.0 0.0 0.0 0.0 0.0 0.0 0.0 0.0 0.0 0.0 0.0 0.0 0.0 0.0 0.0 0.0 0.0 0.0 0.0 0.0 0.0 0.0 0.0 0.0 0.0 0.0 0.0 0.0 0.0 0.0 0.0 0.0 0.0 0.0 0.0 0.0 0.0 0.0 0.0 0.0 0.0 0.0 0.0 0.0 0.0 0.0 0.0 0.0 0.0 0.0 0.0 0.0 0.0 0.0 0.0 0.0 0.0 0.0 0.0 0.0 0.0 0.0 0.0 0.0 0.0 0.0 0.0 0.0 0.0 0.0 0.0 0.0 0.0 0.0 0.0 0.0 0.0 0.0 0.0 0.0 0.0 0.0 0.0 0.0 0.0 0.0 0.0 0.0 0.0 0.0 0.0 0.0 0.0 0.0 0.0 0.0 0.0 0.0 0.0 0.0 0.0 0.0 0.0 0.0 0.0 0.0 0.0 0.0 0.0 0.0 0.0 0.0 0.0 0.0 0.0 0.0 0.0 0.0 0.0 0.0 0.0 0.0 0.0 0.0 0.0 0.0 0.0 0.0 0.0 0.0 0.0 0.0 0.0 0.0 0.0 0.0 0.0 0.0 0.0 0.0 0.0 0.0 0.0 0.0 0.0 0.0 0.0 0.0 0.0 0.0 0.0 0.0 0.0 0.0 0.0 0.0 0.0 0.0 0.0 0.0 0.0 0.0 0.0 0.0 0.0 0.0 0.0 0.0 0.0 0.0 0.0 0.0 0.0 0.0 0.0 0.0 0.0 0.0 0.0 0.0 0.0 0.0 0.0 0.0 0.0 0.0 0.0 0.0 0.0 0.0 0.0 0.0 0.0 0.0 0.0 0.0 0.0 0.0 0.0 0.0 0.0 0.0 0.0 0.0 0.0 0.0 0.0 0.0 0.0 0.0 0.0 0.0 0.0 0.0 0.0 0.0 0.0 0.0 0.0 0.0 0.0 0.0 0.0 0.0 0.0 0.0 0.0 0.0 0.0 0.0 0.0 0.0 0.0 0.0 0.0 0.0 0.0 0.0 0.0 0.0 0.0 0.0 0.0 0.0 0.0 0.0 0.0 0.0 0.0 0.0 0.0 0.0 0.0 0.0 0.0 0.0 0.0 0.0 0.0 0.0 0.0 0.0 0.0 0.0 0.0 0.0 0.0 0.0 0.0 0.0 0.0 0.0 0.0 0.0 0.0 0.0 0.0 0.0 0.0 0.0 0.0 0.0 0.0 0.0 0.0 0.0 0.0 0.0 0.0 0.0 0.0 0.0 0.0 0.0 0.0 0.0 0.0 0.0 0.0 0.0 0.0 0.0 0.0 0.0 0.0 0.0 0.0 0.0 0.0 0.0 0.0 0.0 0.0 0.0 0.0 0.0 0.0 0.0 0.0 0.0 0.0 0.0 0.0 0.0 0.0 0.0 0.0 0.0 0.0 0.0 0.0 0.0 0.0 0.0 0.0 0.0 0.0 0.0 0.0 0.0 0.0 0.0 0.0 0.0 0.0 0.0 0.0 0.0 0.0 0.0 0.0 0.0 0.0 0.0 0.0 0.0 0.0 0.0 0.0 0.0 0.0 0.0 0.0 0.0 0.0 0.0 0.0 0.0 0.0 0.0 0.0 0.0 0.0 0.0 0.0 0.0 0.0 0.0 0.0 0.0 0.0 0.0 0.0 0.0 0.0 0.0 0.0 0.0 0.0 0.0 0.0 0.0 0.0 0.0 0.0 0.0 0.0 0.0 0.0 0.0 0.0 0.0 0.0 0.0 0.0 0.0 0.0 0.0 0.0 0.0 0.0 0.0 0.0 0.0 0.0 0.0 0.0 0.0 0.0 0.0 0.0 0.0 0.0 0.0 0.0 0.0 0.0 0.0 0.0 0.0 0.0 0.0 0.0 0.0 0.0 0.0 0.0 0.0 0.0 0.0 0.0 0.0 0.0 0.0 0.0 0.0 0.0 0.0 0.0 0.0 0.0 0.0 0.0 0.0 0.0 0.0 0.0 0.0 0.0 0.0 0.0 0.0 0.0 0.0 0.0 0.0 0.0 0.0 0.0 0.0 
SCALARS Axial_Stress float 1
LOOKUP_TABLE default
-0.0 -0.0 -0.0 -0.0 -0.0 -0.0 -0.0 -0.0 -0.0 -0.0 -0.0 -0.0 -0.0 -0.0 -0.0 -0.0 -0.0 -0.0 -0.0 -0.0 -0.0 -0.0 -0.0 -0.0 -0.0 -0.0 -0.0 -0.0 -0.0 -0.0 -0.0 -0.0 -0.0 -0.0 -0.0 -0.0 -0.0 -0.0 -0.0 -0.0 -0.0 -0.0 -0.0 -0.0 -0.0 -0.0 -0.0 -0.0 -0.0 -0.0 -0.0 -0.0 -0.0 -0.0 -0.0 -0.0 -0.0 -0.0 -0.0 -0.0 -0.0 -0.0 -0.0 -0.0 -0.0 -0.0 -0.0 -0.0 -0.0 -0.0 -0.0 -0.0 -0.0 -0.0 -0.0 -0.0 -0.0 -0.0 -0.0 -0.0 -0.0 -0.0 -0.0 -0.0 -0.0 -0.0 -0.0 -0.0 -0.0 -0.0 -0.0 -0.0 -0.0 -0.0 -0.0 -0.0 -0.0 -0.0 -0.0 -0.0 -0.0 -0.0 -0.0 -0.0 -0.0 -0.0 -0.0 -0.0 -0.0 -0.0 -0.0 -0.0 -0.0 -0.0 -0.0 -0.0 -0.0 -0.0 -0.0 -0.0 -0.0 -0.0 -0.0 -0.0 -0.0 -0.0 -0.0 -0.0 -0.0 -0.0 -0.0 -0.0 -0.0 -0.0 -0.0 -0.0 -0.0 -0.0 -0.0 -0.0 -0.0 -0.0 -0.0 -0.0 -0.0 -0.0 -0.0 -0.0 -0.0 -0.0 -0.0 -0.0 -0.0 -0.0 -0.0 -0.0 -0.0 -0.0 -0.0 -0.0 -0.0 -0.0 -0.0 -0.0 -0.0 -0.0 -0.0 -0.0 -0.0 -0.0 -0.0 -0.0 -0.0 -0.0 -0.0 -0.0 -0.0 -0.0 -0.0 -0.0 -0.0 -0.0 -0.0 -0.0 -0.0 -0.0 -0.0 -0.0 -0.0 -0.0 -0.0 -0.0 -0.0 -0.0 -0.0 -0.0 -0.0 -0.0 -0.0 -0.0 -0.0 -0.0 -0.0 -0.0 -0.0 -0.0 -0.0 -0.0 -0.0 -0.0 -0.0 -0.0 -0.0 -0.0 -0.0 -0.0 -0.0 -0.0 -0.0 -0.0 -0.0 -0.0 -0.0 -0.0 -0.0 -0.0 -0.0 -0.0 -0.0 -0.0 -0.0 -0.0 -0.0 -0.0 -0.0 -0.0 -0.0 -0.0 -0.0 -0.0 -0.0 -0.0 -0.0 -0.0 -0.0 -0.0 -0.0 -0.0 -0.0 -0.0 -0.0 -0.0 -0.0 -0.0 -0.0 -0.0 -0.0 -0.0 -0.0 -0.0 -0.0 -0.0 -0.0 -0.0 -0.0 -0.0 -0.0 -0.0 -0.0 -0.0 -0.0 -0.0 -0.0 -0.0 -0.0 -0.0 -0.0 -0.0 -0.0 -0.0 -0.0 -0.0 -0.0 -0.0 -0.0 -0.0 -0.0 -0.0 -0.0 -0.0 -0.0 -0.0 -0.0 -0.0 -0.0 -0.0 -0.0 -0.0 -0.0 -0.0 -0.0 -0.0 -0.0 -0.0 -0.0 -0.0 -0.0 -0.0 -0.0 -0.0 -0.0 -0.0 -0.0 -0.0 -0.0 -0.0 -0.0 -0.0 -0.0 -0.0 -0.0 -0.0 -0.0 -0.0 -0.0 -0.0 -0.0 -0.0 -0.0 -0.0 -0.0 -0.0 -0.0 -0.0 -0.0 -0.0 -0.0 -0.0 -0.0 -0.0 -0.0 -0.0 -0.0 -0.0 -0.0 -0.0 -0.0 -0.0 -0.0 -0.0 -0.0 -0.0 -0.0 -0.0 -0.0 -0.0 -0.0 -0.0 -0.0 -0.0 -0.0 -0.0 -0.0 -0.0 -0.0 -0.0 -0.0 -0.0 -0.0 -0.0 -0.0 -0.0 -0.0 -0.0 -0.0 -0.0 -0.0 -0.0 -0.0 -0.0 -0.0 -0.0 -0.0 -0.0 -0.0 -0.0 -0.0 -0.0 -0.0 -0.0 -0.0 -0.0 -0.0 -0.0 -0.0 -0.0 -0.0 -0.0 -0.0 -0.0 -0.0 -0.0 -0.0 -0.0 -0.0 -0.0 -0.0 -0.0 -0.0 -0.0 -0.0 -0.0 -0.0 -0.0 -0.0 -0.0 -0.0 -0.0 -0.0 -0.0 -0.0 -0.0 -0.0 -0.0 -0.0 -0.0 -0.0 -0.0 -0.0 -0.0 -0.0 -0.0 -0.0 -0.0 -0.0 -0.0 -0.0 -0.0 -0.0 -0.0 -0.0 -0.0 -0.0 -0.0 -0.0 -0.0 -0.0 -0.0 -0.0 -0.0 -0.0 -0.0 -0.0 -0.0 -0.0 -0.0 -0.0 -0.0 -0.0 -0.0 -0.0 -0.0 -0.0 -0.0 -0.0 -0.0 -0.0 -0.0 -0.0 -0.0 -0.0 -0.0 -0.0 -0.0 -0.0 -0.0 -0.0 -0.0 -0.0 -0.0 -0.0 -0.0 -0.0 -0.0 -0.0 -0.0 -0.0 -0.0 -0.0 -0.0 -0.0 -0.0 -0.0 -0.0 -0.0 -0.0 -0.0 -0.0 -0.0 -0.0 -0.0 -0.0 -0.0 -0.0 -0.0 -0.0 -0.0 -0.0 -0.0 -0.0 -0.0 -0.0 -0.0 -0.0 -0.0 -0.0 -0.0 -0.0 -0.0 -0.0 -0.0 -0.0 -0.0 -0.0 -0.0 -0.0 -0.0 -0.0 -0.0 -0.0 -0.0 -0.0 -0.0 -0.0 -0.0 -0.0 -0.0 -0.0 -0.0 -0.0 -0.0 -0.0 -0.0 -0.0 -0.0 -0.0 -0.0 -0.0 -0.0 -0.0 -0.0 -0.0 -0.0 -0.0 -0.0 -0.0 -0.0 -0.0 -0.0 -0.0 -0.0 -0.0 -0.0 -0.0 -0.0 -0.0 -0.0 -0.0 -0.0 -0.0 -0.0 -0.0 -0.0 -0.0 -0.0 -0.0 -0.0 -0.0 -0.0 -0.0 -0.0 -0.0 -0.0 -0.0 -0.0 -0.0 -0.0 -0.0 -0.0 -0.0 -0.0 -0.0 -0.0 -0.0 -0.0 -0.0 -0.0 -0.0 -0.0 -0.0 -0.0 -0.0 -0.0 -0.0 -0.0 -0.0 -0.0 -0.0 -0.0 -0.0 -0.0 -0.0 -0.0 -0.0 -0.0 -0.0 -0.0 -0.0 -0.0 -0.0 -0.0 -0.0 -0.0 -0.0 -0.0 -0.0 -0.0 -0.0 -0.0 -0.0 -0.0 -0.0 -0.0 -0.0 -0.0 -0.0 -0.0 -0.0 -0.0 -0.0 -0.0 -0.0 -0.0 -0.0 -0.0 -0.0 -0.0 -0.0 -0.0 -0.0 -0.0 -0.0 -0.0 -0.0 -0.0 -0.0 -0.0 -0.0 -0.0 -0.0 -0.0 -0.0 -0.0 -0.0 -0.0 -0.0 -0.0 -0.0 -0.0 -0.0 -0.0 -0.0 -0.0 -0.0 -0.0 -0.0 -0.0 -0.0 -0.0 -0.0 -0.0 -0.0 -0.0 -0.0 -0.0 -0.0 -0.0 -0.0 -0.0 -0.0 -0.0 -0.0 -0.0 -0.0 -0.0 -0.0 -0.0 -0.0 -0.0 -0.0 -0.0 -0.0 -0.0 -0.0 -0.0 -0.0 -0.0 -0.0 -0.0 -0.0 -0.0 -0.0 -0.0 -0.0 -0.0 -0.0 -0.0 -0.0 -0.0 -0.0 -0.0 -0.0 -0.0 -0.0 -0.0 -0.0 -0.0 -0.0 -0.0 -0.0 -0.0 -0.0 -0.0 -0.0 -0.0 -0.0 -0.0 -0.0 -0.0 -0.0 -0.0 -0.0 -0.0 -0.0 -0.0 -0.0 -0.0 -0.0 -0.0 -0.0 -0.0 -0.0 -0.0 -0.0 -0.0 -0.0 -0.0 -0.0 -0.0 -0.0 -0.0 -0.0 -0.0 -0.0 -0.0 -0.0 -0.0 -0.0 -0.0 -0.0 -0.0 -0.0 -0.0 -0.0 -0.0 -0.0 -0.0 -0.0 -0.0 -0.0 -0.0 -0.0 -0.0 -0.0 -0.0 -0.0 -0.0 -0.0 -0.0 -0.0 -0.0 -0.0 -0.0 -0.0 -0.0 -0.0 -0.0 -0.0 -0.0 -0.0 -0.0 -0.0 -0.0 -0.0 -0.0 -0.0 -0.0 -0.0 -0.0 -0.0 -0.0 -0.0 -0.0 -0.0 -0.0 -0.0 -0.0 -0.0 -0.0 -0.0 -0.0 -0.0 -0.0 -0.0 -0.0 -0.0 -0.0 -0.0 -0.0 -0.0 -0.0 -0.0 -0.0 -0.0 -0.0 -0.0 -0.0 -0.0 -0.0 -0.0 -0.0 -0.0 -0.0 -0.0 -0.0 -0.0 -0.0 -0.0 -0.0 -0.0 -0.0 -0.0 -0.0 -0.0 -0.0 -0.0 -0.0 -0.0 -0.0 -0.0 -0.0 -0.0 -0.0 -0.0 -0.0 -0.0 -0.0 -0.0 -0.0 -0.0 -0.0 -0.0 -0.0 -0.0 -0.0 -0.0 -0.0 -0.0 -0.0 -0.0 -0.0 -0.0 -0.0 -0.0 -0.0 -0.0 -0.0 -0.0 -0.0 -0.0 -0.0 -0.0 -0.0 -0.0 -0.0 -0.0 -0.0 -0.0 -0.0 -0.0 -0.0 -0.0 -0.0 -0.0 -0.0 -0.0 -0.0 -0.0 -0.0 -0.0 -0.0 -0.0 -0.0 -0.0 -0.0 -0.0 -0.0 -0.0 -0.0 -0.0 -0.0 -0.0 -0.0 -0.0 -0.0 -0.0 -0.0 -0.0 -0.0 -0.0 -0.0 -0.0 -0.0 -0.0 -0.0 -0.0 -0.0 -0.0 -0.0 -0.0 -0.0 -0.0 -0.0 -0.0 -0.0 -0.0 -0.0 -0.0 -0.0 -0.0 -0.0 -0.0 -0.0 -0.0 -0.0 -0.0 -0.0 -0.0 -0.0 -0.0 -0.0 -0.0 -0.0 -0.0 -0.0 -0.0 -0.0 -0.0 -0.0 -0.0 -0.0 -0.0 -0.0 -0.0 -0.0 -0.0 -0.0 -0.0 -0.0 -0.0 -0.0 -0.0 -0.0 -0.0 -0.0 -0.0 -0.0 -0.0 -0.0 -0.0 -0.0 -0.0 -0.0 -0.0 -0.0 -0.0 -0.0 -0.0 -0.0 -0.0 -0.0 -0.0 -0.0 -0.0 -0.0 -0.0 -0.0 -0.0 -0.0 -0.0 -0.0 -0.0 -0.0 -0.0 -0.0 -0.0 -0.0 -0.0 -0.0 -0.0 -0.0 -0.0 -0.0 -0.0 -0.0 -0.0 -0.0 -0.0 -0.0 -0.0 -0.0 -0.0 -0.0 -0.0 -0.0 -0.0 -0.0 -0.0 -0.0 -0.0 -0.0 -0.0 -0.0 -0.0 -0.0 -0.0 -0.0 -0.0 -0.0 -0.0 -0.0 -0.0 -0.0 -0.0 -0.0 -0.0 -0.0 -0.0 -0.0 -0.0 -0.0 -0.0 -0.0 -0.0 -0.0 -0.0 -0.0 -0.0 -0.0 -0.0 -0.0 -0.0 -0.0 -0.0 -0.0 -0.0 -0.0 -0.0 -0.0 -0.0 -0.0 -0.0 -0.0 -0.0 -0.0 -0.0 -0.0 -0.0 -0.0 -0.0 -0.0 -0.0 -0.0 -0.0 -0.0 -0.0 -0.0 -0.0 -0.0 -0.0 -0.0 -0.0 -0.0 -0.0 -0.0 -0.0 -0.0 -0.0 -0.0 -0.0 -0.0 -0.0 -0.0 -0.0 -0.0 -0.0 -0.0 -0.0 -0.0 -0.0 -0.0 -0.0 -0.0 -0.0 -0.0 -0.0 -0.0 -0.0 -0.0 -0.0 -0.0 -0.0 -0.0 -0.0 -0.0 -0.0 -0.0 -0.0 -0.0 -0.0 -0.0 -0.0 -0.0 -0.0 -0.0 -0.0 -0.0 -0.0 -0.0 -0.0 -0.0 -0.0 -0.0 -0.0 -0.0 -0.0 -0.0 -0.0 -0.0 -0.0 -0.0 -0.0 -0.0 -0.0 -0.0 -0.0 -0.0 -0.0 -0.0 -0.0 -0.0 -0.0 -0.0 -0.0 -0.0 -0.0 -0.0 -0.0 -0.0 -0.0 -0.0 -0.0 -0.0 -0.0 -0.0 -0.0 -0.0 -0.0 -0.0 -0.0 -0.0 -0.0 -0.0 -0.0 -0.0 -0.0 -0.0 -0.0 -0.0 -0.0 -0.0 -0.0 -0.0 -0.0 -0.0 -0.0 -0.0 -0.0 -0.0 -0.0 -0.0 -0.0 -0.0 -0.0 -0.0 -0.0 -0.0 -0.0 -0.0 -0.0 -0.0 -0.0 -0.0 -0.0 -0.0 -0.0 -0.0 -0.0 -0.0 -0.0 -0.0 -0.0 -0.0 -0.0 -0.0 -0.0 -0.0 -0.0 -0.0 -0.0 -0.0 -0.0 -0.0 -0.0 -0.0 -0.0 -0.0 -0.0 -0.0 -0.0 -0.0 -0.0 -0.0 -0.0 -0.0 -0.0 -0.0 -0.0 -0.0 -0.0 -0.0 -0.0 -0.0 -0.0 -0.0 -0.0 -0.0 -0.0 -0.0 -0.0 -0.0 -0.0 -0.0 -0.0 -0.0 -0.0 -0.0 -0.0 -0.0 -0.0 -0.0 -0.0 -0.0 -0.0 -0.0 -0.0 -0.0 -0.0 -0.0 -0.0 -0.0 -0.0 -0.0 -0.0 -0.0 -0.0 -0.0 -0.0 -0.0 -0.0 -0.0 -0.0 -0.0 -0.0 -0.0 -0.0 -0.0 -0.0 -0.0 -0.0 -0.0 -0.0 -0.0 -0.0 -0.0 -0.0 -0.0 -0.0 -0.0 -0.0 -0.0 -0.0 -0.0 -0.0 -0.0 -0.0 -0.0 -0.0 -0.0 -0.0 -0.0 -0.0 -0.0 -0.0 -0.0 -0.0 -0.0 -0.0 -0.0 -0.0 -0.0 -0.0 -0.0 -0.0 -0.0 -0.0 -0.0 -0.0 -0.0 -0.0 -0.0 -0.0 -0.0 -0.0 -0.0 -0.0 -0.0 -0.0 -0.0 -0.0 -0.0 -0.0 -0.0 -0.0 -0.0 -0.0 -0.0 -0.0 -0.0 -0.0 -0.0 -0.0 -0.0 -0.0 -0.0 -0.0 -0.0 -0.0 -0.0 -0.0 -0.0 -0.0 -0.0 -0.0 -0.0 -0.0 -0.0 -0.0 -0.0 -0.0 -0.0 -0.0 -0.0 -0.0 -0.0 -0.0 -0.0 -0.0 -0.0 -0.0 -0.0 -0.0 -0.0 -0.0 -0.0 -0.0 -0.0 -0.0 -0.0 -0.0 -0.0 -0.0 -0.0 -0.0 -0.0 -0.0 -0.0 -0.0 -0.0 -0.0 -0.0 -0.0 -0.0 -0.0 -0.0 -0.0 -0.0 -0.0 -0.0 -0.0 -0.0 -0.0 -0.0 -0.0 -0.0 -0.0 -0.0 -0.0 -0.0 -0.0 -0.0 -0.0 -0.0 -0.0 -0.0 -0.0 -0.0 -0.0 -0.0 -0.0 -0.0 -0.0 -0.0 -0.0 -0.0 -0.0 -0.0 -0.0 -0.0 -0.0 -0.0 -0.0 -0.0 -0.0 -0.0 -0.0 -0.0 -0.0 -0.0 -0.0 -0.0 -0.0 -0.0 -0.0 -0.0 -0.0 -0.0 -0.0 -0.0 -0.0 -0.0 -0.0 -0.0 -0.0 -0.0 -0.0 -0.0 -0.0 -0.0 -0.0 -0.0 -0.0 -0.0 -0.0 -0.0 -0.0 -0.0 -0.0 -0.0 -0.0 -0.0 -0.0 -0.0 -0.0 -0.0 -0.0 -0.0 -0.0 -0.0 -0.0 -0.0 -0.0 -0.0 -0.0 -0.0 -0.0 -0.0 -0.0 -0.0 -0.0 -0.0 -0.0 -0.0 -0.0 -0.0 -0.0 -0.0 -0.0 -0.0 -0.0 -0.0 -0.0 -0.0 -0.0 -0.0 -0.0 -0.0 -0.0 -0.0 -0.0 -0.0 -0.0 -0.0 -0.0 -0.0 -0.0 -0.0 -0.0 -0.0 -0.0 -0.0 -0.0 -0.0 -0.0 -0.0 -0.0 -0.0 -0.0 -0.0 -0.0 -0.0 -0.0 -0.0 -0.0 -0.0 -0.0 -0.0 -0.0 -0.0 -0.0 -0.0 -0.0 -0.0 -0.0 -0.0 -0.0 -0.0 -0.0 -0.0 -0.0 -0.0 -0.0 -0.0 -0.0 -0.0 -0.0 -0.0 -0.0 -0.0 -0.0 -0.0 -0.0 -0.0 -0.0 -0.0 -0.0 -0.0 -0.0 -0.0 -0.0 -0.0 -0.0 -0.0 -0.0 -0.0 -0.0 -0.0 -0.0 -0.0 -0.0 -0.0 -0.0 -0.0 -0.0 -0.0 -0.0 -0.0 -0.0 -0.0 -0.0 -0.0 -0.0 -0.0 -0.0 -0.0 -0.0 -0.0 -0.0 -0.0 -0.0 -0.0 -0.0 -0.0 -0.0 -0.0 -0.0 -0.0 -0.0 -0.0 -0.0 -0.0 -0.0 -0.0 -0.0 -0.0 -0.0 -0.0 -0.0 -0.0 -0.0 -0.0 -0.0 -0.0 -0.0 -0.0 -0.0 -0.0 -0.0 -0.0 -0.0 -0.0 -0.0 -0.0 -0.0 -0.0 -0.0 -0.0 -0.0 -0.0 -0.0 -0.0 -0.0 -0.0 -0.0 -0.0 -0.0 -0.0 -0.0 -0.0 -0.0 -0.0 -0.0 -0.0 -0.0 -0.0 -0.0 -0.0 -0.0 -0.0 -0.0 -0.0 -0.0 -0.0 -0.0 -0.0 -0.0 -0.0 -0.0 -0.0 -0.0 -0.0 -0.0 -0.0 -0.0 -0.0 -0.0 -0.0 -0.0 -0.0 -0.0 -0.0 -0.0 -0.0 -0.0 -0.0 -0.0 -0.0 -0.0 -0.0 -0.0 -0.0 -0.0 -0.0 -0.0 -0.0 -0.0 -0.0 -0.0 -0.0 -0.0 -0.0 -0.0 -0.0 -0.0 -0.0 -0.0 -0.0 -0.0 -0.0 -0.0 -0.0 -0.0 -0.0 -0.0 -0.0 -0.0 -0.0 -0.0 -0.0 -0.0 -0.0 -0.0 -0.0 -0.0 -0.0 -0.0 -0.0 -0.0 -0.0 -0.0 -0.0 -0.0 -0.0 -0.0 -0.0 -0.0 -0.0 -0.0 -0.0 -0.0 -0.0 -0.0 -0.0 -0.0 -0.0 -0.0 -0.0 -0.0 -0.0 -0.0 -0.0 -0.0 -0.0 -0.0 -0.0 -0.0 -0.0 -0.0 -0.0 -0.0 -0.0 -0.0 -0.0 -0.0 -0.0 -0.0 -0.0 -0.0 -0.0 -0.0 -0.0 -0.0 -0.0 -0.0 -0.0 -0.0 -0.0 -0.0 -0.0 -0.0 -0.0 -0.0 -0.0 -0.0 -0.0 -0.0 -0.0 -0.0 -0.0 -0.0 -0.0 -0.0 -0.0 -0.0 -0.0 -0.0 -0.0 -0.0 -0.0 -0.0 -0.0 -0.0 -0.0 -0.0 -0.0 -0.0 -0.0 -0.0 -0.0 -0.0 -0.0 -0.0 -0.0 -0.0 -0.0 -0.0 -0.0 -0.0 -0.0 -0.0 -0.0 -0.0 -0.0 -0.0 -0.0 -0.0 -0.0 -0.0 -0.0 -0.0 -0.0 -0.0 -0.0 -0.0 -0.0 -0.0 -0.0 -0.0 -0.0 -0.0 -0.0 -0.0 -0.0 -0.0 -0.0 -0.0 -0.0 -0.0 -0.0 -0.0 -0.0 -0.0 -0.0 -0.0 -0.0 -0.0 -0.0 -0.0 -0.0 -0.0 -0.0 -0.0 -0.0 -0.0 -0.0 -0.0 -0.0 -0.0 -0.0 -0.0 -0.0 -0.0 -0.0 -0.0 -0.0 -0.0 -0.0 -0.0 -0.0 -0.0 -0.0 -0.0 -0.0 -0.0 -0.0 -0.0 -0.0 -0.0 -0.0 -0.0 -0.0 -0.0 -0.0 -0.0 -0.0 -0.0 -0.0 -0.0 -0.0 -0.0 -0.0 -0.0 -0.0 -0.0 -0.0 -0.0 -0.0 -0.0 -0.0 -0.0 -0.0 -0.0 -0.0 -0.0 -0.0 -0.0 -0.0 -0.0 -0.0 -0.0 -0.0 -0.0 -0.0 -0.0 -0.0 -0.0 -0.0 -0.0 -0.0 -0.0 -0.0 -0.0 -0.0 -0.0 -0.0 -0.0 -0.0 -0.0 -0.0 -0.0 -0.0 -0.0 -0.0 -0.0 -0.0 -0.0 -0.0 -0.0 -0.0 -0.0 -0.0 -0.0 -0.0 -0.0 -0.0 -0.0 -0.0 -0.0 -0.0 -0.0 -0.0 -0.0 -0.0 -0.0 -0.0 -0.0 -0.0 -0.0 -0.0 -0.0 -0.0 -0.0 -0.0 -0.0 -0.0 -0.0 -0.0 -0.0 -0.0 -0.0 -0.0 -0.0 -0.0 -0.0 -0.0 -0.0 -0.0 -0.0 -0.0 -0.0 -0.0 -0.0 -0.0 -0.0 -0.0 -0.0 -0.0 -0.0 -0.0 -0.0 -0.0 -0.0 -0.0 -0.0 -0.0 -0.0 -0.0 -0.0 -0.0 -0.0 -0.0 -0.0 -0.0 -0.0 -0.0 -0.0 -0.0 -0.0 -0.0 -0.0 -0.0 -0.0 -0.0 -0.0 -0.0 -0.0 -0.0 -0.0 -0.0 -0.0 -0.0 -0.0 -0.0 -0.0 -0.0 -0.0 -0.0 -0.0 -0.0 -0.0 -0.0 -0.0 -0.0 -0.0 -0.0 -0.0 -0.0 -0.0 -0.0 -0.0 -0.0 -0.0 -0.0 -0.0 -0.0 -0.0 -0.0 -0.0 -0.0 -0.0 -0.0 -0.0 -0.0 -0.0 -0.0 -0.0 -0.0 -0.0 -0.0 -0.0 -0.0 -0.0 -0.0 -0.0 -0.0 -0.0 -0.0 -0.0 -0.0 -0.0 -0.0 -0.0 -0.0 -0.0 -0.0 -0.0 -0.0 -0.0 -0.0 -0.0 -0.0 -0.0 -0.0 -0.0 -0.0 -0.0 -0.0 -0.0 -0.0 -0.0 -0.0 -0.0 -0.0 -0.0 -0.0 -0.0 -0.0 -0.0 -0.0 -0.0 -0.0 -0.0 -0.0 -0.0 -0.0 -0.0 -0.0 -0.0 -0.0 -0.0 -0.0 -0.0 -0.0 -0.0 -0.0 -0.0 -0.0 -0.0 -0.0 -0.0 -0.0 -0.0 -0.0 -0.0 -0.0 -0.0 -0.0 -0.0 -0.0 -0.0 -0.0 -0.0 -0.0 -0.0 -0.0 -0.0 -0.0 -0.0 -0.0 -0.0 -0.0 -0.0 -0.0 -0.0 -0.0 -0.0 -0.0 -0.0 -0.0 -0.0 -0.0 -0.0 -0.0 -0.0 -0.0 -0.0 -0.0 -0.0 -0.0 -0.0 -0.0 -0.0 -0.0 -0.0 -0.0 -0.0 -0.0 -0.0 -0.0 -0.0 -0.0 -0.0 -0.0 -0.0 -0.0 -0.0 -0.0 -0.0 -0.0 -0.0 -0.0 -0.0 -0.0 -0.0 -0.0 -0.0 -0.0 -0.0 -0.0 -0.0 -0.0 -0.0 -0.0 -0.0 -0.0 -0.0 -0.0 -0.0 -0.0 -0.0 -0.0 -0.0 -0.0 -0.0 -0.0 -0.0 -0.0 -0.0 -0.0 -0.0 -0.0 -0.0 -0.0 -0.0 -0.0 -0.0 -0.0 -0.0 -0.0 -0.0 -0.0 -0.0 -0.0 -0.0 -0.0 -0.0 -0.0 -0.0 -0.0 -0.0 -0.0 -0.0 -0.0 -0.0 -0.0 -0.0 -0.0 -0.0 -0.0 -0.0 -0.0 -0.0 -0.0 -0.0 -0.0 -0.0 -0.0 -0.0 -0.0 -0.0 -0.0 -0.0 -0.0 -0.0 -0.0 -0.0 -0.0 -0.0 -0.0 -0.0 -0.0 -0.0 -0.0 -0.0 -0.0 -0.0 -0.0 -0.0 -0.0 -0.0 -0.0 -0.0 -0.0 -0.0 -0.0 -0.0 -0.0 -0.0 -0.0 -0.0 -0.0 -0.0 -0.0 -0.0 -0.0 -0.0 -0.0 -0.0 -0.0 -0.0 -0.0 -0.0 -0.0 -0.0 -0.0 -0.0 -0.0 -0.0 -0.0 -0.0 -0.0 -0.0 -0.0 -0.0 -0.0 -0.0 -0.0 -0.0 -0.0 -0.0 -0.0 -0.0 -0.0 -0.0 -0.0 -0.0 -0.0 -0.0 -0.0 -0.0 -0.0 -0.0 -0.0 -0.0 -0.0 -0.0 -0.0 -0.0 -0.0 -0.0 -0.0 -0.0 -0.0 -0.0 -0.0 -0.0 -0.0 -0.0 -0.0 -0.0 -0.0 -0.0 -0.0 -0.0 -0.0 -0.0 -0.0 -0.0 -0.0 -0.0 -0.0 -0.0 -0.0 -0.0 -0.0 -0.0 -0.0 -0.0 -0.0 -0.0 -0.0 -0.0 -0.0 -0.0 -0.0 -0.0 -0.0 -0.0 -0.0 -0.0 -0.0 -0.0 -0.0 -0.0 -0.0 -0.0 -0.0 -0.0 -0.0 -0.0 -0.0 -0.0 -0.0 -0.0 -0.0 -0.0 -0.0 -0.0 -0.0 -0.0 -0.0 -0.0 -0.0 -0.0 -0.0 -0.0 -0.0 -0.0 -0.0 -0.0 -0.0 -0.0 -0.0 -0.0 -0.0 -0.0 -0.0 -0.0 -0.0 -0.0 -0.0 -0.0 -0.0 -0.0 -0.0 -0.0 -0.0 -0.0 -0.0 -0.0 -0.0 -0.0 -0.0 -0.0 -0.0 -0.0 -0.0 -0.0 -0.0 -0.0 -0.0 -0.0 -0.0 -0.0 -0.0 -0.0 -0.0 -0.0 -0.0 -0.0 -0.0 -0.0 -0.0 -0.0 -0.0 -0.0 -0.0 -0.0 -0.0 -0.0 -0.0 -0.0 -0.0 -0.0 -0.0 -0.0 -0.0 -0.0 -0.0 -0.0 -0.0 -0.0 -0.0 -0.0 -0.0 -0.0 -0.0 -0.0 -0.0 -0.0 -0.0 -0.0 -0.0 -0.0 -0.0 -0.0 -0.0 -0.0 -0.0 -0.0 -0.0 -0.0 -0.0 -0.0 -0.0 -0.0 -0.0 -0.0 -0.0 -0.0 -0.0 -0.0 -0.0 -0.0 -0.0 -0.0 -0.0 -0.0 -0.0 -0.0 -0.0 -0.0 -0.0 -0.0 -0.0 -0.0 -0.0 -0.0 -0.0 -0.0 -0.0 -0.0 -0.0 -0.0 -0.0 -0.0 -0.0 -0.0 -0.0 -0.0 -0.0 -0.0 -0.0 -0.0 -0.0 -0.0 -0.0 -0.0 -0.0 -0.0 -0.0 -0.0 -0.0 -0.0 -0.0 -0.0 -0.0 -0.0 -0.0 -0.0 -0.0 -0.0 -0.0 -0.0 -0.0 -0.0 -0.0 -0.0 -0.0 -0.0 -0.0 -0.0 -0.0 -0.0 -0.0 -0.0 -0.0 -0.0 -0.0 -0.0 -0.0 -0.0 -0.0 -0.0 -0.0 -0.0 -0.0 -0.0 -0.0 -0.0 -0.0 -0.0 -0.0 -0.0 -0.0 -0.0 -0.0 -0.0 -0.0 -0.0 -0.0 -0.0 -0.0 -0.0 -0.0 -0.0 -0.0 -0.0 -0.0 -0.0 -0.0 -0.0 -0.0 -0.0 -0.0 -0.0 -0.0 -0.0 -0.0 -0.0 -0.0 -0.0 -0.0 -0.0 -0.0 -0.0 -0.0 -0.0 -0.0 -0.0 -0.0 -0.0 -0.0 -0.0 -0.0 -0.0 -0.0 -0.0 -0.0 -0.0 -0.0 -0.0 -0.0 -0.0 -0.0 -0.0 -0.0 -0.0 -0.0 -0.0 -0.0 -0.0 -0.0 -0.0 -0.0 -0.0 -0.0 -0.0 -0.0 -0.0 -0.0 -0.0 -0.0 -0.0 -0.0 -0.0 -0.0 -0.0 -0.0 -0.0 -0.0 -0.0 -0.0 -0.0 -0.0 -0.0 -0.0 -0.0 -0.0 -0.0 -0.0 -0.0 -0.0 -0.0 -0.0 -0.0 -0.0 -0.0 -0.0 -0.0 -0.0 -0.0 -0.0 -0.0 -0.0 -0.0 -0.0 -0.0 -0.0 -0.0 -0.0 -0.0 -0.0 -0.0 -0.0 -0.0 -0.0 -0.0 -0.0 -0.0 -0.0 -0.0 -0.0 -0.0 -0.0 -0.0 -0.0 -0.0 -0.0 -0.0 -0.0 -0.0 -0.0 -0.0 -0.0 -0.0 -0.0 -0.0 -0.0 -0.0 -0.0 -0.0 -0.0 -0.0 -0.0 -0.0 -0.0 -0.0 -0.0 -0.0 -0.0 -0.0 -0.0 -0.0 -0.0 -0.0 -0.0 -0.0 -0.0 -0.0 -0.0 -0.0 -0.0 -0.0 -0.0 -0.0 -0.0 -0.0 -0.0 -0.0 -0.0 -0.0 -0.0 -0.0 -0.0 -0.0 -0.0 -0.0 -0.0 -0.0 -0.0 -0.0 -0.0 -0.0 -0.0 -0.0 -0.0 -0.0 -0.0 -0.0 -0.0 -0.0 -0.0 -0.0 -0.0 -0.0 -0.0 -0.0 -0.0 -0.0 -0.0 -0.0 -0.0 -0.0 -0.0 -0.0 -0.0 -0.0 -0.0 -0.0 -0.0 -0.0 -0.0 -0.0 -0.0 -0.0 -0.0 -0.0 -0.0 -0.0 -0.0 -0.0 -0.0 -0.0 -0.0 -0.0 -0.0 -0.0 -0.0 -0.0 -0.0 -0.0 -0.0 -0.0 -0.0 -0.0 -0.0 -0.0 -0.0 -0.0 -0.0 -0.0 -0.0 -0.0 -0.0 -0.0 -0.0 -0.0 -0.0 -0.0 -0.0 -0.0 -0.0 -0.0 -0.0 -0.0 -0.0 -0.0 -0.0 -0.0 -0.0 -0.0 -0.0 -0.0 -0.0 -0.0 -0.0 -0.0 -0.0 -0.0 -0.0 -0.0 -0.0 -0.0 -0.0 -0.0 -0.0 -0.0 -0.0 -0.0 -0.0 -0.0 -0.0 -0.0 -0.0 -0.0 -0.0 -0.0 -0.0 -0.0 -0.0 -0.0 -0.0 -0.0 -0.0 -0.0 -0.0 -0.0 -0.0 -0.0 -0.0 -0.0 -0.0 -0.0 -0.0 -0.0 -0.0 -0.0 -0.0 -0.0 -0.0 -0.0 -0.0 -0.0 -0.0 -0.0 -0.0 -0.0 -0.0 -0.0 -0.0 -0.0 -0.0 -0.0 -0.0 -0.0 -0.0 -0.0 -0.0 -0.0 -0.0 -0.0 -0.0 -0.0 -0.0 -0.0 -0.0 -0.0 -0.0 -0.0 -0.0 -0.0 -0.0 -0.0 -0.0 -0.0 -0.0 -0.0 -0.0 -0.0 -0.0 -0.0 -0.0 -0.0 -0.0 -0.0 -0.0 -0.0 -0.0 -0.0 -0.0 -0.0 -0.0 -0.0 -0.0 -0.0 -0.0 -0.0 -0.0 -0.0 -0.0 -0.0 -0.0 -0.0 -0.0 -0.0 -0.0 -0.0 -0.0 -0.0 -0.0 -0.0 -0.0 -0.0 -0.0 -0.0 -0.0 -0.0 -0.0 -0.0 -0.0 -0.0 -0.0 -0.0 -0.0 -0.0 -0.0 -0.0 -0.0 -0.0 -0.0 -0.0 -0.0 -0.0 -0.0 -0.0 -0.0 -0.0 -0.0 -0.0 -0.0 -0.0 -0.0 -0.0 -0.0 -0.0 -0.0 -0.0 -0.0 -0.0 -0.0 -0.0 -0.0 -0.0 -0.0 -0.0 -0.0 -0.0 -0.0 -0.0 -0.0 -0.0 -0.0 -0.0 -0.0 -0.0 -0.0 -0.0 -0.0 -0.0 -0.0 -0.0 -0.0 -0.0 -0.0 -0.0 -0.0 -0.0 -0.0 -0.0 -0.0 -0.0 -0.0 -0.0 -0.0 -0.0 -0.0 -0.0 -0.0 -0.0 -0.0 -0.0 -0.0 -0.0 -0.0 -0.0 -0.0 -0.0 -0.0 -0.0 -0.0 -0.0 -0.0 -0.0 -0.0 -0.0 -0.0 -0.0 -0.0 -0.0 -0.0 -0.0 -0.0 -0.0 -0.0 -0.0 -0.0 -0.0 -0.0 -0.0 -0.0 -0.0 -0.0 -0.0 -0.0 -0.0 -0.0 -0.0 -0.0 -0.0 -0.0 -0.0 -0.0 -0.0 -0.0 -0.0 -0.0 -0.0 -0.0 -0.0 -0.0 -0.0 -0.0 -0.0 -0.0 -0.0 -0.0 -0.0 -0.0 -0.0 -0.0 -0.0 -0.0 -0.0 -0.0 -0.0 -0.0 -0.0 -0.0 -0.0 -0.0 -0.0 -0.0 -0.0 -0.0 -0.0 -0.0 -0.0 -0.0 -0.0 -0.0 -0.0 -0.0 -0.0 -0.0 -0.0 -0.0 -0.0 -0.0 -0.0 -0.0 -0.0 -0.0 -0.0 -0.0 -0.0 -0.0 -0.0 -0.0 -0.0 -0.0 -0.0 -0.0 -0.0 -0.0 -0.0 -0.0 -0.0 -0.0 -0.0 -0.0 -0.0 -0.0 -0.0 -0.0 -0.0 -0.0 -0.0 -0.0 -0.0 -0.0 -0.0 -0.0 -0.0 -0.0 -0.0 -0.0 -0.0 -0.0 -0.0 -0.0 -0.0 -0.0 -0.0 -0.0 -0.0 -0.0 -0.0 -0.0 -0.0 -0.0 -0.0 -0.0 -0.0 -0.0 -0.0 -0.0 -0.0 -0.0 -0.0 -0.0 -0.0 -0.0 -0.0 -0.0 -0.0 -0.0 -0.0 -0.0 -0.0 -0.0 -0.0 -0.0 -0.0 -0.0 -0.0 -0.0 -0.0 -0.0 -0.0 -0.0 -0.0 -0.0 -0.0 -0.0 -0.0 -0.0 -0.0 -0.0 -0.0 -0.0 -0.0 -0.0 -0.0 -0.0 -0.0 -0.0 -0.0 -0.0 -0.0 -0.0 -0.0 -0.0 -0.0 -0.0 -0.0 -0.0 -0.0 -0.0 -0.0 -0.0 -0.0 -0.0 -0.0 -0.0 -0.0 -0.0 -0.0 -0.0 -0.0 -0.0 -0.0 -0.0 -0.0 -0.0 -0.0 -0.0 -0.0 -0.0 -0.0 -0.0 -0.0 -0.0 -0.0 -0.0 -0.0 -0.0 -0.0 -0.0 -0.0 -0.0 -0.0 -0.0 -0.0 -0.0 -0.0 -0.0 -0.0 -0.0 -0.0 -0.0 -0.0 -0.0 -0.0 -0.0 -0.0 -0.0 -0.0 -0.0 -0.0 -0.0 -0.0 -0.0 -0.0 -0.0 -0.0 -0.0 -0.0 -0.0 -0.0 -0.0 -0.0 -0.0 -0.0 -0.0 -0.0 -0.0 -0.0 -0.0 -0.0 -0.0 -0.0 -0.0 -0.0 -0.0 -0.0 -0.0 -0.0 -0.0 -0.0 -0.0 -0.0 -0.0 -0.0 -0.0 -0.0 -0.0 -0.0 -0.0 -0.0 -0.0 -0.0 -0.0 -0.0 -0.0 -0.0 -0.0 -0.0 -0.0 -0.0 -0.0 -0.0 -0.0 -0.0 -0.0 -0.0 -0.0 -0.0 -0.0 -0.0 -0.0 -0.0 -0.0 -0.0 -0.0 -0.0 -0.0 -0.0 -0.0 -0.0 -0.0 -0.0 -0.0 -0.0 -0.0 -0.0 -0.0 -0.0 -0.0 -0.0 -0.0 -0.0 -0.0 -0.0 -0.0 -0.0 -0.0 -0.0 -0.0 -0.0 -0.0 -0.0 -0.0 -0.0 -0.0 -0.0 -0.0 -0.0 -0.0 -0.0 -0.0 -0.0 -0.0 -0.0 -0.0 -0.0 -0.0 -0.0 -0.0 -0.0 -0.0 -0.0 -0.0 -0.0 -0.0 -0.0 -0.0 -0.0 -0.0 -0.0 -0.0 -0.0 -0.0 -0.0 -0.0 -0.0 -0.0 -0.0 -0.0 -0.0 -0.0 -0.0 -0.0 -0.0 -0.0 -0.0 -0.0 -0.0 -0.0 -0.0 -0.0 -0.0 -0.0 -0.0 -0.0 -0.0 -0.0 -0.0 -0.0 -0.0 -0.0 -0.0 -0.0 -0.0 -0.0 -0.0 -0.0 -0.0 -0.0 -0.0 -0.0 -0.0 -0.0 -0.0 -0.0 -0.0 -0.0 -0.0 -0.0 -0.0 -0.0 -0.0 -0.0 -0.0 -0.0 -0.0 -0.0 -0.0 -0.0 -0.0 -0.0 -0.0 -0.0 -0.0 -0.0 -0.0 -0.0 -0.0 -0.0 -0.0 -0.0 -0.0 -0.0 -0.0 -0.0 -0.0 -0.0 -0.0 -0.0 -0.0 -0.0 -0.0 -0.0 -0.0 -0.0 -0.0 -0.0 -0.0 -0.0 -0.0 -0.0 -0.0 -0.0 -0.0 -0.0 -0.0 -0.0 -0.0 -0.0 -0.0 -0.0 -0.0 -0.0 -0.0 -0.0 -0.0 -0.0 -0.0 -0.0 -0.0 -0.0 -0.0 -0.0 -0.0 -0.0 -0.0 -0.0 -0.0 -0.0 -0.0 -0.0 -0.0 -0.0 -0.0 -0.0 -0.0 -0.0 -0.0 -0.0 -0.0 -0.0 -0.0 -0.0 -0.0 -0.0 -0.0 -0.0 -0.0 -0.0 -0.0 -0.0 -0.0 -0.0 -0.0 -0.0 -0.0 -0.0 -0.0 -0.0 -0.0 -0.0 -0.0 -0.0 -0.0 -0.0 -0.0 -0.0 -0.0 -0.0 -0.0 -0.0 -0.0 -0.0 -0.0 -0.0 -0.0 -0.0 -0.0 -0.0 -0.0 -0.0 -0.0 -0.0 -0.0 -0.0 -0.0 -0.0 -0.0 -0.0 -0.0 -0.0 -0.0 -0.0 -0.0 -0.0 -0.0 -0.0 -0.0 -0.0 -0.0 -0.0 -0.0 -0.0 -0.0 -0.0 -0.0 -0.0 -0.0 -0.0 -0.0 -0.0 -0.0 -0.0 -0.0 -0.0 -0.0 -0.0 -0.0 -0.0 -0.0 -0.0 -0.0 -0.0 -0.0 -0.0 -0.0 -0.0 -0.0 -0.0 -0.0 -0.0 -0.0 -0.0 -0.0 -0.0 -0.0 -0.0 -0.0 -0.0 -0.0 -0.0 -0.0 -0.0 -0.0 -0.0 -0.0 -0.0 -0.0 -0.0 -0.0 -0.0 -0.0 -0.0 -0.0 -0.0 -0.0 -0.0 -0.0 -0.0 -0.0 -0.0 -0.0 -0.0 -0.0 -0.0 -0.0 -0.0 -0.0 -0.0 -0.0 -0.0 -0.0 -0.0 -0.0 -0.0 -0.0 -0.0 -0.0 -0.0 -0.0 -0.0 -0.0 -0.0 -0.0 -0.0 -0.0 -0.0 -0.0 -0.0 -0.0 -0.0 -0.0 -0.0 -0.0 -0.0 -0.0 -0.0 -0.0 -0.0 -0.0 -0.0 -0.0 -0.0 -0.0 -0.0 -0.0 -0.0 -0.0 -0.0 -0.0 -0.0 -0.0 -0.0 -0.0 -0.0 -0.0 -0.0 -0.0 -0.0 -0.0 -0.0 -0.0 -0.0 -0.0 -0.0 -0.0 -0.0 -0.0 -0.0 -0.0 -0.0 -0.0 -0.0 -0.0 -0.0 -0.0 -0.0 -0.0 -0.0 -0.0 -0.0 -0.0 -0.0 -0.0 -0.0 -0.0 -0.0 -0.0 -0.0 -0.0 -0.0 -0.0 -0.0 -0.0 -0.0 -0.0 -0.0 -0.0 -0.0 -0.0 -0.0 -0.0 -0.0 -0.0 -0.0 -0.0 -0.0 -0.0 -0.0 -0.0 -0.0 -0.0 -0.0 -0.0 -0.0 -0.0 -0.0 -0.0 -0.0 -0.0 -0.0 -0.0 -0.0 -0.0 -0.0 -0.0 -0.0 -0.0 -0.0 -0.0 -0.0 -0.0 -0.0 -0.0 -0.0 -0.0 -0.0 -0.0 -0.0 -0.0 -0.0 -0.0 -0.0 -0.0 -0.0 -0.0 -0.0 -0.0 -0.0 -0.0 -0.0 -0.0 -0.0 -0.0 -0.0 -0.0 -0.0 -0.0 -0.0 -0.0 -0.0 -0.0 -0.0 -0.0 -0.0 -0.0 -0.0 -0.0 -0.0 -0.0 -0.0 -0.0 -0.0 -0.0 -0.0 -0.0 -0.0 -0.0 -0.0 -0.0 -0.0 -0.0 -0.0 -0.0 -0.0 -0.0 -0.0 -0.0 -0.0 -0.0 -0.0 -0.0 -0.0 -0.0 -0.0 -0.0 -0.0 -0.0 -0.0 -0.0 -0.0 -0.0 -0.0 -0.0 -0.0 -0.0 -0.0 -0.0 -0.0 -0.0 -0.0 -0.0 -0.0 -0.0 -0.0 -0.0 -0.0 -0.0 -0.0 -0.0 -0.0 -0.0 -0.0 -0.0 -0.0 -0.0 -0.0 -0.0 -0.0 -0.0 -0.0 -0.0 -0.0 -0.0 -0.0 -0.0 -0.0 -0.0 -0.0 -0.0 -0.0 -0.0 -0.0 -0.0 -0.0 -0.0 -0.0 -0.0 -0.0 -0.0 -0.0 -0.0 -0.0 -0.0 -0.0 -0.0 -0.0 -0.0 -0.0 -0.0 -0.0 -0.0 -0.0 -0.0 -0.0 -0.0 -0.0 -0.0 -0.0 -0.0 -0.0 -0.0 -0.0 -0.0 -0.0 -0.0 -0.0 -0.0 -0.0 -0.0 -0.0 -0.0 -0.0 -0.0 -0.0 -0.0 -0.0 -0.0 -0.0 -0.0 -0.0 -0.0 -0.0 -0.0 -0.0 -0.0 -0.0 -0.0 -0.0 -0.0 -0.0 -0.0 -0.0 -0.0 -0.0 -0.0 -0.0 -0.0 -0.0 -0.0 -0.0 -0.0 -0.0 -0.0 -0.0 -0.0 -0.0 -0.0 -0.0 -0.0 -0.0 -0.0 -0.0 -0.0 -0.0 -0.0 -0.0 -0.0 -0.0 -0.0 -0.0 -0.0 -0.0 -0.0 -0.0 -0.0 -0.0 -0.0 -0.0 -0.0 -0.0 -0.0 -0.0 -0.0 -0.0 -0.0 -0.0 -0.0 -0.0 -0.0 -0.0 -0.0 -0.0 -0.0 -0.0 -0.0 -0.0 -0.0 -0.0 -0.0 -0.0 -0.0 -0.0 -0.0 -0.0 -0.0 -0.0 -0.0 -0.0 -0.0 -0.0 -0.0 -0.0 -0.0 -0.0 -0.0 -0.0 -0.0 -0.0 -0.0 -0.0 -0.0 -0.0 -0.0 -0.0 -0.0 -0.0 -0.0 -0.0 -0.0 -0.0 -0.0 -0.0 -0.0 -0.0 -0.0 -0.0 -0.0 -0.0 -0.0 -0.0 -0.0 -0.0 -0.0 -0.0 -0.0 -0.0 -0.0 -0.0 -0.0 -0.0 -0.0 -0.0 -0.0 -0.0 -0.0 -0.0 -0.0 -0.0 -0.0 -0.0 -0.0 -0.0 -0.0 -0.0 -0.0 -0.0 -0.0 -0.0 -0.0 -0.0 -0.0 -0.0 -0.0 -0.0 -0.0 -0.0 -0.0 -0.0 -0.0 -0.0 -0.0 -0.0 -0.0 -0.0 -0.0 -0.0 -0.0 -0.0 -0.0 -0.0 -0.0 -0.0 -0.0 -0.0 -0.0 -0.0 -0.0 -0.0 -0.0 -0.0 -0.0 -0.0 -0.0 -0.0 -0.0 -0.0 -0.0 -0.0 -0.0 -0.0 -0.0 -0.0 -0.0 -0.0 -0.0 -0.0 -0.0 -0.0 -0.0 -0.0 -0.0 -0.0 -0.0 -0.0 -0.0 -0.0 -0.0 -0.0 -0.0 -0.0 -0.0 -0.0 -0.0 -0.0 -0.0 -0.0 -0.0 -0.0 -0.0 -0.0 -0.0 -0.0 -0.0 -0.0 -0.0 -0.0 -0.0 -0.0 -0.0 -0.0 -0.0 -0.0 -0.0 -0.0 -0.0 -0.0 -0.0 -0.0 -0.0 -0.0 -0.0 -0.0 -0.0 -0.0 -0.0 -0.0 -0.0 -0.0 -0.0 -0.0 -0.0 -0.0 -0.0 -0.0 -0.0 -0.0 -0.0 -0.0 -0.0 -0.0 -0.0 -0.0 -0.0 -0.0 -0.0 -0.0 -0.0 -0.0 -0.0 -0.0 -0.0 -0.0 -0.0 -0.0 -0.0 -0.0 -0.0 -0.0 -0.0 -0.0 -0.0 -0.0 -0.0 -0.0 -0.0 -0.0 -0.0 -0.0 -0.0 -0.0 -0.0 -0.0 -0.0 -0.0 -0.0 -0.0 -0.0 -0.0 -0.0 -0.0 -0.0 -0.0 -0.0 -0.0 -0.0 -0.0 -0.0 -0.0 -0.0 -0.0 -0.0 -0.0 -0.0 -0.0 -0.0 -0.0 -0.0 -0.0 -0.0 -0.0 -0.0 -0.0 -0.0 -0.0 -0.0 -0.0 -0.0 -0.0 -0.0 -0.0 -0.0 -0.0 -0.0 -0.0 -0.0 -0.0 -0.0 -0.0 -0.0 -0.0 -0.0 -0.0 -0.0 -0.0 -0.0 -0.0 -0.0 -0.0 -0.0 -0.0 -0.0 -0.0 -0.0 -0.0 -0.0 -0.0 -0.0 -0.0 -0.0 -0.0 -0.0 -0.0 -0.0 -0.0 -0.0 -0.0 -0.0 -0.0 -0.0 -0.0 -0.0 -0.0 -0.0 -0.0 -0.0 -0.0 -0.0 -0.0 -0.0 -0.0 -0.0 -0.0 -0.0 -0.0 -0.0 -0.0 -0.0 -0.0 -0.0 -0.0 -0.0 -0.0 -0.0 -0.0 -0.0 -0.0 -0.0 -0.0 -0.0 -0.0 -0.0 -0.0 -0.0 -0.0 -0.0 -0.0 -0.0 -0.0 -0.0 -0.0 -0.0 -0.0 -0.0 -0.0 -0.0 -0.0 -0.0 -0.0 -0.0 -0.0 -0.0 -0.0 -0.0 -0.0 -0.0 -0.0 -0.0 -0.0 -0.0 -0.0 -0.0 -0.0 -0.0 -0.0 -0.0 -0.0 -0.0 -0.0 -0.0 -0.0 -0.0 -0.0 -0.0 -0.0 -0.0 -0.0 -0.0 -0.0 -0.0 -0.0 -0.0 -0.0 -0.0 -0.0 -0.0 -0.0 -0.0 -0.0 -0.0 -0.0 -0.0 -0.0 -0.0 -0.0 -0.0 -0.0 -0.0 -0.0 -0.0 -0.0 -0.0 -0.0 -0.0 -0.0 -0.0 -0.0 -0.0 -0.0 -0.0 -0.0 -0.0 -0.0 -0.0 -0.0 -0.0 -0.0 -0.0 -0.0 -0.0 -0.0 -0.0 -0.0 -0.0 -0.0 -0.0 -0.0 -0.0 -0.0 -0.0 -0.0 -0.0 -0.0 -0.0 -0.0 -0.0 -0.0 -0.0 -0.0 -0.0 -0.0 -0.0 -0.0 -0.0 -0.0 -0.0 -0.0 -0.0 -0.0 -0.0 -0.0 -0.0 -0.0 -0.0 -0.0 -0.0 -0.0 -0.0 -0.0 -0.0 -0.0 -0.0 -0.0 -0.0 -0.0 -0.0 -0.0 -0.0 -0.0 -0.0 -0.0 -0.0 -0.0 -0.0 -0.0 -0.0 -0.0 -0.0 -0.0 -0.0 -0.0 -0.0 -0.0 -0.0 -0.0 -0.0 -0.0 -0.0 -0.0 -0.0 -0.0 -0.0 -0.0 -0.0 -0.0 -0.0 -0.0 -0.0 -0.0 -0.0 -0.0 -0.0 -0.0 -0.0 -0.0 -0.0 -0.0 -0.0 -0.0 -0.0 -0.0 -0.0 -0.0 -0.0 -0.0 -0.0 -0.0 -0.0 -0.0 -0.0 -0.0 -0.0 -0.0 -0.0 -0.0 -0.0 -0.0 -0.0 -0.0 -0.0 -0.0 -0.0 -0.0 -0.0 -0.0 -0.0 -0.0 -0.0 -0.0 -0.0 -0.0 -0.0 -0.0 -0.0 -0.0 -0.0 -0.0 -0.0 -0.0 -0.0 -0.0 -0.0 -0.0 -0.0 -0.0 -0.0 -0.0 -0.0 -0.0 -0.0 -0.0 -0.0 -0.0 -0.0 -0.0 -0.0 -0.0 -0.0 -0.0 -0.0 -0.0 -0.0 -0.0 -0.0 -0.0 -0.0 -0.0 -0.0 -0.0 -0.0 -0.0 -0.0 -0.0 -0.0 -0.0 -0.0 -0.0 -0.0 -0.0 -0.0 -0.0 -0.0 -0.0 -0.0 -0.0 -0.0 -0.0 -0.0 -0.0 -0.0 -0.0 -0.0 -0.0 -0.0 -0.0 -0.0 -0.0 -0.0 -0.0 -0.0 
SCALARS Shear_Stress float 1
LOOKUP_TABLE default
0.0 0.0 0.0 0.0 0.0 0.0 0.0 0.0 0.0 0.0 0.0 0.0 0.0 0.0 0.0 0.0 0.0 0.0 0.0 0.0 0.0 0.0 0.0 0.0 0.0 0.0 0.0 0.0 0.0 0.0 0.0 0.0 0.0 0.0 0.0 0.0 0.0 0.0 0.0 0.0 0.0 0.0 0.0 0.0 0.0 0.0 0.0 0.0 0.0 0.0 0.0 0.0 0.0 0.0 0.0 0.0 0.0 0.0 0.0 0.0 0.0 0.0 0.0 0.0 0.0 0.0 0.0 0.0 0.0 0.0 0.0 0.0 0.0 0.0 0.0 0.0 0.0 0.0 0.0 0.0 0.0 0.0 0.0 0.0 0.0 0.0 0.0 0.0 0.0 0.0 0.0 0.0 0.0 0.0 0.0 0.0 0.0 0.0 0.0 0.0 0.0 0.0 0.0 0.0 0.0 0.0 0.0 0.0 0.0 0.0 0.0 0.0 0.0 0.0 0.0 0.0 0.0 0.0 0.0 0.0 0.0 0.0 0.0 0.0 0.0 0.0 0.0 0.0 0.0 0.0 0.0 0.0 0.0 0.0 0.0 0.0 0.0 0.0 0.0 0.0 0.0 0.0 0.0 0.0 0.0 0.0 0.0 0.0 0.0 0.0 0.0 0.0 0.0 0.0 0.0 0.0 0.0 0.0 0.0 0.0 0.0 0.0 0.0 0.0 0.0 0.0 0.0 0.0 0.0 0.0 0.0 0.0 0.0 0.0 0.0 0.0 0.0 0.0 0.0 0.0 0.0 0.0 0.0 0.0 0.0 0.0 0.0 0.0 0.0 0.0 0.0 0.0 0.0 0.0 0.0 0.0 0.0 0.0 0.0 0.0 0.0 0.0 0.0 0.0 0.0 0.0 0.0 0.0 0.0 0.0 0.0 0.0 0.0 0.0 0.0 0.0 0.0 0.0 0.0 0.0 0.0 0.0 0.0 0.0 0.0 0.0 0.0 0.0 0.0 0.0 0.0 0.0 0.0 0.0 0.0 0.0 0.0 0.0 0.0 0.0 0.0 0.0 0.0 0.0 0.0 0.0 0.0 0.0 0.0 0.0 0.0 0.0 0.0 0.0 0.0 0.0 0.0 0.0 0.0 0.0 0.0 0.0 0.0 0.0 0.0 0.0 0.0 0.0 0.0 0.0 0.0 0.0 0.0 0.0 0.0 0.0 0.0 0.0 0.0 0.0 0.0 0.0 0.0 0.0 0.0 0.0 0.0 0.0 0.0 0.0 0.0 0.0 0.0 0.0 0.0 0.0 0.0 0.0 0.0 0.0 0.0 0.0 0.0 0.0 0.0 0.0 0.0 0.0 0.0 0.0 0.0 0.0 0.0 0.0 0.0 0.0 0.0 0.0 0.0 0.0 0.0 0.0 0.0 0.0 0.0 0.0 0.0 0.0 0.0 0.0 0.0 0.0 0.0 0.0 0.0 0.0 0.0 0.0 0.0 0.0 0.0 0.0 0.0 0.0 0.0 0.0 0.0 0.0 0.0 0.0 0.0 0.0 0.0 0.0 0.0 0.0 0.0 0.0 0.0 0.0 0.0 0.0 0.0 0.0 0.0 0.0 0.0 0.0 0.0 0.0 0.0 0.0 0.0 0.0 0.0 0.0 0.0 0.0 0.0 0.0 0.0 0.0 0.0 0.0 0.0 0.0 0.0 0.0 0.0 0.0 0.0 0.0 0.0 0.0 0.0 0.0 0.0 0.0 0.0 0.0 0.0 0.0 0.0 0.0 0.0 0.0 0.0 0.0 0.0 0.0 0.0 0.0 0.0 0.0 0.0 0.0 0.0 0.0 0.0 0.0 0.0 0.0 0.0 0.0 0.0 0.0 0.0 0.0 0.0 0.0 0.0 0.0 0.0 0.0 0.0 0.0 0.0 0.0 0.0 0.0 0.0 0.0 0.0 0.0 0.0 0.0 0.0 0.0 0.0 0.0 0.0 0.0 0.0 0.0 0.0 0.0 0.0 0.0 0.0 0.0 0.0 0.0 0.0 0.0 0.0 0.0 0.0 0.0 0.0 0.0 0.0 0.0 0.0 0.0 0.0 0.0 0.0 0.0 0.0 0.0 0.0 0.0 0.0 0.0 0.0 0.0 0.0 0.0 0.0 0.0 0.0 0.0 0.0 0.0 0.0 0.0 0.0 0.0 0.0 0.0 0.0 0.0 0.0 0.0 0.0 0.0 0.0 0.0 0.0 0.0 0.0 0.0 0.0 0.0 0.0 0.0 0.0 0.0 0.0 0.0 0.0 0.0 0.0 0.0 0.0 0.0 0.0 0.0 0.0 0.0 0.0 0.0 0.0 0.0 0.0 0.0 0.0 0.0 0.0 0.0 0.0 0.0 0.0 0.0 0.0 0.0 0.0 0.0 0.0 0.0 0.0 0.0 0.0 0.0 0.0 0.0 0.0 0.0 0.0 0.0 0.0 0.0 0.0 0.0 0.0 0.0 0.0 0.0 0.0 0.0 0.0 0.0 0.0 0.0 0.0 0.0 0.0 0.0 0.0 0.0 0.0 0.0 0.0 0.0 0.0 0.0 0.0 0.0 0.0 0.0 0.0 0.0 0.0 0.0 0.0 0.0 0.0 0.0 0.0 0.0 0.0 0.0 0.0 0.0 0.0 0.0 0.0 0.0 0.0 0.0 0.0 0.0 0.0 0.0 0.0 0.0 0.0 0.0 0.0 0.0 0.0 0.0 0.0 0.0 0.0 0.0 0.0 0.0 0.0 0.0 0.0 0.0 0.0 0.0 0.0 0.0 0.0 0.0 0.0 0.0 0.0 0.0 0.0 0.0 0.0 0.0 0.0 0.0 0.0 0.0 0.0 0.0 0.0 0.0 0.0 0.0 0.0 0.0 0.0 0.0 0.0 0.0 0.0 0.0 0.0 0.0 0.0 0.0 0.0 0.0 0.0 0.0 0.0 0.0 0.0 0.0 0.0 0.0 0.0 0.0 0.0 0.0 0.0 0.0 0.0 0.0 0.0 0.0 0.0 0.0 0.0 0.0 0.0 0.0 0.0 0.0 0.0 0.0 0.0 0.0 0.0 0.0 0.0 0.0 0.0 0.0 0.0 0.0 0.0 0.0 0.0 0.0 0.0 0.0 0.0 0.0 0.0 0.0 0.0 0.0 0.0 0.0 0.0 0.0 0.0 0.0 0.0 0.0 0.0 0.0 0.0 0.0 0.0 0.0 0.0 0.0 0.0 0.0 0.0 0.0 0.0 0.0 0.0 0.0 0.0 0.0 0.0 0.0 0.0 0.0 0.0 0.0 0.0 0.0 0.0 0.0 0.0 0.0 0.0 0.0 0.0 0.0 0.0 0.0 0.0 0.0 0.0 0.0 0.0 0.0 0.0 0.0 0.0 0.0 0.0 0.0 0.0 0.0 0.0 0.0 0.0 0.0 0.0 0.0 0.0 0.0 0.0 0.0 0.0 0.0 0.0 0.0 0.0 0.0 0.0 0.0 0.0 0.0 0.0 0.0 0.0 0.0 0.0 0.0 0.0 0.0 0.0 0.0 0.0 0.0 0.0 0.0 0.0 0.0 0.0 0.0 0.0 0.0 0.0 0.0 0.0 0.0 0.0 0.0 0.0 0.0 0.0 0.0 0.0 0.0 0.0 0.0 0.0 0.0 0.0 0.0 0.0 0.0 0.0 0.0 0.0 0.0 0.0 0.0 0.0 0.0 0.0 0.0 0.0 0.0 0.0 0.0 0.0 0.0 0.0 0.0 0.0 0.0 0.0 0.0 0.0 0.0 0.0 0.0 0.0 0.0 0.0 0.0 0.0 0.0 0.0 0.0 0.0 0.0 0.0 0.0 0.0 0.0 0.0 0.0 0.0 0.0 0.0 0.0 0.0 0.0 0.0 0.0 0.0 0.0 0.0 0.0 0.0 0.0 0.0 0.0 0.0 0.0 0.0 0.0 0.0 0.0 0.0 0.0 0.0 0.0 0.0 0.0 0.0 0.0 0.0 0.0 0.0 0.0 0.0 0.0 0.0 0.0 0.0 0.0 0.0 0.0 0.0 0.0 0.0 0.0 0.0 0.0 0.0 0.0 0.0 0.0 0.0 0.0 0.0 0.0 0.0 0.0 0.0 0.0 0.0 0.0 0.0 0.0 0.0 0.0 0.0 0.0 0.0 0.0 0.0 0.0 0.0 0.0 0.0 0.0 0.0 0.0 0.0 0.0 0.0 0.0 0.0 0.0 0.0 0.0 0.0 0.0 0.0 0.0 0.0 0.0 0.0 0.0 0.0 0.0 0.0 0.0 0.0 0.0 0.0 0.0 0.0 0.0 0.0 0.0 0.0 0.0 0.0 0.0 0.0 0.0 0.0 0.0 0.0 0.0 0.0 0.0 0.0 0.0 0.0 0.0 0.0 0.0 0.0 0.0 0.0 0.0 0.0 0.0 0.0 0.0 0.0 0.0 0.0 0.0 0.0 0.0 0.0 0.0 0.0 0.0 0.0 0.0 0.0 0.0 0.0 0.0 0.0 0.0 0.0 0.0 0.0 0.0 0.0 0.0 0.0 0.0 0.0 0.0 0.0 0.0 0.0 0.0 0.0 0.0 0.0 0.0 0.0 0.0 0.0 0.0 0.0 0.0 0.0 0.0 0.0 0.0 0.0 0.0 0.0 0.0 0.0 0.0 0.0 0.0 0.0 0.0 0.0 0.0 0.0 0.0 0.0 0.0 0.0 0.0 0.0 0.0 0.0 0.0 0.0 0.0 0.0 0.0 0.0 0.0 0.0 0.0 0.0 0.0 0.0 0.0 0.0 0.0 0.0 0.0 0.0 0.0 0.0 0.0 0.0 0.0 0.0 0.0 0.0 0.0 0.0 0.0 0.0 0.0 0.0 0.0 0.0 0.0 0.0 0.0 0.0 0.0 0.0 0.0 0.0 0.0 0.0 0.0 0.0 0.0 0.0 0.0 0.0 0.0 0.0 0.0 0.0 0.0 0.0 0.0 0.0 0.0 0.0 0.0 0.0 0.0 0.0 0.0 0.0 0.0 0.0 0.0 0.0 0.0 0.0 0.0 0.0 0.0 0.0 0.0 0.0 0.0 0.0 0.0 0.0 0.0 0.0 0.0 0.0 0.0 0.0 0.0 0.0 0.0 0.0 0.0 0.0 0.0 0.0 0.0 0.0 0.0 0.0 0.0 0.0 0.0 0.0 0.0 0.0 0.0 0.0 0.0 0.0 0.0 0.0 0.0 0.0 0.0 0.0 0.0 0.0 0.0 0.0 0.0 0.0 0.0 0.0 0.0 0.0 0.0 0.0 0.0 0.0 0.0 0.0 0.0 0.0 0.0 0.0 0.0 0.0 0.0 0.0 0.0 0.0 0.0 0.0 0.0 0.0 0.0 0.0 0.0 0.0 0.0 0.0 0.0 0.0 0.0 0.0 0.0 0.0 0.0 0.0 0.0 0.0 0.0 0.0 0.0 0.0 0.0 0.0 0.0 0.0 0.0 0.0 0.0 0.0 0.0 0.0 0.0 0.0 0.0 0.0 0.0 0.0 0.0 0.0 0.0 0.0 0.0 0.0 0.0 0.0 0.0 0.0 0.0 0.0 0.0 0.0 0.0 0.0 0.0 0.0 0.0 0.0 0.0 0.0 0.0 0.0 0.0 0.0 0.0 0.0 0.0 0.0 0.0 0.0 0.0 0.0 0.0 0.0 0.0 0.0 0.0 0.0 0.0 0.0 0.0 0.0 0.0 0.0 0.0 0.0 0.0 0.0 0.0 0.0 0.0 0.0 0.0 0.0 0.0 0.0 0.0 0.0 0.0 0.0 0.0 0.0 0.0 0.0 0.0 0.0 0.0 0.0 0.0 0.0 0.0 0.0 0.0 0.0 0.0 0.0 0.0 0.0 0.0 0.0 0.0 0.0 0.0 0.0 0.0 0.0 0.0 0.0 0.0 0.0 0.0 0.0 0.0 0.0 0.0 0.0 0.0 0.0 0.0 0.0 0.0 0.0 0.0 0.0 0.0 0.0 0.0 0.0 0.0 0.0 0.0 0.0 0.0 0.0 0.0 0.0 0.0 0.0 0.0 0.0 0.0 0.0 0.0 0.0 0.0 0.0 0.0 0.0 0.0 0.0 0.0 0.0 0.0 0.0 0.0 0.0 0.0 0.0 0.0 0.0 0.0 0.0 0.0 0.0 0.0 0.0 0.0 0.0 0.0 0.0 0.0 0.0 0.0 0.0 0.0 0.0 0.0 0.0 0.0 0.0 0.0 0.0 0.0 0.0 0.0 0.0 0.0 0.0 0.0 0.0 0.0 0.0 0.0 0.0 0.0 0.0 0.0 0.0 0.0 0.0 0.0 0.0 0.0 0.0 0.0 0.0 0.0 0.0 0.0 0.0 0.0 0.0 0.0 0.0 0.0 0.0 0.0 0.0 0.0 0.0 0.0 0.0 0.0 0.0 0.0 0.0 0.0 0.0 0.0 0.0 0.0 0.0 0.0 0.0 0.0 0.0 0.0 0.0 0.0 0.0 0.0 0.0 0.0 0.0 0.0 0.0 0.0 0.0 0.0 0.0 0.0 0.0 0.0 0.0 0.0 0.0 0.0 0.0 0.0 0.0 0.0 0.0 0.0 0.0 0.0 0.0 0.0 0.0 0.0 0.0 0.0 0.0 0.0 0.0 0.0 0.0 0.0 0.0 0.0 0.0 0.0 0.0 0.0 0.0 0.0 0.0 0.0 0.0 0.0 0.0 0.0 0.0 0.0 0.0 0.0 0.0 0.0 0.0 0.0 0.0 0.0 0.0 0.0 0.0 0.0 0.0 0.0 0.0 0.0 0.0 0.0 0.0 0.0 0.0 0.0 0.0 0.0 0.0 0.0 0.0 0.0 0.0 0.0 0.0 0.0 0.0 0.0 0.0 0.0 0.0 0.0 0.0 0.0 0.0 0.0 0.0 0.0 0.0 0.0 0.0 0.0 0.0 0.0 0.0 0.0 0.0 0.0 0.0 0.0 0.0 0.0 0.0 0.0 0.0 0.0 0.0 0.0 0.0 0.0 0.0 0.0 0.0 0.0 0.0 0.0 0.0 0.0 0.0 0.0 0.0 0.0 0.0 0.0 0.0 0.0 0.0 0.0 0.0 0.0 0.0 0.0 0.0 0.0 0.0 0.0 0.0 0.0 0.0 0.0 0.0 0.0 0.0 0.0 0.0 0.0 0.0 0.0 0.0 0.0 0.0 0.0 0.0 0.0 0.0 0.0 0.0 0.0 0.0 0.0 0.0 0.0 0.0 0.0 0.0 0.0 0.0 0.0 0.0 0.0 0.0 0.0 0.0 0.0 0.0 0.0 0.0 0.0 0.0 0.0 0.0 0.0 0.0 0.0 0.0 0.0 0.0 0.0 0.0 0.0 0.0 0.0 0.0 0.0 0.0 0.0 0.0 0.0 0.0 0.0 0.0 0.0 0.0 0.0 0.0 0.0 0.0 0.0 0.0 0.0 0.0 0.0 0.0 0.0 0.0 0.0 0.0 0.0 0.0 0.0 0.0 0.0 0.0 0.0 0.0 0.0 0.0 0.0 0.0 0.0 0.0 0.0 0.0 0.0 0.0 0.0 0.0 0.0 0.0 0.0 0.0 0.0 0.0 0.0 0.0 0.0 0.0 0.0 0.0 0.0 0.0 0.0 0.0 0.0 0.0 0.0 0.0 0.0 0.0 0.0 0.0 0.0 0.0 0.0 0.0 0.0 0.0 0.0 0.0 0.0 0.0 0.0 0.0 0.0 0.0 0.0 0.0 0.0 0.0 0.0 0.0 0.0 0.0 0.0 0.0 0.0 0.0 0.0 0.0 0.0 0.0 0.0 0.0 0.0 0.0 0.0 0.0 0.0 0.0 0.0 0.0 0.0 0.0 0.0 0.0 0.0 0.0 0.0 0.0 0.0 0.0 0.0 0.0 0.0 0.0 0.0 0.0 0.0 0.0 0.0 0.0 0.0 0.0 0.0 0.0 0.0 0.0 0.0 0.0 0.0 0.0 0.0 0.0 0.0 0.0 0.0 0.0 0.0 0.0 0.0 0.0 0.0 0.0 0.0 0.0 0.0 0.0 0.0 0.0 0.0 0.0 0.0 0.0 0.0 0.0 0.0 0.0 0.0 0.0 0.0 0.0 0.0 0.0 0.0 0.0 0.0 0.0 0.0 0.0 0.0 0.0 0.0 0.0 0.0 0.0 0.0 0.0 0.0 0.0 0.0 0.0 0.0 0.0 0.0 0.0 0.0 0.0 0.0 0.0 0.0 0.0 0.0 0.0 0.0 0.0 0.0 0.0 0.0 0.0 0.0 0.0 0.0 0.0 0.0 0.0 0.0 0.0 0.0 0.0 0.0 0.0 0.0 0.0 0.0 0.0 0.0 0.0 0.0 0.0 0.0 0.0 0.0 0.0 0.0 0.0 0.0 0.0 0.0 0.0 0.0 0.0 0.0 0.0 0.0 0.0 0.0 0.0 0.0 0.0 0.0 0.0 0.0 0.0 0.0 0.0 0.0 0.0 0.0 0.0 0.0 0.0 0.0 0.0 0.0 0.0 0.0 0.0 0.0 0.0 0.0 0.0 0.0 0.0 0.0 0.0 0.0 0.0 0.0 0.0 0.0 0.0 0.0 0.0 0.0 0.0 0.0 0.0 0.0 0.0 0.0 0.0 0.0 0.0 0.0 0.0 0.0 0.0 0.0 0.0 0.0 0.0 0.0 0.0 0.0 0.0 0.0 0.0 0.0 0.0 0.0 0.0 0.0 0.0 0.0 0.0 0.0 0.0 0.0 0.0 0.0 0.0 0.0 0.0 0.0 0.0 0.0 0.0 0.0 0.0 0.0 0.0 0.0 0.0 0.0 0.0 0.0 0.0 0.0 0.0 0.0 0.0 0.0 0.0 0.0 0.0 0.0 0.0 0.0 0.0 0.0 0.0 0.0 0.0 0.0 0.0 0.0 0.0 0.0 0.0 0.0 0.0 0.0 0.0 0.0 0.0 0.0 0.0 0.0 0.0 0.0 0.0 0.0 0.0 0.0 0.0 0.0 0.0 0.0 0.0 0.0 0.0 0.0 0.0 0.0 0.0 0.0 0.0 0.0 0.0 0.0 0.0 0.0 0.0 0.0 0.0 0.0 0.0 0.0 0.0 0.0 0.0 0.0 0.0 0.0 0.0 0.0 0.0 0.0 0.0 0.0 0.0 0.0 0.0 0.0 0.0 0.0 0.0 0.0 0.0 0.0 0.0 0.0 0.0 0.0 0.0 0.0 0.0 0.0 0.0 0.0 0.0 0.0 0.0 0.0 0.0 0.0 0.0 0.0 0.0 0.0 0.0 0.0 0.0 0.0 0.0 0.0 0.0 0.0 0.0 0.0 0.0 0.0 0.0 0.0 0.0 0.0 0.0 0.0 0.0 0.0 0.0 0.0 0.0 0.0 0.0 0.0 0.0 0.0 0.0 0.0 0.0 0.0 0.0 0.0 0.0 0.0 0.0 0.0 0.0 0.0 0.0 0.0 0.0 0.0 0.0 0.0 0.0 0.0 0.0 0.0 0.0 0.0 0.0 0.0 0.0 0.0 0.0 0.0 0.0 0.0 0.0 0.0 0.0 0.0 0.0 0.0 0.0 0.0 0.0 0.0 0.0 0.0 0.0 0.0 0.0 0.0 0.0 0.0 0.0 0.0 0.0 0.0 0.0 0.0 0.0 0.0 0.0 0.0 0.0 0.0 0.0 0.0 0.0 0.0 0.0 0.0 0.0 0.0 0.0 0.0 0.0 0.0 0.0 0.0 0.0 0.0 0.0 0.0 0.0 0.0 0.0 0.0 0.0 0.0 0.0 0.0 0.0 0.0 0.0 0.0 0.0 0.0 0.0 0.0 0.0 0.0 0.0 0.0 0.0 0.0 0.0 0.0 0.0 0.0 0.0 0.0 0.0 0.0 0.0 0.0 0.0 0.0 0.0 0.0 0.0 0.0 0.0 0.0 0.0 0.0 0.0 0.0 0.0 0.0 0.0 0.0 0.0 0.0 0.0 0.0 0.0 0.0 0.0 0.0 0.0 0.0 0.0 0.0 0.0 0.0 0.0 0.0 0.0 0.0 0.0 0.0 0.0 0.0 0.0 0.0 0.0 0.0 0.0 0.0 0.0 0.0 0.0 0.0 0.0 0.0 0.0 0.0 0.0 0.0 0.0 0.0 0.0 0.0 0.0 0.0 0.0 0.0 0.0 0.0 0.0 0.0 0.0 0.0 0.0 0.0 0.0 0.0 0.0 0.0 0.0 0.0 0.0 0.0 0.0 0.0 0.0 0.0 0.0 0.0 0.0 0.0 0.0 0.0 0.0 0.0 0.0 0.0 0.0 0.0 0.0 0.0 0.0 0.0 0.0 0.0 0.0 0.0 0.0 0.0 0.0 0.0 0.0 0.0 0.0 0.0 0.0 0.0 0.0 0.0 0.0 0.0 0.0 0.0 0.0 0.0 0.0 0.0 0.0 0.0 0.0 0.0 0.0 0.0 0.0 0.0 0.0 0.0 0.0 0.0 0.0 0.0 0.0 0.0 0.0 0.0 0.0 0.0 0.0 0.0 0.0 0.0 0.0 0.0 0.0 0.0 0.0 0.0 0.0 0.0 0.0 0.0 0.0 0.0 0.0 0.0 0.0 0.0 0.0 0.0 0.0 0.0 0.0 0.0 0.0 0.0 0.0 0.0 0.0 0.0 0.0 0.0 0.0 0.0 0.0 0.0 0.0 0.0 0.0 0.0 0.0 0.0 0.0 0.0 0.0 0.0 0.0 0.0 0.0 0.0 0.0 0.0 0.0 0.0 0.0 0.0 0.0 0.0 0.0 0.0 0.0 0.0 0.0 0.0 0.0 0.0 0.0 0.0 0.0 0.0 0.0 0.0 0.0 0.0 0.0 0.0 0.0 0.0 0.0 0.0 0.0 0.0 0.0 0.0 0.0 0.0 0.0 0.0 0.0 0.0 0.0 0.0 0.0 0.0 0.0 0.0 0.0 0.0 0.0 0.0 0.0 0.0 0.0 0.0 0.0 0.0 0.0 0.0 0.0 0.0 0.0 0.0 0.0 0.0 0.0 0.0 0.0 0.0 0.0 0.0 0.0 0.0 0.0 0.0 0.0 0.0 0.0 0.0 0.0 0.0 0.0 0.0 0.0 0.0 0.0 0.0 0.0 0.0 0.0 0.0 0.0 0.0 0.0 0.0 0.0 0.0 0.0 0.0 0.0 0.0 0.0 0.0 0.0 0.0 0.0 0.0 0.0 0.0 0.0 0.0 0.0 0.0 0.0 0.0 0.0 0.0 0.0 0.0 0.0 0.0 0.0 0.0 0.0 0.0 0.0 0.0 0.0 0.0 0.0 0.0 0.0 0.0 0.0 0.0 0.0 0.0 0.0 0.0 0.0 0.0 0.0 0.0 0.0 0.0 0.0 0.0 0.0 0.0 0.0 0.0 0.0 0.0 0.0 0.0 0.0 0.0 0.0 0.0 0.0 0.0 0.0 0.0 0.0 0.0 0.0 0.0 0.0 0.0 0.0 0.0 0.0 0.0 0.0 0.0 0.0 0.0 0.0 0.0 0.0 0.0 0.0 0.0 0.0 0.0 0.0 0.0 0.0 0.0 0.0 0.0 0.0 0.0 0.0 0.0 0.0 0.0 0.0 0.0 0.0 0.0 0.0 0.0 0.0 0.0 0.0 0.0 0.0 0.0 0.0 0.0 0.0 0.0 0.0 0.0 0.0 0.0 0.0 0.0 0.0 0.0 0.0 0.0 0.0 0.0 0.0 0.0 0.0 0.0 0.0 0.0 0.0 0.0 0.0 0.0 0.0 0.0 0.0 0.0 0.0 0.0 0.0 0.0 0.0 0.0 0.0 0.0 0.0 0.0 0.0 0.0 0.0 0.0 0.0 0.0 0.0 0.0 0.0 0.0 0.0 0.0 0.0 0.0 0.0 0.0 0.0 0.0 0.0 0.0 0.0 0.0 0.0 0.0 0.0 0.0 0.0 0.0 0.0 0.0 0.0 0.0 0.0 0.0 0.0 0.0 0.0 0.0 0.0 0.0 0.0 0.0 0.0 0.0 0.0 0.0 0.0 0.0 0.0 0.0 0.0 0.0 0.0 0.0 0.0 0.0 0.0 0.0 0.0 0.0 0.0 0.0 0.0 0.0 0.0 0.0 0.0 0.0 0.0 0.0 0.0 0.0 0.0 0.0 0.0 0.0 0.0 0.0 0.0 0.0 0.0 0.0 0.0 0.0 0.0 0.0 0.0 0.0 0.0 0.0 0.0 0.0 0.0 0.0 0.0 0.0 0.0 0.0 0.0 0.0 0.0 0.0 0.0 0.0 0.0 0.0 0.0 0.0 0.0 0.0 0.0 0.0 0.0 0.0 0.0 0.0 0.0 0.0 0.0 0.0 0.0 0.0 0.0 0.0 0.0 0.0 0.0 0.0 0.0 0.0 0.0 0.0 0.0 0.0 0.0 0.0 0.0 0.0 0.0 0.0 0.0 0.0 0.0 0.0 0.0 0.0 0.0 0.0 0.0 0.0 0.0 0.0 0.0 0.0 0.0 0.0 0.0 0.0 0.0 0.0 0.0 0.0 0.0 0.0 0.0 0.0 0.0 0.0 0.0 0.0 0.0 0.0 0.0 0.0 0.0 0.0 0.0 0.0 0.0 0.0 0.0 0.0 0.0 0.0 0.0 0.0 0.0 0.0 0.0 0.0 0.0 0.0 0.0 0.0 0.0 0.0 0.0 0.0 0.0 0.0 0.0 0.0 0.0 0.0 0.0 0.0 0.0 0.0 0.0 0.0 0.0 0.0 0.0 0.0 0.0 0.0 0.0 0.0 0.0 0.0 0.0 0.0 0.0 0.0 0.0 0.0 0.0 0.0 0.0 0.0 0.0 0.0 0.0 0.0 0.0 0.0 0.0 0.0 0.0 0.0 0.0 0.0 0.0 0.0 0.0 0.0 0.0 0.0 0.0 0.0 0.0 0.0 0.0 0.0 0.0 0.0 0.0 0.0 0.0 0.0 0.0 0.0 0.0 0.0 0.0 0.0 0.0 0.0 0.0 0.0 0.0 0.0 0.0 0.0 0.0 0.0 0.0 0.0 0.0 0.0 0.0 0.0 0.0 0.0 0.0 0.0 0.0 0.0 0.0 0.0 0.0 0.0 0.0 0.0 0.0 0.0 0.0 0.0 0.0 0.0 0.0 0.0 0.0 0.0 0.0 0.0 0.0 0.0 0.0 0.0 0.0 0.0 0.0 0.0 0.0 0.0 0.0 0.0 0.0 0.0 0.0 0.0 0.0 0.0 0.0 0.0 0.0 0.0 0.0 0.0 0.0 0.0 0.0 0.0 0.0 0.0 0.0 0.0 0.0 0.0 0.0 0.0 0.0 0.0 0.0 0.0 0.0 0.0 0.0 0.0 0.0 0.0 0.0 0.0 0.0 0.0 0.0 0.0 0.0 0.0 0.0 0.0 0.0 0.0 0.0 0.0 0.0 0.0 0.0 0.0 0.0 0.0 0.0 0.0 0.0 0.0 0.0 0.0 0.0 0.0 0.0 0.0 0.0 0.0 0.0 0.0 0.0 0.0 0.0 0.0 0.0 0.0 0.0 0.0 0.0 0.0 0.0 0.0 0.0 0.0 0.0 0.0 0.0 0.0 0.0 0.0 0.0 0.0 0.0 0.0 0.0 0.0 0.0 0.0 0.0 0.0 0.0 0.0 0.0 0.0 0.0 0.0 0.0 0.0 0.0 0.0 0.0 0.0 0.0 0.0 0.0 0.0 0.0 0.0 0.0 0.0 0.0 0.0 0.0 0.0 0.0 0.0 0.0 0.0 0.0 0.0 0.0 0.0 0.0 0.0 0.0 0.0 0.0 0.0 0.0 0.0 0.0 0.0 0.0 0.0 0.0 0.0 0.0 0.0 0.0 0.0 0.0 0.0 0.0 0.0 0.0 0.0 0.0 0.0 0.0 0.0 0.0 0.0 0.0 0.0 0.0 0.0 0.0 0.0 0.0 0.0 0.0 0.0 0.0 0.0 0.0 0.0 0.0 0.0 0.0 0.0 0.0 0.0 0.0 0.0 0.0 0.0 0.0 0.0 0.0 0.0 0.0 0.0 0.0 0.0 0.0 0.0 0.0 0.0 0.0 0.0 0.0 0.0 0.0 0.0 0.0 0.0 0.0 0.0 0.0 0.0 0.0 0.0 0.0 0.0 0.0 0.0 0.0 0.0 0.0 0.0 0.0 0.0 0.0 0.0 0.0 0.0 0.0 0.0 0.0 0.0 0.0 0.0 0.0 0.0 0.0 0.0 0.0 0.0 0.0 0.0 0.0 0.0 0.0 0.0 0.0 0.0 0.0 0.0 0.0 0.0 0.0 0.0 0.0 0.0 0.0 0.0 0.0 0.0 0.0 0.0 0.0 0.0 0.0 0.0 0.0 0.0 0.0 0.0 0.0 0.0 0.0 0.0 0.0 0.0 0.0 0.0 0.0 0.0 0.0 0.0 0.0 0.0 0.0 0.0 0.0 0.0 0.0 0.0 0.0 0.0 0.0 0.0 0.0 0.0 0.0 0.0 0.0 0.0 0.0 0.0 0.0 0.0 0.0 0.0 0.0 0.0 0.0 0.0 0.0 0.0 0.0 0.0 0.0 0.0 0.0 0.0 0.0 0.0 0.0 0.0 0.0 0.0 0.0 0.0 0.0 0.0 0.0 0.0 0.0 0.0 0.0 0.0 0.0 0.0 0.0 0.0 0.0 0.0 0.0 0.0 0.0 0.0 0.0 0.0 0.0 0.0 0.0 0.0 0.0 0.0 0.0 0.0 0.0 0.0 0.0 0.0 0.0 0.0 0.0 0.0 0.0 0.0 0.0 0.0 0.0 0.0 0.0 0.0 0.0 0.0 0.0 0.0 0.0 0.0 0.0 0.0 0.0 0.0 0.0 0.0 0.0 0.0 0.0 0.0 0.0 0.0 0.0 0.0 0.0 0.0 0.0 0.0 0.0 0.0 0.0 0.0 0.0 0.0 0.0 0.0 0.0 0.0 0.0 0.0 0.0 0.0 0.0 0.0 0.0 0.0 0.0 0.0 0.0 0.0 0.0 0.0 0.0 0.0 0.0 0.0 0.0 0.0 0.0 0.0 0.0 0.0 0.0 0.0 0.0 0.0 0.0 0.0 0.0 0.0 0.0 0.0 0.0 0.0 0.0 0.0 0.0 0.0 0.0 0.0 0.0 0.0 0.0 0.0 0.0 0.0 0.0 0.0 0.0 0.0 0.0 0.0 0.0 0.0 0.0 0.0 0.0 0.0 0.0 0.0 0.0 0.0 0.0 0.0 0.0 0.0 0.0 0.0 0.0 0.0 0.0 0.0 0.0 0.0 0.0 0.0 0.0 0.0 0.0 0.0 0.0 0.0 0.0 0.0 0.0 0.0 0.0 0.0 0.0 0.0 0.0 0.0 0.0 0.0 0.0 0.0 0.0 0.0 0.0 0.0 0.0 0.0 0.0 0.0 0.0 0.0 0.0 0.0 0.0 0.0 0.0 0.0 0.0 0.0 0.0 0.0 0.0 0.0 0.0 0.0 0.0 0.0 0.0 0.0 0.0 0.0 0.0 0.0 0.0 0.0 0.0 0.0 0.0 0.0 0.0 0.0 0.0 0.0 0.0 0.0 0.0 0.0 0.0 0.0 0.0 0.0 0.0 0.0 0.0 0.0 0.0 0.0 0.0 0.0 0.0 0.0 0.0 0.0 0.0 0.0 0.0 0.0 0.0 0.0 0.0 0.0 0.0 0.0 0.0 0.0 0.0 0.0 0.0 0.0 0.0 0.0 0.0 0.0 0.0 0.0 0.0 0.0 0.0 0.0 0.0 0.0 0.0 0.0 0.0 0.0 0.0 0.0 0.0 0.0 0.0 0.0 0.0 0.0 0.0 0.0 0.0 0.0 0.0 0.0 0.0 0.0 0.0 0.0 0.0 0.0 0.0 0.0 0.0 0.0 0.0 0.0 0.0 0.0 0.0 0.0 0.0 0.0 0.0 0.0 0.0 0.0 0.0 0.0 0.0 0.0 0.0 0.0 0.0 0.0 0.0 0.0 0.0 0.0 0.0 0.0 0.0 0.0 0.0 0.0 0.0 0.0 0.0 0.0 0.0 0.0 0.0 0.0 0.0 0.0 0.0 0.0 0.0 0.0 0.0 0.0 0.0 0.0 0.0 0.0 0.0 0.0 0.0 0.0 0.0 0.0 0.0 0.0 0.0 0.0 0.0 0.0 0.0 0.0 0.0 0.0 0.0 0.0 0.0 0.0 0.0 0.0 0.0 0.0 0.0 0.0 0.0 0.0 0.0 0.0 0.0 0.0 0.0 0.0 0.0 0.0 0.0 0.0 0.0 0.0 0.0 0.0 0.0 0.0 0.0 0.0 0.0 0.0 0.0 0.0 0.0 0.0 0.0 0.0 0.0 0.0 0.0 0.0 0.0 0.0 0.0 0.0 0.0 0.0 0.0 0.0 0.0 0.0 0.0 0.0 0.0 0.0 0.0 0.0 0.0 0.0 0.0 0.0 0.0 0.0 0.0 0.0 0.0 0.0 0.0 0.0 0.0 0.0 0.0 0.0 0.0 0.0 0.0 0.0 0.0 0.0 0.0 0.0 0.0 0.0 0.0 0.0 0.0 0.0 0.0 0.0 0.0 0.0 0.0 0.0 0.0 0.0 0.0 0.0 0.0 0.0 0.0 0.0 0.0 0.0 0.0 0.0 0.0 0.0 0.0 0.0 0.0 0.0 0.0 0.0 0.0 0.0 0.0 0.0 0.0 0.0 0.0 0.0 0.0 0.0 0.0 0.0 0.0 0.0 0.0 0.0 0.0 0.0 0.0 0.0 0.0 0.0 0.0 0.0 0.0 0.0 0.0 0.0 0.0 0.0 0.0 0.0 0.0 0.0 0.0 0.0 0.0 0.0 0.0 0.0 0.0 0.0 0.0 0.0 0.0 0.0 0.0 0.0 0.0 0.0 0.0 0.0 0.0 0.0 0.0 0.0 0.0 0.0 0.0 0.0 0.0 0.0 0.0 0.0 0.0 0.0 0.0 0.0 0.0 0.0 0.0 0.0 0.0 0.0 0.0 0.0 0.0 0.0 0.0 0.0 0.0 0.0 0.0 0.0 0.0 0.0 0.0 0.0 0.0 0.0 0.0 0.0 0.0 0.0 0.0 0.0 0.0 0.0 0.0 0.0 0.0 0.0 0.0 0.0 0.0 0.0 0.0 0.0 0.0 0.0 0.0 0.0 0.0 0.0 0.0 0.0 0.0 0.0 0.0 0.0 0.0 0.0 0.0 0.0 0.0 0.0 0.0 0.0 0.0 0.0 0.0 0.0 0.0 0.0 0.0 0.0 0.0 0.0 0.0 0.0 0.0 0.0 0.0 0.0 0.0 0.0 0.0 0.0 0.0 0.0 0.0 0.0 0.0 0.0 0.0 0.0 0.0 0.0 0.0 0.0 0.0 0.0 0.0 0.0 0.0 0.0 0.0 0.0 0.0 0.0 0.0 0.0 0.0 0.0 0.0 0.0 0.0 0.0 0.0 0.0 0.0 0.0 0.0 0.0 0.0 0.0 0.0 0.0 0.0 0.0 0.0 0.0 0.0 0.0 0.0 0.0 0.0 0.0 0.0 0.0 0.0 0.0 0.0 0.0 0.0 0.0 0.0 0.0 0.0 0.0 0.0 0.0 0.0 0.0 0.0 0.0 0.0 0.0 0.0 0.0 0.0 0.0 0.0 0.0 0.0 0.0 0.0 0.0 0.0 0.0 0.0 0.0 0.0 0.0 0.0 0.0 0.0 0.0 0.0 0.0 0.0 0.0 0.0 0.0 0.0 0.0 0.0 0.0 0.0 0.0 0.0 0.0 0.0 0.0 0.0 0.0 0.0 0.0 0.0 0.0 0.0 0.0 0.0 0.0 0.0 0.0 0.0 0.0 0.0 0.0 0.0 0.0 0.0 0.0 0.0 0.0 0.0 0.0 0.0 0.0 0.0 0.0 0.0 0.0 0.0 0.0 0.0 0.0 0.0 0.0 0.0 0.0 0.0 0.0 0.0 0.0 0.0 0.0 0.0 0.0 0.0 0.0 0.0 0.0 0.0 0.0 0.0 0.0 0.0 0.0 0.0 0.0 0.0 0.0 0.0 0.0 0.0 0.0 0.0 0.0 0.0 0.0 0.0 0.0 0.0 0.0 0.0 0.0 0.0 0.0 0.0 0.0 0.0 0.0 0.0 0.0 0.0 0.0 0.0 0.0 0.0 0.0 0.0 0.0 0.0 0.0 0.0 0.0 0.0 0.0 0.0 0.0 0.0 0.0 0.0 0.0 0.0 0.0 0.0 0.0 0.0 0.0 0.0 0.0 0.0 0.0 0.0 0.0 0.0 0.0 0.0 0.0 0.0 0.0 0.0 0.0 0.0 0.0 0.0 0.0 0.0 0.0 0.0 0.0 0.0 0.0 0.0 0.0 0.0 0.0 0.0 0.0 0.0 0.0 0.0 0.0 0.0 0.0 0.0 0.0 0.0 0.0 0.0 0.0 0.0 0.0 0.0 0.0 0.0 0.0 0.0 0.0 0.0 0.0 0.0 0.0 0.0 0.0 0.0 0.0 0.0 0.0 0.0 0.0 0.0 0.0 0.0 0.0 0.0 0.0 0.0 0.0 0.0 0.0 0.0 0.0 0.0 0.0 0.0 0.0 0.0 0.0 0.0 0.0 0.0 0.0 0.0 0.0 0.0 0.0 0.0 0.0 0.0 0.0 0.0 0.0 0.0 0.0 0.0 0.0 0.0 0.0 0.0 0.0 0.0 0.0 0.0 0.0 0.0 0.0 0.0 0.0 0.0 0.0 0.0 0.0 0.0 0.0 0.0 0.0 0.0 0.0 0.0 0.0 0.0 0.0 0.0 0.0 0.0 0.0 0.0 0.0 0.0 0.0 0.0 0.0 0.0 0.0 0.0 0.0 0.0 0.0 0.0 0.0 0.0 0.0 0.0 0.0 0.0 0.0 0.0 0.0 0.0 0.0 0.0 0.0 0.0 0.0 0.0 0.0 0.0 0.0 0.0 0.0 0.0 0.0 0.0 0.0 0.0 0.0 0.0 0.0 0.0 0.0 0.0 0.0 0.0 0.0 0.0 0.0 0.0 0.0 0.0 0.0 0.0 0.0 0.0 0.0 0.0 0.0 0.0 0.0 0.0 0.0 0.0 0.0 0.0 0.0 0.0 0.0 0.0 0.0 0.0 0.0 0.0 0.0 0.0 0.0 0.0 0.0 0.0 0.0 0.0 0.0 0.0 0.0 0.0 0.0 0.0 0.0 0.0 0.0 0.0 0.0 0.0 0.0 0.0 0.0 0.0 0.0 0.0 0.0 0.0 0.0 0.0 0.0 0.0 0.0 0.0 0.0 0.0 0.0 0.0 0.0 0.0 0.0 0.0 0.0 0.0 0.0 0.0 0.0 0.0 0.0 0.0 0.0 0.0 0.0 0.0 0.0 0.0 0.0 0.0 0.0 0.0 0.0 0.0 0.0 0.0 0.0 0.0 0.0 0.0 0.0 0.0 0.0 0.0 0.0 0.0 0.0 0.0 0.0 0.0 0.0 0.0 0.0 0.0 0.0 0.0 0.0 0.0 0.0 0.0 0.0 0.0 0.0 0.0 0.0 0.0 0.0 0.0 0.0 0.0 0.0 0.0 0.0 0.0 0.0 0.0 0.0 0.0 0.0 0.0 0.0 0.0 0.0 0.0 0.0 0.0 0.0 0.0 0.0 0.0 0.0 0.0 0.0 0.0 0.0 0.0 0.0 0.0 0.0 0.0 0.0 0.0 0.0 0.0 0.0 0.0 0.0 0.0 0.0 0.0 0.0 0.0 0.0 0.0 0.0 0.0 0.0 0.0 0.0 0.0 0.0 0.0 0.0 0.0 0.0 0.0 0.0 0.0 0.0 0.0 0.0 0.0 0.0 0.0 0.0 0.0 0.0 0.0 0.0 0.0 0.0 0.0 0.0 0.0 0.0 0.0 0.0 0.0 0.0 0.0 0.0 0.0 0.0 0.0 0.0 0.0 0.0 0.0 0.0 0.0 0.0 0.0 0.0 0.0 0.0 0.0 0.0 0.0 0.0 0.0 0.0 0.0 0.0 0.0 0.0 0.0 0.0 0.0 0.0 0.0 0.0 0.0 0.0 0.0 0.0 0.0 0.0 0.0 0.0 0.0 0.0 0.0 0.0 0.0 0.0 0.0 0.0 0.0 0.0 0.0 0.0 0.0 0.0 0.0 0.0 0.0 0.0 0.0 0.0 0.0 0.0 0.0 0.0 0.0 0.0 0.0 0.0 0.0 0.0 0.0 0.0 0.0 0.0 0.0 0.0 0.0 0.0 0.0 0.0 0.0 0.0 0.0 0.0 0.0 0.0 0.0 0.0 0.0 0.0 