# vtk DataFile Version 2.0
Time step 108
ASCII
DATASET UNSTRUCTURED_GRID
POINTS 4650 float
208902.0 246598.0 0
215580.0 246330.0 0
219519.0 246876.0 0
247350.0 245776.0 0
284542.0 247446.0 0
294750.0 245736.0 0
205446.0 248579.0 0
212336.0 248617.0 0
223076.0 248651.0 0
233575.0 250052.0 0
236979.0 247958.0 0
240495.0 249858.0 0
243915.0 247810.0 0
247401.0 249761.0 0
250832.0 247729.0 0
254289.0 249704.0 0
257735.0 247700.0 0
261182.0 249704.0 0
274430.0 249327.0 0
281115.0 249472.0 0
287827.0 249693.0 0
291247.0 247664.0 0
294656.0 249713.0 0
298175.0 247803.0 0
201998.0 250564.0 0
205448.0 252561.0 0
208896.0 250592.0 0
212357.0 252596.0 0
215789.0 250594.0 0
219740.0 250853.0 0
223278.0 252624.0 0
226659.0 250373.0 0
230200.0 252183.0 0
237100.0 251937.0 0
243990.0 251793.0 0
250864.0 251720.0 0
257723.0 251692.0 0
265057.0 250605.0 0
271028.0 251393.0 0
277737.0 251541.0 0
284418.0 251692.0 0
291235.0 251705.0 0
298006.0 251778.0 0
201998.0 254537.0 0
208903.0 254559.0 0
215829.0 254577.0 0
219812.0 254826.0 0
226841.0 254346.0 0
233726.0 254031.0 0
240604.0 253839.0 0
247460.0 253742.0 0
254300.0 253695.0 0
261127.0 253685.0 0
267710.0 253555.0 0
274360.0 253572.0 0
281049.0 253710.0 0
287833.0 253692.0 0
294613.0 253732.0 0
205446.0 256516.0 0
212360.0 256552.0 0
223397.0 256576.0 0
230368.0 256154.0 0
233910.0 257982.0 0
237244.0 255903.0 0
240729.0 257809.0 0
244081.0 255769.0 0
247530.0 257719.0 0
250903.0 255704.0 0
254315.0 257683.0 0
257707.0 255686.0 0
261060.0 257715.0 0
264445.0 255748.0 0
267762.0 257773.0 0
271045.0 255666.0 0
274376.0 257747.0 0
277692.0 255717.0 0
281097.0 257701.0 0
284457.0 255694.0 0
287849.0 257686.0 0
291225.0 255701.0 0
294615.0 257707.0 0
298006.0 255743.0 0
201996.0 258486.0 0
205411.0 260448.0 0
208888.0 258502.0 0
212326.0 260494.0 0
215809.0 258540.0 0
219779.0 258780.0 0
223359.0 260508.0 0
226996.0 258292.0 0
230610.0 260079.0 0
237404.0 259862.0 0
244182.0 259740.0 0
250949.0 259685.0 0
257690.0 259686.0 0
264401.0 259741.0 0
271080.0 259778.0 0
277760.0 259715.0 0
284486.0 259681.0 0
291236.0 259679.0 0
298007.0 259700.0 0
201993.0 262430.0 0
208781.0 262421.0 0
215772.0 262476.0 0
219732.0 262719.0 0
227368.0 262191.0 0
234113.0 261931.0 0
240860.0 261773.0 0
247605.0 261692.0 0
254337.0 261671.0 0
261047.0 261705.0 0
267741.0 261756.0 0
274436.0 261739.0 0
281136.0 261686.0 0
287868.0 261661.0 0
294622.0 261666.0 0
205363.0 264391.0 0
212082.0 264403.0 0
224197.0 264313.0 0
230865.0 264020.0 0
234310.0 265885.0 0
237568.0 263820.0 0
240988.0 265734.0 0
244284.0 263707.0 0
247681.0 265661.0 0
251001.0 263663.0 0
254374.0 265649.0 0
257704.0 263673.0 0
261060.0 265681.0 0
264398.0 263720.0 0
267751.0 265719.0 0
271095.0 263743.0 0
274452.0 265704.0 0
277796.0 263697.0 0
281158.0 265654.0 0
284509.0 263654.0 0
287882.0 265618.0 0
291248.0 263638.0 0
294628.0 265608.0 0
298007.0 263644.0 0
201991.0 266377.0 0
205323.0 268345.0 0
208682.0 266374.0 0
211956.0 268362.0 0
215326.0 266352.0 0
221075.0 266389.0 0
224510.0 268250.0 0
227667.0 266129.0 0
231091.0 267972.0 0
237719.0 267777.0 0
244381.0 267668.0 0
251056.0 267631.0 0
257733.0 267645.0 0
264413.0 267683.0 0
271106.0 267695.0 0
277808.0 267656.0 0
284522.0 267607.0 0
291256.0 267577.0 0
298008.0 267573.0 0
201988.0 270322.0 0
208616.0 270341.0 0
215034.0 270556.0 0
218201.0 268671.0 0
221471.0 270446.0 0
227909.0 270081.0 0
234480.0 269840.0 0
241101.0 269689.0 0
247752.0 269620.0 0
254415.0 269614.0 0
261083.0 269643.0 0
267764.0 269669.0 0
274459.0 269651.0 0
281165.0 269600.0 0
287889.0 269554.0 0
294632.0 269532.0 0
205295.0 272298.0 0
211815.0 272429.0 0
218309.0 272542.0 0
224781.0 272227.0 0
231273.0 271927.0 0
237844.0 271729.0 0
241188.0 273635.0 0
244463.0 271620.0 0
247810.0 273566.0 0
251108.0 271587.0 0
254451.0 273564.0 0
257763.0 271603.0 0
261104.0 273592.0 0
264430.0 271634.0 0
267772.0 273610.0 0
271112.0 271637.0 0
274458.0 273585.0 0
277810.0 271594.0 0
281164.0 273525.0 0
284525.0 271537.0 0
287890.0 273467.0 0
291259.0 271496.0 0
294633.0 273435.0 0
298009.0 271484.0 0
201987.0 274258.0 0
205283.0 276241.0 0
208560.0 274321.0 0
215094.0 274471.0 0
221623.0 274368.0 0
224931.0 276164.0 0
228099.0 274040.0 0
231406.0 275877.0 0
234612.0 273791.0 0
237931.0 275672.0 0
244521.0 275556.0 0
251146.0 275527.0 0
257786.0 275547.0 0
264441.0 275573.0 0
271112.0 275567.0 0
277805.0 275515.0 0
284522.0 275444.0 0
291259.0 275391.0 0
298009.0 275372.0 0
201986.0 278170.0 0
208595.0 278242.0 0
211859.0 276358.0 0
215211.0 278358.0 0
218428.0 276420.0 0
221765.0 278283.0 0
228222.0 277980.0 0
234692.0 277733.0 0
241241.0 277565.0 0
247845.0 277494.0 0
254473.0 277498.0 0
261116.0 277528.0 0
267774.0 277540.0 0
274452.0 277503.0 0
281157.0 277428.0 0
287887.0 277355.0 0
294633.0 277314.0 0
205304.0 280138.0 0
211948.0 280237.0 0
218606.0 280307.0 0
225071.0 280086.0 0
231469.0 279819.0 0
237973.0 279597.0 0
241251.0 281472.0 0
244547.0 279471.0 0
247849.0 281399.0 0
251162.0 279448.0 0
254474.0 281414.0 0
257795.0 279474.0 0
261113.0 281449.0 0
264442.0 279501.0 0
267766.0 281459.0 0
271106.0 279487.0 0
274440.0 281408.0 0
277795.0 279417.0 0
281147.0 281309.0 0
284516.0 279328.0 0
287884.0 281218.0 0
291258.0 279262.0 0
294634.0 281169.0 0
298010.0 279239.0 0
201987.0 282041.0 0
205332.0 283984.0 0
208653.0 282107.0 0
212040.0 284066.0 0
215345.0 282205.0 0
222041.0 282219.0 0
228261.0 281929.0 0
231474.0 283740.0 0
234717.0 281656.0 0
237962.0 283498.0 0
244531.0 283358.0 0
251148.0 283347.0 0
257782.0 283384.0 0
264430.0 283416.0 0
271091.0 283394.0 0
277782.0 283300.0 0
284510.0 283186.0 0
291258.0 283107.0 0
298010.0 283081.0 0
201987.0 285867.0 0
208708.0 285921.0 0
215463.0 286006.0 0
218782.0 284141.0 0
222263.0 286043.0 0
225908.0 284897.0 0
234684.0 285556.0 0
241208.0 285350.0 0
247813.0 285276.0 0
254444.0 285307.0 0
261091.0 285353.0 0
267748.0 285367.0 0
274423.0 285296.0 0
281138.0 285166.0 0
287884.0 285054.0 0
294636.0 285000.0 0
205355.0 287783.0 0
212113.0 287850.0 0
218912.0 287927.0 0
226004.0 288782.0 0
229342.0 286866.0 0
232778.0 288820.0 0
237893.0 287373.0 0
241097.0 289198.0 0
244461.0 287205.0 0
247722.0 289119.0 0
251093.0 287220.0 0
254375.0 289174.0 0
257742.0 287272.0 0
261047.0 289236.0 0
264403.0 287315.0 0
267719.0 289262.0 0
271070.0 287290.0 0
274405.0 289167.0 0
277769.0 287161.0 0
281137.0 288995.0 0
284510.0 287015.0 0
287895.0 288862.0 0
291264.0 286925.0 0
294644.0 288806.0 0
298011.0 286902.0 0
201988.0 289653.0 0
205365.0 291542.0 0
208744.0 289692.0 0
212149.0 291596.0 0
215538.0 289769.0 0
218965.0 291693.0 0
222350.0 289857.0 0
229419.0 290742.0 0
236225.0 290755.0 0
244312.0 290992.0 0
250982.0 291061.0 0
257670.0 291131.0 0
264359.0 291196.0 0
271043.0 291173.0 0
277765.0 290997.0 0
284528.0 290814.0 0
291283.0 290719.0 0
298012.0 290704.0 0
201987.0 293408.0 0
208750.0 293427.0 0
215558.0 293504.0 0
222383.0 293637.0 0
226063.0 292656.0 0
232845.0 292672.0 0
239680.0 292688.0 0
247545.0 292920.0 0
254268.0 293005.0 0
260975.0 293091.0 0
267678.0 293143.0 0
274392.0 293015.0 0
281159.0 292788.0 0
287931.0 292641.0 0
291328.0 294492.0 0
294662.0 292594.0 0
298014.0 294493.0 0
205356.0 295274.0 0
212136.0 295313.0 0
218963.0 295431.0 0
226096.0 296529.0 0
229470.0 294602.0 0
232900.0 296501.0 0
236285.0 294581.0 0
240540.0 296382.0 0
243983.0 294657.0 0
247355.0 296645.0 0
250835.0 294854.0 0
254134.0 296799.0 0
257563.0 294956.0 0
260857.0 296915.0 0
264287.0 295053.0 0
267613.0 297007.0 0
271013.0 295044.0 0
274402.0 296826.0 0
277787.0 294797.0 0
281239.0 296536.0 0
284585.0 294577.0 0
288016.0 296396.0 0
294691.0 296373.0 0
201986.0 297143.0 0
205329.0 298994.0 0
208713.0 297138.0 0
212045.0 299000.0 0
215519.0 297207.0 0
218903.0 299135.0 0
222368.0 297375.0 0
229514.0 298443.0 0
237174.0 298239.0 0
243922.0 298409.0 0
250689.0 298610.0 0
257423.0 298756.0 0
264139.0 298876.0 0
270985.0 298899.0 0
277884.0 298546.0 0
284735.0 298303.0 0
291396.0 298261.0 0
298017.0 298278.0 0
201984.0 300871.0 0
208643.0 300848.0 0
215332.0 300860.0 0
222331.0 301063.0 0
226132.0 300402.0 0
230619.0 302043.0 0
233866.0 300131.0 0
237254.0 302053.0 0
240558.0 300196.0 0
243901.0 302191.0 0
247270.0 300401.0 0
250578.0 302378.0 0
253989.0 300574.0 0
260689.0 300724.0 0
267387.0 300827.0 0
274467.0 300559.0 0
278422.0 302154.0 0
281508.0 300212.0 0
284932.0 302053.0 0
288139.0 300154.0 0
291475.0 302040.0 0
294728.0 300154.0 0
298019.0 302065.0 0
201981.0 304599.0 0
205293.0 302717.0 0
208568.0 304572.0 0
211915.0 302705.0 0
215123.0 304576.0 0
218512.0 302736.0 0
221569.0 304581.0 0
227450.0 303986.0 0
234005.0 303947.0 0
240589.0 304011.0 0
247207.0 304178.0 0
253842.0 304355.0 0
257254.0 302546.0 0
260471.0 304537.0 0
263914.0 302708.0 0
267092.0 304667.0 0
270621.0 302706.0 0
275448.0 304043.0 0
281807.0 303974.0 0
288264.0 303935.0 0
294764.0 303942.0 0
205260.0 306446.0 0
211800.0 306439.0 0
218276.0 306464.0 0
224613.0 306234.0 0
230823.0 305877.0 0
237331.0 305877.0 0
243886.0 305991.0 0
250471.0 306162.0 0
257054.0 306344.0 0
263620.0 306565.0 0
269479.0 307387.0 0
272506.0 305787.0 0
278740.0 305912.0 0
285105.0 305848.0 0
291545.0 305833.0 0
298021.0 305853.0 0
201979.0 308325.0 0
208508.0 308307.0 0
214998.0 308321.0 0
221444.0 308302.0 0
224653.0 310024.0 0
227789.0 307934.0 0
230999.0 309762.0 0
234127.0 307785.0 0
237391.0 309712.0 0
240615.0 307832.0 0
243864.0 309803.0 0
247146.0 307975.0 0
250364.0 309966.0 0
253688.0 308154.0 0
256843.0 310171.0 0
260194.0 308365.0 0
266358.0 308944.0 0
272539.0 309548.0 0
275670.0 307794.0 0
278858.0 309693.0 0
281983.0 307777.0 0
285203.0 309656.0 0
288361.0 307738.0 0
291593.0 309632.0 0
294794.0 307735.0 0
298023.0 309640.0 0
201978.0 312047.0 0
205236.0 310176.0 0
208473.0 312037.0 0
211732.0 310178.0 0
214951.0 312049.0 0
218201.0 310192.0 0
221430.0 312009.0 0
227852.0 311777.0 0
234215.0 311639.0 0
240624.0 311658.0 0
247080.0 311785.0 0
253535.0 311975.0 0
259898.0 312262.0 0
263142.0 310532.0 0
266149.0 312783.0 0
269359.0 311187.0 0
275691.0 311538.0 0
282046.0 311572.0 0
288411.0 311539.0 0
294812.0 311526.0 0
205222.0 313897.0 0
211703.0 313901.0 0
218183.0 313898.0 0
224652.0 313777.0 0
231046.0 313600.0 0
237421.0 313548.0 0
243831.0 313621.0 0
250259.0 313783.0 0
256644.0 314027.0 0
262941.0 314417.0 0
269254.0 314943.0 0
272482.0 313281.0 0
275645.0 315268.0 0
278862.0 313453.0 0
282037.0 315341.0 0
285232.0 313449.0 0
288419.0 315323.0 0
291614.0 313422.0 0
294817.0 315302.0 0
298024.0 313417.0 0
201977.0 315756.0 0
205216.0 317601.0 0
208458.0 315752.0 0
211692.0 317604.0 0
214936.0 315757.0 0
218171.0 317595.0 0
221416.0 315714.0 0
224634.0 317511.0 0
227854.0 315566.0 0
231040.0 317399.0 0
234234.0 315467.0 0
237411.0 317366.0 0
240612.0 315482.0 0
243784.0 317437.0 0
247009.0 315601.0 0
250158.0 317603.0 0
253396.0 315808.0 0
256507.0 317866.0 0
259727.0 316125.0 0
266034.0 316583.0 0
272409.0 317006.0 0
278819.0 317193.0 0
285215.0 317216.0 0
291612.0 317193.0 0
298024.0 317177.0 0
201976.0 319449.0 0
208452.0 319447.0 0
214926.0 319448.0 0
221397.0 319415.0 0
227831.0 319325.0 0
234214.0 319266.0 0
240575.0 319292.0 0
246934.0 319413.0 0
253285.0 319630.0 0
259616.0 319949.0 0
262825.0 318246.0 0
265954.0 320359.0 0
269176.0 318690.0 0
272342.0 320731.0 0
275582.0 318990.0 0
281994.0 319087.0 0
288399.0 319081.0 0
294813.0 319056.0 0
201976.0 323124.0 0
205213.0 321286.0 0
208447.0 323123.0 0
211685.0 321289.0 0
214915.0 323126.0 0
218155.0 321282.0 0
221372.0 323109.0 0
224606.0 321231.0 0
227795.0 323062.0 0
231010.0 321168.0 0
234172.0 323040.0 0
237373.0 321162.0 0
240519.0 323084.0 0
243723.0 321241.0 0
246856.0 323211.0 0
250068.0 321411.0 0
256404.0 321678.0 0
262741.0 322039.0 0
269109.0 322433.0 0
275515.0 322712.0 0
278758.0 320921.0 0
281936.0 322814.0 0
285174.0 320958.0 0
288364.0 322811.0 0
291594.0 320936.0 0
294801.0 322782.0 0
298024.0 320913.0 0
205210.0 324953.0 0
211677.0 324958.0 0
218136.0 324959.0 0
224572.0 324938.0 0
230965.0 324916.0 0
237319.0 324937.0 0
243651.0 325027.0 0
249979.0 325199.0 0
253191.0 323428.0 0
256314.0 325460.0 0
259529.0 323739.0 0
262667.0 325802.0 0
265887.0 324118.0 0
272277.0 324459.0 0
278692.0 324641.0 0
285122.0 324677.0 0
291567.0 324650.0 0
298024.0 324619.0 0
201975.0 326780.0 0
208441.0 326782.0 0
214901.0 326791.0 0
221344.0 326792.0 0
227753.0 326782.0 0
234118.0 326793.0 0
240451.0 326856.0 0
246772.0 326988.0 0
253098.0 327201.0 0
259445.0 327499.0 0
265819.0 327859.0 0
269046.0 326170.0 0
272212.0 328186.0 0
275448.0 326433.0 0
278623.0 328355.0 0
281873.0 326526.0 0
285066.0 328373.0 0
288321.0 326514.0 0
291538.0 328332.0 0
294787.0 326476.0 0
298024.0 328294.0 0
201974.0 330418.0 0
205207.0 328601.0 0
208434.0 330423.0 0
211667.0 328611.0 0
214884.0 330443.0 0
218114.0 328625.0 0
221313.0 330464.0 0
224534.0 328632.0 0
227706.0 330486.0 0
230914.0 328645.0 0
234057.0 330528.0 0
237254.0 328692.0 0
240374.0 330610.0 0
243570.0 328794.0 0
246677.0 330746.0 0
249884.0 328964.0 0
252993.0 330948.0 0
256219.0 329212.0 0
262587.0 329540.0 0
268979.0 329899.0 0
275379.0 330154.0 0
281808.0 330224.0 0
288278.0 330189.0 0
294773.0 330137.0 0
205203.0 332232.0 0
211654.0 332249.0 0
218090.0 332279.0 0
224495.0 332313.0 0
230859.0 332358.0 0
237183.0 332430.0 0
243480.0 332543.0 0
249775.0 332707.0 0
256103.0 332937.0 0
259347.0 331228.0 0
262485.0 333247.0 0
265740.0 331579.0 0
268900.0 333616.0 0
272142.0 331913.0 0
278554.0 332063.0 0
285012.0 332047.0 0
291510.0 331983.0 0
298024.0 331938.0 0
201974.0 334039.0 0
205199.0 335846.0 0
208426.0 334049.0 0
211641.0 335872.0 0
214866.0 334080.0 0
218065.0 335920.0 0
221281.0 334124.0 0
224456.0 335981.0 0
227659.0 334177.0 0
230804.0 336057.0 0
233993.0 334248.0 0
237109.0 336154.0 0
240291.0 334348.0 0
246572.0 334487.0 0
252865.0 334673.0 0
259215.0 334927.0 0
265635.0 335271.0 0
272063.0 335637.0 0
275307.0 333876.0 0
278486.0 335763.0 0
281746.0 333907.0 0
284967.0 335697.0 0
288239.0 333835.0 0
291489.0 335602.0 0
294760.0 333766.0 0
298024.0 335550.0 0
201973.0 337643.0 0
208417.0 337659.0 0
214847.0 337704.0 0
221250.0 337770.0 0
227613.0 337853.0 0
233929.0 337953.0 0
240206.0 338074.0 0
243383.0 336279.0 0
246457.0 338218.0 0
249649.0 336437.0 0
252711.0 338387.0 0
255945.0 336637.0 0
259013.0 338593.0 0
262336.0 336917.0 0
268798.0 337311.0 0
275233.0 337598.0 0
281698.0 337571.0 0
288215.0 337452.0 0
294753.0 337364.0 0
302245.0 339381.0 0
201972.0 341231.0 0
205194.0 339444.0 0
208409.0 341254.0 0
211628.0 339481.0 0
214829.0 341313.0 0
218041.0 339547.0 0
221220.0 341403.0 0
224418.0 339635.0 0
230750.0 339742.0 0
237036.0 339865.0 0
243283.0 340006.0 0
249512.0 340162.0 0
255751.0 340333.0 0
262059.0 340535.0 0
265474.0 338917.0 0
268641.0 340960.0 0
271971.0 339355.0 0
275180.0 341317.0 0
278437.0 339453.0 0
281693.0 341211.0 0
284948.0 339321.0 0
288220.0 341044.0 0
291482.0 339193.0 0
294755.0 340936.0 0
298024.0 339134.0 0
205190.0 343027.0 0
211615.0 343075.0 0
218018.0 343159.0 0
224384.0 343276.0 0
227569.0 341516.0 0
230701.0 343415.0 0
233868.0 341647.0 0
236966.0 343567.0 0
240121.0 341791.0 0
243185.0 343727.0 0
246339.0 341945.0 0
249371.0 343889.0 0
252543.0 342105.0 0
255544.0 344045.0 0
258761.0 342268.0 0
265055.0 342455.0 0
271884.0 343048.0 0
278463.0 343122.0 0
284980.0 342921.0 0
291496.0 342763.0 0
298025.0 342694.0 0
201972.0 344804.0 0
205186.0 346597.0 0
208400.0 344836.0 0
211603.0 346657.0 0
214811.0 344908.0 0
221194.0 345021.0 0
227531.0 345166.0 0
233813.0 345329.0 0
240041.0 345500.0 0
246224.0 345671.0 0
252376.0 345834.0 0
258507.0 345980.0 0
261723.0 344190.0 0
264602.0 346114.0 0
267911.0 344368.0 0
270540.0 346247.0 0
275265.0 345019.0 0
278666.0 346786.0 0
281782.0 344832.0 0
285075.0 346520.0 0
288262.0 344621.0 0
291529.0 346322.0 0
294766.0 344489.0 0
298026.0 346235.0 0
302175.0 347465.0 0
201971.0 348362.0 0
208393.0 348406.0 0
214796.0 348490.0 0
217998.0 346756.0 0
221173.0 348623.0 0
224356.0 346901.0 0
227501.0 348802.0 0
230659.0 347075.0 0
233766.0 349000.0 0
236902.0 347259.0 0
239968.0 349203.0 0
243092.0 347444.0 0
249238.0 347621.0 0
255349.0 347780.0 0
261417.0 347916.0 0
267385.0 348058.0 0
273227.0 347832.0 0
276118.0 349167.0 0
281973.0 348476.0 0
288334.0 348202.0 0
294784.0 348028.0 0
201971.0 351908.0 0
205184.0 350155.0 0
208389.0 351966.0 0
211592.0 350227.0 0
217982.0 350337.0 0
224336.0 350511.0 0
230627.0 350722.0 0
236848.0 350943.0 0
243007.0 351158.0 0
246117.0 349398.0 0
249116.0 351357.0 0
252223.0 349575.0 0
255181.0 351530.0 0
258286.0 349727.0 0
261192.0 351677.0 0
264277.0 349863.0 0
267167.0 351772.0 0
270227.0 349907.0 0
273208.0 351486.0 0
279137.0 350641.0 0
285207.0 350146.0 0
288417.0 351795.0 0
291573.0 349878.0 0
294804.0 351557.0 0
298028.0 349758.0 0
205184.0 353703.0 0
211587.0 353790.0 0
214785.0 352058.0 0
217975.0 353901.0 0
221161.0 352207.0 0
224331.0 354102.0 0
227484.0 352422.0 0
230612.0 354356.0 0
233731.0 352661.0 0
239905.0 352900.0 0
246019.0 353123.0 0
252090.0 353320.0 0
258117.0 353486.0 0
264110.0 353605.0 0
270153.0 353539.0 0
276222.0 352915.0 0
279246.0 354395.0 0
282220.0 352220.0 0
285343.0 353809.0 0
291618.0 353435.0 0
298029.0 353261.0 0
201971.0 355437.0 0
205190.0 357238.0 0
208391.0 355522.0 0
211588.0 357352.0 0
214780.0 355616.0 0
221164.0 355770.0 0
227488.0 356025.0 0
233715.0 356313.0 0
236807.0 354620.0 0
239850.0 356594.0 0
242931.0 354869.0 0
245929.0 356845.0 0
249006.0 355092.0 0
251975.0 357060.0 0
255045.0 355281.0 0
261056.0 355426.0 0
267085.0 355455.0 0
270108.0 357177.0 0
273186.0 355120.0 0
276218.0 356602.0 0
282304.0 355916.0 0
288490.0 355397.0 0
291651.0 356989.0 0
294820.0 355072.0 0
298031.0 356740.0 0
197757.0 359008.0 0
201971.0 358945.0 0
208400.0 359074.0 0
214784.0 359169.0 0
217980.0 357443.0 0
221202.0 359302.0 0
224354.0 357671.0 0
227544.0 359607.0 0
230626.0 357977.0 0
236778.0 358293.0 0
242860.0 358578.0 0
248905.0 358821.0 0
254938.0 359019.0 0
257999.0 357231.0 0
260973.0 359150.0 0
264028.0 357318.0 0
267037.0 359130.0 0
273145.0 358764.0 0
279255.0 358081.0 0
282322.0 359560.0 0
285400.0 357444.0 0
288524.0 358981.0 0
294829.0 358563.0 0
201969.0 362421.0 0
205192.0 360749.0 0
208381.0 362615.0 0
211593.0 360921.0 0
218018.0 360949.0 0
224473.0 361203.0 0
230670.0 361596.0 0
233717.0 359962.0 0
236755.0 361970.0 0
239800.0 360288.0 0
242785.0 362288.0 0
245840.0 360564.0 0
251871.0 360789.0 0
257912.0 360954.0 0
263975.0 361016.0 0
270066.0 360834.0 0
273100.0 362419.0 0
276183.0 360263.0 0
279239.0 361722.0 0
285421.0 361041.0 0
291662.0 360531.0 0
294824.0 362016.0 0
298032.0 360184.0 0
205160.0 364239.0 0
211519.0 364492.0 0
214809.0 362716.0 0
218475.0 364296.0 0
221433.0 362763.0 0
224656.0 364754.0 0
227644.0 363194.0 0
233726.0 363619.0 0
239745.0 363987.0 0
245744.0 364280.0 0
248803.0 362542.0 0
251762.0 364500.0 0
254840.0 362736.0 0
257827.0 364652.0 0
260909.0 362852.0 0
263928.0 364703.0 0
266996.0 362811.0 0
270023.0 364510.0 0
276150.0 363904.0 0
282326.0 363161.0 0
285442.0 364607.0 0
288540.0 362543.0 0
291659.0 364072.0 0
298032.0 363584.0 0
201965.0 365866.0 0
205041.0 367743.0 0
208236.0 366157.0 0
213201.0 367375.0 0
215783.0 365916.0 0
221731.0 366285.0 0
227747.0 366811.0 0
230720.0 365233.0 0
233717.0 367295.0 0
236721.0 365658.0 0
242700.0 366000.0 0
248687.0 366253.0 0
254727.0 366428.0 0
260837.0 366531.0 0
266957.0 366505.0 0
273060.0 366077.0 0
276134.0 367517.0 0
279233.0 365325.0 0
282358.0 366724.0 0
288566.0 366097.0 0
291654.0 367653.0 0
294807.0 365404.0 0
298032.0 366932.0 0
201959.0 369283.0 0
207657.0 369951.0 0
210492.0 368625.0 0
216199.0 369479.0 0
218934.0 367854.0 0
221981.0 369911.0 0
224825.0 368361.0 0
230739.0 368900.0 0
236661.0 369359.0 0
239672.0 367695.0 0
242596.0 369717.0 0
245632.0 367996.0 0
248551.0 369964.0 0
251624.0 368196.0 0
254560.0 370097.0 0
257710.0 368320.0 0
263870.0 368377.0 0
266916.0 370210.0 0
269987.0 368207.0 0
273046.0 369725.0 0
279256.0 368883.0 0
285511.0 368154.0 0
288675.0 369675.0 0
294755.0 368672.0 0
298049.0 370227.0 0
201948.0 372628.0 0
204836.0 371427.0 0
210410.0 372195.0 0
213358.0 370863.0 0
216403.0 373040.0 0
219201.0 371487.0 0
224908.0 372044.0 0
227797.0 370478.0 0
230695.0 372598.0 0
233667.0 370991.0 0
239575.0 371409.0 0
245503.0 371716.0 0
251461.0 371895.0 0
257490.0 371948.0 0
260720.0 370175.0 0
263769.0 372013.0 0
269978.0 371921.0 0
276177.0 371091.0 0
279350.0 372407.0 0
282405.0 370242.0 0
285536.0 371655.0 0
288599.0 373180.0 0
291820.0 371375.0 0
295127.0 371700.0 0
298038.0 373696.0 0
198350.0 378303.0 0
200585.0 375741.0 0
204118.0 375101.0 0
207429.0 373618.0 0
213483.0 374187.0 0
219285.0 375173.0 0
222079.0 373615.0 0
227751.0 374192.0 0
233572.0 374699.0 0
236566.0 373069.0 0
239445.0 375127.0 0
242470.0 373438.0 0
245355.0 375438.0 0
248399.0 373681.0 0
254361.0 373780.0 0
260396.0 373738.0 0
266864.0 373913.0 0
270142.0 375622.0 0
273135.0 373339.0 0
276380.0 374626.0 0
282482.0 373759.0 0
285531.0 375187.0 0
291330.0 375095.0 0
294430.0 374494.0 0
299670.0 377063.0 0
195585.0 380031.0 0
201241.0 379105.0 0
203930.0 378603.0 0
206907.0 376830.0 0
209643.0 378428.0 0
210427.0 375568.0 0
213601.0 377325.0 0
216500.0 376656.0 0
221937.0 377389.0 0
224838.0 375788.0 0
230598.0 376309.0 0
236430.0 376783.0 0
242315.0 377157.0 0
248236.0 377404.0 0
251288.0 375608.0 0
254164.0 377494.0 0
257238.0 375615.0 0
260068.0 377405.0 0
263227.0 375462.0 0
265788.0 377206.0 0
268356.0 378612.0 0
273532.0 376885.0 0
279550.0 375952.0 0
282625.0 377333.0 0
288374.0 376835.0 0
291000.0 378828.0 0
293828.0 377803.0 0
296792.0 376955.0 0
299377.0 379885.0 0
302484.0 378824.0 0
305331.0 380601.0 0
189978.0 383532.0 0
192810.0 381763.0 0
195753.0 383132.0 0
198529.0 381315.0 0
201637.0 382052.0 0
206829.0 380239.0 0
212512.0 379790.0 0
215955.0 380417.0 0
219006.0 378969.0 0
221816.0 381085.0 0
224730.0 379508.0 0
227652.0 377911.0 0
230450.0 380031.0 0
233428.0 378414.0 0
239277.0 378841.0 0
245184.0 379156.0 0
251113.0 379333.0 0
257017.0 379344.0 0
262787.0 379203.0 0
265555.0 380899.0 0
271245.0 379440.0 0
276759.0 378208.0 0
277325.0 381903.0 0
279874.0 379568.0 0
282839.0 381019.0 0
285538.0 378847.0 0
288266.0 380578.0 0
293786.0 381189.0 0
296537.0 380404.0 0
299392.0 382896.0 0
302341.0 381817.0 0
305286.0 383621.0 0
308217.0 382402.0 0
187123.0 385319.0 0
192920.0 384799.0 0
198868.0 384246.0 0
201897.0 385158.0 0
204420.0 382315.0 0
207395.0 383611.0 0
209976.0 381704.0 0
210626.0 384821.0 0
213389.0 382805.0 0
218876.0 382581.0 0
224583.0 383230.0 0
227502.0 381639.0 0
230245.0 383767.0 0
233232.0 382137.0 0
236246.0 380497.0 0
239065.0 382548.0 0
242125.0 380868.0 0
244983.0 382861.0 0
248056.0 381122.0 0
250934.0 383057.0 0
253984.0 381231.0 0
256844.0 383110.0 0
259824.0 381182.0 0
262659.0 382967.0 0
268577.0 382130.0 0
271648.0 383096.0 0
274263.0 380621.0 0
274775.0 384269.0 0
280304.0 383305.0 0
285637.0 382612.0 0
290984.0 382448.0 0
293876.0 384423.0 0
296614.0 383966.0 0
299530.0 386081.0 0
302380.0 384885.0 0
308314.0 385365.0 0
311175.0 384245.0 0
314211.0 386147.0 0
181406.0 388894.0 0
184265.0 387107.0 0
187171.0 388412.0 0
190044.0 386578.0 0
193087.0 387768.0 0
195994.0 386146.0 0
199026.0 387251.0 0
204754.0 385798.0 0
207767.0 386769.0 0
213587.0 386280.0 0
216247.0 384287.0 0
218936.0 386388.0 0
221681.0 384775.0 0
227295.0 385387.0 0
232983.0 385867.0 0
236012.0 384210.0 0
241896.0 384562.0 0
247853.0 384823.0 0
253818.0 384969.0 0
259727.0 384956.0 0
262719.0 386657.0 0
265673.0 384473.0 0
268834.0 385593.0 0
272133.0 386605.0 0
277810.0 385625.0 0
283160.0 384825.0 0
285917.0 386440.0 0
288344.0 384305.0 0
291073.0 385994.0 0
296917.0 387579.0 0
302672.0 387964.0 0
305469.0 386644.0 0
308572.0 388314.0 0
311436.0 387135.0 0
317118.0 387967.0 0
319950.0 389741.0 0
178528.0 390691.0 0
184295.0 390251.0 0
187229.0 391490.0 0
190173.0 389592.0 0
193259.0 390741.0 0
196146.0 389227.0 0
199152.0 390318.0 0
202013.0 388347.0 0
204890.0 389111.0 0
207809.0 389874.0 0
210771.0 388127.0 0
216285.0 388103.0 0
221545.0 388593.0 0
224376.0 386981.0 0
227039.0 389159.0 0
229991.0 387519.0 0
232694.0 389608.0 0
235731.0 387923.0 0
238500.0 389931.0 0
238804.0 386244.0 0
244744.0 386543.0 0
247610.0 388493.0 0
250735.0 386758.0 0
253636.0 388671.0 0
256726.0 386856.0 0
259707.0 388679.0 0
265887.0 387973.0 0
266886.0 391074.0 0
269456.0 388899.0 0
275261.0 387918.0 0
278262.0 389371.0 0
280740.0 387105.0 0
283587.0 388676.0 0
288653.0 388062.0 0
294005.0 387471.0 0
291512.0 389549.0 0
297690.0 391127.0 0
300012.0 389305.0 0
303075.0 391179.0 0
305750.0 389715.0 0
308609.0 391383.0 0
311562.0 390063.0 0
314402.0 389257.0 0
317303.0 391168.0 0
322672.0 391445.0 0
172710.0 394322.0 0
175660.0 392484.0 0
178579.0 393832.0 0
181399.0 392031.0 0
184264.0 393416.0 0
190238.0 392576.0 0
193350.0 393624.0 0
196377.0 392405.0 0
199464.0 393436.0 0
202138.0 391640.0 0
204947.0 392413.0 0
207883.0 392890.0 0
210752.0 391489.0 0
213566.0 389854.0 0
215992.0 391917.0 0
218786.0 390254.0 0
224151.0 390796.0 0
229701.0 391290.0 0
235420.0 391642.0 0
241291.0 391894.0 0
241617.0 388236.0 0
244452.0 390194.0 0
250497.0 390422.0 0
256573.0 390545.0 0
262839.0 390288.0 0
264510.0 393082.0 0
270126.0 392432.0 0
272676.0 390179.0 0
275719.0 391614.0 0
281189.0 390908.0 0
286400.0 390289.0 0
289268.0 391791.0 0
294719.0 390522.0 0
298783.0 394539.0 0
300722.0 392681.0 0
305694.0 393028.0 0
311721.0 392916.0 0
314574.0 392336.0 0
320026.0 393073.0 0
325308.0 393087.0 0
169781.0 396150.0 0
175525.0 395550.0 0
178267.0 396872.0 0
181512.0 395244.0 0
184470.0 396729.0 0
187135.0 394546.0 0
190125.0 395479.0 0
193211.0 396369.0 0
196396.0 395602.0 0
202762.0 395136.0 0
206236.0 395597.0 0
209887.0 395050.0 0
213047.0 393525.0 0
218469.0 394063.0 0
221320.0 392441.0 0
223876.0 394636.0 0
226762.0 392968.0 0
232385.0 393363.0 0
238175.0 393623.0 0
244094.0 393820.0 0
247311.0 392123.0 0
253409.0 392330.0 0
256328.0 394215.0 0
259558.0 392334.0 0
261829.0 394656.0 0
267587.0 394633.0 0
273166.0 393863.0 0
270613.0 396102.0 0
276094.0 395352.0 0
278675.0 393121.0 0
281625.0 394651.0 0
284107.0 392492.0 0
287082.0 394076.0 0
292411.0 392910.0 0
295631.0 393754.0 0
300644.0 397166.0 0
302998.0 394887.0 0
306243.0 396213.0 0
308767.0 394376.0 0
311864.0 395743.0 0
314740.0 395355.0 0
317475.0 394429.0 0
322404.0 394802.0 0
325217.0 396053.0 0
328141.0 394855.0 0
331032.0 396663.0 0
166780.0 398025.0 0
169677.0 399114.0 0
172638.0 397408.0 0
175423.0 398754.0 0
180921.0 398191.0 0
183336.0 399525.0 0
187614.0 397704.0 0
190942.0 398517.0 0
194637.0 398809.0 0
199599.0 396197.0 0
197782.0 398753.0 0
201349.0 398557.0 0
204607.0 398146.0 0
208471.0 398043.0 0
212220.0 396949.0 0
215482.0 395587.0 0
221006.0 396257.0 0
226436.0 396801.0 0
229392.0 395083.0 0
232079.0 397127.0 0
235109.0 395373.0 0
237867.0 397336.0 0
240948.0 395564.0 0
243724.0 397472.0 0
246902.0 395709.0 0
249688.0 397572.0 0
250189.0 394037.0 0
253085.0 395935.0 0
258961.0 396290.0 0
264798.0 396598.0 0
267894.0 398209.0 0
273566.0 397611.0 0
278962.0 396839.0 0
281816.0 398261.0 0
284669.0 396172.0 0
287940.0 397652.0 0
290245.0 395313.0 0
293613.0 396207.0 0
297029.0 396982.0 0
303830.0 398214.0 0
307050.0 399363.0 0
309578.0 397470.0 0
313365.0 398381.0 0
316740.0 397850.0 0
319608.0 396702.0 0
322272.0 397983.0 0
325289.0 398881.0 0
328228.0 397856.0 0
333914.0 398466.0 0
160572.0 401905.0 0
163684.0 399958.0 0
166524.0 400929.0 0
169380.0 402023.0 0
172537.0 400550.0 0
175341.0 402008.0 0
178171.0 400167.0 0
180841.0 401676.0 0
186018.0 400243.0 0
189099.0 400885.0 0
192542.0 401253.0 0
205869.0 400892.0 0
208894.0 401058.0 0
214994.0 399029.0 0
218071.0 397754.0 0
220541.0 400043.0 0
223502.0 398480.0 0
229067.0 398872.0 0
234824.0 399113.0 0
240638.0 399271.0 0
246481.0 399353.0 0
252393.0 399405.0 0
255911.0 397971.0 0
258896.0 400043.0 0
261888.0 398325.0 0
265050.0 400127.0 0
270948.0 399774.0 0
276454.0 399143.0 0
279295.0 400620.0 0
284711.0 399543.0 0
287480.0 400793.0 0
291476.0 398576.0 0
295056.0 399330.0 0
301854.0 400606.0 0
304997.0 401623.0 0
310409.0 400251.0 0
313397.0 401231.0 0
316360.0 400722.0 0
319497.0 400177.0 0
322488.0 401011.0 0
325526.0 401660.0 0
328421.0 400770.0 0
331263.0 399766.0 0
336631.0 400189.0 0
339153.0 401747.0 0
157462.0 403850.0 0
160285.0 404879.0 0
163396.0 402891.0 0
166257.0 403866.0 0
172151.0 403628.0 0
178134.0 403522.0 0
183715.0 402821.0 0
186932.0 403372.0 0
190337.0 403772.0 0
195974.0 401711.0 0
199272.0 401540.0 0
202635.0 401312.0 0
211765.0 399998.0 0
214277.0 402441.0 0
217478.0 401388.0 0
223033.0 402294.0 0
226057.0 400621.0 0
228748.0 402619.0 0
231795.0 400880.0 0
237603.0 401070.0 0
240384.0 403022.0 0
243400.0 401187.0 0
246146.0 403088.0 0
249201.0 401215.0 0
251840.0 403084.0 0
254972.0 401278.0 0
257414.0 403022.0 0
262164.0 401931.0 0
268219.0 401806.0 0
271322.0 403458.0 0
273936.0 401378.0 0
276840.0 402985.0 0
282163.0 401952.0 0
285126.0 403169.0 0
290353.0 401336.0 0
293475.0 401856.0 0
296859.0 402422.0 0
298671.0 399851.0 0
303262.0 404122.0 0
308242.0 402559.0 0
311422.0 403526.0 0
314960.0 403852.0 0
318171.0 403390.0 0
321139.0 403611.0 0
324269.0 404177.0 0
327774.0 403890.0 0
330904.0 402929.0 0
333937.0 401796.0 0
339250.0 404608.0 0
342095.0 403573.0 0
344895.0 405340.0 0
151239.0 407742.0 0
154322.0 405812.0 0
157076.0 406829.0 0
163143.0 405853.0 0
166027.0 406834.0 0
169139.0 405010.0 0
174785.0 405090.0 0
177354.0 406452.0 0
181041.0 405033.0 0
184428.0 405783.0 0
187765.0 406287.0 0
193771.0 404176.0 0
197297.0 404613.0 0
200838.0 404280.0 0
204280.0 404067.0 0
207567.0 403959.0 0
211079.0 403437.0 0
216687.0 404936.0 0
219932.0 403765.0 0
225661.0 404398.0 0
231559.0 404605.0 0
234583.0 402852.0 0
237381.0 404819.0 0
243159.0 404959.0 0
248863.0 404987.0 0
254487.0 404958.0 0
260057.0 404401.0 0
262899.0 405803.0 0
265426.0 403697.0 0
268610.0 405444.0 0
274384.0 405180.0 0
279685.0 404434.0 0
282771.0 405580.0 0
286045.0 406544.0 0
288335.0 404101.0 0
291603.0 404583.0 0
294947.0 405041.0 0
300146.0 403236.0 0
306410.0 405031.0 0
309614.0 405901.0 0
313108.0 406365.0 0
316639.0 406475.0 0
319834.0 406498.0 0
323023.0 406775.0 0
326479.0 406623.0 0
329960.0 406073.0 0
333176.0 405069.0 0
336288.0 403882.0 0
338276.0 407106.0 0
341868.0 406659.0 0
347668.0 407076.0 0
148211.0 409639.0 0
154008.0 408872.0 0
156826.0 409898.0 0
159859.0 407808.0 0
162668.0 408733.0 0
165498.0 409666.0 0
168941.0 407987.0 0
171889.0 406939.0 0
174472.0 408474.0 0
179726.0 407855.0 0
182562.0 408338.0 0
185608.0 408921.0 0
191000.0 406704.0 0
194094.0 407074.0 0
196824.0 407711.0 0
199755.0 407279.0 0
202941.0 407097.0 0
206249.0 406933.0 0
209738.0 406470.0 0
213312.0 405840.0 0
219188.0 407367.0 0
222516.0 406033.0 0
228505.0 406283.0 0
231330.0 408336.0 0
234363.0 406593.0 0
240186.0 406800.0 0
245932.0 406888.0 0
251607.0 406863.0 0
254454.0 408649.0 0
257311.0 406638.0 0
260238.0 408095.0 0
265834.0 407429.0 0
271857.0 407110.0 0
277186.0 406946.0 0
280411.0 408069.0 0
283760.0 409009.0 0
289445.0 407254.0 0
292842.0 407712.0 0
296227.0 408236.0 0
298305.0 405726.0 0
301643.0 406741.0 0
304755.0 407645.0 0
307948.0 408437.0 0
311367.0 408919.0 0
314880.0 409173.0 0
318318.0 409365.0 0
321672.0 409487.0 0
325161.0 409411.0 0
328628.0 409007.0 0
332035.0 408320.0 0
335248.0 407284.0 0
340751.0 409302.0 0
344476.0 408525.0 0
348070.0 409968.0 0
350831.0 409033.0 0
145222.0 411512.0 0
148061.0 412830.0 0
151014.0 410875.0 0
153878.0 412002.0 0
159695.0 410881.0 0
162622.0 411823.0 0
168385.0 410679.0 0
171567.0 410414.0 0
174562.0 411843.0 0
177193.0 409936.0 0
180242.0 411040.0 0
183290.0 411586.0 0
188728.0 409364.0 0
191884.0 409847.0 0
194920.0 410459.0 0
198219.0 410569.0 0
201381.0 410223.0 0
204704.0 409964.0 0
208204.0 409527.0 0
211811.0 408927.0 0
215536.0 408310.0 0
216448.0 411247.0 0
219473.0 410582.0 0
222516.0 409591.0 0
225450.0 408116.0 0
228236.0 409909.0 0
234213.0 410323.0 0
237200.0 408565.0 0
239973.0 410600.0 0
242983.0 408755.0 0
245878.0 410675.0 0
248754.0 408788.0 0
251630.0 410635.0 0
257385.0 410272.0 0
263174.0 409598.0 0
266219.0 411189.0 0
268813.0 409060.0 0
271733.0 410418.0 0
274884.0 409595.0 0
278190.0 410676.0 0
281598.0 411567.0 0
287192.0 409787.0 0
290645.0 410380.0 0
294038.0 410861.0 0
299663.0 408971.0 0
303161.0 410341.0 0
306351.0 411105.0 0
309730.0 411574.0 0
313197.0 411863.0 0
316669.0 412079.0 0
330723.0 411426.0 0
334125.0 410569.0 0
337337.0 410017.0 0
342665.0 411601.0 0
345604.0 411291.0 0
348283.0 413300.0 0
351040.0 412141.0 0
353855.0 410932.0 0
356773.0 412761.0 0
139302.0 415216.0 0
142261.0 413365.0 0
145140.0 414750.0 0
150955.0 414056.0 0
153906.0 415171.0 0
156796.0 413034.0 0
159778.0 414006.0 0
162844.0 414917.0 0
165638.0 412759.0 0
168966.0 413356.0 0
171975.0 413765.0 0
177702.0 413216.0 0
180869.0 414230.0 0
186392.0 412072.0 0
189571.0 412451.0 0
192834.0 413118.0 0
196188.0 413452.0 0
199526.0 413437.0 0
202878.0 413064.0 0
206356.0 412648.0 0
209854.0 412129.0 0
213260.0 411573.0 0
218332.0 413985.0 0
221732.0 413195.0 0
225077.0 412224.0 0
228290.0 413070.0 0
231447.0 412053.0 0
236832.0 412325.0 0
242950.0 412489.0 0
248784.0 412581.0 0
254579.0 412375.0 0
260292.0 411784.0 0
263173.0 413261.0 0
269453.0 412887.0 0
273287.0 413192.0 0
276503.0 413595.0 0
279761.0 414302.0 0
285041.0 412355.0 0
288506.0 413012.0 0
291938.0 413561.0 0
297404.0 411390.0 0
300804.0 412035.0 0
304858.0 413895.0 0
308199.0 414328.0 0
311623.0 414620.0 0
315075.0 414827.0 0
320154.0 412217.0 0
323700.0 412146.0 0
327299.0 411962.0 0
332920.0 413699.0 0
336236.0 413099.0 0
339493.0 412390.0 0
345115.0 414272.0 0
350943.0 415454.0 0
353848.0 414186.0 0
356698.0 415954.0 0
359723.0 414605.0 0
136323.0 417079.0 0
142229.0 416615.0 0
145178.0 418028.0 0
148055.0 416066.0 0
151020.0 417271.0 0
156917.0 416184.0 0
160000.0 417114.0 0
166075.0 415662.0 0
169259.0 416299.0 0
172445.0 416952.0 0
175154.0 415145.0 0
178378.0 416534.0 0
183981.0 414809.0 0
187142.0 415169.0 0
190435.0 415478.0 0
193991.0 416201.0 0
197356.0 416438.0 0
200893.0 416188.0 0
204438.0 415760.0 0
207984.0 415314.0 0
211467.0 414846.0 0
214876.0 414458.0 0
223524.0 415989.0 0
226753.0 415855.0 0
230456.0 415632.0 0
233876.0 414804.0 0
237138.0 415704.0 0
240007.0 414293.0 0
245860.0 414458.0 0
251775.0 414407.0 0
254757.0 416172.0 0
257522.0 414025.0 0
260445.0 415582.0 0
266041.0 414664.0 0
268650.0 416166.0 0
271654.0 416175.0 0
274849.0 416699.0 0
283119.0 415040.0 0
286549.0 415697.0 0
290005.0 416272.0 0
295303.0 414047.0 0
298615.0 414547.0 0
301994.0 414792.0 0
306946.0 417218.0 0
310248.0 417477.0 0
318562.0 414945.0 0
322117.0 414901.0 0
325728.0 414708.0 0
329427.0 414542.0 0
332709.0 416687.0 0
335746.0 416134.0 0
338874.0 415483.0 0
342018.0 414758.0 0
344514.0 417317.0 0
347729.0 416424.0 0
353681.0 417537.0 0
360137.0 417597.0 0
362917.0 416589.0 0
366043.0 418547.0 0
130240.0 420881.0 0
133306.0 418965.0 0
136307.0 420292.0 0
139293.0 418451.0 0
142292.0 419889.0 0
148156.0 419339.0 0
151182.0 420510.0 0
154043.0 418355.0 0
157130.0 419326.0 0
160291.0 420186.0 0
163184.0 417922.0 0
166389.0 418634.0 0
169632.0 419263.0 0
172924.0 419994.0 0
175757.0 418391.0 0
178993.0 419963.0 0
181522.0 417508.0 0
184669.0 418000.0 0
187948.0 418162.0 0
191395.0 418292.0 0
195039.0 419388.0 0
198776.0 419151.0 0
202482.0 418818.0 0
206095.0 418427.0 0
209646.0 418031.0 0
213144.0 417640.0 0
216650.0 417210.0 0
220148.0 416663.0 0
225212.0 419141.0 0
228724.0 418814.0 0
232325.0 418444.0 0
235717.0 418499.0 0
239595.0 418249.0 0
242800.0 416245.0 0
246009.0 418144.0 0
248921.0 416338.0 0
251915.0 418222.0 0
257766.0 417869.0 0
263362.0 417056.0 0
266261.0 418506.0 0
278055.0 417229.0 0
281344.0 417861.0 0
284725.0 418473.0 0
288171.0 419028.0 0
293454.0 416784.0 0
296877.0 417257.0 0
300338.0 417587.0 0
303845.0 417441.0 0
308965.0 420437.0 0
313615.0 417669.0 0
317016.0 417780.0 0
320438.0 417773.0 0
323818.0 417653.0 0
327056.0 417472.0 0
329988.0 417572.0 0
335129.0 419336.0 0
338239.0 418662.0 0
341375.0 417937.0 0
347028.0 419589.0 0
350289.0 418557.0 0
355104.0 420276.0 0
357449.0 418805.0 0
360433.0 420817.0 0
363229.0 419688.0 0
369127.0 420479.0 0
127111.0 422835.0 0
133256.0 422154.0 0
136318.0 423496.0 0
139349.0 421691.0 0
142433.0 423174.0 0
145315.0 421342.0 0
148366.0 422648.0 0
154272.0 421549.0 0
157434.0 422463.0 0
163479.0 420949.0 0
166691.0 421610.0 0
169910.0 422204.0 0
176310.0 421615.0 0
182062.0 420834.0 0
185334.0 421063.0 0
188578.0 421039.0 0
191853.0 420960.0 0
204203.0 421482.0 0
207780.0 421154.0 0
211319.0 420806.0 0
214846.0 420419.0 0
218365.0 419980.0 0
221833.0 419487.0 0
230449.0 421804.0 0
233907.0 421680.0 0
237454.0 421489.0 0
240799.0 421782.0 0
243061.0 419694.0 0
248939.0 420149.0 0
255018.0 419984.0 0
260754.0 419458.0 0
263790.0 420908.0 0
269608.0 419386.0 0
272863.0 419699.0 0
276175.0 420226.0 0
279517.0 420771.0 0
282916.0 421333.0 0
286372.0 421852.0 0
291663.0 419524.0 0
295169.0 419982.0 0
298701.0 420342.0 0
302272.0 420441.0 0
305698.0 420436.0 0
312299.0 420598.0 0
315662.0 420708.0 0
319037.0 420734.0 0
322391.0 420683.0 0
325680.0 420579.0 0
328861.0 420582.0 0
332126.0 420119.0 0
337471.0 421915.0 0
340638.0 421170.0 0
343805.0 420461.0 0
349266.0 421943.0 0
352254.0 420941.0 0
357768.0 422261.0 0
363377.0 422904.0 0
366266.0 421709.0 0
369290.0 423675.0 0
372193.0 422398.0 0
123948.0 424812.0 0
126925.0 426010.0 0
130098.0 424048.0 0
133106.0 425311.0 0
139435.0 424909.0 0
145550.0 424698.0 0
148711.0 425973.0 0
151479.0 423776.0 0
154699.0 424753.0 0
160605.0 423288.0 0
163773.0 424004.0 0
166919.0 424616.0 0
170029.0 425149.0 0
173156.0 422868.0 0
176284.0 424724.0 0
179527.0 423605.0 0
183050.0 423957.0 0
186522.0 424097.0 0
189930.0 423853.0 0
193602.0 423041.0 0
196905.0 422103.0 0
200567.0 421773.0 0
205856.0 424245.0 0
209407.0 423950.0 0
212948.0 423616.0 0
216479.0 423242.0 0
219985.0 422841.0 0
223449.0 422477.0 0
226938.0 422128.0 0
242892.0 424551.0 0
245756.0 421972.0 0
249186.0 423794.0 0
252145.0 421988.0 0
255284.0 423790.0 0
258106.0 421781.0 0
261227.0 423344.0 0
267122.0 421988.0 0
270596.0 422686.0 0
274038.0 423137.0 0
277514.0 423678.0 0
281003.0 424218.0 0
284524.0 424726.0 0
289894.0 422304.0 0
293458.0 422724.0 0
297050.0 423089.0 0
300659.0 423311.0 0
304201.0 423434.0 0
307647.0 423507.0 0
311014.0 423581.0 0
314393.0 423684.0 0
317771.0 423732.0 0
321133.0 423718.0 0
324458.0 423652.0 0
327735.0 423592.0 0
331064.0 423263.0 0
334335.0 422679.0 0
339831.0 424439.0 0
343012.0 423700.0 0
346171.0 422881.0 0
351708.0 424315.0 0
354735.0 423465.0 0
357490.0 425511.0 0
360531.0 424205.0 0
363380.0 426207.0 0
366339.0 424932.0 0
372309.0 425622.0 0
375253.0 424314.0 0
378319.0 426233.0 0
117569.0 428802.0 0
120765.0 426803.0 0
123746.0 428005.0 0
126753.0 429219.0 0
129921.0 427234.0 0
132919.0 428511.0 0
136110.0 426622.0 0
139072.0 427967.0 0
142624.0 426447.0 0
145900.0 428074.0 0
152050.0 427014.0 0
157918.0 425662.0 0
161143.0 426465.0 0
164381.0 427158.0 0
167650.0 427748.0 0
173112.0 425694.0 0
177996.0 427259.0 0
181182.0 426865.0 0
184660.0 427035.0 0
188206.0 427025.0 0
191630.0 426248.0 0
195185.0 425470.0 0
198688.0 424768.0 0
202280.0 424498.0 0
210962.0 426793.0 0
214510.0 426471.0 0
218044.0 426127.0 0
221556.0 425788.0 0
225066.0 425454.0 0
228575.0 425147.0 0
232069.0 424941.0 0
235610.0 424773.0 0
239136.0 424799.0 0
246339.0 425462.0 0
252227.0 425823.0 0
258572.0 425720.0 0
264563.0 424538.0 0
268098.0 425376.0 0
271703.0 425985.0 0
275293.0 426486.0 0
278909.0 427049.0 0
288103.0 425135.0 0
291731.0 425500.0 0
295383.0 425841.0 0
299033.0 426125.0 0
302644.0 426332.0 0
306194.0 426479.0 0
313119.0 426675.0 0
316545.0 426740.0 0
319946.0 426756.0 0
323315.0 426719.0 0
326649.0 426641.0 0
330003.0 426374.0 0
333344.0 425890.0 0
336627.0 425219.0 0
342277.0 426955.0 0
345478.0 426163.0 0
348628.0 425283.0 0
351236.0 427614.0 0
354367.0 426664.0 0
360323.0 427479.0 0
366291.0 428204.0 0
369315.0 426912.0 0
372318.0 428874.0 0
375343.0 427559.0 0
381400.0 428160.0 0
114360.0 430810.0 0
120561.0 430019.0 0
123588.0 431235.0 0
129777.0 430467.0 0
132811.0 431783.0 0
135900.0 429846.0 0
141887.0 429376.0 0
144440.0 430844.0 0
149437.0 429184.0 0
152819.0 430308.0 0
155343.0 428014.0 0
158625.0 428908.0 0
161934.0 429672.0 0
165297.0 430305.0 0
171001.0 428236.0 0
174680.0 428092.0 0
179376.0 430206.0 0
182774.0 430004.0 0
186368.0 430014.0 0
190048.0 429841.0 0
193242.0 428615.0 0
196871.0 427921.0 0
200345.0 427549.0 0
203869.0 427324.0 0
207412.0 427080.0 0
212456.0 429671.0 0
216022.0 429372.0 0
219573.0 429065.0 0
223112.0 428760.0 0
226639.0 428470.0 0
230154.0 428233.0 0
233684.0 428046.0 0
237218.0 427955.0 0
240828.0 427817.0 0
244325.0 427999.0 0
249069.0 427685.0 0
255543.0 427402.0 0
259411.0 429780.0 0
261954.0 427116.0 0
265550.0 428025.0 0
269236.0 428695.0 0
272916.0 429258.0 0
276593.0 429761.0 0
282544.0 427576.0 0
286236.0 427999.0 0
289963.0 428306.0 0
293698.0 428603.0 0
297394.0 428915.0 0
301054.0 429179.0 0
309680.0 426588.0 0
315282.0 429739.0 0
318754.0 429784.0 0
322189.0 429779.0 0
325586.0 429713.0 0
328977.0 429493.0 0
332360.0 429072.0 0
335720.0 428458.0 0
339038.0 427711.0 0
344845.0 429424.0 0
348064.0 428570.0 0
353978.0 429873.0 0
357182.0 428732.0 0
360048.0 430732.0 0
363203.0 429476.0 0
366131.0 431474.0 0
369251.0 430178.0 0
375348.0 430824.0 0
378398.0 429492.0 0
381477.0 431436.0 0
384500.0 430100.0 0
111140.0 432825.0 0
114170.0 434075.0 0
117370.0 432042.0 0
120420.0 433272.0 0
123505.0 434503.0 0
126644.0 432471.0 0
129728.0 433748.0 0
138838.0 431270.0 0
141713.0 432831.0 0
147409.0 431581.0 0
150547.0 432671.0 0
156154.0 431318.0 0
159505.0 432165.0 0
162915.0 432849.0 0
168759.0 430783.0 0
172424.0 430891.0 0
176029.0 430669.0 0
188077.0 432902.0 0
191825.0 432818.0 0
194789.0 430882.0 0
198274.0 430678.0 0
201761.0 430420.0 0
205307.0 430195.0 0
208880.0 429948.0 0
221087.0 432036.0 0
224641.0 431771.0 0
228181.0 431533.0 0
231717.0 431333.0 0
235253.0 431193.0 0
238813.0 431072.0 0
242345.0 431073.0 0
246000.0 430921.0 0
249436.0 431130.0 0
252534.0 429609.0 0
255992.0 430773.0 0
263078.0 430754.0 0
266821.0 431411.0 0
270515.0 432007.0 0
274147.0 432536.0 0
280346.0 430323.0 0
284175.0 430797.0 0
288117.0 431113.0 0
291992.0 431362.0 0
295749.0 431693.0 0
299449.0 432001.0 0
304674.0 429385.0 0
308250.0 429541.0 0
311784.0 429658.0 0
324512.0 432786.0 0
327961.0 432621.0 0
331391.0 432256.0 0
334815.0 431675.0 0
338236.0 430923.0 0
341578.0 430196.0 0
344223.0 432670.0 0
347510.0 431840.0 0
350757.0 430887.0 0
353546.0 433099.0 0
356819.0 431955.0 0
359716.0 433972.0 0
362955.0 432739.0 0
369103.0 433450.0 0
372248.0 432144.0 0
378405.0 432769.0 0
384585.0 433396.0 0
387626.0 432056.0 0
390774.0 434026.0 0
104667.0 436875.0 0
107908.0 434847.0 0
110958.0 436117.0 0
117240.0 435319.0 0
120347.0 436557.0 0
126622.0 435754.0 0
129771.0 437055.0 0
132833.0 435104.0 0
135847.0 433178.0 0
138877.0 434691.0 0
144899.0 434107.0 0
148093.0 435041.0 0
153780.0 433737.0 0
157095.0 434660.0 0
160499.0 435403.0 0
166420.0 433356.0 0
170061.0 433605.0 0
173714.0 433631.0 0
177293.0 433457.0 0
180791.0 433165.0 0
184365.0 433002.0 0
195706.0 433576.0 0
199420.0 433489.0 0
203066.0 433285.0 0
206700.0 433071.0 0
210322.0 432836.0 0
213929.0 432580.0 0
217516.0 432310.0 0
226158.0 434821.0 0
229713.0 434623.0 0
233258.0 434465.0 0
236805.0 434341.0 0
240337.0 434280.0 0
243890.0 434198.0 0
247350.0 434243.0 0
250857.0 434190.0 0
254173.0 433794.0 0
257828.0 433792.0 0
261241.0 433868.0 0
264757.0 434295.0 0
277696.0 433024.0 0
281103.0 433594.0 0
284310.0 434049.0 0
287486.0 434229.0 0
290803.0 434268.0 0
294306.0 434526.0 0
303116.0 432252.0 0
306753.0 432450.0 0
310362.0 432601.0 0
313944.0 432712.0 0
317498.0 432784.0 0
321024.0 432815.0 0
330416.0 435455.0 0
333896.0 434899.0 0
337430.0 434081.0 0
340872.0 433393.0 0
346940.0 435114.0 0
350252.0 434167.0 0
356422.0 435188.0 0
359370.0 437204.0 0
362665.0 435995.0 0
365907.0 434744.0 0
368912.0 436723.0 0
372119.0 435422.0 0
375283.0 434102.0 0
378357.0 436055.0 0
381496.0 434726.0 0
387716.0 435377.0 0
393938.0 436006.0 0
101415.0 438911.0 0
107740.0 438168.0 0
110853.0 439444.0 0
114049.0 437375.0 0
117179.0 438627.0 0
123489.0 437795.0 0
126666.0 439053.0 0
132951.0 438437.0 0
135955.0 436552.0 0
139199.0 438010.0 0
142098.0 436135.0 0
145403.0 437377.0 0
151336.0 436145.0 0
154640.0 437152.0 0
158027.0 437974.0 0
164005.0 435956.0 0
167624.0 436296.0 0
171292.0 436454.0 0
174959.0 436450.0 0
178596.0 436300.0 0
182207.0 436089.0 0
185861.0 435936.0 0
189540.0 435864.0 0
193169.0 436009.0 0
197023.0 436358.0 0
200777.0 436307.0 0
204470.0 436149.0 0
208136.0 435962.0 0
211781.0 435751.0 0
215404.0 435521.0 0
219007.0 435283.0 0
222591.0 435045.0 0
245419.0 437466.0 0
248961.0 437445.0 0
252506.0 437317.0 0
255960.0 437113.0 0
259447.0 437206.0 0
268346.0 434845.0 0
271938.0 435386.0 0
275488.0 435900.0 0
278956.0 436452.0 0
282428.0 436978.0 0
285930.0 437281.0 0
289423.0 437366.0 0
292891.0 437492.0 0
297917.0 434836.0 0
301566.0 435111.0 0
305223.0 435337.0 0
308876.0 435516.0 0
312518.0 435653.0 0
316149.0 435750.0 0
319766.0 435810.0 0
323361.0 435823.0 0
326923.0 435744.0 0
336622.0 437170.0 0
340166.0 436542.0 0
343591.0 435896.0 0
349723.0 437468.0 0
353087.0 436340.0 0
359014.0 440418.0 0
362375.0 439252.0 0
365665.0 438019.0 0
371959.0 438708.0 0
375175.0 437390.0 0
381464.0 438031.0 0
384614.0 436711.0 0
387753.0 438720.0 0
390865.0 437372.0 0
394031.0 439378.0 0
397122.0 437998.0 0
98152.1 440953.0 0
101275.0 442290.0 0
104511.0 440225.0 0
107647.0 441522.0 0
114003.0 440708.0 0
117186.0 441964.0 0
120342.0 439868.0 0
123540.0 441109.0 0
126782.0 442367.0 0
129883.0 440368.0 0
133173.0 441730.0 0
136219.0 439866.0 0
142533.0 439423.0 0
145908.0 440659.0 0
148714.0 438430.0 0
152081.0 439582.0 0
161517.0 438586.0 0
165123.0 438991.0 0
168802.0 439229.0 0
172514.0 439326.0 0
176228.0 439297.0 0
179919.0 439170.0 0
183587.0 439014.0 0
187252.0 438919.0 0
190907.0 438949.0 0
194617.0 439058.0 0
198434.0 439214.0 0
202194.0 439172.0 0
205906.0 439047.0 0
209589.0 438886.0 0
213248.0 438700.0 0
216884.0 438499.0 0
220500.0 438292.0 0
224096.0 438091.0 0
227676.0 437905.0 0
231242.0 437747.0 0
234801.0 437619.0 0
238348.0 437535.0 0
241898.0 437470.0 0
262900.0 437419.0 0
266395.0 437827.0 0
269932.0 438316.0 0
273479.0 438817.0 0
277005.0 439338.0 0
280554.0 439817.0 0
284163.0 440184.0 0
287784.0 440386.0 0
296430.0 437740.0 0
300037.0 437999.0 0
303683.0 438231.0 0
307349.0 438424.0 0
311024.0 438577.0 0
314703.0 438691.0 0
318385.0 438769.0 0
322069.0 438808.0 0
325754.0 438791.0 0
329413.0 438662.0 0
332952.0 438175.0 0
335858.0 440140.0 0
339486.0 439626.0 0
342976.0 439101.0 0
346370.0 438402.0 0
349197.0 440821.0 0
352613.0 439586.0 0
356008.0 438430.0 0
362074.0 442511.0 0
365406.0 441314.0 0
368705.0 440008.0 0
375035.0 440697.0 0
378267.0 439351.0 0
381394.0 441345.0 0
384597.0 440043.0 0
390905.0 440745.0 0
397220.0 441391.0 0
400330.0 440004.0 0
403564.0 442028.0 0
91600.7 445054.0 0
94881.4 443000.0 0
98030.0 444364.0 0
104437.0 443608.0 0
107634.0 444911.0 0
110820.0 442804.0 0
114025.0 444074.0 0
120402.0 443207.0 0
123656.0 444441.0 0
130082.0 443664.0 0
133455.0 445002.0 0
136535.0 443160.0 0
139568.0 441295.0 0
142970.0 442726.0 0
149324.0 441756.0 0
152815.0 443021.0 0
155474.0 440539.0 0
158947.0 441243.0 0
162553.0 441700.0 0
166257.0 441988.0 0
170010.0 442150.0 0
173778.0 442206.0 0
177533.0 442170.0 0
181256.0 442076.0 0
184950.0 441982.0 0
188633.0 441955.0 0
192342.0 441991.0 0
196092.0 442058.0 0
199882.0 442126.0 0
203639.0 442087.0 0
207362.0 441983.0 0
211056.0 441845.0 0
214727.0 441684.0 0
218375.0 441512.0 0
222002.0 441337.0 0
225611.0 441171.0 0
229204.0 441021.0 0
232785.0 440896.0 0
236355.0 440803.0 0
239920.0 440737.0 0
243475.0 440710.0 0
247038.0 440691.0 0
250606.0 440637.0 0
254140.0 440546.0 0
257611.0 440517.0 0
261089.0 440669.0 0
264563.0 440945.0 0
268064.0 441340.0 0
271597.0 441788.0 0
275148.0 442259.0 0
278737.0 442701.0 0
282372.0 443063.0 0
291353.0 440529.0 0
294905.0 440710.0 0
298498.0 440934.0 0
302132.0 441152.0 0
305798.0 441345.0 0
309484.0 441504.0 0
313184.0 441628.0 0
316896.0 441715.0 0
320622.0 441766.0 0
324372.0 441774.0 0
328154.0 441724.0 0
331963.0 441554.0 0
335311.0 442937.0 0
338865.0 442638.0 0
342393.0 442265.0 0
345832.0 441710.0 0
352144.0 442826.0 0
355590.0 441684.0 0
358680.0 443600.0 0
365143.0 444642.0 0
368477.0 443297.0 0
371778.0 442017.0 0
374869.0 444032.0 0
378148.0 442657.0 0
384540.0 443392.0 0
387743.0 442087.0 0
394071.0 442777.0 0
397253.0 444810.0 0
400430.0 443415.0 0
406822.0 444066.0 0
88309.1 447114.0 0
94774.0 446444.0 0
101220.0 445702.0 0
104446.0 447026.0 0
110867.0 446200.0 0
114129.0 447478.0 0
117262.0 445334.0 0
120530.0 446576.0 0
126960.0 445679.0 0
130318.0 446943.0 0
133719.0 448264.0 0
139936.0 444571.0 0
146394.0 443940.0 0
149896.0 445004.0 0
156282.0 443908.0 0
159915.0 444427.0 0
163672.0 444743.0 0
167477.0 444949.0 0
171294.0 445065.0 0
175099.0 445103.0 0
178877.0 445081.0 0
182621.0 445027.0 0
186341.0 444987.0 0
190065.0 444983.0 0
193808.0 445013.0 0
197573.0 445056.0 0
201351.0 445082.0 0
205108.0 445044.0 0
208837.0 444957.0 0
212541.0 444840.0 0
216222.0 444704.0 0
219881.0 444560.0 0
223521.0 444416.0 0
227142.0 444282.0 0
230750.0 444165.0 0
234346.0 444072.0 0
237933.0 444005.0 0
241514.0 443966.0 0
245095.0 443944.0 0
248676.0 443919.0 0
252241.0 443883.0 0
255768.0 443870.0 0
259264.0 443943.0 0
262760.0 444145.0 0
266263.0 444447.0 0
269792.0 444823.0 0
273351.0 445233.0 0
286038.0 443331.0 0
289683.0 443529.0 0
293299.0 443711.0 0
296914.0 443905.0 0
300554.0 444106.0 0
304222.0 444291.0 0
307913.0 444450.0 0
311621.0 444579.0 0
315342.0 444673.0 0
319074.0 444733.0 0
322818.0 444756.0 0
326573.0 444744.0 0
330317.0 444720.0 0
333809.0 445395.0 0
337702.0 445601.0 0
341456.0 445358.0 0
345148.0 445003.0 0
348656.0 444280.0 0
351812.0 445988.0 0
355228.0 444971.0 0
358417.0 446720.0 0
361815.0 445780.0 0
368250.0 446585.0 0
371577.0 445342.0 0
377986.0 445967.0 0
381290.0 444669.0 0
387681.0 445485.0 0
390890.0 444148.0 0
394040.0 446208.0 0
400449.0 446853.0 0
403659.0 445458.0 0
406903.0 447526.0 0
410092.0 446114.0 0
85008.0 449181.0 0
91508.4 448530.0 0
94755.2 449915.0 0
97993.2 447805.0 0
101250.0 449146.0 0
107709.0 448334.0 0
111006.0 449632.0 0
117417.0 448741.0 0
120732.0 449973.0 0
123832.0 447789.0 0
127169.0 449000.0 0
130547.0 450228.0 0
136865.0 446469.0 0
140280.0 447859.0 0
143352.0 446076.0 0
146729.0 447208.0 0
150210.0 448080.0 0
153505.0 446528.0 0
157221.0 447168.0 0
161074.0 447497.0 0
164945.0 447733.0 0
168809.0 447896.0 0
172655.0 447994.0 0
176475.0 448034.0 0
180264.0 448033.0 0
184027.0 448015.0 0
187776.0 448004.0 0
191528.0 448013.0 0
195291.0 448039.0 0
199064.0 448067.0 0
202839.0 448074.0 0
214045.0 447869.0 0
217736.0 447758.0 0
221407.0 447641.0 0
225058.0 447527.0 0
228694.0 447423.0 0
232317.0 447336.0 0
235930.0 447270.0 0
239535.0 447227.0 0
243136.0 447203.0 0
246734.0 447189.0 0
250321.0 447179.0 0
253885.0 447187.0 0
257424.0 447242.0 0
260947.0 447380.0 0
264473.0 447613.0 0
268015.0 447916.0 0
276952.0 445631.0 0
280598.0 445980.0 0
284274.0 446265.0 0
287955.0 446500.0 0
291620.0 446704.0 0
295276.0 446897.0 0
298938.0 447085.0 0
302617.0 447262.0 0
306315.0 447419.0 0
310029.0 447550.0 0
313755.0 447652.0 0
317489.0 447723.0 0
321228.0 447763.0 0
324963.0 447779.0 0
328675.0 447805.0 0
332281.0 448120.0 0
343928.0 448087.0 0
347843.0 447792.0 0
351430.0 448866.0 0
355007.0 448367.0 0
358365.0 449689.0 0
361710.0 449055.0 0
364923.0 448053.0 0
371332.0 448699.0 0
374650.0 447416.0 0
377768.0 449265.0 0
381134.0 447996.0 0
384436.0 446765.0 0
390807.0 447591.0 0
393924.0 449679.0 0
397198.0 448259.0 0
400370.0 450315.0 0
403661.0 448917.0 0
410165.0 449604.0 0
413379.0 448171.0 0
416682.0 450239.0 0
81697.0 451254.0 0
84947.5 452729.0 0
88233.4 450625.0 0
91506.1 452034.0 0
98044.4 451276.0 0
101371.0 452619.0 0
104546.0 450475.0 0
107877.0 451790.0 0
114328.0 450921.0 0
117672.0 452188.0 0
124067.0 451170.0 0
127422.0 452355.0 0
133964.0 451517.0 0
137125.0 449813.0 0
140519.0 451088.0 0
143709.0 449556.0 0
147174.0 450473.0 0
150909.0 450936.0 0
154602.0 449980.0 0
158549.0 450267.0 0
162465.0 450520.0 0
166356.0 450720.0 0
170225.0 450864.0 0
174072.0 450957.0 0
177894.0 451006.0 0
181692.0 451024.0 0
185471.0 451029.0 0
189243.0 451037.0 0
193014.0 451055.0 0
206597.0 448038.0 0
210333.0 447966.0 0
248387.0 450458.0 0
271584.0 448264.0 0
275191.0 448616.0 0
278838.0 448941.0 0
282517.0 449225.0 0
286210.0 449472.0 0
289903.0 449693.0 0
293592.0 449894.0 0
297281.0 450081.0 0
300979.0 450254.0 0
304690.0 450409.0 0
308413.0 450543.0 0
336099.0 448314.0 0
340032.0 448309.0 0
346065.0 450945.0 0
357190.0 452326.0 0
360962.0 452301.0 0
364513.0 451684.0 0
367956.0 449870.0 0
374399.0 450884.0 0
380911.0 451311.0 0
384265.0 450158.0 0
387555.0 448924.0 0
390642.0 451090.0 0
393692.0 453200.0 0
397040.0 451741.0 0
403574.0 452390.0 0
406895.0 451006.0 0
413447.0 451696.0 0
419989.0 452310.0 0
75048.8 455416.0 0
78376.8 453333.0 0
81650.9 454842.0 0
88244.5 454163.0 0
94824.3 453414.0 0
98183.9 454772.0 0
104735.0 453951.0 0
108136.0 455269.0 0
111239.0 453095.0 0
114628.0 454395.0 0
121045.0 453417.0 0
124436.0 454609.0 0
130799.0 453533.0 0
134219.0 454718.0 0
137386.0 453260.0 0
140926.0 454119.0 0
144431.0 453116.0 0
148352.0 453495.0 0
152679.0 453406.0 0
156313.0 453177.0 0
160122.0 453369.0 0
196791.0 451079.0 0
200570.0 451099.0 0
204346.0 451098.0 0
208107.0 451067.0 0
211849.0 451009.0 0
215570.0 450932.0 0
219271.0 450844.0 0
222953.0 450753.0 0
226618.0 450666.0 0
230269.0 450590.0 0
233908.0 450529.0 0
237537.0 450487.0 0
241160.0 450464.0 0
244778.0 450455.0 0
251981.0 450478.0 0
255557.0 450530.0 0
259116.0 450636.0 0
262671.0 450813.0 0
266235.0 451058.0 0
269820.0 451347.0 0
273435.0 451653.0 0
277085.0 451950.0 0
280764.0 452222.0 0
284462.0 452468.0 0
288169.0 452694.0 0
291879.0 452900.0 0
295592.0 453090.0 0
312146.0 450651.0 0
315886.0 450733.0 0
319627.0 450789.0 0
323361.0 450827.0 0
327077.0 450872.0 0
330750.0 451035.0 0
334508.0 451156.0 0
338357.0 451171.0 0
342240.0 451087.0 0
349680.0 451313.0 0
353670.0 451596.0 0
359402.0 455237.0 0
363138.0 455191.0 0
367791.0 452935.0 0
371174.0 452073.0 0
377459.0 452514.0 0
384076.0 453565.0 0
387364.0 452411.0 0
396799.0 455245.0 0
400204.0 453791.0 0
403430.0 455867.0 0
406813.0 454498.0 0
410153.0 453112.0 0
413432.0 455246.0 0
416735.0 453811.0 0
423302.0 454385.0 0
71716.3 457503.0 0
78347.2 456962.0 0
84972.3 456305.0 0
88341.0 457727.0 0
91588.8 455563.0 0
94977.1 456934.0 0
101581.0 456117.0 0
105016.0 457448.0 0
111571.0 456583.0 0
115053.0 457887.0 0
118056.0 455671.0 0
121508.0 456906.0 0
127862.0 455775.0 0
131353.0 456887.0 0
135032.0 457780.0 0
138390.0 456700.0 0
163973.0 453570.0 0
167832.0 453741.0 0
171685.0 453870.0 0
175525.0 453960.0 0
179347.0 454015.0 0
183153.0 454048.0 0
186947.0 454069.0 0
190734.0 454090.0 0
194520.0 454114.0 0
198307.0 454138.0 0
202093.0 454154.0 0
205872.0 454153.0 0
209638.0 454130.0 0
213386.0 454086.0 0
217115.0 454027.0 0
220827.0 453961.0 0
224521.0 453894.0 0
228200.0 453833.0 0
231866.0 453781.0 0
235521.0 453744.0 0
239168.0 453723.0 0
242807.0 453718.0 0
246439.0 453727.0 0
250059.0 453754.0 0
253667.0 453806.0 0
257262.0 453896.0 0
260849.0 454037.0 0
264439.0 454233.0 0
268044.0 454473.0 0
271672.0 454737.0 0
275328.0 455002.0 0
279010.0 455256.0 0
282711.0 455495.0 0
286426.0 455717.0 0
299310.0 453263.0 0
303037.0 453419.0 0
306773.0 453554.0 0
310517.0 453668.0 0
314265.0 453760.0 0
318014.0 453829.0 0
321757.0 453883.0 0
325487.0 453936.0 0
329196.0 454034.0 0
332939.0 454114.0 0
336729.0 454127.0 0
340543.0 454081.0 0
344338.0 454024.0 0
348036.0 454172.0 0
351826.0 454365.0 0
355559.0 454936.0 0
366592.0 455710.0 0
370392.0 455397.0 0
374030.0 454578.0 0
377424.0 455510.0 0
380763.0 454576.0 0
386994.0 455988.0 0
390342.0 454676.0 0
393358.0 456756.0 0
400003.0 457264.0 0
406699.0 457996.0 0
410085.0 456639.0 0
416704.0 457416.0 0
420022.0 455935.0 0
423307.0 458063.0 0
426614.0 456460.0 0
68381.5 459592.0 0
75039.8 459090.0 0
78405.7 460625.0 0
81691.4 458459.0 0
85080.7 459907.0 0
91753.7 459114.0 0
95207.0 460473.0 0
98404.2 458287.0 0
101871.0 459631.0 0
108491.0 458768.0 0
112014.0 460079.0 0
118572.0 459186.0 0
124999.0 458084.0 0
128564.0 459195.0 0
132281.0 460139.0 0
142274.0 456964.0 0
146151.0 456224.0 0
150244.0 456246.0 0
154109.0 456363.0 0
157851.0 456343.0 0
161652.0 456489.0 0
165483.0 456653.0 0
169326.0 456798.0 0
173169.0 456914.0 0
177004.0 457000.0 0
180829.0 457060.0 0
184642.0 457101.0 0
188448.0 457134.0 0
192248.0 457164.0 0
196046.0 457193.0 0
199842.0 457218.0 0
203634.0 457235.0 0
207418.0 457237.0 0
211189.0 457222.0 0
214945.0 457192.0 0
218683.0 457152.0 0
222406.0 457107.0 0
226112.0 457063.0 0
229805.0 457024.0 0
233487.0 456995.0 0
237158.0 456979.0 0
240821.0 456978.0 0
244475.0 456991.0 0
248121.0 457021.0 0
251757.0 457073.0 0
255383.0 457153.0 0
259002.0 457272.0 0
262621.0 457433.0 0
266248.0 457632.0 0
269892.0 457858.0 0
273558.0 458094.0 0
277246.0 458327.0 0
290149.0 455923.0 0
293880.0 456114.0 0
297616.0 456288.0 0
301359.0 456445.0 0
305109.0 456583.0 0
308866.0 456702.0 0
312626.0 456802.0 0
316387.0 456882.0 0
320144.0 456948.0 0
323892.0 457007.0 0
327627.0 457079.0 0
331374.0 457138.0 0
335140.0 457153.0 0
338913.0 457126.0 0
342672.0 457088.0 0
346391.0 457139.0 0
350134.0 457252.0 0
353873.0 457594.0 0
357698.0 458057.0 0
361351.0 458408.0 0
364970.0 458590.0 0
368810.0 458500.0 0
372598.0 458092.0 0
376108.0 458222.0 0
379978.0 457890.0 0
383571.0 457037.0 0
389883.0 458344.0 0
393002.0 460295.0 0
396526.0 458745.0 0
399832.0 460714.0 0
403278.0 459338.0 0
409951.0 460194.0 0
413346.0 458824.0 0
419968.0 459598.0 0
426589.0 460196.0 0
429926.0 458536.0 0
61701.6 463775.0 0
65043.8 461682.0 0
68420.6 463359.0 0
71730.8 461224.0 0
75117.4 462801.0 0
81813.2 462106.0 0
88514.5 461311.0 0
91990.2 462682.0 0
98700.7 461819.0 0
102233.0 463162.0 0
105378.0 460959.0 0
108926.0 462272.0 0
115587.0 461388.0 0
122109.0 460418.0 0
125686.0 461550.0 0
129349.0 462541.0 0
136156.0 460867.0 0
139734.0 459911.0 0
144438.0 459331.0 0
148113.0 459225.0 0
151861.0 459342.0 0
155636.0 459440.0 0
159387.0 459498.0 0
163178.0 459624.0 0
166997.0 459762.0 0
170831.0 459887.0 0
174670.0 459991.0 0
178505.0 460072.0 0
182334.0 460134.0 0
186157.0 460183.0 0
189972.0 460223.0 0
193784.0 460260.0 0
197592.0 460293.0 0
201396.0 460322.0 0
205195.0 460342.0 0
208985.0 460349.0 0
212762.0 460344.0 0
216525.0 460329.0 0
220274.0 460306.0 0
224007.0 460280.0 0
227727.0 460256.0 0
231434.0 460238.0 0
235130.0 460230.0 0
238817.0 460234.0 0
242496.0 460251.0 0
246166.0 460284.0 0
249828.0 460335.0 0
253482.0 460409.0 0
257130.0 460512.0 0
260777.0 460649.0 0
264428.0 460817.0 0
280952.0 458552.0 0
284674.0 458766.0 0
288407.0 458968.0 0
292149.0 459157.0 0
295900.0 459330.0 0
299657.0 459488.0 0
303422.0 459629.0 0
307193.0 459752.0 0
310967.0 459857.0 0
314743.0 459946.0 0
318517.0 460021.0 0
322285.0 460086.0 0
326044.0 460150.0 0
329805.0 460201.0 0
333572.0 460223.0 0
337336.0 460211.0 0
341083.0 460183.0 0
344799.0 460184.0 0
348513.0 460223.0 0
352229.0 460388.0 0
355980.0 460736.0 0
370995.0 461342.0 0
374725.0 461231.0 0
378583.0 460912.0 0
382503.0 460351.0 0
386322.0 459578.0 0
393203.0 463744.0 0
396417.0 462231.0 0
399587.0 464206.0 0
403069.0 462826.0 0
406524.0 461517.0 0
409753.0 463772.0 0
413188.0 462441.0 0
416592.0 461055.0 0
419820.0 463303.0 0
423219.0 461790.0 0
433234.0 460610.0 0
436540.0 462680.0 0
58351.9 465873.0 0
65107.8 465492.0 0
71830.5 464987.0 0
78543.6 464321.0 0
82012.6 465782.0 0
85265.4 463533.0 0
88759.7 464916.0 0
95505.0 464026.0 0
99059.2 465365.0 0
105794.0 464482.0 0
109393.0 465772.0 0
112528.0 463568.0 0
116185.0 464884.0 0
119196.0 462735.0 0
122802.0 463957.0 0
126491.0 465004.0 0
133032.0 463366.0 0
136490.0 464180.0 0
142322.0 462049.0 0
146014.0 462354.0 0
149665.0 462403.0 0
153381.0 462497.0 0
157131.0 462583.0 0
160896.0 462663.0 0
164692.0 462774.0 0
168513.0 462892.0 0
172348.0 463001.0 0
176188.0 463095.0 0
180027.0 463173.0 0
183863.0 463237.0 0
187694.0 463290.0 0
191519.0 463336.0 0
195341.0 463378.0 0
199158.0 463416.0 0
202970.0 463449.0 0
206776.0 463474.0 0
210572.0 463489.0 0
214357.0 463495.0 0
218128.0 463493.0 0
221887.0 463486.0 0
268090.0 461011.0 0
271769.0 461219.0 0
275466.0 461431.0 0
279180.0 461641.0 0
282909.0 461844.0 0
286651.0 462038.0 0
290403.0 462221.0 0
294165.0 462392.0 0
297935.0 462549.0 0
301713.0 462691.0 0
305498.0 462817.0 0
309287.0 462927.0 0
313078.0 463022.0 0
316870.0 463103.0 0
320658.0 463173.0 0
324443.0 463236.0 0
328226.0 463287.0 0
332008.0 463316.0 0
335784.0 463318.0 0
339545.0 463301.0 0
343282.0 463283.0 0
347002.0 463275.0 0
350715.0 463315.0 0
354455.0 463465.0 0
359527.0 461570.0 0
363299.0 461650.0 0
367141.0 461564.0 0
373228.0 464324.0 0
377114.0 464012.0 0
381032.0 463527.0 0
384951.0 462889.0 0
389200.0 462026.0 0
396169.0 465961.0 0
399329.0 467653.0 0
402824.0 466316.0 0
406299.0 465055.0 0
412945.0 466097.0 0
416395.0 464735.0 0
426465.0 463981.0 0
429865.0 462329.0 0
433133.0 464461.0 0
436414.0 466564.0 0
439857.0 464756.0 0
443196.0 466845.0 0
54991.7 467977.0 0
61786.9 467623.0 0
68545.1 467169.0 0
75275.3 466550.0 0
78761.0 468049.0 0
85521.2 467184.0 0
92291.9 466265.0 0
95863.0 467592.0 0
102645.0 466715.0 0
106246.0 468023.0 0
113033.0 467039.0 0
116709.0 468339.0 0
119872.0 466342.0 0
123623.0 467492.0 0
130230.0 465931.0 0
133858.0 466835.0 0
139904.0 464566.0 0
143623.0 465262.0 0
147360.0 465503.0 0
151081.0 465588.0 0
154830.0 465671.0 0
158602.0 465751.0 0
162392.0 465835.0 0
166205.0 465935.0 0
170036.0 466039.0 0
173878.0 466136.0 0
177724.0 466223.0 0
181570.0 466299.0 0
185414.0 466364.0 0
189254.0 466421.0 0
193088.0 466472.0 0
225632.0 463478.0 0
229364.0 463473.0 0
233085.0 463475.0 0
236797.0 463485.0 0
240499.0 463507.0 0
244194.0 463542.0 0
247880.0 463594.0 0
251561.0 463664.0 0
255235.0 463757.0 0
258908.0 463876.0 0
262583.0 464021.0 0
266265.0 464189.0 0
269959.0 464373.0 0
273668.0 464565.0 0
277392.0 464758.0 0
281129.0 464949.0 0
284879.0 465133.0 0
288641.0 465310.0 0
292413.0 465476.0 0
296194.0 465631.0 0
299984.0 465772.0 0
303781.0 465898.0 0
307584.0 466011.0 0
311390.0 466109.0 0
315199.0 466195.0 0
319008.0 466270.0 0
341799.0 466408.0 0
345559.0 466374.0 0
349313.0 466336.0 0
353096.0 466313.0 0
357831.0 464891.0 0
361632.0 464785.0 0
365501.0 464680.0 0
369381.0 464498.0 0
379499.0 466757.0 0
383346.0 466242.0 0
387055.0 465650.0 0
390449.0 465411.0 0
402599.0 469808.0 0
406029.0 468621.0 0
409483.0 467388.0 0
416087.0 468463.0 0
419572.0 467054.0 0
423031.0 465559.0 0
429702.0 466178.0 0
439728.0 468658.0 0
446553.0 468945.0 0
51620.2 470087.0 0
58453.3 469757.0 0
61945.9 471507.0 0
65253.2 469341.0 0
68749.1 471022.0 0
72011.9 468793.0 0
75512.5 470334.0 0
82285.9 469487.0 0
85845.0 470858.0 0
89067.9 468540.0 0
92652.4 469862.0 0
99468.9 468928.0 0
103096.0 470302.0 0
109875.0 469284.0 0
113548.0 470518.0 0
117290.0 471765.0 0
120704.0 469992.0 0
127500.0 468445.0 0
131216.0 469447.0 0
137494.0 467553.0 0
141140.0 468032.0 0
144920.0 468478.0 0
148702.0 468674.0 0
152479.0 468769.0 0
156272.0 468849.0 0
160078.0 468929.0 0
163897.0 469013.0 0
167730.0 469107.0 0
196919.0 466520.0 0
200744.0 466562.0 0
204564.0 466600.0 0
208377.0 466631.0 0
212180.0 466655.0 0
215973.0 466671.0 0
219754.0 466683.0 0
223522.0 466691.0 0
227279.0 466700.0 0
231024.0 466713.0 0
234759.0 466732.0 0
238485.0 466759.0 0
242203.0 466798.0 0
245914.0 466851.0 0
249619.0 466919.0 0
253318.0 467005.0 0
257015.0 467112.0 0
260713.0 467240.0 0
264416.0 467388.0 0
268127.0 467551.0 0
271849.0 467724.0 0
275584.0 467902.0 0
279331.0 468079.0 0
283090.0 468254.0 0
286861.0 468422.0 0
290642.0 468582.0 0
294434.0 468733.0 0
322816.0 466334.0 0
326624.0 466387.0 0
330430.0 466422.0 0
334232.0 466436.0 0
338024.0 466429.0 0
351769.0 469278.0 0
356206.0 468282.0 0
360035.0 468037.0 0
363903.0 467851.0 0
367799.0 467662.0 0
371693.0 467456.0 0
375600.0 467166.0 0
381885.0 469574.0 0
385699.0 469101.0 0
389405.0 468722.0 0
393133.0 467893.0 0
399186.0 470926.0 0
405531.0 472261.0 0
409064.0 471063.0 0
412581.0 469799.0 0
419208.0 470848.0 0
422736.0 469378.0 0
426232.0 467817.0 0
432945.0 468359.0 0
436221.0 470474.0 0
443076.0 470766.0 0
449920.0 471052.0 0
48238.1 472205.0 0
51746.0 474044.0 0
55105.8 471896.0 0
58620.8 473676.0 0
65470.3 473227.0 0
72272.9 472649.0 0
79057.7 471809.0 0
82636.2 473229.0 0
89441.3 472182.0 0
93066.0 473477.0 0
96273.2 471172.0 0
99929.0 472502.0 0
103600.0 473950.0 0
106719.0 471594.0 0
110364.0 472811.0 0
114013.0 473996.0 0
124876.0 470909.0 0
128639.0 472055.0 0
134886.0 470315.0 0
138636.0 470930.0 0
142412.0 471366.0 0
171575.0 469201.0 0
175426.0 469291.0 0
179281.0 469374.0 0
183136.0 469449.0 0
186987.0 469515.0 0
190835.0 469576.0 0
194679.0 469632.0 0
198518.0 469684.0 0
202351.0 469732.0 0
206179.0 469775.0 0
209999.0 469814.0 0
213810.0 469846.0 0
217611.0 469874.0 0
221401.0 469898.0 0
225180.0 469921.0 0
228948.0 469945.0 0
232706.0 469974.0 0
236455.0 470008.0 0
240196.0 470052.0 0
243930.0 470107.0 0
247657.0 470174.0 0
251380.0 470256.0 0
255100.0 470355.0 0
258820.0 470471.0 0
262542.0 470603.0 0
266271.0 470750.0 0
270008.0 470907.0 0
273755.0 471070.0 0
277513.0 471235.0 0
298234.0 468871.0 0
302043.0 468997.0 0
305858.0 469111.0 0
309679.0 469211.0 0
313504.0 469299.0 0
317331.0 469376.0 0
321161.0 469443.0 0
324992.0 469497.0 0
328824.0 469537.0 0
332656.0 469558.0 0
336483.0 469560.0 0
340303.0 469542.0 0
344117.0 469498.0 0
347929.0 469419.0 0
358465.0 471358.0 0
362349.0 471093.0 0
366251.0 470863.0 0
370163.0 470633.0 0
374085.0 470354.0 0
378002.0 470000.0 0
388135.0 472060.0 0
391952.0 471466.0 0
395639.0 470661.0 0
401948.0 473375.0 0
412064.0 473538.0 0
415647.0 472235.0 0
422324.0 473238.0 0
425898.0 471695.0 0
429443.0 470065.0 0
436024.0 474385.0 0
439568.0 472570.0 0
442923.0 474725.0 0
446428.0 472892.0 0
453297.0 473165.0 0
55281.2 475852.0 0
62166.6 475424.0 0
69024.2 474919.0 0
75835.6 474150.0 0
79436.3 475604.0 0
86245.0 474554.0 0
89879.8 475847.0 0
96716.4 474759.0 0
100394.0 476062.0 0
107262.0 475212.0 0
110934.0 476383.0 0
117574.0 475226.0 0
122299.0 473378.0 0
126059.0 474504.0 0
132268.0 473090.0 0
136054.0 473758.0 0
146243.0 471686.0 0
150077.0 471850.0 0
153908.0 471949.0 0
157741.0 472033.0 0
161579.0 472115.0 0
165423.0 472201.0 0
169275.0 472290.0 0
173133.0 472380.0 0
176996.0 472466.0 0
180860.0 472546.0 0
184723.0 472621.0 0
188583.0 472690.0 0
192439.0 472754.0 0
196290.0 472814.0 0
200137.0 472871.0 0
203979.0 472925.0 0
207814.0 472975.0 0
211642.0 473020.0 0
215461.0 473062.0 0
219270.0 473100.0 0
223069.0 473137.0 0
226859.0 473173.0 0
230639.0 473212.0 0
234410.0 473255.0 0
238172.0 473304.0 0
241928.0 473362.0 0
245677.0 473430.0 0
249422.0 473510.0 0
253164.0 473604.0 0
256905.0 473711.0 0
260647.0 473833.0 0
281282.0 471398.0 0
285063.0 471558.0 0
288853.0 471711.0 0
292654.0 471856.0 0
296464.0 471991.0 0
300283.0 472115.0 0
304110.0 472228.0 0
307943.0 472328.0 0
311782.0 472417.0 0
315626.0 472495.0 0
319474.0 472563.0 0
323327.0 472619.0 0
327182.0 472661.0 0
331041.0 472687.0 0
334902.0 472694.0 0
338763.0 472679.0 0
342626.0 472635.0 0
346498.0 472542.0 0
350394.0 472355.0 0
354594.0 471677.0 0
364724.0 474111.0 0
368645.0 473857.0 0
372576.0 473578.0 0
376510.0 473251.0 0
380427.0 472875.0 0
384306.0 472463.0 0
390664.0 474927.0 0
394472.0 474345.0 0
398163.0 474119.0 0
404756.0 475869.0 0
408446.0 474754.0 0
415071.0 476037.0 0
418709.0 474679.0 0
429081.0 473984.0 0
432678.0 472305.0 0
439370.0 476503.0 0
449782.0 475023.0 0
58843.8 477628.0 0
62432.2 479371.0 0
65744.9 477146.0 0
69349.3 478864.0 0
72597.5 476566.0 0
76240.7 477991.0 0
83056.1 477018.0 0
86721.7 478274.0 0
93529.6 477116.0 0
97195.7 478358.0 0
104230.0 477677.0 0
107971.0 478866.0 0
114568.0 477587.0 0
120920.0 476589.0 0
124344.0 477595.0 0
129671.0 475936.0 0
139887.0 474276.0 0
143750.0 474637.0 0
147636.0 474885.0 0
151515.0 475035.0 0
155383.0 475139.0 0
159247.0 475228.0 0
163110.0 475314.0 0
166975.0 475401.0 0
170843.0 475489.0 0
174714.0 475576.0 0
178588.0 475660.0 0
182461.0 475740.0 0
186332.0 475815.0 0
190199.0 475886.0 0
194064.0 475954.0 0
197923.0 476019.0 0
201778.0 476081.0 0
205627.0 476141.0 0
209470.0 476197.0 0
213305.0 476251.0 0
217132.0 476301.0 0
220950.0 476350.0 0
224759.0 476398.0 0
228559.0 476447.0 0
264393.0 473966.0 0
268145.0 474110.0 0
271905.0 474260.0 0
275675.0 474413.0 0
279455.0 474566.0 0
283245.0 474717.0 0
287045.0 474862.0 0
290855.0 475001.0 0
294675.0 475132.0 0
298503.0 475253.0 0
302340.0 475363.0 0
306184.0 475463.0 0
310036.0 475552.0 0
313893.0 475629.0 0
317757.0 475697.0 0
321627.0 475752.0 0
325503.0 475796.0 0
329385.0 475824.0 0
333273.0 475835.0 0
337167.0 475823.0 0
341069.0 475782.0 0
344985.0 475691.0 0
348926.0 475510.0 0
352988.0 475054.0 0
356894.0 474709.0 0
360810.0 474381.0 0
371072.0 476839.0 0
375014.0 476522.0 0
378953.0 476169.0 0
382877.0 475792.0 0
386773.0 475398.0 0
397050.0 477447.0 0
400923.0 476802.0 0
407644.0 478405.0 0
411396.0 477283.0 0
418103.0 478537.0 0
421792.0 477123.0 0
425463.0 475613.0 0
432225.0 476331.0 0
435651.0 478318.0 0
66037.8 481091.0 0
79883.1 479439.0 0
83543.7 480854.0 0
90389.7 479545.0 0
94077.6 480784.0 0
100888.0 479578.0 0
105163.0 481433.0 0
111628.0 480031.0 0
118151.0 478918.0 0
121790.0 480318.0 0
133518.0 476626.0 0
137379.0 477172.0 0
141274.0 477588.0 0
145187.0 477886.0 0
149104.0 478095.0 0
153009.0 478236.0 0
156903.0 478343.0 0
160789.0 478437.0 0
164672.0 478527.0 0
168553.0 478615.0 0
172436.0 478703.0 0
176319.0 478790.0 0
180202.0 478874.0 0
184083.0 478954.0 0
187962.0 479031.0 0
191838.0 479105.0 0
195710.0 479177.0 0
199577.0 479246.0 0
203439.0 479314.0 0
232350.0 476499.0 0
236133.0 476555.0 0
239910.0 476617.0 0
243680.0 476688.0 0
247446.0 476768.0 0
251208.0 476858.0 0
254968.0 476960.0 0
258729.0 477073.0 0
262492.0 477197.0 0
266260.0 477330.0 0
270035.0 477469.0 0
273817.0 477611.0 0
277608.0 477755.0 0
281408.0 477897.0 0
285218.0 478035.0 0
289037.0 478168.0 0
292865.0 478294.0 0
296702.0 478411.0 0
300548.0 478519.0 0
304402.0 478617.0 0
308264.0 478704.0 0
312134.0 478780.0 0
316010.0 478847.0 0
319894.0 478902.0 0
323786.0 478945.0 0
327686.0 478974.0 0
331594.0 478986.0 0
335512.0 478978.0 0
339442.0 478942.0 0
343387.0 478862.0 0
347353.0 478708.0 0
351366.0 478400.0 0
355312.0 478083.0 0
359274.0 477688.0 0
363209.0 477393.0 0
367137.0 477122.0 0
377468.0 479478.0 0
381414.0 479114.0 0
385358.0 478740.0 0
389284.0 478307.0 0
393216.0 477865.0 0
399846.0 480257.0 0
403792.0 479388.0 0
410567.0 480993.0 0
414372.0 479846.0 0
421175.0 481042.0 0
424909.0 479548.0 0
428602.0 478008.0 0
439013.0 480447.0 0
76676.7 481872.0 0
80399.7 483309.0 0
87273.0 482025.0 0
90989.2 483270.0 0
97800.4 481968.0 0
101769.0 483001.0 0
106122.0 485270.0 0
108825.0 482625.0 0
115241.0 481232.0 0
118839.0 482564.0 0
127560.0 479141.0 0
131184.0 479627.0 0
134964.0 480140.0 0
138838.0 480563.0 0
142758.0 480893.0 0
146695.0 481141.0 0
150629.0 481322.0 0
154551.0 481457.0 0
158462.0 481567.0 0
162366.0 481665.0 0
166264.0 481757.0 0
170160.0 481848.0 0
174054.0 481937.0 0
177947.0 482024.0 0
207295.0 479379.0 0
211145.0 479443.0 0
214988.0 479504.0 0
218822.0 479564.0 0
222649.0 479623.0 0
226468.0 479682.0 0
230278.0 479742.0 0
234081.0 479806.0 0
237877.0 479874.0 0
241667.0 479948.0 0
245452.0 480029.0 0
249234.0 480118.0 0
253013.0 480217.0 0
256792.0 480325.0 0
260572.0 480441.0 0
264355.0 480565.0 0
268144.0 480695.0 0
271938.0 480829.0 0
275741.0 480964.0 0
279551.0 481098.0 0
283370.0 481229.0 0
287198.0 481356.0 0
291035.0 481477.0 0
294881.0 481590.0 0
298736.0 481695.0 0
302599.0 481790.0 0
306470.0 481875.0 0
345692.0 481930.0 0
349685.0 481718.0 0
353654.0 481461.0 0
357764.0 480994.0 0
361701.0 480696.0 0
365630.0 480421.0 0
369565.0 480135.0 0
373514.0 479824.0 0
379929.0 482456.0 0
383885.0 482077.0 0
387860.0 481698.0 0
391791.0 481234.0 0
395932.0 480884.0 0
406698.0 481999.0 0
413503.0 483634.0 0
417407.0 482410.0 0
77271.8 485784.0 0
84111.3 484740.0 0
87917.5 485801.0 0
94733.5 484468.0 0
98851.7 485450.0 0
102618.0 486492.0 0
112433.0 483738.0 0
116091.0 484893.0 0
122073.0 484267.0 0
125112.0 482070.0 0
128794.0 482778.0 0
132567.0 483214.0 0
136431.0 483602.0 0
140352.0 483931.0 0
144299.0 484197.0 0
148253.0 484406.0 0
152199.0 484569.0 0
181839.0 482108.0 0
185728.0 482189.0 0
189615.0 482269.0 0
193497.0 482346.0 0
197376.0 482422.0 0
201251.0 482496.0 0
205120.0 482569.0 0
208983.0 482641.0 0
212840.0 482711.0 0
216690.0 482781.0 0
220532.0 482849.0 0
224368.0 482917.0 0
228196.0 482986.0 0
232016.0 483057.0 0
235831.0 483131.0 0
239639.0 483210.0 0
243443.0 483293.0 0
247242.0 483384.0 0
251039.0 483481.0 0
254835.0 483585.0 0
258632.0 483697.0 0
262430.0 483815.0 0
266233.0 483937.0 0
270040.0 484064.0 0
273854.0 484191.0 0
277675.0 484319.0 0
310349.0 481950.0 0
314236.0 482015.0 0
318131.0 482069.0 0
322035.0 482111.0 0
325948.0 482140.0 0
329871.0 482153.0 0
333805.0 482148.0 0
337752.0 482118.0 0
341713.0 482052.0 0
356234.0 484274.0 0
360176.0 484013.0 0
364106.0 483747.0 0
368040.0 483466.0 0
371991.0 483152.0 0
375970.0 482809.0 0
386344.0 485048.0 0
390394.0 484678.0 0
394292.0 484140.0 0
398962.0 483822.0 0
402807.0 482918.0 0
409574.0 484666.0 0
416492.0 486263.0 0
81001.0 487224.0 0
91674.9 487018.0 0
96017.3 487983.0 0
109756.0 486497.0 0
126210.0 485803.0 0
130106.0 486336.0 0
134022.0 486699.0 0
137963.0 487012.0 0
156135.0 484699.0 0
160059.0 484810.0 0
163976.0 484911.0 0
167886.0 485007.0 0
171793.0 485100.0 0
175697.0 485190.0 0
179599.0 485277.0 0
183498.0 485363.0 0
187394.0 485446.0 0
191288.0 485528.0 0
195177.0 485609.0 0
199063.0 485689.0 0
202944.0 485768.0 0
206819.0 485847.0 0
210689.0 485925.0 0
214553.0 486002.0 0
218410.0 486079.0 0
222260.0 486156.0 0
226104.0 486233.0 0
229941.0 486311.0 0
233773.0 486392.0 0
237598.0 486475.0 0
241419.0 486562.0 0
245236.0 486654.0 0
249049.0 486752.0 0
252862.0 486855.0 0
281504.0 484444.0 0
285341.0 484565.0 0
289186.0 484681.0 0
293040.0 484790.0 0
296903.0 484891.0 0
300774.0 484983.0 0
304653.0 485067.0 0
308540.0 485140.0 0
312436.0 485203.0 0
316340.0 485255.0 0
320253.0 485296.0 0
324176.0 485324.0 0
328109.0 485339.0 0
332053.0 485336.0 0
336009.0 485313.0 0
339978.0 485260.0 0
343959.0 485169.0 0
347947.0 485023.0 0
351920.0 484832.0 0
362539.0 487091.0 0
366478.0 486826.0 0
370430.0 486519.0 0
374438.0 486135.0 0
378442.0 485825.0 0
382394.0 485455.0 0
393041.0 487634.0 0
396930.0 486921.0 0
401855.0 486541.0 0
405695.0 485615.0 0
88278.9 489658.0 0
93150.2 490548.0 0
99821.8 489056.0 0
103679.0 489985.0 0
107548.0 489703.0 0
113524.0 487379.0 0
119151.0 486985.0 0
122891.0 487840.0 0
127658.0 489446.0 0
141923.0 487278.0 0
145890.0 487501.0 0
149855.0 487684.0 0
153811.0 487835.0 0
157756.0 487963.0 0
161690.0 488075.0 0
165616.0 488179.0 0
169536.0 488277.0 0
173451.0 488371.0 0
177363.0 488463.0 0
181272.0 488551.0 0
185178.0 488638.0 0
189082.0 488724.0 0
192981.0 488809.0 0
196877.0 488893.0 0
200769.0 488978.0 0
204656.0 489062.0 0
208537.0 489147.0 0
212413.0 489231.0 0
216283.0 489316.0 0
220147.0 489400.0 0
224006.0 489484.0 0
256674.0 486963.0 0
260487.0 487077.0 0
264303.0 487194.0 0
268123.0 487315.0 0
271948.0 487436.0 0
275780.0 487558.0 0
279618.0 487677.0 0
283464.0 487794.0 0
287318.0 487905.0 0
291180.0 488010.0 0
295050.0 488108.0 0
298928.0 488198.0 0
302815.0 488279.0 0
306709.0 488350.0 0
310612.0 488411.0 0
314523.0 488462.0 0
318443.0 488502.0 0
322373.0 488530.0 0
326312.0 488545.0 0
330262.0 488545.0 0
334223.0 488527.0 0
338195.0 488488.0 0
342175.0 488421.0 0
346159.0 488321.0 0
350132.0 488189.0 0
354645.0 487528.0 0
358599.0 487327.0 0
372889.0 489486.0 0
376857.0 489150.0 0
380937.0 488876.0 0
384875.0 488470.0 0
388810.0 488010.0 0
395807.0 490497.0 0
399705.0 489639.0 0
404678.0 489300.0 0
408525.0 488373.0 0
412436.0 487419.0 0
90172.2 493081.0 0
96965.4 491651.0 0
100819.0 492652.0 0
105381.0 493298.0 0
111387.0 490270.0 0
116241.0 490061.0 0
120121.0 490687.0 0
124122.0 491203.0 0
131628.0 489829.0 0
135596.0 490132.0 0
139571.0 490393.0 0
143550.0 490619.0 0
147528.0 490813.0 0
151499.0 490980.0 0
155460.0 491123.0 0
159411.0 491249.0 0
163352.0 491363.0 0
167285.0 491469.0 0
171212.0 491569.0 0
175134.0 491664.0 0
179053.0 491756.0 0
182968.0 491846.0 0
186880.0 491935.0 0
190789.0 492023.0 0
194694.0 492111.0 0
198596.0 492200.0 0
202493.0 492289.0 0
227858.0 489569.0 0
231704.0 489656.0 0
235546.0 489744.0 0
239382.0 489836.0 0
243215.0 489931.0 0
247044.0 490030.0 0
250872.0 490133.0 0
254699.0 490240.0 0
258526.0 490351.0 0
262355.0 490465.0 0
266188.0 490581.0 0
270024.0 490698.0 0
273866.0 490815.0 0
277714.0 490930.0 0
281569.0 491041.0 0
285432.0 491149.0 0
289301.0 491251.0 0
293178.0 491345.0 0
297063.0 491433.0 0
300956.0 491512.0 0
304857.0 491581.0 0
308766.0 491641.0 0
312683.0 491691.0 0
316608.0 491730.0 0
320543.0 491758.0 0
324486.0 491774.0 0
328440.0 491776.0 0
332403.0 491763.0 0
336374.0 491735.0 0
340352.0 491687.0 0
344332.0 491620.0 0
348303.0 491535.0 0
352989.0 490769.0 0
356953.0 490630.0 0
360909.0 490440.0 0
364861.0 490207.0 0
368816.0 489922.0 0
379248.0 492187.0 0
383467.0 491946.0 0
387400.0 491474.0 0
391332.0 490930.0 0
402496.0 492445.0 0
407443.0 492138.0 0
411310.0 491196.0 0
94076.1 494296.0 0
97942.8 495321.0 0
102543.0 495983.0 0
109252.0 493358.0 0
113544.0 493486.0 0
117529.0 493727.0 0
121587.0 494181.0 0
125677.0 494493.0 0
129304.0 492998.0 0
133272.0 493293.0 0
137253.0 493544.0 0
141238.0 493766.0 0
145224.0 493964.0 0
149206.0 494141.0 0
153179.0 494297.0 0
157143.0 494435.0 0
161096.0 494560.0 0
165042.0 494675.0 0
168979.0 494781.0 0
172912.0 494882.0 0
176840.0 494978.0 0
206385.0 492379.0 0
210272.0 492469.0 0
214154.0 492560.0 0
218030.0 492650.0 0
221901.0 492742.0 0
225767.0 492833.0 0
229627.0 492925.0 0
233483.0 493019.0 0
237334.0 493115.0 0
241181.0 493214.0 0
245026.0 493315.0 0
248868.0 493419.0 0
252708.0 493527.0 0
256549.0 493636.0 0
260391.0 493748.0 0
264235.0 493862.0 0
268083.0 493975.0 0
271935.0 494088.0 0
275793.0 494199.0 0
279656.0 494308.0 0
283527.0 494412.0 0
287404.0 494511.0 0
291288.0 494603.0 0
295179.0 494688.0 0
299078.0 494765.0 0
302985.0 494833.0 0
338500.0 494967.0 0
342475.0 494923.0 0
346444.0 494872.0 0
351267.0 494014.0 0
355238.0 493925.0 0
359211.0 493783.0 0
363178.0 493594.0 0
367142.0 493352.0 0
371331.0 492848.0 0
375296.0 492531.0 0
381630.0 495219.0 0
386058.0 494998.0 0
389997.0 494437.0 0
393948.0 493798.0 0
398615.0 493274.0 0
91089.6 496891.0 0
95108.1 498050.0 0
99719.1 498717.0 0
107196.0 496682.0 0
130999.0 496510.0 0
134974.0 496740.0 0
138960.0 496950.0 0
142949.0 497144.0 0
146936.0 497323.0 0
150917.0 497487.0 0
180764.0 495071.0 0
184684.0 495163.0 0
188602.0 495253.0 0
192516.0 495344.0 0
196426.0 495435.0 0
200332.0 495528.0 0
204234.0 495622.0 0
208132.0 495717.0 0
212024.0 495813.0 0
215911.0 495910.0 0
219793.0 496007.0 0
223670.0 496104.0 0
227543.0 496202.0 0
231412.0 496301.0 0
235276.0 496401.0 0
239137.0 496503.0 0
242995.0 496608.0 0
246850.0 496714.0 0
250704.0 496823.0 0
254557.0 496933.0 0
258410.0 497044.0 0
262266.0 497156.0 0
266124.0 497267.0 0
306899.0 494892.0 0
310821.0 494942.0 0
314751.0 494980.0 0
318689.0 495008.0 0
322635.0 495025.0 0
326590.0 495029.0 0
330554.0 495021.0 0
334524.0 495001.0 0
349486.0 497275.0 0
353462.0 497222.0 0
357445.0 497120.0 0
361427.0 496978.0 0
365404.0 496790.0 0
369752.0 496215.0 0
373713.0 495921.0 0
377686.0 495615.0 0
388693.0 498005.0 0
392635.0 497367.0 0
396712.0 496589.0 0
401320.0 496138.0 0
405211.0 495364.0 0
92151.1 500686.0 0
104282.0 499341.0 0
111206.0 496733.0 0
115230.0 496980.0 0
119190.0 497262.0 0
123280.0 497595.0 0
127289.0 497827.0 0
132742.0 499992.0 0
136719.0 500177.0 0
154890.0 497636.0 0
158854.0 497772.0 0
162809.0 497896.0 0
166757.0 498010.0 0
170698.0 498116.0 0
174635.0 498217.0 0
178567.0 498314.0 0
182496.0 498408.0 0
186421.0 498500.0 0
190342.0 498593.0 0
194261.0 498686.0 0
198175.0 498781.0 0
202086.0 498878.0 0
205992.0 498978.0 0
209893.0 499078.0 0
213790.0 499180.0 0
217682.0 499282.0 0
221570.0 499384.0 0
225454.0 499487.0 0
229333.0 499590.0 0
233210.0 499695.0 0
237083.0 499801.0 0
269986.0 497378.0 0
273853.0 497486.0 0
277726.0 497592.0 0
281604.0 497693.0 0
285488.0 497790.0 0
289379.0 497880.0 0
293277.0 497963.0 0
297182.0 498039.0 0
301094.0 498107.0 0
305013.0 498165.0 0
308940.0 498214.0 0
312873.0 498253.0 0
316814.0 498281.0 0
320763.0 498299.0 0
324719.0 498305.0 0
328682.0 498301.0 0
332651.0 498287.0 0
336624.0 498264.0 0
340597.0 498235.0 0
344564.0 498206.0 0
368124.0 499576.0 0
372093.0 499340.0 0
376055.0 499018.0 0
380115.0 498704.0 0
384056.0 498221.0 0
395393.0 500200.0 0
399388.0 499514.0 0
403933.0 499112.0 0
408129.0 498085.0 0
96932.5 501527.0 0
108988.0 500081.0 0
112971.0 500229.0 0
116948.0 500499.0 0
120932.0 500746.0 0
124990.0 501019.0 0
128984.0 501191.0 0
140704.0 500358.0 0
144692.0 500534.0 0
148677.0 500700.0 0
152655.0 500856.0 0
156627.0 501000.0 0
160590.0 501133.0 0
164546.0 501255.0 0
168496.0 501368.0 0
172440.0 501474.0 0
176380.0 501574.0 0
180315.0 501671.0 0
184247.0 501765.0 0
188176.0 501859.0 0
192101.0 501953.0 0
196023.0 502050.0 0
199941.0 502149.0 0
203855.0 502251.0 0
207764.0 502356.0 0
211669.0 502461.0 0
215570.0 502568.0 0
240953.0 499909.0 0
244821.0 500018.0 0
248686.0 500129.0 0
252551.0 500240.0 0
256415.0 500352.0 0
260282.0 500463.0 0
264150.0 500574.0 0
268022.0 500683.0 0
271897.0 500789.0 0
275778.0 500893.0 0
279664.0 500992.0 0
283556.0 501087.0 0
287454.0 501176.0 0
291358.0 501258.0 0
295268.0 501333.0 0
299185.0 501400.0 0
303109.0 501458.0 0
307040.0 501507.0 0
310977.0 501546.0 0
314921.0 501576.0 0
318871.0 501595.0 0
322828.0 501604.0 0
326791.0 501603.0 0
330759.0 501594.0 0
334730.0 501578.0 0
338701.0 501559.0 0
342668.0 501543.0 0
347659.0 500561.0 0
351635.0 500530.0 0
355621.0 500458.0 0
359611.0 500352.0 0
363599.0 500221.0 0
374432.0 502480.0 0
378399.0 502100.0 0
382614.0 501769.0 0
386554.0 501190.0 0
391335.0 500978.0 0
93987.7 504201.0 0
101481.0 502153.0 0
106000.0 502742.0 0
110764.0 503512.0 0
114730.0 503761.0 0
118708.0 504007.0 0
122699.0 504227.0 0
126747.0 504444.0 0
130733.0 504592.0 0
134516.0 503456.0 0
138493.0 503613.0 0
142477.0 503777.0 0
146461.0 503940.0 0
150443.0 504099.0 0
154418.0 504249.0 0
158386.0 504389.0 0
162348.0 504518.0 0
166305.0 504637.0 0
170256.0 504748.0 0
174203.0 504853.0 0
178145.0 504953.0 0
182083.0 505049.0 0
186017.0 505144.0 0
189949.0 505239.0 0
193877.0 505336.0 0
219467.0 502675.0 0
223360.0 502782.0 0
227250.0 502890.0 0
231137.0 502998.0 0
235021.0 503107.0 0
238902.0 503218.0 0
242781.0 503331.0 0
246657.0 503445.0 0
250533.0 503558.0 0
254407.0 503672.0 0
258283.0 503784.0 0
262161.0 503894.0 0
266041.0 504003.0 0
269926.0 504108.0 0
273814.0 504211.0 0
277708.0 504309.0 0
281606.0 504402.0 0
285511.0 504490.0 0
289421.0 504572.0 0
293337.0 504647.0 0
297259.0 504713.0 0
301188.0 504772.0 0
305122.0 504821.0 0
309063.0 504862.0 0
313010.0 504892.0 0
316962.0 504913.0 0
320920.0 504924.0 0
324884.0 504927.0 0
328851.0 504921.0 0
332821.0 504910.0 0
336792.0 504897.0 0
340761.0 504888.0 0
345794.0 503876.0 0
349770.0 503856.0 0
353756.0 503805.0 0
357746.0 503727.0 0
361732.0 503631.0 0
366424.0 502929.0 0
370410.0 502758.0 0
380789.0 505158.0 0
385170.0 504799.0 0
389108.0 504153.0 0
394068.0 503842.0 0
398014.0 503183.0 0
401956.0 502563.0 0
406464.0 502169.0 0
98743.3 505049.0 0
103232.0 505623.0 0
107806.0 506135.0 0
112461.0 507015.0 0
136310.0 506914.0 0
140288.0 507056.0 0
144270.0 507209.0 0
148252.0 507366.0 0
152229.0 507520.0 0
156200.0 507667.0 0
160166.0 507802.0 0
164127.0 507927.0 0
197801.0 505436.0 0
201721.0 505540.0 0
205638.0 505647.0 0
209550.0 505756.0 0
213458.0 505867.0 0
217363.0 505978.0 0
221264.0 506090.0 0
225162.0 506201.0 0
229058.0 506312.0 0
232952.0 506424.0 0
236843.0 506538.0 0
240732.0 506654.0 0
244619.0 506771.0 0
248503.0 506888.0 0
252387.0 507004.0 0
256272.0 507117.0 0
260158.0 507229.0 0
264047.0 507337.0 0
267939.0 507443.0 0
271835.0 507544.0 0
275735.0 507642.0 0
279641.0 507735.0 0
343901.0 507220.0 0
347877.0 507204.0 0
351863.0 507166.0 0
355852.0 507109.0 0
359838.0 507038.0 0
364622.0 506272.0 0
368636.0 506170.0 0
372725.0 505916.0 0
376827.0 505604.0 0
387750.0 507809.0 0
391803.0 507036.0 0
396620.0 506860.0 0
404135.0 505902.0 0
96612.0 508421.0 0
100770.0 508764.0 0
105113.0 509056.0 0
109476.0 509633.0 0
116493.0 507291.0 0
120496.0 507510.0 0
124513.0 507700.0 0
128528.0 507886.0 0
132512.0 508026.0 0
138121.0 510374.0 0
142101.0 510509.0 0
168084.0 508043.0 0
172037.0 508151.0 0
175986.0 508254.0 0
179929.0 508353.0 0
183869.0 508448.0 0
187805.0 508543.0 0
191738.0 508640.0 0
195667.0 508741.0 0
199593.0 508845.0 0
203515.0 508954.0 0
207433.0 509066.0 0
211348.0 509180.0 0
215259.0 509295.0 0
219167.0 509410.0 0
223073.0 509524.0 0
226976.0 509638.0 0
230878.0 509752.0 0
234778.0 509868.0 0
238676.0 509986.0 0
242572.0 510107.0 0
246465.0 510228.0 0
283551.0 507823.0 0
287467.0 507905.0 0
291389.0 507979.0 0
295316.0 508046.0 0
299249.0 508105.0 0
303188.0 508156.0 0
307132.0 508197.0 0
311082.0 508230.0 0
315037.0 508253.0 0
318997.0 508267.0 0
322961.0 508271.0 0
326929.0 508269.0 0
330900.0 508261.0 0
334872.0 508251.0 0
338843.0 508245.0 0
353940.0 510502.0 0
357928.0 510449.0 0
362773.0 509645.0 0
366762.0 509557.0 0
370952.0 509351.0 0
375091.0 509050.0 0
379257.0 508723.0 0
383243.0 508183.0 0
394361.0 510081.0 0
400518.0 507575.0 0
114180.0 510520.0 0
118301.0 510813.0 0
122332.0 511003.0 0
126335.0 511184.0 0
130331.0 511350.0 0
134316.0 511485.0 0
146082.0 510659.0 0
150059.0 510815.0 0
154032.0 510967.0 0
158000.0 511108.0 0
161964.0 511238.0 0
165926.0 511357.0 0
169885.0 511469.0 0
173840.0 511575.0 0
177790.0 511677.0 0
181734.0 511774.0 0
185673.0 511869.0 0
189609.0 511964.0 0
193542.0 512064.0 0
197471.0 512168.0 0
201397.0 512277.0 0
205319.0 512390.0 0
209239.0 512507.0 0
213156.0 512626.0 0
217070.0 512744.0 0
220982.0 512862.0 0
224892.0 512978.0 0
250356.0 510348.0 0
254248.0 510464.0 0
258142.0 510577.0 0
262038.0 510686.0 0
265937.0 510792.0 0
269840.0 510894.0 0
273748.0 510992.0 0
277659.0 511085.0 0
281576.0 511173.0 0
285498.0 511255.0 0
289424.0 511330.0 0
293357.0 511398.0 0
297294.0 511458.0 0
301237.0 511510.0 0
305185.0 511553.0 0
309139.0 511588.0 0
313097.0 511613.0 0
317059.0 511629.0 0
321025.0 511637.0 0
324995.0 511637.0 0
328967.0 511631.0 0
332941.0 511623.0 0
336915.0 511617.0 0
341987.0 510592.0 0
345965.0 510575.0 0
349950.0 510545.0 0
369051.0 512749.0 0
373314.0 512508.0 0
377465.0 512190.0 0
381751.0 511801.0 0
385755.0 511194.0 0
390432.0 510724.0 0
401820.0 511342.0 0
98415.3 511990.0 0
102735.0 512250.0 0
106832.0 512598.0 0
111191.0 513147.0 0
115951.0 514024.0 0
120152.0 514321.0 0
124166.0 514510.0 0
128163.0 514680.0 0
132156.0 514833.0 0
136140.0 514965.0 0
139948.0 513841.0 0
143929.0 513978.0 0
147907.0 514133.0 0
151880.0 514290.0 0
155851.0 514437.0 0
159818.0 514573.0 0
163783.0 514694.0 0
167747.0 514807.0 0
171709.0 514915.0 0
175664.0 515022.0 0
179614.0 515122.0 0
183557.0 515218.0 0
187495.0 515311.0 0
191429.0 515408.0 0
195359.0 515511.0 0
199285.0 515619.0 0
203210.0 515732.0 0
228801.0 513094.0 0
232708.0 513210.0 0
236614.0 513330.0 0
240518.0 513454.0 0
244418.0 513580.0 0
248316.0 513705.0 0
252214.0 513824.0 0
256114.0 513940.0 0
260017.0 514050.0 0
263923.0 514157.0 0
267832.0 514260.0 0
271745.0 514358.0 0
275663.0 514452.0 0
279585.0 514540.0 0
283512.0 514623.0 0
287444.0 514699.0 0
291381.0 514768.0 0
295323.0 514830.0 0
299270.0 514883.0 0
303223.0 514928.0 0
307180.0 514965.0 0
311141.0 514993.0 0
315107.0 515012.0 0
319076.0 515023.0 0
323048.0 515026.0 0
327023.0 515022.0 0
330999.0 515013.0 0
334977.0 515006.0 0
340056.0 513989.0 0
344036.0 513970.0 0
348022.0 513943.0 0
352012.0 513907.0 0
356002.0 513866.0 0
360896.0 513044.0 0
364887.0 512975.0 0
375676.0 515678.0 0
379917.0 515292.0 0
384279.0 514854.0 0
388412.0 514113.0 0
392970.0 513789.0 0
397870.0 511975.0 0
100383.0 515474.0 0
104518.0 515834.0 0
108582.0 516152.0 0
112965.0 516669.0 0
117782.0 517521.0 0
141787.0 517320.0 0
145766.0 517473.0 0
149740.0 517635.0 0
153714.0 517787.0 0
157686.0 517929.0 0
161656.0 518058.0 0
169589.0 518273.0 0
173553.0 518384.0 0
207133.0 515851.0 0
211054.0 515972.0 0
214973.0 516094.0 0
218892.0 516214.0 0
222808.0 516333.0 0
226723.0 516451.0 0
230636.0 516567.0 0
234548.0 516685.0 0
238459.0 516811.0 0
242366.0 516944.0 0
246268.0 517075.0 0
250171.0 517199.0 0
254076.0 517317.0 0
257984.0 517430.0 0
261895.0 517538.0 0
265810.0 517641.0 0
269728.0 517741.0 0
273651.0 517835.0 0
277578.0 517925.0 0
281510.0 518008.0 0
285447.0 518086.0 0
289389.0 518156.0 0
293336.0 518220.0 0
338110.0 517410.0 0
342093.0 517388.0 0
346081.0 517362.0 0
350071.0 517329.0 0
354063.0 517294.0 0
358989.0 516464.0 0
362983.0 516410.0 0
367183.0 516196.0 0
371392.0 515924.0 0
386948.0 517798.0 0
390915.0 517192.0 0
396458.0 515719.0 0
400395.0 515071.0 0
102166.0 519055.0 0
106299.0 519421.0 0
121991.0 517846.0 0
126009.0 518027.0 0
130006.0 518189.0 0
134000.0 518334.0 0
137984.0 518462.0 0
143622.0 520822.0 0
165620.0 518167.0 0
177510.0 518490.0 0
181460.0 518590.0 0
185399.0 518682.0 0
189332.0 518775.0 0
193260.0 518875.0 0
197185.0 518984.0 0
201106.0 519096.0 0
205029.0 519211.0 0
208953.0 519334.0 0
212876.0 519459.0 0
216800.0 519582.0 0
220724.0 519703.0 0
224647.0 519824.0 0
228566.0 519942.0 0
232483.0 520058.0 0
236397.0 520178.0 0
240309.0 520317.0 0
244212.0 520459.0 0
248118.0 520588.0 0
252027.0 520709.0 0
297288.0 518275.0 0
301244.0 518322.0 0
305205.0 518361.0 0
309171.0 518392.0 0
313140.0 518414.0 0
317113.0 518427.0 0
321089.0 518433.0 0
325067.0 518432.0 0
329047.0 518424.0 0
333029.0 518414.0 0
344129.0 520801.0 0
348121.0 520771.0 0
352115.0 520736.0 0
357056.0 519905.0 0
361052.0 519859.0 0
365279.0 519651.0 0
369531.0 519400.0 0
373738.0 519118.0 0
378095.0 518818.0 0
382426.0 518365.0 0
395522.0 519603.0 0
399463.0 518955.0 0
110360.0 519715.0 0
114570.0 520302.0 0
118630.0 521398.0 0
122610.0 521781.0 0
126603.0 521961.0 0
130913.0 522061.0 0
134909.0 522206.0 0
138902.0 522327.0 0
147602.0 520999.0 0
151584.0 521156.0 0
155564.0 521305.0 0
159542.0 521442.0 0
163516.0 521563.0 0
167481.0 521650.0 0
171450.0 521763.0 0
175420.0 521873.0 0
179383.0 521980.0 0
183330.0 522081.0 0
187262.0 522169.0 0
191180.0 522265.0 0
195094.0 522370.0 0
199012.0 522482.0 0
202931.0 522595.0 0
206851.0 522714.0 0
210776.0 522841.0 0
214706.0 522965.0 0
218638.0 523088.0 0
222570.0 523210.0 0
226500.0 523333.0 0
255940.0 520824.0 0
259856.0 520934.0 0
263775.0 521039.0 0
267698.0 521140.0 0
271626.0 521235.0 0
275557.0 521326.0 0
279494.0 521411.0 0
283435.0 521490.0 0
287381.0 521562.0 0
291332.0 521627.0 0
295288.0 521685.0 0
299249.0 521735.0 0
303215.0 521776.0 0
307185.0 521809.0 0
311158.0 521834.0 0
315136.0 521851.0 0
319116.0 521860.0 0
323099.0 521862.0 0
327084.0 521857.0 0
331070.0 521843.0 0
336153.0 520852.0 0
340139.0 520828.0 0
363343.0 523120.0 0
367616.0 522881.0 0
371869.0 522626.0 0
375928.0 522433.0 0
379920.0 522351.0 0
383901.0 522057.0 0
387870.0 521665.0 0
391812.0 521069.0 0
142222.0 524539.0 0
169341.0 525155.0 0
173331.0 525266.0 0
177320.0 525379.0 0
181430.0 525576.0 0
186281.0 526017.0 0
191883.0 526171.0 0
196728.0 525983.0 0
200716.0 526062.0 0
204695.0 526147.0 0
230426.0 523451.0 0
234342.0 523565.0 0
238248.0 523695.0 0
242147.0 523858.0 0
246056.0 523993.0 0
249969.0 524118.0 0
253886.0 524235.0 0
257806.0 524347.0 0
261729.0 524453.0 0
265656.0 524555.0 0
269587.0 524652.0 0
273522.0 524744.0 0
277462.0 524830.0 0
281407.0 524911.0 0
285357.0 524985.0 0
289312.0 525052.0 0
293273.0 525112.0 0
297238.0 525165.0 0
301208.0 525209.0 0
305183.0 525245.0 0
309161.0 525273.0 0
313143.0 525292.0 0
317129.0 525304.0 0
321117.0 525309.0 0
325108.0 525307.0 0
329104.0 525297.0 0
334186.0 524314.0 0
338176.0 524288.0 0
342167.0 524261.0 0
346161.0 524232.0 0
350158.0 524199.0 0
355106.0 523369.0 0
359103.0 523325.0 0
208657.0 526244.0 0
212606.0 526363.0 0
216550.0 526487.0 0
220491.0 526610.0 0
224433.0 526733.0 0
228380.0 526856.0 0
232340.0 526988.0 0
236318.0 527160.0 0
POINT_DATA 4650
SCALARS Radius float 1
LOOKUP_TABLE default
4000.0 4000.0 4000.0 4000.0 4000.0 4000.0 4000.0 4000.0 4000.0 4000.0 4000.0 4000.0 4000.0 4000.0 4000.0 4000.0 4000.0 4000.0 4000.0 4000.0 4000.0 4000.0 4000.0 4000.0 4000.0 4000.0 4000.0 4000.0 4000.0 4000.0 4000.0 4000.0 4000.0 4000.0 4000.0 4000.0 4000.0 4000.0 4000.0 4000.0 4000.0 4000.0 4000.0 4000.0 4000.0 4000.0 4000.0 4000.0 4000.0 4000.0 4000.0 4000.0 4000.0 4000.0 4000.0 4000.0 4000.0 4000.0 4000.0 4000.0 4000.0 4000.0 4000.0 4000.0 4000.0 4000.0 4000.0 4000.0 4000.0 4000.0 4000.0 4000.0 4000.0 4000.0 4000.0 4000.0 4000.0 4000.0 4000.0 4000.0 4000.0 4000.0 4000.0 4000.0 4000.0 4000.0 4000.0 4000.0 4000.0 4000.0 4000.0 4000.0 4000.0 4000.0 4000.0 4000.0 4000.0 4000.0 4000.0 4000.0 4000.0 4000.0 4000.0 4000.0 4000.0 4000.0 4000.0 4000.0 4000.0 4000.0 4000.0 4000.0 4000.0 4000.0 4000.0 4000.0 4000.0 4000.0 4000.0 4000.0 4000.0 4000.0 4000.0 4000.0 4000.0 4000.0 4000.0 4000.0 4000.0 4000.0 4000.0 4000.0 4000.0 4000.0 4000.0 4000.0 4000.0 4000.0 4000.0 4000.0 4000.0 4000.0 4000.0 4000.0 4000.0 4000.0 4000.0 4000.0 4000.0 4000.0 4000.0 4000.0 4000.0 4000.0 4000.0 4000.0 4000.0 4000.0 4000.0 4000.0 4000.0 4000.0 4000.0 4000.0 4000.0 4000.0 4000.0 4000.0 4000.0 4000.0 4000.0 4000.0 4000.0 4000.0 4000.0 4000.0 4000.0 4000.0 4000.0 4000.0 4000.0 4000.0 4000.0 4000.0 4000.0 4000.0 4000.0 4000.0 4000.0 4000.0 4000.0 4000.0 4000.0 4000.0 4000.0 4000.0 4000.0 4000.0 4000.0 4000.0 4000.0 4000.0 4000.0 4000.0 4000.0 4000.0 4000.0 4000.0 4000.0 4000.0 4000.0 4000.0 4000.0 4000.0 4000.0 4000.0 4000.0 4000.0 4000.0 4000.0 4000.0 4000.0 4000.0 4000.0 4000.0 4000.0 4000.0 4000.0 4000.0 4000.0 4000.0 4000.0 4000.0 4000.0 4000.0 4000.0 4000.0 4000.0 4000.0 4000.0 4000.0 4000.0 4000.0 4000.0 4000.0 4000.0 4000.0 4000.0 4000.0 4000.0 4000.0 4000.0 4000.0 4000.0 4000.0 4000.0 4000.0 4000.0 4000.0 4000.0 4000.0 4000.0 4000.0 4000.0 4000.0 4000.0 4000.0 4000.0 4000.0 4000.0 4000.0 4000.0 4000.0 4000.0 4000.0 4000.0 4000.0 4000.0 4000.0 4000.0 4000.0 4000.0 4000.0 4000.0 4000.0 4000.0 4000.0 4000.0 4000.0 4000.0 4000.0 4000.0 4000.0 4000.0 4000.0 4000.0 4000.0 4000.0 4000.0 4000.0 4000.0 4000.0 4000.0 4000.0 4000.0 4000.0 4000.0 4000.0 4000.0 4000.0 4000.0 4000.0 4000.0 4000.0 4000.0 4000.0 4000.0 4000.0 4000.0 4000.0 4000.0 4000.0 4000.0 4000.0 4000.0 4000.0 4000.0 4000.0 4000.0 4000.0 4000.0 4000.0 4000.0 4000.0 4000.0 4000.0 4000.0 4000.0 4000.0 4000.0 4000.0 4000.0 4000.0 4000.0 4000.0 4000.0 4000.0 4000.0 4000.0 4000.0 4000.0 4000.0 4000.0 4000.0 4000.0 4000.0 4000.0 4000.0 4000.0 4000.0 4000.0 4000.0 4000.0 4000.0 4000.0 4000.0 4000.0 4000.0 4000.0 4000.0 4000.0 4000.0 4000.0 4000.0 4000.0 4000.0 4000.0 4000.0 4000.0 4000.0 4000.0 4000.0 4000.0 4000.0 4000.0 4000.0 4000.0 4000.0 4000.0 4000.0 4000.0 4000.0 4000.0 4000.0 4000.0 4000.0 4000.0 4000.0 4000.0 4000.0 4000.0 4000.0 4000.0 4000.0 4000.0 4000.0 4000.0 4000.0 4000.0 4000.0 4000.0 4000.0 4000.0 4000.0 4000.0 4000.0 4000.0 4000.0 4000.0 4000.0 4000.0 4000.0 4000.0 4000.0 4000.0 4000.0 4000.0 4000.0 4000.0 4000.0 4000.0 4000.0 4000.0 4000.0 4000.0 4000.0 4000.0 4000.0 4000.0 4000.0 4000.0 4000.0 4000.0 4000.0 4000.0 4000.0 4000.0 4000.0 4000.0 4000.0 4000.0 4000.0 4000.0 4000.0 4000.0 4000.0 4000.0 4000.0 4000.0 4000.0 4000.0 4000.0 4000.0 4000.0 4000.0 4000.0 4000.0 4000.0 4000.0 4000.0 4000.0 4000.0 4000.0 4000.0 4000.0 4000.0 4000.0 4000.0 4000.0 4000.0 4000.0 4000.0 4000.0 4000.0 4000.0 4000.0 4000.0 4000.0 4000.0 4000.0 4000.0 4000.0 4000.0 4000.0 4000.0 4000.0 4000.0 4000.0 4000.0 4000.0 4000.0 4000.0 4000.0 4000.0 4000.0 4000.0 4000.0 4000.0 4000.0 4000.0 4000.0 4000.0 4000.0 4000.0 4000.0 4000.0 4000.0 4000.0 4000.0 4000.0 4000.0 4000.0 4000.0 4000.0 4000.0 4000.0 4000.0 4000.0 4000.0 4000.0 4000.0 4000.0 4000.0 4000.0 4000.0 4000.0 4000.0 4000.0 4000.0 4000.0 4000.0 4000.0 4000.0 4000.0 4000.0 4000.0 4000.0 4000.0 4000.0 4000.0 4000.0 4000.0 4000.0 4000.0 4000.0 4000.0 4000.0 4000.0 4000.0 4000.0 4000.0 4000.0 4000.0 4000.0 4000.0 4000.0 4000.0 4000.0 4000.0 4000.0 4000.0 4000.0 4000.0 4000.0 4000.0 4000.0 4000.0 4000.0 4000.0 4000.0 4000.0 4000.0 4000.0 4000.0 4000.0 4000.0 4000.0 4000.0 4000.0 4000.0 4000.0 4000.0 4000.0 4000.0 4000.0 4000.0 4000.0 4000.0 4000.0 4000.0 4000.0 4000.0 4000.0 4000.0 4000.0 4000.0 4000.0 4000.0 4000.0 4000.0 4000.0 4000.0 4000.0 4000.0 4000.0 4000.0 4000.0 4000.0 4000.0 4000.0 4000.0 4000.0 4000.0 4000.0 4000.0 4000.0 4000.0 4000.0 4000.0 4000.0 4000.0 4000.0 4000.0 4000.0 4000.0 4000.0 4000.0 4000.0 4000.0 4000.0 4000.0 4000.0 4000.0 4000.0 4000.0 4000.0 4000.0 4000.0 4000.0 4000.0 4000.0 4000.0 4000.0 4000.0 4000.0 4000.0 4000.0 4000.0 4000.0 4000.0 4000.0 4000.0 4000.0 4000.0 4000.0 4000.0 4000.0 4000.0 4000.0 4000.0 4000.0 4000.0 4000.0 4000.0 4000.0 4000.0 4000.0 4000.0 4000.0 4000.0 4000.0 4000.0 4000.0 4000.0 4000.0 4000.0 4000.0 4000.0 4000.0 4000.0 4000.0 4000.0 4000.0 4000.0 4000.0 4000.0 4000.0 4000.0 4000.0 4000.0 4000.0 4000.0 4000.0 4000.0 4000.0 4000.0 4000.0 4000.0 4000.0 4000.0 4000.0 4000.0 4000.0 4000.0 4000.0 4000.0 4000.0 4000.0 4000.0 4000.0 4000.0 4000.0 4000.0 4000.0 4000.0 4000.0 4000.0 4000.0 4000.0 4000.0 4000.0 4000.0 4000.0 4000.0 4000.0 4000.0 4000.0 4000.0 4000.0 4000.0 4000.0 4000.0 4000.0 4000.0 4000.0 4000.0 4000.0 4000.0 4000.0 4000.0 4000.0 4000.0 4000.0 4000.0 4000.0 4000.0 4000.0 4000.0 4000.0 4000.0 4000.0 4000.0 4000.0 4000.0 4000.0 4000.0 4000.0 4000.0 4000.0 4000.0 4000.0 4000.0 4000.0 4000.0 4000.0 4000.0 4000.0 4000.0 4000.0 4000.0 4000.0 4000.0 4000.0 4000.0 4000.0 4000.0 4000.0 4000.0 4000.0 4000.0 4000.0 4000.0 4000.0 4000.0 4000.0 4000.0 4000.0 4000.0 4000.0 4000.0 4000.0 4000.0 4000.0 4000.0 4000.0 4000.0 4000.0 4000.0 4000.0 4000.0 4000.0 4000.0 4000.0 4000.0 4000.0 4000.0 4000.0 4000.0 4000.0 4000.0 4000.0 4000.0 4000.0 4000.0 4000.0 4000.0 4000.0 4000.0 4000.0 4000.0 4000.0 4000.0 4000.0 4000.0 4000.0 4000.0 4000.0 4000.0 4000.0 4000.0 4000.0 4000.0 4000.0 4000.0 4000.0 4000.0 4000.0 4000.0 4000.0 4000.0 4000.0 4000.0 4000.0 4000.0 4000.0 4000.0 4000.0 4000.0 4000.0 4000.0 4000.0 4000.0 4000.0 4000.0 4000.0 4000.0 4000.0 4000.0 4000.0 4000.0 4000.0 4000.0 4000.0 4000.0 4000.0 4000.0 4000.0 4000.0 4000.0 4000.0 4000.0 4000.0 4000.0 4000.0 4000.0 4000.0 4000.0 4000.0 4000.0 4000.0 4000.0 4000.0 4000.0 4000.0 4000.0 4000.0 4000.0 4000.0 4000.0 4000.0 4000.0 4000.0 4000.0 4000.0 4000.0 4000.0 4000.0 4000.0 4000.0 4000.0 4000.0 4000.0 4000.0 4000.0 4000.0 4000.0 4000.0 4000.0 4000.0 4000.0 4000.0 4000.0 4000.0 4000.0 4000.0 4000.0 4000.0 4000.0 4000.0 4000.0 4000.0 4000.0 4000.0 4000.0 4000.0 4000.0 4000.0 4000.0 4000.0 4000.0 4000.0 4000.0 4000.0 4000.0 4000.0 4000.0 4000.0 4000.0 4000.0 4000.0 4000.0 4000.0 4000.0 4000.0 4000.0 4000.0 4000.0 4000.0 4000.0 4000.0 4000.0 4000.0 4000.0 4000.0 4000.0 4000.0 4000.0 4000.0 4000.0 4000.0 4000.0 4000.0 4000.0 4000.0 4000.0 4000.0 4000.0 4000.0 4000.0 4000.0 4000.0 4000.0 4000.0 4000.0 4000.0 4000.0 4000.0 4000.0 4000.0 4000.0 4000.0 4000.0 4000.0 4000.0 4000.0 4000.0 4000.0 4000.0 4000.0 4000.0 4000.0 4000.0 4000.0 4000.0 4000.0 4000.0 4000.0 4000.0 4000.0 4000.0 4000.0 4000.0 4000.0 4000.0 4000.0 4000.0 4000.0 4000.0 4000.0 4000.0 4000.0 4000.0 4000.0 4000.0 4000.0 4000.0 4000.0 4000.0 4000.0 4000.0 4000.0 4000.0 4000.0 4000.0 4000.0 4000.0 4000.0 4000.0 4000.0 4000.0 4000.0 4000.0 4000.0 4000.0 4000.0 4000.0 4000.0 4000.0 4000.0 4000.0 4000.0 4000.0 4000.0 4000.0 4000.0 4000.0 4000.0 4000.0 4000.0 4000.0 4000.0 4000.0 4000.0 4000.0 4000.0 4000.0 4000.0 4000.0 4000.0 4000.0 4000.0 4000.0 4000.0 4000.0 4000.0 4000.0 4000.0 4000.0 4000.0 4000.0 4000.0 4000.0 4000.0 4000.0 4000.0 4000.0 4000.0 4000.0 4000.0 4000.0 4000.0 4000.0 4000.0 4000.0 4000.0 4000.0 4000.0 4000.0 4000.0 4000.0 4000.0 4000.0 4000.0 4000.0 4000.0 4000.0 4000.0 4000.0 4000.0 4000.0 4000.0 4000.0 4000.0 4000.0 4000.0 4000.0 4000.0 4000.0 4000.0 4000.0 4000.0 4000.0 4000.0 4000.0 4000.0 4000.0 4000.0 4000.0 4000.0 4000.0 4000.0 4000.0 4000.0 4000.0 4000.0 4000.0 4000.0 4000.0 4000.0 4000.0 4000.0 4000.0 4000.0 4000.0 4000.0 4000.0 4000.0 4000.0 4000.0 4000.0 4000.0 4000.0 4000.0 4000.0 4000.0 4000.0 4000.0 4000.0 4000.0 4000.0 4000.0 4000.0 4000.0 4000.0 4000.0 4000.0 4000.0 4000.0 4000.0 4000.0 4000.0 4000.0 4000.0 4000.0 4000.0 4000.0 4000.0 4000.0 4000.0 4000.0 4000.0 4000.0 4000.0 4000.0 4000.0 4000.0 4000.0 4000.0 4000.0 4000.0 4000.0 4000.0 4000.0 4000.0 4000.0 4000.0 4000.0 4000.0 4000.0 4000.0 4000.0 4000.0 4000.0 4000.0 4000.0 4000.0 4000.0 4000.0 4000.0 4000.0 4000.0 4000.0 4000.0 4000.0 4000.0 4000.0 4000.0 4000.0 4000.0 4000.0 4000.0 4000.0 4000.0 4000.0 4000.0 4000.0 4000.0 4000.0 4000.0 4000.0 4000.0 4000.0 4000.0 4000.0 4000.0 4000.0 4000.0 4000.0 4000.0 4000.0 4000.0 4000.0 4000.0 4000.0 4000.0 4000.0 4000.0 4000.0 4000.0 4000.0 4000.0 4000.0 4000.0 4000.0 4000.0 4000.0 4000.0 4000.0 4000.0 4000.0 4000.0 4000.0 4000.0 4000.0 4000.0 4000.0 4000.0 4000.0 4000.0 4000.0 4000.0 4000.0 4000.0 4000.0 4000.0 4000.0 4000.0 4000.0 4000.0 4000.0 4000.0 4000.0 4000.0 4000.0 4000.0 4000.0 4000.0 4000.0 4000.0 4000.0 4000.0 4000.0 4000.0 4000.0 4000.0 4000.0 4000.0 4000.0 4000.0 4000.0 4000.0 4000.0 4000.0 4000.0 4000.0 4000.0 4000.0 4000.0 4000.0 4000.0 4000.0 4000.0 4000.0 4000.0 4000.0 4000.0 4000.0 4000.0 4000.0 4000.0 4000.0 4000.0 4000.0 4000.0 4000.0 4000.0 4000.0 4000.0 4000.0 4000.0 4000.0 4000.0 4000.0 4000.0 4000.0 4000.0 4000.0 4000.0 4000.0 4000.0 4000.0 4000.0 4000.0 4000.0 4000.0 4000.0 4000.0 4000.0 4000.0 4000.0 4000.0 4000.0 4000.0 4000.0 4000.0 4000.0 4000.0 4000.0 4000.0 4000.0 4000.0 4000.0 4000.0 4000.0 4000.0 4000.0 4000.0 4000.0 4000.0 4000.0 4000.0 4000.0 4000.0 4000.0 4000.0 4000.0 4000.0 4000.0 4000.0 4000.0 4000.0 4000.0 4000.0 4000.0 4000.0 4000.0 4000.0 4000.0 4000.0 4000.0 4000.0 4000.0 4000.0 4000.0 4000.0 4000.0 4000.0 4000.0 4000.0 4000.0 4000.0 4000.0 4000.0 4000.0 4000.0 4000.0 4000.0 4000.0 4000.0 4000.0 4000.0 4000.0 4000.0 4000.0 4000.0 4000.0 4000.0 4000.0 4000.0 4000.0 4000.0 4000.0 4000.0 4000.0 4000.0 4000.0 4000.0 4000.0 4000.0 4000.0 4000.0 4000.0 4000.0 4000.0 4000.0 4000.0 4000.0 4000.0 4000.0 4000.0 4000.0 4000.0 4000.0 4000.0 4000.0 4000.0 4000.0 4000.0 4000.0 4000.0 4000.0 4000.0 4000.0 4000.0 4000.0 4000.0 4000.0 4000.0 4000.0 4000.0 4000.0 4000.0 4000.0 4000.0 4000.0 4000.0 4000.0 4000.0 4000.0 4000.0 4000.0 4000.0 4000.0 4000.0 4000.0 4000.0 4000.0 4000.0 4000.0 4000.0 4000.0 4000.0 4000.0 4000.0 4000.0 4000.0 4000.0 4000.0 4000.0 4000.0 4000.0 4000.0 4000.0 4000.0 4000.0 4000.0 4000.0 4000.0 4000.0 4000.0 4000.0 4000.0 4000.0 4000.0 4000.0 4000.0 4000.0 4000.0 4000.0 4000.0 4000.0 4000.0 4000.0 4000.0 4000.0 4000.0 4000.0 4000.0 4000.0 4000.0 4000.0 4000.0 4000.0 4000.0 4000.0 4000.0 4000.0 4000.0 4000.0 4000.0 4000.0 4000.0 4000.0 4000.0 4000.0 4000.0 4000.0 4000.0 4000.0 4000.0 4000.0 4000.0 4000.0 4000.0 4000.0 4000.0 4000.0 4000.0 4000.0 4000.0 4000.0 4000.0 4000.0 4000.0 4000.0 4000.0 4000.0 4000.0 4000.0 4000.0 4000.0 4000.0 4000.0 4000.0 4000.0 4000.0 4000.0 4000.0 4000.0 4000.0 4000.0 4000.0 4000.0 4000.0 4000.0 4000.0 4000.0 4000.0 4000.0 4000.0 4000.0 4000.0 4000.0 4000.0 4000.0 4000.0 4000.0 4000.0 4000.0 4000.0 4000.0 4000.0 4000.0 4000.0 4000.0 4000.0 4000.0 4000.0 4000.0 4000.0 4000.0 4000.0 4000.0 4000.0 4000.0 4000.0 4000.0 4000.0 4000.0 4000.0 4000.0 4000.0 4000.0 4000.0 4000.0 4000.0 4000.0 4000.0 4000.0 4000.0 4000.0 4000.0 4000.0 4000.0 4000.0 4000.0 4000.0 4000.0 4000.0 4000.0 4000.0 4000.0 4000.0 4000.0 4000.0 4000.0 4000.0 4000.0 4000.0 4000.0 4000.0 4000.0 4000.0 4000.0 4000.0 4000.0 4000.0 4000.0 4000.0 4000.0 4000.0 4000.0 4000.0 4000.0 4000.0 4000.0 4000.0 4000.0 4000.0 4000.0 4000.0 4000.0 4000.0 4000.0 4000.0 4000.0 4000.0 4000.0 4000.0 4000.0 4000.0 4000.0 4000.0 4000.0 4000.0 4000.0 4000.0 4000.0 4000.0 4000.0 4000.0 4000.0 4000.0 4000.0 4000.0 4000.0 4000.0 4000.0 4000.0 4000.0 4000.0 4000.0 4000.0 4000.0 4000.0 4000.0 4000.0 4000.0 4000.0 4000.0 4000.0 4000.0 4000.0 4000.0 4000.0 4000.0 4000.0 4000.0 4000.0 4000.0 4000.0 4000.0 4000.0 4000.0 4000.0 4000.0 4000.0 4000.0 4000.0 4000.0 4000.0 4000.0 4000.0 4000.0 4000.0 4000.0 4000.0 4000.0 4000.0 4000.0 4000.0 4000.0 4000.0 4000.0 4000.0 4000.0 4000.0 4000.0 4000.0 4000.0 4000.0 4000.0 4000.0 4000.0 4000.0 4000.0 4000.0 4000.0 4000.0 4000.0 4000.0 4000.0 4000.0 4000.0 4000.0 4000.0 4000.0 4000.0 4000.0 4000.0 4000.0 4000.0 4000.0 4000.0 4000.0 4000.0 4000.0 4000.0 4000.0 4000.0 4000.0 4000.0 4000.0 4000.0 4000.0 4000.0 4000.0 4000.0 4000.0 4000.0 4000.0 4000.0 4000.0 4000.0 4000.0 4000.0 4000.0 4000.0 4000.0 4000.0 4000.0 4000.0 4000.0 4000.0 4000.0 4000.0 4000.0 4000.0 4000.0 4000.0 4000.0 4000.0 4000.0 4000.0 4000.0 4000.0 4000.0 4000.0 4000.0 4000.0 4000.0 4000.0 4000.0 4000.0 4000.0 4000.0 4000.0 4000.0 4000.0 4000.0 4000.0 4000.0 4000.0 4000.0 4000.0 4000.0 4000.0 4000.0 4000.0 4000.0 4000.0 4000.0 4000.0 4000.0 4000.0 4000.0 4000.0 4000.0 4000.0 4000.0 4000.0 4000.0 4000.0 4000.0 4000.0 4000.0 4000.0 4000.0 4000.0 4000.0 4000.0 4000.0 4000.0 4000.0 4000.0 4000.0 4000.0 4000.0 4000.0 4000.0 4000.0 4000.0 4000.0 4000.0 4000.0 4000.0 4000.0 4000.0 4000.0 4000.0 4000.0 4000.0 4000.0 4000.0 4000.0 4000.0 4000.0 4000.0 4000.0 4000.0 4000.0 4000.0 4000.0 4000.0 4000.0 4000.0 4000.0 4000.0 4000.0 4000.0 4000.0 4000.0 4000.0 4000.0 4000.0 4000.0 4000.0 4000.0 4000.0 4000.0 4000.0 4000.0 4000.0 4000.0 4000.0 4000.0 4000.0 4000.0 4000.0 4000.0 4000.0 4000.0 4000.0 4000.0 4000.0 4000.0 4000.0 4000.0 4000.0 4000.0 4000.0 4000.0 4000.0 4000.0 4000.0 4000.0 4000.0 4000.0 4000.0 4000.0 4000.0 4000.0 4000.0 4000.0 4000.0 4000.0 4000.0 4000.0 4000.0 4000.0 4000.0 4000.0 4000.0 4000.0 4000.0 4000.0 4000.0 4000.0 4000.0 4000.0 4000.0 4000.0 4000.0 4000.0 4000.0 4000.0 4000.0 4000.0 4000.0 4000.0 4000.0 4000.0 4000.0 4000.0 4000.0 4000.0 4000.0 4000.0 4000.0 4000.0 4000.0 4000.0 4000.0 4000.0 4000.0 4000.0 4000.0 4000.0 4000.0 4000.0 4000.0 4000.0 4000.0 4000.0 4000.0 4000.0 4000.0 4000.0 4000.0 4000.0 4000.0 4000.0 4000.0 4000.0 4000.0 4000.0 4000.0 4000.0 4000.0 4000.0 4000.0 4000.0 4000.0 4000.0 4000.0 4000.0 4000.0 4000.0 4000.0 4000.0 4000.0 4000.0 4000.0 4000.0 4000.0 4000.0 4000.0 4000.0 4000.0 4000.0 4000.0 4000.0 4000.0 4000.0 4000.0 4000.0 4000.0 4000.0 4000.0 4000.0 4000.0 4000.0 4000.0 4000.0 4000.0 4000.0 4000.0 4000.0 4000.0 4000.0 4000.0 4000.0 4000.0 4000.0 4000.0 4000.0 4000.0 4000.0 4000.0 4000.0 4000.0 4000.0 4000.0 4000.0 4000.0 4000.0 4000.0 4000.0 4000.0 4000.0 4000.0 4000.0 4000.0 4000.0 4000.0 4000.0 4000.0 4000.0 4000.0 4000.0 4000.0 4000.0 4000.0 4000.0 4000.0 4000.0 4000.0 4000.0 4000.0 4000.0 4000.0 4000.0 4000.0 4000.0 4000.0 4000.0 4000.0 4000.0 4000.0 4000.0 4000.0 4000.0 4000.0 4000.0 4000.0 4000.0 4000.0 4000.0 4000.0 4000.0 4000.0 4000.0 4000.0 4000.0 4000.0 4000.0 4000.0 4000.0 4000.0 4000.0 4000.0 4000.0 4000.0 4000.0 4000.0 4000.0 4000.0 4000.0 4000.0 4000.0 4000.0 4000.0 4000.0 4000.0 4000.0 4000.0 4000.0 4000.0 4000.0 4000.0 4000.0 4000.0 4000.0 4000.0 4000.0 4000.0 4000.0 4000.0 4000.0 4000.0 4000.0 4000.0 4000.0 4000.0 4000.0 4000.0 4000.0 4000.0 4000.0 4000.0 4000.0 4000.0 4000.0 4000.0 4000.0 4000.0 4000.0 4000.0 4000.0 4000.0 4000.0 4000.0 4000.0 4000.0 4000.0 4000.0 4000.0 4000.0 4000.0 4000.0 4000.0 4000.0 4000.0 4000.0 4000.0 4000.0 4000.0 4000.0 4000.0 4000.0 4000.0 4000.0 4000.0 4000.0 4000.0 4000.0 4000.0 4000.0 4000.0 4000.0 4000.0 4000.0 4000.0 4000.0 4000.0 4000.0 4000.0 4000.0 4000.0 4000.0 4000.0 4000.0 4000.0 4000.0 4000.0 4000.0 4000.0 4000.0 4000.0 4000.0 4000.0 4000.0 4000.0 4000.0 4000.0 4000.0 4000.0 4000.0 4000.0 4000.0 4000.0 4000.0 4000.0 4000.0 4000.0 4000.0 4000.0 4000.0 4000.0 4000.0 4000.0 4000.0 4000.0 4000.0 4000.0 4000.0 4000.0 4000.0 4000.0 4000.0 4000.0 4000.0 4000.0 4000.0 4000.0 4000.0 4000.0 4000.0 4000.0 4000.0 4000.0 4000.0 4000.0 4000.0 4000.0 4000.0 4000.0 4000.0 4000.0 4000.0 4000.0 4000.0 4000.0 4000.0 4000.0 4000.0 4000.0 4000.0 4000.0 4000.0 4000.0 4000.0 4000.0 4000.0 4000.0 4000.0 4000.0 4000.0 4000.0 4000.0 4000.0 4000.0 4000.0 4000.0 4000.0 4000.0 4000.0 4000.0 4000.0 4000.0 4000.0 4000.0 4000.0 4000.0 4000.0 4000.0 4000.0 4000.0 4000.0 4000.0 4000.0 4000.0 4000.0 4000.0 4000.0 4000.0 4000.0 4000.0 4000.0 4000.0 4000.0 4000.0 4000.0 4000.0 4000.0 4000.0 4000.0 4000.0 4000.0 4000.0 4000.0 4000.0 4000.0 4000.0 4000.0 4000.0 4000.0 4000.0 4000.0 4000.0 4000.0 4000.0 4000.0 4000.0 4000.0 4000.0 4000.0 4000.0 4000.0 4000.0 4000.0 4000.0 4000.0 4000.0 4000.0 4000.0 4000.0 4000.0 4000.0 4000.0 4000.0 4000.0 4000.0 4000.0 4000.0 4000.0 4000.0 4000.0 4000.0 4000.0 4000.0 4000.0 4000.0 4000.0 4000.0 4000.0 4000.0 4000.0 4000.0 4000.0 4000.0 4000.0 4000.0 4000.0 4000.0 4000.0 4000.0 4000.0 4000.0 4000.0 4000.0 4000.0 4000.0 4000.0 4000.0 4000.0 4000.0 4000.0 4000.0 4000.0 4000.0 4000.0 4000.0 4000.0 4000.0 4000.0 4000.0 4000.0 4000.0 4000.0 4000.0 4000.0 4000.0 4000.0 4000.0 4000.0 4000.0 4000.0 4000.0 4000.0 4000.0 4000.0 4000.0 4000.0 4000.0 4000.0 4000.0 4000.0 4000.0 4000.0 4000.0 4000.0 4000.0 4000.0 4000.0 4000.0 4000.0 4000.0 4000.0 4000.0 4000.0 4000.0 4000.0 4000.0 4000.0 4000.0 4000.0 4000.0 4000.0 4000.0 4000.0 4000.0 4000.0 4000.0 4000.0 4000.0 4000.0 4000.0 4000.0 4000.0 4000.0 4000.0 4000.0 4000.0 4000.0 4000.0 4000.0 4000.0 4000.0 4000.0 4000.0 4000.0 4000.0 4000.0 4000.0 4000.0 4000.0 4000.0 4000.0 4000.0 4000.0 4000.0 4000.0 4000.0 4000.0 4000.0 4000.0 4000.0 4000.0 4000.0 4000.0 4000.0 4000.0 4000.0 4000.0 4000.0 4000.0 4000.0 4000.0 4000.0 4000.0 4000.0 4000.0 4000.0 4000.0 4000.0 4000.0 4000.0 4000.0 4000.0 4000.0 4000.0 4000.0 4000.0 4000.0 4000.0 4000.0 4000.0 4000.0 4000.0 4000.0 4000.0 4000.0 4000.0 4000.0 4000.0 4000.0 4000.0 4000.0 4000.0 4000.0 4000.0 4000.0 4000.0 4000.0 4000.0 4000.0 4000.0 4000.0 4000.0 4000.0 4000.0 4000.0 4000.0 4000.0 4000.0 4000.0 4000.0 4000.0 4000.0 4000.0 4000.0 4000.0 4000.0 4000.0 4000.0 4000.0 4000.0 4000.0 4000.0 4000.0 4000.0 4000.0 4000.0 4000.0 4000.0 4000.0 4000.0 4000.0 4000.0 4000.0 4000.0 4000.0 4000.0 4000.0 4000.0 4000.0 4000.0 4000.0 4000.0 4000.0 4000.0 4000.0 4000.0 4000.0 4000.0 4000.0 4000.0 4000.0 4000.0 4000.0 4000.0 4000.0 4000.0 4000.0 4000.0 4000.0 4000.0 4000.0 4000.0 4000.0 4000.0 4000.0 4000.0 4000.0 4000.0 4000.0 4000.0 4000.0 4000.0 4000.0 4000.0 4000.0 4000.0 4000.0 4000.0 4000.0 4000.0 4000.0 4000.0 4000.0 4000.0 4000.0 4000.0 4000.0 4000.0 4000.0 4000.0 4000.0 4000.0 4000.0 4000.0 4000.0 4000.0 4000.0 4000.0 4000.0 4000.0 4000.0 4000.0 4000.0 4000.0 4000.0 4000.0 4000.0 4000.0 4000.0 4000.0 4000.0 4000.0 4000.0 4000.0 4000.0 4000.0 4000.0 4000.0 4000.0 4000.0 4000.0 4000.0 4000.0 4000.0 4000.0 4000.0 4000.0 4000.0 4000.0 4000.0 4000.0 4000.0 4000.0 4000.0 4000.0 4000.0 4000.0 4000.0 4000.0 4000.0 4000.0 4000.0 4000.0 4000.0 4000.0 4000.0 4000.0 4000.0 4000.0 4000.0 4000.0 4000.0 4000.0 4000.0 4000.0 4000.0 4000.0 4000.0 4000.0 4000.0 4000.0 4000.0 4000.0 4000.0 4000.0 4000.0 4000.0 4000.0 4000.0 4000.0 4000.0 4000.0 4000.0 4000.0 4000.0 4000.0 4000.0 4000.0 4000.0 4000.0 4000.0 4000.0 4000.0 4000.0 4000.0 4000.0 4000.0 4000.0 4000.0 4000.0 4000.0 4000.0 4000.0 4000.0 4000.0 4000.0 4000.0 4000.0 4000.0 4000.0 4000.0 4000.0 4000.0 4000.0 4000.0 4000.0 4000.0 4000.0 4000.0 4000.0 4000.0 4000.0 4000.0 4000.0 4000.0 4000.0 4000.0 4000.0 4000.0 4000.0 4000.0 4000.0 4000.0 4000.0 4000.0 4000.0 4000.0 4000.0 4000.0 4000.0 4000.0 4000.0 4000.0 4000.0 4000.0 4000.0 4000.0 4000.0 4000.0 4000.0 4000.0 4000.0 4000.0 4000.0 4000.0 4000.0 4000.0 4000.0 4000.0 4000.0 4000.0 4000.0 4000.0 4000.0 4000.0 4000.0 4000.0 4000.0 4000.0 4000.0 4000.0 4000.0 4000.0 4000.0 4000.0 4000.0 4000.0 4000.0 4000.0 4000.0 4000.0 4000.0 4000.0 4000.0 4000.0 4000.0 4000.0 4000.0 4000.0 4000.0 4000.0 4000.0 4000.0 4000.0 4000.0 4000.0 4000.0 4000.0 4000.0 4000.0 4000.0 4000.0 4000.0 4000.0 4000.0 4000.0 4000.0 4000.0 4000.0 4000.0 4000.0 4000.0 4000.0 4000.0 4000.0 4000.0 4000.0 4000.0 4000.0 4000.0 4000.0 4000.0 4000.0 4000.0 4000.0 4000.0 4000.0 4000.0 4000.0 4000.0 4000.0 4000.0 4000.0 4000.0 4000.0 4000.0 4000.0 4000.0 4000.0 4000.0 4000.0 4000.0 4000.0 4000.0 4000.0 4000.0 4000.0 4000.0 4000.0 4000.0 4000.0 4000.0 4000.0 4000.0 4000.0 4000.0 4000.0 4000.0 4000.0 4000.0 4000.0 4000.0 4000.0 4000.0 4000.0 4000.0 4000.0 4000.0 4000.0 4000.0 4000.0 4000.0 4000.0 4000.0 4000.0 4000.0 4000.0 4000.0 4000.0 4000.0 4000.0 4000.0 4000.0 4000.0 4000.0 4000.0 4000.0 4000.0 4000.0 4000.0 4000.0 4000.0 4000.0 4000.0 4000.0 4000.0 4000.0 4000.0 4000.0 4000.0 4000.0 4000.0 4000.0 4000.0 4000.0 4000.0 4000.0 4000.0 4000.0 4000.0 4000.0 4000.0 4000.0 4000.0 4000.0 4000.0 4000.0 4000.0 4000.0 4000.0 4000.0 4000.0 4000.0 4000.0 4000.0 4000.0 4000.0 4000.0 4000.0 4000.0 4000.0 4000.0 4000.0 4000.0 4000.0 4000.0 4000.0 4000.0 4000.0 4000.0 4000.0 4000.0 4000.0 4000.0 4000.0 4000.0 4000.0 4000.0 4000.0 4000.0 4000.0 4000.0 4000.0 4000.0 4000.0 4000.0 4000.0 4000.0 4000.0 4000.0 4000.0 4000.0 4000.0 4000.0 4000.0 4000.0 4000.0 4000.0 4000.0 4000.0 4000.0 4000.0 4000.0 4000.0 4000.0 4000.0 4000.0 4000.0 4000.0 4000.0 4000.0 4000.0 4000.0 4000.0 4000.0 4000.0 4000.0 4000.0 4000.0 4000.0 4000.0 4000.0 4000.0 4000.0 4000.0 4000.0 4000.0 4000.0 4000.0 4000.0 4000.0 4000.0 4000.0 4000.0 4000.0 4000.0 4000.0 4000.0 4000.0 4000.0 4000.0 4000.0 4000.0 4000.0 4000.0 4000.0 4000.0 4000.0 4000.0 4000.0 4000.0 4000.0 4000.0 4000.0 4000.0 4000.0 4000.0 4000.0 4000.0 4000.0 4000.0 4000.0 4000.0 4000.0 4000.0 4000.0 4000.0 4000.0 4000.0 4000.0 4000.0 4000.0 4000.0 4000.0 4000.0 4000.0 4000.0 4000.0 4000.0 4000.0 4000.0 4000.0 4000.0 4000.0 4000.0 4000.0 4000.0 4000.0 4000.0 4000.0 4000.0 4000.0 4000.0 4000.0 4000.0 4000.0 4000.0 4000.0 4000.0 4000.0 4000.0 4000.0 4000.0 4000.0 4000.0 4000.0 4000.0 4000.0 4000.0 4000.0 4000.0 4000.0 4000.0 4000.0 4000.0 4000.0 4000.0 4000.0 4000.0 4000.0 4000.0 4000.0 4000.0 4000.0 4000.0 4000.0 4000.0 4000.0 4000.0 4000.0 4000.0 4000.0 4000.0 4000.0 4000.0 4000.0 4000.0 4000.0 4000.0 4000.0 4000.0 4000.0 4000.0 4000.0 4000.0 4000.0 4000.0 4000.0 4000.0 4000.0 4000.0 4000.0 4000.0 4000.0 4000.0 4000.0 4000.0 4000.0 4000.0 4000.0 4000.0 4000.0 4000.0 4000.0 4000.0 4000.0 4000.0 4000.0 4000.0 4000.0 4000.0 4000.0 4000.0 4000.0 4000.0 4000.0 4000.0 4000.0 4000.0 4000.0 4000.0 4000.0 4000.0 4000.0 4000.0 4000.0 4000.0 4000.0 4000.0 4000.0 4000.0 4000.0 4000.0 4000.0 4000.0 4000.0 4000.0 4000.0 4000.0 4000.0 4000.0 4000.0 4000.0 4000.0 4000.0 4000.0 4000.0 4000.0 4000.0 4000.0 4000.0 4000.0 4000.0 4000.0 4000.0 4000.0 4000.0 4000.0 4000.0 4000.0 4000.0 4000.0 4000.0 4000.0 4000.0 4000.0 4000.0 4000.0 4000.0 4000.0 4000.0 4000.0 4000.0 4000.0 4000.0 4000.0 4000.0 4000.0 4000.0 4000.0 4000.0 4000.0 4000.0 4000.0 4000.0 4000.0 4000.0 4000.0 4000.0 4000.0 4000.0 4000.0 4000.0 4000.0 4000.0 4000.0 4000.0 4000.0 4000.0 4000.0 4000.0 4000.0 4000.0 4000.0 4000.0 4000.0 4000.0 4000.0 4000.0 4000.0 4000.0 4000.0 4000.0 4000.0 4000.0 4000.0 4000.0 4000.0 4000.0 4000.0 4000.0 4000.0 4000.0 4000.0 4000.0 4000.0 4000.0 4000.0 4000.0 4000.0 4000.0 4000.0 4000.0 4000.0 4000.0 4000.0 4000.0 4000.0 4000.0 4000.0 4000.0 4000.0 4000.0 4000.0 4000.0 4000.0 4000.0 4000.0 4000.0 4000.0 4000.0 4000.0 4000.0 4000.0 4000.0 4000.0 4000.0 4000.0 4000.0 4000.0 4000.0 4000.0 4000.0 4000.0 4000.0 4000.0 4000.0 4000.0 4000.0 4000.0 4000.0 4000.0 4000.0 4000.0 4000.0 4000.0 4000.0 4000.0 4000.0 4000.0 4000.0 4000.0 4000.0 4000.0 4000.0 4000.0 4000.0 4000.0 4000.0 4000.0 4000.0 4000.0 4000.0 4000.0 4000.0 4000.0 4000.0 4000.0 4000.0 4000.0 4000.0 4000.0 4000.0 4000.0 4000.0 4000.0 4000.0 4000.0 4000.0 4000.0 4000.0 4000.0 4000.0 4000.0 4000.0 4000.0 4000.0 4000.0 4000.0 4000.0 4000.0 4000.0 4000.0 4000.0 4000.0 4000.0 4000.0 4000.0 4000.0 4000.0 4000.0 4000.0 4000.0 4000.0 4000.0 4000.0 4000.0 4000.0 4000.0 4000.0 4000.0 4000.0 4000.0 4000.0 4000.0 4000.0 4000.0 4000.0 4000.0 4000.0 4000.0 4000.0 4000.0 4000.0 4000.0 4000.0 4000.0 4000.0 4000.0 4000.0 4000.0 4000.0 4000.0 4000.0 4000.0 4000.0 4000.0 4000.0 4000.0 4000.0 4000.0 4000.0 4000.0 4000.0 4000.0 4000.0 4000.0 4000.0 4000.0 4000.0 4000.0 4000.0 4000.0 4000.0 4000.0 4000.0 4000.0 4000.0 4000.0 4000.0 4000.0 4000.0 4000.0 4000.0 4000.0 4000.0 4000.0 4000.0 4000.0 4000.0 4000.0 4000.0 4000.0 4000.0 4000.0 4000.0 4000.0 4000.0 4000.0 4000.0 4000.0 4000.0 4000.0 4000.0 4000.0 4000.0 4000.0 4000.0 4000.0 4000.0 4000.0 4000.0 4000.0 4000.0 4000.0 4000.0 4000.0 4000.0 4000.0 4000.0 4000.0 4000.0 4000.0 4000.0 4000.0 4000.0 4000.0 4000.0 4000.0 4000.0 4000.0 4000.0 4000.0 4000.0 4000.0 4000.0 4000.0 4000.0 4000.0 4000.0 4000.0 4000.0 4000.0 4000.0 4000.0 4000.0 4000.0 4000.0 4000.0 4000.0 4000.0 4000.0 4000.0 4000.0 4000.0 4000.0 4000.0 4000.0 4000.0 4000.0 4000.0 4000.0 4000.0 4000.0 4000.0 4000.0 4000.0 4000.0 4000.0 4000.0 4000.0 4000.0 4000.0 4000.0 4000.0 4000.0 4000.0 4000.0 4000.0 4000.0 4000.0 4000.0 4000.0 4000.0 4000.0 4000.0 4000.0 4000.0 4000.0 4000.0 4000.0 4000.0 4000.0 4000.0 4000.0 4000.0 4000.0 4000.0 4000.0 4000.0 4000.0 4000.0 4000.0 4000.0 4000.0 4000.0 4000.0 4000.0 4000.0 4000.0 4000.0 4000.0 4000.0 4000.0 4000.0 4000.0 4000.0 4000.0 4000.0 4000.0 4000.0 4000.0 4000.0 4000.0 4000.0 4000.0 4000.0 4000.0 4000.0 4000.0 4000.0 4000.0 4000.0 4000.0 4000.0 4000.0 4000.0 4000.0 4000.0 4000.0 4000.0 4000.0 4000.0 4000.0 4000.0 4000.0 4000.0 4000.0 4000.0 4000.0 4000.0 4000.0 4000.0 4000.0 4000.0 4000.0 4000.0 4000.0 4000.0 4000.0 4000.0 4000.0 4000.0 4000.0 4000.0 4000.0 4000.0 4000.0 4000.0 4000.0 4000.0 4000.0 4000.0 4000.0 4000.0 4000.0 4000.0 4000.0 4000.0 4000.0 4000.0 4000.0 4000.0 4000.0 4000.0 4000.0 4000.0 4000.0 4000.0 4000.0 4000.0 4000.0 4000.0 4000.0 4000.0 4000.0 4000.0 4000.0 4000.0 4000.0 4000.0 4000.0 4000.0 4000.0 4000.0 4000.0 4000.0 4000.0 4000.0 4000.0 4000.0 4000.0 4000.0 4000.0 4000.0 4000.0 4000.0 4000.0 4000.0 4000.0 4000.0 4000.0 4000.0 4000.0 4000.0 4000.0 4000.0 4000.0 4000.0 4000.0 4000.0 4000.0 4000.0 4000.0 4000.0 4000.0 4000.0 4000.0 4000.0 4000.0 4000.0 4000.0 4000.0 4000.0 4000.0 4000.0 4000.0 4000.0 4000.0 4000.0 4000.0 4000.0 4000.0 4000.0 4000.0 4000.0 4000.0 4000.0 4000.0 4000.0 4000.0 4000.0 4000.0 4000.0 4000.0 4000.0 4000.0 4000.0 4000.0 4000.0 4000.0 4000.0 4000.0 4000.0 4000.0 4000.0 4000.0 4000.0 4000.0 4000.0 4000.0 4000.0 4000.0 4000.0 4000.0 4000.0 4000.0 4000.0 4000.0 4000.0 4000.0 4000.0 4000.0 4000.0 4000.0 4000.0 4000.0 4000.0 4000.0 4000.0 4000.0 4000.0 4000.0 4000.0 4000.0 4000.0 4000.0 4000.0 4000.0 4000.0 4000.0 4000.0 4000.0 4000.0 4000.0 4000.0 4000.0 4000.0 4000.0 4000.0 4000.0 4000.0 4000.0 4000.0 4000.0 4000.0 4000.0 4000.0 4000.0 4000.0 4000.0 4000.0 4000.0 4000.0 4000.0 4000.0 4000.0 4000.0 4000.0 4000.0 4000.0 4000.0 4000.0 4000.0 4000.0 4000.0 4000.0 4000.0 4000.0 4000.0 4000.0 4000.0 4000.0 4000.0 4000.0 4000.0 4000.0 4000.0 4000.0 4000.0 4000.0 4000.0 4000.0 4000.0 4000.0 4000.0 4000.0 4000.0 4000.0 4000.0 4000.0 4000.0 4000.0 4000.0 4000.0 4000.0 4000.0 4000.0 4000.0 4000.0 4000.0 4000.0 4000.0 4000.0 4000.0 4000.0 4000.0 4000.0 4000.0 4000.0 4000.0 4000.0 4000.0 4000.0 4000.0 4000.0 4000.0 4000.0 4000.0 4000.0 4000.0 4000.0 4000.0 4000.0 4000.0 4000.0 4000.0 4000.0 4000.0 4000.0 4000.0 4000.0 4000.0 4000.0 4000.0 4000.0 4000.0 4000.0 4000.0 4000.0 4000.0 4000.0 4000.0 4000.0 4000.0 4000.0 4000.0 4000.0 4000.0 4000.0 4000.0 4000.0 4000.0 4000.0 4000.0 4000.0 4000.0 4000.0 4000.0 4000.0 4000.0 4000.0 4000.0 4000.0 4000.0 4000.0 4000.0 4000.0 4000.0 4000.0 4000.0 4000.0 4000.0 4000.0 4000.0 4000.0 4000.0 4000.0 4000.0 4000.0 4000.0 4000.0 4000.0 4000.0 4000.0 4000.0 4000.0 4000.0 4000.0 4000.0 4000.0 4000.0 4000.0 4000.0 4000.0 4000.0 4000.0 4000.0 4000.0 4000.0 4000.0 4000.0 4000.0 4000.0 4000.0 4000.0 4000.0 4000.0 4000.0 4000.0 4000.0 4000.0 4000.0 4000.0 4000.0 4000.0 4000.0 4000.0 4000.0 4000.0 4000.0 4000.0 4000.0 4000.0 4000.0 4000.0 4000.0 4000.0 4000.0 4000.0 4000.0 4000.0 4000.0 4000.0 4000.0 4000.0 4000.0 4000.0 4000.0 4000.0 4000.0 4000.0 4000.0 4000.0 4000.0 4000.0 4000.0 4000.0 4000.0 4000.0 4000.0 4000.0 4000.0 4000.0 4000.0 4000.0 4000.0 4000.0 4000.0 4000.0 4000.0 4000.0 4000.0 4000.0 4000.0 4000.0 4000.0 4000.0 4000.0 4000.0 4000.0 4000.0 4000.0 4000.0 4000.0 4000.0 4000.0 4000.0 4000.0 4000.0 4000.0 4000.0 4000.0 4000.0 4000.0 4000.0 4000.0 4000.0 4000.0 4000.0 4000.0 4000.0 4000.0 4000.0 4000.0 4000.0 4000.0 4000.0 4000.0 4000.0 4000.0 4000.0 4000.0 4000.0 4000.0 4000.0 4000.0 4000.0 4000.0 4000.0 4000.0 4000.0 4000.0 4000.0 4000.0 4000.0 4000.0 4000.0 4000.0 4000.0 4000.0 4000.0 4000.0 4000.0 4000.0 4000.0 4000.0 4000.0 4000.0 4000.0 4000.0 4000.0 4000.0 4000.0 4000.0 4000.0 4000.0 4000.0 4000.0 4000.0 4000.0 4000.0 4000.0 4000.0 4000.0 4000.0 4000.0 4000.0 4000.0 4000.0 4000.0 4000.0 4000.0 4000.0 4000.0 4000.0 4000.0 4000.0 4000.0 4000.0 4000.0 4000.0 4000.0 4000.0 4000.0 4000.0 4000.0 4000.0 4000.0 4000.0 4000.0 4000.0 4000.0 4000.0 4000.0 4000.0 4000.0 4000.0 4000.0 4000.0 4000.0 4000.0 4000.0 4000.0 4000.0 4000.0 4000.0 4000.0 4000.0 4000.0 4000.0 4000.0 4000.0 4000.0 4000.0 4000.0 4000.0 4000.0 4000.0 4000.0 4000.0 4000.0 4000.0 4000.0 4000.0 4000.0 4000.0 4000.0 4000.0 4000.0 4000.0 4000.0 4000.0 4000.0 4000.0 4000.0 4000.0 4000.0 4000.0 4000.0 4000.0 4000.0 4000.0 4000.0 4000.0 4000.0 4000.0 4000.0 4000.0 4000.0 4000.0 4000.0 4000.0 4000.0 4000.0 4000.0 4000.0 4000.0 4000.0 4000.0 4000.0 4000.0 4000.0 4000.0 4000.0 4000.0 4000.0 4000.0 4000.0 4000.0 4000.0 4000.0 4000.0 4000.0 4000.0 4000.0 4000.0 4000.0 4000.0 4000.0 4000.0 4000.0 4000.0 4000.0 4000.0 4000.0 4000.0 4000.0 4000.0 4000.0 4000.0 4000.0 4000.0 4000.0 4000.0 4000.0 4000.0 4000.0 4000.0 4000.0 4000.0 4000.0 4000.0 4000.0 4000.0 4000.0 4000.0 4000.0 4000.0 4000.0 4000.0 4000.0 4000.0 4000.0 4000.0 4000.0 4000.0 4000.0 4000.0 4000.0 4000.0 4000.0 4000.0 4000.0 4000.0 4000.0 4000.0 4000.0 4000.0 4000.0 4000.0 4000.0 4000.0 4000.0 4000.0 4000.0 4000.0 4000.0 4000.0 4000.0 4000.0 4000.0 4000.0 4000.0 4000.0 4000.0 4000.0 4000.0 4000.0 4000.0 4000.0 4000.0 4000.0 4000.0 4000.0 4000.0 4000.0 4000.0 4000.0 4000.0 4000.0 4000.0 4000.0 4000.0 4000.0 4000.0 4000.0 4000.0 4000.0 4000.0 4000.0 4000.0 4000.0 4000.0 4000.0 4000.0 4000.0 4000.0 4000.0 4000.0 4000.0 4000.0 4000.0 4000.0 4000.0 4000.0 4000.0 4000.0 4000.0 4000.0 4000.0 4000.0 4000.0 4000.0 4000.0 4000.0 4000.0 4000.0 4000.0 4000.0 4000.0 4000.0 4000.0 4000.0 4000.0 4000.0 4000.0 4000.0 4000.0 4000.0 4000.0 4000.0 4000.0 4000.0 4000.0 4000.0 4000.0 4000.0 4000.0 4000.0 4000.0 4000.0 4000.0 4000.0 4000.0 4000.0 4000.0 4000.0 4000.0 4000.0 4000.0 4000.0 4000.0 4000.0 4000.0 4000.0 4000.0 4000.0 4000.0 4000.0 4000.0 4000.0 4000.0 4000.0 4000.0 4000.0 4000.0 4000.0 4000.0 4000.0 4000.0 4000.0 4000.0 4000.0 4000.0 4000.0 4000.0 4000.0 4000.0 4000.0 4000.0 4000.0 4000.0 4000.0 4000.0 4000.0 4000.0 4000.0 4000.0 4000.0 4000.0 4000.0 4000.0 4000.0 4000.0 4000.0 4000.0 4000.0 4000.0 4000.0 4000.0 4000.0 4000.0 4000.0 4000.0 4000.0 4000.0 4000.0 4000.0 4000.0 4000.0 4000.0 4000.0 4000.0 4000.0 4000.0 4000.0 4000.0 4000.0 4000.0 4000.0 4000.0 4000.0 4000.0 4000.0 4000.0 4000.0 4000.0 4000.0 4000.0 4000.0 4000.0 4000.0 4000.0 4000.0 4000.0 4000.0 4000.0 4000.0 4000.0 4000.0 4000.0 4000.0 4000.0 4000.0 4000.0 4000.0 4000.0 4000.0 4000.0 4000.0 4000.0 4000.0 4000.0 4000.0 4000.0 4000.0 4000.0 4000.0 4000.0 4000.0 4000.0 4000.0 4000.0 4000.0 4000.0 4000.0 4000.0 4000.0 4000.0 4000.0 4000.0 4000.0 4000.0 4000.0 4000.0 4000.0 4000.0 4000.0 4000.0 4000.0 4000.0 4000.0 4000.0 4000.0 4000.0 4000.0 4000.0 4000.0 4000.0 4000.0 4000.0 4000.0 4000.0 4000.0 4000.0 4000.0 4000.0 4000.0 4000.0 4000.0 4000.0 4000.0 4000.0 4000.0 4000.0 4000.0 4000.0 4000.0 4000.0 4000.0 4000.0 4000.0 4000.0 4000.0 4000.0 4000.0 4000.0 4000.0 4000.0 4000.0 4000.0 4000.0 4000.0 4000.0 4000.0 4000.0 4000.0 4000.0 4000.0 4000.0 4000.0 4000.0 4000.0 4000.0 4000.0 4000.0 4000.0 4000.0 4000.0 4000.0 4000.0 4000.0 4000.0 4000.0 4000.0 4000.0 4000.0 4000.0 4000.0 4000.0 4000.0 4000.0 4000.0 4000.0 4000.0 4000.0 4000.0 4000.0 4000.0 4000.0 4000.0 4000.0 4000.0 4000.0 4000.0 4000.0 4000.0 4000.0 4000.0 4000.0 4000.0 4000.0 4000.0 4000.0 4000.0 4000.0 4000.0 4000.0 4000.0 4000.0 4000.0 4000.0 4000.0 4000.0 4000.0 4000.0 4000.0 4000.0 4000.0 4000.0 4000.0 4000.0 4000.0 4000.0 4000.0 4000.0 4000.0 4000.0 4000.0 4000.0 4000.0 4000.0 4000.0 4000.0 4000.0 4000.0 4000.0 4000.0 4000.0 4000.0 4000.0 4000.0 4000.0 4000.0 4000.0 4000.0 4000.0 4000.0 4000.0 4000.0 4000.0 4000.0 4000.0 4000.0 4000.0 4000.0 4000.0 4000.0 4000.0 4000.0 4000.0 4000.0 4000.0 4000.0 4000.0 4000.0 4000.0 4000.0 4000.0 4000.0 4000.0 4000.0 4000.0 4000.0 4000.0 4000.0 4000.0 4000.0 4000.0 4000.0 4000.0 SCALARS Mass float 1
LOOKUP_TABLE default
11309700000.0 11309700000.0 11309700000.0 11309700000.0 11309700000.0 11309700000.0 11309700000.0 11309700000.0 11309700000.0 11309700000.0 11309700000.0 11309700000.0 11309700000.0 11309700000.0 11309700000.0 11309700000.0 11309700000.0 11309700000.0 11309700000.0 11309700000.0 11309700000.0 11309700000.0 11309700000.0 11309700000.0 11309700000.0 11309700000.0 11309700000.0 11309700000.0 11309700000.0 11309700000.0 11309700000.0 11309700000.0 11309700000.0 11309700000.0 11309700000.0 11309700000.0 11309700000.0 11309700000.0 11309700000.0 11309700000.0 11309700000.0 11309700000.0 11309700000.0 11309700000.0 11309700000.0 11309700000.0 11309700000.0 11309700000.0 11309700000.0 11309700000.0 11309700000.0 11309700000.0 11309700000.0 11309700000.0 11309700000.0 11309700000.0 11309700000.0 11309700000.0 11309700000.0 11309700000.0 11309700000.0 11309700000.0 11309700000.0 11309700000.0 11309700000.0 11309700000.0 11309700000.0 11309700000.0 11309700000.0 11309700000.0 11309700000.0 11309700000.0 11309700000.0 11309700000.0 11309700000.0 11309700000.0 11309700000.0 11309700000.0 11309700000.0 11309700000.0 11309700000.0 11309700000.0 11309700000.0 11309700000.0 11309700000.0 11309700000.0 11309700000.0 11309700000.0 11309700000.0 11309700000.0 11309700000.0 11309700000.0 11309700000.0 11309700000.0 11309700000.0 11309700000.0 11309700000.0 11309700000.0 11309700000.0 11309700000.0 11309700000.0 11309700000.0 11309700000.0 11309700000.0 11309700000.0 11309700000.0 11309700000.0 11309700000.0 11309700000.0 11309700000.0 11309700000.0 11309700000.0 11309700000.0 11309700000.0 11309700000.0 11309700000.0 11309700000.0 11309700000.0 11309700000.0 11309700000.0 11309700000.0 11309700000.0 11309700000.0 11309700000.0 11309700000.0 11309700000.0 11309700000.0 11309700000.0 11309700000.0 11309700000.0 11309700000.0 11309700000.0 11309700000.0 11309700000.0 11309700000.0 11309700000.0 11309700000.0 11309700000.0 11309700000.0 11309700000.0 11309700000.0 11309700000.0 11309700000.0 11309700000.0 11309700000.0 11309700000.0 11309700000.0 11309700000.0 11309700000.0 11309700000.0 11309700000.0 11309700000.0 11309700000.0 11309700000.0 11309700000.0 11309700000.0 11309700000.0 11309700000.0 11309700000.0 11309700000.0 11309700000.0 11309700000.0 11309700000.0 11309700000.0 11309700000.0 11309700000.0 11309700000.0 11309700000.0 11309700000.0 11309700000.0 11309700000.0 11309700000.0 11309700000.0 11309700000.0 11309700000.0 11309700000.0 11309700000.0 11309700000.0 11309700000.0 11309700000.0 11309700000.0 11309700000.0 11309700000.0 11309700000.0 11309700000.0 11309700000.0 11309700000.0 11309700000.0 11309700000.0 11309700000.0 11309700000.0 11309700000.0 11309700000.0 11309700000.0 11309700000.0 11309700000.0 11309700000.0 11309700000.0 11309700000.0 11309700000.0 11309700000.0 11309700000.0 11309700000.0 11309700000.0 11309700000.0 11309700000.0 11309700000.0 11309700000.0 11309700000.0 11309700000.0 11309700000.0 11309700000.0 11309700000.0 11309700000.0 11309700000.0 11309700000.0 11309700000.0 11309700000.0 11309700000.0 11309700000.0 11309700000.0 11309700000.0 11309700000.0 11309700000.0 11309700000.0 11309700000.0 11309700000.0 11309700000.0 11309700000.0 11309700000.0 11309700000.0 11309700000.0 11309700000.0 11309700000.0 11309700000.0 11309700000.0 11309700000.0 11309700000.0 11309700000.0 11309700000.0 11309700000.0 11309700000.0 11309700000.0 11309700000.0 11309700000.0 11309700000.0 11309700000.0 11309700000.0 11309700000.0 11309700000.0 11309700000.0 11309700000.0 11309700000.0 11309700000.0 11309700000.0 11309700000.0 11309700000.0 11309700000.0 11309700000.0 11309700000.0 11309700000.0 11309700000.0 11309700000.0 11309700000.0 11309700000.0 11309700000.0 11309700000.0 11309700000.0 11309700000.0 11309700000.0 11309700000.0 11309700000.0 11309700000.0 11309700000.0 11309700000.0 11309700000.0 11309700000.0 11309700000.0 11309700000.0 11309700000.0 11309700000.0 11309700000.0 11309700000.0 11309700000.0 11309700000.0 11309700000.0 11309700000.0 11309700000.0 11309700000.0 11309700000.0 11309700000.0 11309700000.0 11309700000.0 11309700000.0 11309700000.0 11309700000.0 11309700000.0 11309700000.0 11309700000.0 11309700000.0 11309700000.0 11309700000.0 11309700000.0 11309700000.0 11309700000.0 11309700000.0 11309700000.0 11309700000.0 11309700000.0 11309700000.0 11309700000.0 11309700000.0 11309700000.0 11309700000.0 11309700000.0 11309700000.0 11309700000.0 11309700000.0 11309700000.0 11309700000.0 11309700000.0 11309700000.0 11309700000.0 11309700000.0 11309700000.0 11309700000.0 11309700000.0 11309700000.0 11309700000.0 11309700000.0 11309700000.0 11309700000.0 11309700000.0 11309700000.0 11309700000.0 11309700000.0 11309700000.0 11309700000.0 11309700000.0 11309700000.0 11309700000.0 11309700000.0 11309700000.0 11309700000.0 11309700000.0 11309700000.0 11309700000.0 11309700000.0 11309700000.0 11309700000.0 11309700000.0 11309700000.0 11309700000.0 11309700000.0 11309700000.0 11309700000.0 11309700000.0 11309700000.0 11309700000.0 11309700000.0 11309700000.0 11309700000.0 11309700000.0 11309700000.0 11309700000.0 11309700000.0 11309700000.0 11309700000.0 11309700000.0 11309700000.0 11309700000.0 11309700000.0 11309700000.0 11309700000.0 11309700000.0 11309700000.0 11309700000.0 11309700000.0 11309700000.0 11309700000.0 11309700000.0 11309700000.0 11309700000.0 11309700000.0 11309700000.0 11309700000.0 11309700000.0 11309700000.0 11309700000.0 11309700000.0 11309700000.0 11309700000.0 11309700000.0 11309700000.0 11309700000.0 11309700000.0 11309700000.0 11309700000.0 11309700000.0 11309700000.0 11309700000.0 11309700000.0 11309700000.0 11309700000.0 11309700000.0 11309700000.0 11309700000.0 11309700000.0 11309700000.0 11309700000.0 11309700000.0 11309700000.0 11309700000.0 11309700000.0 11309700000.0 11309700000.0 11309700000.0 11309700000.0 11309700000.0 11309700000.0 11309700000.0 11309700000.0 11309700000.0 11309700000.0 11309700000.0 11309700000.0 11309700000.0 11309700000.0 11309700000.0 11309700000.0 11309700000.0 11309700000.0 11309700000.0 11309700000.0 11309700000.0 11309700000.0 11309700000.0 11309700000.0 11309700000.0 11309700000.0 11309700000.0 11309700000.0 11309700000.0 11309700000.0 11309700000.0 11309700000.0 11309700000.0 11309700000.0 11309700000.0 11309700000.0 11309700000.0 11309700000.0 11309700000.0 11309700000.0 11309700000.0 11309700000.0 11309700000.0 11309700000.0 11309700000.0 11309700000.0 11309700000.0 11309700000.0 11309700000.0 11309700000.0 11309700000.0 11309700000.0 11309700000.0 11309700000.0 11309700000.0 11309700000.0 11309700000.0 11309700000.0 11309700000.0 11309700000.0 11309700000.0 11309700000.0 11309700000.0 11309700000.0 11309700000.0 11309700000.0 11309700000.0 11309700000.0 11309700000.0 11309700000.0 11309700000.0 11309700000.0 11309700000.0 11309700000.0 11309700000.0 11309700000.0 11309700000.0 11309700000.0 11309700000.0 11309700000.0 11309700000.0 11309700000.0 11309700000.0 11309700000.0 11309700000.0 11309700000.0 11309700000.0 11309700000.0 11309700000.0 11309700000.0 11309700000.0 11309700000.0 11309700000.0 11309700000.0 11309700000.0 11309700000.0 11309700000.0 11309700000.0 11309700000.0 11309700000.0 11309700000.0 11309700000.0 11309700000.0 11309700000.0 11309700000.0 11309700000.0 11309700000.0 11309700000.0 11309700000.0 11309700000.0 11309700000.0 11309700000.0 11309700000.0 11309700000.0 11309700000.0 11309700000.0 11309700000.0 11309700000.0 11309700000.0 11309700000.0 11309700000.0 11309700000.0 11309700000.0 11309700000.0 11309700000.0 11309700000.0 11309700000.0 11309700000.0 11309700000.0 11309700000.0 11309700000.0 11309700000.0 11309700000.0 11309700000.0 11309700000.0 11309700000.0 11309700000.0 11309700000.0 11309700000.0 11309700000.0 11309700000.0 11309700000.0 11309700000.0 11309700000.0 11309700000.0 11309700000.0 11309700000.0 11309700000.0 11309700000.0 11309700000.0 11309700000.0 11309700000.0 11309700000.0 11309700000.0 11309700000.0 11309700000.0 11309700000.0 11309700000.0 11309700000.0 11309700000.0 11309700000.0 11309700000.0 11309700000.0 11309700000.0 11309700000.0 11309700000.0 11309700000.0 11309700000.0 11309700000.0 11309700000.0 11309700000.0 11309700000.0 11309700000.0 11309700000.0 11309700000.0 11309700000.0 11309700000.0 11309700000.0 11309700000.0 11309700000.0 11309700000.0 11309700000.0 11309700000.0 11309700000.0 11309700000.0 11309700000.0 11309700000.0 11309700000.0 11309700000.0 11309700000.0 11309700000.0 11309700000.0 11309700000.0 11309700000.0 11309700000.0 11309700000.0 11309700000.0 11309700000.0 11309700000.0 11309700000.0 11309700000.0 11309700000.0 11309700000.0 11309700000.0 11309700000.0 11309700000.0 11309700000.0 11309700000.0 11309700000.0 11309700000.0 11309700000.0 11309700000.0 11309700000.0 11309700000.0 11309700000.0 11309700000.0 11309700000.0 11309700000.0 11309700000.0 11309700000.0 11309700000.0 11309700000.0 11309700000.0 11309700000.0 11309700000.0 11309700000.0 11309700000.0 11309700000.0 11309700000.0 11309700000.0 11309700000.0 11309700000.0 11309700000.0 11309700000.0 11309700000.0 11309700000.0 11309700000.0 11309700000.0 11309700000.0 11309700000.0 11309700000.0 11309700000.0 11309700000.0 11309700000.0 11309700000.0 11309700000.0 11309700000.0 11309700000.0 11309700000.0 11309700000.0 11309700000.0 11309700000.0 11309700000.0 11309700000.0 11309700000.0 11309700000.0 11309700000.0 11309700000.0 11309700000.0 11309700000.0 11309700000.0 11309700000.0 11309700000.0 11309700000.0 11309700000.0 11309700000.0 11309700000.0 11309700000.0 11309700000.0 11309700000.0 11309700000.0 11309700000.0 11309700000.0 11309700000.0 11309700000.0 11309700000.0 11309700000.0 11309700000.0 11309700000.0 11309700000.0 11309700000.0 11309700000.0 11309700000.0 11309700000.0 11309700000.0 11309700000.0 11309700000.0 11309700000.0 11309700000.0 11309700000.0 11309700000.0 11309700000.0 11309700000.0 11309700000.0 11309700000.0 11309700000.0 11309700000.0 11309700000.0 11309700000.0 11309700000.0 11309700000.0 11309700000.0 11309700000.0 11309700000.0 11309700000.0 11309700000.0 11309700000.0 11309700000.0 11309700000.0 11309700000.0 11309700000.0 11309700000.0 11309700000.0 11309700000.0 11309700000.0 11309700000.0 11309700000.0 11309700000.0 11309700000.0 11309700000.0 11309700000.0 11309700000.0 11309700000.0 11309700000.0 11309700000.0 11309700000.0 11309700000.0 11309700000.0 11309700000.0 11309700000.0 11309700000.0 11309700000.0 11309700000.0 11309700000.0 11309700000.0 11309700000.0 11309700000.0 11309700000.0 11309700000.0 11309700000.0 11309700000.0 11309700000.0 11309700000.0 11309700000.0 11309700000.0 11309700000.0 11309700000.0 11309700000.0 11309700000.0 11309700000.0 11309700000.0 11309700000.0 11309700000.0 11309700000.0 11309700000.0 11309700000.0 11309700000.0 11309700000.0 11309700000.0 11309700000.0 11309700000.0 11309700000.0 11309700000.0 11309700000.0 11309700000.0 11309700000.0 11309700000.0 11309700000.0 11309700000.0 11309700000.0 11309700000.0 11309700000.0 11309700000.0 11309700000.0 11309700000.0 11309700000.0 11309700000.0 11309700000.0 11309700000.0 11309700000.0 11309700000.0 11309700000.0 11309700000.0 11309700000.0 11309700000.0 11309700000.0 11309700000.0 11309700000.0 11309700000.0 11309700000.0 11309700000.0 11309700000.0 11309700000.0 11309700000.0 11309700000.0 11309700000.0 11309700000.0 11309700000.0 11309700000.0 11309700000.0 11309700000.0 11309700000.0 11309700000.0 11309700000.0 11309700000.0 11309700000.0 11309700000.0 11309700000.0 11309700000.0 11309700000.0 11309700000.0 11309700000.0 11309700000.0 11309700000.0 11309700000.0 11309700000.0 11309700000.0 11309700000.0 11309700000.0 11309700000.0 11309700000.0 11309700000.0 11309700000.0 11309700000.0 11309700000.0 11309700000.0 11309700000.0 11309700000.0 11309700000.0 11309700000.0 11309700000.0 11309700000.0 11309700000.0 11309700000.0 11309700000.0 11309700000.0 11309700000.0 11309700000.0 11309700000.0 11309700000.0 11309700000.0 11309700000.0 11309700000.0 11309700000.0 11309700000.0 11309700000.0 11309700000.0 11309700000.0 11309700000.0 11309700000.0 11309700000.0 11309700000.0 11309700000.0 11309700000.0 11309700000.0 11309700000.0 11309700000.0 11309700000.0 11309700000.0 11309700000.0 11309700000.0 11309700000.0 11309700000.0 11309700000.0 11309700000.0 11309700000.0 11309700000.0 11309700000.0 11309700000.0 11309700000.0 11309700000.0 11309700000.0 11309700000.0 11309700000.0 11309700000.0 11309700000.0 11309700000.0 11309700000.0 11309700000.0 11309700000.0 11309700000.0 11309700000.0 11309700000.0 11309700000.0 11309700000.0 11309700000.0 11309700000.0 11309700000.0 11309700000.0 11309700000.0 11309700000.0 11309700000.0 11309700000.0 11309700000.0 11309700000.0 11309700000.0 11309700000.0 11309700000.0 11309700000.0 11309700000.0 11309700000.0 11309700000.0 11309700000.0 11309700000.0 11309700000.0 11309700000.0 11309700000.0 11309700000.0 11309700000.0 11309700000.0 11309700000.0 11309700000.0 11309700000.0 11309700000.0 11309700000.0 11309700000.0 11309700000.0 11309700000.0 11309700000.0 11309700000.0 11309700000.0 11309700000.0 11309700000.0 11309700000.0 11309700000.0 11309700000.0 11309700000.0 11309700000.0 11309700000.0 11309700000.0 11309700000.0 11309700000.0 11309700000.0 11309700000.0 11309700000.0 11309700000.0 11309700000.0 11309700000.0 11309700000.0 11309700000.0 11309700000.0 11309700000.0 11309700000.0 11309700000.0 11309700000.0 11309700000.0 11309700000.0 11309700000.0 11309700000.0 11309700000.0 11309700000.0 11309700000.0 11309700000.0 11309700000.0 11309700000.0 11309700000.0 11309700000.0 11309700000.0 11309700000.0 11309700000.0 11309700000.0 11309700000.0 11309700000.0 11309700000.0 11309700000.0 11309700000.0 11309700000.0 11309700000.0 11309700000.0 11309700000.0 11309700000.0 11309700000.0 11309700000.0 11309700000.0 11309700000.0 11309700000.0 11309700000.0 11309700000.0 11309700000.0 11309700000.0 11309700000.0 11309700000.0 11309700000.0 11309700000.0 11309700000.0 11309700000.0 11309700000.0 11309700000.0 11309700000.0 11309700000.0 11309700000.0 11309700000.0 11309700000.0 11309700000.0 11309700000.0 11309700000.0 11309700000.0 11309700000.0 11309700000.0 11309700000.0 11309700000.0 11309700000.0 11309700000.0 11309700000.0 11309700000.0 11309700000.0 11309700000.0 11309700000.0 11309700000.0 11309700000.0 11309700000.0 11309700000.0 11309700000.0 11309700000.0 11309700000.0 11309700000.0 11309700000.0 11309700000.0 11309700000.0 11309700000.0 11309700000.0 11309700000.0 11309700000.0 11309700000.0 11309700000.0 11309700000.0 11309700000.0 11309700000.0 11309700000.0 11309700000.0 11309700000.0 11309700000.0 11309700000.0 11309700000.0 11309700000.0 11309700000.0 11309700000.0 11309700000.0 11309700000.0 11309700000.0 11309700000.0 11309700000.0 11309700000.0 11309700000.0 11309700000.0 11309700000.0 11309700000.0 11309700000.0 11309700000.0 11309700000.0 11309700000.0 11309700000.0 11309700000.0 11309700000.0 11309700000.0 11309700000.0 11309700000.0 11309700000.0 11309700000.0 11309700000.0 11309700000.0 11309700000.0 11309700000.0 11309700000.0 11309700000.0 11309700000.0 11309700000.0 11309700000.0 11309700000.0 11309700000.0 11309700000.0 11309700000.0 11309700000.0 11309700000.0 11309700000.0 11309700000.0 11309700000.0 11309700000.0 11309700000.0 11309700000.0 11309700000.0 11309700000.0 11309700000.0 11309700000.0 11309700000.0 11309700000.0 11309700000.0 11309700000.0 11309700000.0 11309700000.0 11309700000.0 11309700000.0 11309700000.0 11309700000.0 11309700000.0 11309700000.0 11309700000.0 11309700000.0 11309700000.0 11309700000.0 11309700000.0 11309700000.0 11309700000.0 11309700000.0 11309700000.0 11309700000.0 11309700000.0 11309700000.0 11309700000.0 11309700000.0 11309700000.0 11309700000.0 11309700000.0 11309700000.0 11309700000.0 11309700000.0 11309700000.0 11309700000.0 11309700000.0 11309700000.0 11309700000.0 11309700000.0 11309700000.0 11309700000.0 11309700000.0 11309700000.0 11309700000.0 11309700000.0 11309700000.0 11309700000.0 11309700000.0 11309700000.0 11309700000.0 11309700000.0 11309700000.0 11309700000.0 11309700000.0 11309700000.0 11309700000.0 11309700000.0 11309700000.0 11309700000.0 11309700000.0 11309700000.0 11309700000.0 11309700000.0 11309700000.0 11309700000.0 11309700000.0 11309700000.0 11309700000.0 11309700000.0 11309700000.0 11309700000.0 11309700000.0 11309700000.0 11309700000.0 11309700000.0 11309700000.0 11309700000.0 11309700000.0 11309700000.0 11309700000.0 11309700000.0 11309700000.0 11309700000.0 11309700000.0 11309700000.0 11309700000.0 11309700000.0 11309700000.0 11309700000.0 11309700000.0 11309700000.0 11309700000.0 11309700000.0 11309700000.0 11309700000.0 11309700000.0 11309700000.0 11309700000.0 11309700000.0 11309700000.0 11309700000.0 11309700000.0 11309700000.0 11309700000.0 11309700000.0 11309700000.0 11309700000.0 11309700000.0 11309700000.0 11309700000.0 11309700000.0 11309700000.0 11309700000.0 11309700000.0 11309700000.0 11309700000.0 11309700000.0 11309700000.0 11309700000.0 11309700000.0 11309700000.0 11309700000.0 11309700000.0 11309700000.0 11309700000.0 11309700000.0 11309700000.0 11309700000.0 11309700000.0 11309700000.0 11309700000.0 11309700000.0 11309700000.0 11309700000.0 11309700000.0 11309700000.0 11309700000.0 11309700000.0 11309700000.0 11309700000.0 11309700000.0 11309700000.0 11309700000.0 11309700000.0 11309700000.0 11309700000.0 11309700000.0 11309700000.0 11309700000.0 11309700000.0 11309700000.0 11309700000.0 11309700000.0 11309700000.0 11309700000.0 11309700000.0 11309700000.0 11309700000.0 11309700000.0 11309700000.0 11309700000.0 11309700000.0 11309700000.0 11309700000.0 11309700000.0 11309700000.0 11309700000.0 11309700000.0 11309700000.0 11309700000.0 11309700000.0 11309700000.0 11309700000.0 11309700000.0 11309700000.0 11309700000.0 11309700000.0 11309700000.0 11309700000.0 11309700000.0 11309700000.0 11309700000.0 11309700000.0 11309700000.0 11309700000.0 11309700000.0 11309700000.0 11309700000.0 11309700000.0 11309700000.0 11309700000.0 11309700000.0 11309700000.0 11309700000.0 11309700000.0 11309700000.0 11309700000.0 11309700000.0 11309700000.0 11309700000.0 11309700000.0 11309700000.0 11309700000.0 11309700000.0 11309700000.0 11309700000.0 11309700000.0 11309700000.0 11309700000.0 11309700000.0 11309700000.0 11309700000.0 11309700000.0 11309700000.0 11309700000.0 11309700000.0 11309700000.0 11309700000.0 11309700000.0 11309700000.0 11309700000.0 11309700000.0 11309700000.0 11309700000.0 11309700000.0 11309700000.0 11309700000.0 11309700000.0 11309700000.0 11309700000.0 11309700000.0 11309700000.0 11309700000.0 11309700000.0 11309700000.0 11309700000.0 11309700000.0 11309700000.0 11309700000.0 11309700000.0 11309700000.0 11309700000.0 11309700000.0 11309700000.0 11309700000.0 11309700000.0 11309700000.0 11309700000.0 11309700000.0 11309700000.0 11309700000.0 11309700000.0 11309700000.0 11309700000.0 11309700000.0 11309700000.0 11309700000.0 11309700000.0 11309700000.0 11309700000.0 11309700000.0 11309700000.0 11309700000.0 11309700000.0 11309700000.0 11309700000.0 11309700000.0 11309700000.0 11309700000.0 11309700000.0 11309700000.0 11309700000.0 11309700000.0 11309700000.0 11309700000.0 11309700000.0 11309700000.0 11309700000.0 11309700000.0 11309700000.0 11309700000.0 11309700000.0 11309700000.0 11309700000.0 11309700000.0 11309700000.0 11309700000.0 11309700000.0 11309700000.0 11309700000.0 11309700000.0 11309700000.0 11309700000.0 11309700000.0 11309700000.0 11309700000.0 11309700000.0 11309700000.0 11309700000.0 11309700000.0 11309700000.0 11309700000.0 11309700000.0 11309700000.0 11309700000.0 11309700000.0 11309700000.0 11309700000.0 11309700000.0 11309700000.0 11309700000.0 11309700000.0 11309700000.0 11309700000.0 11309700000.0 11309700000.0 11309700000.0 11309700000.0 11309700000.0 11309700000.0 11309700000.0 11309700000.0 11309700000.0 11309700000.0 11309700000.0 11309700000.0 11309700000.0 11309700000.0 11309700000.0 11309700000.0 11309700000.0 11309700000.0 11309700000.0 11309700000.0 11309700000.0 11309700000.0 11309700000.0 11309700000.0 11309700000.0 11309700000.0 11309700000.0 11309700000.0 11309700000.0 11309700000.0 11309700000.0 11309700000.0 11309700000.0 11309700000.0 11309700000.0 11309700000.0 11309700000.0 11309700000.0 11309700000.0 11309700000.0 11309700000.0 11309700000.0 11309700000.0 11309700000.0 11309700000.0 11309700000.0 11309700000.0 11309700000.0 11309700000.0 11309700000.0 11309700000.0 11309700000.0 11309700000.0 11309700000.0 11309700000.0 11309700000.0 11309700000.0 11309700000.0 11309700000.0 11309700000.0 11309700000.0 11309700000.0 11309700000.0 11309700000.0 11309700000.0 11309700000.0 11309700000.0 11309700000.0 11309700000.0 11309700000.0 11309700000.0 11309700000.0 11309700000.0 11309700000.0 11309700000.0 11309700000.0 11309700000.0 11309700000.0 11309700000.0 11309700000.0 11309700000.0 11309700000.0 11309700000.0 11309700000.0 11309700000.0 11309700000.0 11309700000.0 11309700000.0 11309700000.0 11309700000.0 11309700000.0 11309700000.0 11309700000.0 11309700000.0 11309700000.0 11309700000.0 11309700000.0 11309700000.0 11309700000.0 11309700000.0 11309700000.0 11309700000.0 11309700000.0 11309700000.0 11309700000.0 11309700000.0 11309700000.0 11309700000.0 11309700000.0 11309700000.0 11309700000.0 11309700000.0 11309700000.0 11309700000.0 11309700000.0 11309700000.0 11309700000.0 11309700000.0 11309700000.0 11309700000.0 11309700000.0 11309700000.0 11309700000.0 11309700000.0 11309700000.0 11309700000.0 11309700000.0 11309700000.0 11309700000.0 11309700000.0 11309700000.0 11309700000.0 11309700000.0 11309700000.0 11309700000.0 11309700000.0 11309700000.0 11309700000.0 11309700000.0 11309700000.0 11309700000.0 11309700000.0 11309700000.0 11309700000.0 11309700000.0 11309700000.0 11309700000.0 11309700000.0 11309700000.0 11309700000.0 11309700000.0 11309700000.0 11309700000.0 11309700000.0 11309700000.0 11309700000.0 11309700000.0 11309700000.0 11309700000.0 11309700000.0 11309700000.0 11309700000.0 11309700000.0 11309700000.0 11309700000.0 11309700000.0 11309700000.0 11309700000.0 11309700000.0 11309700000.0 11309700000.0 11309700000.0 11309700000.0 11309700000.0 11309700000.0 11309700000.0 11309700000.0 11309700000.0 11309700000.0 11309700000.0 11309700000.0 11309700000.0 11309700000.0 11309700000.0 11309700000.0 11309700000.0 11309700000.0 11309700000.0 11309700000.0 11309700000.0 11309700000.0 11309700000.0 11309700000.0 11309700000.0 11309700000.0 11309700000.0 11309700000.0 11309700000.0 11309700000.0 11309700000.0 11309700000.0 11309700000.0 11309700000.0 11309700000.0 11309700000.0 11309700000.0 11309700000.0 11309700000.0 11309700000.0 11309700000.0 11309700000.0 11309700000.0 11309700000.0 11309700000.0 11309700000.0 11309700000.0 11309700000.0 11309700000.0 11309700000.0 11309700000.0 11309700000.0 11309700000.0 11309700000.0 11309700000.0 11309700000.0 11309700000.0 11309700000.0 11309700000.0 11309700000.0 11309700000.0 11309700000.0 11309700000.0 11309700000.0 11309700000.0 11309700000.0 11309700000.0 11309700000.0 11309700000.0 11309700000.0 11309700000.0 11309700000.0 11309700000.0 11309700000.0 11309700000.0 11309700000.0 11309700000.0 11309700000.0 11309700000.0 11309700000.0 11309700000.0 11309700000.0 11309700000.0 11309700000.0 11309700000.0 11309700000.0 11309700000.0 11309700000.0 11309700000.0 11309700000.0 11309700000.0 11309700000.0 11309700000.0 11309700000.0 11309700000.0 11309700000.0 11309700000.0 11309700000.0 11309700000.0 11309700000.0 11309700000.0 11309700000.0 11309700000.0 11309700000.0 11309700000.0 11309700000.0 11309700000.0 11309700000.0 11309700000.0 11309700000.0 11309700000.0 11309700000.0 11309700000.0 11309700000.0 11309700000.0 11309700000.0 11309700000.0 11309700000.0 11309700000.0 11309700000.0 11309700000.0 11309700000.0 11309700000.0 11309700000.0 11309700000.0 11309700000.0 11309700000.0 11309700000.0 11309700000.0 11309700000.0 11309700000.0 11309700000.0 11309700000.0 11309700000.0 11309700000.0 11309700000.0 11309700000.0 11309700000.0 11309700000.0 11309700000.0 11309700000.0 11309700000.0 11309700000.0 11309700000.0 11309700000.0 11309700000.0 11309700000.0 11309700000.0 11309700000.0 11309700000.0 11309700000.0 11309700000.0 11309700000.0 11309700000.0 11309700000.0 11309700000.0 11309700000.0 11309700000.0 11309700000.0 11309700000.0 11309700000.0 11309700000.0 11309700000.0 11309700000.0 11309700000.0 11309700000.0 11309700000.0 11309700000.0 11309700000.0 11309700000.0 11309700000.0 11309700000.0 11309700000.0 11309700000.0 11309700000.0 11309700000.0 11309700000.0 11309700000.0 11309700000.0 11309700000.0 11309700000.0 11309700000.0 11309700000.0 11309700000.0 11309700000.0 11309700000.0 11309700000.0 11309700000.0 11309700000.0 11309700000.0 11309700000.0 11309700000.0 11309700000.0 11309700000.0 11309700000.0 11309700000.0 11309700000.0 11309700000.0 11309700000.0 11309700000.0 11309700000.0 11309700000.0 11309700000.0 11309700000.0 11309700000.0 11309700000.0 11309700000.0 11309700000.0 11309700000.0 11309700000.0 11309700000.0 11309700000.0 11309700000.0 11309700000.0 11309700000.0 11309700000.0 11309700000.0 11309700000.0 11309700000.0 11309700000.0 11309700000.0 11309700000.0 11309700000.0 11309700000.0 11309700000.0 11309700000.0 11309700000.0 11309700000.0 11309700000.0 11309700000.0 11309700000.0 11309700000.0 11309700000.0 11309700000.0 11309700000.0 11309700000.0 11309700000.0 11309700000.0 11309700000.0 11309700000.0 11309700000.0 11309700000.0 11309700000.0 11309700000.0 11309700000.0 11309700000.0 11309700000.0 11309700000.0 11309700000.0 11309700000.0 11309700000.0 11309700000.0 11309700000.0 11309700000.0 11309700000.0 11309700000.0 11309700000.0 11309700000.0 11309700000.0 11309700000.0 11309700000.0 11309700000.0 11309700000.0 11309700000.0 11309700000.0 11309700000.0 11309700000.0 11309700000.0 11309700000.0 11309700000.0 11309700000.0 11309700000.0 11309700000.0 11309700000.0 11309700000.0 11309700000.0 11309700000.0 11309700000.0 11309700000.0 11309700000.0 11309700000.0 11309700000.0 11309700000.0 11309700000.0 11309700000.0 11309700000.0 11309700000.0 11309700000.0 11309700000.0 11309700000.0 11309700000.0 11309700000.0 11309700000.0 11309700000.0 11309700000.0 11309700000.0 11309700000.0 11309700000.0 11309700000.0 11309700000.0 11309700000.0 11309700000.0 11309700000.0 11309700000.0 11309700000.0 11309700000.0 11309700000.0 11309700000.0 11309700000.0 11309700000.0 11309700000.0 11309700000.0 11309700000.0 11309700000.0 11309700000.0 11309700000.0 11309700000.0 11309700000.0 11309700000.0 11309700000.0 11309700000.0 11309700000.0 11309700000.0 11309700000.0 11309700000.0 11309700000.0 11309700000.0 11309700000.0 11309700000.0 11309700000.0 11309700000.0 11309700000.0 11309700000.0 11309700000.0 11309700000.0 11309700000.0 11309700000.0 11309700000.0 11309700000.0 11309700000.0 11309700000.0 11309700000.0 11309700000.0 11309700000.0 11309700000.0 11309700000.0 11309700000.0 11309700000.0 11309700000.0 11309700000.0 11309700000.0 11309700000.0 11309700000.0 11309700000.0 11309700000.0 11309700000.0 11309700000.0 11309700000.0 11309700000.0 11309700000.0 11309700000.0 11309700000.0 11309700000.0 11309700000.0 11309700000.0 11309700000.0 11309700000.0 11309700000.0 11309700000.0 11309700000.0 11309700000.0 11309700000.0 11309700000.0 11309700000.0 11309700000.0 11309700000.0 11309700000.0 11309700000.0 11309700000.0 11309700000.0 11309700000.0 11309700000.0 11309700000.0 11309700000.0 11309700000.0 11309700000.0 11309700000.0 11309700000.0 11309700000.0 11309700000.0 11309700000.0 11309700000.0 11309700000.0 11309700000.0 11309700000.0 11309700000.0 11309700000.0 11309700000.0 11309700000.0 11309700000.0 11309700000.0 11309700000.0 11309700000.0 11309700000.0 11309700000.0 11309700000.0 11309700000.0 11309700000.0 11309700000.0 11309700000.0 11309700000.0 11309700000.0 11309700000.0 11309700000.0 11309700000.0 11309700000.0 11309700000.0 11309700000.0 11309700000.0 11309700000.0 11309700000.0 11309700000.0 11309700000.0 11309700000.0 11309700000.0 11309700000.0 11309700000.0 11309700000.0 11309700000.0 11309700000.0 11309700000.0 11309700000.0 11309700000.0 11309700000.0 11309700000.0 11309700000.0 11309700000.0 11309700000.0 11309700000.0 11309700000.0 11309700000.0 11309700000.0 11309700000.0 11309700000.0 11309700000.0 11309700000.0 11309700000.0 11309700000.0 11309700000.0 11309700000.0 11309700000.0 11309700000.0 11309700000.0 11309700000.0 11309700000.0 11309700000.0 11309700000.0 11309700000.0 11309700000.0 11309700000.0 11309700000.0 11309700000.0 11309700000.0 11309700000.0 11309700000.0 11309700000.0 11309700000.0 11309700000.0 11309700000.0 11309700000.0 11309700000.0 11309700000.0 11309700000.0 11309700000.0 11309700000.0 11309700000.0 11309700000.0 11309700000.0 11309700000.0 11309700000.0 11309700000.0 11309700000.0 11309700000.0 11309700000.0 11309700000.0 11309700000.0 11309700000.0 11309700000.0 11309700000.0 11309700000.0 11309700000.0 11309700000.0 11309700000.0 11309700000.0 11309700000.0 11309700000.0 11309700000.0 11309700000.0 11309700000.0 11309700000.0 11309700000.0 11309700000.0 11309700000.0 11309700000.0 11309700000.0 11309700000.0 11309700000.0 11309700000.0 11309700000.0 11309700000.0 11309700000.0 11309700000.0 11309700000.0 11309700000.0 11309700000.0 11309700000.0 11309700000.0 11309700000.0 11309700000.0 11309700000.0 11309700000.0 11309700000.0 11309700000.0 11309700000.0 11309700000.0 11309700000.0 11309700000.0 11309700000.0 11309700000.0 11309700000.0 11309700000.0 11309700000.0 11309700000.0 11309700000.0 11309700000.0 11309700000.0 11309700000.0 11309700000.0 11309700000.0 11309700000.0 11309700000.0 11309700000.0 11309700000.0 11309700000.0 11309700000.0 11309700000.0 11309700000.0 11309700000.0 11309700000.0 11309700000.0 11309700000.0 11309700000.0 11309700000.0 11309700000.0 11309700000.0 11309700000.0 11309700000.0 11309700000.0 11309700000.0 11309700000.0 11309700000.0 11309700000.0 11309700000.0 11309700000.0 11309700000.0 11309700000.0 11309700000.0 11309700000.0 11309700000.0 11309700000.0 11309700000.0 11309700000.0 11309700000.0 11309700000.0 11309700000.0 11309700000.0 11309700000.0 11309700000.0 11309700000.0 11309700000.0 11309700000.0 11309700000.0 11309700000.0 11309700000.0 11309700000.0 11309700000.0 11309700000.0 11309700000.0 11309700000.0 11309700000.0 11309700000.0 11309700000.0 11309700000.0 11309700000.0 11309700000.0 11309700000.0 11309700000.0 11309700000.0 11309700000.0 11309700000.0 11309700000.0 11309700000.0 11309700000.0 11309700000.0 11309700000.0 11309700000.0 11309700000.0 11309700000.0 11309700000.0 11309700000.0 11309700000.0 11309700000.0 11309700000.0 11309700000.0 11309700000.0 11309700000.0 11309700000.0 11309700000.0 11309700000.0 11309700000.0 11309700000.0 11309700000.0 11309700000.0 11309700000.0 11309700000.0 11309700000.0 11309700000.0 11309700000.0 11309700000.0 11309700000.0 11309700000.0 11309700000.0 11309700000.0 11309700000.0 11309700000.0 11309700000.0 11309700000.0 11309700000.0 11309700000.0 11309700000.0 11309700000.0 11309700000.0 11309700000.0 11309700000.0 11309700000.0 11309700000.0 11309700000.0 11309700000.0 11309700000.0 11309700000.0 11309700000.0 11309700000.0 11309700000.0 11309700000.0 11309700000.0 11309700000.0 11309700000.0 11309700000.0 11309700000.0 11309700000.0 11309700000.0 11309700000.0 11309700000.0 11309700000.0 11309700000.0 11309700000.0 11309700000.0 11309700000.0 11309700000.0 11309700000.0 11309700000.0 11309700000.0 11309700000.0 11309700000.0 11309700000.0 11309700000.0 11309700000.0 11309700000.0 11309700000.0 11309700000.0 11309700000.0 11309700000.0 11309700000.0 11309700000.0 11309700000.0 11309700000.0 11309700000.0 11309700000.0 11309700000.0 11309700000.0 11309700000.0 11309700000.0 11309700000.0 11309700000.0 11309700000.0 11309700000.0 11309700000.0 11309700000.0 11309700000.0 11309700000.0 11309700000.0 11309700000.0 11309700000.0 11309700000.0 11309700000.0 11309700000.0 11309700000.0 11309700000.0 11309700000.0 11309700000.0 11309700000.0 11309700000.0 11309700000.0 11309700000.0 11309700000.0 11309700000.0 11309700000.0 11309700000.0 11309700000.0 11309700000.0 11309700000.0 11309700000.0 11309700000.0 11309700000.0 11309700000.0 11309700000.0 11309700000.0 11309700000.0 11309700000.0 11309700000.0 11309700000.0 11309700000.0 11309700000.0 11309700000.0 11309700000.0 11309700000.0 11309700000.0 11309700000.0 11309700000.0 11309700000.0 11309700000.0 11309700000.0 11309700000.0 11309700000.0 11309700000.0 11309700000.0 11309700000.0 11309700000.0 11309700000.0 11309700000.0 11309700000.0 11309700000.0 11309700000.0 11309700000.0 11309700000.0 11309700000.0 11309700000.0 11309700000.0 11309700000.0 11309700000.0 11309700000.0 11309700000.0 11309700000.0 11309700000.0 11309700000.0 11309700000.0 11309700000.0 11309700000.0 11309700000.0 11309700000.0 11309700000.0 11309700000.0 11309700000.0 11309700000.0 11309700000.0 11309700000.0 11309700000.0 11309700000.0 11309700000.0 11309700000.0 11309700000.0 11309700000.0 11309700000.0 11309700000.0 11309700000.0 11309700000.0 11309700000.0 11309700000.0 11309700000.0 11309700000.0 11309700000.0 11309700000.0 11309700000.0 11309700000.0 11309700000.0 11309700000.0 11309700000.0 11309700000.0 11309700000.0 11309700000.0 11309700000.0 11309700000.0 11309700000.0 11309700000.0 11309700000.0 11309700000.0 11309700000.0 11309700000.0 11309700000.0 11309700000.0 11309700000.0 11309700000.0 11309700000.0 11309700000.0 11309700000.0 11309700000.0 11309700000.0 11309700000.0 11309700000.0 11309700000.0 11309700000.0 11309700000.0 11309700000.0 11309700000.0 11309700000.0 11309700000.0 11309700000.0 11309700000.0 11309700000.0 11309700000.0 11309700000.0 11309700000.0 11309700000.0 11309700000.0 11309700000.0 11309700000.0 11309700000.0 11309700000.0 11309700000.0 11309700000.0 11309700000.0 11309700000.0 11309700000.0 11309700000.0 11309700000.0 11309700000.0 11309700000.0 11309700000.0 11309700000.0 11309700000.0 11309700000.0 11309700000.0 11309700000.0 11309700000.0 11309700000.0 11309700000.0 11309700000.0 11309700000.0 11309700000.0 11309700000.0 11309700000.0 11309700000.0 11309700000.0 11309700000.0 11309700000.0 11309700000.0 11309700000.0 11309700000.0 11309700000.0 11309700000.0 11309700000.0 11309700000.0 11309700000.0 11309700000.0 11309700000.0 11309700000.0 11309700000.0 11309700000.0 11309700000.0 11309700000.0 11309700000.0 11309700000.0 11309700000.0 11309700000.0 11309700000.0 11309700000.0 11309700000.0 11309700000.0 11309700000.0 11309700000.0 11309700000.0 11309700000.0 11309700000.0 11309700000.0 11309700000.0 11309700000.0 11309700000.0 11309700000.0 11309700000.0 11309700000.0 11309700000.0 11309700000.0 11309700000.0 11309700000.0 11309700000.0 11309700000.0 11309700000.0 11309700000.0 11309700000.0 11309700000.0 11309700000.0 11309700000.0 11309700000.0 11309700000.0 11309700000.0 11309700000.0 11309700000.0 11309700000.0 11309700000.0 11309700000.0 11309700000.0 11309700000.0 11309700000.0 11309700000.0 11309700000.0 11309700000.0 11309700000.0 11309700000.0 11309700000.0 11309700000.0 11309700000.0 11309700000.0 11309700000.0 11309700000.0 11309700000.0 11309700000.0 11309700000.0 11309700000.0 11309700000.0 11309700000.0 11309700000.0 11309700000.0 11309700000.0 11309700000.0 11309700000.0 11309700000.0 11309700000.0 11309700000.0 11309700000.0 11309700000.0 11309700000.0 11309700000.0 11309700000.0 11309700000.0 11309700000.0 11309700000.0 11309700000.0 11309700000.0 11309700000.0 11309700000.0 11309700000.0 11309700000.0 11309700000.0 11309700000.0 11309700000.0 11309700000.0 11309700000.0 11309700000.0 11309700000.0 11309700000.0 11309700000.0 11309700000.0 11309700000.0 11309700000.0 11309700000.0 11309700000.0 11309700000.0 11309700000.0 11309700000.0 11309700000.0 11309700000.0 11309700000.0 11309700000.0 11309700000.0 11309700000.0 11309700000.0 11309700000.0 11309700000.0 11309700000.0 11309700000.0 11309700000.0 11309700000.0 11309700000.0 11309700000.0 11309700000.0 11309700000.0 11309700000.0 11309700000.0 11309700000.0 11309700000.0 11309700000.0 11309700000.0 11309700000.0 11309700000.0 11309700000.0 11309700000.0 11309700000.0 11309700000.0 11309700000.0 11309700000.0 11309700000.0 11309700000.0 11309700000.0 11309700000.0 11309700000.0 11309700000.0 11309700000.0 11309700000.0 11309700000.0 11309700000.0 11309700000.0 11309700000.0 11309700000.0 11309700000.0 11309700000.0 11309700000.0 11309700000.0 11309700000.0 11309700000.0 11309700000.0 11309700000.0 11309700000.0 11309700000.0 11309700000.0 11309700000.0 11309700000.0 11309700000.0 11309700000.0 11309700000.0 11309700000.0 11309700000.0 11309700000.0 11309700000.0 11309700000.0 11309700000.0 11309700000.0 11309700000.0 11309700000.0 11309700000.0 11309700000.0 11309700000.0 11309700000.0 11309700000.0 11309700000.0 11309700000.0 11309700000.0 11309700000.0 11309700000.0 11309700000.0 11309700000.0 11309700000.0 11309700000.0 11309700000.0 11309700000.0 11309700000.0 11309700000.0 11309700000.0 11309700000.0 11309700000.0 11309700000.0 11309700000.0 11309700000.0 11309700000.0 11309700000.0 11309700000.0 11309700000.0 11309700000.0 11309700000.0 11309700000.0 11309700000.0 11309700000.0 11309700000.0 11309700000.0 11309700000.0 11309700000.0 11309700000.0 11309700000.0 11309700000.0 11309700000.0 11309700000.0 11309700000.0 11309700000.0 11309700000.0 11309700000.0 11309700000.0 11309700000.0 11309700000.0 11309700000.0 11309700000.0 11309700000.0 11309700000.0 11309700000.0 11309700000.0 11309700000.0 11309700000.0 11309700000.0 11309700000.0 11309700000.0 11309700000.0 11309700000.0 11309700000.0 11309700000.0 11309700000.0 11309700000.0 11309700000.0 11309700000.0 11309700000.0 11309700000.0 11309700000.0 11309700000.0 11309700000.0 11309700000.0 11309700000.0 11309700000.0 11309700000.0 11309700000.0 11309700000.0 11309700000.0 11309700000.0 11309700000.0 11309700000.0 11309700000.0 11309700000.0 11309700000.0 11309700000.0 11309700000.0 11309700000.0 11309700000.0 11309700000.0 11309700000.0 11309700000.0 11309700000.0 11309700000.0 11309700000.0 11309700000.0 11309700000.0 11309700000.0 11309700000.0 11309700000.0 11309700000.0 11309700000.0 11309700000.0 11309700000.0 11309700000.0 11309700000.0 11309700000.0 11309700000.0 11309700000.0 11309700000.0 11309700000.0 11309700000.0 11309700000.0 11309700000.0 11309700000.0 11309700000.0 11309700000.0 11309700000.0 11309700000.0 11309700000.0 11309700000.0 11309700000.0 11309700000.0 11309700000.0 11309700000.0 11309700000.0 11309700000.0 11309700000.0 11309700000.0 11309700000.0 11309700000.0 11309700000.0 11309700000.0 11309700000.0 11309700000.0 11309700000.0 11309700000.0 11309700000.0 11309700000.0 11309700000.0 11309700000.0 11309700000.0 11309700000.0 11309700000.0 11309700000.0 11309700000.0 11309700000.0 11309700000.0 11309700000.0 11309700000.0 11309700000.0 11309700000.0 11309700000.0 11309700000.0 11309700000.0 11309700000.0 11309700000.0 11309700000.0 11309700000.0 11309700000.0 11309700000.0 11309700000.0 11309700000.0 11309700000.0 11309700000.0 11309700000.0 11309700000.0 11309700000.0 11309700000.0 11309700000.0 11309700000.0 11309700000.0 11309700000.0 11309700000.0 11309700000.0 11309700000.0 11309700000.0 11309700000.0 11309700000.0 11309700000.0 11309700000.0 11309700000.0 11309700000.0 11309700000.0 11309700000.0 11309700000.0 11309700000.0 11309700000.0 11309700000.0 11309700000.0 11309700000.0 11309700000.0 11309700000.0 11309700000.0 11309700000.0 11309700000.0 11309700000.0 11309700000.0 11309700000.0 11309700000.0 11309700000.0 11309700000.0 11309700000.0 11309700000.0 11309700000.0 11309700000.0 11309700000.0 11309700000.0 11309700000.0 11309700000.0 11309700000.0 11309700000.0 11309700000.0 11309700000.0 11309700000.0 11309700000.0 11309700000.0 11309700000.0 11309700000.0 11309700000.0 11309700000.0 11309700000.0 11309700000.0 11309700000.0 11309700000.0 11309700000.0 11309700000.0 11309700000.0 11309700000.0 11309700000.0 11309700000.0 11309700000.0 11309700000.0 11309700000.0 11309700000.0 11309700000.0 11309700000.0 11309700000.0 11309700000.0 11309700000.0 11309700000.0 11309700000.0 11309700000.0 11309700000.0 11309700000.0 11309700000.0 11309700000.0 11309700000.0 11309700000.0 11309700000.0 11309700000.0 11309700000.0 11309700000.0 11309700000.0 11309700000.0 11309700000.0 11309700000.0 11309700000.0 11309700000.0 11309700000.0 11309700000.0 11309700000.0 11309700000.0 11309700000.0 11309700000.0 11309700000.0 11309700000.0 11309700000.0 11309700000.0 11309700000.0 11309700000.0 11309700000.0 11309700000.0 11309700000.0 11309700000.0 11309700000.0 11309700000.0 11309700000.0 11309700000.0 11309700000.0 11309700000.0 11309700000.0 11309700000.0 11309700000.0 11309700000.0 11309700000.0 11309700000.0 11309700000.0 11309700000.0 11309700000.0 11309700000.0 11309700000.0 11309700000.0 11309700000.0 11309700000.0 11309700000.0 11309700000.0 11309700000.0 11309700000.0 11309700000.0 11309700000.0 11309700000.0 11309700000.0 11309700000.0 11309700000.0 11309700000.0 11309700000.0 11309700000.0 11309700000.0 11309700000.0 11309700000.0 11309700000.0 11309700000.0 11309700000.0 11309700000.0 11309700000.0 11309700000.0 11309700000.0 11309700000.0 11309700000.0 11309700000.0 11309700000.0 11309700000.0 11309700000.0 11309700000.0 11309700000.0 11309700000.0 11309700000.0 11309700000.0 11309700000.0 11309700000.0 11309700000.0 11309700000.0 11309700000.0 11309700000.0 11309700000.0 11309700000.0 11309700000.0 11309700000.0 11309700000.0 11309700000.0 11309700000.0 11309700000.0 11309700000.0 11309700000.0 11309700000.0 11309700000.0 11309700000.0 11309700000.0 11309700000.0 11309700000.0 11309700000.0 11309700000.0 11309700000.0 11309700000.0 11309700000.0 11309700000.0 11309700000.0 11309700000.0 11309700000.0 11309700000.0 11309700000.0 11309700000.0 11309700000.0 11309700000.0 11309700000.0 11309700000.0 11309700000.0 11309700000.0 11309700000.0 11309700000.0 11309700000.0 11309700000.0 11309700000.0 11309700000.0 11309700000.0 11309700000.0 11309700000.0 11309700000.0 11309700000.0 11309700000.0 11309700000.0 11309700000.0 11309700000.0 11309700000.0 11309700000.0 11309700000.0 11309700000.0 11309700000.0 11309700000.0 11309700000.0 11309700000.0 11309700000.0 11309700000.0 11309700000.0 11309700000.0 11309700000.0 11309700000.0 11309700000.0 11309700000.0 11309700000.0 11309700000.0 11309700000.0 11309700000.0 11309700000.0 11309700000.0 11309700000.0 11309700000.0 11309700000.0 11309700000.0 11309700000.0 11309700000.0 11309700000.0 11309700000.0 11309700000.0 11309700000.0 11309700000.0 11309700000.0 11309700000.0 11309700000.0 11309700000.0 11309700000.0 11309700000.0 11309700000.0 11309700000.0 11309700000.0 11309700000.0 11309700000.0 11309700000.0 11309700000.0 11309700000.0 11309700000.0 11309700000.0 11309700000.0 11309700000.0 11309700000.0 11309700000.0 11309700000.0 11309700000.0 11309700000.0 11309700000.0 11309700000.0 11309700000.0 11309700000.0 11309700000.0 11309700000.0 11309700000.0 11309700000.0 11309700000.0 11309700000.0 11309700000.0 11309700000.0 11309700000.0 11309700000.0 11309700000.0 11309700000.0 11309700000.0 11309700000.0 11309700000.0 11309700000.0 11309700000.0 11309700000.0 11309700000.0 11309700000.0 11309700000.0 11309700000.0 11309700000.0 11309700000.0 11309700000.0 11309700000.0 11309700000.0 11309700000.0 11309700000.0 11309700000.0 11309700000.0 11309700000.0 11309700000.0 11309700000.0 11309700000.0 11309700000.0 11309700000.0 11309700000.0 11309700000.0 11309700000.0 11309700000.0 11309700000.0 11309700000.0 11309700000.0 11309700000.0 11309700000.0 11309700000.0 11309700000.0 11309700000.0 11309700000.0 11309700000.0 11309700000.0 11309700000.0 11309700000.0 11309700000.0 11309700000.0 11309700000.0 11309700000.0 11309700000.0 11309700000.0 11309700000.0 11309700000.0 11309700000.0 11309700000.0 11309700000.0 11309700000.0 11309700000.0 11309700000.0 11309700000.0 11309700000.0 11309700000.0 11309700000.0 11309700000.0 11309700000.0 11309700000.0 11309700000.0 11309700000.0 11309700000.0 11309700000.0 11309700000.0 11309700000.0 11309700000.0 11309700000.0 11309700000.0 11309700000.0 11309700000.0 11309700000.0 11309700000.0 11309700000.0 11309700000.0 11309700000.0 11309700000.0 11309700000.0 11309700000.0 11309700000.0 11309700000.0 11309700000.0 11309700000.0 11309700000.0 11309700000.0 11309700000.0 11309700000.0 11309700000.0 11309700000.0 11309700000.0 11309700000.0 11309700000.0 11309700000.0 11309700000.0 11309700000.0 11309700000.0 11309700000.0 11309700000.0 11309700000.0 11309700000.0 11309700000.0 11309700000.0 11309700000.0 11309700000.0 11309700000.0 11309700000.0 11309700000.0 11309700000.0 11309700000.0 11309700000.0 11309700000.0 11309700000.0 11309700000.0 11309700000.0 11309700000.0 11309700000.0 11309700000.0 11309700000.0 11309700000.0 11309700000.0 11309700000.0 11309700000.0 11309700000.0 11309700000.0 11309700000.0 11309700000.0 11309700000.0 11309700000.0 11309700000.0 11309700000.0 11309700000.0 11309700000.0 11309700000.0 11309700000.0 11309700000.0 11309700000.0 11309700000.0 11309700000.0 11309700000.0 11309700000.0 11309700000.0 11309700000.0 11309700000.0 11309700000.0 11309700000.0 11309700000.0 11309700000.0 11309700000.0 11309700000.0 11309700000.0 11309700000.0 11309700000.0 11309700000.0 11309700000.0 11309700000.0 11309700000.0 11309700000.0 11309700000.0 11309700000.0 11309700000.0 11309700000.0 11309700000.0 11309700000.0 11309700000.0 11309700000.0 11309700000.0 11309700000.0 11309700000.0 11309700000.0 11309700000.0 11309700000.0 11309700000.0 11309700000.0 11309700000.0 11309700000.0 11309700000.0 11309700000.0 11309700000.0 11309700000.0 11309700000.0 11309700000.0 11309700000.0 11309700000.0 11309700000.0 11309700000.0 11309700000.0 11309700000.0 11309700000.0 11309700000.0 11309700000.0 11309700000.0 11309700000.0 11309700000.0 11309700000.0 11309700000.0 11309700000.0 11309700000.0 11309700000.0 11309700000.0 11309700000.0 11309700000.0 11309700000.0 11309700000.0 11309700000.0 11309700000.0 11309700000.0 11309700000.0 11309700000.0 11309700000.0 11309700000.0 11309700000.0 11309700000.0 11309700000.0 11309700000.0 11309700000.0 11309700000.0 11309700000.0 11309700000.0 11309700000.0 11309700000.0 11309700000.0 11309700000.0 11309700000.0 11309700000.0 11309700000.0 11309700000.0 11309700000.0 11309700000.0 11309700000.0 11309700000.0 11309700000.0 11309700000.0 11309700000.0 11309700000.0 11309700000.0 11309700000.0 11309700000.0 11309700000.0 11309700000.0 11309700000.0 11309700000.0 11309700000.0 11309700000.0 11309700000.0 11309700000.0 11309700000.0 11309700000.0 11309700000.0 11309700000.0 11309700000.0 11309700000.0 11309700000.0 11309700000.0 11309700000.0 11309700000.0 11309700000.0 11309700000.0 11309700000.0 11309700000.0 11309700000.0 11309700000.0 11309700000.0 11309700000.0 11309700000.0 11309700000.0 11309700000.0 11309700000.0 11309700000.0 11309700000.0 11309700000.0 11309700000.0 11309700000.0 11309700000.0 11309700000.0 11309700000.0 11309700000.0 11309700000.0 11309700000.0 11309700000.0 11309700000.0 11309700000.0 11309700000.0 11309700000.0 11309700000.0 11309700000.0 11309700000.0 11309700000.0 11309700000.0 11309700000.0 11309700000.0 11309700000.0 11309700000.0 11309700000.0 11309700000.0 11309700000.0 11309700000.0 11309700000.0 11309700000.0 11309700000.0 11309700000.0 11309700000.0 11309700000.0 11309700000.0 11309700000.0 11309700000.0 11309700000.0 11309700000.0 11309700000.0 11309700000.0 11309700000.0 11309700000.0 11309700000.0 11309700000.0 11309700000.0 11309700000.0 11309700000.0 11309700000.0 11309700000.0 11309700000.0 11309700000.0 11309700000.0 11309700000.0 11309700000.0 11309700000.0 11309700000.0 11309700000.0 11309700000.0 11309700000.0 11309700000.0 11309700000.0 11309700000.0 11309700000.0 11309700000.0 11309700000.0 11309700000.0 11309700000.0 11309700000.0 11309700000.0 11309700000.0 11309700000.0 11309700000.0 11309700000.0 11309700000.0 11309700000.0 11309700000.0 11309700000.0 11309700000.0 11309700000.0 11309700000.0 11309700000.0 11309700000.0 11309700000.0 11309700000.0 11309700000.0 11309700000.0 11309700000.0 11309700000.0 11309700000.0 11309700000.0 11309700000.0 11309700000.0 11309700000.0 11309700000.0 11309700000.0 11309700000.0 11309700000.0 11309700000.0 11309700000.0 11309700000.0 11309700000.0 11309700000.0 11309700000.0 11309700000.0 11309700000.0 11309700000.0 11309700000.0 11309700000.0 11309700000.0 11309700000.0 11309700000.0 11309700000.0 11309700000.0 11309700000.0 11309700000.0 11309700000.0 11309700000.0 11309700000.0 11309700000.0 11309700000.0 11309700000.0 11309700000.0 11309700000.0 11309700000.0 11309700000.0 11309700000.0 11309700000.0 11309700000.0 11309700000.0 11309700000.0 11309700000.0 11309700000.0 11309700000.0 11309700000.0 11309700000.0 11309700000.0 11309700000.0 11309700000.0 11309700000.0 11309700000.0 11309700000.0 11309700000.0 11309700000.0 11309700000.0 11309700000.0 11309700000.0 11309700000.0 11309700000.0 11309700000.0 11309700000.0 11309700000.0 11309700000.0 11309700000.0 11309700000.0 11309700000.0 11309700000.0 11309700000.0 11309700000.0 11309700000.0 11309700000.0 11309700000.0 11309700000.0 11309700000.0 11309700000.0 11309700000.0 11309700000.0 11309700000.0 11309700000.0 11309700000.0 11309700000.0 11309700000.0 11309700000.0 11309700000.0 11309700000.0 11309700000.0 11309700000.0 11309700000.0 11309700000.0 11309700000.0 11309700000.0 11309700000.0 11309700000.0 11309700000.0 11309700000.0 11309700000.0 11309700000.0 11309700000.0 11309700000.0 11309700000.0 11309700000.0 11309700000.0 11309700000.0 11309700000.0 11309700000.0 11309700000.0 11309700000.0 11309700000.0 11309700000.0 11309700000.0 11309700000.0 11309700000.0 11309700000.0 11309700000.0 11309700000.0 11309700000.0 11309700000.0 11309700000.0 11309700000.0 11309700000.0 11309700000.0 11309700000.0 11309700000.0 11309700000.0 11309700000.0 11309700000.0 11309700000.0 11309700000.0 11309700000.0 11309700000.0 11309700000.0 11309700000.0 11309700000.0 11309700000.0 11309700000.0 11309700000.0 11309700000.0 11309700000.0 11309700000.0 11309700000.0 11309700000.0 11309700000.0 11309700000.0 11309700000.0 11309700000.0 11309700000.0 11309700000.0 11309700000.0 11309700000.0 11309700000.0 11309700000.0 11309700000.0 11309700000.0 11309700000.0 11309700000.0 11309700000.0 11309700000.0 11309700000.0 11309700000.0 11309700000.0 11309700000.0 11309700000.0 11309700000.0 11309700000.0 11309700000.0 11309700000.0 11309700000.0 11309700000.0 11309700000.0 11309700000.0 11309700000.0 11309700000.0 11309700000.0 11309700000.0 11309700000.0 11309700000.0 11309700000.0 11309700000.0 11309700000.0 11309700000.0 11309700000.0 11309700000.0 11309700000.0 11309700000.0 11309700000.0 11309700000.0 11309700000.0 11309700000.0 11309700000.0 11309700000.0 11309700000.0 11309700000.0 11309700000.0 11309700000.0 11309700000.0 11309700000.0 11309700000.0 11309700000.0 11309700000.0 11309700000.0 11309700000.0 11309700000.0 11309700000.0 11309700000.0 11309700000.0 11309700000.0 11309700000.0 11309700000.0 11309700000.0 11309700000.0 11309700000.0 11309700000.0 11309700000.0 11309700000.0 11309700000.0 11309700000.0 11309700000.0 11309700000.0 11309700000.0 11309700000.0 11309700000.0 11309700000.0 11309700000.0 11309700000.0 11309700000.0 11309700000.0 11309700000.0 11309700000.0 11309700000.0 11309700000.0 11309700000.0 11309700000.0 11309700000.0 11309700000.0 11309700000.0 11309700000.0 11309700000.0 11309700000.0 11309700000.0 11309700000.0 11309700000.0 11309700000.0 11309700000.0 11309700000.0 11309700000.0 11309700000.0 11309700000.0 11309700000.0 11309700000.0 11309700000.0 11309700000.0 11309700000.0 11309700000.0 11309700000.0 11309700000.0 11309700000.0 11309700000.0 11309700000.0 11309700000.0 11309700000.0 11309700000.0 11309700000.0 11309700000.0 11309700000.0 11309700000.0 11309700000.0 11309700000.0 11309700000.0 11309700000.0 11309700000.0 11309700000.0 11309700000.0 11309700000.0 11309700000.0 11309700000.0 11309700000.0 11309700000.0 11309700000.0 11309700000.0 11309700000.0 11309700000.0 11309700000.0 11309700000.0 11309700000.0 11309700000.0 11309700000.0 11309700000.0 11309700000.0 11309700000.0 11309700000.0 11309700000.0 11309700000.0 11309700000.0 11309700000.0 11309700000.0 11309700000.0 11309700000.0 11309700000.0 11309700000.0 11309700000.0 11309700000.0 11309700000.0 11309700000.0 11309700000.0 11309700000.0 11309700000.0 11309700000.0 11309700000.0 11309700000.0 11309700000.0 11309700000.0 11309700000.0 11309700000.0 11309700000.0 11309700000.0 11309700000.0 11309700000.0 11309700000.0 11309700000.0 11309700000.0 11309700000.0 11309700000.0 11309700000.0 11309700000.0 11309700000.0 11309700000.0 11309700000.0 11309700000.0 11309700000.0 11309700000.0 11309700000.0 11309700000.0 11309700000.0 11309700000.0 11309700000.0 11309700000.0 11309700000.0 11309700000.0 11309700000.0 11309700000.0 11309700000.0 11309700000.0 11309700000.0 11309700000.0 11309700000.0 11309700000.0 11309700000.0 11309700000.0 11309700000.0 11309700000.0 11309700000.0 11309700000.0 11309700000.0 11309700000.0 11309700000.0 11309700000.0 11309700000.0 11309700000.0 11309700000.0 11309700000.0 11309700000.0 11309700000.0 11309700000.0 11309700000.0 11309700000.0 11309700000.0 11309700000.0 11309700000.0 11309700000.0 11309700000.0 11309700000.0 11309700000.0 11309700000.0 11309700000.0 11309700000.0 11309700000.0 11309700000.0 11309700000.0 11309700000.0 11309700000.0 11309700000.0 11309700000.0 11309700000.0 11309700000.0 11309700000.0 11309700000.0 11309700000.0 11309700000.0 11309700000.0 11309700000.0 11309700000.0 11309700000.0 11309700000.0 11309700000.0 11309700000.0 11309700000.0 11309700000.0 11309700000.0 11309700000.0 11309700000.0 11309700000.0 11309700000.0 11309700000.0 11309700000.0 11309700000.0 11309700000.0 11309700000.0 11309700000.0 11309700000.0 11309700000.0 11309700000.0 11309700000.0 11309700000.0 11309700000.0 11309700000.0 11309700000.0 11309700000.0 11309700000.0 11309700000.0 11309700000.0 11309700000.0 11309700000.0 11309700000.0 11309700000.0 11309700000.0 11309700000.0 11309700000.0 11309700000.0 11309700000.0 11309700000.0 11309700000.0 11309700000.0 11309700000.0 11309700000.0 11309700000.0 11309700000.0 11309700000.0 11309700000.0 11309700000.0 11309700000.0 11309700000.0 11309700000.0 11309700000.0 11309700000.0 11309700000.0 11309700000.0 11309700000.0 11309700000.0 11309700000.0 11309700000.0 11309700000.0 11309700000.0 11309700000.0 11309700000.0 11309700000.0 11309700000.0 11309700000.0 11309700000.0 11309700000.0 11309700000.0 11309700000.0 11309700000.0 11309700000.0 11309700000.0 11309700000.0 11309700000.0 11309700000.0 11309700000.0 11309700000.0 11309700000.0 11309700000.0 11309700000.0 11309700000.0 11309700000.0 11309700000.0 11309700000.0 11309700000.0 11309700000.0 11309700000.0 11309700000.0 11309700000.0 11309700000.0 11309700000.0 11309700000.0 11309700000.0 11309700000.0 11309700000.0 11309700000.0 11309700000.0 11309700000.0 11309700000.0 11309700000.0 11309700000.0 11309700000.0 11309700000.0 11309700000.0 11309700000.0 11309700000.0 11309700000.0 11309700000.0 11309700000.0 11309700000.0 11309700000.0 11309700000.0 11309700000.0 11309700000.0 11309700000.0 11309700000.0 11309700000.0 11309700000.0 11309700000.0 11309700000.0 11309700000.0 11309700000.0 11309700000.0 11309700000.0 11309700000.0 11309700000.0 11309700000.0 11309700000.0 11309700000.0 11309700000.0 11309700000.0 11309700000.0 11309700000.0 11309700000.0 11309700000.0 11309700000.0 11309700000.0 11309700000.0 11309700000.0 11309700000.0 11309700000.0 11309700000.0 11309700000.0 11309700000.0 11309700000.0 11309700000.0 11309700000.0 11309700000.0 11309700000.0 11309700000.0 11309700000.0 11309700000.0 11309700000.0 11309700000.0 11309700000.0 11309700000.0 11309700000.0 11309700000.0 11309700000.0 11309700000.0 11309700000.0 11309700000.0 11309700000.0 11309700000.0 11309700000.0 11309700000.0 11309700000.0 11309700000.0 11309700000.0 11309700000.0 11309700000.0 11309700000.0 11309700000.0 11309700000.0 11309700000.0 11309700000.0 11309700000.0 11309700000.0 11309700000.0 11309700000.0 11309700000.0 11309700000.0 11309700000.0 11309700000.0 11309700000.0 11309700000.0 11309700000.0 11309700000.0 11309700000.0 11309700000.0 11309700000.0 11309700000.0 11309700000.0 11309700000.0 11309700000.0 11309700000.0 11309700000.0 11309700000.0 11309700000.0 11309700000.0 11309700000.0 11309700000.0 11309700000.0 11309700000.0 11309700000.0 11309700000.0 11309700000.0 11309700000.0 11309700000.0 11309700000.0 11309700000.0 11309700000.0 11309700000.0 11309700000.0 11309700000.0 11309700000.0 11309700000.0 11309700000.0 11309700000.0 11309700000.0 11309700000.0 11309700000.0 11309700000.0 11309700000.0 11309700000.0 11309700000.0 11309700000.0 11309700000.0 11309700000.0 11309700000.0 11309700000.0 11309700000.0 11309700000.0 11309700000.0 11309700000.0 11309700000.0 11309700000.0 11309700000.0 11309700000.0 11309700000.0 11309700000.0 11309700000.0 11309700000.0 11309700000.0 11309700000.0 11309700000.0 11309700000.0 11309700000.0 11309700000.0 11309700000.0 11309700000.0 11309700000.0 11309700000.0 11309700000.0 11309700000.0 11309700000.0 11309700000.0 11309700000.0 11309700000.0 11309700000.0 11309700000.0 11309700000.0 11309700000.0 11309700000.0 11309700000.0 11309700000.0 11309700000.0 11309700000.0 11309700000.0 11309700000.0 11309700000.0 11309700000.0 11309700000.0 11309700000.0 11309700000.0 11309700000.0 11309700000.0 11309700000.0 11309700000.0 11309700000.0 11309700000.0 11309700000.0 11309700000.0 11309700000.0 11309700000.0 11309700000.0 11309700000.0 11309700000.0 11309700000.0 11309700000.0 11309700000.0 11309700000.0 11309700000.0 11309700000.0 11309700000.0 11309700000.0 11309700000.0 11309700000.0 11309700000.0 11309700000.0 11309700000.0 11309700000.0 11309700000.0 11309700000.0 11309700000.0 11309700000.0 11309700000.0 11309700000.0 11309700000.0 11309700000.0 11309700000.0 11309700000.0 11309700000.0 11309700000.0 11309700000.0 11309700000.0 11309700000.0 11309700000.0 11309700000.0 11309700000.0 11309700000.0 11309700000.0 11309700000.0 11309700000.0 11309700000.0 11309700000.0 11309700000.0 11309700000.0 11309700000.0 11309700000.0 11309700000.0 11309700000.0 11309700000.0 11309700000.0 11309700000.0 11309700000.0 11309700000.0 11309700000.0 11309700000.0 11309700000.0 11309700000.0 11309700000.0 11309700000.0 11309700000.0 11309700000.0 11309700000.0 11309700000.0 11309700000.0 11309700000.0 11309700000.0 11309700000.0 11309700000.0 11309700000.0 11309700000.0 11309700000.0 11309700000.0 11309700000.0 11309700000.0 11309700000.0 11309700000.0 11309700000.0 11309700000.0 11309700000.0 11309700000.0 11309700000.0 11309700000.0 11309700000.0 11309700000.0 11309700000.0 11309700000.0 11309700000.0 11309700000.0 11309700000.0 11309700000.0 11309700000.0 11309700000.0 11309700000.0 11309700000.0 11309700000.0 11309700000.0 11309700000.0 11309700000.0 11309700000.0 11309700000.0 11309700000.0 11309700000.0 11309700000.0 11309700000.0 11309700000.0 11309700000.0 11309700000.0 11309700000.0 11309700000.0 11309700000.0 11309700000.0 11309700000.0 11309700000.0 11309700000.0 11309700000.0 11309700000.0 11309700000.0 11309700000.0 11309700000.0 11309700000.0 11309700000.0 11309700000.0 11309700000.0 11309700000.0 11309700000.0 11309700000.0 11309700000.0 11309700000.0 11309700000.0 11309700000.0 11309700000.0 11309700000.0 11309700000.0 11309700000.0 11309700000.0 11309700000.0 11309700000.0 11309700000.0 11309700000.0 11309700000.0 11309700000.0 11309700000.0 11309700000.0 11309700000.0 11309700000.0 11309700000.0 11309700000.0 11309700000.0 11309700000.0 11309700000.0 11309700000.0 11309700000.0 11309700000.0 11309700000.0 11309700000.0 11309700000.0 11309700000.0 11309700000.0 11309700000.0 11309700000.0 11309700000.0 11309700000.0 11309700000.0 11309700000.0 11309700000.0 11309700000.0 11309700000.0 11309700000.0 11309700000.0 11309700000.0 11309700000.0 11309700000.0 11309700000.0 11309700000.0 11309700000.0 11309700000.0 11309700000.0 11309700000.0 11309700000.0 11309700000.0 11309700000.0 11309700000.0 11309700000.0 11309700000.0 11309700000.0 11309700000.0 11309700000.0 11309700000.0 11309700000.0 11309700000.0 11309700000.0 11309700000.0 11309700000.0 11309700000.0 11309700000.0 11309700000.0 11309700000.0 11309700000.0 11309700000.0 11309700000.0 11309700000.0 11309700000.0 11309700000.0 11309700000.0 11309700000.0 11309700000.0 11309700000.0 11309700000.0 11309700000.0 11309700000.0 11309700000.0 11309700000.0 11309700000.0 11309700000.0 11309700000.0 11309700000.0 11309700000.0 11309700000.0 11309700000.0 11309700000.0 11309700000.0 11309700000.0 11309700000.0 11309700000.0 11309700000.0 11309700000.0 11309700000.0 11309700000.0 11309700000.0 11309700000.0 11309700000.0 11309700000.0 11309700000.0 11309700000.0 11309700000.0 11309700000.0 11309700000.0 11309700000.0 11309700000.0 11309700000.0 11309700000.0 11309700000.0 11309700000.0 11309700000.0 11309700000.0 11309700000.0 11309700000.0 11309700000.0 11309700000.0 11309700000.0 11309700000.0 11309700000.0 11309700000.0 11309700000.0 11309700000.0 11309700000.0 11309700000.0 11309700000.0 11309700000.0 11309700000.0 11309700000.0 11309700000.0 11309700000.0 11309700000.0 11309700000.0 11309700000.0 11309700000.0 11309700000.0 11309700000.0 11309700000.0 11309700000.0 11309700000.0 11309700000.0 11309700000.0 11309700000.0 11309700000.0 11309700000.0 11309700000.0 11309700000.0 11309700000.0 11309700000.0 11309700000.0 11309700000.0 11309700000.0 11309700000.0 11309700000.0 11309700000.0 11309700000.0 11309700000.0 11309700000.0 11309700000.0 11309700000.0 11309700000.0 11309700000.0 11309700000.0 11309700000.0 11309700000.0 11309700000.0 11309700000.0 11309700000.0 11309700000.0 11309700000.0 11309700000.0 11309700000.0 11309700000.0 11309700000.0 11309700000.0 11309700000.0 11309700000.0 11309700000.0 11309700000.0 11309700000.0 11309700000.0 11309700000.0 11309700000.0 11309700000.0 11309700000.0 11309700000.0 11309700000.0 11309700000.0 11309700000.0 11309700000.0 11309700000.0 11309700000.0 11309700000.0 11309700000.0 11309700000.0 11309700000.0 11309700000.0 11309700000.0 11309700000.0 11309700000.0 11309700000.0 11309700000.0 11309700000.0 11309700000.0 11309700000.0 11309700000.0 11309700000.0 11309700000.0 11309700000.0 11309700000.0 11309700000.0 11309700000.0 11309700000.0 11309700000.0 11309700000.0 11309700000.0 11309700000.0 11309700000.0 11309700000.0 11309700000.0 11309700000.0 11309700000.0 11309700000.0 11309700000.0 11309700000.0 11309700000.0 11309700000.0 11309700000.0 11309700000.0 11309700000.0 11309700000.0 11309700000.0 11309700000.0 11309700000.0 11309700000.0 11309700000.0 11309700000.0 11309700000.0 11309700000.0 11309700000.0 11309700000.0 11309700000.0 11309700000.0 11309700000.0 11309700000.0 11309700000.0 11309700000.0 11309700000.0 11309700000.0 11309700000.0 11309700000.0 11309700000.0 11309700000.0 11309700000.0 11309700000.0 11309700000.0 11309700000.0 11309700000.0 11309700000.0 11309700000.0 11309700000.0 11309700000.0 11309700000.0 11309700000.0 11309700000.0 11309700000.0 11309700000.0 11309700000.0 11309700000.0 11309700000.0 11309700000.0 11309700000.0 11309700000.0 11309700000.0 11309700000.0 11309700000.0 11309700000.0 11309700000.0 11309700000.0 11309700000.0 11309700000.0 11309700000.0 11309700000.0 11309700000.0 11309700000.0 11309700000.0 11309700000.0 11309700000.0 11309700000.0 11309700000.0 11309700000.0 11309700000.0 11309700000.0 11309700000.0 11309700000.0 11309700000.0 11309700000.0 11309700000.0 11309700000.0 11309700000.0 11309700000.0 11309700000.0 11309700000.0 11309700000.0 11309700000.0 11309700000.0 11309700000.0 11309700000.0 11309700000.0 11309700000.0 11309700000.0 11309700000.0 11309700000.0 11309700000.0 11309700000.0 11309700000.0 11309700000.0 11309700000.0 11309700000.0 11309700000.0 11309700000.0 11309700000.0 11309700000.0 11309700000.0 11309700000.0 11309700000.0 11309700000.0 11309700000.0 11309700000.0 11309700000.0 11309700000.0 11309700000.0 11309700000.0 11309700000.0 11309700000.0 11309700000.0 11309700000.0 11309700000.0 11309700000.0 11309700000.0 11309700000.0 11309700000.0 11309700000.0 11309700000.0 11309700000.0 11309700000.0 11309700000.0 11309700000.0 11309700000.0 11309700000.0 11309700000.0 11309700000.0 11309700000.0 11309700000.0 11309700000.0 11309700000.0 11309700000.0 11309700000.0 11309700000.0 11309700000.0 11309700000.0 11309700000.0 11309700000.0 11309700000.0 11309700000.0 11309700000.0 11309700000.0 11309700000.0 11309700000.0 11309700000.0 11309700000.0 11309700000.0 11309700000.0 11309700000.0 11309700000.0 11309700000.0 11309700000.0 11309700000.0 11309700000.0 11309700000.0 11309700000.0 11309700000.0 11309700000.0 11309700000.0 11309700000.0 11309700000.0 11309700000.0 11309700000.0 11309700000.0 11309700000.0 11309700000.0 11309700000.0 11309700000.0 11309700000.0 11309700000.0 11309700000.0 
SCALARS Velocity float 1
LOOKUP_TABLE default
1.0844 1.0681 1.09681 1.07564 1.06961 1.07609 1.0852 1.0838 1.08632 1.07907 1.07813 1.07664 1.07605 1.07527 1.07483 1.07396 1.07593 1.07717 1.07373 1.07459 1.0839 1.08797 1.0776 1.07093 1.08603 1.08554 1.08467 1.08422 1.0834 1.09538 1.08549 1.08491 1.07997 1.0778 1.07577 1.07432 1.07515 1.05422 1.07355 1.07487 1.08768 1.07799 1.07211 1.08599 1.0851 1.08339 1.09493 1.08442 1.07874 1.0766 1.07482 1.07393 1.07693 1.06616 1.07506 1.08517 1.08256 1.07402 1.08572 1.08444 1.08503 1.08004 1.07934 1.07779 1.07641 1.07548 1.07449 1.07405 1.0738 1.07495 1.0733 1.0744 1.07643 1.06997 1.07997 1.08361 1.08392 1.08307 1.08131 1.07809 1.07506 1.07287 1.08599 1.08579 1.08533 1.08436 1.08338 1.0945 1.08456 1.08405 1.0804 1.07764 1.07514 1.07379 1.07305 1.07458 1.08032 1.08233 1.08255 1.0782 1.07416 1.08604 1.08546 1.08323 1.09361 1.08365 1.07879 1.07605 1.0741 1.0733 1.07359 1.07715 1.08078 1.08278 1.08076 1.07606 1.08597 1.08449 1.08621 1.08038 1.07846 1.07711 1.07551 1.07469 1.07361 1.07334 1.07297 1.07317 1.07386 1.07512 1.07715 1.07954 1.08058 1.08191 1.08211 1.0819 1.08044 1.0785 1.07697 1.07542 1.08609 1.08603 1.08566 1.08446 1.0829 1.09249 1.08577 1.08281 1.08033 1.07663 1.07412 1.07289 1.07311 1.07524 1.07898 1.08141 1.08142 1.07882 1.07645 1.08601 1.08588 1.08829 1.08771 1.08507 1.08293 1.07817 1.07493 1.07305 1.07262 1.07384 1.07692 1.08015 1.08157 1.08028 1.07767 1.08593 1.08786 1.08703 1.08467 1.08025 1.07612 1.07427 1.07349 1.07245 1.07239 1.07219 1.07285 1.07358 1.07508 1.07662 1.07852 1.0798 1.08096 1.0812 1.08109 1.08015 1.07903 1.07801 1.07714 1.08594 1.08612 1.08652 1.08771 1.0856 1.08442 1.08238 1.07974 1.07777 1.07548 1.0728 1.07184 1.07245 1.07478 1.07823 1.08068 1.08081 1.07902 1.0774 1.08594 1.0865 1.0873 1.0872 1.08691 1.08603 1.08192 1.07712 1.07351 1.07182 1.07168 1.07318 1.07634 1.07963 1.08094 1.07989 1.07799 1.08606 1.08679 1.0868 1.08452 1.07912 1.07471 1.07263 1.07207 1.07122 1.07128 1.07113 1.07193 1.07263 1.07438 1.07612 1.07815 1.07972 1.08057 1.08075 1.08047 1.07937 1.0787 1.07751 1.07724 1.08578 1.08579 1.08622 1.08631 1.0867 1.08644 1.08137 1.07897 1.07653 1.07392 1.07134 1.07079 1.0713 1.07386 1.07844 1.08067 1.07996 1.07794 1.07661 1.08545 1.08582 1.08629 1.08647 1.08695 1.07555 1.07618 1.07164 1.07078 1.07056 1.07181 1.07595 1.08015 1.08051 1.07848 1.07658 1.08535 1.08585 1.08647 1.07581 1.07493 1.0737 1.07318 1.07046 1.07077 1.0707 1.07045 1.06991 1.0704 1.07043 1.07294 1.07552 1.07935 1.08086 1.08091 1.08015 1.07923 1.07728 1.07682 1.07532 1.07563 1.08494 1.08474 1.08529 1.08532 1.08598 1.08614 1.08656 1.07489 1.0721 1.07058 1.07022 1.0691 1.07124 1.0815 1.08132 1.07807 1.07528 1.07445 1.08426 1.0846 1.08544 1.0858 1.07602 1.07334 1.07023 1.07084 1.06905 1.06824 1.07421 1.08253 1.07939 1.07555 1.07359 1.07391 1.07343 1.08394 1.08453 1.08564 1.07598 1.0746 1.07265 1.07134 1.07295 1.07012 1.06983 1.06962 1.0683 1.06768 1.06609 1.06778 1.06976 1.08541 1.08498 1.08265 1.07802 1.07637 1.07335 1.07276 1.08346 1.08303 1.08363 1.08328 1.08462 1.0852 1.08483 1.07389 1.07484 1.07057 1.06898 1.06689 1.06424 1.09327 1.08257 1.07298 1.07243 1.07292 1.08256 1.08261 1.08287 1.08383 1.07543 1.07811 1.07659 1.07429 1.07256 1.07094 1.0698 1.06897 1.06788 1.06546 1.06084 1.07781 1.07477 1.07207 1.07208 1.07218 1.07238 1.07244 1.07298 1.08159 1.08209 1.08169 1.08222 1.08219 1.08318 1.08135 1.07953 1.07588 1.07254 1.07002 1.06794 1.0665 1.06434 1.06381 1.06334 1.1102 1.06161 1.07386 1.07266 1.07293 1.08112 1.08146 1.08193 1.08104 1.07732 1.07405 1.07121 1.06908 1.0664 1.05995 1.03544 1.04561 1.07249 1.07373 1.07313 1.07352 1.08048 1.08076 1.08122 1.08094 1.07974 1.07878 1.07677 1.07545 1.07383 1.07255 1.07125 1.07014 1.06887 1.06776 1.06537 1.06345 1.03832 1.04709 1.06146 1.06858 1.07345 1.07358 1.07377 1.07402 1.0737 1.07409 1.0791 1.07999 1.07951 1.0804 1.07993 1.08073 1.07966 1.0778 1.075 1.07237 1.06991 1.06686 1.0597 1.05392 1.04369 1.03979 1.05806 1.07075 1.07368 1.07429 1.07849 1.07895 1.07916 1.07827 1.07596 1.07341 1.07093 1.06813 1.06305 1.05266 1.04442 1.04795 1.05588 1.06433 1.06743 1.07175 1.07246 1.07396 1.07401 1.0742 1.0773 1.07649 1.07781 1.07702 1.07823 1.07728 1.07802 1.07662 1.07655 1.07487 1.07428 1.07268 1.07188 1.07024 1.06925 1.06698 1.06532 1.06154 1.05795 1.04758 1.04955 1.06123 1.06922 1.07286 1.07356 1.07494 1.07555 1.07609 1.07609 1.07506 1.07326 1.07106 1.06826 1.06404 1.05763 1.05331 1.05064 1.04806 1.05135 1.05508 1.06446 1.07029 1.07276 1.07181 1.07383 1.0726 1.07452 1.07342 1.07502 1.07386 1.07476 1.07337 1.07353 1.07201 1.07167 1.07 1.06926 1.06718 1.06584 1.06082 1.05464 1.0511 1.05507 1.05924 1.06195 1.06642 1.06754 1.07075 1.07054 1.07199 1.07034 1.07131 1.07231 1.07266 1.07199 1.07048 1.06818 1.06486 1.06314 1.06054 1.05798 1.05614 1.05329 1.05324 1.05792 1.06358 1.06792 1.06958 1.06768 1.06874 1.07007 1.07124 1.07147 1.07064 1.06889 1.06617 1.06249 1.05852 1.05575 1.0539 1.05524 1.05547 1.05684 1.05968 1.06061 1.06441 1.06453 1.06757 1.06653 1.06208 1.06568 1.06356 1.06715 1.06579 1.06899 1.06816 1.07027 1.06945 1.07036 1.06932 1.0693 1.06793 1.06719 1.06537 1.06406 1.06198 1.0604 1.05759 1.05673 1.05603 1.05734 1.06087 1.06405 1.05932 1.06161 1.06488 1.06762 1.06875 1.0683 1.06649 1.06348 1.06022 1.05901 1.05878 1.05811 1.05995 1.05744 1.05564 1.0573 1.06068 1.06317 1.05441 1.05063 1.05652 1.05412 1.06021 1.05967 1.0645 1.06462 1.06733 1.06726 1.06816 1.06766 1.0673 1.06499 1.06161 1.05912 1.06024 1.06007 1.05661 1.05396 1.05461 1.05341 1.05687 1.05634 1.06019 1.0597 1.04383 1.04687 1.05273 1.06007 1.06518 1.06737 1.06719 1.06629 1.06522 1.06342 1.06186 1.05988 1.05837 1.05914 1.06391 1.05704 1.05113 1.05228 1.05598 0.893832 1.02913 1.03859 1.03337 1.04382 1.04247 1.05298 1.05478 1.06132 1.06607 1.06756 1.06671 1.06413 1.06038 1.05697 1.06128 1.06883 1.06306 1.05662 1.05105 1.04647 1.04875 1.04685 1.05131 1.05149 1.05606 1.02172 1.02922 1.04423 1.05784 1.0632 1.06549 1.06715 1.06828 1.06777 1.06788 1.06618 1.06561 1.0631 1.06225 1.0591 1.05575 1.06587 1.04661 1.04307 1.0452 1.05192 1.00893 0.998412 1.01412 1.00768 1.02767 1.0485 1.06175 1.0679 1.06921 1.0678 1.06507 1.06189 1.05854 1.06149 1.06003 1.04664 1.05839 1.04054 1.04104 1.03735 1.04008 1.03735 1.04576 1.04693 0.893832 0.983074 0.986774 1.00497 1.03236 1.04108 1.05446 1.0613 1.06599 1.07002 1.07007 1.07165 1.06978 1.06755 1.06476 1.06313 1.06105 1.02476 1.01327 1.03631 1.03121 1.03969 0.957844 0.969751 0.951698 0.975336 1.01541 1.05154 1.06811 1.07325 1.07235 1.06988 1.06949 1.06723 1.06714 1.06525 1.06532 1.06327 1.05617 1.04496 1.02495 1.02781 1.02833 1.01781 1.02808 1.03084 1.04156 0.951495 0.929056 0.968306 0.990873 1.03232 1.05022 1.06248 1.07303 1.07407 1.07514 1.07201 1.06882 1.06675 1.0613 1.04114 1.01987 1.02204 1.02382 1.01446 1.01275 1.03204 0.952013 0.976698 0.922559 0.872157 0.909014 1.02478 1.06853 1.08132 1.07821 1.07887 1.07513 1.07365 1.07086 1.06918 1.06784 1.06396 1.05125 1.03982 1.02863 1.02404 1.01563 0.999544 0.988291 1.01656 1.01886 0.893832 0.981311 0.940277 0.822265 0.963537 1.0321 1.05837 1.08779 1.08422 1.08301 1.07722 1.07111 1.06658 1.06553 1.06026 1.05691 1.04747 1.03285 1.01997 1.01088 0.999504 0.973584 0.995957 1.03841 1.04944 1.04923 0.817706 0.9525 1.09484 1.09138 1.08724 1.08481 1.08121 1.07783 1.07415 1.06781 1.06164 1.05203 1.0423 1.04151 1.02981 1.02537 0.980452 0.949109 0.972359 0.999572 1.13676 0.766851 0.691741 1.11211 1.10493 1.09901 1.096 1.08695 1.08101 1.07341 1.07013 1.0651 1.06302 1.05547 1.05357 1.04412 1.04459 1.04762 1.04077 1.00508 0.952153 0.936539 0.890888 0.980088 1.17186 1.2396 1.18023 1.40764 1.14357 1.0857 1.0806 1.08629 1.07842 1.08203 1.0767 1.0677 1.05779 1.04481 1.03903 1.05511 1.05992 1.03434 0.995352 0.883819 0.800875 0.955976 0.952884 1.37157 1.51895 1.60631 0.888638 0.976572 0.972116 1.06113 1.06821 1.07496 1.07822 1.07439 1.07121 1.06327 1.06046 1.05088 1.04734 1.03375 1.02852 1.05695 1.07615 1.04757 0.923405 0.821316 0.959491 0.924083 1.5509 1.28172 1.4819 1.16178 0.696305 0.806377 1.00506 1.04932 1.04724 1.06445 1.07374 1.06825 1.05234 1.03886 1.03311 1.02116 1.07268 1.07866 1.04889 1.00243 0.947586 0.884205 0.663196 1.11604 0.667426 0.265015 3.11147 1.18546 1.75801 1.04541 0.840279 0.928492 1.02498 1.04916 1.06602 1.06831 1.07184 1.06655 1.05847 1.03669 1.02717 1.00886 1.09853 1.0953 1.07273 1.01372 0.973098 0.771731 1.3867 0.695079 0.643898 2.2588 1.71188 1.46131 1.71539 1.72092 1.755 0.927994 1.01914 1.00797 1.02256 1.05498 1.06868 1.05693 1.0441 1.02025 1.01488 0.995146 1.02735 1.04079 1.17215 1.07764 1.04944 1.02925 0.909156 0.881118 1.02145 1.04591 0.894694 0.681141 0.735927 0.716297 0.744404 0.824022 1.06528 1.30604 1.27033 1.54481 1.21039 1.12169 0.987033 0.985885 0.995343 1.00595 1.03157 1.05828 1.06351 1.03891 0.984178 0.991551 1.07569 1.08906 1.05815 1.03572 1.04702 1.03565 1.01096 1.05281 1.06161 0.782741 1.07627 0.877891 0.907257 0.806309 0.665352 0.678678 0.679544 1.06679 1.29918 0.879823 0.294064 0.597445 0.702022 1.03214 0.974937 0.987991 0.995668 1.0138 1.03643 1.03855 1.05885 1.05662 1.05666 1.03996 1.00266 0.933724 0.939939 0.975611 1.12731 1.04627 1.05873 1.00452 1.03032 1.06351 1.19219 1.69949 0.996565 0.961765 0.997505 0.840685 0.800689 0.804788 0.637631 0.607235 0.588759 0.638884 0.665152 0.674293 0.758514 1.00934 0.780429 0.74904 1.03691 0.939204 0.973402 0.988443 0.991093 1.01234 1.03878 1.06361 1.00019 0.875125 0.972857 1.11978 1.06807 0.945887 1.02558 1.01256 0.986318 1.15133 1.334 0.517917 0.847337 0.883748 0.845936 0.806242 0.768555 0.698653 0.64852 0.518643 0.578692 0.655478 0.627365 0.656397 0.717285 0.850126 0.87309 0.765767 0.689021 0.898359 0.961276 0.978812 0.989197 0.990058 0.978574 0.976999 0.956973 1.00644 1.04417 1.07186 1.05021 1.03556 0.891978 0.794883 1.23022 1.36289 0.914272 0.995179 1.01678 1.01948 0.98623 0.913387 1.63761 0.976676 0.400578 0.904777 0.730235 0.819636 0.935313 0.891232 0.862918 0.837868 0.641983 0.627453 0.689667 0.739974 0.66315 0.588275 0.643373 0.684792 0.656719 0.761322 0.811768 0.817731 0.824533 0.778848 0.811643 0.879786 0.921278 0.986424 0.986702 0.957036 0.929548 0.992787 0.994643 1.07329 0.92619 1.05275 0.936051 1.1414 0.969074 0.978835 0.997792 0.938958 0.886533 1.01659 0.529138 1.01375 0.967031 0.893769 0.985773 0.710993 0.496251 0.624158 0.660182 0.633545 0.779729 0.623512 0.63679 0.937421 0.807988 0.728008 0.797698 0.855265 0.839458 0.848215 0.917259 0.962258 0.994934 0.995916 0.970766 0.917695 0.927774 1.0173 1.16772 1.11165 0.816502 0.609916 0.936788 1.02142 0.919026 0.96759 0.987613 0.949853 0.969872 1.01218 0.951941 0.454602 0.690539 1.13137 0.91621 0.892526 0.80533 0.927782 1.05853 0.599901 0.425291 0.488746 0.454978 0.591404 0.617865 0.65195 0.636167 0.592876 0.522781 1.28458 0.902046 0.791599 0.750035 0.800311 0.825408 0.878534 0.870297 0.845067 0.869339 0.964902 0.991485 0.983923 0.955764 0.939831 0.901396 0.886222 0.877954 0.869957 0.87812 1.07169 1.25952 0.795022 0.492305 0.717712 0.871574 0.921543 0.81205 0.985526 1.26038 1.01071 0.948346 0.859629 0.5385 0.588282 0.790548 0.616622 0.810731 0.87737 0.711967 0.332625 0.434451 0.394434 0.482819 0.535794 0.561272 0.575402 0.591901 0.53463 0.57527 0.0975798 0.951803 0.640284 0.632119 0.953399 0.880742 0.851435 0.90222 0.959132 1.00512 0.966425 0.919982 0.885175 0.873192 0.763123 1.29684 1.23416 0.687422 0.676799 0.783142 0.849302 0.779581 0.777227 1.0547 1.03388 0.967199 0.468904 0.47816 0.511899 0.433325 0.680522 0.746476 0.589093 0.300952 0.328466 0.37816 0.299836 0.210099 0.439731 0.458073 0.499525 0.525865 0.534105 0.277375 0.728934 0.970353 0.660993 0.707954 0.748896 0.911452 0.848436 0.823361 0.852802 1.05016 0.976342 0.915079 0.922526 0.889818 0.867198 0.866253 0.93162 0.91772 0.949835 1.09815 0.734752 0.952442 0.738914 0.757324 0.776066 0.743239 0.726607 0.857021 0.185758 0.642325 0.72834 0.806797 0.480479 0.525765 0.523651 0.526518 0.696484 0.715294 0.57344 0.329053 0.308296 0.354823 0.196927 0.180528 0.177014 0.340829 0.387063 0.413381 0.477464 0.500268 0.534406 0.404124 0.414756 0.566966 0.649667 0.798315 0.591626 0.748021 0.786486 0.933155 0.866222 0.847187 0.809415 0.969271 0.915067 0.854048 0.891407 0.86961 0.885895 0.881875 0.416641 0.58173 0.33296 0.770598 0.774941 0.73754 0.672516 0.672761 0.685295 0.796975 0.465595 0.6182 0.591762 0.514076 0.543018 0.565064 0.576137 0.656213 0.585946 0.525169 0.339794 0.316397 0.299469 0.330128 0.218145 0.148788 0.303775 0.365743 0.400094 0.434331 0.459117 0.479038 0.502013 0.478761 0.379124 0.692636 0.592815 0.659855 0.491632 0.256168 0.76025 0.679832 0.845829 0.79475 0.770665 0.802471 1.15456 1.18198 0.773773 0.84266 0.883998 0.849117 0.837663 0.657074 0.358821 0.216406 0.0777291 0.602167 0.751202 0.695285 0.651471 0.606888 0.662616 0.541188 0.645932 0.638962 0.459193 0.492591 0.540985 0.563779 0.583541 0.576628 0.568081 0.543712 0.502143 0.386067 0.36606 0.355529 0.2724 0.220821 0.113529 0.280063 0.275625 0.31738 0.360671 0.429323 0.450023 0.481896 0.409018 0.481273 0.555066 0.521232 0.535333 0.595496 0.330435 0.552479 0.57399 0.778549 0.802461 0.776805 0.848127 0.916389 0.307426 0.785845 1.10029 0.530588 0.825495 0.868191 0.826349 0.784789 0.815175 0.740542 0.701099 0.550762 0.212929 0.436501 0.581548 0.676749 0.684081 0.756719 0.650938 0.615522 0.597582 0.634963 0.617975 0.697286 0.412036 0.505415 0.536229 0.564941 0.55141 0.47492 0.371909 0.34206 0.39816 0.394194 0.317459 0.211148 0.227396 0.188594 0.270214 0.272231 0.272589 0.31804 0.374858 0.405215 0.432559 0.445832 0.461871 0.441587 0.459208 0.442376 0.534475 0.579116 0.458328 0.375026 0.454115 0.709797 0.795609 0.772079 0.682579 0.559484 0.425887 0.846689 1.10005 0.780282 0.743644 0.755683 0.755041 0.631357 0.4234 0.272887 0.517352 0.650574 0.707256 0.590963 0.583385 0.558654 0.533815 0.55772 0.769353 1.06774 0.3409 0.444012 0.528842 0.520016 0.511916 0.512537 0.524839 0.440404 0.350938 0.374519 0.496023 0.217517 0.242583 0.255475 0.0943706 0.263601 0.263723 0.314649 0.288995 0.346252 0.420939 0.445825 0.448663 0.454101 0.419906 0.393456 0.492656 0.555276 0.507234 0.405222 0.444358 0.589166 0.719033 0.749246 0.672658 0.556542 0.304903 0.711033 0.854932 0.738877 0.677559 0.689035 0.737833 0.692492 0.543377 0.483234 0.366607 0.462204 0.609477 0.654993 0.712631 0.674123 0.53976 0.510764 0.504171 0.524702 0.549164 1.00774 0.423281 0.496651 0.493089 0.462 0.476108 0.487154 0.458795 0.419018 0.408527 0.437097 0.543411 0.503719 0.266028 0.15154 0.113823 0.120457 0.241477 0.259665 0.287866 0.284196 0.268078 0.339748 0.39649 0.408351 0.452193 0.470937 0.456379 0.458176 0.45403 0.470004 0.459579 0.482606 0.538534 0.507051 0.486125 0.478914 0.545378 0.626012 0.678252 0.686729 0.594482 0.463602 0.482859 0.619991 0.720815 0.738047 0.683968 0.622372 0.668045 0.727864 0.67055 0.614395 0.569978 0.496777 0.578131 0.641703 0.603882 0.554673 0.489396 0.475353 0.526621 0.534502 0.754195 0.664227 0.527241 0.508676 0.484535 0.471302 0.461704 0.465563 0.483445 0.453408 0.44985 0.469454 0.558374 0.389609 0.25532 0.149789 0.150271 0.119522 0.134949 0.212445 0.269417 0.290999 0.288906 0.239299 0.363081 0.394556 0.461247 0.483174 0.471793 0.472196 0.473855 0.464686 0.501137 0.489429 0.508925 0.51838 0.64878 0.620353 0.545554 0.533435 0.574147 0.61821 0.669671 0.629125 0.604923 0.60541 0.726281 0.617911 0.562809 0.554803 0.619698 0.690617 0.740315 0.701313 0.618055 0.508732 0.458062 0.504822 0.544182 0.672494 0.665632 0.603732 0.518883 0.487996 0.468864 0.45673 0.458504 0.475627 0.484333 0.424331 0.412857 0.446346 0.593039 0.494566 0.149139 0.161719 0.12604 0.156559 0.163959 0.188729 0.182588 0.239454 0.231412 0.260289 0.321165 0.48798 0.471305 0.478777 0.486776 0.476017 0.470386 0.468971 0.473674 0.464307 0.469791 0.483714 0.498382 0.537521 0.580677 0.624989 0.629529 0.596817 0.573123 0.556031 0.562971 0.582111 0.636983 0.667663 0.557108 0.672678 0.629377 0.603078 0.607598 0.581926 0.584146 0.674211 0.731547 0.803865 0.772908 0.644396 0.51659 0.48613 0.540584 0.632516 0.657838 0.639873 0.601725 0.552377 0.524562 0.492054 0.48592 0.472599 0.470313 0.470927 0.462397 0.3953 0.371988 0.450211 0.577581 0.351034 0.20507 0.0747246 0.11964 0.164436 0.161789 0.184742 0.148691 0.0707122 0.127601 0.135583 0.123897 0.183364 0.195852 0.252085 0.227144 0.262792 0.632705 0.423742 0.506952 0.480054 0.467744 0.464849 0.471878 0.468464 0.477884 0.499245 0.51893 0.607678 0.709685 0.599315 0.601727 0.557692 0.556033 0.567194 0.593466 0.618895 0.63259 0.623168 0.601872 0.58672 0.684734 0.6276 0.609432 0.624823 0.670777 0.762104 0.87218 0.934818 0.49863 0.549183 0.624099 0.657439 0.646549 0.620976 0.545305 0.522139 0.495611 0.488333 0.4808 0.479648 0.4705 0.439825 0.405381 0.410788 0.545931 0.508173 0.411263 0.222454 0.14252 0.190804 0.205152 0.17726 0.0990662 0.066008 0.100162 0.099989 0.164659 0.172207 0.232261 0.365203 0.795878 0.39107 0.483978 0.513276 0.479106 0.459602 0.455039 0.468452 0.468141 0.480077 0.494904 0.521024 0.574488 0.823554 0.528527 0.550731 0.55644 0.557126 0.552023 0.560893 0.571057 0.58964 0.606595 0.604521 0.596798 0.580712 0.55944 0.563689 0.614941 0.640367 0.202408 0.559446 0.637324 0.657711 0.764207 0.78938 0.788821 0.677733 0.637699 0.64625 0.679366 0.66489 0.588168 0.532988 0.513015 0.496634 0.490093 0.488141 0.489401 0.480142 0.451041 0.432773 0.496036 0.433635 0.308454 0.285949 0.230583 0.238348 0.183396 0.18686 0.14604 0.100478 0.0582806 0.0769642 0.0563762 0.066491 0.100261 0.100452 0.128402 0.133259 0.178191 0.372978 0.294267 0.470678 0.465607 0.436528 0.43452 0.458364 0.463884 0.471519 0.490827 0.349423 0.505029 0.525152 0.534981 0.538222 0.545287 0.572243 0.58367 0.593023 0.588644 0.582054 0.571564 0.56824 0.549664 0.580611 0.655939 0.656024 0.535494 0.555722 0.547766 0.67133 1.10536 1.09313 1.05537 0.760207 0.738875 0.703015 0.633054 0.599544 0.565899 0.493225 0.495204 0.494696 0.497257 0.482604 0.469783 0.470538 0.450807 0.467851 0.375668 0.327044 0.283804 0.244526 0.206231 0.190616 0.13438 0.0755299 0.006376 0.0191003 0.0576563 0.0659846 0.0560536 0.0633324 0.0633408 0.107936 0.0522233 0.119293 0.138284 0.213222 0.528456 0.454316 0.500084 0.436009 0.415997 0.443125 0.449089 0.458213 0.464016 0.468626 0.477147 0.539184 0.548847 0.532193 0.535659 0.547576 0.556678 0.562472 0.576493 0.583552 0.580112 0.572722 0.569721 0.557213 0.56309 0.614155 0.545762 0.686221 0.52442 0.566363 0.610884 1.39681 1.13022 0.948247 0.475347 0.595485 0.660911 0.622627 0.583466 0.552391 0.52276 0.500745 0.503781 0.51003 0.487305 0.485578 0.449019 0.429668 0.264523 0.25654 0.212716 0.217883 0.172441 0.176791 0.159388 0.136689 0.109248 0.0586171 0.0582856 0.0648166 0.0545046 0.0546196 0.0447936 0.0585302 0.0726803 0.0365363 0.145562 0.140471 0.242961 0.289765 0.502429 0.499739 0.444851 0.419588 0.425995 0.435824 0.445667 0.454979 0.459256 0.454299 0.446943 0.42399 0.468443 0.516392 0.512258 0.52813 0.543535 0.554941 0.559535 0.564131 0.568678 0.568251 0.592768 0.593353 0.615625 0.598006 0.580138 0.634973 0.705766 0.994382 0.701142 0.33001 0.424362 0.454087 0.669365 0.661081 0.633548 0.604355 0.569725 0.535322 0.509292 0.492439 0.489769 0.477953 0.495207 0.474393 0.446987 0.365265 0.345836 0.263778 0.208386 0.17093 0.164583 0.150995 0.118352 0.126524 0.0824815 0.14924 0.113098 0.0799745 0.0620802 0.0597116 0.0517658 0.0743334 0.0830128 0.0711546 0.0944377 0.11503 0.0145836 0.160293 0.157424 0.380257 0.494349 0.471436 0.495363 0.42276 0.428816 0.442444 0.450682 0.456217 0.452985 0.436946 0.422671 0.467415 0.483641 0.480187 0.525161 0.54776 0.554745 0.559518 0.562622 0.56306 0.567185 0.57265 0.576655 0.574141 0.569419 0.565656 0.559401 0.591116 0.667564 0.747751 0.826957 0.634875 0.270999 0.165452 0.588181 0.620447 0.620777 0.604802 0.578906 0.549862 0.520596 0.498605 0.483839 0.485612 0.538948 0.482764 0.488652 0.497883 0.471335 0.49353 0.384262 0.317812 0.359065 0.297808 0.200018 0.185245 0.174443 0.203009 0.16874 0.16535 0.18162 0.175276 0.193904 0.0765531 0.0735407 0.0974535 0.0467258 0.0879049 0.0790494 0.107023 0.103197 0.157172 0.16809 0.227394 0.212389 0.343806 0.460971 0.476294 0.512537 0.460014 0.442106 0.428982 0.442702 0.453257 0.4579 0.457981 0.447788 0.433352 0.447107 0.447406 0.483379 0.506351 0.540872 0.552976 0.558462 0.562168 0.564012 0.565552 0.567579 0.570837 0.573356 0.572398 0.569294 0.573393 0.585549 0.596189 0.611778 0.601757 0.59438 0.591097 0.63764 0.710383 0.72616 0.612831 0.413335 0.33255 0.484425 0.560657 0.585681 0.58872 0.577168 0.557487 0.535935 0.51266 0.49 0.477779 0.502524 0.38496 0.449034 0.470731 0.504104 0.413847 0.366235 0.383948 0.36365 0.322971 0.202198 0.216466 0.213571 0.217955 0.178854 0.172279 0.129998 0.152688 0.137888 0.0985869 0.102404 0.0749131 0.0983525 0.128072 0.142521 0.137565 0.174367 0.197817 0.198022 0.113005 0.374823 0.539862 0.46563 0.486586 0.446923 0.449484 0.460593 0.465933 0.465648 0.459983 0.448468 0.448248 0.444461 0.462839 0.495596 0.52125 0.543472 0.553758 0.560083 0.563705 0.56548 0.566597 0.568953 0.571099 0.572596 0.573685 0.57664 0.584178 0.593491 0.605937 0.608331 0.606555 0.607952 0.61477 0.656684 0.660682 0.256976 0.25765 0.387442 0.492836 0.542045 0.561272 0.564011 0.55735 0.544405 0.528033 0.509484 0.493888 0.48823 0.402157 0.39968 0.428048 0.443828 0.547116 0.486443 0.412763 0.359765 0.36201 0.37963 0.301199 0.247492 0.237419 0.161857 0.14883 0.15188 0.115588 0.144023 0.0925524 0.0833658 0.0890603 0.0915641 0.0985325 0.0827048 0.0852688 0.140259 0.144153 0.178603 0.247378 0.190946 0.241655 0.309806 0.20646 0.36005 0.535398 0.642481 0.506847 0.582238 0.495212 0.472989 0.47727 0.478 0.475799 0.470681 0.463397 0.457673 0.456464 0.46412 0.480835 0.504381 0.527306 0.560666 0.56418 0.566208 0.568133 0.57044 0.573077 0.575074 0.578711 0.584908 0.591751 0.599867 0.607902 0.611211 0.612945 0.617557 0.628441 0.584463 0.461442 0.370705 0.329465 0.36555 0.441279 0.502924 0.533244 0.54582 0.548543 0.544767 0.536653 0.525442 0.513508 0.499455 0.465157 0.417435 0.433161 0.231682 0.430312 0.385865 0.400327 0.388096 0.365161 0.275878 0.286732 0.259976 0.200553 0.146194 0.120271 0.136456 0.15822 0.115106 0.0509041 0.0753864 0.000521893 0.0637806 0.0913432 0.0848035 0.0956337 0.0870627 0.0942428 0.126543 0.132881 0.120415 0.218094 0.300342 0.494687 0.32369 0.377589 0.533145 0.718388 0.654331 0.0701768 0.548871 0.512926 0.508848 0.498766 0.490075 0.482109 0.476225 0.470451 0.467011 0.471107 0.480249 0.544041 0.55397 0.596847 0.620305 0.576179 0.498578 0.429512 0.402519 0.408532 0.440928 0.479969 0.511827 0.529309 0.538188 0.437632 0.417665 0.414261 0.170076 0.366578 0.422368 0.363887 0.333679 0.28258 0.217853 0.135845 0.0644315 0.184863 0.19099 0.157703 0.0632417 0.032869 0.0312903 0.0179676 0.0441286 0.0748956 0.0808054 0.105327 0.101092 0.126068 0.127914 0.106324 0.169979 0.280857 0.371325 0.68215 1.07872 0.82195 0.531147 0.791182 0.405088 0.712649 0.617127 0.545626 0.494666 0.512994 0.53139 0.545387 0.554441 0.560666 0.565247 0.568028 0.570337 0.573511 0.576907 0.580065 0.584844 0.591197 0.602967 0.607702 0.611976 0.614795 0.618036 0.607767 0.572123 0.520533 0.477517 0.45263 0.450039 0.461828 0.481072 0.540811 0.538805 0.533969 0.52779 0.51605 0.496021 0.482389 0.459426 0.433285 0.351196 0.291529 0.284262 0.364435 0.369299 0.36081 0.351693 0.247718 0.168459 0.259348 0.225443 0.167127 0.0517859 0.0478331 0.126726 0.020468 0.00436645 0.0254682 0.0429417 0.0740378 0.0804357 0.0899241 0.0864301 0.0983397 0.103744 0.149032 0.245931 0.28314 0.277132 0.499233 0.479214 0.789501 0.558075 0.521602 0.504699 0.493838 0.485893 0.481126 0.477599 0.478105 0.483482 0.493025 0.505105 0.520686 0.535329 0.546676 0.555016 0.561869 0.567063 0.570812 0.574013 0.577514 0.581165 0.585151 0.589951 0.595275 0.600042 0.602925 0.606177 0.608044 0.607909 0.598884 0.573567 0.53695 0.504787 0.486783 0.479772 0.501384 0.51869 0.530065 0.536613 0.538725 0.537702 0.53506 0.530133 0.519738 0.512171 0.494829 0.47037 0.43074 0.364836 0.316598 0.253222 0.327112 0.3857 0.343031 0.405651 0.318293 0.238049 0.0989327 0.315889 0.215049 0.152121 0.141693 0.126492 0.0537958 0.0884231 0.0268478 0.0592405 0.0170722 0.044652 0.0581333 0.0782742 0.0761558 0.0707124 0.0905934 0.107838 0.125068 0.180806 0.237018 0.261724 0.216194 0.525661 0.897189 0.732283 0.865687 0.616394 0.549852 0.519537 0.507913 0.500713 0.494406 0.489385 0.486343 0.485039 0.487368 0.493464 0.50249 0.513734 0.526338 0.538153 0.548361 0.557026 0.564279 0.569701 0.57385 0.577369 0.580988 0.584913 0.588832 0.593237 0.597423 0.60022 0.602 0.60196 0.600054 0.591599 0.573053 0.548477 0.524984 0.482289 0.491178 0.503149 0.515332 0.525911 0.533362 0.53741 0.53904 0.538876 0.537109 0.530985 0.529487 0.522743 0.504009 0.471405 0.401694 0.292193 0.204317 0.327413 0.386934 0.387816 0.335514 0.377014 0.517575 0.377668 0.256678 0.22884 0.717472 0.360332 0.199047 0.242923 0.171488 0.185098 0.169559 0.110699 0.0762431 0.126998 0.100361 0.0707615 0.0418885 0.0438507 0.0781389 0.0721797 0.0756956 0.0586088 0.0516505 0.0975163 0.114225 0.116319 0.158804 0.241532 0.547427 0.895341 0.975466 1.00916 0.934677 0.703464 0.567241 0.520822 0.510846 0.505625 0.50062 0.495199 0.491962 0.490954 0.492048 0.495253 0.501413 0.509963 0.519832 0.530647 0.541596 0.551779 0.560156 0.566748 0.57201 0.57632 0.579979 0.583642 0.587406 0.591148 0.594486 0.597278 0.598846 0.598477 0.595702 0.588095 0.50781 0.500283 0.500166 0.503985 0.510327 0.518158 0.525732 0.531779 0.535889 0.538473 0.53947 0.539643 0.537888 0.539301 0.538721 0.525084 0.507846 0.462519 0.365125 0.240675 0.220738 0.357176 0.432632 0.455727 0.354826 0.264153 1.31914 0.378585 0.44473 0.301647 0.263126 0.330633 0.265854 0.231841 0.236147 0.159587 0.0831096 0.0620283 0.143972 0.105352 0.0664415 0.0712574 0.0899068 0.0780191 0.0802326 0.0792643 0.0129446 0.040659 0.0172814 0.067827 0.0400242 0.179369 0.165577 0.601981 0.675691 0.604197 1.17298 0.728922 0.673257 0.5984 0.533361 0.510729 0.504907 0.501882 0.498436 0.495481 0.494535 0.495574 0.498134 0.501781 0.507911 0.515985 0.525217 0.535859 0.54619 0.555117 0.562661 0.568897 0.574582 0.557013 0.539063 0.525253 0.517578 0.515219 0.516705 0.519763 0.523881 0.528373 0.53228 0.535092 0.537131 0.538676 0.539671 0.539268 0.539486 0.543164 0.542359 0.531424 0.500617 0.458606 0.374459 0.274109 0.432405 0.380807 0.375107 0.387877 0.417963 0.426074 0.35001 0.563057 1.01618 0.81298 0.547565 0.418348 0.350308 0.267545 0.165632 0.14937 0.174133 0.118449 0.0625859 0.00418381 0.156365 0.132773 0.0925752 0.0789126 0.0903734 0.0985847 0.125209 0.114348 0.0713627 0.130188 0.0189368 0.238058 0.245177 0.530056 0.489238 0.3484 1.22692 0.944916 0.660392 0.577919 0.539204 0.506715 0.499155 0.498869 0.498485 0.497373 0.496697 0.497528 0.4996 0.503272 0.507793 0.574087 0.578301 0.581914 0.585381 0.588789 0.591872 0.594309 0.595655 0.595655 0.593217 0.58717 0.577367 0.564304 0.550589 0.539604 0.53257 0.52908 0.528074 0.528899 0.530504 0.532445 0.534303 0.535577 0.536334 0.537158 0.538288 0.528524 0.501161 0.448844 0.373571 0.551889 0.434594 0.379591 0.376222 0.407118 0.388141 0.401041 0.922408 0.468878 0.503184 0.447101 0.348313 0.281035 0.244777 0.147409 0.0919045 0.0372116 0.159431 0.150978 0.140494 0.118014 0.100981 0.0878641 0.0971312 0.10206 0.13685 0.13743 0.159824 0.105147 0.120911 0.162336 0.266726 0.526459 0.823353 0.729501 0.392615 0.406165 0.988804 0.875564 0.642216 0.54418 0.507932 0.493248 0.493041 0.49507 0.513626 0.521954 0.531275 0.540722 0.549827 0.557897 0.56494 0.570883 0.575794 0.579816 0.583309 0.586444 0.589262 0.591601 0.593037 0.593156 0.591375 0.587143 0.579959 0.570277 0.560031 0.551162 0.54462 0.540396 0.538071 0.537033 0.536795 0.53915 0.538844 0.539325 0.538909 0.536595 0.430963 0.574083 0.495445 0.428229 0.386518 0.378739 0.371138 0.34723 0.298874 0.478306 0.922239 0.0990219 0.473561 0.459537 0.429497 0.340049 0.274263 0.20591 0.0959664 0.0833404 0.109873 0.0883629 0.167127 0.163694 0.161614 0.156846 0.122042 0.0857828 0.106904 0.0918053 0.175666 0.219045 0.158552 0.196108 0.212969 0.204522 0.329468 0.383591 0.629265 0.762112 0.227861 0.699119 0.892861 0.496564 0.49776 0.499255 0.501169 0.503953 0.507778 0.51304 0.519677 0.527587 0.536208 0.54476 0.552983 0.560434 0.566998 0.572547 0.577159 0.581031 0.584293 0.587018 0.589193 0.590687 0.591131 0.590043 0.587051 0.581877 0.574829 0.567079 0.559869 0.553852 0.536976 0.537211 0.537167 0.536785 0.536438 0.536452 0.53699 0.537261 0.537213 0.535484 0.531073 0.524033 0.510061 0.486752 0.532607 0.473488 0.426889 0.398902 0.373323 0.35291 0.436437 0.563844 0.95129 0.405394 0.452765 0.441107 0.351788 0.286197 0.218159 0.163989 0.0540797 0.123805 0.109493 0.0931437 0.156116 0.136483 0.113592 0.116657 0.133707 0.162384 0.198123 0.268146 0.325756 0.371373 0.397712 0.511629 1.10938 1.1221 0.547501 0.669276 0.733493 0.564762 0.506223 0.490293 0.487621 0.490984 0.494548 0.497669 0.50021 0.502498 0.504921 0.507984 0.512389 0.518131 0.524856 0.532387 0.540424 0.548303 0.555812 0.562693 0.568756 0.573951 0.578332 0.581984 0.584949 0.58723 0.588768 0.589412 0.588914 0.586918 0.583198 0.54933 0.546215 0.544127 0.542654 0.541518 0.540596 0.539588 0.538366 0.537034 0.535737 0.534778 0.53426 0.533999 0.532702 0.528627 0.52186 0.511338 0.492269 0.458099 0.581115 0.466132 0.428939 0.40107 0.379107 0.354272 0.34243 0.557438 0.738495 0.429292 0.416609 0.464005 0.526586 0.44674 0.251121 0.253095 0.0781453 0.0902933 0.138327 0.118112 0.122291 0.12941 0.130642 0.155771 0.14641 0.205676 0.228105 0.27272 0.304909 0.557756 0.46167 0.523957 1.16797 1.00501 0.729191 0.713914 0.599697 0.52092 0.493257 0.486456 0.48788 0.492119 0.496473 0.500218 0.503222 0.505838 0.508592 0.512143 0.516835 0.522679 0.529438 0.536656 0.544068 0.551374 0.55828 0.564627 0.570278 0.575199 0.578059 0.572179 0.566227 0.560861 0.556464 0.553002 0.550294 0.54806 0.546096 0.544252 0.542457 0.540612 0.53869 0.53658 0.534278 0.532111 0.530499 0.529073 0.525556 0.519689 0.511904 0.500196 0.483515 0.568256 0.549455 0.510092 0.43407 0.416001 0.402756 0.39088 0.447423 0.333902 0.370677 0.423288 0.498693 0.614577 0.518559 0.435764 0.857172 0.460025 0.10708 0.166118 0.188159 0.206152 0.177904 0.348476 0.744935 0.444468 0.633965 0.961421 0.588485 0.64239 0.616297 0.612945 0.552487 0.507576 0.490648 0.487094 0.490054 0.494985 0.499735 0.503519 0.506487 0.509197 0.512213 0.516113 0.521073 0.526935 0.533447 0.579362 0.582748 0.585355 0.587154 0.588081 0.588016 0.586764 0.584211 0.580492 0.575957 0.571104 0.566441 0.562304 0.558787 0.555764 0.553075 0.550566 0.548115 0.545661 0.543198 0.54073 0.53818 0.535315 0.532072 0.528823 0.526012 0.522718 0.518124 0.512022 0.504438 0.503309 0.549268 0.550293 0.527284 0.497595 0.458046 0.434965 0.428701 0.44282 0.483661 0.591951 0.242716 0.389526 0.482296 0.565863 0.669966 0.778502 0.821026 0.461989 0.302289 0.278582 0.211084 0.190304 0.191174 1.07213 0.605572 0.646782 0.574731 0.84515 1.0919 0.909077 0.690825 0.639411 0.606206 0.576721 0.530025 0.50052 0.490283 0.489839 0.494188 0.499268 0.503514 0.506843 0.540281 0.547175 0.553964 0.560407 0.566357 0.571711 0.576381 0.58026 0.583314 0.585527 0.586872 0.587285 0.586676 0.585008 0.582358 0.578923 0.575021 0.571023 0.567223 0.563754 0.560598 0.557655 0.554818 0.551982 0.549079 0.546105 0.543089 0.509398 0.540865 0.545183 0.53119 0.51776 0.499859 0.472347 0.448537 0.444839 0.448349 0.48891 0.498321 0.32454 0.304843 0.600775 0.651001 0.342341 0.27981 0.229894 0.180549 0.89955 0.796013 0.61967 0.717271 1.10247 1.23306 0.939547 0.809788 0.69407 0.630567 0.587729 0.547076 0.514192 0.50969 0.51252 0.5158 0.519926 0.524935 0.530663 0.536865 0.543326 0.549837 0.556234 0.562356 0.568041 0.573111 0.577434 0.580961 0.583677 0.585536 0.586487 0.586494 0.585562 0.583749 0.581193 0.578114 0.574754 0.571329 0.567998 0.540101 0.536991 0.533398 0.52925 0.525084 0.521156 0.51705 0.512525 0.508486 0.528763 0.527501 0.520962 0.516836 0.487193 0.446204 0.460119 0.499263 0.438486 0.392218 0.369286 0.352511 0.462592 0.364594 0.212586 0.823054 0.472057 1.01043 0.808779 0.717868 0.646349 0.497151 0.492584 0.494639 0.499247 0.50369 0.50718 0.509997 0.512709 0.515737 0.519269 0.523479 0.528409 0.533897 0.539798 0.545954 0.552213 0.558384 0.564248 0.569629 0.574368 0.578335 0.581516 0.583902 0.585435 0.586063 0.585791 0.564814 0.561742 0.558723 0.555685 0.552548 0.54925 0.545824 0.542387 0.538958 0.535318 0.531229 0.52661 0.521742 0.517034 0.513132 0.510626 0.513162 0.528885 0.542652 0.528277 0.524901 0.523526 0.495442 0.444931 0.451757 0.487219 0.447433 0.391949 0.322607 0.69989 0.776896 0.741334 0.826532 0.912528 0.485991 1.15728 0.857406 0.819883 0.593494 0.554383 0.524865 0.505896 0.497661 0.497151 0.500335 0.504167 0.50767 0.510496 0.512922 0.515579 0.518728 0.522435 0.526657 0.531428 0.536715 0.542403 0.548382 0.554468 0.560429 0.566014 0.584683 0.582851 0.580453 0.577667 0.574655 0.57155 0.568433 0.565329 0.56222 0.559084 0.555867 0.552473 0.548864 0.545147 0.541416 0.537594 0.533582 0.529253 0.524505 0.519511 0.515101 0.512364 0.513078 0.521587 0.533348 0.524727 0.529536 0.512525 0.513305 0.442459 0.448311 0.452968 0.438887 0.458294 0.451483 0.529072 0.484672 0.829096 0.707164 0.702411 0.508773 0.912505 0.829601 0.864205 0.638711 0.710096 0.641557 0.591885 0.556192 0.530408 0.513273 0.503785 0.501057 0.502456 0.505464 0.508222 0.510851 0.513372 0.515499 0.517953 0.521236 0.525024 0.529289 0.533998 0.571066 0.575476 0.579132 0.581997 0.58406 0.585282 0.58564 0.585174 0.583976 0.582167 0.579886 0.577279 0.574456 0.571491 0.568436 0.565317 0.56214 0.558899 0.555531 0.551959 0.548207 0.54435 0.540387 0.536349 0.532249 0.52786 0.523186 0.518738 0.515631 0.514455 0.517958 0.525429 0.522 0.528051 0.53015 0.528147 0.525701 0.532587 0.438034 0.438554 0.448686 0.475098 0.723523 0.561681 0.630159 0.709517 0.320873 0.517318 0.912968 0.772646 0.671092 0.603973 0.71183 0.635004 0.586945 0.555086 0.532559 0.51787 0.50945 0.505596 0.505254 0.50671 0.509347 0.511926 0.513801 0.539208 0.544829 0.550685 0.556594 0.562325 0.567644 0.572401 0.576494 0.579853 0.582436 0.584198 0.585119 0.585236 0.584619 0.583356 0.581552 0.579328 0.576798 0.574039 0.571106 0.56804 0.564873 0.561632 0.558312 0.554853 0.551222 0.517338 0.517849 0.520781 0.522485 0.52815 0.531307 0.534124 0.535768 0.505535 0.508928 0.533071 0.410898 0.430138 0.442299 0.434039 0.656514 0.601656 0.375892 0.435975 0.630167 0.583131 0.552936 0.533602 0.520824 0.513596 0.515468 0.517509 0.520006 0.523114 0.527005 0.53137 0.536188 0.54145 0.547085 0.552845 0.558595 0.564106 0.569163 0.57365 0.577465 0.580533 0.582819 0.58429 0.584947 0.584843 0.584075 0.582732 0.580896 0.547449 0.543538 0.539519 0.535509 0.531492 0.527353 0.523273 0.519693 0.525609 0.528963 0.533125 0.537828 0.544735 0.505943 0.507058 0.51153 0.404045 0.39662 0.511539 0.448987 0.621889 0.646577 0.454557 0.808342 0.780834 0.68794 0.637474 0.610949 0.577977 0.551234 0.509463 0.507808 0.508762 0.510763 0.513365 0.515625 0.516681 0.517674 0.519275 0.52148 0.524546 0.528432 0.533073 0.538116 0.54356 0.549231 0.5549 0.56047 0.565769 0.570598 0.574835 0.578378 0.578667 0.576138 0.57337 0.57041 0.567303 0.56409 0.560801 0.557439 0.553977 0.550398 0.546683 0.542847 0.538991 0.535174 0.531417 0.527824 0.52449 0.521457 0.519594 0.519797 0.509808 0.514909 0.503971 0.501978 0.529043 0.398861 0.570621 0.6375 0.806452 0.287316 0.696837 0.687518 0.736452 0.680681 0.638831 0.642825 0.533896 0.522031 0.515632 0.51202 0.510086 0.510572 0.512996 0.515539 0.516426 0.517964 0.519734 0.520075 0.520427 0.522388 0.525569 0.529707 0.534647 0.539967 0.545604 0.551295 0.581151 0.58312 0.584293 0.5847 0.584394 0.58347 0.582017 0.580106 0.577826 0.575252 0.572438 0.569432 0.566283 0.563035 0.559726 0.556381 0.553002 0.54954 0.545976 0.542394 0.538838 0.535353 0.532049 0.528964 0.525878 0.522872 0.520828 0.531924 0.531866 0.534429 0.538088 0.546809 0.509511 0.501145 0.490268 0.537573 0.404076 0.326105 0.582733 0.646597 0.588921 0.723125 0.691899 0.68137 0.655877 0.660264 0.547707 0.532213 0.521701 0.515926 0.513486 0.511971 0.512546 0.514469 0.516098 0.518067 0.518687 0.519921 0.520899 0.521799 0.521944 0.523321 0.556824 0.562212 0.56734 0.57198 0.575956 0.579188 0.581637 0.583275 0.584148 0.584308 0.583804 0.582718 0.581132 0.57912 0.57676 0.574119 0.571247 0.568198 0.565021 0.561763 0.55848 0.555216 0.55195 0.54865 0.545384 0.542175 0.53901 0.535988 0.533085 0.530052 0.52672 0.523246 0.539202 0.536699 0.536541 0.53872 0.543469 0.512719 0.520843 0.507815 0.500289 0.558458 0.424407 0.507818 0.731192 0.718077 0.581086 0.684047 0.554727 0.648151 0.528566 0.519347 0.514908 0.513452 0.51297 0.513335 0.515841 0.516665 0.526411 0.531018 0.536347 0.541885 0.547569 0.553174 0.558583 0.563873 0.568869 0.573293 0.576977 0.579839 0.581897 0.583205 0.583796 0.583709 0.583003 0.581753 0.580025 0.577898 0.575451 0.572741 0.545985 0.541765 0.539917 0.539816 0.541734 0.513693 0.526921 0.511191 0.509684 0.529585 0.58507 0.50591 0.919038 0.808012 0.860244 0.658769 0.594748 0.695973 0.683682 0.68495 0.66392 0.660265 0.515588 0.511752 0.518545 0.522103 0.522899 0.51975 0.52185 0.522945 0.523423 0.524849 0.527705 0.532411 0.538067 0.543862 0.549469 0.554882 0.560213 0.565482 0.570368 0.574514 0.577784 0.580211 0.581881 0.569816 0.566738 0.563557 0.560325 0.557113 0.553954 0.550834 0.547797 0.544885 0.542048 0.539384 0.536809 0.53406 0.530924 0.526686 0.542383 0.541606 0.513485 0.525855 0.509451 0.515123 0.531822 0.514817 0.626684 0.919014 0.581131 0.699662 0.684637 0.677437 0.659241 0.65686 0.511824 0.512479 0.513979 0.516389 0.519911 0.522348 0.524078 0.523446 0.523347 0.52261 0.521112 0.523752 0.524739 0.526242 0.529138 0.533611 0.540076 0.545797 0.55118 0.556429 0.561812 0.582857 0.583178 0.582851 0.581948 0.580536 0.57867 0.576431 0.5739 0.571133 0.568178 0.56509 0.561925 0.558753 0.555642 0.552617 0.549709 0.546986 0.544399 0.54197 0.539742 0.537539 0.534784 0.531179 0.551367 0.546864 0.543624 0.49177 0.498888 0.556014 0.512838 0.545297 0.563144 0.839008 0.846662 0.829225 0.671894 0.603136 0.567495 0.699095 0.674742 0.663385 0.653786 0.654737 0.508143 0.509068 0.511541 0.514545 0.519102 0.522076 0.524927 0.527012 0.521705 0.522269 0.523128 0.522699 0.521169 0.527026 0.526534 0.525763 0.527503 0.567107 0.571792 0.575492 0.578222 0.580223 0.581538 0.582205 0.582253 0.581705 0.580614 0.579048 0.577062 0.574729 0.572127 0.569321 0.566359 0.563288 0.560173 0.557093 0.554112 0.551259 0.548583 0.546128 0.543844 0.54186 0.540047 0.538067 0.535202 0.555915 0.551613 0.547429 0.544734 0.543783 0.526749 0.507058 0.532694 0.517941 0.540773 0.572482 0.608751 0.888956 0.822079 0.816129 0.690206 0.564174 0.594274 0.507013 0.511056 0.514909 0.52089 0.523184 0.52344 0.525694 0.52347 0.536031 0.542441 0.547628 0.552589 0.557828 0.563484 0.568763 0.573002 0.575967 0.578201 0.579829 0.580844 0.581222 0.581008 0.580254 0.578995 0.57729 0.575208 0.57281 0.570163 0.56734 0.564396 0.56138 0.559314 0.555982 0.551533 0.547435 0.545039 0.536458 0.531503 0.45317 0.476247 0.564525 0.608902 0.866911 0.857763 0.808802 0.790842 0.683138 0.663873 0.654044 0.651202 0.653906 0.511476 0.525955 0.522593 0.524115 0.519227 0.521888 0.533526 0.532036 0.517367 0.527547 0.53889 0.544961 0.549445 0.553824 0.559165 0.565363 0.570398 0.573451 0.575856 0.577708 0.579042 0.579767 0.558355 0.555398 0.552562 0.549881 0.547422 0.545208 0.54324 0.541528 0.540228 0.538527 0.555127 0.550645 0.547209 0.541192 0.539039 0.495045 0.459906 0.524791 0.511013 0.548726 0.889291 0.850132 0.762568 0.654224 0.574846 0.709178 0.672641 0.662489 0.661531 0.665368 0.515305 0.520222 0.522438 0.52301 0.525568 0.526424 0.523615 0.526665 0.524088 0.516989 0.517238 0.524648 0.539465 0.532276 0.517668 0.528504 0.540213 0.548737 0.550773 0.55518 0.560634 0.579887 0.579442 0.578497 0.577095 0.575283 0.573131 0.570701 0.568051 0.565246 0.562351 0.559418 0.556504 0.553678 0.550998 0.548504 0.546274 0.54428 0.542496 0.541015 0.540455 0.561944 0.559101 0.497498 0.49371 0.507169 0.687506 0.674617 0.652456 0.626654 0.661605 0.541421 0.529314 0.520296 0.526584 0.7161 0.602288 0.5543 0.564228 0.555226 0.55861 0.567914 0.570521 0.573224 0.57517 0.576798 0.577844 0.578289 0.578189 0.57756 0.576449 0.574932 0.573057 0.570873 0.568451 0.565847 0.563101 0.56027 0.557424 0.55464 0.551993 0.549515 0.547199 0.545133 0.543332 0.541672 0.540617 0.562919 0.561024 0.557988 0.553851 0.549507 0.545252 0.542076 0.555558 0.546653 0.548275 0.552099 0.557214 0.563428 0.560441 0.56026 
SCALARS Axial_Stress float 1
LOOKUP_TABLE default
-91904100000.0 -121105000000.0 -144064000000.0 -71727500000.0 -90720200000.0 -57533400000.0 -136042000000.0 -257587000000.0 -160131000000.0 -79210300000.0 -63150200000.0 -129729000000.0 -99547700000.0 -215678000000.0 -109335000000.0 -209619000000.0 -83078100000.0 -141022000000.0 -92639700000.0 -167874000000.0 -280049000000.0 -107179000000.0 -310121000000.0 -55627800000.0 -139005000000.0 -291059000000.0 -229600000000.0 -256427000000.0 -222848000000.0 -270732000000.0 -317267000000.0 -154688000000.0 -174938000000.0 -238106000000.0 -288126000000.0 -310646000000.0 -302741000000.0 -119713000000.0 -167345000000.0 -328950000000.0 -374666000000.0 -424054000000.0 -415343000000.0 -264261000000.0 -335577000000.0 -158702000000.0 -196528000000.0 -327570000000.0 -315626000000.0 -373882000000.0 -407833000000.0 -405390000000.0 -415091000000.0 -390894000000.0 -397554000000.0 -540162000000.0 -492569000000.0 -616460000000.0 -444327000000.0 -320361000000.0 -285460000000.0 -366404000000.0 -600388000000.0 -484513000000.0 -606896000000.0 -501827000000.0 -609059000000.0 -508289000000.0 -605664000000.0 -490438000000.0 -725069000000.0 -728646000000.0 -905979000000.0 -605649000000.0 -805778000000.0 -598521000000.0 -689755000000.0 -594387000000.0 -682439000000.0 -623109000000.0 -726613000000.0 -437927000000.0 -399669000000.0 -693629000000.0 -449835000000.0 -406597000000.0 -307521000000.0 -319263000000.0 -400070000000.0 -318069000000.0 -752385000000.0 -729000000000.0 -714210000000.0 -705336000000.0 -737931000000.0 -867932000000.0 -1.02245e+12 -805555000000.0 -759273000000.0 -771920000000.0 -507355000000.0 -524470000000.0 -843138000000.0 -446517000000.0 -378282000000.0 -985933000000.0 -869287000000.0 -831239000000.0 -808352000000.0 -808722000000.0 -871761000000.0 -981732000000.0 -949454000000.0 -853184000000.0 -835160000000.0 -854801000000.0 -949046000000.0 -1.08643e+12 -1.30044e+12 -1.05141e+12 -1.12238e+12 -965191000000.0 -1.04648e+12 -920596000000.0 -1.0011e+12 -897648000000.0 -982793000000.0 -910776000000.0 -1.00675e+12 -978178000000.0 -1.04868e+12 -1.02239e+12 -1.03452e+12 -952624000000.0 -992668000000.0 -911109000000.0 -977597000000.0 -911826000000.0 -986555000000.0 -595662000000.0 -646476000000.0 -1.17887e+12 -1.09177e+12 -1.20582e+12 -1.32735e+12 -1.4521e+12 -1.43579e+12 -1.27161e+12 -1.30519e+12 -1.18981e+12 -1.1189e+12 -1.07451e+12 -1.06185e+12 -1.08153e+12 -1.09464e+12 -1.06621e+12 -1.04761e+12 -1.04772e+12 -693223000000.0 -772494000000.0 -1.25704e+12 -2.01434e+12 -2.531e+12 -1.99351e+12 -1.49031e+12 -1.35125e+12 -1.25165e+12 -1.18315e+12 -1.14105e+12 -1.13103e+12 -1.13879e+12 -1.13033e+12 -1.11462e+12 -1.11151e+12 -1.11842e+12 -1.3879e+12 -1.71611e+12 -2.08938e+12 -1.76957e+12 -1.52542e+12 -1.39959e+12 -1.44469e+12 -1.30758e+12 -1.35578e+12 -1.2395e+12 -1.28759e+12 -1.19951e+12 -1.24934e+12 -1.18768e+12 -1.23485e+12 -1.18482e+12 -1.22884e+12 -1.17497e+12 -1.23058e+12 -1.17364e+12 -1.23988e+12 -1.17985e+12 -1.24934e+12 -796304000000.0 -904644000000.0 -1.60104e+12 -1.57777e+12 -1.87356e+12 -1.91229e+12 -1.89458e+12 -1.73524e+12 -1.74521e+12 -1.5613e+12 -1.59244e+12 -1.48818e+12 -1.39452e+12 -1.32746e+12 -1.29107e+12 -1.278e+12 -1.28077e+12 -1.29527e+12 -1.30987e+12 -902711000000.0 -1.05354e+12 -1.69253e+12 -1.72533e+12 -1.7779e+12 -1.91105e+12 -1.89211e+12 -1.93273e+12 -1.74875e+12 -1.62843e+12 -1.52038e+12 -1.42395e+12 -1.35988e+12 -1.32799e+12 -1.32497e+12 -1.34337e+12 -1.36636e+12 -1.38032e+12 -1.72662e+12 -1.75216e+12 -1.73243e+12 -2.12693e+12 -1.90071e+12 -1.77634e+12 -1.80501e+12 -1.66383e+12 -1.67787e+12 -1.54003e+12 -1.54895e+12 -1.44506e+12 -1.45944e+12 -1.38662e+12 -1.41146e+12 -1.36604e+12 -1.4143e+12 -1.38268e+12 -1.45391e+12 -1.41547e+12 -1.49393e+12 -1.44043e+12 -1.51396e+12 -1.01106e+12 -1.18564e+12 -1.81843e+12 -1.77393e+12 -1.79396e+12 -1.7532e+12 -1.53329e+12 -1.97999e+12 -2.00824e+12 -1.92402e+12 -1.95199e+12 -1.84047e+12 -1.674e+12 -1.54954e+12 -1.46933e+12 -1.44192e+12 -1.4789e+12 -1.53651e+12 -1.57488e+12 -1.12044e+12 -1.30525e+12 -1.8494e+12 -1.76742e+12 -1.6756e+12 -1.39998e+12 -1.05968e+12 -2.02561e+12 -1.97606e+12 -1.8266e+12 -1.65837e+12 -1.5442e+12 -1.47834e+12 -1.49185e+12 -1.56287e+12 -1.626e+12 -1.65453e+12 -1.90741e+12 -1.85475e+12 -1.67048e+12 -1.2529e+12 -1.1267e+12 -1.15207e+12 -2.0649e+12 -2.0795e+12 -2.02926e+12 -1.9531e+12 -1.78846e+12 -1.74182e+12 -1.63646e+12 -1.61323e+12 -1.53448e+12 -1.51841e+12 -1.49611e+12 -1.55021e+12 -1.56671e+12 -1.67145e+12 -1.66121e+12 -1.76765e+12 -1.71808e+12 -1.8088e+12 -1.23038e+12 -1.41699e+12 -2.01747e+12 -1.93894e+12 -1.94702e+12 -1.82248e+12 -1.77482e+12 -1.54783e+12 -1.29284e+12 -1.1732e+12 -2.24349e+12 -1.8497e+12 -1.71107e+12 -1.57624e+12 -1.51049e+12 -1.64116e+12 -1.79463e+12 -1.87761e+12 -1.34087e+12 -1.52766e+12 -2.05993e+12 -1.93421e+12 -1.68216e+12 -1.28106e+12 -1.32668e+12 -1.1483e+12 -1.93532e+12 -1.81631e+12 -1.6691e+12 -1.51189e+12 -1.57565e+12 -1.78279e+12 -1.9288e+12 -2.06994e+12 -1.98594e+12 -1.44889e+12 -2.17228e+12 -2.07899e+12 -1.88502e+12 -1.22911e+12 -1.33697e+12 -1.35391e+12 -1.34793e+12 -1.45771e+12 -1.59249e+12 -1.83145e+12 -1.89536e+12 -1.89439e+12 -1.79271e+12 -1.75429e+12 -1.58607e+12 -1.39389e+12 -1.43917e+12 -1.5351e+12 -1.69115e+12 -1.89964e+12 -1.94908e+12 -2.15144e+12 -2.18055e+12 -1.63685e+12 -2.36024e+12 -2.2478e+12 -2.32929e+12 -2.0521e+12 -1.87021e+12 -1.79038e+12 -1.29078e+12 -1.64723e+12 -1.83715e+12 -1.94034e+12 -1.89105e+12 -1.67409e+12 -1.16725e+12 -1.61346e+12 -2.24353e+12 -2.27833e+12 -1.55033e+12 -1.74098e+12 -2.45905e+12 -2.44369e+12 -1.71238e+12 -1.05584e+12 -1.94817e+12 -1.81976e+12 -2.00844e+12 -1.86818e+12 -2.05869e+12 -1.99741e+12 -2.09793e+12 -1.99895e+12 -1.86154e+12 -1.61504e+12 -1.5406e+12 -2.87155e+12 -2.37398e+12 -2.52181e+12 -2.38555e+12 -2.47942e+12 -2.37713e+12 -1.64394e+12 -1.8386e+12 -2.55551e+12 -2.66118e+12 -2.57615e+12 -2.7741e+12 -2.8027e+12 -3.33691e+12 -1.9073e+12 -2.15261e+12 -2.13885e+12 -2.18544e+12 -2.16913e+12 -2.02512e+12 -2.01214e+12 -1.77641e+12 -1.57032e+12 -1.53624e+12 -3.39353e+12 -2.78353e+12 -2.59781e+12 -2.56161e+12 -2.73913e+12 -2.79637e+12 -3.06055e+12 -3.15259e+12 -2.27662e+12 -2.26526e+12 -2.27127e+12 -2.28035e+12 -2.22403e+12 -1.76435e+12 -3.43467e+12 -3.61624e+12 -3.13711e+12 -2.76703e+12 -2.66067e+12 -1.73274e+12 -1.93201e+12 -2.84207e+12 -2.96303e+12 -3.21357e+12 -3.01009e+12 -2.72108e+12 -2.66708e+12 -2.40627e+12 -2.49732e+12 -2.3705e+12 -2.47309e+12 -2.37706e+12 -2.46815e+12 -2.36086e+12 -2.43804e+12 -2.24532e+12 -3.09563e+12 -3.43784e+12 -3.41268e+12 -3.19092e+12 -2.98162e+12 -2.92899e+12 -2.78295e+12 -2.81992e+12 -2.72757e+12 -1.82156e+12 -2.02365e+12 -2.90307e+12 -2.99042e+12 -2.95739e+12 -3.05823e+12 -3.09249e+12 -3.10847e+12 -2.8685e+12 -2.67679e+12 -2.58143e+12 -2.56541e+12 -2.55794e+12 -2.65511e+12 -2.65388e+12 -3.02088e+12 -3.26947e+12 -3.29873e+12 -3.07682e+12 -2.92587e+12 -2.87339e+12 -3.04323e+12 -3.07274e+12 -3.1152e+12 -3.03545e+12 -2.84648e+12 -2.71909e+12 -2.66526e+12 -2.65521e+12 -2.6993e+12 -2.85531e+12 -3.15389e+12 -3.27332e+12 -3.22663e+12 -3.18601e+12 -3.12534e+12 -3.03455e+12 -3.03381e+12 -2.95194e+12 -2.99708e+12 -1.91326e+12 -2.11305e+12 -3.16395e+12 -3.11195e+12 -3.17302e+12 -3.13578e+12 -3.17778e+12 -3.12962e+12 -3.11205e+12 -2.98973e+12 -2.99266e+12 -2.86163e+12 -2.89986e+12 -2.77855e+12 -2.84806e+12 -2.74879e+12 -2.84004e+12 -2.76395e+12 -2.87986e+12 -2.84716e+12 -3.03759e+12 -3.196e+12 -3.18203e+12 -3.10688e+12 -3.05909e+12 -2.00693e+12 -2.19969e+12 -3.22088e+12 -3.22328e+12 -3.19951e+12 -3.10825e+12 -3.01825e+12 -2.95327e+12 -2.92527e+12 -2.93601e+12 -2.98657e+12 -2.97628e+12 -3.08523e+12 -3.13375e+12 -3.17907e+12 -3.19692e+12 -3.16082e+12 -3.11741e+12 -3.10033e+12 -2.28415e+12 -3.27424e+12 -3.32608e+12 -3.27299e+12 -3.31883e+12 -3.26221e+12 -3.29117e+12 -3.20938e+12 -3.22703e+12 -3.12773e+12 -3.16172e+12 -3.05956e+12 -3.1125e+12 -3.01734e+12 -3.0878e+12 -3.00713e+12 -3.0276e+12 -3.07554e+12 -3.15293e+12 -3.19706e+12 -3.19058e+12 -3.19495e+12 -3.16412e+12 -3.18705e+12 -3.14719e+12 -3.18788e+12 -2.10059e+12 -3.38057e+12 -3.37469e+12 -3.35834e+12 -3.31595e+12 -3.25727e+12 -3.20672e+12 -3.17345e+12 -3.15987e+12 -3.08775e+12 -3.16045e+12 -3.10662e+12 -3.16857e+12 -3.14533e+12 -3.1896e+12 -3.20922e+12 -3.21515e+12 -3.22337e+12 -2.19292e+12 -2.36701e+12 -3.43044e+12 -3.4194e+12 -3.39294e+12 -3.34558e+12 -3.29719e+12 -3.26012e+12 -3.23855e+12 -3.22825e+12 -3.21968e+12 -3.21034e+12 -3.18791e+12 -3.20787e+12 -3.20974e+12 -3.22994e+12 -3.22951e+12 -3.26355e+12 -3.24981e+12 -3.29424e+12 -3.26615e+12 -2.28384e+12 -2.44832e+12 -3.48554e+12 -3.53444e+12 -3.47779e+12 -3.52253e+12 -3.46044e+12 -3.49907e+12 -3.42633e+12 -3.46296e+12 -3.38273e+12 -3.42649e+12 -3.3449e+12 -3.3987e+12 -3.31928e+12 -3.38159e+12 -3.30374e+12 -3.36487e+12 -3.28762e+12 -3.2606e+12 -3.22546e+12 -3.22013e+12 -3.26208e+12 -3.31069e+12 -3.3421e+12 -3.58943e+12 -3.58123e+12 -3.56507e+12 -3.53758e+12 -3.5044e+12 -3.47584e+12 -3.45699e+12 -3.44486e+12 -3.41708e+12 -3.33242e+12 -3.35485e+12 -3.27652e+12 -3.2543e+12 -3.2171e+12 -3.24354e+12 -3.311e+12 -3.36627e+12 -2.37435e+12 -2.52769e+12 -3.69129e+12 -3.63736e+12 -3.68351e+12 -3.62621e+12 -3.66985e+12 -3.60638e+12 -3.64793e+12 -3.57832e+12 -3.62232e+12 -3.55045e+12 -3.60061e+12 -3.5298e+12 -3.51843e+12 -3.50764e+12 -3.4525e+12 -3.34073e+12 -3.19367e+12 -3.21083e+12 -3.23858e+12 -3.28965e+12 -3.36132e+12 -3.375e+12 -3.44762e+12 -3.42362e+12 -2.46629e+12 -2.60429e+12 -3.73766e+12 -3.72852e+12 -3.71288e+12 -3.69112e+12 -3.66965e+12 -3.65431e+12 -3.58747e+12 -3.64833e+12 -3.58241e+12 -3.64949e+12 -3.56979e+12 -3.63349e+12 -3.45362e+12 -3.25475e+12 -3.15198e+12 -3.31322e+12 -3.4526e+12 -3.51982e+12 -9035750000.0 -2.67682e+12 -3.78929e+12 -3.833e+12 -3.78265e+12 -3.82741e+12 -3.77293e+12 -3.81718e+12 -3.75631e+12 -3.73668e+12 -3.72005e+12 -3.71102e+12 -3.71249e+12 -3.72199e+12 -3.70609e+12 -3.37355e+12 -3.04014e+12 -3.08005e+12 -2.98811e+12 -3.20472e+12 -3.35977e+12 -3.42971e+12 -3.55997e+12 -3.54907e+12 -3.63851e+12 -2.56178e+12 -3.88067e+12 -3.87594e+12 -3.87258e+12 -3.86207e+12 -3.80112e+12 -3.84793e+12 -3.78478e+12 -3.8352e+12 -3.77309e+12 -3.82822e+12 -3.77041e+12 -3.83262e+12 -3.781e+12 -3.85644e+12 -3.80496e+12 -3.80094e+12 -2.45698e+12 -3.18575e+12 -3.54688e+12 -3.678e+12 -2.66256e+12 -2.74352e+12 -3.96161e+12 -3.9199e+12 -3.95922e+12 -3.92017e+12 -3.91814e+12 -3.90846e+12 -3.89686e+12 -3.88735e+12 -3.88495e+12 -3.8987e+12 -3.94429e+12 -3.90813e+12 -4.09931e+12 -4.10767e+12 -4.80546e+12 -2.48947e+12 -3.18479e+12 -3.49222e+12 -3.71784e+12 -3.7044e+12 -3.83065e+12 -3.78127e+12 -2.77003e+12 -9035750000.0 -2.8029e+12 -3.99334e+12 -4.00267e+12 -3.96681e+12 -4.0146e+12 -3.96483e+12 -4.01369e+12 -3.95694e+12 -4.00748e+12 -3.9475e+12 -3.99874e+12 -3.94034e+12 -3.94331e+12 -3.97179e+12 -4.07099e+12 -4.48781e+12 -4.87473e+12 -4.26893e+12 -3.68458e+12 -3.87218e+12 -3.94417e+12 -2.85683e+12 -4.02824e+12 -4.04834e+12 -4.0263e+12 -4.05303e+12 -4.06447e+12 -4.0653e+12 -4.05901e+12 -4.049e+12 -3.99335e+12 -4.04651e+12 -4.00483e+12 -4.07569e+12 -4.06415e+12 -4.19648e+12 -4.28252e+12 -4.48785e+12 -4.75871e+12 -4.58095e+12 -4.032e+12 -3.9063e+12 -4.05097e+12 -3.99832e+12 -4.11981e+12 -2.88614e+12 -4.08302e+12 -4.06984e+12 -4.06853e+12 -4.12742e+12 -4.1051e+12 -4.1606e+12 -4.1179e+12 -4.17604e+12 -4.11917e+12 -4.10937e+12 -4.09686e+12 -4.10286e+12 -4.16562e+12 -4.33579e+12 -4.52786e+12 -4.25683e+12 -4.16691e+12 -4.07489e+12 -4.14876e+12 -4.16871e+12 -3.01183e+12 -2.91598e+12 -4.14267e+12 -4.08695e+12 -4.08159e+12 -4.10708e+12 -4.18634e+12 -4.2238e+12 -4.23937e+12 -4.17324e+12 -4.21929e+12 -4.15485e+12 -4.19548e+12 -4.14353e+12 -4.19192e+12 -4.16738e+12 -4.26188e+12 -4.4114e+12 -4.39109e+12 -4.38706e+12 -4.24384e+12 -4.2093e+12 -4.237e+12 -4.3261e+12 -4.29936e+12 -3.1475e+12 -9035750000.0 -3.00346e+12 -4.1198e+12 -4.09314e+12 -4.18271e+12 -4.23308e+12 -4.25088e+12 -4.37437e+12 -4.3066e+12 -4.28945e+12 -4.25655e+12 -4.23349e+12 -4.24047e+12 -4.23508e+12 -4.28805e+12 -4.32977e+12 -4.34467e+12 -4.30303e+12 -4.23202e+12 -4.29892e+12 -4.28474e+12 -4.36894e+12 -4.47355e+12 -3.15311e+12 -4.253e+12 -4.19952e+12 -4.02142e+12 -4.1153e+12 -4.44446e+12 -4.44932e+12 -4.36558e+12 -4.40107e+12 -4.32512e+12 -4.35065e+12 -4.28769e+12 -4.26947e+12 -4.27952e+12 -4.30977e+12 -4.3056e+12 -4.25376e+12 -4.24782e+12 -4.28627e+12 -4.38972e+12 -4.43256e+12 -4.63529e+12 -3.29028e+12 -4.50462e+12 -3.57984e+12 -3.60832e+12 -4.63349e+12 -4.52701e+12 -4.65381e+12 -4.54351e+12 -4.48692e+12 -4.41996e+12 -4.37177e+12 -4.31548e+12 -4.33903e+12 -4.29859e+12 -4.31137e+12 -4.29714e+12 -4.28225e+12 -4.28418e+12 -4.22735e+12 -4.25738e+12 -4.38189e+12 -4.48946e+12 -4.47343e+12 -4.46713e+12 -3.43683e+12 -3.42497e+12 -4.88447e+12 -4.27042e+12 -5.68336e+12 -5.28884e+12 -4.78813e+12 -4.6983e+12 -4.58523e+12 -4.58892e+12 -4.49854e+12 -4.43136e+12 -4.39229e+12 -4.35165e+12 -4.29661e+12 -4.20387e+12 -4.21149e+12 -4.28308e+12 -4.33965e+12 -4.45593e+12 -4.56954e+12 -4.37288e+12 -4.80082e+12 -3.56938e+12 -3.80642e+12 -5.37898e+12 -5.43148e+12 -5.46933e+12 -5.12534e+12 -5.01741e+12 -4.8259e+12 -4.69188e+12 -4.57605e+12 -4.49852e+12 -4.49667e+12 -4.44155e+12 -4.45268e+12 -4.4133e+12 -4.43482e+12 -4.33958e+12 -4.23876e+12 -4.05088e+12 -4.11349e+12 -4.16199e+12 -4.43931e+12 -4.54261e+12 -4.50159e+12 -5.06197e+12 -3.93425e+12 -4.67668e+12 -5.49958e+12 -5.6509e+12 -5.72901e+12 -5.32732e+12 -5.25378e+12 -4.94447e+12 -4.80628e+12 -4.7587e+12 -4.66369e+12 -4.56302e+12 -4.49407e+12 -4.4669e+12 -4.45818e+12 -4.27518e+12 -4.08824e+12 -3.8779e+12 -4.36473e+12 -4.64014e+12 -4.61552e+12 -4.74749e+12 -4.7712e+12 -3.45082e+12 -6.22197e+12 -3.69494e+12 -5.20899e+12 -3.86867e+12 -5.1169e+12 -5.45812e+12 -5.73644e+12 -5.25171e+12 -5.10568e+12 -4.86141e+12 -4.72794e+12 -4.64101e+12 -4.61678e+12 -4.54843e+12 -4.53327e+12 -4.49254e+12 -4.48505e+12 -4.4889e+12 -3.37073e+12 -3.20705e+12 -4.15605e+12 -4.60394e+12 -4.84772e+12 -5.01003e+12 -4.94049e+12 -5.60147e+12 -4.8805e+12 -5.05536e+12 -6.67354e+12 -5.15101e+12 -6.15593e+12 -6.4513e+12 -5.63032e+12 -5.56491e+12 -5.14202e+12 -5.05186e+12 -4.96751e+12 -4.82265e+12 -4.69542e+12 -4.59138e+12 -4.51862e+12 -4.49391e+12 -4.49654e+12 -4.50864e+12 -4.53687e+12 -4.50421e+12 -5.17427e+12 -5.51108e+12 -4.3783e+12 -4.86867e+12 -5.08091e+12 -5.32574e+12 -5.68073e+12 -6.06732e+12 -6.05187e+12 -6.93001e+12 -4.89611e+12 -4.82951e+12 -4.90296e+12 -4.98734e+12 -7.54513e+12 -7.60603e+12 -6.71734e+12 -6.45058e+12 -6.62666e+12 -4.30464e+12 -5.10005e+12 -5.15305e+12 -5.04041e+12 -4.92842e+12 -4.87144e+12 -4.78e+12 -4.66178e+12 -4.56565e+12 -4.50393e+12 -4.49943e+12 -4.81361e+12 -5.23119e+12 -4.76005e+12 -4.79046e+12 -5.10241e+12 -5.05264e+12 -5.26307e+12 -5.32984e+12 -5.74525e+12 -6.05382e+12 -5.81777e+12 -6.80397e+12 -7.29976e+12 -7.41476e+12 -4.76543e+12 -4.83333e+12 -7.56631e+12 -7.29442e+12 -6.7446e+12 -5.96563e+12 -6.72684e+12 -6.69916e+12 -6.47533e+12 -6.11597e+12 -5.03387e+12 -5.07298e+12 -4.97111e+12 -4.8923e+12 -4.81493e+12 -4.7374e+12 -4.69855e+12 -4.62906e+12 -4.59728e+12 -4.53962e+12 -4.50929e+12 -4.48392e+12 -4.48767e+12 -4.59032e+12 -4.76866e+12 -5.12694e+12 -4.94155e+12 -4.95832e+12 -5.14771e+12 -5.20815e+12 -5.55955e+12 -6.20859e+12 -6.55426e+12 -5.47769e+12 -6.73546e+12 -7.09522e+12 -7.50142e+12 -4.66996e+12 -4.6639e+12 -4.73861e+12 -4.76704e+12 -7.37909e+12 -7.49387e+12 -7.36929e+12 -7.29394e+12 -7.15376e+12 -6.37279e+12 -6.65138e+12 -6.22612e+12 -5.33288e+12 -5.26006e+12 -5.07372e+12 -4.9698e+12 -4.82793e+12 -4.76726e+12 -4.66364e+12 -4.5659e+12 -4.47076e+12 -4.50153e+12 -4.46151e+12 -4.88391e+12 -4.88e+12 -5.16906e+12 -5.19304e+12 -5.37161e+12 -5.62718e+12 -5.99958e+12 -6.58218e+12 -5.82958e+12 -6.99407e+12 -7.30054e+12 -7.47873e+12 -7.50087e+12 -4.85046e+12 -4.97475e+12 -4.74493e+12 -7.28027e+12 -7.13384e+12 -7.25429e+12 -7.15178e+12 -7.12151e+12 -7.10006e+12 -6.679e+12 -6.32866e+12 -6.73757e+12 -6.58489e+12 -5.62927e+12 -5.09744e+12 -5.00492e+12 -4.92263e+12 -4.88401e+12 -4.81659e+12 -4.77875e+12 -4.74492e+12 -4.72748e+12 -4.63043e+12 -4.59696e+12 -4.52601e+12 -4.4561e+12 -4.3995e+12 -4.19272e+12 -4.37616e+12 -5.20996e+12 -5.21217e+12 -5.20291e+12 -5.2359e+12 -5.26763e+12 -5.41469e+12 -6.03341e+12 -6.82121e+12 -6.544e+12 -6.5487e+12 -6.77524e+12 -6.92024e+12 -7.29906e+12 -7.33482e+12 -7.34845e+12 -7.39639e+12 -7.54113e+12 -5.11324e+12 -4.69712e+12 -4.65228e+12 -7.23379e+12 -7.35357e+12 -7.13835e+12 -6.98522e+12 -6.89955e+12 -6.73759e+12 -6.53537e+12 -6.49289e+12 -6.45743e+12 -7.17366e+12 -6.70484e+12 -6.23475e+12 -5.67025e+12 -5.32393e+12 -4.9863e+12 -4.8463e+12 -4.76893e+12 -4.72437e+12 -4.69348e+12 -4.661e+12 -4.54078e+12 -4.28292e+12 -3.32132e+12 -5.77825e+12 -5.3148e+12 -5.21767e+12 -5.23124e+12 -5.32657e+12 -5.62112e+12 -6.03651e+12 -6.7301e+12 -6.48526e+12 -6.73934e+12 -7.02376e+12 -7.19504e+12 -7.19854e+12 -7.42664e+12 -5.08648e+12 -4.66799e+12 -7.43159e+12 -7.27464e+12 -6.93821e+12 -6.49817e+12 -7.05679e+12 -7.16901e+12 -7.20549e+12 -6.39936e+12 -5.58652e+12 -6.34468e+12 -6.23789e+12 -6.05507e+12 -5.41734e+12 -5.1422e+12 -4.98403e+12 -4.8845e+12 -4.78085e+12 -4.74248e+12 -4.70903e+12 -4.62082e+12 -4.4457e+12 -4.11627e+12 -3.5063e+12 -5.17318e+12 -5.52802e+12 -5.26481e+12 -5.33031e+12 -5.2882e+12 -5.29535e+12 -5.40484e+12 -5.47563e+12 -5.59261e+12 -6.36611e+12 -6.67801e+12 -5.97814e+12 -6.08911e+12 -6.83654e+12 -7.44849e+12 -7.38743e+12 -7.3235e+12 -7.43165e+12 -7.44982e+12 -7.64087e+12 -4.93728e+12 -4.86205e+12 -4.44075e+12 -7.44333e+12 -7.50185e+12 -7.32511e+12 -6.99123e+12 -7.19055e+12 -6.89754e+12 -7.06167e+12 -6.72313e+12 -6.94524e+12 -6.68076e+12 -6.1828e+12 -5.73084e+12 -4.78313e+12 -5.68452e+12 -5.71595e+12 -5.19613e+12 -4.8306e+12 -4.80293e+12 -4.74434e+12 -4.74163e+12 -4.72137e+12 -4.7281e+12 -4.71524e+12 -4.69139e+12 -4.6962e+12 -4.54707e+12 -4.38923e+12 -4.38623e+12 -5.38989e+12 -5.24907e+12 -5.2365e+12 -5.40419e+12 -5.62307e+12 -5.44273e+12 -4.94597e+12 -5.87234e+12 -6.20261e+12 -6.48641e+12 -6.52181e+12 -6.90463e+12 -6.81753e+12 -6.68855e+12 -6.87657e+12 -6.92457e+12 -7.31259e+12 -7.54153e+12 -7.51144e+12 -4.94329e+12 -4.23642e+12 -4.29809e+12 -7.29917e+12 -7.37372e+12 -7.26892e+12 -7.01714e+12 -7.17447e+12 -7.14789e+12 -7.00428e+12 -7.13994e+12 -6.84555e+12 -6.10097e+12 -6.90648e+12 -5.89668e+12 -5.52312e+12 -5.12334e+12 -4.92686e+12 -4.77003e+12 -4.71349e+12 -4.70016e+12 -4.70243e+12 -4.82394e+12 -4.2523e+12 -3.64039e+12 -4.72752e+12 -4.94815e+12 -5.18342e+12 -5.19102e+12 -5.26758e+12 -5.83528e+12 -6.45013e+12 -5.27912e+12 -5.93724e+12 -6.13824e+12 -6.39391e+12 -7.03063e+12 -7.39762e+12 -7.00368e+12 -6.40932e+12 -7.32627e+12 -7.5361e+12 -7.62405e+12 -7.53709e+12 -4.68814e+12 -4.85557e+12 -4.15356e+12 -7.0584e+12 -7.20438e+12 -7.18872e+12 -7.17979e+12 -6.78568e+12 -7.0517e+12 -6.93198e+12 -6.58231e+12 -6.73863e+12 -6.17457e+12 -6.42749e+12 -5.97812e+12 -5.66925e+12 -5.39446e+12 -4.79927e+12 -4.74509e+12 -4.75073e+12 -4.71661e+12 -4.69107e+12 -4.64109e+12 -4.67658e+12 -4.66994e+12 -4.76237e+12 -4.92216e+12 -5.0048e+12 -5.69548e+12 -4.02128e+12 -4.99845e+12 -5.01041e+12 -5.07246e+12 -4.9087e+12 -5.46899e+12 -6.05978e+12 -6.30858e+12 -6.13484e+12 -6.05527e+12 -6.00444e+12 -6.03044e+12 -6.62075e+12 -7.03992e+12 -7.20002e+12 -6.71062e+12 -6.67138e+12 -7.26403e+12 -7.53727e+12 -7.44149e+12 -7.20545e+12 -7.43907e+12 -4.94454e+12 -4.74757e+12 -4.28304e+12 -4.19629e+12 -7.06558e+12 -6.94611e+12 -6.92761e+12 -7.33842e+12 -6.98614e+12 -6.60642e+12 -6.23817e+12 -6.75147e+12 -6.72129e+12 -6.2466e+12 -5.5497e+12 -6.14358e+12 -6.24574e+12 -6.47922e+12 -6.31878e+12 -5.09287e+12 -4.92053e+12 -4.56295e+12 -4.70342e+12 -4.69268e+12 -4.64797e+12 -4.61595e+12 -4.75575e+12 -5.31348e+12 -5.43158e+12 -4.91252e+12 -4.63786e+12 -4.69991e+12 -4.79521e+12 -4.99409e+12 -5.57095e+12 -5.92864e+12 -6.43237e+12 -6.29899e+12 -6.10973e+12 -5.95463e+12 -6.2037e+12 -6.54061e+12 -6.72482e+12 -6.80445e+12 -6.81277e+12 -6.91231e+12 -7.09238e+12 -7.18049e+12 -7.04776e+12 -6.40308e+12 -6.91101e+12 -7.2567e+12 -4.15557e+12 -4.319e+12 -7.08734e+12 -7.00994e+12 -6.97522e+12 -6.93037e+12 -7.02495e+12 -7.04236e+12 -6.92424e+12 -6.71612e+12 -7.14523e+12 -6.89239e+12 -6.88307e+12 -6.62454e+12 -6.33986e+12 -6.98007e+12 -6.54418e+12 -6.37913e+12 -6.35392e+12 -6.04171e+12 -5.66679e+12 -3.92262e+12 -4.46708e+12 -4.83624e+12 -4.57619e+12 -4.64105e+12 -4.56464e+12 -4.62129e+12 -4.94358e+12 -5.07065e+12 -5.41931e+12 -5.07727e+12 -4.96739e+12 -4.52316e+12 -4.12542e+12 -4.98061e+12 -5.43733e+12 -6.09692e+12 -6.05947e+12 -6.0733e+12 -6.0433e+12 -5.60291e+12 -5.85679e+12 -6.16498e+12 -6.38442e+12 -6.50147e+12 -6.70908e+12 -6.76988e+12 -6.73424e+12 -6.83537e+12 -6.84909e+12 -6.65641e+12 -6.64879e+12 -6.29944e+12 -6.77838e+12 -4.24837e+12 -4.31328e+12 -6.92521e+12 -7.03378e+12 -6.94457e+12 -6.99036e+12 -7.02452e+12 -7.13183e+12 -6.15083e+12 -6.73068e+12 -7.06411e+12 -6.97039e+12 -6.60055e+12 -6.79486e+12 -6.60632e+12 -6.82012e+12 -6.60648e+12 -6.17888e+12 -6.09737e+12 -5.77326e+12 -5.24304e+12 -4.22806e+12 -5.97956e+12 -5.6104e+12 -4.43062e+12 -4.33189e+12 -4.48283e+12 -4.66783e+12 -4.6489e+12 -4.31878e+12 -4.51983e+12 -4.56424e+12 -4.70864e+12 -4.73723e+12 -5.00014e+12 -4.78396e+12 -4.59303e+12 -4.98188e+12 -5.99067e+12 -3.27432e+12 -4.15875e+12 -4.8841e+12 -5.70828e+12 -5.89099e+12 -6.02632e+12 -6.01934e+12 -4.89382e+12 -5.78374e+12 -6.07299e+12 -6.22327e+12 -6.39306e+12 -6.51084e+12 -6.66117e+12 -6.96867e+12 -6.95055e+12 -7.30845e+12 -7.14264e+12 -6.96415e+12 -4.37396e+12 -4.36546e+12 -4.20849e+12 -4.28147e+12 -6.80447e+12 -6.84036e+12 -6.75343e+12 -6.87941e+12 -6.85187e+12 -6.84645e+12 -7.12463e+12 -6.48241e+12 -6.47977e+12 -6.65522e+12 -6.53603e+12 -6.54963e+12 -6.56299e+12 -6.46999e+12 -6.33946e+12 -6.0165e+12 -5.85751e+12 -5.70918e+12 -5.54521e+12 -5.39803e+12 -5.54124e+12 -4.80178e+12 -2.80696e+12 -5.9777e+12 -4.27143e+12 -4.12955e+12 -4.54826e+12 -4.49457e+12 -4.72275e+12 -4.84071e+12 -4.85311e+12 -3.67611e+12 -4.29168e+12 -4.34983e+12 -4.57931e+12 -5.26781e+12 -5.54658e+12 -5.79352e+12 -6.24201e+12 -6.34279e+12 -4.72999e+12 -5.69562e+12 -5.92624e+12 -6.1109e+12 -6.55049e+12 -6.51447e+12 -6.41101e+12 -6.21224e+12 -6.73877e+12 -6.95565e+12 -7.0845e+12 -6.79841e+12 -6.82504e+12 -6.42936e+12 -3.97572e+12 -4.097e+12 -6.69528e+12 -6.59646e+12 -6.71867e+12 -6.62921e+12 -6.68333e+12 -6.63005e+12 -6.59904e+12 -6.578e+12 -6.45696e+12 -6.51915e+12 -6.26144e+12 -6.26692e+12 -6.24053e+12 -6.38074e+12 -5.93657e+12 -5.59027e+12 -5.63245e+12 -5.56281e+12 -5.50577e+12 -5.47674e+12 -5.6474e+12 -4.31816e+12 -4.55676e+12 -4.7405e+12 -2.85956e+12 -5.53468e+12 -4.35105e+12 -4.29667e+12 -4.45737e+12 -4.33287e+12 -4.59268e+12 -4.52179e+12 -5.00699e+12 -6.21667e+12 -4.7206e+12 -4.77629e+12 -4.91409e+12 -5.17025e+12 -5.40138e+12 -6.04055e+12 -6.42778e+12 -6.50679e+12 -5.34164e+12 -5.71502e+12 -6.25989e+12 -6.27215e+12 -6.05605e+12 -5.44127e+12 -6.34289e+12 -6.6249e+12 -6.75752e+12 -6.77814e+12 -6.82904e+12 -6.88296e+12 -5.89338e+12 -6.67104e+12 -3.9456e+12 -4.01026e+12 -3.77227e+12 -3.95328e+12 -6.43494e+12 -6.57502e+12 -6.48312e+12 -6.4986e+12 -6.41244e+12 -6.54319e+12 -6.46854e+12 -6.38929e+12 -6.49234e+12 -6.4272e+12 -6.369e+12 -6.25412e+12 -6.25168e+12 -5.68007e+12 -6.10484e+12 -5.77532e+12 -5.88689e+12 -5.838e+12 -4.50442e+12 -5.28241e+12 -5.44154e+12 -5.44022e+12 -5.40691e+12 -5.40478e+12 -5.28554e+12 -4.98203e+12 -4.67136e+12 -4.3899e+12 -3.86967e+12 -4.17154e+12 -2.69219e+12 -4.13575e+12 -4.29113e+12 -4.30447e+12 -4.04377e+12 -4.18108e+12 -4.58867e+12 -5.25055e+12 -4.58312e+12 -4.70615e+12 -4.88124e+12 -5.05622e+12 -5.63128e+12 -5.87439e+12 -6.10658e+12 -5.94779e+12 -5.49989e+12 -5.89617e+12 -6.07779e+12 -6.24073e+12 -6.38391e+12 -6.40856e+12 -6.99574e+12 -6.50642e+12 -6.60589e+12 -6.64109e+12 -6.60354e+12 -6.45714e+12 -7.07898e+12 -6.49594e+12 -6.6547e+12 -6.7243e+12 -4.00825e+12 -3.63096e+12 -6.25097e+12 -6.12597e+12 -6.35076e+12 -6.19092e+12 -6.32803e+12 -6.22831e+12 -6.34384e+12 -6.33335e+12 -6.32274e+12 -6.24027e+12 -6.21967e+12 -5.81851e+12 -5.47152e+12 -5.7373e+12 -6.04798e+12 -6.38973e+12 -5.43763e+12 -5.34828e+12 -5.26548e+12 -5.13447e+12 -4.93727e+12 -4.64127e+12 -4.16233e+12 -4.38174e+12 -4.01425e+12 -4.87393e+12 -4.76557e+12 -3.77148e+12 -4.02539e+12 -4.14572e+12 -4.49573e+12 -5.25288e+12 -4.65276e+12 -4.63349e+12 -4.5814e+12 -4.63803e+12 -4.75871e+12 -5.25318e+12 -5.46559e+12 -5.65136e+12 -5.69106e+12 -5.72134e+12 -5.66552e+12 -5.80307e+12 -5.93796e+12 -6.07655e+12 -6.20646e+12 -6.63484e+12 -6.75313e+12 -6.40739e+12 -6.47862e+12 -6.60285e+12 -6.65469e+12 -6.69682e+12 -6.96897e+12 -6.57895e+12 -6.66496e+12 -6.54017e+12 -3.95753e+12 -3.51626e+12 -6.03734e+12 -6.14779e+12 -6.08049e+12 -5.89166e+12 -5.93489e+12 -5.83734e+12 -6.15205e+12 -6.20427e+12 -6.32729e+12 -6.33388e+12 -6.39103e+12 -6.57367e+12 -6.34775e+12 -6.09893e+12 -3.95286e+12 -5.34566e+12 -5.65759e+12 -5.99883e+12 -5.35343e+12 -5.30203e+12 -5.47024e+12 -5.29049e+12 -5.16157e+12 -5.02355e+12 -4.8656e+12 -4.68718e+12 -4.61132e+12 -4.41981e+12 -3.18155e+12 -3.08168e+12 -3.78134e+12 -3.79362e+12 -3.62014e+12 -3.63614e+12 -3.77276e+12 -4.68246e+12 -4.66573e+12 -4.48199e+12 -4.45721e+12 -4.42238e+12 -4.44901e+12 -4.91815e+12 -5.10445e+12 -5.28203e+12 -5.37591e+12 -5.46041e+12 -5.49542e+12 -5.45039e+12 -5.54956e+12 -5.64819e+12 -5.7565e+12 -5.87903e+12 -6.16089e+12 -6.35304e+12 -6.45333e+12 -6.29211e+12 -6.43354e+12 -6.55418e+12 -6.51822e+12 -6.86291e+12 -6.62447e+12 -6.67028e+12 -6.46415e+12 -6.46429e+12 -6.37873e+12 -3.87401e+12 -3.77228e+12 -3.30654e+12 -3.411e+12 -5.91071e+12 -5.84959e+12 -5.97947e+12 -5.96216e+12 -6.02687e+12 -5.95564e+12 -5.37289e+12 -4.7697e+12 -5.98257e+12 -6.22338e+12 -6.25011e+12 -6.31192e+12 -6.42224e+12 -6.92967e+12 -5.11706e+12 -4.96868e+12 -5.35045e+12 -5.34908e+12 -5.29553e+12 -5.51992e+12 -5.46629e+12 -5.40658e+12 -4.91241e+12 -4.77445e+12 -4.63851e+12 -4.5372e+12 -4.39398e+12 -4.23322e+12 -4.23281e+12 -4.07432e+12 -4.27391e+12 -4.82843e+12 -3.14925e+12 -2.75705e+12 -4.00638e+12 -4.19921e+12 -4.30804e+12 -4.29538e+12 -4.25105e+12 -4.57675e+12 -4.76285e+12 -4.947e+12 -5.06931e+12 -5.17217e+12 -5.24879e+12 -5.3116e+12 -5.37843e+12 -5.45694e+12 -5.56083e+12 -5.76597e+12 -5.95908e+12 -6.11649e+12 -6.23651e+12 -6.16215e+12 -6.28412e+12 -6.41783e+12 -6.26118e+12 -6.49394e+12 -6.38303e+12 -6.2684e+12 -6.31016e+12 -6.13462e+12 -6.20545e+12 -3.65389e+12 -3.19753e+12 -5.76611e+12 -5.70022e+12 -5.82764e+12 -5.83597e+12 -5.97656e+12 -6.04641e+12 -6.5785e+12 -5.48431e+12 -5.69206e+12 -6.0208e+12 -6.03546e+12 -6.05723e+12 -6.08422e+12 -6.53042e+12 -6.02619e+12 -5.11213e+12 -4.9691e+12 -4.95325e+12 -4.36891e+12 -5.47148e+12 -5.72164e+12 -5.3939e+12 -5.21521e+12 -5.05846e+12 -4.65791e+12 -4.54963e+12 -4.45401e+12 -4.34306e+12 -4.22753e+12 -4.16983e+12 -4.08223e+12 -4.14268e+12 -3.83539e+12 -4.29938e+12 -2.66949e+12 -3.73773e+12 -1.75774e+12 -3.0317e+12 -3.57612e+12 -3.93453e+12 -4.09377e+12 -4.05852e+12 -4.16826e+12 -4.14927e+12 -4.37945e+12 -4.6194e+12 -4.77426e+12 -4.89146e+12 -5.294e+12 -5.12385e+12 -5.1728e+12 -5.24224e+12 -5.39352e+12 -5.57139e+12 -5.74239e+12 -5.90787e+12 -6.06715e+12 -5.97567e+12 -6.11706e+12 -6.16163e+12 -6.29717e+12 -6.09097e+12 -6.18259e+12 -5.99354e+12 -6.07921e+12 -5.96018e+12 -6.03243e+12 -5.8431e+12 -3.51064e+12 -3.08318e+12 -5.43354e+12 -5.6057e+12 -5.5339e+12 -5.491e+12 -5.66602e+12 -5.65665e+12 -6.0597e+12 -6.30989e+12 -5.88204e+12 -5.7319e+12 -5.75523e+12 -5.77105e+12 -5.75813e+12 -6.06271e+12 -5.72477e+12 -5.35684e+12 -4.34603e+12 -3.59782e+12 -5.75842e+12 -5.34975e+12 -5.04366e+12 -4.89887e+12 -4.77329e+12 -4.27441e+12 -4.18417e+12 -4.11398e+12 -4.04498e+12 -4.03414e+12 -3.92189e+12 -4.12181e+12 -3.59598e+12 -4.37002e+12 -2.55014e+12 -4.10654e+12 -2.5794e+12 -3.4842e+12 -3.90435e+12 -4.18139e+12 -3.77058e+12 -3.20179e+12 -3.36922e+12 -4.00693e+12 -4.40522e+12 -4.60116e+12 -4.9822e+12 -5.04902e+12 -5.09397e+12 -5.00744e+12 -5.16282e+12 -5.34159e+12 -5.52214e+12 -5.75588e+12 -5.87577e+12 -5.65258e+12 -5.78654e+12 -5.94934e+12 -5.83112e+12 -5.97685e+12 -5.79926e+12 -5.90049e+12 -5.81716e+12 -5.89395e+12 -5.78184e+12 -5.634e+12 -3.35883e+12 -3.22029e+12 -2.84619e+12 -2.96803e+12 -5.25238e+12 -5.3616e+12 -5.31e+12 -5.46756e+12 -5.4533e+12 -5.66147e+12 -5.86447e+12 -5.92755e+12 -6.12207e+12 -5.67663e+12 -5.6125e+12 -5.53833e+12 -5.46241e+12 -5.68717e+12 -5.44449e+12 -5.24211e+12 -5.06688e+12 -4.85034e+12 -4.64699e+12 -4.78396e+12 -4.75345e+12 -4.67197e+12 -4.60567e+12 -4.52694e+12 -4.44414e+12 -4.36244e+12 -4.05506e+12 -3.99347e+12 -3.95982e+12 -3.91122e+12 -3.97822e+12 -3.85678e+12 -4.21887e+12 -4.28847e+12 -3.20804e+12 -3.24075e+12 -3.06732e+12 -3.32157e+12 -4.37364e+12 -4.69924e+12 -5.36088e+12 -5.30974e+12 -4.67848e+12 -4.45964e+12 -4.72003e+12 -4.7993e+12 -4.85319e+12 -4.88622e+12 -4.90658e+12 -4.93649e+12 -4.87412e+12 -5.06477e+12 -5.41604e+12 -5.54032e+12 -5.43319e+12 -5.6084e+12 -5.65202e+12 -5.49946e+12 -5.60765e+12 -5.71627e+12 -5.54683e+12 -5.63722e+12 -5.7106e+12 -5.5236e+12 -5.58216e+12 -5.42688e+12 -3.08479e+12 -2.71845e+12 -5.06281e+12 -4.9997e+12 -5.18543e+12 -5.12609e+12 -5.27274e+12 -5.24827e+12 -5.44235e+12 -5.65903e+12 -5.5365e+12 -5.79609e+12 -5.63235e+12 -5.44208e+12 -5.28509e+12 -5.15402e+12 -5.35421e+12 -5.16699e+12 -5.00577e+12 -4.87234e+12 -4.71681e+12 -4.53159e+12 -4.3341e+12 -4.18027e+12 -4.29979e+12 -4.61492e+12 -4.56521e+12 -4.48525e+12 -4.41254e+12 -4.34214e+12 -4.27084e+12 -4.19674e+12 -4.12246e+12 -3.93771e+12 -3.96288e+12 -3.78647e+12 -3.26126e+12 -3.37453e+12 -3.69141e+12 -3.98072e+12 -4.23264e+12 -4.53237e+12 -4.9455e+12 -5.13246e+12 -4.92988e+12 -4.60322e+12 -4.4783e+12 -4.53623e+12 -4.59255e+12 -4.63666e+12 -4.66463e+12 -4.67472e+12 -4.67023e+12 -4.66845e+12 -4.68325e+12 -5.04529e+12 -5.16599e+12 -5.28222e+12 -5.22814e+12 -5.50244e+12 -5.20219e+12 -5.30045e+12 -5.41854e+12 -5.36261e+12 -5.45265e+12 -5.31944e+12 -5.37019e+12 -5.16754e+12 -5.23049e+12 -5.02575e+12 -2.93634e+12 -2.58839e+12 -4.6496e+12 -4.8633e+12 -4.80682e+12 -4.93989e+12 -4.88781e+12 -5.07831e+12 -5.03849e+12 -5.01963e+12 -5.2319e+12 -5.15611e+12 -5.31647e+12 -5.36723e+12 -5.21008e+12 -5.35465e+12 -5.01644e+12 -5.01074e+12 -4.85782e+12 -4.73408e+12 -4.63181e+12 -4.52767e+12 -4.41025e+12 -4.27582e+12 -4.18996e+12 -4.26856e+12 -4.26319e+12 -4.38983e+12 -4.35984e+12 -4.29708e+12 -4.23518e+12 -4.1742e+12 -4.11131e+12 -4.04826e+12 -3.9874e+12 -3.93094e+12 -3.88857e+12 -3.85199e+12 -3.86047e+12 -3.82452e+12 -3.32451e+12 -3.51124e+12 -3.74826e+12 -3.97465e+12 -4.23308e+12 -4.4874e+12 -4.67307e+12 -4.69425e+12 -4.46422e+12 -4.43699e+12 -4.44501e+12 -4.46397e+12 -4.48027e+12 -4.48302e+12 -4.46512e+12 -4.41875e+12 -4.33138e+12 -4.19467e+12 -4.37536e+12 -4.72791e+12 -4.7737e+12 -4.85396e+12 -5.02942e+12 -4.77096e+12 -5.17724e+12 -5.31935e+12 -4.9998e+12 -5.11163e+12 -5.26812e+12 -5.18165e+12 -5.27428e+12 -5.0709e+12 -5.11048e+12 -4.96911e+12 -4.81681e+12 -2.77768e+12 -2.61056e+12 -2.31357e+12 -2.45436e+12 -4.42284e+12 -4.60371e+12 -4.54938e+12 -4.74588e+12 -4.69191e+12 -4.83825e+12 -4.80515e+12 -4.97578e+12 -4.88644e+12 -5.00311e+12 -5.17846e+12 -4.94223e+12 -4.96769e+12 -4.39227e+12 -4.8174e+12 -4.61552e+12 -4.49031e+12 -4.42303e+12 -4.3719e+12 -4.31932e+12 -4.25962e+12 -4.18884e+12 -4.12941e+12 -4.13854e+12 -4.14324e+12 -4.14016e+12 -4.19475e+12 -4.17058e+12 -4.12195e+12 -4.07068e+12 -4.01762e+12 -3.96344e+12 -3.90971e+12 -3.8581e+12 -3.81364e+12 -3.77695e+12 -3.76141e+12 -3.74033e+12 -3.76971e+12 -3.77346e+12 -3.69528e+12 -3.5157e+12 -3.34595e+12 -3.39152e+12 -3.44059e+12 -3.58578e+12 -3.76051e+12 -3.96448e+12 -4.16131e+12 -4.29867e+12 -4.59035e+12 -4.44176e+12 -4.36783e+12 -4.33517e+12 -4.32573e+12 -4.32734e+12 -4.32663e+12 -4.31125e+12 -4.26438e+12 -4.14832e+12 -3.8793e+12 -2.93581e+12 -5.46089e+12 -4.93469e+12 -4.57349e+12 -4.56503e+12 -4.81744e+12 -4.94882e+12 -4.95888e+12 -4.78551e+12 -5.02248e+12 -5.09142e+12 -4.91446e+12 -5.03866e+12 -4.85739e+12 -4.90884e+12 -4.75989e+12 -4.54785e+12 -4.59955e+12 -2.44988e+12 -2.1671e+12 -4.18842e+12 -4.38525e+12 -4.3398e+12 -4.49658e+12 -4.45149e+12 -4.64411e+12 -4.60681e+12 -4.78031e+12 -4.74036e+12 -4.70433e+12 -4.89271e+12 -4.75799e+12 -4.45307e+12 -4.10475e+12 -4.03286e+12 -4.0672e+12 -4.09466e+12 -4.10214e+12 -4.09124e+12 -4.06546e+12 -4.03359e+12 -4.01641e+12 -4.00478e+12 -3.99683e+12 -3.99777e+12 -4.01702e+12 -3.99592e+12 -3.95779e+12 -3.91445e+12 -3.86848e+12 -3.82172e+12 -3.77542e+12 -3.73219e+12 -3.6942e+12 -3.66777e+12 -3.64571e+12 -3.64308e+12 -3.63447e+12 -3.59381e+12 -3.50897e+12 -3.4159e+12 -3.35321e+12 -3.40003e+12 -3.47892e+12 -3.60351e+12 -3.75648e+12 -4.37512e+12 -4.38915e+12 -4.3384e+12 -4.26822e+12 -4.22442e+12 -4.19913e+12 -4.18878e+12 -4.18479e+12 -4.17833e+12 -4.16006e+12 -4.11343e+12 -4.00977e+12 -3.62807e+12 -4.50678e+12 -4.80015e+12 -4.45859e+12 -3.95428e+12 -3.84185e+12 -4.4456e+12 -4.58656e+12 -4.79242e+12 -4.69042e+12 -4.88244e+12 -4.86191e+12 -4.83118e+12 -4.8405e+12 -4.64635e+12 -4.7038e+12 -4.49586e+12 -4.32118e+12 -4.36323e+12 -4.11515e+12 -2.29121e+12 -2.0121e+12 -3.94562e+12 -3.90336e+12 -4.14929e+12 -4.11277e+12 -4.28717e+12 -4.24435e+12 -4.41501e+12 -4.39678e+12 -4.58927e+12 -4.57076e+12 -4.58397e+12 -4.70387e+12 -4.62405e+12 -4.54129e+12 -4.46681e+12 -4.61583e+12 -3.0392e+12 -3.38553e+12 -3.6697e+12 -3.81109e+12 -3.88511e+12 -3.91526e+12 -3.92058e+12 -3.90993e+12 -3.89324e+12 -3.87249e+12 -3.85694e+12 -3.84919e+12 -3.8482e+12 -3.85048e+12 -3.7631e+12 -3.72345e+12 -3.68276e+12 -3.64301e+12 -3.60561e+12 -3.57392e+12 -3.54823e+12 -3.53242e+12 -3.51639e+12 -3.48929e+12 -3.44403e+12 -3.3886e+12 -3.34158e+12 -3.33343e+12 -3.38825e+12 -3.47245e+12 -3.90545e+12 -4.02011e+12 -4.08804e+12 -4.13409e+12 -4.14443e+12 -4.12137e+12 -4.08819e+12 -4.06374e+12 -4.04859e+12 -4.04079e+12 -4.03593e+12 -4.02928e+12 -4.01371e+12 -3.97892e+12 -3.88419e+12 -4.14946e+12 -3.78654e+12 -2.31935e+12 -5.09148e+12 -3.74162e+12 -5.44116e+12 -4.68447e+12 -4.4658e+12 -4.60017e+12 -4.61395e+12 -4.71447e+12 -4.65214e+12 -4.61794e+12 -4.431e+12 -4.23491e+12 -4.28355e+12 -4.04259e+12 -4.07714e+12 -3.84821e+12 -2.12075e+12 -1.95661e+12 -1.85119e+12 -3.41063e+12 -3.68643e+12 -3.64653e+12 -3.86946e+12 -3.83259e+12 -4.06606e+12 -4.01998e+12 -4.21372e+12 -4.17467e+12 -4.41383e+12 -4.46474e+12 -4.6121e+12 -4.45451e+12 -4.52961e+12 -3.77792e+12 -4.20718e+12 -4.50875e+12 -2.24246e+12 -3.28169e+12 -3.56608e+12 -3.69188e+12 -3.74619e+12 -3.76727e+12 -3.76999e+12 -3.76017e+12 -3.7414e+12 -3.72206e+12 -3.70796e+12 -3.83162e+12 -3.80021e+12 -3.35497e+12 -3.58479e+12 -3.6976e+12 -3.7881e+12 -3.8505e+12 -3.89314e+12 -3.92348e+12 -3.93244e+12 -3.92502e+12 -3.91096e+12 -3.89901e+12 -3.89053e+12 -4.2102e+12 -4.20649e+12 -3.69906e+12 -4.81288e+12 -4.65716e+12 -3.16092e+12 -4.57445e+12 -4.26806e+12 -4.44415e+12 -4.37801e+12 -4.37876e+12 -4.15169e+12 -3.91354e+12 -3.99714e+12 -3.79106e+12 -3.82084e+12 -3.5672e+12 -1.79388e+12 -1.52714e+12 -1.68946e+12 -3.12603e+12 -3.37724e+12 -3.61231e+12 -3.58402e+12 -3.78739e+12 -3.74569e+12 -3.98825e+12 -3.94402e+12 -4.1707e+12 -4.20446e+12 -4.63516e+12 -4.91065e+12 -3.90294e+12 -4.77118e+12 -2.5978e+12 -4.01012e+12 -3.91811e+12 -3.38557e+12 -3.51253e+12 -3.70013e+12 -3.69649e+12 -3.69129e+12 -3.67365e+12 -3.64667e+12 -3.61474e+12 -3.58016e+12 -3.54482e+12 -3.5101e+12 -3.47758e+12 -3.44897e+12 -3.42689e+12 -3.4071e+12 -3.38412e+12 -3.3209e+12 -3.28885e+12 -3.27462e+12 -3.29478e+12 -3.35317e+12 -3.43249e+12 -3.5175e+12 -3.58965e+12 -3.64253e+12 -3.68193e+12 -3.71245e+12 -3.73403e+12 -3.74335e+12 -3.88542e+12 -3.88239e+12 -3.87843e+12 -3.86881e+12 -3.84969e+12 -3.9931e+12 -4.03066e+12 -4.01599e+12 -3.9842e+12 -3.87537e+12 -3.87254e+12 -4.20316e+12 -3.36794e+12 -5.40559e+12 -4.48154e+12 -4.46563e+12 -4.3093e+12 -4.1418e+12 -3.64902e+12 -3.753e+12 -3.51851e+12 -3.53097e+12 -3.5391e+12 -3.26549e+12 -3.28703e+12 -1.62242e+12 -1.36444e+12 -2.83365e+12 -3.09507e+12 -3.06645e+12 -3.34491e+12 -3.32229e+12 -3.54582e+12 -3.49911e+12 -3.69982e+12 -3.62736e+12 -3.88135e+12 -3.85953e+12 -4.30316e+12 -4.50477e+12 -4.4184e+12 -3.38413e+12 -3.56984e+12 -3.60241e+12 -3.61747e+12 -3.62274e+12 -3.61825e+12 -3.60489e+12 -3.58722e+12 -3.57056e+12 -3.55835e+12 -3.55084e+12 -3.54506e+12 -3.53641e+12 -3.51953e+12 -3.49588e+12 -3.46799e+12 -3.43778e+12 -3.4068e+12 -3.37623e+12 -3.34731e+12 -3.32212e+12 -3.30005e+12 -3.2785e+12 -3.2556e+12 -3.23179e+12 -3.20991e+12 -3.19738e+12 -3.20472e+12 -3.23809e+12 -3.29364e+12 -3.3561e+12 -3.41296e+12 -3.4579e+12 -3.49241e+12 -3.5205e+12 -3.74332e+12 -3.7384e+12 -3.73284e+12 -3.72856e+12 -3.7268e+12 -3.72749e+12 -3.72997e+12 -3.73742e+12 -3.81748e+12 -3.87037e+12 -3.88346e+12 -3.88529e+12 -3.87193e+12 -4.05446e+12 -3.8681e+12 -4.18504e+12 -4.64521e+12 -4.41376e+12 -2.65788e+12 -5.64821e+12 -4.76098e+12 -3.74229e+12 -3.73045e+12 -3.45332e+12 -3.46398e+12 -3.29299e+12 -3.26531e+12 -2.97536e+12 -2.97424e+12 -2.62789e+12 -1.44759e+12 -1.19848e+12 -2.52904e+12 -2.49865e+12 -2.80273e+12 -2.77521e+12 -3.0482e+12 -3.03198e+12 -3.29396e+12 -3.24292e+12 -3.4445e+12 -3.37282e+12 -3.51628e+12 -3.87106e+12 -3.8812e+12 -3.69469e+12 -3.14668e+12 -3.31642e+12 -3.35832e+12 -3.63319e+12 -3.41384e+12 -3.4453e+12 -3.46307e+12 -3.46999e+12 -3.47257e+12 -3.47051e+12 -3.46168e+12 -3.4479e+12 -3.43245e+12 -3.41895e+12 -3.40897e+12 -3.40163e+12 -3.39433e+12 -3.38401e+12 -3.36799e+12 -3.34697e+12 -3.32248e+12 -3.29591e+12 -3.26846e+12 -3.2413e+12 -3.21581e+12 -3.19258e+12 -3.17121e+12 -3.15083e+12 -3.13155e+12 -3.11477e+12 -3.10428e+12 -3.10618e+12 -3.12532e+12 -3.1614e+12 -3.20678e+12 -3.25072e+12 -3.28784e+12 -3.54315e+12 -3.55926e+12 -3.56774e+12 -3.57003e+12 -3.5688e+12 -3.56675e+12 -3.56595e+12 -3.568e+12 -3.57459e+12 -3.5897e+12 -3.63937e+12 -3.68786e+12 -3.72646e+12 -3.7629e+12 -3.81437e+12 -3.98268e+12 -4.01504e+12 -4.0634e+12 -3.8396e+12 -3.44564e+12 -3.88409e+12 -3.98111e+12 -3.5877e+12 -4.33934e+12 -4.64493e+12 -4.05674e+12 -2.91454e+12 -2.76033e+12 -3.23764e+12 -3.39742e+12 -3.34665e+12 -3.01985e+12 -2.97903e+12 -2.6486e+12 -2.25824e+12 -1.26574e+12 -852045000000.0 -1.02905e+12 -1.88745e+12 -2.21071e+12 -2.18227e+12 -2.47113e+12 -2.7615e+12 -2.75718e+12 -2.993e+12 -2.9298e+12 -3.18843e+12 -3.11552e+12 -3.27044e+12 -3.47619e+12 -3.46729e+12 -3.48355e+12 -2.96189e+12 -2.7554e+12 -4.64278e+12 -3.69052e+12 -3.59287e+12 -3.51492e+12 -3.36962e+12 -3.34428e+12 -3.33153e+12 -3.32447e+12 -3.31999e+12 -3.31323e+12 -3.30307e+12 -3.29069e+12 -3.27841e+12 -3.268e+12 -3.25969e+12 -3.25229e+12 -3.24414e+12 -3.2333e+12 -3.21838e+12 -3.19961e+12 -3.17787e+12 -3.15419e+12 -3.12972e+12 -3.1057e+12 -3.08288e+12 -3.06166e+12 -3.04217e+12 -3.02468e+12 -3.01004e+12 -3.00034e+12 -2.99902e+12 -3.00945e+12 -3.03234e+12 -3.31801e+12 -3.34283e+12 -3.36357e+12 -3.38019e+12 -3.39196e+12 -3.39856e+12 -3.40117e+12 -3.40169e+12 -3.40198e+12 -3.40391e+12 -3.41002e+12 -3.42459e+12 -3.45848e+12 -3.49757e+12 -3.53754e+12 -3.58977e+12 -3.66963e+12 -3.82123e+12 -3.97348e+12 -4.16572e+12 -4.16517e+12 -3.51392e+12 -3.86713e+12 -3.80289e+12 -3.72872e+12 -2.915e+12 -3.56255e+12 -3.31096e+12 -3.35285e+12 -3.21145e+12 -3.10466e+12 -2.81226e+12 -2.71361e+12 -2.67578e+12 -2.32702e+12 -2.27861e+12 -1.07935e+12 -883793000000.0 -667210000000.0 -1.56193e+12 -1.84939e+12 -2.15795e+12 -2.1402e+12 -2.45839e+12 -2.46262e+12 -2.73901e+12 -2.69207e+12 -2.88073e+12 -2.82708e+12 -3.0275e+12 -2.88148e+12 -3.04446e+12 -2.94303e+12 -2.96719e+12 -3.51832e+12 -4.21994e+12 -4.41251e+12 -4.06185e+12 -3.58711e+12 -3.42512e+12 -3.32787e+12 -3.23376e+12 -3.19693e+12 -3.17801e+12 -3.16848e+12 -3.16146e+12 -3.15348e+12 -3.14427e+12 -3.13454e+12 -3.12548e+12 -3.1175e+12 -3.11023e+12 -3.10295e+12 -3.09465e+12 -3.08405e+12 -3.07027e+12 -3.05331e+12 -3.03374e+12 -3.06371e+12 -3.09702e+12 -3.12717e+12 -3.15276e+12 -3.17435e+12 -3.19275e+12 -3.20799e+12 -3.21989e+12 -3.22819e+12 -3.23305e+12 -3.23547e+12 -3.23675e+12 -3.23835e+12 -3.24241e+12 -3.25251e+12 -3.27445e+12 -3.3034e+12 -3.33645e+12 -3.38123e+12 -3.45451e+12 -3.58519e+12 -3.76253e+12 -4.00726e+12 -4.18085e+12 -2.60469e+12 -3.31224e+12 -3.45863e+12 -3.41173e+12 -3.42926e+12 -3.31724e+12 -3.08464e+12 -1.60769e+12 -2.82054e+12 -3.52333e+12 -3.16527e+12 -2.96072e+12 -2.47389e+12 -2.38195e+12 -1.8751e+12 -1.87421e+12 -1.48114e+12 -1.14394e+12 -694183000000.0 -521967000000.0 -478221000000.0 -1.23315e+12 -1.51661e+12 -1.8287e+12 -1.81147e+12 -2.15044e+12 -2.46942e+12 -2.45641e+12 -2.6178e+12 -2.58312e+12 -2.78076e+12 -2.78625e+12 -2.20902e+12 -2.18322e+12 -3.19979e+12 -3.4988e+12 -3.18518e+12 -3.70916e+12 -3.50222e+12 -3.2847e+12 -3.18353e+12 -3.11571e+12 -3.05823e+12 -3.03014e+12 -3.01595e+12 -3.00756e+12 -3.00052e+12 -2.99366e+12 -2.98683e+12 -2.9801e+12 -2.97362e+12 -3.0125e+12 -2.99074e+12 -2.96934e+12 -2.94894e+12 -2.93006e+12 -2.91322e+12 -2.89918e+12 -2.8893e+12 -2.88553e+12 -2.89008e+12 -2.90377e+12 -2.92466e+12 -2.94886e+12 -2.97257e+12 -2.9938e+12 -3.01227e+12 -3.02822e+12 -3.04178e+12 -3.05279e+12 -3.06111e+12 -3.06675e+12 -3.07005e+12 -3.07174e+12 -3.07285e+12 -3.07493e+12 -3.08035e+12 -3.30654e+12 -3.4519e+12 -3.67353e+12 -3.8806e+12 -2.25208e+12 -2.76227e+12 -3.0361e+12 -3.16929e+12 -3.14272e+12 -3.19662e+12 -3.191e+12 -4.53759e+12 -3.46347e+12 -2.94765e+12 -2.66221e+12 -2.05968e+12 -1.97987e+12 -1.91769e+12 -1.46571e+12 -865266000000.0 -384295000000.0 -289286000000.0 -903724000000.0 -857611000000.0 -1.18536e+12 -1.11203e+12 -1.46196e+12 -1.45683e+12 -1.80753e+12 -1.85553e+12 -2.17553e+12 -2.19465e+12 -2.42538e+12 -2.30695e+12 -2.55246e+12 -2.52191e+12 -2.30435e+12 -1.5654e+12 -2.71956e+12 -2.89569e+12 -3.45577e+12 -3.17855e+12 -3.25136e+12 -3.13589e+12 -3.01884e+12 -2.9529e+12 -2.90979e+12 -2.87747e+12 -2.86089e+12 -2.96728e+12 -2.96081e+12 -2.95397e+12 -2.94599e+12 -2.93593e+12 -2.92317e+12 -2.90765e+12 -2.8899e+12 -2.87084e+12 -2.85139e+12 -2.83229e+12 -2.81425e+12 -2.7979e+12 -2.78394e+12 -2.77337e+12 -2.76753e+12 -2.76783e+12 -2.77494e+12 -2.78803e+12 -2.80484e+12 -2.82266e+12 -2.83965e+12 -2.85506e+12 -2.8687e+12 -2.88044e+12 -2.89019e+12 -2.89783e+12 -3.09236e+12 -3.1102e+12 -3.13266e+12 -3.16352e+12 -3.21418e+12 -3.45266e+12 -2.16078e+12 -2.47018e+12 -2.66777e+12 -2.8315e+12 -3.00403e+12 -3.10641e+12 -2.85474e+12 -2.88256e+12 -3.27728e+12 -2.64846e+12 -4.36298e+12 -2.79236e+12 -2.45272e+12 -2.21614e+12 -1.59136e+12 -1.52455e+12 -1.47032e+12 -1.03913e+12 -751100000000.0 -631050000000.0 -244508000000.0 -97554200000.0 -243439000000.0 -575175000000.0 -531968000000.0 -789475000000.0 -996095000000.0 -1.46259e+12 -1.45133e+12 -1.9168e+12 -1.96792e+12 -2.19979e+12 -2.19298e+12 -1.83824e+12 -2.29045e+12 -2.39282e+12 -2.55391e+12 -2.69123e+12 -2.37064e+12 -2.88414e+12 -2.95546e+12 -2.89762e+12 -2.85182e+12 -2.84542e+12 -2.84021e+12 -2.83577e+12 -2.83159e+12 -2.82732e+12 -2.82258e+12 -2.81741e+12 -2.81184e+12 -2.80558e+12 -2.79808e+12 -2.78862e+12 -2.77671e+12 -2.7624e+12 -2.74626e+12 -2.72906e+12 -2.7116e+12 -2.69464e+12 -2.67887e+12 -2.665e+12 -2.65381e+12 -2.64625e+12 -2.64333e+12 -2.64562e+12 -2.65285e+12 -2.66371e+12 -2.67641e+12 -2.68941e+12 -2.70178e+12 -2.90328e+12 -2.90662e+12 -2.90818e+12 -2.90857e+12 -2.90888e+12 -2.91063e+12 -2.9154e+12 -2.92334e+12 -2.93446e+12 -2.95085e+12 -2.97829e+12 -3.02938e+12 -3.11899e+12 -3.27122e+12 -2.27468e+12 -2.41546e+12 -2.5346e+12 -2.65976e+12 -2.7555e+12 -2.81722e+12 -2.69221e+12 -2.51884e+12 -1.98474e+12 -3.20458e+12 -1.90017e+12 -1.71125e+12 -1.07459e+12 -1.0364e+12 -1.00951e+12 -497479000000.0 -558871000000.0 -243375000000.0 -406924000000.0 -81175700000.0 -203564000000.0 -476650000000.0 -661683000000.0 -1.11125e+12 -1.12412e+12 -1.60413e+12 -1.69521e+12 -2.03131e+12 -2.15899e+12 -2.00093e+12 -2.29819e+12 -2.88809e+12 -2.29608e+12 -2.40179e+12 -2.22653e+12 -2.4963e+12 -2.91036e+12 -2.83905e+12 -2.77532e+12 -2.74091e+12 -2.71849e+12 -2.70275e+12 -2.69422e+12 -2.68874e+12 -2.68484e+12 -2.68222e+12 -2.68031e+12 -2.6784e+12 -2.6758e+12 -2.67233e+12 -2.66817e+12 -2.6634e+12 -2.65777e+12 -2.65079e+12 -2.64186e+12 -2.63068e+12 -2.61744e+12 -2.60266e+12 -2.58706e+12 -2.57138e+12 -2.55638e+12 -2.54273e+12 -2.53111e+12 -2.52228e+12 -2.51697e+12 -2.51569e+12 -2.51844e+12 -2.71305e+12 -2.72294e+12 -2.73122e+12 -2.73779e+12 -2.74257e+12 -2.7455e+12 -2.74663e+12 -2.74621e+12 -2.74492e+12 -2.74383e+12 -2.74377e+12 -2.74455e+12 -2.74598e+12 -2.74927e+12 -2.75741e+12 -2.77543e+12 -2.811e+12 -2.87532e+12 -2.96037e+12 -2.08721e+12 -2.30548e+12 -2.37866e+12 -2.44489e+12 -2.50448e+12 -2.54652e+12 -2.57618e+12 -2.19763e+12 -1.93427e+12 -3.07304e+12 -2.36207e+12 -2.1399e+12 -1.32143e+12 -1.1801e+12 -557463000000.0 -419089000000.0 -332767000000.0 -153125000000.0 -165727000000.0 -137243000000.0 -388827000000.0 -156569000000.0 -478601000000.0 -802901000000.0 -1.09813e+12 -1.369e+12 -1.79259e+12 -1.97911e+12 -1.294e+12 -1.88918e+12 -2.55851e+12 -3.3731e+12 -2.87526e+12 -1.0293e+12 -2.60142e+12 -2.61468e+12 -2.61151e+12 -2.58301e+12 -2.5613e+12 -2.54888e+12 -2.54011e+12 -2.5341e+12 -2.53039e+12 -2.52799e+12 -2.52696e+12 -2.52695e+12 -2.52716e+12 -2.52678e+12 -2.52533e+12 -2.52286e+12 -2.51961e+12 -2.51563e+12 -2.5106e+12 -2.50403e+12 -2.4955e+12 -2.48492e+12 -2.47257e+12 -2.45897e+12 -2.52453e+12 -2.53281e+12 -2.54212e+12 -2.5515e+12 -2.56035e+12 -2.56829e+12 -2.57501e+12 -2.58031e+12 -2.58413e+12 -2.5864e+12 -2.58699e+12 -2.58591e+12 -2.5834e+12 -2.58009e+12 -2.57657e+12 -2.57265e+12 -2.56761e+12 -2.56123e+12 -2.55447e+12 -2.5487e+12 -2.54463e+12 -2.54203e+12 -2.52291e+12 -1.99772e+12 -2.08599e+12 -2.22696e+12 -2.188e+12 -2.22552e+12 -2.26731e+12 -2.2827e+12 -2.32981e+12 -2.05297e+12 -2.25621e+12 -1.72154e+12 -1.51375e+12 -715262000000.0 -608337000000.0 -520634000000.0 -250946000000.0 -218839000000.0 -116135000000.0 -780063000000.0 -747570000000.0 -1.46409e+12 -1.58643e+12 -2.32062e+12 -1.49333e+12 -2.28815e+12 -2.78549e+12 -2.11085e+12 -1.93379e+12 -2.20839e+12 -2.31605e+12 -2.34565e+12 -2.36301e+12 -2.36893e+12 -2.37019e+12 -2.37031e+12 -2.37009e+12 -2.3697e+12 -2.36957e+12 -2.3703e+12 -2.37199e+12 -2.37409e+12 -2.3758e+12 -2.37643e+12 -2.37586e+12 -2.37429e+12 -2.37189e+12 -2.44478e+12 -2.43073e+12 -2.41749e+12 -2.40568e+12 -2.39595e+12 -2.38888e+12 -2.38495e+12 -2.38427e+12 -2.38652e+12 -2.39102e+12 -2.39693e+12 -2.40343e+12 -2.40988e+12 -2.41582e+12 -2.4209e+12 -2.42486e+12 -2.42757e+12 -2.42898e+12 -2.42894e+12 -2.4273e+12 -2.42401e+12 -2.41922e+12 -2.41322e+12 -2.40602e+12 -2.39691e+12 -2.38472e+12 -2.36859e+12 -2.3476e+12 -2.3193e+12 -2.27711e+12 -2.20495e+12 -1.88139e+12 -1.79214e+12 -2.07245e+12 -2.12566e+12 -2.1607e+12 -2.01754e+12 -2.03738e+12 -2.0204e+12 -1.99836e+12 -1.69191e+12 -1.47212e+12 -1.75349e+12 -1.09643e+12 -807625000000.0 -140107000000.0 -157530000000.0 -123012000000.0 -121949000000.0 -290851000000.0 -371092000000.0 -1.09241e+12 -1.1943e+12 -1.73561e+12 -2.41851e+12 -1.3564e+12 -1.789e+12 -2.65046e+12 -2.74315e+12 -2.37883e+12 -1.77819e+12 -1.92243e+12 -2.01049e+12 -2.07535e+12 -2.12034e+12 -2.15774e+12 -2.18044e+12 -2.19276e+12 -2.20039e+12 -2.20546e+12 -2.20891e+12 -2.21204e+12 -2.21559e+12 -2.36856e+12 -2.36394e+12 -2.35761e+12 -2.34936e+12 -2.33928e+12 -2.3277e+12 -2.31515e+12 -2.30225e+12 -2.28963e+12 -2.27788e+12 -2.26757e+12 -2.25923e+12 -2.2533e+12 -2.24998e+12 -2.24916e+12 -2.25045e+12 -2.2533e+12 -2.25706e+12 -2.26115e+12 -2.26509e+12 -2.2685e+12 -2.27108e+12 -2.2726e+12 -2.273e+12 -2.27219e+12 -2.26998e+12 -2.26616e+12 -1.96729e+12 -1.75542e+12 -1.58077e+12 -2.09041e+12 -2.01984e+12 -1.99526e+12 -1.98314e+12 -1.97709e+12 -1.80882e+12 -1.83e+12 -1.70144e+12 -1.83696e+12 -1.41654e+12 -1.33633e+12 -497470000000.0 -264962000000.0 -113551000000.0 -321681000000.0 -804877000000.0 -1.22225e+12 -2.08828e+12 -2.48522e+12 -2.25704e+12 -2.79712e+12 -1.82437e+12 -1.97683e+12 -1.69588e+12 -1.58256e+12 -1.68794e+12 -1.78582e+12 -1.86672e+12 -1.93033e+12 -1.97674e+12 -2.21948e+12 -2.22313e+12 -2.22582e+12 -2.22723e+12 -2.22747e+12 -2.22673e+12 -2.22503e+12 -2.22211e+12 -2.21764e+12 -2.21139e+12 -2.20333e+12 -2.19367e+12 -2.1828e+12 -2.1712e+12 -2.15941e+12 -2.14797e+12 -2.13741e+12 -2.12821e+12 -2.12078e+12 -2.1154e+12 -2.11211e+12 -2.11071e+12 -2.11085e+12 -2.11206e+12 -2.11387e+12 -2.11582e+12 -2.2606e+12 -2.25313e+12 -2.24361e+12 -2.23172e+12 -2.21631e+12 -2.19554e+12 -2.16687e+12 -2.1264e+12 -2.06614e+12 -2.09322e+12 -1.95992e+12 -1.86618e+12 -1.80905e+12 -1.76825e+12 -1.7754e+12 -1.72442e+12 -1.46628e+12 -1.94941e+12 -1.3076e+12 -1.32652e+12 -879177000000.0 -118433000000.0 -122320000000.0 -829464000000.0 -1.65623e+12 -1.11208e+12 -763602000000.0 -1.16115e+12 -1.3392e+12 -1.48713e+12 -2.00585e+12 -2.02405e+12 -2.03638e+12 -2.04503e+12 -2.05163e+12 -2.05753e+12 -2.06334e+12 -2.0689e+12 -2.07363e+12 -2.07708e+12 -2.07924e+12 -2.08027e+12 -2.0802e+12 -2.07889e+12 -2.07608e+12 -2.07156e+12 -2.06528e+12 -2.05737e+12 -2.0481e+12 -2.03787e+12 -2.02707e+12 -2.01617e+12 -2.00565e+12 -1.99596e+12 -1.98746e+12 -1.98049e+12 -2.11753e+12 -2.11868e+12 -2.119e+12 -2.11833e+12 -2.1166e+12 -2.11368e+12 -2.10934e+12 -2.10334e+12 -2.09527e+12 -2.08464e+12 -2.07106e+12 -2.05378e+12 -2.03109e+12 -2.0002e+12 -1.95678e+12 -1.89438e+12 -1.80152e+12 -1.65327e+12 -1.45791e+12 -1.7456e+12 -1.64901e+12 -1.56993e+12 -1.72363e+12 -1.54192e+12 -1.62749e+12 -1.26461e+12 -1.6545e+12 -1.16992e+12 -1.10602e+12 -421558000000.0 -1.13541e+12 -1.82541e+12 -1.63405e+12 -684538000000.0 -2.47083e+12 -1.22099e+12 -1.94459e+12 -540154000000.0 -1.60526e+12 -1.69528e+12 -1.76247e+12 -1.80958e+12 -1.84073e+12 -1.86198e+12 -1.87711e+12 -1.88826e+12 -1.89726e+12 -1.90536e+12 -1.91299e+12 -1.91984e+12 -1.92544e+12 -1.92968e+12 -1.93259e+12 -1.93423e+12 -1.93452e+12 -1.93326e+12 -1.93029e+12 -1.92558e+12 -1.91924e+12 -1.91147e+12 -1.97519e+12 -1.97153e+12 -1.96931e+12 -1.9682e+12 -1.96783e+12 -1.96781e+12 -1.9678e+12 -1.96747e+12 -1.96654e+12 -1.96478e+12 -1.96207e+12 -1.95831e+12 -1.95333e+12 -1.9469e+12 -1.93863e+12 -1.92779e+12 -1.91373e+12 -1.89581e+12 -1.87274e+12 -1.84228e+12 -1.8007e+12 -1.74256e+12 -1.66068e+12 -1.54425e+12 -1.365e+12 -2.00326e+12 -1.87204e+12 -1.66581e+12 -1.65639e+12 -1.29411e+12 -1.47488e+12 -1.69087e+12 -1.03079e+12 -1.14956e+12 -935018000000.0 -698395000000.0 -309884000000.0 -516444000000.0 -1.31755e+12 -1.33661e+12 -1.25333e+12 -1.67678e+12 -715234000000.0 -941544000000.0 -1.68663e+12 -1.00545e+12 -1.2059e+12 -1.35198e+12 -1.4626e+12 -1.54587e+12 -1.60756e+12 -1.65146e+12 -1.68238e+12 -1.7048e+12 -1.72134e+12 -1.73408e+12 -1.74496e+12 -1.75501e+12 -1.76417e+12 -1.77211e+12 -1.77867e+12 -1.78373e+12 -1.78728e+12 -1.78923e+12 -1.90257e+12 -1.89287e+12 -1.8827e+12 -1.87247e+12 -1.86258e+12 -1.8534e+12 -1.84522e+12 -1.8383e+12 -1.83272e+12 -1.82844e+12 -1.82524e+12 -1.82284e+12 -1.82092e+12 -1.81917e+12 -1.8173e+12 -1.81504e+12 -1.81217e+12 -1.80847e+12 -1.80382e+12 -1.79809e+12 -1.79112e+12 -1.78263e+12 -1.77198e+12 -1.75833e+12 -1.74093e+12 -1.71871e+12 -1.69007e+12 -1.65252e+12 -1.60191e+12 -1.53315e+12 -1.44045e+12 -1.28639e+12 -1.85394e+12 -1.74077e+12 -1.60748e+12 -1.48525e+12 -1.3707e+12 -1.57356e+12 -1.05258e+12 -1.32377e+12 -1.56566e+12 -744113000000.0 -433923000000.0 -226196000000.0 -731093000000.0 -988572000000.0 -1.19936e+12 -1.08542e+12 -505117000000.0 -470037000000.0 -1.12754e+12 -1.51925e+12 -699552000000.0 -956961000000.0 -1.11821e+12 -1.24007e+12 -1.33353e+12 -1.40532e+12 -1.45915e+12 -1.49886e+12 -1.52844e+12 -1.55062e+12 -1.56767e+12 -1.58181e+12 -1.59457e+12 -1.78948e+12 -1.78793e+12 -1.7846e+12 -1.77964e+12 -1.77324e+12 -1.76564e+12 -1.75707e+12 -1.74778e+12 -1.73805e+12 -1.72822e+12 -1.71864e+12 -1.7096e+12 -1.70137e+12 -1.69417e+12 -1.68807e+12 -1.68298e+12 -1.67869e+12 -1.67496e+12 -1.67151e+12 -1.66807e+12 -1.66442e+12 -1.66034e+12 -1.65563e+12 -1.65008e+12 -1.64357e+12 -1.63597e+12 -1.4111e+12 -1.33895e+12 -1.21256e+12 -1.6676e+12 -1.58273e+12 -1.45338e+12 -1.31673e+12 -1.16009e+12 -1.60801e+12 -1.53457e+12 -1.4661e+12 -872287000000.0 -1.12314e+12 -1.14972e+12 -1.01208e+12 -368833000000.0 -561923000000.0 -811070000000.0 -897956000000.0 -689256000000.0 -896153000000.0 -1.02928e+12 -1.12964e+12 -1.20765e+12 -1.26783e+12 -1.60634e+12 -1.61687e+12 -1.62596e+12 -1.63348e+12 -1.63925e+12 -1.64312e+12 -1.64496e+12 -1.64477e+12 -1.64269e+12 -1.63889e+12 -1.63368e+12 -1.62731e+12 -1.61991e+12 -1.61162e+12 -1.6026e+12 -1.59307e+12 -1.58335e+12 -1.57371e+12 -1.56443e+12 -1.55581e+12 -1.54808e+12 -1.54128e+12 -1.53526e+12 -1.62713e+12 -1.61661e+12 -1.60366e+12 -1.5875e+12 -1.56719e+12 -1.54143e+12 -1.5087e+12 -1.46647e+12 -1.46583e+12 -1.41182e+12 -1.30116e+12 -1.16009e+12 -976751000000.0 -1.50689e+12 -1.42821e+12 -1.30001e+12 -760624000000.0 -905146000000.0 -852776000000.0 -721806000000.0 -347600000000.0 -264415000000.0 -946616000000.0 -365408000000.0 -581454000000.0 -764054000000.0 -988582000000.0 -1.24647e+12 -678898000000.0 -835298000000.0 -1.31364e+12 -1.34902e+12 -1.37658e+12 -1.39801e+12 -1.41573e+12 -1.43163e+12 -1.44628e+12 -1.45966e+12 -1.47155e+12 -1.48174e+12 -1.49005e+12 -1.49615e+12 -1.49984e+12 -1.50105e+12 -1.50009e+12 -1.4973e+12 -1.49304e+12 -1.48771e+12 -1.48149e+12 -1.47437e+12 -1.46631e+12 -1.45737e+12 -1.52981e+12 -1.52471e+12 -1.51971e+12 -1.51462e+12 -1.50924e+12 -1.50342e+12 -1.49695e+12 -1.48964e+12 -1.48138e+12 -1.47208e+12 -1.46151e+12 -1.44915e+12 -1.43433e+12 -1.41631e+12 -1.39407e+12 -1.36649e+12 -1.33235e+12 -1.28939e+12 -1.23526e+12 -1.13579e+12 -1.36533e+12 -1.22482e+12 -1.29168e+12 -1.04002e+12 -1.28122e+12 -690650000000.0 -476400000000.0 -272246000000.0 -28440100000.0 -351941000000.0 -599829000000.0 -502324000000.0 -594700000000.0 -656837000000.0 -871416000000.0 -995064000000.0 -938420000000.0 -1.01858e+12 -1.08123e+12 -1.12982e+12 -1.16846e+12 -1.20002e+12 -1.22549e+12 -1.24668e+12 -1.26547e+12 -1.28335e+12 -1.30016e+12 -1.31526e+12 -1.32852e+12 -1.33978e+12 -1.34846e+12 -1.35422e+12 -1.35703e+12 -1.35712e+12 -1.3551e+12 -1.35154e+12 -1.44775e+12 -1.43772e+12 -1.42757e+12 -1.41767e+12 -1.40843e+12 -1.40003e+12 -1.39242e+12 -1.38537e+12 -1.37868e+12 -1.37216e+12 -1.36561e+12 -1.35886e+12 -1.3518e+12 -1.3443e+12 -1.33615e+12 -1.3272e+12 -1.31738e+12 -1.30659e+12 -1.29455e+12 -1.28081e+12 -1.26486e+12 -1.24605e+12 -1.22353e+12 -1.19668e+12 -1.16451e+12 -1.12557e+12 -1.05e+12 -1.26326e+12 -1.23718e+12 -1.15309e+12 -1.03645e+12 -838349000000.0 -971759000000.0 -1.18647e+12 -814305000000.0 -1.01766e+12 -674335000000.0 -111460000000.0 -584280000000.0 -675233000000.0 -709118000000.0 -475627000000.0 -501728000000.0 -566666000000.0 -762426000000.0 -789671000000.0 -653995000000.0 -764826000000.0 -842086000000.0 -903067000000.0 -950628000000.0 -988970000000.0 -1.02218e+12 -1.05045e+12 -1.07447e+12 -1.09617e+12 -1.11685e+12 -1.13719e+12 -1.15628e+12 -1.17356e+12 -1.18839e+12 -1.20034e+12 -1.34694e+12 -1.34175e+12 -1.33597e+12 -1.32925e+12 -1.32131e+12 -1.31215e+12 -1.30196e+12 -1.29104e+12 -1.27988e+12 -1.26913e+12 -1.25921e+12 -1.25009e+12 -1.24156e+12 -1.23338e+12 -1.22538e+12 -1.21738e+12 -1.20922e+12 -1.20083e+12 -1.19213e+12 -1.18299e+12 -1.17327e+12 -1.16286e+12 -1.15171e+12 -1.13973e+12 -1.1267e+12 -1.11229e+12 -1.09626e+12 -1.07814e+12 -1.05749e+12 -1.03416e+12 -1.00753e+12 -951751000000.0 -1.06857e+12 -1.0639e+12 -1.00668e+12 -926897000000.0 -796734000000.0 -1.17999e+12 -1.00727e+12 -987179000000.0 -631699000000.0 -732216000000.0 -584814000000.0 -373049000000.0 -122233000000.0 -66906100000.0 -134327000000.0 -421506000000.0 -689253000000.0 -526648000000.0 -599649000000.0 -680866000000.0 -736712000000.0 -779545000000.0 -813351000000.0 -844041000000.0 -873444000000.0 -899235000000.0 -1.20861e+12 -1.21305e+12 -1.21418e+12 -1.21268e+12 -1.20941e+12 -1.20515e+12 -1.20054e+12 -1.19604e+12 -1.1912e+12 -1.18498e+12 -1.17689e+12 -1.16692e+12 -1.1553e+12 -1.14269e+12 -1.13022e+12 -1.11877e+12 -1.10822e+12 -1.09831e+12 -1.08876e+12 -1.07934e+12 -1.06991e+12 -1.06034e+12 -884948000000.0 -893495000000.0 -856683000000.0 -802486000000.0 -716495000000.0 -1.00491e+12 -828887000000.0 -884782000000.0 -823892000000.0 -484844000000.0 -450512000000.0 -430800000000.0 -66024100000.0 -30250200000.0 -37617100000.0 -383705000000.0 -533461000000.0 -326818000000.0 -404342000000.0 -485574000000.0 -607721000000.0 -614540000000.0 -527638000000.0 -585595000000.0 -923621000000.0 -947295000000.0 -970775000000.0 -993407000000.0 -1.01596e+12 -1.03578e+12 -1.05182e+12 -1.0636e+12 -1.07003e+12 -1.07198e+12 -1.07066e+12 -1.06706e+12 -1.06244e+12 -1.0578e+12 -1.054e+12 -1.05119e+12 -1.04805e+12 -1.04229e+12 -1.03332e+12 -1.02118e+12 -1.00663e+12 -1.05054e+12 -1.0405e+12 -1.03018e+12 -1.0195e+12 -1.00835e+12 -996695000000.0 -984518000000.0 -971794000000.0 -958373000000.0 -944213000000.0 -929446000000.0 -913766000000.0 -897272000000.0 -880195000000.0 -840433000000.0 -668235000000.0 -603673000000.0 -800857000000.0 -770077000000.0 -712190000000.0 -762998000000.0 -595256000000.0 -737291000000.0 -322419000000.0 -139975000000.0 -434094000000.0 -263178000000.0 -335770000000.0 -383714000000.0 -450688000000.0 -464981000000.0 -620662000000.0 -644639000000.0 -667379000000.0 -693205000000.0 -720903000000.0 -748286000000.0 -774830000000.0 -800989000000.0 -825882000000.0 -853182000000.0 -880623000000.0 -903683000000.0 -919747000000.0 -928870000000.0 -931726000000.0 -929985000000.0 -925421000000.0 -919263000000.0 -913512000000.0 -909518000000.0 -907826000000.0 -991740000000.0 -978608000000.0 -966703000000.0 -955540000000.0 -944745000000.0 -934026000000.0 -923216000000.0 -912225000000.0 -900986000000.0 -889495000000.0 -877799000000.0 -865910000000.0 -853789000000.0 -841406000000.0 -828779000000.0 -815980000000.0 -803017000000.0 -789888000000.0 -776997000000.0 -764965000000.0 -753653000000.0 -743585000000.0 -716866000000.0 -712095000000.0 -727465000000.0 -705227000000.0 -615859000000.0 -582879000000.0 -566054000000.0 -431852000000.0 -506264000000.0 -394669000000.0 -52914300000.0 -19379300000.0 -60999900000.0 -302995000000.0 -373573000000.0 -315257000000.0 -213821000000.0 -239282000000.0 -284304000000.0 -318834000000.0 -339722000000.0 -448163000000.0 -480645000000.0 -487065000000.0 -493708000000.0 -511738000000.0 -534537000000.0 -569086000000.0 -601188000000.0 -629247000000.0 -653029000000.0 -681975000000.0 -718316000000.0 -753153000000.0 -779764000000.0 -790785000000.0 -794274000000.0 -792303000000.0 -908355000000.0 -908247000000.0 -902331000000.0 -890321000000.0 -872886000000.0 -853739000000.0 -838524000000.0 -825327000000.0 -813101000000.0 -801254000000.0 -789409000000.0 -777337000000.0 -764954000000.0 -752239000000.0 -739212000000.0 -725967000000.0 -712614000000.0 -699215000000.0 -685799000000.0 -672417000000.0 -659169000000.0 -646170000000.0 -633451000000.0 -621288000000.0 -610584000000.0 -603073000000.0 -598209000000.0 -582145000000.0 -548615000000.0 -565841000000.0 -553980000000.0 -531324000000.0 -486031000000.0 -604061000000.0 -558987000000.0 -426500000000.0 -332006000000.0 -293183000000.0 -348503000000.0 -200730000000.0 -42882000000.0 -25954300000.0 -74543100000.0 -183752000000.0 -193283000000.0 -204677000000.0 -378452000000.0 -348601000000.0 -323577000000.0 -330063000000.0 -345397000000.0 -369428000000.0 -462481000000.0 -477279000000.0 -786137000000.0 -776605000000.0 -767694000000.0 -762610000000.0 -760639000000.0 -762692000000.0 -769944000000.0 -775833000000.0 -766290000000.0 -744343000000.0 -716054000000.0 -698084000000.0 -683679000000.0 -670702000000.0 -658127000000.0 -645422000000.0 -632285000000.0 -618609000000.0 -604415000000.0 -589777000000.0 -574830000000.0 -559767000000.0 -544763000000.0 -393524000000.0 -408734000000.0 -402307000000.0 -390879000000.0 -365680000000.0 -421101000000.0 -384731000000.0 -409065000000.0 -455734000000.0 -175299000000.0 -157958000000.0 -63805600000.0 -62565200000.0 -31152200000.0 -32461200000.0 -122636000000.0 -143978000000.0 -157871000000.0 -186064000000.0 -237885000000.0 -226053000000.0 -425888000000.0 -502552000000.0 -541420000000.0 -592502000000.0 -641453000000.0 -661552000000.0 -662184000000.0 -657195000000.0 -652374000000.0 -637625000000.0 -620404000000.0 -612713000000.0 -610340000000.0 -610559000000.0 -619502000000.0 -642990000000.0 -660381000000.0 -629584000000.0 -577581000000.0 -556151000000.0 -540904000000.0 -529947000000.0 -515434000000.0 -501351000000.0 -487855000000.0 -475029000000.0 -462936000000.0 -452108000000.0 -444038000000.0 -443825000000.0 -437693000000.0 -250981000000.0 -242910000000.0 -234423000000.0 -248473000000.0 -232726000000.0 -247541000000.0 -253979000000.0 -282634000000.0 -183292000000.0 -176371000000.0 -53357600000.0 -30205300000.0 -42056900000.0 -61903500000.0 -69331200000.0 -48094600000.0 -53317100000.0 -53907000000.0 -63405600000.0 -90033400000.0 -141290000000.0 -144721000000.0 -152853000000.0 -165773000000.0 -191781000000.0 -330676000000.0 -304996000000.0 -317301000000.0 -349626000000.0 -399192000000.0 -491636000000.0 -534782000000.0 -542339000000.0 -527528000000.0 -520937000000.0 -510816000000.0 -473428000000.0 -458447000000.0 -456333000000.0 -455134000000.0 -455357000000.0 -527775000000.0 -515050000000.0 -501938000000.0 -488063000000.0 -473289000000.0 -457676000000.0 -441375000000.0 -424582000000.0 -407568000000.0 -390624000000.0 -374004000000.0 -357920000000.0 -342565000000.0 -328126000000.0 -314740000000.0 -302354000000.0 -290913000000.0 -280878000000.0 -274531000000.0 -282628000000.0 -245899000000.0 -256547000000.0 -85567900000.0 -84039900000.0 -82236300000.0 -72323100000.0 -81186300000.0 -93257900000.0 -102827000000.0 -94813500000.0 -79194900000.0 -93100500000.0 -114839000000.0 -96647900000.0 -48827200000.0 -61302400000.0 -66359600000.0 -93607800000.0 -136686000000.0 -185729000000.0 -483708000000.0 -549630000000.0 -577158000000.0 -432371000000.0 -409081000000.0 -394889000000.0 -383167000000.0 -371450000000.0 -358737000000.0 -344657000000.0 -329116000000.0 -312230000000.0 -294254000000.0 -275487000000.0 -256285000000.0 -237054000000.0 -218187000000.0 -200031000000.0 -182897000000.0 -167051000000.0 -152693000000.0 -139789000000.0 -127862000000.0 -115966000000.0 -102436000000.0 -85514600000.0 -106447000000.0 -111368000000.0 -102074000000.0 -91690700000.0 -80748700000.0 -87749800000.0 -81137400000.0 -240663000000.0 -278524000000.0 -293806000000.0 -297257000000.0 -284303000000.0 -247310000000.0 -183610000000.0 -107085000000.0 
SCALARS Shear_Stress float 1
LOOKUP_TABLE default
7041740000.0 53550400000.0 28395600000.0 26032100000.0 19828100000.0 54554200000.0 4194140000.0 34614800000.0 5367450000.0 36174300000.0 45033600000.0 9848630000.0 18761600000.0 12018800000.0 7107870000.0 58011500000.0 3502800000.0 12861500000.0 20407600000.0 55289800000.0 109888000000.0 31200500000.0 63348000000.0 55101600000.0 31465500000.0 60861300000.0 22488100000.0 86061400000.0 79650200000.0 34766900000.0 43468400000.0 1445790000.0 3134390000.0 51991900000.0 4903910000.0 59215500000.0 86483800000.0 19376000000.0 51417600000.0 124677000000.0 156393000000.0 174623000000.0 16570800000.0 117342000000.0 116880000000.0 91170400000.0 124715000000.0 60164600000.0 49114500000.0 24121500000.0 56882900000.0 118786000000.0 120420000000.0 106356000000.0 154413000000.0 206455000000.0 197814000000.0 207050000000.0 130856000000.0 158684000000.0 207098000000.0 109326000000.0 2028620000.0 9480330000.0 89042800000.0 73691100000.0 133850000000.0 127792000000.0 203888000000.0 198053000000.0 298336000000.0 287806000000.0 345511000000.0 240290000000.0 325702000000.0 254646000000.0 242253000000.0 231768000000.0 219307000000.0 206155000000.0 140493000000.0 34151700000.0 135184000000.0 41367200000.0 194648000000.0 232005000000.0 141834000000.0 148329000000.0 299665000000.0 251544000000.0 26444500000.0 99236000000.0 148035000000.0 201298000000.0 296774000000.0 313415000000.0 359439000000.0 308898000000.0 230931000000.0 170030000000.0 61381800000.0 83617000000.0 19868800000.0 236926000000.0 206634000000.0 24891600000.0 129027000000.0 168848000000.0 202715000000.0 268651000000.0 300771000000.0 290131000000.0 307890000000.0 253812000000.0 187837000000.0 110049000000.0 142170000000.0 142558000000.0 114310000000.0 193625000000.0 263159000000.0 202923000000.0 242595000000.0 215289000000.0 250593000000.0 253314000000.0 283914000000.0 298555000000.0 284383000000.0 280341000000.0 232284000000.0 229635000000.0 225648000000.0 265285000000.0 209457000000.0 202880000000.0 143205000000.0 130045000000.0 74947500000.0 97541500000.0 21935300000.0 271996000000.0 270881000000.0 376490000000.0 181894000000.0 266904000000.0 398564000000.0 288973000000.0 341559000000.0 289394000000.0 262343000000.0 273392000000.0 286428000000.0 249823000000.0 199815000000.0 197867000000.0 149466000000.0 82098600000.0 147545000000.0 2320580000.0 400230000000.0 637230000000.0 556937000000.0 672399000000.0 428609000000.0 354391000000.0 292407000000.0 270724000000.0 279534000000.0 264043000000.0 213151000000.0 181751000000.0 147370000000.0 85202200000.0 28182900000.0 329885000000.0 577844000000.0 251426000000.0 585550000000.0 428523000000.0 341828000000.0 307561000000.0 279709000000.0 263609000000.0 270678000000.0 261688000000.0 268350000000.0 245233000000.0 233152000000.0 201173000000.0 182790000000.0 148914000000.0 144174000000.0 86023600000.0 84852800000.0 18126400000.0 23301400000.0 29706000000.0 209363000000.0 31186700000.0 284263000000.0 441364000000.0 307142000000.0 428143000000.0 477865000000.0 513188000000.0 491934000000.0 408890000000.0 354566000000.0 263521000000.0 247810000000.0 244194000000.0 217581000000.0 166062000000.0 95559100000.0 16085100000.0 43990200000.0 279221000000.0 135264000000.0 192742000000.0 264907000000.0 91265300000.0 227371000000.0 469801000000.0 562031000000.0 418747000000.0 287666000000.0 229168000000.0 230049000000.0 220864000000.0 186609000000.0 116657000000.0 23047700000.0 54805100000.0 94521400000.0 92087500000.0 19096800000.0 27232500000.0 703575000000.0 483029000000.0 332356000000.0 238323000000.0 211234000000.0 167150000000.0 204692000000.0 180364000000.0 207875000000.0 182398000000.0 194783000000.0 164592000000.0 145297000000.0 78932200000.0 44295700000.0 47046400000.0 57827100000.0 132305000000.0 115970000000.0 160031000000.0 351893000000.0 300534000000.0 116250000000.0 44586500000.0 202908000000.0 132289000000.0 12094300000.0 506593000000.0 393096000000.0 393530000000.0 287534000000.0 116259000000.0 139517000000.0 150327000000.0 157348000000.0 118029000000.0 16797100000.0 139638000000.0 187675000000.0 420523000000.0 464642000000.0 251905000000.0 339987000000.0 241948000000.0 217398000000.0 3389240000.0 290451000000.0 175557000000.0 76957700000.0 104073000000.0 119391000000.0 131543000000.0 29213700000.0 131338000000.0 212230000000.0 217127000000.0 292600000000.0 386172000000.0 421664000000.0 37238200000.0 165577000000.0 276223000000.0 176171000000.0 69436400000.0 44484400000.0 47851400000.0 44913900000.0 19798100000.0 58042200000.0 24767100000.0 98099600000.0 82476800000.0 81681900000.0 46040000000.0 97552200000.0 240169000000.0 232194000000.0 288477000000.0 250362000000.0 250526000000.0 475466000000.0 595731000000.0 407507000000.0 408375000000.0 512363000000.0 485120000000.0 493002000000.0 260779000000.0 127143000000.0 403078000000.0 356898000000.0 129114000000.0 66689600000.0 7937940000.0 28952600000.0 215814000000.0 336003000000.0 286872000000.0 503091000000.0 670825000000.0 497128000000.0 579084000000.0 382338000000.0 23668500000.0 260763000000.0 523013000000.0 357564000000.0 166551000000.0 98573900000.0 1903930000.0 184905000000.0 388845000000.0 342884000000.0 255014000000.0 235329000000.0 494511000000.0 427508000000.0 590068000000.0 592689000000.0 2041730000.0 204093000000.0 450101000000.0 445701000000.0 337633000000.0 757988000000.0 514552000000.0 315495000000.0 266548000000.0 176885000000.0 173006000000.0 132942000000.0 202740000000.0 71938900000.0 494783000000.0 405834000000.0 605557000000.0 438869000000.0 286037000000.0 161242000000.0 684071000000.0 356582000000.0 464995000000.0 490189000000.0 712946000000.0 883624000000.0 562841000000.0 414905000000.0 329424000000.0 377078000000.0 356626000000.0 216451000000.0 151081000000.0 312374000000.0 828135000000.0 328051000000.0 143706000000.0 455658000000.0 654437000000.0 330941000000.0 491638000000.0 918262000000.0 175516000000.0 116866000000.0 257019000000.0 42705300000.0 121585000000.0 156024000000.0 306925000000.0 213172000000.0 249846000000.0 147784000000.0 142498000000.0 892448000000.0 250159000000.0 365519000000.0 39203100000.0 111831000000.0 3333120000.0 49523500000.0 406097000000.0 613544000000.0 243827000000.0 179803000000.0 263503000000.0 117435000000.0 387834000000.0 122513000000.0 179565000000.0 58552300000.0 14543500000.0 118063000000.0 111148000000.0 154589000000.0 26320200000.0 2201750000.0 115208000000.0 422487000000.0 11557300000.0 131293000000.0 82300100000.0 60381100000.0 144570000000.0 83699500000.0 4016750000.0 815905000000.0 243514000000.0 119901000000.0 11006900000.0 42867700000.0 22031400000.0 207736000000.0 774327000000.0 451834000000.0 218975000000.0 199385000000.0 125964000000.0 368481000000.0 587434000000.0 84014100000.0 7598370000.0 12380700000.0 183531000000.0 692220000000.0 446554000000.0 248270000000.0 238734000000.0 137050000000.0 138927000000.0 43699100000.0 114759000000.0 68487100000.0 241057000000.0 240032000000.0 906973000000.0 242409000000.0 225538000000.0 231109000000.0 275168000000.0 256047000000.0 203549000000.0 185930000000.0 134820000000.0 359246000000.0 588280000000.0 90795900000.0 64410900000.0 38957400000.0 52819700000.0 42560100000.0 89912600000.0 328572000000.0 341129000000.0 226706000000.0 168495000000.0 229715000000.0 552749000000.0 864198000000.0 457834000000.0 350658000000.0 124788000000.0 234616000000.0 219397000000.0 156991000000.0 85851500000.0 70125800000.0 103947000000.0 56543300000.0 310841000000.0 291935000000.0 224855000000.0 231472000000.0 399750000000.0 554642000000.0 179911000000.0 101000000000.0 53624300000.0 138411000000.0 146499000000.0 208861000000.0 167403000000.0 175743000000.0 126763000000.0 385375000000.0 614601000000.0 110557000000.0 89460900000.0 110191000000.0 102648000000.0 119454000000.0 91091700000.0 11271700000.0 174641000000.0 213449000000.0 288444000000.0 273818000000.0 269447000000.0 265583000000.0 247066000000.0 288547000000.0 322876000000.0 372369000000.0 456866000000.0 303404000000.0 53012900000.0 67568900000.0 126903000000.0 115713000000.0 444799000000.0 655921000000.0 124948000000.0 128757000000.0 86263400000.0 101326000000.0 230704000000.0 267508000000.0 276196000000.0 315793000000.0 343430000000.0 372886000000.0 217775000000.0 131818000000.0 50902600000.0 26718100000.0 70061100000.0 85111900000.0 57296200000.0 701942000000.0 144258000000.0 157200000000.0 140575000000.0 144502000000.0 123593000000.0 84452500000.0 9661600000.0 62620000000.0 153237000000.0 186698000000.0 240549000000.0 246886000000.0 267146000000.0 264724000000.0 283420000000.0 301130000000.0 256755000000.0 110518000000.0 25108900000.0 27563100000.0 11727600000.0 44292800000.0 5932250000.0 28320800000.0 35674600000.0 528729000000.0 176592000000.0 163810000000.0 126871000000.0 21951300000.0 115948000000.0 209229000000.0 247647000000.0 248344000000.0 268015000000.0 222404000000.0 244138000000.0 165856000000.0 155950000000.0 58301400000.0 5852970000.0 32340100000.0 70947000000.0 626805000000.0 747219000000.0 184372000000.0 156743000000.0 86121200000.0 40024300000.0 155834000000.0 222684000000.0 237194000000.0 209473000000.0 153132000000.0 94754300000.0 91518600000.0 64318200000.0 31100800000.0 10618400000.0 36650700000.0 106743000000.0 98567600000.0 173758000000.0 139328000000.0 729821000000.0 789975000000.0 204884000000.0 207246000000.0 182837000000.0 168240000000.0 131936000000.0 90633200000.0 31043300000.0 25440500000.0 92370300000.0 135486000000.0 185112000000.0 204447000000.0 225588000000.0 215177000000.0 209222000000.0 159315000000.0 146532000000.0 75898300000.0 61632500000.0 37194200000.0 85715900000.0 191745000000.0 244030000000.0 229229000000.0 199485000000.0 139223000000.0 39160600000.0 77310500000.0 170089000000.0 213480000000.0 189010000000.0 84324600000.0 63668600000.0 30671400000.0 13449100000.0 1693550000.0 63103400000.0 32301600000.0 184761000000.0 274032000000.0 829763000000.0 829943000000.0 250320000000.0 226907000000.0 214732000000.0 180074000000.0 148756000000.0 97540300000.0 47477400000.0 14967000000.0 67664900000.0 123453000000.0 163940000000.0 196704000000.0 212014000000.0 145672000000.0 21150200000.0 118513000000.0 40341000000.0 36504500000.0 74135400000.0 146323000000.0 268129000000.0 283330000000.0 361556000000.0 339841000000.0 918485000000.0 867209000000.0 244019000000.0 192692000000.0 106832000000.0 6372900000.0 117637000000.0 199509000000.0 216139000000.0 230072000000.0 200883000000.0 182678000000.0 84344900000.0 4343070000.0 170277000000.0 138346000000.0 8045280000.0 226106000000.0 360654000000.0 413415000000.0 9035750000.0 901761000000.0 268562000000.0 258502000000.0 228864000000.0 206279000000.0 160756000000.0 119067000000.0 56970800000.0 61213900000.0 164846000000.0 231639000000.0 241576000000.0 162934000000.0 94258600000.0 389582000000.0 663224000000.0 69221800000.0 97011400000.0 155482000000.0 291199000000.0 337432000000.0 392069000000.0 417482000000.0 451421000000.0 988424000000.0 283853000000.0 241404000000.0 175934000000.0 68826400000.0 1997390000.0 56213200000.0 115947000000.0 170480000000.0 210069000000.0 254620000000.0 262669000000.0 295852000000.0 255794000000.0 281012000000.0 153084000000.0 214437000000.0 733077000000.0 204280000000.0 332792000000.0 422804000000.0 1.03638e+12 933712000000.0 296097000000.0 269459000000.0 250891000000.0 220773000000.0 135540000000.0 11570000000.0 116817000000.0 225179000000.0 299993000000.0 335420000000.0 329688000000.0 176409000000.0 292517000000.0 275655000000.0 148488000000.0 327789000000.0 20132300000.0 219331000000.0 208424000000.0 348593000000.0 378163000000.0 450761000000.0 1.06731e+12 9035750000.0 964619000000.0 275528000000.0 235576000000.0 195792000000.0 158609000000.0 84606200000.0 23417300000.0 51620300000.0 120217000000.0 179509000000.0 243587000000.0 280188000000.0 347446000000.0 386184000000.0 419082000000.0 449466000000.0 804559000000.0 1.19938e+12 47772200000.0 243159000000.0 423396000000.0 1.00079e+12 307666000000.0 276097000000.0 254465000000.0 223204000000.0 106317000000.0 47904800000.0 193361000000.0 306643000000.0 334615000000.0 385887000000.0 397444000000.0 447984000000.0 451059000000.0 504521000000.0 509601000000.0 403255000000.0 310954000000.0 322512000000.0 855636000000.0 15016600000.0 119847000000.0 303778000000.0 389933000000.0 1.09275e+12 328163000000.0 246646000000.0 248501000000.0 265857000000.0 192691000000.0 138296000000.0 37994000000.0 48660500000.0 129381000000.0 268169000000.0 363151000000.0 429673000000.0 483062000000.0 453369000000.0 201004000000.0 578128000000.0 528634000000.0 429123000000.0 157709000000.0 225147000000.0 1.12683e+12 1.05389e+12 372187000000.0 272763000000.0 221834000000.0 257184000000.0 251180000000.0 55143900000.0 161007000000.0 220105000000.0 303812000000.0 335189000000.0 385282000000.0 406673000000.0 428540000000.0 455168000000.0 457950000000.0 303769000000.0 214632000000.0 245377000000.0 386758000000.0 314332000000.0 29130800000.0 158092000000.0 373729000000.0 1.1817e+12 9035750000.0 1.12414e+12 281969000000.0 278706000000.0 353630000000.0 394669000000.0 195021000000.0 3252940000.0 88908200000.0 268275000000.0 367731000000.0 410001000000.0 416085000000.0 439982000000.0 378788000000.0 366327000000.0 285030000000.0 259605000000.0 338674000000.0 188346000000.0 117026000000.0 26563400000.0 399398000000.0 1.18511e+12 407040000000.0 255874000000.0 218612000000.0 677338000000.0 93432400000.0 187225000000.0 228140000000.0 337166000000.0 352494000000.0 404772000000.0 402971000000.0 400745000000.0 365226000000.0 311849000000.0 269739000000.0 276526000000.0 296507000000.0 212041000000.0 49510500000.0 91873400000.0 496274000000.0 1.26463e+12 305030000000.0 403865000000.0 803287000000.0 293940000000.0 191791000000.0 148950000000.0 155099000000.0 325269000000.0 407405000000.0 422976000000.0 403418000000.0 365059000000.0 353208000000.0 275253000000.0 297207000000.0 257123000000.0 304970000000.0 333347000000.0 218520000000.0 82431900000.0 181968000.0 23456000000.0 77239600000.0 1.36773e+12 1.20311e+12 82917300000.0 101630000000.0 548950000000.0 42282400000.0 192252000000.0 354471000000.0 326496000000.0 424878000000.0 411381000000.0 441472000000.0 408923000000.0 286629000000.0 188985000000.0 330130000000.0 270112000000.0 123943000000.0 84548200000.0 45952500000.0 37189000000.0 602367000000.0 697779000000.0 1.47425e+12 1.32699e+12 1.02357e+12 1.12981e+12 425796000000.0 393262000000.0 548410000000.0 421233000000.0 459940000000.0 467635000000.0 454490000000.0 470935000000.0 447326000000.0 432421000000.0 366525000000.0 303836000000.0 166090000000.0 136533000000.0 305692000000.0 391170000000.0 195699000000.0 6302860000.0 133217000000.0 174869000000.0 927002000000.0 970617000000.0 1.00557e+12 1.05396e+12 107012000000.0 61683100000.0 577478000000.0 596990000000.0 645851000000.0 528992000000.0 528620000000.0 489910000000.0 485793000000.0 468378000000.0 408273000000.0 231639000000.0 8339160000.0 271091000000.0 357744000000.0 32443900000.0 47013400000.0 52563100000.0 48119400000.0 27976600000.0 855558000000.0 729116000000.0 1.07843e+12 204390000000.0 1.08778e+12 201998000000.0 120145000000.0 470985000000.0 851881000000.0 773548000000.0 586372000000.0 531125000000.0 502685000000.0 497146000000.0 484737000000.0 472771000000.0 458131000000.0 392972000000.0 160811000000.0 386312000000.0 67667800000.0 44243100000.0 109796000000.0 124600000000.0 258703000000.0 1.12106e+12 738911000000.0 190275000000.0 533370000000.0 643149000000.0 1.29334e+12 175729000000.0 499080000000.0 639045000000.0 852601000000.0 1.17436e+12 630693000000.0 638956000000.0 575115000000.0 519893000000.0 475647000000.0 463655000000.0 455060000000.0 479625000000.0 409985000000.0 487751000000.0 57747700000.0 321709000000.0 980799000000.0 98158000000.0 250587000000.0 423727000000.0 572790000000.0 915126000000.0 268119000000.0 1.14847e+12 361934000000.0 405775000000.0 338511000000.0 377928000000.0 341406000000.0 139837000000.0 333321000000.0 145212000000.0 146884000000.0 298107000000.0 1.07578e+12 521706000000.0 623071000000.0 646912000000.0 624446000000.0 619957000000.0 561608000000.0 488165000000.0 450034000000.0 469756000000.0 547028000000.0 724420000000.0 490324000000.0 1.42681e+12 338385000000.0 761417000000.0 542437000000.0 739463000000.0 634588000000.0 747599000000.0 154627000000.0 1.25365e+12 271959000000.0 238988000000.0 240615000000.0 237466000000.0 423698000000.0 326803000000.0 439271000000.0 70302600000.0 1.29241e+12 110876000000.0 406391000000.0 266486000000.0 341060000000.0 543811000000.0 714244000000.0 677166000000.0 660094000000.0 584386000000.0 523034000000.0 462501000000.0 443025000000.0 399030000000.0 432790000000.0 430338000000.0 506407000000.0 581703000000.0 692093000000.0 641278000000.0 242253000000.0 584279000000.0 854899000000.0 615489000000.0 841087000000.0 862608000000.0 606734000000.0 98006400000.0 1.52304e+12 193295000000.0 230000000000.0 263783000000.0 203029000000.0 592344000000.0 388427000000.0 445896000000.0 196550000000.0 262472000000.0 486710000000.0 212005000000.0 395376000000.0 710969000000.0 370295000000.0 236085000000.0 1.25398e+12 959261000000.0 735369000000.0 729318000000.0 606797000000.0 520717000000.0 391218000000.0 362896000000.0 450452000000.0 595426000000.0 365776000000.0 133060000000.0 151064000000.0 286764000000.0 755412000000.0 931109000000.0 927075000000.0 773208000000.0 604947000000.0 1.30987e+12 66473100000.0 177254000000.0 220857000000.0 342031000000.0 590239000000.0 745318000000.0 410084000000.0 54316700000.0 271230000000.0 412763000000.0 711548000000.0 45798100000.0 383429000000.0 228254000000.0 480576000000.0 492295000000.0 30353000000.0 998489000000.0 909858000000.0 789833000000.0 785494000000.0 697637000000.0 632727000000.0 525835000000.0 433003000000.0 435227000000.0 323722000000.0 257535000000.0 343461000000.0 322881000000.0 437061000000.0 310171000000.0 491752000000.0 593589000000.0 192892000000.0 573115000000.0 724686000000.0 862260000000.0 888314000000.0 739935000000.0 180877000000.0 326731000000.0 828976000000.0 6705660000.0 518867000000.0 43367800000.0 401831000000.0 463797000000.0 60539800000.0 168482000000.0 740550000000.0 380971000000.0 256759000000.0 271931000000.0 33687400000.0 181958000000.0 544524000000.0 979414000000.0 16398000000.0 1.12113e+12 775445000000.0 803919000000.0 34040100000.0 523092000000.0 562120000000.0 681019000000.0 905841000000.0 886486000000.0 733442000000.0 543945000000.0 353674000000.0 343646000000.0 249771000000.0 209178000000.0 294589000000.0 555594000000.0 87973600000.0 353268000000.0 430702000000.0 652182000000.0 741583000000.0 887774000000.0 562921000000.0 98877300000.0 347385000000.0 538546000000.0 151951000000.0 486513000000.0 5828640000.0 665000000000.0 81064000000.0 170601000000.0 37823900000.0 56746800000.0 345959000000.0 335805000000.0 72570000000.0 163235000000.0 318441000000.0 344046000000.0 323450000000.0 644064000000.0 3998510000.0 233172000000.0 702948000000.0 902986000000.0 940718000000.0 855716000000.0 644311000000.0 468955000000.0 276021000000.0 140913000000.0 143735000000.0 202012000000.0 127030000000.0 956230000000.0 366241000000.0 703339000000.0 597469000000.0 857497000000.0 673075000000.0 484424000000.0 651542000000.0 656318000000.0 211266000000.0 34513300000.0 344278000000.0 270105000000.0 356211000000.0 45249900000.0 294657000000.0 378910000000.0 334524000000.0 20224200000.0 544540000000.0 376916000000.0 527973000000.0 136442000000.0 422276000000.0 50591800000.0 51603800000.0 113074000000.0 390704000000.0 454979000000.0 683554000000.0 296828000000.0 587514000000.0 147042000000.0 112473000000.0 781653000000.0 1.67991e+12 807897000000.0 207953000000.0 889919000000.0 856284000000.0 733096000000.0 624168000000.0 562218000000.0 524878000000.0 430411000000.0 417564000000.0 210572000000.0 129302000000.0 22762500000.0 183947000000.0 1.12842e+12 40119500000.0 267828000000.0 814511000000.0 878864000000.0 749834000000.0 31294100000.0 537760000000.0 168141000000.0 102750000000.0 412437000000.0 202622000000.0 24762500000.0 861051000000.0 1.52712e+12 534731000000.0 752827000000.0 131973000000.0 595235000000.0 241309000000.0 815333000000.0 228094000000.0 210260000000.0 246509000000.0 412971000000.0 136375000000.0 137534000000.0 76935200000.0 401309000000.0 713757000000.0 130460000000.0 92260500000.0 701155000000.0 205866000000.0 286379000000.0 654804000000.0 789014000000.0 904365000000.0 639894000000.0 566308000000.0 543235000000.0 439260000000.0 172837000000.0 24144500000.0 203772000000.0 295422000000.0 34368100000.0 513525000000.0 990524000000.0 990570000000.0 451794000000.0 282048000000.0 905841000000.0 721053000000.0 391968000000.0 205459000000.0 29050300000.0 54279100000.0 63926500000.0 930633000000.0 19408600000.0 172901000000.0 77019100000.0 80237100000.0 1.33757e+12 305399000000.0 207617000000.0 191453000000.0 189060000000.0 279695000000.0 144917000000.0 170798000000.0 176093000000.0 307365000000.0 539949000000.0 186919000000.0 290268000000.0 27475100000.0 5252520000.0 222925000000.0 520071000000.0 748172000000.0 769937000000.0 415808000000.0 563690000000.0 572601000000.0 637912000000.0 583624000000.0 647965000000.0 502480000000.0 609653000000.0 98740400000.0 330088000000.0 26760800000.0 274910000000.0 398500000000.0 821183000000.0 1.21137e+12 713757000000.0 414299000000.0 652694000000.0 397559000000.0 165967000000.0 71526200000.0 385630000000.0 69370600000.0 268856000000.0 368565000000.0 528995000000.0 441050000000.0 414127000000.0 287127000000.0 90330700000.0 53707900000.0 244233000000.0 645713000000.0 574768000000.0 365105000000.0 325570000000.0 15755300000.0 275475000000.0 380682000000.0 520067000000.0 165400000000.0 86319700000.0 617314000000.0 636463000000.0 291452000000.0 862708000000.0 918239000000.0 622722000000.0 65985600000.0 353605000000.0 92789000000.0 276104000000.0 544969000000.0 585182000000.0 573040000000.0 576124000000.0 570158000000.0 683487000000.0 727631000000.0 585716000000.0 1.08179e+12 1.23596e+12 82027100000.0 83733800000.0 1.08537e+12 817797000000.0 433887000000.0 18619500000.0 70846200000.0 52107200000.0 53456700000.0 372327000000.0 235103000000.0 140647000000.0 325768000000.0 99442700000.0 128439000000.0 192676000000.0 348569000000.0 246999000000.0 19115600000.0 1.13055e+12 389586000000.0 385504000000.0 193424000000.0 383993000000.0 20255100000.0 15952700000.0 69704200000.0 106737000000.0 149223000000.0 776435000000.0 558208000000.0 50454400000.0 507673000000.0 859071000000.0 366994000000.0 35126300000.0 324424000000.0 488864000000.0 700312000000.0 388758000000.0 128589000000.0 282519000000.0 107620000000.0 829660000000.0 162658000000.0 255691000000.0 551685000000.0 539900000000.0 724313000000.0 712223000000.0 767055000000.0 587403000000.0 388371000000.0 590031000000.0 784795000000.0 650190000000.0 869964000000.0 395628000000.0 64581100000.0 208223000000.0 107392000000.0 186735000000.0 68837500000.0 591321000000.0 352588000000.0 16607300000.0 242096000000.0 232305000000.0 236056000000.0 318989000000.0 324513000000.0 248793000000.0 7389890000.0 582681000000.0 904780000000.0 1.17928e+12 69609800000.0 455501000000.0 399445000000.0 35853000000.0 39440800000.0 61254200000.0 67148900000.0 137634000000.0 498204000000.0 465257000000.0 42982900000.0 361689000000.0 6627060000.0 346928000000.0 131983000000.0 353011000000.0 158591000000.0 30186200000.0 277478000000.0 130797000000.0 459181000000.0 830421000000.0 1.13408e+12 479638000000.0 352641000000.0 401543000000.0 1.26368e+12 820248000000.0 1.08452e+12 625900000000.0 482400000000.0 573755000000.0 709654000000.0 767401000000.0 699645000000.0 574657000000.0 625752000000.0 24271200000.0 957055000000.0 44765100000.0 1.6086e+12 479153000000.0 136731000000.0 123024000000.0 135601000000.0 25928800000.0 641687000000.0 1.03962e+12 127520000000.0 155110000000.0 225559000000.0 296900000000.0 68918200000.0 57666900000.0 506288000000.0 709041000000.0 260452000000.0 179283000000.0 3000140000.0 523856000000.0 278013000000.0 297248000000.0 360079000000.0 18820000000.0 72597700000.0 114983000000.0 87834700000.0 174709000000.0 329458000000.0 343521000000.0 586641000000.0 214754000000.0 61613100000.0 15860100000.0 98932600000.0 153849000000.0 102065000000.0 107405000000.0 46156000000.0 116933000000.0 212039000000.0 48382200000.0 460377000000.0 167855000000.0 184348000000.0 1.75686e+12 306537000000.0 489245000000.0 458137000000.0 573597000000.0 638419000000.0 679153000000.0 800353000000.0 846888000000.0 455229000000.0 43734100000.0 1.12982e+12 732115000000.0 4612990000.0 39025200000.0 41813100000.0 69251100000.0 703790000000.0 895421000000.0 93678300000.0 195963000000.0 274229000000.0 449968000000.0 483816000000.0 297391000000.0 618619000000.0 394862000000.0 20676700000.0 315820000000.0 79475300000.0 113527000000.0 593817000000.0 65446400000.0 226513000000.0 87260900000.0 15384100000.0 36030100000.0 90807800000.0 183004000000.0 313450000000.0 552243000000.0 582726000000.0 361794000000.0 55942200000.0 251780000000.0 206707000000.0 101724000000.0 634824000000.0 31007200000.0 193905000000.0 434575000000.0 373037000000.0 236495000000.0 9283140000.0 116342000000.0 1.08746e+12 331477000000.0 132582000000.0 1.55626e+12 166705000000.0 1.16243e+12 439534000000.0 714319000000.0 707961000000.0 822556000000.0 1.00445e+12 594676000000.0 426830000000.0 1.51926e+12 1.02732e+12 323436000000.0 112690000000.0 18172700000.0 172573000000.0 159012000000.0 206143000000.0 650418000000.0 119915000000.0 428864000000.0 619675000000.0 953026000000.0 1.10363e+12 290176000000.0 91959400000.0 31596900000.0 170708000000.0 199243000000.0 99602600000.0 740782000000.0 17218000000.0 282273000000.0 284908000000.0 75871200000.0 150898000000.0 300679000000.0 198598000000.0 141415000000.0 19196700000.0 88042600000.0 161861000000.0 260820000000.0 370650000000.0 480961000000.0 593575000000.0 730265000000.0 917466000000.0 229714000000.0 765818000000.0 136607000000.0 9865430000.0 567817000000.0 1.3641e+12 241011000000.0 899339000000.0 672520000000.0 408232000000.0 222532000000.0 179397000000.0 138012000000.0 166184000000.0 252896000000.0 94493600000.0 637096000000.0 336646000000.0 163434000000.0 211255000000.0 713631000000.0 662110000000.0 579501000000.0 1.00992e+12 979525000000.0 649838000000.0 1.00143e+12 642337000000.0 323128000000.0 94544900000.0 15649000000.0 101409000000.0 258930000000.0 343375000000.0 330152000000.0 20083900000.0 81247000000.0 146733000.0 272643000000.0 746327000000.0 408504000000.0 260788000000.0 143809000000.0 144784000000.0 196349000000.0 465817000000.0 428242000000.0 171252000000.0 122365000000.0 49931500000.0 264589000000.0 74057600000.0 415219000000.0 532970000000.0 329332000000.0 272160000000.0 1293030000.0 46357800000.0 175512000000.0 197050000000.0 463516000000.0 569057000000.0 696571000000.0 685146000000.0 225126000000.0 118484000000.0 75639600000.0 637609000000.0 427667000000.0 289438000000.0 216340000000.0 147176000000.0 11991400000.0 406152000000.0 474427000000.0 267404000000.0 753081000000.0 16078000000.0 277291000000.0 219513000000.0 617836000000.0 1.05022e+12 718033000000.0 91438400000.0 858763000000.0 710612000000.0 625777000000.0 409554000000.0 158395000000.0 67189700000.0 204895000000.0 335395000000.0 129155000000.0 167423000000.0 101141000000.0 24071500000.0 44831700000.0 153977000000.0 319558000000.0 29496400000.0 227357000000.0 177721000000.0 130971000000.0 111299000000.0 431064000000.0 847099000000.0 262419000000.0 43176500000.0 102455000000.0 148379000000.0 252261000000.0 67784400000.0 326279000000.0 354169000000.0 400549000000.0 730563000000.0 20862500000.0 246839000000.0 141348000000.0 137456000000.0 191200000000.0 163882000000.0 98064600000.0 22932100000.0 1.05919e+12 216113000000.0 720590000000.0 312098000000.0 127183000000.0 716408000000.0 18127300000.0 112343000000.0 507108000000.0 299958000000.0 234866000000.0 168530000000.0 63345400000.0 125689000000.0 179183000000.0 234028000000.0 424253000000.0 485408000000.0 518022000000.0 611113000000.0 27724300000.0 1.11308e+12 837382000000.0 53698500000.0 62565200000.0 267878000000.0 264948000000.0 247982000000.0 102662000000.0 74040500000.0 257338000000.0 388195000000.0 310659000000.0 126518000000.0 49313300000.0 119119000000.0 39614500000.0 39837700000.0 92172400000.0 165774000000.0 37402900000.0 5957120000.0 152976000000.0 125326000000.0 84522600000.0 199372000000.0 283995000000.0 167701000000.0 151661000000.0 136069000000.0 64851500000.0 138253000000.0 187916000000.0 228320000000.0 196860000000.0 42530600000.0 58857700000.0 322667000000.0 329665000000.0 339187000000.0 313283000000.0 431450000000.0 443905000000.0 934251000000.0 947704000000.0 184911000000.0 107087000000.0 94735300000.0 103441000000.0 179247000000.0 305095000000.0 672292000000.0 654759000000.0 59898100000.0 150383000000.0 41579800000.0 386078000000.0 350303000000.0 358594000000.0 206524000000.0 135636000000.0 18944200000.0 70401600000.0 169098000000.0 309238000000.0 256568000000.0 316395000000.0 302890000000.0 352397000000.0 452645000000.0 1.1258e+12 158790000000.0 270036000000.0 324974000000.0 208349000000.0 170960000000.0 127669000000.0 332577000000.0 454653000000.0 424273000000.0 313540000000.0 178605000000.0 31537400000.0 27029500000.0 13623300000.0 63617400000.0 35866500000.0 58984300000.0 5914440000.0 99591600000.0 1827890000.0 69545600000.0 165711000000.0 22058100000.0 226484000000.0 155282000000.0 179681000000.0 202723000000.0 254484000000.0 222085000000.0 170790000000.0 27296300000.0 322590000000.0 345265000000.0 318560000000.0 267031000000.0 244843000000.0 321496000000.0 485321000000.0 528316000000.0 185556000000.0 88176400000.0 88316500000.0 151550000000.0 290703000000.0 599341000000.0 568923000000.0 176271000000.0 79736500000.0 367718000000.0 79341000000.0 220535000000.0 547144000000.0 163103000000.0 218458000000.0 237150000000.0 236735000000.0 139197000000.0 39226400000.0 71794400000.0 193345000000.0 237565000000.0 280070000000.0 96790400000.0 343491000000.0 563216000000.0 611385000000.0 646984000000.0 971619000000.0 310998000000.0 266199000000.0 471861000000.0 510939000000.0 677049000000.0 203161000000.0 301335000000.0 488989000000.0 579312000000.0 523355000000.0 439040000000.0 76395300000.0 150765000000.0 109860000000.0 57083100000.0 83576900000.0 102497000000.0 85899600000.0 52134400000.0 45235400000.0 79336800000.0 22827300000.0 316945000000.0 293005000000.0 317235000000.0 232790000000.0 300481000000.0 267732000000.0 298831000000.0 263422000000.0 294550000000.0 142553000000.0 10602100000.0 352940000000.0 336055000000.0 365802000000.0 385659000000.0 355771000000.0 342703000000.0 60360500000.0 67786700000.0 915988000000.0 474357000000.0 106937000000.0 163849000000.0 326225000000.0 607507000000.0 709114000000.0 318315000000.0 630012000000.0 310647000000.0 955562000000.0 333220000000.0 250168000000.0 305967000000.0 298972000000.0 32760100000.0 86921200000.0 176754000000.0 244229000000.0 219241000000.0 299241000000.0 7510830000.0 420085000000.0 241300000000.0 896758000000.0 587456000000.0 104800000000.0 352823000000.0 269166000000.0 104952000000.0 1.04436e+12 1.53035e+12 1.60738e+12 1.14264e+12 752237000000.0 571843000000.0 346698000000.0 261223000000.0 196733000000.0 199065000000.0 174017000000.0 165492000000.0 186350000000.0 311553000000.0 182313000000.0 239178000000.0 153190000000.0 140183000000.0 414586000000.0 397665000000.0 472609000000.0 362949000000.0 374131000000.0 331157000000.0 344966000000.0 305505000000.0 118713000000.0 100240000000.0 19210200000.0 1179670000.0 359347000000.0 376080000000.0 406021000000.0 412120000000.0 413355000000.0 306559000000.0 166384000000.0 100074000000.0 275257000000.0 198824000000.0 222215000000.0 5945720000.0 255742000000.0 592643000000.0 753630000000.0 703822000000.0 455832000000.0 231164000000.0 404153000000.0 1.58452e+12 897875000000.0 606818000000.0 479822000000.0 374332000000.0 263037000000.0 150127000000.0 97361300000.0 192024000000.0 245314000000.0 317224000000.0 280394000000.0 492517000000.0 422462000000.0 567733000000.0 941507000000.0 792820000000.0 1.12654e+12 612749000000.0 179325000000.0 398832000000.0 491653000000.0 395873000000.0 201981000000.0 149224000000.0 472444000000.0 403354000000.0 353135000000.0 312923000000.0 276879000000.0 235083000000.0 246401000000.0 261865000000.0 657017000000.0 430690000000.0 251115000000.0 240158000000.0 501777000000.0 648066000000.0 487554000000.0 407356000000.0 471355000000.0 419285000000.0 381797000000.0 437712000000.0 374288000000.0 308495000000.0 80380900000.0 34112600000.0 371605000000.0 394486000000.0 389577000000.0 413572000000.0 436675000000.0 483145000000.0 452464000000.0 273040000000.0 442464000000.0 329436000000.0 417716000000.0 220451000000.0 75714700000.0 170988000000.0 538059000000.0 749120000000.0 826953000000.0 774297000000.0 607028000000.0 475232000000.0 457134000000.0 355682000000.0 506480000000.0 1.14916e+12 826854000000.0 615742000000.0 482907000000.0 365134000000.0 249019000000.0 130562000000.0 11300900000.0 365177000000.0 315357000000.0 556350000000.0 1.00858e+12 913611000000.0 226134000000.0 151858000000.0 252508000000.0 275004000000.0 38714400000.0 70686100000.0 74637700000.0 79700900000.0 369046000000.0 437747000000.0 449938000000.0 445056000000.0 440126000000.0 437394000000.0 430050000000.0 409100000000.0 317107000000.0 1.17279e+12 725219000000.0 407325000000.0 277508000000.0 545130000000.0 883508000000.0 615607000000.0 489165000000.0 493308000000.0 453112000000.0 457962000000.0 372961000000.0 352823000000.0 305347000000.0 311941000000.0 48600900000.0 46352600000.0 393549000000.0 379438000000.0 402244000000.0 414573000000.0 436480000000.0 444926000000.0 496697000000.0 579100000000.0 541899000000.0 680048000000.0 527811000000.0 491830000000.0 587985000000.0 213281000000.0 24585500000.0 478631000000.0 739554000000.0 886345000000.0 920928000000.0 845633000000.0 691812000000.0 534327000000.0 426276000000.0 484321000000.0 674596000000.0 948150000000.0 763203000000.0 592541000000.0 463079000000.0 342994000000.0 222828000000.0 103224000000.0 11572500000.0 117307000000.0 203066000000.0 280860000000.0 311359000000.0 400540000000.0 928962000000.0 639530000000.0 400568000000.0 298083000000.0 182358000000.0 49556900000.0 238864000000.0 173111000000.0 132782000000.0 304442000000.0 402366000000.0 456984000000.0 492768000000.0 525345000000.0 564131000000.0 608191000000.0 608525000000.0 425517000000.0 227684000000.0 1.82697e+12 1.04955e+12 590489000000.0 318593000000.0 147711000000.0 727830000000.0 617590000000.0 708894000000.0 530389000000.0 580431000000.0 499011000000.0 527681000000.0 537908000000.0 432851000000.0 334878000000.0 338786000000.0 9533500000.0 27078400000.0 69932000000.0 56663100000.0 407542000000.0 408042000000.0 422736000000.0 418468000000.0 426633000000.0 469111000000.0 553173000000.0 722933000000.0 869732000000.0 667855000000.0 673677000000.0 577544000000.0 678367000000.0 60111700000.0 119573000000.0 437965000000.0 755050000000.0 949400000000.0 1.01814e+12 986507000000.0 870266000000.0 700633000000.0 547749000000.0 520532000000.0 596213000000.0 712395000000.0 810156000000.0 693384000000.0 557024000000.0 432243000000.0 311144000000.0 190975000000.0 74167700000.0 35538400000.0 132908000000.0 218886000000.0 277451000000.0 336323000000.0 339233000000.0 322313000000.0 416339000000.0 705070000000.0 934824000000.0 884912000000.0 797832000000.0 583388000000.0 382717000000.0 177365000000.0 52843700000.0 225533000000.0 46608200000.0 62993500000.0 201085000000.0 325085000000.0 415615000000.0 479791000000.0 531530000000.0 586267000000.0 662509000000.0 769729000000.0 876957000000.0 350844000000.0 1.0897e+12 704028000000.0 556273000000.0 319407000000.0 1.13959e+12 725863000000.0 1.16014e+12 441185000000.0 705509000000.0 551144000000.0 480880000000.0 625668000000.0 471580000000.0 374844000000.0 343780000000.0 383920000000.0 370475000000.0 46164200000.0 78481500000.0 414428000000.0 425598000000.0 436381000000.0 425423000000.0 414015000000.0 441445000000.0 473143000000.0 675765000000.0 847230000000.0 1.00064e+12 822576000000.0 843394000000.0 1.43406e+12 437751000000.0 825101000000.0 1.04853e+12 1.10736e+12 1.07807e+12 986221000000.0 845536000000.0 692541000000.0 598826000000.0 591187000000.0 637529000000.0 696641000000.0 719442000000.0 629973000000.0 512551000000.0 393795000000.0 275609000000.0 159224000000.0 47706800000.0 54836700000.0 145677000000.0 218497000000.0 279040000000.0 307795000000.0 321039000000.0 379051000000.0 534780000000.0 731481000000.0 837958000000.0 778435000000.0 650059000000.0 456027000000.0 233188000000.0 263481000000.0 192667000000.0 142904000000.0 181124000000.0 276204000000.0 366520000000.0 438370000000.0 492691000000.0 535741000000.0 571877000000.0 591435000000.0 535900000000.0 24130700000.0 651454000000.0 1.15304e+12 878857000000.0 599257000000.0 53477300000.0 1.7494e+12 576117000000.0 1.54871e+12 753184000000.0 798049000000.0 560287000000.0 766880000000.0 623728000000.0 360513000000.0 336039000000.0 353602000000.0 433129000000.0 405809000000.0 430634000000.0 64281000000.0 81647200000.0 419197000000.0 464019000000.0 445654000000.0 463049000000.0 445040000000.0 436940000000.0 408771000000.0 420264000000.0 551986000000.0 674480000000.0 863969000000.0 726382000000.0 1.0961e+12 360158000000.0 820513000000.0 1.6277e+12 311246000000.0 971954000000.0 1.19329e+12 1.1887e+12 1.13162e+12 1.04657e+12 934211000000.0 805210000000.0 693818000000.0 630029000000.0 619933000000.0 642721000000.0 664841000000.0 649940000000.0 353433000000.0 240723000000.0 130111000000.0 25453400000.0 69400400000.0 150239000000.0 217362000000.0 264667000000.0 298800000000.0 348171000000.0 444518000000.0 579797000000.0 695915000000.0 721530000000.0 636665000000.0 487368000000.0 3232960000.0 173734000000.0 250062000000.0 250161000000.0 220910000000.0 221639000000.0 267280000000.0 336381000000.0 401112000000.0 452647000000.0 488317000000.0 505575000000.0 492804000000.0 412865000000.0 140180000000.0 567691000000.0 1.26815e+12 495506000000.0 1.10689e+12 180353000000.0 1.14774e+12 344002000000.0 196641000000.0 602249000000.0 363168000000.0 953926000000.0 719263000000.0 487854000000.0 286194000000.0 316934000000.0 409754000000.0 518461000000.0 485031000000.0 445912000000.0 77975500000.0 60292800000.0 81811500000.0 407072000000.0 418780000000.0 471025000000.0 489752000000.0 504867000000.0 475394000000.0 478642000000.0 404109000000.0 373877000000.0 436266000000.0 485687000000.0 1.1811e+12 530199000000.0 1.46133e+12 37705500000.0 871533000000.0 1.11141e+12 640265000000.0 1.23907e+12 1.16614e+12 1.10417e+12 1.04048e+12 961617000000.0 865726000000.0 767552000000.0 686589000000.0 638849000000.0 625242000000.0 570562000000.0 465345000000.0 379255000000.0 286684000000.0 77977300000.0 94808400000.0 200580000000.0 241676000000.0 250286000000.0 256049000000.0 282059000000.0 326857000000.0 377962000000.0 422357000000.0 1.08981e+12 1.26902e+12 217356000000.0 766442000000.0 724895000000.0 513624000000.0 1.38413e+12 277799000000.0 918407000000.0 508175000000.0 303378000000.0 124821000000.0 327227000000.0 468426000000.0 606265000000.0 522340000000.0 429609000000.0 34488000000.0 61286700000.0 75683400000.0 384235000000.0 466838000000.0 518118000000.0 550139000000.0 523356000000.0 534687000000.0 461394000000.0 444828000000.0 345889000000.0 343019000000.0 606563000000.0 1.06463e+12 89605600000.0 1.12118e+12 366092000000.0 1.36746e+12 698661000000.0 142712000000.0 705929000000.0 628711000000.0 624993000000.0 590627000000.0 515377000000.0 418935000000.0 314427000000.0 208041000000.0 104518000000.0 7777700000.0 78493000000.0 152403000000.0 211449000000.0 259256000000.0 309424000000.0 472535000000.0 566830000000.0 617914000000.0 589535000000.0 482014000000.0 322963000000.0 141210000000.0 20019200000.0 133477000000.0 201165000000.0 239356000000.0 265703000000.0 292571000000.0 453320000000.0 465300000000.0 450017000000.0 393947000000.0 278333000000.0 493579000000.0 791415000000.0 938915000000.0 849336000000.0 616647000000.0 712043000000.0 802907000000.0 365599000000.0 969636000000.0 307466000000.0 1.58505e+12 207694000000.0 68081000000.0 629098000000.0 662183000000.0 749460000000.0 631479000000.0 529383000000.0 455718000000.0 357064000000.0 7499130000.0 37665100000.0 346404000000.0 450476000000.0 521316000000.0 526444000000.0 582128000000.0 568568000000.0 597849000000.0 544375000000.0 548588000000.0 383992000000.0 360383000000.0 412032000000.0 661990000000.0 909513000000.0 393763000000.0 884696000000.0 933410000000.0 920570000000.0 871695000000.0 803179000000.0 730953000000.0 670950000000.0 633008000000.0 614777000000.0 603638000000.0 582502000000.0 537618000000.0 465046000000.0 375294000000.0 277793000000.0 178599000000.0 82549800000.0 6165230000.0 84857000000.0 151812000000.0 208597000000.0 261877000000.0 321204000000.0 391001000000.0 462987000000.0 514108000000.0 515458000000.0 451951000000.0 332960000000.0 186500000000.0 43867800000.0 70185200000.0 150913000000.0 207983000000.0 327079000000.0 366281000000.0 403125000000.0 430184000000.0 441579000000.0 431593000000.0 395974000000.0 341873000000.0 439269000000.0 604657000000.0 696279000000.0 654018000000.0 408460000000.0 566130000000.0 490633000000.0 822992000000.0 585857000000.0 753343000000.0 431427000000.0 845207000000.0 381662000000.0 27024200000.0 43271800000.0 564062000000.0 877534000000.0 670004000000.0 548939000000.0 350629000000.0 283897000000.0 203107000000.0 32094300000.0 14868500000.0 295383000000.0 353472000000.0 411495000000.0 491536000000.0 589820000000.0 656325000000.0 623407000000.0 652650000000.0 636076000000.0 705600000000.0 415713000000.0 454259000000.0 765183000000.0 1.34456e+12 693424000000.0 1.2369e+12 923179000000.0 802203000000.0 445770000000.0 659101000000.0 778418000000.0 828048000000.0 829030000000.0 797819000000.0 748998000000.0 696072000000.0 650327000000.0 617290000000.0 594245000000.0 572340000000.0 540409000000.0 489775000000.0 419032000000.0 334679000000.0 243839000000.0 152163000000.0 64158500000.0 16864500000.0 88775000000.0 151534000000.0 208118000000.0 263764000000.0 321841000000.0 379418000000.0 424396000000.0 437934000000.0 404690000000.0 323217000000.0 209881000000.0 90422200000.0 16009000000.0 251605000000.0 288674000000.0 323721000000.0 358692000000.0 391089000000.0 416211000000.0 429225000000.0 425987000000.0 405497000000.0 378519000000.0 419869000000.0 501833000000.0 543985000000.0 508040000000.0 398413000000.0 470539000000.0 519800000000.0 741173000000.0 407803000000.0 213736000000.0 421284000000.0 720737000000.0 188881000000.0 641442000000.0 819589000000.0 326818000000.0 62676300000.0 1.1839e+12 906001000000.0 841820000000.0 790394000000.0 538502000000.0 433369000000.0 245251000000.0 126305000000.0 74554700000.0 9853100000.0 1406860000.0 172160000000.0 229917000000.0 279994000000.0 429799000000.0 574735000000.0 657512000000.0 709008000000.0 718397000000.0 701357000000.0 796626000000.0 725471000000.0 410586000000.0 580086000000.0 764274000000.0 1.4131e+12 24054000000.0 753577000000.0 109060000000.0 438445000000.0 502722000000.0 447221000000.0 591757000000.0 694990000000.0 747060000000.0 757353000000.0 738603000000.0 703311000000.0 662794000000.0 625552000000.0 594593000000.0 567657000000.0 538492000000.0 499523000000.0 445429000000.0 376320000000.0 297128000000.0 213286000000.0 129309000000.0 48897500000.0 25154500000.0 91591200000.0 151144000000.0 206124000000.0 258633000000.0 307998000000.0 347859000000.0 366583000000.0 352139000000.0 299522000000.0 102228000000.0 169657000000.0 223967000000.0 270447000000.0 311638000000.0 348520000000.0 380971000000.0 406951000000.0 423471000000.0 428049000000.0 420565000000.0 408289000000.0 423836000000.0 460570000000.0 477441000000.0 443313000000.0 364093000000.0 369932000000.0 427568000000.0 603590000000.0 401678000000.0 456492000000.0 837767000000.0 1.12458e+12 1.04486e+12 486525000000.0 304439000000.0 246798000000.0 943658000000.0 817473000000.0 656985000000.0 467469000000.0 360013000000.0 305646000000.0 170645000000.0 143567000000.0 123584000000.0 108045000000.0 13510900000.0 135489000000.0 186019000000.0 352718000000.0 435247000000.0 525144000000.0 622045000000.0 737478000000.0 790090000000.0 776951000000.0 904480000000.0 944383000000.0 1.0747e+12 431711000000.0 535137000000.0 708589000000.0 581924000000.0 147408000000.0 203727000000.0 334214000000.0 162044000000.0 334415000000.0 421332000000.0 462725000000.0 570637000000.0 651533000000.0 694454000000.0 704748000000.0 691454000000.0 663867000000.0 630653000000.0 598001000000.0 567571000000.0 537425000000.0 503023000000.0 459324000000.0 403839000000.0 337432000000.0 263485000000.0 186166000000.0 216394000000.0 119458000000.0 24725800000.0 59001000000.0 130141000000.0 190948000000.0 244026000000.0 291143000000.0 332735000000.0 368546000000.0 397848000000.0 419340000000.0 431849000000.0 435702000000.0 435519000000.0 445695000000.0 464833000000.0 471262000000.0 445930000000.0 395334000000.0 380341000000.0 415058000000.0 579361000000.0 766162000000.0 227865000000.0 541740000000.0 722478000000.0 910757000000.0 1.05721e+12 1.06357e+12 1.07533e+12 919974000000.0 568457000000.0 1.26573e+12 805161000000.0 593766000000.0 231592000000.0 207916000000.0 48884900000.0 26584300000.0 45623000000.0 5532190000.0 62011100000.0 33380100000.0 18286300000.0 112036000000.0 126693000000.0 257228000000.0 343787000000.0 542995000000.0 722175000000.0 811796000000.0 743813000000.0 799407000000.0 1.06168e+12 1.23332e+12 527817000000.0 864876000000.0 542965000000.0 319742000000.0 752653000000.0 625687000000.0 496203000000.0 367897000000.0 415256000000.0 462444000000.0 506828000000.0 576404000000.0 630068000000.0 658893000000.0 664603000000.0 652338000000.0 628370000000.0 598794000000.0 568152000000.0 109256000000.0 35877000000.0 31877500000.0 93282000000.0 148865000000.0 199446000000.0 244657000000.0 281258000000.0 302532000000.0 299968000000.0 268247000000.0 209763000000.0 134084000000.0 53236500000.0 23901500000.0 93945900000.0 157007000000.0 214036000000.0 265475000000.0 311433000000.0 351649000000.0 385626000000.0 412918000000.0 433261000000.0 447154000000.0 457494000000.0 465034000000.0 510395000000.0 690488000000.0 1.06518e+12 118628000000.0 464234000000.0 739455000000.0 717553000000.0 788021000000.0 347019000000.0 736139000000.0 346615000000.0 256554000000.0 247655000000.0 245013000000.0 106692000000.0 93031300000.0 69298100000.0 34362500000.0 94643200000.0 43752800000.0 28123700000.0 85906900000.0 103288000000.0 111185000000.0 84656500000.0 118696000000.0 239754000000.0 409672000000.0 545438000000.0 656552000000.0 771843000000.0 861514000000.0 665744000000.0 964651000000.0 1.20623e+12 1.48074e+12 516028000000.0 605406000000.0 241173000000.0 337669000000.0 213654000000.0 669076000000.0 583417000000.0 507648000000.0 509703000000.0 523431000000.0 547956000000.0 586038000000.0 537492000000.0 504616000000.0 466629000000.0 420746000000.0 365547000000.0 302038000000.0 232998000000.0 161786000000.0 91499800000.0 24644400000.0 37167200000.0 93241300000.0 143424000000.0 187194000000.0 222568000000.0 245525000000.0 250663000000.0 233653000000.0 194189000000.0 137252000000.0 70997700000.0 2752050000.0 63251000000.0 125446000000.0 183473000000.0 237195000000.0 286270000000.0 471180000000.0 488773000000.0 500003000000.0 493520000000.0 471330000000.0 1.18766e+12 118175000000.0 436657000000.0 680817000000.0 793876000000.0 912174000000.0 949430000000.0 622979000000.0 235980000000.0 612830000000.0 253233000000.0 624580000000.0 204617000000.0 133626000000.0 119008000000.0 41815800000.0 3763780000.0 19333800000.0 102693000000.0 133192000000.0 14952000000.0 44701100000.0 52924900000.0 6712020000.0 47380100000.0 70078300000.0 112061000000.0 26233700000.0 319973000000.0 343543000000.0 655398000000.0 759587000000.0 892718000000.0 1.01499e+12 512703000000.0 718085000000.0 830276000000.0 789217000000.0 643586000000.0 166629000000.0 388094000000.0 545983000000.0 593150000000.0 616321000000.0 631299000000.0 630508000000.0 616761000000.0 594087000000.0 566503000000.0 536638000000.0 505102000000.0 470481000000.0 430640000000.0 383889000000.0 329728000000.0 269362000000.0 205122000000.0 139707000000.0 75647300000.0 14979400000.0 40866900000.0 90968800000.0 134472000000.0 169928000000.0 194751000000.0 205410000000.0 198701000000.0 173541000000.0 132203000000.0 79674700000.0 21408400000.0 38467800000.0 330271000000.0 368852000000.0 401817000000.0 429253000000.0 451843000000.0 471633000000.0 492298000000.0 514721000000.0 534620000000.0 546896000000.0 554042000000.0 573333000000.0 631715000000.0 796560000000.0 497360000000.0 663025000000.0 781191000000.0 887165000000.0 927300000000.0 845036000000.0 651779000000.0 230822000000.0 894065000000.0 505095000000.0 132442000000.0 59418000000.0 4489350000.0 48662000000.0 23745600000.0 153245000000.0 146898000000.0 18786700000.0 57962800000.0 41549700000.0 11805900000.0 108943000000.0 46371700000.0 225375000000.0 268912000000.0 512883000000.0 588498000000.0 904560000000.0 1.16493e+12 577695000000.0 563510000000.0 447150000000.0 744360000000.0 430073000000.0 102287000000.0 525687000000.0 745978000000.0 682188000000.0 609382000000.0 577173000000.0 566418000000.0 572231000000.0 588159000000.0 601162000000.0 605068000000.0 598418000000.0 582568000000.0 560013000000.0 533160000000.0 503579000000.0 471473000000.0 435754000000.0 394963000000.0 348284000000.0 295839000000.0 238866000000.0 179356000000.0 119507000000.0 61408300000.0 6821190000.0 42856300000.0 86412500000.0 122484000000.0 149217000000.0 164236000000.0 165179000000.0 150808000000.0 97462400000.0 154302000000.0 208291000000.0 258854000000.0 305415000000.0 347546000000.0 385153000000.0 418491000000.0 448282000000.0 475983000000.0 503854000000.0 533098000000.0 562518000000.0 590080000000.0 618102000000.0 658092000000.0 730034000000.0 874686000000.0 1.17366e+12 388065000000.0 768931000000.0 846022000000.0 898355000000.0 879090000000.0 771568000000.0 594852000000.0 533534000000.0 182829000000.0 751028000000.0 648388000000.0 303617000000.0 97605300000.0 39316000000.0 48765600000.0 63978600000.0 131273000000.0 3098600000.0 34487600000.0 58870100000.0 147007000000.0 50733800000.0 89917300000.0 192506000000.0 240378000000.0 451344000000.0 664158000000.0 799022000000.0 304147000000.0 277249000000.0 478702000000.0 362015000000.0 650156000000.0 152555000000.0 704722000000.0 785864000000.0 812996000000.0 730909000000.0 653218000000.0 608354000000.0 586111000000.0 579490000000.0 581040000000.0 582050000000.0 577538000000.0 566035000000.0 548153000000.0 525304000000.0 498815000000.0 469341000000.0 436758000000.0 400387000000.0 359433000000.0 313626000000.0 263452000000.0 210099000000.0 155268000000.0 100817000000.0 121995000000.0 81584400000.0 33325200000.0 19212000000.0 73323300000.0 127268000000.0 179924000000.0 230449000000.0 278140000000.0 322512000000.0 363396000000.0 401030000000.0 436113000000.0 469846000000.0 503822000000.0 539178000000.0 576001000000.0 614132000000.0 655843000000.0 708220000000.0 783395000000.0 902308000000.0 1.08218e+12 590611000000.0 572265000000.0 711719000000.0 844437000000.0 864503000000.0 841131000000.0 761731000000.0 761982000000.0 842921000000.0 929212000000.0 658460000000.0 312652000000.0 107473000000.0 37664200000.0 14087200000.0 93943100000.0 37316900000.0 72518800000.0 212775000000.0 123536000000.0 515208000000.0 610902000000.0 1.11354e+12 285219000000.0 214510000000.0 329725000000.0 143516000000.0 413219000000.0 617440000000.0 775656000000.0 824742000000.0 803538000000.0 728466000000.0 660249000000.0 614802000000.0 587443000000.0 572830000000.0 564909000000.0 557631000000.0 547223000000.0 532259000000.0 512845000000.0 489664000000.0 463265000000.0 433771000000.0 400964000000.0 48525800000.0 1630520.0 43319000000.0 80012300000.0 108523000000.0 127075000000.0 133914000000.0 127897000000.0 109110000000.0 79051000000.0 40232700000.0 4542380000.0 52798800000.0 102628000000.0 152646000000.0 201818000000.0 249325000000.0 294583000000.0 337336000000.0 377722000000.0 416326000000.0 454139000000.0 492348000000.0 531923000000.0 573465000000.0 617559000000.0 665783000000.0 721989000000.0 791980000000.0 879906000000.0 976068000000.0 720377000000.0 638179000000.0 844924000000.0 780835000000.0 801060000000.0 847201000000.0 834319000000.0 820482000000.0 780689000000.0 493963000000.0 1.02568e+12 986071000000.0 579251000000.0 279047000000.0 41384200000.0 18893500000.0 40868900000.0 56604100000.0 248136000000.0 196191000000.0 405477000000.0 486646000000.0 924221000000.0 978311000000.0 601773000000.0 337563000000.0 213173000000.0 354169000000.0 649557000000.0 583083000000.0 167134000000.0 561317000000.0 745218000000.0 794444000000.0 767167000000.0 705339000000.0 647135000000.0 603645000000.0 573836000000.0 554304000000.0 540493000000.0 527981000000.0 364459000000.0 323986000000.0 279666000000.0 232154000000.0 182573000000.0 132394000000.0 83236700000.0 36687200000.0 5765110000.0 42679800000.0 72597500000.0 94016200000.0 105508000000.0 106035000000.0 95313800000.0 74038300000.0 43785000000.0 6626330000.0 35336600000.0 80269900000.0 126689000000.0 173434000000.0 219608000000.0 264544000000.0 307868000000.0 349581000000.0 390084000000.0 875618000000.0 739613000000.0 589068000000.0 897828000000.0 742429000000.0 731149000000.0 775250000000.0 822409000000.0 809269000000.0 854133000000.0 784382000000.0 826560000000.0 880116000000.0 819387000000.0 293217000000.0 176031000000.0 71561400000.0 11322000000.0 375531000000.0 689572000000.0 709933000000.0 565559000000.0 20634900000.0 191958000000.0 133630000000.0 588080000000.0 228296000000.0 9480230000.0 388307000000.0 630043000000.0 738998000000.0 759262000000.0 726035000000.0 513802000000.0 496627000000.0 476253000000.0 452816000000.0 426377000000.0 396840000000.0 364032000000.0 327863000000.0 288413000000.0 246048000000.0 201503000000.0 155839000000.0 110351000000.0 66454400000.0 25565400000.0 10932600000.0 41664700000.0 65256100000.0 80421100000.0 86154300000.0 81965600000.0 68068100000.0 45394400000.0 15399100000.0 20239400000.0 59875100000.0 430130000000.0 470697000000.0 512672000000.0 556608000000.0 602915000000.0 652430000000.0 706827000000.0 767274000000.0 830429000000.0 868145000000.0 702304000000.0 653782000000.0 686764000000.0 777897000000.0 852300000000.0 795361000000.0 653799000000.0 741458000000.0 654978000000.0 836763000000.0 533837000000.0 62155100000.0 59660200000.0 484885000000.0 557266000000.0 362599000000.0 87381200000.0 325072000000.0 422711000000.0 573911000000.0 671740000000.0 619847000000.0 578465000000.0 548042000000.0 526073000000.0 508962000000.0 493421000000.0 477168000000.0 458919000000.0 438094000000.0 414474000000.0 387927000000.0 358375000000.0 325822000000.0 290399000000.0 252418000000.0 212402000000.0 171126000000.0 129569000000.0 88836500000.0 50128800000.0 14702800000.0 16159500000.0 41176100000.0 59128400000.0 68994800000.0 102052000000.0 145565000000.0 189461000000.0 233023000000.0 275781000000.0 317588000000.0 358640000000.0 399434000000.0 440706000000.0 483191000000.0 527353000000.0 573397000000.0 621322000000.0 670774000000.0 719775000000.0 760663000000.0 770905000000.0 680880000000.0 497285000000.0 601709000000.0 599903000000.0 666144000000.0 883067000000.0 763789000000.0 711165000000.0 646885000000.0 533129000000.0 470968000000.0 580448000000.0 325933000000.0 356270000000.0 656834000000.0 520624000000.0 388529000000.0 271716000000.0 182417000000.0 756658000000.0 163564000000.0 679821000000.0 722964000000.0 715611000000.0 676822000000.0 627007000000.0 580210000000.0 541788000000.0 512310000000.0 489837000000.0 471393000000.0 454474000000.0 437348000000.0 418733000000.0 397818000000.0 374174000000.0 347618000000.0 318191000000.0 286128000000.0 251800000000.0 215702000000.0 178455000000.0 140777000000.0 70127000000.0 62409900000.0 46321600000.0 22846600000.0 6715480000.0 40960600000.0 78545000000.0 118285000000.0 159203000000.0 200543000000.0 241774000000.0 282626000000.0 323108000000.0 363471000000.0 404180000000.0 445790000000.0 488621000000.0 532580000000.0 577103000000.0 620832000000.0 660424000000.0 687495000000.0 683633000000.0 612058000000.0 429117000000.0 798990000000.0 680247000000.0 794672000000.0 785908000000.0 625926000000.0 601240000000.0 730945000000.0 581252000000.0 458713000000.0 326766000000.0 298132000000.0 207132000000.0 198177000000.0 556245000000.0 637466000000.0 211887000000.0 241159000000.0 42544400000.0 447694000000.0 959321000000.0 462571000000.0 540162000000.0 619174000000.0 667173000000.0 677171000000.0 656293000000.0 617032000000.0 572074000000.0 530516000000.0 496103000000.0 468782000000.0 447032000000.0 428730000000.0 411676000000.0 394413000000.0 375876000000.0 355060000000.0 331443000000.0 304970000000.0 103485000000.0 67496400000.0 33810500000.0 3514690000.0 22212600000.0 42166300000.0 55260700000.0 60703100000.0 58133500000.0 47697400000.0 30023200000.0 6098030000.0 22912000000.0 55814000000.0 91490200000.0 128971000000.0 167481000000.0 206449000000.0 245513000000.0 284527000000.0 323538000000.0 362753000000.0 402470000000.0 442860000000.0 483715000000.0 524224000000.0 562465000000.0 594568000000.0 613001000000.0 603742000000.0 543560000000.0 376128000000.0 706158000000.0 658523000000.0 576994000000.0 530398000000.0 534236000000.0 661986000000.0 512634000000.0 579963000000.0 658792000000.0 259039000000.0 153794000000.0 59842600000.0 386446000000.0 494311000000.0 494264000000.0 91987500000.0 233334000000.0 294287000000.0 577404000000.0 694616000000.0 128288000000.0 408307000000.0 524478000000.0 588543000000.0 615114000000.0 611135000000.0 585436000000.0 548412000000.0 509006000000.0 473142000000.0 443403000000.0 419277000000.0 399132000000.0 275878000000.0 244631000000.0 211817000000.0 178064000000.0 144002000000.0 110230000000.0 77330100000.0 45966800000.0 16954800000.0 8730350000.0 29961500000.0 45559200000.0 54515300000.0 56218900000.0 50566300000.0 37937700000.0 19081000000.0 5039500000.0 33379600000.0 64919800000.0 98735600000.0 134045000000.0 170244000000.0 206914000000.0 243802000000.0 280789000000.0 528974000000.0 479220000000.0 334369000000.0 604113000000.0 625080000000.0 564503000000.0 491614000000.0 422452000000.0 740966000000.0 638756000000.0 554267000000.0 456780000000.0 627104000000.0 517949000000.0 447226000000.0 225421000000.0 243733000000.0 336834000000.0 412271000000.0 156345000000.0 384811000000.0 483863000000.0 530926000000.0 543813000000.0 532691000000.0 381604000000.0 365271000000.0 348547000000.0 330222000000.0 309518000000.0 285959000000.0 259639000000.0 231087000000.0 201028000000.0 170210000000.0 139323000000.0 108914000000.0 79337900000.0 50851200000.0 23819600000.0 1101250000.0 22913900000.0 40372700000.0 52225200000.0 57532500000.0 55913100000.0 47571400000.0 33124200000.0 317857000000.0 355075000000.0 392457000000.0 429674000000.0 465806000000.0 498961000000.0 525526000000.0 539087000000.0 500658000000.0 569932000000.0 543896000000.0 469575000000.0 344369000000.0 662166000000.0 604794000000.0 538712000000.0 406247000000.0 528632000000.0 409678000000.0 263985000000.0 61405600000.0 124393000000.0 444401000000.0 200639000000.0 235203000000.0 276313000000.0 499372000000.0 550780000000.0 163613000000.0 346023000000.0 506473000000.0 473440000000.0 440357000000.0 410814000000.0 385985000000.0 365172000000.0 346957000000.0 330678000000.0 315406000000.0 299509000000.0 281576000000.0 260858000000.0 237289000000.0 211275000000.0 183588000000.0 155158000000.0 126891000000.0 99468300000.0 73213000000.0 48042800000.0 23752100000.0 429629000.0 13401400000.0 10681000000.0 38209100000.0 68326700000.0 100275000000.0 133432000000.0 167332000000.0 201652000000.0 236164000000.0 270693000000.0 305097000000.0 339222000000.0 372694000000.0 404638000000.0 433357000000.0 455740000000.0 466682000000.0 458330000000.0 419406000000.0 300076000000.0 586879000000.0 486306000000.0 563380000000.0 476809000000.0 449791000000.0 424794000000.0 244144000000.0 110330000000.0 4424690000.0 125027000000.0 298624000000.0 172972000000.0 234680000000.0 299473000000.0 446120000000.0 404068000000.0 424177000000.0 457687000000.0 461665000000.0 446731000000.0 421998000000.0 394702000000.0 368959000000.0 345659000000.0 324633000000.0 306818000000.0 291470000000.0 276829000000.0 262263000000.0 246964000000.0 229362000000.0 208598000000.0 185005000000.0 159540000000.0 133208000000.0 107044000000.0 21274600000.0 40099000000.0 54434500000.0 62862100000.0 64651300000.0 59877100000.0 49131800000.0 33195200000.0 12908500000.0 10900400000.0 37459700000.0 66066500000.0 96104500000.0 127077000000.0 158611000000.0 190413000000.0 222201000000.0 253691000000.0 284584000000.0 314465000000.0 342571000000.0 367532000000.0 386963000000.0 396917000000.0 391713000000.0 363644000000.0 270164000000.0 401619000000.0 493995000000.0 494282000000.0 447384000000.0 301238000000.0 458550000000.0 519682000000.0 390880000000.0 346123000000.0 330141000000.0 35182200000.0 292451000000.0 384133000000.0 257192000000.0 117508000000.0 202983000000.0 273661000000.0 365697000000.0 271695000000.0 157350000000.0 297243000000.0 356378000000.0 376894000000.0 372923000000.0 356175000000.0 335358000000.0 314972000000.0 296108000000.0 278065000000.0 260551000000.0 245073000000.0 231981000000.0 219616000000.0 206128000000.0 190650000000.0 82013400000.0 58700200000.0 37045600000.0 16276700000.0 4439770000.0 25183700000.0 44894500000.0 61557600000.0 72959000000.0 77724800000.0 75818000000.0 68015100000.0 55170200000.0 38093200000.0 17549600000.0 5757100000.0 31194900000.0 58195200000.0 86261400000.0 114986000000.0 144031000000.0 173070000000.0 201739000000.0 229616000000.0 256212000000.0 280876000000.0 302661000000.0 319977000000.0 330069000000.0 328877000000.0 311303000000.0 242098000000.0 313141000000.0 408614000000.0 419870000000.0 382042000000.0 261267000000.0 507746000000.0 473009000000.0 393410000000.0 307385000000.0 247375000000.0 260481000000.0 212131000000.0 25485300000.0 13061400000.0 57949900000.0 230172000000.0 314093000000.0 263876000000.0 148059000000.0 249150000000.0 285896000000.0 291025000000.0 279557000000.0 263153000000.0 248699000000.0 236366000000.0 172741000000.0 152066000000.0 128983000000.0 104543000000.0 80111600000.0 56969800000.0 35952000000.0 17363900000.0 584787000.0 16220900000.0 34684100000.0 54672300000.0 73803500000.0 88489800000.0 96097700000.0 96409100000.0 90726300000.0 80177300000.0 65628200000.0 47789100000.0 27288200000.0 4686080000.0 238046000000.0 326661000000.0 345124000000.0 318021000000.0 226167000000.0 421483000000.0 400490000000.0 431192000000.0 396546000000.0 235903000000.0 170969000000.0 92785300000.0 1314240000.0 16704800000.0 15939400000.0 184811000000.0 260888000000.0 164383000000.0 204540000000.0 243241000000.0 281144000000.0 184809000000.0 132602000000.0 198821000000.0 224616000000.0 211107000000.0 194460000000.0 178213000000.0 167337000000.0 157860000000.0 145328000000.0 129400000000.0 111083000000.0 91021300000.0 69227900000.0 46663700000.0 25137200000.0 5876760000.0 10670400000.0 24324500000.0 36171000000.0 50162200000.0 69030700000.0 90931100000.0 110049000000.0 19510700000.0 44836400000.0 70879400000.0 97284400000.0 123708000000.0 149765000000.0 174983000000.0 198807000000.0 220608000000.0 239636000000.0 255135000000.0 265738000000.0 268881000000.0 261167000000.0 213758000000.0 262218000000.0 194986000000.0 292289000000.0 330711000000.0 333034000000.0 364891000000.0 311546000000.0 298011000000.0 66189300000.0 57208400000.0 216656000000.0 129390000000.0 168696000000.0 197143000000.0 201781000000.0 122130000000.0 209347000000.0 198376000000.0 183898000000.0 172190000000.0 167709000000.0 165718000000.0 157726000000.0 141472000000.0 121957000000.0 106961000000.0 97259300000.0 89189000000.0 76195400000.0 60146500000.0 44112100000.0 26352000000.0 6522120000.0 12983700000.0 29999700000.0 44741900000.0 57509800000.0 120890000000.0 122731000000.0 118244000000.0 109098000000.0 96296300000.0 80514500000.0 62284100000.0 42073900000.0 20315200000.0 2578880000.0 26215400000.0 50236900000.0 74304900000.0 98049600000.0 121016000000.0 142638000000.0 162273000000.0 179227000000.0 192943000000.0 203608000000.0 210536000000.0 211556000000.0 183489000000.0 174552000000.0 251102000000.0 274523000000.0 273281000000.0 268955000000.0 259720000000.0 215206000000.0 184289000000.0 129718000000.0 42158300000.0 11686500000.0 23098100000.0 148122000000.0 177948000000.0 158358000000.0 103971000000.0 123108000000.0 137372000000.0 118981000000.0 65928900000.0 109113000000.0 138414000000.0 120326000000.0 104642000000.0 96252400000.0 89266200000.0 96347200000.0 102901000000.0 90275900000.0 65887300000.0 44034800000.0 28790300000.0 20611000000.0 11650900000.0 5270640000.0 19138400000.0 28090300000.0 66583600000.0 73553300000.0 87674500000.0 112049000000.0 138057000000.0 153522000000.0 155950000000.0 151520000000.0 142787000000.0 130907000000.0 116483000000.0 99921500000.0 81580600000.0 61798000000.0 40912700000.0 19280800000.0 2746190000.0 24836700000.0 46651200000.0 67792800000.0 87758800000.0 105942000000.0 121676000000.0 134304000000.0 143789000000.0 152630000000.0 161058000000.0 150221000000.0 120439000000.0 181558000000.0 205302000000.0 205658000000.0 162315000000.0 213354000000.0 243079000000.0 192376000000.0 135441000000.0 131917000000.0 127771000000.0 79233900000.0 3229430000.0 13073700000.0 28360000000.0 88052400000.0 105235000000.0 129492000000.0 67507200000.0 54751700000.0 30389000000.0 28044400000.0 19867100000.0 8095760000.0 48154400000.0 21598400000.0 40444000000.0 56908100000.0 70932400000.0 81851900000.0 93825500000.0 105441000000.0 110405000000.0 113048000000.0 135447000000.0 172542000000.0 196213000000.0 197233000000.0 191280000000.0 181911000000.0 170183000000.0 156483000000.0 141013000000.0 123976000000.0 105620000000.0 86220200000.0 66076800000.0 45523700000.0 24898400000.0 73573800000.0 117777000000.0 136904000000.0 144511000000.0 124866000000.0 147422000000.0 171058000000.0 190200000000.0 200989000000.0 102680000000.0 77010000000.0 15086900000.0 14613600000.0 14335900000.0 15582400000.0 79334400000.0 94329200000.0 91202200000.0 67243400000.0 30766600000.0 84697700000.0 35498200000.0 9598430000.0 42644800000.0 62552600000.0 71381100000.0 83537900000.0 98077200000.0 105471000000.0 102104000000.0 107489000000.0 116031000000.0 119854000000.0 126817000000.0 141355000000.0 156255000000.0 159146000000.0 163203000000.0 212367000000.0 252830000000.0 247168000000.0 237489000000.0 4531210000.0 15228400000.0 33979200000.0 51251000000.0 66520400000.0 79198900000.0 88699000000.0 95517900000.0 107597000000.0 112632000000.0 72845800000.0 80851000000.0 80811100000.0 81615500000.0 104115000000.0 115144000000.0 119300000000.0 126627000000.0 83290300000.0 84885400000.0 10679300000.0 6322310000.0 27513400000.0 41817700000.0 58668700000.0 29130300000.0 38999900000.0 40683800000.0 32291700000.0 37360200000.0 19506900000.0 22950400000.0 30859700000.0 43886300000.0 71111800000.0 13129000000.0 12709600000.0 28211000000.0 82555600000.0 145734000000.0 164572000000.0 185192000000.0 196417000000.0 190315000000.0 186805000000.0 175795000000.0 166525000000.0 156117000000.0 154952000000.0 162955000000.0 183224000000.0 226614000000.0 214612000000.0 201264000000.0 186458000000.0 170226000000.0 152718000000.0 134166000000.0 114859000000.0 95121900000.0 75302000000.0 55754000000.0 36826000000.0 18848400000.0 2135800000.0 13013300000.0 26316700000.0 37437800000.0 45861000000.0 51634500000.0 68356900000.0 31424400000.0 59060200000.0 40481900000.0 39514500000.0 39365000000.0 13049700000.0 2925960000.0 410641000.0 248436000.0 83361200.0 36670200000.0 27285600000.0 7509760000.0 20826300000.0 27976100000.0 53603300000.0 61859100000.0 26898600000.0 15568800000.0 70042900000.0 211284000000.0 233783000000.0 261862000000.0 327161000000.0 301951000000.0 287609000000.0 275944000000.0 264272000000.0 251533000000.0 237319000000.0 221539000000.0 204320000000.0 185918000000.0 166643000000.0 146866000000.0 126994000000.0 107434000000.0 88567800000.0 70745200000.0 54247200000.0 39252400000.0 25745800000.0 13311400000.0 947944000.0 13049700000.0 30314700000.0 9168090000.0 189404000.0 10149000000.0 21462800000.0 33131000000.0 20776300000.0 36277800000.0 126072000000.0 160225000000.0 177944000000.0 182983000000.0 172372000000.0 137966000000.0 74416700000.0 2068960000.0 