# vtk DataFile Version 2.0
Time step 101
ASCII
DATASET UNSTRUCTURED_GRID
POINTS 4650 float
208862.0 264478.0 0
215441.0 264059.0 0
219256.0 265189.0 0
243824.0 265608.0 0
247248.0 263544.0 0
250757.0 265460.0 0
257707.0 265385.0 0
284477.0 265379.0 0
291234.0 265435.0 0
294664.0 263418.0 0
298003.0 265583.0 0
205421.0 266476.0 0
212295.0 266490.0 0
222945.0 266687.0 0
233480.0 267966.0 0
236862.0 265833.0 0
240411.0 267688.0 0
247335.0 267523.0 0
254253.0 267396.0 0
261178.0 267366.0 0
265156.0 267022.0 0
274786.0 266728.0 0
281063.0 267420.0 0
287849.0 267490.0 0
294595.0 267566.0 0
201997.0 268479.0 0
205437.0 270467.0 0
208868.0 268480.0 0
212321.0 270478.0 0
215737.0 268460.0 0
219618.0 269148.0 0
223257.0 270652.0 0
226548.0 268383.0 0
230125.0 270135.0 0
237027.0 269808.0 0
243928.0 269586.0 0
250828.0 269442.0 0
257720.0 269367.0 0
267252.0 270413.0 0
271337.0 268737.0 0
277680.0 269469.0 0
284458.0 269494.0 0
291219.0 269563.0 0
298005.0 269579.0 0
201997.0 272455.0 0
208883.0 272457.0 0
215790.0 272449.0 0
219714.0 273110.0 0
226807.0 272353.0 0
233671.0 271943.0 0
240550.0 271667.0 0
247425.0 271494.0 0
250893.0 273417.0 0
254294.0 271382.0 0
257731.0 273348.0 0
261159.0 271346.0 0
264554.0 273339.0 0
270551.0 272638.0 0
274287.0 271458.0 0
277722.0 273465.0 0
281090.0 271494.0 0
284482.0 273517.0 0
287845.0 271540.0 0
294618.0 271566.0 0
205435.0 274431.0 0
212337.0 274445.0 0
223400.0 274606.0 0
230340.0 274110.0 0
233880.0 275900.0 0
237200.0 273775.0 0
240700.0 275635.0 0
244047.0 273556.0 0
247517.0 275462.0 0
254332.0 275360.0 0
261133.0 275336.0 0
267846.0 275451.0 0
274378.0 275435.0 0
281124.0 275488.0 0
287874.0 275530.0 0
291241.0 273552.0 0
294628.0 275554.0 0
298006.0 273571.0 0
201996.0 276413.0 0
205411.0 278377.0 0
208867.0 276407.0 0
212284.0 278392.0 0
215795.0 276420.0 0
219728.0 277052.0 0
223418.0 278542.0 0
226999.0 276297.0 0
230586.0 278040.0 0
237382.0 277734.0 0
244169.0 277520.0 0
250958.0 277386.0 0
257739.0 277329.0 0
264469.0 277382.0 0
271139.0 277498.0 0
277782.0 277461.0 0
284515.0 277502.0 0
291259.0 277534.0 0
298007.0 277552.0 0
201994.0 280364.0 0
208795.0 280345.0 0
215704.0 280364.0 0
219605.0 280972.0 0
227350.0 280198.0 0
234098.0 279849.0 0
240850.0 279596.0 0
247610.0 279425.0 0
254370.0 279334.0 0
257753.0 281308.0 0
261105.0 279332.0 0
267802.0 279433.0 0
274489.0 279477.0 0
281171.0 279474.0 0
287898.0 279508.0 0
294636.0 279530.0 0
205377.0 282328.0 0
212121.0 282318.0 0
224195.0 282367.0 0
230861.0 281984.0 0
234314.0 283807.0 0
237562.0 281691.0 0
240992.0 283553.0 0
244286.0 281480.0 0
247698.0 283383.0 0
251024.0 281351.0 0
254412.0 283299.0 0
261117.0 283307.0 0
264457.0 281363.0 0
267817.0 283389.0 0
271159.0 281453.0 0
274521.0 283442.0 0
277851.0 281459.0 0
281212.0 283455.0 0
284548.0 281480.0 0
287917.0 283477.0 0
291272.0 281505.0 0
294642.0 283493.0 0
298008.0 281520.0 0
201992.0 284314.0 0
205346.0 286286.0 0
208718.0 284309.0 0
212023.0 286283.0 0
215403.0 284256.0 0
221134.0 284536.0 0
224566.0 286316.0 0
227683.0 284141.0 0
231110.0 285946.0 0
237729.0 285649.0 0
244394.0 285433.0 0
251086.0 285305.0 0
257783.0 285270.0 0
264478.0 285320.0 0
271180.0 285398.0 0
277878.0 285429.0 0
284571.0 285448.0 0
291282.0 285463.0 0
298009.0 285473.0 0
201990.0 288260.0 0
208665.0 288286.0 0
215047.0 288595.0 0
218198.0 286718.0 0
221502.0 288506.0 0
227952.0 288110.0 0
234503.0 287770.0 0
241118.0 287506.0 0
247777.0 287330.0 0
254457.0 287249.0 0
261144.0 287259.0 0
267839.0 287330.0 0
274539.0 287391.0 0
281230.0 287418.0 0
287929.0 287433.0 0
294646.0 287441.0 0
205315.0 290238.0 0
211837.0 290442.0 0
218343.0 290593.0 0
224826.0 290291.0 0
231313.0 289915.0 0
237870.0 289605.0 0
241219.0 291451.0 0
244486.0 289377.0 0
247840.0 291263.0 0
251142.0 289245.0 0
254496.0 291181.0 0
257816.0 289212.0 0
261168.0 291189.0 0
264501.0 289257.0 0
267855.0 291257.0 0
271197.0 289332.0 0
274547.0 291327.0 0
277890.0 289379.0 0
281235.0 291363.0 0
284581.0 289400.0 0
287932.0 291373.0 0
291287.0 289407.0 0
294647.0 291371.0 0
298009.0 289410.0 0
201988.0 292198.0 0
205289.0 294191.0 0
208575.0 292287.0 0
215128.0 292507.0 0
221672.0 292438.0 0
224992.0 294242.0 0
228151.0 292079.0 0
231467.0 293876.0 0
234654.0 291730.0 0
237978.0 293555.0 0
244555.0 293306.0 0
251183.0 293167.0 0
257840.0 293133.0 0
264516.0 293177.0 0
271204.0 293256.0 0
277890.0 293316.0 0
284579.0 293336.0 0
291285.0 293333.0 0
298009.0 293327.0 0
201987.0 296118.0 0
208604.0 296214.0 0
211880.0 294363.0 0
215244.0 296388.0 0
218477.0 294477.0 0
221829.0 296367.0 0
228299.0 296032.0 0
234764.0 295683.0 0
241288.0 295384.0 0
247882.0 295177.0 0
254517.0 295092.0 0
261177.0 295099.0 0
267858.0 295170.0 0
274544.0 295251.0 0
281229.0 295294.0 0
287925.0 295295.0 0
294644.0 295281.0 0
205307.0 298096.0 0
211962.0 298237.0 0
218648.0 298364.0 0
225157.0 298186.0 0
231575.0 297830.0 0
238047.0 297493.0 0
241321.0 299300.0 0
244593.0 297216.0 0
247895.0 299068.0 0
251202.0 297069.0 0
254511.0 298982.0 0
257842.0 297033.0 0
261160.0 298987.0 0
264510.0 297076.0 0
267840.0 299063.0 0
271196.0 297167.0 0
274527.0 299163.0 0
277879.0 297239.0 0
281211.0 299211.0 0
284567.0 297256.0 0
287912.0 299196.0 0
291278.0 297237.0 0
294640.0 299166.0 0
298010.0 297222.0 0
201987.0 299996.0 0
205331.0 301948.0 0
208657.0 300083.0 0
212041.0 302065.0 0
215362.0 300230.0 0
222087.0 300316.0 0
228414.0 299986.0 0
231643.0 301780.0 0
234831.0 299628.0 0
238074.0 301419.0 0
244595.0 301098.0 0
251188.0 300948.0 0
257809.0 300911.0 0
264474.0 300953.0 0
271167.0 301061.0 0
277855.0 301150.0 0
284548.0 301159.0 0
291267.0 301117.0 0
298010.0 301090.0 0
201987.0 303830.0 0
208702.0 303903.0 0
215453.0 304033.0 0
218791.0 302199.0 0
222227.0 304174.0 0
225644.0 302552.0 0
229064.0 304563.0 0
234858.0 303564.0 0
241311.0 303200.0 0
247873.0 302932.0 0
254466.0 302853.0 0
257729.0 304770.0 0
261100.0 302852.0 0
267789.0 302933.0 0
274491.0 303061.0 0
281186.0 303115.0 0
287895.0 303076.0 0
294635.0 303024.0 0
205350.0 305755.0 0
212097.0 305854.0 0
218876.0 305997.0 0
225770.0 306495.0 0
232490.0 306540.0 0
238062.0 305333.0 0
241252.0 307089.0 0
244555.0 304939.0 0
247811.0 306768.0 0
251136.0 304809.0 0
254374.0 306711.0 0
260981.0 306690.0 0
264390.0 304801.0 0
267684.0 306767.0 0
271106.0 304934.0 0
274431.0 306938.0 0
277820.0 305047.0 0
281163.0 307004.0 0
284527.0 305044.0 0
287885.0 306932.0 0
291258.0 304969.0 0
294633.0 306852.0 0
298010.0 304931.0 0
201988.0 307624.0 0
205358.0 309524.0 0
208730.0 307681.0 0
212122.0 309609.0 0
215504.0 307803.0 0
218914.0 309761.0 0
222294.0 307984.0 0
229176.0 308495.0 0
235932.0 308484.0 0
244470.0 308707.0 0
251023.0 308658.0 0
257604.0 308615.0 0
264215.0 308612.0 0
270990.0 308775.0 0
277788.0 308924.0 0
284522.0 308914.0 0
291260.0 308792.0 0
298011.0 308745.0 0
201987.0 311385.0 0
208736.0 311426.0 0
215518.0 311541.0 0
222324.0 311743.0 0
225878.0 310445.0 0
229278.0 312424.0 0
232597.0 310448.0 0
236033.0 312367.0 0
239385.0 310417.0 0
244099.0 312347.0 0
247642.0 310586.0 0
250875.0 312473.0 0
254245.0 310551.0 0
257461.0 312452.0 0
260818.0 310523.0 0
263995.0 312437.0 0
267408.0 310534.0 0
270480.0 312487.0 0
274368.0 310775.0 0
281168.0 310881.0 0
287899.0 310764.0 0
294644.0 310650.0 0
201986.0 315122.0 0
205354.0 313263.0 0
208715.0 315145.0 0
212115.0 313333.0 0
218917.0 313486.0 0
225975.0 314402.0 0
232703.0 314345.0 0
240685.0 314045.0 0
247445.0 314320.0 0
254114.0 314372.0 0
260652.0 314365.0 0
267100.0 314373.0 0
273446.0 314397.0 0
277794.0 312773.0 0
281249.0 314753.0 0
284564.0 312773.0 0
287982.0 314572.0 0
291295.0 312585.0 0
294682.0 314424.0 0
298013.0 312535.0 0
205338.0 316983.0 0
212064.0 317029.0 0
215494.0 315245.0 0
218878.0 317167.0 0
222326.0 315452.0 0
229385.0 316347.0 0
237377.0 315953.0 0
244058.0 316114.0 0
250751.0 316253.0 0
257334.0 316287.0 0
263797.0 316299.0 0
270140.0 316328.0 0
276340.0 316216.0 0
284735.0 316632.0 0
291400.0 316357.0 0
298017.0 316316.0 0
201984.0 318844.0 0
208673.0 318850.0 0
215391.0 318910.0 0
222282.0 319110.0 0
226062.0 318358.0 0
230918.0 319883.0 0
234122.0 317906.0 0
237518.0 319835.0 0
240757.0 317923.0 0
244116.0 319930.0 0
247408.0 318097.0 0
250720.0 320052.0 0
254020.0 318183.0 0
257253.0 320122.0 0
260522.0 318221.0 0
263675.0 320177.0 0
266897.0 318256.0 0
269971.0 320218.0 0
273142.0 318250.0 0
276141.0 320092.0 0
279212.0 317904.0 0
282185.0 319331.0 0
288209.0 318362.0 0
291580.0 320142.0 0
294754.0 318197.0 0
298022.0 320106.0 0
201982.0 322556.0 0
205314.0 320693.0 0
208620.0 322550.0 0
211986.0 320720.0 0
215266.0 322593.0 0
218675.0 320779.0 0
221827.0 322649.0 0
227759.0 321868.0 0
234325.0 321794.0 0
240884.0 321793.0 0
247451.0 321906.0 0
253994.0 322003.0 0
260453.0 322079.0 0
266804.0 322148.0 0
273044.0 322143.0 0
279186.0 321773.0 0
285340.0 320654.0 0
288577.0 322231.0 0
294850.0 321996.0 0
205284.0 324397.0 0
211901.0 324414.0 0
218497.0 324481.0 0
224972.0 324255.0 0
231178.0 323789.0 0
234565.0 325689.0 0
237702.0 323719.0 0
241052.0 325663.0 0
244227.0 323768.0 0
250755.0 323868.0 0
257233.0 323961.0 0
263628.0 324050.0 0
269929.0 324112.0 0
276142.0 323979.0 0
279271.0 325657.0 0
282327.0 323096.0 0
285573.0 324436.0 0
291791.0 323979.0 0
298028.0 323919.0 0
201980.0 326263.0 0
205252.0 328101.0 0
208558.0 326248.0 0
211805.0 328103.0 0
215155.0 326288.0 0
221755.0 326328.0 0
225044.0 328052.0 0
228202.0 325948.0 0
231498.0 327733.0 0
237920.0 327605.0 0
244380.0 327618.0 0
247547.0 325734.0 0
250838.0 327698.0 0
254024.0 325831.0 0
257263.0 327800.0 0
260444.0 325931.0 0
263637.0 327908.0 0
266795.0 326027.0 0
269970.0 327993.0 0
273070.0 326036.0 0
276221.0 327887.0 0
282506.0 326716.0 0
288784.0 326037.0 0
291918.0 327812.0 0
294942.0 325833.0 0
298032.0 327752.0 0
201978.0 329969.0 0
208495.0 329946.0 0
215037.0 329949.0 0
218422.0 328152.0 0
221724.0 329986.0 0
228354.0 329796.0 0
234827.0 329593.0 0
241254.0 329536.0 0
247684.0 329575.0 0
254099.0 329665.0 0
260477.0 329775.0 0
266825.0 329882.0 0
273164.0 329933.0 0
279332.0 329618.0 0
282675.0 330181.0 0
285767.0 328126.0 0
288911.0 329815.0 0
294988.0 329677.0 0
205223.0 331806.0 0
211713.0 331790.0 0
218251.0 331765.0 0
225064.0 331773.0 0
231700.0 331592.0 0
238162.0 331490.0 0
241485.0 333409.0 0
244567.0 331476.0 0
247854.0 333425.0 0
250960.0 331537.0 0
257329.0 331638.0 0
263673.0 331751.0 0
270011.0 331844.0 0
276366.0 331867.0 0
285872.0 331782.0 0
291963.0 331637.0 0
298034.0 331580.0 0
201976.0 333670.0 0
205202.0 335510.0 0
208442.0 333650.0 0
211636.0 335492.0 0
214905.0 333620.0 0
218053.0 335431.0 0
221407.0 333547.0 0
224447.0 335291.0 0
228471.0 333544.0 0
231895.0 335368.0 0
235062.0 333451.0 0
238417.0 335352.0 0
244784.0 335339.0 0
251110.0 335383.0 0
254204.0 333505.0 0
257416.0 335479.0 0
260533.0 333614.0 0
263711.0 335588.0 0
266853.0 333721.0 0
270007.0 335688.0 0
273180.0 333799.0 0
276228.0 335851.0 0
279340.0 334108.0 0
282684.0 333529.0 0
285757.0 335420.0 0
288911.0 333583.0 0
291931.0 335428.0 0
294993.0 333503.0 0
298035.0 335380.0 0
201975.0 337362.0 0
208408.0 337356.0 0
214801.0 337327.0 0
221147.0 337221.0 0
227439.0 336956.0 0
230406.0 338580.0 0
235316.0 337254.0 0
241745.0 337277.0 0
248053.0 337282.0 0
254331.0 337352.0 0
260595.0 337455.0 0
266859.0 337561.0 0
273092.0 337692.0 0
279215.0 338073.0 0
282434.0 336940.0 0
288794.0 337293.0 0
294967.0 337285.0 0
201975.0 341032.0 0
205194.0 339203.0 0
208403.0 341055.0 0
211595.0 339206.0 0
214766.0 341051.0 0
217936.0 339147.0 0
221064.0 340936.0 0
224224.0 338967.0 0
227301.0 340658.0 0
233381.0 340182.0 0
238710.0 339188.0 0
242051.0 341146.0 0
245034.0 339206.0 0
248279.0 341150.0 0
251283.0 339241.0 0
254468.0 341214.0 0
257512.0 339329.0 0
263741.0 339432.0 0
269958.0 339549.0 0
276108.0 339780.0 0
282264.0 340512.0 0
285541.0 339005.0 0
288647.0 340937.0 0
291847.0 339155.0 0
294925.0 341006.0 0
298034.0 339135.0 0
205201.0 342874.0 0
211607.0 342915.0 0
217932.0 342872.0 0
224202.0 342677.0 0
230390.0 342316.0 0
233500.0 343958.0 0
236391.0 341786.0 0
239452.0 343436.0 0
245327.0 343084.0 0
251467.0 343116.0 0
257610.0 343193.0 0
260656.0 341307.0 0
263761.0 343288.0 0
266844.0 341414.0 0
269904.0 343416.0 0
273001.0 341579.0 0
276017.0 343659.0 0
279112.0 341957.0 0
285404.0 342602.0 0
291758.0 342819.0 0
298032.0 342838.0 0
201975.0 344670.0 0
208432.0 344728.0 0
214809.0 344767.0 0
221108.0 344651.0 0
224302.0 346382.0 0
227355.0 344373.0 0
230525.0 346044.0 0
236624.0 345612.0 0
242562.0 345170.0 0
248519.0 345042.0 0
254607.0 345093.0 0
260714.0 345174.0 0
266828.0 345277.0 0
272934.0 345444.0 0
279062.0 345765.0 0
282198.0 344175.0 0
285342.0 346223.0 0
288550.0 344557.0 0
294885.0 344670.0 0
201976.0 348261.0 0
205223.0 346503.0 0
208492.0 348355.0 0
211671.0 346598.0 0
214915.0 348463.0 0
218016.0 346586.0 0
221238.0 348354.0 0
227512.0 348077.0 0
233701.0 347714.0 0
239749.0 347312.0 0
242847.0 349100.0 0
245671.0 347039.0 0
248765.0 348975.0 0
251653.0 347014.0 0
254745.0 348992.0 0
257707.0 347074.0 0
263782.0 347157.0 0
269867.0 347276.0 0
275970.0 347488.0 0
282167.0 347856.0 0
288504.0 348166.0 0
291702.0 346446.0 0
294862.0 348295.0 0
298031.0 346494.0 0
205258.0 350075.0 0
211779.0 350242.0 0
218164.0 350286.0 0
224477.0 350074.0 0
227731.0 351771.0 0
230730.0 349762.0 0
233937.0 351464.0 0
236865.0 349413.0 0
239993.0 351173.0 0
245919.0 350980.0 0
251835.0 350937.0 0
257803.0 350971.0 0
260772.0 349054.0 0
263811.0 351031.0 0
266823.0 349140.0 0
269854.0 351121.0 0
272900.0 349281.0 0
275953.0 351277.0 0
279042.0 349525.0 0
285317.0 349848.0 0
291677.0 350049.0 0
298031.0 350116.0 0
201977.0 351799.0 0
205299.0 353575.0 0
208576.0 351918.0 0
211914.0 353833.0 0
215070.0 352135.0 0
218358.0 353978.0 0
221425.0 352042.0 0
224708.0 353751.0 0
230983.0 353475.0 0
237106.0 353216.0 0
243078.0 353008.0 0
248969.0 352912.0 0
254880.0 352909.0 0
260836.0 352944.0 0
266837.0 352998.0 0
272894.0 353089.0 0
279042.0 353247.0 0
282160.0 351527.0 0
285317.0 353463.0 0
288490.0 351764.0 0
291675.0 353634.0 0
294855.0 351895.0 0
298031.0 353720.0 0
302245.0 354162.0 0
201976.0 355285.0 0
208650.0 355396.0 0
215248.0 355786.0 0
221659.0 355714.0 0
228013.0 355451.0 0
234200.0 355222.0 0
237358.0 357030.0 0
240224.0 355031.0 0
243291.0 356909.0 0
246127.0 354909.0 0
249148.0 356848.0 0
251998.0 354869.0 0
255008.0 356833.0 0
257902.0 354878.0 0
260911.0 356837.0 0
263855.0 354904.0 0
269865.0 354947.0 0
275959.0 355031.0 0
282171.0 355178.0 0
288499.0 355348.0 0
294861.0 355483.0 0
201972.0 358761.0 0
205269.0 357001.0 0
208523.0 358760.0 0
212009.0 357348.0 0
215365.0 359405.0 0
218577.0 357673.0 0
222050.0 359328.0 0
225032.0 357398.0 0
228373.0 359127.0 0
231285.0 357192.0 0
234489.0 358996.0 0
240453.0 358898.0 0
246316.0 358834.0 0
252148.0 358805.0 0
258006.0 358790.0 0
263919.0 358773.0 0
266873.0 356845.0 0
269902.0 358756.0 0
272911.0 356870.0 0
275982.0 358757.0 0
279057.0 356938.0 0
282193.0 358802.0 0
285336.0 357060.0 0
288526.0 358917.0 0
291693.0 357211.0 0
294879.0 359071.0 0
298032.0 357327.0 0
205194.0 360436.0 0
208353.0 362193.0 0
211622.0 360687.0 0
214294.0 362582.0 0
219123.0 361286.0 0
225482.0 361034.0 0
231627.0 360930.0 0
237617.0 360862.0 0
243493.0 360815.0 0
249312.0 360784.0 0
255135.0 360759.0 0
261004.0 360726.0 0
266937.0 360679.0 0
272951.0 360630.0 0
279084.0 360600.0 0
285366.0 360632.0 0
291726.0 360778.0 0
298033.0 360946.0 0
302175.0 362246.0 0
201967.0 362264.0 0
205112.0 363906.0 0
211297.0 364399.0 0
217130.0 363912.0 0
222662.0 362937.0 0
228790.0 362834.0 0
231986.0 364707.0 0
234791.0 362798.0 0
237873.0 364721.0 0
240678.0 362779.0 0
243686.0 364730.0 0
246493.0 362763.0 0
249466.0 364720.0 0
252290.0 362739.0 0
255267.0 364679.0 0
258123.0 362697.0 0
264013.0 362632.0 0
267038.0 364501.0 0
269969.0 362548.0 0
273018.0 364374.0 0
276021.0 362459.0 0
279113.0 364237.0 0
282223.0 362396.0 0
285398.0 364167.0 0
288568.0 362462.0 0
291771.0 364322.0 0
294907.0 362661.0 0
298034.0 364578.0 0
201956.0 365812.0 0
204855.0 367386.0 0
208231.0 365634.0 0
214314.0 366158.0 0
217633.0 367451.0 0
220251.0 365121.0 0
223423.0 366744.0 0
226009.0 364728.0 0
229222.0 366601.0 0
235085.0 366638.0 0
240891.0 366680.0 0
246659.0 366696.0 0
252433.0 366667.0 0
258258.0 366590.0 0
261123.0 364604.0 0
264147.0 366475.0 0
270080.0 366330.0 0
276076.0 366150.0 0
282229.0 365953.0 0
288586.0 365962.0 0
294923.0 366266.0 0
201955.0 369504.0 0
207754.0 368724.0 0
211345.0 368139.0 0
214870.0 369569.0 0
220845.0 368868.0 0
226564.0 368542.0 0
232328.0 368538.0 0
238110.0 368609.0 0
243865.0 368658.0 0
249618.0 368654.0 0
255413.0 368584.0 0
261278.0 368461.0 0
267195.0 368309.0 0
273128.0 368117.0 0
279138.0 367865.0 0
282203.0 369486.0 0
285363.0 367647.0 0
288471.0 369414.0 0
291743.0 367844.0 0
294890.0 369876.0 0
298034.0 368299.0 0
204944.0 371052.0 0
209287.0 371180.0 0
212484.0 371794.0 0
218204.0 371014.0 0
221368.0 372603.0 0
223964.0 370553.0 0
226996.0 372402.0 0
229633.0 370451.0 0
232629.0 372427.0 0
235351.0 370519.0 0
238318.0 372524.0 0
241085.0 370601.0 0
244032.0 372593.0 0
246818.0 370632.0 0
252585.0 370583.0 0
258423.0 370457.0 0
261476.0 372284.0 0
264333.0 370293.0 0
267420.0 372096.0 0
270259.0 370109.0 0
273321.0 371879.0 0
276166.0 369853.0 0
279175.0 371515.0 0
285256.0 371108.0 0
291466.0 371312.0 0
298018.0 372147.0 0
198100.0 373662.0 0
201992.0 373230.0 0
207026.0 373421.0 0
210255.0 374482.0 0
215681.0 373166.0 0
218819.0 374692.0 0
224392.0 374387.0 0
229950.0 374352.0 0
235575.0 374437.0 0
241256.0 374535.0 0
246973.0 374564.0 0
249772.0 372579.0 0
252755.0 374475.0 0
255583.0 372463.0 0
258629.0 374288.0 0
264569.0 374073.0 0
270533.0 373882.0 0
276352.0 373607.0 0
282162.0 373011.0 0
285099.0 374600.0 0
288192.0 372895.0 0
290894.0 374836.0 0
294261.0 373228.0 0
299539.0 375559.0 0
197018.0 379139.0 0
199747.0 377417.0 0
202499.0 377082.0 0
204732.0 375281.0 0
207910.0 376832.0 0
213293.0 375459.0 0
216335.0 376834.0 0
221824.0 376406.0 0
227304.0 376303.0 0
232858.0 376353.0 0
238494.0 376459.0 0
244187.0 376531.0 0
249939.0 376485.0 0
255791.0 376304.0 0
261726.0 376065.0 0
267693.0 375842.0 0
270832.0 377604.0 0
273670.0 375665.0 0
276852.0 377447.0 0
279306.0 375245.0 0
282144.0 376553.0 0
287760.0 376517.0 0
293165.0 376927.0 0
296224.0 375478.0 0
297911.0 378558.0 0
301448.0 378201.0 0
194258.0 380864.0 0
197500.0 382037.0 0
200358.0 380144.0 0
203333.0 380780.0 0
205556.0 378856.0 0
210946.0 378019.0 0
213868.0 379082.0 0
219297.0 378457.0 0
222072.0 380297.0 0
224684.0 378284.0 0
227500.0 380232.0 0
230167.0 378282.0 0
233006.0 380294.0 0
235743.0 378375.0 0
238630.0 380398.0 0
241408.0 378474.0 0
247135.0 378484.0 0
252960.0 378328.0 0
256058.0 380092.0 0
258890.0 378073.0 0
262038.0 379806.0 0
264860.0 377816.0 0
268008.0 379563.0 0
273981.0 379358.0 0
280158.0 379186.0 0
284646.0 378171.0 0
286991.0 380211.0 0
290102.0 378642.0 0
295034.0 379252.0 0
300448.0 380879.0 0
303881.0 379707.0 0
306517.0 381351.0 0
188465.0 384481.0 0
191404.0 382646.0 0
194533.0 383803.0 0
200664.0 383127.0 0
203722.0 384205.0 0
206417.0 382498.0 0
208601.0 380406.0 0
211448.0 381668.0 0
216781.0 380530.0 0
219413.0 382332.0 0
224845.0 382197.0 0
230285.0 382226.0 0
235852.0 382312.0 0
241536.0 382405.0 0
244337.0 380459.0 0
247312.0 382377.0 0
250135.0 380356.0 0
253222.0 382124.0 0
259222.0 381807.0 0
262416.0 383516.0 0
265203.0 381535.0 0
271149.0 381310.0 0
274274.0 383049.0 0
277146.0 381076.0 0
280175.0 382846.0 0
283313.0 381229.0 0
289316.0 382614.0 0
292195.0 380857.0 0
297422.0 381721.0 0
300224.0 383911.0 0
303300.0 382612.0 0
306139.0 384357.0 0
309297.0 383087.0 0
185459.0 386358.0 0
191479.0 385636.0 0
194488.0 386756.0 0
197638.0 385008.0 0
200710.0 386131.0 0
209603.0 384187.0 0
214170.0 382603.0 0
216539.0 384309.0 0
222168.0 384160.0 0
227573.0 384170.0 0
233075.0 384232.0 0
238725.0 384325.0 0
244487.0 384365.0 0
250379.0 384164.0 0
256405.0 383815.0 0
259643.0 385496.0 0
265579.0 385254.0 0
268351.0 383279.0 0
271471.0 385031.0 0
277317.0 384809.0 0
282992.0 384795.0 0
286209.0 383550.0 0
291658.0 384691.0 0
294541.0 382950.0 0
297299.0 385015.0 0
303098.0 385745.0 0
308988.0 386094.0 0
312107.0 384840.0 0
315030.0 386662.0 0
182441.0 388244.0 0
185271.0 389427.0 0
188365.0 387504.0 0
191273.0 388619.0 0
194188.0 389691.0 0
197477.0 387981.0 0
200434.0 389081.0 0
203722.0 387454.0 0
206793.0 385925.0 0
209865.0 387693.0 0
212899.0 385624.0 0
216194.0 387548.0 0
219352.0 386028.0 0
222041.0 387976.0 0
224847.0 386107.0 0
227519.0 388088.0 0
230303.0 386162.0 0
233064.0 388149.0 0
235896.0 386233.0 0
238765.0 388221.0 0
241648.0 386314.0 0
247530.0 386219.0 0
253581.0 385836.0 0
256881.0 387470.0 0
262830.0 387230.0 0
268701.0 387013.0 0
274539.0 386801.0 0
280231.0 386655.0 0
285754.0 386735.0 0
288805.0 386576.0 0
291788.0 388305.0 0
294476.0 386453.0 0
297360.0 388474.0 0
300137.0 387145.0 0
302787.0 388969.0 0
305916.0 387456.0 0
308959.0 389106.0 0
311979.0 387809.0 0
315107.0 389577.0 0
318104.0 388578.0 0
176532.0 391942.0 0
179468.0 390106.0 0
182300.0 391387.0 0
188119.0 390548.0 0
190983.0 391639.0 0
197078.0 390956.0 0
199935.0 392008.0 0
203279.0 390606.0 0
206604.0 389243.0 0
210999.0 390762.0 0
213394.0 388996.0 0
216193.0 391178.0 0
219057.0 389615.0 0
224678.0 389968.0 0
230223.0 390065.0 0
235872.0 390123.0 0
241711.0 390167.0 0
244663.0 388226.0 0
247837.0 389962.0 0
250727.0 387864.0 0
251423.0 391352.0 0
254136.0 389433.0 0
257393.0 391154.0 0
260102.0 389198.0 0
263240.0 390978.0 0
265956.0 388997.0 0
269029.0 390778.0 0
271775.0 388787.0 0
274811.0 390580.0 0
277541.0 388619.0 0
280549.0 390466.0 0
283117.0 388555.0 0
286444.0 389848.0 0
289480.0 390499.0 0
292747.0 391849.0 0
294892.0 389863.0 0
299646.0 390621.0 0
302867.0 391986.0 0
305903.0 390437.0 0
309207.0 392058.0 0
312149.0 390768.0 0
318401.0 391401.0 0
321335.0 390596.0 0
173618.0 393765.0 0
179379.0 393302.0 0
182254.0 394583.0 0
185171.0 392578.0 0
188092.0 393712.0 0
191076.0 394828.0 0
193861.0 392681.0 0
196707.0 394044.0 0
199336.0 395078.0 0
202418.0 393946.0 0
205444.0 392810.0 0
208334.0 391764.0 0
213529.0 392830.0 0
218833.0 393374.0 0
221732.0 391727.0 0
224371.0 393758.0 0
227341.0 391951.0 0
232974.0 392029.0 0
238737.0 392079.0 0
244808.0 391974.0 0
248866.0 393292.0 0
254703.0 393087.0 0
260540.0 392948.0 0
266320.0 392779.0 0
272057.0 392562.0 0
277869.0 392377.0 0
283805.0 392119.0 0
287099.0 393289.0 0
290417.0 394073.0 0
296640.0 392484.0 0
299996.0 393765.0 0
303442.0 394959.0 0
306274.0 393331.0 0
312651.0 393657.0 0
315509.0 392446.0 0
319005.0 394163.0 0
321824.0 393344.0 0
324695.0 392702.0 0
328078.0 394809.0 0
167730.0 397443.0 0
170688.0 395596.0 0
173610.0 396953.0 0
176513.0 395156.0 0
179432.0 396563.0 0
185175.0 395761.0 0
188148.0 396872.0 0
194148.0 395890.0 0
197313.0 397589.0 0
201085.0 397317.0 0
204375.0 396301.0 0
207522.0 395288.0 0
210596.0 394290.0 0
213053.0 396479.0 0
216025.0 395007.0 0
221400.0 395552.0 0
227074.0 395738.0 0
230059.0 393917.0 0
232822.0 395870.0 0
235772.0 393978.0 0
238611.0 395902.0 0
241696.0 393953.0 0
243746.0 396628.0 0
246337.0 395027.0 0
249429.0 396931.0 0
252088.0 395026.0 0
255170.0 396855.0 0
257844.0 394902.0 0
263619.0 394766.0 0
269360.0 394580.0 0
275069.0 394321.0 0
278113.0 395985.0 0
281106.0 394073.0 0
284502.0 395704.0 0
288094.0 396667.0 0
291680.0 397324.0 0
294052.0 394871.0 0
297426.0 395836.0 0
300828.0 396917.0 0
306964.0 396161.0 0
309808.0 394935.0 0
313329.0 396522.0 0
316166.0 395259.0 0
319621.0 396954.0 0
322531.0 396087.0 0
325365.0 395539.0 0
328560.0 397788.0 0
331331.0 396848.0 0
164692.0 399338.0 0
170672.0 398758.0 0
173636.0 400156.0 0
176552.0 398390.0 0
179516.0 399832.0 0
182398.0 397840.0 0
185465.0 399000.0 0
188713.0 400099.0 0
191164.0 397966.0 0
194177.0 398811.0 0
199502.0 400077.0 0
203187.0 399540.0 0
206574.0 398646.0 0
209851.0 397685.0 0
215513.0 398723.0 0
218511.0 397231.0 0
224024.0 397517.0 0
229842.0 397709.0 0
235603.0 397813.0 0
241028.0 398188.0 0
246674.0 398692.0 0
252455.0 398776.0 0
258199.0 398703.0 0
260912.0 396739.0 0
263945.0 398575.0 0
266663.0 396587.0 0
269700.0 398391.0 0
272385.0 396362.0 0
275422.0 398086.0 0
281126.0 397495.0 0
283826.0 398988.0 0
286733.0 399589.0 0
295110.0 398219.0 0
298483.0 399153.0 0
304255.0 397955.0 0
307701.0 399018.0 0
310510.0 397831.0 0
313822.0 399543.0 0
316692.0 398178.0 0
319738.0 399969.0 0
322749.0 399063.0 0
325684.0 398457.0 0
331717.0 399946.0 0
334496.0 398833.0 0
161651.0 401239.0 0
164484.0 402458.0 0
167544.0 400544.0 0
170361.0 401840.0 0
176641.0 401648.0 0
182533.0 401045.0 0
185728.0 402084.0 0
192148.0 401214.0 0
196094.0 400900.0 0
205429.0 401830.0 0
208892.0 400977.0 0
212275.0 399944.0 0
217984.0 401036.0 0
220979.0 399453.0 0
223653.0 401169.0 0
226799.0 399462.0 0
229628.0 401468.0 0
232626.0 399681.0 0
238221.0 399886.0 0
243840.0 400349.0 0
249657.0 400630.0 0
255447.0 400642.0 0
261205.0 400550.0 0
266975.0 400394.0 0
272757.0 400157.0 0
278455.0 399725.0 0
281395.0 401315.0 0
284591.0 402445.0 0
289886.0 400074.0 0
293146.0 400784.0 0
296473.0 401625.0 0
299825.0 402509.0 0
301835.0 400121.0 0
305142.0 401046.0 0
308382.0 401979.0 0
311050.0 400896.0 0
316676.0 401350.0 0
322859.0 402047.0 0
325875.0 401407.0 0
328843.0 400783.0 0
331847.0 403111.0 0
334695.0 402103.0 0
337526.0 400729.0 0
340550.0 402620.0 0
155607.0 405019.0 0
158623.0 403133.0 0
161466.0 404387.0 0
167296.0 403715.0 0
170075.0 405064.0 0
173116.0 403160.0 0
175732.0 404491.0 0
179703.0 403141.0 0
183048.0 404190.0 0
188890.0 403085.0 0
191767.0 404229.0 0
194805.0 403701.0 0
198367.0 403188.0 0
201827.0 402465.0 0
207707.0 404148.0 0
211249.0 403265.0 0
214701.0 402248.0 0
217108.0 404634.0 0
220460.0 403414.0 0
223488.0 404514.0 0
226607.0 403106.0 0
232336.0 403511.0 0
235328.0 401707.0 0
238108.0 403744.0 0
240988.0 402007.0 0
243902.0 404077.0 0
246787.0 402379.0 0
249756.0 404348.0 0
252632.0 402529.0 0
255600.0 404420.0 0
258429.0 402504.0 0
261417.0 404353.0 0
264211.0 402380.0 0
267234.0 404177.0 0
270027.0 402178.0 0
273122.0 403918.0 0
275840.0 401873.0 0
278931.0 403551.0 0
287882.0 402973.0 0
291205.0 403511.0 0
294546.0 404211.0 0
297910.0 405007.0 0
303207.0 403403.0 0
306662.0 404229.0 0
310516.0 404409.0 0
313612.0 402895.0 0
316649.0 404453.0 0
319767.0 402938.0 0
322651.0 405094.0 0
325754.0 404454.0 0
328813.0 403829.0 0
334699.0 405458.0 0
337605.0 403950.0 0
343739.0 404603.0 0
152595.0 406903.0 0
155478.0 408197.0 0
158470.0 406301.0 0
161340.0 407598.0 0
164307.0 405654.0 0
167139.0 406980.0 0
172797.0 406467.0 0
178118.0 405861.0 0
180911.0 406596.0 0
183852.0 407552.0 0
186330.0 405288.0 0
189568.0 406445.0 0
193219.0 406974.0 0
196856.0 406136.0 0
200525.0 405541.0 0
204095.0 404849.0 0
206372.0 407229.0 0
209993.0 406471.0 0
213581.0 405602.0 0
219319.0 407212.0 0
226137.0 406798.0 0
229275.0 405278.0 0
235129.0 405512.0 0
241019.0 405782.0 0
246859.0 406106.0 0
252722.0 406286.0 0
258577.0 406294.0 0
264427.0 406172.0 0
270282.0 405923.0 0
276285.0 405618.0 0
282200.0 404939.0 0
285644.0 405776.0 0
289150.0 406270.0 0
292599.0 406871.0 0
296032.0 407576.0 0
301299.0 405825.0 0
304736.0 406585.0 0
308313.0 406973.0 0
311473.0 407647.0 0
313746.0 406075.0 0
316259.0 407771.0 0
319469.0 405937.0 0
325329.0 407574.0 0
328411.0 406981.0 0
331514.0 406255.0 0
338348.0 406896.0 0
340989.0 405660.0 0
343999.0 407736.0 0
346829.0 406539.0 0
146539.0 410688.0 0
149575.0 408791.0 0
152477.0 410082.0 0
158371.0 409519.0 0
164215.0 408915.0 0
167091.0 410310.0 0
169943.0 408423.0 0
172682.0 409935.0 0
175432.0 407956.0 0
178330.0 409149.0 0
181280.0 409961.0 0
186865.0 408584.0 0
189992.0 409457.0 0
192751.0 410070.0 0
195879.0 409177.0 0
199265.0 408534.0 0
202804.0 407924.0 0
208546.0 409630.0 0
212170.0 408871.0 0
215768.0 408058.0 0
222672.0 407571.0 0
228725.0 409062.0 0
232017.0 407276.0 0
235111.0 409179.0 0
238098.0 407495.0 0
241063.0 409545.0 0
243965.0 407835.0 0
249818.0 408103.0 0
255694.0 408198.0 0
261575.0 408139.0 0
267466.0 407948.0 0
273350.0 407603.0 0
276424.0 409175.0 0
279635.0 407210.0 0
283264.0 408409.0 0
287019.0 408959.0 0
290605.0 409540.0 0
299482.0 408329.0 0
302983.0 409053.0 0
306590.0 409582.0 0
310093.0 410196.0 0
313827.0 410038.0 0
319215.0 408819.0 0
322279.0 408173.0 0
330417.0 409660.0 0
333322.0 408938.0 0
336083.0 408400.0 0
338582.0 410517.0 0
341201.0 408961.0 0
347000.0 409693.0 0
349893.0 408456.0 0
352970.0 410380.0 0
143477.0 412602.0 0
149457.0 411963.0 0
152381.0 413297.0 0
155386.0 411415.0 0
158301.0 412777.0 0
161271.0 410855.0 0
164185.0 412210.0 0
169935.0 411877.0 0
175544.0 411319.0 0
178502.0 412417.0 0
184314.0 410892.0 0
187517.0 411865.0 0
190768.0 412891.0 0
194461.0 412481.0 0
197872.0 411701.0 0
201365.0 411026.0 0
204939.0 410357.0 0
210573.0 412119.0 0
214143.0 411419.0 0
217668.0 410733.0 0
221128.0 410483.0 0
225021.0 410260.0 0
229125.0 412504.0 0
232070.0 410810.0 0
238144.0 411222.0 0
243980.0 411630.0 0
246904.0 409882.0 0
249857.0 411893.0 0
252785.0 410065.0 0
255772.0 411987.0 0
258685.0 410077.0 0
261701.0 411913.0 0
264606.0 409943.0 0
267681.0 411696.0 0
270541.0 409674.0 0
273650.0 411340.0 0
279336.0 410592.0 0
282208.0 411545.0 0
285388.0 411742.0 0
288796.0 412271.0 0
294117.0 410183.0 0
297619.0 410871.0 0
301156.0 411548.0 0
304767.0 412121.0 0
308362.0 412683.0 0
312090.0 412901.0 0
317179.0 411058.0 0
320891.0 411334.0 0
324181.0 410826.0 0
327338.0 410270.0 0
332669.0 412335.0 0
335643.0 411701.0 0
341241.0 412412.0 0
344095.0 410974.0 0
347086.0 412885.0 0
350039.0 411599.0 0
353177.0 413489.0 0
356094.0 412331.0 0
140379.0 414537.0 0
143331.0 415735.0 0
146412.0 413845.0 0
149350.0 415168.0 0
155310.0 414669.0 0
158246.0 416069.0 0
161229.0 414140.0 0
164191.0 415506.0 0
167120.0 413663.0 0
170077.0 415351.0 0
172803.0 413391.0 0
175734.0 414706.0 0
181493.0 413242.0 0
184565.0 414070.0 0
187621.0 415069.0 0
190340.0 416174.0 0
193214.0 415500.0 0
196531.0 414942.0 0
199897.0 414214.0 0
203400.0 413512.0 0
206984.0 412814.0 0
212386.0 414767.0 0
215840.0 414177.0 0
219222.0 413751.0 0
222670.0 413412.0 0
226025.0 413471.0 0
232447.0 414401.0 0
235238.0 412839.0 0
241037.0 413345.0 0
246908.0 413689.0 0
252836.0 413863.0 0
258785.0 413867.0 0
264748.0 413693.0 0
270816.0 413402.0 0
276732.0 412989.0 0
279903.0 414231.0 0
283438.0 414758.0 0
286897.0 415086.0 0
292262.0 412852.0 0
295761.0 413473.0 0
299304.0 414095.0 0
302912.0 414662.0 0
306548.0 415196.0 0
310265.0 415568.0 0
315461.0 413428.0 0
319109.0 413841.0 0
322799.0 413885.0 0
326206.0 413477.0 0
329498.0 412927.0 0
331817.0 415535.0 0
335137.0 414996.0 0
338235.0 413944.0 0
341014.0 415715.0 0
344113.0 414257.0 0
347340.0 416027.0 0
350258.0 414730.0 0
356340.0 415420.0 0
359254.0 414305.0 0
134033.0 418503.0 0
137234.0 416502.0 0
140200.0 417641.0 0
146294.0 417032.0 0
149266.0 418408.0 0
152293.0 416545.0 0
155236.0 417956.0 0
161203.0 417439.0 0
167232.0 416960.0 0
173008.0 416886.0 0
175982.0 418129.0 0
178739.0 415725.0 0
181839.0 416502.0 0
185024.0 417319.0 0
198199.0 417503.0 0
201723.0 416721.0 0
205308.0 416011.0 0
208871.0 415379.0 0
214007.0 417589.0 0
217357.0 417148.0 0
220667.0 416792.0 0
223863.0 416644.0 0
226953.0 416650.0 0
229790.0 415892.0 0
235158.0 416711.0 0
238079.0 415034.0 0
240909.0 417170.0 0
243931.0 415447.0 0
246879.0 417504.0 0
249874.0 415701.0 0
255846.0 415787.0 0
261830.0 415694.0 0
264915.0 417455.0 0
267827.0 415402.0 0
270912.0 417049.0 0
274023.0 415087.0 0
277399.0 416776.0 0
281203.0 417453.0 0
290382.0 415590.0 0
293889.0 416144.0 0
297433.0 416708.0 0
301029.0 417242.0 0
304666.0 417746.0 0
308363.0 418163.0 0
313846.0 416066.0 0
317470.0 416423.0 0
321158.0 416585.0 0
324824.0 416505.0 0
328380.0 416050.0 0
334194.0 418093.0 0
337784.0 417361.0 0
341490.0 418674.0 0
344404.0 417347.0 0
350511.0 417903.0 0
353425.0 416626.0 0
356621.0 418537.0 0
359543.0 417367.0 0
362451.0 416303.0 0
365661.0 418311.0 0
130774.0 420540.0 0
137008.0 419576.0 0
140015.0 420754.0 0
143187.0 418888.0 0
146191.0 420240.0 0
152248.0 419836.0 0
158173.0 419389.0 0
161109.0 420720.0 0
164227.0 418758.0 0
167373.0 420126.0 0
170293.0 418869.0 0
173238.0 420454.0 0
179111.0 419012.0 0
182309.0 419719.0 0
185640.0 420469.0 0
188221.0 418689.0 0
191610.0 419070.0 0
194785.0 418231.0 0
199962.0 419928.0 0
203573.0 419194.0 0
207110.0 418628.0 0
210587.0 418100.0 0
218982.0 420171.0 0
222347.0 419951.0 0
225714.0 419858.0 0
229120.0 419465.0 0
232270.0 418301.0 0
237848.0 418910.0 0
243833.0 419253.0 0
249877.0 419512.0 0
252877.0 417672.0 0
255912.0 419592.0 0
258891.0 417665.0 0
261985.0 419479.0 0
268041.0 419143.0 0
273934.0 418606.0 0
276553.0 420164.0 0
279677.0 420337.0 0
284894.0 417936.0 0
288454.0 418370.0 0
291994.0 418870.0 0
295549.0 419386.0 0
299139.0 419883.0 0
302764.0 420353.0 0
306432.0 420775.0 0
312034.0 418624.0 0
315759.0 419021.0 0
319525.0 419306.0 0
323221.0 419355.0 0
326979.0 419027.0 0
330620.0 418596.0 0
338966.0 420336.0 0
344636.0 420556.0 0
347582.0 419217.0 0
350808.0 421099.0 0
353708.0 419794.0 0
359808.0 420467.0 0
362753.0 419372.0 0
368868.0 420317.0 0
127468.0 422607.0 0
130445.0 423589.0 0
133751.0 421556.0 0
136769.0 422650.0 0
139820.0 423865.0 0
143048.0 422050.0 0
146105.0 423457.0 0
149212.0 421672.0 0
152252.0 423154.0 0
155236.0 421306.0 0
158231.0 422805.0 0
164075.0 421907.0 0
167110.0 422983.0 0
170409.0 422484.0 0
176411.0 421505.0 0
179604.0 422290.0 0
182890.0 422852.0 0
186308.0 423229.0 0
189445.0 421957.0 0
193143.0 421803.0 0
196397.0 420816.0 0
201814.0 422329.0 0
205312.0 421855.0 0
208767.0 421401.0 0
212196.0 420951.0 0
215598.0 420530.0 0
224268.0 423015.0 0
227903.0 422744.0 0
231493.0 422031.0 0
234756.0 420658.0 0
237468.0 422726.0 0
240709.0 420958.0 0
246831.0 421311.0 0
252911.0 421493.0 0
258985.0 421461.0 0
265155.0 421215.0 0
271176.0 420826.0 0
274039.0 422601.0 0
283082.0 420748.0 0
286594.0 421201.0 0
290122.0 421651.0 0
293675.0 422122.0 0
297258.0 422586.0 0
300868.0 423028.0 0
304504.0 423440.0 0
310106.0 421187.0 0
313836.0 421570.0 0
317626.0 421863.0 0
321512.0 422186.0 0
325398.0 421918.0 0
329124.0 421605.0 0
332658.0 421238.0 0
336016.0 420761.0 0
341741.0 422073.0 0
345081.0 423745.0 0
347921.0 422410.0 0
353922.0 423045.0 0
356854.0 421716.0 0
359986.0 423614.0 0
362988.0 422479.0 0
365953.0 421412.0 0
369133.0 423463.0 0
372059.0 422314.0 0
124128.0 424696.0 0
127107.0 425670.0 0
133470.0 424613.0 0
136538.0 425729.0 0
142895.0 425205.0 0
149184.0 424944.0 0
155325.0 424681.0 0
158432.0 426276.0 0
161251.0 424111.0 0
164409.0 425178.0 0
167996.0 425660.0 0
171288.0 425811.0 0
173869.0 423940.0 0
177137.0 424937.0 0
180616.0 425496.0 0
184234.0 425835.0 0
188078.0 425536.0 0
191477.0 424861.0 0
195138.0 424553.0 0
198212.0 423119.0 0
203353.0 425046.0 0
206826.0 424663.0 0
210300.0 424261.0 0
213773.0 423862.0 0
217246.0 423495.0 0
220731.0 423208.0 0
230189.0 425450.0 0
234028.0 424493.0 0
240565.0 424618.0 0
243738.0 423020.0 0
246731.0 425134.0 0
249850.0 423317.0 0
252930.0 425307.0 0
255998.0 423405.0 0
259152.0 425293.0 0
262085.0 423234.0 0
265187.0 424865.0 0
268469.0 422871.0 0
271639.0 425319.0 0
277630.0 423391.0 0
281146.0 423669.0 0
284680.0 424056.0 0
288234.0 424481.0 0
291799.0 424911.0 0
295386.0 425343.0 0
308147.0 423832.0 0
311796.0 424193.0 0
315419.0 424542.0 0
318895.0 424800.0 0
322026.0 425305.0 0
324989.0 424938.0 0
328170.0 424635.0 0
331526.0 424357.0 0
334954.0 423943.0 0
338463.0 423573.0 0
342172.0 425038.0 0
348128.0 425749.0 0
351014.0 424398.0 0
354015.0 426393.0 0
356980.0 424974.0 0
363134.0 425618.0 0
366158.0 424550.0 0
372289.0 425505.0 0
375230.0 424298.0 0
378388.0 426273.0 0
117402.0 428905.0 0
120767.0 426798.0 0
123753.0 427786.0 0
126793.0 428751.0 0
130140.0 426649.0 0
133220.0 427680.0 0
136344.0 428816.0 0
139638.0 426982.0 0
142755.0 428375.0 0
145978.0 426664.0 0
149048.0 428185.0 0
152304.0 426466.0 0
155510.0 428031.0 0
161593.0 427471.0 0
165068.0 428158.0 0
168411.0 428610.0 0
174777.0 427626.0 0
178402.0 428154.0 0
182130.0 428474.0 0
185992.0 428436.0 0
189752.0 428182.0 0
193358.0 427716.0 0
197067.0 427484.0 0
199864.0 425371.0 0
200963.0 428054.0 0
204651.0 427835.0 0
208254.0 427500.0 0
211822.0 427135.0 0
215379.0 426775.0 0
218945.0 426449.0 0
222560.0 426166.0 0
226296.0 425868.0 0
234521.0 428117.0 0
237332.0 426326.0 0
243565.0 426788.0 0
249780.0 427090.0 0
256090.0 427180.0 0
262375.0 427078.0 0
268216.0 426212.0 0
275350.0 426020.0 0
279091.0 426578.0 0
282719.0 426938.0 0
286318.0 427332.0 0
289914.0 427739.0 0
293517.0 428145.0 0
298994.0 425761.0 0
302620.0 426158.0 0
306258.0 426542.0 0
309905.0 426904.0 0
313536.0 427274.0 0
317109.0 427685.0 0
320481.0 428130.0 0
323940.0 428221.0 0
327169.0 427911.0 0
330367.0 427622.0 0
333551.0 427265.0 0
336653.0 426838.0 0
339628.0 426524.0 0
342302.0 428480.0 0
345194.0 427054.0 0
348117.0 429150.0 0
351082.0 427805.0 0
356997.0 428307.0 0
360064.0 426787.0 0
363206.0 428767.0 0
366286.0 427716.0 0
369311.0 426649.0 0
372440.0 428741.0 0
375425.0 427519.0 0
381566.0 428260.0 0
114043.0 431007.0 0
120397.0 429927.0 0
123446.0 430901.0 0
129883.0 429727.0 0
133021.0 430759.0 0
139500.0 430114.0 0
142668.0 431571.0 0
145863.0 429912.0 0
148928.0 431518.0 0
152092.0 429674.0 0
155073.0 431107.0 0
158813.0 429792.0 0
162459.0 430629.0 0
165981.0 431287.0 0
171657.0 428796.0 0
176450.0 430974.0 0
191371.0 430948.0 0
194989.0 430643.0 0
198591.0 430631.0 0
202419.0 430818.0 0
206135.0 430633.0 0
209785.0 430339.0 0
213404.0 430013.0 0
217008.0 429689.0 0
220615.0 429380.0 0
224236.0 429073.0 0
227823.0 428768.0 0
231230.0 428604.0 0
240245.0 428229.0 0
243379.0 430516.0 0
246579.0 428990.0 0
252906.0 429112.0 0
259364.0 429103.0 0
265723.0 428721.0 0
269941.0 428862.0 0
273431.0 428856.0 0
277081.0 429355.0 0
280767.0 429816.0 0
284408.0 430202.0 0
288032.0 430593.0 0
297131.0 428541.0 0
300758.0 428921.0 0
304395.0 429289.0 0
308045.0 429640.0 0
311704.0 429997.0 0
315371.0 430399.0 0
319034.0 430943.0 0
322558.0 431187.0 0
326026.0 431184.0 0
329349.0 430937.0 0
332624.0 430624.0 0
335813.0 430199.0 0
339012.0 429688.0 0
341781.0 431667.0 0
345083.0 430459.0 0
351031.0 431264.0 0
354007.0 429832.0 0
356944.0 431721.0 0
360064.0 429944.0 0
366356.0 430899.0 0
369421.0 429868.0 0
375559.0 430785.0 0
378574.0 429478.0 0
381745.0 431464.0 0
384764.0 430261.0 0
110704.0 433098.0 0
113730.0 434244.0 0
117051.0 432083.0 0
120113.0 433089.0 0
123221.0 434049.0 0
126545.0 431856.0 0
129691.0 432823.0 0
132883.0 433847.0 0
136204.0 431909.0 0
139416.0 433256.0 0
145817.0 433226.0 0
151939.0 433043.0 0
157616.0 432846.0 0
160577.0 433332.0 0
163822.0 433995.0 0
169522.0 431638.0 0
173158.0 431386.0 0
180088.0 431213.0 0
183872.0 431273.0 0
187653.0 431188.0 0
196516.0 433693.0 0
200183.0 433648.0 0
207682.0 433467.0 0
211361.0 433202.0 0
215012.0 432909.0 0
218646.0 432615.0 0
222271.0 432327.0 0
225876.0 432057.0 0
229447.0 431859.0 0
233064.0 431565.0 0
236656.0 430990.0 0
240050.0 431510.0 0
245937.0 433168.0 0
249650.0 430784.0 0
252839.0 432963.0 0
256128.0 430846.0 0
259474.0 432861.0 0
262772.0 430845.0 0
267783.0 431680.0 0
271597.0 432018.0 0
275211.0 432264.0 0
278861.0 432679.0 0
282523.0 433090.0 0
291653.0 430982.0 0
295279.0 431360.0 0
298911.0 431724.0 0
302549.0 432075.0 0
306197.0 432408.0 0
309856.0 432734.0 0
313537.0 433072.0 0
317281.0 433457.0 0
321178.0 434124.0 0
324707.0 434298.0 0
328211.0 434202.0 0
331672.0 433910.0 0
335066.0 433580.0 0
338324.0 432935.0 0
341225.0 434723.0 0
344688.0 433697.0 0
347934.0 432557.0 0
353977.0 433345.0 0
360026.0 433018.0 0
363232.0 431902.0 0
369516.0 433110.0 0
372544.0 432016.0 0
378664.0 432709.0 0
384933.0 433493.0 0
387976.0 432272.0 0
391189.0 434285.0 0
107395.0 435171.0 0
110446.0 436404.0 0
116810.0 435302.0 0
119931.0 436293.0 0
126369.0 434988.0 0
129556.0 435934.0 0
136119.0 435001.0 0
139382.0 436403.0 0
142636.0 434775.0 0
145824.0 436589.0 0
148900.0 434976.0 0
151934.0 436548.0 0
154860.0 434636.0 0
158188.0 436191.0 0
167342.0 434382.0 0
171021.0 434442.0 0
174601.0 434302.0 0
178099.0 434131.0 0
181784.0 434174.0 0
185520.0 434154.0 0
189246.0 434039.0 0
192912.0 433846.0 0
203958.0 433652.0 0
212965.0 436093.0 0
216637.0 435831.0 0
220291.0 435567.0 0
223926.0 435316.0 0
227547.0 435096.0 0
231191.0 434847.0 0
234835.0 434506.0 0
238362.0 434443.0 0
242270.0 434213.0 0
249385.0 434192.0 0
256199.0 434312.0 0
262720.0 434434.0 0
266199.0 434695.0 0
269802.0 434985.0 0
273447.0 435314.0 0
277056.0 435630.0 0
280689.0 436005.0 0
286168.0 433473.0 0
289806.0 433848.0 0
293443.0 434214.0 0
297083.0 434566.0 0
300725.0 434903.0 0
304371.0 435220.0 0
308021.0 435519.0 0
311678.0 435807.0 0
315360.0 436077.0 0
319100.0 436345.0 0
323406.0 437423.0 0
334159.0 436827.0 0
337738.0 436383.0 0
344439.0 436787.0 0
347751.0 435893.0 0
350847.0 434698.0 0
353620.0 436812.0 0
356979.0 435251.0 0
360309.0 435845.0 0
363401.0 434965.0 0
366470.0 434071.0 0
369399.0 436442.0 0
372492.0 435381.0 0
375562.0 434128.0 0
378602.0 435948.0 0
381806.0 434680.0 0
384977.0 436733.0 0
388127.0 435553.0 0
394395.0 436293.0 0
100891.0 439249.0 0
104123.0 437222.0 0
107209.0 438554.0 0
113553.0 437531.0 0
116699.0 438574.0 0
119876.0 439549.0 0
123086.0 437236.0 0
126269.0 438152.0 0
129475.0 439068.0 0
132781.0 436934.0 0
136040.0 438071.0 0
142654.0 437959.0 0
148877.0 438555.0 0
155254.0 437890.0 0
161448.0 436817.0 0
165027.0 437162.0 0
168739.0 437332.0 0
172440.0 437362.0 0
176086.0 437280.0 0
179711.0 437176.0 0
183402.0 437154.0 0
187110.0 437095.0 0
190796.0 436981.0 0
194442.0 436839.0 0
198090.0 436708.0 0
201787.0 436618.0 0
205540.0 436527.0 0
209268.0 436336.0 0
221942.0 438554.0 0
225590.0 438339.0 0
229235.0 438117.0 0
232866.0 437869.0 0
236433.0 437701.0 0
240047.0 437489.0 0
243554.0 437416.0 0
246950.0 436996.0 0
250572.0 437373.0 0
253991.0 437143.0 0
257653.0 437443.0 0
261040.0 437547.0 0
264555.0 437845.0 0
268103.0 438077.0 0
271688.0 438353.0 0
284337.0 436383.0 0
287984.0 436746.0 0
291631.0 437100.0 0
295280.0 437441.0 0
298930.0 437767.0 0
302580.0 438075.0 0
306228.0 438360.0 0
309872.0 438623.0 0
313509.0 438853.0 0
326957.0 437382.0 0
330568.0 437119.0 0
341071.0 437616.0 0
347291.0 439149.0 0
350690.0 438269.0 0
356171.0 438577.0 0
359370.0 438516.0 0
362934.0 438178.0 0
366214.0 437345.0 0
372239.0 438826.0 0
375380.0 437575.0 0
378410.0 439128.0 0
381741.0 437883.0 0
388162.0 438843.0 0
391319.0 437627.0 0
397574.0 438286.0 0
97698.5 441253.0 0
104019.0 440687.0 0
107208.0 441992.0 0
110352.0 439765.0 0
113535.0 440876.0 0
116746.0 441904.0 0
123076.0 440474.0 0
126297.0 441369.0 0
132702.0 440028.0 0
135941.0 441131.0 0
139288.0 439535.0 0
142494.0 441015.0 0
145891.0 440003.0 0
151908.0 439898.0 0
155258.0 440823.0 0
158789.0 439667.0 0
162608.0 439957.0 0
166414.0 440173.0 0
170189.0 440294.0 0
173926.0 440320.0 0
177621.0 440271.0 0
181296.0 440205.0 0
184989.0 440162.0 0
188678.0 440091.0 0
192348.0 439983.0 0
196009.0 439845.0 0
199686.0 439703.0 0
203401.0 439571.0 0
207147.0 439430.0 0
210880.0 439237.0 0
214590.0 439015.0 0
218277.0 438783.0 0
230889.0 441183.0 0
234488.0 441013.0 0
238082.0 440840.0 0
241636.0 440730.0 0
245199.0 440566.0 0
248648.0 440491.0 0
252248.0 440592.0 0
255738.0 440598.0 0
259293.0 440828.0 0
262810.0 440995.0 0
266375.0 441226.0 0
275299.0 438664.0 0
278913.0 438985.0 0
282545.0 439332.0 0
286192.0 439679.0 0
289845.0 440018.0 0
293504.0 440347.0 0
297165.0 440663.0 0
300826.0 440963.0 0
304487.0 441241.0 0
308144.0 441495.0 0
317133.0 439044.0 0
320737.0 439100.0 0
325852.0 440612.0 0
329392.0 440325.0 0
332965.0 440046.0 0
336569.0 439726.0 0
339991.0 440240.0 0
343774.0 439931.0 0
350097.0 441551.0 0
353693.0 440741.0 0
357933.0 441398.0 0
361710.0 441104.0 0
365424.0 440572.0 0
368905.0 439767.0 0
375108.0 441156.0 0
378401.0 442103.0 0
381694.0 441033.0 0
384947.0 439965.0 0
387993.0 442177.0 0
391260.0 441005.0 0
394459.0 439716.0 0
397558.0 441791.0 0
400727.0 440265.0 0
403860.0 442232.0 0
94546.9 443233.0 0
97766.6 444895.0 0
100872.0 442798.0 0
104112.0 444203.0 0
110438.0 443185.0 0
113699.0 444281.0 0
119976.0 442863.0 0
123217.0 443768.0 0
126463.0 444634.0 0
129539.0 442256.0 0
132815.0 443182.0 0
136155.0 444269.0 0
139098.0 442728.0 0
142004.0 444033.0 0
145419.0 443225.0 0
148986.0 442362.0 0
152696.0 443103.0 0
157009.0 443151.0 0
160501.0 442856.0 0
164210.0 443038.0 0
167967.0 443195.0 0
171727.0 443289.0 0
175467.0 443315.0 0
179180.0 443291.0 0
182876.0 443249.0 0
186570.0 443203.0 0
190254.0 443129.0 0
193925.0 443009.0 0
197599.0 442853.0 0
201296.0 442685.0 0
205024.0 442522.0 0
208773.0 442355.0 0
212514.0 442168.0 0
216232.0 441970.0 0
219926.0 441771.0 0
223597.0 441576.0 0
227252.0 441382.0 0
269951.0 441459.0 0
273547.0 441727.0 0
277160.0 442023.0 0
280786.0 442331.0 0
284428.0 442652.0 0
288083.0 442972.0 0
291749.0 443286.0 0
295422.0 443588.0 0
299099.0 443877.0 0
311792.0 441718.0 0
315423.0 441899.0 0
319042.0 441996.0 0
322690.0 441604.0 0
328294.0 443621.0 0
331797.0 443310.0 0
335338.0 443007.0 0
338838.0 443063.0 0
342593.0 442844.0 0
346410.0 442319.0 0
356346.0 443901.0 0
360340.0 443933.0 0
364221.0 443552.0 0
368002.0 442965.0 0
371630.0 442176.0 0
377693.0 444914.0 0
381297.0 444255.0 0
384677.0 443256.0 0
390958.0 444414.0 0
394299.0 443171.0 0
400642.0 443847.0 0
406955.0 444178.0 0
85524.7 448875.0 0
91443.8 445188.0 0
94715.4 446989.0 0
101060.0 446396.0 0
107395.0 445486.0 0
110710.0 446659.0 0
116981.0 445294.0 0
120282.0 446239.0 0
123600.0 447128.0 0
129705.0 445473.0 0
132933.0 446307.0 0
136171.0 447141.0 0
139503.0 446299.0 0
143570.0 446497.0 0
147211.0 445900.0 0
150686.0 445771.0 0
154572.0 445893.0 0
158382.0 446068.0 0
162039.0 446007.0 0
165768.0 446130.0 0
169525.0 446247.0 0
173283.0 446323.0 0
177028.0 446352.0 0
180752.0 446345.0 0
184463.0 446319.0 0
188164.0 446276.0 0
191851.0 446196.0 0
195522.0 446049.0 0
199204.0 445858.0 0
202918.0 445660.0 0
206664.0 445473.0 0
210421.0 445300.0 0
214165.0 445130.0 0
217884.0 444963.0 0
221578.0 444798.0 0
225250.0 444634.0 0
228899.0 444470.0 0
232522.0 444318.0 0
236130.0 444172.0 0
239713.0 444057.0 0
243293.0 443943.0 0
246836.0 443874.0 0
250370.0 443854.0 0
253935.0 443929.0 0
257468.0 444028.0 0
261038.0 444211.0 0
264608.0 444390.0 0
268197.0 444603.0 0
271796.0 444836.0 0
275409.0 445096.0 0
279038.0 445376.0 0
282681.0 445666.0 0
286339.0 445962.0 0
290010.0 446257.0 0
293693.0 446544.0 0
302780.0 444148.0 0
306463.0 444396.0 0
310149.0 444613.0 0
313835.0 444793.0 0
317528.0 444904.0 0
321258.0 444753.0 0
324896.0 444229.0 0
330637.0 446629.0 0
334184.0 446311.0 0
337729.0 446131.0 0
341403.0 445853.0 0
345193.0 445373.0 0
349024.0 444737.0 0
352753.0 444082.0 0
359026.0 446711.0 0
362933.0 446464.0 0
366802.0 446018.0 0
370588.0 445415.0 0
374254.0 444682.0 0
380409.0 447351.0 0
384060.0 446556.0 0
387550.0 445542.0 0
393904.0 446637.0 0
397316.0 445315.0 0
403707.0 445920.0 0
413013.0 447962.0 0
82379.2 450826.0 0
88577.3 447300.0 0
98056.9 448586.0 0
101437.0 450047.0 0
104394.0 447771.0 0
107763.0 449030.0 0
114051.0 447736.0 0
117419.0 448729.0 0
120818.0 449650.0 0
126942.0 447974.0 0
130327.0 448779.0 0
133826.0 449513.0 0
137711.0 449630.0 0
141296.0 449212.0 0
145122.0 449184.0 0
148724.0 448965.0 0
152382.0 448860.0 0
156116.0 448984.0 0
159878.0 449095.0 0
163589.0 449128.0 0
167332.0 449229.0 0
171092.0 449323.0 0
197136.0 449096.0 0
200825.0 448853.0 0
204563.0 448621.0 0
208326.0 448429.0 0
212086.0 448272.0 0
215826.0 448133.0 0
219539.0 448001.0 0
223227.0 447869.0 0
226893.0 447737.0 0
230536.0 447609.0 0
234162.0 447487.0 0
237770.0 447380.0 0
241369.0 447286.0 0
244949.0 447221.0 0
248518.0 447191.0 0
252081.0 447214.0 0
255654.0 447302.0 0
259227.0 447424.0 0
262820.0 447589.0 0
266420.0 447770.0 0
270031.0 447978.0 0
273653.0 448206.0 0
277288.0 448455.0 0
280938.0 448718.0 0
284601.0 448989.0 0
297385.0 446819.0 0
301085.0 447078.0 0
304792.0 447317.0 0
308505.0 447528.0 0
312229.0 447702.0 0
315971.0 447814.0 0
319750.0 447770.0 0
323512.0 447478.0 0
327136.0 447049.0 0
332977.0 449627.0 0
336583.0 449351.0 0
340239.0 449010.0 0
343976.0 448505.0 0
347818.0 447841.0 0
351618.0 447292.0 0
355306.0 446961.0 0
361733.0 449413.0 0
365576.0 449045.0 0
369390.0 448570.0 0
373112.0 448019.0 0
376670.0 447807.0 0
383174.0 449755.0 0
386854.0 448880.0 0
390419.0 447826.0 0
396836.0 448846.0 0
400324.0 447447.0 0
406748.0 447999.0 0
410013.0 446103.0 0
416259.0 449975.0 0
79183.4 452825.0 0
85656.3 452376.0 0
88976.2 451433.0 0
91808.7 449170.0 0
95134.9 450815.0 0
104849.0 451389.0 0
111161.0 450179.0 0
114589.0 451225.0 0
118057.0 452180.0 0
124258.0 450509.0 0
127761.0 451299.0 0
131381.0 451968.0 0
135239.0 452304.0 0
142806.0 452150.0 0
146547.0 452122.0 0
150232.0 452007.0 0
153914.0 451998.0 0
157648.0 452090.0 0
174854.0 449390.0 0
178605.0 449424.0 0
182343.0 449431.0 0
186068.0 449417.0 0
189781.0 449377.0 0
193474.0 449289.0 0
202477.0 451815.0 0
206239.0 451572.0 0
210006.0 451407.0 0
213757.0 451286.0 0
217484.0 451184.0 0
221187.0 451086.0 0
224868.0 450986.0 0
228529.0 450885.0 0
232174.0 450785.0 0
235804.0 450693.0 0
239423.0 450612.0 0
243030.0 450552.0 0
246627.0 450520.0 0
250218.0 450525.0 0
253807.0 450576.0 0
257404.0 450674.0 0
261008.0 450804.0 0
264625.0 450963.0 0
268250.0 451143.0 0
271885.0 451346.0 0
275531.0 451567.0 0
288279.0 449261.0 0
291971.0 449529.0 0
295675.0 449789.0 0
299392.0 450034.0 0
303120.0 450262.0 0
306858.0 450464.0 0
310609.0 450633.0 0
314378.0 450748.0 0
318175.0 450755.0 0
321982.0 450602.0 0
325722.0 450329.0 0
329377.0 449981.0 0
335358.0 452632.0 0
339045.0 452278.0 0
342769.0 451763.0 0
346640.0 450944.0 0
350463.0 450418.0 0
354220.0 450053.0 0
357961.0 449744.0 0
364426.0 452110.0 0
368227.0 451697.0 0
371997.0 451242.0 0
375687.0 450892.0 0
379416.0 450417.0 0
385964.0 452166.0 0
389670.0 451221.0 0
393287.0 450106.0 0
396142.0 452387.0 0
399774.0 451028.0 0
403333.0 449605.0 0
409706.0 450132.0 0
412975.0 451456.0 0
419529.0 452028.0 0
75972.8 454838.0 0
82449.0 454339.0 0
85828.4 455754.0 0
92264.4 453115.0 0
98524.8 452333.0 0
101966.0 453743.0 0
105443.0 455050.0 0
108292.0 452617.0 0
111768.0 453727.0 0
115290.0 454721.0 0
121578.0 453056.0 0
125168.0 453847.0 0
128860.0 454513.0 0
132691.0 454938.0 0
139097.0 452351.0 0
161400.0 452182.0 0
165140.0 452250.0 0
168898.0 452341.0 0
172667.0 452424.0 0
176437.0 452488.0 0
180201.0 452527.0 0
183956.0 452545.0 0
187700.0 452540.0 0
191428.0 452506.0 0
195129.0 452414.0 0
198766.0 452132.0 0
219130.0 454286.0 0
222823.0 454218.0 0
226500.0 454145.0 0
230163.0 454069.0 0
233814.0 453995.0 0
237454.0 453927.0 0
241085.0 453874.0 0
244708.0 453841.0 0
248325.0 453837.0 0
251939.0 453868.0 0
255556.0 453938.0 0
259179.0 454042.0 0
262810.0 454175.0 0
279189.0 451803.0 0
282862.0 452048.0 0
286548.0 452298.0 0
290249.0 452546.0 0
293965.0 452788.0 0
297694.0 453018.0 0
301438.0 453232.0 0
305196.0 453424.0 0
308969.0 453586.0 0
312761.0 453704.0 0
316577.0 453744.0 0
320407.0 453671.0 0
324213.0 453502.0 0
327970.0 453248.0 0
331680.0 452938.0 0
341487.0 455150.0 0
345561.0 454027.0 0
349359.0 453522.0 0
353119.0 453149.0 0
356876.0 452825.0 0
360643.0 452487.0 0
370882.0 454424.0 0
374642.0 454030.0 0
378416.0 453556.0 0
382197.0 452939.0 0
388755.0 454595.0 0
392486.0 453580.0 0
399033.0 454580.0 0
402715.0 453262.0 0
406307.0 451848.0 0
409145.0 454325.0 0
412750.0 454742.0 0
416226.0 453512.0 0
419345.0 455726.0 0
422759.0 454062.0 0
425980.0 456085.0 0
72747.0 456860.0 0
76076.4 458495.0 0
79267.4 456409.0 0
82656.8 457851.0 0
89357.8 455426.0 0
92731.5 457004.0 0
95642.4 454655.0 0
99092.1 456103.0 0
102593.0 457470.0 0
108954.0 456237.0 0
112513.0 457284.0 0
118872.0 455615.0 0
122529.0 456415.0 0
126275.0 457102.0 0
130110.0 457619.0 0
136612.0 455140.0 0
140473.0 455196.0 0
144231.0 455138.0 0
147986.0 455123.0 0
151701.0 455098.0 0
155423.0 455131.0 0
159172.0 455215.0 0
162933.0 455302.0 0
166695.0 455382.0 0
170470.0 455469.0 0
174252.0 455548.0 0
178036.0 455611.0 0
181817.0 455655.0 0
185593.0 455682.0 0
189361.0 455688.0 0
193116.0 455663.0 0
196843.0 455580.0 0
200438.0 455100.0 0
204168.0 454745.0 0
207930.0 454544.0 0
211683.0 454429.0 0
215417.0 454352.0 0
266451.0 454332.0 0
270101.0 454510.0 0
273760.0 454706.0 0
277431.0 454917.0 0
281114.0 455138.0 0
284811.0 455365.0 0
288522.0 455593.0 0
292248.0 455816.0 0
295988.0 456030.0 0
299744.0 456230.0 0
303517.0 456411.0 0
307305.0 456564.0 0
311113.0 456681.0 0
314942.0 456739.0 0
318789.0 456717.0 0
322633.0 456614.0 0
326457.0 456434.0 0
330250.0 456192.0 0
334002.0 455920.0 0
337742.0 455603.0 0
344551.0 457037.0 0
348303.0 456632.0 0
352032.0 456269.0 0
355774.0 455938.0 0
359535.0 455603.0 0
363313.0 455239.0 0
367098.0 454842.0 0
373549.0 457203.0 0
377354.0 456735.0 0
381168.0 456160.0 0
384975.0 455451.0 0
391529.0 457051.0 0
395291.0 455958.0 0
401934.0 456881.0 0
405593.0 455641.0 0
412042.0 457995.0 0
415758.0 457029.0 0
422447.0 457902.0 0
430937.0 459150.0 0
66235.1 460941.0 0
69502.5 458894.0 0
72867.5 460585.0 0
79487.7 460005.0 0
86151.1 459139.0 0
89768.4 459362.0 0
96189.0 458472.0 0
99708.3 459879.0 0
106137.0 458743.0 0
109725.0 459869.0 0
116135.0 458199.0 0
119839.0 459005.0 0
123623.0 459712.0 0
127453.0 460311.0 0
134098.0 457843.0 0
138019.0 458044.0 0
141870.0 458141.0 0
145659.0 458159.0 0
149427.0 458185.0 0
153176.0 458212.0 0
156929.0 458271.0 0
160697.0 458356.0 0
164475.0 458444.0 0
168258.0 458529.0 0
172049.0 458614.0 0
175847.0 458691.0 0
179648.0 458755.0 0
183449.0 458805.0 0
187250.0 458840.0 0
191046.0 458858.0 0
194833.0 458853.0 0
198589.0 458830.0 0
202117.0 457980.0 0
205850.0 457693.0 0
209597.0 457566.0 0
213332.0 457507.0 0
217051.0 457471.0 0
220755.0 457435.0 0
224446.0 457391.0 0
228127.0 457340.0 0
231798.0 457285.0 0
235460.0 457231.0 0
239115.0 457186.0 0
242763.0 457156.0 0
246405.0 457147.0 0
250045.0 457166.0 0
253684.0 457216.0 0
257327.0 457297.0 0
260977.0 457407.0 0
264634.0 457541.0 0
268299.0 457696.0 0
271974.0 457869.0 0
275658.0 458057.0 0
279354.0 458256.0 0
283063.0 458461.0 0
286785.0 458668.0 0
290521.0 458874.0 0
294272.0 459072.0 0
298039.0 459258.0 0
301821.0 459427.0 0
305621.0 459572.0 0
309438.0 459685.0 0
332497.0 459182.0 0
336285.0 458932.0 0
340043.0 458596.0 0
347164.0 459737.0 0
350896.0 459418.0 0
354633.0 459089.0 0
358392.0 458754.0 0
362170.0 458400.0 0
365961.0 458019.0 0
369756.0 457614.0 0
376236.0 459954.0 0
380073.0 459414.0 0
383910.0 458762.0 0
387732.0 457980.0 0
394235.0 459565.0 0
398217.0 458088.0 0
404746.0 459362.0 0
408381.0 458232.0 0
414884.0 460513.0 0
418665.0 459401.0 0
427526.0 459529.0 0
434180.0 461191.0 0
62942.4 463004.0 0
69636.1 462678.0 0
76298.6 462175.0 0
79795.7 463620.0 0
82983.3 461372.0 0
86540.6 462601.0 0
93227.8 460846.0 0
96759.7 462274.0 0
103283.0 461216.0 0
106918.0 462452.0 0
113375.0 460824.0 0
117114.0 461629.0 0
120939.0 462339.0 0
131654.0 460538.0 0
135566.0 460825.0 0
139448.0 461036.0 0
143292.0 461159.0 0
147097.0 461227.0 0
150885.0 461287.0 0
154662.0 461348.0 0
158442.0 461425.0 0
162230.0 461513.0 0
166026.0 461604.0 0
169828.0 461692.0 0
173637.0 461776.0 0
177452.0 461852.0 0
181271.0 461919.0 0
185093.0 461974.0 0
188916.0 462020.0 0
192736.0 462057.0 0
196543.0 462095.0 0
203714.0 460853.0 0
207468.0 460692.0 0
211211.0 460648.0 0
214940.0 460641.0 0
218656.0 460637.0 0
222362.0 460623.0 0
226061.0 460597.0 0
229753.0 460563.0 0
233439.0 460525.0 0
237118.0 460490.0 0
240791.0 460465.0 0
244459.0 460454.0 0
248124.0 460465.0 0
251787.0 460501.0 0
255452.0 460564.0 0
259122.0 460654.0 0
262797.0 460767.0 0
266479.0 460901.0 0
270170.0 461053.0 0
273870.0 461220.0 0
277579.0 461398.0 0
281301.0 461583.0 0
285035.0 461772.0 0
288782.0 461959.0 0
292543.0 462141.0 0
313274.0 459753.0 0
317128.0 459760.0 0
320990.0 459701.0 0
324847.0 459576.0 0
328685.0 459396.0 0
338480.0 462028.0 0
343398.0 459943.0 0
353396.0 462266.0 0
357174.0 461936.0 0
360967.0 461588.0 0
364773.0 461218.0 0
368588.0 460825.0 0
372407.0 460412.0 0
378915.0 462699.0 0
382774.0 462102.0 0
386620.0 461393.0 0
390444.0 460552.0 0
397305.0 461546.0 0
401055.0 460473.0 0
407475.0 462031.0 0
411116.0 461374.0 0
421098.0 462153.0 0
424429.0 461060.0 0
427349.0 463530.0 0
430838.0 462728.0 0
437416.0 463228.0 0
59623.4 465083.0 0
66376.8 464777.0 0
69860.8 466490.0 0
73093.4 464338.0 0
76602.2 465894.0 0
83353.6 464931.0 0
90194.3 463226.0 0
93718.9 464652.0 0
100357.0 463655.0 0
104037.0 464961.0 0
110605.0 463498.0 0
114386.0 464312.0 0
118264.0 464990.0 0
124779.0 463002.0 0
129223.0 463200.0 0
133120.0 463597.0 0
137008.0 463884.0 0
140881.0 464095.0 0
144728.0 464236.0 0
148551.0 464336.0 0
152360.0 464421.0 0
156162.0 464505.0 0
159965.0 464594.0 0
163774.0 464688.0 0
167588.0 464781.0 0
171407.0 464870.0 0
200319.0 462179.0 0
205233.0 463770.0 0
209019.0 463753.0 0
212775.0 463784.0 0
216513.0 463818.0 0
220241.0 463838.0 0
223962.0 463840.0 0
227678.0 463828.0 0
231388.0 463808.0 0
235093.0 463785.0 0
238792.0 463766.0 0
242487.0 463758.0 0
246177.0 463765.0 0
249866.0 463792.0 0
253554.0 463841.0 0
257245.0 463914.0 0
260940.0 464009.0 0
264640.0 464124.0 0
268348.0 464257.0 0
272063.0 464404.0 0
275788.0 464563.0 0
279523.0 464729.0 0
296319.0 462314.0 0
300111.0 462472.0 0
303919.0 462609.0 0
307744.0 462719.0 0
311585.0 462792.0 0
315443.0 462817.0 0
319309.0 462788.0 0
323176.0 462703.0 0
327034.0 462572.0 0
330876.0 462407.0 0
334697.0 462225.0 0
342035.0 462799.0 0
345836.0 462795.0 0
349624.0 462570.0 0
355849.0 465132.0 0
359675.0 464795.0 0
363508.0 464435.0 0
367350.0 464053.0 0
371198.0 463648.0 0
375054.0 463205.0 0
385436.0 464830.0 0
389279.0 464081.0 0
393086.0 463201.0 0
400106.0 464036.0 0
403815.0 463038.0 0
410170.0 464931.0 0
413871.0 464085.0 0
417551.0 463128.0 0
423892.0 464854.0 0
430447.0 466397.0 0
433989.0 464964.0 0
440673.0 465272.0 0
56278.6 467177.0 0
59767.2 469005.0 0
63086.9 466885.0 0
66592.4 468641.0 0
73394.5 468129.0 0
80157.9 467270.0 0
83769.2 468540.0 0
86939.9 466142.0 0
90576.9 467044.0 0
97316.5 466064.0 0
101027.0 467408.0 0
107800.0 466181.0 0
111675.0 467077.0 0
115654.0 467697.0 0
122132.0 465678.0 0
126767.0 465852.0 0
130655.0 466354.0 0
134555.0 466719.0 0
138449.0 466995.0 0
142328.0 467204.0 0
146186.0 467359.0 0
150026.0 467479.0 0
153855.0 467583.0 0
175233.0 464955.0 0
179063.0 465032.0 0
182899.0 465101.0 0
186738.0 465164.0 0
190578.0 465225.0 0
194415.0 465294.0 0
198239.0 465398.0 0
202050.0 465575.0 0
206706.0 466764.0 0
210529.0 466873.0 0
214311.0 466965.0 0
218072.0 467030.0 0
221823.0 467065.0 0
225568.0 467079.0 0
229307.0 467078.0 0
233040.0 467069.0 0
236767.0 467060.0 0
240489.0 467056.0 0
244206.0 467062.0 0
247920.0 467084.0 0
251633.0 467124.0 0
255346.0 467183.0 0
259061.0 467263.0 0
283269.0 464900.0 0
287027.0 465071.0 0
290799.0 465238.0 0
294584.0 465398.0 0
298384.0 465545.0 0
302199.0 465675.0 0
306030.0 465781.0 0
309876.0 465856.0 0
313737.0 465894.0 0
317606.0 465886.0 0
321479.0 465833.0 0
325345.0 465739.0 0
329197.0 465614.0 0
333028.0 465476.0 0
336824.0 465367.0 0
340488.0 465693.0 0
344327.0 465805.0 0
348186.0 465686.0 0
352025.0 465440.0 0
362152.0 467664.0 0
366027.0 467294.0 0
369908.0 466902.0 0
373795.0 466478.0 0
377684.0 466007.0 0
381567.0 465465.0 0
388048.0 467625.0 0
391874.0 466854.0 0
396337.0 464966.0 0
399108.0 467570.0 0
402842.0 466682.0 0
406524.0 465753.0 0
412955.0 467711.0 0
416656.0 466809.0 0
420312.0 465879.0 0
423194.0 468612.0 0
426833.0 467434.0 0
433593.0 468785.0 0
437186.0 467128.0 0
440468.0 469231.0 0
443974.0 467338.0 0
447329.0 469435.0 0
52909.5 469286.0 0
56419.7 471138.0 0
63292.8 470796.0 0
70142.0 470334.0 0
76970.6 469674.0 0
80605.3 470944.0 0
87374.1 469756.0 0
90972.6 470883.0 0
94082.3 468428.0 0
97532.2 469833.0 0
104811.0 468694.0 0
108980.0 469860.0 0
119562.0 468357.0 0
124273.0 468526.0 0
128167.0 469102.0 0
132088.0 469540.0 0
136006.0 469880.0 0
139912.0 470147.0 0
157678.0 467682.0 0
161502.0 467781.0 0
165328.0 467879.0 0
169158.0 467975.0 0
172993.0 468066.0 0
176833.0 468151.0 0
180677.0 468231.0 0
184525.0 468305.0 0
188377.0 468379.0 0
192229.0 468461.0 0
196080.0 468571.0 0
199928.0 468736.0 0
203779.0 468987.0 0
208173.0 469849.0 0
262781.0 467361.0 0
266506.0 467477.0 0
270238.0 467607.0 0
273978.0 467748.0 0
277727.0 467898.0 0
281486.0 468052.0 0
285257.0 468208.0 0
289039.0 468361.0 0
292834.0 468508.0 0
296642.0 468645.0 0
300464.0 468767.0 0
304300.0 468870.0 0
308150.0 468947.0 0
312013.0 468992.0 0
315885.0 469001.0 0
319761.0 468972.0 0
323634.0 468907.0 0
327495.0 468815.0 0
331336.0 468709.0 0
335144.0 468627.0 0
338889.0 468726.0 0
342731.0 468813.0 0
346631.0 468765.0 0
350530.0 468587.0 0
354412.0 468324.0 0
358283.0 468010.0 0
368529.0 470165.0 0
372449.0 469762.0 0
376369.0 469325.0 0
380284.0 468839.0 0
384181.0 468280.0 0
390603.0 470509.0 0
395315.0 468351.0 0
405555.0 469434.0 0
409253.0 468578.0 0
415771.0 470484.0 0
419497.0 469572.0 0
426149.0 471283.0 0
429882.0 470142.0 0
436844.0 471062.0 0
443822.0 471307.0 0
59963.2 472962.0 0
66858.5 472540.0 0
70464.8 474215.0 0
73730.5 471964.0 0
77318.9 473539.0 0
84239.7 472214.0 0
87874.0 473446.0 0
94494.2 472284.0 0
97988.4 473722.0 0
100910.0 471181.0 0
104214.0 472451.0 0
113203.0 470510.0 0
117112.0 471090.0 0
121764.0 471266.0 0
125676.0 471861.0 0
129619.0 472354.0 0
133562.0 472754.0 0
143800.0 470357.0 0
147670.0 470521.0 0
151525.0 470655.0 0
155371.0 470772.0 0
159212.0 470881.0 0
163052.0 470987.0 0
166893.0 471089.0 0
170737.0 471187.0 0
174584.0 471280.0 0
178435.0 471367.0 0
182289.0 471450.0 0
186146.0 471532.0 0
190006.0 471620.0 0
193869.0 471728.0 0
197735.0 471876.0 0
201611.0 472091.0 0
205503.0 472400.0 0
212032.0 470049.0 0
215846.0 470183.0 0
219639.0 470264.0 0
223421.0 470310.0 0
227194.0 470333.0 0
230958.0 470342.0 0
234715.0 470344.0 0
238466.0 470347.0 0
242211.0 470356.0 0
245951.0 470376.0 0
249688.0 470410.0 0
253425.0 470460.0 0
257162.0 470527.0 0
260902.0 470612.0 0
264646.0 470712.0 0
268395.0 470827.0 0
272150.0 470952.0 0
275914.0 471087.0 0
279686.0 471226.0 0
283469.0 471368.0 0
287262.0 471509.0 0
291066.0 471644.0 0
294883.0 471771.0 0
298712.0 471886.0 0
302554.0 471985.0 0
306408.0 472062.0 0
310273.0 472112.0 0
314148.0 472133.0 0
318028.0 472122.0 0
321907.0 472080.0 0
325779.0 472012.0 0
329637.0 471931.0 0
333472.0 471862.0 0
337279.0 471868.0 0
341123.0 471884.0 0
345026.0 471844.0 0
348955.0 471714.0 0
352882.0 471498.0 0
356798.0 471220.0 0
360706.0 470898.0 0
364615.0 470544.0 0
374964.0 472647.0 0
378912.0 472210.0 0
382847.0 471727.0 0
386747.0 471170.0 0
394219.0 471705.0 0
398047.0 471073.0 0
401824.0 470293.0 0
408282.0 472245.0 0
412032.0 471374.0 0
418618.0 473269.0 0
422404.0 472383.0 0
429131.0 473948.0 0
432977.0 472634.0 0
63542.4 474741.0 0
67190.0 476477.0 0
74076.0 475867.0 0
81048.0 474665.0 0
84703.1 475945.0 0
91452.8 474737.0 0
95028.7 476182.0 0
101462.0 475091.0 0
107522.0 473364.0 0
111082.0 473547.0 0
114861.0 473995.0 0
119285.0 474110.0 0
123215.0 474664.0 0
127169.0 475181.0 0
137491.0 473078.0 0
141404.0 473338.0 0
145300.0 473548.0 0
149180.0 473718.0 0
153048.0 473860.0 0
156907.0 473985.0 0
160762.0 474102.0 0
164615.0 474213.0 0
168468.0 474319.0 0
172323.0 474419.0 0
176179.0 474514.0 0
180037.0 474604.0 0
183897.0 474692.0 0
187760.0 474783.0 0
191626.0 474887.0 0
195497.0 475018.0 0
209670.0 473024.0 0
213557.0 473277.0 0
217408.0 473426.0 0
221237.0 473515.0 0
225050.0 473569.0 0
228850.0 473600.0 0
232639.0 473618.0 0
236420.0 473631.0 0
240193.0 473646.0 0
243960.0 473667.0 0
247723.0 473697.0 0
251483.0 473741.0 0
255242.0 473799.0 0
259003.0 473873.0 0
262765.0 473960.0 0
266532.0 474061.0 0
270304.0 474173.0 0
274083.0 474294.0 0
277869.0 474420.0 0
281663.0 474549.0 0
285468.0 474678.0 0
289282.0 474804.0 0
293108.0 474922.0 0
296944.0 475030.0 0
300792.0 475124.0 0
327924.0 475148.0 0
331784.0 475085.0 0
335632.0 475050.0 0
339498.0 475022.0 0
343401.0 474961.0 0
347337.0 474846.0 0
351288.0 474666.0 0
355237.0 474425.0 0
359181.0 474134.0 0
363120.0 473801.0 0
367066.0 473435.0 0
371014.0 473052.0 0
377443.0 475573.0 0
381413.0 475151.0 0
385364.0 474697.0 0
389263.0 474155.0 0
393035.0 475033.0 0
396902.0 474546.0 0
400733.0 473877.0 0
404523.0 473089.0 0
411044.0 475049.0 0
414840.0 474174.0 0
421528.0 476183.0 0
425343.0 475143.0 0
432192.0 476502.0 0
70817.6 478150.0 0
77672.2 477467.0 0
81461.4 478462.0 0
88337.4 477220.0 0
91939.1 478580.0 0
98623.5 477672.0 0
104972.0 476335.0 0
108715.0 476869.0 0
112531.0 477059.0 0
116911.0 477091.0 0
120822.0 477550.0 0
124762.0 478046.0 0
131129.0 475627.0 0
135078.0 476003.0 0
139012.0 476313.0 0
142929.0 476567.0 0
146829.0 476775.0 0
150715.0 476947.0 0
154591.0 477093.0 0
158461.0 477224.0 0
162327.0 477345.0 0
166190.0 477460.0 0
170052.0 477570.0 0
173914.0 477673.0 0
177775.0 477771.0 0
199379.0 475196.0 0
203282.0 475449.0 0
207215.0 475810.0 0
211216.0 476286.0 0
215137.0 476536.0 0
219022.0 476687.0 0
222880.0 476781.0 0
226719.0 476841.0 0
230542.0 476880.0 0
234354.0 476907.0 0
238156.0 476930.0 0
241950.0 476955.0 0
245738.0 476985.0 0
249522.0 477026.0 0
253304.0 477078.0 0
257085.0 477142.0 0
260867.0 477220.0 0
264651.0 477309.0 0
268439.0 477409.0 0
272233.0 477518.0 0
276033.0 477632.0 0
304651.0 475200.0 0
308521.0 475255.0 0
312399.0 475284.0 0
316282.0 475285.0 0
320168.0 475260.0 0
324050.0 475212.0 0
349651.0 477843.0 0
353619.0 477630.0 0
357589.0 477371.0 0
361556.0 477068.0 0
365530.0 476711.0 0
369500.0 476349.0 0
373471.0 475970.0 0
383855.0 478169.0 0
387829.0 477776.0 0
399549.0 477437.0 0
403408.0 476725.0 0
407232.0 475917.0 0
413831.0 477869.0 0
417669.0 476990.0 0
428308.0 477814.0 0
85138.0 479748.0 0
88788.8 481042.0 0
95549.9 480085.0 0
102253.0 479162.0 0
106190.0 480017.0 0
110119.0 480250.0 0
114597.0 480115.0 0
118488.0 480531.0 0
128722.0 478516.0 0
132682.0 478932.0 0
136633.0 479287.0 0
140568.0 479586.0 0
144483.0 479834.0 0
148383.0 480037.0 0
152272.0 480206.0 0
156155.0 480353.0 0
160033.0 480486.0 0
181638.0 477864.0 0
185501.0 477958.0 0
189367.0 478058.0 0
193236.0 478175.0 0
197113.0 478323.0 0
201006.0 478522.0 0
204928.0 478800.0 0
208893.0 479229.0 0
212860.0 479595.0 0
216794.0 479822.0 0
220695.0 479968.0 0
224572.0 480064.0 0
228430.0 480128.0 0
232272.0 480173.0 0
236102.0 480208.0 0
239923.0 480240.0 0
243736.0 480273.0 0
279840.0 477750.0 0
283656.0 477869.0 0
287481.0 477985.0 0
291315.0 478095.0 0
295160.0 478197.0 0
299014.0 478287.0 0
302879.0 478362.0 0
306754.0 478418.0 0
310636.0 478453.0 0
314525.0 478465.0 0
318416.0 478452.0 0
322307.0 478418.0 0
326195.0 478367.0 0
330076.0 478309.0 0
333953.0 478256.0 0
337841.0 478200.0 0
341753.0 478123.0 0
345692.0 478006.0 0
355940.0 480614.0 0
359924.0 480344.0 0
363944.0 479993.0 0
367924.0 479653.0 0
371904.0 479300.0 0
375885.0 478933.0 0
379872.0 478554.0 0
391746.0 478331.0 0
395661.0 477994.0 0
402198.0 480341.0 0
406099.0 479593.0 0
409978.0 478725.0 0
416608.0 480731.0 0
420525.0 480001.0 0
81942.7 482320.0 0
85699.2 483607.0 0
92391.6 482408.0 0
99096.1 481683.0 0
102755.0 483025.0 0
122400.0 480980.0 0
126342.0 481435.0 0
130309.0 481878.0 0
134273.0 482267.0 0
138224.0 482608.0 0
142154.0 482900.0 0
146063.0 483138.0 0
163906.0 480611.0 0
167776.0 480730.0 0
171643.0 480843.0 0
175509.0 480949.0 0
179374.0 481050.0 0
183238.0 481147.0 0
187103.0 481246.0 0
190969.0 481355.0 0
194838.0 481482.0 0
198715.0 481642.0 0
202607.0 481850.0 0
206523.0 482138.0 0
210631.0 482643.0 0
247544.0 480313.0 0
251347.0 480361.0 0
255149.0 480420.0 0
258950.0 480489.0 0
262752.0 480569.0 0
266557.0 480659.0 0
270366.0 480757.0 0
274180.0 480861.0 0
278000.0 480969.0 0
281827.0 481079.0 0
285662.0 481186.0 0
289506.0 481290.0 0
293359.0 481386.0 0
297221.0 481472.0 0
301092.0 481545.0 0
304972.0 481603.0 0
308860.0 481641.0 0
312754.0 481660.0 0
316652.0 481657.0 0
320552.0 481634.0 0
324452.0 481593.0 0
328349.0 481539.0 0
332247.0 481478.0 0
336154.0 481408.0 0
340077.0 481319.0 0
344020.0 481199.0 0
347982.0 481043.0 0
351957.0 480847.0 0
362313.0 483282.0 0
366298.0 482969.0 0
370280.0 482641.0 0
374261.0 482301.0 0
378241.0 481954.0 0
382215.0 481614.0 0
386170.0 481307.0 0
390057.0 481453.0 0
394272.0 481406.0 0
398261.0 480977.0 0
408871.0 482391.0 0
412748.0 481572.0 0
82689.0 486203.0 0
89387.1 484910.0 0
95503.9 484550.0 0
99161.8 485669.0 0
106557.0 483876.0 0
112322.0 483144.0 0
116157.0 483561.0 0
120055.0 483985.0 0
123982.0 484413.0 0
127941.0 484832.0 0
131937.0 485261.0 0
135903.0 485634.0 0
149958.0 483330.0 0
153848.0 483491.0 0
157736.0 483635.0 0
161620.0 483771.0 0
165498.0 483901.0 0
169371.0 484025.0 0
173242.0 484140.0 0
177110.0 484248.0 0
180976.0 484351.0 0
184842.0 484452.0 0
188706.0 484557.0 0
192571.0 484671.0 0
196439.0 484806.0 0
200312.0 484971.0 0
204199.0 485180.0 0
208115.0 485438.0 0
214583.0 482934.0 0
218514.0 483134.0 0
222422.0 483271.0 0
226310.0 483364.0 0
230180.0 483431.0 0
234037.0 483480.0 0
237883.0 483521.0 0
241720.0 483560.0 0
245550.0 483601.0 0
249376.0 483648.0 0
253197.0 483703.0 0
257017.0 483767.0 0
260837.0 483840.0 0
264658.0 483921.0 0
268482.0 484011.0 0
272310.0 484106.0 0
276143.0 484205.0 0
279981.0 484306.0 0
283827.0 484407.0 0
287680.0 484504.0 0
291541.0 484595.0 0
295411.0 484677.0 0
299289.0 484749.0 0
303175.0 484807.0 0
307069.0 484848.0 0
310969.0 484872.0 0
314874.0 484876.0 0
318782.0 484861.0 0
322692.0 484828.0 0
326604.0 484779.0 0
330517.0 484717.0 0
334438.0 484640.0 0
338372.0 484544.0 0
342321.0 484422.0 0
346286.0 484270.0 0
350264.0 484085.0 0
354250.0 483869.0 0
358237.0 483627.0 0
372592.0 485679.0 0
376565.0 485360.0 0
380528.0 485050.0 0
384475.0 484779.0 0
388384.0 484706.0 0
392374.0 484602.0 0
396785.0 484458.0 0
400908.0 483937.0 0
404863.0 483266.0 0
411611.0 485284.0 0
417232.0 484622.0 0
86444.4 487528.0 0
92510.3 487206.0 0
96219.3 488414.0 0
102783.0 486902.0 0
106456.0 487784.0 0
109825.0 485970.0 0
113715.0 486606.0 0
117648.0 486999.0 0
121617.0 487442.0 0
125591.0 487835.0 0
129571.0 488232.0 0
139850.0 485970.0 0
143769.0 486256.0 0
147663.0 486478.0 0
151552.0 486650.0 0
155445.0 486798.0 0
159337.0 486941.0 0
163221.0 487083.0 0
167100.0 487217.0 0
170975.0 487343.0 0
174848.0 487459.0 0
178718.0 487569.0 0
182587.0 487674.0 0
186453.0 487778.0 0
190318.0 487886.0 0
194183.0 488006.0 0
198049.0 488143.0 0
212422.0 486059.0 0
216359.0 486297.0 0
220284.0 486470.0 0
224193.0 486593.0 0
228086.0 486682.0 0
231967.0 486748.0 0
235835.0 486801.0 0
239694.0 486847.0 0
243546.0 486892.0 0
247391.0 486939.0 0
251232.0 486992.0 0
255070.0 487052.0 0
258907.0 487120.0 0
262744.0 487195.0 0
266582.0 487277.0 0
270424.0 487365.0 0
274269.0 487457.0 0
278119.0 487551.0 0
281975.0 487645.0 0
285838.0 487736.0 0
289708.0 487823.0 0
293585.0 487902.0 0
297470.0 487972.0 0
301363.0 488029.0 0
305263.0 488073.0 0
309170.0 488101.0 0
313082.0 488111.0 0
316998.0 488103.0 0
320917.0 488077.0 0
324839.0 488033.0 0
328765.0 487973.0 0
332697.0 487894.0 0
336640.0 487795.0 0
340596.0 487673.0 0
344565.0 487524.0 0
348545.0 487348.0 0
352531.0 487144.0 0
356521.0 486921.0 0
360637.0 486579.0 0
364629.0 486295.0 0
368613.0 485994.0 0
378820.0 488487.0 0
382763.0 488226.0 0
390657.0 487914.0 0
394789.0 487701.0 0
399349.0 487455.0 0
403522.0 486927.0 0
407703.0 486036.0 0
414746.0 487731.0 0
99937.9 489586.0 0
103752.0 490718.0 0
111187.0 489600.0 0
115192.0 490042.0 0
119160.0 490414.0 0
123274.0 490889.0 0
133607.0 488668.0 0
137569.0 489038.0 0
141506.0 489377.0 0
145410.0 489660.0 0
149282.0 489845.0 0
153168.0 489984.0 0
157065.0 490124.0 0
160950.0 490276.0 0
164832.0 490421.0 0
168711.0 490557.0 0
172589.0 490683.0 0
201922.0 488306.0 0
205811.0 488495.0 0
209730.0 488702.0 0
214248.0 489482.0 0
218172.0 489677.0 0
222091.0 489825.0 0
225999.0 489934.0 0
229897.0 490016.0 0
233784.0 490081.0 0
237663.0 490135.0 0
241533.0 490185.0 0
245397.0 490235.0 0
249256.0 490287.0 0
253111.0 490345.0 0
256964.0 490409.0 0
260816.0 490479.0 0
264668.0 490556.0 0
268523.0 490638.0 0
342820.0 490803.0 0
346803.0 490634.0 0
350793.0 490441.0 0
354785.0 490229.0 0
358924.0 489891.0 0
362927.0 489630.0 0
366913.0 489356.0 0
370892.0 489068.0 0
374862.0 488774.0 0
386688.0 488053.0 0
397308.0 490746.0 0
401876.0 490487.0 0
406420.0 489659.0 0
410362.0 489012.0 0
93162.7 491121.0 0
96986.2 492278.0 0
107672.0 491357.0 0
112791.0 493124.0 0
116774.0 493474.0 0
127257.0 491260.0 0
131246.0 491649.0 0
135305.0 492105.0 0
139263.0 492486.0 0
143190.0 492836.0 0
147077.0 493115.0 0
150919.0 493217.0 0
154809.0 493324.0 0
176465.0 490799.0 0
180339.0 490909.0 0
184211.0 491016.0 0
188080.0 491122.0 0
191947.0 491233.0 0
195814.0 491353.0 0
199683.0 491487.0 0
203561.0 491636.0 0
207455.0 491794.0 0
211373.0 491946.0 0
216098.0 492911.0 0
220014.0 493071.0 0
223927.0 493194.0 0
272380.0 490723.0 0
276241.0 490811.0 0
280108.0 490899.0 0
283980.0 490986.0 0
287858.0 491068.0 0
291743.0 491145.0 0
295636.0 491213.0 0
299535.0 491270.0 0
303442.0 491315.0 0
307355.0 491346.0 0
311274.0 491361.0 0
315198.0 491359.0 0
319126.0 491339.0 0
323058.0 491301.0 0
326993.0 491245.0 0
330935.0 491168.0 0
334885.0 491070.0 0
338846.0 490947.0 0
353037.0 493550.0 0
357186.0 493223.0 0
361199.0 492977.0 0
365188.0 492728.0 0
369169.0 492465.0 0
373140.0 492195.0 0
377100.0 491926.0 0
381047.0 491673.0 0
384987.0 491461.0 0
388943.0 491270.0 0
392989.0 491067.0 0
404790.0 493175.0 0
408966.0 492725.0 0
94066.3 495003.0 0
100814.0 493405.0 0
105178.0 494401.0 0
109243.0 494812.0 0
120760.0 493808.0 0
124981.0 494335.0 0
128961.0 494702.0 0
132945.0 495095.0 0
137020.0 495576.0 0
140977.0 495980.0 0
158686.0 493485.0 0
162567.0 493639.0 0
166450.0 493783.0 0
170333.0 493917.0 0
174216.0 494042.0 0
178098.0 494158.0 0
181977.0 494267.0 0
185853.0 494374.0 0
189727.0 494481.0 0
193600.0 494591.0 0
197473.0 494708.0 0
201350.0 494832.0 0
205236.0 494959.0 0
209136.0 495081.0 0
213051.0 495180.0 0
227835.0 493290.0 0
231736.0 493365.0 0
235629.0 493427.0 0
239516.0 493482.0 0
243396.0 493535.0 0
247271.0 493588.0 0
251141.0 493645.0 0
255009.0 493707.0 0
258875.0 493774.0 0
262741.0 493846.0 0
266608.0 493923.0 0
270477.0 494004.0 0
274349.0 494086.0 0
278225.0 494170.0 0
282106.0 494252.0 0
285993.0 494331.0 0
289886.0 494405.0 0
293785.0 494471.0 0
297692.0 494528.0 0
301605.0 494574.0 0
305524.0 494607.0 0
309450.0 494626.0 0
313381.0 494629.0 0
317317.0 494616.0 0
321258.0 494584.0 0
325202.0 494533.0 0
329152.0 494462.0 0
333108.0 494366.0 0
337073.0 494246.0 0
341050.0 494102.0 0
345040.0 493944.0 0
349031.0 493758.0 0
363442.0 496109.0 0
367426.0 495868.0 0
371401.0 495621.0 0
375365.0 495371.0 0
379319.0 495126.0 0
383269.0 494897.0 0
387229.0 494683.0 0
391209.0 494456.0 0
395436.0 494154.0 0
399805.0 493833.0 0
97900.2 496125.0 0
102256.0 497053.0 0
106888.0 497963.0 0
110923.0 498266.0 0
114461.0 496605.0 0
118439.0 496896.0 0
122422.0 497209.0 0
126701.0 497795.0 0
130677.0 498171.0 0
134655.0 498576.0 0
144898.0 496348.0 0
148781.0 496629.0 0
152582.0 496550.0 0
156423.0 496714.0 0
160297.0 496871.0 0
164185.0 497022.0 0
168077.0 497163.0 0
171970.0 497295.0 0
175862.0 497417.0 0
179751.0 497531.0 0
183638.0 497640.0 0
187521.0 497746.0 0
191403.0 497851.0 0
195284.0 497957.0 0
199166.0 498066.0 0
203054.0 498174.0 0
206949.0 498276.0 0
210854.0 498361.0 0
214767.0 498414.0 0
217968.0 496345.0 0
221877.0 496474.0 0
225787.0 496576.0 0
229695.0 496658.0 0
233599.0 496726.0 0
237498.0 496786.0 0
241392.0 496842.0 0
245280.0 496897.0 0
249165.0 496953.0 0
253046.0 497014.0 0
256925.0 497078.0 0
260803.0 497147.0 0
264681.0 497221.0 0
268560.0 497297.0 0
272443.0 497376.0 0
276328.0 497456.0 0
280218.0 497534.0 0
284113.0 497610.0 0
288013.0 497682.0 0
291920.0 497747.0 0
295832.0 497804.0 0
299752.0 497850.0 0
303678.0 497885.0 0
307610.0 497907.0 0
311548.0 497914.0 0
315491.0 497906.0 0
319440.0 497881.0 0
323393.0 497837.0 0
327350.0 497772.0 0
331313.0 497684.0 0
335282.0 497569.0 0
339259.0 497427.0 0
343244.0 497263.0 0
347262.0 497098.0 0
351276.0 496886.0 0
355427.0 496573.0 0
359451.0 496338.0 0
373619.0 498820.0 0
377580.0 498587.0 0
381536.0 498357.0 0
385496.0 498125.0 0
389478.0 497896.0 0
393568.0 497581.0 0
397866.0 497273.0 0
402756.0 496511.0 0
406976.0 496490.0 0
95424.2 499250.0 0
99404.0 499794.0 0
103950.0 500607.0 0
116169.0 500050.0 0
120134.0 500321.0 0
124104.0 500634.0 0
128419.0 501278.0 0
138735.0 499080.0 0
142695.0 499523.0 0
146640.0 499912.0 0
154074.0 499944.0 0
157995.0 500110.0 0
161907.0 500268.0 0
165816.0 500417.0 0
169723.0 500556.0 0
173628.0 500685.0 0
177530.0 500805.0 0
181429.0 500918.0 0
185325.0 501025.0 0
219852.0 499781.0 0
223758.0 499884.0 0
227667.0 499967.0 0
231576.0 500038.0 0
235483.0 500100.0 0
239387.0 500157.0 0
243287.0 500213.0 0
247183.0 500270.0 0
251076.0 500330.0 0
254966.0 500393.0 0
258855.0 500460.0 0
262743.0 500531.0 0
266632.0 500604.0 0
270524.0 500680.0 0
274418.0 500756.0 0
278316.0 500832.0 0
282218.0 500906.0 0
286126.0 500975.0 0
290039.0 501039.0 0
293958.0 501096.0 0
325529.0 501098.0 0
329500.0 501020.0 0
333475.0 500914.0 0
337454.0 500777.0 0
341443.0 500614.0 0
345435.0 500431.0 0
349519.0 500246.0 0
353650.0 499941.0 0
357685.0 499714.0 0
361679.0 499500.0 0
365667.0 499279.0 0
369648.0 499051.0 0
395933.0 500723.0 0
400819.0 499926.0 0
96978.0 502933.0 0
101116.0 503383.0 0
108688.0 501479.0 0
112669.0 501755.0 0
117872.0 503485.0 0
121820.0 503767.0 0
132391.0 501670.0 0
136367.0 502098.0 0
140410.0 502626.0 0
150360.0 501220.0 0
155684.0 503341.0 0
159621.0 503517.0 0
163551.0 503677.0 0
189219.0 501128.0 0
193110.0 501229.0 0
197002.0 501328.0 0
200896.0 501425.0 0
204794.0 501514.0 0
208698.0 501590.0 0
212609.0 501642.0 0
216520.0 501659.0 0
221748.0 503219.0 0
225653.0 503298.0 0
229563.0 503366.0 0
233474.0 503427.0 0
237385.0 503484.0 0
241293.0 503540.0 0
245198.0 503597.0 0
249101.0 503657.0 0
297883.0 501143.0 0
301815.0 501179.0 0
305753.0 501204.0 0
309697.0 501215.0 0
313647.0 501211.0 0
317603.0 501191.0 0
321563.0 501155.0 0
343641.0 503805.0 0
347674.0 503584.0 0
351876.0 503336.0 0
355903.0 503107.0 0
359903.0 502904.0 0
363895.0 502697.0 0
367882.0 502488.0 0
371859.0 502274.0 0
375829.0 502056.0 0
379792.0 501833.0 0
383755.0 501601.0 0
387724.0 501350.0 0
391790.0 501070.0 0
398876.0 503363.0 0
403196.0 503123.0 0
105773.0 504113.0 0
110489.0 504993.0 0
114439.0 505303.0 0
125774.0 504086.0 0
130122.0 504790.0 0
134087.0 505200.0 0
138048.0 505673.0 0
144367.0 503120.0 0
148101.0 504468.0 0
152047.0 504836.0 0
167476.0 503825.0 0
171397.0 503962.0 0
175314.0 504088.0 0
179227.0 504205.0 0
183137.0 504315.0 0
187044.0 504418.0 0
190948.0 504517.0 0
194851.0 504612.0 0
198755.0 504701.0 0
202660.0 504783.0 0
206569.0 504853.0 0
210482.0 504905.0 0
214397.0 504929.0 0
218308.0 504919.0 0
253001.0 503719.0 0
256899.0 503784.0 0
260796.0 503853.0 0
264694.0 503924.0 0
268594.0 503997.0 0
272495.0 504071.0 0
276401.0 504144.0 0
280310.0 504216.0 0
284224.0 504284.0 0
288143.0 504348.0 0
292068.0 504404.0 0
295999.0 504452.0 0
299936.0 504490.0 0
303879.0 504516.0 0
307829.0 504530.0 0
311785.0 504531.0 0
315746.0 504516.0 0
319714.0 504486.0 0
323687.0 504438.0 0
327665.0 504368.0 0
331649.0 504276.0 0
335637.0 504152.0 0
339633.0 503986.0 0
358114.0 506322.0 0
362110.0 506125.0 0
366102.0 505929.0 0
370087.0 505732.0 0
374064.0 505531.0 0
378036.0 505321.0 0
382009.0 505096.0 0
385986.0 504850.0 0
389973.0 504555.0 0
394128.0 504244.0 0
96467.1 506881.0 0
100434.0 507296.0 0
104374.0 507784.0 0
108306.0 508208.0 0
112259.0 508563.0 0
119541.0 506939.0 0
123477.0 507239.0 0
127418.0 507558.0 0
131811.0 508331.0 0
135758.0 508772.0 0
141982.0 506249.0 0
145697.0 507590.0 0
149789.0 508091.0 0
157331.0 506764.0 0
161283.0 506941.0 0
165228.0 507099.0 0
169166.0 507244.0 0
173101.0 507377.0 0
177030.0 507500.0 0
180955.0 507614.0 0
184877.0 507721.0 0
188795.0 507820.0 0
192711.0 507913.0 0
196626.0 507999.0 0
200541.0 508077.0 0
204458.0 508144.0 0
208376.0 508195.0 0
212297.0 508224.0 0
216216.0 508228.0 0
220128.0 508199.0 0
223654.0 506656.0 0
227561.0 506716.0 0
231473.0 506772.0 0
235387.0 506825.0 0
239301.0 506879.0 0
243213.0 506935.0 0
247123.0 506994.0 0
251030.0 507056.0 0
254936.0 507121.0 0
258841.0 507188.0 0
262747.0 507257.0 0
266653.0 507328.0 0
270562.0 507400.0 0
274473.0 507472.0 0
278389.0 507542.0 0
282308.0 507609.0 0
286233.0 507672.0 0
290163.0 507728.0 0
294099.0 507777.0 0
298041.0 507816.0 0
301989.0 507845.0 0
305943.0 507862.0 0
309904.0 507866.0 0
313871.0 507856.0 0
317843.0 507831.0 0
321822.0 507789.0 0
325808.0 507731.0 0
329798.0 507649.0 0
333795.0 507546.0 0
337823.0 507378.0 0
341837.0 507194.0 0
345891.0 506977.0 0
349996.0 506698.0 0
354121.0 506524.0 0
368303.0 509193.0 0
372288.0 509010.0 0
380246.0 508604.0 0
384232.0 508367.0 0
388234.0 508093.0 0
392275.0 507742.0 0
397068.0 506898.0 0
401192.0 506582.0 0
98100.5 510528.0 0
102065.0 510987.0 0
116203.0 508936.0 0
121187.0 510429.0 0
125114.0 510735.0 0
129041.0 511033.0 0
133518.0 511902.0 0
139657.0 509407.0 0
143368.0 510814.0 0
153757.0 508440.0 0
159018.0 510208.0 0
162982.0 510378.0 0
166939.0 510532.0 0
170891.0 510672.0 0
174838.0 510803.0 0
178779.0 510922.0 0
182715.0 511033.0 0
186648.0 511134.0 0
190578.0 511228.0 0
194505.0 511314.0 0
198432.0 511391.0 0
202358.0 511457.0 0
206285.0 511508.0 0
210212.0 511541.0 0
214138.0 511554.0 0
218061.0 511541.0 0
221976.0 511504.0 0
225570.0 510092.0 0
229479.0 510138.0 0
233394.0 510184.0 0
237311.0 510233.0 0
241227.0 510286.0 0
245143.0 510343.0 0
249056.0 510404.0 0
252969.0 510469.0 0
256880.0 510535.0 0
260791.0 510604.0 0
264703.0 510674.0 0
268617.0 510744.0 0
272534.0 510814.0 0
276455.0 510883.0 0
280380.0 510950.0 0
284310.0 511012.0 0
288244.0 511069.0 0
292185.0 511118.0 0
296131.0 511159.0 0
300083.0 511190.0 0
304042.0 511209.0 0
308006.0 511217.0 0
311977.0 511211.0 0
315953.0 511191.0 0
319935.0 511155.0 0
323924.0 511104.0 0
327920.0 511036.0 0
331920.0 510941.0 0
336006.0 510786.0 0
340034.0 510604.0 0
344090.0 510385.0 0
348196.0 510125.0 0
352222.0 509902.0 0
356321.0 509760.0 0
360316.0 509564.0 0
364312.0 509376.0 0
376267.0 508817.0 0
394712.0 510853.0 0
398691.0 510517.0 0
402767.0 510238.0 0
106038.0 511409.0 0
110014.0 511795.0 0
113972.0 512171.0 0
117919.0 512553.0 0
122843.0 513957.0 0
126767.0 514247.0 0
137396.0 512641.0 0
147345.0 511193.0 0
151527.0 511713.0 0
155504.0 512034.0 0
160747.0 513665.0 0
164719.0 513828.0 0
168689.0 513973.0 0
227493.0 513528.0 0
231406.0 513562.0 0
235323.0 513603.0 0
239243.0 513651.0 0
243161.0 513705.0 0
247079.0 513765.0 0
250996.0 513829.0 0
254912.0 513895.0 0
258828.0 513964.0 0
262745.0 514033.0 0
266663.0 514102.0 0
338226.0 514033.0 0
342287.0 513816.0 0
346381.0 513565.0 0
350415.0 513350.0 0
354407.0 513153.0 0
358515.0 513019.0 0
362510.0 512832.0 0
366504.0 512658.0 0
370494.0 512491.0 0
374479.0 512319.0 0
378466.0 512124.0 0
382457.0 511895.0 0
386478.0 511634.0 0
390547.0 511310.0 0
99710.2 514191.0 0
103738.0 514614.0 0
107739.0 515012.0 0
111713.0 515398.0 0
115674.0 515786.0 0
119624.0 516171.0 0
130680.0 514482.0 0
141092.0 514096.0 0
145068.0 514422.0 0
149039.0 514789.0 0
153314.0 515343.0 0
157294.0 515613.0 0
172651.0 514111.0 0
176608.0 514238.0 0
180560.0 514353.0 0
184507.0 514459.0 0
188451.0 514555.0 0
192391.0 514643.0 0
196330.0 514721.0 0
200266.0 514788.0 0
204202.0 514841.0 0
208138.0 514878.0 0
212072.0 514897.0 0
216004.0 514896.0 0
219930.0 514874.0 0
223848.0 514834.0 0
270585.0 514171.0 0
274510.0 514239.0 0
278439.0 514305.0 0
282373.0 514367.0 0
286312.0 514425.0 0
290256.0 514475.0 0
294206.0 514518.0 0
298162.0 514551.0 0
302125.0 514573.0 0
306093.0 514584.0 0
310067.0 514582.0 0
314046.0 514567.0 0
318029.0 514537.0 0
322019.0 514491.0 0
326014.0 514431.0 0
330034.0 514349.0 0
334133.0 514186.0 0
352593.0 516622.0 0
356586.0 516426.0 0
360698.0 516301.0 0
364695.0 516128.0 0
368689.0 515975.0 0
372674.0 515831.0 0
376657.0 515645.0 0
380674.0 515429.0 0
384701.0 515173.0 0
388794.0 514874.0 0
392986.0 514455.0 0
396971.0 514126.0 0
400954.0 513796.0 0
101398.0 517815.0 0
105438.0 518227.0 0
109435.0 518619.0 0
124568.0 517508.0 0
128550.0 517736.0 0
132679.0 517730.0 0
136471.0 516500.0 0
142840.0 517687.0 0
146792.0 518053.0 0
150767.0 518380.0 0
162507.0 517137.0 0
166497.0 517281.0 0
170474.0 517427.0 0
174444.0 517560.0 0
178410.0 517682.0 0
182371.0 517792.0 0
186329.0 517893.0 0
190283.0 517984.0 0
194233.0 518066.0 0
198181.0 518135.0 0
202127.0 518192.0 0
206072.0 518233.0 0
210014.0 518258.0 0
213953.0 518264.0 0
217889.0 518253.0 0
221819.0 518226.0 0
225740.0 518190.0 0
229422.0 516963.0 0
233339.0 516991.0 0
237259.0 517031.0 0
241179.0 517081.0 0
245099.0 517139.0 0
249018.0 517202.0 0
252936.0 517268.0 0
256856.0 517336.0 0
260777.0 517406.0 0
264700.0 517475.0 0
268625.0 517544.0 0
272553.0 517611.0 0
276486.0 517676.0 0
280423.0 517739.0 0
284366.0 517796.0 0
288313.0 517848.0 0
292267.0 517892.0 0
296227.0 517928.0 0
300192.0 517953.0 0
304164.0 517967.0 0
308141.0 517969.0 0
312123.0 517959.0 0
316109.0 517936.0 0
320099.0 517895.0 0
324093.0 517839.0 0
328117.0 517758.0 0
332253.0 517605.0 0
336339.0 517446.0 0
340478.0 517267.0 0
344567.0 517026.0 0
348599.0 516814.0 0
366867.0 519455.0 0
382902.0 518722.0 0
386989.0 518424.0 0
391302.0 518075.0 0
395497.0 517835.0 0
399487.0 517510.0 0
99771.5 521451.0 0
113406.0 519012.0 0
117373.0 519405.0 0
121341.0 519779.0 0
126411.0 521010.0 0
130590.0 521094.0 0
135484.0 520372.0 0
139272.0 519335.0 0
155106.0 518932.0 0
159093.0 519190.0 0
164330.0 520600.0 0
168309.0 520752.0 0
172288.0 520891.0 0
176266.0 521018.0 0
180240.0 521135.0 0
184211.0 521241.0 0
188178.0 521337.0 0
192141.0 521422.0 0
196100.0 521496.0 0
200057.0 521558.0 0
204011.0 521604.0 0
207963.0 521635.0 0
211910.0 521649.0 0
215854.0 521646.0 0
219792.0 521628.0 0
223724.0 521601.0 0
227648.0 521573.0 0
231356.0 520399.0 0
235275.0 520427.0 0
239196.0 520471.0 0
243115.0 520527.0 0
247034.0 520589.0 0
250954.0 520654.0 0
254875.0 520722.0 0
258799.0 520791.0 0
262726.0 520862.0 0
266654.0 520931.0 0
270585.0 520998.0 0
274521.0 521063.0 0
278460.0 521126.0 0
282406.0 521184.0 0
286356.0 521237.0 0
290313.0 521283.0 0
294276.0 521321.0 0
298245.0 521349.0 0
302220.0 521367.0 0
306200.0 521372.0 0
310185.0 521366.0 0
314175.0 521348.0 0
318168.0 521318.0 0
322162.0 521265.0 0
326191.0 521181.0 0
330334.0 521025.0 0
334456.0 520884.0 0
338579.0 520695.0 0
342742.0 520501.0 0
346781.0 520294.0 0
350775.0 520107.0 0
354768.0 519913.0 0
358760.0 519721.0 0
362871.0 519603.0 0
370852.0 519348.0 0
374840.0 519184.0 0
378851.0 518962.0 0
393598.0 521350.0 0
397858.0 521160.0 0
103748.0 521818.0 0
107740.0 522186.0 0
111716.0 522583.0 0
115687.0 522981.0 0
119655.0 523369.0 0
123612.0 523771.0 0
128434.0 524418.0 0
133477.0 523791.0 0
137539.0 523695.0 0
141392.0 522698.0 0
145238.0 521717.0 0
149202.0 522027.0 0
153156.0 522396.0 0
157116.0 522656.0 0
161084.0 522869.0 0
166146.0 524088.0 0
170139.0 524232.0 0
174129.0 524363.0 0
233291.0 523839.0 0
237211.0 523875.0 0
241129.0 523928.0 0
245045.0 523990.0 0
248963.0 524054.0 0
252884.0 524120.0 0
256809.0 524189.0 0
260737.0 524260.0 0
264670.0 524332.0 0
268604.0 524400.0 0
272543.0 524465.0 0
276485.0 524528.0 0
328404.0 524460.0 0
332527.0 524319.0 0
336693.0 524151.0 0
340828.0 523950.0 0
344946.0 523786.0 0
348950.0 523605.0 0
352947.0 523417.0 0
356937.0 523226.0 0
360929.0 523037.0 0
365023.0 522931.0 0
369120.0 522930.0 0
373112.0 522781.0 0
377097.0 522533.0 0
381085.0 522269.0 0
385201.0 521987.0 0
389410.0 521595.0 0
101465.0 525123.0 0
105440.0 525424.0 0
109407.0 525811.0 0
113377.0 526212.0 0
117348.0 526608.0 0
143138.0 526277.0 0
146991.0 525332.0 0
150956.0 525707.0 0
154937.0 526006.0 0
158924.0 526219.0 0
162914.0 526417.0 0
178114.0 524485.0 0
182097.0 524597.0 0
186076.0 524699.0 0
190051.0 524790.0 0
194022.0 524869.0 0
197990.0 524936.0 0
201955.0 524990.0 0
205917.0 525027.0 0
209873.0 525049.0 0
213825.0 525054.0 0
217771.0 525044.0 0
221711.0 525022.0 0
225643.0 524998.0 0
229568.0 524983.0 0
280432.0 524587.0 0
284385.0 524641.0 0
288344.0 524689.0 0
292310.0 524729.0 0
296283.0 524760.0 0
300261.0 524782.0 0
304245.0 524792.0 0
308234.0 524789.0 0
312227.0 524775.0 0
316224.0 524751.0 0
320231.0 524713.0 0
324259.0 524620.0 0
351116.0 526928.0 0
355116.0 526752.0 0
359104.0 526556.0 0
363083.0 526378.0 0
367062.0 526341.0 0
374966.0 526534.0 0
378921.0 526087.0 0
382894.0 525832.0 0
386873.0 525619.0 0
390850.0 525331.0 0
394838.0 525158.0 0
398832.0 525044.0 0
101742.0 529116.0 0
105732.0 529387.0 0
121319.0 527005.0 0
125613.0 527219.0 0
131329.0 527149.0 0
135316.0 527298.0 0
139287.0 527217.0 0
167991.0 527577.0 0
172001.0 527719.0 0
175995.0 527846.0 0
179987.0 527963.0 0
183976.0 528071.0 0
187962.0 528167.0 0
191945.0 528253.0 0
195925.0 528327.0 0
199901.0 528387.0 0
203874.0 528432.0 0
207842.0 528462.0 0
211804.0 528476.0 0
215758.0 528474.0 0
219705.0 528459.0 0
223642.0 528437.0 0
227571.0 528419.0 0
231493.0 528422.0 0
235221.0 527289.0 0
239138.0 527341.0 0
243048.0 527407.0 0
246962.0 527469.0 0
250881.0 527534.0 0
254804.0 527601.0 0
258732.0 527670.0 0
262667.0 527741.0 0
266606.0 527813.0 0
270551.0 527882.0 0
274495.0 527946.0 0
278444.0 528006.0 0
282398.0 528061.0 0
286360.0 528111.0 0
290328.0 528153.0 0
294304.0 528187.0 0
298286.0 528211.0 0
302275.0 528226.0 0
306269.0 528229.0 0
310266.0 528218.0 0
314266.0 528198.0 0
318278.0 528165.0 0
322349.0 528090.0 0
326470.0 527915.0 0
330590.0 527770.0 0
334754.0 527602.0 0
338929.0 527427.0 0
343028.0 527251.0 0
347106.0 527111.0 0
371003.0 526810.0 0
393965.0 529100.0 0
398000.0 529016.0 0
109710.0 529776.0 0
113685.0 530180.0 0
117658.0 530576.0 0
121628.0 530972.0 0
125608.0 531200.0 0
129565.0 530727.0 0
133550.0 530865.0 0
137542.0 530792.0 0
141872.0 530214.0 0
145741.0 529297.0 0
149705.0 529490.0 0
153668.0 529803.0 0
157640.0 529995.0 0
161617.0 530187.0 0
165567.0 530734.0 0
169860.0 531073.0 0
173879.0 531216.0 0
177880.0 531340.0 0
181878.0 531452.0 0
185874.0 531555.0 0
189867.0 531647.0 0
193858.0 531727.0 0
197847.0 531795.0 0
201832.0 531848.0 0
205813.0 531887.0 0
209787.0 531910.0 0
213754.0 531917.0 0
217711.0 531911.0 0
221655.0 531894.0 0
225584.0 531875.0 0
229501.0 531867.0 0
233411.0 531891.0 0
237138.0 530758.0 0
241042.0 530839.0 0
244952.0 530901.0 0
248866.0 530964.0 0
252786.0 531028.0 0
256711.0 531095.0 0
260644.0 531164.0 0
264582.0 531235.0 0
268532.0 531305.0 0
272490.0 531377.0 0
276458.0 531451.0 0
280434.0 531519.0 0
284416.0 531581.0 0
288403.0 531634.0 0
292394.0 531676.0 0
296389.0 531708.0 0
300386.0 531727.0 0
304429.0 531758.0 0
308494.0 531781.0 0
312529.0 531778.0 0
316529.0 531740.0 0
320535.0 531630.0 0
324570.0 531410.0 0
328648.0 531242.0 0
332807.0 531070.0 0
336981.0 530895.0 0
341124.0 530743.0 0
345184.0 530593.0 0
349262.0 530449.0 0
353266.0 530272.0 0
357422.0 530154.0 0
361544.0 530038.0 0
365843.0 530130.0 0
369856.0 530641.0 0
373906.0 530429.0 0
377896.0 529980.0 0
381903.0 529746.0 0
385914.0 529527.0 0
389943.0 529273.0 0
102000.0 533108.0 0
106038.0 533362.0 0
110053.0 533750.0 0
114056.0 534152.0 0
118068.0 534545.0 0
142102.0 534189.0 0
146015.0 533319.0 0
150019.0 533470.0 0
154020.0 533787.0 0
158028.0 533971.0 0
162039.0 534158.0 0
238381.0 534544.0 0
242379.0 534592.0 0
246377.0 534621.0 0
342210.0 534574.0 0
346196.0 534443.0 0
350181.0 534323.0 0
354164.0 534147.0 0
358149.0 534075.0 0
362134.0 533981.0 0
366120.0 534111.0 0
378030.0 533978.0 0
382020.0 533744.0 0
386012.0 533526.0 0
390002.0 533272.0 0
394001.0 533100.0 0
398000.0 533016.0 0
122080.0 534936.0 0
126074.0 535163.0 0
130046.0 534695.0 0
134053.0 534824.0 0
138135.0 534738.0 0
166079.0 534693.0 0
170139.0 535038.0 0
174155.0 535185.0 0
178171.0 535308.0 0
182191.0 535418.0 0
186214.0 535517.0 0
190248.0 535605.0 0
194271.0 535682.0 0
198293.0 535745.0 0
202317.0 535794.0 0
206343.0 535827.0 0
210368.0 535842.0 0
214396.0 535840.0 0
218426.0 535820.0 0
222452.0 535786.0 0
226491.0 535743.0 0
230553.0 535697.0 0
234552.0 535694.0 0
250374.0 534650.0 0
254370.0 534683.0 0
258364.0 534720.0 0
262357.0 534761.0 0
266348.0 534807.0 0
270337.0 534862.0 0
274327.0 534923.0 0
278319.0 534985.0 0
282313.0 535045.0 0
286307.0 535100.0 0
290302.0 535149.0 0
294296.0 535190.0 0
298290.0 535222.0 0
302283.0 535244.0 0
306276.0 535303.0 0
310269.0 535362.0 0
314262.0 535378.0 0
318257.0 535344.0 0
322251.0 535240.0 0
326243.0 535038.0 0
330238.0 534893.0 0
334231.0 534788.0 0
338222.0 534679.0 0
370075.0 534636.0 0
374062.0 534429.0 0
POINT_DATA 4650
SCALARS Radius float 1
LOOKUP_TABLE default
4000.0 4000.0 4000.0 4000.0 4000.0 4000.0 4000.0 4000.0 4000.0 4000.0 4000.0 4000.0 4000.0 4000.0 4000.0 4000.0 4000.0 4000.0 4000.0 4000.0 4000.0 4000.0 4000.0 4000.0 4000.0 4000.0 4000.0 4000.0 4000.0 4000.0 4000.0 4000.0 4000.0 4000.0 4000.0 4000.0 4000.0 4000.0 4000.0 4000.0 4000.0 4000.0 4000.0 4000.0 4000.0 4000.0 4000.0 4000.0 4000.0 4000.0 4000.0 4000.0 4000.0 4000.0 4000.0 4000.0 4000.0 4000.0 4000.0 4000.0 4000.0 4000.0 4000.0 4000.0 4000.0 4000.0 4000.0 4000.0 4000.0 4000.0 4000.0 4000.0 4000.0 4000.0 4000.0 4000.0 4000.0 4000.0 4000.0 4000.0 4000.0 4000.0 4000.0 4000.0 4000.0 4000.0 4000.0 4000.0 4000.0 4000.0 4000.0 4000.0 4000.0 4000.0 4000.0 4000.0 4000.0 4000.0 4000.0 4000.0 4000.0 4000.0 4000.0 4000.0 4000.0 4000.0 4000.0 4000.0 4000.0 4000.0 4000.0 4000.0 4000.0 4000.0 4000.0 4000.0 4000.0 4000.0 4000.0 4000.0 4000.0 4000.0 4000.0 4000.0 4000.0 4000.0 4000.0 4000.0 4000.0 4000.0 4000.0 4000.0 4000.0 4000.0 4000.0 4000.0 4000.0 4000.0 4000.0 4000.0 4000.0 4000.0 4000.0 4000.0 4000.0 4000.0 4000.0 4000.0 4000.0 4000.0 4000.0 4000.0 4000.0 4000.0 4000.0 4000.0 4000.0 4000.0 4000.0 4000.0 4000.0 4000.0 4000.0 4000.0 4000.0 4000.0 4000.0 4000.0 4000.0 4000.0 4000.0 4000.0 4000.0 4000.0 4000.0 4000.0 4000.0 4000.0 4000.0 4000.0 4000.0 4000.0 4000.0 4000.0 4000.0 4000.0 4000.0 4000.0 4000.0 4000.0 4000.0 4000.0 4000.0 4000.0 4000.0 4000.0 4000.0 4000.0 4000.0 4000.0 4000.0 4000.0 4000.0 4000.0 4000.0 4000.0 4000.0 4000.0 4000.0 4000.0 4000.0 4000.0 4000.0 4000.0 4000.0 4000.0 4000.0 4000.0 4000.0 4000.0 4000.0 4000.0 4000.0 4000.0 4000.0 4000.0 4000.0 4000.0 4000.0 4000.0 4000.0 4000.0 4000.0 4000.0 4000.0 4000.0 4000.0 4000.0 4000.0 4000.0 4000.0 4000.0 4000.0 4000.0 4000.0 4000.0 4000.0 4000.0 4000.0 4000.0 4000.0 4000.0 4000.0 4000.0 4000.0 4000.0 4000.0 4000.0 4000.0 4000.0 4000.0 4000.0 4000.0 4000.0 4000.0 4000.0 4000.0 4000.0 4000.0 4000.0 4000.0 4000.0 4000.0 4000.0 4000.0 4000.0 4000.0 4000.0 4000.0 4000.0 4000.0 4000.0 4000.0 4000.0 4000.0 4000.0 4000.0 4000.0 4000.0 4000.0 4000.0 4000.0 4000.0 4000.0 4000.0 4000.0 4000.0 4000.0 4000.0 4000.0 4000.0 4000.0 4000.0 4000.0 4000.0 4000.0 4000.0 4000.0 4000.0 4000.0 4000.0 4000.0 4000.0 4000.0 4000.0 4000.0 4000.0 4000.0 4000.0 4000.0 4000.0 4000.0 4000.0 4000.0 4000.0 4000.0 4000.0 4000.0 4000.0 4000.0 4000.0 4000.0 4000.0 4000.0 4000.0 4000.0 4000.0 4000.0 4000.0 4000.0 4000.0 4000.0 4000.0 4000.0 4000.0 4000.0 4000.0 4000.0 4000.0 4000.0 4000.0 4000.0 4000.0 4000.0 4000.0 4000.0 4000.0 4000.0 4000.0 4000.0 4000.0 4000.0 4000.0 4000.0 4000.0 4000.0 4000.0 4000.0 4000.0 4000.0 4000.0 4000.0 4000.0 4000.0 4000.0 4000.0 4000.0 4000.0 4000.0 4000.0 4000.0 4000.0 4000.0 4000.0 4000.0 4000.0 4000.0 4000.0 4000.0 4000.0 4000.0 4000.0 4000.0 4000.0 4000.0 4000.0 4000.0 4000.0 4000.0 4000.0 4000.0 4000.0 4000.0 4000.0 4000.0 4000.0 4000.0 4000.0 4000.0 4000.0 4000.0 4000.0 4000.0 4000.0 4000.0 4000.0 4000.0 4000.0 4000.0 4000.0 4000.0 4000.0 4000.0 4000.0 4000.0 4000.0 4000.0 4000.0 4000.0 4000.0 4000.0 4000.0 4000.0 4000.0 4000.0 4000.0 4000.0 4000.0 4000.0 4000.0 4000.0 4000.0 4000.0 4000.0 4000.0 4000.0 4000.0 4000.0 4000.0 4000.0 4000.0 4000.0 4000.0 4000.0 4000.0 4000.0 4000.0 4000.0 4000.0 4000.0 4000.0 4000.0 4000.0 4000.0 4000.0 4000.0 4000.0 4000.0 4000.0 4000.0 4000.0 4000.0 4000.0 4000.0 4000.0 4000.0 4000.0 4000.0 4000.0 4000.0 4000.0 4000.0 4000.0 4000.0 4000.0 4000.0 4000.0 4000.0 4000.0 4000.0 4000.0 4000.0 4000.0 4000.0 4000.0 4000.0 4000.0 4000.0 4000.0 4000.0 4000.0 4000.0 4000.0 4000.0 4000.0 4000.0 4000.0 4000.0 4000.0 4000.0 4000.0 4000.0 4000.0 4000.0 4000.0 4000.0 4000.0 4000.0 4000.0 4000.0 4000.0 4000.0 4000.0 4000.0 4000.0 4000.0 4000.0 4000.0 4000.0 4000.0 4000.0 4000.0 4000.0 4000.0 4000.0 4000.0 4000.0 4000.0 4000.0 4000.0 4000.0 4000.0 4000.0 4000.0 4000.0 4000.0 4000.0 4000.0 4000.0 4000.0 4000.0 4000.0 4000.0 4000.0 4000.0 4000.0 4000.0 4000.0 4000.0 4000.0 4000.0 4000.0 4000.0 4000.0 4000.0 4000.0 4000.0 4000.0 4000.0 4000.0 4000.0 4000.0 4000.0 4000.0 4000.0 4000.0 4000.0 4000.0 4000.0 4000.0 4000.0 4000.0 4000.0 4000.0 4000.0 4000.0 4000.0 4000.0 4000.0 4000.0 4000.0 4000.0 4000.0 4000.0 4000.0 4000.0 4000.0 4000.0 4000.0 4000.0 4000.0 4000.0 4000.0 4000.0 4000.0 4000.0 4000.0 4000.0 4000.0 4000.0 4000.0 4000.0 4000.0 4000.0 4000.0 4000.0 4000.0 4000.0 4000.0 4000.0 4000.0 4000.0 4000.0 4000.0 4000.0 4000.0 4000.0 4000.0 4000.0 4000.0 4000.0 4000.0 4000.0 4000.0 4000.0 4000.0 4000.0 4000.0 4000.0 4000.0 4000.0 4000.0 4000.0 4000.0 4000.0 4000.0 4000.0 4000.0 4000.0 4000.0 4000.0 4000.0 4000.0 4000.0 4000.0 4000.0 4000.0 4000.0 4000.0 4000.0 4000.0 4000.0 4000.0 4000.0 4000.0 4000.0 4000.0 4000.0 4000.0 4000.0 4000.0 4000.0 4000.0 4000.0 4000.0 4000.0 4000.0 4000.0 4000.0 4000.0 4000.0 4000.0 4000.0 4000.0 4000.0 4000.0 4000.0 4000.0 4000.0 4000.0 4000.0 4000.0 4000.0 4000.0 4000.0 4000.0 4000.0 4000.0 4000.0 4000.0 4000.0 4000.0 4000.0 4000.0 4000.0 4000.0 4000.0 4000.0 4000.0 4000.0 4000.0 4000.0 4000.0 4000.0 4000.0 4000.0 4000.0 4000.0 4000.0 4000.0 4000.0 4000.0 4000.0 4000.0 4000.0 4000.0 4000.0 4000.0 4000.0 4000.0 4000.0 4000.0 4000.0 4000.0 4000.0 4000.0 4000.0 4000.0 4000.0 4000.0 4000.0 4000.0 4000.0 4000.0 4000.0 4000.0 4000.0 4000.0 4000.0 4000.0 4000.0 4000.0 4000.0 4000.0 4000.0 4000.0 4000.0 4000.0 4000.0 4000.0 4000.0 4000.0 4000.0 4000.0 4000.0 4000.0 4000.0 4000.0 4000.0 4000.0 4000.0 4000.0 4000.0 4000.0 4000.0 4000.0 4000.0 4000.0 4000.0 4000.0 4000.0 4000.0 4000.0 4000.0 4000.0 4000.0 4000.0 4000.0 4000.0 4000.0 4000.0 4000.0 4000.0 4000.0 4000.0 4000.0 4000.0 4000.0 4000.0 4000.0 4000.0 4000.0 4000.0 4000.0 4000.0 4000.0 4000.0 4000.0 4000.0 4000.0 4000.0 4000.0 4000.0 4000.0 4000.0 4000.0 4000.0 4000.0 4000.0 4000.0 4000.0 4000.0 4000.0 4000.0 4000.0 4000.0 4000.0 4000.0 4000.0 4000.0 4000.0 4000.0 4000.0 4000.0 4000.0 4000.0 4000.0 4000.0 4000.0 4000.0 4000.0 4000.0 4000.0 4000.0 4000.0 4000.0 4000.0 4000.0 4000.0 4000.0 4000.0 4000.0 4000.0 4000.0 4000.0 4000.0 4000.0 4000.0 4000.0 4000.0 4000.0 4000.0 4000.0 4000.0 4000.0 4000.0 4000.0 4000.0 4000.0 4000.0 4000.0 4000.0 4000.0 4000.0 4000.0 4000.0 4000.0 4000.0 4000.0 4000.0 4000.0 4000.0 4000.0 4000.0 4000.0 4000.0 4000.0 4000.0 4000.0 4000.0 4000.0 4000.0 4000.0 4000.0 4000.0 4000.0 4000.0 4000.0 4000.0 4000.0 4000.0 4000.0 4000.0 4000.0 4000.0 4000.0 4000.0 4000.0 4000.0 4000.0 4000.0 4000.0 4000.0 4000.0 4000.0 4000.0 4000.0 4000.0 4000.0 4000.0 4000.0 4000.0 4000.0 4000.0 4000.0 4000.0 4000.0 4000.0 4000.0 4000.0 4000.0 4000.0 4000.0 4000.0 4000.0 4000.0 4000.0 4000.0 4000.0 4000.0 4000.0 4000.0 4000.0 4000.0 4000.0 4000.0 4000.0 4000.0 4000.0 4000.0 4000.0 4000.0 4000.0 4000.0 4000.0 4000.0 4000.0 4000.0 4000.0 4000.0 4000.0 4000.0 4000.0 4000.0 4000.0 4000.0 4000.0 4000.0 4000.0 4000.0 4000.0 4000.0 4000.0 4000.0 4000.0 4000.0 4000.0 4000.0 4000.0 4000.0 4000.0 4000.0 4000.0 4000.0 4000.0 4000.0 4000.0 4000.0 4000.0 4000.0 4000.0 4000.0 4000.0 4000.0 4000.0 4000.0 4000.0 4000.0 4000.0 4000.0 4000.0 4000.0 4000.0 4000.0 4000.0 4000.0 4000.0 4000.0 4000.0 4000.0 4000.0 4000.0 4000.0 4000.0 4000.0 4000.0 4000.0 4000.0 4000.0 4000.0 4000.0 4000.0 4000.0 4000.0 4000.0 4000.0 4000.0 4000.0 4000.0 4000.0 4000.0 4000.0 4000.0 4000.0 4000.0 4000.0 4000.0 4000.0 4000.0 4000.0 4000.0 4000.0 4000.0 4000.0 4000.0 4000.0 4000.0 4000.0 4000.0 4000.0 4000.0 4000.0 4000.0 4000.0 4000.0 4000.0 4000.0 4000.0 4000.0 4000.0 4000.0 4000.0 4000.0 4000.0 4000.0 4000.0 4000.0 4000.0 4000.0 4000.0 4000.0 4000.0 4000.0 4000.0 4000.0 4000.0 4000.0 4000.0 4000.0 4000.0 4000.0 4000.0 4000.0 4000.0 4000.0 4000.0 4000.0 4000.0 4000.0 4000.0 4000.0 4000.0 4000.0 4000.0 4000.0 4000.0 4000.0 4000.0 4000.0 4000.0 4000.0 4000.0 4000.0 4000.0 4000.0 4000.0 4000.0 4000.0 4000.0 4000.0 4000.0 4000.0 4000.0 4000.0 4000.0 4000.0 4000.0 4000.0 4000.0 4000.0 4000.0 4000.0 4000.0 4000.0 4000.0 4000.0 4000.0 4000.0 4000.0 4000.0 4000.0 4000.0 4000.0 4000.0 4000.0 4000.0 4000.0 4000.0 4000.0 4000.0 4000.0 4000.0 4000.0 4000.0 4000.0 4000.0 4000.0 4000.0 4000.0 4000.0 4000.0 4000.0 4000.0 4000.0 4000.0 4000.0 4000.0 4000.0 4000.0 4000.0 4000.0 4000.0 4000.0 4000.0 4000.0 4000.0 4000.0 4000.0 4000.0 4000.0 4000.0 4000.0 4000.0 4000.0 4000.0 4000.0 4000.0 4000.0 4000.0 4000.0 4000.0 4000.0 4000.0 4000.0 4000.0 4000.0 4000.0 4000.0 4000.0 4000.0 4000.0 4000.0 4000.0 4000.0 4000.0 4000.0 4000.0 4000.0 4000.0 4000.0 4000.0 4000.0 4000.0 4000.0 4000.0 4000.0 4000.0 4000.0 4000.0 4000.0 4000.0 4000.0 4000.0 4000.0 4000.0 4000.0 4000.0 4000.0 4000.0 4000.0 4000.0 4000.0 4000.0 4000.0 4000.0 4000.0 4000.0 4000.0 4000.0 4000.0 4000.0 4000.0 4000.0 4000.0 4000.0 4000.0 4000.0 4000.0 4000.0 4000.0 4000.0 4000.0 4000.0 4000.0 4000.0 4000.0 4000.0 4000.0 4000.0 4000.0 4000.0 4000.0 4000.0 4000.0 4000.0 4000.0 4000.0 4000.0 4000.0 4000.0 4000.0 4000.0 4000.0 4000.0 4000.0 4000.0 4000.0 4000.0 4000.0 4000.0 4000.0 4000.0 4000.0 4000.0 4000.0 4000.0 4000.0 4000.0 4000.0 4000.0 4000.0 4000.0 4000.0 4000.0 4000.0 4000.0 4000.0 4000.0 4000.0 4000.0 4000.0 4000.0 4000.0 4000.0 4000.0 4000.0 4000.0 4000.0 4000.0 4000.0 4000.0 4000.0 4000.0 4000.0 4000.0 4000.0 4000.0 4000.0 4000.0 4000.0 4000.0 4000.0 4000.0 4000.0 4000.0 4000.0 4000.0 4000.0 4000.0 4000.0 4000.0 4000.0 4000.0 4000.0 4000.0 4000.0 4000.0 4000.0 4000.0 4000.0 4000.0 4000.0 4000.0 4000.0 4000.0 4000.0 4000.0 4000.0 4000.0 4000.0 4000.0 4000.0 4000.0 4000.0 4000.0 4000.0 4000.0 4000.0 4000.0 4000.0 4000.0 4000.0 4000.0 4000.0 4000.0 4000.0 4000.0 4000.0 4000.0 4000.0 4000.0 4000.0 4000.0 4000.0 4000.0 4000.0 4000.0 4000.0 4000.0 4000.0 4000.0 4000.0 4000.0 4000.0 4000.0 4000.0 4000.0 4000.0 4000.0 4000.0 4000.0 4000.0 4000.0 4000.0 4000.0 4000.0 4000.0 4000.0 4000.0 4000.0 4000.0 4000.0 4000.0 4000.0 4000.0 4000.0 4000.0 4000.0 4000.0 4000.0 4000.0 4000.0 4000.0 4000.0 4000.0 4000.0 4000.0 4000.0 4000.0 4000.0 4000.0 4000.0 4000.0 4000.0 4000.0 4000.0 4000.0 4000.0 4000.0 4000.0 4000.0 4000.0 4000.0 4000.0 4000.0 4000.0 4000.0 4000.0 4000.0 4000.0 4000.0 4000.0 4000.0 4000.0 4000.0 4000.0 4000.0 4000.0 4000.0 4000.0 4000.0 4000.0 4000.0 4000.0 4000.0 4000.0 4000.0 4000.0 4000.0 4000.0 4000.0 4000.0 4000.0 4000.0 4000.0 4000.0 4000.0 4000.0 4000.0 4000.0 4000.0 4000.0 4000.0 4000.0 4000.0 4000.0 4000.0 4000.0 4000.0 4000.0 4000.0 4000.0 4000.0 4000.0 4000.0 4000.0 4000.0 4000.0 4000.0 4000.0 4000.0 4000.0 4000.0 4000.0 4000.0 4000.0 4000.0 4000.0 4000.0 4000.0 4000.0 4000.0 4000.0 4000.0 4000.0 4000.0 4000.0 4000.0 4000.0 4000.0 4000.0 4000.0 4000.0 4000.0 4000.0 4000.0 4000.0 4000.0 4000.0 4000.0 4000.0 4000.0 4000.0 4000.0 4000.0 4000.0 4000.0 4000.0 4000.0 4000.0 4000.0 4000.0 4000.0 4000.0 4000.0 4000.0 4000.0 4000.0 4000.0 4000.0 4000.0 4000.0 4000.0 4000.0 4000.0 4000.0 4000.0 4000.0 4000.0 4000.0 4000.0 4000.0 4000.0 4000.0 4000.0 4000.0 4000.0 4000.0 4000.0 4000.0 4000.0 4000.0 4000.0 4000.0 4000.0 4000.0 4000.0 4000.0 4000.0 4000.0 4000.0 4000.0 4000.0 4000.0 4000.0 4000.0 4000.0 4000.0 4000.0 4000.0 4000.0 4000.0 4000.0 4000.0 4000.0 4000.0 4000.0 4000.0 4000.0 4000.0 4000.0 4000.0 4000.0 4000.0 4000.0 4000.0 4000.0 4000.0 4000.0 4000.0 4000.0 4000.0 4000.0 4000.0 4000.0 4000.0 4000.0 4000.0 4000.0 4000.0 4000.0 4000.0 4000.0 4000.0 4000.0 4000.0 4000.0 4000.0 4000.0 4000.0 4000.0 4000.0 4000.0 4000.0 4000.0 4000.0 4000.0 4000.0 4000.0 4000.0 4000.0 4000.0 4000.0 4000.0 4000.0 4000.0 4000.0 4000.0 4000.0 4000.0 4000.0 4000.0 4000.0 4000.0 4000.0 4000.0 4000.0 4000.0 4000.0 4000.0 4000.0 4000.0 4000.0 4000.0 4000.0 4000.0 4000.0 4000.0 4000.0 4000.0 4000.0 4000.0 4000.0 4000.0 4000.0 4000.0 4000.0 4000.0 4000.0 4000.0 4000.0 4000.0 4000.0 4000.0 4000.0 4000.0 4000.0 4000.0 4000.0 4000.0 4000.0 4000.0 4000.0 4000.0 4000.0 4000.0 4000.0 4000.0 4000.0 4000.0 4000.0 4000.0 4000.0 4000.0 4000.0 4000.0 4000.0 4000.0 4000.0 4000.0 4000.0 4000.0 4000.0 4000.0 4000.0 4000.0 4000.0 4000.0 4000.0 4000.0 4000.0 4000.0 4000.0 4000.0 4000.0 4000.0 4000.0 4000.0 4000.0 4000.0 4000.0 4000.0 4000.0 4000.0 4000.0 4000.0 4000.0 4000.0 4000.0 4000.0 4000.0 4000.0 4000.0 4000.0 4000.0 4000.0 4000.0 4000.0 4000.0 4000.0 4000.0 4000.0 4000.0 4000.0 4000.0 4000.0 4000.0 4000.0 4000.0 4000.0 4000.0 4000.0 4000.0 4000.0 4000.0 4000.0 4000.0 4000.0 4000.0 4000.0 4000.0 4000.0 4000.0 4000.0 4000.0 4000.0 4000.0 4000.0 4000.0 4000.0 4000.0 4000.0 4000.0 4000.0 4000.0 4000.0 4000.0 4000.0 4000.0 4000.0 4000.0 4000.0 4000.0 4000.0 4000.0 4000.0 4000.0 4000.0 4000.0 4000.0 4000.0 4000.0 4000.0 4000.0 4000.0 4000.0 4000.0 4000.0 4000.0 4000.0 4000.0 4000.0 4000.0 4000.0 4000.0 4000.0 4000.0 4000.0 4000.0 4000.0 4000.0 4000.0 4000.0 4000.0 4000.0 4000.0 4000.0 4000.0 4000.0 4000.0 4000.0 4000.0 4000.0 4000.0 4000.0 4000.0 4000.0 4000.0 4000.0 4000.0 4000.0 4000.0 4000.0 4000.0 4000.0 4000.0 4000.0 4000.0 4000.0 4000.0 4000.0 4000.0 4000.0 4000.0 4000.0 4000.0 4000.0 4000.0 4000.0 4000.0 4000.0 4000.0 4000.0 4000.0 4000.0 4000.0 4000.0 4000.0 4000.0 4000.0 4000.0 4000.0 4000.0 4000.0 4000.0 4000.0 4000.0 4000.0 4000.0 4000.0 4000.0 4000.0 4000.0 4000.0 4000.0 4000.0 4000.0 4000.0 4000.0 4000.0 4000.0 4000.0 4000.0 4000.0 4000.0 4000.0 4000.0 4000.0 4000.0 4000.0 4000.0 4000.0 4000.0 4000.0 4000.0 4000.0 4000.0 4000.0 4000.0 4000.0 4000.0 4000.0 4000.0 4000.0 4000.0 4000.0 4000.0 4000.0 4000.0 4000.0 4000.0 4000.0 4000.0 4000.0 4000.0 4000.0 4000.0 4000.0 4000.0 4000.0 4000.0 4000.0 4000.0 4000.0 4000.0 4000.0 4000.0 4000.0 4000.0 4000.0 4000.0 4000.0 4000.0 4000.0 4000.0 4000.0 4000.0 4000.0 4000.0 4000.0 4000.0 4000.0 4000.0 4000.0 4000.0 4000.0 4000.0 4000.0 4000.0 4000.0 4000.0 4000.0 4000.0 4000.0 4000.0 4000.0 4000.0 4000.0 4000.0 4000.0 4000.0 4000.0 4000.0 4000.0 4000.0 4000.0 4000.0 4000.0 4000.0 4000.0 4000.0 4000.0 4000.0 4000.0 4000.0 4000.0 4000.0 4000.0 4000.0 4000.0 4000.0 4000.0 4000.0 4000.0 4000.0 4000.0 4000.0 4000.0 4000.0 4000.0 4000.0 4000.0 4000.0 4000.0 4000.0 4000.0 4000.0 4000.0 4000.0 4000.0 4000.0 4000.0 4000.0 4000.0 4000.0 4000.0 4000.0 4000.0 4000.0 4000.0 4000.0 4000.0 4000.0 4000.0 4000.0 4000.0 4000.0 4000.0 4000.0 4000.0 4000.0 4000.0 4000.0 4000.0 4000.0 4000.0 4000.0 4000.0 4000.0 4000.0 4000.0 4000.0 4000.0 4000.0 4000.0 4000.0 4000.0 4000.0 4000.0 4000.0 4000.0 4000.0 4000.0 4000.0 4000.0 4000.0 4000.0 4000.0 4000.0 4000.0 4000.0 4000.0 4000.0 4000.0 4000.0 4000.0 4000.0 4000.0 4000.0 4000.0 4000.0 4000.0 4000.0 4000.0 4000.0 4000.0 4000.0 4000.0 4000.0 4000.0 4000.0 4000.0 4000.0 4000.0 4000.0 4000.0 4000.0 4000.0 4000.0 4000.0 4000.0 4000.0 4000.0 4000.0 4000.0 4000.0 4000.0 4000.0 4000.0 4000.0 4000.0 4000.0 4000.0 4000.0 4000.0 4000.0 4000.0 4000.0 4000.0 4000.0 4000.0 4000.0 4000.0 4000.0 4000.0 4000.0 4000.0 4000.0 4000.0 4000.0 4000.0 4000.0 4000.0 4000.0 4000.0 4000.0 4000.0 4000.0 4000.0 4000.0 4000.0 4000.0 4000.0 4000.0 4000.0 4000.0 4000.0 4000.0 4000.0 4000.0 4000.0 4000.0 4000.0 4000.0 4000.0 4000.0 4000.0 4000.0 4000.0 4000.0 4000.0 4000.0 4000.0 4000.0 4000.0 4000.0 4000.0 4000.0 4000.0 4000.0 4000.0 4000.0 4000.0 4000.0 4000.0 4000.0 4000.0 4000.0 4000.0 4000.0 4000.0 4000.0 4000.0 4000.0 4000.0 4000.0 4000.0 4000.0 4000.0 4000.0 4000.0 4000.0 4000.0 4000.0 4000.0 4000.0 4000.0 4000.0 4000.0 4000.0 4000.0 4000.0 4000.0 4000.0 4000.0 4000.0 4000.0 4000.0 4000.0 4000.0 4000.0 4000.0 4000.0 4000.0 4000.0 4000.0 4000.0 4000.0 4000.0 4000.0 4000.0 4000.0 4000.0 4000.0 4000.0 4000.0 4000.0 4000.0 4000.0 4000.0 4000.0 4000.0 4000.0 4000.0 4000.0 4000.0 4000.0 4000.0 4000.0 4000.0 4000.0 4000.0 4000.0 4000.0 4000.0 4000.0 4000.0 4000.0 4000.0 4000.0 4000.0 4000.0 4000.0 4000.0 4000.0 4000.0 4000.0 4000.0 4000.0 4000.0 4000.0 4000.0 4000.0 4000.0 4000.0 4000.0 4000.0 4000.0 4000.0 4000.0 4000.0 4000.0 4000.0 4000.0 4000.0 4000.0 4000.0 4000.0 4000.0 4000.0 4000.0 4000.0 4000.0 4000.0 4000.0 4000.0 4000.0 4000.0 4000.0 4000.0 4000.0 4000.0 4000.0 4000.0 4000.0 4000.0 4000.0 4000.0 4000.0 4000.0 4000.0 4000.0 4000.0 4000.0 4000.0 4000.0 4000.0 4000.0 4000.0 4000.0 4000.0 4000.0 4000.0 4000.0 4000.0 4000.0 4000.0 4000.0 4000.0 4000.0 4000.0 4000.0 4000.0 4000.0 4000.0 4000.0 4000.0 4000.0 4000.0 4000.0 4000.0 4000.0 4000.0 4000.0 4000.0 4000.0 4000.0 4000.0 4000.0 4000.0 4000.0 4000.0 4000.0 4000.0 4000.0 4000.0 4000.0 4000.0 4000.0 4000.0 4000.0 4000.0 4000.0 4000.0 4000.0 4000.0 4000.0 4000.0 4000.0 4000.0 4000.0 4000.0 4000.0 4000.0 4000.0 4000.0 4000.0 4000.0 4000.0 4000.0 4000.0 4000.0 4000.0 4000.0 4000.0 4000.0 4000.0 4000.0 4000.0 4000.0 4000.0 4000.0 4000.0 4000.0 4000.0 4000.0 4000.0 4000.0 4000.0 4000.0 4000.0 4000.0 4000.0 4000.0 4000.0 4000.0 4000.0 4000.0 4000.0 4000.0 4000.0 4000.0 4000.0 4000.0 4000.0 4000.0 4000.0 4000.0 4000.0 4000.0 4000.0 4000.0 4000.0 4000.0 4000.0 4000.0 4000.0 4000.0 4000.0 4000.0 4000.0 4000.0 4000.0 4000.0 4000.0 4000.0 4000.0 4000.0 4000.0 4000.0 4000.0 4000.0 4000.0 4000.0 4000.0 4000.0 4000.0 4000.0 4000.0 4000.0 4000.0 4000.0 4000.0 4000.0 4000.0 4000.0 4000.0 4000.0 4000.0 4000.0 4000.0 4000.0 4000.0 4000.0 4000.0 4000.0 4000.0 4000.0 4000.0 4000.0 4000.0 4000.0 4000.0 4000.0 4000.0 4000.0 4000.0 4000.0 4000.0 4000.0 4000.0 4000.0 4000.0 4000.0 4000.0 4000.0 4000.0 4000.0 4000.0 4000.0 4000.0 4000.0 4000.0 4000.0 4000.0 4000.0 4000.0 4000.0 4000.0 4000.0 4000.0 4000.0 4000.0 4000.0 4000.0 4000.0 4000.0 4000.0 4000.0 4000.0 4000.0 4000.0 4000.0 4000.0 4000.0 4000.0 4000.0 4000.0 4000.0 4000.0 4000.0 4000.0 4000.0 4000.0 4000.0 4000.0 4000.0 4000.0 4000.0 4000.0 4000.0 4000.0 4000.0 4000.0 4000.0 4000.0 4000.0 4000.0 4000.0 4000.0 4000.0 4000.0 4000.0 4000.0 4000.0 4000.0 4000.0 4000.0 4000.0 4000.0 4000.0 4000.0 4000.0 4000.0 4000.0 4000.0 4000.0 4000.0 4000.0 4000.0 4000.0 4000.0 4000.0 4000.0 4000.0 4000.0 4000.0 4000.0 4000.0 4000.0 4000.0 4000.0 4000.0 4000.0 4000.0 4000.0 4000.0 4000.0 4000.0 4000.0 4000.0 4000.0 4000.0 4000.0 4000.0 4000.0 4000.0 4000.0 4000.0 4000.0 4000.0 4000.0 4000.0 4000.0 4000.0 4000.0 4000.0 4000.0 4000.0 4000.0 4000.0 4000.0 4000.0 4000.0 4000.0 4000.0 4000.0 4000.0 4000.0 4000.0 4000.0 4000.0 4000.0 4000.0 4000.0 4000.0 4000.0 4000.0 4000.0 4000.0 4000.0 4000.0 4000.0 4000.0 4000.0 4000.0 4000.0 4000.0 4000.0 4000.0 4000.0 4000.0 4000.0 4000.0 4000.0 4000.0 4000.0 4000.0 4000.0 4000.0 4000.0 4000.0 4000.0 4000.0 4000.0 4000.0 4000.0 4000.0 4000.0 4000.0 4000.0 4000.0 4000.0 4000.0 4000.0 4000.0 4000.0 4000.0 4000.0 4000.0 4000.0 4000.0 4000.0 4000.0 4000.0 4000.0 4000.0 4000.0 4000.0 4000.0 4000.0 4000.0 4000.0 4000.0 4000.0 4000.0 4000.0 4000.0 4000.0 4000.0 4000.0 4000.0 4000.0 4000.0 4000.0 4000.0 4000.0 4000.0 4000.0 4000.0 4000.0 4000.0 4000.0 4000.0 4000.0 4000.0 4000.0 4000.0 4000.0 4000.0 4000.0 4000.0 4000.0 4000.0 4000.0 4000.0 4000.0 4000.0 4000.0 4000.0 4000.0 4000.0 4000.0 4000.0 4000.0 4000.0 4000.0 4000.0 4000.0 4000.0 4000.0 4000.0 4000.0 4000.0 4000.0 4000.0 4000.0 4000.0 4000.0 4000.0 4000.0 4000.0 4000.0 4000.0 4000.0 4000.0 4000.0 4000.0 4000.0 4000.0 4000.0 4000.0 4000.0 4000.0 4000.0 4000.0 4000.0 4000.0 4000.0 4000.0 4000.0 4000.0 4000.0 4000.0 4000.0 4000.0 4000.0 4000.0 4000.0 4000.0 4000.0 4000.0 4000.0 4000.0 4000.0 4000.0 4000.0 4000.0 4000.0 4000.0 4000.0 4000.0 4000.0 4000.0 4000.0 4000.0 4000.0 4000.0 4000.0 4000.0 4000.0 4000.0 4000.0 4000.0 4000.0 4000.0 4000.0 4000.0 4000.0 4000.0 4000.0 4000.0 4000.0 4000.0 4000.0 4000.0 4000.0 4000.0 4000.0 4000.0 4000.0 4000.0 4000.0 4000.0 4000.0 4000.0 4000.0 4000.0 4000.0 4000.0 4000.0 4000.0 4000.0 4000.0 4000.0 4000.0 4000.0 4000.0 4000.0 4000.0 4000.0 4000.0 4000.0 4000.0 4000.0 4000.0 4000.0 4000.0 4000.0 4000.0 4000.0 4000.0 4000.0 4000.0 4000.0 4000.0 4000.0 4000.0 4000.0 4000.0 4000.0 4000.0 4000.0 4000.0 4000.0 4000.0 4000.0 4000.0 4000.0 4000.0 4000.0 4000.0 4000.0 4000.0 4000.0 4000.0 4000.0 4000.0 4000.0 4000.0 4000.0 4000.0 4000.0 4000.0 4000.0 4000.0 4000.0 4000.0 4000.0 4000.0 4000.0 4000.0 4000.0 4000.0 4000.0 4000.0 4000.0 4000.0 4000.0 4000.0 4000.0 4000.0 4000.0 4000.0 4000.0 4000.0 4000.0 4000.0 4000.0 4000.0 4000.0 4000.0 4000.0 4000.0 4000.0 4000.0 4000.0 4000.0 4000.0 4000.0 4000.0 4000.0 4000.0 4000.0 4000.0 4000.0 4000.0 4000.0 4000.0 4000.0 4000.0 4000.0 4000.0 4000.0 4000.0 4000.0 4000.0 4000.0 4000.0 4000.0 4000.0 4000.0 4000.0 4000.0 4000.0 4000.0 4000.0 4000.0 4000.0 4000.0 4000.0 4000.0 4000.0 4000.0 4000.0 4000.0 4000.0 4000.0 4000.0 4000.0 4000.0 4000.0 4000.0 4000.0 4000.0 4000.0 4000.0 4000.0 4000.0 4000.0 4000.0 4000.0 4000.0 4000.0 4000.0 4000.0 4000.0 4000.0 4000.0 4000.0 4000.0 4000.0 4000.0 4000.0 4000.0 4000.0 4000.0 4000.0 4000.0 4000.0 4000.0 4000.0 4000.0 4000.0 4000.0 4000.0 4000.0 4000.0 4000.0 4000.0 4000.0 4000.0 4000.0 4000.0 4000.0 4000.0 4000.0 4000.0 4000.0 4000.0 4000.0 4000.0 4000.0 4000.0 4000.0 4000.0 4000.0 4000.0 4000.0 4000.0 4000.0 4000.0 4000.0 4000.0 4000.0 4000.0 4000.0 4000.0 4000.0 4000.0 4000.0 4000.0 4000.0 4000.0 4000.0 4000.0 4000.0 4000.0 4000.0 4000.0 4000.0 4000.0 4000.0 4000.0 4000.0 4000.0 4000.0 4000.0 4000.0 4000.0 4000.0 4000.0 4000.0 4000.0 4000.0 4000.0 4000.0 4000.0 4000.0 4000.0 4000.0 4000.0 4000.0 4000.0 4000.0 4000.0 4000.0 4000.0 4000.0 4000.0 4000.0 4000.0 4000.0 4000.0 4000.0 4000.0 4000.0 4000.0 4000.0 4000.0 4000.0 4000.0 4000.0 4000.0 4000.0 4000.0 4000.0 4000.0 4000.0 4000.0 4000.0 4000.0 4000.0 4000.0 4000.0 4000.0 4000.0 4000.0 4000.0 4000.0 4000.0 4000.0 4000.0 4000.0 4000.0 4000.0 4000.0 4000.0 4000.0 4000.0 4000.0 4000.0 4000.0 4000.0 4000.0 4000.0 4000.0 4000.0 4000.0 4000.0 4000.0 4000.0 4000.0 4000.0 4000.0 4000.0 4000.0 4000.0 4000.0 4000.0 4000.0 4000.0 4000.0 4000.0 4000.0 4000.0 4000.0 4000.0 4000.0 4000.0 4000.0 4000.0 4000.0 4000.0 4000.0 4000.0 4000.0 4000.0 4000.0 4000.0 4000.0 4000.0 4000.0 4000.0 4000.0 4000.0 4000.0 4000.0 4000.0 4000.0 4000.0 4000.0 4000.0 4000.0 4000.0 4000.0 4000.0 4000.0 4000.0 4000.0 4000.0 4000.0 4000.0 4000.0 4000.0 4000.0 4000.0 4000.0 4000.0 4000.0 4000.0 4000.0 4000.0 4000.0 4000.0 4000.0 4000.0 4000.0 4000.0 4000.0 4000.0 4000.0 4000.0 4000.0 4000.0 4000.0 4000.0 4000.0 4000.0 4000.0 4000.0 4000.0 4000.0 4000.0 4000.0 4000.0 4000.0 4000.0 4000.0 4000.0 4000.0 4000.0 4000.0 4000.0 4000.0 4000.0 4000.0 4000.0 4000.0 4000.0 4000.0 4000.0 4000.0 4000.0 4000.0 4000.0 4000.0 4000.0 4000.0 4000.0 4000.0 4000.0 4000.0 4000.0 4000.0 4000.0 4000.0 4000.0 4000.0 4000.0 4000.0 4000.0 4000.0 4000.0 4000.0 4000.0 4000.0 4000.0 4000.0 4000.0 4000.0 4000.0 4000.0 4000.0 4000.0 4000.0 4000.0 4000.0 4000.0 4000.0 4000.0 4000.0 4000.0 4000.0 4000.0 4000.0 4000.0 4000.0 4000.0 4000.0 4000.0 4000.0 4000.0 4000.0 4000.0 4000.0 4000.0 4000.0 4000.0 4000.0 4000.0 4000.0 4000.0 4000.0 4000.0 4000.0 4000.0 4000.0 4000.0 4000.0 4000.0 4000.0 4000.0 4000.0 4000.0 4000.0 4000.0 4000.0 4000.0 4000.0 4000.0 4000.0 4000.0 4000.0 4000.0 4000.0 4000.0 4000.0 4000.0 4000.0 4000.0 4000.0 4000.0 4000.0 4000.0 4000.0 4000.0 4000.0 4000.0 4000.0 4000.0 4000.0 4000.0 4000.0 4000.0 4000.0 4000.0 4000.0 4000.0 4000.0 4000.0 4000.0 4000.0 4000.0 4000.0 4000.0 4000.0 4000.0 4000.0 4000.0 4000.0 4000.0 4000.0 4000.0 4000.0 4000.0 4000.0 4000.0 4000.0 4000.0 4000.0 4000.0 4000.0 4000.0 4000.0 4000.0 4000.0 4000.0 4000.0 4000.0 4000.0 4000.0 4000.0 4000.0 4000.0 4000.0 4000.0 4000.0 4000.0 4000.0 4000.0 4000.0 4000.0 4000.0 4000.0 4000.0 4000.0 4000.0 4000.0 4000.0 4000.0 4000.0 4000.0 4000.0 4000.0 4000.0 4000.0 4000.0 4000.0 4000.0 4000.0 4000.0 4000.0 4000.0 4000.0 4000.0 4000.0 4000.0 4000.0 4000.0 4000.0 4000.0 4000.0 4000.0 4000.0 4000.0 4000.0 4000.0 4000.0 4000.0 4000.0 4000.0 4000.0 4000.0 4000.0 4000.0 4000.0 4000.0 4000.0 4000.0 4000.0 4000.0 4000.0 4000.0 4000.0 4000.0 4000.0 4000.0 4000.0 4000.0 4000.0 4000.0 4000.0 4000.0 4000.0 4000.0 4000.0 4000.0 4000.0 4000.0 4000.0 4000.0 4000.0 4000.0 4000.0 4000.0 4000.0 4000.0 4000.0 4000.0 4000.0 4000.0 4000.0 4000.0 4000.0 4000.0 4000.0 4000.0 4000.0 4000.0 4000.0 4000.0 4000.0 4000.0 4000.0 4000.0 4000.0 4000.0 4000.0 4000.0 4000.0 4000.0 4000.0 4000.0 4000.0 4000.0 4000.0 4000.0 4000.0 4000.0 4000.0 4000.0 4000.0 4000.0 4000.0 4000.0 4000.0 4000.0 4000.0 4000.0 4000.0 4000.0 4000.0 4000.0 4000.0 4000.0 4000.0 4000.0 4000.0 4000.0 4000.0 4000.0 4000.0 4000.0 4000.0 4000.0 4000.0 4000.0 4000.0 4000.0 4000.0 4000.0 4000.0 4000.0 4000.0 4000.0 4000.0 4000.0 4000.0 4000.0 4000.0 4000.0 4000.0 4000.0 4000.0 4000.0 4000.0 4000.0 4000.0 4000.0 4000.0 4000.0 4000.0 4000.0 4000.0 4000.0 4000.0 4000.0 4000.0 4000.0 4000.0 4000.0 4000.0 4000.0 4000.0 4000.0 4000.0 4000.0 4000.0 4000.0 4000.0 4000.0 4000.0 4000.0 4000.0 4000.0 4000.0 4000.0 4000.0 4000.0 4000.0 4000.0 4000.0 4000.0 4000.0 4000.0 4000.0 4000.0 4000.0 4000.0 4000.0 4000.0 4000.0 4000.0 4000.0 4000.0 4000.0 4000.0 4000.0 4000.0 4000.0 4000.0 4000.0 4000.0 4000.0 4000.0 4000.0 4000.0 4000.0 4000.0 4000.0 4000.0 4000.0 4000.0 4000.0 4000.0 4000.0 4000.0 4000.0 4000.0 4000.0 4000.0 4000.0 4000.0 4000.0 4000.0 4000.0 4000.0 4000.0 4000.0 4000.0 4000.0 4000.0 4000.0 4000.0 4000.0 4000.0 4000.0 4000.0 4000.0 4000.0 4000.0 4000.0 4000.0 4000.0 4000.0 4000.0 4000.0 4000.0 4000.0 4000.0 4000.0 4000.0 4000.0 4000.0 4000.0 4000.0 4000.0 4000.0 4000.0 4000.0 4000.0 4000.0 4000.0 4000.0 4000.0 4000.0 4000.0 4000.0 4000.0 4000.0 4000.0 4000.0 4000.0 4000.0 4000.0 4000.0 4000.0 4000.0 4000.0 4000.0 4000.0 4000.0 4000.0 4000.0 4000.0 4000.0 4000.0 4000.0 4000.0 4000.0 4000.0 4000.0 4000.0 4000.0 4000.0 4000.0 4000.0 4000.0 4000.0 4000.0 4000.0 4000.0 4000.0 4000.0 4000.0 4000.0 4000.0 4000.0 4000.0 4000.0 4000.0 4000.0 4000.0 4000.0 4000.0 4000.0 4000.0 4000.0 4000.0 4000.0 4000.0 4000.0 4000.0 4000.0 4000.0 4000.0 4000.0 4000.0 4000.0 4000.0 4000.0 4000.0 4000.0 4000.0 4000.0 4000.0 4000.0 4000.0 4000.0 4000.0 4000.0 4000.0 4000.0 4000.0 4000.0 4000.0 4000.0 4000.0 4000.0 4000.0 4000.0 4000.0 4000.0 4000.0 4000.0 4000.0 4000.0 4000.0 4000.0 4000.0 4000.0 4000.0 4000.0 4000.0 4000.0 4000.0 4000.0 4000.0 4000.0 4000.0 4000.0 4000.0 4000.0 4000.0 4000.0 4000.0 4000.0 4000.0 4000.0 4000.0 4000.0 4000.0 4000.0 4000.0 4000.0 4000.0 4000.0 4000.0 4000.0 4000.0 4000.0 4000.0 4000.0 4000.0 4000.0 4000.0 4000.0 4000.0 4000.0 4000.0 4000.0 4000.0 4000.0 4000.0 4000.0 4000.0 4000.0 4000.0 4000.0 4000.0 4000.0 4000.0 4000.0 4000.0 4000.0 4000.0 4000.0 4000.0 4000.0 4000.0 4000.0 4000.0 4000.0 4000.0 4000.0 4000.0 4000.0 4000.0 4000.0 4000.0 4000.0 4000.0 4000.0 4000.0 4000.0 4000.0 4000.0 4000.0 4000.0 4000.0 4000.0 4000.0 4000.0 4000.0 4000.0 4000.0 4000.0 4000.0 4000.0 4000.0 4000.0 4000.0 4000.0 4000.0 4000.0 4000.0 4000.0 4000.0 4000.0 4000.0 4000.0 4000.0 4000.0 4000.0 4000.0 4000.0 4000.0 4000.0 4000.0 4000.0 4000.0 4000.0 4000.0 4000.0 4000.0 4000.0 4000.0 4000.0 4000.0 4000.0 4000.0 4000.0 4000.0 4000.0 4000.0 4000.0 4000.0 4000.0 4000.0 4000.0 4000.0 4000.0 4000.0 4000.0 4000.0 4000.0 4000.0 4000.0 4000.0 4000.0 4000.0 4000.0 4000.0 4000.0 4000.0 4000.0 4000.0 4000.0 4000.0 4000.0 4000.0 4000.0 4000.0 4000.0 4000.0 4000.0 4000.0 4000.0 4000.0 4000.0 4000.0 4000.0 4000.0 4000.0 4000.0 4000.0 4000.0 4000.0 4000.0 4000.0 4000.0 4000.0 4000.0 4000.0 4000.0 4000.0 4000.0 4000.0 4000.0 4000.0 4000.0 4000.0 4000.0 4000.0 4000.0 4000.0 4000.0 4000.0 4000.0 4000.0 4000.0 4000.0 4000.0 4000.0 4000.0 4000.0 4000.0 4000.0 4000.0 4000.0 4000.0 4000.0 4000.0 4000.0 4000.0 4000.0 4000.0 4000.0 4000.0 4000.0 4000.0 4000.0 4000.0 4000.0 4000.0 4000.0 4000.0 4000.0 4000.0 4000.0 4000.0 4000.0 4000.0 4000.0 4000.0 4000.0 4000.0 4000.0 4000.0 4000.0 4000.0 4000.0 4000.0 4000.0 4000.0 4000.0 4000.0 4000.0 4000.0 4000.0 4000.0 4000.0 4000.0 4000.0 4000.0 4000.0 4000.0 4000.0 4000.0 4000.0 4000.0 4000.0 4000.0 4000.0 4000.0 4000.0 4000.0 4000.0 4000.0 4000.0 4000.0 4000.0 4000.0 4000.0 4000.0 4000.0 4000.0 4000.0 4000.0 4000.0 4000.0 4000.0 4000.0 4000.0 4000.0 4000.0 4000.0 4000.0 4000.0 4000.0 4000.0 4000.0 4000.0 4000.0 4000.0 4000.0 4000.0 4000.0 4000.0 4000.0 4000.0 4000.0 4000.0 4000.0 4000.0 4000.0 4000.0 4000.0 4000.0 4000.0 4000.0 4000.0 4000.0 4000.0 4000.0 4000.0 4000.0 4000.0 4000.0 4000.0 4000.0 4000.0 4000.0 4000.0 4000.0 4000.0 4000.0 4000.0 4000.0 4000.0 4000.0 4000.0 4000.0 4000.0 4000.0 4000.0 4000.0 4000.0 4000.0 4000.0 4000.0 4000.0 4000.0 4000.0 4000.0 4000.0 4000.0 4000.0 4000.0 4000.0 4000.0 4000.0 4000.0 4000.0 4000.0 4000.0 4000.0 4000.0 4000.0 4000.0 4000.0 4000.0 4000.0 4000.0 4000.0 4000.0 4000.0 4000.0 4000.0 4000.0 4000.0 4000.0 4000.0 4000.0 4000.0 4000.0 4000.0 4000.0 4000.0 4000.0 4000.0 4000.0 4000.0 4000.0 4000.0 4000.0 4000.0 4000.0 4000.0 4000.0 4000.0 4000.0 4000.0 4000.0 4000.0 4000.0 4000.0 4000.0 4000.0 4000.0 4000.0 4000.0 4000.0 4000.0 4000.0 4000.0 4000.0 4000.0 4000.0 4000.0 4000.0 4000.0 4000.0 4000.0 4000.0 4000.0 4000.0 4000.0 4000.0 4000.0 4000.0 4000.0 4000.0 4000.0 4000.0 4000.0 4000.0 4000.0 4000.0 4000.0 4000.0 4000.0 4000.0 4000.0 4000.0 4000.0 4000.0 4000.0 4000.0 4000.0 4000.0 4000.0 4000.0 4000.0 4000.0 4000.0 4000.0 4000.0 4000.0 4000.0 4000.0 4000.0 4000.0 4000.0 4000.0 4000.0 4000.0 4000.0 4000.0 4000.0 4000.0 4000.0 4000.0 4000.0 4000.0 4000.0 4000.0 4000.0 4000.0 4000.0 4000.0 4000.0 4000.0 4000.0 4000.0 4000.0 4000.0 4000.0 4000.0 4000.0 4000.0 4000.0 4000.0 4000.0 4000.0 4000.0 4000.0 4000.0 4000.0 4000.0 4000.0 4000.0 4000.0 4000.0 4000.0 4000.0 4000.0 4000.0 4000.0 4000.0 4000.0 4000.0 4000.0 4000.0 4000.0 4000.0 4000.0 4000.0 4000.0 4000.0 4000.0 4000.0 4000.0 4000.0 4000.0 4000.0 4000.0 4000.0 4000.0 4000.0 4000.0 4000.0 4000.0 4000.0 4000.0 4000.0 4000.0 4000.0 4000.0 4000.0 4000.0 4000.0 4000.0 4000.0 4000.0 4000.0 4000.0 4000.0 4000.0 4000.0 4000.0 4000.0 4000.0 4000.0 4000.0 4000.0 4000.0 4000.0 4000.0 4000.0 4000.0 4000.0 4000.0 4000.0 4000.0 4000.0 4000.0 4000.0 4000.0 4000.0 4000.0 4000.0 4000.0 4000.0 4000.0 4000.0 4000.0 4000.0 4000.0 4000.0 4000.0 4000.0 4000.0 4000.0 4000.0 4000.0 4000.0 4000.0 4000.0 4000.0 4000.0 4000.0 4000.0 4000.0 4000.0 4000.0 4000.0 4000.0 4000.0 4000.0 4000.0 4000.0 4000.0 4000.0 4000.0 4000.0 4000.0 4000.0 4000.0 4000.0 4000.0 4000.0 4000.0 4000.0 4000.0 4000.0 4000.0 4000.0 4000.0 4000.0 4000.0 4000.0 4000.0 4000.0 4000.0 4000.0 4000.0 4000.0 4000.0 4000.0 4000.0 4000.0 4000.0 4000.0 4000.0 4000.0 4000.0 4000.0 4000.0 4000.0 4000.0 4000.0 4000.0 4000.0 4000.0 4000.0 4000.0 4000.0 4000.0 4000.0 4000.0 4000.0 4000.0 4000.0 4000.0 4000.0 4000.0 4000.0 4000.0 4000.0 4000.0 4000.0 4000.0 4000.0 4000.0 4000.0 4000.0 4000.0 4000.0 4000.0 4000.0 4000.0 4000.0 4000.0 4000.0 4000.0 4000.0 4000.0 4000.0 4000.0 4000.0 4000.0 4000.0 4000.0 4000.0 4000.0 4000.0 4000.0 4000.0 4000.0 4000.0 4000.0 4000.0 4000.0 4000.0 4000.0 4000.0 4000.0 4000.0 4000.0 4000.0 4000.0 4000.0 4000.0 4000.0 4000.0 4000.0 4000.0 4000.0 4000.0 4000.0 4000.0 4000.0 4000.0 4000.0 4000.0 4000.0 4000.0 4000.0 4000.0 4000.0 4000.0 4000.0 4000.0 4000.0 4000.0 4000.0 4000.0 4000.0 4000.0 4000.0 4000.0 4000.0 4000.0 4000.0 4000.0 4000.0 4000.0 4000.0 4000.0 4000.0 4000.0 4000.0 4000.0 4000.0 4000.0 4000.0 4000.0 4000.0 4000.0 4000.0 4000.0 4000.0 4000.0 4000.0 4000.0 4000.0 4000.0 4000.0 4000.0 4000.0 4000.0 4000.0 4000.0 4000.0 4000.0 4000.0 4000.0 4000.0 4000.0 4000.0 4000.0 4000.0 4000.0 4000.0 4000.0 4000.0 4000.0 4000.0 4000.0 4000.0 4000.0 4000.0 4000.0 4000.0 4000.0 4000.0 4000.0 4000.0 4000.0 4000.0 4000.0 4000.0 4000.0 4000.0 4000.0 4000.0 4000.0 4000.0 4000.0 4000.0 4000.0 4000.0 4000.0 4000.0 4000.0 4000.0 4000.0 4000.0 4000.0 4000.0 4000.0 4000.0 4000.0 4000.0 4000.0 4000.0 4000.0 4000.0 4000.0 4000.0 4000.0 4000.0 4000.0 4000.0 4000.0 4000.0 4000.0 4000.0 4000.0 4000.0 4000.0 4000.0 4000.0 4000.0 4000.0 4000.0 4000.0 4000.0 4000.0 4000.0 4000.0 4000.0 4000.0 4000.0 4000.0 4000.0 4000.0 4000.0 4000.0 4000.0 4000.0 4000.0 4000.0 4000.0 4000.0 4000.0 4000.0 4000.0 4000.0 4000.0 4000.0 4000.0 4000.0 4000.0 4000.0 4000.0 4000.0 4000.0 4000.0 4000.0 4000.0 4000.0 4000.0 4000.0 4000.0 4000.0 4000.0 4000.0 4000.0 4000.0 4000.0 4000.0 4000.0 4000.0 4000.0 4000.0 4000.0 4000.0 4000.0 4000.0 4000.0 4000.0 4000.0 4000.0 4000.0 4000.0 4000.0 4000.0 4000.0 4000.0 4000.0 4000.0 4000.0 4000.0 4000.0 4000.0 4000.0 4000.0 4000.0 4000.0 4000.0 4000.0 4000.0 4000.0 4000.0 4000.0 4000.0 4000.0 4000.0 4000.0 4000.0 4000.0 4000.0 4000.0 4000.0 4000.0 4000.0 4000.0 4000.0 4000.0 4000.0 4000.0 4000.0 4000.0 4000.0 4000.0 4000.0 4000.0 4000.0 4000.0 4000.0 4000.0 4000.0 4000.0 4000.0 4000.0 4000.0 4000.0 4000.0 4000.0 4000.0 4000.0 4000.0 4000.0 4000.0 4000.0 4000.0 4000.0 4000.0 4000.0 4000.0 4000.0 4000.0 4000.0 4000.0 4000.0 4000.0 4000.0 4000.0 4000.0 4000.0 4000.0 4000.0 4000.0 4000.0 4000.0 4000.0 4000.0 4000.0 4000.0 4000.0 4000.0 4000.0 4000.0 4000.0 4000.0 4000.0 4000.0 SCALARS Mass float 1
LOOKUP_TABLE default
11309700000.0 11309700000.0 11309700000.0 11309700000.0 11309700000.0 11309700000.0 11309700000.0 11309700000.0 11309700000.0 11309700000.0 11309700000.0 11309700000.0 11309700000.0 11309700000.0 11309700000.0 11309700000.0 11309700000.0 11309700000.0 11309700000.0 11309700000.0 11309700000.0 11309700000.0 11309700000.0 11309700000.0 11309700000.0 11309700000.0 11309700000.0 11309700000.0 11309700000.0 11309700000.0 11309700000.0 11309700000.0 11309700000.0 11309700000.0 11309700000.0 11309700000.0 11309700000.0 11309700000.0 11309700000.0 11309700000.0 11309700000.0 11309700000.0 11309700000.0 11309700000.0 11309700000.0 11309700000.0 11309700000.0 11309700000.0 11309700000.0 11309700000.0 11309700000.0 11309700000.0 11309700000.0 11309700000.0 11309700000.0 11309700000.0 11309700000.0 11309700000.0 11309700000.0 11309700000.0 11309700000.0 11309700000.0 11309700000.0 11309700000.0 11309700000.0 11309700000.0 11309700000.0 11309700000.0 11309700000.0 11309700000.0 11309700000.0 11309700000.0 11309700000.0 11309700000.0 11309700000.0 11309700000.0 11309700000.0 11309700000.0 11309700000.0 11309700000.0 11309700000.0 11309700000.0 11309700000.0 11309700000.0 11309700000.0 11309700000.0 11309700000.0 11309700000.0 11309700000.0 11309700000.0 11309700000.0 11309700000.0 11309700000.0 11309700000.0 11309700000.0 11309700000.0 11309700000.0 11309700000.0 11309700000.0 11309700000.0 11309700000.0 11309700000.0 11309700000.0 11309700000.0 11309700000.0 11309700000.0 11309700000.0 11309700000.0 11309700000.0 11309700000.0 11309700000.0 11309700000.0 11309700000.0 11309700000.0 11309700000.0 11309700000.0 11309700000.0 11309700000.0 11309700000.0 11309700000.0 11309700000.0 11309700000.0 11309700000.0 11309700000.0 11309700000.0 11309700000.0 11309700000.0 11309700000.0 11309700000.0 11309700000.0 11309700000.0 11309700000.0 11309700000.0 11309700000.0 11309700000.0 11309700000.0 11309700000.0 11309700000.0 11309700000.0 11309700000.0 11309700000.0 11309700000.0 11309700000.0 11309700000.0 11309700000.0 11309700000.0 11309700000.0 11309700000.0 11309700000.0 11309700000.0 11309700000.0 11309700000.0 11309700000.0 11309700000.0 11309700000.0 11309700000.0 11309700000.0 11309700000.0 11309700000.0 11309700000.0 11309700000.0 11309700000.0 11309700000.0 11309700000.0 11309700000.0 11309700000.0 11309700000.0 11309700000.0 11309700000.0 11309700000.0 11309700000.0 11309700000.0 11309700000.0 11309700000.0 11309700000.0 11309700000.0 11309700000.0 11309700000.0 11309700000.0 11309700000.0 11309700000.0 11309700000.0 11309700000.0 11309700000.0 11309700000.0 11309700000.0 11309700000.0 11309700000.0 11309700000.0 11309700000.0 11309700000.0 11309700000.0 11309700000.0 11309700000.0 11309700000.0 11309700000.0 11309700000.0 11309700000.0 11309700000.0 11309700000.0 11309700000.0 11309700000.0 11309700000.0 11309700000.0 11309700000.0 11309700000.0 11309700000.0 11309700000.0 11309700000.0 11309700000.0 11309700000.0 11309700000.0 11309700000.0 11309700000.0 11309700000.0 11309700000.0 11309700000.0 11309700000.0 11309700000.0 11309700000.0 11309700000.0 11309700000.0 11309700000.0 11309700000.0 11309700000.0 11309700000.0 11309700000.0 11309700000.0 11309700000.0 11309700000.0 11309700000.0 11309700000.0 11309700000.0 11309700000.0 11309700000.0 11309700000.0 11309700000.0 11309700000.0 11309700000.0 11309700000.0 11309700000.0 11309700000.0 11309700000.0 11309700000.0 11309700000.0 11309700000.0 11309700000.0 11309700000.0 11309700000.0 11309700000.0 11309700000.0 11309700000.0 11309700000.0 11309700000.0 11309700000.0 11309700000.0 11309700000.0 11309700000.0 11309700000.0 11309700000.0 11309700000.0 11309700000.0 11309700000.0 11309700000.0 11309700000.0 11309700000.0 11309700000.0 11309700000.0 11309700000.0 11309700000.0 11309700000.0 11309700000.0 11309700000.0 11309700000.0 11309700000.0 11309700000.0 11309700000.0 11309700000.0 11309700000.0 11309700000.0 11309700000.0 11309700000.0 11309700000.0 11309700000.0 11309700000.0 11309700000.0 11309700000.0 11309700000.0 11309700000.0 11309700000.0 11309700000.0 11309700000.0 11309700000.0 11309700000.0 11309700000.0 11309700000.0 11309700000.0 11309700000.0 11309700000.0 11309700000.0 11309700000.0 11309700000.0 11309700000.0 11309700000.0 11309700000.0 11309700000.0 11309700000.0 11309700000.0 11309700000.0 11309700000.0 11309700000.0 11309700000.0 11309700000.0 11309700000.0 11309700000.0 11309700000.0 11309700000.0 11309700000.0 11309700000.0 11309700000.0 11309700000.0 11309700000.0 11309700000.0 11309700000.0 11309700000.0 11309700000.0 11309700000.0 11309700000.0 11309700000.0 11309700000.0 11309700000.0 11309700000.0 11309700000.0 11309700000.0 11309700000.0 11309700000.0 11309700000.0 11309700000.0 11309700000.0 11309700000.0 11309700000.0 11309700000.0 11309700000.0 11309700000.0 11309700000.0 11309700000.0 11309700000.0 11309700000.0 11309700000.0 11309700000.0 11309700000.0 11309700000.0 11309700000.0 11309700000.0 11309700000.0 11309700000.0 11309700000.0 11309700000.0 11309700000.0 11309700000.0 11309700000.0 11309700000.0 11309700000.0 11309700000.0 11309700000.0 11309700000.0 11309700000.0 11309700000.0 11309700000.0 11309700000.0 11309700000.0 11309700000.0 11309700000.0 11309700000.0 11309700000.0 11309700000.0 11309700000.0 11309700000.0 11309700000.0 11309700000.0 11309700000.0 11309700000.0 11309700000.0 11309700000.0 11309700000.0 11309700000.0 11309700000.0 11309700000.0 11309700000.0 11309700000.0 11309700000.0 11309700000.0 11309700000.0 11309700000.0 11309700000.0 11309700000.0 11309700000.0 11309700000.0 11309700000.0 11309700000.0 11309700000.0 11309700000.0 11309700000.0 11309700000.0 11309700000.0 11309700000.0 11309700000.0 11309700000.0 11309700000.0 11309700000.0 11309700000.0 11309700000.0 11309700000.0 11309700000.0 11309700000.0 11309700000.0 11309700000.0 11309700000.0 11309700000.0 11309700000.0 11309700000.0 11309700000.0 11309700000.0 11309700000.0 11309700000.0 11309700000.0 11309700000.0 11309700000.0 11309700000.0 11309700000.0 11309700000.0 11309700000.0 11309700000.0 11309700000.0 11309700000.0 11309700000.0 11309700000.0 11309700000.0 11309700000.0 11309700000.0 11309700000.0 11309700000.0 11309700000.0 11309700000.0 11309700000.0 11309700000.0 11309700000.0 11309700000.0 11309700000.0 11309700000.0 11309700000.0 11309700000.0 11309700000.0 11309700000.0 11309700000.0 11309700000.0 11309700000.0 11309700000.0 11309700000.0 11309700000.0 11309700000.0 11309700000.0 11309700000.0 11309700000.0 11309700000.0 11309700000.0 11309700000.0 11309700000.0 11309700000.0 11309700000.0 11309700000.0 11309700000.0 11309700000.0 11309700000.0 11309700000.0 11309700000.0 11309700000.0 11309700000.0 11309700000.0 11309700000.0 11309700000.0 11309700000.0 11309700000.0 11309700000.0 11309700000.0 11309700000.0 11309700000.0 11309700000.0 11309700000.0 11309700000.0 11309700000.0 11309700000.0 11309700000.0 11309700000.0 11309700000.0 11309700000.0 11309700000.0 11309700000.0 11309700000.0 11309700000.0 11309700000.0 11309700000.0 11309700000.0 11309700000.0 11309700000.0 11309700000.0 11309700000.0 11309700000.0 11309700000.0 11309700000.0 11309700000.0 11309700000.0 11309700000.0 11309700000.0 11309700000.0 11309700000.0 11309700000.0 11309700000.0 11309700000.0 11309700000.0 11309700000.0 11309700000.0 11309700000.0 11309700000.0 11309700000.0 11309700000.0 11309700000.0 11309700000.0 11309700000.0 11309700000.0 11309700000.0 11309700000.0 11309700000.0 11309700000.0 11309700000.0 11309700000.0 11309700000.0 11309700000.0 11309700000.0 11309700000.0 11309700000.0 11309700000.0 11309700000.0 11309700000.0 11309700000.0 11309700000.0 11309700000.0 11309700000.0 11309700000.0 11309700000.0 11309700000.0 11309700000.0 11309700000.0 11309700000.0 11309700000.0 11309700000.0 11309700000.0 11309700000.0 11309700000.0 11309700000.0 11309700000.0 11309700000.0 11309700000.0 11309700000.0 11309700000.0 11309700000.0 11309700000.0 11309700000.0 11309700000.0 11309700000.0 11309700000.0 11309700000.0 11309700000.0 11309700000.0 11309700000.0 11309700000.0 11309700000.0 11309700000.0 11309700000.0 11309700000.0 11309700000.0 11309700000.0 11309700000.0 11309700000.0 11309700000.0 11309700000.0 11309700000.0 11309700000.0 11309700000.0 11309700000.0 11309700000.0 11309700000.0 11309700000.0 11309700000.0 11309700000.0 11309700000.0 11309700000.0 11309700000.0 11309700000.0 11309700000.0 11309700000.0 11309700000.0 11309700000.0 11309700000.0 11309700000.0 11309700000.0 11309700000.0 11309700000.0 11309700000.0 11309700000.0 11309700000.0 11309700000.0 11309700000.0 11309700000.0 11309700000.0 11309700000.0 11309700000.0 11309700000.0 11309700000.0 11309700000.0 11309700000.0 11309700000.0 11309700000.0 11309700000.0 11309700000.0 11309700000.0 11309700000.0 11309700000.0 11309700000.0 11309700000.0 11309700000.0 11309700000.0 11309700000.0 11309700000.0 11309700000.0 11309700000.0 11309700000.0 11309700000.0 11309700000.0 11309700000.0 11309700000.0 11309700000.0 11309700000.0 11309700000.0 11309700000.0 11309700000.0 11309700000.0 11309700000.0 11309700000.0 11309700000.0 11309700000.0 11309700000.0 11309700000.0 11309700000.0 11309700000.0 11309700000.0 11309700000.0 11309700000.0 11309700000.0 11309700000.0 11309700000.0 11309700000.0 11309700000.0 11309700000.0 11309700000.0 11309700000.0 11309700000.0 11309700000.0 11309700000.0 11309700000.0 11309700000.0 11309700000.0 11309700000.0 11309700000.0 11309700000.0 11309700000.0 11309700000.0 11309700000.0 11309700000.0 11309700000.0 11309700000.0 11309700000.0 11309700000.0 11309700000.0 11309700000.0 11309700000.0 11309700000.0 11309700000.0 11309700000.0 11309700000.0 11309700000.0 11309700000.0 11309700000.0 11309700000.0 11309700000.0 11309700000.0 11309700000.0 11309700000.0 11309700000.0 11309700000.0 11309700000.0 11309700000.0 11309700000.0 11309700000.0 11309700000.0 11309700000.0 11309700000.0 11309700000.0 11309700000.0 11309700000.0 11309700000.0 11309700000.0 11309700000.0 11309700000.0 11309700000.0 11309700000.0 11309700000.0 11309700000.0 11309700000.0 11309700000.0 11309700000.0 11309700000.0 11309700000.0 11309700000.0 11309700000.0 11309700000.0 11309700000.0 11309700000.0 11309700000.0 11309700000.0 11309700000.0 11309700000.0 11309700000.0 11309700000.0 11309700000.0 11309700000.0 11309700000.0 11309700000.0 11309700000.0 11309700000.0 11309700000.0 11309700000.0 11309700000.0 11309700000.0 11309700000.0 11309700000.0 11309700000.0 11309700000.0 11309700000.0 11309700000.0 11309700000.0 11309700000.0 11309700000.0 11309700000.0 11309700000.0 11309700000.0 11309700000.0 11309700000.0 11309700000.0 11309700000.0 11309700000.0 11309700000.0 11309700000.0 11309700000.0 11309700000.0 11309700000.0 11309700000.0 11309700000.0 11309700000.0 11309700000.0 11309700000.0 11309700000.0 11309700000.0 11309700000.0 11309700000.0 11309700000.0 11309700000.0 11309700000.0 11309700000.0 11309700000.0 11309700000.0 11309700000.0 11309700000.0 11309700000.0 11309700000.0 11309700000.0 11309700000.0 11309700000.0 11309700000.0 11309700000.0 11309700000.0 11309700000.0 11309700000.0 11309700000.0 11309700000.0 11309700000.0 11309700000.0 11309700000.0 11309700000.0 11309700000.0 11309700000.0 11309700000.0 11309700000.0 11309700000.0 11309700000.0 11309700000.0 11309700000.0 11309700000.0 11309700000.0 11309700000.0 11309700000.0 11309700000.0 11309700000.0 11309700000.0 11309700000.0 11309700000.0 11309700000.0 11309700000.0 11309700000.0 11309700000.0 11309700000.0 11309700000.0 11309700000.0 11309700000.0 11309700000.0 11309700000.0 11309700000.0 11309700000.0 11309700000.0 11309700000.0 11309700000.0 11309700000.0 11309700000.0 11309700000.0 11309700000.0 11309700000.0 11309700000.0 11309700000.0 11309700000.0 11309700000.0 11309700000.0 11309700000.0 11309700000.0 11309700000.0 11309700000.0 11309700000.0 11309700000.0 11309700000.0 11309700000.0 11309700000.0 11309700000.0 11309700000.0 11309700000.0 11309700000.0 11309700000.0 11309700000.0 11309700000.0 11309700000.0 11309700000.0 11309700000.0 11309700000.0 11309700000.0 11309700000.0 11309700000.0 11309700000.0 11309700000.0 11309700000.0 11309700000.0 11309700000.0 11309700000.0 11309700000.0 11309700000.0 11309700000.0 11309700000.0 11309700000.0 11309700000.0 11309700000.0 11309700000.0 11309700000.0 11309700000.0 11309700000.0 11309700000.0 11309700000.0 11309700000.0 11309700000.0 11309700000.0 11309700000.0 11309700000.0 11309700000.0 11309700000.0 11309700000.0 11309700000.0 11309700000.0 11309700000.0 11309700000.0 11309700000.0 11309700000.0 11309700000.0 11309700000.0 11309700000.0 11309700000.0 11309700000.0 11309700000.0 11309700000.0 11309700000.0 11309700000.0 11309700000.0 11309700000.0 11309700000.0 11309700000.0 11309700000.0 11309700000.0 11309700000.0 11309700000.0 11309700000.0 11309700000.0 11309700000.0 11309700000.0 11309700000.0 11309700000.0 11309700000.0 11309700000.0 11309700000.0 11309700000.0 11309700000.0 11309700000.0 11309700000.0 11309700000.0 11309700000.0 11309700000.0 11309700000.0 11309700000.0 11309700000.0 11309700000.0 11309700000.0 11309700000.0 11309700000.0 11309700000.0 11309700000.0 11309700000.0 11309700000.0 11309700000.0 11309700000.0 11309700000.0 11309700000.0 11309700000.0 11309700000.0 11309700000.0 11309700000.0 11309700000.0 11309700000.0 11309700000.0 11309700000.0 11309700000.0 11309700000.0 11309700000.0 11309700000.0 11309700000.0 11309700000.0 11309700000.0 11309700000.0 11309700000.0 11309700000.0 11309700000.0 11309700000.0 11309700000.0 11309700000.0 11309700000.0 11309700000.0 11309700000.0 11309700000.0 11309700000.0 11309700000.0 11309700000.0 11309700000.0 11309700000.0 11309700000.0 11309700000.0 11309700000.0 11309700000.0 11309700000.0 11309700000.0 11309700000.0 11309700000.0 11309700000.0 11309700000.0 11309700000.0 11309700000.0 11309700000.0 11309700000.0 11309700000.0 11309700000.0 11309700000.0 11309700000.0 11309700000.0 11309700000.0 11309700000.0 11309700000.0 11309700000.0 11309700000.0 11309700000.0 11309700000.0 11309700000.0 11309700000.0 11309700000.0 11309700000.0 11309700000.0 11309700000.0 11309700000.0 11309700000.0 11309700000.0 11309700000.0 11309700000.0 11309700000.0 11309700000.0 11309700000.0 11309700000.0 11309700000.0 11309700000.0 11309700000.0 11309700000.0 11309700000.0 11309700000.0 11309700000.0 11309700000.0 11309700000.0 11309700000.0 11309700000.0 11309700000.0 11309700000.0 11309700000.0 11309700000.0 11309700000.0 11309700000.0 11309700000.0 11309700000.0 11309700000.0 11309700000.0 11309700000.0 11309700000.0 11309700000.0 11309700000.0 11309700000.0 11309700000.0 11309700000.0 11309700000.0 11309700000.0 11309700000.0 11309700000.0 11309700000.0 11309700000.0 11309700000.0 11309700000.0 11309700000.0 11309700000.0 11309700000.0 11309700000.0 11309700000.0 11309700000.0 11309700000.0 11309700000.0 11309700000.0 11309700000.0 11309700000.0 11309700000.0 11309700000.0 11309700000.0 11309700000.0 11309700000.0 11309700000.0 11309700000.0 11309700000.0 11309700000.0 11309700000.0 11309700000.0 11309700000.0 11309700000.0 11309700000.0 11309700000.0 11309700000.0 11309700000.0 11309700000.0 11309700000.0 11309700000.0 11309700000.0 11309700000.0 11309700000.0 11309700000.0 11309700000.0 11309700000.0 11309700000.0 11309700000.0 11309700000.0 11309700000.0 11309700000.0 11309700000.0 11309700000.0 11309700000.0 11309700000.0 11309700000.0 11309700000.0 11309700000.0 11309700000.0 11309700000.0 11309700000.0 11309700000.0 11309700000.0 11309700000.0 11309700000.0 11309700000.0 11309700000.0 11309700000.0 11309700000.0 11309700000.0 11309700000.0 11309700000.0 11309700000.0 11309700000.0 11309700000.0 11309700000.0 11309700000.0 11309700000.0 11309700000.0 11309700000.0 11309700000.0 11309700000.0 11309700000.0 11309700000.0 11309700000.0 11309700000.0 11309700000.0 11309700000.0 11309700000.0 11309700000.0 11309700000.0 11309700000.0 11309700000.0 11309700000.0 11309700000.0 11309700000.0 11309700000.0 11309700000.0 11309700000.0 11309700000.0 11309700000.0 11309700000.0 11309700000.0 11309700000.0 11309700000.0 11309700000.0 11309700000.0 11309700000.0 11309700000.0 11309700000.0 11309700000.0 11309700000.0 11309700000.0 11309700000.0 11309700000.0 11309700000.0 11309700000.0 11309700000.0 11309700000.0 11309700000.0 11309700000.0 11309700000.0 11309700000.0 11309700000.0 11309700000.0 11309700000.0 11309700000.0 11309700000.0 11309700000.0 11309700000.0 11309700000.0 11309700000.0 11309700000.0 11309700000.0 11309700000.0 11309700000.0 11309700000.0 11309700000.0 11309700000.0 11309700000.0 11309700000.0 11309700000.0 11309700000.0 11309700000.0 11309700000.0 11309700000.0 11309700000.0 11309700000.0 11309700000.0 11309700000.0 11309700000.0 11309700000.0 11309700000.0 11309700000.0 11309700000.0 11309700000.0 11309700000.0 11309700000.0 11309700000.0 11309700000.0 11309700000.0 11309700000.0 11309700000.0 11309700000.0 11309700000.0 11309700000.0 11309700000.0 11309700000.0 11309700000.0 11309700000.0 11309700000.0 11309700000.0 11309700000.0 11309700000.0 11309700000.0 11309700000.0 11309700000.0 11309700000.0 11309700000.0 11309700000.0 11309700000.0 11309700000.0 11309700000.0 11309700000.0 11309700000.0 11309700000.0 11309700000.0 11309700000.0 11309700000.0 11309700000.0 11309700000.0 11309700000.0 11309700000.0 11309700000.0 11309700000.0 11309700000.0 11309700000.0 11309700000.0 11309700000.0 11309700000.0 11309700000.0 11309700000.0 11309700000.0 11309700000.0 11309700000.0 11309700000.0 11309700000.0 11309700000.0 11309700000.0 11309700000.0 11309700000.0 11309700000.0 11309700000.0 11309700000.0 11309700000.0 11309700000.0 11309700000.0 11309700000.0 11309700000.0 11309700000.0 11309700000.0 11309700000.0 11309700000.0 11309700000.0 11309700000.0 11309700000.0 11309700000.0 11309700000.0 11309700000.0 11309700000.0 11309700000.0 11309700000.0 11309700000.0 11309700000.0 11309700000.0 11309700000.0 11309700000.0 11309700000.0 11309700000.0 11309700000.0 11309700000.0 11309700000.0 11309700000.0 11309700000.0 11309700000.0 11309700000.0 11309700000.0 11309700000.0 11309700000.0 11309700000.0 11309700000.0 11309700000.0 11309700000.0 11309700000.0 11309700000.0 11309700000.0 11309700000.0 11309700000.0 11309700000.0 11309700000.0 11309700000.0 11309700000.0 11309700000.0 11309700000.0 11309700000.0 11309700000.0 11309700000.0 11309700000.0 11309700000.0 11309700000.0 11309700000.0 11309700000.0 11309700000.0 11309700000.0 11309700000.0 11309700000.0 11309700000.0 11309700000.0 11309700000.0 11309700000.0 11309700000.0 11309700000.0 11309700000.0 11309700000.0 11309700000.0 11309700000.0 11309700000.0 11309700000.0 11309700000.0 11309700000.0 11309700000.0 11309700000.0 11309700000.0 11309700000.0 11309700000.0 11309700000.0 11309700000.0 11309700000.0 11309700000.0 11309700000.0 11309700000.0 11309700000.0 11309700000.0 11309700000.0 11309700000.0 11309700000.0 11309700000.0 11309700000.0 11309700000.0 11309700000.0 11309700000.0 11309700000.0 11309700000.0 11309700000.0 11309700000.0 11309700000.0 11309700000.0 11309700000.0 11309700000.0 11309700000.0 11309700000.0 11309700000.0 11309700000.0 11309700000.0 11309700000.0 11309700000.0 11309700000.0 11309700000.0 11309700000.0 11309700000.0 11309700000.0 11309700000.0 11309700000.0 11309700000.0 11309700000.0 11309700000.0 11309700000.0 11309700000.0 11309700000.0 11309700000.0 11309700000.0 11309700000.0 11309700000.0 11309700000.0 11309700000.0 11309700000.0 11309700000.0 11309700000.0 11309700000.0 11309700000.0 11309700000.0 11309700000.0 11309700000.0 11309700000.0 11309700000.0 11309700000.0 11309700000.0 11309700000.0 11309700000.0 11309700000.0 11309700000.0 11309700000.0 11309700000.0 11309700000.0 11309700000.0 11309700000.0 11309700000.0 11309700000.0 11309700000.0 11309700000.0 11309700000.0 11309700000.0 11309700000.0 11309700000.0 11309700000.0 11309700000.0 11309700000.0 11309700000.0 11309700000.0 11309700000.0 11309700000.0 11309700000.0 11309700000.0 11309700000.0 11309700000.0 11309700000.0 11309700000.0 11309700000.0 11309700000.0 11309700000.0 11309700000.0 11309700000.0 11309700000.0 11309700000.0 11309700000.0 11309700000.0 11309700000.0 11309700000.0 11309700000.0 11309700000.0 11309700000.0 11309700000.0 11309700000.0 11309700000.0 11309700000.0 11309700000.0 11309700000.0 11309700000.0 11309700000.0 11309700000.0 11309700000.0 11309700000.0 11309700000.0 11309700000.0 11309700000.0 11309700000.0 11309700000.0 11309700000.0 11309700000.0 11309700000.0 11309700000.0 11309700000.0 11309700000.0 11309700000.0 11309700000.0 11309700000.0 11309700000.0 11309700000.0 11309700000.0 11309700000.0 11309700000.0 11309700000.0 11309700000.0 11309700000.0 11309700000.0 11309700000.0 11309700000.0 11309700000.0 11309700000.0 11309700000.0 11309700000.0 11309700000.0 11309700000.0 11309700000.0 11309700000.0 11309700000.0 11309700000.0 11309700000.0 11309700000.0 11309700000.0 11309700000.0 11309700000.0 11309700000.0 11309700000.0 11309700000.0 11309700000.0 11309700000.0 11309700000.0 11309700000.0 11309700000.0 11309700000.0 11309700000.0 11309700000.0 11309700000.0 11309700000.0 11309700000.0 11309700000.0 11309700000.0 11309700000.0 11309700000.0 11309700000.0 11309700000.0 11309700000.0 11309700000.0 11309700000.0 11309700000.0 11309700000.0 11309700000.0 11309700000.0 11309700000.0 11309700000.0 11309700000.0 11309700000.0 11309700000.0 11309700000.0 11309700000.0 11309700000.0 11309700000.0 11309700000.0 11309700000.0 11309700000.0 11309700000.0 11309700000.0 11309700000.0 11309700000.0 11309700000.0 11309700000.0 11309700000.0 11309700000.0 11309700000.0 11309700000.0 11309700000.0 11309700000.0 11309700000.0 11309700000.0 11309700000.0 11309700000.0 11309700000.0 11309700000.0 11309700000.0 11309700000.0 11309700000.0 11309700000.0 11309700000.0 11309700000.0 11309700000.0 11309700000.0 11309700000.0 11309700000.0 11309700000.0 11309700000.0 11309700000.0 11309700000.0 11309700000.0 11309700000.0 11309700000.0 11309700000.0 11309700000.0 11309700000.0 11309700000.0 11309700000.0 11309700000.0 11309700000.0 11309700000.0 11309700000.0 11309700000.0 11309700000.0 11309700000.0 11309700000.0 11309700000.0 11309700000.0 11309700000.0 11309700000.0 11309700000.0 11309700000.0 11309700000.0 11309700000.0 11309700000.0 11309700000.0 11309700000.0 11309700000.0 11309700000.0 11309700000.0 11309700000.0 11309700000.0 11309700000.0 11309700000.0 11309700000.0 11309700000.0 11309700000.0 11309700000.0 11309700000.0 11309700000.0 11309700000.0 11309700000.0 11309700000.0 11309700000.0 11309700000.0 11309700000.0 11309700000.0 11309700000.0 11309700000.0 11309700000.0 11309700000.0 11309700000.0 11309700000.0 11309700000.0 11309700000.0 11309700000.0 11309700000.0 11309700000.0 11309700000.0 11309700000.0 11309700000.0 11309700000.0 11309700000.0 11309700000.0 11309700000.0 11309700000.0 11309700000.0 11309700000.0 11309700000.0 11309700000.0 11309700000.0 11309700000.0 11309700000.0 11309700000.0 11309700000.0 11309700000.0 11309700000.0 11309700000.0 11309700000.0 11309700000.0 11309700000.0 11309700000.0 11309700000.0 11309700000.0 11309700000.0 11309700000.0 11309700000.0 11309700000.0 11309700000.0 11309700000.0 11309700000.0 11309700000.0 11309700000.0 11309700000.0 11309700000.0 11309700000.0 11309700000.0 11309700000.0 11309700000.0 11309700000.0 11309700000.0 11309700000.0 11309700000.0 11309700000.0 11309700000.0 11309700000.0 11309700000.0 11309700000.0 11309700000.0 11309700000.0 11309700000.0 11309700000.0 11309700000.0 11309700000.0 11309700000.0 11309700000.0 11309700000.0 11309700000.0 11309700000.0 11309700000.0 11309700000.0 11309700000.0 11309700000.0 11309700000.0 11309700000.0 11309700000.0 11309700000.0 11309700000.0 11309700000.0 11309700000.0 11309700000.0 11309700000.0 11309700000.0 11309700000.0 11309700000.0 11309700000.0 11309700000.0 11309700000.0 11309700000.0 11309700000.0 11309700000.0 11309700000.0 11309700000.0 11309700000.0 11309700000.0 11309700000.0 11309700000.0 11309700000.0 11309700000.0 11309700000.0 11309700000.0 11309700000.0 11309700000.0 11309700000.0 11309700000.0 11309700000.0 11309700000.0 11309700000.0 11309700000.0 11309700000.0 11309700000.0 11309700000.0 11309700000.0 11309700000.0 11309700000.0 11309700000.0 11309700000.0 11309700000.0 11309700000.0 11309700000.0 11309700000.0 11309700000.0 11309700000.0 11309700000.0 11309700000.0 11309700000.0 11309700000.0 11309700000.0 11309700000.0 11309700000.0 11309700000.0 11309700000.0 11309700000.0 11309700000.0 11309700000.0 11309700000.0 11309700000.0 11309700000.0 11309700000.0 11309700000.0 11309700000.0 11309700000.0 11309700000.0 11309700000.0 11309700000.0 11309700000.0 11309700000.0 11309700000.0 11309700000.0 11309700000.0 11309700000.0 11309700000.0 11309700000.0 11309700000.0 11309700000.0 11309700000.0 11309700000.0 11309700000.0 11309700000.0 11309700000.0 11309700000.0 11309700000.0 11309700000.0 11309700000.0 11309700000.0 11309700000.0 11309700000.0 11309700000.0 11309700000.0 11309700000.0 11309700000.0 11309700000.0 11309700000.0 11309700000.0 11309700000.0 11309700000.0 11309700000.0 11309700000.0 11309700000.0 11309700000.0 11309700000.0 11309700000.0 11309700000.0 11309700000.0 11309700000.0 11309700000.0 11309700000.0 11309700000.0 11309700000.0 11309700000.0 11309700000.0 11309700000.0 11309700000.0 11309700000.0 11309700000.0 11309700000.0 11309700000.0 11309700000.0 11309700000.0 11309700000.0 11309700000.0 11309700000.0 11309700000.0 11309700000.0 11309700000.0 11309700000.0 11309700000.0 11309700000.0 11309700000.0 11309700000.0 11309700000.0 11309700000.0 11309700000.0 11309700000.0 11309700000.0 11309700000.0 11309700000.0 11309700000.0 11309700000.0 11309700000.0 11309700000.0 11309700000.0 11309700000.0 11309700000.0 11309700000.0 11309700000.0 11309700000.0 11309700000.0 11309700000.0 11309700000.0 11309700000.0 11309700000.0 11309700000.0 11309700000.0 11309700000.0 11309700000.0 11309700000.0 11309700000.0 11309700000.0 11309700000.0 11309700000.0 11309700000.0 11309700000.0 11309700000.0 11309700000.0 11309700000.0 11309700000.0 11309700000.0 11309700000.0 11309700000.0 11309700000.0 11309700000.0 11309700000.0 11309700000.0 11309700000.0 11309700000.0 11309700000.0 11309700000.0 11309700000.0 11309700000.0 11309700000.0 11309700000.0 11309700000.0 11309700000.0 11309700000.0 11309700000.0 11309700000.0 11309700000.0 11309700000.0 11309700000.0 11309700000.0 11309700000.0 11309700000.0 11309700000.0 11309700000.0 11309700000.0 11309700000.0 11309700000.0 11309700000.0 11309700000.0 11309700000.0 11309700000.0 11309700000.0 11309700000.0 11309700000.0 11309700000.0 11309700000.0 11309700000.0 11309700000.0 11309700000.0 11309700000.0 11309700000.0 11309700000.0 11309700000.0 11309700000.0 11309700000.0 11309700000.0 11309700000.0 11309700000.0 11309700000.0 11309700000.0 11309700000.0 11309700000.0 11309700000.0 11309700000.0 11309700000.0 11309700000.0 11309700000.0 11309700000.0 11309700000.0 11309700000.0 11309700000.0 11309700000.0 11309700000.0 11309700000.0 11309700000.0 11309700000.0 11309700000.0 11309700000.0 11309700000.0 11309700000.0 11309700000.0 11309700000.0 11309700000.0 11309700000.0 11309700000.0 11309700000.0 11309700000.0 11309700000.0 11309700000.0 11309700000.0 11309700000.0 11309700000.0 11309700000.0 11309700000.0 11309700000.0 11309700000.0 11309700000.0 11309700000.0 11309700000.0 11309700000.0 11309700000.0 11309700000.0 11309700000.0 11309700000.0 11309700000.0 11309700000.0 11309700000.0 11309700000.0 11309700000.0 11309700000.0 11309700000.0 11309700000.0 11309700000.0 11309700000.0 11309700000.0 11309700000.0 11309700000.0 11309700000.0 11309700000.0 11309700000.0 11309700000.0 11309700000.0 11309700000.0 11309700000.0 11309700000.0 11309700000.0 11309700000.0 11309700000.0 11309700000.0 11309700000.0 11309700000.0 11309700000.0 11309700000.0 11309700000.0 11309700000.0 11309700000.0 11309700000.0 11309700000.0 11309700000.0 11309700000.0 11309700000.0 11309700000.0 11309700000.0 11309700000.0 11309700000.0 11309700000.0 11309700000.0 11309700000.0 11309700000.0 11309700000.0 11309700000.0 11309700000.0 11309700000.0 11309700000.0 11309700000.0 11309700000.0 11309700000.0 11309700000.0 11309700000.0 11309700000.0 11309700000.0 11309700000.0 11309700000.0 11309700000.0 11309700000.0 11309700000.0 11309700000.0 11309700000.0 11309700000.0 11309700000.0 11309700000.0 11309700000.0 11309700000.0 11309700000.0 11309700000.0 11309700000.0 11309700000.0 11309700000.0 11309700000.0 11309700000.0 11309700000.0 11309700000.0 11309700000.0 11309700000.0 11309700000.0 11309700000.0 11309700000.0 11309700000.0 11309700000.0 11309700000.0 11309700000.0 11309700000.0 11309700000.0 11309700000.0 11309700000.0 11309700000.0 11309700000.0 11309700000.0 11309700000.0 11309700000.0 11309700000.0 11309700000.0 11309700000.0 11309700000.0 11309700000.0 11309700000.0 11309700000.0 11309700000.0 11309700000.0 11309700000.0 11309700000.0 11309700000.0 11309700000.0 11309700000.0 11309700000.0 11309700000.0 11309700000.0 11309700000.0 11309700000.0 11309700000.0 11309700000.0 11309700000.0 11309700000.0 11309700000.0 11309700000.0 11309700000.0 11309700000.0 11309700000.0 11309700000.0 11309700000.0 11309700000.0 11309700000.0 11309700000.0 11309700000.0 11309700000.0 11309700000.0 11309700000.0 11309700000.0 11309700000.0 11309700000.0 11309700000.0 11309700000.0 11309700000.0 11309700000.0 11309700000.0 11309700000.0 11309700000.0 11309700000.0 11309700000.0 11309700000.0 11309700000.0 11309700000.0 11309700000.0 11309700000.0 11309700000.0 11309700000.0 11309700000.0 11309700000.0 11309700000.0 11309700000.0 11309700000.0 11309700000.0 11309700000.0 11309700000.0 11309700000.0 11309700000.0 11309700000.0 11309700000.0 11309700000.0 11309700000.0 11309700000.0 11309700000.0 11309700000.0 11309700000.0 11309700000.0 11309700000.0 11309700000.0 11309700000.0 11309700000.0 11309700000.0 11309700000.0 11309700000.0 11309700000.0 11309700000.0 11309700000.0 11309700000.0 11309700000.0 11309700000.0 11309700000.0 11309700000.0 11309700000.0 11309700000.0 11309700000.0 11309700000.0 11309700000.0 11309700000.0 11309700000.0 11309700000.0 11309700000.0 11309700000.0 11309700000.0 11309700000.0 11309700000.0 11309700000.0 11309700000.0 11309700000.0 11309700000.0 11309700000.0 11309700000.0 11309700000.0 11309700000.0 11309700000.0 11309700000.0 11309700000.0 11309700000.0 11309700000.0 11309700000.0 11309700000.0 11309700000.0 11309700000.0 11309700000.0 11309700000.0 11309700000.0 11309700000.0 11309700000.0 11309700000.0 11309700000.0 11309700000.0 11309700000.0 11309700000.0 11309700000.0 11309700000.0 11309700000.0 11309700000.0 11309700000.0 11309700000.0 11309700000.0 11309700000.0 11309700000.0 11309700000.0 11309700000.0 11309700000.0 11309700000.0 11309700000.0 11309700000.0 11309700000.0 11309700000.0 11309700000.0 11309700000.0 11309700000.0 11309700000.0 11309700000.0 11309700000.0 11309700000.0 11309700000.0 11309700000.0 11309700000.0 11309700000.0 11309700000.0 11309700000.0 11309700000.0 11309700000.0 11309700000.0 11309700000.0 11309700000.0 11309700000.0 11309700000.0 11309700000.0 11309700000.0 11309700000.0 11309700000.0 11309700000.0 11309700000.0 11309700000.0 11309700000.0 11309700000.0 11309700000.0 11309700000.0 11309700000.0 11309700000.0 11309700000.0 11309700000.0 11309700000.0 11309700000.0 11309700000.0 11309700000.0 11309700000.0 11309700000.0 11309700000.0 11309700000.0 11309700000.0 11309700000.0 11309700000.0 11309700000.0 11309700000.0 11309700000.0 11309700000.0 11309700000.0 11309700000.0 11309700000.0 11309700000.0 11309700000.0 11309700000.0 11309700000.0 11309700000.0 11309700000.0 11309700000.0 11309700000.0 11309700000.0 11309700000.0 11309700000.0 11309700000.0 11309700000.0 11309700000.0 11309700000.0 11309700000.0 11309700000.0 11309700000.0 11309700000.0 11309700000.0 11309700000.0 11309700000.0 11309700000.0 11309700000.0 11309700000.0 11309700000.0 11309700000.0 11309700000.0 11309700000.0 11309700000.0 11309700000.0 11309700000.0 11309700000.0 11309700000.0 11309700000.0 11309700000.0 11309700000.0 11309700000.0 11309700000.0 11309700000.0 11309700000.0 11309700000.0 11309700000.0 11309700000.0 11309700000.0 11309700000.0 11309700000.0 11309700000.0 11309700000.0 11309700000.0 11309700000.0 11309700000.0 11309700000.0 11309700000.0 11309700000.0 11309700000.0 11309700000.0 11309700000.0 11309700000.0 11309700000.0 11309700000.0 11309700000.0 11309700000.0 11309700000.0 11309700000.0 11309700000.0 11309700000.0 11309700000.0 11309700000.0 11309700000.0 11309700000.0 11309700000.0 11309700000.0 11309700000.0 11309700000.0 11309700000.0 11309700000.0 11309700000.0 11309700000.0 11309700000.0 11309700000.0 11309700000.0 11309700000.0 11309700000.0 11309700000.0 11309700000.0 11309700000.0 11309700000.0 11309700000.0 11309700000.0 11309700000.0 11309700000.0 11309700000.0 11309700000.0 11309700000.0 11309700000.0 11309700000.0 11309700000.0 11309700000.0 11309700000.0 11309700000.0 11309700000.0 11309700000.0 11309700000.0 11309700000.0 11309700000.0 11309700000.0 11309700000.0 11309700000.0 11309700000.0 11309700000.0 11309700000.0 11309700000.0 11309700000.0 11309700000.0 11309700000.0 11309700000.0 11309700000.0 11309700000.0 11309700000.0 11309700000.0 11309700000.0 11309700000.0 11309700000.0 11309700000.0 11309700000.0 11309700000.0 11309700000.0 11309700000.0 11309700000.0 11309700000.0 11309700000.0 11309700000.0 11309700000.0 11309700000.0 11309700000.0 11309700000.0 11309700000.0 11309700000.0 11309700000.0 11309700000.0 11309700000.0 11309700000.0 11309700000.0 11309700000.0 11309700000.0 11309700000.0 11309700000.0 11309700000.0 11309700000.0 11309700000.0 11309700000.0 11309700000.0 11309700000.0 11309700000.0 11309700000.0 11309700000.0 11309700000.0 11309700000.0 11309700000.0 11309700000.0 11309700000.0 11309700000.0 11309700000.0 11309700000.0 11309700000.0 11309700000.0 11309700000.0 11309700000.0 11309700000.0 11309700000.0 11309700000.0 11309700000.0 11309700000.0 11309700000.0 11309700000.0 11309700000.0 11309700000.0 11309700000.0 11309700000.0 11309700000.0 11309700000.0 11309700000.0 11309700000.0 11309700000.0 11309700000.0 11309700000.0 11309700000.0 11309700000.0 11309700000.0 11309700000.0 11309700000.0 11309700000.0 11309700000.0 11309700000.0 11309700000.0 11309700000.0 11309700000.0 11309700000.0 11309700000.0 11309700000.0 11309700000.0 11309700000.0 11309700000.0 11309700000.0 11309700000.0 11309700000.0 11309700000.0 11309700000.0 11309700000.0 11309700000.0 11309700000.0 11309700000.0 11309700000.0 11309700000.0 11309700000.0 11309700000.0 11309700000.0 11309700000.0 11309700000.0 11309700000.0 11309700000.0 11309700000.0 11309700000.0 11309700000.0 11309700000.0 11309700000.0 11309700000.0 11309700000.0 11309700000.0 11309700000.0 11309700000.0 11309700000.0 11309700000.0 11309700000.0 11309700000.0 11309700000.0 11309700000.0 11309700000.0 11309700000.0 11309700000.0 11309700000.0 11309700000.0 11309700000.0 11309700000.0 11309700000.0 11309700000.0 11309700000.0 11309700000.0 11309700000.0 11309700000.0 11309700000.0 11309700000.0 11309700000.0 11309700000.0 11309700000.0 11309700000.0 11309700000.0 11309700000.0 11309700000.0 11309700000.0 11309700000.0 11309700000.0 11309700000.0 11309700000.0 11309700000.0 11309700000.0 11309700000.0 11309700000.0 11309700000.0 11309700000.0 11309700000.0 11309700000.0 11309700000.0 11309700000.0 11309700000.0 11309700000.0 11309700000.0 11309700000.0 11309700000.0 11309700000.0 11309700000.0 11309700000.0 11309700000.0 11309700000.0 11309700000.0 11309700000.0 11309700000.0 11309700000.0 11309700000.0 11309700000.0 11309700000.0 11309700000.0 11309700000.0 11309700000.0 11309700000.0 11309700000.0 11309700000.0 11309700000.0 11309700000.0 11309700000.0 11309700000.0 11309700000.0 11309700000.0 11309700000.0 11309700000.0 11309700000.0 11309700000.0 11309700000.0 11309700000.0 11309700000.0 11309700000.0 11309700000.0 11309700000.0 11309700000.0 11309700000.0 11309700000.0 11309700000.0 11309700000.0 11309700000.0 11309700000.0 11309700000.0 11309700000.0 11309700000.0 11309700000.0 11309700000.0 11309700000.0 11309700000.0 11309700000.0 11309700000.0 11309700000.0 11309700000.0 11309700000.0 11309700000.0 11309700000.0 11309700000.0 11309700000.0 11309700000.0 11309700000.0 11309700000.0 11309700000.0 11309700000.0 11309700000.0 11309700000.0 11309700000.0 11309700000.0 11309700000.0 11309700000.0 11309700000.0 11309700000.0 11309700000.0 11309700000.0 11309700000.0 11309700000.0 11309700000.0 11309700000.0 11309700000.0 11309700000.0 11309700000.0 11309700000.0 11309700000.0 11309700000.0 11309700000.0 11309700000.0 11309700000.0 11309700000.0 11309700000.0 11309700000.0 11309700000.0 11309700000.0 11309700000.0 11309700000.0 11309700000.0 11309700000.0 11309700000.0 11309700000.0 11309700000.0 11309700000.0 11309700000.0 11309700000.0 11309700000.0 11309700000.0 11309700000.0 11309700000.0 11309700000.0 11309700000.0 11309700000.0 11309700000.0 11309700000.0 11309700000.0 11309700000.0 11309700000.0 11309700000.0 11309700000.0 11309700000.0 11309700000.0 11309700000.0 11309700000.0 11309700000.0 11309700000.0 11309700000.0 11309700000.0 11309700000.0 11309700000.0 11309700000.0 11309700000.0 11309700000.0 11309700000.0 11309700000.0 11309700000.0 11309700000.0 11309700000.0 11309700000.0 11309700000.0 11309700000.0 11309700000.0 11309700000.0 11309700000.0 11309700000.0 11309700000.0 11309700000.0 11309700000.0 11309700000.0 11309700000.0 11309700000.0 11309700000.0 11309700000.0 11309700000.0 11309700000.0 11309700000.0 11309700000.0 11309700000.0 11309700000.0 11309700000.0 11309700000.0 11309700000.0 11309700000.0 11309700000.0 11309700000.0 11309700000.0 11309700000.0 11309700000.0 11309700000.0 11309700000.0 11309700000.0 11309700000.0 11309700000.0 11309700000.0 11309700000.0 11309700000.0 11309700000.0 11309700000.0 11309700000.0 11309700000.0 11309700000.0 11309700000.0 11309700000.0 11309700000.0 11309700000.0 11309700000.0 11309700000.0 11309700000.0 11309700000.0 11309700000.0 11309700000.0 11309700000.0 11309700000.0 11309700000.0 11309700000.0 11309700000.0 11309700000.0 11309700000.0 11309700000.0 11309700000.0 11309700000.0 11309700000.0 11309700000.0 11309700000.0 11309700000.0 11309700000.0 11309700000.0 11309700000.0 11309700000.0 11309700000.0 11309700000.0 11309700000.0 11309700000.0 11309700000.0 11309700000.0 11309700000.0 11309700000.0 11309700000.0 11309700000.0 11309700000.0 11309700000.0 11309700000.0 11309700000.0 11309700000.0 11309700000.0 11309700000.0 11309700000.0 11309700000.0 11309700000.0 11309700000.0 11309700000.0 11309700000.0 11309700000.0 11309700000.0 11309700000.0 11309700000.0 11309700000.0 11309700000.0 11309700000.0 11309700000.0 11309700000.0 11309700000.0 11309700000.0 11309700000.0 11309700000.0 11309700000.0 11309700000.0 11309700000.0 11309700000.0 11309700000.0 11309700000.0 11309700000.0 11309700000.0 11309700000.0 11309700000.0 11309700000.0 11309700000.0 11309700000.0 11309700000.0 11309700000.0 11309700000.0 11309700000.0 11309700000.0 11309700000.0 11309700000.0 11309700000.0 11309700000.0 11309700000.0 11309700000.0 11309700000.0 11309700000.0 11309700000.0 11309700000.0 11309700000.0 11309700000.0 11309700000.0 11309700000.0 11309700000.0 11309700000.0 11309700000.0 11309700000.0 11309700000.0 11309700000.0 11309700000.0 11309700000.0 11309700000.0 11309700000.0 11309700000.0 11309700000.0 11309700000.0 11309700000.0 11309700000.0 11309700000.0 11309700000.0 11309700000.0 11309700000.0 11309700000.0 11309700000.0 11309700000.0 11309700000.0 11309700000.0 11309700000.0 11309700000.0 11309700000.0 11309700000.0 11309700000.0 11309700000.0 11309700000.0 11309700000.0 11309700000.0 11309700000.0 11309700000.0 11309700000.0 11309700000.0 11309700000.0 11309700000.0 11309700000.0 11309700000.0 11309700000.0 11309700000.0 11309700000.0 11309700000.0 11309700000.0 11309700000.0 11309700000.0 11309700000.0 11309700000.0 11309700000.0 11309700000.0 11309700000.0 11309700000.0 11309700000.0 11309700000.0 11309700000.0 11309700000.0 11309700000.0 11309700000.0 11309700000.0 11309700000.0 11309700000.0 11309700000.0 11309700000.0 11309700000.0 11309700000.0 11309700000.0 11309700000.0 11309700000.0 11309700000.0 11309700000.0 11309700000.0 11309700000.0 11309700000.0 11309700000.0 11309700000.0 11309700000.0 11309700000.0 11309700000.0 11309700000.0 11309700000.0 11309700000.0 11309700000.0 11309700000.0 11309700000.0 11309700000.0 11309700000.0 11309700000.0 11309700000.0 11309700000.0 11309700000.0 11309700000.0 11309700000.0 11309700000.0 11309700000.0 11309700000.0 11309700000.0 11309700000.0 11309700000.0 11309700000.0 11309700000.0 11309700000.0 11309700000.0 11309700000.0 11309700000.0 11309700000.0 11309700000.0 11309700000.0 11309700000.0 11309700000.0 11309700000.0 11309700000.0 11309700000.0 11309700000.0 11309700000.0 11309700000.0 11309700000.0 11309700000.0 11309700000.0 11309700000.0 11309700000.0 11309700000.0 11309700000.0 11309700000.0 11309700000.0 11309700000.0 11309700000.0 11309700000.0 11309700000.0 11309700000.0 11309700000.0 11309700000.0 11309700000.0 11309700000.0 11309700000.0 11309700000.0 11309700000.0 11309700000.0 11309700000.0 11309700000.0 11309700000.0 11309700000.0 11309700000.0 11309700000.0 11309700000.0 11309700000.0 11309700000.0 11309700000.0 11309700000.0 11309700000.0 11309700000.0 11309700000.0 11309700000.0 11309700000.0 11309700000.0 11309700000.0 11309700000.0 11309700000.0 11309700000.0 11309700000.0 11309700000.0 11309700000.0 11309700000.0 11309700000.0 11309700000.0 11309700000.0 11309700000.0 11309700000.0 11309700000.0 11309700000.0 11309700000.0 11309700000.0 11309700000.0 11309700000.0 11309700000.0 11309700000.0 11309700000.0 11309700000.0 11309700000.0 11309700000.0 11309700000.0 11309700000.0 11309700000.0 11309700000.0 11309700000.0 11309700000.0 11309700000.0 11309700000.0 11309700000.0 11309700000.0 11309700000.0 11309700000.0 11309700000.0 11309700000.0 11309700000.0 11309700000.0 11309700000.0 11309700000.0 11309700000.0 11309700000.0 11309700000.0 11309700000.0 11309700000.0 11309700000.0 11309700000.0 11309700000.0 11309700000.0 11309700000.0 11309700000.0 11309700000.0 11309700000.0 11309700000.0 11309700000.0 11309700000.0 11309700000.0 11309700000.0 11309700000.0 11309700000.0 11309700000.0 11309700000.0 11309700000.0 11309700000.0 11309700000.0 11309700000.0 11309700000.0 11309700000.0 11309700000.0 11309700000.0 11309700000.0 11309700000.0 11309700000.0 11309700000.0 11309700000.0 11309700000.0 11309700000.0 11309700000.0 11309700000.0 11309700000.0 11309700000.0 11309700000.0 11309700000.0 11309700000.0 11309700000.0 11309700000.0 11309700000.0 11309700000.0 11309700000.0 11309700000.0 11309700000.0 11309700000.0 11309700000.0 11309700000.0 11309700000.0 11309700000.0 11309700000.0 11309700000.0 11309700000.0 11309700000.0 11309700000.0 11309700000.0 11309700000.0 11309700000.0 11309700000.0 11309700000.0 11309700000.0 11309700000.0 11309700000.0 11309700000.0 11309700000.0 11309700000.0 11309700000.0 11309700000.0 11309700000.0 11309700000.0 11309700000.0 11309700000.0 11309700000.0 11309700000.0 11309700000.0 11309700000.0 11309700000.0 11309700000.0 11309700000.0 11309700000.0 11309700000.0 11309700000.0 11309700000.0 11309700000.0 11309700000.0 11309700000.0 11309700000.0 11309700000.0 11309700000.0 11309700000.0 11309700000.0 11309700000.0 11309700000.0 11309700000.0 11309700000.0 11309700000.0 11309700000.0 11309700000.0 11309700000.0 11309700000.0 11309700000.0 11309700000.0 11309700000.0 11309700000.0 11309700000.0 11309700000.0 11309700000.0 11309700000.0 11309700000.0 11309700000.0 11309700000.0 11309700000.0 11309700000.0 11309700000.0 11309700000.0 11309700000.0 11309700000.0 11309700000.0 11309700000.0 11309700000.0 11309700000.0 11309700000.0 11309700000.0 11309700000.0 11309700000.0 11309700000.0 11309700000.0 11309700000.0 11309700000.0 11309700000.0 11309700000.0 11309700000.0 11309700000.0 11309700000.0 11309700000.0 11309700000.0 11309700000.0 11309700000.0 11309700000.0 11309700000.0 11309700000.0 11309700000.0 11309700000.0 11309700000.0 11309700000.0 11309700000.0 11309700000.0 11309700000.0 11309700000.0 11309700000.0 11309700000.0 11309700000.0 11309700000.0 11309700000.0 11309700000.0 11309700000.0 11309700000.0 11309700000.0 11309700000.0 11309700000.0 11309700000.0 11309700000.0 11309700000.0 11309700000.0 11309700000.0 11309700000.0 11309700000.0 11309700000.0 11309700000.0 11309700000.0 11309700000.0 11309700000.0 11309700000.0 11309700000.0 11309700000.0 11309700000.0 11309700000.0 11309700000.0 11309700000.0 11309700000.0 11309700000.0 11309700000.0 11309700000.0 11309700000.0 11309700000.0 11309700000.0 11309700000.0 11309700000.0 11309700000.0 11309700000.0 11309700000.0 11309700000.0 11309700000.0 11309700000.0 11309700000.0 11309700000.0 11309700000.0 11309700000.0 11309700000.0 11309700000.0 11309700000.0 11309700000.0 11309700000.0 11309700000.0 11309700000.0 11309700000.0 11309700000.0 11309700000.0 11309700000.0 11309700000.0 11309700000.0 11309700000.0 11309700000.0 11309700000.0 11309700000.0 11309700000.0 11309700000.0 11309700000.0 11309700000.0 11309700000.0 11309700000.0 11309700000.0 11309700000.0 11309700000.0 11309700000.0 11309700000.0 11309700000.0 11309700000.0 11309700000.0 11309700000.0 11309700000.0 11309700000.0 11309700000.0 11309700000.0 11309700000.0 11309700000.0 11309700000.0 11309700000.0 11309700000.0 11309700000.0 11309700000.0 11309700000.0 11309700000.0 11309700000.0 11309700000.0 11309700000.0 11309700000.0 11309700000.0 11309700000.0 11309700000.0 11309700000.0 11309700000.0 11309700000.0 11309700000.0 11309700000.0 11309700000.0 11309700000.0 11309700000.0 11309700000.0 11309700000.0 11309700000.0 11309700000.0 11309700000.0 11309700000.0 11309700000.0 11309700000.0 11309700000.0 11309700000.0 11309700000.0 11309700000.0 11309700000.0 11309700000.0 11309700000.0 11309700000.0 11309700000.0 11309700000.0 11309700000.0 11309700000.0 11309700000.0 11309700000.0 11309700000.0 11309700000.0 11309700000.0 11309700000.0 11309700000.0 11309700000.0 11309700000.0 11309700000.0 11309700000.0 11309700000.0 11309700000.0 11309700000.0 11309700000.0 11309700000.0 11309700000.0 11309700000.0 11309700000.0 11309700000.0 11309700000.0 11309700000.0 11309700000.0 11309700000.0 11309700000.0 11309700000.0 11309700000.0 11309700000.0 11309700000.0 11309700000.0 11309700000.0 11309700000.0 11309700000.0 11309700000.0 11309700000.0 11309700000.0 11309700000.0 11309700000.0 11309700000.0 11309700000.0 11309700000.0 11309700000.0 11309700000.0 11309700000.0 11309700000.0 11309700000.0 11309700000.0 11309700000.0 11309700000.0 11309700000.0 11309700000.0 11309700000.0 11309700000.0 11309700000.0 11309700000.0 11309700000.0 11309700000.0 11309700000.0 11309700000.0 11309700000.0 11309700000.0 11309700000.0 11309700000.0 11309700000.0 11309700000.0 11309700000.0 11309700000.0 11309700000.0 11309700000.0 11309700000.0 11309700000.0 11309700000.0 11309700000.0 11309700000.0 11309700000.0 11309700000.0 11309700000.0 11309700000.0 11309700000.0 11309700000.0 11309700000.0 11309700000.0 11309700000.0 11309700000.0 11309700000.0 11309700000.0 11309700000.0 11309700000.0 11309700000.0 11309700000.0 11309700000.0 11309700000.0 11309700000.0 11309700000.0 11309700000.0 11309700000.0 11309700000.0 11309700000.0 11309700000.0 11309700000.0 11309700000.0 11309700000.0 11309700000.0 11309700000.0 11309700000.0 11309700000.0 11309700000.0 11309700000.0 11309700000.0 11309700000.0 11309700000.0 11309700000.0 11309700000.0 11309700000.0 11309700000.0 11309700000.0 11309700000.0 11309700000.0 11309700000.0 11309700000.0 11309700000.0 11309700000.0 11309700000.0 11309700000.0 11309700000.0 11309700000.0 11309700000.0 11309700000.0 11309700000.0 11309700000.0 11309700000.0 11309700000.0 11309700000.0 11309700000.0 11309700000.0 11309700000.0 11309700000.0 11309700000.0 11309700000.0 11309700000.0 11309700000.0 11309700000.0 11309700000.0 11309700000.0 11309700000.0 11309700000.0 11309700000.0 11309700000.0 11309700000.0 11309700000.0 11309700000.0 11309700000.0 11309700000.0 11309700000.0 11309700000.0 11309700000.0 11309700000.0 11309700000.0 11309700000.0 11309700000.0 11309700000.0 11309700000.0 11309700000.0 11309700000.0 11309700000.0 11309700000.0 11309700000.0 11309700000.0 11309700000.0 11309700000.0 11309700000.0 11309700000.0 11309700000.0 11309700000.0 11309700000.0 11309700000.0 11309700000.0 11309700000.0 11309700000.0 11309700000.0 11309700000.0 11309700000.0 11309700000.0 11309700000.0 11309700000.0 11309700000.0 11309700000.0 11309700000.0 11309700000.0 11309700000.0 11309700000.0 11309700000.0 11309700000.0 11309700000.0 11309700000.0 11309700000.0 11309700000.0 11309700000.0 11309700000.0 11309700000.0 11309700000.0 11309700000.0 11309700000.0 11309700000.0 11309700000.0 11309700000.0 11309700000.0 11309700000.0 11309700000.0 11309700000.0 11309700000.0 11309700000.0 11309700000.0 11309700000.0 11309700000.0 11309700000.0 11309700000.0 11309700000.0 11309700000.0 11309700000.0 11309700000.0 11309700000.0 11309700000.0 11309700000.0 11309700000.0 11309700000.0 11309700000.0 11309700000.0 11309700000.0 11309700000.0 11309700000.0 11309700000.0 11309700000.0 11309700000.0 11309700000.0 11309700000.0 11309700000.0 11309700000.0 11309700000.0 11309700000.0 11309700000.0 11309700000.0 11309700000.0 11309700000.0 11309700000.0 11309700000.0 11309700000.0 11309700000.0 11309700000.0 11309700000.0 11309700000.0 11309700000.0 11309700000.0 11309700000.0 11309700000.0 11309700000.0 11309700000.0 11309700000.0 11309700000.0 11309700000.0 11309700000.0 11309700000.0 11309700000.0 11309700000.0 11309700000.0 11309700000.0 11309700000.0 11309700000.0 11309700000.0 11309700000.0 11309700000.0 11309700000.0 11309700000.0 11309700000.0 11309700000.0 11309700000.0 11309700000.0 11309700000.0 11309700000.0 11309700000.0 11309700000.0 11309700000.0 11309700000.0 11309700000.0 11309700000.0 11309700000.0 11309700000.0 11309700000.0 11309700000.0 11309700000.0 11309700000.0 11309700000.0 11309700000.0 11309700000.0 11309700000.0 11309700000.0 11309700000.0 11309700000.0 11309700000.0 11309700000.0 11309700000.0 11309700000.0 11309700000.0 11309700000.0 11309700000.0 11309700000.0 11309700000.0 11309700000.0 11309700000.0 11309700000.0 11309700000.0 11309700000.0 11309700000.0 11309700000.0 11309700000.0 11309700000.0 11309700000.0 11309700000.0 11309700000.0 11309700000.0 11309700000.0 11309700000.0 11309700000.0 11309700000.0 11309700000.0 11309700000.0 11309700000.0 11309700000.0 11309700000.0 11309700000.0 11309700000.0 11309700000.0 11309700000.0 11309700000.0 11309700000.0 11309700000.0 11309700000.0 11309700000.0 11309700000.0 11309700000.0 11309700000.0 11309700000.0 11309700000.0 11309700000.0 11309700000.0 11309700000.0 11309700000.0 11309700000.0 11309700000.0 11309700000.0 11309700000.0 11309700000.0 11309700000.0 11309700000.0 11309700000.0 11309700000.0 11309700000.0 11309700000.0 11309700000.0 11309700000.0 11309700000.0 11309700000.0 11309700000.0 11309700000.0 11309700000.0 11309700000.0 11309700000.0 11309700000.0 11309700000.0 11309700000.0 11309700000.0 11309700000.0 11309700000.0 11309700000.0 11309700000.0 11309700000.0 11309700000.0 11309700000.0 11309700000.0 11309700000.0 11309700000.0 11309700000.0 11309700000.0 11309700000.0 11309700000.0 11309700000.0 11309700000.0 11309700000.0 11309700000.0 11309700000.0 11309700000.0 11309700000.0 11309700000.0 11309700000.0 11309700000.0 11309700000.0 11309700000.0 11309700000.0 11309700000.0 11309700000.0 11309700000.0 11309700000.0 11309700000.0 11309700000.0 11309700000.0 11309700000.0 11309700000.0 11309700000.0 11309700000.0 11309700000.0 11309700000.0 11309700000.0 11309700000.0 11309700000.0 11309700000.0 11309700000.0 11309700000.0 11309700000.0 11309700000.0 11309700000.0 11309700000.0 11309700000.0 11309700000.0 11309700000.0 11309700000.0 11309700000.0 11309700000.0 11309700000.0 11309700000.0 11309700000.0 11309700000.0 11309700000.0 11309700000.0 11309700000.0 11309700000.0 11309700000.0 11309700000.0 11309700000.0 11309700000.0 11309700000.0 11309700000.0 11309700000.0 11309700000.0 11309700000.0 11309700000.0 11309700000.0 11309700000.0 11309700000.0 11309700000.0 11309700000.0 11309700000.0 11309700000.0 11309700000.0 11309700000.0 11309700000.0 11309700000.0 11309700000.0 11309700000.0 11309700000.0 11309700000.0 11309700000.0 11309700000.0 11309700000.0 11309700000.0 11309700000.0 11309700000.0 11309700000.0 11309700000.0 11309700000.0 11309700000.0 11309700000.0 11309700000.0 11309700000.0 11309700000.0 11309700000.0 11309700000.0 11309700000.0 11309700000.0 11309700000.0 11309700000.0 11309700000.0 11309700000.0 11309700000.0 11309700000.0 11309700000.0 11309700000.0 11309700000.0 11309700000.0 11309700000.0 11309700000.0 11309700000.0 11309700000.0 11309700000.0 11309700000.0 11309700000.0 11309700000.0 11309700000.0 11309700000.0 11309700000.0 11309700000.0 11309700000.0 11309700000.0 11309700000.0 11309700000.0 11309700000.0 11309700000.0 11309700000.0 11309700000.0 11309700000.0 11309700000.0 11309700000.0 11309700000.0 11309700000.0 11309700000.0 11309700000.0 11309700000.0 11309700000.0 11309700000.0 11309700000.0 11309700000.0 11309700000.0 11309700000.0 11309700000.0 11309700000.0 11309700000.0 11309700000.0 11309700000.0 11309700000.0 11309700000.0 11309700000.0 11309700000.0 11309700000.0 11309700000.0 11309700000.0 11309700000.0 11309700000.0 11309700000.0 11309700000.0 11309700000.0 11309700000.0 11309700000.0 11309700000.0 11309700000.0 11309700000.0 11309700000.0 11309700000.0 11309700000.0 11309700000.0 11309700000.0 11309700000.0 11309700000.0 11309700000.0 11309700000.0 11309700000.0 11309700000.0 11309700000.0 11309700000.0 11309700000.0 11309700000.0 11309700000.0 11309700000.0 11309700000.0 11309700000.0 11309700000.0 11309700000.0 11309700000.0 11309700000.0 11309700000.0 11309700000.0 11309700000.0 11309700000.0 11309700000.0 11309700000.0 11309700000.0 11309700000.0 11309700000.0 11309700000.0 11309700000.0 11309700000.0 11309700000.0 11309700000.0 11309700000.0 11309700000.0 11309700000.0 11309700000.0 11309700000.0 11309700000.0 11309700000.0 11309700000.0 11309700000.0 11309700000.0 11309700000.0 11309700000.0 11309700000.0 11309700000.0 11309700000.0 11309700000.0 11309700000.0 11309700000.0 11309700000.0 11309700000.0 11309700000.0 11309700000.0 11309700000.0 11309700000.0 11309700000.0 11309700000.0 11309700000.0 11309700000.0 11309700000.0 11309700000.0 11309700000.0 11309700000.0 11309700000.0 11309700000.0 11309700000.0 11309700000.0 11309700000.0 11309700000.0 11309700000.0 11309700000.0 11309700000.0 11309700000.0 11309700000.0 11309700000.0 11309700000.0 11309700000.0 11309700000.0 11309700000.0 11309700000.0 11309700000.0 11309700000.0 11309700000.0 11309700000.0 11309700000.0 11309700000.0 11309700000.0 11309700000.0 11309700000.0 11309700000.0 11309700000.0 11309700000.0 11309700000.0 11309700000.0 11309700000.0 11309700000.0 11309700000.0 11309700000.0 11309700000.0 11309700000.0 11309700000.0 11309700000.0 11309700000.0 11309700000.0 11309700000.0 11309700000.0 11309700000.0 11309700000.0 11309700000.0 11309700000.0 11309700000.0 11309700000.0 11309700000.0 11309700000.0 11309700000.0 11309700000.0 11309700000.0 11309700000.0 11309700000.0 11309700000.0 11309700000.0 11309700000.0 11309700000.0 11309700000.0 11309700000.0 11309700000.0 11309700000.0 11309700000.0 11309700000.0 11309700000.0 11309700000.0 11309700000.0 11309700000.0 11309700000.0 11309700000.0 11309700000.0 11309700000.0 11309700000.0 11309700000.0 11309700000.0 11309700000.0 11309700000.0 11309700000.0 11309700000.0 11309700000.0 11309700000.0 11309700000.0 11309700000.0 11309700000.0 11309700000.0 11309700000.0 11309700000.0 11309700000.0 11309700000.0 11309700000.0 11309700000.0 11309700000.0 11309700000.0 11309700000.0 11309700000.0 11309700000.0 11309700000.0 11309700000.0 11309700000.0 11309700000.0 11309700000.0 11309700000.0 11309700000.0 11309700000.0 11309700000.0 11309700000.0 11309700000.0 11309700000.0 11309700000.0 11309700000.0 11309700000.0 11309700000.0 11309700000.0 11309700000.0 11309700000.0 11309700000.0 11309700000.0 11309700000.0 11309700000.0 11309700000.0 11309700000.0 11309700000.0 11309700000.0 11309700000.0 11309700000.0 11309700000.0 11309700000.0 11309700000.0 11309700000.0 11309700000.0 11309700000.0 11309700000.0 11309700000.0 11309700000.0 11309700000.0 11309700000.0 11309700000.0 11309700000.0 11309700000.0 11309700000.0 11309700000.0 11309700000.0 11309700000.0 11309700000.0 11309700000.0 11309700000.0 11309700000.0 11309700000.0 11309700000.0 11309700000.0 11309700000.0 11309700000.0 11309700000.0 11309700000.0 11309700000.0 11309700000.0 11309700000.0 11309700000.0 11309700000.0 11309700000.0 11309700000.0 11309700000.0 11309700000.0 11309700000.0 11309700000.0 11309700000.0 11309700000.0 11309700000.0 11309700000.0 11309700000.0 11309700000.0 11309700000.0 11309700000.0 11309700000.0 11309700000.0 11309700000.0 11309700000.0 11309700000.0 11309700000.0 11309700000.0 11309700000.0 11309700000.0 11309700000.0 11309700000.0 11309700000.0 11309700000.0 11309700000.0 11309700000.0 11309700000.0 11309700000.0 11309700000.0 11309700000.0 11309700000.0 11309700000.0 11309700000.0 11309700000.0 11309700000.0 11309700000.0 11309700000.0 11309700000.0 11309700000.0 11309700000.0 11309700000.0 11309700000.0 11309700000.0 11309700000.0 11309700000.0 11309700000.0 11309700000.0 11309700000.0 11309700000.0 11309700000.0 11309700000.0 11309700000.0 11309700000.0 11309700000.0 11309700000.0 11309700000.0 11309700000.0 11309700000.0 11309700000.0 11309700000.0 11309700000.0 11309700000.0 11309700000.0 11309700000.0 11309700000.0 11309700000.0 11309700000.0 11309700000.0 11309700000.0 11309700000.0 11309700000.0 11309700000.0 11309700000.0 11309700000.0 11309700000.0 11309700000.0 11309700000.0 11309700000.0 11309700000.0 11309700000.0 11309700000.0 11309700000.0 11309700000.0 11309700000.0 11309700000.0 11309700000.0 11309700000.0 11309700000.0 11309700000.0 11309700000.0 11309700000.0 11309700000.0 11309700000.0 11309700000.0 11309700000.0 11309700000.0 11309700000.0 11309700000.0 11309700000.0 11309700000.0 11309700000.0 11309700000.0 11309700000.0 11309700000.0 11309700000.0 11309700000.0 11309700000.0 11309700000.0 11309700000.0 11309700000.0 11309700000.0 11309700000.0 11309700000.0 11309700000.0 11309700000.0 11309700000.0 11309700000.0 11309700000.0 11309700000.0 11309700000.0 11309700000.0 11309700000.0 11309700000.0 11309700000.0 11309700000.0 11309700000.0 11309700000.0 11309700000.0 11309700000.0 11309700000.0 11309700000.0 11309700000.0 11309700000.0 11309700000.0 11309700000.0 11309700000.0 11309700000.0 11309700000.0 11309700000.0 11309700000.0 11309700000.0 11309700000.0 11309700000.0 11309700000.0 11309700000.0 11309700000.0 11309700000.0 11309700000.0 11309700000.0 11309700000.0 11309700000.0 11309700000.0 11309700000.0 11309700000.0 11309700000.0 11309700000.0 11309700000.0 11309700000.0 11309700000.0 11309700000.0 11309700000.0 11309700000.0 11309700000.0 11309700000.0 11309700000.0 11309700000.0 11309700000.0 11309700000.0 11309700000.0 11309700000.0 11309700000.0 11309700000.0 11309700000.0 11309700000.0 11309700000.0 11309700000.0 11309700000.0 11309700000.0 11309700000.0 11309700000.0 11309700000.0 11309700000.0 11309700000.0 11309700000.0 11309700000.0 11309700000.0 11309700000.0 11309700000.0 11309700000.0 11309700000.0 11309700000.0 11309700000.0 11309700000.0 11309700000.0 11309700000.0 11309700000.0 11309700000.0 11309700000.0 11309700000.0 11309700000.0 11309700000.0 11309700000.0 11309700000.0 11309700000.0 11309700000.0 11309700000.0 11309700000.0 11309700000.0 11309700000.0 11309700000.0 11309700000.0 11309700000.0 11309700000.0 11309700000.0 11309700000.0 11309700000.0 11309700000.0 11309700000.0 11309700000.0 11309700000.0 11309700000.0 11309700000.0 11309700000.0 11309700000.0 11309700000.0 11309700000.0 11309700000.0 11309700000.0 11309700000.0 11309700000.0 11309700000.0 11309700000.0 11309700000.0 11309700000.0 11309700000.0 11309700000.0 11309700000.0 11309700000.0 11309700000.0 11309700000.0 11309700000.0 11309700000.0 11309700000.0 11309700000.0 11309700000.0 11309700000.0 11309700000.0 11309700000.0 11309700000.0 11309700000.0 11309700000.0 11309700000.0 11309700000.0 11309700000.0 11309700000.0 11309700000.0 11309700000.0 11309700000.0 11309700000.0 11309700000.0 11309700000.0 11309700000.0 11309700000.0 11309700000.0 11309700000.0 11309700000.0 11309700000.0 11309700000.0 11309700000.0 11309700000.0 11309700000.0 11309700000.0 11309700000.0 11309700000.0 11309700000.0 11309700000.0 11309700000.0 11309700000.0 11309700000.0 11309700000.0 11309700000.0 11309700000.0 11309700000.0 11309700000.0 11309700000.0 11309700000.0 11309700000.0 11309700000.0 11309700000.0 11309700000.0 11309700000.0 11309700000.0 11309700000.0 11309700000.0 11309700000.0 11309700000.0 11309700000.0 11309700000.0 11309700000.0 11309700000.0 11309700000.0 11309700000.0 11309700000.0 11309700000.0 11309700000.0 11309700000.0 11309700000.0 11309700000.0 11309700000.0 11309700000.0 11309700000.0 11309700000.0 11309700000.0 11309700000.0 11309700000.0 11309700000.0 11309700000.0 11309700000.0 11309700000.0 11309700000.0 11309700000.0 11309700000.0 11309700000.0 11309700000.0 11309700000.0 11309700000.0 11309700000.0 11309700000.0 11309700000.0 11309700000.0 11309700000.0 11309700000.0 11309700000.0 11309700000.0 11309700000.0 11309700000.0 11309700000.0 11309700000.0 11309700000.0 11309700000.0 11309700000.0 11309700000.0 11309700000.0 11309700000.0 11309700000.0 11309700000.0 11309700000.0 11309700000.0 11309700000.0 11309700000.0 11309700000.0 11309700000.0 11309700000.0 11309700000.0 11309700000.0 11309700000.0 11309700000.0 11309700000.0 11309700000.0 11309700000.0 11309700000.0 11309700000.0 11309700000.0 11309700000.0 11309700000.0 11309700000.0 11309700000.0 11309700000.0 11309700000.0 11309700000.0 11309700000.0 11309700000.0 11309700000.0 11309700000.0 11309700000.0 11309700000.0 11309700000.0 11309700000.0 11309700000.0 11309700000.0 11309700000.0 11309700000.0 11309700000.0 11309700000.0 11309700000.0 11309700000.0 11309700000.0 11309700000.0 11309700000.0 11309700000.0 11309700000.0 11309700000.0 11309700000.0 11309700000.0 11309700000.0 11309700000.0 11309700000.0 11309700000.0 11309700000.0 11309700000.0 11309700000.0 11309700000.0 11309700000.0 11309700000.0 11309700000.0 11309700000.0 11309700000.0 11309700000.0 11309700000.0 11309700000.0 11309700000.0 11309700000.0 11309700000.0 11309700000.0 11309700000.0 11309700000.0 11309700000.0 11309700000.0 11309700000.0 11309700000.0 11309700000.0 11309700000.0 11309700000.0 11309700000.0 11309700000.0 11309700000.0 11309700000.0 11309700000.0 11309700000.0 11309700000.0 11309700000.0 11309700000.0 11309700000.0 11309700000.0 11309700000.0 11309700000.0 11309700000.0 11309700000.0 11309700000.0 11309700000.0 11309700000.0 11309700000.0 11309700000.0 11309700000.0 11309700000.0 11309700000.0 11309700000.0 11309700000.0 11309700000.0 11309700000.0 11309700000.0 11309700000.0 11309700000.0 11309700000.0 11309700000.0 11309700000.0 11309700000.0 11309700000.0 11309700000.0 11309700000.0 11309700000.0 11309700000.0 11309700000.0 11309700000.0 11309700000.0 11309700000.0 11309700000.0 11309700000.0 11309700000.0 11309700000.0 11309700000.0 11309700000.0 11309700000.0 11309700000.0 11309700000.0 11309700000.0 11309700000.0 11309700000.0 11309700000.0 11309700000.0 11309700000.0 11309700000.0 11309700000.0 11309700000.0 11309700000.0 11309700000.0 11309700000.0 11309700000.0 11309700000.0 11309700000.0 11309700000.0 11309700000.0 11309700000.0 11309700000.0 11309700000.0 11309700000.0 11309700000.0 11309700000.0 11309700000.0 11309700000.0 11309700000.0 11309700000.0 11309700000.0 11309700000.0 11309700000.0 11309700000.0 11309700000.0 11309700000.0 11309700000.0 11309700000.0 11309700000.0 11309700000.0 11309700000.0 11309700000.0 11309700000.0 11309700000.0 11309700000.0 11309700000.0 11309700000.0 11309700000.0 11309700000.0 11309700000.0 11309700000.0 11309700000.0 11309700000.0 11309700000.0 11309700000.0 11309700000.0 11309700000.0 11309700000.0 11309700000.0 11309700000.0 11309700000.0 11309700000.0 11309700000.0 11309700000.0 11309700000.0 11309700000.0 11309700000.0 11309700000.0 11309700000.0 11309700000.0 11309700000.0 11309700000.0 11309700000.0 11309700000.0 11309700000.0 11309700000.0 11309700000.0 11309700000.0 11309700000.0 11309700000.0 11309700000.0 11309700000.0 11309700000.0 11309700000.0 11309700000.0 11309700000.0 11309700000.0 11309700000.0 11309700000.0 11309700000.0 11309700000.0 11309700000.0 11309700000.0 11309700000.0 11309700000.0 11309700000.0 11309700000.0 11309700000.0 11309700000.0 11309700000.0 11309700000.0 11309700000.0 11309700000.0 11309700000.0 11309700000.0 11309700000.0 11309700000.0 11309700000.0 11309700000.0 
SCALARS Velocity float 1
LOOKUP_TABLE default
1.06958 1.07222 1.10661 1.07535 1.07387 1.07211 1.06945 1.08508 1.07299 1.07292 1.06927 1.07029 1.06978 1.08334 1.08056 1.07901 1.077 1.07363 1.07036 1.06822 0.996527 1.01728 1.08569 1.07359 1.06907 1.07064 1.07064 1.07033 1.07018 1.06987 1.1064 1.08371 1.0831 1.08238 1.07892 1.07519 1.07176 1.06923 1.02408 1.03055 1.0779 1.0739 1.0692 1.06954 1.07109 1.07065 1.0705 1.1055 1.08347 1.08074 1.07698 1.07328 1.0713 1.06998 1.06837 1.06816 1.07101 1.01 1.08696 1.07445 1.06881 1.06689 1.06881 1.0696 1.07134 1.07047 1.08462 1.0825 1.08094 1.07896 1.07692 1.07498 1.07285 1.06939 1.06735 1.0633 1.0834 1.06901 1.06852 1.06939 1.0701 1.07008 1.07201 1.07272 1.07127 1.07043 1.07135 1.10448 1.08594 1.08402 1.08292 1.07907 1.07468 1.07067 1.06778 1.06308 1.06968 1.07298 1.06839 1.06971 1.07082 1.07302 1.07327 1.07241 1.10325 1.08491 1.08136 1.07681 1.07226 1.0686 1.06647 1.06554 1.06506 1.06787 1.07025 1.06946 1.07084 1.07384 1.07254 1.08692 1.08381 1.08206 1.07928 1.07665 1.07422 1.07141 1.0698 1.06738 1.06478 1.06411 1.06479 1.06721 1.0674 1.07011 1.06982 1.06977 1.0707 1.07075 1.07215 1.07194 1.07379 1.07439 1.07373 1.07345 1.07417 1.09112 1.08938 1.08638 1.08516 1.07957 1.07357 1.06858 1.0653 1.06385 1.06582 1.06867 1.07039 1.0722 1.0736 1.07428 1.07403 1.08404 1.08533 1.09004 1.08857 1.08297 1.07639 1.07026 1.066 1.06378 1.06401 1.06649 1.06946 1.07188 1.07398 1.07504 1.08222 1.08719 1.0911 1.08685 1.07988 1.07606 1.07267 1.06878 1.06708 1.06435 1.06393 1.06248 1.06296 1.06286 1.06459 1.06539 1.06769 1.06922 1.07094 1.07325 1.07396 1.07633 1.0758 1.07465 1.07644 1.07972 1.08514 1.09176 1.0941 1.09077 1.08856 1.08399 1.08028 1.07153 1.06522 1.06231 1.06169 1.06321 1.0668 1.07161 1.07618 1.07863 1.07567 1.07976 1.0826 1.08648 1.08958 1.09523 1.09348 1.08513 1.07589 1.06688 1.06242 1.06098 1.06143 1.06406 1.069 1.07498 1.07931 1.0774 1.08326 1.09201 1.09809 1.09041 1.0813 1.07634 1.07012 1.06442 1.06296 1.06028 1.06055 1.05947 1.06023 1.05979 1.06155 1.06235 1.06574 1.06865 1.07244 1.07722 1.07902 1.0831 1.08217 1.0766 1.07836 1.0804 1.08455 1.08812 1.09951 1.09567 1.09508 1.08763 1.08375 1.0682 1.06028 1.05885 1.05881 1.05947 1.06425 1.07341 1.08271 1.08654 1.07754 1.08162 1.09068 1.0953 1.10947 1.00501 1.0161 1.09257 1.0783 1.06111 1.05816 1.05757 1.05822 1.05807 1.06007 1.06788 1.08016 1.08789 1.07955 1.08671 1.10061 1.01321 1.02408 1.08867 1.08355 1.06492 1.05667 1.05733 1.05653 1.05744 1.05769 1.05657 1.05679 1.05711 1.06201 1.06618 1.07441 1.08413 1.08754 1.09383 1.09178 1.07854 1.08092 1.08342 1.08964 1.09442 1.105 1.11489 1.02309 1.0311 1.05746 1.05527 1.05642 1.05733 1.0534 1.05867 1.07514 1.09389 1.09771 1.07939 1.08549 1.09835 1.11819 1.02298 1.03142 1.03015 1.03722 1.03991 1.04673 1.05378 1.05309 1.05506 1.05488 1.05628 1.05563 1.05699 1.05395 1.0541 1.0622 1.08994 1.10084 1.07962 1.08198 1.08711 1.09277 1.10944 1.03377 1.03763 1.01956 1.04827 1.05279 1.05443 1.05294 1.05666 1.05278 1.05435 1.0754 1.09991 1.10222 1.1079 1.10363 1.08192 1.09542 1.10265 1.11478 1.12065 1.04174 1.01775 1.03657 1.04853 1.05286 1.05272 1.04945 1.06013 1.07645 1.11212 1.10791 1.07934 1.08724 1.10733 1.12397 1.04355 1.04054 1.02506 1.02196 1.02247 1.02924 1.04029 1.0428 1.04944 1.05104 1.05269 1.05152 1.04932 1.04387 1.04699 1.04468 1.07006 1.12155 1.11701 1.11763 1.11204 1.10991 1.07859 1.08085 1.08465 1.09578 1.10828 1.12361 1.13893 1.04551 1.03256 1.02055 1.0331 1.04623 1.05282 1.04824 1.03549 1.06174 1.16312 1.14004 1.11331 1.0782 1.08949 1.12599 1.14269 1.0538 1.03596 1.02235 1.0177 1.02288 1.03793 1.05074 1.05395 1.04074 1.02677 1.04844 1.14368 1.17503 1.12457 1.10994 1.08012 1.07848 1.07802 1.07501 1.09822 1.15861 1.15525 1.12543 1.07461 1.02597 1.01899 1.0277 1.03518 1.04431 1.05193 1.05617 1.06253 1.05273 1.04496 1.02541 1.00201 1.20489 1.14465 1.11955 1.11278 1.10997 1.08587 1.07638 1.0684 1.11973 1.18876 1.1271 1.05691 1.01971 1.02566 1.04446 1.06042 1.07011 1.01822 1.03599 1.27413 1.17915 1.1306 1.11029 1.08595 1.07308 1.06261 1.16797 1.10837 1.04458 1.03427 1.02023 1.02869 1.03583 1.0545 1.06952 1.07816 0.947187 1.16313 1.11364 1.111 1.09638 1.10085 1.08753 1.09128 1.07292 1.10734 1.13852 1.0701 1.17684 1.185 1.10061 1.08627 1.02902 1.04103 1.04742 1.05843 1.06432 1.07268 1.07822 1.08261 1.0863 1.01307 0.319767 1.33251 1.19016 1.12786 1.12017 1.11156 1.11381 1.11027 1.10675 1.10762 1.12233 0.970801 0.86134 1.1852 1.06686 1.03752 1.05336 1.06724 1.0768 1.05026 1.0947 1.24397 1.14975 1.1179 1.12317 1.11809 1.12634 1.11662 1.1206 1.11668 1.08919 1.04879 0.946046 0.772276 1.16414 1.12801 1.04526 1.04869 1.05009 1.06027 1.06287 1.07285 1.06618 1.06106 1.18782 1.18234 1.15201 1.13311 1.12475 1.11728 1.1307 1.1302 1.10143 1.01433 0.85042 0.790451 0.735517 0.78618 1.0637 1.0601 1.06698 1.06955 1.07332 1.07211 1.07491 1.06877 1.09102 1.12922 1.16364 1.13643 1.11943 1.12985 1.13602 1.12026 1.0536 0.985673 0.930089 0.863374 0.79005 0.883435 1.06637 1.0653 1.07253 1.07814 1.08639 1.12296 1.15436 1.14746 1.14574 1.12584 1.12814 1.13439 1.13523 1.13552 1.11743 1.07763 1.02129 0.922652 0.833711 0.846434 0.931586 1.01102 1.04115 1.06406 1.06765 1.07082 1.07893 1.08685 1.10364 1.13785 1.13906 1.13379 1.11822 1.11714 1.12556 1.14354 1.04764 0.962638 0.921734 0.884254 0.881143 0.852341 0.906656 1.00246 1.05533 1.07482 1.07787 1.08704 1.08757 1.09807 1.09881 1.11225 1.12157 1.1383 1.1202 1.09427 1.11407 1.10287 1.12862 1.18066 1.12145 0.995369 0.985274 0.942916 0.912653 0.907546 0.963749 1.03289 1.06684 1.08467 1.09768 1.10952 1.12501 1.13225 1.12731 1.12508 1.07646 1.08586 1.01976 0.893832 1.08354 1.12289 1.12569 0.940885 0.938589 0.923556 0.947388 0.948019 0.986437 1.00745 1.03426 1.05249 1.06926 1.07909 1.09239 1.09609 1.10858 1.12112 1.12762 1.0867 1.01981 1.06275 1.03357 0.96065 1.24745 1.23088 0.917037 0.950636 0.957616 0.962916 0.942503 0.955679 0.976023 1.01657 1.05592 1.08581 1.10506 1.10739 1.11736 1.11896 1.12558 1.12698 1.11528 1.10365 1.04703 1.01995 0.982326 0.939674 0.964719 0.886525 1.10869 0.996748 0.853969 0.976513 0.967354 0.974712 1.00287 1.04112 1.07655 1.10096 1.11528 1.12544 1.12215 1.08623 1.04424 1.01942 0.893832 1.06738 0.883545 1.26507 0.649258 0.945206 0.979219 0.982395 0.977553 0.990062 0.994456 1.0143 1.02699 1.05272 1.06539 1.08912 1.09538 1.11185 1.11731 1.12229 1.12596 1.1304 1.13447 1.11706 1.13001 1.08057 1.06507 0.983618 0.906362 1.15982 0.769968 0.533422 0.896618 0.795124 0.841217 0.917306 0.97223 0.9792 0.988597 1.00356 1.03783 1.08113 1.10754 1.10915 1.11376 1.11822 1.12648 1.14879 1.13154 0.771205 1.08862 1.01894 1.38551 1.07534 0.870068 0.951301 0.984343 0.995758 1.02202 1.06992 1.1071 1.1147 1.10859 1.11545 1.13535 1.18495 1.12802 0.964429 0.841396 0.986281 0.184159 0.927117 1.37531 1.17481 0.922315 0.901814 0.908315 0.929991 0.965887 0.976139 0.988542 0.992128 1.00677 1.031 1.053 1.10313 1.11925 1.11045 1.10518 1.08246 1.09677 1.08452 1.11361 1.14147 1.15437 0.949263 0.849348 1.77947 0.841012 1.62943 1.04587 1.03661 0.941685 0.891734 0.953107 0.981207 1.00409 1.07461 1.09617 1.13152 1.12783 1.12402 1.08317 1.05584 1.08134 1.20401 1.09246 1.07108 0.964105 1.66465 4.56798 1.07763 1.29798 1.0415 2.26008 1.30162 1.12438 1.00327 0.874899 0.915393 0.973096 0.982479 1.04027 1.13364 1.14776 1.09117 1.04571 1.01515 1.02725 1.03027 1.16809 1.23543 1.11143 1.05623 0.497126 0.82968 0.554621 0.848351 0.597729 0.784424 0.903284 1.4188 1.17554 1.28865 0.846461 0.827247 0.879059 0.950263 0.961335 0.96857 0.971164 0.968747 1.00223 1.10083 1.16191 1.13825 1.11195 1.03894 1.03899 0.994411 1.01134 1.07073 1.07454 1.14882 1.18816 1.52725 0.24448 0.83814 0.576894 0.669728 0.717974 0.556204 0.776931 0.854371 1.07096 1.12673 1.33982 0.900697 0.812059 0.947303 0.972217 0.958773 0.986937 1.04927 1.14012 1.18662 1.17163 1.06182 0.975571 0.982195 0.975701 0.991901 1.04453 1.05094 1.063 0.952492 0.968579 1.03021 0.504901 0.52342 0.520051 0.657361 0.647816 0.579968 0.603758 0.631129 0.792778 1.17199 1.43087 0.886539 0.960629 0.980284 0.971662 0.952611 1.05437 1.26977 1.08283 0.964632 0.932931 0.95055 0.952338 1.0035 1.15328 1.14287 1.14739 1.09261 0.692212 0.952266 0.515398 0.287741 0.488393 0.616438 0.616513 0.625721 0.627304 0.598877 0.672708 0.825899 0.920541 1.04962 1.29402 0.921081 0.69044 0.975498 1.02168 0.994591 0.994453 0.985459 0.989402 0.967926 0.974284 0.993577 1.24114 1.15542 0.907829 0.932249 0.934291 0.970018 1.01194 1.43399 0.880348 1.3191 1.07832 0.8548 1.1244 0.712681 0.696357 0.531038 0.604974 0.697218 0.675384 0.56934 0.590206 0.596608 0.61209 0.628587 0.694856 0.851175 0.989198 1.08754 1.07616 0.880826 0.787008 0.888063 1.00193 0.996209 0.995964 1.08957 1.13499 1.38746 1.2972 0.871615 0.934345 0.900528 0.911196 0.917512 0.920848 0.934922 0.959091 0.977677 0.997033 1.05784 1.0392 1.40055 0.403585 0.744419 1.86478 0.436006 0.449455 0.530574 0.617939 0.613647 0.745086 0.713202 0.549315 0.590733 0.614613 0.61453 0.630817 0.639661 0.623162 0.729739 0.852261 0.876023 0.85507 0.565399 0.986993 0.884101 0.944924 0.942823 0.988273 1.00953 1.04041 1.36043 1.12366 0.973822 0.924392 0.931226 0.955823 1.00369 1.24116 0.94792 0.544179 1.27899 0.833673 0.700461 0.573838 0.659246 0.68595 0.679317 0.786022 0.587285 0.417414 0.510329 0.524937 0.536481 0.548359 0.575772 0.630303 0.656042 0.666912 0.748711 0.810301 0.83815 0.782565 0.94937 0.927869 0.893816 0.908085 0.938485 0.993457 1.01939 1.03351 1.12895 1.35328 0.521851 0.747746 0.703268 1.02194 0.985405 0.978436 0.925522 0.953339 0.965241 0.972415 1.08018 1.25197 0.898258 0.706074 0.693832 0.978751 0.787985 0.644368 0.606509 0.592469 0.613346 0.558253 0.649782 0.394175 0.376581 0.328557 0.464197 0.54157 0.568303 0.510981 0.586795 0.612601 0.649901 0.623554 0.643666 0.664212 0.765707 0.828761 0.835053 0.906887 0.872008 0.893088 0.883873 0.955971 1.08247 0.269566 0.33744 0.81135 0.93685 0.955616 0.943796 0.939766 0.957853 0.966297 0.971896 0.939516 1.05999 0.17139 0.726105 0.815567 0.684433 0.635871 0.60996 0.589081 0.57234 0.587123 0.644629 0.498531 0.312267 0.305325 0.427744 0.436001 0.482229 0.503294 0.51392 0.669943 0.645165 0.63848 0.684848 0.808136 0.860556 0.868393 0.857551 0.879394 0.81463 0.876389 0.909529 0.991253 0.791596 0.213681 0.539207 0.826427 0.915514 0.952532 0.959617 0.975773 1.01444 0.809223 0.622403 0.633078 0.65053 0.721108 0.741757 0.660028 0.622713 0.598753 0.610234 0.643326 0.611325 0.495469 0.530182 0.437925 0.432557 0.530609 0.412889 0.411696 0.413613 0.462324 0.48274 0.498379 0.311937 0.74665 0.579016 0.6228 0.621163 0.634621 0.712042 0.778494 0.811046 0.822983 0.826483 0.780976 0.828406 0.705043 0.807281 0.870788 0.885166 0.745936 0.489988 0.447516 0.38068 0.518322 0.671953 0.716068 0.830212 0.843805 0.915488 0.921276 0.952182 0.944924 0.960821 0.999208 0.511764 0.630171 0.662166 0.660788 0.696646 0.65004 0.617293 0.607087 0.629522 0.617214 0.661436 0.705016 0.787117 0.35887 0.421973 0.440686 0.410808 0.412276 0.415111 0.425537 0.445931 0.465637 0.368823 0.760301 0.450074 0.507959 0.640933 0.589847 0.622813 0.640737 0.702583 0.758361 0.753377 0.775501 0.774644 0.784381 0.749032 0.863157 0.801721 0.615696 0.495439 0.620011 0.752151 0.860182 0.920604 0.948411 0.875959 0.761592 0.630001 0.653049 0.698032 0.715487 0.697979 0.656797 0.608083 0.639751 0.629571 0.652561 0.683431 0.823405 0.911208 0.380103 0.47042 0.404078 0.393888 0.392881 0.397269 0.400546 0.403669 0.450288 0.445529 0.437515 0.45919 0.470626 0.580987 0.451135 0.603896 0.360954 0.615181 0.559387 0.629543 0.69239 0.743078 0.741013 0.732321 0.661841 0.911367 0.819827 0.739026 0.724108 0.649002 0.574513 0.566792 0.668487 0.780754 0.875095 0.891947 0.843878 0.990488 0.81251 0.749191 0.680488 0.707689 0.742786 0.721667 0.695456 0.627211 0.627148 0.626654 0.641672 0.708916 0.208187 0.081729 0.416636 0.377316 0.395099 0.430515 0.386803 0.3943 0.38757 0.385553 0.376154 0.412852 0.42371 0.456239 0.493117 0.53644 0.573127 0.554525 0.490037 0.666062 0.690355 0.701025 0.73305 0.726807 0.732427 0.718097 0.699624 0.652731 0.999807 0.761476 0.674183 0.63237 0.589057 0.616257 0.622409 0.658043 0.707574 0.735995 0.803397 0.828606 0.885685 0.854374 0.846945 0.49051 0.644535 0.674683 0.690073 0.728809 0.74481 0.764584 0.741304 0.732937 0.608457 0.599512 0.542829 0.456344 0.796595 0.471346 0.142443 0.391968 0.365878 0.401387 0.426792 0.430088 0.378457 0.384263 0.387677 0.386885 0.375488 0.369286 0.399658 0.429073 0.446406 0.488835 0.504144 0.54037 0.52194 0.69264 0.714458 0.501656 0.542691 0.649946 0.723288 0.752517 0.725751 0.708028 0.689343 0.666688 0.695749 0.49334 0.674302 0.646524 0.655296 0.635118 0.64129 0.686911 0.769222 0.85128 0.869857 0.722783 0.554887 0.628511 0.676085 0.700067 0.727696 0.750506 0.789886 0.777881 0.627122 0.574287 0.570696 0.557275 0.602848 0.809708 0.727917 0.473953 0.471172 0.303163 0.356464 0.381734 0.449621 0.451198 0.347311 0.363606 0.370099 0.389815 0.379188 0.372578 0.357466 0.420798 0.47065 0.525897 0.552595 0.574702 0.643254 0.71846 0.690653 0.769505 0.719523 0.701438 0.670234 0.622691 0.604315 0.582356 0.189556 0.942483 0.642966 0.644295 0.648538 0.650653 0.656118 0.64525 0.661153 0.710758 0.741466 0.814175 0.830118 0.834921 0.844422 0.667819 0.655193 0.668425 0.69471 0.707206 0.730793 0.75353 0.813885 0.604593 0.505946 0.642801 0.675957 0.789111 0.640526 0.517903 0.441145 0.381466 0.424649 0.442309 0.452187 0.451939 0.449279 0.334275 0.35189 0.359867 0.378314 0.378051 0.355072 0.384042 0.432457 0.461598 0.46866 0.507763 0.528397 0.590707 0.624474 0.56233 0.497548 0.472642 0.610112 0.826313 0.693881 0.664075 0.670423 0.561779 0.569504 0.431816 0.60498 0.771416 0.650432 0.653599 0.660248 0.655974 0.665964 0.678741 0.694564 0.784204 0.754529 0.74355 0.450655 0.593489 0.62861 0.647113 0.650578 0.658662 0.649158 0.683971 0.756212 0.975503 0.678092 0.645421 0.760178 0.756724 0.597444 0.449893 0.414799 0.397914 0.40369 0.451199 0.449633 0.442105 0.320371 0.323867 0.33608 0.341553 0.351367 0.367987 0.364629 0.358939 0.332347 0.348339 0.394492 0.459259 0.441217 0.495991 0.552169 0.576799 0.539754 0.596571 0.485568 0.500627 0.675273 0.620591 0.611259 0.631796 0.648533 0.616438 0.482638 0.586126 0.648299 0.711603 0.672478 0.643526 0.663946 0.662637 0.676901 0.723637 0.809087 0.710034 0.569197 0.588111 0.615803 0.619761 0.628291 0.627095 0.610605 0.682855 0.759534 1.16048 0.774539 0.959679 0.744616 0.76156 0.716534 0.49278 0.405388 0.398961 0.389055 0.425405 0.443369 0.448879 0.45124 0.439408 0.435968 0.30845 0.312227 0.327684 0.335071 0.3583 0.341706 0.365096 0.397972 0.425721 0.446877 0.469694 0.524788 0.535912 0.543026 0.518941 0.55152 0.509507 0.506819 0.625437 0.980102 0.584323 0.620283 0.628624 0.633183 0.600879 0.543709 0.64076 0.656788 0.643456 0.654828 0.668188 0.664658 0.665408 0.66594 0.674677 0.693786 0.723995 0.745946 0.596751 0.653717 0.505205 0.567467 0.594683 0.602678 0.606655 0.608522 0.469795 0.461439 0.826037 1.04254 1.03423 0.126417 0.480812 0.667252 0.614501 0.426556 0.368828 0.361344 0.366285 0.414526 0.447714 0.445749 0.43182 0.429522 0.408287 0.294426 0.299064 0.299313 0.301291 0.314571 0.319958 0.327509 0.344059 0.349833 0.349994 0.333724 0.342881 0.346678 0.438103 0.45498 0.427754 0.517483 0.492353 0.513902 0.497568 0.485088 0.483564 0.290379 0.607442 0.603625 0.628209 0.632948 0.628619 0.619511 0.596504 0.549823 0.563282 0.619392 0.662444 0.651746 0.660977 0.668416 0.679691 0.778914 0.60633 0.587046 0.54184 0.578986 0.593817 0.59813 0.612969 0.601393 0.622905 0.612574 0.551356 0.897315 0.427715 0.69698 0.493155 0.144012 0.541709 0.639265 0.630779 0.444891 0.379112 0.381514 0.348171 0.402274 0.439805 0.443168 0.442332 0.430571 0.41273 0.402145 0.372472 0.292747 0.288832 0.289398 0.304346 0.308799 0.336768 0.342986 0.342985 0.334359 0.340022 0.323884 0.40793 0.441305 0.420535 0.472139 0.477168 0.480268 0.410001 0.469525 0.604678 0.620096 0.616156 0.613739 0.614333 0.599943 0.596735 0.566165 0.605268 0.629862 0.647135 0.674254 0.665887 0.682027 0.723887 0.665322 0.612856 0.595144 0.579338 0.571386 0.588764 0.612169 0.615887 0.63678 0.676412 0.70928 0.861223 0.337076 0.439183 0.557729 0.159883 0.370925 0.6066 0.657424 0.525708 0.418554 0.385748 0.346622 0.367883 0.430064 0.429328 0.425123 0.377361 0.36323 0.325432 0.331027 0.294207 0.279711 0.285692 0.280486 0.276267 0.289571 0.290966 0.2983 0.317941 0.327193 0.34401 0.337144 0.398443 0.434618 0.410729 0.43639 0.424603 0.480499 0.488709 0.491013 0.485383 0.533284 0.600054 0.603521 0.608129 0.605897 0.608045 0.588164 0.574526 0.594208 0.594748 0.617927 0.664374 0.644315 0.674514 0.675898 0.702746 0.669578 0.58206 0.631789 0.604722 0.594135 0.587287 0.59689 0.613882 0.627505 0.644199 0.690599 0.733559 0.878033 0.699767 0.627524 0.485219 0.131154 0.222951 0.569943 0.541496 0.345048 0.422447 0.431894 0.377772 0.408032 0.432794 0.412121 0.420956 0.338081 0.317529 0.314678 0.313485 0.309509 0.281557 0.268191 0.258979 0.272587 0.277525 0.306751 0.315278 0.334743 0.34615 0.345111 0.347045 0.29702 0.435675 0.408476 0.42603 0.457408 0.478115 0.488219 0.497245 0.490705 0.466539 0.587491 0.60367 0.606278 0.606399 0.597424 0.586133 0.581174 0.582638 0.605477 0.624106 0.629628 0.659827 0.635288 0.526018 0.581827 0.600317 0.595015 0.595818 0.588353 0.592294 0.604806 0.628243 0.649956 0.687486 0.715666 0.803807 0.934021 1.32365 1.09417 0.355554 0.641856 0.393549 0.512231 0.429072 0.393752 0.313868 0.385754 0.40111 0.410817 0.40516 0.417297 0.391764 0.331759 0.323303 0.330891 0.305066 0.329816 0.352614 0.332081 0.292703 0.25981 0.244362 0.241613 0.257563 0.258539 0.261732 0.285918 0.29951 0.320211 0.34082 0.271363 0.402259 0.396092 0.422684 0.451552 0.478556 0.491181 0.501324 0.498337 0.48988 0.501562 0.525118 0.544245 0.576576 0.594793 0.602507 0.596334 0.590887 0.585439 0.593853 0.608955 0.607412 0.643961 0.616986 0.659473 0.63502 0.621507 0.581312 0.560409 0.5804 0.59485 0.594008 0.596806 0.613012 0.630177 0.658332 0.678911 0.709609 0.760332 0.487272 0.373398 0.607595 0.364474 0.48578 0.149376 0.277795 0.380536 0.364032 0.419054 0.406409 0.271884 0.315854 0.336672 0.321884 0.323861 0.385455 0.303951 0.251218 0.253825 0.231767 0.224906 0.243484 0.247632 0.275366 0.292502 0.301601 0.301343 0.337094 0.344021 0.0667981 0.357706 0.418666 0.432111 0.457395 0.477958 0.492598 0.500346 0.505331 0.502026 0.504001 0.522539 0.538727 0.555593 0.582225 0.596238 0.604133 0.605599 0.594614 0.595002 0.60073 0.6058 0.621849 0.627416 0.634639 0.63877 0.624347 0.598109 0.579112 0.592455 0.594781 0.595751 0.597163 0.595836 0.601203 0.608121 0.621744 0.625344 0.613364 0.960115 1.56829 0.655497 0.693191 0.654505 0.637781 0.55162 0.193648 0.378672 0.48518 0.386296 0.347623 0.33186 0.341696 0.461073 0.348203 0.319717 0.33743 0.290048 0.316887 0.340747 0.365947 0.29589 0.314411 0.412024 0.360955 0.326625 0.253166 0.206383 0.201845 0.224864 0.234411 0.23963 0.255188 0.269705 0.283546 0.301623 0.285211 0.319013 0.342656 0.346356 0.467056 0.433495 0.446576 0.461602 0.48108 0.489579 0.500107 0.507414 0.510343 0.513108 0.520612 0.53149 0.551201 0.56967 0.583711 0.596209 0.602594 0.603556 0.601613 0.598211 0.574612 0.586815 0.593181 0.593403 0.594486 0.595488 0.597447 0.596349 0.594925 0.580634 0.520112 0.616707 1.61931 0.305132 0.562992 0.500067 0.273741 0.366875 0.247674 0.423185 0.351488 0.325486 0.310547 0.32222 0.179229 0.206605 0.24495 0.276666 0.307818 0.315981 0.307077 0.225867 0.364251 0.422863 0.230429 0.176609 0.16131 0.20603 0.219058 0.232273 0.254769 0.274091 0.28694 0.293441 0.315338 0.337472 0.302193 0.502857 0.402681 0.435051 0.455554 0.471673 0.489025 0.499146 0.507963 0.515793 0.521708 0.526813 0.533537 0.544843 0.559441 0.57414 0.585618 0.595654 0.600966 0.602314 0.60175 0.600286 0.599666 0.601262 0.604731 0.61385 0.621265 0.629016 0.629856 0.626089 0.609914 0.592562 0.583856 0.584731 0.591156 0.593101 0.592909 0.591993 0.592161 0.591225 0.590525 0.573711 0.518267 0.469976 0.548248 1.06373 0.63198 0.462073 0.361401 0.284772 0.269484 0.317029 0.375475 0.450241 0.386871 0.338858 0.335011 0.340322 0.394809 0.167311 0.193648 0.205791 0.261356 0.305504 0.390371 0.0877719 0.239396 1.79819 0.234161 0.132338 0.148004 0.121873 0.176082 0.19784 0.22554 0.234262 0.249057 0.271747 0.291168 0.334622 0.343293 0.347406 0.429671 0.454169 0.429753 0.451906 0.468886 0.484628 0.546026 0.55475 0.565762 0.578004 0.588271 0.596174 0.600639 0.602531 0.602948 0.602949 0.603827 0.605986 0.611016 0.616868 0.623087 0.62579 0.623538 0.615699 0.603791 0.5948 0.590696 0.591116 0.593246 0.593088 0.591117 0.585583 0.573976 0.557054 0.524908 0.479371 0.519242 0.771321 0.638283 0.532453 0.406715 0.248738 0.241276 0.22307 0.347749 0.466378 0.445146 0.367506 0.344621 0.345523 0.327434 0.17751 0.177776 0.183014 0.180889 0.216353 0.259487 0.500352 0.506447 0.17366 0.322954 0.501149 1.31211 1.21355 0.570416 0.0844408 0.135814 0.164786 0.207542 0.235109 0.226262 0.244481 0.278824 0.366636 0.375069 0.413411 0.437738 0.453328 0.499613 0.51083 0.519773 0.527954 0.533555 0.53904 0.563402 0.573174 0.583399 0.59193 0.59811 0.601866 0.603948 0.604976 0.606029 0.607764 0.61077 0.614661 0.619123 0.622183 0.622076 0.61762 0.610651 0.603538 0.598379 0.595682 0.594649 0.588391 0.585379 0.579012 0.567532 0.54947 0.526045 0.510738 0.566667 0.688667 0.708132 0.743647 0.561777 0.382584 0.245991 0.205542 0.368135 0.444776 0.441003 0.41514 0.365377 0.352549 0.325768 0.241701 0.195288 0.208097 0.172066 0.163422 0.141989 0.253223 0.282614 1.2356 0.386052 0.0582907 0.409033 0.335991 0.696372 0.990371 0.29668 0.164635 0.160771 0.114666 0.1579 0.203125 0.238896 0.231056 0.210225 0.246214 0.339092 0.452808 0.469937 0.484766 0.499655 0.512725 0.523224 0.531778 0.538483 0.543892 0.549105 0.555786 0.601035 0.604181 0.606185 0.607732 0.609311 0.611364 0.614004 0.617034 0.61964 0.620582 0.618654 0.614337 0.609174 0.593662 0.591168 0.586789 0.582246 0.575981 0.565322 0.548443 0.5286 0.514309 0.542996 0.642966 0.703111 0.727673 0.647992 0.472254 0.180878 0.511364 0.470169 0.456067 0.430678 0.403426 0.33804 0.275192 0.236565 0.228468 0.219828 0.152152 0.324589 0.434151 0.571871 0.700737 0.310444 0.152674 0.153207 0.0240029 0.10709 0.455484 0.447537 0.397732 0.50125 1.13437 0.800692 0.565033 0.305329 0.215902 0.197027 0.2368 0.246114 0.255344 0.228023 0.170847 0.346385 0.387591 0.398796 0.417403 0.434125 0.451004 0.464021 0.472245 0.487293 0.500765 0.513861 0.524856 0.533861 0.541208 0.547319 0.552449 0.557663 0.56435 0.573438 0.581874 0.589696 0.596233 0.604463 0.600745 0.597994 0.595359 0.592088 0.587134 0.580856 0.573728 0.565287 0.553674 0.539098 0.527934 0.53297 0.586279 0.636601 0.673468 0.60232 0.551944 0.45521 0.318935 0.597041 0.47483 0.446182 0.427199 0.410864 0.393369 0.367294 0.311689 0.279666 0.265004 0.251099 0.232015 0.198443 0.553608 0.620985 0.431095 0.34478 0.0655664 0.750985 0.465472 0.470339 0.472617 0.48939 0.714772 0.967736 0.463866 0.253388 0.241921 0.25394 0.267729 0.290203 0.278896 0.247674 0.3733 0.41422 0.419417 0.423796 0.435059 0.449329 0.464192 0.477294 0.488768 0.502509 0.514846 0.525753 0.535245 0.543168 0.549607 0.555244 0.56066 0.567042 0.576187 0.584139 0.590292 0.596015 0.600849 0.604394 0.606943 0.608864 0.610511 0.61221 0.614096 0.616227 0.61823 0.619373 0.618862 0.616455 0.612754 0.608782 0.604965 0.601557 0.598144 0.594134 0.588744 0.581776 0.573717 0.565236 0.556648 0.548592 0.543866 0.547669 0.528959 0.420237 0.255576 0.502549 0.428585 0.414295 0.402301 0.395039 0.379825 0.351351 0.313998 0.295879 0.281193 0.266131 0.170591 0.573197 0.640709 0.663603 0.511159 0.499594 0.587414 0.720814 0.44939 0.472281 0.490176 0.508178 0.55964 0.614566 0.614565 0.335068 0.24512 0.29841 0.309842 0.334342 0.304482 0.459075 0.442379 0.431786 0.428208 0.43592 0.447918 0.461789 0.476548 0.49027 0.503063 0.515728 0.527085 0.536857 0.545102 0.55199 0.557857 0.563361 0.569281 0.588636 0.593693 0.597946 0.601938 0.605211 0.607706 0.609752 0.611531 0.613089 0.614579 0.616123 0.617619 0.618677 0.618769 0.617511 0.615032 0.611849 0.608367 0.604812 0.601087 0.596903 0.591702 0.584956 0.576477 0.567136 0.573732 0.598417 0.614403 0.590238 0.574672 0.347136 0.635058 0.419514 0.40479 0.394583 0.382565 0.366111 0.343182 0.319017 0.29553 0.269619 0.230964 0.702164 0.624511 0.645992 0.534598 0.473303 0.501387 0.482465 0.726149 0.695944 0.428513 0.453467 0.456012 0.477406 0.489855 0.538393 0.75722 0.450294 0.215087 0.226431 0.309362 0.414964 0.280631 0.300613 0.55338 0.442807 0.426324 0.427982 0.433494 0.44441 0.458031 0.473727 0.489205 0.503361 0.516309 0.52829 0.574853 0.600264 0.602296 0.604853 0.607206 0.609153 0.610959 0.612631 0.614069 0.6153 0.61647 0.617583 0.618456 0.618731 0.618092 0.616435 0.613979 0.611028 0.607728 0.604029 0.599861 0.594911 0.558576 0.552612 0.55166 0.557371 0.572419 0.595536 0.603286 0.599307 0.588748 0.553882 0.494506 0.655349 0.539754 0.470613 0.423125 0.400504 0.386656 0.378919 0.359418 0.341128 0.276909 0.227262 0.146252 0.650253 0.634033 0.449268 0.476586 0.491619 0.454097 0.648591 0.699285 0.668682 0.418165 0.429098 0.437875 0.440018 0.461784 0.503887 0.496996 0.525246 0.568489 0.262024 0.251519 0.191509 0.469778 0.327451 0.296154 0.585086 0.469158 0.420012 0.420278 0.428825 0.441254 0.455793 0.470643 0.538735 0.547504 0.554815 0.560834 0.566167 0.571549 0.577326 0.582018 0.610729 0.610419 0.610873 0.612026 0.612984 0.614181 0.615339 0.616348 0.617229 0.618018 0.618664 0.61894 0.618587 0.617444 0.615533 0.58881 0.581332 0.57237 0.56341 0.557007 0.555351 0.561098 0.572424 0.588729 0.599605 0.608995 0.600339 0.578918 0.525589 0.461886 0.622754 0.589217 0.519155 0.459689 0.400368 0.389045 0.378652 0.355986 0.3337 0.314188 0.247368 0.169419 0.744143 0.640726 0.5882 0.56135 0.391115 0.429391 0.441288 0.399726 0.412997 0.638007 0.675996 0.666154 0.660791 0.656672 0.415295 0.420413 0.431516 0.441527 0.46575 0.446281 0.469246 0.444857 0.381767 0.346149 0.259295 0.702591 0.298869 0.568534 0.494653 0.438148 0.422612 0.428593 0.486916 0.502648 0.516698 0.529343 0.540479 0.55002 0.557924 0.564365 0.569599 0.574224 0.579266 0.585482 0.589201 0.620239 0.613068 0.610187 0.606799 0.602837 0.598276 0.592899 0.586479 0.578913 0.570475 0.563356 0.560661 0.563906 0.572267 0.584173 0.594929 0.603612 0.600242 0.589589 0.558266 0.515965 0.557546 0.589885 0.549346 0.496834 0.448203 0.421344 0.394978 0.378273 0.358742 0.335369 0.30383 0.205774 0.729257 0.517863 0.425606 0.351242 0.382053 0.362274 0.522145 0.620609 0.661854 0.428677 0.428999 0.427964 0.439961 0.464722 0.410183 0.348488 0.396365 0.510471 0.487615 0.725675 0.292034 0.302647 0.532738 0.494843 0.458995 0.444398 0.441164 0.453648 0.467443 0.483701 0.500643 0.516037 0.530069 0.542243 0.552615 0.561191 0.568153 0.573657 0.578 0.581902 0.587111 0.59346 0.596598 0.616386 0.617264 0.616554 0.616654 0.617239 0.61789 0.618472 0.61896 0.619326 0.619469 0.619206 0.618364 0.616855 0.614758 0.612239 0.609308 0.605801 0.60166 0.596878 0.591399 0.585369 0.57867 0.571739 0.56731 0.567917 0.573934 0.582951 0.591325 0.595855 0.599247 0.590727 0.571373 0.55564 0.563959 0.565378 0.553773 0.518524 0.479067 0.442039 0.422885 0.409199 0.386052 0.369007 0.333774 0.281293 0.696894 0.624051 0.56774 0.435383 0.3666 0.293953 0.334134 0.262506 0.506202 0.418699 0.429496 0.456388 0.387676 0.382433 0.359757 0.455604 0.739746 1.11999 0.0480348 0.264997 0.491124 0.480567 0.469093 0.43335 0.439627 0.452935 0.465783 0.480183 0.496122 0.51318 0.529546 0.543437 0.555173 0.564718 0.572319 0.578199 0.58258 0.585924 0.589131 0.623253 0.625115 0.622964 0.620848 0.620209 0.620198 0.620335 0.620468 0.620526 0.620434 0.620085 0.61935 0.618124 0.616363 0.614132 0.611552 0.608549 0.60495 0.600826 0.59621 0.591075 0.58592 0.580976 0.576383 0.574494 0.58446 0.575058 0.571625 0.566017 0.548327 0.528673 0.502213 0.472565 0.443164 0.427724 0.420337 0.404599 0.4001 0.377245 0.319977 0.251404 0.649376 0.612591 0.565477 0.511085 0.371932 0.310373 0.158919 0.154491 0.349776 0.439705 0.514967 0.431874 0.360028 0.45573 0.63478 1.20893 0.93129 0.150108 0.476622 0.457088 0.456204 0.455989 0.447416 0.442826 0.45076 0.467738 0.481853 0.493099 0.508833 0.526649 0.543123 0.557205 0.568189 0.576642 0.592769 0.595149 0.608945 0.629739 0.630532 0.627268 0.624786 0.623607 0.623038 0.622673 0.622335 0.621927 0.621376 0.620589 0.619473 0.617955 0.615997 0.613687 0.611116 0.608136 0.604583 0.576891 0.582734 0.591392 0.595498 0.596411 0.591451 0.516376 0.49198 0.467227 0.442652 0.44364 0.431407 0.415852 0.386028 0.307026 0.575773 0.52178 0.458201 0.288288 0.201327 0.134665 0.451404 0.511996 0.592577 1.04453 1.07973 0.66925 0.490835 0.4393 0.453268 0.459999 0.450734 0.457527 0.470245 0.485022 0.497903 0.51072 0.524623 0.583118 0.587845 0.590942 0.592585 0.593386 0.594503 0.598202 0.628378 0.635604 0.633033 0.630327 0.628264 0.626806 0.625754 0.624897 0.624081 0.623215 0.600629 0.596464 0.592247 0.588535 0.585419 0.583417 0.583855 0.585894 0.590309 0.595851 0.599068 0.596265 0.592433 0.585491 0.580503 0.569011 0.553154 0.53633 0.479682 0.46144 0.465608 0.4509 0.440594 0.431743 0.42165 0.591615 0.6117 0.549377 0.487446 0.388057 0.172404 0.109872 0.58636 0.587934 0.636057 0.934337 0.938712 0.425253 0.429828 0.463 0.460514 0.462823 0.479496 0.48877 0.541418 0.557898 0.571197 0.580943 0.588151 0.593433 0.596967 0.598668 0.598206 0.596793 0.598979 0.600025 0.643431 0.622232 0.621058 0.619639 0.617911 0.615833 0.613509 0.611014 0.608161 0.604874 0.601422 0.597953 0.594821 0.592684 0.591326 0.591371 0.592984 0.594682 0.597058 0.599572 0.600466 0.599668 0.594091 0.587008 0.57605 0.561381 0.54494 0.527502 0.504074 0.498719 0.468697 0.456333 0.455148 0.450455 0.436129 0.385511 0.649085 0.593986 0.578028 0.424835 0.318952 0.610698 0.633815 0.810752 0.871068 0.99458 0.655886 0.45276 0.400607 0.405918 0.437111 0.463013 0.477142 0.497063 0.515286 0.528644 0.542854 0.55837 0.573524 0.585089 0.593194 0.598972 0.602975 0.605323 0.605798 0.603935 0.601565 0.602646 0.591015 0.639198 0.636469 0.63417 0.631867 0.629936 0.628383 0.627037 0.625751 0.624439 0.623045 0.621532 0.619876 0.618014 0.615911 0.613677 0.611343 0.608725 0.605877 0.603141 0.600636 0.598681 0.59767 0.597635 0.598858 0.60065 0.602229 0.603151 0.603883 0.602849 0.600715 0.595518 0.585046 0.57174 0.555677 0.536294 0.518149 0.48714 0.465032 0.470074 0.467709 0.46688 0.470153 0.606751 0.664542 0.575869 0.555813 0.527412 0.358407 0.596651 0.63621 0.760338 0.778496 0.821369 0.838291 0.559783 0.569954 0.464795 0.387823 0.421057 0.42155 0.489285 0.496921 0.505558 0.515483 0.526799 0.54558 0.560995 0.575935 0.588785 0.598126 0.604525 0.608856 0.61148 0.612526 0.611747 0.608869 0.651181 0.646 0.642321 0.638643 0.635517 0.633025 0.630955 0.629099 0.627332 0.625595 0.623834 0.622033 0.620198 0.618269 0.616226 0.61418 0.612124 0.6099 0.607617 0.605598 0.604061 0.603187 0.602942 0.603504 0.605079 0.606824 0.607712 0.608168 0.607166 0.605118 0.60091 0.594131 0.584239 0.567176 0.546524 0.52458 0.505874 0.467958 0.520071 0.488263 0.471891 0.492229 0.504972 0.632353 0.663514 0.548721 0.544415 0.486765 0.560225 0.787926 0.758358 0.530371 0.523566 0.491141 0.404472 0.492424 0.503939 0.510111 0.526685 0.528455 0.524029 0.54323 0.561041 0.577112 0.591271 0.602324 0.606009 0.595759 0.578741 0.660631 0.65338 0.647526 0.642792 0.639078 0.636075 0.633459 0.631052 0.628802 0.626659 0.624566 0.622537 0.620594 0.618679 0.616776 0.559604 0.534599 0.51133 0.478668 0.542167 0.492943 0.489973 0.486842 0.490951 0.563999 0.633718 0.560283 0.500342 0.41836 0.701885 0.76901 0.742338 0.494914 0.507466 0.422012 0.428395 0.530779 0.521642 0.562389 0.572086 0.520944 0.5445 0.609791 0.614608 0.61745 0.618618 0.61816 0.615803 0.611712 0.603373 0.590305 0.570722 0.667628 0.658762 0.651997 0.614981 0.613273 0.611548 0.609927 0.608631 0.60781 0.607582 0.607836 0.60855 0.609903 0.611264 0.611722 0.611066 0.609391 0.605769 0.600678 0.593341 0.581303 0.476924 0.558325 0.507628 0.505703 0.50617 0.510277 0.517958 0.533776 0.566716 0.614605 0.64867 0.530051 0.366462 0.700325 0.729482 0.70053 0.679399 0.52507 0.405217 0.425484 0.451321 0.555068 0.569871 0.562065 0.577282 0.591786 0.604725 0.613913 0.619776 0.623135 0.624505 0.624108 0.621919 0.617784 0.610942 0.600664 0.585923 0.565916 0.646764 0.642601 0.639077 0.635877 0.63288 0.630094 0.627544 0.625181 0.622998 0.621023 0.619198 0.617515 0.616023 0.61469 0.613469 0.612468 0.611814 0.611532 0.611594 0.611929 0.612594 0.613545 0.614284 0.61433 0.613143 0.610442 0.606266 0.600257 0.592222 0.5779 0.546986 0.524094 0.520578 0.522373 0.528019 0.537215 0.555832 0.579833 0.612634 0.642259 0.626478 0.64715 0.754498 0.67835 0.655205 0.654451 0.492367 0.518907 0.540097 0.409016 0.441316 0.44844 0.631991 0.629238 0.540289 0.564689 0.578606 0.591971 0.606245 0.617237 0.624148 0.628389 0.630264 0.629931 0.627754 0.623829 0.617834 0.609327 0.597686 0.582426 0.563371 0.672177 0.663074 0.656162 0.650657 0.646054 0.642012 0.638166 0.634479 0.631126 0.628173 0.625589 0.623349 0.621418 0.619753 0.618336 0.617193 0.616248 0.615467 0.614936 0.614722 0.614815 0.615045 0.615295 0.615758 0.616402 0.616887 0.616626 0.61492 0.611127 0.605861 0.600013 0.592917 0.568606 0.534566 0.489271 0.567526 0.516568 0.557625 0.572925 0.596238 0.616007 0.641494 0.631187 0.656814 0.625005 0.698327 0.833078 0.738079 0.655059 0.500969 0.524543 0.546337 0.419977 0.586284 0.682819 0.654656 0.564132 0.574065 0.589902 0.60679 0.62028 0.628618 0.633574 0.635977 0.63592 0.675747 0.667048 0.66019 0.65448 0.649358 0.644711 0.640241 0.635852 0.631866 0.628505 0.625738 0.623507 0.621714 0.620267 0.619143 0.618337 0.617753 0.617344 0.617125 0.617145 0.616328 0.61093 0.604851 0.598061 0.586679 0.567832 0.4955 0.576045 0.526139 0.531065 0.53168 0.541169 0.666761 0.645171 0.827138 0.739268 0.634337 0.641606 0.512255 0.527137 0.435818 0.435363 0.606389 0.927138 0.565656 0.583409 0.605418 0.633641 0.629723 0.62419 0.616836 0.6072 0.594918 0.579872 0.562288 0.679187 0.671001 0.664104 0.658054 0.652357 0.647058 0.64215 0.637145 0.617388 0.617709 0.618017 0.618506 0.619379 0.620137 0.619752 0.578156 0.553785 0.573778 0.539903 0.537898 0.538318 0.549449 0.56875 0.589098 0.610437 0.625932 0.635984 0.640259 0.665292 0.79577 0.644148 0.658037 0.637841 0.552364 0.414915 0.434628 0.419398 0.725132 0.968573 0.924224 0.62154 0.632472 0.639385 0.642318 0.64221 0.639749 0.63571 0.630297 0.623477 0.615195 0.604982 0.59262 0.578146 0.561928 0.632449 0.628583 0.625645 0.623432 0.621847 0.620658 0.61986 0.619335 0.619027 0.618888 0.618878 0.618993 0.619241 0.619619 0.620199 0.621356 0.623282 0.624737 0.62411 0.618134 0.609779 0.602035 0.591419 0.547416 0.544336 0.563433 0.582095 0.603122 0.623413 0.633321 0.647866 0.639317 0.675781 0.790641 0.794767 0.789823 0.828261 0.805246 0.499193 0.529196 0.567687 0.405545 0.43038 0.705174 0.794342 0.959214 0.572608 0.598609 0.619602 0.635924 0.645662 0.649472 0.649259 0.646279 0.641668 0.636307 0.629711 0.622094 0.613327 0.602963 0.590796 0.576904 0.561471 0.682841 0.674891 0.667736 0.661094 0.655082 0.649079 0.643822 0.638525 0.633148 0.628609 0.625313 0.623177 0.621757 0.620928 0.620412 0.620093 0.619954 0.619967 0.620079 0.620241 0.62049 0.620954 0.622057 0.624758 0.628079 0.631178 0.631973 0.620333 0.606675 0.598541 0.579527 0.560749 0.619886 0.543492 0.592156 0.617096 0.649998 0.654634 0.654916 0.676342 0.675386 0.799116 0.779939 0.756345 0.890641 0.496804 0.53814 0.577489 0.404231 0.764633 0.785661 0.917904 0.590273 0.613711 0.634932 0.653592 0.658244 0.656422 0.65293 0.647624 0.641972 0.635657 0.628349 0.620328 0.611502 0.601218 0.589241 0.575546 0.559987 0.686639 0.678517 0.670948 0.663608 0.657165 0.650777 0.645425 0.640202 0.634171 0.628812 0.624943 0.622743 0.621541 0.621077 0.620734 0.620532 0.620477 0.620547 0.620692 0.620888 0.621187 0.62173 0.623474 0.628858 0.634658 0.640706 0.642881 0.619991 0.606625 0.584857 0.57431 0.614505 0.604224 0.55294 0.555907 0.563509 0.637306 0.778237 0.784388 0.803568 0.794867 0.82064 0.845081 0.868728 0.499409 0.540989 0.737535 0.783104 0.913376 0.923635 0.607593 0.630797 0.655706 0.690604 0.681913 0.673403 0.665385 0.658391 0.652499 0.647463 0.642715 0.635964 0.629141 0.624806 0.597951 0.584226 0.620197 0.602564 0.606494 0.564839 0.568821 0.572635 0.612724 0.673575 0.683847 0.689494 0.666281 0.687191 0.765838 0.755924 0.797409 0.821407 0.84359 0.865957 0.593836 0.790509 0.786765 0.763403 0.914639 0.916348 0.668727 0.667101 0.65909 0.652537 0.646964 0.64084 0.634194 0.626613 0.6185 0.609759 0.599562 0.587545 0.573463 0.556953 0.622004 0.621438 0.621093 0.620791 0.620601 0.620574 0.620624 0.620786 0.621005 0.621084 0.621384 0.624533 0.635875 0.643983 0.650682 0.63905 0.628365 0.606102 0.605389 0.591699 0.595525 0.587172 0.679917 0.746583 0.731003 0.724681 0.681853 0.776459 0.784449 0.795925 0.767347 0.757887 0.800519 0.501198 0.558844 0.598444 0.781092 0.801729 0.760476 0.76949 0.618915 0.653916 0.673993 0.67716 0.668493 0.657653 0.650541 0.644814 0.638787 0.632234 0.624686 0.616763 0.608044 0.597749 0.585396 0.570275 0.552001 0.694808 0.68438 0.674744 0.66594 0.659166 0.655066 0.649919 0.647244 0.63892 0.630135 0.623764 0.621778 0.621465 0.620966 0.620546 0.620232 0.620158 0.620318 0.620694 0.62048 0.619716 0.619874 0.626623 0.647511 0.653784 0.63694 0.638571 0.625151 0.615674 0.627875 0.615792 0.585557 0.714175 0.729487 0.860012 0.851662 0.863364 0.779866 0.821328 0.840757 0.860496 0.521836 0.570075 0.750764 0.892997 0.915751 0.892644 0.643822 0.678194 0.67936 0.677225 0.665003 0.654363 0.648505 0.642393 0.636332 0.62989 0.622698 0.614975 0.606147 0.595538 0.58227 0.565503 0.54424 0.697861 0.685532 0.673966 0.665747 0.660629 0.658096 0.653403 0.653966 0.644505 0.631028 0.622738 0.622562 0.621506 0.620583 0.619788 0.619344 0.619664 0.620204 0.619984 0.619076 0.617351 0.618258 0.628524 0.665671 0.639704 0.641244 0.631375 0.641013 0.65583 0.642224 0.627772 0.609964 0.599336 0.61445 0.787856 0.782921 0.728915 0.858253 0.86596 0.790782 0.800357 0.813487 0.821554 0.823873 0.811002 0.539484 0.750954 0.658573 0.806779 0.80166 0.837016 0.870867 0.847206 0.854895 0.659098 0.697044 0.672232 0.699238 0.684171 0.67167 0.666622 0.66183 0.660833 0.66231 0.657769 0.657821 0.630869 0.625624 0.623611 0.64745 0.644155 0.644065 0.662203 0.663258 0.672637 0.627733 0.586799 0.592261 0.615491 0.854962 0.807443 0.77763 0.761338 0.787106 0.83012 0.919876 0.791836 0.803409 0.815488 0.821186 0.852723 0.791749 0.830578 0.884822 0.845201 0.849089 0.671224 0.660268 0.651793 0.646286 0.640146 0.63377 0.627366 0.620522 0.612787 0.603749 0.592509 0.577723 0.558505 0.533824 0.621261 0.619628 0.618714 0.61884 0.619111 0.61945 0.619072 0.617055 0.615257 0.618825 0.632346 0.656685 0.672422 0.599473 0.587928 0.577583 0.749266 0.891129 0.858128 0.881146 0.883227 0.900457 0.898016 0.897006 0.89444 0.764783 0.81455 0.814303 0.735322 0.717835 0.717762 0.688928 0.674758 0.669936 0.665007 0.657037 0.649736 0.643961 0.637642 0.631001 0.624583 0.617752 0.609951 0.600565 0.58809 0.57141 0.549303 0.521522 0.698224 0.679909 0.670665 0.665628 0.664851 0.666241 0.665279 0.66825 0.674367 0.636672 0.631129 0.624173 0.620578 0.618757 0.617848 0.617663 0.618155 0.619247 0.616991 0.615074 0.615199 0.623607 0.611689 0.656656 0.646468 0.652219 0.669686 0.668526 0.669147 0.856869 0.893832 0.893832 0.778882 0.791642 0.795621 0.78408 0.785125 0.86424 0.799776 0.794852 0.711691 0.86178 0.828494 0.891459 0.847791 0.837349 0.814295 0.644181 0.669749 0.668568 0.661469 0.65445 0.648177 0.640957 0.634269 0.628015 0.621289 0.614145 0.606088 0.595776 0.581888 0.563041 0.53866 0.507741 0.692962 0.676088 0.669312 0.666946 0.668314 0.6631 0.67512 0.67435 0.674599 0.732138 0.745731 0.750733 0.753241 0.75474 0.755561 0.756734 0.759654 0.766804 0.764564 0.763577 0.764384 0.758283 0.756547 0.658593 0.65777 0.673264 0.673641 0.674616 0.672637 0.683246 0.77662 0.777948 0.810676 0.883487 0.893832 0.894775 0.893832 0.893832 0.893832 0.893832 0.766877 0.781209 0.79366 0.797537 0.70104 0.893832 0.824072 0.888664 0.844591 0.837 0.758754 0.745568 0.74139 0.716768 0.71446 0.70785 0.723185 0.780422 0.758276 0.83495 0.896763 0.895328 0.894402 0.894256 0.893832 0.893832 0.78608 0.790374 0.866966 0.80866 0.806229 0.824594 0.638404 0.663849 0.676334 0.666324 0.659985 0.655331 0.650725 0.645793 0.641087 0.637625 0.635053 0.63277 0.63005 0.62603 0.622146 0.616166 0.591329 0.743005 0.746772 0.755404 0.759048 0.778459 0.821932 0.844171 0.848085 0.850407 0.8521 0.853477 0.854643 0.855733 0.8598 0.8654 0.858436 0.857356 0.857406 0.863621 0.860051 0.74116 0.728462 0.726829 0.879511 0.891661 
SCALARS Axial_Stress float 1
LOOKUP_TABLE default
-95837700000.0 -104600000000.0 -141899000000.0 -65640000000.0 -58955900000.0 -67079800000.0 -60821900000.0 -100984000000.0 -172893000000.0 -94079600000.0 -172827000000.0 -162336000000.0 -267613000000.0 -129176000000.0 -69118500000.0 -58450600000.0 -76758400000.0 -179811000000.0 -99916000000.0 -84057400000.0 -51749900000.0 -57618300000.0 -189241000000.0 -343236000000.0 -397269000000.0 -181952000000.0 -321137000000.0 -246016000000.0 -274263000000.0 -282292000000.0 -375319000000.0 -396367000000.0 -128759000000.0 -154311000000.0 -211423000000.0 -249314000000.0 -253238000000.0 -232893000000.0 -118935000000.0 -70476500000.0 -337695000000.0 -423648000000.0 -553738000000.0 -260476000000.0 -268868000000.0 -345924000000.0 -176858000000.0 -283398000000.0 -406790000000.0 -306526000000.0 -340063000000.0 -367406000000.0 -465430000000.0 -342016000000.0 -444292000000.0 -321257000000.0 -427061000000.0 -443500000000.0 -392568000000.0 -574667000000.0 -543379000000.0 -650657000000.0 -591051000000.0 -574047000000.0 -452959000000.0 -297191000000.0 -315938000000.0 -413956000000.0 -587550000000.0 -461168000000.0 -581976000000.0 -470429000000.0 -579903000000.0 -562058000000.0 -529429000000.0 -865611000000.0 -669353000000.0 -680127000000.0 -708308000000.0 -650205000000.0 -702284000000.0 -353834000000.0 -372620000000.0 -639541000000.0 -477649000000.0 -457559000000.0 -247658000000.0 -355006000000.0 -369551000000.0 -364696000000.0 -704483000000.0 -710217000000.0 -693236000000.0 -678127000000.0 -666158000000.0 -819724000000.0 -1.13261e+12 -713959000000.0 -760472000000.0 -766466000000.0 -439842000000.0 -474142000000.0 -728478000000.0 -515506000000.0 -505407000000.0 -923931000000.0 -841972000000.0 -814174000000.0 -793083000000.0 -776209000000.0 -890677000000.0 -816925000000.0 -1.00909e+12 -998823000000.0 -817651000000.0 -823553000000.0 -823554000000.0 -834959000000.0 -949675000000.0 -1.23205e+12 -1.01253e+12 -1.09307e+12 -944583000000.0 -1.03541e+12 -911131000000.0 -1.0022e+12 -887247000000.0 -983830000000.0 -1.00337e+12 -972411000000.0 -1.06959e+12 -1.06672e+12 -1.04959e+12 -940838000000.0 -968242000000.0 -884402000000.0 -942041000000.0 -882618000000.0 -941243000000.0 -526725000000.0 -578316000000.0 -1.02909e+12 -933793000000.0 -1.03149e+12 -1.18871e+12 -1.62543e+12 -1.51387e+12 -1.23941e+12 -1.26842e+12 -1.17086e+12 -1.12236e+12 -1.09008e+12 -1.0781e+12 -1.09875e+12 -1.11643e+12 -1.05161e+12 -1.0099e+12 -998672000000.0 -615929000000.0 -701864000000.0 -1.02699e+12 -1.99296e+12 -2.45541e+12 -1.89764e+12 -1.47116e+12 -1.32067e+12 -1.24868e+12 -1.20551e+12 -1.17355e+12 -1.16054e+12 -1.16394e+12 -1.13203e+12 -1.0799e+12 -1.05838e+12 -1.05689e+12 -1.24662e+12 -1.72791e+12 -2.00913e+12 -1.70119e+12 -1.48533e+12 -1.38374e+12 -1.45208e+12 -1.32767e+12 -1.40281e+12 -1.28312e+12 -1.35235e+12 -1.24804e+12 -1.30949e+12 -1.22645e+12 -1.27151e+12 -1.20164e+12 -1.22179e+12 -1.1501e+12 -1.17884e+12 -1.11872e+12 -1.16617e+12 -1.11221e+12 -1.17036e+12 -708763000000.0 -838120000000.0 -1.51792e+12 -1.49056e+12 -1.82432e+12 -1.80959e+12 -1.76654e+12 -1.65895e+12 -1.67993e+12 -1.52817e+12 -1.58159e+12 -1.5279e+12 -1.46956e+12 -1.41043e+12 -1.35526e+12 -1.29637e+12 -1.24072e+12 -1.21737e+12 -1.2215e+12 -806045000000.0 -1.00513e+12 -1.6259e+12 -1.67562e+12 -1.70991e+12 -1.81662e+12 -1.7357e+12 -1.81684e+12 -1.71475e+12 -1.64481e+12 -1.59677e+12 -1.52541e+12 -1.45505e+12 -1.38227e+12 -1.30851e+12 -1.26696e+12 -1.26748e+12 -1.2824e+12 -1.66958e+12 -1.70106e+12 -1.63085e+12 -1.88385e+12 -1.84464e+12 -1.76444e+12 -1.82654e+12 -1.72786e+12 -1.79165e+12 -1.65266e+12 -1.69531e+12 -1.56902e+12 -1.59872e+12 -1.4835e+12 -1.49101e+12 -1.38858e+12 -1.38269e+12 -1.31955e+12 -1.34034e+12 -1.30629e+12 -1.36398e+12 -1.3288e+12 -1.39684e+12 -908621000000.0 -1.14896e+12 -1.78317e+12 -1.72834e+12 -1.76308e+12 -1.70196e+12 -1.33847e+12 -1.93826e+12 -1.95569e+12 -1.88159e+12 -1.93579e+12 -1.93941e+12 -1.83422e+12 -1.72567e+12 -1.61077e+12 -1.46817e+12 -1.37751e+12 -1.38342e+12 -1.43866e+12 -1.01791e+12 -1.27921e+12 -1.82755e+12 -1.75615e+12 -1.62388e+12 -1.4819e+12 -1.01807e+12 -1.03127e+12 -1.98854e+12 -1.99442e+12 -1.99119e+12 -1.86256e+12 -1.88314e+12 -1.74311e+12 -1.59532e+12 -1.42962e+12 -1.39036e+12 -1.45897e+12 -1.52122e+12 -1.89311e+12 -1.85523e+12 -1.72365e+12 -1.07442e+12 -1.04047e+12 -2.05111e+12 -2.06656e+12 -2.19024e+12 -2.20795e+12 -2.00935e+12 -1.9976e+12 -1.92321e+12 -1.74346e+12 -1.68737e+12 -1.51651e+12 -1.41029e+12 -1.39636e+12 -1.4081e+12 -1.44696e+12 -1.55952e+12 -1.55977e+12 -1.6697e+12 -1.13613e+12 -1.4013e+12 -2.01857e+12 -1.94082e+12 -1.97892e+12 -1.86717e+12 -1.87558e+12 -1.67801e+12 -1.11455e+12 -1.03938e+12 -2.62916e+12 -2.10012e+12 -2.03266e+12 -1.98502e+12 -1.40234e+12 -1.36347e+12 -1.49375e+12 -1.70842e+12 -1.26737e+12 -1.52006e+12 -2.07796e+12 -2.00891e+12 -1.85777e+12 -1.05195e+12 -1.12363e+12 -1.15148e+12 -1.17193e+12 -963452000000.0 -1.74255e+12 -2.19361e+12 -2.15002e+12 -2.10877e+12 -2.16736e+12 -2.1015e+12 -2.2065e+12 -2.08135e+12 -2.50199e+12 -1.24406e+12 -1.37419e+12 -1.67976e+12 -1.86867e+12 -1.63583e+12 -2.17127e+12 -2.25064e+12 -2.12819e+12 -2.02822e+12 -998593000000.0 -1.1612e+12 -1.31751e+12 -1.99571e+12 -2.19901e+12 -2.26065e+12 -2.42534e+12 -2.91873e+12 -1.15291e+12 -1.10752e+12 -1.50971e+12 -1.86774e+12 -1.9182e+12 -2.15501e+12 -1.41779e+12 -2.34469e+12 -2.33448e+12 -2.16138e+12 -2.14634e+12 -1.98182e+12 -1.05393e+12 -1.46752e+12 -1.86126e+12 -2.14942e+12 -2.28649e+12 -2.40525e+12 -2.72676e+12 -3.24143e+12 -1.41578e+12 -2.25154e+12 -1.58188e+12 -1.7474e+12 -2.43792e+12 -2.43905e+12 -1.89785e+12 -802811000000.0 -1.58822e+12 -1.5518e+12 -1.76913e+12 -1.73135e+12 -2.01869e+12 -2.0869e+12 -2.24924e+12 -2.27561e+12 -2.39659e+12 -2.40205e+12 -2.53689e+12 -2.59136e+12 -2.78767e+12 -2.9986e+12 -3.17848e+12 -3.43529e+12 -3.38884e+12 -2.2445e+12 -2.66726e+12 -2.51767e+12 -1.74297e+12 -1.85461e+12 -2.5293e+12 -2.62667e+12 -2.53835e+12 -2.65918e+12 -2.60048e+12 -3.19334e+12 -1.47208e+12 -1.79812e+12 -1.96263e+12 -2.21376e+12 -2.38695e+12 -2.517e+12 -2.67398e+12 -2.93214e+12 -3.11519e+12 -2.96178e+12 -3.07208e+12 -2.90268e+12 -2.71999e+12 -2.72698e+12 -2.88117e+12 -2.80525e+12 -1.75026e+12 -1.98998e+12 -1.97327e+12 -2.14654e+12 -2.1743e+12 -2.37147e+12 -2.51209e+12 -2.63002e+12 -2.78264e+12 -2.93741e+12 -2.56953e+12 -3.26208e+12 -3.42737e+12 -3.18166e+12 -1.89123e+12 -1.95654e+12 -2.90647e+12 -2.81953e+12 -2.92677e+12 -2.84502e+12 -2.94986e+12 -2.62767e+12 -2.39812e+12 -2.21789e+12 -2.15087e+12 -2.32629e+12 -2.34983e+12 -2.50241e+12 -2.50912e+12 -2.63158e+12 -2.62535e+12 -2.71905e+12 -2.7162e+12 -2.73606e+12 -2.80584e+12 -2.64919e+12 -3.76957e+12 -3.50101e+12 -3.51158e+12 -3.27931e+12 -2.03908e+12 -2.05328e+12 -3.00249e+12 -3.01854e+12 -2.88018e+12 -2.71934e+12 -2.39856e+12 -2.24398e+12 -2.30901e+12 -2.49093e+12 -2.63783e+12 -2.73717e+12 -2.77694e+12 -2.61404e+12 -2.42287e+12 -4.35673e+12 -3.90962e+12 -3.81594e+12 -3.54044e+12 -3.07777e+12 -3.0947e+12 -3.08335e+12 -2.32063e+12 -2.34199e+12 -2.33204e+12 -2.46359e+12 -2.47627e+12 -2.63736e+12 -2.64004e+12 -2.75677e+12 -2.81973e+12 -2.77474e+12 -2.09788e+12 -4.23174e+12 -3.72388e+12 -2.17905e+12 -2.1485e+12 -3.22894e+12 -3.15998e+12 -3.24293e+12 -3.18518e+12 -3.30795e+12 -3.20033e+12 -3.55251e+12 -2.22725e+12 -2.20972e+12 -2.37499e+12 -2.46082e+12 -2.62769e+12 -2.7849e+12 -2.77308e+12 -2.88857e+12 -2.85723e+12 -2.93677e+12 -2.87086e+12 -2.88362e+12 -2.67042e+12 -2.71986e+12 -2.38207e+12 -4.50094e+12 -4.15228e+12 -3.95407e+12 -3.851e+12 -3.72268e+12 -2.31867e+12 -2.24845e+12 -3.2991e+12 -3.3433e+12 -3.51883e+12 -3.75844e+12 -3.90225e+12 -2.25917e+12 -2.59236e+12 -2.7911e+12 -2.91483e+12 -2.98552e+12 -2.99689e+12 -2.9481e+12 -2.81004e+12 -3.9055e+12 -3.95678e+12 -3.84207e+12 -2.35881e+12 -3.36454e+12 -3.42335e+12 -3.37488e+12 -3.46426e+12 -3.4798e+12 -3.62503e+12 -3.72152e+12 -3.86161e+12 -3.94043e+12 -2.38229e+12 -2.57579e+12 -2.77649e+12 -2.9542e+12 -2.93764e+12 -3.05715e+12 -3.0241e+12 -3.06824e+12 -3.07197e+12 -3.06774e+12 -3.63814e+12 -3.9046e+12 -3.89707e+12 -3.90307e+12 -3.90278e+12 -2.44747e+12 -3.48565e+12 -3.47935e+12 -3.56259e+12 -3.74663e+12 -3.93278e+12 -3.90755e+12 -3.83371e+12 -3.61458e+12 -2.89373e+12 -3.08753e+12 -3.15951e+12 -3.11919e+12 -3.21084e+12 -3.15299e+12 -3.25785e+12 -3.18345e+12 -3.34398e+12 -3.26795e+12 -3.81134e+12 -3.91236e+12 -2.55269e+12 -2.47871e+12 -3.52772e+12 -3.5331e+12 -3.65857e+12 -3.73293e+12 -3.82054e+12 -3.84219e+12 -3.78962e+12 -3.33442e+12 -3.10289e+12 -3.19503e+12 -3.25508e+12 -3.31238e+12 -3.39342e+12 -3.52978e+12 -3.6796e+12 -3.8417e+12 -3.88885e+12 -3.93356e+12 -2.59979e+12 -3.58816e+12 -3.60882e+12 -3.5481e+12 -3.55448e+12 -3.5902e+12 -3.65307e+12 -3.77595e+12 -3.81008e+12 -3.61827e+12 -3.48438e+12 -3.27465e+12 -3.32126e+12 -3.2281e+12 -3.32703e+12 -3.29201e+12 -3.35458e+12 -3.43372e+12 -3.54905e+12 -3.77307e+12 -3.9343e+12 -3.9398e+12 -3.97297e+12 -2.63517e+12 -3.67077e+12 -3.58375e+12 -3.5664e+12 -3.70583e+12 -3.74754e+12 -3.79009e+12 -3.78002e+12 -3.73462e+12 -3.65199e+12 -3.45346e+12 -3.3861e+12 -3.41987e+12 -3.3889e+12 -3.49471e+12 -3.46717e+12 -3.59536e+12 -3.57283e+12 -3.72195e+12 -3.7147e+12 -3.91574e+12 -3.99177e+12 -2.69757e+12 -2.71022e+12 -3.75769e+12 -3.67676e+12 -3.58675e+12 -3.51954e+12 -3.46134e+12 -3.61554e+12 -3.66943e+12 -3.79023e+12 -3.74932e+12 -3.59281e+12 -3.47378e+12 -3.45998e+12 -3.51824e+12 -3.61439e+12 -3.73558e+12 -3.87372e+12 -3.8901e+12 -4.01097e+12 -4.00399e+12 -4.04834e+12 -4.02071e+12 -2.72712e+12 -9035750000.0 -2.84352e+12 -3.73568e+12 -3.37624e+12 -3.51314e+12 -3.77067e+12 -3.8084e+12 -3.79798e+12 -3.71038e+12 -3.68085e+12 -3.57763e+12 -3.59125e+12 -3.51746e+12 -3.57924e+12 -3.5441e+12 -3.64252e+12 -3.6292e+12 -3.74766e+12 -3.88193e+12 -4.0167e+12 -4.07833e+12 -4.06269e+12 -2.95401e+12 -4.02496e+12 -4.19982e+12 -3.467e+12 -2.64192e+12 -3.09304e+12 -3.5473e+12 -3.70692e+12 -3.85689e+12 -3.84333e+12 -3.86649e+12 -3.77432e+12 -3.67282e+12 -3.62705e+12 -3.65958e+12 -3.75786e+12 -3.75502e+12 -3.89428e+12 -3.89084e+12 -4.03681e+12 -4.0246e+12 -4.14744e+12 -4.11325e+12 -4.16288e+12 -4.10491e+12 -4.12327e+12 -2.73337e+12 -4.31109e+12 -4.55465e+12 -4.23134e+12 -5.26763e+12 -2.8316e+12 -3.83778e+12 -3.92146e+12 -3.85633e+12 -3.75413e+12 -3.68526e+12 -3.68528e+12 -3.75987e+12 -3.88965e+12 -4.04362e+12 -4.17278e+12 -4.2312e+12 -4.20007e+12 -2.75132e+12 -9035750000.0 -3.02668e+12 -4.5823e+12 -4.50782e+12 -5.09297e+12 -3.6656e+12 -3.96289e+12 -3.99877e+12 -3.93053e+12 -3.90906e+12 -3.83271e+12 -3.81297e+12 -3.74856e+12 -3.76358e+12 -3.72094e+12 -3.78287e+12 -3.76705e+12 -3.87933e+12 -4.01506e+12 -4.03577e+12 -4.19341e+12 -4.19637e+12 -4.34529e+12 -4.29741e+12 -4.4084e+12 -4.29141e+12 -4.30637e+12 -4.20317e+12 -2.61996e+12 -3.11856e+12 -5.06134e+12 -4.63054e+12 -4.85985e+12 -4.88469e+12 -4.3587e+12 -4.28317e+12 -3.95291e+12 -4.05136e+12 -3.98506e+12 -3.87893e+12 -3.80965e+12 -3.80592e+12 -3.87124e+12 -3.87113e+12 -3.99235e+12 -4.16432e+12 -4.35872e+12 -4.51781e+12 -4.46292e+12 -4.11347e+12 -2.89444e+12 -5.56371e+12 -3.24343e+12 -4.67252e+12 -4.61581e+12 -4.23842e+12 -4.05851e+12 -3.94923e+12 -3.8587e+12 -3.8323e+12 -3.87875e+12 -3.98012e+12 -4.12361e+12 -4.32571e+12 -4.53659e+12 -4.815e+12 -4.67682e+12 -4.74342e+12 -4.29913e+12 -3.83787e+12 -2.19043e+12 -4.27115e+12 -5.6953e+12 -5.01386e+12 -4.85041e+12 -4.74305e+12 -4.49618e+12 -4.38418e+12 -4.18969e+12 -4.12821e+12 -4.02413e+12 -3.97792e+12 -3.91364e+12 -3.89631e+12 -3.8618e+12 -3.88807e+12 -3.97881e+12 -4.09461e+12 -4.09701e+12 -4.20612e+12 -4.2591e+12 -4.3987e+12 -4.50406e+12 -4.723e+12 -5.06452e+12 -4.71658e+12 -1.64291e+12 -199218000000.0 -2.50255e+12 -6.0703e+12 -6.01546e+12 -5.17096e+12 -5.06988e+12 -4.60458e+12 -4.27668e+12 -4.06561e+12 -3.93977e+12 -3.90856e+12 -3.89801e+12 -3.97317e+12 -3.97735e+12 -4.08901e+12 -4.21126e+12 -4.28597e+12 -4.55702e+12 -5.21296e+12 -5.53791e+12 -5.11644e+12 -4.81477e+12 -4.5381e+12 -4.07337e+12 -4.92693e+12 -4.65272e+12 -5.27139e+12 -5.64056e+12 -6.05738e+12 -5.5381e+12 -5.48262e+12 -4.86759e+12 -4.45583e+12 -4.18887e+12 -4.00656e+12 -3.92628e+12 -3.96471e+12 -4.08082e+12 -4.20707e+12 -4.31559e+12 -4.3979e+12 -4.29811e+12 -4.16099e+12 -4.76946e+12 -5.68424e+12 -5.21382e+12 -5.11238e+12 -5.04355e+12 -6.44271e+12 -5.26106e+12 -4.78907e+12 -7.0595e+12 -7.01529e+12 -5.9957e+12 -5.87884e+12 -5.91326e+12 -5.96966e+12 -5.22365e+12 -4.90526e+12 -4.66173e+12 -4.53288e+12 -4.34442e+12 -4.24388e+12 -4.10842e+12 -4.0358e+12 -3.96361e+12 -3.94835e+12 -4.06429e+12 -4.18391e+12 -4.19799e+12 -4.30757e+12 -4.31474e+12 -4.40444e+12 -4.45197e+12 -3.53152e+12 -5.58294e+12 -5.1517e+12 -4.76833e+12 -5.84497e+12 -7.18697e+12 -5.23632e+12 -4.98586e+12 -4.46287e+12 -4.61796e+12 -7.044e+12 -6.89662e+12 -6.30668e+12 -5.75428e+12 -5.7874e+12 -5.77974e+12 -5.75298e+12 -5.22917e+12 -4.76876e+12 -4.41043e+12 -4.15e+12 -3.97312e+12 -3.94663e+12 -3.98141e+12 -4.03942e+12 -4.15863e+12 -4.29841e+12 -4.39819e+12 -4.40075e+12 -4.46786e+12 -4.49009e+12 -4.42696e+12 -4.5981e+12 -4.0401e+12 -4.76217e+12 -5.31906e+12 -6.91843e+12 -6.9656e+12 -7.15262e+12 -7.19099e+12 -4.81946e+12 -4.39006e+12 -6.98591e+12 -6.85389e+12 -6.85451e+12 -6.6719e+12 -4.99571e+12 -6.33258e+12 -5.5013e+12 -5.08327e+12 -4.6107e+12 -4.30431e+12 -4.0545e+12 -3.94112e+12 -4.12664e+12 -4.28294e+12 -4.39815e+12 -4.45544e+12 -4.46041e+12 -4.49265e+12 -4.5733e+12 -5.31742e+12 -4.98932e+12 -5.5005e+12 -6.10915e+12 -6.53958e+12 -7.0454e+12 -7.17458e+12 -4.69769e+12 -4.43035e+12 -4.42533e+12 -7.06576e+12 -6.99196e+12 -6.83369e+12 -6.77848e+12 -6.6579e+12 -6.56145e+12 -6.31419e+12 -5.86613e+12 -4.62102e+12 -4.13531e+12 -5.27152e+12 -5.49694e+12 -5.15482e+12 -4.86606e+12 -4.6901e+12 -4.48162e+12 -4.36978e+12 -4.19982e+12 -4.07555e+12 -3.95566e+12 -4.00543e+12 -4.24811e+12 -4.40725e+12 -4.45099e+12 -4.49067e+12 -4.54174e+12 -4.83199e+12 -6.34971e+12 -3.47167e+12 -5.6816e+12 -6.3374e+12 -6.2118e+12 -6.77813e+12 -6.6476e+12 -6.98844e+12 -6.96868e+12 -7.12825e+12 -6.97864e+12 -4.03118e+12 -4.4971e+12 -4.46505e+12 -7.0729e+12 -6.95344e+12 -6.88589e+12 -6.61232e+12 -6.72472e+12 -6.32392e+12 -5.51017e+12 -6.36306e+12 -5.44019e+12 -5.32832e+12 -5.22514e+12 -4.91335e+12 -4.55183e+12 -4.24971e+12 -3.9204e+12 -3.90329e+12 -3.79086e+12 -4.16561e+12 -4.51935e+12 -4.45178e+12 -4.4631e+12 -4.44441e+12 -4.45988e+12 -4.48038e+12 -4.51939e+12 -4.53515e+12 -4.62514e+12 -4.67091e+12 -4.89694e+12 -5.3936e+12 -5.24661e+12 -4.72271e+12 -5.53438e+12 -6.48934e+12 -6.03545e+12 -6.5107e+12 -6.76534e+12 -6.62252e+12 -6.84611e+12 -6.75972e+12 -3.58055e+12 -4.47174e+12 -7.05323e+12 -6.94298e+12 -6.9516e+12 -6.86964e+12 -6.77801e+12 -7.00718e+12 -6.78927e+12 -7.10504e+12 -6.83151e+12 -6.42306e+12 -6.23547e+12 -5.79054e+12 -5.06944e+12 -4.9717e+12 -4.83919e+12 -4.73305e+12 -4.43267e+12 -4.07742e+12 -3.46691e+12 -4.8198e+12 -4.51795e+12 -4.45447e+12 -4.47182e+12 -4.6091e+12 -4.7436e+12 -4.85683e+12 -5.02539e+12 -5.14148e+12 -4.82197e+12 -6.12027e+12 -6.4269e+12 -6.49435e+12 -6.54143e+12 -6.68442e+12 -6.51825e+12 -6.59027e+12 -3.2378e+12 -3.49515e+12 -4.28932e+12 -4.41739e+12 -6.96762e+12 -7.00348e+12 -6.83556e+12 -6.86859e+12 -6.8503e+12 -6.78109e+12 -6.16456e+12 -6.44662e+12 -6.39728e+12 -6.31893e+12 -6.3451e+12 -5.80172e+12 -5.39891e+12 -4.73431e+12 -4.71345e+12 -4.594e+12 -4.47507e+12 -4.29499e+12 -3.86407e+12 -3.57452e+12 -5.13832e+12 -5.14763e+12 -5.00006e+12 -4.7201e+12 -4.59131e+12 -4.47457e+12 -4.45247e+12 -4.51085e+12 -4.77243e+12 -4.94118e+12 -4.62006e+12 -3.84384e+12 -4.46351e+12 -4.98497e+12 -5.25573e+12 -5.78179e+12 -6.24141e+12 -6.4296e+12 -6.3551e+12 -6.50801e+12 -6.54396e+12 -6.61201e+12 -6.35212e+12 -6.60717e+12 -6.61221e+12 -3.7465e+12 -4.25825e+12 -6.83183e+12 -6.5876e+12 -6.80919e+12 -6.5998e+12 -6.69838e+12 -6.5289e+12 -6.34194e+12 -6.89889e+12 -7.006e+12 -6.07735e+12 -6.30254e+12 -6.244e+12 -6.1262e+12 -5.34743e+12 -4.99175e+12 -4.79062e+12 -4.59437e+12 -4.27369e+12 -4.80633e+12 -5.07017e+12 -4.74523e+12 -4.51319e+12 -4.45749e+12 -4.45022e+12 -4.45881e+12 -4.4884e+12 -4.59184e+12 -4.67771e+12 -5.04432e+12 -5.92135e+12 -5.6044e+12 -5.5209e+12 -5.90267e+12 -6.55798e+12 -6.68072e+12 -6.40643e+12 -6.79348e+12 -6.76188e+12 -6.73144e+12 -6.49422e+12 -6.4186e+12 -6.63228e+12 -3.94781e+12 -4.25707e+12 -6.9286e+12 -6.90921e+12 -6.78826e+12 -6.15417e+12 -6.46645e+12 -6.57337e+12 -5.73358e+12 -6.09982e+12 -6.09643e+12 -5.96589e+12 -5.69882e+12 -4.78704e+12 -4.34816e+12 -4.77854e+12 -4.71572e+12 -4.59414e+12 -4.46377e+12 -4.4511e+12 -4.91488e+12 -4.84305e+12 -4.59306e+12 -4.47026e+12 -4.45402e+12 -4.52474e+12 -4.74752e+12 -5.19349e+12 -5.55976e+12 -5.2925e+12 -5.4262e+12 -5.65583e+12 -5.89203e+12 -6.32636e+12 -6.77834e+12 -7.03054e+12 -6.7326e+12 -6.72278e+12 -6.54741e+12 -6.42541e+12 -6.44947e+12 -6.44508e+12 -6.63739e+12 -4.13044e+12 -3.90375e+12 -4.23987e+12 -4.25564e+12 -6.91026e+12 -6.8349e+12 -6.75836e+12 -6.6388e+12 -6.522e+12 -5.82313e+12 -6.30448e+12 -6.53295e+12 -7.03664e+12 -6.16899e+12 -6.36569e+12 -6.08605e+12 -5.77983e+12 -5.56616e+12 -5.24677e+12 -4.60961e+12 -3.27484e+12 -5.54107e+12 -4.91022e+12 -4.43857e+12 -4.44164e+12 -4.49076e+12 -4.65491e+12 -4.64706e+12 -4.78342e+12 -4.62377e+12 -4.64266e+12 -4.50289e+12 -4.49346e+12 -4.43162e+12 -4.45146e+12 -4.45668e+12 -4.46541e+12 -4.45823e+12 -4.54435e+12 -4.64284e+12 -5.34716e+12 -5.37231e+12 -5.49771e+12 -5.6777e+12 -6.15694e+12 -6.29383e+12 -6.02793e+12 -6.53195e+12 -6.84118e+12 -6.83287e+12 -6.68262e+12 -6.53643e+12 -6.54781e+12 -5.86423e+12 -6.49448e+12 -4.00445e+12 -4.20654e+12 -6.80997e+12 -6.86617e+12 -6.76178e+12 -6.81378e+12 -6.74395e+12 -6.70619e+12 -6.8437e+12 -6.60034e+12 -6.6203e+12 -6.34418e+12 -6.30396e+12 -5.43162e+12 -5.77745e+12 -5.96324e+12 -5.85049e+12 -5.66048e+12 -5.44229e+12 -5.1311e+12 -3.50185e+12 -4.71979e+12 -4.38537e+12 -4.40103e+12 -4.53095e+12 -4.53836e+12 -4.46941e+12 -4.40405e+12 -4.39726e+12 -4.48965e+12 -4.38557e+12 -4.74421e+12 -4.97746e+12 -5.20973e+12 -5.32819e+12 -5.45943e+12 -5.88889e+12 -6.16906e+12 -6.24514e+12 -6.68559e+12 -6.34049e+12 -6.61303e+12 -6.84742e+12 -6.74535e+12 -6.60109e+12 -6.47152e+12 -6.45346e+12 -6.7298e+12 -6.82389e+12 -4.09703e+12 -4.08212e+12 -4.15433e+12 -6.74829e+12 -6.69811e+12 -6.67761e+12 -6.61691e+12 -6.64193e+12 -6.63266e+12 -6.85836e+12 -6.65129e+12 -6.34337e+12 -6.64151e+12 -6.1286e+12 -6.73304e+12 -6.39152e+12 -6.07602e+12 -5.89526e+12 -5.36275e+12 -5.08644e+12 -4.66091e+12 -5.1122e+12 -3.34952e+12 -4.18077e+12 -4.45623e+12 -4.47963e+12 -4.41435e+12 -4.45453e+12 -4.39972e+12 -4.35305e+12 -4.33927e+12 -4.38331e+12 -4.57127e+12 -4.59176e+12 -3.85412e+12 -3.44483e+12 -4.66489e+12 -5.04056e+12 -5.60337e+12 -5.74126e+12 -5.77649e+12 -6.00894e+12 -5.17521e+12 -7.27132e+12 -7.02376e+12 -6.62195e+12 -6.541e+12 -6.92973e+12 -6.78773e+12 -6.66969e+12 -6.76082e+12 -4.05907e+12 -3.94583e+12 -3.98724e+12 -6.68428e+12 -6.56909e+12 -6.63565e+12 -6.51103e+12 -6.5915e+12 -6.52026e+12 -6.48312e+12 -6.53639e+12 -6.32661e+12 -6.3272e+12 -5.99701e+12 -5.56274e+12 -6.1404e+12 -5.97279e+12 -5.77729e+12 -5.59706e+12 -5.11325e+12 -4.79611e+12 -4.28078e+12 -4.32489e+12 -3.03894e+12 -4.46344e+12 -4.37686e+12 -4.42304e+12 -4.25878e+12 -4.31856e+12 -4.18729e+12 -4.27294e+12 -4.17376e+12 -4.26817e+12 -4.2174e+12 -4.29921e+12 -4.26752e+12 -4.37971e+12 -4.34912e+12 -5.14104e+12 -5.69285e+12 -4.93556e+12 -5.06695e+12 -5.24154e+12 -5.40015e+12 -5.52945e+12 -5.59522e+12 -5.72954e+12 -5.59743e+12 -6.47439e+12 -6.78026e+12 -6.73178e+12 -6.64006e+12 -6.34196e+12 -6.6908e+12 -6.62911e+12 -6.64318e+12 -6.47545e+12 -6.61887e+12 -6.5483e+12 -3.84427e+12 -3.85811e+12 -6.53347e+12 -6.61869e+12 -6.5082e+12 -6.44655e+12 -6.30665e+12 -6.4046e+12 -6.36108e+12 -6.48697e+12 -6.1801e+12 -6.35425e+12 -6.20723e+12 -6.1949e+12 -6.25841e+12 -6.00817e+12 -6.74702e+12 -6.08437e+12 -6.11603e+12 -5.78008e+12 -5.5609e+12 -5.36447e+12 -4.94512e+12 -4.66675e+12 -4.68498e+12 -4.38406e+12 -4.82328e+12 -4.74602e+12 -4.45505e+12 -4.23271e+12 -4.1064e+12 -4.07319e+12 -4.09357e+12 -4.20638e+12 -4.18566e+12 -4.33033e+12 -4.86026e+12 -5.1285e+12 -4.95898e+12 -5.14873e+12 -5.25709e+12 -5.36437e+12 -5.42979e+12 -5.51198e+12 -5.46573e+12 -5.73763e+12 -6.06504e+12 -6.39571e+12 -6.39193e+12 -6.39594e+12 -6.07811e+12 -6.0848e+12 -6.30086e+12 -5.91646e+12 -6.33115e+12 -6.33174e+12 -6.43102e+12 -6.48438e+12 -3.74258e+12 -3.48451e+12 -3.68901e+12 -6.4165e+12 -6.42976e+12 -6.31194e+12 -6.39441e+12 -6.28111e+12 -6.19939e+12 -6.30973e+12 -5.99365e+12 -5.81331e+12 -6.04306e+12 -6.03639e+12 -6.18249e+12 -5.52913e+12 -5.45295e+12 -5.36298e+12 -5.18084e+12 -4.89451e+12 -4.85309e+12 -4.78544e+12 -5.15212e+12 -5.86727e+12 -5.5703e+12 -4.23392e+12 -4.20708e+12 -4.02115e+12 -4.04974e+12 -3.89477e+12 -3.98623e+12 -3.97986e+12 -4.04229e+12 -4.03448e+12 -4.24907e+12 -4.33803e+12 -3.97672e+12 -2.80866e+12 -4.16717e+12 -5.03715e+12 -5.12702e+12 -5.22348e+12 -5.29616e+12 -5.36063e+12 -5.36003e+12 -5.64715e+12 -5.57254e+12 -5.75169e+12 -5.94294e+12 -6.05684e+12 -5.56747e+12 -4.78729e+12 -6.01765e+12 -6.20886e+12 -6.25211e+12 -6.36736e+12 -6.33854e+12 -6.42654e+12 -3.65161e+12 -3.59406e+12 -3.27371e+12 -6.25489e+12 -6.19486e+12 -6.33163e+12 -6.2181e+12 -6.19302e+12 -6.15432e+12 -6.12111e+12 -6.1407e+12 -5.99465e+12 -5.71314e+12 -5.39515e+12 -5.8273e+12 -5.88583e+12 -5.93185e+12 -5.93631e+12 -5.73926e+12 -5.50917e+12 -5.43935e+12 -5.45482e+12 -5.2793e+12 -5.07512e+12 -4.81252e+12 -4.89557e+12 -5.15021e+12 -5.27956e+12 -4.71484e+12 -3.94989e+12 -3.84601e+12 -3.7876e+12 -3.87223e+12 -3.78606e+12 -3.88606e+12 -3.81105e+12 -4.11169e+12 -4.30292e+12 -5.59769e+12 -4.79057e+12 -4.72482e+12 -4.8396e+12 -4.96128e+12 -5.06655e+12 -5.15209e+12 -5.22201e+12 -5.25609e+12 -5.43632e+12 -5.4416e+12 -5.28784e+12 -5.34962e+12 -5.592e+12 -5.70982e+12 -6.65589e+12 -5.99096e+12 -6.12521e+12 -6.13511e+12 -6.23757e+12 -6.29761e+12 -6.33573e+12 -3.56622e+12 -3.0838e+12 -5.85805e+12 -6.06126e+12 -6.02852e+12 -5.9816e+12 -6.1032e+12 -5.9649e+12 -6.08421e+12 -5.94718e+12 -6.07391e+12 -5.89438e+12 -6.27087e+12 -6.55488e+12 -4.45188e+12 -5.59603e+12 -5.68392e+12 -6.11645e+12 -6.35905e+12 -4.32366e+12 -4.9915e+12 -5.18505e+12 -5.6744e+12 -5.37319e+12 -5.12685e+12 -4.95013e+12 -4.86723e+12 -4.6904e+12 -4.50133e+12 -4.13187e+12 -3.85684e+12 -3.54031e+12 -3.83152e+12 -3.68974e+12 -3.62574e+12 -3.7007e+12 -3.71818e+12 -4.10361e+12 -3.84112e+12 -4.74763e+12 -4.80828e+12 -4.83973e+12 -4.91951e+12 -5.00426e+12 -5.08513e+12 -5.14566e+12 -5.31135e+12 -5.27611e+12 -5.10503e+12 -4.31255e+12 -4.61657e+12 -5.38835e+12 -5.74865e+12 -5.7118e+12 -6.10784e+12 -6.1885e+12 -6.05622e+12 -6.12493e+12 -6.2279e+12 -6.19365e+12 -6.18396e+12 -6.23988e+12 -6.14992e+12 -3.55841e+12 -2.92962e+12 -5.66365e+12 -5.83348e+12 -5.82681e+12 -5.89896e+12 -5.78139e+12 -5.79441e+12 -5.46377e+12 -5.89935e+12 -5.99085e+12 -5.35149e+12 -5.04454e+12 -4.79918e+12 -5.08827e+12 -5.51059e+12 -5.65685e+12 -5.24331e+12 -4.71237e+12 -4.30466e+12 -5.52718e+12 -5.32974e+12 -5.05242e+12 -4.88301e+12 -4.77641e+12 -4.70503e+12 -4.68622e+12 -2.81836e+12 -2.40514e+12 -3.94804e+12 -3.72153e+12 -3.38198e+12 -3.57499e+12 -3.33179e+12 -3.52938e+12 -3.32159e+12 -3.72107e+12 -3.91745e+12 -3.44321e+12 -2.12939e+12 -4.81679e+12 -4.60403e+12 -4.62944e+12 -4.70121e+12 -4.76411e+12 -4.84222e+12 -5.22892e+12 -5.30921e+12 -5.4388e+12 -5.65912e+12 -6.31461e+12 -5.79512e+12 -5.41367e+12 -5.51544e+12 -5.45571e+12 -5.07685e+12 -6.00627e+12 -6.04314e+12 -6.03506e+12 -5.96205e+12 -6.09657e+12 -6.03991e+12 -6.06172e+12 -6.07423e+12 -3.55198e+12 -3.51687e+12 -2.73967e+12 -2.81501e+12 -5.48574e+12 -5.43976e+12 -5.63055e+12 -5.63339e+12 -5.65321e+12 -5.79758e+12 -5.73216e+12 -5.77465e+12 -5.62577e+12 -5.53934e+12 -5.12347e+12 -5.45454e+12 -5.54366e+12 -5.73994e+12 -3.48813e+12 -4.84105e+12 -5.06285e+12 -4.89325e+12 -4.82809e+12 -4.33706e+12 -3.67622e+12 -5.71896e+12 -4.82991e+12 -4.80763e+12 -4.72685e+12 -4.6436e+12 -4.5597e+12 -4.47911e+12 -4.34609e+12 -3.9174e+12 -4.09567e+12 -3.78247e+12 -3.4377e+12 -3.39737e+12 -3.26459e+12 -3.20355e+12 -5.193e+12 -3.80347e+12 -4.33504e+12 -4.4117e+12 -4.50247e+12 -4.59045e+12 -4.66864e+12 -4.92371e+12 -4.99356e+12 -5.05931e+12 -5.11834e+12 -5.17621e+12 -5.21407e+12 -5.66778e+12 -5.8854e+12 -5.4874e+12 -5.3912e+12 -5.60099e+12 -5.93302e+12 -6.76879e+12 -6.46138e+12 -6.05962e+12 -5.82828e+12 -5.87497e+12 -5.89871e+12 -6.09216e+12 -5.89663e+12 -5.8827e+12 -5.95662e+12 -5.86999e+12 -6.00636e+12 -3.4149e+12 -2.69698e+12 -5.32609e+12 -5.26861e+12 -5.43141e+12 -5.46107e+12 -5.63604e+12 -5.578e+12 -5.6156e+12 -5.454e+12 -5.51572e+12 -5.42335e+12 -3.81218e+12 -4.98724e+12 -5.4122e+12 -6.12244e+12 -4.38536e+12 -4.49215e+12 -4.24274e+12 -4.35039e+12 -4.68384e+12 -4.63566e+12 -4.55392e+12 -4.47179e+12 -4.39461e+12 -4.32049e+12 -4.22252e+12 -4.13715e+12 -4.69037e+12 -3.68443e+12 -3.30915e+12 -2.88674e+12 -2.93801e+12 -2.79714e+12 -2.90923e+12 -3.93583e+12 -3.45879e+12 -3.92061e+12 -4.19721e+12 -4.29981e+12 -4.39863e+12 -4.75311e+12 -4.83718e+12 -4.91344e+12 -4.97228e+12 -5.01113e+12 -5.00677e+12 -4.85405e+12 -5.14142e+12 -5.20142e+12 -5.07295e+12 -5.0916e+12 -5.43125e+12 -6.05901e+12 -5.89169e+12 -6.03065e+12 -5.56294e+12 -5.72498e+12 -5.5941e+12 -5.99411e+12 -5.68098e+12 -5.74823e+12 -5.81756e+12 -5.95106e+12 -5.77364e+12 -3.28182e+12 -2.67492e+12 -5.04013e+12 -5.18195e+12 -5.12048e+12 -5.08569e+12 -5.24321e+12 -5.25601e+12 -5.30895e+12 -5.50691e+12 -5.49388e+12 -5.41793e+12 -5.39987e+12 -6.29952e+12 -5.1387e+12 -5.16565e+12 -5.64775e+12 -5.00665e+12 -4.76856e+12 -4.68624e+12 -4.63311e+12 -4.33826e+12 -4.34555e+12 -4.44152e+12 -4.3781e+12 -4.31055e+12 -4.24157e+12 -4.16691e+12 -4.11564e+12 -4.25392e+12 -4.10817e+12 -2.75166e+12 -4.98393e+12 -1.74743e+12 -3.23765e+12 -2.03011e+12 -3.11815e+12 -2.35995e+12 -2.39828e+12 -3.09935e+12 -3.7614e+12 -3.67254e+12 -3.90252e+12 -4.08775e+12 -4.49012e+12 -4.57625e+12 -4.66694e+12 -4.76075e+12 -4.85051e+12 -4.93551e+12 -4.99557e+12 -4.90603e+12 -3.95552e+12 -4.54358e+12 -4.69219e+12 -4.68877e+12 -4.69327e+12 -5.26523e+12 -5.30769e+12 -5.50496e+12 -5.66206e+12 -5.3033e+12 -5.81588e+12 -5.70725e+12 -5.63868e+12 -5.70155e+12 -5.77559e+12 -5.54103e+12 -3.15277e+12 -3.03873e+12 -2.65742e+12 -4.87919e+12 -4.98581e+12 -4.95643e+12 -5.08373e+12 -5.12292e+12 -5.37478e+12 -5.33195e+12 -5.44071e+12 -5.20963e+12 -5.12562e+12 -5.2139e+12 -5.77931e+12 -5.13706e+12 -5.21254e+12 -4.95716e+12 -4.79568e+12 -4.50729e+12 -4.51399e+12 -4.46731e+12 -4.40829e+12 -4.32634e+12 -4.47774e+12 -4.21707e+12 -4.16003e+12 -4.09695e+12 -4.04098e+12 -4.03495e+12 -3.91569e+12 -3.47576e+12 -3.63918e+12 -2.70637e+12 -3.89387e+12 -4.04351e+12 -3.40574e+12 -3.62964e+12 -3.59553e+12 -3.75348e+12 -3.75032e+12 -3.87955e+12 -4.19951e+12 -4.30154e+12 -4.39589e+12 -4.48926e+12 -4.59032e+12 -4.69932e+12 -4.82545e+12 -4.98162e+12 -5.1681e+12 -5.32524e+12 -3.22741e+12 -4.21437e+12 -3.71148e+12 -5.45283e+12 -5.23458e+12 -5.45577e+12 -5.06229e+12 -4.61985e+12 -6.46696e+12 -5.98477e+12 -5.6955e+12 -5.49727e+12 -5.49785e+12 -5.57616e+12 -5.57427e+12 -5.54769e+12 -5.27763e+12 -5.29538e+12 -2.94874e+12 -2.54874e+12 -2.62057e+12 -4.67344e+12 -4.84039e+12 -4.82333e+12 -4.83337e+12 -4.95872e+12 -5.00203e+12 -5.10374e+12 -5.21118e+12 -5.33713e+12 -5.21972e+12 -4.68302e+12 -4.80981e+12 -4.45786e+12 -4.68196e+12 -4.63178e+12 -4.60082e+12 -4.51108e+12 -4.33699e+12 -4.30822e+12 -4.27391e+12 -4.24687e+12 -4.24839e+12 -4.23357e+12 -4.23978e+12 -4.29014e+12 -4.26376e+12 -3.96635e+12 -3.9216e+12 -3.83256e+12 -3.65786e+12 -3.73741e+12 -3.46804e+12 -3.92436e+12 -2.52631e+12 -3.95588e+12 -2.83133e+12 -3.60621e+12 -3.45839e+12 -3.6931e+12 -3.59836e+12 -3.60937e+12 -4.0067e+12 -4.1102e+12 -4.20899e+12 -4.30528e+12 -4.4058e+12 -4.5163e+12 -4.64683e+12 -4.81742e+12 -5.0533e+12 -4.17394e+12 -4.31212e+12 -5.75098e+12 -5.02837e+12 -4.55375e+12 -5.94995e+12 -5.83443e+12 -6.13456e+12 -5.75545e+12 -5.0356e+12 -5.12352e+12 -5.25344e+12 -5.29133e+12 -5.09184e+12 -5.07449e+12 -2.83231e+12 -2.43439e+12 -4.39949e+12 -4.41187e+12 -4.65776e+12 -4.65807e+12 -4.68406e+12 -4.87728e+12 -4.96378e+12 -5.29466e+12 -5.61654e+12 -5.31462e+12 -5.50152e+12 -4.69028e+12 -4.82114e+12 -5.56624e+12 -2.83107e+12 -4.00081e+12 -4.24051e+12 -4.33097e+12 -4.33098e+12 -4.25679e+12 -4.16153e+12 -4.13008e+12 -4.11063e+12 -4.10999e+12 -4.10424e+12 -4.09867e+12 -4.10511e+12 -4.12428e+12 -4.10751e+12 -4.07065e+12 -4.02082e+12 -3.66672e+12 -3.6453e+12 -3.52242e+12 -3.59618e+12 -3.37234e+12 -3.24045e+12 -3.47922e+12 -3.19867e+12 -3.55168e+12 -3.47487e+12 -3.54604e+12 -3.69405e+12 -3.73915e+12 -3.83179e+12 -3.92929e+12 -4.0215e+12 -4.1143e+12 -4.21061e+12 -4.31294e+12 -4.42592e+12 -4.5619e+12 -5.40841e+12 -5.74142e+12 -3.66512e+12 -4.12429e+12 -4.13786e+12 -3.74317e+12 -5.01007e+12 -5.28657e+12 -4.37607e+12 -3.02098e+12 -5.19564e+12 -5.28327e+12 -5.41077e+12 -5.23759e+12 -3.87793e+12 -5.74229e+12 -5.38486e+12 -5.17476e+12 -4.92092e+12 -4.83033e+12 -4.79224e+12 -4.40622e+12 -2.66842e+12 -2.47543e+12 -2.26222e+12 -3.60348e+12 -4.04687e+12 -4.09317e+12 -4.42756e+12 -4.46252e+12 -4.74387e+12 -4.84919e+12 -5.02067e+12 -5.1069e+12 -5.31887e+12 -5.46894e+12 -5.62786e+12 -6.23353e+12 -5.001e+12 -2.37723e+12 -4.71705e+12 -4.48303e+12 -3.99372e+12 -4.12014e+12 -4.14883e+12 -4.15059e+12 -4.11712e+12 -4.05494e+12 -3.99147e+12 -3.96253e+12 -3.94765e+12 -3.94738e+12 -3.95329e+12 -3.96024e+12 -3.97069e+12 -3.98383e+12 -3.97296e+12 -3.94059e+12 -3.89328e+12 -3.8396e+12 -3.76567e+12 -3.5373e+12 -3.56941e+12 -3.63248e+12 -3.69001e+12 -3.76584e+12 -3.84633e+12 -3.92765e+12 -4.01271e+12 -4.10326e+12 -4.73572e+12 -4.95619e+12 -5.2331e+12 -4.99715e+12 -3.99914e+12 -4.0578e+12 -3.93219e+12 -4.37659e+12 -4.58189e+12 -4.63255e+12 -3.74221e+12 -4.5425e+12 -4.7236e+12 -4.80015e+12 -4.57847e+12 -5.23441e+12 -5.36534e+12 -5.08767e+12 -4.54615e+12 -4.47509e+12 -3.92582e+12 -2.23771e+12 -2.39378e+12 -1.89221e+12 -3.00755e+12 -3.69871e+12 -4.12666e+12 -4.16569e+12 -4.52587e+12 -4.62448e+12 -4.7706e+12 -5.2995e+12 -5.78007e+12 -6.36343e+12 -4.32099e+12 -4.80782e+12 -4.02375e+12 -3.90087e+12 -3.77535e+12 -4.14684e+12 -3.92071e+12 -3.95924e+12 -3.96583e+12 -3.95078e+12 -3.91463e+12 -3.86378e+12 -3.81573e+12 -3.78606e+12 -3.7644e+12 -3.78155e+12 -3.80897e+12 -3.83292e+12 -3.8572e+12 -3.87144e+12 -3.85864e+12 -3.82188e+12 -3.76923e+12 -3.70234e+12 -3.62594e+12 -3.57342e+12 -3.49445e+12 -3.47151e+12 -3.37162e+12 -3.34489e+12 -3.24802e+12 -3.3265e+12 -3.29076e+12 -3.41399e+12 -3.40666e+12 -3.44532e+12 -3.46679e+12 -3.50694e+12 -3.562e+12 -3.6195e+12 -3.68527e+12 -3.75468e+12 -3.82634e+12 -4.1987e+12 -4.29906e+12 -4.41009e+12 -4.54051e+12 -4.68833e+12 -4.73939e+12 -4.5553e+12 -3.95118e+12 -3.85379e+12 -4.05355e+12 -4.19379e+12 -4.20842e+12 -4.25505e+12 -3.96281e+12 -3.92396e+12 -4.21912e+12 -4.33808e+12 -4.33689e+12 -3.72514e+12 -4.69556e+12 -4.7576e+12 -4.64882e+12 -4.11524e+12 -4.01914e+12 -3.37299e+12 -2.14889e+12 -2.52007e+12 -2.28718e+12 -3.23156e+12 -3.34855e+12 -3.76179e+12 -3.80738e+12 -4.22362e+12 -4.30834e+12 -4.42013e+12 -4.98012e+12 -5.2723e+12 -5.49723e+12 -5.00434e+12 -4.31467e+12 -4.28687e+12 -4.13766e+12 -3.77855e+12 -3.87777e+12 -3.92887e+12 -3.80971e+12 -3.79874e+12 -3.78293e+12 -3.62139e+12 -3.68245e+12 -3.74407e+12 -3.77928e+12 -3.78208e+12 -3.75408e+12 -3.70374e+12 -3.63907e+12 -3.56816e+12 -3.50507e+12 -3.43723e+12 -3.38846e+12 -3.32151e+12 -3.28099e+12 -3.23548e+12 -3.20399e+12 -3.24586e+12 -3.25367e+12 -3.30662e+12 -3.32283e+12 -3.35579e+12 -3.38821e+12 -3.43041e+12 -3.48081e+12 -3.53475e+12 -3.902e+12 -3.98323e+12 -4.06732e+12 -4.14758e+12 -4.22658e+12 -4.31035e+12 -4.35191e+12 -4.33428e+12 -4.22258e+12 -3.70106e+12 -3.74378e+12 -3.84196e+12 -3.88243e+12 -4.03327e+12 -4.0287e+12 -4.07045e+12 -3.87485e+12 -3.99215e+12 -4.07119e+12 -4.01357e+12 -4.37983e+12 -4.19949e+12 -4.24052e+12 -4.18763e+12 -3.60576e+12 -3.49826e+12 -2.65561e+12 -1.95589e+12 -2.14709e+12 -2.29988e+12 -3.99361e+12 -2.21173e+12 -2.45412e+12 -2.79527e+12 -3.41088e+12 -3.85903e+12 -3.93165e+12 -4.02346e+12 -4.56054e+12 -4.72128e+12 -4.81082e+12 -4.48921e+12 -4.06826e+12 -4.07384e+12 -3.84406e+12 -3.73928e+12 -3.73382e+12 -3.75639e+12 -3.71804e+12 -3.67264e+12 -3.62918e+12 -3.59332e+12 -3.56074e+12 -3.6382e+12 -3.71696e+12 -3.72636e+12 -3.69741e+12 -3.64354e+12 -3.57564e+12 -3.50289e+12 -3.43387e+12 -3.36717e+12 -3.31027e+12 -3.25295e+12 -3.20836e+12 -3.16973e+12 -3.14292e+12 -3.13826e+12 -3.16124e+12 -3.17784e+12 -3.20972e+12 -3.23388e+12 -3.2663e+12 -3.3019e+12 -3.59306e+12 -3.65353e+12 -3.71529e+12 -3.7804e+12 -3.84961e+12 -3.91594e+12 -3.97363e+12 -4.022e+12 -4.04064e+12 -4.02649e+12 -3.98754e+12 -3.88176e+12 -3.46235e+12 -3.44277e+12 -3.35334e+12 -3.86351e+12 -3.9034e+12 -3.94531e+12 -3.93879e+12 -3.7335e+12 -3.76887e+12 -3.79455e+12 -4.0069e+12 -4.08232e+12 -3.7547e+12 -3.75369e+12 -3.70918e+12 -3.14929e+12 -3.10404e+12 -2.89967e+12 -1.95103e+12 -3.89447e+12 -1.85485e+12 -2.03145e+12 -3.87865e+12 -3.86871e+12 -2.45573e+12 -2.94005e+12 -3.00715e+12 -3.03206e+12 -3.45591e+12 -3.51504e+12 -3.59452e+12 -4.12185e+12 -4.20991e+12 -4.23549e+12 -4.02768e+12 -4.39231e+12 -3.72395e+12 -3.65221e+12 -3.62335e+12 -3.59537e+12 -3.56175e+12 -3.5211e+12 -3.47524e+12 -3.42768e+12 -3.37917e+12 -3.31163e+12 -3.47624e+12 -3.51391e+12 -3.43324e+12 -3.35771e+12 -3.28847e+12 -3.22792e+12 -3.17309e+12 -3.1277e+12 -3.09038e+12 -3.06345e+12 -3.05095e+12 -3.05382e+12 -3.07008e+12 -3.08837e+12 -3.34334e+12 -3.38966e+12 -3.43894e+12 -3.49063e+12 -3.54268e+12 -3.59408e+12 -3.64776e+12 -3.70225e+12 -3.75039e+12 -3.78433e+12 -3.7893e+12 -3.76532e+12 -3.74459e+12 -3.67962e+12 -3.55988e+12 -2.7647e+12 -3.97549e+12 -3.87715e+12 -3.82629e+12 -3.80089e+12 -3.77299e+12 -3.5429e+12 -3.6409e+12 -3.70183e+12 -3.71895e+12 -3.30229e+12 -3.2426e+12 -2.81629e+12 -2.60133e+12 -2.10651e+12 -1.55928e+12 -3.94843e+12 -3.51346e+12 -2.51068e+12 -1.39235e+12 -850764000000.0 -1.74482e+12 -2.92976e+12 -3.42934e+12 -3.46589e+12 -1.95025e+12 -2.2734e+12 -2.58257e+12 -2.62715e+12 -2.61974e+12 -3.07094e+12 -3.14199e+12 -3.67443e+12 -3.72898e+12 -3.72025e+12 -3.4365e+12 -4.06073e+12 -4.02138e+12 -3.87728e+12 -3.79065e+12 -3.6726e+12 -3.59124e+12 -3.55999e+12 -3.52824e+12 -3.47581e+12 -3.44014e+12 -3.405e+12 -3.36566e+12 -3.31944e+12 -3.26496e+12 -3.19983e+12 -3.11207e+12 -2.88773e+12 -3.53517e+12 -3.7136e+12 -3.71555e+12 -3.66557e+12 -3.59404e+12 -3.11417e+12 -3.14086e+12 -3.17285e+12 -3.20823e+12 -3.24738e+12 -3.2896e+12 -3.3338e+12 -3.37872e+12 -3.42139e+12 -3.46251e+12 -3.50433e+12 -3.5434e+12 -3.57226e+12 -3.57927e+12 -3.55914e+12 -3.53125e+12 -3.48572e+12 -3.39715e+12 -3.26854e+12 -3.11251e+12 -4.28238e+12 -4.00529e+12 -3.80886e+12 -3.70622e+12 -3.64154e+12 -3.588e+12 -3.54474e+12 -3.34674e+12 -3.36413e+12 -3.35928e+12 -3.3318e+12 -2.7856e+12 -2.52675e+12 -2.57443e+12 -2.15762e+12 -3.28909e+12 -3.07561e+12 -1.2422e+12 -2.05566e+12 -1.16034e+12 -1.45255e+12 -2.43155e+12 -2.95523e+12 -3.36015e+12 -1.84074e+12 -2.29697e+12 -2.24002e+12 -2.59996e+12 -2.63748e+12 -3.22552e+12 -3.29014e+12 -3.31542e+12 -3.07287e+12 -3.75498e+12 -3.80595e+12 -3.76945e+12 -3.65095e+12 -3.57271e+12 -3.482e+12 -3.41666e+12 -3.3762e+12 -3.33758e+12 -3.29271e+12 -3.25356e+12 -3.21308e+12 -3.16707e+12 -3.11142e+12 -3.04133e+12 -2.94667e+12 -2.79538e+12 -2.42457e+12 -3.76415e+12 -3.77254e+12 -3.67179e+12 -3.56146e+12 -3.45605e+12 -3.36008e+12 -3.27524e+12 -3.20141e+12 -3.13817e+12 -3.08371e+12 -3.03841e+12 -3.00162e+12 -2.97411e+12 -2.95762e+12 -2.95286e+12 -2.95893e+12 -2.97347e+12 -2.99219e+12 -3.01618e+12 -3.04323e+12 -3.07398e+12 -3.10733e+12 -3.1431e+12 -3.18076e+12 -3.21962e+12 -3.25712e+12 -3.29054e+12 -3.32167e+12 -3.35131e+12 -3.37532e+12 -3.12196e+12 -2.91711e+12 -2.47175e+12 -4.08628e+12 -3.82551e+12 -3.6541e+12 -3.53865e+12 -3.45147e+12 -3.38294e+12 -3.33297e+12 -3.07778e+12 -3.0384e+12 -2.98122e+12 -2.90192e+12 -2.16974e+12 -2.89137e+12 -2.21423e+12 -1.5742e+12 -2.52577e+12 -1.88775e+12 -2.34367e+12 -1.67762e+12 -876530000000.0 -1.94332e+12 -2.43641e+12 -2.4416e+12 -2.92157e+12 -2.77349e+12 -2.03221e+12 -1.92139e+12 -2.15204e+12 -2.04648e+12 -2.73493e+12 -2.86038e+12 -2.97725e+12 -3.70686e+12 -3.643e+12 -3.5966e+12 -3.52504e+12 -3.43316e+12 -3.35894e+12 -3.28728e+12 -3.23173e+12 -3.18965e+12 -3.14989e+12 -3.10777e+12 -3.06608e+12 -3.02087e+12 -2.9678e+12 -2.90188e+12 -2.81611e+12 -2.69664e+12 -2.52481e+12 -3.80209e+12 -3.70987e+12 -3.54362e+12 -3.40058e+12 -3.28182e+12 -3.18422e+12 -3.10444e+12 -3.03889e+12 -2.98456e+12 -2.94e+12 -2.90409e+12 -2.87663e+12 -2.8582e+12 -2.84925e+12 -2.84948e+12 -2.85775e+12 -2.87225e+12 -2.89105e+12 -2.9141e+12 -2.94024e+12 -2.96889e+12 -2.99925e+12 -3.03094e+12 -3.06375e+12 -3.09669e+12 -3.38463e+12 -3.3737e+12 -3.34942e+12 -3.31009e+12 -3.23905e+12 -2.39071e+12 -4.2837e+12 -3.57598e+12 -3.43812e+12 -3.32657e+12 -3.2333e+12 -3.15512e+12 -3.10881e+12 -2.76073e+12 -2.67639e+12 -2.57546e+12 -2.44403e+12 -2.85543e+12 -2.59454e+12 -1.86402e+12 -2.53881e+12 -2.64716e+12 -2.9746e+12 -1.76383e+12 -2.93749e+12 -1.12604e+12 -605390000000.0 -1.4734e+12 -1.45929e+12 -1.93915e+12 -1.88849e+12 -2.40839e+12 -1.7353e+12 -1.71308e+12 -1.7473e+12 -1.55352e+12 -2.08498e+12 -2.32852e+12 -2.65859e+12 -2.84378e+12 -3.53971e+12 -3.47992e+12 -3.3997e+12 -3.34363e+12 -3.28189e+12 -3.21079e+12 -3.14857e+12 -3.09173e+12 -3.04426e+12 -3.00403e+12 -2.96497e+12 -2.9238e+12 -2.18903e+12 -3.68044e+12 -3.53054e+12 -3.34115e+12 -3.19395e+12 -3.08076e+12 -2.99464e+12 -2.92769e+12 -2.87442e+12 -2.83168e+12 -2.7976e+12 -2.77126e+12 -2.75251e+12 -2.74151e+12 -2.73822e+12 -2.74207e+12 -2.75201e+12 -2.76674e+12 -2.78528e+12 -2.80727e+12 -2.83163e+12 -2.85743e+12 -3.12627e+12 -3.15112e+12 -3.17285e+12 -3.1905e+12 -3.19994e+12 -3.19584e+12 -3.17933e+12 -3.14932e+12 -3.09843e+12 -3.01368e+12 -2.84843e+12 -3.95942e+12 -3.92314e+12 -3.74569e+12 -3.2965e+12 -3.18559e+12 -3.08196e+12 -2.98492e+12 -2.90524e+12 -2.83392e+12 -2.28197e+12 -2.13909e+12 -1.86836e+12 -2.55985e+12 -2.27443e+12 -2.1271e+12 -2.2478e+12 -2.27835e+12 -2.12428e+12 -1.87153e+12 -1.90795e+12 -676445000000.0 -349886000000.0 -617282000000.0 -1.03428e+12 -1.00789e+12 -1.39115e+12 -1.94465e+12 -2.01857e+12 -2.36448e+12 -1.59829e+12 -1.35155e+12 -1.13227e+12 -1.13483e+12 -1.48732e+12 -2.29002e+12 -2.70029e+12 -3.21458e+12 -3.23606e+12 -3.17344e+12 -3.12925e+12 -3.09161e+12 -3.04593e+12 -2.99352e+12 -2.94479e+12 -2.88029e+12 -2.8313e+12 -2.7727e+12 -2.69966e+12 -2.60561e+12 -2.48404e+12 -2.34028e+12 -2.04116e+12 -3.42366e+12 -3.26157e+12 -3.08735e+12 -2.95839e+12 -2.86766e+12 -2.80164e+12 -2.75155e+12 -2.71244e+12 -2.68164e+12 -2.65778e+12 -2.64026e+12 -2.62896e+12 -2.62391e+12 -2.6249e+12 -2.63138e+12 -2.8841e+12 -2.91127e+12 -2.939e+12 -2.96563e+12 -2.9876e+12 -3.00497e+12 -3.01807e+12 -3.02495e+12 -3.02373e+12 -3.0133e+12 -2.99307e+12 -2.9642e+12 -2.91741e+12 -2.83633e+12 -2.59778e+12 -3.3621e+12 -3.53756e+12 -3.5054e+12 -3.41006e+12 -2.91354e+12 -2.81278e+12 -2.71672e+12 -2.62177e+12 -2.51747e+12 -2.4046e+12 -1.8486e+12 -1.58069e+12 -2.77758e+12 -2.45685e+12 -2.2252e+12 -2.00752e+12 -1.87015e+12 -1.88656e+12 -1.97932e+12 -1.39482e+12 -1.26005e+12 -850140000000.0 -938770000000.0 -411546000000.0 -380255000000.0 -140021000000.0 -113681000000.0 -225591000000.0 -582226000000.0 -964836000000.0 -1.18955e+12 -1.65732e+12 -2.00864e+12 -1.40339e+12 -1.65263e+12 -1.95304e+12 -923863000000.0 -900455000000.0 -2.56067e+12 -2.75396e+12 -2.9014e+12 -2.89867e+12 -2.88872e+12 -2.87425e+12 -2.89933e+12 -2.85885e+12 -2.82169e+12 -2.784e+12 -2.74359e+12 -2.69938e+12 -2.64869e+12 -2.58827e+12 -2.51474e+12 -2.42557e+12 -2.32194e+12 -2.20035e+12 -1.94786e+12 -3.07869e+12 -2.64243e+12 -2.65715e+12 -2.67498e+12 -2.69541e+12 -2.71731e+12 -2.73984e+12 -2.76239e+12 -2.78478e+12 -2.80724e+12 -2.82738e+12 -2.8427e+12 -2.85354e+12 -2.85894e+12 -2.85841e+12 -2.85247e+12 -2.83919e+12 -2.8224e+12 -2.801e+12 -2.77178e+12 -2.72475e+12 -2.9554e+12 -3.11502e+12 -3.17923e+12 -3.16225e+12 -3.09919e+12 -3.01123e+12 -2.53753e+12 -2.42882e+12 -2.30388e+12 -2.15931e+12 -2.00942e+12 -1.29738e+12 -2.64694e+12 -1.8951e+12 -1.8649e+12 -1.5318e+12 -1.5276e+12 -702232000000.0 -977088000000.0 -166148000000.0 -217528000000.0 -170837000000.0 -515187000000.0 -515952000000.0 -858719000000.0 -723814000000.0 -1.63596e+12 -1.57559e+12 -1.55268e+12 -1.62272e+12 -2.25056e+12 -2.60698e+12 -1.87065e+12 -2.38386e+12 -2.24888e+12 -2.51274e+12 -2.58676e+12 -2.62297e+12 -2.85342e+12 -2.82199e+12 -2.78504e+12 -2.74829e+12 -2.71236e+12 -2.67832e+12 -2.64467e+12 -2.60892e+12 -2.56998e+12 -2.52685e+12 -2.47766e+12 -2.42063e+12 -2.35479e+12 -2.2807e+12 -2.19613e+12 -2.0916e+12 -1.87609e+12 -2.94058e+12 -2.80495e+12 -2.71678e+12 -2.6569e+12 -2.61378e+12 -2.58111e+12 -2.55568e+12 -2.53592e+12 -2.52116e+12 -2.51115e+12 -2.50592e+12 -2.50546e+12 -2.50958e+12 -2.51778e+12 -2.52933e+12 -2.54362e+12 -2.56027e+12 -2.57861e+12 -2.59756e+12 -2.61646e+12 -2.63469e+12 -2.65232e+12 -2.66938e+12 -2.68342e+12 -2.69324e+12 -2.6986e+12 -2.6982e+12 -2.69374e+12 -2.68605e+12 -2.67497e+12 -2.66382e+12 -2.65313e+12 -2.64872e+12 -2.75568e+12 -2.82399e+12 -2.8729e+12 -2.88862e+12 -2.86257e+12 -2.80472e+12 -2.72544e+12 -2.63261e+12 -2.12076e+12 -1.95536e+12 -1.76091e+12 -1.56609e+12 -2.44186e+12 -2.26761e+12 -2.06423e+12 -1.60257e+12 -1.56477e+12 -1.16277e+12 -888335000000.0 -411535000000.0 -360929000000.0 -141096000000.0 -149856000000.0 -404229000000.0 -1.2711e+12 -1.31528e+12 -1.3339e+12 -1.20867e+12 -1.78686e+12 -2.86908e+12 -2.07542e+12 -2.06268e+12 -1.81394e+12 -2.14836e+12 -2.27069e+12 -2.63673e+12 -2.63881e+12 -2.62972e+12 -2.61079e+12 -2.58672e+12 -2.56009e+12 -2.53267e+12 -2.50485e+12 -2.47473e+12 -2.44156e+12 -2.4054e+12 -2.36579e+12 -2.32196e+12 -2.27371e+12 -2.22184e+12 -2.16612e+12 -2.68669e+12 -2.59102e+12 -2.5291e+12 -2.48774e+12 -2.45835e+12 -2.43634e+12 -2.41908e+12 -2.40545e+12 -2.39505e+12 -2.38781e+12 -2.38385e+12 -2.3833e+12 -2.38621e+12 -2.39242e+12 -2.40153e+12 -2.41296e+12 -2.4263e+12 -2.44128e+12 -2.4571e+12 -2.47283e+12 -2.48791e+12 -2.50182e+12 -2.51483e+12 -2.52656e+12 -2.53516e+12 -2.51421e+12 -2.5197e+12 -2.57233e+12 -2.61514e+12 -2.63239e+12 -2.63703e+12 -2.62249e+12 -2.58159e+12 -2.51771e+12 -2.44093e+12 -2.36418e+12 -2.25601e+12 -1.80145e+12 -1.58774e+12 -1.29771e+12 -992941000000.0 -2.17198e+12 -1.99863e+12 -1.81885e+12 -1.67922e+12 -1.27982e+12 -1.20759e+12 -503784000000.0 -277071000000.0 -133931000000.0 -151061000000.0 -401457000000.0 -929527000000.0 -1.27484e+12 -1.16707e+12 -861546000000.0 -1.58325e+12 -1.93816e+12 -1.58934e+12 -1.79271e+12 -1.91972e+12 -2.0152e+12 -2.34249e+12 -2.38356e+12 -2.40766e+12 -2.4198e+12 -2.42142e+12 -2.41392e+12 -2.39958e+12 -2.3819e+12 -2.3625e+12 -2.33976e+12 -2.31293e+12 -2.28327e+12 -2.25164e+12 -2.10083e+12 -2.00905e+12 -1.79639e+12 -2.23756e+12 -2.27642e+12 -2.2842e+12 -2.28152e+12 -2.27653e+12 -2.2712e+12 -2.26614e+12 -2.26188e+12 -2.25889e+12 -2.25753e+12 -2.25815e+12 -2.26099e+12 -2.26613e+12 -2.27351e+12 -2.28278e+12 -2.29351e+12 -2.30545e+12 -2.31831e+12 -2.54045e+12 -2.54168e+12 -2.53812e+12 -2.53232e+12 -2.5251e+12 -2.51803e+12 -2.40402e+12 -2.36711e+12 -2.3069e+12 -2.21762e+12 -2.19718e+12 -2.10184e+12 -1.97237e+12 -1.19601e+12 -609822000000.0 -1.49272e+12 -1.37665e+12 -1.30459e+12 -922641000000.0 -776137000000.0 -112551000000.0 -977159000000.0 -993804000000.0 -851541000000.0 -519748000000.0 -614972000000.0 -1.41151e+12 -1.92391e+12 -1.83941e+12 -2.07054e+12 -2.12295e+12 -2.16538e+12 -2.19555e+12 -2.21697e+12 -2.22915e+12 -2.23092e+12 -2.22554e+12 -2.21671e+12 -2.21834e+12 -2.18374e+12 -2.14895e+12 -2.11534e+12 -2.08154e+12 -2.04095e+12 -1.97573e+12 -1.68311e+12 -1.95244e+12 -2.0411e+12 -2.08113e+12 -2.10074e+12 -2.1116e+12 -2.1179e+12 -2.12173e+12 -2.12446e+12 -2.12699e+12 -2.33127e+12 -2.34364e+12 -2.35492e+12 -2.36471e+12 -2.37334e+12 -2.3801e+12 -2.38407e+12 -2.38562e+12 -2.38395e+12 -2.37918e+12 -2.37354e+12 -2.36844e+12 -2.36608e+12 -2.37165e+12 -2.39799e+12 -2.4232e+12 -2.43182e+12 -2.42356e+12 -2.12163e+12 -2.02912e+12 -2.07711e+12 -1.97313e+12 -1.85412e+12 -1.7079e+12 -1.50622e+12 -1.88206e+12 -1.64804e+12 -1.00512e+12 -897178000000.0 -1.00829e+12 -486926000000.0 -134496000000.0 -370189000000.0 -498463000000.0 -1.31824e+12 -451870000000.0 -853348000000.0 -1.82618e+12 -1.85065e+12 -1.8555e+12 -1.91516e+12 -1.96003e+12 -1.99346e+12 -2.02735e+12 -2.20295e+12 -2.18289e+12 -2.15949e+12 -2.13461e+12 -2.1096e+12 -2.08555e+12 -2.06372e+12 -2.04625e+12 -2.03601e+12 -2.03518e+12 -2.04982e+12 -2.11099e+12 -1.55241e+12 -2.12995e+12 -2.1338e+12 -2.13884e+12 -2.14522e+12 -2.15292e+12 -2.16168e+12 -2.17119e+12 -2.18133e+12 -2.19175e+12 -2.20168e+12 -2.21064e+12 -2.21821e+12 -2.22422e+12 -2.22878e+12 -2.23118e+12 -2.23138e+12 -2.22996e+12 -2.22639e+12 -2.22131e+12 -2.21658e+12 -2.2139e+12 -2.21681e+12 -2.22946e+12 -2.24203e+12 -2.24478e+12 -2.23423e+12 -2.21149e+12 -2.1757e+12 -1.95253e+12 -1.85709e+12 -1.74736e+12 -1.62357e+12 -1.46619e+12 -1.26837e+12 -932880000000.0 -1.82111e+12 -1.24435e+12 -1.02253e+12 -880820000000.0 -729188000000.0 -180087000000.0 -882657000000.0 -898341000000.0 -717770000000.0 -859467000000.0 -2.27177e+12 -1.84454e+12 -1.67546e+12 -1.64902e+12 -1.6939e+12 -1.6543e+12 -1.72324e+12 -2.04988e+12 -2.06252e+12 -2.06872e+12 -2.06611e+12 -2.05147e+12 -2.03321e+12 -2.01401e+12 -1.99542e+12 -1.97917e+12 -1.96684e+12 -1.96039e+12 -1.96311e+12 -1.97973e+12 -2.01761e+12 -2.09591e+12 -2.19864e+12 -1.76503e+12 -1.85659e+12 -1.90831e+12 -1.94008e+12 -1.96075e+12 -1.97476e+12 -1.98477e+12 -1.99242e+12 -1.9988e+12 -2.00464e+12 -2.01049e+12 -2.01668e+12 -2.0234e+12 -2.03071e+12 -2.03839e+12 -2.04626e+12 -2.05424e+12 -2.06198e+12 -2.06885e+12 -2.07447e+12 -2.07855e+12 -2.08107e+12 -2.08194e+12 -2.08069e+12 -2.07782e+12 -2.074e+12 -2.0692e+12 -2.06408e+12 -2.06037e+12 -2.05994e+12 -2.0645e+12 -2.06915e+12 -2.06646e+12 -2.05509e+12 -2.03371e+12 -2.00294e+12 -1.95855e+12 -1.88651e+12 -1.53842e+12 -1.424e+12 -1.29505e+12 -1.13205e+12 -1.42168e+12 -1.36797e+12 -986566000000.0 -754451000000.0 -590310000000.0 -480889000000.0 -159184000000.0 -177867000000.0 -501731000000.0 -655218000000.0 -1.29849e+12 -1.38406e+12 -1.35135e+12 -1.54891e+12 -1.52708e+12 -1.33352e+12 -1.46931e+12 -1.54943e+12 -1.76121e+12 -1.79395e+12 -1.84886e+12 -1.88825e+12 -1.91844e+12 -1.93398e+12 -1.92176e+12 -1.9051e+12 -1.88934e+12 -1.87553e+12 -1.86488e+12 -1.8591e+12 -1.85992e+12 -1.86984e+12 -1.89299e+12 -1.93534e+12 -1.43621e+12 -1.61844e+12 -1.70262e+12 -1.75787e+12 -1.79533e+12 -1.82147e+12 -1.84024e+12 -1.85421e+12 -1.86501e+12 -1.87373e+12 -1.88118e+12 -1.88793e+12 -1.89433e+12 -1.90064e+12 -1.90692e+12 -1.91306e+12 -1.91895e+12 -1.92453e+12 -1.92944e+12 -1.93324e+12 -1.93566e+12 -1.9365e+12 -1.93581e+12 -1.93341e+12 -1.92916e+12 -1.92372e+12 -1.91783e+12 -1.91178e+12 -1.90651e+12 -1.90319e+12 -1.90266e+12 -1.902e+12 -1.89667e+12 -1.8815e+12 -1.86226e+12 -1.83524e+12 -1.80291e+12 -1.74984e+12 -1.79121e+12 -1.73269e+12 -1.6398e+12 -1.26621e+12 -1.1908e+12 -1.28594e+12 -954711000000.0 -757468000000.0 -443276000000.0 -756470000000.0 -86818800000.0 -605008000000.0 -386961000000.0 -786560000000.0 -1.29154e+12 -1.50101e+12 -1.23931e+12 -1.49966e+12 -1.53857e+12 -1.5593e+12 -1.58251e+12 -1.69143e+12 -1.76653e+12 -1.81532e+12 -1.79743e+12 -1.77771e+12 -1.7613e+12 -1.74984e+12 -2.00619e+12 -2.10822e+12 -2.20593e+12 -1.32698e+12 -1.49314e+12 -1.56942e+12 -1.62394e+12 -1.66319e+12 -1.69184e+12 -1.71309e+12 -1.72915e+12 -1.74151e+12 -1.75125e+12 -1.75917e+12 -1.76583e+12 -1.77164e+12 -1.77686e+12 -1.78161e+12 -1.69151e+12 -1.6685e+12 -1.64019e+12 -1.61941e+12 -1.62623e+12 -1.59771e+12 -1.52319e+12 -1.4408e+12 -1.3534e+12 -1.26313e+12 -623052000000.0 -460999000000.0 -619590000000.0 -230816000000.0 -105192000000.0 -269662000000.0 -1.14157e+12 -843364000000.0 -1.237e+12 -1.36579e+12 -1.40676e+12 -1.34112e+12 -1.34451e+12 -1.33928e+12 -1.31327e+12 -1.61913e+12 -1.74709e+12 -1.74301e+12 -1.74163e+12 -1.74706e+12 -1.761e+12 -1.78626e+12 -1.827e+12 -1.88836e+12 -1.97267e+12 -2.07791e+12 -2.16192e+12 -1.22886e+12 -1.38274e+12 -1.45116e+12 -1.78583e+12 -1.78946e+12 -1.79245e+12 -1.7945e+12 -1.7953e+12 -1.79463e+12 -1.79242e+12 -1.78874e+12 -1.78347e+12 -1.77667e+12 -1.76895e+12 -1.76096e+12 -1.75338e+12 -1.74704e+12 -1.7425e+12 -1.73846e+12 -1.73196e+12 -1.71941e+12 -1.49472e+12 -1.46398e+12 -1.4546e+12 -1.39621e+12 -1.32948e+12 -1.25918e+12 -1.19166e+12 -1.14011e+12 -1.14945e+12 -1.17998e+12 -956516000000.0 -554272000000.0 -96665300000.0 -55780300000.0 -402276000000.0 -436562000000.0 -968220000000.0 -1.42537e+12 -1.19364e+12 -1.24579e+12 -1.24455e+12 -1.1802e+12 -1.13443e+12 -1.68496e+12 -1.65072e+12 -1.62949e+12 -1.61801e+12 -1.61364e+12 -1.61538e+12 -1.62383e+12 -1.64e+12 -1.66561e+12 -1.70323e+12 -1.75595e+12 -1.82533e+12 -1.91079e+12 -2.01112e+12 -2.07531e+12 -1.50268e+12 -1.54132e+12 -1.57034e+12 -1.5922e+12 -1.60871e+12 -1.62124e+12 -1.63078e+12 -1.63814e+12 -1.64387e+12 -1.64838e+12 -1.65198e+12 -1.65478e+12 -1.65677e+12 -1.65794e+12 -1.65823e+12 -1.65743e+12 -1.65529e+12 -1.65166e+12 -1.64654e+12 -1.64004e+12 -1.63213e+12 -1.62297e+12 -1.61297e+12 -1.60263e+12 -1.59281e+12 -1.58391e+12 -1.57607e+12 -1.56894e+12 -1.55939e+12 -1.5442e+12 -1.49087e+12 -1.48698e+12 -1.26493e+12 -1.20883e+12 -1.14881e+12 -1.09093e+12 -1.04591e+12 -1.03423e+12 -1.02614e+12 -992036000000.0 -623980000000.0 -321198000000.0 -232256000000.0 -474773000000.0 -424899000000.0 -848700000000.0 -979036000000.0 -1.23388e+12 -1.32922e+12 -1.12137e+12 -1.11776e+12 -1.06765e+12 -1.04507e+12 -931301000000.0 -1.8895e+12 -1.60675e+12 -1.52545e+12 -1.49132e+12 -1.47779e+12 -1.47569e+12 -1.48061e+12 -1.49169e+12 -1.50943e+12 -1.5348e+12 -1.56938e+12 -1.61504e+12 -1.67284e+12 -1.7426e+12 -1.82301e+12 -1.91215e+12 -1.95442e+12 -1.14133e+12 -1.28286e+12 -1.3439e+12 -1.39137e+12 -1.42784e+12 -1.45559e+12 -1.47647e+12 -1.49201e+12 -1.50343e+12 -1.51171e+12 -1.51761e+12 -1.52168e+12 -1.52434e+12 -1.52587e+12 -1.52638e+12 -1.52592e+12 -1.52448e+12 -1.522e+12 -1.51835e+12 -1.51334e+12 -1.50686e+12 -1.49897e+12 -1.48976e+12 -1.47933e+12 -1.46778e+12 -1.4552e+12 -1.44193e+12 -1.42865e+12 -1.4152e+12 -1.4041e+12 -1.39788e+12 -1.39349e+12 -1.40115e+12 -1.3171e+12 -1.36968e+12 -1.31388e+12 -1.312e+12 -977150000000.0 -932652000000.0 -908502000000.0 -905082000000.0 -857107000000.0 -654317000000.0 -345965000000.0 -358784000000.0 -62228700000.0 -39423200000.0 -275813000000.0 -382704000000.0 -1.09935e+12 -1.22592e+12 -1.23768e+12 -1.01495e+12 -1.0267e+12 -839608000000.0 -547037000000.0 -1.30257e+12 -1.33049e+12 -1.32434e+12 -1.32271e+12 -1.32776e+12 -1.33755e+12 -1.3518e+12 -1.3712e+12 -1.39652e+12 -1.06238e+12 -1.19091e+12 -1.24518e+12 -1.28803e+12 -1.32116e+12 -1.34628e+12 -1.36481e+12 -1.37807e+12 -1.38726e+12 -1.39335e+12 -1.39705e+12 -1.39889e+12 -1.39924e+12 -1.39835e+12 -1.39633e+12 -1.39323e+12 -1.38906e+12 -1.38378e+12 -1.37729e+12 -1.36948e+12 -1.25887e+12 -1.23833e+12 -1.22431e+12 -1.2246e+12 -1.23623e+12 -1.27386e+12 -1.21908e+12 -1.16975e+12 -1.16653e+12 -1.13135e+12 -1.0821e+12 -1.02943e+12 -403481000000.0 -345896000000.0 -115213000000.0 -173358000000.0 -531036000000.0 -680481000000.0 -1.15872e+12 -1.18317e+12 -980587000000.0 -870482000000.0 -843819000000.0 -371541000000.0 -1.14098e+12 -1.15453e+12 -1.15947e+12 -1.42863e+12 -1.46881e+12 -1.51785e+12 -1.57568e+12 -1.64122e+12 -1.71253e+12 -1.7869e+12 -1.80811e+12 -990307000000.0 -1.10549e+12 -1.15339e+12 -1.1911e+12 -1.21993e+12 -1.24117e+12 -1.25608e+12 -1.26588e+12 -1.36027e+12 -1.34973e+12 -1.33797e+12 -1.32511e+12 -1.31106e+12 -1.29538e+12 -1.27772e+12 -1.11364e+12 -1.15883e+12 -1.03128e+12 -1.02031e+12 -1.00171e+12 -957069000000.0 -908956000000.0 -858001000000.0 -810753000000.0 -776580000000.0 -762372000000.0 -800272000000.0 -564041000000.0 -326206000000.0 -45045000000.0 -381466000000.0 -621234000000.0 -528035000000.0 -1.15755e+12 -893394000000.0 -862236000000.0 -728294000000.0 -420523000000.0 -354974000000.0 -334364000000.0 -1.17163e+12 -1.18706e+12 -1.20547e+12 -1.22699e+12 -1.25277e+12 -1.28325e+12 -1.31929e+12 -1.36168e+12 -1.41052e+12 -1.46506e+12 -1.52362e+12 -1.58378e+12 -1.64227e+12 -1.64525e+12 -1.27184e+12 -1.27496e+12 -1.27591e+12 -1.27508e+12 -1.27279e+12 -1.26921e+12 -1.26446e+12 -1.25859e+12 -1.2516e+12 -1.24348e+12 -1.23419e+12 -1.22366e+12 -1.21188e+12 -1.19893e+12 -1.18492e+12 -1.16988e+12 -1.15314e+12 -1.13303e+12 -1.10847e+12 -1.08181e+12 -1.04726e+12 -1.02161e+12 -1.08031e+12 -868856000000.0 -837345000000.0 -793373000000.0 -740424000000.0 -685812000000.0 -638787000000.0 -602139000000.0 -578316000000.0 -561739000000.0 -367419000000.0 -74532700000.0 -171563000000.0 -421654000000.0 -584195000000.0 -466699000000.0 -1.0926e+12 -1.10024e+12 -1.115e+12 -793687000000.0 -840912000000.0 -536005000000.0 -346101000000.0 -226558000000.0 -947549000000.0 -982291000000.0 -1.00648e+12 -1.02951e+12 -1.05385e+12 -1.07809e+12 -1.10487e+12 -1.13473e+12 -1.16791e+12 -1.2053e+12 -1.24723e+12 -1.29341e+12 -1.34276e+12 -1.39314e+12 -1.44187e+12 -1.48537e+12 -1.474e+12 -923934000000.0 -1.02581e+12 -1.06737e+12 -1.09932e+12 -1.12285e+12 -1.13896e+12 -1.14905e+12 -1.15435e+12 -1.15629e+12 -1.15589e+12 -1.15364e+12 -1.14983e+12 -1.14464e+12 -1.1382e+12 -1.13057e+12 -1.12179e+12 -1.11191e+12 -1.10095e+12 -1.08893e+12 -1.07586e+12 -1.06182e+12 -1.04688e+12 -1.03115e+12 -1.01435e+12 -994399000000.0 -968625000000.0 -934525000000.0 -898847000000.0 -836508000000.0 -943393000000.0 -980619000000.0 -1.01108e+12 -955950000000.0 -896445000000.0 -631552000000.0 -568889000000.0 -459932000000.0 -416061000000.0 -392935000000.0 -388193000000.0 -207669000000.0 -115943000000.0 -60635500000.0 -193874000000.0 -437270000000.0 -939508000000.0 -1.0091e+12 -1.16372e+12 -795918000000.0 -426330000000.0 -159750000000.0 -254532000000.0 -771840000000.0 -830561000000.0 -864131000000.0 -899204000000.0 -926699000000.0 -954231000000.0 -983892000000.0 -1.0155e+12 -1.04924e+12 -1.08595e+12 -1.12561e+12 -1.16782e+12 -1.21127e+12 -1.25356e+12 -1.29198e+12 -1.32282e+12 -1.30133e+12 -862512000000.0 -951385000000.0 -986140000000.0 -1.01147e+12 -1.02843e+12 -1.03814e+12 -1.04238e+12 -1.04247e+12 -1.03985e+12 -1.03552e+12 -1.02975e+12 -1.02273e+12 -1.01445e+12 -1.00503e+12 -994373000000.0 -982573000000.0 -969739000000.0 -955972000000.0 -941383000000.0 -926115000000.0 -910315000000.0 -894097000000.0 -877352000000.0 -859310000000.0 -836536000000.0 -805875000000.0 -755727000000.0 -750066000000.0 -781923000000.0 -840821000000.0 -864528000000.0 -827907000000.0 -808313000000.0 -754102000000.0 -724816000000.0 -685865000000.0 -504257000000.0 -172824000000.0 -123514000000.0 -58668700000.0 -342528000000.0 -396416000000.0 -402038000000.0 -403163000000.0 -733661000000.0 -934598000000.0 -332788000000.0 -341480000000.0 -195892000000.0 -181544000000.0 -641452000000.0 -689004000000.0 -743016000000.0 -805763000000.0 -881837000000.0 -908855000000.0 -926119000000.0 -934833000000.0 -937101000000.0 -934823000000.0 -929528000000.0 -921940000000.0 -913245000000.0 -903788000000.0 -685488000000.0 -719418000000.0 -688248000000.0 -695306000000.0 -674830000000.0 -626509000000.0 -593019000000.0 -537158000000.0 -458692000000.0 -390297000000.0 -321802000000.0 -317281000000.0 -281079000000.0 -245473000000.0 -59040100000.0 -210827000000.0 -291878000000.0 -340754000000.0 -360422000000.0 -378423000000.0 -1.39238e+12 -107383000000.0 -266350000000.0 -269777000000.0 -168469000000.0 -150799000000.0 -775806000000.0 -804161000000.0 -832161000000.0 -862414000000.0 -893836000000.0 -926423000000.0 -961072000000.0 -997525000000.0 -1.03544e+12 -1.07332e+12 -1.10872e+12 -1.13897e+12 -1.16042e+12 -1.13288e+12 -893259000000.0 -881941000000.0 -869364000000.0 -855506000000.0 -840574000000.0 -824780000000.0 -808316000000.0 -791451000000.0 -774522000000.0 -757731000000.0 -741015000000.0 -723908000000.0 -706995000000.0 -685826000000.0 -658164000000.0 -638463000000.0 -690994000000.0 -560410000000.0 -544307000000.0 -515849000000.0 -469431000000.0 -380663000000.0 -275188000000.0 -250796000000.0 -233970000000.0 -229561000000.0 -129747000000.0 -75412600000.0 -86018500000.0 -74453100000.0 -114127000000.0 -173377000000.0 -260751000000.0 -449938000000.0 -714839000000.0 -749843000000.0 -134736000000.0 -312518000000.0 -204920000000.0 -192506000000.0 -470200000000.0 -586659000000.0 -624658000000.0 -656616000000.0 -683341000000.0 -709817000000.0 -739067000000.0 -768675000000.0 -799067000000.0 -830912000000.0 -864039000000.0 -898148000000.0 -931611000000.0 -962174000000.0 -987309000000.0 -1.00317e+12 -972841000000.0 -754060000000.0 -816906000000.0 -834214000000.0 -840855000000.0 -839958000000.0 -834302000000.0 -825574000000.0 -815062000000.0 -801826000000.0 -788525000000.0 -774964000000.0 -761204000000.0 -746771000000.0 -730791000000.0 -713540000000.0 -695384000000.0 -676665000000.0 -657719000000.0 -639026000000.0 -621088000000.0 -604105000000.0 -587375000000.0 -569898000000.0 -559227000000.0 -546434000000.0 -548266000000.0 -566480000000.0 -587413000000.0 -584270000000.0 -558982000000.0 -561489000000.0 -353175000000.0 -140400000000.0 -136400000000.0 -30223100000.0 -33954800000.0 -28792100000.0 -53407100000.0 -281085000000.0 -276921000000.0 -218455000000.0 -467118000000.0 -396512000000.0 -693899000000.0 -369121000000.0 -117652000000.0 -70281900000.0 -493389000000.0 -487674000000.0 -511919000000.0 -539611000000.0 -561106000000.0 -585718000000.0 -612556000000.0 -639311000000.0 -666937000000.0 -695878000000.0 -726270000000.0 -757716000000.0 -788703000000.0 -817459000000.0 -841283000000.0 -855647000000.0 -824594000000.0 -708080000000.0 -755550000000.0 -758807000000.0 -752477000000.0 -741320000000.0 -728894000000.0 -714613000000.0 -698638000000.0 -679171000000.0 -660306000000.0 -642775000000.0 -626547000000.0 -608538000000.0 -588815000000.0 -567928000000.0 -546460000000.0 -524948000000.0 -503895000000.0 -483810000000.0 -465754000000.0 -449327000000.0 -432212000000.0 -409663000000.0 -426643000000.0 -450254000000.0 -464754000000.0 -459492000000.0 -479938000000.0 -450630000000.0 -448323000000.0 -441031000000.0 -438386000000.0 -423372000000.0 -428905000000.0 -168983000000.0 -101626000000.0 -162559000000.0 -16981400000.0 -15177500000.0 -115846000000.0 -191285000000.0 -210304000000.0 -221497000000.0 -197408000000.0 -284551000000.0 -240563000000.0 -280601000000.0 -360617000000.0 -193483000000.0 -156459000000.0 -221719000000.0 -227127000000.0 -157752000000.0 -183975000000.0 -332656000000.0 -360752000000.0 -393037000000.0 -667765000000.0 -693265000000.0 -677107000000.0 -655529000000.0 -638623000000.0 -621336000000.0 -602712000000.0 -578680000000.0 -555095000000.0 -527109000000.0 -507943000000.0 -488907000000.0 -357678000000.0 -357870000000.0 -356055000000.0 -341816000000.0 -351475000000.0 -338570000000.0 -319190000000.0 -315760000000.0 -314984000000.0 -348055000000.0 -93365600000.0 -51135600000.0 -78675400000.0 -67123500000.0 -51429800000.0 -34499000000.0 -36289200000.0 -204773000000.0 -184381000000.0 -159899000000.0 -152783000000.0 -205827000000.0 -155624000000.0 -137858000000.0 -45414500000.0 -91962200000.0 -95376500000.0 -417321000000.0 -436156000000.0 -458602000000.0 -482048000000.0 -505399000000.0 -529867000000.0 -556322000000.0 -585090000000.0 -615669000000.0 -647214000000.0 -678289000000.0 -705547000000.0 -723114000000.0 -692649000000.0 -466699000000.0 -442714000000.0 -417932000000.0 -393204000000.0 -369168000000.0 -346469000000.0 -325488000000.0 -308498000000.0 -295086000000.0 -274685000000.0 -248003000000.0 -341647000000.0 -240199000000.0 -170643000000.0 -232054000000.0 -276049000000.0 -237311000000.0 -103357000000.0 -96670700000.0 -83260100000.0 -68867400000.0 -50957100000.0 -34511400000.0 -17564200000.0 -10756600000.0 -91611100000.0 -142624000000.0 -120221000000.0 -117537000000.0 -200435000000.0 -391330000000.0 -271282000000.0 -259320000000.0 -275108000000.0 -292937000000.0 -309469000000.0 -327956000000.0 -346805000000.0 -366359000000.0 -387701000000.0 -412399000000.0 -440941000000.0 -473385000000.0 -509877000000.0 -549002000000.0 -586369000000.0 -613249000000.0 -584645000000.0 -629519000000.0 -620055000000.0 -573830000000.0 -553557000000.0 -533536000000.0 -512805000000.0 -486404000000.0 -459092000000.0 -425105000000.0 -389784000000.0 -371743000000.0 -347621000000.0 -320037000000.0 -291124000000.0 -262205000000.0 -234192000000.0 -208242000000.0 -184502000000.0 -160943000000.0 -153132000000.0 -149205000000.0 -143150000000.0 -164144000000.0 -240081000000.0 -248703000000.0 -246469000000.0 -238482000000.0 -239296000000.0 -249333000000.0 -125150000000.0 -9035750000.0 -9035750000.0 -92228200000.0 -93754600000.0 -101359000000.0 -117438000000.0 -120330000000.0 -92370500000.0 -105763000000.0 -82878000000.0 -173438000000.0 -145273000000.0 -163917000000.0 -105768000000.0 -125482000000.0 -107379000000.0 -86525500000.0 -166439000000.0 -148786000000.0 -149749000000.0 -158994000000.0 -171678000000.0 -184817000000.0 -198665000000.0 -213832000000.0 -232336000000.0 -256171000000.0 -286483000000.0 -324959000000.0 -372941000000.0 -429155000000.0 -487367000000.0 -534140000000.0 -512075000000.0 -578141000000.0 -481477000000.0 -465920000000.0 -447494000000.0 -425610000000.0 -398938000000.0 -370464000000.0 -332489000000.0 -285650000000.0 -221427000000.0 -172928000000.0 -143660000000.0 -121652000000.0 -103783000000.0 -88316200000.0 -74686700000.0 -62296500000.0 -52480000000.0 -55624200000.0 -56168000000.0 -53827300000.0 -56282500000.0 -70464700000.0 -131181000000.0 -135259000000.0 -132053000000.0 -134492000000.0 -136414000000.0 -135539000000.0 -144865000000.0 -85857000000.0 -92867100000.0 -65790000000.0 -10654600000.0 -9035750000.0 -9308660000.0 -9035750000.0 -9035750000.0 -9035750000.0 -9035740000.0 -32202900000.0 -29748000000.0 -27469500000.0 -26561200000.0 -43010400000.0 -9035750000.0 -22352400000.0 -9996590000.0 -18950800000.0 -20112900000.0 -44467600000.0 -45750800000.0 -50180400000.0 -86484900000.0 -93200000000.0 -94744500000.0 -104649000000.0 -85711200000.0 -84865800000.0 -71900500000.0 -28576300000.0 -19940400000.0 -16775100000.0 -13004700000.0 -9035750000.0 -9035750000.0 -28730500000.0 -29020500000.0 -15919200000.0 -25344900000.0 -25743500000.0 -23511900000.0 -53834800000.0 -49338800000.0 -47909900000.0 -49093000000.0 -50178400000.0 -51005000000.0 -51696400000.0 -52284200000.0 -53036800000.0 -53801300000.0 -54440500000.0 -55064800000.0 -55847900000.0 -56933300000.0 -58193300000.0 -60711300000.0 -67507700000.0 -53846700000.0 -58370500000.0 -64420000000.0 -69026800000.0 -76067100000.0 -71420000000.0 -54300700000.0 -45003600000.0 -40325800000.0 -38936800000.0 -39460700000.0 -40977000000.0 -42623500000.0 -43769100000.0 -42060500000.0 -41901700000.0 -39757500000.0 -35514600000.0 -30262800000.0 -27646600000.0 -55473700000.0 -68383500000.0 -79029300000.0 -43860600000.0 -36190900000.0 
SCALARS Shear_Stress float 1
LOOKUP_TABLE default
27874800000.0 34472100000.0 1218170000.0 48998300000.0 49797400000.0 39096400000.0 42417200000.0 26585800000.0 60355400000.0 23191800000.0 51761500000.0 35618000000.0 66591900000.0 9320060000.0 42299700000.0 55056600000.0 36468500000.0 72487300000.0 9268140000.0 31223900000.0 8726510000.0 1545480000.0 68325500000.0 139910000000.0 171318000000.0 1774070000.0 7032960000.0 34421600000.0 16301100000.0 138087000000.0 60574900000.0 24276500000.0 10281100000.0 3943290000.0 67947800000.0 43610200000.0 19378100000.0 12017800000.0 11138100000.0 41279900000.0 120120000000.0 181859000000.0 215470000000.0 73017300000.0 82235300000.0 61871800000.0 30775100000.0 131422000000.0 7599410000.0 34261600000.0 3096010000.0 13094800000.0 49743100000.0 46159900000.0 87991000000.0 48226900000.0 154499000000.0 89781400000.0 159802000000.0 240238000000.0 226225000000.0 253669000000.0 234400000000.0 223294000000.0 59658400000.0 122477000000.0 164009000000.0 42942400000.0 21802100000.0 7725560000.0 67611400000.0 26732200000.0 67569100000.0 113409000000.0 193584000000.0 231015000000.0 220374000000.0 253797000000.0 228967000000.0 210321000000.0 214441000000.0 71910900000.0 102226000000.0 4552920000.0 110450000000.0 152489000000.0 129181000000.0 219662000000.0 284837000000.0 225079000000.0 13918000000.0 98446100000.0 103546000000.0 120404000000.0 185273000000.0 318683000000.0 372777000000.0 301435000000.0 241113000000.0 212159000000.0 43036700000.0 75358300000.0 49963600000.0 157379000000.0 231884000000.0 12764300000.0 135908000000.0 148702000000.0 138287000000.0 177834000000.0 237563000000.0 291040000000.0 286760000000.0 353258000000.0 277221000000.0 223819000000.0 200095000000.0 120452000000.0 132395000000.0 120254000000.0 219795000000.0 288536000000.0 203184000000.0 227489000000.0 173755000000.0 189981000000.0 175197000000.0 209676000000.0 251917000000.0 270647000000.0 200851000000.0 202756000000.0 236148000000.0 335960000000.0 279612000000.0 247556000000.0 215428000000.0 201853000000.0 176947000000.0 5680610000.0 41772500000.0 214820000000.0 260585000000.0 290212000000.0 96018300000.0 280876000000.0 493611000000.0 341727000000.0 399432000000.0 303668000000.0 227041000000.0 202110000000.0 221307000000.0 207862000000.0 170902000000.0 255214000000.0 234631000000.0 179827000000.0 41027900000.0 21041800000.0 372022000000.0 609582000000.0 533937000000.0 621941000000.0 512039000000.0 398940000000.0 290464000000.0 216428000000.0 203206000000.0 200908000000.0 165136000000.0 194791000000.0 233592000000.0 190031000000.0 141329000000.0 293124000000.0 566520000000.0 243315000000.0 587098000000.0 493199000000.0 374488000000.0 328140000000.0 256168000000.0 216867000000.0 200971000000.0 179097000000.0 186567000000.0 155131000000.0 163076000000.0 136602000000.0 155200000000.0 169655000000.0 207837000000.0 192551000000.0 196718000000.0 146185000000.0 141098000000.0 89412200000.0 99301700000.0 34115300000.0 296658000000.0 485369000000.0 270424000000.0 448175000000.0 522469000000.0 551615000000.0 538133000000.0 464924000000.0 416767000000.0 256674000000.0 181996000000.0 148172000000.0 120361000000.0 134156000000.0 175198000000.0 153040000000.0 84681900000.0 170782000000.0 116262000000.0 195004000000.0 215757000000.0 39267100000.0 203434000000.0 468682000000.0 571111000000.0 505098000000.0 343257000000.0 194974000000.0 149189000000.0 108687000000.0 98013700000.0 144488000000.0 155672000000.0 90421500000.0 20224400000.0 105469000000.0 13657600000.0 14341900000.0 674041000000.0 576643000000.0 441049000000.0 348079000000.0 225616000000.0 156188000000.0 155417000000.0 123695000000.0 109566000000.0 55968000000.0 66607200000.0 35595500000.0 99107600000.0 108094000000.0 144295000000.0 116714000000.0 105157000000.0 23834200000.0 12777400000.0 63822000000.0 254741000000.0 277347000000.0 94126500000.0 39239200000.0 203865000000.0 161349000000.0 49602700000.0 628103000000.0 584197000000.0 537487000000.0 462692000000.0 150531000000.0 135584000000.0 76395800000.0 9906210000.0 38208600000.0 101926000000.0 51039700000.0 72094100000.0 346980000000.0 436900000000.0 226088000000.0 321429000000.0 231555000000.0 151862000000.0 204322000000.0 70523900000.0 522882000000.0 372863000000.0 108296000000.0 119018000000.0 64580200000.0 2773180000.0 70801500000.0 40024400000.0 66980000000.0 51713900000.0 156170000000.0 255991000000.0 350172000000.0 362518000000.0 286544000000.0 38493500000.0 448900000000.0 412494000000.0 12433000000.0 103226000000.0 141170000000.0 104302000000.0 3582960000.0 112262000000.0 271258000000.0 77925700000.0 130186000000.0 20304100000.0 6094670000.0 6082600000.0 128846000000.0 163053000000.0 240856000000.0 437779000000.0 566056000000.0 364510000000.0 361149000000.0 453178000000.0 432090000000.0 470554000000.0 299328000000.0 127039000000.0 160287000000.0 222145000000.0 65363100000.0 80467500000.0 51497200000.0 464640000000.0 121808000000.0 50654600000.0 243394000000.0 506749000000.0 652736000000.0 443943000000.0 527339000000.0 446992000000.0 341325000000.0 106537000000.0 10318200000.0 181309000000.0 250518000000.0 685671000000.0 163637000000.0 78689100000.0 64157200000.0 113737000000.0 94827700000.0 168636000000.0 88265000000.0 11672500000.0 535724000000.0 51859100000.0 194278000000.0 280559000000.0 696185000000.0 409477000000.0 457008000000.0 524455000000.0 602677000000.0 357609000000.0 135882000000.0 36433600000.0 357170000000.0 28609100000.0 214571000000.0 350139000000.0 235146000000.0 460073000000.0 261203000000.0 59346400000.0 200099000000.0 270699000000.0 205458000000.0 517400000000.0 396795000000.0 500761000000.0 628546000000.0 808117000000.0 616051000000.0 60991500000.0 40556000000.0 243959000000.0 124588000000.0 156511000000.0 373077000000.0 486790000000.0 556472000000.0 718628000.0 136073000000.0 442253000000.0 704829000000.0 409886000000.0 539526000000.0 1.01164e+12 145676000000.0 140722000000.0 25820700000.0 178026000000.0 126197000000.0 7881330000.0 136711000000.0 6331080000.0 53674700000.0 209370000000.0 304799000000.0 444933000000.0 523604000000.0 613086000000.0 622931000000.0 752064000000.0 951030000000.0 988797000000.0 50230200000.0 175120000000.0 14074600000.0 298686000000.0 688450000000.0 345333000000.0 336956000000.0 407404000000.0 370533000000.0 552717000000.0 364962000000.0 254914000000.0 233505000000.0 204321000000.0 48766000000.0 144324000000.0 342359000000.0 541152000000.0 669842000000.0 891902000000.0 906710000000.0 563886000000.0 308780000000.0 268825000000.0 324453000000.0 263461000000.0 684248000000.0 337891000000.0 342233000000.0 277740000000.0 286821000000.0 162953000000.0 136884000000.0 265240000000.0 435017000000.0 585941000000.0 730789000000.0 1.0793e+12 236252000000.0 331951000000.0 512723000000.0 147964000000.0 658117000000.0 181393000000.0 248264000000.0 240109000000.0 324376000000.0 340673000000.0 41063200000.0 657682000000.0 488555000000.0 351995000000.0 275540000000.0 187898000000.0 246671000000.0 232631000000.0 314979000000.0 355203000000.0 401793000000.0 473166000000.0 466416000000.0 631665000000.0 848400000000.0 150463000000.0 475100000000.0 590287000000.0 552089000000.0 64498300000.0 629935000000.0 151114000000.0 288968000000.0 468330000000.0 682027000000.0 44360600000.0 378835000000.0 359569000000.0 297693000000.0 313620000000.0 369774000000.0 406686000000.0 473748000000.0 1.44127e+12 386673000000.0 187532000000.0 484839000000.0 612211000000.0 105889000000.0 135661000000.0 370185000000.0 708157000000.0 112743000000.0 377216000000.0 415903000000.0 365584000000.0 393924000000.0 344013000000.0 370949000000.0 393776000000.0 403799000000.0 672483000000.0 194058000000.0 567612000000.0 92015000000.0 622610000000.0 67200200000.0 67269600000.0 17904800000.0 117311000000.0 50068500000.0 393379000000.0 185556000000.0 621363000000.0 466494000000.0 193755000000.0 323919000000.0 447246000000.0 442221000000.0 398034000000.0 446283000000.0 409842000000.0 436050000000.0 405260000000.0 456367000000.0 483088000000.0 925441000000.0 1.44732e+12 446849000000.0 6428730000.0 389152000000.0 418749000000.0 544821000000.0 200622000000.0 651859000000.0 20552700000.0 57109800000.0 70645200000.0 56163500000.0 303540000000.0 216215000000.0 466663000000.0 492741000000.0 497499000000.0 483200000000.0 477008000000.0 653779000000.0 1.10237e+12 362570000000.0 146334000000.0 383648000000.0 726317000000.0 82582200000.0 41313900000.0 47923700000.0 122637000000.0 138627000000.0 173082000000.0 150415000000.0 267593000000.0 572887000000.0 128373000000.0 491967000000.0 539828000000.0 623967000000.0 557891000000.0 611058000000.0 542369000000.0 520708000000.0 578112000000.0 799356000000.0 115846000000.0 193539000000.0 56979300000.0 193798000000.0 179657000000.0 359072000000.0 165809000000.0 26103800000.0 160546000000.0 192605000000.0 375736000000.0 489595000000.0 827956000000.0 1.00216e+12 696478000000.0 688607000000.0 648671000000.0 579202000000.0 617699000000.0 579300000000.0 640734000000.0 680722000000.0 671328000000.0 732865000000.0 164111000000.0 740380000.0 528103000000.0 847442000000.0 144918000000.0 93396500000.0 156470000000.0 148970000000.0 233283000000.0 294263000000.0 629276000000.0 1.07529e+12 780348000000.0 726987000000.0 677314000000.0 651742000000.0 644375000000.0 475937000000.0 61714800000.0 102211000000.0 128712000000.0 2137780000.0 1.0058e+12 322465000000.0 330546000000.0 72715000000.0 22943300000.0 122824000000.0 100864000000.0 170737000000.0 398501000000.0 783964000000.0 939751000000.0 1.00261e+12 943835000000.0 815525000000.0 831616000000.0 750037000000.0 695127000000.0 650249000000.0 536171000000.0 90149000000.0 152660000000.0 112082000000.0 108739000000.0 667115000000.0 545249000000.0 231586000000.0 77246800000.0 82457800000.0 112592000000.0 242747000000.0 384059000000.0 555351000000.0 744335000000.0 978722000000.0 925312000000.0 833154000000.0 758529000000.0 743804000000.0 686074000000.0 628670000000.0 578088000000.0 430873000000.0 329265000000.0 90457800000.0 169140000000.0 750309000000.0 1.1758e+12 792292000000.0 590588000000.0 472741000000.0 65314600000.0 44321500000.0 26994000000.0 14377400000.0 238661000000.0 575936000000.0 896536000000.0 981023000000.0 913368000000.0 814436000000.0 693001000000.0 514467000000.0 230325000000.0 60624100000.0 112956000000.0 175008000000.0 193350000000.0 158307000000.0 766496000000.0 9035750000.0 1.23074e+12 941793000000.0 218217000000.0 145134000000.0 95592300000.0 433615000000.0 641260000000.0 763742000000.0 904588000000.0 969690000000.0 999894000000.0 975953000000.0 955684000000.0 889609000000.0 843030000000.0 766935000000.0 599104000000.0 352038000000.0 8056750000.0 200622000000.0 159620000000.0 1.13737e+12 775800000000.0 821901000000.0 967177000000.0 1.08823e+12 183142000000.0 218263000000.0 58741000000.0 185907000000.0 305179000000.0 534265000000.0 817691000000.0 983750000000.0 999112000000.0 911913000000.0 769688000000.0 686134000000.0 575191000000.0 465344000000.0 300010000000.0 157765000000.0 53829600000.0 158920000000.0 237929000000.0 202801000000.0 127534000000.0 728088000000.0 562291000000.0 581126000000.0 347714000000.0 31397600000.0 486695000000.0 90058400000.0 445785000000.0 737013000000.0 941543000000.0 1.0152e+12 966074000000.0 841850000000.0 674420000000.0 441845000000.0 107306000000.0 230113000000.0 221732000000.0 662925000000.0 9035750000.0 948249000000.0 324360000000.0 825614000000.0 790102000000.0 25847600000.0 389121000000.0 633007000000.0 671866000000.0 846454000000.0 890554000000.0 988380000000.0 1.00858e+12 1.02308e+12 1.00251e+12 945939000000.0 899638000000.0 752174000000.0 659088000000.0 568418000000.0 461567000000.0 290664000000.0 115259000000.0 125114000000.0 328949000000.0 312938000000.0 259145000000.0 48227300000.0 475120000000.0 485323000000.0 407032000000.0 803807000000.0 190863000000.0 80147700000.0 1.09807e+12 800684000000.0 392502000000.0 640623000000.0 820096000000.0 964613000000.0 1.03029e+12 983773000000.0 850101000000.0 806824000000.0 706530000000.0 583075000000.0 353163000000.0 142804000000.0 410474000000.0 37153900000.0 254471000000.0 414507000000.0 189436000000.0 382899000000.0 644111000000.0 807416000000.0 825789000000.0 948439000000.0 1.02847e+12 1.01415e+12 893209000000.0 732117000000.0 625541000000.0 539348000000.0 228122000000.0 75791700000.0 345215000000.0 296787000000.0 361470000000.0 487022000000.0 91937900000.0 143286000000.0 606544000000.0 966103000000.0 169481000000.0 654062000000.0 808939000000.0 946991000000.0 904832000000.0 991440000000.0 951075000000.0 1.02589e+12 1.02441e+12 1.0501e+12 1.03631e+12 935173000000.0 765853000000.0 631887000000.0 618828000000.0 531366000000.0 593034000000.0 642130000000.0 527739000000.0 519122000000.0 174271000000.0 132567000000.0 622086000000.0 192888000000.0 113086000000.0 241988000000.0 226289000000.0 386876000000.0 564399000000.0 912631000000.0 1.03099e+12 1.04493e+12 1.05808e+12 1.0166e+12 977209000000.0 845105000000.0 802689000000.0 650888000000.0 525224000000.0 470900000000.0 827659000000.0 64118300000.0 147885000000.0 140257000000.0 286406000000.0 549341000000.0 228670000000.0 342876000000.0 673771000000.0 1.66733e+12 842051000000.0 238219000000.0 733335000000.0 580672000000.0 881909000000.0 1.03379e+12 1.07374e+12 1.06557e+12 1.04258e+12 896171000000.0 668805000000.0 524440000000.0 461903000000.0 426348000000.0 401520000000.0 210707000000.0 1.22084e+12 686376000000.0 377544000000.0 667856000000.0 832364000000.0 5589550000.0 109511000000.0 215487000000.0 569520000000.0 705374000000.0 804974000000.0 428926000000.0 610271000000.0 434149000000.0 856605000000.0 936907000000.0 1.00644e+12 1.08989e+12 1.09187e+12 1.09164e+12 1.07829e+12 1.05783e+12 1.05587e+12 958099000000.0 699468000000.0 498123000000.0 517145000000.0 438361000000.0 455948000000.0 442219000000.0 384013000000.0 144213000000.0 179583000000.0 291603000000.0 812685000000.0 1.09162e+12 389135000000.0 456856000000.0 397064000000.0 219299000000.0 212311000000.0 582635000000.0 703204000000.0 117279000000.0 81770600000.0 784571000000.0 1.15069e+12 773340000000.0 711769000000.0 1.048e+12 1.1016e+12 1.05365e+12 1.00979e+12 996520000000.0 839218000000.0 742399000000.0 486466000000.0 392176000000.0 428183000000.0 444907000000.0 449013000000.0 473173000000.0 332830000000.0 586364000000.0 419181000000.0 1.61111e+12 927158000000.0 124555000000.0 268920000000.0 283314000000.0 337746000000.0 309912000000.0 290003000000.0 433839000000.0 573555000000.0 574939000000.0 727906000000.0 7987610000.0 362706000000.0 49328500000.0 926711000000.0 1.07937e+12 1.06204e+12 989794000000.0 884435000000.0 461445000000.0 318035000000.0 378894000000.0 499080000000.0 479280000000.0 519253000000.0 632561000000.0 630923000000.0 262945000000.0 597479000000.0 490447000000.0 208112000000.0 113779000000.0 447742000000.0 174993000000.0 52579200000.0 389110000000.0 90274900000.0 267091000000.0 332384000000.0 480955000000.0 493478000000.0 730488000000.0 268820000000.0 105749000000.0 350336000000.0 721075000000.0 109668000000.0 547189000000.0 821854000000.0 997445000000.0 991601000000.0 1.05214e+12 987564000000.0 989790000000.0 889253000000.0 875295000000.0 590187000000.0 202690000000.0 304746000000.0 503966000000.0 560159000000.0 597967000000.0 832585000000.0 150869000000.0 2.24967e+12 300635000000.0 165377000000.0 1.19207e+12 264379000000.0 613416000000.0 556981000000.0 512959000000.0 471732000000.0 504215000000.0 86133600000.0 405404000000.0 419670000000.0 64593000000.0 101655000000.0 83882800000.0 267852000000.0 651129000000.0 423696000000.0 593978000000.0 227911000000.0 473890000000.0 630608000000.0 535109000000.0 853079000000.0 947029000000.0 900822000000.0 664486000000.0 589190000000.0 128302000000.0 14644700000.0 35739300000.0 179928000000.0 464169000000.0 486860000000.0 613698000000.0 605526000000.0 679308000000.0 604899000000.0 592946000000.0 674306000000.0 546755000000.0 675792000000.0 35600100000.0 1.29186e+12 452216000000.0 83694300000.0 604191000000.0 722955000000.0 727380000000.0 597978000000.0 517365000000.0 471180000000.0 138689000000.0 334280000000.0 14493600000.0 5891250000.0 90783600000.0 152102000000.0 220651000000.0 179878000000.0 594048000000.0 183590000000.0 562029000000.0 875153000000.0 1.07108e+12 816549000000.0 829538000000.0 800104000000.0 663756000000.0 816517000000.0 889976000000.0 788086000000.0 202982000000.0 95372900000.0 439593000000.0 620881000000.0 695236000000.0 719687000000.0 361809000000.0 310919000000.0 22069800000.0 179403000000.0 303376000000.0 570542000000.0 707668000000.0 849837000000.0 558380000000.0 510464000000.0 461856000000.0 238684000000.0 38616400000.0 187997000000.0 181762000000.0 289454000000.0 154285000000.0 86326700000.0 19992000000.0 18918300000.0 12946100000.0 793068000000.0 128460000000.0 433593000000.0 125992000000.0 303250000000.0 129975000000.0 371552000000.0 793992000000.0 1.02215e+12 589997000000.0 794809000000.0 797413000000.0 831324000000.0 690590000000.0 203768000000.0 797721000000.0 295779000000.0 454070000000.0 537935000000.0 679840000000.0 627060000000.0 699303000000.0 738353000000.0 691151000000.0 562355000000.0 294661000000.0 623111000000.0 718697000000.0 174559000000.0 268821000000.0 25136900000.0 285049000000.0 812723000000.0 577057000000.0 464041000000.0 515459000000.0 475816000000.0 205549000000.0 59385900000.0 54361400000.0 268370000000.0 277210000000.0 308288000000.0 427763000000.0 100362000000.0 18534200000.0 159683000000.0 425484000000.0 812522000000.0 334468000000.0 8042020000.0 439986000000.0 387287000000.0 56127200000.0 25173700000.0 451448000000.0 896380000000.0 379409000000.0 659667000000.0 801728000000.0 1.15766e+12 497549000000.0 640702000000.0 729583000000.0 706773000000.0 723788000000.0 725068000000.0 702997000000.0 738970000000.0 709721000000.0 415706000000.0 456729000000.0 1.01412e+12 44443400000.0 56807100000.0 445551000000.0 638578000000.0 352334000000.0 3685650000.0 318616000000.0 592199000000.0 296571000000.0 214131000000.0 25922300000.0 460924000000.0 306233000000.0 84825500000.0 111600000000.0 100332000000.0 504269000000.0 237007000000.0 181203000000.0 1.57167e+12 850745000000.0 357889000000.0 223354000000.0 40526800000.0 570956000000.0 1.3816e+12 335671000000.0 362596000000.0 765387000000.0 762156000000.0 1.18583e+12 602622000000.0 517893000000.0 693761000000.0 736884000000.0 685812000000.0 644030000000.0 758656000000.0 742662000000.0 141905000000.0 867876000000.0 472006000000.0 184766000000.0 26843100000.0 47483300000.0 124831000000.0 146055000000.0 425471000000.0 432216000000.0 323043000000.0 219973000000.0 165491000000.0 25320100000.0 311215000000.0 251102000000.0 3677910000.0 295992000000.0 308423000000.0 79926500000.0 11274500000.0 88134300000.0 107381000000.0 37966100000.0 696416000000.0 517617000000.0 70441000000.0 140064000000.0 515648000000.0 209063000000.0 319022000000.0 456175000000.0 255355000000.0 56245900000.0 53330300000.0 1.58282e+12 491634000000.0 562861000000.0 695778000000.0 870798000000.0 759112000000.0 783213000000.0 610464000000.0 513241000000.0 558199000000.0 621943000000.0 658901000000.0 710033000000.0 691449000000.0 709520000000.0 653835000000.0 590468000000.0 422364000000.0 604643000000.0 631426000000.0 391073000000.0 394355000000.0 256151000000.0 98596800000.0 212717000000.0 865016000000.0 716665000000.0 318449000000.0 15102500000.0 615695000000.0 308029000000.0 150483000000.0 81480700000.0 265127000000.0 390648000000.0 311081000000.0 273597000000.0 120884000000.0 94231100000.0 60903100000.0 36101300000.0 33253600000.0 214205000000.0 690592000000.0 888184000000.0 453825000000.0 426333000000.0 799726000000.0 1.3146e+12 979288000000.0 674188000000.0 506250000000.0 417836000000.0 426025000000.0 288158000000.0 989692000000.0 494312000000.0 820155000000.0 462150000000.0 683867000000.0 602259000000.0 620680000000.0 661991000000.0 641711000000.0 590028000000.0 101866000000.0 305776000000.0 100031000000.0 10359700000.0 63527600000.0 4240850000.0 28309900000.0 195943000000.0 235824000000.0 35062000000.0 756743000000.0 38677300000.0 837493000000.0 253980000000.0 124455000000.0 99446400000.0 106909000000.0 118335000000.0 59731600000.0 257320000000.0 197562000000.0 241713000000.0 146928000000.0 85724600000.0 34241000000.0 4270310000.0 213952000000.0 370955000000.0 337867000000.0 69684700000.0 263940000000.0 324767000000.0 410518000000.0 398235000000.0 253668000000.0 109821000000.0 327319000000.0 422625000000.0 371729000000.0 185473000000.0 144266000000.0 433148000000.0 23778200000.0 334537000000.0 577812000000.0 716511000000.0 685441000000.0 624203000000.0 640743000000.0 625274000000.0 571321000000.0 554680000000.0 605304000000.0 556532000000.0 940737000000.0 712737000000.0 260243000000.0 154102000000.0 364171000000.0 375913000000.0 780326000000.0 418760000000.0 10943900000.0 317277000000.0 631708000000.0 1.06811e+12 567364000000.0 623707000000.0 146077000000.0 171684000000.0 191739000000.0 110320000000.0 139425000000.0 181013000000.0 154557000000.0 121474000000.0 77338100000.0 64645500000.0 86863500000.0 323914000000.0 197528000000.0 101306000000.0 101330000000.0 360880000000.0 778528000000.0 773636000000.0 284978000000.0 310016000000.0 394338000000.0 284831000000.0 125576000000.0 355101000000.0 656771000000.0 1.19317e+12 97294700000.0 46504600000.0 715486000000.0 728943000000.0 681193000000.0 659987000000.0 640623000000.0 634922000000.0 633726000000.0 596900000000.0 547962000000.0 412303000000.0 511182000000.0 520859000000.0 435153000000.0 715012000000.0 839346000000.0 242971000000.0 145516000000.0 206542000000.0 353297000000.0 414862000000.0 591167000000.0 186333000000.0 613637000000.0 463722000000.0 130926000000.0 391909000000.0 436150000000.0 164334000000.0 116629000000.0 131592000000.0 341851000000.0 285233000000.0 257799000000.0 85649600000.0 69509900000.0 304923000000.0 228911000000.0 189969000000.0 122924000000.0 70759600000.0 88302800000.0 202589000000.0 126628000000.0 388347000000.0 339000000000.0 227648000000.0 167035000000.0 33458600000.0 549865000000.0 307800000000.0 713794000000.0 183818000000.0 1190720000.0 236316000000.0 342501000000.0 14069000000.0 340972000000.0 280892000000.0 507907000000.0 134626000000.0 840989000000.0 765962000000.0 753458000000.0 692808000000.0 646501000000.0 616078000000.0 535020000000.0 217088000000.0 928533000000.0 118409000000.0 130727000000.0 191193000000.0 26688800000.0 136103000000.0 310664000000.0 429347000000.0 580048000000.0 457116000000.0 127508000000.0 564107000000.0 457154000000.0 3023250000.0 153430000000.0 132641000000.0 82734700000.0 341716000000.0 760163000000.0 412285000000.0 290469000000.0 277669000000.0 286498000000.0 41835500000.0 69446100000.0 4492730000.0 388300000000.0 276795000000.0 226783000000.0 140918000000.0 65274700000.0 147340000000.0 461286000000.0 431525000000.0 172536000000.0 78770700000.0 46799600000.0 436783000000.0 155313000000.0 333812000000.0 363337000000.0 204998000000.0 368207000000.0 578587000000.0 945851000000.0 1.13696e+12 880375000000.0 637199000000.0 1.1472e+12 870641000000.0 629819000000.0 680278000000.0 641502000000.0 645919000000.0 613624000000.0 568333000000.0 500166000000.0 457546000000.0 530960000000.0 140699000000.0 486622000000.0 948976000000.0 40021700000.0 92673400000.0 245306000000.0 380280000000.0 518426000000.0 550721000000.0 488951000000.0 486485000000.0 598692000000.0 481874000000.0 333087000000.0 832218000000.0 875182000000.0 607188000000.0 379918000000.0 268506000000.0 268123000000.0 269410000000.0 321699000000.0 51194400000.0 73417000000.0 115501000000.0 466594000000.0 508206000000.0 389563000000.0 357276000000.0 165815000000.0 81697300000.0 54564700000.0 429739000000.0 1.01048e+12 614615000000.0 380909000000.0 4793440000.0 289133000000.0 1.1627e+12 644379000000.0 89889300000.0 142675000000.0 465990000000.0 427683000000.0 142425000000.0 93465600000.0 544461000000.0 554854000000.0 245661000000.0 212178000000.0 993025000000.0 754058000000.0 526496000000.0 586518000000.0 640844000000.0 588086000000.0 568944000000.0 438011000000.0 437202000000.0 690661000000.0 473837000000.0 960682000000.0 451461000000.0 98241000000.0 116672000000.0 210851000000.0 324554000000.0 440217000000.0 505181000000.0 642893000000.0 769864000000.0 588852000000.0 608983000000.0 719800000000.0 647114000000.0 501582000000.0 448761000000.0 323167000000.0 147075000000.0 196261000000.0 356032000000.0 312248000000.0 100852000000.0 146142000000.0 516282000000.0 506116000000.0 591895000000.0 630564000000.0 518893000000.0 492188000000.0 303027000000.0 262723000000.0 74674200000.0 184748000000.0 129981000000.0 714079000000.0 207560000000.0 229157000000.0 96287600000.0 52946900000.0 440536000000.0 89036400000.0 202960000000.0 46128700000.0 427464000000.0 84832800000.0 83789800000.0 242790000000.0 384831000000.0 151640000000.0 271976000000.0 296876000000.0 1.05308e+12 972002000.0 220405000000.0 628278000000.0 581497000000.0 617440000000.0 116883000000.0 955975000000.0 484583000000.0 370220000000.0 65610700000.0 20087500000.0 141170000000.0 248750000000.0 336271000000.0 380465000000.0 627678000000.0 820452000000.0 1.26361e+12 1.70085e+12 1.50452e+12 741242000000.0 48843200000.0 875413000000.0 477215000000.0 61211500000.0 127427000000.0 76057100000.0 216635000000.0 424019000000.0 366450000000.0 285363000000.0 246222000000.0 126262000000.0 163279000000.0 510193000000.0 628389000000.0 716726000000.0 620744000000.0 474655000000.0 222708000000.0 277095000000.0 14430700000.0 590662000000.0 937431000000.0 650085000000.0 485631000000.0 1435770000.0 380926000000.0 850988000000.0 349257000000.0 10519800000.0 157174000000.0 49043300000.0 192568000000.0 65948500000.0 31206900000.0 122615000000.0 193903000000.0 132191000000.0 1.27355e+12 312535000000.0 17903900000.0 473433000000.0 661892000000.0 429712000000.0 477012000000.0 425052000000.0 502588000000.0 631465000000.0 726267000000.0 783230000000.0 890159000000.0 374119000000.0 133602000000.0 61915700000.0 35819600000.0 110940000000.0 203064000000.0 405402000000.0 349659000000.0 69148500000.0 429811000000.0 439515000000.0 381098000000.0 268024000000.0 12328200000.0 288620000000.0 1.1268e+12 487981000000.0 79355700000.0 25001400000.0 53275400000.0 147461000000.0 443722000000.0 331039000000.0 208074000000.0 128301000000.0 55441700000.0 147813000000.0 164127000000.0 495592000000.0 607412000000.0 628742000000.0 747474000000.0 840388000000.0 735125000000.0 685710000000.0 526309000000.0 393317000000.0 602963000000.0 946795000000.0 258188000000.0 476003000000.0 254717000000.0 773600000000.0 608297000000.0 941196000000.0 870306000000.0 624383000000.0 327317000000.0 172041000000.0 848669000000.0 1.37675e+12 672015000000.0 358060000000.0 184565000000.0 95507900000.0 139131000000.0 433384000000.0 981178000000.0 382128000000.0 690058000000.0 301296000000.0 106733000000.0 1423440000.0 373478000000.0 148892000000.0 434437000000.0 480896000000.0 130155000000.0 95659600000.0 134268000000.0 188332000000.0 285660000000.0 343305000000.0 385615000000.0 379946000000.0 270161000000.0 79867500000.0 102908000000.0 2581460000.0 576186000000.0 717965000000.0 863505000000.0 1.06911e+12 459814000000.0 38785500000.0 48844200000.0 27587700000.0 138077000000.0 33934100000.0 568048000000.0 549266000000.0 370502000000.0 259393000000.0 200246000000.0 205092000000.0 23605600000.0 114191000000.0 470339000000.0 568112000000.0 727625000000.0 857082000000.0 831329000000.0 758475000000.0 472706000000.0 152829000000.0 403721000000.0 603676000000.0 840370000000.0 734706000000.0 532825000000.0 370108000000.0 461054000000.0 460281000000.0 105674000000.0 357143000000.0 928724000000.0 605042000000.0 391300000000.0 250986000000.0 173274000000.0 150034000000.0 47672200000.0 368549000000.0 473063000000.0 930380000000.0 595314000000.0 1.01591e+12 492027000000.0 158645000000.0 60323600000.0 386571000000.0 558860000000.0 126189000000.0 256213000000.0 151963000000.0 149587000000.0 252134000000.0 306728000000.0 362164000000.0 415009000000.0 466587000000.0 532479000000.0 237644000000.0 160693000000.0 180290000000.0 485026000000.0 566851000000.0 536143000000.0 139435000000.0 779168000000.0 167808000000.0 46285800000.0 177399000000.0 245418000000.0 827461000000.0 425087000000.0 265994000000.0 140841000000.0 355297000000.0 437304000000.0 16734600000.0 60858900000.0 386937000000.0 434467000000.0 509898000000.0 593465000000.0 678376000000.0 807988000000.0 960858000000.0 964112000000.0 918326000000.0 414619000000.0 125120000000.0 573231000000.0 1.27268e+12 278124000000.0 684544000000.0 76677300000.0 522314000000.0 737427000000.0 711525000000.0 247425000000.0 472887000000.0 567485000000.0 407927000000.0 284200000000.0 191838000000.0 88713100000.0 54679200000.0 62660800000.0 118272000000.0 1.11312e+12 171550000000.0 814998000000.0 700546000000.0 846779000000.0 710670000000.0 689584000000.0 610974000000.0 822649000000.0 402891000000.0 113847000000.0 97443900000.0 168201000000.0 182560000000.0 226767000000.0 274166000000.0 325166000000.0 381621000000.0 461326000000.0 636478000000.0 1.09048e+12 108908000000.0 29394600000.0 47500900000.0 87231800000.0 203625000000.0 31714600000.0 1.5366e+12 788299000000.0 129299000000.0 90864700000.0 1.23623e+12 708669000000.0 90396000000.0 77364200000.0 486762000000.0 452737000000.0 31998600000.0 62816400000.0 6333980000.0 329288000000.0 436979000000.0 485425000000.0 696949000000.0 831608000000.0 1.10741e+12 1.02819e+12 866902000000.0 314896000000.0 120536000000.0 237594000000.0 143937000000.0 100104000000.0 409267000000.0 455094000000.0 152645000000.0 46615600000.0 468162000000.0 580292000000.0 499778000000.0 278288000000.0 731102000000.0 403694000000.0 289267000000.0 181603000000.0 83525900000.0 102065000000.0 104587000000.0 383636000000.0 377673000000.0 646000000000.0 754404000000.0 718803000000.0 4429510000.0 417426000000.0 168334000000.0 44328100000.0 97573600000.0 36916400000.0 154269000000.0 173729000000.0 208090000000.0 244138000000.0 281363000000.0 322575000000.0 373702000000.0 458670000000.0 604080000000.0 998897000000.0 617178000000.0 381969000000.0 22311200000.0 624669000000.0 309899000000.0 254681000000.0 781757000000.0 88275800000.0 750319000000.0 241844000000.0 165059000000.0 36591800000.0 58590100000.0 9235570000.0 761858000000.0 610826000000.0 604624000000.0 421726000000.0 138377000000.0 168587000000.0 84451300000.0 265373000000.0 358314000000.0 377627000000.0 398145000000.0 540630000000.0 612628000000.0 712082000000.0 1.00436e+12 1.18026e+12 1.1736e+12 870948000000.0 1.51854e+12 171571000000.0 478526000000.0 649116000000.0 546963000000.0 352757000000.0 273509000000.0 424399000000.0 437121000000.0 347134000000.0 281222000000.0 333721000000.0 502126000000.0 624147000000.0 527607000000.0 169320000000.0 108447000000.0 36395900000.0 208219000000.0 183113000000.0 488892000000.0 516107000000.0 1.28349e+12 170087000000.0 1.07682e+12 466819000000.0 968625000000.0 459573000000.0 386497000000.0 253415000000.0 114615000000.0 149147000000.0 185250000000.0 220815000000.0 253602000000.0 282116000000.0 302726000000.0 318657000000.0 317700000000.0 209107000000.0 366422000000.0 1.21754e+12 536814000000.0 200471000000.0 557531000000.0 116937000000.0 303587000000.0 105724000000.0 122222000000.0 284250000000.0 1.32408e+12 866524000000.0 421242000000.0 309453000000.0 199219000000.0 276211000000.0 193877000000.0 213243000000.0 282400000000.0 278214000000.0 265445000000.0 430230000000.0 491143000000.0 843499000000.0 962984000000.0 898314000000.0 1.19601e+12 587197000000.0 420773000000.0 681996000000.0 481812000000.0 990339000000.0 856550000000.0 731692000000.0 578134000000.0 414132000000.0 335557000000.0 356627000000.0 325450000000.0 289677000000.0 297428000000.0 379610000000.0 500657000000.0 559742000000.0 493987000000.0 388830000000.0 275379000000.0 121287000000.0 211442000000.0 389456000000.0 404887000000.0 762677000000.0 830749000000.0 548108000000.0 847465000000.0 526308000000.0 579009000000.0 401872000000.0 140912000000.0 85262500000.0 20557300000.0 99900200000.0 154879000000.0 201464000000.0 240959000000.0 274349000000.0 300651000000.0 317852000000.0 269237000000.0 162790000000.0 461685000000.0 98893000000.0 197990000000.0 204629000000.0 930767000000.0 893207000000.0 852219000000.0 200607000000.0 1.55262e+12 982326000000.0 675773000000.0 357664000000.0 303263000000.0 1.13988e+12 637199000000.0 515024000000.0 378055000000.0 319094000000.0 233870000000.0 188367000000.0 250245000000.0 376537000000.0 433660000000.0 30490400000.0 106723000000.0 143308000000.0 208116000000.0 188633000000.0 246974000000.0 227334000000.0 207624000000.0 613093000000.0 860488000000.0 1.38939e+12 226167000000.0 301936000000.0 397588000000.0 396871000000.0 1.23999e+12 553052000000.0 126522000000.0 461041000000.0 612548000000.0 605568000000.0 514966000000.0 400038000000.0 324578000000.0 293216000000.0 253534000000.0 248200000000.0 303423000000.0 401729000000.0 496336000000.0 526318000000.0 464072000000.0 358953000000.0 243468000000.0 142168000000.0 37812000000.0 340627000000.0 242680000000.0 143087000000.0 59818100000.0 33982300000.0 113076000000.0 177684000000.0 233867000000.0 283560000000.0 317452000000.0 324366000000.0 458487000000.0 396853000000.0 308051000000.0 100186000000.0 197605000000.0 672980000000.0 1.12908e+12 1.03614e+12 919794000000.0 1.56354e+12 1.21975e+12 916536000000.0 604896000000.0 927622000000.0 637280000000.0 432359000000.0 389547000000.0 301009000000.0 140818000000.0 565099000000.0 59524100000.0 757939000000.0 262063000000.0 43229400000.0 146659000000.0 137403000000.0 165948000000.0 143478000000.0 131645000000.0 192337000000.0 194837000000.0 522157000000.0 354253000000.0 1.20069e+12 225686000000.0 63508400000.0 642835000000.0 712305000000.0 280657000000.0 487047000000.0 558731000000.0 540724000000.0 466259000000.0 374377000000.0 298883000000.0 241813000000.0 182229000000.0 200316000000.0 301802000000.0 424755000000.0 504930000000.0 501622000000.0 421562000000.0 307276000000.0 188586000000.0 69385900000.0 63547100000.0 174680000000.0 305657000000.0 379092000000.0 530145000000.0 642510000000.0 685031000000.0 621073000000.0 647571000000.0 483342000000.0 450834000000.0 358105000000.0 290414000000.0 202098000000.0 109086000000.0 20994900000.0 67450800000.0 147374000000.0 218269000000.0 328690000000.0 376427000000.0 428068000000.0 495104000000.0 636339000000.0 523647000000.0 129487000000.0 172015000000.0 113927000000.0 409125000000.0 857337000000.0 1.03285e+12 1.01094e+12 477796000000.0 1.23376e+12 1.4078e+12 1.17735e+12 842031000000.0 142227000000.0 1.04877e+12 712969000000.0 491625000000.0 410893000000.0 287454000000.0 12496600000.0 324908000000.0 13414900000.0 1.01921e+12 110253000000.0 38779600000.0 76180200000.0 87362200000.0 136516000000.0 149293000000.0 180828000000.0 156414000000.0 305105000000.0 867740000000.0 923650000000.0 350436000000.0 601595000000.0 230629000000.0 183825000000.0 489039000000.0 536457000000.0 385338000000.0 477646000000.0 513543000000.0 140601000000.0 316035000000.0 468551000000.0 509513000000.0 457521000000.0 353448000000.0 231799000000.0 108154000000.0 15601500000.0 127886000000.0 239994000000.0 329636000000.0 433975000000.0 524804000000.0 595419000000.0 615993000000.0 566863000000.0 523649000000.0 430026000000.0 378785000000.0 306242000000.0 233209000000.0 148331000000.0 59508200000.0 27971900000.0 283401000000.0 344796000000.0 405227000000.0 470086000000.0 559776000000.0 701613000000.0 732563000000.0 419229000000.0 43598800000.0 19191300000.0 266587000000.0 584147000000.0 838304000000.0 1.12724e+12 811983000000.0 915961000000.0 1.20302e+12 1.18827e+12 913080000000.0 303734000000.0 925218000000.0 1.02384e+12 756203000000.0 543949000000.0 386910000000.0 288008000000.0 328881000000.0 881955000000.0 75705000000.0 86008800000.0 466805000000.0 1.27235e+12 837446000000.0 442901000000.0 1417410000.0 107428000000.0 160006000000.0 245530000000.0 258108000000.0 447346000000.0 909858000000.0 1.19282e+12 568712000000.0 592552000000.0 312809000000.0 305001000000.0 445516000000.0 491797000000.0 429366000000.0 350893000000.0 272893000000.0 189917000000.0 84991800000.0 387008000000.0 503898000000.0 471049000000.0 377264000000.0 260920000000.0 140910000000.0 24386600000.0 83033700000.0 184348000000.0 273709000000.0 361589000000.0 440168000000.0 505445000000.0 544788000000.0 538459000000.0 492211000000.0 440205000000.0 373157000000.0 315711000000.0 246598000000.0 171328000000.0 114314000000.0 196428000000.0 274402000000.0 348530000000.0 421197000000.0 497100000000.0 582467000000.0 689885000000.0 754056000000.0 616397000000.0 339961000000.0 103294000000.0 268792000000.0 408025000000.0 582443000000.0 1.35548e+12 1.06377e+12 999248000000.0 1.08683e+12 1.08039e+12 994720000000.0 738323000000.0 972951000000.0 1.12878e+12 963546000000.0 736700000000.0 528427000000.0 454713000000.0 528274000000.0 227675000000.0 1.03855e+12 834776000000.0 174707000000.0 113223000000.0 435352000000.0 670606000000.0 708356000000.0 222767000000.0 104142000000.0 48380300000.0 45321400000.0 134548000000.0 278347000000.0 369583000000.0 568263000000.0 894458000000.0 1.22125e+12 1.04155e+12 474943000000.0 430147000000.0 472612000000.0 486395000000.0 462724000000.0 409631000000.0 339651000000.0 255313000000.0 138916000000.0 66481100000.0 75075400000.0 161932000000.0 55477000000.0 43180000000.0 134782000000.0 218126000000.0 296359000000.0 366916000000.0 426664000000.0 468880000000.0 482457000000.0 462934000000.0 420422000000.0 370288000000.0 88211200000.0 1777180000.0 84695500000.0 170269000000.0 254386000000.0 337254000000.0 419878000000.0 503359000000.0 591759000000.0 690287000000.0 761252000000.0 718984000000.0 579950000000.0 404618000000.0 263286000000.0 187005000000.0 1.49756e+12 1.09614e+12 1.00149e+12 1.02465e+12 1.0677e+12 897966000000.0 1.01567e+12 1.11644e+12 1.10422e+12 860106000000.0 649408000000.0 801551000000.0 435404000000.0 121258000000.0 980700000000.0 952412000000.0 452367000000.0 254342000000.0 270563000000.0 88541800000.0 125377000000.0 252160000000.0 345608000000.0 586457000000.0 1.14802e+12 439795000000.0 404001000000.0 211986000000.0 99939100000.0 51806600000.0 237554000000.0 460832000000.0 676492000000.0 932376000000.0 1.20786e+12 1.29069e+12 1.01595e+12 681307000000.0 560776000000.0 397808000000.0 386267000000.0 446775000000.0 463307000000.0 453363000000.0 472774000000.0 475160000000.0 453199000000.0 410286000000.0 350446000000.0 267795000000.0 132363000000.0 254203000000.0 71104200000.0 447325000000.0 462985000000.0 380718000000.0 272890000000.0 311905000000.0 251487000000.0 182262000000.0 106407000000.0 24948900000.0 59403700000.0 144641000000.0 230132000000.0 315793000000.0 401587000000.0 487688000000.0 576657000000.0 671256000000.0 749001000000.0 761507000000.0 710481000000.0 611327000000.0 458575000000.0 352637000000.0 328639000000.0 1.31609e+12 931330000000.0 859255000000.0 901902000000.0 957578000000.0 983341000000.0 966389000000.0 1.00197e+12 1.08238e+12 1.09092e+12 1.01432e+12 721733000000.0 459317000000.0 459134000000.0 64240900000.0 844521000000.0 675652000000.0 333346000000.0 341086000000.0 112279000000.0 123983000000.0 175016000000.0 476756000000.0 733414000000.0 767644000000.0 231720000000.0 91990500000.0 32068900000.0 127053000000.0 487769000000.0 737061000000.0 916245000000.0 1.00876e+12 1.40902e+12 1.19322e+12 942087000000.0 691919000000.0 562627000000.0 456602000000.0 438861000000.0 461279000000.0 469640000000.0 469346000000.0 478056000000.0 476418000000.0 459161000000.0 426788000000.0 377977000000.0 298777000000.0 133016000000.0 361268000000.0 236751000000.0 438144000000.0 381734000000.0 280453000000.0 177521000000.0 81576800000.0 6465960000.0 87819100000.0 163140000000.0 233556000000.0 297769000000.0 353300000000.0 395722000000.0 418395000000.0 416554000000.0 391867000000.0 351784000000.0 303354000000.0 247357000000.0 185614000000.0 116352000000.0 40936300000.0 39068400000.0 121481000000.0 205035000000.0 289533000000.0 374700000000.0 460169000000.0 545455000000.0 630541000000.0 449598000000.0 280844000000.0 184210000000.0 815622000000.0 726645000000.0 764626000000.0 836498000000.0 890978000000.0 913354000000.0 918055000000.0 1.02299e+12 1.03757e+12 987067000000.0 875251000000.0 230755000000.0 851891000000.0 58397100000.0 731369000000.0 707589000000.0 517956000000.0 1.24153e+12 254833000000.0 95513300000.0 128036000000.0 312653000000.0 553906000000.0 707123000000.0 742358000000.0 177188000000.0 17928100000.0 21184400000.0 56257900000.0 433146000000.0 760184000000.0 911358000000.0 1.27424e+12 1.12268e+12 1.02123e+12 853818000000.0 679736000000.0 569738000000.0 495569000000.0 474540000000.0 478395000000.0 480935000000.0 482166000000.0 485966000000.0 483401000000.0 470612000000.0 444997000000.0 398313000000.0 303587000000.0 113932000000.0 494855000000.0 468018000000.0 332608000000.0 215098000000.0 118162000000.0 35846600000.0 37468400000.0 105469000000.0 169492000000.0 228785000000.0 281302000000.0 323730000000.0 351588000000.0 360929000000.0 350753000000.0 323820000000.0 284735000000.0 236994000000.0 181601000000.0 119510000000.0 50871400000.0 23018800000.0 100835000000.0 180888000000.0 262083000000.0 706482000000.0 747542000000.0 742757000000.0 685476000000.0 576172000000.0 278517000000.0 972665000000.0 714599000000.0 759514000000.0 816951000000.0 863459000000.0 897489000000.0 961018000000.0 974446000000.0 917786000000.0 796183000000.0 614361000000.0 853466000000.0 470236000000.0 423448000000.0 495044000000.0 806844000000.0 797630000000.0 1.02547e+12 159377000000.0 277187000000.0 79965400000.0 93561400000.0 194951000000.0 226964000000.0 285864000000.0 708224000000.0 322179000000.0 133083000000.0 167472000000.0 333931000000.0 329510000000.0 741681000000.0 915451000000.0 831625000000.0 1.04442e+12 1.05568e+12 1.00962e+12 927250000000.0 798450000000.0 669691000000.0 579278000000.0 520895000000.0 497433000000.0 491992000000.0 490289000000.0 490216000000.0 298473000000.0 740323000000.0 517300000000.0 323824000000.0 193588000000.0 100149000000.0 26376700000.0 38882400000.0 99701800000.0 156454000000.0 207711000000.0 250910000000.0 282732000000.0 300000000000.0 300975000000.0 286166000000.0 257905000000.0 219015000000.0 171602000000.0 116751000000.0 55332200000.0 11936100000.0 344379000000.0 426984000000.0 508706000000.0 587943000000.0 657323000000.0 701142000000.0 712558000000.0 681464000000.0 609321000000.0 505402000000.0 320387000000.0 622278000000.0 810333000000.0 731874000000.0 769420000000.0 797086000000.0 837108000000.0 878646000000.0 928750000000.0 970187000000.0 715835000000.0 501389000000.0 59570800000.0 478085000000.0 92363900000.0 118677000000.0 193306000000.0 314356000000.0 252159000000.0 285765000000.0 99419200000.0 206711000000.0 66416600000.0 23795600000.0 60674100000.0 135656000000.0 271313000000.0 582647000000.0 597596000000.0 638090000000.0 189044000000.0 404675000000.0 626425000000.0 350140000000.0 692559000000.0 931244000000.0 735103000000.0 823637000000.0 1.00469e+12 1.00878e+12 954740000000.0 868383000000.0 758343000000.0 655427000000.0 580680000000.0 491211000000.0 488113000000.0 476971000000.0 452104000000.0 400400000000.0 301703000000.0 162938000000.0 120186000000.0 913819000000.0 569925000000.0 344493000000.0 207764000000.0 116972000000.0 44804000000.0 19034200000.0 77414100000.0 130164000000.0 175681000000.0 211603000000.0 235452000000.0 245452000000.0 241166000000.0 223546000000.0 83732300000.0 158544000000.0 235034000000.0 312513000000.0 390462000000.0 467790000000.0 541729000000.0 607017000000.0 653510000000.0 671525000000.0 651016000000.0 593578000000.0 498753000000.0 341190000000.0 107314000000.0 420775000000.0 861161000000.0 850664000000.0 785584000000.0 846029000000.0 878968000000.0 916945000000.0 940509000000.0 928005000000.0 857226000000.0 425949000000.0 33292900000.0 831173000000.0 507425000000.0 147954000000.0 187501000000.0 135551000000.0 19263900000.0 111042000000.0 2455610000.0 394625000000.0 309187000000.0 14384300000.0 80104800000.0 91548700000.0 67200100000.0 57509500000.0 7474010000.0 93989300000.0 236383000000.0 211754000000.0 529509000000.0 471608000000.0 177218000000.0 87114700000.0 303532000000.0 646204000000.0 496876000000.0 716555000000.0 672047000000.0 965993000000.0 1.01421e+12 973892000000.0 901026000000.0 532581000000.0 508528000000.0 497944000000.0 492745000000.0 490249000000.0 488422000000.0 483527000000.0 471342000000.0 445490000000.0 398174000000.0 331779000000.0 264404000000.0 110637000000.0 983030000000.0 194370000000.0 155521000000.0 108549000000.0 54590800000.0 5315080000.0 70188200000.0 138956000000.0 210095000000.0 282086000000.0 354339000000.0 425860000000.0 494559000000.0 556111000000.0 602302000000.0 625146000000.0 618354000000.0 576962000000.0 495556000000.0 363292000000.0 134726000000.0 400093000000.0 801855000000.0 931107000000.0 899087000000.0 848886000000.0 830229000000.0 923668000000.0 934654000000.0 912980000000.0 830117000000.0 666548000000.0 51506300000.0 814167000000.0 14815700000.0 55804600000.0 145602000000.0 130434000000.0 51529700000.0 357950000000.0 78373100000.0 23903800000.0 32220900000.0 157178000000.0 191209000000.0 214273000000.0 53469800000.0 485234000000.0 325746000000.0 311528000000.0 589961000000.0 598045000000.0 1.02484e+12 644495000000.0 681310000000.0 591384000000.0 907786000000.0 994844000000.0 973564000000.0 812277000000.0 717155000000.0 633398000000.0 571773000000.0 531136000000.0 507179000000.0 493248000000.0 484500000000.0 478644000000.0 473565000000.0 466228000000.0 453427000000.0 433032000000.0 408745000000.0 392665000000.0 398113000000.0 337574000000.0 601763000000.0 376755000000.0 246373000000.0 153182000000.0 77043700000.0 10966400000.0 47148500000.0 97241400000.0 138151000000.0 168269000000.0 186165000000.0 191108000000.0 183322000000.0 163830000000.0 134040000000.0 95438200000.0 49381300000.0 3036700000.0 60776300000.0 122650000000.0 187441000000.0 253871000000.0 320589000000.0 386313000000.0 449290000000.0 506186000000.0 552207000000.0 580580000000.0 584752000000.0 560516000000.0 507216000000.0 422687000000.0 314510000000.0 436642000000.0 698655000000.0 896025000000.0 951631000000.0 927299000000.0 891962000000.0 877950000000.0 892588000000.0 912122000000.0 840758000000.0 675706000000.0 403673000000.0 814164000000.0 560668000000.0 253576000000.0 125179000000.0 162551000000.0 211687000000.0 80374000000.0 252836000000.0 276074000000.0 73036400000.0 74730100000.0 14958700000.0 433743000000.0 341087000000.0 75102200000.0 202429000000.0 713038000000.0 859506000000.0 671298000000.0 246394000000.0 539418000000.0 804103000000.0 916512000000.0 909117000000.0 831836000000.0 749613000000.0 669048000000.0 601450000000.0 551425000000.0 516550000000.0 492748000000.0 475765000000.0 463229000000.0 453685000000.0 445431000000.0 436718000000.0 427357000000.0 421594000000.0 430483000000.0 948729000000.0 606566000000.0 418128000000.0 288862000000.0 189816000000.0 109075000000.0 41229200000.0 15988600000.0 63085000000.0 99598300000.0 124746000000.0 137946000000.0 139140000000.0 128872000000.0 108115000000.0 78063200000.0 40031000000.0 4683730000.0 54956600000.0 109758000000.0 167996000000.0 228323000000.0 289276000000.0 349738000000.0 408059000000.0 465339000000.0 418161000000.0 483805000000.0 649458000000.0 820753000000.0 927363000000.0 955472000000.0 937477000000.0 911686000000.0 910793000000.0 938277000000.0 935959000000.0 848068000000.0 733387000000.0 466112000000.0 11307900000.0 839549000000.0 608936000000.0 358808000000.0 167614000000.0 262830000000.0 223743000000.0 84400400000.0 23250500000.0 92561700000.0 73243000000.0 116810000000.0 245409000000.0 198330000000.0 125725000000.0 331182000000.0 480719000000.0 146042000000.0 219716000000.0 534286000000.0 579830000000.0 754272000000.0 930242000000.0 888972000000.0 822308000000.0 746018000000.0 675200000000.0 612624000000.0 560666000000.0 521069000000.0 490185000000.0 464759000000.0 444330000000.0 428490000000.0 416013000000.0 470586000000.0 549063000000.0 522566000000.0 850630000000.0 612354000000.0 440887000000.0 312369000000.0 212325000000.0 131773000000.0 65720500000.0 11689400000.0 31222500000.0 63070600000.0 83650800000.0 92900200000.0 91111200000.0 78962900000.0 57389300000.0 27477300000.0 9553120000.0 52504100000.0 461115000000.0 505051000000.0 535711000000.0 549215000000.0 542146000000.0 513390000000.0 930293000000.0 946356000000.0 932639000000.0 917295000000.0 958382000000.0 928416000000.0 900437000000.0 592297000000.0 202747000000.0 463401000000.0 312614000000.0 226877000000.0 304279000000.0 239481000000.0 84232200000.0 156710000000.0 36757100000.0 235287000000.0 106889000000.0 310546000000.0 490584000000.0 526977000000.0 423217000000.0 827054000000.0 830798000000.0 786335000000.0 714501000000.0 643493000000.0 588569000000.0 548373000000.0 515136000000.0 483300000000.0 405712000000.0 397617000000.0 394863000000.0 405700000000.0 446064000000.0 538122000000.0 702490000000.0 566780000000.0 689716000000.0 550239000000.0 416124000000.0 305723000000.0 215914000000.0 142518000000.0 82484900000.0 34054900000.0 3507770000.0 100282000000.0 151733000000.0 205711000000.0 261037000000.0 316232000000.0 369762000000.0 419714000000.0 462913000000.0 495684000000.0 514839000000.0 518743000000.0 508572000000.0 488339000000.0 474313000000.0 518432000000.0 628165000000.0 759655000000.0 867281000000.0 913577000000.0 874868000000.0 932353000000.0 885141000000.0 849681000000.0 804082000000.0 731516000000.0 826359000000.0 641448000000.0 499592000000.0 352496000000.0 418008000000.0 178469000000.0 61662100000.0 244662000000.0 12760700000.0 170978000000.0 258923000000.0 108375000000.0 548469000000.0 708198000000.0 748938000000.0 737476000000.0 671896000000.0 583318000000.0 520216000000.0 451502000000.0 423049000000.0 400462000000.0 382742000000.0 368458000000.0 357145000000.0 350458000000.0 353267000000.0 374605000000.0 427969000000.0 533433000000.0 774003000000.0 454591000000.0 30386100000.0 46628400000.0 52406200000.0 48150900000.0 34562600000.0 12523700000.0 16926300000.0 52617400000.0 93422500000.0 138321000000.0 186220000000.0 235878000000.0 285972000000.0 335158000000.0 381734000000.0 423345000000.0 457485000000.0 481822000000.0 495015000000.0 497403000000.0 494084000000.0 498279000000.0 535051000000.0 612525000000.0 711487000000.0 804169000000.0 872607000000.0 910114000000.0 870404000000.0 829333000000.0 780326000000.0 725937000000.0 640386000000.0 483292000000.0 65893600000.0 644417000000.0 696692000000.0 623130000000.0 477117000000.0 266572000000.0 46056700000.0 95544700000.0 290000000000.0 492937000000.0 143397000000.0 438821000000.0 304971000000.0 419378000000.0 562270000000.0 703497000000.0 676153000000.0 631727000000.0 492655000000.0 483875000000.0 467040000000.0 434819000000.0 399151000000.0 370639000000.0 348454000000.0 330524000000.0 315537000000.0 303917000000.0 298387000000.0 304444000000.0 331240000000.0 393913000000.0 530521000000.0 775681000000.0 532278000000.0 457259000000.0 364740000000.0 279225000000.0 205545000000.0 143525000000.0 92187000000.0 50865000000.0 19308800000.0 2520940000.0 14675200000.0 17367900000.0 11050500000.0 3611300000.0 25798500000.0 54527900000.0 88690600000.0 127208000000.0 169068000000.0 213257000000.0 258629000000.0 303762000000.0 347170000000.0 387201000000.0 421745000000.0 448838000000.0 467942000000.0 479888000000.0 488402000000.0 501567000000.0 534400000000.0 593995000000.0 669535000000.0 745734000000.0 808171000000.0 847377000000.0 855292000000.0 811255000000.0 644464000000.0 551426000000.0 418839000000.0 181925000000.0 492929000000.0 616300000000.0 490494000000.0 479239000000.0 351092000000.0 252950000000.0 116310000000.0 30397300000.0 162499000000.0 71725100000.0 295393000000.0 35888000000.0 151942000000.0 567133000000.0 653349000000.0 570157000000.0 647726000000.0 679917000000.0 529503000000.0 415272000000.0 380346000000.0 405035000000.0 424527000000.0 405910000000.0 367558000000.0 337565000000.0 314002000000.0 294537000000.0 277590000000.0 262812000000.0 251779000000.0 248256000000.0 258743000000.0 294558000000.0 309270000000.0 395046000000.0 360993000000.0 303658000000.0 243265000000.0 187206000000.0 137921000000.0 96211000000.0 62461100000.0 36973800000.0 19977500000.0 11556200000.0 11576600000.0 19636000000.0 35108400000.0 57216300000.0 85033800000.0 117552000000.0 153790000000.0 192764000000.0 233427000000.0 274658000000.0 315187000000.0 353487000000.0 387967000000.0 417178000000.0 440211000000.0 457657000000.0 472581000000.0 490678000000.0 520754000000.0 568162000000.0 630555000000.0 693603000000.0 746853000000.0 780970000000.0 793685000000.0 757766000000.0 797993000000.0 779924000000.0 716004000000.0 376035000000.0 246956000000.0 582383000000.0 415611000000.0 344699000000.0 257960000000.0 468536000000.0 716109000.0 44732800000.0 98228800000.0 290380000000.0 661619000000.0 711951000000.0 519920000000.0 580458000000.0 501453000000.0 358388000000.0 202087000000.0 242982000000.0 342670000000.0 357982000000.0 316115000000.0 293881000000.0 276996000000.0 260906000000.0 377411000000.0 530451000000.0 728451000000.0 179211000000.0 281403000000.0 274335000000.0 243941000000.0 205078000000.0 165251000000.0 128134000000.0 95694700000.0 69155600000.0 49329800000.0 36738800000.0 31647600000.0 34032200000.0 43564700000.0 59670000000.0 691674000000.0 723563000000.0 735774000000.0 712356000000.0 722049000000.0 724770000000.0 661133000000.0 582392000000.0 489150000000.0 384121000000.0 261186000000.0 172176000000.0 386525000000.0 150438000000.0 80178900000.0 171519000000.0 488028000000.0 287837000000.0 616778000000.0 604387000000.0 599736000000.0 491181000000.0 367521000000.0 174848000000.0 70182500000.0 134005000000.0 281503000000.0 244964000000.0 229524000000.0 215960000000.0 207231000000.0 208326000000.0 227341000000.0 277373000000.0 371588000000.0 512487000000.0 644854000000.0 69753800000.0 188662000000.0 200460000000.0 81596700000.0 108466000000.0 139363000000.0 173408000000.0 209714000000.0 247270000000.0 284899000000.0 321364000000.0 355406000000.0 385757000000.0 411554000000.0 432986000000.0 451672000000.0 471230000000.0 497638000000.0 536051000000.0 587157000000.0 646747000000.0 672226000000.0 651528000000.0 667811000000.0 613304000000.0 537364000000.0 448898000000.0 355254000000.0 277326000000.0 323226000000.0 495343000000.0 457369000000.0 257906000000.0 56217300000.0 20263400000.0 237683000000.0 154585000000.0 398213000000.0 664331000000.0 465255000000.0 533236000000.0 514930000000.0 418079000000.0 249912000000.0 239363000000.0 240928000000.0 238193000000.0 230173000000.0 218385000000.0 204555000000.0 190633000000.0 179481000000.0 175227000000.0 183776000000.0 213486000000.0 272431000000.0 362984000000.0 478031000000.0 543208000000.0 190127000000.0 168477000000.0 142279000000.0 115661000000.0 91300400000.0 71040800000.0 56156200000.0 47448100000.0 45319700000.0 49814300000.0 60642400000.0 77270800000.0 98998300000.0 125012000000.0 154471000000.0 186565000000.0 220487000000.0 255332000000.0 290009000000.0 323316000000.0 354189000000.0 381827000000.0 405923000000.0 427145000000.0 447662000000.0 470579000000.0 499843000000.0 539336000000.0 588983000000.0 649223000000.0 667988000000.0 678250000000.0 565505000000.0 499778000000.0 419578000000.0 337358000000.0 277952000000.0 296901000000.0 387448000000.0 438628000000.0 273806000000.0 123447000000.0 132254000000.0 179087000000.0 150440000000.0 254160000000.0 277120000000.0 550303000000.0 571729000000.0 409431000000.0 458770000000.0 422566000000.0 950169000.0 398149000000.0 58435500000.0 112435000000.0 188293000000.0 210662000000.0 211481000000.0 202488000000.0 189367000000.0 175390000000.0 162998000000.0 155435000000.0 157155000000.0 173792000000.0 210689000000.0 270006000000.0 347784000000.0 431613000000.0 436610000000.0 16517500000.0 114673000000.0 139828000000.0 143952000000.0 135196000000.0 119530000000.0 101140000000.0 83154900000.0 67955600000.0 57193100000.0 51867200000.0 52430300000.0 58897200000.0 70964400000.0 88115700000.0 109704000000.0 135003000000.0 163269000000.0 193759000000.0 225713000000.0 258312000000.0 290641000000.0 321689000000.0 350534000000.0 376696000000.0 400208000000.0 421639000000.0 442679000000.0 464767000000.0 491065000000.0 526912000000.0 568756000000.0 622295000000.0 611506000000.0 625692000000.0 587601000000.0 608610000000.0 321164000000.0 261572000000.0 253231000000.0 325802000000.0 392994000000.0 284680000000.0 119647000000.0 158642000000.0 25141000000.0 16628000000.0 96528300000.0 126405000000.0 267155000000.0 464407000000.0 477541000000.0 350708000000.0 369432000000.0 200010000000.0 4703910000.0 400435000000.0 304218000000.0 249018000000.0 222330000000.0 203330000000.0 186305000000.0 170381000000.0 156304000000.0 146137000000.0 79740600000.0 57633300000.0 91673900000.0 105484000000.0 105487000000.0 97067300000.0 84434200000.0 71005500000.0 59619600000.0 52245800000.0 49929800000.0 53029900000.0 61438700000.0 74786800000.0 92550000000.0 114125000000.0 138885000000.0 166203000000.0 195429000000.0 225873000000.0 434830000000.0 452654000000.0 472672000000.0 509854000000.0 550758000000.0 576707000000.0 554090000000.0 530822000000.0 549374000000.0 523561000000.0 468206000000.0 396836000000.0 127621000000.0 135541000000.0 60971900000.0 85110000000.0 147499000000.0 86951900000.0 251385000000.0 365366000000.0 390055000000.0 325536000000.0 298587000000.0 147226000000.0 335524000000.0 288549000000.0 245358000000.0 142866000000.0 150401000000.0 172566000000.0 211276000000.0 264507000000.0 324629000000.0 376839000000.0 333703000000.0 122028000000.0 15463900000.0 54367400000.0 73529300000.0 78384900000.0 74028500000.0 64863700000.0 54418100000.0 256783000000.0 287374000000.0 316868000000.0 344582000000.0 370178000000.0 393552000000.0 414611000000.0 525368000000.0 521972000000.0 463261000000.0 488234000000.0 477514000000.0 435795000000.0 374490000000.0 305734000000.0 247393000000.0 217742000000.0 230079000000.0 324517000000.0 257648000000.0 103519000000.0 17790900000.0 150706000000.0 160773000000.0 94872100000.0 403338000000.0 276100000000.0 291601000000.0 150425000000.0 57818900000.0 44143100000.0 104967000000.0 216947000000.0 194230000000.0 174905000000.0 157964000000.0 144851000000.0 137480000000.0 138258000000.0 149772000000.0 173758000000.0 209496000000.0 252441000000.0 293224000000.0 316824000000.0 239456000000.0 45833400000.0 41333000000.0 41849500000.0 47442500000.0 57823400000.0 72515600000.0 90996000000.0 112710000000.0 137133000000.0 163737000000.0 191980000000.0 221279000000.0 250992000000.0 280398000000.0 308782000000.0 335728000000.0 361286000000.0 384987000000.0 405088000000.0 424447000000.0 436301000000.0 458446000000.0 515646000000.0 420078000000.0 403117000000.0 356132000000.0 291720000000.0 232123000000.0 198609000000.0 201652000000.0 240948000000.0 247481000000.0 127580000000.0 24882400000.0 13958300000.0 9655580000.0 22414100000.0 178368000.0 225243000000.0 271962000000.0 361303000000.0 162888000000.0 99162600000.0 30618000000.0 23664000000.0 30817500000.0 300338000000.0 270294000000.0 236507000000.0 209737000000.0 186868000000.0 166296000000.0 149948000000.0 138511000000.0 133594000000.0 136892000000.0 149751000000.0 172105000000.0 201411000000.0 231936000000.0 254109000000.0 254281000000.0 156036000000.0 146836000000.0 14501600000.0 25420400000.0 45907300000.0 52078500000.0 48924500000.0 41344100000.0 32979000000.0 26769300000.0 24874600000.0 28100900000.0 36212800000.0 48611700000.0 64710300000.0 83957400000.0 105936000000.0 130209000000.0 156312000000.0 183784000000.0 212155000000.0 240877000000.0 269244000000.0 296480000000.0 322496000000.0 348168000000.0 372774000000.0 389860000000.0 408894000000.0 398409000000.0 455470000000.0 467645000000.0 471902000000.0 426767000000.0 416032000000.0 278592000000.0 216589000000.0 169682000000.0 189105000000.0 191701000000.0 160089000000.0 74347800000.0 55413700000.0 2281180000.0 31372800000.0 120730000000.0 149021000000.0 166826000000.0 340125000000.0 21928800000.0 50755200000.0 16715400000.0 43332800000.0 262488000000.0 249670000000.0 223877000000.0 202934000000.0 178333000000.0 158486000000.0 143607000000.0 133884000000.0 130408000000.0 134313000000.0 145887000000.0 163827000000.0 184668000000.0 202440000000.0 208424000000.0 191342000000.0 83506100000.0 158458000000.0 35462000000.0 1822570000.0 19792700000.0 23925300000.0 19888100000.0 13027200000.0 6716530000.0 2952670000.0 3630170000.0 9459040000.0 20064600000.0 34484200000.0 51950700000.0 72007400000.0 94358700000.0 118609000000.0 144327000000.0 171091000000.0 198522000000.0 226122000000.0 252886000000.0 277724000000.0 302094000000.0 328096000000.0 353101000000.0 357966000000.0 357903000000.0 377552000000.0 406992000000.0 408982000000.0 385133000000.0 376285000000.0 358811000000.0 358733000000.0 330613000000.0 169803000000.0 38380200000.0 50660600000.0 40241200000.0 104247000000.0 84875600000.0 4907160000.0 95315100000.0 41334500000.0 52077900000.0 38152600000.0 132195000000.0 34949700000.0 27519700000.0 215758000000.0 223481000000.0 214804000000.0 161337000000.0 50842200000.0 20317700000.0 8879360000.0 9250730000.0 14549600000.0 19840200000.0 23259100000.0 24574700000.0 21529100000.0 13086600000.0 330544000000.0 346644000000.0 325926000000.0 329170000000.0 312246000000.0 299737000000.0 291754000000.0 254535000000.0 190693000000.0 146616000000.0 137621000000.0 155447000000.0 144234000000.0 115939000000.0 21948100000.0 77579200000.0 100390000000.0 63100200000.0 3922300000.0 73038200000.0 282449000000.0 43169600000.0 43258400000.0 77513300000.0 23457800000.0 30485300000.0 188014000000.0 167262000000.0 149484000000.0 135987000000.0 127487000000.0 124377000000.0 127159000000.0 135345000000.0 146927000000.0 158360000000.0 164314000000.0 157545000000.0 129454000000.0 20499600000.0 183070000.0 16114700000.0 34835400000.0 55786400000.0 78612300000.0 102882000000.0 128162000000.0 154089000000.0 180327000000.0 206118000000.0 229846000000.0 250041000000.0 271040000000.0 293618000000.0 307727000000.0 304557000000.0 327237000000.0 265818000000.0 253363000000.0 251103000000.0 235861000000.0 161938000000.0 74820500000.0 90611700000.0 119687000000.0 113908000000.0 70159800000.0 30227900000.0 28397700000.0 27472400000.0 51484900000.0 82760200000.0 105618000000.0 105084000000.0 294776000000.0 161173000000.0 49495400000.0 102304000000.0 23414500000.0 57359500000.0 208144000000.0 226947000000.0 187708000000.0 168892000000.0 153067000000.0 138132000000.0 125551000000.0 116989000000.0 113128000000.0 113345000000.0 116585000000.0 120725000000.0 122719000000.0 118506000000.0 102758000000.0 69355900000.0 35338600000.0 159927000000.0 65383700000.0 46745800000.0 45146300000.0 50051000000.0 54172700000.0 55429000000.0 54778500000.0 53876500000.0 49360500000.0 38835000000.0 23642000000.0 5897240000.0 14076300000.0 36048000000.0 59411700000.0 83650600000.0 108401000000.0 133284000000.0 157781000000.0 180971000000.0 200430000000.0 213135000000.0 231744000000.0 252755000000.0 260056000000.0 267663000000.0 276506000000.0 278836000000.0 269540000000.0 271911000000.0 147178000000.0 71021600000.0 64215100000.0 21713900000.0 25432800000.0 22868900000.0 13847000000.0 72841600000.0 51661000000.0 9372240000.0 152839000000.0 127266000000.0 9729240000.0 180979000000.0 46296300000.0 5250040000.0 143195000000.0 148956000000.0 153601000000.0 149297000000.0 136935000000.0 123591000000.0 111229000000.0 101925000000.0 95949900000.0 92324400000.0 89444600000.0 85525900000.0 78520900000.0 65805100000.0 44296600000.0 10179600000.0 87264300000.0 159492000000.0 85979200000.0 84797900000.0 93481100000.0 98225400000.0 95565000000.0 91217200000.0 85496500000.0 82635200000.0 78326400000.0 66441900000.0 49812800000.0 30937700000.0 9493860000.0 13647600000.0 37723900000.0 62265100000.0 86434300000.0 109320000000.0 131388000000.0 152277000000.0 167609000000.0 168045000000.0 192771000000.0 214301000000.0 217038000000.0 217024000000.0 223978000000.0 213880000000.0 217877000000.0 209072000000.0 201822000000.0 194660000000.0 208317000000.0 35054900000.0 35002000000.0 85466800000.0 12971100000.0 12939800000.0 52813000000.0 93326400000.0 74246700000.0 53735200000.0 4252000000.0 5081450000.0 65378500000.0 89369800000.0 131293000000.0 38914800000.0 65788300000.0 34957000000.0 63276800000.0 87798700000.0 49380900000.0 141023000000.0 153086000000.0 141600000000.0 166548000000.0 122272000000.0 142760000000.0 153378000000.0 146364000000.0 135535000000.0 124565000000.0 114394000000.0 107394000000.0 105680000000.0 94791400000.0 78665100000.0 167179000000.0 166942000000.0 166819000000.0 159459000000.0 170733000000.0 169926000000.0 145899000000.0 130332000000.0 143274000000.0 177524000000.0 39213500000.0 4682860000.0 19133300000.0 29442100000.0 29923500000.0 16701600000.0 18175600000.0 43659900000.0 37132100000.0 39523500000.0 39668200000.0 87902800000.0 66295000000.0 1970530000.0 16999500000.0 18482700000.0 16942200000.0 129648000000.0 118803000000.0 104775000000.0 92387000000.0 82395200000.0 73690600000.0 65070600000.0 55091400000.0 42489500000.0 26327300000.0 5802610000.0 19718200000.0 51610800000.0 139652000000.0 58242000000.0 34776400000.0 9710360000.0 15778500000.0 40446400000.0 63276500000.0 83185100000.0 102650000000.0 121829000000.0 131305000000.0 125466000000.0 164857000000.0 120506000000.0 69977200000.0 53947200000.0 34464000000.0 23016500000.0 83989500000.0 61582600000.0 54281900000.0 43966100000.0 32431700000.0 16344100000.0 487668000.0 7347770000.0 75554000000.0 54547400000.0 56838300000.0 6684960000.0 1464820000.0 7223750000.0 134823000000.0 123019000000.0 111413000000.0 103301000000.0 93513900000.0 81706400000.0 70389000000.0 59696300000.0 48000900000.0 33722400000.0 15817900000.0 6486400000.0 33474000000.0 64047400000.0 95591300000.0 124664000000.0 198282000000.0 190759000000.0 190332000000.0 221119000000.0 207098000000.0 190383000000.0 173734000000.0 155453000000.0 138312000000.0 124362000000.0 125911000000.0 125431000000.0 109515000000.0 85471100000.0 58153100000.0 30136700000.0 3028520000.0 21975800000.0 43077700000.0 59389500000.0 75530200000.0 81151900000.0 78290100000.0 87305000000.0 113516000000.0 116164000000.0 113454000000.0 111570000000.0 114731000000.0 122583000000.0 103158000000.0 9035750000.0 9035750000.0 59533800000.0 43631300000.0 30808100000.0 23656700000.0 10869000000.0 26718800000.0 7828640000.0 37369000000.0 12148200000.0 91871200000.0 62815100000.0 84869600000.0 45719700000.0 19671900000.0 8931440000.0 110213000000.0 99136000000.0 96183200000.0 92745200000.0 85959900000.0 77080100000.0 67327000000.0 56192600000.0 41802400000.0 21933400000.0 4754150000.0 39628500000.0 83095700000.0 132833000000.0 182710000000.0 218291000000.0 255753000000.0 247444000000.0 289305000000.0 267173000000.0 248711000000.0 230269000000.0 208049000000.0 184052000000.0 152912000000.0 123495000000.0 102871000000.0 71818300000.0 45885900000.0 25621500000.0 9017800000.0 5491360000.0 18223000000.0 28491800000.0 31724500000.0 34956300000.0 36049700000.0 34453300000.0 34602000000.0 38873800000.0 70367100000.0 73587200000.0 74332900000.0 79192200000.0 82219500000.0 82996700000.0 90881000000.0 62057500000.0 71818500000.0 58059300000.0 10352600000.0 9035750000.0 9308090000.0 9035750000.0 9035750000.0 9035750000.0 9035740000.0 31892100000.0 29400200000.0 27109100000.0 26142000000.0 42745300000.0 9035750000.0 22168000000.0 9980060000.0 18743800000.0 19837000000.0 24358000000.0 23793100000.0 20524000000.0 7329610000.0 10029400000.0 13516000000.0 10774700000.0 28480100000.0 19965400000.0 17424000000.0 9538670000.0 1760430000.0 1362550000.0 5114660000.0 9035750000.0 9035750000.0 27306900000.0 26069800000.0 14213400000.0 24763100000.0 24915000000.0 22985100000.0 53309500000.0 48879700000.0 47424600000.0 48511800000.0 49469700000.0 50098200000.0 50612000000.0 50994000000.0 51484200000.0 51909500000.0 52137500000.0 52212700000.0 52248000000.0 52340500000.0 52093100000.0 50835300000.0 47871900000.0 16457800000.0 9338000000.0 1832270000.0 5421770000.0 13178600000.0 19002400000.0 18462600000.0 11582100000.0 7928170000.0 7196330000.0 8318730000.0 10256800000.0 12304100000.0 14140300000.0 15012700000.0 12787600000.0 10250100000.0 6855050000.0 2421400000.0 3675890000.0 15078700000.0 6020980000.0 2281940000.0 25630100000.0 17836200000.0 