# vtk DataFile Version 2.0
Time step 46
ASCII
DATASET UNSTRUCTURED_GRID
POINTS 5000 float
207636.0 316534.0 0
213226.0 317712.0 0
289944.0 317066.0 0
297464.0 316242.0 0
202706.0 318365.0 0
206576.0 320842.0 0
209472.0 319743.0 0
211311.0 322860.0 0
217147.0 321965.0 0
222041.0 319901.0 0
228434.0 321239.0 0
231942.0 319112.0 0
232570.0 322420.0 0
237146.0 320957.0 0
267206.0 322038.0 0
272230.0 319604.0 0
280120.0 318513.0 0
286697.0 322001.0 0
297180.0 321500.0 0
202414.0 323399.0 0
207002.0 325160.0 0
214591.0 326593.0 0
220707.0 326304.0 0
224675.0 323551.0 0
225907.0 327693.0 0
230123.0 325653.0 0
235101.0 326118.0 0
242481.0 323267.0 0
244847.0 328309.0 0
249392.0 323871.0 0
255717.0 323271.0 0
260668.0 324095.0 0
264543.0 326054.0 0
268798.0 326961.0 0
271656.0 324137.0 0
276143.0 323485.0 0
278324.0 327831.0 0
281557.0 324367.0 0
285392.0 326677.0 0
288960.0 326460.0 0
292234.0 323420.0 0
296663.0 327547.0 0
203009.0 328657.0 0
201913.0 333206.0 0
206436.0 332890.0 0
210064.0 329236.0 0
217476.0 330272.0 0
222486.0 331910.0 0
228012.0 332349.0 0
231864.0 329597.0 0
236145.0 331189.0 0
239876.0 328100.0 0
249019.0 329465.0 0
246437.0 333080.0 0
252953.0 328625.0 0
257123.0 327743.0 0
256183.0 332331.0 0
261167.0 328476.0 0
260770.0 332742.0 0
265462.0 330965.0 0
270034.0 330845.0 0
273547.0 328207.0 0
276758.0 331431.0 0
282746.0 328319.0 0
281003.0 331614.0 0
285758.0 330901.0 0
289620.0 329878.0 0
293069.0 331060.0 0
203605.0 337219.0 0
213447.0 333307.0 0
209625.0 337668.0 0
218115.0 334526.0 0
221849.0 337714.0 0
225237.0 335327.0 0
228489.0 337257.0 0
232513.0 333733.0 0
232578.0 337291.0 0
236268.0 335722.0 0
240967.0 333577.0 0
244567.0 337725.0 0
249297.0 337168.0 0
251304.0 332857.0 0
253994.0 336640.0 0
258640.0 336853.0 0
264120.0 336914.0 0
268712.0 334466.0 0
268912.0 338417.0 0
273183.0 333624.0 0
271056.0 336519.0 0
273806.0 338199.0 0
278187.0 336226.0 0
284005.0 335838.0 0
289793.0 334136.0 0
296210.0 335691.0 0
202019.0 341208.0 0
206167.0 342193.0 0
211424.0 343427.0 0
215846.0 339388.0 0
220726.0 343072.0 0
225699.0 341500.0 0
235314.0 339725.0 0
231307.0 341596.0 0
239743.0 339369.0 0
243428.0 341365.0 0
247600.0 341875.0 0
252159.0 340910.0 0
256099.0 340144.0 0
260186.0 342182.0 0
266294.0 343112.0 0
271597.0 341561.0 0
276968.0 342756.0 0
281379.0 339903.0 0
285336.0 340987.0 0
288037.0 337932.0 0
289617.0 341086.0 0
291543.0 338055.0 0
293365.0 340780.0 0
297551.0 341275.0 0
202043.0 344926.0 0
207401.0 347371.0 0
216288.0 345024.0 0
219870.0 347832.0 0
224500.0 346946.0 0
228538.0 345000.0 0
231884.0 345845.0 0
236531.0 344789.0 0
241138.0 343556.0 0
244487.0 344185.0 0
242490.0 347657.0 0
247218.0 346378.0 0
250965.0 345143.0 0
254087.0 348672.0 0
255258.0 344081.0 0
258363.0 347115.0 0
262968.0 347750.0 0
267627.0 348810.0 0
270985.0 345926.0 0
274521.0 347782.0 0
277921.0 347395.0 0
280387.0 346269.0 0
282259.0 343699.0 0
284120.0 347628.0 0
287132.0 344451.0 0
291244.0 344374.0 0
294802.0 343839.0 0
297875.0 345595.0 0
202314.0 348790.0 0
201930.0 352567.0 0
205540.0 352010.0 0
213268.0 348887.0 0
209674.0 351631.0 0
218218.0 352801.0 0
222601.0 350752.0 0
229195.0 348390.0 0
226869.0 351818.0 0
233219.0 349616.0 0
238490.0 350667.0 0
242443.0 353576.0 0
246187.0 350734.0 0
249999.0 348928.0 0
250389.0 353198.0 0
254850.0 353476.0 0
259579.0 352165.0 0
264829.0 352739.0 0
270981.0 349719.0 0
273881.0 352118.0 0
277059.0 350041.0 0
280068.0 349580.0 0
282720.0 352585.0 0
289078.0 348010.0 0
286815.0 351429.0 0
294218.0 348160.0 0
291439.0 351943.0 0
295516.0 352325.0 0
298509.0 351833.0 0
298383.0 349072.0 0
201647.0 355527.0 0
204543.0 355904.0 0
208515.0 355842.0 0
213169.0 354135.0 0
212273.0 357920.0 0
223611.0 354940.0 0
228067.0 356954.0 0
230907.0 353793.0 0
235104.0 354180.0 0
238834.0 356259.0 0
243173.0 358635.0 0
246437.0 355364.0 0
249296.0 356701.0 0
252916.0 358601.0 0
258059.0 357580.0 0
262208.0 356230.0 0
269486.0 354110.0 0
265697.0 357479.0 0
273892.0 356759.0 0
277913.0 353866.0 0
280795.0 356866.0 0
284504.0 356514.0 0
288675.0 355622.0 0
293778.0 356171.0 0
297888.0 355086.0 0
202326.0 358890.0 0
205663.0 359645.0 0
209440.0 360646.0 0
213086.0 361184.0 0
216295.0 358743.0 0
220656.0 358216.0 0
224714.0 360003.0 0
228823.0 361608.0 0
233333.0 359095.0 0
238508.0 361428.0 0
242813.0 363525.0 0
247764.0 359922.0 0
246733.0 363920.0 0
250958.0 363591.0 0
256797.0 364129.0 0
261748.0 360617.0 0
266041.0 362463.0 0
269847.0 359260.0 0
273783.0 361447.0 0
277483.0 358844.0 0
278133.0 363320.0 0
282411.0 360840.0 0
286176.0 359697.0 0
286612.0 363029.0 0
290062.0 359927.0 0
294370.0 360208.0 0
297841.0 358730.0 0
297294.0 363171.0 0
202696.0 363009.0 0
201724.0 366628.0 0
204824.0 366636.0 0
206752.0 363700.0 0
208233.0 367198.0 0
211310.0 364813.0 0
214116.0 367620.0 0
215714.0 364101.0 0
220388.0 363422.0 0
222295.0 368930.0 0
225142.0 364662.0 0
226378.0 368944.0 0
229248.0 366032.0 0
232261.0 363860.0 0
235782.0 365366.0 0
239600.0 366895.0 0
244206.0 368168.0 0
248971.0 367793.0 0
252689.0 367787.0 0
259590.0 369084.0 0
262212.0 365963.0 0
266198.0 367707.0 0
270147.0 364486.0 0
274216.0 366521.0 0
282719.0 365603.0 0
286832.0 367443.0 0
291150.0 368616.0 0
291621.0 364493.0 0
296459.0 368290.0 0
198975.0 378605.0 0
202917.0 374581.0 0
202561.0 370130.0 0
206605.0 373559.0 0
211074.0 374529.0 0
206155.0 369636.0 0
209610.0 370947.0 0
211669.0 368559.0 0
213935.0 371264.0 0
214381.0 374690.0 0
217635.0 368546.0 0
217859.0 373105.0 0
222056.0 373490.0 0
229369.0 370104.0 0
226542.0 373389.0 0
232928.0 368470.0 0
236849.0 371479.0 0
241146.0 370826.0 0
240540.0 373800.0 0
243805.0 373471.0 0
246954.0 371482.0 0
247093.0 374848.0 0
250921.0 372469.0 0
255699.0 371125.0 0
262719.0 370959.0 0
259249.0 374051.0 0
266617.0 372328.0 0
270296.0 369466.0 0
270542.0 374050.0 0
274622.0 371760.0 0
278641.0 368390.0 0
282794.0 369928.0 0
283016.0 375178.0 0
285189.0 371486.0 0
288406.0 371049.0 0
292264.0 372019.0 0
294634.0 374438.0 0
297471.0 373110.0 0
299621.0 378143.0 0
192296.0 382093.0 0
194056.0 383885.0 0
195345.0 380691.0 0
198428.0 382708.0 0
201727.0 379963.0 0
202456.0 382993.0 0
204576.0 378278.0 0
205602.0 382182.0 0
208448.0 378061.0 0
213134.0 379284.0 0
216801.0 376762.0 0
220624.0 377251.0 0
218297.0 380562.0 0
224752.0 377659.0 0
229526.0 377909.0 0
231600.0 373314.0 0
234612.0 376632.0 0
233431.0 380381.0 0
238722.0 376713.0 0
237176.0 380510.0 0
242141.0 376482.0 0
249806.0 376996.0 0
245368.0 378700.0 0
254492.0 377214.0 0
259594.0 378483.0 0
263383.0 376043.0 0
267633.0 375833.0 0
266569.0 379155.0 0
270206.0 378723.0 0
273633.0 376848.0 0
276994.0 375336.0 0
276946.0 379270.0 0
279633.0 372533.0 0
279569.0 376903.0 0
280776.0 380290.0 0
284836.0 379526.0 0
287874.0 375336.0 0
291640.0 377548.0 0
296186.0 379003.0 0
303014.0 380704.0 0
300132.0 383126.0 0
306540.0 382663.0 0
309803.0 383787.0 0
181426.0 388939.0 0
186849.0 385673.0 0
184183.0 387474.0 0
187865.0 388077.0 0
189989.0 384396.0 0
191586.0 386695.0 0
190085.0 389195.0 0
196166.0 384413.0 0
194196.0 387034.0 0
197003.0 386579.0 0
200366.0 385982.0 0
204455.0 385986.0 0
209016.0 382685.0 0
207578.0 386267.0 0
211872.0 384607.0 0
215577.0 383865.0 0
220285.0 384324.0 0
222339.0 381095.0 0
224133.0 385604.0 0
226428.0 382084.0 0
230634.0 383210.0 0
235216.0 383565.0 0
232493.0 386983.0 0
239308.0 384102.0 0
241142.0 380448.0 0
244214.0 383615.0 0
249552.0 381848.0 0
253226.0 383620.0 0
256476.0 381946.0 0
260798.0 382739.0 0
263614.0 380898.0 0
267409.0 383189.0 0
264126.0 385241.0 0
270659.0 381995.0 0
273870.0 381591.0 0
275178.0 385100.0 0
277699.0 383164.0 0
281001.0 384971.0 0
283167.0 382591.0 0
285525.0 384703.0 0
288596.0 381544.0 0
288822.0 386042.0 0
292436.0 382500.0 0
291920.0 385931.0 0
296023.0 383681.0 0
295388.0 388002.0 0
298783.0 386514.0 0
303375.0 384281.0 0
302655.0 386954.0 0
306347.0 386370.0 0
309559.0 387071.0 0
313027.0 386912.0 0
312450.0 384628.0 0
315509.0 387011.0 0
317687.0 389514.0 0
176676.0 392215.0 0
174158.0 393576.0 0
179478.0 391200.0 0
184999.0 390637.0 0
187895.0 392455.0 0
191964.0 390638.0 0
190971.0 393837.0 0
194307.0 390049.0 0
197380.0 389513.0 0
194727.0 392815.0 0
197768.0 392927.0 0
201049.0 389996.0 0
201500.0 393408.0 0
204545.0 389873.0 0
207498.0 390294.0 0
210320.0 387834.0 0
210749.0 391616.0 0
214021.0 388618.0 0
214094.0 392709.0 0
217720.0 387300.0 0
217674.0 391013.0 0
220985.0 388658.0 0
224714.0 389850.0 0
228205.0 387238.0 0
230932.0 390926.0 0
234997.0 390232.0 0
236193.0 386431.0 0
238649.0 388475.0 0
241859.0 386771.0 0
244745.0 388218.0 0
241508.0 391261.0 0
247509.0 386127.0 0
251450.0 387524.0 0
255411.0 386599.0 0
257910.0 389301.0 0
258351.0 385620.0 0
254840.0 390449.0 0
261108.0 387197.0 0
260732.0 390920.0 0
264138.0 389738.0 0
267433.0 387958.0 0
271444.0 385849.0 0
270647.0 390698.0 0
274646.0 388963.0 0
277885.0 387273.0 0
280506.0 389700.0 0
283654.0 388276.0 0
287272.0 389015.0 0
290920.0 389791.0 0
294118.0 391143.0 0
296171.0 393372.0 0
300285.0 389853.0 0
297672.0 390684.0 0
302586.0 391817.0 0
305651.0 390128.0 0
305937.0 393606.0 0
309277.0 390596.0 0
312439.0 390397.0 0
314960.0 390703.0 0
316130.0 393294.0 0
312910.0 393612.0 0
323296.0 391723.0 0
320160.0 391197.0 0
325260.0 394561.0 0
328651.0 395490.0 0
166713.0 398508.0 0
171966.0 395298.0 0
169354.0 396797.0 0
171045.0 398811.0 0
177307.0 395783.0 0
173997.0 397667.0 0
177401.0 398947.0 0
180743.0 396723.0 0
182502.0 393506.0 0
185920.0 395667.0 0
183880.0 398075.0 0
188995.0 397967.0 0
193726.0 396141.0 0
198023.0 396373.0 0
202424.0 397023.0 0
204348.0 393175.0 0
207433.0 394611.0 0
210189.0 397922.0 0
211459.0 394820.0 0
213850.0 396692.0 0
217208.0 395199.0 0
221406.0 393138.0 0
225441.0 393813.0 0
223223.0 396339.0 0
225859.0 396965.0 0
227810.0 391306.0 0
229121.0 395135.0 0
233437.0 394734.0 0
237768.0 392977.0 0
236885.0 396387.0 0
240451.0 396168.0 0
244952.0 391895.0 0
243342.0 394525.0 0
248211.0 390730.0 0
249797.0 394834.0 0
246582.0 394961.0 0
251664.0 392140.0 0
254067.0 393772.0 0
257850.0 394325.0 0
262854.0 394476.0 0
267277.0 393354.0 0
269052.0 397259.0 0
271413.0 395247.0 0
273473.0 392919.0 0
277278.0 392510.0 0
275033.0 396381.0 0
281177.0 393544.0 0
283430.0 396825.0 0
284754.0 392406.0 0
286833.0 396629.0 0
288769.0 393693.0 0
294714.0 396003.0 0
292771.0 393701.0 0
299805.0 394098.0 0
297802.0 397264.0 0
301324.0 399065.0 0
303329.0 395977.0 0
309371.0 394895.0 0
306784.0 398274.0 0
311991.0 398231.0 0
314168.0 396218.0 0
319951.0 394228.0 0
317271.0 396216.0 0
319560.0 399310.0 0
322660.0 396916.0 0
331038.0 396772.0 0
327330.0 398281.0 0
329065.0 399815.0 0
333316.0 398718.0 0
161182.0 401790.0 0
158552.0 403892.0 0
162262.0 404193.0 0
164169.0 400491.0 0
165618.0 402965.0 0
168954.0 400501.0 0
171784.0 401010.0 0
168670.0 403127.0 0
171847.0 403194.0 0
174637.0 400784.0 0
175229.0 403391.0 0
178430.0 403615.0 0
181350.0 400528.0 0
178523.0 400961.0 0
182023.0 403941.0 0
185546.0 401314.0 0
188936.0 402433.0 0
191294.0 400595.0 0
194737.0 399517.0 0
195547.0 403137.0 0
199086.0 400227.0 0
199972.0 403506.0 0
202555.0 401364.0 0
205762.0 399018.0 0
208547.0 401630.0 0
213027.0 400171.0 0
216437.0 399475.0 0
215692.0 402484.0 0
220042.0 398120.0 0
223365.0 400562.0 0
227888.0 399634.0 0
231356.0 398877.0 0
235076.0 399212.0 0
238399.0 399262.0 0
243884.0 398050.0 0
241268.0 401097.0 0
248046.0 399269.0 0
253070.0 397809.0 0
257296.0 399603.0 0
261059.0 398536.0 0
263147.0 401916.0 0
265464.0 398602.0 0
268902.0 400866.0 0
272603.0 399744.0 0
276197.0 400041.0 0
278936.0 397393.0 0
278879.0 401864.0 0
282150.0 400786.0 0
285748.0 400487.0 0
289143.0 399418.0 0
292359.0 400482.0 0
291800.0 397112.0 0
294680.0 399021.0 0
294452.0 402046.0 0
297710.0 401135.0 0
297461.0 404268.0 0
301188.0 403021.0 0
304862.0 401480.0 0
309497.0 400459.0 0
312448.0 401848.0 0
315866.0 400495.0 0
321198.0 402734.0 0
324409.0 400477.0 0
327048.0 403055.0 0
324296.0 404146.0 0
331553.0 401120.0 0
330431.0 403837.0 0
336089.0 400547.0 0
334493.0 403149.0 0
333343.0 405404.0 0
338761.0 402225.0 0
338020.0 405105.0 0
341472.0 403498.0 0
150367.0 408540.0 0
152408.0 406996.0 0
155455.0 406177.0 0
155279.0 409740.0 0
159725.0 406760.0 0
158562.0 409825.0 0
164646.0 405697.0 0
162446.0 408085.0 0
166630.0 407430.0 0
164247.0 410250.0 0
169302.0 405875.0 0
167826.0 409812.0 0
170030.0 408635.0 0
172863.0 405817.0 0
176184.0 406188.0 0
172985.0 409748.0 0
179524.0 407115.0 0
182046.0 409163.0 0
183974.0 406312.0 0
186679.0 405157.0 0
189513.0 404528.0 0
191833.0 403426.0 0
189108.0 408030.0 0
192490.0 406671.0 0
197451.0 407080.0 0
201047.0 409196.0 0
202367.0 405332.0 0
205021.0 403301.0 0
204885.0 407188.0 0
207243.0 405217.0 0
211790.0 404711.0 0
216305.0 406063.0 0
219064.0 402883.0 0
222442.0 405346.0 0
226219.0 403301.0 0
226286.0 406801.0 0
229916.0 403479.0 0
233316.0 402643.0 0
233380.0 406654.0 0
237377.0 403685.0 0
244759.0 402031.0 0
242475.0 406628.0 0
247579.0 404478.0 0
251216.0 402465.0 0
254780.0 402701.0 0
257855.0 403328.0 0
260147.0 402383.0 0
256666.0 407000.0 0
261693.0 407025.0 0
266789.0 404473.0 0
271442.0 404170.0 0
273681.0 407281.0 0
275228.0 403959.0 0
278871.0 405724.0 0
282516.0 404655.0 0
285587.0 403696.0 0
290042.0 404095.0 0
294284.0 406171.0 0
297624.0 408274.0 0
299975.0 406339.0 0
304773.0 406797.0 0
308696.0 404164.0 0
311203.0 408165.0 0
312835.0 404963.0 0
317266.0 405319.0 0
322819.0 407000.0 0
326954.0 407387.0 0
329918.0 406315.0 0
336374.0 406878.0 0
332390.0 408025.0 0
335710.0 409663.0 0
343331.0 405518.0 0
340023.0 406909.0 0
342724.0 408888.0 0
346352.0 406621.0 0
345609.0 409043.0 0
347305.0 411166.0 0
349013.0 407958.0 0
351529.0 409537.0 0
138013.0 415939.0 0
140438.0 414604.0 0
145207.0 411354.0 0
142650.0 413138.0 0
144983.0 414332.0 0
148143.0 410589.0 0
149175.0 412998.0 0
152350.0 410509.0 0
152112.0 413340.0 0
155310.0 413334.0 0
160887.0 410329.0 0
158546.0 412944.0 0
161961.0 412884.0 0
166033.0 412229.0 0
164796.0 414917.0 0
169239.0 412729.0 0
176839.0 410328.0 0
172916.0 414157.0 0
180316.0 413050.0 0
185834.0 409738.0 0
184174.0 412717.0 0
188031.0 412567.0 0
190649.0 410972.0 0
192562.0 413459.0 0
193894.0 410175.0 0
195336.0 413458.0 0
197300.0 411159.0 0
199557.0 413846.0 0
204238.0 411424.0 0
208373.0 409013.0 0
211203.0 412579.0 0
212753.0 409081.0 0
215892.0 410289.0 0
219429.0 407681.0 0
219250.0 411981.0 0
223083.0 410238.0 0
227228.0 410215.0 0
229703.0 407120.0 0
228718.0 413076.0 0
230978.0 410187.0 0
234137.0 410875.0 0
237306.0 408637.0 0
240217.0 411627.0 0
245449.0 410041.0 0
248066.0 408293.0 0
252157.0 406654.0 0
251015.0 410758.0 0
258647.0 412064.0 0
254757.0 411540.0 0
262920.0 412782.0 0
266496.0 409762.0 0
270398.0 408045.0 0
273418.0 411712.0 0
269617.0 412057.0 0
277067.0 409042.0 0
280438.0 412276.0 0
282027.0 408780.0 0
286495.0 408182.0 0
289585.0 411772.0 0
290454.0 408290.0 0
297025.0 411501.0 0
293302.0 410426.0 0
295699.0 414125.0 0
301768.0 411033.0 0
306661.0 412624.0 0
308326.0 409153.0 0
311598.0 412691.0 0
315103.0 409562.0 0
319817.0 409350.0 0
318453.0 411838.0 0
321357.0 413755.0 0
325799.0 410603.0 0
322844.0 410773.0 0
324757.0 413587.0 0
330424.0 410486.0 0
328083.0 412930.0 0
330696.0 414746.0 0
333869.0 413191.0 0
337791.0 414037.0 0
339627.0 410347.0 0
342660.0 413213.0 0
344234.0 411552.0 0
346781.0 414122.0 0
350114.0 411639.0 0
352883.0 413061.0 0
350080.0 415368.0 0
354284.0 411241.0 0
356863.0 413180.0 0
354964.0 415262.0 0
359494.0 415331.0 0
136043.0 418300.0 0
132856.0 419470.0 0
139723.0 418131.0 0
140908.0 419619.0 0
141438.0 416602.0 0
143807.0 417359.0 0
143008.0 419897.0 0
146856.0 418856.0 0
148234.0 415999.0 0
151729.0 417023.0 0
150750.0 420051.0 0
155058.0 416995.0 0
158466.0 416379.0 0
161095.0 415806.0 0
159649.0 419537.0 0
162934.0 417957.0 0
165940.0 418867.0 0
167695.0 416175.0 0
170969.0 418294.0 0
176448.0 415403.0 0
175035.0 419114.0 0
178661.0 417839.0 0
182185.0 417202.0 0
185916.0 415240.0 0
189981.0 414672.0 0
188786.0 417407.0 0
192506.0 416262.0 0
195568.0 416571.0 0
199226.0 418832.0 0
203296.0 415706.0 0
206453.0 417205.0 0
207530.0 413802.0 0
210150.0 416870.0 0
212778.0 417326.0 0
214425.0 414389.0 0
217976.0 415474.0 0
222015.0 415548.0 0
225316.0 413905.0 0
224608.0 417635.0 0
227938.0 417004.0 0
232080.0 414686.0 0
234605.0 417532.0 0
236928.0 414069.0 0
243459.0 412785.0 0
240913.0 416747.0 0
247937.0 413084.0 0
245278.0 416980.0 0
249023.0 416986.0 0
252131.0 414886.0 0
256127.0 416557.0 0
259883.0 416098.0 0
263432.0 417706.0 0
267017.0 414907.0 0
271492.0 416382.0 0
275261.0 416189.0 0
276944.0 413736.0 0
279129.0 415413.0 0
281736.0 416165.0 0
285312.0 413508.0 0
284669.0 417758.0 0
289479.0 416209.0 0
292982.0 414709.0 0
296165.0 417595.0 0
298936.0 414929.0 0
300182.0 418949.0 0
303024.0 415930.0 0
306328.0 416892.0 0
309735.0 416456.0 0
315983.0 414440.0 0
313561.0 417442.0 0
317416.0 418439.0 0
319645.0 415954.0 0
321427.0 418894.0 0
324289.0 416965.0 0
327521.0 415939.0 0
326903.0 419568.0 0
330123.0 418012.0 0
333900.0 417576.0 0
340639.0 414857.0 0
337823.0 417867.0 0
341489.0 418371.0 0
344540.0 416625.0 0
345204.0 420315.0 0
352513.0 417602.0 0
347790.0 418068.0 0
350679.0 420021.0 0
357618.0 417931.0 0
355545.0 420219.0 0
362487.0 417134.0 0
360368.0 419755.0 0
365035.0 419178.0 0
368363.0 419822.0 0
124246.0 425595.0 0
127130.0 423239.0 0
129903.0 421673.0 0
130152.0 424954.0 0
133297.0 422460.0 0
132606.0 425404.0 0
136220.0 423769.0 0
137345.0 420868.0 0
139950.0 422045.0 0
143898.0 421701.0 0
141582.0 424991.0 0
147356.0 422186.0 0
150220.0 424516.0 0
152848.0 422065.0 0
155895.0 420507.0 0
154208.0 424720.0 0
157419.0 423806.0 0
160778.0 422445.0 0
163781.0 420771.0 0
165097.0 423072.0 0
167643.0 420607.0 0
168626.0 423817.0 0
171641.0 422210.0 0
175143.0 423055.0 0
178490.0 421065.0 0
179101.0 424505.0 0
185830.0 420204.0 0
181858.0 421617.0 0
183116.0 424447.0 0
186660.0 424335.0 0
189368.0 421397.0 0
191127.0 424325.0 0
191597.0 419294.0 0
194894.0 421142.0 0
203039.0 419864.0 0
207288.0 420913.0 0
211856.0 420749.0 0
215641.0 419051.0 0
219514.0 418663.0 0
218355.0 422277.0 0
222378.0 420452.0 0
226354.0 421079.0 0
229379.0 422653.0 0
231122.0 419459.0 0
235121.0 420984.0 0
237370.0 418090.0 0
239372.0 421331.0 0
243775.0 420723.0 0
247639.0 420462.0 0
252032.0 419442.0 0
255612.0 421038.0 0
259583.0 420907.0 0
262666.0 423093.0 0
263884.0 421133.0 0
267814.0 419922.0 0
271769.0 420912.0 0
274761.0 419787.0 0
278581.0 418571.0 0
277534.0 422160.0 0
282451.0 419538.0 0
281363.0 423350.0 0
285125.0 421435.0 0
287228.0 419139.0 0
288235.0 423258.0 0
289965.0 420418.0 0
292717.0 423428.0 0
292893.0 418893.0 0
297022.0 422515.0 0
301166.0 422837.0 0
304097.0 420345.0 0
304287.0 424119.0 0
307663.0 419907.0 0
307764.0 423850.0 0
311193.0 420288.0 0
315491.0 422056.0 0
319468.0 421793.0 0
322252.0 422930.0 0
324679.0 421424.0 0
326981.0 424576.0 0
330960.0 421453.0 0
328276.0 421676.0 0
330774.0 424548.0 0
334164.0 421223.0 0
333999.0 424134.0 0
337493.0 421492.0 0
337313.0 424471.0 0
340628.0 422017.0 0
343531.0 421614.0 0
346382.0 422553.0 0
344548.0 424121.0 0
347616.0 420823.0 0
349842.0 423166.0 0
353375.0 422972.0 0
357245.0 424217.0 0
363136.0 421978.0 0
359686.0 422577.0 0
368271.0 422854.0 0
365006.0 425198.0 0
373148.0 423063.0 0
371073.0 421487.0 0
375445.0 425335.0 0
115309.0 430888.0 0
118066.0 429480.0 0
121527.0 428019.0 0
125667.0 429081.0 0
127813.0 426947.0 0
129755.0 429680.0 0
133727.0 428095.0 0
137412.0 426654.0 0
140883.0 429915.0 0
145240.0 425430.0 0
144698.0 429657.0 0
148254.0 428017.0 0
152109.0 427157.0 0
155272.0 427796.0 0
152357.0 429858.0 0
161734.0 425269.0 0
158883.0 427586.0 0
164817.0 427046.0 0
161891.0 429920.0 0
168578.0 427829.0 0
172230.0 426040.0 0
176008.0 426678.0 0
178746.0 428944.0 0
180769.0 426957.0 0
184205.0 428864.0 0
188367.0 427405.0 0
194932.0 425508.0 0
191730.0 428937.0 0
199074.0 423886.0 0
203184.0 423532.0 0
201511.0 428012.0 0
205803.0 426226.0 0
209330.0 424430.0 0
209516.0 428242.0 0
212836.0 425084.0 0
215146.0 422839.0 0
212906.0 428731.0 0
216962.0 426795.0 0
220847.0 424169.0 0
223739.0 424009.0 0
221637.0 428221.0 0
227281.0 426832.0 0
232283.0 423693.0 0
232224.0 426878.0 0
236185.0 425029.0 0
241988.0 424682.0 0
246592.0 425010.0 0
250216.0 423074.0 0
253214.0 423686.0 0
256633.0 425709.0 0
261099.0 426321.0 0
266187.0 424607.0 0
271112.0 424949.0 0
274773.0 423701.0 0
277901.0 426344.0 0
285192.0 424623.0 0
287616.0 427496.0 0
290815.0 426450.0 0
294738.0 428316.0 0
298146.0 426484.0 0
301805.0 426396.0 0
306210.0 427333.0 0
311622.0 424425.0 0
310882.0 429139.0 0
314955.0 426557.0 0
318974.0 425728.0 0
320668.0 429470.0 0
323370.0 426219.0 0
324503.0 429549.0 0
328000.0 428434.0 0
331670.0 427427.0 0
334871.0 427138.0 0
338512.0 427906.0 0
340962.0 425163.0 0
342227.0 429144.0 0
348124.0 425754.0 0
344137.0 427043.0 0
346795.0 428959.0 0
353229.0 426119.0 0
351159.0 427938.0 0
356362.0 427381.0 0
354125.0 429791.0 0
360937.0 425813.0 0
363468.0 428691.0 0
359626.0 429653.0 0
367697.0 428184.0 0
370525.0 425349.0 0
372826.0 427485.0 0
370177.0 430136.0 0
374309.0 430326.0 0
378268.0 427235.0 0
377946.0 430619.0 0
381629.0 428103.0 0
384192.0 430792.0 0
386920.0 431042.0 0
110405.0 432942.0 0
108652.0 435011.0 0
112467.0 432158.0 0
111223.0 435656.0 0
114302.0 434297.0 0
118685.0 433609.0 0
123090.0 431678.0 0
122742.0 435223.0 0
126752.0 432209.0 0
131387.0 433214.0 0
127178.0 434950.0 0
134649.0 431256.0 0
134045.0 435440.0 0
136437.0 433516.0 0
137360.0 430588.0 0
139032.0 433661.0 0
142567.0 434228.0 0
145838.0 432735.0 0
149469.0 431633.0 0
148033.0 435668.0 0
155071.0 431045.0 0
152618.0 433932.0 0
157860.0 431420.0 0
160698.0 433279.0 0
165322.0 431417.0 0
163948.0 434756.0 0
168777.0 431714.0 0
172397.0 429711.0 0
172318.0 433983.0 0
175645.0 430813.0 0
176324.0 433798.0 0
180401.0 432389.0 0
184414.0 433515.0 0
188081.0 431466.0 0
196485.0 429744.0 0
199839.0 432507.0 0
202462.0 431950.0 0
205931.0 431050.0 0
210557.0 432514.0 0
214968.0 431201.0 0
218198.0 430724.0 0
224212.0 431128.0 0
226979.0 432347.0 0
230675.0 430858.0 0
234853.0 429500.0 0
239389.0 428394.0 0
243907.0 429228.0 0
241507.0 432623.0 0
247367.0 429982.0 0
251347.0 428002.0 0
252923.0 432855.0 0
255273.0 430136.0 0
258890.0 430553.0 0
262213.0 430997.0 0
264905.0 428822.0 0
269507.0 429797.0 0
272768.0 432800.0 0
274388.0 428801.0 0
276377.0 433056.0 0
278526.0 430320.0 0
283153.0 429048.0 0
287837.0 431757.0 0
290916.0 429806.0 0
296670.0 432620.0 0
299430.0 430194.0 0
303638.0 429948.0 0
302037.0 432578.0 0
304859.0 434062.0 0
306769.0 430937.0 0
309032.0 434074.0 0
312629.0 434078.0 0
314563.0 431905.0 0
316653.0 429453.0 0
318799.0 433423.0 0
322952.0 432067.0 0
327170.0 432926.0 0
331621.0 430875.0 0
331450.0 434179.0 0
335160.0 430415.0 0
335687.0 434434.0 0
339282.0 431787.0 0
342607.0 433190.0 0
344796.0 431333.0 0
347575.0 433317.0 0
350114.0 431082.0 0
353273.0 434094.0 0
356649.0 432247.0 0
358476.0 434704.0 0
362101.0 433431.0 0
365471.0 431024.0 0
366900.0 433710.0 0
370249.0 433321.0 0
373723.0 433563.0 0
377200.0 434487.0 0
381619.0 431672.0 0
381054.0 435056.0 0
386100.0 434309.0 0
388659.0 432740.0 0
391013.0 434595.0 0
101017.0 440211.0 0
103043.0 437833.0 0
105828.0 440132.0 0
106405.0 437232.0 0
109311.0 439123.0 0
114782.0 437437.0 0
111865.0 438296.0 0
112382.0 441244.0 0
115137.0 440747.0 0
118181.0 437160.0 0
118315.0 441025.0 0
121385.0 437690.0 0
125022.0 436824.0 0
129715.0 436773.0 0
126903.0 439712.0 0
132897.0 438949.0 0
137558.0 437503.0 0
140905.0 437103.0 0
144726.0 436592.0 0
143180.0 440398.0 0
147601.0 439676.0 0
151673.0 437632.0 0
154376.0 439746.0 0
156632.0 435721.0 0
157240.0 440066.0 0
160652.0 437528.0 0
164412.0 438970.0 0
167942.0 435933.0 0
170958.0 438465.0 0
174710.0 437154.0 0
178306.0 436222.0 0
181969.0 437195.0 0
185133.0 439281.0 0
187138.0 435957.0 0
188929.0 439157.0 0
192157.0 434604.0 0
191667.0 439007.0 0
197247.0 435679.0 0
198757.0 439189.0 0
202456.0 436307.0 0
206891.0 435254.0 0
210066.0 437531.0 0
213252.0 434748.0 0
214600.0 438091.0 0
216854.0 434389.0 0
218834.0 438452.0 0
220931.0 433711.0 0
224290.0 434347.0 0
223015.0 438457.0 0
225995.0 436211.0 0
229532.0 435697.0 0
233475.0 433762.0 0
232436.0 436792.0 0
237426.0 433114.0 0
239981.0 436374.0 0
235672.0 437735.0 0
242978.0 435586.0 0
245305.0 433654.0 0
249378.0 433455.0 0
246977.0 437995.0 0
251982.0 437958.0 0
256825.0 435481.0 0
261540.0 435193.0 0
265666.0 433610.0 0
269514.0 435598.0 0
273872.0 437495.0 0
278108.0 436716.0 0
281466.0 434209.0 0
281404.0 438955.0 0
284812.0 437775.0 0
285324.0 433951.0 0
288347.0 436395.0 0
292410.0 433693.0 0
296771.0 437273.0 0
300458.0 435193.0 0
303723.0 437544.0 0
307655.0 437807.0 0
312100.0 437741.0 0
315383.0 435646.0 0
315933.0 438879.0 0
318874.0 437831.0 0
322924.0 435820.0 0
326313.0 437044.0 0
329744.0 437164.0 0
333333.0 437385.0 0
334067.0 440615.0 0
336924.0 438824.0 0
340387.0 436776.0 0
345056.0 436263.0 0
344673.0 440165.0 0
348335.0 439482.0 0
349631.0 436547.0 0
352892.0 439256.0 0
356739.0 437244.0 0
357813.0 440310.0 0
361018.0 437117.0 0
365040.0 440074.0 0
365075.0 436632.0 0
372920.0 437487.0 0
368910.0 437191.0 0
376963.0 438020.0 0
380315.0 437948.0 0
383951.0 435872.0 0
388925.0 436941.0 0
383849.0 439708.0 0
386883.0 438912.0 0
393593.0 437150.0 0
392714.0 440700.0 0
390153.0 439914.0 0
396789.0 438471.0 0
399790.0 440288.0 0
89808.0 445894.0 0
95363.2 443088.0 0
92893.2 444503.0 0
97748.4 441314.0 0
100163.0 444224.0 0
97098.6 445283.0 0
103478.0 442051.0 0
101977.0 446770.0 0
106572.0 443252.0 0
109530.0 441775.0 0
105489.0 446292.0 0
110283.0 445319.0 0
113829.0 443912.0 0
117449.0 444373.0 0
120962.0 444870.0 0
122572.0 441112.0 0
124474.0 445761.0 0
130090.0 441442.0 0
126308.0 443187.0 0
128542.0 444165.0 0
135238.0 442006.0 0
131984.0 444454.0 0
135405.0 445877.0 0
139166.0 441227.0 0
139041.0 445423.0 0
142938.0 444707.0 0
146510.0 443284.0 0
149235.0 444442.0 0
150884.0 441631.0 0
153995.0 443640.0 0
157778.0 443455.0 0
160748.0 441164.0 0
161156.0 444289.0 0
163859.0 442873.0 0
167586.0 440396.0 0
166765.0 443446.0 0
170296.0 442117.0 0
173700.0 440790.0 0
173837.0 444746.0 0
177893.0 440389.0 0
177957.0 444176.0 0
181899.0 442165.0 0
186536.0 442456.0 0
190971.0 442665.0 0
195034.0 439777.0 0
195037.0 444077.0 0
198109.0 441976.0 0
201410.0 440922.0 0
205974.0 439569.0 0
203939.0 443423.0 0
208445.0 443631.0 0
211950.0 441364.0 0
216179.0 442366.0 0
220556.0 442926.0 0
224623.0 442732.0 0
227090.0 439336.0 0
228299.0 442596.0 0
231264.0 440121.0 0
234548.0 442266.0 0
238975.0 441215.0 0
242989.0 438483.0 0
249341.0 442371.0 0
253066.0 442857.0 0
256279.0 440872.0 0
260455.0 439744.0 0
265233.0 439122.0 0
269887.0 440276.0 0
273465.0 442861.0 0
277415.0 440740.0 0
280554.0 442227.0 0
284128.0 441689.0 0
287794.0 440956.0 0
292537.0 439480.0 0
295216.0 443616.0 0
296985.0 441035.0 0
300638.0 440267.0 0
302668.0 443813.0 0
305331.0 441642.0 0
310137.0 441366.0 0
314276.0 441760.0 0
318766.0 441998.0 0
322103.0 439869.0 0
323174.0 444312.0 0
326582.0 440981.0 0
330862.0 440675.0 0
330175.0 443866.0 0
334095.0 444233.0 0
337112.0 442177.0 0
340579.0 441657.0 0
344018.0 444431.0 0
347588.0 442782.0 0
350617.0 441875.0 0
352221.0 445305.0 0
355149.0 442488.0 0
359206.0 444109.0 0
361372.0 440645.0 0
363932.0 444414.0 0
367653.0 444067.0 0
368485.0 440566.0 0
372547.0 441350.0 0
371551.0 445595.0 0
377146.0 441906.0 0
375733.0 445435.0 0
380552.0 441087.0 0
379717.0 445788.0 0
381723.0 443508.0 0
388307.0 441556.0 0
385351.0 443857.0 0
390456.0 443102.0 0
393396.0 444150.0 0
396734.0 442843.0 0
396542.0 446510.0 0
402498.0 441795.0 0
400239.0 444605.0 0
404971.0 444390.0 0
408464.0 446736.0 0
82431.4 451583.0 0
84748.0 449536.0 0
87789.6 448201.0 0
92567.1 447609.0 0
91819.4 450954.0 0
96309.6 447989.0 0
95670.9 450851.0 0
99359.9 449334.0 0
103524.0 449803.0 0
101760.0 451443.0 0
106768.0 449062.0 0
114617.0 447312.0 0
110808.0 449085.0 0
117917.0 447570.0 0
116274.0 450123.0 0
121152.0 448703.0 0
124009.0 450690.0 0
124931.0 448559.0 0
127605.0 447108.0 0
130945.0 448034.0 0
126900.0 449890.0 0
134485.0 448939.0 0
138068.0 450026.0 0
142326.0 449247.0 0
146208.0 447177.0 0
151010.0 447806.0 0
155318.0 447322.0 0
159356.0 447282.0 0
163842.0 447143.0 0
167171.0 449063.0 0
168925.0 445777.0 0
171710.0 449564.0 0
176779.0 448201.0 0
180200.0 445799.0 0
181281.0 449309.0 0
183778.0 445799.0 0
187640.0 446219.0 0
191237.0 446807.0 0
188432.0 449307.0 0
194926.0 448563.0 0
199894.0 445915.0 0
205038.0 447371.0 0
209403.0 448241.0 0
213063.0 445561.0 0
217517.0 446684.0 0
222902.0 448050.0 0
227024.0 445702.0 0
228415.0 448879.0 0
231377.0 445210.0 0
236182.0 446000.0 0
239697.0 444906.0 0
244262.0 443415.0 0
248210.0 446482.0 0
251650.0 446467.0 0
259049.0 443876.0 0
255673.0 445831.0 0
263197.0 444078.0 0
267863.0 444422.0 0
265260.0 448135.0 0
271393.0 446585.0 0
275046.0 446623.0 0
277763.0 444541.0 0
281971.0 445645.0 0
286773.0 445925.0 0
291290.0 444508.0 0
295645.0 448295.0 0
299144.0 444710.0 0
302363.0 446932.0 0
305480.0 446075.0 0
308565.0 444636.0 0
309245.0 448855.0 0
312774.0 446220.0 0
316204.0 448271.0 0
316705.0 444911.0 0
320055.0 447148.0 0
324787.0 448409.0 0
327311.0 445765.0 0
328496.0 449593.0 0
331495.0 447360.0 0
338165.0 445231.0 0
335983.0 448258.0 0
340921.0 446044.0 0
340209.0 449679.0 0
344496.0 448746.0 0
348374.0 446373.0 0
348096.0 449600.0 0
350880.0 449843.0 0
353891.0 449039.0 0
356468.0 446525.0 0
358094.0 450030.0 0
361339.0 447405.0 0
364172.0 450124.0 0
366218.0 447433.0 0
369031.0 448732.0 0
373829.0 449401.0 0
377672.0 449060.0 0
383107.0 447535.0 0
381170.0 450577.0 0
385728.0 450793.0 0
386340.0 448276.0 0
388193.0 449902.0 0
388927.0 446254.0 0
392470.0 446357.0 0
390889.0 450204.0 0
394352.0 448757.0 0
397776.0 450563.0 0
399925.0 448350.0 0
403096.0 447205.0 0
402590.0 450916.0 0
405680.0 449437.0 0
412448.0 447961.0 0
410027.0 450357.0 0
415099.0 450488.0 0
79585.2 453816.0 0
76572.3 455913.0 0
84953.8 454002.0 0
81832.1 455948.0 0
88113.7 451907.0 0
89722.8 455792.0 0
93535.1 454181.0 0
98063.5 453430.0 0
102067.0 454297.0 0
105314.0 456257.0 0
105690.0 452456.0 0
109383.0 452986.0 0
108959.0 456502.0 0
113767.0 451426.0 0
112473.0 454304.0 0
115268.0 453986.0 0
119099.0 452676.0 0
122834.0 453060.0 0
124532.0 455409.0 0
130037.0 451810.0 0
126249.0 452894.0 0
128444.0 454928.0 0
133474.0 451980.0 0
131981.0 455950.0 0
136162.0 453981.0 0
140610.0 453107.0 0
143244.0 452360.0 0
143442.0 454827.0 0
146795.0 451569.0 0
146201.0 455727.0 0
149456.0 454637.0 0
151430.0 451880.0 0
152791.0 455120.0 0
155224.0 451249.0 0
159756.0 451131.0 0
163953.0 452057.0 0
166489.0 454730.0 0
167719.0 451903.0 0
170094.0 454197.0 0
174758.0 452164.0 0
178355.0 451878.0 0
182534.0 454245.0 0
185069.0 449587.0 0
187019.0 453001.0 0
191098.0 451086.0 0
194187.0 453338.0 0
198372.0 451301.0 0
202360.0 450202.0 0
203982.0 452636.0 0
206131.0 451028.0 0
209969.0 453099.0 0
213956.0 449686.0 0
218365.0 451123.0 0
222174.0 453942.0 0
230218.0 452904.0 0
226037.0 452079.0 0
232893.0 449460.0 0
234328.0 453717.0 0
237248.0 450802.0 0
240892.0 448242.0 0
245147.0 449387.0 0
249469.0 450205.0 0
253989.0 450831.0 0
260287.0 449759.0 0
265410.0 453112.0 0
268415.0 449346.0 0
273047.0 450582.0 0
269559.0 453121.0 0
276490.0 453964.0 0
278537.0 449530.0 0
283688.0 450543.0 0
287510.0 450733.0 0
291071.0 449122.0 0
290049.0 453377.0 0
294079.0 453126.0 0
298247.0 453712.0 0
300060.0 449903.0 0
302179.0 454354.0 0
304794.0 450884.0 0
309417.0 453176.0 0
314087.0 451804.0 0
317996.0 451034.0 0
322355.0 451739.0 0
326426.0 452532.0 0
329898.0 453008.0 0
333026.0 451537.0 0
335875.0 454855.0 0
337132.0 451860.0 0
340472.0 454426.0 0
343522.0 452435.0 0
347261.0 452409.0 0
351636.0 453230.0 0
354962.0 452176.0 0
358203.0 454811.0 0
361206.0 452536.0 0
367183.0 450838.0 0
365214.0 453757.0 0
368436.0 453222.0 0
371241.0 451791.0 0
373911.0 453543.0 0
378325.0 453395.0 0
375846.0 455895.0 0
375395.0 452137.0 0
383466.0 452895.0 0
388561.0 452955.0 0
386146.0 454651.0 0
394155.0 451650.0 0
392443.0 453457.0 0
395926.0 452575.0 0
398810.0 453345.0 0
395465.0 454983.0 0
400889.0 452765.0 0
402404.0 455723.0 0
404935.0 453645.0 0
407761.0 452251.0 0
407209.0 456686.0 0
412439.0 452686.0 0
409905.0 454875.0 0
414423.0 455320.0 0
418246.0 452735.0 0
417617.0 455964.0 0
421978.0 454857.0 0
425988.0 456594.0 0
69734.0 458819.0 0
66680.8 461842.0 0
73232.6 457585.0 0
70292.2 461692.0 0
73691.4 460719.0 0
78683.2 459192.0 0
82351.1 458970.0 0
81444.0 461796.0 0
84566.3 461479.0 0
86117.2 457219.0 0
87701.7 460133.0 0
91056.4 458966.0 0
94511.4 457749.0 0
98155.3 457180.0 0
95383.2 460744.0 0
99225.4 460329.0 0
101683.0 457195.0 0
103503.0 459927.0 0
106650.0 459371.0 0
112784.0 457067.0 0
110108.0 460044.0 0
113667.0 460651.0 0
116681.0 457457.0 0
121262.0 456249.0 0
123678.0 458472.0 0
120430.0 459671.0 0
127268.0 457785.0 0
135223.0 457858.0 0
130773.0 459446.0 0
133735.0 460659.0 0
139386.0 457133.0 0
143608.0 459353.0 0
149365.0 458750.0 0
154231.0 458455.0 0
156673.0 455175.0 0
160769.0 455096.0 0
159128.0 459154.0 0
163928.0 457187.0 0
167531.0 456931.0 0
170099.0 458582.0 0
173689.0 455987.0 0
177786.0 455565.0 0
179538.0 458658.0 0
182822.0 458829.0 0
186389.0 457420.0 0
190402.0 455730.0 0
193954.0 457524.0 0
196856.0 455121.0 0
197967.0 458625.0 0
201161.0 455019.0 0
205628.0 455331.0 0
208560.0 458596.0 0
212429.0 456573.0 0
214982.0 453774.0 0
215776.0 457534.0 0
218234.0 455061.0 0
219228.0 458335.0 0
222982.0 458499.0 0
227213.0 456870.0 0
232184.0 457232.0 0
238052.0 454724.0 0
236014.0 456976.0 0
241781.0 453279.0 0
240040.0 458475.0 0
244103.0 457042.0 0
246630.0 453607.0 0
248529.0 458232.0 0
250250.0 453816.0 0
253275.0 456004.0 0
257131.0 454426.0 0
256802.0 458236.0 0
261187.0 456428.0 0
265045.0 457987.0 0
268469.0 457073.0 0
272737.0 455828.0 0
277110.0 458460.0 0
281327.0 455372.0 0
284178.0 459204.0 0
286511.0 455267.0 0
291521.0 457674.0 0
295870.0 457475.0 0
299761.0 458142.0 0
303609.0 457634.0 0
306372.0 455757.0 0
310404.0 457491.0 0
312362.0 455126.0 0
314637.0 457152.0 0
318922.0 455533.0 0
322552.0 459678.0 0
324241.0 455956.0 0
328438.0 456086.0 0
332097.0 455722.0 0
331570.0 459514.0 0
334513.0 458208.0 0
338237.0 458292.0 0
342575.0 458782.0 0
344752.0 455567.0 0
346792.0 458883.0 0
348844.0 456123.0 0
350743.0 459947.0 0
352404.0 456910.0 0
354741.0 455543.0 0
354886.0 459371.0 0
356460.0 457165.0 0
357771.0 458466.0 0
362790.0 455869.0 0
360140.0 457777.0 0
361622.0 459993.0 0
364473.0 459164.0 0
367936.0 457030.0 0
371876.0 456197.0 0
371309.0 459871.0 0
374423.0 459546.0 0
378119.0 458551.0 0
381419.0 456238.0 0
386155.0 458208.0 0
390378.0 456530.0 0
393887.0 457148.0 0
391536.0 460279.0 0
398924.0 457101.0 0
395939.0 459929.0 0
404420.0 458573.0 0
401366.0 460584.0 0
409103.0 459129.0 0
406451.0 461303.0 0
411777.0 457227.0 0
411032.0 461571.0 0
413695.0 459678.0 0
416457.0 458232.0 0
418439.0 460943.0 0
419813.0 457464.0 0
423616.0 458453.0 0
420451.0 459580.0 0
428695.0 458756.0 0
426665.0 460808.0 0
432028.0 460115.0 0
434913.0 461142.0 0
58044.4 466899.0 0
63267.2 462120.0 0
61498.6 465175.0 0
68415.0 465217.0 0
71119.1 464255.0 0
73812.0 464339.0 0
77180.4 462390.0 0
76867.1 466155.0 0
80581.4 464562.0 0
88518.8 463075.0 0
84560.0 465105.0 0
92140.4 462362.0 0
91666.4 465727.0 0
88856.1 466351.0 0
94734.1 464483.0 0
97473.9 463368.0 0
101778.0 463171.0 0
104283.0 465929.0 0
106404.0 462563.0 0
108073.0 466644.0 0
110338.0 463803.0 0
114089.0 464397.0 0
117155.0 461942.0 0
124202.0 462030.0 0
120653.0 463386.0 0
127986.0 461424.0 0
126605.0 464980.0 0
130498.0 464081.0 0
134673.0 464512.0 0
137813.0 461195.0 0
138083.0 465347.0 0
140481.0 462879.0 0
143419.0 463721.0 0
146870.0 462924.0 0
150107.0 463002.0 0
152573.0 461594.0 0
155767.0 461996.0 0
159509.0 463551.0 0
162890.0 461288.0 0
162409.0 465167.0 0
166682.0 460055.0 0
165938.0 463992.0 0
170095.0 462755.0 0
175051.0 460851.0 0
180300.0 463119.0 0
185135.0 461706.0 0
189830.0 460756.0 0
194266.0 461808.0 0
198325.0 462362.0 0
202958.0 460220.0 0
206941.0 462510.0 0
210978.0 462718.0 0
212871.0 459497.0 0
216313.0 462250.0 0
221471.0 462372.0 0
225866.0 461669.0 0
230234.0 461337.0 0
235376.0 461350.0 0
244217.0 461242.0 0
240157.0 463061.0 0
252867.0 460804.0 0
256586.0 462125.0 0
259433.0 460682.0 0
262920.0 461674.0 0
267227.0 461504.0 0
272633.0 460930.0 0
277270.0 462469.0 0
280933.0 460843.0 0
287704.0 459841.0 0
285340.0 463953.0 0
290989.0 463367.0 0
294402.0 460728.0 0
297031.0 460555.0 0
299747.0 462849.0 0
303119.0 461173.0 0
305941.0 464528.0 0
307392.0 460851.0 0
312943.0 462484.0 0
317555.0 459838.0 0
317245.0 463951.0 0
319922.0 462447.0 0
322590.0 464122.0 0
327457.0 459959.0 0
326035.0 464025.0 0
331144.0 464180.0 0
335552.0 461861.0 0
338955.0 464807.0 0
339736.0 461513.0 0
343177.0 463496.0 0
345348.0 461205.0 0
348334.0 462995.0 0
353775.0 463624.0 0
358933.0 462204.0 0
363486.0 463022.0 0
368400.0 462068.0 0
370633.0 465757.0 0
373592.0 463592.0 0
378069.0 462767.0 0
382235.0 460952.0 0
381975.0 465641.0 0
388439.0 461718.0 0
385329.0 463526.0 0
389869.0 465463.0 0
398591.0 462847.0 0
393643.0 463903.0 0
403805.0 463884.0 0
401034.0 466764.0 0
408716.0 463504.0 0
412914.0 464352.0 0
415791.0 462745.0 0
417857.0 465648.0 0
420783.0 463583.0 0
423563.0 461682.0 0
425475.0 464971.0 0
428125.0 463047.0 0
430405.0 462390.0 0
428821.0 466024.0 0
433869.0 463025.0 0
432181.0 465358.0 0
437176.0 463524.0 0
440101.0 465406.0 0
435936.0 466049.0 0
443032.0 466893.0 0
51497.5 470200.0 0
54769.9 468866.0 0
56097.1 472202.0 0
59392.8 469651.0 0
62508.1 468973.0 0
65215.2 465935.0 0
67330.7 469312.0 0
70458.7 467602.0 0
74183.5 467562.0 0
71455.5 470344.0 0
75634.8 471211.0 0
79366.1 468157.0 0
80426.7 471420.0 0
83433.6 469379.0 0
86935.6 468790.0 0
92944.4 468066.0 0
89981.7 469523.0 0
95460.3 466841.0 0
99112.6 467068.0 0
95636.4 470956.0 0
102446.0 469174.0 0
105723.0 469830.0 0
108971.0 470166.0 0
111817.0 467726.0 0
111841.0 470620.0 0
115138.0 467890.0 0
114449.0 470741.0 0
118130.0 466216.0 0
119001.0 470861.0 0
122889.0 467025.0 0
127296.0 468121.0 0
131290.0 468017.0 0
132568.0 471028.0 0
135064.0 468260.0 0
138791.0 469051.0 0
141078.0 466190.0 0
142276.0 469196.0 0
144837.0 466814.0 0
148660.0 466438.0 0
152716.0 465398.0 0
150918.0 469700.0 0
154608.0 468720.0 0
156555.0 465620.0 0
159504.0 469186.0 0
164657.0 468449.0 0
169410.0 467966.0 0
173169.0 465291.0 0
174486.0 468666.0 0
176547.0 465423.0 0
179164.0 468920.0 0
183698.0 466371.0 0
187415.0 469329.0 0
187742.0 464962.0 0
191589.0 466447.0 0
195376.0 469448.0 0
195736.0 465371.0 0
200067.0 466373.0 0
204265.0 464931.0 0
203768.0 469693.0 0
207862.0 466929.0 0
213232.0 467552.0 0
219366.0 467051.0 0
224502.0 465878.0 0
228318.0 464699.0 0
228516.0 469062.0 0
232613.0 466301.0 0
237087.0 465441.0 0
239758.0 466846.0 0
243569.0 465974.0 0
248710.0 464186.0 0
251422.0 468640.0 0
254215.0 465431.0 0
259326.0 465661.0 0
265123.0 467095.0 0
269971.0 465060.0 0
270062.0 468687.0 0
275035.0 467036.0 0
280375.0 465469.0 0
289035.0 468793.0 0
293264.0 467488.0 0
296051.0 464559.0 0
296622.0 469178.0 0
300506.0 467556.0 0
303197.0 464755.0 0
305200.0 468096.0 0
308855.0 465821.0 0
308966.0 469568.0 0
312523.0 468321.0 0
316452.0 467358.0 0
320137.0 466069.0 0
320096.0 469611.0 0
323572.0 467368.0 0
328094.0 468403.0 0
333059.0 470031.0 0
335339.0 465983.0 0
338273.0 468912.0 0
342468.0 467920.0 0
346393.0 466455.0 0
348447.0 468578.0 0
350487.0 466647.0 0
354737.0 468940.0 0
358265.0 466419.0 0
362185.0 466832.0 0
362982.0 470585.0 0
366506.0 466092.0 0
365743.0 469309.0 0
370397.0 469933.0 0
373731.0 467351.0 0
377770.0 467752.0 0
383099.0 470066.0 0
386386.0 467259.0 0
390730.0 468727.0 0
388404.0 470302.0 0
392429.0 467576.0 0
393167.0 470418.0 0
396376.0 467346.0 0
401303.0 471246.0 0
404984.0 469130.0 0
406573.0 466257.0 0
408156.0 470052.0 0
410531.0 467353.0 0
414994.0 467803.0 0
411842.0 471046.0 0
415019.0 470872.0 0
418885.0 469157.0 0
422253.0 467342.0 0
424905.0 470956.0 0
425616.0 468512.0 0
428653.0 469188.0 0
434758.0 468363.0 0
431454.0 468671.0 0
433113.0 470714.0 0
438980.0 467880.0 0
437731.0 470423.0 0
441902.0 469437.0 0
445492.0 468898.0 0
444712.0 472039.0 0
448383.0 470653.0 0
41583.3 476546.0 0
44798.1 474376.0 0
48579.3 473062.0 0
52360.2 473005.0 0
48637.9 476356.0 0
51896.7 476076.0 0
53774.7 475298.0 0
56652.5 476054.0 0
60095.1 472506.0 0
64143.5 472049.0 0
60433.5 475269.0 0
66648.4 475924.0 0
69972.7 472550.0 0
73402.6 474650.0 0
78625.2 474434.0 0
83155.4 473891.0 0
86910.2 472555.0 0
85529.1 476910.0 0
88887.5 476032.0 0
91759.5 472877.0 0
93570.4 475846.0 0
97417.3 475026.0 0
99786.2 471637.0 0
103161.0 471934.0 0
101786.0 475205.0 0
106288.0 474064.0 0
110636.0 473215.0 0
114346.0 474474.0 0
118695.0 476131.0 0
124206.0 471142.0 0
122073.0 473634.0 0
123748.0 476451.0 0
128940.0 471818.0 0
125777.0 473790.0 0
132296.0 474466.0 0
135728.0 472153.0 0
139920.0 473027.0 0
143189.0 471553.0 0
144628.0 475137.0 0
146580.0 470383.0 0
149276.0 473771.0 0
154454.0 473271.0 0
159439.0 474162.0 0
164204.0 472857.0 0
168631.0 472862.0 0
172357.0 471878.0 0
176073.0 472779.0 0
180434.0 474360.0 0
183335.0 470844.0 0
185757.0 474091.0 0
191108.0 472527.0 0
195765.0 473501.0 0
199401.0 471690.0 0
203073.0 474391.0 0
208051.0 472219.0 0
212570.0 472582.0 0
216593.0 471230.0 0
219659.0 473883.0 0
223549.0 470931.0 0
228256.0 474039.0 0
232629.0 471837.0 0
236552.0 469613.0 0
241255.0 470763.0 0
246748.0 470112.0 0
251780.0 472906.0 0
255909.0 470102.0 0
258326.0 472974.0 0
260677.0 470539.0 0
264299.0 472439.0 0
268246.0 472041.0 0
272485.0 471239.0 0
276707.0 472934.0 0
279415.0 469891.0 0
283734.0 469474.0 0
281624.0 474182.0 0
286569.0 473960.0 0
293420.0 471039.0 0
290980.0 473936.0 0
296134.0 472808.0 0
299680.0 471949.0 0
302868.0 471059.0 0
306412.0 472459.0 0
311599.0 473949.0 0
316225.0 471855.0 0
320055.0 473682.0 0
324494.0 472041.0 0
329525.0 473259.0 0
337422.0 473451.0 0
341960.0 472278.0 0
346306.0 471158.0 0
350064.0 474990.0 0
350680.0 470858.0 0
354390.0 473601.0 0
358501.0 475705.0 0
359158.0 470981.0 0
362868.0 474358.0 0
366220.0 472800.0 0
369809.0 474507.0 0
373581.0 474485.0 0
374949.0 471048.0 0
376364.0 474173.0 0
379364.0 472842.0 0
383491.0 474364.0 0
386290.0 472763.0 0
390950.0 473776.0 0
395377.0 473954.0 0
397438.0 471289.0 0
399274.0 474830.0 0
404563.0 472711.0 0
403057.0 475404.0 0
406924.0 472233.0 0
407313.0 475828.0 0
410101.0 473144.0 0
414011.0 473828.0 0
418145.0 472664.0 0
422104.0 471392.0 0
420938.0 475423.0 0
424428.0 474626.0 0
427950.0 472851.0 0
431230.0 472549.0 0
435644.0 472881.0 0
433097.0 475548.0 0
438254.0 475022.0 0
436199.0 477511.0 0
439776.0 477687.0 0
441276.0 472832.0 0
442996.0 476553.0 0
445309.0 474922.0 0
447289.0 473783.0 0
447777.0 476315.0 0
451130.0 473085.0 0
454496.0 474005.0 0
450887.0 476501.0 0
454491.0 477505.0 0
457276.0 475974.0 0
459991.0 477467.0 0
38558.2 479096.0 0
35052.4 480921.0 0
41628.7 480927.0 0
44842.2 477872.0 0
44193.0 482757.0 0
46972.6 480969.0 0
50241.3 479531.0 0
53609.0 478266.0 0
54642.1 480610.0 0
58071.9 479253.0 0
62315.5 478841.0 0
68381.8 480736.0 0
71298.3 476529.0 0
72450.5 479253.0 0
76133.5 477803.0 0
78715.7 480863.0 0
81458.4 477870.0 0
87289.1 479814.0 0
91175.8 479015.0 0
95747.6 479194.0 0
99995.2 478921.0 0
104549.0 478686.0 0
109699.0 478331.0 0
114556.0 478493.0 0
116690.0 480476.0 0
120731.0 480376.0 0
128206.0 476225.0 0
125507.0 480570.0 0
129074.0 479478.0 0
132060.0 478035.0 0
136383.0 476455.0 0
134705.0 480101.0 0
140532.0 476949.0 0
139084.0 480445.0 0
143882.0 480007.0 0
147805.0 477685.0 0
151242.0 477138.0 0
152137.0 480047.0 0
156449.0 478918.0 0
162383.0 477721.0 0
167732.0 477661.0 0
172265.0 475426.0 0
172504.0 479571.0 0
176024.0 476870.0 0
179384.0 478525.0 0
183375.0 478255.0 0
188712.0 478157.0 0
193937.0 476994.0 0
198611.0 476317.0 0
202631.0 479868.0 0
206319.0 476721.0 0
210785.0 477025.0 0
214480.0 479098.0 0
215297.0 475340.0 0
218539.0 478005.0 0
223557.0 476662.0 0
227714.0 478935.0 0
232649.0 477172.0 0
236740.0 474264.0 0
240282.0 474548.0 0
237029.0 478298.0 0
243931.0 474450.0 0
241188.0 478079.0 0
248005.0 474524.0 0
246195.0 478836.0 0
251046.0 477657.0 0
255601.0 475534.0 0
258011.0 478510.0 0
261075.0 475844.0 0
266319.0 476776.0 0
271891.0 475897.0 0
276723.0 477203.0 0
280361.0 478265.0 0
285299.0 478973.0 0
291236.0 478925.0 0
294428.0 475283.0 0
295859.0 478277.0 0
298223.0 475576.0 0
302861.0 475542.0 0
307321.0 476722.0 0
310585.0 479477.0 0
313790.0 478062.0 0
317478.0 477069.0 0
322446.0 476899.0 0
326496.0 476025.0 0
325873.0 479707.0 0
333351.0 475541.0 0
330031.0 477555.0 0
337140.0 478037.0 0
341405.0 476338.0 0
344635.0 478702.0 0
345501.0 475347.0 0
348596.0 478871.0 0
353906.0 478687.0 0
359419.0 480508.0 0
362598.0 477663.0 0
364485.0 480912.0 0
366631.0 477322.0 0
371612.0 478361.0 0
377058.0 478030.0 0
380967.0 476496.0 0
381582.0 480040.0 0
384469.0 477944.0 0
387345.0 476068.0 0
388160.0 480228.0 0
390422.0 477900.0 0
392837.0 480490.0 0
393862.0 477219.0 0
397477.0 481169.0 0
397051.0 477416.0 0
400777.0 478325.0 0
405012.0 479357.0 0
409681.0 479982.0 0
412049.0 476512.0 0
414464.0 480034.0 0
416738.0 476556.0 0
417942.0 480090.0 0
420809.0 478789.0 0
425497.0 478589.0 0
429157.0 476426.0 0
429378.0 480729.0 0
431970.0 479042.0 0
434717.0 480156.0 0
435453.0 482934.0 0
438304.0 480629.0 0
442327.0 480835.0 0
446435.0 479255.0 0
450824.0 480377.0 0
454963.0 481194.0 0
458105.0 479833.0 0
461071.0 482036.0 0
462483.0 479048.0 0
465202.0 480998.0 0
24928.1 486811.0 0
28731.6 485100.0 0
31829.5 482895.0 0
31445.8 486740.0 0
33915.3 485200.0 0
37239.9 483409.0 0
37242.7 486665.0 0
40378.5 484440.0 0
43789.7 485990.0 0
40191.9 488289.0 0
48037.6 484670.0 0
51810.3 482460.0 0
51583.7 486240.0 0
54512.3 483996.0 0
57548.3 482833.0 0
54658.6 486411.0 0
57442.5 485801.0 0
61156.7 483147.0 0
64197.7 485379.0 0
64891.0 482435.0 0
67391.6 484603.0 0
71412.2 483504.0 0
75128.6 482263.0 0
74303.0 486166.0 0
77975.8 484195.0 0
80948.5 482147.0 0
83923.0 480912.0 0
81617.5 485204.0 0
85910.8 484179.0 0
89592.6 482874.0 0
88899.8 486824.0 0
92576.5 485519.0 0
93481.0 482287.0 0
97857.3 483712.0 0
102238.0 481970.0 0
102603.0 485423.0 0
105604.0 482472.0 0
113236.0 481832.0 0
109051.0 482894.0 0
116896.0 484797.0 0
121972.0 484410.0 0
126132.0 484474.0 0
130727.0 482966.0 0
136005.0 484089.0 0
141267.0 484873.0 0
145658.0 483907.0 0
148853.0 481249.0 0
153241.0 483263.0 0
158356.0 485153.0 0
160392.0 481501.0 0
164282.0 482997.0 0
168939.0 482189.0 0
172783.0 484531.0 0
176316.0 480994.0 0
177379.0 484514.0 0
180353.0 482154.0 0
185137.0 483240.0 0
189783.0 482489.0 0
192433.0 480715.0 0
192748.0 484189.0 0
196991.0 481356.0 0
201214.0 485150.0 0
206063.0 484555.0 0
207404.0 480336.0 0
211366.0 483101.0 0
216864.0 482628.0 0
221798.0 481134.0 0
225956.0 483789.0 0
230538.0 481486.0 0
234927.0 482295.0 0
239111.0 481527.0 0
243388.0 483249.0 0
249281.0 482079.0 0
254606.0 481726.0 0
260682.0 481033.0 0
265329.0 481339.0 0
269776.0 480617.0 0
274161.0 480106.0 0
272943.0 483780.0 0
277576.0 480223.0 0
276352.0 482759.0 0
280788.0 483385.0 0
288720.0 482497.0 0
285506.0 483862.0 0
292093.0 483917.0 0
295605.0 482009.0 0
300278.0 480135.0 0
302658.0 484096.0 0
305800.0 481026.0 0
310363.0 483804.0 0
315182.0 481863.0 0
321054.0 481922.0 0
326523.0 484670.0 0
329716.0 481446.0 0
331720.0 484547.0 0
333694.0 480451.0 0
335630.0 484857.0 0
337584.0 481865.0 0
341123.0 480501.0 0
340625.0 485311.0 0
345602.0 483028.0 0
351089.0 483056.0 0
356151.0 484092.0 0
362200.0 483202.0 0
360555.0 485268.0 0
364837.0 485095.0 0
369045.0 482337.0 0
374172.0 481779.0 0
379159.0 483757.0 0
384947.0 481221.0 0
383418.0 483133.0 0
386580.0 483819.0 0
390350.0 483750.0 0
394949.0 484559.0 0
401707.0 482098.0 0
405058.0 482546.0 0
404692.0 485237.0 0
407697.0 483064.0 0
412741.0 484382.0 0
419905.0 482050.0 0
417354.0 483094.0 0
423145.0 482260.0 0
420900.0 485254.0 0
425386.0 486394.0 0
426863.0 482815.0 0
429569.0 484484.0 0
432315.0 482625.0 0
432972.0 485826.0 0
436659.0 485362.0 0
439246.0 483750.0 0
442912.0 484740.0 0
446793.0 483610.0 0
451098.0 484171.0 0
454522.0 484550.0 0
458038.0 483892.0 0
457155.0 487375.0 0
460919.0 486811.0 0
464180.0 484545.0 0
468190.0 483602.0 0
467547.0 487483.0 0
471577.0 485318.0 0
474886.0 486443.0 0
18385.5 490481.0 0
15280.4 492802.0 0
21939.9 489348.0 0
21675.3 492664.0 0
25112.9 490780.0 0
28000.9 488742.0 0
31334.0 489598.0 0
28347.0 492873.0 0
34533.4 488201.0 0
37095.6 489604.0 0
34271.4 491091.0 0
37178.3 492007.0 0
40647.6 492376.0 0
43947.5 489616.0 0
47575.3 488752.0 0
52326.9 489783.0 0
56726.6 488859.0 0
60550.6 486685.0 0
60540.4 490785.0 0
66938.9 488061.0 0
63605.8 488754.0 0
64750.7 491351.0 0
68121.9 491143.0 0
70135.0 486641.0 0
71749.0 489738.0 0
77638.3 487295.0 0
75229.5 489237.0 0
77496.9 490838.0 0
80566.4 489235.0 0
83260.0 491950.0 0
84741.3 487921.0 0
87573.9 490148.0 0
91646.6 488830.0 0
95437.9 487571.0 0
94651.8 491452.0 0
97553.9 489717.0 0
99522.3 487849.0 0
102096.0 489045.0 0
106616.0 486383.0 0
104001.0 488082.0 0
104754.0 490671.0 0
111693.0 485970.0 0
108997.0 489809.0 0
114432.0 490322.0 0
119556.0 488587.0 0
123699.0 487880.0 0
122212.0 491900.0 0
128562.0 487377.0 0
126367.0 490234.0 0
132800.0 487910.0 0
137625.0 488677.0 0
142124.0 489829.0 0
145143.0 487498.0 0
149358.0 486127.0 0
153742.0 486673.0 0
156298.0 490148.0 0
162921.0 488115.0 0
167825.0 486594.0 0
171239.0 489357.0 0
175805.0 488217.0 0
180618.0 487096.0 0
185303.0 488676.0 0
189214.0 486051.0 0
192385.0 487704.0 0
196293.0 486650.0 0
199856.0 489783.0 0
204418.0 488896.0 0
209739.0 489041.0 0
215115.0 487318.0 0
220450.0 485728.0 0
223433.0 488379.0 0
227775.0 488848.0 0
231083.0 485464.0 0
235152.0 487279.0 0
238879.0 485224.0 0
241568.0 486671.0 0
245092.0 488241.0 0
250428.0 486528.0 0
258571.0 485077.0 0
255205.0 486951.0 0
262986.0 485757.0 0
268463.0 485600.0 0
272875.0 487904.0 0
276347.0 486060.0 0
284048.0 487859.0 0
279710.0 488793.0 0
288711.0 487176.0 0
293245.0 488645.0 0
295522.0 485561.0 0
299149.0 485060.0 0
297436.0 488999.0 0
301621.0 488962.0 0
306026.0 486777.0 0
310318.0 487976.0 0
314346.0 486788.0 0
318371.0 485720.0 0
318255.0 489550.0 0
322486.0 488218.0 0
327156.0 489479.0 0
330172.0 487530.0 0
333453.0 488177.0 0
337487.0 488932.0 0
341990.0 489777.0 0
345018.0 487534.0 0
348764.0 486643.0 0
353123.0 488143.0 0
358178.0 489230.0 0
362246.0 488081.0 0
365475.0 488639.0 0
368876.0 486908.0 0
373418.0 485922.0 0
376044.0 490092.0 0
377111.0 487613.0 0
384257.0 486304.0 0
381032.0 489541.0 0
386281.0 490905.0 0
388554.0 487496.0 0
392018.0 487418.0 0
400227.0 486612.0 0
395473.0 488424.0 0
398175.0 491434.0 0
405095.0 488430.0 0
408491.0 486807.0 0
408581.0 491281.0 0
412476.0 489300.0 0
415659.0 490464.0 0
417463.0 487423.0 0
422099.0 489435.0 0
429840.0 488316.0 0
426468.0 490606.0 0
435359.0 488079.0 0
433057.0 489753.0 0
439716.0 488013.0 0
436745.0 490712.0 0
440668.0 492227.0 0
444660.0 489031.0 0
448538.0 487176.0 0
449112.0 492052.0 0
452849.0 488734.0 0
460920.0 490619.0 0
457286.0 490310.0 0
464809.0 487849.0 0
465019.0 491114.0 0
470784.0 488754.0 0
468684.0 491693.0 0
474228.0 488840.0 0
473735.0 493086.0 0
477735.0 489460.0 0
481441.0 491642.0 0
7174.97 499121.0 0
11622.7 496682.0 0
15034.9 495548.0 0
17664.0 497649.0 0
18550.7 493498.0 0
21564.2 496222.0 0
24807.0 494652.0 0
24864.2 498398.0 0
31371.3 493151.0 0
28298.9 496590.0 0
34818.8 493948.0 0
32211.0 497152.0 0
37851.3 496433.0 0
44819.2 493072.0 0
46504.1 496570.0 0
48717.8 492499.0 0
53031.5 493410.0 0
50766.3 496009.0 0
56181.0 492376.0 0
59027.7 494365.0 0
62726.9 494146.0 0
66570.7 494037.0 0
70566.0 493302.0 0
68989.4 496509.0 0
72459.8 495668.0 0
74629.4 492821.0 0
75925.5 496500.0 0
79196.3 493808.0 0
82443.2 495480.0 0
86629.8 494686.0 0
90454.7 491592.0 0
91607.4 495071.0 0
96037.1 495173.0 0
99951.0 492443.0 0
103824.0 494764.0 0
107259.0 493340.0 0
110460.0 493073.0 0
112705.0 494920.0 0
118451.0 491941.0 0
116127.0 494744.0 0
119708.0 494913.0 0
122660.0 495564.0 0
126449.0 494205.0 0
130385.0 491450.0 0
134352.0 492126.0 0
135823.0 494944.0 0
138638.0 492581.0 0
142956.0 493902.0 0
145642.0 494293.0 0
147164.0 491323.0 0
151589.0 489996.0 0
152199.0 494825.0 0
157939.0 494467.0 0
160036.0 490726.0 0
162828.0 492734.0 0
167123.0 490987.0 0
166780.0 495202.0 0
170627.0 493326.0 0
174000.0 491721.0 0
178180.0 491621.0 0
182025.0 491232.0 0
185288.0 493574.0 0
189397.0 490127.0 0
189455.0 493650.0 0
194428.0 492032.0 0
199267.0 494232.0 0
203043.0 492630.0 0
206785.0 493657.0 0
211321.0 494496.0 0
214233.0 491331.0 0
219079.0 490812.0 0
224301.0 492506.0 0
229740.0 493662.0 0
231850.0 489356.0 0
234459.0 491593.0 0
239490.0 490455.0 0
244013.0 493541.0 0
248976.0 491990.0 0
253912.0 490972.0 0
259254.0 489966.0 0
265512.0 491423.0 0
270138.0 489869.0 0
272809.0 492481.0 0
275776.0 489792.0 0
277793.0 493510.0 0
282996.0 492601.0 0
287088.0 491328.0 0
291039.0 492615.0 0
295390.0 492483.0 0
298955.0 492115.0 0
303293.0 494047.0 0
308270.0 491650.0 0
312760.0 491058.0 0
315746.0 490433.0 0
316829.0 493648.0 0
320580.0 492292.0 0
324901.0 493703.0 0
328665.0 492217.0 0
331100.0 490743.0 0
334541.0 491729.0 0
335486.0 495064.0 0
339059.0 493166.0 0
343695.0 493285.0 0
348599.0 491600.0 0
354401.0 492808.0 0
358874.0 493640.0 0
363165.0 492149.0 0
368298.0 491384.0 0
372234.0 490240.0 0
371939.0 494245.0 0
374758.0 492863.0 0
378281.0 493140.0 0
382856.0 494826.0 0
388058.0 495517.0 0
392460.0 492197.0 0
391755.0 496723.0 0
396721.0 494925.0 0
399850.0 494248.0 0
403277.0 491426.0 0
403040.0 495239.0 0
406774.0 495076.0 0
410478.0 495153.0 0
414192.0 493566.0 0
418962.0 492473.0 0
423582.0 493836.0 0
427286.0 493180.0 0
430422.0 492479.0 0
428649.0 496438.0 0
433920.0 492598.0 0
433846.0 496929.0 0
437151.0 493657.0 0
438832.0 496549.0 0
442385.0 495550.0 0
444770.0 493151.0 0
454610.0 492750.0 0
452123.0 495469.0 0
456819.0 497178.0 0
458168.0 493363.0 0
462006.0 495159.0 0
466319.0 495329.0 0
470003.0 495645.0 0
473868.0 497790.0 0
478172.0 493420.0 0
481835.0 495847.0 0
478289.0 496967.0 0
484829.0 496981.0 0
484956.0 493590.0 0
488017.0 495232.0 0
486631.0 497391.0 0
490845.0 497879.0 0
2950.92 500016.0 0
10834.7 501206.0 0
8737.35 503193.0 0
13951.8 499926.0 0
16839.0 502415.0 0
21321.9 499797.0 0
20876.0 503466.0 0
24316.8 502407.0 0
28118.3 501044.0 0
32215.7 501404.0 0
35640.6 499854.0 0
39661.4 501194.0 0
42342.1 496729.0 0
44417.8 500571.0 0
48866.3 499900.0 0
52934.3 499409.0 0
55645.7 496391.0 0
56613.5 500882.0 0
59858.1 497618.0 0
61024.5 501170.0 0
64382.8 497887.0 0
68160.6 500222.0 0
72162.8 498847.0 0
75937.7 501072.0 0
79946.2 498112.0 0
83791.3 498395.0 0
88371.3 498967.0 0
93498.9 499762.0 0
99295.5 497977.0 0
103848.0 498681.0 0
108652.0 497627.0 0
113776.0 498698.0 0
117574.0 497717.0 0
120831.0 498192.0 0
125406.0 498795.0 0
131283.0 496502.0 0
135593.0 498001.0 0
139284.0 496216.0 0
138891.0 500443.0 0
143261.0 498001.0 0
147204.0 496251.0 0
146512.0 499779.0 0
150148.0 499360.0 0
155316.0 499638.0 0
163311.0 496039.0 0
160319.0 497920.0 0
164743.0 499450.0 0
170032.0 496897.0 0
171762.0 499027.0 0
175294.0 496467.0 0
179622.0 499348.0 0
180781.0 495162.0 0
183729.0 498188.0 0
187882.0 497165.0 0
191823.0 496130.0 0
191013.0 499468.0 0
196191.0 498659.0 0
203063.0 497513.0 0
208347.0 498421.0 0
216068.0 495250.0 0
220947.0 495919.0 0
225693.0 496978.0 0
229555.0 498188.0 0
234494.0 496259.0 0
239221.0 495558.0 0
242815.0 498523.0 0
247875.0 497427.0 0
252682.0 495965.0 0
257135.0 494822.0 0
261168.0 494755.0 0
264483.0 497282.0 0
269311.0 496390.0 0
274076.0 496874.0 0
277556.0 497252.0 0
281606.0 497728.0 0
287215.0 496170.0 0
292848.0 497372.0 0
297798.0 495870.0 0
301194.0 498759.0 0
308065.0 495969.0 0
305745.0 499794.0 0
312350.0 495211.0 0
310798.0 499664.0 0
316305.0 498672.0 0
320741.0 496376.0 0
326114.0 499212.0 0
330950.0 495869.0 0
338116.0 498198.0 0
342197.0 496494.0 0
346716.0 496863.0 0
351502.0 496556.0 0
356455.0 497471.0 0
359334.0 500244.0 0
362144.0 497471.0 0
367570.0 496275.0 0
365795.0 500746.0 0
369468.0 500869.0 0
372511.0 498355.0 0
375381.0 495994.0 0
376819.0 500376.0 0
379008.0 496754.0 0
381536.0 499363.0 0
385660.0 498905.0 0
390481.0 499900.0 0
394851.0 497839.0 0
397743.0 501051.0 0
399786.0 497766.0 0
404891.0 498678.0 0
409774.0 499105.0 0
413878.0 497487.0 0
414598.0 501306.0 0
418939.0 497586.0 0
423972.0 498039.0 0
427568.0 500908.0 0
431385.0 500334.0 0
434707.0 502001.0 0
437532.0 499903.0 0
441807.0 499743.0 0
447208.0 497641.0 0
449100.0 502428.0 0
452635.0 499737.0 0
461131.0 498627.0 0
465657.0 499245.0 0
462569.0 501342.0 0
469536.0 499334.0 0
468894.0 503331.0 0
473254.0 502273.0 0
478400.0 501408.0 0
483001.0 499507.0 0
486831.0 499471.0 0
485937.0 502225.0 0
490406.0 501939.0 0
494996.0 499987.0 0
2054.07 502738.0 0
2550.9 506363.0 0
5630.73 503414.0 0
8358.11 505917.0 0
6034.22 507084.0 0
12489.5 505268.0 0
18377.5 506009.0 0
22654.0 506105.0 0
26445.5 505506.0 0
24255.3 509006.0 0
30835.4 505640.0 0
35432.8 503684.0 0
38597.1 505751.0 0
42968.0 505599.0 0
47906.2 503768.0 0
52038.5 502774.0 0
51205.8 506503.0 0
55087.2 505041.0 0
58698.4 504061.0 0
62328.0 505309.0 0
64493.3 501858.0 0
67108.0 504025.0 0
71123.9 502609.0 0
73832.0 505232.0 0
77886.5 505120.0 0
81193.1 502588.0 0
85352.8 501736.0 0
89198.9 503284.0 0
92382.5 504581.0 0
97229.3 503840.0 0
101469.0 502199.0 0
101873.0 506339.0 0
105444.0 502657.0 0
110460.0 503256.0 0
114375.0 501853.0 0
117759.0 501458.0 0
115083.0 505547.0 0
121678.0 501574.0 0
120398.0 505413.0 0
124928.0 503619.0 0
129055.0 501446.0 0
130949.0 503874.0 0
133454.0 501496.0 0
136470.0 504107.0 0
140374.0 504210.0 0
143363.0 501907.0 0
147179.0 503377.0 0
151615.0 503686.0 0
156137.0 505031.0 0
160213.0 502147.0 0
168979.0 500912.0 0
165273.0 504840.0 0
173493.0 501909.0 0
177584.0 503487.0 0
182376.0 502667.0 0
187198.0 501881.0 0
191934.0 502981.0 0
196276.0 504387.0 0
200863.0 502305.0 0
205592.0 502320.0 0
210027.0 503066.0 0
213382.0 499716.0 0
218047.0 499571.0 0
219142.0 503465.0 0
222284.0 500414.0 0
226899.0 501416.0 0
232324.0 501867.0 0
237765.0 500168.0 0
241552.0 503501.0 0
246941.0 503108.0 0
251964.0 501009.0 0
256425.0 499453.0 0
259562.0 504880.0 0
255809.0 503882.0 0
261114.0 500711.0 0
266645.0 501791.0 0
271457.0 500804.0 0
276580.0 501554.0 0
281871.0 502967.0 0
285313.0 500407.0 0
289084.0 500865.0 0
286175.0 504369.0 0
292723.0 502022.0 0
297105.0 501418.0 0
302005.0 503325.0 0
306329.0 504822.0 0
310476.0 504385.0 0
313868.0 502078.0 0
313673.0 504777.0 0
317407.0 504562.0 0
321146.0 501209.0 0
324666.0 503085.0 0
328237.0 504576.0 0
330449.0 500797.0 0
332942.0 504000.0 0
333982.0 499965.0 0
337689.0 503070.0 0
343641.0 501585.0 0
349243.0 500723.0 0
348010.0 505039.0 0
353258.0 500461.0 0
352209.0 504408.0 0
356988.0 502953.0 0
362337.0 502852.0 0
367790.0 505174.0 0
372778.0 502544.0 0
376564.0 505413.0 0
380447.0 503266.0 0
383866.0 502362.0 0
385887.0 504909.0 0
387536.0 502016.0 0
390427.0 504722.0 0
394049.0 502464.0 0
398189.0 505068.0 0
402396.0 502542.0 0
406325.0 505804.0 0
406987.0 502446.0 0
410824.0 504078.0 0
415329.0 505293.0 0
418976.0 502703.0 0
423026.0 501741.0 0
422790.0 505757.0 0
426981.0 505021.0 0
431117.0 503728.0 0
434349.0 505956.0 0
439400.0 504012.0 0
444836.0 503056.0 0
450424.0 505278.0 0
447938.0 506080.0 0
453227.0 503593.0 0
456507.0 506811.0 0
457907.0 502316.0 0
462229.0 504636.0 0
465654.0 503041.0 0
465659.0 506826.0 0
471985.0 505630.0 0
469566.0 506862.0 0
475915.0 506139.0 0
479689.0 505900.0 0
482771.0 507691.0 0
482564.0 503471.0 0
485135.0 505549.0 0
488905.0 505535.0 0
494327.0 504262.0 0
498443.0 500026.0 0
498030.0 503140.0 0
3486.2 510904.0 0
8490.11 509064.0 0
12268.2 509844.0 0
15878.8 507653.0 0
19936.4 508600.0 0
16619.2 510768.0 0
21539.0 511879.0 0
27985.0 509327.0 0
31659.5 509987.0 0
25614.0 512641.0 0
34909.8 508199.0 0
34252.0 512290.0 0
39158.0 510513.0 0
47466.4 507315.0 0
44740.2 509845.0 0
49741.6 510463.0 0
54249.8 508915.0 0
57436.9 511020.0 0
58161.2 507448.0 0
61346.7 509634.0 0
65841.6 508140.0 0
70085.9 506529.0 0
69661.3 510974.0 0
72718.3 508552.0 0
73785.5 511532.0 0
75931.5 508105.0 0
80662.6 508141.0 0
77490.3 511427.0 0
83619.0 510812.0 0
85217.4 506356.0 0
87118.0 510715.0 0
89761.8 507230.0 0
93174.3 507453.0 0
97213.6 509576.0 0
102467.0 510888.0 0
106336.0 507367.0 0
110844.0 508614.0 0
114894.0 510295.0 0
117942.0 507758.0 0
120277.0 510786.0 0
124369.0 507775.0 0
128402.0 505560.0 0
128308.0 509525.0 0
132819.0 507093.0 0
138442.0 507542.0 0
143611.0 506631.0 0
145665.0 510338.0 0
148451.0 507547.0 0
152622.0 508500.0 0
157420.0 510221.0 0
160433.0 506547.0 0
168118.0 509076.0 0
170555.0 505252.0 0
174161.0 505627.0 0
172428.0 508894.0 0
176413.0 508130.0 0
180698.0 507144.0 0
185186.0 506465.0 0
188989.0 505785.0 0
192752.0 507808.0 0
197174.0 510080.0 0
203379.0 505969.0 0
199630.0 506395.0 0
201266.0 509041.0 0
207407.0 506599.0 0
211564.0 506747.0 0
214959.0 504667.0 0
223329.0 504711.0 0
219936.0 507613.0 0
224077.0 509048.0 0
228102.0 506278.0 0
233004.0 507378.0 0
237071.0 505215.0 0
243942.0 507001.0 0
240232.0 507354.0 0
251696.0 505971.0 0
257189.0 508106.0 0
263050.0 504640.0 0
261893.0 508740.0 0
266449.0 506844.0 0
270448.0 504874.0 0
274598.0 506807.0 0
270507.0 509428.0 0
278580.0 505681.0 0
281270.0 506628.0 0
284185.0 508575.0 0
288252.0 509544.0 0
290540.0 505535.0 0
295125.0 506032.0 0
298964.0 505930.0 0
302960.0 508370.0 0
308848.0 509266.0 0
313386.0 507827.0 0
317405.0 509670.0 0
322783.0 507483.0 0
327759.0 508929.0 0
331786.0 508571.0 0
336170.0 507653.0 0
341540.0 507181.0 0
346735.0 509371.0 0
351162.0 508355.0 0
355232.0 506621.0 0
359803.0 507352.0 0
363720.0 506496.0 0
364633.0 509614.0 0
368920.0 510444.0 0
373498.0 509679.0 0
372236.0 506121.0 0
377820.0 509384.0 0
382163.0 507736.0 0
387510.0 508684.0 0
391694.0 508969.0 0
394658.0 506927.0 0
398385.0 509165.0 0
402407.0 507184.0 0
401943.0 510872.0 0
409357.0 507896.0 0
406255.0 510335.0 0
411285.0 511750.0 0
412787.0 507824.0 0
416371.0 509993.0 0
418909.0 506573.0 0
421627.0 510000.0 0
430576.0 507871.0 0
426044.0 509320.0 0
434178.0 511166.0 0
437169.0 508136.0 0
440917.0 508366.0 0
444378.0 506928.0 0
443827.0 511139.0 0
452347.0 508120.0 0
448253.0 510095.0 0
456797.0 511113.0 0
460715.0 507883.0 0
461342.0 511742.0 0
464358.0 510122.0 0
473247.0 509331.0 0
468325.0 510413.0 0
479036.0 509960.0 0
483634.0 511397.0 0
486705.0 508918.0 0
492156.0 508371.0 0
494332.0 511777.0 0
497321.0 507362.0 0
498228.0 510634.0 0
1365.6 514561.0 0
8736.36 512594.0 0
5543.29 515213.0 0
9750.21 517137.0 0
13070.6 513856.0 0
18149.4 514672.0 0
22838.5 515650.0 0
20140.0 517896.0 0
26348.2 515999.0 0
30011.1 513525.0 0
36508.9 514559.0 0
33356.0 516348.0 0
42904.6 512878.0 0
40013.8 515609.0 0
46362.8 512772.0 0
44652.0 515842.0 0
49489.1 515061.0 0
53579.7 512446.0 0
53586.9 515925.0 0
56873.3 514679.0 0
60899.1 513544.0 0
60077.5 517695.0 0
65027.7 512523.0 0
68335.2 515081.0 0
72105.0 514329.0 0
75901.7 515232.0 0
80854.2 513824.0 0
85387.5 514093.0 0
88485.3 513731.0 0
91619.6 511083.0 0
90983.6 514846.0 0
94671.5 514301.0 0
99240.0 513897.0 0
103008.0 516176.0 0
107078.0 512188.0 0
111655.0 513590.0 0
116428.0 514949.0 0
125121.0 512340.0 0
128399.0 513926.0 0
131214.0 512035.0 0
135806.0 511494.0 0
141069.0 511500.0 0
141372.0 515612.0 0
144949.0 514132.0 0
149369.0 512442.0 0
153534.0 512540.0 0
156756.0 514976.0 0
163164.0 510842.0 0
170107.0 512520.0 0
175013.0 513163.0 0
179225.0 511109.0 0
183465.0 510975.0 0
188302.0 510083.0 0
192825.0 513058.0 0
200608.0 512213.0 0
204795.0 510843.0 0
209936.0 510709.0 0
215497.0 510333.0 0
220999.0 512575.0 0
227740.0 511215.0 0
225055.0 513953.0 0
232199.0 512035.0 0
237240.0 510544.0 0
241993.0 510400.0 0
243315.0 514363.0 0
247777.0 510616.0 0
253344.0 510393.0 0
257288.0 513487.0 0
261866.0 513340.0 0
266103.0 511825.0 0
274463.0 511413.0 0
278925.0 509827.0 0
277459.0 514600.0 0
282997.0 513682.0 0
289241.0 514700.0 0
292578.0 509837.0 0
294451.0 513619.0 0
297675.0 510083.0 0
301422.0 512603.0 0
305579.0 512888.0 0
310000.0 514478.0 0
313282.0 511807.0 0
316533.0 513592.0 0
320828.0 513519.0 0
325772.0 512735.0 0
329736.0 512019.0 0
333282.0 513070.0 0
338311.0 512528.0 0
342955.0 511539.0 0
345449.0 514563.0 0
355431.0 511092.0 0
350299.0 512709.0 0
358452.0 514805.0 0
361247.0 511955.0 0
365799.0 514179.0 0
371727.0 515260.0 0
376175.0 513062.0 0
380553.0 512800.0 0
385356.0 512842.0 0
390313.0 512865.0 0
394782.0 511810.0 0
399156.0 513294.0 0
403776.0 514406.0 0
408087.0 514333.0 0
415047.0 514188.0 0
419708.0 514039.0 0
424601.0 513606.0 0
427206.0 514259.0 0
429363.0 512290.0 0
432768.0 515334.0 0
436398.0 515508.0 0
439091.0 512434.0 0
439570.0 516260.0 0
443043.0 515197.0 0
446931.0 513935.0 0
452525.0 512155.0 0
450388.0 514898.0 0
455166.0 515843.0 0
458991.0 514299.0 0
462607.0 515290.0 0
465138.0 512964.0 0
465985.0 516658.0 0
471758.0 513194.0 0
468144.0 514003.0 0
476401.0 512948.0 0
474304.0 516068.0 0
477960.0 516589.0 0
481106.0 514447.0 0
488834.0 512134.0 0
485437.0 514285.0 0
487995.0 516660.0 0
491181.0 514864.0 0
494294.0 515874.0 0
497763.0 513718.0 0
2337.45 517582.0 0
2402.63 521412.0 0
6144.2 519283.0 0
15085.0 518598.0 0
10821.0 521910.0 0
19337.6 520875.0 0
24339.6 520266.0 0
29424.6 518017.0 0
32859.8 520388.0 0
36766.3 518708.0 0
41885.8 519304.0 0
46918.7 518950.0 0
48977.4 521714.0 0
51709.0 519179.0 0
55934.1 518643.0 0
54818.7 521272.0 0
58681.4 522001.0 0
64162.4 516454.0 0
63339.3 520899.0 0
67198.9 518542.0 0
72075.7 518301.0 0
77434.6 519254.0 0
83089.9 518334.0 0
87785.3 520706.0 0
87952.7 516666.0 0
92276.3 518431.0 0
97469.1 517659.0 0
108131.0 517129.0 0
112782.0 518721.0 0
117368.0 519467.0 0
121675.0 516218.0 0
126122.0 516033.0 0
125470.0 519675.0 0
129638.0 517587.0 0
133439.0 515584.0 0
137862.0 515708.0 0
135210.0 520583.0 0
140249.0 518834.0 0
143442.0 517525.0 0
147554.0 517681.0 0
152433.0 516608.0 0
156808.0 520014.0 0
161005.0 516053.0 0
163925.0 518376.0 0
166198.0 515055.0 0
167081.0 519543.0 0
170720.0 516818.0 0
175030.0 518415.0 0
180769.0 516336.0 0
186619.0 514797.0 0
190516.0 517543.0 0
194710.0 517053.0 0
197834.0 514768.0 0
202475.0 515495.0 0
200895.0 519032.0 0
207404.0 515179.0 0
212430.0 515078.0 0
210037.0 518929.0 0
217226.0 516138.0 0
222836.0 517400.0 0
228829.0 515651.0 0
233965.0 516511.0 0
238842.0 515637.0 0
242722.0 519068.0 0
247398.0 516838.0 0
252078.0 515050.0 0
255611.0 518572.0 0
260209.0 517157.0 0
264824.0 517110.0 0
270791.0 515025.0 0
280319.0 517911.0 0
285023.0 519051.0 0
294181.0 518469.0 0
298298.0 515431.0 0
302729.0 516757.0 0
306733.0 516830.0 0
314529.0 517646.0 0
319658.0 518342.0 0
324335.0 517481.0 0
329886.0 516970.0 0
335978.0 518038.0 0
341286.0 516997.0 0
345250.0 519565.0 0
349090.0 516996.0 0
354057.0 517037.0 0
359380.0 518781.0 0
362060.0 515642.0 0
364064.0 518736.0 0
367523.0 517876.0 0
370627.0 520121.0 0
374967.0 520398.0 0
377790.0 517025.0 0
382820.0 517173.0 0
385065.0 521068.0 0
388592.0 517579.0 0
392406.0 515757.0 0
395927.0 516680.0 0
398368.0 520972.0 0
400642.0 517286.0 0
402556.0 520369.0 0
406300.0 518149.0 0
411711.0 517232.0 0
417136.0 518376.0 0
422578.0 517856.0 0
428475.0 517581.0 0
434445.0 519534.0 0
438289.0 518397.0 0
442124.0 518972.0 0
447048.0 518473.0 0
451893.0 518708.0 0
456003.0 521488.0 0
459450.0 518162.0 0
463474.0 518674.0 0
466572.0 520894.0 0
470484.0 517780.0 0
475583.0 519607.0 0
484189.0 517089.0 0
480796.0 519695.0 0
486520.0 520846.0 0
491683.0 519209.0 0
497397.0 517490.0 0
496772.0 521615.0 0
2044.41 525445.0 0
6164.78 523410.0 0
12747.1 526552.0 0
15965.6 523521.0 0
20846.5 524701.0 0
26337.9 526133.0 0
29104.7 521886.0 0
31687.9 524838.0 0
35314.5 523195.0 0
38477.8 521696.0 0
38264.5 525729.0 0
41214.0 523544.0 0
44979.7 522660.0 0
48212.9 526059.0 0
52185.7 522882.0 0
55458.9 523496.0 0
53393.7 526535.0 0
57851.7 526064.0 0
62603.9 525763.0 0
68346.9 523286.0 0
73644.3 522305.0 0
77044.7 524315.0 0
80379.1 522365.0 0
83997.0 523033.0 0
87494.9 525957.0 0
91233.3 522805.0 0
95601.8 522322.0 0
100828.0 521298.0 0
103263.0 525295.0 0
106088.0 521421.0 0
110705.0 522841.0 0
115113.0 523193.0 0
121219.0 521127.0 0
119283.0 525195.0 0
124342.0 524412.0 0
129281.0 522554.0 0
140122.0 522622.0 0
143655.0 520641.0 0
143793.0 524732.0 0
146874.0 522029.0 0
150878.0 521129.0 0
153756.0 524504.0 0
161903.0 521462.0 0
165726.0 523213.0 0
170859.0 521791.0 0
175079.0 522416.0 0
178262.0 520826.0 0
178175.0 524807.0 0
181705.0 521953.0 0
185948.0 520050.0 0
187977.0 524952.0 0
190267.0 521596.0 0
193496.0 520421.0 0
197350.0 519877.0 0
195278.0 524517.0 0
200784.0 523486.0 0
205186.0 519993.0 0
214100.0 519960.0 0
210518.0 523120.0 0
218624.0 521084.0 0
223371.0 522553.0 0
227018.0 519733.0 0
231612.0 520857.0 0
237503.0 521275.0 0
243754.0 524335.0 0
246927.0 520962.0 0
249402.0 523830.0 0
251061.0 519742.0 0
253798.0 523041.0 0
259246.0 522754.0 0
264354.0 521737.0 0
269017.0 520437.0 0
267218.0 524612.0 0
275111.0 520002.0 0
280850.0 522592.0 0
289830.0 521202.0 0
285772.0 524515.0 0
294309.0 523462.0 0
299112.0 520516.0 0
304381.0 521461.0 0
309496.0 520177.0 0
314219.0 523994.0 0
319309.0 522805.0 0
322367.0 521030.0 0
325119.0 521137.0 0
328134.0 521978.0 0
332387.0 521855.0 0
340326.0 522077.0 0
345748.0 525268.0 0
350308.0 521483.0 0
356012.0 523096.0 0
361770.0 522884.0 0
366883.0 522852.0 0
371950.0 524538.0 0
376305.0 524389.0 0
380175.0 521986.0 0
385046.0 526065.0 0
388694.0 522529.0 0
393324.0 521304.0 0
396890.0 524983.0 0
401197.0 524299.0 0
405766.0 522845.0 0
409751.0 521290.0 0
409931.0 525624.0 0
414244.0 522666.0 0
419982.0 521981.0 0
425264.0 521965.0 0
422789.0 525643.0 0
427603.0 526473.0 0
430503.0 522865.0 0
435048.0 524572.0 0
439526.0 522276.0 0
438664.0 526475.0 0
444794.0 522530.0 0
442834.0 526298.0 0
446951.0 526311.0 0
450366.0 523281.0 0
454738.0 526355.0 0
461803.0 522389.0 0
458606.0 525200.0 0
466333.0 525466.0 0
471799.0 522887.0 0
477387.0 523108.0 0
475170.0 526690.0 0
482330.0 524124.0 0
479187.0 526518.0 0
486558.0 525682.0 0
491369.0 524127.0 0
497092.0 526259.0 0
2082.29 529031.0 0
5721.44 527727.0 0
9101.58 526078.0 0
9637.06 529511.0 0
13720.5 530853.0 0
17184.5 527977.0 0
17682.5 532403.0 0
21501.8 529409.0 0
31026.9 529485.0 0
34728.9 527307.0 0
38077.9 529843.0 0
42369.9 531635.0 0
42788.1 527363.0 0
46278.9 530131.0 0
50791.3 530375.0 0
55640.8 530418.0 0
59682.0 529310.0 0
62953.0 530988.0 0
66947.8 528465.0 0
72643.5 526538.0 0
71036.3 530772.0 0
76416.6 528812.0 0
81426.2 527059.0 0
84936.0 530841.0 0
89869.1 530264.0 0
92985.2 526366.0 0
94720.1 530371.0 0
98520.8 526644.0 0
103688.0 529236.0 0
107671.0 526356.0 0
112584.0 527077.0 0
117018.0 529121.0 0
122411.0 529386.0 0
127851.0 527805.0 0
131205.0 529664.0 0
133257.0 526159.0 0
134134.0 530046.0 0
138617.0 527049.0 0
143822.0 530025.0 0
148703.0 526067.0 0
153148.0 528944.0 0
158878.0 526193.0 0
164041.0 526855.0 0
168446.0 526265.0 0
173327.0 526444.0 0
177522.0 530173.0 0
182779.0 526876.0 0
187289.0 530257.0 0
191707.0 527927.0 0
201893.0 529310.0 0
206062.0 525285.0 0
210807.0 528382.0 0
215001.0 524665.0 0
219926.0 526270.0 0
224392.0 527884.0 0
228085.0 524686.0 0
233441.0 525552.0 0
229973.0 529154.0 0
238724.0 527243.0 0
247611.0 528482.0 0
251633.0 526852.0 0
255650.0 527317.0 0
263406.0 525536.0 0
260234.0 528488.0 0
264660.0 529315.0 0
268815.0 528540.0 0
271735.0 524905.0 0
276841.0 526153.0 0
281771.0 527738.0 0
290537.0 526126.0 0
294500.0 527471.0 0
298699.0 526037.0 0
303248.0 525828.0 0
308157.0 526131.0 0
311998.0 528032.0 0
314813.0 529318.0 0
318735.0 527672.0 0
324135.0 525806.0 0
330005.0 526304.0 0
335740.0 526026.0 0
340825.0 527808.0 0
348119.0 529929.0 0
351671.0 526861.0 0
355627.0 529897.0 0
359837.0 527552.0 0
364404.0 526617.0 0
368758.0 528640.0 0
374752.0 528329.0 0
379657.0 527821.0 0
391104.0 526490.0 0
387815.0 530924.0 0
392319.0 530824.0 0
395216.0 528438.0 0
399960.0 529041.0 0
405296.0 527578.0 0
409431.0 530207.0 0
413536.0 528060.0 0
417812.0 525998.0 0
420873.0 529140.0 0
424975.0 529631.0 0
431949.0 527642.0 0
429118.0 530760.0 0
435913.0 528834.0 0
440391.0 530160.0 0
445801.0 531119.0 0
450526.0 528458.0 0
454429.0 530859.0 0
462035.0 526524.0 0
458965.0 529258.0 0
463807.0 529306.0 0
467791.0 530186.0 0
470754.0 527272.0 0
473404.0 531059.0 0
478008.0 530107.0 0
483125.0 529866.0 0
488649.0 529601.0 0
493292.0 528654.0 0
497663.0 530811.0 0
1769.95 532252.0 0
2688.22 536032.0 0
6068.75 532397.0 0
10608.3 533668.0 0
14449.8 535675.0 0
21463.4 533998.0 0
26089.9 531811.0 0
24892.2 536964.0 0
30187.4 534277.0 0
34287.7 532485.0 0
38603.0 535011.0 0
45276.6 532662.0 0
44182.5 535966.0 0
48198.4 533599.0 0
51861.9 533989.0 0
52307.3 536325.0 0
55872.2 534933.0 0
58950.6 532332.0 0
61103.6 535447.0 0
66826.8 533345.0 0
71121.7 535892.0 0
74854.2 532693.0 0
79700.4 532546.0 0
83593.4 534823.0 0
87794.5 534772.0 0
91712.9 534033.0 0
95303.5 534509.0 0
99603.7 532146.0 0
104258.0 533676.0 0
108097.0 530903.0 0
112978.0 532131.0 0
117901.0 533642.0 0
122155.0 534037.0 0
126677.0 532718.0 0
131789.0 533334.0 0
137506.0 532677.0 0
142013.0 535143.0 0
149094.0 530775.0 0
152633.0 533432.0 0
156895.0 531362.0 0
161343.0 530961.0 0
163528.0 534339.0 0
166630.0 531060.0 0
169207.0 535103.0 0
171952.0 531525.0 0
178436.0 535105.0 0
182538.0 532648.0 0
191747.0 532851.0 0
196188.0 529980.0 0
199272.0 533430.0 0
195823.0 534685.0 0
203564.0 534778.0 0
206517.0 529623.0 0
208254.0 533120.0 0
212788.0 533175.0 0
216024.0 529732.0 0
218490.0 534521.0 0
219985.0 530368.0 0
223166.0 532199.0 0
227063.0 531866.0 0
234561.0 530454.0 0
230803.0 533946.0 0
238797.0 532200.0 0
235510.0 534862.0 0
242882.0 530493.0 0
246822.0 534225.0 0
252168.0 531103.0 0
257092.0 532319.0 0
262080.0 533103.0 0
267468.0 533356.0 0
273408.0 530144.0 0
277328.0 533854.0 0
281582.0 532142.0 0
286685.0 530061.0 0
292056.0 530556.0 0
295187.0 534282.0 0
297943.0 530746.0 0
300142.0 534518.0 0
302616.0 530196.0 0
305000.0 534879.0 0
307142.0 531115.0 0
308880.0 534293.0 0
311248.0 531353.0 0
316733.0 533389.0 0
321650.0 531781.0 0
327088.0 531441.0 0
332795.0 530972.0 0
337108.0 530683.0 0
340419.0 532529.0 0
336318.0 535217.0 0
344336.0 530630.0 0
348180.0 533528.0 0
351654.0 531817.0 0
355226.0 534922.0 0
359604.0 532409.0 0
363996.0 530647.0 0
363054.0 534415.0 0
367995.0 534904.0 0
372856.0 532060.0 0
377251.0 532068.0 0
382393.0 532976.0 0
390804.0 535689.0 0
396205.0 533176.0 0
400923.0 533656.0 0
404605.0 532162.0 0
408564.0 535089.0 0
413082.0 533063.0 0
417287.0 530941.0 0
422055.0 533377.0 0
417450.0 535715.0 0
427966.0 533749.0 0
426017.0 532972.0 0
430815.0 535015.0 0
433446.0 531735.0 0
437218.0 532423.0 0
441264.0 535175.0 0
448088.0 535757.0 0
450815.0 532721.0 0
457718.0 534606.0 0
462012.0 532199.0 0
462283.0 535782.0 0
465703.0 534209.0 0
469926.0 533606.0 0
473600.0 535929.0 0
477598.0 533939.0 0
479232.0 537060.0 0
481953.0 534699.0 0
487079.0 534506.0 0
492563.0 533041.0 0
497284.0 535058.0 0
2529.21 540081.0 0
8178.0 537755.0 0
13453.8 539966.0 0
10329.2 541320.0 0
19072.9 538734.0 0
29210.2 538675.0 0
33669.0 536793.0 0
32539.7 541299.0 0
37294.0 540198.0 0
41482.2 539116.0 0
45010.5 540444.0 0
48923.9 538002.0 0
53502.2 539195.0 0
57806.0 538815.0 0
61317.6 540404.0 0
65315.7 537649.0 0
69086.4 539943.0 0
76079.0 536650.0 0
77436.7 540310.0 0
73454.6 540588.0 0
80400.2 537565.0 0
85295.3 539172.0 0
92653.7 537934.0 0
98249.4 537978.0 0
103803.0 538655.0 0
108919.0 536048.0 0
114229.0 537422.0 0
119799.0 538727.0 0
125116.0 537371.0 0
129718.0 537569.0 0
134537.0 537433.0 0
138792.0 537608.0 0
142777.0 539960.0 0
147315.0 535767.0 0
152390.0 538328.0 0
156441.0 535709.0 0
160591.0 537232.0 0
165781.0 538245.0 0
173643.0 536476.0 0
170220.0 539759.0 0
181963.0 536855.0 0
184139.0 540382.0 0
186989.0 535905.0 0
188592.0 540436.0 0
191935.0 537670.0 0
196656.0 538946.0 0
199878.0 536605.0 0
202430.0 540076.0 0
207735.0 538207.0 0
213771.0 538379.0 0
219181.0 539479.0 0
226038.0 536322.0 0
232570.0 538534.0 0
237818.0 539099.0 0
241629.0 535255.0 0
244197.0 538672.0 0
249302.0 539857.0 0
251561.0 535486.0 0
259064.0 536518.0 0
254860.0 538441.0 0
264380.0 537678.0 0
268955.0 538058.0 0
272354.0 535136.0 0
274615.0 539724.0 0
284792.0 535021.0 0
280762.0 538874.0 0
289831.0 535022.0 0
286917.0 539715.0 0
292674.0 539896.0 0
297740.0 538726.0 0
302494.0 538793.0 0
308304.0 537715.0 0
312393.0 535670.0 0
320580.0 536754.0 0
316106.0 538354.0 0
325244.0 536531.0 0
330654.0 536373.0 0
340612.0 536378.0 0
338583.0 540111.0 0
342920.0 539094.0 0
344496.0 535205.0 0
350663.0 536005.0 0
347717.0 539940.0 0
353075.0 539555.0 0
360204.0 537954.0 0
370634.0 539516.0 0
373855.0 536575.0 0
374057.0 540703.0 0
378233.0 535838.0 0
376922.0 538999.0 0
380238.0 539262.0 0
385163.0 538471.0 0
389634.0 540406.0 0
395361.0 537560.0 0
393081.0 540098.0 0
399372.0 537352.0 0
403898.0 536687.0 0
402396.0 540708.0 0
407468.0 540516.0 0
413001.0 538730.0 0
421668.0 537336.0 0
418677.0 540693.0 0
426260.0 536914.0 0
427133.0 541827.0 0
423391.0 540223.0 0
431081.0 539447.0 0
435813.0 536652.0 0
440103.0 540661.0 0
444659.0 538495.0 0
449087.0 540018.0 0
452854.0 536804.0 0
456804.0 539504.0 0
460310.0 538697.0 0
469065.0 537343.0 0
464594.0 539191.0 0
472447.0 540071.0 0
476158.0 539032.0 0
480363.0 541010.0 0
484049.0 538341.0 0
487753.0 538860.0 0
492188.0 538018.0 0
497394.0 539536.0 0
2091.69 543885.0 0
6654.62 542888.0 0
12142.6 544201.0 0
16212.1 543182.0 0
20539.0 543654.0 0
25194.6 542242.0 0
29712.5 545400.0 0
36048.9 545945.0 0
41457.7 543192.0 0
46090.0 544430.0 0
50313.7 542631.0 0
56206.3 544404.0 0
65228.1 542618.0 0
70084.9 543990.0 0
77530.0 543224.0 0
74457.5 545240.0 0
80936.0 542059.0 0
85238.0 544810.0 0
89727.4 541113.0 0
90225.8 545441.0 0
94631.1 542634.0 0
100675.0 543314.0 0
108311.0 541856.0 0
113557.0 542366.0 0
117720.0 543304.0 0
121659.0 543656.0 0
123828.0 541132.0 0
127340.0 541501.0 0
131976.0 541530.0 0
129492.0 545240.0 0
137381.0 542389.0 0
142475.0 545417.0 0
148032.0 542045.0 0
152976.0 542439.0 0
156875.0 540439.0 0
161651.0 542069.0 0
167014.0 543998.0 0
173042.0 543783.0 0
178277.0 540402.0 0
181845.0 544893.0 0
186754.0 544025.0 0
192800.0 542603.0 0
197520.0 542967.0 0
201074.0 545025.0 0
205377.0 543763.0 0
209867.0 542599.0 0
214315.0 544055.0 0
219063.0 543948.0 0
223372.0 540200.0 0
223701.0 544663.0 0
228181.0 541611.0 0
233089.0 542987.0 0
237387.0 544441.0 0
241543.0 542148.0 0
245567.0 543768.0 0
249559.0 544978.0 0
254065.0 543810.0 0
260185.0 542115.0 0
266948.0 542686.0 0
272405.0 544618.0 0
277833.0 544312.0 0
281996.0 543705.0 0
285465.0 544265.0 0
289686.0 543926.0 0
300163.0 543610.0 0
306573.0 542703.0 0
311743.0 540072.0 0
315616.0 542731.0 0
311758.0 544423.0 0
319396.0 541131.0 0
323180.0 540307.0 0
323424.0 544697.0 0
327990.0 541849.0 0
333529.0 541000.0 0
336695.0 544924.0 0
343156.0 543693.0 0
352188.0 543927.0 0
356067.0 544600.0 0
356733.0 541118.0 0
360285.0 543457.0 0
365717.0 541208.0 0
370769.0 543253.0 0
374532.0 543886.0 0
377664.0 542193.0 0
382246.0 543916.0 0
387263.0 543281.0 0
391707.0 544007.0 0
397086.0 541244.0 0
395892.0 545285.0 0
400496.0 544857.0 0
404591.0 543802.0 0
409199.0 545719.0 0
414468.0 544368.0 0
422731.0 543618.0 0
419146.0 544842.0 0
426587.0 546438.0 0
431730.0 544508.0 0
435258.0 541274.0 0
437328.0 545348.0 0
445095.0 543217.0 0
449890.0 544448.0 0
453418.0 541724.0 0
457052.0 544538.0 0
460915.0 542363.0 0
465075.0 544089.0 0
468742.0 541414.0 0
470111.0 545695.0 0
475472.0 543799.0 0
482219.0 544368.0 0
484318.0 546707.0 0
486332.0 542710.0 0
491916.0 543303.0 0
497356.0 543889.0 0
3489.3 548253.0 0
8769.5 546761.0 0
8846.1 551434.0 0
12431.6 548300.0 0
17956.3 548745.0 0
23329.1 546693.0 0
26653.5 549136.0 0
31877.8 550674.0 0
41405.3 547601.0 0
42318.7 550500.0 0
45717.8 549186.0 0
50410.0 547226.0 0
53790.6 549762.0 0
58575.9 550284.0 0
62004.2 546365.0 0
66602.5 546967.0 0
70661.3 548578.0 0
75167.6 550103.0 0
79525.5 546821.0 0
83810.3 549798.0 0
88885.1 550071.0 0
94366.9 548467.0 0
97519.4 545810.0 0
99730.5 548258.0 0
105020.0 546911.0 0
110791.0 546878.0 0
115263.0 546158.0 0
119298.0 547506.0 0
124793.0 547669.0 0
133447.0 545461.0 0
130692.0 550474.0 0
137028.0 548652.0 0
147432.0 547833.0 0
151410.0 545680.0 0
152427.0 550089.0 0
156327.0 545900.0 0
162054.0 547654.0 0
170258.0 547014.0 0
173539.0 549673.0 0
177478.0 545594.0 0
179254.0 549649.0 0
185198.0 548246.0 0
190159.0 547239.0 0
195952.0 547601.0 0
201511.0 549083.0 0
204937.0 548935.0 0
208332.0 546842.0 0
212619.0 548408.0 0
217328.0 548401.0 0
222057.0 549034.0 0
228130.0 547232.0 0
232977.0 547283.0 0
237293.0 549610.0 0
241721.0 546827.0 0
246658.0 548787.0 0
251699.0 548671.0 0
257177.0 549085.0 0
263554.0 548070.0 0
268777.0 547506.0 0
272711.0 549702.0 0
277451.0 549274.0 0
282479.0 548078.0 0
286933.0 547620.0 0
294416.0 544967.0 0
290841.0 548261.0 0
294191.0 548390.0 0
297909.0 548828.0 0
303747.0 548681.0 0
309601.0 548711.0 0
314993.0 547256.0 0
319019.0 545375.0 0
318585.0 549809.0 0
323433.0 549840.0 0
327828.0 547440.0 0
332007.0 545504.0 0
340372.0 547642.0 0
336606.0 549616.0 0
344677.0 549053.0 0
348086.0 545532.0 0
353879.0 547944.0 0
358262.0 548064.0 0
362788.0 547117.0 0
365056.0 550224.0 0
367518.0 546588.0 0
372728.0 547659.0 0
377524.0 546385.0 0
380756.0 548198.0 0
387197.0 548256.0 0
393029.0 549083.0 0
397356.0 548214.0 0
400576.0 549178.0 0
404674.0 547757.0 0
413958.0 550169.0 0
417686.0 547790.0 0
421848.0 547781.0 0
428332.0 550990.0 0
430104.0 547964.0 0
433989.0 550238.0 0
439026.0 549449.0 0
442089.0 546800.0 0
442701.0 551200.0 0
447286.0 548571.0 0
453081.0 548021.0 0
457520.0 548652.0 0
461209.0 546860.0 0
465178.0 548366.0 0
469134.0 550479.0 0
474335.0 549603.0 0
479593.0 547514.0 0
483638.0 550628.0 0
488758.0 548035.0 0
494340.0 547794.0 0
498290.0 547606.0 0
497874.0 550961.0 0
3675.72 554581.0 0
13620.0 553689.0 0
18835.6 555191.0 0
23125.4 552132.0 0
27597.0 553592.0 0
33869.6 556258.0 0
38274.6 551875.0 0
43913.1 554230.0 0
49814.6 552670.0 0
54883.5 554081.0 0
60051.6 555550.0 0
64278.8 551271.0 0
65091.8 555864.0 0
69902.9 553937.0 0
75582.2 555143.0 0
79528.1 552037.0 0
79663.9 556004.0 0
83501.8 554625.0 0
88207.0 555035.0 0
92854.2 553423.0 0
97919.7 552482.0 0
102593.0 551549.0 0
108344.0 552545.0 0
114934.0 551164.0 0
117626.0 555327.0 0
120360.0 552076.0 0
125119.0 553446.0 0
134367.0 554074.0 0
142978.0 550718.0 0
139013.0 554073.0 0
147451.0 552905.0 0
151690.0 555021.0 0
157915.0 550667.0 0
156691.0 555136.0 0
161996.0 553526.0 0
167523.0 550249.0 0
170837.0 553816.0 0
174889.0 554680.0 0
183311.0 552644.0 0
179186.0 554403.0 0
188281.0 552081.0 0
193773.0 553767.0 0
198867.0 552005.0 0
203586.0 553156.0 0
209191.0 552221.0 0
214446.0 552401.0 0
218725.0 552783.0 0
222793.0 553138.0 0
226853.0 551895.0 0
232171.0 552551.0 0
238677.0 553771.0 0
242315.0 551756.0 0
248030.0 553545.0 0
253182.0 552958.0 0
257650.0 553937.0 0
261067.0 552687.0 0
267955.0 552453.0 0
272669.0 554108.0 0
277074.0 553918.0 0
281746.0 553191.0 0
289538.0 552702.0 0
285725.0 554374.0 0
293932.0 551645.0 0
298369.0 554531.0 0
303361.0 553815.0 0
308322.0 554269.0 0
314129.0 552548.0 0
320529.0 554414.0 0
327580.0 553090.0 0
331986.0 550425.0 0
331656.0 554833.0 0
335875.0 554088.0 0
340434.0 552188.0 0
345358.0 554414.0 0
349897.0 550666.0 0
355716.0 553332.0 0
361162.0 551324.0 0
360383.0 554900.0 0
364848.0 554995.0 0
369043.0 551332.0 0
373740.0 552386.0 0
378167.0 551230.0 0
380853.0 554949.0 0
382945.0 551288.0 0
385544.0 555325.0 0
389826.0 552954.0 0
397438.0 552386.0 0
403430.0 553254.0 0
408609.0 551021.0 0
411605.0 554388.0 0
408044.0 555721.0 0
416241.0 555503.0 0
419233.0 551586.0 0
422307.0 553756.0 0
424185.0 551240.0 0
425976.0 555155.0 0
430609.0 554649.0 0
434697.0 555487.0 0
438738.0 553573.0 0
442506.0 555207.0 0
446639.0 553874.0 0
451389.0 552729.0 0
455753.0 552156.0 0
454233.0 555599.0 0
458164.0 555868.0 0
460575.0 551667.0 0
465127.0 552362.0 0
469188.0 555892.0 0
474263.0 554479.0 0
478767.0 552764.0 0
483280.0 555631.0 0
487812.0 553285.0 0
492734.0 552115.0 0
491221.0 556309.0 0
496743.0 554967.0 0
3228.12 560730.0 0
9308.21 557068.0 0
14565.0 559558.0 0
19952.7 559489.0 0
23971.0 557232.0 0
28902.9 557757.0 0
31679.0 561327.0 0
39450.0 557382.0 0
48006.4 558079.0 0
51899.5 560936.0 0
55817.9 558836.0 0
62948.3 558768.0 0
67700.4 558321.0 0
72272.5 559887.0 0
77846.5 559332.0 0
82662.5 559304.0 0
91643.1 557683.0 0
87811.2 560164.0 0
96265.8 557241.0 0
101640.0 556378.0 0
99317.9 560263.0 0
106610.0 558107.0 0
112916.0 556264.0 0
116740.0 560225.0 0
121224.0 556166.0 0
124586.0 558272.0 0
129909.0 557143.0 0
135931.0 558730.0 0
140592.0 559243.0 0
143724.0 556107.0 0
148131.0 558234.0 0
152672.0 559598.0 0
157569.0 560307.0 0
162186.0 558686.0 0
166870.0 555773.0 0
171489.0 558737.0 0
177200.0 558991.0 0
182833.0 557957.0 0
188816.0 557524.0 0
194116.0 559828.0 0
199058.0 556933.0 0
203206.0 558626.0 0
206815.0 557017.0 0
212186.0 556943.0 0
216388.0 555815.0 0
216023.0 559602.0 0
220465.0 557025.0 0
225873.0 556925.0 0
230675.0 557443.0 0
235859.0 557793.0 0
242059.0 557156.0 0
246868.0 557445.0 0
250948.0 556903.0 0
255597.0 557433.0 0
260224.0 556830.0 0
265051.0 557302.0 0
269884.0 557232.0 0
274625.0 558470.0 0
279959.0 557838.0 0
284367.0 558012.0 0
288925.0 557594.0 0
293368.0 555927.0 0
296034.0 559961.0 0
304857.0 557272.0 0
301197.0 559250.0 0
309816.0 559227.0 0
314436.0 558045.0 0
319423.0 559544.0 0
324552.0 556465.0 0
328682.0 558378.0 0
333956.0 558516.0 0
340248.0 557856.0 0
350465.0 555901.0 0
346964.0 560174.0 0
359525.0 559538.0 0
370515.0 556276.0 0
376647.0 555853.0 0
373983.0 559321.0 0
378140.0 560630.0 0
382334.0 558728.0 0
386936.0 560731.0 0
389636.0 557000.0 0
391648.0 560081.0 0
393834.0 556081.0 0
395764.0 560721.0 0
399316.0 557275.0 0
404609.0 558906.0 0
412461.0 557703.0 0
421385.0 557512.0 0
426414.0 560560.0 0
431943.0 559016.0 0
438040.0 558107.0 0
444896.0 558230.0 0
450277.0 558114.0 0
455587.0 559639.0 0
463036.0 556566.0 0
469394.0 561038.0 0
474380.0 559376.0 0
478990.0 557418.0 0
483966.0 560166.0 0
487122.0 557245.0 0
494381.0 558590.0 0
498007.0 558780.0 0
2027.81 565322.0 0
9549.1 562141.0 0
6141.99 565206.0 0
13386.0 565231.0 0
18774.4 563928.0 0
22692.2 561429.0 0
23680.9 565082.0 0
26639.4 561601.0 0
33262.2 565151.0 0
36977.4 562242.0 0
43238.3 561177.0 0
44451.8 565575.0 0
48115.9 563482.0 0
55316.1 563904.0 0
59862.3 561469.0 0
65386.7 562488.0 0
76154.6 562923.0 0
72993.9 565182.0 0
80152.3 563305.0 0
84550.3 563449.0 0
93476.4 561727.0 0
97910.2 563975.0 0
103126.0 561208.0 0
106878.0 562385.0 0
102303.0 565724.0 0
110968.0 560801.0 0
121924.0 561678.0 0
126897.0 562127.0 0
132088.0 563035.0 0
137230.0 563539.0 0
141675.0 564764.0 0
144295.0 560798.0 0
145282.0 563953.0 0
149006.0 563166.0 0
153930.0 564074.0 0
158239.0 564720.0 0
162472.0 563441.0 0
166431.0 560639.0 0
169706.0 563332.0 0
174435.0 563778.0 0
179325.0 563218.0 0
183473.0 562955.0 0
188438.0 563222.0 0
192760.0 563953.0 0
198959.0 562221.0 0
203501.0 562183.0 0
209219.0 562560.0 0
214659.0 563084.0 0
219903.0 561989.0 0
225050.0 562387.0 0
230430.0 562149.0 0
235283.0 563244.0 0
239735.0 561964.0 0
245505.0 562533.0 0
252443.0 562526.0 0
258767.0 561705.0 0
263468.0 561559.0 0
268139.0 562044.0 0
272560.0 562104.0 0
278009.0 562686.0 0
282725.0 561739.0 0
286451.0 561197.0 0
290729.0 562679.0 0
300397.0 563842.0 0
305613.0 561208.0 0
309359.0 563532.0 0
315060.0 564070.0 0
320970.0 564276.0 0
324618.0 561519.0 0
331131.0 563376.0 0
336899.0 563097.0 0
341709.0 562619.0 0
344990.0 565489.0 0
349816.0 564258.0 0
353096.0 560486.0 0
356661.0 565218.0 0
365751.0 560606.0 0
362519.0 565112.0 0
370481.0 560951.0 0
368783.0 564278.0 0
373902.0 563942.0 0
378274.0 565111.0 0
382402.0 563440.0 0
392510.0 563710.0 0
388670.0 565605.0 0
396943.0 565855.0 0
400692.0 562069.0 0
401577.0 565392.0 0
406432.0 561785.0 0
406117.0 565825.0 0
409788.0 560842.0 0
412436.0 565602.0 0
415583.0 561122.0 0
420418.0 561868.0 0
423322.0 564795.0 0
430647.0 563096.0 0
435839.0 562230.0 0
438541.0 565588.0 0
441481.0 561867.0 0
446835.0 562284.0 0
452290.0 563551.0 0
457247.0 564040.0 0
460154.0 560720.0 0
461955.0 564869.0 0
464780.0 561132.0 0
467356.0 565896.0 0
471827.0 563804.0 0
475479.0 564322.0 0
479560.0 561874.0 0
484033.0 565033.0 0
489735.0 561803.0 0
493047.0 566754.0 0
496361.0 562885.0 0
3360.24 569401.0 0
9463.02 567519.0 0
12699.4 570311.0 0
17102.2 568761.0 0
21218.3 567271.0 0
24236.7 569203.0 0
28696.2 566470.0 0
27316.8 570499.0 0
36838.5 568428.0 0
40820.9 565307.0 0
42719.5 569111.0 0
47523.8 568438.0 0
51574.8 566399.0 0
55374.8 569794.0 0
59542.0 566147.0 0
61009.4 570770.0 0
63722.4 567099.0 0
66193.8 570776.0 0
68680.5 566494.0 0
72599.6 571169.0 0
77222.9 567016.0 0
82614.7 567974.0 0
86910.7 570337.0 0
88965.1 565709.0 0
94140.7 566356.0 0
98294.3 568811.0 0
107211.0 566533.0 0
112797.0 566084.0 0
114248.0 570638.0 0
118841.0 566047.0 0
123978.0 565545.0 0
123456.0 570499.0 0
128535.0 567589.0 0
135014.0 568796.0 0
141363.0 570095.0 0
145870.0 567363.0 0
150686.0 567983.0 0
155882.0 568800.0 0
160861.0 567903.0 0
164947.0 567064.0 0
168846.0 567132.0 0
172814.0 568554.0 0
178393.0 568393.0 0
184720.0 567900.0 0
193448.0 566915.0 0
189835.0 567813.0 0
198288.0 567865.0 0
204269.0 566872.0 0
213686.0 566400.0 0
209729.0 569550.0 0
217411.0 565758.0 0
221958.0 566661.0 0
227095.0 567117.0 0
232522.0 567563.0 0
238612.0 566896.0 0
243034.0 567030.0 0
247160.0 568241.0 0
251007.0 567283.0 0
254956.0 568127.0 0
259895.0 566880.0 0
265010.0 566698.0 0
271069.0 567520.0 0
276184.0 566920.0 0
281549.0 567498.0 0
286884.0 565994.0 0
295588.0 565545.0 0
291025.0 568436.0 0
299836.0 568125.0 0
305074.0 566863.0 0
310770.0 568626.0 0
320916.0 568938.0 0
325997.0 566864.0 0
330940.0 568096.0 0
335265.0 568142.0 0
340223.0 567739.0 0
347168.0 569951.0 0
351935.0 568400.0 0
362751.0 570070.0 0
371671.0 568014.0 0
367085.0 568253.0 0
376144.0 569094.0 0
381199.0 568238.0 0
386098.0 570407.0 0
392339.0 569911.0 0
401226.0 568540.0 0
410304.0 570376.0 0
415900.0 570949.0 0
418435.0 566104.0 0
423055.0 570003.0 0
427817.0 566149.0 0
433087.0 566852.0 0
437251.0 568651.0 0
442728.0 567216.0 0
448185.0 567112.0 0
453356.0 568672.0 0
458735.0 568902.0 0
464060.0 570365.0 0
472474.0 567687.0 0
475931.0 568884.0 0
479156.0 566768.0 0
482513.0 569552.0 0
488493.0 567876.0 0
494237.0 570655.0 0
497560.0 567806.0 0
497907.0 572161.0 0
2916.31 574756.0 0
7935.26 572110.0 0
11986.6 574892.0 0
16246.0 573415.0 0
20703.6 571676.0 0
25442.3 574281.0 0
30768.2 571449.0 0
34717.1 573126.0 0
40018.5 572770.0 0
45503.4 572745.0 0
42706.4 575861.0 0
50747.9 570951.0 0
52439.7 575305.0 0
58193.6 575118.0 0
63534.6 575164.0 0
68065.7 574790.0 0
78753.2 571622.0 0
83966.0 572103.0 0
81923.3 575217.0 0
92104.5 571247.0 0
87420.8 574957.0 0
97774.9 574579.0 0
103655.0 571266.0 0
107566.0 575713.0 0
109773.0 570990.0 0
113321.0 574899.0 0
118281.0 571349.0 0
124563.0 575603.0 0
129978.0 573634.0 0
136393.0 575471.0 0
140796.0 574202.0 0
146261.0 571976.0 0
152696.0 573355.0 0
148508.0 575537.0 0
163969.0 571257.0 0
159513.0 572129.0 0
169081.0 571975.0 0
174901.0 571658.0 0
177997.0 573822.0 0
182066.0 572358.0 0
187626.0 572894.0 0
193217.0 571494.0 0
198272.0 573463.0 0
202317.0 571416.0 0
206181.0 574601.0 0
215542.0 570568.0 0
219798.0 571769.0 0
222524.0 570447.0 0
226243.0 572708.0 0
231541.0 572546.0 0
236269.0 571622.0 0
241735.0 571132.0 0
246275.0 573037.0 0
252500.0 571122.0 0
256338.0 572612.0 0
261118.0 571947.0 0
266781.0 571986.0 0
272172.0 573278.0 0
277046.0 571347.0 0
281681.0 573812.0 0
286414.0 571119.0 0
290863.0 573941.0 0
295973.0 571653.0 0
302244.0 572249.0 0
307240.0 572124.0 0
311763.0 573581.0 0
315940.0 570416.0 0
315961.0 575207.0 0
320334.0 573816.0 0
326018.0 572944.0 0
331396.0 572599.0 0
337313.0 573289.0 0
342904.0 571998.0 0
347203.0 574979.0 0
352411.0 573817.0 0
357598.0 571242.0 0
362054.0 574343.0 0
366031.0 572751.0 0
370947.0 572815.0 0
375647.0 573544.0 0
379547.0 572465.0 0
383625.0 575465.0 0
389417.0 575506.0 0
394995.0 575088.0 0
397732.0 571090.0 0
399879.0 575080.0 0
404733.0 572386.0 0
412305.0 574879.0 0
421014.0 574469.0 0
425135.0 575116.0 0
429244.0 571444.0 0
432644.0 575197.0 0
434763.0 571654.0 0
437257.0 576063.0 0
440085.0 571671.0 0
445483.0 571980.0 0
450682.0 572583.0 0
452372.0 576179.0 0
455436.0 573334.0 0
460593.0 574284.0 0
465932.0 575249.0 0
469143.0 571209.0 0
473905.0 572070.0 0
470931.0 575582.0 0
478618.0 571532.0 0
476683.0 575548.0 0
481927.0 575345.0 0
486071.0 572064.0 0
490658.0 572508.0 0
494534.0 575069.0 0
1216.02 578274.0 0
7319.45 576747.0 0
8142.12 581001.0 0
13187.9 579646.0 0
19934.4 576405.0 0
17827.8 580294.0 0
23364.0 578319.0 0
27430.7 580043.0 0
31367.3 576217.0 0
37322.6 577414.0 0
42274.2 580408.0 0
47034.9 577559.0 0
51016.0 580334.0 0
55848.6 580053.0 0
61077.2 579509.0 0
66952.1 579551.0 0
71480.6 576956.0 0
76710.8 576383.0 0
73775.2 581039.0 0
84776.7 580330.0 0
92263.2 576996.0 0
95441.3 580861.0 0
100024.0 579647.0 0
102683.0 576410.0 0
105080.0 580520.0 0
110518.0 579165.0 0
114506.0 579270.0 0
119565.0 576061.0 0
118158.0 580216.0 0
122670.0 579923.0 0
134851.0 580435.0 0
140226.0 578877.0 0
144058.0 576489.0 0
147328.0 579200.0 0
151688.0 578925.0 0
157644.0 577320.0 0
163222.0 575923.0 0
167983.0 577509.0 0
173297.0 575816.0 0
178265.0 578379.0 0
183846.0 577000.0 0
189024.0 577373.0 0
193451.0 576926.0 0
198060.0 578079.0 0
202124.0 576109.0 0
209093.0 578555.0 0
213289.0 575741.0 0
217806.0 575958.0 0
222321.0 575899.0 0
228131.0 577783.0 0
233413.0 576841.0 0
238230.0 576123.0 0
242785.0 575536.0 0
241448.0 580083.0 0
248370.0 576897.0 0
252258.0 575038.0 0
256262.0 576811.0 0
260676.0 576970.0 0
265425.0 577190.0 0
270543.0 578426.0 0
276628.0 577338.0 0
281705.0 578193.0 0
286339.0 577010.0 0
292510.0 578872.0 0
298546.0 577686.0 0
303986.0 576748.0 0
308268.0 576543.0 0
312707.0 578683.0 0
318474.0 579511.0 0
323187.0 577541.0 0
327789.0 578155.0 0
333043.0 577619.0 0
337449.0 579758.0 0
342088.0 577451.0 0
350883.0 578827.0 0
357390.0 576656.0 0
362123.0 579873.0 0
367532.0 577152.0 0
373104.0 578989.0 0
378579.0 577044.0 0
382353.0 580335.0 0
387642.0 581136.0 0
397667.0 579507.0 0
392967.0 579166.0 0
407972.0 577182.0 0
402981.0 579055.0 0
412686.0 580082.0 0
416999.0 576476.0 0
421878.0 578829.0 0
426620.0 580565.0 0
429096.0 576783.0 0
433097.0 580264.0 0
442611.0 576654.0 0
439415.0 581295.0 0
448074.0 576692.0 0
451795.0 581294.0 0
458240.0 579629.0 0
463527.0 579268.0 0
468448.0 580288.0 0
473969.0 579389.0 0
478925.0 579491.0 0
483339.0 580035.0 0
487118.0 577147.0 0
491254.0 577327.0 0
493764.0 580154.0 0
497792.0 578309.0 0
2961.51 581699.0 0
1348.63 585483.0 0
6435.66 585937.0 0
11467.5 584626.0 0
17188.7 585480.0 0
22004.4 582105.0 0
29445.5 585023.0 0
32976.3 581173.0 0
37756.2 582746.0 0
43246.6 585305.0 0
47188.2 582714.0 0
51615.4 584984.0 0
56965.7 585468.0 0
62330.9 584507.0 0
66950.0 584466.0 0
71223.5 585334.0 0
76041.8 585473.0 0
78922.2 581266.0 0
90300.4 581283.0 0
87996.1 584897.0 0
92888.4 585291.0 0
99083.8 584544.0 0
109606.0 583945.0 0
114918.0 583706.0 0
120116.0 584339.0 0
128947.0 580849.0 0
134085.0 584913.0 0
138968.0 583151.0 0
143640.0 581467.0 0
147346.0 582186.0 0
151869.0 584656.0 0
157717.0 583630.0 0
162692.0 580939.0 0
167495.0 582489.0 0
173195.0 582041.0 0
177819.0 582191.0 0
181648.0 581965.0 0
186996.0 581660.0 0
193146.0 582806.0 0
199334.0 582116.0 0
203244.0 580599.0 0
207636.0 582708.0 0
212580.0 581259.0 0
217565.0 580717.0 0
222292.0 580819.0 0
226322.0 582170.0 0
231252.0 581284.0 0
236209.0 581082.0 0
247033.0 581865.0 0
253142.0 580977.0 0
258358.0 581032.0 0
262355.0 580832.0 0
266616.0 582034.0 0
273851.0 582296.0 0
278294.0 582627.0 0
282122.0 581694.0 0
286779.0 582184.0 0
290811.0 583336.0 0
295933.0 583618.0 0
306096.0 580962.0 0
301711.0 581954.0 0
310232.0 582540.0 0
314705.0 583865.0 0
319699.0 584576.0 0
325058.0 583290.0 0
330733.0 582359.0 0
335348.0 583647.0 0
341265.0 584053.0 0
346374.0 580758.0 0
350268.0 584177.0 0
355814.0 581860.0 0
360761.0 585935.0 0
368017.0 583108.0 0
377679.0 584187.0 0
383784.0 585006.0 0
390523.0 585680.0 0
395068.0 583840.0 0
400714.0 584081.0 0
407940.0 582000.0 0
404530.0 582643.0 0
412838.0 585359.0 0
417720.0 581456.0 0
417616.0 586097.0 0
421773.0 583742.0 0
426455.0 585762.0 0
431061.0 584892.0 0
435715.0 585027.0 0
445359.0 581444.0 0
456428.0 585077.0 0
461201.0 584370.0 0
466314.0 585870.0 0
472656.0 585117.0 0
478750.0 584589.0 0
483417.0 584047.0 0
488112.0 582232.0 0
492703.0 585444.0 0
497575.0 582856.0 0
2250.66 588913.0 0
5872.08 590235.0 0
10899.8 590495.0 0
24672.0 586459.0 0
22698.0 590903.0 0
28558.7 590223.0 0
34316.6 586339.0 0
39091.1 587034.0 0
47340.0 589243.0 0
53226.2 589869.0 0
58290.0 590730.0 0
63557.2 589781.0 0
68238.0 588675.0 0
72532.6 589921.0 0
81772.1 586528.0 0
77160.3 589945.0 0
83945.6 591011.0 0
87257.5 589203.0 0
92589.9 590445.0 0
97925.8 589929.0 0
104370.0 586153.0 0
102571.0 590493.0 0
108645.0 589232.0 0
112732.0 587590.0 0
116912.0 588259.0 0
121735.0 588719.0 0
125030.0 585918.0 0
126672.0 590038.0 0
129342.0 586808.0 0
132881.0 590560.0 0
138016.0 588163.0 0
143276.0 586726.0 0
148154.0 588136.0 0
154222.0 589847.0 0
163121.0 585884.0 0
159365.0 588827.0 0
167440.0 587042.0 0
172177.0 587924.0 0
177551.0 585866.0 0
182315.0 586887.0 0
186560.0 586299.0 0
190589.0 588335.0 0
198001.0 587218.0 0
203558.0 585688.0 0
208201.0 587272.0 0
213176.0 586433.0 0
217988.0 585727.0 0
222000.0 585647.0 0
225753.0 586461.0 0
230728.0 586775.0 0
236491.0 586291.0 0
242336.0 586016.0 0
248028.0 587373.0 0
252397.0 586809.0 0
256676.0 585444.0 0
261148.0 587387.0 0
266682.0 587819.0 0
272292.0 586752.0 0
277705.0 587830.0 0
283052.0 585944.0 0
288307.0 587590.0 0
293246.0 588005.0 0
297130.0 589500.0 0
300947.0 586536.0 0
307282.0 587183.0 0
313108.0 588762.0 0
318166.0 589312.0 0
322475.0 587734.0 0
326721.0 588910.0 0
331463.0 587263.0 0
336669.0 588719.0 0
346179.0 586543.0 0
341811.0 590006.0 0
346196.0 590500.0 0
350735.0 589574.0 0
355572.0 587678.0 0
359315.0 590826.0 0
364143.0 589935.0 0
367871.0 588158.0 0
372214.0 587358.0 0
376208.0 589526.0 0
381175.0 588118.0 0
386774.0 589194.0 0
392488.0 590328.0 0
397291.0 588370.0 0
402157.0 589081.0 0
406600.0 586674.0 0
410873.0 590135.0 0
416522.0 591359.0 0
421926.0 588750.0 0
426528.0 590945.0 0
431667.0 589630.0 0
437194.0 590037.0 0
441419.0 586611.0 0
446325.0 586401.0 0
446825.0 590675.0 0
451478.0 587944.0 0
456567.0 589692.0 0
461433.0 589454.0 0
466139.0 591143.0 0
471335.0 591263.0 0
476759.0 589639.0 0
481840.0 589660.0 0
486900.0 587625.0 0
491556.0 590714.0 0
497910.0 587319.0 0
495727.0 590673.0 0
17323.8 591915.0 0
33985.1 591754.0 0
39395.0 591832.0 0
43694.9 593044.0 0
371799.0 591832.0 0
406041.0 591651.0 0
442303.0 591818.0 0
453582.0 593416.0 0
487754.0 592662.0 0
POINT_DATA 5000
SCALARS Radius float 1
LOOKUP_TABLE default
5120.0 6182.6 5840.26 5073.35 5415.48 3863.18 2356.98 4998.37 5492.18 5258.36 5061.3 3163.97 3642.12 5812.43 5733.48 5580.89 6810.52 6110.27 5670.04 4834.9 5085.53 5351.6 5867.73 3951.75 5013.56 4499.64 5542.27 5906.14 5484.19 7513.1 5254.28 4436.4 4182.53 4672.91 3588.44 5645.7 4366.19 5553.16 3672.51 4008.92 5561.06 6716.79 6044.04 3850.77 5325.36 5484.83 4715.55 6059.59 5701.86 4375.68 5054.98 5122.66 3557.27 5170.02 4688.68 4402.52 5185.34 4517.56 4432.58 5903.42 3761.32 5176.86 4118.05 2938.66 5065.13 4940.78 3615.22 4380.59 5546.39 5538.89 6759.9 4730.36 5926.61 2720.68 4955.55 4238.81 3563.63 4468.59 6030.06 5325.02 5200.76 4927.31 4862.64 5205.43 6684.56 3955.56 3968.64 5292.64 2635.86 4385.06 6166.5 5936.02 5305.17 7613.27 4133.88 5945.65 5418.62 7021.47 5416.38 6051.14 4345.55 5836.15 5885.03 2837.58 5246.2 5017.13 3673.74 6116.18 7447.37 4688.67 7184.19 4290.3 4861.08 4231.61 3942.53 3379.84 3607.45 4951.03 4094.62 6483.19 5493.32 4601.27 5740.68 4195.44 3261.21 6704.06 3653.41 3871.88 5600.93 3856.01 4390.66 5279.39 4827.23 4911.47 5803.39 4381.97 4924.6 4733.32 2899.43 2924.37 3867.67 5399.73 4003.05 4827.82 3589.27 4333.2 4665.12 3936.02 4927.02 6230.49 4174.52 7054.71 3641.64 4277.89 5747.75 5539.32 6496.85 4874.39 5541.59 4124.71 5083.08 5728.85 6337.56 5863.59 3255.82 5242.73 2812.98 4065.69 5390.22 4805.87 4712.33 5759.91 5227.21 3997.1 3038.33 3260.67 3383.4 3856.1 5980.74 5109.54 3829.13 5489.43 5054.25 4796.33 5360.19 4794.96 6186.19 4839.34 2980.99 6834.49 5525.39 3998.5 6257.19 4024.3 4737.14 5603.15 4695.45 4660.72 6038.78 5123.52 4295.38 4780.03 4044.71 5816.2 3091.3 6458.82 5527.54 5573.7 4727.62 7325.81 6425.26 5143.58 4840.01 4484.76 5611.2 7933.0 5938.34 6394.38 5555.28 5169.36 4686.65 5834.74 5556.96 3888.21 3921.18 5697.78 4667.36 4392.68 5529.52 5495.39 3554.9 3996.0 4487.31 4002.16 5693.81 2540.31 5789.98 6138.47 6302.8 5697.4 4270.95 5206.78 4055.8 5280.17 5028.96 6362.12 5152.36 4220.65 4455.12 5173.87 5380.13 5118.27 5932.23 6052.7 5891.05 4091.31 6902.81 7199.21 5337.48 6124.89 5252.48 5708.81 5043.05 4015.92 4778.34 4138.16 4684.5 3486.22 6029.66 5120.49 5409.61 4005.44 6038.2 5555.88 6732.43 3866.16 3183.98 4524.28 4511.82 3778.1 5826.64 6820.42 4894.16 4816.2 4896.52 5711.87 4941.22 5791.61 5788.23 3798.62 6392.01 3666.57 4254.17 5615.42 4523.7 5255.32 6037.08 4049.23 3586.91 4929.8 5637.59 5481.78 3307.12 5542.21 4937.14 5924.89 6894.71 4414.54 5262.61 5201.36 5094.81 5972.06 5713.22 5861.71 4312.67 5017.78 4359.04 3794.63 4727.24 6175.81 6959.81 4829.35 6321.41 3372.79 4751.02 5184.56 5282.64 4479.66 4715.72 5581.75 3369.13 5367.2 5308.1 6644.76 6372.62 7565.34 6756.95 5091.39 6324.23 4727.24 4151.94 4382.74 4651.28 4384.42 5601.05 4516.43 4362.19 3103.0 4948.92 3115.91 6084.86 5478.92 5551.36 4467.94 4850.81 6038.14 5024.9 4306.53 5659.17 6135.57 5998.38 4270.24 5423.8 4989.15 5015.69 4947.52 6677.09 4305.57 5813.4 5201.67 4089.76 5526.55 4754.05 3192.41 4987.87 3315.57 4669.66 4808.52 3043.85 5461.13 6730.19 3599.45 4937.02 4907.89 5629.19 5655.21 5090.24 2240.39 5923.5 5096.78 4612.68 5293.9 3320.52 4129.43 6142.94 4685.34 4329.05 5927.43 6355.42 5690.56 3693.63 5762.84 4493.48 4749.8 3937.74 5082.6 5810.84 4230.54 5094.44 4655.49 4933.21 4566.18 5375.47 4964.09 4723.12 4809.42 4717.05 5287.2 4562.29 5013.13 5080.66 3417.33 4926.42 4164.13 4642.34 5248.77 4520.1 5874.89 4293.03 4389.21 3791.79 4165.81 4424.7 4128.98 4925.44 4951.47 6084.93 5246.61 5215.15 4764.96 5046.33 5607.24 4726.76 5839.13 3735.44 4907.06 4786.6 4073.93 4645.41 5740.84 4433.59 5530.87 4973.83 3912.37 4281.49 4310.18 3843.58 6342.25 6691.39 4602.25 4792.73 4931.38 4736.58 3485.26 6082.81 5110.37 3191.99 6327.9 5492.26 5244.78 4220.88 6640.13 5478.47 6142.37 6061.47 3748.24 6163.38 4997.27 3459.9 4093.08 5543.27 5856.11 4109.88 3327.49 3960.8 4234.94 4980.85 5714.58 5110.45 3329.99 5208.32 4083.97 3296.27 5153.74 3895.51 4607.02 4528.09 3556.85 6291.51 5882.89 6246.22 4188.32 4100.38 4307.28 5804.71 4739.42 5020.12 5727.3 5053.92 4242.52 6352.26 3057.03 3847.38 5163.9 5495.68 5489.34 6043.3 6445.94 5952.75 5537.72 4320.28 4218.06 5542.14 4931.53 7134.64 4194.5 4270.53 4790.08 5191.63 4501.51 5379.87 3708.04 5513.6 4901.41 4556.36 3240.09 5264.06 3369.23 5664.98 3688.8 4548.16 4048.37 4659.59 5449.18 6519.71 3092.35 5210.03 5351.39 6022.17 5119.37 4583.31 3982.23 5806.08 5243.29 4853.39 4449.22 3130.65 5628.24 5992.26 5070.39 4923.9 4973.78 3947.47 4713.25 5091.68 6243.0 6673.96 5441.96 5174.89 4288.3 5370.52 4652.29 5774.81 3697.96 5538.93 4723.48 4899.11 4745.45 5281.28 2631.9 5356.51 3818.59 4087.15 4863.72 4143.08 5002.48 5708.14 4262.82 3920.42 6332.36 6122.55 5480.13 5978.9 2739.94 5082.47 4187.56 5344.25 4840.84 4997.27 5344.0 5135.69 4593.7 4478.15 4043.57 5925.6 5987.17 6013.14 3979.82 5138.31 4602.86 4621.75 4581.13 4551.24 4219.07 3610.4 5358.59 4515.71 6387.01 5367.52 5025.39 4322.15 4714.54 3629.96 3320.11 5030.91 5507.24 6851.54 5570.3 4503.89 4336.42 4306.11 3402.32 7589.94 5004.67 5365.89 5409.33 4511.54 4898.94 5196.0 4613.31 4733.04 6119.09 4204.84 7531.29 5069.25 5048.89 3991.03 3161.47 3435.9 6390.78 7435.25 6826.57 4495.87 3746.31 5344.77 5027.98 5097.87 4278.07 7267.18 6255.18 4277.88 4758.21 7500.97 6623.85 5228.18 5102.36 8332.24 6155.31 6308.71 3629.62 4301.06 4716.19 5514.76 6045.46 3456.98 4290.14 4763.45 3815.26 5445.87 4150.99 4216.92 3929.19 4271.69 3771.48 4107.03 5198.77 5681.38 5147.67 4138.42 4292.06 5011.31 2765.2 5006.58 5586.81 3856.59 4746.52 5413.79 6202.55 6338.89 7111.16 5893.5 3817.13 4547.19 4377.07 3695.36 5101.59 3848.93 3813.22 6020.48 5935.47 5903.66 5313.66 4528.49 5419.37 4466.03 5275.32 5985.29 4247.23 4178.15 4268.65 4694.83 4354.08 5788.66 4520.62 3903.75 4755.47 5935.03 4485.99 5314.69 5475.8 6050.81 5543.46 4788.87 6022.72 4249.46 5498.32 5527.33 5346.27 6475.1 4969.21 2691.29 4668.71 6256.02 2845.98 7228.46 6362.14 3948.23 6719.88 5787.31 4342.9 5065.11 5069.84 4223.33 4553.56 4051.44 5911.67 5329.64 3323.28 6695.82 5835.78 6405.76 4877.67 4020.32 4245.72 4704.72 4571.7 5908.1 4177.94 4742.68 4344.58 5634.83 5922.5 4502.5 3633.87 2775.04 3970.25 4850.01 4138.46 5215.05 5643.58 5577.04 4986.77 6318.18 4481.53 3948.17 5330.45 5077.33 3689.45 5572.95 6723.16 5584.06 5372.61 3686.21 6480.17 5023.15 3844.9 4564.34 3963.86 5076.35 6375.99 5200.05 4091.8 5234.29 4645.58 2651.49 5512.23 4711.62 5349.31 4649.22 2976.22 5394.55 5509.42 4256.43 5936.36 5229.48 5928.32 5475.7 5415.19 4016.18 5127.16 5435.74 4244.99 5327.45 5560.26 5965.81 3702.37 4643.31 2330.66 4177.19 6917.52 3691.0 5402.21 4880.14 4982.31 5320.92 5289.52 5269.18 4406.1 5034.59 5978.82 4942.77 5080.18 3927.99 5266.5 5868.82 4050.9 4066.38 6049.55 5709.62 3498.2 5941.72 5794.24 6562.18 3066.13 6048.7 4541.21 4156.38 5896.46 6009.88 5495.84 4164.68 6268.1 3784.5 5782.6 4862.21 5113.21 4011.77 5499.11 4527.08 4374.35 5347.48 4810.12 3821.72 6898.19 6035.6 5198.29 5137.34 5423.0 3975.31 5344.43 5125.78 3824.16 5045.38 3868.18 5350.88 5130.91 4948.5 5402.24 4527.02 6445.22 4519.22 4531.14 5013.42 3838.56 5651.07 4871.44 6248.81 5273.35 6259.23 5181.4 5670.2 4114.24 4662.56 5166.79 5417.15 3688.16 5094.52 4946.74 2682.24 5996.33 3950.63 4612.62 5526.75 4275.57 6385.23 2614.4 2983.99 6185.89 3997.96 4750.17 5660.85 3460.94 3990.25 6184.4 3758.07 4752.51 4373.45 3587.05 6229.37 4989.09 6718.19 4307.48 5314.85 3848.54 4305.43 5941.4 5450.44 6510.17 4263.33 4454.63 4523.88 5912.61 4241.89 3279.1 4978.31 5054.74 4099.77 4981.9 4414.48 4537.32 4127.74 2476.04 4656.78 4302.5 5105.16 6006.16 5050.65 5022.8 5316.75 6133.92 7055.53 4178.4 3719.84 5669.65 5253.55 5820.48 7034.11 2586.12 6261.42 6125.34 5965.78 6396.74 7099.43 5526.14 5315.4 6449.45 4044.45 5262.19 3627.82 4373.47 6070.58 6034.41 5490.43 5452.83 4959.34 5383.07 4591.87 4247.15 6552.22 4602.85 4962.77 5210.48 5872.05 4853.02 6101.92 5323.3 5088.44 4635.6 4998.21 3457.48 4256.67 6079.11 3931.07 3405.98 6430.39 7440.72 4681.72 3949.6 4945.39 5661.62 6631.19 3619.07 4467.04 5626.61 5817.25 6363.92 6205.93 4439.35 5830.72 3828.81 5309.98 4236.14 5733.62 4407.87 5282.91 4425.84 5331.02 7256.35 4871.96 5742.65 4863.23 5592.32 4402.67 5381.16 4403.98 4948.98 5227.52 5163.02 4729.43 5991.09 4092.24 4562.74 4678.38 5126.91 5448.61 3942.07 4827.33 3937.08 7443.72 5513.57 5013.67 5729.23 5260.34 5206.48 5934.22 6586.45 3780.23 5624.49 3095.48 3471.03 5188.81 4359.62 3745.84 5011.84 6057.22 6946.21 5062.71 5433.8 5975.63 4497.59 5252.34 4274.61 4410.55 2965.79 4287.63 5776.37 4516.28 5678.96 5486.68 4244.9 6048.86 4285.32 4986.51 5022.28 5339.38 5197.52 5178.99 5615.35 4790.78 4027.09 6422.84 4502.18 5379.09 7552.94 4051.34 3627.55 6239.84 5865.39 4427.28 3082.32 3658.37 4765.02 5376.71 5703.6 6326.18 4867.08 4807.28 4266.03 6648.68 4220.03 4713.74 5407.78 4084.49 5061.98 6632.99 4537.6 4923.24 5147.36 4419.61 7177.44 4563.46 4082.57 5255.18 5169.9 5282.51 3004.16 4460.92 3797.33 5945.89 4042.28 4105.55 4800.69 6566.1 3555.86 6386.78 5565.13 4470.61 4560.84 6193.35 6086.96 3701.27 5233.78 4806.34 5776.57 7144.24 5133.97 3600.43 6600.94 5371.02 4788.58 6155.1 4709.35 5876.71 5826.04 5226.0 5339.78 4166.08 4861.06 5960.66 3979.26 3999.48 6608.73 4203.26 5696.88 4730.41 3923.03 4004.04 5690.26 5607.14 4156.2 4289.17 5564.02 6072.45 6444.77 6314.07 3921.08 4190.31 7055.42 5683.61 5100.25 4049.02 6894.26 4470.4 5311.03 5255.12 6169.11 4896.11 5172.53 4135.62 5801.99 4860.33 5534.94 3685.13 7644.38 3312.06 6004.68 3361.26 6799.4 4409.63 5521.25 3661.9 5107.23 5370.85 5136.08 5949.46 3178.54 5558.68 3776.94 5629.39 4448.13 2684.03 5070.29 4768.61 6157.04 2261.36 5075.55 5280.69 5506.19 6719.94 6923.84 5449.46 6179.96 5703.07 6113.54 4662.43 6260.79 4709.05 4043.66 3963.76 5528.53 6553.94 5726.66 5460.65 4767.78 5235.17 4779.5 4340.76 4421.12 4435.36 6065.22 4221.28 4996.99 4631.83 4896.39 4384.88 6887.27 6008.49 5480.83 4220.46 5653.9 5683.26 5598.74 5046.21 4906.82 5687.83 5131.24 6496.67 5196.67 5474.8 4373.3 4750.78 5762.59 6262.72 5029.78 6481.79 5374.51 3365.82 5320.28 5224.12 3637.61 4796.58 4569.12 4298.67 5873.69 4472.17 4962.09 6222.42 5654.31 4643.85 5470.77 6062.05 5082.74 5411.85 4844.57 6915.83 5092.37 4470.98 4027.46 3901.8 5759.46 5511.88 4512.11 5083.41 6248.6 5443.58 3836.45 4558.46 5805.86 5346.68 5296.29 4611.53 2681.29 5094.48 4285.66 3872.61 4238.4 4318.48 6408.83 6132.95 3930.79 5266.22 5226.97 5754.18 5180.76 5132.68 3418.99 4480.95 5278.36 4993.35 6218.95 5222.16 5533.72 5533.42 4802.32 4010.57 4599.38 5246.47 4187.31 6191.29 4522.21 5161.01 4298.15 4950.67 5227.59 6166.29 5453.6 5409.63 5294.77 3077.84 4630.82 4813.08 6799.88 4540.86 3062.43 5426.78 2967.38 5652.0 5463.41 5225.33 4929.75 5254.49 6045.22 6649.96 4456.39 4303.19 5514.84 3633.79 6081.14 5421.53 4607.85 4287.53 6070.3 5612.21 4929.14 5894.61 5945.08 5139.5 5004.23 6442.69 7493.3 6320.71 4814.55 4648.04 5833.06 3527.05 3664.11 6607.87 4163.5 4123.6 7092.87 4538.95 4850.14 4970.88 6739.08 7042.12 5501.93 4471.58 5463.38 6098.14 5945.21 5750.71 3493.7 4938.74 3474.39 4200.03 4831.47 4735.33 6939.12 3999.94 4413.85 6171.13 4020.4 2395.5 4864.22 5941.61 3497.9 4933.65 6098.1 5708.99 5687.85 6401.43 5020.71 5997.88 5839.71 4360.23 5576.92 6234.32 5365.24 4004.35 5293.51 4763.96 5008.63 4270.74 3450.93 6293.89 6595.03 4983.39 5366.52 4690.55 5146.37 7132.12 3678.08 4836.16 5518.57 5463.48 3240.51 7422.36 4527.99 4376.7 4628.4 5190.61 5832.37 6051.83 3764.06 4642.93 3973.12 4263.16 6024.75 6109.49 5860.67 5987.42 5990.52 3764.1 4835.83 4159.35 5604.35 6477.91 3091.67 4237.98 6439.37 4081.97 4614.3 5401.99 5134.39 4256.57 5784.3 3914.2 5769.98 6088.68 5937.08 2221.99 4643.56 4135.08 5128.57 5620.74 6000.7 5604.21 3979.54 4968.03 5304.13 5944.09 5698.77 4863.79 4702.06 3464.83 2477.07 6515.84 4143.78 5117.47 5724.64 4925.63 5965.15 4763.66 4888.6 4666.81 4797.52 4780.2 6326.39 6343.14 6643.85 5462.21 4020.95 6313.06 5374.98 6345.13 6470.3 4719.7 5313.22 5516.95 5563.79 5328.22 4406.4 4151.76 3905.51 6853.85 3493.47 4254.37 5782.48 4596.75 3374.08 4031.78 5564.23 5950.04 4231.83 2435.33 4074.48 6333.29 3614.96 4477.04 4558.47 3886.68 5731.57 5662.55 5737.92 3056.7 3755.95 5591.76 4585.31 4586.19 6625.18 4446.06 5323.91 5097.45 4185.61 5737.75 4558.15 2761.07 3778.02 6552.21 5417.8 5227.02 5670.0 5300.96 4232.16 5151.11 4344.51 5680.94 5730.33 5545.46 4543.1 6550.44 8325.01 5732.27 4440.81 5941.9 4523.39 5434.47 6642.76 5829.22 4497.78 5567.93 4243.79 5811.18 5433.65 5332.65 4442.22 6451.33 5413.31 6316.56 4332.87 6420.81 4715.58 3317.83 5580.92 5151.52 3532.3 5973.33 3583.21 5442.32 5067.46 4863.01 5356.79 5233.29 3169.67 4312.56 4612.06 5204.04 3361.92 5490.58 4750.58 3306.14 5395.14 4923.41 3967.48 2990.77 4497.31 3163.78 4305.16 4721.32 3293.56 5092.28 5882.65 5078.86 4739.14 5163.55 4918.77 4819.73 6817.32 3382.7 6471.55 5085.71 4319.79 6263.44 5960.56 4863.27 5122.63 5774.97 5862.86 2315.64 4703.08 6049.79 4390.41 5226.56 5274.19 5599.49 4050.08 5452.42 4097.57 5017.5 3436.15 4216.17 5711.11 4575.94 6484.17 4721.02 3546.71 4938.72 5768.57 3735.24 4188.87 5151.21 6574.95 6817.57 6853.04 4745.43 5703.74 4747.55 5831.96 5464.68 2685.81 4510.8 5889.35 5010.04 4394.56 4570.98 4275.07 5825.38 4573.72 4047.87 5099.21 5742.47 4917.99 5636.4 4367.78 4350.12 4095.75 3603.51 4298.45 5222.51 6609.84 5135.96 3781.77 3834.43 5581.55 5658.37 4707.06 5193.01 6074.94 3474.5 5491.37 3860.83 4250.88 6348.03 3475.67 4792.39 5278.56 5146.37 6917.62 4013.38 5631.14 6137.8 4343.78 5263.3 4008.15 4887.76 4669.06 3012.99 4811.32 6400.08 6184.88 4743.59 5208.14 4450.7 4396.25 3763.05 5092.24 5369.08 4347.74 4518.04 5291.9 4766.06 4009.62 3580.58 4874.18 2081.58 2511.46 4778.82 4011.37 2775.69 5657.36 6124.08 5467.84 3619.79 5029.47 5053.95 6710.88 6667.68 6213.04 3830.46 5211.38 6413.11 6031.67 5274.14 5529.42 4434.19 5257.12 4636.5 4903.82 5100.1 4940.42 4371.99 3954.91 4946.42 3703.1 5923.4 3561.29 4623.61 3295.83 5644.82 2965.01 6413.02 3492.19 4584.5 4118.84 6766.43 3623.87 5916.16 4890.5 6934.37 6113.95 3731.84 4488.85 3981.07 4901.07 5186.3 5966.61 5005.85 4893.49 5325.44 5102.75 5021.88 5956.65 4597.29 4498.25 4200.09 5931.77 5108.06 5398.64 4222.4 3573.73 4693.52 4568.41 3624.7 3420.08 4912.04 4691.91 4539.07 4255.34 4475.83 5064.79 5480.3 7509.24 5896.26 5388.78 6101.13 5599.7 4163.74 6969.28 3665.95 5698.96 3319.67 6471.42 5283.8 4076.59 5164.1 6464.15 4972.17 4479.11 5699.53 4222.77 3783.54 5268.38 5527.23 7038.89 3863.67 4814.12 5067.56 6193.08 6069.3 3352.35 2735.53 5116.6 4909.65 2783.85 6523.86 7693.4 4286.49 4326.48 4437.07 3449.37 5829.32 5491.9 6405.0 5551.95 4659.16 3918.87 5549.49 3101.75 5423.42 6605.86 6505.78 4785.25 6519.43 4270.15 5876.64 6306.21 5926.11 5424.46 5235.11 5253.37 5767.9 5384.76 6515.8 6138.12 6622.11 4428.78 4965.89 5746.28 5659.95 5187.7 6090.91 5409.66 4152.85 4082.47 4537.14 4219.78 5551.9 4963.34 5081.78 4188.3 4459.28 4260.92 5499.39 6250.23 4407.9 4440.57 6235.57 5203.08 5412.31 5548.29 3087.09 7480.41 5163.77 3766.55 6027.62 3423.15 4579.69 5010.2 3554.48 6496.52 6123.03 3991.42 4388.63 4514.79 4834.87 2216.82 3672.21 4509.89 5760.22 6752.75 5938.17 4795.43 5097.95 2928.82 4914.45 4698.87 4000.43 3984.88 4661.03 5160.59 5262.35 4732.09 4281.98 4320.42 7165.9 5344.83 7046.11 3427.63 4863.97 4146.81 6342.48 5756.75 5093.82 4587.67 5951.81 5212.43 3924.14 6918.35 4296.69 4834.3 6238.32 6804.79 6372.13 5369.5 4428.14 5404.01 6016.19 4124.49 3230.13 5714.25 6685.4 5325.96 4850.06 6332.01 7044.29 4805.33 4234.18 7085.01 5980.95 6836.82 3862.77 5887.01 4631.99 5168.35 3747.03 5388.39 4356.49 3728.18 5335.47 4526.81 3994.07 5048.19 4219.94 5907.46 6740.71 4264.91 5399.29 5789.55 4633.05 2275.45 4901.2 6522.59 5012.5 5435.19 4383.56 5461.55 3562.79 7093.13 3298.2 6865.76 6449.64 5266.01 2978.76 4857.84 2040.66 4908.49 7016.27 5884.9 5089.62 4689.15 3685.13 6790.73 5243.43 4590.55 4655.16 4741.26 5920.32 3701.16 4186.6 5251.4 4453.64 3867.19 4345.67 5019.93 5511.6 3885.86 5235.29 4517.73 5177.64 4541.8 4255.31 6116.33 4479.94 5453.3 3838.47 2588.37 5887.15 4718.54 6736.03 4435.51 8659.64 5374.07 4588.7 5683.95 5469.13 5765.42 4233.8 4976.12 6098.95 4817.16 5453.98 4997.83 3718.69 5148.08 6192.0 4940.28 5885.28 6579.31 5269.38 3004.34 5323.55 5607.3 3022.6 4811.76 5313.12 5351.56 3344.57 6448.66 5318.53 5220.76 6945.98 5138.2 5783.48 4701.5 4449.98 4771.65 5589.37 4840.44 5439.49 6639.64 3687.65 5454.12 5478.95 6348.54 4066.57 5642.35 5156.76 6357.47 6101.57 4891.38 5535.91 5955.86 6176.67 4848.46 5412.24 2779.99 5016.02 4581.37 4920.21 4049.16 5851.61 3936.95 6153.94 5478.11 5526.31 3858.17 5030.15 3477.1 4740.98 3185.39 5128.77 7122.87 5633.61 4243.26 6799.23 4888.27 6487.56 4854.11 5971.22 5533.19 4909.31 5417.21 6602.43 5711.62 4798.17 4990.79 5166.79 4516.53 4953.1 2895.63 5818.95 4093.99 3940.49 6464.8 4684.44 4962.21 4749.59 3468.42 4858.44 3685.65 5799.69 4673.35 3876.21 5869.4 4916.22 4992.42 5297.19 6022.7 4255.85 5097.69 5895.77 4765.72 4732.09 3988.3 6261.75 5857.79 2908.7 3757.34 4039.91 6415.61 4338.08 4642.66 5276.7 4752.14 4378.3 5660.16 5037.06 5842.56 6134.99 4094.73 5191.08 5424.88 4062.5 4199.45 5415.85 7234.66 6599.66 4055.54 4886.12 6419.12 4301.61 6107.89 4446.84 5530.49 5660.55 5653.03 5578.94 7610.49 4286.17 3684.56 6028.09 5375.1 5452.36 3804.5 4172.6 5498.42 4638.18 4196.37 5211.6 5806.31 3556.79 4453.97 3503.41 7317.04 6412.67 7001.83 4504.35 4593.7 5012.97 4036.91 5110.11 6379.14 5216.26 4887.52 6571.31 3851.85 6318.23 4058.87 4206.98 5174.75 5932.07 4984.46 5948.71 4793.65 2949.12 3856.53 4532.89 5460.89 4533.37 6040.74 5260.85 5742.09 2884.65 5887.38 5807.46 6942.34 3658.05 4549.69 6423.81 6192.77 3644.78 4312.15 4078.93 5934.82 4501.78 4922.49 3572.94 5797.36 5001.58 4153.84 4820.17 4592.15 5119.86 5084.17 4901.44 3776.8 4998.22 5096.43 6156.21 6104.26 3568.28 5583.61 5425.98 5996.66 6479.39 4122.92 4405.42 4997.91 5079.22 4599.81 3604.14 5381.54 4452.54 5810.77 4406.05 4680.94 5828.35 5876.72 5571.72 5236.43 5689.26 3809.69 4771.13 7051.9 4940.84 4680.14 4608.41 4184.23 4144.57 4833.46 5750.07 6136.49 6543.13 5149.72 4687.64 5469.47 4419.71 4888.12 4244.21 5411.02 4950.97 3197.63 4989.56 5175.29 3645.12 4863.96 5199.44 5471.74 6200.54 5148.58 4652.01 3548.39 5421.64 3583.49 3673.28 4858.51 4366.74 4207.54 3375.28 5625.65 4936.96 4647.67 4481.76 3184.64 5206.33 5375.12 5452.78 5065.26 4356.36 4892.44 4304.41 6789.23 3989.7 5069.89 4157.29 4246.61 4777.03 6813.72 5327.75 4609.02 6486.37 6083.28 6100.73 4745.79 5456.71 4908.75 6556.26 3971.08 6204.65 4482.9 6550.4 4349.13 3766.69 4891.67 6818.91 3503.65 3634.5 4027.63 6631.28 5350.88 5420.67 4392.65 6413.15 6103.11 5048.55 6459.51 4024.31 5844.72 3992.97 5989.05 4054.22 7228.94 5393.65 4961.99 4648.21 4393.16 4595.12 3311.29 3110.13 6484.43 3485.54 4625.67 4458.64 4583.52 6418.11 3492.83 6015.02 5244.22 5585.14 7039.98 6456.58 4729.42 4159.81 5089.26 5244.98 3886.72 5415.45 5792.98 6592.93 6350.71 6436.74 2460.79 4456.11 4653.83 6063.64 4986.71 7382.3 3598.08 2995.67 4022.56 5522.21 5698.23 5089.1 2711.19 4714.83 4028.32 7519.2 3208.96 4099.92 5285.07 4884.59 6355.68 3858.06 4478.6 4083.79 4511.7 4187.94 4351.38 5550.75 5933.7 4809.67 4757.74 5036.58 4356.25 5776.96 5329.59 6119.63 4209.49 5464.25 3821.94 3498.16 4209.31 5439.9 4409.27 4752.9 5512.16 4617.55 4947.24 4287.16 3456.47 3875.05 3540.11 5950.45 4344.34 5713.03 5849.65 4928.27 5052.84 5775.31 5297.16 4165.21 3332.49 4215.0 4603.5 5354.66 4214.44 3566.79 3629.44 5378.23 5374.67 4787.97 4981.43 3746.36 4741.28 5473.72 2603.64 4215.2 2856.55 5107.0 2205.51 4553.68 6212.15 5361.87 6502.97 4783.07 4946.23 4757.2 4896.65 4852.58 5561.74 5975.23 4788.08 4198.94 5470.04 4211.82 6003.78 5684.25 5438.92 4244.49 5036.98 5513.8 5188.53 4521.75 3429.57 5569.2 5410.33 4642.74 6735.97 5305.59 5416.45 4330.58 5754.6 4955.16 4904.51 4147.31 2202.77 5751.15 5950.88 4441.22 4149.55 5853.89 6551.93 4140.4 4386.8 4725.01 5446.4 5966.75 5510.9 3657.69 4883.63 4505.28 4971.29 6280.13 3684.15 5832.29 4438.76 3994.39 6006.89 4618.73 3814.65 3965.3 4960.64 4983.3 4385.81 4034.05 5690.96 5798.38 3862.91 4125.9 5096.24 6171.71 3908.98 3628.89 4668.88 6589.82 6328.42 5027.43 3772.3 7300.58 4855.01 5522.75 3608.06 5474.15 6208.9 4923.57 3340.09 6633.61 5217.95 5484.36 4867.7 4304.63 3953.55 5980.59 4063.9 5263.27 6834.41 5021.77 6300.92 7248.4 6045.67 3796.15 4216.95 5466.33 5742.74 5280.12 3946.28 7216.98 5984.81 5721.05 6329.53 7013.17 3805.67 5718.28 5486.48 4247.69 5301.47 4514.39 4588.99 4640.06 4321.21 6242.79 6506.86 5088.57 4803.57 5580.34 3852.6 5966.42 5134.67 4110.59 4847.14 4706.5 3950.27 4811.22 3683.86 5116.66 4918.76 5003.78 3299.24 6246.56 4061.6 5826.78 4508.18 6214.73 5175.89 3894.64 3703.49 4268.19 3758.22 4374.74 4062.56 3205.68 6200.63 4532.7 4504.86 3217.67 4473.29 5079.64 996.652 6163.54 5212.37 6500.49 5965.58 2628.22 5058.51 4901.29 4607.18 4124.76 4050.03 4775.04 4120.07 4952.52 4882.66 3840.21 6746.66 4954.76 3908.56 4844.83 5244.78 3636.15 6114.89 5135.63 6384.7 3288.01 4355.83 6870.97 5351.86 6056.87 5474.01 6201.86 7554.58 3380.69 5166.89 3639.44 5491.63 5725.37 3868.62 5138.33 3743.76 3425.69 6711.21 5510.45 4730.14 2606.51 4941.02 3864.92 6119.99 2955.36 3668.93 4128.1 4009.24 5372.82 4402.17 7778.01 5127.82 5124.17 5805.1 5366.11 5039.12 4064.58 3419.87 4824.81 5769.14 5944.3 7307.21 3563.14 3381.82 3619.72 5867.64 4646.51 4438.58 4565.93 6059.93 5602.53 6061.63 2279.05 4829.35 6545.43 4075.28 6760.92 4277.24 4989.2 4469.54 4314.56 5161.1 5291.05 6650.77 3928.53 6226.14 5599.29 4801.8 5740.65 4444.97 5046.12 6038.68 3000.29 5271.02 4807.4 2596.96 6349.67 4350.15 4139.3 3516.27 4590.01 6541.45 5367.73 4263.78 4601.74 6101.86 5078.31 4227.41 5993.0 5391.48 6047.14 4923.43 5009.83 5131.15 5666.95 5210.38 4642.2 5717.8 5210.75 4474.83 6555.44 5293.75 4208.41 5730.61 7124.45 6358.93 5064.67 6618.21 5232.85 3717.47 4051.18 5969.37 6816.66 3844.54 5034.69 5849.53 4509.46 4680.69 3538.53 4420.11 6127.39 3352.34 4972.18 5329.76 3899.7 2403.72 7200.89 4147.49 4813.33 4802.98 4833.55 4081.34 3646.95 7224.99 6334.53 5377.37 5652.87 5483.7 5018.69 3152.86 5952.38 3896.27 5807.52 5963.36 5230.02 5307.35 4342.18 5169.48 6016.08 4731.21 3124.7 6064.71 6102.98 6060.17 5153.18 4763.4 4236.86 5902.67 5393.76 5454.11 5806.61 4983.1 6010.59 7123.04 5906.57 4446.58 5401.4 5053.15 5910.86 3220.29 6239.68 7320.78 3845.9 4141.21 4834.44 4234.88 5782.43 4384.28 4456.26 5113.6 4810.98 5135.5 5091.22 5347.9 5640.72 5851.63 4504.52 5727.79 7107.63 5073.02 5788.97 3472.91 4928.85 4023.93 5868.89 8137.11 4711.04 5484.32 4173.54 5606.51 4619.2 5166.41 4824.12 6542.5 7104.73 5067.56 3834.47 4383.47 6162.3 5701.75 4264.54 5262.47 5261.19 3104.96 3512.94 7043.44 4263.65 4750.49 4643.9 4258.98 6106.43 5228.75 4807.35 6761.81 5467.63 4568.64 4728.55 4929.6 3919.62 5750.35 4127.53 4489.99 4548.45 4658.11 4551.26 5658.14 5114.07 4385.49 4263.18 7142.95 4383.68 4559.74 5836.26 6666.67 2617.39 5144.44 6063.44 4583.94 4826.52 5046.31 4928.35 1937.5 5241.75 4731.53 3763.9 4651.99 4788.7 5863.0 5084.5 5640.12 5078.59 6638.25 5134.33 5419.57 5162.67 5760.98 4705.68 5469.35 5384.86 4749.96 4658.24 5869.67 4311.48 4387.39 4899.73 5457.66 6394.19 5973.89 5366.22 6193.73 5518.11 5087.14 3742.11 4192.21 5712.35 5701.52 4743.9 6776.22 5321.17 3719.11 4467.13 4869.25 3877.8 6273.6 5136.87 5024.32 4708.17 3779.45 2741.2 5790.42 5784.37 3142.09 5591.77 3682.35 5182.13 3756.96 6110.48 7541.76 4775.49 4932.29 4681.29 4990.23 5499.59 5749.6 6715.73 4439.71 5667.51 4708.31 4027.33 4198.9 3873.92 5431.29 5026.76 5023.41 6282.38 4092.07 4546.44 5657.55 4184.21 5212.92 4831.93 5188.82 5615.84 4464.73 4717.73 6440.38 5556.0 3274.85 3904.07 5007.21 5545.59 7144.05 4506.18 4067.96 5610.53 2970.9 4099.26 5206.47 4580.06 4608.34 4834.39 3926.11 5971.21 5493.89 3272.75 4057.17 7066.96 4467.0 4991.35 3831.52 4587.7 4994.65 5601.55 5196.92 3787.08 4462.87 5644.81 4013.86 6545.99 3903.91 5334.36 5630.9 4554.68 4512.07 4368.28 4692.32 5984.8 4945.0 5236.24 3127.83 4585.04 4212.15 5678.58 5260.52 3185.09 6570.35 5114.23 4242.63 3269.54 7407.91 5064.23 6015.22 4454.74 5512.44 2904.46 6449.06 5120.92 4337.32 4685.4 6240.42 5146.0 5721.14 4288.45 4577.73 4987.28 6206.98 4918.64 4815.47 4759.99 2646.13 4368.12 4365.58 5214.4 4636.53 3629.49 5766.05 5117.64 4019.34 3835.81 3916.42 4869.48 3623.19 4906.11 4564.1 4745.16 4697.91 5825.55 5509.51 4848.14 4316.5 3199.4 5254.24 4914.03 3597.43 5086.29 5144.56 4158.91 5311.55 5139.18 3360.86 3034.16 5049.99 4201.03 5545.21 4333.87 3667.93 5638.7 5813.79 4644.88 5293.13 7350.26 3768.46 5167.53 5003.3 6245.52 5800.81 3954.77 3784.94 6016.87 3125.13 4506.66 5515.73 5209.55 4174.44 4564.41 6331.74 5951.86 4252.18 4833.67 4659.88 5325.91 3791.41 4213.05 5853.12 5157.38 4224.3 6203.03 4700.07 5235.87 5043.14 5273.37 6089.45 4732.37 4985.3 5072.5 4966.07 5748.9 5713.36 5553.94 5494.28 4704.92 3663.0 6304.49 4954.81 5755.15 5134.72 4835.97 6419.64 5287.25 5464.83 3622.8 2781.96 4431.23 5414.58 5577.41 5917.34 5740.98 4346.07 3999.5 4012.92 5759.79 4177.47 4598.54 4218.16 5218.42 2918.64 4933.49 6139.64 4140.92 3990.94 4756.8 4896.43 5477.8 5463.06 4639.8 3986.41 4241.68 6102.49 3469.18 2945.34 5495.0 3372.95 4489.29 4301.93 5846.95 6061.85 5268.15 5819.0 4924.07 3200.6 4629.02 5914.5 6006.16 3565.32 4608.62 5407.96 4071.75 4626.72 6562.03 4410.82 6443.99 3889.98 5193.58 5399.43 5695.44 3422.21 5429.3 5510.96 6653.07 5532.72 4584.81 3220.8 5071.98 5719.79 4371.08 5148.1 7261.51 4968.14 5949.73 4312.48 5527.13 4278.57 5551.43 5081.08 6318.25 6864.06 5001.87 4493.79 5684.05 4279.44 4899.19 5058.34 4028.22 3918.94 5575.11 5487.63 3852.82 4507.36 7145.73 4168.52 5403.97 6793.1 5106.46 4068.31 5166.05 5077.29 7035.54 4850.5 5426.4 5763.05 5129.68 5357.39 5076.84 5247.01 4208.37 4841.7 5702.4 5069.9 952.938 5473.89 4678.7 3673.6 5810.17 3306.84 5265.21 4657.24 4749.18 4400.14 5866.42 3669.32 4762.1 3742.31 3987.69 4546.96 4316.0 5424.55 4287.25 4392.75 4921.1 5695.79 3814.16 4191.01 4420.6 4475.38 4589.06 4770.51 4920.88 4184.47 6511.37 5890.25 4216.44 6710.14 5034.05 4426.02 4816.51 5345.73 4770.63 3810.68 4841.23 4357.11 2804.54 5005.6 4176.32 5486.89 4462.35 6069.78 5532.75 6949.65 4975.85 4095.83 5695.25 5676.61 5716.42 5701.63 4620.95 6347.72 3460.93 4488.39 5124.86 4927.73 4602.57 7168.2 3763.85 3419.07 5710.33 5344.44 6432.8 5131.77 3186.07 5549.71 4369.86 4967.51 5173.82 7212.97 5490.64 5034.34 3769.2 4507.46 5036.14 3468.45 5603.68 4944.51 4526.34 5610.95 5042.75 5179.17 5579.39 5270.51 4979.52 5490.75 5224.64 5214.63 3495.68 5783.94 6370.33 4202.77 5836.14 6008.81 4932.56 5192.49 3487.31 6643.4 4674.9 5461.72 6599.28 6224.85 4556.19 5368.66 4795.08 6562.92 5501.73 3671.06 4697.24 3612.44 4983.43 5117.52 5233.76 5866.91 4683.28 6405.69 2820.07 5679.74 4851.18 4825.73 4165.36 5288.33 6296.54 5797.21 5685.74 6740.35 6028.63 3450.07 4550.92 6215.87 5191.26 6060.06 5544.27 3484.81 5308.33 6502.99 4666.12 4271.07 6219.34 6023.07 5674.63 5340.05 6506.63 4140.04 5995.4 5322.11 5700.79 5735.08 7133.44 4726.2 4750.81 4711.15 3825.48 4474.39 4658.59 5188.22 6478.35 4196.62 2809.19 5453.77 4916.7 5589.53 7208.19 4549.51 5196.08 3587.93 4517.29 6257.79 4495.75 5323.95 6171.01 4468.26 5796.26 4603.04 4870.94 5368.93 5293.37 5271.88 6121.56 4571.74 4096.86 4796.12 3622.48 5001.51 5385.86 5115.42 4082.4 5482.76 3745.02 3720.7 4887.73 4211.36 5698.53 5378.24 3604.31 3856.73 4450.49 5817.74 5887.71 5635.32 4316.45 4827.61 5409.08 5481.64 4598.92 5241.22 6647.08 6263.3 3422.29 4501.05 4407.79 4537.03 6548.29 3990.96 5352.24 4326.06 7362.42 5793.12 5473.05 5469.17 4373.2 5537.34 5884.99 5726.42 7025.09 4433.12 3392.26 2549.95 4361.24 5138.93 6406.8 7086.69 5648.78 6875.73 5226.42 6081.3 5615.35 3967.76 6311.89 6734.39 4217.36 6549.8 4150.76 5005.72 5368.52 4871.77 5155.28 5811.26 5062.77 6019.35 5205.38 4884.93 6075.99 5262.79 5927.2 4494.15 5146.1 5035.71 4419.79 6485.77 5407.69 5960.5 3869.39 5393.43 6896.55 4685.65 4638.09 5377.01 4441.91 5330.26 6470.23 5939.22 4215.05 4668.8 3495.3 4271.93 5125.17 4697.49 4859.01 5524.45 5600.21 3953.26 5467.51 4625.53 5459.92 4096.47 5114.67 5353.66 4104.04 5030.33 5593.79 5025.42 5234.2 4965.24 6379.38 5327.05 5438.55 4849.5 5353.23 6229.83 4523.81 5578.18 5106.33 5198.94 5933.54 5559.79 2980.31 5879.24 3148.79 5740.78 6824.53 5997.91 4742.82 6791.86 4209.0 4930.72 5728.58 6424.77 6297.99 5918.95 4538.89 6556.86 5661.6 6099.28 5285.75 5385.03 4169.15 5673.75 5360.67 4778.37 5968.54 5592.54 3247.97 5124.34 4114.2 4904.37 4358.81 4651.64 5034.46 5757.29 5016.46 5061.75 3769.24 6022.78 4087.32 6647.85 2569.12 4161.32 5161.74 7336.37 5099.9 6945.69 5118.86 4183.4 6170.9 4733.79 5833.78 4436.48 5758.98 5288.64 6213.24 5942.45 5987.88 3579.59 4228.53 6123.46 6142.88 4461.14 5111.26 5388.73 4574.54 4949.55 4600.71 4764.83 3957.38 5507.38 6889.5 4710.88 5300.17 4117.9 5152.78 4057.4 5534.23 4753.76 6025.77 4781.9 6815.96 5339.6 5828.25 4725.11 3626.86 5418.12 6371.96 4604.1 5322.07 5076.11 5990.75 5770.07 5101.6 4282.11 6589.13 2347.41 5602.62 4542.16 3543.37 2030.03 5628.97 2638.82 5527.27 5104.39 5847.91 4612.13 5846.6 4109.44 4903.84 4290.49 4434.65 5977.66 5209.5 5065.74 5791.25 4873.23 4028.35 5464.05 5453.2 6348.93 5136.51 4332.64 5232.16 4422.23 4820.68 3989.26 6031.22 3618.64 5485.84 4335.79 5453.69 5432.04 5689.56 3702.45 3921.27 5265.63 3242.31 4898.29 4431.06 5372.25 5730.2 3234.26 4830.13 3494.16 5134.17 5370.9 4074.16 4529.77 4904.35 6172.27 5390.33 5078.73 5278.54 5729.0 5729.92 5275.57 4179.87 6224.13 4761.84 5370.1 3661.67 5129.4 5517.65 5114.51 4009.68 3303.49 4622.73 5585.25 5256.75 6351.89 5932.28 2960.5 4975.32 5560.23 4298.7 3902.48 4304.64 6030.39 4905.53 4823.06 3799.01 7392.65 5254.49 3757.23 6828.8 6883.86 6161.94 4065.28 5057.59 5939.29 5418.98 5285.6 5615.06 5575.11 1969.87 3132.34 5203.54 4841.28 4047.95 6142.94 5001.69 4416.87 6581.56 4052.43 3980.46 4896.67 3934.11 5158.44 4466.22 3886.56 4496.51 6153.71 5917.08 5483.37 5092.93 5934.05 4714.66 2803.01 6771.18 4984.17 4656.01 5327.39 5781.62 4037.86 4138.59 5714.51 4938.33 4484.78 4621.33 5157.73 4541.22 4934.66 3539.68 4946.08 4984.01 6217.33 4557.1 6688.53 5927.1 6175.27 5876.51 6731.89 5410.6 4733.41 5264.83 3901.53 5431.14 6815.51 5313.86 4457.05 5189.91 5777.26 5703.84 4171.02 3530.82 5028.06 5797.32 4002.99 4886.99 5159.67 3161.1 5764.52 5684.88 6523.78 4645.86 5620.88 4941.52 5900.0 4325.13 4262.74 6241.77 3783.79 4248.14 5317.19 5279.19 4016.6 5192.92 5821.49 4786.66 7050.08 5891.25 5580.44 5998.13 5095.52 4746.15 3720.38 4655.37 5023.61 4731.37 4672.86 6530.78 3043.77 5783.38 4139.39 5237.55 3909.94 6264.03 5088.64 6589.8 3729.16 5319.1 3783.36 4181.93 3038.91 3922.28 6570.43 3445.92 3350.99 3820.19 4979.5 4745.37 4586.82 6026.04 6200.05 4052.49 5859.17 5490.54 5061.74 4034.41 5326.03 6189.67 5717.45 4948.96 5117.83 5256.82 4013.86 4061.87 5383.9 5165.31 3798.09 4288.5 5715.51 4511.05 3456.3 6561.94 5259.21 4256.08 5881.93 4399.52 4444.0 4554.24 6182.19 5910.66 7415.84 4981.81 5141.03 4970.55 8123.59 5765.14 4767.54 2927.84 5121.08 4696.03 6177.68 4605.39 4698.7 6270.59 6045.26 6500.45 4907.55 4103.76 4286.61 2932.52 4603.66 4969.68 4757.87 6636.43 5971.95 6298.8 3689.24 5178.07 5151.19 6509.54 6119.0 7012.36 5128.59 4293.3 5587.3 3572.73 4864.38 3770.22 4390.64 5150.84 4608.01 4045.67 5087.97 6005.95 4308.49 4930.17 4581.1 4745.44 4085.96 5762.82 7360.12 6223.98 5462.6 5617.29 3035.06 4262.19 4597.88 6275.25 6892.33 4758.84 4452.36 4505.3 3976.0 4068.41 4832.21 6463.71 5059.37 5394.79 5645.54 4526.87 4151.74 3562.8 5192.82 6920.92 4174.22 3573.84 4067.89 6294.09 4571.57 5131.07 5236.69 4121.07 5524.28 3133.28 5731.43 6353.81 4150.44 3518.14 5522.34 5771.98 4420.35 5899.78 5772.57 4813.81 5268.27 5244.95 4645.93 5448.64 4585.37 5901.8 6417.61 3721.69 3830.7 5783.69 6074.39 5317.83 6738.9 4460.89 5992.06 4157.1 8052.53 3939.96 4867.12 6044.01 4637.3 1458.87 5734.07 4840.44 3997.68 6033.28 4819.83 4801.16 5071.38 5616.66 5688.77 5368.28 5466.13 6229.64 2848.44 4220.43 6263.87 5743.8 4094.63 5084.76 6605.11 3557.46 6834.92 6379.33 5652.73 3979.46 5402.45 6321.97 6412.84 2589.19 6079.55 3792.06 5485.61 4993.49 5310.33 6583.37 3688.83 3402.44 4848.98 4491.96 5184.98 4467.51 5339.82 4519.03 5460.57 5110.27 5703.34 4612.68 6668.98 6649.52 4232.33 4939.56 4747.68 5770.92 3093.38 4878.93 4845.91 2002.78 5631.32 6322.0 5793.14 4491.26 4511.34 4609.65 5704.61 5009.21 4742.35 4574.03 4379.91 5290.37 5264.08 4227.66 4691.01 4594.89 3677.85 5245.95 5821.42 4515.02 3463.53 6126.03 6044.69 2970.24 4197.87 5105.54 6032.45 3414.67 5444.36 5044.68 2649.69 6908.32 3467.11 5000.74 4817.75 6153.26 5637.53 3882.37 4634.25 4095.4 5188.57 6351.48 5395.12 5357.33 6210.0 5350.9 3483.61 4262.52 7430.48 5545.68 6080.69 4970.12 4967.93 6369.66 6520.19 5973.57 6241.48 5125.45 5957.82 6286.27 4188.16 6327.54 5507.07 4802.36 2943.17 5327.71 4880.78 5257.38 5075.23 4975.56 7282.36 6666.34 3826.01 4645.91 5581.01 4125.75 5130.57 5749.53 5090.48 5034.02 3985.93 5582.28 5945.25 6071.59 3856.4 4696.06 4937.36 4137.16 5308.4 6581.13 4569.32 5537.61 6084.88 4397.06 4199.44 4053.12 4479.5 6261.67 3435.13 5065.78 4431.46 4521.42 3207.84 3977.98 6043.34 4128.93 4959.72 4712.17 4723.71 3808.04 4461.67 6126.5 4034.88 6007.1 6345.2 5488.96 5128.03 5410.73 3720.92 5087.3 4942.63 6139.74 5850.38 7066.26 4730.97 3057.3 6150.31 5214.71 4677.84 4811.11 3920.44 4924.52 5379.52 4866.8 5658.05 6593.1 5462.1 4000.51 4066.36 6033.93 5011.37 2827.92 4026.03 5092.44 4441.44 4232.44 5336.61 3312.3 5563.09 4848.15 4439.09 3282.57 4798.13 5523.81 4718.61 6697.45 3873.79 5717.67 5515.59 5252.37 5432.4 4499.54 5037.58 6457.89 5640.67 6572.17 3751.73 5555.89 4766.47 4871.1 5678.08 5922.62 4414.09 5191.29 3784.68 3717.22 6649.21 4654.92 5286.55 4322.56 5522.18 5509.09 5625.02 3873.72 5212.05 4829.77 6474.5 3928.99 4444.92 6959.88 5971.9 3746.62 5247.73 4876.37 4769.62 5260.13 4649.5 5181.31 5985.75 5475.83 6189.29 5984.55 5672.46 5803.3 3228.27 4721.98 5252.82 3543.98 4142.1 5056.26 5878.55 4014.44 6604.72 6002.77 3794.47 4610.55 4967.02 4614.49 5400.69 4462.5 5573.31 5004.68 4023.88 5348.11 4405.61 5428.24 3511.5 5108.84 4520.14 5067.92 5357.14 3188.21 5919.27 4793.06 6637.38 4975.57 6188.33 6916.18 5873.62 4996.91 3868.69 5447.74 4450.51 6033.72 3768.62 3851.47 5314.67 4966.74 5563.47 5651.46 3162.27 5516.37 6520.96 5432.2 4612.4 4746.19 6381.58 5212.2 5648.59 4630.5 6296.36 4432.32 4451.76 3224.81 3775.38 4046.22 4104.97 4844.2 4575.72 5114.61 6118.13 3374.62 4420.3 4926.62 3917.09 6009.93 5872.45 3482.73 5270.1 5130.56 4947.64 6305.9 3470.69 4542.62 4859.95 4132.08 5223.1 4850.49 4592.49 3625.98 4981.55 5479.86 4702.32 4763.04 5944.52 4413.56 5050.2 4532.67 2513.38 5316.05 4908.32 3995.08 5019.84 4810.74 3900.93 5784.38 4149.17 4329.8 5728.27 3074.49 5202.33 3956.24 7558.99 3393.59 5043.14 5333.04 5445.91 4521.99 4812.59 6842.54 7115.67 5675.45 3361.11 6038.56 2807.46 5599.16 4179.8 3488.34 5658.35 4487.51 4582.12 4295.25 7394.47 4729.45 4850.95 5374.09 6271.22 3421.81 5378.75 3920.64 6111.23 6186.24 5786.06 5822.7 4137.41 3780.07 5466.49 4038.17 5007.41 3692.99 4907.48 6213.74 4959.94 2329.93 1635.31 6938.87 5639.4 5412.07 6185.73 4083.24 4806.99 3771.91 5217.62 3839.0 6178.19 4616.81 5715.25 4362.94 4611.21 4469.82 5108.42 6545.78 3354.94 4404.87 5237.27 5767.65 7885.41 4750.76 5782.25 5497.27 4081.77 4948.21 4987.01 2181.29 4202.12 6332.64 2694.25 6492.44 4083.1 4613.32 5145.39 3996.93 6351.95 4957.99 5195.09 4063.26 5345.05 4997.89 7679.2 5093.28 6131.52 4311.92 6009.88 4699.77 5093.41 5144.23 6188.62 3621.63 6153.07 4414.06 5801.89 5908.57 7296.47 5742.39 4821.41 4924.53 5616.11 4499.52 3874.12 4028.13 4457.73 6476.35 6260.58 3053.19 4067.24 6571.26 5580.95 3549.92 6598.99 4032.06 5246.81 5089.1 5888.95 5394.78 3463.34 5122.38 2853.68 5262.85 4998.37 5329.84 6559.82 3879.83 6565.95 4577.98 5886.81 5043.34 4246.24 6805.02 5354.48 4900.26 6261.13 4167.55 4720.34 5244.47 4731.16 5510.89 4495.33 4159.89 5282.67 5178.55 5146.69 6203.24 6818.23 4369.87 5652.19 5806.74 5512.57 6578.62 4813.55 5856.43 3465.03 5349.85 5799.86 5172.1 6052.22 5376.41 4870.14 2932.2 5105.72 4082.01 5003.49 3964.03 4907.03 4216.33 5832.72 5617.91 4444.95 4721.2 4706.31 6265.48 4735.99 4203.68 4739.56 4701.03 3818.37 3352.46 6225.05 5434.04 5200.1 3997.52 4881.51 2626.41 4909.74 6729.99 5310.33 6664.54 6842.35 5161.73 5464.34 5259.48 4777.96 4803.4 6833.5 6608.94 2613.78 4780.16 5738.37 3834.01 4813.24 4433.23 5759.19 3113.64 4490.2 4304.75 5480.86 6139.9 4720.22 4313.38 5827.3 5250.56 3633.58 2468.16 6294.14 4339.97 5203.75 5169.09 4691.15 2459.88 4210.24 5470.67 5901.71 5225.11 5342.9 5252.22 5733.12 4962.35 6436.29 5402.81 4600.81 4919.13 5640.63 4124.33 5168.97 5783.88 5002.38 6705.93 4865.11 5449.09 5502.14 6470.87 4465.56 4131.08 5747.9 3864.19 4287.93 5315.71 6158.93 5081.65 4488.41 4823.14 6679.12 4621.32 3878.8 4698.94 6284.12 3948.21 4796.04 5669.15 5229.56 6011.4 4672.34 3330.85 5056.32 5533.52 5410.33 5003.63 4695.7 4747.24 4944.08 4380.86 5576.16 5269.39 4305.35 5210.22 2451.27 3903.9 4929.35 5606.22 5161.02 3943.77 3124.49 6081.35 5003.81 6262.18 5566.5 5663.36 4276.59 5579.04 5125.53 5994.21 4444.54 5779.9 5403.81 6964.78 5299.03 5036.84 4565.36 3922.98 5813.68 4025.08 4008.67 5254.93 3618.53 4770.21 3846.55 3796.73 5417.07 3082.16 5656.84 6789.66 4739.41 5312.2 5847.27 4706.59 5734.84 3982.31 4950.07 4582.24 2832.83 4084.87 6036.99 3010.1 3825.98 4589.22 5087.03 4667.84 3906.41 5584.64 4123.08 4512.6 4260.38 4636.45 4932.27 5638.51 6793.49 3563.33 6060.19 5536.0 6786.37 4333.23 4328.76 5561.63 5940.5 4358.06 5093.51 5647.93 4280.92 6201.49 5154.74 4605.61 6898.8 5386.95 6540.57 5332.11 4893.72 6004.72 5373.78 4072.4 5438.5 5345.65 5863.36 5699.4 5237.76 4994.98 4286.84 6423.96 5296.05 6058.13 5263.86 6988.4 6635.51 4060.17 6051.35 5302.53 4909.13 4287.61 5648.02 3308.75 4604.34 4439.17 5677.42 2701.42 5442.79 5051.39 6673.92 5242.38 4884.94 5459.52 4609.98 4738.72 4752.31 5240.97 5569.85 5405.6 3929.35 4884.93 4759.38 5082.25 4374.05 4287.15 5282.51 5504.65 5732.11 5040.9 5596.68 8013.28 5159.9 5283.65 4644.68 2892.36 5981.54 5911.29 5416.41 4694.27 6760.64 2515.5 5177.88 5551.79 6981.47 3916.15 4474.96 4758.76 4790.63 5259.29 3584.05 4916.75 4818.53 5097.85 6189.04 6224.64 4221.03 3799.55 5082.66 4550.77 4337.93 3550.88 4345.51 4048.73 6223.33 5145.13 3860.8 3747.96 5611.29 4521.88 6568.45 5004.22 4601.54 7263.57 4696.92 5705.96 6437.99 5739.69 6632.04 7360.62 4977.64 4985.45 4983.56 5699.51 4489.18 2489.44 4883.13 4632.75 4836.76 4752.94 5551.09 3950.53 4501.1 5894.69 4987.01 4713.56 6094.34 6779.82 5543.67 3999.81 4867.13 6377.45 4863.27 4502.12 3255.93 6853.07 5151.68 4633.59 5733.59 5362.15 4455.61 6874.6 5106.9 5306.31 5523.96 4223.53 4733.37 6960.97 4535.94 3037.72 4523.9 5126.08 5604.0 5669.41 3760.4 4951.02 3919.47 4602.7 3783.35 4868.66 4037.16 4004.39 6395.63 4987.48 5943.61 4248.58 5479.17 4542.25 5020.37 4414.23 5233.88 4849.21 4785.55 3793.83 5245.4 6189.81 5367.05 4449.73 5647.11 4088.72 3945.62 3743.85 6236.46 5342.17 6379.3 5015.67 3795.63 5189.4 4576.71 6538.04 4894.15 6157.59 5201.3 5848.41 4090.28 4246.83 5438.6 7370.52 4726.5 5467.05 3724.23 5103.3 4963.88 5888.94 3832.09 4727.98 4122.2 5175.88 5267.65 4516.26 4790.16 3509.34 5360.88 3731.58 3166.37 5369.42 5207.08 5205.53 4714.52 5499.37 5543.05 6028.89 5333.16 4888.17 5755.98 5392.85 5581.47 4384.91 4274.05 6550.61 4277.54 5529.09 4531.46 5925.82 5448.68 4739.5 6210.48 4491.62 4182.05 3865.5 6327.61 5575.8 5268.93 3695.72 3647.26 4587.19 5077.2 5275.27 4072.95 
SCALARS Velocity float 1
LOOKUP_TABLE default
1.53022 1.52426 1.36961 1.58399 1.53244 1.53388 1.52671 1.52446 1.53132 1.56915 1.59249 1.58409 1.58383 1.57352 1.52069 1.56281 1.51075 1.54012 1.57994 1.53283 1.53749 1.53009 1.56045 1.59349 1.59688 1.59533 1.57126 1.51757 1.5266 1.5784 1.65382 1.52202 1.52904 1.51924 1.57093 1.52123 1.5224 1.52273 1.5148 1.60695 1.59688 1.57767 1.53217 1.53239 1.54592 1.5513 1.55691 1.55527 1.61388 1.5945 1.54674 1.51324 1.60246 1.55511 1.61093 1.6571 1.61792 1.52583 1.53297 1.5254 1.51525 1.51612 1.51519 1.52638 1.52845 1.50462 1.63212 1.64004 1.5508 1.57651 1.55571 1.55482 1.57901 1.53604 1.65035 1.58579 1.59822 1.54826 1.52961 1.57813 1.57071 1.59757 1.58873 1.57055 1.51209 1.51273 1.49701 1.51019 1.51768 1.50425 1.51763 1.53059 1.65639 1.68654 1.57091 1.55827 1.55556 1.53906 1.59274 1.65948 1.4985 1.60265 1.65208 1.63897 1.55356 1.54588 1.55807 1.56418 1.49869 1.4788 1.53054 1.52823 1.56883 1.61673 1.66366 1.68902 1.66555 1.66803 1.57675 1.56237 1.54386 1.60058 1.63107 1.62755 1.61788 1.5453 1.73352 1.60811 1.72927 1.53017 1.50434 1.49272 1.52921 1.55873 1.49375 1.47867 1.48143 1.55142 1.54224 1.55139 1.55412 1.56462 1.57317 1.64959 1.6588 1.6575 1.57579 1.57486 1.56099 1.56861 1.56201 1.60457 1.60337 1.61319 1.61156 1.62495 1.48214 1.38385 1.55821 1.4931 1.51017 1.46234 1.53474 1.49482 1.50576 1.55452 1.55575 1.55462 1.55347 1.61638 1.61302 1.64909 1.62687 1.63702 1.63304 1.64559 1.56894 1.55813 1.56816 1.5751 1.57612 1.58425 1.58334 1.62243 1.63728 1.42831 1.45625 1.49005 1.46751 1.46988 1.50296 1.52672 1.53652 1.49369 1.58507 1.58048 1.54268 1.58193 1.62289 1.62513 1.61768 1.58028 1.59012 1.58035 1.5931 1.59601 1.58437 1.5512 1.56829 1.62825 1.41654 1.45348 1.45345 1.41501 1.45528 1.54 1.51758 1.47124 1.53284 1.57469 1.65437 1.70578 1.59945 1.59614 1.57651 1.60653 1.59153 1.58634 1.52809 1.66096 1.74764 1.65024 1.62289 1.48089 1.58156 1.68429 1.64671 1.55873 1.4119 1.50805 1.5577 1.60102 1.60001 1.44275 1.43854 1.42202 1.40183 1.47137 1.63531 1.50295 1.44252 1.50984 1.60329 1.65319 1.5503 1.50249 1.55031 1.39899 2.41901 1.8294 1.30032 2.24019 1.85052 1.4791 2.076 1.78767 1.65854 1.73289 1.69654 1.71203 1.40521 1.61887 1.55599 1.56035 1.46598 1.4203 1.42853 1.43679 1.37987 1.35646 1.42318 1.57776 1.46802 1.08961 1.55873 1.5382 1.48253 1.5525 1.70083 1.67803 1.57792 1.63201 1.57015 1.39188 1.32687 1.12234 1.15256 1.53147 1.25613 1.82085 1.19109 1.24704 1.41241 1.4791 1.10373 1.73056 1.39131 1.57409 1.47138 1.46778 1.47635 1.47476 1.555 1.44885 1.39214 1.44977 1.41279 1.44355 1.44193 1.36101 1.52338 0.96238 1.72567 1.41645 1.41507 1.39895 1.48792 1.51595 1.47141 1.65243 1.4953 1.4667 1.62805 1.72331 1.77718 1.73009 1.3449 1.35399 1.37588 1.43238 1.11563 1.24896 1.22412 1.1956 1.28261 1.21962 1.14562 1.11498 1.21878 1.45855 1.45084 1.53101 1.75728 1.50104 1.28798 1.38992 1.45171 1.44546 1.4194 1.49683 1.34616 1.38258 1.34617 1.37806 1.461 1.39646 1.49987 0.968984 1.41779 0.771105 1.8112 1.56942 1.36434 1.39159 1.4116 1.37124 1.41652 1.41721 1.57832 1.44581 1.51504 1.45518 1.54546 1.51953 1.30869 1.40352 1.04237 1.31112 1.30458 1.30731 1.20628 1.40142 1.77262 0.532013 0.825881 1.03206 0.959855 1.05147 1.10144 1.05549 1.04366 0.938415 0.964748 1.05892 1.09428 1.18665 1.27419 1.36994 1.5299 1.42016 1.26433 1.23403 1.31838 1.20438 1.42814 1.31301 1.38261 1.3085 1.25944 1.2545 1.28242 1.36331 1.28525 1.26903 1.31592 1.22052 1.48468 1.29931 1.16031 1.10471 1.17179 1.23959 1.01139 1.07564 1.23908 1.38014 1.42087 1.34462 1.33137 1.38654 1.37571 1.27562 1.41679 1.40425 1.21918 0.992739 1.05381 1.45973 0.905868 1.09659 0.956313 1.17662 1.43885 1.15638 1.04749 1.25659 0.966808 0.905273 0.985533 0.978331 0.955534 0.929585 0.946988 0.942902 0.934123 0.948087 1.07426 0.999995 1.01844 0.966697 0.914826 0.974028 1.12716 1.00414 1.32286 1.52574 1.36305 1.1653 1.20178 1.10918 1.21747 1.2684 1.22663 1.18897 1.1817 1.2123 1.19167 1.19495 1.19987 1.15183 1.18058 1.24428 1.2151 1.33274 1.3275 1.30943 1.4528 1.33567 1.12311 1.20416 1.23622 1.15905 1.21496 1.30209 1.30965 1.21789 1.28451 1.23508 1.34194 0.944487 1.41128 1.13617 1.24208 1.06319 1.01784 1.07966 1.08701 1.12981 1.09426 1.05415 1.20459 1.01093 1.06165 0.981487 0.954834 0.942542 0.95116 0.936798 0.90606 0.956864 0.960947 0.945215 0.961082 0.95785 0.966793 0.949423 0.94383 0.915896 0.971118 0.909118 1.0192 0.95862 0.853728 1.23776 1.00766 1.07273 1.1026 0.933819 1.16072 1.08787 1.17825 1.25231 1.24803 1.03842 1.00031 1.12142 1.06481 1.18135 1.14848 1.16954 1.16848 1.15626 1.16652 1.2463 1.16975 1.36999 1.21962 0.780765 1.31609 1.19378 1.18384 1.09606 1.16659 1.22156 1.23096 1.21378 1.24816 1.21701 1.11471 1.18797 1.39734 1.19072 0.96777 1.06261 1.05257 1.14692 1.09833 1.14448 1.07918 1.03285 0.974324 0.943068 0.941981 0.961628 0.925777 0.915371 0.880822 0.903706 0.918515 0.850008 0.887482 0.836311 0.887866 0.901659 0.935803 0.892694 0.911782 0.894717 0.929735 0.911747 0.912387 0.888492 0.932103 0.911592 0.916302 0.91637 1.01049 0.854372 1.20782 1.06766 1.13764 1.13886 1.19017 1.33077 0.960718 1.04714 1.07526 1.01936 1.09654 1.09787 1.00598 1.00437 0.931858 1.08721 1.12616 1.12708 1.13787 1.13334 1.17248 1.16556 1.16471 1.17357 1.26773 1.15981 1.54846 1.51981 0.941594 0.79459 1.4862 0.937755 1.30549 1.00193 1.11261 1.10991 1.17946 1.20057 1.17211 1.17615 1.28647 1.00133 1.00024 0.977565 1.04951 1.08555 1.10319 1.05194 1.06866 0.983071 0.964021 0.953237 0.923351 0.966012 0.952943 0.844106 0.916055 0.936437 0.842409 0.81856 0.826898 0.826275 0.797314 0.724635 0.743607 0.851528 0.772068 0.838379 0.890584 0.84794 0.868825 0.885749 0.910729 0.896346 0.895092 0.886472 0.909713 0.906552 0.875276 1.12511 0.936376 0.964838 0.932307 0.946893 0.930046 0.953458 0.981586 1.04142 1.11946 1.08428 0.971702 0.958244 0.97246 0.971505 0.959878 1.09414 1.109 1.08178 1.10783 1.12474 1.14737 1.09424 1.12165 1.19818 1.2497 1.30144 0.408146 1.19227 1.2284 1.32051 1.02063 1.05384 1.13557 1.13498 1.05622 1.07293 1.11321 1.11013 1.0721 1.1648 1.10719 1.18538 1.04841 0.865085 0.571977 0.810648 0.93238 0.948852 1.08037 1.00648 1.06481 1.06023 1.04804 1.02508 0.970664 1.01304 0.96531 0.96523 0.946066 0.943227 0.952112 0.941355 0.932506 0.934209 0.971029 0.920342 0.841475 0.781431 0.857662 0.787109 0.795073 0.776807 0.86642 0.739716 0.764381 0.859235 0.968851 0.757223 0.928938 1.07111 0.934938 0.865209 0.917735 0.934423 0.903211 0.89727 0.895559 0.936546 0.907418 0.934304 0.92705 0.905972 1.04235 0.995469 0.996146 0.996901 1.01662 0.972969 0.90728 0.812926 0.986752 0.8782 0.949636 0.994957 0.965225 0.982036 1.08125 1.08908 1.05905 1.04143 1.07195 1.02475 1.07736 1.1357 1.11869 1.19058 0.616504 0.972055 0.813531 0.802284 0.870128 1.0718 1.02152 1.02437 1.05079 1.0683 1.07557 1.04802 1.07377 1.04327 1.00333 1.19299 1.0801 1.16318 0.926417 0.936668 0.90801 0.925505 0.936346 0.942951 0.948047 1.01013 0.967507 0.995264 1.00881 0.991881 0.993941 0.938285 0.988001 0.946014 0.948799 0.934609 0.94978 0.946275 0.943306 0.950364 0.832551 0.958966 0.997313 0.840057 0.841903 0.947337 0.91626 0.991773 0.998699 0.835575 0.78045 0.758823 0.788018 0.781157 0.810379 0.879956 0.951172 0.825809 0.816823 0.910512 0.880449 0.857009 0.855214 0.923664 0.992958 0.940297 0.954894 1.00601 0.852352 0.836301 0.922668 0.886335 0.937495 0.952107 0.884246 0.934622 0.95603 0.923866 0.860765 0.875253 0.862226 0.849072 0.954523 1.03137 0.934397 1.00008 1.03204 1.04087 1.0114 1.01315 1.02958 1.01433 1.05459 1.05297 1.12988 1.20329 0.93703 0.907244 1.00642 1.01856 1.02351 0.99686 1.01784 1.01082 1.02715 1.09743 1.00477 1.03418 0.987747 0.964343 0.994952 0.85269 0.934468 0.989101 0.956363 1.04033 1.06413 0.933941 0.963279 0.983619 0.977879 0.966207 0.95308 0.959555 0.993502 0.964275 0.996859 1.01153 0.8713 0.916443 0.846053 0.930024 0.911523 0.937587 0.911594 0.9264 0.962864 0.921179 0.923884 0.958464 0.955001 1.04927 1.0033 0.734055 0.59858 0.833996 0.710126 0.816657 0.863438 0.839539 0.842864 0.829645 0.84651 0.828737 0.825146 0.820205 0.885258 0.889041 0.867185 0.878344 0.826948 0.806237 1.04557 0.808266 0.846971 0.839206 0.8336 0.797387 0.772702 0.931044 0.894969 0.918887 0.916238 0.956037 0.854713 0.868087 0.968566 0.912486 0.901302 0.960752 0.945159 0.960197 0.94357 0.952868 0.988731 1.00449 0.981863 0.98829 0.995094 1.01878 0.996328 1.03228 1.04597 1.09268 1.08784 1.01508 1.02526 0.977501 1.03654 1.03067 1.0145 1.00857 0.936382 1.15429 1.00367 0.991839 0.994028 0.910056 0.935216 1.03892 0.812926 0.906191 0.945543 0.917382 0.939789 0.96951 0.935725 0.899114 0.853377 0.902575 0.628603 0.82541 0.85252 0.908034 0.902195 0.843557 0.931242 0.909634 0.750927 0.799478 0.916089 0.808295 0.78911 0.81993 0.920601 0.821627 0.812715 0.831531 0.827025 0.826415 0.871262 0.85145 0.832532 0.563023 0.530874 0.830855 0.825506 0.832512 0.844722 0.857708 0.839192 0.796121 0.832863 0.774947 0.881331 0.943551 0.899608 0.825397 0.851959 0.876524 0.855797 0.799376 0.768685 0.631504 0.763251 0.85301 1.01879 0.76635 0.834057 0.828815 0.839524 0.907119 0.845745 0.883516 0.929956 0.885989 0.822447 0.891003 0.904473 0.929165 0.932953 0.927702 0.951056 0.972039 0.982085 0.981994 1.00549 1.01761 1.04468 1.058 0.802186 1.04262 0.924791 1.05299 1.05849 1.0534 1.05457 1.01426 0.990173 1.01713 0.988112 0.909937 0.843404 0.856914 0.924974 0.969127 0.989542 0.966822 0.851128 0.988954 0.887932 0.995099 0.905625 0.914353 0.904601 0.89474 0.942317 0.920398 0.938333 0.994661 0.829278 0.924315 0.775321 0.94845 0.839235 0.895231 0.874059 0.932288 0.973537 0.823307 0.85039 0.936906 0.936264 0.932223 0.825594 0.794684 0.811339 0.759336 0.789003 0.89179 0.884025 0.728279 0.562727 0.5692 0.874292 0.861561 0.858079 0.826772 0.880039 0.85322 0.86718 0.863631 0.853405 0.853426 0.846593 0.86667 0.925037 0.840185 0.791095 0.775717 0.805063 0.806665 0.823874 0.812645 0.735299 0.988132 0.81298 0.848423 0.887142 0.873567 0.841296 0.902994 0.89275 0.892548 0.843388 0.878421 0.911697 0.907319 0.914399 0.927988 0.932101 0.929889 0.927434 0.931609 0.955437 0.994788 0.972862 0.945408 0.963672 0.95887 0.981983 1.00711 0.980435 0.987932 1.01643 1.03265 1.0273 0.956207 1.01644 1.01669 0.954159 1.08444 1.04528 1.06329 1.02683 1.02227 0.989147 0.989857 0.998285 0.897491 0.851989 0.902556 0.888854 0.954251 0.974954 0.987333 0.973679 0.889834 0.867967 0.835849 0.854423 0.876188 0.909297 0.908444 0.876413 1.02508 0.915594 1.03081 0.838927 0.811249 0.88146 0.87473 0.88897 0.832057 0.801439 0.946657 0.833995 0.907581 0.89703 0.927183 0.953994 0.994662 0.85731 0.84153 0.904021 0.873219 0.861033 0.770105 0.907591 0.875555 0.631825 0.765611 0.870463 0.666636 0.634343 0.833456 0.882782 0.906206 0.83986 0.958071 0.895953 0.924915 0.748918 0.843304 0.903167 0.558149 0.797634 0.822453 0.841815 0.837577 0.823297 0.765513 0.75309 0.750445 0.803292 0.816985 0.818146 0.804668 0.813211 0.802633 0.881033 0.861288 1.00336 1.05909 0.792602 0.835216 0.833571 0.870224 0.831036 0.916991 0.959057 0.910023 0.907821 0.869733 0.889804 0.892458 0.896612 0.906878 0.921541 0.923393 0.922861 0.928476 0.938769 0.94166 0.924444 0.889309 0.949203 0.94602 0.964891 0.985086 0.997383 1.00408 1.01881 1.01272 1.02122 0.960324 1.04325 1.00579 1.00024 0.992408 0.982122 1.05711 0.914982 0.880985 0.9216 0.93679 0.981369 1.00375 1.01431 0.929155 0.862608 0.843461 0.826139 0.836706 0.86712 0.899313 0.929428 0.918506 0.78988 0.945289 0.826114 0.806745 0.871438 0.863066 0.903059 0.792797 0.802697 0.808758 0.754689 0.800823 0.884475 0.829013 0.761861 0.821694 0.835024 0.762287 0.870927 0.822779 0.870886 0.832937 0.849138 0.866979 0.872382 0.859413 0.767756 0.660246 0.76635 0.633384 0.698554 0.663989 0.714382 0.79934 0.793127 0.790224 0.819755 0.791635 0.738097 0.779841 0.839309 0.494709 0.428765 0.786892 0.774572 0.759465 0.806488 0.775806 0.783139 0.794341 0.770826 0.833419 0.831456 0.822535 0.838822 0.81624 0.95127 0.925854 0.833745 0.831832 0.939055 0.912954 0.907182 0.905698 0.901243 0.909798 0.909933 0.915017 0.903378 0.912415 0.918723 0.914374 0.913892 0.913873 0.903885 0.929723 0.952789 0.95227 0.977644 0.993603 0.981817 1.00173 1.01739 1.03976 1.02984 1.03076 1.01773 0.979989 0.992939 1.00324 0.98343 1.07116 0.772653 0.916409 0.926229 0.938541 0.961616 1.02043 1.05078 0.91258 0.866669 0.840756 0.834336 0.852987 0.857636 0.879664 0.893086 0.887379 0.937195 0.853034 0.880594 0.820935 0.883128 0.816025 0.865831 0.815025 0.837156 0.869336 0.771042 0.811301 0.715638 0.790942 0.778756 0.858761 0.879246 0.769927 0.775787 0.801124 0.821783 0.838995 0.81186 0.808931 0.875298 0.876648 0.862453 0.864043 0.876033 0.853113 0.792745 0.742421 0.809674 0.729918 0.774119 0.773244 0.786667 0.810365 0.816794 0.813752 0.822568 0.8095 0.810867 0.877308 0.829999 0.849778 1.02532 0.796797 0.725153 0.740568 0.851502 0.756952 0.789031 0.793385 0.792355 0.863658 0.870157 0.878427 0.929567 1.07273 0.843024 0.869754 0.810363 0.946338 0.937856 1.0242 0.902002 0.868103 0.849279 0.849439 0.835389 0.856757 0.895613 0.906592 0.899173 0.885357 0.921388 0.92945 0.916241 0.920143 0.91292 0.914134 0.913565 0.907535 0.909292 0.898454 0.893706 0.909334 0.960992 0.95614 0.947997 0.975597 0.959419 0.964828 0.991568 0.990119 1.02151 1.04163 1.03323 1.02358 1.00492 0.974287 0.873374 0.906969 0.870688 0.911446 0.902907 0.923253 0.946551 0.949103 0.99108 0.967293 0.98567 0.806162 0.946217 0.830432 0.882948 0.880757 0.872282 0.869091 0.891602 0.835781 0.869541 0.859129 0.85833 0.838106 0.847207 0.810124 0.831893 0.837943 0.771804 0.818718 0.756602 0.806124 0.795325 0.781738 0.789582 0.797753 0.807122 0.78558 0.801528 0.818639 0.822448 0.81074 0.869323 0.822765 0.870178 0.775883 0.78651 0.715594 0.752687 0.727044 0.811113 0.729572 0.815721 0.78793 0.828152 0.833363 0.917894 0.866161 0.812865 0.80021 0.739436 0.811675 0.791608 0.809755 0.826086 0.8447 0.796854 0.763293 0.858507 0.894683 0.927031 0.933241 0.94383 0.489184 0.450013 0.663046 0.510502 0.63754 0.816784 0.7894 0.7783 0.812571 0.818691 0.789041 0.79319 0.764301 0.835575 0.677901 0.644891 1.06531 0.855539 0.839374 0.856322 0.854916 0.910548 0.896836 0.90367 0.917431 0.942127 0.947531 0.927559 0.922019 0.921054 0.912845 0.909366 0.907545 0.909503 0.911023 0.925998 0.913357 0.935607 1.12127 1.00628 0.847648 0.86113 0.814166 0.940936 0.926658 0.964603 1.01378 0.994732 1.03724 1.02622 1.04154 1.03023 1.02193 1.02005 1.00556 0.99261 0.97945 0.952119 0.948356 0.909291 0.903172 0.920899 0.934004 0.947178 0.954131 0.977568 0.928979 0.862488 0.87522 0.856959 0.869617 0.882197 0.885703 0.884632 0.884152 0.884354 0.868299 0.864879 0.865325 0.862417 0.867669 0.878254 0.8574 0.911401 0.902077 0.915634 0.868826 0.84331 0.892548 0.828759 0.813551 0.734703 0.855282 0.867858 0.756834 0.765106 0.762334 0.762525 0.783434 0.780113 0.80911 0.834923 0.797361 0.809076 0.857555 0.78062 0.815153 0.692382 0.801886 0.751108 0.66636 0.776719 0.742464 0.779599 0.768106 0.725337 0.889115 0.891513 0.797662 0.8053 0.94025 0.963545 1.10128 0.673286 0.698758 0.672076 0.826875 0.781877 0.731061 0.807045 0.702268 0.748238 0.748855 0.632354 0.573136 0.544171 0.586259 0.515995 0.531781 0.690855 0.910195 0.746024 0.789979 0.773316 0.775283 0.77969 0.777901 0.783859 0.647994 0.610494 0.650477 0.792672 0.847845 0.921678 0.956721 0.764023 0.773095 0.807167 0.831527 0.894428 0.900508 0.895329 0.879659 0.917042 0.903447 0.95818 0.942794 0.921403 0.914273 0.909583 0.912987 0.923331 0.966218 0.942112 0.70902 0.907098 0.890151 0.900179 0.921477 0.942762 0.990118 1.04187 1.03861 0.997571 0.974332 0.961022 0.95193 0.937888 0.92461 0.935567 0.940292 0.95651 0.949695 0.958981 0.944326 0.908192 0.87617 0.913797 0.847233 0.866849 0.888038 0.890902 0.888319 0.895582 0.894222 0.877533 0.877579 0.86639 0.860931 0.860732 0.86673 0.868584 0.928156 0.932556 0.975802 0.818184 0.819546 0.798765 0.842229 0.786423 0.787566 0.772325 0.803988 0.879271 0.787245 0.803891 0.772694 0.908956 0.890248 0.67959 0.680612 0.698554 0.728805 0.712667 0.717936 0.791691 0.722018 0.764678 0.347636 0.716269 0.501201 0.529988 0.798843 0.756431 0.56736 0.691986 0.705451 0.661821 0.808879 0.647993 0.850429 0.918544 0.659902 0.655061 0.746626 0.980997 0.794288 0.707802 0.705505 0.632904 0.534408 0.658507 0.638611 0.708438 0.797595 0.616576 0.924219 0.828129 0.809744 0.805153 0.796692 0.788317 0.794687 0.775409 0.773462 0.73085 0.737953 0.769091 0.782259 0.856349 0.87617 0.865333 0.901826 0.84039 0.836121 0.861943 0.863475 0.883234 0.893156 0.898831 0.877783 1.001 0.964181 0.924828 0.93469 0.909854 0.907915 0.90732 0.905714 0.910627 0.903374 0.913899 0.897983 1.02076 0.771485 0.810586 0.74432 0.963791 0.895423 0.918933 0.908294 0.989915 1.00312 1.0668 1.0543 1.01036 1.01023 0.986092 0.959129 0.948178 0.943197 0.946305 0.947748 0.94846 0.949782 0.94784 0.931378 0.939499 0.912172 0.90658 0.893047 0.866187 0.887131 0.881269 0.88829 0.894088 0.896296 0.889457 0.873618 0.851347 0.859194 0.854968 0.844051 0.863109 0.81597 1.00823 1.15945 0.814144 0.797896 0.888999 0.815675 0.855747 0.869972 0.824416 0.806667 0.793201 0.774617 0.64534 0.772583 0.820149 0.684995 0.927333 0.51211 0.707398 0.861871 0.798251 0.662312 0.670232 0.685993 0.67775 0.716376 0.731846 0.769547 0.784146 0.744831 0.572915 0.710009 0.694111 0.673781 0.572944 0.713637 0.670177 0.826542 0.685412 0.617295 0.636987 0.680402 0.777683 0.553127 0.537581 0.584329 0.634341 1.00234 0.889782 0.622435 0.336666 0.58886 0.707957 0.613977 0.565564 0.495621 0.663947 0.68774 0.598709 0.90397 0.890314 0.823117 0.814857 0.868029 0.820524 0.780871 0.775923 0.793639 0.794936 0.797417 0.756189 0.765926 0.75995 0.801129 0.8493 0.886509 0.901626 0.870952 0.858998 0.86976 0.876989 0.856361 0.817584 0.954742 0.904229 0.903916 0.901272 0.903605 0.89778 0.898592 0.879756 0.858161 0.842356 0.874884 0.833364 0.905416 0.818963 0.917219 0.960811 0.886222 0.998167 1.11446 0.997976 1.01887 0.973741 0.970909 0.961278 0.956505 0.94728 0.953265 0.965432 0.95581 0.952703 0.955738 0.957875 0.953544 0.943556 0.942097 0.944504 0.930328 0.906195 0.896182 0.893812 0.903727 0.893859 0.869354 0.854222 0.83414 0.821844 0.840865 0.851062 0.90071 0.594396 0.880761 0.817334 0.852212 0.843387 0.807124 0.839924 0.827547 0.807449 0.772128 0.813484 0.873592 0.852723 0.907978 0.768628 0.616961 0.704436 0.686326 0.686715 0.737543 0.704663 0.761381 0.748979 0.776513 0.790547 0.790312 0.677708 0.623009 0.692367 0.59949 0.692934 0.59476 0.693897 0.664509 0.721405 0.863723 0.707628 0.698191 0.683398 0.576237 0.664123 0.649221 0.63844 0.591771 0.607527 0.611425 0.611268 0.626357 0.604833 0.603657 0.610055 0.687716 0.676537 0.728418 0.723469 0.506969 0.757664 0.716815 0.752246 0.652204 0.771893 0.875666 0.821782 0.799715 0.800487 0.783366 0.784028 0.777331 0.764759 0.799289 0.77244 0.801972 0.801994 0.842667 0.842608 0.873675 0.856617 0.872339 0.87387 0.881055 0.877906 0.866827 0.852907 0.920863 0.918426 0.918948 0.909129 0.905286 0.897824 0.894607 0.884657 0.872558 0.86856 0.872242 0.856728 0.873233 0.870286 0.863988 0.89543 1.01282 1.02875 1.05537 1.05916 0.897941 1.01411 0.849627 1.0095 1.01813 1.02963 0.993843 0.979716 0.968486 0.961298 0.953156 0.964163 0.9344 0.938435 0.92494 0.923725 0.920266 0.940365 0.955503 0.911927 0.910066 0.907338 0.909001 0.904297 0.898002 0.896603 0.839432 0.893153 0.863049 0.856919 0.871081 0.832737 0.895951 0.869765 0.66475 0.691586 0.724675 0.801417 0.810814 0.786146 0.761445 0.773253 0.744354 0.788826 0.728003 0.782374 0.820745 1.20927 0.540036 0.843814 0.81767 0.742538 0.706797 0.725858 0.73438 0.745957 0.750811 0.727046 0.737737 0.83164 0.700392 0.98346 0.931712 0.557228 0.80048 0.660395 0.761258 0.722064 0.773896 0.664488 0.678152 0.622303 0.625338 0.622115 0.564066 0.608881 0.591442 0.564161 0.557313 0.622211 0.641176 0.647415 0.682577 0.653763 0.673065 0.697692 0.756398 0.751683 0.681145 0.738903 0.800726 0.884635 0.971505 0.679233 0.790847 0.78302 0.727727 0.755332 0.754173 0.784211 0.799105 0.773182 0.794383 0.737288 0.719334 0.753774 0.752436 0.754436 0.735802 0.761766 0.773096 0.77563 0.761907 0.771799 0.779059 0.817566 0.850595 0.863464 0.874388 0.876517 0.883003 0.872738 0.856675 0.90102 0.914554 0.922502 0.910585 0.902366 0.902335 0.897136 0.896896 0.890465 0.898001 0.886115 0.8857 0.872833 0.869796 0.87475 0.879184 0.920096 1.02022 1.0086 0.946917 0.854573 0.893199 0.915299 0.996246 0.991514 0.980771 0.971623 0.970274 0.976502 0.961278 0.965976 0.948496 0.931764 0.941047 0.935214 0.926492 0.92027 0.897544 0.885323 0.905096 0.912904 0.912181 0.906714 0.888369 0.895939 0.910815 0.904681 0.887245 0.874505 0.895662 0.883136 0.911205 0.890306 0.676994 0.772893 0.744346 0.790635 0.81419 0.772028 0.761179 0.75577 0.755632 0.812169 0.785485 0.713106 0.696729 0.744488 0.740091 0.737122 0.75393 0.749616 0.723432 0.752387 0.706119 0.723327 0.678179 0.724395 0.663359 0.533421 0.513449 0.444428 0.689474 0.646638 0.717636 0.810272 0.771404 0.925929 0.743986 0.627588 0.612248 0.597578 0.596756 0.629513 0.379686 0.619952 0.52058 0.561547 0.554986 0.64338 0.478059 0.639198 0.635348 0.629679 0.527502 0.577716 0.614496 0.654566 0.638835 0.727799 0.816898 0.747369 0.668633 0.776754 0.691296 0.693022 0.705386 0.761028 0.759147 0.733839 0.741151 0.759697 0.694977 0.738576 0.715482 0.731615 0.765987 0.766367 0.751407 0.741205 0.750378 0.761637 0.756392 0.754649 0.768586 0.75967 0.761848 0.770361 0.78116 0.793861 0.818187 0.822916 0.841306 0.861583 0.874841 0.876224 0.882507 0.889102 0.882541 0.917386 0.908124 0.921541 0.897971 0.904002 0.904866 0.90339 0.907949 0.901891 0.907834 0.879571 0.88054 0.90544 0.960186 0.997959 0.992093 0.997327 0.970789 0.909592 0.912775 0.847717 0.942109 1.01436 0.995425 0.996227 0.990644 0.978621 0.967292 0.948415 0.965487 0.938823 0.941097 0.932233 0.925838 0.92369 0.935886 0.895984 0.911102 0.913332 0.913971 0.919767 0.919944 0.916987 0.903176 0.883366 0.913619 0.914302 0.891761 0.90097 0.905439 0.884764 0.809427 0.795457 0.794081 0.816122 0.83004 0.796224 0.752988 0.754492 0.734518 0.79661 0.797765 0.738356 0.789733 0.802556 0.75291 0.773842 0.785248 0.766592 0.78444 0.768189 0.746192 0.654151 0.707713 0.732418 0.628286 0.566822 0.707883 0.604472 0.527177 0.709983 0.563292 0.672789 0.548142 0.550735 0.983808 0.601198 0.690984 0.30264 0.648844 0.587094 0.653739 0.648566 0.68385 0.570586 0.563529 0.637929 0.490316 0.610143 0.528221 0.553118 0.625397 0.509462 0.515066 0.559096 0.488738 0.585193 0.553818 0.610641 0.61235 0.600211 0.704205 0.723782 0.699587 0.692317 0.749169 0.744408 0.728168 0.720942 0.700837 0.69975 0.691724 0.720983 0.743875 0.773718 0.791583 0.757281 0.760985 0.756621 0.756081 0.762532 0.777775 0.768354 0.791947 0.80792 0.827403 0.842382 0.862159 0.881228 0.872582 0.875262 0.875707 0.873872 0.888429 0.892727 0.908679 0.927073 0.93451 0.910968 0.892569 0.910228 0.894492 0.914962 0.917337 0.924348 0.913398 0.926345 0.918665 0.924854 0.894911 0.901317 0.879237 0.92629 0.988231 0.98981 0.970159 0.99364 0.986327 0.908783 0.845464 0.91496 0.986128 1.01897 0.993558 1.0015 0.974335 0.967653 0.978844 0.971701 0.989345 0.997748 0.929732 0.939059 0.949092 0.91185 0.911575 0.911671 0.919586 0.927638 0.935243 0.937795 0.903563 0.863457 0.82166 0.913018 0.943608 0.917757 0.931106 0.928111 0.859512 0.829922 0.822991 0.835143 0.82199 0.775626 0.755323 0.752288 0.802213 0.813094 0.804947 0.813235 0.800994 0.811097 0.803957 0.791459 0.776887 0.776923 0.74533 0.708162 0.701288 0.68823 0.675304 0.671145 0.790687 0.798804 0.623394 0.487813 0.642796 0.697784 0.684387 0.610322 0.766938 0.750225 0.588173 0.576046 0.687072 0.78622 0.62844 0.942211 0.665552 0.638153 1.20132 0.788438 2.42136 0.649614 0.524983 0.73541 0.189305 0.502261 0.629899 0.591627 0.571629 0.57185 0.475653 0.490901 0.517612 0.555303 0.598704 0.683948 0.685714 0.667299 0.686544 0.682848 0.702996 0.747944 0.736156 0.700179 0.682134 0.696221 0.753607 0.81964 0.760813 0.760028 0.751385 0.763623 0.781723 0.808887 0.84299 0.874294 0.8987 0.87892 0.885803 0.878834 0.876339 0.871731 0.892108 0.88395 0.905035 0.857335 0.914197 0.930614 0.927997 0.905922 0.958059 0.933238 0.959719 0.943248 0.937438 0.948721 0.927217 0.898704 0.907262 1.0106 0.994016 0.982457 0.980824 1.00918 0.929566 0.81718 0.918252 0.969515 1.01945 1.0363 1.00785 0.96188 0.993031 0.984733 0.990212 0.987726 1.00104 0.946079 0.950083 0.925937 0.961629 0.909041 0.913484 0.919867 0.931156 0.948434 0.949023 0.876344 0.936435 0.941438 0.944139 0.964796 1.02142 0.960463 0.897507 1.06678 0.933896 0.861746 0.845867 0.954481 0.756175 0.759759 0.804953 0.828258 0.808395 0.787063 0.812457 0.808971 0.79553 0.784261 0.790437 0.776317 0.731747 0.723317 0.622529 0.689686 0.740664 0.895591 0.483918 0.290363 0.65596 0.783836 0.679341 0.763745 0.522753 0.491116 0.470989 0.492028 0.497114 0.721405 0.506299 0.520205 0.688094 0.530349 0.488477 0.265089 0.391891 0.398944 0.345534 0.648037 0.639033 0.572819 0.537936 0.497475 0.465615 0.497963 0.58278 0.607144 0.675438 0.672482 0.650164 0.652396 0.6824 0.707191 0.760635 0.762953 0.718068 0.673562 0.658868 0.688651 0.774879 0.891565 0.737697 0.757694 0.771946 0.757815 0.744119 0.77546 0.795371 0.791687 0.83931 0.856702 0.868449 0.900939 0.920626 0.905508 0.891063 0.886004 0.878636 0.859212 0.881646 0.882005 0.883448 0.94116 0.932222 0.9235 0.980379 0.970975 0.963202 0.961018 0.926064 0.906019 0.918291 0.959758 1.0715 1.0051 1.02233 1.00144 0.982621 0.98793 0.962936 0.887602 0.905661 0.953424 1.02716 0.883955 1.02451 0.927918 1.04592 0.997102 0.979212 1.00047 0.993259 0.996035 0.989496 1.01078 0.962612 0.949769 0.974017 0.90431 0.923357 0.906072 0.945614 0.947332 0.95876 0.988941 0.956503 0.972814 0.957516 0.887287 0.925457 0.95189 0.964713 0.949308 0.981744 0.945039 1.03886 1.25249 0.845037 1.01217 1.15364 0.776225 0.764212 0.919537 0.830149 0.816037 0.787392 0.779493 0.765797 0.778333 0.775605 0.780137 0.797883 0.800809 0.814247 0.836166 0.699898 0.637533 0.664438 0.745971 0.354502 0.756681 0.531955 0.598381 0.637142 0.68559 0.683558 0.595181 0.495416 0.491023 0.491766 0.500389 0.512659 0.46101 0.508223 0.207784 0.288993 3.13418 1.08621 0.447511 0.367488 0.45058 0.756851 0.445448 0.604408 0.468747 0.521579 0.486596 0.483681 0.538771 0.674869 0.652766 0.638115 0.669808 0.67246 0.613359 0.591086 0.610127 0.674444 0.761185 0.768653 0.747018 0.72107 0.717998 0.705784 0.654969 0.692705 0.603211 0.667801 0.994421 0.945951 1.02785 0.763625 0.777682 0.766296 0.728314 0.886596 0.88271 0.891277 0.877147 0.928647 0.962148 0.92511 0.889582 0.872098 0.877686 0.874511 0.885648 0.890074 0.903305 0.946782 0.944432 0.940036 0.969956 0.977161 0.979758 0.973874 0.972949 0.960903 0.957024 0.898421 0.94075 0.935754 0.97799 0.922702 1.06242 1.01883 1.03901 1.04897 0.972213 0.983571 0.985879 0.928194 0.917459 0.971816 0.994623 1.01167 1.05058 1.02997 1.02358 0.988571 1.01743 0.991686 1.01337 0.998917 0.996563 0.994147 0.966303 0.966579 0.952897 0.946846 0.907486 0.947316 0.947878 0.991829 1.03987 0.904789 0.864977 0.858014 0.817066 0.935058 0.981595 0.925975 0.765885 1.1316 0.624211 1.13386 0.72961 0.994351 0.819838 0.846186 0.792978 0.776953 0.760986 0.748987 0.759882 0.747424 0.738926 0.760817 0.740067 0.793837 0.769922 0.767783 0.801419 0.794871 0.579712 0.713799 0.719357 0.610028 0.386196 0.886156 0.433454 0.543883 0.529366 0.511786 0.492082 0.518564 0.500264 0.483397 0.451546 0.350869 0.758095 1.09332 0.965011 0.532291 0.412386 0.547687 0.402302 0.439962 0.576393 0.453672 0.469977 0.517905 0.594328 0.76654 0.76996 0.703026 0.66595 0.696576 0.73725 0.671805 0.599709 0.566887 0.584801 0.638747 0.646693 0.733841 0.746919 0.711078 0.720395 0.601682 1.01536 0.878077 0.927555 0.864547 0.76561 0.861421 0.678518 0.697194 0.950959 0.871439 0.908309 0.79976 0.957632 0.909873 0.877634 0.883445 0.884974 0.881279 0.891227 0.899961 0.955746 0.965915 0.981457 0.98027 0.978188 0.979358 0.966018 0.964052 1.01066 0.953773 1.04428 1.05122 0.9507 0.876389 1.02419 0.892384 0.947195 1.00386 1.0052 0.953804 0.99388 1.05646 1.04349 1.00241 1.00141 1.01562 1.00591 1.00122 0.995193 1.00635 0.973642 0.986231 0.94233 0.932547 0.904896 0.965857 0.928658 0.957356 1.01183 1.09353 0.896946 0.849818 0.878803 0.770381 0.849507 0.834401 0.913948 0.996408 0.964306 0.685997 0.731666 0.847108 0.907173 0.791373 0.801254 0.74894 0.750015 0.690185 0.697949 0.742624 0.764486 0.788877 0.804636 0.800887 0.736896 0.764491 0.673964 0.807135 0.430277 0.330135 0.49261 0.457614 0.512031 0.5072 0.507786 0.503132 0.50731 0.500171 0.503524 0.513546 0.502261 0.530508 0.537571 0.621476 0.737283 0.66259 0.80856 0.646652 0.654587 0.628752 0.451659 0.494863 0.449139 0.526864 0.684808 0.821325 0.805262 0.733961 0.688902 0.613097 0.551413 0.600709 0.590725 0.635443 0.716313 0.695685 0.736483 0.721298 0.80801 0.883134 0.870261 0.914499 0.849302 0.872662 0.853139 0.983322 0.770744 0.900517 0.859452 0.87663 0.775089 0.956969 0.887498 0.904333 0.894253 0.894118 0.900674 0.883017 0.947405 0.98518 0.967866 0.980293 1.02126 0.974207 0.994542 0.983428 0.988149 0.967203 0.98909 0.961667 1.00649 1.02797 0.998877 0.995079 1.01895 1.06066 0.975607 0.973606 1.06646 0.939476 1.02569 0.987771 0.983775 1.0024 0.947244 1.04679 1.0209 1.02042 1.01629 1.01584 1.01358 0.995918 0.946336 0.998917 0.925162 0.936301 1.00073 0.862872 0.937356 0.899638 0.860577 0.828412 0.893745 0.928665 0.962487 1.02205 1.00727 0.965739 0.757731 0.722923 0.734145 0.784928 1.08662 0.785139 0.807208 0.844708 0.871483 0.781072 0.727949 0.665289 0.734016 0.774412 0.828597 0.797612 0.741891 0.699327 0.517517 0.559345 0.496316 0.513157 0.522308 0.488859 0.486275 0.544856 0.560522 0.645641 0.678757 0.76897 0.74496 0.731838 0.71259 0.490109 0.456288 0.461389 0.662869 0.764218 0.824472 0.884557 0.857687 0.797784 0.680379 0.623894 0.596617 0.517986 0.698321 0.597978 0.618687 0.658001 0.70244 0.785491 0.826771 0.842784 0.861929 0.838465 0.827318 0.8693 0.729592 0.793146 0.970149 1.05338 0.748124 0.970961 1.01684 0.828645 0.759796 0.918089 0.909162 0.925821 0.916503 0.905992 0.955177 0.911038 1.05122 0.953663 1.00441 0.986278 0.99314 0.982441 0.984234 0.983214 0.963318 0.994386 1.01264 1.00404 1.03415 1.00938 1.08812 1.03145 1.0515 0.993505 1.05178 1.08511 0.987239 1.0261 1.00403 1.03285 1.00143 1.00827 1.01864 1.03832 1.03029 1.007 1.03002 1.02868 1.03175 1.02446 1.02457 0.999877 1.02357 1.00922 1.0166 0.922692 0.943514 0.94886 0.994052 1.01304 0.949741 0.900863 0.860253 0.859846 0.914771 0.984602 1.01639 0.96499 0.814981 0.745866 0.770473 0.719116 0.799101 0.850594 0.839797 0.775243 0.815637 0.756348 0.751088 0.771415 0.783147 0.788993 0.790446 0.81676 0.791603 0.794753 0.72917 0.774688 0.727041 0.667253 0.614251 0.549768 0.593695 0.561444 0.486092 0.516314 0.472668 0.648553 0.510919 0.74445 0.668814 0.740053 0.784184 0.758572 0.624723 0.642397 0.513575 0.43087 0.406494 0.581434 0.786228 0.900072 0.75554 0.712632 0.676587 0.699997 0.545273 0.650924 0.58988 0.695458 0.712252 0.813375 0.862624 0.847297 0.833787 0.835522 0.84634 0.84491 0.824674 0.821932 0.859631 1.01043 0.906156 1.06712 0.884544 0.813359 0.911689 0.877782 0.880307 0.936283 0.943827 0.936669 0.951486 0.941824 1.07619 0.923504 1.01326 0.976665 0.97736 0.98708 0.998725 1.0574 1.02105 1.03722 1.07429 1.04281 1.05831 1.06638 1.0421 1.05227 0.987969 1.05139 1.04065 1.02049 1.04829 1.07436 1.05949 1.02181 1.02194 1.03639 1.03147 1.03689 1.03394 1.00772 1.02813 1.02122 1.03498 1.0254 0.992096 0.944232 0.955819 1.11758 1.01826 0.835666 0.845401 0.858377 0.892435 0.911426 0.848021 0.999522 0.964386 0.784599 0.730639 0.813711 0.843145 0.849663 0.844151 0.841228 0.861466 0.830418 0.822898 0.803856 0.797938 0.802215 0.808358 0.793447 0.771683 0.715612 0.616776 0.59233 0.614107 0.621608 0.577489 0.517666 0.562061 0.363774 0.794378 0.795483 0.701215 0.717906 0.775855 0.775344 0.844007 0.626339 0.679877 0.751933 0.665969 0.562221 0.726838 0.6772 0.696768 0.739695 0.669291 0.771308 0.498554 0.712841 0.742065 0.646267 0.771113 0.790889 0.91881 0.89253 0.828496 0.827369 0.830345 0.845413 0.904246 0.90156 0.909758 0.995923 0.946871 1.03844 0.911932 0.883954 0.914809 0.939913 0.954639 0.944499 0.956534 0.956675 0.918093 0.988179 0.978813 1.00697 1.031 1.00023 0.999199 0.999343 1.01528 1.06706 1.01723 1.05018 1.01626 1.01437 1.05082 1.0761 1.06474 1.05373 1.07292 1.08248 1.0327 1.04279 1.00803 1.05639 0.986721 1.04812 1.04985 1.07768 1.08679 1.04277 1.02966 1.04802 1.03983 1.03424 1.03668 1.03051 1.01892 1.02969 1.02736 1.03013 1.02092 1.02049 1.0468 1.07078 1.05482 1.02094 0.991607 1.16924 1.02911 0.923337 1.01957 0.808081 0.83231 0.807119 0.909033 0.913603 0.968761 0.836629 0.833759 0.988101 0.988495 0.794308 0.849701 0.870932 0.839204 0.848365 0.882609 0.869737 0.84362 0.873404 0.814697 0.810115 0.806873 0.803831 0.807386 0.808774 0.805545 0.806106 0.619369 0.648879 0.720941 0.535205 0.664547 0.620605 0.308983 0.789721 0.976085 0.787945 0.724744 0.727057 0.767013 0.911067 0.718771 0.971193 0.906307 0.71882 0.697365 0.765988 0.697756 0.66245 0.754154 0.818232 0.623772 0.830066 0.705094 0.833648 0.97803 0.913656 0.855162 0.892063 0.835759 0.80647 0.933433 0.930977 0.908298 0.951667 0.980129 0.955547 0.907971 0.931924 0.950163 0.955498 0.958326 0.94747 0.96314 0.968343 1.04537 1.02146 1.05743 1.08037 1.00238 0.986453 0.991901 1.01252 1.0079 0.994857 1.07304 1.06163 1.01015 1.04558 1.07914 1.0583 1.07435 1.08846 1.14153 1.0541 1.05713 1.05619 1.09035 1.09008 1.07787 1.09331 1.04474 1.05051 1.02988 1.04038 1.04495 1.03955 1.06135 1.0393 1.03602 1.03535 1.0749 1.05649 1.07816 1.03381 1.0178 1.03797 0.931453 1.08523 1.06211 0.894137 1.06725 0.803317 0.898546 0.853297 0.879329 0.911261 1.02019 0.947606 1.06816 1.0148 0.864317 0.819248 0.754774 0.89636 0.860803 0.878997 0.874034 0.87124 0.867436 0.87512 0.819538 0.803955 0.869444 0.813486 0.804025 0.816453 0.847546 0.848116 0.853777 0.495049 0.712044 0.654592 0.788819 0.676801 0.908732 0.474103 0.869557 0.807262 0.737115 0.748673 0.785331 0.693162 0.845738 0.82184 0.910079 0.606645 0.77204 0.740126 0.673621 0.828813 0.777902 0.830855 0.887315 0.942449 0.861614 0.907073 0.836645 0.783064 1.00473 1.01889 0.956576 0.900157 0.946505 0.968255 0.951803 0.95032 0.927602 0.929298 0.957319 0.964986 0.968747 0.951402 0.963601 0.979172 0.987012 1.08962 1.06573 1.06743 1.01541 0.992036 1.01775 1.01349 1.06178 1.01862 1.1301 1.14182 1.08988 1.09432 1.00997 1.02809 1.10001 1.094 1.07387 1.08553 1.09668 1.05756 1.11788 1.08627 1.089 1.06229 1.05055 1.04156 1.03867 1.05776 1.05121 1.04082 1.07748 1.1034 1.08622 1.04716 1.03144 1.01192 1.03958 1.02388 0.983793 1.12666 0.736834 1.05875 1.02873 0.901553 0.789097 0.878185 0.933873 1.00715 1.06602 0.988167 0.829279 0.877254 0.95523 0.849059 0.90361 0.901254 0.885725 0.859483 0.893104 0.777792 0.824488 0.815406 0.823951 0.852341 0.877164 0.881136 1.00302 0.791243 0.752809 0.76937 0.879249 0.785401 0.490832 0.732018 0.809778 0.760871 0.763068 0.771392 0.7323 0.781261 0.82926 0.889964 0.739045 0.918077 0.710132 0.630882 0.709362 0.873138 0.845169 0.862055 0.866104 0.892001 0.888666 0.934356 0.905877 0.851202 0.779849 1.05603 0.948062 0.968404 0.866305 0.950235 0.952216 0.955677 0.947494 0.9786 0.968671 0.98668 0.988521 0.9748 0.978289 0.984761 0.986349 1.10005 1.06154 1.06798 1.02105 1.05384 1.03865 1.00842 1.06982 1.00929 0.90057 1.17667 1.14793 1.13434 1.08526 1.09706 1.11548 1.0541 1.10074 1.09235 1.04281 1.13739 1.10423 1.07909 1.06875 1.06113 1.03975 1.03556 1.0679 1.07282 1.07025 1.05036 1.08296 1.07771 1.10157 1.14262 1.14571 1.00177 1.03202 1.04771 1.03181 0.977354 0.967665 1.10731 0.80239 1.22981 1.10258 0.97341 0.857301 0.821785 1.01135 1.01426 0.960645 0.844776 0.959422 0.87339 0.908587 0.896194 0.898782 0.89196 0.81862 0.83059 0.822711 0.828949 0.838065 0.845436 0.86386 0.962392 0.97091 0.924189 0.809192 0.954512 0.761903 0.682964 0.758969 0.75464 0.772054 0.758027 0.752976 0.802822 0.835319 0.906935 0.966977 0.926526 0.652337 0.727409 0.893117 0.87667 0.882411 0.861148 0.89734 0.93712 0.923815 0.88661 0.832965 0.832088 0.782092 1.06223 0.958694 0.834907 0.966022 0.953952 0.950579 0.938504 0.945821 0.973774 0.990815 0.952991 0.999542 0.989923 0.995085 1.03256 1.04081 1.11269 1.07163 1.06633 1.07231 1.04691 1.0549 1.03406 1.06756 1.06367 0.928186 1.17254 1.12669 1.11577 1.09553 1.12653 1.13153 1.04211 1.10512 1.1098 1.06554 1.1386 1.12384 1.08568 1.07702 1.07783 1.04918 1.0849 1.07807 1.07131 1.06221 1.08779 1.0889 1.08626 1.11547 1.04821 1.05232 1.04299 0.991349 1.02159 0.996178 1.12052 1.27394 1.12017 1.13125 1.02257 0.886188 0.784143 1.01479 0.963291 1.02692 0.967279 0.937979 0.915484 0.902065 0.909003 0.909595 0.904503 0.897704 0.89609 1.00861 0.99377 0.952943 0.782878 0.850505 0.829539 0.847374 0.872625 0.930127 0.960852 0.94539 0.987628 0.970449 0.847133 0.917211 0.804897 0.742409 0.782512 0.759203 0.760682 0.769761 0.738526 0.85256 0.784166 0.854504 0.902773 0.936611 0.955495 0.780217 0.836995 0.932074 0.867768 0.876073 0.938233 0.93183 0.894178 0.858948 0.850766 0.955882 1.04031 0.856761 0.977353 0.956823 0.994954 0.977338 0.945079 0.953161 0.972525 0.998008 1.00074 1.0615 1.07119 1.09484 0.946351 1.01923 1.09949 1.08077 1.09187 1.0777 1.05683 1.05676 1.06316 1.06548 1.18748 1.10504 1.13512 1.12611 1.13297 1.10368 1.11476 1.1332 1.11168 1.11662 1.12516 1.11468 1.13551 1.14061 1.08827 1.0863 1.07743 1.11276 1.06831 1.08569 1.08201 1.11165 1.10202 1.09288 1.136 1.10287 0.996229 1.20314 1.05739 1.02268 1.02719 1.09247 1.02656 1.06784 0.903293 0.940732 1.01245 0.924009 0.927161 0.958538 0.960949 0.974681 0.962099 0.947963 0.916797 0.931453 0.923748 0.984849 0.996193 0.791385 0.841936 0.877184 0.8897 1.01688 0.987239 0.911734 0.832617 0.779858 0.787134 0.761549 0.740626 0.729617 0.909503 0.77252 0.810399 0.859441 0.884948 0.928826 0.934888 0.954707 0.816803 0.98884 1.00325 0.988847 0.920019 0.858005 0.989392 0.920006 0.875569 0.886121 0.86228 0.900772 0.907423 1.00526 0.967072 0.995167 0.964031 1.02068 1.04346 0.984378 1.02426 0.992702 1.08021 1.07286 1.05981 1.09055 0.940366 1.01713 1.09727 1.08123 1.10132 1.09409 1.06869 1.06243 1.06916 1.06635 1.07395 1.17113 1.06461 1.08679 1.10464 1.12026 1.13212 1.11538 1.11645 1.12918 1.12596 1.14416 1.19576 1.09057 1.06829 1.11551 1.05176 1.05398 1.11016 1.10021 1.11357 1.14086 1.09404 0.954819 1.26981 1.08266 1.05109 1.03348 1.04479 1.05501 1.09011 1.07657 1.03984 1.04148 0.929642 0.992664 0.973331 0.930813 0.93459 1.01095 1.01044 0.953452 0.930991 0.944736 0.928646 0.914506 0.982929 0.971697 0.905451 0.997094 1.03379 0.873196 0.789476 0.853369 0.91598 0.879244 0.902059 1.06847 1.0975 1.09917 1.0307 0.966235 0.893297 0.841167 0.811859 0.790158 0.772916 0.756827 0.725139 0.904572 1.03352 0.948807 0.898725 0.898561 0.953103 0.963711 0.933406 0.975371 1.11355 1.06498 0.938926 0.89575 1.01763 0.993351 0.960426 0.926927 0.883013 0.870527 0.879282 0.889694 0.89248 1.06822 1.06324 0.941082 1.01648 0.998669 1.02753 1.0317 1.00707 1.05586 1.05509 1.09099 1.00369 1.08258 1.06639 1.10709 0.982204 1.07507 1.13407 1.10337 1.10628 1.07287 1.07362 1.08256 1.07713 1.08943 1.14623 1.13154 1.06483 1.09939 1.10955 1.1276 1.13154 1.11823 1.13217 1.12876 1.13445 1.12212 1.14699 1.0948 1.11735 1.11024 1.12743 1.14606 1.11304 1.1544 1.10844 1.11359 1.09561 0.966708 1.27092 1.09677 1.07984 1.04166 1.0783 1.04436 1.03672 0.987701 0.996529 0.922919 0.953472 1.05582 0.970096 0.948663 0.897736 0.961582 0.951129 1.02535 0.854869 0.905457 0.953042 0.949794 0.907496 0.871977 1.07701 0.965105 0.909478 0.926802 0.854444 0.82365 0.780326 0.788657 0.698417 0.6452 0.861646 1.09799 1.00622 0.888661 0.99114 0.966273 1.02637 0.977911 0.974745 1.0099 0.909219 1.08969 1.05123 0.991056 0.920031 0.885205 0.921331 0.948172 0.989817 0.98742 1.03944 1.01343 0.977476 0.996707 1.01533 1.0284 1.03392 1.03044 1.08539 0.984321 1.09664 1.07123 1.08069 1.00561 1.12727 1.05781 1.11037 1.07683 1.07273 1.11628 1.05864 1.07294 1.09088 1.13692 1.07653 1.20477 1.06162 1.10878 1.12697 1.1358 1.13359 1.12925 1.12277 1.19178 1.14152 1.16281 1.11357 1.11652 1.11455 1.12956 1.14177 1.14362 1.12153 1.11333 1.10787 1.09309 1.09518 1.09848 0.986446 1.19101 1.10604 1.12506 1.0943 1.07729 1.04714 1.07095 1.03722 1.02365 1.00369 0.920377 0.99835 1.04415 1.01129 1.00083 0.976094 0.993105 0.924888 0.953098 0.998508 1.03863 0.866902 0.92475 0.929318 0.959748 1.00251 0.932507 0.933467 0.966932 1.12827 1.04939 0.947685 0.940165 0.923636 0.943854 0.901029 0.924367 0.899701 0.844505 1.19641 0.859522 0.878121 1.07026 1.04711 1.0515 0.992712 0.991268 0.975208 1.00817 1.01278 0.979221 0.929848 1.04939 1.04933 1.02041 0.951542 0.897045 0.880015 0.932265 0.941478 0.997841 0.993153 1.01692 0.999547 0.993738 1.01344 1.00889 1.04008 1.03738 1.02898 1.03 0.970374 1.05346 1.12711 1.17817 1.05879 1.09853 1.1375 1.17911 1.07172 1.06621 1.1099 1.07055 1.08306 1.09268 1.18323 1.14211 1.20209 1.19127 1.17249 1.14707 1.16328 1.17475 1.12974 1.13454 1.15232 1.2269 1.14686 1.16701 1.12019 1.1234 1.11448 1.12987 1.13941 1.14889 1.13366 1.11563 1.08091 1.08831 1.10869 1.01071 1.16216 1.11707 1.08409 1.09997 1.05914 1.06545 1.03125 1.04417 1.12104 0.978549 1.03656 0.962775 0.986115 1.01589 0.970953 1.05222 0.963751 0.97837 0.999256 0.948908 0.962125 0.947848 0.946843 0.945575 0.938272 0.946158 1.06912 0.939708 0.936827 0.952472 0.925539 0.883817 0.862224 0.727944 0.962682 1.03575 0.906531 0.918664 0.951461 1.0567 0.987913 0.997534 1.00198 1.01665 0.981458 0.937025 1.04119 1.05644 1.03199 0.971016 0.896355 0.965462 0.933982 0.958224 0.977474 0.987938 0.994687 1.00192 1.01578 1.02549 1.00577 1.09705 1.06928 1.07595 1.12255 1.17591 1.05644 1.09705 1.14465 1.18123 1.07941 1.17418 1.11564 1.11147 1.08897 1.07823 1.19399 1.1589 1.16576 1.19715 1.19349 1.16936 1.15289 1.15304 1.16673 1.14542 1.18871 1.1735 1.12152 1.18238 1.1381 1.13795 1.14096 1.1537 1.14118 1.12947 1.15101 1.07967 1.09256 1.11518 1.17689 1.12668 1.09611 1.09725 1.10411 1.06432 1.06692 1.02093 1.07676 1.12681 1.021 0.924998 1.03441 1.02657 0.972086 1.06842 0.960873 0.994541 1.00256 0.988183 0.957548 0.937425 0.946587 0.956686 1.03304 1.10927 0.925091 0.944714 0.925236 0.865347 0.906323 0.954611 0.998664 0.919132 0.958464 1.05738 1.03098 1.05399 1.0029 1.00669 0.977903 0.984915 1.08871 1.05109 0.98937 0.936925 0.98646 0.981441 0.951639 0.948857 0.999514 1.00249 1.02528 1.01467 1.06195 1.0205 1.02208 1.01013 1.02975 1.06784 1.07965 1.10677 1.06428 1.07165 1.11659 1.04967 1.07901 1.14731 1.11408 1.18073 1.07861 1.1679 1.11416 1.11429 1.10098 1.13193 1.18185 1.1558 1.15464 1.19507 1.19966 1.16844 1.15418 1.18613 1.16533 1.17111 1.19075 1.16868 1.17852 1.12234 1.1973 1.14402 1.12348 1.14413 1.12966 1.13816 1.15557 1.08685 1.09617 1.11788 1.18623 1.16501 1.12492 1.10321 1.02726 1.09785 1.0278 1.06606 1.06977 1.03763 1.04432 1.07679 1.10287 1.11846 1.07311 0.988488 0.954368 1.06467 1.01065 0.987935 0.964184 1.00462 0.987178 0.961969 0.93672 1.06381 0.972961 0.984623 0.980691 0.919788 1.04527 1.11735 0.917535 0.939897 0.939625 1.15198 0.926337 0.98066 0.990435 1.04476 0.98905 1.00963 0.97584 1.04159 1.10303 0.993896 0.959064 0.976989 0.930879 
SCALARS Stress float 1
LOOKUP_TABLE default
-129928000000.0 -232657000000.0 -116247000000.0 -161780000000.0 -186188000000.0 -289302000000.0 -123361000000.0 -655571000000.0 -452267000000.0 -223318000000.0 -253817000000.0 -63278200000.0 -247671000000.0 -262366000000.0 -330987000000.0 -285287000000.0 -252536000000.0 -657215000000.0 -762950000000.0 -378218000000.0 -995754000000.0 -1.10425e+12 -636162000000.0 -513899000000.0 -821994000000.0 -351095000000.0 -960666000000.0 -294046000000.0 -1.41863e+12 -541371000000.0 -235789000000.0 -94583800000.0 -534764000000.0 -517313000000.0 -248300000000.0 -618803000000.0 -859661000000.0 -1.18998e+12 -674333000000.0 -977630000000.0 -1.08981e+12 -997848000000.0 -1.19633e+12 -769211000000.0 -1.50351e+12 -1.10928e+12 -1.37575e+12 -1.52036e+12 -2.10832e+12 -1.06053e+12 -1.35439e+12 -968443000000.0 -486740000000.0 -1.30461e+12 -994351000000.0 -980278000000.0 -890206000000.0 -1.167e+12 -1.14517e+12 -1.451e+12 -889020000000.0 -263438000000.0 -1.51452e+12 -547913000000.0 -1.6672e+12 -869424000000.0 -1.12617e+12 -1.95582e+12 -1.70857e+12 -1.29927e+12 -2.85793e+12 -2.43021e+12 -2.3878e+12 -406939000000.0 -1.5691e+12 -1.10768e+12 -1.01277e+12 -980075000000.0 -805495000000.0 -2.26375e+12 -2.33365e+12 -1.54045e+12 -1.87746e+12 -1.83331e+12 -2.584e+12 -588187000000.0 -1.36984e+12 -1.70033e+12 -1.04085e+12 -1.92144e+12 -1.98608e+12 -2.06916e+12 -1.29584e+12 -1.70655e+12 -1.80533e+12 -3.65301e+12 -1.79808e+12 -3.14552e+12 -2.30014e+12 -3.64632e+12 -2.48565e+12 -2.95088e+12 -2.22145e+12 -775281000000.0 -1.87842e+12 -2.58868e+12 -1.43279e+12 -2.07059e+12 -5.34458e+12 -2.52313e+12 -2.90496e+12 -2.08779e+12 -2.00579e+12 -2.48135e+12 -1.37849e+12 -925636000000.0 -512861000000.0 -1.68152e+12 -970264000000.0 -3.97724e+12 -3.77946e+12 -2.23149e+12 -2.80765e+12 -2.86737e+12 -1.26286e+12 -2.42433e+12 -1.60483e+12 -2.29384e+12 -3.31299e+12 -1.00202e+12 -1.37552e+12 -2.55736e+12 -2.19286e+12 -2.93253e+12 -3.90916e+12 -1.39829e+12 -2.80371e+12 -2.68983e+12 -1.22834e+12 -844418000000.0 -1.15497e+12 -2.07829e+12 -1.55686e+12 -2.78386e+12 -1.95474e+12 -1.62991e+12 -1.65008e+12 -1.72217e+12 -3.40685e+12 -3.58114e+12 -2.9536e+12 -5.06554e+12 -1.83037e+12 -2.52055e+12 -3.98036e+12 -3.51815e+12 -5.1092e+12 -3.00755e+12 -3.61058e+12 -2.17661e+12 -2.78719e+12 -4.8692e+12 -4.57177e+12 -4.36985e+12 -1.19388e+12 -4.0107e+12 -1.19515e+12 -1.81337e+12 -3.72935e+12 -2.50553e+12 -3.28163e+12 -3.53582e+12 -3.95385e+12 -2.30316e+12 -951696000000.0 -801532000000.0 -1.60083e+12 -2.44623e+12 -5.39085e+12 -3.65915e+12 -3.26529e+12 -4.36013e+12 -3.18676e+12 -3.32996e+12 -5.16687e+12 -2.5491e+12 -5.25933e+12 -3.43387e+12 -2.08982e+12 -6.09123e+12 -3.89584e+12 -2.36611e+12 -4.24339e+12 -1.11962e+12 -2.50672e+12 -3.60959e+12 -4.04623e+12 -3.80723e+12 -5.58702e+12 -2.86049e+12 -1.90359e+12 -3.02065e+12 -2.61085e+12 -6.29421e+12 -2.42189e+12 -5.81243e+12 -5.55844e+12 -5.00373e+12 -3.54421e+12 -6.33906e+12 -6.13526e+12 -4.60413e+12 -3.0013e+12 -3.2681e+12 -5.08323e+12 -7.05666e+12 -5.08706e+12 -6.23842e+12 -4.09965e+12 -3.72749e+12 -2.8852e+12 -5.70255e+12 -4.2214e+12 -2.96092e+12 -1.84165e+12 -5.49917e+12 -4.35938e+12 -1.91761e+12 -3.63583e+12 -3.57831e+12 -2.00247e+12 -3.30097e+12 -3.6289e+12 -3.22823e+12 -5.78997e+12 -1.52104e+12 -5.99641e+12 -5.08795e+12 -6.16616e+12 -5.8061e+12 -4.03431e+12 -4.94577e+12 -3.12393e+12 -4.43188e+12 -3.84847e+12 -6.4328e+12 -4.52099e+12 -3.31605e+12 -3.79889e+12 -4.01792e+12 -4.29664e+12 -3.82742e+12 -5.95371e+12 -6.19248e+12 -5.56938e+12 -4.03218e+12 -7.37512e+12 -6.08175e+12 -4.37183e+12 -5.73969e+12 -3.73539e+12 -7.14329e+12 -5.52213e+12 -3.72174e+12 -4.80153e+12 -3.73645e+12 -3.83758e+12 -2.9408e+12 -6.0697e+12 -4.53449e+12 -5.66061e+12 -3.83131e+12 -5.87324e+12 -5.6261e+12 -6.2206e+12 -3.15362e+12 -2.37045e+12 -2.95154e+12 -4.39315e+12 -3.00857e+12 -5.09553e+12 -7.21215e+12 -3.06296e+12 -3.44709e+12 -4.10118e+12 -5.53996e+12 -4.40698e+12 -5.5296e+12 -6.0534e+12 -2.43415e+12 -7.39598e+12 -3.02158e+12 -4.35577e+12 -6.26162e+12 -5.51145e+12 -3.95156e+12 -6.11153e+12 -3.06817e+12 -3.94448e+12 -4.33982e+12 -8.07971e+12 -7.21968e+12 -3.83153e+12 -7.28731e+12 -6.25442e+12 -7.85886e+12 -9.1373e+12 -4.5727e+12 -5.41978e+12 -5.96414e+12 -5.00085e+12 -6.0919e+12 -6.14462e+12 -6.35617e+12 -4.06208e+12 -4.46948e+12 -3.56411e+12 -3.13126e+12 -4.62483e+12 -6.06539e+12 -5.88086e+12 -3.89548e+12 -6.06749e+12 -2.62207e+12 -4.81667e+12 -4.69568e+12 -5.23549e+12 -4.50323e+12 -4.79113e+12 -5.99805e+12 -2.95352e+12 -5.50096e+12 -6.3241e+12 -8.72531e+12 -9.52614e+12 -1.23688e+13 -8.01377e+12 -7.45554e+12 -7.48901e+12 -5.03655e+12 -3.97973e+12 -3.66975e+12 -4.61771e+12 -6.53196e+12 -6.12875e+12 -5.19841e+12 -5.21113e+12 -3.12391e+12 -6.32353e+12 -3.31366e+12 -8.6239e+12 -6.99707e+12 -6.63192e+12 -4.65773e+12 -5.52927e+12 -7.85652e+12 -5.44139e+12 -3.86783e+12 -6.20678e+12 -6.88855e+12 -6.70224e+12 -3.50008e+12 -5.72011e+12 -3.74955e+12 -4.41833e+12 -3.01385e+12 -5.83607e+12 -4.14897e+12 -5.93784e+12 -4.8713e+12 -2.8443e+12 -5.34141e+12 -4.03624e+12 -2.90977e+12 -4.50614e+12 -2.7438e+12 -4.48758e+12 -4.77612e+12 -2.78674e+12 -6.52624e+12 -9.386e+12 -3.6551e+12 -6.80255e+12 -5.93233e+12 -8.40816e+12 -7.62048e+12 -7.28331e+12 -2.60786e+12 -9.43624e+12 -7.23729e+12 -6.11775e+12 -6.91806e+12 -2.2137e+12 -3.16283e+12 -7.4458e+12 -4.51457e+12 -4.41777e+12 -7.74985e+12 -1.07185e+13 -8.78264e+12 -3.91461e+12 -8.43492e+12 -5.22496e+12 -6.48691e+12 -4.72874e+12 -6.72944e+12 -8.33719e+12 -5.04875e+12 -5.61404e+12 -5.09511e+12 -5.5835e+12 -5.16613e+12 -6.42151e+12 -5.63375e+12 -5.42067e+12 -5.54248e+12 -5.13092e+12 -5.84483e+12 -3.39844e+12 -4.78835e+12 -5.29209e+12 -2.61901e+12 -4.76645e+12 -3.4426e+12 -3.96162e+12 -4.76511e+12 -3.88563e+12 -5.77448e+12 -3.60571e+12 -3.56284e+12 -3.21516e+12 -3.22066e+12 -3.79337e+12 -3.89042e+12 -4.62078e+12 -4.61988e+12 -6.87833e+12 -5.50766e+12 -5.72652e+12 -4.44494e+12 -5.37579e+12 -6.66237e+12 -5.49471e+12 -7.95449e+12 -4.17936e+12 -5.89432e+12 -5.87376e+12 -4.61757e+12 -6.34125e+12 -8.16133e+12 -6.32003e+12 -7.85073e+12 -6.53186e+12 -4.76893e+12 -6.17016e+12 -5.52871e+12 -3.43168e+12 -8.15111e+12 -8.70214e+12 -4.4477e+12 -4.40096e+12 -4.86324e+12 -4.72114e+12 -4.39059e+12 -1.0032e+13 -7.35441e+12 -4.24495e+12 -1.02078e+13 -7.78468e+12 -8.24314e+12 -5.45289e+12 -1.10779e+13 -7.93789e+12 -9.26421e+12 -8.43101e+12 -3.94658e+12 -8.05206e+12 -5.99617e+12 -3.40075e+12 -4.06966e+12 -6.78773e+12 -6.76336e+12 -3.82434e+12 -3.00201e+12 -3.63948e+12 -3.83084e+12 -4.52525e+12 -5.79034e+12 -5.27832e+12 -2.90095e+12 -4.71861e+12 -3.88674e+12 -2.69508e+12 -4.54368e+12 -3.06104e+12 -4.12366e+12 -3.99066e+12 -3.27297e+12 -6.20667e+12 -6.69989e+12 -6.57221e+12 -4.15587e+12 -3.37921e+12 -4.44882e+12 -6.58632e+12 -4.81664e+12 -6.0179e+12 -7.06391e+12 -5.53332e+12 -4.43703e+12 -8.4291e+12 -3.02507e+12 -4.41042e+12 -7.02803e+12 -7.19447e+12 -7.63805e+12 -8.67807e+12 -9.99578e+12 -9.02907e+12 -8.18592e+12 -5.94205e+12 -5.26536e+12 -8.5044e+12 -7.35244e+12 -1.34635e+13 -3.72198e+12 -6.40595e+12 -6.86899e+12 -5.65547e+12 -3.95738e+12 -5.84557e+12 -5.37125e+12 -5.78113e+12 -6.69877e+12 -6.16264e+12 -3.72257e+12 -7.26294e+12 -3.75293e+12 -8.61681e+12 -4.08662e+12 -5.91765e+12 -5.14011e+12 -6.06627e+12 -7.76444e+12 -9.91796e+12 -3.50655e+12 -6.88478e+12 -7.36436e+12 -9.16461e+12 -6.86129e+12 -5.60563e+12 -4.33585e+12 -7.78932e+12 -6.63778e+12 -5.60117e+12 -4.51345e+12 -3.04813e+12 -6.71227e+12 -7.17821e+12 -5.36843e+12 -4.71009e+12 -4.99815e+12 -3.58536e+12 -4.52013e+12 -4.98713e+12 -7.05702e+12 -7.34816e+12 -5.47927e+12 -5.22795e+12 -4.14917e+12 -4.97505e+12 -5.01691e+12 -5.89282e+12 -3.44025e+12 -6.10558e+12 -4.93484e+12 -5.29651e+12 -5.46732e+12 -6.31772e+12 -2.51163e+12 -6.32529e+12 -3.895e+12 -4.53379e+12 -5.88547e+12 -4.61885e+12 -6.79826e+12 -8.70649e+12 -5.2541e+12 -5.31487e+12 -1.10852e+13 -1.09993e+13 -8.51332e+12 -1.01525e+13 -3.66105e+12 -7.84294e+12 -5.59494e+12 -5.99829e+12 -7.38454e+12 -7.15625e+12 -5.77449e+12 -7.95607e+12 -4.55288e+12 -4.15795e+12 -4.08253e+12 -7.29772e+12 -1.03776e+13 -1.03172e+13 -4.94397e+12 -7.33595e+12 -5.96861e+12 -5.93405e+12 -5.83277e+12 -5.60414e+12 -5.20246e+12 -4.52504e+12 -7.6733e+12 -6.441e+12 -1.03368e+13 -7.8526e+12 -6.81898e+12 -5.40593e+12 -6.14937e+12 -3.80826e+12 -3.49831e+12 -6.17097e+12 -7.7509e+12 -1.07165e+13 -7.17889e+12 -4.90522e+12 -4.47292e+12 -4.72987e+12 -3.51748e+12 -1.13533e+13 -5.51807e+12 -5.5372e+12 -6.08354e+12 -4.89532e+12 -5.03046e+12 -4.86499e+12 -4.59352e+12 -3.93252e+12 -6.71869e+12 -4.12451e+12 -8.62166e+12 -4.9884e+12 -5.44389e+12 -2.95832e+12 -2.24452e+12 -2.62009e+12 -7.50431e+12 -9.12519e+12 -8.29732e+12 -4.21524e+12 -3.11399e+12 -5.1586e+12 -5.62151e+12 -5.58421e+12 -4.70394e+12 -1.07081e+13 -8.3474e+12 -5.10522e+12 -6.08559e+12 -1.30301e+13 -1.06877e+13 -7.19765e+12 -7.59581e+12 -1.5956e+13 -1.09199e+13 -9.95568e+12 -4.96843e+12 -5.64788e+12 -6.21578e+12 -9.10265e+12 -7.48694e+12 -4.34663e+12 -5.80976e+12 -4.78e+12 -5.15025e+12 -8.3967e+12 -3.99543e+12 -3.83292e+12 -3.44732e+12 -3.75228e+12 -3.22563e+12 -3.44614e+12 -8.00963e+12 -6.60667e+12 -7.48923e+12 -5.93465e+12 -6.22174e+12 -7.22353e+12 -3.41027e+12 -7.65866e+12 -8.26405e+12 -5.01574e+12 -6.02449e+12 -8.13419e+12 -1.01907e+13 -1.05895e+13 -1.155e+13 -8.14233e+12 -4.71576e+12 -5.12898e+12 -4.94249e+12 -3.60028e+12 -6.47124e+12 -3.89507e+12 -4.42846e+12 -7.89137e+12 -7.8466e+12 -7.89649e+12 -6.01489e+12 -5.21974e+12 -5.88703e+12 -4.34526e+12 -5.69624e+12 -6.62134e+12 -3.99037e+12 -3.77701e+12 -4.33754e+12 -4.41934e+12 -4.0948e+12 -6.49438e+12 -4.24632e+12 -4.02245e+12 -4.58752e+12 -6.24689e+12 -4.53142e+12 -5.07355e+12 -5.48272e+12 -7.06048e+12 -6.26805e+12 -4.5071e+12 -6.44697e+12 -4.17518e+12 -5.5938e+12 -6.47847e+12 -6.21184e+12 -8.58076e+12 -5.886e+12 -2.56704e+12 -5.58151e+12 -8.11051e+12 -2.50213e+12 -1.18033e+13 -9.85432e+12 -4.97514e+12 -1.06317e+13 -9.34284e+12 -5.94931e+12 -6.51882e+12 -6.24681e+12 -5.76308e+12 -5.94806e+12 -5.33547e+12 -9.37262e+12 -7.32109e+12 -4.23868e+12 -1.14649e+13 -9.92745e+12 -1.09344e+13 -6.91058e+12 -5.37171e+12 -5.95854e+12 -6.62791e+12 -7.04388e+12 -1.02929e+13 -3.41962e+12 -5.02157e+12 -6.34565e+12 -6.34832e+12 -6.86647e+12 -4.33982e+12 -4.82518e+12 -2.74017e+12 -4.85908e+12 -6.51972e+12 -5.33547e+12 -7.87405e+12 -8.98842e+12 -8.28578e+12 -7.65704e+12 -1.0391e+13 -5.79106e+12 -5.30415e+12 -8.12643e+12 -6.62805e+12 -3.94864e+12 -8.13039e+12 -1.01993e+13 -7.79754e+12 -8.12571e+12 -4.59998e+12 -9.88987e+12 -6.29147e+12 -3.88016e+12 -5.11478e+12 -3.87398e+12 -6.02297e+12 -8.80505e+12 -6.4321e+12 -4.28975e+12 -6.32798e+12 -4.30796e+12 -2.27984e+12 -5.80918e+12 -5.24876e+12 -5.31021e+12 -4.45292e+12 -2.14611e+12 -5.68555e+12 -5.70012e+12 -4.12112e+12 -6.30943e+12 -5.31137e+12 -5.78582e+12 -5.59654e+12 -5.55678e+12 -3.78698e+12 -5.20754e+12 -4.13032e+12 -3.79702e+12 -5.51597e+12 -6.15064e+12 -6.39784e+12 -3.07377e+12 -4.42466e+12 -1.96485e+12 -4.35325e+12 -9.05979e+12 -3.27145e+12 -6.06667e+12 -5.3482e+12 -5.61495e+12 -6.98882e+12 -6.74164e+12 -6.99257e+12 -5.13701e+12 -6.68193e+12 -8.8474e+12 -6.78168e+12 -6.98166e+12 -4.55166e+12 -6.68506e+12 -7.99659e+12 -4.99899e+12 -4.60133e+12 -9.12505e+12 -8.52091e+12 -5.02943e+12 -9.36929e+12 -8.57642e+12 -1.10867e+13 -3.26495e+12 -1.07493e+13 -6.47202e+12 -6.03309e+12 -1.02842e+13 -9.58122e+12 -6.57764e+12 -6.26125e+12 -8.61036e+12 -3.31006e+12 -6.78115e+12 -5.45408e+12 -5.37355e+12 -5.98365e+12 -9.01795e+12 -6.34756e+12 -5.90789e+12 -7.85941e+12 -6.73864e+12 -5.07431e+12 -1.22897e+13 -9.21627e+12 -7.76978e+12 -6.82547e+12 -7.14534e+12 -4.80747e+12 -8.11052e+12 -6.45082e+12 -4.11136e+12 -6.55003e+12 -4.47016e+12 -7.35048e+12 -6.89622e+12 -6.45929e+12 -7.12656e+12 -5.16935e+12 -9.29222e+12 -5.48625e+12 -5.23186e+12 -6.0375e+12 -4.04574e+12 -6.87491e+12 -5.25061e+12 -8.5506e+12 -6.15774e+12 -7.61459e+12 -5.56882e+12 -6.61706e+12 -4.12024e+12 -4.45021e+12 -4.7339e+12 -5.34082e+12 -3.55556e+12 -4.7596e+12 -4.86829e+12 -1.86634e+12 -6.14968e+12 -2.40537e+12 -3.94191e+12 -5.10345e+12 -3.62611e+12 -5.79545e+12 -2.16484e+12 -2.31659e+12 -6.72241e+12 -3.64482e+12 -4.52485e+12 -5.6001e+12 -3.09967e+12 -3.7015e+12 -6.9451e+12 -3.09227e+12 -4.33685e+12 -3.66794e+12 -3.35403e+12 -7.66472e+12 -5.53547e+12 -8.22369e+12 -4.79422e+12 -6.30425e+12 -3.96383e+12 -4.96472e+12 -7.73533e+12 -7.49846e+12 -9.82835e+12 -5.28477e+12 -5.37e+12 -5.4505e+12 -7.65405e+12 -4.74624e+12 -3.72989e+12 -6.30356e+12 -7.07479e+12 -4.64393e+12 -6.25002e+12 -5.69475e+12 -5.7712e+12 -4.93515e+12 -2.533e+12 -5.52523e+12 -5.19676e+12 -6.89375e+12 -9.8795e+12 -7.89908e+12 -7.95294e+12 -7.94779e+12 -1.03563e+13 -1.3559e+13 -4.13265e+12 -3.20064e+12 -6.71159e+12 -6.04627e+12 -7.4775e+12 -9.46387e+12 -3.85426e+12 -1.05052e+13 -9.75896e+12 -8.99384e+12 -1.14058e+13 -1.24337e+13 -8.59623e+12 -8.5451e+12 -1.05306e+13 -4.95705e+12 -7.35105e+12 -4.7218e+12 -5.57393e+12 -8.35157e+12 -8.80196e+12 -7.65895e+12 -7.38474e+12 -6.65543e+12 -6.70853e+12 -5.25432e+12 -4.5014e+12 -9.04953e+12 -5.51156e+12 -6.18918e+12 -6.3822e+12 -6.96076e+12 -5.4806e+12 -7.75859e+12 -6.05833e+12 -5.93947e+12 -4.89066e+12 -5.21266e+12 -3.04587e+12 -4.11444e+12 -6.19523e+12 -3.46951e+12 -2.75991e+12 -7.21337e+12 -8.39119e+12 -4.11867e+12 -3.37471e+12 -4.23766e+12 -6.01897e+12 -7.03603e+12 -2.83186e+12 -4.19947e+12 -4.56606e+12 -5.76349e+12 -7.3879e+12 -6.70572e+12 -3.89468e+12 -6.33511e+12 -3.64002e+12 -5.73485e+12 -4.25079e+12 -5.44279e+12 -4.58675e+12 -5.68095e+12 -4.62835e+12 -7.49746e+12 -1.01193e+13 -6.42508e+12 -8.04009e+12 -5.99424e+12 -7.4215e+12 -5.12304e+12 -7.46274e+12 -5.02057e+12 -6.23141e+12 -7.2118e+12 -6.81679e+12 -5.99693e+12 -8.8452e+12 -5.14086e+12 -5.81627e+12 -6.32792e+12 -6.72301e+12 -8.13693e+12 -5.67528e+12 -7.75372e+12 -5.97216e+12 -1.36588e+13 -8.79127e+12 -7.93601e+12 -9.07439e+12 -7.85898e+12 -8.87582e+12 -7.33732e+12 -1.178e+13 -4.0338e+12 -5.88451e+12 -2.55649e+12 -2.71307e+12 -5.45451e+12 -3.90995e+12 -4.84963e+12 -7.5023e+12 -1.11369e+13 -1.28274e+13 -7.39252e+12 -8.3799e+12 -1.00558e+13 -6.51487e+12 -7.84107e+12 -6.20796e+12 -5.48102e+12 -3.60898e+12 -5.53978e+12 -8.5442e+12 -5.93532e+12 -8.19317e+12 -7.65177e+12 -5.05709e+12 -9.00109e+12 -5.51816e+12 -6.37509e+12 -6.49295e+12 -6.9293e+12 -6.66312e+12 -6.70252e+12 -7.3826e+12 -5.75806e+12 -4.39339e+12 -8.71402e+12 -5.20303e+12 -6.93924e+12 -1.09044e+13 -4.59199e+12 -3.74929e+12 -7.35028e+12 -6.27553e+12 -3.65092e+12 -2.20626e+12 -3.20542e+12 -4.62908e+12 -5.8215e+12 -6.36533e+12 -7.27272e+12 -4.50099e+12 -4.47932e+12 -3.81289e+12 -6.23406e+12 -3.64158e+12 -4.41787e+12 -4.91497e+12 -3.72966e+12 -5.70089e+12 -7.69608e+12 -4.33448e+12 -3.94448e+12 -4.82661e+12 -4.30623e+12 -8.36018e+12 -3.91519e+12 -3.99936e+12 -5.8601e+12 -5.43188e+12 -5.91799e+12 -2.65041e+12 -4.11543e+12 -4.02511e+12 -7.36046e+12 -4.11483e+12 -4.40297e+12 -5.70954e+12 -8.94269e+12 -3.87983e+12 -9.25866e+12 -7.6236e+12 -5.54144e+12 -5.69226e+12 -9.0826e+12 -9.15488e+12 -4.51053e+12 -6.8839e+12 -6.42631e+12 -8.40429e+12 -1.20468e+13 -7.78605e+12 -4.66056e+12 -1.13114e+13 -8.72084e+12 -6.888e+12 -1.03586e+13 -6.9081e+12 -1.04941e+13 -9.55403e+12 -8.13444e+12 -8.28493e+12 -4.00386e+12 -4.91607e+12 -6.99299e+12 -3.63662e+12 -5.38733e+12 -8.19764e+12 -5.36367e+12 -9.02426e+12 -6.47851e+12 -5.06018e+12 -5.22573e+12 -8.9995e+12 -8.7599e+12 -5.47222e+12 -5.62721e+12 -8.3365e+12 -9.55417e+12 -1.05082e+13 -1.05913e+13 -4.63778e+12 -5.4871e+12 -1.15492e+13 -8.27594e+12 -7.12423e+12 -4.68743e+12 -1.0929e+13 -5.23672e+12 -7.07492e+12 -6.66606e+12 -8.59576e+12 -5.68856e+12 -6.34108e+12 -4.72497e+12 -6.92249e+12 -5.35081e+12 -6.66678e+12 -3.01582e+12 -1.05238e+13 -3.12442e+12 -7.68856e+12 -2.73708e+12 -7.94985e+12 -4.44476e+12 -5.22085e+12 -3.11299e+12 -5.34351e+12 -5.62776e+12 -4.8131e+12 -5.80438e+12 -2.33901e+12 -4.82126e+12 -3.25663e+12 -5.53731e+12 -4.18697e+12 -2.3859e+12 -5.05406e+12 -4.50595e+12 -6.75834e+12 -1.36296e+12 -4.2174e+12 -4.54321e+12 -4.52823e+12 -7.1546e+12 -7.46039e+12 -5.27378e+12 -7.33418e+12 -6.12633e+12 -6.54528e+12 -4.98193e+12 -6.69189e+12 -4.18145e+12 -2.53877e+12 -3.24084e+12 -5.55634e+12 -7.42786e+12 -6.32924e+12 -5.54199e+12 -4.91952e+12 -5.65451e+12 -4.75665e+12 -4.42647e+12 -4.26429e+12 -4.84617e+12 -8.08015e+12 -5.02763e+12 -6.17135e+12 -5.68472e+12 -5.61268e+12 -5.39756e+12 -1.12078e+13 -9.11431e+12 -7.70521e+12 -5.13564e+12 -8.19844e+12 -8.39151e+12 -7.92353e+12 -6.89253e+12 -7.03016e+12 -8.64128e+12 -6.91394e+12 -1.17808e+13 -8.28069e+12 -8.48177e+12 -6.3909e+12 -6.70594e+12 -9.65354e+12 -1.03608e+13 -7.60086e+12 -8.76512e+12 -8.58063e+12 -4.54745e+12 -6.48404e+12 -6.04068e+12 -3.06782e+12 -4.79195e+12 -4.24869e+12 -4.2245e+12 -9.76267e+12 -5.73411e+12 -7.8884e+12 -9.82432e+12 -8.45645e+12 -6.29665e+12 -7.96004e+12 -1.02116e+13 -6.56909e+12 -7.55268e+12 -7.06999e+12 -1.21121e+13 -7.00678e+12 -5.67467e+12 -5.07831e+12 -4.68613e+12 -8.77581e+12 -7.78172e+12 -6.02937e+12 -6.84857e+12 -9.26258e+12 -7.53522e+12 -4.77282e+12 -5.40597e+12 -7.67404e+12 -6.41198e+12 -6.49341e+12 -5.38703e+12 -2.55154e+12 -5.66151e+12 -4.46634e+12 -3.52606e+12 -4.46574e+12 -4.86279e+12 -8.07067e+12 -7.44575e+12 -3.73472e+12 -5.40039e+12 -5.5119e+12 -5.94006e+12 -4.99688e+12 -4.94264e+12 -2.54994e+12 -3.70696e+12 -5.09066e+12 -5.2909e+12 -6.56131e+12 -5.58813e+12 -5.60221e+12 -5.17188e+12 -3.91356e+12 -2.95614e+12 -4.37917e+12 -4.6525e+12 -3.43566e+12 -6.49882e+12 -3.98701e+12 -4.52921e+12 -3.56546e+12 -3.98338e+12 -4.46159e+12 -5.41961e+12 -5.82532e+12 -4.30906e+12 -5.203e+12 -2.10501e+12 -3.68215e+12 -3.63741e+12 -8.02623e+12 -4.5077e+12 -2.14105e+12 -4.90264e+12 -2.083e+12 -5.85557e+12 -5.95013e+12 -5.73072e+12 -4.84225e+12 -6.46361e+12 -7.65842e+12 -9.34018e+12 -5.06672e+12 -4.67063e+12 -6.79917e+12 -3.87815e+12 -8.45173e+12 -7.41498e+12 -5.61285e+12 -4.97718e+12 -8.30018e+12 -7.89834e+12 -6.89577e+12 -8.25443e+12 -8.76533e+12 -7.3363e+12 -7.0418e+12 -1.08776e+13 -1.27659e+13 -1.02887e+13 -7.67887e+12 -6.51351e+12 -9.43169e+12 -4.54654e+12 -4.4823e+12 -1.14638e+13 -5.51617e+12 -5.85881e+12 -1.3006e+13 -6.69381e+12 -4.82789e+12 -8.59115e+12 -8.90761e+12 -9.89658e+12 -5.9894e+12 -4.70407e+12 -6.69589e+12 -9.25653e+12 -9.68573e+12 -9.299e+12 -4.89143e+12 -6.67059e+12 -4.16261e+12 -5.72974e+12 -6.84946e+12 -7.05787e+12 -1.08509e+13 -4.98395e+12 -5.41574e+12 -9.10588e+12 -4.33283e+12 -2.42289e+12 -5.86018e+12 -8.50467e+12 -3.78754e+12 -5.90558e+12 -8.61072e+12 -8.16169e+12 -8.04578e+12 -8.78565e+12 -6.30648e+12 -7.49048e+12 -6.31982e+12 -4.76845e+12 -6.59321e+12 -7.43677e+12 -5.62918e+12 -3.6077e+12 -5.62301e+12 -4.74222e+12 -5.02969e+12 -3.58503e+12 -2.70341e+12 -7.29385e+12 -6.58878e+12 -4.3934e+12 -4.98357e+12 -3.77225e+12 -4.21147e+12 -6.06804e+12 -2.77383e+12 -3.6195e+12 -4.44831e+12 -4.48047e+12 -2.99427e+12 -8.26344e+12 -4.17428e+12 -2.90486e+12 -4.143e+12 -4.43183e+12 -5.37099e+12 -5.11925e+12 -2.38861e+12 -4.2e+12 -3.27013e+12 -3.18975e+12 -6.54094e+12 -5.71998e+12 -6.08715e+12 -5.60555e+12 -6.14649e+12 -3.28083e+12 -4.54624e+12 -4.13221e+12 -6.17206e+12 -7.69058e+12 -2.72608e+12 -4.468e+12 -7.91316e+12 -3.80196e+12 -4.95947e+12 -5.88969e+12 -6.09783e+12 -4.45319e+12 -7.25487e+12 -4.19828e+12 -6.91923e+12 -8.2248e+12 -8.10329e+12 -2.21319e+12 -5.19899e+12 -4.54433e+12 -6.90813e+12 -7.42198e+12 -8.57658e+12 -7.05952e+12 -4.50111e+12 -6.58853e+12 -7.5954e+12 -8.96186e+12 -8.56188e+12 -6.58239e+12 -6.06812e+12 -4.31077e+12 -2.8902e+12 -1.06997e+13 -5.26781e+12 -7.13888e+12 -8.29541e+12 -6.42414e+12 -8.82559e+12 -7.47508e+12 -6.80172e+12 -7.54428e+12 -5.04877e+12 -7.23064e+12 -7.79482e+12 -8.20737e+12 -8.05729e+12 -8.4605e+12 -5.58066e+12 -1.09604e+13 -8.12139e+12 -1.08879e+13 -1.07987e+13 -6.36649e+12 -7.32525e+12 -7.8918e+12 -8.05509e+12 -7.31195e+12 -5.66947e+12 -4.76815e+12 -4.71491e+12 -1.07827e+13 -3.99566e+12 -4.53247e+12 -7.62837e+12 -5.46378e+12 -3.56452e+12 -4.69766e+12 -7.00256e+12 -8.11562e+12 -4.95721e+12 -2.2474e+12 -4.29659e+12 -8.41381e+12 -3.81414e+12 -5.13177e+12 -5.17966e+12 -3.56231e+12 -6.91653e+12 -6.68775e+12 -6.4134e+12 -2.4294e+12 -3.58012e+12 -5.82419e+12 -4.4166e+12 -4.84235e+12 -6.97368e+12 -3.87698e+12 -5.41106e+12 -5.04345e+12 -3.15485e+12 -6.05791e+12 -3.74981e+12 -1.99113e+12 -2.42317e+12 -6.57228e+12 -4.81509e+12 -4.3506e+12 -4.20393e+12 -4.64941e+12 -3.14025e+12 -4.32169e+12 -3.09818e+12 -5.43029e+12 -5.79788e+12 -5.15037e+12 -3.3534e+12 -6.05569e+12 -8.66914e+12 -3.95555e+12 -2.79624e+12 -5.58542e+12 -3.87359e+12 -5.96585e+12 -7.05726e+12 -5.76813e+12 -4.05611e+12 -5.76365e+12 -3.89791e+12 -5.81649e+12 -4.93907e+12 -4.8973e+12 -3.40367e+12 -7.06554e+12 -5.93566e+12 -6.01875e+12 -4.7229e+12 -8.13384e+12 -4.81831e+12 -3.0015e+12 -6.28462e+12 -5.71737e+12 -3.57384e+12 -7.03968e+12 -3.63707e+12 -6.51724e+12 -5.72578e+12 -5.39603e+12 -6.33369e+12 -6.84492e+12 -2.9444e+12 -4.99391e+12 -5.49439e+12 -6.34106e+12 -3.40645e+12 -7.52197e+12 -5.92143e+12 -3.62074e+12 -7.10546e+12 -6.42746e+12 -5.27112e+12 -3.22854e+12 -5.67499e+12 -3.4532e+12 -5.46961e+12 -6.24215e+12 -3.58452e+12 -6.97288e+12 -9.36099e+12 -7.54879e+12 -6.24511e+12 -7.57715e+12 -6.88371e+12 -7.67174e+12 -8.93301e+12 -4.36439e+12 -7.98668e+12 -4.87996e+12 -3.98205e+12 -7.69057e+12 -6.55386e+12 -6.37555e+12 -7.66551e+12 -8.91316e+12 -8.39971e+12 -2.5934e+12 -6.73821e+12 -1.00625e+13 -5.34808e+12 -7.38684e+12 -7.47443e+12 -8.10967e+12 -4.88198e+12 -7.38054e+12 -5.06496e+12 -6.35885e+12 -4.04785e+12 -4.97481e+12 -7.58176e+12 -5.7201e+12 -9.75442e+12 -5.99124e+12 -3.90729e+12 -6.38731e+12 -7.53198e+12 -4.04546e+12 -4.61027e+12 -5.93338e+12 -9.06843e+12 -8.85922e+12 -8.58965e+12 -4.74443e+12 -6.85064e+12 -5.4746e+12 -6.2378e+12 -5.31075e+12 -1.75238e+12 -4.35136e+12 -7.30277e+12 -5.22609e+12 -4.14145e+12 -4.21578e+12 -3.15434e+12 -5.94703e+12 -3.60868e+12 -3.51041e+12 -4.69763e+12 -5.51428e+12 -4.05376e+12 -4.54153e+12 -3.83391e+12 -3.0621e+12 -2.73261e+12 -2.21672e+12 -2.79417e+12 -4.99197e+12 -6.07104e+12 -4.38579e+12 -2.70795e+12 -2.88946e+12 -4.15314e+12 -3.86203e+12 -4.07641e+12 -4.3009e+12 -4.52031e+12 -1.95584e+12 -4.65427e+12 -2.57822e+12 -2.65522e+12 -4.95324e+12 -1.81102e+12 -3.0631e+12 -4.59534e+12 -4.33212e+12 -7.08675e+12 -2.93967e+12 -4.62024e+12 -5.6068e+12 -3.19962e+12 -4.29649e+12 -3.40685e+12 -4.14941e+12 -4.26511e+12 -2.72184e+12 -4.11409e+12 -6.43427e+12 -6.34297e+12 -4.52786e+12 -5.2132e+12 -4.20857e+12 -3.70672e+12 -3.48181e+12 -5.59037e+12 -5.71406e+12 -4.37569e+12 -4.49106e+12 -6.21407e+12 -5.11969e+12 -4.01954e+12 -3.37425e+12 -5.30978e+12 -1.58893e+12 -2.02429e+12 -5.27139e+12 -4.00768e+12 -2.62575e+12 -7.21682e+12 -8.46726e+12 -7.20985e+12 -3.93219e+12 -6.49024e+12 -6.81344e+12 -1.06096e+13 -1.05518e+13 -9.29497e+12 -4.54658e+12 -7.29047e+12 -9.56139e+12 -9.38808e+12 -7.67646e+12 -8.06479e+12 -5.3615e+12 -7.27353e+12 -5.78779e+12 -6.74636e+12 -6.96848e+12 -6.7972e+12 -5.45088e+12 -5.39362e+12 -7.25027e+12 -4.45391e+12 -6.96692e+12 -4.04584e+12 -4.13305e+12 -2.25524e+12 -5.84309e+12 -2.38546e+12 -7.83701e+12 -4.50258e+12 -6.3058e+12 -5.30276e+12 -1.08576e+13 -4.94702e+12 -9.1382e+12 -6.71116e+12 -1.06984e+13 -8.88213e+12 -4.05705e+12 -5.53448e+12 -4.45445e+12 -6.28758e+12 -7.08724e+12 -8.21286e+12 -6.54668e+12 -6.04775e+12 -6.76426e+12 -6.20015e+12 -6.58931e+12 -7.93808e+12 -5.73245e+12 -5.3861e+12 -4.70168e+12 -7.12191e+12 -5.79741e+12 -5.89067e+12 -3.90949e+12 -3.19815e+12 -5.19246e+12 -4.88645e+12 -3.59831e+12 -3.14441e+12 -4.96395e+12 -4.44218e+12 -4.04621e+12 -4.0652e+12 -3.95694e+12 -5.08608e+12 -5.9255e+12 -9.49335e+12 -5.50657e+12 -5.20789e+12 -5.23572e+12 -5.14093e+12 -3.57634e+12 -6.00662e+12 -2.7568e+12 -5.59389e+12 -2.1808e+12 -5.51746e+12 -4.22317e+12 -2.03806e+12 -3.50373e+12 -5.50562e+12 -3.00891e+12 -2.50494e+12 -5.00033e+12 -3.36509e+12 -2.48419e+12 -3.53713e+12 -4.57169e+12 -6.84899e+12 -2.67277e+12 -3.11209e+12 -4.88813e+12 -4.53326e+12 -4.8369e+12 -1.99597e+12 -1.32937e+12 -4.4642e+12 -4.81227e+12 -1.75925e+12 -6.74063e+12 -8.32354e+12 -3.63463e+12 -4.19445e+12 -4.33474e+12 -2.76648e+12 -6.25086e+12 -5.56142e+12 -6.62704e+12 -5.47724e+12 -4.35946e+12 -3.63257e+12 -5.79809e+12 -2.85392e+12 -5.66105e+12 -8.62428e+12 -8.11914e+12 -5.39776e+12 -9.12637e+12 -5.04203e+12 -7.37187e+12 -9.28215e+12 -9.02218e+12 -7.76842e+12 -6.95858e+12 -7.24938e+12 -7.58999e+12 -8.43768e+12 -1.02464e+13 -9.4557e+12 -1.0047e+13 -5.88e+12 -7.12108e+12 -9.08373e+12 -8.5031e+12 -7.64085e+12 -8.91281e+12 -7.88115e+12 -5.46178e+12 -5.18739e+12 -6.11622e+12 -5.24522e+12 -7.63109e+12 -4.65011e+12 -4.67202e+12 -5.3827e+12 -4.11196e+12 -3.67236e+12 -5.46709e+12 -9.63204e+12 -6.11228e+12 -6.05715e+12 -1.00067e+13 -6.89118e+12 -7.82986e+12 -8.13814e+12 -3.51905e+12 -1.29281e+13 -6.96103e+12 -4.95792e+12 -9.21148e+12 -4.20568e+12 -5.36597e+12 -6.30195e+12 -3.89936e+12 -9.69793e+12 -8.62032e+12 -4.66775e+12 -5.11739e+12 -4.97105e+12 -5.5919e+12 -1.80141e+12 -3.81865e+12 -4.81475e+12 -7.67699e+12 -8.92545e+12 -7.71931e+12 -5.128e+12 -5.49494e+12 -2.31587e+12 -5.00746e+12 -4.60529e+12 -3.68005e+12 -3.20509e+12 -4.59446e+12 -5.47289e+12 -5.18343e+12 -4.38695e+12 -4.35639e+12 -4.44636e+12 -8.13479e+12 -5.79583e+12 -8.01249e+12 -2.78998e+12 -4.48366e+12 -3.84978e+12 -5.88457e+12 -5.93805e+12 -4.03516e+12 -4.26048e+12 -4.33207e+12 -4.13442e+12 -3.22709e+12 -6.78621e+12 -3.73782e+12 -3.52913e+12 -6.21165e+12 -6.18695e+12 -5.58868e+12 -4.09954e+12 -3.48326e+12 -3.84273e+12 -4.0132e+12 -3.10696e+12 -1.67916e+12 -4.58711e+12 -4.90131e+12 -4.59887e+12 -2.90418e+12 -4.41441e+12 -4.76504e+12 -4.38127e+12 -3.225e+12 -5.59884e+12 -5.61917e+12 -5.97298e+12 -2.90554e+12 -4.89364e+12 -3.33623e+12 -3.14563e+12 -2.7221e+12 -4.16248e+12 -2.97104e+12 -2.47231e+12 -4.25994e+12 -3.40894e+12 -3.13131e+12 -4.61029e+12 -3.40652e+12 -6.21383e+12 -6.98042e+12 -4.02413e+12 -5.68483e+12 -6.51758e+12 -4.6759e+12 -1.88783e+12 -5.44926e+12 -8.60936e+12 -5.92858e+12 -5.74028e+12 -4.41973e+12 -6.62274e+12 -3.29521e+12 -9.35458e+12 -3.34093e+12 -9.70779e+12 -8.73435e+12 -6.6167e+12 -2.58413e+12 -5.38895e+12 -2.08509e+12 -5.90757e+12 -1.10579e+13 -8.2566e+12 -6.73653e+12 -5.77626e+12 -3.98017e+12 -1.02716e+13 -7.74576e+12 -5.55837e+12 -5.50206e+12 -6.6835e+12 -9.2772e+12 -4.53362e+12 -5.12427e+12 -6.93152e+12 -5.90132e+12 -4.61907e+12 -5.12317e+12 -6.87724e+12 -7.87715e+12 -5.03491e+12 -5.0459e+12 -6.03577e+12 -5.35927e+12 -4.12851e+12 -3.75276e+12 -6.40618e+12 -5.59108e+12 -7.68508e+12 -4.80767e+12 -2.9017e+12 -8.38166e+12 -6.37825e+12 -1.08292e+13 -5.99633e+12 -1.60647e+13 -8.12721e+12 -5.44327e+12 -8.1828e+12 -7.58684e+12 -8.12853e+12 -4.7257e+12 -5.98623e+12 -8.45888e+12 -5.80802e+12 -7.05606e+12 -6.47748e+12 -4.04932e+12 -6.33956e+12 -8.51959e+12 -5.93045e+12 -7.43779e+12 -8.50626e+12 -5.50744e+12 -2.82074e+12 -5.45209e+12 -6.15034e+12 -2.71812e+12 -4.54977e+12 -5.73131e+12 -5.29659e+12 -3.07588e+12 -7.48782e+12 -5.4329e+12 -5.14483e+12 -8.08693e+12 -5.54219e+12 -5.38836e+12 -4.09704e+12 -4.09281e+12 -3.4166e+12 -3.57688e+12 -4.58277e+12 -3.96874e+12 -4.95307e+12 -2.17899e+12 -4.47395e+12 -3.96835e+12 -4.96414e+12 -2.61215e+12 -5.47114e+12 -4.39279e+12 -5.12485e+12 -4.99581e+12 -1.962e+12 -4.11267e+12 -4.26617e+12 -4.15146e+12 -2.70285e+12 -2.54468e+12 -1.6091e+12 -3.20036e+12 -3.18859e+12 -3.04267e+12 -2.93466e+12 -4.1372e+12 -2.47037e+12 -5.57357e+12 -3.08054e+12 -4.04703e+12 -2.26621e+12 -3.54106e+12 -1.81988e+12 -3.22504e+12 -1.45153e+12 -4.17024e+12 -6.06806e+12 -4.95613e+12 -3.69119e+12 -7.36534e+12 -4.00635e+12 -7.59704e+12 -4.46928e+12 -6.44462e+12 -5.35169e+12 -5.3125e+12 -5.85628e+12 -8.19881e+12 -6.19469e+12 -4.57729e+12 -5.61706e+12 -6.39021e+12 -4.6018e+12 -5.62435e+12 -2.69868e+12 -6.95561e+12 -4.12046e+12 -4.06269e+12 -8.50543e+12 -5.41882e+12 -6.19428e+12 -5.62254e+12 -3.62585e+12 -5.87914e+12 -3.85391e+12 -7.99298e+12 -5.32981e+12 -4.49829e+12 -8.12031e+12 -6.53473e+12 -6.68362e+12 -7.15575e+12 -8.64846e+12 -5.20502e+12 -6.65239e+12 -8.32972e+12 -6.39952e+12 -5.96596e+12 -4.79743e+12 -8.85177e+12 -8.80466e+12 -2.82274e+12 -4.36362e+12 -4.89462e+12 -7.63097e+12 -3.8773e+12 -5.87777e+12 -7.73491e+12 -4.33163e+12 -3.61679e+12 -5.48316e+12 -4.66423e+12 -8.3484e+12 -8.8146e+12 -5.14214e+12 -7.10393e+12 -7.46997e+12 -4.49532e+12 -4.99568e+12 -7.48798e+12 -1.22364e+13 -1.04392e+13 -5.24414e+12 -6.36519e+12 -9.74714e+12 -4.85201e+12 -8.70658e+12 -4.8924e+12 -6.87424e+12 -7.74887e+12 -7.30472e+12 -6.9418e+12 -1.0706e+13 -4.57802e+12 -3.25894e+12 -7.12061e+12 -5.46356e+12 -5.00175e+12 -3.67044e+12 -3.36153e+12 -5.13249e+12 -4.56095e+12 -3.84675e+12 -4.87405e+12 -5.29142e+12 -2.50289e+12 -3.69995e+12 -3.32407e+12 -8.12469e+12 -7.5259e+12 -7.01218e+12 -3.03507e+12 -2.95753e+12 -3.55355e+12 -2.7835e+12 -3.24674e+12 -4.5392e+12 -3.55013e+12 -2.73897e+12 -4.55213e+12 -2.4587e+12 -4.96535e+12 -2.80688e+12 -2.34665e+12 -3.93774e+12 -4.50281e+12 -3.30644e+12 -2.76753e+12 -1.69348e+12 -1.4171e+12 -1.69292e+12 -2.52124e+12 -3.26522e+12 -3.24847e+12 -4.5128e+12 -3.43867e+12 -3.29678e+12 -1.66517e+12 -3.2262e+12 -3.46129e+12 -6.09307e+12 -1.61338e+12 -2.65266e+12 -3.27433e+12 -2.99745e+12 -1.70441e+12 -3.1268e+12 -2.10061e+12 -4.03673e+12 -3.37496e+12 -3.15738e+12 -2.82538e+12 -3.74185e+12 -4.02027e+12 -3.48124e+12 -3.78863e+12 -2.91797e+12 -4.28205e+12 -4.37393e+12 -4.3599e+12 -3.08631e+12 -4.36803e+12 -4.48056e+12 -5.69633e+12 -6.43223e+12 -3.17322e+12 -5.97685e+12 -5.14334e+12 -7.1037e+12 -7.37225e+12 -4.13495e+12 -4.32386e+12 -5.21284e+12 -5.59797e+12 -4.13833e+12 -3.59295e+12 -6.02742e+12 -4.67539e+12 -6.81506e+12 -4.59712e+12 -5.45267e+12 -7.55501e+12 -8.10991e+12 -7.35723e+12 -6.87814e+12 -7.76362e+12 -3.95482e+12 -5.68531e+12 -1.12182e+13 -6.6009e+12 -5.69661e+12 -5.48303e+12 -4.66686e+12 -4.2783e+12 -5.80595e+12 -8.69889e+12 -9.10029e+12 -1.04323e+13 -6.86625e+12 -6.13113e+12 -7.80704e+12 -3.63836e+12 -4.9113e+12 -3.24653e+12 -4.53913e+12 -4.11138e+12 -3.36274e+12 -6.038e+12 -6.68962e+12 -4.06981e+12 -6.12233e+12 -6.83e+12 -6.90085e+12 -9.22047e+12 -6.35326e+12 -5.74779e+12 -3.60112e+12 -6.83889e+12 -3.52625e+12 -3.70138e+12 -6.07319e+12 -4.71905e+12 -4.96948e+12 -3.45139e+12 -7.35937e+12 -6.12665e+12 -5.04754e+12 -4.59084e+12 -3.00869e+12 -6.02266e+12 -6.1776e+12 -6.38278e+12 -5.81886e+12 -4.14381e+12 -5.00011e+12 -4.88953e+12 -8.72857e+12 -4.04131e+12 -4.9208e+12 -3.4721e+12 -4.10486e+12 -5.09412e+12 -7.89307e+12 -5.35291e+12 -4.30553e+12 -6.56625e+12 -6.95786e+12 -5.64168e+12 -4.71332e+12 -4.58638e+12 -3.86234e+12 -5.06529e+12 -4.17521e+12 -5.02675e+12 -3.7185e+12 -5.59178e+12 -2.58784e+12 -2.40511e+12 -3.18018e+12 -5.1914e+12 -2.04299e+12 -2.18661e+12 -1.86659e+12 -4.9035e+12 -2.89408e+12 -2.85166e+12 -3.1157e+12 -3.84633e+12 -5.41415e+12 -3.589e+12 -3.64659e+12 -2.04227e+12 -3.12194e+12 -2.27628e+12 -2.7977e+12 -1.52162e+12 -4.37919e+12 -2.79759e+12 -2.91666e+12 -2.08603e+12 -2.57492e+12 -2.58224e+12 -1.81636e+12 -1.53851e+12 -3.52542e+12 -1.40664e+12 -3.47469e+12 -2.13911e+12 -2.40391e+12 -4.79728e+12 -1.91536e+12 -3.56551e+12 -3.15411e+12 -2.97477e+12 -5.46059e+12 -5.66304e+12 -4.31076e+12 -2.26481e+12 -3.14457e+12 -4.04594e+12 -2.95758e+12 -5.19061e+12 -4.57289e+12 -6.89237e+12 -7.07385e+12 -7.06625e+12 -1.83063e+12 -3.62422e+12 -3.43226e+12 -5.73126e+12 -5.50841e+12 -9.00977e+12 -2.91714e+12 -2.24365e+12 -3.28894e+12 -6.16678e+12 -6.99368e+12 -6.20941e+12 -2.43912e+12 -5.24359e+12 -4.27265e+12 -1.13458e+13 -3.03925e+12 -4.48828e+12 -7.00504e+12 -5.82676e+12 -8.73759e+12 -4.69358e+12 -5.16166e+12 -4.44287e+12 -4.91316e+12 -4.48805e+12 -5.27063e+12 -7.66354e+12 -9.12187e+12 -6.52983e+12 -6.12719e+12 -6.86386e+12 -5.44235e+12 -8.10621e+12 -7.46193e+12 -6.52244e+12 -5.03125e+12 -5.35814e+12 -2.745e+12 -1.8092e+12 -2.4924e+12 -4.47208e+12 -5.11789e+12 -6.0613e+12 -7.06029e+12 -5.09288e+12 -5.94063e+12 -4.54058e+12 -3.32919e+12 -3.98876e+12 -3.53867e+12 -8.0093e+12 -5.10784e+12 -7.715e+12 -7.63775e+12 -5.87591e+12 -6.23288e+12 -7.29405e+12 -5.95519e+12 -4.53674e+12 -2.84877e+12 -4.04618e+12 -4.97596e+12 -5.88342e+12 -4.17837e+12 -3.38616e+12 -3.34856e+12 -6.04951e+12 -5.96942e+12 -5.22059e+12 -4.99197e+12 -2.94525e+12 -4.79897e+12 -5.6264e+12 -2.23613e+12 -3.92846e+12 -1.97017e+12 -4.75653e+12 -1.57274e+12 -3.34183e+12 -7.50251e+12 -5.2613e+12 -6.0553e+12 -3.85487e+12 -4.38107e+12 -3.5421e+12 -4.36615e+12 -4.77515e+12 -5.4607e+12 -6.14977e+12 -3.33688e+12 -3.33835e+12 -4.12753e+12 -3.67445e+12 -5.23578e+12 -3.72075e+12 -4.14021e+12 -1.71787e+12 -3.40024e+12 -2.58132e+12 -2.92918e+12 -2.70455e+12 -1.65322e+12 -3.9482e+12 -3.4891e+12 -1.7657e+12 -3.11472e+12 -2.65325e+12 -3.43623e+12 -2.66964e+12 -4.52682e+12 -2.84654e+12 -2.46749e+12 -1.3189e+12 -664286000000.0 -2.55945e+12 -2.07586e+12 -2.91199e+12 -2.08767e+12 -4.09535e+12 -4.83955e+12 -1.83153e+12 -2.28882e+12 -2.46352e+12 -3.6516e+12 -3.87622e+12 -4.01572e+12 -2.17613e+12 -2.67192e+12 -2.51923e+12 -2.53797e+12 -4.02694e+12 -2.16546e+12 -4.48037e+12 -3.15499e+12 -2.02053e+12 -3.557e+12 -3.19187e+12 -2.46323e+12 -2.10314e+12 -3.4471e+12 -3.70966e+12 -3.39246e+12 -3.41094e+12 -5.22933e+12 -4.27702e+12 -2.94473e+12 -3.66042e+12 -4.76449e+12 -6.48196e+12 -2.80595e+12 -3.63057e+12 -3.96422e+12 -7.25258e+12 -6.98941e+12 -4.48242e+12 -3.62498e+12 -9.54931e+12 -5.91921e+12 -6.08475e+12 -3.36594e+12 -6.70748e+12 -6.72082e+12 -5.74947e+12 -3.59061e+12 -9.00293e+12 -6.21776e+12 -6.56813e+12 -5.41996e+12 -4.52514e+12 -3.79959e+12 -8.34492e+12 -4.04699e+12 -6.18156e+12 -1.03794e+13 -6.9086e+12 -9.28698e+12 -1.14884e+13 -8.34099e+12 -4.27736e+12 -4.88296e+12 -7.2161e+12 -8.00392e+12 -7.1048e+12 -5.05266e+12 -1.22323e+13 -6.55447e+12 -5.64908e+12 -6.23059e+12 -7.34622e+12 -4.25616e+12 -7.67278e+12 -6.74201e+12 -4.94127e+12 -6.44527e+12 -4.95305e+12 -5.0218e+12 -5.14553e+12 -4.99906e+12 -8.18511e+12 -9.0797e+12 -6.06284e+12 -5.64668e+12 -7.14578e+12 -4.16988e+12 -7.64201e+12 -6.31407e+12 -4.50831e+12 -5.28163e+12 -4.75678e+12 -3.5562e+12 -4.84124e+12 -3.30379e+12 -5.22148e+12 -4.97932e+12 -4.60162e+12 -2.69277e+12 -7.10001e+12 -3.78243e+12 -7.08187e+12 -4.5073e+12 -5.90433e+12 -4.6726e+12 -3.2775e+12 -2.76288e+12 -3.63947e+12 -2.92683e+12 -3.40427e+12 -2.903e+12 -2.12714e+12 -6.86676e+12 -3.49251e+12 -2.8454e+12 -1.72805e+12 -3.04217e+12 -3.68768e+12 -638111000000.0 -4.66543e+12 -5.22197e+12 -4.20555e+12 -4.40374e+12 -1.12704e+12 -2.9666e+12 -2.49794e+12 -2.06363e+12 -1.32014e+12 -2.5044e+12 -2.53207e+12 -2.45505e+12 -1.62549e+12 -3.01431e+12 -1.99041e+12 -3.60113e+12 -3.56478e+12 -1.82441e+12 -1.8415e+12 -2.34318e+12 -1.05398e+12 -2.90072e+12 -2.60869e+12 -3.6507e+12 -1.16037e+12 -2.06231e+12 -3.48989e+12 -2.55484e+12 -3.6839e+12 -2.91677e+12 -3.23649e+12 -5.17974e+12 -1.99328e+12 -2.188e+12 -1.84839e+12 -2.35833e+12 -3.44313e+12 -1.60324e+12 -2.52535e+12 -746197000000.0 -1.24514e+12 -3.32022e+12 -3.2538e+12 -3.18758e+12 -1.53456e+12 -2.03803e+12 -2.06583e+12 -3.47718e+12 -2.14003e+12 -1.59421e+12 -1.82125e+12 -3.17109e+12 -3.52647e+12 -3.28059e+12 -7.87853e+12 -3.43113e+12 -4.75197e+12 -4.71046e+12 -5.08397e+12 -4.50244e+12 -2.75901e+12 -2.50763e+12 -4.24128e+12 -5.13517e+12 -6.54509e+12 -7.23811e+12 -3.35032e+12 -2.12335e+12 -3.15615e+12 -5.90931e+12 -4.90543e+12 -3.94319e+12 -4.81272e+12 -6.56034e+12 -6.80621e+12 -7.19992e+12 -2.02905e+12 -4.91542e+12 -8.14918e+12 -4.01863e+12 -8.04525e+12 -4.56623e+12 -5.61846e+12 -5.23385e+12 -5.32053e+12 -6.48353e+12 -7.02571e+12 -9.44472e+12 -4.60753e+12 -8.60678e+12 -7.48473e+12 -6.09924e+12 -8.30947e+12 -5.92215e+12 -6.39637e+12 -8.36338e+12 -2.86988e+12 -4.73607e+12 -3.9867e+12 -2.01413e+12 -6.54934e+12 -2.70563e+12 -5.04848e+12 -3.7337e+12 -5.57572e+12 -9.03807e+12 -6.58774e+12 -4.74824e+12 -5.04256e+12 -7.51886e+12 -6.31863e+12 -4.88746e+12 -7.40024e+12 -6.78678e+12 -7.83173e+12 -5.7102e+12 -5.88992e+12 -5.90302e+12 -6.17551e+12 -5.67613e+12 -4.70272e+12 -6.3424e+12 -5.50494e+12 -4.17541e+12 -7.54363e+12 -5.30072e+12 -3.25957e+12 -6.58944e+12 -8.59806e+12 -6.38501e+12 -5.34646e+12 -5.77046e+12 -3.9234e+12 -2.61148e+12 -2.65636e+12 -5.17247e+12 -5.34586e+12 -2.80686e+12 -4.23812e+12 -4.66398e+12 -2.63364e+12 -2.42475e+12 -1.79774e+12 -1.97062e+12 -3.09824e+12 -2.24516e+12 -3.93103e+12 -3.31233e+12 -1.88724e+12 -1.42861e+12 -4.01311e+12 -1.56193e+12 -2.21084e+12 -2.0619e+12 -2.9333e+12 -2.66352e+12 -1.68484e+12 -3.63704e+12 -2.97916e+12 -2.26306e+12 -3.60286e+12 -3.25456e+12 -2.47261e+12 -643288000000.0 -3.11486e+12 -877188000000.0 -3.07926e+12 -3.40545e+12 -2.46233e+12 -3.24673e+12 -2.21546e+12 -3.37931e+12 -3.41184e+12 -2.24725e+12 -2.02849e+12 -2.9391e+12 -2.6859e+12 -2.64757e+12 -2.16304e+12 -3.23319e+12 -2.48478e+12 -3.32452e+12 -3.27896e+12 -3.07419e+12 -2.50069e+12 -2.47903e+12 -3.11353e+12 -4.7626e+12 -4.53248e+12 -3.37795e+12 -4.34706e+12 -3.30191e+12 -4.62028e+12 -2.5487e+12 -5.65025e+12 -8.12262e+12 -2.67522e+12 -3.2508e+12 -3.68755e+12 -3.03762e+12 -4.5409e+12 -3.85789e+12 -3.1518e+12 -4.19226e+12 -2.92802e+12 -3.56703e+12 -5.26279e+12 -4.54487e+12 -6.05045e+12 -5.65828e+12 -4.73754e+12 -5.94971e+12 -7.87291e+12 -5.84239e+12 -6.58791e+12 -2.93435e+12 -4.49194e+12 -3.96813e+12 -7.53384e+12 -1.27635e+13 -4.99318e+12 -6.73699e+12 -4.75279e+12 -6.33197e+12 -5.40102e+12 -6.21732e+12 -4.64129e+12 -9.02195e+12 -1.07307e+13 -5.80965e+12 -3.78916e+12 -4.84722e+12 -8.56007e+12 -5.59933e+12 -3.06729e+12 -4.58606e+12 -6.08912e+12 -2.72617e+12 -3.30232e+12 -9.09041e+12 -4.18077e+12 -4.64719e+12 -4.59871e+12 -3.76766e+12 -7.22091e+12 -5.93703e+12 -5.5012e+12 -8.35926e+12 -6.2192e+12 -4.35662e+12 -4.58648e+12 -4.71118e+12 -3.68307e+12 -5.82237e+12 -4.01045e+12 -3.96883e+12 -4.01564e+12 -4.3992e+12 -4.49427e+12 -4.98304e+12 -5.50637e+12 -3.28635e+12 -3.75032e+12 -8.3893e+12 -4.06747e+12 -2.68876e+12 -5.714e+12 -6.10587e+12 -2.0291e+12 -3.67078e+12 -5.20292e+12 -3.98687e+12 -2.35643e+12 -3.83927e+12 -3.56406e+12 -800740000000.0 -3.28841e+12 -4.19831e+12 -2.80778e+12 -3.18039e+12 -2.95599e+12 -4.13963e+12 -2.59502e+12 -3.95664e+12 -3.01306e+12 -4.51262e+12 -3.16952e+12 -2.44498e+12 -2.6529e+12 -2.95493e+12 -2.07025e+12 -3.57495e+12 -2.88002e+12 -1.44946e+12 -1.51108e+12 -2.64032e+12 -1.66504e+12 -1.40682e+12 -2.22002e+12 -3.04585e+12 -2.35022e+12 -3.88461e+12 -3.10784e+12 -2.19793e+12 -2.60614e+12 -2.19714e+12 -873913000000.0 -593379000000.0 -2.14166e+12 -1.61165e+12 -2.01306e+12 -4.05306e+12 -2.78233e+12 -1.452e+12 -1.35389e+12 -2.15893e+12 -2.03217e+12 -3.16786e+12 -2.74275e+12 -2.75347e+12 -2.03598e+12 -2.35395e+12 -1.76102e+12 -3.2513e+12 -3.40204e+12 -1.9711e+12 -2.4125e+12 -1.57337e+12 -3.25613e+12 -1.33927e+12 -5.17757e+12 -6.56477e+12 -2.75766e+12 -3.06722e+12 -3.79488e+12 -3.02452e+12 -3.61761e+12 -4.36809e+12 -4.82444e+12 -2.59235e+12 -3.88308e+12 -3.69655e+12 -2.76385e+12 -3.28443e+12 -2.95587e+12 -4.22005e+12 -3.79822e+12 -4.34278e+12 -6.36757e+12 -2.45114e+12 -4.45328e+12 -4.99461e+12 -3.08804e+12 -4.92788e+12 -4.09197e+12 -4.9592e+12 -5.71048e+12 -3.88792e+12 -3.69818e+12 -6.29898e+12 -6.11911e+12 -2.94561e+12 -3.07353e+12 -5.78811e+12 -6.72748e+12 -9.74837e+12 -4.92334e+12 -4.16384e+12 -5.97924e+12 -2.48579e+12 -3.83662e+12 -5.98134e+12 -5.30929e+12 -4.82469e+12 -5.70888e+12 -4.1062e+12 -7.67532e+12 -6.70897e+12 -1.39427e+12 -2.36348e+12 -5.96409e+12 -3.71975e+12 -4.94884e+12 -3.34794e+12 -4.24173e+12 -4.83658e+12 -5.91299e+12 -5.33308e+12 -3.4454e+12 -3.86491e+12 -6.34594e+12 -2.56165e+12 -6.39969e+12 -3.78314e+12 -5.2536e+12 -5.09039e+12 -3.55449e+12 -3.41319e+12 -3.4472e+12 -4.01388e+12 -6.72684e+12 -4.68376e+12 -4.48893e+12 -2.10863e+12 -3.81141e+12 -3.44572e+12 -4.69501e+12 -5.38888e+12 -1.75484e+12 -6.67732e+12 -4.15714e+12 -2.97839e+12 -2.19546e+12 -7.67665e+12 -3.18797e+12 -5.39761e+12 -1.68764e+12 -4.73811e+12 -2.24721e+12 -5.37601e+12 -3.48814e+12 -2.67063e+12 -2.99318e+12 -3.94992e+12 -3.77959e+12 -3.60777e+12 -2.97744e+12 -1.95636e+12 -2.43961e+12 -4.3187e+12 -4.09797e+12 -2.58831e+12 -2.27794e+12 -302135000000.0 -1.71104e+12 -1.26339e+12 -2.88874e+12 -1.55257e+12 -1.43221e+12 -3.69233e+12 -1.46032e+12 -1.16167e+12 -1.88969e+12 -2.18948e+12 -1.70948e+12 -834001000000.0 -987042000000.0 -1.334e+12 -1.67809e+12 -2.01108e+12 -2.60303e+12 -3.12814e+12 -1.64034e+12 -2.19517e+12 -777530000000.0 -1.62995e+12 -1.34456e+12 -945117000000.0 -850234000000.0 -2.06116e+12 -825619000000.0 -1.86204e+12 -1.88357e+12 -1.39963e+12 -1.48213e+12 -1.87885e+12 -1.42883e+12 -2.80769e+12 -1.26271e+12 -1.02774e+12 -1.59011e+12 -1.82553e+12 -2.24552e+12 -2.8911e+12 -3.82762e+12 -1.74713e+12 -2.32325e+12 -3.14437e+12 -4.41726e+12 -3.60939e+12 -1.27147e+12 -2.4195e+12 -4.37619e+12 -2.24386e+12 -2.22708e+12 -4.02893e+12 -3.71301e+12 -3.1093e+12 -3.89068e+12 -4.26176e+12 -5.87988e+12 -3.4765e+12 -3.39273e+12 -3.34732e+12 -4.58697e+12 -2.80167e+12 -3.45473e+12 -4.85736e+12 -3.17159e+12 -3.57293e+12 -5.98094e+12 -4.55514e+12 -4.71046e+12 -4.23031e+12 -4.7568e+12 -5.55183e+12 -5.01575e+12 -5.51831e+12 -4.64785e+12 -4.94834e+12 -6.17075e+12 -5.24758e+12 -5.34345e+12 -5.3619e+12 -4.20173e+12 -2.83173e+12 -6.87774e+12 -4.27865e+12 -5.79497e+12 -4.9778e+12 -5.20701e+12 -7.78322e+12 -4.5677e+12 -3.71147e+12 -2.15305e+12 -1.21713e+12 -3.36317e+12 -5.38511e+12 -5.13204e+12 -6.53444e+12 -6.27508e+12 -3.58092e+12 -3.23179e+12 -3.31862e+12 -5.39996e+12 -3.35222e+12 -3.34364e+12 -3.95676e+12 -4.89024e+12 -1.93254e+12 -4.37609e+12 -6.03172e+12 -2.83586e+12 -3.32862e+12 -4.0424e+12 -4.14783e+12 -4.9575e+12 -5.14285e+12 -3.39726e+12 -3.02202e+12 -1.98311e+12 -4.64966e+12 -1.42722e+12 -1.48123e+12 -4.23741e+12 -1.93994e+12 -2.75207e+12 -3.19936e+12 -2.69195e+12 -4.90451e+12 -3.59627e+12 -4.62065e+12 -3.13048e+12 -1.29751e+12 -2.91159e+12 -5.09745e+12 -4.3239e+12 -2.09221e+12 -2.94895e+12 -1.96906e+12 -2.53306e+12 -2.64256e+12 -4.06879e+12 -2.07629e+12 -3.1668e+12 -1.39959e+12 -2.24501e+12 -2.40269e+12 -1.7514e+12 -1.21811e+12 -1.98341e+12 -2.66849e+12 -2.03341e+12 -1.58012e+12 -1.49092e+12 -268560000000.0 -2.03725e+12 -1.26822e+12 -1.65444e+12 -2.84862e+12 -2.63898e+12 -2.63476e+12 -1.80949e+12 -1.53336e+12 -2.10722e+12 -1.30839e+12 -1.91898e+12 -1.64924e+12 -2.39129e+12 -2.11328e+12 -1.92339e+12 -2.37319e+12 -1.97324e+12 -2.31562e+12 -1.7968e+12 -1.49464e+12 -956487000000.0 -2.18795e+12 -2.2054e+12 -3.08372e+12 -2.06806e+12 -2.03451e+12 -5.45558e+12 -3.33282e+12 -2.73257e+12 -4.79824e+12 -2.35292e+12 -2.74616e+12 -3.12027e+12 -1.38599e+12 -4.38258e+12 -4.31886e+12 -4.45384e+12 -4.47421e+12 -3.87792e+12 -3.58701e+12 -4.12325e+12 -4.08983e+12 -3.01004e+12 -4.46583e+12 -5.32769e+12 -3.79029e+12 -696212000000.0 -5.03845e+12 -4.14777e+12 -1.87586e+12 -5.62151e+12 -2.2068e+12 -5.09529e+12 -4.56357e+12 -4.46181e+12 -3.34212e+12 -5.40783e+12 -3.13719e+12 -4.20969e+12 -2.51241e+12 -2.88191e+12 -4.23068e+12 -3.98462e+12 -5.52994e+12 -4.1217e+12 -4.16494e+12 -3.63958e+12 -5.31944e+12 -2.8802e+12 -3.06528e+12 -4.09736e+12 -4.34772e+12 -3.32736e+12 -2.87731e+12 -3.00663e+12 -3.00739e+12 -6.8148e+12 -4.88105e+12 -3.58412e+12 -5.98974e+12 -4.32712e+12 -2.74981e+12 -2.7367e+12 -3.98783e+12 -3.48235e+12 -3.00238e+12 -3.30708e+12 -2.97867e+12 -1.19512e+12 -2.8941e+12 -2.53202e+12 -4.32809e+12 -3.56046e+12 -4.56296e+12 -2.72966e+12 -6.12899e+12 -3.31741e+12 -1.97111e+12 -3.46336e+12 -4.06349e+12 -4.59599e+12 -3.48881e+12 -2.68793e+12 -4.75331e+12 -1.72401e+12 -1.92965e+12 -2.47821e+12 -3.59469e+12 -2.2847e+12 -3.9001e+12 -1.19566e+12 -1.84062e+12 -2.96814e+12 -2.82289e+12 -2.56121e+12 -1.328e+12 -1.52464e+12 -2.85201e+12 -1.82663e+12 -1.96847e+12 -2.29879e+12 -2.0395e+12 -2.48121e+12 -1.9692e+12 -1.248e+12 -630912000000.0 -1.51389e+12 -1.08178e+12 -2.88171e+12 -1.45626e+12 -1.65643e+12 -1.57635e+12 -346304000000.0 -1.35341e+12 -2.27919e+12 -1.68539e+12 -1.00975e+12 -2.0256e+12 -1.37954e+12 -1.27211e+12 -73855700000.0 -1.20492e+12 -1.52155e+12 -1.41571e+12 -2.31983e+12 -2.88711e+12 -1.98146e+12 -2.4369e+12 -970473000000.0 -3.47624e+12 -1.4998e+12 -2.57893e+12 -2.78683e+12 -2.55263e+12 -1.53071e+12 -2.65052e+12 -3.43205e+12 -3.9799e+12 -3.99695e+12 -2.06059e+12 -2.2542e+12 -1.71454e+12 -4.33162e+12 -2.65939e+12 -3.0517e+12 -4.74481e+12 -3.66926e+12 -4.21402e+12 -1.33543e+12 -4.09449e+12 -2.92392e+12 -3.50073e+12 -2.65992e+12 -3.43634e+12 -4.63204e+12 -4.4919e+12 -4.49126e+12 -5.7614e+12 -4.42946e+12 -2.13078e+12 -3.37786e+12 -5.785e+12 -5.08402e+12 -4.51544e+12 -5.44202e+12 -2.65064e+12 -4.4795e+12 -7.19796e+12 -3.55495e+12 -3.51363e+12 -5.37732e+12 -4.64051e+12 -4.77964e+12 -4.17778e+12 -5.09595e+12 -1.64862e+12 -5.95017e+12 -4.45511e+12 -5.39785e+12 -5.06904e+12 -6.72466e+12 -4.26583e+12 -3.14586e+12 -3.13393e+12 -2.76154e+12 -3.02336e+12 -4.34267e+12 -4.57232e+12 -5.85097e+12 -2.96146e+12 -1.47805e+12 -4.9215e+12 -3.56711e+12 -2.56827e+12 -6.18126e+12 -3.35344e+12 -3.42831e+12 -1.86701e+12 -3.56531e+12 -3.84213e+12 -3.24427e+12 -3.29171e+12 -4.63278e+12 -2.75547e+12 -3.65319e+12 -2.19799e+12 -2.02212e+12 -4.30596e+12 -2.98738e+12 -2.68326e+12 -4.00235e+12 -2.42409e+12 -1.54396e+12 -2.03702e+12 -1.35575e+12 -2.34837e+12 -3.62314e+12 -1.95526e+12 -1.29117e+12 -1.87588e+12 -1.76638e+12 -1.63189e+12 -2.00841e+12 -984209000000.0 -1.47446e+12 -1.78594e+12 -1.0307e+12 -1.45036e+12 -1.08625e+12 -1.43631e+12 -1.75515e+12 -1.43606e+12 -530674000000.0 -1.48096e+12 -1.70232e+12 -2.18782e+12 -1.33014e+12 -1.52706e+12 -1.26186e+12 -1.41498e+12 -735188000000.0 -467998000000.0 -728964000000.0 -649288000000.0 -1.12544e+12 -600033000000.0 -1.24613e+12 -1.17332e+12 -2.65116e+12 -2.50196e+12 -1.96233e+12 -1.7098e+12 -563349000000.0 -1.70817e+12 -2.80735e+12 -2.36441e+12 -3.46708e+12 -1.36888e+12 -1.41699e+12 -866050000000.0 -1.4759e+12 -2.65207e+12 -3.14673e+12 -4.37063e+12 -2.8804e+12 -4.28522e+12 -3.0114e+12 -3.76434e+12 -3.77163e+12 -2.26483e+12 -3.73934e+12 -4.28606e+12 -2.70571e+12 -4.43436e+12 -1.17375e+12 -3.01013e+12 -4.31839e+12 -4.08939e+12 -3.24661e+12 -2.89891e+12 -3.27135e+12 -5.54471e+12 -3.99347e+12 -3.07938e+12 -5.59365e+12 -4.14149e+12 -4.4166e+12 -3.9149e+12 -3.63756e+12 -3.73208e+12 -3.40491e+12 -5.13442e+12 -3.85792e+12 -4.67623e+12 -2.53662e+12 -2.83128e+12 -6.34738e+12 -2.91896e+12 -3.16332e+12 -4.14816e+12 -3.53652e+12 -4.92844e+12 -5.50675e+12 -4.39641e+12 -1.74548e+12 -3.18439e+12 -2.31298e+12 -2.53076e+12 -3.69803e+12 -2.91145e+12 -3.00909e+12 -4.3725e+12 -3.57324e+12 -2.00254e+12 -3.44188e+12 -2.94775e+12 -3.22332e+12 -2.21458e+12 -3.52448e+12 -3.63273e+12 -2.60868e+12 -2.76239e+12 -4.1121e+12 -3.01442e+12 -3.05439e+12 -2.92487e+12 -3.94705e+12 -2.76395e+12 -3.4774e+12 -2.09103e+12 -3.54815e+12 -3.12288e+12 -1.53005e+12 -3.23282e+12 -1.95139e+12 -2.44367e+12 -1.9691e+12 -2.41232e+12 -1.34491e+12 -3.27438e+12 -1.38521e+12 -1.95306e+12 -2.57689e+12 -2.31306e+12 -1.52924e+12 -2.64901e+12 -891871000000.0 -1.72926e+12 -2.72521e+12 -2.50026e+12 -2.42716e+12 -2.80852e+12 -1.12611e+12 -2.33017e+12 -1.88435e+12 -1.64687e+12 -1.25153e+12 -1.20358e+12 -103160000000.0 -1.57096e+12 -1.14253e+12 -1.18894e+12 -1.62009e+12 -1.12117e+12 -388841000000.0 -870887000000.0 -1.28794e+12 -878618000000.0 -1.12459e+12 -1.41076e+12 -943540000000.0 -1.91935e+12 -1.10628e+12 -1.48107e+12 -1.1411e+12 -1.73077e+12 -2.09769e+12 -2.39163e+12 -944569000000.0 -1.68226e+12 -1.8159e+12 -3.29233e+12 -1.11089e+12 -4.25276e+12 -2.26658e+12 -2.11907e+12 -3.88081e+12 -1.83148e+12 -3.23352e+12 -2.64813e+12 -1.80339e+12 -3.46993e+12 -4.23066e+12 -3.29039e+12 -4.03225e+12 -1.29986e+12 -1.99388e+12 -3.40841e+12 -4.83991e+12 -1.55835e+12 -2.51932e+12 -3.72489e+12 -3.89446e+12 -3.801e+12 -2.36862e+12 -2.55492e+12 -1.79139e+12 -4.58733e+12 -4.95856e+12 -2.68105e+12 -3.93268e+12 -2.77903e+12 -2.58778e+12 -2.08617e+12 -4.0306e+12 -4.02623e+12 -4.38416e+12 -3.52137e+12 -4.99381e+12 -4.06782e+12 -6.15849e+12 -2.24447e+12 -1.92507e+12 -2.99497e+12 -5.31177e+12 -3.08842e+12 -3.04495e+12 -4.0673e+12 -4.68817e+12 -3.83937e+12 -2.98375e+12 -1.77736e+12 -4.92827e+12 -1.3751e+12 -3.72021e+12 -2.91342e+12 -1.5834e+12 -631931000000.0 -3.38756e+12 -758386000000.0 -2.43768e+12 -2.72376e+12 -2.95764e+12 -2.83529e+12 -2.60529e+12 -2.3286e+12 -2.13707e+12 -2.49735e+12 -3.12134e+12 -3.34428e+12 -3.08487e+12 -2.4737e+12 -2.81896e+12 -1.57463e+12 -1.07949e+12 -2.06677e+12 -2.31737e+12 -2.26097e+12 -3.35064e+12 -1.72477e+12 -2.26027e+12 -598816000000.0 -1.336e+12 -1.85599e+12 -2.02142e+12 -172051000000.0 -1.86111e+12 -1.13959e+12 -1.67013e+12 -1.74909e+12 -1.62129e+12 -681622000000.0 -687020000000.0 -755244000000.0 -804738000000.0 -836888000000.0 -709142000000.0 -1.61791e+12 -661273000000.0 -925843000000.0 -932043000000.0 -576892000000.0 -1.44086e+12 -1.29605e+12 -293612000000.0 -1.14328e+12 -579489000000.0 -527230000000.0 -886956000000.0 -454553000000.0 -1.1811e+12 -1.13985e+12 -1.6378e+12 -563586000000.0 -565514000000.0 -1.42813e+12 -1.39731e+12 -1.08762e+12 -166148000000.0 -1.52883e+12 -1.19727e+12 -1.32302e+12 -975915000000.0 -727931000000.0 -1.04546e+12 -1.45465e+12 -1.09786e+12 -2.52974e+12 -2.75479e+12 -434094000000.0 -1.72805e+12 -1.52906e+12 -1.35134e+12 -1.50773e+12 -1.44797e+12 -3.08744e+12 -2.04579e+12 -1.90098e+12 -2.30498e+12 -4.06007e+12 -3.22981e+12 -450459000000.0 -3.40263e+12 -3.94026e+12 -3.62762e+12 -2.1623e+12 -2.78374e+12 -3.51048e+12 -3.01541e+12 -3.60108e+12 -3.40759e+12 -3.61733e+12 -861501000000.0 -1.59692e+12 -3.69111e+12 -2.89408e+12 -2.61015e+12 -3.97403e+12 -3.34356e+12 -2.58793e+12 -4.61092e+12 -2.09827e+12 -2.59674e+12 -2.48141e+12 -2.59982e+12 -2.99832e+12 -1.97273e+12 -2.22009e+12 -2.02254e+12 -3.35355e+12 -4.92887e+12 -2.81705e+12 -2.65417e+12 -2.14184e+12 -1.48092e+12 -1.03767e+12 -2.91147e+12 -2.71714e+12 -1.95966e+12 -3.79583e+12 -4.26212e+12 -2.44891e+12 -1.63144e+12 -3.16394e+12 -3.20232e+12 -2.9403e+12 -1.64381e+12 -2.48832e+12 -2.64564e+12 -2.3035e+12 -1.23961e+12 -1.47626e+12 -2.55856e+12 -3.57197e+12 -1.31929e+12 -4.30831e+12 -3.63046e+12 -3.54261e+12 -2.76335e+12 -3.29575e+12 -2.85016e+12 -1.6231e+12 -2.05593e+12 -1.25976e+12 -1.34325e+12 -2.61822e+12 -1.90932e+12 -1.13597e+12 -1.8038e+12 -1.46113e+12 -1.21113e+12 -890175000000.0 -609608000000.0 -808588000000.0 -817891000000.0 -497497000000.0 -1.0988e+12 -903953000000.0 -616558000000.0 -739541000000.0 -769155000000.0 -679833000000.0 -600193000000.0 -791504000000.0 -841474000000.0 -1.25633e+12 -68048700000.0 -168852000000.0 -445822000000.0 -527655000000.0 -596139000000.0 -545312000000.0 -1.0345e+12 -309824000000.0 -1.57258e+12 -1.39559e+12 -1.34939e+12 -1.43956e+12 -2.0969e+12 -780722000000.0 -1.38756e+12 -1.43887e+12 -1.05981e+12 -223192000000.0 -1.07886e+12 -840672000000.0 -804388000000.0 -680492000000.0 -2.89414e+12 -442436000000.0 -2.03687e+12 -1.84898e+12 -1.67188e+12 -1.11877e+12 -1.36221e+12 -1.94576e+12 -3.23191e+12 -992502000000.0 -2.39062e+12 -1.01839e+12 -1.24678e+12 -851239000000.0 -686388000000.0 -2.84248e+12 -1.09352e+12 -1.09499e+12 -1.50802e+12 -2.40331e+12 -1.9763e+12 -1.62558e+12 -2.322e+12 -2.49951e+12 -2.4642e+12 -2.83275e+12 -2.03331e+12 -2.40134e+12 -2.27952e+12 -2.88253e+12 -3.36791e+12 -1.85345e+12 -3.10503e+12 -3.0256e+12 -2.075e+12 -1.39019e+12 -2.33852e+12 -3.75277e+12 -2.05791e+12 -1.26098e+12 -2.35178e+12 -3.2262e+12 -2.00315e+12 -1.76083e+12 -4.57526e+12 -2.68218e+12 -2.32456e+12 -3.14141e+12 -929508000000.0 -1.79808e+12 -2.43256e+12 -2.83126e+12 -3.08876e+12 -4.80137e+12 -1.80487e+12 -2.18173e+12 -2.42827e+12 -4.33044e+12 -3.47334e+12 -1.89648e+12 -951366000000.0 -1.84311e+12 -1.75452e+12 -2.49028e+12 -1.69478e+12 -1.93422e+12 -3.00138e+12 -2.6644e+12 -3.51127e+12 -1.7362e+12 -1.42403e+12 -1.4396e+12 -809694000000.0 -1.24242e+12 -1.82922e+12 -2.13409e+12 -2.38471e+12 -1.60235e+12 -1.28487e+12 -907354000000.0 -1.35022e+12 -872527000000.0 -1.66039e+12 -1.8079e+12 -2.5649e+12 -930240000000.0 -626018000000.0 -860625000000.0 -611718000000.0 -558300000000.0 -111909000000.0 -428824000000.0 -637277000000.0 -662988000000.0 -377011000000.0 -710395000000.0 -654139000000.0 -464774000000.0 -310971000000.0 -1.13235e+12 -865501000000.0 -838763000000.0 -951792000000.0 -1.09702e+12 -575938000000.0 -974385000000.0 -935524000000.0 -327492000000.0 -733728000000.0 -897009000000.0 -1.24142e+12 -818017000000.0 -776252000000.0 -795138000000.0 -1.55006e+12 -318083000000.0 -715542000000.0 -827906000000.0 -1.91573e+12 -1.48421e+12 -1.89004e+12 -1.00187e+12 -1.34853e+12 -1.53306e+12 -1.21001e+12 -1.77442e+12 -2.46816e+12 -665555000000.0 -1.34772e+12 -1.03249e+12 -1.77049e+12 -2.02621e+12 -1.60346e+12 -2.28755e+12 -1.61157e+12 -2.28885e+12 -569178000000.0 -2.2843e+12 -3.24362e+12 -1.25267e+12 -1.49529e+12 -2.46685e+12 -2.18567e+12 -2.39232e+12 -2.99581e+12 -2.86351e+12 -2.86366e+12 -3.02678e+12 -2.19478e+12 -1.987e+12 -3.01523e+12 -2.75511e+12 -3.37899e+12 -3.49865e+12 -2.17054e+12 -1.93154e+12 -2.18068e+12 -3.53069e+12 -2.36762e+12 -2.73532e+12 -2.18369e+12 -3.10758e+12 -1.66512e+12 -4.38689e+12 -1.05302e+12 -1.73234e+12 -1.91377e+12 -2.09099e+12 -10616600000.0 -3.2233e+12 -967777000000.0 -1.07923e+12 -3.33976e+12 -1.65929e+12 -2.68295e+12 -2.10938e+12 -2.69414e+12 -1.32852e+12 -2.51878e+12 -1.36788e+12 -2.77996e+12 -1.34394e+12 -644001000000.0 -2.48e+12 -2.44666e+12 -1.93285e+12 -1.61423e+12 -2.20567e+12 -611820000000.0 -1.64878e+12 -1.02592e+12 -1.53504e+12 -1.23917e+12 -748019000000.0 -1.80232e+12 -2.13153e+12 -453971000000.0 -838279000000.0 -679109000000.0 -622170000000.0 -1.16338e+12 -771356000000.0 -1.16283e+12 -540789000000.0 -285991000000.0 -463472000000.0 -725215000000.0 -477348000000.0 -297501000000.0 -393850000000.0 -422834000000.0 -290114000000.0 -661058000000.0 -828606000000.0 -479018000000.0 -829779000000.0 -1.2765e+12 -837641000000.0 -479534000000.0 -709745000000.0 -439776000000.0 -33514200000.0 -186993000000.0 -607858000000.0 -147651000000.0 -1.15907e+12 -683679000000.0 -1.20757e+12 -521786000000.0 -617750000000.0 -1.04832e+12 -1.418e+12 -1.07418e+12 -1.32675e+12 -1.7513e+12 -1.00298e+12 -1.49096e+12 -1.64442e+12 -561108000000.0 -864652000000.0 -1.18444e+12 -1.00846e+12 -1.51207e+12 -2.21174e+12 -873564000000.0 -1.19816e+12 -1.30618e+12 -2.24878e+12 -668858000000.0 -2.13436e+12 -1.88642e+12 -1.96684e+12 -1.09901e+12 -3.32611e+12 -2.38854e+12 -1.23263e+12 -2.79842e+12 -926737000000.0 -2.24751e+12 -1.95582e+12 -2.18451e+12 -1.59887e+12 -1.58853e+12 -1.27538e+12 -1.2475e+12 -2.94656e+12 -3.28674e+12 -1.94495e+12 -2.28531e+12 -2.34845e+12 -2.97801e+12 -1.42365e+12 -1.00178e+12 -3.97832e+12 -1.86828e+12 -3.04495e+12 -1.62519e+12 -1.86053e+12 -1.87507e+12 -2.60629e+12 -1.84197e+12 -2.253e+12 -1.6608e+12 -2.01812e+12 -2.49918e+12 -1.47257e+12 -1.0609e+12 -1.83387e+12 -1.42364e+12 -127015000000.0 -2.17224e+12 -1.20883e+12 -1.89221e+12 -1.10416e+12 -1.97243e+12 -2.59687e+12 -2.42214e+12 -749240000000.0 -734787000000.0 -1.18123e+12 -1.12442e+12 -904843000000.0 -1.94422e+12 -1.25097e+12 -1.51431e+12 -448642000000.0 -1.10278e+12 -1.2024e+12 -676976000000.0 -395958000000.0 -828962000000.0 -953902000000.0 -346062000000.0 -1.12463e+12 -849010000000.0 -1.38551e+12 -641549000000.0 -606200000000.0 -114053000000.0 -253929000000.0 -299627000000.0 -209728000000.0 -175865000000.0 -308372000000.0 -595261000000.0 -278147000000.0 -125126000000.0 -160048000000.0 -204147000000.0 -714141000000.0 -612857000000.0 -778979000000.0 -348766000000.0 -511570000000.0 -304987000000.0 -508942000000.0 -537773000000.0 -151014000000.0 -831343000000.0 -1.0654e+12 -546283000000.0 -523235000000.0 -874272000000.0 -522141000000.0 -728993000000.0 -756074000000.0 -1.71702e+12 -1.01758e+12 -709550000000.0 -1.38381e+12 -868891000000.0 -1.49299e+12 -1.85691e+12 -1.49459e+12 -505188000000.0 -523208000000.0 -1.53569e+12 -1.32763e+12 -1.26009e+12 -2.13675e+12 -2.58387e+12 -1.8589e+12 -1.13646e+12 -594678000000.0 -2.60541e+12 -1.78814e+12 -710112000000.0 -1.4882e+12 -1.48397e+12 -1.35323e+12 -1.47464e+12 -2.29173e+12 -553620000000.0 -2.78214e+12 -1.14994e+12 -1.11592e+12 -393068000000.0 -1.57588e+12 -2.01254e+12 -2.60764e+12 -2.23191e+12 -545744000000.0 -2.26546e+12 -2.29778e+12 -2.27583e+12 -2.39651e+12 -1.8816e+12 -1.51539e+12 -2.07682e+12 -1.60567e+12 -1.51563e+12 -1.15343e+12 -1.23461e+12 -2.0639e+12 -826263000000.0 -2.71817e+12 -1.98156e+12 -1.41342e+12 -1.45061e+12 -1.86927e+12 -1.19577e+12 -1.55847e+12 -931110000000.0 -1.67987e+12 -1.78648e+12 -1.10561e+12 -1.6843e+12 -1.16984e+12 -1.37843e+12 -1.53166e+12 -1.07836e+12 -1.14693e+12 -512454000000.0 -1.16651e+12 -1.87321e+12 -1.66821e+12 -404261000000.0 -1.26733e+12 -718881000000.0 -665279000000.0 -580817000000.0 -411972000000.0 -735715000000.0 -309828000000.0 -654673000000.0 -967138000000.0 -761239000000.0 -264820000000.0 -711748000000.0 -96241800000.0 -374112000000.0 -290106000000.0 -233764000000.0 -151193000000.0 -283325000000.0 -516773000000.0 -349831000000.0 -574493000000.0 -541955000000.0 -310454000000.0 -410621000000.0 -397431000000.0 -530859000000.0 -504706000000.0 -685486000000.0 -619356000000.0 -364800000000.0 -309829000000.0 -662584000000.0 -483786000000.0 -260200000000.0 -411036000000.0 -577117000000.0 -237023000000.0 -585870000000.0 -465310000000.0 -15513300000.0 -938476000000.0 -372150000000.0 -1.08341e+12 -1.19625e+12 -634622000000.0 -775629000000.0 -1.75987e+12 -914354000000.0 -885283000000.0 -1.55627e+12 -1.10817e+12 -1.72359e+12 -1.16944e+12 -671525000000.0 -871851000000.0 -1.22366e+12 -1.7934e+12 -1.51277e+12 -725834000000.0 -1.41839e+12 -1.88358e+12 -1.85549e+12 -1.29807e+12 -1.76352e+12 -1.98327e+12 -1.68525e+12 -1.78765e+12 -1.9416e+12 -1.7177e+12 -1.69821e+12 -1.15312e+12 -832939000000.0 -895090000000.0 -1.32858e+12 -1.42073e+12 -516713000000.0 -906501000000.0 -307580000000.0 -1.89399e+12 -685781000000.0 -911759000000.0 -1.36645e+12 -1.43063e+12 -1.17556e+12 -1.46208e+12 -662960000000.0 -1.38416e+12 -758090000000.0 -895960000000.0 -1.92701e+12 -584612000000.0 -1.16351e+12 -1.44432e+12 -915449000000.0 -900724000000.0 -1.20104e+12 -1.05798e+12 -741017000000.0 -862199000000.0 -1.34288e+12 -860281000000.0 -401957000000.0 -1.14898e+12 -642886000000.0 -348626000000.0 -657506000000.0 -550680000000.0 -379588000000.0 -652772000000.0 -627238000000.0 -352027000000.0 -413381000000.0 -329545000000.0 -558274000000.0 -318902000000.0 -693833000000.0 -455912000000.0 -80705300000.0 -672155000000.0 -133508000000.0 -430802000000.0 -66647500000.0 -227720000000.0 -257275000000.0 -48646200000.0 -297108000000.0 -262591000000.0 -338093000000.0 -350574000000.0 -168287000000.0 -16424900000.0 -516012000000.0 -23113000000.0 -760050000000.0 -199572000000.0 -178585000000.0 -445232000000.0 -440017000000.0 -119882000000.0 -466230000000.0 -1.16271e+12 -735247000000.0 -631569000000.0 -246634000000.0 -900777000000.0 -129206000000.0 -381140000000.0 -196643000000.0 -745506000000.0 -1.42684e+12 -1.11362e+12 -905734000000.0 -1.29042e+12 -468750000000.0 -913804000000.0 -1.06904e+12 -736437000000.0 -103214000000.0 -851067000000.0 -1.76944e+12 -1.21315e+12 -413197000000.0 -578114000000.0 -913478000000.0 -1.01033e+12 -957151000000.0 -1.75567e+12 -1.15572e+12 -1.77911e+12 -1.12244e+12 -1.14341e+12 -944279000000.0 -1.7648e+12 -623784000000.0 -1.60581e+12 -418831000000.0 -710962000000.0 -295951000000.0 -1.83175e+12 -2.2084e+12 -658096000000.0 -1.13353e+12 -984159000000.0 -1.43584e+12 -3.19499e+12 -1.49251e+12 -1.37978e+12 -1.27072e+12 -629651000000.0 -1.07187e+12 -1.31072e+12 -21554800000.0 -476095000000.0 -1.64047e+12 -762051000000.0 -1.38873e+12 -921381000000.0 -492462000000.0 -835028000000.0 -346046000000.0 -518797000000.0 -1.30548e+12 -884707000000.0 -970355000000.0 -1.294e+12 -1.54069e+12 -1.57207e+12 -1.21105e+12 -1.42487e+12 -1.07056e+12 -603840000000.0 -1.51328e+12 -475349000000.0 -758393000000.0 -867235000000.0 -413534000000.0 -836409000000.0 -835642000000.0 -334152000000.0 -701072000000.0 -938237000000.0 -215088000000.0 -423997000000.0 -70122500000.0 -609927000000.0 -302732000000.0 -183120000000.0 -211144000000.0 -237689000000.0 -266631000000.0 -641720000000.0 -41875200000.0 -321374000000.0 -670095000000.0 -76579000000.0 -57021100000.0 -263706000000.0 -46629100000.0 -128301000000.0 -210333000000.0 -249197000000.0 -151304000000.0 -58669400000.0 -128562000000.0 -73569900000.0 -206282000000.0 -199784000000.0 -231186000000.0 -344509000000.0 -363024000000.0 -387126000000.0 -118719000000.0 -652672000000.0 -172579000000.0 -570603000000.0 -715350000000.0 -518927000000.0 -566718000000.0 -344597000000.0 -413624000000.0 -644901000000.0 -169619000000.0 -415838000000.0 -526391000000.0 -983154000000.0 -551671000000.0 -720649000000.0 -284445000000.0 -1.17518e+12 -1.30329e+12 -1.92822e+12 -1.06381e+12 -1.33979e+12 -581360000000.0 -696894000000.0 -1.30779e+12 -390605000000.0 -1.18877e+12 -859576000000.0 -1.04043e+12 -1.43581e+12 -937370000000.0 -1.04956e+12 -1.39319e+12 -1.23851e+12 -578259000000.0 -1.72392e+12 -952333000000.0 -1.09517e+12 -761400000000.0 -859211000000.0 -624861000000.0 -745250000000.0 -902052000000.0 -457473000000.0 -609341000000.0 -685647000000.0 -699355000000.0 -590994000000.0 -773067000000.0 -833019000000.0 -537784000000.0 -518915000000.0 -411354000000.0 -565574000000.0 -380611000000.0 -676452000000.0 -695748000000.0 -915027000000.0 -115938000000.0 -296888000000.0 -1.53911e+12 -555522000000.0 -511394000000.0 -882658000000.0 -419331000000.0 -655380000000.0 -324969000000.0 -518487000000.0 -291821000000.0 -802265000000.0 -489976000000.0 -108331000000.0 -424988000000.0 -302286000000.0 -385020000000.0 -462867000000.0 -390375000000.0 -425280000000.0 -120050000000.0 -286263000000.0 -272432000000.0 -293827000000.0 -562924000000.0 -119178000000.0 -188362000000.0 -209467000000.0 -70635300000.0 -48170300000.0 -86493300000.0 -156709000000.0 -112500000000.0 -105985000000.0 -71036700000.0 -79396600000.0 -12549700000.0 -117031000000.0 -104895000000.0 -239445000000.0 -179469000000.0 -381088000000.0 -176027000000.0 -398498000000.0 -384315000000.0 -445603000000.0 -158797000000.0 -54952800000.0 -314908000000.0 -488123000000.0 -366888000000.0 -307552000000.0 -18615800000.0 -139064000000.0 -652907000000.0 -213925000000.0 -479255000000.0 -689794000000.0 -1.12515e+12 -451204000000.0 -362841000000.0 -281716000000.0 -182418000000.0 -393787000000.0 -330070000000.0 -757892000000.0 -429097000000.0 -521295000000.0 -749650000000.0 -1.6258e+12 -699909000000.0 -985455000000.0 -541726000000.0 -429129000000.0 -811032000000.0 -1.02488e+12 -1.26622e+12 -946995000000.0 -1.7324e+12 -580562000000.0 -65062000000.0 -204022000000.0 -928115000000.0 -629565000000.0 -653331000000.0 -579572000000.0 -702054000000.0 -1.18102e+12 -617734000000.0 -813896000000.0 -1.45334e+12 -454487000000.0 -1.14642e+12 -447379000000.0 -241976000000.0 -343135000000.0 -399933000000.0 -762797000000.0 -413413000000.0 -760847000000.0 -710678000000.0 -238395000000.0 -919096000000.0 -628999000000.0 -710404000000.0 -379860000000.0 -445202000000.0 -526720000000.0 -244858000000.0 -714692000000.0 -571857000000.0 -840207000000.0 -765086000000.0 -802351000000.0 -462990000000.0 -370973000000.0 -462949000000.0 -547333000000.0 -109564000000.0 -272676000000.0 -310529000000.0 -152176000000.0 -342276000000.0 -63166200000.0 -305149000000.0 -373986000000.0 -15926800000.0 -383281000000.0 -308688000000.0 -146030000000.0 -25555700000.0 -385128000000.0 -63350000000.0 -168830000000.0 -103024000000.0 -307353000000.0 -79915800000.0 -14688100000.0 -130147000000.0 -28084400000.0 -13622200000.0 -17606300000.0 -72632400000.0 -83053700000.0 -83181200000.0 -37482800000.0 -95638000000.0 -53150600000.0 -30485800000.0 -140504000000.0 -105039000000.0 -150187000000.0 -176721000000.0 -224737000000.0 -141644000000.0 -137055000000.0 -152367000000.0 -216079000000.0 -196062000000.0 -127475000000.0 -323123000000.0 -173909000000.0 -241777000000.0 -248635000000.0 -481734000000.0 -232277000000.0 -689246000000.0 -226511000000.0 -328547000000.0 -717576000000.0 -526776000000.0 -448261000000.0 -562173000000.0 -532703000000.0 -594958000000.0 -540019000000.0 -68711700000.0 -970789000000.0 -201818000000.0 -663749000000.0 -1.22414e+12 -446277000000.0 -323501000000.0 -647633000000.0 -604756000000.0 -526628000000.0 -629252000000.0 -935612000000.0 -794059000000.0 -909502000000.0 -170943000000.0 -566922000000.0 -900735000000.0 -801276000000.0 -597328000000.0 -1.21675e+12 -798022000000.0 -476170000000.0 -485893000000.0 -505349000000.0 -134125000000.0 -194437000000.0 -433529000000.0 -448313000000.0 -446511000000.0 -343508000000.0 -459755000000.0 -191231000000.0 -529384000000.0 -143342000000.0 -236649000000.0 -184027000000.0 -327513000000.0 -170784000000.0 -375702000000.0 -229148000000.0 -416143000000.0 -357131000000.0 -150584000000.0 -191041000000.0 -335798000000.0 -308506000000.0 -313073000000.0 -432026000000.0 -516039000000.0 -113138000000.0 -208619000000.0 -85067600000.0 -12831800000.0 -220886000000.0 -117264000000.0 -94908100000.0 -37712000000.0 -210069000000.0 -36334400000.0 -103126000000.0 -109080000000.0 -215796000000.0 -28045900000.0 -13747900000.0 -55685800000.0 -66753500000.0 -25454200000.0 -13254400000.0 -24136900000.0 -58339900000.0 -41788600000.0 -145324000000.0 -137655000000.0 -30167100000.0 -42654200000.0 -122598000000.0 -18842500000.0 -59532100000.0 -71442000000.0 -28642500000.0 -58978000000.0 -157374000000.0 -72773600000.0 -38314000000.0 -211120000000.0 -147030000000.0 -132190000000.0 -139662000000.0 -177531000000.0 -56990800000.0 -312490000000.0 -110569000000.0 -273691000000.0 -361252000000.0 -286227000000.0 -256175000000.0 -259601000000.0 -168383000000.0 -375247000000.0 -329405000000.0 -99238900000.0 -434610000000.0 -53209300000.0 -225264000000.0 -390602000000.0 -275629000000.0 -284128000000.0 -314319000000.0 -340050000000.0 -77206200000.0 -420571000000.0 -236312000000.0 -301467000000.0 -384036000000.0 -532642000000.0 -413904000000.0 -364562000000.0 -147937000000.0 -508677000000.0 -389846000000.0 -79289700000.0 -71802500000.0 -136287000000.0 -247550000000.0 -62877500000.0 -121678000000.0 -382396000000.0 -330944000000.0 -353121000000.0 -244502000000.0 -200861000000.0 -238313000000.0 -174553000000.0 -70676200000.0 -276522000000.0 -71699800000.0 -36110300000.0 -56618200000.0 -68676200000.0 -82281200000.0 -285643000000.0 -32977100000.0 -97650600000.0 -126657000000.0 -85523000000.0 -34974900000.0 -216243000000.0 -29902700000.0 -158237000000.0 -105712000000.0 -104938000000.0 -102961000000.0 -65456000000.0 -63727900000.0 -49520100000.0 -49869700000.0 -27727600000.0 -56302300000.0 -23321800000.0 -34923400000.0 -37816500000.0 -49958900000.0 -72823400000.0 -52374200000.0 -24897800000.0 -34697700000.0 -22074900000.0 -21890600000.0 -25839400000.0 -44454700000.0 -38862200000.0 -48571200000.0 -19474800000.0 -14022300000.0 -38388500000.0 -30044900000.0 -63825500000.0 -31819500000.0 -50165100000.0 -77058200000.0 -66417500000.0 -51027300000.0 -30938200000.0 -130122000000.0 -167418000000.0 -63129200000.0 -51924000000.0 -36242800000.0 -36985400000.0 -88036500000.0 -100390000000.0 -135223000000.0 -62537500000.0 -61664200000.0 -94271900000.0 -130154000000.0 -46157300000.0 -65330700000.0 -74485300000.0 -146923000000.0 -24762900000.0 -25059600000.0 -95727200000.0 -96255200000.0 -148853000000.0 -133130000000.0 -312317000000.0 -112800000000.0 -94858700000.0 -118683000000.0 -94170600000.0 -167058000000.0 -118876000000.0 -422628000000.0 -359202000000.0 -72952400000.0 -524969000000.0 -115035000000.0 -127303000000.0 -133490000000.0 -188803000000.0 -164944000000.0 -57717800000.0 -381002000000.0 -82160300000.0 -84141500000.0 -39019400000.0 -145409000000.0 -107804000000.0 -106247000000.0 -50793300000.0 -22801000000.0 -53856100000.0 -83322700000.0 -88085700000.0 -60073600000.0 