# vtk DataFile Version 2.0
Time step 55
ASCII
DATASET UNSTRUCTURED_GRID
POINTS 5000 float
207718.0 275485.0 0
297464.0 275631.0 0
202706.0 277331.0 0
206592.0 279766.0 0
213434.0 276734.0 0
209509.0 278723.0 0
216693.0 281526.0 0
221577.0 279301.0 0
228765.0 279507.0 0
232321.0 277457.0 0
232835.0 280785.0 0
237349.0 279433.0 0
271302.0 278618.0 0
278207.0 277170.0 0
285761.0 280051.0 0
291230.0 277682.0 0
297168.0 280906.0 0
202414.0 282379.0 0
207014.0 284070.0 0
211380.0 281821.0 0
213937.0 286075.0 0
221261.0 284765.0 0
225224.0 282096.0 0
230342.0 284005.0 0
235191.0 284565.0 0
242781.0 281477.0 0
240020.0 286189.0 0
249441.0 281993.0 0
255749.0 281369.0 0
257519.0 285742.0 0
260872.0 282957.0 0
264144.0 285672.0 0
266450.0 281444.0 0
268424.0 286360.0 0
270754.0 283127.0 0
275213.0 282551.0 0
280650.0 282724.0 0
284235.0 285279.0 0
287758.0 284571.0 0
292096.0 283205.0 0
203018.0 287657.0 0
209365.0 288564.0 0
217962.0 288585.0 0
222832.0 290380.0 0
226392.0 286358.0 0
228286.0 291223.0 0
231969.0 288144.0 0
236374.0 289553.0 0
245049.0 286580.0 0
249397.0 287572.0 0
247040.0 291138.0 0
253291.0 286567.0 0
251916.0 290969.0 0
256729.0 290572.0 0
260860.0 288248.0 0
265349.0 290466.0 0
269958.0 290214.0 0
273159.0 287393.0 0
277833.0 286735.0 0
276302.0 290581.0 0
280499.0 290520.0 0
281441.0 286812.0 0
285088.0 289330.0 0
288945.0 287984.0 0
292343.0 289513.0 0
296673.0 286900.0 0
201898.0 292123.0 0
202762.0 296367.0 0
206090.0 292374.0 0
213866.0 291402.0 0
210402.0 295980.0 0
218436.0 293011.0 0
222427.0 296094.0 0
226392.0 294899.0 0
232939.0 292518.0 0
229947.0 295905.0 0
233889.0 296216.0 0
236941.0 293998.0 0
241496.0 291442.0 0
245096.0 295617.0 0
249838.0 295264.0 0
254565.0 295040.0 0
259037.0 296471.0 0
260939.0 292519.0 0
264578.0 296578.0 0
268675.0 293735.0 0
272996.0 293317.0 0
270592.0 296126.0 0
278041.0 295399.0 0
283825.0 294470.0 0
288976.0 292385.0 0
287934.0 296504.0 0
291459.0 295927.0 0
296212.0 293808.0 0
202038.0 300720.0 0
206549.0 300259.0 0
216489.0 298078.0 0
221458.0 301370.0 0
226603.0 299834.0 0
232256.0 300490.0 0
236483.0 298875.0 0
240540.0 297168.0 0
243768.0 299902.0 0
241157.0 301463.0 0
247534.0 299843.0 0
252144.0 299283.0 0
256020.0 299131.0 0
269342.0 298790.0 0
273396.0 297980.0 0
277474.0 301656.0 0
281902.0 298854.0 0
285974.0 300050.0 0
290230.0 299245.0 0
293633.0 298628.0 0
297549.0 299571.0 0
202036.0 304302.0 0
206913.0 305789.0 0
211738.0 301731.0 0
216725.0 303790.0 0
220847.0 305749.0 0
229339.0 303729.0 0
225334.0 305357.0 0
232487.0 304994.0 0
237052.0 304067.0 0
242750.0 305337.0 0
246562.0 303778.0 0
248296.0 306807.0 0
254617.0 302964.0 0
250419.0 303542.0 0
259834.0 301767.0 0
257165.0 306180.0 0
265983.0 302947.0 0
270163.0 306359.0 0
271828.0 302122.0 0
274320.0 306012.0 0
280346.0 305457.0 0
277777.0 306422.0 0
282685.0 302819.0 0
286358.0 303882.0 0
290503.0 303014.0 0
294382.0 302066.0 0
294038.0 306536.0 0
297851.0 303850.0 0
202301.0 308136.0 0
205556.0 310970.0 0
212606.0 306990.0 0
209428.0 310154.0 0
217895.0 309811.0 0
222807.0 309009.0 0
226738.0 310620.0 0
229762.0 307459.0 0
233847.0 308958.0 0
239406.0 309768.0 0
244989.0 309915.0 0
249298.0 310183.0 0
252740.0 307634.0 0
257347.0 311113.0 0
261690.0 307264.0 0
266132.0 308611.0 0
269328.0 309586.0 0
272949.0 310430.0 0
276452.0 308840.0 0
279680.0 308861.0 0
283704.0 307193.0 0
288845.0 306969.0 0
286530.0 310500.0 0
291232.0 310742.0 0
295398.0 310836.0 0
298375.0 307383.0 0
298501.0 310253.0 0
201936.0 311939.0 0
201650.0 314872.0 0
204640.0 315036.0 0
208704.0 314638.0 0
213147.0 312300.0 0
212905.0 316233.0 0
217357.0 315882.0 0
222431.0 313260.0 0
226888.0 315578.0 0
230811.0 312914.0 0
235335.0 313641.0 0
239751.0 314678.0 0
243756.0 314490.0 0
247850.0 314114.0 0
252545.0 313032.0 0
255918.0 316835.0 0
259679.0 314910.0 0
262999.0 312415.0 0
264814.0 316744.0 0
268140.0 313331.0 0
272692.0 314973.0 0
277259.0 312739.0 0
279917.0 316728.0 0
282311.0 312309.0 0
283785.0 316418.0 0
288095.0 314661.0 0
293534.0 314796.0 0
297875.0 313617.0 0
202339.0 318151.0 0
205869.0 318758.0 0
209933.0 319196.0 0
213946.0 319153.0 0
217086.0 321266.0 0
222217.0 317954.0 0
226441.0 320254.0 0
232100.0 318494.0 0
237257.0 317943.0 0
242025.0 319185.0 0
246068.0 317518.0 0
246211.0 321265.0 0
250686.0 318592.0 0
260697.0 318835.0 0
269219.0 318277.0 0
265400.0 321565.0 0
273049.0 320617.0 0
275796.0 317115.0 0
277597.0 321129.0 0
282483.0 320983.0 0
286143.0 319079.0 0
290084.0 318889.0 0
294391.0 318869.0 0
297841.0 317398.0 0
297302.0 322005.0 0
202727.0 322252.0 0
201741.0 325744.0 0
207151.0 322723.0 0
205244.0 325908.0 0
208932.0 326240.0 0
211936.0 323012.0 0
212881.0 326927.0 0
214896.0 324433.0 0
217551.0 326615.0 0
221790.0 322906.0 0
226333.0 325359.0 0
229877.0 323077.0 0
233247.0 323937.0 0
237490.0 322799.0 0
242371.0 324269.0 0
246293.0 325274.0 0
250177.0 324071.0 0
255820.0 323197.0 0
261191.0 323607.0 0
264345.0 326823.0 0
269585.0 323449.0 0
273772.0 325714.0 0
278760.0 325465.0 0
283541.0 325862.0 0
286896.0 322415.0 0
288239.0 326656.0 0
292035.0 323542.0 0
202586.0 329121.0 0
206602.0 329214.0 0
210502.0 329770.0 0
214719.0 330315.0 0
218732.0 331460.0 0
222355.0 328194.0 0
226627.0 329778.0 0
230557.0 327392.0 0
229595.0 331395.0 0
233082.0 331247.0 0
235356.0 327540.0 0
239546.0 327934.0 0
244319.0 329253.0 0
241141.0 331748.0 0
249006.0 328750.0 0
252747.0 327723.0 0
259931.0 327298.0 0
256514.0 330399.0 0
261604.0 330984.0 0
265387.0 331035.0 0
268909.0 328032.0 0
272395.0 331139.0 0
280407.0 329107.0 0
276569.0 330067.0 0
282788.0 330564.0 0
285644.0 329910.0 0
289357.0 331602.0 0
292062.0 328674.0 0
293502.0 332307.0 0
296480.0 327481.0 0
297449.0 332307.0 0
203009.0 333459.0 0
207879.0 333266.0 0
212586.0 333660.0 0
216265.0 333833.0 0
223042.0 332781.0 0
219653.0 335527.0 0
223481.0 337252.0 0
227251.0 334415.0 0
231875.0 335715.0 0
237285.0 333090.0 0
241265.0 334977.0 0
244087.0 333948.0 0
247717.0 332966.0 0
246574.0 336295.0 0
251833.0 332459.0 0
250054.0 336798.0 0
255054.0 336797.0 0
259402.0 334551.0 0
263855.0 335771.0 0
268388.0 333214.0 0
267906.0 336773.0 0
271708.0 335905.0 0
275379.0 334799.0 0
279793.0 333758.0 0
277563.0 337382.0 0
285171.0 334627.0 0
290580.0 336367.0 0
296283.0 337177.0 0
202571.0 338028.0 0
202773.0 342161.0 0
206227.0 337784.0 0
207768.0 341802.0 0
210625.0 337668.0 0
212291.0 341865.0 0
215742.0 338161.0 0
220384.0 339995.0 0
227911.0 338801.0 0
224688.0 340937.0 0
231753.0 340911.0 0
235857.0 338256.0 0
235428.0 342541.0 0
238737.0 341932.0 0
239962.0 337943.0 0
243513.0 337526.0 0
242350.0 341405.0 0
246824.0 340404.0 0
251822.0 341785.0 0
259764.0 338792.0 0
256788.0 342165.0 0
262838.0 340383.0 0
266291.0 340013.0 0
270176.0 339692.0 0
274500.0 339288.0 0
278501.0 340896.0 0
281596.0 338284.0 0
282208.0 341900.0 0
286376.0 340072.0 0
291970.0 340785.0 0
297033.0 342231.0 0
201517.0 345600.0 0
205766.0 345905.0 0
209840.0 344764.0 0
213229.0 345157.0 0
217041.0 343193.0 0
215711.0 347650.0 0
219319.0 346906.0 0
222349.0 344212.0 0
228037.0 343840.0 0
225598.0 347307.0 0
233034.0 346136.0 0
237160.0 345465.0 0
240584.0 345651.0 0
244644.0 344698.0 0
248387.0 344810.0 0
254689.0 345679.0 0
257763.0 346668.0 0
260546.0 343576.0 0
264743.0 344172.0 0
261030.0 347560.0 0
268271.0 342946.0 0
268851.0 347008.0 0
271816.0 343046.0 0
273160.0 345892.0 0
275683.0 343536.0 0
279889.0 344667.0 0
276644.0 347770.0 0
284177.0 344961.0 0
288581.0 343728.0 0
288211.0 347832.0 0
292458.0 344906.0 0
296717.0 347051.0 0
197272.0 351056.0 0
201967.0 348460.0 0
202704.0 352480.0 0
204824.0 349548.0 0
207729.0 348984.0 0
207202.0 351942.0 0
210834.0 348244.0 0
214599.0 350965.0 0
219158.0 350987.0 0
222613.0 349213.0 0
229628.0 348796.0 0
226212.0 351314.0 0
233571.0 350810.0 0
237214.0 349297.0 0
240072.0 352823.0 0
240785.0 349440.0 0
243329.0 348149.0 0
244070.0 351617.0 0
246770.0 348296.0 0
248701.0 351464.0 0
251326.0 347715.0 0
252773.0 351774.0 0
255342.0 349335.0 0
258514.0 350514.0 0
264534.0 348316.0 0
261848.0 351771.0 0
266023.0 351705.0 0
269907.0 351861.0 0
272660.0 348869.0 0
274062.0 352190.0 0
277977.0 351837.0 0
280855.0 348431.0 0
284105.0 348568.0 0
282154.0 352582.0 0
285939.0 351355.0 0
292288.0 349346.0 0
293138.0 352114.0 0
296921.0 351697.0 0
202115.0 356587.0 0
205428.0 355162.0 0
208695.0 356105.0 0
210930.0 352735.0 0
212099.0 356980.0 0
214044.0 354857.0 0
217048.0 353908.0 0
216765.0 358019.0 0
223031.0 353172.0 0
220343.0 355347.0 0
223604.0 357445.0 0
226968.0 355625.0 0
230182.0 353051.0 0
233161.0 354816.0 0
230750.0 357278.0 0
236336.0 353846.0 0
238548.0 357551.0 0
242525.0 355863.0 0
246419.0 354864.0 0
248880.0 357607.0 0
250625.0 354734.0 0
253593.0 355076.0 0
256121.0 353146.0 0
259231.0 354610.0 0
263337.0 356070.0 0
267409.0 355233.0 0
271026.0 356248.0 0
275229.0 355605.0 0
279172.0 356583.0 0
283099.0 356569.0 0
289613.0 352981.0 0
285793.0 355099.0 0
287625.0 357848.0 0
290602.0 356774.0 0
293923.0 354955.0 0
297706.0 355909.0 0
202252.0 360219.0 0
205326.0 358429.0 0
206112.0 361482.0 0
208928.0 359387.0 0
209678.0 362304.0 0
212678.0 360155.0 0
216470.0 362405.0 0
220676.0 358679.0 0
223829.0 360657.0 0
220422.0 361681.0 0
227773.0 360059.0 0
234354.0 358210.0 0
231144.0 360341.0 0
233313.0 361707.0 0
236684.0 361674.0 0
242030.0 359327.0 0
240182.0 361891.0 0
243691.0 362201.0 0
245428.0 359089.0 0
246784.0 362328.0 0
249347.0 360785.0 0
252023.0 358025.0 0
253500.0 362182.0 0
256245.0 357917.0 0
260177.0 359342.0 0
263961.0 360688.0 0
266905.0 358541.0 0
266814.0 362260.0 0
270203.0 360633.0 0
274559.0 359745.0 0
278331.0 360683.0 0
284691.0 359301.0 0
281545.0 359917.0 0
283549.0 362159.0 0
287124.0 362488.0 0
290232.0 360575.0 0
293913.0 359114.0 0
295049.0 362611.0 0
297763.0 359228.0 0
298397.0 362011.0 0
202010.0 368041.0 0
203077.0 364331.0 0
207807.0 364973.0 0
212286.0 363462.0 0
211033.0 366714.0 0
215189.0 366483.0 0
219660.0 366235.0 0
222990.0 364117.0 0
223391.0 367707.0 0
226438.0 363916.0 0
227084.0 367943.0 0
230630.0 364626.0 0
234769.0 365185.0 0
238276.0 365612.0 0
241800.0 365496.0 0
244177.0 368217.0 0
245680.0 365168.0 0
249842.0 365357.0 0
257543.0 363289.0 0
258430.0 367169.0 0
254603.0 366990.0 0
261289.0 363786.0 0
261611.0 367975.0 0
264855.0 365448.0 0
269050.0 364738.0 0
267497.0 368274.0 0
272422.0 363877.0 0
271243.0 367472.0 0
274665.0 366959.0 0
276150.0 363592.0 0
280507.0 363693.0 0
277999.0 366213.0 0
284241.0 365565.0 0
280866.0 368111.0 0
288593.0 367026.0 0
291527.0 364046.0 0
295084.0 366067.0 0
297982.0 367690.0 0
297922.0 364776.0 0
302750.0 364789.0 0
202853.0 371570.0 0
206425.0 372001.0 0
206099.0 368203.0 0
210567.0 370115.0 0
213991.0 373316.0 0
218540.0 369611.0 0
214975.0 370065.0 0
217910.0 372661.0 0
224995.0 370639.0 0
221684.0 370957.0 0
227726.0 372315.0 0
230502.0 369679.0 0
233342.0 368534.0 0
233656.0 372698.0 0
236520.0 369253.0 0
236995.0 372766.0 0
240417.0 369908.0 0
244499.0 373022.0 0
247576.0 369108.0 0
249520.0 373430.0 0
251439.0 369646.0 0
254011.0 371300.0 0
256250.0 372876.0 0
256576.0 369885.0 0
259926.0 372116.0 0
264367.0 370171.0 0
266784.0 372478.0 0
269578.0 371314.0 0
273303.0 370762.0 0
277180.0 369642.0 0
279310.0 371427.0 0
281659.0 371522.0 0
284785.0 369708.0 0
288498.0 371740.0 0
293124.0 368943.0 0
297932.0 370293.0 0
295535.0 371801.0 0
304191.0 370559.0 0
196602.0 379539.0 0
199518.0 378771.0 0
200280.0 375102.0 0
203159.0 379431.0 0
203995.0 375313.0 0
209294.0 374496.0 0
207127.0 377858.0 0
212673.0 376764.0 0
215319.0 379319.0 0
216856.0 375771.0 0
220207.0 374029.0 0
219640.0 376722.0 0
224446.0 375235.0 0
228613.0 377243.0 0
230566.0 374025.0 0
232949.0 377449.0 0
239701.0 374488.0 0
236170.0 375871.0 0
238553.0 378238.0 0
242537.0 377577.0 0
246740.0 377243.0 0
249970.0 378012.0 0
253274.0 375314.0 0
257817.0 377427.0 0
263878.0 373895.0 0
262369.0 377256.0 0
267159.0 376228.0 0
270683.0 374573.0 0
272512.0 378197.0 0
276076.0 374592.0 0
278847.0 378784.0 0
280176.0 374134.0 0
284392.0 373791.0 0
282216.0 376333.0 0
287240.0 376232.0 0
290537.0 376137.0 0
291931.0 373374.0 0
293022.0 379462.0 0
296964.0 374617.0 0
294722.0 376654.0 0
300637.0 377532.0 0
298311.0 378237.0 0
302569.0 380351.0 0
189018.0 384531.0 0
194348.0 381293.0 0
191690.0 382818.0 0
196108.0 383481.0 0
193088.0 384783.0 0
198229.0 382005.0 0
197201.0 385716.0 0
200644.0 384641.0 0
200530.0 382356.0 0
204706.0 382609.0 0
203682.0 385440.0 0
207628.0 382426.0 0
209851.0 381240.0 0
210661.0 378911.0 0
212288.0 380629.0 0
215731.0 383881.0 0
218797.0 379801.0 0
220194.0 383541.0 0
222698.0 379529.0 0
224055.0 383583.0 0
226483.0 380357.0 0
230223.0 381168.0 0
233455.0 382052.0 0
235918.0 379900.0 0
237940.0 382938.0 0
240814.0 381094.0 0
244328.0 380910.0 0
247243.0 380372.0 0
246244.0 384213.0 0
250027.0 382234.0 0
253349.0 380128.0 0
256075.0 382779.0 0
260095.0 382024.0 0
263190.0 384054.0 0
264801.0 380335.0 0
269007.0 380180.0 0
266630.0 384062.0 0
275785.0 379398.0 0
273855.0 381890.0 0
277407.0 383232.0 0
281209.0 382682.0 0
284294.0 380002.0 0
287874.0 382298.0 0
289591.0 379212.0 0
290834.0 384551.0 0
297773.0 380633.0 0
294756.0 383672.0 0
301445.0 383498.0 0
305911.0 381273.0 0
304639.0 385319.0 0
307893.0 382343.0 0
308027.0 385195.0 0
310358.0 383792.0 0
312549.0 385724.0 0
183767.0 387650.0 0
181605.0 389501.0 0
183928.0 390658.0 0
186437.0 386536.0 0
190918.0 386449.0 0
187520.0 388912.0 0
190667.0 388951.0 0
193820.0 386561.0 0
193637.0 388698.0 0
195953.0 388057.0 0
199716.0 387660.0 0
197509.0 390227.0 0
206509.0 386770.0 0
202482.0 388836.0 0
205613.0 390126.0 0
208773.0 385409.0 0
208792.0 389657.0 0
212051.0 383971.0 0
211332.0 387923.0 0
214101.0 387795.0 0
217931.0 387619.0 0
221718.0 387693.0 0
224387.0 386436.0 0
227707.0 384267.0 0
226703.0 387675.0 0
229552.0 388524.0 0
231258.0 385729.0 0
235011.0 385394.0 0
232860.0 388603.0 0
238904.0 386741.0 0
235835.0 388876.0 0
242316.0 384907.0 0
242323.0 389460.0 0
249223.0 385962.0 0
246116.0 388408.0 0
252835.0 384993.0 0
250683.0 389013.0 0
254742.0 388478.0 0
257006.0 385925.0 0
260114.0 386715.0 0
264439.0 387641.0 0
267837.0 386889.0 0
267511.0 389207.0 0
270681.0 384508.0 0
270252.0 388653.0 0
272718.0 389289.0 0
274418.0 386526.0 0
277402.0 388159.0 0
280124.0 386216.0 0
284145.0 386308.0 0
280108.0 389117.0 0
288185.0 386585.0 0
290819.0 388628.0 0
294205.0 388618.0 0
297289.0 389555.0 0
298829.0 385986.0 0
302472.0 387514.0 0
300791.0 389818.0 0
306017.0 388245.0 0
310734.0 387686.0 0
309034.0 389235.0 0
313113.0 390020.0 0
315123.0 387437.0 0
317600.0 388988.0 0
320295.0 390243.0 0
170336.0 396056.0 0
173897.0 393571.0 0
172186.0 394729.0 0
176724.0 392883.0 0
179326.0 391304.0 0
180008.0 395718.0 0
186279.0 391468.0 0
181474.0 393640.0 0
182857.0 395936.0 0
184011.0 393633.0 0
185510.0 395550.0 0
190962.0 391492.0 0
188410.0 392895.0 0
187877.0 395368.0 0
194528.0 391355.0 0
191248.0 394179.0 0
194638.0 394483.0 0
200085.0 391956.0 0
198542.0 395557.0 0
202933.0 392856.0 0
204382.0 395312.0 0
206399.0 393152.0 0
208426.0 393890.0 0
210020.0 391894.0 0
211028.0 394698.0 0
212318.0 391068.0 0
213312.0 394530.0 0
215681.0 391051.0 0
217078.0 394900.0 0
219760.0 391395.0 0
222553.0 392242.0 0
224193.0 389827.0 0
227239.0 391975.0 0
229546.0 394713.0 0
231328.0 391144.0 0
234630.0 392428.0 0
238941.0 389443.0 0
238320.0 392273.0 0
241984.0 393819.0 0
245334.0 392670.0 0
248086.0 391699.0 0
253544.0 391919.0 0
251053.0 392881.0 0
257839.0 390427.0 0
256265.0 394411.0 0
259611.0 394035.0 0
261746.0 391344.0 0
265611.0 392060.0 0
269305.0 392433.0 0
272416.0 392087.0 0
275466.0 390978.0 0
278661.0 392030.0 0
274798.0 394017.0 0
277147.0 394567.0 0
282490.0 390506.0 0
281169.0 394288.0 0
284931.0 393783.0 0
287114.0 390525.0 0
290605.0 393388.0 0
297186.0 393157.0 0
294125.0 392774.0 0
300015.0 392983.0 0
303241.0 394130.0 0
304602.0 391179.0 0
307550.0 393574.0 0
309410.0 391430.0 0
312215.0 392320.0 0
311201.0 394797.0 0
316747.0 391611.0 0
314941.0 393519.0 0
318336.0 393178.0 0
315639.0 396101.0 0
322164.0 392233.0 0
320640.0 394423.0 0
324081.0 395985.0 0
324709.0 393133.0 0
326869.0 394109.0 0
328625.0 395986.0 0
163932.0 400445.0 0
161349.0 401415.0 0
168508.0 397863.0 0
165757.0 398482.0 0
168788.0 400677.0 0
172291.0 398508.0 0
174358.0 397580.0 0
176869.0 396354.0 0
178861.0 399379.0 0
184993.0 398127.0 0
181861.0 398345.0 0
182687.0 401151.0 0
189787.0 397128.0 0
187097.0 399764.0 0
192776.0 398370.0 0
196485.0 399279.0 0
199723.0 400486.0 0
201715.0 397739.0 0
204242.0 400829.0 0
206504.0 397513.0 0
209053.0 396876.0 0
210986.0 399657.0 0
214429.0 398391.0 0
217807.0 399567.0 0
220363.0 396061.0 0
224681.0 394559.0 0
223883.0 398235.0 0
226950.0 396477.0 0
229118.0 397936.0 0
232463.0 394751.0 0
233257.0 398692.0 0
235810.0 395473.0 0
238596.0 396051.0 0
237315.0 398969.0 0
241014.0 398688.0 0
244388.0 397112.0 0
248457.0 396140.0 0
252367.0 395852.0 0
254098.0 399021.0 0
258462.0 398313.0 0
260430.0 395754.0 0
262906.0 398926.0 0
262695.0 394905.0 0
265647.0 395337.0 0
268400.0 395769.0 0
267438.0 399353.0 0
271946.0 396422.0 0
275466.0 397461.0 0
279128.0 397572.0 0
283710.0 397365.0 0
287936.0 395610.0 0
287047.0 398350.0 0
289717.0 399561.0 0
291754.0 397374.0 0
294116.0 400521.0 0
298187.0 396208.0 0
295057.0 396762.0 0
297912.0 399327.0 0
301205.0 396171.0 0
301225.0 399512.0 0
306969.0 396243.0 0
304357.0 397083.0 0
304603.0 400501.0 0
307644.0 399313.0 0
312718.0 398159.0 0
309511.0 397426.0 0
315206.0 400986.0 0
318525.0 400128.0 0
318944.0 396910.0 0
322491.0 397540.0 0
322612.0 400026.0 0
326312.0 397371.0 0
325234.0 399486.0 0
331000.0 396733.0 0
332862.0 398114.0 0
328998.0 399522.0 0
331686.0 401327.0 0
334887.0 399127.0 0
336609.0 400324.0 0
338474.0 401678.0 0
154747.0 406634.0 0
158535.0 403274.0 0
156488.0 404393.0 0
158205.0 406435.0 0
159989.0 406116.0 0
160355.0 403898.0 0
163326.0 406351.0 0
162865.0 404121.0 0
165929.0 402494.0 0
167221.0 405026.0 0
170141.0 405048.0 0
171311.0 401958.0 0
174254.0 402315.0 0
174856.0 405530.0 0
176467.0 400740.0 0
178368.0 404266.0 0
184532.0 401919.0 0
180278.0 402604.0 0
182508.0 404376.0 0
189239.0 402200.0 0
185386.0 403844.0 0
185844.0 406418.0 0
189309.0 405627.0 0
193068.0 402465.0 0
193258.0 405544.0 0
196700.0 402545.0 0
196871.0 405535.0 0
200251.0 402965.0 0
199770.0 406090.0 0
203224.0 404546.0 0
207888.0 400836.0 0
207333.0 404282.0 0
211211.0 403347.0 0
215025.0 403183.0 0
218701.0 403696.0 0
221028.0 400632.0 0
221833.0 405330.0 0
223204.0 402546.0 0
225417.0 404858.0 0
226543.0 400731.0 0
230207.0 402508.0 0
227994.0 405012.0 0
235204.0 402936.0 0
238879.0 402270.0 0
243326.0 402503.0 0
246536.0 400657.0 0
247366.0 404521.0 0
250503.0 401048.0 0
253288.0 404331.0 0
256181.0 402431.0 0
260048.0 402450.0 0
264539.0 403767.0 0
268753.0 403544.0 0
271712.0 400801.0 0
270797.0 405727.0 0
275106.0 400055.0 0
277897.0 401775.0 0
274566.0 404711.0 0
280750.0 404892.0 0
282188.0 401379.0 0
284610.0 404667.0 0
288089.0 402604.0 0
285984.0 401350.0 0
291461.0 402766.0 0
294311.0 405824.0 0
297213.0 403263.0 0
300729.0 402746.0 0
303671.0 403633.0 0
307459.0 402603.0 0
306630.0 404912.0 0
310472.0 401474.0 0
309634.0 404858.0 0
312399.0 404221.0 0
315418.0 403873.0 0
318436.0 404917.0 0
320590.0 402468.0 0
323512.0 404083.0 0
326420.0 402284.0 0
329294.0 403680.0 0
326186.0 406257.0 0
328231.0 406490.0 0
334067.0 403167.0 0
330271.0 406045.0 0
332829.0 405846.0 0
337203.0 404860.0 0
340513.0 403485.0 0
342856.0 404892.0 0
345117.0 406694.0 0
147793.0 410477.0 0
145231.0 411919.0 0
152204.0 407386.0 0
150115.0 409246.0 0
152273.0 411094.0 0
154961.0 410679.0 0
157556.0 408977.0 0
161321.0 407516.0 0
160511.0 410638.0 0
164051.0 410566.0 0
166153.0 408004.0 0
168836.0 409595.0 0
171526.0 407167.0 0
172951.0 409239.0 0
170532.0 411338.0 0
179361.0 407332.0 0
176197.0 408394.0 0
179813.0 411007.0 0
182353.0 407029.0 0
182856.0 410530.0 0
186475.0 409662.0 0
189902.0 408731.0 0
193378.0 408329.0 0
196510.0 408449.0 0
198751.0 410678.0 0
201779.0 408321.0 0
204761.0 407773.0 0
210013.0 407981.0 0
214449.0 407256.0 0
214458.0 410894.0 0
218313.0 408061.0 0
223083.0 408813.0 0
226775.0 408311.0 0
229844.0 406938.0 0
230606.0 409149.0 0
232670.0 405764.0 0
233958.0 408962.0 0
236797.0 406176.0 0
240423.0 406232.0 0
244262.0 406577.0 0
242103.0 409880.0 0
244784.0 409619.0 0
247296.0 408575.0 0
250709.0 409511.0 0
250253.0 405800.0 0
254840.0 408365.0 0
257659.0 405579.0 0
259022.0 410024.0 0
261257.0 406873.0 0
267137.0 407166.0 0
264491.0 409621.0 0
270315.0 408920.0 0
274616.0 409321.0 0
278826.0 408655.0 0
278320.0 405896.0 0
282704.0 407839.0 0
287550.0 405658.0 0
286406.0 408940.0 0
289921.0 409786.0 0
290792.0 406584.0 0
293162.0 409173.0 0
299066.0 406356.0 0
297073.0 409835.0 0
302342.0 406622.0 0
301286.0 410182.0 0
305697.0 408090.0 0
312721.0 407289.0 0
309574.0 407891.0 0
310557.0 411390.0 0
313933.0 410320.0 0
315551.0 406862.0 0
319575.0 407270.0 0
316995.0 409223.0 0
322425.0 406732.0 0
320472.0 410583.0 0
323299.0 409611.0 0
328289.0 408541.0 0
325933.0 408728.0 0
326969.0 411307.0 0
330773.0 409211.0 0
334046.0 408921.0 0
337252.0 407776.0 0
338721.0 410610.0 0
340815.0 407433.0 0
341884.0 410058.0 0
344906.0 409705.0 0
348108.0 407166.0 0
349956.0 409670.0 0
352771.0 410041.0 0
354858.0 411587.0 0
142567.0 414122.0 0
140037.0 416449.0 0
148895.0 413065.0 0
146201.0 415136.0 0
151213.0 413488.0 0
152039.0 416242.0 0
155615.0 414157.0 0
159287.0 414322.0 0
163124.0 415073.0 0
166268.0 413485.0 0
169342.0 413730.0 0
173152.0 412407.0 0
171218.0 415035.0 0
174144.0 415802.0 0
176529.0 411634.0 0
177298.0 415031.0 0
180394.0 414690.0 0
183578.0 413765.0 0
187425.0 412788.0 0
188126.0 415843.0 0
190570.0 411957.0 0
193573.0 411265.0 0
191571.0 414720.0 0
195583.0 413742.0 0
198838.0 415178.0 0
202253.0 412306.0 0
206477.0 411953.0 0
210046.0 414662.0 0
212073.0 411592.0 0
214210.0 415640.0 0
216745.0 411904.0 0
220554.0 412026.0 0
218424.0 415504.0 0
224540.0 412191.0 0
222718.0 415191.0 0
226053.0 415844.0 0
228043.0 411815.0 0
230076.0 415486.0 0
231813.0 411796.0 0
233256.0 414375.0 0
234612.0 412104.0 0
238141.0 410195.0 0
236937.0 414232.0 0
244848.0 412291.0 0
241139.0 414433.0 0
248270.0 413128.0 0
252948.0 413815.0 0
257034.0 413268.0 0
262037.0 412989.0 0
267931.0 412119.0 0
265366.0 415253.0 0
271999.0 412630.0 0
275447.0 413504.0 0
277825.0 411686.0 0
278488.0 415478.0 0
281802.0 412216.0 0
285627.0 412372.0 0
288542.0 412365.0 0
290120.0 415108.0 0
292036.0 412283.0 0
295428.0 413337.0 0
298591.0 415239.0 0
303990.0 411421.0 0
300223.0 413196.0 0
303720.0 415181.0 0
307312.0 411412.0 0
307164.0 413685.0 0
311473.0 414743.0 0
317695.0 412594.0 0
315169.0 413494.0 0
320935.0 414243.0 0
323539.0 416558.0 0
324515.0 412853.0 0
326041.0 415495.0 0
328721.0 414984.0 0
329727.0 412074.0 0
334659.0 411916.0 0
332564.0 413787.0 0
333087.0 416734.0 0
337702.0 413214.0 0
336015.0 415358.0 0
342375.0 412787.0 0
341043.0 415995.0 0
347710.0 412081.0 0
345153.0 413935.0 0
349080.0 415258.0 0
352352.0 413024.0 0
354558.0 415511.0 0
351458.0 416850.0 0
357116.0 413853.0 0
359734.0 415648.0 0
362800.0 416356.0 0
134347.0 418988.0 0
129982.0 421204.0 0
132233.0 420174.0 0
136974.0 417657.0 0
136661.0 421877.0 0
144385.0 417358.0 0
141948.0 419785.0 0
144613.0 420622.0 0
148255.0 417274.0 0
148075.0 420542.0 0
153018.0 418815.0 0
150966.0 421157.0 0
154866.0 420969.0 0
155775.0 417484.0 0
159724.0 418122.0 0
157195.0 419171.0 0
163531.0 418027.0 0
160812.0 420814.0 0
164283.0 420790.0 0
167147.0 417143.0 0
169910.0 418444.0 0
167359.0 421573.0 0
173428.0 419379.0 0
177742.0 418240.0 0
177024.0 421537.0 0
184412.0 417162.0 0
181100.0 418588.0 0
183385.0 421547.0 0
186127.0 420167.0 0
189579.0 418755.0 0
192302.0 417315.0 0
195147.0 417934.0 0
198595.0 418799.0 0
201701.0 416207.0 0
201826.0 419618.0 0
204322.0 419524.0 0
204896.0 416465.0 0
207476.0 417126.0 0
206866.0 419663.0 0
209804.0 418659.0 0
212496.0 419905.0 0
216613.0 420180.0 0
220603.0 418616.0 0
223946.0 419808.0 0
227834.0 419695.0 0
231632.0 418673.0 0
234725.0 417272.0 0
238034.0 417849.0 0
240832.0 418447.0 0
245155.0 417503.0 0
249925.0 417419.0 0
252981.0 418672.0 0
259607.0 416183.0 0
256012.0 417358.0 0
258799.0 420643.0 0
262954.0 418881.0 0
267213.0 419254.0 0
269849.0 416315.0 0
272855.0 418741.0 0
273436.0 415869.0 0
270916.0 420272.0 0
276011.0 417746.0 0
279231.0 419892.0 0
282778.0 417325.0 0
286652.0 416082.0 0
286523.0 420517.0 0
288576.0 418774.0 0
291324.0 419480.0 0
293388.0 416391.0 0
294840.0 420875.0 0
296651.0 417845.0 0
301065.0 417059.0 0
299596.0 419509.0 0
302672.0 420439.0 0
308353.0 416772.0 0
304859.0 419008.0 0
308119.0 420617.0 0
313501.0 417860.0 0
311260.0 419822.0 0
316396.0 416492.0 0
315238.0 420259.0 0
317866.0 420408.0 0
319477.0 417465.0 0
323172.0 420282.0 0
327095.0 419281.0 0
330163.0 417948.0 0
331907.0 421829.0 0
338077.0 418071.0 0
335239.0 420137.0 0
344056.0 417924.0 0
340328.0 420147.0 0
344254.0 421396.0 0
347086.0 417783.0 0
348714.0 420345.0 0
352136.0 419984.0 0
355562.0 418727.0 0
359199.0 418880.0 0
356804.0 421661.0 0
364454.0 418552.0 0
361404.0 421011.0 0
366816.0 419935.0 0
369768.0 420290.0 0
371293.0 421908.0 0
119642.0 427410.0 0
122952.0 426872.0 0
127991.0 421946.0 0
124902.0 424862.0 0
126444.0 423085.0 0
131518.0 423910.0 0
128768.0 425151.0 0
134905.0 424153.0 0
139089.0 425138.0 0
139674.0 422193.0 0
142174.0 424216.0 0
144785.0 424434.0 0
147458.0 424049.0 0
152909.0 423867.0 0
149936.0 426127.0 0
157239.0 421936.0 0
155344.0 425548.0 0
159392.0 424289.0 0
163116.0 424528.0 0
166425.0 425333.0 0
169498.0 426086.0 0
169966.0 422747.0 0
172670.0 422825.0 0
172765.0 426186.0 0
180111.0 422490.0 0
175803.0 424327.0 0
178565.0 426155.0 0
182310.0 424599.0 0
184995.0 424255.0 0
187399.0 422689.0 0
188693.0 425061.0 0
191163.0 421740.0 0
194741.0 421788.0 0
191819.0 425217.0 0
194628.0 425538.0 0
198186.0 422197.0 0
197681.0 425764.0 0
201593.0 422868.0 0
205003.0 422659.0 0
208863.0 423126.0 0
213385.0 423495.0 0
216507.0 425069.0 0
219880.0 422531.0 0
223166.0 423657.0 0
227476.0 424541.0 0
234821.0 421169.0 0
231034.0 421855.0 0
232385.0 424773.0 0
236214.0 425200.0 0
238724.0 421460.0 0
242753.0 421867.0 0
248162.0 420963.0 0
246062.0 423906.0 0
249286.0 425033.0 0
251192.0 421785.0 0
254951.0 421673.0 0
262117.0 422908.0 0
265244.0 422936.0 0
268504.0 422601.0 0
272214.0 424532.0 0
275382.0 421590.0 0
279166.0 424388.0 0
283022.0 422103.0 0
286249.0 425223.0 0
289640.0 423106.0 0
292589.0 426158.0 0
292744.0 423339.0 0
295368.0 424877.0 0
298516.0 422733.0 0
299005.0 426313.0 0
302048.0 423726.0 0
305582.0 423102.0 0
305281.0 426260.0 0
309656.0 424317.0 0
313329.0 423336.0 0
317472.0 423982.0 0
320195.0 422554.0 0
321352.0 424879.0 0
328793.0 422527.0 0
324817.0 424179.0 0
328421.0 426106.0 0
332808.0 424798.0 0
331266.0 426726.0 0
335140.0 425320.0 0
337416.0 423160.0 0
340953.0 422437.0 0
342052.0 425328.0 0
347656.0 422779.0 0
345510.0 425281.0 0
352696.0 422818.0 0
350407.0 425054.0 0
353079.0 427081.0 0
356316.0 424395.0 0
363841.0 422867.0 0
360388.0 424502.0 0
364878.0 424820.0 0
368072.0 422565.0 0
368183.0 424955.0 0
372968.0 423857.0 0
375687.0 425025.0 0
371227.0 426215.0 0
377743.0 427225.0 0
112359.0 432438.0 0
117599.0 429857.0 0
114481.0 430820.0 0
121129.0 430183.0 0
122660.0 432248.0 0
125188.0 428973.0 0
127635.0 427356.0 0
128350.0 430172.0 0
126053.0 432204.0 0
130471.0 428078.0 0
132175.0 427085.0 0
131185.0 431056.0 0
134073.0 430445.0 0
135436.0 427413.0 0
137523.0 431410.0 0
139420.0 428246.0 0
143299.0 427724.0 0
141143.0 431391.0 0
146574.0 428127.0 0
144048.0 430957.0 0
147716.0 430946.0 0
151476.0 429209.0 0
158987.0 428071.0 0
155306.0 429258.0 0
163063.0 427774.0 0
161168.0 430171.0 0
165853.0 428780.0 0
164930.0 432192.0 0
169231.0 429687.0 0
172915.0 429937.0 0
175613.0 427075.0 0
176667.0 429974.0 0
179669.0 430504.0 0
181705.0 427589.0 0
183335.0 431867.0 0
186047.0 427780.0 0
187412.0 431505.0 0
190440.0 428155.0 0
194054.0 429133.0 0
197345.0 429072.0 0
200108.0 428981.0 0
200760.0 426510.0 0
204454.0 427141.0 0
202029.0 431030.0 0
205623.0 431155.0 0
208497.0 427905.0 0
211912.0 426461.0 0
211594.0 429550.0 0
213932.0 428052.0 0
216954.0 430019.0 0
220151.0 426670.0 0
221215.0 430826.0 0
223689.0 428095.0 0
226963.0 429929.0 0
230430.0 427900.0 0
234071.0 428629.0 0
237761.0 429106.0 0
240108.0 425843.0 0
240880.0 430012.0 0
243707.0 427130.0 0
247339.0 428883.0 0
253323.0 426085.0 0
250435.0 428267.0 0
254578.0 430212.0 0
258605.0 426389.0 0
262021.0 430448.0 0
263738.0 426181.0 0
265505.0 429490.0 0
268009.0 426617.0 0
271958.0 429459.0 0
275998.0 427130.0 0
279622.0 429238.0 0
282692.0 427081.0 0
282550.0 430906.0 0
286606.0 430050.0 0
289923.0 427983.0 0
293157.0 430685.0 0
296279.0 428347.0 0
299102.0 431032.0 0
302153.0 428229.0 0
305230.0 429759.0 0
308457.0 428036.0 0
314102.0 426817.0 0
312056.0 428404.0 0
317093.0 427067.0 0
315359.0 430464.0 0
318625.0 430913.0 0
320267.0 427467.0 0
323967.0 427419.0 0
322883.0 430813.0 0
326450.0 428552.0 0
329483.0 430753.0 0
333149.0 429826.0 0
339246.0 427029.0 0
336124.0 428436.0 0
337878.0 431336.0 0
343788.0 428544.0 0
341120.0 430034.0 0
348590.0 428161.0 0
346430.0 430834.0 0
351796.0 430044.0 0
356820.0 428114.0 0
355983.0 431907.0 0
360248.0 431355.0 0
361195.0 427806.0 0
364371.0 427437.0 0
364831.0 430156.0 0
363409.0 432402.0 0
367880.0 428307.0 0
369215.0 431369.0 0
372104.0 428873.0 0
373977.0 427532.0 0
373753.0 430418.0 0
376442.0 430100.0 0
380819.0 428487.0 0
378741.0 431813.0 0
382936.0 430833.0 0
386024.0 431702.0 0
105110.0 436330.0 0
108166.0 435859.0 0
110066.0 433775.0 0
112773.0 436675.0 0
114297.0 434418.0 0
117325.0 433001.0 0
118415.0 435913.0 0
121509.0 435000.0 0
123719.0 436753.0 0
127448.0 435715.0 0
130558.0 433815.0 0
134619.0 433286.0 0
132839.0 435060.0 0
137637.0 435031.0 0
140894.0 433978.0 0
143942.0 433933.0 0
141543.0 436418.0 0
143609.0 436787.0 0
147261.0 434214.0 0
151682.0 432156.0 0
150422.0 435095.0 0
153923.0 435168.0 0
156408.0 432446.0 0
156726.0 435965.0 0
158690.0 436584.0 0
160193.0 433716.0 0
164762.0 435582.0 0
168739.0 433457.0 0
172578.0 433677.0 0
172181.0 437049.0 0
176363.0 434283.0 0
179566.0 433392.0 0
178734.0 436257.0 0
181807.0 436053.0 0
186259.0 435354.0 0
189940.0 434962.0 0
190455.0 431518.0 0
194260.0 433461.0 0
198146.0 432443.0 0
200619.0 435436.0 0
204288.0 433846.0 0
208937.0 432240.0 0
213111.0 432003.0 0
215529.0 435431.0 0
218738.0 433503.0 0
221502.0 434527.0 0
223747.0 432267.0 0
223690.0 436199.0 0
226438.0 434262.0 0
230983.0 432374.0 0
235507.0 432586.0 0
238882.0 432265.0 0
241652.0 434470.0 0
243923.0 431196.0 0
246993.0 433910.0 0
251116.0 431534.0 0
254012.0 433979.0 0
257870.0 432632.0 0
261430.0 434386.0 0
264810.0 433475.0 0
268583.0 431554.0 0
272243.0 434010.0 0
276312.0 432042.0 0
280262.0 434028.0 0
285010.0 434235.0 0
289901.0 433233.0 0
293477.0 435396.0 0
296332.0 433395.0 0
299541.0 434413.0 0
303251.0 433368.0 0
306849.0 432046.0 0
308078.0 436099.0 0
310982.0 432322.0 0
312561.0 436559.0 0
314884.0 433830.0 0
317743.0 434106.0 0
320874.0 434256.0 0
324088.0 435007.0 0
326150.0 432431.0 0
327753.0 436225.0 0
332446.0 432792.0 0
330337.0 434015.0 0
333130.0 435478.0 0
335484.0 433127.0 0
340031.0 433614.0 0
338029.0 435574.0 0
343407.0 433282.0 0
342817.0 436934.0 0
348309.0 433724.0 0
346656.0 436253.0 0
350814.0 432512.0 0
350731.0 435907.0 0
353101.0 434738.0 0
357821.0 435379.0 0
361342.0 435331.0 0
365705.0 436586.0 0
366676.0 433864.0 0
369816.0 436384.0 0
372321.0 433740.0 0
374437.0 436948.0 0
375686.0 433294.0 0
377584.0 436687.0 0
378722.0 434328.0 0
381753.0 434011.0 0
382981.0 436940.0 0
385641.0 435110.0 0
388525.0 433035.0 0
390632.0 435438.0 0
393213.0 437249.0 0
396473.0 437964.0 0
98500.6 441525.0 0
100577.0 439624.0 0
103292.0 438499.0 0
108431.0 438994.0 0
105056.0 441005.0 0
112097.0 439034.0 0
110244.0 442136.0 0
115953.0 438195.0 0
118205.0 440241.0 0
114495.0 441821.0 0
118784.0 442537.0 0
120120.0 438768.0 0
122717.0 439657.0 0
121932.0 442562.0 0
126428.0 439878.0 0
129289.0 440638.0 0
130420.0 437838.0 0
131631.0 441156.0 0
134197.0 438249.0 0
135120.0 442066.0 0
137677.0 439360.0 0
138226.0 441564.0 0
139434.0 437873.0 0
141559.0 439106.0 0
144044.0 439557.0 0
144465.0 442095.0 0
146672.0 437972.0 0
147764.0 441332.0 0
150157.0 438158.0 0
150659.0 441579.0 0
153285.0 439315.0 0
156738.0 438649.0 0
159096.0 441862.0 0
162505.0 437246.0 0
160308.0 438464.0 0
163540.0 441801.0 0
165567.0 438618.0 0
168522.0 437352.0 0
167647.0 441544.0 0
171383.0 441015.0 0
175299.0 438423.0 0
178223.0 438009.0 0
177643.0 441199.0 0
180384.0 439435.0 0
185201.0 440080.0 0
189657.0 438386.0 0
192857.0 437465.0 0
194552.0 440189.0 0
196738.0 436741.0 0
199253.0 439985.0 0
203594.0 437671.0 0
203345.0 441334.0 0
206703.0 435927.0 0
206922.0 439634.0 0
211134.0 436743.0 0
209901.0 441022.0 0
213062.0 440401.0 0
219002.0 436567.0 0
216376.0 439777.0 0
221064.0 439592.0 0
226127.0 439075.0 0
229074.0 436420.0 0
230174.0 439364.0 0
232967.0 436516.0 0
233762.0 441148.0 0
237343.0 436724.0 0
237817.0 440967.0 0
244278.0 437415.0 0
240906.0 439144.0 0
247740.0 440071.0 0
250711.0 436379.0 0
254022.0 437842.0 0
252310.0 441090.0 0
256400.0 436498.0 0
259481.0 437668.0 0
263399.0 437503.0 0
268440.0 436560.0 0
265923.0 440623.0 0
272699.0 437920.0 0
278812.0 437672.0 0
275817.0 436399.0 0
280045.0 441820.0 0
275693.0 440731.0 0
282388.0 437853.0 0
288238.0 436511.0 0
285744.0 438210.0 0
287878.0 439444.0 0
291133.0 438159.0 0
297433.0 436327.0 0
295286.0 438706.0 0
299113.0 440633.0 0
300918.0 437100.0 0
304271.0 437756.0 0
307709.0 440024.0 0
311762.0 440195.0 0
316416.0 437114.0 0
315722.0 440718.0 0
319305.0 440716.0 0
319651.0 437554.0 0
323304.0 437889.0 0
322242.0 440438.0 0
326570.0 439687.0 0
330984.0 437770.0 0
330370.0 440907.0 0
333861.0 440238.0 0
335661.0 437805.0 0
337951.0 439877.0 0
339923.0 437630.0 0
340877.0 440613.0 0
343544.0 439911.0 0
343298.0 441567.0 0
345118.0 441506.0 0
349403.0 438158.0 0
345561.0 439190.0 0
348071.0 440687.0 0
352091.0 438901.0 0
354863.0 437672.0 0
358974.0 438141.0 0
355827.0 441696.0 0
357423.0 439354.0 0
363057.0 438451.0 0
360639.0 440295.0 0
368132.0 438969.0 0
365830.0 441781.0 0
370416.0 440748.0 0
371795.0 438038.0 0
372219.0 439958.0 0
374645.0 440203.0 0
377108.0 439741.0 0
380369.0 438499.0 0
378397.0 440874.0 0
385051.0 439275.0 0
381214.0 441133.0 0
383326.0 441344.0 0
387683.0 437259.0 0
387305.0 441648.0 0
389743.0 440151.0 0
393542.0 440882.0 0
396133.0 442276.0 0
398762.0 440274.0 0
401346.0 442183.0 0
93143.4 445533.0 0
89973.5 447103.0 0
96032.9 443528.0 0
98120.5 445617.0 0
101709.0 443147.0 0
101609.0 445871.0 0
103556.0 447634.0 0
106205.0 443949.0 0
106852.0 446552.0 0
110628.0 445501.0 0
114585.0 445249.0 0
118173.0 444921.0 0
121664.0 445030.0 0
119274.0 447167.0 0
125518.0 443363.0 0
128751.0 443437.0 0
125072.0 446622.0 0
128805.0 446272.0 0
132515.0 444612.0 0
137103.0 444137.0 0
135977.0 446713.0 0
141058.0 442462.0 0
140078.0 445998.0 0
144541.0 444873.0 0
147901.0 444829.0 0
151447.0 444958.0 0
153695.0 447462.0 0
154911.0 443114.0 0
156471.0 446694.0 0
159557.0 445733.0 0
162639.0 445508.0 0
165597.0 445015.0 0
168487.0 444707.0 0
174485.0 442671.0 0
171646.0 445270.0 0
174586.0 446462.0 0
177389.0 444838.0 0
181273.0 443178.0 0
184154.0 444828.0 0
186953.0 444194.0 0
190368.0 441937.0 0
193004.0 444946.0 0
196421.0 443364.0 0
199716.0 445138.0 0
203463.0 444912.0 0
207461.0 444544.0 0
213055.0 444257.0 0
218015.0 444643.0 0
223826.0 443454.0 0
228681.0 442761.0 0
231898.0 445467.0 0
236738.0 444907.0 0
239953.0 442731.0 0
243467.0 442177.0 0
246101.0 446128.0 0
249952.0 444345.0 0
253825.0 445695.0 0
256592.0 441383.0 0
258010.0 446061.0 0
261694.0 442774.0 0
266068.0 444230.0 0
270437.0 442066.0 0
274216.0 444279.0 0
277426.0 446228.0 0
284821.0 441854.0 0
282416.0 446769.0 0
286547.0 445530.0 0
289494.0 442564.0 0
293531.0 441792.0 0
293237.0 445899.0 0
296266.0 443450.0 0
298972.0 444165.0 0
303937.0 442431.0 0
301022.0 445764.0 0
307296.0 445587.0 0
309340.0 443197.0 0
310868.0 446121.0 0
312717.0 443981.0 0
316120.0 444473.0 0
324491.0 442900.0 0
320438.0 444459.0 0
323515.0 446935.0 0
326871.0 446016.0 0
328058.0 443102.0 0
333223.0 442915.0 0
330943.0 445316.0 0
335064.0 445716.0 0
336547.0 442477.0 0
340132.0 444441.0 0
344367.0 445007.0 0
348132.0 443868.0 0
352108.0 442453.0 0
353119.0 446663.0 0
359186.0 442769.0 0
356028.0 444892.0 0
359122.0 446239.0 0
362828.0 443447.0 0
363221.0 447271.0 0
367370.0 445895.0 0
370836.0 444134.0 0
374550.0 443321.0 0
375593.0 447111.0 0
377780.0 443232.0 0
380631.0 443621.0 0
378361.0 446063.0 0
385291.0 443895.0 0
383167.0 445910.0 0
388533.0 446914.0 0
389406.0 444728.0 0
391797.0 443035.0 0
393148.0 445397.0 0
396187.0 444758.0 0
399386.0 444711.0 0
397162.0 447233.0 0
400016.0 447622.0 0
404100.0 443710.0 0
402216.0 446641.0 0
407360.0 444928.0 0
406220.0 447672.0 0
410236.0 447215.0 0
77989.6 452919.0 0
86667.7 448226.0 0
84059.5 450986.0 0
87334.6 451461.0 0
90234.2 450232.0 0
93652.6 451752.0 0
95255.0 448792.0 0
97604.1 451526.0 0
98793.2 448635.0 0
103746.0 450486.0 0
100713.0 450860.0 0
107431.0 449739.0 0
110784.0 448102.0 0
109890.0 451729.0 0
112559.0 450131.0 0
115005.0 447891.0 0
117363.0 450151.0 0
121985.0 448166.0 0
120049.0 452065.0 0
123298.0 451423.0 0
126320.0 450116.0 0
129440.0 449156.0 0
132645.0 448611.0 0
130248.0 452148.0 0
133406.0 452072.0 0
136573.0 449713.0 0
139463.0 449242.0 0
143543.0 448090.0 0
140620.0 451872.0 0
144075.0 451764.0 0
147463.0 448181.0 0
147458.0 451415.0 0
150605.0 448329.0 0
150903.0 451512.0 0
153631.0 449828.0 0
154863.0 452129.0 0
157112.0 449596.0 0
164723.0 448256.0 0
160837.0 448666.0 0
163478.0 451858.0 0
167957.0 447711.0 0
167132.0 451401.0 0
171264.0 449981.0 0
176174.0 449625.0 0
180451.0 447984.0 0
182716.0 451618.0 0
188912.0 447411.0 0
184766.0 447813.0 0
186174.0 451263.0 0
192582.0 449277.0 0
196173.0 447738.0 0
199128.0 450934.0 0
202929.0 448233.0 0
206497.0 449700.0 0
210348.0 448023.0 0
214305.0 449457.0 0
218291.0 449574.0 0
221663.0 447701.0 0
223868.0 450777.0 0
227123.0 447398.0 0
230884.0 450515.0 0
234553.0 448567.0 0
237852.0 449485.0 0
241155.0 446562.0 0
243812.0 450254.0 0
240683.0 450500.0 0
247342.0 450503.0 0
250461.0 448594.0 0
253798.0 451082.0 0
255941.0 448412.0 0
258601.0 451043.0 0
261305.0 447924.0 0
264634.0 447522.0 0
268435.0 446363.0 0
267951.0 450919.0 0
272205.0 447553.0 0
275617.0 450624.0 0
279697.0 451074.0 0
283957.0 451693.0 0
289527.0 446783.0 0
286325.0 448795.0 0
288932.0 449918.0 0
292161.0 449779.0 0
295069.0 449443.0 0
297202.0 447009.0 0
298053.0 451403.0 0
300506.0 448856.0 0
304180.0 448227.0 0
307953.0 448626.0 0
314167.0 447191.0 0
311243.0 449559.0 0
315547.0 451372.0 0
318851.0 448464.0 0
323176.0 450841.0 0
327440.0 449128.0 0
331340.0 449160.0 0
335024.0 449340.0 0
338419.0 448028.0 0
338047.0 450488.0 0
342230.0 449783.0 0
349516.0 447123.0 0
346362.0 448510.0 0
349456.0 451032.0 0
353103.0 450662.0 0
356627.0 448490.0 0
359805.0 449380.0 0
362192.0 452357.0 0
369377.0 449316.0 0
366014.0 450356.0 0
370426.0 452532.0 0
372466.0 448143.0 0
374143.0 451774.0 0
380657.0 448476.0 0
377687.0 450822.0 0
386035.0 448869.0 0
383527.0 451252.0 0
390879.0 449676.0 0
388771.0 452181.0 0
392734.0 447542.0 0
395566.0 449295.0 0
393504.0 451445.0 0
397868.0 451861.0 0
400484.0 450838.0 0
404037.0 448235.0 0
403403.0 450390.0 0
405736.0 452301.0 0
408380.0 450311.0 0
410800.0 452473.0 0
412770.0 448091.0 0
414846.0 449083.0 0
412964.0 451012.0 0
415250.0 452415.0 0
416788.0 449831.0 0
420756.0 452831.0 0
76457.8 455812.0 0
73224.7 457401.0 0
81170.6 452783.0 0
81125.0 456003.0 0
85002.6 454320.0 0
88045.5 454250.0 0
84357.8 456980.0 0
87859.9 457328.0 0
90589.9 453734.0 0
91808.8 455649.0 0
95614.6 454381.0 0
95018.0 457756.0 0
99844.4 454511.0 0
102819.0 456872.0 0
103865.0 453538.0 0
106671.0 452789.0 0
108314.0 454824.0 0
105430.0 456233.0 0
111103.0 453998.0 0
114391.0 453213.0 0
113967.0 456775.0 0
117362.0 456884.0 0
117640.0 454534.0 0
120885.0 455344.0 0
123818.0 457284.0 0
127406.0 453256.0 0
124303.0 454334.0 0
126587.0 455744.0 0
129662.0 455355.0 0
133277.0 456284.0 0
137433.0 453480.0 0
138329.0 457016.0 0
142111.0 455548.0 0
145304.0 454511.0 0
148221.0 454737.0 0
152767.0 454589.0 0
159813.0 452301.0 0
156894.0 453242.0 0
156734.0 456795.0 0
160923.0 455760.0 0
165595.0 455589.0 0
169865.0 454674.0 0
174422.0 453766.0 0
178764.0 452618.0 0
181584.0 454799.0 0
185223.0 454982.0 0
188370.0 456167.0 0
189741.0 452567.0 0
194470.0 452373.0 0
192146.0 456220.0 0
196899.0 456233.0 0
203391.0 451920.0 0
201594.0 455089.0 0
205878.0 454260.0 0
209809.0 452287.0 0
212604.0 454077.0 0
216446.0 454048.0 0
219531.0 456108.0 0
220305.0 452207.0 0
223080.0 454947.0 0
227268.0 453164.0 0
230666.0 455725.0 0
234702.0 453435.0 0
238377.0 452905.0 0
241578.0 453811.0 0
245913.0 454776.0 0
250185.0 453417.0 0
256278.0 453869.0 0
259233.0 455928.0 0
263098.0 452304.0 0
267129.0 455505.0 0
270976.0 454759.0 0
272189.0 451676.0 0
273983.0 454055.0 0
276992.0 454740.0 0
281533.0 455740.0 0
286754.0 456066.0 0
287219.0 452061.0 0
290220.0 452837.0 0
291073.0 455898.0 0
294591.0 453488.0 0
298788.0 455725.0 0
302583.0 453009.0 0
307309.0 452388.0 0
305870.0 456281.0 0
309529.0 456567.0 0
311306.0 453085.0 0
313906.0 455908.0 0
317426.0 455360.0 0
320092.0 453224.0 0
321052.0 456873.0 0
324140.0 455593.0 0
327822.0 453494.0 0
332068.0 452884.0 0
331683.0 456471.0 0
335172.0 456605.0 0
335789.0 452886.0 0
339846.0 452714.0 0
339116.0 456663.0 0
342891.0 455351.0 0
345785.0 452698.0 0
350159.0 454322.0 0
352730.0 453883.0 0
354640.0 456204.0 0
357252.0 452581.0 0
360995.0 456348.0 0
363765.0 456144.0 0
367054.0 454511.0 0
369925.0 456684.0 0
375684.0 454727.0 0
372582.0 455407.0 0
377131.0 454410.0 0
380887.0 454247.0 0
378720.0 457073.0 0
386239.0 454699.0 0
390273.0 457090.0 0
391719.0 454512.0 0
395601.0 454564.0 0
394387.0 457549.0 0
400006.0 455690.0 0
402534.0 454166.0 0
404831.0 456542.0 0
407931.0 455542.0 0
411366.0 455741.0 0
413972.0 454580.0 0
415571.0 456807.0 0
418277.0 452098.0 0
417854.0 455063.0 0
419984.0 458106.0 0
420610.0 455984.0 0
422874.0 454579.0 0
425433.0 456227.0 0
428286.0 457678.0 0
67144.3 460399.0 0
64382.5 463184.0 0
67666.4 463163.0 0
70159.7 459242.0 0
71344.7 462791.0 0
74351.5 460155.0 0
78000.0 458206.0 0
76392.4 461406.0 0
80250.1 460745.0 0
86531.7 460425.0 0
83917.2 460197.0 0
91135.6 459168.0 0
88198.7 462266.0 0
95904.9 460870.0 0
93187.4 462701.0 0
98885.5 458502.0 0
102278.0 460043.0 0
98610.0 462611.0 0
106541.0 459629.0 0
108202.0 462733.0 0
110349.0 457800.0 0
111761.0 461074.0 0
115447.0 459888.0 0
119844.0 459007.0 0
127618.0 458509.0 0
124003.0 462034.0 0
131382.0 460395.0 0
135790.0 458941.0 0
135290.0 461873.0 0
138076.0 460081.0 0
138732.0 462521.0 0
141451.0 459729.0 0
145247.0 457743.0 0
144416.0 461456.0 0
147527.0 460487.0 0
149781.0 457784.0 0
151220.0 461918.0 0
153079.0 458571.0 0
155649.0 461476.0 0
159333.0 459511.0 0
162370.0 459069.0 0
163541.0 461687.0 0
167508.0 460361.0 0
172198.0 458350.0 0
177588.0 457383.0 0
179033.0 461613.0 0
182118.0 458285.0 0
185598.0 458738.0 0
186637.0 462049.0 0
189189.0 459537.0 0
193513.0 460963.0 0
197644.0 460379.0 0
200140.0 458659.0 0
200142.0 461845.0 0
204261.0 459087.0 0
209328.0 457499.0 0
213564.0 457528.0 0
216891.0 460072.0 0
221974.0 459355.0 0
226499.0 457705.0 0
230093.0 460603.0 0
233835.0 457657.0 0
234746.0 461233.0 0
238046.0 457410.0 0
242329.0 457458.0 0
241512.0 460587.0 0
245694.0 460006.0 0
249166.0 457690.0 0
253709.0 457207.0 0
257544.0 460048.0 0
263457.0 456568.0 0
261509.0 460523.0 0
266766.0 460334.0 0
270546.0 458072.0 0
273861.0 456707.0 0
273319.0 460066.0 0
277257.0 459339.0 0
281345.0 460447.0 0
284245.0 459299.0 0
286935.0 460893.0 0
290259.0 459328.0 0
294835.0 458377.0 0
299302.0 460118.0 0
302918.0 457887.0 0
307154.0 460256.0 0
312916.0 460601.0 0
317323.0 458672.0 0
321232.0 460402.0 0
324815.0 459791.0 0
327947.0 457763.0 0
328598.0 461210.0 0
331922.0 460325.0 0
335423.0 459464.0 0
338758.0 460161.0 0
343317.0 459884.0 0
347490.0 457062.0 0
348046.0 461459.0 0
351792.0 457661.0 0
351383.0 460335.0 0
355265.0 460499.0 0
358042.0 457581.0 0
359640.0 461558.0 0
362335.0 459322.0 0
365773.0 458746.0 0
368992.0 459343.0 0
368606.0 462134.0 0
375603.0 458246.0 0
372152.0 459522.0 0
375369.0 462014.0 0
380858.0 459954.0 0
378290.0 461395.0 0
383218.0 457808.0 0
384390.0 461455.0 0
387162.0 459010.0 0
390879.0 460529.0 0
388859.0 462307.0 0
392588.0 458564.0 0
393869.0 461923.0 0
398037.0 457960.0 0
396366.0 460081.0 0
400349.0 459888.0 0
399188.0 462603.0 0
402296.0 458623.0 0
405178.0 460405.0 0
402718.0 463360.0 0
408557.0 458992.0 0
411717.0 457884.0 0
410184.0 461681.0 0
413639.0 460236.0 0
417053.0 461115.0 0
417848.0 458800.0 0
420266.0 462465.0 0
422252.0 460452.0 0
423942.0 458419.0 0
426607.0 459865.0 0
425778.0 463130.0 0
430605.0 459565.0 0
428930.0 461976.0 0
433310.0 461226.0 0
55466.6 467879.0 0
58050.7 466093.0 0
61154.4 464840.0 0
61624.9 467870.0 0
65027.6 466157.0 0
67856.5 465384.0 0
70854.6 466422.0 0
66897.8 467363.0 0
74668.8 463971.0 0
77057.2 466866.0 0
80866.2 465206.0 0
85359.5 463514.0 0
86879.1 466523.0 0
90024.9 465383.0 0
92851.0 467267.0 0
96077.4 465395.0 0
100918.0 464542.0 0
102222.0 467139.0 0
98861.7 467728.0 0
103629.0 462964.0 0
105583.0 465341.0 0
107852.0 467110.0 0
111037.0 465180.0 0
114824.0 463961.0 0
118605.0 462944.0 0
115260.0 467251.0 0
118085.0 466638.0 0
121407.0 465804.0 0
128252.0 462912.0 0
125463.0 465925.0 0
128447.0 465560.0 0
132147.0 465212.0 0
136608.0 465715.0 0
141755.0 464615.0 0
147239.0 464510.0 0
152356.0 465788.0 0
156711.0 465107.0 0
160112.0 462864.0 0
160003.0 467421.0 0
163783.0 464797.0 0
168207.0 465868.0 0
171318.0 463058.0 0
173172.0 467021.0 0
175026.0 462437.0 0
177970.0 466007.0 0
182641.0 462572.0 0
181634.0 466637.0 0
185678.0 466010.0 0
189610.0 464130.0 0
193205.0 466497.0 0
196806.0 463890.0 0
199706.0 465041.0 0
203319.0 463977.0 0
207926.0 462618.0 0
212201.0 461815.0 0
210576.0 466181.0 0
215305.0 465869.0 0
220236.0 463770.0 0
223698.0 466930.0 0
225140.0 462267.0 0
227996.0 464892.0 0
232214.0 465415.0 0
236217.0 464490.0 0
238589.0 462050.0 0
242766.0 462845.0 0
240609.0 466508.0 0
245690.0 464727.0 0
250372.0 462214.0 0
254653.0 462194.0 0
253801.0 466251.0 0
258454.0 464811.0 0
264208.0 465640.0 0
268694.0 464392.0 0
270947.0 462238.0 0
271422.0 465529.0 0
274950.0 464158.0 0
279268.0 463995.0 0
283719.0 463833.0 0
287696.0 465530.0 0
289776.0 462713.0 0
291309.0 466275.0 0
292996.0 462608.0 0
295058.0 466344.0 0
296280.0 462698.0 0
299353.0 465450.0 0
303230.0 462293.0 0
303342.0 466231.0 0
306863.0 465081.0 0
310257.0 463824.0 0
314102.0 466191.0 0
318140.0 463084.0 0
321479.0 466190.0 0
322987.0 463520.0 0
324851.0 466769.0 0
326701.0 463841.0 0
331159.0 464876.0 0
335753.0 463611.0 0
338681.0 467053.0 0
341124.0 464043.0 0
345777.0 465207.0 0
349750.0 464345.0 0
349835.0 466884.0 0
352815.0 463542.0 0
353411.0 467274.0 0
357169.0 465278.0 0
364798.0 463291.0 0
361458.0 465549.0 0
369128.0 465109.0 0
372022.0 462596.0 0
372332.0 465565.0 0
375379.0 464707.0 0
379118.0 464430.0 0
382119.0 463442.0 0
384153.0 466594.0 0
386462.0 464045.0 0
388706.0 467005.0 0
391556.0 464955.0 0
393279.0 467628.0 0
396337.0 465109.0 0
399914.0 466849.0 0
403560.0 466288.0 0
406345.0 466759.0 0
406930.0 463576.0 0
411041.0 465844.0 0
414266.0 464031.0 0
416283.0 467712.0 0
417594.0 464628.0 0
420658.0 466898.0 0
422760.0 464888.0 0
424730.0 467513.0 0
431106.0 463516.0 0
429773.0 465022.0 0
427545.0 466601.0 0
431950.0 468211.0 0
432808.0 465420.0 0
435778.0 463486.0 0
436314.0 466856.0 0
438983.0 464313.0 0
440957.0 466051.0 0
444101.0 467728.0 0
49795.9 471714.0 0
52873.5 470137.0 0
55078.2 472568.0 0
58504.4 469886.0 0
61467.2 473098.0 0
63996.3 469651.0 0
66545.8 471405.0 0
68744.1 469254.0 0
73287.1 468306.0 0
70538.4 470805.0 0
68780.2 473032.0 0
73674.7 471789.0 0
77312.5 470950.0 0
80396.8 470807.0 0
80299.4 473475.0 0
83763.2 468521.0 0
86192.8 471558.0 0
89178.4 469715.0 0
92204.4 470063.0 0
95100.8 468854.0 0
96590.7 471071.0 0
100465.0 471269.0 0
104068.0 469530.0 0
103599.0 473174.0 0
107207.0 470243.0 0
111754.0 469297.0 0
115924.0 470691.0 0
117802.0 472802.0 0
119071.0 469551.0 0
123228.0 469315.0 0
128099.0 469529.0 0
132581.0 469087.0 0
136130.0 469400.0 0
138048.0 472464.0 0
139685.0 468478.0 0
141752.0 471256.0 0
144268.0 468202.0 0
145345.0 472046.0 0
148697.0 468890.0 0
152650.0 470393.0 0
155746.0 468246.0 0
157124.0 471750.0 0
164098.0 468222.0 0
161919.0 471151.0 0
167265.0 470771.0 0
170568.0 469210.0 0
172027.0 472036.0 0
175854.0 470143.0 0
179586.0 469834.0 0
182843.0 469372.0 0
186048.0 469778.0 0
189239.0 468073.0 0
191403.0 470785.0 0
197149.0 467780.0 0
194902.0 470212.0 0
201387.0 469053.0 0
206366.0 466926.0 0
205339.0 471236.0 0
208851.0 469689.0 0
212112.0 470273.0 0
216089.0 471019.0 0
219262.0 467511.0 0
220283.0 471026.0 0
224816.0 471640.0 0
228367.0 468724.0 0
232596.0 470844.0 0
235891.0 467520.0 0
237553.0 471470.0 0
244945.0 469639.0 0
241536.0 471478.0 0
249435.0 467661.0 0
252915.0 471117.0 0
257112.0 469740.0 0
260993.0 469095.0 0
268799.0 468249.0 0
265124.0 471681.0 0
273370.0 468924.0 0
277998.0 468161.0 0
281789.0 467346.0 0
281985.0 471905.0 0
285416.0 468904.0 0
289353.0 469484.0 0
292691.0 469201.0 0
296898.0 471014.0 0
301726.0 469722.0 0
305690.0 469244.0 0
308369.0 468633.0 0
310471.0 467572.0 0
309495.0 471633.0 0
312683.0 470156.0 0
318230.0 467344.0 0
316649.0 471203.0 0
320379.0 469125.0 0
323033.0 468845.0 0
328390.0 468054.0 0
325869.0 470431.0 0
335159.0 467663.0 0
332382.0 469309.0 0
338255.0 471678.0 0
342653.0 468882.0 0
347077.0 470147.0 0
350773.0 469970.0 0
353958.0 470256.0 0
357355.0 469471.0 0
361335.0 469419.0 0
366437.0 472534.0 0
366353.0 468527.0 0
370600.0 467520.0 0
373329.0 467978.0 0
370879.0 470410.0 0
374620.0 471320.0 0
376814.0 468068.0 0
380804.0 468236.0 0
378256.0 471375.0 0
382374.0 471295.0 0
386712.0 470989.0 0
395551.0 468118.0 0
391469.0 469587.0 0
394442.0 471436.0 0
399088.0 471034.0 0
403135.0 468954.0 0
405516.0 469678.0 0
409001.0 469321.0 0
407447.0 472246.0 0
411668.0 471082.0 0
413709.0 468665.0 0
414814.0 471775.0 0
419018.0 469047.0 0
417218.0 471075.0 0
419339.0 472889.0 0
421298.0 471222.0 0
423053.0 469299.0 0
425477.0 471080.0 0
428544.0 470246.0 0
437286.0 469761.0 0
434000.0 471467.0 0
440682.0 468847.0 0
439054.0 472984.0 0
442115.0 471945.0 0
444572.0 471033.0 0
446891.0 469255.0 0
451847.0 472400.0 0
449179.0 471337.0 0
39214.9 477858.0 0
43620.6 475760.0 0
46665.9 473602.0 0
45853.1 477393.0 0
48376.0 475891.0 0
51449.4 474837.0 0
51292.8 478085.0 0
54596.0 476306.0 0
58039.8 474037.0 0
57714.7 477139.0 0
61178.6 477258.0 0
64914.1 474229.0 0
64678.9 478146.0 0
67854.9 475880.0 0
71055.8 473568.0 0
71437.7 476807.0 0
74729.4 475111.0 0
77575.7 473940.0 0
76154.3 477832.0 0
82908.5 473165.0 0
79504.7 476610.0 0
86623.8 474991.0 0
83254.8 476487.0 0
87559.2 477584.0 0
89760.6 473280.0 0
93085.2 473007.0 0
89941.8 475949.0 0
97032.5 474475.0 0
93249.2 476546.0 0
100496.0 475176.0 0
106140.0 473150.0 0
104019.0 476333.0 0
107305.0 476253.0 0
109607.0 473157.0 0
113159.0 473321.0 0
111106.0 475341.0 0
113161.0 476035.0 0
116033.0 474682.0 0
118417.0 476424.0 0
120521.0 473220.0 0
121219.0 476533.0 0
125064.0 474049.0 0
128537.0 475996.0 0
130130.0 473038.0 0
131984.0 476219.0 0
133998.0 472755.0 0
136181.0 476648.0 0
141634.0 475586.0 0
149012.0 472728.0 0
145280.0 477586.0 0
146005.0 474760.0 0
148855.0 476312.0 0
152651.0 474156.0 0
155400.0 474340.0 0
155532.0 476768.0 0
159828.0 475759.0 0
164673.0 474504.0 0
167552.0 477093.0 0
169174.0 474106.0 0
171683.0 476962.0 0
175191.0 474337.0 0
178261.0 472957.0 0
178267.0 475692.0 0
182609.0 474137.0 0
187781.0 472630.0 0
186667.0 476361.0 0
190484.0 475173.0 0
194309.0 473773.0 0
197170.0 475606.0 0
197824.0 472073.0 0
201897.0 475207.0 0
208444.0 474222.0 0
213224.0 474808.0 0
217867.0 475790.0 0
222036.0 474763.0 0
225503.0 476401.0 0
228463.0 473442.0 0
231229.0 474893.0 0
234670.0 476420.0 0
239693.0 475873.0 0
244237.0 474724.0 0
248597.0 472991.0 0
252122.0 476146.0 0
256116.0 474224.0 0
260660.0 473034.0 0
267838.0 475647.0 0
269886.0 472174.0 0
273040.0 472628.0 0
272327.0 476914.0 0
276834.0 472970.0 0
280434.0 475676.0 0
283860.0 476629.0 0
287183.0 473530.0 0
291811.0 472563.0 0
294918.0 475508.0 0
298957.0 476540.0 0
301372.0 473492.0 0
305418.0 473246.0 0
309138.0 476259.0 0
313206.0 474103.0 0
317795.0 476446.0 0
321806.0 473085.0 0
324656.0 476670.0 0
329615.0 472445.0 0
326312.0 473884.0 0
328692.0 477402.0 0
333734.0 472781.0 0
332427.0 475824.0 0
336551.0 476440.0 0
341017.0 476688.0 0
343476.0 473406.0 0
347488.0 474123.0 0
351746.0 473578.0 0
356008.0 473478.0 0
359762.0 473552.0 0
360624.0 477101.0 0
363525.0 472741.0 0
362827.0 475375.0 0
366049.0 475777.0 0
370104.0 474219.0 0
375136.0 475037.0 0
380294.0 474912.0 0
385061.0 475305.0 0
390682.0 472656.0 0
389462.0 476119.0 0
393794.0 475295.0 0
398019.0 475026.0 0
400454.0 476205.0 0
403416.0 473301.0 0
403863.0 477848.0 0
410787.0 473921.0 0
407748.0 476315.0 0
414496.0 475303.0 0
418017.0 475541.0 0
421874.0 475151.0 0
422034.0 477961.0 0
423617.0 473332.0 0
427223.0 474783.0 0
424690.0 476886.0 0
430903.0 473567.0 0
435734.0 474813.0 0
432972.0 477392.0 0
439790.0 476775.0 0
443470.0 475062.0 0
446385.0 473662.0 0
444983.0 477554.0 0
451422.0 475800.0 0
448339.0 476134.0 0
454488.0 474300.0 0
456978.0 476581.0 0
453560.0 478251.0 0
460134.0 478172.0 0
31268.3 483540.0 0
33425.5 481067.0 0
36788.2 480080.0 0
35431.6 483045.0 0
39755.2 481698.0 0
41763.5 478009.0 0
45895.4 479877.0 0
43260.1 481319.0 0
48828.5 478830.0 0
49881.2 481091.0 0
47388.4 482188.0 0
53452.0 479740.0 0
56630.8 480274.0 0
52616.3 483403.0 0
56391.1 483721.0 0
60034.2 481256.0 0
63128.9 481315.0 0
66462.2 482272.0 0
68725.9 479723.0 0
71019.8 481896.0 0
73360.9 479659.0 0
77214.4 480253.0 0
75170.8 482089.0 0
79702.8 479504.0 0
79489.0 482795.0 0
82159.8 480224.0 0
85373.8 479501.0 0
83513.3 482511.0 0
87523.9 482022.0 0
90131.3 479351.0 0
97149.7 478507.0 0
93113.6 479882.0 0
94659.0 481863.0 0
101741.0 479221.0 0
98433.9 482881.0 0
105749.0 479881.0 0
110388.0 478675.0 0
113237.0 481936.0 0
115095.0 478481.0 0
123006.0 478381.0 0
118900.0 480655.0 0
126161.0 478330.0 0
123621.0 481923.0 0
127335.0 481086.0 0
129629.0 478916.0 0
132630.0 479230.0 0
130741.0 481855.0 0
135098.0 481711.0 0
139108.0 479781.0 0
142893.0 480662.0 0
147668.0 480553.0 0
151905.0 478245.0 0
151587.0 481929.0 0
154692.0 480025.0 0
158043.0 479867.0 0
163098.0 479617.0 0
167952.0 480892.0 0
172835.0 482182.0 0
175922.0 478166.0 0
177814.0 481992.0 0
180116.0 478592.0 0
181177.0 482100.0 0
184215.0 479905.0 0
188924.0 479332.0 0
193530.0 478278.0 0
194867.0 481848.0 0
197793.0 479078.0 0
201696.0 480694.0 0
206112.0 478613.0 0
210509.0 478637.0 0
214528.0 479170.0 0
218330.0 480660.0 0
221805.0 478367.0 0
225395.0 480440.0 0
229588.0 478290.0 0
233408.0 481590.0 0
237818.0 480395.0 0
242585.0 479661.0 0
247537.0 478735.0 0
252073.0 480902.0 0
258533.0 480917.0 0
255540.0 478753.0 0
259382.0 477166.0 0
261538.0 480592.0 0
264060.0 477102.0 0
264625.0 482084.0 0
268034.0 479786.0 0
271770.0 482019.0 0
275180.0 480818.0 0
277238.0 477757.0 0
277923.0 481396.0 0
281062.0 479477.0 0
284882.0 481557.0 0
287031.0 478247.0 0
289259.0 481793.0 0
291078.0 477571.0 0
292703.0 481683.0 0
295814.0 480043.0 0
300359.0 481000.0 0
303697.0 477304.0 0
304129.0 481636.0 0
306969.0 479238.0 0
307114.0 481837.0 0
310575.0 481541.0 0
313713.0 478660.0 0
317166.0 480258.0 0
320578.0 481459.0 0
321721.0 477810.0 0
324812.0 480289.0 0
333674.0 480834.0 0
338708.0 480214.0 0
345499.0 478029.0 0
342076.0 480864.0 0
350554.0 477813.0 0
348610.0 481184.0 0
352362.0 482077.0 0
356227.0 478247.0 0
358698.0 482627.0 0
364102.0 478378.0 0
361296.0 480508.0 0
365719.0 481922.0 0
368145.0 478782.0 0
369930.0 482423.0 0
372100.0 478738.0 0
374196.0 482242.0 0
377337.0 479309.0 0
381308.0 479101.0 0
381379.0 482013.0 0
383639.0 478498.0 0
385036.0 481500.0 0
386585.0 478577.0 0
389547.0 480589.0 0
393063.0 479273.0 0
396470.0 481638.0 0
396921.0 478101.0 0
400082.0 479286.0 0
403143.0 481777.0 0
411523.0 478675.0 0
407660.0 481536.0 0
415512.0 479701.0 0
412616.0 482758.0 0
415422.0 482578.0 0
419112.0 478429.0 0
419257.0 482215.0 0
425803.0 479462.0 0
422998.0 480391.0 0
426649.0 482398.0 0
428993.0 478209.0 0
429597.0 481575.0 0
437058.0 479982.0 0
432635.0 481191.0 0
440885.0 482610.0 0
442629.0 479554.0 0
445019.0 481292.0 0
448002.0 480021.0 0
451352.0 479795.0 0
456153.0 480759.0 0
452737.0 482698.0 0
463044.0 479060.0 0
460176.0 481033.0 0
465068.0 481565.0 0
468360.0 483435.0 0
24735.9 488515.0 0
27678.8 485055.0 0
28956.9 487331.0 0
32150.3 486441.0 0
35365.3 486095.0 0
38575.0 484867.0 0
42198.7 484754.0 0
39052.4 488110.0 0
45383.9 483975.0 0
43008.5 488374.0 0
49134.5 483959.0 0
47232.6 487218.0 0
51453.1 487110.0 0
55606.0 487165.0 0
59964.2 485553.0 0
63582.3 484587.0 0
65421.2 487507.0 0
68604.5 484755.0 0
69498.8 488375.0 0
72691.0 485231.0 0
76925.7 485183.0 0
72573.6 489103.0 0
81689.2 484955.0 0
79429.2 487439.0 0
86017.5 485648.0 0
91192.9 483278.0 0
90156.3 487144.0 0
94770.0 485443.0 0
103085.0 484087.0 0
98547.8 486754.0 0
106844.0 488101.0 0
108665.0 483141.0 0
111823.0 486109.0 0
115641.0 484548.0 0
120169.0 485949.0 0
124390.0 484645.0 0
127695.0 484305.0 0
129141.0 487652.0 0
132116.0 485025.0 0
136319.0 485864.0 0
139379.0 483424.0 0
141918.0 483775.0 0
141249.0 487483.0 0
144706.0 484102.0 0
148388.0 484309.0 0
146428.0 487535.0 0
151641.0 486093.0 0
155321.0 483253.0 0
156725.0 486768.0 0
159801.0 483429.0 0
164296.0 484286.0 0
168467.0 485021.0 0
176151.0 485857.0 0
179864.0 485206.0 0
183292.0 484473.0 0
185659.0 487365.0 0
187128.0 483457.0 0
189666.0 487066.0 0
191351.0 482689.0 0
194076.0 485947.0 0
198188.0 483733.0 0
202206.0 485730.0 0
204829.0 482370.0 0
206008.0 484914.0 0
208320.0 482153.0 0
209240.0 486550.0 0
211975.0 482584.0 0
213957.0 486561.0 0
215695.0 482944.0 0
219174.0 486315.0 0
221881.0 482234.0 0
224551.0 484890.0 0
228810.0 483167.0 0
232189.0 486467.0 0
236730.0 485324.0 0
240161.0 482744.0 0
243513.0 483556.0 0
240733.0 485884.0 0
248052.0 484824.0 0
252946.0 485398.0 0
256107.0 483094.0 0
260407.0 484480.0 0
264454.0 486940.0 0
268249.0 484417.0 0
271894.0 486316.0 0
275937.0 484815.0 0
280513.0 483724.0 0
283696.0 485883.0 0
287694.0 485442.0 0
292624.0 485486.0 0
297668.0 484504.0 0
302742.0 485785.0 0
307047.0 484778.0 0
310981.0 486151.0 0
315830.0 484568.0 0
320685.0 485502.0 0
324491.0 484726.0 0
328847.0 482574.0 0
329029.0 486658.0 0
333772.0 486674.0 0
337945.0 484155.0 0
345754.0 482778.0 0
341892.0 484896.0 0
345511.0 486540.0 0
349689.0 485559.0 0
353751.0 485789.0 0
355708.0 483334.0 0
357835.0 487167.0 0
362010.0 484274.0 0
362545.0 487585.0 0
366328.0 486060.0 0
370162.0 485965.0 0
373079.0 485139.0 0
377971.0 483037.0 0
376517.0 485739.0 0
380653.0 485840.0 0
384373.0 485543.0 0
388071.0 484311.0 0
390502.0 487377.0 0
392936.0 484008.0 0
400105.0 483687.0 0
396832.0 486105.0 0
401189.0 487936.0 0
404760.0 485741.0 0
409379.0 485737.0 0
413061.0 486386.0 0
416738.0 485611.0 0
420284.0 486616.0 0
423394.0 484646.0 0
426797.0 488092.0 0
427992.0 485287.0 0
431250.0 485168.0 0
436004.0 484857.0 0
440230.0 486957.0 0
444547.0 485061.0 0
448944.0 484229.0 0
451410.0 487102.0 0
454508.0 485835.0 0
457688.0 484037.0 0
459249.0 487550.0 0
462206.0 484277.0 0
467178.0 486120.0 0
464591.0 488143.0 0
471852.0 485371.0 0
470065.0 488018.0 0
472773.0 489004.0 0
475107.0 487156.0 0
13346.8 494055.0 0
16393.6 492212.0 0
20533.6 490748.0 0
18767.2 494066.0 0
25328.7 493510.0 0
28889.6 490226.0 0
29413.6 493140.0 0
32546.7 489800.0 0
36199.1 489047.0 0
32417.0 493087.0 0
36495.2 492738.0 0
40130.7 491578.0 0
44363.9 491727.0 0
48177.8 491239.0 0
53206.4 490587.0 0
56317.8 493147.0 0
58110.7 489586.0 0
61787.9 488911.0 0
60440.5 492671.0 0
63984.1 491754.0 0
67240.3 490828.0 0
70541.6 492657.0 0
75668.3 488593.0 0
74762.0 492757.0 0
82620.2 488570.0 0
78688.3 490841.0 0
82559.3 491521.0 0
86236.6 489861.0 0
89853.6 491617.0 0
94315.8 489625.0 0
101745.0 488523.0 0
98573.0 490001.0 0
100856.0 492887.0 0
103600.0 490926.0 0
110932.0 489530.0 0
115537.0 489118.0 0
120060.0 490722.0 0
124224.0 487959.0 0
124038.0 492448.0 0
126852.0 489993.0 0
133027.0 488959.0 0
129428.0 492383.0 0
136984.0 489554.0 0
134664.0 492939.0 0
139316.0 492097.0 0
144025.0 491791.0 0
149441.0 490566.0 0
153347.0 492294.0 0
154001.0 488993.0 0
157626.0 491056.0 0
160955.0 487637.0 0
161808.0 491261.0 0
165752.0 488920.0 0
168791.0 492481.0 0
171786.0 488150.0 0
176742.0 489584.0 0
181638.0 489466.0 0
187429.0 492219.0 0
193040.0 490501.0 0
198167.0 488758.0 0
202708.0 489975.0 0
205431.0 487893.0 0
206707.0 491229.0 0
211252.0 490734.0 0
215861.0 490670.0 0
219705.0 492333.0 0
223573.0 489191.0 0
227812.0 487622.0 0
226944.0 491180.0 0
230638.0 490790.0 0
235229.0 490379.0 0
239650.0 489930.0 0
243852.0 488185.0 0
247466.0 490765.0 0
251751.0 489582.0 0
256661.0 488184.0 0
258960.0 492134.0 0
260660.0 488801.0 0
263355.0 492017.0 0
268827.0 489904.0 0
274425.0 489502.0 0
279657.0 488738.0 0
285326.0 490444.0 0
289931.0 488885.0 0
293448.0 490709.0 0
296166.0 488271.0 0
299970.0 489130.0 0
304068.0 490710.0 0
306944.0 488296.0 0
310290.0 489307.0 0
314261.0 490341.0 0
319106.0 489300.0 0
322685.0 488224.0 0
326019.0 488773.0 0
330294.0 491708.0 0
335212.0 490933.0 0
339019.0 488636.0 0
343217.0 488549.0 0
343092.0 492190.0 0
347879.0 490493.0 0
352946.0 489317.0 0
356246.0 491649.0 0
361010.0 491193.0 0
365570.0 490322.0 0
369642.0 489540.0 0
374098.0 489282.0 0
379024.0 489518.0 0
383374.0 489437.0 0
386533.0 492739.0 0
386892.0 488626.0 0
390356.0 491023.0 0
394225.0 489141.0 0
393581.0 492858.0 0
398022.0 489352.0 0
397474.0 493009.0 0
401137.0 491850.0 0
407355.0 488648.0 0
404460.0 490287.0 0
411169.0 489496.0 0
408422.0 492542.0 0
415312.0 489792.0 0
413430.0 493037.0 0
419373.0 489679.0 0
422559.0 492448.0 0
423238.0 488864.0 0
426237.0 491565.0 0
430853.0 489426.0 0
429535.0 493295.0 0
435487.0 489800.0 0
433586.0 493233.0 0
438984.0 490331.0 0
441278.0 492423.0 0
443157.0 489472.0 0
447673.0 489705.0 0
444014.0 492525.0 0
452355.0 490154.0 0
455962.0 489082.0 0
454508.0 493013.0 0
458167.0 492231.0 0
461366.0 490424.0 0
464157.0 493780.0 0
468323.0 491438.0 0
472639.0 491971.0 0
474815.0 489965.0 0
475540.0 492615.0 0
478366.0 490057.0 0
482654.0 492380.0 0
486166.0 493188.0 0
10002.0 496702.0 0
16276.8 496218.0 0
13082.4 496922.0 0
19935.7 498552.0 0
21660.5 494723.0 0
23931.5 497413.0 0
26606.0 498060.0 0
29300.4 496212.0 0
33041.1 496092.0 0
37716.3 496532.0 0
41828.8 494567.0 0
45637.0 495018.0 0
42027.0 498565.0 0
50794.8 494790.0 0
55053.4 496248.0 0
55853.6 498646.0 0
59186.5 496608.0 0
63248.1 495488.0 0
66696.3 494220.0 0
62706.2 498837.0 0
66378.4 497746.0 0
69745.8 496492.0 0
73560.5 497120.0 0
80110.7 493308.0 0
77865.2 495621.0 0
82233.2 495210.0 0
80831.3 497988.0 0
85604.6 493628.0 0
84585.7 497762.0 0
92702.6 493808.0 0
88959.0 496210.0 0
96354.5 493463.0 0
93324.6 496258.0 0
95895.1 496316.0 0
98592.7 496294.0 0
102019.0 496236.0 0
106918.0 494018.0 0
112041.0 492657.0 0
108876.0 498786.0 0
112230.0 496829.0 0
116543.0 493707.0 0
120713.0 495200.0 0
125564.0 496707.0 0
130989.0 496587.0 0
134876.0 496622.0 0
137414.0 494963.0 0
140924.0 495594.0 0
144958.0 496354.0 0
148503.0 496602.0 0
147584.0 493890.0 0
150847.0 494686.0 0
155041.0 495736.0 0
159930.0 494883.0 0
164498.0 493694.0 0
167094.0 495866.0 0
173592.0 492851.0 0
170572.0 496072.0 0
178130.0 493436.0 0
175079.0 497348.0 0
179225.0 497107.0 0
182404.0 494673.0 0
185376.0 497091.0 0
188673.0 497252.0 0
192700.0 495461.0 0
196873.0 493125.0 0
196964.0 496838.0 0
200627.0 492435.0 0
200475.0 495803.0 0
203675.0 493711.0 0
209110.0 495303.0 0
213676.0 494335.0 0
216935.0 496184.0 0
224205.0 493782.0 0
220870.0 497244.0 0
228451.0 494487.0 0
233098.0 494822.0 0
238513.0 495288.0 0
243297.0 492912.0 0
246901.0 494699.0 0
250560.0 493961.0 0
254894.0 492955.0 0
253037.0 497201.0 0
258182.0 496877.0 0
262798.0 496251.0 0
267075.0 495069.0 0
272673.0 494776.0 0
277328.0 492759.0 0
281574.0 494201.0 0
286164.0 496406.0 0
289934.0 493664.0 0
294281.0 495786.0 0
297427.0 492515.0 0
299264.0 497206.0 0
301078.0 493071.0 0
304354.0 495586.0 0
308984.0 493012.0 0
313641.0 494976.0 0
316635.0 497066.0 0
318252.0 493648.0 0
318994.0 497170.0 0
321735.0 496787.0 0
323862.0 492876.0 0
328414.0 496795.0 0
334455.0 494777.0 0
338678.0 493208.0 0
338283.0 497555.0 0
342324.0 496172.0 0
347410.0 495956.0 0
351894.0 493280.0 0
352331.0 497494.0 0
355072.0 494721.0 0
359101.0 494657.0 0
356901.0 498006.0 0
360674.0 497742.0 0
364878.0 495290.0 0
369092.0 493114.0 0
370653.0 497142.0 0
373132.0 493496.0 0
375676.0 497631.0 0
377865.0 493800.0 0
382242.0 493098.0 0
384469.0 495574.0 0
387232.0 497667.0 0
390661.0 494753.0 0
395346.0 496511.0 0
400431.0 495754.0 0
403914.0 494179.0 0
407254.0 496623.0 0
411449.0 496649.0 0
415943.0 496650.0 0
418053.0 493495.0 0
418673.0 496347.0 0
421613.0 496155.0 0
426057.0 495918.0 0
430992.0 497043.0 0
435209.0 496585.0 0
437867.0 493995.0 0
438383.0 498408.0 0
441860.0 495961.0 0
446282.0 494845.0 0
450693.0 493771.0 0
449465.0 497875.0 0
457033.0 495597.0 0
454026.0 496958.0 0
460493.0 495252.0 0
458971.0 498872.0 0
465526.0 497706.0 0
468275.0 496075.0 0
463051.0 497924.0 0
472181.0 495235.0 0
470906.0 498517.0 0
475556.0 495581.0 0
474537.0 498589.0 0
477918.0 498404.0 0
479234.0 494615.0 0
481961.0 497672.0 0
485498.0 496186.0 0
488738.0 495253.0 0
491467.0 497768.0 0
494739.0 498781.0 0
1895.53 500057.0 0
2320.78 502612.0 0
6358.09 499989.0 0
11304.0 499817.0 0
8992.33 503168.0 0
14248.6 499064.0 0
16307.0 501094.0 0
12973.4 502302.0 0
19593.2 503370.0 0
23471.4 500982.0 0
27194.1 501535.0 0
30434.2 499100.0 0
31216.0 502285.0 0
34226.6 499365.0 0
35565.0 503028.0 0
38207.0 500187.0 0
39982.8 502401.0 0
43531.6 501877.0 0
46953.4 498814.0 0
50027.2 501686.0 0
52208.4 498757.0 0
54266.0 501734.0 0
58602.7 501067.0 0
65831.5 501077.0 0
62337.1 502071.0 0
70050.3 500243.0 0
77420.8 499506.0 0
74045.0 500824.0 0
77079.1 503178.0 0
81621.3 501624.0 0
86303.3 501069.0 0
91311.3 500252.0 0
95855.6 498729.0 0
95502.0 502494.0 0
99662.1 499956.0 0
104539.0 499149.0 0
107583.0 502781.0 0
116597.0 498556.0 0
112653.0 501796.0 0
117386.0 502901.0 0
120932.0 499595.0 0
124664.0 501035.0 0
128771.0 500625.0 0
133391.0 500287.0 0
137481.0 498635.0 0
142170.0 500626.0 0
147431.0 499812.0 0
151268.0 498114.0 0
150889.0 502035.0 0
154079.0 499793.0 0
157941.0 499067.0 0
163270.0 498450.0 0
160464.0 502493.0 0
167726.0 499441.0 0
169762.0 502720.0 0
171584.0 499410.0 0
173686.0 502394.0 0
178024.0 501218.0 0
182278.0 499464.0 0
186551.0 501702.0 0
191622.0 500242.0 0
195313.0 499283.0 0
195397.0 502953.0 0
199676.0 500378.0 0
204479.0 497956.0 0
209031.0 500145.0 0
213401.0 498453.0 0
217574.0 500891.0 0
222341.0 501991.0 0
225465.0 498218.0 0
227017.0 502328.0 0
230083.0 498706.0 0
234827.0 499454.0 0
239646.0 501188.0 0
243952.0 498023.0 0
248919.0 497731.0 0
247396.0 502185.0 0
251177.0 500500.0 0
254910.0 501206.0 0
261693.0 499972.0 0
265223.0 498956.0 0
269486.0 499286.0 0
274177.0 500736.0 0
277914.0 497476.0 0
282528.0 499513.0 0
287165.0 501097.0 0
290531.0 498445.0 0
290977.0 502279.0 0
294909.0 500856.0 0
299314.0 501885.0 0
303694.0 500851.0 0
309521.0 498885.0 0
307375.0 502610.0 0
314382.0 499104.0 0
319135.0 501610.0 0
324445.0 499667.0 0
333598.0 499358.0 0
344001.0 500178.0 0
349269.0 502037.0 0
354784.0 501534.0 0
359916.0 501871.0 0
363835.0 499677.0 0
368085.0 500068.0 0
373157.0 501912.0 0
381469.0 498100.0 0
377922.0 501331.0 0
381324.0 502842.0 0
385800.0 502269.0 0
390595.0 501504.0 0
391839.0 498256.0 0
394872.0 500618.0 0
398830.0 499182.0 0
402024.0 502787.0 0
403827.0 499138.0 0
408929.0 500687.0 0
413993.0 500501.0 0
419483.0 499924.0 0
424293.0 499993.0 0
427878.0 499410.0 0
427667.0 503215.0 0
431631.0 502984.0 0
430732.0 500568.0 0
434510.0 500380.0 0
441800.0 499856.0 0
438922.0 502972.0 0
445280.0 499003.0 0
443770.0 503113.0 0
452589.0 500438.0 0
448264.0 502169.0 0
451887.0 503314.0 0
455898.0 500353.0 0
455282.0 503647.0 0
462664.0 501044.0 0
458562.0 502393.0 0
461226.0 503858.0 0
467259.0 500895.0 0
465260.0 504293.0 0
472270.0 502077.0 0
476695.0 501761.0 0
480209.0 501430.0 0
484385.0 501182.0 0
488324.0 499991.0 0
489616.0 503739.0 0
493256.0 501959.0 0
497633.0 500030.0 0
497389.0 502778.0 0
2396.03 506244.0 0
5486.84 504541.0 0
10752.2 506101.0 0
6747.06 508167.0 0
15159.8 505532.0 0
12019.2 509807.0 0
18527.0 507996.0 0
23291.8 504999.0 0
25464.3 507877.0 0
22317.5 509317.0 0
27775.1 504967.0 0
29488.5 509051.0 0
31337.7 505101.0 0
34335.2 506821.0 0
38571.2 505832.0 0
42335.3 505065.0 0
44847.3 507105.0 0
46741.0 503783.0 0
51464.8 504863.0 0
48408.0 507367.0 0
55834.8 505123.0 0
52932.1 508625.0 0
56863.1 508139.0 0
59894.4 505259.0 0
63985.4 504677.0 0
62477.8 507229.0 0
65993.6 507900.0 0
68234.6 504224.0 0
72558.1 504154.0 0
75874.9 507974.0 0
80302.6 505558.0 0
84564.2 505630.0 0
88245.6 504173.0 0
91736.6 504649.0 0
89200.4 508317.0 0
95061.0 507375.0 0
98660.5 504217.0 0
100236.0 507546.0 0
102690.0 503616.0 0
105513.0 507646.0 0
110143.0 506025.0 0
114174.0 506339.0 0
121625.0 504025.0 0
118536.0 507004.0 0
126275.0 504701.0 0
131112.0 504216.0 0
136522.0 503412.0 0
133668.0 507681.0 0
137559.0 507408.0 0
141145.0 505935.0 0
146412.0 504221.0 0
150994.0 507179.0 0
155604.0 503625.0 0
159878.0 506517.0 0
165278.0 504529.0 0
170950.0 506885.0 0
176197.0 506094.0 0
181618.0 505008.0 0
186583.0 507176.0 0
191048.0 505063.0 0
199254.0 505394.0 0
204567.0 503854.0 0
208960.0 503857.0 0
209431.0 507143.0 0
213230.0 503525.0 0
217589.0 506465.0 0
221191.0 505672.0 0
224790.0 505910.0 0
228462.0 505592.0 0
231273.0 502962.0 0
235583.0 504164.0 0
239519.0 505990.0 0
243299.0 504526.0 0
251722.0 504666.0 0
258806.0 502947.0 0
256076.0 506930.0 0
263056.0 503478.0 0
261072.0 507083.0 0
266580.0 502502.0 0
266287.0 507264.0 0
270582.0 504248.0 0
275172.0 505799.0 0
278806.0 502494.0 0
279258.0 506630.0 0
283668.0 504777.0 0
288930.0 505392.0 0
292986.0 505269.0 0
297329.0 505523.0 0
301795.0 505333.0 0
305870.0 505469.0 0
309617.0 504373.0 0
313446.0 503089.0 0
316657.0 506400.0 0
323876.0 504341.0 0
328909.0 502711.0 0
330985.0 506896.0 0
333898.0 504565.0 0
339116.0 502680.0 0
337075.0 507181.0 0
340765.0 507651.0 0
344664.0 505436.0 0
349289.0 507760.0 0
353350.0 505942.0 0
357572.0 505090.0 0
364939.0 503680.0 0
361860.0 507203.0 0
369259.0 503726.0 0
367566.0 507215.0 0
372370.0 507239.0 0
377825.0 506193.0 0
383509.0 506835.0 0
387670.0 508125.0 0
389508.0 505111.0 0
393742.0 504267.0 0
398066.0 503495.0 0
397465.0 508069.0 0
406428.0 504434.0 0
402085.0 506757.0 0
411812.0 504150.0 0
410084.0 507755.0 0
417159.0 504092.0 0
414840.0 507484.0 0
419548.0 507926.0 0
422699.0 504314.0 0
427018.0 507535.0 0
431678.0 506944.0 0
434709.0 504072.0 0
436707.0 507301.0 0
441772.0 507646.0 0
446932.0 506587.0 0
451509.0 506552.0 0
455291.0 506945.0 0
458254.0 505705.0 0
462372.0 507732.0 0
467092.0 507148.0 0
470039.0 505237.0 0
473418.0 507765.0 0
475192.0 505117.0 0
478121.0 508731.0 0
479292.0 504961.0 0
482420.0 504302.0 0
483197.0 507910.0 0
485975.0 504400.0 0
488073.0 507434.0 0
492466.0 505788.0 0
496791.0 506382.0 0
2029.86 509438.0 0
2062.1 512664.0 0
5163.26 511572.0 0
8776.48 511822.0 0
15341.0 511709.0 0
19587.0 512909.0 0
25042.2 512030.0 0
30559.2 514457.0 0
33872.9 510578.0 0
35611.2 513750.0 0
37344.0 509293.0 0
41259.0 508825.0 0
38713.7 511991.0 0
45070.4 510191.0 0
42179.4 512952.0 0
48923.0 511046.0 0
51970.9 512577.0 0
56233.3 512432.0 0
59862.1 508870.0 0
61362.8 512216.0 0
63101.4 509362.0 0
65726.7 511817.0 0
70287.3 508571.0 0
69069.4 512458.0 0
73225.2 512526.0 0
80884.6 509385.0 0
77973.1 512999.0 0
82372.7 513372.0 0
84740.0 509869.0 0
87407.6 513504.0 0
92453.7 511929.0 0
97233.6 511450.0 0
101746.0 511257.0 0
106669.0 512493.0 0
110362.0 509703.0 0
114414.0 510681.0 0
123170.0 508147.0 0
119348.0 511354.0 0
128311.0 508854.0 0
124274.0 512354.0 0
132305.0 511991.0 0
137259.0 511049.0 0
140731.0 509833.0 0
145004.0 509364.0 0
149045.0 511909.0 0
154049.0 512795.0 0
155962.0 508090.0 0
159145.0 510817.0 0
163090.0 509032.0 0
162905.0 512986.0 0
167045.0 509750.0 0
170829.0 511550.0 0
174121.0 509851.0 0
178605.0 510235.0 0
183076.0 509640.0 0
186272.0 511415.0 0
190610.0 510507.0 0
195130.0 507787.0 0
198983.0 510040.0 0
195470.0 512347.0 0
202089.0 508164.0 0
202126.0 511272.0 0
205756.0 509380.0 0
213379.0 508317.0 0
210329.0 512048.0 0
216326.0 512128.0 0
221825.0 509856.0 0
227414.0 509874.0 0
231945.0 507501.0 0
233554.0 511699.0 0
236468.0 508370.0 0
238634.0 512386.0 0
242191.0 508901.0 0
244680.0 512138.0 0
247211.0 507810.0 0
251945.0 508852.0 0
254919.0 511844.0 0
258945.0 510490.0 0
263511.0 511451.0 0
267847.0 511608.0 0
271327.0 509081.0 0
276707.0 511306.0 0
281799.0 509638.0 0
286559.0 509549.0 0
291523.0 509465.0 0
296022.0 509797.0 0
300689.0 509352.0 0
304125.0 508313.0 0
304299.0 511563.0 0
307710.0 509277.0 0
312104.0 507943.0 0
312084.0 512505.0 0
316293.0 510881.0 0
321229.0 508608.0 0
327193.0 508173.0 0
330391.0 512517.0 0
333629.0 509265.0 0
338144.0 511156.0 0
342429.0 510737.0 0
345981.0 509762.0 0
349589.0 513032.0 0
353227.0 510423.0 0
357499.0 508812.0 0
356604.0 512054.0 0
365611.0 510510.0 0
369838.0 510886.0 0
375527.0 511860.0 0
381027.0 511171.0 0
385385.0 510791.0 0
389468.0 512581.0 0
392350.0 508526.0 0
394422.0 512422.0 0
398336.0 512240.0 0
402197.0 510817.0 0
405977.0 509266.0 0
409938.0 512199.0 0
413438.0 510856.0 0
417551.0 511180.0 0
421720.0 512073.0 0
423305.0 508708.0 0
425923.0 511256.0 0
429867.0 510790.0 0
434336.0 510831.0 0
438531.0 510726.0 0
442028.0 512763.0 0
445782.0 510967.0 0
449519.0 510153.0 0
453542.0 510677.0 0
457412.0 513628.0 0
457878.0 509587.0 0
461258.0 512502.0 0
466384.0 511440.0 0
470483.0 509526.0 0
471078.0 513505.0 0
474245.0 511318.0 0
477774.0 512935.0 0
481822.0 512266.0 0
486495.0 511650.0 0
491739.0 510076.0 0
497086.0 510379.0 0
1786.32 515343.0 0
2662.77 518562.0 0
6651.5 515481.0 0
11350.0 514061.0 0
11097.7 517776.0 0
22258.2 515540.0 0
15138.8 515671.0 0
18952.5 517674.0 0
26117.5 516471.0 0
34382.7 518119.0 0
38608.0 515609.0 0
46401.3 514120.0 0
43071.9 517617.0 0
49586.6 514560.0 0
48306.2 518018.0 0
52410.2 515799.0 0
55628.4 517145.0 0
59248.3 515996.0 0
57828.4 518541.0 0
63836.9 515892.0 0
67160.7 515043.0 0
70257.7 516050.0 0
74821.8 516732.0 0
79566.9 517431.0 0
84141.7 516957.0 0
88026.5 518420.0 0
91083.3 515732.0 0
95133.7 515647.0 0
99033.2 515136.0 0
102924.0 514875.0 0
101230.0 518048.0 0
106366.0 518197.0 0
110803.0 514301.0 0
115422.0 515211.0 0
120722.0 516076.0 0
128194.0 513217.0 0
125945.0 517440.0 0
131131.0 516445.0 0
135642.0 515076.0 0
138936.0 517594.0 0
141365.0 513573.0 0
145645.0 513908.0 0
149482.0 516372.0 0
158801.0 515401.0 0
163114.0 517325.0 0
167058.0 514184.0 0
171640.0 515913.0 0
175145.0 513103.0 0
177004.0 517432.0 0
182346.0 514657.0 0
187966.0 515011.0 0
192042.0 514678.0 0
195518.0 517193.0 0
199770.0 514375.0 0
202341.0 517515.0 0
205106.0 514193.0 0
209015.0 516258.0 0
212887.0 516155.0 0
217117.0 517577.0 0
220895.0 514571.0 0
224852.0 513555.0 0
229637.0 514818.0 0
234447.0 515742.0 0
238222.0 517603.0 0
242113.0 515326.0 0
249607.0 513084.0 0
245951.0 516806.0 0
253881.0 516925.0 0
259777.0 515752.0 0
266414.0 516260.0 0
271695.0 514210.0 0
279801.0 514708.0 0
276734.0 517417.0 0
283659.0 513913.0 0
288976.0 514518.0 0
294022.0 513925.0 0
298829.0 513267.0 0
303221.0 516473.0 0
307862.0 513476.0 0
312135.0 516571.0 0
315623.0 514907.0 0
318256.0 517403.0 0
319744.0 513710.0 0
324905.0 513041.0 0
328371.0 517105.0 0
334501.0 512856.0 0
333279.0 516911.0 0
337006.0 515041.0 0
341531.0 515376.0 0
345205.0 513109.0 0
346485.0 516999.0 0
350406.0 517582.0 0
354832.0 515824.0 0
361274.0 513288.0 0
364932.0 517310.0 0
367491.0 514458.0 0
371590.0 513952.0 0
370886.0 516807.0 0
374274.0 516816.0 0
379148.0 516598.0 0
384771.0 515592.0 0
389028.0 517060.0 0
392765.0 516060.0 0
396841.0 515971.0 0
401772.0 515334.0 0
405997.0 513873.0 0
410408.0 516640.0 0
414871.0 514775.0 0
419116.0 514252.0 0
421431.0 515265.0 0
418801.0 517721.0 0
424731.0 514690.0 0
423415.0 518143.0 0
428263.0 513868.0 0
432287.0 514528.0 0
428751.0 518241.0 0
437767.0 515185.0 0
442606.0 517255.0 0
445503.0 514891.0 0
447306.0 518555.0 0
449495.0 514122.0 0
453830.0 514724.0 0
452034.0 518948.0 0
456597.0 517275.0 0
460061.0 516203.0 0
464237.0 516049.0 0
468284.0 515919.0 0
471051.0 517754.0 0
474709.0 515970.0 0
479478.0 516258.0 0
484287.0 516594.0 0
489279.0 515024.0 0
493579.0 514287.0 0
497711.0 514045.0 0
497325.0 517716.0 0
2507.19 522575.0 0
7195.1 520575.0 0
15050.8 519858.0 0
11497.6 521934.0 0
19332.1 522793.0 0
23173.2 519536.0 0
25011.8 523490.0 0
28870.6 520058.0 0
29478.9 525088.0 0
32687.6 522160.0 0
38519.5 519119.0 0
36935.2 522802.0 0
41671.7 522514.0 0
45857.9 521406.0 0
49017.8 522762.0 0
52365.5 519943.0 0
56497.8 521017.0 0
61220.3 519941.0 0
66695.5 519168.0 0
64109.9 522703.0 0
71407.7 519997.0 0
68100.0 523538.0 0
75908.2 520797.0 0
80161.5 521874.0 0
83630.1 520460.0 0
83556.7 523455.0 0
86823.2 522299.0 0
92705.1 519931.0 0
97530.5 519350.0 0
96144.0 523522.0 0
101845.0 522311.0 0
111373.0 519454.0 0
116680.0 520242.0 0
121635.0 520837.0 0
125410.0 522219.0 0
128755.0 521643.0 0
131387.0 519977.0 0
134736.0 519165.0 0
137583.0 522094.0 0
140743.0 520923.0 0
144283.0 518181.0 0
148999.0 521474.0 0
154276.0 518797.0 0
157314.0 522437.0 0
158955.0 519237.0 0
161982.0 522429.0 0
167449.0 519002.0 0
172382.0 521405.0 0
181346.0 519597.0 0
185646.0 519175.0 0
189013.0 522235.0 0
190875.0 518379.0 0
193827.0 522040.0 0
199407.0 521071.0 0
204090.0 522567.0 0
205964.0 519048.0 0
207487.0 522581.0 0
210529.0 519925.0 0
214671.0 521399.0 0
219180.0 522220.0 0
221471.0 518613.0 0
223945.0 522139.0 0
225561.0 517808.0 0
229687.0 520248.0 0
234247.0 519841.0 0
238052.0 522595.0 0
242356.0 519833.0 0
249650.0 518053.0 0
247097.0 521863.0 0
251836.0 521526.0 0
257078.0 521880.0 0
263086.0 521293.0 0
268019.0 521159.0 0
271984.0 519207.0 0
275884.0 522384.0 0
281356.0 517720.0 0
280926.0 522135.0 0
285024.0 522060.0 0
285488.0 518326.0 0
288630.0 521266.0 0
292181.0 518410.0 0
291666.0 521785.0 0
295057.0 522531.0 0
297415.0 517916.0 0
308369.0 517588.0 0
306215.0 521661.0 0
311169.0 520743.0 0
315081.0 519384.0 0
318948.0 521606.0 0
322852.0 518247.0 0
326816.0 521151.0 0
331305.0 521410.0 0
338042.0 519465.0 0
343176.0 520481.0 0
347743.0 521044.0 0
351617.0 520905.0 0
355623.0 520680.0 0
360625.0 519224.0 0
365754.0 520885.0 0
368377.0 518402.0 0
369311.0 521448.0 0
372065.0 519677.0 0
376447.0 521424.0 0
381217.0 521398.0 0
384191.0 520122.0 0
384957.0 524079.0 0
387237.0 520089.0 0
391208.0 520108.0 0
395305.0 519876.0 0
397219.0 522836.0 0
399923.0 519720.0 0
405848.0 519225.0 0
411256.0 521321.0 0
414594.0 518880.0 0
417051.0 521533.0 0
421128.0 521813.0 0
425905.0 521977.0 0
431319.0 522536.0 0
434265.0 519116.0 0
436206.0 523522.0 0
439542.0 520199.0 0
444306.0 521409.0 0
449118.0 523391.0 0
453330.0 523143.0 0
456262.0 520980.0 0
459179.0 519256.0 0
462885.0 519549.0 0
460141.0 522863.0 0
467589.0 520109.0 0
464496.0 523089.0 0
473167.0 520877.0 0
470000.0 522997.0 0
477069.0 519507.0 0
477175.0 523035.0 0
480673.0 520126.0 0
480727.0 523551.0 0
484216.0 521768.0 0
488382.0 519971.0 0
492978.0 518917.0 0
492439.0 524061.0 0
497404.0 521760.0 0
2074.75 526326.0 0
9454.66 524028.0 0
6325.25 525576.0 0
14569.3 524193.0 0
11387.5 526454.0 0
21898.0 526997.0 0
26054.7 528583.0 0
34114.7 526648.0 0
40026.1 527851.0 0
45333.4 525342.0 0
49274.2 526890.0 0
53098.6 524274.0 0
53642.0 528410.0 0
59020.5 525863.0 0
64840.2 526367.0 0
72380.5 524175.0 0
76901.1 524881.0 0
73767.2 528124.0 0
81027.4 526109.0 0
85784.7 526949.0 0
90891.9 524782.0 0
94525.0 528157.0 0
99688.4 527033.0 0
107429.0 523954.0 0
103815.0 526111.0 0
105841.0 528569.0 0
112849.0 524783.0 0
118563.0 524970.0 0
123117.0 524582.0 0
127359.0 526032.0 0
132794.0 524075.0 0
138124.0 527257.0 0
143652.0 524073.0 0
148466.0 526492.0 0
153416.0 524385.0 0
158303.0 526742.0 0
162875.0 527101.0 0
167155.0 524327.0 0
171761.0 527632.0 0
174575.0 524803.0 0
178129.0 522940.0 0
176217.0 527116.0 0
183263.0 523620.0 0
179864.0 527911.0 0
187008.0 526229.0 0
191443.0 526549.0 0
196801.0 526974.0 0
201653.0 525620.0 0
205972.0 526634.0 0
211197.0 525046.0 0
216142.0 525529.0 0
220136.0 526423.0 0
223906.0 526191.0 0
227613.0 524411.0 0
232798.0 524870.0 0
239537.0 526427.0 0
242857.0 524505.0 0
246810.0 526776.0 0
253295.0 525577.0 0
257027.0 526530.0 0
260677.0 525724.0 0
266512.0 525999.0 0
271439.0 523875.0 0
274975.0 527040.0 0
279406.0 526597.0 0
283247.0 527395.0 0
286722.0 525445.0 0
291068.0 525033.0 0
295576.0 527697.0 0
300682.0 522862.0 0
304859.0 527038.0 0
310232.0 525622.0 0
315020.0 523658.0 0
319271.0 526488.0 0
323259.0 523787.0 0
327979.0 525476.0 0
332458.0 525806.0 0
335561.0 523214.0 0
336577.0 527592.0 0
340103.0 524192.0 0
345386.0 525304.0 0
349929.0 524467.0 0
354034.0 524538.0 0
357001.0 527787.0 0
358521.0 524013.0 0
360681.0 527252.0 0
363107.0 524118.0 0
367996.0 525266.0 0
372346.0 523750.0 0
372307.0 528058.0 0
375551.0 525784.0 0
380164.0 526239.0 0
389054.0 523342.0 0
388850.0 527736.0 0
392580.0 528164.0 0
393540.0 524365.0 0
395552.0 528249.0 0
398820.0 526076.0 0
402636.0 523483.0 0
403424.0 528321.0 0
407550.0 524907.0 0
412205.0 525299.0 0
414883.0 523691.0 0
415616.0 527620.0 0
418730.0 524980.0 0
423223.0 525939.0 0
426327.0 528532.0 0
428438.0 525809.0 0
433163.0 527130.0 0
441098.0 524739.0 0
438094.0 528137.0 0
445558.0 525584.0 0
452908.0 526983.0 0
456745.0 524816.0 0
457544.0 528508.0 0
462008.0 526817.0 0
467405.0 526154.0 0
473430.0 525946.0 0
478769.0 527327.0 0
484028.0 526139.0 0
487508.0 523822.0 0
488810.0 527760.0 0
497375.0 525861.0 0
3339.0 530662.0 0
8331.91 529129.0 0
8652.02 533542.0 0
11833.5 530366.0 0
16883.8 529066.0 0
22161.1 531009.0 0
25719.1 533242.0 0
30460.3 529582.0 0
34932.5 531615.0 0
39976.8 533908.0 0
45167.6 529673.0 0
46585.6 531824.0 0
49745.7 531487.0 0
54803.8 533006.0 0
58904.2 531025.0 0
63487.8 530853.0 0
68900.6 528810.0 0
68189.6 533765.0 0
73130.1 532887.0 0
77559.9 529399.0 0
82074.5 530635.0 0
85707.6 532676.0 0
89669.1 529947.0 0
93276.2 532835.0 0
97788.8 531782.0 0
102494.0 531192.0 0
106706.0 533284.0 0
109958.0 529301.0 0
115692.0 530132.0 0
122343.0 528980.0 0
120053.0 533458.0 0
124106.0 533476.0 0
127030.0 530715.0 0
131442.0 529086.0 0
135318.0 533217.0 0
140247.0 531719.0 0
143872.0 529335.0 0
148307.0 531273.0 0
152530.0 528991.0 0
156429.0 531239.0 0
161255.0 531304.0 0
166603.0 530011.0 0
171073.0 532845.0 0
176194.0 531585.0 0
183587.0 528393.0 0
181735.0 532698.0 0
187390.0 531336.0 0
193006.0 531653.0 0
201528.0 530512.0 0
209335.0 529994.0 0
205717.0 530845.0 0
213962.0 529556.0 0
218118.0 529397.0 0
216799.0 532823.0 0
222155.0 530373.0 0
227312.0 529394.0 0
231743.0 529754.0 0
236544.0 529794.0 0
242651.0 529761.0 0
247240.0 530849.0 0
250545.0 528817.0 0
254921.0 529841.0 0
259291.0 529517.0 0
263674.0 530605.0 0
268261.0 530899.0 0
270835.0 527915.0 0
272956.0 531833.0 0
277958.0 530854.0 0
282196.0 531083.0 0
286537.0 530364.0 0
290828.0 529222.0 0
293833.0 532810.0 0
298749.0 532053.0 0
300265.0 527864.0 0
302511.0 530742.0 0
306170.0 531883.0 0
310482.0 531079.0 0
314657.0 528480.0 0
317235.0 532544.0 0
320596.0 530320.0 0
324166.0 528722.0 0
328467.0 529526.0 0
332546.0 530021.0 0
337270.0 533198.0 0
341500.0 529267.0 0
346380.0 530404.0 0
351787.0 529389.0 0
356211.0 531019.0 0
360456.0 531818.0 0
364458.0 528791.0 0
368614.0 530053.0 0
371800.0 532875.0 0
375894.0 533332.0 0
376354.0 529515.0 0
380311.0 532098.0 0
384260.0 529325.0 0
388290.0 532955.0 0
393196.0 532071.0 0
398975.0 531558.0 0
403655.0 532584.0 0
406796.0 531175.0 0
410676.0 529180.0 0
414547.0 532242.0 0
419940.0 528708.0 0
417695.0 530799.0 0
420320.0 533117.0 0
423876.0 530436.0 0
429644.0 531669.0 0
435138.0 530689.0 0
438818.0 532267.0 0
443247.0 529853.0 0
447169.0 533443.0 0
448680.0 528793.0 0
451269.0 532559.0 0
454294.0 530722.0 0
457721.0 533057.0 0
460973.0 530726.0 0
465026.0 530596.0 0
470382.0 530388.0 0
475671.0 531022.0 0
482170.0 529550.0 0
480490.0 532733.0 0
485136.0 530681.0 0
489294.0 532609.0 0
493983.0 529339.0 0
493951.0 534039.0 0
498282.0 529152.0 0
497886.0 532101.0 0
3689.48 536677.0 0
13919.0 534395.0 0
10141.9 538404.0 0
19708.3 534838.0 0
15776.5 539296.0 0
20662.8 539228.0 0
24622.4 537473.0 0
30270.1 533813.0 0
29472.2 537904.0 0
34653.1 537033.0 0
41690.0 538952.0 0
45471.8 534888.0 0
50849.5 536714.0 0
55613.9 537996.0 0
59218.5 534972.0 0
63922.5 535855.0 0
67636.7 537668.0 0
70688.5 536793.0 0
75161.7 538561.0 0
78466.1 534047.0 0
80623.1 537988.0 0
82517.5 534762.0 0
85292.4 537611.0 0
89253.8 534934.0 0
92299.2 538267.0 0
96115.5 535751.0 0
100703.0 535770.0 0
104732.0 537396.0 0
108728.0 537745.0 0
111586.0 534084.0 0
112609.0 538244.0 0
116307.0 536129.0 0
122154.0 537992.0 0
126775.0 535635.0 0
129978.0 533507.0 0
131337.0 537411.0 0
140851.0 536070.0 0
144772.0 533784.0 0
148195.0 535723.0 0
152252.0 533648.0 0
156150.0 535678.0 0
160641.0 536526.0 0
164940.0 534548.0 0
168833.0 536812.0 0
173145.0 536721.0 0
177839.0 536736.0 0
182464.0 537419.0 0
186014.0 535832.0 0
190793.0 536863.0 0
197566.0 534382.0 0
195003.0 537662.0 0
202411.0 535710.0 0
206370.0 534142.0 0
211651.0 535325.0 0
216724.0 536412.0 0
220468.0 534973.0 0
225327.0 534374.0 0
230524.0 534169.0 0
239721.0 534170.0 0
235305.0 534943.0 0
245037.0 535448.0 0
251611.0 534495.0 0
257755.0 534232.0 0
261994.0 534429.0 0
266357.0 535502.0 0
270691.0 535178.0 0
276513.0 535577.0 0
281172.0 534940.0 0
284754.0 534236.0 0
289122.0 535133.0 0
298882.0 536595.0 0
302786.0 534552.0 0
307094.0 536010.0 0
312747.0 536540.0 0
318583.0 537142.0 0
321821.0 533803.0 0
326749.0 533536.0 0
329227.0 538253.0 0
331846.0 534353.0 0
339566.0 537743.0 0
343337.0 534908.0 0
349320.0 534753.0 0
355628.0 535371.0 0
361499.0 537312.0 0
365824.0 533963.0 0
369503.0 536569.0 0
373881.0 537321.0 0
378224.0 536218.0 0
382768.0 537266.0 0
384356.0 533291.0 0
387458.0 537209.0 0
391572.0 536708.0 0
396453.0 536367.0 0
402000.0 536530.0 0
405895.0 534956.0 0
410081.0 534569.0 0
416704.0 536154.0 0
421924.0 538404.0 0
424684.0 534277.0 0
427739.0 536134.0 0
431480.0 537332.0 0
434759.0 534422.0 0
442674.0 535111.0 0
438723.0 535916.0 0
446770.0 538725.0 0
450306.0 535997.0 0
454131.0 535655.0 0
458663.0 537881.0 0
462316.0 534554.0 0
467557.0 535219.0 0
472626.0 534231.0 0
472553.0 538800.0 0
476769.0 535856.0 0
481253.0 537887.0 0
484900.0 534952.0 0
487465.0 537898.0 0
490812.0 537014.0 0
494443.0 538564.0 0
497536.0 536116.0 0
3205.78 542327.0 0
8456.41 542715.0 0
13592.8 544162.0 0
19521.4 543659.0 0
23314.3 541270.0 0
27304.1 541619.0 0
31943.6 541721.0 0
37184.4 541809.0 0
46851.7 540194.0 0
41737.2 543441.0 0
51753.4 541812.0 0
56432.8 542449.0 0
60028.9 539392.0 0
61213.3 543835.0 0
64672.3 540663.0 0
69880.2 541716.0 0
75591.2 543730.0 0
78872.6 541448.0 0
82908.8 541719.0 0
88448.8 540941.0 0
92858.9 543426.0 0
97055.6 539837.0 0
101631.0 540353.0 0
106036.0 541426.0 0
110792.0 541980.0 0
116217.0 541451.0 0
121705.0 543661.0 0
127333.0 539500.0 0
126791.0 543610.0 0
131561.0 542509.0 0
136108.0 539119.0 0
140828.0 540829.0 0
145022.0 539125.0 0
148544.0 538831.0 0
148757.0 542110.0 0
152175.0 538456.0 0
153337.0 543183.0 0
156861.0 540063.0 0
160881.0 540997.0 0
164034.0 543348.0 0
164841.0 539076.0 0
167954.0 542126.0 0
171228.0 540094.0 0
175169.0 540880.0 0
180326.0 542110.0 0
186366.0 540790.0 0
191191.0 541659.0 0
194356.0 540488.0 0
199035.0 540264.0 0
203665.0 542989.0 0
206309.0 538928.0 0
211188.0 542155.0 0
215188.0 539394.0 0
218787.0 539221.0 0
223087.0 539095.0 0
220501.0 541920.0 0
227896.0 538705.0 0
232917.0 539259.0 0
238263.0 538866.0 0
242339.0 539545.0 0
248704.0 538361.0 0
246078.0 541168.0 0
249105.0 543232.0 0
251886.0 540595.0 0
256787.0 539311.0 0
261827.0 538642.0 0
270528.0 539751.0 0
275293.0 539681.0 0
280191.0 540137.0 0
285222.0 538185.0 0
289407.0 540449.0 0
294054.0 538062.0 0
298187.0 540718.0 0
303365.0 539885.0 0
308949.0 541266.0 0
314145.0 542730.0 0
319173.0 541654.0 0
323684.0 538737.0 0
327177.0 542301.0 0
334880.0 538640.0 0
331439.0 542430.0 0
338499.0 542516.0 0
342981.0 540499.0 0
346815.0 538510.0 0
347800.0 542856.0 0
352028.0 539859.0 0
357711.0 541271.0 0
366113.0 538861.0 0
363159.0 541485.0 0
370300.0 540947.0 0
374773.0 541685.0 0
378925.0 540576.0 0
385787.0 541043.0 0
389665.0 540193.0 0
394217.0 541520.0 0
399257.0 540285.0 0
398690.0 543470.0 0
406865.0 539062.0 0
403352.0 539739.0 0
403423.0 543877.0 0
412497.0 539407.0 0
417286.0 540412.0 0
419938.0 543468.0 0
427320.0 540108.0 0
424062.0 542759.0 0
431843.0 541795.0 0
436432.0 539398.0 0
441623.0 539734.0 0
439527.0 543903.0 0
444237.0 543543.0 0
452356.0 539643.0 0
449127.0 543564.0 0
453595.0 544004.0 0
456662.0 541793.0 0
463418.0 539092.0 0
460745.0 542854.0 0
467837.0 539955.0 0
470378.0 542596.0 0
474121.0 543465.0 0
477281.0 540683.0 0
481281.0 542638.0 0
485155.0 540533.0 0
490613.0 542374.0 0
497995.0 539859.0 0
497126.0 543929.0 0
2018.08 546670.0 0
5962.3 546674.0 0
9850.03 546424.0 0
12864.2 548933.0 0
16984.4 547854.0 0
24379.7 544634.0 0
21965.6 546779.0 0
24600.6 548359.0 0
29271.2 546552.0 0
34038.1 545237.0 0
38662.9 547270.0 0
45088.5 543739.0 0
43983.2 547090.0 0
48559.2 545718.0 0
50901.4 549139.0 0
52850.3 546073.0 0
57398.5 547613.0 0
62854.7 548240.0 0
65601.4 544624.0 0
67845.7 548344.0 0
72060.8 546370.0 0
79812.0 545279.0 0
86279.3 545457.0 0
90744.0 547613.0 0
97997.4 544223.0 0
102445.0 544805.0 0
107582.0 546831.0 0
113372.0 546382.0 0
117569.0 545932.0 0
120349.0 548643.0 0
125301.0 548063.0 0
131437.0 548658.0 0
137452.0 545134.0 0
141604.0 547715.0 0
144080.0 544368.0 0
148811.0 546533.0 0
153642.0 548163.0 0
158260.0 544961.0 0
162660.0 547214.0 0
167136.0 546394.0 0
171937.0 544713.0 0
176281.0 544441.0 0
180623.0 547417.0 0
184407.0 545439.0 0
189180.0 545911.0 0
194866.0 544970.0 0
200145.0 545726.0 0
203160.0 547878.0 0
207167.0 546557.0 0
213560.0 547784.0 0
216910.0 543338.0 0
218536.0 547064.0 0
220982.0 544879.0 0
222886.0 548023.0 0
225760.0 543925.0 0
230944.0 543804.0 0
233279.0 547756.0 0
236101.0 543593.0 0
238631.0 547718.0 0
241218.0 543555.0 0
242888.0 547677.0 0
246636.0 545809.0 0
251636.0 545459.0 0
255378.0 543571.0 0
259987.0 543538.0 0
255385.0 547709.0 0
265454.0 542915.0 0
270590.0 545480.0 0
275575.0 543911.0 0
280336.0 545963.0 0
285072.0 543316.0 0
289376.0 546105.0 0
294352.0 544013.0 0
300276.0 544953.0 0
305240.0 545106.0 0
309826.0 546084.0 0
313931.0 547487.0 0
318134.0 546319.0 0
323270.0 544973.0 0
328943.0 546316.0 0
334563.0 546757.0 0
339965.0 547047.0 0
343946.0 545397.0 0
348247.0 548038.0 0
353447.0 545584.0 0
358616.0 546125.0 0
363127.0 545841.0 0
366591.0 543200.0 0
367995.0 547883.0 0
372624.0 545524.0 0
375824.0 548786.0 0
377633.0 545004.0 0
382927.0 545281.0 0
389227.0 545254.0 0
394371.0 546659.0 0
398433.0 546415.0 0
407253.0 548476.0 0
409520.0 543836.0 0
414940.0 544211.0 0
418475.0 548762.0 0
423207.0 546518.0 0
428118.0 545294.0 0
432611.0 545798.0 0
435392.0 543960.0 0
436210.0 548121.0 0
441573.0 548627.0 0
446859.0 548118.0 0
452044.0 547969.0 0
457550.0 546921.0 0
462752.0 548371.0 0
465799.0 544174.0 0
470857.0 546135.0 0
474484.0 547092.0 0
477950.0 545556.0 0
481237.0 548593.0 0
485072.0 545641.0 0
489335.0 548420.0 0
493645.0 547112.0 0
497567.0 548998.0 0
2739.24 550717.0 0
8235.75 550884.0 0
12752.0 553076.0 0
17164.7 552610.0 0
20885.7 549924.0 0
30743.0 550731.0 0
26929.9 552397.0 0
33800.0 549225.0 0
32956.8 553787.0 0
36980.6 551993.0 0
42220.5 551032.0 0
47062.4 550290.0 0
54137.0 552536.0 0
59924.9 552542.0 0
65118.2 552596.0 0
69629.6 552380.0 0
76243.1 550392.0 0
82243.5 549045.0 0
85853.1 551719.0 0
88123.0 549244.0 0
90655.4 552254.0 0
95707.9 549034.0 0
102014.0 550335.0 0
106886.0 552001.0 0
111294.0 551170.0 0
116202.0 550769.0 0
122406.0 552834.0 0
127202.0 552491.0 0
137365.0 551530.0 0
142056.0 552999.0 0
145041.0 549693.0 0
149571.0 550600.0 0
153518.0 553628.0 0
159006.0 551056.0 0
165371.0 550742.0 0
170420.0 549997.0 0
175774.0 548804.0 0
179927.0 551834.0 0
184835.0 550247.0 0
191372.0 550038.0 0
195793.0 550279.0 0
200476.0 550328.0 0
204910.0 551068.0 0
209565.0 550827.0 0
213459.0 553082.0 0
218043.0 551100.0 0
222357.0 551628.0 0
228541.0 548423.0 0
226418.0 552625.0 0
231220.0 552202.0 0
236094.0 551860.0 0
241318.0 552035.0 0
249409.0 548993.0 0
246968.0 553383.0 0
253132.0 552367.0 0
259725.0 548468.0 0
258295.0 552610.0 0
264471.0 548158.0 0
262189.0 551838.0 0
269133.0 550559.0 0
275200.0 549715.0 0
280295.0 550309.0 0
284941.0 549127.0 0
282406.0 553104.0 0
290945.0 550997.0 0
296937.0 549862.0 0
302381.0 549281.0 0
306597.0 549257.0 0
311041.0 551106.0 0
316687.0 551620.0 0
321291.0 549655.0 0
325764.0 549725.0 0
330723.0 551307.0 0
338104.0 551931.0 0
343609.0 550424.0 0
348063.0 553217.0 0
352274.0 550824.0 0
356611.0 549953.0 0
360880.0 549697.0 0
364866.0 552251.0 0
372159.0 549952.0 0
375957.0 553170.0 0
380303.0 550163.0 0
385969.0 550558.0 0
391656.0 550397.0 0
396436.0 550660.0 0
401862.0 550199.0 0
412567.0 548870.0 0
409410.0 552798.0 0
418689.0 553539.0 0
426142.0 550580.0 0
431409.0 549340.0 0
430156.0 553264.0 0
434750.0 553172.0 0
439944.0 553568.0 0
445073.0 553036.0 0
449849.0 552188.0 0
454922.0 551626.0 0
459739.0 552276.0 0
467737.0 549369.0 0
464834.0 553145.0 0
472405.0 550140.0 0
469699.0 553723.0 0
477041.0 550063.0 0
474554.0 553719.0 0
480764.0 553416.0 0
485202.0 550879.0 0
489469.0 552886.0 0
492940.0 550845.0 0
497906.0 553180.0 0
4906.29 555288.0 0
1215.59 556659.0 0
9497.3 555295.0 0
8039.43 559324.0 0
13354.9 557705.0 0
17952.6 556827.0 0
21699.1 554457.0 0
25141.6 556559.0 0
29441.5 557677.0 0
34994.8 558537.0 0
39959.0 555773.0 0
44624.4 554036.0 0
44912.1 558512.0 0
48967.3 554858.0 0
52754.0 557546.0 0
57423.9 557261.0 0
62571.3 556900.0 0
68004.8 557096.0 0
72584.9 555031.0 0
76867.4 556828.0 0
81482.1 554174.0 0
86863.6 557300.0 0
95013.4 554721.0 0
92283.3 558379.0 0
99765.9 555435.0 0
104377.0 555357.0 0
109338.0 556025.0 0
114071.0 554822.0 0
118237.0 554787.0 0
121371.0 556903.0 0
125499.0 556800.0 0
131953.0 556058.0 0
137684.0 556521.0 0
141918.0 557452.0 0
145781.0 554566.0 0
148749.0 556731.0 0
149374.0 553907.0 0
157923.0 557225.0 0
163236.0 555288.0 0
168194.0 554398.0 0
169936.0 558515.0 0
173997.0 554761.0 0
178579.0 555063.0 0
183189.0 555417.0 0
188820.0 554032.0 0
186684.0 558142.0 0
194653.0 556019.0 0
199838.0 554482.0 0
204240.0 555859.0 0
209219.0 555189.0 0
213431.0 558239.0 0
217657.0 555725.0 0
221648.0 555296.0 0
225200.0 556759.0 0
230125.0 557553.0 0
236561.0 557001.0 0
242355.0 557849.0 0
252003.0 557209.0 0
256469.0 556931.0 0
261260.0 556257.0 0
265692.0 554475.0 0
272309.0 554515.0 0
278630.0 553956.0 0
281889.0 557392.0 0
286147.0 554135.0 0
289976.0 555632.0 0
294999.0 555882.0 0
300188.0 553966.0 0
304597.0 553464.0 0
308730.0 554951.0 0
313210.0 556173.0 0
318196.0 556566.0 0
323302.0 554711.0 0
328879.0 556209.0 0
333966.0 554919.0 0
338585.0 558365.0 0
343646.0 555343.0 0
347627.0 558557.0 0
353035.0 556091.0 0
359366.0 554759.0 0
365016.0 558200.0 0
370325.0 554618.0 0
380551.0 555145.0 0
385666.0 556434.0 0
389922.0 554275.0 0
390666.0 558620.0 0
394459.0 555207.0 0
399724.0 555479.0 0
401985.0 558636.0 0
405042.0 555004.0 0
409824.0 557788.0 0
414226.0 554189.0 0
422623.0 554351.0 0
419187.0 557773.0 0
426861.0 555503.0 0
424077.0 558862.0 0
431295.0 558038.0 0
437292.0 558348.0 0
443011.0 557991.0 0
452680.0 554703.0 0
449172.0 557918.0 0
456705.0 557147.0 0
461895.0 556532.0 0
466818.0 558230.0 0
472350.0 557742.0 0
477263.0 557137.0 0
481506.0 558171.0 0
485786.0 556099.0 0
493788.0 554822.0 0
490122.0 556502.0 0
493602.0 559363.0 0
497785.0 557318.0 0
2832.82 560337.0 0
1347.3 564137.0 0
6671.63 564221.0 0
11576.9 562552.0 0
17282.3 562066.0 0
22383.3 559455.0 0
26639.0 562244.0 0
31612.7 562493.0 0
36504.2 563662.0 0
40568.6 560966.0 0
45399.3 563439.0 0
49452.3 560531.0 0
54118.7 561932.0 0
59328.1 562315.0 0
64552.4 561567.0 0
69017.1 561849.0 0
72709.2 559649.0 0
81245.2 559456.0 0
76939.6 561816.0 0
85012.2 563939.0 0
90028.5 561865.0 0
96880.7 559608.0 0
102210.0 559882.0 0
107431.0 561315.0 0
112898.0 560254.0 0
117928.0 559237.0 0
122778.0 561163.0 0
127898.0 560934.0 0
132167.0 561936.0 0
136551.0 560725.0 0
141285.0 562479.0 0
146514.0 560459.0 0
152317.0 559182.0 0
150283.0 563840.0 0
156423.0 563046.0 0
161354.0 561395.0 0
165679.0 559548.0 0
174107.0 560767.0 0
178616.0 558652.0 0
183064.0 560384.0 0
190509.0 560454.0 0
200020.0 559728.0 0
207552.0 559458.0 0
247946.0 558853.0 0
265304.0 560198.0 0
270868.0 558968.0 0
276366.0 558633.0 0
286954.0 559475.0 0
291882.0 559942.0 0
300078.0 558567.0 0
295911.0 561007.0 0
306270.0 559780.0 0
312109.0 561178.0 0
317161.0 561396.0 0
321232.0 559360.0 0
325577.0 560001.0 0
329735.0 562728.0 0
332723.0 559070.0 0
335029.0 563772.0 0
343496.0 560802.0 0
349471.0 563615.0 0
354246.0 561710.0 0
359597.0 560936.0 0
366287.0 563082.0 0
370165.0 561042.0 0
376090.0 559242.0 0
379344.0 563342.0 0
382032.0 560307.0 0
386806.0 561695.0 0
392660.0 563200.0 0
397012.0 560078.0 0
401655.0 563098.0 0
405239.0 559843.0 0
411604.0 562711.0 0
414706.0 559236.0 0
416319.0 563612.0 0
420797.0 562301.0 0
425635.0 563731.0 0
430150.0 562886.0 0
434268.0 562494.0 0
440611.0 563065.0 0
445581.0 562275.0 0
455845.0 562565.0 0
461108.0 560705.0 0
465419.0 563951.0 0
471799.0 563442.0 0
477817.0 562172.0 0
482560.0 561961.0 0
488987.0 560217.0 0
497573.0 561796.0 0
2833.77 567334.0 0
6521.86 568524.0 0
12012.1 568306.0 0
18595.3 568307.0 0
22353.2 564369.0 0
26991.7 567546.0 0
32637.1 567525.0 0
37893.4 568740.0 0
41271.7 565331.0 0
44677.1 567548.0 0
50235.5 566478.0 0
56214.8 566605.0 0
61768.9 567077.0 0
67115.8 566288.0 0
71699.1 564697.0 0
75385.2 567000.0 0
79647.3 565498.0 0
86906.8 568536.0 0
90088.7 566506.0 0
94105.4 563932.0 0
99317.6 564533.0 0
103937.0 564375.0 0
110975.0 565196.0 0
115310.0 564346.0 0
119473.0 564953.0 0
125775.0 564698.0 0
129645.0 565012.0 0
134985.0 566217.0 0
340589.0 563946.0 0
344951.0 564475.0 0
357330.0 565484.0 0
362717.0 565114.0 0
370173.0 565526.0 0
373571.0 564126.0 0
383130.0 565298.0 0
388631.0 566395.0 0
397115.0 565272.0 0
403013.0 567926.0 0
406897.0 564717.0 0
413054.0 567888.0 0
421098.0 567223.0 0
425936.0 568851.0 0
431078.0 567525.0 0
436559.0 566724.0 0
441460.0 568299.0 0
445692.0 566539.0 0
450558.0 564395.0 0
455264.0 567079.0 0
459930.0 565625.0 0
463621.0 568926.0 0
468800.0 568903.0 0
476335.0 567426.0 0
481180.0 566032.0 0
486509.0 564986.0 0
492720.0 564546.0 0
489860.0 569104.0 0
497910.0 566214.0 0
495086.0 569039.0 0
451643.0 570145.0 0
484568.0 569693.0 0
POINT_DATA 5000
SCALARS Radius float 1
LOOKUP_TABLE default
5120.0 5073.35 5415.48 3863.18 6182.6 2356.98 5492.18 5258.36 5061.3 3163.97 3642.12 5812.43 5580.89 6810.52 6110.27 5840.26 5670.04 4834.9 5085.53 4998.37 5351.6 5867.73 3951.75 4499.64 5542.27 5906.14 5122.66 7513.1 5254.28 4402.52 4436.4 4182.53 5733.48 4672.91 3588.44 5645.7 5553.16 3672.51 4008.92 5561.06 6044.04 5484.83 4715.55 6059.59 5013.56 5701.86 4375.68 5054.98 5484.19 3557.27 5170.02 4688.68 4927.31 5185.34 4517.56 5903.42 3761.32 5176.86 4366.19 4118.05 5065.13 2938.66 4940.78 3615.22 4380.59 6716.79 3850.77 5546.39 5325.36 5538.89 6759.9 4730.36 5926.61 2720.68 4238.81 4955.55 3563.63 4468.59 6030.06 5325.02 5200.76 4862.64 5205.43 4432.58 6684.56 3955.56 5292.64 2635.86 6166.5 5936.02 5305.17 4231.61 3379.84 7613.27 4133.88 5945.65 7021.47 5416.38 6051.14 5836.15 4345.55 5885.03 2837.58 3653.41 5246.2 5017.13 3673.74 3968.64 4385.06 7184.19 4290.3 4861.08 3942.53 3607.45 4951.03 4094.62 6483.19 5418.62 5493.32 4601.27 4195.44 5740.68 3261.21 6704.06 5600.93 3871.88 3856.01 4827.23 4390.66 6116.18 4911.47 7447.37 4924.6 4688.67 4733.32 2924.37 2899.43 3867.67 4003.05 4827.82 3589.27 5759.91 4333.2 4665.12 4927.02 6230.49 4174.52 7054.71 3641.64 5747.75 4277.89 5539.32 6496.85 5541.59 4124.71 5279.39 6337.56 5803.39 4381.97 3255.82 5242.73 2812.98 4065.69 5399.73 4805.87 4712.33 5227.21 3997.1 3260.67 3038.33 3936.02 3383.4 3856.1 5980.74 5109.54 3829.13 6458.82 5489.43 5054.25 4796.33 5360.19 4874.39 4839.34 5083.08 5728.85 5525.39 3998.5 5863.59 4024.3 6257.19 4737.14 5603.15 4695.45 5390.22 4660.72 6038.78 5123.52 4295.38 4780.03 4044.71 5816.2 3091.3 5789.98 5527.54 5573.7 7325.81 4794.96 6186.19 2980.99 4840.01 6834.49 5938.34 5555.28 6394.38 5169.36 4686.65 5834.74 5556.96 3888.21 5697.78 4667.36 4392.68 5529.52 5495.39 3554.9 4487.31 3996.0 4002.16 5693.81 4138.16 2540.31 6029.66 6138.47 5697.4 4727.62 4055.8 6425.26 5143.58 4484.76 5611.2 7933.0 5173.87 5380.13 5118.27 5932.23 5788.23 6052.7 3921.18 5891.05 6902.81 5252.48 4015.92 4778.34 4684.5 5120.49 6302.8 4270.95 5206.78 4005.44 5555.88 5280.17 5028.96 6362.12 3866.16 5152.36 4220.65 4455.12 6820.42 4894.16 4896.52 5711.87 5791.61 3798.62 5581.75 3666.57 4254.17 5615.42 4091.31 4523.7 7199.21 5255.32 6124.89 5708.81 5043.05 3486.22 5409.61 4414.54 5262.61 6038.2 5713.22 6732.43 3183.98 4524.28 4511.82 3778.1 5826.64 4727.24 6959.81 4816.2 6321.41 4941.22 3372.79 5282.64 4479.66 6392.01 3369.13 6644.76 6372.62 7565.34 5337.48 5637.59 5542.21 5481.78 5924.89 4937.14 6894.71 5201.36 5094.81 4306.53 5972.06 5861.71 4312.67 4359.04 5017.78 3794.63 5015.69 6175.81 6677.09 4829.35 5813.4 4089.76 4751.02 5184.56 4715.72 5367.2 5308.1 3043.85 6730.19 4937.02 6037.08 3103.0 6084.86 3307.12 4467.94 5551.36 4933.21 4850.81 6038.14 6135.57 5024.9 5998.38 4270.24 4989.15 4947.52 4520.1 4305.57 3791.79 5201.67 5526.55 4754.05 3192.41 6084.93 4987.87 3315.57 4669.66 4808.52 5607.24 5461.13 4907.89 5655.21 5629.19 6756.95 4929.8 4049.23 5601.05 3586.91 3115.91 4948.92 5478.92 5094.44 5375.47 4723.12 5659.17 4717.05 4562.29 5423.8 5080.66 3417.33 4164.13 4926.42 4642.34 5153.74 5874.89 4165.81 4293.03 4424.7 4951.47 4925.44 5246.61 5215.15 4764.96 5046.33 5053.92 4726.76 3599.45 5839.13 5090.24 5091.39 2240.39 6324.23 4382.74 4516.43 4749.8 5810.84 4230.54 3748.24 4655.49 6163.38 4809.42 4566.18 4964.09 5856.11 5287.2 4234.94 4109.88 5013.13 5714.58 5110.45 5248.77 4083.97 4528.09 3556.85 4389.21 4128.98 6246.22 4307.28 5804.71 5020.12 6352.26 3735.44 5923.5 4073.93 4786.6 4645.41 5096.78 4727.24 4651.28 4384.42 4362.19 4493.48 3693.63 5082.6 6061.47 3459.9 4093.08 4997.27 5543.27 4980.85 3327.49 3960.8 4923.9 3329.99 4973.78 3947.47 5208.32 3296.27 4607.02 3895.51 6673.96 6291.51 5882.89 4188.32 4100.38 4739.42 5538.93 5727.3 4242.52 4907.06 3847.38 3057.03 5163.9 4433.59 5740.84 4973.83 4612.68 3320.52 4151.94 6355.42 5690.56 3937.74 5478.47 6142.37 5806.08 4449.22 4853.39 5628.24 5365.89 5992.26 5070.39 4613.31 5091.68 4204.84 4713.25 6243.0 5174.89 4288.3 5441.96 5370.52 4652.29 5774.81 3697.96 5344.77 4899.11 4723.48 4278.07 4745.45 5356.51 3818.59 5495.68 4863.72 6043.3 5530.87 3912.37 4129.43 4310.18 5293.9 5927.43 5492.26 5244.78 5762.84 5351.39 3982.23 5119.37 4336.42 3130.65 5243.29 5004.67 5409.33 4511.54 4898.94 5196.0 4178.15 6119.09 7531.29 5069.25 5935.03 5048.89 3991.03 3161.47 3435.9 6826.57 4495.87 3746.31 5027.98 5097.87 5281.28 2631.9 4087.15 5489.34 5952.75 6445.94 4320.28 4281.49 6142.94 4329.05 6082.81 4685.34 6327.9 4220.88 6640.13 6519.71 5210.03 6022.17 4583.31 3402.32 4306.11 7589.94 5419.37 4466.03 5985.29 4733.04 4247.23 4694.83 5788.66 4755.47 4485.99 6390.78 7435.25 4788.87 5543.46 5498.32 5346.27 6475.1 7267.18 6255.18 4143.08 5002.48 4758.21 5708.14 4262.82 5537.72 6332.36 6342.25 5542.14 3843.58 4218.06 6691.39 4792.73 4931.38 4736.58 5110.37 3485.26 3191.99 5664.98 4659.59 4048.37 5449.18 5367.52 4714.54 3629.96 3092.35 3320.11 6851.54 4503.89 5935.47 5903.66 5313.66 4528.49 5275.32 4649.22 4268.65 5509.42 4354.08 4520.62 3903.75 5229.48 5475.7 5475.8 5314.69 6050.81 4249.46 6022.72 5527.33 4643.31 2691.29 4969.21 6256.02 4277.88 7500.97 6623.85 3920.42 5102.36 4931.53 8332.24 7134.64 4602.25 5480.13 4270.53 4790.08 4194.5 5191.63 4501.51 5379.87 3708.04 5513.6 4556.36 4901.41 5264.06 3240.09 3369.23 3688.8 4548.16 4515.71 4322.15 5025.39 5893.5 5030.91 4377.07 5507.24 5101.59 3813.22 5570.3 5234.29 2651.49 5512.23 4711.62 4114.24 5349.31 5394.55 2976.22 4256.43 5094.52 5936.36 5928.32 4016.18 5415.19 5127.16 5526.75 5435.74 4244.99 5560.26 5965.81 2330.66 3702.37 6917.52 4177.19 3691.0 5402.21 4880.14 4668.71 7228.46 2845.98 3948.23 5228.18 5787.31 4342.9 6122.55 2739.94 6155.31 5978.9 5082.47 4187.56 4840.84 5344.25 5344.0 4593.7 4478.15 4043.57 4138.42 5925.6 6013.14 3979.82 5138.31 4602.86 2765.2 4581.13 3856.59 4551.24 4621.75 4219.07 5358.59 3610.4 6387.01 6202.55 7111.16 3817.13 5023.15 4547.19 3844.9 3695.36 3963.86 3848.93 5076.35 6020.48 5273.35 5200.05 4091.8 4645.58 5670.2 4662.56 5166.79 5417.15 2682.24 4946.74 5996.33 3950.63 4612.62 4275.57 3619.07 5327.45 6385.23 2983.99 6185.89 4750.17 5660.85 3990.25 4752.51 4989.09 3758.07 3587.05 5320.92 4982.31 5269.18 6362.14 6719.88 5065.11 5978.82 4553.56 4223.33 6308.71 5911.67 3629.62 4997.27 4716.19 5135.69 4301.06 3456.98 5514.76 6045.46 4290.14 4020.32 4763.45 4150.99 5445.87 5198.77 4107.03 5681.38 3771.48 5147.67 4292.06 5011.31 5987.17 5006.58 4746.52 5586.81 3948.17 5413.79 5572.95 6338.89 5584.06 3686.21 6480.17 6445.22 4564.34 4871.44 6248.81 6375.99 4853.02 6259.23 5181.4 4998.21 3457.48 3931.07 3405.98 7440.72 3688.16 4681.72 3949.6 4945.39 5661.62 6631.19 4467.04 5626.61 5817.25 2614.4 6363.92 3997.96 4439.35 3460.94 6205.93 6184.4 4373.45 6229.37 5289.52 4406.1 5314.85 4305.43 5034.59 5450.44 3927.99 4942.77 5080.18 5069.84 5266.5 5329.64 4051.44 5868.82 4050.9 6695.82 3323.28 5709.62 5835.78 6405.76 4877.67 3498.2 3815.26 4245.72 4216.92 4571.7 4704.72 5908.1 4177.94 4344.58 4742.68 5922.5 4271.69 3929.19 3633.87 2775.04 3970.25 4138.46 4850.01 5643.58 5215.05 4986.77 5577.04 6318.18 5423.0 4481.53 5330.45 3689.45 5077.33 3824.16 6723.16 3868.18 5350.88 5130.91 5372.61 4948.5 5402.24 4527.02 4519.22 4531.14 5013.42 3838.56 5651.07 4962.77 5872.05 5323.3 5088.44 4635.6 4256.67 4427.28 6079.11 6430.39 3082.32 5376.71 5703.6 6326.18 4867.08 4266.03 6648.68 4713.74 5407.78 5061.98 6632.99 4923.24 5830.72 4419.61 3828.81 5309.98 7177.44 4236.14 6718.19 4407.87 3848.54 4307.48 5941.4 5331.02 6510.17 4263.33 4454.63 4066.38 4523.88 6049.55 3279.1 4241.89 5054.74 4981.9 5941.72 5794.24 6562.18 4541.21 4127.74 3066.13 6048.7 4302.5 4156.38 5896.46 5634.83 5495.84 6268.1 5113.21 4862.21 4502.5 5499.11 4374.35 5347.48 4810.12 3821.72 6898.19 5526.14 6035.6 5198.29 5137.34 3975.31 4044.45 5125.78 5344.43 4373.47 5045.38 6034.41 5452.83 4959.34 5383.07 4247.15 6552.22 4602.85 5210.48 7552.94 6101.92 3627.55 6239.84 5865.39 5370.85 3658.37 3178.54 4765.02 5629.39 4448.13 5070.29 4807.28 4768.61 2261.36 5075.55 5280.69 4220.03 6923.84 4084.49 5449.46 6179.96 4537.6 5703.07 5147.36 6260.79 4563.46 4082.57 5733.62 5282.91 5169.9 5282.51 4425.84 3797.33 4871.96 7256.35 5742.65 4800.69 5592.32 4978.31 5912.61 5381.16 4403.98 4099.77 4414.48 4948.98 4537.32 5227.52 5163.02 2476.04 4656.78 4092.24 5105.16 6006.16 6009.88 5050.65 4164.68 5316.75 5022.8 3784.5 6133.92 3719.84 4178.4 5782.6 7034.11 4011.77 6261.42 4527.08 5965.78 6396.74 7099.43 5315.4 6449.45 3627.82 5262.19 4244.9 4285.32 6070.58 5490.43 5022.28 5197.52 5178.99 5615.35 4790.78 4591.87 4027.09 6422.84 4502.18 5379.09 7644.38 6004.68 4051.34 6799.4 4409.63 5521.25 5278.36 3661.9 5107.23 5136.08 5949.46 5558.68 3776.94 4010.57 2684.03 6157.04 5246.47 4522.21 6191.29 5506.19 6719.94 4950.67 6166.29 6113.54 5453.6 4662.43 4043.66 3963.76 5528.53 6553.94 5255.18 3004.16 5460.65 4460.92 5945.89 4042.28 4863.23 4105.55 6566.1 4402.67 3555.86 6386.78 4560.84 5565.13 6086.96 3701.27 4729.43 5233.78 4562.74 5991.09 4678.38 5126.91 5776.57 5448.61 3942.07 4827.33 7443.72 7055.53 3937.08 5513.57 5013.67 5729.23 5260.34 5669.65 5934.22 3780.23 5253.55 4359.62 5011.84 5820.48 6057.22 2586.12 6946.21 5433.8 6125.34 5975.63 5252.34 4274.61 4410.55 2965.79 5776.37 4287.63 4516.28 4190.31 5486.68 5678.96 6048.86 5100.25 6894.26 4986.51 5311.03 6169.11 5339.38 4285.66 4896.11 5172.53 4135.62 5801.99 4860.33 5534.94 3685.13 3312.06 5180.76 3361.26 3418.99 4480.95 4993.35 6218.95 5222.16 5533.72 5533.42 4802.32 4599.38 4187.31 3240.51 7422.36 5161.01 4298.15 5227.59 4628.4 5832.37 6051.83 5409.63 5294.77 3077.84 4709.05 4263.16 4630.82 4813.08 6799.88 5726.66 4540.86 3062.43 5426.78 4767.78 5652.0 5235.17 4340.76 4779.5 4421.12 6065.22 4435.36 5254.49 4996.99 4221.28 4470.61 4456.39 4631.83 6193.35 6887.27 6008.49 4806.34 5653.9 5133.97 7144.24 6600.94 3600.43 4906.82 5371.02 4788.58 6155.1 5206.48 6586.45 4709.35 5826.04 5876.71 5624.49 3095.48 4166.08 3979.26 6608.73 3471.03 5188.81 3745.84 5696.88 4730.41 5690.26 4156.2 5062.71 4289.17 4497.59 5564.02 6314.07 6444.77 3921.08 5083.41 7055.42 5683.61 5805.86 5346.68 4049.02 4470.4 5296.29 5255.12 4611.53 5094.48 3872.61 4238.4 4318.48 3930.79 6132.95 5266.22 4004.35 4763.96 5226.97 5008.63 5754.18 5132.68 6595.03 4983.39 5366.52 4690.55 5146.37 7132.12 5518.57 3678.08 4836.16 5151.11 5463.48 5730.33 4527.99 5545.46 4543.1 4376.7 5190.61 3764.06 4642.93 3973.12 6642.76 6024.75 6109.49 5860.67 5987.42 5990.52 3764.1 2967.38 4835.83 5463.41 4159.35 5225.33 4929.75 4237.98 6045.22 6649.96 4896.39 4384.88 3633.79 5480.83 6081.14 5421.53 4220.46 4607.85 4287.53 5683.26 5598.74 5046.21 5131.24 5894.61 5196.67 5687.83 5004.23 6496.67 5226.0 5474.8 4373.3 5339.78 4750.78 5762.59 4861.06 5029.78 6481.79 4796.58 5960.66 4298.67 4962.09 5654.31 3999.48 4203.26 4643.85 6062.05 3923.03 4004.04 5082.74 5411.85 5607.14 4844.57 6915.83 6072.45 4027.46 4470.98 3901.8 5511.88 5759.46 5443.58 6248.6 3836.45 5687.85 4558.46 6401.43 5020.71 5997.88 2681.29 5839.71 4360.23 5576.92 6234.32 6408.83 4585.31 5365.24 5293.51 4446.06 3450.93 4270.74 6293.89 5097.45 4185.61 5737.75 4558.15 2761.07 3778.02 6552.21 5417.8 4350.12 5227.02 5670.0 4232.16 5300.96 4344.51 5680.94 3781.77 5581.55 5193.01 6550.44 3474.5 3860.83 8325.01 5732.27 4440.81 4523.39 5941.9 5434.47 5829.22 4497.78 5567.93 4243.79 5811.18 5332.65 6451.33 5604.35 5413.31 6477.91 3091.67 6439.37 4614.3 4081.97 4303.19 5401.99 5134.39 5514.84 4256.57 5784.3 3914.2 6088.68 5937.08 5612.21 6070.3 4135.08 4929.14 5128.57 5945.08 6000.7 5139.5 6442.69 7493.3 4814.55 6320.71 4648.04 3527.05 5833.06 6262.72 6607.87 3664.11 3365.82 4163.5 5374.51 5320.28 4123.6 7092.87 5224.12 3637.61 6098.14 4569.12 5750.71 4472.17 5873.69 6222.42 5470.77 4831.47 6939.12 4735.33 3999.94 4413.85 6171.13 5092.37 4864.22 2395.5 3497.9 5941.61 4512.11 4933.65 6098.1 5708.99 2435.33 4074.48 6333.29 4558.47 5731.57 5662.55 4747.55 5737.92 3755.95 3056.7 5591.76 5889.35 5010.04 4586.19 6625.18 5323.91 5825.38 4047.87 5742.47 4917.99 5636.4 4367.78 4095.75 3603.51 4298.45 5222.51 6609.84 5135.96 3834.43 5658.37 4707.06 6074.94 5491.37 4250.88 6348.03 3475.67 4792.39 5278.56 5146.37 6917.62 5631.14 6137.8 5433.65 4442.22 4887.76 3012.99 6316.56 4332.87 6400.08 6420.81 4743.59 4715.58 3317.83 5580.92 3532.3 5769.98 5973.33 2221.99 3583.21 5442.32 4643.56 4863.01 5067.46 5620.74 5356.79 5604.21 5233.29 3979.54 3169.67 4968.03 5304.13 5944.09 4863.79 5698.77 4702.06 6515.84 5117.47 4143.78 5724.64 4538.95 4970.88 5965.15 4763.66 4850.14 6739.08 7042.12 4797.52 5501.93 4471.58 5463.38 5945.21 6313.06 3493.7 6345.13 4938.74 4200.03 6470.3 4719.7 3474.39 5516.95 5313.22 5563.79 4151.76 4406.4 3905.51 6853.85 4721.02 3493.47 4254.37 4020.4 4596.75 3374.08 4188.87 5782.48 5564.23 4031.78 3735.24 5950.04 4231.83 6817.57 4477.04 3614.96 6853.04 3886.68 5703.74 4745.43 5831.96 5464.68 2685.81 4475.83 4510.8 7509.24 4394.56 4570.98 5388.78 4275.07 6101.13 4573.72 5599.7 5099.21 4163.74 6969.28 4296.69 3665.95 3319.67 5698.96 6471.42 5283.8 4076.59 4428.14 5164.1 6016.19 6464.15 4124.49 4972.17 4479.11 6685.4 5699.53 4222.77 4850.06 3783.54 5268.38 5527.23 7038.89 4805.33 3863.67 4013.38 4814.12 6193.08 5980.95 5067.56 4343.78 3352.35 2735.53 5263.3 4008.15 4909.65 6523.86 4669.06 4811.32 4286.49 6184.88 5208.14 5829.32 4396.25 4450.7 5151.52 3763.05 5092.24 4347.74 5369.08 4518.04 5291.9 4009.62 3580.58 4874.18 2081.58 2511.46 2775.69 4312.56 4011.37 4778.82 4612.06 5204.04 3306.14 5467.84 3361.92 5490.58 4750.58 5395.14 6710.88 3967.48 3464.83 2477.07 4923.41 2990.77 4925.63 3163.78 4888.6 4305.16 3293.56 4666.81 5882.65 5078.86 4780.2 5163.55 6326.39 6817.32 6643.85 5960.56 6343.14 4020.95 5462.21 6049.79 4390.41 5374.98 5226.56 5274.19 5599.49 4097.57 3436.15 5017.5 5328.22 4216.17 5711.11 4575.94 6484.17 3546.71 4938.72 5768.57 5956.65 4498.25 5151.21 5398.64 3573.73 6574.95 4693.52 4568.41 3624.7 3420.08 4912.04 4539.07 4691.91 4255.34 5064.79 5480.3 3427.63 4146.81 5896.26 5756.75 4587.67 5951.81 3924.14 6918.35 6238.32 6804.79 6372.13 5369.5 5404.01 5535.91 3230.13 5714.25 6176.67 5325.96 5412.24 6332.01 5016.02 7044.29 4234.18 7085.01 3936.95 6153.94 6069.3 6836.82 3862.77 5887.01 5116.6 5168.35 3747.03 2783.85 7693.4 4356.49 4326.48 4437.07 3994.07 3449.37 5491.9 5551.95 6405.0 4264.91 4659.16 3918.87 3101.75 5549.49 5423.42 4766.06 6605.86 6505.78 5657.36 6124.08 6519.43 5029.47 3619.79 5876.64 5053.95 6306.21 5926.11 6667.68 6213.04 5211.38 4497.31 4721.32 3830.46 5092.28 6413.11 5274.14 4739.14 4918.77 4636.5 4819.73 3382.7 5100.1 4940.42 6471.55 3954.91 5085.71 4946.42 5923.4 2965.01 4319.79 6263.44 4863.27 5122.63 6766.43 5774.97 2315.64 5862.86 4890.5 4703.08 6113.95 4050.08 3981.07 4901.07 5452.42 5186.3 5005.85 5966.61 4893.49 5325.44 5102.75 5021.88 3672.21 5760.22 4597.29 4200.09 5931.77 4795.43 5097.95 5108.06 4914.45 4222.4 4698.87 4000.43 3984.88 4661.03 5262.35 5160.59 4732.09 4320.42 4281.98 7165.9 5344.83 7046.11 4449.98 6342.48 4863.97 4771.65 4840.44 5093.82 6639.64 5212.43 5454.12 4834.3 6348.54 4066.57 5642.35 5156.76 6357.47 6101.57 4891.38 4793.65 5955.86 4532.89 2949.12 4533.37 4848.46 5742.09 2779.99 5887.38 4581.37 4920.21 4049.16 6942.34 5851.61 5478.11 5526.31 5030.15 4631.99 3858.17 3477.1 4740.98 3185.39 5388.39 5128.77 3728.18 5335.47 4526.81 4219.94 5048.19 6799.23 5907.46 6740.71 5399.29 5789.55 4633.05 4901.2 2275.45 6522.59 4785.25 5012.5 5435.19 5461.55 4270.15 3298.2 6865.76 5253.37 5424.46 5266.01 5235.11 5767.9 6031.67 6515.8 5529.42 5384.76 5257.12 6138.12 4434.19 4903.82 4428.78 4965.89 5746.28 3703.1 4371.99 5187.7 6090.91 5409.66 4623.61 4082.47 3561.29 4152.85 3295.83 4219.78 6413.02 5644.82 6235.57 5203.08 3492.19 4584.5 5412.31 5548.29 4118.84 3623.87 5916.16 5163.77 6934.37 3423.15 4488.85 3731.84 4579.69 5010.2 3554.48 6496.52 4997.83 3718.69 3991.42 4388.63 4940.28 4834.87 4514.79 2216.82 4509.89 6752.75 5938.17 5269.38 5607.3 2928.82 5313.12 5351.56 5318.53 3344.57 6448.66 5220.76 6945.98 5138.2 5783.48 4701.5 4504.35 5012.97 4036.91 5589.37 5439.49 5110.11 6379.14 3687.65 5216.26 4887.52 5478.95 3851.85 6318.23 4058.87 4206.98 5174.75 5932.07 4984.46 5948.71 3856.53 5460.89 6040.74 5260.85 2884.65 5393.65 5807.46 4648.21 4393.16 3658.05 3311.29 4549.69 6423.81 6192.77 3644.78 4078.93 4312.15 5934.82 4501.78 7122.87 5633.61 3572.94 5797.36 4243.26 5001.58 4153.84 4888.27 5119.86 4592.15 6487.56 4854.11 4901.44 4998.22 5971.22 4909.31 5533.19 5417.21 5711.62 4383.56 3562.79 4990.79 7093.13 4953.1 2895.63 6449.64 3940.49 2978.76 4857.84 2040.66 7016.27 4908.49 6622.11 5089.62 4689.15 6790.73 3685.13 5243.43 5659.95 4741.26 5920.32 4186.6 4537.14 5251.4 5551.9 3867.19 4453.64 4188.3 4963.34 5081.78 4459.28 4260.92 6116.33 4479.94 5499.39 6250.23 4407.9 4440.57 4718.54 6736.03 3087.09 5374.07 7480.41 4588.7 3766.55 5683.95 6027.62 5765.42 5469.13 6098.95 4817.16 6123.03 5453.98 5148.08 6192.0 5885.28 7610.49 6579.31 3004.34 5323.55 3022.6 3804.5 5375.1 4811.76 4172.6 4638.18 5498.42 5211.6 4196.37 5806.31 3556.79 4453.97 3503.41 7317.04 6412.67 7001.83 4482.9 4593.7 4349.13 3766.69 4891.67 6818.91 3503.65 3634.5 4027.63 6631.28 6571.31 4392.65 6413.15 6103.11 5048.55 6459.51 4024.31 4955.16 5844.72 3992.97 4147.31 5989.05 4054.22 7228.94 4441.22 4961.99 5853.89 6551.93 4595.12 3110.13 4386.8 6484.43 4625.67 3485.54 4458.64 4583.52 6418.11 6015.02 4922.49 5585.14 7039.98 4820.17 4729.42 5089.26 5084.17 3886.72 5415.45 3776.8 5096.43 6156.21 6602.43 6104.26 4798.17 3568.28 5425.98 5166.79 5996.66 4516.53 5818.95 4093.99 4122.92 6464.8 5079.22 3604.14 4684.44 4452.54 4962.21 4749.59 5884.9 3468.42 4858.44 3685.65 5799.69 4590.55 4673.35 3876.21 5571.72 4655.16 5869.4 5689.26 4916.22 3701.16 5297.19 6022.7 4255.85 4345.67 5097.69 5511.6 5019.93 3885.86 6261.75 5235.29 4517.73 5177.64 4541.8 4255.31 5453.3 5191.08 3838.47 2588.37 5887.15 4062.5 4435.51 7234.66 8659.64 4055.54 4886.12 6419.12 4301.61 6107.89 4233.8 4446.84 5206.33 4976.12 5530.49 4304.41 5660.55 5653.03 5578.94 3989.7 4157.29 4777.03 4286.17 4246.61 3684.56 6028.09 5452.36 6486.37 6083.28 6100.73 4745.79 5456.71 5470.04 4908.75 6556.26 3971.08 5684.25 6204.65 5438.92 6550.4 4244.49 5036.98 5513.8 5188.53 4521.75 3429.57 5569.2 5350.88 5420.67 4642.74 6735.97 5305.59 6114.89 5416.45 4330.58 5754.6 3288.01 4904.51 2202.77 6870.97 5751.15 5950.88 4149.55 5474.01 6201.86 7554.58 3380.69 4140.4 3639.44 5446.4 4725.01 5966.75 5510.9 3657.69 4505.28 4883.63 4971.29 3492.83 6280.13 5244.22 3684.15 5832.29 4438.76 6006.89 6456.58 3814.65 4159.81 3965.3 5244.98 5792.98 6592.93 4034.05 6350.71 6436.74 2460.79 4456.11 5583.61 4653.83 6063.64 6479.39 4986.71 4405.42 4997.91 3598.08 4599.81 5381.54 4406.05 5810.77 4680.94 5089.1 5828.35 2711.19 5876.72 5236.43 3809.69 4771.13 4992.42 7051.9 4940.84 4608.41 5895.77 4732.09 4765.72 3988.3 3757.34 2908.7 5857.79 6136.49 4039.91 6415.61 4642.66 4338.08 5276.7 4752.14 5037.06 5660.16 5842.56 6134.99 6200.54 5424.88 5148.58 4199.45 5415.85 3548.39 3583.49 5421.64 4858.51 4207.54 3375.28 6599.66 5625.65 4936.96 4481.76 3184.64 5375.12 5452.78 5065.26 4356.36 4892.44 6789.23 5069.89 2205.51 5107.0 6212.15 6813.72 5327.75 4609.02 4852.58 4896.65 4532.7 5561.74 4504.86 5975.23 4788.08 4198.94 6163.54 4211.82 5212.37 6003.78 2628.22 5058.51 4901.29 4124.76 4050.03 4775.04 4120.07 4952.52 4882.66 3840.21 6746.66 5410.33 4954.76 3908.56 4844.83 5244.78 3636.15 5652.87 5483.7 5135.63 6384.7 4355.83 5952.38 5351.86 3896.27 6056.87 5230.02 5307.35 4342.18 5166.89 6016.08 5491.63 5725.37 3868.62 6102.98 5138.33 3743.76 3425.69 6711.21 5510.45 4730.14 2606.51 3994.39 4941.02 3864.92 4618.73 6119.99 2955.36 3668.93 4960.64 4128.1 4385.81 4983.3 7778.01 5690.96 5798.38 3862.91 4125.9 5096.24 6171.71 3628.89 7382.3 2995.67 4022.56 4668.88 5027.43 5522.21 5698.23 3772.3 4855.01 7300.58 4028.32 4714.83 5474.15 7519.2 4099.92 3208.96 5285.07 4884.59 3858.06 4680.14 4478.6 4184.23 4083.79 4511.7 4144.57 4833.46 4351.38 5750.07 6543.13 5933.7 5149.72 4809.67 4757.74 4687.64 4378.3 4419.71 5469.47 4244.21 5411.02 4950.97 3197.63 4989.56 5175.29 3645.12 4863.96 4094.73 5199.44 5713.03 4652.01 5849.65 4928.27 3673.28 5775.31 5052.84 4366.74 4165.21 4603.5 5297.16 4647.67 5354.66 3566.79 4214.44 5378.23 3629.44 4787.97 5374.67 4981.43 3746.36 4061.6 5473.72 4741.28 4215.2 2603.64 2856.55 4553.68 3894.64 5361.87 3703.49 6502.97 3758.22 4783.07 4757.2 4946.23 6200.63 6816.66 4473.29 3844.54 3217.67 5034.69 5079.64 996.652 4680.69 6500.49 5965.58 4972.18 3352.34 5329.76 4607.18 3899.7 2403.72 7200.89 4813.33 4147.49 4802.98 4833.55 3646.95 4081.34 7224.99 6334.53 5377.37 5869.67 4311.48 4899.73 5018.69 3152.86 6394.19 5973.89 5807.52 5963.36 5518.11 5087.14 5169.48 4743.9 4731.21 3124.7 6776.22 6064.71 3719.11 4467.13 6060.17 5153.18 4763.4 5902.67 4236.86 5393.76 5806.61 4983.1 6010.59 7123.04 3756.96 5372.82 4009.24 5906.57 4402.17 4446.58 5401.4 5053.15 5127.82 5124.17 5805.1 5366.11 5039.12 4064.58 3908.98 3419.87 4824.81 6589.82 6328.42 7307.21 5522.75 3608.06 5867.64 6208.9 4923.57 3340.09 6633.61 6059.93 5217.95 5602.53 6355.68 5484.36 4304.63 3953.55 4187.94 5980.59 4063.9 5550.75 5021.77 6834.41 7248.4 4356.25 5036.58 3796.15 5329.59 5776.96 4888.12 6119.63 4209.49 5464.25 5486.48 3498.16 5439.9 4409.27 4752.9 5512.16 4617.55 4588.99 4287.16 3456.47 3875.05 5471.74 4344.34 5950.45 5088.57 5580.34 3852.6 5131.15 5134.67 4110.59 4847.14 3332.49 4706.5 4215.0 4811.22 3950.27 5116.66 3683.86 4918.76 5003.78 6246.56 3299.24 4208.41 5826.78 5730.61 4508.18 6214.73 5064.67 5175.89 4268.19 6618.21 4374.74 5232.85 3717.47 4062.56 3205.68 4051.18 5969.37 4928.35 5241.75 5849.53 4509.46 4651.99 3538.53 4420.11 6127.39 5640.12 6638.25 5078.59 4759.99 5134.33 2646.13 5419.57 5162.67 5760.98 3629.49 4705.68 5469.35 5384.86 4749.96 4658.24 4906.11 4387.39 4564.1 5457.66 5509.51 4848.14 5366.22 6193.73 5254.24 3742.11 4192.21 5712.35 3597.43 5701.52 5144.56 4158.91 5311.55 3360.86 5321.17 3034.16 4869.25 5545.21 3877.8 4333.87 6273.6 3667.93 5136.87 5024.32 5454.11 4708.17 3779.45 2741.2 5790.42 5784.37 3142.09 5591.77 3682.35 5182.13 7541.76 4775.49 5910.86 4681.29 6239.68 3220.29 5749.6 7320.78 4141.21 4234.88 4834.44 5782.43 4384.28 4456.26 5769.14 5113.6 5944.3 3563.14 4810.98 3381.82 5135.5 3619.72 5347.9 4646.51 5640.72 4438.58 4565.93 4504.52 6061.63 7107.63 4867.7 5073.02 2279.05 4829.35 6545.43 4277.24 4075.28 4989.2 5263.27 4469.54 6300.92 4314.56 5291.05 5161.1 3928.53 6045.67 4216.95 5742.74 5466.33 3821.94 3946.28 5984.81 5721.05 7013.17 4209.31 3805.67 5718.28 4247.69 5301.47 4947.24 4640.06 4321.21 6242.79 3540.11 6506.86 5391.48 4803.57 5966.42 5009.83 5666.95 5210.38 4642.2 5717.8 5210.75 4127.53 4474.83 4548.45 6555.44 5293.75 5658.14 5114.07 7124.45 4385.49 7142.95 6358.93 4383.68 5836.26 6666.67 2617.39 5144.44 4826.52 4583.94 5046.31 4337.32 1937.5 6240.42 4731.53 3763.9 5146.0 5721.14 4788.7 4577.73 5863.0 5084.5 4918.64 4815.47 4368.12 4365.58 3889.98 5214.4 5193.58 4636.53 5399.43 5766.05 5117.64 3835.81 3916.42 4019.34 5429.3 4869.48 5510.96 3623.19 6653.07 4745.16 4697.91 5825.55 5071.98 5719.79 3199.4 4316.5 4371.08 7261.51 4968.14 4914.03 5086.29 5527.13 5139.18 4278.57 5551.43 5049.99 4201.03 5001.87 5684.05 5638.7 5813.79 4644.88 5293.13 7350.26 3768.46 5167.53 6110.48 5003.3 6245.52 4932.29 5499.59 4990.23 3784.94 6016.87 3125.13 3845.9 6715.73 4439.71 4174.44 5667.51 4708.31 4027.33 3873.92 4198.9 5431.29 5026.76 5091.22 5023.41 6282.38 5851.63 4546.44 5657.55 5727.79 5212.92 4831.93 5788.97 3472.91 6760.92 4928.85 4023.93 5868.89 8137.11 5484.32 6650.77 6226.14 4173.54 5599.29 5280.12 4801.8 7216.98 4444.97 6038.68 5271.02 5046.12 3000.29 4807.4 4264.54 4350.15 6329.53 3516.27 6541.45 4590.01 4263.78 5367.73 4514.39 4601.74 6101.86 5078.31 4227.41 5993.0 6047.14 5467.63 4923.43 4568.64 4728.55 4929.6 3919.62 5750.35 4489.99 5984.8 4658.11 4945.0 4212.15 4551.26 5678.58 6570.35 4263.18 4242.63 5495.0 3269.54 4559.74 6015.22 4454.74 6063.44 5512.44 2904.46 5120.92 6449.06 4685.4 4924.07 4629.02 5914.5 6006.16 4608.62 4288.45 5407.96 4987.28 4071.75 6206.98 5131.77 6562.03 4410.82 6443.99 7212.97 5490.64 5695.44 4507.46 3422.21 5036.14 5603.68 4944.51 5610.95 5532.72 4584.81 3220.8 5179.17 5579.39 5270.51 5148.1 5490.75 5224.64 5949.73 3495.68 4312.48 5783.94 6370.33 5081.08 6318.25 6864.06 4493.79 4932.56 4279.44 4899.19 5058.34 4028.22 3918.94 5575.11 5487.63 3852.82 4507.36 7145.73 4168.52 5800.81 3954.77 5106.46 6793.1 5166.05 4506.66 5515.73 5209.55 4564.41 6331.74 5951.86 4252.18 5357.39 4833.67 4659.88 5325.91 3791.41 4092.07 5853.12 4213.05 4184.21 4224.3 4700.07 6203.03 5188.82 5235.87 5615.84 5043.14 4464.73 4717.73 6440.38 4732.37 5556.0 4985.3 4711.04 3904.07 5007.21 7144.05 3274.85 4619.2 5606.51 4506.18 5166.41 5740.65 6542.5 7104.73 5067.56 2596.96 3834.47 6349.67 5701.75 3272.75 5262.47 5261.19 3512.94 7043.44 4139.3 3831.52 4263.65 4750.49 4643.9 6106.43 5228.75 4807.35 5644.81 6761.81 3903.91 2918.64 5630.9 4554.68 4368.28 4140.92 4512.07 4692.32 5463.06 3127.83 5236.24 4585.04 3986.41 5260.52 4241.68 3185.09 6102.49 5114.23 3469.18 2945.34 3372.95 4489.29 7407.91 5064.23 4301.93 5846.95 6061.85 5268.15 5819.0 6347.72 3460.93 3200.6 4927.73 4602.57 3763.85 3565.32 3419.07 5710.33 5344.44 4626.72 3186.07 5549.71 4369.86 4967.51 5482.76 3745.02 5173.82 3720.7 4211.36 5698.53 5034.34 3856.73 3769.2 4450.49 3468.45 5635.32 4526.34 4316.45 5042.75 5409.08 4598.92 5241.22 6647.08 4979.52 3422.29 4407.79 5214.63 4537.03 6548.29 3990.96 5352.24 7362.42 4202.77 5836.14 5473.05 6008.81 5537.34 5192.49 5884.99 3487.31 5726.42 6643.4 4674.9 3392.26 5461.72 2549.95 4361.24 6599.28 6224.85 4556.19 5403.97 5368.66 4795.08 6562.92 4068.31 5501.73 3671.06 5077.29 4697.24 3612.44 7035.54 4850.5 5233.76 5426.4 5866.91 5763.05 5129.68 2820.07 5679.74 5076.84 5247.01 4208.37 5157.38 4841.7 5702.4 5069.9 5273.37 952.938 5473.89 6089.45 5810.17 4966.07 5072.5 4657.24 5713.36 5748.9 5545.59 5553.94 4067.96 5494.28 4824.12 5610.53 2970.9 5206.47 4099.26 4834.39 4580.06 4383.47 4608.34 3926.11 6162.3 5971.21 5493.89 4057.17 5464.83 3622.8 2781.96 4770.51 7066.96 4467.0 5414.58 3104.96 4991.35 4431.23 4994.65 4587.7 5601.55 4258.98 4462.87 5196.92 5759.79 3787.08 4013.86 4177.47 6545.99 4218.16 5334.36 4933.49 6139.64 4756.8 3990.94 4896.43 4639.8 4176.32 4462.35 6069.78 5532.75 6949.65 4095.83 4975.85 5695.25 5676.61 6171.01 5716.42 5796.26 4603.04 5701.63 4620.95 5368.93 4488.39 5124.86 7168.2 4571.74 4096.86 4796.12 3622.48 5001.51 6432.8 5385.86 5115.42 4209.0 4082.4 4930.72 5728.58 4887.73 6297.99 5378.24 3604.31 4538.89 5817.74 5887.71 5661.6 4827.61 5285.75 5385.03 5481.64 4169.15 5673.75 5360.67 5968.54 6263.3 4501.05 5592.54 3247.97 5124.34 4114.2 4326.06 5034.46 5757.29 5793.12 5469.17 5061.75 4373.2 3769.24 6022.78 4087.32 6647.85 7025.09 2569.12 4433.12 7336.37 5138.93 6406.8 5648.78 6875.73 5226.42 6081.3 4983.43 5117.52 6311.89 6405.69 4683.28 4217.36 6549.8 4851.18 4825.73 4165.36 5288.33 4871.77 6296.54 5797.21 5685.74 6740.35 4678.7 3673.6 6028.63 3450.07 3306.84 5265.21 4400.14 6215.87 4749.18 5191.26 4704.92 5866.42 3669.32 3663.0 4762.1 4954.81 3742.31 4316.0 6304.49 4546.96 5755.15 5134.72 4835.97 5695.79 6419.64 4420.6 5287.25 4589.06 5340.05 4920.88 4184.47 5577.41 5995.4 5917.34 5890.25 6511.37 5740.98 3999.5 4216.44 4346.07 6710.14 4012.92 5034.05 4598.54 4816.51 3825.48 5218.42 5345.73 4658.59 4770.63 5188.22 3810.68 4841.23 4357.11 2804.54 5005.6 5477.8 5486.89 7208.19 4549.51 5196.08 3587.93 4517.29 6379.38 6257.79 4495.75 4849.5 5323.95 6229.83 4468.26 5578.18 4870.94 5106.33 5293.37 5271.88 6121.56 5559.79 2980.31 5879.24 5740.78 6824.53 5997.91 4742.82 6791.86 6031.22 5485.84 6424.77 5453.69 5918.95 5689.56 6556.86 3242.31 4898.29 6099.28 5372.25 3234.26 4830.13 3494.16 4778.37 5134.17 4074.16 4904.35 5390.33 4904.37 5078.73 4358.81 5278.54 4651.64 5729.0 5729.92 5275.57 5016.46 4179.87 6224.13 4761.84 3661.67 5517.65 4009.68 4622.73 4161.32 5161.74 5256.75 5099.9 6945.69 2960.5 5118.86 7086.69 4298.7 4183.4 6170.9 4733.79 5833.78 4436.48 5615.35 5758.98 3967.76 5288.64 6213.24 6734.39 5942.45 4228.53 4150.76 5005.72 5368.52 6142.88 5811.26 5155.28 5062.77 5388.73 6019.35 5205.38 4884.93 6075.99 5262.79 5927.2 4550.92 5146.1 6485.77 6060.06 5544.27 3484.81 3987.69 6502.99 4287.25 5424.55 4392.75 4921.1 6219.34 4271.07 3814.16 6023.07 4191.01 5674.63 4475.38 6506.63 4140.04 4215.05 4668.8 3495.3 5322.11 5700.79 5735.08 7133.44 4726.2 4750.81 4426.02 4711.15 3953.26 4474.39 5467.51 5459.92 4096.47 6478.35 4196.62 5453.77 2809.19 4916.7 5589.53 4104.04 5593.79 5025.42 5234.2 4612.13 4965.24 5846.6 5327.05 5438.55 5353.23 5977.66 4523.81 5065.74 5198.94 5791.25 5933.54 4873.23 5464.05 5453.2 3148.79 6348.93 5136.51 6815.51 4332.64 5232.16 4422.23 4457.05 4820.68 3989.26 3618.64 5703.84 4335.79 3530.82 5797.32 5432.04 3921.27 4886.99 3702.45 3161.1 5265.63 4431.06 5684.88 6523.78 5730.2 5620.88 5370.9 4941.52 4529.77 5900.0 4325.13 4262.74 6172.27 3783.79 5317.19 4248.14 5279.19 4016.6 5192.92 7050.08 4786.66 5891.25 5370.1 5129.4 5114.51 3303.49 3720.38 4655.37 5585.25 4731.37 5023.61 6351.89 5932.28 5560.23 4975.32 5237.55 3902.48 4304.64 6030.39 4905.53 4823.06 3799.01 5254.49 3757.23 6828.8 5987.88 3579.59 6161.94 6123.46 4065.28 5057.59 4461.14 5111.26 5285.6 4574.54 4949.55 4764.83 4600.71 3957.38 4494.15 5035.71 4419.79 4710.88 5407.69 3869.39 5960.5 4117.9 5308.33 5393.43 6896.55 4666.12 4638.09 4685.65 4441.91 5377.01 5330.26 6470.23 5939.22 3626.86 5418.12 6371.96 4271.93 4604.1 4697.49 5125.17 4859.01 5524.45 5600.21 4282.11 4625.53 6589.13 2347.41 5602.62 4542.16 3543.37 5114.67 2030.03 5353.66 2638.82 5030.33 5104.39 5847.91 4934.66 4984.01 4109.44 4903.84 4290.49 4434.65 4557.1 6688.53 5209.5 6175.27 5876.51 4028.35 6731.89 5410.6 4733.41 4969.68 5264.83 3901.53 5431.14 5313.86 5178.07 5189.91 5777.26 4171.02 6119.0 7012.36 5028.06 4002.99 5587.3 5159.67 3572.73 5764.52 3770.22 4390.64 5150.84 4645.86 4045.67 6005.95 4308.49 4930.17 4581.1 6241.77 4745.44 5762.82 7360.12 6223.98 5821.49 3035.06 5617.29 5580.44 5998.13 5095.52 4746.15 6892.33 4758.84 4452.36 3976.0 4068.41 4672.86 6530.78 5059.37 3043.77 5783.38 4139.39 6264.03 3909.94 5088.64 3562.8 6589.8 7392.65 3729.16 5319.1 4181.93 3038.91 3922.28 6570.43 6883.86 3350.99 4979.5 4745.37 5939.29 5418.98 5575.11 5615.06 3132.34 1969.87 5490.54 4841.28 5203.54 4047.95 5507.38 6189.67 6889.5 5001.69 4416.87 5256.82 5300.17 5152.78 6581.56 4052.43 4057.4 5534.23 4753.76 3934.11 6025.77 4781.9 6815.96 5339.6 5828.25 4725.11 5483.37 5092.93 5934.05 5322.07 4714.66 6771.18 5076.11 5770.07 5990.75 4984.17 5101.6 4656.01 5327.39 5781.62 4037.86 4138.59 5714.51 4938.33 5628.97 5527.27 4484.78 5157.73 4621.33 4541.22 4946.08 3539.68 2927.84 4696.03 6217.33 4605.39 4698.7 6270.59 5927.1 6500.45 4907.55 4103.76 4286.61 2932.52 4603.66 4757.87 3557.46 6636.43 5971.95 6298.8 3979.46 3689.24 6321.97 5151.19 6509.54 3792.06 5128.59 4993.49 4293.3 5310.33 6583.37 3688.83 4864.38 3402.44 4848.98 4491.96 5184.98 4608.01 4467.51 5087.97 5339.82 4519.03 5460.57 5110.27 4085.96 5703.34 4612.68 6668.98 6649.52 4232.33 5462.6 4747.68 4262.19 5770.92 3093.38 4597.88 4845.91 4878.93 2002.78 5631.32 6275.25 4505.3 5793.14 4491.26 4511.34 4832.21 6463.71 4742.35 5394.79 5645.54 5264.08 4526.87 4151.74 5192.82 6920.92 4174.22 3783.36 3573.84 4067.89 6294.09 4571.57 3445.92 5131.07 3820.19 5236.69 4586.82 3133.28 6026.04 6200.05 5859.17 4052.49 4034.41 5061.74 5326.03 4420.35 6142.94 5717.45 4948.96 5117.83 5268.27 4013.86 4061.87 3980.46 4896.67 5165.31 5383.9 4585.37 5158.44 3798.09 4466.22 4288.5 4496.51 3886.56 4511.05 6153.71 5917.08 6561.94 5259.21 4256.08 2803.01 5881.93 4444.0 4399.52 4554.24 6182.19 5910.66 7415.84 4981.81 5141.03 4970.55 4840.44 8123.59 4819.83 5765.14 4767.54 4801.16 5121.08 5688.77 6177.68 5466.13 6229.64 6045.26 2848.44 4220.43 6263.87 5743.8 4094.63 5084.76 6605.11 6834.92 6379.33 5130.57 5652.73 5402.45 3985.93 6412.84 6071.59 2589.19 6079.55 3856.4 5485.61 4696.06 4937.36 5308.4 6581.13 4569.32 5537.61 6084.88 4397.06 4199.44 4053.12 4479.5 6261.67 3435.13 5065.78 4431.46 4521.42 3207.84 3977.98 6043.34 4939.56 4959.72 4712.17 3808.04 4723.71 4461.67 6126.5 6322.0 6007.1 6345.2 4609.65 5704.61 5009.21 5410.73 4379.91 4574.03 4942.63 5290.37 5850.38 4227.66 4691.01 4730.97 4594.89 3677.85 5245.95 5821.42 4515.02 4811.11 3463.53 6126.03 4121.07 6044.69 2970.24 5524.28 4197.87 5105.54 5731.43 5462.1 6353.81 3414.67 3518.14 5444.36 4150.44 5522.34 2649.69 5771.98 5899.78 5772.57 5000.74 4813.81 5244.95 4645.93 4634.25 5448.64 5901.8 6417.61 5715.51 5783.69 3456.3 6074.39 5317.83 6738.9 4460.89 5992.06 4157.1 8052.53 3939.96 4970.12 4867.12 6044.01 6520.19 4637.3 1458.87 5734.07 6241.48 3997.68 6033.28 6286.27 4188.16 6327.54 5071.38 5616.66 4802.36 5368.28 4880.78 5257.38 5075.23 5625.02 4975.56 7282.36 6666.34 4829.77 3826.01 4645.91 5581.01 6959.88 4125.75 5749.53 5247.73 5090.48 5034.02 5582.28 5945.25 5181.31 5985.75 4137.16 5475.83 6189.29 5984.55 5803.3 4721.98 3228.27 5252.82 3543.98 4142.1 5056.26 5878.55 4014.44 6604.72 6002.77 3794.47 4610.55 4967.02 4614.49 5400.69 4462.5 4128.93 5573.31 5004.68 4023.88 5348.11 4405.61 5428.24 5108.84 4034.88 3511.5 4520.14 5067.92 5488.96 5357.14 3188.21 5128.03 3720.92 5087.3 6637.38 6139.74 4975.57 7066.26 3057.3 6150.31 5214.71 4677.84 4996.91 3920.44 4924.52 5379.52 4866.8 5314.67 5658.05 6593.1 4066.36 4000.51 6032.45 5011.37 4026.03 2827.92 5092.44 5044.68 6908.32 3467.11 4817.75 6153.26 4848.15 5637.53 4439.09 3882.37 5523.81 4095.4 5188.57 6351.48 5395.12 3721.69 5357.33 3830.7 6210.0 5350.9 5432.4 3483.61 4262.52 7430.48 5545.68 5640.67 6080.69 6572.17 3751.73 5555.89 4967.93 4766.47 6369.66 5678.08 5973.57 5922.62 4414.09 5125.45 5957.82 3784.68 3717.22 6649.21 5507.07 4654.92 2943.17 5286.55 5327.71 5522.18 4322.56 5509.09 3873.72 4592.49 5212.05 3625.98 5479.86 6474.5 3928.99 4444.92 4763.04 5971.9 3746.62 4532.67 4876.37 4769.62 5260.13 4649.5 4810.74 3900.93 5784.38 4149.17 4329.8 5728.27 5672.46 3074.49 5202.33 3956.24 7558.99 3393.59 5043.14 5333.04 5445.91 4812.59 4521.99 6842.54 7115.67 5675.45 3361.11 6038.56 2807.46 5599.16 4179.8 3488.34 5658.35 4487.51 4582.12 4295.25 7394.47 4729.45 4850.95 5919.27 5374.09 4793.06 3421.81 6188.33 6111.23 6916.18 5786.06 5873.62 3868.69 5447.74 4450.51 6033.72 3768.62 3851.47 4966.74 5563.47 5651.46 3162.27 6033.93 5516.37 6520.96 4441.44 4232.44 4612.4 5336.61 5563.09 3312.3 6381.58 3282.57 4798.13 5648.59 4718.61 6697.45 3873.79 6296.36 5717.67 5515.59 5252.37 3224.81 4499.54 3775.38 5037.58 6457.89 4844.2 5114.61 6118.13 3374.62 4926.62 4871.1 6009.93 5872.45 4083.1 5270.1 5130.56 5191.29 4957.99 4947.64 6305.9 4542.62 3470.69 4859.95 4132.08 6009.88 5223.1 4850.49 4981.55 5144.23 6188.62 6153.07 4702.32 4414.06 5908.57 5944.52 4413.56 5050.2 2513.38 4821.41 5316.05 4924.53 4908.32 3995.08 4499.52 5019.84 3874.12 4028.13 4457.73 6476.35 6260.58 4067.24 3053.19 6571.26 4313.38 5580.95 6598.99 3549.92 4032.06 5246.81 2468.16 5089.1 5888.95 5394.78 3463.34 2853.68 5122.38 2459.88 5262.85 4998.37 5329.84 6559.82 3879.83 6565.95 4577.98 5043.34 5886.81 4246.24 6805.02 5354.48 5640.63 4900.26 6261.13 4167.55 6271.22 4720.34 5244.47 5378.75 3920.64 5510.89 6186.24 5822.7 4137.41 3780.07 5466.49 4038.17 5007.41 4907.48 3692.99 6213.74 4959.94 2329.93 5639.4 1635.31 6938.87 6185.73 4083.24 4806.99 5432.2 3771.91 5217.62 6178.19 4746.19 5349.85 4616.81 5212.2 5715.25 4362.94 4611.21 5108.42 4469.82 4630.5 3354.94 4404.87 4432.32 5237.27 4451.76 7885.41 4046.22 5782.25 4104.97 4575.72 4081.77 4948.21 4987.01 4420.3 2181.29 4202.12 6332.64 3917.09 6492.44 3482.73 4613.32 5145.39 3352.46 3996.93 6351.95 5195.09 4063.26 5345.05 4997.89 5093.28 6131.52 4311.92 4699.77 5093.41 6842.35 5464.34 3621.63 4777.96 5801.89 6833.5 7296.47 2613.78 5742.39 4780.16 5738.37 5616.11 4433.23 4813.24 5759.19 3113.64 4490.2 4304.75 5480.86 6139.9 4720.22 2832.83 5827.3 6036.99 5250.56 3010.1 3633.58 3825.98 6294.14 4339.97 5087.03 5203.75 4667.84 5169.09 3906.41 4691.15 4512.6 4210.24 5470.67 4260.38 5901.71 5225.11 5342.9 5252.22 5733.12 4962.35 6436.29 5402.81 4600.81 4919.13 4124.33 5168.97 5783.88 5002.38 6705.93 4865.11 4731.16 5502.14 6470.87 4495.33 5282.67 4159.89 5747.9 5178.55 4287.93 5146.69 6203.24 6818.23 4488.41 4369.87 5652.19 5412.07 5512.57 6578.62 4813.55 5856.43 3465.03 3839.0 5229.56 6011.4 5799.86 5172.1 6052.22 5376.41 6545.78 4870.14 2932.2 5105.72 4082.01 5767.65 5003.49 4750.76 4907.03 5497.27 5617.91 4444.95 4721.2 4706.31 2694.25 6265.48 4735.99 5003.81 4203.68 4739.56 4701.03 6225.05 5434.04 5200.1 3997.52 7679.2 4881.51 4909.74 2626.41 5310.33 6729.99 6664.54 3922.98 5161.73 5259.48 5254.93 4803.4 6608.94 3796.73 5417.07 3834.01 5656.84 6789.66 4739.41 5312.2 5847.27 4706.59 5734.84 3982.31 4950.07 4582.24 4474.96 4084.87 4790.63 5259.29 3584.05 4589.22 4916.75 4818.53 5097.85 5584.64 4123.08 6189.04 6224.64 4636.45 4221.03 4932.27 3799.55 5638.51 6793.49 3563.33 6060.19 3550.88 5536.0 6786.37 4333.23 4328.76 5561.63 5940.5 4358.06 5093.51 5647.93 6201.49 5449.09 5154.74 4605.61 4465.56 4131.08 5386.95 3864.19 5332.11 5315.71 6158.93 5081.65 4823.14 6679.12 5806.74 4621.32 3878.8 6284.12 4796.04 3948.21 5669.15 5296.05 5263.86 4672.34 5056.32 5533.52 5003.63 5410.33 4695.7 4747.24 4944.08 4380.86 5576.16 5269.39 4305.35 3964.03 4216.33 5832.72 2451.27 3903.9 4929.35 5606.22 3943.77 5161.02 3124.49 6081.35 5459.52 6262.18 3818.37 5566.5 5663.36 4276.59 5579.04 5125.53 5994.21 4444.54 5403.81 5779.9 6964.78 5299.03 4374.05 5036.84 4565.36 5813.68 4025.08 4008.67 3618.53 4770.21 8013.28 3846.55 5283.65 4644.68 2892.36 3082.16 5911.29 5416.41 4694.27 4414.23 6760.64 2515.5 5177.88 5551.79 3793.83 6981.47 3916.15 5367.05 4758.76 5647.11 4088.72 3945.62 3743.85 6236.46 5342.17 6379.3 3795.63 5189.4 4576.71 5082.66 4550.77 4337.93 5201.3 4345.51 4048.73 6223.33 3860.8 5145.13 3747.96 5611.29 4521.88 6568.45 5004.22 4280.92 7263.57 4696.92 5705.96 6437.99 6898.8 6632.04 6540.57 4893.72 6004.72 4072.4 4983.56 5373.78 5345.65 2489.44 5438.5 5863.36 5699.4 4698.94 5237.76 4286.84 4994.98 6423.96 6058.13 5894.69 3330.85 6988.4 6635.51 4060.17 6051.35 5302.53 4909.13 4287.61 5648.02 5210.22 3308.75 4604.34 4439.17 5677.42 2701.42 5442.79 5051.39 6673.92 5242.38 5151.68 4884.94 5362.15 4609.98 4738.72 4752.31 5240.97 5569.85 5405.6 3929.35 4884.93 5082.25 4759.38 6960.97 4287.15 5282.51 5504.65 5669.41 5732.11 5040.9 5596.68 4868.66 4004.39 5159.9 4987.48 5943.61 5981.54 4248.58 5479.17 5020.37 4542.25 5233.88 4849.21 4785.55 5245.4 6189.81 4449.73 5015.67 6538.04 4894.15 6157.59 5848.41 4090.28 5438.6 4246.83 7370.52 4726.5 5467.05 3724.23 5103.3 4963.88 4601.54 5888.94 3832.09 5175.88 5267.65 5739.69 3509.34 5360.88 7360.62 3166.37 4977.64 4985.45 5205.53 5699.51 5499.37 4489.18 4883.13 4632.75 4836.76 4752.94 5551.09 3950.53 4501.1 5581.47 4384.91 4987.01 4713.56 6094.34 6779.82 5543.67 3999.81 4867.13 4863.27 4502.12 3255.93 6853.07 6327.61 4633.59 5733.59 5575.8 5268.93 4455.61 3695.72 6874.6 5106.9 5306.31 5523.96 4223.53 4733.37 4535.94 3037.72 4523.9 5126.08 5604.0 3760.4 4951.02 3919.47 4602.7 3783.35 4037.16 6395.63 4727.98 4122.2 4516.26 4790.16 3647.26 3731.58 5369.42 5207.08 4714.52 4587.19 5543.05 6028.89 5333.16 4888.17 5755.98 5392.85 5077.2 4274.05 6550.61 4277.54 5529.09 4531.46 5925.82 5448.68 4739.5 6210.48 6377.45 4491.62 4182.05 3865.5 5275.27 4072.95 
SCALARS Velocity float 1
LOOKUP_TABLE default
1.54815 1.5244 1.51395 1.53646 1.52632 1.56248 1.50436 1.53757 1.58373 1.56698 1.56489 1.5486 1.53495 1.53736 1.53364 1.51829 1.5242 1.51699 1.52658 1.55248 1.54044 1.54375 1.54722 1.58554 1.55535 1.5494 1.55891 1.52473 1.56192 1.56108 1.55742 1.5248 1.53809 1.52462 1.53763 1.52978 1.5425 1.54782 1.5365 1.52032 1.52036 1.51442 1.5699 1.55336 1.53728 1.52009 1.55864 1.55264 1.54217 1.54322 1.54888 1.51947 1.52678 1.51525 1.52314 1.52529 1.52456 1.52385 1.53538 1.5304 1.54026 1.54383 1.54583 1.5382 1.52717 1.52543 1.52186 1.52303 1.51639 1.55024 1.55526 1.56382 1.55627 1.5051 1.51821 1.52518 1.50781 1.54992 1.56343 1.56534 1.52936 1.5163 1.52386 1.52268 1.52579 1.52501 1.52795 1.52674 1.53199 1.54157 1.53633 1.53292 1.53421 1.52675 1.52538 1.55334 1.56001 1.55172 1.54733 1.521 1.46818 1.55098 1.38855 1.53616 1.53706 1.5235 1.53121 1.52685 1.52702 1.52738 1.53302 1.52405 1.53405 1.529 1.52596 1.53012 1.55005 1.56161 1.55495 1.5465 1.53843 1.53906 1.5063 1.45935 1.54734 1.52271 1.52876 1.52856 1.53292 1.52716 1.52719 1.52884 1.52872 1.52711 1.52575 1.51837 1.51995 1.52866 1.51998 1.53077 1.5259 1.5228 1.52418 1.53373 1.54581 1.55879 1.55322 1.54976 1.53686 1.52303 1.52775 1.48621 1.49488 1.54138 1.52602 1.52846 1.52657 1.53152 1.53203 1.53003 1.52508 1.51927 1.51285 1.52132 1.52804 1.53356 1.51863 1.5181 1.52187 1.51899 1.53232 1.53233 1.54225 1.54711 1.55323 1.54651 1.54669 1.53064 1.51258 1.49346 1.49891 1.49607 1.53451 1.52859 1.52612 1.52713 1.52662 1.53726 1.53962 1.53205 1.52492 1.51462 1.4945 1.50387 1.48612 1.51872 1.52188 1.5165 1.53438 1.54004 1.54149 1.54079 1.53754 1.51765 1.51144 1.50304 1.4967 1.51625 1.52898 1.52541 1.52655 1.52382 1.53081 1.54343 1.53679 1.51844 1.49735 1.47887 1.49987 1.52128 1.52186 1.51436 1.514 1.53304 1.52931 1.53506 1.52965 1.52939 1.53624 1.52905 1.53509 1.52088 1.50914 1.50522 1.50566 1.50532 1.50313 1.5189 1.52829 1.52884 1.52382 1.51846 1.53354 1.50402 1.54073 1.52927 1.48411 1.50748 1.49799 1.51812 1.52519 1.52526 1.52114 1.51548 1.50639 1.50451 1.50372 1.50662 1.51853 1.49118 1.49966 1.51325 1.52769 1.52255 1.53385 1.52791 1.52676 1.53484 1.53149 1.52174 1.5004 1.51004 1.50109 1.52848 1.48643 1.48263 1.48703 1.49865 1.48832 1.50442 1.49122 1.51803 1.51797 1.51012 1.50381 1.49704 1.49717 1.49201 1.49396 1.48367 1.50846 1.52599 1.53486 1.54024 1.54596 1.53946 1.54789 1.54476 1.53463 1.5206 1.50564 1.503 1.49983 1.50308 1.4972 1.4859 1.47878 1.47703 1.47568 1.51121 1.50596 1.51468 1.50988 1.51015 1.50675 1.49852 1.48665 1.48388 1.48224 1.48215 1.4949 1.49456 1.50326 1.51968 1.5378 1.53279 1.55359 1.55761 1.53316 1.54273 1.52173 1.50768 1.49545 1.48957 1.47124 1.48109 1.4636 1.46382 1.46441 1.45775 1.50026 1.50032 1.51229 1.50934 1.49053 1.49103 1.47865 1.47284 1.47604 1.46449 1.48574 1.49613 1.50673 1.53973 1.56891 1.55299 1.54447 1.53179 1.51061 1.52679 1.49781 1.4898 1.4868 1.48516 1.47912 1.45436 1.46868 1.44772 1.45466 1.44641 1.455 1.44233 1.19178 1.49618 1.49293 1.49939 1.49229 1.49426 1.51438 1.48411 1.48342 1.4771 1.47956 1.46925 1.49766 1.49161 1.48363 1.4927 1.50174 1.48851 1.55875 1.53884 1.55913 1.56399 1.56159 1.54812 1.49594 1.51041 1.47076 1.48238 1.49282 1.49703 1.46196 1.4363 1.43046 1.40298 1.43052 1.44843 1.4504 1.43419 1.47108 1.49877 1.48739 1.53342 1.57047 1.48994 1.46829 1.45428 1.48343 1.48447 1.5053 1.47798 1.48985 1.51655 1.5021 1.50004 1.49369 1.44874 1.44084 1.44541 1.54343 1.57851 1.58123 1.53507 1.46271 1.46973 1.48407 1.51027 1.43259 1.362 1.44719 1.4104 1.42618 1.46289 1.45292 1.43839 1.4536 1.49134 1.52313 1.43694 1.38795 1.58595 1.36381 1.50281 1.50158 1.4981 1.48449 1.52474 1.52522 1.54332 1.55156 1.43153 1.43657 1.40741 1.40291 1.37505 1.43266 1.57086 1.62488 1.60011 1.44889 1.46897 1.47059 1.47435 1.46613 1.50534 1.42325 1.34945 1.38363 1.40284 1.40237 1.47045 1.4976 1.49964 1.43799 1.43842 1.45891 1.44681 1.53037 1.5335 1.69433 1.35506 1.36924 1.52749 1.50007 1.47477 1.45617 1.53468 1.63325 1.44259 1.44016 1.37477 1.3694 1.41946 1.47171 1.46671 1.47445 1.44576 1.43545 1.48267 1.46337 1.46452 1.49303 1.51786 1.42393 1.45727 1.35751 1.35654 1.48556 1.41003 1.50504 1.60092 1.45907 1.71049 1.61645 1.19178 1.47535 1.16878 1.49803 1.59812 1.37945 1.30851 1.43459 1.4028 1.4875 1.46552 1.36969 1.3 1.74464 1.51838 1.46925 1.4184 1.44985 1.39757 1.40132 1.31939 1.29167 1.44542 1.44678 1.47914 1.47161 1.44605 1.33549 1.61859 1.41396 1.31454 1.50778 1.33844 1.64254 1.71099 1.90316 0.995689 3.03759 1.1915 1.37152 1.90563 4.63428 2.29033 1.8922 1.43824 1.47384 1.19773 1.2102 1.2699 1.52971 1.4366 1.4456 1.37811 1.34879 1.43273 1.30415 1.4538 1.38969 1.237 1.3151 1.31646 1.44086 1.45007 1.47339 1.4198 1.21873 1.54735 1.50728 1.33109 1.38788 1.62492 1.59727 2.03035 1.4463 1.74126 2.05895 1.31358 2.41051 1.96009 2.82493 1.70919 1.35973 1.0701 1.06516 1.02604 0.816506 1.02725 1.25855 1.43575 1.17046 1.31086 1.49155 1.36282 1.32876 1.40589 1.46652 1.3127 1.25904 1.4859 1.36915 1.39419 1.28355 1.36769 1.43238 1.38105 1.47532 1.3609 1.28898 1.14191 1.31589 1.1926 1.32695 1.39382 1.38913 1.41155 1.20478 1.19094 1.23972 1.19138 1.30721 1.49106 1.46402 1.2321 1.73107 1.47254 1.65064 1.18813 1.63798 1.24713 0.979547 1.12234 1.10893 1.06207 1.00681 0.934307 0.814207 1.11532 1.12216 1.13114 1.09483 1.05627 1.08109 1.0364 0.764322 1.08206 1.22 1.05122 0.577468 1.3747 1.37278 1.11016 1.56984 1.16959 1.50128 1.26807 1.26738 1.20905 1.29678 1.30214 1.36322 1.31282 1.37269 1.40894 1.23568 1.24801 1.26377 1.18299 1.19179 1.16712 1.22889 1.16495 1.32778 1.20626 1.28236 1.3613 1.34434 1.18824 1.21455 1.25039 1.24615 1.23154 1.27388 1.35607 1.22354 1.35778 1.50719 1.29046 1.19748 1.2358 1.27887 1.21562 1.31891 1.23137 1.17181 1.15002 0.936182 1.05065 0.961404 0.81893 0.89311 1.00578 0.949099 1.0561 0.981807 1.08083 1.11283 1.07449 1.10969 1.11726 1.13573 1.14508 1.07747 1.09383 1.10801 1.04602 0.834824 0.968556 0.905683 1.10531 1.1281 1.11836 1.20441 1.20736 1.21666 1.23334 1.29677 1.25541 1.25084 1.25615 1.25085 1.20002 1.3175 1.30788 1.29439 1.05507 1.14579 1.19714 1.25156 1.20163 1.15811 1.16012 1.12145 1.2407 1.13479 1.24355 1.18652 1.26512 1.26196 1.0628 1.31078 1.17359 1.21946 1.28861 1.19093 1.26171 1.39426 1.4042 1.07871 1.20396 1.25332 1.25216 1.27766 1.2032 1.16295 1.14849 1.16933 1.09542 1.05787 1.09566 0.973388 1.08298 0.992665 1.10444 0.97578 1.05144 0.915813 0.962921 0.963961 0.954239 0.979006 0.919724 1.01789 1.00083 0.988718 1.06375 1.04092 1.13134 0.849356 0.979616 1.04097 0.932286 0.923702 0.95164 1.06249 1.16716 1.22635 1.23629 1.14196 1.19524 1.24979 1.23695 1.20864 1.20279 1.24814 1.31387 1.14008 1.12551 1.01575 1.21593 1.22324 1.21341 1.17222 1.18304 1.09303 1.14788 1.08463 1.13753 1.16603 1.09331 1.04451 1.0547 1.20566 1.23969 1.71 1.23701 1.18221 1.33276 1.26049 1.09 1.12567 1.11619 1.13175 1.18552 1.10124 1.13079 1.19901 1.10457 1.21838 1.13827 1.17697 1.12739 1.059 1.0935 1.01212 1.10141 0.902908 1.01668 1.08728 1.20959 1.03798 0.947506 1.04669 0.94642 0.930332 0.955519 0.885586 0.899283 0.893945 0.879379 0.826808 0.816616 0.813492 0.873693 0.888389 0.881036 0.882661 0.878598 0.937866 0.880232 0.851023 0.954393 0.879405 0.665477 1.0171 0.949543 0.871277 0.909563 0.940929 0.823081 0.902085 0.850967 0.900742 0.97402 0.923983 0.794943 0.896335 0.972345 0.966064 1.04902 1.27153 1.17399 1.14521 1.11807 1.04938 1.08649 1.11105 1.11781 0.996864 0.99581 1.12003 1.05764 1.15905 1.13368 1.04084 1.13222 1.05322 0.996646 0.898016 1.1174 1.07532 1.12782 1.20537 0.912183 1.03857 1.24191 1.16831 1.03363 0.973353 1.03512 0.997155 1.10038 1.08344 1.1191 1.07874 1.01285 1.11112 1.12664 1.08502 1.08332 0.935103 1.02629 1.01182 0.834973 0.922395 0.980468 0.978335 0.829128 0.81497 0.901552 0.837591 0.858382 0.838008 0.8377 0.84528 0.8492 0.845703 0.848419 0.837041 0.824944 0.830849 0.833238 0.838629 0.852614 0.876478 0.877512 0.86898 0.857399 0.844148 0.804035 0.722629 0.783375 0.782496 0.968934 0.921039 0.932655 0.971378 0.894468 0.923041 0.930755 0.931043 0.972228 0.780777 0.894424 1.16171 1.04507 0.975025 0.984756 1.02477 0.977431 0.960003 1.00966 0.994156 1.00178 0.991747 1.11035 1.08901 1.03713 1.06866 1.04716 1.03902 0.975103 1.0092 0.946715 1.11183 1.05694 1.08048 1.1061 1.08056 1.00517 1.06771 1.03197 1.10416 0.935346 1.06171 0.980827 0.933876 1.08442 0.981219 1.01568 0.946827 1.02101 0.954186 1.05703 1.01087 0.852567 0.74442 0.886485 0.99505 1.00789 1.03042 0.929158 1.00442 0.95417 0.895346 0.920252 0.929752 0.872535 0.854783 0.848058 0.857995 0.844906 0.850656 0.841544 0.847408 0.855643 0.865742 0.862828 0.82465 0.844797 0.830947 0.843663 0.840186 0.841017 0.882855 0.900473 0.850421 0.824512 0.841753 0.894085 0.908874 1.00412 0.941568 1.00451 0.923727 1.01051 0.959268 0.938051 0.922361 0.915944 0.84514 0.764467 0.952056 1.15998 1.10798 0.925118 0.970237 1.08748 1.19117 0.966187 1.049 0.950639 0.853352 0.933576 1.00119 0.986449 0.965069 0.819936 0.928606 1.07952 1.08117 1.06665 1.06717 0.990288 0.940107 0.930548 1.03099 0.979876 0.891622 1.003 1.10736 1.04895 1.01759 0.8574 1.01607 0.974737 0.961932 0.938084 0.958842 0.95795 0.98141 0.942335 0.989397 0.923434 0.947577 0.876919 0.961045 0.805268 0.932865 0.92283 0.956113 0.925093 0.916689 0.908008 0.876494 0.884785 0.887443 0.861214 0.879732 0.867008 0.845497 0.843055 0.847359 0.831513 0.852344 0.852409 0.834407 0.849225 0.828931 0.800372 0.94378 0.881863 0.836064 0.896775 0.538003 0.820217 0.860016 0.792686 0.796477 0.840006 0.875844 0.883855 0.892119 0.884818 0.868317 0.867666 0.934173 0.808658 0.598785 0.866079 0.974953 0.713321 1.0856 0.9948 0.798769 0.967859 0.846397 0.769309 0.809066 0.776488 0.718724 0.941291 0.957549 1.12953 1.04465 0.983956 1.02759 0.947568 0.824223 0.815509 1.30597 0.973881 0.920964 0.869461 0.960671 1.1363 0.982302 1.04407 1.02511 1.03659 0.934655 0.902717 0.904928 0.939177 0.913137 0.912225 0.951638 0.992745 1.08312 1.06618 0.932983 0.929035 0.892808 0.971273 1.13325 1.05384 1.03171 0.88331 0.946102 0.840336 0.920821 0.966521 0.898503 0.889962 0.970621 1.00075 0.991478 0.91794 0.959268 0.924032 0.947113 0.96732 0.922486 0.943629 0.927789 0.917024 0.859852 0.881586 0.894967 0.847786 0.869358 0.852031 0.827708 0.834341 0.831406 0.849483 0.867592 0.818488 0.783251 0.847586 0.757671 0.747133 0.73739 0.789939 0.790595 0.831662 0.789304 0.841223 0.399576 0.671981 0.541846 1.03134 0.878692 0.877163 0.754383 0.885427 0.857151 0.839799 0.870133 0.892295 0.852161 0.680242 0.7832 0.954092 0.893588 0.860936 0.962964 0.712571 0.756802 0.794179 0.785901 0.810512 0.83055 0.872856 0.755052 0.952873 0.911721 0.976538 0.919213 0.983801 1.06159 0.81522 0.918394 1.22924 0.922335 0.882901 0.870784 0.926485 0.942067 1.03612 0.951428 0.95146 1.01423 1.0242 0.942643 0.948104 0.881573 0.921567 0.919045 0.939908 0.973679 0.95534 0.94477 0.983687 0.879293 0.857577 0.942835 1.04691 1.0239 0.923907 0.885441 0.896484 0.889174 0.900559 0.938427 0.940254 0.952393 0.950226 0.989097 0.960674 0.970662 0.963541 1.02242 1.13517 0.850539 0.88698 0.873387 0.870303 0.87384 0.797305 0.86185 0.859179 0.838515 0.865409 0.840176 0.834302 0.797688 0.837023 0.791907 0.7424 0.736444 0.720421 0.717187 0.789985 0.709632 0.739933 0.769903 0.771619 0.748808 0.759299 0.736614 0.735127 0.68873 0.727004 0.639417 0.724905 0.719898 0.796965 0.915797 0.849789 0.943273 0.874841 0.83948 0.879423 0.834999 0.794034 0.980513 0.827556 0.952851 0.893659 0.942573 0.915279 0.428869 0.968327 0.954138 0.888035 0.793942 0.762247 0.806619 0.806149 0.917665 0.855484 0.949323 0.958613 0.990027 1.09414 1.15806 0.859992 0.924972 0.732399 0.899813 1.05362 0.957303 0.84515 0.916386 0.881857 0.941581 0.922576 0.899508 0.909008 0.940467 0.975115 1.02043 0.975837 0.958676 0.912504 0.943538 0.852722 0.932037 0.896349 0.878605 0.956882 0.959437 0.989242 1.07473 1.12003 0.902865 0.764307 0.873528 0.90794 0.984028 1.06044 0.955595 0.988444 0.858819 0.901791 0.935389 0.954696 0.809232 0.975004 0.837997 0.763798 0.891224 0.919309 0.833322 0.915034 0.961798 0.815317 0.842102 0.873567 0.885076 0.748743 0.804556 0.858238 0.842272 0.842454 0.818686 0.792995 0.823449 0.870584 0.802327 0.944917 0.710999 0.910809 0.870849 0.885789 0.794401 0.876338 0.857317 0.717221 0.796116 0.715655 0.695516 0.73166 0.755762 0.733177 0.841294 0.788992 0.744024 0.761106 0.756235 0.740584 0.737091 0.760016 0.778214 0.748846 0.753888 0.844022 0.803501 0.79187 0.783005 0.7526 0.750971 0.807386 0.840249 0.659693 0.32562 0.735246 0.688226 0.601705 1.04536 0.779388 0.713529 0.762685 0.771712 0.818114 0.831573 0.877186 1.00387 0.950593 0.959074 0.948757 0.790071 0.79718 0.931461 0.856893 1.04948 1.00056 0.86023 0.86854 0.804433 0.897932 0.911856 0.941592 0.960667 0.917919 0.935014 0.896605 0.868261 0.883307 0.919282 0.886851 0.88464 0.925651 0.967964 1.38455 0.891065 0.984495 0.96648 1.12746 1.02932 1.01331 0.925163 0.898519 0.935167 0.838813 0.903332 0.942298 0.805891 0.913944 0.925147 0.865346 0.975923 0.853622 0.898425 0.88443 0.854518 0.800587 1.07109 0.614732 0.768457 0.805385 0.797638 0.834643 0.807716 0.82049 0.79766 0.820786 0.626743 0.77829 0.754008 0.804175 0.763231 0.830836 0.783851 0.82406 0.800486 0.779691 0.738534 0.689083 0.684616 0.675288 0.650396 0.762641 0.743703 0.729203 0.688165 0.735049 0.73576 0.792619 0.711128 0.744665 0.746133 0.746155 0.744584 0.743695 0.74551 0.738706 0.7265 0.732595 0.733401 0.708605 0.751679 0.770562 0.826518 0.790423 0.797559 0.869978 0.895484 0.837038 0.883722 0.823665 0.903135 0.99225 0.79223 0.771583 1.06317 0.908056 0.797763 0.597597 0.934307 0.851306 0.853908 0.850243 0.875872 0.813032 0.796692 0.815866 0.886098 0.880194 0.836995 0.825501 0.818174 0.871591 0.838926 1.03941 0.947532 0.840726 0.816928 0.673644 0.901536 0.913602 0.842361 0.858109 0.919605 0.937604 0.92352 0.897076 0.914003 0.888729 0.886753 0.881747 0.867447 0.857009 0.869369 0.866963 0.900967 0.894641 0.891497 0.879565 0.901995 1.05352 0.279861 1.06307 0.509048 0.948573 0.745953 0.912698 0.843208 0.740361 0.720997 1.06169 1.47932 1.06672 0.915205 0.912221 0.867465 0.901568 0.944613 0.880427 0.986704 0.990969 0.864688 0.87268 0.775258 0.991184 0.796106 0.771636 1.0072 0.89988 1.29764 0.78392 0.515214 0.533615 0.359227 0.769811 0.717853 0.76911 0.638358 0.902136 0.704817 0.74666 1.05349 0.820718 0.765757 0.647993 0.805076 0.689462 0.733397 0.812168 0.778023 0.771426 0.784852 0.774944 0.764531 0.791801 0.773798 0.744381 0.771026 0.714966 0.672346 0.66489 0.639526 0.630866 0.787711 0.782774 0.76528 0.772967 0.755196 0.749595 0.729821 0.752571 0.751888 0.769075 0.788486 0.757297 0.754278 0.776361 0.74361 0.744718 0.754637 0.763649 0.764585 0.820326 0.795973 0.843651 0.834534 0.912712 0.903573 0.820471 0.719296 0.756996 0.753296 0.775611 0.798066 0.823163 0.72407 0.871241 0.866157 0.936322 0.891577 0.833763 0.823211 0.828159 0.849462 0.773429 0.803476 0.819115 0.774889 0.838096 0.761481 0.908823 0.893719 0.893738 0.856932 0.85854 0.860004 0.854393 0.85268 0.873317 0.874971 0.879521 0.886342 0.900575 0.92204 0.967037 0.916376 0.7693 0.791832 0.693741 0.914931 0.833783 0.923297 0.76071 0.280822 1.05339 0.963496 0.478941 0.911855 0.828755 0.85326 0.836927 0.767138 0.845094 0.951268 0.817157 0.973218 0.75349 0.72446 0.896725 0.870241 0.854288 0.938194 0.792703 0.718845 0.702622 0.770508 1.01768 0.703895 0.801193 0.828325 0.638026 0.806073 0.68988 0.749626 0.742972 0.759572 0.767809 0.763018 0.750302 0.78623 0.770008 0.744561 0.717162 0.712025 0.687864 0.66363 0.703928 0.699557 0.632487 0.672558 0.698714 0.696151 0.815551 0.7183 0.763896 0.825241 0.801297 0.763107 0.780224 0.782313 0.683923 0.756694 0.72804 0.713542 0.766929 0.787211 0.787655 0.784079 0.772991 0.775181 0.764654 0.732633 0.732763 0.752526 0.767046 0.770121 0.772735 0.781616 0.862134 0.886573 0.915498 0.799101 0.862479 0.845484 0.811355 0.80825 0.796331 0.711609 0.924432 0.822664 0.826593 0.840424 0.841052 0.776153 0.810141 0.905692 0.905608 0.827286 0.786057 0.779186 0.79177 0.771671 0.792766 0.809452 0.770531 0.781559 0.844719 0.785626 0.844047 0.925726 0.931431 0.913048 0.882625 0.835913 0.831477 0.83695 0.843948 0.847275 0.84372 0.857925 0.870931 0.877794 0.879877 0.883892 0.895273 0.931677 0.959416 0.970009 0.98823 0.841914 0.801189 0.780917 0.803937 0.794075 0.775807 0.727999 0.82982 0.613854 0.728196 0.63107 0.686632 0.810512 0.837952 0.781392 0.824468 0.760828 0.582902 0.782898 0.768571 0.79276 0.783608 0.747505 0.829184 0.802447 0.721442 0.774341 0.855007 0.741961 0.814625 0.835738 0.835394 0.738607 0.775845 0.75401 0.789648 0.773004 0.755208 0.775461 0.787674 0.769702 0.764211 0.748883 0.734504 0.76893 0.705646 0.7398 0.698724 0.710912 0.700977 0.718094 0.746294 0.85499 0.853241 0.77852 0.754691 0.848118 0.840284 0.680169 0.644656 0.776604 0.613992 0.762055 0.8621 0.879118 0.761626 0.902156 0.689336 0.556816 0.712452 0.682998 0.748968 0.748545 0.781635 0.750237 0.748819 0.75386 0.749295 0.737317 0.736321 0.735491 0.726801 0.743483 0.768554 0.754106 0.763604 0.761268 0.738669 0.830384 0.752449 0.758432 0.816609 0.758438 0.917606 0.882167 0.839488 0.731559 0.765189 0.719143 0.811619 0.82093 0.808299 0.79601 0.791447 0.829406 0.80117 0.75991 0.789165 0.742475 0.794826 0.784607 0.855203 0.843303 0.882138 0.895583 0.891559 0.919747 0.89393 0.855863 0.829928 0.82401 0.841784 0.847465 0.857507 0.86532 0.883967 0.897324 0.914885 0.944672 0.94594 0.962181 0.896901 0.847551 0.814879 0.802848 0.818113 0.764881 0.795368 0.785442 0.774564 0.740152 0.782482 0.787375 0.813517 0.80632 0.826027 0.818093 0.761332 0.822616 0.624601 0.760603 0.835902 0.874803 0.88881 0.799333 0.743085 0.903654 0.824656 0.880255 0.783922 0.76634 0.726994 0.817626 0.800707 0.813727 0.782793 0.807512 0.770546 0.764164 0.764857 0.75686 0.772755 0.799663 0.787962 0.784659 0.837421 0.765177 0.732578 0.702167 0.678955 0.706511 0.742665 0.711727 0.681608 0.815325 0.695024 0.602641 0.721553 0.86263 0.850007 0.765558 0.650443 0.628261 0.642156 0.609297 0.60504 0.500826 0.532299 0.858009 0.984548 0.685175 0.826142 0.60413 0.609386 0.605997 0.605484 0.756163 0.761536 0.672749 0.734681 0.701095 0.734538 0.725875 0.744502 0.721942 0.73512 0.732402 0.718494 0.722445 0.742471 0.778026 0.772519 0.781895 0.82488 0.83141 0.881819 0.915863 0.79114 0.813972 0.740151 0.737003 0.751749 0.792916 0.794299 0.819911 0.794486 0.784478 0.801435 0.814199 0.826324 0.854211 0.808118 0.635918 0.705041 0.689886 0.865519 0.886907 0.905165 0.893242 0.873565 0.853072 0.832708 0.825858 0.834453 0.837848 0.861139 0.873302 0.85666 0.864195 0.875249 0.893721 0.914513 0.909738 0.926263 0.93153 0.88578 0.882717 0.840477 0.805329 0.805152 0.815399 0.810724 0.807749 0.811457 0.783856 0.8085 0.82822 0.804492 0.82483 0.701339 0.689123 0.739688 0.731597 0.749051 0.672029 0.817559 0.94856 0.978292 0.786328 0.846898 0.776412 0.780487 0.806631 0.806939 0.792623 0.78567 0.83065 0.722527 0.799404 0.768291 0.762198 0.791056 0.752861 0.758723 0.751556 0.675816 0.770727 0.77932 0.661619 0.762527 0.804782 0.727605 0.804625 0.64167 0.644894 0.710194 0.741773 0.864052 0.735373 0.80095 0.636652 0.70081 0.689763 0.64662 0.733822 0.735031 0.722153 0.730902 0.715444 0.7055 0.638703 0.650451 0.613091 0.688817 0.606433 0.527699 0.503473 0.4918 0.67628 0.717589 0.435484 0.592665 0.640502 0.554043 0.783754 0.583191 0.68294 0.665882 0.673064 0.653396 0.698581 0.736318 0.717951 0.719497 0.702846 0.723861 0.721583 0.751334 0.723314 0.768658 0.760616 0.765062 0.772765 0.793042 0.806025 0.757436 0.753368 0.755385 0.76523 0.781618 0.789568 0.798407 0.805785 0.811045 0.80325 0.803197 0.764403 0.827972 0.940192 0.822554 0.585268 0.676431 0.933965 0.933675 0.914408 0.932677 0.89704 0.86279 0.847135 0.844775 0.83706 0.841516 0.844492 0.838844 0.857517 0.840692 0.871822 0.873149 0.886115 0.889497 0.901648 0.916748 0.899946 0.894843 0.890004 0.863893 0.81751 0.804786 0.814527 0.821058 0.821086 0.815903 0.822214 0.815232 0.828462 0.818113 0.829498 0.826698 0.820614 0.833396 0.822331 0.804352 0.784519 0.821145 0.803363 0.791207 0.760361 0.763811 0.713389 0.756133 0.926011 0.742157 0.868697 0.722075 0.843115 0.828352 0.883698 0.802324 0.811932 0.796788 0.561379 0.769593 0.804267 0.804112 0.76135 0.810472 0.744663 0.705778 0.668518 0.628486 0.405814 0.620299 0.629645 0.676719 0.779583 0.592166 0.750206 0.656714 0.709949 0.704053 0.696496 0.69578 0.721892 0.683259 0.688464 0.681639 0.662721 0.665846 0.66323 0.635225 0.648296 0.64041 0.637804 0.644647 0.587809 0.56707 0.577864 0.609531 0.685683 0.658286 0.610522 0.789988 0.824385 0.647886 0.842162 0.604696 0.953463 0.804451 0.741307 0.505856 0.834222 0.773966 0.761407 0.683553 0.735748 0.73635 0.716936 0.629939 0.692899 0.763275 0.679592 0.71625 0.761055 0.780552 0.76448 0.767159 0.773639 0.759903 0.774257 0.761735 0.761013 0.771631 0.775262 0.774044 0.794871 0.800994 0.802718 0.812606 0.835697 0.840737 0.950733 1.15377 0.797095 0.658558 0.853111 1.03489 0.999446 0.925613 0.930443 0.891765 0.891661 0.838901 0.845359 0.85153 0.84541 0.846239 0.843256 0.848322 0.869357 0.857092 0.884666 0.895004 0.901518 0.907357 0.893482 0.907728 0.875655 0.839042 0.806183 0.813489 0.810035 0.819178 0.832127 0.834364 0.837171 0.83331 0.825868 0.831157 0.832842 0.83638 0.82352 0.828078 0.816881 0.820462 0.827797 0.823081 0.767489 0.8457 0.79706 0.725585 0.720508 0.671795 0.670508 0.754965 0.695324 0.806085 0.950711 0.968468 0.83332 1.35176 1.13131 0.657524 0.838301 0.764038 0.838509 0.800625 0.665767 0.799324 0.783892 0.709293 0.685694 0.831345 0.731063 0.885283 0.743058 0.711569 0.75269 0.599787 0.648773 0.616714 0.659922 0.609536 0.653296 0.715668 0.656245 0.694995 0.610596 0.701996 0.630339 0.636826 0.600549 0.580107 0.596032 0.0601612 0.930523 0.766349 0.594081 0.660515 0.666196 0.502639 0.57265 0.593653 0.584685 0.613756 0.607511 0.666895 0.690911 0.73985 0.778369 0.804398 0.785065 0.713238 0.85409 0.699542 0.648431 0.60787 0.50101 0.821951 0.950368 0.621489 0.623058 0.789151 0.684027 0.694195 0.665459 0.695214 0.695129 0.68784 0.683464 0.642573 0.648895 0.762965 0.742962 0.728614 0.732346 0.738163 0.719576 0.735857 0.757248 0.766713 0.760933 0.764111 0.75937 0.750842 0.764022 0.768283 0.777395 0.774777 0.776511 0.792287 0.794939 0.798061 0.795312 0.784103 0.804116 0.779475 0.781614 0.401011 0.569743 0.749465 0.892781 1.06181 0.915052 1.01909 0.891902 0.884096 0.860701 0.848189 0.850577 0.847669 0.848299 0.857219 0.858554 0.871796 0.88522 0.893026 0.902763 0.903743 0.903193 0.893866 0.880044 0.886792 0.857399 0.838592 0.788277 0.81587 0.841046 0.837708 0.832914 0.840141 0.839184 0.839299 0.833187 0.831153 0.829523 0.834488 0.832833 0.827655 0.843008 0.883901 0.817818 0.933995 0.798837 0.770743 0.744179 0.707833 0.68709 0.718532 0.827337 0.632395 0.806291 0.771992 0.450123 0.489985 0.579087 0.591394 0.849643 0.707531 0.753822 0.761401 0.729349 0.681523 0.687408 0.837339 0.758336 0.773323 0.774968 0.722317 0.740415 0.628998 0.632449 0.689046 0.650257 0.637644 0.616525 0.550224 0.510818 0.66527 0.494664 0.453811 0.578436 0.514263 0.502991 0.528158 0.512326 0.47874 0.398111 0.337662 0.584971 0.789411 1.77063 0.46594 1.14625 0.370926 0.52204 0.514838 0.587032 0.57971 0.53861 0.567444 0.648628 0.671599 0.609006 0.640123 0.560847 0.73324 0.626628 0.596243 0.662705 0.681791 0.481313 0.58776 0.686713 0.862034 0.726156 0.603729 0.819924 0.551151 0.634193 0.652366 0.645354 0.643397 0.697674 0.677252 0.751853 0.768128 0.745831 0.751978 0.743044 0.742024 0.745131 0.75165 0.761353 0.758392 0.765088 0.765962 0.774386 0.780343 0.779179 0.783853 0.794084 0.795492 0.808857 0.788295 0.794952 0.785624 0.753614 0.725466 0.770487 0.900284 0.888579 1.00294 1.08102 0.998783 0.881526 0.858233 0.863115 0.853051 0.857196 0.853699 0.867116 0.868453 0.868262 0.888796 0.894063 0.902178 0.898025 0.905343 0.903025 0.902416 0.899056 0.89661 0.890826 0.880952 0.875738 0.871187 0.860107 0.890563 0.804617 0.899534 0.86237 0.874358 0.828802 0.845535 0.841903 0.846282 0.836976 0.840138 0.839386 0.83219 0.833442 0.81361 0.841514 0.862851 0.761303 1.11848 0.795263 0.776522 0.822181 0.769262 0.787988 0.794978 0.763415 0.892149 0.853062 0.988665 0.704536 0.718529 0.640294 0.749526 0.662131 0.755353 0.695849 0.562474 0.569269 0.645546 0.699686 0.676684 0.695671 0.708133 0.686158 0.672706 0.745951 0.709251 0.664873 0.706805 0.607744 0.731568 0.68805 0.717351 0.727796 0.699142 0.678169 0.723418 0.629434 0.685912 0.552359 0.561864 0.542021 0.596917 0.569045 0.534565 0.553983 0.473301 0.484859 0.48703 0.515406 0.406193 0.436106 0.501499 0.560993 0.563851 0.61609 0.727182 0.611931 0.613718 0.56481 0.498756 0.581532 0.535124 0.495536 0.588842 0.591243 0.532902 0.490138 0.434718 0.394333 0.83517 0.253319 0.740921 0.725746 0.805088 0.686631 0.689556 0.666243 0.646296 0.685153 0.640626 0.625173 0.779061 0.838839 0.785801 0.778102 0.764805 0.747823 0.754161 0.749729 0.758016 0.762979 0.758311 0.763875 0.766041 0.771881 0.789755 0.784411 0.803527 0.799809 0.801703 0.80359 0.820879 0.7664 0.786753 0.869544 0.781384 0.816804 0.818606 0.843462 0.940914 1.24009 1.10878 1.04381 0.930263 0.901928 0.847323 0.846199 0.857234 0.869816 0.857727 0.863717 0.864822 0.874392 0.876365 0.875972 0.876678 0.87936 0.899692 0.897347 0.897442 0.899521 0.895121 0.894855 0.890207 0.880413 0.868776 0.885216 0.894071 0.887713 0.846659 0.848529 0.841181 0.844857 0.828922 0.811517 0.799735 0.929612 0.86866 0.754366 0.91984 0.817253 0.521971 0.683316 0.778149 0.763551 0.745483 0.718231 0.76246 0.769909 0.912731 0.498207 0.670551 0.720521 0.692896 0.753154 0.674689 0.664303 0.674794 0.688947 0.686317 0.683366 0.692278 0.664231 0.659607 0.67064 0.593388 0.624869 0.673844 0.589923 0.662291 0.726873 0.674386 0.649803 0.598123 0.569892 0.527198 0.524669 0.537396 0.501388 0.543394 0.525125 0.547003 0.486163 0.543392 0.517236 0.440301 0.204237 0.330582 0.384621 0.430125 0.472393 0.538413 0.570746 0.561359 0.599983 0.541776 0.534999 0.504501 0.50644 0.512885 0.498994 0.552547 0.532641 0.529831 0.56979 0.671806 0.756776 0.601285 0.841189 1.25738 0.792422 0.946074 0.639771 0.681327 0.669442 0.674551 0.64889 0.678284 0.614377 0.595412 0.885688 0.859377 0.801365 0.776984 0.751662 0.747285 0.737091 0.727927 0.744418 0.733066 0.754397 0.776403 0.802147 0.820777 0.812608 0.815134 0.808234 0.819155 0.817068 0.838219 0.822843 0.869975 0.839951 0.902922 0.883448 0.928973 1.54011 1.04297 0.414132 0.841997 0.928672 0.87171 0.869771 0.872285 0.881901 0.883661 0.885666 0.885673 0.887607 0.899457 0.901212 0.900483 0.90342 0.899547 0.892471 0.894557 0.891512 0.88503 0.892709 0.893034 0.884051 0.868426 0.85397 0.861838 0.843532 0.845743 0.837731 0.832609 0.798457 0.864072 0.864431 0.770182 0.769749 0.617425 0.704534 0.700601 0.781402 0.741257 0.787796 0.830383 0.749086 0.608766 0.714831 0.717418 0.719921 0.704668 0.700412 0.666468 0.689933 0.657027 0.610243 0.675166 0.645511 0.676468 0.652335 0.660656 0.620299 0.638288 0.572819 0.603683 0.616235 0.574765 0.618586 0.608714 0.599501 0.643468 0.483611 0.529748 0.616177 0.536455 0.582102 0.50819 0.483473 0.490973 0.452761 0.44153 0.406917 0.633366 0.699628 0.557888 0.782345 0.405921 0.238696 0.254576 0.268666 0.375363 0.349573 0.371556 0.454875 0.395027 0.337892 0.470514 0.449007 0.445893 0.417282 0.495701 0.44392 0.484524 0.520095 0.509835 0.509663 0.521822 0.468726 0.358622 0.357881 0.557959 0.730183 0.475986 0.521083 0.669143 0.639912 0.678098 0.673808 0.673588 0.676541 0.663413 0.667832 0.658473 0.656939 0.674829 0.696433 0.897141 0.739026 0.86139 0.852919 0.755815 0.723466 0.714368 0.732764 0.741612 0.772106 0.802222 0.818177 0.807853 0.816842 0.827735 0.827903 0.829004 0.841367 0.862627 0.855363 0.868754 0.869298 0.889646 0.874899 0.880224 0.829102 0.864615 0.931078 0.555679 1.18076 0.573435 0.975729 0.793133 0.983164 0.833161 0.888335 0.889699 0.893011 0.89539 0.895613 0.895603 0.902101 0.900737 0.904384 0.905251 0.911018 0.895051 0.89915 0.90332 0.896048 0.895149 0.894487 0.891996 0.883578 0.86752 0.865029 0.861102 0.885244 0.84701 0.842199 0.849352 0.843718 0.845786 0.854899 0.840475 0.854157 0.830996 0.7924 0.85205 0.731281 0.753536 0.735068 0.749234 0.694413 0.758867 0.729489 0.757176 0.788038 0.736178 0.71355 0.603369 0.665911 0.667027 0.708417 0.716296 0.723494 0.715496 0.70752 0.649908 0.671625 0.669401 0.661012 0.645203 0.614764 0.627361 0.632853 0.606382 0.641001 0.639425 0.550374 0.596127 0.59408 0.581323 0.580469 0.572614 0.418818 0.531222 0.478847 0.427352 0.397199 0.402841 0.437579 0.55289 0.286098 0.660867 0.390788 0.488956 0.847514 0.78129 0.153952 0.152907 0.206969 0.203935 1.49405 0.254867 0.848776 0.638926 0.517208 0.737789 0.460176 0.643752 0.424835 0.369722 0.315464 0.380049 0.422476 0.449155 0.448188 0.464093 0.515638 0.495911 0.50976 0.538587 0.491068 0.53214 0.497065 0.449238 0.489619 0.388915 0.68044 0.867711 0.732625 0.676425 0.673123 0.692869 0.682475 0.678267 0.638921 0.596334 0.684244 0.761563 0.774378 0.737446 0.739605 0.720073 0.710346 0.723835 0.741615 0.810733 0.825256 0.827923 0.84173 0.836969 0.837299 0.837776 0.842669 0.846335 0.855382 0.861694 0.865255 0.885752 0.884716 0.833785 0.772326 0.599231 0.643433 0.628747 1.23283 0.900308 0.93467 0.89829 0.899068 0.896068 0.90872 0.906688 0.907723 0.903217 0.905612 0.901941 0.903628 0.906761 0.914052 0.893277 0.899632 0.906939 0.916527 0.905709 0.899042 0.896481 0.892454 0.897548 0.888364 0.827584 0.931381 0.845162 0.864898 0.836549 0.84999 0.873215 0.834307 0.759482 0.761559 0.753349 0.750362 0.772324 0.743648 0.707036 0.699446 0.66504 0.652925 0.758803 0.686818 0.700163 0.694478 0.729337 0.714993 0.679595 0.67472 0.668465 0.643473 0.637623 0.620743 0.638956 0.633879 0.636319 0.615062 0.602932 0.591952 0.57749 0.588931 0.552093 0.589665 0.58668 0.530549 0.554932 0.397045 0.483215 0.503785 0.367364 0.452928 0.290367 0.365533 0.516504 0.638488 0.160589 0.150168 0.10593 0.39386 0.0790159 0.410311 0.381931 0.434696 0.477148 0.583131 0.437542 0.990938 0.564807 0.554101 0.658627 0.50657 0.572879 0.446587 0.407507 0.601252 0.530559 0.586725 0.557527 0.589789 0.614442 0.571247 0.618969 0.595581 0.574657 0.520545 0.577578 0.518234 0.505635 0.760756 0.703661 0.687075 0.702601 0.702999 0.690285 0.677818 0.64058 0.631339 0.600003 0.622102 0.604866 0.627429 0.78689 0.712069 0.681743 0.747987 0.740017 0.74958 0.778094 0.761528 0.85785 0.846232 0.853533 0.844593 0.843635 0.840887 0.857571 0.876082 0.870857 0.84338 0.765463 0.726487 0.992695 0.89034 0.916518 0.957499 0.941602 0.905239 0.908073 0.920076 0.924594 0.921461 0.905723 0.885926 0.915069 0.886794 0.889674 0.899788 0.897429 0.90698 0.906411 0.916438 0.932172 0.91535 0.926083 0.897873 0.887073 0.902308 0.901571 1.02763 0.958073 0.816396 0.845106 0.862531 0.875238 0.863557 0.86717 0.861783 0.860301 0.875276 0.872395 0.793752 0.791735 0.763957 0.755887 0.757765 0.757153 0.752703 0.760443 0.754799 0.672179 0.616368 0.570563 0.752477 0.743325 0.720628 0.789676 0.722665 0.721455 0.703138 0.726546 0.674225 0.687482 0.689942 0.661486 0.651999 0.630907 0.622777 0.609901 0.578553 0.5689 0.563011 0.538888 0.507909 0.479564 0.434378 0.421178 0.522794 0.346173 0.425763 0.414963 0.46261 0.421628 0.430381 0.307583 0.13855 0.0926153 0.229723 0.17416 0.481068 0.23448 1.04289 0.419214 0.571578 0.4812 0.749045 0.389467 0.803147 0.550756 0.497058 0.61608 0.605132 0.663563 0.617406 0.614417 0.61385 0.583662 0.57646 0.41345 0.74586 0.675777 0.672744 0.646314 0.640826 0.636554 0.672723 0.677092 0.670107 0.614005 0.571203 0.630894 0.662453 0.799449 0.760659 0.767587 0.788594 0.804886 0.787538 0.727981 0.859524 0.862691 0.875056 0.857204 0.847867 0.85004 0.842045 0.834453 0.844099 0.859552 0.882313 0.860616 0.868731 0.867181 0.818326 0.711534 0.807488 0.805425 0.889361 0.888417 0.950601 0.938948 0.924525 0.927642 0.920744 0.91609 0.951193 0.958072 0.918146 0.902638 0.887472 0.907982 0.904256 0.919832 0.897632 0.899483 0.900781 0.905572 0.922814 0.958717 0.90661 0.873265 0.876064 0.861624 0.970059 0.890553 0.916976 0.979437 0.820523 0.809979 0.859176 0.875279 0.871436 0.875469 0.872822 0.873016 0.880187 0.815471 0.809502 0.775718 0.761771 0.760385 0.770546 0.776844 0.779336 0.658917 0.5602 0.622822 0.776877 0.764324 0.666507 0.583981 0.750362 0.773805 0.676297 0.705264 0.690828 0.674085 0.668231 0.647489 0.630203 0.607538 0.581476 0.545864 0.544491 0.527515 0.516026 0.501851 0.467247 0.422564 0.402412 0.411266 0.536018 0.470048 0.439698 0.379655 0.31612 0.207308 0.404533 0.452899 0.410368 0.363055 0.525377 0.499463 0.736595 0.477589 0.37147 0.617623 0.746203 0.698951 0.786554 0.649605 0.675415 0.646126 0.619083 0.596388 0.608482 0.550032 0.536147 0.750942 0.698336 0.659889 0.719027 0.713366 0.700431 0.676614 0.560752 0.631469 0.684317 0.70627 0.754233 0.803609 0.794561 0.793192 0.808553 0.768983 0.769862 0.918971 0.900495 0.887986 0.87311 0.84362 0.830546 0.836123 0.840291 0.865264 0.886506 0.872989 0.871228 0.853429 0.867983 0.849905 0.894553 0.917008 0.919871 0.922832 0.92468 0.917638 0.940729 0.895055 0.993234 0.916486 0.935859 0.92054 0.938714 0.908129 0.90464 0.903274 0.920351 0.948154 1.0002 0.892965 0.851183 0.889862 0.914296 0.877654 0.983395 0.812223 0.863998 0.843315 0.86091 0.867708 0.866695 0.875829 0.880127 0.872218 0.87797 0.863002 0.878464 0.825927 0.780541 0.783753 0.827552 0.812615 0.806243 0.841612 0.825289 0.793187 0.566624 0.830839 0.699189 0.68512 0.55728 0.691517 0.733184 0.677879 0.69167 0.682072 0.687072 0.684283 0.673632 0.664005 0.650737 0.681998 0.627368 0.605256 0.529908 0.500148 0.527023 0.509856 0.51382 0.531645 0.511881 0.439351 0.319979 0.316251 0.621839 0.472163 0.420127 0.438483 0.38093 0.308313 0.407299 0.488537 0.55128 0.642072 0.592465 0.425516 0.367736 0.35515 0.302925 0.471534 0.510173 0.896238 0.707235 0.630845 0.622647 0.637241 0.636616 0.625063 0.61147 0.731387 0.700707 0.70725 0.706627 0.649343 0.462818 0.648248 0.580679 0.703703 0.758804 0.716255 0.65386 0.714586 0.771933 0.811366 0.800533 0.829615 0.866098 0.836484 0.827075 0.864236 0.983458 0.904648 0.858923 0.847357 0.847626 0.848447 0.838376 0.832618 0.863383 0.886273 0.885421 0.87983 0.87486 0.90094 0.927655 0.929295 0.917314 0.923103 0.921848 0.922478 0.921086 0.913395 0.936784 0.949835 0.910596 0.975963 0.948039 0.936403 0.926072 0.935762 0.91923 0.90767 0.912991 0.899636 0.93459 0.975444 0.944229 0.922841 0.843085 0.882849 0.962141 0.883549 0.865823 0.937968 0.94407 0.963261 0.927693 0.875581 0.785431 0.8273 0.856205 0.864875 0.864232 0.865023 0.863951 0.885037 0.844103 0.779473 0.8163 0.851031 0.857734 0.877585 0.857309 0.861191 0.743599 0.356811 0.492076 0.774648 0.771661 0.783439 0.897792 0.575162 0.711748 0.713622 0.712189 0.716432 0.687343 0.66866 0.697487 0.664686 0.694979 0.658045 0.656479 0.464027 0.547904 0.581892 0.530221 0.603855 0.55083 0.533445 0.653192 0.529832 0.82604 0.622499 0.608394 0.316969 0.26545 0.442101 0.491002 0.49454 0.563731 0.486538 0.509893 0.644447 0.564508 0.610203 0.594485 0.450034 0.345724 0.756649 0.507732 0.597688 0.650044 0.637559 0.630654 0.622921 0.70233 0.673952 0.560665 0.619987 0.55893 0.639316 0.768559 0.714186 0.736277 0.714663 0.666525 0.753588 0.809616 0.811769 0.819997 0.858989 0.857994 0.791198 0.885462 0.873445 0.846067 0.849227 0.846931 0.836182 0.86962 0.883637 0.916148 0.928313 0.876884 0.974061 0.88114 0.903933 0.938819 0.925382 0.931872 0.92545 0.92019 0.933176 0.933013 0.906055 0.958539 0.954866 0.943261 0.942609 0.918797 0.917034 0.908742 0.917804 0.928183 0.957345 0.909926 0.942184 0.89032 1.0045 0.954532 0.980858 0.953321 0.877577 0.803178 0.816269 0.846269 0.873436 0.849955 0.843845 0.852752 0.861632 0.872119 0.872328 0.822513 0.802303 0.793659 0.795994 0.819508 0.843342 0.930566 1.03157 0.922745 1.00212 0.940284 0.668198 0.461358 0.908793 0.926724 0.868594 0.728494 0.73587 0.665188 0.695433 0.666987 0.657103 0.710297 0.693708 0.65914 0.664932 0.686809 0.718683 0.675172 0.80803 0.275588 0.669239 0.530271 0.433629 0.890644 0.592281 0.238661 0.472871 0.491985 0.554842 0.507247 0.550135 0.580879 0.608472 0.581027 0.635253 0.529212 0.469232 0.905593 0.595649 0.271905 0.611702 0.570709 0.605518 0.651268 0.633034 0.706226 0.699683 0.688235 0.621238 0.591436 0.62096 0.759433 0.730554 0.687372 0.759901 0.810027 0.812647 0.822398 0.809815 0.819731 0.839187 0.827579 0.876917 0.861464 0.795644 0.817269 0.907489 0.852832 0.840927 0.832824 0.879862 0.824477 0.880648 0.968282 0.863812 0.8672 0.897389 0.936544 0.91893 0.927253 0.941548 0.927165 0.9511 0.943278 0.934138 0.920659 0.96846 0.959304 0.955213 0.939353 0.911289 0.920084 0.920857 0.951644 0.917183 0.935365 0.95923 0.930048 0.951787 0.903725 1.01648 0.983184 0.964291 0.979456 0.970478 0.961783 0.887697 0.829851 0.88543 0.84307 0.853813 0.876699 0.844733 0.85399 0.862774 0.860773 0.86446 0.817827 0.799949 0.764303 0.672698 0.898397 0.571096 0.939849 1.12673 1.61488 0.669107 0.690964 0.773828 0.708977 0.83687 0.68872 0.649793 0.690039 0.661938 0.69405 0.705596 0.645691 0.676914 0.664902 0.6947 0.748854 0.886411 0.968142 0.248166 0.547285 0.541479 0.670133 0.702641 0.573726 0.535732 0.801194 0.700509 0.369673 0.510991 0.52189 0.512934 0.512794 0.569111 0.552241 0.647063 0.623953 0.498732 0.562404 0.551559 0.939072 0.865161 0.797033 0.552847 0.571533 0.624847 0.631123 0.591841 0.672508 0.702842 0.666683 0.61493 0.623457 0.698245 0.694535 0.758215 0.722384 0.794692 0.752102 0.845275 0.837883 0.828174 0.824865 0.825946 0.820273 0.80304 0.73833 0.842306 0.791791 0.786431 0.885766 0.833036 0.834829 0.824384 0.884613 0.845208 0.932966 0.721914 0.914639 0.848178 0.968798 1.00743 0.933722 1.00032 0.906909 0.943718 0.93396 0.940149 0.934463 0.940421 0.972955 0.964314 0.968716 0.954352 0.910744 0.928708 0.977713 0.93339 1.02235 0.937542 0.956513 0.918798 0.919043 0.965185 0.966004 0.964243 0.91607 0.895146 0.860032 0.864159 0.865085 0.844211 0.847967 0.843318 0.855558 0.813278 0.809558 0.712038 0.92167 0.803552 0.566726 1.39929 1.66121 0.78196 0.768261 0.706525 0.709561 0.672717 0.772755 0.680015 0.672966 0.718308 0.669833 0.683601 0.638674 0.655318 0.654489 0.711471 0.815884 0.95017 0.640011 0.574227 0.596769 0.587876 0.557694 0.559106 0.710424 0.777 0.824633 0.499891 0.478016 0.52799 0.577555 0.529278 0.540851 0.490269 0.506324 0.649368 0.762797 0.844871 0.656784 0.541413 0.653494 0.750291 0.679124 0.691093 0.691073 0.694458 0.629514 0.704119 0.785649 0.809842 0.738376 0.687955 0.861409 0.839744 0.82184 0.806321 0.792504 0.678204 0.68215 0.800158 0.795706 0.786803 0.785589 0.824307 0.80937 0.831388 0.828593 0.829859 0.902675 0.829806 0.842066 0.722366 0.813868 0.93331 0.894068 0.951546 0.999518 0.986615 0.957788 0.976698 0.92536 0.941224 0.937507 0.940606 0.939563 0.93484 0.963414 0.967853 0.973088 0.97391 0.943389 0.941348 0.892203 0.910489 0.970126 0.991778 1.01789 0.934352 0.942914 0.922316 0.918505 0.972057 0.970043 0.967817 0.942875 0.917351 0.914174 0.868271 0.880564 0.844758 0.869794 0.83083 0.842998 0.831485 0.818867 0.844423 0.830314 0.694794 0.86884 0.870138 0.948173 0.824652 0.924867 0.734428 0.848936 0.639206 0.896454 0.681945 0.680162 0.66673 0.771644 0.70889 0.687033 0.639299 0.655044 0.673373 0.662308 0.64628 0.664449 0.677703 0.808392 0.743073 0.769931 0.678236 0.612371 0.651792 0.63792 0.622482 0.657273 0.560264 0.717487 0.792612 0.61583 0.537585 0.587797 0.578013 0.552521 0.503123 0.542986 0.582223 0.592978 0.617446 0.614014 0.697628 0.778386 0.657927 0.896293 0.636523 1.01301 0.805571 0.257453 0.753846 0.68963 0.68319 0.678392 0.718986 0.791736 0.800939 0.737956 0.665868 0.868747 0.829779 0.807054 0.814015 0.774084 0.689667 0.790408 0.78376 0.771295 0.784403 0.811404 0.844894 0.856973 0.808308 0.911132 0.867875 0.916917 0.915246 0.948843 0.980204 0.977339 0.974278 0.996674 1.0022 0.942145 0.935615 0.938049 0.940055 0.951762 0.962458 0.953304 0.957617 0.97206 0.973758 0.975299 0.990441 0.952196 0.917482 0.952943 0.940551 0.959807 1.05876 1.02959 0.950135 0.932317 0.935832 0.958466 0.979525 0.969813 0.96243 0.943654 0.921288 0.91948 0.926103 0.891818 0.867892 0.819695 0.833332 0.833253 0.841601 0.840732 0.887241 1.04338 1.02728 0.923937 0.766969 0.673987 0.803676 0.884518 0.931347 0.536922 0.732494 0.732471 0.750874 0.710742 0.653826 0.660355 0.675327 0.679601 0.690063 0.691619 0.711716 0.738664 0.699238 0.693125 0.649956 0.66035 0.645843 0.74933 0.673328 0.687297 0.643348 0.620854 0.606223 0.573403 0.527497 0.58075 0.613102 0.692596 0.719737 0.692654 0.705599 0.71382 0.611346 0.670166 0.937947 0.839653 0.7169 0.70222 0.658133 0.838502 0.760713 0.703103 0.747284 0.745926 0.698758 0.864925 0.82972 0.802777 0.788506 0.808249 0.765143 0.780076 0.810167 0.799677 0.813901 0.840261 0.840125 0.877513 0.882998 0.905285 0.921616 0.959862 0.99839 0.980281 0.991466 0.999359 0.997197 0.948658 0.941334 0.956542 0.974899 0.986651 0.965265 0.957175 0.989378 0.902462 0.904213 0.942644 0.934806 0.900518 1.05474 0.992889 1.02215 0.960354 0.919714 0.945134 0.923502 0.953981 0.977429 0.968387 0.956672 0.938982 0.920426 0.922658 0.925049 0.890946 0.844913 0.818908 0.833394 0.851947 0.836191 0.865252 0.916868 0.964379 0.738146 0.838261 0.839489 0.903504 0.977101 0.603998 0.78782 0.74317 0.660448 0.663699 0.675252 0.672795 0.68542 0.706654 0.703343 0.734567 0.69536 0.705242 0.683231 0.700785 0.695441 0.723704 0.751698 0.731465 0.745109 0.658651 0.643734 0.634893 0.609268 0.545481 0.516406 0.554732 0.57558 0.637264 0.661007 0.702595 0.72284 0.710694 0.733358 0.616831 0.726952 0.736572 0.80615 0.801102 0.750539 0.701319 0.773975 0.844192 0.818873 0.762224 0.696347 0.699568 0.644701 0.861603 0.852148 0.803617 0.789824 0.838125 0.805191 0.786203 0.777776 0.781 0.802467 0.798979 0.800847 0.803222 0.848917 0.877634 0.85261 0.860933 0.910584 0.924871 0.952751 0.984603 0.973565 0.974525 0.999752 0.998413 0.995227 0.950851 0.955786 0.988027 1.02766 0.996367 0.951185 0.979054 0.954695 0.914555 1.11857 0.955066 0.995273 0.985512 0.931763 0.957632 0.928372 0.945951 0.956794 0.964061 0.950777 0.936832 0.91391 0.926036 0.899358 0.844009 0.850288 0.808958 0.829017 0.861792 0.851459 0.897882 0.874119 0.819383 0.819423 0.876876 0.872877 0.953963 0.634055 0.74567 0.612945 0.748957 0.806267 0.65053 0.647506 0.665657 0.649069 0.669225 0.685946 0.72076 0.674836 0.789891 0.698236 0.7068 0.716644 0.755019 0.70979 0.733604 0.64472 0.638124 0.659304 0.63088 0.619495 0.523219 0.526469 0.585663 0.650118 0.685919 0.687345 0.662362 0.829309 0.758113 0.655657 0.692952 0.67798 0.858828 0.781312 0.755302 0.785385 0.846823 0.763848 0.814505 0.701949 0.650838 0.806783 0.867429 0.812153 0.753057 0.840532 0.79758 0.790103 0.767212 0.783305 0.801976 0.792647 0.840502 0.834235 0.875454 0.873372 0.889052 0.90551 0.938566 0.9555 0.942103 0.968497 0.994443 0.905729 0.977835 1.01388 1.04785 0.971849 0.96807 0.937803 0.949402 0.890271 0.90616 0.880812 0.935204 0.913007 0.821514 0.832684 0.833962 0.8998 0.843016 0.870467 0.833925 0.903 0.947713 0.75165 0.770704 0.790811 0.832239 0.81072 0.891666 0.948746 0.579675 0.759367 0.791677 0.797392 0.65049 0.643521 0.671724 0.658823 0.716181 0.711905 0.697908 0.691154 0.720578 0.745613 0.725838 0.731973 0.663094 0.619952 0.57816 0.590972 0.656284 0.695488 0.686982 0.650311 0.825733 0.700325 0.596765 0.675438 0.904244 0.804118 0.856386 0.858015 0.921895 0.44176 0.756441 0.792564 0.894057 0.844165 0.87237 0.799146 0.759336 0.706006 0.820729 0.795798 0.785511 0.797638 0.869406 0.920725 0.851784 0.850317 0.969651 0.848468 0.803172 0.796168 0.857082 0.941052 1.08869 0.766545 0.656273 0.634978 0.685977 0.686225 0.734517 0.698291 0.828828 0.726979 0.667421 0.706967 0.740136 0.735956 0.729453 0.681669 0.630092 0.656992 0.621301 0.629919 0.825325 0.870025 
SCALARS Stress float 1
LOOKUP_TABLE default
-129153000000.0 -137185000000.0 -168362000000.0 -326919000000.0 -224565000000.0 -120429000000.0 -340383000000.0 -165620000000.0 -270581000000.0 -59984300000.0 -314524000000.0 -272281000000.0 -220186000000.0 -301844000000.0 -281506000000.0 -196257000000.0 -472891000000.0 -348928000000.0 -947940000000.0 -640216000000.0 -1.19858e+12 -1.00722e+12 -391421000000.0 -391619000000.0 -1.19556e+12 -378452000000.0 -1.04609e+12 -558126000000.0 -222833000000.0 -769082000000.0 -147973000000.0 -661129000000.0 -297207000000.0 -636313000000.0 -396211000000.0 -858664000000.0 -892304000000.0 -742365000000.0 -837774000000.0 -887497000000.0 -924463000000.0 -1.29823e+12 -1.42726e+12 -1.92208e+12 -766500000000.0 -1.68058e+12 -584325000000.0 -1.05645e+12 -1.24358e+12 -300818000000.0 -1.52415e+12 -788820000000.0 -1.13827e+12 -698165000000.0 -1.10491e+12 -1.73628e+12 -860915000000.0 -783381000000.0 -485180000000.0 -1.20134e+12 -1.65614e+12 -409684000000.0 -1.11494e+12 -716584000000.0 -1.66953e+12 -1.7079e+12 -1.22204e+12 -1.62813e+12 -1.88691e+12 -1.56345e+12 -3.0572e+12 -1.99033e+12 -2.23199e+12 -420352000000.0 -572463000000.0 -1.77178e+12 -996425000000.0 -1.1482e+12 -846385000000.0 -2.74671e+12 -2.25351e+12 -959365000000.0 -2.27903e+12 -1.42549e+12 -2.33096e+12 -1.33339e+12 -1.77495e+12 -834201000000.0 -1.58641e+12 -1.97988e+12 -1.42654e+12 -2.31077e+12 -759919000000.0 -1.86897e+12 -1.54194e+12 -3.19917e+12 -3.1887e+12 -2.16697e+12 -2.60622e+12 -2.68773e+12 -2.06162e+12 -3.04202e+12 -568743000000.0 -1.48734e+12 -2.13112e+12 -2.32282e+12 -1.36458e+12 -1.09105e+12 -899187000000.0 -3.77214e+12 -1.51185e+12 -1.57834e+12 -1.50991e+12 -836429000000.0 -1.43293e+12 -1.2559e+12 -3.32991e+12 -1.76403e+12 -2.66956e+12 -3.28791e+12 -2.60257e+12 -2.6326e+12 -1.03326e+12 -3.13318e+12 -2.87272e+12 -1.75413e+12 -1.21757e+12 -2.09722e+12 -1.32301e+12 -2.39076e+12 -3.44487e+12 -4.68654e+12 -2.91938e+12 -1.34067e+12 -2.50873e+12 -865930000000.0 -1.11486e+12 -643864000000.0 -1.80009e+12 -1.94461e+12 -819374000000.0 -2.22217e+12 -1.10474e+12 -2.02983e+12 -3.21689e+12 -4.52606e+12 -2.7619e+12 -5.47354e+12 -1.85457e+12 -3.55786e+12 -1.99726e+12 -2.69186e+12 -3.91888e+12 -2.80081e+12 -2.52848e+12 -1.4015e+12 -3.70289e+12 -3.48681e+12 -1.81961e+12 -2.35682e+12 -2.63293e+12 -863275000000.0 -1.64886e+12 -2.32839e+12 -2.2989e+12 -3.22575e+12 -3.32808e+12 -1.77798e+12 -521635000000.0 -713116000000.0 -1.64555e+12 -1.62625e+12 -2.03485e+12 -4.75511e+12 -3.33855e+12 -2.6969e+12 -4.50051e+12 -3.51056e+12 -2.21119e+12 -2.20795e+12 -3.51518e+12 -3.82097e+12 -3.01173e+12 -3.38522e+12 -3.94228e+12 -3.53574e+12 -3.11419e+12 -3.58099e+12 -1.75579e+12 -4.66985e+12 -2.73519e+12 -2.88674e+12 -2.37023e+12 -2.37862e+12 -3.39204e+12 -4.38187e+12 -2.0881e+12 -1.39283e+12 -2.85673e+12 -1.85759e+12 -5.66907e+12 -1.46505e+12 -4.29734e+12 -3.93927e+12 -4.54075e+12 -4.84345e+12 -3.93364e+12 -4.62944e+12 -877842000000.0 -3.20837e+12 -5.26046e+12 -4.62365e+12 -4.01427e+12 -5.95387e+12 -3.85982e+12 -3.56915e+12 -4.85819e+12 -3.375e+12 -2.68671e+12 -4.92243e+12 -4.05435e+12 -1.65739e+12 -3.41596e+12 -2.91018e+12 -1.87176e+12 -2.61356e+12 -2.22036e+12 -1.86533e+12 -4.45442e+12 -2.78914e+12 -1.8442e+12 -5.53285e+12 -5.79784e+12 -5.5944e+12 -4.49009e+12 -2.71472e+12 -4.59077e+12 -3.60428e+12 -3.98899e+12 -5.14815e+12 -6.82013e+12 -5.55652e+12 -4.15664e+12 -4.1216e+12 -4.24035e+12 -5.47797e+12 -5.28913e+12 -1.53666e+12 -6.32683e+12 -7.46869e+12 -3.365e+12 -2.34691e+12 -3.68826e+12 -3.76164e+12 -4.76136e+12 -7.24627e+12 -3.01846e+12 -3.933e+12 -3.43685e+12 -6.14727e+12 -4.26302e+12 -3.41407e+12 -6.26296e+12 -3.38449e+12 -4.58801e+12 -3.41663e+12 -3.81989e+12 -6.48436e+12 -3.95385e+12 -4.62836e+12 -4.68316e+12 -5.45707e+12 -3.13959e+12 -5.24892e+12 -2.78391e+12 -4.10859e+12 -6.09784e+12 -3.688e+12 -3.6888e+12 -5.91618e+12 -4.31182e+12 -4.6474e+12 -5.46278e+12 -4.55282e+12 -2.60107e+12 -5.38995e+12 -3.49153e+12 -5.3191e+12 -6.72803e+12 -5.35964e+12 -6.23202e+12 -2.28052e+12 -3.83112e+12 -3.46443e+12 -3.13122e+12 -5.85714e+12 -3.84171e+12 -7.5156e+12 -4.59513e+12 -5.5647e+12 -4.21819e+12 -2.58642e+12 -5.05036e+12 -3.2025e+12 -6.87248e+12 -2.41322e+12 -7.91419e+12 -7.32627e+12 -7.17069e+12 -4.35266e+12 -4.0558e+12 -6.01034e+12 -5.73371e+12 -6.95841e+12 -4.69927e+12 -8.04441e+12 -5.16392e+12 -5.11138e+12 -4.11782e+12 -6.88242e+12 -6.50606e+12 -4.46715e+12 -3.80873e+12 -4.67422e+12 -2.74352e+12 -4.77435e+12 -6.75326e+12 -7.49407e+12 -4.23508e+12 -6.2855e+12 -3.58157e+12 -4.23461e+12 -5.08767e+12 -3.13714e+12 -5.31623e+12 -5.46471e+12 -2.06075e+12 -7.35939e+12 -4.31584e+12 -5.07063e+12 -1.51809e+12 -6.2532e+12 -2.63248e+12 -4.37632e+12 -5.51311e+12 -4.97474e+12 -5.28108e+12 -6.42388e+12 -6.83685e+12 -5.74223e+12 -6.4365e+12 -4.20816e+12 -4.37817e+12 -5.08719e+12 -4.71117e+12 -4.147e+12 -2.59084e+12 -4.93591e+12 -5.46374e+12 -4.29494e+12 -2.41108e+12 -6.08202e+12 -4.45804e+12 -2.82202e+12 -4.10401e+12 -4.3569e+12 -5.63062e+12 -5.09066e+12 -5.28731e+12 -6.02129e+12 -6.47581e+12 -6.97207e+12 -12549700000.0 -2.40837e+12 -4.55526e+12 -3.53729e+12 -2.82982e+12 -5.36452e+12 -5.36097e+12 -5.74823e+12 -5.90195e+12 -4.92322e+12 -6.69842e+12 -5.13877e+12 -4.43531e+12 -5.18552e+12 -5.20887e+12 -2.74513e+12 -3.99942e+12 -4.65434e+12 -4.60534e+12 -5.38031e+12 -6.16281e+12 -3.60223e+12 -3.6498e+12 -3.58789e+12 -5.33076e+12 -4.98647e+12 -5.55072e+12 -5.82079e+12 -5.24702e+12 -5.29895e+12 -5.4252e+12 -4.42222e+12 -3.19242e+12 -6.7476e+12 -5.85247e+12 -5.66336e+12 -1.97123e+12 -6.08515e+12 -3.08714e+12 -4.94594e+12 -5.22705e+12 -7.09646e+12 -4.38882e+12 -3.89913e+12 -5.36111e+12 -8.08218e+12 -5.00128e+12 -4.92633e+12 -5.30163e+12 -7.0601e+12 -5.97115e+12 -4.13585e+12 -4.01035e+12 -4.99117e+12 -6.35275e+12 -5.60932e+12 -5.98188e+12 -4.11128e+12 -4.51074e+12 -3.16068e+12 -3.82769e+12 -3.45641e+12 -7.33776e+12 -4.64758e+12 -6.65522e+12 -5.85965e+12 -7.95132e+12 -3.47008e+12 -6.71732e+12 -3.80901e+12 -4.7411e+12 -5.45243e+12 -6.20436e+12 -3.78689e+12 -3.49914e+12 -4.58188e+12 -4.93396e+12 -4.69459e+12 -3.66648e+12 -6.1686e+12 -8.57732e+12 -3.20177e+12 -4.17778e+12 -5.8087e+12 -6.30505e+12 -4.96137e+12 -2.75178e+12 -4.07143e+12 -5.45084e+12 -3.03139e+12 -5.42125e+12 -3.78052e+12 -5.67522e+12 -3.02367e+12 -5.04793e+12 -3.83393e+12 -9.312e+12 -7.53304e+12 -7.10287e+12 -4.00198e+12 -3.91968e+12 -5.10205e+12 -6.52263e+12 -7.14209e+12 -4.64851e+12 -5.04165e+12 -3.69715e+12 -2.89205e+12 -5.87807e+12 -4.84394e+12 -6.96772e+12 -5.86368e+12 -3.70341e+12 -2.15459e+12 -3.26346e+12 -6.56269e+12 -7.30955e+12 -4.48719e+12 -6.87185e+12 -8.73972e+12 -7.95421e+12 -5.17213e+12 -5.84896e+12 -7.19934e+12 -6.81843e+12 -7.3831e+12 -6.12105e+12 -5.08884e+12 -5.99191e+12 -5.17743e+12 -5.23936e+12 -8.42857e+12 -5.89539e+12 -4.14981e+12 -6.47088e+12 -6.23614e+12 -5.32005e+12 -6.95598e+12 -3.6121e+12 -6.28145e+12 -5.49154e+12 -5.38398e+12 -4.63164e+12 -5.3106e+12 -6.10419e+12 -4.01456e+12 -6.92432e+12 -5.55779e+12 -8.47825e+12 -6.99032e+12 -4.34985e+12 -2.95289e+12 -3.39626e+12 -12549700000.0 -6.42027e+12 -7.69774e+12 -6.984e+12 -8.04409e+12 -7.45169e+12 -4.44573e+12 -6.36436e+12 -4.92512e+12 -3.53089e+12 -6.65329e+12 -6.40018e+12 -6.59665e+12 -4.96868e+12 -5.47743e+12 -6.30336e+12 -4.60407e+12 -8.44521e+12 -1.23732e+13 -6.645e+12 -7.8776e+12 -5.96136e+12 -3.81422e+12 -3.45205e+12 -3.21574e+12 -9.52538e+12 -5.02604e+12 -3.76996e+12 -5.88101e+12 -6.46609e+12 -6.51794e+12 -2.37697e+12 -4.23799e+12 -7.49592e+12 -8.72813e+12 -9.24391e+12 -3.5872e+12 -5.30123e+12 -12543900000.0 -4.2718e+12 -7.78876e+12 -3.8275e+12 -9.6947e+12 -5.18127e+12 -1.02776e+13 -1.05731e+13 -7.3504e+12 -8.24458e+12 -5.52508e+12 -3.76089e+12 -5.14738e+12 -1.23689e+13 -7.33775e+12 -5.1535e+12 -7.93184e+12 -5.88851e+12 -4.54319e+12 -5.23947e+12 -7.9969e+12 -5.76971e+12 -5.36548e+12 -9.08568e+12 -1.19423e+13 -5.7743e+12 -7.55361e+12 -7.06415e+12 -6.94537e+12 -9.50026e+12 -1.12628e+13 -9.5572e+12 -4.76414e+12 -6.30922e+12 -6.0816e+12 -7.95946e+12 -5.7478e+12 -8.33852e+12 -1.01725e+13 -7.92114e+12 -7.68828e+12 -3.27203e+12 -5.43972e+12 -9.45803e+12 -4.82659e+12 -4.80813e+12 -5.02789e+12 -7.03793e+12 -4.33556e+12 -4.3643e+12 -8.71415e+12 -6.64293e+12 -5.52025e+12 -8.29322e+12 -7.81191e+12 -5.96596e+12 -3.96754e+12 -3.27051e+12 -3.92198e+12 -1.09251e+13 -5.82531e+12 -9.05159e+12 -8.84972e+12 -7.22179e+12 -6.06893e+12 -6.88499e+12 -5.70959e+12 -4.63848e+12 -7.05971e+12 -5.12439e+12 -5.16558e+12 -4.10506e+12 -6.54846e+12 -6.84303e+12 -7.49775e+12 -6.71163e+12 -8.55079e+12 -5.41111e+12 -8.31777e+12 -7.484e+12 -5.92774e+12 -3.08126e+12 -6.66065e+12 -9.047e+12 -6.01816e+12 -1.30638e+13 -1.13754e+13 -5.15712e+12 -7.27607e+12 -8.10626e+12 -1.72376e+13 -1.38589e+13 -5.34244e+12 -9.07566e+12 -3.93172e+12 -7.73058e+12 -4.19813e+12 -5.86659e+12 -4.87434e+12 -6.14864e+12 -5.01326e+12 -6.5088e+12 -6.87779e+12 -7.78099e+12 -8.32664e+12 -4.06044e+12 -3.86981e+12 -4.70088e+12 -6.92448e+12 -6.64615e+12 -5.34041e+12 -7.04586e+12 -8.81839e+12 -6.56449e+12 -5.42199e+12 -7.90571e+12 -6.55475e+12 -4.78194e+12 -8.64926e+12 -6.69365e+12 -2.56588e+12 -7.16674e+12 -5.49158e+12 -4.61098e+12 -6.57099e+12 -6.84141e+12 -2.84062e+12 -5.0515e+12 -6.11131e+12 -8.03802e+12 -7.85807e+12 -4.61604e+12 -6.81473e+12 -6.52426e+12 -7.2296e+12 -6.63231e+12 -4.71591e+12 -7.38549e+12 -8.28801e+12 -2.35224e+12 -4.0014e+12 -1.01298e+13 -4.48261e+12 -3.65958e+12 -7.42811e+12 -6.26345e+12 -6.04386e+12 -1.26811e+13 -2.94931e+12 -5.76147e+12 -8.21569e+12 -9.15356e+12 -6.12678e+12 -1.04141e+13 -4.20987e+12 -1.10023e+13 -1.06337e+13 -8.64209e+12 -5.71914e+12 -7.94214e+12 -6.69688e+12 -5.82177e+12 -4.96617e+12 -4.23299e+12 -4.02209e+12 -3.89743e+12 -7.55201e+12 -7.42167e+12 -6.06396e+12 -7.82048e+12 -6.94284e+12 -3.73593e+12 -6.05526e+12 -4.73566e+12 -6.49939e+12 -6.927e+12 -5.57221e+12 -8.63228e+12 -5.1278e+12 -1.17695e+13 -1.05019e+13 -1.32629e+13 -5.16027e+12 -6.94126e+12 -5.59617e+12 -4.15422e+12 -3.9178e+12 -4.23556e+12 -4.34201e+12 -6.86421e+12 -9.06825e+12 -7.79612e+12 -7.52402e+12 -4.62113e+12 -5.56648e+12 -7.66848e+12 -5.6363e+12 -6.35556e+12 -6.40558e+12 -2.55385e+12 -6.28493e+12 -8.21724e+12 -4.27197e+12 -5.41578e+12 -4.88577e+12 -3.91131e+12 -6.87347e+12 -8.76101e+12 -2.90308e+12 -8.46204e+12 -5.87412e+12 -7.43701e+12 -4.41219e+12 -5.8612e+12 -6.20943e+12 -3.95974e+12 -3.92668e+12 -7.8911e+12 -6.8658e+12 -7.70178e+12 -1.07684e+13 -1.10228e+13 -7.08208e+12 -9.12404e+12 -6.33268e+12 -6.11651e+12 -1.0376e+13 -1.0185e+13 -4.68264e+12 -7.12664e+12 -7.51177e+12 -8.7165e+12 -6.27962e+12 -5.36424e+12 -9.78229e+12 -8.25775e+12 -6.0161e+12 -5.62208e+12 -4.73424e+12 -3.88635e+12 -6.39866e+12 -6.12093e+12 -4.18171e+12 -7.54079e+12 -3.9278e+12 -8.24524e+12 -6.87689e+12 -7.58054e+12 -1.03802e+13 -7.78335e+12 -6.58023e+12 -9.35885e+12 -5.03224e+12 -8.90866e+12 -8.30146e+12 -1.13471e+13 -9.94039e+12 -5.2929e+12 -1.109e+13 -1.07647e+13 -6.48341e+12 -5.91524e+12 -9.26633e+12 -9.35923e+12 -6.71948e+12 -9.45216e+12 -6.63028e+12 -6.65246e+12 -3.642e+12 -4.83056e+12 -3.80173e+12 -1.16769e+13 -3.88463e+12 -5.39813e+12 -4.52616e+12 -6.4128e+12 -7.46701e+12 -9.47266e+12 -5.19442e+12 -7.50173e+12 -8.04444e+12 -2.37214e+12 -9.51943e+12 -4.46421e+12 -5.28555e+12 -3.92941e+12 -9.63368e+12 -9.00653e+12 -5.07792e+12 -9.60524e+12 -7.88624e+12 -5.58935e+12 -7.09871e+12 -5.14877e+12 -7.24801e+12 -8.22632e+12 -4.85064e+12 -7.38168e+12 -7.67938e+12 -6.81623e+12 -7.53719e+12 -7.95245e+12 -5.53272e+12 -9.2919e+12 -5.55042e+12 -1.14091e+13 -4.74348e+12 -1.04459e+13 -1.03813e+13 -1.19295e+13 -7.61546e+12 -5.03181e+12 -5.24153e+12 -5.81367e+12 -4.03552e+12 -5.08681e+12 -8.05634e+12 -1.06132e+13 -4.54792e+12 -4.62086e+12 -5.52701e+12 -8.11623e+12 -3.86879e+12 -3.31062e+12 -5.49793e+12 -2.91894e+12 -4.57871e+12 -5.95042e+12 -8.31751e+12 -9.7701e+12 -8.49886e+12 -8.41748e+12 -9.09198e+12 -1.12251e+13 -9.08056e+12 -6.48722e+12 -9.16004e+12 -4.56244e+12 -7.47444e+12 -5.27022e+12 -1.29476e+13 -4.71063e+12 -8.85076e+12 -7.73558e+12 -8.55438e+12 -7.48508e+12 -8.16166e+12 -5.72277e+12 -5.96972e+12 -6.04064e+12 -7.3277e+12 -4.92603e+12 -8.90174e+12 -7.20295e+12 -8.88348e+12 -7.18606e+12 -6.59181e+12 -5.80108e+12 -5.00371e+12 -5.41341e+12 -8.13208e+12 -9.93589e+12 -3.10794e+12 -7.41652e+12 -7.63565e+12 -8.97642e+12 -6.32881e+12 -4.64593e+12 -9.12185e+12 -5.41271e+12 -6.79872e+12 -6.96308e+12 -1.02902e+13 -6.49171e+12 -8.26804e+12 -5.17653e+12 -4.76222e+12 -7.58254e+12 -1.14691e+13 -5.09312e+12 -1.07737e+13 -5.53064e+12 -4.27052e+12 -5.27652e+12 -9.03611e+12 -7.79543e+12 -1.09113e+13 -6.20957e+12 -5.62758e+12 -5.26107e+12 -6.53824e+12 -9.85443e+12 -4.16843e+12 -5.88213e+12 -7.35943e+12 -7.82186e+12 -1.01748e+13 -8.4413e+12 -1.2286e+13 -6.82487e+12 -5.98302e+12 -3.73004e+12 -1.1404e+13 -5.85022e+12 -6.36584e+12 -1.09351e+13 -7.56563e+12 -5.67569e+12 -1.01425e+13 -5.99311e+12 -5.54624e+12 -4.59718e+12 -7.22461e+12 -6.40244e+12 -9.70172e+12 -7.12525e+12 -5.37319e+12 -1.43327e+13 -9.63327e+12 -1.07115e+13 -8.31907e+12 -7.62348e+12 -5.9718e+12 -5.30121e+12 -8.3392e+12 -8.49638e+12 -5.88895e+12 -7.11237e+12 -1.04639e+13 -8.52827e+12 -7.40048e+12 -7.75241e+12 -5.14336e+12 -1.06209e+13 -6.3012e+12 -7.77722e+12 -1.34654e+13 -8.93319e+12 -4.00716e+12 -9.47072e+12 -8.11465e+12 -6.65603e+12 -3.6921e+12 -3.08635e+12 -5.63678e+12 -6.97106e+12 -5.59059e+12 -6.5342e+12 -5.62603e+12 -5.64655e+12 -2.03382e+12 -5.64461e+12 -6.86632e+12 -4.55551e+12 -9.81531e+12 -4.65483e+12 -7.05456e+12 -8.28007e+12 -5.55468e+12 -7.36495e+12 -6.61084e+12 -8.82567e+12 -5.67219e+12 -4.61641e+12 -7.6665e+12 -7.29862e+12 -6.53773e+12 -6.965e+12 -5.47926e+12 -4.84862e+12 -7.03339e+12 -1.25584e+13 -8.68486e+12 -6.75532e+12 -8.23999e+12 -7.21204e+12 -9.45457e+12 -7.98054e+12 -6.01118e+12 -5.22183e+12 -5.90082e+12 -7.45788e+12 -6.97982e+12 -8.19108e+12 -7.6218e+12 -2.75202e+12 -6.29998e+12 -5.46656e+12 -7.50744e+12 -1.15144e+13 -1.07211e+13 -8.55688e+12 -7.2697e+12 -9.1015e+12 -7.99702e+12 -3.88239e+12 -8.78244e+12 -3.38625e+12 -4.49812e+12 -7.68069e+12 -9.84478e+12 -6.88103e+12 -1.20982e+13 -7.23236e+12 -9.53988e+12 -1.25575e+13 -1.34012e+13 -1.01677e+13 -1.18438e+13 -4.6186e+12 -8.08811e+12 -6.31893e+12 -6.12953e+12 -1.00435e+13 -8.23652e+12 -8.54541e+12 -7.54921e+12 -7.61176e+12 -8.82037e+12 -7.19541e+12 -6.09449e+12 -4.82563e+12 -9.95495e+12 -6.47665e+12 -8.04283e+12 -1.34145e+13 -8.73394e+12 -5.27178e+12 -1.06075e+13 -5.4685e+12 -7.62449e+12 -7.3988e+12 -3.98628e+12 -6.40722e+12 -6.51939e+12 -7.74263e+12 -7.25614e+12 -4.0589e+12 -4.08461e+12 -2.57475e+12 -8.73063e+12 -6.65881e+12 -5.22811e+12 -8.55617e+12 -7.13383e+12 -9.72635e+12 -6.31799e+12 -8.19264e+12 -8.3984e+12 -7.09117e+12 -5.96561e+12 -4.52234e+12 -4.85663e+12 -7.57384e+12 -1.00146e+13 -6.98441e+12 -3.09293e+12 -7.0277e+12 -5.66442e+12 -8.51933e+12 -4.45394e+12 -6.62694e+12 -5.39906e+12 -1.03543e+13 -6.0709e+12 -4.72301e+12 -9.93735e+12 -6.28448e+12 -8.38934e+12 -9.83714e+12 -5.4825e+12 -6.60981e+12 -8.41132e+12 -6.74968e+12 -1.01753e+13 -7.31956e+12 -7.90993e+12 -9.24937e+12 -8.66703e+12 -6.53378e+12 -8.30366e+12 -1.52436e+13 -1.39519e+13 -6.54802e+12 -9.24284e+12 -1.00802e+13 -1.10146e+13 -9.33418e+12 -7.44975e+12 -8.1002e+12 -3.62695e+12 -5.7242e+12 -4.29237e+12 -6.16128e+12 -7.89784e+12 -1.17986e+13 -4.18134e+12 -1.48047e+13 -9.1174e+12 -1.11452e+13 -1.05365e+13 -9.00647e+12 -6.40185e+12 -5.95353e+12 -4.04871e+12 -1.00545e+13 -5.98924e+12 -6.46495e+12 -6.07719e+12 -8.76393e+12 -9.88929e+12 -9.03012e+12 -7.62425e+12 -1.24342e+13 -7.54235e+12 -7.79462e+12 -1.02586e+13 -7.584e+12 -5.84519e+12 -6.68796e+12 -6.84271e+12 -5.30873e+12 -8.44375e+12 -6.42406e+12 -7.43652e+12 -3.67689e+12 -3.29149e+12 -6.8034e+12 -3.68542e+12 -3.87151e+12 -5.5141e+12 -6.68047e+12 -9.42445e+12 -6.66305e+12 -7.11196e+12 -7.41507e+12 -5.71818e+12 -5.19097e+12 -4.35976e+12 -3.4894e+12 -1.10975e+13 -6.42893e+12 -4.64147e+12 -6.51761e+12 -5.3239e+12 -7.95898e+12 -7.97391e+12 -6.91284e+12 -6.55949e+12 -2.92783e+12 -5.21594e+12 -4.72375e+12 -5.36694e+12 -6.57235e+12 -1.06846e+13 -7.49175e+12 -5.72025e+12 -3.00716e+12 -6.86571e+12 -6.41967e+12 -8.07284e+12 -7.04434e+12 -5.21026e+12 -5.68447e+12 -5.26849e+12 -9.53549e+12 -5.61888e+12 -7.18763e+12 -7.12592e+12 -5.84774e+12 -6.22545e+12 -5.85125e+12 -6.41458e+12 -9.53251e+12 -1.21771e+13 -1.03377e+13 -7.11329e+12 -8.52636e+12 -8.11247e+12 -1.3448e+13 -1.16807e+13 -5.50016e+12 -7.71742e+12 -9.01506e+12 -7.08427e+12 -1.15508e+13 -9.26589e+12 -1.32931e+13 -7.85518e+12 -8.57701e+12 -9.68113e+12 -6.57888e+12 -2.79699e+12 -3.96029e+12 -4.09467e+12 -9.76983e+12 -3.06882e+12 -5.96477e+12 -3.01687e+12 -9.98088e+12 -7.14729e+12 -9.19072e+12 -6.47265e+12 -7.53816e+12 -7.28068e+12 -6.36074e+12 -9.28826e+12 -1.17727e+13 -1.09558e+13 -5.29885e+12 -7.87529e+12 -1.28796e+13 -8.47114e+12 -9.28178e+12 -7.97708e+12 -5.83889e+12 -6.07346e+12 -7.4006e+12 -7.15139e+12 -6.17434e+12 -7.10567e+12 -4.75289e+12 -5.20816e+12 -5.08127e+12 -5.10747e+12 -9.39086e+12 -6.85135e+12 -4.58965e+12 -5.80881e+12 -6.55833e+12 -6.41479e+12 -8.18927e+12 -6.4944e+12 -1.01639e+13 -6.42782e+12 -6.87981e+12 -5.72992e+12 -6.45043e+12 -1.06835e+13 -6.83658e+12 -4.15402e+12 -5.84471e+12 -6.37151e+12 -6.82148e+12 -7.33822e+12 -5.12429e+12 -6.27632e+12 -4.90756e+12 -4.37349e+12 -6.59832e+12 -4.2206e+12 -5.04086e+12 -4.58252e+12 -9.59838e+12 -8.21874e+12 -8.3221e+12 -8.39891e+12 -8.53211e+12 -7.92614e+12 -4.12148e+12 -3.06427e+12 -6.14415e+12 -7.23349e+12 -5.20291e+12 -7.12174e+12 -6.41227e+12 -5.4187e+12 -9.1997e+12 -1.03851e+13 -6.93366e+12 -5.6072e+12 -4.28024e+12 -8.18036e+12 -1.02945e+13 -7.81814e+12 -5.25371e+12 -6.29329e+12 -6.19684e+12 -9.08238e+12 -9.29124e+12 -7.56083e+12 -7.26121e+12 -1.03427e+13 -8.06739e+12 -9.76711e+12 -9.31132e+12 -1.20388e+13 -9.31403e+12 -1.01295e+13 -6.64692e+12 -9.05109e+12 -6.66094e+12 -7.25926e+12 -4.94567e+12 -8.28459e+12 -9.54442e+12 -5.44608e+12 -7.35813e+12 -4.83169e+12 -8.18548e+12 -1.00435e+13 -6.24156e+12 -5.81357e+12 -6.73598e+12 -1.05311e+13 -5.62167e+12 -6.10454e+12 -7.51634e+12 -8.37923e+12 -9.42374e+12 -8.27358e+12 -1.22957e+13 -1.03098e+13 -5.99618e+12 -6.39182e+12 -5.11534e+12 -9.0078e+12 -8.48268e+12 -8.61914e+12 -1.0199e+13 -5.58214e+12 -8.51989e+12 -6.09045e+12 -1.04746e+13 -7.35009e+12 -9.51067e+12 -3.29246e+12 -8.41895e+12 -5.32945e+12 -8.01984e+12 -1.02517e+13 -9.90888e+12 -6.33897e+12 -7.29112e+12 -6.9544e+12 -5.00982e+12 -3.48054e+12 -4.73672e+12 -9.16602e+12 -6.20026e+12 -4.85065e+12 -7.77698e+12 -5.39767e+12 -2.56573e+12 -3.71753e+12 -9.15219e+12 -7.08113e+12 -4.76723e+12 -6.38867e+12 -7.39743e+12 -5.08429e+12 -6.51059e+12 -4.50123e+12 -6.93834e+12 -3.46164e+12 -6.82326e+12 -5.6354e+12 -8.88436e+12 -3.64737e+12 -3.89439e+12 -1.35848e+13 -7.60189e+12 -5.08983e+12 -5.14343e+12 -7.71415e+12 -7.12074e+12 -8.18819e+12 -5.36119e+12 -7.42237e+12 -4.91664e+12 -7.65061e+12 -6.81281e+12 -8.75897e+12 -7.2933e+12 -6.89779e+12 -9.57254e+12 -3.56541e+12 -9.53428e+12 -5.87071e+12 -5.23173e+12 -5.45038e+12 -7.34986e+12 -7.25596e+12 -7.76617e+12 -5.35083e+12 -8.68724e+12 -5.27723e+12 -9.71782e+12 -8.30762e+12 -9.24102e+12 -9.64515e+12 -5.44009e+12 -7.98372e+12 -7.76535e+12 -9.88771e+12 -9.3211e+12 -8.09775e+12 -1.22693e+13 -1.49037e+13 -8.19067e+12 -1.18649e+13 -6.57379e+12 -5.1758e+12 -9.66911e+12 -1.09896e+13 -1.18432e+13 -5.00636e+12 -5.54828e+12 -6.25951e+12 -8.4791e+12 -6.13304e+12 -6.78519e+12 -1.13596e+13 -5.63929e+12 -3.51331e+12 -7.53521e+12 -4.56421e+12 -1.08168e+13 -7.07143e+12 -1.03268e+13 -1.08739e+13 -9.5377e+12 -7.68843e+12 -1.25025e+13 -7.11054e+12 -5.89999e+12 -6.43984e+12 -9.91319e+12 -7.24543e+12 -6.96572e+12 -2.47161e+12 -4.34419e+12 -8.67887e+12 -6.91844e+12 -7.357e+12 -9.5481e+12 -8.57684e+12 -2.77308e+12 -4.91856e+12 -1.00713e+13 -6.18374e+12 -8.71341e+12 -7.97078e+12 -6.28877e+12 -7.8093e+12 -4.68561e+12 -3.15298e+12 -8.03272e+12 -8.87571e+12 -6.74427e+12 -5.7789e+12 -9.62627e+12 -6.73866e+12 -7.34565e+12 -4.16379e+12 -7.32891e+12 -5.90882e+12 -7.11274e+12 -4.88577e+12 -3.59194e+12 -3.12822e+12 -4.32942e+12 -6.05346e+12 -9.26406e+12 -6.12691e+12 -3.73084e+12 -6.36135e+12 -5.26799e+12 -7.03468e+12 -6.0459e+12 -4.25222e+12 -8.10781e+12 -3.39691e+12 -5.53254e+12 -6.46208e+12 -6.46141e+12 -1.00784e+13 -6.89261e+12 -8.358e+12 -6.48533e+12 -4.81609e+12 -5.742e+12 -3.05926e+12 -9.15686e+12 -5.70153e+12 -9.46087e+12 -1.02857e+13 -6.18702e+12 -6.14248e+12 -3.42406e+12 -7.76961e+12 -4.35303e+12 -8.19872e+12 -9.14894e+12 -2.60021e+12 -4.1394e+12 -7.34165e+12 -6.47586e+12 -6.58418e+12 -6.69167e+12 -9.0843e+12 -7.76401e+12 -8.60174e+12 -7.4502e+12 -4.97453e+12 -3.36378e+12 -7.29116e+12 -7.88253e+12 -1.03794e+13 -7.89137e+12 -9.45317e+12 -7.20748e+12 -1.18643e+13 -7.42296e+12 -6.75258e+12 -9.35559e+12 -6.2512e+12 -8.04093e+12 -1.03468e+13 -9.00312e+12 -5.24122e+12 -9.30938e+12 -1.03851e+13 -5.41924e+12 -6.65748e+12 -5.02133e+12 -6.58205e+12 -1.03909e+13 -1.14945e+13 -4.94682e+12 -1.19349e+13 -7.30293e+12 -6.27946e+12 -1.23598e+13 -6.36636e+12 -4.11616e+12 -9.04102e+12 -7.62054e+12 -9.47565e+12 -5.08647e+12 -6.87141e+12 -5.43454e+12 -1.19426e+13 -6.69792e+12 -4.24252e+12 -5.59467e+12 -4.78709e+12 -5.54052e+12 -4.08744e+12 -5.36419e+12 -9.01675e+12 -7.92376e+12 -5.31589e+12 -4.69611e+12 -8.58125e+12 -6.07067e+12 -1.0727e+13 -5.67018e+12 -4.52959e+12 -1.07304e+13 -4.97323e+12 -8.08564e+12 -6.15416e+12 -8.44372e+12 -7.09355e+12 -2.34729e+12 -5.28772e+12 -5.61621e+12 -1.25372e+13 -5.5161e+12 -5.35293e+12 -6.58487e+12 -5.01825e+12 -8.09021e+12 -5.22831e+12 -6.97466e+12 -6.01665e+12 -4.36362e+12 -9.95961e+12 -4.97035e+12 -3.99966e+12 -3.24386e+12 -6.89492e+12 -8.27643e+12 -6.04387e+12 -4.32507e+12 -4.81434e+12 -6.17199e+12 -6.9198e+12 -8.11312e+12 -4.15812e+12 -5.67031e+12 -4.43727e+12 -8.25793e+12 -6.70747e+12 -4.23018e+12 -5.25539e+12 -3.53082e+12 -5.79677e+12 -6.82638e+12 -1.0258e+13 -6.17998e+12 -4.14356e+12 -4.2121e+12 -5.44908e+12 -8.18415e+12 -7.49316e+12 -6.11609e+12 -4.68135e+12 -3.29869e+12 -2.42767e+12 -6.005e+12 -4.11084e+12 -5.64845e+12 -8.71851e+12 -5.34644e+12 -6.11783e+12 -5.42994e+12 -8.36599e+12 -6.55186e+12 -7.43554e+12 -4.89233e+12 -4.97298e+12 -6.83948e+12 -4.12077e+12 -6.45132e+12 -5.05214e+12 -7.15462e+12 -5.35946e+12 -6.87075e+12 -4.67795e+12 -4.03939e+12 -6.1684e+12 -1.85017e+12 -2.46607e+12 -2.95713e+12 -5.12026e+12 -4.52923e+12 -6.33927e+12 -6.00532e+12 -7.46177e+12 -3.85158e+12 -7.97343e+12 -4.00229e+12 -8.07722e+12 -6.52453e+12 -8.13868e+12 -1.25557e+13 -5.2667e+12 -4.88596e+12 -2.39079e+12 -7.66618e+12 -3.45956e+12 -6.6939e+12 -3.733e+12 -7.5576e+12 -5.72129e+12 -4.20319e+12 -8.22919e+12 -9.86254e+12 -9.05938e+12 -7.41864e+12 -8.84253e+12 -8.58067e+12 -9.40986e+12 -8.98512e+12 -7.27062e+12 -8.39078e+12 -6.62e+12 -9.30276e+12 -1.04804e+13 -6.13325e+12 -8.79519e+12 -7.4536e+12 -8.68985e+12 -8.16322e+12 -5.18528e+12 -4.29054e+12 -7.21677e+12 -8.07021e+12 -5.84589e+12 -8.52402e+12 -6.68458e+12 -1.08382e+13 -4.63075e+12 -6.84195e+12 -8.22361e+12 -9.12674e+12 -6.26935e+12 -6.79831e+12 -7.18651e+12 -3.96471e+12 -1.08247e+13 -5.63332e+12 -5.52099e+12 -4.25343e+12 -3.71048e+12 -5.78948e+12 -5.47569e+12 -5.63114e+12 -4.93308e+12 -6.51217e+12 -7.58898e+12 -3.63121e+12 -4.81448e+12 -7.87385e+12 -7.68701e+12 -5.49419e+12 -7.50547e+12 -4.59976e+12 -9.39418e+12 -8.05152e+12 -8.54119e+12 -8.29582e+12 -6.15356e+12 -5.96618e+12 -5.91963e+12 -2.64671e+12 -6.77517e+12 -6.93743e+12 -6.2801e+12 -5.2567e+12 -7.65041e+12 -5.48364e+12 -9.04101e+12 -4.61819e+12 -9.78138e+12 -4.53903e+12 -7.59162e+12 -7.79068e+12 -9.15194e+12 -4.07093e+12 -7.11168e+12 -5.85872e+12 -5.60402e+12 -3.80988e+12 -2.5729e+12 -1.13914e+13 -4.81253e+12 -4.87546e+12 -5.08723e+12 -3.76299e+12 -3.32965e+12 -6.76105e+12 -7.56025e+12 -9.25194e+12 -5.16136e+12 -5.40327e+12 -4.82706e+12 -3.47332e+12 -7.49861e+12 -7.61533e+12 -6.00221e+12 -1.0473e+13 -9.96047e+12 -8.34499e+12 -9.41293e+12 -1.04973e+13 -6.76802e+12 -4.71416e+12 -8.71061e+12 -7.85571e+12 -1.06736e+13 -9.6006e+12 -1.19993e+13 -9.78837e+12 -8.34775e+12 -6.11291e+12 -6.81309e+12 -5.39968e+12 -7.3601e+12 -1.06996e+13 -7.781e+12 -6.64308e+12 -7.38541e+12 -6.5719e+12 -6.62665e+12 -4.83425e+12 -7.37854e+12 -6.941e+12 -8.5421e+12 -5.66273e+12 -5.35435e+12 -8.79658e+12 -7.61136e+12 -2.29067e+12 -4.5706e+12 -7.28587e+12 -7.08526e+12 -8.12002e+12 -1.2134e+13 -9.85246e+12 -3.37946e+12 -9.87156e+12 -7.13591e+12 -6.38786e+12 -1.00268e+13 -5.14104e+12 -5.24862e+12 -6.62085e+12 -8.43017e+12 -7.20751e+12 -7.09549e+12 -9.53436e+12 -6.45788e+12 -7.51635e+12 -7.40536e+12 -7.12924e+12 -4.10216e+12 -8.74634e+12 -6.04667e+12 -5.31016e+12 -8.79649e+12 -6.11175e+12 -6.59175e+12 -6.62779e+12 -6.11859e+12 -5.01443e+12 -5.71182e+12 -4.14272e+12 -4.2157e+12 -5.40067e+12 -6.13648e+12 -6.70492e+12 -5.98449e+12 -5.01687e+12 -5.30018e+12 -1.08965e+13 -7.19459e+12 -1.03236e+13 -4.92279e+12 -8.52929e+12 -5.77887e+12 -5.31513e+12 -5.90433e+12 -6.10643e+12 -8.50741e+12 -6.17085e+12 -6.35585e+12 -5.94801e+12 -7.32169e+12 -3.90699e+12 -6.70068e+12 -6.01473e+12 -7.87107e+12 -7.43191e+12 -5.38558e+12 -4.61891e+12 -6.59019e+12 -4.11209e+12 -2.33429e+12 -4.47097e+12 -4.66239e+12 -5.7574e+12 -2.43869e+12 -6.38269e+12 -4.66295e+12 -4.96133e+12 -4.28924e+12 -8.80159e+12 -7.04979e+12 -6.11323e+12 -6.28166e+12 -5.31046e+12 -4.78169e+12 -3.51939e+12 -3.02064e+12 -4.81624e+12 -2.82005e+12 -5.94718e+12 -5.75735e+12 -3.89275e+12 -6.32981e+12 -4.88402e+12 -4.38921e+12 -5.96383e+12 -9.54324e+12 -7.96372e+12 -9.51104e+12 -7.2993e+12 -7.82021e+12 -5.55276e+12 -6.18963e+12 -2.24013e+12 -1.02712e+13 -6.12098e+12 -7.44301e+12 -7.46098e+12 -7.73249e+12 -5.88644e+12 -4.63319e+12 -1.19126e+13 -7.60972e+12 -8.82788e+12 -7.91156e+12 -7.59499e+12 -8.55988e+12 -1.04998e+13 -1.03426e+13 -8.88048e+12 -8.87015e+12 -7.47168e+12 -1.00628e+13 -5.8348e+12 -7.37713e+12 -6.61101e+12 -7.07148e+12 -9.33624e+12 -4.41994e+12 -6.58181e+12 -7.97722e+12 -1.02405e+13 -8.55234e+12 -4.56979e+12 -3.74162e+12 -4.24264e+12 -5.4695e+12 -2.54257e+12 -3.93662e+12 -8.77412e+12 -6.1788e+12 -8.06651e+12 -7.75287e+12 -4.88164e+12 -6.31348e+12 -8.35634e+12 -8.56976e+12 -6.0006e+12 -5.32901e+12 -9.46877e+12 -7.77285e+12 -1.26545e+13 -4.50201e+12 -6.02762e+12 -4.88132e+12 -5.91928e+12 -7.25101e+12 -4.32424e+12 -1.12624e+13 -6.82048e+12 -4.51277e+12 -4.98699e+12 -5.68268e+12 -7.20184e+12 -6.33879e+12 -5.73633e+12 -2.39716e+12 -5.72158e+12 -1.09095e+13 -9.38377e+12 -7.15371e+12 -8.05191e+12 -3.05638e+12 -6.78491e+12 -6.8242e+12 -6.78376e+12 -3.2743e+12 -9.2472e+12 -6.56856e+12 -1.01187e+13 -6.45078e+12 -8.08314e+12 -5.65599e+12 -4.95959e+12 -4.96057e+12 -3.91453e+12 -6.37818e+12 -6.54112e+12 -5.76912e+12 -7.85486e+12 -3.74925e+12 -5.87598e+12 -5.0498e+12 -6.07011e+12 -3.58116e+12 -7.09689e+12 -3.95521e+12 -3.734e+12 -5.75245e+12 -7.15085e+12 -4.86746e+12 -6.24624e+12 -3.40191e+12 -5.77356e+12 -6.39317e+12 -5.39049e+12 -2.58948e+12 -4.80258e+12 -5.71923e+12 -4.25155e+12 -3.92882e+12 -3.57794e+12 -2.55885e+12 -4.08276e+12 -7.48616e+12 -6.41254e+12 -3.22625e+12 -3.70781e+12 -4.51629e+12 -6.69125e+12 -4.17981e+12 -9.46168e+12 -6.62108e+12 -3.39491e+12 -7.2086e+12 -4.80855e+12 -6.07462e+12 -4.69819e+12 -5.77381e+12 -5.62196e+12 -4.82136e+12 -9.6583e+12 -5.9011e+12 -5.7035e+12 -5.71544e+12 -7.81519e+12 -6.1204e+12 -7.23707e+12 -7.50031e+12 -8.28487e+12 -5.31224e+12 -4.06219e+12 -6.31016e+12 -1.19838e+13 -6.42938e+12 -3.59272e+12 -1.00941e+13 -4.89174e+12 -3.39696e+12 -6.83158e+12 -2.11372e+12 -1.27676e+13 -6.37765e+12 -1.18003e+13 -7.22691e+12 -6.19567e+12 -1.20303e+13 -4.44283e+12 -8.12269e+12 -9.08914e+12 -7.0113e+12 -1.00243e+13 -5.43163e+12 -5.62942e+12 -7.43941e+12 -6.11895e+12 -4.98296e+12 -6.02191e+12 -5.38585e+12 -5.268e+12 -5.00238e+12 -4.14675e+12 -4.18293e+12 -7.12591e+12 -6.30249e+12 -6.22638e+12 -9.93115e+12 -6.43628e+12 -6.08886e+12 -7.40319e+12 -1.21891e+13 -3.70748e+12 -8.95709e+12 -1.43979e+13 -6.27309e+12 -5.51846e+12 -8.67748e+12 -1.02458e+13 -9.27021e+12 -8.09896e+12 -9.4162e+12 -6.33175e+12 -9.29376e+12 -8.38052e+12 -7.45155e+12 -9.6671e+12 -9.06523e+12 -1.31881e+13 -1.00335e+13 -3.23039e+12 -7.12592e+12 -3.07829e+12 -4.27896e+12 -7.20683e+12 -5.98185e+12 -4.99141e+12 -5.62974e+12 -7.22629e+12 -6.74702e+12 -5.22584e+12 -7.63474e+12 -3.65623e+12 -5.1332e+12 -3.70726e+12 -1.05088e+13 -8.91037e+12 -1.00478e+13 -4.87132e+12 -4.77203e+12 -4.2067e+12 -3.57347e+12 -5.18897e+12 -8.39223e+12 -3.20363e+12 -3.47135e+12 -3.29836e+12 -7.94354e+12 -7.73584e+12 -4.48731e+12 -6.85754e+12 -7.34932e+12 -5.06787e+12 -6.85874e+12 -3.53399e+12 -4.41466e+12 -5.10841e+12 -3.71526e+12 -3.33145e+12 -6.02348e+12 -3.52511e+12 -7.87309e+12 -4.14227e+12 -5.12982e+12 -6.46948e+12 -7.48992e+12 -3.97777e+12 -1.80629e+12 -4.05833e+12 -7.13879e+12 -4.87141e+12 -2.88182e+12 -3.88694e+12 -4.37476e+12 -7.69844e+12 -7.07206e+12 -4.71184e+12 -5.60936e+12 -9.29807e+12 -5.57618e+12 -5.23741e+12 -5.18366e+12 -5.88493e+12 -3.83944e+12 -6.48562e+12 -3.95279e+12 -6.46038e+12 -8.92238e+12 -9.9712e+12 -8.55866e+12 -5.7846e+12 -3.69175e+12 -7.21717e+12 -7.04588e+12 -8.45794e+12 -5.60856e+12 -8.31109e+12 -4.45862e+12 -4.95861e+12 -9.59331e+12 -6.73212e+12 -4.00168e+12 -5.75402e+12 -5.32752e+12 -7.48457e+12 -6.12889e+12 -9.01172e+12 -4.27204e+12 -6.34815e+12 -4.07821e+12 -8.70773e+12 -6.36352e+12 -5.93837e+12 -4.64136e+12 -8.28032e+12 -6.711e+12 -9.04362e+12 -8.69792e+12 -6.71802e+12 -4.56579e+12 -8.11678e+12 -9.6912e+12 -5.90687e+12 -5.79863e+12 -7.32944e+12 -7.97445e+12 -7.76635e+12 -5.84632e+12 -1.04305e+13 -5.49456e+12 -6.4244e+12 -5.54668e+12 -4.5386e+12 -4.2958e+12 -5.65226e+12 -7.58357e+12 -4.94859e+12 -2.72595e+12 -9.59935e+12 -5.27304e+12 -6.77391e+12 -1.2801e+13 -1.83099e+13 -5.31973e+12 -7.19508e+12 -1.06386e+13 -5.52219e+12 -9.14486e+12 -5.30668e+12 -5.53907e+12 -7.13237e+12 -6.73184e+12 -7.0334e+12 -5.36678e+12 -8.1604e+12 -8.14215e+12 -8.31777e+12 -4.60582e+12 -4.75631e+12 -6.48715e+12 -5.64476e+12 -5.56827e+12 -3.928e+12 -8.65222e+12 -6.92179e+12 -9.12031e+12 -8.5075e+12 -8.00807e+12 -5.64789e+12 -6.56046e+12 -6.04728e+12 -5.37206e+12 -8.58398e+12 -4.49312e+12 -5.9908e+12 -8.14353e+12 -5.28061e+12 -7.83177e+12 -4.10996e+12 -4.979e+12 -6.0126e+12 -4.48634e+12 -4.0149e+12 -2.9533e+12 -6.12322e+12 -5.46992e+12 -5.46377e+12 -3.75288e+12 -6.56773e+12 -5.20044e+12 -5.96171e+12 -5.40925e+12 -3.95791e+12 -5.1482e+12 -2.39675e+12 -4.64283e+12 -1.14558e+12 -6.30594e+12 -5.84809e+12 -5.02277e+12 -3.57188e+12 -4.97669e+12 -6.14607e+12 -9.44786e+12 -2.79459e+12 -3.26706e+12 -2.83124e+12 -4.59804e+12 -4.13648e+12 -6.03042e+12 -5.67369e+12 -3.17266e+12 -3.94502e+12 -4.65126e+12 -4.85109e+12 -3.13474e+12 -6.98364e+12 -5.68616e+12 -3.52405e+12 -6.47044e+12 -4.57582e+12 -6.97667e+12 -8.22879e+12 -3.13946e+12 -3.71868e+12 -3.31137e+12 -5.47526e+12 -6.73212e+12 -9.21561e+12 -4.74669e+12 -9.01629e+12 -8.95595e+12 -2.43616e+12 -4.88099e+12 -7.21343e+12 -5.20057e+12 -8.15853e+12 -9.71025e+12 -6.55789e+12 -5.53211e+12 -6.12797e+12 -3.57353e+12 -5.52799e+12 -7.07048e+12 -4.97039e+12 -8.30958e+12 -5.67526e+12 -7.1235e+12 -8.27837e+12 -2.61511e+12 -8.84592e+12 -7.77039e+12 -4.03099e+12 -6.53099e+12 -7.20277e+12 -1.23134e+13 -7.24701e+12 -6.13749e+12 -8.60971e+12 -6.22267e+12 -6.93685e+12 -5.18879e+12 -4.85094e+12 -3.36992e+12 -9.3278e+12 -1.08798e+13 -5.18313e+12 -7.98005e+12 -6.52169e+12 -3.88713e+12 -5.70603e+12 -4.87776e+12 -5.03229e+12 -6.08325e+12 -9.00758e+12 -1.02877e+13 -9.87764e+12 -7.82453e+12 -7.10834e+12 -4.79835e+12 -7.69245e+12 -4.34007e+12 -3.57573e+12 -7.76187e+12 -6.30918e+12 -5.98665e+12 -3.66028e+12 -1.04234e+13 -7.67898e+12 -6.65168e+12 -5.49872e+12 -3.5129e+12 -7.16099e+12 -7.582e+12 -6.34385e+12 -4.88189e+12 -5.92032e+12 -1.06768e+13 -6.24837e+12 -1.9479e+12 -6.32207e+12 -9.12178e+12 -1.03767e+13 -6.59191e+12 -5.2766e+12 -5.61625e+12 -5.92982e+12 -5.16924e+12 -7.38033e+12 -4.68467e+12 -7.83903e+12 -5.23577e+12 -4.54494e+12 -7.18065e+12 -4.46057e+12 -5.90587e+12 -6.79227e+12 -2.29223e+12 -4.14545e+12 -4.48819e+12 -3.45813e+12 -3.6607e+12 -4.59286e+12 -3.42407e+12 -4.20194e+12 -4.6399e+12 -3.15447e+12 -7.86289e+12 -5.66006e+12 -5.45418e+12 -3.34187e+12 -3.56721e+12 -4.60906e+12 -2.90575e+12 -5.53512e+12 -5.53539e+12 -4.56808e+12 -6.53269e+12 -4.15125e+12 -6.13328e+12 -4.89679e+12 -2.94999e+12 -6.09392e+12 -4.53952e+12 -4.52147e+12 -3.86305e+12 -4.84215e+12 -5.05354e+12 -4.66489e+12 -5.39793e+12 -2.9478e+12 -5.36244e+12 -4.57492e+12 -2.22774e+12 -2.51241e+12 -6.51169e+12 -5.95015e+12 -4.60767e+12 -1.99967e+12 -3.41235e+12 -4.20388e+12 -3.35318e+12 -5.07422e+12 -6.74723e+12 -2.48557e+12 -3.28741e+12 -4.97859e+12 -3.67858e+12 -4.71954e+12 -4.93067e+12 -1.07277e+13 -7.46852e+12 -6.77833e+12 -3.92346e+12 -4.508e+12 -5.94016e+12 -8.16611e+12 -3.99431e+12 -1.12375e+13 -3.16064e+12 -4.47336e+12 -5.49171e+12 -6.2352e+12 -7.52081e+12 -7.32174e+12 -4.31308e+12 -6.47938e+12 -1.14074e+13 -4.64045e+12 -6.01873e+12 -7.37793e+12 -1.25206e+13 -5.43028e+12 -3.54506e+12 -7.27412e+12 -6.21771e+12 -4.17458e+12 -5.73566e+12 -5.20766e+12 -5.38784e+12 -4.56421e+12 -5.10668e+12 -4.39379e+12 -6.27767e+12 -5.52396e+12 -8.87662e+12 -1.13266e+13 -9.13714e+12 -7.49007e+12 -6.97242e+12 -6.70599e+12 -6.44462e+12 -3.99792e+12 -3.87085e+12 -6.33196e+12 -3.36246e+12 -5.17057e+12 -4.43272e+12 -3.5803e+12 -7.0165e+12 -7.29208e+12 -4.36117e+12 -6.69468e+12 -5.7878e+12 -7.37102e+12 -8.31917e+12 -6.41868e+12 -8.48581e+12 -6.98183e+12 -4.3316e+12 -7.77327e+12 -6.45111e+12 -5.19299e+12 -4.56534e+12 -6.10122e+12 -6.53366e+12 -5.69299e+12 -6.54584e+12 -3.41703e+12 -4.97382e+12 -6.84394e+12 -3.88752e+12 -6.35244e+12 -6.88965e+12 -6.42598e+12 -3.9772e+12 -4.36085e+12 -6.65831e+12 -5.85245e+12 -4.83062e+12 -2.34622e+12 -2.66309e+12 -4.86525e+12 -4.07927e+12 -6.74734e+12 -3.69406e+12 -8.99476e+12 -3.83852e+12 -5.58308e+12 -5.31183e+12 -5.87997e+12 -7.86593e+12 -8.84059e+12 -4.45772e+12 -3.90385e+12 -2.74212e+12 -5.32346e+12 -5.22003e+12 -812397000000.0 -4.57526e+12 -8.345e+12 -7.17009e+12 -5.22219e+12 -2.72918e+12 -4.35106e+12 -3.87675e+12 -3.38609e+12 -1.19785e+12 -7.44301e+12 -4.47317e+12 -3.6347e+12 -4.31581e+12 -4.26132e+12 -2.57509e+12 -2.89719e+12 -6.93378e+12 -5.79777e+12 -4.44741e+12 -4.7705e+12 -3.89845e+12 -3.95318e+12 -4.5194e+12 -2.73876e+12 -5.90613e+12 -6.06278e+12 -5.59595e+12 -5.69127e+12 -4.64957e+12 -4.13841e+12 -4.25273e+12 -4.19307e+12 -3.87731e+12 -2.55131e+12 -6.31816e+12 -5.76232e+12 -2.86873e+12 -2.77761e+12 -4.95617e+12 -4.62045e+12 -4.60122e+12 -5.90416e+12 -3.84009e+12 -5.22752e+12 -5.14125e+12 -4.45946e+12 -6.09046e+12 -9.11619e+12 -3.47687e+12 -5.34658e+12 -3.90479e+12 -6.35494e+12 -4.60863e+12 -4.48842e+12 -6.30938e+12 -5.13594e+12 -5.66716e+12 -6.09955e+12 -6.6141e+12 -6.59204e+12 -5.52094e+12 -4.05245e+12 -4.05889e+12 -3.06873e+12 -5.29649e+12 -9.05244e+12 -9.07867e+12 -1.10813e+13 -7.52832e+12 -4.43409e+12 -7.99533e+12 -8.63717e+12 -6.03377e+12 -3.47404e+12 -1.03761e+13 -8.90511e+12 -7.41153e+12 -8.53591e+12 -9.0767e+12 -6.95464e+12 -5.14055e+12 -4.03269e+12 -4.92979e+12 -9.00907e+12 -4.66775e+12 -8.70105e+12 -8.00708e+12 -1.12414e+13 -1.26599e+13 -5.46079e+12 -6.69568e+12 -4.71906e+12 -7.61336e+12 -8.00414e+12 -4.88229e+12 -7.02781e+12 -5.64207e+12 -5.54999e+12 -4.93884e+12 -2.6398e+12 -5.38008e+12 -5.49904e+12 -6.41415e+12 -6.57945e+12 -5.60151e+12 -5.47423e+12 -4.98441e+12 -3.71149e+12 -3.98278e+12 -7.53522e+12 -5.14908e+12 -8.05158e+12 -6.93828e+12 -8.15852e+12 -4.56096e+12 -6.43634e+12 -7.00391e+12 -4.44336e+12 -5.7526e+12 -3.13297e+12 -5.41176e+12 -4.49595e+12 -5.39152e+12 -4.28584e+12 -6.26237e+12 -3.91019e+12 -5.7968e+12 -6.18437e+12 -9.01279e+12 -3.39632e+12 -4.82243e+12 -7.98919e+12 -7.8712e+12 -5.37172e+12 -8.4704e+12 -5.84788e+12 -6.24254e+12 -4.45961e+12 -8.52813e+12 -4.51207e+12 -5.57773e+12 -3.31345e+12 -3.74375e+12 -2.77836e+12 -3.51248e+12 -6.76478e+12 -5.73802e+12 -5.45816e+12 -6.33363e+12 -4.21867e+12 -4.40867e+12 -2.88142e+12 -3.90177e+12 -6.5817e+12 -5.60355e+12 -6.6494e+12 -4.72475e+12 -4.06663e+12 -4.70099e+12 -1.1364e+12 -4.06306e+12 -4.54606e+12 -5.08795e+12 -2.65075e+12 -3.71965e+12 -5.16702e+12 -4.90352e+12 -3.5333e+12 -3.23935e+12 -3.5102e+12 -3.16814e+12 -3.11428e+12 -4.0582e+12 -4.17316e+12 -3.25818e+12 -4.04881e+12 -4.9324e+12 -4.36196e+12 -2.85834e+12 -2.61843e+12 -5.80806e+12 -2.58421e+12 -4.08146e+12 -3.68011e+12 -1.8662e+12 -4.32181e+12 -2.21394e+12 -5.06319e+12 -1.79533e+12 -3.9607e+12 -3.8234e+12 -2.59717e+12 -2.61453e+12 -5.77296e+12 -2.70008e+12 -3.7847e+12 -3.86177e+12 -4.61786e+12 -4.21943e+12 -3.26055e+12 -2.22283e+12 -5.64481e+12 -5.89971e+12 -2.82751e+12 -4.78191e+12 -3.21607e+12 -5.16469e+12 -9.90636e+12 -4.88715e+12 -6.29299e+12 -4.45236e+12 -8.08155e+12 -2.59245e+12 -6.8802e+12 -9.03118e+12 -4.02551e+12 -4.14529e+12 -4.97058e+12 -6.30455e+12 -4.35051e+12 -3.75338e+12 -7.20961e+12 -5.49739e+12 -7.92246e+12 -3.55886e+12 -4.96707e+12 -3.21265e+12 -5.60768e+12 -3.88031e+12 -6.40676e+12 -5.54059e+12 -7.34746e+12 -5.11825e+12 -5.23349e+12 -5.64102e+12 -9.40324e+12 -1.15474e+13 -6.64924e+12 -6.61357e+12 -2.25209e+12 -5.87625e+12 -9.92867e+12 -4.60558e+12 -4.90286e+12 -6.28728e+12 -7.26703e+12 -5.34756e+12 -1.03786e+13 -6.10478e+12 -8.24512e+12 -6.77539e+12 -4.63155e+12 -9.25148e+12 -5.22483e+12 -8.75883e+12 -7.84419e+12 -3.23757e+12 -4.91963e+12 -6.23263e+12 -6.03926e+12 -8.28256e+12 -3.38486e+12 -4.65887e+12 -7.68575e+12 -5.02706e+12 -7.02296e+12 -6.58775e+12 -5.7378e+12 -5.40036e+12 -9.14936e+12 -4.12141e+12 -9.34879e+12 -7.41469e+12 -6.27861e+12 -8.12396e+12 -6.21983e+12 -7.12122e+12 -6.49323e+12 -5.5555e+12 -7.49336e+12 -6.33934e+12 -4.61697e+12 -5.0668e+12 -4.99381e+12 -9.00904e+12 -6.49558e+12 -7.19903e+12 -6.15025e+12 -1.04512e+13 -4.49316e+12 -1.01048e+13 -8.71396e+12 -4.36167e+12 -7.50777e+12 -8.57516e+12 -2.34093e+12 -5.02307e+12 -5.03917e+12 -4.21413e+12 -4.88366e+12 -3.92674e+12 -1.3129e+12 -5.88032e+12 -4.57106e+12 -3.27988e+12 -4.57824e+12 -5.07168e+12 -4.25788e+12 -3.63054e+12 -6.27261e+12 -4.57313e+12 -5.02949e+12 -4.07877e+12 -3.27838e+12 -2.66222e+12 -2.50391e+12 -4.3735e+12 -3.97645e+12 -3.36291e+12 -4.72336e+12 -5.66339e+12 -3.62044e+12 -2.97908e+12 -3.13511e+12 -2.48092e+12 -3.91065e+12 -3.57742e+12 -4.91896e+12 -2.25941e+12 -4.39448e+12 -4.17687e+12 -3.13397e+12 -5.10907e+12 -3.44155e+12 -3.65692e+12 -1.86583e+12 -3.13594e+12 -3.66453e+12 -6.6223e+12 -4.84212e+12 -3.5861e+12 -2.96635e+12 -4.35609e+12 -3.77289e+12 -3.14016e+12 -3.80183e+12 -3.94274e+12 -2.99517e+12 -3.57383e+12 -3.41144e+12 -4.05155e+12 -4.17239e+12 -3.93799e+12 -4.81839e+12 -7.17874e+12 -2.87111e+12 -3.99451e+12 -6.88022e+12 -4.86207e+12 -5.72984e+12 -4.6621e+12 -5.88312e+12 -4.46503e+12 -3.29999e+12 -6.34706e+12 -2.39231e+12 -3.66035e+12 -7.14298e+12 -3.98837e+12 -4.04089e+12 -5.79504e+12 -4.63258e+12 -3.75817e+12 -3.874e+12 -4.13278e+12 -6.09947e+12 -5.44363e+12 -6.01875e+12 -5.91217e+12 -8.20237e+12 -7.50381e+12 -5.05867e+12 -6.66081e+12 -7.52762e+12 -6.69204e+12 -5.81981e+12 -7.7275e+12 -4.06443e+12 -1.02232e+13 -6.01807e+12 -4.84584e+12 -8.35445e+12 -1.45983e+13 -7.84199e+12 -1.06157e+13 -9.40685e+12 -5.09921e+12 -7.64495e+12 -7.60257e+12 -6.34049e+12 -1.22198e+13 -5.84682e+12 -8.92779e+12 -4.81246e+12 -6.75146e+12 -2.97332e+12 -3.86838e+12 -2.94298e+12 -3.19992e+12 -6.79818e+12 -4.07658e+12 -9.97089e+12 -5.82736e+12 -4.86672e+12 -7.24558e+12 -5.4319e+12 -5.30065e+12 -8.40089e+12 -6.43612e+12 -4.90376e+12 -8.60573e+12 -8.5142e+12 -6.74393e+12 -5.99578e+12 -5.33476e+12 -5.38091e+12 -5.69726e+12 -4.23612e+12 -6.99071e+12 -5.23038e+12 -7.65807e+12 -5.19982e+12 -5.27423e+12 -4.16994e+12 -5.03278e+12 -7.01771e+12 -8.51859e+12 -4.28185e+12 -4.41597e+12 -5.36464e+12 -3.29199e+12 -4.48807e+12 -6.64506e+12 -3.61968e+12 -7.02929e+12 -5.84999e+12 -2.91757e+12 -5.05331e+12 -7.08807e+12 -4.56931e+12 -3.71936e+12 -3.59884e+12 -5.18735e+12 -5.87771e+12 -4.38781e+12 -4.00188e+12 -4.38412e+12 -4.06603e+12 -3.26461e+12 -5.55322e+12 -4.12406e+12 -6.0334e+12 -2.9807e+12 -4.39944e+12 -4.88046e+12 -3.98782e+12 -4.04603e+12 -2.997e+12 -2.30432e+12 -3.09591e+12 -4.87664e+12 -3.65149e+12 -3.56945e+12 -4.43586e+12 -2.9948e+12 -1.71525e+12 -3.84477e+12 -3.84064e+12 -3.71285e+12 -4.16646e+12 -4.27762e+12 -3.79029e+12 -4.19968e+12 -1.07413e+12 -3.28428e+12 -3.64398e+12 -3.97464e+12 -3.04203e+12 -4.53555e+12 -6.12861e+12 -3.78297e+12 -3.53177e+12 -3.34385e+12 -3.51507e+12 -3.45445e+12 -2.2693e+12 -3.52315e+12 -3.49552e+12 -4.37003e+12 -2.99707e+12 -4.12139e+12 -6.83419e+12 -3.34615e+12 -4.81245e+12 -3.12815e+12 -3.86484e+12 -7.12532e+12 -4.39783e+12 -3.42224e+12 -5.51339e+12 -5.42462e+12 -4.15548e+12 -7.01817e+12 -7.05676e+12 -3.7515e+12 -5.0377e+12 -4.95767e+12 -4.78633e+12 -5.72804e+12 -3.4238e+12 -4.16742e+12 -6.39964e+12 -4.01083e+12 -4.4763e+12 -4.12677e+12 -5.38619e+12 -7.66508e+12 -6.40378e+12 -5.96611e+12 -7.14426e+12 -5.99383e+12 -5.31658e+12 -5.44682e+12 -9.39689e+12 -5.68994e+12 -7.22769e+12 -6.15893e+12 -5.64867e+12 -4.14014e+12 -6.73383e+12 -1.15116e+13 -3.50886e+12 -5.93521e+12 -7.20485e+12 -5.54527e+12 -6.43167e+12 -8.04192e+12 -1.00922e+13 -1.14344e+13 -6.29116e+12 -2.71392e+12 -4.41094e+12 -6.64058e+12 -5.75636e+12 -2.10583e+12 -4.33407e+12 -6.50879e+12 -3.67713e+12 -1.03362e+13 -5.07636e+12 -4.2631e+12 -4.38781e+12 -5.39782e+12 -5.27758e+12 -8.06901e+12 -6.22506e+12 -5.65091e+12 -6.67083e+12 -9.75624e+12 -4.0407e+12 -2.54361e+12 -6.50695e+12 -4.66391e+12 -4.66538e+12 -3.82429e+12 -4.1841e+12 -5.01926e+12 -5.88794e+12 -2.82218e+12 -5.78697e+12 -4.78627e+12 -3.78046e+12 -6.0758e+12 -3.72652e+12 -2.36311e+12 -6.79673e+12 -5.09352e+12 -2.59185e+12 -2.2156e+12 -2.42155e+12 -4.42875e+12 -8.45256e+12 -5.6117e+12 -4.11115e+12 -6.58186e+12 -6.87931e+12 -4.93693e+12 -5.22984e+12 -7.17341e+12 -2.52686e+12 -2.08674e+12 -4.26794e+12 -3.7343e+12 -2.84249e+12 -2.68604e+12 -1.93789e+12 -4.57081e+12 -4.52593e+12 -3.23292e+12 -1.7515e+12 -4.73085e+12 -2.90046e+12 -3.45876e+12 -3.65705e+12 -2.37424e+12 -3.58749e+12 -2.07428e+12 -2.86617e+12 -3.63414e+12 -3.86706e+12 -2.46256e+12 -2.53166e+12 -2.76826e+12 -1.2364e+12 -3.46964e+12 -2.97529e+12 -2.15193e+12 -3.61637e+12 -3.8375e+12 -2.76077e+12 -3.27887e+12 -3.91585e+12 -2.90951e+12 -1.57006e+12 -2.20504e+12 -3.21163e+12 -2.12156e+12 -3.77225e+12 -2.28077e+12 -3.76762e+12 -6.48039e+12 -2.81333e+12 -4.5736e+12 -3.71697e+12 -5.56368e+12 -4.14796e+12 -4.13124e+12 -3.64066e+12 -1.83242e+12 -4.45876e+12 -5.76895e+12 -2.58786e+12 -2.22064e+12 -3.67771e+12 -1.76378e+12 -3.17965e+12 -4.54261e+12 -5.01851e+12 -3.08723e+12 -4.77762e+12 -4.69416e+12 -3.95252e+12 -5.28862e+12 -2.23141e+12 -4.68692e+12 -2.41027e+12 -4.34831e+12 -3.6826e+12 -2.90567e+12 -6.8921e+12 -4.89186e+12 -4.30912e+12 -5.76755e+12 -6.0371e+12 -6.16844e+12 -5.26482e+12 -2.40802e+12 -5.20157e+12 -4.95033e+12 -4.80907e+12 -3.53303e+12 -5.43789e+12 -5.79668e+12 -7.03255e+12 -5.77234e+12 -5.94548e+12 -688200000000.0 -6.4721e+12 -7.66167e+12 -7.06036e+12 -5.86444e+12 -5.76984e+12 -4.91076e+12 -6.79809e+12 -7.53495e+12 -7.48463e+12 -7.13469e+12 -4.60378e+12 -6.57274e+12 -6.11777e+12 -6.39754e+12 -2.90512e+12 -7.05834e+12 -4.31699e+12 -5.93759e+12 -5.56452e+12 -4.86255e+12 -5.36209e+12 -4.49377e+12 -9.0558e+12 -8.34645e+12 -7.06719e+12 -3.03245e+12 -4.87911e+12 -2.54105e+12 -1.30247e+12 -3.91306e+12 -7.73337e+12 -5.31728e+12 -6.98906e+12 -2.79131e+12 -5.9268e+12 -5.14801e+12 -5.88145e+12 -5.0081e+12 -6.23558e+12 -4.50536e+12 -4.33421e+12 -6.07435e+12 -6.36616e+12 -3.80444e+12 -3.52806e+12 -4.32902e+12 -8.76747e+12 -4.54938e+12 -6.45308e+12 -5.41426e+12 -7.20245e+12 -4.54635e+12 -3.73533e+12 -4.42071e+12 -4.40291e+12 -3.77336e+12 -3.82375e+12 -6.20051e+12 -5.64686e+12 -8.59925e+12 -3.43785e+12 -5.06146e+12 -5.51303e+12 -6.26232e+12 -6.96134e+12 -5.82878e+12 -4.95155e+12 -3.07826e+12 -5.43444e+12 -4.41168e+12 -5.12196e+12 -3.27377e+12 -4.46703e+12 -7.49124e+12 -3.19963e+12 -2.50095e+12 -3.13279e+12 -2.38897e+12 -4.00144e+12 -5.61736e+12 -5.23825e+12 -4.14759e+12 -3.40952e+12 -3.22881e+12 -3.46501e+12 -4.78261e+12 -2.97088e+12 -4.24408e+12 -4.12079e+12 -1.85684e+12 -2.24238e+12 -3.28709e+12 -3.70309e+12 -4.3409e+12 -2.38262e+12 -2.18831e+12 -2.83997e+12 -4.16285e+12 -1.50883e+12 -4.40668e+12 -3.28008e+12 -3.69928e+12 -3.8613e+12 -2.20697e+12 -3.01883e+12 -1.15815e+12 -2.83097e+12 -2.2592e+12 -2.65037e+12 -3.31126e+12 -4.15096e+12 -4.55725e+12 -3.54919e+12 -2.93665e+12 -1.90962e+12 -1.98567e+12 -3.55537e+12 -2.62322e+12 -5.74348e+12 -5.28089e+12 -1.74189e+12 -3.5065e+12 -5.59563e+12 -3.92349e+12 -5.34046e+12 -4.84043e+12 -5.4652e+12 -4.38831e+12 -5.40741e+12 -5.43857e+12 -4.34436e+12 -5.56776e+12 -5.36116e+12 -4.46549e+12 -3.70048e+12 -6.51941e+12 -4.04152e+12 -4.77602e+12 -3.153e+12 -4.77317e+12 -4.75513e+12 -6.61966e+12 -6.50887e+12 -6.67211e+12 -8.66746e+12 -4.78063e+12 -3.54581e+12 -6.49354e+12 -3.06629e+12 -2.84214e+12 -5.5731e+12 -4.85271e+12 -7.24659e+12 -5.25211e+12 -5.88854e+12 -5.29004e+12 -7.06445e+12 -3.61399e+12 -3.46405e+12 -4.46402e+12 -5.1582e+12 -3.17929e+12 -4.25241e+12 -7.88447e+12 -4.62792e+12 -7.45462e+12 -6.09382e+12 -5.73848e+12 -7.61484e+12 -8.57816e+12 -4.68345e+12 -5.92514e+12 -2.45892e+12 -4.75399e+12 -3.89732e+12 -4.94143e+12 -7.10964e+12 -6.66162e+12 -7.26129e+12 -6.52836e+12 -7.99647e+12 -6.16259e+12 -4.06848e+12 -4.1199e+12 -4.16395e+12 -8.6015e+12 -3.77211e+12 -5.40176e+12 -4.39954e+12 -4.73254e+12 -3.25262e+12 -5.49467e+12 -5.67085e+12 -4.34356e+12 -4.58567e+12 -4.86921e+12 -3.14822e+12 -4.29063e+12 -3.82718e+12 -1.86121e+12 -4.73083e+12 -5.85762e+12 -5.71498e+12 -8.61944e+12 -4.29798e+12 -3.95949e+12 -2.86165e+12 -4.6383e+12 -6.21141e+12 -5.94466e+12 -4.28014e+12 -3.63735e+12 -5.11367e+12 -5.44223e+12 -3.77481e+12 -4.60709e+12 -3.69815e+12 -3.99645e+12 -4.42686e+12 -3.76566e+12 -5.05937e+12 -4.66597e+12 -1.85151e+12 -5.20478e+12 -4.77468e+12 -5.64066e+12 -4.49512e+12 -2.84079e+12 -4.29717e+12 -3.79839e+12 -3.7816e+12 -3.83084e+12 -3.6161e+12 -4.54597e+12 -4.20227e+12 -3.14639e+12 -2.28719e+12 -2.74232e+12 -3.87761e+12 -1.93089e+12 -1.65978e+12 -2.67498e+12 -1.57808e+12 -2.54972e+12 -3.01642e+12 -1.66269e+12 -2.3424e+12 -2.61345e+12 -2.19301e+12 -1.12367e+12 -2.40947e+12 -2.86753e+12 -3.39114e+12 -2.63386e+12 -4.31834e+12 -2.9962e+12 -2.58062e+12 -2.46605e+12 -3.49578e+12 -2.1694e+12 -639407000000.0 -3.18986e+12 -1.55207e+12 -2.65592e+12 -2.18834e+12 -3.5063e+12 -4.299e+12 -3.93283e+12 -6.40999e+12 -1.44005e+12 -3.73135e+12 -5.93756e+12 -3.31324e+12 -2.62468e+12 -4.57487e+12 -2.25094e+12 -5.21149e+12 -3.74566e+12 -5.40733e+12 -3.99784e+12 -3.28445e+12 -4.62516e+12 -5.96722e+12 -5.93031e+12 -5.36404e+12 -2.7545e+12 -3.12306e+12 -4.21657e+12 -4.9525e+12 -5.38454e+12 -4.74872e+12 -4.19414e+12 -4.49598e+12 -5.10209e+12 -6.7539e+12 -4.96356e+12 -4.34418e+12 -6.33508e+12 -5.14917e+12 -6.12817e+12 -4.95192e+12 -5.32464e+12 -7.22967e+12 -7.35467e+12 -5.92479e+12 -3.04665e+12 -3.6103e+12 -8.3017e+12 -4.50765e+12 -5.44007e+12 -4.26561e+12 -5.19391e+12 -7.18105e+12 -4.19955e+12 -3.82601e+12 -6.72573e+12 -4.41285e+12 -6.68724e+12 -4.67361e+12 -6.2145e+12 -2.629e+12 -2.54317e+12 -4.82776e+12 -2.98817e+12 -5.61338e+12 -5.49895e+12 -5.89267e+12 -8.92059e+12 -5.16882e+12 -4.38414e+12 -3.8968e+12 -4.11143e+12 -3.30931e+12 -3.97929e+12 -5.60576e+12 -5.52895e+12 -3.80601e+12 -6.51132e+12 -3.41689e+12 -5.78175e+12 -1.95431e+12 -4.0212e+12 -5.32403e+12 -3.32057e+12 -5.57016e+12 -4.32236e+12 -4.28016e+12 -3.1388e+12 -4.69657e+12 -4.57208e+12 -4.31025e+12 -4.72447e+12 -4.72827e+12 -5.82763e+12 -2.55599e+12 -3.44193e+12 -3.7269e+12 -4.4976e+12 -3.78819e+12 -2.55235e+12 -4.51469e+12 -3.80088e+12 -2.03634e+12 -5.11191e+12 -4.86595e+12 -5.38315e+12 -3.02364e+12 -3.93126e+12 -2.88988e+12 -2.23262e+12 -2.58026e+12 -1.21997e+12 -1.49653e+12 -3.08884e+12 -2.88839e+12 -1.30532e+12 -2.75171e+12 -3.42314e+12 -1.08514e+12 -2.17985e+12 -1.94547e+12 -1.0808e+12 -2.9723e+12 -2.56428e+12 -1.77876e+12 -2.63021e+12 -1.83944e+12 -2.26411e+12 -3.0392e+12 -2.55886e+12 -2.48418e+12 -2.313e+12 -889606000000.0 -1.10837e+12 -2.4601e+12 -1.14561e+12 -2.17747e+12 -2.17883e+12 -2.48326e+12 -1.59229e+12 -2.30286e+12 -3.99732e+12 -2.97959e+12 -4.06534e+12 -2.22342e+12 -3.43517e+12 -2.60592e+12 -1.54247e+12 -1.0455e+12 -1.91141e+12 -3.26376e+12 -2.16087e+12 -2.58578e+12 -3.64668e+12 -3.90493e+12 -3.09748e+12 -2.7195e+12 -2.81435e+12 -1.80515e+12 -2.77204e+12 -3.66112e+12 -3.25218e+12 -3.46144e+12 -3.36265e+12 -4.80485e+12 -1.7811e+12 -6.11907e+12 -5.21581e+12 -2.14766e+12 -5.11583e+12 -6.03886e+12 -2.22513e+12 -4.62102e+12 -2.96956e+12 -4.0878e+12 -4.65899e+12 -4.33213e+12 -4.31395e+12 -3.19677e+12 -4.35197e+12 -2.75166e+12 -3.50841e+12 -4.37641e+12 -4.33659e+12 -4.04048e+12 -5.59067e+12 -3.4869e+12 -6.26819e+12 -3.139e+12 -5.59343e+12 -5.99459e+12 -9.07801e+12 -4.67073e+12 -4.23565e+12 -4.50814e+12 -4.47535e+12 -5.65655e+12 -5.26705e+12 -7.36539e+12 -5.68782e+12 -1.97864e+12 -4.20159e+12 -5.81425e+12 -3.20023e+12 -3.24064e+12 -4.95504e+12 -4.25408e+12 -4.11329e+12 -6.62893e+12 -4.34261e+12 -3.33485e+12 -4.2093e+12 -7.338e+12 -1.15193e+12 -4.76204e+12 -3.6571e+12 -2.04301e+12 -5.13513e+12 -1.22038e+12 -5.0222e+12 -1.30336e+12 -4.20511e+12 -3.77292e+12 -4.37494e+12 -3.9034e+12 -3.52981e+12 -3.10833e+12 -3.45107e+12 -2.70151e+12 -4.08129e+12 -3.98181e+12 -5.30044e+12 -3.26363e+12 -5.60606e+12 -4.74882e+12 -2.70503e+12 -5.34613e+12 -3.92778e+12 -3.10825e+12 -2.78441e+12 -2.86632e+12 -2.50078e+12 -3.61998e+12 -3.2696e+12 -2.60104e+12 -2.486e+12 -3.449e+12 -1.97119e+12 -2.99235e+12 -4.31222e+12 -2.14484e+12 -2.09305e+12 -2.76612e+12 -1.55593e+12 -1.51313e+12 -2.6149e+12 -1.4696e+12 -1.20062e+12 -1.77505e+12 -1.89608e+12 -1.16391e+12 -2.48712e+12 -1.57818e+12 -1.77206e+12 -2.34525e+12 -2.53117e+12 -1.75208e+12 -2.92074e+12 -4.16445e+12 -1.93706e+12 -3.02942e+12 -1.34085e+12 -1.71411e+12 -3.11032e+12 -2.47186e+12 -2.19326e+12 -2.57586e+12 -3.28794e+12 -2.10781e+12 -2.05958e+12 -1.24576e+12 -2.15958e+12 -1.7343e+12 -5.25529e+12 -2.42405e+12 -1.01336e+12 -3.44016e+12 -2.85239e+12 -4.39465e+12 -2.70233e+12 -3.09356e+12 -1.22172e+12 -3.53808e+12 -5.62031e+12 -1.9476e+12 -3.20369e+12 -2.81701e+12 -1.30447e+12 -1.35604e+12 -5.46649e+12 -5.83295e+12 -1.84402e+12 -3.61329e+12 -3.4087e+12 -5.6441e+12 -4.32349e+12 -4.44315e+12 -4.40777e+12 -1.82405e+12 -394731000000.0 -4.16753e+12 -3.72844e+12 -4.28269e+12 -3.37829e+12 -5.32703e+12 -4.83916e+12 -7.24518e+12 -3.90115e+12 -3.94527e+12 -4.09685e+12 -4.43373e+12 -5.54041e+12 -6.62767e+12 -2.99417e+12 -2.98781e+12 -5.7836e+12 -4.92512e+12 -3.03955e+12 -6.13317e+12 -4.45349e+12 -7.52437e+12 -5.2637e+12 -7.26378e+12 -3.98124e+12 -4.7217e+12 -3.39196e+12 -5.52308e+12 -4.94138e+12 -3.73197e+12 -6.73732e+12 -4.60859e+12 -5.183e+12 -5.19265e+12 -3.94263e+12 -5.04199e+12 -4.43309e+12 -4.79032e+12 -5.9491e+12 -3.11153e+12 -2.06398e+12 -5.46142e+12 -4.15631e+12 -4.55885e+12 -3.81362e+12 -3.5602e+12 -3.79135e+12 -2.63333e+12 -2.43918e+12 -3.29743e+12 -1.66309e+12 -1.15981e+12 -2.80251e+12 -4.96688e+12 -2.24863e+12 -1.7445e+12 -4.19024e+12 -4.17719e+12 -6.05412e+12 -3.20234e+12 -2.90406e+12 -2.59925e+12 -1.69938e+12 -2.71691e+12 -2.90443e+12 -2.54571e+12 -5.21309e+12 -3.53331e+12 -3.30024e+12 -2.05673e+12 -1.86955e+12 -3.84547e+12 -2.41894e+12 -3.42765e+12 -1.28778e+12 -2.10892e+12 -2.17889e+12 -1.1812e+12 -1.8647e+12 -2.88049e+12 -1.05768e+12 -1.75538e+12 -974924000000.0 -1.56067e+12 -1.3068e+12 -1.89576e+12 -2.63607e+12 -888857000000.0 -2.29501e+12 -1.86334e+12 -1.46295e+12 -1.48211e+12 -2.02927e+12 -1.95253e+12 -1.88217e+12 -1.72485e+12 -3.27152e+12 -4.17304e+12 -1.52392e+12 -2.54925e+12 -862453000000.0 -2.01676e+12 -1.88119e+12 -798371000000.0 -1.34534e+12 -1.73549e+12 -1.75508e+12 -593772000000.0 -3.3652e+12 -4.25101e+12 -2.56553e+12 -2.94597e+12 -1.56695e+12 -1.84787e+12 -1.97536e+12 -3.97104e+12 -3.27566e+12 -2.50588e+12 -2.98202e+12 -2.50693e+12 -2.1098e+12 -1.70703e+12 -4.29487e+12 -5.38289e+12 -1.7035e+12 -1.72057e+12 -1.98222e+12 -1.9307e+12 -4.09075e+12 -2.64557e+12 -2.0156e+12 -1.84949e+12 -1.57815e+12 -4.14541e+12 -2.92383e+12 -1.5711e+12 -5.05045e+12 -4.00914e+12 -4.49774e+12 -2.50318e+12 -2.25406e+12 -3.91193e+12 -4.39981e+12 -2.41257e+12 -5.92203e+12 -4.82339e+12 -3.34196e+12 -3.48579e+12 -2.37359e+12 -3.04391e+12 -2.74868e+12 -3.28032e+12 -4.24353e+12 -4.44486e+12 -3.62321e+12 -3.80713e+12 -3.74288e+12 -2.8625e+12 -3.84766e+12 -2.6014e+12 -3.35486e+12 -2.6319e+12 -3.34172e+12 -6.63075e+12 -6.46232e+12 -5.93263e+12 -3.59188e+12 -2.77086e+12 -1.99297e+12 -5.10562e+12 -3.75767e+12 -1.86577e+12 -3.90542e+12 -5.61564e+12 -5.59661e+12 -6.30544e+12 -3.3545e+12 -3.25551e+12 -3.44948e+12 -3.33014e+12 -6.95788e+12 -4.04992e+12 -4.79687e+12 -3.13589e+12 -4.08166e+12 -3.69904e+12 -3.22661e+12 -4.39458e+12 -3.33542e+12 -4.64557e+12 -2.72802e+12 -1.15936e+12 -1.60098e+12 -4.20094e+12 -4.20725e+12 -2.68564e+12 -1.2322e+12 -4.48122e+12 -3.40145e+12 -3.85166e+12 -2.09567e+12 -2.60458e+12 -1.34567e+12 -1.32398e+12 -4.09993e+12 -2.82687e+12 -1.45257e+12 -3.23438e+12 -2.26074e+12 -2.09604e+12 -1.49183e+12 -3.11402e+12 -2.45009e+12 -2.74078e+12 -2.58246e+12 -2.0939e+12 -2.51171e+12 -1.24008e+12 -1.42046e+12 -1.06893e+12 -1.08551e+12 -1.50082e+12 -1.51172e+12 -2.04396e+12 -827751000000.0 -1.24837e+12 -667834000000.0 -683449000000.0 -1.93862e+12 -1.8879e+12 -1.39322e+12 -1.79256e+12 -858922000000.0 -1.01065e+12 -1.16708e+12 -2.59358e+12 -2.18232e+12 -2.87086e+12 -3.60886e+12 -1.34709e+12 -2.34428e+12 -1.82384e+12 -2.39621e+12 -2.02642e+12 -2.18289e+12 -1.77e+12 -2.38711e+12 -2.34743e+12 -1.92641e+12 -2.42991e+12 -2.65546e+12 -2.58565e+12 -1.95433e+12 -3.34271e+12 -3.45152e+12 -2.46971e+12 -2.0522e+12 -1.38491e+12 -2.46327e+12 -2.49553e+12 -3.09738e+12 -1.83934e+12 -2.39115e+12 -2.9545e+12 -2.81337e+12 -5.25117e+12 -3.40126e+12 -5.10398e+12 -1.96863e+12 -1.68953e+12 -3.45528e+12 -2.05403e+12 -3.77469e+12 -1.52608e+12 -4.79958e+12 -4.78684e+12 -4.91275e+12 -3.2295e+12 -4.02313e+12 -2.99457e+12 -3.35299e+12 -2.41542e+12 -3.58322e+12 -4.25025e+12 -5.09001e+12 -3.86065e+12 -4.56859e+12 -2.13711e+12 -5.4878e+12 -3.5422e+12 -4.29303e+12 -3.42334e+12 -4.76854e+12 -3.05928e+12 -7.48406e+12 -2.09116e+12 -2.73963e+12 -3.73039e+12 -5.02548e+12 -4.78363e+12 -2.0303e+12 -1.01101e+12 -4.1178e+12 -4.79722e+12 -2.89333e+12 -3.76741e+12 -3.70288e+12 -1.04663e+12 -3.73495e+12 -3.23825e+12 -4.132e+12 -2.49944e+12 -3.04033e+12 -2.67643e+12 -3.47429e+12 -2.95045e+12 -2.18373e+12 -1.52678e+12 -4.94585e+12 -4.67541e+12 -3.42762e+12 -1.66905e+12 -2.21903e+12 -3.23048e+12 -3.5813e+12 -2.54599e+12 -3.06885e+12 -2.92038e+12 -2.65551e+12 -2.30608e+12 -1.8102e+12 -2.70157e+12 -1.91983e+12 -2.00314e+12 -1.72303e+12 -350346000000.0 -2.32745e+12 -2.41798e+12 -1.69876e+12 -1.72125e+12 -944693000000.0 -2.13111e+12 -817041000000.0 -1.26841e+12 -979838000000.0 -1.75168e+12 -1.52329e+12 -2.63944e+12 -1.73123e+12 -832643000000.0 -1.39356e+12 -1.74893e+12 -1.65373e+12 -1.77326e+12 -1.41952e+12 -2.0111e+12 -1.75242e+12 -1.56327e+12 -797264000000.0 -1.37976e+12 -1.36873e+12 -2.0663e+12 -1.54143e+12 -1.3181e+12 -1.24621e+12 -1.38529e+12 -1.70225e+12 -3.01519e+12 -2.25233e+12 -1.19085e+12 -822989000000.0 -1.35905e+12 -2.06704e+12 -2.5003e+12 -3.57604e+12 -2.27297e+12 -3.96559e+12 -1.84735e+12 -3.37944e+12 -3.229e+12 -2.92889e+12 -1.52367e+12 -1.66318e+12 -2.66499e+12 -1.66662e+12 -1.92866e+12 -2.24099e+12 -2.73216e+12 -4.4169e+12 -2.59285e+12 -1.92128e+12 -4.75592e+12 -3.19834e+12 -1.66942e+12 -1.39656e+12 -2.59882e+12 -3.27881e+12 -3.26931e+12 -1.69695e+12 -2.85887e+12 -3.59234e+12 -2.08587e+12 -3.32304e+12 -2.24705e+12 -2.02151e+12 -3.96828e+12 -2.78452e+12 -3.44284e+12 -5.89099e+12 -3.42208e+12 -2.83484e+12 -2.76309e+12 -1.72417e+12 -5.04182e+12 -2.6774e+12 -4.36064e+12 -1.63542e+12 -1.83045e+12 -4.63785e+12 -3.20432e+12 -2.3334e+12 -2.9514e+12 -4.08664e+12 -1.75569e+12 -2.84559e+12 -2.66379e+12 -2.39947e+12 -3.55112e+12 -3.14914e+12 -3.31057e+12 -3.5536e+12 -1.18973e+12 -3.35383e+12 -4.40301e+12 -1.91144e+12 -1.44389e+12 -3.49783e+12 -3.4732e+12 -1.87312e+12 -502426000000.0 -1.74402e+12 -3.63963e+12 -2.8012e+12 -2.45187e+12 -2.35816e+12 -1.10589e+12 -1.42144e+12 -2.12671e+12 -990284000000.0 -2.42512e+12 -2.27931e+12 -1.1342e+12 -2.202e+12 -1.51085e+12 -2.87016e+12 -985561000000.0 -1.45148e+12 -2.04816e+12 -2.16453e+12 -1.43861e+12 -1.68593e+12 -1.54647e+12 -468082000000.0 -1.73893e+12 -995907000000.0 -1.57946e+12 -798082000000.0 -1.79676e+12 -500897000000.0 -1.90696e+12 -1.01126e+12 -2.62457e+12 -1.04556e+12 -1.43849e+12 -1.35712e+12 -688620000000.0 -1.49335e+12 -1.13124e+12 -2.47317e+12 -1.8454e+12 -1.24698e+12 -881388000000.0 -1.59881e+12 -367770000000.0 -2.0377e+12 -616748000000.0 -523356000000.0 -916736000000.0 -931108000000.0 -1.18416e+12 -665692000000.0 -2.29608e+12 -1.25855e+12 -1.81136e+12 -1.89849e+12 -2.10084e+12 -1.91785e+12 -212125000000.0 -1.38357e+12 -3.02517e+12 -3.3259e+12 -2.16989e+12 -2.18842e+12 -988196000000.0 -2.17723e+12 -2.33297e+12 -2.98894e+12 -1.99924e+12 -1.1072e+12 -1.90963e+12 -2.63155e+12 -2.48456e+12 -1.11474e+12 -3.58827e+12 -3.30478e+12 -2.93649e+12 -2.51311e+12 -2.87564e+12 -1.69265e+12 -3.029e+12 -3.322e+12 -1.48576e+12 -3.11495e+12 -953616000000.0 -2.35066e+12 -2.73509e+12 -2.04043e+12 -4.86725e+12 -2.10316e+12 -4.35125e+12 -4.19082e+12 -3.17731e+12 -2.82347e+12 -1.0829e+12 -3.1509e+12 -1.40488e+12 -2.93954e+12 -3.66962e+12 -1.75344e+12 -1.22335e+12 -2.93489e+12 -1.40102e+12 -2.33036e+12 -1.57258e+12 -3.45963e+12 -3.25679e+12 -1.57759e+12 -2.09957e+12 -2.09031e+12 -2.73987e+12 -1.82299e+12 -2.35169e+12 -2.10603e+12 -1.30479e+12 -1.06965e+12 -1.81574e+12 -471370000000.0 -1.7721e+12 -2.22864e+12 -2.1125e+12 -1.77016e+12 -1.56725e+12 -1.90584e+12 -2.53178e+12 -1.49015e+12 -1.49306e+12 -1.72578e+12 -2.8244e+12 -1.80434e+12 -1.33586e+12 -1.08825e+12 -1.3164e+12 -1.52879e+12 -1.2331e+12 -1.43961e+12 -999245000000.0 -1.55383e+12 -1.66586e+12 -357679000000.0 -1.02732e+12 -857970000000.0 -1.55897e+12 -1.53604e+12 -865784000000.0 -530918000000.0 -889305000000.0 -379122000000.0 -1.11028e+12 -1.83266e+12 -859241000000.0 -913211000000.0 -1.56019e+12 -116578000000.0 -1.30019e+12 -1.75954e+12 -1.10952e+12 -997572000000.0 -683764000000.0 -1.00023e+12 -255043000000.0 -600167000000.0 -537570000000.0 -722423000000.0 -1.79666e+12 -1.80666e+12 -1.64921e+12 -597785000000.0 -668926000000.0 -1.57201e+12 -1.24228e+12 -2.10752e+12 -1.37695e+12 -775638000000.0 -1.15107e+12 -1.57246e+12 -1.24891e+12 -2.52818e+12 -1.84292e+12 -1.71844e+12 -1.30342e+12 -1.27624e+12 -2.24587e+12 -3.40055e+12 -1.2411e+12 -392794000000.0 -661259000000.0 -1.85872e+12 -1.28064e+12 -1.69969e+12 -2.4539e+12 -1.21771e+12 -2.00307e+12 -2.76501e+12 -629573000000.0 -1.91629e+12 -351637000000.0 -2.46971e+12 -3.5752e+12 -1.92747e+12 -1.61072e+12 -2.85983e+12 -1.35235e+12 -2.96812e+12 -3.11621e+12 -1.76769e+12 -2.32331e+12 -796336000000.0 -1.8576e+12 -3.40656e+12 -2.48004e+12 -2.10446e+12 -2.11458e+12 -1.03126e+12 -3.60331e+12 -1.445e+12 -1.67986e+12 -1.40834e+12 -3.28071e+12 -1.68515e+12 -4.64301e+12 -1.63496e+12 -1.99108e+12 -1.97942e+12 -1.6998e+12 -1.87385e+12 -2.48478e+12 -2.18861e+12 -1.97327e+12 -435562000000.0 -2.05289e+12 -1.70394e+12 -1.42064e+12 -3.27957e+12 -1.84626e+12 -1.58352e+12 -1.18091e+12 -283743000000.0 -1.02801e+12 -2.91928e+12 -1.77558e+12 -1.0108e+12 -1.90742e+12 -2.43999e+12 -1.80419e+12 -1.38594e+12 -1.83569e+12 -1.71375e+12 -2.1811e+12 -2.70896e+12 -1.60129e+12 -1.11459e+12 -1.90552e+12 -2.10348e+12 -1.12881e+12 -2.61518e+12 -152302000000.0 -859997000000.0 -1.10071e+12 -1.34204e+12 -608908000000.0 -1.12554e+12 -1.00625e+12 -1.13569e+12 -394769000000.0 -715276000000.0 -955920000000.0 -382908000000.0 -814375000000.0 -413176000000.0 -274106000000.0 -795010000000.0 -737221000000.0 -633122000000.0 -177906000000.0 -339890000000.0 -182421000000.0 -979221000000.0 -517135000000.0 -568954000000.0 -717871000000.0 -260976000000.0 -376420000000.0 -388676000000.0 -597107000000.0 -465036000000.0 -854378000000.0 -893079000000.0 -258582000000.0 -763576000000.0 -513644000000.0 -991489000000.0 -529344000000.0 -1.253e+12 -1.03212e+12 -1.42373e+12 -724557000000.0 -457181000000.0 -786760000000.0 -987188000000.0 -1.17478e+12 -704289000000.0 -1.2972e+12 -2.21569e+12 -2.02385e+12 -1.34622e+12 -1.55133e+12 -1.80341e+12 -1.32964e+12 -1.5977e+12 -1.12924e+12 -1.19084e+12 -1.25099e+12 -1.56446e+12 -1.97588e+12 -1.8358e+12 -2.79394e+12 -1.43448e+12 -1.27131e+12 -2.56513e+12 -1.34281e+12 -2.1409e+12 -2.2408e+12 -2.42504e+12 -2.35694e+12 -1.13067e+12 -1.82648e+12 -1.02494e+12 -2.39324e+12 -2.66075e+12 -1.891e+12 -1.3132e+12 -2.45302e+12 -3.57104e+12 -2.47767e+12 -513905000000.0 -2.0943e+12 -427441000000.0 -2.29142e+12 -1.96287e+12 -3.09552e+12 -1.23311e+12 -1.55957e+12 -1.40408e+12 -1.40032e+12 -521615000000.0 -1.52474e+12 -760692000000.0 -1.7987e+12 -1.98295e+12 -1.03551e+12 -1.4143e+12 -1.69997e+12 -691312000000.0 -1.41928e+12 -1.31129e+12 -1.42868e+12 -641127000000.0 -2.00195e+12 -1.55727e+12 -1.92928e+12 -854372000000.0 -986835000000.0 -1.97455e+12 -1.83298e+12 -712402000000.0 -1.29822e+12 -1.17818e+12 -959746000000.0 -1.87765e+12 -2.20151e+12 -804634000000.0 -806033000000.0 -357235000000.0 -1.12548e+12 -1.33187e+12 -440300000000.0 -625404000000.0 -977562000000.0 -619839000000.0 -613069000000.0 -152709000000.0 -522971000000.0 -301367000000.0 -296079000000.0 -179103000000.0 -325998000000.0 -336364000000.0 -245238000000.0 -411929000000.0 -211737000000.0 -391992000000.0 -495325000000.0 -568252000000.0 -703742000000.0 -353202000000.0 -475769000000.0 -330430000000.0 -185449000000.0 -246999000000.0 -196115000000.0 -616492000000.0 -822373000000.0 -206814000000.0 -614350000000.0 -359210000000.0 -314131000000.0 -1.20183e+12 -319840000000.0 -595694000000.0 -915635000000.0 -610954000000.0 -694644000000.0 -1.42676e+12 -839000000000.0 -1.49095e+12 -1.06073e+12 -502201000000.0 -859840000000.0 -623535000000.0 -727263000000.0 -554523000000.0 -724286000000.0 -1.25373e+12 -720929000000.0 -925920000000.0 -1.11796e+12 -968283000000.0 -3.02976e+12 -1.99506e+12 -1.23988e+12 -1.4412e+12 -2.61598e+12 -1.21103e+12 -1.33096e+12 -1.3039e+12 -1.68157e+12 -993826000000.0 -870255000000.0 -1.72124e+12 -2.10498e+12 -1.744e+12 -2.03947e+12 -1.6359e+12 -923891000000.0 -1.37968e+12 -1.25133e+12 -1.03078e+12 -1.62684e+12 -665812000000.0 -1.32391e+12 -891414000000.0 -2.32382e+12 -250998000000.0 -1.12732e+12 -860725000000.0 -1.37798e+12 -328739000000.0 -1.00671e+12 -663904000000.0 -1.87527e+12 -643165000000.0 -1.79657e+12 -1.08327e+12 -1.41924e+12 -1.63312e+12 -1.00586e+12 -1.21127e+12 -1.1007e+12 -1.07669e+12 -1.10541e+12 -1.25124e+12 -1.82159e+12 -1.03821e+12 -1.60777e+12 -780325000000.0 -1.40525e+12 -623517000000.0 -1.29996e+12 -127063000000.0 -287396000000.0 -666808000000.0 -350627000000.0 -1.81972e+12 -958016000000.0 -774499000000.0 -764402000000.0 -356827000000.0 -610987000000.0 -394222000000.0 -373199000000.0 -323485000000.0 -385189000000.0 -393565000000.0 -242162000000.0 -244015000000.0 -450920000000.0 -205882000000.0 -558010000000.0 -147687000000.0 -289975000000.0 -184323000000.0 -91497700000.0 -48940400000.0 -41557800000.0 -35539600000.0 -100226000000.0 -90094100000.0 -153020000000.0 -106188000000.0 -173294000000.0 -128937000000.0 -432016000000.0 -180467000000.0 -337473000000.0 -201365000000.0 -227782000000.0 -370346000000.0 -638133000000.0 -251000000000.0 -239579000000.0 -487796000000.0 -359973000000.0 -387111000000.0 -767805000000.0 -186597000000.0 -446305000000.0 -996339000000.0 -459575000000.0 -558136000000.0 -1.01221e+12 -1.44134e+12 -1.01086e+12 -730491000000.0 -629238000000.0 -1.28416e+12 -912060000000.0 -471642000000.0 -553590000000.0 -918100000000.0 -55033500000.0 -976853000000.0 -1.16677e+12 -1.01513e+12 -1.08973e+12 -1.08385e+12 -1.25372e+12 -917129000000.0 -1.52958e+12 -1.40446e+12 -1.71629e+12 -1.37516e+12 -1.29844e+12 -1.51078e+12 -623607000000.0 -885379000000.0 -1.3633e+12 -1.13386e+12 -860601000000.0 -824621000000.0 -1.64654e+12 -687741000000.0 -862152000000.0 -518600000000.0 -701243000000.0 -180652000000.0 -437604000000.0 -1.00213e+12 -1.27288e+12 -881612000000.0 -836972000000.0 -558982000000.0 -419196000000.0 -654382000000.0 -500776000000.0 -463350000000.0 -770568000000.0 -920302000000.0 -944276000000.0 -625011000000.0 -524916000000.0 -634724000000.0 -305020000000.0 -970142000000.0 -709122000000.0 -437281000000.0 -695335000000.0 -744228000000.0 -995828000000.0 -711559000000.0 -617877000000.0 -427690000000.0 -426611000000.0 -392073000000.0 -123136000000.0 -324471000000.0 -532815000000.0 -89753700000.0 -200290000000.0 -252950000000.0 -290933000000.0 -182965000000.0 -220484000000.0 -112006000000.0 -129804000000.0 -186567000000.0 -54777500000.0 -126390000000.0 -140828000000.0 -109058000000.0 -126653000000.0 -171381000000.0 -81889200000.0 -350381000000.0 -64217600000.0 -412238000000.0 -182661000000.0 -175169000000.0 -155188000000.0 -251111000000.0 -192961000000.0 -259493000000.0 -227069000000.0 -202010000000.0 -241379000000.0 -413288000000.0 -651085000000.0 -141665000000.0 -518503000000.0 -1.09349e+12 -68764200000.0 -556895000000.0 -336701000000.0 -398565000000.0 -532711000000.0 -452016000000.0 -542996000000.0 -605108000000.0 -785327000000.0 -380680000000.0 -798714000000.0 -641967000000.0 -677219000000.0 -590840000000.0 -328743000000.0 -385980000000.0 -983715000000.0 -261458000000.0 -498830000000.0 -838228000000.0 -332756000000.0 -479392000000.0 -527776000000.0 -442764000000.0 -111394000000.0 -54347300000.0 -278555000000.0 -261783000000.0 -331329000000.0 -186923000000.0 -182908000000.0 -185444000000.0 -279158000000.0 -63675500000.0 -276156000000.0 -136569000000.0 -136674000000.0 -170990000000.0 -338007000000.0 -275738000000.0 -449824000000.0 -45655700000.0 -154298000000.0 -466134000000.0 -337417000000.0 -156855000000.0 -148441000000.0 -170683000000.0 -151393000000.0 -101239000000.0 -93844300000.0 -198435000000.0 -137701000000.0 -123320000000.0 -87507000000.0 -116305000000.0 -44611300000.0 -88680800000.0 -133838000000.0 -155936000000.0 -171551000000.0 -76477000000.0 -216369000000.0 -182697000000.0 -149111000000.0 -143033000000.0 -213352000000.0 -367596000000.0 -259214000000.0 -304002000000.0 -784051000000.0 -154870000000.0 -500568000000.0 -196764000000.0 -282053000000.0 -238676000000.0 -235737000000.0 -669928000000.0 -601892000000.0 -131144000000.0 -134427000000.0 -88320400000.0 -134062000000.0 -69857400000.0 