# vtk DataFile Version 2.0
Time step 83
ASCII
DATASET UNSTRUCTURED_GRID
POINTS 5000 float
219689.0 159558.0 0
232166.0 156919.0 0
235892.0 159410.0 0
273450.0 159725.0 0
279737.0 158531.0 0
199923.0 164712.0 0
207793.0 162214.0 0
213522.0 163280.0 0
223182.0 162559.0 0
226627.0 159660.0 0
227894.0 164240.0 0
230950.0 160091.0 0
232903.0 164222.0 0
238218.0 164309.0 0
242452.0 160787.0 0
249002.0 162218.0 0
255338.0 162847.0 0
259896.0 164374.0 0
263931.0 162659.0 0
268959.0 163152.0 0
275244.0 163931.0 0
285016.0 162899.0 0
290775.0 162290.0 0
194125.0 165871.0 0
197800.0 168658.0 0
201237.0 168350.0 0
204538.0 166734.0 0
209718.0 167625.0 0
218907.0 165051.0 0
214659.0 168231.0 0
223992.0 166942.0 0
228383.0 168601.0 0
232950.0 169450.0 0
243053.0 166406.0 0
247950.0 168385.0 0
252027.0 166834.0 0
256745.0 167615.0 0
261293.0 168590.0 0
265349.0 166816.0 0
272459.0 166947.0 0
279777.0 164711.0 0
277517.0 169503.0 0
283925.0 167722.0 0
287344.0 166442.0 0
290706.0 167174.0 0
294309.0 165861.0 0
299201.0 165679.0 0
304593.0 166427.0 0
190698.0 171277.0 0
195490.0 172487.0 0
200740.0 172235.0 0
206162.0 171678.0 0
212050.0 172164.0 0
219198.0 170973.0 0
221573.0 174547.0 0
224919.0 172141.0 0
229835.0 172866.0 0
238434.0 169814.0 0
234747.0 173747.0 0
243778.0 171690.0 0
248852.0 173341.0 0
253238.0 170859.0 0
258202.0 172326.0 0
263819.0 172246.0 0
268661.0 170609.0 0
273429.0 170985.0 0
272008.0 174427.0 0
278401.0 174587.0 0
281741.0 171315.0 0
287798.0 170402.0 0
290976.0 174873.0 0
293707.0 170254.0 0
298811.0 171353.0 0
304398.0 171778.0 0
190569.0 177183.0 0
196207.0 177612.0 0
202189.0 178115.0 0
208938.0 177142.0 0
215823.0 175913.0 0
221067.0 178759.0 0
227357.0 176696.0 0
231592.0 176322.0 0
239559.0 175534.0 0
235122.0 178038.0 0
244906.0 176734.0 0
249682.0 178193.0 0
254312.0 175541.0 0
257559.0 178235.0 0
261459.0 176357.0 0
267350.0 176733.0 0
274796.0 176079.0 0
272420.0 178310.0 0
276614.0 179216.0 0
285002.0 175200.0 0
281054.0 178520.0 0
295744.0 175036.0 0
296288.0 178914.0 0
292143.0 179743.0 0
300385.0 176516.0 0
305215.0 176700.0 0
303724.0 180217.0 0
310652.0 175735.0 0
188406.0 181627.0 0
192259.0 184297.0 0
197796.0 182961.0 0
203304.0 183989.0 0
213466.0 181050.0 0
208608.0 183361.0 0
218060.0 183628.0 0
223384.0 184241.0 0
225639.0 180827.0 0
227135.0 184192.0 0
230537.0 180866.0 0
236072.0 183338.0 0
243107.0 180240.0 0
239956.0 180134.0 0
241971.0 184211.0 0
246294.0 181021.0 0
246581.0 184796.0 0
253920.0 180265.0 0
249977.0 182740.0 0
258161.0 182411.0 0
263448.0 181593.0 0
269979.0 183346.0 0
276344.0 183918.0 0
281015.0 182908.0 0
286736.0 181550.0 0
292525.0 183687.0 0
300281.0 181092.0 0
296720.0 183415.0 0
302743.0 184714.0 0
308603.0 182577.0 0
185323.0 189289.0 0
189222.0 188010.0 0
199894.0 188616.0 0
206477.0 189233.0 0
212798.0 185992.0 0
216077.0 188275.0 0
220694.0 188261.0 0
225903.0 187998.0 0
230869.0 186406.0 0
235845.0 189654.0 0
244575.0 188860.0 0
249237.0 187715.0 0
253929.0 185091.0 0
258840.0 187829.0 0
264732.0 187202.0 0
270860.0 189133.0 0
273856.0 186978.0 0
279864.0 187547.0 0
283468.0 185766.0 0
285023.0 189664.0 0
287315.0 186407.0 0
289887.0 185471.0 0
289771.0 188872.0 0
294371.0 187909.0 0
299052.0 187097.0 0
306464.0 187724.0 0
302704.0 189520.0 0
310169.0 187905.0 0
314213.0 186630.0 0
184006.0 193958.0 0
188549.0 192455.0 0
193886.0 190464.0 0
197433.0 194411.0 0
201990.0 193749.0 0
212383.0 190989.0 0
217361.0 192315.0 0
223529.0 193573.0 0
229501.0 191439.0 0
237190.0 194806.0 0
240942.0 192153.0 0
244517.0 193891.0 0
248274.0 192227.0 0
253402.0 190206.0 0
258088.0 193531.0 0
262304.0 191390.0 0
267056.0 192247.0 0
275665.0 191286.0 0
271465.0 193682.0 0
280843.0 192259.0 0
284716.0 194676.0 0
288875.0 193011.0 0
293742.0 193172.0 0
298353.0 191322.0 0
303320.0 194459.0 0
308173.0 192057.0 0
313117.0 191138.0 0
311960.0 195131.0 0
187298.0 196707.0 0
184122.0 200107.0 0
187702.0 200568.0 0
192227.0 196419.0 0
197230.0 199368.0 0
202364.0 198121.0 0
207266.0 195822.0 0
205171.0 200095.0 0
213108.0 196369.0 0
218469.0 197188.0 0
228312.0 195746.0 0
225161.0 199138.0 0
232578.0 195292.0 0
230014.0 199507.0 0
235657.0 199826.0 0
241742.0 197528.0 0
246952.0 196932.0 0
252549.0 195919.0 0
263115.0 196092.0 0
268874.0 197991.0 0
274620.0 197067.0 0
279408.0 196420.0 0
283397.0 199436.0 0
288831.0 198020.0 0
293465.0 197687.0 0
298226.0 196620.0 0
303320.0 199865.0 0
308045.0 197423.0 0
315867.0 195693.0 0
313813.0 198834.0 0
317244.0 200092.0 0
185199.0 204067.0 0
191544.0 201325.0 0
194852.0 203917.0 0
201700.0 202752.0 0
205642.0 202874.0 0
206995.0 205851.0 0
209375.0 201412.0 0
215113.0 201707.0 0
220865.0 201855.0 0
226999.0 202885.0 0
231538.0 203960.0 0
236300.0 205033.0 0
240513.0 202757.0 0
245123.0 201792.0 0
249973.0 200973.0 0
253647.0 203981.0 0
257994.0 200093.0 0
264268.0 201224.0 0
268777.0 203570.0 0
273375.0 202056.0 0
278185.0 201059.0 0
282062.0 204755.0 0
287344.0 203255.0 0
292556.0 202294.0 0
298202.0 202508.0 0
302625.0 204549.0 0
310404.0 201632.0 0
314573.0 203343.0 0
186340.0 208066.0 0
190289.0 205888.0 0
191016.0 210529.0 0
194603.0 208782.0 0
198441.0 206691.0 0
203041.0 207643.0 0
211915.0 206640.0 0
217946.0 206980.0 0
223591.0 205401.0 0
222719.0 210217.0 0
227637.0 207361.0 0
233072.0 209401.0 0
239110.0 207829.0 0
243874.0 207015.0 0
248903.0 205655.0 0
248157.0 210276.0 0
252898.0 208614.0 0
258444.0 206730.0 0
263501.0 205586.0 0
262976.0 210092.0 0
267144.0 207766.0 0
271907.0 208642.0 0
276547.0 206246.0 0
280942.0 209855.0 0
291397.0 206873.0 0
286832.0 208895.0 0
295062.0 206266.0 0
299464.0 208163.0 0
307521.0 206468.0 0
313938.0 209104.0 0
320075.0 210632.0 0
185174.0 212298.0 0
189732.0 215083.0 0
193980.0 213181.0 0
198471.0 211785.0 0
208012.0 210315.0 0
203590.0 212307.0 0
206983.0 214710.0 0
210653.0 214019.0 0
214569.0 211512.0 0
218824.0 214319.0 0
223590.0 215149.0 0
227978.0 212510.0 0
232896.0 215081.0 0
237404.0 210716.0 0
237895.0 214525.0 0
240918.0 211266.0 0
242557.0 214768.0 0
244643.0 211791.0 0
251583.0 213050.0 0
257322.0 212799.0 0
262892.0 214647.0 0
267944.0 212491.0 0
275942.0 211418.0 0
272544.0 213325.0 0
279822.0 214576.0 0
284428.0 213555.0 0
289196.0 213976.0 0
294245.0 211334.0 0
299494.0 213091.0 0
304062.0 211402.0 0
308872.0 211770.0 0
315273.0 214796.0 0
184730.0 217979.0 0
190942.0 220341.0 0
196894.0 217285.0 0
203175.0 218021.0 0
209350.0 218596.0 0
214304.0 216716.0 0
218139.0 219008.0 0
222954.0 220093.0 0
227993.0 217891.0 0
232247.0 219585.0 0
236153.0 218759.0 0
240516.0 218194.0 0
247228.0 215586.0 0
253143.0 217850.0 0
259031.0 218031.0 0
263665.0 219388.0 0
266711.0 216881.0 0
270852.0 216809.0 0
275375.0 216496.0 0
272898.0 219970.0 0
280426.0 218860.0 0
283959.0 217242.0 0
287957.0 218752.0 0
291796.0 217193.0 0
296612.0 217532.0 0
303057.0 217005.0 0
309918.0 217457.0 0
315143.0 221160.0 0
186572.0 223374.0 0
191584.0 226176.0 0
195503.0 222418.0 0
197662.0 225728.0 0
200019.0 222681.0 0
204436.0 223431.0 0
208914.0 223385.0 0
214052.0 222110.0 0
219142.0 223409.0 0
224189.0 225162.0 0
229251.0 223317.0 0
234259.0 222611.0 0
238765.0 222285.0 0
244426.0 220006.0 0
242749.0 223693.0 0
248639.0 220270.0 0
246698.0 223945.0 0
251921.0 223531.0 0
256462.0 221730.0 0
260340.0 222213.0 0
256325.0 225325.0 0
264210.0 223562.0 0
268639.0 221010.0 0
268255.0 225649.0 0
273189.0 224410.0 0
276734.0 221138.0 0
280452.0 222566.0 0
284070.0 221126.0 0
287887.0 223724.0 0
292323.0 221386.0 0
293190.0 225406.0 0
297465.0 225277.0 0
300633.0 221680.0 0
305757.0 222321.0 0
310780.0 223634.0 0
186365.0 228782.0 0
190430.0 230872.0 0
195714.0 228118.0 0
201504.0 227418.0 0
206580.0 227697.0 0
211616.0 227030.0 0
216206.0 226950.0 0
220520.0 227605.0 0
227659.0 228522.0 0
232031.0 227154.0 0
236354.0 226213.0 0
234901.0 230598.0 0
239477.0 229580.0 0
240426.0 225955.0 0
243990.0 227784.0 0
248891.0 227452.0 0
253380.0 227811.0 0
260249.0 225846.0 0
257307.0 228934.0 0
260615.0 229843.0 0
264029.0 227676.0 0
267775.0 230030.0 0
271847.0 229093.0 0
276320.0 229632.0 0
278293.0 225664.0 0
280881.0 229860.0 0
283256.0 225642.0 0
286159.0 229865.0 0
290206.0 227574.0 0
294583.0 229318.0 0
302584.0 226264.0 0
299788.0 230610.0 0
303677.0 229757.0 0
307936.0 228622.0 0
314213.0 227903.0 0
185899.0 236379.0 0
187100.0 233028.0 0
190590.0 235493.0 0
194517.0 231846.0 0
195313.0 236374.0 0
199783.0 232463.0 0
204318.0 231371.0 0
206927.0 234148.0 0
209533.0 231097.0 0
211914.0 235386.0 0
214014.0 230885.0 0
216166.0 234005.0 0
218320.0 230990.0 0
220044.0 234959.0 0
223468.0 231373.0 0
227685.0 233106.0 0
230836.0 231083.0 0
232661.0 234586.0 0
237822.0 234284.0 0
242532.0 232411.0 0
246900.0 231476.0 0
251211.0 230958.0 0
254858.0 231021.0 0
249906.0 234507.0 0
253486.0 233753.0 0
258231.0 234116.0 0
263927.0 232802.0 0
269003.0 233855.0 0
273361.0 233685.0 0
278398.0 233932.0 0
283455.0 234597.0 0
288194.0 233746.0 0
291016.0 231606.0 0
295839.0 233587.0 0
304571.0 233306.0 0
309690.0 235667.0 0
192127.0 240238.0 0
199490.0 237384.0 0
196383.0 240568.0 0
200551.0 241387.0 0
203668.0 236583.0 0
207875.0 238306.0 0
216403.0 237810.0 0
220397.0 238867.0 0
224568.0 236581.0 0
228888.0 236096.0 0
231420.0 238176.0 0
235163.0 238338.0 0
239409.0 238661.0 0
241783.0 236041.0 0
243322.0 239115.0 0
245645.0 235821.0 0
249165.0 238015.0 0
246437.0 239637.0 0
253795.0 237998.0 0
258373.0 239797.0 0
262497.0 237564.0 0
266713.0 236469.0 0
266508.0 239965.0 0
270587.0 238231.0 0
275714.0 237950.0 0
280213.0 238142.0 0
284341.0 239242.0 0
291827.0 235571.0 0
287708.0 237547.0 0
291356.0 239983.0 0
295605.0 237580.0 0
300270.0 236222.0 0
301156.0 241227.0 0
304976.0 238591.0 0
309153.0 241143.0 0
192286.0 244754.0 0
197526.0 245601.0 0
203773.0 244648.0 0
204290.0 240374.0 0
207515.0 242054.0 0
212408.0 241021.0 0
217545.0 241750.0 0
223127.0 241761.0 0
227895.0 240327.0 0
227883.0 244957.0 0
232452.0 242080.0 0
236982.0 242125.0 0
241204.0 242509.0 0
245350.0 242659.0 0
250012.0 242525.0 0
254919.0 243055.0 0
258946.0 244330.0 0
262340.0 242112.0 0
266065.0 243445.0 0
269472.0 242440.0 0
273263.0 241970.0 0
275457.0 245251.0 0
277691.0 241792.0 0
278753.0 245385.0 0
287181.0 241204.0 0
281909.0 242118.0 0
285831.0 244931.0 0
290300.0 244370.0 0
295985.0 241763.0 0
299192.0 244628.0 0
303634.0 245791.0 0
305381.0 242521.0 0
201192.0 248463.0 0
205820.0 248795.0 0
209291.0 245407.0 0
210614.0 249821.0 0
214629.0 245828.0 0
214857.0 250420.0 0
218498.0 249706.0 0
219674.0 245622.0 0
222540.0 249701.0 0
224117.0 246021.0 0
226211.0 248726.0 0
231521.0 246166.0 0
229514.0 249428.0 0
234176.0 249840.0 0
235169.0 245650.0 0
239225.0 246796.0 0
237870.0 250811.0 0
243571.0 245859.0 0
243381.0 250809.0 0
247441.0 246601.0 0
249135.0 250745.0 0
252100.0 246978.0 0
252950.0 250853.0 0
256102.0 246331.0 0
255162.0 249062.0 0
258882.0 248393.0 0
262818.0 246928.0 0
265583.0 250702.0 0
267690.0 246773.0 0
269958.0 250279.0 0
271516.0 245782.0 0
274149.0 249115.0 0
277307.0 247909.0 0
279800.0 249173.0 0
281885.0 246357.0 0
284267.0 249728.0 0
288977.0 249429.0 0
294704.0 246689.0 0
295908.0 250104.0 0
300093.0 248006.0 0
197272.0 252514.0 0
202907.0 252386.0 0
207609.0 253392.0 0
212269.0 255119.0 0
217026.0 253854.0 0
220692.0 252884.0 0
222293.0 255599.0 0
226237.0 253703.0 0
231467.0 252901.0 0
235192.0 254261.0 0
239151.0 253944.0 0
246873.0 254719.0 0
251896.0 255003.0 0
257052.0 253016.0 0
261629.0 251416.0 0
264085.0 254152.0 0
261051.0 255586.0 0
267878.0 254481.0 0
273086.0 254402.0 0
277266.0 251364.0 0
277672.0 255203.0 0
281015.0 252867.0 0
285352.0 254180.0 0
289196.0 253934.0 0
292837.0 252156.0 0
297932.0 251357.0 0
296891.0 255319.0 0
202259.0 256435.0 0
203096.0 260558.0 0
205493.0 256451.0 0
208633.0 259093.0 0
212388.0 259654.0 0
215844.0 258475.0 0
219556.0 256837.0 0
223300.0 258507.0 0
220063.0 260971.0 0
227036.0 259379.0 0
230905.0 256770.0 0
234627.0 258789.0 0
238254.0 257377.0 0
242648.0 256443.0 0
240733.0 260061.0 0
248706.0 257952.0 0
245593.0 258487.0 0
251572.0 260450.0 0
256276.0 258825.0 0
265145.0 258127.0 0
261069.0 259661.0 0
270184.0 259165.0 0
275600.0 259657.0 0
281365.0 258341.0 0
284895.0 261020.0 0
287879.0 258554.0 0
292111.0 256862.0 0
294884.0 259365.0 0
298147.0 259275.0 0
202963.0 265206.0 0
207123.0 263518.0 0
213961.0 261602.0 0
211136.0 263395.0 0
216830.0 262167.0 0
215222.0 265078.0 0
223878.0 262607.0 0
220110.0 265991.0 0
227647.0 263851.0 0
230825.0 261257.0 0
234033.0 263333.0 0
230781.0 265992.0 0
237737.0 261441.0 0
237319.0 265076.0 0
243904.0 261311.0 0
241061.0 264380.0 0
247423.0 261553.0 0
249909.0 264615.0 0
245412.0 265544.0 0
254157.0 264144.0 0
258434.0 264084.0 0
263335.0 263227.0 0
267248.0 262568.0 0
270543.0 264652.0 0
272592.0 262137.0 0
274906.0 265169.0 0
278322.0 262937.0 0
282053.0 264244.0 0
287988.0 264962.0 0
291982.0 261610.0 0
296731.0 263312.0 0
302750.0 266247.0 0
201541.0 268507.0 0
208196.0 267282.0 0
204784.0 268433.0 0
212100.0 267477.0 0
213695.0 271131.0 0
210228.0 270967.0 0
216277.0 269117.0 0
219073.0 270650.0 0
222620.0 270742.0 0
225051.0 267094.0 0
228085.0 268187.0 0
230345.0 269980.0 0
233210.0 271364.0 0
234526.0 267990.0 0
238902.0 268706.0 0
236055.0 271117.0 0
242614.0 268319.0 0
241637.0 270935.0 0
248366.0 268818.0 0
245336.0 270969.0 0
252163.0 268194.0 0
258926.0 268274.0 0
255722.0 267875.0 0
261969.0 266995.0 0
262296.0 271167.0 0
266515.0 267975.0 0
271111.0 268912.0 0
274750.0 269524.0 0
279356.0 268583.0 0
284323.0 268754.0 0
288229.0 270892.0 0
292969.0 267265.0 0
297777.0 267482.0 0
297324.0 271057.0 0
304194.0 272016.0 0
202479.0 271463.0 0
202405.0 274932.0 0
206425.0 271844.0 0
209079.0 274692.0 0
205697.0 275290.0 0
212652.0 274363.0 0
216650.0 273290.0 0
219081.0 276198.0 0
219792.0 273578.0 0
223383.0 275155.0 0
226853.0 271659.0 0
227380.0 276102.0 0
230420.0 273868.0 0
234493.0 274681.0 0
238718.0 272687.0 0
242692.0 274322.0 0
249789.0 271972.0 0
247585.0 274842.0 0
253469.0 271740.0 0
251696.0 275137.0 0
257553.0 271715.0 0
255466.0 275696.0 0
260114.0 275545.0 0
264142.0 274371.0 0
265640.0 272225.0 0
268192.0 272156.0 0
266850.0 274929.0 0
270032.0 275965.0 0
270927.0 272647.0 0
273288.0 272012.0 0
273443.0 275180.0 0
276705.0 272978.0 0
280102.0 273403.0 0
283498.0 272384.0 0
290048.0 274705.0 0
286425.0 275566.0 0
292999.0 272119.0 0
294671.0 276077.0 0
297941.0 274349.0 0
202293.0 278270.0 0
202322.0 281497.0 0
208169.0 277262.0 0
205555.0 278170.0 0
209057.0 279487.0 0
206043.0 281452.0 0
211127.0 277485.0 0
212416.0 280222.0 0
215404.0 277218.0 0
218609.0 279673.0 0
215560.0 281113.0 0
221327.0 278400.0 0
224584.0 279627.0 0
228305.0 280169.0 0
230961.0 277409.0 0
234226.0 278639.0 0
238306.0 276496.0 0
237478.0 280058.0 0
244875.0 277537.0 0
241511.0 278408.0 0
247660.0 279114.0 0
250402.0 277592.0 0
253866.0 279739.0 0
250254.0 281077.0 0
257572.0 278454.0 0
257379.0 281403.0 0
264132.0 278129.0 0
260372.0 279776.0 0
267636.0 278138.0 0
270098.0 279492.0 0
267028.0 281262.0 0
273206.0 279024.0 0
277379.0 277465.0 0
277662.0 281445.0 0
281923.0 277255.0 0
281173.0 281387.0 0
285502.0 280799.0 0
289568.0 279436.0 0
291663.0 276863.0 0
293836.0 279817.0 0
297978.0 277694.0 0
297526.0 280730.0 0
197681.0 284178.0 0
202677.0 284990.0 0
206345.0 285294.0 0
209756.0 282858.0 0
213909.0 284557.0 0
218421.0 283242.0 0
221545.0 281700.0 0
221188.0 285629.0 0
224831.0 284165.0 0
228654.0 284347.0 0
232144.0 282085.0 0
232282.0 286597.0 0
235849.0 282418.0 0
237833.0 283940.0 0
235073.0 285244.0 0
240356.0 282122.0 0
244564.0 281713.0 0
240995.0 285175.0 0
243725.0 285651.0 0
248333.0 284413.0 0
253170.0 284571.0 0
259863.0 282982.0 0
256074.0 283454.0 0
258253.0 285074.0 0
263495.0 282888.0 0
270159.0 283353.0 0
266290.0 285034.0 0
274117.0 282402.0 0
273381.0 286696.0 0
280258.0 284979.0 0
276752.0 285654.0 0
283801.0 284505.0 0
290630.0 283544.0 0
287311.0 284703.0 0
294290.0 283099.0 0
294416.0 285874.0 0
297656.0 284102.0 0
202496.0 288365.0 0
201782.0 291290.0 0
206235.0 288652.0 0
204864.0 291030.0 0
208666.0 291443.0 0
210349.0 287437.0 0
213169.0 290757.0 0
216999.0 287951.0 0
219602.0 292028.0 0
222030.0 288895.0 0
229046.0 287903.0 0
225559.0 288898.0 0
234020.0 290056.0 0
230389.0 290782.0 0
238227.0 288166.0 0
242318.0 288591.0 0
243209.0 291610.0 0
246286.0 288570.0 0
247259.0 291917.0 0
250713.0 288532.0 0
253902.0 291233.0 0
256028.0 287916.0 0
259665.0 291048.0 0
261840.0 287034.0 0
269045.0 287426.0 0
265459.0 288897.0 0
275306.0 290256.0 0
271560.0 290879.0 0
277617.0 288800.0 0
284422.0 287767.0 0
280985.0 288312.0 0
283323.0 290831.0 0
287700.0 288042.0 0
286907.0 291856.0 0
291259.0 287373.0 0
294387.0 288526.0 0
290787.0 290724.0 0
293696.0 291113.0 0
297577.0 287347.0 0
297405.0 290694.0 0
202927.0 294403.0 0
206527.0 293533.0 0
207698.0 295616.0 0
205435.0 296942.0 0
210762.0 294071.0 0
213520.0 296471.0 0
215657.0 293773.0 0
218003.0 296210.0 0
223737.0 292428.0 0
221828.0 296098.0 0
227582.0 293058.0 0
225598.0 296061.0 0
231788.0 293915.0 0
230070.0 296872.0 0
233408.0 296758.0 0
235905.0 294099.0 0
239812.0 292452.0 0
241016.0 295578.0 0
244710.0 295037.0 0
250595.0 293607.0 0
253488.0 296086.0 0
256412.0 293565.0 0
259938.0 295648.0 0
263297.0 292340.0 0
262715.0 295409.0 0
267821.0 293265.0 0
273421.0 294183.0 0
270886.0 296024.0 0
279626.0 292006.0 0
276430.0 292812.0 0
279750.0 295618.0 0
276126.0 296556.0 0
283330.0 294315.0 0
290182.0 293872.0 0
286703.0 295717.0 0
293640.0 294221.0 0
297402.0 293979.0 0
298341.0 296629.0 0
303051.0 297142.0 0
196515.0 297811.0 0
195692.0 302729.0 0
202229.0 297468.0 0
202871.0 300422.0 0
206655.0 299838.0 0
209711.0 297903.0 0
212490.0 301139.0 0
216694.0 298947.0 0
220158.0 299762.0 0
223954.0 300597.0 0
227453.0 299717.0 0
232622.0 299667.0 0
238378.0 297177.0 0
235590.0 298311.0 0
235964.0 301481.0 0
239707.0 300366.0 0
242834.0 298677.0 0
248201.0 297209.0 0
245689.0 300031.0 0
249893.0 301123.0 0
252039.0 298711.0 0
254330.0 300325.0 0
256928.0 297780.0 0
259012.0 300633.0 0
262263.0 299173.0 0
266087.0 297115.0 0
269430.0 299061.0 0
266121.0 300461.0 0
272742.0 298191.0 0
273407.0 301372.0 0
277258.0 300545.0 0
283759.0 297622.0 0
280701.0 298637.0 0
282397.0 301003.0 0
290021.0 297929.0 0
286317.0 300206.0 0
294723.0 297818.0 0
293386.0 301708.0 0
297922.0 299141.0 0
297776.0 301750.0 0
202891.0 304141.0 0
206259.0 303301.0 0
208394.0 306103.0 0
205293.0 307241.0 0
209531.0 302824.0 0
213619.0 305233.0 0
211266.0 306493.0 0
216448.0 302706.0 0
217521.0 306117.0 0
219714.0 303154.0 0
223402.0 305209.0 0
227001.0 303804.0 0
228695.0 306451.0 0
230438.0 302559.0 0
233882.0 304675.0 0
237983.0 303843.0 0
237261.0 306910.0 0
243177.0 303588.0 0
239789.0 303622.0 0
240531.0 306059.0 0
244616.0 307365.0 0
247042.0 303206.0 0
249694.0 303941.0 0
247682.0 306185.0 0
252517.0 302837.0 0
251427.0 305945.0 0
255992.0 303483.0 0
263284.0 302535.0 0
260196.0 304656.0 0
263832.0 306111.0 0
270155.0 302327.0 0
266836.0 303486.0 0
273994.0 304816.0 0
271259.0 306086.0 0
280231.0 303031.0 0
276901.0 304951.0 0
284461.0 303474.0 0
281917.0 305982.0 0
289412.0 303191.0 0
286540.0 305151.0 0
290736.0 306836.0 0
293698.0 306135.0 0
297080.0 305020.0 0
201939.0 307492.0 0
202002.0 310028.0 0
208882.0 309349.0 0
205480.0 310221.0 0
209114.0 312458.0 0
211735.0 309041.0 0
211680.0 311568.0 0
215143.0 308638.0 0
218528.0 310065.0 0
214679.0 311924.0 0
220122.0 307684.0 0
221626.0 311086.0 0
225483.0 309661.0 0
229348.0 310464.0 0
231699.0 307674.0 0
232587.0 311233.0 0
235100.0 309119.0 0
239256.0 310113.0 0
236522.0 312126.0 0
241866.0 308426.0 0
242583.0 311537.0 0
249405.0 309414.0 0
246065.0 311011.0 0
252931.0 311389.0 0
255093.0 307633.0 0
258675.0 309087.0 0
262210.0 308926.0 0
264800.0 310262.0 0
262004.0 312155.0 0
267611.0 307491.0 0
269339.0 310934.0 0
274287.0 308211.0 0
271777.0 309050.0 0
273351.0 311219.0 0
278341.0 308726.0 0
276495.0 312351.0 0
284407.0 308438.0 0
281619.0 311023.0 0
285255.0 311152.0 0
287907.0 308355.0 0
288451.0 310984.0 0
294664.0 309201.0 0
291772.0 309800.0 0
294937.0 311757.0 0
297693.0 308267.0 0
298152.0 310647.0 0
202161.0 312638.0 0
202056.0 315255.0 0
205652.0 313581.0 0
206450.0 317106.0 0
210166.0 315716.0 0
213516.0 314870.0 0
217616.0 312668.0 0
217030.0 315987.0 0
220797.0 314876.0 0
228019.0 314376.0 0
224551.0 314803.0 0
231611.0 315038.0 0
235163.0 315192.0 0
237229.0 317305.0 0
239982.0 314245.0 0
243187.0 314418.0 0
241842.0 317335.0 0
247009.0 315095.0 0
250751.0 314184.0 0
252402.0 316852.0 0
255607.0 313526.0 0
258797.0 312647.0 0
260035.0 315748.0 0
255668.0 316658.0 0
263331.0 314492.0 0
266094.0 313181.0 0
268189.0 315874.0 0
271418.0 314040.0 0
274592.0 315551.0 0
271138.0 317308.0 0
278780.0 314266.0 0
278021.0 316810.0 0
282000.0 314184.0 0
285647.0 313513.0 0
280901.0 317619.0 0
285071.0 316743.0 0
288748.0 314466.0 0
288344.0 317362.0 0
291696.0 312969.0 0
293490.0 316370.0 0
298004.0 312917.0 0
296822.0 315822.0 0
196497.0 322675.0 0
202752.0 318160.0 0
202496.0 321201.0 0
207702.0 320405.0 0
205494.0 322423.0 0
211290.0 318984.0 0
214470.0 318627.0 0
217887.0 319600.0 0
214949.0 322130.0 0
221143.0 319179.0 0
224911.0 318850.0 0
227875.0 318786.0 0
225198.0 322389.0 0
227787.0 322097.0 0
231489.0 319344.0 0
239759.0 319243.0 0
234768.0 320080.0 0
237607.0 321490.0 0
244700.0 318488.0 0
240756.0 322471.0 0
243719.0 321949.0 0
249641.0 318627.0 0
247411.0 320757.0 0
253629.0 319673.0 0
251439.0 321627.0 0
258475.0 319221.0 0
255845.0 321313.0 0
263511.0 317615.0 0
261771.0 319947.0 0
266880.0 319151.0 0
265441.0 322485.0 0
270010.0 320610.0 0
273093.0 319004.0 0
276594.0 318950.0 0
279799.0 319993.0 0
277329.0 322785.0 0
283831.0 319185.0 0
282344.0 321747.0 0
285797.0 322783.0 0
287555.0 320125.0 0
291232.0 318183.0 0
291149.0 321228.0 0
294623.0 320070.0 0
297968.0 318744.0 0
297734.0 321274.0 0
303399.0 323045.0 0
201802.0 323784.0 0
202498.0 326352.0 0
209151.0 325565.0 0
205810.0 325497.0 0
210896.0 322798.0 0
218007.0 323017.0 0
214277.0 325513.0 0
217383.0 326524.0 0
221542.0 322993.0 0
220361.0 326012.0 0
227170.0 324876.0 0
224666.0 325739.0 0
229521.0 325646.0 0
230592.0 322794.0 0
233457.0 324283.0 0
232564.0 327557.0 0
236033.0 323992.0 0
239048.0 326419.0 0
242663.0 326748.0 0
248542.0 323803.0 0
245297.0 325188.0 0
253619.0 324531.0 0
250530.0 327314.0 0
255023.0 327555.0 0
259241.0 322848.0 0
257167.0 324349.0 0
258309.0 327582.0 0
262257.0 323543.0 0
261758.0 327403.0 0
267657.0 325321.0 0
270846.0 324027.0 0
273877.0 322738.0 0
273845.0 326697.0 0
276267.0 326526.0 0
280784.0 324690.0 0
284203.0 326382.0 0
289348.0 324258.0 0
287584.0 327485.0 0
294034.0 323152.0 0
292456.0 325572.0 0
297134.0 324249.0 0
297806.0 327161.0 0
201978.0 329242.0 0
202011.0 331650.0 0
205453.0 329232.0 0
208939.0 329253.0 0
205445.0 331909.0 0
212275.0 327890.0 0
214106.0 330152.0 0
209440.0 332416.0 0
212599.0 332784.0 0
217413.0 330032.0 0
222598.0 328022.0 0
220705.0 330375.0 0
226355.0 328174.0 0
228303.0 328014.0 0
225321.0 330962.0 0
228002.0 332461.0 0
229914.0 329968.0 0
232468.0 331429.0 0
235975.0 328607.0 0
235942.0 332245.0 0
239321.0 332632.0 0
240467.0 330169.0 0
243543.0 330173.0 0
246836.0 328817.0 0
247887.0 332319.0 0
252659.0 331473.0 0
257046.0 330553.0 0
258752.0 332670.0 0
261580.0 331837.0 0
265063.0 332068.0 0
265597.0 328215.0 0
268554.0 329831.0 0
268288.0 331813.0 0
271044.0 328528.0 0
274306.0 330013.0 0
271807.0 332401.0 0
279271.0 328563.0 0
276775.0 330687.0 0
280501.0 332658.0 0
282550.0 329646.0 0
284392.0 331291.0 0
290303.0 329664.0 0
287175.0 330462.0 0
290465.0 331646.0 0
290940.0 328108.0 0
294185.0 328289.0 0
293678.0 331539.0 0
297990.0 329752.0 0
297898.0 332000.0 0
197463.0 335693.0 0
201316.0 333660.0 0
201903.0 335827.0 0
204476.0 334450.0 0
207596.0 334977.0 0
205813.0 338187.0 0
212476.0 336210.0 0
209976.0 336208.0 0
217195.0 333282.0 0
215313.0 335182.0 0
219110.0 337222.0 0
219657.0 334721.0 0
222468.0 333400.0 0
224304.0 335877.0 0
221605.0 337888.0 0
226922.0 335616.0 0
229531.0 337929.0 0
231091.0 334547.0 0
234942.0 336034.0 0
238053.0 336865.0 0
244172.0 333139.0 0
241333.0 335105.0 0
245456.0 336001.0 0
248003.0 335889.0 0
250540.0 335048.0 0
255141.0 335178.0 0
251675.0 337136.0 0
258721.0 336245.0 0
262030.0 335655.0 0
269399.0 334438.0 0
265921.0 335119.0 0
270293.0 337144.0 0
273967.0 334371.0 0
273074.0 336956.0 0
277364.0 334081.0 0
278240.0 337540.0 0
282545.0 334123.0 0
281327.0 336364.0 0
283742.0 337531.0 0
285672.0 333998.0 0
288647.0 333277.0 0
286649.0 336918.0 0
290081.0 336400.0 0
293166.0 335221.0 0
297160.0 334815.0 0
297724.0 337727.0 0
202057.0 338275.0 0
202300.0 340904.0 0
205804.0 341597.0 0
209023.0 342927.0 0
212883.0 339497.0 0
209413.0 339563.0 0
213936.0 342101.0 0
216310.0 338190.0 0
217209.0 341181.0 0
224162.0 339115.0 0
220018.0 340182.0 0
221517.0 341498.0 0
226611.0 339087.0 0
224511.0 342250.0 0
229523.0 341408.0 0
227169.0 342575.0 0
233590.0 339296.0 0
237879.0 339666.0 0
236139.0 340866.0 0
239462.0 342185.0 0
234996.0 343108.0 0
244740.0 338365.0 0
241506.0 339081.0 0
243268.0 342253.0 0
249246.0 339001.0 0
246493.0 339685.0 0
246148.0 342944.0 0
254262.0 338586.0 0
252046.0 340637.0 0
258902.0 339352.0 0
256009.0 340910.0 0
263117.0 338280.0 0
261742.0 341438.0 0
266413.0 338282.0 0
270237.0 339744.0 0
267213.0 341682.0 0
275177.0 339692.0 0
272334.0 341490.0 0
280157.0 340187.0 0
276717.0 342873.0 0
279418.0 343044.0 0
283303.0 340312.0 0
290327.0 339863.0 0
287032.0 340243.0 0
290236.0 343192.0 0
294243.0 338156.0 0
293477.0 340497.0 0
297287.0 340544.0 0
203338.0 344103.0 0
201733.0 346979.0 0
206505.0 346614.0 0
211716.0 344121.0 0
210127.0 346943.0 0
217944.0 343958.0 0
214653.0 345804.0 0
220561.0 344095.0 0
223314.0 345301.0 0
220882.0 348152.0 0
227884.0 345232.0 0
225821.0 347739.0 0
232302.0 343167.0 0
230204.0 345494.0 0
233946.0 346544.0 0
237349.0 343468.0 0
236053.0 345477.0 0
239212.0 345741.0 0
237983.0 347710.0 0
241690.0 345044.0 0
249328.0 343444.0 0
245315.0 346581.0 0
248059.0 347878.0 0
252449.0 343271.0 0
250950.0 346405.0 0
253573.0 347123.0 0
255765.0 344381.0 0
259620.0 344415.0 0
257325.0 347883.0 0
264571.0 343933.0 0
260876.0 347361.0 0
264504.0 347163.0 0
269680.0 344495.0 0
267904.0 347054.0 0
273670.0 343717.0 0
272583.0 346395.0 0
275723.0 345479.0 0
277279.0 347297.0 0
279133.0 345590.0 0
283448.0 343966.0 0
282334.0 347344.0 0
287100.0 343968.0 0
290724.0 346473.0 0
288089.0 347558.0 0
293487.0 343502.0 0
293410.0 346789.0 0
297422.0 343339.0 0
297364.0 346065.0 0
201895.0 348996.0 0
202601.0 351361.0 0
206383.0 350105.0 0
212062.0 348855.0 0
210657.0 351530.0 0
214687.0 350605.0 0
217827.0 348451.0 0
218612.0 352363.0 0
223816.0 350927.0 0
221423.0 353303.0 0
228668.0 349316.0 0
226747.0 353084.0 0
231299.0 348310.0 0
232998.0 352297.0 0
229528.0 352279.0 0
235692.0 349721.0 0
238411.0 352272.0 0
242692.0 348370.0 0
240077.0 349487.0 0
243913.0 351766.0 0
247215.0 351917.0 0
250699.0 349987.0 0
253616.0 350128.0 0
257057.0 350635.0 0
260110.0 350251.0 0
264724.0 350411.0 0
262564.0 352618.0 0
269134.0 349601.0 0
267367.0 351414.0 0
269890.0 353135.0 0
272530.0 349583.0 0
272852.0 353208.0 0
275826.0 349528.0 0
280177.0 349508.0 0
278015.0 351708.0 0
285292.0 349110.0 0
282420.0 352015.0 0
285542.0 352125.0 0
289847.0 350796.0 0
292460.0 350098.0 0
296993.0 349136.0 0
296373.0 352379.0 0
202841.0 354200.0 0
202092.0 356935.0 0
207798.0 353624.0 0
205301.0 358254.0 0
205717.0 355615.0 0
207958.0 358495.0 0
212669.0 354457.0 0
210223.0 356710.0 0
215621.0 353770.0 0
219141.0 355535.0 0
214602.0 357693.0 0
217088.0 356958.0 0
222570.0 356737.0 0
225402.0 355751.0 0
228906.0 355613.0 0
227797.0 358062.0 0
232880.0 358104.0 0
231074.0 355670.0 0
235857.0 355512.0 0
239603.0 357659.0 0
241357.0 354111.0 0
244386.0 356185.0 0
246837.0 355852.0 0
249020.0 357729.0 0
250164.0 353623.0 0
253232.0 354145.0 0
252111.0 357819.0 0
256667.0 354689.0 0
256331.0 358459.0 0
264968.0 354793.0 0
260233.0 355370.0 0
264677.0 357074.0 0
261620.0 358528.0 0
267487.0 354371.0 0
268716.0 356717.0 0
265903.0 357959.0 0
271347.0 356247.0 0
273038.0 358281.0 0
275840.0 354718.0 0
278218.0 357258.0 0
280818.0 354224.0 0
283059.0 355858.0 0
281948.0 358377.0 0
286698.0 355309.0 0
290403.0 354343.0 0
290350.0 357778.0 0
286753.0 358706.0 0
293626.0 355155.0 0
294253.0 358151.0 0
298181.0 357473.0 0
298123.0 355415.0 0
302895.0 355896.0 0
202162.0 359231.0 0
202650.0 361818.0 0
208608.0 360624.0 0
205654.0 361046.0 0
207525.0 362872.0 0
212391.0 359342.0 0
210696.0 361425.0 0
214937.0 361311.0 0
217854.0 361177.0 0
220403.0 359347.0 0
222877.0 361183.0 0
221007.0 363777.0 0
225611.0 359571.0 0
226979.0 362562.0 0
229509.0 362419.0 0
230021.0 359359.0 0
234686.0 361061.0 0
232551.0 363430.0 0
238131.0 361176.0 0
243191.0 358854.0 0
243785.0 361883.0 0
241106.0 363285.0 0
245966.0 358992.0 0
248442.0 361303.0 0
253699.0 360077.0 0
251134.0 362831.0 0
258250.0 360164.0 0
255667.0 362477.0 0
259454.0 362305.0 0
263376.0 361224.0 0
268645.0 359414.0 0
266536.0 361477.0 0
271380.0 360622.0 0
275139.0 359542.0 0
279079.0 360626.0 0
275624.0 362062.0 0
283788.0 359803.0 0
280288.0 363017.0 0
283478.0 362295.0 0
288249.0 361395.0 0
291452.0 360256.0 0
292985.0 362541.0 0
297336.0 359908.0 0
296609.0 363015.0 0
202454.0 367606.0 0
202526.0 364659.0 0
206351.0 368466.0 0
205901.0 364960.0 0
210636.0 364310.0 0
213785.0 363908.0 0
210027.0 367583.0 0
213421.0 367903.0 0
218648.0 364924.0 0
215835.0 366037.0 0
224104.0 363931.0 0
221074.0 366942.0 0
223928.0 366881.0 0
227419.0 366261.0 0
229518.0 367408.0 0
232571.0 366760.0 0
237140.0 365464.0 0
235625.0 368736.0 0
241045.0 366875.0 0
244390.0 366665.0 0
246380.0 364365.0 0
248693.0 366357.0 0
253310.0 365074.0 0
250770.0 366710.0 0
254745.0 368168.0 0
257561.0 364090.0 0
258674.0 366948.0 0
261940.0 364601.0 0
262902.0 368079.0 0
265180.0 366475.0 0
268035.0 364821.0 0
268478.0 368510.0 0
272159.0 364463.0 0
271653.0 369033.0 0
275577.0 365844.0 0
277695.0 364539.0 0
276918.0 368530.0 0
279399.0 367028.0 0
281662.0 365336.0 0
284160.0 367253.0 0
285737.0 364068.0 0
289567.0 365236.0 0
287398.0 368649.0 0
292628.0 366503.0 0
297033.0 366319.0 0
297564.0 368802.0 0
202337.0 370275.0 0
203037.0 373208.0 0
206485.0 371265.0 0
211185.0 371048.0 0
216133.0 369806.0 0
219199.0 369321.0 0
214879.0 372665.0 0
221557.0 369573.0 0
224411.0 369793.0 0
220295.0 372422.0 0
227219.0 370687.0 0
229952.0 371316.0 0
232648.0 371629.0 0
238922.0 369906.0 0
235672.0 373028.0 0
238980.0 373550.0 0
242168.0 370248.0 0
244795.0 371212.0 0
241759.0 373498.0 0
245668.0 369131.0 0
248569.0 369877.0 0
245259.0 373176.0 0
248082.0 373267.0 0
251594.0 369894.0 0
252853.0 373024.0 0
256698.0 371104.0 0
260262.0 370504.0 0
263860.0 370578.0 0
261145.0 374264.0 0
263830.0 373170.0 0
266308.0 369988.0 0
268693.0 371011.0 0
266328.0 373530.0 0
268820.0 373849.0 0
270865.0 372558.0 0
274558.0 370576.0 0
272731.0 374137.0 0
276168.0 373085.0 0
279229.0 371471.0 0
281708.0 369516.0 0
284303.0 370870.0 0
282467.0 372498.0 0
286124.0 371897.0 0
289950.0 370332.0 0
289152.0 373415.0 0
293020.0 369536.0 0
294379.0 372043.0 0
298247.0 371040.0 0
302615.0 372523.0 0
297206.0 373583.0 0
194913.0 381397.0 0
200063.0 378299.0 0
197698.0 380403.0 0
200106.0 375078.0 0
203546.0 377144.0 0
202897.0 379834.0 0
206047.0 375106.0 0
207649.0 378217.0 0
209522.0 373655.0 0
212112.0 376284.0 0
215241.0 376780.0 0
218253.0 373956.0 0
218840.0 376413.0 0
221818.0 376592.0 0
223849.0 373814.0 0
223305.0 378860.0 0
229725.0 374566.0 0
226734.0 375645.0 0
231855.0 375676.0 0
231215.0 379118.0 0
234963.0 376382.0 0
238281.0 377140.0 0
243513.0 376602.0 0
240633.0 378463.0 0
246604.0 376111.0 0
250407.0 375419.0 0
252667.0 376992.0 0
254804.0 377436.0 0
258088.0 374397.0 0
259531.0 377173.0 0
255498.0 374222.0 0
256357.0 379290.0 0
257946.0 377128.0 0
262733.0 376971.0 0
265589.0 376420.0 0
269582.0 376199.0 0
265226.0 379012.0 0
267893.0 377407.0 0
272000.0 377199.0 0
275030.0 377533.0 0
275281.0 375097.0 0
277721.0 376877.0 0
278932.0 374508.0 0
281300.0 375394.0 0
284174.0 374582.0 0
283667.0 378617.0 0
287038.0 375546.0 0
286206.0 378732.0 0
288832.0 378530.0 0
292273.0 374267.0 0
291263.0 377129.0 0
293897.0 378658.0 0
298954.0 376695.0 0
295793.0 376733.0 0
297838.0 380115.0 0
300346.0 378573.0 0
302743.0 380382.0 0
305844.0 380723.0 0
190555.0 383693.0 0
188402.0 384658.0 0
186766.0 386420.0 0
192630.0 382531.0 0
195175.0 385359.0 0
198650.0 383891.0 0
205581.0 380630.0 0
201942.0 382777.0 0
203741.0 384666.0 0
206552.0 383770.0 0
210615.0 379698.0 0
209933.0 383603.0 0
212833.0 384710.0 0
213564.0 381051.0 0
216242.0 379978.0 0
219696.0 379335.0 0
217459.0 382519.0 0
221477.0 381732.0 0
224888.0 382194.0 0
225419.0 379770.0 0
228427.0 379294.0 0
228894.0 383348.0 0
234368.0 379826.0 0
231397.0 382766.0 0
234238.0 383125.0 0
237106.0 380336.0 0
239237.0 381847.0 0
237245.0 383815.0 0
242764.0 381586.0 0
241242.0 384820.0 0
244174.0 384682.0 0
245627.0 380065.0 0
245996.0 383460.0 0
249315.0 379388.0 0
248871.0 384209.0 0
252702.0 380632.0 0
258650.0 380465.0 0
255132.0 382688.0 0
257799.0 383110.0 0
261256.0 379746.0 0
262714.0 383259.0 0
268297.0 379682.0 0
265609.0 381806.0 0
267894.0 383598.0 0
270839.0 380101.0 0
273589.0 381161.0 0
270750.0 383706.0 0
275880.0 380471.0 0
278714.0 381222.0 0
275621.0 384337.0 0
280788.0 378641.0 0
281515.0 382597.0 0
283683.0 382313.0 0
286050.0 381844.0 0
287827.0 383228.0 0
285812.0 384995.0 0
290108.0 381165.0 0
292138.0 382862.0 0
293668.0 385459.0 0
294882.0 381256.0 0
297780.0 383320.0 0
302184.0 383255.0 0
307757.0 383069.0 0
305171.0 384411.0 0
310186.0 384521.0 0
312415.0 385729.0 0
178641.0 390981.0 0
183958.0 386936.0 0
182477.0 388183.0 0
180912.0 390107.0 0
185278.0 390841.0 0
186793.0 388865.0 0
191017.0 389238.0 0
189701.0 391704.0 0
192016.0 386533.0 0
196173.0 387549.0 0
194498.0 390361.0 0
199713.0 386448.0 0
197961.0 389496.0 0
202498.0 386550.0 0
202639.0 388934.0 0
205515.0 389536.0 0
207418.0 386973.0 0
208978.0 389804.0 0
210247.0 387511.0 0
212321.0 387592.0 0
215447.0 384924.0 0
215193.0 388366.0 0
212612.0 389921.0 0
217117.0 388153.0 0
218385.0 385709.0 0
221672.0 385237.0 0
224344.0 388032.0 0
220839.0 389021.0 0
226299.0 385018.0 0
228512.0 388487.0 0
230886.0 386615.0 0
233957.0 386536.0 0
238422.0 386045.0 0
235753.0 389744.0 0
239138.0 389563.0 0
242295.0 387971.0 0
245058.0 387153.0 0
248180.0 387452.0 0
245310.0 389576.0 0
251705.0 384164.0 0
254086.0 386060.0 0
251770.0 388026.0 0
256921.0 387972.0 0
259946.0 385607.0 0
262126.0 388473.0 0
264182.0 386526.0 0
266459.0 386416.0 0
269312.0 387082.0 0
266187.0 389235.0 0
273119.0 385030.0 0
273814.0 388214.0 0
278237.0 385483.0 0
277069.0 389528.0 0
281143.0 385926.0 0
280495.0 389039.0 0
283681.0 385801.0 0
284950.0 388927.0 0
287240.0 387664.0 0
289020.0 385917.0 0
291196.0 388002.0 0
293336.0 390151.0 0
296223.0 386944.0 0
296050.0 390032.0 0
299895.0 386092.0 0
298494.0 390281.0 0
302022.0 389152.0 0
305274.0 387824.0 0
308170.0 387488.0 0
312456.0 388952.0 0
310220.0 388996.0 0
314668.0 386821.0 0
316734.0 388233.0 0
315061.0 390269.0 0
318709.0 390197.0 0
321533.0 390159.0 0
322887.0 391327.0 0
174856.0 392885.0 0
171300.0 396585.0 0
173333.0 394580.0 0
176547.0 391728.0 0
178150.0 393953.0 0
176683.0 396292.0 0
182647.0 392173.0 0
180467.0 394311.0 0
183725.0 394132.0 0
186940.0 392851.0 0
186945.0 396046.0 0
189618.0 394911.0 0
193532.0 393141.0 0
196100.0 393120.0 0
192003.0 394573.0 0
194583.0 395674.0 0
199944.0 390755.0 0
198006.0 394515.0 0
202131.0 392522.0 0
200688.0 394578.0 0
205049.0 393470.0 0
208128.0 394811.0 0
210665.0 392501.0 0
212924.0 394742.0 0
214948.0 391548.0 0
218581.0 390076.0 0
217370.0 393401.0 0
219655.0 395639.0 0
221785.0 391759.0 0
222383.0 394180.0 0
224845.0 390644.0 0
226492.0 392990.0 0
229957.0 391821.0 0
232351.0 390218.0 0
232571.0 395023.0 0
235329.0 393291.0 0
238081.0 395020.0 0
240830.0 393265.0 0
243388.0 390966.0 0
245376.0 392204.0 0
248238.0 390734.0 0
251978.0 391536.0 0
250373.0 394798.0 0
255715.0 392000.0 0
258866.0 393843.0 0
259814.0 390582.0 0
261509.0 393078.0 0
263938.0 391131.0 0
267713.0 391795.0 0
266017.0 394260.0 0
271891.0 393456.0 0
270626.0 390093.0 0
275198.0 392291.0 0
275772.0 394837.0 0
278963.0 392807.0 0
277750.0 395225.0 0
282656.0 390579.0 0
282386.0 394039.0 0
289399.0 390683.0 0
286020.0 395081.0 0
287342.0 391763.0 0
292073.0 392682.0 0
294710.0 393066.0 0
291948.0 395445.0 0
296531.0 393022.0 0
295002.0 394786.0 0
296011.0 395852.0 0
298388.0 394223.0 0
303938.0 392612.0 0
300262.0 392438.0 0
301416.0 394263.0 0
304028.0 395344.0 0
306545.0 391510.0 0
308841.0 391630.0 0
306654.0 394503.0 0
307944.0 395037.0 0
313507.0 391999.0 0
311132.0 393640.0 0
318775.0 393234.0 0
315635.0 394412.0 0
324523.0 392637.0 0
322169.0 393176.0 0
320695.0 396041.0 0
323886.0 396239.0 0
325877.0 394413.0 0
328109.0 395265.0 0
161334.0 401547.0 0
164103.0 400724.0 0
168065.0 397141.0 0
166190.0 399462.0 0
168860.0 400770.0 0
171577.0 399375.0 0
174579.0 398433.0 0
173358.0 401640.0 0
178421.0 399248.0 0
176396.0 401705.0 0
181242.0 396753.0 0
184365.0 397549.0 0
181570.0 400347.0 0
188608.0 398729.0 0
185366.0 400191.0 0
188828.0 400839.0 0
192391.0 396685.0 0
190737.0 397838.0 0
194481.0 397892.0 0
192645.0 399146.0 0
197619.0 397496.0 0
200700.0 397976.0 0
197085.0 400224.0 0
201253.0 400138.0 0
203150.0 396572.0 0
204571.0 399058.0 0
207478.0 398048.0 0
211149.0 396854.0 0
209561.0 399815.0 0
214845.0 395963.0 0
212661.0 398212.0 0
214518.0 400357.0 0
216689.0 398330.0 0
219378.0 398745.0 0
222408.0 398947.0 0
224350.0 396549.0 0
225323.0 400962.0 0
226487.0 399072.0 0
229335.0 400077.0 0
227667.0 395844.0 0
229945.0 396942.0 0
234523.0 398370.0 0
237885.0 398505.0 0
241080.0 398540.0 0
243150.0 395967.0 0
246722.0 395430.0 0
248767.0 399381.0 0
252226.0 397435.0 0
255428.0 395871.0 0
256219.0 398989.0 0
258375.0 396562.0 0
258059.0 400461.0 0
261224.0 396364.0 0
264459.0 396858.0 0
260828.0 399826.0 0
264626.0 400170.0 0
268819.0 395262.0 0
269329.0 398011.0 0
267339.0 399442.0 0
271565.0 399492.0 0
273166.0 396806.0 0
275440.0 398826.0 0
278382.0 398352.0 0
281259.0 397047.0 0
282912.0 399726.0 0
289126.0 396311.0 0
285274.0 398498.0 0
287335.0 400555.0 0
289553.0 399521.0 0
293954.0 398162.0 0
292018.0 400377.0 0
299113.0 397104.0 0
296973.0 399306.0 0
301749.0 397157.0 0
303910.0 400496.0 0
301326.0 401111.0 0
305782.0 398036.0 0
308332.0 398152.0 0
310702.0 396255.0 0
310964.0 400344.0 0
313083.0 398517.0 0
314906.0 396864.0 0
318106.0 397924.0 0
316567.0 399961.0 0
319849.0 400762.0 0
321625.0 399129.0 0
323621.0 400610.0 0
327451.0 399345.0 0
329982.0 397380.0 0
329582.0 401151.0 0
325278.0 398281.0 0
332534.0 398281.0 0
334617.0 400633.0 0
337215.0 401171.0 0
157248.0 404387.0 0
159524.0 403544.0 0
155084.0 405622.0 0
163525.0 403854.0 0
160918.0 405986.0 0
168773.0 403795.0 0
166140.0 404847.0 0
169642.0 406768.0 0
171690.0 403921.0 0
173425.0 406132.0 0
175974.0 404329.0 0
179044.0 403338.0 0
177014.0 406247.0 0
182528.0 402557.0 0
184572.0 402386.0 0
180991.0 405280.0 0
184454.0 406071.0 0
186855.0 402170.0 0
187044.0 405157.0 0
189931.0 405447.0 0
191516.0 401849.0 0
194824.0 401480.0 0
192864.0 405805.0 0
195067.0 404021.0 0
198639.0 401880.0 0
197499.0 404745.0 0
199915.0 404721.0 0
201314.0 402377.0 0
203675.0 403186.0 0
201122.0 406279.0 0
203976.0 406101.0 0
205966.0 401543.0 0
207909.0 403877.0 0
210564.0 402259.0 0
213289.0 404512.0 0
216905.0 402674.0 0
219151.0 401543.0 0
217871.0 405163.0 0
221335.0 403093.0 0
223484.0 402230.0 0
226287.0 405663.0 0
227773.0 402977.0 0
231408.0 404697.0 0
232551.0 401405.0 0
235294.0 402518.0 0
238149.0 402164.0 0
240724.0 403150.0 0
243445.0 401137.0 0
243830.0 404656.0 0
245751.0 399439.0 0
246433.0 403071.0 0
249533.0 402567.0 0
253149.0 400515.0 0
254194.0 402975.0 0
257245.0 404053.0 0
262742.0 402659.0 0
260053.0 404698.0 0
264926.0 405311.0 0
266585.0 402467.0 0
269161.0 402487.0 0
268193.0 405361.0 0
271878.0 402654.0 0
274898.0 401967.0 0
277237.0 403629.0 0
279590.0 401193.0 0
281168.0 405272.0 0
283349.0 402579.0 0
286301.0 402973.0 0
288834.0 406062.0 0
289708.0 403817.0 0
292636.0 403471.0 0
294738.0 401427.0 0
298554.0 402786.0 0
295983.0 404384.0 0
300821.0 405835.0 0
303352.0 405171.0 0
306015.0 403323.0 0
308306.0 401394.0 0
308506.0 405635.0 0
312936.0 402794.0 0
310587.0 403841.0 0
313234.0 405569.0 0
316062.0 402789.0 0
319860.0 402830.0 0
317272.0 405848.0 0
321659.0 402559.0 0
323263.0 405495.0 0
327635.0 402966.0 0
325131.0 402999.0 0
326807.0 405969.0 0
328401.0 405997.0 0
332100.0 402493.0 0
330140.0 404419.0 0
333166.0 406123.0 0
335810.0 404575.0 0
339614.0 402441.0 0
338056.0 405594.0 0
341496.0 404721.0 0
343705.0 406285.0 0
346834.0 406918.0 0
145811.0 411352.0 0
148382.0 410299.0 0
150232.0 408097.0 0
153278.0 407590.0 0
153664.0 410258.0 0
157253.0 407308.0 0
159107.0 409340.0 0
156757.0 411689.0 0
162686.0 407450.0 0
162013.0 410911.0 0
165633.0 407607.0 0
168263.0 408562.0 0
165317.0 410172.0 0
166633.0 411759.0 0
172756.0 408542.0 0
170005.0 409913.0 0
174173.0 411202.0 0
177116.0 408334.0 0
180379.0 408167.0 0
177022.0 410923.0 0
184340.0 408908.0 0
182154.0 410953.0 0
186980.0 409225.0 0
189437.0 409079.0 0
185896.0 411884.0 0
188751.0 411752.0 0
191631.0 410133.0 0
194282.0 408521.0 0
194978.0 411555.0 0
197330.0 407832.0 0
199653.0 409538.0 0
202762.0 409233.0 0
207466.0 407386.0 0
206052.0 411399.0 0
211150.0 407665.0 0
212652.0 410987.0 0
215864.0 406969.0 0
216339.0 410492.0 0
220415.0 406141.0 0
219316.0 409024.0 0
221351.0 410551.0 0
223367.0 406844.0 0
223542.0 409808.0 0
225927.0 409881.0 0
228193.0 409971.0 0
229531.0 407369.0 0
234013.0 406655.0 0
232306.0 409438.0 0
236356.0 405687.0 0
238806.0 407148.0 0
241302.0 406318.0 0
243539.0 409246.0 0
246140.0 406509.0 0
249196.0 406991.0 0
252366.0 405639.0 0
250361.0 409987.0 0
253167.0 409763.0 0
255443.0 407671.0 0
258522.0 408676.0 0
260530.0 410026.0 0
260838.0 407104.0 0
263854.0 408417.0 0
266913.0 410280.0 0
269743.0 408220.0 0
272649.0 406309.0 0
274146.0 409619.0 0
275380.0 406361.0 0
276449.0 410473.0 0
278244.0 407927.0 0
280761.0 410055.0 0
284214.0 408233.0 0
286018.0 405545.0 0
288342.0 408687.0 0
287952.0 411537.0 0
291321.0 408960.0 0
292856.0 406865.0 0
296097.0 407744.0 0
295212.0 410308.0 0
298978.0 408268.0 0
300374.0 411615.0 0
303610.0 410194.0 0
305633.0 408003.0 0
308138.0 409426.0 0
311501.0 408271.0 0
315446.0 408867.0 0
320508.0 406838.0 0
320968.0 409968.0 0
323903.0 410939.0 0
325205.0 407861.0 0
326978.0 409771.0 0
328851.0 407976.0 0
331184.0 407959.0 0
331466.0 410513.0 0
333803.0 410600.0 0
335130.0 408517.0 0
337918.0 408917.0 0
337298.0 412103.0 0
340450.0 409221.0 0
343951.0 409778.0 0
342124.0 411870.0 0
349102.0 409205.0 0
346527.0 411002.0 0
351596.0 411056.0 0
141283.0 414779.0 0
143832.0 413141.0 0
139250.0 416519.0 0
147926.0 414708.0 0
145330.0 416120.0 0
150537.0 412303.0 0
152392.0 414884.0 0
155416.0 414616.0 0
158955.0 413992.0 0
156257.0 417128.0 0
162870.0 413571.0 0
160484.0 415756.0 0
165425.0 414772.0 0
169493.0 412357.0 0
168656.0 415225.0 0
172869.0 413309.0 0
172387.0 415580.0 0
179165.0 412697.0 0
175813.0 414434.0 0
174917.0 416968.0 0
179094.0 416255.0 0
182717.0 414955.0 0
186018.0 414452.0 0
189739.0 413891.0 0
192313.0 413215.0 0
189833.0 416647.0 0
194115.0 415602.0 0
197256.0 412848.0 0
198987.0 415302.0 0
200957.0 412329.0 0
202726.0 412888.0 0
201892.0 415730.0 0
209481.0 412203.0 0
205712.0 415778.0 0
209545.0 415893.0 0
212562.0 414901.0 0
215603.0 414642.0 0
218409.0 413614.0 0
221267.0 413357.0 0
223882.0 412635.0 0
226158.0 413312.0 0
230085.0 412638.0 0
229528.0 416180.0 0
233582.0 414185.0 0
235462.0 411108.0 0
236045.0 416023.0 0
238141.0 409800.0 0
237947.0 413832.0 0
240870.0 411468.0 0
242031.0 414427.0 0
244722.0 415228.0 0
246252.0 411698.0 0
249720.0 413631.0 0
252685.0 414577.0 0
254167.0 411963.0 0
257256.0 411997.0 0
255640.0 414860.0 0
260125.0 414220.0 0
262690.0 411490.0 0
263699.0 415713.0 0
265157.0 413044.0 0
268671.0 414083.0 0
271837.0 411919.0 0
274182.0 414413.0 0
278616.0 411772.0 0
276991.0 414258.0 0
281117.0 412172.0 0
280138.0 414691.0 0
283129.0 414483.0 0
284986.0 412063.0 0
286711.0 415315.0 0
288777.0 414282.0 0
289916.0 412787.0 0
292644.0 412071.0 0
290772.0 415909.0 0
293422.0 415185.0 0
296897.0 412453.0 0
296707.0 415509.0 0
300815.0 415469.0 0
304432.0 416313.0 0
308328.0 412025.0 0
306062.0 413310.0 0
308915.0 415425.0 0
311280.0 411797.0 0
311316.0 414526.0 0
316522.0 411812.0 0
319693.0 412829.0 0
314491.0 414113.0 0
317521.0 415215.0 0
323997.0 413874.0 0
321475.0 416119.0 0
327028.0 414458.0 0
329335.0 412477.0 0
329931.0 416258.0 0
327494.0 417365.0 0
332401.0 414876.0 0
335091.0 413844.0 0
340080.0 413409.0 0
337019.0 416964.0 0
339838.0 416025.0 0
343799.0 414053.0 0
343660.0 416619.0 0
346540.0 413389.0 0
349809.0 413525.0 0
346391.0 417226.0 0
348205.0 415441.0 0
354205.0 412533.0 0
350705.0 416771.0 0
352870.0 415884.0 0
354836.0 417293.0 0
356918.0 413420.0 0
356633.0 416671.0 0
359178.0 415311.0 0
361758.0 416167.0 0
130801.0 420653.0 0
133674.0 419784.0 0
136585.0 418343.0 0
138850.0 421212.0 0
141443.0 419490.0 0
143957.0 418686.0 0
141165.0 422251.0 0
143905.0 422097.0 0
148450.0 418331.0 0
146734.0 420646.0 0
148335.0 422106.0 0
151012.0 417664.0 0
153748.0 418623.0 0
150867.0 420748.0 0
154293.0 420492.0 0
152246.0 422392.0 0
158469.0 418996.0 0
156641.0 421862.0 0
162588.0 417456.0 0
161642.0 419614.0 0
162948.0 422105.0 0
164841.0 417684.0 0
168885.0 417946.0 0
166026.0 420420.0 0
171865.0 417476.0 0
171254.0 420346.0 0
174650.0 420336.0 0
178333.0 419770.0 0
181716.0 418518.0 0
183462.0 417521.0 0
182720.0 420274.0 0
180166.0 422003.0 0
186779.0 417381.0 0
186027.0 420301.0 0
190077.0 421450.0 0
191926.0 418505.0 0
194711.0 419724.0 0
197101.0 417678.0 0
199026.0 420502.0 0
201343.0 418661.0 0
204262.0 419862.0 0
207432.0 418990.0 0
209810.0 419253.0 0
213599.0 417749.0 0
212613.0 421367.0 0
216380.0 417424.0 0
218958.0 416946.0 0
216276.0 420252.0 0
218562.0 421110.0 0
222311.0 416196.0 0
220743.0 419611.0 0
223505.0 421042.0 0
225746.0 417400.0 0
228368.0 420194.0 0
231040.0 419593.0 0
232289.0 417238.0 0
235135.0 418815.0 0
238829.0 419831.0 0
239825.0 416782.0 0
242874.0 418134.0 0
244842.0 420636.0 0
247607.0 417915.0 0
251662.0 418419.0 0
254784.0 417839.0 0
257744.0 416956.0 0
255732.0 421064.0 0
258813.0 419994.0 0
261731.0 418655.0 0
266533.0 417166.0 0
264916.0 419327.0 0
266208.0 421005.0 0
269002.0 419898.0 0
270749.0 416783.0 0
272014.0 420797.0 0
273555.0 417971.0 0
275901.0 419106.0 0
277603.0 417398.0 0
278970.0 420185.0 0
280821.0 418227.0 0
284057.0 417163.0 0
285787.0 420194.0 0
288942.0 418180.0 0
291487.0 421224.0 0
293541.0 418072.0 0
296606.0 418942.0 0
299834.0 418584.0 0
298706.0 421600.0 0
302457.0 419857.0 0
306646.0 419091.0 0
309727.0 418831.0 0
312380.0 418035.0 0
314379.0 421859.0 0
314986.0 417293.0 0
318041.0 417245.0 0
317569.0 420675.0 0
321324.0 420093.0 0
324710.0 417702.0 0
324726.0 419956.0 0
329386.0 419745.0 0
327603.0 421991.0 0
332391.0 418552.0 0
331812.0 421963.0 0
335839.0 420098.0 0
339991.0 421521.0 0
341924.0 418932.0 0
345150.0 420796.0 0
347147.0 419735.0 0
349760.0 419476.0 0
354548.0 420320.0 0
352140.0 421684.0 0
357303.0 419989.0 0
359301.0 418681.0 0
360887.0 422249.0 0
362738.0 420407.0 0
363782.0 417873.0 0
366560.0 418844.0 0
369216.0 420208.0 0
366539.0 421637.0 0
371602.0 422273.0 0
123051.0 424711.0 0
121392.0 427047.0 0
126321.0 424553.0 0
128839.0 423009.0 0
124673.0 427401.0 0
131593.0 424682.0 0
128998.0 426883.0 0
132587.0 426864.0 0
134079.0 423024.0 0
137158.0 424229.0 0
135424.0 427004.0 0
143449.0 424976.0 0
139998.0 426009.0 0
146722.0 424648.0 0
149212.0 424480.0 0
154041.0 424487.0 0
150662.0 426994.0 0
156155.0 426545.0 0
159242.0 425796.0 0
159855.0 423017.0 0
162180.0 426567.0 0
164149.0 425105.0 0
168507.0 423627.0 0
166091.0 427214.0 0
172234.0 424586.0 0
175194.0 424050.0 0
178067.0 424542.0 0
182022.0 424038.0 0
185142.0 423853.0 0
181186.0 426851.0 0
184367.0 427110.0 0
188593.0 425135.0 0
192908.0 423440.0 0
191809.0 426554.0 0
194296.0 425534.0 0
195956.0 422804.0 0
197739.0 425858.0 0
201538.0 423305.0 0
202012.0 426568.0 0
204857.0 424578.0 0
206738.0 422015.0 0
208890.0 423251.0 0
206994.0 425448.0 0
209224.0 426415.0 0
212177.0 425714.0 0
215617.0 424471.0 0
218883.0 424353.0 0
222223.0 424342.0 0
225243.0 425101.0 0
226304.0 422747.0 0
229528.0 423688.0 0
233390.0 422338.0 0
234036.0 426144.0 0
237279.0 422737.0 0
237285.0 426201.0 0
240339.0 424959.0 0
242034.0 421628.0 0
243834.0 425145.0 0
246502.0 423906.0 0
248906.0 422074.0 0
252462.0 422305.0 0
251135.0 425873.0 0
254782.0 425105.0 0
256965.0 424218.0 0
263210.0 421969.0 0
260080.0 423506.0 0
262083.0 426161.0 0
268312.0 423521.0 0
265308.0 424640.0 0
271078.0 424163.0 0
273913.0 423044.0 0
274187.0 426621.0 0
276962.0 422315.0 0
276809.0 426027.0 0
282648.0 421929.0 0
280057.0 423867.0 0
285153.0 425028.0 0
288242.0 423814.0 0
292679.0 424674.0 0
294844.0 425418.0 0
294954.0 421748.0 0
296546.0 423779.0 0
299131.0 426401.0 0
302003.0 423666.0 0
306078.0 422681.0 0
308912.0 422349.0 0
307850.0 426039.0 0
311226.0 422241.0 0
310454.0 424901.0 0
312542.0 426183.0 0
315108.0 425187.0 0
318688.0 424440.0 0
322191.0 423734.0 0
325209.0 422935.0 0
328726.0 424978.0 0
326607.0 426293.0 0
330152.0 427308.0 0
330869.0 423883.0 0
334811.0 423027.0 0
332987.0 424814.0 0
332690.0 427237.0 0
339231.0 424450.0 0
336788.0 425613.0 0
343977.0 423517.0 0
340450.0 427044.0 0
342962.0 426070.0 0
347122.0 424373.0 0
348518.0 422563.0 0
347034.0 427299.0 0
350153.0 425016.0 0
352669.0 424773.0 0
356060.0 423932.0 0
355049.0 426306.0 0
358464.0 423321.0 0
359044.0 426196.0 0
362756.0 424705.0 0
365858.0 424505.0 0
361600.0 426879.0 0
365826.0 427647.0 0
369948.0 422879.0 0
368981.0 425211.0 0
370807.0 427404.0 0
372612.0 425452.0 0
373748.0 422915.0 0
375388.0 425224.0 0
377800.0 425961.0 0
379928.0 427716.0 0
113150.0 432344.0 0
116155.0 430560.0 0
119150.0 429145.0 0
121868.0 431111.0 0
125554.0 430622.0 0
128978.0 429145.0 0
132380.0 429651.0 0
129897.0 431676.0 0
136672.0 428968.0 0
134714.0 432272.0 0
138379.0 431879.0 0
139578.0 429150.0 0
142247.0 430801.0 0
144811.0 428106.0 0
147805.0 428864.0 0
145002.0 432468.0 0
148311.0 432228.0 0
152462.0 429386.0 0
151230.0 431908.0 0
155591.0 429724.0 0
159271.0 429088.0 0
162201.0 429475.0 0
159951.0 432385.0 0
168322.0 428597.0 0
164922.0 430437.0 0
170809.0 427497.0 0
174608.0 427612.0 0
171118.0 430769.0 0
174315.0 431260.0 0
178331.0 427699.0 0
178317.0 431320.0 0
183440.0 429307.0 0
181642.0 430189.0 0
187463.0 428135.0 0
185946.0 430709.0 0
190337.0 429529.0 0
188386.0 431732.0 0
194510.0 427878.0 0
192961.0 431641.0 0
196772.0 431024.0 0
199876.0 428506.0 0
204572.0 427778.0 0
202767.0 430591.0 0
207177.0 428720.0 0
208846.0 431471.0 0
210463.0 429021.0 0
213302.0 428708.0 0
212214.0 431963.0 0
215838.0 427600.0 0
215886.0 431606.0 0
218774.0 428600.0 0
222147.0 428134.0 0
224871.0 428065.0 0
222770.0 431526.0 0
225332.0 430624.0 0
227869.0 427108.0 0
228234.0 431083.0 0
231306.0 427606.0 0
232002.0 431212.0 0
234850.0 429054.0 0
238025.0 429400.0 0
241433.0 428688.0 0
244998.0 428612.0 0
248195.0 427239.0 0
247271.0 431751.0 0
250317.0 430263.0 0
254058.0 428721.0 0
258397.0 427803.0 0
257917.0 431113.0 0
262734.0 429812.0 0
270046.0 427818.0 0
266066.0 427994.0 0
267832.0 430906.0 0
273213.0 431032.0 0
276895.0 429555.0 0
279789.0 427803.0 0
283068.0 426948.0 0
281633.0 430739.0 0
286596.0 427724.0 0
284395.0 429447.0 0
288213.0 431535.0 0
290008.0 427154.0 0
293271.0 428394.0 0
292361.0 431721.0 0
296752.0 428748.0 0
304305.0 427310.0 0
301813.0 429401.0 0
306124.0 430633.0 0
309405.0 429459.0 0
311939.0 428428.0 0
314353.0 430490.0 0
316355.0 428102.0 0
319692.0 428597.0 0
319232.0 431979.0 0
323603.0 427938.0 0
323459.0 431586.0 0
328701.0 428538.0 0
327086.0 430394.0 0
332094.0 429760.0 0
330360.0 432168.0 0
335911.0 427938.0 0
339828.0 429736.0 0
335972.0 430613.0 0
344640.0 428464.0 0
343197.0 430984.0 0
350157.0 428056.0 0
348205.0 430785.0 0
352793.0 428668.0 0
351153.0 431678.0 0
354896.0 431106.0 0
357646.0 428498.0 0
359912.0 430752.0 0
363165.0 429606.0 0
364664.0 432133.0 0
368264.0 429206.0 0
373291.0 429729.0 0
375258.0 428291.0 0
371637.0 432357.0 0
375802.0 432056.0 0
377634.0 428935.0 0
377839.0 431255.0 0
380480.0 431971.0 0
382121.0 429186.0 0
384790.0 430490.0 0
383201.0 432681.0 0
387166.0 432382.0 0
104397.0 437825.0 0
107433.0 436283.0 0
109979.0 433599.0 0
110459.0 436520.0 0
113670.0 435482.0 0
117027.0 433844.0 0
118029.0 436661.0 0
119758.0 433140.0 0
121554.0 436756.0 0
125409.0 434935.0 0
129486.0 433573.0 0
131913.0 434400.0 0
131479.0 437164.0 0
136584.0 435903.0 0
140515.0 434442.0 0
144272.0 434839.0 0
141454.0 437908.0 0
148185.0 435385.0 0
144874.0 437112.0 0
150869.0 435612.0 0
152968.0 433878.0 0
153136.0 437360.0 0
156458.0 432923.0 0
158843.0 435339.0 0
156044.0 436492.0 0
162246.0 434191.0 0
160316.0 436616.0 0
167824.0 432711.0 0
165076.0 436190.0 0
169754.0 437219.0 0
170372.0 434868.0 0
173615.0 435203.0 0
176929.0 435549.0 0
180659.0 434330.0 0
184000.0 433372.0 0
183936.0 436892.0 0
190043.0 433754.0 0
187055.0 434885.0 0
191310.0 436863.0 0
194173.0 434942.0 0
199599.0 433422.0 0
196915.0 436960.0 0
203051.0 435092.0 0
205547.0 432317.0 0
206548.0 435460.0 0
209026.0 434690.0 0
212250.0 435558.0 0
219744.0 432794.0 0
215801.0 435233.0 0
219190.0 436054.0 0
222141.0 435293.0 0
224852.0 434253.0 0
228263.0 434457.0 0
231795.0 434887.0 0
235425.0 432029.0 0
239193.0 433019.0 0
235496.0 435548.0 0
243256.0 433231.0 0
247247.0 436418.0 0
249831.0 433544.0 0
252665.0 432946.0 0
251446.0 436301.0 0
254842.0 436439.0 0
255719.0 432776.0 0
257946.0 435157.0 0
260303.0 433030.0 0
265330.0 434171.0 0
270328.0 433886.0 0
273141.0 437122.0 0
278855.0 432408.0 0
275939.0 434466.0 0
281231.0 434961.0 0
284025.0 433052.0 0
283867.0 436787.0 0
286549.0 436055.0 0
290186.0 435093.0 0
292794.0 435391.0 0
295717.0 433280.0 0
296354.0 436797.0 0
300044.0 432628.0 0
304275.0 433475.0 0
299771.0 437117.0 0
303871.0 437080.0 0
307971.0 433826.0 0
311386.0 433266.0 0
316403.0 434316.0 0
319131.0 437133.0 0
321778.0 433137.0 0
324383.0 434630.0 0
321615.0 435875.0 0
325729.0 432864.0 0
328229.0 434862.0 0
325969.0 436598.0 0
334679.0 433065.0 0
332455.0 435410.0 0
339046.0 432809.0 0
337398.0 435639.0 0
342091.0 434026.0 0
341232.0 437738.0 0
345449.0 437430.0 0
346864.0 433698.0 0
349665.0 437005.0 0
350888.0 434286.0 0
353400.0 433473.0 0
352944.0 437224.0 0
357587.0 433578.0 0
356844.0 436976.0 0
360997.0 433374.0 0
364247.0 434832.0 0
361593.0 435315.0 0
364076.0 437354.0 0
368499.0 432843.0 0
367751.0 436201.0 0
370389.0 437460.0 0
374031.0 433810.0 0
372358.0 436064.0 0
376927.0 435350.0 0
379667.0 435046.0 0
385735.0 434633.0 0
383148.0 436258.0 0
387920.0 436144.0 0
390042.0 434165.0 0
387104.0 437952.0 0
392487.0 436423.0 0
395485.0 437104.0 0
97072.4 442784.0 0
99111.2 440436.0 0
101703.0 439363.0 0
102264.0 442763.0 0
105719.0 441131.0 0
108172.0 439585.0 0
110910.0 438497.0 0
110024.0 440608.0 0
112430.0 440362.0 0
109551.0 442785.0 0
113014.0 442599.0 0
114815.0 438309.0 0
116811.0 440687.0 0
119539.0 440358.0 0
123462.0 440235.0 0
121593.0 441885.0 0
127999.0 438031.0 0
125248.0 441500.0 0
128876.0 441390.0 0
134185.0 438826.0 0
132172.0 441594.0 0
136677.0 440938.0 0
138749.0 438703.0 0
139433.0 441310.0 0
142586.0 441209.0 0
145910.0 439914.0 0
148685.0 438196.0 0
150927.0 439860.0 0
153219.0 441944.0 0
154697.0 439225.0 0
156249.0 439714.0 0
157998.0 438015.0 0
159446.0 440136.0 0
162031.0 438733.0 0
161453.0 442593.0 0
164509.0 440404.0 0
167553.0 437841.0 0
167177.0 440680.0 0
169966.0 439984.0 0
173013.0 438564.0 0
174300.0 441877.0 0
177888.0 438025.0 0
175613.0 438371.0 0
177681.0 440949.0 0
181018.0 437518.0 0
184879.0 439827.0 0
181631.0 440911.0 0
187832.0 438005.0 0
189370.0 441451.0 0
193081.0 440245.0 0
197070.0 441307.0 0
200614.0 437961.0 0
204540.0 439053.0 0
200584.0 441237.0 0
209365.0 439477.0 0
214098.0 439625.0 0
217325.0 438102.0 0
217978.0 441016.0 0
221445.0 438826.0 0
225300.0 438104.0 0
225711.0 441789.0 0
229083.0 441243.0 0
229057.0 437954.0 0
232893.0 439197.0 0
239517.0 436989.0 0
236630.0 439504.0 0
239641.0 441563.0 0
243127.0 438324.0 0
246433.0 441105.0 0
253397.0 439266.0 0
250296.0 440006.0 0
258651.0 438238.0 0
256392.0 440292.0 0
261774.0 436900.0 0
260981.0 440776.0 0
268665.0 438092.0 0
264910.0 439807.0 0
271706.0 441015.0 0
278600.0 437634.0 0
275959.0 439405.0 0
282255.0 439670.0 0
289191.0 437785.0 0
286287.0 440370.0 0
290362.0 442210.0 0
292515.0 438530.0 0
295832.0 440169.0 0
299482.0 441294.0 0
303998.0 441407.0 0
307539.0 436925.0 0
308347.0 440869.0 0
311173.0 437396.0 0
311864.0 441704.0 0
314660.0 441778.0 0
314659.0 438141.0 0
317990.0 440478.0 0
321093.0 439167.0 0
323586.0 437973.0 0
324199.0 441649.0 0
327399.0 439107.0 0
328211.0 442174.0 0
330522.0 438099.0 0
335034.0 438212.0 0
331219.0 442185.0 0
334116.0 441084.0 0
338896.0 441043.0 0
342722.0 442174.0 0
344257.0 440661.0 0
348315.0 439665.0 0
346711.0 442511.0 0
351937.0 441106.0 0
360662.0 438729.0 0
355845.0 440984.0 0
358939.0 441625.0 0
363375.0 441296.0 0
366360.0 438804.0 0
370649.0 439899.0 0
368563.0 441215.0 0
373364.0 440383.0 0
375019.0 438021.0 0
377869.0 439694.0 0
380003.0 438565.0 0
377287.0 441912.0 0
381305.0 442988.0 0
381605.0 440803.0 0
384575.0 439196.0 0
386277.0 441809.0 0
389415.0 438334.0 0
389770.0 441349.0 0
392965.0 440084.0 0
395725.0 441913.0 0
397686.0 439022.0 0
400560.0 440730.0 0
403259.0 442195.0 0
91571.0 445945.0 0
88353.6 447591.0 0
94050.7 443763.0 0
94951.1 447574.0 0
99003.1 445291.0 0
100508.0 448037.0 0
103974.0 444956.0 0
107160.0 443738.0 0
104106.0 448030.0 0
107930.0 446642.0 0
111318.0 443983.0 0
111414.0 446785.0 0
115656.0 443586.0 0
114719.0 446461.0 0
118020.0 447117.0 0
118793.0 444288.0 0
121576.0 444501.0 0
121155.0 447404.0 0
124716.0 444704.0 0
127805.0 444758.0 0
127860.0 447543.0 0
130481.0 445062.0 0
133598.0 444330.0 0
130667.0 447464.0 0
136721.0 443656.0 0
134008.0 447692.0 0
138114.0 447365.0 0
140336.0 444115.0 0
142966.0 446063.0 0
144447.0 443811.0 0
147939.0 443183.0 0
146383.0 447116.0 0
151117.0 445174.0 0
156778.0 443082.0 0
158909.0 445548.0 0
154738.0 447139.0 0
161596.0 445768.0 0
164653.0 446461.0 0
164807.0 443372.0 0
167480.0 443260.0 0
167991.0 446269.0 0
170685.0 443020.0 0
171421.0 446309.0 0
179236.0 444776.0 0
175034.0 445704.0 0
183441.0 443914.0 0
182748.0 446916.0 0
186332.0 442669.0 0
186910.0 446068.0 0
189861.0 444747.0 0
193019.0 444299.0 0
190993.0 447280.0 0
196515.0 445209.0 0
199784.0 444386.0 0
203421.0 443663.0 0
200930.0 447095.0 0
206421.0 442743.0 0
205260.0 447427.0 0
208191.0 444579.0 0
211551.0 443748.0 0
214906.0 442973.0 0
214027.0 446462.0 0
217897.0 444695.0 0
221967.0 442860.0 0
221029.0 446549.0 0
224754.0 446426.0 0
228555.0 444874.0 0
232373.0 443234.0 0
234508.0 445993.0 0
235752.0 442646.0 0
237718.0 445534.0 0
243003.0 442221.0 0
241320.0 445252.0 0
244988.0 444627.0 0
249431.0 444491.0 0
253773.0 443014.0 0
252730.0 446704.0 0
258627.0 443304.0 0
256215.0 446364.0 0
263619.0 444056.0 0
260777.0 447057.0 0
268117.0 442736.0 0
267037.0 446423.0 0
272058.0 445639.0 0
275357.0 442393.0 0
279506.0 442776.0 0
276195.0 445473.0 0
278751.0 446593.0 0
283777.0 443442.0 0
282387.0 446843.0 0
287386.0 445767.0 0
294326.0 443226.0 0
297429.0 445215.0 0
301332.0 445444.0 0
305301.0 445982.0 0
308510.0 444362.0 0
314323.0 444553.0 0
311273.0 445772.0 0
316731.0 443790.0 0
315286.0 447793.0 0
319137.0 446764.0 0
320699.0 442900.0 0
323243.0 446145.0 0
326883.0 445453.0 0
330367.0 446037.0 0
333972.0 445314.0 0
336358.0 443309.0 0
338213.0 445818.0 0
340884.0 444256.0 0
345066.0 444829.0 0
342843.0 447145.0 0
349242.0 443802.0 0
347348.0 447528.0 0
350124.0 446265.0 0
353185.0 444774.0 0
356249.0 444076.0 0
359122.0 444032.0 0
358341.0 447953.0 0
361758.0 444080.0 0
362032.0 447765.0 0
364760.0 446339.0 0
366346.0 443636.0 0
369451.0 446054.0 0
372194.0 444260.0 0
375188.0 442974.0 0
374613.0 447473.0 0
377087.0 445771.0 0
378886.0 443809.0 0
384032.0 443870.0 0
383656.0 446777.0 0
381078.0 446090.0 0
387294.0 446145.0 0
390814.0 444563.0 0
394318.0 444916.0 0
399142.0 443639.0 0
398595.0 446525.0 0
402407.0 444847.0 0
405915.0 443809.0 0
406287.0 446639.0 0
408780.0 445429.0 0
411045.0 447499.0 0
82583.3 451417.0 0
85391.4 449410.0 0
87014.6 451977.0 0
90104.6 449980.0 0
92921.1 450359.0 0
89821.1 452921.0 0
97129.4 449595.0 0
94008.5 452928.0 0
97326.2 452456.0 0
100500.0 450966.0 0
102074.0 453026.0 0
104854.0 451086.0 0
107972.0 449781.0 0
111333.0 449820.0 0
109461.0 452676.0 0
115134.0 449136.0 0
117700.0 449762.0 0
113840.0 451385.0 0
116357.0 452802.0 0
120424.0 449547.0 0
123026.0 451008.0 0
124609.0 448130.0 0
127857.0 450577.0 0
125550.0 452758.0 0
130322.0 449494.0 0
132409.0 450781.0 0
136129.0 451290.0 0
141424.0 449330.0 0
145122.0 450657.0 0
148570.0 451433.0 0
149513.0 448181.0 0
152615.0 450704.0 0
158294.0 448966.0 0
156116.0 452279.0 0
161648.0 448689.0 0
164308.0 450629.0 0
160146.0 452352.0 0
168109.0 449501.0 0
168643.0 452102.0 0
171541.0 449738.0 0
174629.0 449416.0 0
177697.0 448412.0 0
180185.0 448427.0 0
177805.0 451038.0 0
181012.0 451491.0 0
184817.0 449652.0 0
188981.0 448973.0 0
193535.0 448148.0 0
191787.0 451328.0 0
197448.0 449150.0 0
194893.0 451670.0 0
201802.0 451412.0 0
209874.0 448284.0 0
206476.0 451871.0 0
213358.0 450600.0 0
217792.0 449269.0 0
221925.0 449840.0 0
228466.0 448318.0 0
226166.0 450721.0 0
231562.0 447483.0 0
234937.0 449798.0 0
230438.0 451673.0 0
238863.0 449149.0 0
242986.0 448665.0 0
240919.0 452246.0 0
246703.0 447400.0 0
246257.0 451082.0 0
250082.0 449835.0 0
254361.0 450202.0 0
258037.0 449733.0 0
264457.0 449224.0 0
261214.0 451792.0 0
269606.0 448584.0 0
268104.0 452414.0 0
272659.0 450508.0 0
275787.0 448582.0 0
279846.0 450078.0 0
283759.0 451737.0 0
285466.0 449048.0 0
289457.0 449253.0 0
288000.0 451166.0 0
292694.0 447509.0 0
291499.0 451884.0 0
295051.0 452133.0 0
296968.0 448938.0 0
299992.0 447837.0 0
302423.0 448226.0 0
300477.0 451999.0 0
305046.0 450256.0 0
308552.0 448461.0 0
312141.0 449977.0 0
315914.0 451488.0 0
319842.0 451392.0 0
323164.0 449402.0 0
325263.0 452390.0 0
325731.0 448510.0 0
328476.0 449853.0 0
332700.0 449979.0 0
336261.0 447841.0 0
340348.0 447833.0 0
336224.0 452434.0 0
338463.0 450128.0 0
344684.0 450041.0 0
341673.0 452152.0 0
349338.0 450439.0 0
351915.0 449324.0 0
354712.0 448001.0 0
352997.0 452648.0 0
355966.0 451570.0 0
359767.0 452035.0 0
363840.0 451193.0 0
367867.0 449575.0 0
372313.0 449817.0 0
374776.0 451008.0 0
377220.0 450062.0 0
379502.0 448150.0 0
379630.0 453069.0 0
382817.0 450585.0 0
386123.0 449149.0 0
389563.0 448441.0 0
388622.0 450888.0 0
391413.0 451778.0 0
392331.0 448629.0 0
396122.0 449121.0 0
393901.0 452865.0 0
396710.0 453248.0 0
400297.0 451522.0 0
402693.0 448325.0 0
405701.0 450639.0 0
408187.0 448871.0 0
411760.0 451181.0 0
409037.0 451439.0 0
414137.0 448806.0 0
416753.0 450950.0 0
414679.0 453308.0 0
419890.0 452684.0 0
76328.4 454675.0 0
73260.8 457267.0 0
76840.1 457407.0 0
79518.7 453415.0 0
82177.9 455908.0 0
79636.8 457257.0 0
83757.1 453780.0 0
85050.4 456615.0 0
86318.8 454352.0 0
88314.4 455969.0 0
91045.6 455169.0 0
94563.4 456226.0 0
98628.5 455442.0 0
100861.0 458034.0 0
103787.0 455933.0 0
106844.0 454100.0 0
108121.0 457128.0 0
112121.0 454339.0 0
110869.0 456980.0 0
115035.0 455884.0 0
117732.0 456996.0 0
119868.0 453565.0 0
122663.0 456130.0 0
127026.0 456219.0 0
130403.0 453359.0 0
130931.0 456864.0 0
133421.0 456821.0 0
133826.0 454080.0 0
136364.0 456062.0 0
139492.0 453603.0 0
144103.0 455190.0 0
148168.0 455189.0 0
151711.0 454738.0 0
155347.0 455574.0 0
159008.0 456174.0 0
163727.0 455533.0 0
166992.0 453535.0 0
167597.0 457001.0 0
171629.0 454408.0 0
175214.0 452651.0 0
177769.0 454469.0 0
175369.0 457039.0 0
180456.0 455178.0 0
183850.0 454059.0 0
183474.0 457548.0 0
187628.0 453197.0 0
191238.0 455097.0 0
194625.0 455231.0 0
198099.0 453880.0 0
200270.0 457099.0 0
203472.0 454986.0 0
206771.0 456711.0 0
210128.0 453346.0 0
210756.0 457582.0 0
213475.0 454914.0 0
215937.0 453168.0 0
219416.0 453851.0 0
216336.0 455783.0 0
223156.0 453090.0 0
222591.0 457078.0 0
227031.0 455590.0 0
233583.0 453654.0 0
231121.0 456288.0 0
234804.0 457345.0 0
237564.0 453933.0 0
243849.0 453616.0 0
241114.0 456342.0 0
245079.0 457347.0 0
247866.0 454427.0 0
251758.0 454363.0 0
256914.0 454591.0 0
264286.0 453594.0 0
261946.0 456838.0 0
269410.0 456262.0 0
272734.0 455008.0 0
276443.0 452810.0 0
277626.0 456818.0 0
280850.0 454350.0 0
284655.0 455960.0 0
286752.0 453854.0 0
287572.0 457025.0 0
289880.0 454709.0 0
293697.0 456158.0 0
297806.0 455555.0 0
304368.0 454506.0 0
308862.0 453257.0 0
313537.0 454941.0 0
318040.0 456569.0 0
322554.0 455260.0 0
328965.0 453670.0 0
326498.0 457697.0 0
332293.0 453694.0 0
331175.0 456960.0 0
335252.0 456076.0 0
339569.0 455090.0 0
344496.0 455495.0 0
347462.0 452961.0 0
350638.0 454715.0 0
354417.0 455400.0 0
357262.0 454985.0 0
359879.0 457114.0 0
361669.0 454902.0 0
365500.0 455107.0 0
363082.0 458020.0 0
368938.0 453560.0 0
370136.0 456747.0 0
372586.0 453416.0 0
375894.0 453559.0 0
373151.0 457022.0 0
375958.0 456372.0 0
379464.0 456412.0 0
382868.0 454718.0 0
386506.0 453602.0 0
382580.0 457557.0 0
386248.0 457627.0 0
390438.0 454860.0 0
389649.0 458019.0 0
393629.0 455880.0 0
397190.0 456469.0 0
401898.0 455842.0 0
405520.0 453579.0 0
409078.0 455294.0 0
412831.0 456198.0 0
416766.0 458507.0 0
417756.0 454987.0 0
420152.0 456817.0 0
422883.0 455227.0 0
427232.0 457566.0 0
66384.2 460450.0 0
63783.9 463210.0 0
68246.7 461606.0 0
69831.0 458824.0 0
71293.8 462186.0 0
73744.3 460412.0 0
77048.2 460655.0 0
80825.7 461081.0 0
83171.2 458621.0 0
87076.3 459192.0 0
84603.7 462258.0 0
89556.2 461745.0 0
91420.0 458566.0 0
93733.2 461161.0 0
95899.4 458684.0 0
96348.8 463298.0 0
98328.0 460603.0 0
102872.0 460565.0 0
100491.0 462550.0 0
105541.0 458645.0 0
106656.0 461596.0 0
109254.0 460123.0 0
111188.0 462309.0 0
113290.0 459199.0 0
116305.0 460941.0 0
120626.0 459368.0 0
119825.0 462563.0 0
122720.0 461806.0 0
124157.0 459433.0 0
127492.0 460059.0 0
124975.0 461806.0 0
131167.0 460228.0 0
135677.0 460448.0 0
140058.0 458666.0 0
143918.0 460327.0 0
148002.0 459304.0 0
151453.0 458525.0 0
151633.0 462629.0 0
154799.0 459387.0 0
158411.0 459892.0 0
162648.0 459753.0 0
166625.0 460899.0 0
171394.0 459381.0 0
179214.0 458764.0 0
175373.0 461997.0 0
179907.0 463070.0 0
183060.0 461320.0 0
187769.0 458361.0 0
186162.0 462637.0 0
192816.0 459064.0 0
190058.0 462635.0 0
196889.0 458170.0 0
196248.0 461335.0 0
203538.0 458567.0 0
200380.0 462132.0 0
205233.0 461459.0 0
208464.0 460454.0 0
214233.0 458644.0 0
211654.0 462286.0 0
218444.0 458684.0 0
215823.0 461796.0 0
221675.0 460824.0 0
225170.0 460317.0 0
228700.0 460129.0 0
232208.0 460122.0 0
235147.0 461769.0 0
238249.0 459179.0 0
242161.0 460614.0 0
249040.0 457935.0 0
246844.0 461284.0 0
253098.0 459271.0 0
250198.0 462810.0 0
258559.0 460227.0 0
262948.0 462249.0 0
266075.0 457865.0 0
267517.0 462237.0 0
270205.0 458920.0 0
274230.0 459220.0 0
271488.0 462526.0 0
278336.0 461046.0 0
282006.0 459041.0 0
286608.0 461363.0 0
290625.0 458701.0 0
291415.0 462447.0 0
294207.0 460710.0 0
297502.0 459363.0 0
300313.0 462506.0 0
301932.0 458174.0 0
305281.0 462417.0 0
307158.0 458002.0 0
309310.0 461215.0 0
311304.0 458431.0 0
315042.0 459834.0 0
312636.0 462291.0 0
318155.0 461337.0 0
322071.0 460299.0 0
326429.0 462547.0 0
330393.0 461018.0 0
334352.0 459881.0 0
338708.0 459090.0 0
337454.0 462780.0 0
342587.0 458329.0 0
341704.0 461939.0 0
345722.0 461480.0 0
347887.0 458034.0 0
350147.0 462179.0 0
352533.0 458433.0 0
353466.0 462448.0 0
356538.0 458895.0 0
360683.0 460278.0 0
364326.0 461674.0 0
367088.0 458817.0 0
370715.0 459907.0 0
368208.0 462553.0 0
371504.0 463544.0 0
374078.0 460414.0 0
377623.0 459757.0 0
381943.0 460649.0 0
386104.0 461184.0 0
389697.0 461560.0 0
392742.0 458825.0 0
396610.0 460279.0 0
393323.0 462645.0 0
400959.0 460522.0 0
405734.0 458412.0 0
404579.0 461547.0 0
409030.0 459776.0 0
407622.0 462435.0 0
412843.0 460904.0 0
420666.0 460389.0 0
417432.0 462268.0 0
421919.0 463647.0 0
424196.0 458942.0 0
425586.0 462346.0 0
428569.0 460665.0 0
430746.0 458874.0 0
433198.0 461627.0 0
436619.0 463608.0 0
60255.8 464714.0 0
57626.7 467982.0 0
62436.6 466492.0 0
66597.9 464700.0 0
65409.8 468236.0 0
69466.3 465695.0 0
72421.6 465679.0 0
75798.6 464435.0 0
75728.1 468121.0 0
79809.4 465228.0 0
83603.6 466558.0 0
87545.5 464722.0 0
91826.8 463986.0 0
90212.8 466888.0 0
92751.4 468294.0 0
94242.2 465575.0 0
96528.1 468098.0 0
99141.5 465633.0 0
102133.0 468211.0 0
104024.0 464403.0 0
106926.0 466717.0 0
108444.0 463659.0 0
110215.0 465735.0 0
112717.0 467826.0 0
113437.0 463896.0 0
117256.0 465922.0 0
121689.0 464314.0 0
121544.0 467919.0 0
125101.0 465058.0 0
128366.0 463497.0 0
132024.0 464469.0 0
128656.0 467663.0 0
136350.0 464972.0 0
133794.0 468276.0 0
137897.0 468076.0 0
140008.0 463544.0 0
141565.0 467570.0 0
144073.0 464131.0 0
147650.0 463303.0 0
145979.0 467334.0 0
149818.0 466719.0 0
156016.0 463221.0 0
153957.0 466870.0 0
158258.0 467422.0 0
160236.0 463524.0 0
163742.0 463591.0 0
162701.0 467180.0 0
165735.0 464689.0 0
166826.0 467882.0 0
169866.0 464050.0 0
173555.0 466420.0 0
178074.0 467279.0 0
183071.0 465559.0 0
187692.0 466062.0 0
193627.0 463178.0 0
191955.0 466823.0 0
196708.0 466104.0 0
200966.0 467074.0 0
204119.0 465654.0 0
207975.0 464206.0 0
210569.0 467362.0 0
214735.0 465867.0 0
219068.0 463287.0 0
218789.0 466942.0 0
223391.0 463651.0 0
221313.0 466249.0 0
227211.0 463980.0 0
229184.0 467684.0 0
231120.0 464126.0 0
234497.0 465345.0 0
238848.0 464417.0 0
243971.0 464590.0 0
241720.0 467034.0 0
247700.0 465879.0 0
253085.0 463738.0 0
251363.0 466576.0 0
255250.0 466350.0 0
255809.0 463123.0 0
259042.0 464821.0 0
262073.0 466914.0 0
265599.0 465993.0 0
269678.0 466898.0 0
272797.0 465263.0 0
275482.0 463691.0 0
278487.0 463910.0 0
278154.0 466570.0 0
281780.0 464150.0 0
285720.0 466896.0 0
290161.0 465970.0 0
294490.0 465172.0 0
296972.0 463086.0 0
298212.0 466157.0 0
302430.0 466507.0 0
309533.0 464826.0 0
306740.0 467733.0 0
313038.0 465763.0 0
314980.0 468111.0 0
316218.0 464328.0 0
319992.0 464336.0 0
323417.0 464077.0 0
322284.0 466890.0 0
329656.0 465107.0 0
326365.0 467412.0 0
333652.0 463621.0 0
332665.0 466649.0 0
340904.0 465235.0 0
336892.0 468144.0 0
344673.0 465465.0 0
349053.0 466015.0 0
353686.0 466820.0 0
357541.0 463293.0 0
358890.0 468051.0 0
361741.0 464316.0 0
366015.0 465280.0 0
362993.0 467329.0 0
369778.0 466701.0 0
375346.0 465059.0 0
378999.0 463386.0 0
379960.0 467325.0 0
383174.0 464381.0 0
387119.0 465113.0 0
390890.0 465533.0 0
395051.0 466727.0 0
392131.0 468090.0 0
397385.0 463926.0 0
400687.0 464161.0 0
399612.0 468037.0 0
403932.0 464804.0 0
403210.0 468333.0 0
407434.0 465772.0 0
410332.0 463517.0 0
411104.0 466921.0 0
414486.0 464949.0 0
416397.0 468579.0 0
418580.0 464881.0 0
419719.0 467991.0 0
423138.0 466930.0 0
426529.0 465830.0 0
430523.0 464366.0 0
435386.0 466360.0 0
440074.0 465522.0 0
438501.0 468323.0 0
443302.0 467291.0 0
49090.5 471787.0 0
53200.8 470317.0 0
51808.7 473854.0 0
56595.2 473307.0 0
61540.4 469412.0 0
60734.6 472552.0 0
65113.0 472214.0 0
69138.9 469200.0 0
69580.6 472786.0 0
72524.6 468865.0 0
73887.5 472540.0 0
78950.6 469948.0 0
81471.3 472916.0 0
83001.3 470244.0 0
87132.4 469300.0 0
85066.9 473370.0 0
90720.4 470909.0 0
94753.6 471318.0 0
98897.1 470253.0 0
101718.0 472257.0 0
104936.0 470370.0 0
108889.0 470426.0 0
112608.0 472322.0 0
115370.0 470204.0 0
118414.0 470190.0 0
121816.0 472594.0 0
124937.0 469002.0 0
126278.0 472011.0 0
130643.0 471460.0 0
135782.0 471829.0 0
139408.0 471673.0 0
148394.0 470763.0 0
143981.0 471273.0 0
151939.0 470212.0 0
155826.0 471418.0 0
160035.0 471003.0 0
163983.0 471296.0 0
168669.0 472491.0 0
170450.0 468425.0 0
173608.0 470688.0 0
177588.0 472994.0 0
181797.0 470100.0 0
185440.0 468854.0 0
189190.0 470535.0 0
185522.0 472783.0 0
193955.0 471493.0 0
198818.0 470577.0 0
203478.0 470692.0 0
206974.0 468283.0 0
207729.0 472447.0 0
212470.0 472021.0 0
216520.0 469661.0 0
220765.0 470345.0 0
224907.0 467962.0 0
227372.0 470878.0 0
232562.0 468430.0 0
230517.0 471428.0 0
234695.0 472512.0 0
236042.0 468271.0 0
239643.0 470503.0 0
244869.0 469485.0 0
249122.0 469773.0 0
253386.0 470103.0 0
258057.0 469436.0 0
261972.0 470831.0 0
265532.0 470160.0 0
269289.0 470938.0 0
274423.0 467883.0 0
272500.0 470583.0 0
277191.0 470267.0 0
281454.0 469569.0 0
289264.0 471112.0 0
285252.0 471378.0 0
293065.0 468814.0 0
296357.0 469065.0 0
300151.0 470122.0 0
297899.0 472762.0 0
304026.0 471417.0 0
307747.0 471574.0 0
311414.0 469280.0 0
318892.0 468753.0 0
315645.0 472515.0 0
323216.0 470677.0 0
326729.0 471617.0 0
330907.0 470244.0 0
340195.0 471809.0 0
342587.0 469210.0 0
343086.0 472899.0 0
345923.0 472061.0 0
346380.0 469002.0 0
350423.0 471463.0 0
355879.0 471630.0 0
359731.0 472344.0 0
362059.0 470580.0 0
366192.0 469896.0 0
370569.0 471354.0 0
373443.0 468551.0 0
374402.0 473291.0 0
377114.0 470221.0 0
381539.0 471752.0 0
384431.0 468667.0 0
385861.0 473027.0 0
388988.0 469753.0 0
393166.0 470326.0 0
396742.0 470312.0 0
400120.0 472703.0 0
403197.0 471234.0 0
406571.0 469205.0 0
405856.0 472696.0 0
409613.0 470524.0 0
413330.0 469827.0 0
413301.0 473512.0 0
421085.0 471216.0 0
417504.0 472437.0 0
425176.0 470002.0 0
424373.0 473249.0 0
428953.0 469334.0 0
427910.0 473218.0 0
432116.0 473721.0 0
433090.0 468777.0 0
436888.0 471865.0 0
441175.0 469364.0 0
441255.0 472564.0 0
443123.0 470431.0 0
446495.0 470162.0 0
444150.0 473329.0 0
450522.0 472291.0 0
454466.0 473377.0 0
38625.5 478827.0 0
42105.0 476089.0 0
46092.1 474155.0 0
41769.8 479109.0 0
46024.0 478233.0 0
49482.2 475193.0 0
50406.7 477906.0 0
53051.8 476399.0 0
56063.4 477801.0 0
59465.8 476109.0 0
63248.0 476394.0 0
67703.6 476472.0 0
71372.5 476451.0 0
74889.9 476514.0 0
78192.9 474440.0 0
81519.1 476213.0 0
85442.5 477518.0 0
88776.1 473345.0 0
88856.4 476473.0 0
92510.5 474748.0 0
97542.3 473708.0 0
95550.3 477519.0 0
101384.0 476785.0 0
105325.0 473875.0 0
106221.0 478135.0 0
108872.0 474953.0 0
112495.0 476242.0 0
116834.0 474309.0 0
119987.0 477542.0 0
124132.0 476361.0 0
128132.0 475525.0 0
133160.0 475194.0 0
130334.0 478354.0 0
137373.0 475896.0 0
141723.0 475626.0 0
146774.0 475098.0 0
151667.0 474611.0 0
155786.0 475625.0 0
158370.0 474117.0 0
161409.0 474537.0 0
163353.0 477723.0 0
165058.0 474791.0 0
168071.0 478179.0 0
172703.0 475559.0 0
176359.0 478227.0 0
181849.0 473803.0 0
180081.0 476530.0 0
184334.0 477386.0 0
189594.0 475682.0 0
194591.0 476617.0 0
197577.0 474105.0 0
198783.0 476740.0 0
201144.0 474464.0 0
204899.0 475695.0 0
209770.0 477045.0 0
214647.0 477520.0 0
217403.0 473681.0 0
218903.0 477319.0 0
221068.0 474563.0 0
224028.0 472880.0 0
227497.0 474543.0 0
231380.0 475661.0 0
238675.0 475572.0 0
243028.0 474198.0 0
246492.0 473231.0 0
250707.0 474509.0 0
255885.0 474094.0 0
259627.0 473836.0 0
263386.0 474740.0 0
267687.0 474398.0 0
271312.0 474246.0 0
274949.0 473384.0 0
273268.0 476949.0 0
270454.0 478016.0 0
279411.0 474109.0 0
276892.0 477909.0 0
283403.0 474583.0 0
286988.0 474347.0 0
286114.0 477796.0 0
289759.0 476234.0 0
293575.0 473516.0 0
297226.0 476941.0 0
301680.0 475085.0 0
306604.0 475713.0 0
311045.0 473950.0 0
310501.0 478133.0 0
314032.0 476576.0 0
320292.0 473830.0 0
317868.0 477272.0 0
324439.0 474501.0 0
328127.0 474459.0 0
326621.0 477625.0 0
330265.0 478186.0 0
331766.0 474711.0 0
334371.0 478004.0 0
336302.0 473515.0 0
338546.0 478136.0 0
341047.0 475179.0 0
344688.0 475411.0 0
347277.0 474708.0 0
349680.0 476062.0 0
347079.0 477952.0 0
353916.0 476154.0 0
359132.0 476601.0 0
363786.0 474421.0 0
363471.0 478322.0 0
367734.0 474204.0 0
371149.0 475935.0 0
367378.0 477927.0 0
375132.0 477207.0 0
378361.0 474627.0 0
379388.0 478644.0 0
382704.0 475780.0 0
390729.0 474495.0 0
387024.0 476911.0 0
395274.0 473786.0 0
394660.0 477947.0 0
398516.0 476517.0 0
403251.0 474556.0 0
406489.0 477288.0 0
402130.0 477728.0 0
409226.0 473960.0 0
411166.0 477402.0 0
416515.0 477191.0 0
421292.0 475559.0 0
425814.0 476230.0 0
424401.0 478821.0 0
429432.0 476452.0 0
432642.0 478921.0 0
435553.0 476222.0 0
439483.0 476111.0 0
443215.0 476762.0 0
447427.0 475340.0 0
446886.0 478977.0 0
452500.0 476045.0 0
457068.0 476296.0 0
460682.0 477727.0 0
30811.6 482332.0 0
29070.3 484203.0 0
34641.6 482398.0 0
39439.8 482213.0 0
42388.6 481306.0 0
45210.5 482390.0 0
49468.9 481871.0 0
52936.2 480026.0 0
56328.8 481726.0 0
53320.9 483855.0 0
59504.6 479493.0 0
60218.7 483800.0 0
62531.0 480151.0 0
65887.6 479991.0 0
64214.4 482775.0 0
69317.4 480275.0 0
67408.9 483899.0 0
71365.1 483045.0 0
73161.5 479630.0 0
75320.7 482449.0 0
77862.4 478832.0 0
82258.0 479820.0 0
79523.3 482543.0 0
85839.8 481088.0 0
83346.4 483269.0 0
88144.5 479387.0 0
88788.0 481609.0 0
91381.8 479272.0 0
91142.5 483710.0 0
94215.7 481507.0 0
98246.7 480778.0 0
103033.0 481531.0 0
107219.0 482647.0 0
110221.0 479172.0 0
112046.0 482545.0 0
115269.0 479309.0 0
116243.0 483674.0 0
119140.0 481187.0 0
123124.0 480751.0 0
126588.0 479577.0 0
126269.0 483760.0 0
129362.0 481571.0 0
134435.0 480399.0 0
139422.0 480410.0 0
144660.0 479793.0 0
149472.0 479036.0 0
153696.0 478915.0 0
151429.0 481914.0 0
158627.0 478725.0 0
155036.0 482748.0 0
163781.0 482390.0 0
168867.0 483515.0 0
172488.0 480683.0 0
176251.0 483119.0 0
180113.0 480605.0 0
184107.0 482424.0 0
187730.0 480192.0 0
191704.0 481027.0 0
197517.0 480736.0 0
201784.0 478593.0 0
201519.0 483171.0 0
205905.0 480670.0 0
209800.0 481186.0 0
213622.0 482570.0 0
218469.0 481303.0 0
223492.0 478726.0 0
228296.0 478504.0 0
227889.0 481984.0 0
234997.0 477943.0 0
231318.0 480350.0 0
234618.0 483038.0 0
238489.0 480682.0 0
241748.0 478288.0 0
242663.0 482747.0 0
246353.0 478362.0 0
250470.0 479273.0 0
254185.0 478652.0 0
251408.0 482657.0 0
259133.0 478559.0 0
255249.0 482196.0 0
262864.0 478395.0 0
263516.0 482611.0 0
266514.0 478536.0 0
269319.0 483055.0 0
273584.0 480773.0 0
277804.0 482480.0 0
281578.0 479113.0 0
285357.0 481610.0 0
289074.0 480391.0 0
292991.0 478786.0 0
300273.0 479103.0 0
297005.0 481375.0 0
303809.0 479331.0 0
301105.0 482749.0 0
307537.0 479786.0 0
314251.0 480508.0 0
310558.0 482320.0 0
318589.0 482156.0 0
322619.0 478660.0 0
322863.0 483521.0 0
327777.0 482466.0 0
332865.0 481486.0 0
336253.0 481160.0 0
339760.0 482477.0 0
343149.0 478970.0 0
343555.0 483412.0 0
350960.0 480460.0 0
346857.0 481842.0 0
355562.0 480807.0 0
358622.0 480699.0 0
361457.0 480833.0 0
365069.0 481462.0 0
368746.0 481899.0 0
371733.0 479547.0 0
375969.0 481425.0 0
380893.0 483526.0 0
383858.0 480069.0 0
387731.0 480935.0 0
390957.0 478902.0 0
390853.0 483541.0 0
393577.0 481183.0 0
395615.0 480858.0 0
398277.0 480081.0 0
399821.0 483467.0 0
402105.0 481186.0 0
405234.0 481368.0 0
409187.0 480979.0 0
413472.0 480196.0 0
416984.0 481993.0 0
420876.0 479938.0 0
425725.0 482314.0 0
428199.0 479170.0 0
429648.0 481907.0 0
432316.0 482512.0 0
435679.0 482434.0 0
437137.0 479286.0 0
440631.0 479174.0 0
439541.0 482187.0 0
443866.0 481230.0 0
450370.0 479159.0 0
448505.0 482378.0 0
451965.0 482083.0 0
454564.0 479650.0 0
455301.0 483590.0 0
458655.0 480848.0 0
461748.0 483321.0 0
463568.0 480341.0 0
467237.0 481556.0 0
470229.0 484017.0 0
26080.6 486436.0 0
22730.8 488610.0 0
30549.0 486916.0 0
34153.3 487019.0 0
38051.1 485928.0 0
42052.6 484700.0 0
46243.9 486053.0 0
41657.2 489172.0 0
50346.7 485559.0 0
49138.7 488653.0 0
56502.4 485587.0 0
53630.4 488828.0 0
59303.3 488103.0 0
63707.6 486220.0 0
66872.4 488839.0 0
69802.5 486225.0 0
73532.8 486220.0 0
77320.7 485503.0 0
76811.6 488977.0 0
81431.1 487028.0 0
86879.6 484842.0 0
85844.4 488830.0 0
92713.8 486113.0 0
90117.1 488444.0 0
95771.4 484824.0 0
94605.5 488916.0 0
99928.2 484423.0 0
99367.9 488617.0 0
103439.0 485848.0 0
106788.0 487274.0 0
109827.0 485507.0 0
112882.0 486575.0 0
110039.0 488416.0 0
116910.0 488117.0 0
121316.0 484904.0 0
125242.0 487474.0 0
131407.0 485021.0 0
136909.0 485350.0 0
133665.0 488366.0 0
142219.0 484770.0 0
147511.0 483734.0 0
151727.0 486702.0 0
158991.0 483873.0 0
156397.0 487387.0 0
161703.0 488379.0 0
166241.0 486747.0 0
172735.0 485664.0 0
169480.0 488086.0 0
176454.0 487892.0 0
180042.0 485237.0 0
184137.0 486941.0 0
187924.0 484270.0 0
191119.0 486284.0 0
194230.0 488241.0 0
194835.0 484288.0 0
198336.0 487078.0 0
202541.0 487593.0 0
205268.0 485340.0 0
209413.0 485388.0 0
213836.0 488035.0 0
217274.0 485582.0 0
221663.0 485161.0 0
224993.0 482987.0 0
226916.0 485952.0 0
230697.0 484342.0 0
230074.0 487178.0 0
238517.0 485782.0 0
241962.0 488656.0 0
247328.0 483536.0 0
244526.0 486181.0 0
246816.0 486983.0 0
250074.0 487596.0 0
254309.0 486097.0 0
258629.0 484143.0 0
262151.0 487711.0 0
266225.0 486673.0 0
273963.0 485648.0 0
278769.0 487551.0 0
281941.0 483821.0 0
286486.0 486202.0 0
292418.0 484414.0 0
297696.0 485832.0 0
302048.0 487522.0 0
305918.0 483847.0 0
309931.0 486516.0 0
314660.0 486002.0 0
320009.0 487738.0 0
325562.0 487585.0 0
331995.0 484369.0 0
331348.0 488395.0 0
336135.0 485533.0 0
341348.0 487331.0 0
346217.0 486178.0 0
349395.0 484452.0 0
349970.0 488178.0 0
353695.0 485177.0 0
358744.0 484088.0 0
357398.0 487920.0 0
362626.0 484208.0 0
362092.0 488329.0 0
366719.0 485968.0 0
370023.0 487211.0 0
372141.0 484275.0 0
373271.0 488857.0 0
377052.0 486332.0 0
385900.0 484895.0 0
382112.0 488806.0 0
389459.0 487473.0 0
395825.0 484165.0 0
392863.0 486878.0 0
396164.0 488748.0 0
399990.0 487211.0 0
403359.0 484669.0 0
407340.0 485140.0 0
412551.0 484455.0 0
414546.0 488467.0 0
417775.0 485800.0 0
421397.0 483947.0 0
421824.0 487709.0 0
424965.0 485825.0 0
429514.0 485810.0 0
433736.0 485098.0 0
434100.0 488582.0 0
438245.0 486468.0 0
442331.0 484960.0 0
446483.0 485599.0 0
451272.0 485973.0 0
455867.0 487371.0 0
458957.0 485244.0 0
462419.0 486226.0 0
466213.0 484872.0 0
473329.0 486399.0 0
469917.0 488231.0 0
476911.0 489288.0 0
12957.3 493964.0 0
15932.8 492453.0 0
19194.6 490394.0 0
22827.0 492382.0 0
27080.5 490801.0 0
31773.2 491087.0 0
36523.6 490229.0 0
39628.7 493785.0 0
45688.5 490127.0 0
43983.1 493646.0 0
48775.0 492311.0 0
57170.2 491580.0 0
61016.9 492228.0 0
62811.5 489267.0 0
64803.6 492237.0 0
70816.1 489998.0 0
73836.8 489411.0 0
73999.9 492732.0 0
78960.3 492315.0 0
82587.2 490807.0 0
84856.1 491667.0 0
87951.7 492956.0 0
92301.5 492502.0 0
96602.4 492372.0 0
100351.0 493265.0 0
103495.0 490130.0 0
107699.0 491248.0 0
112528.0 491262.0 0
117312.0 492848.0 0
121354.0 489953.0 0
125208.0 491988.0 0
129423.0 489326.0 0
133474.0 492421.0 0
136479.0 489488.0 0
138213.0 493176.0 0
140475.0 489363.0 0
145868.0 489382.0 0
150461.0 491392.0 0
154302.0 490856.0 0
157920.0 491174.0 0
166352.0 491271.0 0
172630.0 490111.0 0
173409.0 493066.0 0
176808.0 492552.0 0
180425.0 489663.0 0
184187.0 490983.0 0
187897.0 489080.0 0
188867.0 492972.0 0
191706.0 490595.0 0
195741.0 491372.0 0
200653.0 492042.0 0
206449.0 490205.0 0
210532.0 489220.0 0
212062.0 491972.0 0
218525.0 489908.0 0
215226.0 492411.0 0
224273.0 490187.0 0
229069.0 489690.0 0
228166.0 492711.0 0
233750.0 488390.0 0
231256.0 492362.0 0
238262.0 490919.0 0
242290.0 492980.0 0
246170.0 490373.0 0
250044.0 492480.0 0
253400.0 490394.0 0
257637.0 489575.0 0
261362.0 492309.0 0
270002.0 488635.0 0
265650.0 490910.0 0
274269.0 490879.0 0
283184.0 490095.0 0
287160.0 491837.0 0
290694.0 489867.0 0
295347.0 489907.0 0
299571.0 491535.0 0
303676.0 492122.0 0
306802.0 489200.0 0
311798.0 491317.0 0
316293.0 490519.0 0
319617.0 492929.0 0
323214.0 491288.0 0
327574.0 492639.0 0
336932.0 490861.0 0
341448.0 491304.0 0
345812.0 490363.0 0
343668.0 493591.0 0
349918.0 491851.0 0
354048.0 490724.0 0
358550.0 491255.0 0
365844.0 489781.0 0
362251.0 493166.0 0
369219.0 489932.0 0
367248.0 493347.0 0
372889.0 493641.0 0
377538.0 491012.0 0
381022.0 493448.0 0
386473.0 488868.0 0
385698.0 492978.0 0
389023.0 490584.0 0
392267.0 490160.0 0
395433.0 493127.0 0
399807.0 491756.0 0
404311.0 489174.0 0
406940.0 492918.0 0
409810.0 489566.0 0
414063.0 492581.0 0
418396.0 489933.0 0
422495.0 491602.0 0
426078.0 489120.0 0
427179.0 494031.0 0
430407.0 490458.0 0
434135.0 492245.0 0
438206.0 491583.0 0
442384.0 494325.0 0
443284.0 489483.0 0
446753.0 493324.0 0
448448.0 489392.0 0
450535.0 492509.0 0
452798.0 489790.0 0
456766.0 490939.0 0
454702.0 494161.0 0
460638.0 489477.0 0
459799.0 493816.0 0
465709.0 489357.0 0
464048.0 493509.0 0
468928.0 492793.0 0
472986.0 491362.0 0
477308.0 494494.0 0
481152.0 491642.0 0
484775.0 493187.0 0
10060.0 496812.0 0
6210.94 499085.0 0
14644.5 497261.0 0
19061.8 495056.0 0
17905.1 499344.0 0
23222.8 496191.0 0
25839.4 494785.0 0
25636.5 499087.0 0
21045.8 499312.0 0
29602.5 495645.0 0
34560.3 494532.0 0
33514.6 498870.0 0
37688.4 497454.0 0
42004.8 497848.0 0
46972.4 496472.0 0
53011.0 494798.0 0
58520.3 495720.0 0
63306.5 495700.0 0
68667.6 494489.0 0
72925.2 496711.0 0
76397.1 496069.0 0
79958.7 496849.0 0
83271.3 494143.0 0
85629.9 498916.0 0
90652.4 496476.0 0
95153.3 496464.0 0
100396.0 498185.0 0
104405.0 494458.0 0
105631.0 498884.0 0
109262.0 495400.0 0
112062.0 498008.0 0
114000.0 495647.0 0
117932.0 497635.0 0
121350.0 494573.0 0
121715.0 498924.0 0
125202.0 496756.0 0
129066.0 494292.0 0
132074.0 496493.0 0
128884.0 498967.0 0
135753.0 496616.0 0
142709.0 494022.0 0
139621.0 496887.0 0
147821.0 495739.0 0
152529.0 494158.0 0
152658.0 497831.0 0
156173.0 494507.0 0
157729.0 498629.0 0
161493.0 494468.0 0
166189.0 495862.0 0
170180.0 493945.0 0
173937.0 496306.0 0
178295.0 497331.0 0
181252.0 494019.0 0
183360.0 498617.0 0
185399.0 494348.0 0
188292.0 497116.0 0
192774.0 495040.0 0
197035.0 494608.0 0
196687.0 498646.0 0
204442.0 494824.0 0
201038.0 497138.0 0
208705.0 495069.0 0
213641.0 496629.0 0
217815.0 494790.0 0
221280.0 493866.0 0
220854.0 498131.0 0
225457.0 495913.0 0
229989.0 495466.0 0
233504.0 497556.0 0
234890.0 493364.0 0
238697.0 495579.0 0
242822.0 496952.0 0
246333.0 494931.0 0
253920.0 494163.0 0
250685.0 497621.0 0
257799.0 494437.0 0
255724.0 498084.0 0
259715.0 497870.0 0
264021.0 496136.0 0
269623.0 494342.0 0
274697.0 496595.0 0
279168.0 493571.0 0
284242.0 494596.0 0
281368.0 497972.0 0
288698.0 495965.0 0
284971.0 498322.0 0
292402.0 493846.0 0
296500.0 494894.0 0
301441.0 495985.0 0
307334.0 493737.0 0
305759.0 497829.0 0
310951.0 497605.0 0
315635.0 494768.0 0
319558.0 497772.0 0
323650.0 495753.0 0
328645.0 498315.0 0
332622.0 494051.0 0
333920.0 498620.0 0
336486.0 495492.0 0
339834.0 494605.0 0
343063.0 497401.0 0
347592.0 495045.0 0
350523.0 498271.0 0
352326.0 494946.0 0
357091.0 495136.0 0
361029.0 497024.0 0
364987.0 497094.0 0
369959.0 497809.0 0
375195.0 498829.0 0
377660.0 495068.0 0
379073.0 497711.0 0
383156.0 497359.0 0
390810.0 494109.0 0
387954.0 497660.0 0
391513.0 497650.0 0
394344.0 497005.0 0
398731.0 496513.0 0
403372.0 494659.0 0
402194.0 497935.0 0
410198.0 495356.0 0
414844.0 497260.0 0
418445.0 494410.0 0
422598.0 495726.0 0
425359.0 498726.0 0
431666.0 494482.0 0
429774.0 497884.0 0
435614.0 495057.0 0
433215.0 497294.0 0
436821.0 499133.0 0
438847.0 495815.0 0
441662.0 498812.0 0
445589.0 497285.0 0
450118.0 496596.0 0
454356.0 498026.0 0
458447.0 497207.0 0
462767.0 497094.0 0
467295.0 497107.0 0
472707.0 496553.0 0
478555.0 498347.0 0
482551.0 496947.0 0
487768.0 495529.0 0
491454.0 497696.0 0
2119.16 500008.0 0
3350.95 503649.0 0
10671.3 501386.0 0
15173.7 501311.0 0
18448.7 502559.0 0
22457.7 502652.0 0
29592.6 500144.0 0
32539.0 502909.0 0
37979.1 502112.0 0
45192.5 500848.0 0
50507.8 499722.0 0
48541.0 504096.0 0
55582.1 499382.0 0
53090.7 503524.0 0
60747.4 499479.0 0
57562.2 503341.0 0
65880.0 499287.0 0
70662.3 499624.0 0
68293.9 503342.0 0
75526.0 500055.0 0
72627.6 504060.0 0
80030.4 500754.0 0
82864.1 503597.0 0
91487.6 501384.0 0
96041.0 500598.0 0
95045.5 503964.0 0
98469.8 502677.0 0
102910.0 503570.0 0
107448.0 502733.0 0
109865.0 500109.0 0
111215.0 504011.0 0
114545.0 500614.0 0
119395.0 502621.0 0
124850.0 501770.0 0
133080.0 500198.0 0
129271.0 503320.0 0
137802.0 500418.0 0
143251.0 499562.0 0
148803.0 501575.0 0
144666.0 504021.0 0
153720.0 501626.0 0
163688.0 500511.0 0
167396.0 503599.0 0
169740.0 499041.0 0
171307.0 503988.0 0
174675.0 500467.0 0
179387.0 502141.0 0
187387.0 501244.0 0
191770.0 500290.0 0
200689.0 501651.0 0
205195.0 499424.0 0
209753.0 499371.0 0
208321.0 503662.0 0
213008.0 502050.0 0
217101.0 500298.0 0
224628.0 500921.0 0
220652.0 503384.0 0
229147.0 499637.0 0
233213.0 503092.0 0
237402.0 499982.0 0
242077.0 501283.0 0
246104.0 499221.0 0
249061.0 502180.0 0
253493.0 502194.0 0
258096.0 501633.0 0
262573.0 501042.0 0
267116.0 499812.0 0
270838.0 499155.0 0
273690.0 500883.0 0
270274.0 503419.0 0
278144.0 500869.0 0
283175.0 502499.0 0
288299.0 501049.0 0
293173.0 498754.0 0
298073.0 499179.0 0
302408.0 501042.0 0
307454.0 502477.0 0
312988.0 503625.0 0
315759.0 499418.0 0
318749.0 503016.0 0
323460.0 500771.0 0
327424.0 503514.0 0
331606.0 502250.0 0
338517.0 499079.0 0
335664.0 502318.0 0
342571.0 502353.0 0
346970.0 499946.0 0
346783.0 504024.0 0
350850.0 502705.0 0
354240.0 499259.0 0
358590.0 500159.0 0
362476.0 500077.0 0
366702.0 501722.0 0
371859.0 502301.0 0
377155.0 501367.0 0
380462.0 501405.0 0
386047.0 502411.0 0
391266.0 501222.0 0
396115.0 500414.0 0
400723.0 500358.0 0
406450.0 499511.0 0
403387.0 503265.0 0
411569.0 499237.0 0
410901.0 502905.0 0
415112.0 501318.0 0
419765.0 499444.0 0
423798.0 502978.0 0
428629.0 501755.0 0
432817.0 500810.0 0
435738.0 503423.0 0
439305.0 502204.0 0
443580.0 503073.0 0
447896.0 500990.0 0
452177.0 500062.0 0
452305.0 504261.0 0
456905.0 501764.0 0
461216.0 500311.0 0
465008.0 500834.0 0
466282.0 504804.0 0
470168.0 501734.0 0
475691.0 501247.0 0
481140.0 501918.0 0
486825.0 500590.0 0
492037.0 502275.0 0
495325.0 500006.0 0
498320.0 500856.0 0
3690.79 509153.0 0
8598.29 505620.0 0
14378.9 505604.0 0
11008.4 509335.0 0
19942.2 506527.0 0
27143.2 505028.0 0
31487.8 508318.0 0
34374.0 506094.0 0
38411.8 507669.0 0
42800.6 505058.0 0
46523.7 507736.0 0
51734.6 508066.0 0
57598.0 508551.0 0
63095.5 504575.0 0
66962.9 505811.0 0
68956.4 508430.0 0
74090.6 508583.0 0
77998.8 504884.0 0
82513.2 507089.0 0
87208.5 504546.0 0
86710.6 508982.0 0
91851.2 507185.0 0
97956.0 507275.0 0
107613.0 506639.0 0
103533.0 508389.0 0
112493.0 508961.0 0
115172.0 504722.0 0
118279.0 507788.0 0
123169.0 505884.0 0
128835.0 508632.0 0
134474.0 505121.0 0
138302.0 509002.0 0
140325.0 504293.0 0
143149.0 508176.0 0
147634.0 506628.0 0
152493.0 506250.0 0
158075.0 504225.0 0
163354.0 507117.0 0
168056.0 506693.0 0
171389.0 508887.0 0
175603.0 504372.0 0
174552.0 507322.0 0
178729.0 507677.0 0
184294.0 505249.0 0
190023.0 504909.0 0
192766.0 508733.0 0
195722.0 504379.0 0
199366.0 508705.0 0
200024.0 505138.0 0
203597.0 505453.0 0
207221.0 508010.0 0
212515.0 507952.0 0
216465.0 504493.0 0
224896.0 505203.0 0
221827.0 507997.0 0
228437.0 503982.0 0
230482.0 507220.0 0
234912.0 508533.0 0
238389.0 504740.0 0
245647.0 505622.0 0
251066.0 506519.0 0
256760.0 506919.0 0
262392.0 506862.0 0
265807.0 503966.0 0
267891.0 508567.0 0
274726.0 504297.0 0
273762.0 509072.0 0
279161.0 506435.0 0
284532.0 507660.0 0
288106.0 505334.0 0
292467.0 504324.0 0
298074.0 504231.0 0
295961.0 509184.0 0
303543.0 505805.0 0
299970.0 508673.0 0
308549.0 507099.0 0
318799.0 507835.0 0
323105.0 505765.0 0
327709.0 508761.0 0
333487.0 507116.0 0
338835.0 505490.0 0
343957.0 507992.0 0
349153.0 506902.0 0
355710.0 504452.0 0
353039.0 509101.0 0
361722.0 504810.0 0
366920.0 506574.0 0
369343.0 504530.0 0
371242.0 506781.0 0
376383.0 505239.0 0
382322.0 505969.0 0
389975.0 506355.0 0
393984.0 504391.0 0
395069.0 508414.0 0
398665.0 504735.0 0
407037.0 505163.0 0
402986.0 507580.0 0
411513.0 507893.0 0
414611.0 504863.0 0
416368.0 508213.0 0
418796.0 504458.0 0
427795.0 506036.0 0
422995.0 507988.0 0
431169.0 508009.0 0
431909.0 504615.0 0
434895.0 507305.0 0
439508.0 506427.0 0
443897.0 507301.0 0
447708.0 506000.0 0
457087.0 506906.0 0
461794.0 504575.0 0
461353.0 509467.0 0
466576.0 508969.0 0
469967.0 506406.0 0
473931.0 505665.0 0
477855.0 504807.0 0
480623.0 506167.0 0
482691.0 510201.0 0
484771.0 505378.0 0
487654.0 509261.0 0
489839.0 505660.0 0
494374.0 505738.0 0
497877.0 504263.0 0
497500.0 508535.0 0
3197.28 514812.0 0
7779.24 512579.0 0
11805.2 513388.0 0
16488.3 510861.0 0
23395.0 510452.0 0
24252.9 514434.0 0
28233.0 510065.0 0
27290.1 513434.0 0
31652.9 512238.0 0
34727.0 509855.0 0
37993.3 512014.0 0
42521.6 510377.0 0
47618.8 512191.0 0
53626.6 513188.0 0
59159.5 513605.0 0
63531.6 510145.0 0
69346.9 513726.0 0
74918.5 513582.0 0
78722.0 509782.0 0
80404.0 514212.0 0
82740.2 510695.0 0
85486.3 513824.0 0
90097.0 512160.0 0
94788.4 511629.0 0
100744.0 512931.0 0
107133.0 511151.0 0
110883.0 514017.0 0
114322.0 512696.0 0
117651.0 512477.0 0
122926.0 511184.0 0
127380.0 514132.0 0
131722.0 513287.0 0
133911.0 510012.0 0
136581.0 513870.0 0
141172.0 512297.0 0
146774.0 511293.0 0
151336.0 511164.0 0
157402.0 511076.0 0
163070.0 512149.0 0
167296.0 511127.0 0
171852.0 514056.0 0
174777.0 510194.0 0
177656.0 513336.0 0
183014.0 511260.0 0
188176.0 509612.0 0
191674.0 513125.0 0
195925.0 511759.0 0
203793.0 510333.0 0
200225.0 513672.0 0
208338.0 512324.0 0
217940.0 511384.0 0
226503.0 509703.0 0
240966.0 509664.0 0
277452.0 512267.0 0
281235.0 510996.0 0
285011.0 512459.0 0
290274.0 510262.0 0
299028.0 513079.0 0
303601.0 510677.0 0
308057.0 511431.0 0
313470.0 509953.0 0
318297.0 512049.0 0
322626.0 511123.0 0
331775.0 512753.0 0
338383.0 511264.0 0
343658.0 513614.0 0
348465.0 511491.0 0
352786.0 513941.0 0
358449.0 509831.0 0
364004.0 509892.0 0
361859.0 513483.0 0
368793.0 510448.0 0
374096.0 511104.0 0
379734.0 510123.0 0
385806.0 509781.0 0
382497.0 513682.0 0
391438.0 511965.0 0
399092.0 509449.0 0
397026.0 512736.0 0
406837.0 509943.0 0
402290.0 512773.0 0
410398.0 512177.0 0
414618.0 512662.0 0
419169.0 511117.0 0
423630.0 513305.0 0
428123.0 510777.0 0
433020.0 511596.0 0
437462.0 510659.0 0
436535.0 514553.0 0
441958.0 511022.0 0
445352.0 514014.0 0
446914.0 510308.0 0
452210.0 509705.0 0
449795.0 514234.0 0
456983.0 511113.0 0
454618.0 514452.0 0
464220.0 512905.0 0
468422.0 513480.0 0
472270.0 510004.0 0
477430.0 508800.0 0
475990.0 512562.0 0
479083.0 512599.0 0
481997.0 514805.0 0
487847.0 514628.0 0
492597.0 509923.0 0
497980.0 512689.0 0
2030.33 519518.0 0
10233.2 517449.0 0
5995.61 518557.0 0
15080.1 516421.0 0
20284.7 515175.0 0
26055.8 517314.0 0
22391.5 519517.0 0
30184.9 516210.0 0
35136.4 516055.0 0
41340.1 514834.0 0
39381.1 519244.0 0
42587.7 518091.0 0
45535.4 516722.0 0
49688.3 516063.0 0
52708.4 517766.0 0
56575.7 517555.0 0
60409.8 517703.0 0
64214.3 515150.0 0
67515.3 517936.0 0
72165.3 518682.0 0
77858.7 518438.0 0
83129.0 518308.0 0
92639.0 515405.0 0
88598.5 517931.0 0
96414.1 516424.0 0
100437.0 519047.0 0
106052.0 516026.0 0
115300.0 516391.0 0
120383.0 516224.0 0
125095.0 518591.0 0
130617.0 518116.0 0
140653.0 517037.0 0
144159.0 514656.0 0
148213.0 515916.0 0
144750.0 518279.0 0
152925.0 515589.0 0
150695.0 519243.0 0
157081.0 516869.0 0
161529.0 516154.0 0
166563.0 516086.0 0
175239.0 517786.0 0
182179.0 516776.0 0
187185.0 514671.0 0
294274.0 514653.0 0
305341.0 515310.0 0
310720.0 515837.0 0
315950.0 515463.0 0
320370.0 515413.0 0
326845.0 514392.0 0
335486.0 516596.0 0
330504.0 517442.0 0
339973.0 515970.0 0
342834.0 517944.0 0
348184.0 517695.0 0
353947.0 519158.0 0
357684.0 515555.0 0
362533.0 517829.0 0
366265.0 514430.0 0
371275.0 515864.0 0
374800.0 517506.0 0
377997.0 515249.0 0
386741.0 515251.0 0
382336.0 518753.0 0
390751.0 516995.0 0
394635.0 516433.0 0
399570.0 517891.0 0
404276.0 516999.0 0
407255.0 514544.0 0
411190.0 515328.0 0
409185.0 519206.0 0
414294.0 517862.0 0
419008.0 515882.0 0
423861.0 518342.0 0
427926.0 515633.0 0
432473.0 516382.0 0
436574.0 519024.0 0
441062.0 516306.0 0
446755.0 518104.0 0
452203.0 519127.0 0
456659.0 517863.0 0
459824.0 514795.0 0
460805.0 519534.0 0
464865.0 517332.0 0
469381.0 517622.0 0
472959.0 515095.0 0
477782.0 516770.0 0
483048.0 518861.0 0
489447.0 519541.0 0
493923.0 514483.0 0
493621.0 519321.0 0
497579.0 516845.0 0
3231.82 523754.0 0
8452.25 522204.0 0
13158.8 520749.0 0
12027.2 524643.0 0
17853.0 520435.0 0
25688.2 521484.0 0
29703.9 520477.0 0
34729.4 521945.0 0
39984.7 524550.0 0
43588.9 521077.0 0
48780.8 520822.0 0
54212.9 521475.0 0
56312.3 524769.0 0
58869.9 521393.0 0
63554.7 520174.0 0
65700.3 524540.0 0
68323.6 521227.0 0
70758.7 523993.0 0
75530.7 523155.0 0
80744.3 522662.0 0
85848.1 522710.0 0
90358.0 522467.0 0
93464.7 519640.0 0
97046.5 522421.0 0
101252.0 524005.0 0
104930.0 521119.0 0
110598.0 519817.0 0
113278.0 524515.0 0
115931.0 521116.0 0
120579.0 521251.0 0
128112.0 521992.0 0
132247.0 523121.0 0
135997.0 519435.0 0
138367.0 523555.0 0
142077.0 521511.0 0
147100.0 522116.0 0
154457.0 519786.0 0
159384.0 521412.0 0
339314.0 520080.0 0
344079.0 521368.0 0
351041.0 522002.0 0
354654.0 524147.0 0
358626.0 520851.0 0
363320.0 522769.0 0
367477.0 519584.0 0
369116.0 524440.0 0
372741.0 520911.0 0
377408.0 519910.0 0
379833.0 524110.0 0
384813.0 523360.0 0
387954.0 520022.0 0
389423.0 524419.0 0
392742.0 520848.0 0
397199.0 522762.0 0
404595.0 520704.0 0
413486.0 523141.0 0
418502.0 520996.0 0
423267.0 523504.0 0
429126.0 521038.0 0
434023.0 522090.0 0
438414.0 524314.0 0
443047.0 521235.0 0
448035.0 523134.0 0
452963.0 524554.0 0
456950.0 521799.0 0
461125.0 523741.0 0
463930.0 521222.0 0
467736.0 521242.0 0
465352.0 524838.0 0
473302.0 520032.0 0
470958.0 524572.0 0
475328.0 524080.0 0
479120.0 521754.0 0
486324.0 521547.0 0
490709.0 522440.0 0
493888.0 524047.0 0
497896.0 521154.0 0
497799.0 525303.0 0
2912.51 529163.0 0
7802.54 527078.0 0
12590.6 529033.0 0
16180.0 525233.0 0
21889.4 524903.0 0
27770.0 525221.0 0
30687.0 529085.0 0
31764.2 525383.0 0
35244.1 527430.0 0
45541.5 525367.0 0
42386.1 529254.0 0
51546.9 526221.0 0
56263.7 528816.0 0
60554.2 526097.0 0
64388.3 529439.0 0
68870.9 528075.0 0
73602.0 528004.0 0
78821.4 527464.0 0
84042.4 527619.0 0
89260.7 526955.0 0
93539.9 524914.0 0
97478.4 527037.0 0
103049.0 527287.0 0
107899.0 526131.0 0
112941.0 528819.0 0
117785.0 525487.0 0
124501.0 524817.0 0
359481.0 526062.0 0
374984.0 525321.0 0
386083.0 528574.0 0
393778.0 526053.0 0
401902.0 524454.0 0
398222.0 528278.0 0
404032.0 529122.0 0
407708.0 524894.0 0
412051.0 528067.0 0
418361.0 526243.0 0
427368.0 526152.0 0
423856.0 528447.0 0
432559.0 526696.0 0
437391.0 529819.0 0
443578.0 525665.0 0
447208.0 527921.0 0
452154.0 529815.0 0
457367.0 526459.0 0
462259.0 528363.0 0
468174.0 529487.0 0
478570.0 526318.0 0
474232.0 528554.0 0
483145.0 525093.0 0
481014.0 529378.0 0
488260.0 525395.0 0
492146.0 529102.0 0
497575.0 529750.0 0
1224.59 532905.0 0
3762.6 533305.0 0
7785.44 532194.0 0
12548.0 533901.0 0
18520.9 530550.0 0
25292.4 530302.0 0
37924.0 531992.0 0
43639.9 534181.0 0
47407.1 530257.0 0
52430.0 531826.0 0
60118.8 531027.0 0
63349.4 533467.0 0
70740.1 533328.0 0
76577.7 532181.0 0
408342.0 529991.0 0
415945.0 531234.0 0
421325.0 532445.0 0
428277.0 530600.0 0
433071.0 532479.0 0
439504.0 533872.0 0
442631.0 530167.0 0
447575.0 532428.0 0
457820.0 531760.0 0
463500.0 533695.0 0
472596.0 533656.0 0
477739.0 532201.0 0
485974.0 530245.0 0
489775.0 533932.0 0
493940.0 533823.0 0
497911.0 534170.0 0
16240.0 535000.0 0
POINT_DATA 5000
SCALARS Radius float 1
LOOKUP_TABLE default
5258.36 3163.97 5812.43 5580.89 6810.52 5120.0 6182.6 5492.18 3951.75 5061.3 4499.64 3642.12 5542.27 5122.66 5906.14 7513.1 5254.28 4402.52 4436.4 5733.48 3588.44 5553.16 6110.27 5415.48 3863.18 2356.98 4998.37 5351.6 5867.73 4715.55 5013.56 4375.68 5054.98 5484.19 5170.02 3557.27 4688.68 4517.56 4182.53 4672.91 5645.7 5176.86 4366.19 2938.66 3672.51 4008.92 5840.26 5073.35 4834.9 5085.53 5484.83 5538.89 4730.36 6059.59 2720.68 5701.86 4238.81 6030.06 4468.59 5325.02 5200.76 4927.31 5185.34 4432.58 5903.42 3761.32 3955.56 5292.64 4118.05 5065.13 5936.02 4940.78 5561.06 5670.04 6044.04 5325.36 6759.9 7021.47 5926.61 6051.14 4955.55 3563.63 5885.03 4345.55 5246.2 5017.13 4862.64 3673.74 5205.43 6684.56 2635.86 3968.64 4688.67 6166.5 4385.06 3615.22 4231.61 4290.3 5305.17 4380.59 3379.84 6716.79 3850.77 5546.39 5945.65 5418.62 5416.38 5493.32 5740.68 4277.89 4195.44 3261.21 5836.15 6704.06 2837.58 3653.41 5600.93 3871.88 3856.01 4827.23 4390.66 4911.47 6116.18 7447.37 4924.6 4733.32 7184.19 3867.67 3942.53 4861.08 4827.82 7613.27 4133.88 4094.62 6230.49 7054.71 4601.27 3641.64 5747.75 4796.33 5539.32 6496.85 5541.59 4124.71 5279.39 6337.56 5803.39 4381.97 3255.82 5242.73 2812.98 5603.15 2899.43 2924.37 4065.69 5399.73 4003.05 3607.45 4805.87 3589.27 4951.03 4665.12 4927.02 6483.19 4174.52 5109.54 5489.43 5054.25 7325.81 5360.19 4874.39 4839.34 2980.99 5083.08 5728.85 5525.39 3998.5 5863.59 6257.19 4024.3 4737.14 4695.45 4660.72 5390.22 4712.33 5227.21 5759.91 4333.2 3997.1 3936.02 3383.4 3856.1 5980.74 5816.2 3829.13 6458.82 3091.3 5527.54 5573.7 4055.8 4727.62 4794.96 5206.78 6425.26 6186.19 4840.01 6834.49 5938.34 6394.38 5555.28 4686.65 5834.74 5556.96 3888.21 6038.78 5697.78 5123.52 3260.67 4295.38 3038.33 4780.03 4044.71 4487.31 5693.81 2540.31 4138.16 5789.98 6138.47 5697.4 4005.44 5280.17 5028.96 5143.58 4484.76 5611.2 4220.65 7933.0 5173.87 5380.13 5118.27 5169.36 5932.23 5581.75 5788.23 6052.7 3921.18 4667.36 4392.68 3554.9 5495.39 3996.0 4002.16 4778.34 4684.5 6029.66 6302.8 4270.95 6038.2 5555.88 6732.43 3866.16 6362.12 5152.36 4511.82 5826.64 6820.42 4455.12 4816.2 4894.16 4896.52 5711.87 5791.61 3666.57 6392.01 3798.62 5891.05 6902.81 7199.21 5529.52 5252.48 5542.21 4015.92 5708.81 5120.49 5043.05 3486.22 4414.54 5409.61 5262.61 5094.81 5713.22 5861.71 3183.98 5017.78 4524.28 3794.63 3778.1 4727.24 6959.81 4829.35 6321.41 4941.22 3372.79 5282.64 4479.66 5308.1 6644.76 4254.17 5615.42 4091.31 4523.7 6124.89 5481.78 5924.89 6894.71 5551.36 5201.36 4306.53 6135.57 5972.06 4312.67 4359.04 5015.69 6175.81 6677.09 5813.4 5201.67 4089.76 4751.02 5184.56 3192.41 4715.72 3369.13 5367.2 3043.85 6730.19 6372.62 7565.34 5255.32 5337.48 6084.86 4937.14 3307.12 4467.94 4933.21 4850.81 6038.14 5024.9 5659.17 5998.38 4270.24 4989.15 4947.52 4164.13 4520.1 4642.34 5874.89 4305.57 3791.79 4293.03 4754.05 5526.55 4951.47 6084.93 4987.87 3315.57 4669.66 4808.52 5461.13 3599.45 5655.21 4907.89 5629.19 4937.02 5637.59 3586.91 3115.91 5478.92 5094.44 5375.47 4723.12 4717.05 5287.2 4562.29 5423.8 5013.13 5080.66 3417.33 4926.42 5153.74 4165.81 4424.7 4389.21 4128.98 4925.44 5246.61 5215.15 5046.33 4764.96 5053.92 5607.24 5839.13 4726.76 5090.24 5091.39 5923.5 2240.39 6756.95 6037.08 4049.23 3103.0 5601.05 4948.92 4516.43 5810.84 3748.24 4230.54 4655.49 6163.38 4566.18 3459.9 4809.42 4964.09 5856.11 4109.88 4234.94 4980.85 5714.58 5110.45 5248.77 4528.09 3556.85 4083.97 3895.51 6291.51 6246.22 4307.28 5804.71 5020.12 6352.26 3735.44 4073.93 4645.41 5096.78 6324.23 4382.74 4749.8 4384.42 4362.19 4493.48 5082.6 4997.27 4093.08 5543.27 3327.49 3960.8 4923.9 4973.78 3329.99 3947.47 5208.32 4607.02 3296.27 6673.96 5174.89 5882.89 4100.38 4188.32 5538.93 5727.3 4242.52 3847.38 4786.6 4907.06 5163.9 4433.59 5740.84 4973.83 4612.68 4727.24 4651.28 6355.42 5690.56 3693.63 3937.74 6061.47 4449.22 5628.24 5992.26 5365.89 5070.39 4613.31 5091.68 4713.25 6243.0 5441.96 4288.3 5370.52 4739.42 3697.96 4899.11 4278.07 4745.45 3818.59 3057.03 5356.51 5495.68 6043.3 5530.87 3912.37 4310.18 3320.52 4151.94 5244.78 5478.47 5762.84 6142.37 5119.37 3982.23 5806.08 5243.29 4853.39 3130.65 4511.54 5004.67 5409.33 5196.0 6119.09 4178.15 4204.84 7531.29 5069.25 5935.03 5048.89 3161.47 3435.9 3991.03 4652.29 5774.81 5027.98 5344.77 5097.87 4723.48 5281.28 2631.9 4087.15 4863.72 5489.34 5952.75 6445.94 4281.49 4129.43 4929.8 5927.43 5492.26 6640.13 5351.39 4336.42 3402.32 7589.94 4466.03 4898.94 4733.04 4755.47 6390.78 6826.57 4495.87 3746.31 4788.87 5346.27 7267.18 4143.08 4758.21 5002.48 5708.14 4262.82 5537.72 4320.28 6342.25 4685.34 6327.9 4220.88 6519.71 3092.35 5210.03 4583.31 4306.11 6022.17 5903.66 5419.37 5985.29 4247.23 5788.66 4694.83 4485.99 3903.75 5475.8 7435.25 5498.32 5543.46 6475.1 6255.18 7500.97 3920.42 6332.36 5542.14 4218.06 3843.58 6082.81 5449.18 3629.96 4714.54 3320.11 5507.24 4503.89 6851.54 5313.66 4528.49 5275.32 5512.23 4268.65 4649.22 4354.08 5509.42 4520.62 5475.7 5936.36 5314.69 6050.81 6022.72 5527.33 4969.21 2691.29 6256.02 4277.88 6623.85 8332.24 4931.53 6691.39 5293.9 3191.99 5367.52 4048.37 5030.91 4322.15 4659.59 5101.59 3813.22 5570.3 5935.47 2651.49 4711.62 4114.24 5349.31 5394.55 2976.22 4256.43 2682.24 5229.48 5415.19 5127.16 4249.46 4244.99 4643.31 5965.81 6917.52 5402.21 4668.71 7228.46 5102.36 5787.31 7134.64 4602.25 5480.13 6142.94 5110.37 4931.38 5664.98 4548.16 3485.26 5025.39 4377.07 3695.36 3848.93 6020.48 5234.29 5200.05 4645.58 5670.2 5094.52 5928.32 4016.18 5526.75 5435.74 4275.57 5560.26 5327.45 6185.89 3702.37 2330.66 4177.19 3990.25 4752.51 3691.0 2845.98 4880.14 5320.92 3948.23 5228.18 4342.9 5978.82 6122.55 5978.9 4270.53 4736.58 4792.73 3240.09 4556.36 3369.23 5264.06 3688.8 4515.71 5893.5 4547.19 3817.13 3963.86 5076.35 5273.35 4091.8 5181.4 5166.79 4662.56 3950.63 4946.74 4612.62 3619.07 6385.23 4467.04 2983.99 3997.96 5660.85 4750.17 3758.07 3587.05 4373.45 4989.09 6362.14 5269.18 6719.88 4406.1 6155.31 6308.71 2739.94 4790.08 4194.5 5082.47 4329.05 5513.6 4901.41 5358.59 6202.55 5023.15 3844.9 4871.44 6375.99 4853.02 6259.23 4998.21 3457.48 3405.98 3931.07 5417.15 5996.33 3688.16 4681.72 6631.19 5817.25 3460.94 2614.4 4439.35 6184.4 6229.37 3828.81 4982.31 5289.52 5034.59 5314.85 5065.11 5911.67 4223.33 4187.56 3629.62 4840.84 5138.31 3708.04 4551.24 3610.4 4621.75 6387.01 6338.89 7111.16 6480.17 4564.34 5088.44 6248.81 6079.11 4256.67 7440.72 3949.6 4945.39 5661.62 4867.08 5626.61 5407.78 6363.92 6632.99 6205.93 5309.98 5830.72 4307.48 6718.19 4305.43 4553.56 4942.77 3927.99 5069.84 5868.82 5329.64 3323.28 4051.44 4301.06 4997.27 5344.25 6013.14 4581.13 3856.59 2765.2 4219.07 5372.61 5584.06 3686.21 3838.56 6445.22 5872.05 4962.77 4427.28 5323.3 3082.32 6430.39 5376.71 4448.13 5703.6 6648.68 4713.74 5061.98 4537.6 4923.24 4419.61 7177.44 4407.87 4082.57 5450.44 3848.54 5080.18 5941.4 5266.5 4716.19 4050.9 5135.69 5344.0 3456.98 5191.63 4501.51 5379.87 4602.86 5925.6 5572.95 5413.79 6723.16 5402.24 5013.42 5651.07 6101.92 4635.6 4765.02 3658.37 5370.85 5629.39 5070.29 6326.18 4807.28 5075.55 4266.03 4084.49 6179.96 5703.07 5147.36 6260.79 4563.46 3963.76 4236.14 5282.91 6510.17 4454.63 4263.33 4066.38 6695.82 6049.55 5514.76 6405.76 4290.14 4593.7 5987.17 3979.82 5586.81 5006.58 4746.52 5130.91 3868.18 4948.5 4527.02 5210.48 7552.94 3627.55 4409.63 6239.84 5865.39 3178.54 5949.46 6157.04 2684.03 3776.94 5246.47 4768.61 2261.36 4522.21 4220.03 5280.69 5449.46 4662.43 6113.54 4043.66 5169.9 5733.62 4425.84 5282.51 4871.96 5331.02 4523.88 5742.65 5709.62 4241.89 5835.78 4877.67 6045.46 4043.57 4138.42 3824.16 5011.31 5077.33 3689.45 3948.17 5383.07 4531.14 4959.34 4519.22 4602.85 7644.38 4051.34 5521.25 5278.36 3661.9 5136.08 5107.23 4010.57 4187.31 5506.19 6191.29 6719.94 6923.84 6166.29 5294.77 4709.05 3077.84 6553.94 5255.18 3797.33 3004.16 4460.92 7256.35 5945.89 5592.32 4800.69 3279.1 5054.74 4099.77 4020.32 3498.2 4245.72 4763.45 3815.26 4481.53 4292.06 5330.45 6318.18 5045.38 5350.88 4247.15 4790.78 6552.22 6004.68 5379.09 6799.4 5222.16 5533.42 5558.68 3240.51 4599.38 7422.36 5161.01 4628.4 4950.67 5453.6 5409.63 5227.59 4630.82 5528.53 5726.66 5460.65 4767.78 3062.43 4105.55 4042.28 5912.61 4978.31 4402.67 4403.98 4981.9 4948.98 5941.72 5794.24 4150.99 6562.18 4478.15 5681.38 5147.67 5577.04 4986.77 5125.78 5452.83 4591.87 5178.99 6422.84 5534.94 5180.76 4502.18 3312.06 6218.95 4802.32 5533.72 3678.08 5730.33 5518.57 5463.48 4527.99 4543.1 4376.7 5190.61 6051.83 4298.15 4813.08 4263.16 6799.88 5860.67 4540.86 5426.78 4863.23 3555.86 6566.1 5381.16 4560.84 5227.52 4414.48 4537.32 5163.02 4127.74 4216.92 4704.72 5445.87 3771.48 5198.77 5423.0 5643.58 6034.41 4027.09 5197.52 5615.35 5801.99 4135.62 3361.26 4860.33 4983.39 4993.35 4690.55 5366.52 5146.37 7132.12 4836.16 5545.46 5680.94 5832.37 6550.44 3764.06 3973.12 4642.93 5941.9 6024.75 6642.76 5987.42 5990.52 5235.17 4340.76 4435.36 6386.78 5565.13 6086.96 6193.35 4541.21 4302.5 5908.1 4571.7 4107.03 4138.46 5215.05 5137.34 3975.31 5344.43 4373.47 6070.58 5490.43 6169.11 5266.22 5172.53 3685.13 3418.99 5226.97 5754.18 4480.95 4558.15 5417.8 6552.21 5227.02 4232.16 5151.11 5581.55 5193.01 8325.01 4440.81 4523.39 5829.22 5567.93 6109.49 3764.1 2967.38 5652.0 4421.12 5463.41 6065.22 5254.49 4221.28 4996.99 4470.61 2476.04 4656.78 4156.38 3066.13 6048.7 6009.88 4177.94 4344.58 4850.01 2775.04 3970.25 5198.29 4044.45 6035.6 4285.32 3627.82 4896.11 5022.28 4285.66 4318.48 6132.95 5008.63 4004.35 4270.74 6293.89 5132.68 6595.03 4350.12 5300.96 5670.0 4344.51 4707.06 3474.5 6348.03 3860.83 5732.27 4497.78 4835.83 5811.18 4779.5 4929.75 4237.98 6045.22 6649.96 4456.39 3701.27 4729.43 4631.83 4092.24 5105.16 5991.09 6006.16 5896.46 4742.68 4271.69 4810.12 3821.72 5526.14 5262.19 6449.45 4244.9 5339.38 4986.51 4763.96 3872.61 3930.79 3450.93 5293.51 5097.45 4446.06 5737.75 3603.51 3778.02 4095.75 2761.07 3834.43 6609.84 5135.96 5491.37 3781.77 5658.37 4792.39 4250.88 5434.47 5278.56 4243.79 6917.62 5332.65 4159.35 6451.33 6439.37 5225.33 4896.39 4614.3 4384.88 5233.78 5126.91 4562.74 4806.34 4164.68 4678.38 5634.83 6898.19 3633.87 7099.43 4470.4 4516.28 5311.03 6048.86 4238.4 5365.24 5255.12 4047.87 6625.18 5742.47 4185.61 4917.99 4367.78 3319.67 4076.59 4298.45 5222.51 6074.94 4972.17 5699.53 3475.67 3783.54 5527.23 7038.89 5146.37 3863.67 5433.65 5631.14 6137.8 5604.35 4442.22 3091.67 5413.31 4332.87 4303.19 3633.79 6887.27 6081.14 6008.49 3942.07 5480.83 5050.65 5448.61 5316.75 5495.84 3929.19 5347.48 6396.74 5315.4 5486.68 4611.53 6894.26 5094.48 6408.83 5576.92 4573.72 5323.91 5099.21 6969.28 4163.74 5636.4 5283.8 5164.1 4428.14 6464.15 6685.4 4222.77 5268.38 4805.33 4814.12 5067.56 5980.95 4887.76 4343.78 3012.99 6477.91 6316.56 4081.97 5514.84 5401.99 5421.53 3914.2 5653.9 5776.57 4827.33 6268.1 7443.72 5922.5 4374.35 5776.37 4011.77 4527.08 4287.63 5100.25 5805.86 5678.96 2681.29 4049.02 5296.29 6234.32 4586.19 4296.69 4570.98 5698.96 3665.95 6471.42 6372.13 6016.19 4124.49 4479.11 5714.25 4850.06 6332.01 5325.96 7044.29 4581.37 4013.38 7085.01 3352.35 6193.08 5263.3 4909.65 2735.53 4008.15 4811.32 6420.81 6400.08 5134.39 4256.57 4607.85 7144.24 5133.97 3600.43 5683.26 6600.94 5371.02 3784.5 3937.08 5022.8 4502.5 5499.11 2965.79 4410.55 3921.08 5346.68 4190.31 5020.71 5839.71 5997.88 4360.23 3755.95 4585.31 5010.04 5388.78 4275.07 6238.32 5825.38 6804.79 5369.5 5535.91 5404.01 3230.13 6176.67 5016.02 5412.24 4234.18 4920.21 3936.95 6069.3 5116.6 5887.01 4669.06 4286.49 5580.92 4715.58 4220.46 5784.3 4287.53 5598.74 4906.82 5131.24 5513.57 7055.53 5113.21 5252.34 5965.78 5083.41 5683.61 4558.46 7055.42 3836.45 5737.92 5662.55 5889.35 3056.7 5591.76 4394.56 6101.13 5599.7 5642.35 6918.35 6357.47 4793.65 5955.86 4533.37 5887.38 2779.99 6942.34 4049.16 5851.61 6153.94 3862.77 5168.35 6523.86 3747.03 7693.4 6184.88 4743.59 3317.83 5208.14 4450.7 3532.3 5769.98 6088.68 6070.3 5937.08 6155.1 6133.92 5013.67 4862.21 6125.34 4274.61 5443.58 5731.57 5464.68 6401.43 2685.81 5896.26 4510.8 4587.67 5951.81 4834.3 4066.57 6348.54 5156.76 4891.38 2949.12 6101.57 4532.89 6040.74 3856.53 5460.89 4848.46 5742.09 3658.05 6836.82 3858.17 5478.11 3477.1 4631.99 2783.85 5388.39 4356.49 4326.48 5829.32 4437.07 4396.25 5151.52 5973.33 2221.99 3583.21 4643.56 4788.58 5612.21 5260.34 5894.61 3719.84 4178.4 5729.23 5820.48 5782.6 7034.11 6261.42 2586.12 5433.8 5975.63 6444.77 6314.07 5687.85 5703.74 4747.55 4539.07 4475.83 7509.24 4146.81 5093.82 5756.75 3924.14 5212.43 6318.23 4206.98 5948.71 5932.07 4054.22 5260.85 2884.65 4648.21 4393.16 3311.29 5807.46 4595.12 3110.13 5030.15 4740.98 3728.18 3644.78 3185.39 5335.47 4526.81 3449.37 3763.05 5092.24 4347.74 5442.32 5291.9 4135.08 5067.46 5128.57 5046.21 5687.83 5196.67 5669.65 5206.48 4709.35 5934.22 6586.45 3780.23 5011.84 4359.62 5690.26 5253.55 5062.71 6946.21 5564.02 4497.59 4512.11 5759.46 6248.6 5708.99 6333.29 4558.47 5831.96 5064.79 4691.91 5480.3 3427.63 4840.44 6639.64 5216.26 5454.12 3687.65 5478.95 4058.87 5174.75 3851.85 4984.46 5048.55 4024.31 5844.72 3992.97 7228.94 5989.05 5393.65 4549.69 4961.99 4386.8 5526.31 6423.81 4078.93 6192.77 4312.15 5128.77 3994.07 5934.82 5491.9 6405.0 4219.94 5551.95 3918.87 4518.04 4009.62 4863.01 3101.75 4929.14 6000.7 5945.08 5004.23 6496.67 5876.71 5826.04 5474.8 5624.49 5339.78 4730.41 3471.03 4004.04 5696.88 5411.85 5607.14 6915.83 4844.57 6057.22 4156.2 6072.45 4289.17 5511.88 4470.98 4933.65 5950.04 6098.1 4231.83 2435.33 4074.48 4477.04 3614.96 4745.43 3886.68 5344.83 7046.11 4863.97 4449.98 6342.48 5439.49 4887.52 6571.31 4392.65 6413.15 6103.11 4955.16 4147.31 5950.88 2202.77 4441.22 5853.89 4149.55 6551.93 6484.43 4625.67 3485.54 4583.52 4501.78 4458.64 5633.61 5048.19 5907.46 6799.23 4659.16 4264.91 5369.08 5549.49 3580.58 5620.74 5356.79 5233.29 5139.5 5604.21 6442.69 3979.54 7493.3 6320.71 5226.0 4373.3 4648.04 4750.78 5029.78 3527.05 6262.72 3095.48 3664.11 3923.03 6608.73 5188.81 3745.84 4643.85 6062.05 5082.74 4203.26 4413.85 3999.94 6171.13 5092.37 4027.46 3901.8 4864.22 3497.9 5941.61 5782.48 4031.78 3735.24 6574.95 6817.57 6853.04 3420.08 4912.04 4255.34 7165.9 4701.5 4771.65 4036.91 5589.37 5110.11 6379.14 3634.5 6631.28 5420.67 5416.45 6459.51 4904.51 3288.01 5751.15 6201.86 5474.01 7554.58 3380.69 4140.4 4725.01 5966.75 3657.69 5510.9 6418.11 7122.87 4243.26 3572.94 4888.27 4153.84 5399.29 6740.71 4766.06 6487.56 5789.55 4874.18 2081.58 6605.86 4011.37 2511.46 2775.69 4778.82 4968.03 4312.56 3169.67 5204.04 4814.55 5304.13 3361.92 3306.14 5833.06 5944.09 6607.87 5698.77 4166.08 3365.82 6515.84 4163.5 5762.59 4861.06 4298.67 5873.69 3979.26 5960.66 4962.09 5654.31 3999.48 4831.47 6939.12 5563.79 4735.33 6853.85 4406.4 4020.4 3493.47 4596.75 2395.5 3374.08 4188.87 4498.25 5564.23 5151.21 5108.06 3573.73 5398.64 4693.52 4568.41 3624.7 5262.35 4320.42 4281.98 5783.48 4504.35 5012.97 4891.67 6818.91 3429.57 3503.65 5569.2 4027.63 5350.88 5305.59 6114.89 4330.58 5754.6 6870.97 5351.86 6056.87 5307.35 4342.18 3639.44 5166.89 5446.4 5725.37 5491.63 3868.62 4883.63 4505.28 5138.33 3492.83 6015.02 4922.49 5797.36 5119.86 4820.17 5423.42 4592.15 5084.17 4854.11 4901.2 4633.05 5657.36 6505.78 4612.06 6124.08 5012.5 5467.84 5029.47 5490.58 5876.64 4750.58 4863.79 4702.06 5395.14 3464.83 5117.47 4923.41 5374.51 6481.79 4123.6 4143.78 5320.28 7092.87 5224.12 4796.58 5750.71 4569.12 4472.17 4938.74 5470.77 6222.42 3474.39 5516.95 5328.22 4151.76 3905.51 4216.17 4721.02 3546.71 6484.17 4938.72 4254.37 5956.65 5931.77 5768.57 4222.4 5313.12 4914.45 4000.43 4698.87 3984.88 4661.03 5318.53 3344.57 5220.76 5160.59 4732.09 5138.2 7001.83 4593.7 4349.13 3766.69 5188.53 4521.75 6746.66 5410.33 4642.74 6735.97 3636.15 5483.7 5135.63 6384.7 3152.86 4355.83 3896.27 5963.36 5230.02 5169.48 6016.08 6064.71 4731.21 6102.98 3425.69 4971.29 3743.76 6280.13 5244.22 5585.14 5001.58 7039.98 4729.42 5089.26 3886.72 4901.44 5971.22 2275.45 6522.59 4909.31 5711.62 4785.25 6519.43 3619.79 5461.55 5053.95 4270.15 3298.2 6710.88 3967.48 5926.11 2477.07 6213.04 4538.95 5724.64 2990.77 3163.78 4970.88 4925.63 5965.15 4763.66 4850.14 4666.81 6739.08 7042.12 4797.52 4471.58 5463.38 3637.61 6098.14 5945.21 3493.7 6470.3 6345.13 4200.03 5599.49 5313.22 3436.15 4719.7 4097.57 5711.11 5005.85 5325.44 4575.94 5021.88 5102.75 4597.29 5938.17 4200.09 5097.95 4795.43 2928.82 4638.18 5498.42 4196.37 5351.56 6448.66 4453.97 6945.98 7317.04 6412.67 6204.65 4482.9 6550.4 5513.8 5036.98 4120.07 4882.66 3840.21 4081.34 3908.56 4844.83 5244.78 5377.37 5652.87 4311.48 5018.69 6394.19 5952.38 5807.52 5087.14 5518.11 4192.21 5712.35 4743.9 3124.7 3719.11 6060.17 5153.18 6711.21 5510.45 4236.86 3684.15 4730.14 5832.29 4438.76 6456.58 4159.81 5244.98 3814.65 5415.45 4998.22 5533.19 3776.8 5417.21 6156.21 6602.43 5435.19 3562.79 7093.13 6306.21 6667.68 5253.37 5235.11 4497.31 5211.38 3830.46 4305.16 4721.32 3293.56 4888.6 5882.65 5092.28 5078.86 4780.2 4918.77 6326.39 5163.55 6817.32 5501.93 5462.21 6343.14 5374.98 6049.79 6313.06 5226.56 5274.19 4050.08 4901.07 5452.42 5186.3 5017.5 4893.49 5966.61 4834.87 4514.79 5760.22 3672.21 4509.89 6752.75 5269.38 5607.3 4811.76 5211.6 4172.6 4745.79 5806.31 5456.71 3556.79 3503.41 4908.75 3971.08 6556.26 5684.25 5438.92 4244.49 4775.04 4952.52 3646.95 4954.76 6334.53 4749.96 4906.11 5869.67 4387.39 4899.73 4564.1 5457.66 4848.14 5366.22 5973.89 6193.73 5254.24 3742.11 5701.52 3597.43 6776.22 4467.13 5321.17 3877.8 6273.6 5902.67 5454.11 2606.51 5393.76 3994.39 4941.02 3864.92 6006.89 4618.73 2955.36 3965.3 5792.98 3668.93 4960.64 5096.43 4983.3 6592.93 6350.71 4383.56 6104.26 3568.28 4990.79 4798.17 6865.76 5424.46 4953.1 2895.63 5266.01 6449.64 5767.9 6515.8 2040.66 4857.84 6031.67 6413.11 4739.14 5529.42 5274.14 4636.5 5257.12 4819.73 3382.7 4434.19 4903.82 6471.55 5100.1 4940.42 3954.91 5085.71 3703.1 5923.4 4623.61 4319.79 5960.56 6643.85 5774.97 4020.95 5862.86 2315.64 4703.08 4390.41 4890.5 4488.85 6113.95 3981.07 3731.84 3554.48 4579.69 6496.52 4997.83 3991.42 3718.69 5578.94 4388.63 4940.28 6192.0 2216.82 5885.28 6579.31 5323.55 3004.34 3022.6 3804.5 5452.36 5375.1 6486.37 6083.28 6100.73 4198.94 5470.04 5212.37 4211.82 6003.78 2628.22 4901.29 4124.76 7200.89 4050.03 4813.33 4147.49 4802.98 4833.55 4705.68 5384.86 7224.99 4869.48 3623.19 4658.24 4745.16 5825.55 5509.51 3199.4 4316.5 7261.51 4968.14 4914.03 4158.91 5086.29 5144.56 5311.55 4869.25 3360.86 3034.16 5545.21 4763.4 4333.87 5024.32 4708.17 3779.45 2741.2 5806.61 4983.1 5784.37 6119.99 7123.04 4128.1 5372.82 4385.81 4402.17 4034.05 6436.74 5583.61 5425.98 6063.64 5166.79 4516.53 5996.66 5818.95 3940.49 4093.99 6464.8 5079.22 5384.76 2978.76 7016.27 6622.11 6138.12 4689.15 4428.78 4965.89 5746.28 6790.73 4371.99 4946.42 5659.95 5187.7 5409.66 4082.47 3561.29 6090.91 4537.14 2965.01 5203.08 6235.57 6263.44 5412.31 4863.27 3492.19 4584.5 5122.63 6766.43 4118.84 6934.37 5916.16 3423.15 5010.2 6123.03 6098.95 5453.98 5653.03 5148.08 4157.29 4777.03 7610.49 4246.61 4286.17 6028.09 4609.02 4896.65 5561.74 4532.7 4504.86 5975.23 4788.08 5079.64 996.652 6163.54 6500.49 5965.58 3352.34 4607.18 5058.51 3899.7 2403.72 5134.33 5419.57 5162.67 5760.98 5469.35 3835.81 4019.34 5510.96 6653.07 5532.72 4697.91 4584.81 5071.98 5719.79 4371.08 5148.1 5224.64 5949.73 5214.63 3495.68 4312.48 5139.18 5527.13 4278.57 5049.99 5551.43 4201.03 5136.87 5001.87 5638.7 3667.93 5790.42 5813.79 5293.13 6010.59 3682.35 3756.96 4009.24 4446.58 5401.4 7778.01 5690.96 2460.79 5798.38 4653.83 4456.11 4125.9 5096.24 4986.71 6479.39 4122.92 4997.91 4405.42 3598.08 3604.14 4908.49 4452.54 4599.81 4962.21 4684.44 5884.9 4406.05 4749.59 5089.62 3685.65 4858.44 3468.42 3685.13 4590.55 4673.35 5243.43 3876.21 4741.26 5920.32 4655.16 4916.22 4186.6 3701.16 6022.7 4152.85 3295.83 5551.9 4219.78 4963.34 5499.39 5644.82 6413.02 4440.57 6736.03 5374.07 5548.29 3087.09 3623.87 7480.41 3766.55 5163.77 5469.13 6027.62 5765.42 4976.12 5530.49 4817.16 4304.41 5660.55 3989.7 5107.0 5069.89 3684.56 6212.15 5327.75 4946.23 4783.07 6200.63 4852.58 6816.66 3217.67 3844.54 4473.29 5034.69 4509.46 3538.53 4680.69 6127.39 5640.12 4972.18 5078.59 5329.76 4365.58 5214.4 2646.13 4636.53 5193.58 3629.49 5399.43 5766.05 5117.64 3916.42 4507.46 3422.21 5429.3 5603.68 4944.51 5610.95 3220.8 5179.17 5579.39 5270.51 5490.75 4979.52 4407.79 6548.29 5783.94 3990.96 6370.33 6318.25 5081.08 4202.77 6864.06 4493.79 5684.05 4644.88 4279.44 3142.09 4028.22 7350.26 5591.77 5182.13 5167.53 5906.57 5127.82 5053.15 5910.86 5124.17 3862.91 5805.1 5366.11 6171.71 5039.12 7382.3 3908.98 2995.67 4668.88 4022.56 6589.82 5381.54 5698.23 5522.21 4680.94 5810.77 5828.35 5089.1 5799.69 2711.19 5876.72 5571.72 5689.26 5869.4 4992.42 5297.19 5251.4 3867.19 4940.84 4345.67 4188.3 4453.64 5019.93 5081.78 4459.28 3885.86 5235.29 5453.3 6116.33 4260.92 4479.94 6250.23 4407.9 4435.51 4718.54 7234.66 8659.64 4055.54 4588.7 4886.12 5683.95 6107.89 4233.8 5206.33 5065.26 4446.84 3746.36 4892.44 4741.28 6789.23 2205.51 4215.2 5361.87 3703.49 6813.72 6502.97 3205.68 4757.2 5969.37 4928.35 5241.75 5849.53 3763.9 4420.11 4651.99 5084.5 4918.64 6638.25 6562.03 4815.47 4759.99 4368.12 3889.98 5490.64 5695.44 5034.34 3769.2 3468.45 5036.14 4526.34 5042.75 4598.92 5241.22 5673.75 6647.08 6263.3 3422.29 4537.03 4501.05 5124.34 4114.2 4326.06 5352.24 7362.42 5836.14 5473.05 4932.56 6008.81 5192.49 4899.19 3487.31 5058.34 3768.46 3852.82 6110.48 4507.36 7541.76 4775.49 5003.3 6245.52 4681.29 6239.68 7320.78 3845.9 4064.58 3419.87 4834.44 3628.89 4824.81 4234.88 5027.43 4384.28 3772.3 6328.42 4855.01 7307.21 5522.75 7300.58 3608.06 4714.83 4028.32 5474.15 5236.43 7519.2 3809.69 4771.13 4099.92 3208.96 7051.9 5285.07 3858.06 4255.85 4680.14 5097.69 5511.6 4517.73 6261.75 3757.34 5177.64 2908.7 6415.61 4338.08 6134.99 4255.31 5191.08 5424.88 5148.58 3838.47 2588.37 4062.5 4199.45 3583.49 3548.39 5887.15 5415.85 4858.51 4207.54 3375.28 6599.66 4603.5 5625.65 6419.12 4936.96 4481.76 4301.61 3184.64 5375.12 5452.78 4356.36 5473.72 5175.89 2603.64 2856.55 4553.68 3894.64 4268.19 5232.85 4374.74 3758.22 4062.56 4583.94 5046.31 6240.42 4337.32 1937.5 5146.0 4731.53 4788.7 5721.14 5863.0 4987.28 6206.98 5549.71 4410.82 6443.99 4967.51 7212.97 5698.53 3856.73 4450.49 5887.71 5635.32 4827.61 4316.45 5409.08 5481.64 5360.67 4778.37 5134.17 5968.54 4904.35 3247.97 5592.54 4358.81 4904.37 5034.46 4651.64 5793.12 5757.29 5469.17 5537.34 4373.2 5884.99 3918.94 5726.42 6643.4 5575.11 5487.63 6599.28 7145.73 4932.29 5800.81 5499.59 4990.23 3220.29 5749.6 6016.87 3125.13 4141.21 6715.73 4439.71 4174.44 5782.43 5769.14 5667.51 4456.26 5944.3 3563.14 3381.82 5867.64 5135.5 6208.9 6633.61 4923.57 3340.09 6059.93 4884.59 4478.6 5217.95 4608.41 5895.77 4732.09 4765.72 4184.23 4833.46 3988.3 5857.79 5750.07 4039.91 6136.49 4642.66 6543.13 5276.7 5149.72 4752.14 5660.16 5037.06 4541.8 5842.56 6200.54 5713.03 4652.01 4928.27 5849.65 5134.67 3673.28 5775.31 5421.64 5052.84 4165.21 4366.74 5297.16 3950.27 5354.66 4647.67 3566.79 4214.44 5378.23 3629.44 4787.97 5374.67 6246.56 4981.43 4508.18 4061.6 6214.73 5064.67 5836.26 6618.21 2617.39 6666.67 5144.44 4826.52 3717.47 4051.18 5120.92 4685.4 4629.02 6006.16 5914.5 4288.45 4608.62 4577.73 5407.96 4071.75 5131.77 3186.07 5482.76 3745.02 5173.82 4887.73 3720.7 6297.99 4211.36 5378.24 3604.31 4538.89 5817.74 5661.6 3242.31 6099.28 5285.75 5385.03 3494.16 4169.15 5370.9 4074.16 4529.77 4325.13 6172.27 5390.33 3783.79 5278.54 5078.73 5729.92 5729.0 5016.46 5275.57 6224.13 5061.75 6022.78 3769.24 3661.67 4087.32 5517.65 6647.85 4674.9 5461.72 4361.24 6224.85 4168.52 3954.77 5403.97 3784.94 5106.46 6793.1 5166.05 4506.66 5515.73 5209.55 4708.31 5113.6 3873.92 4810.98 5431.29 4198.9 3619.72 5026.76 5091.22 5347.9 4646.51 4438.58 6282.38 4565.93 5640.72 4504.52 5602.53 6061.63 6355.68 4083.79 5484.36 4511.7 4144.57 4351.38 4187.94 4304.63 5980.59 5550.75 5933.7 4809.67 5021.77 4757.74 4687.64 4356.25 4378.3 5469.47 5411.02 4950.97 4989.56 5175.29 4863.96 3645.12 4094.73 5199.44 5580.34 3852.6 5009.83 5131.15 4110.59 4847.14 4706.5 3332.49 4215.0 4811.22 4474.83 3683.86 4918.76 5116.66 5003.78 5293.75 3299.24 4208.41 5730.61 5826.78 6358.93 4559.74 4383.68 6015.22 6063.44 4454.74 2904.46 6449.06 5512.44 4924.07 3200.6 4927.73 4602.57 3565.32 3419.07 3763.85 5710.33 5344.44 4626.72 4369.86 5115.42 5728.58 4082.4 6424.77 5918.95 5453.69 5689.56 6556.86 4898.29 3234.26 5372.25 4830.13 5620.88 5730.2 4941.52 5900.0 4308.49 4262.74 4581.1 6241.77 5317.19 4248.14 5192.92 5279.19 4179.87 7050.08 4786.66 4761.84 5370.1 5114.51 4009.68 2569.12 4622.73 7025.09 4161.32 5161.74 4433.12 3392.26 2549.95 7336.37 5138.93 4556.19 5368.66 4795.08 6562.92 4068.31 5501.73 3671.06 5077.29 7035.54 4564.41 4027.33 4983.43 4850.5 5951.86 6331.74 4252.18 4833.67 5023.41 5357.39 4659.88 5325.91 5851.63 7107.63 5073.02 2279.05 4867.7 4829.35 5788.97 6545.43 3953.55 4063.9 4075.28 4277.24 5263.27 6834.41 4469.54 4314.56 6300.92 7248.4 5161.1 3796.15 5036.58 3928.53 4419.71 5329.59 5776.96 4888.12 4244.21 5439.9 4588.99 5512.16 4617.55 4321.21 3197.63 3875.05 4287.16 3456.47 5471.74 4344.34 5966.42 5666.95 5210.38 5717.8 4489.99 5210.75 4548.45 4658.11 4551.26 6555.44 5658.14 6570.35 5114.07 4242.63 3269.54 4385.49 4263.18 7124.45 7142.95 5064.23 6061.85 5268.15 5819.0 6347.72 3460.93 5124.86 7168.2 4571.74 4096.86 4796.12 3622.48 5001.51 5385.86 6432.8 4209.0 4930.72 5485.84 5703.84 4335.79 5797.32 5432.04 4886.99 3921.27 3702.45 5265.63 3161.1 4431.06 5684.88 6523.78 4045.67 4645.86 5087.97 6005.95 4930.17 4519.03 5110.27 4745.44 5762.82 7360.12 4016.6 6223.98 3035.06 5580.44 5891.25 5095.52 5129.4 4746.15 3303.49 3720.38 4655.37 5585.25 5256.75 5099.9 6945.69 6406.8 7086.69 5648.78 4697.24 6875.73 3612.44 5226.42 6081.3 5233.76 5426.4 5763.05 5129.68 2820.07 5076.84 3791.41 4546.44 5657.55 4092.07 5727.79 4213.05 5212.92 4831.93 4224.3 4184.21 4700.07 3472.91 6760.92 5188.82 5615.84 4989.2 4464.73 4023.93 5868.89 8137.11 5291.05 6650.77 6045.67 6226.14 4209.49 4216.95 6119.63 5464.25 3498.16 5486.48 4247.69 4409.27 5301.47 4752.9 4947.24 6506.86 3540.11 5950.45 5391.48 4803.57 5088.57 4728.55 4923.43 4929.6 4568.64 4642.2 3919.62 4127.53 4945.0 4212.15 4585.04 5260.52 6102.49 5678.58 3469.18 2945.34 3185.09 5114.23 3372.95 5495.0 7407.91 5846.95 5716.42 5701.63 4620.95 5293.37 5368.93 4488.39 6121.56 5879.24 5740.78 5997.91 6824.53 4332.64 4742.82 6791.86 4422.23 6031.22 4820.68 3618.64 4171.02 3530.82 7012.36 5028.06 4002.99 5159.67 5587.3 5764.52 3572.73 3770.22 4390.64 5150.84 4608.01 4467.51 5339.82 5460.57 4085.96 5703.34 6668.98 4612.68 6649.52 5462.6 5821.49 5617.29 4262.19 5998.13 4597.88 4878.93 6275.25 6892.33 4758.84 4505.3 4731.37 5023.61 4672.86 6351.89 6530.78 5932.28 2960.5 5118.86 4298.7 4975.32 4183.4 6170.9 4733.79 5833.78 4436.48 5615.35 5758.98 5117.52 3967.76 6311.89 5866.91 4683.28 6405.69 4217.36 5679.74 4825.73 5247.01 5853.12 4208.37 4165.36 5288.33 5157.38 6203.03 5235.87 5273.37 5043.14 4928.85 6440.38 4717.73 5556.0 5484.32 4711.04 5007.21 3904.07 7144.05 5466.33 4173.54 5599.29 5742.74 5280.12 3946.28 3821.94 5984.81 5721.05 4209.31 7013.17 3805.67 5718.28 5367.73 4514.39 4640.06 6242.79 4227.41 5993.0 6047.14 5467.63 4554.68 4140.92 4512.07 4368.28 4692.32 5750.35 5463.06 5984.8 5236.24 3127.83 3986.41 5532.75 4241.68 6949.65 4095.83 4975.85 5695.25 4489.29 5676.61 5323.95 4301.93 6171.01 4468.26 5796.26 5578.18 4603.04 4870.94 5106.33 5198.94 5271.88 5933.54 5464.05 5559.79 2980.31 5453.2 3148.79 5264.83 6348.93 5136.51 6815.51 5232.16 5189.91 3989.26 5777.26 6119.0 3792.06 5128.59 4293.3 5310.33 6583.37 4864.38 3688.83 4848.98 3402.44 4491.96 4397.06 5184.98 4479.5 6261.67 5065.78 3435.13 4431.46 3207.84 4521.42 4614.49 3977.98 4232.33 4939.56 4747.68 5770.92 3093.38 4845.91 2002.78 4461.67 5631.32 6322.0 5793.14 4452.36 3976.0 4068.41 6463.71 5560.23 5059.37 3043.77 4139.39 5237.55 3902.48 4304.64 3909.94 4905.53 6030.39 4823.06 3799.01 5254.49 7392.65 5288.64 6213.24 6734.39 6549.8 5942.45 4851.18 5005.72 4150.76 5368.52 6296.54 4841.7 5797.21 5702.4 5069.9 5473.89 6089.45 952.938 4732.37 4985.3 5810.17 5072.5 4966.07 5713.36 3274.85 5748.9 5545.59 5553.94 4619.2 4506.18 5606.51 4801.8 7216.98 4444.97 5271.02 5046.12 4807.4 4350.15 6329.53 4139.3 6541.45 4590.01 4601.74 6101.86 5078.31 5228.75 4807.35 6545.99 6761.81 2918.64 3903.91 5630.9 6139.64 4756.8 4896.43 4176.32 4462.35 4639.8 6069.78 5196.08 3587.93 4517.29 6257.79 4495.75 4849.5 6229.83 4523.81 5065.74 4873.23 5791.25 4028.35 5410.6 4733.41 4969.68 6636.43 3901.53 5431.14 6298.8 5313.86 4457.05 5151.19 5178.07 6509.54 6079.55 5485.61 4993.49 5308.4 6581.13 4569.32 5537.61 6084.88 3543.98 4053.12 4199.44 5878.55 4014.44 6604.72 6002.77 4610.55 4967.02 6043.34 4128.93 4959.72 4712.17 4723.71 3808.04 4405.61 6126.5 6007.1 4034.88 4491.26 4511.34 4832.21 4609.65 5009.21 4742.35 5783.38 6264.03 5645.54 5088.64 3562.8 6589.8 3729.16 5319.1 3783.36 4181.93 3757.23 6828.8 5987.88 3579.59 4228.53 6123.46 6142.88 4871.77 5155.28 5811.26 5388.73 5685.74 5062.77 6740.35 4678.7 3673.6 6028.63 3306.84 4657.24 5265.21 4400.14 4749.18 6215.87 5494.28 5191.26 5166.41 4067.96 5740.65 4824.12 6542.5 6038.68 7104.73 3000.29 5067.56 2596.96 6349.67 3834.47 5701.75 3272.75 5262.47 4264.54 5261.19 3512.94 7043.44 3516.27 3831.52 4263.65 4750.49 4263.78 6106.43 5644.81 4177.47 4218.16 5334.36 4933.49 4841.23 3990.94 4357.11 5477.8 5486.89 5589.53 7208.19 4549.51 5234.2 5025.42 4965.24 6379.38 5327.05 5438.55 5353.23 5977.66 4434.65 5209.5 6175.27 5876.51 6731.89 4286.61 2932.52 4603.66 4757.87 3557.46 6379.33 5971.95 5652.73 3689.24 3979.46 6321.97 6412.84 6071.59 2589.19 3856.4 4696.06 4937.36 5984.55 5672.46 5803.3 3956.24 3228.27 4721.98 5252.82 5056.26 5445.91 4812.59 3794.47 7115.67 5400.69 4462.5 5573.31 5004.68 4023.88 5348.11 3488.34 4179.8 5428.24 5658.35 5108.84 3511.5 4582.12 4520.14 6345.2 5488.96 5704.61 5410.73 5394.79 4379.91 4574.03 5264.08 5290.37 4526.87 4151.74 4227.66 4691.01 5192.82 4594.89 6920.92 5245.95 4174.22 3573.84 3038.91 3922.28 4067.89 6570.43 6883.86 6161.94 3350.99 4065.28 5057.59 4979.5 4461.14 5111.26 5418.98 5285.6 6019.35 5205.38 6075.99 4884.93 4600.71 3450.07 5927.2 5262.79 4550.92 5146.1 6485.77 5866.42 4704.92 3669.32 3663.0 5610.53 4099.26 5206.47 4834.39 6162.3 4383.47 5971.21 5493.89 4057.17 2781.96 4184.47 7066.96 4467.0 3104.96 4587.7 5601.55 4258.98 5196.92 4462.87 4643.9 5759.79 3787.08 4013.86 4598.54 4816.51 4711.15 3825.48 5218.42 4658.59 5345.73 4770.63 5188.22 4196.62 3810.68 2804.54 2809.19 5005.6 4916.7 4104.04 5593.79 5104.39 5847.91 4612.13 4934.66 5846.6 4984.01 4109.44 4903.84 4290.49 4605.39 4557.1 6688.53 5927.1 6500.45 4907.55 4103.76 4094.63 6605.11 5084.76 6834.92 5749.53 5130.57 5090.48 5402.45 5582.28 3985.93 5945.25 5985.75 4137.16 5475.83 6189.29 3074.49 6571.26 5202.33 7558.99 4142.1 3393.59 5333.04 5043.14 5246.81 5089.1 4521.99 5394.78 6842.54 2853.68 5675.45 4998.37 6038.56 3361.11 2807.46 6559.82 5599.16 6565.95 4577.98 5043.34 5886.81 4487.51 4295.25 5067.92 3188.21 5357.14 5128.03 4850.95 3720.92 4942.63 5087.3 6139.74 5850.38 4975.57 7066.26 4730.97 3677.85 5214.71 5821.42 4677.84 6294.09 4515.02 4571.57 3445.92 3820.19 5236.69 4586.82 4745.37 5939.29 6200.05 5575.11 4574.54 4949.55 5615.06 3132.34 1969.87 4764.83 4841.28 3957.38 4494.15 5035.71 4419.79 4710.88 6060.06 5544.27 4762.1 3484.81 3742.31 4316.0 4954.81 2970.9 4546.96 6304.49 4608.34 4580.06 3926.11 4835.97 5134.72 5695.79 4191.01 5464.83 3622.8 4589.06 4770.51 4920.88 5414.58 4431.23 4991.35 4994.65 5740.98 6511.37 4346.07 3999.5 4012.92 6710.14 5034.05 4426.02 5467.51 4474.39 5459.92 4096.47 4542.16 6478.35 5453.77 5114.67 2638.82 5353.66 5030.33 5527.27 5157.73 5765.14 4541.22 4946.08 3539.68 4696.03 2927.84 6177.68 6217.33 4698.7 6270.59 6045.26 2848.44 6263.87 5743.8 6666.34 5581.01 4645.91 6959.88 4125.75 5247.73 3746.62 4876.37 5034.02 5260.13 4649.5 4810.74 3900.93 5181.31 5784.38 4149.17 4329.8 5728.27 4720.22 4313.38 5580.95 3549.92 5250.56 4032.06 2468.16 5888.95 5203.75 5122.38 3463.34 2459.88 5262.85 5329.84 5901.71 5225.11 3879.83 5733.12 6436.29 4246.24 6805.02 7394.47 4729.45 6261.13 5919.27 4793.06 6637.38 6188.33 6111.23 3057.3 6916.18 6150.31 5873.62 4811.11 3463.53 4924.52 6126.03 5131.07 4866.8 4121.07 6044.69 5524.28 3133.28 6026.04 5105.54 5731.43 5859.17 6353.81 4052.49 5490.54 4034.41 5061.74 5203.54 4047.95 5507.38 6889.5 4948.96 5001.69 5407.69 4416.87 3869.39 5960.5 3987.69 5308.33 6502.99 4287.25 5424.55 5755.15 4921.1 4271.07 3814.16 6419.64 5340.05 4420.6 6506.63 3626.86 4215.05 4140.04 4668.8 5995.4 5577.41 5917.34 5700.79 4216.44 4697.49 5735.08 4726.2 4750.81 3953.26 4282.11 4625.53 2347.41 5602.62 5714.51 3543.37 2030.03 5628.97 4484.78 4621.33 4801.16 4767.54 5121.08 5688.77 5368.28 5466.13 5257.38 6229.64 5625.02 4220.43 5212.05 4975.56 7282.36 4829.77 3826.01 4444.92 5971.9 4532.67 2513.38 5316.05 4769.62 3995.08 5019.84 3874.12 4028.13 4457.73 6476.35 6260.58 3053.19 4067.24 5827.3 2832.83 6598.99 3633.58 3010.1 6294.14 3825.98 4339.97 4667.84 5169.09 4512.6 4210.24 5470.67 4932.27 5252.22 5342.9 4962.35 5402.81 4600.81 5354.48 5640.63 4900.26 4167.55 5374.09 6271.22 3421.81 5378.75 3920.64 6186.24 5786.06 4137.41 4996.91 3868.69 3920.44 5379.52 3768.62 2970.24 5314.67 4197.87 5658.05 6593.1 5462.1 4000.51 3414.67 6032.45 3518.14 4150.44 5522.34 5326.03 6189.67 4420.35 6142.94 5717.45 5117.83 5256.82 5300.17 6581.56 5152.78 4117.9 5393.43 5534.23 6896.55 4753.76 4666.12 4638.09 4392.75 4685.65 6025.77 6219.34 4441.91 6023.07 5377.01 5674.63 5287.25 5828.25 5939.22 4725.11 5418.12 5092.93 5934.05 6371.96 2803.01 4271.93 3495.3 5125.17 4604.1 5890.25 5322.11 5322.07 4859.01 5076.11 5524.45 7133.44 5600.21 4656.01 6589.13 4037.86 4138.59 4970.55 4938.33 8123.59 4819.83 6286.27 6327.54 5071.38 5507.07 5616.66 2943.17 4802.36 5327.71 4880.78 4322.56 5509.09 5075.23 3873.72 4850.49 4592.49 5479.86 3625.98 6474.5 3928.99 4702.32 4763.04 5908.57 5944.52 4413.56 5050.2 4821.41 4924.53 4908.32 5616.11 4499.52 4813.24 5759.19 3113.64 5847.27 4304.75 4490.2 5480.86 6139.9 4474.96 4084.87 4758.76 6036.99 3584.05 4916.75 4589.22 5087.03 3906.41 4691.15 4260.38 6224.64 4636.45 4221.03 3799.55 5638.51 6793.49 6060.19 6786.37 4333.23 3860.8 4919.13 4328.76 4124.33 5168.97 5783.88 4720.34 5002.38 6705.93 5244.47 4731.16 5510.89 6470.87 5822.7 4495.33 3780.07 4159.89 5466.49 5447.74 4038.17 4450.51 6033.72 3851.47 4966.74 5563.47 5651.46 4066.36 3162.27 6033.93 5444.36 5011.37 2827.92 4026.03 5044.68 5771.98 2649.69 5899.78 5000.74 5772.57 4813.81 5268.27 4052.43 4013.86 3980.46 4061.87 5165.31 4057.4 4896.67 4585.37 5383.9 3934.11 5158.44 4466.22 5330.26 6470.23 4475.38 5917.08 5483.37 5259.21 4256.08 6738.9 5881.93 4460.89 4157.1 4714.66 4399.52 4444.0 6771.18 5770.07 5990.75 4984.17 5101.6 4867.12 5327.39 5910.66 5781.62 4981.81 4637.3 5141.03 5734.07 4840.44 3997.68 6033.28 4188.16 3784.68 3717.22 6649.21 3470.69 4654.92 4859.95 5286.55 5522.18 5223.1 4981.55 5093.41 5144.23 6188.62 6153.07 3621.63 4414.06 7296.47 2613.78 5742.39 5417.07 4780.16 5738.37 4433.23 5312.2 4706.59 5734.84 3982.31 5551.79 4950.07 4582.24 4790.63 5367.05 5259.29 6236.46 4818.53 5584.64 4123.08 3795.63 5189.4 4576.71 5082.66 4550.77 3563.33 3550.88 5201.3 5536.0 5145.13 5561.63 5940.5 4358.06 5093.51 5647.93 6201.49 4865.11 5449.09 5502.14 4605.61 4465.56 5282.67 4131.08 5747.9 5178.55 3864.19 5146.69 5007.41 4907.48 3692.99 6213.74 4959.94 1635.31 5639.4 6185.73 5516.37 5092.44 4441.44 6908.32 4232.44 3467.11 5336.61 4817.75 6153.26 5637.53 5244.95 4645.93 3882.37 4634.25 5448.64 5901.8 3798.09 6351.48 6417.61 4288.5 4781.9 4496.51 6815.96 6153.71 5339.6 6561.94 5350.9 5317.83 3483.61 7430.48 5640.67 5992.06 4844.2 5545.68 8052.53 3939.96 4554.24 5555.89 6182.19 4967.93 6044.01 6520.19 7415.84 1458.87 5922.62 5130.56 6241.48 4414.09 5125.45 5191.29 5957.82 6305.9 5093.28 4542.62 6131.52 4132.08 6009.88 4699.77 6664.54 6842.35 5161.73 5464.34 5259.48 4777.96 5801.89 6833.5 6608.94 3796.73 4644.68 3834.01 3082.16 5656.84 6789.66 4739.41 4694.27 6760.64 4849.21 2515.5 5177.88 3793.83 6981.47 3916.15 4088.72 4449.73 3743.85 3945.62 5342.17 5097.85 6189.04 5015.67 6538.04 4894.15 4337.93 6157.59 4345.51 5848.41 6223.33 5438.6 3747.96 5611.29 6568.45 4521.88 5004.22 3724.23 4280.92 4696.92 5154.74 6437.99 6898.8 5386.95 6540.57 4287.93 6203.24 5315.71 6818.23 4488.41 2329.93 4369.87 6938.87 5412.07 5512.57 4083.24 4806.99 6520.96 4612.4 5432.2 6178.19 3312.3 4746.19 5563.09 4848.15 6381.58 3282.57 4439.09 4798.13 5523.81 4095.4 5188.57 5395.12 5715.51 5717.67 5357.33 3886.56 4511.05 3830.7 3456.3 6210.0 6074.39 4499.54 5432.4 3775.38 4262.52 5037.58 6457.89 4081.77 5114.61 6572.17 6080.69 2181.29 3751.73 4420.3 4926.62 3374.62 4766.47 4970.12 6369.66 6009.93 5678.08 5973.57 5270.1 6351.95 4957.99 5195.09 4063.26 5345.05 4947.64 4997.89 7679.2 4881.51 4909.74 2626.41 4311.92 6729.99 5036.84 4565.36 3922.98 5813.68 4025.08 5254.93 4803.4 8013.28 3846.55 5283.65 5943.61 2892.36 5981.54 5911.29 5416.41 4542.25 4414.23 4785.55 5233.88 5245.4 6189.81 5647.11 6379.3 4090.28 4048.73 4246.83 7370.52 5467.05 5103.3 4601.54 7263.57 3832.09 5705.96 5267.65 6632.04 5360.88 5332.11 4893.72 6158.93 5081.65 4072.4 4823.14 6679.12 5652.19 5806.74 4621.32 6578.62 3771.91 4813.55 5217.62 5856.43 3839.0 5349.85 4616.81 5799.86 5715.25 5212.2 4611.21 4362.94 5648.59 4469.82 4718.61 6697.45 5108.42 3873.79 4630.5 4432.32 5515.59 5783.69 5252.37 3721.69 3224.81 4451.76 7885.41 5782.25 4046.22 4104.97 4948.21 4575.72 4987.01 6118.13 4706.31 4721.2 4202.12 6332.64 4871.1 5003.81 2694.25 4735.99 3917.09 4083.1 4613.32 3482.73 5872.45 3996.93 6225.05 5434.04 5200.1 3997.52 5994.21 4444.54 5403.81 5779.9 5310.33 5299.03 5504.65 5669.41 5040.9 4008.67 4770.21 3618.53 4868.66 3783.35 4004.39 5159.9 4987.48 4248.58 5479.17 5020.37 4726.5 4963.88 5888.94 4727.98 4122.2 5175.88 5739.69 4516.26 3509.34 3647.26 7360.62 4977.64 6004.72 4983.56 5373.78 5345.65 2489.44 5438.5 5699.4 5863.36 3878.8 4698.94 6284.12 3948.21 4796.04 3465.03 5669.15 5229.56 6011.4 5263.86 4672.34 5172.1 5056.32 6052.22 5376.41 6545.78 3354.94 6296.36 4404.87 5105.72 4082.01 5237.27 5767.65 5003.49 3964.03 4750.76 5210.22 4907.03 5497.27 5617.91 4444.95 3903.9 5606.22 3943.77 5161.02 6265.48 6081.35 4203.68 6492.44 4739.56 3818.37 4701.03 5145.39 5663.36 3352.46 4276.59 5579.04 5125.53 5405.6 3929.35 4884.93 4759.38 4535.94 5082.25 6964.78 4287.15 4374.05 5282.51 3760.4 4951.02 5732.11 3919.47 4602.7 5596.68 4037.16 6395.63 4790.16 3731.58 3166.37 5369.42 4985.45 5205.53 5699.51 4714.52 5499.37 4489.18 5543.05 4883.13 4632.75 4836.76 5237.76 4994.98 4286.84 6058.13 5296.05 5894.69 6988.4 3330.85 6635.51 5533.52 5410.33 5003.63 4870.14 4695.7 2932.2 4944.08 4380.86 5576.16 4909.13 4287.61 5269.39 4305.35 3308.75 4604.34 4216.33 4439.17 5832.72 4929.35 5442.79 5051.39 6673.92 5242.38 4633.59 3124.49 5151.68 5459.52 4884.94 6262.18 4609.98 5566.5 4738.72 4752.31 5240.97 5569.85 5306.31 5523.96 4223.53 4733.37 3037.72 6960.97 4523.9 5126.08 5604.0 5207.08 4587.19 6028.89 4752.94 5551.09 5333.16 4888.17 6423.96 4501.1 5581.47 4274.05 4384.91 6550.61 4987.01 4060.17 4713.56 6051.35 4747.24 5302.53 6779.82 3999.81 5543.67 5648.02 4072.95 4867.13 6377.45 4863.27 2451.27 2701.42 5677.42 4502.12 6853.07 6327.61 5733.59 5575.8 5362.15 5268.93 4455.61 3695.72 6874.6 5106.9 3950.53 5755.98 5392.85 5077.2 5275.27 4277.54 5529.09 4531.46 6094.34 5925.82 5448.68 4739.5 6210.48 4491.62 3865.5 4182.05 3255.93 
SCALARS Velocity float 1
LOOKUP_TABLE default
1.25016 1.29656 1.33562 1.24669 1.3013 1.26554 1.30398 1.28026 1.34202 1.31953 1.3341 1.30238 1.32729 1.33725 1.33759 1.36961 1.21393 1.2759 1.28305 1.26314 1.27631 1.30986 1.29232 1.25577 1.27701 1.25425 1.34544 1.28357 1.25863 1.26879 1.35334 1.32609 1.32827 1.33613 1.36162 1.38611 1.23469 1.24189 1.22548 1.30605 1.30269 1.31817 1.30547 1.318 1.31798 1.29865 1.24519 1.25646 1.21826 1.28649 1.27247 1.33188 1.23939 1.25595 1.29922 1.353 1.383 1.33227 1.28999 1.3348 1.34158 1.37505 1.20529 1.323 1.30726 1.30754 1.30183 1.31935 1.33177 1.31869 1.28536 1.29888 1.24558 1.25368 1.21608 1.28635 1.26891 1.31774 1.23215 1.30152 1.36512 1.4029 1.31397 1.28271 1.32366 1.33359 1.38717 1.43841 1.30202 1.30739 1.30589 1.30193 1.31235 1.34059 1.32458 1.25413 1.27373 1.30454 1.28557 1.27617 1.24924 1.25815 1.21502 1.19953 1.27795 1.26435 1.31344 1.30758 1.3856 1.39171 1.35254 1.3329 1.39457 1.27259 1.32131 1.30933 1.31967 1.31561 1.30271 1.3906 1.3278 1.43747 1.31664 1.28645 1.31243 1.32517 1.36258 1.30862 1.29332 1.28615 1.27884 1.24978 1.22691 1.26063 1.26844 1.26274 1.33904 1.42561 1.39015 1.35594 1.3848 1.26918 1.30182 1.27788 1.397 1.42623 1.3524 1.29973 1.31659 1.31818 1.33121 1.34309 1.36207 1.379 1.37233 1.28928 1.27571 1.2607 1.28061 1.25618 1.2515 1.21913 1.25097 1.29679 1.28397 1.25535 1.35984 1.42032 1.34431 1.38378 1.28144 1.35755 1.40288 1.44425 1.3836 1.42818 1.39552 1.3912 1.30605 1.37309 1.31988 1.35409 1.35804 1.28003 1.27481 1.28572 1.26813 1.25337 1.25539 1.23493 1.21187 1.23291 1.27413 1.27928 1.29608 1.22103 1.10916 1.37663 1.41477 1.39486 1.33341 1.38442 1.39041 1.31742 1.3403 1.46253 1.35764 1.42139 1.40418 1.30214 1.33181 1.37154 1.33778 1.27641 1.27271 1.29046 1.2748 1.39748 1.35235 1.16084 1.17763 1.25855 1.26205 1.29653 1.09578 1.2163 1.2089 1.38185 1.42789 1.35973 1.33979 1.29227 1.32855 1.45408 1.3781 1.49334 1.45357 1.41294 1.42453 1.27611 1.33456 1.37001 1.37276 1.27355 1.26735 1.29721 1.37578 1.16174 1.1698 1.23687 1.22163 1.15735 1.2482 1.289 1.27629 1.42018 1.38412 1.37947 1.35992 1.31509 1.43249 1.386 1.33631 1.33556 1.47572 1.48684 1.39426 1.40653 1.38158 1.30198 1.3209 1.37091 1.27453 1.38754 1.25807 1.29977 1.36914 1.16592 1.17506 1.28171 1.30477 1.10217 1.26 1.5651 1.27838 1.17178 1.67379 1.37513 1.30197 1.40799 1.37716 1.33042 1.50511 1.45007 1.29002 1.28615 1.4221 1.51276 1.48571 1.38038 1.37845 1.32146 1.47363 1.38602 1.4106 1.42215 1.24094 1.31053 1.39548 1.32685 1.34096 1.22163 1.3169 1.3188 1.35204 1.66022 1.52356 1.44729 1.47353 1.37216 1.33679 1.37451 1.42086 1.64335 1.4807 1.42 1.36204 1.36741 1.42156 1.53493 1.54577 1.48332 1.45888 1.46598 1.47513 1.29317 1.41327 1.40644 1.38333 1.21815 1.15047 1.33046 1.31645 1.34024 1.38577 1.6438 1.57975 1.53893 1.4332 1.42741 1.32877 1.42406 1.73613 1.69245 1.56449 1.61692 1.50072 1.44035 1.39072 1.45685 1.35284 1.3834 1.38176 1.58206 1.57589 1.49693 1.47265 1.49147 1.39647 1.59115 1.33229 1.39929 1.43877 1.35177 1.22945 1.23476 1.14071 1.29028 1.48 1.62136 1.58182 1.61502 1.49829 1.47018 1.38605 1.46009 1.47911 1.51991 1.59328 1.56289 1.50486 1.39176 1.45248 1.41175 1.33838 1.32597 1.65658 1.54559 1.5436 1.45668 1.47227 1.55467 1.81633 1.34472 1.43437 1.44742 1.35178 1.30685 1.24358 1.1736 1.38726 1.39048 1.34368 1.40558 1.357 1.7159 1.79935 1.58492 1.5949 1.55703 1.5571 1.54474 1.54586 1.67776 1.63357 1.45792 1.49725 1.4847 1.52206 1.54792 1.53421 1.495 1.526 1.51503 1.45774 1.37264 1.34766 1.63472 1.55135 1.32576 1.44873 1.84024 1.54298 1.25403 1.21798 1.45939 1.27962 1.49552 1.51911 2.20508 1.89329 1.6073 1.55564 1.67817 1.68025 1.59749 1.50414 1.49863 1.49809 1.47418 1.50267 1.51534 1.49414 1.50396 1.46046 1.41041 1.3787 1.44749 1.57694 1.62068 1.51638 1.374 2.06491 1.50903 2.40532 1.38048 1.18526 1.77835 1.80306 1.15271 1.74003 1.63149 1.77832 2.23286 2.08442 1.8042 1.71839 1.69552 1.74901 1.64393 1.60326 1.57293 1.45342 1.48573 1.51225 1.49668 1.48029 1.41893 1.44441 1.68363 1.67194 1.61705 1.47202 1.32332 1.72552 1.56158 1.64781 2.05383 2.05092 1.77064 1.31511 1.4362 1.61417 1.7521 1.96263 1.78933 1.7319 1.48651 1.42033 1.66103 1.74763 1.81075 1.7488 1.39555 1.53552 1.59692 1.77341 1.42585 1.28541 1.49371 1.50255 1.52793 1.51759 1.51228 1.50008 1.49766 1.5031 1.48292 1.46127 1.47574 1.43481 1.57015 1.70557 1.6546 1.44936 1.8153 1.6733 1.54751 1.94913 1.85231 1.49656 1.18503 1.19178 1.60334 1.78269 1.57965 1.40146 1.54793 1.53044 1.65201 1.60795 1.45954 1.33905 1.50491 1.50311 1.49352 1.46793 1.48102 1.48177 1.52666 1.58363 1.67163 1.56004 1.69026 1.63195 1.79803 1.69017 1.64887 1.59219 1.5794 1.62219 1.74987 1.65798 1.45626 1.479 1.47754 1.54843 1.52325 1.63161 1.57544 1.44483 1.41311 1.45303 1.45551 1.50053 1.48018 1.49835 1.49229 1.50146 1.48671 1.52566 1.56131 1.57466 1.39471 1.64426 1.69165 1.59018 1.56633 1.56099 1.56706 1.49697 1.59306 1.4639 1.48924 1.54716 1.49122 1.70781 1.52227 1.40801 1.47305 1.42996 1.45792 1.47683 1.47187 1.48499 1.49053 1.48029 1.49097 1.48853 1.49553 1.50625 1.521 1.52805 1.52256 1.56979 1.44354 1.49068 1.62213 1.56742 1.19178 1.51282 1.52031 1.48813 1.52365 1.49755 1.48992 1.5088 1.48848 1.54437 1.55355 1.19229 1.39087 1.42594 1.50172 1.47415 1.49881 1.47521 1.47109 1.4872 1.48007 1.48496 1.47989 1.48565 1.48743 1.48334 1.50154 1.51634 1.49225 1.44521 1.48027 1.46615 1.54565 1.51796 1.48834 1.19178 1.46792 1.44687 1.47528 1.46589 1.45054 1.47134 1.48077 1.47888 1.50372 1.47423 1.38891 1.42016 1.4338 1.44939 1.466 1.46418 1.48257 1.47228 1.47973 1.47702 1.47443 1.46471 1.46601 1.47225 1.48846 1.49036 1.48249 1.47771 1.49795 1.47412 1.45211 1.46096 1.43012 1.46405 1.46758 1.45288 1.51608 1.48052 1.47393 1.43393 1.43141 1.45217 1.43435 1.43259 1.41601 1.4454 1.42351 1.44835 1.44627 1.439 1.4665 1.46446 1.44151 1.43759 1.44158 1.45549 1.41399 1.46362 1.42951 1.47242 1.46582 1.44907 1.43855 1.45547 1.4412 1.46159 1.45368 1.4751 1.47118 1.45651 1.44226 1.45918 1.46601 1.43049 1.41346 1.39968 1.48309 1.45309 1.45654 1.46249 1.45743 1.19178 1.42305 1.39962 1.42037 1.41365 1.42455 1.44883 1.44207 1.45736 1.43789 1.45476 1.45157 1.44036 1.43836 1.43766 1.39239 1.4532 1.36318 1.41708 1.40249 1.44706 1.43999 1.42837 1.41697 1.45378 1.45887 1.45907 1.43446 1.42869 1.46418 1.43993 1.35849 1.4646 1.36839 1.4542 1.45927 1.44906 1.41127 1.40739 1.39293 1.38973 1.40932 1.42195 1.40586 1.39065 1.37526 1.42184 1.44672 1.44254 1.43202 1.45245 1.40579 1.38967 1.38251 1.39142 1.38044 1.3911 1.36868 1.40968 1.42309 1.43864 1.45884 1.45187 1.4191 1.43589 1.45318 1.32061 1.45485 1.33866 1.39961 1.37836 1.46852 1.41942 1.41773 1.42062 1.42756 1.40532 1.3996 1.3856 1.36204 1.38276 1.38469 1.41257 1.41466 1.40199 1.41432 1.36477 1.43987 1.42332 1.42226 1.39482 1.40313 1.41079 1.39432 1.3851 1.37507 1.3728 1.36972 1.3887 1.39943 1.42909 1.42734 1.46186 1.41345 1.41955 1.42595 1.38355 1.41748 1.37688 1.31378 1.45194 1.38189 1.42535 1.40777 1.39373 1.19178 1.19178 1.19178 1.3863 1.38143 1.37453 1.38661 1.41386 1.40086 1.37287 1.38297 1.40385 1.38205 1.39183 1.39099 1.37833 1.38266 1.37957 1.36994 1.37116 1.36254 1.36763 1.36907 1.37193 1.37443 1.42819 1.44314 1.38837 1.41213 1.3678 1.36431 1.38635 1.35552 1.4356 1.4323 1.42321 1.41252 1.39937 1.37741 1.37218 1.36803 1.38065 1.38052 1.37551 1.3757 1.37428 1.37528 1.3519 1.37303 1.36596 1.37008 1.38065 1.3947 1.36558 1.38257 1.37403 1.37129 1.36926 1.37114 1.37693 1.3697 1.36561 1.36754 1.36082 1.36511 1.3643 1.36107 1.37598 1.38487 1.33422 1.36816 1.40199 1.40271 1.35895 1.41014 1.41344 1.39553 1.45379 1.40497 1.38086 1.4147 1.37837 1.36225 1.35973 1.37572 1.37295 1.3634 1.36818 1.35759 1.3608 1.35924 1.36708 1.36596 1.36123 1.36502 1.34037 1.34159 1.35918 1.37061 1.35603 1.36831 1.36624 1.3609 1.3666 1.36092 1.36217 1.36471 1.35608 1.36377 1.34037 1.3356 1.37755 1.35749 1.39018 1.38455 1.38477 1.42583 1.37403 1.38974 1.3883 1.45464 1.39416 1.43432 1.36663 1.37562 1.35684 1.36437 1.34758 1.35299 1.3558 1.368 1.35891 1.35494 1.3482 1.35241 1.35607 1.35982 1.34983 1.3442 1.34856 1.33843 1.35031 1.35043 1.35478 1.36019 1.35756 1.35926 1.36093 1.36791 1.36326 1.35421 1.34243 1.35772 1.35126 1.37779 1.38085 1.37999 1.3391 1.36568 1.33461 1.38325 1.37968 1.37415 1.45549 1.362 1.4261 1.32451 1.35399 1.35567 1.32844 1.35938 1.35994 1.19178 1.3505 1.34513 1.3437 1.34501 1.34727 1.34788 1.33801 1.33731 1.33749 1.34203 1.3457 1.34265 1.34402 1.34606 1.35434 1.34729 1.35102 1.35458 1.35069 1.35705 1.36132 1.35855 1.36028 1.3593 1.35521 1.35214 1.37705 1.36106 1.3752 1.36993 1.39102 1.37503 1.30356 1.33481 1.26865 1.3642 1.34089 1.32377 1.36437 1.33578 1.34998 1.35104 1.35596 1.35594 1.19178 1.34227 1.3403 1.3378 1.34092 1.33943 1.32956 1.32811 1.3257 1.33104 1.32347 1.34082 1.33653 1.33945 1.34223 1.3428 1.3386 1.3454 1.35155 1.35372 1.35789 1.3562 1.35562 1.35817 1.35694 1.35744 1.35032 1.34528 1.36606 1.37846 1.35815 1.40258 1.35853 1.37827 1.27665 1.3189 1.32002 1.33045 1.31907 1.39266 1.37177 1.34966 1.34345 1.33009 1.32207 1.33575 1.32307 1.32298 1.32713 1.32838 1.31564 1.32193 1.31757 1.32468 1.32104 1.33831 1.33635 1.3332 1.33646 1.33627 1.33679 1.34475 1.34183 1.35074 1.35824 1.34999 1.3555 1.34799 1.35434 1.35475 1.3318 1.35973 1.35953 1.36241 1.33966 1.34046 1.32807 1.33255 1.32252 1.2944 1.28448 1.31783 1.31845 1.30327 1.28328 1.32316 1.29192 1.31068 1.39227 1.37149 1.36279 1.34376 1.19178 1.31194 1.29881 1.30341 1.30975 1.28722 1.31931 1.31931 1.31481 1.30295 1.3102 1.31546 1.32177 1.33114 1.3102 1.33432 1.34196 1.3395 1.33693 1.35684 1.35768 1.32831 1.34136 1.35236 1.34766 1.3512 1.34898 1.32393 1.3427 1.33217 1.35369 1.3165 1.30967 1.30808 1.29672 1.30873 1.33131 1.3067 1.29875 1.26982 1.33732 1.27776 1.32805 1.33945 1.33429 1.34266 1.294 1.28592 1.27249 1.29309 1.30347 1.32103 1.29883 1.30368 1.2974 1.32805 1.30021 1.30155 1.3332 1.31781 1.34698 1.33531 1.3345 1.35044 1.33627 1.32944 1.31571 1.35574 1.27571 1.32981 1.34608 1.33913 1.29675 1.37268 1.35405 1.32483 1.34191 1.31755 1.29954 1.34678 1.31162 1.31429 1.30142 1.30801 1.30163 1.30537 1.29039 1.30102 1.31012 1.29596 1.31293 1.35097 1.33998 1.33375 1.28207 1.26252 1.24609 1.31195 1.28272 1.286 1.30233 1.29447 1.30085 1.28681 1.3461 1.31422 1.34141 1.35499 1.29958 1.33074 1.29975 1.312 1.29646 1.3952 1.36085 1.34846 1.28707 1.34303 1.37088 1.31831 1.32475 1.31615 1.31234 1.27383 1.29364 1.28959 1.30341 1.29819 1.30395 1.30503 1.30438 1.29862 1.29048 1.30145 1.28755 1.30498 1.31638 1.30972 1.32365 1.31753 1.32908 1.32514 1.25862 1.2567 1.16825 1.35636 1.2836 1.27417 1.28686 1.22404 1.31309 1.33279 1.36397 1.28608 1.33978 1.29801 1.35837 1.2896 1.29584 1.48202 1.3161 1.38106 1.3446 1.34041 1.29404 1.26921 1.28437 1.29165 1.29203 1.29803 1.29641 1.30087 1.30471 1.30014 1.30299 1.28225 1.29071 1.29691 1.28152 1.28548 1.31195 1.321 1.31932 1.32187 1.22778 1.20329 1.25091 1.2812 1.38417 1.25619 1.26994 1.26661 1.27455 1.19178 1.35579 1.19752 1.32708 1.25501 1.2833 1.28144 1.28792 1.31878 1.28911 1.31983 1.29304 1.34544 1.40562 1.32094 1.39442 1.28166 1.35703 1.23258 1.27447 1.28886 1.29673 1.28615 1.27351 1.2909 1.28627 1.26743 1.30778 1.30756 1.31361 1.28041 1.27903 1.26459 1.23884 1.26302 1.32662 1.32712 1.28299 1.32504 1.34899 1.33613 1.34555 1.19178 1.20944 1.20029 1.25676 1.23191 1.2373 1.29283 1.2822 1.30436 1.45592 1.26972 1.09642 1.20752 1.22903 1.26217 1.2843 1.29857 1.26475 1.25951 1.34556 1.33056 1.34716 1.35643 1.33331 1.26349 1.44159 1.35877 1.27956 1.31441 1.25403 1.26331 1.2791 1.23465 1.30124 1.35085 1.23087 1.35848 1.22719 1.10047 1.27119 1.2842 1.325 1.33422 1.37815 1.49418 0.869531 1.12326 1.23664 1.2016 1.2967 1.34203 1.30626 1.39049 1.42404 1.41464 1.1578 1.26673 1.21496 1.28926 1.20974 1.25982 1.26906 1.24566 1.38866 1.319 1.36347 1.33886 1.36134 1.33304 1.31313 1.28154 1.25416 1.2319 1.18366 1.23642 1.25848 1.30375 1.28732 1.10972 0.834943 1.71682 1.11504 1.75629 1.38195 1.21816 1.28937 1.2036 1.16878 1.27759 1.56046 1.43061 1.34505 0.597638 1.3408 1.35817 1.42914 1.38045 1.4342 1.28866 1.2191 1.36666 1.28825 1.17025 1.24976 1.25388 1.25761 1.28252 1.37604 1.61109 1.21099 1.42666 1.34508 1.49544 1.33066 1.30565 1.21053 1.26514 1.2305 1.19882 1.20943 1.22421 1.21182 1.17394 1.1294 1.14556 1.16566 1.0582 1.11915 1.08351 1.65119 1.43557 1.26014 1.36296 1.24205 1.09106 0.99567 1.33834 1.2737 1.47267 1.93019 1.62672 1.11254 2.1721 1.32406 5.10472 3.33673 1.83893 1.70837 1.5181 1.33647 1.62566 1.21025 1.48376 1.42902 1.40631 1.32104 1.39498 1.15218 1.33531 1.33482 1.19955 1.22984 1.41202 1.08132 1.20249 1.40976 1.1343 1.22269 1.27519 1.2583 1.16364 1.316 1.25486 1.29188 1.21439 1.14707 1.12498 1.14556 1.14363 1.15579 1.2251 1.07998 1.39106 1.89704 1.34199 1.28664 1.22614 1.1788 1.11949 1.29707 1.35456 1.29271 2.1559 11.0403 2.08032 1.42111 0.884963 0.339123 0.979155 0.527041 0.360004 0.555502 0.749267 1.00483 1.09996 1.52191 1.2607 1.38118 1.53739 1.55077 1.32273 1.35156 1.38748 1.224 1.36132 1.25792 1.25065 1.34972 1.29828 1.27443 1.21599 1.01605 1.13957 1.13085 1.46768 1.10728 1.60207 1.05509 0.92342 1.14407 1.17654 1.14594 1.28283 1.18744 1.22879 1.21012 1.19774 1.2206 1.17278 1.08806 1.16478 1.19288 1.19043 1.09702 1.25174 1.15815 1.33834 1.04251 1.26067 1.39797 1.20446 1.10944 1.02031 1.07496 1.0205 1.34349 1.38221 1.32919 1.98109 1.31737 1.10578 0.973499 1.03085 0.960666 0.926965 0.812216 0.866647 0.842653 0.821884 0.828295 0.945793 0.801536 0.689352 0.860901 0.954166 0.504818 0.888886 0.126149 1.40267 0.872947 1.02772 0.673312 1.1455 1.36297 1.20062 1.20136 1.14755 1.61996 1.25749 1.4149 1.12261 1.0178 1.4118 1.20996 1.19315 1.17047 1.17435 1.20197 0.970723 0.994608 1.12283 1.15391 1.15451 1.18774 1.25426 1.16803 1.13552 1.21156 1.17212 1.01551 0.930424 1.22303 1.20646 1.17459 1.35626 1.24742 1.20188 1.31184 1.06049 1.05996 1.03752 0.932831 0.982947 1.24373 1.10676 0.855444 1.07206 0.945084 1.18478 1.13005 1.08047 1.02022 0.996486 0.919673 0.991633 0.883128 0.856132 0.801089 0.784628 0.723468 0.72711 0.78502 0.773611 0.780821 0.792039 0.830301 0.805461 0.873582 0.820518 0.797144 0.755354 0.620098 0.598663 0.730018 0.702447 0.57476 0.88991 1.10075 0.884932 0.840732 0.988035 1.18097 1.30259 1.30035 0.994327 0.757725 1.7401 1.53626 0.558361 0.982744 1.103 0.947207 1.10194 1.12422 1.11655 1.03493 0.976024 0.938106 1.06162 1.16475 1.17247 1.14189 1.07665 1.07108 1.15701 1.04675 1.07759 0.946254 0.854722 1.19334 0.859848 1.30763 1.24154 1.07207 0.967457 1.13566 1.14931 1.07338 1.10102 1.20156 1.13591 0.88905 0.929318 0.884483 0.864986 0.649672 0.825345 0.859423 0.833353 0.763037 0.976018 0.744004 0.847582 0.961503 0.889657 0.886976 0.888539 0.918764 0.89702 0.740482 0.8969 0.727818 0.729988 0.78548 0.764114 0.721875 0.715104 0.703559 0.727556 0.753515 0.742903 0.724639 0.717865 0.730695 0.713129 0.716326 0.751654 0.792659 0.655637 0.657467 0.839759 0.737158 0.831771 0.956834 0.850318 0.856597 0.867073 0.907769 1.06842 1.18997 1.46555 1.20076 1.2981 1.3298 1.01884 0.503452 1.30312 0.533345 0.6941 0.65394 0.79726 0.653732 0.857424 0.970809 0.958169 1.13225 0.99125 1.18508 0.985022 0.999297 1.09903 1.18343 1.17743 1.14974 1.07746 1.07256 0.945552 0.98916 0.967961 1.03577 0.786136 0.982215 0.881517 1.24886 1.0628 1.11719 0.843646 1.05105 1.04189 1.1004 1.15459 1.11735 0.841437 1.14958 1.16895 0.88613 0.877168 0.870012 1.06756 0.926673 0.707646 0.651235 0.858553 0.828262 0.908668 0.881612 1.10823 0.792146 0.819906 0.866488 0.709455 0.819948 0.787126 0.780435 0.742424 0.677833 0.663901 0.756434 0.668388 0.665477 0.656073 0.675414 0.692444 0.678254 0.70015 0.664345 0.713455 0.711832 0.681309 0.738997 0.706118 0.780482 0.628902 0.538585 0.699963 0.664968 0.73884 0.738365 0.783953 0.764994 0.672971 0.786696 1.18304 0.887589 0.949876 1.08332 0.74701 0.592732 0.808971 0.540256 0.639199 0.634056 0.632748 0.670725 0.706428 0.791245 0.778676 0.802362 0.817337 0.843048 0.784212 1.00377 1.00503 1.08946 0.981267 0.886112 1.20065 1.07232 0.963613 0.916037 1.28083 1.00374 1.19481 1.02837 0.969493 0.971744 1.04556 1.05845 0.793541 0.863373 0.90891 0.811073 0.752405 1.02167 0.981268 1.08092 0.990021 1.1608 1.02759 0.870627 0.95436 0.887088 0.915903 1.04208 0.880716 1.00704 0.826837 0.671805 0.70567 0.594009 1.0705 0.802867 0.826667 1.00631 0.7869 0.878003 0.769248 0.72842 0.74429 0.732543 0.727615 0.736958 0.639629 0.711021 0.654642 0.643125 0.655704 0.643311 0.652591 0.653194 0.649712 0.642944 0.64599 0.660247 0.667604 0.667116 0.669548 0.664126 0.650348 0.693113 0.64886 0.674626 0.635632 0.636969 0.649875 0.619156 0.649223 0.673915 0.786026 0.753773 0.644441 0.68055 0.643018 0.727535 0.75709 0.705638 0.739382 0.775811 0.773771 0.709271 0.675442 0.669268 0.703522 0.756014 0.757534 0.792507 0.812475 0.829189 0.857205 0.871488 0.89367 0.889519 0.919689 0.939139 0.939651 0.966821 1.04143 0.852541 0.934737 1.26116 1.09382 1.02022 0.927451 0.874996 1.0465 0.930553 0.784369 0.763936 0.975504 1.04921 1.00134 1.04924 0.907147 0.79484 0.776291 0.8642 0.99611 1.08727 0.84817 0.843236 0.926483 0.758389 1.14708 0.696233 0.658837 0.645131 0.954441 0.911402 0.937738 0.854106 0.925098 0.847349 0.840103 0.822157 0.637218 0.722148 0.809723 0.786943 0.749413 0.738752 0.725572 0.710526 0.7116 0.709274 0.695833 0.673665 0.66232 0.686868 0.659471 0.655302 0.678288 0.643323 0.64659 0.639783 0.606486 0.631092 0.616584 0.64049 0.645109 0.662213 0.654672 0.633773 0.629598 0.625016 0.635071 0.631148 0.649355 0.640065 0.641898 0.641144 0.665608 0.682783 0.668693 0.663999 0.669051 0.695888 0.712594 0.727364 0.725089 0.715767 0.713556 0.730106 0.727937 0.734758 0.743298 0.741633 0.792632 0.767431 0.779682 0.816177 0.806077 0.866118 0.91311 0.923708 0.872047 0.796562 0.741225 0.824752 0.723388 0.828724 1.29993 1.15707 0.99571 0.930458 0.678479 0.804467 0.631579 0.828142 0.823695 0.95356 0.796431 0.867238 0.881706 0.899854 0.852203 0.774785 0.82874 0.918573 0.883854 0.788174 1.008 0.899038 0.772879 0.720279 0.703456 0.717182 0.641929 0.70141 0.713506 0.655489 0.875066 0.675657 0.824691 0.812171 0.837902 0.892282 0.818216 0.769549 0.806135 0.71436 0.701715 0.818044 0.745963 0.752676 0.723513 0.732757 0.714106 0.729363 0.743935 0.702269 0.69443 0.674586 0.709109 0.705601 0.68199 0.680438 0.661616 0.617093 0.676397 0.642323 0.650147 0.602662 0.584234 0.638415 0.657174 0.661313 0.725085 0.742627 0.578035 0.584566 0.60178 0.581849 0.568772 0.610969 0.544733 0.619027 0.586635 0.599117 0.612811 0.625278 0.619577 0.607986 0.60908 0.610408 0.609499 0.578067 0.648146 0.665969 0.663464 0.654829 0.659443 0.654784 0.662485 0.666805 0.674529 0.683907 0.688693 0.686618 0.687099 0.702294 0.718509 0.706694 0.698708 0.708859 0.712554 0.730908 0.77418 0.768855 0.794974 0.76204 0.8014 0.799655 0.75167 0.82942 0.909592 0.897772 0.732661 0.894831 0.798671 0.848227 0.771184 0.857675 0.84525 0.745912 0.929707 0.760558 0.955187 0.984456 1.13669 0.821247 0.726879 0.790515 0.716825 0.743352 0.737114 0.733229 0.869823 0.912039 0.870265 0.837632 0.821234 0.811618 0.815835 0.894804 0.85908 0.838555 0.799554 0.707657 0.719261 0.692722 0.728304 0.657474 0.6403 0.659045 0.671572 0.717607 0.801133 0.719698 0.804429 0.730176 0.78331 0.815392 0.587178 0.687619 0.776913 0.638851 0.756767 0.513244 0.706258 0.772652 0.717733 0.720017 0.739679 0.740211 0.725547 0.690817 0.5839 0.761767 0.756722 0.594575 0.616188 0.395677 0.780539 0.661967 0.407853 0.552783 0.521682 0.561455 0.574716 0.564479 0.560223 0.609432 0.582707 0.530445 0.51069 0.582281 0.555509 0.540586 0.593895 0.548351 0.599968 0.570354 0.548681 0.604036 0.643475 0.645693 0.67911 0.627449 0.63661 0.655207 0.610624 0.693857 0.688727 0.707834 0.716056 0.684862 0.692346 0.674479 0.705551 0.689414 0.730045 0.732016 0.73188 0.802445 0.784245 0.763479 0.736778 0.747834 0.759449 0.74326 0.709596 0.632169 0.75018 0.735672 0.834241 0.856978 0.841479 0.842334 0.843862 0.775217 0.741646 0.722378 0.682858 0.780161 0.559767 0.831057 0.814803 0.788441 0.865343 0.767069 0.729826 0.637197 0.725285 0.649598 0.92952 0.543117 0.83541 0.800801 0.708448 1.06058 0.793697 0.803769 0.9266 0.799133 0.734494 0.738378 0.718398 0.679008 0.681709 0.713572 0.665078 0.706996 0.736226 0.702126 0.698399 0.738371 0.714895 0.697959 0.623669 0.605209 0.663172 0.652567 0.668126 0.625656 0.604981 0.704877 0.635743 0.650948 0.687349 0.668555 0.745055 0.692439 0.706335 0.721162 0.793794 0.612645 0.650002 0.460191 0.497813 0.454922 0.404412 0.403618 0.475932 0.482216 0.519467 0.545215 0.347806 0.513583 0.465689 0.456488 0.521058 0.523354 0.52079 0.524965 0.544836 0.552124 0.567261 0.708133 0.481887 0.427328 0.550621 0.50862 0.58605 0.583679 0.608106 0.607226 0.653213 0.632433 0.587773 0.611073 0.612944 0.608825 0.61151 0.630302 0.622678 0.605845 0.608579 0.633959 0.588182 0.668397 0.688811 0.689084 0.690631 0.681632 0.681151 0.576873 0.635803 0.778189 0.731888 0.737141 0.717621 0.764179 0.692926 0.714955 0.729317 0.695179 0.717178 0.704557 0.604844 0.648678 0.758848 0.699914 0.726181 0.602929 0.804771 0.8636 0.806335 0.795912 0.772058 0.818754 0.821825 0.821804 0.752026 0.747672 0.682957 0.644913 0.737333 0.81485 0.64776 0.736459 0.781766 0.699219 0.738254 0.639494 0.727837 0.612887 0.709297 0.646759 0.663267 0.804043 0.842349 0.85379 0.780139 0.921662 0.892107 0.771223 0.721602 0.794585 0.710268 0.655705 0.731811 0.727334 0.807339 0.720673 0.747776 0.645566 0.59495 0.654801 0.648237 0.631843 0.697274 0.658887 0.558016 0.643978 0.667086 0.638989 0.591785 0.781299 0.628916 0.830593 0.795751 0.535658 0.742587 0.627054 0.603798 0.641252 0.594335 0.71278 0.590705 0.530907 0.499894 0.544482 0.525357 0.530013 0.521928 0.527833 0.527024 0.523134 0.52158 0.522575 0.52711 0.499332 0.53432 0.497003 0.535455 0.579352 0.604891 0.696276 0.69836 0.572406 0.461855 0.562825 0.59177 0.656516 0.628734 0.605213 0.636752 0.607717 0.614325 0.622069 0.630517 0.629473 0.624198 0.630104 0.630641 0.638556 0.650464 0.666254 0.663007 0.699609 0.689361 0.692463 0.688879 0.689704 0.718551 0.697574 0.69179 0.730827 0.665389 0.634142 0.730297 0.775757 0.604049 0.53098 0.590677 0.691258 0.705664 0.963758 0.581226 1.10301 0.735876 0.695018 0.803284 0.661829 0.67358 0.648578 0.641689 0.691601 0.659589 0.668869 0.74223 0.676181 0.740934 0.794428 0.774488 0.65297 0.746759 0.665714 0.597164 0.625002 0.629232 0.625394 0.8141 0.69611 0.819361 0.904301 0.790267 0.798979 0.710483 0.866629 0.852077 0.728031 0.76494 0.835564 0.768314 0.782841 0.867148 0.685125 0.64343 0.59186 0.625391 0.619004 0.607799 0.589721 0.621948 0.578379 0.578957 0.603913 0.517453 0.637907 0.80131 0.541984 0.863647 0.736151 0.600414 0.870365 0.29979 0.98847 0.402144 0.543324 0.348427 0.607473 0.492548 0.512843 0.552624 0.458886 0.507206 0.5075 0.522086 0.523341 0.522201 0.525299 0.526357 0.523627 0.52238 0.542424 0.547149 0.538743 0.544603 0.526261 0.511953 0.503795 0.532374 0.498136 0.532745 0.531398 0.469514 0.541155 0.555626 0.210571 0.463392 0.600871 1.16352 1.12908 0.849028 1.15699 0.883518 0.719585 0.644765 0.632975 0.611255 0.61951 0.636426 0.634671 0.643346 0.642559 0.646381 0.648685 0.657991 0.651608 0.662591 0.689201 0.645489 0.649261 0.690601 0.687103 0.675703 0.680546 0.686279 0.692736 0.655969 0.668754 0.677657 0.655094 0.644008 0.754636 0.677321 0.67712 0.673544 0.768913 0.746002 0.819746 0.407373 0.632015 0.566273 0.611538 0.747529 0.875149 0.68261 0.63203 0.654713 0.724421 0.717357 0.68304 0.671988 0.673183 0.87829 0.794795 0.747173 0.745521 0.684114 0.696465 0.635823 0.621185 0.587754 0.575144 0.819155 0.720865 0.719357 0.692282 0.673561 0.70529 0.691494 0.899603 0.794044 0.848321 0.613619 0.510447 0.732155 0.715045 0.739668 0.561043 0.671699 0.580634 0.627974 0.592926 0.585092 0.583421 0.607633 0.619459 0.601621 0.599753 0.682791 0.65185 0.650505 0.575194 0.565341 0.523538 0.554852 0.468135 0.503076 0.556975 0.51801 0.5098 0.521333 0.511598 0.534369 0.526508 0.515312 0.522295 0.523324 0.526398 0.528219 0.522453 0.523369 0.522952 0.525609 0.525989 0.522759 0.53561 0.538235 0.528911 0.551518 0.527272 0.540482 0.536856 0.528207 0.550967 0.538972 0.571441 0.533628 0.559824 0.641806 0.546398 0.813173 0.782691 0.771618 0.153467 0.239425 0.25327 0.30166 0.338669 0.319149 0.431413 0.54451 0.48835 0.50964 0.517289 0.612077 0.563641 0.625666 0.634159 0.629082 0.621532 0.655641 0.64721 0.651458 0.659254 0.640031 0.656864 0.710007 0.622512 0.707203 0.64748 0.640176 0.640636 0.530307 0.548634 0.574006 0.5608 0.772676 0.680761 0.68379 0.682369 0.794852 0.584725 0.499492 0.551008 0.485126 0.517743 0.509185 0.661964 0.651721 0.649044 0.709789 0.610942 0.571123 0.653555 0.682499 0.733912 0.732609 0.719632 0.706033 0.699133 0.706514 0.637215 0.626768 0.681538 0.576628 0.65799 0.659408 0.58345 0.671611 0.584118 0.707798 0.581246 0.635249 0.655656 0.557235 0.678109 0.641307 0.633521 0.625198 0.730939 0.558558 0.622842 0.594581 0.526347 0.603022 0.704675 0.615578 0.681201 0.640792 0.601929 0.600791 0.607202 0.638481 0.646342 0.623546 0.688796 0.654303 0.652428 0.68664 0.590833 0.620193 0.51481 0.60284 0.600278 0.551085 0.573808 0.577098 0.547686 0.540295 0.559506 0.548125 0.536552 0.517462 0.521554 0.534723 0.514944 0.534421 0.521882 0.520301 0.512424 0.517018 0.516702 0.493545 0.490657 0.475903 0.513199 0.514136 0.550127 0.505049 0.526617 0.544921 0.534951 0.550188 0.520546 0.516638 0.498016 0.503133 0.546495 0.586936 0.563108 0.660358 0.753256 0.604208 0.413288 1.15616 0.406247 0.249783 0.456375 0.533001 0.451204 0.472024 0.557277 0.545412 0.53518 0.630485 0.620258 0.598905 0.600216 0.594268 0.643673 0.640856 0.671143 0.653188 0.599904 0.710254 0.740614 0.731169 0.696928 0.682954 0.639697 0.545688 0.598112 0.600278 0.669918 0.73954 0.735745 0.702405 0.533195 0.499857 0.518249 0.569562 0.650901 0.654803 0.624903 0.604063 0.583734 0.596402 0.681553 0.729244 0.692067 0.73965 0.783401 0.723501 0.678921 0.594418 0.539803 0.603986 0.677807 0.460343 0.544457 0.776002 0.669155 0.482065 0.562566 0.566085 0.576585 0.596567 0.583938 0.573027 0.607131 0.629783 0.645454 0.617039 0.620486 0.62158 0.567846 0.514034 0.554985 0.537846 0.533021 0.534291 0.532754 0.556752 0.568998 0.617391 0.554697 0.58821 0.62013 0.625411 0.629819 0.619135 0.619711 0.609015 0.59149 0.540213 0.608906 0.564576 0.570166 0.572207 0.565434 0.557465 0.57683 0.554273 0.508202 0.509174 0.487809 0.499827 0.503064 0.480058 0.495452 0.483007 0.477125 0.492441 0.476651 0.471457 0.448557 0.458353 0.454469 0.436881 0.433722 0.421187 0.400889 0.329863 0.459921 0.493233 0.515308 0.514446 0.552483 0.555733 0.556825 0.519241 0.534361 0.479005 0.494496 0.472369 0.481105 0.504987 0.446465 0.475328 0.483485 0.450073 0.508304 0.543344 0.45448 0.432593 0.469437 0.458721 0.511245 0.540832 0.517002 0.536899 0.568461 0.67964 0.605066 0.504796 0.588572 0.558381 0.586454 0.649968 0.675621 0.679858 0.52836 0.514732 0.582491 0.588598 0.25964 0.738348 0.608385 0.718368 0.767345 0.462789 0.553415 0.544814 0.526857 0.545468 0.541125 0.552 0.597262 0.563911 0.615999 0.584846 0.594304 0.576246 0.587743 0.598941 0.614165 0.676068 0.619649 0.654582 0.847605 0.704179 0.586797 0.658529 0.648761 0.669885 0.464702 1.06269 0.924578 0.540517 0.540223 0.53588 0.580088 0.567289 0.557242 0.566465 0.591741 0.590026 0.564648 0.546762 0.530334 0.515649 0.520609 0.532898 0.513865 0.533447 0.561883 0.642625 0.61637 0.607524 0.599696 0.584061 0.566527 0.580548 0.64788 0.579833 0.57401 0.615023 0.594172 0.585729 0.698452 0.57688 0.588319 0.571505 0.540779 0.597726 0.568569 0.506737 0.537218 0.480854 0.486221 0.475804 0.473356 0.458711 0.439797 0.431833 0.422819 0.411182 0.408684 0.403359 0.24831 0.232443 0.235374 0.319376 0.322716 0.390668 0.493438 0.483779 0.588217 0.525494 0.441736 0.300392 0.403978 0.535803 0.500002 0.495023 0.47647 0.468039 0.469014 0.468827 0.45357 0.458617 0.447664 0.43084 0.463022 0.510287 0.503885 0.456214 0.45313 0.440023 0.464129 0.477871 0.524245 0.526865 0.493228 0.579182 0.540379 0.505698 0.488312 0.522661 0.434971 0.52438 0.510128 0.503001 0.508153 0.525005 0.443465 0.526886 0.503904 0.530383 0.516527 0.519848 0.447878 0.523201 0.479822 0.520143 0.552386 0.570512 0.59342 0.570919 0.58382 0.586264 0.589752 0.597635 0.606121 0.602538 0.586038 0.615702 0.985165 0.804234 0.608229 0.145745 0.719839 0.762853 0.666697 0.609438 0.580401 0.459314 0.562092 0.657129 0.798705 0.658041 0.569738 0.617989 0.568677 0.570097 0.565239 0.564439 0.547584 0.558512 0.532032 0.531815 0.529335 0.516514 0.528847 0.519659 0.50369 0.512786 0.512205 0.536985 0.496674 0.566359 0.534245 0.582602 0.657549 0.757283 0.587726 0.637876 0.592195 0.496718 0.473843 0.669562 0.641255 0.475321 0.354277 0.7742 0.564082 0.558566 0.571522 0.535173 0.511466 0.504982 0.508469 0.488455 0.474441 0.490674 0.461974 0.480326 0.453722 0.417012 0.447167 0.428459 0.402002 0.411099 0.403757 0.402166 0.40002 0.397533 0.277003 0.298883 0.270276 0.257464 0.357925 0.369624 0.471639 0.43072 0.480634 0.504429 0.36605 0.283315 0.56153 0.586345 0.710868 0.577218 0.506771 0.465337 0.44933 0.455145 0.458477 0.456692 0.457626 0.474324 0.465589 0.481545 0.455305 0.466863 0.461923 0.453369 0.487039 0.471845 0.485272 0.465039 0.476944 0.476004 0.472156 0.464876 0.519392 0.50441 0.508015 0.495282 0.501971 0.498192 0.494443 0.496938 0.502934 0.513289 0.499183 0.500523 0.505905 0.495455 0.451225 0.509692 0.456319 0.491592 0.465168 0.509875 0.492012 0.543255 0.634803 0.59108 0.580924 0.564672 0.581462 0.571789 0.596278 0.611362 0.610767 0.623276 0.606349 0.686505 0.649625 0.461262 0.464419 0.366358 0.521048 0.601733 0.613852 0.544917 0.89732 0.441594 0.758786 0.424511 0.620128 0.508467 0.632581 0.616262 0.637976 0.601227 0.572319 0.57938 0.556612 0.526728 0.53039 0.515377 0.509093 0.511855 0.510102 0.510681 0.504563 0.4936 0.499912 0.507264 0.486162 0.477281 0.488637 0.455761 0.513759 0.383019 0.632346 0.481993 0.539925 0.494472 0.457504 0.509109 0.488542 0.328056 0.423014 0.378473 0.414554 0.404768 0.414058 0.421674 0.512488 0.491512 0.443335 0.505265 0.441804 0.500265 0.465582 0.469883 0.463023 0.471984 0.458522 0.484897 0.458201 0.422937 0.405259 0.392414 0.387074 0.381631 0.376835 0.297262 0.296438 0.314251 0.333249 0.303899 0.332559 0.392835 0.456923 0.453509 0.492456 0.508737 0.596041 0.482841 0.54807 0.421224 0.423752 0.765264 0.466318 0.456928 0.462943 0.464676 0.463551 0.468311 0.471468 0.467821 0.465183 0.486259 0.457623 0.459383 0.473597 0.482186 0.505445 0.498943 0.506497 0.503467 0.500876 0.502689 0.503209 0.499986 0.505526 0.494469 0.477389 0.501087 0.479802 0.485561 0.505709 0.509923 0.534072 0.526836 0.438746 0.555461 0.548509 0.569187 0.58923 0.608699 0.629022 0.630696 0.631231 0.621477 0.605358 0.513677 0.480046 0.48331 0.517803 0.677976 0.726339 0.463348 0.811433 0.53613 0.702958 0.603018 0.628612 0.626719 0.623359 0.585159 0.563619 0.561198 0.542666 0.521432 0.516549 0.503295 0.508743 0.500949 0.498709 0.495461 0.492323 0.484486 0.493565 0.510553 0.49266 0.502844 0.446972 0.472171 0.474676 0.443363 0.456012 0.567234 0.500763 0.535375 0.478455 0.434901 0.46334 0.447444 0.432474 0.421455 0.427984 0.438467 0.411454 0.442484 0.403385 0.452719 0.406702 0.423073 0.442975 0.388074 0.430361 0.364768 0.398367 0.381645 0.373331 0.378363 0.379772 0.377212 0.375851 0.372551 0.374424 0.370554 0.370502 0.271142 0.280931 0.293546 0.278577 0.291349 0.305502 0.308858 0.319261 0.330024 0.331514 0.368248 0.420065 0.45904 0.472016 0.495551 0.328441 0.275358 0.724477 0.408572 0.442313 0.448675 0.434534 0.447733 0.463063 0.458911 0.463265 0.466058 0.46806 0.462182 0.45838 0.46351 0.473362 0.472057 0.484779 0.49661 0.502709 0.507128 0.506882 0.503137 0.502181 0.504725 0.503549 0.50538 0.500057 0.498321 0.472559 0.488861 0.493843 0.495129 0.528413 0.529634 0.544348 0.528089 0.489716 0.527543 0.519813 0.535263 0.560058 0.607173 0.620287 0.629207 0.6329 0.599939 0.520746 0.459061 0.529344 0.493538 0.62935 0.668025 0.449356 0.24272 0.151066 0.198249 0.37581 0.564112 0.348224 0.577741 0.617215 0.590904 0.63137 0.610022 0.569081 0.537172 0.520795 0.51478 0.517674 0.512206 0.504427 0.509984 0.502489 0.501217 0.504423 0.502995 0.498975 0.501132 0.497631 0.498648 0.494532 0.495925 0.498419 0.495787 0.493116 0.487578 0.473602 0.468532 0.473308 0.457591 0.471547 0.474418 0.491041 0.499436 0.494485 0.475282 0.457081 0.465081 0.434273 0.436547 0.430622 0.434939 0.426219 0.419924 0.417727 0.413735 0.423435 0.434507 0.431801 0.423998 0.407526 0.395426 0.376467 0.373574 0.37156 0.37075 0.372384 0.370699 0.373935 0.372288 0.227488 0.210039 0.258606 0.27777 0.289459 0.295718 0.308701 0.324414 0.34587 0.328603 0.334031 0.357687 0.352125 0.393606 0.399221 0.415264 0.418804 0.391419 0.429894 0.348713 0.389862 0.284156 0.29002 0.269954 0.269214 0.357761 0.366567 0.405176 0.451299 0.463971 0.460695 0.438276 0.453709 0.461904 0.457909 0.463015 0.461434 0.463777 0.463353 0.466074 0.469666 0.474735 0.486194 0.49551 0.502345 0.506346 0.505941 0.505427 0.504453 0.506976 0.508341 0.512627 0.504968 0.506193 0.500653 0.509126 0.509841 0.525458 0.548518 0.51371 0.510844 0.524915 0.574767 0.531823 0.541211 0.65856 0.663357 0.652486 0.628351 0.602375 0.636297 0.596437 0.587888 0.655661 0.447945 0.615427 0.457268 0.596092 0.610702 0.484914 0.620585 0.521646 0.468264 0.428093 0.349198 0.435032 0.53786 0.518153 0.645845 0.604832 0.541083 0.567875 0.529527 0.53676 0.520846 0.519281 0.524963 0.517654 0.508028 0.515695 0.509813 0.505503 0.502306 0.50224 0.494897 0.499605 0.491994 0.495886 0.485828 0.481998 0.478292 0.479299 0.47837 0.47906 0.484759 0.496837 0.481396 0.472705 0.457434 0.476947 0.449818 0.443571 0.43248 0.435109 0.407888 0.410068 0.421139 0.415713 0.427948 0.42619 0.413992 0.422055 0.410575 0.389731 0.382679 0.382329 0.377315 0.376368 0.37311 0.372457 0.377136 0.378405 0.379265 0.394252 0.394212 0.415124 0.380131 0.359716 0.333279 0.209937 0.183814 0.25073 0.263867 0.280792 0.288184 0.296056 0.295821 0.312228 0.312235 0.345539 0.335676 0.320686 0.465177 0.402991 0.387311 0.37226 0.316152 0.37893 0.380538 0.415509 0.410423 0.440163 0.440821 0.455104 0.485498 0.439193 0.456016 0.449959 0.454003 0.456821 0.458645 0.456551 0.461222 0.463192 0.459482 0.492615 0.496137 0.489731 0.501952 0.50558 0.509421 0.507684 0.51155 0.514493 0.514515 0.511256 0.519255 0.512583 0.511457 0.520721 0.521971 0.539108 0.523443 0.544574 0.507096 0.526506 0.523448 0.549532 0.498358 0.453615 0.426058 0.540345 0.642227 0.662935 0.562932 0.542604 0.304796 0.38929 0.701328 0.522244 0.527027 0.529323 0.615248 0.556364 0.484699 0.411358 0.471578 0.598713 0.53321 0.637931 0.592209 0.548545 0.533005 0.535392 0.53002 0.525778 0.51953 0.508776 0.514622 0.507511 0.506895 0.501551 0.496149 0.50256 0.493703 0.48605 0.494051 0.481302 0.488189 0.482103 0.476073 0.476822 0.473652 0.47766 0.492733 0.503878 0.503542 0.450994 0.490607 0.487674 0.429878 0.402591 0.402103 0.425886 0.434519 0.427284 0.421581 0.406498 0.403096 0.395865 0.381945 0.377025 0.373667 0.367824 0.372842 0.387433 0.412977 0.419623 0.445693 0.404859 0.264065 0.397599 0.205158 0.146446 0.170981 0.168456 0.184951 0.215372 0.261757 0.291704 0.307972 0.296976 0.300272 0.325329 0.360869 0.407205 0.411067 0.416397 0.403203 0.406141 0.405195 0.409531 0.409717 0.411544 0.442812 0.465748 0.458067 0.44811 0.448535 0.452312 0.457619 0.463775 0.460745 0.474268 0.485588 0.493772 0.495481 0.50128 0.501058 0.506775 0.512597 0.514176 0.515154 0.522862 0.510199 0.524851 0.526029 0.523629 0.530071 0.531681 0.527344 0.525599 0.511576 0.523727 0.535435 0.54483 0.536624 0.354755 0.283927 0.469351 0.589154 0.467385 0.660262 0.724657 0.584359 0.410365 0.418769 0.509565 0.562533 0.565877 0.563697 0.454023 0.490018 0.481064 0.291971 0.438947 0.642404 0.583966 0.534643 0.534429 0.552036 0.54504 0.534617 0.534261 0.527748 0.524528 0.513805 0.511447 0.507146 0.511778 0.50782 0.503624 0.500862 0.492813 0.506252 0.473982 0.507463 0.461327 0.46418 0.499296 0.509986 0.509011 0.529692 0.505881 0.49661 0.512822 0.371243 0.320645 0.393469 0.368774 0.409788 0.389511 0.389725 0.376072 0.381685 0.373102 0.367788 0.357812 0.367588 0.369631 0.382016 0.392537 0.404635 0.428055 0.413458 0.442929 0.443461 0.493688 0.489809 0.593212 0.340284 0.442511 0.433377 0.357901 0.121841 0.064392 0.180885 0.186737 0.198904 0.161236 0.180461 0.20837 0.185412 0.253345 0.299289 0.327452 0.324295 0.308027 0.348337 0.379491 0.411414 0.429125 0.412106 0.422913 0.419937 0.431941 0.424191 0.44169 0.452772 0.456525 0.449174 0.449963 0.44693 0.454766 0.462321 0.463311 0.472309 0.469328 0.473903 0.482329 0.491002 0.500251 0.501615 0.504169 0.507168 0.507856 0.513588 0.515663 0.520004 0.517097 0.524128 0.521829 0.52054 0.510851 0.531322 0.537435 0.533337 0.541938 0.535593 0.522292 0.517484 0.515592 0.50289 0.519708 0.511702 0.518369 0.517954 0.396039 0.421702 0.463707 0.520311 0.683627 0.642019 0.702067 0.655699 0.382696 0.481258 0.569633 0.582092 0.514327 0.460855 0.473698 0.530259 0.442334 0.244045 0.492816 0.317021 0.626823 0.615955 0.572595 0.689402 0.645038 0.589732 0.552598 0.59556 0.559914 0.543489 0.541855 0.534094 0.531167 0.521122 0.52552 0.519061 0.516099 0.516768 0.511751 0.514336 0.510653 0.511326 0.519187 0.525068 0.541043 0.533192 0.388237 0.468252 0.52986 0.535832 0.527659 0.589941 0.509293 0.496488 0.558303 0.476137 0.312195 0.337356 0.365262 0.365091 0.358948 0.370512 0.367768 0.366594 0.364234 0.360462 0.367341 0.367191 0.354525 0.377208 0.385608 0.433032 0.462996 0.575413 0.797715 0.326704 0.41981 0.284803 0.377157 2.96614 0.0284575 0.181459 0.179698 0.182214 0.192086 0.312078 0.359267 0.282191 0.436175 0.440774 0.484804 0.431272 0.45745 0.446737 0.478588 0.425391 0.433048 0.442482 0.426034 0.425967 0.437257 0.439492 0.444914 0.444721 0.442227 0.446493 0.435072 0.461368 0.461539 0.471811 0.467721 0.46653 0.501029 0.507654 0.510281 0.510595 0.513275 0.520173 0.518379 0.524341 0.5278 0.51101 0.515105 0.522303 0.546443 0.557405 0.507103 0.507157 0.508907 0.515556 0.509067 0.505758 0.515572 0.533104 0.572544 0.618499 0.690508 0.480989 0.538726 0.415627 0.525679 0.683316 0.559947 0.403287 0.551876 0.512446 0.423733 0.343581 0.483264 0.233196 0.243439 0.509182 0.623177 0.596629 0.57978 0.581043 0.565083 0.55035 0.5487 0.541935 0.538445 0.530959 0.522084 0.525958 0.521941 0.517556 0.520815 0.519528 0.514158 0.517119 0.526712 0.536717 0.564815 0.499704 0.274011 0.388607 0.485803 0.437435 0.458573 0.477558 0.472038 0.371727 0.431037 0.372232 0.352417 0.358617 0.357073 0.367215 0.368677 0.346254 0.341563 0.323645 0.34679 0.303899 0.343325 0.414824 0.387262 0.293907 0.449646 0.67369 0.233691 0.389375 0.692432 1.61615 1.66377 0.0352217 0.188851 0.113241 0.15658 0.0333498 0.382693 0.300861 0.272964 0.310189 0.336289 0.412871 0.356949 0.399369 0.427262 0.464724 0.411018 0.431437 0.436515 0.439449 0.439122 0.439052 0.436722 0.440221 0.481441 0.468481 0.472156 0.468371 0.475528 0.485097 0.512164 0.5134 0.517691 0.515658 0.520224 0.523958 0.527807 0.53023 0.546511 0.53335 0.511164 0.617806 0.64028 0.493732 0.49861 0.505538 0.505264 0.504847 0.506317 0.505404 0.492967 0.512374 0.531194 0.548757 0.417088 0.488566 0.627923 0.519243 0.336651 0.238952 0.459442 0.348338 0.46836 0.731586 0.543647 0.557188 0.379924 0.427761 0.364209 0.422495 0.486164 0.548375 0.535916 0.476667 0.560411 0.521191 0.560415 0.54111 0.544848 0.540407 0.533677 0.525368 0.524068 0.520248 0.518145 0.519398 0.518868 0.515467 0.531654 0.516399 0.60351 0.426288 0.410332 0.460562 0.466905 0.452942 0.47205 0.466465 0.445304 0.409337 0.419447 0.371225 0.352248 0.366227 0.347156 0.350113 0.334347 0.316143 0.319142 0.303866 0.260241 0.302527 0.237927 0.293991 0.36872 0.551768 0.451831 0.739915 0.43068 0.243117 0.0617712 0.142771 0.718907 1.18636 0.88505 0.0481839 0.0595983 0.150012 0.153334 0.350362 0.223361 0.305043 0.268356 0.281562 0.310385 0.379411 0.396011 0.380513 0.380196 0.389668 0.387653 0.392358 0.422371 0.431905 0.432452 0.437019 0.436193 0.428583 0.444058 0.424316 0.552243 0.506495 0.513333 0.508408 0.517639 0.510319 0.515452 0.515825 0.51907 0.52107 0.530154 0.533028 0.539003 0.540325 0.524708 0.449893 0.834279 0.50103 0.506592 0.503859 0.503253 0.503566 0.503644 0.504073 0.523648 0.395901 0.338002 0.23502 0.429155 0.274909 0.352565 0.479231 0.487487 0.539234 0.535849 0.552018 0.540544 0.545918 0.538883 0.532871 0.529416 0.522253 0.516334 0.515251 0.514839 0.513567 0.509402 0.539796 0.601817 0.470891 0.571483 0.441556 0.45751 0.458346 0.47436 0.467317 0.453645 0.430948 0.41237 0.390894 0.357643 0.35513 0.321404 0.370946 0.319594 0.30992 0.287322 0.257815 0.278634 0.240649 0.246918 0.287173 0.331583 0.359072 0.37103 0.289086 0.283313 0.326058 0.148103 0.442304 0.644138 0.0412842 0.226704 0.0720573 0.112452 0.318747 0.339535 0.402513 0.31215 0.37628 0.416891 0.384571 0.383846 0.388847 0.388128 0.375735 0.385033 0.387499 0.38417 0.388749 0.427076 0.436799 0.443812 0.468299 0.459655 0.422936 0.494564 0.509759 0.518075 0.527166 0.518418 0.525835 0.535 0.53311 0.535235 0.534256 0.540879 0.54475 0.547237 0.551523 0.542063 0.52049 0.52334 0.502799 0.475194 0.554533 0.543256 0.521817 0.532329 0.548917 0.539787 0.550362 0.535103 0.53401 0.526637 0.516736 0.504959 0.498544 0.518332 0.557763 0.593867 0.523676 0.516572 0.556525 0.486453 0.434049 0.424228 0.47237 0.471683 0.447742 0.471689 0.43928 0.422095 0.402825 0.384131 0.375437 0.36474 0.388724 0.291696 0.270814 0.308556 0.213053 0.259012 0.318472 0.32481 0.32229 0.333311 0.322086 0.0431345 0.535866 0.505371 0.437463 0.337084 0.315083 0.430359 0.436605 0.339983 0.302357 0.270128 0.376162 0.358193 0.367893 0.375329 0.386184 0.393614 0.388518 0.384081 0.413202 0.42446 0.414872 0.439607 0.445787 0.446604 0.433739 0.412426 0.481545 0.540181 0.529234 0.514429 0.519474 0.515226 0.519739 0.528609 0.534363 0.53164 0.542758 0.545585 0.545328 0.548023 0.557975 0.540207 0.538123 0.527985 0.526239 0.503843 0.498501 0.483491 0.437312 0.52496 0.487009 0.520217 0.594407 0.541466 0.575741 0.504966 0.505045 0.498852 0.463897 0.42943 0.405675 0.389564 0.374965 0.356832 0.378276 0.320951 0.290208 0.300123 0.311647 0.304913 0.370954 0.362849 0.283879 0.367922 0.278797 0.432769 0.38964 0.237611 0.571555 0.335703 0.231352 0.149829 0.15281 0.33584 0.34059 0.336572 0.274667 0.364915 0.361399 0.369154 0.365379 0.374489 0.394767 0.395477 0.40515 0.410106 0.407175 0.43875 0.452443 0.45397 0.458944 0.478641 0.467974 0.572682 0.518414 0.527096 0.522324 0.528667 0.53794 0.559143 0.625113 0.583974 0.525387 0.60428 0.537638 0.501741 0.502323 0.457056 0.394476 0.381457 0.384259 0.384503 0.3701 0.346361 0.325309 0.320346 0.347175 0.383263 0.319489 0.355975 0.44024 0.321468 0.439622 0.564029 0.214448 0.154865 0.141604 0.15474 0.313945 0.301101 0.252218 0.392866 0.395021 0.393481 0.38856 0.408366 0.411184 0.453303 0.465266 0.52351 0.506061 0.511543 0.395753 0.394232 0.361801 0.426098 0.363044 0.336318 0.337355 0.390606 0.399676 0.439002 0.528512 0.584321 0.211495 0.317835 
SCALARS Stress float 1
LOOKUP_TABLE default
-34687000000.0 -27665300000.0 -100321000000.0 -38425000000.0 -89452600000.0 -52553700000.0 -92283400000.0 -75489200000.0 -49398300000.0 -61076700000.0 -130275000000.0 -53027300000.0 -188392000000.0 -244212000000.0 -95932400000.0 -207107000000.0 -65201200000.0 -127267000000.0 -94363600000.0 -118718000000.0 -73840700000.0 -177121000000.0 -126434000000.0 -44678200000.0 -110880000000.0 -19631200000.0 -156716000000.0 -189272000000.0 -122532000000.0 -229164000000.0 -180025000000.0 -257581000000.0 -401638000000.0 -301733000000.0 -398560000000.0 -81908900000.0 -86651700000.0 -70942700000.0 -22213300000.0 -177215000000.0 -337274000000.0 -451747000000.0 -81564500000.0 -39778700000.0 -62110100000.0 -145956000000.0 -85501800000.0 -53693200000.0 -35391000000.0 -119188000000.0 -292097000000.0 -485574000000.0 -38385900000.0 -358239000000.0 -365812000000.0 -589043000000.0 -109612000000.0 -404168000000.0 -299643000000.0 -283072000000.0 -487349000000.0 -235241000000.0 -39596800000.0 -215332000000.0 -221124000000.0 -397818000000.0 -400265000000.0 -355193000000.0 -237458000000.0 -172259000000.0 -372940000000.0 -203226000000.0 -137608000000.0 -99352800000.0 -60283400000.0 -233799000000.0 -461623000000.0 -779412000000.0 -102194000000.0 -579469000000.0 -586513000000.0 -118503000000.0 -575645000000.0 -366208000000.0 -642045000000.0 -861995000000.0 -302071000000.0 -353784000000.0 -390781000000.0 -568855000000.0 -188617000000.0 -325281000000.0 -284612000000.0 -599406000000.0 -514874000000.0 -27199100000.0 -110566000000.0 -348526000000.0 -153084000000.0 -165136000000.0 -271925000000.0 -90162800000.0 -31439900000.0 -124850000000.0 -358264000000.0 -719966000000.0 -936627000000.0 -483143000000.0 -1.22603e+12 -410575000000.0 -598158000000.0 -167096000000.0 -907517000000.0 -1.54826e+12 -339768000000.0 -535696000000.0 -897837000000.0 -311905000000.0 -568644000000.0 -880665000000.0 -675956000000.0 -784181000000.0 -910058000000.0 -531277000000.0 -369276000000.0 -633810000000.0 -549494000000.0 -497001000000.0 -330911000000.0 -526598000000.0 -57690000000.0 -276410000000.0 -36649000000.0 -95648100000.0 -545309000000.0 -643474000000.0 -331589000000.0 -347495000000.0 -1.9214e+12 -259490000000.0 -812827000000.0 -1.05024e+12 -1.30768e+12 -187520000000.0 -1.39813e+12 -1.37149e+12 -1.1736e+12 -548158000000.0 -428051000000.0 -699816000000.0 -41441700000.0 -826275000000.0 -589462000000.0 -411862000000.0 -297561000000.0 -283303000000.0 -223085000000.0 -137473000000.0 -198886000000.0 -189944000000.0 -47246100000.0 -38934400000.0 -130083000000.0 -270459000000.0 -129734000000.0 -483461000000.0 -487962000000.0 -882694000000.0 -2.06139e+12 -896466000000.0 -1.85154e+12 -774969000000.0 -41705000000.0 -936116000000.0 -1.44729e+12 -938719000000.0 -736138000000.0 -1.83968e+12 -1.08024e+12 -1.15853e+12 -1.35067e+12 -973655000000.0 -725287000000.0 -647929000000.0 -357033000000.0 -383508000000.0 -351046000000.0 -47098900000.0 -55336800000.0 -64944600000.0 -22161100000.0 -86807200000.0 -385924000000.0 -422623000000.0 -225838000000.0 -804231000000.0 -116385000000.0 -668384000000.0 -1.77508e+12 -1.52431e+12 -832816000000.0 -831943000000.0 -1.69349e+12 -1.76596e+12 -1.17964e+12 -916823000000.0 -3.2964e+12 -2.17776e+12 -1.43225e+12 -1.08821e+12 -1.18909e+12 -1.76021e+12 -521027000000.0 -505821000000.0 -672275000000.0 -468171000000.0 -347850000000.0 -40241700000.0 -134959000000.0 -22993900000.0 -39089400000.0 -232361000000.0 -238975000000.0 -821858000000.0 -394635000000.0 -330137000000.0 -888348000000.0 -1.7262e+12 -1.65046e+12 -598436000000.0 -1.81839e+12 -2.42395e+12 -1.49362e+12 -370891000000.0 -2.07851e+12 -962868000000.0 -3.74483e+12 -1.58664e+12 -1.9012e+12 -1.2534e+12 -791770000000.0 -2.18121e+12 -1.82044e+12 -1.19634e+12 -1.22697e+12 -571034000000.0 -424541000000.0 -38753000000.0 -54035000000.0 -157008000000.0 -151010000000.0 -41741200000.0 -532960000000.0 -476865000000.0 -1.29861e+12 -1.58116e+12 -1.37721e+12 -1.97124e+12 -2.35281e+12 -3.35694e+12 -1.28267e+12 -2.28342e+12 -2.24564e+12 -986051000000.0 -3.13003e+12 -3.84865e+12 -1.59812e+12 -852032000000.0 -2.32484e+12 -328142000000.0 -737020000000.0 -2.1928e+12 -80827000000.0 -1.30295e+12 -352075000000.0 -1.06429e+12 -1.02048e+12 -295621000000.0 -74953600000.0 -104161000000.0 -514258000000.0 -371773000000.0 -824271000000.0 -896418000000.0 -1.24358e+12 -507145000000.0 -1.35048e+12 -1.27621e+12 -934154000000.0 -2.72647e+12 -2.52187e+12 -2.9636e+12 -1.16525e+12 -1.84465e+12 -1.93589e+12 -1.13856e+12 -1.54937e+12 -2.4942e+12 -3.4166e+12 -1.0071e+12 -2.66426e+12 -753965000000.0 -685887000000.0 -2.3769e+12 -848434000000.0 -1.42548e+12 -856036000000.0 -560879000000.0 -1.09298e+12 -152677000000.0 -133652000000.0 -134623000000.0 -540029000000.0 -437560000000.0 -1.28273e+12 -897959000000.0 -1.31703e+12 -968731000000.0 -3.47279e+12 -3.44922e+12 -2.65462e+12 -1.38238e+12 -2.6621e+12 -2.40813e+12 -3.73467e+12 -3.89987e+12 -2.90853e+12 -2.05795e+12 -2.06813e+12 -1.31574e+12 -505897000000.0 -2.1739e+12 -595257000000.0 -1.75613e+12 -223946000000.0 -1.1087e+12 -1.32217e+12 -686801000000.0 -128245000000.0 -277981000000.0 -204202000000.0 -893839000000.0 -522032000000.0 -585958000000.0 -1.83031e+12 -1.89655e+12 -1.34427e+12 -2.04107e+12 -3.13553e+12 -2.64417e+12 -1.56789e+12 -2.30763e+12 -2.51389e+12 -2.08344e+12 -2.84256e+12 -2.10238e+12 -3.27794e+12 -2.15519e+12 -1.36978e+12 -2.36101e+12 -2.14517e+12 -1.83469e+12 -2.77732e+12 -2.9884e+12 -2.09584e+12 -1.13172e+12 -1.9753e+12 -1.00582e+12 -1.50276e+12 -1.46448e+12 -1.69255e+12 -1.31394e+12 -1.02264e+12 -422018000000.0 -269317000000.0 -131390000000.0 -266063000000.0 -1.22645e+12 -1.37898e+12 -2.69588e+12 -1.75634e+12 -3.10716e+12 -2.92444e+12 -2.32585e+12 -3.83915e+12 -3.27563e+12 -3.3261e+12 -1.62432e+12 -1.57183e+12 -3.30436e+12 -2.10954e+12 -1.77778e+12 -2.34835e+12 -2.69866e+12 -3.36157e+12 -4.56255e+12 -3.7252e+12 -2.62204e+12 -1.40256e+12 -2.12573e+12 -2.84121e+12 -3.06882e+12 -2.03795e+12 -1.97901e+12 -1.18228e+12 -1.47812e+12 -229703000000.0 -732232000000.0 -151939000000.0 -87901600000.0 -182304000000.0 -473519000000.0 -457632000000.0 -971099000000.0 -1.10293e+12 -445763000000.0 -1.42255e+12 -2.14022e+12 -3.64298e+12 -1.92395e+12 -1.62711e+12 -2.6219e+12 -2.94675e+12 -3.02742e+12 -1.62366e+12 -2.60492e+12 -2.61075e+12 -3.55111e+12 -3.52492e+12 -3.88652e+12 -3.18903e+12 -2.18464e+12 -2.3334e+12 -2.87472e+12 -3.68448e+12 -5.37556e+12 -2.60266e+12 -4.12371e+12 -2.56881e+12 -3.95581e+12 -1.72595e+12 -1.39945e+12 -1.76236e+12 -670471000000.0 -148143000000.0 -146162000000.0 -1.75916e+12 -809705000000.0 -1.46259e+12 -1.2486e+12 -2.86084e+12 -3.02427e+12 -2.20995e+12 -2.6476e+12 -1.25507e+12 -2.97025e+12 -3.50631e+12 -4.04656e+12 -1.80664e+12 -2.39452e+12 -3.72472e+12 -4.23578e+12 -2.18506e+12 -6.54679e+12 -3.94131e+12 -5.5233e+12 -3.15849e+12 -2.50487e+12 -3.51344e+12 -4.65027e+12 -1.78823e+12 -1.81531e+12 -2.1611e+12 -2.94286e+12 -3.07111e+12 -2.00996e+12 -1.25869e+12 -1.12867e+12 -220052000000.0 -52821300000.0 -285766000000.0 -1.47712e+12 -2.60698e+12 -1.27282e+12 -2.06756e+12 -3.25019e+12 -2.10612e+12 -3.86196e+12 -5.23347e+12 -4.10397e+12 -3.43774e+12 -3.38739e+12 -4.40709e+12 -3.84821e+12 -5.97542e+12 -4.95172e+12 -2.84588e+12 -4.88877e+12 -4.3645e+12 -1.72737e+12 -3.62165e+12 -3.09135e+12 -3.28116e+12 -2.30944e+12 -718944000000.0 -3.88854e+12 -4.40065e+12 -5.39303e+12 -3.00474e+12 -1.7428e+12 -161191000000.0 -142250000000.0 -1.96621e+12 -4.07633e+12 -3.84047e+12 -5.60387e+12 -4.82373e+12 -5.10736e+12 -2.63783e+12 -4.99797e+12 -5.03031e+12 -4.65198e+12 -2.07359e+12 -4.15513e+12 -4.59077e+12 -4.69666e+12 -5.35568e+12 -6.09475e+12 -3.47612e+12 -3.92422e+12 -8.92225e+12 -4.45375e+12 -6.3739e+12 -3.78561e+12 -2.31705e+12 -2.4781e+12 -3.52785e+12 -3.96693e+12 -5.24219e+12 -4.59287e+12 -5.06524e+12 -4.86796e+12 -3.53128e+12 -4.9626e+12 -1.30515e+12 -2.89869e+12 -4.78368e+12 -5.15702e+12 -4.42127e+12 -4.93552e+12 -3.87098e+12 -753818000000.0 -12549700000.0 -4.57519e+12 -5.49878e+12 -7.5318e+12 -5.46042e+12 -3.74829e+12 -3.15103e+12 -8.93121e+12 -4.33551e+12 -3.92051e+12 -4.77101e+12 -4.76226e+12 -7.5447e+12 -8.10778e+12 -3.6854e+12 -3.00766e+12 -4.48889e+12 -5.51283e+12 -9.38526e+12 -3.30409e+12 -5.27411e+12 -4.8248e+12 -5.6493e+12 -4.04185e+12 -5.47473e+12 -2.66811e+12 -5.31483e+12 -3.61035e+12 -5.92604e+12 -4.29518e+12 -7.52243e+12 -2.34374e+12 -5.19077e+12 -4.54055e+12 -4.02385e+12 -7.18215e+12 -6.91201e+12 -5.81538e+12 -6.85014e+12 -3.77026e+12 -6.20219e+12 -4.70226e+12 -4.63795e+12 -3.57848e+12 -6.49854e+12 -1.02216e+13 -5.4809e+12 -6.85693e+12 -7.79292e+12 -7.40274e+12 -9.51807e+12 -5.09434e+12 -7.41637e+12 -6.12049e+12 -4.60464e+12 -2.68305e+12 -5.59318e+12 -6.6309e+12 -3.15776e+12 -4.26099e+12 -2.86635e+12 -6.48478e+12 -4.60766e+12 -8.88705e+12 -6.09534e+12 -4.64003e+12 -6.03185e+12 -6.03154e+12 -4.09258e+12 -5.14006e+12 -4.03169e+12 -6.15517e+12 -4.69027e+12 -6.76008e+12 -7.02262e+12 -6.18816e+12 -7.61118e+12 -7.65748e+12 -6.60197e+12 -5.35362e+12 -2.40981e+12 -7.62759e+12 -4.32122e+12 -9.79889e+12 -1.36405e+13 -5.32582e+12 -6.67574e+12 -12549700000.0 -2.07594e+12 -5.68748e+12 -4.32921e+12 -5.5163e+12 -4.48475e+12 -5.24429e+12 -5.8866e+12 -3.78661e+12 -7.00115e+12 -7.09971e+12 -2.21309e+12 -4.96908e+12 -4.27446e+12 -6.08743e+12 -6.00358e+12 -2.67901e+12 -4.32191e+12 -2.34858e+12 -6.07083e+12 -5.93877e+12 -5.76639e+12 -4.62058e+12 -4.24485e+12 -5.65739e+12 -7.69369e+12 -9.12956e+12 -6.13924e+12 -5.57618e+12 -1.00831e+13 -6.88241e+12 -7.4545e+12 -1.04361e+13 -4.03359e+12 -4.93658e+12 -12549700000.0 -4.32315e+12 -3.90083e+12 -6.8329e+12 -4.82692e+12 -3.16632e+12 -5.70768e+12 -4.29869e+12 -3.45737e+12 -3.80668e+12 -7.53877e+12 -5.78583e+12 -6.10106e+12 -4.9914e+12 -6.67536e+12 -5.79401e+12 -7.56468e+12 -3.73724e+12 -6.32295e+12 -6.28259e+12 -4.2852e+12 -6.96786e+12 -6.60257e+12 -8.36507e+12 -3.73068e+12 -1.74631e+12 -3.92876e+12 -3.6725e+12 -4.8527e+12 -3.39427e+12 -2.49063e+12 -5.76436e+12 -6.63638e+12 -4.31214e+12 -6.29431e+12 -5.18444e+12 -8.13067e+12 -8.11022e+12 -7.60642e+12 -3.35703e+12 -3.73552e+12 -3.95707e+12 -2.66896e+12 -4.57353e+12 -3.10925e+12 -6.43323e+12 -3.54647e+12 -5.02761e+12 -7.17151e+12 -5.01873e+12 -4.26601e+12 -4.00221e+12 -6.09558e+12 -6.47237e+12 -4.22542e+12 -6.25432e+12 -6.36116e+12 -5.18786e+12 -4.45155e+12 -6.19555e+12 -5.20082e+12 -3.65531e+12 -8.12248e+12 -5.37298e+12 -3.05045e+12 -4.03596e+12 -7.24678e+12 -5.73556e+12 -3.68021e+12 -3.48804e+12 -4.95464e+12 -5.62196e+12 -8.4852e+12 -6.34187e+12 -9.59672e+12 -5.21993e+12 -8.69544e+12 -8.6141e+12 -2.65058e+12 -5.53698e+12 -3.25809e+12 -4.36379e+12 -12549700000.0 -5.12525e+12 -6.10749e+12 -7.14152e+12 -8.94359e+12 -6.35512e+12 -4.056e+12 -5.98484e+12 -8.43051e+12 -6.10628e+12 -8.34841e+12 -6.1514e+12 -3.28626e+12 -3.59649e+12 -4.54067e+12 -6.53549e+12 -8.03888e+12 -3.90289e+12 -5.7173e+12 -1.00865e+13 -7.83599e+12 -3.60498e+12 -2.18263e+12 -4.75988e+12 -8.20139e+12 -8.2395e+12 -4.30449e+12 -6.07247e+12 -7.20394e+12 -5.92394e+12 -6.50976e+12 -6.11405e+12 -7.68408e+12 -4.60478e+12 -4.53932e+12 -3.79255e+12 -4.09527e+12 -4.58957e+12 -2.79877e+12 -5.19205e+12 -4.088e+12 -5.5228e+12 -9.52512e+12 -9.05049e+12 -1.15642e+13 -9.61952e+12 -5.54547e+12 -6.18349e+12 -8.36646e+12 -8.67106e+12 -4.78208e+12 -1.17537e+13 -4.56997e+12 -6.281e+12 -7.80532e+12 -6.37101e+12 -8.33658e+12 -7.47177e+12 -9.01163e+12 -9.65337e+12 -8.52751e+12 -7.40095e+12 -7.83227e+12 -4.63546e+12 -9.94803e+12 -4.54003e+12 -5.10421e+12 -6.08585e+12 -4.52164e+12 -5.95705e+12 -7.85689e+12 -6.33321e+12 -3.37016e+12 -4.47758e+12 -4.55564e+12 -4.26585e+12 -4.92768e+12 -6.11834e+12 -4.83213e+12 -3.7033e+12 -2.46811e+12 -4.65731e+12 -7.27563e+12 -7.52914e+12 -4.33183e+12 -4.696e+12 -9.30397e+12 -7.82902e+12 -6.53091e+12 -5.59187e+12 -6.88356e+12 -3.24428e+12 -9.6906e+12 -6.87967e+12 -5.23518e+12 -7.6904e+12 -9.80293e+12 -5.92467e+12 -6.64894e+12 -5.32006e+12 -6.25728e+12 -5.45476e+12 -1.14992e+13 -5.09522e+12 -4.7594e+12 -7.0252e+12 -3.96387e+12 -6.47927e+12 -7.77152e+12 -6.89051e+12 -5.76765e+12 -5.08034e+12 -6.53303e+12 -5.2488e+12 -2.62376e+12 -12549700000.0 -12549700000.0 -12549700000.0 -3.84956e+12 -6.21722e+12 -7.36123e+12 -7.22235e+12 -1.07236e+13 -7.41984e+12 -6.54074e+12 -8.48715e+12 -8.46628e+12 -5.66038e+12 -5.80952e+12 -4.07622e+12 -6.91851e+12 -7.42658e+12 -6.6775e+12 -9.38216e+12 -6.35274e+12 -6.60197e+12 -5.07188e+12 -4.62296e+12 -8.61124e+12 -7.96972e+12 -6.67591e+12 -8.9702e+12 -5.42087e+12 -4.78332e+12 -4.87802e+12 -6.91478e+12 -9.96868e+12 -5.20927e+12 -4.72528e+12 -4.6961e+12 -1.09549e+13 -8.73598e+12 -7.89999e+12 -1.05288e+13 -3.47996e+12 -4.17434e+12 -6.37864e+12 -5.44462e+12 -7.35121e+12 -6.67998e+12 -6.07051e+12 -6.93935e+12 -3.91752e+12 -7.00277e+12 -5.98833e+12 -7.41949e+12 -1.23923e+13 -4.5527e+12 -5.82572e+12 -9.27483e+12 -8.13259e+12 -3.48794e+12 -8.21591e+12 -9.04137e+12 -2.74021e+12 -4.26765e+12 -6.7853e+12 -5.90664e+12 -2.32371e+12 -5.67157e+12 -4.7933e+12 -7.38325e+12 -7.6007e+12 -6.13445e+12 -9.80348e+12 -5.27444e+12 -6.37077e+12 -7.98065e+12 -5.00196e+12 -6.96704e+12 -6.45362e+12 -7.90824e+12 -5.64176e+12 -8.33426e+12 -8.30273e+12 -5.62993e+12 -8.36159e+12 -6.29895e+12 -6.90999e+12 -3.37593e+12 -3.34023e+12 -4.3165e+12 -6.66257e+12 -6.71228e+12 -3.86103e+12 -4.47535e+12 -6.85916e+12 -5.83532e+12 -6.3265e+12 -5.98133e+12 -6.00998e+12 -1.33654e+13 -5.54606e+12 -7.775e+12 -7.68633e+12 -4.33771e+12 -6.79573e+12 -7.15496e+12 -4.37626e+12 -5.0347e+12 -8.24407e+12 -8.83171e+12 -1.04712e+13 -1.09343e+13 -8.97121e+12 -7.4381e+12 -5.96065e+12 -3.18311e+12 -1.02184e+13 -7.63442e+12 -4.74976e+12 -3.25131e+12 -5.71896e+12 -1.18237e+13 -8.49529e+12 -7.75748e+12 -6.18614e+12 -3.41065e+12 -6.15133e+12 -5.06654e+12 -4.57048e+12 -3.62286e+12 -5.18359e+12 -4.24513e+12 -2.78787e+12 -4.10638e+12 -4.14528e+12 -7.32035e+12 -1.0099e+13 -6.45169e+12 -7.74109e+12 -5.17344e+12 -6.9419e+12 -1.02182e+13 -9.29438e+12 -8.02705e+12 -1.13238e+13 -7.54395e+12 -7.77939e+12 -8.13216e+12 -3.95458e+12 -5.96132e+12 -1.30379e+13 -6.85172e+12 -5.90939e+12 -6.09776e+12 -7.20225e+12 -7.77928e+12 -7.16227e+12 -5.46601e+12 -7.13142e+12 -8.09407e+12 -7.67952e+12 -5.9645e+12 -3.45653e+12 -4.5925e+12 -4.49675e+12 -8.40268e+12 -6.52544e+12 -5.22624e+12 -5.703e+12 -6.68774e+12 -6.41162e+12 -8.33358e+12 -7.89103e+12 -3.48261e+12 -8.30455e+12 -12549700000.0 -6.10097e+12 -4.70687e+12 -7.95203e+12 -6.81875e+12 -7.94724e+12 -7.78646e+12 -6.08783e+12 -7.59951e+12 -1.01665e+13 -8.01842e+12 -7.46855e+12 -5.9733e+12 -3.36194e+12 -8.86947e+12 -6.39898e+12 -8.39659e+12 -4.95104e+12 -8.11749e+12 -8.10795e+12 -7.73648e+12 -5.992e+12 -6.55094e+12 -5.67823e+12 -7.18781e+12 -8.94514e+12 -5.58025e+12 -6.26584e+12 -5.80667e+12 -1.02608e+13 -8.80667e+12 -5.97364e+12 -7.54099e+12 -6.58818e+12 -4.31659e+12 -1.08353e+13 -7.68809e+12 -5.96898e+12 -8.34313e+12 -5.992e+12 -5.43747e+12 -6.98226e+12 -5.6133e+12 -3.51844e+12 -4.4981e+12 -12549700000.0 -3.24018e+12 -5.5319e+12 -7.80089e+12 -8.20117e+12 -9.57084e+12 -4.97848e+12 -7.12316e+12 -7.98525e+12 -8.92946e+12 -5.0582e+12 -3.30719e+12 -6.07172e+12 -6.6775e+12 -6.38139e+12 -5.93911e+12 -7.46657e+12 -7.63827e+12 -1.17803e+13 -7.10933e+12 -8.43189e+12 -8.52362e+12 -9.23131e+12 -1.13211e+13 -5.71741e+12 -4.75194e+12 -6.00521e+12 -9.30358e+12 -9.51637e+12 -1.03695e+13 -9.00239e+12 -9.178e+12 -7.67826e+12 -5.70839e+12 -6.40599e+12 -1.05271e+13 -8.28939e+12 -9.63822e+12 -9.57188e+12 -6.14761e+12 -5.30946e+12 -6.70569e+12 -4.29122e+12 -3.33811e+12 -3.65262e+12 -7.82e+12 -7.4378e+12 -4.52962e+12 -8.22289e+12 -5.09861e+12 -9.46004e+12 -8.49186e+12 -9.09565e+12 -7.56603e+12 -7.69334e+12 -4.17872e+12 -3.15849e+12 -7.1032e+12 -8.76259e+12 -5.62479e+12 -6.88743e+12 -7.71694e+12 -1.09315e+13 -7.17338e+12 -5.39796e+12 -7.18213e+12 -9.28501e+12 -8.10923e+12 -1.6859e+13 -6.35671e+12 -5.96496e+12 -1.00055e+13 -8.48012e+12 -1.00703e+13 -4.69541e+12 -3.26371e+12 -9.05221e+12 -5.95829e+12 -7.64501e+12 -9.62167e+12 -7.22775e+12 -5.43358e+12 -6.73069e+12 -5.51012e+12 -2.66272e+12 -6.06124e+12 -5.33022e+12 -3.73947e+12 -9.08619e+12 -9.32102e+12 -3.85748e+12 -3.74507e+12 -12549700000.0 -1.94881e+12 -3.38355e+12 -7.35585e+12 -5.3329e+12 -9.82471e+12 -6.48182e+12 -4.65034e+12 -6.82099e+12 -6.83562e+12 -5.29366e+12 -5.14718e+12 -9.60508e+12 -6.4333e+12 -5.18584e+12 -5.40525e+12 -1.05232e+13 -7.73129e+12 -1.12902e+13 -6.14105e+12 -7.42225e+12 -7.81423e+12 -5.73702e+12 -6.15176e+12 -4.73602e+12 -1.06923e+13 -5.50685e+12 -8.72603e+12 -5.6774e+12 -6.34472e+12 -8.9566e+12 -6.45047e+12 -7.16022e+12 -5.03959e+12 -8.88118e+12 -1.04245e+13 -5.49162e+12 -4.42017e+12 -6.61484e+12 -6.45392e+12 -4.99206e+12 -7.30386e+12 -9.06724e+12 -9.1481e+12 -7.42436e+12 -4.48275e+12 -3.84073e+12 -5.11846e+12 -6.1602e+12 -8.68685e+12 -7.4255e+12 -1.0992e+13 -5.58214e+12 -7.44444e+12 -6.83333e+12 -5.81627e+12 -4.47529e+12 -4.99826e+12 -4.41829e+12 -7.58781e+12 -7.6635e+12 -5.11131e+12 -8.84336e+12 -4.67207e+12 -4.40924e+12 -5.7685e+12 -2.94288e+12 -4.17431e+12 -1.09757e+13 -7.21259e+12 -8.20502e+12 -4.57008e+12 -8.59878e+12 -6.4159e+12 -6.23889e+12 -8.20783e+12 -7.38241e+12 -5.75612e+12 -1.31665e+13 -7.88039e+12 -5.55744e+12 -1.10279e+13 -1.06664e+13 -8.03966e+12 -7.8674e+12 -6.07053e+12 -5.08167e+12 -7.65025e+12 -7.63451e+12 -7.01205e+12 -7.01864e+12 -6.27197e+12 -6.07009e+12 -6.5806e+12 -9.41809e+12 -3.24819e+12 -1.19524e+13 -5.89905e+12 -7.23185e+12 -7.88501e+12 -1.04577e+13 -5.65731e+12 -7.86869e+12 -8.48555e+12 -4.73656e+12 -1.21506e+13 -8.27722e+12 -5.84958e+12 -7.00343e+12 -4.9383e+12 -3.63197e+12 -4.93419e+12 -5.23911e+12 -7.68071e+12 -1.00826e+13 -7.44999e+12 -9.11531e+12 -4.3814e+12 -4.61051e+12 -8.30884e+12 -1.24742e+13 -7.35168e+12 -5.75464e+12 -8.41313e+12 -9.35737e+12 -9.35521e+12 -8.22813e+12 -5.50965e+12 -4.03081e+12 -7.89727e+12 -5.2465e+12 -5.09721e+12 -5.16282e+12 -1.28974e+13 -8.89265e+12 -9.85992e+12 -5.49883e+12 -8.33308e+12 -7.74006e+12 -8.73965e+12 -5.22708e+12 -6.37028e+12 -3.6871e+12 -5.36328e+12 -1.09007e+13 -7.44145e+12 -8.98417e+12 -7.54096e+12 -1.27454e+13 -7.99682e+12 -1.13232e+13 -8.04184e+12 -6.68467e+12 -8.07189e+12 -7.86207e+12 -1.31211e+13 -5.35856e+12 -9.17342e+12 -8.74884e+12 -6.98676e+12 -6.63961e+12 -1.12269e+13 -1.12566e+13 -6.63703e+12 -7.65642e+12 -7.01755e+12 -7.34971e+12 -7.32344e+12 -9.77612e+12 -7.04273e+12 -4.94725e+12 -3.62475e+12 -1.02344e+13 -1.08492e+13 -5.49306e+12 -8.34718e+12 -8.4847e+12 -8.93447e+12 -5.27629e+12 -8.61342e+12 -1.02513e+13 -7.59082e+12 -7.85121e+12 -1.07276e+13 -7.77643e+12 -4.10804e+12 -9.38363e+12 -5.09285e+12 -6.2144e+12 -5.58148e+12 -7.60017e+12 -9.1768e+12 -8.78746e+12 -3.54419e+12 -5.80759e+12 -8.39784e+12 -1.04689e+13 -6.88912e+12 -6.14703e+12 -5.43478e+12 -9.10963e+12 -4.34646e+12 -1.21107e+13 -1.04505e+13 -1.00419e+13 -5.78534e+12 -6.29875e+12 -8.76739e+12 -7.20981e+12 -1.04314e+13 -8.85103e+12 -1.29514e+13 -7.24554e+12 -5.1267e+12 -1.30819e+13 -3.97894e+12 -1.01093e+13 -7.53053e+12 -6.32421e+12 -3.03841e+12 -5.28063e+12 -7.09562e+12 -1.10702e+13 -1.09432e+13 -8.53712e+12 -6.02158e+12 -7.17458e+12 -1.28837e+13 -7.20003e+12 -5.7214e+12 -8.74537e+12 -1.09415e+13 -8.78047e+12 -3.25677e+12 -3.90653e+12 -12549700000.0 -4.28456e+12 -6.05475e+12 -3.10468e+12 -6.14034e+12 -4.7271e+12 -7.69646e+12 -5.46864e+12 -7.42505e+12 -9.32419e+12 -8.70444e+12 -6.35613e+12 -5.2368e+12 -6.62181e+12 -6.67315e+12 -8.01172e+12 -5.43462e+12 -1.06674e+13 -9.97747e+12 -1.27601e+13 -8.53873e+12 -9.14102e+12 -8.83841e+12 -4.69362e+12 -1.03938e+13 -6.88593e+12 -8.32643e+12 -5.38325e+12 -7.56664e+12 -5.87316e+12 -9.17818e+12 -7.37499e+12 -9.97262e+12 -6.6083e+12 -6.3332e+12 -8.43592e+12 -7.36285e+12 -5.59554e+12 -8.78912e+12 -5.35584e+12 -8.84824e+12 -6.75901e+12 -8.62965e+12 -6.02844e+12 -1.07067e+13 -5.56397e+12 -5.31514e+12 -9.69493e+12 -9.1673e+12 -8.56973e+12 -6.65751e+12 -1.37393e+13 -5.62317e+12 -8.85191e+12 -9.82685e+12 -9.35758e+12 -3.60851e+12 -8.1345e+12 -6.24087e+12 -1.10325e+13 -8.89369e+12 -1.06249e+13 -1.34929e+13 -1.18115e+13 -7.06207e+12 -9.84483e+12 -6.61725e+12 -9.50527e+12 -3.64699e+12 -1.3499e+13 -5.85364e+12 -9.3704e+12 -1.11709e+13 -5.71512e+12 -7.559e+12 -1.19171e+13 -5.14672e+12 -1.48027e+13 -1.09399e+13 -7.32636e+12 -3.94744e+12 -8.21378e+12 -6.88378e+12 -4.84909e+12 -8.73058e+12 -1.14972e+13 -1.05978e+13 -1.07516e+13 -1.16568e+13 -7.48639e+12 -5.91007e+12 -5.22041e+12 -8.52537e+12 -6.68349e+12 -8.63841e+12 -9.16183e+12 -9.58125e+12 -1.17972e+13 -3.38258e+12 -9.92704e+12 -6.24873e+12 -7.07724e+12 -1.00449e+13 -7.70224e+12 -6.48064e+12 -1.12175e+13 -8.17107e+12 -7.68563e+12 -3.84346e+12 -1.007e+13 -6.55387e+12 -9.64731e+12 -5.47992e+12 -8.40836e+12 -6.76952e+12 -9.93808e+12 -5.22808e+12 -1.3635e+13 -5.23027e+12 -7.95462e+12 -4.53931e+12 -5.79884e+12 -3.68536e+12 -8.12049e+12 -5.39229e+12 -5.84058e+12 -9.56511e+12 -6.5419e+12 -5.90725e+12 -8.42397e+12 -9.95093e+12 -2.55493e+12 -4.9618e+12 -7.33299e+12 -7.89154e+12 -9.85643e+12 -7.42346e+12 -1.00209e+13 -3.43731e+12 -32918700000.0 -8.3074e+12 -8.72891e+12 -8.5482e+12 -1.33483e+13 -7.50834e+12 -3.40662e+12 -9.95822e+12 -9.53126e+12 -1.27995e+13 -1.21535e+13 -1.02108e+13 -1.01505e+13 -7.64411e+12 -6.89873e+12 -5.956e+12 -1.48092e+13 -6.10543e+12 -8.41459e+12 -9.07499e+12 -5.17601e+12 -8.1798e+12 -1.15438e+13 -5.50172e+12 -9.67277e+12 -1.07009e+13 -6.4472e+12 -7.93135e+12 -3.92435e+12 -6.32387e+12 -6.07878e+12 -4.48257e+12 -8.80692e+12 -6.34042e+12 -3.79544e+12 -7.04212e+12 -6.4967e+12 -4.53025e+12 -4.89723e+12 -3.15404e+12 -7.80428e+12 -5.90227e+12 -4.25502e+12 -5.04603e+12 -7.17771e+12 -6.19558e+12 -8.53896e+12 -8.09824e+12 -6.04652e+12 -7.45955e+12 -7.145e+12 -8.06814e+12 -9.70954e+12 -8.38129e+12 -9.35586e+12 -1.03471e+13 -9.1436e+12 -9.2421e+12 -1.21167e+13 -4.20553e+12 -6.99266e+12 -5.21268e+12 -9.19313e+12 -7.43711e+12 -1.03348e+13 -1.65654e+13 -9.46678e+12 -8.17634e+12 -7.08032e+12 -9.7603e+12 -1.23286e+13 -1.00649e+13 -1.17809e+13 -7.31145e+12 -9.58748e+12 -8.04826e+12 -8.31462e+12 -8.82511e+12 -4.94477e+12 -6.66899e+12 -1.21149e+13 -7.26056e+12 -7.64286e+12 -5.31239e+12 -8.28431e+12 -6.27795e+12 -7.79784e+12 -5.20778e+12 -8.1871e+12 -7.48157e+12 -5.33804e+12 -1.02468e+13 -5.69124e+12 -1.35344e+13 -1.0497e+13 -8.47338e+12 -6.44108e+12 -7.54767e+12 -6.56205e+12 -8.62873e+12 -1.10958e+13 -5.34771e+12 -1.03519e+13 -5.61262e+12 -7.10276e+12 -5.78386e+12 -9.83022e+12 -8.32759e+12 -1.13044e+13 -6.12994e+12 -9.0962e+12 -5.65818e+12 -6.96551e+12 -5.13319e+12 -7.61401e+12 -4.0335e+12 -8.11641e+12 -1.15634e+13 -1.22001e+13 -8.78034e+12 -1.5188e+13 -1.25294e+13 -8.96499e+12 -1.19972e+13 -7.27697e+12 -7.14576e+12 -5.569e+12 -3.59736e+12 -4.43392e+12 -7.96855e+12 -1.09866e+13 -1.01638e+13 -1.47921e+13 -9.02064e+12 -1.27397e+13 -7.17332e+12 -1.41464e+13 -6.50632e+12 -9.86126e+12 -7.66646e+12 -8.71874e+12 -1.1178e+13 -1.14907e+13 -6.84978e+12 -2.96763e+12 -5.28991e+12 -5.98299e+12 -4.93455e+12 -7.06411e+12 -4.81091e+12 -8.87538e+12 -1.3156e+13 -7.80518e+12 -7.34929e+12 -1.16797e+13 -9.17778e+12 -7.39133e+12 -1.15553e+13 -6.76582e+12 -1.09777e+13 -1.09531e+13 -7.23489e+12 -5.38382e+12 -9.32843e+12 -2.48397e+12 -6.88163e+12 -9.66108e+12 -6.16308e+12 -1.14323e+13 -1.06363e+13 -6.57888e+12 -4.44666e+12 -6.61278e+12 -6.90554e+12 -6.69769e+12 -9.50688e+12 -7.56322e+12 -1.0737e+13 -1.24156e+13 -6.48774e+12 -6.72876e+12 -8.68985e+12 -9.56612e+12 -4.81717e+12 -1.0463e+13 -9.13027e+12 -9.4444e+12 -9.21957e+12 -1.05475e+13 -1.32471e+13 -6.63399e+12 -1.69821e+13 -1.3811e+13 -1.05587e+13 -7.4648e+12 -8.43687e+12 -5.32325e+12 -6.35934e+12 -5.75109e+12 -1.03892e+13 -2.88379e+12 -4.24825e+12 -4.28403e+12 -1.11703e+13 -6.43596e+12 -3.67995e+12 -7.7879e+12 -1.28377e+13 -8.3403e+12 -7.71764e+12 -8.43869e+12 -6.7179e+12 -1.1698e+13 -8.42113e+12 -6.24326e+12 -5.60059e+12 -8.33506e+12 -5.261e+12 -1.15264e+13 -1.09929e+13 -6.3639e+12 -6.35378e+12 -1.31911e+13 -1.33096e+13 -1.42502e+13 -4.82444e+12 -7.79943e+12 -6.1687e+12 -1.40261e+13 -7.1745e+12 -7.56082e+12 -5.52592e+12 -9.37938e+12 -7.54976e+12 -1.18389e+13 -5.35515e+12 -1.17247e+13 -8.3073e+12 -8.5584e+12 -1.13486e+13 -8.00201e+12 -3.95033e+12 -1.00674e+13 -1.04511e+13 -9.21148e+12 -1.49689e+13 -4.57035e+12 -6.7642e+12 -6.62766e+12 -9.08268e+12 -5.82902e+12 -7.74275e+12 -1.09457e+13 -1.44122e+13 -6.66775e+12 -4.94153e+12 -7.9519e+12 -5.92592e+12 -9.21675e+12 -1.29592e+13 -7.33077e+12 -1.15711e+13 -1.06534e+13 -7.63761e+12 -2.7705e+12 -1.35872e+13 -5.43625e+12 -2.75229e+12 -4.32564e+12 -7.33678e+12 -8.71434e+12 -6.6971e+12 -4.972e+12 -8.52488e+12 -9.03553e+12 -1.039e+13 -4.92093e+12 -5.42865e+12 -1.25324e+13 -1.10289e+13 -1.40926e+13 -1.19539e+13 -4.11769e+12 -5.57548e+12 -1.37324e+13 -6.28357e+12 -9.71258e+12 -5.42459e+12 -4.29734e+12 -8.44679e+12 -4.52075e+12 -8.53712e+12 -1.0131e+13 -1.06817e+13 -8.18007e+12 -8.42848e+12 -1.52659e+13 -9.89386e+12 -8.60336e+12 -1.51037e+13 -7.06204e+12 -6.55378e+12 -4.82322e+12 -7.15407e+12 -3.06679e+12 -5.1047e+12 -6.12335e+12 -6.22499e+12 -8.75615e+12 -9.27537e+12 -8.15555e+12 -4.58181e+12 -9.19677e+12 -6.91384e+12 -6.88332e+12 -5.18889e+12 -9.06098e+12 -6.13625e+12 -5.43119e+12 -1.02071e+13 -6.69581e+12 -7.65088e+12 -7.15749e+12 -1.32979e+13 -4.64237e+12 -4.50714e+12 -8.11802e+12 -5.91428e+12 -9.17428e+12 -8.14314e+12 -9.17274e+12 -5.53868e+12 -9.33594e+12 -1.32166e+13 -9.11087e+12 -1.06901e+13 -7.81963e+12 -6.06873e+12 -4.81832e+12 -7.47471e+12 -7.62578e+12 -9.23278e+12 -8.70425e+12 -5.16434e+12 -8.52097e+12 -5.78826e+12 -7.35041e+12 -4.48592e+12 -1.05727e+13 -6.80125e+12 -1.00438e+13 -8.46814e+12 -7.18363e+12 -8.85653e+12 -7.10717e+12 -7.70325e+12 -7.73075e+12 -6.60318e+12 -7.20364e+12 -9.0025e+12 -1.29894e+13 -7.65282e+12 -1.13089e+13 -8.80891e+12 -9.41815e+12 -8.26794e+12 -1.08951e+13 -1.13625e+13 -8.03703e+12 -8.41413e+12 -9.0758e+12 -9.04053e+12 -5.25303e+12 -8.82346e+12 -8.28372e+12 -1.03932e+13 -1.1612e+13 -7.56352e+12 -7.04788e+12 -6.36051e+12 -1.34478e+13 -6.19649e+12 -5.75195e+12 -7.76693e+12 -4.8977e+12 -7.88559e+12 -8.14702e+12 -9.04979e+12 -1.26319e+13 -6.06427e+12 -1.08744e+13 -8.70412e+12 -6.21229e+12 -6.27843e+12 -6.32777e+12 -7.83307e+12 -5.38367e+12 -1.3118e+13 -7.54788e+12 -6.49858e+12 -1.10051e+13 -1.03974e+13 -1.12234e+13 -6.07809e+12 -8.74284e+12 -8.27433e+12 -5.63194e+12 -6.93194e+12 -5.8109e+12 -6.44478e+12 -8.72211e+12 -4.23407e+12 -8.96773e+12 -7.9597e+12 -8.22558e+12 -7.81734e+12 -1.36748e+13 -6.73146e+12 -5.60479e+12 -5.09938e+12 -8.10816e+12 -5.74125e+12 -1.19458e+13 -8.92848e+12 -6.55476e+12 -1.3591e+13 -4.45564e+12 -8.43871e+12 -6.99911e+12 -1.07773e+13 -4.23646e+12 -6.21427e+12 -5.20148e+12 -1.05178e+13 -7.93707e+12 -7.84113e+12 -9.85044e+12 -9.76679e+12 -6.3469e+12 -1.02978e+13 -4.73496e+12 -6.80337e+12 -4.77917e+12 -1.04392e+13 -7.59504e+12 -9.68799e+12 -8.55012e+12 -1.40172e+13 -6.87808e+12 -7.82071e+12 -5.39704e+12 -7.68156e+12 -9.95583e+12 -3.13521e+12 -1.26456e+13 -7.91559e+12 -9.9339e+12 -7.54276e+12 -1.35375e+13 -5.39241e+12 -8.53134e+12 -8.508e+12 -7.38949e+12 -5.48491e+12 -1.40586e+13 -6.91143e+12 -1.01748e+13 -3.39063e+12 -1.1772e+13 -7.16782e+12 -9.67719e+12 -4.54232e+12 -3.46847e+12 -8.76751e+12 -8.59934e+12 -1.18887e+13 -8.87507e+12 -6.59427e+12 -8.46978e+12 -1.03012e+13 -1.17532e+13 -5.70963e+12 -5.25657e+12 -6.93681e+12 -4.12671e+12 -9.37202e+12 -1.1662e+13 -5.33115e+12 -1.27877e+13 -1.2356e+13 -7.34617e+12 -1.00186e+13 -9.17206e+12 -4.51099e+12 -7.19457e+12 -6.55629e+12 -1.01567e+13 -7.89725e+12 -8.98463e+12 -7.69657e+12 -8.68566e+12 -8.03776e+12 -7.63991e+12 -1.08404e+13 -5.93252e+12 -8.32254e+12 -7.82832e+12 -3.86512e+12 -6.96575e+12 -9.95854e+12 -5.89747e+12 -8.77143e+12 -1.21256e+13 -6.90946e+12 -1.31537e+13 -1.51957e+13 -1.20915e+13 -1.00975e+13 -7.03141e+12 -1.11246e+13 -8.00246e+12 -7.19559e+12 -5.23621e+12 -6.91877e+12 -4.3507e+12 -5.3316e+12 -5.3101e+12 -7.16349e+12 -7.34951e+12 -7.86236e+12 -8.98502e+12 -4.81065e+12 -7.2952e+12 -9.62095e+12 -1.02407e+13 -8.20861e+12 -7.86627e+12 -8.54379e+12 -4.81784e+12 -8.69865e+12 -6.31308e+12 -4.22592e+12 -4.50553e+12 -9.28977e+12 -7.82611e+12 -1.27271e+13 -7.84245e+12 -5.98485e+12 -4.0667e+12 -6.32012e+12 -9.57213e+12 -6.72479e+12 -1.08256e+13 -6.43126e+12 -8.40088e+12 -4.81673e+12 -8.37758e+12 -7.78262e+12 -9.65912e+12 -4.84547e+12 -8.97453e+12 -9.69513e+12 -1.3018e+13 -9.52425e+12 -5.67742e+12 -1.55236e+13 -1.19356e+13 -1.37991e+13 -8.84231e+12 -9.65686e+12 -7.27853e+12 -8.68676e+12 -5.9794e+12 -6.57729e+12 -8.47215e+12 -4.14797e+12 -8.64586e+12 -1.11151e+13 -8.72621e+12 -1.00703e+13 -8.56024e+12 -7.94563e+12 -9.75418e+12 -9.94633e+12 -1.04901e+13 -7.08311e+12 -7.1398e+12 -9.42283e+12 -1.08732e+13 -1.10928e+13 -1.27908e+13 -9.40648e+12 -9.48831e+12 -6.58924e+12 -7.53026e+12 -9.30513e+12 -8.21709e+12 -7.64812e+12 -7.35359e+12 -1.03585e+13 -7.78295e+12 -6.96235e+12 -1.02485e+13 -5.92545e+12 -6.95504e+12 -1.31048e+13 -9.55376e+12 -8.95934e+12 -7.36229e+12 -8.01016e+12 -5.64997e+12 -6.68524e+12 -1.05442e+13 -7.75263e+12 -5.31646e+12 -5.03729e+12 -7.20958e+12 -5.81491e+12 -1.14606e+13 -9.25212e+12 -7.5773e+12 -6.19947e+12 -6.29421e+12 -6.50857e+12 -4.48071e+12 -6.95523e+12 -1.09755e+13 -6.95648e+12 -6.77168e+12 -9.30085e+12 -5.85503e+12 -6.85969e+12 -6.77392e+12 -7.57702e+12 -6.36076e+12 -7.55544e+12 -1.04148e+13 -9.96523e+12 -7.42532e+12 -4.57226e+12 -8.6325e+12 -4.86103e+12 -1.12546e+13 -6.13596e+12 -8.23337e+12 -4.8475e+12 -1.06896e+13 -9.26816e+12 -7.56672e+12 -3.25183e+12 -6.96986e+12 -4.90621e+12 -6.82481e+12 -5.28414e+12 -9.90913e+12 -6.5091e+12 -3.16434e+12 -4.88387e+12 -8.78561e+12 -4.3828e+12 -6.7975e+12 -8.88199e+12 -7.32008e+12 -1.29875e+13 -1.00855e+13 -6.66259e+12 -1.08496e+13 -4.94232e+12 -8.07648e+12 -7.07683e+12 -1.39865e+13 -9.10628e+12 -7.78936e+12 -4.59183e+12 -8.64553e+12 -1.14663e+13 -1.07529e+13 -1.28268e+13 -3.15545e+12 -7.27785e+12 -1.14128e+13 -1.32921e+13 -7.90216e+12 -1.06102e+13 -1.02831e+13 -7.83856e+12 -8.7057e+12 -8.36777e+12 -5.42984e+12 -7.64284e+12 -7.99842e+12 -9.61137e+12 -8.35444e+12 -8.12475e+12 -5.47795e+12 -5.54694e+12 -5.96191e+12 -8.32557e+12 -5.02754e+12 -4.49526e+12 -8.18151e+12 -1.00701e+13 -1.18616e+13 -5.73699e+12 -1.05018e+13 -2.96692e+12 -6.79334e+12 -7.32025e+12 -8.27032e+12 -5.99639e+12 -1.20615e+13 -5.72022e+12 -4.86724e+12 -5.37404e+12 -7.14723e+12 -1.31606e+13 -8.32064e+12 -6.34107e+12 -5.539e+12 -9.91429e+12 -6.39231e+12 -8.00457e+12 -1.15493e+13 -2.71651e+12 -1.10923e+13 -1.19215e+13 -8.00537e+12 -3.82664e+12 -4.24954e+12 -4.86936e+12 -8.02865e+12 -8.63066e+12 -1.0967e+13 -1.03353e+13 -1.04558e+13 -5.77026e+12 -9.13678e+12 -7.88229e+12 -6.00557e+12 -1.00148e+13 -3.49064e+12 -6.80792e+12 -5.85216e+12 -1.23882e+13 -4.58456e+12 -6.84132e+12 -5.1061e+12 -6.23397e+12 -6.47354e+12 -6.11578e+12 -7.30047e+12 -1.25496e+13 -6.80848e+12 -4.05933e+12 -6.31698e+12 -5.82936e+12 -8.02857e+12 -7.68683e+12 -3.74973e+12 -5.31182e+12 -1.21857e+13 -7.42507e+12 -6.99386e+12 -5.10811e+12 -6.58157e+12 -6.89149e+12 -7.98144e+12 -6.41525e+12 -4.12359e+12 -3.51531e+12 -7.71998e+12 -7.01149e+12 -5.35497e+12 -6.46042e+12 -5.87588e+12 -4.57478e+12 -3.11864e+12 -9.14394e+12 -7.74475e+12 -1.00289e+13 -1.0402e+13 -1.28378e+13 -5.75806e+12 -8.51384e+12 -6.43552e+12 -6.005e+12 -6.25503e+12 -1.103e+13 -8.42699e+12 -8.39793e+12 -1.03696e+13 -8.69849e+12 -6.7213e+12 -1.05603e+13 -9.97335e+12 -5.99498e+12 -6.58638e+12 -1.19395e+13 -7.22238e+12 -8.76208e+12 -4.13826e+12 -1.43039e+13 -1.28093e+13 -1.14229e+13 -7.7381e+12 -5.93493e+12 -8.07906e+12 -9.81735e+12 -1.27829e+13 -6.61007e+12 -9.13516e+12 -9.63806e+12 -8.82288e+12 -7.52972e+12 -4.0779e+12 -3.45404e+12 -1.13126e+13 -4.49032e+12 -2.78473e+12 -6.31232e+12 -8.63412e+12 -8.09005e+12 -8.31761e+12 -6.9781e+12 -4.73778e+12 -6.88525e+12 -9.21418e+12 -1.39962e+13 -6.04616e+12 -1.39663e+13 -1.04559e+13 -4.9751e+12 -8.2273e+12 -1.10701e+13 -9.99434e+12 -8.33827e+12 -9.8037e+12 -8.09502e+12 -5.70557e+12 -7.25189e+12 -1.66111e+13 -5.84776e+12 -7.11314e+12 -1.02722e+13 -6.49368e+12 -6.98491e+12 -8.53591e+12 -6.09029e+12 -6.72335e+12 -1.05356e+13 -7.24199e+12 -6.9705e+12 -1.32284e+12 -1.00542e+13 -1.08252e+13 -9.56274e+12 -4.36732e+12 -6.12097e+12 -6.68678e+12 -4.8052e+12 -2.34604e+12 -6.6225e+12 -8.0539e+12 -7.70786e+12 -8.0729e+12 -7.39483e+12 -4.38507e+12 -5.00904e+12 -8.09353e+12 -1.07655e+13 -7.71242e+12 -6.57684e+12 -5.69062e+12 -6.61161e+12 -8.16996e+12 -5.41043e+12 -6.64771e+12 -7.67242e+12 -8.62321e+12 -7.29781e+12 -4.00954e+12 -5.07373e+12 -7.1106e+12 -8.03059e+12 -5.74405e+12 -6.46567e+12 -7.51269e+12 -5.35963e+12 -6.47261e+12 -7.13219e+12 -7.46346e+12 -4.58986e+12 -8.29789e+12 -8.65055e+12 -7.515e+12 -9.29734e+12 -4.54622e+12 -4.21675e+12 -4.91576e+12 -5.77074e+12 -7.48438e+12 -1.60507e+13 -9.12086e+12 -3.07603e+12 -9.48077e+12 -6.16557e+12 -5.50042e+12 -5.35873e+12 -6.81696e+12 -8.29797e+12 -1.21923e+13 -5.79708e+12 -7.72173e+12 -6.05118e+12 -4.15331e+12 -4.5738e+12 -6.76706e+12 -6.49506e+12 -6.23115e+12 -7.77647e+12 -6.88307e+12 -1.08785e+13 -5.76433e+12 -7.48251e+12 -8.16543e+12 -5.15863e+12 -7.31847e+12 -4.91281e+12 -5.29754e+12 -7.08141e+12 -7.12066e+12 -8.37391e+12 -5.29344e+12 -8.0597e+12 -1.02044e+13 -7.84305e+12 -7.75577e+12 -5.90113e+12 -5.44198e+12 -1.14329e+13 -5.77549e+12 -2.72503e+12 -7.73486e+12 -4.18221e+12 -5.59239e+12 -6.06666e+12 -6.88097e+12 -8.13739e+12 -7.75971e+12 -1.21938e+13 -9.11384e+12 -8.66189e+12 -4.57035e+12 -5.02162e+12 -1.56254e+13 -5.45758e+12 -8.42504e+12 -8.87001e+12 -1.06377e+13 -1.02885e+13 -8.31688e+12 -8.29677e+12 -7.58285e+12 -5.59499e+12 -9.18814e+12 -6.10812e+12 -7.51003e+12 -7.33211e+12 -5.74037e+12 -1.04939e+13 -8.52676e+12 -7.75193e+12 -6.96568e+12 -1.00423e+13 -6.79905e+12 -1.20145e+13 -3.44193e+12 -4.62926e+12 -5.60525e+12 -6.8361e+12 -5.93141e+12 -3.93249e+12 -6.33067e+12 -9.20206e+12 -8.75612e+12 -7.05449e+12 -6.63888e+12 -7.22415e+12 -4.83829e+12 -6.33848e+12 -2.90017e+12 -5.67618e+12 -6.96486e+12 -4.37331e+12 -7.6363e+12 -8.35946e+12 -6.71367e+12 -4.36577e+12 -5.22746e+12 -3.55304e+12 -7.10276e+12 -7.79113e+12 -6.78985e+12 -7.27381e+12 -3.63817e+12 -6.62474e+12 -7.89365e+12 -7.18404e+12 -7.03297e+12 -6.63873e+12 -5.40645e+12 -9.61883e+12 -8.26734e+12 -4.60255e+12 -9.5991e+12 -9.83519e+12 -6.61065e+12 -5.55844e+12 -1.06738e+13 -5.77894e+12 -7.80722e+12 -5.9779e+12 -5.25619e+12 -3.98197e+12 -4.88146e+12 -1.23619e+13 -8.19077e+12 -7.20722e+12 -7.30414e+12 -9.38633e+12 -7.62006e+12 -7.87357e+12 -9.63842e+12 -7.17578e+12 -4.35225e+12 -9.50337e+12 -7.85468e+12 -1.03793e+13 -7.31425e+12 -1.35974e+13 -4.90915e+12 -3.25566e+12 -6.46525e+12 -5.02683e+12 -1.10612e+13 -8.22664e+12 -9.09484e+12 -8.56386e+12 -6.40114e+12 -9.28452e+12 -9.1814e+12 -8.2453e+12 -9.08648e+12 -3.69264e+12 -1.05127e+13 -9.57551e+12 -9.60563e+12 -9.50037e+12 -7.50541e+12 -8.8138e+12 -8.79224e+12 -5.13079e+12 -7.66863e+12 -6.01291e+12 -6.44157e+12 -6.08549e+12 -8.01204e+12 -5.30929e+12 -4.16723e+12 -6.09916e+12 -5.83711e+12 -5.88036e+12 -7.39928e+12 -4.82947e+12 -6.30017e+12 -1.08762e+13 -7.12498e+12 -7.49249e+12 -8.53919e+12 -1.35454e+13 -1.89799e+13 -6.63263e+12 -6.87305e+12 -7.47304e+12 -8.73309e+12 -1.10251e+13 -5.53701e+12 -7.53662e+12 -6.91515e+12 -5.72556e+12 -4.88366e+12 -7.23602e+12 -6.23737e+12 -1.18612e+13 -2.5236e+12 -5.17989e+12 -8.05189e+12 -4.1175e+12 -1.11594e+13 -1.0849e+13 -3.3959e+12 -6.31815e+12 -8.79331e+12 -7.1168e+12 -7.34009e+12 -8.27816e+12 -4.7164e+12 -5.70518e+12 -6.09598e+12 -6.67362e+12 -6.57625e+12 -1.0616e+13 -1.02462e+13 -6.66073e+12 -5.87468e+12 -5.61509e+12 -4.58392e+12 -7.42674e+12 -7.83864e+12 -6.65921e+12 -4.26605e+12 -3.86017e+12 -6.09789e+12 -5.52117e+12 -6.54179e+12 -5.81842e+12 -7.30595e+12 -7.82718e+12 -1.05036e+13 -9.23232e+12 -3.6814e+12 -5.36594e+12 -5.32611e+12 -6.14568e+12 -4.65653e+12 -4.80461e+12 -7.2098e+12 -1.25875e+13 -8.74876e+12 -7.18736e+12 -6.11471e+12 -8.85614e+12 -6.97658e+12 -6.54335e+12 -3.82352e+12 -6.56924e+12 -4.60926e+12 -4.34444e+12 -9.09987e+12 -5.99115e+12 -1.41009e+13 -6.60754e+12 -6.79258e+12 -1.01425e+13 -6.47876e+12 -1.01802e+13 -1.34948e+13 -4.66415e+12 -4.63502e+12 -3.87236e+12 -6.20506e+12 -4.11046e+12 -6.41163e+12 -4.78986e+12 -6.96057e+12 -6.30968e+12 -4.884e+12 -1.11128e+13 -8.04185e+12 -1.31858e+13 -8.42782e+12 -1.39488e+13 -5.04108e+12 -6.84189e+12 -5.53544e+12 -8.7777e+12 -8.0653e+12 -1.4431e+13 -5.21316e+12 -7.74231e+12 -5.60832e+12 -4.34047e+12 -1.41841e+13 -7.60388e+12 -4.78322e+12 -6.19223e+12 -7.32541e+12 -7.96428e+12 -8.63039e+12 -6.53154e+12 -1.09604e+13 -5.4323e+12 -5.70654e+12 -3.44974e+12 -8.69577e+12 -4.47662e+12 -7.46235e+12 -4.32275e+12 -5.53123e+12 -8.38641e+12 -8.3522e+12 -4.80867e+12 -3.04735e+12 -4.69458e+12 -5.29003e+12 -3.85114e+12 -3.74044e+12 -9.03373e+12 -7.92825e+12 -7.41725e+12 -6.18832e+12 -3.7801e+12 -1.2066e+13 -6.42137e+12 -8.39352e+12 -1.13283e+13 -6.90958e+12 -5.48454e+12 -6.26604e+12 -3.7606e+12 -7.47055e+12 -8.3261e+12 -5.47747e+12 -7.84968e+12 -7.67835e+12 -2.60914e+12 -2.96536e+12 -5.71784e+12 -4.56129e+12 -5.55741e+12 -6.87737e+12 -5.24747e+12 -4.24348e+12 -4.61329e+12 -6.00586e+12 -6.43747e+12 -9.41852e+12 -4.83459e+12 -2.02409e+12 -6.70325e+12 -6.02908e+12 -5.94192e+12 -8.02714e+12 -8.52361e+12 -6.14741e+12 -9.19981e+12 -7.82085e+12 -6.06752e+12 -1.01704e+13 -6.36547e+12 -1.18364e+13 -8.01141e+12 -4.37205e+12 -5.36522e+12 -7.66274e+12 -7.15242e+12 -5.73257e+12 -4.98618e+12 -6.80295e+12 -7.25146e+12 -7.27963e+12 -5.80971e+12 -6.25513e+12 -8.32821e+12 -6.14284e+12 -3.31821e+12 -7.3194e+12 -4.71868e+12 -5.5644e+12 -6.69417e+12 -5.49241e+12 -8.5539e+12 -7.93453e+12 -7.27778e+12 -6.98142e+12 -4.97078e+12 -8.1691e+12 -4.6118e+12 -7.91113e+12 -1.04693e+13 -7.56732e+12 -7.50041e+12 -1.01151e+13 -1.18173e+13 -6.80813e+12 -8.19285e+12 -8.2023e+12 -6.5466e+12 -3.61832e+12 -8.28454e+12 -8.59864e+12 -3.93013e+12 -4.94176e+12 -1.064e+13 -5.79651e+12 -5.55348e+12 -8.85619e+12 -9.05385e+12 -7.99662e+12 -5.78356e+12 -9.31995e+12 -4.5302e+12 -4.32551e+12 -9.34964e+12 -6.46895e+12 -1.02729e+13 -1.1027e+13 -7.80871e+12 -4.24724e+12 -9.41173e+12 -6.84765e+12 -6.07826e+12 -8.03266e+12 -5.99478e+12 -9.69797e+12 -6.00825e+12 -7.65372e+12 -5.14296e+12 -6.14602e+12 -4.85556e+12 -9.92596e+12 -8.74776e+12 -5.58709e+12 -1.09079e+13 -6.86253e+12 -1.18591e+13 -5.49428e+12 -5.99803e+12 -4.52561e+12 -6.88148e+12 -4.96655e+12 -4.69715e+12 -9.74214e+12 -1.00424e+13 -8.1611e+12 -6.97434e+12 -6.38842e+12 -8.57084e+12 -7.16847e+12 -3.91103e+12 -8.28349e+12 -7.9706e+12 -6.24242e+12 -5.32045e+12 -5.68489e+12 -7.30236e+12 -4.55292e+12 -7.15054e+12 -5.95555e+12 -4.00237e+12 -5.65265e+12 -7.70463e+12 -3.87024e+12 -6.309e+12 -7.91119e+12 -1.02155e+13 -6.7203e+12 -5.75193e+12 -5.43105e+12 -9.36595e+12 -6.731e+12 -8.82313e+12 -1.12914e+13 -2.88495e+12 -1.06918e+13 -7.06184e+12 -5.87154e+12 -4.22601e+12 -4.34312e+12 -6.24998e+12 -5.90866e+12 -5.5231e+12 -9.20523e+12 -8.17682e+12 -5.30312e+12 -5.51809e+12 -5.56435e+12 -6.7458e+12 -4.20616e+12 -6.52042e+12 -2.73463e+12 -6.94738e+12 -4.21617e+12 -6.69835e+12 -6.32888e+12 -4.30703e+12 -8.94725e+12 -4.88884e+12 -6.85527e+12 -3.80697e+12 -5.34535e+12 -7.48749e+12 -7.35108e+12 -3.57996e+12 -7.98136e+12 -6.57323e+12 -6.41161e+12 -3.43718e+12 -4.50219e+12 -6.02814e+12 -4.46934e+12 -4.87715e+12 -4.69107e+12 -8.24912e+12 -6.63914e+12 -4.13923e+12 -6.23898e+12 -5.90028e+12 -7.20613e+12 -7.10894e+12 -6.18814e+12 -6.1293e+12 -8.13065e+12 -6.18867e+12 -7.77521e+12 -4.06607e+12 -3.79657e+12 -4.85173e+12 -6.7101e+12 -9.68977e+12 -6.056e+12 -7.38457e+12 -5.57088e+12 -8.61982e+12 -4.99674e+12 -4.29083e+12 -6.70459e+12 -4.51587e+12 -6.50699e+12 -1.01152e+13 -7.25655e+12 -6.07051e+12 -7.71105e+12 -7.2756e+12 -6.33466e+12 -6.706e+12 -3.94876e+12 -6.4108e+12 -7.34508e+12 -4.83675e+12 -4.63999e+12 -5.99816e+12 -6.41522e+12 -7.73982e+12 -6.35127e+12 -5.53967e+12 -9.6319e+12 -6.22109e+12 -8.29697e+12 -6.30097e+12 -8.58916e+12 -1.00244e+13 -1.02781e+13 -5.16727e+12 -7.84542e+12 -6.16686e+12 -4.87244e+12 -6.23499e+12 -5.50957e+12 -6.02751e+12 -9.76002e+12 -9.04828e+12 -1.01325e+13 -7.16363e+12 -8.18381e+12 -7.22864e+12 -5.02329e+12 -6.07465e+12 -4.07106e+12 -5.72495e+12 -5.74944e+12 -4.65583e+12 -6.89849e+12 -7.64467e+12 -6.37797e+12 -4.1422e+12 -5.145e+12 -7.21336e+12 -8.25957e+12 -4.36917e+12 -7.08289e+12 -6.56597e+12 -5.80933e+12 -6.54823e+12 -5.58348e+12 -3.34196e+12 -5.09943e+12 -5.74934e+12 -5.38687e+12 -4.21611e+12 -6.38079e+12 -7.13439e+12 -6.16423e+12 -7.54285e+12 -3.3036e+12 -5.07323e+12 -8.47515e+12 -8.10915e+12 -9.93782e+12 -5.68805e+12 -5.50349e+12 -8.50556e+12 -8.94099e+12 -5.76844e+12 -3.2536e+12 -9.56442e+12 -7.77364e+12 -5.9037e+12 -3.47957e+12 -5.8991e+12 -5.28295e+12 -3.85116e+12 -3.44344e+12 -3.77945e+12 -7.03793e+12 -7.07322e+12 -5.29894e+12 -4.81045e+12 -5.73335e+12 -7.48952e+12 -4.4649e+12 -9.05578e+12 -7.83057e+12 -6.87905e+12 -7.28322e+12 -9.06095e+12 -5.68828e+12 -3.27522e+12 -6.61019e+12 -5.47376e+12 -6.52958e+12 -6.77296e+12 -5.54277e+12 -7.16821e+12 -4.60657e+12 -4.99984e+12 -5.23989e+12 -8.09168e+12 -6.63587e+12 -4.8532e+12 -5.86327e+12 -6.2805e+12 -4.79942e+12 -9.18937e+12 -5.52346e+12 -5.27888e+12 -6.3416e+12 -5.42256e+12 -4.31201e+12 -2.3382e+12 -4.5624e+12 -1.0782e+13 -3.9626e+12 -6.36017e+12 -5.48933e+12 -3.58029e+12 -2.51717e+12 -1.08538e+13 -6.8008e+12 -5.77696e+12 -7.30079e+12 -6.06303e+12 -9.68722e+12 -4.7977e+12 -7.41259e+12 -4.10129e+12 -6.83031e+12 -1.10534e+13 -5.73235e+12 -4.66272e+12 -6.4242e+12 -5.6869e+12 -8.77177e+12 -9.05466e+12 -5.43561e+12 -5.88836e+12 -6.83565e+12 -6.70841e+12 -6.06015e+12 -7.56216e+12 -8.72005e+12 -1.20332e+13 -7.22425e+12 -2.50951e+12 -6.47473e+12 -6.38857e+12 -8.21522e+12 -1.06867e+13 -5.61092e+12 -5.23071e+12 -4.96299e+12 -5.30622e+12 -8.03595e+12 -1.21834e+13 -6.04722e+12 -6.12024e+12 -1.06788e+13 -1.31401e+13 -7.63874e+12 -4.56451e+12 -7.45088e+12 -5.13091e+12 -4.38476e+12 -5.38936e+12 -8.65953e+12 -4.5574e+12 -3.30035e+12 -4.96476e+12 -5.66175e+12 -5.61686e+12 -5.97618e+12 -5.36076e+12 -3.44755e+12 -4.52703e+12 -4.56584e+12 -3.73288e+12 -7.0335e+12 -5.78315e+12 -8.92496e+12 -7.73121e+12 -7.39932e+12 -8.26779e+12 -5.03144e+12 -6.9934e+12 -5.38526e+12 -5.69226e+12 -5.46507e+12 -1.03151e+13 -8.0605e+12 -9.98232e+12 -6.73641e+12 -4.78889e+12 -3.51804e+12 -5.05126e+12 -5.56536e+12 -1.19086e+13 -1.1634e+13 -6.66376e+12 -8.33231e+12 -6.31991e+12 -8.10263e+12 -9.49492e+12 -4.03852e+12 -6.51578e+12 -1.06915e+13 -5.13108e+12 -4.07426e+12 -5.81022e+12 -3.88952e+12 -6.24471e+12 -6.59688e+12 -9.06359e+12 -4.86669e+12 -5.29813e+12 -6.68794e+12 -6.63717e+12 -4.73205e+12 -6.71853e+12 -6.52306e+12 -5.3022e+12 -3.71264e+12 -3.79045e+12 -5.82932e+12 -2.78687e+12 -5.0829e+12 -6.96678e+12 -8.29768e+12 -4.21242e+12 -4.80733e+12 -5.5774e+12 -6.93e+12 -5.3779e+12 -4.49611e+12 -5.48067e+12 -5.03788e+12 -7.25231e+12 -1.08582e+13 -4.21408e+12 -8.04092e+12 -2.94922e+12 -6.25408e+12 -7.41095e+12 -5.75007e+12 -6.06693e+12 -4.73259e+12 -2.81339e+12 -3.44071e+12 -4.63416e+12 -5.90704e+12 -6.6523e+12 -6.92646e+12 -1.0252e+13 -8.86323e+12 -1.07334e+13 -8.15857e+12 -5.90141e+12 -1.02295e+13 -4.17869e+12 -6.93087e+12 -8.33222e+12 -6.88712e+12 -7.17337e+12 -7.85061e+12 -6.62534e+12 -2.76829e+12 -6.33643e+12 -4.09969e+12 -5.62507e+12 -7.96414e+12 -4.95834e+12 -8.16607e+12 -4.90058e+12 -6.7916e+12 -5.9841e+12 -4.40354e+12 -4.84548e+12 -5.88641e+12 -4.47998e+12 -1.13596e+13 -6.92819e+12 -7.6228e+12 -6.79501e+12 -5.25507e+12 -4.29629e+12 -9.01021e+12 -1.57031e+13 -8.16712e+12 -1.13582e+13 -9.5459e+12 -1.05007e+13 -5.48725e+12 -5.8578e+12 -6.43798e+12 -5.30839e+12 -2.09689e+12 -4.87386e+12 -4.68405e+12 -3.5965e+12 -7.30477e+12 -6.18169e+12 -6.64394e+12 -9.87796e+12 -4.36886e+12 -8.34771e+12 -7.41043e+12 -6.07934e+12 -6.8366e+12 -5.50586e+12 -6.39473e+12 -5.91428e+12 -5.08827e+12 -5.84793e+12 -4.60854e+12 -4.75285e+12 -5.80395e+12 -4.76731e+12 -4.84219e+12 -6.45385e+12 -8.67896e+12 -7.65357e+12 -3.91926e+12 -2.59712e+12 -3.45821e+12 -6.06361e+12 -3.07368e+12 -7.73645e+12 -1.17951e+13 -8.98217e+12 -7.68212e+12 -7.3714e+12 -5.36765e+12 -6.29408e+12 -6.7063e+12 -5.38082e+12 -8.29405e+12 -7.33378e+12 -7.86869e+12 -7.68444e+12 -9.47645e+12 -4.67972e+12 -5.01664e+12 -9.0475e+12 -4.51664e+12 -7.48853e+12 -5.30002e+12 -2.88743e+12 -4.13517e+12 -3.49857e+12 -8.44085e+12 -5.19226e+12 -3.85248e+12 -5.57451e+12 -5.74648e+12 -6.49847e+12 -3.24016e+12 -3.67561e+12 -4.04125e+12 -5.20818e+12 -4.59977e+12 -4.11246e+12 -5.54604e+12 -5.94424e+12 -3.82521e+12 -5.99762e+12 -8.10474e+12 -4.4157e+12 -8.92976e+12 -4.73895e+12 -6.25416e+12 -5.96577e+12 -4.14262e+12 -7.06602e+12 -4.51256e+12 -5.3458e+12 -7.8506e+12 -8.20002e+12 -5.13649e+12 -4.5139e+12 -4.36595e+12 -5.46891e+12 -4.61804e+12 -8.25505e+12 -8.1674e+12 -7.81856e+12 -2.65247e+12 -5.7647e+12 -4.26356e+12 -5.15696e+12 -4.33728e+12 -8.02393e+12 -5.24442e+12 -7.642e+12 -5.27572e+12 -7.29586e+12 -7.5274e+12 -6.23584e+12 -4.18744e+12 -8.34189e+12 -8.37073e+12 -5.41157e+12 -8.90559e+12 -4.93101e+12 -7.55637e+12 -6.02862e+12 -6.56806e+12 -8.01626e+12 -4.93684e+12 -4.72332e+12 -6.52039e+12 -6.51849e+12 -8.86987e+12 -7.00818e+12 -6.92515e+12 -6.43468e+12 -6.61076e+12 -9.67483e+12 -6.33202e+12 -8.06003e+12 -8.54207e+12 -5.56871e+12 -6.84379e+12 -4.21055e+12 -1.19883e+13 -7.71458e+12 -5.57134e+12 -7.66417e+12 -8.4671e+12 -7.5487e+12 -4.80431e+12 -2.74266e+12 -5.93538e+12 -5.85496e+12 -3.29677e+12 -7.97041e+12 -4.40284e+12 -7.66949e+12 -7.05695e+12 -5.43104e+12 -5.66195e+12 -9.56707e+12 -5.28145e+12 -8.47433e+12 -8.81192e+12 -7.66125e+12 -5.28619e+12 -4.43599e+12 -5.06505e+12 -4.66454e+12 -5.22174e+12 -7.59924e+12 -6.81528e+12 -8.28404e+12 -6.18134e+12 -2.84637e+12 -4.00701e+12 -6.95853e+12 -4.93136e+12 -1.04294e+13 -4.34715e+12 -6.16534e+12 -7.12057e+12 -5.31202e+12 -7.59704e+12 -6.42302e+12 -5.16007e+12 -8.13121e+12 -4.47623e+12 -7.59831e+12 -6.80137e+12 -5.32719e+12 -5.61374e+12 -5.95711e+12 -5.91147e+12 -6.51101e+12 -7.35281e+12 -6.55782e+12 -6.88304e+12 -2.60668e+12 -5.85447e+12 -2.72172e+12 -5.86857e+12 -8.22417e+12 -6.34963e+12 -8.52002e+12 -5.25119e+12 -5.41294e+12 -4.00884e+12 -6.62132e+12 -6.6822e+12 -3.14821e+12 -4.91319e+12 -3.73169e+12 -5.24059e+12 -7.54273e+12 -4.38116e+12 -3.34558e+12 -4.68003e+12 -2.7694e+12 -3.73778e+12 -3.29464e+12 -4.4047e+12 -4.25075e+12 -6.20301e+12 -5.02683e+12 -3.4238e+12 -3.62407e+12 -2.6449e+12 -3.75834e+12 -4.1133e+12 -3.85237e+12 -3.23174e+12 -4.2016e+12 -4.55444e+12 -5.15764e+12 -2.726e+12 -4.62332e+12 -1.51855e+12 -3.98046e+12 -5.94546e+12 -7.70285e+12 -6.58665e+12 -3.22022e+12 -3.51009e+12 -3.011e+12 -7.80277e+12 -6.17219e+12 -5.17521e+12 -2.56853e+12 -3.9701e+12 -4.95748e+12 -3.36424e+12 -4.38191e+12 -3.86545e+12 -5.5122e+12 -6.81478e+12 -5.6483e+12 -4.15996e+12 -6.5368e+12 -1.02801e+13 -6.31496e+12 -8.15756e+12 -9.45217e+12 -9.48205e+12 -7.64594e+12 -5.8629e+12 -5.80021e+12 -4.52019e+12 -6.53282e+12 -8.68298e+12 -6.50915e+12 -8.03718e+12 -8.07821e+12 -6.79838e+12 -7.34731e+12 -8.17934e+12 -981050000000.0 -6.07451e+12 -5.99676e+12 -7.60356e+12 -5.91179e+12 -5.76699e+12 -7.48823e+12 -3.76952e+12 -7.59474e+12 -7.41267e+12 -7.05082e+12 -5.63458e+12 -5.29092e+12 -7.60315e+12 -6.48104e+12 -1.20883e+13 -5.09796e+12 -4.59402e+12 -6.05752e+12 -3.78122e+12 -3.14564e+12 -6.67446e+12 -4.43729e+12 -9.54819e+12 -5.53407e+12 -5.47136e+12 -8.57924e+12 -6.21508e+12 -6.51938e+12 -5.71382e+12 -9.11634e+12 -1.00148e+13 -2.97895e+12 -4.46334e+12 -7.37393e+12 -7.71514e+12 -5.43849e+12 -5.57605e+12 -4.38696e+12 -5.04925e+12 -5.24153e+12 -7.56994e+12 -6.35212e+12 -3.82234e+12 -5.48484e+12 -7.92944e+12 -4.99743e+12 -5.21424e+12 -8.08291e+12 -4.44694e+12 -5.37882e+12 -5.21528e+12 -7.11065e+12 -4.0987e+12 -5.55733e+12 -4.47891e+12 -4.99962e+12 -7.90348e+12 -4.06912e+12 -5.95501e+12 -6.77725e+12 -5.66474e+12 -4.49095e+12 -5.12262e+12 -5.3257e+12 -6.76638e+12 -6.77692e+12 -4.57081e+12 -4.97812e+12 -4.95326e+12 -6.06848e+12 -4.9252e+12 -5.36194e+12 -6.29533e+12 -2.66962e+12 -2.66904e+12 -2.85067e+12 -5.00935e+12 -3.38958e+12 -7.07709e+12 -5.83741e+12 -3.78256e+12 -4.49692e+12 -5.91398e+12 -3.59063e+12 -3.41006e+12 -4.46378e+12 -3.87679e+12 -2.65342e+12 -3.97222e+12 -6.29881e+12 -6.17498e+12 -3.77816e+12 -4.34858e+12 -3.40843e+12 -4.27099e+12 -4.50056e+12 -4.53527e+12 -4.87075e+12 -5.87273e+12 -6.75645e+12 -4.92648e+12 -5.2282e+12 -2.86275e+12 -7.49779e+12 -3.7217e+12 -5.69914e+12 -3.27077e+12 -3.67959e+12 -3.6079e+12 -8.44327e+12 -7.46887e+12 -3.3526e+12 -4.51793e+12 -7.97215e+12 -8.15221e+12 -5.673e+12 -5.86814e+12 -7.41106e+12 -6.55346e+12 -7.72732e+12 -5.97559e+12 -9.69561e+12 -5.6405e+12 -4.21239e+12 -7.32711e+12 -3.01021e+12 -5.0762e+12 -5.96447e+12 -4.98257e+12 -5.6115e+12 -8.37793e+12 -7.39982e+12 -6.33338e+12 -6.79037e+12 -4.7186e+12 -8.33035e+12 -6.0237e+12 -9.74886e+12 -9.10779e+12 -1.10645e+13 -2.75902e+12 -5.83499e+12 -2.49811e+12 -6.4203e+12 -4.13456e+12 -5.4953e+12 -1.95229e+12 -3.63653e+12 -2.71152e+12 -4.17074e+12 -3.32442e+12 -1.00691e+13 -3.41965e+12 -3.75766e+12 -4.22979e+12 -5.41352e+12 -4.91221e+12 -7.89082e+12 -7.17016e+12 -4.32902e+12 -4.75248e+12 -6.78653e+12 -5.50746e+12 -5.21202e+12 -4.28715e+12 -4.34703e+12 -6.25689e+12 -6.57514e+12 -6.54643e+12 -9.7956e+12 -4.71174e+12 -5.59293e+12 -5.33624e+12 -5.65358e+12 -8.26476e+12 -5.65837e+12 -6.0058e+12 -6.15986e+12 -7.38548e+12 -4.69163e+12 -5.4669e+12 -7.73736e+12 -7.15031e+12 -8.02821e+12 -4.07697e+12 -1.87377e+12 -4.0367e+12 -4.84614e+12 -2.95764e+12 -6.39828e+12 -6.48108e+12 -5.72072e+12 -3.22321e+12 -3.60641e+12 -6.63632e+12 -6.06576e+12 -6.35891e+12 -1.35538e+12 -3.04135e+12 -3.67485e+12 -3.18139e+12 -4.69891e+12 -4.566e+12 -6.32209e+12 -3.32039e+12 -2.12544e+12 -3.75135e+12 -4.86937e+12 -4.31196e+12 -4.78083e+12 -3.66891e+12 -2.86453e+12 -8.04875e+12 -4.89143e+12 -3.95893e+12 -4.56307e+12 -4.24286e+12 -2.80612e+12 -4.84286e+12 -2.40135e+12 -2.28606e+12 -5.16525e+12 -5.3546e+12 -4.45268e+12 -2.72048e+12 -3.41834e+12 -3.06822e+12 -6.32908e+12 -5.35383e+12 -4.65172e+12 -4.13073e+12 -5.37963e+12 -3.0332e+12 -4.22384e+12 -4.46982e+12 -4.46559e+12 -3.73753e+12 -3.22179e+12 -3.62191e+12 -4.17421e+12 -5.88885e+12 -4.36828e+12 -8.75089e+12 -5.25213e+12 -3.50734e+12 -2.50624e+12 -2.10646e+12 -3.63507e+12 -3.09467e+12 -8.29205e+12 -7.98542e+12 -7.14119e+12 -2.55897e+12 -4.26332e+12 -5.34092e+12 -4.25954e+12 -4.06487e+12 -5.6695e+12 -5.96927e+12 -6.05801e+12 -7.33835e+12 -5.86804e+12 -7.90333e+12 -4.76739e+12 -5.09125e+12 -3.2892e+12 -6.97409e+12 -5.22237e+12 -5.2632e+12 -5.96545e+12 -8.65977e+12 -7.54046e+12 -5.0276e+12 -3.48301e+12 -3.83567e+12 -5.94963e+12 -4.84591e+12 -6.29288e+12 -5.25601e+12 -8.66889e+12 -4.84956e+12 -8.03724e+12 -4.60952e+12 -2.7837e+12 -1.64035e+12 -2.60928e+12 -6.17425e+12 -4.77848e+12 -2.66783e+12 -5.31045e+12 -6.53899e+12 -4.19195e+12 -5.86562e+12 -4.45335e+12 -5.14395e+12 -6.45284e+12 -3.72061e+12 -3.85635e+12 -4.75632e+12 -4.67285e+12 -3.57512e+12 -3.16608e+12 -5.56291e+12 -4.46165e+12 -5.80577e+12 -4.90168e+12 -5.69837e+12 -3.79702e+12 -3.48954e+12 -2.15863e+12 -1.94307e+12 -4.74178e+12 -3.93425e+12 -3.81668e+12 -6.54253e+12 -5.33692e+12 -5.68388e+12 -4.10953e+12 -4.40356e+12 -6.09851e+12 -4.58174e+12 -3.75893e+12 -4.42079e+12 -3.75667e+12 -2.83588e+12 -4.51564e+12 -7.85591e+12 -6.43103e+12 -7.86614e+12 -4.3252e+12 -2.75269e+12 -3.37723e+12 -6.19342e+12 -4.19599e+12 -7.21077e+12 -5.43436e+12 -4.254e+12 -3.95267e+12 -5.194e+12 -5.32309e+12 -2.93716e+12 -4.41602e+12 -5.03929e+12 -2.19484e+12 -4.14379e+12 -4.73617e+12 -2.05666e+12 -5.57276e+12 -3.62073e+12 -6.6001e+12 -3.50543e+12 -1.23566e+12 -4.27906e+12 -4.07238e+12 -3.85027e+12 -3.72723e+12 -3.78973e+12 -3.48426e+12 -6.00218e+12 -1.75711e+12 -5.06739e+12 -2.92347e+12 -3.76812e+12 -2.10622e+12 -2.05359e+12 -5.95243e+12 -5.61735e+12 -5.31483e+12 -2.72572e+12 -3.19246e+12 -4.43134e+12 -3.23208e+12 -2.44893e+12 -3.80327e+12 -1.86421e+12 -4.55254e+12 -4.1243e+12 -3.41191e+12 -2.53754e+12 -3.73516e+12 -3.93269e+12 -5.89617e+12 -4.32494e+12 -4.55326e+12 -6.27455e+12 -3.94735e+12 -2.9857e+12 -4.94075e+12 -5.63753e+12 -4.49939e+12 -6.60556e+12 -3.59448e+12 -3.77501e+12 -3.12048e+12 -2.89248e+12 -5.14494e+12 -4.33731e+12 -4.28295e+12 -6.61138e+12 -7.06179e+12 -6.31192e+12 -4.80214e+12 -5.10924e+12 -5.53335e+12 -2.4877e+12 -1.2891e+12 -4.44148e+12 -4.93422e+12 -3.45229e+12 -3.94916e+12 -5.43633e+12 -4.73916e+12 -4.77535e+12 -7.57662e+12 -5.82719e+12 -4.96539e+12 -3.0953e+12 -3.36857e+12 -3.94254e+12 -5.26626e+12 -2.61854e+12 -4.67006e+12 -7.59781e+12 -5.10971e+12 -4.81447e+12 -3.86342e+12 -5.62939e+12 -5.68618e+12 -6.65283e+12 -4.30028e+12 -4.37329e+12 -2.22715e+12 -2.98642e+12 -3.23292e+12 -3.09545e+12 -5.29734e+12 -4.66424e+12 -5.75731e+12 -5.74214e+12 -6.4578e+12 -7.9064e+12 -4.64341e+12 -4.05558e+12 -3.89121e+12 -7.22363e+12 -4.05963e+12 -3.6825e+12 -4.68058e+12 -4.39309e+12 -5.51664e+12 -4.13276e+12 -4.02773e+12 -6.55231e+12 -4.87203e+12 -5.21641e+12 -2.11649e+12 -4.50105e+12 -4.4565e+12 -5.64745e+12 -5.57413e+12 -5.05988e+12 -3.51877e+12 -4.458e+12 -2.8788e+12 -4.03002e+12 -1.83673e+12 -6.61433e+12 -5.9195e+12 -3.75523e+12 -6.13016e+12 -4.96495e+12 -1.31857e+12 -6.44048e+12 -5.58341e+12 -6.46114e+12 -6.10115e+12 -3.16444e+12 -6.70941e+12 -3.24157e+12 -4.06678e+12 -1.79508e+12 -2.90813e+12 -3.76186e+12 -4.13096e+12 -2.86631e+12 -3.23301e+12 -2.83722e+12 -4.93047e+12 -4.28163e+12 -2.87962e+12 -3.1638e+12 -3.56706e+12 -1.33925e+12 -2.73152e+12 -2.42127e+12 -2.83644e+12 -3.39649e+12 -1.988e+12 -1.38127e+12 -4.18206e+12 -3.72568e+12 -3.54105e+12 -1.94859e+12 -1.36032e+12 -2.67179e+12 -4.14434e+12 -4.59885e+12 -3.55992e+12 -2.01954e+12 -3.92556e+12 -4.54046e+12 -2.08601e+12 -5.00654e+12 -6.42712e+12 -3.17301e+12 -5.21817e+12 -4.42409e+12 -4.0088e+12 -5.24689e+12 -4.41138e+12 -5.68691e+12 -2.42274e+12 -5.80639e+12 -5.14376e+12 -3.87135e+12 -3.46139e+12 -2.2964e+12 -3.35386e+12 -4.99588e+12 -3.85646e+12 -4.37386e+12 -3.37374e+12 -4.71958e+12 -3.82563e+12 -2.59826e+12 -6.15096e+12 -4.77061e+12 -5.81327e+12 -5.56281e+12 -5.70463e+12 -2.8924e+12 -4.89512e+12 -3.50975e+12 -4.51804e+12 -4.84737e+12 -3.18264e+12 -5.53773e+12 -8.33414e+12 -5.44426e+12 -4.8462e+12 -5.80699e+12 -3.76094e+12 -3.43196e+12 -5.66239e+12 -3.75243e+12 -5.25627e+12 -7.42461e+12 -4.68959e+12 -6.00225e+12 -5.9261e+12 -4.816e+12 -4.02067e+12 -3.90033e+12 -7.92716e+12 -3.94763e+12 -3.69709e+12 -6.03778e+12 -1.95183e+12 -2.16166e+12 -1.83639e+12 -4.01348e+12 -5.80703e+12 -5.97109e+12 -6.91993e+12 -6.01811e+12 -4.15437e+12 -3.76899e+12 -6.00597e+12 -4.78094e+12 -4.26809e+12 -3.43777e+12 -3.80232e+12 -4.10482e+12 -1.7458e+12 -4.97746e+12 -5.06547e+12 -3.16036e+12 -1.44615e+12 -4.80291e+12 -3.15945e+12 -4.0034e+12 -3.38536e+12 -3.47658e+12 -4.24425e+12 -4.33529e+12 -4.63254e+12 -5.0501e+12 -4.54634e+12 -5.85728e+12 -4.28876e+12 -3.40788e+12 -4.17027e+12 -3.46305e+12 -6.85261e+12 -4.34437e+12 -1.83696e+12 -3.30553e+12 -4.26898e+12 -1.91217e+12 -1.44886e+12 -2.54365e+12 -2.82437e+12 -2.18102e+12 -2.83016e+12 -1.69849e+12 -1.6907e+12 -2.23519e+12 -4.23031e+12 -3.34721e+12 -1.53481e+12 -1.0756e+12 -2.22744e+12 -521832000000.0 -4.37606e+12 -1.23039e+12 -912133000000.0 -3.16142e+12 -1.62545e+12 -1.01205e+12 -1.9207e+12 -2.73401e+12 -1.47216e+12 -2.22287e+12 -2.96919e+12 -3.24865e+12 -2.65036e+12 -3.28098e+12 -1.151e+12 -4.36499e+12 -2.54546e+12 -4.00477e+12 -3.21337e+12 -3.43791e+12 -2.35667e+12 -3.88187e+12 -3.51179e+12 -1.12316e+12 -3.65697e+12 -2.52297e+12 -5.61035e+12 -2.91588e+12 -2.70916e+12 -2.12281e+12 -2.51768e+12 -2.1674e+12 -2.82266e+12 -2.27889e+12 -1.45186e+12 -3.19135e+12 -2.65146e+12 -4.24986e+12 -5.403e+12 -4.84902e+12 -2.27946e+12 -2.4261e+12 -4.89205e+12 -2.48772e+12 -2.93836e+12 -4.75472e+12 -4.53924e+12 -5.78293e+12 -4.02032e+12 -5.9409e+12 -5.76234e+12 -4.91537e+12 -5.23066e+12 -5.34287e+12 -7.03948e+12 -5.08285e+12 -3.45272e+12 -4.38756e+12 -5.35552e+12 -7.87463e+12 -3.84061e+12 -3.96376e+12 -4.38996e+12 -3.71199e+12 -4.67986e+12 -5.75839e+12 -6.84391e+12 -3.34548e+12 -7.3453e+12 -5.15723e+12 -5.80232e+12 -5.00018e+12 -5.47943e+12 -4.95713e+12 -3.65241e+12 -3.77085e+12 -2.68212e+12 -5.72886e+12 -6.65781e+12 -1.49052e+12 -3.85654e+12 -2.30305e+12 -3.08354e+12 -3.45081e+12 -4.73753e+12 -5.17269e+12 -4.63872e+12 -4.81806e+12 -3.18991e+12 -4.79078e+12 -7.88742e+12 -5.29468e+12 -3.18226e+12 -4.73618e+12 -2.95763e+12 -3.10786e+12 -4.11319e+12 -4.7459e+12 -8.38499e+12 -4.23281e+12 -5.20081e+12 -4.35335e+12 -3.47212e+12 -4.1907e+12 -4.14101e+12 -2.10133e+12 -3.49184e+12 -3.97109e+12 -3.63755e+12 -3.09772e+12 -4.60689e+12 -4.11066e+12 -2.57618e+12 -3.01771e+12 -2.79322e+12 -3.55935e+12 -1.89187e+12 -3.74257e+12 -2.43031e+12 -1.91186e+12 -2.68649e+12 -3.50884e+12 -2.30264e+12 -2.50179e+12 -2.87145e+12 -2.66714e+12 -1.7445e+12 -2.55027e+12 -1.52925e+12 -2.63258e+12 -2.16392e+12 -2.75614e+12 -1.26065e+12 -3.29151e+12 -2.49491e+12 -1.93614e+12 -2.7605e+12 -2.78294e+12 -1.97765e+12 -2.1176e+12 -1.09039e+12 -3.13289e+12 -932799000000.0 -1.2172e+12 -2.01138e+12 -1.59025e+12 -1.1054e+12 -1.61645e+12 -1.72682e+12 -2.54335e+12 -1.95987e+12 -638476000000.0 -664061000000.0 -1.99437e+12 -3.60155e+12 -3.67041e+12 -4.68606e+12 -1.73949e+12 -1.32353e+12 -1.2861e+12 -2.08314e+12 -1.23957e+12 -2.69992e+12 -3.41441e+12 -2.60034e+12 -3.13565e+12 -3.57881e+12 -3.03492e+12 -1.87468e+12 -3.72707e+12 -3.34351e+12 -4.06792e+12 -1.57409e+12 -1.8056e+12 -1.84917e+12 -4.00558e+12 -3.07017e+12 -2.33845e+12 -1.9344e+12 -3.58673e+12 -2.35481e+12 -3.42798e+12 -3.91744e+12 -2.7202e+12 -2.30455e+12 -1.79982e+12 -4.83255e+12 -4.12557e+12 -3.46937e+12 -1.70882e+12 -2.14586e+12 -2.66375e+12 -4.79434e+12 -1.51041e+12 -4.93009e+12 -3.68793e+12 -5.90945e+12 -4.88091e+12 -4.3045e+12 -2.78986e+12 -2.24912e+12 -2.63355e+12 -3.05932e+12 -3.49721e+12 -3.05524e+12 -3.15152e+12 -3.29618e+12 -4.15285e+12 -3.0618e+12 -4.65639e+12 -3.05602e+12 -4.28735e+12 -6.20426e+12 -3.94739e+12 -4.65576e+12 -3.93236e+12 -3.46315e+12 -2.17043e+12 -5.28673e+12 -4.47837e+12 -3.75724e+12 -2.19063e+12 -3.60854e+12 -3.59657e+12 -2.70269e+12 -4.68768e+12 -5.04693e+12 -5.5613e+12 -3.4331e+12 -3.92837e+12 -3.40066e+12 -4.11902e+12 -5.70409e+12 -4.52137e+12 -3.11795e+12 -3.16841e+12 -2.62855e+12 -3.82787e+12 -3.82448e+12 -2.10378e+12 -3.48448e+12 -3.00323e+12 -2.15077e+12 -2.04113e+12 -4.66358e+12 -1.75506e+12 -3.18253e+12 -2.75883e+12 -2.89026e+12 -2.0299e+12 -2.28113e+12 -3.06848e+12 -2.72032e+12 -2.73167e+12 -2.61271e+12 -1.99395e+12 -842310000000.0 -2.34402e+12 -3.35313e+12 -275618000000.0 -2.19441e+12 -1.76494e+12 -1.73898e+12 -2.56942e+12 -1.89527e+12 -2.22478e+12 -1.00441e+12 -1.95956e+12 -1.58131e+12 -2.14708e+12 -1.37633e+12 -1.4421e+12 -1.54059e+12 -1.43122e+12 -2.06797e+12 -1.78373e+12 -1.68445e+12 -1.92113e+12 -910810000000.0 -452730000000.0 -1.19495e+12 -1.0177e+12 -1.36546e+12 -937409000000.0 -1.01175e+12 -1.19595e+12 -897268000000.0 -1.41927e+12 -411198000000.0 -2.16875e+12 -1.87373e+12 -1.53993e+12 -1.80938e+12 -1.78691e+12 -1.82914e+12 -3.16795e+12 -1.44367e+12 -2.22931e+12 -1.09296e+12 -1.89301e+12 -2.26043e+12 -1.52846e+12 -3.38805e+12 -3.38759e+12 -1.73514e+12 -2.05726e+12 -2.44975e+12 -2.53767e+12 -2.18589e+12 -4.77914e+12 -2.72482e+12 -959714000000.0 -3.94798e+12 -3.26714e+12 -3.10799e+12 -2.86455e+12 -2.30351e+12 -4.0623e+12 -2.65814e+12 -1.71638e+12 -3.62767e+12 -2.98627e+12 -4.55539e+12 -4.2838e+12 -4.04086e+12 -3.1039e+12 -1.4258e+12 -3.69514e+12 -3.55299e+12 -4.95665e+12 -2.75964e+12 -6.37696e+12 -6.02013e+12 -3.65141e+12 -3.32734e+12 -3.00777e+12 -6.11535e+12 -5.51081e+12 -2.88487e+12 -5.02762e+12 -4.56364e+12 -3.24285e+12 -1.40275e+12 -5.26089e+12 -3.74528e+12 -2.98943e+12 -2.2958e+12 -2.90168e+12 -6.37478e+12 -1.99985e+12 -2.65554e+12 -4.05903e+12 -4.98067e+12 -3.80297e+12 -3.66806e+12 -3.6811e+12 -6.56112e+12 -883780000000.0 -1.94164e+12 -2.88349e+12 -3.8974e+12 -1.82878e+12 -2.65392e+12 -2.34379e+12 -1.56661e+12 -3.08101e+12 -2.51376e+12 -2.55554e+12 -1.67876e+12 -2.10267e+12 -3.18583e+12 -1.41273e+12 -1.80065e+12 -3.85161e+12 -2.05891e+12 -2.64021e+12 -2.03064e+12 -1.76635e+12 -1.85468e+12 -4.88639e+12 -3.16983e+12 -1.27949e+12 -1.29465e+12 -1.54498e+12 -817307000000.0 -1.17551e+12 -2.32681e+12 -311302000000.0 -1.37572e+12 -2.45986e+12 -416405000000.0 -634322000000.0 -991633000000.0 -617030000000.0 -1.21948e+12 -816867000000.0 -679969000000.0 -601966000000.0 -446346000000.0 -344335000000.0 -250854000000.0 -1.14843e+12 -858094000000.0 -426556000000.0 -532108000000.0 -277743000000.0 -1.18791e+12 -423417000000.0 -1.44746e+12 -586614000000.0 -1.4894e+12 -1.03967e+12 -1.20864e+12 -1.76675e+12 -2.53808e+12 -575452000000.0 -790857000000.0 -844120000000.0 -466683000000.0 -1.05497e+12 -1.2751e+12 -2.79434e+12 -3.54006e+12 -2.6147e+12 -2.38916e+12 -1.25405e+12 -2.92843e+12 -1.8145e+12 -4.10702e+12 -1.9137e+12 -1.12986e+12 -1.60897e+12 -4.085e+12 -3.21346e+12 -1.7754e+12 -2.11607e+12 -1.95881e+12 -5.21395e+12 -1.70328e+12 -3.68617e+12 -3.79754e+12 -1.49614e+12 -2.69663e+12 -3.56053e+12 -2.67283e+12 -4.39804e+12 -1.33275e+12 -2.55756e+12 -2.63606e+12 -3.02409e+12 -2.42498e+12 -3.4561e+12 -3.70053e+12 -3.81967e+12 -3.55078e+12 -2.60091e+12 -2.12788e+12 -2.10962e+12 -2.20551e+12 -1.69758e+12 -3.91418e+12 -5.45705e+12 -3.01767e+12 -3.91844e+12 -1.178e+12 -982599000000.0 -1.39391e+12 -3.52273e+12 -1.28776e+12 -3.46799e+12 -3.2359e+12 -2.73325e+12 -293888000000.0 -1.98697e+12 -1.99072e+12 -2.16117e+12 -841308000000.0 -2.31344e+12 -1.73491e+12 -3.82912e+12 -2.18378e+12 -3.29736e+12 -3.52384e+12 -1.15302e+12 -2.93024e+12 -2.33316e+12 -2.21283e+12 -2.28859e+12 -2.35404e+12 -1.68713e+12 -1.39383e+12 -4.72565e+12 -1.33907e+12 -1.02817e+12 -559421000000.0 -1.21731e+12 -3.21588e+12 -1.98195e+12 -1.47207e+12 -1.1614e+12 -1.6654e+12 -608883000000.0 -2.02853e+12 -1.53057e+12 -2.51907e+12 -936525000000.0 -1.50802e+12 -645316000000.0 -394883000000.0 -862553000000.0 -1.47839e+12 -1.306e+12 -190347000000.0 -387397000000.0 -610513000000.0 -290328000000.0 -239184000000.0 -479657000000.0 -321442000000.0 -404502000000.0 -187482000000.0 -399703000000.0 -272771000000.0 -1.19149e+12 -413863000000.0 -1.13414e+12 -1.10026e+12 -2.0462e+12 -944612000000.0 -1.52104e+12 -795456000000.0 -1.70464e+12 -1.47517e+12 -1.24814e+12 -1.15195e+12 -2.02334e+12 -1.79586e+12 -1.38895e+12 -1.74135e+12 -3.62136e+12 -2.86136e+12 -1.57134e+12 -2.08832e+12 -2.42164e+12 -1.56726e+12 -1.03851e+12 -2.85649e+12 -1.84219e+12 -2.05948e+12 -1.50313e+12 -2.50402e+12 -3.91654e+12 -3.13207e+12 -2.30731e+12 -2.54576e+12 -1.75198e+12 -3.38439e+12 -2.68986e+12 -2.13932e+12 -4.56055e+12 -2.37681e+12 -1.64897e+12 -1.43788e+12 -2.82292e+12 -3.41081e+12 -2.82558e+12 -2.20882e+12 -1.74416e+12 -1.11787e+12 -2.51377e+12 -3.65838e+12 -2.39385e+12 -694514000000.0 -1.22747e+12 -1.74793e+12 -2.43594e+12 -1.51295e+12 -2.68506e+12 -1.47376e+12 -2.66708e+12 -1.64754e+12 -2.78927e+12 -1.46774e+12 -1.61919e+12 -1.24793e+12 -1.949e+12 -1.95991e+12 -2.16002e+12 -1.54286e+12 -1.03881e+12 -3.41038e+12 -1.45512e+12 -2.0746e+12 -1.55843e+12 -1.23522e+12 -1.24502e+12 -1.83667e+12 -1.47383e+12 -1.51053e+12 -2.42222e+12 -1.37486e+12 -1.49386e+12 -857778000000.0 -948923000000.0 -1.04866e+12 -1.18744e+12 -608792000000.0 -309766000000.0 -551652000000.0 -386338000000.0 -716694000000.0 -577444000000.0 -206552000000.0 -141439000000.0 -230747000000.0 -226302000000.0 -275299000000.0 -191914000000.0 -374537000000.0 -234107000000.0 -114078000000.0 -431340000000.0 -710938000000.0 -236123000000.0 -394110000000.0 -542488000000.0 -1.60244e+12 -908571000000.0 -1.99431e+12 -792072000000.0 -1.57528e+12 -1.38088e+12 -95831600000.0 -1.4835e+12 -2.5586e+12 -867578000000.0 -1.38579e+12 -1.58928e+12 -1.53476e+12 -1.52931e+12 -1.74715e+12 -1.07929e+12 -1.1566e+12 -1.74049e+12 -3.36423e+12 -1.7975e+12 -1.70468e+12 -1.94627e+12 -1.50654e+12 -2.60866e+12 -2.61661e+12 -2.93032e+12 -1.01142e+12 -3.32231e+12 -1.41625e+12 -964785000000.0 -1.75922e+12 -3.05746e+12 -2.02012e+12 -1.39371e+12 -2.17153e+12 -1.66163e+12 -1.32146e+12 -1.54904e+12 -925976000000.0 -2.21892e+12 -945130000000.0 -1.16233e+12 -2.09724e+12 -1.63775e+12 -1.69729e+12 -2.45507e+12 -1.47335e+12 -759251000000.0 -2.74344e+12 -1.23674e+12 -907411000000.0 -672191000000.0 -1.65683e+12 -1.98534e+12 -868532000000.0 -239749000000.0 -1.46003e+12 -1.04156e+12 -989670000000.0 -692143000000.0 -1.37258e+12 -1.18907e+12 -374574000000.0 -1.39484e+12 -2.33574e+12 -532640000000.0 -569706000000.0 -1.0904e+12 -402065000000.0 -247502000000.0 -865113000000.0 -115685000000.0 -229008000000.0 -277557000000.0 -238724000000.0 -317053000000.0 -220849000000.0 -95916100000.0 -200934000000.0 -387495000000.0 -275588000000.0 -619034000000.0 -1.3406e+12 -166875000000.0 -911088000000.0 -923575000000.0 -511135000000.0 -886062000000.0 -847475000000.0 -770045000000.0 -1.05298e+12 -1.12144e+12 -1.07965e+12 -1.31492e+12 -1.51992e+12 -1.53682e+12 -2.09364e+12 -599519000000.0 -1.88413e+12 -2.64793e+12 -1.07695e+12 -980481000000.0 -1.17248e+12 -1.16611e+12 -290386000000.0 -1.58674e+12 -934930000000.0 -1.63612e+12 -1.10029e+12 -1.6051e+12 -1.488e+12 -1.39131e+12 -966646000000.0 -1.17741e+12 -517858000000.0 -830105000000.0 -523883000000.0 -783228000000.0 -486583000000.0 -1.05114e+12 -1.62857e+12 -1.02927e+12 -193096000000.0 -486132000000.0 -727351000000.0 -1.34705e+12 -762384000000.0 -867954000000.0 -429222000000.0 -940551000000.0 -428267000000.0 -1.28163e+12 -851923000000.0 -1.07418e+12 -649831000000.0 -509876000000.0 -430278000000.0 -134886000000.0 -62200800000.0 -522843000000.0 -139618000000.0 -281229000000.0 -302009000000.0 -314212000000.0 -204476000000.0 -259582000000.0 -411828000000.0 -1.22634e+12 -272532000000.0 -215028000000.0 -1.22651e+12 -491884000000.0 -651098000000.0 -1.09696e+12 -528530000000.0 -1.26824e+12 -471475000000.0 -731805000000.0 -626429000000.0 -536593000000.0 -476397000000.0 -837354000000.0 -708102000000.0 -467650000000.0 -787958000000.0 -997212000000.0 -431667000000.0 -1.28808e+12 -932438000000.0 -529252000000.0 -42878000000.0 -62821600000.0 -318500000000.0 -192237000000.0 -624781000000.0 -375964000000.0 -299606000000.0 -228005000000.0 -392245000000.0 -279836000000.0 -251387000000.0 -87954700000.0 -416521000000.0 -272111000000.0 -142446000000.0 -393367000000.0 -270651000000.0 -218020000000.0 -264467000000.0 -138135000000.0 -328871000000.0 -140187000000.0 -421700000000.0 -305301000000.0 -242220000000.0 -193868000000.0 -550264000000.0 -162226000000.0 -143449000000.0 -136399000000.0 -93488100000.0 