# vtk DataFile Version 2.0
Time step 46
ASCII
DATASET UNSTRUCTURED_GRID
POINTS 4650 float
155145.0 405380.0 0
158458.0 403369.0 0
161863.0 401370.0 0
168905.0 403183.0 0
175508.0 403424.0 0
324492.0 403424.0 0
331095.0 403183.0 0
338137.0 401370.0 0
341542.0 403369.0 0
344855.0 405380.0 0
148409.0 409568.0 0
151776.0 407467.0 0
155077.0 409181.0 0
161631.0 405722.0 0
165021.0 403799.0 0
172121.0 405491.0 0
178923.0 405485.0 0
182692.0 404352.0 0
186569.0 405108.0 0
190522.0 404929.0 0
194481.0 405000.0 0
198446.0 404994.0 0
202414.0 404993.0 0
206383.0 404992.0 0
210350.0 404992.0 0
214317.0 404991.0 0
218282.0 404990.0 0
222247.0 404990.0 0
226212.0 404990.0 0
230176.0 404989.0 0
234141.0 404989.0 0
238106.0 404989.0 0
242070.0 404988.0 0
246035.0 404988.0 0
250000.0 404988.0 0
253965.0 404988.0 0
257930.0 404988.0 0
261894.0 404989.0 0
265859.0 404989.0 0
269824.0 404989.0 0
273788.0 404990.0 0
277753.0 404990.0 0
281718.0 404990.0 0
285683.0 404991.0 0
289650.0 404992.0 0
293617.0 404992.0 0
297586.0 404993.0 0
301554.0 404994.0 0
305519.0 405000.0 0
309478.0 404929.0 0
313431.0 405108.0 0
317308.0 404352.0 0
321077.0 405485.0 0
327879.0 405491.0 0
334979.0 403799.0 0
338369.0 405722.0 0
344923.0 409181.0 0
348224.0 407467.0 0
351591.0 409568.0 0
145058.0 411664.0 0
151716.0 411162.0 0
158576.0 408009.0 0
164961.0 407793.0 0
168831.0 407659.0 0
172255.0 409589.0 0
175547.0 407481.0 0
178862.0 409667.0 0
182618.0 408348.0 0
186527.0 409103.0 0
190503.0 408925.0 0
194480.0 409002.0 0
198453.0 408996.0 0
202423.0 408994.0 0
206391.0 408993.0 0
210358.0 408992.0 0
214323.0 408992.0 0
218288.0 408991.0 0
222252.0 408990.0 0
226216.0 408990.0 0
230180.0 408990.0 0
234143.0 408989.0 0
238107.0 408989.0 0
242072.0 408988.0 0
246036.0 408988.0 0
250000.0 408988.0 0
253964.0 408988.0 0
257928.0 408988.0 0
261893.0 408989.0 0
265857.0 408989.0 0
269820.0 408990.0 0
273784.0 408990.0 0
277748.0 408990.0 0
281712.0 408991.0 0
285677.0 408992.0 0
289642.0 408992.0 0
293609.0 408993.0 0
297577.0 408994.0 0
301547.0 408996.0 0
305520.0 409002.0 0
309497.0 408925.0 0
313473.0 409103.0 0
317382.0 408348.0 0
321138.0 409667.0 0
324453.0 407481.0 0
327745.0 409589.0 0
331169.0 407659.0 0
335039.0 407793.0 0
341424.0 408009.0 0
348284.0 411162.0 0
354942.0 411664.0 0
141725.0 413750.0 0
148388.0 413249.0 0
155062.0 412836.0 0
161825.0 410104.0 0
169143.0 411951.0 0
330857.0 411951.0 0
338175.0 410104.0 0
344938.0 412836.0 0
351612.0 413249.0 0
358275.0 413750.0 0
138408.0 415825.0 0
141768.0 417474.0 0
145071.0 415366.0 0
148471.0 416938.0 0
151764.0 414848.0 0
155231.0 416443.0 0
158727.0 412379.0 0
162167.0 414081.0 0
165313.0 411755.0 0
172131.0 414469.0 0
175326.0 412080.0 0
178922.0 413755.0 0
182609.0 412326.0 0
186496.0 413112.0 0
190462.0 412913.0 0
194433.0 413007.0 0
198403.0 412998.0 0
202373.0 412997.0 0
206343.0 412995.0 0
210312.0 412994.0 0
214280.0 412993.0 0
218249.0 412992.0 0
222218.0 412991.0 0
226188.0 412990.0 0
230157.0 412990.0 0
234126.0 412989.0 0
238095.0 412989.0 0
242064.0 412989.0 0
246032.0 412988.0 0
250000.0 412988.0 0
253968.0 412988.0 0
257936.0 412989.0 0
261905.0 412989.0 0
265874.0 412989.0 0
269843.0 412990.0 0
273812.0 412990.0 0
277782.0 412991.0 0
281751.0 412992.0 0
285720.0 412993.0 0
289688.0 412994.0 0
293657.0 412995.0 0
297627.0 412997.0 0
301597.0 412998.0 0
305567.0 413007.0 0
309538.0 412913.0 0
313504.0 413112.0 0
317391.0 412326.0 0
321078.0 413755.0 0
324674.0 412080.0 0
327869.0 414469.0 0
334687.0 411755.0 0
337833.0 414081.0 0
341273.0 412379.0 0
344769.0 416443.0 0
348236.0 414848.0 0
351529.0 416938.0 0
354929.0 415366.0 0
358232.0 417474.0 0
361592.0 415825.0 0
131808.0 419954.0 0
135103.0 417893.0 0
138470.0 419569.0 0
145178.0 419095.0 0
151946.0 418507.0 0
158991.0 416357.0 0
162476.0 418016.0 0
165691.0 415685.0 0
169256.0 417207.0 0
175705.0 416094.0 0
179221.0 417915.0 0
182821.0 416293.0 0
186679.0 417174.0 0
190629.0 416892.0 0
194589.0 417019.0 0
198551.0 416996.0 0
202514.0 417000.0 0
206479.0 416997.0 0
210445.0 416996.0 0
214409.0 416994.0 0
218371.0 416993.0 0
222331.0 416992.0 0
226288.0 416991.0 0
230243.0 416990.0 0
234196.0 416990.0 0
238148.0 416989.0 0
242100.0 416989.0 0
246050.0 416988.0 0
250000.0 416988.0 0
253950.0 416988.0 0
257900.0 416989.0 0
261852.0 416989.0 0
265804.0 416990.0 0
269757.0 416990.0 0
273712.0 416991.0 0
277669.0 416992.0 0
281629.0 416993.0 0
285591.0 416994.0 0
289555.0 416996.0 0
293521.0 416997.0 0
297486.0 417000.0 0
301449.0 416996.0 0
305411.0 417019.0 0
309371.0 416892.0 0
313321.0 417174.0 0
317179.0 416293.0 0
320779.0 417915.0 0
324295.0 416094.0 0
330744.0 417207.0 0
334309.0 415685.0 0
337524.0 418016.0 0
341009.0 416357.0 0
348054.0 418507.0 0
354822.0 419095.0 0
361530.0 419569.0 0
364897.0 417893.0 0
368192.0 419954.0 0
128533.0 422005.0 0
135173.0 421661.0 0
141892.0 421216.0 0
148645.0 420606.0 0
155489.0 420071.0 0
159271.0 420311.0 0
165996.0 419613.0 0
172813.0 418851.0 0
327187.0 418851.0 0
334004.0 419613.0 0
340729.0 420311.0 0
344511.0 420071.0 0
351355.0 420606.0 0
358108.0 421216.0 0
364827.0 421661.0 0
371467.0 422005.0 0
125286.0 424037.0 0
131899.0 423759.0 0
135298.0 425458.0 0
138579.0 423326.0 0
142035.0 424962.0 0
145371.0 422861.0 0
152215.0 422154.0 0
155773.0 423771.0 0
162758.0 421944.0 0
169549.0 421171.0 0
173049.0 422869.0 0
176322.0 420622.0 0
179808.0 422463.0 0
183085.0 420263.0 0
186884.0 421379.0 0
190811.0 420864.0 0
194766.0 421037.0 0
198722.0 420991.0 0
202676.0 421000.0 0
206628.0 420997.0 0
210578.0 420995.0 0
214526.0 420994.0 0
218473.0 420993.0 0
222417.0 420992.0 0
226361.0 420991.0 0
230302.0 420990.0 0
234243.0 420990.0 0
238183.0 420989.0 0
242122.0 420989.0 0
246061.0 420988.0 0
250000.0 420988.0 0
253939.0 420988.0 0
257878.0 420989.0 0
261817.0 420989.0 0
265757.0 420990.0 0
269698.0 420990.0 0
273639.0 420991.0 0
277583.0 420992.0 0
281527.0 420993.0 0
285474.0 420994.0 0
289422.0 420995.0 0
293372.0 420997.0 0
297324.0 421000.0 0
301278.0 420991.0 0
305234.0 421037.0 0
309189.0 420864.0 0
313116.0 421379.0 0
316915.0 420263.0 0
320192.0 422463.0 0
323678.0 420622.0 0
326951.0 422869.0 0
330451.0 421171.0 0
337242.0 421944.0 0
344227.0 423771.0 0
347785.0 422154.0 0
354629.0 422861.0 0
357965.0 424962.0 0
361421.0 423326.0 0
364702.0 425458.0 0
368101.0 423759.0 0
374714.0 424037.0 0
119482.0 427655.0 0
123067.0 427018.0 0
128655.0 425854.0 0
132056.0 427606.0 0
138729.0 427107.0 0
145494.0 426667.0 0
148950.0 424214.0 0
152511.0 425853.0 0
156093.0 427570.0 0
159538.0 424256.0 0
163037.0 425869.0 0
166272.0 423536.0 0
169782.0 425148.0 0
176529.0 424653.0 0
180026.0 426451.0 0
183329.0 424256.0 0
187033.0 425595.0 0
190904.0 424835.0 0
194842.0 425053.0 0
198785.0 424989.0 0
202728.0 425002.0 0
206671.0 424997.0 0
210613.0 424996.0 0
214555.0 424994.0 0
218495.0 424993.0 0
222435.0 424992.0 0
226374.0 424991.0 0
230312.0 424990.0 0
234250.0 424989.0 0
238188.0 424989.0 0
242125.0 424989.0 0
246063.0 424988.0 0
250000.0 424988.0 0
253937.0 424988.0 0
257875.0 424989.0 0
261812.0 424989.0 0
265750.0 424989.0 0
269688.0 424990.0 0
273626.0 424991.0 0
277565.0 424992.0 0
281505.0 424993.0 0
285445.0 424994.0 0
289387.0 424996.0 0
293329.0 424997.0 0
297272.0 425002.0 0
301215.0 424989.0 0
305158.0 425053.0 0
309096.0 424835.0 0
312967.0 425595.0 0
316671.0 424256.0 0
319974.0 426451.0 0
323471.0 424653.0 0
330218.0 425148.0 0
333728.0 423536.0 0
336963.0 425869.0 0
340462.0 424256.0 0
343907.0 427570.0 0
347489.0 425853.0 0
351050.0 424214.0 0
354506.0 426667.0 0
361271.0 427107.0 0
367944.0 427606.0 0
371345.0 425854.0 0
376933.0 427018.0 0
380518.0 427655.0 0
116206.0 429697.0 0
119552.0 431329.0 0
126376.0 428846.0 0
135471.0 429293.0 0
142179.0 428745.0 0
149136.0 427742.0 0
152863.0 429578.0 0
159843.0 428198.0 0
166535.0 427467.0 0
173258.0 426871.0 0
326742.0 426871.0 0
333465.0 427467.0 0
340157.0 428198.0 0
347137.0 429578.0 0
350864.0 427742.0 0
357821.0 428745.0 0
364529.0 429293.0 0
373624.0 428846.0 0
380448.0 431329.0 0
383794.0 429697.0 0
109544.0 433864.0 0
112885.0 431773.0 0
116224.0 433364.0 0
123195.0 430943.0 0
129715.0 430581.0 0
133103.0 432266.0 0
138870.0 430916.0 0
142202.0 432514.0 0
145629.0 430545.0 0
149449.0 431184.0 0
156258.0 431549.0 0
163327.0 429820.0 0
170009.0 429127.0 0
173443.0 430872.0 0
176728.0 428638.0 0
180219.0 430435.0 0
183535.0 428252.0 0
187152.0 429813.0 0
190966.0 428808.0 0
194900.0 429069.0 0
198840.0 428987.0 0
202778.0 429002.0 0
206716.0 428996.0 0
210652.0 428996.0 0
214588.0 428994.0 0
218522.0 428993.0 0
222457.0 428992.0 0
226392.0 428991.0 0
230326.0 428990.0 0
234261.0 428990.0 0
238195.0 428989.0 0
242130.0 428989.0 0
246065.0 428988.0 0
250000.0 428988.0 0
253935.0 428988.0 0
257870.0 428989.0 0
261805.0 428989.0 0
265739.0 428990.0 0
269674.0 428990.0 0
273608.0 428991.0 0
277543.0 428992.0 0
281478.0 428993.0 0
285412.0 428994.0 0
289348.0 428996.0 0
293284.0 428996.0 0
297222.0 429002.0 0
301160.0 428987.0 0
305100.0 429069.0 0
309034.0 428808.0 0
312848.0 429813.0 0
316465.0 428252.0 0
319781.0 430435.0 0
323272.0 428638.0 0
326557.0 430872.0 0
329991.0 429127.0 0
336673.0 429820.0 0
343742.0 431549.0 0
350551.0 431184.0 0
354371.0 430545.0 0
357798.0 432514.0 0
361130.0 430916.0 0
366897.0 432266.0 0
370285.0 430581.0 0
376805.0 430943.0 0
383776.0 433364.0 0
387115.0 431773.0 0
390456.0 433864.0 0
106199.0 435960.0 0
112899.0 435474.0 0
119612.0 434952.0 0
123320.0 434895.0 0
126527.0 432758.0 0
129904.0 434476.0 0
136544.0 433937.0 0
145291.0 434421.0 0
149006.0 434547.0 0
152707.0 433383.0 0
160152.0 432143.0 0
166789.0 431410.0 0
170210.0 433206.0 0
176921.0 432600.0 0
183648.0 432337.0 0
187274.0 433842.0 0
191062.0 432784.0 0
194981.0 433091.0 0
198910.0 432985.0 0
202838.0 433005.0 0
206766.0 432998.0 0
210694.0 432997.0 0
214623.0 432995.0 0
218552.0 432994.0 0
222481.0 432993.0 0
226411.0 432991.0 0
230342.0 432991.0 0
234273.0 432990.0 0
238204.0 432989.0 0
242136.0 432989.0 0
246068.0 432988.0 0
250000.0 432988.0 0
253932.0 432988.0 0
257864.0 432989.0 0
261796.0 432989.0 0
265727.0 432990.0 0
269658.0 432991.0 0
273589.0 432991.0 0
277519.0 432993.0 0
281448.0 432994.0 0
285377.0 432995.0 0
289306.0 432997.0 0
293234.0 432998.0 0
297162.0 433005.0 0
301090.0 432985.0 0
305019.0 433091.0 0
308938.0 432784.0 0
312726.0 433842.0 0
316352.0 432337.0 0
323079.0 432600.0 0
329790.0 433206.0 0
333211.0 431410.0 0
339848.0 432143.0 0
347293.0 433383.0 0
350994.0 434547.0 0
354709.0 434421.0 0
363456.0 433937.0 0
370096.0 434476.0 0
373473.0 432758.0 0
376680.0 434895.0 0
380388.0 434952.0 0
387101.0 435474.0 0
393801.0 435960.0 0
102861.0 438052.0 0
109582.0 437609.0 0
116291.0 437041.0 0
119731.0 438557.0 0
126687.0 436673.0 0
133313.0 436152.0 0
136710.0 437807.0 0
140036.0 435643.0 0
147261.0 437721.0 0
151484.0 437187.0 0
155251.0 436240.0 0
159100.0 435928.0 0
162924.0 434985.0 0
166847.0 435320.0 0
173716.0 434841.0 0
180298.0 434481.0 0
319702.0 434481.0 0
326284.0 434841.0 0
333153.0 435320.0 0
337076.0 434985.0 0
340900.0 435928.0 0
344749.0 436240.0 0
348516.0 437187.0 0
352739.0 437721.0 0
359964.0 435643.0 0
363290.0 437807.0 0
366687.0 436152.0 0
373313.0 436673.0 0
380269.0 438557.0 0
383709.0 437041.0 0
390418.0 437609.0 0
397139.0 438052.0 0
99521.1 440146.0 0
102978.0 441924.0 0
106274.0 439762.0 0
109737.0 441398.0 0
113002.0 439207.0 0
116453.0 440749.0 0
123456.0 438865.0 0
126847.0 440580.0 0
130112.0 438367.0 0
133598.0 440062.0 0
139978.0 439466.0 0
143392.0 437791.0 0
161197.0 439250.0 0
165025.0 438836.0 0
168917.0 438649.0 0
172756.0 438640.0 0
176530.0 437582.0 0
180317.0 438448.0 0
183709.0 436390.0 0
187339.0 437831.0 0
191102.0 436769.0 0
195003.0 437090.0 0
198917.0 436984.0 0
202833.0 437007.0 0
206752.0 436999.0 0
210672.0 436998.0 0
214596.0 436996.0 0
218522.0 436994.0 0
222450.0 436993.0 0
226381.0 436991.0 0
230314.0 436990.0 0
234249.0 436990.0 0
238186.0 436989.0 0
242123.0 436989.0 0
246061.0 436989.0 0
250000.0 436988.0 0
253939.0 436989.0 0
257877.0 436989.0 0
261814.0 436989.0 0
265751.0 436990.0 0
269686.0 436990.0 0
273619.0 436991.0 0
277550.0 436993.0 0
281478.0 436994.0 0
285404.0 436996.0 0
289328.0 436998.0 0
293248.0 436999.0 0
297167.0 437007.0 0
301083.0 436984.0 0
304997.0 437090.0 0
308898.0 436769.0 0
312661.0 437831.0 0
316291.0 436390.0 0
319683.0 438448.0 0
323470.0 437582.0 0
327244.0 438640.0 0
331083.0 438649.0 0
334975.0 438836.0 0
338803.0 439250.0 0
356608.0 437791.0 0
360022.0 439466.0 0
366402.0 440062.0 0
369888.0 438367.0 0
373153.0 440580.0 0
376544.0 438865.0 0
383547.0 440749.0 0
386998.0 439207.0 0
390263.0 441398.0 0
393726.0 439762.0 0
397022.0 441924.0 0
400479.0 440146.0 0
89780.3 446241.0 0
96172.7 442245.0 0
99678.1 444082.0 0
106484.0 443606.0 0
113228.0 442986.0 0
119945.0 442167.0 0
123648.0 442857.0 0
130274.0 442213.0 0
137074.0 442005.0 0
142119.0 442379.0 0
145663.0 441095.0 0
149623.0 440670.0 0
153534.0 440303.0 0
157331.0 439516.0 0
182806.0 441445.0 0
186700.0 441740.0 0
190509.0 440772.0 0
194440.0 441047.0 0
198383.0 440995.0 0
202331.0 440996.0 0
206284.0 440994.0 0
210241.0 440992.0 0
214203.0 440991.0 0
218170.0 440991.0 0
222140.0 440990.0 0
226113.0 440989.0 0
230089.0 440989.0 0
234068.0 440989.0 0
238049.0 440989.0 0
242032.0 440989.0 0
246016.0 440989.0 0
250000.0 440989.0 0
253984.0 440989.0 0
257968.0 440989.0 0
261951.0 440989.0 0
265932.0 440989.0 0
269911.0 440989.0 0
273887.0 440989.0 0
277860.0 440990.0 0
281830.0 440991.0 0
285797.0 440991.0 0
289759.0 440992.0 0
293716.0 440994.0 0
297669.0 440996.0 0
301617.0 440995.0 0
305560.0 441047.0 0
309491.0 440772.0 0
313300.0 441740.0 0
317194.0 441445.0 0
342669.0 439516.0 0
346466.0 440303.0 0
350377.0 440670.0 0
354337.0 441095.0 0
357881.0 442379.0 0
362926.0 442005.0 0
369726.0 442213.0 0
376352.0 442857.0 0
380055.0 442167.0 0
386772.0 442986.0 0
393516.0 443606.0 0
400322.0 444082.0 0
403827.0 442245.0 0
410220.0 446241.0 0
93613.1 445257.0 0
103242.0 445826.0 0
110018.0 445231.0 0
116738.0 444510.0 0
120284.0 445792.0 0
127093.0 444505.0 0
133659.0 443876.0 0
147936.0 444218.0 0
151791.0 443859.0 0
155644.0 443465.0 0
159448.0 442812.0 0
163326.0 442607.0 0
167177.0 442177.0 0
171114.0 442261.0 0
175033.0 441809.0 0
178944.0 442227.0 0
321056.0 442227.0 0
324967.0 441809.0 0
328886.0 442261.0 0
332823.0 442177.0 0
336674.0 442607.0 0
340552.0 442812.0 0
344356.0 443465.0 0
348209.0 443859.0 0
352064.0 444218.0 0
366341.0 443876.0 0
372907.0 444505.0 0
379716.0 445792.0 0
383262.0 444510.0 0
389982.0 445231.0 0
396758.0 445826.0 0
406387.0 445257.0 0
92441.6 449185.0 0
97103.1 447060.0 0
100663.0 448743.0 0
106817.0 447497.0 0
113578.0 446814.0 0
117161.0 448353.0 0
123926.0 446848.0 0
127422.0 448412.0 0
130598.0 446098.0 0
136664.0 445953.0 0
140415.0 445743.0 0
144308.0 445482.0 0
153929.0 447097.0 0
157739.0 446681.0 0
161504.0 446154.0 0
165272.0 446130.0 0
169036.0 445639.0 0
172790.0 446076.0 0
176561.0 445428.0 0
180333.0 445973.0 0
184105.0 445171.0 0
187950.0 445513.0 0
191680.0 444580.0 0
195488.0 445194.0 0
199340.0 444962.0 0
203206.0 445028.0 0
207079.0 445009.0 0
210957.0 445006.0 0
214842.0 445002.0 0
218733.0 444999.0 0
222629.0 444996.0 0
226530.0 444994.0 0
230436.0 444992.0 0
234344.0 444991.0 0
238256.0 444990.0 0
242169.0 444989.0 0
246084.0 444989.0 0
250000.0 444989.0 0
253916.0 444989.0 0
257831.0 444989.0 0
261744.0 444990.0 0
265656.0 444991.0 0
269564.0 444992.0 0
273470.0 444994.0 0
277371.0 444996.0 0
281267.0 444999.0 0
285158.0 445002.0 0
289043.0 445006.0 0
292921.0 445009.0 0
296794.0 445028.0 0
300660.0 444962.0 0
304512.0 445194.0 0
308320.0 444580.0 0
312050.0 445513.0 0
315895.0 445171.0 0
319667.0 445973.0 0
323439.0 445428.0 0
327210.0 446076.0 0
330964.0 445639.0 0
334728.0 446130.0 0
338496.0 446154.0 0
342261.0 446681.0 0
346071.0 447097.0 0
355692.0 445482.0 0
359585.0 445743.0 0
363336.0 445953.0 0
369402.0 446098.0 0
372578.0 448412.0 0
376074.0 446848.0 0
382839.0 448353.0 0
386422.0 446814.0 0
393183.0 447497.0 0
399337.0 448743.0 0
402897.0 447060.0 0
407558.0 449185.0 0
97407.1 451006.0 0
104234.0 450402.0 0
110400.0 449105.0 0
113968.0 450685.0 0
120873.0 449411.0 0
124448.0 450869.0 0
130914.0 449848.0 0
134728.0 449340.0 0
138642.0 449245.0 0
142528.0 448988.0 0
146417.0 448684.0 0
150086.0 447457.0 0
349914.0 447457.0 0
353583.0 448684.0 0
357472.0 448988.0 0
361358.0 449245.0 0
365272.0 449340.0 0
369086.0 449848.0 0
375552.0 450869.0 0
379127.0 449411.0 0
386032.0 450685.0 0
389600.0 449105.0 0
395766.0 450402.0 0
402593.0 451006.0 0
101014.0 452688.0 0
107841.0 452023.0 0
117498.0 452278.0 0
132988.0 452920.0 0
136834.0 452699.0 0
140751.0 452503.0 0
144669.0 452231.0 0
148568.0 451891.0 0
152298.0 450730.0 0
156179.0 450327.0 0
160030.0 449835.0 0
163858.0 450146.0 0
167624.0 449335.0 0
171434.0 450032.0 0
175225.0 449180.0 0
179058.0 449753.0 0
182873.0 448991.0 0
186734.0 449268.0 0
190618.0 448949.0 0
194524.0 449056.0 0
198446.0 448998.0 0
202378.0 448998.0 0
206319.0 448996.0 0
210267.0 448994.0 0
214222.0 448992.0 0
218183.0 448991.0 0
222149.0 448990.0 0
226120.0 448990.0 0
230094.0 448989.0 0
234072.0 448989.0 0
238052.0 448989.0 0
242034.0 448989.0 0
246016.0 448989.0 0
250000.0 448989.0 0
253984.0 448989.0 0
257966.0 448989.0 0
261948.0 448989.0 0
265928.0 448989.0 0
269906.0 448989.0 0
273880.0 448990.0 0
277851.0 448990.0 0
281817.0 448991.0 0
285778.0 448992.0 0
289733.0 448994.0 0
293681.0 448996.0 0
297622.0 448998.0 0
301554.0 448998.0 0
305476.0 449056.0 0
309382.0 448949.0 0
313266.0 449268.0 0
317127.0 448991.0 0
320942.0 449753.0 0
324775.0 449180.0 0
328566.0 450032.0 0
332376.0 449335.0 0
336142.0 450146.0 0
339970.0 449835.0 0
343821.0 450327.0 0
347702.0 450730.0 0
351432.0 451891.0 0
355331.0 452231.0 0
359249.0 452503.0 0
363166.0 452699.0 0
367012.0 452920.0 0
382502.0 452278.0 0
392159.0 452023.0 0
398986.0 452688.0 0
96912.5 454938.0 0
104624.0 454333.0 0
111467.0 453685.0 0
121264.0 453097.0 0
128023.0 452419.0 0
146875.0 455469.0 0
151341.0 454613.0 0
155233.0 454155.0 0
159152.0 453672.0 0
163086.0 454033.0 0
166997.0 453280.0 0
170922.0 453965.0 0
174816.0 453148.0 0
178756.0 453706.0 0
182661.0 452976.0 0
186626.0 453225.0 0
190586.0 452980.0 0
194552.0 453041.0 0
198516.0 452997.0 0
202479.0 452996.0 0
206442.0 452994.0 0
210403.0 452993.0 0
214364.0 452992.0 0
218325.0 452991.0 0
222284.0 452991.0 0
226244.0 452990.0 0
230204.0 452990.0 0
234163.0 452989.0 0
238122.0 452989.0 0
242081.0 452989.0 0
246041.0 452989.0 0
250000.0 452989.0 0
253959.0 452989.0 0
257919.0 452989.0 0
261878.0 452989.0 0
265837.0 452989.0 0
269796.0 452990.0 0
273756.0 452990.0 0
277716.0 452991.0 0
281675.0 452991.0 0
285636.0 452992.0 0
289597.0 452993.0 0
293558.0 452994.0 0
297521.0 452996.0 0
301484.0 452997.0 0
305448.0 453041.0 0
309414.0 452980.0 0
313374.0 453225.0 0
317339.0 452976.0 0
321244.0 453706.0 0
325184.0 453148.0 0
329078.0 453965.0 0
333003.0 453280.0 0
336914.0 454033.0 0
340848.0 453672.0 0
344767.0 454155.0 0
348659.0 454613.0 0
353125.0 455469.0 0
371977.0 452419.0 0
378736.0 453097.0 0
388533.0 453685.0 0
395376.0 454333.0 0
403087.0 454938.0 0
100539.0 456606.0 0
108256.0 455931.0 0
115046.0 455380.0 0
118936.0 456183.0 0
123165.0 456284.0 0
127046.0 456190.0 0
130977.0 456210.0 0
134981.0 456214.0 0
138931.0 456004.0 0
142895.0 455754.0 0
357105.0 455754.0 0
361069.0 456004.0 0
365019.0 456214.0 0
369023.0 456210.0 0
372954.0 456190.0 0
376835.0 456284.0 0
381064.0 456183.0 0
384954.0 455380.0 0
391744.0 455931.0 0
399461.0 456606.0 0
97493.0 459157.0 0
104151.0 458244.0 0
107808.0 459794.0 0
111912.0 457838.0 0
116370.0 459127.0 0
121026.0 459553.0 0
125054.0 459629.0 0
129010.0 459609.0 0
132994.0 459605.0 0
137083.0 459514.0 0
141076.0 459280.0 0
145062.0 458991.0 0
149690.0 458213.0 0
153668.0 457831.0 0
157622.0 457331.0 0
161628.0 457747.0 0
165620.0 457080.0 0
169557.0 457695.0 0
173578.0 456951.0 0
177535.0 457484.0 0
181959.0 456988.0 0
185952.0 457140.0 0
190000.0 456989.0 0
193999.0 456993.0 0
198000.0 456989.0 0
202000.0 456989.0 0
206000.0 456989.0 0
210000.0 456989.0 0
214000.0 456989.0 0
218000.0 456989.0 0
222000.0 456989.0 0
226000.0 456989.0 0
230000.0 456989.0 0
234000.0 456989.0 0
238000.0 456989.0 0
242000.0 456989.0 0
246000.0 456989.0 0
250000.0 456989.0 0
254000.0 456989.0 0
258000.0 456989.0 0
262000.0 456989.0 0
266000.0 456989.0 0
270000.0 456989.0 0
274000.0 456989.0 0
278000.0 456989.0 0
282000.0 456989.0 0
286000.0 456989.0 0
290000.0 456989.0 0
294000.0 456989.0 0
298000.0 456989.0 0
302000.0 456989.0 0
306001.0 456993.0 0
310000.0 456989.0 0
314048.0 457140.0 0
318041.0 456988.0 0
322465.0 457484.0 0
326422.0 456951.0 0
330443.0 457695.0 0
334380.0 457080.0 0
338372.0 457747.0 0
342378.0 457331.0 0
346332.0 457831.0 0
350310.0 458213.0 0
354938.0 458991.0 0
358924.0 459280.0 0
362917.0 459514.0 0
367006.0 459605.0 0
370990.0 459609.0 0
374946.0 459629.0 0
378974.0 459553.0 0
383630.0 459127.0 0
388088.0 457838.0 0
392192.0 459794.0 0
395849.0 458244.0 0
402507.0 459157.0 0
100734.0 461495.0 0
104657.0 462169.0 0
110618.0 462510.0 0
114550.0 462578.0 0
118525.0 462583.0 0
123004.0 462984.0 0
139233.0 462800.0 0
143284.0 462538.0 0
147447.0 462092.0 0
151407.0 461759.0 0
155344.0 461571.0 0
159243.0 460952.0 0
163149.0 461517.0 0
167037.0 460800.0 0
170939.0 461432.0 0
174827.0 460747.0 0
178744.0 461276.0 0
182673.0 460927.0 0
186618.0 461068.0 0
190562.0 460996.0 0
194510.0 460998.0 0
198461.0 460996.0 0
202414.0 460995.0 0
206369.0 460994.0 0
210326.0 460993.0 0
214286.0 460992.0 0
218248.0 460991.0 0
222212.0 460990.0 0
226178.0 460990.0 0
230145.0 460989.0 0
234114.0 460989.0 0
238085.0 460989.0 0
242056.0 460989.0 0
246028.0 460989.0 0
250000.0 460989.0 0
253972.0 460989.0 0
257944.0 460989.0 0
261915.0 460989.0 0
265886.0 460989.0 0
269855.0 460989.0 0
273822.0 460990.0 0
277788.0 460990.0 0
281752.0 460991.0 0
285714.0 460992.0 0
289674.0 460993.0 0
293631.0 460994.0 0
297586.0 460995.0 0
301539.0 460996.0 0
305490.0 460998.0 0
309438.0 460996.0 0
313382.0 461068.0 0
317327.0 460927.0 0
321256.0 461276.0 0
325173.0 460747.0 0
329061.0 461432.0 0
332963.0 460800.0 0
336851.0 461517.0 0
340757.0 460952.0 0
344656.0 461571.0 0
348593.0 461759.0 0
352553.0 462092.0 0
356716.0 462538.0 0
360767.0 462800.0 0
376996.0 462984.0 0
381475.0 462583.0 0
385450.0 462578.0 0
389382.0 462510.0 0
395343.0 462169.0 0
399266.0 461495.0 0
127003.0 463022.0 0
130994.0 463007.0 0
135095.0 462951.0 0
364905.0 462951.0 0
369006.0 463007.0 0
372997.0 463022.0 0
100452.0 465482.0 0
104401.0 466097.0 0
108383.0 465803.0 0
112531.0 465983.0 0
116528.0 466006.0 0
120515.0 466043.0 0
124982.0 466422.0 0
128993.0 466424.0 0
133062.0 466366.0 0
137267.0 466267.0 0
141444.0 466063.0 0
145697.0 465669.0 0
149697.0 465342.0 0
153750.0 465240.0 0
157757.0 464940.0 0
161744.0 465257.0 0
165756.0 464963.0 0
169743.0 465228.0 0
173872.0 464980.0 0
177865.0 465153.0 0
181997.0 464989.0 0
185997.0 465008.0 0
190000.0 464989.0 0
194000.0 464989.0 0
198000.0 464989.0 0
202000.0 464989.0 0
206000.0 464989.0 0
210000.0 464989.0 0
214000.0 464989.0 0
218000.0 464989.0 0
222000.0 464989.0 0
226000.0 464989.0 0
230000.0 464989.0 0
234000.0 464989.0 0
238000.0 464989.0 0
242000.0 464989.0 0
246000.0 464989.0 0
250000.0 464989.0 0
254000.0 464989.0 0
258000.0 464989.0 0
262000.0 464989.0 0
266000.0 464989.0 0
270000.0 464989.0 0
274000.0 464989.0 0
278000.0 464989.0 0
282000.0 464989.0 0
286000.0 464989.0 0
290000.0 464989.0 0
294000.0 464989.0 0
298000.0 464989.0 0
302000.0 464989.0 0
306000.0 464989.0 0
310000.0 464989.0 0
314003.0 465008.0 0
318003.0 464989.0 0
322135.0 465153.0 0
326128.0 464980.0 0
330257.0 465228.0 0
334244.0 464963.0 0
338256.0 465257.0 0
342243.0 464940.0 0
346250.0 465240.0 0
350303.0 465342.0 0
354303.0 465669.0 0
358556.0 466063.0 0
362733.0 466267.0 0
366938.0 466366.0 0
371007.0 466424.0 0
375018.0 466422.0 0
379485.0 466043.0 0
383472.0 466006.0 0
387469.0 465983.0 0
391617.0 465803.0 0
395599.0 466097.0 0
399548.0 465482.0 0
102050.0 469298.0 0
106472.0 469486.0 0
110458.0 469366.0 0
114517.0 469423.0 0
118507.0 469454.0 0
122495.0 469512.0 0
127001.0 469847.0 0
131059.0 469807.0 0
135047.0 469790.0 0
139013.0 469838.0 0
142970.0 469705.0 0
146895.0 469445.0 0
150804.0 469138.0 0
154718.0 469189.0 0
158625.0 468841.0 0
162543.0 469178.0 0
166473.0 468897.0 0
170412.0 469158.0 0
174356.0 468950.0 0
178310.0 469108.0 0
182266.0 468981.0 0
186229.0 468996.0 0
190197.0 468991.0 0
194169.0 468990.0 0
198144.0 468990.0 0
202123.0 468989.0 0
206104.0 468989.0 0
210087.0 468989.0 0
214073.0 468989.0 0
218061.0 468989.0 0
222050.0 468989.0 0
226041.0 468989.0 0
230032.0 468989.0 0
234025.0 468989.0 0
238018.0 468989.0 0
242012.0 468989.0 0
246006.0 468989.0 0
250000.0 468989.0 0
253994.0 468989.0 0
257988.0 468989.0 0
261982.0 468989.0 0
265975.0 468989.0 0
269968.0 468989.0 0
273959.0 468989.0 0
277950.0 468989.0 0
281939.0 468989.0 0
285927.0 468989.0 0
289913.0 468989.0 0
293896.0 468989.0 0
297877.0 468989.0 0
301856.0 468990.0 0
305831.0 468990.0 0
309803.0 468991.0 0
313771.0 468996.0 0
317734.0 468981.0 0
321690.0 469108.0 0
325644.0 468950.0 0
329588.0 469158.0 0
333527.0 468897.0 0
337457.0 469178.0 0
341375.0 468841.0 0
345282.0 469189.0 0
349196.0 469138.0 0
353105.0 469445.0 0
357030.0 469705.0 0
360987.0 469838.0 0
364953.0 469790.0 0
368941.0 469807.0 0
372999.0 469847.0 0
377505.0 469512.0 0
381493.0 469454.0 0
385483.0 469423.0 0
389542.0 469366.0 0
393528.0 469486.0 0
397950.0 469298.0 0
101564.0 473251.0 0
105553.0 473365.0 0
109532.0 473242.0 0
113503.0 473250.0 0
117477.0 473273.0 0
121454.0 473351.0 0
125428.0 473483.0 0
129413.0 473424.0 0
133403.0 473414.0 0
137394.0 473481.0 0
141382.0 473339.0 0
145686.0 473232.0 0
149940.0 473022.0 0
153958.0 473112.0 0
157958.0 472983.0 0
161954.0 473126.0 0
165962.0 472985.0 0
169958.0 473116.0 0
173982.0 472987.0 0
177980.0 473074.0 0
182000.0 472988.0 0
186000.0 472989.0 0
190000.0 472989.0 0
194000.0 472989.0 0
198000.0 472989.0 0
202000.0 472989.0 0
206000.0 472989.0 0
210000.0 472989.0 0
214000.0 472989.0 0
218000.0 472989.0 0
222000.0 472989.0 0
226000.0 472989.0 0
230000.0 472989.0 0
234000.0 472989.0 0
238000.0 472989.0 0
242000.0 472989.0 0
246000.0 472989.0 0
250000.0 472989.0 0
254000.0 472989.0 0
258000.0 472989.0 0
262000.0 472989.0 0
266000.0 472989.0 0
270000.0 472989.0 0
274000.0 472989.0 0
278000.0 472989.0 0
282000.0 472989.0 0
286000.0 472989.0 0
290000.0 472989.0 0
294000.0 472989.0 0
298000.0 472989.0 0
302000.0 472989.0 0
306000.0 472989.0 0
310000.0 472989.0 0
314000.0 472989.0 0
318000.0 472988.0 0
322020.0 473074.0 0
326018.0 472987.0 0
330042.0 473116.0 0
334038.0 472985.0 0
338046.0 473126.0 0
342042.0 472983.0 0
346042.0 473112.0 0
350060.0 473022.0 0
354314.0 473232.0 0
358618.0 473339.0 0
362606.0 473481.0 0
366597.0 473414.0 0
370587.0 473424.0 0
374572.0 473483.0 0
378546.0 473351.0 0
382523.0 473273.0 0
386497.0 473250.0 0
390468.0 473242.0 0
394447.0 473365.0 0
398436.0 473251.0 0
102018.0 477213.0 0
106051.0 477320.0 0
110049.0 477204.0 0
114072.0 477178.0 0
118116.0 477187.0 0
122112.0 477280.0 0
126179.0 477381.0 0
130175.0 477332.0 0
134167.0 477324.0 0
138158.0 477390.0 0
142146.0 477237.0 0
146132.0 477187.0 0
150113.0 477003.0 0
154098.0 477104.0 0
158084.0 476981.0 0
162071.0 477116.0 0
166059.0 476984.0 0
170049.0 477099.0 0
174040.0 476987.0 0
178034.0 477056.0 0
182028.0 476988.0 0
186023.0 476989.0 0
190019.0 476989.0 0
194015.0 476989.0 0
198013.0 476989.0 0
202010.0 476989.0 0
206008.0 476989.0 0
210007.0 476989.0 0
214005.0 476989.0 0
218004.0 476989.0 0
222003.0 476989.0 0
226003.0 476989.0 0
230002.0 476989.0 0
234002.0 476989.0 0
238001.0 476989.0 0
242001.0 476989.0 0
246000.0 476989.0 0
250000.0 476989.0 0
254000.0 476989.0 0
257999.0 476989.0 0
261999.0 476989.0 0
265998.0 476989.0 0
269998.0 476989.0 0
273997.0 476989.0 0
277997.0 476989.0 0
281996.0 476989.0 0
285995.0 476989.0 0
289993.0 476989.0 0
293992.0 476989.0 0
297990.0 476989.0 0
301987.0 476989.0 0
305985.0 476989.0 0
309981.0 476989.0 0
313977.0 476989.0 0
317972.0 476988.0 0
321966.0 477056.0 0
325960.0 476987.0 0
329951.0 477099.0 0
333941.0 476984.0 0
337929.0 477116.0 0
341916.0 476981.0 0
345902.0 477104.0 0
349887.0 477003.0 0
353868.0 477187.0 0
357854.0 477237.0 0
361842.0 477390.0 0
365833.0 477324.0 0
369825.0 477332.0 0
373821.0 477381.0 0
377888.0 477280.0 0
381884.0 477187.0 0
385928.0 477178.0 0
389951.0 477204.0 0
393949.0 477320.0 0
397982.0 477213.0 0
101968.0 481205.0 0
105966.0 481303.0 0
109963.0 481201.0 0
113960.0 481154.0 0
117957.0 481154.0 0
121953.0 481262.0 0
125949.0 481346.0 0
129946.0 481308.0 0
133944.0 481299.0 0
137942.0 481361.0 0
141938.0 481205.0 0
145974.0 481165.0 0
149997.0 480994.0 0
153996.0 481097.0 0
157997.0 480988.0 0
161996.0 481106.0 0
165998.0 480989.0 0
169997.0 481085.0 0
173999.0 480989.0 0
177999.0 481041.0 0
182000.0 480989.0 0
186000.0 480989.0 0
190000.0 480989.0 0
194000.0 480989.0 0
198000.0 480989.0 0
202000.0 480989.0 0
206000.0 480989.0 0
210000.0 480989.0 0
214000.0 480989.0 0
218000.0 480989.0 0
222000.0 480989.0 0
226000.0 480989.0 0
230000.0 480989.0 0
234000.0 480989.0 0
238000.0 480989.0 0
242000.0 480989.0 0
246000.0 480989.0 0
250000.0 480989.0 0
254000.0 480989.0 0
258000.0 480989.0 0
262000.0 480989.0 0
266000.0 480989.0 0
270000.0 480989.0 0
274000.0 480989.0 0
278000.0 480989.0 0
282000.0 480989.0 0
286000.0 480989.0 0
290000.0 480989.0 0
294000.0 480989.0 0
298000.0 480989.0 0
302000.0 480989.0 0
306000.0 480989.0 0
310000.0 480989.0 0
314000.0 480989.0 0
318000.0 480989.0 0
322001.0 481041.0 0
326001.0 480989.0 0
330003.0 481085.0 0
334002.0 480989.0 0
338004.0 481106.0 0
342003.0 480988.0 0
346004.0 481097.0 0
350003.0 480994.0 0
354026.0 481165.0 0
358062.0 481205.0 0
362058.0 481361.0 0
366056.0 481299.0 0
370054.0 481308.0 0
374051.0 481346.0 0
378047.0 481262.0 0
382043.0 481154.0 0
386040.0 481154.0 0
390037.0 481201.0 0
394034.0 481303.0 0
398032.0 481205.0 0
102001.0 485201.0 0
106004.0 485287.0 0
110003.0 485198.0 0
114003.0 485136.0 0
118004.0 485129.0 0
122010.0 485248.0 0
126021.0 485319.0 0
130020.0 485292.0 0
134020.0 485276.0 0
138019.0 485334.0 0
142015.0 485180.0 0
146014.0 485148.0 0
150010.0 484990.0 0
154008.0 485091.0 0
158006.0 484988.0 0
162004.0 485096.0 0
166002.0 484989.0 0
170001.0 485072.0 0
174000.0 484989.0 0
178000.0 485028.0 0
182000.0 484989.0 0
186000.0 484989.0 0
190000.0 484989.0 0
194000.0 484989.0 0
198000.0 484989.0 0
202000.0 484989.0 0
206000.0 484989.0 0
210000.0 484989.0 0
214000.0 484989.0 0
218000.0 484989.0 0
222000.0 484989.0 0
226000.0 484989.0 0
230000.0 484989.0 0
234000.0 484989.0 0
238000.0 484989.0 0
242000.0 484989.0 0
246000.0 484989.0 0
250000.0 484989.0 0
254000.0 484989.0 0
258000.0 484989.0 0
262000.0 484989.0 0
266000.0 484989.0 0
270000.0 484989.0 0
274000.0 484989.0 0
278000.0 484989.0 0
282000.0 484989.0 0
286000.0 484989.0 0
290000.0 484989.0 0
294000.0 484989.0 0
298000.0 484989.0 0
302000.0 484989.0 0
306000.0 484989.0 0
310000.0 484989.0 0
314000.0 484989.0 0
318000.0 484989.0 0
322000.0 485028.0 0
326000.0 484989.0 0
329999.0 485072.0 0
333998.0 484989.0 0
337996.0 485096.0 0
341994.0 484988.0 0
345992.0 485091.0 0
349990.0 484990.0 0
353986.0 485148.0 0
357985.0 485180.0 0
361981.0 485334.0 0
365980.0 485276.0 0
369980.0 485292.0 0
373979.0 485319.0 0
377990.0 485248.0 0
381996.0 485129.0 0
385997.0 485136.0 0
389997.0 485198.0 0
393996.0 485287.0 0
397999.0 485201.0 0
102000.0 489197.0 0
105999.0 489270.0 0
109998.0 489194.0 0
113998.0 489123.0 0
117997.0 489109.0 0
121995.0 489234.0 0
125994.0 489296.0 0
129994.0 489276.0 0
133993.0 489252.0 0
137993.0 489307.0 0
141997.0 489156.0 0
145999.0 489132.0 0
150000.0 488989.0 0
154000.0 489085.0 0
158000.0 488989.0 0
162000.0 489086.0 0
166000.0 488989.0 0
170000.0 489060.0 0
174000.0 488989.0 0
178000.0 489017.0 0
182000.0 488989.0 0
186000.0 488989.0 0
190000.0 488989.0 0
194000.0 488989.0 0
198000.0 488989.0 0
202000.0 488989.0 0
206000.0 488989.0 0
210000.0 488989.0 0
214000.0 488989.0 0
218000.0 488989.0 0
222000.0 488989.0 0
226000.0 488989.0 0
230000.0 488989.0 0
234000.0 488989.0 0
238000.0 488989.0 0
242000.0 488989.0 0
246000.0 488989.0 0
250000.0 488989.0 0
254000.0 488989.0 0
258000.0 488989.0 0
262000.0 488989.0 0
266000.0 488989.0 0
270000.0 488989.0 0
274000.0 488989.0 0
278000.0 488989.0 0
282000.0 488989.0 0
286000.0 488989.0 0
290000.0 488989.0 0
294000.0 488989.0 0
298000.0 488989.0 0
302000.0 488989.0 0
306000.0 488989.0 0
310000.0 488989.0 0
314000.0 488989.0 0
318000.0 488989.0 0
322000.0 489017.0 0
326000.0 488989.0 0
330000.0 489060.0 0
334000.0 488989.0 0
338000.0 489086.0 0
342000.0 488989.0 0
346000.0 489085.0 0
350000.0 488989.0 0
354001.0 489132.0 0
358003.0 489156.0 0
362007.0 489307.0 0
366007.0 489252.0 0
370006.0 489276.0 0
374006.0 489296.0 0
378005.0 489234.0 0
382003.0 489109.0 0
386002.0 489123.0 0
390002.0 489194.0 0
394001.0 489270.0 0
398000.0 489197.0 0
114000.0 493112.0 0
118000.0 493093.0 0
134002.0 493228.0 0
138002.0 493278.0 0
142000.0 493135.0 0
146000.0 493118.0 0
150000.0 492989.0 0
154000.0 493078.0 0
158000.0 492989.0 0
162000.0 493076.0 0
166000.0 492989.0 0
170000.0 493049.0 0
174000.0 492989.0 0
178000.0 493009.0 0
182000.0 492989.0 0
186000.0 492989.0 0
190000.0 492989.0 0
194000.0 492989.0 0
198000.0 492989.0 0
202000.0 492989.0 0
206000.0 492989.0 0
210000.0 492989.0 0
214000.0 492989.0 0
218000.0 492989.0 0
222000.0 492989.0 0
226000.0 492989.0 0
230000.0 492989.0 0
234000.0 492989.0 0
238000.0 492989.0 0
242000.0 492989.0 0
246000.0 492989.0 0
250000.0 492989.0 0
254000.0 492989.0 0
258000.0 492989.0 0
262000.0 492989.0 0
266000.0 492989.0 0
270000.0 492989.0 0
274000.0 492989.0 0
278000.0 492989.0 0
282000.0 492989.0 0
286000.0 492989.0 0
290000.0 492989.0 0
294000.0 492989.0 0
298000.0 492989.0 0
302000.0 492989.0 0
306000.0 492989.0 0
310000.0 492989.0 0
314000.0 492989.0 0
318000.0 492989.0 0
322000.0 493009.0 0
326000.0 492989.0 0
330000.0 493049.0 0
334000.0 492989.0 0
338000.0 493076.0 0
342000.0 492989.0 0
346000.0 493078.0 0
350000.0 492989.0 0
354000.0 493118.0 0
358000.0 493135.0 0
361998.0 493278.0 0
365998.0 493228.0 0
382000.0 493093.0 0
386000.0 493112.0 0
102000.0 493193.0 0
106000.0 493254.0 0
110000.0 493189.0 0
122001.0 493221.0 0
126002.0 493274.0 0
130002.0 493260.0 0
369998.0 493260.0 0
373998.0 493274.0 0
377999.0 493221.0 0
390000.0 493189.0 0
394000.0 493254.0 0
398000.0 493193.0 0
102000.0 497188.0 0
106000.0 497237.0 0
110000.0 497184.0 0
114000.0 497104.0 0
118000.0 497081.0 0
122000.0 497209.0 0
126000.0 497254.0 0
130000.0 497244.0 0
134000.0 497204.0 0
138000.0 497251.0 0
142000.0 497115.0 0
146000.0 497106.0 0
150000.0 496989.0 0
154000.0 497072.0 0
158000.0 496989.0 0
162000.0 497067.0 0
166000.0 496989.0 0
170000.0 497040.0 0
174000.0 496989.0 0
178000.0 497003.0 0
182000.0 496989.0 0
186000.0 496989.0 0
190000.0 496989.0 0
194000.0 496989.0 0
198000.0 496989.0 0
202000.0 496989.0 0
206000.0 496989.0 0
210000.0 496989.0 0
214000.0 496989.0 0
218000.0 496989.0 0
222000.0 496989.0 0
226000.0 496989.0 0
230000.0 496989.0 0
234000.0 496989.0 0
238000.0 496989.0 0
242000.0 496989.0 0
246000.0 496989.0 0
250000.0 496989.0 0
254000.0 496989.0 0
258000.0 496989.0 0
262000.0 496989.0 0
266000.0 496989.0 0
270000.0 496989.0 0
274000.0 496989.0 0
278000.0 496989.0 0
282000.0 496989.0 0
286000.0 496989.0 0
290000.0 496989.0 0
294000.0 496989.0 0
298000.0 496989.0 0
302000.0 496989.0 0
306000.0 496989.0 0
310000.0 496989.0 0
314000.0 496989.0 0
318000.0 496989.0 0
322000.0 497003.0 0
326000.0 496989.0 0
330000.0 497040.0 0
334000.0 496989.0 0
338000.0 497067.0 0
342000.0 496989.0 0
346000.0 497072.0 0
350000.0 496989.0 0
354000.0 497106.0 0
358000.0 497115.0 0
362000.0 497251.0 0
366000.0 497204.0 0
370000.0 497244.0 0
374000.0 497254.0 0
378000.0 497209.0 0
382000.0 497081.0 0
386000.0 497104.0 0
390000.0 497184.0 0
394000.0 497237.0 0
398000.0 497188.0 0
150000.0 500989.0 0
158000.0 500989.0 0
166000.0 500989.0 0
170000.0 501032.0 0
174000.0 500989.0 0
178000.0 500998.0 0
182000.0 500989.0 0
186000.0 500989.0 0
190000.0 500989.0 0
194000.0 500989.0 0
198000.0 500989.0 0
202000.0 500989.0 0
206000.0 500989.0 0
210000.0 500989.0 0
214000.0 500989.0 0
218000.0 500989.0 0
222000.0 500989.0 0
226000.0 500989.0 0
230000.0 500989.0 0
234000.0 500989.0 0
238000.0 500989.0 0
242000.0 500989.0 0
246000.0 500989.0 0
250000.0 500989.0 0
254000.0 500989.0 0
258000.0 500989.0 0
262000.0 500989.0 0
266000.0 500989.0 0
270000.0 500989.0 0
274000.0 500989.0 0
278000.0 500989.0 0
282000.0 500989.0 0
286000.0 500989.0 0
290000.0 500989.0 0
294000.0 500989.0 0
298000.0 500989.0 0
302000.0 500989.0 0
306000.0 500989.0 0
310000.0 500989.0 0
314000.0 500989.0 0
318000.0 500989.0 0
322000.0 500998.0 0
326000.0 500989.0 0
330000.0 501032.0 0
334000.0 500989.0 0
342000.0 500989.0 0
350000.0 500989.0 0
102000.0 501182.0 0
106000.0 501222.0 0
110000.0 501177.0 0
114000.0 501098.0 0
118000.0 501071.0 0
122000.0 501196.0 0
126000.0 501236.0 0
130000.0 501228.0 0
134000.0 501180.0 0
138000.0 501225.0 0
142000.0 501097.0 0
146000.0 501094.0 0
154000.0 501066.0 0
162000.0 501058.0 0
338000.0 501058.0 0
346000.0 501066.0 0
354000.0 501094.0 0
358000.0 501097.0 0
362000.0 501225.0 0
366000.0 501180.0 0
370000.0 501228.0 0
374000.0 501236.0 0
378000.0 501196.0 0
382000.0 501071.0 0
386000.0 501098.0 0
390000.0 501177.0 0
394000.0 501222.0 0
398000.0 501182.0 0
102000.0 505175.0 0
106000.0 505206.0 0
110000.0 505169.0 0
114000.0 505092.0 0
118000.0 505063.0 0
122000.0 505185.0 0
126000.0 505218.0 0
130000.0 505212.0 0
134000.0 505158.0 0
138000.0 505200.0 0
142000.0 505080.0 0
146000.0 505084.0 0
150000.0 504989.0 0
154000.0 505060.0 0
158000.0 504989.0 0
162000.0 505050.0 0
166000.0 504989.0 0
170000.0 505024.0 0
174000.0 504989.0 0
178000.0 504995.0 0
182000.0 504989.0 0
186000.0 504989.0 0
190000.0 504989.0 0
194000.0 504989.0 0
198000.0 504989.0 0
202000.0 504989.0 0
206000.0 504989.0 0
210000.0 504989.0 0
214000.0 504989.0 0
218000.0 504989.0 0
222000.0 504989.0 0
226000.0 504989.0 0
230000.0 504989.0 0
234000.0 504989.0 0
238000.0 504989.0 0
242000.0 504989.0 0
246000.0 504989.0 0
250000.0 504989.0 0
254000.0 504989.0 0
258000.0 504989.0 0
262000.0 504989.0 0
266000.0 504989.0 0
270000.0 504989.0 0
274000.0 504989.0 0
278000.0 504989.0 0
282000.0 504989.0 0
286000.0 504989.0 0
290000.0 504989.0 0
294000.0 504989.0 0
298000.0 504989.0 0
302000.0 504989.0 0
306000.0 504989.0 0
310000.0 504989.0 0
314000.0 504989.0 0
318000.0 504989.0 0
322000.0 504995.0 0
326000.0 504989.0 0
330000.0 505024.0 0
334000.0 504989.0 0
338000.0 505050.0 0
342000.0 504989.0 0
346000.0 505060.0 0
350000.0 504989.0 0
354000.0 505084.0 0
358000.0 505080.0 0
362000.0 505200.0 0
366000.0 505158.0 0
370000.0 505212.0 0
374000.0 505218.0 0
378000.0 505185.0 0
382000.0 505063.0 0
386000.0 505092.0 0
390000.0 505169.0 0
394000.0 505206.0 0
398000.0 505175.0 0
102000.0 509168.0 0
106000.0 509192.0 0
110000.0 509162.0 0
114000.0 509087.0 0
118000.0 509057.0 0
122000.0 509174.0 0
126000.0 509201.0 0
130000.0 509196.0 0
134000.0 509137.0 0
138000.0 509178.0 0
142000.0 509066.0 0
146000.0 509074.0 0
150000.0 508989.0 0
154000.0 509054.0 0
158000.0 508989.0 0
162000.0 509043.0 0
166000.0 508989.0 0
170000.0 509018.0 0
174000.0 508989.0 0
178000.0 508993.0 0
182000.0 508989.0 0
186000.0 508989.0 0
190000.0 508989.0 0
194000.0 508989.0 0
198000.0 508989.0 0
202000.0 508989.0 0
206000.0 508989.0 0
210000.0 508989.0 0
214000.0 508989.0 0
218000.0 508989.0 0
222000.0 508989.0 0
226000.0 508989.0 0
230000.0 508989.0 0
234000.0 508989.0 0
238000.0 508989.0 0
242000.0 508989.0 0
246000.0 508989.0 0
250000.0 508989.0 0
254000.0 508989.0 0
258000.0 508989.0 0
262000.0 508989.0 0
266000.0 508989.0 0
270000.0 508989.0 0
274000.0 508989.0 0
278000.0 508989.0 0
282000.0 508989.0 0
286000.0 508989.0 0
290000.0 508989.0 0
294000.0 508989.0 0
298000.0 508989.0 0
302000.0 508989.0 0
306000.0 508989.0 0
310000.0 508989.0 0
314000.0 508989.0 0
318000.0 508989.0 0
322000.0 508993.0 0
326000.0 508989.0 0
330000.0 509018.0 0
334000.0 508989.0 0
338000.0 509043.0 0
342000.0 508989.0 0
346000.0 509054.0 0
350000.0 508989.0 0
354000.0 509074.0 0
358000.0 509066.0 0
362000.0 509178.0 0
366000.0 509137.0 0
370000.0 509196.0 0
374000.0 509201.0 0
378000.0 509174.0 0
382000.0 509057.0 0
386000.0 509087.0 0
390000.0 509162.0 0
394000.0 509192.0 0
398000.0 509168.0 0
102000.0 513161.0 0
106000.0 513178.0 0
110000.0 513153.0 0
114000.0 513083.0 0
118000.0 513052.0 0
122000.0 513163.0 0
126000.0 513184.0 0
130000.0 513181.0 0
134000.0 513118.0 0
138000.0 513157.0 0
142000.0 513053.0 0
146000.0 513066.0 0
150000.0 512989.0 0
154000.0 513048.0 0
158000.0 512989.0 0
162000.0 513036.0 0
166000.0 512989.0 0
170000.0 513013.0 0
174000.0 512989.0 0
178000.0 512991.0 0
182000.0 512989.0 0
186000.0 512989.0 0
190000.0 512989.0 0
194000.0 512989.0 0
198000.0 512989.0 0
202000.0 512989.0 0
206000.0 512989.0 0
210000.0 512989.0 0
214000.0 512989.0 0
218000.0 512989.0 0
222000.0 512989.0 0
226000.0 512989.0 0
230000.0 512989.0 0
234000.0 512989.0 0
238000.0 512989.0 0
242000.0 512989.0 0
246000.0 512989.0 0
250000.0 512989.0 0
254000.0 512989.0 0
258000.0 512989.0 0
262000.0 512989.0 0
266000.0 512989.0 0
270000.0 512989.0 0
274000.0 512989.0 0
278000.0 512989.0 0
282000.0 512989.0 0
286000.0 512989.0 0
290000.0 512989.0 0
294000.0 512989.0 0
298000.0 512989.0 0
302000.0 512989.0 0
306000.0 512989.0 0
310000.0 512989.0 0
314000.0 512989.0 0
318000.0 512989.0 0
322000.0 512991.0 0
326000.0 512989.0 0
330000.0 513013.0 0
334000.0 512989.0 0
338000.0 513036.0 0
342000.0 512989.0 0
346000.0 513048.0 0
350000.0 512989.0 0
354000.0 513066.0 0
358000.0 513053.0 0
362000.0 513157.0 0
366000.0 513118.0 0
370000.0 513181.0 0
374000.0 513184.0 0
378000.0 513163.0 0
382000.0 513052.0 0
386000.0 513083.0 0
390000.0 513153.0 0
394000.0 513178.0 0
398000.0 513161.0 0
102000.0 517153.0 0
106000.0 517165.0 0
110000.0 517145.0 0
114000.0 517078.0 0
118000.0 517048.0 0
122000.0 517152.0 0
126000.0 517168.0 0
130000.0 517166.0 0
134000.0 517100.0 0
138000.0 517138.0 0
142000.0 517042.0 0
146000.0 517058.0 0
150000.0 516989.0 0
154000.0 517042.0 0
158000.0 516989.0 0
162000.0 517030.0 0
166000.0 516989.0 0
170000.0 517008.0 0
174000.0 516989.0 0
178000.0 516990.0 0
182000.0 516989.0 0
186000.0 516989.0 0
190000.0 516989.0 0
194000.0 516989.0 0
198000.0 516989.0 0
202000.0 516989.0 0
206000.0 516989.0 0
210000.0 516989.0 0
214000.0 516989.0 0
218000.0 516989.0 0
222000.0 516989.0 0
226000.0 516989.0 0
230000.0 516989.0 0
234000.0 516989.0 0
238000.0 516989.0 0
242000.0 516989.0 0
246000.0 516989.0 0
250000.0 516989.0 0
254000.0 516989.0 0
258000.0 516989.0 0
262000.0 516989.0 0
266000.0 516989.0 0
270000.0 516989.0 0
274000.0 516989.0 0
278000.0 516989.0 0
282000.0 516989.0 0
286000.0 516989.0 0
290000.0 516989.0 0
294000.0 516989.0 0
298000.0 516989.0 0
302000.0 516989.0 0
306000.0 516989.0 0
310000.0 516989.0 0
314000.0 516989.0 0
318000.0 516989.0 0
322000.0 516990.0 0
326000.0 516989.0 0
330000.0 517008.0 0
334000.0 516989.0 0
338000.0 517030.0 0
342000.0 516989.0 0
346000.0 517042.0 0
350000.0 516989.0 0
354000.0 517058.0 0
358000.0 517042.0 0
362000.0 517138.0 0
366000.0 517100.0 0
370000.0 517166.0 0
374000.0 517168.0 0
378000.0 517152.0 0
382000.0 517048.0 0
386000.0 517078.0 0
390000.0 517145.0 0
394000.0 517165.0 0
398000.0 517153.0 0
102000.0 521145.0 0
106000.0 521152.0 0
110000.0 521136.0 0
114000.0 521074.0 0
118000.0 521045.0 0
122000.0 521142.0 0
126000.0 521153.0 0
130000.0 521152.0 0
134000.0 521085.0 0
138000.0 521122.0 0
142000.0 521032.0 0
146000.0 521051.0 0
150000.0 520989.0 0
154000.0 521037.0 0
158000.0 520989.0 0
162000.0 521024.0 0
166000.0 520989.0 0
170000.0 521004.0 0
174000.0 520989.0 0
178000.0 520989.0 0
182000.0 520989.0 0
186000.0 520989.0 0
190000.0 520989.0 0
194000.0 520989.0 0
198000.0 520989.0 0
202000.0 520989.0 0
206000.0 520989.0 0
210000.0 520989.0 0
214000.0 520989.0 0
218000.0 520989.0 0
222000.0 520989.0 0
226000.0 520989.0 0
230000.0 520989.0 0
234000.0 520989.0 0
238000.0 520989.0 0
242000.0 520989.0 0
246000.0 520989.0 0
250000.0 520989.0 0
254000.0 520989.0 0
258000.0 520989.0 0
262000.0 520989.0 0
266000.0 520989.0 0
270000.0 520989.0 0
274000.0 520989.0 0
278000.0 520989.0 0
282000.0 520989.0 0
286000.0 520989.0 0
290000.0 520989.0 0
294000.0 520989.0 0
298000.0 520989.0 0
302000.0 520989.0 0
306000.0 520989.0 0
310000.0 520989.0 0
314000.0 520989.0 0
318000.0 520989.0 0
322000.0 520989.0 0
326000.0 520989.0 0
330000.0 521004.0 0
334000.0 520989.0 0
338000.0 521024.0 0
342000.0 520989.0 0
346000.0 521037.0 0
350000.0 520989.0 0
354000.0 521051.0 0
358000.0 521032.0 0
362000.0 521122.0 0
366000.0 521085.0 0
370000.0 521152.0 0
374000.0 521153.0 0
378000.0 521142.0 0
382000.0 521045.0 0
386000.0 521074.0 0
390000.0 521136.0 0
394000.0 521152.0 0
398000.0 521145.0 0
102000.0 525137.0 0
106000.0 525141.0 0
110000.0 525127.0 0
114000.0 525070.0 0
118000.0 525041.0 0
122000.0 525132.0 0
126000.0 525138.0 0
130000.0 525139.0 0
134000.0 525071.0 0
138000.0 525107.0 0
142000.0 525024.0 0
146000.0 525045.0 0
150000.0 524989.0 0
154000.0 525032.0 0
158000.0 524989.0 0
162000.0 525019.0 0
166000.0 524989.0 0
170000.0 525001.0 0
174000.0 524989.0 0
178000.0 524989.0 0
182000.0 524989.0 0
186000.0 524989.0 0
190000.0 524989.0 0
194000.0 524989.0 0
198000.0 524989.0 0
202000.0 524989.0 0
206000.0 524989.0 0
210000.0 524989.0 0
214000.0 524989.0 0
218000.0 524989.0 0
222000.0 524989.0 0
226000.0 524989.0 0
230000.0 524989.0 0
234000.0 524989.0 0
238000.0 524989.0 0
242000.0 524989.0 0
246000.0 524989.0 0
250000.0 524989.0 0
254000.0 524989.0 0
258000.0 524989.0 0
262000.0 524989.0 0
266000.0 524989.0 0
270000.0 524989.0 0
274000.0 524989.0 0
278000.0 524989.0 0
282000.0 524989.0 0
286000.0 524989.0 0
290000.0 524989.0 0
294000.0 524989.0 0
298000.0 524989.0 0
302000.0 524989.0 0
306000.0 524989.0 0
310000.0 524989.0 0
314000.0 524989.0 0
318000.0 524989.0 0
322000.0 524989.0 0
326000.0 524989.0 0
330000.0 525001.0 0
334000.0 524989.0 0
338000.0 525019.0 0
342000.0 524989.0 0
346000.0 525032.0 0
350000.0 524989.0 0
354000.0 525045.0 0
358000.0 525024.0 0
362000.0 525107.0 0
366000.0 525071.0 0
370000.0 525139.0 0
374000.0 525138.0 0
378000.0 525132.0 0
382000.0 525041.0 0
386000.0 525070.0 0
390000.0 525127.0 0
394000.0 525141.0 0
398000.0 525137.0 0
102000.0 529130.0 0
106000.0 529130.0 0
110000.0 529119.0 0
114000.0 529066.0 0
118000.0 529038.0 0
122000.0 529123.0 0
126000.0 529123.0 0
130000.0 529126.0 0
134000.0 529058.0 0
138000.0 529094.0 0
142000.0 529017.0 0
146000.0 529039.0 0
150000.0 528989.0 0
154000.0 529027.0 0
158000.0 528989.0 0
162000.0 529015.0 0
166000.0 528989.0 0
170000.0 528998.0 0
174000.0 528989.0 0
178000.0 528989.0 0
182000.0 528989.0 0
186000.0 528989.0 0
190000.0 528989.0 0
194000.0 528989.0 0
198000.0 528989.0 0
202000.0 528989.0 0
206000.0 528989.0 0
210000.0 528989.0 0
214000.0 528989.0 0
218000.0 528989.0 0
222000.0 528989.0 0
226000.0 528989.0 0
230000.0 528989.0 0
234000.0 528989.0 0
238000.0 528989.0 0
242000.0 528989.0 0
246000.0 528989.0 0
250000.0 528989.0 0
254000.0 528989.0 0
258000.0 528989.0 0
262000.0 528989.0 0
266000.0 528989.0 0
270000.0 528989.0 0
274000.0 528989.0 0
278000.0 528989.0 0
282000.0 528989.0 0
286000.0 528989.0 0
290000.0 528989.0 0
294000.0 528989.0 0
298000.0 528989.0 0
302000.0 528989.0 0
306000.0 528989.0 0
310000.0 528989.0 0
314000.0 528989.0 0
318000.0 528989.0 0
322000.0 528989.0 0
326000.0 528989.0 0
330000.0 528998.0 0
334000.0 528989.0 0
338000.0 529015.0 0
342000.0 528989.0 0
346000.0 529027.0 0
350000.0 528989.0 0
354000.0 529039.0 0
358000.0 529017.0 0
362000.0 529094.0 0
366000.0 529058.0 0
370000.0 529126.0 0
374000.0 529123.0 0
378000.0 529123.0 0
382000.0 529038.0 0
386000.0 529066.0 0
390000.0 529119.0 0
394000.0 529130.0 0
398000.0 529130.0 0
102000.0 533122.0 0
106000.0 533119.0 0
110000.0 533110.0 0
114000.0 533062.0 0
118000.0 533035.0 0
122000.0 533114.0 0
126000.0 533110.0 0
130000.0 533114.0 0
134000.0 533047.0 0
138000.0 533082.0 0
142000.0 533011.0 0
146000.0 533034.0 0
150000.0 532989.0 0
154000.0 533023.0 0
158000.0 532989.0 0
162000.0 533011.0 0
166000.0 532989.0 0
170000.0 532996.0 0
174000.0 532989.0 0
178000.0 532989.0 0
182000.0 532989.0 0
186000.0 532989.0 0
190000.0 532989.0 0
194000.0 532989.0 0
198000.0 532989.0 0
202000.0 532989.0 0
206000.0 532989.0 0
210000.0 532989.0 0
214000.0 532989.0 0
218000.0 532989.0 0
222000.0 532989.0 0
226000.0 532989.0 0
230000.0 532989.0 0
234000.0 532989.0 0
238000.0 532989.0 0
242000.0 532989.0 0
246000.0 532989.0 0
250000.0 532989.0 0
254000.0 532989.0 0
258000.0 532989.0 0
262000.0 532989.0 0
266000.0 532989.0 0
270000.0 532989.0 0
274000.0 532989.0 0
278000.0 532989.0 0
282000.0 532989.0 0
286000.0 532989.0 0
290000.0 532989.0 0
294000.0 532989.0 0
298000.0 532989.0 0
302000.0 532989.0 0
306000.0 532989.0 0
310000.0 532989.0 0
314000.0 532989.0 0
318000.0 532989.0 0
322000.0 532989.0 0
326000.0 532989.0 0
330000.0 532996.0 0
334000.0 532989.0 0
338000.0 533011.0 0
342000.0 532989.0 0
346000.0 533023.0 0
350000.0 532989.0 0
354000.0 533034.0 0
358000.0 533011.0 0
362000.0 533082.0 0
366000.0 533047.0 0
370000.0 533114.0 0
374000.0 533110.0 0
378000.0 533114.0 0
382000.0 533035.0 0
386000.0 533062.0 0
390000.0 533110.0 0
394000.0 533119.0 0
398000.0 533122.0 0
102000.0 537114.0 0
106000.0 537110.0 0
110000.0 537102.0 0
114000.0 537059.0 0
118000.0 537032.0 0
122000.0 537105.0 0
126000.0 537097.0 0
130000.0 537103.0 0
134000.0 537038.0 0
138000.0 537072.0 0
142000.0 537007.0 0
146000.0 537029.0 0
150000.0 536989.0 0
154000.0 537019.0 0
158000.0 536989.0 0
162000.0 537008.0 0
166000.0 536989.0 0
170000.0 536995.0 0
174000.0 536989.0 0
178000.0 536989.0 0
182000.0 536989.0 0
186000.0 536989.0 0
190000.0 536989.0 0
194000.0 536989.0 0
198000.0 536989.0 0
202000.0 536989.0 0
206000.0 536989.0 0
210000.0 536989.0 0
214000.0 536989.0 0
218000.0 536989.0 0
222000.0 536989.0 0
226000.0 536989.0 0
230000.0 536989.0 0
234000.0 536989.0 0
238000.0 536989.0 0
242000.0 536989.0 0
246000.0 536989.0 0
250000.0 536989.0 0
254000.0 536989.0 0
258000.0 536989.0 0
262000.0 536989.0 0
266000.0 536989.0 0
270000.0 536989.0 0
274000.0 536989.0 0
278000.0 536989.0 0
282000.0 536989.0 0
286000.0 536989.0 0
290000.0 536989.0 0
294000.0 536989.0 0
298000.0 536989.0 0
302000.0 536989.0 0
306000.0 536989.0 0
310000.0 536989.0 0
314000.0 536989.0 0
318000.0 536989.0 0
322000.0 536989.0 0
326000.0 536989.0 0
330000.0 536995.0 0
334000.0 536989.0 0
338000.0 537008.0 0
342000.0 536989.0 0
346000.0 537019.0 0
350000.0 536989.0 0
354000.0 537029.0 0
358000.0 537007.0 0
362000.0 537072.0 0
366000.0 537038.0 0
370000.0 537103.0 0
374000.0 537097.0 0
378000.0 537105.0 0
382000.0 537032.0 0
386000.0 537059.0 0
390000.0 537102.0 0
394000.0 537110.0 0
398000.0 537114.0 0
102000.0 541107.0 0
106000.0 541101.0 0
110000.0 541094.0 0
114000.0 541055.0 0
118000.0 541030.0 0
122000.0 541097.0 0
126000.0 541085.0 0
130000.0 541093.0 0
134000.0 541030.0 0
138000.0 541063.0 0
142000.0 541003.0 0
146000.0 541025.0 0
150000.0 540989.0 0
154000.0 541016.0 0
158000.0 540989.0 0
162000.0 541005.0 0
166000.0 540989.0 0
170000.0 540993.0 0
174000.0 540989.0 0
178000.0 540989.0 0
182000.0 540989.0 0
186000.0 540989.0 0
190000.0 540989.0 0
194000.0 540989.0 0
198000.0 540989.0 0
202000.0 540989.0 0
206000.0 540989.0 0
210000.0 540989.0 0
214000.0 540989.0 0
218000.0 540989.0 0
222000.0 540989.0 0
226000.0 540989.0 0
230000.0 540989.0 0
234000.0 540989.0 0
238000.0 540989.0 0
242000.0 540989.0 0
246000.0 540989.0 0
250000.0 540989.0 0
254000.0 540989.0 0
258000.0 540989.0 0
262000.0 540989.0 0
266000.0 540989.0 0
270000.0 540989.0 0
274000.0 540989.0 0
278000.0 540989.0 0
282000.0 540989.0 0
286000.0 540989.0 0
290000.0 540989.0 0
294000.0 540989.0 0
298000.0 540989.0 0
302000.0 540989.0 0
306000.0 540989.0 0
310000.0 540989.0 0
314000.0 540989.0 0
318000.0 540989.0 0
322000.0 540989.0 0
326000.0 540989.0 0
330000.0 540993.0 0
334000.0 540989.0 0
338000.0 541005.0 0
342000.0 540989.0 0
346000.0 541016.0 0
350000.0 540989.0 0
354000.0 541025.0 0
358000.0 541003.0 0
362000.0 541063.0 0
366000.0 541030.0 0
370000.0 541093.0 0
374000.0 541085.0 0
378000.0 541097.0 0
382000.0 541030.0 0
386000.0 541055.0 0
390000.0 541094.0 0
394000.0 541101.0 0
398000.0 541107.0 0
102000.0 545099.0 0
106000.0 545093.0 0
110000.0 545086.0 0
114000.0 545051.0 0
118000.0 545027.0 0
122000.0 545089.0 0
126000.0 545075.0 0
130000.0 545083.0 0
134000.0 545023.0 0
138000.0 545055.0 0
142000.0 545000.0 0
146000.0 545021.0 0
150000.0 544989.0 0
154000.0 545012.0 0
158000.0 544989.0 0
162000.0 545002.0 0
166000.0 544989.0 0
170000.0 544992.0 0
174000.0 544989.0 0
178000.0 544989.0 0
182000.0 544989.0 0
186000.0 544989.0 0
190000.0 544989.0 0
194000.0 544989.0 0
198000.0 544989.0 0
202000.0 544989.0 0
206000.0 544989.0 0
210000.0 544989.0 0
214000.0 544989.0 0
218000.0 544989.0 0
222000.0 544989.0 0
226000.0 544989.0 0
230000.0 544989.0 0
234000.0 544989.0 0
238000.0 544989.0 0
242000.0 544989.0 0
246000.0 544989.0 0
250000.0 544989.0 0
254000.0 544989.0 0
258000.0 544989.0 0
262000.0 544989.0 0
266000.0 544989.0 0
270000.0 544989.0 0
274000.0 544989.0 0
278000.0 544989.0 0
282000.0 544989.0 0
286000.0 544989.0 0
290000.0 544989.0 0
294000.0 544989.0 0
298000.0 544989.0 0
302000.0 544989.0 0
306000.0 544989.0 0
310000.0 544989.0 0
314000.0 544989.0 0
318000.0 544989.0 0
322000.0 544989.0 0
326000.0 544989.0 0
330000.0 544992.0 0
334000.0 544989.0 0
338000.0 545002.0 0
342000.0 544989.0 0
346000.0 545012.0 0
350000.0 544989.0 0
354000.0 545021.0 0
358000.0 545000.0 0
362000.0 545055.0 0
366000.0 545023.0 0
370000.0 545083.0 0
374000.0 545075.0 0
378000.0 545089.0 0
382000.0 545027.0 0
386000.0 545051.0 0
390000.0 545086.0 0
394000.0 545093.0 0
398000.0 545099.0 0
102000.0 549092.0 0
106000.0 549085.0 0
110000.0 549079.0 0
114000.0 549047.0 0
118000.0 549024.0 0
122000.0 549081.0 0
126000.0 549065.0 0
130000.0 549074.0 0
134000.0 549017.0 0
138000.0 549048.0 0
142000.0 548997.0 0
146000.0 549017.0 0
150000.0 548989.0 0
154000.0 549009.0 0
158000.0 548989.0 0
162000.0 549000.0 0
166000.0 548989.0 0
170000.0 548991.0 0
174000.0 548989.0 0
178000.0 548989.0 0
182000.0 548989.0 0
186000.0 548989.0 0
190000.0 548989.0 0
194000.0 548989.0 0
198000.0 548989.0 0
202000.0 548989.0 0
206000.0 548989.0 0
210000.0 548989.0 0
214000.0 548989.0 0
218000.0 548989.0 0
222000.0 548989.0 0
226000.0 548989.0 0
230000.0 548989.0 0
234000.0 548989.0 0
238000.0 548989.0 0
242000.0 548989.0 0
246000.0 548989.0 0
250000.0 548989.0 0
254000.0 548989.0 0
258000.0 548989.0 0
262000.0 548989.0 0
266000.0 548989.0 0
270000.0 548989.0 0
274000.0 548989.0 0
278000.0 548989.0 0
282000.0 548989.0 0
286000.0 548989.0 0
290000.0 548989.0 0
294000.0 548989.0 0
298000.0 548989.0 0
302000.0 548989.0 0
306000.0 548989.0 0
310000.0 548989.0 0
314000.0 548989.0 0
318000.0 548989.0 0
322000.0 548989.0 0
326000.0 548989.0 0
330000.0 548991.0 0
334000.0 548989.0 0
338000.0 549000.0 0
342000.0 548989.0 0
346000.0 549009.0 0
350000.0 548989.0 0
354000.0 549017.0 0
358000.0 548997.0 0
362000.0 549048.0 0
366000.0 549017.0 0
370000.0 549074.0 0
374000.0 549065.0 0
378000.0 549081.0 0
382000.0 549024.0 0
386000.0 549047.0 0
390000.0 549079.0 0
394000.0 549085.0 0
398000.0 549092.0 0
102000.0 553086.0 0
106000.0 553078.0 0
110000.0 553072.0 0
114000.0 553044.0 0
118000.0 553022.0 0
122000.0 553074.0 0
126000.0 553055.0 0
130000.0 553065.0 0
134000.0 553012.0 0
138000.0 553041.0 0
142000.0 552996.0 0
146000.0 553014.0 0
150000.0 552989.0 0
154000.0 553007.0 0
158000.0 552989.0 0
162000.0 552998.0 0
166000.0 552989.0 0
170000.0 552991.0 0
174000.0 552989.0 0
178000.0 552989.0 0
182000.0 552989.0 0
186000.0 552989.0 0
190000.0 552989.0 0
194000.0 552989.0 0
198000.0 552989.0 0
202000.0 552989.0 0
206000.0 552989.0 0
210000.0 552989.0 0
214000.0 552989.0 0
218000.0 552989.0 0
222000.0 552989.0 0
226000.0 552989.0 0
230000.0 552989.0 0
234000.0 552989.0 0
238000.0 552989.0 0
242000.0 552989.0 0
246000.0 552989.0 0
250000.0 552989.0 0
254000.0 552989.0 0
258000.0 552989.0 0
262000.0 552989.0 0
266000.0 552989.0 0
270000.0 552989.0 0
274000.0 552989.0 0
278000.0 552989.0 0
282000.0 552989.0 0
286000.0 552989.0 0
290000.0 552989.0 0
294000.0 552989.0 0
298000.0 552989.0 0
302000.0 552989.0 0
306000.0 552989.0 0
310000.0 552989.0 0
314000.0 552989.0 0
318000.0 552989.0 0
322000.0 552989.0 0
326000.0 552989.0 0
330000.0 552991.0 0
334000.0 552989.0 0
338000.0 552998.0 0
342000.0 552989.0 0
346000.0 553007.0 0
350000.0 552989.0 0
354000.0 553014.0 0
358000.0 552996.0 0
362000.0 553041.0 0
366000.0 553012.0 0
370000.0 553065.0 0
374000.0 553055.0 0
378000.0 553074.0 0
382000.0 553022.0 0
386000.0 553044.0 0
390000.0 553072.0 0
394000.0 553078.0 0
398000.0 553086.0 0
102000.0 557079.0 0
106000.0 557072.0 0
110000.0 557065.0 0
114000.0 557040.0 0
118000.0 557019.0 0
122000.0 557067.0 0
126000.0 557047.0 0
130000.0 557057.0 0
134000.0 557008.0 0
138000.0 557036.0 0
142000.0 556994.0 0
146000.0 557011.0 0
150000.0 556989.0 0
154000.0 557004.0 0
158000.0 556989.0 0
162000.0 556996.0 0
166000.0 556989.0 0
170000.0 556990.0 0
174000.0 556989.0 0
178000.0 556989.0 0
182000.0 556989.0 0
186000.0 556989.0 0
190000.0 556989.0 0
194000.0 556989.0 0
198000.0 556989.0 0
202000.0 556989.0 0
206000.0 556989.0 0
210000.0 556989.0 0
214000.0 556989.0 0
218000.0 556989.0 0
222000.0 556989.0 0
226000.0 556989.0 0
230000.0 556989.0 0
234000.0 556989.0 0
238000.0 556989.0 0
242000.0 556989.0 0
246000.0 556989.0 0
250000.0 556989.0 0
254000.0 556989.0 0
258000.0 556989.0 0
262000.0 556989.0 0
266000.0 556989.0 0
270000.0 556989.0 0
274000.0 556989.0 0
278000.0 556989.0 0
282000.0 556989.0 0
286000.0 556989.0 0
290000.0 556989.0 0
294000.0 556989.0 0
298000.0 556989.0 0
302000.0 556989.0 0
306000.0 556989.0 0
310000.0 556989.0 0
314000.0 556989.0 0
318000.0 556989.0 0
322000.0 556989.0 0
326000.0 556989.0 0
330000.0 556990.0 0
334000.0 556989.0 0
338000.0 556996.0 0
342000.0 556989.0 0
346000.0 557004.0 0
350000.0 556989.0 0
354000.0 557011.0 0
358000.0 556994.0 0
362000.0 557036.0 0
366000.0 557008.0 0
370000.0 557057.0 0
374000.0 557047.0 0
378000.0 557067.0 0
382000.0 557019.0 0
386000.0 557040.0 0
390000.0 557065.0 0
394000.0 557072.0 0
398000.0 557079.0 0
102000.0 561073.0 0
106000.0 561066.0 0
110000.0 561059.0 0
114000.0 561037.0 0
118000.0 561017.0 0
122000.0 561060.0 0
126000.0 561040.0 0
130000.0 561050.0 0
134000.0 561005.0 0
138000.0 561031.0 0
142000.0 560993.0 0
146000.0 561009.0 0
150000.0 560989.0 0
154000.0 561002.0 0
158000.0 560989.0 0
162000.0 560995.0 0
166000.0 560989.0 0
170000.0 560990.0 0
174000.0 560989.0 0
178000.0 560989.0 0
182000.0 560989.0 0
186000.0 560989.0 0
190000.0 560989.0 0
194000.0 560989.0 0
198000.0 560989.0 0
202000.0 560989.0 0
206000.0 560989.0 0
210000.0 560989.0 0
214000.0 560989.0 0
218000.0 560989.0 0
222000.0 560989.0 0
226000.0 560989.0 0
230000.0 560989.0 0
234000.0 560989.0 0
238000.0 560989.0 0
242000.0 560989.0 0
246000.0 560989.0 0
250000.0 560989.0 0
254000.0 560989.0 0
258000.0 560989.0 0
262000.0 560989.0 0
266000.0 560989.0 0
270000.0 560989.0 0
274000.0 560989.0 0
278000.0 560989.0 0
282000.0 560989.0 0
286000.0 560989.0 0
290000.0 560989.0 0
294000.0 560989.0 0
298000.0 560989.0 0
302000.0 560989.0 0
306000.0 560989.0 0
310000.0 560989.0 0
314000.0 560989.0 0
318000.0 560989.0 0
322000.0 560989.0 0
326000.0 560989.0 0
330000.0 560990.0 0
334000.0 560989.0 0
338000.0 560995.0 0
342000.0 560989.0 0
346000.0 561002.0 0
350000.0 560989.0 0
354000.0 561009.0 0
358000.0 560993.0 0
362000.0 561031.0 0
366000.0 561005.0 0
370000.0 561050.0 0
374000.0 561040.0 0
378000.0 561060.0 0
382000.0 561017.0 0
386000.0 561037.0 0
390000.0 561059.0 0
394000.0 561066.0 0
398000.0 561073.0 0
102000.0 565067.0 0
106000.0 565060.0 0
110000.0 565053.0 0
114000.0 565034.0 0
118000.0 565015.0 0
122000.0 565054.0 0
126000.0 565033.0 0
130000.0 565044.0 0
134000.0 565002.0 0
138000.0 565026.0 0
142000.0 564992.0 0
146000.0 565006.0 0
150000.0 564989.0 0
154000.0 565000.0 0
158000.0 564989.0 0
162000.0 564994.0 0
166000.0 564989.0 0
170000.0 564989.0 0
174000.0 564989.0 0
178000.0 564989.0 0
182000.0 564989.0 0
186000.0 564989.0 0
190000.0 564989.0 0
194000.0 564989.0 0
198000.0 564989.0 0
202000.0 564989.0 0
206000.0 564989.0 0
210000.0 564989.0 0
214000.0 564989.0 0
218000.0 564989.0 0
222000.0 564989.0 0
226000.0 564989.0 0
230000.0 564989.0 0
234000.0 564989.0 0
238000.0 564989.0 0
242000.0 564989.0 0
246000.0 564989.0 0
250000.0 564989.0 0
254000.0 564989.0 0
258000.0 564989.0 0
262000.0 564989.0 0
266000.0 564989.0 0
270000.0 564989.0 0
274000.0 564989.0 0
278000.0 564989.0 0
282000.0 564989.0 0
286000.0 564989.0 0
290000.0 564989.0 0
294000.0 564989.0 0
298000.0 564989.0 0
302000.0 564989.0 0
306000.0 564989.0 0
310000.0 564989.0 0
314000.0 564989.0 0
318000.0 564989.0 0
322000.0 564989.0 0
326000.0 564989.0 0
330000.0 564989.0 0
334000.0 564989.0 0
338000.0 564994.0 0
342000.0 564989.0 0
346000.0 565000.0 0
350000.0 564989.0 0
354000.0 565006.0 0
358000.0 564992.0 0
362000.0 565026.0 0
366000.0 565002.0 0
370000.0 565044.0 0
374000.0 565033.0 0
378000.0 565054.0 0
382000.0 565015.0 0
386000.0 565034.0 0
390000.0 565053.0 0
394000.0 565060.0 0
398000.0 565067.0 0
102000.0 569062.0 0
106000.0 569055.0 0
110000.0 569048.0 0
114000.0 569031.0 0
118000.0 569013.0 0
122000.0 569048.0 0
126000.0 569027.0 0
130000.0 569038.0 0
134000.0 568999.0 0
138000.0 569022.0 0
142000.0 568991.0 0
146000.0 569004.0 0
150000.0 568989.0 0
154000.0 568999.0 0
158000.0 568989.0 0
162000.0 568993.0 0
166000.0 568989.0 0
170000.0 568989.0 0
174000.0 568989.0 0
178000.0 568989.0 0
182000.0 568989.0 0
186000.0 568989.0 0
190000.0 568989.0 0
194000.0 568989.0 0
198000.0 568989.0 0
202000.0 568989.0 0
206000.0 568989.0 0
210000.0 568989.0 0
214000.0 568989.0 0
218000.0 568989.0 0
222000.0 568989.0 0
226000.0 568989.0 0
230000.0 568989.0 0
234000.0 568989.0 0
238000.0 568989.0 0
242000.0 568989.0 0
246000.0 568989.0 0
250000.0 568989.0 0
254000.0 568989.0 0
258000.0 568989.0 0
262000.0 568989.0 0
266000.0 568989.0 0
270000.0 568989.0 0
274000.0 568989.0 0
278000.0 568989.0 0
282000.0 568989.0 0
286000.0 568989.0 0
290000.0 568989.0 0
294000.0 568989.0 0
298000.0 568989.0 0
302000.0 568989.0 0
306000.0 568989.0 0
310000.0 568989.0 0
314000.0 568989.0 0
318000.0 568989.0 0
322000.0 568989.0 0
326000.0 568989.0 0
330000.0 568989.0 0
334000.0 568989.0 0
338000.0 568993.0 0
342000.0 568989.0 0
346000.0 568999.0 0
350000.0 568989.0 0
354000.0 569004.0 0
358000.0 568991.0 0
362000.0 569022.0 0
366000.0 568999.0 0
370000.0 569038.0 0
374000.0 569027.0 0
378000.0 569048.0 0
382000.0 569013.0 0
386000.0 569031.0 0
390000.0 569048.0 0
394000.0 569055.0 0
398000.0 569062.0 0
102000.0 573057.0 0
106000.0 573050.0 0
110000.0 573043.0 0
114000.0 573028.0 0
118000.0 573011.0 0
122000.0 573043.0 0
126000.0 573022.0 0
130000.0 573033.0 0
134000.0 572997.0 0
138000.0 573018.0 0
142000.0 572991.0 0
146000.0 573002.0 0
150000.0 572989.0 0
154000.0 572997.0 0
158000.0 572989.0 0
162000.0 572992.0 0
166000.0 572989.0 0
170000.0 572989.0 0
174000.0 572989.0 0
178000.0 572989.0 0
182000.0 572989.0 0
186000.0 572989.0 0
190000.0 572989.0 0
194000.0 572989.0 0
198000.0 572989.0 0
202000.0 572989.0 0
206000.0 572989.0 0
210000.0 572989.0 0
214000.0 572989.0 0
218000.0 572989.0 0
222000.0 572989.0 0
226000.0 572989.0 0
230000.0 572989.0 0
234000.0 572989.0 0
238000.0 572989.0 0
242000.0 572989.0 0
246000.0 572989.0 0
250000.0 572989.0 0
254000.0 572989.0 0
258000.0 572989.0 0
262000.0 572989.0 0
266000.0 572989.0 0
270000.0 572989.0 0
274000.0 572989.0 0
278000.0 572989.0 0
282000.0 572989.0 0
286000.0 572989.0 0
290000.0 572989.0 0
294000.0 572989.0 0
298000.0 572989.0 0
302000.0 572989.0 0
306000.0 572989.0 0
310000.0 572989.0 0
314000.0 572989.0 0
318000.0 572989.0 0
322000.0 572989.0 0
326000.0 572989.0 0
330000.0 572989.0 0
334000.0 572989.0 0
338000.0 572992.0 0
342000.0 572989.0 0
346000.0 572997.0 0
350000.0 572989.0 0
354000.0 573002.0 0
358000.0 572991.0 0
362000.0 573018.0 0
366000.0 572997.0 0
370000.0 573033.0 0
374000.0 573022.0 0
378000.0 573043.0 0
382000.0 573011.0 0
386000.0 573028.0 0
390000.0 573043.0 0
394000.0 573050.0 0
398000.0 573057.0 0
102000.0 577052.0 0
106000.0 577046.0 0
110000.0 577038.0 0
114000.0 577025.0 0
118000.0 577009.0 0
122000.0 577038.0 0
126000.0 577017.0 0
130000.0 577028.0 0
134000.0 576996.0 0
138000.0 577015.0 0
142000.0 576990.0 0
146000.0 577001.0 0
150000.0 576989.0 0
154000.0 576996.0 0
158000.0 576989.0 0
162000.0 576991.0 0
166000.0 576989.0 0
170000.0 576989.0 0
174000.0 576989.0 0
178000.0 576989.0 0
182000.0 576989.0 0
186000.0 576989.0 0
190000.0 576989.0 0
194000.0 576989.0 0
198000.0 576989.0 0
202000.0 576989.0 0
206000.0 576989.0 0
210000.0 576989.0 0
214000.0 576989.0 0
218000.0 576989.0 0
222000.0 576989.0 0
226000.0 576989.0 0
230000.0 576989.0 0
234000.0 576989.0 0
238000.0 576989.0 0
242000.0 576989.0 0
246000.0 576989.0 0
250000.0 576989.0 0
254000.0 576989.0 0
258000.0 576989.0 0
262000.0 576989.0 0
266000.0 576989.0 0
270000.0 576989.0 0
274000.0 576989.0 0
278000.0 576989.0 0
282000.0 576989.0 0
286000.0 576989.0 0
290000.0 576989.0 0
294000.0 576989.0 0
298000.0 576989.0 0
302000.0 576989.0 0
306000.0 576989.0 0
310000.0 576989.0 0
314000.0 576989.0 0
318000.0 576989.0 0
322000.0 576989.0 0
326000.0 576989.0 0
330000.0 576989.0 0
334000.0 576989.0 0
338000.0 576991.0 0
342000.0 576989.0 0
346000.0 576996.0 0
350000.0 576989.0 0
354000.0 577001.0 0
358000.0 576990.0 0
362000.0 577015.0 0
366000.0 576996.0 0
370000.0 577028.0 0
374000.0 577017.0 0
378000.0 577038.0 0
382000.0 577009.0 0
386000.0 577025.0 0
390000.0 577038.0 0
394000.0 577046.0 0
398000.0 577052.0 0
102000.0 581047.0 0
106000.0 581041.0 0
110000.0 581034.0 0
114000.0 581022.0 0
118000.0 581007.0 0
122000.0 581033.0 0
126000.0 581013.0 0
130000.0 581023.0 0
134000.0 580994.0 0
138000.0 581012.0 0
142000.0 580990.0 0
146000.0 580999.0 0
150000.0 580989.0 0
154000.0 580995.0 0
158000.0 580989.0 0
162000.0 580991.0 0
166000.0 580989.0 0
170000.0 580989.0 0
174000.0 580989.0 0
178000.0 580989.0 0
182000.0 580989.0 0
186000.0 580989.0 0
190000.0 580989.0 0
194000.0 580989.0 0
198000.0 580989.0 0
202000.0 580989.0 0
206000.0 580989.0 0
210000.0 580989.0 0
214000.0 580989.0 0
218000.0 580989.0 0
222000.0 580989.0 0
226000.0 580989.0 0
230000.0 580989.0 0
234000.0 580989.0 0
238000.0 580989.0 0
242000.0 580989.0 0
246000.0 580989.0 0
250000.0 580989.0 0
254000.0 580989.0 0
258000.0 580989.0 0
262000.0 580989.0 0
266000.0 580989.0 0
270000.0 580989.0 0
274000.0 580989.0 0
278000.0 580989.0 0
282000.0 580989.0 0
286000.0 580989.0 0
290000.0 580989.0 0
294000.0 580989.0 0
298000.0 580989.0 0
302000.0 580989.0 0
306000.0 580989.0 0
310000.0 580989.0 0
314000.0 580989.0 0
318000.0 580989.0 0
322000.0 580989.0 0
326000.0 580989.0 0
330000.0 580989.0 0
334000.0 580989.0 0
338000.0 580991.0 0
342000.0 580989.0 0
346000.0 580995.0 0
350000.0 580989.0 0
354000.0 580999.0 0
358000.0 580990.0 0
362000.0 581012.0 0
366000.0 580994.0 0
370000.0 581023.0 0
374000.0 581013.0 0
378000.0 581033.0 0
382000.0 581007.0 0
386000.0 581022.0 0
390000.0 581034.0 0
394000.0 581041.0 0
398000.0 581047.0 0
102000.0 585043.0 0
106000.0 585037.0 0
110000.0 585030.0 0
114000.0 585019.0 0
118000.0 585006.0 0
122000.0 585029.0 0
126000.0 585009.0 0
130000.0 585020.0 0
134000.0 584993.0 0
138000.0 585010.0 0
142000.0 584989.0 0
146000.0 584998.0 0
150000.0 584989.0 0
154000.0 584994.0 0
158000.0 584989.0 0
162000.0 584990.0 0
166000.0 584989.0 0
170000.0 584989.0 0
174000.0 584989.0 0
178000.0 584989.0 0
182000.0 584989.0 0
186000.0 584989.0 0
190000.0 584989.0 0
194000.0 584989.0 0
198000.0 584989.0 0
202000.0 584989.0 0
206000.0 584989.0 0
210000.0 584989.0 0
214000.0 584989.0 0
218000.0 584989.0 0
222000.0 584989.0 0
226000.0 584989.0 0
230000.0 584989.0 0
234000.0 584989.0 0
238000.0 584989.0 0
242000.0 584989.0 0
246000.0 584989.0 0
250000.0 584989.0 0
254000.0 584989.0 0
258000.0 584989.0 0
262000.0 584989.0 0
266000.0 584989.0 0
270000.0 584989.0 0
274000.0 584989.0 0
278000.0 584989.0 0
282000.0 584989.0 0
286000.0 584989.0 0
290000.0 584989.0 0
294000.0 584989.0 0
298000.0 584989.0 0
302000.0 584989.0 0
306000.0 584989.0 0
310000.0 584989.0 0
314000.0 584989.0 0
318000.0 584989.0 0
322000.0 584989.0 0
326000.0 584989.0 0
330000.0 584989.0 0
334000.0 584989.0 0
338000.0 584990.0 0
342000.0 584989.0 0
346000.0 584994.0 0
350000.0 584989.0 0
354000.0 584998.0 0
358000.0 584989.0 0
362000.0 585010.0 0
366000.0 584993.0 0
370000.0 585020.0 0
374000.0 585009.0 0
378000.0 585029.0 0
382000.0 585006.0 0
386000.0 585019.0 0
390000.0 585030.0 0
394000.0 585037.0 0
398000.0 585043.0 0
102000.0 589039.0 0
106000.0 589034.0 0
110000.0 589026.0 0
114000.0 589017.0 0
118000.0 589004.0 0
122000.0 589025.0 0
126000.0 589006.0 0
130000.0 589016.0 0
134000.0 588992.0 0
138000.0 589007.0 0
142000.0 588989.0 0
146000.0 588997.0 0
150000.0 588989.0 0
154000.0 588993.0 0
158000.0 588989.0 0
162000.0 588990.0 0
166000.0 588989.0 0
170000.0 588989.0 0
174000.0 588989.0 0
178000.0 588989.0 0
182000.0 588989.0 0
186000.0 588989.0 0
190000.0 588989.0 0
194000.0 588989.0 0
198000.0 588989.0 0
202000.0 588989.0 0
206000.0 588989.0 0
210000.0 588989.0 0
214000.0 588989.0 0
218000.0 588989.0 0
222000.0 588989.0 0
226000.0 588989.0 0
230000.0 588989.0 0
234000.0 588989.0 0
238000.0 588989.0 0
242000.0 588989.0 0
246000.0 588989.0 0
250000.0 588989.0 0
254000.0 588989.0 0
258000.0 588989.0 0
262000.0 588989.0 0
266000.0 588989.0 0
270000.0 588989.0 0
274000.0 588989.0 0
278000.0 588989.0 0
282000.0 588989.0 0
286000.0 588989.0 0
290000.0 588989.0 0
294000.0 588989.0 0
298000.0 588989.0 0
302000.0 588989.0 0
306000.0 588989.0 0
310000.0 588989.0 0
314000.0 588989.0 0
318000.0 588989.0 0
322000.0 588989.0 0
326000.0 588989.0 0
330000.0 588989.0 0
334000.0 588989.0 0
338000.0 588990.0 0
342000.0 588989.0 0
346000.0 588993.0 0
350000.0 588989.0 0
354000.0 588997.0 0
358000.0 588989.0 0
362000.0 589007.0 0
366000.0 588992.0 0
370000.0 589016.0 0
374000.0 589006.0 0
378000.0 589025.0 0
382000.0 589004.0 0
386000.0 589017.0 0
390000.0 589026.0 0
394000.0 589034.0 0
398000.0 589039.0 0
102000.0 593035.0 0
106000.0 593031.0 0
110000.0 593023.0 0
114000.0 593015.0 0
118000.0 593003.0 0
122000.0 593021.0 0
126000.0 593004.0 0
130000.0 593013.0 0
134000.0 592992.0 0
138000.0 593005.0 0
142000.0 592989.0 0
146000.0 592996.0 0
150000.0 592989.0 0
154000.0 592992.0 0
158000.0 592989.0 0
162000.0 592990.0 0
166000.0 592989.0 0
170000.0 592989.0 0
174000.0 592989.0 0
178000.0 592989.0 0
182000.0 592989.0 0
186000.0 592989.0 0
190000.0 592989.0 0
194000.0 592989.0 0
198000.0 592989.0 0
202000.0 592989.0 0
206000.0 592989.0 0
210000.0 592989.0 0
214000.0 592989.0 0
218000.0 592989.0 0
222000.0 592989.0 0
226000.0 592989.0 0
230000.0 592989.0 0
234000.0 592989.0 0
238000.0 592989.0 0
242000.0 592989.0 0
246000.0 592989.0 0
250000.0 592989.0 0
254000.0 592989.0 0
258000.0 592989.0 0
262000.0 592989.0 0
266000.0 592989.0 0
270000.0 592989.0 0
274000.0 592989.0 0
278000.0 592989.0 0
282000.0 592989.0 0
286000.0 592989.0 0
290000.0 592989.0 0
294000.0 592989.0 0
298000.0 592989.0 0
302000.0 592989.0 0
306000.0 592989.0 0
310000.0 592989.0 0
314000.0 592989.0 0
318000.0 592989.0 0
322000.0 592989.0 0
326000.0 592989.0 0
330000.0 592989.0 0
334000.0 592989.0 0
338000.0 592990.0 0
342000.0 592989.0 0
346000.0 592992.0 0
350000.0 592989.0 0
354000.0 592996.0 0
358000.0 592989.0 0
362000.0 593005.0 0
366000.0 592992.0 0
370000.0 593013.0 0
374000.0 593004.0 0
378000.0 593021.0 0
382000.0 593003.0 0
386000.0 593015.0 0
390000.0 593023.0 0
394000.0 593031.0 0
398000.0 593035.0 0
102000.0 597032.0 0
106000.0 597028.0 0
110000.0 597020.0 0
114000.0 597013.0 0
118000.0 597001.0 0
122000.0 597018.0 0
126000.0 597001.0 0
130000.0 597010.0 0
134000.0 596991.0 0
138000.0 597003.0 0
142000.0 596989.0 0
146000.0 596995.0 0
150000.0 596989.0 0
154000.0 596992.0 0
158000.0 596989.0 0
162000.0 596989.0 0
166000.0 596989.0 0
170000.0 596989.0 0
174000.0 596989.0 0
178000.0 596989.0 0
182000.0 596989.0 0
186000.0 596989.0 0
190000.0 596989.0 0
194000.0 596989.0 0
198000.0 596989.0 0
202000.0 596989.0 0
206000.0 596989.0 0
210000.0 596989.0 0
214000.0 596989.0 0
218000.0 596989.0 0
222000.0 596989.0 0
226000.0 596989.0 0
230000.0 596989.0 0
234000.0 596989.0 0
238000.0 596989.0 0
242000.0 596989.0 0
246000.0 596989.0 0
250000.0 596989.0 0
254000.0 596989.0 0
258000.0 596989.0 0
262000.0 596989.0 0
266000.0 596989.0 0
270000.0 596989.0 0
274000.0 596989.0 0
278000.0 596989.0 0
282000.0 596989.0 0
286000.0 596989.0 0
290000.0 596989.0 0
294000.0 596989.0 0
298000.0 596989.0 0
302000.0 596989.0 0
306000.0 596989.0 0
310000.0 596989.0 0
314000.0 596989.0 0
318000.0 596989.0 0
322000.0 596989.0 0
326000.0 596989.0 0
330000.0 596989.0 0
334000.0 596989.0 0
338000.0 596989.0 0
342000.0 596989.0 0
346000.0 596992.0 0
350000.0 596989.0 0
354000.0 596995.0 0
358000.0 596989.0 0
362000.0 597003.0 0
366000.0 596991.0 0
370000.0 597010.0 0
374000.0 597001.0 0
378000.0 597018.0 0
382000.0 597001.0 0
386000.0 597013.0 0
390000.0 597020.0 0
394000.0 597028.0 0
398000.0 597032.0 0
102000.0 601029.0 0
106000.0 601025.0 0
110000.0 601017.0 0
114000.0 601011.0 0
118000.0 601000.0 0
122000.0 601015.0 0
126000.0 600999.0 0
130000.0 601008.0 0
134000.0 600991.0 0
138000.0 601001.0 0
142000.0 600989.0 0
146000.0 600994.0 0
150000.0 600989.0 0
154000.0 600991.0 0
158000.0 600989.0 0
162000.0 600989.0 0
166000.0 600989.0 0
170000.0 600989.0 0
174000.0 600989.0 0
178000.0 600989.0 0
182000.0 600989.0 0
186000.0 600989.0 0
190000.0 600989.0 0
194000.0 600989.0 0
198000.0 600989.0 0
202000.0 600989.0 0
206000.0 600989.0 0
210000.0 600989.0 0
214000.0 600989.0 0
218000.0 600989.0 0
222000.0 600989.0 0
226000.0 600989.0 0
230000.0 600989.0 0
234000.0 600989.0 0
238000.0 600989.0 0
242000.0 600989.0 0
246000.0 600989.0 0
250000.0 600989.0 0
254000.0 600989.0 0
258000.0 600989.0 0
262000.0 600989.0 0
266000.0 600989.0 0
270000.0 600989.0 0
274000.0 600989.0 0
278000.0 600989.0 0
282000.0 600989.0 0
286000.0 600989.0 0
290000.0 600989.0 0
294000.0 600989.0 0
298000.0 600989.0 0
302000.0 600989.0 0
306000.0 600989.0 0
310000.0 600989.0 0
314000.0 600989.0 0
318000.0 600989.0 0
322000.0 600989.0 0
326000.0 600989.0 0
330000.0 600989.0 0
334000.0 600989.0 0
338000.0 600989.0 0
342000.0 600989.0 0
346000.0 600991.0 0
350000.0 600989.0 0
354000.0 600994.0 0
358000.0 600989.0 0
362000.0 601001.0 0
366000.0 600991.0 0
370000.0 601008.0 0
374000.0 600999.0 0
378000.0 601015.0 0
382000.0 601000.0 0
386000.0 601011.0 0
390000.0 601017.0 0
394000.0 601025.0 0
398000.0 601029.0 0
102000.0 605026.0 0
106000.0 605022.0 0
110000.0 605014.0 0
114000.0 605009.0 0
118000.0 604999.0 0
122000.0 605012.0 0
126000.0 604998.0 0
130000.0 605006.0 0
134000.0 604990.0 0
138000.0 605000.0 0
142000.0 604989.0 0
146000.0 604993.0 0
150000.0 604989.0 0
154000.0 604991.0 0
158000.0 604989.0 0
162000.0 604989.0 0
166000.0 604989.0 0
170000.0 604989.0 0
174000.0 604989.0 0
178000.0 604989.0 0
182000.0 604989.0 0
186000.0 604989.0 0
190000.0 604989.0 0
194000.0 604989.0 0
198000.0 604989.0 0
202000.0 604989.0 0
206000.0 604989.0 0
210000.0 604989.0 0
214000.0 604989.0 0
218000.0 604989.0 0
222000.0 604989.0 0
226000.0 604989.0 0
230000.0 604989.0 0
234000.0 604989.0 0
238000.0 604989.0 0
242000.0 604989.0 0
246000.0 604989.0 0
250000.0 604989.0 0
254000.0 604989.0 0
258000.0 604989.0 0
262000.0 604989.0 0
266000.0 604989.0 0
270000.0 604989.0 0
274000.0 604989.0 0
278000.0 604989.0 0
282000.0 604989.0 0
286000.0 604989.0 0
290000.0 604989.0 0
294000.0 604989.0 0
298000.0 604989.0 0
302000.0 604989.0 0
306000.0 604989.0 0
310000.0 604989.0 0
314000.0 604989.0 0
318000.0 604989.0 0
322000.0 604989.0 0
326000.0 604989.0 0
330000.0 604989.0 0
334000.0 604989.0 0
338000.0 604989.0 0
342000.0 604989.0 0
346000.0 604991.0 0
350000.0 604989.0 0
354000.0 604993.0 0
358000.0 604989.0 0
362000.0 605000.0 0
366000.0 604990.0 0
370000.0 605006.0 0
374000.0 604998.0 0
378000.0 605012.0 0
382000.0 604999.0 0
386000.0 605009.0 0
390000.0 605014.0 0
394000.0 605022.0 0
398000.0 605026.0 0
102000.0 609024.0 0
106000.0 609020.0 0
110000.0 609012.0 0
114000.0 609007.0 0
118000.0 608998.0 0
122000.0 609010.0 0
126000.0 608996.0 0
130000.0 609004.0 0
134000.0 608990.0 0
138000.0 608998.0 0
142000.0 608989.0 0
146000.0 608992.0 0
150000.0 608989.0 0
154000.0 608990.0 0
158000.0 608989.0 0
162000.0 608989.0 0
166000.0 608989.0 0
170000.0 608989.0 0
174000.0 608989.0 0
178000.0 608989.0 0
182000.0 608989.0 0
186000.0 608989.0 0
190000.0 608989.0 0
194000.0 608989.0 0
198000.0 608989.0 0
202000.0 608989.0 0
206000.0 608989.0 0
210000.0 608989.0 0
214000.0 608989.0 0
218000.0 608989.0 0
222000.0 608989.0 0
226000.0 608989.0 0
230000.0 608989.0 0
234000.0 608989.0 0
238000.0 608989.0 0
242000.0 608989.0 0
246000.0 608989.0 0
250000.0 608989.0 0
254000.0 608989.0 0
258000.0 608989.0 0
262000.0 608989.0 0
266000.0 608989.0 0
270000.0 608989.0 0
274000.0 608989.0 0
278000.0 608989.0 0
282000.0 608989.0 0
286000.0 608989.0 0
290000.0 608989.0 0
294000.0 608989.0 0
298000.0 608989.0 0
302000.0 608989.0 0
306000.0 608989.0 0
310000.0 608989.0 0
314000.0 608989.0 0
318000.0 608989.0 0
322000.0 608989.0 0
326000.0 608989.0 0
330000.0 608989.0 0
334000.0 608989.0 0
338000.0 608989.0 0
342000.0 608989.0 0
346000.0 608990.0 0
350000.0 608989.0 0
354000.0 608992.0 0
358000.0 608989.0 0
362000.0 608998.0 0
366000.0 608990.0 0
370000.0 609004.0 0
374000.0 608996.0 0
378000.0 609010.0 0
382000.0 608998.0 0
386000.0 609007.0 0
390000.0 609012.0 0
394000.0 609020.0 0
398000.0 609024.0 0
102000.0 613021.0 0
106000.0 613018.0 0
110000.0 613010.0 0
114000.0 613006.0 0
118000.0 612997.0 0
122000.0 613008.0 0
126000.0 612995.0 0
130000.0 613002.0 0
134000.0 612990.0 0
138000.0 612997.0 0
142000.0 612989.0 0
146000.0 612992.0 0
150000.0 612989.0 0
154000.0 612990.0 0
158000.0 612989.0 0
162000.0 612989.0 0
166000.0 612989.0 0
170000.0 612989.0 0
174000.0 612989.0 0
178000.0 612989.0 0
182000.0 612989.0 0
186000.0 612989.0 0
190000.0 612989.0 0
194000.0 612989.0 0
198000.0 612989.0 0
202000.0 612989.0 0
206000.0 612989.0 0
210000.0 612989.0 0
214000.0 612989.0 0
218000.0 612989.0 0
222000.0 612989.0 0
226000.0 612989.0 0
230000.0 612989.0 0
234000.0 612989.0 0
238000.0 612989.0 0
242000.0 612989.0 0
246000.0 612989.0 0
250000.0 612989.0 0
254000.0 612989.0 0
258000.0 612989.0 0
262000.0 612989.0 0
266000.0 612989.0 0
270000.0 612989.0 0
274000.0 612989.0 0
278000.0 612989.0 0
282000.0 612989.0 0
286000.0 612989.0 0
290000.0 612989.0 0
294000.0 612989.0 0
298000.0 612989.0 0
302000.0 612989.0 0
306000.0 612989.0 0
310000.0 612989.0 0
314000.0 612989.0 0
318000.0 612989.0 0
322000.0 612989.0 0
326000.0 612989.0 0
330000.0 612989.0 0
334000.0 612989.0 0
338000.0 612989.0 0
342000.0 612989.0 0
346000.0 612990.0 0
350000.0 612989.0 0
354000.0 612992.0 0
358000.0 612989.0 0
362000.0 612997.0 0
366000.0 612990.0 0
370000.0 613002.0 0
374000.0 612995.0 0
378000.0 613008.0 0
382000.0 612997.0 0
386000.0 613006.0 0
390000.0 613010.0 0
394000.0 613018.0 0
398000.0 613021.0 0
102000.0 617019.0 0
106000.0 617016.0 0
110000.0 617009.0 0
114000.0 617005.0 0
118000.0 616996.0 0
122000.0 617006.0 0
126000.0 616994.0 0
130000.0 617001.0 0
134000.0 616989.0 0
138000.0 616996.0 0
142000.0 616989.0 0
146000.0 616991.0 0
150000.0 616989.0 0
154000.0 616990.0 0
158000.0 616989.0 0
162000.0 616989.0 0
166000.0 616989.0 0
170000.0 616989.0 0
174000.0 616989.0 0
178000.0 616989.0 0
182000.0 616989.0 0
186000.0 616989.0 0
190000.0 616989.0 0
194000.0 616989.0 0
198000.0 616989.0 0
202000.0 616989.0 0
206000.0 616989.0 0
210000.0 616989.0 0
214000.0 616989.0 0
218000.0 616989.0 0
222000.0 616989.0 0
226000.0 616989.0 0
230000.0 616989.0 0
234000.0 616989.0 0
238000.0 616989.0 0
242000.0 616989.0 0
246000.0 616989.0 0
250000.0 616989.0 0
254000.0 616989.0 0
258000.0 616989.0 0
262000.0 616989.0 0
266000.0 616989.0 0
270000.0 616989.0 0
274000.0 616989.0 0
278000.0 616989.0 0
282000.0 616989.0 0
286000.0 616989.0 0
290000.0 616989.0 0
294000.0 616989.0 0
298000.0 616989.0 0
302000.0 616989.0 0
306000.0 616989.0 0
310000.0 616989.0 0
314000.0 616989.0 0
318000.0 616989.0 0
322000.0 616989.0 0
326000.0 616989.0 0
330000.0 616989.0 0
334000.0 616989.0 0
338000.0 616989.0 0
342000.0 616989.0 0
346000.0 616990.0 0
350000.0 616989.0 0
354000.0 616991.0 0
358000.0 616989.0 0
362000.0 616996.0 0
366000.0 616989.0 0
370000.0 617001.0 0
374000.0 616994.0 0
378000.0 617006.0 0
382000.0 616996.0 0
386000.0 617005.0 0
390000.0 617009.0 0
394000.0 617016.0 0
398000.0 617019.0 0
102000.0 621017.0 0
106000.0 621014.0 0
110000.0 621007.0 0
114000.0 621004.0 0
118000.0 620996.0 0
122000.0 621004.0 0
126000.0 620993.0 0
130000.0 620999.0 0
134000.0 620989.0 0
138000.0 620995.0 0
142000.0 620989.0 0
146000.0 620991.0 0
150000.0 620989.0 0
154000.0 620989.0 0
158000.0 620989.0 0
162000.0 620989.0 0
166000.0 620989.0 0
170000.0 620989.0 0
174000.0 620989.0 0
178000.0 620989.0 0
182000.0 620989.0 0
186000.0 620989.0 0
190000.0 620989.0 0
194000.0 620989.0 0
198000.0 620989.0 0
202000.0 620989.0 0
206000.0 620989.0 0
210000.0 620989.0 0
214000.0 620989.0 0
218000.0 620989.0 0
222000.0 620989.0 0
226000.0 620989.0 0
230000.0 620989.0 0
234000.0 620989.0 0
238000.0 620989.0 0
242000.0 620989.0 0
246000.0 620989.0 0
250000.0 620989.0 0
254000.0 620989.0 0
258000.0 620989.0 0
262000.0 620989.0 0
266000.0 620989.0 0
270000.0 620989.0 0
274000.0 620989.0 0
278000.0 620989.0 0
282000.0 620989.0 0
286000.0 620989.0 0
290000.0 620989.0 0
294000.0 620989.0 0
298000.0 620989.0 0
302000.0 620989.0 0
306000.0 620989.0 0
310000.0 620989.0 0
314000.0 620989.0 0
318000.0 620989.0 0
322000.0 620989.0 0
326000.0 620989.0 0
330000.0 620989.0 0
334000.0 620989.0 0
338000.0 620989.0 0
342000.0 620989.0 0
346000.0 620989.0 0
350000.0 620989.0 0
354000.0 620991.0 0
358000.0 620989.0 0
362000.0 620995.0 0
366000.0 620989.0 0
370000.0 620999.0 0
374000.0 620993.0 0
378000.0 621004.0 0
382000.0 620996.0 0
386000.0 621004.0 0
390000.0 621007.0 0
394000.0 621014.0 0
398000.0 621017.0 0
102000.0 625016.0 0
106000.0 625013.0 0
110000.0 625006.0 0
114000.0 625003.0 0
118000.0 624995.0 0
122000.0 625003.0 0
126000.0 624992.0 0
130000.0 624998.0 0
134000.0 624989.0 0
138000.0 624995.0 0
142000.0 624989.0 0
146000.0 624991.0 0
150000.0 624989.0 0
154000.0 624989.0 0
158000.0 624989.0 0
162000.0 624989.0 0
166000.0 624989.0 0
170000.0 624989.0 0
174000.0 624989.0 0
178000.0 624989.0 0
182000.0 624989.0 0
186000.0 624989.0 0
190000.0 624989.0 0
194000.0 624989.0 0
198000.0 624989.0 0
202000.0 624989.0 0
206000.0 624989.0 0
210000.0 624989.0 0
214000.0 624989.0 0
218000.0 624989.0 0
222000.0 624989.0 0
226000.0 624989.0 0
230000.0 624989.0 0
234000.0 624989.0 0
238000.0 624989.0 0
242000.0 624989.0 0
246000.0 624989.0 0
250000.0 624989.0 0
254000.0 624989.0 0
258000.0 624989.0 0
262000.0 624989.0 0
266000.0 624989.0 0
270000.0 624989.0 0
274000.0 624989.0 0
278000.0 624989.0 0
282000.0 624989.0 0
286000.0 624989.0 0
290000.0 624989.0 0
294000.0 624989.0 0
298000.0 624989.0 0
302000.0 624989.0 0
306000.0 624989.0 0
310000.0 624989.0 0
314000.0 624989.0 0
318000.0 624989.0 0
322000.0 624989.0 0
326000.0 624989.0 0
330000.0 624989.0 0
334000.0 624989.0 0
338000.0 624989.0 0
342000.0 624989.0 0
346000.0 624989.0 0
350000.0 624989.0 0
354000.0 624991.0 0
358000.0 624989.0 0
362000.0 624995.0 0
366000.0 624989.0 0
370000.0 624998.0 0
374000.0 624992.0 0
378000.0 625003.0 0
382000.0 624995.0 0
386000.0 625003.0 0
390000.0 625006.0 0
394000.0 625013.0 0
398000.0 625016.0 0
102000.0 629015.0 0
106000.0 629012.0 0
110000.0 629005.0 0
114000.0 629002.0 0
118000.0 628995.0 0
122000.0 629001.0 0
126000.0 628992.0 0
130000.0 628997.0 0
134000.0 628989.0 0
138000.0 628994.0 0
142000.0 628989.0 0
146000.0 628990.0 0
150000.0 628989.0 0
154000.0 628989.0 0
158000.0 628989.0 0
162000.0 628989.0 0
166000.0 628989.0 0
170000.0 628989.0 0
174000.0 628989.0 0
178000.0 628989.0 0
182000.0 628989.0 0
186000.0 628989.0 0
190000.0 628989.0 0
194000.0 628989.0 0
198000.0 628989.0 0
202000.0 628989.0 0
206000.0 628989.0 0
210000.0 628989.0 0
214000.0 628989.0 0
218000.0 628989.0 0
222000.0 628989.0 0
226000.0 628989.0 0
230000.0 628989.0 0
234000.0 628989.0 0
238000.0 628989.0 0
242000.0 628989.0 0
246000.0 628989.0 0
250000.0 628989.0 0
254000.0 628989.0 0
258000.0 628989.0 0
262000.0 628989.0 0
266000.0 628989.0 0
270000.0 628989.0 0
274000.0 628989.0 0
278000.0 628989.0 0
282000.0 628989.0 0
286000.0 628989.0 0
290000.0 628989.0 0
294000.0 628989.0 0
298000.0 628989.0 0
302000.0 628989.0 0
306000.0 628989.0 0
310000.0 628989.0 0
314000.0 628989.0 0
318000.0 628989.0 0
322000.0 628989.0 0
326000.0 628989.0 0
330000.0 628989.0 0
334000.0 628989.0 0
338000.0 628989.0 0
342000.0 628989.0 0
346000.0 628989.0 0
350000.0 628989.0 0
354000.0 628990.0 0
358000.0 628989.0 0
362000.0 628994.0 0
366000.0 628989.0 0
370000.0 628997.0 0
374000.0 628992.0 0
378000.0 629001.0 0
382000.0 628995.0 0
386000.0 629002.0 0
390000.0 629005.0 0
394000.0 629012.0 0
398000.0 629015.0 0
102000.0 633013.0 0
106000.0 633011.0 0
110000.0 633004.0 0
114000.0 633001.0 0
118000.0 632994.0 0
122000.0 633000.0 0
126000.0 632991.0 0
130000.0 632997.0 0
134000.0 632989.0 0
138000.0 632993.0 0
142000.0 632989.0 0
146000.0 632990.0 0
150000.0 632989.0 0
154000.0 632989.0 0
158000.0 632989.0 0
162000.0 632989.0 0
166000.0 632989.0 0
170000.0 632989.0 0
174000.0 632989.0 0
178000.0 632989.0 0
182000.0 632989.0 0
186000.0 632989.0 0
190000.0 632989.0 0
194000.0 632989.0 0
198000.0 632989.0 0
202000.0 632989.0 0
206000.0 632989.0 0
210000.0 632989.0 0
214000.0 632989.0 0
218000.0 632989.0 0
222000.0 632989.0 0
226000.0 632989.0 0
230000.0 632989.0 0
234000.0 632989.0 0
238000.0 632989.0 0
242000.0 632989.0 0
246000.0 632989.0 0
250000.0 632989.0 0
254000.0 632989.0 0
258000.0 632989.0 0
262000.0 632989.0 0
266000.0 632989.0 0
270000.0 632989.0 0
274000.0 632989.0 0
278000.0 632989.0 0
282000.0 632989.0 0
286000.0 632989.0 0
290000.0 632989.0 0
294000.0 632989.0 0
298000.0 632989.0 0
302000.0 632989.0 0
306000.0 632989.0 0
310000.0 632989.0 0
314000.0 632989.0 0
318000.0 632989.0 0
322000.0 632989.0 0
326000.0 632989.0 0
330000.0 632989.0 0
334000.0 632989.0 0
338000.0 632989.0 0
342000.0 632989.0 0
346000.0 632989.0 0
350000.0 632989.0 0
354000.0 632990.0 0
358000.0 632989.0 0
362000.0 632993.0 0
366000.0 632989.0 0
370000.0 632997.0 0
374000.0 632991.0 0
378000.0 633000.0 0
382000.0 632994.0 0
386000.0 633001.0 0
390000.0 633004.0 0
394000.0 633011.0 0
398000.0 633013.0 0
102000.0 637013.0 0
106000.0 637010.0 0
110000.0 637003.0 0
114000.0 637000.0 0
118000.0 636994.0 0
122000.0 637000.0 0
126000.0 636991.0 0
130000.0 636996.0 0
134000.0 636989.0 0
138000.0 636993.0 0
142000.0 636989.0 0
146000.0 636990.0 0
150000.0 636989.0 0
154000.0 636989.0 0
158000.0 636989.0 0
162000.0 636989.0 0
166000.0 636989.0 0
170000.0 636989.0 0
174000.0 636989.0 0
178000.0 636989.0 0
182000.0 636989.0 0
186000.0 636989.0 0
190000.0 636989.0 0
194000.0 636989.0 0
198000.0 636989.0 0
202000.0 636989.0 0
206000.0 636989.0 0
210000.0 636989.0 0
214000.0 636989.0 0
218000.0 636989.0 0
222000.0 636989.0 0
226000.0 636989.0 0
230000.0 636989.0 0
234000.0 636989.0 0
238000.0 636989.0 0
242000.0 636989.0 0
246000.0 636989.0 0
250000.0 636989.0 0
254000.0 636989.0 0
258000.0 636989.0 0
262000.0 636989.0 0
266000.0 636989.0 0
270000.0 636989.0 0
274000.0 636989.0 0
278000.0 636989.0 0
282000.0 636989.0 0
286000.0 636989.0 0
290000.0 636989.0 0
294000.0 636989.0 0
298000.0 636989.0 0
302000.0 636989.0 0
306000.0 636989.0 0
310000.0 636989.0 0
314000.0 636989.0 0
318000.0 636989.0 0
322000.0 636989.0 0
326000.0 636989.0 0
330000.0 636989.0 0
334000.0 636989.0 0
338000.0 636989.0 0
342000.0 636989.0 0
346000.0 636989.0 0
350000.0 636989.0 0
354000.0 636990.0 0
358000.0 636989.0 0
362000.0 636993.0 0
366000.0 636989.0 0
370000.0 636996.0 0
374000.0 636991.0 0
378000.0 637000.0 0
382000.0 636994.0 0
386000.0 637000.0 0
390000.0 637003.0 0
394000.0 637010.0 0
398000.0 637013.0 0
102000.0 641012.0 0
106000.0 641009.0 0
110000.0 641003.0 0
114000.0 641000.0 0
118000.0 640994.0 0
122000.0 640999.0 0
126000.0 640991.0 0
130000.0 640996.0 0
134000.0 640989.0 0
138000.0 640993.0 0
142000.0 640989.0 0
146000.0 640990.0 0
150000.0 640989.0 0
154000.0 640989.0 0
158000.0 640989.0 0
162000.0 640989.0 0
166000.0 640989.0 0
170000.0 640989.0 0
174000.0 640989.0 0
178000.0 640989.0 0
182000.0 640989.0 0
186000.0 640989.0 0
190000.0 640989.0 0
194000.0 640989.0 0
198000.0 640989.0 0
202000.0 640989.0 0
206000.0 640989.0 0
210000.0 640989.0 0
214000.0 640989.0 0
218000.0 640989.0 0
222000.0 640989.0 0
226000.0 640989.0 0
230000.0 640989.0 0
234000.0 640989.0 0
238000.0 640989.0 0
242000.0 640989.0 0
246000.0 640989.0 0
250000.0 640989.0 0
254000.0 640989.0 0
258000.0 640989.0 0
262000.0 640989.0 0
266000.0 640989.0 0
270000.0 640989.0 0
274000.0 640989.0 0
278000.0 640989.0 0
282000.0 640989.0 0
286000.0 640989.0 0
290000.0 640989.0 0
294000.0 640989.0 0
298000.0 640989.0 0
302000.0 640989.0 0
306000.0 640989.0 0
310000.0 640989.0 0
314000.0 640989.0 0
318000.0 640989.0 0
322000.0 640989.0 0
326000.0 640989.0 0
330000.0 640989.0 0
334000.0 640989.0 0
338000.0 640989.0 0
342000.0 640989.0 0
346000.0 640989.0 0
350000.0 640989.0 0
354000.0 640990.0 0
358000.0 640989.0 0
362000.0 640993.0 0
366000.0 640989.0 0
370000.0 640996.0 0
374000.0 640991.0 0
378000.0 640999.0 0
382000.0 640994.0 0
386000.0 641000.0 0
390000.0 641003.0 0
394000.0 641009.0 0
398000.0 641012.0 0
102000.0 645011.0 0
106000.0 645009.0 0
110000.0 645002.0 0
114000.0 645000.0 0
118000.0 644993.0 0
122000.0 644999.0 0
126000.0 644991.0 0
130000.0 644995.0 0
134000.0 644989.0 0
138000.0 644993.0 0
142000.0 644989.0 0
146000.0 644990.0 0
150000.0 644989.0 0
154000.0 644989.0 0
158000.0 644989.0 0
162000.0 644989.0 0
166000.0 644989.0 0
170000.0 644989.0 0
174000.0 644989.0 0
178000.0 644989.0 0
182000.0 644989.0 0
186000.0 644989.0 0
190000.0 644989.0 0
194000.0 644989.0 0
198000.0 644989.0 0
202000.0 644989.0 0
206000.0 644989.0 0
210000.0 644989.0 0
214000.0 644989.0 0
218000.0 644989.0 0
222000.0 644989.0 0
226000.0 644989.0 0
230000.0 644989.0 0
234000.0 644989.0 0
238000.0 644989.0 0
242000.0 644989.0 0
246000.0 644989.0 0
250000.0 644989.0 0
254000.0 644989.0 0
258000.0 644989.0 0
262000.0 644989.0 0
266000.0 644989.0 0
270000.0 644989.0 0
274000.0 644989.0 0
278000.0 644989.0 0
282000.0 644989.0 0
286000.0 644989.0 0
290000.0 644989.0 0
294000.0 644989.0 0
298000.0 644989.0 0
302000.0 644989.0 0
306000.0 644989.0 0
310000.0 644989.0 0
314000.0 644989.0 0
318000.0 644989.0 0
322000.0 644989.0 0
326000.0 644989.0 0
330000.0 644989.0 0
334000.0 644989.0 0
338000.0 644989.0 0
342000.0 644989.0 0
346000.0 644989.0 0
350000.0 644989.0 0
354000.0 644990.0 0
358000.0 644989.0 0
362000.0 644993.0 0
366000.0 644989.0 0
370000.0 644995.0 0
374000.0 644991.0 0
378000.0 644999.0 0
382000.0 644993.0 0
386000.0 645000.0 0
390000.0 645002.0 0
394000.0 645009.0 0
398000.0 645011.0 0
102000.0 649011.0 0
106000.0 649009.0 0
110000.0 649002.0 0
114000.0 649000.0 0
118000.0 648993.0 0
122000.0 648999.0 0
126000.0 648991.0 0
130000.0 648995.0 0
134000.0 648989.0 0
138000.0 648992.0 0
142000.0 648989.0 0
146000.0 648990.0 0
150000.0 648989.0 0
154000.0 648989.0 0
158000.0 648989.0 0
162000.0 648989.0 0
166000.0 648989.0 0
170000.0 648989.0 0
174000.0 648989.0 0
178000.0 648989.0 0
182000.0 648989.0 0
186000.0 648989.0 0
190000.0 648989.0 0
194000.0 648989.0 0
198000.0 648989.0 0
202000.0 648989.0 0
206000.0 648989.0 0
210000.0 648989.0 0
214000.0 648989.0 0
218000.0 648989.0 0
222000.0 648989.0 0
226000.0 648989.0 0
230000.0 648989.0 0
234000.0 648989.0 0
238000.0 648989.0 0
242000.0 648989.0 0
246000.0 648989.0 0
250000.0 648989.0 0
254000.0 648989.0 0
258000.0 648989.0 0
262000.0 648989.0 0
266000.0 648989.0 0
270000.0 648989.0 0
274000.0 648989.0 0
278000.0 648989.0 0
282000.0 648989.0 0
286000.0 648989.0 0
290000.0 648989.0 0
294000.0 648989.0 0
298000.0 648989.0 0
302000.0 648989.0 0
306000.0 648989.0 0
310000.0 648989.0 0
314000.0 648989.0 0
318000.0 648989.0 0
322000.0 648989.0 0
326000.0 648989.0 0
330000.0 648989.0 0
334000.0 648989.0 0
338000.0 648989.0 0
342000.0 648989.0 0
346000.0 648989.0 0
350000.0 648989.0 0
354000.0 648990.0 0
358000.0 648989.0 0
362000.0 648992.0 0
366000.0 648989.0 0
370000.0 648995.0 0
374000.0 648991.0 0
378000.0 648999.0 0
382000.0 648993.0 0
386000.0 649000.0 0
390000.0 649002.0 0
394000.0 649009.0 0
398000.0 649011.0 0
POINT_DATA 4650
SCALARS Radius float 1
LOOKUP_TABLE default
4000.0 4000.0 4000.0 4000.0 4000.0 4000.0 4000.0 4000.0 4000.0 4000.0 4000.0 4000.0 4000.0 4000.0 4000.0 4000.0 4000.0 4000.0 4000.0 4000.0 4000.0 4000.0 4000.0 4000.0 4000.0 4000.0 4000.0 4000.0 4000.0 4000.0 4000.0 4000.0 4000.0 4000.0 4000.0 4000.0 4000.0 4000.0 4000.0 4000.0 4000.0 4000.0 4000.0 4000.0 4000.0 4000.0 4000.0 4000.0 4000.0 4000.0 4000.0 4000.0 4000.0 4000.0 4000.0 4000.0 4000.0 4000.0 4000.0 4000.0 4000.0 4000.0 4000.0 4000.0 4000.0 4000.0 4000.0 4000.0 4000.0 4000.0 4000.0 4000.0 4000.0 4000.0 4000.0 4000.0 4000.0 4000.0 4000.0 4000.0 4000.0 4000.0 4000.0 4000.0 4000.0 4000.0 4000.0 4000.0 4000.0 4000.0 4000.0 4000.0 4000.0 4000.0 4000.0 4000.0 4000.0 4000.0 4000.0 4000.0 4000.0 4000.0 4000.0 4000.0 4000.0 4000.0 4000.0 4000.0 4000.0 4000.0 4000.0 4000.0 4000.0 4000.0 4000.0 4000.0 4000.0 4000.0 4000.0 4000.0 4000.0 4000.0 4000.0 4000.0 4000.0 4000.0 4000.0 4000.0 4000.0 4000.0 4000.0 4000.0 4000.0 4000.0 4000.0 4000.0 4000.0 4000.0 4000.0 4000.0 4000.0 4000.0 4000.0 4000.0 4000.0 4000.0 4000.0 4000.0 4000.0 4000.0 4000.0 4000.0 4000.0 4000.0 4000.0 4000.0 4000.0 4000.0 4000.0 4000.0 4000.0 4000.0 4000.0 4000.0 4000.0 4000.0 4000.0 4000.0 4000.0 4000.0 4000.0 4000.0 4000.0 4000.0 4000.0 4000.0 4000.0 4000.0 4000.0 4000.0 4000.0 4000.0 4000.0 4000.0 4000.0 4000.0 4000.0 4000.0 4000.0 4000.0 4000.0 4000.0 4000.0 4000.0 4000.0 4000.0 4000.0 4000.0 4000.0 4000.0 4000.0 4000.0 4000.0 4000.0 4000.0 4000.0 4000.0 4000.0 4000.0 4000.0 4000.0 4000.0 4000.0 4000.0 4000.0 4000.0 4000.0 4000.0 4000.0 4000.0 4000.0 4000.0 4000.0 4000.0 4000.0 4000.0 4000.0 4000.0 4000.0 4000.0 4000.0 4000.0 4000.0 4000.0 4000.0 4000.0 4000.0 4000.0 4000.0 4000.0 4000.0 4000.0 4000.0 4000.0 4000.0 4000.0 4000.0 4000.0 4000.0 4000.0 4000.0 4000.0 4000.0 4000.0 4000.0 4000.0 4000.0 4000.0 4000.0 4000.0 4000.0 4000.0 4000.0 4000.0 4000.0 4000.0 4000.0 4000.0 4000.0 4000.0 4000.0 4000.0 4000.0 4000.0 4000.0 4000.0 4000.0 4000.0 4000.0 4000.0 4000.0 4000.0 4000.0 4000.0 4000.0 4000.0 4000.0 4000.0 4000.0 4000.0 4000.0 4000.0 4000.0 4000.0 4000.0 4000.0 4000.0 4000.0 4000.0 4000.0 4000.0 4000.0 4000.0 4000.0 4000.0 4000.0 4000.0 4000.0 4000.0 4000.0 4000.0 4000.0 4000.0 4000.0 4000.0 4000.0 4000.0 4000.0 4000.0 4000.0 4000.0 4000.0 4000.0 4000.0 4000.0 4000.0 4000.0 4000.0 4000.0 4000.0 4000.0 4000.0 4000.0 4000.0 4000.0 4000.0 4000.0 4000.0 4000.0 4000.0 4000.0 4000.0 4000.0 4000.0 4000.0 4000.0 4000.0 4000.0 4000.0 4000.0 4000.0 4000.0 4000.0 4000.0 4000.0 4000.0 4000.0 4000.0 4000.0 4000.0 4000.0 4000.0 4000.0 4000.0 4000.0 4000.0 4000.0 4000.0 4000.0 4000.0 4000.0 4000.0 4000.0 4000.0 4000.0 4000.0 4000.0 4000.0 4000.0 4000.0 4000.0 4000.0 4000.0 4000.0 4000.0 4000.0 4000.0 4000.0 4000.0 4000.0 4000.0 4000.0 4000.0 4000.0 4000.0 4000.0 4000.0 4000.0 4000.0 4000.0 4000.0 4000.0 4000.0 4000.0 4000.0 4000.0 4000.0 4000.0 4000.0 4000.0 4000.0 4000.0 4000.0 4000.0 4000.0 4000.0 4000.0 4000.0 4000.0 4000.0 4000.0 4000.0 4000.0 4000.0 4000.0 4000.0 4000.0 4000.0 4000.0 4000.0 4000.0 4000.0 4000.0 4000.0 4000.0 4000.0 4000.0 4000.0 4000.0 4000.0 4000.0 4000.0 4000.0 4000.0 4000.0 4000.0 4000.0 4000.0 4000.0 4000.0 4000.0 4000.0 4000.0 4000.0 4000.0 4000.0 4000.0 4000.0 4000.0 4000.0 4000.0 4000.0 4000.0 4000.0 4000.0 4000.0 4000.0 4000.0 4000.0 4000.0 4000.0 4000.0 4000.0 4000.0 4000.0 4000.0 4000.0 4000.0 4000.0 4000.0 4000.0 4000.0 4000.0 4000.0 4000.0 4000.0 4000.0 4000.0 4000.0 4000.0 4000.0 4000.0 4000.0 4000.0 4000.0 4000.0 4000.0 4000.0 4000.0 4000.0 4000.0 4000.0 4000.0 4000.0 4000.0 4000.0 4000.0 4000.0 4000.0 4000.0 4000.0 4000.0 4000.0 4000.0 4000.0 4000.0 4000.0 4000.0 4000.0 4000.0 4000.0 4000.0 4000.0 4000.0 4000.0 4000.0 4000.0 4000.0 4000.0 4000.0 4000.0 4000.0 4000.0 4000.0 4000.0 4000.0 4000.0 4000.0 4000.0 4000.0 4000.0 4000.0 4000.0 4000.0 4000.0 4000.0 4000.0 4000.0 4000.0 4000.0 4000.0 4000.0 4000.0 4000.0 4000.0 4000.0 4000.0 4000.0 4000.0 4000.0 4000.0 4000.0 4000.0 4000.0 4000.0 4000.0 4000.0 4000.0 4000.0 4000.0 4000.0 4000.0 4000.0 4000.0 4000.0 4000.0 4000.0 4000.0 4000.0 4000.0 4000.0 4000.0 4000.0 4000.0 4000.0 4000.0 4000.0 4000.0 4000.0 4000.0 4000.0 4000.0 4000.0 4000.0 4000.0 4000.0 4000.0 4000.0 4000.0 4000.0 4000.0 4000.0 4000.0 4000.0 4000.0 4000.0 4000.0 4000.0 4000.0 4000.0 4000.0 4000.0 4000.0 4000.0 4000.0 4000.0 4000.0 4000.0 4000.0 4000.0 4000.0 4000.0 4000.0 4000.0 4000.0 4000.0 4000.0 4000.0 4000.0 4000.0 4000.0 4000.0 4000.0 4000.0 4000.0 4000.0 4000.0 4000.0 4000.0 4000.0 4000.0 4000.0 4000.0 4000.0 4000.0 4000.0 4000.0 4000.0 4000.0 4000.0 4000.0 4000.0 4000.0 4000.0 4000.0 4000.0 4000.0 4000.0 4000.0 4000.0 4000.0 4000.0 4000.0 4000.0 4000.0 4000.0 4000.0 4000.0 4000.0 4000.0 4000.0 4000.0 4000.0 4000.0 4000.0 4000.0 4000.0 4000.0 4000.0 4000.0 4000.0 4000.0 4000.0 4000.0 4000.0 4000.0 4000.0 4000.0 4000.0 4000.0 4000.0 4000.0 4000.0 4000.0 4000.0 4000.0 4000.0 4000.0 4000.0 4000.0 4000.0 4000.0 4000.0 4000.0 4000.0 4000.0 4000.0 4000.0 4000.0 4000.0 4000.0 4000.0 4000.0 4000.0 4000.0 4000.0 4000.0 4000.0 4000.0 4000.0 4000.0 4000.0 4000.0 4000.0 4000.0 4000.0 4000.0 4000.0 4000.0 4000.0 4000.0 4000.0 4000.0 4000.0 4000.0 4000.0 4000.0 4000.0 4000.0 4000.0 4000.0 4000.0 4000.0 4000.0 4000.0 4000.0 4000.0 4000.0 4000.0 4000.0 4000.0 4000.0 4000.0 4000.0 4000.0 4000.0 4000.0 4000.0 4000.0 4000.0 4000.0 4000.0 4000.0 4000.0 4000.0 4000.0 4000.0 4000.0 4000.0 4000.0 4000.0 4000.0 4000.0 4000.0 4000.0 4000.0 4000.0 4000.0 4000.0 4000.0 4000.0 4000.0 4000.0 4000.0 4000.0 4000.0 4000.0 4000.0 4000.0 4000.0 4000.0 4000.0 4000.0 4000.0 4000.0 4000.0 4000.0 4000.0 4000.0 4000.0 4000.0 4000.0 4000.0 4000.0 4000.0 4000.0 4000.0 4000.0 4000.0 4000.0 4000.0 4000.0 4000.0 4000.0 4000.0 4000.0 4000.0 4000.0 4000.0 4000.0 4000.0 4000.0 4000.0 4000.0 4000.0 4000.0 4000.0 4000.0 4000.0 4000.0 4000.0 4000.0 4000.0 4000.0 4000.0 4000.0 4000.0 4000.0 4000.0 4000.0 4000.0 4000.0 4000.0 4000.0 4000.0 4000.0 4000.0 4000.0 4000.0 4000.0 4000.0 4000.0 4000.0 4000.0 4000.0 4000.0 4000.0 4000.0 4000.0 4000.0 4000.0 4000.0 4000.0 4000.0 4000.0 4000.0 4000.0 4000.0 4000.0 4000.0 4000.0 4000.0 4000.0 4000.0 4000.0 4000.0 4000.0 4000.0 4000.0 4000.0 4000.0 4000.0 4000.0 4000.0 4000.0 4000.0 4000.0 4000.0 4000.0 4000.0 4000.0 4000.0 4000.0 4000.0 4000.0 4000.0 4000.0 4000.0 4000.0 4000.0 4000.0 4000.0 4000.0 4000.0 4000.0 4000.0 4000.0 4000.0 4000.0 4000.0 4000.0 4000.0 4000.0 4000.0 4000.0 4000.0 4000.0 4000.0 4000.0 4000.0 4000.0 4000.0 4000.0 4000.0 4000.0 4000.0 4000.0 4000.0 4000.0 4000.0 4000.0 4000.0 4000.0 4000.0 4000.0 4000.0 4000.0 4000.0 4000.0 4000.0 4000.0 4000.0 4000.0 4000.0 4000.0 4000.0 4000.0 4000.0 4000.0 4000.0 4000.0 4000.0 4000.0 4000.0 4000.0 4000.0 4000.0 4000.0 4000.0 4000.0 4000.0 4000.0 4000.0 4000.0 4000.0 4000.0 4000.0 4000.0 4000.0 4000.0 4000.0 4000.0 4000.0 4000.0 4000.0 4000.0 4000.0 4000.0 4000.0 4000.0 4000.0 4000.0 4000.0 4000.0 4000.0 4000.0 4000.0 4000.0 4000.0 4000.0 4000.0 4000.0 4000.0 4000.0 4000.0 4000.0 4000.0 4000.0 4000.0 4000.0 4000.0 4000.0 4000.0 4000.0 4000.0 4000.0 4000.0 4000.0 4000.0 4000.0 4000.0 4000.0 4000.0 4000.0 4000.0 4000.0 4000.0 4000.0 4000.0 4000.0 4000.0 4000.0 4000.0 4000.0 4000.0 4000.0 4000.0 4000.0 4000.0 4000.0 4000.0 4000.0 4000.0 4000.0 4000.0 4000.0 4000.0 4000.0 4000.0 4000.0 4000.0 4000.0 4000.0 4000.0 4000.0 4000.0 4000.0 4000.0 4000.0 4000.0 4000.0 4000.0 4000.0 4000.0 4000.0 4000.0 4000.0 4000.0 4000.0 4000.0 4000.0 4000.0 4000.0 4000.0 4000.0 4000.0 4000.0 4000.0 4000.0 4000.0 4000.0 4000.0 4000.0 4000.0 4000.0 4000.0 4000.0 4000.0 4000.0 4000.0 4000.0 4000.0 4000.0 4000.0 4000.0 4000.0 4000.0 4000.0 4000.0 4000.0 4000.0 4000.0 4000.0 4000.0 4000.0 4000.0 4000.0 4000.0 4000.0 4000.0 4000.0 4000.0 4000.0 4000.0 4000.0 4000.0 4000.0 4000.0 4000.0 4000.0 4000.0 4000.0 4000.0 4000.0 4000.0 4000.0 4000.0 4000.0 4000.0 4000.0 4000.0 4000.0 4000.0 4000.0 4000.0 4000.0 4000.0 4000.0 4000.0 4000.0 4000.0 4000.0 4000.0 4000.0 4000.0 4000.0 4000.0 4000.0 4000.0 4000.0 4000.0 4000.0 4000.0 4000.0 4000.0 4000.0 4000.0 4000.0 4000.0 4000.0 4000.0 4000.0 4000.0 4000.0 4000.0 4000.0 4000.0 4000.0 4000.0 4000.0 4000.0 4000.0 4000.0 4000.0 4000.0 4000.0 4000.0 4000.0 4000.0 4000.0 4000.0 4000.0 4000.0 4000.0 4000.0 4000.0 4000.0 4000.0 4000.0 4000.0 4000.0 4000.0 4000.0 4000.0 4000.0 4000.0 4000.0 4000.0 4000.0 4000.0 4000.0 4000.0 4000.0 4000.0 4000.0 4000.0 4000.0 4000.0 4000.0 4000.0 4000.0 4000.0 4000.0 4000.0 4000.0 4000.0 4000.0 4000.0 4000.0 4000.0 4000.0 4000.0 4000.0 4000.0 4000.0 4000.0 4000.0 4000.0 4000.0 4000.0 4000.0 4000.0 4000.0 4000.0 4000.0 4000.0 4000.0 4000.0 4000.0 4000.0 4000.0 4000.0 4000.0 4000.0 4000.0 4000.0 4000.0 4000.0 4000.0 4000.0 4000.0 4000.0 4000.0 4000.0 4000.0 4000.0 4000.0 4000.0 4000.0 4000.0 4000.0 4000.0 4000.0 4000.0 4000.0 4000.0 4000.0 4000.0 4000.0 4000.0 4000.0 4000.0 4000.0 4000.0 4000.0 4000.0 4000.0 4000.0 4000.0 4000.0 4000.0 4000.0 4000.0 4000.0 4000.0 4000.0 4000.0 4000.0 4000.0 4000.0 4000.0 4000.0 4000.0 4000.0 4000.0 4000.0 4000.0 4000.0 4000.0 4000.0 4000.0 4000.0 4000.0 4000.0 4000.0 4000.0 4000.0 4000.0 4000.0 4000.0 4000.0 4000.0 4000.0 4000.0 4000.0 4000.0 4000.0 4000.0 4000.0 4000.0 4000.0 4000.0 4000.0 4000.0 4000.0 4000.0 4000.0 4000.0 4000.0 4000.0 4000.0 4000.0 4000.0 4000.0 4000.0 4000.0 4000.0 4000.0 4000.0 4000.0 4000.0 4000.0 4000.0 4000.0 4000.0 4000.0 4000.0 4000.0 4000.0 4000.0 4000.0 4000.0 4000.0 4000.0 4000.0 4000.0 4000.0 4000.0 4000.0 4000.0 4000.0 4000.0 4000.0 4000.0 4000.0 4000.0 4000.0 4000.0 4000.0 4000.0 4000.0 4000.0 4000.0 4000.0 4000.0 4000.0 4000.0 4000.0 4000.0 4000.0 4000.0 4000.0 4000.0 4000.0 4000.0 4000.0 4000.0 4000.0 4000.0 4000.0 4000.0 4000.0 4000.0 4000.0 4000.0 4000.0 4000.0 4000.0 4000.0 4000.0 4000.0 4000.0 4000.0 4000.0 4000.0 4000.0 4000.0 4000.0 4000.0 4000.0 4000.0 4000.0 4000.0 4000.0 4000.0 4000.0 4000.0 4000.0 4000.0 4000.0 4000.0 4000.0 4000.0 4000.0 4000.0 4000.0 4000.0 4000.0 4000.0 4000.0 4000.0 4000.0 4000.0 4000.0 4000.0 4000.0 4000.0 4000.0 4000.0 4000.0 4000.0 4000.0 4000.0 4000.0 4000.0 4000.0 4000.0 4000.0 4000.0 4000.0 4000.0 4000.0 4000.0 4000.0 4000.0 4000.0 4000.0 4000.0 4000.0 4000.0 4000.0 4000.0 4000.0 4000.0 4000.0 4000.0 4000.0 4000.0 4000.0 4000.0 4000.0 4000.0 4000.0 4000.0 4000.0 4000.0 4000.0 4000.0 4000.0 4000.0 4000.0 4000.0 4000.0 4000.0 4000.0 4000.0 4000.0 4000.0 4000.0 4000.0 4000.0 4000.0 4000.0 4000.0 4000.0 4000.0 4000.0 4000.0 4000.0 4000.0 4000.0 4000.0 4000.0 4000.0 4000.0 4000.0 4000.0 4000.0 4000.0 4000.0 4000.0 4000.0 4000.0 4000.0 4000.0 4000.0 4000.0 4000.0 4000.0 4000.0 4000.0 4000.0 4000.0 4000.0 4000.0 4000.0 4000.0 4000.0 4000.0 4000.0 4000.0 4000.0 4000.0 4000.0 4000.0 4000.0 4000.0 4000.0 4000.0 4000.0 4000.0 4000.0 4000.0 4000.0 4000.0 4000.0 4000.0 4000.0 4000.0 4000.0 4000.0 4000.0 4000.0 4000.0 4000.0 4000.0 4000.0 4000.0 4000.0 4000.0 4000.0 4000.0 4000.0 4000.0 4000.0 4000.0 4000.0 4000.0 4000.0 4000.0 4000.0 4000.0 4000.0 4000.0 4000.0 4000.0 4000.0 4000.0 4000.0 4000.0 4000.0 4000.0 4000.0 4000.0 4000.0 4000.0 4000.0 4000.0 4000.0 4000.0 4000.0 4000.0 4000.0 4000.0 4000.0 4000.0 4000.0 4000.0 4000.0 4000.0 4000.0 4000.0 4000.0 4000.0 4000.0 4000.0 4000.0 4000.0 4000.0 4000.0 4000.0 4000.0 4000.0 4000.0 4000.0 4000.0 4000.0 4000.0 4000.0 4000.0 4000.0 4000.0 4000.0 4000.0 4000.0 4000.0 4000.0 4000.0 4000.0 4000.0 4000.0 4000.0 4000.0 4000.0 4000.0 4000.0 4000.0 4000.0 4000.0 4000.0 4000.0 4000.0 4000.0 4000.0 4000.0 4000.0 4000.0 4000.0 4000.0 4000.0 4000.0 4000.0 4000.0 4000.0 4000.0 4000.0 4000.0 4000.0 4000.0 4000.0 4000.0 4000.0 4000.0 4000.0 4000.0 4000.0 4000.0 4000.0 4000.0 4000.0 4000.0 4000.0 4000.0 4000.0 4000.0 4000.0 4000.0 4000.0 4000.0 4000.0 4000.0 4000.0 4000.0 4000.0 4000.0 4000.0 4000.0 4000.0 4000.0 4000.0 4000.0 4000.0 4000.0 4000.0 4000.0 4000.0 4000.0 4000.0 4000.0 4000.0 4000.0 4000.0 4000.0 4000.0 4000.0 4000.0 4000.0 4000.0 4000.0 4000.0 4000.0 4000.0 4000.0 4000.0 4000.0 4000.0 4000.0 4000.0 4000.0 4000.0 4000.0 4000.0 4000.0 4000.0 4000.0 4000.0 4000.0 4000.0 4000.0 4000.0 4000.0 4000.0 4000.0 4000.0 4000.0 4000.0 4000.0 4000.0 4000.0 4000.0 4000.0 4000.0 4000.0 4000.0 4000.0 4000.0 4000.0 4000.0 4000.0 4000.0 4000.0 4000.0 4000.0 4000.0 4000.0 4000.0 4000.0 4000.0 4000.0 4000.0 4000.0 4000.0 4000.0 4000.0 4000.0 4000.0 4000.0 4000.0 4000.0 4000.0 4000.0 4000.0 4000.0 4000.0 4000.0 4000.0 4000.0 4000.0 4000.0 4000.0 4000.0 4000.0 4000.0 4000.0 4000.0 4000.0 4000.0 4000.0 4000.0 4000.0 4000.0 4000.0 4000.0 4000.0 4000.0 4000.0 4000.0 4000.0 4000.0 4000.0 4000.0 4000.0 4000.0 4000.0 4000.0 4000.0 4000.0 4000.0 4000.0 4000.0 4000.0 4000.0 4000.0 4000.0 4000.0 4000.0 4000.0 4000.0 4000.0 4000.0 4000.0 4000.0 4000.0 4000.0 4000.0 4000.0 4000.0 4000.0 4000.0 4000.0 4000.0 4000.0 4000.0 4000.0 4000.0 4000.0 4000.0 4000.0 4000.0 4000.0 4000.0 4000.0 4000.0 4000.0 4000.0 4000.0 4000.0 4000.0 4000.0 4000.0 4000.0 4000.0 4000.0 4000.0 4000.0 4000.0 4000.0 4000.0 4000.0 4000.0 4000.0 4000.0 4000.0 4000.0 4000.0 4000.0 4000.0 4000.0 4000.0 4000.0 4000.0 4000.0 4000.0 4000.0 4000.0 4000.0 4000.0 4000.0 4000.0 4000.0 4000.0 4000.0 4000.0 4000.0 4000.0 4000.0 4000.0 4000.0 4000.0 4000.0 4000.0 4000.0 4000.0 4000.0 4000.0 4000.0 4000.0 4000.0 4000.0 4000.0 4000.0 4000.0 4000.0 4000.0 4000.0 4000.0 4000.0 4000.0 4000.0 4000.0 4000.0 4000.0 4000.0 4000.0 4000.0 4000.0 4000.0 4000.0 4000.0 4000.0 4000.0 4000.0 4000.0 4000.0 4000.0 4000.0 4000.0 4000.0 4000.0 4000.0 4000.0 4000.0 4000.0 4000.0 4000.0 4000.0 4000.0 4000.0 4000.0 4000.0 4000.0 4000.0 4000.0 4000.0 4000.0 4000.0 4000.0 4000.0 4000.0 4000.0 4000.0 4000.0 4000.0 4000.0 4000.0 4000.0 4000.0 4000.0 4000.0 4000.0 4000.0 4000.0 4000.0 4000.0 4000.0 4000.0 4000.0 4000.0 4000.0 4000.0 4000.0 4000.0 4000.0 4000.0 4000.0 4000.0 4000.0 4000.0 4000.0 4000.0 4000.0 4000.0 4000.0 4000.0 4000.0 4000.0 4000.0 4000.0 4000.0 4000.0 4000.0 4000.0 4000.0 4000.0 4000.0 4000.0 4000.0 4000.0 4000.0 4000.0 4000.0 4000.0 4000.0 4000.0 4000.0 4000.0 4000.0 4000.0 4000.0 4000.0 4000.0 4000.0 4000.0 4000.0 4000.0 4000.0 4000.0 4000.0 4000.0 4000.0 4000.0 4000.0 4000.0 4000.0 4000.0 4000.0 4000.0 4000.0 4000.0 4000.0 4000.0 4000.0 4000.0 4000.0 4000.0 4000.0 4000.0 4000.0 4000.0 4000.0 4000.0 4000.0 4000.0 4000.0 4000.0 4000.0 4000.0 4000.0 4000.0 4000.0 4000.0 4000.0 4000.0 4000.0 4000.0 4000.0 4000.0 4000.0 4000.0 4000.0 4000.0 4000.0 4000.0 4000.0 4000.0 4000.0 4000.0 4000.0 4000.0 4000.0 4000.0 4000.0 4000.0 4000.0 4000.0 4000.0 4000.0 4000.0 4000.0 4000.0 4000.0 4000.0 4000.0 4000.0 4000.0 4000.0 4000.0 4000.0 4000.0 4000.0 4000.0 4000.0 4000.0 4000.0 4000.0 4000.0 4000.0 4000.0 4000.0 4000.0 4000.0 4000.0 4000.0 4000.0 4000.0 4000.0 4000.0 4000.0 4000.0 4000.0 4000.0 4000.0 4000.0 4000.0 4000.0 4000.0 4000.0 4000.0 4000.0 4000.0 4000.0 4000.0 4000.0 4000.0 4000.0 4000.0 4000.0 4000.0 4000.0 4000.0 4000.0 4000.0 4000.0 4000.0 4000.0 4000.0 4000.0 4000.0 4000.0 4000.0 4000.0 4000.0 4000.0 4000.0 4000.0 4000.0 4000.0 4000.0 4000.0 4000.0 4000.0 4000.0 4000.0 4000.0 4000.0 4000.0 4000.0 4000.0 4000.0 4000.0 4000.0 4000.0 4000.0 4000.0 4000.0 4000.0 4000.0 4000.0 4000.0 4000.0 4000.0 4000.0 4000.0 4000.0 4000.0 4000.0 4000.0 4000.0 4000.0 4000.0 4000.0 4000.0 4000.0 4000.0 4000.0 4000.0 4000.0 4000.0 4000.0 4000.0 4000.0 4000.0 4000.0 4000.0 4000.0 4000.0 4000.0 4000.0 4000.0 4000.0 4000.0 4000.0 4000.0 4000.0 4000.0 4000.0 4000.0 4000.0 4000.0 4000.0 4000.0 4000.0 4000.0 4000.0 4000.0 4000.0 4000.0 4000.0 4000.0 4000.0 4000.0 4000.0 4000.0 4000.0 4000.0 4000.0 4000.0 4000.0 4000.0 4000.0 4000.0 4000.0 4000.0 4000.0 4000.0 4000.0 4000.0 4000.0 4000.0 4000.0 4000.0 4000.0 4000.0 4000.0 4000.0 4000.0 4000.0 4000.0 4000.0 4000.0 4000.0 4000.0 4000.0 4000.0 4000.0 4000.0 4000.0 4000.0 4000.0 4000.0 4000.0 4000.0 4000.0 4000.0 4000.0 4000.0 4000.0 4000.0 4000.0 4000.0 4000.0 4000.0 4000.0 4000.0 4000.0 4000.0 4000.0 4000.0 4000.0 4000.0 4000.0 4000.0 4000.0 4000.0 4000.0 4000.0 4000.0 4000.0 4000.0 4000.0 4000.0 4000.0 4000.0 4000.0 4000.0 4000.0 4000.0 4000.0 4000.0 4000.0 4000.0 4000.0 4000.0 4000.0 4000.0 4000.0 4000.0 4000.0 4000.0 4000.0 4000.0 4000.0 4000.0 4000.0 4000.0 4000.0 4000.0 4000.0 4000.0 4000.0 4000.0 4000.0 4000.0 4000.0 4000.0 4000.0 4000.0 4000.0 4000.0 4000.0 4000.0 4000.0 4000.0 4000.0 4000.0 4000.0 4000.0 4000.0 4000.0 4000.0 4000.0 4000.0 4000.0 4000.0 4000.0 4000.0 4000.0 4000.0 4000.0 4000.0 4000.0 4000.0 4000.0 4000.0 4000.0 4000.0 4000.0 4000.0 4000.0 4000.0 4000.0 4000.0 4000.0 4000.0 4000.0 4000.0 4000.0 4000.0 4000.0 4000.0 4000.0 4000.0 4000.0 4000.0 4000.0 4000.0 4000.0 4000.0 4000.0 4000.0 4000.0 4000.0 4000.0 4000.0 4000.0 4000.0 4000.0 4000.0 4000.0 4000.0 4000.0 4000.0 4000.0 4000.0 4000.0 4000.0 4000.0 4000.0 4000.0 4000.0 4000.0 4000.0 4000.0 4000.0 4000.0 4000.0 4000.0 4000.0 4000.0 4000.0 4000.0 4000.0 4000.0 4000.0 4000.0 4000.0 4000.0 4000.0 4000.0 4000.0 4000.0 4000.0 4000.0 4000.0 4000.0 4000.0 4000.0 4000.0 4000.0 4000.0 4000.0 4000.0 4000.0 4000.0 4000.0 4000.0 4000.0 4000.0 4000.0 4000.0 4000.0 4000.0 4000.0 4000.0 4000.0 4000.0 4000.0 4000.0 4000.0 4000.0 4000.0 4000.0 4000.0 4000.0 4000.0 4000.0 4000.0 4000.0 4000.0 4000.0 4000.0 4000.0 4000.0 4000.0 4000.0 4000.0 4000.0 4000.0 4000.0 4000.0 4000.0 4000.0 4000.0 4000.0 4000.0 4000.0 4000.0 4000.0 4000.0 4000.0 4000.0 4000.0 4000.0 4000.0 4000.0 4000.0 4000.0 4000.0 4000.0 4000.0 4000.0 4000.0 4000.0 4000.0 4000.0 4000.0 4000.0 4000.0 4000.0 4000.0 4000.0 4000.0 4000.0 4000.0 4000.0 4000.0 4000.0 4000.0 4000.0 4000.0 4000.0 4000.0 4000.0 4000.0 4000.0 4000.0 4000.0 4000.0 4000.0 4000.0 4000.0 4000.0 4000.0 4000.0 4000.0 4000.0 4000.0 4000.0 4000.0 4000.0 4000.0 4000.0 4000.0 4000.0 4000.0 4000.0 4000.0 4000.0 4000.0 4000.0 4000.0 4000.0 4000.0 4000.0 4000.0 4000.0 4000.0 4000.0 4000.0 4000.0 4000.0 4000.0 4000.0 4000.0 4000.0 4000.0 4000.0 4000.0 4000.0 4000.0 4000.0 4000.0 4000.0 4000.0 4000.0 4000.0 4000.0 4000.0 4000.0 4000.0 4000.0 4000.0 4000.0 4000.0 4000.0 4000.0 4000.0 4000.0 4000.0 4000.0 4000.0 4000.0 4000.0 4000.0 4000.0 4000.0 4000.0 4000.0 4000.0 4000.0 4000.0 4000.0 4000.0 4000.0 4000.0 4000.0 4000.0 4000.0 4000.0 4000.0 4000.0 4000.0 4000.0 4000.0 4000.0 4000.0 4000.0 4000.0 4000.0 4000.0 4000.0 4000.0 4000.0 4000.0 4000.0 4000.0 4000.0 4000.0 4000.0 4000.0 4000.0 4000.0 4000.0 4000.0 4000.0 4000.0 4000.0 4000.0 4000.0 4000.0 4000.0 4000.0 4000.0 4000.0 4000.0 4000.0 4000.0 4000.0 4000.0 4000.0 4000.0 4000.0 4000.0 4000.0 4000.0 4000.0 4000.0 4000.0 4000.0 4000.0 4000.0 4000.0 4000.0 4000.0 4000.0 4000.0 4000.0 4000.0 4000.0 4000.0 4000.0 4000.0 4000.0 4000.0 4000.0 4000.0 4000.0 4000.0 4000.0 4000.0 4000.0 4000.0 4000.0 4000.0 4000.0 4000.0 4000.0 4000.0 4000.0 4000.0 4000.0 4000.0 4000.0 4000.0 4000.0 4000.0 4000.0 4000.0 4000.0 4000.0 4000.0 4000.0 4000.0 4000.0 4000.0 4000.0 4000.0 4000.0 4000.0 4000.0 4000.0 4000.0 4000.0 4000.0 4000.0 4000.0 4000.0 4000.0 4000.0 4000.0 4000.0 4000.0 4000.0 4000.0 4000.0 4000.0 4000.0 4000.0 4000.0 4000.0 4000.0 4000.0 4000.0 4000.0 4000.0 4000.0 4000.0 4000.0 4000.0 4000.0 4000.0 4000.0 4000.0 4000.0 4000.0 4000.0 4000.0 4000.0 4000.0 4000.0 4000.0 4000.0 4000.0 4000.0 4000.0 4000.0 4000.0 4000.0 4000.0 4000.0 4000.0 4000.0 4000.0 4000.0 4000.0 4000.0 4000.0 4000.0 4000.0 4000.0 4000.0 4000.0 4000.0 4000.0 4000.0 4000.0 4000.0 4000.0 4000.0 4000.0 4000.0 4000.0 4000.0 4000.0 4000.0 4000.0 4000.0 4000.0 4000.0 4000.0 4000.0 4000.0 4000.0 4000.0 4000.0 4000.0 4000.0 4000.0 4000.0 4000.0 4000.0 4000.0 4000.0 4000.0 4000.0 4000.0 4000.0 4000.0 4000.0 4000.0 4000.0 4000.0 4000.0 4000.0 4000.0 4000.0 4000.0 4000.0 4000.0 4000.0 4000.0 4000.0 4000.0 4000.0 4000.0 4000.0 4000.0 4000.0 4000.0 4000.0 4000.0 4000.0 4000.0 4000.0 4000.0 4000.0 4000.0 4000.0 4000.0 4000.0 4000.0 4000.0 4000.0 4000.0 4000.0 4000.0 4000.0 4000.0 4000.0 4000.0 4000.0 4000.0 4000.0 4000.0 4000.0 4000.0 4000.0 4000.0 4000.0 4000.0 4000.0 4000.0 4000.0 4000.0 4000.0 4000.0 4000.0 4000.0 4000.0 4000.0 4000.0 4000.0 4000.0 4000.0 4000.0 4000.0 4000.0 4000.0 4000.0 4000.0 4000.0 4000.0 4000.0 4000.0 4000.0 4000.0 4000.0 4000.0 4000.0 4000.0 4000.0 4000.0 4000.0 4000.0 4000.0 4000.0 4000.0 4000.0 4000.0 4000.0 4000.0 4000.0 4000.0 4000.0 4000.0 4000.0 4000.0 4000.0 4000.0 4000.0 4000.0 4000.0 4000.0 4000.0 4000.0 4000.0 4000.0 4000.0 4000.0 4000.0 4000.0 4000.0 4000.0 4000.0 4000.0 4000.0 4000.0 4000.0 4000.0 4000.0 4000.0 4000.0 4000.0 4000.0 4000.0 4000.0 4000.0 4000.0 4000.0 4000.0 4000.0 4000.0 4000.0 4000.0 4000.0 4000.0 4000.0 4000.0 4000.0 4000.0 4000.0 4000.0 4000.0 4000.0 4000.0 4000.0 4000.0 4000.0 4000.0 4000.0 4000.0 4000.0 4000.0 4000.0 4000.0 4000.0 4000.0 4000.0 4000.0 4000.0 4000.0 4000.0 4000.0 4000.0 4000.0 4000.0 4000.0 4000.0 4000.0 4000.0 4000.0 4000.0 4000.0 4000.0 4000.0 4000.0 4000.0 4000.0 4000.0 4000.0 4000.0 4000.0 4000.0 4000.0 4000.0 4000.0 4000.0 4000.0 4000.0 4000.0 4000.0 4000.0 4000.0 4000.0 4000.0 4000.0 4000.0 4000.0 4000.0 4000.0 4000.0 4000.0 4000.0 4000.0 4000.0 4000.0 4000.0 4000.0 4000.0 4000.0 4000.0 4000.0 4000.0 4000.0 4000.0 4000.0 4000.0 4000.0 4000.0 4000.0 4000.0 4000.0 4000.0 4000.0 4000.0 4000.0 4000.0 4000.0 4000.0 4000.0 4000.0 4000.0 4000.0 4000.0 4000.0 4000.0 4000.0 4000.0 4000.0 4000.0 4000.0 4000.0 4000.0 4000.0 4000.0 4000.0 4000.0 4000.0 4000.0 4000.0 4000.0 4000.0 4000.0 4000.0 4000.0 4000.0 4000.0 4000.0 4000.0 4000.0 4000.0 4000.0 4000.0 4000.0 4000.0 4000.0 4000.0 4000.0 4000.0 4000.0 4000.0 4000.0 4000.0 4000.0 4000.0 4000.0 4000.0 4000.0 4000.0 4000.0 4000.0 4000.0 4000.0 4000.0 4000.0 4000.0 4000.0 4000.0 4000.0 4000.0 4000.0 4000.0 4000.0 4000.0 4000.0 4000.0 4000.0 4000.0 4000.0 4000.0 4000.0 4000.0 4000.0 4000.0 4000.0 4000.0 4000.0 4000.0 4000.0 4000.0 4000.0 4000.0 4000.0 4000.0 4000.0 4000.0 4000.0 4000.0 4000.0 4000.0 4000.0 4000.0 4000.0 4000.0 4000.0 4000.0 4000.0 4000.0 4000.0 4000.0 4000.0 4000.0 4000.0 4000.0 4000.0 4000.0 4000.0 4000.0 4000.0 4000.0 4000.0 4000.0 4000.0 4000.0 4000.0 4000.0 4000.0 4000.0 4000.0 4000.0 4000.0 4000.0 4000.0 4000.0 4000.0 4000.0 4000.0 4000.0 4000.0 4000.0 4000.0 4000.0 4000.0 4000.0 4000.0 4000.0 4000.0 4000.0 4000.0 4000.0 4000.0 4000.0 4000.0 4000.0 4000.0 4000.0 4000.0 4000.0 4000.0 4000.0 4000.0 4000.0 4000.0 4000.0 4000.0 4000.0 4000.0 4000.0 4000.0 4000.0 4000.0 4000.0 4000.0 4000.0 4000.0 4000.0 4000.0 4000.0 4000.0 4000.0 4000.0 4000.0 4000.0 4000.0 4000.0 4000.0 4000.0 4000.0 4000.0 4000.0 4000.0 4000.0 4000.0 4000.0 4000.0 4000.0 4000.0 4000.0 4000.0 4000.0 4000.0 4000.0 4000.0 4000.0 4000.0 4000.0 4000.0 4000.0 4000.0 4000.0 4000.0 4000.0 4000.0 4000.0 4000.0 4000.0 4000.0 4000.0 4000.0 4000.0 4000.0 4000.0 4000.0 4000.0 4000.0 4000.0 4000.0 4000.0 4000.0 4000.0 4000.0 4000.0 4000.0 4000.0 4000.0 4000.0 4000.0 4000.0 4000.0 4000.0 4000.0 4000.0 4000.0 4000.0 4000.0 4000.0 4000.0 4000.0 4000.0 4000.0 4000.0 4000.0 4000.0 4000.0 4000.0 4000.0 4000.0 4000.0 4000.0 4000.0 4000.0 4000.0 4000.0 4000.0 4000.0 4000.0 4000.0 4000.0 4000.0 4000.0 4000.0 4000.0 4000.0 4000.0 4000.0 4000.0 4000.0 4000.0 4000.0 4000.0 4000.0 4000.0 4000.0 4000.0 4000.0 4000.0 4000.0 4000.0 4000.0 4000.0 4000.0 4000.0 4000.0 4000.0 4000.0 4000.0 4000.0 4000.0 4000.0 4000.0 4000.0 4000.0 4000.0 4000.0 4000.0 4000.0 4000.0 4000.0 4000.0 4000.0 4000.0 4000.0 4000.0 4000.0 4000.0 4000.0 4000.0 4000.0 4000.0 4000.0 4000.0 4000.0 4000.0 4000.0 4000.0 4000.0 4000.0 4000.0 4000.0 4000.0 4000.0 4000.0 4000.0 4000.0 4000.0 4000.0 4000.0 4000.0 4000.0 4000.0 4000.0 4000.0 4000.0 4000.0 4000.0 4000.0 4000.0 4000.0 4000.0 4000.0 4000.0 4000.0 4000.0 4000.0 4000.0 4000.0 4000.0 4000.0 4000.0 4000.0 4000.0 4000.0 4000.0 4000.0 4000.0 4000.0 4000.0 4000.0 4000.0 4000.0 4000.0 4000.0 4000.0 4000.0 4000.0 4000.0 4000.0 4000.0 4000.0 4000.0 4000.0 4000.0 4000.0 4000.0 4000.0 4000.0 4000.0 4000.0 4000.0 4000.0 4000.0 4000.0 4000.0 4000.0 4000.0 4000.0 4000.0 4000.0 4000.0 4000.0 4000.0 4000.0 4000.0 4000.0 4000.0 4000.0 4000.0 4000.0 4000.0 4000.0 4000.0 4000.0 4000.0 4000.0 4000.0 4000.0 4000.0 4000.0 4000.0 4000.0 4000.0 4000.0 4000.0 4000.0 4000.0 4000.0 4000.0 4000.0 4000.0 4000.0 4000.0 4000.0 4000.0 4000.0 4000.0 4000.0 4000.0 4000.0 4000.0 4000.0 4000.0 4000.0 4000.0 4000.0 4000.0 4000.0 4000.0 4000.0 4000.0 4000.0 4000.0 4000.0 4000.0 4000.0 4000.0 4000.0 4000.0 4000.0 4000.0 4000.0 4000.0 4000.0 4000.0 4000.0 4000.0 4000.0 4000.0 4000.0 4000.0 4000.0 4000.0 4000.0 4000.0 4000.0 4000.0 4000.0 4000.0 4000.0 4000.0 4000.0 4000.0 4000.0 4000.0 4000.0 4000.0 4000.0 4000.0 4000.0 4000.0 4000.0 4000.0 4000.0 4000.0 4000.0 4000.0 4000.0 4000.0 4000.0 4000.0 4000.0 4000.0 4000.0 4000.0 4000.0 4000.0 4000.0 4000.0 4000.0 4000.0 4000.0 4000.0 4000.0 4000.0 4000.0 4000.0 4000.0 4000.0 4000.0 4000.0 4000.0 4000.0 4000.0 4000.0 4000.0 4000.0 4000.0 4000.0 4000.0 4000.0 4000.0 4000.0 4000.0 4000.0 4000.0 4000.0 4000.0 4000.0 4000.0 4000.0 4000.0 4000.0 4000.0 4000.0 4000.0 4000.0 4000.0 4000.0 4000.0 4000.0 4000.0 4000.0 4000.0 4000.0 4000.0 4000.0 4000.0 4000.0 4000.0 4000.0 4000.0 4000.0 4000.0 4000.0 4000.0 4000.0 4000.0 4000.0 4000.0 4000.0 4000.0 4000.0 4000.0 4000.0 4000.0 4000.0 4000.0 4000.0 4000.0 4000.0 4000.0 4000.0 4000.0 4000.0 4000.0 4000.0 4000.0 4000.0 4000.0 4000.0 4000.0 4000.0 4000.0 4000.0 4000.0 4000.0 4000.0 4000.0 4000.0 4000.0 4000.0 4000.0 4000.0 4000.0 4000.0 4000.0 4000.0 4000.0 4000.0 4000.0 4000.0 4000.0 4000.0 4000.0 4000.0 4000.0 4000.0 4000.0 4000.0 4000.0 4000.0 4000.0 4000.0 4000.0 4000.0 4000.0 4000.0 4000.0 4000.0 4000.0 4000.0 4000.0 4000.0 4000.0 4000.0 4000.0 4000.0 4000.0 4000.0 4000.0 4000.0 4000.0 4000.0 4000.0 4000.0 4000.0 4000.0 4000.0 4000.0 4000.0 4000.0 4000.0 4000.0 4000.0 4000.0 4000.0 4000.0 4000.0 4000.0 4000.0 4000.0 4000.0 4000.0 4000.0 4000.0 4000.0 4000.0 4000.0 4000.0 4000.0 4000.0 4000.0 4000.0 4000.0 4000.0 4000.0 4000.0 4000.0 4000.0 4000.0 4000.0 4000.0 4000.0 4000.0 4000.0 4000.0 4000.0 4000.0 4000.0 4000.0 4000.0 4000.0 4000.0 4000.0 4000.0 4000.0 4000.0 4000.0 4000.0 4000.0 4000.0 4000.0 4000.0 4000.0 4000.0 4000.0 4000.0 4000.0 4000.0 4000.0 4000.0 4000.0 4000.0 4000.0 4000.0 4000.0 4000.0 4000.0 4000.0 4000.0 4000.0 4000.0 4000.0 4000.0 4000.0 4000.0 4000.0 4000.0 4000.0 4000.0 4000.0 4000.0 4000.0 4000.0 4000.0 4000.0 4000.0 4000.0 4000.0 4000.0 4000.0 4000.0 4000.0 4000.0 4000.0 4000.0 4000.0 4000.0 4000.0 4000.0 4000.0 4000.0 4000.0 4000.0 4000.0 4000.0 4000.0 4000.0 4000.0 4000.0 4000.0 4000.0 4000.0 4000.0 4000.0 4000.0 4000.0 4000.0 4000.0 4000.0 4000.0 4000.0 4000.0 4000.0 4000.0 4000.0 4000.0 4000.0 4000.0 4000.0 4000.0 4000.0 4000.0 4000.0 4000.0 4000.0 4000.0 4000.0 4000.0 4000.0 4000.0 4000.0 4000.0 4000.0 4000.0 4000.0 4000.0 4000.0 4000.0 4000.0 4000.0 4000.0 4000.0 4000.0 4000.0 4000.0 4000.0 4000.0 4000.0 4000.0 4000.0 4000.0 4000.0 4000.0 4000.0 4000.0 4000.0 4000.0 4000.0 4000.0 4000.0 4000.0 4000.0 4000.0 4000.0 4000.0 4000.0 4000.0 4000.0 4000.0 4000.0 4000.0 4000.0 4000.0 4000.0 4000.0 4000.0 4000.0 4000.0 4000.0 4000.0 4000.0 4000.0 4000.0 4000.0 4000.0 4000.0 4000.0 4000.0 4000.0 4000.0 4000.0 4000.0 4000.0 4000.0 4000.0 4000.0 4000.0 4000.0 4000.0 4000.0 4000.0 4000.0 4000.0 4000.0 4000.0 4000.0 4000.0 4000.0 4000.0 4000.0 4000.0 4000.0 4000.0 4000.0 4000.0 4000.0 4000.0 4000.0 4000.0 4000.0 4000.0 4000.0 4000.0 4000.0 4000.0 4000.0 4000.0 4000.0 4000.0 4000.0 4000.0 4000.0 4000.0 4000.0 4000.0 4000.0 4000.0 4000.0 4000.0 4000.0 4000.0 4000.0 4000.0 4000.0 4000.0 4000.0 4000.0 4000.0 4000.0 4000.0 4000.0 4000.0 4000.0 4000.0 4000.0 4000.0 4000.0 4000.0 4000.0 4000.0 4000.0 4000.0 4000.0 4000.0 4000.0 4000.0 4000.0 4000.0 4000.0 4000.0 4000.0 4000.0 4000.0 4000.0 4000.0 4000.0 4000.0 4000.0 4000.0 4000.0 4000.0 4000.0 4000.0 4000.0 4000.0 4000.0 4000.0 4000.0 4000.0 4000.0 4000.0 4000.0 4000.0 4000.0 4000.0 4000.0 4000.0 4000.0 4000.0 4000.0 4000.0 4000.0 4000.0 4000.0 4000.0 4000.0 4000.0 4000.0 4000.0 4000.0 4000.0 4000.0 4000.0 4000.0 4000.0 4000.0 4000.0 4000.0 4000.0 4000.0 4000.0 4000.0 4000.0 4000.0 4000.0 4000.0 4000.0 4000.0 4000.0 4000.0 4000.0 4000.0 4000.0 4000.0 4000.0 4000.0 4000.0 4000.0 4000.0 4000.0 4000.0 4000.0 4000.0 4000.0 4000.0 4000.0 4000.0 4000.0 4000.0 4000.0 4000.0 4000.0 4000.0 4000.0 4000.0 4000.0 4000.0 4000.0 4000.0 4000.0 4000.0 4000.0 4000.0 4000.0 4000.0 4000.0 4000.0 4000.0 4000.0 4000.0 4000.0 4000.0 4000.0 4000.0 4000.0 4000.0 4000.0 4000.0 4000.0 4000.0 4000.0 4000.0 4000.0 4000.0 4000.0 4000.0 4000.0 4000.0 4000.0 4000.0 4000.0 4000.0 4000.0 4000.0 4000.0 4000.0 4000.0 4000.0 4000.0 4000.0 4000.0 4000.0 4000.0 4000.0 4000.0 4000.0 4000.0 4000.0 4000.0 4000.0 4000.0 4000.0 4000.0 4000.0 4000.0 4000.0 4000.0 4000.0 4000.0 4000.0 4000.0 4000.0 4000.0 4000.0 4000.0 4000.0 4000.0 4000.0 4000.0 4000.0 4000.0 4000.0 4000.0 4000.0 4000.0 4000.0 4000.0 4000.0 4000.0 4000.0 4000.0 4000.0 4000.0 4000.0 4000.0 4000.0 4000.0 4000.0 4000.0 4000.0 4000.0 4000.0 4000.0 4000.0 4000.0 4000.0 4000.0 4000.0 4000.0 4000.0 4000.0 4000.0 4000.0 4000.0 4000.0 4000.0 4000.0 4000.0 4000.0 4000.0 4000.0 4000.0 4000.0 4000.0 4000.0 4000.0 4000.0 4000.0 4000.0 4000.0 4000.0 4000.0 4000.0 4000.0 4000.0 4000.0 4000.0 4000.0 4000.0 4000.0 4000.0 4000.0 4000.0 4000.0 4000.0 4000.0 4000.0 4000.0 4000.0 4000.0 4000.0 4000.0 4000.0 4000.0 4000.0 4000.0 4000.0 4000.0 4000.0 4000.0 4000.0 4000.0 4000.0 4000.0 4000.0 4000.0 4000.0 4000.0 4000.0 4000.0 4000.0 4000.0 4000.0 4000.0 4000.0 4000.0 4000.0 4000.0 4000.0 4000.0 4000.0 4000.0 4000.0 4000.0 4000.0 4000.0 4000.0 4000.0 4000.0 4000.0 4000.0 4000.0 4000.0 4000.0 4000.0 4000.0 4000.0 4000.0 4000.0 4000.0 4000.0 4000.0 4000.0 4000.0 4000.0 4000.0 4000.0 4000.0 4000.0 4000.0 4000.0 4000.0 4000.0 4000.0 4000.0 4000.0 4000.0 4000.0 4000.0 4000.0 4000.0 4000.0 4000.0 4000.0 4000.0 4000.0 4000.0 4000.0 4000.0 4000.0 4000.0 4000.0 4000.0 4000.0 4000.0 4000.0 4000.0 4000.0 4000.0 4000.0 4000.0 4000.0 4000.0 4000.0 4000.0 4000.0 4000.0 4000.0 4000.0 4000.0 4000.0 4000.0 4000.0 4000.0 4000.0 4000.0 4000.0 4000.0 4000.0 4000.0 4000.0 4000.0 4000.0 4000.0 4000.0 4000.0 4000.0 4000.0 4000.0 4000.0 4000.0 4000.0 4000.0 4000.0 4000.0 4000.0 4000.0 4000.0 4000.0 4000.0 4000.0 4000.0 4000.0 4000.0 4000.0 4000.0 4000.0 4000.0 4000.0 4000.0 4000.0 4000.0 4000.0 4000.0 4000.0 4000.0 4000.0 4000.0 4000.0 4000.0 4000.0 4000.0 4000.0 4000.0 4000.0 4000.0 4000.0 4000.0 4000.0 4000.0 4000.0 4000.0 4000.0 4000.0 4000.0 4000.0 4000.0 4000.0 4000.0 4000.0 4000.0 4000.0 4000.0 4000.0 4000.0 4000.0 4000.0 4000.0 4000.0 4000.0 4000.0 4000.0 4000.0 4000.0 4000.0 4000.0 4000.0 4000.0 4000.0 4000.0 4000.0 4000.0 4000.0 4000.0 4000.0 4000.0 4000.0 4000.0 4000.0 4000.0 4000.0 4000.0 4000.0 4000.0 4000.0 4000.0 4000.0 4000.0 4000.0 4000.0 4000.0 4000.0 4000.0 4000.0 4000.0 4000.0 4000.0 4000.0 4000.0 4000.0 4000.0 4000.0 4000.0 4000.0 4000.0 4000.0 4000.0 4000.0 4000.0 4000.0 4000.0 4000.0 4000.0 4000.0 4000.0 4000.0 4000.0 4000.0 4000.0 4000.0 4000.0 4000.0 4000.0 4000.0 4000.0 4000.0 4000.0 4000.0 4000.0 4000.0 4000.0 4000.0 4000.0 4000.0 4000.0 4000.0 4000.0 4000.0 4000.0 4000.0 4000.0 4000.0 4000.0 4000.0 4000.0 4000.0 4000.0 4000.0 4000.0 4000.0 4000.0 4000.0 4000.0 4000.0 4000.0 4000.0 4000.0 4000.0 4000.0 4000.0 4000.0 4000.0 4000.0 4000.0 4000.0 4000.0 4000.0 4000.0 4000.0 4000.0 4000.0 4000.0 4000.0 4000.0 4000.0 4000.0 4000.0 4000.0 4000.0 4000.0 4000.0 4000.0 4000.0 4000.0 4000.0 4000.0 4000.0 4000.0 4000.0 4000.0 4000.0 4000.0 4000.0 4000.0 4000.0 4000.0 4000.0 4000.0 4000.0 4000.0 4000.0 4000.0 4000.0 4000.0 4000.0 4000.0 4000.0 4000.0 4000.0 4000.0 4000.0 4000.0 4000.0 4000.0 4000.0 4000.0 4000.0 4000.0 4000.0 4000.0 4000.0 4000.0 4000.0 4000.0 4000.0 4000.0 4000.0 4000.0 4000.0 4000.0 4000.0 4000.0 4000.0 4000.0 4000.0 4000.0 4000.0 4000.0 4000.0 4000.0 4000.0 4000.0 4000.0 4000.0 4000.0 4000.0 4000.0 4000.0 4000.0 4000.0 4000.0 4000.0 4000.0 4000.0 4000.0 4000.0 4000.0 4000.0 4000.0 4000.0 4000.0 4000.0 4000.0 4000.0 4000.0 4000.0 4000.0 4000.0 4000.0 4000.0 4000.0 4000.0 4000.0 4000.0 4000.0 4000.0 4000.0 4000.0 4000.0 4000.0 4000.0 4000.0 4000.0 4000.0 4000.0 4000.0 4000.0 4000.0 4000.0 4000.0 4000.0 4000.0 4000.0 4000.0 4000.0 4000.0 4000.0 4000.0 4000.0 4000.0 4000.0 4000.0 4000.0 4000.0 4000.0 4000.0 4000.0 4000.0 4000.0 4000.0 4000.0 4000.0 4000.0 4000.0 4000.0 4000.0 4000.0 4000.0 4000.0 4000.0 4000.0 4000.0 4000.0 4000.0 4000.0 4000.0 4000.0 4000.0 4000.0 4000.0 4000.0 4000.0 4000.0 4000.0 4000.0 4000.0 4000.0 4000.0 4000.0 4000.0 4000.0 4000.0 4000.0 4000.0 4000.0 4000.0 4000.0 4000.0 4000.0 4000.0 4000.0 4000.0 4000.0 4000.0 4000.0 4000.0 4000.0 4000.0 4000.0 4000.0 SCALARS Mass float 1
LOOKUP_TABLE default
11309700000.0 11309700000.0 11309700000.0 11309700000.0 11309700000.0 11309700000.0 11309700000.0 11309700000.0 11309700000.0 11309700000.0 11309700000.0 11309700000.0 11309700000.0 11309700000.0 11309700000.0 11309700000.0 11309700000.0 11309700000.0 11309700000.0 11309700000.0 11309700000.0 11309700000.0 11309700000.0 11309700000.0 11309700000.0 11309700000.0 11309700000.0 11309700000.0 11309700000.0 11309700000.0 11309700000.0 11309700000.0 11309700000.0 11309700000.0 11309700000.0 11309700000.0 11309700000.0 11309700000.0 11309700000.0 11309700000.0 11309700000.0 11309700000.0 11309700000.0 11309700000.0 11309700000.0 11309700000.0 11309700000.0 11309700000.0 11309700000.0 11309700000.0 11309700000.0 11309700000.0 11309700000.0 11309700000.0 11309700000.0 11309700000.0 11309700000.0 11309700000.0 11309700000.0 11309700000.0 11309700000.0 11309700000.0 11309700000.0 11309700000.0 11309700000.0 11309700000.0 11309700000.0 11309700000.0 11309700000.0 11309700000.0 11309700000.0 11309700000.0 11309700000.0 11309700000.0 11309700000.0 11309700000.0 11309700000.0 11309700000.0 11309700000.0 11309700000.0 11309700000.0 11309700000.0 11309700000.0 11309700000.0 11309700000.0 11309700000.0 11309700000.0 11309700000.0 11309700000.0 11309700000.0 11309700000.0 11309700000.0 11309700000.0 11309700000.0 11309700000.0 11309700000.0 11309700000.0 11309700000.0 11309700000.0 11309700000.0 11309700000.0 11309700000.0 11309700000.0 11309700000.0 11309700000.0 11309700000.0 11309700000.0 11309700000.0 11309700000.0 11309700000.0 11309700000.0 11309700000.0 11309700000.0 11309700000.0 11309700000.0 11309700000.0 11309700000.0 11309700000.0 11309700000.0 11309700000.0 11309700000.0 11309700000.0 11309700000.0 11309700000.0 11309700000.0 11309700000.0 11309700000.0 11309700000.0 11309700000.0 11309700000.0 11309700000.0 11309700000.0 11309700000.0 11309700000.0 11309700000.0 11309700000.0 11309700000.0 11309700000.0 11309700000.0 11309700000.0 11309700000.0 11309700000.0 11309700000.0 11309700000.0 11309700000.0 11309700000.0 11309700000.0 11309700000.0 11309700000.0 11309700000.0 11309700000.0 11309700000.0 11309700000.0 11309700000.0 11309700000.0 11309700000.0 11309700000.0 11309700000.0 11309700000.0 11309700000.0 11309700000.0 11309700000.0 11309700000.0 11309700000.0 11309700000.0 11309700000.0 11309700000.0 11309700000.0 11309700000.0 11309700000.0 11309700000.0 11309700000.0 11309700000.0 11309700000.0 11309700000.0 11309700000.0 11309700000.0 11309700000.0 11309700000.0 11309700000.0 11309700000.0 11309700000.0 11309700000.0 11309700000.0 11309700000.0 11309700000.0 11309700000.0 11309700000.0 11309700000.0 11309700000.0 11309700000.0 11309700000.0 11309700000.0 11309700000.0 11309700000.0 11309700000.0 11309700000.0 11309700000.0 11309700000.0 11309700000.0 11309700000.0 11309700000.0 11309700000.0 11309700000.0 11309700000.0 11309700000.0 11309700000.0 11309700000.0 11309700000.0 11309700000.0 11309700000.0 11309700000.0 11309700000.0 11309700000.0 11309700000.0 11309700000.0 11309700000.0 11309700000.0 11309700000.0 11309700000.0 11309700000.0 11309700000.0 11309700000.0 11309700000.0 11309700000.0 11309700000.0 11309700000.0 11309700000.0 11309700000.0 11309700000.0 11309700000.0 11309700000.0 11309700000.0 11309700000.0 11309700000.0 11309700000.0 11309700000.0 11309700000.0 11309700000.0 11309700000.0 11309700000.0 11309700000.0 11309700000.0 11309700000.0 11309700000.0 11309700000.0 11309700000.0 11309700000.0 11309700000.0 11309700000.0 11309700000.0 11309700000.0 11309700000.0 11309700000.0 11309700000.0 11309700000.0 11309700000.0 11309700000.0 11309700000.0 11309700000.0 11309700000.0 11309700000.0 11309700000.0 11309700000.0 11309700000.0 11309700000.0 11309700000.0 11309700000.0 11309700000.0 11309700000.0 11309700000.0 11309700000.0 11309700000.0 11309700000.0 11309700000.0 11309700000.0 11309700000.0 11309700000.0 11309700000.0 11309700000.0 11309700000.0 11309700000.0 11309700000.0 11309700000.0 11309700000.0 11309700000.0 11309700000.0 11309700000.0 11309700000.0 11309700000.0 11309700000.0 11309700000.0 11309700000.0 11309700000.0 11309700000.0 11309700000.0 11309700000.0 11309700000.0 11309700000.0 11309700000.0 11309700000.0 11309700000.0 11309700000.0 11309700000.0 11309700000.0 11309700000.0 11309700000.0 11309700000.0 11309700000.0 11309700000.0 11309700000.0 11309700000.0 11309700000.0 11309700000.0 11309700000.0 11309700000.0 11309700000.0 11309700000.0 11309700000.0 11309700000.0 11309700000.0 11309700000.0 11309700000.0 11309700000.0 11309700000.0 11309700000.0 11309700000.0 11309700000.0 11309700000.0 11309700000.0 11309700000.0 11309700000.0 11309700000.0 11309700000.0 11309700000.0 11309700000.0 11309700000.0 11309700000.0 11309700000.0 11309700000.0 11309700000.0 11309700000.0 11309700000.0 11309700000.0 11309700000.0 11309700000.0 11309700000.0 11309700000.0 11309700000.0 11309700000.0 11309700000.0 11309700000.0 11309700000.0 11309700000.0 11309700000.0 11309700000.0 11309700000.0 11309700000.0 11309700000.0 11309700000.0 11309700000.0 11309700000.0 11309700000.0 11309700000.0 11309700000.0 11309700000.0 11309700000.0 11309700000.0 11309700000.0 11309700000.0 11309700000.0 11309700000.0 11309700000.0 11309700000.0 11309700000.0 11309700000.0 11309700000.0 11309700000.0 11309700000.0 11309700000.0 11309700000.0 11309700000.0 11309700000.0 11309700000.0 11309700000.0 11309700000.0 11309700000.0 11309700000.0 11309700000.0 11309700000.0 11309700000.0 11309700000.0 11309700000.0 11309700000.0 11309700000.0 11309700000.0 11309700000.0 11309700000.0 11309700000.0 11309700000.0 11309700000.0 11309700000.0 11309700000.0 11309700000.0 11309700000.0 11309700000.0 11309700000.0 11309700000.0 11309700000.0 11309700000.0 11309700000.0 11309700000.0 11309700000.0 11309700000.0 11309700000.0 11309700000.0 11309700000.0 11309700000.0 11309700000.0 11309700000.0 11309700000.0 11309700000.0 11309700000.0 11309700000.0 11309700000.0 11309700000.0 11309700000.0 11309700000.0 11309700000.0 11309700000.0 11309700000.0 11309700000.0 11309700000.0 11309700000.0 11309700000.0 11309700000.0 11309700000.0 11309700000.0 11309700000.0 11309700000.0 11309700000.0 11309700000.0 11309700000.0 11309700000.0 11309700000.0 11309700000.0 11309700000.0 11309700000.0 11309700000.0 11309700000.0 11309700000.0 11309700000.0 11309700000.0 11309700000.0 11309700000.0 11309700000.0 11309700000.0 11309700000.0 11309700000.0 11309700000.0 11309700000.0 11309700000.0 11309700000.0 11309700000.0 11309700000.0 11309700000.0 11309700000.0 11309700000.0 11309700000.0 11309700000.0 11309700000.0 11309700000.0 11309700000.0 11309700000.0 11309700000.0 11309700000.0 11309700000.0 11309700000.0 11309700000.0 11309700000.0 11309700000.0 11309700000.0 11309700000.0 11309700000.0 11309700000.0 11309700000.0 11309700000.0 11309700000.0 11309700000.0 11309700000.0 11309700000.0 11309700000.0 11309700000.0 11309700000.0 11309700000.0 11309700000.0 11309700000.0 11309700000.0 11309700000.0 11309700000.0 11309700000.0 11309700000.0 11309700000.0 11309700000.0 11309700000.0 11309700000.0 11309700000.0 11309700000.0 11309700000.0 11309700000.0 11309700000.0 11309700000.0 11309700000.0 11309700000.0 11309700000.0 11309700000.0 11309700000.0 11309700000.0 11309700000.0 11309700000.0 11309700000.0 11309700000.0 11309700000.0 11309700000.0 11309700000.0 11309700000.0 11309700000.0 11309700000.0 11309700000.0 11309700000.0 11309700000.0 11309700000.0 11309700000.0 11309700000.0 11309700000.0 11309700000.0 11309700000.0 11309700000.0 11309700000.0 11309700000.0 11309700000.0 11309700000.0 11309700000.0 11309700000.0 11309700000.0 11309700000.0 11309700000.0 11309700000.0 11309700000.0 11309700000.0 11309700000.0 11309700000.0 11309700000.0 11309700000.0 11309700000.0 11309700000.0 11309700000.0 11309700000.0 11309700000.0 11309700000.0 11309700000.0 11309700000.0 11309700000.0 11309700000.0 11309700000.0 11309700000.0 11309700000.0 11309700000.0 11309700000.0 11309700000.0 11309700000.0 11309700000.0 11309700000.0 11309700000.0 11309700000.0 11309700000.0 11309700000.0 11309700000.0 11309700000.0 11309700000.0 11309700000.0 11309700000.0 11309700000.0 11309700000.0 11309700000.0 11309700000.0 11309700000.0 11309700000.0 11309700000.0 11309700000.0 11309700000.0 11309700000.0 11309700000.0 11309700000.0 11309700000.0 11309700000.0 11309700000.0 11309700000.0 11309700000.0 11309700000.0 11309700000.0 11309700000.0 11309700000.0 11309700000.0 11309700000.0 11309700000.0 11309700000.0 11309700000.0 11309700000.0 11309700000.0 11309700000.0 11309700000.0 11309700000.0 11309700000.0 11309700000.0 11309700000.0 11309700000.0 11309700000.0 11309700000.0 11309700000.0 11309700000.0 11309700000.0 11309700000.0 11309700000.0 11309700000.0 11309700000.0 11309700000.0 11309700000.0 11309700000.0 11309700000.0 11309700000.0 11309700000.0 11309700000.0 11309700000.0 11309700000.0 11309700000.0 11309700000.0 11309700000.0 11309700000.0 11309700000.0 11309700000.0 11309700000.0 11309700000.0 11309700000.0 11309700000.0 11309700000.0 11309700000.0 11309700000.0 11309700000.0 11309700000.0 11309700000.0 11309700000.0 11309700000.0 11309700000.0 11309700000.0 11309700000.0 11309700000.0 11309700000.0 11309700000.0 11309700000.0 11309700000.0 11309700000.0 11309700000.0 11309700000.0 11309700000.0 11309700000.0 11309700000.0 11309700000.0 11309700000.0 11309700000.0 11309700000.0 11309700000.0 11309700000.0 11309700000.0 11309700000.0 11309700000.0 11309700000.0 11309700000.0 11309700000.0 11309700000.0 11309700000.0 11309700000.0 11309700000.0 11309700000.0 11309700000.0 11309700000.0 11309700000.0 11309700000.0 11309700000.0 11309700000.0 11309700000.0 11309700000.0 11309700000.0 11309700000.0 11309700000.0 11309700000.0 11309700000.0 11309700000.0 11309700000.0 11309700000.0 11309700000.0 11309700000.0 11309700000.0 11309700000.0 11309700000.0 11309700000.0 11309700000.0 11309700000.0 11309700000.0 11309700000.0 11309700000.0 11309700000.0 11309700000.0 11309700000.0 11309700000.0 11309700000.0 11309700000.0 11309700000.0 11309700000.0 11309700000.0 11309700000.0 11309700000.0 11309700000.0 11309700000.0 11309700000.0 11309700000.0 11309700000.0 11309700000.0 11309700000.0 11309700000.0 11309700000.0 11309700000.0 11309700000.0 11309700000.0 11309700000.0 11309700000.0 11309700000.0 11309700000.0 11309700000.0 11309700000.0 11309700000.0 11309700000.0 11309700000.0 11309700000.0 11309700000.0 11309700000.0 11309700000.0 11309700000.0 11309700000.0 11309700000.0 11309700000.0 11309700000.0 11309700000.0 11309700000.0 11309700000.0 11309700000.0 11309700000.0 11309700000.0 11309700000.0 11309700000.0 11309700000.0 11309700000.0 11309700000.0 11309700000.0 11309700000.0 11309700000.0 11309700000.0 11309700000.0 11309700000.0 11309700000.0 11309700000.0 11309700000.0 11309700000.0 11309700000.0 11309700000.0 11309700000.0 11309700000.0 11309700000.0 11309700000.0 11309700000.0 11309700000.0 11309700000.0 11309700000.0 11309700000.0 11309700000.0 11309700000.0 11309700000.0 11309700000.0 11309700000.0 11309700000.0 11309700000.0 11309700000.0 11309700000.0 11309700000.0 11309700000.0 11309700000.0 11309700000.0 11309700000.0 11309700000.0 11309700000.0 11309700000.0 11309700000.0 11309700000.0 11309700000.0 11309700000.0 11309700000.0 11309700000.0 11309700000.0 11309700000.0 11309700000.0 11309700000.0 11309700000.0 11309700000.0 11309700000.0 11309700000.0 11309700000.0 11309700000.0 11309700000.0 11309700000.0 11309700000.0 11309700000.0 11309700000.0 11309700000.0 11309700000.0 11309700000.0 11309700000.0 11309700000.0 11309700000.0 11309700000.0 11309700000.0 11309700000.0 11309700000.0 11309700000.0 11309700000.0 11309700000.0 11309700000.0 11309700000.0 11309700000.0 11309700000.0 11309700000.0 11309700000.0 11309700000.0 11309700000.0 11309700000.0 11309700000.0 11309700000.0 11309700000.0 11309700000.0 11309700000.0 11309700000.0 11309700000.0 11309700000.0 11309700000.0 11309700000.0 11309700000.0 11309700000.0 11309700000.0 11309700000.0 11309700000.0 11309700000.0 11309700000.0 11309700000.0 11309700000.0 11309700000.0 11309700000.0 11309700000.0 11309700000.0 11309700000.0 11309700000.0 11309700000.0 11309700000.0 11309700000.0 11309700000.0 11309700000.0 11309700000.0 11309700000.0 11309700000.0 11309700000.0 11309700000.0 11309700000.0 11309700000.0 11309700000.0 11309700000.0 11309700000.0 11309700000.0 11309700000.0 11309700000.0 11309700000.0 11309700000.0 11309700000.0 11309700000.0 11309700000.0 11309700000.0 11309700000.0 11309700000.0 11309700000.0 11309700000.0 11309700000.0 11309700000.0 11309700000.0 11309700000.0 11309700000.0 11309700000.0 11309700000.0 11309700000.0 11309700000.0 11309700000.0 11309700000.0 11309700000.0 11309700000.0 11309700000.0 11309700000.0 11309700000.0 11309700000.0 11309700000.0 11309700000.0 11309700000.0 11309700000.0 11309700000.0 11309700000.0 11309700000.0 11309700000.0 11309700000.0 11309700000.0 11309700000.0 11309700000.0 11309700000.0 11309700000.0 11309700000.0 11309700000.0 11309700000.0 11309700000.0 11309700000.0 11309700000.0 11309700000.0 11309700000.0 11309700000.0 11309700000.0 11309700000.0 11309700000.0 11309700000.0 11309700000.0 11309700000.0 11309700000.0 11309700000.0 11309700000.0 11309700000.0 11309700000.0 11309700000.0 11309700000.0 11309700000.0 11309700000.0 11309700000.0 11309700000.0 11309700000.0 11309700000.0 11309700000.0 11309700000.0 11309700000.0 11309700000.0 11309700000.0 11309700000.0 11309700000.0 11309700000.0 11309700000.0 11309700000.0 11309700000.0 11309700000.0 11309700000.0 11309700000.0 11309700000.0 11309700000.0 11309700000.0 11309700000.0 11309700000.0 11309700000.0 11309700000.0 11309700000.0 11309700000.0 11309700000.0 11309700000.0 11309700000.0 11309700000.0 11309700000.0 11309700000.0 11309700000.0 11309700000.0 11309700000.0 11309700000.0 11309700000.0 11309700000.0 11309700000.0 11309700000.0 11309700000.0 11309700000.0 11309700000.0 11309700000.0 11309700000.0 11309700000.0 11309700000.0 11309700000.0 11309700000.0 11309700000.0 11309700000.0 11309700000.0 11309700000.0 11309700000.0 11309700000.0 11309700000.0 11309700000.0 11309700000.0 11309700000.0 11309700000.0 11309700000.0 11309700000.0 11309700000.0 11309700000.0 11309700000.0 11309700000.0 11309700000.0 11309700000.0 11309700000.0 11309700000.0 11309700000.0 11309700000.0 11309700000.0 11309700000.0 11309700000.0 11309700000.0 11309700000.0 11309700000.0 11309700000.0 11309700000.0 11309700000.0 11309700000.0 11309700000.0 11309700000.0 11309700000.0 11309700000.0 11309700000.0 11309700000.0 11309700000.0 11309700000.0 11309700000.0 11309700000.0 11309700000.0 11309700000.0 11309700000.0 11309700000.0 11309700000.0 11309700000.0 11309700000.0 11309700000.0 11309700000.0 11309700000.0 11309700000.0 11309700000.0 11309700000.0 11309700000.0 11309700000.0 11309700000.0 11309700000.0 11309700000.0 11309700000.0 11309700000.0 11309700000.0 11309700000.0 11309700000.0 11309700000.0 11309700000.0 11309700000.0 11309700000.0 11309700000.0 11309700000.0 11309700000.0 11309700000.0 11309700000.0 11309700000.0 11309700000.0 11309700000.0 11309700000.0 11309700000.0 11309700000.0 11309700000.0 11309700000.0 11309700000.0 11309700000.0 11309700000.0 11309700000.0 11309700000.0 11309700000.0 11309700000.0 11309700000.0 11309700000.0 11309700000.0 11309700000.0 11309700000.0 11309700000.0 11309700000.0 11309700000.0 11309700000.0 11309700000.0 11309700000.0 11309700000.0 11309700000.0 11309700000.0 11309700000.0 11309700000.0 11309700000.0 11309700000.0 11309700000.0 11309700000.0 11309700000.0 11309700000.0 11309700000.0 11309700000.0 11309700000.0 11309700000.0 11309700000.0 11309700000.0 11309700000.0 11309700000.0 11309700000.0 11309700000.0 11309700000.0 11309700000.0 11309700000.0 11309700000.0 11309700000.0 11309700000.0 11309700000.0 11309700000.0 11309700000.0 11309700000.0 11309700000.0 11309700000.0 11309700000.0 11309700000.0 11309700000.0 11309700000.0 11309700000.0 11309700000.0 11309700000.0 11309700000.0 11309700000.0 11309700000.0 11309700000.0 11309700000.0 11309700000.0 11309700000.0 11309700000.0 11309700000.0 11309700000.0 11309700000.0 11309700000.0 11309700000.0 11309700000.0 11309700000.0 11309700000.0 11309700000.0 11309700000.0 11309700000.0 11309700000.0 11309700000.0 11309700000.0 11309700000.0 11309700000.0 11309700000.0 11309700000.0 11309700000.0 11309700000.0 11309700000.0 11309700000.0 11309700000.0 11309700000.0 11309700000.0 11309700000.0 11309700000.0 11309700000.0 11309700000.0 11309700000.0 11309700000.0 11309700000.0 11309700000.0 11309700000.0 11309700000.0 11309700000.0 11309700000.0 11309700000.0 11309700000.0 11309700000.0 11309700000.0 11309700000.0 11309700000.0 11309700000.0 11309700000.0 11309700000.0 11309700000.0 11309700000.0 11309700000.0 11309700000.0 11309700000.0 11309700000.0 11309700000.0 11309700000.0 11309700000.0 11309700000.0 11309700000.0 11309700000.0 11309700000.0 11309700000.0 11309700000.0 11309700000.0 11309700000.0 11309700000.0 11309700000.0 11309700000.0 11309700000.0 11309700000.0 11309700000.0 11309700000.0 11309700000.0 11309700000.0 11309700000.0 11309700000.0 11309700000.0 11309700000.0 11309700000.0 11309700000.0 11309700000.0 11309700000.0 11309700000.0 11309700000.0 11309700000.0 11309700000.0 11309700000.0 11309700000.0 11309700000.0 11309700000.0 11309700000.0 11309700000.0 11309700000.0 11309700000.0 11309700000.0 11309700000.0 11309700000.0 11309700000.0 11309700000.0 11309700000.0 11309700000.0 11309700000.0 11309700000.0 11309700000.0 11309700000.0 11309700000.0 11309700000.0 11309700000.0 11309700000.0 11309700000.0 11309700000.0 11309700000.0 11309700000.0 11309700000.0 11309700000.0 11309700000.0 11309700000.0 11309700000.0 11309700000.0 11309700000.0 11309700000.0 11309700000.0 11309700000.0 11309700000.0 11309700000.0 11309700000.0 11309700000.0 11309700000.0 11309700000.0 11309700000.0 11309700000.0 11309700000.0 11309700000.0 11309700000.0 11309700000.0 11309700000.0 11309700000.0 11309700000.0 11309700000.0 11309700000.0 11309700000.0 11309700000.0 11309700000.0 11309700000.0 11309700000.0 11309700000.0 11309700000.0 11309700000.0 11309700000.0 11309700000.0 11309700000.0 11309700000.0 11309700000.0 11309700000.0 11309700000.0 11309700000.0 11309700000.0 11309700000.0 11309700000.0 11309700000.0 11309700000.0 11309700000.0 11309700000.0 11309700000.0 11309700000.0 11309700000.0 11309700000.0 11309700000.0 11309700000.0 11309700000.0 11309700000.0 11309700000.0 11309700000.0 11309700000.0 11309700000.0 11309700000.0 11309700000.0 11309700000.0 11309700000.0 11309700000.0 11309700000.0 11309700000.0 11309700000.0 11309700000.0 11309700000.0 11309700000.0 11309700000.0 11309700000.0 11309700000.0 11309700000.0 11309700000.0 11309700000.0 11309700000.0 11309700000.0 11309700000.0 11309700000.0 11309700000.0 11309700000.0 11309700000.0 11309700000.0 11309700000.0 11309700000.0 11309700000.0 11309700000.0 11309700000.0 11309700000.0 11309700000.0 11309700000.0 11309700000.0 11309700000.0 11309700000.0 11309700000.0 11309700000.0 11309700000.0 11309700000.0 11309700000.0 11309700000.0 11309700000.0 11309700000.0 11309700000.0 11309700000.0 11309700000.0 11309700000.0 11309700000.0 11309700000.0 11309700000.0 11309700000.0 11309700000.0 11309700000.0 11309700000.0 11309700000.0 11309700000.0 11309700000.0 11309700000.0 11309700000.0 11309700000.0 11309700000.0 11309700000.0 11309700000.0 11309700000.0 11309700000.0 11309700000.0 11309700000.0 11309700000.0 11309700000.0 11309700000.0 11309700000.0 11309700000.0 11309700000.0 11309700000.0 11309700000.0 11309700000.0 11309700000.0 11309700000.0 11309700000.0 11309700000.0 11309700000.0 11309700000.0 11309700000.0 11309700000.0 11309700000.0 11309700000.0 11309700000.0 11309700000.0 11309700000.0 11309700000.0 11309700000.0 11309700000.0 11309700000.0 11309700000.0 11309700000.0 11309700000.0 11309700000.0 11309700000.0 11309700000.0 11309700000.0 11309700000.0 11309700000.0 11309700000.0 11309700000.0 11309700000.0 11309700000.0 11309700000.0 11309700000.0 11309700000.0 11309700000.0 11309700000.0 11309700000.0 11309700000.0 11309700000.0 11309700000.0 11309700000.0 11309700000.0 11309700000.0 11309700000.0 11309700000.0 11309700000.0 11309700000.0 11309700000.0 11309700000.0 11309700000.0 11309700000.0 11309700000.0 11309700000.0 11309700000.0 11309700000.0 11309700000.0 11309700000.0 11309700000.0 11309700000.0 11309700000.0 11309700000.0 11309700000.0 11309700000.0 11309700000.0 11309700000.0 11309700000.0 11309700000.0 11309700000.0 11309700000.0 11309700000.0 11309700000.0 11309700000.0 11309700000.0 11309700000.0 11309700000.0 11309700000.0 11309700000.0 11309700000.0 11309700000.0 11309700000.0 11309700000.0 11309700000.0 11309700000.0 11309700000.0 11309700000.0 11309700000.0 11309700000.0 11309700000.0 11309700000.0 11309700000.0 11309700000.0 11309700000.0 11309700000.0 11309700000.0 11309700000.0 11309700000.0 11309700000.0 11309700000.0 11309700000.0 11309700000.0 11309700000.0 11309700000.0 11309700000.0 11309700000.0 11309700000.0 11309700000.0 11309700000.0 11309700000.0 11309700000.0 11309700000.0 11309700000.0 11309700000.0 11309700000.0 11309700000.0 11309700000.0 11309700000.0 11309700000.0 11309700000.0 11309700000.0 11309700000.0 11309700000.0 11309700000.0 11309700000.0 11309700000.0 11309700000.0 11309700000.0 11309700000.0 11309700000.0 11309700000.0 11309700000.0 11309700000.0 11309700000.0 11309700000.0 11309700000.0 11309700000.0 11309700000.0 11309700000.0 11309700000.0 11309700000.0 11309700000.0 11309700000.0 11309700000.0 11309700000.0 11309700000.0 11309700000.0 11309700000.0 11309700000.0 11309700000.0 11309700000.0 11309700000.0 11309700000.0 11309700000.0 11309700000.0 11309700000.0 11309700000.0 11309700000.0 11309700000.0 11309700000.0 11309700000.0 11309700000.0 11309700000.0 11309700000.0 11309700000.0 11309700000.0 11309700000.0 11309700000.0 11309700000.0 11309700000.0 11309700000.0 11309700000.0 11309700000.0 11309700000.0 11309700000.0 11309700000.0 11309700000.0 11309700000.0 11309700000.0 11309700000.0 11309700000.0 11309700000.0 11309700000.0 11309700000.0 11309700000.0 11309700000.0 11309700000.0 11309700000.0 11309700000.0 11309700000.0 11309700000.0 11309700000.0 11309700000.0 11309700000.0 11309700000.0 11309700000.0 11309700000.0 11309700000.0 11309700000.0 11309700000.0 11309700000.0 11309700000.0 11309700000.0 11309700000.0 11309700000.0 11309700000.0 11309700000.0 11309700000.0 11309700000.0 11309700000.0 11309700000.0 11309700000.0 11309700000.0 11309700000.0 11309700000.0 11309700000.0 11309700000.0 11309700000.0 11309700000.0 11309700000.0 11309700000.0 11309700000.0 11309700000.0 11309700000.0 11309700000.0 11309700000.0 11309700000.0 11309700000.0 11309700000.0 11309700000.0 11309700000.0 11309700000.0 11309700000.0 11309700000.0 11309700000.0 11309700000.0 11309700000.0 11309700000.0 11309700000.0 11309700000.0 11309700000.0 11309700000.0 11309700000.0 11309700000.0 11309700000.0 11309700000.0 11309700000.0 11309700000.0 11309700000.0 11309700000.0 11309700000.0 11309700000.0 11309700000.0 11309700000.0 11309700000.0 11309700000.0 11309700000.0 11309700000.0 11309700000.0 11309700000.0 11309700000.0 11309700000.0 11309700000.0 11309700000.0 11309700000.0 11309700000.0 11309700000.0 11309700000.0 11309700000.0 11309700000.0 11309700000.0 11309700000.0 11309700000.0 11309700000.0 11309700000.0 11309700000.0 11309700000.0 11309700000.0 11309700000.0 11309700000.0 11309700000.0 11309700000.0 11309700000.0 11309700000.0 11309700000.0 11309700000.0 11309700000.0 11309700000.0 11309700000.0 11309700000.0 11309700000.0 11309700000.0 11309700000.0 11309700000.0 11309700000.0 11309700000.0 11309700000.0 11309700000.0 11309700000.0 11309700000.0 11309700000.0 11309700000.0 11309700000.0 11309700000.0 11309700000.0 11309700000.0 11309700000.0 11309700000.0 11309700000.0 11309700000.0 11309700000.0 11309700000.0 11309700000.0 11309700000.0 11309700000.0 11309700000.0 11309700000.0 11309700000.0 11309700000.0 11309700000.0 11309700000.0 11309700000.0 11309700000.0 11309700000.0 11309700000.0 11309700000.0 11309700000.0 11309700000.0 11309700000.0 11309700000.0 11309700000.0 11309700000.0 11309700000.0 11309700000.0 11309700000.0 11309700000.0 11309700000.0 11309700000.0 11309700000.0 11309700000.0 11309700000.0 11309700000.0 11309700000.0 11309700000.0 11309700000.0 11309700000.0 11309700000.0 11309700000.0 11309700000.0 11309700000.0 11309700000.0 11309700000.0 11309700000.0 11309700000.0 11309700000.0 11309700000.0 11309700000.0 11309700000.0 11309700000.0 11309700000.0 11309700000.0 11309700000.0 11309700000.0 11309700000.0 11309700000.0 11309700000.0 11309700000.0 11309700000.0 11309700000.0 11309700000.0 11309700000.0 11309700000.0 11309700000.0 11309700000.0 11309700000.0 11309700000.0 11309700000.0 11309700000.0 11309700000.0 11309700000.0 11309700000.0 11309700000.0 11309700000.0 11309700000.0 11309700000.0 11309700000.0 11309700000.0 11309700000.0 11309700000.0 11309700000.0 11309700000.0 11309700000.0 11309700000.0 11309700000.0 11309700000.0 11309700000.0 11309700000.0 11309700000.0 11309700000.0 11309700000.0 11309700000.0 11309700000.0 11309700000.0 11309700000.0 11309700000.0 11309700000.0 11309700000.0 11309700000.0 11309700000.0 11309700000.0 11309700000.0 11309700000.0 11309700000.0 11309700000.0 11309700000.0 11309700000.0 11309700000.0 11309700000.0 11309700000.0 11309700000.0 11309700000.0 11309700000.0 11309700000.0 11309700000.0 11309700000.0 11309700000.0 11309700000.0 11309700000.0 11309700000.0 11309700000.0 11309700000.0 11309700000.0 11309700000.0 11309700000.0 11309700000.0 11309700000.0 11309700000.0 11309700000.0 11309700000.0 11309700000.0 11309700000.0 11309700000.0 11309700000.0 11309700000.0 11309700000.0 11309700000.0 11309700000.0 11309700000.0 11309700000.0 11309700000.0 11309700000.0 11309700000.0 11309700000.0 11309700000.0 11309700000.0 11309700000.0 11309700000.0 11309700000.0 11309700000.0 11309700000.0 11309700000.0 11309700000.0 11309700000.0 11309700000.0 11309700000.0 11309700000.0 11309700000.0 11309700000.0 11309700000.0 11309700000.0 11309700000.0 11309700000.0 11309700000.0 11309700000.0 11309700000.0 11309700000.0 11309700000.0 11309700000.0 11309700000.0 11309700000.0 11309700000.0 11309700000.0 11309700000.0 11309700000.0 11309700000.0 11309700000.0 11309700000.0 11309700000.0 11309700000.0 11309700000.0 11309700000.0 11309700000.0 11309700000.0 11309700000.0 11309700000.0 11309700000.0 11309700000.0 11309700000.0 11309700000.0 11309700000.0 11309700000.0 11309700000.0 11309700000.0 11309700000.0 11309700000.0 11309700000.0 11309700000.0 11309700000.0 11309700000.0 11309700000.0 11309700000.0 11309700000.0 11309700000.0 11309700000.0 11309700000.0 11309700000.0 11309700000.0 11309700000.0 11309700000.0 11309700000.0 11309700000.0 11309700000.0 11309700000.0 11309700000.0 11309700000.0 11309700000.0 11309700000.0 11309700000.0 11309700000.0 11309700000.0 11309700000.0 11309700000.0 11309700000.0 11309700000.0 11309700000.0 11309700000.0 11309700000.0 11309700000.0 11309700000.0 11309700000.0 11309700000.0 11309700000.0 11309700000.0 11309700000.0 11309700000.0 11309700000.0 11309700000.0 11309700000.0 11309700000.0 11309700000.0 11309700000.0 11309700000.0 11309700000.0 11309700000.0 11309700000.0 11309700000.0 11309700000.0 11309700000.0 11309700000.0 11309700000.0 11309700000.0 11309700000.0 11309700000.0 11309700000.0 11309700000.0 11309700000.0 11309700000.0 11309700000.0 11309700000.0 11309700000.0 11309700000.0 11309700000.0 11309700000.0 11309700000.0 11309700000.0 11309700000.0 11309700000.0 11309700000.0 11309700000.0 11309700000.0 11309700000.0 11309700000.0 11309700000.0 11309700000.0 11309700000.0 11309700000.0 11309700000.0 11309700000.0 11309700000.0 11309700000.0 11309700000.0 11309700000.0 11309700000.0 11309700000.0 11309700000.0 11309700000.0 11309700000.0 11309700000.0 11309700000.0 11309700000.0 11309700000.0 11309700000.0 11309700000.0 11309700000.0 11309700000.0 11309700000.0 11309700000.0 11309700000.0 11309700000.0 11309700000.0 11309700000.0 11309700000.0 11309700000.0 11309700000.0 11309700000.0 11309700000.0 11309700000.0 11309700000.0 11309700000.0 11309700000.0 11309700000.0 11309700000.0 11309700000.0 11309700000.0 11309700000.0 11309700000.0 11309700000.0 11309700000.0 11309700000.0 11309700000.0 11309700000.0 11309700000.0 11309700000.0 11309700000.0 11309700000.0 11309700000.0 11309700000.0 11309700000.0 11309700000.0 11309700000.0 11309700000.0 11309700000.0 11309700000.0 11309700000.0 11309700000.0 11309700000.0 11309700000.0 11309700000.0 11309700000.0 11309700000.0 11309700000.0 11309700000.0 11309700000.0 11309700000.0 11309700000.0 11309700000.0 11309700000.0 11309700000.0 11309700000.0 11309700000.0 11309700000.0 11309700000.0 11309700000.0 11309700000.0 11309700000.0 11309700000.0 11309700000.0 11309700000.0 11309700000.0 11309700000.0 11309700000.0 11309700000.0 11309700000.0 11309700000.0 11309700000.0 11309700000.0 11309700000.0 11309700000.0 11309700000.0 11309700000.0 11309700000.0 11309700000.0 11309700000.0 11309700000.0 11309700000.0 11309700000.0 11309700000.0 11309700000.0 11309700000.0 11309700000.0 11309700000.0 11309700000.0 11309700000.0 11309700000.0 11309700000.0 11309700000.0 11309700000.0 11309700000.0 11309700000.0 11309700000.0 11309700000.0 11309700000.0 11309700000.0 11309700000.0 11309700000.0 11309700000.0 11309700000.0 11309700000.0 11309700000.0 11309700000.0 11309700000.0 11309700000.0 11309700000.0 11309700000.0 11309700000.0 11309700000.0 11309700000.0 11309700000.0 11309700000.0 11309700000.0 11309700000.0 11309700000.0 11309700000.0 11309700000.0 11309700000.0 11309700000.0 11309700000.0 11309700000.0 11309700000.0 11309700000.0 11309700000.0 11309700000.0 11309700000.0 11309700000.0 11309700000.0 11309700000.0 11309700000.0 11309700000.0 11309700000.0 11309700000.0 11309700000.0 11309700000.0 11309700000.0 11309700000.0 11309700000.0 11309700000.0 11309700000.0 11309700000.0 11309700000.0 11309700000.0 11309700000.0 11309700000.0 11309700000.0 11309700000.0 11309700000.0 11309700000.0 11309700000.0 11309700000.0 11309700000.0 11309700000.0 11309700000.0 11309700000.0 11309700000.0 11309700000.0 11309700000.0 11309700000.0 11309700000.0 11309700000.0 11309700000.0 11309700000.0 11309700000.0 11309700000.0 11309700000.0 11309700000.0 11309700000.0 11309700000.0 11309700000.0 11309700000.0 11309700000.0 11309700000.0 11309700000.0 11309700000.0 11309700000.0 11309700000.0 11309700000.0 11309700000.0 11309700000.0 11309700000.0 11309700000.0 11309700000.0 11309700000.0 11309700000.0 11309700000.0 11309700000.0 11309700000.0 11309700000.0 11309700000.0 11309700000.0 11309700000.0 11309700000.0 11309700000.0 11309700000.0 11309700000.0 11309700000.0 11309700000.0 11309700000.0 11309700000.0 11309700000.0 11309700000.0 11309700000.0 11309700000.0 11309700000.0 11309700000.0 11309700000.0 11309700000.0 11309700000.0 11309700000.0 11309700000.0 11309700000.0 11309700000.0 11309700000.0 11309700000.0 11309700000.0 11309700000.0 11309700000.0 11309700000.0 11309700000.0 11309700000.0 11309700000.0 11309700000.0 11309700000.0 11309700000.0 11309700000.0 11309700000.0 11309700000.0 11309700000.0 11309700000.0 11309700000.0 11309700000.0 11309700000.0 11309700000.0 11309700000.0 11309700000.0 11309700000.0 11309700000.0 11309700000.0 11309700000.0 11309700000.0 11309700000.0 11309700000.0 11309700000.0 11309700000.0 11309700000.0 11309700000.0 11309700000.0 11309700000.0 11309700000.0 11309700000.0 11309700000.0 11309700000.0 11309700000.0 11309700000.0 11309700000.0 11309700000.0 11309700000.0 11309700000.0 11309700000.0 11309700000.0 11309700000.0 11309700000.0 11309700000.0 11309700000.0 11309700000.0 11309700000.0 11309700000.0 11309700000.0 11309700000.0 11309700000.0 11309700000.0 11309700000.0 11309700000.0 11309700000.0 11309700000.0 11309700000.0 11309700000.0 11309700000.0 11309700000.0 11309700000.0 11309700000.0 11309700000.0 11309700000.0 11309700000.0 11309700000.0 11309700000.0 11309700000.0 11309700000.0 11309700000.0 11309700000.0 11309700000.0 11309700000.0 11309700000.0 11309700000.0 11309700000.0 11309700000.0 11309700000.0 11309700000.0 11309700000.0 11309700000.0 11309700000.0 11309700000.0 11309700000.0 11309700000.0 11309700000.0 11309700000.0 11309700000.0 11309700000.0 11309700000.0 11309700000.0 11309700000.0 11309700000.0 11309700000.0 11309700000.0 11309700000.0 11309700000.0 11309700000.0 11309700000.0 11309700000.0 11309700000.0 11309700000.0 11309700000.0 11309700000.0 11309700000.0 11309700000.0 11309700000.0 11309700000.0 11309700000.0 11309700000.0 11309700000.0 11309700000.0 11309700000.0 11309700000.0 11309700000.0 11309700000.0 11309700000.0 11309700000.0 11309700000.0 11309700000.0 11309700000.0 11309700000.0 11309700000.0 11309700000.0 11309700000.0 11309700000.0 11309700000.0 11309700000.0 11309700000.0 11309700000.0 11309700000.0 11309700000.0 11309700000.0 11309700000.0 11309700000.0 11309700000.0 11309700000.0 11309700000.0 11309700000.0 11309700000.0 11309700000.0 11309700000.0 11309700000.0 11309700000.0 11309700000.0 11309700000.0 11309700000.0 11309700000.0 11309700000.0 11309700000.0 11309700000.0 11309700000.0 11309700000.0 11309700000.0 11309700000.0 11309700000.0 11309700000.0 11309700000.0 11309700000.0 11309700000.0 11309700000.0 11309700000.0 11309700000.0 11309700000.0 11309700000.0 11309700000.0 11309700000.0 11309700000.0 11309700000.0 11309700000.0 11309700000.0 11309700000.0 11309700000.0 11309700000.0 11309700000.0 11309700000.0 11309700000.0 11309700000.0 11309700000.0 11309700000.0 11309700000.0 11309700000.0 11309700000.0 11309700000.0 11309700000.0 11309700000.0 11309700000.0 11309700000.0 11309700000.0 11309700000.0 11309700000.0 11309700000.0 11309700000.0 11309700000.0 11309700000.0 11309700000.0 11309700000.0 11309700000.0 11309700000.0 11309700000.0 11309700000.0 11309700000.0 11309700000.0 11309700000.0 11309700000.0 11309700000.0 11309700000.0 11309700000.0 11309700000.0 11309700000.0 11309700000.0 11309700000.0 11309700000.0 11309700000.0 11309700000.0 11309700000.0 11309700000.0 11309700000.0 11309700000.0 11309700000.0 11309700000.0 11309700000.0 11309700000.0 11309700000.0 11309700000.0 11309700000.0 11309700000.0 11309700000.0 11309700000.0 11309700000.0 11309700000.0 11309700000.0 11309700000.0 11309700000.0 11309700000.0 11309700000.0 11309700000.0 11309700000.0 11309700000.0 11309700000.0 11309700000.0 11309700000.0 11309700000.0 11309700000.0 11309700000.0 11309700000.0 11309700000.0 11309700000.0 11309700000.0 11309700000.0 11309700000.0 11309700000.0 11309700000.0 11309700000.0 11309700000.0 11309700000.0 11309700000.0 11309700000.0 11309700000.0 11309700000.0 11309700000.0 11309700000.0 11309700000.0 11309700000.0 11309700000.0 11309700000.0 11309700000.0 11309700000.0 11309700000.0 11309700000.0 11309700000.0 11309700000.0 11309700000.0 11309700000.0 11309700000.0 11309700000.0 11309700000.0 11309700000.0 11309700000.0 11309700000.0 11309700000.0 11309700000.0 11309700000.0 11309700000.0 11309700000.0 11309700000.0 11309700000.0 11309700000.0 11309700000.0 11309700000.0 11309700000.0 11309700000.0 11309700000.0 11309700000.0 11309700000.0 11309700000.0 11309700000.0 11309700000.0 11309700000.0 11309700000.0 11309700000.0 11309700000.0 11309700000.0 11309700000.0 11309700000.0 11309700000.0 11309700000.0 11309700000.0 11309700000.0 11309700000.0 11309700000.0 11309700000.0 11309700000.0 11309700000.0 11309700000.0 11309700000.0 11309700000.0 11309700000.0 11309700000.0 11309700000.0 11309700000.0 11309700000.0 11309700000.0 11309700000.0 11309700000.0 11309700000.0 11309700000.0 11309700000.0 11309700000.0 11309700000.0 11309700000.0 11309700000.0 11309700000.0 11309700000.0 11309700000.0 11309700000.0 11309700000.0 11309700000.0 11309700000.0 11309700000.0 11309700000.0 11309700000.0 11309700000.0 11309700000.0 11309700000.0 11309700000.0 11309700000.0 11309700000.0 11309700000.0 11309700000.0 11309700000.0 11309700000.0 11309700000.0 11309700000.0 11309700000.0 11309700000.0 11309700000.0 11309700000.0 11309700000.0 11309700000.0 11309700000.0 11309700000.0 11309700000.0 11309700000.0 11309700000.0 11309700000.0 11309700000.0 11309700000.0 11309700000.0 11309700000.0 11309700000.0 11309700000.0 11309700000.0 11309700000.0 11309700000.0 11309700000.0 11309700000.0 11309700000.0 11309700000.0 11309700000.0 11309700000.0 11309700000.0 11309700000.0 11309700000.0 11309700000.0 11309700000.0 11309700000.0 11309700000.0 11309700000.0 11309700000.0 11309700000.0 11309700000.0 11309700000.0 11309700000.0 11309700000.0 11309700000.0 11309700000.0 11309700000.0 11309700000.0 11309700000.0 11309700000.0 11309700000.0 11309700000.0 11309700000.0 11309700000.0 11309700000.0 11309700000.0 11309700000.0 11309700000.0 11309700000.0 11309700000.0 11309700000.0 11309700000.0 11309700000.0 11309700000.0 11309700000.0 11309700000.0 11309700000.0 11309700000.0 11309700000.0 11309700000.0 11309700000.0 11309700000.0 11309700000.0 11309700000.0 11309700000.0 11309700000.0 11309700000.0 11309700000.0 11309700000.0 11309700000.0 11309700000.0 11309700000.0 11309700000.0 11309700000.0 11309700000.0 11309700000.0 11309700000.0 11309700000.0 11309700000.0 11309700000.0 11309700000.0 11309700000.0 11309700000.0 11309700000.0 11309700000.0 11309700000.0 11309700000.0 11309700000.0 11309700000.0 11309700000.0 11309700000.0 11309700000.0 11309700000.0 11309700000.0 11309700000.0 11309700000.0 11309700000.0 11309700000.0 11309700000.0 11309700000.0 11309700000.0 11309700000.0 11309700000.0 11309700000.0 11309700000.0 11309700000.0 11309700000.0 11309700000.0 11309700000.0 11309700000.0 11309700000.0 11309700000.0 11309700000.0 11309700000.0 11309700000.0 11309700000.0 11309700000.0 11309700000.0 11309700000.0 11309700000.0 11309700000.0 11309700000.0 11309700000.0 11309700000.0 11309700000.0 11309700000.0 11309700000.0 11309700000.0 11309700000.0 11309700000.0 11309700000.0 11309700000.0 11309700000.0 11309700000.0 11309700000.0 11309700000.0 11309700000.0 11309700000.0 11309700000.0 11309700000.0 11309700000.0 11309700000.0 11309700000.0 11309700000.0 11309700000.0 11309700000.0 11309700000.0 11309700000.0 11309700000.0 11309700000.0 11309700000.0 11309700000.0 11309700000.0 11309700000.0 11309700000.0 11309700000.0 11309700000.0 11309700000.0 11309700000.0 11309700000.0 11309700000.0 11309700000.0 11309700000.0 11309700000.0 11309700000.0 11309700000.0 11309700000.0 11309700000.0 11309700000.0 11309700000.0 11309700000.0 11309700000.0 11309700000.0 11309700000.0 11309700000.0 11309700000.0 11309700000.0 11309700000.0 11309700000.0 11309700000.0 11309700000.0 11309700000.0 11309700000.0 11309700000.0 11309700000.0 11309700000.0 11309700000.0 11309700000.0 11309700000.0 11309700000.0 11309700000.0 11309700000.0 11309700000.0 11309700000.0 11309700000.0 11309700000.0 11309700000.0 11309700000.0 11309700000.0 11309700000.0 11309700000.0 11309700000.0 11309700000.0 11309700000.0 11309700000.0 11309700000.0 11309700000.0 11309700000.0 11309700000.0 11309700000.0 11309700000.0 11309700000.0 11309700000.0 11309700000.0 11309700000.0 11309700000.0 11309700000.0 11309700000.0 11309700000.0 11309700000.0 11309700000.0 11309700000.0 11309700000.0 11309700000.0 11309700000.0 11309700000.0 11309700000.0 11309700000.0 11309700000.0 11309700000.0 11309700000.0 11309700000.0 11309700000.0 11309700000.0 11309700000.0 11309700000.0 11309700000.0 11309700000.0 11309700000.0 11309700000.0 11309700000.0 11309700000.0 11309700000.0 11309700000.0 11309700000.0 11309700000.0 11309700000.0 11309700000.0 11309700000.0 11309700000.0 11309700000.0 11309700000.0 11309700000.0 11309700000.0 11309700000.0 11309700000.0 11309700000.0 11309700000.0 11309700000.0 11309700000.0 11309700000.0 11309700000.0 11309700000.0 11309700000.0 11309700000.0 11309700000.0 11309700000.0 11309700000.0 11309700000.0 11309700000.0 11309700000.0 11309700000.0 11309700000.0 11309700000.0 11309700000.0 11309700000.0 11309700000.0 11309700000.0 11309700000.0 11309700000.0 11309700000.0 11309700000.0 11309700000.0 11309700000.0 11309700000.0 11309700000.0 11309700000.0 11309700000.0 11309700000.0 11309700000.0 11309700000.0 11309700000.0 11309700000.0 11309700000.0 11309700000.0 11309700000.0 11309700000.0 11309700000.0 11309700000.0 11309700000.0 11309700000.0 11309700000.0 11309700000.0 11309700000.0 11309700000.0 11309700000.0 11309700000.0 11309700000.0 11309700000.0 11309700000.0 11309700000.0 11309700000.0 11309700000.0 11309700000.0 11309700000.0 11309700000.0 11309700000.0 11309700000.0 11309700000.0 11309700000.0 11309700000.0 11309700000.0 11309700000.0 11309700000.0 11309700000.0 11309700000.0 11309700000.0 11309700000.0 11309700000.0 11309700000.0 11309700000.0 11309700000.0 11309700000.0 11309700000.0 11309700000.0 11309700000.0 11309700000.0 11309700000.0 11309700000.0 11309700000.0 11309700000.0 11309700000.0 11309700000.0 11309700000.0 11309700000.0 11309700000.0 11309700000.0 11309700000.0 11309700000.0 11309700000.0 11309700000.0 11309700000.0 11309700000.0 11309700000.0 11309700000.0 11309700000.0 11309700000.0 11309700000.0 11309700000.0 11309700000.0 11309700000.0 11309700000.0 11309700000.0 11309700000.0 11309700000.0 11309700000.0 11309700000.0 11309700000.0 11309700000.0 11309700000.0 11309700000.0 11309700000.0 11309700000.0 11309700000.0 11309700000.0 11309700000.0 11309700000.0 11309700000.0 11309700000.0 11309700000.0 11309700000.0 11309700000.0 11309700000.0 11309700000.0 11309700000.0 11309700000.0 11309700000.0 11309700000.0 11309700000.0 11309700000.0 11309700000.0 11309700000.0 11309700000.0 11309700000.0 11309700000.0 11309700000.0 11309700000.0 11309700000.0 11309700000.0 11309700000.0 11309700000.0 11309700000.0 11309700000.0 11309700000.0 11309700000.0 11309700000.0 11309700000.0 11309700000.0 11309700000.0 11309700000.0 11309700000.0 11309700000.0 11309700000.0 11309700000.0 11309700000.0 11309700000.0 11309700000.0 11309700000.0 11309700000.0 11309700000.0 11309700000.0 11309700000.0 11309700000.0 11309700000.0 11309700000.0 11309700000.0 11309700000.0 11309700000.0 11309700000.0 11309700000.0 11309700000.0 11309700000.0 11309700000.0 11309700000.0 11309700000.0 11309700000.0 11309700000.0 11309700000.0 11309700000.0 11309700000.0 11309700000.0 11309700000.0 11309700000.0 11309700000.0 11309700000.0 11309700000.0 11309700000.0 11309700000.0 11309700000.0 11309700000.0 11309700000.0 11309700000.0 11309700000.0 11309700000.0 11309700000.0 11309700000.0 11309700000.0 11309700000.0 11309700000.0 11309700000.0 11309700000.0 11309700000.0 11309700000.0 11309700000.0 11309700000.0 11309700000.0 11309700000.0 11309700000.0 11309700000.0 11309700000.0 11309700000.0 11309700000.0 11309700000.0 11309700000.0 11309700000.0 11309700000.0 11309700000.0 11309700000.0 11309700000.0 11309700000.0 11309700000.0 11309700000.0 11309700000.0 11309700000.0 11309700000.0 11309700000.0 11309700000.0 11309700000.0 11309700000.0 11309700000.0 11309700000.0 11309700000.0 11309700000.0 11309700000.0 11309700000.0 11309700000.0 11309700000.0 11309700000.0 11309700000.0 11309700000.0 11309700000.0 11309700000.0 11309700000.0 11309700000.0 11309700000.0 11309700000.0 11309700000.0 11309700000.0 11309700000.0 11309700000.0 11309700000.0 11309700000.0 11309700000.0 11309700000.0 11309700000.0 11309700000.0 11309700000.0 11309700000.0 11309700000.0 11309700000.0 11309700000.0 11309700000.0 11309700000.0 11309700000.0 11309700000.0 11309700000.0 11309700000.0 11309700000.0 11309700000.0 11309700000.0 11309700000.0 11309700000.0 11309700000.0 11309700000.0 11309700000.0 11309700000.0 11309700000.0 11309700000.0 11309700000.0 11309700000.0 11309700000.0 11309700000.0 11309700000.0 11309700000.0 11309700000.0 11309700000.0 11309700000.0 11309700000.0 11309700000.0 11309700000.0 11309700000.0 11309700000.0 11309700000.0 11309700000.0 11309700000.0 11309700000.0 11309700000.0 11309700000.0 11309700000.0 11309700000.0 11309700000.0 11309700000.0 11309700000.0 11309700000.0 11309700000.0 11309700000.0 11309700000.0 11309700000.0 11309700000.0 11309700000.0 11309700000.0 11309700000.0 11309700000.0 11309700000.0 11309700000.0 11309700000.0 11309700000.0 11309700000.0 11309700000.0 11309700000.0 11309700000.0 11309700000.0 11309700000.0 11309700000.0 11309700000.0 11309700000.0 11309700000.0 11309700000.0 11309700000.0 11309700000.0 11309700000.0 11309700000.0 11309700000.0 11309700000.0 11309700000.0 11309700000.0 11309700000.0 11309700000.0 11309700000.0 11309700000.0 11309700000.0 11309700000.0 11309700000.0 11309700000.0 11309700000.0 11309700000.0 11309700000.0 11309700000.0 11309700000.0 11309700000.0 11309700000.0 11309700000.0 11309700000.0 11309700000.0 11309700000.0 11309700000.0 11309700000.0 11309700000.0 11309700000.0 11309700000.0 11309700000.0 11309700000.0 11309700000.0 11309700000.0 11309700000.0 11309700000.0 11309700000.0 11309700000.0 11309700000.0 11309700000.0 11309700000.0 11309700000.0 11309700000.0 11309700000.0 11309700000.0 11309700000.0 11309700000.0 11309700000.0 11309700000.0 11309700000.0 11309700000.0 11309700000.0 11309700000.0 11309700000.0 11309700000.0 11309700000.0 11309700000.0 11309700000.0 11309700000.0 11309700000.0 11309700000.0 11309700000.0 11309700000.0 11309700000.0 11309700000.0 11309700000.0 11309700000.0 11309700000.0 11309700000.0 11309700000.0 11309700000.0 11309700000.0 11309700000.0 11309700000.0 11309700000.0 11309700000.0 11309700000.0 11309700000.0 11309700000.0 11309700000.0 11309700000.0 11309700000.0 11309700000.0 11309700000.0 11309700000.0 11309700000.0 11309700000.0 11309700000.0 11309700000.0 11309700000.0 11309700000.0 11309700000.0 11309700000.0 11309700000.0 11309700000.0 11309700000.0 11309700000.0 11309700000.0 11309700000.0 11309700000.0 11309700000.0 11309700000.0 11309700000.0 11309700000.0 11309700000.0 11309700000.0 11309700000.0 11309700000.0 11309700000.0 11309700000.0 11309700000.0 11309700000.0 11309700000.0 11309700000.0 11309700000.0 11309700000.0 11309700000.0 11309700000.0 11309700000.0 11309700000.0 11309700000.0 11309700000.0 11309700000.0 11309700000.0 11309700000.0 11309700000.0 11309700000.0 11309700000.0 11309700000.0 11309700000.0 11309700000.0 11309700000.0 11309700000.0 11309700000.0 11309700000.0 11309700000.0 11309700000.0 11309700000.0 11309700000.0 11309700000.0 11309700000.0 11309700000.0 11309700000.0 11309700000.0 11309700000.0 11309700000.0 11309700000.0 11309700000.0 11309700000.0 11309700000.0 11309700000.0 11309700000.0 11309700000.0 11309700000.0 11309700000.0 11309700000.0 11309700000.0 11309700000.0 11309700000.0 11309700000.0 11309700000.0 11309700000.0 11309700000.0 11309700000.0 11309700000.0 11309700000.0 11309700000.0 11309700000.0 11309700000.0 11309700000.0 11309700000.0 11309700000.0 11309700000.0 11309700000.0 11309700000.0 11309700000.0 11309700000.0 11309700000.0 11309700000.0 11309700000.0 11309700000.0 11309700000.0 11309700000.0 11309700000.0 11309700000.0 11309700000.0 11309700000.0 11309700000.0 11309700000.0 11309700000.0 11309700000.0 11309700000.0 11309700000.0 11309700000.0 11309700000.0 11309700000.0 11309700000.0 11309700000.0 11309700000.0 11309700000.0 11309700000.0 11309700000.0 11309700000.0 11309700000.0 11309700000.0 11309700000.0 11309700000.0 11309700000.0 11309700000.0 11309700000.0 11309700000.0 11309700000.0 11309700000.0 11309700000.0 11309700000.0 11309700000.0 11309700000.0 11309700000.0 11309700000.0 11309700000.0 11309700000.0 11309700000.0 11309700000.0 11309700000.0 11309700000.0 11309700000.0 11309700000.0 11309700000.0 11309700000.0 11309700000.0 11309700000.0 11309700000.0 11309700000.0 11309700000.0 11309700000.0 11309700000.0 11309700000.0 11309700000.0 11309700000.0 11309700000.0 11309700000.0 11309700000.0 11309700000.0 11309700000.0 11309700000.0 11309700000.0 11309700000.0 11309700000.0 11309700000.0 11309700000.0 11309700000.0 11309700000.0 11309700000.0 11309700000.0 11309700000.0 11309700000.0 11309700000.0 11309700000.0 11309700000.0 11309700000.0 11309700000.0 11309700000.0 11309700000.0 11309700000.0 11309700000.0 11309700000.0 11309700000.0 11309700000.0 11309700000.0 11309700000.0 11309700000.0 11309700000.0 11309700000.0 11309700000.0 11309700000.0 11309700000.0 11309700000.0 11309700000.0 11309700000.0 11309700000.0 11309700000.0 11309700000.0 11309700000.0 11309700000.0 11309700000.0 11309700000.0 11309700000.0 11309700000.0 11309700000.0 11309700000.0 11309700000.0 11309700000.0 11309700000.0 11309700000.0 11309700000.0 11309700000.0 11309700000.0 11309700000.0 11309700000.0 11309700000.0 11309700000.0 11309700000.0 11309700000.0 11309700000.0 11309700000.0 11309700000.0 11309700000.0 11309700000.0 11309700000.0 11309700000.0 11309700000.0 11309700000.0 11309700000.0 11309700000.0 11309700000.0 11309700000.0 11309700000.0 11309700000.0 11309700000.0 11309700000.0 11309700000.0 11309700000.0 11309700000.0 11309700000.0 11309700000.0 11309700000.0 11309700000.0 11309700000.0 11309700000.0 11309700000.0 11309700000.0 11309700000.0 11309700000.0 11309700000.0 11309700000.0 11309700000.0 11309700000.0 11309700000.0 11309700000.0 11309700000.0 11309700000.0 11309700000.0 11309700000.0 11309700000.0 11309700000.0 11309700000.0 11309700000.0 11309700000.0 11309700000.0 11309700000.0 11309700000.0 11309700000.0 11309700000.0 11309700000.0 11309700000.0 11309700000.0 11309700000.0 11309700000.0 11309700000.0 11309700000.0 11309700000.0 11309700000.0 11309700000.0 11309700000.0 11309700000.0 11309700000.0 11309700000.0 11309700000.0 11309700000.0 11309700000.0 11309700000.0 11309700000.0 11309700000.0 11309700000.0 11309700000.0 11309700000.0 11309700000.0 11309700000.0 11309700000.0 11309700000.0 11309700000.0 11309700000.0 11309700000.0 11309700000.0 11309700000.0 11309700000.0 11309700000.0 11309700000.0 11309700000.0 11309700000.0 11309700000.0 11309700000.0 11309700000.0 11309700000.0 11309700000.0 11309700000.0 11309700000.0 11309700000.0 11309700000.0 11309700000.0 11309700000.0 11309700000.0 11309700000.0 11309700000.0 11309700000.0 11309700000.0 11309700000.0 11309700000.0 11309700000.0 11309700000.0 11309700000.0 11309700000.0 11309700000.0 11309700000.0 11309700000.0 11309700000.0 11309700000.0 11309700000.0 11309700000.0 11309700000.0 11309700000.0 11309700000.0 11309700000.0 11309700000.0 11309700000.0 11309700000.0 11309700000.0 11309700000.0 11309700000.0 11309700000.0 11309700000.0 11309700000.0 11309700000.0 11309700000.0 11309700000.0 11309700000.0 11309700000.0 11309700000.0 11309700000.0 11309700000.0 11309700000.0 11309700000.0 11309700000.0 11309700000.0 11309700000.0 11309700000.0 11309700000.0 11309700000.0 11309700000.0 11309700000.0 11309700000.0 11309700000.0 11309700000.0 11309700000.0 11309700000.0 11309700000.0 11309700000.0 11309700000.0 11309700000.0 11309700000.0 11309700000.0 11309700000.0 11309700000.0 11309700000.0 11309700000.0 11309700000.0 11309700000.0 11309700000.0 11309700000.0 11309700000.0 11309700000.0 11309700000.0 11309700000.0 11309700000.0 11309700000.0 11309700000.0 11309700000.0 11309700000.0 11309700000.0 11309700000.0 11309700000.0 11309700000.0 11309700000.0 11309700000.0 11309700000.0 11309700000.0 11309700000.0 11309700000.0 11309700000.0 11309700000.0 11309700000.0 11309700000.0 11309700000.0 11309700000.0 11309700000.0 11309700000.0 11309700000.0 11309700000.0 11309700000.0 11309700000.0 11309700000.0 11309700000.0 11309700000.0 11309700000.0 11309700000.0 11309700000.0 11309700000.0 11309700000.0 11309700000.0 11309700000.0 11309700000.0 11309700000.0 11309700000.0 11309700000.0 11309700000.0 11309700000.0 11309700000.0 11309700000.0 11309700000.0 11309700000.0 11309700000.0 11309700000.0 11309700000.0 11309700000.0 11309700000.0 11309700000.0 11309700000.0 11309700000.0 11309700000.0 11309700000.0 11309700000.0 11309700000.0 11309700000.0 11309700000.0 11309700000.0 11309700000.0 11309700000.0 11309700000.0 11309700000.0 11309700000.0 11309700000.0 11309700000.0 11309700000.0 11309700000.0 11309700000.0 11309700000.0 11309700000.0 11309700000.0 11309700000.0 11309700000.0 11309700000.0 11309700000.0 11309700000.0 11309700000.0 11309700000.0 11309700000.0 11309700000.0 11309700000.0 11309700000.0 11309700000.0 11309700000.0 11309700000.0 11309700000.0 11309700000.0 11309700000.0 11309700000.0 11309700000.0 11309700000.0 11309700000.0 11309700000.0 11309700000.0 11309700000.0 11309700000.0 11309700000.0 11309700000.0 11309700000.0 11309700000.0 11309700000.0 11309700000.0 11309700000.0 11309700000.0 11309700000.0 11309700000.0 11309700000.0 11309700000.0 11309700000.0 11309700000.0 11309700000.0 11309700000.0 11309700000.0 11309700000.0 11309700000.0 11309700000.0 11309700000.0 11309700000.0 11309700000.0 11309700000.0 11309700000.0 11309700000.0 11309700000.0 11309700000.0 11309700000.0 11309700000.0 11309700000.0 11309700000.0 11309700000.0 11309700000.0 11309700000.0 11309700000.0 11309700000.0 11309700000.0 11309700000.0 11309700000.0 11309700000.0 11309700000.0 11309700000.0 11309700000.0 11309700000.0 11309700000.0 11309700000.0 11309700000.0 11309700000.0 11309700000.0 11309700000.0 11309700000.0 11309700000.0 11309700000.0 11309700000.0 11309700000.0 11309700000.0 11309700000.0 11309700000.0 11309700000.0 11309700000.0 11309700000.0 11309700000.0 11309700000.0 11309700000.0 11309700000.0 11309700000.0 11309700000.0 11309700000.0 11309700000.0 11309700000.0 11309700000.0 11309700000.0 11309700000.0 11309700000.0 11309700000.0 11309700000.0 11309700000.0 11309700000.0 11309700000.0 11309700000.0 11309700000.0 11309700000.0 11309700000.0 11309700000.0 11309700000.0 11309700000.0 11309700000.0 11309700000.0 11309700000.0 11309700000.0 11309700000.0 11309700000.0 11309700000.0 11309700000.0 11309700000.0 11309700000.0 11309700000.0 11309700000.0 11309700000.0 11309700000.0 11309700000.0 11309700000.0 11309700000.0 11309700000.0 11309700000.0 11309700000.0 11309700000.0 11309700000.0 11309700000.0 11309700000.0 11309700000.0 11309700000.0 11309700000.0 11309700000.0 11309700000.0 11309700000.0 11309700000.0 11309700000.0 11309700000.0 11309700000.0 11309700000.0 11309700000.0 11309700000.0 11309700000.0 11309700000.0 11309700000.0 11309700000.0 11309700000.0 11309700000.0 11309700000.0 11309700000.0 11309700000.0 11309700000.0 11309700000.0 11309700000.0 11309700000.0 11309700000.0 11309700000.0 11309700000.0 11309700000.0 11309700000.0 11309700000.0 11309700000.0 11309700000.0 11309700000.0 11309700000.0 11309700000.0 11309700000.0 11309700000.0 11309700000.0 11309700000.0 11309700000.0 11309700000.0 11309700000.0 11309700000.0 11309700000.0 11309700000.0 11309700000.0 11309700000.0 11309700000.0 11309700000.0 11309700000.0 11309700000.0 11309700000.0 11309700000.0 11309700000.0 11309700000.0 11309700000.0 11309700000.0 11309700000.0 11309700000.0 11309700000.0 11309700000.0 11309700000.0 11309700000.0 11309700000.0 11309700000.0 11309700000.0 11309700000.0 11309700000.0 11309700000.0 11309700000.0 11309700000.0 11309700000.0 11309700000.0 11309700000.0 11309700000.0 11309700000.0 11309700000.0 11309700000.0 11309700000.0 11309700000.0 11309700000.0 11309700000.0 11309700000.0 11309700000.0 11309700000.0 11309700000.0 11309700000.0 11309700000.0 11309700000.0 11309700000.0 11309700000.0 11309700000.0 11309700000.0 11309700000.0 11309700000.0 11309700000.0 11309700000.0 11309700000.0 11309700000.0 11309700000.0 11309700000.0 11309700000.0 11309700000.0 11309700000.0 11309700000.0 11309700000.0 11309700000.0 11309700000.0 11309700000.0 11309700000.0 11309700000.0 11309700000.0 11309700000.0 11309700000.0 11309700000.0 11309700000.0 11309700000.0 11309700000.0 11309700000.0 11309700000.0 11309700000.0 11309700000.0 11309700000.0 11309700000.0 11309700000.0 11309700000.0 11309700000.0 11309700000.0 11309700000.0 11309700000.0 11309700000.0 11309700000.0 11309700000.0 11309700000.0 11309700000.0 11309700000.0 11309700000.0 11309700000.0 11309700000.0 11309700000.0 11309700000.0 11309700000.0 11309700000.0 11309700000.0 11309700000.0 11309700000.0 11309700000.0 11309700000.0 11309700000.0 11309700000.0 11309700000.0 11309700000.0 11309700000.0 11309700000.0 11309700000.0 11309700000.0 11309700000.0 11309700000.0 11309700000.0 11309700000.0 11309700000.0 11309700000.0 11309700000.0 11309700000.0 11309700000.0 11309700000.0 11309700000.0 11309700000.0 11309700000.0 11309700000.0 11309700000.0 11309700000.0 11309700000.0 11309700000.0 11309700000.0 11309700000.0 11309700000.0 11309700000.0 11309700000.0 11309700000.0 11309700000.0 11309700000.0 11309700000.0 11309700000.0 11309700000.0 11309700000.0 11309700000.0 11309700000.0 11309700000.0 11309700000.0 11309700000.0 11309700000.0 11309700000.0 11309700000.0 11309700000.0 11309700000.0 11309700000.0 11309700000.0 11309700000.0 11309700000.0 11309700000.0 11309700000.0 11309700000.0 11309700000.0 11309700000.0 11309700000.0 11309700000.0 11309700000.0 11309700000.0 11309700000.0 11309700000.0 11309700000.0 11309700000.0 11309700000.0 11309700000.0 11309700000.0 11309700000.0 11309700000.0 11309700000.0 11309700000.0 11309700000.0 11309700000.0 11309700000.0 11309700000.0 11309700000.0 11309700000.0 11309700000.0 11309700000.0 11309700000.0 11309700000.0 11309700000.0 11309700000.0 11309700000.0 11309700000.0 11309700000.0 11309700000.0 11309700000.0 11309700000.0 11309700000.0 11309700000.0 11309700000.0 11309700000.0 11309700000.0 11309700000.0 11309700000.0 11309700000.0 11309700000.0 11309700000.0 11309700000.0 11309700000.0 11309700000.0 11309700000.0 11309700000.0 11309700000.0 11309700000.0 11309700000.0 11309700000.0 11309700000.0 11309700000.0 11309700000.0 11309700000.0 11309700000.0 11309700000.0 11309700000.0 11309700000.0 11309700000.0 11309700000.0 11309700000.0 11309700000.0 11309700000.0 11309700000.0 11309700000.0 11309700000.0 11309700000.0 11309700000.0 11309700000.0 11309700000.0 11309700000.0 11309700000.0 11309700000.0 11309700000.0 11309700000.0 11309700000.0 11309700000.0 11309700000.0 11309700000.0 11309700000.0 11309700000.0 11309700000.0 11309700000.0 11309700000.0 11309700000.0 11309700000.0 11309700000.0 11309700000.0 11309700000.0 11309700000.0 11309700000.0 11309700000.0 11309700000.0 11309700000.0 11309700000.0 11309700000.0 11309700000.0 11309700000.0 11309700000.0 11309700000.0 11309700000.0 11309700000.0 11309700000.0 11309700000.0 11309700000.0 11309700000.0 11309700000.0 11309700000.0 11309700000.0 11309700000.0 11309700000.0 11309700000.0 11309700000.0 11309700000.0 11309700000.0 11309700000.0 11309700000.0 11309700000.0 11309700000.0 11309700000.0 11309700000.0 11309700000.0 11309700000.0 11309700000.0 11309700000.0 11309700000.0 11309700000.0 11309700000.0 11309700000.0 11309700000.0 11309700000.0 11309700000.0 11309700000.0 11309700000.0 11309700000.0 11309700000.0 11309700000.0 11309700000.0 11309700000.0 11309700000.0 11309700000.0 11309700000.0 11309700000.0 11309700000.0 11309700000.0 11309700000.0 11309700000.0 11309700000.0 11309700000.0 11309700000.0 11309700000.0 11309700000.0 11309700000.0 11309700000.0 11309700000.0 11309700000.0 11309700000.0 11309700000.0 11309700000.0 11309700000.0 11309700000.0 11309700000.0 11309700000.0 11309700000.0 11309700000.0 11309700000.0 11309700000.0 11309700000.0 11309700000.0 11309700000.0 11309700000.0 11309700000.0 11309700000.0 11309700000.0 11309700000.0 11309700000.0 11309700000.0 11309700000.0 11309700000.0 11309700000.0 11309700000.0 11309700000.0 11309700000.0 11309700000.0 11309700000.0 11309700000.0 11309700000.0 11309700000.0 11309700000.0 11309700000.0 11309700000.0 11309700000.0 11309700000.0 11309700000.0 11309700000.0 11309700000.0 11309700000.0 11309700000.0 11309700000.0 11309700000.0 11309700000.0 11309700000.0 11309700000.0 11309700000.0 11309700000.0 11309700000.0 11309700000.0 11309700000.0 11309700000.0 11309700000.0 11309700000.0 11309700000.0 11309700000.0 11309700000.0 11309700000.0 11309700000.0 11309700000.0 11309700000.0 11309700000.0 11309700000.0 11309700000.0 11309700000.0 11309700000.0 11309700000.0 11309700000.0 11309700000.0 11309700000.0 11309700000.0 11309700000.0 11309700000.0 11309700000.0 11309700000.0 11309700000.0 11309700000.0 11309700000.0 11309700000.0 11309700000.0 11309700000.0 11309700000.0 11309700000.0 11309700000.0 11309700000.0 11309700000.0 11309700000.0 11309700000.0 11309700000.0 11309700000.0 11309700000.0 11309700000.0 11309700000.0 11309700000.0 11309700000.0 11309700000.0 11309700000.0 11309700000.0 11309700000.0 11309700000.0 11309700000.0 11309700000.0 11309700000.0 11309700000.0 11309700000.0 11309700000.0 11309700000.0 11309700000.0 11309700000.0 11309700000.0 11309700000.0 11309700000.0 11309700000.0 11309700000.0 11309700000.0 11309700000.0 11309700000.0 11309700000.0 11309700000.0 11309700000.0 11309700000.0 11309700000.0 11309700000.0 11309700000.0 11309700000.0 11309700000.0 11309700000.0 11309700000.0 11309700000.0 11309700000.0 11309700000.0 11309700000.0 11309700000.0 11309700000.0 11309700000.0 11309700000.0 11309700000.0 11309700000.0 11309700000.0 11309700000.0 11309700000.0 11309700000.0 11309700000.0 11309700000.0 11309700000.0 11309700000.0 11309700000.0 11309700000.0 11309700000.0 11309700000.0 11309700000.0 11309700000.0 11309700000.0 11309700000.0 11309700000.0 11309700000.0 11309700000.0 11309700000.0 11309700000.0 11309700000.0 11309700000.0 11309700000.0 11309700000.0 11309700000.0 11309700000.0 11309700000.0 11309700000.0 11309700000.0 11309700000.0 11309700000.0 11309700000.0 11309700000.0 11309700000.0 11309700000.0 11309700000.0 11309700000.0 11309700000.0 11309700000.0 11309700000.0 11309700000.0 11309700000.0 11309700000.0 11309700000.0 11309700000.0 11309700000.0 11309700000.0 11309700000.0 11309700000.0 11309700000.0 11309700000.0 11309700000.0 11309700000.0 11309700000.0 11309700000.0 11309700000.0 11309700000.0 11309700000.0 11309700000.0 11309700000.0 11309700000.0 11309700000.0 11309700000.0 11309700000.0 11309700000.0 11309700000.0 11309700000.0 11309700000.0 11309700000.0 11309700000.0 11309700000.0 11309700000.0 11309700000.0 11309700000.0 11309700000.0 11309700000.0 11309700000.0 11309700000.0 11309700000.0 11309700000.0 11309700000.0 11309700000.0 11309700000.0 11309700000.0 11309700000.0 11309700000.0 11309700000.0 11309700000.0 11309700000.0 11309700000.0 11309700000.0 11309700000.0 11309700000.0 11309700000.0 11309700000.0 11309700000.0 11309700000.0 11309700000.0 11309700000.0 11309700000.0 11309700000.0 11309700000.0 11309700000.0 11309700000.0 11309700000.0 11309700000.0 11309700000.0 11309700000.0 11309700000.0 11309700000.0 11309700000.0 11309700000.0 11309700000.0 11309700000.0 11309700000.0 11309700000.0 11309700000.0 11309700000.0 11309700000.0 11309700000.0 11309700000.0 11309700000.0 11309700000.0 11309700000.0 11309700000.0 11309700000.0 11309700000.0 11309700000.0 11309700000.0 11309700000.0 11309700000.0 11309700000.0 11309700000.0 11309700000.0 11309700000.0 11309700000.0 11309700000.0 11309700000.0 11309700000.0 11309700000.0 11309700000.0 11309700000.0 11309700000.0 11309700000.0 11309700000.0 11309700000.0 11309700000.0 11309700000.0 11309700000.0 11309700000.0 11309700000.0 11309700000.0 11309700000.0 11309700000.0 11309700000.0 11309700000.0 11309700000.0 11309700000.0 11309700000.0 11309700000.0 11309700000.0 11309700000.0 11309700000.0 11309700000.0 11309700000.0 11309700000.0 11309700000.0 11309700000.0 11309700000.0 11309700000.0 11309700000.0 11309700000.0 11309700000.0 11309700000.0 11309700000.0 11309700000.0 11309700000.0 11309700000.0 11309700000.0 11309700000.0 11309700000.0 11309700000.0 11309700000.0 11309700000.0 11309700000.0 11309700000.0 11309700000.0 11309700000.0 11309700000.0 11309700000.0 11309700000.0 11309700000.0 11309700000.0 11309700000.0 11309700000.0 11309700000.0 11309700000.0 11309700000.0 11309700000.0 11309700000.0 11309700000.0 11309700000.0 11309700000.0 11309700000.0 11309700000.0 11309700000.0 11309700000.0 11309700000.0 11309700000.0 11309700000.0 11309700000.0 11309700000.0 11309700000.0 11309700000.0 11309700000.0 11309700000.0 11309700000.0 11309700000.0 11309700000.0 11309700000.0 11309700000.0 11309700000.0 11309700000.0 11309700000.0 11309700000.0 11309700000.0 11309700000.0 11309700000.0 11309700000.0 11309700000.0 11309700000.0 11309700000.0 11309700000.0 11309700000.0 11309700000.0 11309700000.0 11309700000.0 11309700000.0 11309700000.0 11309700000.0 11309700000.0 11309700000.0 11309700000.0 11309700000.0 11309700000.0 11309700000.0 11309700000.0 11309700000.0 11309700000.0 11309700000.0 11309700000.0 11309700000.0 11309700000.0 11309700000.0 11309700000.0 11309700000.0 11309700000.0 11309700000.0 11309700000.0 11309700000.0 11309700000.0 11309700000.0 11309700000.0 11309700000.0 11309700000.0 11309700000.0 11309700000.0 11309700000.0 11309700000.0 11309700000.0 11309700000.0 11309700000.0 11309700000.0 11309700000.0 11309700000.0 11309700000.0 11309700000.0 11309700000.0 11309700000.0 11309700000.0 11309700000.0 11309700000.0 11309700000.0 11309700000.0 11309700000.0 
SCALARS Velocity float 1
LOOKUP_TABLE default
0.875446 1.41431 1.23665 1.207 1.10422 1.10422 1.207 1.23665 1.41431 0.875446 0.786971 0.842369 0.813986 1.42991 1.22217 1.03108 1.03025 1.14769 0.829084 0.957292 0.888625 0.894126 0.893837 0.894011 0.893933 0.893882 0.893846 0.893837 0.893837 0.893835 0.893863 0.893824 0.893858 0.893866 0.893841 0.893866 0.893858 0.893824 0.893863 0.893835 0.893837 0.893837 0.893846 0.893882 0.893933 0.894011 0.893837 0.894126 0.888625 0.957292 0.829084 1.14769 1.03025 1.03108 1.22217 1.42991 0.813986 0.842369 0.786971 0.761176 0.777754 1.37592 1.17167 0.984188 0.963871 0.991262 0.669865 1.12778 0.825133 0.959854 0.890766 0.894823 0.894155 0.893976 0.893907 0.893864 0.893849 0.893836 0.893851 0.893812 0.893859 0.893816 0.893855 0.893865 0.893841 0.893865 0.893855 0.893816 0.893859 0.893812 0.893851 0.893836 0.893849 0.893864 0.893907 0.893976 0.894155 0.894823 0.890766 0.959854 0.825133 1.12778 0.669865 0.991262 0.963871 0.984188 1.17167 1.37592 0.777754 0.761176 0.757071 0.737067 0.675352 1.13657 0.901744 0.901744 1.13657 0.675352 0.737067 0.757071 0.743939 0.777852 0.749453 0.686745 0.706527 0.646352 1.18404 1.15876 1.17174 0.795841 0.833049 0.734983 1.12752 0.825284 0.963295 0.88759 0.894281 0.893821 0.893851 0.893836 0.893846 0.893837 0.893834 0.893832 0.893867 0.893837 0.893851 0.893826 0.893868 0.893838 0.893868 0.893826 0.893851 0.893837 0.893867 0.893832 0.893834 0.893837 0.893846 0.893836 0.893851 0.893821 0.894281 0.88759 0.963295 0.825284 1.12752 0.734983 0.833049 0.795841 1.17174 1.15876 1.18404 0.646352 0.706527 0.686745 0.749453 0.777852 0.743939 0.713284 0.731149 0.761806 0.702117 0.676119 1.20543 1.11098 1.09317 0.822265 0.68685 0.743264 1.09635 0.781596 0.977147 0.882056 0.904459 0.893132 0.893748 0.894332 0.894613 0.894556 0.894418 0.894197 0.894209 0.893878 0.894087 0.893841 0.893866 0.893818 0.893866 0.893841 0.894087 0.893878 0.894209 0.894197 0.894418 0.894556 0.894613 0.894332 0.893748 0.893132 0.904459 0.882056 0.977147 0.781596 1.09635 0.743264 0.68685 0.822265 1.09317 1.11098 1.20543 0.676119 0.702117 0.761806 0.731149 0.713284 0.743902 0.696895 0.802315 0.602439 0.555162 1.17225 0.958581 0.870618 0.870618 0.958581 1.17225 0.555162 0.602439 0.802315 0.696895 0.743902 0.78029 0.707997 0.701558 0.752763 0.750452 0.726278 0.719228 0.396602 0.996493 0.828794 0.774139 0.819227 0.930285 1.06133 0.736189 0.987002 0.874173 0.903264 0.893044 0.89447 0.894262 0.894187 0.894117 0.894065 0.894016 0.893994 0.89388 0.893988 0.893827 0.893863 0.893822 0.893863 0.893827 0.893988 0.89388 0.893994 0.894016 0.894065 0.894117 0.894187 0.894262 0.89447 0.893044 0.903264 0.874173 0.987002 0.736189 1.06133 0.930285 0.819227 0.774139 0.828794 0.996493 0.396602 0.719228 0.726278 0.750452 0.752763 0.701558 0.707997 0.78029 0.0202609 0.985083 0.75704 0.749049 0.762238 0.616904 0.668411 0.401806 0.419666 1.05505 0.914116 0.88136 0.820909 0.874922 0.958298 1.05473 0.567294 1.00103 0.858986 0.904462 0.891752 0.894391 0.89387 0.893946 0.893903 0.893892 0.893883 0.893871 0.893841 0.893875 0.893792 0.893894 0.893821 0.893894 0.893792 0.893875 0.893841 0.893871 0.893883 0.893892 0.893903 0.893946 0.89387 0.894391 0.891752 0.904462 0.858986 1.00103 0.567294 1.05473 0.958298 0.874922 0.820909 0.88136 0.914116 1.05505 0.419666 0.401806 0.668411 0.616904 0.762238 0.749049 0.75704 0.985083 0.0202609 0.0026593 0.0493914 0.893149 0.761904 0.686503 0.0960793 0.575348 0.918241 0.870467 0.840802 0.840802 0.870467 0.918241 0.575348 0.0960792 0.686503 0.761904 0.893149 0.0493914 0.0026593 0.0112504 0.0247001 0.0126149 0.88476 0.848464 0.836586 0.76483 0.825489 0.825312 0.696343 0.447062 0.921954 0.829986 0.899859 0.909779 0.981235 1.05276 0.455932 1.01256 0.849349 0.906232 0.891171 0.89457 0.893776 0.893886 0.893855 0.893855 0.893853 0.893853 0.89385 0.893866 0.893781 0.893888 0.89382 0.893888 0.893781 0.893866 0.89385 0.893853 0.893853 0.893855 0.893855 0.893886 0.893776 0.89457 0.891171 0.906232 0.849349 1.01256 0.455932 1.05276 0.981235 0.909779 0.899859 0.829986 0.921954 0.447062 0.696343 0.825312 0.825489 0.76483 0.836586 0.848464 0.88476 0.0126149 0.0247001 0.0112504 0.0766573 0.0243041 0.0541229 0.813214 0.819434 0.801553 0.874614 0.398434 0.239897 0.480151 0.879157 0.845199 0.896707 0.93571 0.948955 0.431011 1.02323 0.834258 0.907916 0.88964 0.894658 0.893784 0.893921 0.893904 0.893901 0.893891 0.893878 0.893872 0.893869 0.893863 0.893866 0.893821 0.893866 0.893863 0.893869 0.893872 0.893878 0.893891 0.893901 0.893904 0.893921 0.893784 0.894658 0.88964 0.907916 0.834258 1.02323 0.431011 0.948955 0.93571 0.896707 0.845199 0.879157 0.480151 0.239897 0.398434 0.874614 0.801553 0.819434 0.813214 0.0541229 0.0243041 0.0766573 0.161942 0.0150255 0.0229303 0.0667914 0.777855 0.82679 0.898416 0.818126 0.187507 0.605998 0.845404 0.833815 0.905187 0.86835 0.912721 0.925816 0.925816 0.912721 0.86835 0.905187 0.833815 0.845404 0.605998 0.187507 0.818126 0.898416 0.82679 0.777855 0.0667914 0.0229303 0.0150255 0.161942 0.0936212 0.108839 0.0868788 0.0530306 0.0188221 0.0899822 0.770872 0.758437 0.781415 0.795587 0.762892 0.416039 0.734662 0.868868 0.882063 0.91374 0.890442 0.945712 0.9884 0.517263 1.03288 0.833195 0.91012 0.888742 0.895709 0.894589 0.894699 0.894579 0.894468 0.894329 0.894188 0.894072 0.893976 0.893906 0.893868 0.893851 0.893868 0.893906 0.893976 0.894072 0.894188 0.894329 0.894468 0.894579 0.894699 0.894589 0.895709 0.888742 0.91012 0.833195 1.03288 0.517263 0.9884 0.945712 0.890442 0.91374 0.882063 0.868868 0.734662 0.416039 0.762892 0.795587 0.781415 0.758437 0.770872 0.0899822 0.0188221 0.0530306 0.0868788 0.108839 0.0936212 0.508693 0.21253 0.0869684 0.133907 0.0748034 0.163911 0.748242 0.77509 0.695373 0.709958 0.272301 0.470755 0.463908 0.773731 0.82937 0.566005 1.18063 0.826093 0.902097 0.896352 0.896291 0.895823 0.895582 0.895381 0.895082 0.894763 0.894482 0.894251 0.894074 0.893943 0.89386 0.893835 0.89386 0.893943 0.894074 0.894251 0.894482 0.894763 0.895082 0.895381 0.895582 0.895823 0.896291 0.896352 0.902097 0.826093 1.18063 0.566005 0.82937 0.773731 0.463908 0.470755 0.272301 0.709958 0.695373 0.77509 0.748242 0.163911 0.0748034 0.133907 0.0869684 0.21253 0.508693 1.18658 0.117624 0.145437 0.16783 0.267913 0.742681 0.758376 0.477913 0.49999 0.536395 0.742473 0.727906 0.886671 0.914254 0.923744 0.862119 0.862119 0.923744 0.914254 0.886671 0.727906 0.742473 0.536395 0.49999 0.477913 0.758376 0.742681 0.267913 0.16783 0.145437 0.117624 1.18658 0.722937 0.987663 0.88773 0.22836 0.203966 0.34329 0.722016 0.732109 0.763154 0.712971 0.668438 0.758271 0.540044 0.604291 0.728734 0.879049 0.915663 0.81186 0.893915 0.824893 0.825145 0.653139 1.23242 0.795568 0.983783 0.875424 0.902016 0.898112 0.897755 0.896852 0.896202 0.895644 0.895146 0.894716 0.894373 0.89409 0.893985 0.893828 0.893985 0.89409 0.894373 0.894716 0.895146 0.895644 0.896202 0.896852 0.897755 0.898112 0.902016 0.875424 0.983783 0.795568 1.23242 0.653139 0.825145 0.824893 0.893915 0.81186 0.915663 0.879049 0.728734 0.604291 0.540044 0.758271 0.668438 0.712971 0.763154 0.732109 0.722016 0.34329 0.203966 0.22836 0.88773 0.987663 0.722937 0.858388 0.864999 0.292983 0.360055 0.595189 0.613379 0.789199 0.720295 0.695445 0.709214 0.733709 0.497475 0.497475 0.733709 0.709214 0.695445 0.720295 0.789199 0.613379 0.595189 0.360055 0.292983 0.864999 0.858388 0.774746 0.859655 0.423652 0.723079 0.706853 0.695563 0.696839 0.717421 0.537958 0.633806 0.720911 0.867767 0.92275 0.797349 0.890534 0.797418 0.896166 0.702522 0.991476 0.813053 0.914442 0.90716 0.899648 0.898296 0.897341 0.896519 0.895753 0.89515 0.894712 0.894377 0.894123 0.893952 0.893861 0.893836 0.893861 0.893952 0.894123 0.894377 0.894712 0.89515 0.895753 0.896519 0.897341 0.898296 0.899648 0.90716 0.914442 0.813053 0.991476 0.702522 0.896166 0.797418 0.890534 0.797349 0.92275 0.867767 0.720911 0.633806 0.537958 0.717421 0.696839 0.695563 0.706853 0.723079 0.423652 0.859655 0.774746 0.664415 0.758215 0.820814 0.604701 0.70832 0.666865 0.563392 0.618407 0.700103 0.840935 0.891834 0.763117 0.859003 0.740212 0.868804 0.750541 0.915341 0.835277 0.893072 0.8876 0.893925 0.893886 0.893866 0.893851 0.893843 0.89384 0.89384 0.89384 0.89384 0.89384 0.893842 0.893836 0.893842 0.89384 0.89384 0.89384 0.89384 0.89384 0.893843 0.893851 0.893866 0.893886 0.893925 0.8876 0.893072 0.835277 0.915341 0.750541 0.868804 0.740212 0.859003 0.763117 0.891834 0.840935 0.700103 0.618407 0.563392 0.666865 0.70832 0.604701 0.820814 0.758215 0.664415 0.581421 0.791383 0.799209 0.77181 0.534048 0.66011 0.726417 0.72469 0.692713 0.673454 0.673454 0.692713 0.72469 0.726417 0.66011 0.534048 0.77181 0.799209 0.791383 0.581421 0.831073 0.708122 0.653838 0.811294 0.810538 0.692493 0.618761 0.694863 0.744466 0.702874 0.651327 0.653153 0.570093 0.602013 0.691859 0.849818 0.819982 0.755029 0.927797 0.797202 0.896093 0.787522 0.893836 0.834185 0.893832 0.893832 0.893832 0.893832 0.893832 0.893832 0.893832 0.893832 0.893832 0.893832 0.893832 0.893832 0.893832 0.893834 0.893832 0.893832 0.893832 0.893832 0.893832 0.893832 0.893832 0.893832 0.893832 0.893832 0.893832 0.893832 0.893832 0.834185 0.893836 0.787522 0.896093 0.797202 0.927797 0.755029 0.819982 0.849818 0.691859 0.602013 0.570093 0.653153 0.651327 0.702874 0.744466 0.694863 0.618761 0.692493 0.810538 0.811294 0.653838 0.708122 0.831073 0.950687 0.778137 0.725866 0.739213 0.761791 0.665899 0.64886 0.634477 0.74271 0.617286 0.846873 0.737144 0.796219 0.864522 0.786572 0.999597 0.835624 0.952738 0.819422 0.90252 0.894144 0.894496 0.894414 0.894406 0.894414 0.894377 0.894308 0.894229 0.89415 0.89407 0.893996 0.893931 0.89388 0.893848 0.893834 0.893848 0.89388 0.893931 0.893996 0.89407 0.89415 0.894229 0.894308 0.894377 0.894414 0.894406 0.894414 0.894496 0.894144 0.90252 0.819422 0.952738 0.835624 0.999597 0.786572 0.864522 0.796219 0.737144 0.846873 0.617286 0.74271 0.634477 0.64886 0.665899 0.761791 0.739213 0.725866 0.778137 0.950687 0.663056 0.724443 0.740337 0.740337 0.724443 0.663056 0.882208 0.721179 0.721506 0.735248 0.73573 0.787559 0.66344 0.713019 0.716234 0.68581 0.63955 0.742641 0.666022 0.893057 0.921926 0.850056 0.908156 0.838326 0.902266 0.855146 0.893912 0.850266 0.893832 0.893832 0.893832 0.893832 0.893832 0.893832 0.893832 0.893832 0.893832 0.893832 0.893832 0.893832 0.893832 0.893832 0.893832 0.893832 0.893832 0.893832 0.893832 0.893832 0.893832 0.893832 0.893832 0.893832 0.893832 0.893832 0.893832 0.893832 0.893832 0.893832 0.893832 0.850266 0.893912 0.855146 0.902266 0.838326 0.908156 0.850056 0.921926 0.893057 0.666022 0.742641 0.63955 0.68581 0.716234 0.713019 0.66344 0.787559 0.73573 0.735248 0.721506 0.721179 0.882208 0.851702 0.815932 0.749201 0.725173 0.755126 0.793456 0.694007 0.685781 0.73241 0.814554 0.726336 0.760513 0.762499 0.875829 0.981581 0.88661 0.955478 0.873923 0.929473 0.868686 0.908744 0.855531 0.895581 0.895054 0.894795 0.89458 0.894403 0.894262 0.89415 0.894062 0.893994 0.893942 0.893903 0.893875 0.893856 0.893842 0.893835 0.893832 0.893835 0.893842 0.893856 0.893875 0.893903 0.893942 0.893994 0.894062 0.89415 0.894262 0.894403 0.89458 0.894795 0.895054 0.895581 0.855531 0.908744 0.868686 0.929473 0.873923 0.955478 0.88661 0.981581 0.875829 0.762499 0.760513 0.726336 0.814554 0.73241 0.685781 0.694007 0.793456 0.755126 0.725173 0.749201 0.815932 0.851702 0.848865 0.911602 0.838155 0.805452 0.825906 0.862705 0.848637 0.848841 0.895691 0.935886 0.86426 0.871156 0.824478 0.89505 0.896521 0.898832 0.895918 0.880592 0.895046 0.868993 0.894142 0.892558 0.893832 0.893832 0.893832 0.893832 0.893832 0.893832 0.893832 0.893832 0.893832 0.893832 0.893832 0.893832 0.893832 0.893832 0.893832 0.893832 0.893832 0.893832 0.893832 0.893832 0.893832 0.893832 0.893832 0.893832 0.893832 0.893832 0.893832 0.893832 0.893832 0.893832 0.893832 0.892558 0.894142 0.868993 0.895046 0.880592 0.895918 0.898832 0.896521 0.89505 0.824478 0.871156 0.86426 0.935886 0.895691 0.848841 0.848637 0.862705 0.825906 0.805452 0.838155 0.911602 0.848865 0.850898 0.904678 0.890808 0.834511 0.847974 0.885277 0.867584 0.878536 0.92537 0.938552 0.884324 0.877965 0.848346 0.896529 0.898367 0.898385 0.897222 0.881224 0.895703 0.868036 0.894389 0.893878 0.89387 0.89386 0.893853 0.893847 0.893842 0.893839 0.893837 0.893835 0.893834 0.893834 0.893833 0.893833 0.893832 0.893832 0.893832 0.893832 0.893832 0.893832 0.893832 0.893833 0.893833 0.893834 0.893834 0.893835 0.893837 0.893839 0.893842 0.893847 0.893853 0.89386 0.89387 0.893878 0.894389 0.868036 0.895703 0.881224 0.897222 0.898385 0.898367 0.896529 0.848346 0.877965 0.884324 0.938552 0.92537 0.878536 0.867584 0.885277 0.847974 0.834511 0.890808 0.904678 0.850898 0.880072 0.899194 0.905343 0.846083 0.845373 0.888562 0.869634 0.889776 0.918879 0.920788 0.881655 0.87856 0.858866 0.896061 0.893962 0.895897 0.893896 0.881596 0.893839 0.86852 0.893832 0.893832 0.893832 0.893832 0.893832 0.893832 0.893832 0.893832 0.893832 0.893832 0.893832 0.893832 0.893832 0.893832 0.893832 0.893832 0.893832 0.893832 0.893832 0.893832 0.893832 0.893832 0.893832 0.893832 0.893832 0.893832 0.893832 0.893832 0.893832 0.893832 0.893832 0.893832 0.893832 0.893832 0.893832 0.86852 0.893839 0.881596 0.893896 0.895897 0.893962 0.896061 0.858866 0.87856 0.881655 0.920788 0.918879 0.889776 0.869634 0.888562 0.845373 0.846083 0.905343 0.899194 0.880072 0.898079 0.894968 0.905387 0.856034 0.848962 0.888533 0.871804 0.895271 0.908399 0.905184 0.879218 0.878803 0.875439 0.895354 0.893998 0.89331 0.89391 0.88216 0.893832 0.870335 0.893832 0.893832 0.893832 0.893832 0.893832 0.893832 0.893832 0.893832 0.893832 0.893832 0.893832 0.893832 0.893832 0.893832 0.893832 0.893832 0.893832 0.893832 0.893832 0.893832 0.893832 0.893832 0.893832 0.893832 0.893832 0.893832 0.893832 0.893832 0.893832 0.893832 0.893832 0.893832 0.893832 0.893832 0.893832 0.870335 0.893832 0.88216 0.89391 0.89331 0.893998 0.895354 0.875439 0.878803 0.879218 0.905184 0.908399 0.895271 0.871804 0.888533 0.848962 0.856034 0.905387 0.894968 0.898079 0.902054 0.89211 0.904241 0.865909 0.855492 0.888821 0.875331 0.89657 0.89905 0.893655 0.878243 0.880095 0.891397 0.894645 0.893832 0.891145 0.893832 0.882663 0.893832 0.873029 0.893832 0.893832 0.893832 0.893832 0.893832 0.893832 0.893832 0.893832 0.893832 0.893832 0.893832 0.893832 0.893832 0.893832 0.893832 0.893832 0.893832 0.893832 0.893832 0.893832 0.893832 0.893832 0.893832 0.893832 0.893832 0.893832 0.893832 0.893832 0.893832 0.893832 0.893832 0.893832 0.893832 0.893832 0.893832 0.873029 0.893832 0.882663 0.893832 0.891145 0.893832 0.894645 0.891397 0.880095 0.878243 0.893655 0.89905 0.89657 0.875331 0.888821 0.855492 0.865909 0.904241 0.89211 0.902054 0.874868 0.862586 0.891504 0.88539 0.877691 0.881678 0.893741 0.893948 0.893832 0.889571 0.893832 0.883128 0.893832 0.876151 0.893832 0.893832 0.893832 0.893832 0.893832 0.893832 0.893832 0.893832 0.893832 0.893832 0.893832 0.893832 0.893832 0.893832 0.893832 0.893832 0.893832 0.893832 0.893832 0.893832 0.893832 0.893832 0.893832 0.893832 0.893832 0.893832 0.893832 0.893832 0.893832 0.893832 0.893832 0.893832 0.893832 0.893832 0.893832 0.876151 0.893832 0.883128 0.893832 0.889571 0.893832 0.893948 0.893741 0.881678 0.877691 0.88539 0.891504 0.862586 0.874868 0.901608 0.890309 0.902795 0.88947 0.879919 0.895933 0.895933 0.879919 0.88947 0.902795 0.890309 0.901608 0.900462 0.889256 0.90129 0.882171 0.86908 0.889757 0.884037 0.894374 0.885745 0.879799 0.877222 0.88316 0.893831 0.893283 0.893832 0.888565 0.893832 0.883616 0.893832 0.87935 0.893832 0.893832 0.893832 0.893832 0.893832 0.893832 0.893832 0.893832 0.893832 0.893832 0.893832 0.893832 0.893832 0.893832 0.893832 0.893832 0.893832 0.893832 0.893832 0.893832 0.893832 0.893832 0.893832 0.893832 0.893832 0.893832 0.893832 0.893832 0.893832 0.893832 0.893832 0.893832 0.893832 0.893832 0.893832 0.87935 0.893832 0.883616 0.893832 0.888565 0.893832 0.893283 0.893831 0.88316 0.877222 0.879799 0.885745 0.894374 0.884037 0.889757 0.86908 0.882171 0.90129 0.889256 0.900462 0.893833 0.893832 0.893832 0.88419 0.893832 0.882385 0.893832 0.893832 0.893832 0.893832 0.893832 0.893832 0.893832 0.893832 0.893832 0.893832 0.893832 0.893832 0.893832 0.893832 0.893832 0.893832 0.893832 0.893832 0.893832 0.893832 0.893832 0.893832 0.893832 0.893832 0.893832 0.893832 0.893832 0.893832 0.893832 0.893832 0.893832 0.893832 0.893832 0.893832 0.893832 0.882385 0.893832 0.88419 0.893832 0.893832 0.893833 0.899275 0.888614 0.899835 0.886882 0.875017 0.889766 0.88692 0.892497 0.881686 0.876464 0.876969 0.884344 0.892673 0.888006 0.888006 0.892673 0.884344 0.876969 0.876464 0.881686 0.892497 0.88692 0.889766 0.875017 0.886882 0.899835 0.888614 0.899275 0.898134 0.888107 0.898465 0.889352 0.880246 0.889818 0.888761 0.890745 0.87909 0.874842 0.877032 0.885172 0.893833 0.892133 0.893832 0.887763 0.893832 0.88486 0.893832 0.885099 0.893832 0.893832 0.893832 0.893832 0.893832 0.893832 0.893832 0.893832 0.893832 0.893832 0.893832 0.893832 0.893832 0.893832 0.893832 0.893832 0.893832 0.893832 0.893832 0.893832 0.893832 0.893832 0.893832 0.893832 0.893832 0.893832 0.893832 0.893832 0.893832 0.893832 0.893832 0.893832 0.893832 0.893832 0.893832 0.885099 0.893832 0.88486 0.893832 0.887763 0.893832 0.892133 0.893833 0.885172 0.877032 0.874842 0.87909 0.890745 0.888761 0.889818 0.880246 0.889352 0.898465 0.888107 0.898134 0.89706 0.887621 0.897185 0.890648 0.884552 0.890013 0.889668 0.889382 0.877631 0.874416 0.877414 0.885774 0.893833 0.891673 0.893832 0.88773 0.893832 0.885605 0.893832 0.887402 0.893832 0.893832 0.893832 0.893832 0.893832 0.893832 0.893832 0.893832 0.893832 0.893832 0.893832 0.893832 0.893832 0.893832 0.893832 0.893832 0.893832 0.893832 0.893832 0.893832 0.893832 0.893832 0.893832 0.893832 0.893832 0.893832 0.893832 0.893832 0.893832 0.893832 0.893832 0.893832 0.893832 0.893832 0.893832 0.887402 0.893832 0.885605 0.893832 0.88773 0.893832 0.891673 0.893833 0.885774 0.877414 0.874416 0.877631 0.889382 0.889668 0.890013 0.884552 0.890648 0.897185 0.887621 0.89706 0.896067 0.887191 0.896002 0.8915 0.887784 0.890311 0.889659 0.888457 0.877026 0.874805 0.878104 0.886329 0.893832 0.891304 0.893832 0.887837 0.893832 0.886394 0.893832 0.889263 0.893832 0.893832 0.893832 0.893832 0.893832 0.893832 0.893832 0.893832 0.893832 0.893832 0.893832 0.893832 0.893832 0.893832 0.893832 0.893832 0.893832 0.893832 0.893832 0.893832 0.893832 0.893832 0.893832 0.893832 0.893832 0.893832 0.893832 0.893832 0.893832 0.893832 0.893832 0.893832 0.893832 0.893832 0.893832 0.889263 0.893832 0.886394 0.893832 0.887837 0.893832 0.891304 0.893832 0.886329 0.878104 0.874805 0.877026 0.888457 0.889659 0.890311 0.887784 0.8915 0.896002 0.887191 0.896067 0.895165 0.886892 0.894927 0.892171 0.889961 0.890608 0.889009 0.88788 0.877061 0.875737 0.879082 0.886923 0.893832 0.891031 0.893832 0.888047 0.893832 0.887197 0.893832 0.890698 0.893832 0.893832 0.893832 0.893832 0.893832 0.893832 0.893832 0.893832 0.893832 0.893832 0.893832 0.893832 0.893832 0.893832 0.893832 0.893832 0.893832 0.893832 0.893832 0.893832 0.893832 0.893832 0.893832 0.893832 0.893832 0.893832 0.893832 0.893832 0.893832 0.893832 0.893832 0.893832 0.893832 0.893832 0.893832 0.890698 0.893832 0.887197 0.893832 0.888047 0.893832 0.891031 0.893832 0.886923 0.879082 0.875737 0.877061 0.88788 0.889009 0.890608 0.889961 0.892171 0.894927 0.886892 0.895165 0.894361 0.886764 0.893968 0.892703 0.891307 0.890803 0.888109 0.887536 0.877569 0.877013 0.880304 0.887555 0.893832 0.890849 0.893832 0.888336 0.893832 0.887985 0.893832 0.89176 0.893832 0.893832 0.893832 0.893832 0.893832 0.893832 0.893832 0.893832 0.893832 0.893832 0.893832 0.893832 0.893832 0.893832 0.893832 0.893832 0.893832 0.893832 0.893832 0.893832 0.893832 0.893832 0.893832 0.893832 0.893832 0.893832 0.893832 0.893832 0.893832 0.893832 0.893832 0.893832 0.893832 0.893832 0.893832 0.89176 0.893832 0.887985 0.893832 0.888336 0.893832 0.890849 0.893832 0.887555 0.880304 0.877013 0.877569 0.887536 0.888109 0.890803 0.891307 0.892703 0.893968 0.886764 0.894361 0.893659 0.886804 0.893132 0.893093 0.892115 0.890862 0.887241 0.887336 0.878415 0.878481 0.88169 0.888186 0.893832 0.890748 0.893832 0.88868 0.893832 0.88874 0.893832 0.892513 0.893832 0.893832 0.893832 0.893832 0.893832 0.893832 0.893832 0.893832 0.893832 0.893832 0.893832 0.893832 0.893832 0.893832 0.893832 0.893832 0.893832 0.893832 0.893832 0.893832 0.893832 0.893832 0.893832 0.893832 0.893832 0.893832 0.893832 0.893832 0.893832 0.893832 0.893832 0.893832 0.893832 0.893832 0.893832 0.892513 0.893832 0.88874 0.893832 0.88868 0.893832 0.890748 0.893832 0.888186 0.88169 0.878481 0.878415 0.887336 0.887241 0.890862 0.892115 0.893093 0.893132 0.886804 0.893659 0.893054 0.886983 0.892417 0.893343 0.8926 0.890816 0.886533 0.887225 0.879484 0.880024 0.88315 0.888781 0.893832 0.890713 0.893832 0.889058 0.893832 0.889447 0.893832 0.893026 0.893832 0.893832 0.893832 0.893832 0.893832 0.893832 0.893832 0.893832 0.893832 0.893832 0.893832 0.893832 0.893832 0.893832 0.893832 0.893832 0.893832 0.893832 0.893832 0.893832 0.893832 0.893832 0.893832 0.893832 0.893832 0.893832 0.893832 0.893832 0.893832 0.893832 0.893832 0.893832 0.893832 0.893832 0.893832 0.893026 0.893832 0.889447 0.893832 0.889058 0.893832 0.890713 0.893832 0.888781 0.88315 0.880024 0.879484 0.887225 0.886533 0.890816 0.8926 0.893343 0.892417 0.886983 0.893054 0.892542 0.887263 0.89182 0.893465 0.89288 0.890718 0.886018 0.887175 0.880684 0.881556 0.884603 0.889321 0.893832 0.890732 0.893832 0.889452 0.893832 0.890098 0.893832 0.893362 0.893832 0.893832 0.893832 0.893832 0.893832 0.893832 0.893832 0.893832 0.893832 0.893832 0.893832 0.893832 0.893832 0.893832 0.893832 0.893832 0.893832 0.893832 0.893832 0.893832 0.893832 0.893832 0.893832 0.893832 0.893832 0.893832 0.893832 0.893832 0.893832 0.893832 0.893832 0.893832 0.893832 0.893832 0.893832 0.893362 0.893832 0.890098 0.893832 0.889452 0.893832 0.890732 0.893832 0.889321 0.884603 0.881556 0.880684 0.887175 0.886018 0.890718 0.89288 0.893465 0.89182 0.887263 0.892542 0.892117 0.88761 0.891335 0.893481 0.89302 0.89061 0.88569 0.887172 0.881942 0.883016 0.885984 0.889799 0.893832 0.890794 0.893832 0.889846 0.893832 0.89069 0.893832 0.893571 0.893832 0.893832 0.893832 0.893832 0.893832 0.893832 0.893832 0.893832 0.893832 0.893832 0.893832 0.893832 0.893832 0.893832 0.893832 0.893832 0.893832 0.893832 0.893832 0.893832 0.893832 0.893832 0.893832 0.893832 0.893832 0.893832 0.893832 0.893832 0.893832 0.893832 0.893832 0.893832 0.893832 0.893832 0.893832 0.893571 0.893832 0.89069 0.893832 0.889846 0.893832 0.890794 0.893832 0.889799 0.885984 0.883016 0.881942 0.887172 0.88569 0.89061 0.89302 0.893481 0.891335 0.88761 0.892117 0.891771 0.887995 0.890953 0.89342 0.893067 0.890516 0.885536 0.887212 0.883204 0.884366 0.887252 0.890216 0.893832 0.890889 0.893832 0.890233 0.893832 0.891219 0.893832 0.893695 0.893832 0.893832 0.893832 0.893832 0.893832 0.893832 0.893832 0.893832 0.893832 0.893832 0.893832 0.893832 0.893832 0.893832 0.893832 0.893832 0.893832 0.893832 0.893832 0.893832 0.893832 0.893832 0.893832 0.893832 0.893832 0.893832 0.893832 0.893832 0.893832 0.893832 0.893832 0.893832 0.893832 0.893832 0.893832 0.893695 0.893832 0.891219 0.893832 0.890233 0.893832 0.890889 0.893832 0.890216 0.887252 0.884366 0.883204 0.887212 0.885536 0.890516 0.893067 0.89342 0.890953 0.887995 0.891771 0.891497 0.888395 0.890664 0.893312 0.893058 0.890442 0.885539 0.887297 0.88443 0.885585 0.888384 0.890576 0.893832 0.891009 0.893832 0.890604 0.893832 0.891687 0.893832 0.893765 0.893832 0.893832 0.893832 0.893832 0.893832 0.893832 0.893832 0.893832 0.893832 0.893832 0.893832 0.893832 0.893832 0.893832 0.893832 0.893832 0.893832 0.893832 0.893832 0.893832 0.893832 0.893832 0.893832 0.893832 0.893832 0.893832 0.893832 0.893832 0.893832 0.893832 0.893832 0.893832 0.893832 0.893832 0.893832 0.893765 0.893832 0.891687 0.893832 0.890604 0.893832 0.891009 0.893832 0.890576 0.888384 0.885585 0.88443 0.887297 0.885539 0.890442 0.893058 0.893312 0.890664 0.888395 0.891497 0.891286 0.888793 0.890456 0.893182 0.89302 0.890388 0.885678 0.88743 0.885592 0.886663 0.889372 0.890886 0.893832 0.89115 0.893832 0.890956 0.893832 0.892092 0.893832 0.893802 0.893832 0.893832 0.893832 0.893832 0.893832 0.893832 0.893832 0.893832 0.893832 0.893832 0.893832 0.893832 0.893832 0.893832 0.893832 0.893832 0.893832 0.893832 0.893832 0.893832 0.893832 0.893832 0.893832 0.893832 0.893832 0.893832 0.893832 0.893832 0.893832 0.893832 0.893832 0.893832 0.893832 0.893832 0.893832 0.893802 0.893832 0.892092 0.893832 0.890956 0.893832 0.89115 0.893832 0.890886 0.889372 0.886663 0.885592 0.88743 0.885678 0.890388 0.89302 0.893182 0.890456 0.888793 0.891286 0.891131 0.889175 0.890321 0.893045 0.89297 0.890353 0.88593 0.88761 0.886673 0.887601 0.890218 0.891152 0.893832 0.891305 0.893832 0.891286 0.893832 0.892439 0.893832 0.89382 0.893832 0.893832 0.893832 0.893832 0.893832 0.893832 0.893832 0.893832 0.893832 0.893832 0.893832 0.893832 0.893832 0.893832 0.893832 0.893832 0.893832 0.893832 0.893832 0.893832 0.893832 0.893832 0.893832 0.893832 0.893832 0.893832 0.893832 0.893832 0.893832 0.893832 0.893832 0.893832 0.893832 0.893832 0.893832 0.89382 0.893832 0.892439 0.893832 0.891286 0.893832 0.891305 0.893832 0.891152 0.890218 0.887601 0.886673 0.88761 0.88593 0.890353 0.89297 0.893045 0.890321 0.889175 0.891131 0.891022 0.889534 0.890247 0.892914 0.892919 0.890335 0.886272 0.887837 0.887663 0.888405 0.89093 0.891384 0.893832 0.891471 0.893832 0.891593 0.893832 0.892731 0.893832 0.893827 0.893832 0.893832 0.893832 0.893832 0.893832 0.893832 0.893832 0.893832 0.893832 0.893832 0.893832 0.893832 0.893832 0.893832 0.893832 0.893832 0.893832 0.893832 0.893832 0.893832 0.893832 0.893832 0.893832 0.893832 0.893832 0.893832 0.893832 0.893832 0.893832 0.893832 0.893832 0.893832 0.893832 0.893832 0.893832 0.893827 0.893832 0.892731 0.893832 0.891593 0.893832 0.891471 0.893832 0.891384 0.89093 0.888405 0.887663 0.887837 0.886272 0.890335 0.892919 0.892914 0.890247 0.889534 0.891022 0.890954 0.889865 0.890225 0.892792 0.892873 0.890333 0.886681 0.888106 0.888556 0.889088 0.891522 0.891588 0.893832 0.891641 0.893832 0.891875 0.893832 0.892973 0.893832 0.893831 0.893832 0.893832 0.893832 0.893832 0.893832 0.893832 0.893832 0.893832 0.893832 0.893832 0.893832 0.893832 0.893832 0.893832 0.893832 0.893832 0.893832 0.893832 0.893832 0.893832 0.893832 0.893832 0.893832 0.893832 0.893832 0.893832 0.893832 0.893832 0.893832 0.893832 0.893832 0.893832 0.893832 0.893832 0.893832 0.893831 0.893832 0.892973 0.893832 0.891875 0.893832 0.891641 0.893832 0.891588 0.891522 0.889088 0.888556 0.888106 0.886681 0.890333 0.892873 0.892792 0.890225 0.889865 0.890954 0.890919 0.890163 0.890246 0.892685 0.892835 0.890349 0.887135 0.888409 0.889352 0.889663 0.892006 0.891769 0.893832 0.891813 0.893832 0.892133 0.893832 0.89317 0.893832 0.893832 0.893832 0.893832 0.893832 0.893832 0.893832 0.893832 0.893832 0.893832 0.893832 0.893832 0.893832 0.893832 0.893832 0.893832 0.893832 0.893832 0.893832 0.893832 0.893832 0.893832 0.893832 0.893832 0.893832 0.893832 0.893832 0.893832 0.893832 0.893832 0.893832 0.893832 0.893832 0.893832 0.893832 0.893832 0.893832 0.893832 0.893832 0.89317 0.893832 0.892133 0.893832 0.891813 0.893832 0.891769 0.892006 0.889663 0.889352 0.888409 0.887135 0.890349 0.892835 0.892685 0.890246 0.890163 0.890919 0.890911 0.890429 0.890303 0.892594 0.892806 0.890381 0.887618 0.888737 0.890054 0.890144 0.892399 0.891933 0.893832 0.891984 0.893832 0.892367 0.893832 0.893329 0.893832 0.893832 0.893832 0.893832 0.893832 0.893832 0.893832 0.893832 0.893832 0.893832 0.893832 0.893832 0.893832 0.893832 0.893832 0.893832 0.893832 0.893832 0.893832 0.893832 0.893832 0.893832 0.893832 0.893832 0.893832 0.893832 0.893832 0.893832 0.893832 0.893832 0.893832 0.893832 0.893832 0.893832 0.893832 0.893832 0.893832 0.893832 0.893832 0.893329 0.893832 0.892367 0.893832 0.891984 0.893832 0.891933 0.892399 0.890144 0.890054 0.888737 0.887618 0.890381 0.892806 0.892594 0.890303 0.890429 0.890911 0.890926 0.890662 0.890389 0.892518 0.892787 0.890431 0.888115 0.88908 0.890665 0.890546 0.892713 0.892083 0.893832 0.892152 0.893832 0.892577 0.893832 0.893454 0.893832 0.893832 0.893832 0.893832 0.893832 0.893832 0.893832 0.893832 0.893832 0.893832 0.893832 0.893832 0.893832 0.893832 0.893832 0.893832 0.893832 0.893832 0.893832 0.893832 0.893832 0.893832 0.893832 0.893832 0.893832 0.893832 0.893832 0.893832 0.893832 0.893832 0.893832 0.893832 0.893832 0.893832 0.893832 0.893832 0.893832 0.893832 0.893832 0.893454 0.893832 0.892577 0.893832 0.892152 0.893832 0.892083 0.892713 0.890546 0.890665 0.88908 0.888115 0.890431 0.892787 0.892518 0.890389 0.890662 0.890926 0.890959 0.890865 0.890497 0.892459 0.892778 0.890496 0.888612 0.889427 0.891193 0.890883 0.892963 0.892221 0.893832 0.892313 0.893832 0.892765 0.893832 0.893552 0.893832 0.893832 0.893832 0.893832 0.893832 0.893832 0.893832 0.893832 0.893832 0.893832 0.893832 0.893832 0.893832 0.893832 0.893832 0.893832 0.893832 0.893832 0.893832 0.893832 0.893832 0.893832 0.893832 0.893832 0.893832 0.893832 0.893832 0.893832 0.893832 0.893832 0.893832 0.893832 0.893832 0.893832 0.893832 0.893832 0.893832 0.893832 0.893832 0.893552 0.893832 0.892765 0.893832 0.892313 0.893832 0.892221 0.892963 0.890883 0.891193 0.889427 0.888612 0.890496 0.892778 0.892459 0.890497 0.890865 0.890959 0.891005 0.891041 0.890621 0.892413 0.892776 0.890576 0.889101 0.889771 0.891644 0.891167 0.89316 0.892349 0.893832 0.892467 0.893832 0.89293 0.893832 0.893627 0.893832 0.893832 0.893832 0.893832 0.893832 0.893832 0.893832 0.893832 0.893832 0.893832 0.893832 0.893832 0.893832 0.893832 0.893832 0.893832 0.893832 0.893832 0.893832 0.893832 0.893832 0.893832 0.893832 0.893832 0.893832 0.893832 0.893832 0.893832 0.893832 0.893832 0.893832 0.893832 0.893832 0.893832 0.893832 0.893832 0.893832 0.893832 0.893832 0.893627 0.893832 0.89293 0.893832 0.892467 0.893832 0.892349 0.89316 0.891167 0.891644 0.889771 0.889101 0.890576 0.892776 0.892413 0.890621 0.891041 0.891005 0.891062 0.891191 0.890756 0.892382 0.892782 0.890668 0.889573 0.890104 0.892027 0.891409 0.893314 0.892469 0.893832 0.892613 0.893832 0.893076 0.893832 0.893684 0.893832 0.893832 0.893832 0.893832 0.893832 0.893832 0.893832 0.893832 0.893832 0.893832 0.893832 0.893832 0.893832 0.893832 0.893832 0.893832 0.893832 0.893832 0.893832 0.893832 0.893832 0.893832 0.893832 0.893832 0.893832 0.893832 0.893832 0.893832 0.893832 0.893832 0.893832 0.893832 0.893832 0.893832 0.893832 0.893832 0.893832 0.893832 0.893832 0.893684 0.893832 0.893076 0.893832 0.892613 0.893832 0.892469 0.893314 0.891409 0.892027 0.890104 0.889573 0.890668 0.892782 0.892382 0.890756 0.891191 0.891062 0.891125 0.89132 0.890898 0.892363 0.892794 0.890772 0.890023 0.890421 0.892349 0.891617 0.893434 0.892582 0.893832 0.892749 0.893832 0.893202 0.893832 0.893726 0.893832 0.893832 0.893832 0.893832 0.893832 0.893832 0.893832 0.893832 0.893832 0.893832 0.893832 0.893832 0.893832 0.893832 0.893832 0.893832 0.893832 0.893832 0.893832 0.893832 0.893832 0.893832 0.893832 0.893832 0.893832 0.893832 0.893832 0.893832 0.893832 0.893832 0.893832 0.893832 0.893832 0.893832 0.893832 0.893832 0.893832 0.893832 0.893832 0.893726 0.893832 0.893202 0.893832 0.892749 0.893832 0.892582 0.893434 0.891617 0.892349 0.890421 0.890023 0.890772 0.892794 0.892363 0.890898 0.89132 0.891125 0.891194 0.89143 0.891042 0.892354 0.89281 0.890885 0.890444 0.890718 0.892618 0.891798 0.893527 0.892687 0.893832 0.892876 0.893832 0.893311 0.893832 0.893758 0.893832 0.893832 0.893832 0.893832 0.893832 0.893832 0.893832 0.893832 0.893832 0.893832 0.893832 0.893832 0.893832 0.893832 0.893832 0.893832 0.893832 0.893832 0.893832 0.893832 0.893832 0.893832 0.893832 0.893832 0.893832 0.893832 0.893832 0.893832 0.893832 0.893832 0.893832 0.893832 0.893832 0.893832 0.893832 0.893832 0.893832 0.893832 0.893832 0.893758 0.893832 0.893311 0.893832 0.892876 0.893832 0.892687 0.893527 0.891798 0.892618 0.890718 0.890444 0.890885 0.89281 0.892354 0.891042 0.89143 0.891194 0.891265 0.891525 0.891186 0.892355 0.892831 0.891003 0.890835 0.890992 0.892841 0.891958 0.893598 0.892786 0.893832 0.892992 0.893832 0.893404 0.893832 0.89378 0.893832 0.893832 0.893832 0.893832 0.893832 0.893832 0.893832 0.893832 0.893832 0.893832 0.893832 0.893832 0.893832 0.893832 0.893832 0.893832 0.893832 0.893832 0.893832 0.893832 0.893832 0.893832 0.893832 0.893832 0.893832 0.893832 0.893832 0.893832 0.893832 0.893832 0.893832 0.893832 0.893832 0.893832 0.893832 0.893832 0.893832 0.893832 0.893832 0.89378 0.893832 0.893404 0.893832 0.892992 0.893832 0.892786 0.893598 0.891958 0.892841 0.890992 0.890835 0.891003 0.892831 0.892355 0.891186 0.891525 0.891265 0.891336 0.891607 0.891326 0.892362 0.892855 0.891125 0.891194 0.891242 0.893025 0.892101 0.893653 0.892879 0.893832 0.893097 0.893832 0.893483 0.893832 0.893797 0.893832 0.893832 0.893832 0.893832 0.893832 0.893832 0.893832 0.893832 0.893832 0.893832 0.893832 0.893832 0.893832 0.893832 0.893832 0.893832 0.893832 0.893832 0.893832 0.893832 0.893832 0.893832 0.893832 0.893832 0.893832 0.893832 0.893832 0.893832 0.893832 0.893832 0.893832 0.893832 0.893832 0.893832 0.893832 0.893832 0.893832 0.893832 0.893832 0.893797 0.893832 0.893483 0.893832 0.893097 0.893832 0.892879 0.893653 0.892101 0.893025 0.891242 0.891194 0.891125 0.892855 0.892362 0.891326 0.891607 0.891336 0.891407 0.891678 0.89146 0.892376 0.89288 0.891247 0.891519 0.891468 0.893176 0.89223 0.893695 0.892966 0.893832 0.893193 0.893832 0.89355 0.893832 0.893808 0.893832 0.893832 0.893832 0.893832 0.893832 0.893832 0.893832 0.893832 0.893832 0.893832 0.893832 0.893832 0.893832 0.893832 0.893832 0.893832 0.893832 0.893832 0.893832 0.893832 0.893832 0.893832 0.893832 0.893832 0.893832 0.893832 0.893832 0.893832 0.893832 0.893832 0.893832 0.893832 0.893832 0.893832 0.893832 0.893832 0.893832 0.893832 0.893832 0.893808 0.893832 0.89355 0.893832 0.893193 0.893832 0.892966 0.893695 0.89223 0.893176 0.891468 0.891519 0.891247 0.89288 0.892376 0.89146 0.891678 0.891407 0.891475 0.891739 0.891586 0.892394 0.892908 0.891369 0.89181 0.891669 0.893299 0.892346 0.893727 0.893046 0.893832 0.893278 0.893832 0.893605 0.893832 0.893816 0.893832 0.893832 0.893832 0.893832 0.893832 0.893832 0.893832 0.893832 0.893832 0.893832 0.893832 0.893832 0.893832 0.893832 0.893832 0.893832 0.893832 0.893832 0.893832 0.893832 0.893832 0.893832 0.893832 0.893832 0.893832 0.893832 0.893832 0.893832 0.893832 0.893832 0.893832 0.893832 0.893832 0.893832 0.893832 0.893832 0.893832 0.893832 0.893832 0.893816 0.893832 0.893605 0.893832 0.893278 0.893832 0.893046 0.893727 0.892346 0.893299 0.891669 0.89181 0.891369 0.892908 0.892394 0.891586 0.891739 0.891475 0.89154 0.891794 0.891703 0.892415 0.892935 0.891486 0.892068 0.891848 0.893399 0.892451 0.893751 0.893119 0.893832 0.893354 0.893832 0.893651 0.893832 0.893822 0.893832 0.893832 0.893832 0.893832 0.893832 0.893832 0.893832 0.893832 0.893832 0.893832 0.893832 0.893832 0.893832 0.893832 0.893832 0.893832 0.893832 0.893832 0.893832 0.893832 0.893832 0.893832 0.893832 0.893832 0.893832 0.893832 0.893832 0.893832 0.893832 0.893832 0.893832 0.893832 0.893832 0.893832 0.893832 0.893832 0.893832 0.893832 0.893832 0.893822 0.893832 0.893651 0.893832 0.893354 0.893832 0.893119 0.893751 0.892451 0.893399 0.891848 0.892068 0.891486 0.892935 0.892415 0.891703 0.891794 0.89154 0.8916 0.891841 0.891809 0.892438 0.892962 0.891597 0.892293 0.892004 0.893479 0.892546 0.893769 0.893186 0.893832 0.89342 0.893832 0.893688 0.893832 0.893825 0.893832 0.893832 0.893832 0.893832 0.893832 0.893832 0.893832 0.893832 0.893832 0.893832 0.893832 0.893832 0.893832 0.893832 0.893832 0.893832 0.893832 0.893832 0.893832 0.893832 0.893832 0.893832 0.893832 0.893832 0.893832 0.893832 0.893832 0.893832 0.893832 0.893832 0.893832 0.893832 0.893832 0.893832 0.893832 0.893832 0.893832 0.893832 0.893832 0.893825 0.893832 0.893688 0.893832 0.89342 0.893832 0.893186 0.893769 0.892546 0.893479 0.892004 0.892293 0.891597 0.892962 0.892438 0.891809 0.891841 0.8916 0.891655 0.891882 0.891905 0.892461 0.892988 0.8917 0.892488 0.892139 0.893544 0.89263 0.893782 0.893246 0.893832 0.893478 0.893832 0.893718 0.893832 0.893828 0.893832 0.893832 0.893832 0.893832 0.893832 0.893832 0.893832 0.893832 0.893832 0.893832 0.893832 0.893832 0.893832 0.893832 0.893832 0.893832 0.893832 0.893832 0.893832 0.893832 0.893832 0.893832 0.893832 0.893832 0.893832 0.893832 0.893832 0.893832 0.893832 0.893832 0.893832 0.893832 0.893832 0.893832 0.893832 0.893832 0.893832 0.893832 0.893832 0.893828 0.893832 0.893718 0.893832 0.893478 0.893832 0.893246 0.893782 0.89263 0.893544 0.892139 0.892488 0.8917 0.892988 0.892461 0.891905 0.891882 0.891655 0.891705 0.891919 0.891989 0.892484 0.893013 0.891794 0.892654 0.892254 0.893595 0.892705 0.893792 0.893298 0.893832 0.893527 0.893832 0.893742 0.893832 0.893829 0.893832 0.893832 0.893832 0.893832 0.893832 0.893832 0.893832 0.893832 0.893832 0.893832 0.893832 0.893832 0.893832 0.893832 0.893832 0.893832 0.893832 0.893832 0.893832 0.893832 0.893832 0.893832 0.893832 0.893832 0.893832 0.893832 0.893832 0.893832 0.893832 0.893832 0.893832 0.893832 0.893832 0.893832 0.893832 0.893832 0.893832 0.893832 0.893832 0.893829 0.893832 0.893742 0.893832 0.893527 0.893832 0.893298 0.893792 0.892705 0.893595 0.892254 0.892654 0.891794 0.893013 0.892484 0.891989 0.891919 0.891705 0.891748 0.891949 0.892062 0.892505 0.893035 0.891877 0.892793 0.892351 0.893635 0.892769 0.893799 0.893344 0.893832 0.893568 0.893832 0.893761 0.893832 0.89383 0.893832 0.893832 0.893832 0.893832 0.893832 0.893832 0.893832 0.893832 0.893832 0.893832 0.893832 0.893832 0.893832 0.893832 0.893832 0.893832 0.893832 0.893832 0.893832 0.893832 0.893832 0.893832 0.893832 0.893832 0.893832 0.893832 0.893832 0.893832 0.893832 0.893832 0.893832 0.893832 0.893832 0.893832 0.893832 0.893832 0.893832 0.893832 0.893832 0.89383 0.893832 0.893761 0.893832 0.893568 0.893832 0.893344 0.893799 0.892769 0.893635 0.892351 0.892793 0.891877 0.893035 0.892505 0.892062 0.891949 0.891748 0.891784 0.891975 0.892122 0.892524 0.893054 0.891948 0.892905 0.89243 0.893666 0.892823 0.893805 0.893382 0.893832 0.893601 0.893832 0.893776 0.893832 0.893831 0.893832 0.893832 0.893832 0.893832 0.893832 0.893832 0.893832 0.893832 0.893832 0.893832 0.893832 0.893832 0.893832 0.893832 0.893832 0.893832 0.893832 0.893832 0.893832 0.893832 0.893832 0.893832 0.893832 0.893832 0.893832 0.893832 0.893832 0.893832 0.893832 0.893832 0.893832 0.893832 0.893832 0.893832 0.893832 0.893832 0.893832 0.893832 0.893832 0.893831 0.893832 0.893776 0.893832 0.893601 0.893832 0.893382 0.893805 0.892823 0.893666 0.89243 0.892905 0.891948 0.893054 0.892524 0.892122 0.891975 0.891784 0.891814 0.891996 0.892171 0.89254 0.89307 0.892006 0.892994 0.892492 0.893689 0.892866 0.893808 0.893412 0.893832 0.893627 0.893832 0.893787 0.893832 0.893832 0.893832 0.893832 0.893832 0.893832 0.893832 0.893832 0.893832 0.893832 0.893832 0.893832 0.893832 0.893832 0.893832 0.893832 0.893832 0.893832 0.893832 0.893832 0.893832 0.893832 0.893832 0.893832 0.893832 0.893832 0.893832 0.893832 0.893832 0.893832 0.893832 0.893832 0.893832 0.893832 0.893832 0.893832 0.893832 0.893832 0.893832 0.893832 0.893832 0.893832 0.893832 0.893787 0.893832 0.893627 0.893832 0.893412 0.893808 0.892866 0.893689 0.892492 0.892994 0.892006 0.89307 0.89254 0.892171 0.891996 0.891814 0.891836 0.892011 0.892207 0.892553 0.893082 0.89205 0.893059 0.892538 0.893705 0.892899 0.893811 0.893435 0.893832 0.893647 0.893832 0.893795 0.893832 0.893832 0.893832 0.893832 0.893832 0.893832 0.893832 0.893832 0.893832 0.893832 0.893832 0.893832 0.893832 0.893832 0.893832 0.893832 0.893832 0.893832 0.893832 0.893832 0.893832 0.893832 0.893832 0.893832 0.893832 0.893832 0.893832 0.893832 0.893832 0.893832 0.893832 0.893832 0.893832 0.893832 0.893832 0.893832 0.893832 0.893832 0.893832 0.893832 0.893832 0.893832 0.893832 0.893795 0.893832 0.893647 0.893832 0.893435 0.893811 0.892899 0.893705 0.892538 0.893059 0.89205 0.893082 0.892553 0.892207 0.892011 0.891836 0.891851 0.892022 0.892231 0.892561 0.89309 0.892079 0.893101 0.892568 0.893716 0.892921 0.893812 0.89345 0.893832 0.893659 0.893832 0.8938 0.893832 0.893832 0.893832 0.893832 0.893832 0.893832 0.893832 0.893832 0.893832 0.893832 0.893832 0.893832 0.893832 0.893832 0.893832 0.893832 0.893832 0.893832 0.893832 0.893832 0.893832 0.893832 0.893832 0.893832 0.893832 0.893832 0.893832 0.893832 0.893832 0.893832 0.893832 0.893832 0.893832 0.893832 0.893832 0.893832 0.893832 0.893832 0.893832 0.893832 0.893832 0.893832 0.893832 0.8938 0.893832 0.893659 0.893832 0.89345 0.893812 0.892921 0.893716 0.892568 0.893101 0.892079 0.89309 0.892561 0.892231 0.892022 0.891851 0.891858 0.892027 0.892243 0.892565 0.893095 0.892094 0.893123 0.892583 0.893721 0.892932 0.893813 0.893458 0.893832 0.893666 0.893832 0.893802 0.893832 0.893832 0.893832 0.893832 0.893832 0.893832 0.893832 0.893832 0.893832 0.893832 0.893832 0.893832 0.893832 0.893832 0.893832 0.893832 0.893832 0.893832 0.893832 0.893832 0.893832 0.893832 0.893832 0.893832 0.893832 0.893832 0.893832 0.893832 0.893832 0.893832 0.893832 0.893832 0.893832 0.893832 0.893832 0.893832 0.893832 0.893832 0.893832 0.893832 0.893832 0.893832 0.893832 0.893802 0.893832 0.893666 0.893832 0.893458 0.893813 0.892932 0.893721 0.892583 0.893123 0.892094 0.893095 0.892565 0.892243 0.892027 0.891858 
SCALARS Axial_Stress float 1
LOOKUP_TABLE default
-700267000000.0 -464118000000.0 -151461000000.0 -231452000000.0 -100034000000.0 -100034000000.0 -231452000000.0 -151461000000.0 -464118000000.0 -700267000000.0 -1.35348e+12 -1.22567e+12 -2.30038e+12 -825712000000.0 -392858000000.0 -349275000000.0 -314327000000.0 -245788000000.0 -200944000000.0 -184808000000.0 -156913000000.0 -141791000000.0 -134887000000.0 -135988000000.0 -140107000000.0 -144098000000.0 -146960000000.0 -148648000000.0 -149407000000.0 -149549000000.0 -149357000000.0 -149021000000.0 -148688000000.0 -148453000000.0 -148358000000.0 -148453000000.0 -148688000000.0 -149021000000.0 -149357000000.0 -149549000000.0 -149407000000.0 -148648000000.0 -146960000000.0 -144098000000.0 -140107000000.0 -135988000000.0 -134887000000.0 -141791000000.0 -156913000000.0 -184808000000.0 -200944000000.0 -245788000000.0 -314327000000.0 -349275000000.0 -392858000000.0 -825712000000.0 -2.30038e+12 -1.22567e+12 -1.35348e+12 -1.36279e+12 -2.56725e+12 -1.20289e+12 -676846000000.0 -512252000000.0 -595602000000.0 -475278000000.0 -101608000000.0 -141025000000.0 -92577200000.0 -126418000000.0 -107062000000.0 -121330000000.0 -131992000000.0 -139335000000.0 -144299000000.0 -147667000000.0 -149971000000.0 -151443000000.0 -152144000000.0 -152210000000.0 -151951000000.0 -151595000000.0 -151221000000.0 -150918000000.0 -150762000000.0 -150918000000.0 -151221000000.0 -151595000000.0 -151951000000.0 -152210000000.0 -152144000000.0 -151443000000.0 -149971000000.0 -147667000000.0 -144299000000.0 -139335000000.0 -131992000000.0 -121330000000.0 -107062000000.0 -126418000000.0 -92577200000.0 -141025000000.0 -101608000000.0 -475278000000.0 -595602000000.0 -512252000000.0 -676846000000.0 -1.20289e+12 -2.56725e+12 -1.36279e+12 -1.3531e+12 -2.50426e+12 -2.65152e+12 -1.06548e+12 -688344000000.0 -688344000000.0 -1.06548e+12 -2.65152e+12 -2.50426e+12 -1.3531e+12 -1.33393e+12 -2.24565e+12 -2.35476e+12 -2.33284e+12 -2.50389e+12 -2.40096e+12 -1.22198e+12 -1.04847e+12 -921828000000.0 -414030000000.0 -183192000000.0 -206765000000.0 -270069000000.0 -132303000000.0 -182473000000.0 -123414000000.0 -127040000000.0 -129824000000.0 -131374000000.0 -132253000000.0 -132808000000.0 -132401000000.0 -131285000000.0 -130624000000.0 -130982000000.0 -132058000000.0 -133337000000.0 -134412000000.0 -135118000000.0 -135306000000.0 -135118000000.0 -134412000000.0 -133337000000.0 -132058000000.0 -130982000000.0 -130624000000.0 -131285000000.0 -132401000000.0 -132808000000.0 -132253000000.0 -131374000000.0 -129824000000.0 -127040000000.0 -123414000000.0 -182473000000.0 -132303000000.0 -270069000000.0 -206765000000.0 -183192000000.0 -414030000000.0 -921828000000.0 -1.04847e+12 -1.22198e+12 -2.40096e+12 -2.50389e+12 -2.33284e+12 -2.35476e+12 -2.24565e+12 -1.33393e+12 -1.28774e+12 -1.30878e+12 -2.1383e+12 -2.07534e+12 -2.25778e+12 -1.0169e+12 -941200000000.0 -776942000000.0 -518109000000.0 -284049000000.0 -254409000000.0 -295306000000.0 -170567000000.0 -247711000000.0 -158307000000.0 -158850000000.0 -151680000000.0 -146807000000.0 -147725000000.0 -154669000000.0 -164350000000.0 -174092000000.0 -182729000000.0 -189988000000.0 -195869000000.0 -200436000000.0 -203698000000.0 -205671000000.0 -206294000000.0 -205671000000.0 -203698000000.0 -200436000000.0 -195869000000.0 -189988000000.0 -182729000000.0 -174092000000.0 -164350000000.0 -154669000000.0 -147725000000.0 -146807000000.0 -151680000000.0 -158850000000.0 -158307000000.0 -247711000000.0 -170567000000.0 -295306000000.0 -254409000000.0 -284049000000.0 -518109000000.0 -776942000000.0 -941200000000.0 -1.0169e+12 -2.25778e+12 -2.07534e+12 -2.1383e+12 -1.30878e+12 -1.28774e+12 -1.26838e+12 -2.05019e+12 -1.94799e+12 -2.13661e+12 -2.07758e+12 -978140000000.0 -773870000000.0 -314474000000.0 -314474000000.0 -773870000000.0 -978140000000.0 -2.07758e+12 -2.13661e+12 -1.94799e+12 -2.05019e+12 -1.26838e+12 -1.19001e+12 -1.91623e+12 -1.83156e+12 -1.91273e+12 -1.72882e+12 -1.59076e+12 -2.06285e+12 -1.71568e+12 -915389000000.0 -537122000000.0 -488153000000.0 -382878000000.0 -447807000000.0 -239135000000.0 -164095000000.0 -272877000000.0 -177798000000.0 -191597000000.0 -194060000000.0 -202009000000.0 -209894000000.0 -217467000000.0 -224330000000.0 -230281000000.0 -235571000000.0 -240246000000.0 -244054000000.0 -246880000000.0 -248925000000.0 -250181000000.0 -250618000000.0 -250181000000.0 -248925000000.0 -246880000000.0 -244054000000.0 -240246000000.0 -235571000000.0 -230281000000.0 -224330000000.0 -217467000000.0 -209894000000.0 -202009000000.0 -194060000000.0 -191597000000.0 -177798000000.0 -272877000000.0 -164095000000.0 -239135000000.0 -447807000000.0 -382878000000.0 -488153000000.0 -537122000000.0 -915389000000.0 -1.71568e+12 -2.06285e+12 -1.59076e+12 -1.72882e+12 -1.91273e+12 -1.83156e+12 -1.91623e+12 -1.19001e+12 -1.52161e+12 -1.75011e+12 -1.67346e+12 -1.61457e+12 -1.75507e+12 -1.4364e+12 -2.27404e+12 -1.74225e+12 -1.19945e+12 -937401000000.0 -910445000000.0 -823074000000.0 -622589000000.0 -543134000000.0 -441127000000.0 -296701000000.0 -232914000000.0 -339249000000.0 -230287000000.0 -239053000000.0 -233128000000.0 -235175000000.0 -238312000000.0 -241907000000.0 -245275000000.0 -247991000000.0 -250274000000.0 -252270000000.0 -253812000000.0 -254819000000.0 -255521000000.0 -255933000000.0 -256099000000.0 -255933000000.0 -255521000000.0 -254819000000.0 -253812000000.0 -252270000000.0 -250274000000.0 -247991000000.0 -245275000000.0 -241907000000.0 -238312000000.0 -235175000000.0 -233128000000.0 -239053000000.0 -230287000000.0 -339249000000.0 -232914000000.0 -296701000000.0 -441127000000.0 -543134000000.0 -622589000000.0 -823074000000.0 -910445000000.0 -937401000000.0 -1.19945e+12 -1.74225e+12 -2.27404e+12 -1.4364e+12 -1.75507e+12 -1.61457e+12 -1.67346e+12 -1.75011e+12 -1.52161e+12 -1.55909e+12 -2.60548e+12 -1.84775e+12 -1.64881e+12 -1.65805e+12 -2.40353e+12 -1.80138e+12 -957723000000.0 -871916000000.0 -631655000000.0 -631655000000.0 -871916000000.0 -957723000000.0 -1.80138e+12 -2.40353e+12 -1.65805e+12 -1.64881e+12 -1.84775e+12 -2.60548e+12 -1.55909e+12 -1.21706e+12 -1.38873e+12 -2.55845e+12 -1.61006e+12 -1.73292e+12 -1.55674e+12 -1.80825e+12 -2.14038e+12 -1.00406e+12 -2.78902e+12 -310840000000.0 -922205000000.0 -804405000000.0 -643028000000.0 -583943000000.0 -498184000000.0 -302148000000.0 -230344000000.0 -331871000000.0 -238696000000.0 -254445000000.0 -253258000000.0 -257818000000.0 -261461000000.0 -264059000000.0 -265732000000.0 -266565000000.0 -266650000000.0 -266447000000.0 -266237000000.0 -265924000000.0 -265480000000.0 -265062000000.0 -264909000000.0 -265062000000.0 -265480000000.0 -265924000000.0 -266237000000.0 -266447000000.0 -266650000000.0 -266565000000.0 -265732000000.0 -264059000000.0 -261461000000.0 -257818000000.0 -253258000000.0 -254445000000.0 -238696000000.0 -331871000000.0 -230344000000.0 -302148000000.0 -498184000000.0 -583943000000.0 -643028000000.0 -804405000000.0 -922205000000.0 -310840000000.0 -2.78902e+12 -1.00406e+12 -2.14038e+12 -1.80825e+12 -1.55674e+12 -1.73292e+12 -1.61006e+12 -2.55845e+12 -1.38873e+12 -1.21706e+12 -1.04136e+12 -2.29139e+12 -2.5649e+12 -1.34104e+12 -1.67458e+12 -1.6078e+12 -1.32787e+12 -1.96645e+12 -3.1612e+12 -1.08699e+12 -540018000000.0 -1.00944e+12 -607532000000.0 -843533000000.0 -353763000000.0 -302138000000.0 -353345000000.0 -280975000000.0 -292965000000.0 -290711000000.0 -291611000000.0 -290945000000.0 -289387000000.0 -287290000000.0 -285124000000.0 -282965000000.0 -281010000000.0 -279479000000.0 -278186000000.0 -276951000000.0 -275986000000.0 -275624000000.0 -275986000000.0 -276951000000.0 -278186000000.0 -279479000000.0 -281010000000.0 -282965000000.0 -285124000000.0 -287290000000.0 -289387000000.0 -290945000000.0 -291611000000.0 -290711000000.0 -292965000000.0 -280975000000.0 -353345000000.0 -302138000000.0 -353763000000.0 -843533000000.0 -607532000000.0 -1.00944e+12 -540018000000.0 -1.08699e+12 -3.1612e+12 -1.96645e+12 -1.32787e+12 -1.6078e+12 -1.67458e+12 -1.34104e+12 -2.5649e+12 -2.29139e+12 -1.04136e+12 -824920000000.0 -1.95631e+12 -2.34603e+12 -2.45603e+12 -1.43821e+12 -1.54613e+12 -1.64972e+12 -1.03126e+12 -2.1512e+12 -1.52761e+12 -1.06637e+12 -675562000000.0 -310535000000.0 -599203000000.0 -782929000000.0 -559490000000.0 -559490000000.0 -782929000000.0 -599203000000.0 -310535000000.0 -675562000000.0 -1.06637e+12 -1.52761e+12 -2.1512e+12 -1.03126e+12 -1.64972e+12 -1.54613e+12 -1.43821e+12 -2.45603e+12 -2.34603e+12 -1.95631e+12 -824920000000.0 -551236000000.0 -1.08381e+12 -1.5562e+12 -1.60478e+12 -1.99854e+12 -2.07628e+12 -1.12515e+12 -1.33271e+12 -1.39876e+12 -1.17353e+12 -2.30219e+12 -913295000000.0 -790392000000.0 -629853000000.0 -806087000000.0 -872210000000.0 -531416000000.0 -567957000000.0 -438322000000.0 -463199000000.0 -385437000000.0 -347619000000.0 -341105000000.0 -332418000000.0 -324366000000.0 -314822000000.0 -304659000000.0 -294637000000.0 -285199000000.0 -276445000000.0 -268681000000.0 -262224000000.0 -257166000000.0 -253586000000.0 -251533000000.0 -250883000000.0 -251533000000.0 -253586000000.0 -257166000000.0 -262224000000.0 -268681000000.0 -276445000000.0 -285199000000.0 -294637000000.0 -304659000000.0 -314822000000.0 -324366000000.0 -332418000000.0 -341105000000.0 -347619000000.0 -385437000000.0 -463199000000.0 -438322000000.0 -567957000000.0 -531416000000.0 -872210000000.0 -806087000000.0 -629853000000.0 -790392000000.0 -913295000000.0 -2.30219e+12 -1.17353e+12 -1.39876e+12 -1.33271e+12 -1.12515e+12 -2.07628e+12 -1.99854e+12 -1.60478e+12 -1.5562e+12 -1.08381e+12 -551236000000.0 -149328000000.0 -273360000000.0 -506295000000.0 -1.17918e+12 -1.6605e+12 -2.27943e+12 -942157000000.0 -1.54888e+12 -582707000000.0 -1.9547e+12 -1.23228e+12 -1.1161e+12 -1.34195e+12 -878544000000.0 -618315000000.0 -456358000000.0 -303824000000.0 -241874000000.0 -223271000000.0 -205328000000.0 -186119000000.0 -167646000000.0 -151129000000.0 -135903000000.0 -121589000000.0 -108679000000.0 -97592000000.0 -88466500000.0 -81335200000.0 -76157200000.0 -72961500000.0 -71873500000.0 -72961500000.0 -76157200000.0 -81335200000.0 -88466500000.0 -97592000000.0 -108679000000.0 -121589000000.0 -135903000000.0 -151129000000.0 -167646000000.0 -186119000000.0 -205328000000.0 -223271000000.0 -241874000000.0 -303824000000.0 -456358000000.0 -618315000000.0 -878544000000.0 -1.34195e+12 -1.1161e+12 -1.23228e+12 -1.9547e+12 -582707000000.0 -1.54888e+12 -942157000000.0 -2.27943e+12 -1.6605e+12 -1.17918e+12 -506295000000.0 -273360000000.0 -149328000000.0 -335052000000.0 -690869000000.0 -1.2412e+12 -1.68219e+12 -2.09487e+12 -1.20376e+12 -2.04225e+12 -1.17995e+12 -1.1245e+12 -1.20675e+12 -878335000000.0 -550129000000.0 -692842000000.0 -353529000000.0 -582880000000.0 -286578000000.0 -286578000000.0 -582880000000.0 -353529000000.0 -692842000000.0 -550129000000.0 -878335000000.0 -1.20675e+12 -1.1245e+12 -1.17995e+12 -2.04225e+12 -1.20376e+12 -2.09487e+12 -1.68219e+12 -1.2412e+12 -690869000000.0 -335052000000.0 -67110100000.0 -482480000000.0 -608126000000.0 -807580000000.0 -1.24551e+12 -937746000000.0 -874234000000.0 -1.32445e+12 -1.49049e+12 -1.6571e+12 -1.48021e+12 -1.3383e+12 -986540000000.0 -1.27675e+12 -1.0624e+12 -882707000000.0 -1.10645e+12 -865301000000.0 -895617000000.0 -782487000000.0 -662739000000.0 -729081000000.0 -623927000000.0 -592804000000.0 -539819000000.0 -513559000000.0 -491636000000.0 -468458000000.0 -444857000000.0 -422953000000.0 -403801000000.0 -387131000000.0 -372802000000.0 -360875000000.0 -351429000000.0 -344563000000.0 -340384000000.0 -338976000000.0 -340384000000.0 -344563000000.0 -351429000000.0 -360875000000.0 -372802000000.0 -387131000000.0 -403801000000.0 -422953000000.0 -444857000000.0 -468458000000.0 -491636000000.0 -513559000000.0 -539819000000.0 -592804000000.0 -623927000000.0 -729081000000.0 -662739000000.0 -782487000000.0 -895617000000.0 -865301000000.0 -1.10645e+12 -882707000000.0 -1.0624e+12 -1.27675e+12 -986540000000.0 -1.3383e+12 -1.48021e+12 -1.6571e+12 -1.49049e+12 -1.32445e+12 -874234000000.0 -937746000000.0 -1.24551e+12 -807580000000.0 -608126000000.0 -482480000000.0 -67110100000.0 -275851000000.0 -638130000000.0 -935062000000.0 -925990000000.0 -1.72615e+12 -969787000000.0 -1.96799e+12 -766997000000.0 -1.25714e+12 -1.1259e+12 -1.12817e+12 -882190000000.0 -882190000000.0 -1.12817e+12 -1.1259e+12 -1.25714e+12 -766997000000.0 -1.96799e+12 -969787000000.0 -1.72615e+12 -925990000000.0 -935062000000.0 -638130000000.0 -275851000000.0 -396189000000.0 -565748000000.0 -739508000000.0 -1.43957e+12 -930027000000.0 -962450000000.0 -899896000000.0 -928983000000.0 -511559000000.0 -727284000000.0 -932004000000.0 -672807000000.0 -686169000000.0 -541222000000.0 -638285000000.0 -552388000000.0 -599354000000.0 -642784000000.0 -392555000000.0 -407932000000.0 -296249000000.0 -262333000000.0 -228376000000.0 -199974000000.0 -175212000000.0 -153334000000.0 -134111000000.0 -117856000000.0 -104511000000.0 -93727800000.0 -85335400000.0 -79366200000.0 -75838200000.0 -74680100000.0 -75838200000.0 -79366200000.0 -85335400000.0 -93727800000.0 -104511000000.0 -117856000000.0 -134111000000.0 -153334000000.0 -175212000000.0 -199974000000.0 -228376000000.0 -262333000000.0 -296249000000.0 -407932000000.0 -392555000000.0 -642784000000.0 -599354000000.0 -552388000000.0 -638285000000.0 -541222000000.0 -686169000000.0 -672807000000.0 -932004000000.0 -727284000000.0 -511559000000.0 -928983000000.0 -899896000000.0 -962450000000.0 -930027000000.0 -1.43957e+12 -739508000000.0 -565748000000.0 -396189000000.0 -95753800000.0 -429785000000.0 -451287000000.0 -1.84532e+12 -663605000000.0 -481072000000.0 -520676000000.0 -438739000000.0 -397828000000.0 -306834000000.0 -85802200000.0 -208371000000.0 -115225000000.0 -231517000000.0 -136724000000.0 -263619000000.0 -140253000000.0 -194110000000.0 -153078000000.0 -157648000000.0 -159371000000.0 -162333000000.0 -164851000000.0 -166870000000.0 -168299000000.0 -169246000000.0 -169838000000.0 -170130000000.0 -170220000000.0 -170236000000.0 -170249000000.0 -170258000000.0 -170249000000.0 -170236000000.0 -170220000000.0 -170130000000.0 -169838000000.0 -169246000000.0 -168299000000.0 -166870000000.0 -164851000000.0 -162333000000.0 -159371000000.0 -157648000000.0 -153078000000.0 -194110000000.0 -140253000000.0 -263619000000.0 -136724000000.0 -231517000000.0 -115225000000.0 -208371000000.0 -85802200000.0 -306834000000.0 -397828000000.0 -438739000000.0 -520676000000.0 -481072000000.0 -663605000000.0 -1.84532e+12 -451287000000.0 -429785000000.0 -95753800000.0 -247578000000.0 -582349000000.0 -320273000000.0 -576281000000.0 -1.25782e+12 -737099000000.0 -664048000000.0 -746023000000.0 -655024000000.0 -663677000000.0 -663677000000.0 -655024000000.0 -746023000000.0 -664048000000.0 -737099000000.0 -1.25782e+12 -576281000000.0 -320273000000.0 -582349000000.0 -247578000000.0 -68059700000.0 -331691000000.0 -564772000000.0 -42584000000.0 -437541000000.0 -474629000000.0 -752432000000.0 -589450000000.0 -480269000000.0 -446399000000.0 -419219000000.0 -526682000000.0 -342520000000.0 -106413000000.0 -218393000000.0 -38122000000.0 -151976000000.0 -125585000000.0 -39960800000.0 -119691000000.0 -16505100000.0 -100562000000.0 -10190500000.0 -28545100000.0 -9035750000.0 -9035750000.0 -9035750000.0 -9035750000.0 -9035750000.0 -9035750000.0 -9035750000.0 -9035750000.0 -9035750000.0 -9035750000.0 -9035750000.0 -9035750000.0 -9035750000.0 -9036240000.0 -9035750000.0 -9035750000.0 -9035750000.0 -9035750000.0 -9035750000.0 -9035750000.0 -9035750000.0 -9035750000.0 -9035750000.0 -9035750000.0 -9035750000.0 -9035750000.0 -9035750000.0 -28545100000.0 -10190500000.0 -100562000000.0 -16505100000.0 -119691000000.0 -39960800000.0 -125585000000.0 -151976000000.0 -38122000000.0 -218393000000.0 -106413000000.0 -342520000000.0 -526682000000.0 -419219000000.0 -446399000000.0 -480269000000.0 -589450000000.0 -752432000000.0 -474629000000.0 -437541000000.0 -42584000000.0 -564772000000.0 -331691000000.0 -68059700000.0 -60991500000.0 -364595000000.0 -428473000000.0 -544699000000.0 -285975000000.0 -399132000000.0 -344788000000.0 -334424000000.0 -360880000000.0 -350850000000.0 -225144000000.0 -288629000000.0 -215652000000.0 -234933000000.0 -270966000000.0 -214095000000.0 -299215000000.0 -224687000000.0 -272090000000.0 -219352000000.0 -209911000000.0 -200330000000.0 -190711000000.0 -181726000000.0 -173015000000.0 -164296000000.0 -155852000000.0 -148015000000.0 -140939000000.0 -134710000000.0 -129429000000.0 -125198000000.0 -122099000000.0 -120205000000.0 -119568000000.0 -120205000000.0 -122099000000.0 -125198000000.0 -129429000000.0 -134710000000.0 -140939000000.0 -148015000000.0 -155852000000.0 -164296000000.0 -173015000000.0 -181726000000.0 -190711000000.0 -200330000000.0 -209911000000.0 -219352000000.0 -272090000000.0 -224687000000.0 -299215000000.0 -214095000000.0 -270966000000.0 -234933000000.0 -215652000000.0 -288629000000.0 -225144000000.0 -350850000000.0 -360880000000.0 -334424000000.0 -344788000000.0 -399132000000.0 -285975000000.0 -544699000000.0 -428473000000.0 -364595000000.0 -60991500000.0 -477757000000.0 -447249000000.0 -284631000000.0 -284631000000.0 -447249000000.0 -477757000000.0 -21301500000.0 -264997000000.0 -60767000000.0 -283210000000.0 -310895000000.0 -253736000000.0 -273223000000.0 -349954000000.0 -285054000000.0 -154804000000.0 -268096000000.0 -211886000000.0 -249153000000.0 -9020080000.0 -16973000000.0 -18841000000.0 -19886100000.0 -82288000000.0 -18247400000.0 -104500000000.0 -10583400000.0 -42792400000.0 -9035750000.0 -9035750000.0 -9035750000.0 -9035750000.0 -9035750000.0 -9035750000.0 -9035750000.0 -9035750000.0 -9035750000.0 -9035750000.0 -9035750000.0 -9035750000.0 -9035750000.0 -9035750000.0 -9035750000.0 -9035760000.0 -9035750000.0 -9035750000.0 -9035750000.0 -9035750000.0 -9035750000.0 -9035750000.0 -9035750000.0 -9035750000.0 -9035750000.0 -9035750000.0 -9035750000.0 -9035750000.0 -9035750000.0 -9035750000.0 -9035750000.0 -42792400000.0 -10583400000.0 -104500000000.0 -18247400000.0 -82288000000.0 -19886100000.0 -18841000000.0 -16973000000.0 -9020080000.0 -249153000000.0 -211886000000.0 -268096000000.0 -154804000000.0 -285054000000.0 -349954000000.0 -273223000000.0 -253736000000.0 -310895000000.0 -283210000000.0 -60767000000.0 -264997000000.0 -21301500000.0 -99612500000.0 -114626000000.0 -125575000000.0 -232163000000.0 -266029000000.0 -152599000000.0 -205755000000.0 -187811000000.0 -220844000000.0 -231406000000.0 -386845000000.0 -417434000000.0 -461754000000.0 -338809000000.0 -302366000000.0 -277124000000.0 -234973000000.0 -270217000000.0 -195137000000.0 -257237000000.0 -164139000000.0 -157841000000.0 -129507000000.0 -114348000000.0 -101061000000.0 -89276100000.0 -78870300000.0 -69777000000.0 -61891600000.0 -55110700000.0 -49357100000.0 -44562600000.0 -40652300000.0 -37550200000.0 -35192500000.0 -33535500000.0 -32552000000.0 -32226100000.0 -32552000000.0 -33535500000.0 -35192500000.0 -37550200000.0 -40652300000.0 -44562600000.0 -49357100000.0 -55110700000.0 -61891600000.0 -69777000000.0 -78870300000.0 -89276100000.0 -101061000000.0 -114348000000.0 -129507000000.0 -157841000000.0 -164139000000.0 -257237000000.0 -195137000000.0 -270217000000.0 -234973000000.0 -277124000000.0 -302366000000.0 -338809000000.0 -461754000000.0 -417434000000.0 -386845000000.0 -231406000000.0 -220844000000.0 -187811000000.0 -205755000000.0 -152599000000.0 -266029000000.0 -232163000000.0 -125575000000.0 -114626000000.0 -99612500000.0 -85216200000.0 -121561000000.0 -142985000000.0 -259840000000.0 -258332000000.0 -176043000000.0 -221706000000.0 -145599000000.0 -118707000000.0 -108382000000.0 -152218000000.0 -97045000000.0 -79675600000.0 -28268400000.0 -11129900000.0 -43892500000.0 -11673800000.0 -74750900000.0 -11189200000.0 -86342000000.0 -9115840000.0 -11127000000.0 -9035750000.0 -9035750000.0 -9035750000.0 -9035750000.0 -9035750000.0 -9035750000.0 -9035750000.0 -9035750000.0 -9035750000.0 -9035750000.0 -9035750000.0 -9035750000.0 -9035750000.0 -9035750000.0 -9035750000.0 -9035750000.0 -9035750000.0 -9035750000.0 -9035750000.0 -9035750000.0 -9035750000.0 -9035750000.0 -9035750000.0 -9035750000.0 -9035750000.0 -9035750000.0 -9035750000.0 -9035750000.0 -9035750000.0 -9035750000.0 -9035750000.0 -11127000000.0 -9115840000.0 -86342000000.0 -11189200000.0 -74750900000.0 -11673800000.0 -43892500000.0 -11129900000.0 -28268400000.0 -79675600000.0 -97045000000.0 -152218000000.0 -108382000000.0 -118707000000.0 -145599000000.0 -221706000000.0 -176043000000.0 -258332000000.0 -259840000000.0 -142985000000.0 -121561000000.0 -85216200000.0 -46823800000.0 -70497900000.0 -24690000000.0 -112879000000.0 -141006000000.0 -76626100000.0 -133673000000.0 -103287000000.0 -112773000000.0 -124537000000.0 -160956000000.0 -141458000000.0 -109232000000.0 -82487400000.0 -55630400000.0 -85525500000.0 -44533600000.0 -98457800000.0 -36118500000.0 -98058200000.0 -29655400000.0 -26460700000.0 -23754300000.0 -21401700000.0 -19368400000.0 -17625500000.0 -16145900000.0 -14902100000.0 -13866000000.0 -13010500000.0 -12310500000.0 -11744700000.0 -11295100000.0 -10946800000.0 -10688000000.0 -10509600000.0 -10405000000.0 -10370500000.0 -10405000000.0 -10509600000.0 -10688000000.0 -10946800000.0 -11295100000.0 -11744700000.0 -12310500000.0 -13010500000.0 -13866000000.0 -14902100000.0 -16145900000.0 -17625500000.0 -19368400000.0 -21401700000.0 -23754300000.0 -26460700000.0 -29655400000.0 -98058200000.0 -36118500000.0 -98457800000.0 -44533600000.0 -85525500000.0 -55630400000.0 -82487400000.0 -109232000000.0 -141458000000.0 -160956000000.0 -124537000000.0 -112773000000.0 -103287000000.0 -133673000000.0 -76626100000.0 -141006000000.0 -112879000000.0 -24690000000.0 -70497900000.0 -46823800000.0 -33572100000.0 -78148300000.0 -26654800000.0 -100317000000.0 -127108000000.0 -77866500000.0 -125545000000.0 -83246100000.0 -99340700000.0 -112223000000.0 -111800000000.0 -79778200000.0 -32087600000.0 -32806100000.0 -9264880000.0 -48105600000.0 -9231170000.0 -63550900000.0 -9155550000.0 -64891900000.0 -9035760000.0 -9035760000.0 -9035760000.0 -9035760000.0 -9035760000.0 -9035760000.0 -9035760000.0 -9035760000.0 -9035760000.0 -9035750000.0 -9035750000.0 -9035750000.0 -9035750000.0 -9035750000.0 -9035750000.0 -9035750000.0 -9035750000.0 -9035750000.0 -9035750000.0 -9035750000.0 -9035750000.0 -9035750000.0 -9035750000.0 -9035750000.0 -9035750000.0 -9035750000.0 -9035760000.0 -9035760000.0 -9035760000.0 -9035760000.0 -9035760000.0 -9035760000.0 -9035760000.0 -9035760000.0 -9035760000.0 -64891900000.0 -9155550000.0 -63550900000.0 -9231170000.0 -48105600000.0 -9264880000.0 -32806100000.0 -32087600000.0 -79778200000.0 -111800000000.0 -112223000000.0 -99340700000.0 -83246100000.0 -125545000000.0 -77866500000.0 -127108000000.0 -100317000000.0 -26654800000.0 -78148300000.0 -33572100000.0 -24513400000.0 -74945100000.0 -22039400000.0 -70596000000.0 -97137800000.0 -64332600000.0 -107093000000.0 -72968000000.0 -100650000000.0 -119216000000.0 -108874000000.0 -78559800000.0 -23201200000.0 -36887800000.0 -11495000000.0 -50301700000.0 -10189100000.0 -58525400000.0 -9035770000.0 -54764100000.0 -9035790000.0 -9035780000.0 -9035770000.0 -9035770000.0 -9035770000.0 -9035760000.0 -9035760000.0 -9035760000.0 -9035760000.0 -9035760000.0 -9035760000.0 -9035760000.0 -9035750000.0 -9035750000.0 -9035750000.0 -9035750000.0 -9035750000.0 -9035750000.0 -9035750000.0 -9035750000.0 -9035750000.0 -9035750000.0 -9035750000.0 -9035760000.0 -9035760000.0 -9035760000.0 -9035760000.0 -9035760000.0 -9035760000.0 -9035760000.0 -9035770000.0 -9035770000.0 -9035770000.0 -9035780000.0 -9035790000.0 -54764100000.0 -9035770000.0 -58525400000.0 -10189100000.0 -50301700000.0 -11495000000.0 -36887800000.0 -23201200000.0 -78559800000.0 -108874000000.0 -119216000000.0 -100650000000.0 -72968000000.0 -107093000000.0 -64332600000.0 -97137800000.0 -70596000000.0 -22039400000.0 -74945100000.0 -24513400000.0 -25256300000.0 -75217100000.0 -27107900000.0 -57312200000.0 -81392900000.0 -63824800000.0 -99784600000.0 -73267400000.0 -105236000000.0 -120589000000.0 -98245600000.0 -67743800000.0 -11114400000.0 -34250400000.0 -9035810000.0 -47993400000.0 -9035790000.0 -53276500000.0 -9035810000.0 -45515600000.0 -9035810000.0 -9035800000.0 -9035790000.0 -9035780000.0 -9035780000.0 -9035770000.0 -9035770000.0 -9035770000.0 -9035760000.0 -9035760000.0 -9035760000.0 -9035760000.0 -9035760000.0 -9035760000.0 -9035750000.0 -9035750000.0 -9035750000.0 -9035750000.0 -9035750000.0 -9035750000.0 -9035750000.0 -9035760000.0 -9035760000.0 -9035760000.0 -9035760000.0 -9035760000.0 -9035760000.0 -9035770000.0 -9035770000.0 -9035770000.0 -9035780000.0 -9035780000.0 -9035790000.0 -9035800000.0 -9035810000.0 -45515600000.0 -9035810000.0 -53276500000.0 -9035790000.0 -47993400000.0 -9035810000.0 -34250400000.0 -11114400000.0 -67743800000.0 -98245600000.0 -120589000000.0 -105236000000.0 -73267400000.0 -99784600000.0 -63824800000.0 -81392900000.0 -57312200000.0 -27107900000.0 -75217100000.0 -25256300000.0 -45370100000.0 -65140600000.0 -105613000000.0 -119469000000.0 -91486300000.0 -62127500000.0 -9159470000.0 -34447400000.0 -9035910000.0 -46701000000.0 -9035850000.0 -48572000000.0 -9035840000.0 -37342300000.0 -9035830000.0 -9035810000.0 -9035800000.0 -9035790000.0 -9035780000.0 -9035780000.0 -9035770000.0 -9035770000.0 -9035770000.0 -9035760000.0 -9035760000.0 -9035760000.0 -9035760000.0 -9035760000.0 -9035750000.0 -9035750000.0 -9035750000.0 -9035750000.0 -9035750000.0 -9035750000.0 -9035750000.0 -9035760000.0 -9035760000.0 -9035760000.0 -9035760000.0 -9035760000.0 -9035770000.0 -9035770000.0 -9035770000.0 -9035780000.0 -9035780000.0 -9035790000.0 -9035800000.0 -9035810000.0 -9035830000.0 -37342300000.0 -9035840000.0 -48572000000.0 -9035850000.0 -46701000000.0 -9035910000.0 -34447400000.0 -9159470000.0 -62127500000.0 -91486300000.0 -119469000000.0 -105613000000.0 -65140600000.0 -45370100000.0 -28341600000.0 -74250200000.0 -30772600000.0 -60045500000.0 -91163300000.0 -72601700000.0 -72601700000.0 -91163300000.0 -60045500000.0 -30772600000.0 -74250200000.0 -28341600000.0 -31430700000.0 -72625200000.0 -34351600000.0 -37749200000.0 -53062500000.0 -58157900000.0 -85658500000.0 -73011000000.0 -103999000000.0 -115535000000.0 -84518500000.0 -57057700000.0 -9039010000.0 -34358100000.0 -9036000000.0 -44806700000.0 -9035910000.0 -44094900000.0 -9035870000.0 -30399500000.0 -9035850000.0 -9035830000.0 -9035810000.0 -9035800000.0 -9035790000.0 -9035780000.0 -9035780000.0 -9035770000.0 -9035770000.0 -9035770000.0 -9035760000.0 -9035760000.0 -9035760000.0 -9035760000.0 -9035760000.0 -9035750000.0 -9035750000.0 -9035750000.0 -9035750000.0 -9035750000.0 -9035760000.0 -9035760000.0 -9035760000.0 -9035760000.0 -9035760000.0 -9035770000.0 -9035770000.0 -9035770000.0 -9035780000.0 -9035780000.0 -9035790000.0 -9035800000.0 -9035810000.0 -9035830000.0 -9035850000.0 -30399500000.0 -9035870000.0 -44094900000.0 -9035910000.0 -44806700000.0 -9036000000.0 -34358100000.0 -9039010000.0 -57057700000.0 -84518500000.0 -115535000000.0 -103999000000.0 -73011000000.0 -85658500000.0 -58157900000.0 -53062500000.0 -37749200000.0 -34351600000.0 -72625200000.0 -31430700000.0 -9036380000.0 -9036100000.0 -9035960000.0 -39850700000.0 -9035900000.0 -24710000000.0 -9035870000.0 -9035840000.0 -9035820000.0 -9035810000.0 -9035800000.0 -9035790000.0 -9035780000.0 -9035780000.0 -9035770000.0 -9035770000.0 -9035770000.0 -9035760000.0 -9035760000.0 -9035760000.0 -9035760000.0 -9035750000.0 -9035750000.0 -9035750000.0 -9035750000.0 -9035750000.0 -9035760000.0 -9035760000.0 -9035760000.0 -9035760000.0 -9035770000.0 -9035770000.0 -9035770000.0 -9035780000.0 -9035780000.0 -9035790000.0 -9035800000.0 -9035810000.0 -9035820000.0 -9035840000.0 -9035870000.0 -24710000000.0 -9035900000.0 -39850700000.0 -9035960000.0 -9036100000.0 -9036380000.0 -34059700000.0 -70533200000.0 -37294900000.0 -32889200000.0 -43488000000.0 -56424200000.0 -81594400000.0 -72873100000.0 -100206000000.0 -109506000000.0 -77453100000.0 -52571400000.0 -34000400000.0 -42524300000.0 -42524300000.0 -34000400000.0 -52571400000.0 -77453100000.0 -109506000000.0 -100206000000.0 -72873100000.0 -81594400000.0 -56424200000.0 -43488000000.0 -32889200000.0 -37294900000.0 -70533200000.0 -34059700000.0 -36190300000.0 -68161300000.0 -39623900000.0 -29964200000.0 -36154500000.0 -54745200000.0 -78563600000.0 -72058100000.0 -94884000000.0 -102236000000.0 -70363000000.0 -48576400000.0 -9036500000.0 -33400800000.0 -9036190000.0 -40029300000.0 -9036010000.0 -35865400000.0 -9035930000.0 -20205200000.0 -9035880000.0 -9035860000.0 -9035840000.0 -9035820000.0 -9035810000.0 -9035800000.0 -9035790000.0 -9035780000.0 -9035780000.0 -9035770000.0 -9035770000.0 -9035760000.0 -9035760000.0 -9035760000.0 -9035760000.0 -9035750000.0 -9035750000.0 -9035750000.0 -9035750000.0 -9035750000.0 -9035760000.0 -9035760000.0 -9035760000.0 -9035760000.0 -9035770000.0 -9035770000.0 -9035780000.0 -9035780000.0 -9035790000.0 -9035800000.0 -9035810000.0 -9035820000.0 -9035840000.0 -9035860000.0 -9035880000.0 -20205200000.0 -9035930000.0 -35865400000.0 -9036010000.0 -40029300000.0 -9036190000.0 -33400800000.0 -9036500000.0 -48576400000.0 -70363000000.0 -102236000000.0 -94884000000.0 -72058100000.0 -78563600000.0 -54745200000.0 -36154500000.0 -29964200000.0 -39623900000.0 -68161300000.0 -36190300000.0 -37843900000.0 -65595400000.0 -41378200000.0 -28127600000.0 -30787200000.0 -53090100000.0 -76164700000.0 -70591200000.0 -88596700000.0 -94381000000.0 -63371200000.0 -44954700000.0 -9036650000.0 -32590700000.0 -9036270000.0 -37449800000.0 -9036060000.0 -32171100000.0 -9035950000.0 -16759200000.0 -9035900000.0 -9035870000.0 -9035840000.0 -9035830000.0 -9035810000.0 -9035800000.0 -9035790000.0 -9035780000.0 -9035780000.0 -9035770000.0 -9035770000.0 -9035760000.0 -9035760000.0 -9035760000.0 -9035760000.0 -9035750000.0 -9035750000.0 -9035750000.0 -9035750000.0 -9035750000.0 -9035760000.0 -9035760000.0 -9035760000.0 -9035760000.0 -9035770000.0 -9035770000.0 -9035780000.0 -9035780000.0 -9035790000.0 -9035800000.0 -9035810000.0 -9035830000.0 -9035840000.0 -9035870000.0 -9035900000.0 -16759200000.0 -9035950000.0 -32171100000.0 -9036060000.0 -37449800000.0 -9036270000.0 -32590700000.0 -9036650000.0 -44954700000.0 -63371200000.0 -94381000000.0 -88596700000.0 -70591200000.0 -76164700000.0 -53090100000.0 -30787200000.0 -28127600000.0 -41378200000.0 -65595400000.0 -37843900000.0 -39052400000.0 -62864900000.0 -42601200000.0 -26861500000.0 -27056200000.0 -51490700000.0 -74081800000.0 -68598500000.0 -81788600000.0 -86406100000.0 -56601800000.0 -41613100000.0 -9036790000.0 -31604300000.0 -9036340000.0 -34872200000.0 -9036100000.0 -28793600000.0 -9035980000.0 -14213000000.0 -9035910000.0 -9035880000.0 -9035850000.0 -9035830000.0 -9035820000.0 -9035800000.0 -9035790000.0 -9035790000.0 -9035780000.0 -9035770000.0 -9035770000.0 -9035770000.0 -9035760000.0 -9035760000.0 -9035760000.0 -9035750000.0 -9035750000.0 -9035750000.0 -9035750000.0 -9035750000.0 -9035760000.0 -9035760000.0 -9035760000.0 -9035770000.0 -9035770000.0 -9035770000.0 -9035780000.0 -9035790000.0 -9035790000.0 -9035800000.0 -9035820000.0 -9035830000.0 -9035850000.0 -9035880000.0 -9035910000.0 -14213000000.0 -9035980000.0 -28793600000.0 -9036100000.0 -34872200000.0 -9036340000.0 -31604300000.0 -9036790000.0 -41613100000.0 -56601800000.0 -86406100000.0 -81788600000.0 -68598500000.0 -74081800000.0 -51490700000.0 -27056200000.0 -26861500000.0 -42601200000.0 -62864900000.0 -39052400000.0 -39852100000.0 -59996100000.0 -43338000000.0 -25943500000.0 -24583000000.0 -49979500000.0 -72010900000.0 -66237400000.0 -74792300000.0 -78624500000.0 -50166900000.0 -38516400000.0 -9036910000.0 -30478000000.0 -9036410000.0 -32353100000.0 -9036140000.0 -25747600000.0 -9036000000.0 -12395800000.0 -9035920000.0 -9035890000.0 -9035860000.0 -9035840000.0 -9035820000.0 -9035810000.0 -9035800000.0 -9035790000.0 -9035780000.0 -9035780000.0 -9035770000.0 -9035770000.0 -9035760000.0 -9035760000.0 -9035760000.0 -9035750000.0 -9035750000.0 -9035750000.0 -9035750000.0 -9035750000.0 -9035760000.0 -9035760000.0 -9035760000.0 -9035770000.0 -9035770000.0 -9035780000.0 -9035780000.0 -9035790000.0 -9035800000.0 -9035810000.0 -9035820000.0 -9035840000.0 -9035860000.0 -9035890000.0 -9035920000.0 -12395800000.0 -9036000000.0 -25747600000.0 -9036140000.0 -32353100000.0 -9036410000.0 -30478000000.0 -9036910000.0 -38516400000.0 -50166900000.0 -78624500000.0 -74792300000.0 -66237400000.0 -72010900000.0 -49979500000.0 -24583000000.0 -25943500000.0 -43338000000.0 -59996100000.0 -39852100000.0 -40283000000.0 -57036200000.0 -43636700000.0 -25282400000.0 -22980600000.0 -48563300000.0 -69718400000.0 -63641900000.0 -67854100000.0 -71243100000.0 -44166400000.0 -35667500000.0 -9037030000.0 -29249600000.0 -9036470000.0 -29932400000.0 -9036170000.0 -23036100000.0 -9036020000.0 -11143600000.0 -9035930000.0 -9035890000.0 -9035870000.0 -9035840000.0 -9035830000.0 -9035810000.0 -9035800000.0 -9035790000.0 -9035780000.0 -9035780000.0 -9035770000.0 -9035770000.0 -9035760000.0 -9035760000.0 -9035760000.0 -9035750000.0 -9035750000.0 -9035750000.0 -9035750000.0 -9035750000.0 -9035760000.0 -9035760000.0 -9035760000.0 -9035770000.0 -9035770000.0 -9035780000.0 -9035780000.0 -9035790000.0 -9035800000.0 -9035810000.0 -9035830000.0 -9035840000.0 -9035870000.0 -9035890000.0 -9035930000.0 -11143600000.0 -9036020000.0 -23036100000.0 -9036170000.0 -29932400000.0 -9036470000.0 -29249600000.0 -9037030000.0 -35667500000.0 -44166400000.0 -71243100000.0 -67854100000.0 -63641900000.0 -69718400000.0 -48563300000.0 -22980600000.0 -25282400000.0 -43636700000.0 -57036200000.0 -40283000000.0 -40387100000.0 -54047100000.0 -43547700000.0 -24818700000.0 -21925800000.0 -47215500000.0 -67100400000.0 -60906000000.0 -61154700000.0 -64390900000.0 -38683100000.0 -33075700000.0 -9037130000.0 -27955300000.0 -9036530000.0 -27639500000.0 -9036200000.0 -20651900000.0 -9036030000.0 -10310800000.0 -9035940000.0 -9035900000.0 -9035870000.0 -9035850000.0 -9035830000.0 -9035810000.0 -9035800000.0 -9035790000.0 -9035780000.0 -9035780000.0 -9035770000.0 -9035770000.0 -9035760000.0 -9035760000.0 -9035760000.0 -9035750000.0 -9035750000.0 -9035750000.0 -9035750000.0 -9035750000.0 -9035760000.0 -9035760000.0 -9035760000.0 -9035770000.0 -9035770000.0 -9035780000.0 -9035780000.0 -9035790000.0 -9035800000.0 -9035810000.0 -9035830000.0 -9035850000.0 -9035870000.0 -9035900000.0 -9035940000.0 -10310800000.0 -9036030000.0 -20651900000.0 -9036200000.0 -27639500000.0 -9036530000.0 -27955300000.0 -9037130000.0 -33075700000.0 -38683100000.0 -64390900000.0 -61154700000.0 -60906000000.0 -67100400000.0 -47215500000.0 -21925800000.0 -24818700000.0 -43547700000.0 -54047100000.0 -40387100000.0 -40206800000.0 -51090700000.0 -43122600000.0 -24497100000.0 -21198300000.0 -45891700000.0 -64161600000.0 -58090300000.0 -54822100000.0 -58138500000.0 -33772300000.0 -30739300000.0 -9037220000.0 -26626900000.0 -9036570000.0 -25495200000.0 -9036220000.0 -18579900000.0 -9036040000.0 -9777100000.0 -9035940000.0 -9035900000.0 -9035870000.0 -9035850000.0 -9035830000.0 -9035820000.0 -9035800000.0 -9035790000.0 -9035780000.0 -9035780000.0 -9035770000.0 -9035770000.0 -9035760000.0 -9035760000.0 -9035760000.0 -9035750000.0 -9035750000.0 -9035750000.0 -9035750000.0 -9035750000.0 -9035760000.0 -9035760000.0 -9035760000.0 -9035770000.0 -9035770000.0 -9035780000.0 -9035780000.0 -9035790000.0 -9035800000.0 -9035820000.0 -9035830000.0 -9035850000.0 -9035870000.0 -9035900000.0 -9035940000.0 -9777100000.0 -9036040000.0 -18579900000.0 -9036220000.0 -25495200000.0 -9036570000.0 -26626900000.0 -9037220000.0 -30739300000.0 -33772300000.0 -58138500000.0 -54822100000.0 -58090300000.0 -64161600000.0 -45891700000.0 -21198300000.0 -24497100000.0 -43122600000.0 -51090700000.0 -40206800000.0 -39782900000.0 -48219100000.0 -42412300000.0 -24264400000.0 -20663900000.0 -44553300000.0 -60962300000.0 -55234400000.0 -48940800000.0 -52512300000.0 -29457100000.0 -28643900000.0 -9037290000.0 -25291200000.0 -9036610000.0 -23511900000.0 -9036240000.0 -16799300000.0 -9036050000.0 -9448410000.0 -9035950000.0 -9035910000.0 -9035880000.0 -9035850000.0 -9035830000.0 -9035820000.0 -9035800000.0 -9035790000.0 -9035790000.0 -9035780000.0 -9035770000.0 -9035770000.0 -9035760000.0 -9035760000.0 -9035760000.0 -9035750000.0 -9035750000.0 -9035750000.0 -9035750000.0 -9035750000.0 -9035760000.0 -9035760000.0 -9035760000.0 -9035770000.0 -9035770000.0 -9035780000.0 -9035790000.0 -9035790000.0 -9035800000.0 -9035820000.0 -9035830000.0 -9035850000.0 -9035880000.0 -9035910000.0 -9035950000.0 -9448410000.0 -9036050000.0 -16799300000.0 -9036240000.0 -23511900000.0 -9036610000.0 -25291200000.0 -9037290000.0 -28643900000.0 -29457100000.0 -52512300000.0 -48940800000.0 -55234400000.0 -60962300000.0 -44553300000.0 -20663900000.0 -24264400000.0 -42412300000.0 -48219100000.0 -39782900000.0 -39154000000.0 -45470500000.0 -41465700000.0 -24073000000.0 -20239600000.0 -43179200000.0 -57579000000.0 -52365900000.0 -43559400000.0 -47505300000.0 -25730900000.0 -26767500000.0 -9037350000.0 -23969900000.0 -9036640000.0 -21695100000.0 -9036260000.0 -15286400000.0 -9036060000.0 -9254560000.0 -9035950000.0 -9035910000.0 -9035880000.0 -9035850000.0 -9035830000.0 -9035820000.0 -9035800000.0 -9035790000.0 -9035790000.0 -9035780000.0 -9035770000.0 -9035770000.0 -9035760000.0 -9035760000.0 -9035760000.0 -9035750000.0 -9035750000.0 -9035750000.0 -9035750000.0 -9035750000.0 -9035760000.0 -9035760000.0 -9035760000.0 -9035770000.0 -9035770000.0 -9035780000.0 -9035790000.0 -9035790000.0 -9035800000.0 -9035820000.0 -9035830000.0 -9035850000.0 -9035880000.0 -9035910000.0 -9035950000.0 -9254560000.0 -9036060000.0 -15286400000.0 -9036260000.0 -21695100000.0 -9036640000.0 -23969900000.0 -9037350000.0 -26767500000.0 -25730900000.0 -47505300000.0 -43559400000.0 -52365900000.0 -57579000000.0 -43179200000.0 -20239600000.0 -24073000000.0 -41465700000.0 -45470500000.0 -39154000000.0 -38355900000.0 -42870000000.0 -40328600000.0 -23883500000.0 -19870700000.0 -41764300000.0 -54087200000.0 -49506600000.0 -38698600000.0 -43087400000.0 -22563300000.0 -25085500000.0 -9037400000.0 -22679900000.0 -9036660000.0 -20044500000.0 -9036270000.0 -14015600000.0 -9036070000.0 -9145600000.0 -9035950000.0 -9035910000.0 -9035880000.0 -9035850000.0 -9035830000.0 -9035820000.0 -9035800000.0 -9035790000.0 -9035790000.0 -9035780000.0 -9035770000.0 -9035770000.0 -9035760000.0 -9035760000.0 -9035760000.0 -9035750000.0 -9035750000.0 -9035750000.0 -9035750000.0 -9035750000.0 -9035760000.0 -9035760000.0 -9035760000.0 -9035770000.0 -9035770000.0 -9035780000.0 -9035790000.0 -9035790000.0 -9035800000.0 -9035820000.0 -9035830000.0 -9035850000.0 -9035880000.0 -9035910000.0 -9035950000.0 -9145600000.0 -9036070000.0 -14015600000.0 -9036270000.0 -20044500000.0 -9036660000.0 -22679900000.0 -9037400000.0 -25085500000.0 -22563300000.0 -43087400000.0 -38698600000.0 -49506600000.0 -54087200000.0 -41764300000.0 -19870700000.0 -23883500000.0 -40328600000.0 -42870000000.0 -38355900000.0 -37421000000.0 -40431100000.0 -39042900000.0 -23667100000.0 -19520800000.0 -40313000000.0 -50555900000.0 -46676100000.0 -34357600000.0 -39213500000.0 -19907800000.0 -23573700000.0 -9037440000.0 -21434600000.0 -9036680000.0 -18556200000.0 -9036280000.0 -12960700000.0 -9036070000.0 -9087620000.0 -9035950000.0 -9035910000.0 -9035880000.0 -9035850000.0 -9035830000.0 -9035820000.0 -9035800000.0 -9035790000.0 -9035790000.0 -9035780000.0 -9035770000.0 -9035770000.0 -9035760000.0 -9035760000.0 -9035760000.0 -9035750000.0 -9035750000.0 -9035750000.0 -9035750000.0 -9035750000.0 -9035760000.0 -9035760000.0 -9035760000.0 -9035770000.0 -9035770000.0 -9035780000.0 -9035790000.0 -9035790000.0 -9035800000.0 -9035820000.0 -9035830000.0 -9035850000.0 -9035880000.0 -9035910000.0 -9035950000.0 -9087620000.0 -9036070000.0 -12960700000.0 -9036280000.0 -18556200000.0 -9036680000.0 -21434600000.0 -9037440000.0 -23573700000.0 -19907800000.0 -39213500000.0 -34357600000.0 -46676100000.0 -50555900000.0 -40313000000.0 -19520800000.0 -23667100000.0 -39042900000.0 -40431100000.0 -37421000000.0 -36378400000.0 -38158400000.0 -37646400000.0 -23405700000.0 -19168100000.0 -38833400000.0 -47046600000.0 -43893700000.0 -30520400000.0 -35830400000.0 -17709100000.0 -22209700000.0 -9037460000.0 -20244100000.0 -9036690000.0 -17223400000.0 -9036280000.0 -12095600000.0 -9036070000.0 -9058650000.0 -9035950000.0 -9035910000.0 -9035880000.0 -9035850000.0 -9035830000.0 -9035820000.0 -9035800000.0 -9035790000.0 -9035790000.0 -9035780000.0 -9035770000.0 -9035770000.0 -9035760000.0 -9035760000.0 -9035760000.0 -9035750000.0 -9035750000.0 -9035750000.0 -9035750000.0 -9035750000.0 -9035760000.0 -9035760000.0 -9035760000.0 -9035770000.0 -9035770000.0 -9035780000.0 -9035790000.0 -9035790000.0 -9035800000.0 -9035820000.0 -9035830000.0 -9035850000.0 -9035880000.0 -9035910000.0 -9035950000.0 -9058650000.0 -9036070000.0 -12095600000.0 -9036280000.0 -17223400000.0 -9036690000.0 -20244100000.0 -9037460000.0 -22209700000.0 -17709100000.0 -35830400000.0 -30520400000.0 -43893700000.0 -47046600000.0 -38833400000.0 -19168100000.0 -23405700000.0 -37646400000.0 -38158400000.0 -36378400000.0 -35253800000.0 -36049900000.0 -36172400000.0 -23090600000.0 -18800700000.0 -37334200000.0 -43612100000.0 -41178700000.0 -27159900000.0 -32881600000.0 -15908900000.0 -20973400000.0 -9037470000.0 -19116100000.0 -9036690000.0 -16037800000.0 -9036280000.0 -11395000000.0 -9036070000.0 -9045190000.0 -9035950000.0 -9035910000.0 -9035880000.0 -9035850000.0 -9035830000.0 -9035820000.0 -9035800000.0 -9035790000.0 -9035780000.0 -9035780000.0 -9035770000.0 -9035770000.0 -9035760000.0 -9035760000.0 -9035760000.0 -9035750000.0 -9035750000.0 -9035750000.0 -9035750000.0 -9035750000.0 -9035760000.0 -9035760000.0 -9035760000.0 -9035770000.0 -9035770000.0 -9035780000.0 -9035780000.0 -9035790000.0 -9035800000.0 -9035820000.0 -9035830000.0 -9035850000.0 -9035880000.0 -9035910000.0 -9035950000.0 -9045190000.0 -9036070000.0 -11395000000.0 -9036280000.0 -16037800000.0 -9036690000.0 -19116100000.0 -9037470000.0 -20973400000.0 -15908900000.0 -32881600000.0 -27159900000.0 -41178700000.0 -43612100000.0 -37334200000.0 -18800700000.0 -23090600000.0 -36172400000.0 -36049900000.0 -35253800000.0 -34069500000.0 -34098500000.0 -34649800000.0 -22719900000.0 -18414100000.0 -35823200000.0 -40296300000.0 -38550200000.0 -24242200000.0 -30311100000.0 -14449800000.0 -19847800000.0 -9037470000.0 -18056000000.0 -9036690000.0 -14989900000.0 -9036280000.0 -10834500000.0 -9036070000.0 -9039420000.0 -9035950000.0 -9035910000.0 -9035870000.0 -9035850000.0 -9035830000.0 -9035810000.0 -9035800000.0 -9035790000.0 -9035780000.0 -9035780000.0 -9035770000.0 -9035770000.0 -9035760000.0 -9035760000.0 -9035760000.0 -9035750000.0 -9035750000.0 -9035750000.0 -9035750000.0 -9035750000.0 -9035760000.0 -9035760000.0 -9035760000.0 -9035770000.0 -9035770000.0 -9035780000.0 -9035780000.0 -9035790000.0 -9035800000.0 -9035810000.0 -9035830000.0 -9035850000.0 -9035870000.0 -9035910000.0 -9035950000.0 -9039420000.0 -9036070000.0 -10834500000.0 -9036280000.0 -14989900000.0 -9036690000.0 -18056000000.0 -9037470000.0 -19847800000.0 -14449800000.0 -30311100000.0 -24242200000.0 -38550200000.0 -40296300000.0 -35823200000.0 -18414100000.0 -22719900000.0 -34649800000.0 -34098500000.0 -34069500000.0 -32844500000.0 -32294300000.0 -33103600000.0 -22295800000.0 -18007700000.0 -34308200000.0 -37133900000.0 -36025900000.0 -21729000000.0 -28065600000.0 -13278000000.0 -18818900000.0 -9037460000.0 -17067500000.0 -9036680000.0 -14069600000.0 -9036280000.0 -10391800000.0 -9036060000.0 -9037170000.0 -9035940000.0 -9035900000.0 -9035870000.0 -9035850000.0 -9035830000.0 -9035810000.0 -9035800000.0 -9035790000.0 -9035780000.0 -9035780000.0 -9035770000.0 -9035770000.0 -9035760000.0 -9035760000.0 -9035760000.0 -9035750000.0 -9035750000.0 -9035750000.0 -9035750000.0 -9035750000.0 -9035760000.0 -9035760000.0 -9035760000.0 -9035770000.0 -9035770000.0 -9035780000.0 -9035780000.0 -9035790000.0 -9035800000.0 -9035810000.0 -9035830000.0 -9035850000.0 -9035870000.0 -9035900000.0 -9035940000.0 -9037170000.0 -9036060000.0 -10391800000.0 -9036280000.0 -14069600000.0 -9036680000.0 -17067500000.0 -9037460000.0 -18818900000.0 -13278000000.0 -28065600000.0 -21729000000.0 -36025900000.0 -37133900000.0 -34308200000.0 -18007700000.0 -22295800000.0 -33103600000.0 -32294300000.0 -32844500000.0 -31595100000.0 -30624900000.0 -31554500000.0 -21823000000.0 -17583800000.0 -32796500000.0 -34150200000.0 -33621500000.0 -19580700000.0 -26096400000.0 -12344800000.0 -17875400000.0 -9037440000.0 -16152200000.0 -9036670000.0 -13266700000.0 -9036270000.0 -10046500000.0 -9036060000.0 -9036360000.0 -9035940000.0 -9035900000.0 -9035870000.0 -9035850000.0 -9035830000.0 -9035810000.0 -9035800000.0 -9035790000.0 -9035780000.0 -9035780000.0 -9035770000.0 -9035770000.0 -9035760000.0 -9035760000.0 -9035760000.0 -9035750000.0 -9035750000.0 -9035750000.0 -9035750000.0 -9035750000.0 -9035760000.0 -9035760000.0 -9035760000.0 -9035770000.0 -9035770000.0 -9035780000.0 -9035780000.0 -9035790000.0 -9035800000.0 -9035810000.0 -9035830000.0 -9035850000.0 -9035870000.0 -9035900000.0 -9035940000.0 -9036360000.0 -9036060000.0 -10046500000.0 -9036270000.0 -13266700000.0 -9036670000.0 -16152200000.0 -9037440000.0 -17875400000.0 -12344800000.0 -26096400000.0 -19580700000.0 -33621500000.0 -34150200000.0 -32796500000.0 -17583800000.0 -21823000000.0 -31554500000.0 -30624900000.0 -31595100000.0 -30334500000.0 -29077100000.0 -30019900000.0 -21307500000.0 -17145600000.0 -31295300000.0 -31362500000.0 -31349300000.0 -17757200000.0 -24360600000.0 -11607000000.0 -17008300000.0 -9037420000.0 -15310700000.0 -9036650000.0 -12570700000.0 -9036260000.0 -9780550000.0 -9036050000.0 -9036090000.0 -9035930000.0 -9035890000.0 -9035870000.0 -9035840000.0 -9035820000.0 -9035810000.0 -9035800000.0 -9035790000.0 -9035780000.0 -9035780000.0 -9035770000.0 -9035770000.0 -9035760000.0 -9035760000.0 -9035760000.0 -9035750000.0 -9035750000.0 -9035750000.0 -9035750000.0 -9035750000.0 -9035760000.0 -9035760000.0 -9035760000.0 -9035770000.0 -9035770000.0 -9035780000.0 -9035780000.0 -9035790000.0 -9035800000.0 -9035810000.0 -9035820000.0 -9035840000.0 -9035870000.0 -9035890000.0 -9035930000.0 -9036090000.0 -9036050000.0 -9780550000.0 -9036260000.0 -12570700000.0 -9036650000.0 -15310700000.0 -9037420000.0 -17008300000.0 -11607000000.0 -24360600000.0 -17757200000.0 -31349300000.0 -31362500000.0 -31295300000.0 -17145600000.0 -21307500000.0 -30019900000.0 -29077100000.0 -30334500000.0 -29073800000.0 -27637500000.0 -28513900000.0 -20755800000.0 -16697000000.0 -29811600000.0 -28780900000.0 -29217800000.0 -16219600000.0 -22820800000.0 -11027500000.0 -16210200000.0 -9037380000.0 -14541800000.0 -9036630000.0 -11971300000.0 -9036250000.0 -9578240000.0 -9036040000.0 -9036010000.0 -9035930000.0 -9035890000.0 -9035860000.0 -9035840000.0 -9035820000.0 -9035810000.0 -9035800000.0 -9035790000.0 -9035780000.0 -9035770000.0 -9035770000.0 -9035770000.0 -9035760000.0 -9035760000.0 -9035760000.0 -9035750000.0 -9035750000.0 -9035750000.0 -9035750000.0 -9035750000.0 -9035760000.0 -9035760000.0 -9035760000.0 -9035770000.0 -9035770000.0 -9035770000.0 -9035780000.0 -9035790000.0 -9035800000.0 -9035810000.0 -9035820000.0 -9035840000.0 -9035860000.0 -9035890000.0 -9035930000.0 -9036010000.0 -9036040000.0 -9578240000.0 -9036250000.0 -11971300000.0 -9036630000.0 -14541800000.0 -9037380000.0 -16210200000.0 -11027500000.0 -22820800000.0 -16219600000.0 -29217800000.0 -28780900000.0 -29811600000.0 -16697000000.0 -20755800000.0 -28513900000.0 -27637500000.0 -29073800000.0 -27821900000.0 -26293000000.0 -27047700000.0 -20174500000.0 -16242000000.0 -28352400000.0 -26409600000.0 -27231700000.0 -14931100000.0 -21445500000.0 -10575000000.0 -15475300000.0 -9037330000.0 -13843700000.0 -9036600000.0 -11458700000.0 -9036230000.0 -9426270000.0 -9036030000.0 -9035980000.0 -9035920000.0 -9035890000.0 -9035860000.0 -9035840000.0 -9035820000.0 -9035810000.0 -9035800000.0 -9035790000.0 -9035780000.0 -9035770000.0 -9035770000.0 -9035760000.0 -9035760000.0 -9035760000.0 -9035760000.0 -9035750000.0 -9035750000.0 -9035750000.0 -9035750000.0 -9035750000.0 -9035760000.0 -9035760000.0 -9035760000.0 -9035760000.0 -9035770000.0 -9035770000.0 -9035780000.0 -9035790000.0 -9035800000.0 -9035810000.0 -9035820000.0 -9035840000.0 -9035860000.0 -9035890000.0 -9035920000.0 -9035980000.0 -9036030000.0 -9426270000.0 -9036230000.0 -11458700000.0 -9036600000.0 -13843700000.0 -9037330000.0 -15475300000.0 -10575000000.0 -21445500000.0 -14931100000.0 -27231700000.0 -26409600000.0 -28352400000.0 -16242000000.0 -20174500000.0 -27047700000.0 -26293000000.0 -27821900000.0 -26585800000.0 -25031200000.0 -25629700000.0 -19570200000.0 -15784300000.0 -26924100000.0 -24247900000.0 -25391900000.0 -13857500000.0 -20208800000.0 -10223400000.0 -14798900000.0 -9037280000.0 -13213800000.0 -9036580000.0 -11023200000.0 -9036210000.0 -9313530000.0 -9036020000.0 -9035960000.0 -9035910000.0 -9035880000.0 -9035850000.0 -9035830000.0 -9035820000.0 -9035800000.0 -9035790000.0 -9035790000.0 -9035780000.0 -9035770000.0 -9035770000.0 -9035760000.0 -9035760000.0 -9035760000.0 -9035760000.0 -9035750000.0 -9035750000.0 -9035750000.0 -9035750000.0 -9035750000.0 -9035760000.0 -9035760000.0 -9035760000.0 -9035760000.0 -9035770000.0 -9035770000.0 -9035780000.0 -9035790000.0 -9035790000.0 -9035800000.0 -9035820000.0 -9035830000.0 -9035850000.0 -9035880000.0 -9035910000.0 -9035960000.0 -9036020000.0 -9313530000.0 -9036210000.0 -11023200000.0 -9036580000.0 -13213800000.0 -9037280000.0 -14798900000.0 -10223400000.0 -20208800000.0 -13857500000.0 -25391900000.0 -24247900000.0 -26924100000.0 -15784300000.0 -19570200000.0 -25629700000.0 -25031200000.0 -26585800000.0 -25370800000.0 -23841000000.0 -24266200000.0 -18948800000.0 -15327100000.0 -25532600000.0 -22291300000.0 -23696100000.0 -12967500000.0 -19089300000.0 -9951330000.0 -14176900000.0 -9037220000.0 -12648600000.0 -9036540000.0 -10655800000.0 -9036200000.0 -9230960000.0 -9036010000.0 -9035950000.0 -9035910000.0 -9035870000.0 -9035850000.0 -9035830000.0 -9035810000.0 -9035800000.0 -9035790000.0 -9035780000.0 -9035780000.0 -9035770000.0 -9035770000.0 -9035760000.0 -9035760000.0 -9035760000.0 -9035760000.0 -9035750000.0 -9035750000.0 -9035750000.0 -9035750000.0 -9035750000.0 -9035760000.0 -9035760000.0 -9035760000.0 -9035760000.0 -9035770000.0 -9035770000.0 -9035780000.0 -9035780000.0 -9035790000.0 -9035800000.0 -9035810000.0 -9035830000.0 -9035850000.0 -9035870000.0 -9035910000.0 -9035950000.0 -9036010000.0 -9230960000.0 -9036200000.0 -10655800000.0 -9036540000.0 -12648600000.0 -9037220000.0 -14176900000.0 -9951330000.0 -19089300000.0 -12967500000.0 -23696100000.0 -22291300000.0 -25532600000.0 -15327100000.0 -18948800000.0 -24266200000.0 -23841000000.0 -25370800000.0 -24180800000.0 -22712400000.0 -22961100000.0 -18316000000.0 -14873400000.0 -24182900000.0 -20531900000.0 -22139100000.0 -12233100000.0 -18070100000.0 -9741560000.0 -13605600000.0 -9037160000.0 -12144500000.0 -9036510000.0 -10347900000.0 -9036170000.0 -9171250000.0 -9036000000.0 -9035940000.0 -9035900000.0 -9035870000.0 -9035840000.0 -9035830000.0 -9035810000.0 -9035800000.0 -9035790000.0 -9035780000.0 -9035780000.0 -9035770000.0 -9035770000.0 -9035760000.0 -9035760000.0 -9035760000.0 -9035760000.0 -9035750000.0 -9035750000.0 -9035750000.0 -9035750000.0 -9035750000.0 -9035760000.0 -9035760000.0 -9035760000.0 -9035760000.0 -9035770000.0 -9035770000.0 -9035780000.0 -9035780000.0 -9035790000.0 -9035800000.0 -9035810000.0 -9035830000.0 -9035840000.0 -9035870000.0 -9035900000.0 -9035940000.0 -9036000000.0 -9171250000.0 -9036170000.0 -10347900000.0 -9036510000.0 -12144500000.0 -9037160000.0 -13605600000.0 -9741560000.0 -18070100000.0 -12233100000.0 -22139100000.0 -20531900000.0 -24182900000.0 -14873400000.0 -18316000000.0 -22961100000.0 -22712400000.0 -24180800000.0 -23018500000.0 -21636500000.0 -21716600000.0 -17676500000.0 -14425600000.0 -22879000000.0 -18959500000.0 -20713700000.0 -11629600000.0 -17137500000.0 -9580270000.0 -13082000000.0 -9037090000.0 -11697400000.0 -9036470000.0 -10091900000.0 -9036150000.0 -9128640000.0 -9035980000.0 -9035930000.0 -9035890000.0 -9035860000.0 -9035840000.0 -9035820000.0 -9035810000.0 -9035800000.0 -9035790000.0 -9035780000.0 -9035780000.0 -9035770000.0 -9035770000.0 -9035760000.0 -9035760000.0 -9035760000.0 -9035760000.0 -9035750000.0 -9035750000.0 -9035750000.0 -9035750000.0 -9035750000.0 -9035760000.0 -9035760000.0 -9035760000.0 -9035760000.0 -9035770000.0 -9035770000.0 -9035780000.0 -9035780000.0 -9035790000.0 -9035800000.0 -9035810000.0 -9035820000.0 -9035840000.0 -9035860000.0 -9035890000.0 -9035930000.0 -9035980000.0 -9128640000.0 -9036150000.0 -10091900000.0 -9036470000.0 -11697400000.0 -9037090000.0 -13082000000.0 -9580270000.0 -17137500000.0 -11629600000.0 -20713700000.0 -18959500000.0 -22879000000.0 -14425600000.0 -17676500000.0 -21716600000.0 -21636500000.0 -23018500000.0 -21885700000.0 -20606000000.0 -20533300000.0 -17034800000.0 -13985600000.0 -21624200000.0 -17562100000.0 -19411200000.0 -11135400000.0 -16280600000.0 -9456510000.0 -12603000000.0 -9037020000.0 -11302800000.0 -9036430000.0 -9880310000.0 -9036130000.0 -9098620000.0 -9035970000.0 -9035920000.0 -9035880000.0 -9035860000.0 -9035830000.0 -9035820000.0 -9035800000.0 -9035790000.0 -9035790000.0 -9035780000.0 -9035770000.0 -9035770000.0 -9035770000.0 -9035760000.0 -9035760000.0 -9035760000.0 -9035760000.0 -9035750000.0 -9035750000.0 -9035750000.0 -9035750000.0 -9035750000.0 -9035760000.0 -9035760000.0 -9035760000.0 -9035760000.0 -9035770000.0 -9035770000.0 -9035770000.0 -9035780000.0 -9035790000.0 -9035790000.0 -9035800000.0 -9035820000.0 -9035830000.0 -9035860000.0 -9035880000.0 -9035920000.0 -9035970000.0 -9098620000.0 -9036130000.0 -9880310000.0 -9036430000.0 -11302800000.0 -9037020000.0 -12603000000.0 -9456510000.0 -16280600000.0 -11135400000.0 -19411200000.0 -17562100000.0 -21624200000.0 -13985600000.0 -17034800000.0 -20533300000.0 -20606000000.0 -21885700000.0 -20783000000.0 -19614500000.0 -19410500000.0 -16394300000.0 -13554900000.0 -20420500000.0 -16326500000.0 -18221900000.0 -10731800000.0 -15490700000.0 -9361650000.0 -12165700000.0 -9036940000.0 -10956500000.0 -9036390000.0 -9706760000.0 -9036110000.0 -9077760000.0 -9035960000.0 -9035910000.0 -9035870000.0 -9035850000.0 -9035830000.0 -9035810000.0 -9035800000.0 -9035790000.0 -9035780000.0 -9035780000.0 -9035770000.0 -9035770000.0 -9035760000.0 -9035760000.0 -9035760000.0 -9035760000.0 -9035760000.0 -9035750000.0 -9035750000.0 -9035750000.0 -9035750000.0 -9035750000.0 -9035760000.0 -9035760000.0 -9035760000.0 -9035760000.0 -9035760000.0 -9035770000.0 -9035770000.0 -9035780000.0 -9035780000.0 -9035790000.0 -9035800000.0 -9035810000.0 -9035830000.0 -9035850000.0 -9035870000.0 -9035910000.0 -9035960000.0 -9077760000.0 -9036110000.0 -9706760000.0 -9036390000.0 -10956500000.0 -9036940000.0 -12165700000.0 -9361650000.0 -15490700000.0 -10731800000.0 -18221900000.0 -16326500000.0 -20420500000.0 -13554900000.0 -16394300000.0 -19410500000.0 -19614500000.0 -20783000000.0 -19710600000.0 -18656700000.0 -18346200000.0 -15757900000.0 -13134800000.0 -19268800000.0 -15238800000.0 -17135700000.0 -10403000000.0 -14760500000.0 -9288930000.0 -11767400000.0 -9036850000.0 -10654000000.0 -9036340000.0 -9565370000.0 -9036080000.0 -9063460000.0 -9035940000.0 -9035900000.0 -9035870000.0 -9035840000.0 -9035820000.0 -9035810000.0 -9035800000.0 -9035790000.0 -9035780000.0 -9035780000.0 -9035770000.0 -9035770000.0 -9035760000.0 -9035760000.0 -9035760000.0 -9035760000.0 -9035750000.0 -9035750000.0 -9035750000.0 -9035750000.0 -9035750000.0 -9035750000.0 -9035750000.0 -9035760000.0 -9035760000.0 -9035760000.0 -9035760000.0 -9035770000.0 -9035770000.0 -9035780000.0 -9035780000.0 -9035790000.0 -9035800000.0 -9035810000.0 -9035820000.0 -9035840000.0 -9035870000.0 -9035900000.0 -9035940000.0 -9063460000.0 -9036080000.0 -9565370000.0 -9036340000.0 -10654000000.0 -9036850000.0 -11767400000.0 -9288930000.0 -14760500000.0 -10403000000.0 -17135700000.0 -15238800000.0 -19268800000.0 -13134800000.0 -15757900000.0 -18346200000.0 -18656700000.0 -19710600000.0 -18667600000.0 -17728100000.0 -17337500000.0 -15127900000.0 -12725800000.0 -18169100000.0 -14284600000.0 -16142300000.0 -10135400000.0 -14084000000.0 -9233110000.0 -11405200000.0 -9036770000.0 -10391000000.0 -9036300000.0 -9450970000.0 -9036050000.0 -9053790000.0 -9035930000.0 -9035890000.0 -9035860000.0 -9035830000.0 -9035820000.0 -9035800000.0 -9035790000.0 -9035790000.0 -9035780000.0 -9035770000.0 -9035770000.0 -9035770000.0 -9035760000.0 -9035760000.0 -9035760000.0 -9035760000.0 -9035750000.0 -9035750000.0 -9035750000.0 -9035750000.0 -9035750000.0 -9035750000.0 -9035750000.0 -9035760000.0 -9035760000.0 -9035760000.0 -9035760000.0 -9035770000.0 -9035770000.0 -9035770000.0 -9035780000.0 -9035790000.0 -9035790000.0 -9035800000.0 -9035820000.0 -9035830000.0 -9035860000.0 -9035890000.0 -9035930000.0 -9053790000.0 -9036050000.0 -9450970000.0 -9036300000.0 -10391000000.0 -9036770000.0 -11405200000.0 -9233110000.0 -14084000000.0 -10135400000.0 -16142300000.0 -14284600000.0 -18169100000.0 -12725800000.0 -15127900000.0 -17337500000.0 -17728100000.0 -18667600000.0 -17653000000.0 -16825000000.0 -16381100000.0 -14505900000.0 -12328400000.0 -17120100000.0 -13449800000.0 -15231600000.0 -9917680000.0 -13455900000.0 -9190100000.0 -11076300000.0 -9036680000.0 -10163100000.0 -9036250000.0 -9359000000.0 -9036030000.0 -9047350000.0 -9035910000.0 -9035870000.0 -9035850000.0 -9035830000.0 -9035810000.0 -9035800000.0 -9035790000.0 -9035780000.0 -9035780000.0 -9035770000.0 -9035770000.0 -9035760000.0 -9035760000.0 -9035760000.0 -9035760000.0 -9035760000.0 -9035750000.0 -9035750000.0 -9035750000.0 -9035750000.0 -9035750000.0 -9035750000.0 -9035750000.0 -9035760000.0 -9035760000.0 -9035760000.0 -9035760000.0 -9035760000.0 -9035770000.0 -9035770000.0 -9035780000.0 -9035780000.0 -9035790000.0 -9035800000.0 -9035810000.0 -9035830000.0 -9035850000.0 -9035870000.0 -9035910000.0 -9047350000.0 -9036030000.0 -9359000000.0 -9036250000.0 -10163100000.0 -9036680000.0 -11076300000.0 -9190100000.0 -13455900000.0 -9917680000.0 -15231600000.0 -13449800000.0 -17120100000.0 -12328400000.0 -14505900000.0 -16381100000.0 -16825000000.0 -17653000000.0 -16665100000.0 -15944200000.0 -15472800000.0 -13893000000.0 -11942600000.0 -16119800000.0 -12720300000.0 -14393800000.0 -9740420000.0 -12871200000.0 -9156760000.0 -10777800000.0 -9036590000.0 -9966270000.0 -9036200000.0 -9285510000.0 -9036000000.0 -9043110000.0 -9035900000.0 -9035860000.0 -9035840000.0 -9035820000.0 -9035810000.0 -9035790000.0 -9035790000.0 -9035780000.0 -9035770000.0 -9035770000.0 -9035770000.0 -9035760000.0 -9035760000.0 -9035760000.0 -9035760000.0 -9035760000.0 -9035750000.0 -9035750000.0 -9035750000.0 -9035750000.0 -9035750000.0 -9035750000.0 -9035750000.0 -9035760000.0 -9035760000.0 -9035760000.0 -9035760000.0 -9035760000.0 -9035770000.0 -9035770000.0 -9035770000.0 -9035780000.0 -9035790000.0 -9035790000.0 -9035810000.0 -9035820000.0 -9035840000.0 -9035860000.0 -9035900000.0 -9043110000.0 -9036000000.0 -9285510000.0 -9036200000.0 -9966270000.0 -9036590000.0 -10777800000.0 -9156760000.0 -12871200000.0 -9740420000.0 -14393800000.0 -12720300000.0 -16119800000.0 -11942600000.0 -13893000000.0 -15472800000.0 -15944200000.0 -16665100000.0 -15701900000.0 -15082700000.0 -14608000000.0 -13289600000.0 -11568100000.0 -15165400000.0 -12082500000.0 -13619600000.0 -9595710000.0 -12325500000.0 -9130680000.0 -10506700000.0 -9036490000.0 -9796460000.0 -9036150000.0 -9227090000.0 -9035970000.0 -9040370000.0 -9035880000.0 -9035850000.0 -9035830000.0 -9035810000.0 -9035800000.0 -9035790000.0 -9035780000.0 -9035780000.0 -9035770000.0 -9035770000.0 -9035760000.0 -9035760000.0 -9035760000.0 -9035760000.0 -9035760000.0 -9035760000.0 -9035750000.0 -9035750000.0 -9035750000.0 -9035750000.0 -9035750000.0 -9035750000.0 -9035750000.0 -9035760000.0 -9035760000.0 -9035760000.0 -9035760000.0 -9035760000.0 -9035760000.0 -9035770000.0 -9035770000.0 -9035780000.0 -9035780000.0 -9035790000.0 -9035800000.0 -9035810000.0 -9035830000.0 -9035850000.0 -9035880000.0 -9040370000.0 -9035970000.0 -9227090000.0 -9036150000.0 -9796460000.0 -9036490000.0 -10506700000.0 -9130680000.0 -12325500000.0 -9595710000.0 -13619600000.0 -12082500000.0 -15165400000.0 -11568100000.0 -13289600000.0 -14608000000.0 -15082700000.0 -15701900000.0 -14761000000.0 -14238100000.0 -13781900000.0 -12695700000.0 -11204300000.0 -14253000000.0 -11523700000.0 -12900000000.0 -9477000000.0 -11814100000.0 -9109990000.0 -10260000000.0 -9036400000.0 -9649930000.0 -9036100000.0 -9180840000.0 -9035940000.0 -9038620000.0 -9035860000.0 -9035840000.0 -9035820000.0 -9035800000.0 -9035790000.0 -9035790000.0 -9035780000.0 -9035770000.0 -9035770000.0 -9035770000.0 -9035760000.0 -9035760000.0 -9035760000.0 -9035760000.0 -9035760000.0 -9035750000.0 -9035750000.0 -9035750000.0 -9035750000.0 -9035750000.0 -9035750000.0 -9035750000.0 -9035750000.0 -9035750000.0 -9035760000.0 -9035760000.0 -9035760000.0 -9035760000.0 -9035760000.0 -9035770000.0 -9035770000.0 -9035770000.0 -9035780000.0 -9035790000.0 -9035790000.0 -9035800000.0 -9035820000.0 -9035840000.0 -9035860000.0 -9038620000.0 -9035940000.0 -9180840000.0 -9036100000.0 -9649930000.0 -9036400000.0 -10260000000.0 -9109990000.0 -11814100000.0 -9477000000.0 -12900000000.0 -11523700000.0 -14253000000.0 -11204300000.0 -12695700000.0 -13781900000.0 -14238100000.0 -14761000000.0 -13839900000.0 -13407900000.0 -12989700000.0 -12111100000.0 -10850400000.0 -13378400000.0 -11031300000.0 -12226600000.0 -9378830000.0 -11332700000.0 -9093310000.0 -10034400000.0 -9036300000.0 -9523070000.0 -9036050000.0 -9144250000.0 -9035910000.0 -9037510000.0 -9035850000.0 -9035820000.0 -9035810000.0 -9035800000.0 -9035790000.0 -9035780000.0 -9035770000.0 -9035770000.0 -9035770000.0 -9035760000.0 -9035760000.0 -9035760000.0 -9035760000.0 -9035760000.0 -9035760000.0 -9035750000.0 -9035750000.0 -9035750000.0 -9035750000.0 -9035750000.0 -9035750000.0 -9035750000.0 -9035750000.0 -9035750000.0 -9035760000.0 -9035760000.0 -9035760000.0 -9035760000.0 -9035760000.0 -9035760000.0 -9035770000.0 -9035770000.0 -9035770000.0 -9035780000.0 -9035790000.0 -9035800000.0 -9035810000.0 -9035820000.0 -9035850000.0 -9037510000.0 -9035910000.0 -9144250000.0 -9036050000.0 -9523070000.0 -9036300000.0 -10034400000.0 -9093310000.0 -11332700000.0 -9378830000.0 -12226600000.0 -11031300000.0 -13378400000.0 -10850400000.0 -12111100000.0 -12989700000.0 -13407900000.0 -13839900000.0 -12935800000.0 -12589900000.0 -12226100000.0 -11534800000.0 -10505200000.0 -12536500000.0 -10593900000.0 -11591400000.0 -9296650000.0 -10876900000.0 -9079540000.0 -9826900000.0 -9036200000.0 -9412470000.0 -9035990000.0 -9115220000.0 -9035890000.0 -9036820000.0 -9035830000.0 -9035810000.0 -9035800000.0 -9035790000.0 -9035780000.0 -9035780000.0 -9035770000.0 -9035770000.0 -9035760000.0 -9035760000.0 -9035760000.0 -9035760000.0 -9035760000.0 -9035760000.0 -9035760000.0 -9035750000.0 -9035750000.0 -9035750000.0 -9035750000.0 -9035750000.0 -9035750000.0 -9035750000.0 -9035750000.0 -9035750000.0 -9035760000.0 -9035760000.0 -9035760000.0 -9035760000.0 -9035760000.0 -9035760000.0 -9035760000.0 -9035770000.0 -9035770000.0 -9035780000.0 -9035780000.0 -9035790000.0 -9035800000.0 -9035810000.0 -9035830000.0 -9036820000.0 -9035890000.0 -9115220000.0 -9035990000.0 -9412470000.0 -9036200000.0 -9826900000.0 -9079540000.0 -10876900000.0 -9296650000.0 -11591400000.0 -10593900000.0 -12536500000.0 -10505200000.0 -11534800000.0 -12226100000.0 -12589900000.0 -12935800000.0 -12045600000.0 -11781800000.0 -11485900000.0 -10965900000.0 -10167400000.0 -11722000000.0 -10200400000.0 -10987000000.0 -9226630000.0 -10441900000.0 -9067870000.0 -9634140000.0 -9036100000.0 -9314900000.0 -9035940000.0 -9091960000.0 -9035860000.0 -9036390000.0 -9035810000.0 -9035800000.0 -9035790000.0 -9035780000.0 -9035770000.0 -9035770000.0 -9035770000.0 -9035760000.0 -9035760000.0 -9035760000.0 -9035760000.0 -9035760000.0 -9035760000.0 -9035760000.0 -9035750000.0 -9035750000.0 -9035750000.0 -9035750000.0 -9035750000.0 -9035750000.0 -9035750000.0 -9035750000.0 -9035750000.0 -9035750000.0 -9035750000.0 -9035760000.0 -9035760000.0 -9035760000.0 -9035760000.0 -9035760000.0 -9035760000.0 -9035760000.0 -9035770000.0 -9035770000.0 -9035770000.0 -9035780000.0 -9035790000.0 -9035800000.0 -9035810000.0 -9036390000.0 -9035860000.0 -9091960000.0 -9035940000.0 -9314900000.0 -9036100000.0 -9634140000.0 -9067870000.0 -10441900000.0 -9226630000.0 -10987000000.0 -10200400000.0 -11722000000.0 -10167400000.0 -10965900000.0 -11485900000.0 -11781800000.0 -12045600000.0 -11166500000.0 -10981400000.0 -10763900000.0 -10402800000.0 -9835490000.0 -10929000000.0 -9840330000.0 -10406000000.0 -9165500000.0 -10023400000.0 -9057650000.0 -9452870000.0 -9036000000.0 -9227270000.0 -9035890000.0 -9072910000.0 -9035830000.0 -9036110000.0 -9035790000.0 -9035790000.0 -9035780000.0 -9035770000.0 -9035770000.0 -9035770000.0 -9035760000.0 -9035760000.0 -9035760000.0 -9035760000.0 -9035760000.0 -9035760000.0 -9035760000.0 -9035750000.0 -9035750000.0 -9035750000.0 -9035750000.0 -9035750000.0 -9035750000.0 -9035750000.0 -9035750000.0 -9035750000.0 -9035750000.0 -9035750000.0 -9035750000.0 -9035750000.0 -9035760000.0 -9035760000.0 -9035760000.0 -9035760000.0 -9035760000.0 -9035760000.0 -9035760000.0 -9035770000.0 -9035770000.0 -9035770000.0 -9035780000.0 -9035790000.0 -9035790000.0 -9036110000.0 -9035830000.0 -9072910000.0 -9035890000.0 -9227270000.0 -9036000000.0 -9452870000.0 -9057650000.0 -10023400000.0 -9165500000.0 -10406000000.0 -9840330000.0 -10929000000.0 -9835490000.0 -10402800000.0 -10763900000.0 -10981400000.0 -11166500000.0 -10295200000.0 -10186400000.0 -10054700000.0 -9844000000.0 -9507920000.0 -10151500000.0 -9503670000.0 -9841390000.0 -9110410000.0 -9616460000.0 -9048390000.0 -9279790000.0 -9035900000.0 -9146600000.0 -9035830000.0 -9056720000.0 -9035800000.0 -9035940000.0 -9035780000.0 -9035770000.0 -9035770000.0 -9035760000.0 -9035760000.0 -9035760000.0 -9035760000.0 -9035760000.0 -9035760000.0 -9035760000.0 -9035760000.0 -9035750000.0 -9035750000.0 -9035750000.0 -9035750000.0 -9035750000.0 -9035750000.0 -9035750000.0 -9035750000.0 -9035750000.0 -9035750000.0 -9035750000.0 -9035750000.0 -9035750000.0 -9035750000.0 -9035750000.0 -9035750000.0 -9035750000.0 -9035760000.0 -9035760000.0 -9035760000.0 -9035760000.0 -9035760000.0 -9035760000.0 -9035760000.0 -9035760000.0 -9035770000.0 -9035770000.0 -9035780000.0 -9035940000.0 -9035800000.0 -9056720000.0 -9035830000.0 -9146600000.0 -9035900000.0 -9279790000.0 -9048390000.0 -9616460000.0 -9110410000.0 -9841390000.0 -9503670000.0 -10151500000.0 -9507920000.0 -9844000000.0 -10054700000.0 -10186400000.0 -10295200000.0 -9428520000.0 -9394670000.0 -9353220000.0 -9287840000.0 -9182940000.0 -9383320000.0 -9180740000.0 -9286470000.0 -9058780000.0 -9216480000.0 -9039650000.0 -9111550000.0 -9035800000.0 -9070040000.0 -9035780000.0 -9042170000.0 -9035770000.0 -9035810000.0 -9035760000.0 -9035760000.0 -9035760000.0 -9035760000.0 -9035760000.0 -9035760000.0 -9035750000.0 -9035750000.0 -9035750000.0 -9035750000.0 -9035750000.0 -9035750000.0 -9035750000.0 -9035750000.0 -9035750000.0 -9035750000.0 -9035750000.0 -9035750000.0 -9035750000.0 -9035750000.0 -9035750000.0 -9035750000.0 -9035750000.0 -9035750000.0 -9035750000.0 -9035750000.0 -9035750000.0 -9035750000.0 -9035750000.0 -9035750000.0 -9035750000.0 -9035750000.0 -9035750000.0 -9035760000.0 -9035760000.0 -9035760000.0 -9035760000.0 -9035760000.0 -9035760000.0 -9035810000.0 -9035770000.0 -9042170000.0 -9035780000.0 -9070040000.0 -9035800000.0 -9111550000.0 -9039650000.0 -9216480000.0 -9058780000.0 -9286470000.0 -9180740000.0 -9383320000.0 -9182940000.0 -9287840000.0 -9353220000.0 -9394670000.0 -9428520000.0 
SCALARS Shear_Stress float 1
LOOKUP_TABLE default
230142000000.0 168756000000.0 45537300000.0 140636000000.0 27612900000.0 27612900000.0 140636000000.0 45537300000.0 168756000000.0 230142000000.0 140362000000.0 198942000000.0 152770000000.0 277815000000.0 213986000000.0 128762000000.0 178998000000.0 176054000000.0 161559000000.0 144723000000.0 139035000000.0 123707000000.0 116823000000.0 117920000000.0 122037000000.0 126026000000.0 128889000000.0 130576000000.0 131336000000.0 131477000000.0 131278000000.0 130950000000.0 130613000000.0 130365000000.0 130286000000.0 130365000000.0 130613000000.0 130950000000.0 131278000000.0 131477000000.0 131336000000.0 130576000000.0 128889000000.0 126026000000.0 122037000000.0 117920000000.0 116823000000.0 123707000000.0 139035000000.0 144723000000.0 161559000000.0 176054000000.0 178998000000.0 128762000000.0 213986000000.0 277815000000.0 152770000000.0 198942000000.0 140362000000.0 85294300000.0 316773000000.0 645746000000.0 307567000000.0 355876000000.0 204721000000.0 199536000000.0 48149100000.0 18259100.0 57916200000.0 41196100000.0 89162900000.0 103259000000.0 113927000000.0 121266000000.0 126228000000.0 129596000000.0 131899000000.0 133372000000.0 134072000000.0 134139000000.0 133872000000.0 133519000000.0 133146000000.0 132802000000.0 132690000000.0 132802000000.0 133146000000.0 133519000000.0 133872000000.0 134139000000.0 134072000000.0 133372000000.0 131899000000.0 129596000000.0 126228000000.0 121266000000.0 113927000000.0 103259000000.0 89162900000.0 41196200000.0 57916200000.0 18256700.0 48149100000.0 199536000000.0 204721000000.0 355876000000.0 307567000000.0 645746000000.0 316773000000.0 85294300000.0 49476400000.0 365858000000.0 366383000000.0 401184000000.0 389511000000.0 389511000000.0 401184000000.0 366383000000.0 365858000000.0 49476400000.0 18848900000.0 282146000000.0 292590000000.0 490780000000.0 445652000000.0 572353000000.0 788368000000.0 331835000000.0 381345000000.0 130048000000.0 60631700000.0 118046000000.0 15922300000.0 111357000000.0 45737600000.0 105535000000.0 108951000000.0 111754000000.0 113302000000.0 114182000000.0 114736000000.0 114330000000.0 113213000000.0 112554000000.0 112910000000.0 113987000000.0 115260000000.0 116341000000.0 116980000000.0 117234000000.0 116980000000.0 116341000000.0 115260000000.0 113987000000.0 112910000000.0 112554000000.0 113213000000.0 114330000000.0 114736000000.0 114182000000.0 113302000000.0 111754000000.0 108951000000.0 105535000000.0 45737600000.0 111357000000.0 15922300000.0 118046000000.0 60631700000.0 130048000000.0 381345000000.0 331835000000.0 788368000000.0 572353000000.0 445652000000.0 490780000000.0 292590000000.0 282146000000.0 18848900000.0 96893900000.0 19476700000.0 262813000000.0 258236000000.0 656740000000.0 570097000000.0 163770000000.0 119024000000.0 217203000000.0 152231000000.0 113630000000.0 33894200000.0 147703000000.0 61700500000.0 140560000000.0 136177000000.0 133636000000.0 128760000000.0 129687000000.0 136629000000.0 146303000000.0 156038000000.0 164672000000.0 171921000000.0 177808000000.0 182361000000.0 185609000000.0 187543000000.0 188223000000.0 187543000000.0 185609000000.0 182361000000.0 177808000000.0 171921000000.0 164672000000.0 156038000000.0 146303000000.0 136629000000.0 129687000000.0 128760000000.0 133636000000.0 136177000000.0 140560000000.0 61700500000.0 147703000000.0 33894200000.0 113630000000.0 152231000000.0 217203000000.0 119024000000.0 163770000000.0 570097000000.0 656740000000.0 258236000000.0 262813000000.0 19476700000.0 96893900000.0 194712000000.0 148227000000.0 386528000000.0 758474000000.0 524328000000.0 445789000000.0 81012700000.0 178107000000.0 178107000000.0 81012700000.0 445789000000.0 524328000000.0 758474000000.0 386528000000.0 148227000000.0 194712000000.0 174978000000.0 4251760000.0 74964200000.0 276287000000.0 392954000000.0 288074000000.0 671375000000.0 284940000000.0 138022000000.0 203979000000.0 261367000000.0 163872000000.0 182647000000.0 52803900000.0 136452000000.0 44649600000.0 160213000000.0 162865000000.0 176057000000.0 183947000000.0 191836000000.0 199407000000.0 206268000000.0 212217000000.0 217505000000.0 222177000000.0 225959000000.0 228806000000.0 230802000000.0 232089000000.0 232539000000.0 232089000000.0 230802000000.0 228806000000.0 225959000000.0 222177000000.0 217505000000.0 212217000000.0 206268000000.0 199407000000.0 191836000000.0 183947000000.0 176057000000.0 162865000000.0 160213000000.0 44649600000.0 136452000000.0 52803900000.0 182647000000.0 163872000000.0 261367000000.0 203979000000.0 138022000000.0 284940000000.0 671375000000.0 288074000000.0 392954000000.0 276287000000.0 74964200000.0 4251760000.0 174978000000.0 134022000000.0 530525000000.0 82766000000.0 121322000000.0 211416000000.0 30738600000.0 1.02526e+12 629523000000.0 167348000000.0 389319000000.0 202981000000.0 103715000000.0 265345000000.0 228501000000.0 158718000000.0 163553000000.0 189937000000.0 91961000000.0 212865000000.0 207639000000.0 215143000000.0 217088000000.0 220245000000.0 223837000000.0 227204000000.0 229921000000.0 232203000000.0 234199000000.0 235714000000.0 236746000000.0 237400000000.0 237859000000.0 238009000000.0 237859000000.0 237400000000.0 236746000000.0 235714000000.0 234199000000.0 232203000000.0 229921000000.0 227204000000.0 223837000000.0 220245000000.0 217088000000.0 215143000000.0 207639000000.0 212865000000.0 91961000000.0 189937000000.0 163553000000.0 158718000000.0 228501000000.0 265345000000.0 103715000000.0 202981000000.0 389319000000.0 167348000000.0 629523000000.0 1.02526e+12 30738600000.0 211416000000.0 121322000000.0 82766000000.0 530525000000.0 134022000000.0 100770000000.0 270954000000.0 325621000000.0 165066000000.0 391122000000.0 1.28803e+12 330487000000.0 394177000000.0 173505000000.0 322146000000.0 322146000000.0 173505000000.0 394177000000.0 330487000000.0 1.28803e+12 391122000000.0 165066000000.0 325621000000.0 270954000000.0 100770000000.0 56755700000.0 81125300000.0 401907000000.0 714646000000.0 304177000000.0 228614000000.0 215773000000.0 137637000000.0 36246600000.0 1.3587e+12 154967000000.0 397829000000.0 378723000000.0 280397000000.0 164019000000.0 200402000000.0 159339000000.0 174294000000.0 97237900000.0 221316000000.0 222523000000.0 235298000000.0 239721000000.0 243393000000.0 245986000000.0 247659000000.0 248493000000.0 248577000000.0 248375000000.0 248165000000.0 247852000000.0 247391000000.0 246988000000.0 246813000000.0 246988000000.0 247391000000.0 247852000000.0 248165000000.0 248375000000.0 248577000000.0 248493000000.0 247659000000.0 245986000000.0 243393000000.0 239721000000.0 235298000000.0 222523000000.0 221316000000.0 97237900000.0 174294000000.0 159339000000.0 200402000000.0 164019000000.0 280397000000.0 378723000000.0 397829000000.0 154967000000.0 1.3587e+12 36246600000.0 137637000000.0 215773000000.0 228614000000.0 304177000000.0 714646000000.0 401907000000.0 81125300000.0 56755700000.0 2484610000.0 306353000000.0 472086000000.0 702367000000.0 319253000000.0 217035000000.0 57090100000.0 341498000000.0 690310000000.0 163038000000.0 58112100000.0 143691000000.0 337187000000.0 303214000000.0 194633000000.0 193207000000.0 159647000000.0 261629000000.0 263640000000.0 272801000000.0 273507000000.0 272879000000.0 271315000000.0 269219000000.0 267052000000.0 264894000000.0 262937000000.0 261407000000.0 260113000000.0 258879000000.0 257913000000.0 257540000000.0 257913000000.0 258879000000.0 260113000000.0 261407000000.0 262937000000.0 264894000000.0 267052000000.0 269219000000.0 271315000000.0 272879000000.0 273507000000.0 272801000000.0 263640000000.0 261629000000.0 159647000000.0 193207000000.0 194633000000.0 303214000000.0 337187000000.0 143691000000.0 58112100000.0 163038000000.0 690310000000.0 341498000000.0 57090100000.0 217035000000.0 319253000000.0 702367000000.0 472086000000.0 306353000000.0 2484610000.0 64974600000.0 236541000000.0 390306000000.0 564888000000.0 216994000000.0 252614000000.0 486459000000.0 298737000000.0 664701000000.0 106424000000.0 321771000000.0 187492000000.0 219029000000.0 151369000000.0 34673700000.0 174170000000.0 174170000000.0 34673700000.0 151369000000.0 219029000000.0 187492000000.0 321771000000.0 106424000000.0 664701000000.0 298737000000.0 486459000000.0 252614000000.0 216994000000.0 564888000000.0 390306000000.0 236541000000.0 64974600000.0 98946500000.0 63697000000.0 158047000000.0 174503000000.0 247277000000.0 274614000000.0 708071000000.0 246325000000.0 25680200000.0 221271000000.0 78102000000.0 360652000000.0 396598000000.0 409607000000.0 352440000000.0 202534000000.0 333830000000.0 120514000000.0 248813000000.0 186761000000.0 274263000000.0 316410000000.0 318200000000.0 314596000000.0 306285000000.0 296790000000.0 286617000000.0 276591000000.0 267147000000.0 258387000000.0 250618000000.0 244158000000.0 239098000000.0 235516000000.0 233461000000.0 232811000000.0 233461000000.0 235516000000.0 239098000000.0 244158000000.0 250618000000.0 258387000000.0 267147000000.0 276591000000.0 286617000000.0 296790000000.0 306285000000.0 314596000000.0 318200000000.0 316410000000.0 274263000000.0 186761000000.0 248813000000.0 120514000000.0 333830000000.0 202534000000.0 352440000000.0 409607000000.0 396598000000.0 360652000000.0 78102000000.0 221271000000.0 25680200000.0 246325000000.0 708071000000.0 274614000000.0 247277000000.0 174503000000.0 158047000000.0 63697000000.0 98946500000.0 69778200000.0 74709200000.0 5726580000.0 95377200000.0 157157000000.0 592244000000.0 660930000000.0 101591000000.0 101004000000.0 263812000000.0 30052000000.0 166871000000.0 35678500000.0 284863000000.0 162832000000.0 187076000000.0 195219000000.0 214168000000.0 205032000000.0 187366000000.0 168134000000.0 149651000000.0 133124000000.0 117887000000.0 103561000000.0 90638900000.0 79542200000.0 70408900000.0 63271400000.0 58089100000.0 54890800000.0 53801900000.0 54890800000.0 58089100000.0 63271400000.0 70408900000.0 79542200000.0 90638900000.0 103561000000.0 117887000000.0 133124000000.0 149651000000.0 168134000000.0 187366000000.0 205032000000.0 214168000000.0 195219000000.0 187076000000.0 162832000000.0 284863000000.0 35678500000.0 166871000000.0 30052000000.0 263812000000.0 101004000000.0 101591000000.0 660930000000.0 592244000000.0 157157000000.0 95377200000.0 5726580000.0 74709200000.0 69778200000.0 138636000000.0 41223000000.0 120592000000.0 48119900000.0 557529000000.0 200480000000.0 366547000000.0 227469000000.0 218814000000.0 223692000000.0 301658000000.0 422368000000.0 173237000000.0 157538000000.0 67509000000.0 217455000000.0 217455000000.0 67509000000.0 157538000000.0 173237000000.0 422368000000.0 301658000000.0 223692000000.0 218814000000.0 227469000000.0 366547000000.0 200480000000.0 557529000000.0 48119900000.0 120592000000.0 41223000000.0 138636000000.0 6744230000.0 59831000000.0 79074500000.0 6837340000.0 127832000000.0 23266700000.0 585958000000.0 453503000000.0 279908000000.0 372456000000.0 198040000000.0 88138200000.0 420795000000.0 440862000000.0 664140000000.0 790573000000.0 600422000000.0 687182000000.0 519055000000.0 548362000000.0 430014000000.0 403082000000.0 481926000000.0 488436000000.0 516180000000.0 496419000000.0 473579000000.0 450549000000.0 426903000000.0 404978000000.0 385805000000.0 369117000000.0 354771000000.0 342829000000.0 333371000000.0 326497000000.0 322311000000.0 320904000000.0 322311000000.0 326497000000.0 333371000000.0 342829000000.0 354771000000.0 369117000000.0 385805000000.0 404978000000.0 426903000000.0 450549000000.0 473579000000.0 496419000000.0 516180000000.0 488436000000.0 481926000000.0 403082000000.0 430014000000.0 548362000000.0 519055000000.0 687182000000.0 600422000000.0 790573000000.0 664140000000.0 440862000000.0 420795000000.0 88138200000.0 198040000000.0 372456000000.0 279908000000.0 453503000000.0 585958000000.0 23266700000.0 127832000000.0 6837340000.0 79074500000.0 59831000000.0 6744230000.0 102296000000.0 49101800000.0 39459100000.0 78379400000.0 684633000000.0 456922000000.0 35100100000.0 292115000000.0 73141700000.0 53246800000.0 107275000000.0 322806000000.0 322806000000.0 107275000000.0 53246800000.0 73141700000.0 292115000000.0 35100100000.0 456922000000.0 684633000000.0 78379400000.0 39459100000.0 49101800000.0 102297000000.0 81109900000.0 67236500000.0 281218000000.0 210706000000.0 184830000000.0 19314500000.0 36797900000.0 162396000000.0 274643000000.0 217526000000.0 296956000000.0 490166000000.0 394008000000.0 362397000000.0 351317000000.0 335926000000.0 397820000000.0 274691000000.0 368304000000.0 261383000000.0 277393000000.0 240512000000.0 210494000000.0 182051000000.0 157256000000.0 135347000000.0 116099000000.0 99825500000.0 86466500000.0 75672100000.0 67272000000.0 61297900000.0 57767500000.0 56607900000.0 57767500000.0 61297900000.0 67272000000.0 75672100000.0 86466500000.0 99825500000.0 116099000000.0 135347000000.0 157256000000.0 182051000000.0 210494000000.0 240512000000.0 277393000000.0 261383000000.0 368304000000.0 274691000000.0 397820000000.0 335926000000.0 351317000000.0 362397000000.0 394008000000.0 490166000000.0 296956000000.0 217526000000.0 274643000000.0 162396000000.0 36797900000.0 19314500000.0 184830000000.0 210706000000.0 281218000000.0 67236500000.0 81109900000.0 62635200000.0 104038000000.0 82184000000.0 526718000000.0 10223600000.0 136807000000.0 85349400000.0 129468000000.0 27954900000.0 25841000000.0 41867700000.0 47275000000.0 45529700000.0 34887500000.0 78028300000.0 23131100000.0 120794000000.0 82403600000.0 134490000000.0 136089000000.0 141300000000.0 144262000000.0 146779000000.0 148798000000.0 150227000000.0 151174000000.0 151766000000.0 152059000000.0 152148000000.0 152164000000.0 152177000000.0 152185000000.0 152177000000.0 152164000000.0 152148000000.0 152059000000.0 151766000000.0 151174000000.0 150227000000.0 148798000000.0 146779000000.0 144262000000.0 141300000000.0 136089000000.0 134490000000.0 82403600000.0 120794000000.0 23131100000.0 78028300000.0 34887500000.0 45529700000.0 47275000000.0 41867700000.0 25841000000.0 27954900000.0 129468000000.0 85349400000.0 136807000000.0 10223600000.0 526718000000.0 82184000000.0 104038000000.0 62635200000.0 40990100000.0 249564000000.0 42522100000.0 82897800000.0 259007000000.0 100386000000.0 117440000000.0 220238000000.0 98474100000.0 191998000000.0 191998000000.0 98474100000.0 220238000000.0 117440000000.0 100386000000.0 259007000000.0 82897800000.0 42522100000.0 249564000000.0 40990100000.0 9302280000.0 120577000000.0 139794000000.0 2913690000.0 181158000000.0 174999000000.0 248905000000.0 117414000000.0 182333000000.0 202653000000.0 178022000000.0 202654000000.0 117777000000.0 7359810000.0 80951200000.0 25414800000.0 21537500000.0 43304400000.0 2338290000.0 72035100000.0 1604980000.0 80752800000.0 7881070000.0 25485500000.0 9035750000.0 9035750000.0 9035750000.0 9035750000.0 9035750000.0 9035750000.0 9035750000.0 9035750000.0 9035750000.0 9035750000.0 9035750000.0 9035750000.0 9035750000.0 9036240000.0 9035750000.0 9035750000.0 9035750000.0 9035750000.0 9035750000.0 9035750000.0 9035750000.0 9035750000.0 9035750000.0 9035750000.0 9035750000.0 9035750000.0 9035750000.0 25485500000.0 7881070000.0 80752800000.0 1604980000.0 72035100000.0 2338290000.0 43304400000.0 21537500000.0 25414800000.0 80951200000.0 7359810000.0 117777000000.0 202654000000.0 178022000000.0 202653000000.0 182333000000.0 117414000000.0 248905000000.0 174999000000.0 181158000000.0 2913690000.0 139794000000.0 120577000000.0 9302280000.0 27119700000.0 144591000000.0 80840200000.0 11652600000.0 26925000000.0 161200000000.0 149755000000.0 140058000000.0 53062600000.0 51863500000.0 203847000000.0 146843000000.0 173881000000.0 135366000000.0 121218000000.0 170461000000.0 115791000000.0 202205000000.0 153743000000.0 200902000000.0 191876000000.0 182281000000.0 172663000000.0 163678000000.0 154966000000.0 146246000000.0 137799000000.0 129959000000.0 122879000000.0 116647000000.0 111363000000.0 107129000000.0 104029000000.0 102134000000.0 101495000000.0 102134000000.0 104029000000.0 107129000000.0 111363000000.0 116647000000.0 122879000000.0 129959000000.0 137799000000.0 146246000000.0 154966000000.0 163678000000.0 172663000000.0 182281000000.0 191876000000.0 200902000000.0 153743000000.0 202205000000.0 115791000000.0 170461000000.0 121218000000.0 135366000000.0 173881000000.0 146843000000.0 203847000000.0 51863500000.0 53062600000.0 140058000000.0 149755000000.0 161200000000.0 26925000000.0 11652600000.0 80840200000.0 144591000000.0 27119700000.0 208162000000.0 190089000000.0 130586000000.0 130586000000.0 190089000000.0 208162000000.0 4970780000.0 149989000000.0 6218080000.0 133505000000.0 112319000000.0 60125700000.0 117152000000.0 171413000000.0 138066000000.0 78835500000.0 145042000000.0 114369000000.0 151592000000.0 9019960000.0 15008200000.0 15026300000.0 3494630000.0 57379500000.0 2598880000.0 83135100000.0 7488200000.0 38550700000.0 9035750000.0 9035750000.0 9035750000.0 9035750000.0 9035750000.0 9035750000.0 9035750000.0 9035750000.0 9035750000.0 9035750000.0 9035750000.0 9035750000.0 9035750000.0 9035750000.0 9035750000.0 9035760000.0 9035750000.0 9035750000.0 9035750000.0 9035750000.0 9035750000.0 9035750000.0 9035750000.0 9035750000.0 9035750000.0 9035750000.0 9035750000.0 9035750000.0 9035750000.0 9035750000.0 9035750000.0 38550700000.0 7488200000.0 83135100000.0 2598880000.0 57379500000.0 3494630000.0 15026300000.0 15008200000.0 9019960000.0 151592000000.0 114369000000.0 145042000000.0 78835500000.0 138066000000.0 171413000000.0 117152000000.0 60125700000.0 112319000000.0 133505000000.0 6218080000.0 149989000000.0 4970780000.0 57590800000.0 32076900000.0 36901800000.0 121105000000.0 103703000000.0 41117600000.0 117584000000.0 64948600000.0 17181000000.0 90927200000.0 87285100000.0 173024000000.0 199957000000.0 301377000000.0 264138000000.0 224787000000.0 207864000000.0 134367000000.0 172538000000.0 80825000000.0 145466000000.0 115352000000.0 111480000000.0 96316300000.0 83020600000.0 71228700000.0 60817100000.0 51719200000.0 43830200000.0 37046400000.0 31290600000.0 26494500000.0 22583000000.0 19480000000.0 17121700000.0 15464300000.0 14480600000.0 14154600000.0 14480600000.0 15464300000.0 17121700000.0 19480000000.0 22583000000.0 26494500000.0 31290600000.0 37046400000.0 43830200000.0 51719200000.0 60817100000.0 71228700000.0 83020600000.0 96316300000.0 111480000000.0 115352000000.0 145466000000.0 80825000000.0 172538000000.0 134367000000.0 207864000000.0 224787000000.0 264138000000.0 301377000000.0 199957000000.0 173024000000.0 87285100000.0 90927200000.0 17181000000.0 64948600000.0 117584000000.0 41117600000.0 103703000000.0 121105000000.0 36901800000.0 32076900000.0 57590800000.0 46489700000.0 4071990000.0 53361100000.0 24562000000.0 50925200000.0 15429700000.0 38647800000.0 28804800000.0 29596000000.0 23305600000.0 85990600000.0 86369600000.0 75362000000.0 27543100000.0 8116670000.0 40142300000.0 7219800000.0 69403100000.0 7364010000.0 81947800000.0 9115830000.0 11113100000.0 9035750000.0 9035750000.0 9035750000.0 9035750000.0 9035750000.0 9035750000.0 9035750000.0 9035750000.0 9035750000.0 9035750000.0 9035750000.0 9035750000.0 9035750000.0 9035750000.0 9035750000.0 9035750000.0 9035750000.0 9035750000.0 9035750000.0 9035750000.0 9035750000.0 9035750000.0 9035750000.0 9035750000.0 9035750000.0 9035750000.0 9035750000.0 9035750000.0 9035750000.0 9035750000.0 9035750000.0 11113100000.0 9115830000.0 81947800000.0 7364010000.0 69403100000.0 7219800000.0 40142300000.0 8116670000.0 27543100000.0 75362000000.0 86369600000.0 85990600000.0 23305600000.0 29596000000.0 28804800000.0 38647800000.0 15429700000.0 50925200000.0 24562000000.0 53361100000.0 4071990000.0 46489700000.0 46193000000.0 65616400000.0 20371700000.0 110222000000.0 125413000000.0 63106100000.0 112738000000.0 53690800000.0 45528700000.0 50888900000.0 65914800000.0 28241200000.0 4107110000.0 21784600000.0 36234000000.0 4929410000.0 25530000000.0 37200300000.0 17512700000.0 51314900000.0 11412000000.0 8390940000.0 5683960000.0 3331060000.0 1297500000.0 445580000.0 1925280000.0 3169180000.0 4205330000.0 5060960000.0 5760930000.0 6326740000.0 6776400000.0 7124660000.0 7383460000.0 7561950000.0 7666550000.0 7701010000.0 7666550000.0 7561950000.0 7383460000.0 7124660000.0 6776400000.0 6326740000.0 5760930000.0 5060960000.0 4205330000.0 3169180000.0 1925280000.0 445580000.0 1297500000.0 3331060000.0 5683960000.0 8390940000.0 11412000000.0 51314900000.0 17512700000.0 37200300000.0 25530000000.0 4929410000.0 36234000000.0 21784600000.0 4107110000.0 28241200000.0 65914800000.0 50888900000.0 45528700000.0 53690800000.0 112738000000.0 63106100000.0 125413000000.0 110222000000.0 20371700000.0 65616400000.0 46193000000.0 29349400000.0 67275700000.0 9012100000.0 77126300000.0 104216000000.0 55309600000.0 104698000000.0 64919700000.0 81890600000.0 100664000000.0 107899000000.0 79649500000.0 32044900000.0 32774400000.0 8858050000.0 47685000000.0 8869230000.0 63179000000.0 8916240000.0 64647900000.0 9035760000.0 9035760000.0 9035760000.0 9035760000.0 9035760000.0 9035760000.0 9035760000.0 9035760000.0 9035760000.0 9035750000.0 9035750000.0 9035750000.0 9035750000.0 9035750000.0 9035750000.0 9035750000.0 9035750000.0 9035750000.0 9035750000.0 9035750000.0 9035750000.0 9035750000.0 9035750000.0 9035750000.0 9035750000.0 9035750000.0 9035760000.0 9035760000.0 9035760000.0 9035760000.0 9035760000.0 9035760000.0 9035760000.0 9035760000.0 9035760000.0 64647900000.0 8916240000.0 63179000000.0 8869230000.0 47685000000.0 8858050000.0 32774400000.0 32044900000.0 79649500000.0 107899000000.0 100664000000.0 81890600000.0 64919700000.0 104698000000.0 55309600000.0 104216000000.0 77126300000.0 9012100000.0 67275700000.0 29349400000.0 24512300000.0 74687800000.0 21787300000.0 70587500000.0 97123000000.0 64319800000.0 105697000000.0 71006700000.0 98314900000.0 113834000000.0 100319000000.0 68871000000.0 14755700000.0 30469100000.0 6632170000.0 46547700000.0 7912950000.0 57896600000.0 9035770000.0 54764100000.0 9035790000.0 9035780000.0 9035770000.0 9035770000.0 9035770000.0 9035760000.0 9035760000.0 9035760000.0 9035760000.0 9035760000.0 9035760000.0 9035760000.0 9035750000.0 9035750000.0 9035750000.0 9035750000.0 9035750000.0 9035750000.0 9035750000.0 9035750000.0 9035750000.0 9035750000.0 9035750000.0 9035760000.0 9035760000.0 9035760000.0 9035760000.0 9035760000.0 9035760000.0 9035760000.0 9035770000.0 9035770000.0 9035770000.0 9035780000.0 9035790000.0 54764100000.0 9035770000.0 57896600000.0 7912950000.0 46547700000.0 6632170000.0 30469100000.0 14755700000.0 68871000000.0 100319000000.0 113834000000.0 98314900000.0 71006700000.0 105697000000.0 64319800000.0 97123000000.0 70587500000.0 21787300000.0 74687800000.0 24512300000.0 25256300000.0 75008800000.0 26052000000.0 55153400000.0 78527900000.0 60511000000.0 96617800000.0 70724300000.0 103466000000.0 119955000000.0 98243300000.0 67742800000.0 11114300000.0 34250300000.0 9035810000.0 47993300000.0 9035790000.0 53276500000.0 9035810000.0 45515600000.0 9035810000.0 9035800000.0 9035790000.0 9035780000.0 9035780000.0 9035770000.0 9035770000.0 9035770000.0 9035760000.0 9035760000.0 9035760000.0 9035760000.0 9035760000.0 9035760000.0 9035750000.0 9035750000.0 9035750000.0 9035750000.0 9035750000.0 9035750000.0 9035750000.0 9035760000.0 9035760000.0 9035760000.0 9035760000.0 9035760000.0 9035760000.0 9035770000.0 9035770000.0 9035770000.0 9035780000.0 9035780000.0 9035790000.0 9035800000.0 9035810000.0 45515600000.0 9035810000.0 53276500000.0 9035790000.0 47993300000.0 9035810000.0 34250300000.0 11114300000.0 67742800000.0 98243300000.0 119955000000.0 103466000000.0 70724300000.0 96617800000.0 60511000000.0 78527900000.0 55153400000.0 26052000000.0 75008800000.0 25256300000.0 45370100000.0 65140600000.0 105613000000.0 119469000000.0 91459600000.0 62100800000.0 9159470000.0 34447400000.0 9035910000.0 46701000000.0 9035850000.0 48572000000.0 9035840000.0 37342300000.0 9035830000.0 9035810000.0 9035800000.0 9035790000.0 9035780000.0 9035780000.0 9035770000.0 9035770000.0 9035770000.0 9035760000.0 9035760000.0 9035760000.0 9035760000.0 9035760000.0 9035750000.0 9035750000.0 9035750000.0 9035750000.0 9035750000.0 9035750000.0 9035750000.0 9035760000.0 9035760000.0 9035760000.0 9035760000.0 9035760000.0 9035770000.0 9035770000.0 9035770000.0 9035780000.0 9035780000.0 9035790000.0 9035800000.0 9035810000.0 9035830000.0 37342300000.0 9035840000.0 48572000000.0 9035850000.0 46701000000.0 9035910000.0 34447400000.0 9159470000.0 62100800000.0 91459600000.0 119469000000.0 105613000000.0 65140600000.0 45370100000.0 28341600000.0 74250200000.0 30772600000.0 60045400000.0 91162900000.0 72601300000.0 72601300000.0 91162900000.0 60045400000.0 30772600000.0 74250200000.0 28341600000.0 31430700000.0 72625200000.0 34351600000.0 37749200000.0 53062500000.0 58142300000.0 85642900000.0 73010900000.0 103999000000.0 115535000000.0 84518500000.0 57057700000.0 9039010000.0 34358100000.0 9036000000.0 44806700000.0 9035910000.0 44094900000.0 9035870000.0 30399500000.0 9035850000.0 9035830000.0 9035810000.0 9035800000.0 9035790000.0 9035780000.0 9035780000.0 9035770000.0 9035770000.0 9035770000.0 9035760000.0 9035760000.0 9035760000.0 9035760000.0 9035760000.0 9035750000.0 9035750000.0 9035750000.0 9035750000.0 9035750000.0 9035760000.0 9035760000.0 9035760000.0 9035760000.0 9035760000.0 9035770000.0 9035770000.0 9035770000.0 9035780000.0 9035780000.0 9035790000.0 9035800000.0 9035810000.0 9035830000.0 9035850000.0 30399500000.0 9035870000.0 44094900000.0 9035910000.0 44806700000.0 9036000000.0 34358100000.0 9039010000.0 57057700000.0 84518500000.0 115535000000.0 103999000000.0 73010900000.0 85642900000.0 58142300000.0 53062500000.0 37749200000.0 34351600000.0 72625200000.0 31430700000.0 9036380000.0 9036100000.0 9035960000.0 39850700000.0 9035900000.0 24710000000.0 9035870000.0 9035840000.0 9035820000.0 9035810000.0 9035800000.0 9035790000.0 9035780000.0 9035780000.0 9035770000.0 9035770000.0 9035770000.0 9035760000.0 9035760000.0 9035760000.0 9035760000.0 9035750000.0 9035750000.0 9035750000.0 9035750000.0 9035750000.0 9035760000.0 9035760000.0 9035760000.0 9035760000.0 9035770000.0 9035770000.0 9035770000.0 9035780000.0 9035780000.0 9035790000.0 9035800000.0 9035810000.0 9035820000.0 9035840000.0 9035870000.0 24710000000.0 9035900000.0 39850700000.0 9035960000.0 9036100000.0 9036380000.0 34059700000.0 70533200000.0 37294900000.0 32889200000.0 43488000000.0 56424200000.0 81594400000.0 72873100000.0 100206000000.0 109506000000.0 77453100000.0 52571400000.0 34000400000.0 42524300000.0 42524300000.0 34000400000.0 52571400000.0 77453100000.0 109506000000.0 100206000000.0 72873100000.0 81594400000.0 56424200000.0 43488000000.0 32889200000.0 37294900000.0 70533200000.0 34059700000.0 36190300000.0 68161300000.0 39623900000.0 29964200000.0 36154500000.0 54745200000.0 78563600000.0 72058100000.0 94884000000.0 102236000000.0 70363000000.0 48576400000.0 9036500000.0 33400800000.0 9036190000.0 40029300000.0 9036010000.0 35865400000.0 9035930000.0 20205200000.0 9035880000.0 9035860000.0 9035840000.0 9035820000.0 9035810000.0 9035800000.0 9035790000.0 9035780000.0 9035780000.0 9035770000.0 9035770000.0 9035760000.0 9035760000.0 9035760000.0 9035760000.0 9035750000.0 9035750000.0 9035750000.0 9035750000.0 9035750000.0 9035760000.0 9035760000.0 9035760000.0 9035760000.0 9035770000.0 9035770000.0 9035780000.0 9035780000.0 9035790000.0 9035800000.0 9035810000.0 9035820000.0 9035840000.0 9035860000.0 9035880000.0 20205200000.0 9035930000.0 35865400000.0 9036010000.0 40029300000.0 9036190000.0 33400800000.0 9036500000.0 48576400000.0 70363000000.0 102236000000.0 94884000000.0 72058100000.0 78563600000.0 54745200000.0 36154500000.0 29964200000.0 39623900000.0 68161300000.0 36190300000.0 37843900000.0 65595400000.0 41378200000.0 28127600000.0 30787200000.0 53090100000.0 76164700000.0 70591200000.0 88596700000.0 94381000000.0 63371200000.0 44954700000.0 9036650000.0 32590700000.0 9036270000.0 37449800000.0 9036060000.0 32171100000.0 9035950000.0 16759200000.0 9035900000.0 9035870000.0 9035840000.0 9035830000.0 9035810000.0 9035800000.0 9035790000.0 9035780000.0 9035780000.0 9035770000.0 9035770000.0 9035760000.0 9035760000.0 9035760000.0 9035760000.0 9035750000.0 9035750000.0 9035750000.0 9035750000.0 9035750000.0 9035760000.0 9035760000.0 9035760000.0 9035760000.0 9035770000.0 9035770000.0 9035780000.0 9035780000.0 9035790000.0 9035800000.0 9035810000.0 9035830000.0 9035840000.0 9035870000.0 9035900000.0 16759200000.0 9035950000.0 32171100000.0 9036060000.0 37449800000.0 9036270000.0 32590700000.0 9036650000.0 44954700000.0 63371200000.0 94381000000.0 88596700000.0 70591200000.0 76164700000.0 53090100000.0 30787200000.0 28127600000.0 41378200000.0 65595400000.0 37843900000.0 39052400000.0 62864900000.0 42601200000.0 26861500000.0 27056200000.0 51490700000.0 74081800000.0 68598500000.0 81788600000.0 86406100000.0 56601800000.0 41613100000.0 9036790000.0 31604300000.0 9036340000.0 34872200000.0 9036100000.0 28793600000.0 9035980000.0 14213000000.0 9035910000.0 9035880000.0 9035850000.0 9035830000.0 9035820000.0 9035800000.0 9035790000.0 9035790000.0 9035780000.0 9035770000.0 9035770000.0 9035770000.0 9035760000.0 9035760000.0 9035760000.0 9035750000.0 9035750000.0 9035750000.0 9035750000.0 9035750000.0 9035760000.0 9035760000.0 9035760000.0 9035770000.0 9035770000.0 9035770000.0 9035780000.0 9035790000.0 9035790000.0 9035800000.0 9035820000.0 9035830000.0 9035850000.0 9035880000.0 9035910000.0 14213000000.0 9035980000.0 28793600000.0 9036100000.0 34872200000.0 9036340000.0 31604300000.0 9036790000.0 41613100000.0 56601800000.0 86406100000.0 81788600000.0 68598500000.0 74081800000.0 51490700000.0 27056200000.0 26861500000.0 42601200000.0 62864900000.0 39052400000.0 39852100000.0 59996100000.0 43338000000.0 25943500000.0 24583000000.0 49979500000.0 72010900000.0 66237400000.0 74792300000.0 78624500000.0 50166900000.0 38516400000.0 9036910000.0 30478000000.0 9036410000.0 32353100000.0 9036140000.0 25747600000.0 9036000000.0 12395800000.0 9035920000.0 9035890000.0 9035860000.0 9035840000.0 9035820000.0 9035810000.0 9035800000.0 9035790000.0 9035780000.0 9035780000.0 9035770000.0 9035770000.0 9035760000.0 9035760000.0 9035760000.0 9035750000.0 9035750000.0 9035750000.0 9035750000.0 9035750000.0 9035760000.0 9035760000.0 9035760000.0 9035770000.0 9035770000.0 9035780000.0 9035780000.0 9035790000.0 9035800000.0 9035810000.0 9035820000.0 9035840000.0 9035860000.0 9035890000.0 9035920000.0 12395800000.0 9036000000.0 25747600000.0 9036140000.0 32353100000.0 9036410000.0 30478000000.0 9036910000.0 38516400000.0 50166900000.0 78624500000.0 74792300000.0 66237400000.0 72010900000.0 49979500000.0 24583000000.0 25943500000.0 43338000000.0 59996100000.0 39852100000.0 40283000000.0 57036200000.0 43636700000.0 25282400000.0 22980600000.0 48563300000.0 69718400000.0 63641900000.0 67854100000.0 71243100000.0 44166400000.0 35667500000.0 9037030000.0 29249600000.0 9036470000.0 29932400000.0 9036170000.0 23036100000.0 9036020000.0 11143600000.0 9035930000.0 9035890000.0 9035870000.0 9035840000.0 9035830000.0 9035810000.0 9035800000.0 9035790000.0 9035780000.0 9035780000.0 9035770000.0 9035770000.0 9035760000.0 9035760000.0 9035760000.0 9035750000.0 9035750000.0 9035750000.0 9035750000.0 9035750000.0 9035760000.0 9035760000.0 9035760000.0 9035770000.0 9035770000.0 9035780000.0 9035780000.0 9035790000.0 9035800000.0 9035810000.0 9035830000.0 9035840000.0 9035870000.0 9035890000.0 9035930000.0 11143600000.0 9036020000.0 23036100000.0 9036170000.0 29932400000.0 9036470000.0 29249600000.0 9037030000.0 35667500000.0 44166400000.0 71243100000.0 67854100000.0 63641900000.0 69718400000.0 48563300000.0 22980600000.0 25282400000.0 43636700000.0 57036200000.0 40283000000.0 40387100000.0 54047100000.0 43547700000.0 24818700000.0 21925800000.0 47215500000.0 67100400000.0 60906000000.0 61154700000.0 64390900000.0 38683100000.0 33075700000.0 9037130000.0 27955300000.0 9036530000.0 27639500000.0 9036200000.0 20651900000.0 9036030000.0 10310800000.0 9035940000.0 9035900000.0 9035870000.0 9035850000.0 9035830000.0 9035810000.0 9035800000.0 9035790000.0 9035780000.0 9035780000.0 9035770000.0 9035770000.0 9035760000.0 9035760000.0 9035760000.0 9035750000.0 9035750000.0 9035750000.0 9035750000.0 9035750000.0 9035760000.0 9035760000.0 9035760000.0 9035770000.0 9035770000.0 9035780000.0 9035780000.0 9035790000.0 9035800000.0 9035810000.0 9035830000.0 9035850000.0 9035870000.0 9035900000.0 9035940000.0 10310800000.0 9036030000.0 20651900000.0 9036200000.0 27639500000.0 9036530000.0 27955300000.0 9037130000.0 33075700000.0 38683100000.0 64390900000.0 61154700000.0 60906000000.0 67100400000.0 47215500000.0 21925800000.0 24818700000.0 43547700000.0 54047100000.0 40387100000.0 40206800000.0 51090700000.0 43122600000.0 24497100000.0 21198300000.0 45891700000.0 64161600000.0 58090300000.0 54822100000.0 58138500000.0 33772300000.0 30739300000.0 9037220000.0 26626900000.0 9036570000.0 25495200000.0 9036220000.0 18579900000.0 9036040000.0 9777100000.0 9035940000.0 9035900000.0 9035870000.0 9035850000.0 9035830000.0 9035820000.0 9035800000.0 9035790000.0 9035780000.0 9035780000.0 9035770000.0 9035770000.0 9035760000.0 9035760000.0 9035760000.0 9035750000.0 9035750000.0 9035750000.0 9035750000.0 9035750000.0 9035760000.0 9035760000.0 9035760000.0 9035770000.0 9035770000.0 9035780000.0 9035780000.0 9035790000.0 9035800000.0 9035820000.0 9035830000.0 9035850000.0 9035870000.0 9035900000.0 9035940000.0 9777100000.0 9036040000.0 18579900000.0 9036220000.0 25495200000.0 9036570000.0 26626900000.0 9037220000.0 30739300000.0 33772300000.0 58138500000.0 54822100000.0 58090300000.0 64161600000.0 45891700000.0 21198300000.0 24497100000.0 43122600000.0 51090700000.0 40206800000.0 39782900000.0 48219100000.0 42412300000.0 24264400000.0 20663900000.0 44553300000.0 60962300000.0 55234400000.0 48940800000.0 52512300000.0 29457100000.0 28643900000.0 9037290000.0 25291200000.0 9036610000.0 23511900000.0 9036240000.0 16799300000.0 9036050000.0 9448410000.0 9035950000.0 9035910000.0 9035880000.0 9035850000.0 9035830000.0 9035820000.0 9035800000.0 9035790000.0 9035790000.0 9035780000.0 9035770000.0 9035770000.0 9035760000.0 9035760000.0 9035760000.0 9035750000.0 9035750000.0 9035750000.0 9035750000.0 9035750000.0 9035760000.0 9035760000.0 9035760000.0 9035770000.0 9035770000.0 9035780000.0 9035790000.0 9035790000.0 9035800000.0 9035820000.0 9035830000.0 9035850000.0 9035880000.0 9035910000.0 9035950000.0 9448410000.0 9036050000.0 16799300000.0 9036240000.0 23511900000.0 9036610000.0 25291200000.0 9037290000.0 28643900000.0 29457100000.0 52512300000.0 48940800000.0 55234400000.0 60962300000.0 44553300000.0 20663900000.0 24264400000.0 42412300000.0 48219100000.0 39782900000.0 39154000000.0 45470500000.0 41465700000.0 24073000000.0 20239600000.0 43179200000.0 57579000000.0 52365900000.0 43559400000.0 47505300000.0 25730900000.0 26767500000.0 9037350000.0 23969900000.0 9036640000.0 21695100000.0 9036260000.0 15286400000.0 9036060000.0 9254560000.0 9035950000.0 9035910000.0 9035880000.0 9035850000.0 9035830000.0 9035820000.0 9035800000.0 9035790000.0 9035790000.0 9035780000.0 9035770000.0 9035770000.0 9035760000.0 9035760000.0 9035760000.0 9035750000.0 9035750000.0 9035750000.0 9035750000.0 9035750000.0 9035760000.0 9035760000.0 9035760000.0 9035770000.0 9035770000.0 9035780000.0 9035790000.0 9035790000.0 9035800000.0 9035820000.0 9035830000.0 9035850000.0 9035880000.0 9035910000.0 9035950000.0 9254560000.0 9036060000.0 15286400000.0 9036260000.0 21695100000.0 9036640000.0 23969900000.0 9037350000.0 26767500000.0 25730900000.0 47505300000.0 43559400000.0 52365900000.0 57579000000.0 43179200000.0 20239600000.0 24073000000.0 41465700000.0 45470500000.0 39154000000.0 38355900000.0 42870000000.0 40328600000.0 23883500000.0 19870700000.0 41764300000.0 54087200000.0 49506600000.0 38698600000.0 43087400000.0 22563300000.0 25085500000.0 9037400000.0 22679900000.0 9036660000.0 20044500000.0 9036270000.0 14015600000.0 9036070000.0 9145600000.0 9035950000.0 9035910000.0 9035880000.0 9035850000.0 9035830000.0 9035820000.0 9035800000.0 9035790000.0 9035790000.0 9035780000.0 9035770000.0 9035770000.0 9035760000.0 9035760000.0 9035760000.0 9035750000.0 9035750000.0 9035750000.0 9035750000.0 9035750000.0 9035760000.0 9035760000.0 9035760000.0 9035770000.0 9035770000.0 9035780000.0 9035790000.0 9035790000.0 9035800000.0 9035820000.0 9035830000.0 9035850000.0 9035880000.0 9035910000.0 9035950000.0 9145600000.0 9036070000.0 14015600000.0 9036270000.0 20044500000.0 9036660000.0 22679900000.0 9037400000.0 25085500000.0 22563300000.0 43087400000.0 38698600000.0 49506600000.0 54087200000.0 41764300000.0 19870700000.0 23883500000.0 40328600000.0 42870000000.0 38355900000.0 37421000000.0 40431100000.0 39042900000.0 23667100000.0 19520800000.0 40313000000.0 50555900000.0 46676100000.0 34357600000.0 39213500000.0 19907800000.0 23573700000.0 9037440000.0 21434600000.0 9036680000.0 18556200000.0 9036280000.0 12960700000.0 9036070000.0 9087620000.0 9035950000.0 9035910000.0 9035880000.0 9035850000.0 9035830000.0 9035820000.0 9035800000.0 9035790000.0 9035790000.0 9035780000.0 9035770000.0 9035770000.0 9035760000.0 9035760000.0 9035760000.0 9035750000.0 9035750000.0 9035750000.0 9035750000.0 9035750000.0 9035760000.0 9035760000.0 9035760000.0 9035770000.0 9035770000.0 9035780000.0 9035790000.0 9035790000.0 9035800000.0 9035820000.0 9035830000.0 9035850000.0 9035880000.0 9035910000.0 9035950000.0 9087620000.0 9036070000.0 12960700000.0 9036280000.0 18556200000.0 9036680000.0 21434600000.0 9037440000.0 23573700000.0 19907800000.0 39213500000.0 34357600000.0 46676100000.0 50555900000.0 40313000000.0 19520800000.0 23667100000.0 39042900000.0 40431100000.0 37421000000.0 36378400000.0 38158400000.0 37646400000.0 23405700000.0 19168100000.0 38833400000.0 47046600000.0 43893700000.0 30520400000.0 35830400000.0 17709100000.0 22209700000.0 9037460000.0 20244100000.0 9036690000.0 17223400000.0 9036280000.0 12095600000.0 9036070000.0 9058650000.0 9035950000.0 9035910000.0 9035880000.0 9035850000.0 9035830000.0 9035820000.0 9035800000.0 9035790000.0 9035790000.0 9035780000.0 9035770000.0 9035770000.0 9035760000.0 9035760000.0 9035760000.0 9035750000.0 9035750000.0 9035750000.0 9035750000.0 9035750000.0 9035760000.0 9035760000.0 9035760000.0 9035770000.0 9035770000.0 9035780000.0 9035790000.0 9035790000.0 9035800000.0 9035820000.0 9035830000.0 9035850000.0 9035880000.0 9035910000.0 9035950000.0 9058650000.0 9036070000.0 12095600000.0 9036280000.0 17223400000.0 9036690000.0 20244100000.0 9037460000.0 22209700000.0 17709100000.0 35830400000.0 30520400000.0 43893700000.0 47046600000.0 38833400000.0 19168100000.0 23405700000.0 37646400000.0 38158400000.0 36378400000.0 35253800000.0 36049900000.0 36172400000.0 23090600000.0 18800700000.0 37334200000.0 43612100000.0 41178700000.0 27159900000.0 32881600000.0 15908900000.0 20973400000.0 9037470000.0 19116100000.0 9036690000.0 16037800000.0 9036280000.0 11395000000.0 9036070000.0 9045190000.0 9035950000.0 9035910000.0 9035880000.0 9035850000.0 9035830000.0 9035820000.0 9035800000.0 9035790000.0 9035780000.0 9035780000.0 9035770000.0 9035770000.0 9035760000.0 9035760000.0 9035760000.0 9035750000.0 9035750000.0 9035750000.0 9035750000.0 9035750000.0 9035760000.0 9035760000.0 9035760000.0 9035770000.0 9035770000.0 9035780000.0 9035780000.0 9035790000.0 9035800000.0 9035820000.0 9035830000.0 9035850000.0 9035880000.0 9035910000.0 9035950000.0 9045190000.0 9036070000.0 11395000000.0 9036280000.0 16037800000.0 9036690000.0 19116100000.0 9037470000.0 20973400000.0 15908900000.0 32881600000.0 27159900000.0 41178700000.0 43612100000.0 37334200000.0 18800700000.0 23090600000.0 36172400000.0 36049900000.0 35253800000.0 34069500000.0 34098500000.0 34649800000.0 22719900000.0 18414100000.0 35823200000.0 40296300000.0 38550200000.0 24242200000.0 30311100000.0 14449800000.0 19847800000.0 9037470000.0 18056000000.0 9036690000.0 14989900000.0 9036280000.0 10834500000.0 9036070000.0 9039420000.0 9035950000.0 9035910000.0 9035870000.0 9035850000.0 9035830000.0 9035810000.0 9035800000.0 9035790000.0 9035780000.0 9035780000.0 9035770000.0 9035770000.0 9035760000.0 9035760000.0 9035760000.0 9035750000.0 9035750000.0 9035750000.0 9035750000.0 9035750000.0 9035760000.0 9035760000.0 9035760000.0 9035770000.0 9035770000.0 9035780000.0 9035780000.0 9035790000.0 9035800000.0 9035810000.0 9035830000.0 9035850000.0 9035870000.0 9035910000.0 9035950000.0 9039420000.0 9036070000.0 10834500000.0 9036280000.0 14989900000.0 9036690000.0 18056000000.0 9037470000.0 19847800000.0 14449800000.0 30311100000.0 24242200000.0 38550200000.0 40296300000.0 35823200000.0 18414100000.0 22719900000.0 34649800000.0 34098500000.0 34069500000.0 32844500000.0 32294300000.0 33103600000.0 22295800000.0 18007700000.0 34308200000.0 37133900000.0 36025900000.0 21729000000.0 28065600000.0 13278000000.0 18818900000.0 9037460000.0 17067500000.0 9036680000.0 14069600000.0 9036280000.0 10391800000.0 9036060000.0 9037170000.0 9035940000.0 9035900000.0 9035870000.0 9035850000.0 9035830000.0 9035810000.0 9035800000.0 9035790000.0 9035780000.0 9035780000.0 9035770000.0 9035770000.0 9035760000.0 9035760000.0 9035760000.0 9035750000.0 9035750000.0 9035750000.0 9035750000.0 9035750000.0 9035760000.0 9035760000.0 9035760000.0 9035770000.0 9035770000.0 9035780000.0 9035780000.0 9035790000.0 9035800000.0 9035810000.0 9035830000.0 9035850000.0 9035870000.0 9035900000.0 9035940000.0 9037170000.0 9036060000.0 10391800000.0 9036280000.0 14069600000.0 9036680000.0 17067500000.0 9037460000.0 18818900000.0 13278000000.0 28065600000.0 21729000000.0 36025900000.0 37133900000.0 34308200000.0 18007700000.0 22295800000.0 33103600000.0 32294300000.0 32844500000.0 31595100000.0 30624900000.0 31554500000.0 21823000000.0 17583800000.0 32796500000.0 34150200000.0 33621500000.0 19580700000.0 26096400000.0 12344800000.0 17875400000.0 9037440000.0 16152200000.0 9036670000.0 13266700000.0 9036270000.0 10046500000.0 9036060000.0 9036360000.0 9035940000.0 9035900000.0 9035870000.0 9035850000.0 9035830000.0 9035810000.0 9035800000.0 9035790000.0 9035780000.0 9035780000.0 9035770000.0 9035770000.0 9035760000.0 9035760000.0 9035760000.0 9035750000.0 9035750000.0 9035750000.0 9035750000.0 9035750000.0 9035760000.0 9035760000.0 9035760000.0 9035770000.0 9035770000.0 9035780000.0 9035780000.0 9035790000.0 9035800000.0 9035810000.0 9035830000.0 9035850000.0 9035870000.0 9035900000.0 9035940000.0 9036360000.0 9036060000.0 10046500000.0 9036270000.0 13266700000.0 9036670000.0 16152200000.0 9037440000.0 17875400000.0 12344800000.0 26096400000.0 19580700000.0 33621500000.0 34150200000.0 32796500000.0 17583800000.0 21823000000.0 31554500000.0 30624900000.0 31595100000.0 30334500000.0 29077100000.0 30019900000.0 21307500000.0 17145600000.0 31295300000.0 31362500000.0 31349300000.0 17757200000.0 24360600000.0 11607000000.0 17008300000.0 9037420000.0 15310700000.0 9036650000.0 12570700000.0 9036260000.0 9780550000.0 9036050000.0 9036090000.0 9035930000.0 9035890000.0 9035870000.0 9035840000.0 9035820000.0 9035810000.0 9035800000.0 9035790000.0 9035780000.0 9035780000.0 9035770000.0 9035770000.0 9035760000.0 9035760000.0 9035760000.0 9035750000.0 9035750000.0 9035750000.0 9035750000.0 9035750000.0 9035760000.0 9035760000.0 9035760000.0 9035770000.0 9035770000.0 9035780000.0 9035780000.0 9035790000.0 9035800000.0 9035810000.0 9035820000.0 9035840000.0 9035870000.0 9035890000.0 9035930000.0 9036090000.0 9036050000.0 9780550000.0 9036260000.0 12570700000.0 9036650000.0 15310700000.0 9037420000.0 17008300000.0 11607000000.0 24360600000.0 17757200000.0 31349300000.0 31362500000.0 31295300000.0 17145600000.0 21307500000.0 30019900000.0 29077100000.0 30334500000.0 29073800000.0 27637500000.0 28513900000.0 20755800000.0 16697000000.0 29811600000.0 28780900000.0 29217800000.0 16219600000.0 22820800000.0 11027500000.0 16210200000.0 9037380000.0 14541800000.0 9036630000.0 11971300000.0 9036250000.0 9578240000.0 9036040000.0 9036010000.0 9035930000.0 9035890000.0 9035860000.0 9035840000.0 9035820000.0 9035810000.0 9035800000.0 9035790000.0 9035780000.0 9035770000.0 9035770000.0 9035770000.0 9035760000.0 9035760000.0 9035760000.0 9035750000.0 9035750000.0 9035750000.0 9035750000.0 9035750000.0 9035760000.0 9035760000.0 9035760000.0 9035770000.0 9035770000.0 9035770000.0 9035780000.0 9035790000.0 9035800000.0 9035810000.0 9035820000.0 9035840000.0 9035860000.0 9035890000.0 9035930000.0 9036010000.0 9036040000.0 9578240000.0 9036250000.0 11971300000.0 9036630000.0 14541800000.0 9037380000.0 16210200000.0 11027500000.0 22820800000.0 16219600000.0 29217800000.0 28780900000.0 29811600000.0 16697000000.0 20755800000.0 28513900000.0 27637500000.0 29073800000.0 27821900000.0 26293000000.0 27047700000.0 20174500000.0 16242000000.0 28352400000.0 26409600000.0 27231700000.0 14931100000.0 21445500000.0 10575000000.0 15475300000.0 9037330000.0 13843700000.0 9036600000.0 11458700000.0 9036230000.0 9426270000.0 9036030000.0 9035980000.0 9035920000.0 9035890000.0 9035860000.0 9035840000.0 9035820000.0 9035810000.0 9035800000.0 9035790000.0 9035780000.0 9035770000.0 9035770000.0 9035760000.0 9035760000.0 9035760000.0 9035760000.0 9035750000.0 9035750000.0 9035750000.0 9035750000.0 9035750000.0 9035760000.0 9035760000.0 9035760000.0 9035760000.0 9035770000.0 9035770000.0 9035780000.0 9035790000.0 9035800000.0 9035810000.0 9035820000.0 9035840000.0 9035860000.0 9035890000.0 9035920000.0 9035980000.0 9036030000.0 9426270000.0 9036230000.0 11458700000.0 9036600000.0 13843700000.0 9037330000.0 15475300000.0 10575000000.0 21445500000.0 14931100000.0 27231700000.0 26409600000.0 28352400000.0 16242000000.0 20174500000.0 27047700000.0 26293000000.0 27821900000.0 26585800000.0 25031200000.0 25629700000.0 19570200000.0 15784300000.0 26924100000.0 24247900000.0 25391900000.0 13857500000.0 20208800000.0 10223400000.0 14798900000.0 9037280000.0 13213800000.0 9036580000.0 11023200000.0 9036210000.0 9313530000.0 9036020000.0 9035960000.0 9035910000.0 9035880000.0 9035850000.0 9035830000.0 9035820000.0 9035800000.0 9035790000.0 9035790000.0 9035780000.0 9035770000.0 9035770000.0 9035760000.0 9035760000.0 9035760000.0 9035760000.0 9035750000.0 9035750000.0 9035750000.0 9035750000.0 9035750000.0 9035760000.0 9035760000.0 9035760000.0 9035760000.0 9035770000.0 9035770000.0 9035780000.0 9035790000.0 9035790000.0 9035800000.0 9035820000.0 9035830000.0 9035850000.0 9035880000.0 9035910000.0 9035960000.0 9036020000.0 9313530000.0 9036210000.0 11023200000.0 9036580000.0 13213800000.0 9037280000.0 14798900000.0 10223400000.0 20208800000.0 13857500000.0 25391900000.0 24247900000.0 26924100000.0 15784300000.0 19570200000.0 25629700000.0 25031200000.0 26585800000.0 25370800000.0 23841000000.0 24266200000.0 18948800000.0 15327100000.0 25532600000.0 22291300000.0 23696100000.0 12967500000.0 19089300000.0 9951330000.0 14176900000.0 9037220000.0 12648600000.0 9036540000.0 10655800000.0 9036200000.0 9230960000.0 9036010000.0 9035950000.0 9035910000.0 9035870000.0 9035850000.0 9035830000.0 9035810000.0 9035800000.0 9035790000.0 9035780000.0 9035780000.0 9035770000.0 9035770000.0 9035760000.0 9035760000.0 9035760000.0 9035760000.0 9035750000.0 9035750000.0 9035750000.0 9035750000.0 9035750000.0 9035760000.0 9035760000.0 9035760000.0 9035760000.0 9035770000.0 9035770000.0 9035780000.0 9035780000.0 9035790000.0 9035800000.0 9035810000.0 9035830000.0 9035850000.0 9035870000.0 9035910000.0 9035950000.0 9036010000.0 9230960000.0 9036200000.0 10655800000.0 9036540000.0 12648600000.0 9037220000.0 14176900000.0 9951330000.0 19089300000.0 12967500000.0 23696100000.0 22291300000.0 25532600000.0 15327100000.0 18948800000.0 24266200000.0 23841000000.0 25370800000.0 24180800000.0 22712400000.0 22961100000.0 18316000000.0 14873400000.0 24182900000.0 20531900000.0 22139100000.0 12233100000.0 18070100000.0 9741560000.0 13605600000.0 9037160000.0 12144500000.0 9036510000.0 10347900000.0 9036170000.0 9171250000.0 9036000000.0 9035940000.0 9035900000.0 9035870000.0 9035840000.0 9035830000.0 9035810000.0 9035800000.0 9035790000.0 9035780000.0 9035780000.0 9035770000.0 9035770000.0 9035760000.0 9035760000.0 9035760000.0 9035760000.0 9035750000.0 9035750000.0 9035750000.0 9035750000.0 9035750000.0 9035760000.0 9035760000.0 9035760000.0 9035760000.0 9035770000.0 9035770000.0 9035780000.0 9035780000.0 9035790000.0 9035800000.0 9035810000.0 9035830000.0 9035840000.0 9035870000.0 9035900000.0 9035940000.0 9036000000.0 9171250000.0 9036170000.0 10347900000.0 9036510000.0 12144500000.0 9037160000.0 13605600000.0 9741560000.0 18070100000.0 12233100000.0 22139100000.0 20531900000.0 24182900000.0 14873400000.0 18316000000.0 22961100000.0 22712400000.0 24180800000.0 23018500000.0 21636500000.0 21716600000.0 17676500000.0 14425600000.0 22879000000.0 18959500000.0 20713700000.0 11629600000.0 17137500000.0 9580270000.0 13082000000.0 9037090000.0 11697400000.0 9036470000.0 10091900000.0 9036150000.0 9128640000.0 9035980000.0 9035930000.0 9035890000.0 9035860000.0 9035840000.0 9035820000.0 9035810000.0 9035800000.0 9035790000.0 9035780000.0 9035780000.0 9035770000.0 9035770000.0 9035760000.0 9035760000.0 9035760000.0 9035760000.0 9035750000.0 9035750000.0 9035750000.0 9035750000.0 9035750000.0 9035760000.0 9035760000.0 9035760000.0 9035760000.0 9035770000.0 9035770000.0 9035780000.0 9035780000.0 9035790000.0 9035800000.0 9035810000.0 9035820000.0 9035840000.0 9035860000.0 9035890000.0 9035930000.0 9035980000.0 9128640000.0 9036150000.0 10091900000.0 9036470000.0 11697400000.0 9037090000.0 13082000000.0 9580270000.0 17137500000.0 11629600000.0 20713700000.0 18959500000.0 22879000000.0 14425600000.0 17676500000.0 21716600000.0 21636500000.0 23018500000.0 21885700000.0 20606000000.0 20533300000.0 17034800000.0 13985600000.0 21624200000.0 17562100000.0 19411200000.0 11135400000.0 16280600000.0 9456510000.0 12603000000.0 9037020000.0 11302800000.0 9036430000.0 9880310000.0 9036130000.0 9098620000.0 9035970000.0 9035920000.0 9035880000.0 9035860000.0 9035830000.0 9035820000.0 9035800000.0 9035790000.0 9035790000.0 9035780000.0 9035770000.0 9035770000.0 9035770000.0 9035760000.0 9035760000.0 9035760000.0 9035760000.0 9035750000.0 9035750000.0 9035750000.0 9035750000.0 9035750000.0 9035760000.0 9035760000.0 9035760000.0 9035760000.0 9035770000.0 9035770000.0 9035770000.0 9035780000.0 9035790000.0 9035790000.0 9035800000.0 9035820000.0 9035830000.0 9035860000.0 9035880000.0 9035920000.0 9035970000.0 9098620000.0 9036130000.0 9880310000.0 9036430000.0 11302800000.0 9037020000.0 12603000000.0 9456510000.0 16280600000.0 11135400000.0 19411200000.0 17562100000.0 21624200000.0 13985600000.0 17034800000.0 20533300000.0 20606000000.0 21885700000.0 20783000000.0 19614500000.0 19410500000.0 16394300000.0 13554900000.0 20420500000.0 16326500000.0 18221900000.0 10731800000.0 15490700000.0 9361650000.0 12165700000.0 9036940000.0 10956500000.0 9036390000.0 9706760000.0 9036110000.0 9077760000.0 9035960000.0 9035910000.0 9035870000.0 9035850000.0 9035830000.0 9035810000.0 9035800000.0 9035790000.0 9035780000.0 9035780000.0 9035770000.0 9035770000.0 9035760000.0 9035760000.0 9035760000.0 9035760000.0 9035760000.0 9035750000.0 9035750000.0 9035750000.0 9035750000.0 9035750000.0 9035760000.0 9035760000.0 9035760000.0 9035760000.0 9035760000.0 9035770000.0 9035770000.0 9035780000.0 9035780000.0 9035790000.0 9035800000.0 9035810000.0 9035830000.0 9035850000.0 9035870000.0 9035910000.0 9035960000.0 9077760000.0 9036110000.0 9706760000.0 9036390000.0 10956500000.0 9036940000.0 12165700000.0 9361650000.0 15490700000.0 10731800000.0 18221900000.0 16326500000.0 20420500000.0 13554900000.0 16394300000.0 19410500000.0 19614500000.0 20783000000.0 19710600000.0 18656700000.0 18346200000.0 15757900000.0 13134800000.0 19268800000.0 15238800000.0 17135700000.0 10403000000.0 14760500000.0 9288930000.0 11767400000.0 9036850000.0 10654000000.0 9036340000.0 9565370000.0 9036080000.0 9063460000.0 9035940000.0 9035900000.0 9035870000.0 9035840000.0 9035820000.0 9035810000.0 9035800000.0 9035790000.0 9035780000.0 9035780000.0 9035770000.0 9035770000.0 9035760000.0 9035760000.0 9035760000.0 9035760000.0 9035750000.0 9035750000.0 9035750000.0 9035750000.0 9035750000.0 9035750000.0 9035750000.0 9035760000.0 9035760000.0 9035760000.0 9035760000.0 9035770000.0 9035770000.0 9035780000.0 9035780000.0 9035790000.0 9035800000.0 9035810000.0 9035820000.0 9035840000.0 9035870000.0 9035900000.0 9035940000.0 9063460000.0 9036080000.0 9565370000.0 9036340000.0 10654000000.0 9036850000.0 11767400000.0 9288930000.0 14760500000.0 10403000000.0 17135700000.0 15238800000.0 19268800000.0 13134800000.0 15757900000.0 18346200000.0 18656700000.0 19710600000.0 18667600000.0 17728100000.0 17337500000.0 15127900000.0 12725800000.0 18169100000.0 14284600000.0 16142300000.0 10135400000.0 14084000000.0 9233110000.0 11405200000.0 9036770000.0 10391000000.0 9036300000.0 9450970000.0 9036050000.0 9053790000.0 9035930000.0 9035890000.0 9035860000.0 9035830000.0 9035820000.0 9035800000.0 9035790000.0 9035790000.0 9035780000.0 9035770000.0 9035770000.0 9035770000.0 9035760000.0 9035760000.0 9035760000.0 9035760000.0 9035750000.0 9035750000.0 9035750000.0 9035750000.0 9035750000.0 9035750000.0 9035750000.0 9035760000.0 9035760000.0 9035760000.0 9035760000.0 9035770000.0 9035770000.0 9035770000.0 9035780000.0 9035790000.0 9035790000.0 9035800000.0 9035820000.0 9035830000.0 9035860000.0 9035890000.0 9035930000.0 9053790000.0 9036050000.0 9450970000.0 9036300000.0 10391000000.0 9036770000.0 11405200000.0 9233110000.0 14084000000.0 10135400000.0 16142300000.0 14284600000.0 18169100000.0 12725800000.0 15127900000.0 17337500000.0 17728100000.0 18667600000.0 17653000000.0 16825000000.0 16381100000.0 14505900000.0 12328400000.0 17120100000.0 13449800000.0 15231600000.0 9917680000.0 13455900000.0 9190100000.0 11076300000.0 9036680000.0 10163100000.0 9036250000.0 9359000000.0 9036030000.0 9047350000.0 9035910000.0 9035870000.0 9035850000.0 9035830000.0 9035810000.0 9035800000.0 9035790000.0 9035780000.0 9035780000.0 9035770000.0 9035770000.0 9035760000.0 9035760000.0 9035760000.0 9035760000.0 9035760000.0 9035750000.0 9035750000.0 9035750000.0 9035750000.0 9035750000.0 9035750000.0 9035750000.0 9035760000.0 9035760000.0 9035760000.0 9035760000.0 9035760000.0 9035770000.0 9035770000.0 9035780000.0 9035780000.0 9035790000.0 9035800000.0 9035810000.0 9035830000.0 9035850000.0 9035870000.0 9035910000.0 9047350000.0 9036030000.0 9359000000.0 9036250000.0 10163100000.0 9036680000.0 11076300000.0 9190100000.0 13455900000.0 9917680000.0 15231600000.0 13449800000.0 17120100000.0 12328400000.0 14505900000.0 16381100000.0 16825000000.0 17653000000.0 16665100000.0 15944200000.0 15472800000.0 13893000000.0 11942600000.0 16119800000.0 12720300000.0 14393800000.0 9740420000.0 12871200000.0 9156760000.0 10777800000.0 9036590000.0 9966270000.0 9036200000.0 9285510000.0 9036000000.0 9043110000.0 9035900000.0 9035860000.0 9035840000.0 9035820000.0 9035810000.0 9035790000.0 9035790000.0 9035780000.0 9035770000.0 9035770000.0 9035770000.0 9035760000.0 9035760000.0 9035760000.0 9035760000.0 9035760000.0 9035750000.0 9035750000.0 9035750000.0 9035750000.0 9035750000.0 9035750000.0 9035750000.0 9035760000.0 9035760000.0 9035760000.0 9035760000.0 9035760000.0 9035770000.0 9035770000.0 9035770000.0 9035780000.0 9035790000.0 9035790000.0 9035810000.0 9035820000.0 9035840000.0 9035860000.0 9035900000.0 9043110000.0 9036000000.0 9285510000.0 9036200000.0 9966270000.0 9036590000.0 10777800000.0 9156760000.0 12871200000.0 9740420000.0 14393800000.0 12720300000.0 16119800000.0 11942600000.0 13893000000.0 15472800000.0 15944200000.0 16665100000.0 15701900000.0 15082700000.0 14608000000.0 13289600000.0 11568100000.0 15165400000.0 12082500000.0 13619600000.0 9595710000.0 12325500000.0 9130680000.0 10506700000.0 9036490000.0 9796460000.0 9036150000.0 9227090000.0 9035970000.0 9040370000.0 9035880000.0 9035850000.0 9035830000.0 9035810000.0 9035800000.0 9035790000.0 9035780000.0 9035780000.0 9035770000.0 9035770000.0 9035760000.0 9035760000.0 9035760000.0 9035760000.0 9035760000.0 9035760000.0 9035750000.0 9035750000.0 9035750000.0 9035750000.0 9035750000.0 9035750000.0 9035750000.0 9035760000.0 9035760000.0 9035760000.0 9035760000.0 9035760000.0 9035760000.0 9035770000.0 9035770000.0 9035780000.0 9035780000.0 9035790000.0 9035800000.0 9035810000.0 9035830000.0 9035850000.0 9035880000.0 9040370000.0 9035970000.0 9227090000.0 9036150000.0 9796460000.0 9036490000.0 10506700000.0 9130680000.0 12325500000.0 9595710000.0 13619600000.0 12082500000.0 15165400000.0 11568100000.0 13289600000.0 14608000000.0 15082700000.0 15701900000.0 14761000000.0 14238100000.0 13781900000.0 12695700000.0 11204300000.0 14253000000.0 11523700000.0 12900000000.0 9477000000.0 11814100000.0 9109990000.0 10260000000.0 9036400000.0 9649930000.0 9036100000.0 9180840000.0 9035940000.0 9038620000.0 9035860000.0 9035840000.0 9035820000.0 9035800000.0 9035790000.0 9035790000.0 9035780000.0 9035770000.0 9035770000.0 9035770000.0 9035760000.0 9035760000.0 9035760000.0 9035760000.0 9035760000.0 9035750000.0 9035750000.0 9035750000.0 9035750000.0 9035750000.0 9035750000.0 9035750000.0 9035750000.0 9035750000.0 9035760000.0 9035760000.0 9035760000.0 9035760000.0 9035760000.0 9035770000.0 9035770000.0 9035770000.0 9035780000.0 9035790000.0 9035790000.0 9035800000.0 9035820000.0 9035840000.0 9035860000.0 9038620000.0 9035940000.0 9180840000.0 9036100000.0 9649930000.0 9036400000.0 10260000000.0 9109990000.0 11814100000.0 9477000000.0 12900000000.0 11523700000.0 14253000000.0 11204300000.0 12695700000.0 13781900000.0 14238100000.0 14761000000.0 13839900000.0 13407900000.0 12989700000.0 12111100000.0 10850400000.0 13378400000.0 11031300000.0 12226600000.0 9378830000.0 11332700000.0 9093310000.0 10034400000.0 9036300000.0 9523070000.0 9036050000.0 9144250000.0 9035910000.0 9037510000.0 9035850000.0 9035820000.0 9035810000.0 9035800000.0 9035790000.0 9035780000.0 9035770000.0 9035770000.0 9035770000.0 9035760000.0 9035760000.0 9035760000.0 9035760000.0 9035760000.0 9035760000.0 9035750000.0 9035750000.0 9035750000.0 9035750000.0 9035750000.0 9035750000.0 9035750000.0 9035750000.0 9035750000.0 9035760000.0 9035760000.0 9035760000.0 9035760000.0 9035760000.0 9035760000.0 9035770000.0 9035770000.0 9035770000.0 9035780000.0 9035790000.0 9035800000.0 9035810000.0 9035820000.0 9035850000.0 9037510000.0 9035910000.0 9144250000.0 9036050000.0 9523070000.0 9036300000.0 10034400000.0 9093310000.0 11332700000.0 9378830000.0 12226600000.0 11031300000.0 13378400000.0 10850400000.0 12111100000.0 12989700000.0 13407900000.0 13839900000.0 12935800000.0 12589900000.0 12226100000.0 11534800000.0 10505200000.0 12536500000.0 10593900000.0 11591400000.0 9296650000.0 10876900000.0 9079540000.0 9826900000.0 9036200000.0 9412470000.0 9035990000.0 9115220000.0 9035890000.0 9036820000.0 9035830000.0 9035810000.0 9035800000.0 9035790000.0 9035780000.0 9035780000.0 9035770000.0 9035770000.0 9035760000.0 9035760000.0 9035760000.0 9035760000.0 9035760000.0 9035760000.0 9035760000.0 9035750000.0 9035750000.0 9035750000.0 9035750000.0 9035750000.0 9035750000.0 9035750000.0 9035750000.0 9035750000.0 9035760000.0 9035760000.0 9035760000.0 9035760000.0 9035760000.0 9035760000.0 9035760000.0 9035770000.0 9035770000.0 9035780000.0 9035780000.0 9035790000.0 9035800000.0 9035810000.0 9035830000.0 9036820000.0 9035890000.0 9115220000.0 9035990000.0 9412470000.0 9036200000.0 9826900000.0 9079540000.0 10876900000.0 9296650000.0 11591400000.0 10593900000.0 12536500000.0 10505200000.0 11534800000.0 12226100000.0 12589900000.0 12935800000.0 12045600000.0 11781800000.0 11485900000.0 10965900000.0 10167400000.0 11722000000.0 10200400000.0 10987000000.0 9226630000.0 10441900000.0 9067870000.0 9634140000.0 9036100000.0 9314900000.0 9035940000.0 9091960000.0 9035860000.0 9036390000.0 9035810000.0 9035800000.0 9035790000.0 9035780000.0 9035770000.0 9035770000.0 9035770000.0 9035760000.0 9035760000.0 9035760000.0 9035760000.0 9035760000.0 9035760000.0 9035760000.0 9035750000.0 9035750000.0 9035750000.0 9035750000.0 9035750000.0 9035750000.0 9035750000.0 9035750000.0 9035750000.0 9035750000.0 9035750000.0 9035760000.0 9035760000.0 9035760000.0 9035760000.0 9035760000.0 9035760000.0 9035760000.0 9035770000.0 9035770000.0 9035770000.0 9035780000.0 9035790000.0 9035800000.0 9035810000.0 9036390000.0 9035860000.0 9091960000.0 9035940000.0 9314900000.0 9036100000.0 9634140000.0 9067870000.0 10441900000.0 9226630000.0 10987000000.0 10200400000.0 11722000000.0 10167400000.0 10965900000.0 11485900000.0 11781800000.0 12045600000.0 11166500000.0 10981400000.0 10763900000.0 10402800000.0 9835490000.0 10929000000.0 9840330000.0 10406000000.0 9165500000.0 10023400000.0 9057650000.0 9452870000.0 9036000000.0 9227270000.0 9035890000.0 9072910000.0 9035830000.0 9036110000.0 9035790000.0 9035790000.0 9035780000.0 9035770000.0 9035770000.0 9035770000.0 9035760000.0 9035760000.0 9035760000.0 9035760000.0 9035760000.0 9035760000.0 9035760000.0 9035750000.0 9035750000.0 9035750000.0 9035750000.0 9035750000.0 9035750000.0 9035750000.0 9035750000.0 9035750000.0 9035750000.0 9035750000.0 9035750000.0 9035750000.0 9035760000.0 9035760000.0 9035760000.0 9035760000.0 9035760000.0 9035760000.0 9035760000.0 9035770000.0 9035770000.0 9035770000.0 9035780000.0 9035790000.0 9035790000.0 9036110000.0 9035830000.0 9072910000.0 9035890000.0 9227270000.0 9036000000.0 9452870000.0 9057650000.0 10023400000.0 9165500000.0 10406000000.0 9840330000.0 10929000000.0 9835490000.0 10402800000.0 10763900000.0 10981400000.0 11166500000.0 10295200000.0 10186400000.0 10054700000.0 9844000000.0 9507920000.0 10151500000.0 9503670000.0 9841390000.0 9110410000.0 9616460000.0 9048390000.0 9279790000.0 9035900000.0 9146600000.0 9035830000.0 9056720000.0 9035800000.0 9035940000.0 9035780000.0 9035770000.0 9035770000.0 9035760000.0 9035760000.0 9035760000.0 9035760000.0 9035760000.0 9035760000.0 9035760000.0 9035760000.0 9035750000.0 9035750000.0 9035750000.0 9035750000.0 9035750000.0 9035750000.0 9035750000.0 9035750000.0 9035750000.0 9035750000.0 9035750000.0 9035750000.0 9035750000.0 9035750000.0 9035750000.0 9035750000.0 9035750000.0 9035760000.0 9035760000.0 9035760000.0 9035760000.0 9035760000.0 9035760000.0 9035760000.0 9035760000.0 9035770000.0 9035770000.0 9035780000.0 9035940000.0 9035800000.0 9056720000.0 9035830000.0 9146600000.0 9035900000.0 9279790000.0 9048390000.0 9616460000.0 9110410000.0 9841390000.0 9503670000.0 10151500000.0 9507920000.0 9844000000.0 10054700000.0 10186400000.0 10295200000.0 9428520000.0 9394670000.0 9353220000.0 9287840000.0 9182940000.0 9383320000.0 9180740000.0 9286470000.0 9058780000.0 9216480000.0 9039650000.0 9111550000.0 9035800000.0 9070040000.0 9035780000.0 9042170000.0 9035770000.0 9035810000.0 9035760000.0 9035760000.0 9035760000.0 9035760000.0 9035760000.0 9035760000.0 9035750000.0 9035750000.0 9035750000.0 9035750000.0 9035750000.0 9035750000.0 9035750000.0 9035750000.0 9035750000.0 9035750000.0 9035750000.0 9035750000.0 9035750000.0 9035750000.0 9035750000.0 9035750000.0 9035750000.0 9035750000.0 9035750000.0 9035750000.0 9035750000.0 9035750000.0 9035750000.0 9035750000.0 9035750000.0 9035750000.0 9035750000.0 9035760000.0 9035760000.0 9035760000.0 9035760000.0 9035760000.0 9035760000.0 9035810000.0 9035770000.0 9042170000.0 9035780000.0 9070040000.0 9035800000.0 9111550000.0 9039650000.0 9216480000.0 9058780000.0 9286470000.0 9180740000.0 9383320000.0 9182940000.0 9287840000.0 9353220000.0 9394670000.0 9428520000.0 