# vtk DataFile Version 2.0
Time step 18
ASCII
DATASET UNSTRUCTURED_GRID
POINTS 5000 float
101543.0 439358.0 0
105222.0 436775.0 0
109212.0 435797.0 0
113615.0 433538.0 0
119291.0 434779.0 0
182908.0 436580.0 0
358992.0 436092.0 0
369119.0 432705.0 0
382921.0 437313.0 0
385170.0 432181.0 0
390592.0 435277.0 0
395327.0 436839.0 0
395783.0 440394.0 0
398533.0 439004.0 0
94066.1 443972.0 0
97649.4 441689.0 0
100734.0 442994.0 0
105175.0 441865.0 0
112861.0 437995.0 0
109442.0 440052.0 0
116831.0 439551.0 0
121780.0 440207.0 0
126753.0 438388.0 0
131301.0 436533.0 0
130560.0 440984.0 0
135769.0 438947.0 0
140390.0 439860.0 0
144185.0 438988.0 0
148424.0 439160.0 0
152501.0 439262.0 0
157803.0 438381.0 0
162706.0 438607.0 0
167048.0 438561.0 0
171841.0 437341.0 0
177706.0 437406.0 0
183641.0 441624.0 0
187353.0 438480.0 0
192500.0 439710.0 0
196092.0 438887.0 0
201728.0 438208.0 0
207649.0 438998.0 0
212980.0 438314.0 0
218128.0 439419.0 0
222480.0 439431.0 0
225796.0 438669.0 0
230433.0 438528.0 0
235807.0 439532.0 0
241165.0 438231.0 0
246494.0 440239.0 0
252669.0 438217.0 0
259034.0 438697.0 0
263755.0 439784.0 0
268717.0 438681.0 0
273914.0 438889.0 0
278885.0 437637.0 0
282029.0 440974.0 0
286323.0 439278.0 0
291714.0 439740.0 0
297313.0 437605.0 0
303594.0 438331.0 0
307654.0 440799.0 0
312100.0 438772.0 0
317895.0 439406.0 0
323180.0 438887.0 0
327433.0 439716.0 0
332034.0 439213.0 0
336976.0 438426.0 0
340213.0 440689.0 0
344187.0 437455.0 0
348553.0 440071.0 0
353062.0 439058.0 0
365274.0 436261.0 0
362840.0 440344.0 0
368310.0 441434.0 0
372413.0 436903.0 0
374653.0 441228.0 0
377789.0 435694.0 0
379399.0 440942.0 0
385181.0 441617.0 0
388263.0 439122.0 0
392406.0 439947.0 0
398299.0 443011.0 0
401869.0 441635.0 0
405832.0 444210.0 0
83751.1 450209.0 0
86622.0 448165.0 0
90293.7 446669.0 0
93929.5 447955.0 0
97123.9 450039.0 0
97888.1 445770.0 0
106119.0 446229.0 0
102289.0 446078.0 0
109003.0 444512.0 0
113307.0 442950.0 0
119249.0 444046.0 0
116183.0 446725.0 0
122383.0 445294.0 0
124939.0 443377.0 0
128795.0 445324.0 0
134061.0 444263.0 0
138960.0 443825.0 0
141999.0 447438.0 0
143044.0 442965.0 0
147001.0 443320.0 0
151955.0 444056.0 0
156684.0 442324.0 0
157066.0 446876.0 0
161150.0 443230.0 0
166387.0 443212.0 0
173056.0 442890.0 0
178454.0 442801.0 0
182285.0 446748.0 0
188703.0 442885.0 0
193646.0 443868.0 0
198321.0 443201.0 0
203962.0 443803.0 0
213717.0 442858.0 0
209396.0 444047.0 0
217610.0 444501.0 0
222039.0 444237.0 0
226814.0 442901.0 0
232207.0 443953.0 0
237687.0 444781.0 0
243284.0 444608.0 0
248470.0 444304.0 0
252684.0 444784.0 0
257271.0 443346.0 0
262307.0 443959.0 0
267059.0 443531.0 0
271619.0 442853.0 0
276982.0 443191.0 0
279704.0 447300.0 0
282822.0 444661.0 0
287500.0 444369.0 0
292901.0 444233.0 0
298252.0 443114.0 0
303130.0 444008.0 0
307375.0 444086.0 0
312497.0 444530.0 0
317452.0 444277.0 0
322263.0 443323.0 0
327500.0 444350.0 0
332500.0 444422.0 0
336770.0 443061.0 0
340172.0 446763.0 0
343009.0 443178.0 0
346556.0 442843.0 0
350544.0 443893.0 0
356427.0 442766.0 0
354092.0 446598.0 0
360104.0 442796.0 0
363336.0 444426.0 0
372637.0 446916.0 0
376970.0 443797.0 0
378653.0 447511.0 0
382181.0 444638.0 0
385872.0 446011.0 0
389928.0 444311.0 0
394697.0 443952.0 0
401947.0 445848.0 0
398112.0 447140.0 0
406421.0 448468.0 0
409638.0 446171.0 0
412851.0 447893.0 0
410782.0 450672.0 0
415643.0 449695.0 0
77039.5 454213.0 0
80084.0 452105.0 0
83595.3 453730.0 0
88597.6 451483.0 0
90914.4 455952.0 0
92879.1 451557.0 0
95944.5 454734.0 0
100838.0 449185.0 0
100698.0 452756.0 0
104957.0 450084.0 0
111521.0 448379.0 0
120008.0 447933.0 0
119316.0 452112.0 0
122818.0 450281.0 0
126572.0 449551.0 0
132251.0 449559.0 0
137495.0 449532.0 0
147329.0 448236.0 0
152788.0 450021.0 0
157074.0 452387.0 0
162487.0 448767.0 0
166892.0 451367.0 0
170041.0 447639.0 0
176348.0 448550.0 0
182638.0 452187.0 0
188129.0 449043.0 0
194345.0 448893.0 0
200052.0 448302.0 0
204348.0 449193.0 0
208178.0 448976.0 0
213343.0 447668.0 0
217709.0 449423.0 0
222570.0 448511.0 0
226881.0 447904.0 0
232437.0 449418.0 0
237419.0 449207.0 0
241799.0 449852.0 0
246849.0 448371.0 0
251788.0 449674.0 0
257732.0 448099.0 0
262726.0 448734.0 0
260328.0 452458.0 0
267482.0 447984.0 0
273039.0 448097.0 0
283387.0 449560.0 0
287027.0 449744.0 0
290746.0 448419.0 0
296444.0 448060.0 0
301920.0 449174.0 0
307339.0 448515.0 0
312795.0 449640.0 0
317775.0 448803.0 0
321911.0 447295.0 0
325879.0 449739.0 0
330873.0 449241.0 0
335275.0 447608.0 0
338321.0 452051.0 0
345560.0 447281.0 0
350424.0 448800.0 0
354951.0 450656.0 0
359050.0 447367.0 0
362660.0 451398.0 0
366494.0 447831.0 0
376017.0 452214.0 0
380625.0 452158.0 0
383371.0 449161.0 0
388178.0 450338.0 0
393622.0 449140.0 0
394951.0 453949.0 0
402376.0 450041.0 0
398352.0 451640.0 0
406781.0 453117.0 0
411376.0 454582.0 0
414836.0 452908.0 0
418755.0 451624.0 0
422121.0 454013.0 0
418728.0 455177.0 0
67463.2 461129.0 0
71225.3 458402.0 0
75157.2 459229.0 0
74250.3 455872.0 0
79754.0 455711.0 0
83272.8 458110.0 0
86828.1 455661.0 0
87164.5 459568.0 0
93874.5 458668.0 0
96787.5 458937.0 0
99932.7 457251.0 0
104182.0 455296.0 0
108956.0 453429.0 0
114498.0 453454.0 0
111395.0 457589.0 0
118471.0 456985.0 0
123387.0 454667.0 0
128598.0 453600.0 0
132533.0 453824.0 0
136203.0 454090.0 0
139801.0 452911.0 0
144270.0 453454.0 0
149028.0 452823.0 0
149916.0 457017.0 0
153836.0 454972.0 0
160738.0 453397.0 0
164527.0 454887.0 0
167965.0 456656.0 0
171379.0 453561.0 0
177489.0 455055.0 0
186919.0 454721.0 0
191893.0 454159.0 0
197447.0 453589.0 0
203250.0 453372.0 0
208883.0 455337.0 0
214464.0 453323.0 0
218794.0 454690.0 0
222072.0 452772.0 0
227552.0 453448.0 0
234360.0 453781.0 0
237907.0 452526.0 0
237986.0 457262.0 0
241778.0 454442.0 0
246240.0 453556.0 0
251519.0 454931.0 0
255866.0 452814.0 0
262603.0 456047.0 0
266288.0 452650.0 0
271682.0 454352.0 0
278285.0 452826.0 0
284315.0 454320.0 0
288718.0 452813.0 0
292908.0 454600.0 0
298861.0 454455.0 0
303979.0 454690.0 0
307500.0 454514.0 0
312164.0 454335.0 0
316056.0 453113.0 0
320868.0 452870.0 0
325323.0 455102.0 0
329047.0 453101.0 0
333388.0 455236.0 0
344511.0 453476.0 0
351036.0 454334.0 0
358299.0 454228.0 0
363293.0 456188.0 0
367441.0 453168.0 0
372107.0 456077.0 0
379064.0 455785.0 0
384737.0 455837.0 0
390842.0 455344.0 0
394556.0 457826.0 0
398238.0 456132.0 0
402224.0 454569.0 0
401794.0 458768.0 0
408777.0 456911.0 0
405424.0 457636.0 0
411948.0 458085.0 0
415388.0 457065.0 0
414582.0 461464.0 0
421953.0 457551.0 0
425812.0 456832.0 0
429787.0 459263.0 0
62934.9 464669.0 0
68351.8 465559.0 0
72106.2 462239.0 0
72857.3 465847.0 0
79202.7 459873.0 0
76303.4 463741.0 0
80546.2 463767.0 0
83430.2 462069.0 0
87232.3 464012.0 0
90869.0 460973.0 0
94827.9 462156.0 0
99068.8 461758.0 0
103194.0 459906.0 0
106035.0 462015.0 0
107337.0 458350.0 0
109889.0 461595.0 0
114576.0 460516.0 0
118515.0 462600.0 0
122165.0 460118.0 0
126992.0 458563.0 0
131374.0 457031.0 0
135268.0 458565.0 0
140383.0 457842.0 0
145768.0 459768.0 0
154110.0 459866.0 0
160041.0 458497.0 0
165576.0 459477.0 0
171298.0 459573.0 0
176994.0 461282.0 0
183184.0 459158.0 0
193921.0 458248.0 0
189441.0 459082.0 0
198427.0 459534.0 0
203321.0 458474.0 0
207401.0 460727.0 0
212195.0 459614.0 0
216374.0 457960.0 0
221223.0 458353.0 0
226388.0 460076.0 0
232030.0 458288.0 0
236037.0 462253.0 0
242873.0 459138.0 0
248054.0 458631.0 0
252874.0 458967.0 0
257703.0 458001.0 0
262783.0 461623.0 0
267486.0 458543.0 0
272562.0 460242.0 0
278338.0 459475.0 0
283423.0 458887.0 0
288683.0 458130.0 0
293359.0 458943.0 0
297319.0 460455.0 0
302639.0 458995.0 0
306310.0 459383.0 0
311136.0 459226.0 0
315994.0 457573.0 0
321246.0 458581.0 0
329841.0 458553.0 0
326086.0 459218.0 0
336354.0 458936.0 0
332989.0 462600.0 0
340707.0 458163.0 0
345135.0 460624.0 0
349969.0 460058.0 0
355009.0 458692.0 0
353342.0 463030.0 0
359842.0 459085.0 0
367302.0 458233.0 0
370551.0 461040.0 0
376240.0 459580.0 0
380707.0 459332.0 0
384084.0 462037.0 0
389216.0 460681.0 0
393853.0 461772.0 0
397950.0 460616.0 0
401628.0 462479.0 0
404864.0 461582.0 0
406479.0 464623.0 0
409699.0 461625.0 0
417559.0 464006.0 0
419293.0 460247.0 0
421675.0 464572.0 0
425780.0 465159.0 0
424853.0 461133.0 0
433977.0 462293.0 0
429234.0 463321.0 0
432458.0 465797.0 0
435936.0 465935.0 0
438568.0 463771.0 0
50724.5 470294.0 0
54068.2 469210.0 0
57945.9 467112.0 0
56552.9 472234.0 0
65034.4 467869.0 0
61358.9 470532.0 0
66277.5 470650.0 0
70677.2 469636.0 0
75336.6 468456.0 0
79148.7 467414.0 0
83448.4 466260.0 0
81873.2 470584.0 0
84809.8 469256.0 0
88113.9 468813.0 0
91679.4 465572.0 0
96782.3 466723.0 0
102505.0 464766.0 0
103989.0 468769.0 0
107394.0 465308.0 0
112351.0 464091.0 0
111091.0 467520.0 0
115705.0 466307.0 0
120380.0 466300.0 0
125451.0 464589.0 0
131265.0 462306.0 0
129634.0 466805.0 0
136673.0 463303.0 0
133659.0 467422.0 0
141783.0 463533.0 0
146293.0 465267.0 0
150478.0 463606.0 0
154707.0 464711.0 0
158850.0 464461.0 0
163175.0 463161.0 0
167775.0 463537.0 0
172783.0 465589.0 0
177348.0 465564.0 0
181609.0 465929.0 0
187082.0 464076.0 0
192603.0 463609.0 0
197983.0 465237.0 0
202741.0 463113.0 0
206809.0 465350.0 0
210768.0 464065.0 0
216484.0 463878.0 0
222776.0 463972.0 0
228384.0 465634.0 0
234047.0 466803.0 0
240949.0 464686.0 0
246422.0 465268.0 0
250885.0 463119.0 0
252392.0 467378.0 0
256732.0 464204.0 0
268210.0 464000.0 0
272829.0 465128.0 0
277776.0 465511.0 0
281962.0 462826.0 0
286967.0 464218.0 0
292872.0 463485.0 0
297678.0 465833.0 0
301651.0 462879.0 0
305904.0 464840.0 0
311123.0 464968.0 0
316267.0 462660.0 0
321571.0 464479.0 0
324860.0 467372.0 0
327159.0 463724.0 0
335698.0 466707.0 0
340148.0 464130.0 0
345753.0 465481.0 0
349963.0 464808.0 0
353947.0 467443.0 0
358416.0 464174.0 0
363961.0 462022.0 0
368471.0 465803.0 0
374156.0 464641.0 0
377724.0 466682.0 0
379377.0 463504.0 0
382589.0 466454.0 0
387493.0 466133.0 0
393162.0 466944.0 0
398934.0 465785.0 0
403527.0 465403.0 0
402751.0 469956.0 0
406665.0 468108.0 0
409680.0 466050.0 0
411133.0 470237.0 0
413895.0 466116.0 0
418580.0 468358.0 0
423948.0 469562.0 0
429250.0 467925.0 0
433952.0 469561.0 0
439306.0 467960.0 0
443334.0 467328.0 0
442881.0 470523.0 0
447242.0 470701.0 0
41168.2 477685.0 0
44081.7 474699.0 0
45272.0 477349.0 0
48261.9 473624.0 0
52898.3 473245.0 0
59256.6 475633.0 0
64298.7 474764.0 0
68453.0 474023.0 0
73632.5 472760.0 0
77934.5 471792.0 0
85417.2 472347.0 0
89157.0 472667.0 0
92703.8 470314.0 0
97058.9 472304.0 0
100362.0 469063.0 0
102140.0 472778.0 0
107373.0 469377.0 0
106429.0 473009.0 0
110201.0 471836.0 0
113636.0 470223.0 0
118153.0 471455.0 0
123403.0 469888.0 0
127843.0 469907.0 0
131619.0 471737.0 0
137268.0 469540.0 0
141576.0 469001.0 0
146699.0 469940.0 0
152186.0 468939.0 0
158097.0 469736.0 0
163072.0 467781.0 0
168030.0 468634.0 0
172356.0 471115.0 0
176890.0 469323.0 0
181429.0 471669.0 0
186087.0 469362.0 0
191843.0 469492.0 0
197530.0 470802.0 0
202794.0 468576.0 0
207730.0 469427.0 0
212221.0 468463.0 0
217285.0 470264.0 0
223411.0 469940.0 0
229030.0 471649.0 0
233455.0 471267.0 0
238499.0 470458.0 0
243873.0 469733.0 0
249015.0 469349.0 0
255534.0 470307.0 0
262502.0 468799.0 0
268686.0 468965.0 0
273441.0 469663.0 0
278312.0 470897.0 0
282715.0 468272.0 0
287902.0 470226.0 0
293123.0 468813.0 0
297526.0 471230.0 0
302365.0 468776.0 0
308099.0 469909.0 0
313107.0 469352.0 0
316942.0 468536.0 0
321622.0 470030.0 0
328766.0 468937.0 0
333570.0 470256.0 0
338721.0 470245.0 0
344150.0 470852.0 0
349214.0 469328.0 0
354176.0 473103.0 0
358446.0 470059.0 0
363133.0 467596.0 0
366755.0 470526.0 0
372678.0 471568.0 0
379433.0 470341.0 0
384799.0 470454.0 0
382369.0 474501.0 0
389476.0 470130.0 0
393037.0 472763.0 0
397712.0 471081.0 0
401252.0 474224.0 0
404196.0 473677.0 0
407263.0 472343.0 0
415505.0 471700.0 0
419938.0 473080.0 0
424470.0 474663.0 0
428812.0 472210.0 0
433142.0 474266.0 0
437663.0 472440.0 0
441055.0 472121.0 0
444142.0 473614.0 0
441294.0 476085.0 0
448079.0 475196.0 0
452125.0 473098.0 0
456647.0 476729.0 0
37267.7 479156.0 0
34416.3 481242.0 0
39628.7 482343.0 0
47958.2 478402.0 0
44443.6 480894.0 0
51439.9 477043.0 0
53286.5 480056.0 0
55135.2 476298.0 0
57310.6 480274.0 0
62517.7 478906.0 0
66793.4 477937.0 0
71192.7 476902.0 0
76375.0 476278.0 0
78482.9 479761.0 0
81251.2 475443.0 0
82405.0 479573.0 0
86719.4 477063.0 0
92676.8 475428.0 0
95317.9 479585.0 0
99279.0 476825.0 0
104567.0 476752.0 0
108999.0 476071.0 0
113431.0 474565.0 0
117497.0 477720.0 0
122874.0 475393.0 0
128141.0 474835.0 0
136015.0 473982.0 0
140255.0 473051.0 0
144013.0 474323.0 0
140053.0 476968.0 0
149350.0 474859.0 0
154695.0 474003.0 0
158724.0 476023.0 0
162981.0 473315.0 0
168298.0 473576.0 0
171954.0 475143.0 0
176885.0 474337.0 0
182679.0 476486.0 0
187103.0 474396.0 0
191735.0 474788.0 0
196489.0 476237.0 0
201663.0 474025.0 0
207177.0 474382.0 0
212994.0 473905.0 0
219876.0 475348.0 0
224983.0 475256.0 0
228721.0 475742.0 0
232784.0 475035.0 0
237002.0 475692.0 0
242133.0 473990.0 0
246588.0 473713.0 0
251472.0 473324.0 0
257775.0 475565.0 0
262739.0 474865.0 0
268244.0 474584.0 0
274053.0 474612.0 0
279316.0 476404.0 0
284516.0 474305.0 0
289593.0 475176.0 0
293128.0 473177.0 0
296232.0 476117.0 0
302113.0 474361.0 0
307144.0 475074.0 0
311638.0 473738.0 0
316319.0 473134.0 0
320793.0 475133.0 0
325815.0 473540.0 0
331049.0 474390.0 0
336540.0 475903.0 0
341545.0 475240.0 0
345325.0 475256.0 0
349502.0 474425.0 0
359273.0 475980.0 0
363194.0 472411.0 0
366979.0 474927.0 0
374243.0 477817.0 0
378025.0 475238.0 0
380843.0 478903.0 0
384814.0 477723.0 0
388049.0 474407.0 0
388370.0 479203.0 0
392301.0 477709.0 0
397280.0 476590.0 0
402867.0 478588.0 0
406345.0 475755.0 0
407874.0 479382.0 0
411896.0 476028.0 0
416988.0 475585.0 0
416517.0 479872.0 0
420619.0 477613.0 0
424871.0 479293.0 0
428984.0 476572.0 0
433689.0 479176.0 0
437220.0 477082.0 0
440283.0 479851.0 0
445045.0 477281.0 0
443403.0 480272.0 0
448409.0 480732.0 0
451881.0 477115.0 0
453909.0 480601.0 0
459430.0 481636.0 0
461889.0 478868.0 0
465744.0 482216.0 0
27086.0 485636.0 0
30738.3 483394.0 0
30567.0 486521.0 0
34958.5 485275.0 0
39584.7 486147.0 0
44491.3 485223.0 0
49109.4 481907.0 0
49219.8 486139.0 0
53583.8 484287.0 0
57986.6 484834.0 0
60872.4 482411.0 0
62155.8 485218.0 0
65475.3 482499.0 0
65549.4 487321.0 0
69322.6 480719.0 0
73926.8 480584.0 0
76395.8 484490.0 0
80571.8 482603.0 0
85297.1 483342.0 0
90594.5 480777.0 0
93763.7 484362.0 0
99166.7 483096.0 0
102403.0 479847.0 0
107456.0 479855.0 0
108980.0 483138.0 0
112048.0 479802.0 0
115816.0 482372.0 0
120933.0 482654.0 0
126299.0 480001.0 0
132366.0 478966.0 0
137629.0 480304.0 0
144171.0 479538.0 0
149950.0 481172.0 0
155011.0 478771.0 0
159216.0 480207.0 0
164142.0 479134.0 0
169439.0 478525.0 0
174313.0 478501.0 0
178716.0 478455.0 0
182030.0 481047.0 0
186813.0 479672.0 0
191913.0 479289.0 0
196120.0 481964.0 0
201309.0 479621.0 0
207311.0 480366.0 0
212223.0 478851.0 0
216904.0 480140.0 0
221670.0 480972.0 0
226133.0 479784.0 0
231078.0 479095.0 0
235926.0 480339.0 0
241324.0 478899.0 0
246762.0 478647.0 0
252453.0 478828.0 0
257587.0 480799.0 0
263667.0 480372.0 0
269558.0 480256.0 0
274523.0 479592.0 0
279873.0 481746.0 0
283939.0 478758.0 0
288511.0 480197.0 0
292578.0 478594.0 0
298583.0 480745.0 0
303444.0 479300.0 0
307570.0 479365.0 0
312084.0 478949.0 0
317320.0 478516.0 0
322808.0 480094.0 0
327386.0 478147.0 0
327761.0 482848.0 0
331964.0 479479.0 0
336825.0 481210.0 0
340010.0 479415.0 0
343492.0 478681.0 0
347565.0 478461.0 0
353251.0 479263.0 0
358636.0 481168.0 0
363958.0 479271.0 0
369278.0 479525.0 0
372626.0 482416.0 0
377028.0 482186.0 0
381323.0 483418.0 0
385280.0 482000.0 0
390957.0 481993.0 0
395009.0 481476.0 0
398989.0 481040.0 0
401997.0 483660.0 0
406224.0 483170.0 0
411935.0 482895.0 0
416686.0 484518.0 0
421146.0 482922.0 0
429846.0 481297.0 0
425835.0 483488.0 0
434220.0 483852.0 0
437421.0 481470.0 0
438227.0 485417.0 0
445008.0 483874.0 0
441292.0 483157.0 0
451673.0 484164.0 0
455548.0 483951.0 0
458553.0 486351.0 0
462428.0 485771.0 0
470865.0 485650.0 0
466276.0 486978.0 0
16308.1 491518.0 0
23261.6 489270.0 0
19169.2 490488.0 0
28057.3 490158.0 0
32580.7 489753.0 0
37056.8 489561.0 0
41924.6 489571.0 0
47156.1 490120.0 0
51865.7 488161.0 0
55438.6 488395.0 0
60284.4 488917.0 0
64662.1 491196.0 0
70480.2 485360.0 0
74252.3 488979.0 0
80654.4 487735.0 0
86209.3 489621.0 0
89613.4 485611.0 0
91886.7 489514.0 0
96609.6 487544.0 0
102434.0 486744.0 0
104755.0 483158.0 0
107301.0 487247.0 0
112555.0 484599.0 0
116703.0 486616.0 0
121515.0 488431.0 0
125918.0 485442.0 0
129850.0 483509.0 0
130528.0 487882.0 0
135340.0 484859.0 0
140784.0 483461.0 0
145350.0 484321.0 0
153226.0 485246.0 0
149210.0 487048.0 0
157803.0 484956.0 0
162639.0 484110.0 0
167360.0 483553.0 0
173629.0 484635.0 0
178987.0 484626.0 0
183900.0 485651.0 0
189555.0 484668.0 0
194025.0 485710.0 0
199941.0 484689.0 0
204078.0 485202.0 0
208463.0 485512.0 0
212812.0 483488.0 0
219131.0 484891.0 0
223356.0 484444.0 0
227653.0 484503.0 0
232479.0 483777.0 0
237780.0 484793.0 0
242331.0 485290.0 0
246700.0 483480.0 0
251868.0 485069.0 0
257350.0 485092.0 0
262179.0 486577.0 0
267626.0 484436.0 0
271697.0 483998.0 0
272390.0 487896.0 0
276035.0 484413.0 0
284236.0 483163.0 0
288499.0 485472.0 0
293495.0 483141.0 0
298455.0 485495.0 0
302293.0 484391.0 0
306326.0 483194.0 0
306595.0 487911.0 0
311199.0 484739.0 0
315621.0 488159.0 0
316227.0 483247.0 0
320621.0 485288.0 0
324042.0 484043.0 0
332980.0 485133.0 0
338325.0 485423.0 0
342023.0 482754.0 0
342648.0 487846.0 0
347743.0 484075.0 0
354095.0 486029.0 0
360377.0 486145.0 0
366210.0 484322.0 0
371203.0 486456.0 0
375874.0 486944.0 0
379929.0 487379.0 0
384084.0 486549.0 0
388726.0 485606.0 0
393242.0 485528.0 0
395342.0 488900.0 0
397881.0 485467.0 0
404386.0 488529.0 0
408788.0 486108.0 0
410059.0 489508.0 0
414440.0 488319.0 0
419546.0 488023.0 0
424890.0 487902.0 0
429761.0 490666.0 0
430179.0 486106.0 0
434717.0 488949.0 0
438972.0 488909.0 0
443062.0 487944.0 0
448561.0 486950.0 0
446984.0 490249.0 0
454213.0 488029.0 0
451344.0 490929.0 0
459034.0 489586.0 0
462976.0 489747.0 0
469416.0 489152.0 0
466916.0 490976.0 0
470686.0 491696.0 0
472707.0 489854.0 0
476420.0 488961.0 0
481312.0 491217.0 0
9784.8 497090.0 0
14115.9 494395.0 0
19424.1 494585.0 0
24739.5 494398.0 0
30357.8 494657.0 0
34444.4 493051.0 0
38512.5 493713.0 0
43487.0 494035.0 0
47760.7 494491.0 0
51884.7 492467.0 0
56516.7 492151.0 0
55330.4 496260.0 0
60667.9 494393.0 0
66213.4 494761.0 0
69272.8 490907.0 0
70070.7 495507.0 0
73484.4 493157.0 0
77464.3 491447.0 0
81236.8 492595.0 0
85056.8 495203.0 0
89322.7 493447.0 0
95802.3 491308.0 0
99881.9 489201.0 0
99405.6 493453.0 0
103903.0 490794.0 0
108116.0 492799.0 0
112026.0 489510.0 0
117159.0 491992.0 0
122193.0 493612.0 0
126251.0 490573.0 0
130710.0 492894.0 0
134714.0 490340.0 0
139983.0 489119.0 0
144988.0 488383.0 0
147571.0 491069.0 0
143920.0 492813.0 0
153343.0 489086.0 0
151309.0 492970.0 0
156220.0 492797.0 0
163022.0 488420.0 0
159073.0 489409.0 0
168336.0 489020.0 0
172877.0 490074.0 0
177524.0 490077.0 0
182689.0 490555.0 0
187354.0 489632.0 0
192514.0 489770.0 0
198174.0 489418.0 0
203140.0 489190.0 0
207530.0 490233.0 0
212217.0 488447.0 0
217331.0 489971.0 0
222574.0 488645.0 0
227522.0 490087.0 0
232494.0 488482.0 0
231501.0 492636.0 0
237115.0 489102.0 0
235469.0 493178.0 0
241407.0 489756.0 0
246117.0 488495.0 0
250326.0 490142.0 0
254492.0 489547.0 0
258776.0 490218.0 0
262552.0 493171.0 0
267321.0 489762.0 0
272322.0 492547.0 0
277056.0 489707.0 0
282988.0 488513.0 0
287972.0 490008.0 0
292488.0 488695.0 0
297088.0 489456.0 0
297737.0 493308.0 0
301806.0 489438.0 0
311007.0 490042.0 0
306566.0 492787.0 0
319919.0 489713.0 0
325556.0 488711.0 0
331763.0 491199.0 0
337432.0 490250.0 0
343768.0 492458.0 0
347079.0 489773.0 0
351566.0 490958.0 0
356460.0 491257.0 0
360957.0 491519.0 0
365030.0 489638.0 0
369436.0 490684.0 0
374405.0 491704.0 0
378814.0 490789.0 0
382592.0 490716.0 0
386990.0 489917.0 0
391379.0 489670.0 0
396096.0 493390.0 0
399282.0 489835.0 0
401772.0 494068.0 0
407323.0 493563.0 0
412815.0 493457.0 0
417416.0 492029.0 0
422691.0 492766.0 0
428404.0 494999.0 0
433554.0 493755.0 0
439142.0 493126.0 0
444314.0 492696.0 0
446493.0 495949.0 0
448599.0 493344.0 0
455958.0 492365.0 0
453075.0 495618.0 0
460364.0 493232.0 0
464451.0 493791.0 0
466112.0 497258.0 0
469518.0 495197.0 0
473946.0 493793.0 0
472922.0 497704.0 0
476091.0 497622.0 0
478203.0 493947.0 0
482186.0 494984.0 0
485149.0 493622.0 0
484973.0 497841.0 0
488752.0 495522.0 0
5955.92 498668.0 0
6687.31 501785.0 0
14742.9 498544.0 0
19905.5 499766.0 0
24089.4 498853.0 0
23478.4 502665.0 0
26982.9 501694.0 0
27623.6 497766.0 0
30909.1 499845.0 0
34851.8 497168.0 0
39966.6 498452.0 0
45299.3 498141.0 0
50419.8 498068.0 0
54351.5 501079.0 0
58805.7 499334.0 0
63792.4 498548.0 0
67766.0 498412.0 0
73437.4 497276.0 0
77157.0 495447.0 0
80750.0 496477.0 0
82688.5 500173.0 0
88584.0 498447.0 0
93779.4 496187.0 0
104111.0 496040.0 0
99282.9 498454.0 0
108519.0 497014.0 0
112476.0 494951.0 0
116820.0 497470.0 0
121615.0 498614.0 0
126707.0 495517.0 0
131045.0 498040.0 0
134896.0 494801.0 0
139329.0 494514.0 0
143013.0 497420.0 0
147302.0 495277.0 0
157317.0 498023.0 0
161693.0 493519.0 0
167633.0 495104.0 0
173366.0 494342.0 0
178439.0 495539.0 0
184198.0 495210.0 0
189580.0 494307.0 0
194500.0 494250.0 0
203968.0 493419.0 0
199329.0 495125.0 0
208440.0 495289.0 0
213256.0 493746.0 0
217964.0 495265.0 0
222500.0 494430.0 0
227501.0 494664.0 0
231685.0 496822.0 0
241064.0 494145.0 0
246280.0 494366.0 0
252719.0 494852.0 0
257760.0 493965.0 0
257365.0 497304.0 0
268483.0 494482.0 0
265434.0 498326.0 0
276503.0 494750.0 0
282672.0 494311.0 0
287876.0 494415.0 0
290173.0 498367.0 0
293076.0 494158.0 0
301902.0 495242.0 0
306560.0 498121.0 0
311133.0 495245.0 0
316896.0 494093.0 0
322617.0 494074.0 0
326416.0 493593.0 0
330774.0 495615.0 0
327315.0 497245.0 0
334786.0 496035.0 0
339807.0 494918.0 0
344022.0 498483.0 0
348028.0 494651.0 0
353650.0 496276.0 0
359490.0 496116.0 0
364858.0 494954.0 0
370124.0 495319.0 0
374989.0 497269.0 0
380154.0 495259.0 0
385891.0 494656.0 0
388990.0 498340.0 0
391110.0 494472.0 0
393124.0 498820.0 0
398035.0 498216.0 0
403058.0 498887.0 0
407930.0 498568.0 0
412880.0 498382.0 0
418606.0 497699.0 0
424409.0 497507.0 0
428811.0 500467.0 0
432126.0 497460.0 0
436292.0 497573.0 0
440339.0 497650.0 0
439443.0 499819.0 0
443380.0 496765.0 0
449204.0 496840.0 0
446909.0 499256.0 0
451142.0 499937.0 0
455784.0 500002.0 0
457940.0 496456.0 0
460252.0 500496.0 0
462038.0 497010.0 0
464795.0 500709.0 0
469759.0 500038.0 0
474141.0 501331.0 0
477893.0 500669.0 0
480474.0 497880.0 0
486548.0 501423.0 0
489584.0 499004.0 0
493712.0 499071.0 0
497784.0 500110.0 0
2107.23 500208.0 0
2795.49 505249.0 0
8743.04 505636.0 0
11549.3 501912.0 0
15948.5 503109.0 0
13149.8 506255.0 0
20490.3 504415.0 0
17199.0 506875.0 0
25573.5 505512.0 0
30155.3 504740.0 0
35474.0 502589.0 0
39687.9 502060.0 0
43013.1 502110.0 0
40008.7 505656.0 0
46972.1 501840.0 0
50398.9 503652.0 0
58013.7 504157.0 0
62047.9 502330.0 0
66283.2 502484.0 0
71074.0 500953.0 0
76836.9 500546.0 0
78301.4 504835.0 0
80134.0 502810.0 0
82714.3 505744.0 0
86720.4 502520.0 0
92023.7 502565.0 0
96667.0 501715.0 0
101284.0 503146.0 0
106058.0 500990.0 0
111872.0 501001.0 0
117504.0 502341.0 0
122373.0 503570.0 0
126394.0 500374.0 0
135723.0 499170.0 0
139804.0 501023.0 0
146279.0 500546.0 0
151269.0 498616.0 0
158435.0 503002.0 0
163071.0 499465.0 0
167775.0 503250.0 0
171627.0 499273.0 0
175922.0 500995.0 0
183602.0 499130.0 0
180148.0 500148.0 0
187634.0 499382.0 0
183942.0 503235.0 0
192986.0 498871.0 0
198284.0 500743.0 0
203226.0 498478.0 0
207084.0 500843.0 0
211205.0 499336.0 0
215863.0 499633.0 0
221344.0 499652.0 0
227279.0 500001.0 0
237637.0 498902.0 0
243900.0 499557.0 0
248951.0 499339.0 0
254189.0 500974.0 0
260307.0 499337.0 0
272318.0 498848.0 0
279414.0 499466.0 0
285537.0 498502.0 0
283889.0 502696.0 0
288935.0 503427.0 0
293386.0 501555.0 0
297116.0 498448.0 0
302061.0 500407.0 0
311791.0 501399.0 0
317724.0 499946.0 0
322784.0 499048.0 0
326850.0 503235.0 0
331479.0 499813.0 0
335834.0 501317.0 0
339325.0 499433.0 0
339579.0 503554.0 0
349336.0 500128.0 0
357478.0 500980.0 0
362300.0 500386.0 0
366744.0 499577.0 0
371021.0 500054.0 0
374963.0 502255.0 0
378823.0 500257.0 0
384253.0 500524.0 0
390034.0 503014.0 0
395469.0 502581.0 0
400280.0 502951.0 0
405486.0 503134.0 0
410752.0 503227.0 0
415196.0 501993.0 0
419098.0 503733.0 0
423652.0 501899.0 0
427473.0 505309.0 0
433633.0 501203.0 0
431618.0 504786.0 0
435477.0 505017.0 0
437815.0 502170.0 0
443024.0 501801.0 0
448345.0 503583.0 0
453426.0 503848.0 0
458273.0 504086.0 0
463274.0 505045.0 0
467636.0 503734.0 0
471276.0 503796.0 0
473733.0 506323.0 0
477566.0 504720.0 0
482319.0 502278.0 0
486382.0 505078.0 0
489880.0 502897.0 0
493991.0 503951.0 0
490351.0 506687.0 0
497844.0 503758.0 0
2478.12 510537.0 0
5964.27 508803.0 0
10525.8 509716.0 0
14553.3 509751.0 0
17661.3 509643.0 0
22052.9 509021.0 0
28188.9 509713.0 0
33727.4 510448.0 0
33559.6 506716.0 0
36503.6 507655.0 0
40121.0 511380.0 0
45595.3 506915.0 0
49199.9 510507.0 0
53488.4 507309.0 0
58211.1 508113.0 0
62778.9 506517.0 0
60620.6 510955.0 0
68011.2 506700.0 0
65414.7 510745.0 0
69683.2 510546.0 0
73533.2 505916.0 0
78331.0 508270.0 0
80797.0 510657.0 0
88295.7 507006.0 0
92876.3 509014.0 0
96646.8 506040.0 0
101041.0 507919.0 0
105936.0 506321.0 0
110576.0 507620.0 0
114272.0 505728.0 0
118676.0 507320.0 0
128443.0 505446.0 0
123686.0 508399.0 0
134001.0 503906.0 0
138364.0 505735.0 0
143454.0 505044.0 0
148763.0 504063.0 0
153605.0 504048.0 0
157107.0 507903.0 0
162705.0 505048.0 0
173011.0 504356.0 0
178644.0 505380.0 0
186552.0 507635.0 0
190853.0 503910.0 0
195791.0 505472.0 0
203595.0 503751.0 0
200151.0 506116.0 0
208473.0 504822.0 0
205182.0 508309.0 0
212832.0 503820.0 0
211699.0 508425.0 0
217903.0 504326.0 0
223443.0 504470.0 0
227797.0 504993.0 0
232831.0 504208.0 0
232095.0 508475.0 0
238011.0 504907.0 0
242289.0 503744.0 0
241550.0 508250.0 0
246618.0 503647.0 0
251467.0 505416.0 0
257635.0 505287.0 0
262636.0 503541.0 0
268037.0 503568.0 0
266273.0 508006.0 0
273529.0 505474.0 0
279317.0 505645.0 0
284753.0 507819.0 0
290162.0 508240.0 0
293752.0 505763.0 0
298731.0 504302.0 0
297348.0 508634.0 0
303026.0 503756.0 0
302790.0 506904.0 0
306750.0 503696.0 0
307298.0 507588.0 0
315785.0 504783.0 0
312400.0 507195.0 0
320661.0 504946.0 0
325593.0 508607.0 0
332633.0 504776.0 0
336793.0 506568.0 0
345257.0 504843.0 0
351193.0 504773.0 0
356439.0 506562.0 0
360702.0 504165.0 0
365502.0 504879.0 0
370920.0 504641.0 0
371138.0 509325.0 0
375088.0 506918.0 0
380073.0 505249.0 0
385561.0 506386.0 0
389986.0 508319.0 0
393615.0 506305.0 0
397769.0 507316.0 0
402962.0 507651.0 0
408128.0 508115.0 0
415323.0 506334.0 0
411878.0 507161.0 0
419108.0 507833.0 0
417034.0 509950.0 0
423081.0 507006.0 0
431264.0 508556.0 0
427261.0 510109.0 0
435945.0 509574.0 0
440076.0 506370.0 0
445133.0 507124.0 0
446990.0 511087.0 0
450931.0 508254.0 0
455669.0 507378.0 0
459911.0 508351.0 0
464587.0 509324.0 0
468973.0 507578.0 0
476224.0 511836.0 0
477143.0 508894.0 0
473161.0 510058.0 0
482038.0 507756.0 0
479809.0 511932.0 0
487120.0 509014.0 0
493369.0 509505.0 0
497581.0 507830.0 0
2457.55 515192.0 0
7061.73 513042.0 0
12446.2 513504.0 0
9795.81 516158.0 0
17738.2 513023.0 0
24294.8 513981.0 0
30622.2 514282.0 0
35528.9 514794.0 0
43889.5 515693.0 0
45460.4 511923.0 0
48490.2 514813.0 0
52636.9 511727.0 0
56254.1 511232.0 0
54208.3 514802.0 0
58100.8 514154.0 0
62661.7 515570.0 0
68251.5 514485.0 0
72329.7 513097.0 0
75099.6 510424.0 0
77334.8 514564.0 0
82642.7 514097.0 0
84676.2 510227.0 0
86921.8 513675.0 0
89590.5 511271.0 0
92637.8 513296.0 0
97497.6 511696.0 0
103971.0 511666.0 0
109335.0 512246.0 0
114378.0 510394.0 0
119139.0 512543.0 0
124042.0 513038.0 0
127843.0 510537.0 0
132454.0 509170.0 0
137354.0 510178.0 0
133498.0 513406.0 0
141935.0 510917.0 0
147824.0 509095.0 0
152955.0 511253.0 0
162454.0 511309.0 0
169782.0 509626.0 0
176381.0 511111.0 0
181988.0 510109.0 0
191326.0 509202.0 0
189726.0 513723.0 0
196039.0 510150.0 0
200817.0 511207.0 0
208614.0 510662.0 0
206336.0 512896.0 0
216578.0 509603.0 0
221804.0 508900.0 0
226790.0 509481.0 0
231088.0 512865.0 0
236192.0 509798.0 0
240514.0 513464.0 0
246870.0 508753.0 0
248565.0 513499.0 0
251520.0 509666.0 0
252675.0 513303.0 0
256224.0 510417.0 0
260040.0 513479.0 0
261511.0 508865.0 0
265457.0 513256.0 0
270488.0 510273.0 0
276545.0 510452.0 0
281850.0 513363.0 0
288212.0 512931.0 0
293803.0 510362.0 0
298696.0 513069.0 0
304529.0 511674.0 0
309677.0 510451.0 0
313574.0 511605.0 0
316664.0 508610.0 0
321089.0 510893.0 0
331098.0 509728.0 0
327227.0 513069.0 0
335768.0 510851.0 0
340702.0 509452.0 0
345589.0 510440.0 0
349301.0 508795.0 0
353048.0 510655.0 0
356769.0 513633.0 0
361784.0 509728.0 0
366892.0 509949.0 0
375377.0 511919.0 0
379390.0 509971.0 0
383618.0 511268.0 0
388812.0 513273.0 0
394310.0 511385.0 0
399891.0 511891.0 0
404573.0 512332.0 0
408753.0 512864.0 0
412975.0 510741.0 0
416749.0 513639.0 0
421815.0 512355.0 0
427256.0 515702.0 0
431920.0 512801.0 0
436813.0 514632.0 0
441813.0 512042.0 0
446258.0 514655.0 0
451394.0 514038.0 0
456125.0 511198.0 0
457016.0 515761.0 0
461122.0 512626.0 0
463847.0 516437.0 0
465632.0 512790.0 0
468370.0 516054.0 0
469241.0 511842.0 0
473086.0 514681.0 0
477373.0 514853.0 0
484602.0 512468.0 0
489729.0 512440.0 0
496968.0 513011.0 0
2679.93 520180.0 0
6433.12 517476.0 0
15037.4 517052.0 0
11410.2 519123.0 0
19844.1 517248.0 0
16493.2 521194.0 0
23942.9 518307.0 0
27760.0 517332.0 0
39357.0 517306.0 0
42774.0 520668.0 0
46884.3 518499.0 0
51537.5 518892.0 0
57048.5 518037.0 0
66863.5 519454.0 0
72278.1 517910.0 0
76895.1 519711.0 0
81257.3 518440.0 0
85293.1 517074.0 0
89927.8 517238.0 0
95463.1 517032.0 0
101054.0 516427.0 0
106116.0 516089.0 0
109425.0 516241.0 0
113808.0 516082.0 0
117645.0 519760.0 0
121525.0 517025.0 0
125613.0 516129.0 0
129266.0 514855.0 0
132892.0 518820.0 0
137272.0 514847.0 0
141538.0 515125.0 0
147171.0 514946.0 0
152607.0 516620.0 0
157073.0 514327.0 0
160845.0 516738.0 0
167361.0 515948.0 0
172682.0 514646.0 0
171451.0 518142.0 0
176471.0 518527.0 0
179777.0 514533.0 0
184584.0 515409.0 0
194026.0 514798.0 0
197843.0 514318.0 0
203203.0 515065.0 0
199753.0 518681.0 0
207646.0 517707.0 0
212395.0 514174.0 0
216943.0 514116.0 0
221104.0 513737.0 0
221807.0 518011.0 0
225858.0 514449.0 0
232605.0 518833.0 0
235800.0 514737.0 0
238590.0 518652.0 0
244808.0 517678.0 0
251412.0 518353.0 0
256123.0 515411.0 0
261870.0 518059.0 0
270056.0 517256.0 0
272731.0 513766.0 0
275455.0 514388.0 0
277822.0 517402.0 0
288715.0 518242.0 0
293366.0 515019.0 0
297035.0 517902.0 0
302822.0 518129.0 0
308858.0 514149.0 0
312818.0 516384.0 0
317167.0 513827.0 0
323038.0 516011.0 0
328268.0 518228.0 0
332362.0 514478.0 0
336128.0 515424.0 0
341266.0 514952.0 0
346225.0 514760.0 0
350719.0 514223.0 0
349200.0 518588.0 0
353729.0 517405.0 0
362215.0 515926.0 0
367297.0 514128.0 0
371819.0 516107.0 0
380102.0 514214.0 0
376804.0 516496.0 0
384305.0 516880.0 0
389234.0 518539.0 0
392739.0 516197.0 0
397349.0 516252.0 0
402400.0 516140.0 0
407445.0 517839.0 0
412510.0 515791.0 0
416878.0 518141.0 0
422038.0 518435.0 0
432779.0 517879.0 0
438544.0 519735.0 0
443350.0 517421.0 0
447985.0 518122.0 0
453105.0 519035.0 0
457038.0 520102.0 0
460424.0 518745.0 0
463946.0 520607.0 0
467961.0 520524.0 0
471578.0 518901.0 0
476228.0 519417.0 0
481674.0 516851.0 0
485266.0 520172.0 0
487290.0 516378.0 0
489325.0 520235.0 0
492457.0 516586.0 0
497299.0 518235.0 0
3922.47 525134.0 0
7709.4 521717.0 0
12308.2 523126.0 0
18427.8 526190.0 0
21423.0 521763.0 0
23993.2 525833.0 0
26596.4 521643.0 0
28471.3 525472.0 0
33170.3 520518.0 0
38812.6 524930.0 0
47639.6 522803.0 0
51395.3 525166.0 0
55474.9 522862.0 0
61128.1 521199.0 0
65323.2 524313.0 0
70163.0 523362.0 0
75035.2 523863.0 0
80056.8 523183.0 0
85281.1 521605.0 0
90354.6 522054.0 0
94645.7 521683.0 0
98532.1 520454.0 0
104021.0 521759.0 0
108669.0 519336.0 0
112888.0 522269.0 0
121948.0 522285.0 0
127229.0 519982.0 0
138367.0 519594.0 0
144139.0 520354.0 0
149215.0 519647.0 0
157216.0 519324.0 0
153017.0 521233.0 0
163246.0 523282.0 0
163676.0 518785.0 0
168663.0 521356.0 0
172673.0 523363.0 0
178333.0 523821.0 0
182129.0 520615.0 0
186652.0 523250.0 0
189461.0 518961.0 0
192342.0 523890.0 0
194569.0 519443.0 0
203896.0 520631.0 0
211095.0 521381.0 0
216349.0 519634.0 0
221985.0 522671.0 0
226660.0 519710.0 0
236521.0 523780.0 0
241316.0 523148.0 0
245880.0 523013.0 0
256864.0 519937.0 0
266264.0 521387.0 0
274122.0 520067.0 0
271132.0 523765.0 0
277979.0 523445.0 0
283184.0 519716.0 0
288280.0 523517.0 0
293009.0 520465.0 0
298267.0 523086.0 0
303323.0 523668.0 0
308625.0 518971.0 0
318074.0 519061.0 0
319047.0 523766.0 0
323728.0 521435.0 0
329150.0 523587.0 0
333443.0 520119.0 0
338915.0 519688.0 0
344211.0 519291.0 0
347198.0 523510.0 0
352437.0 523192.0 0
357931.0 520448.0 0
363095.0 521420.0 0
367214.0 518901.0 0
370316.0 521809.0 0
374710.0 520966.0 0
379940.0 520135.0 0
386430.0 520504.0 0
383258.0 524001.0 0
388696.0 522540.0 0
392771.0 521587.0 0
397736.0 521337.0 0
402933.0 521215.0 0
407233.0 522582.0 0
412194.0 520735.0 0
417123.0 523345.0 0
422852.0 523618.0 0
426694.0 524970.0 0
427878.0 521236.0 0
429062.0 524621.0 0
433363.0 523708.0 0
445305.0 521098.0 0
444021.0 524405.0 0
449699.0 522627.0 0
454872.0 523232.0 0
460248.0 523431.0 0
465739.0 524963.0 0
471957.0 523425.0 0
476939.0 524298.0 0
480792.0 522031.0 0
485012.0 524645.0 0
489581.0 524147.0 0
493680.0 522078.0 0
498114.0 522385.0 0
2108.88 529151.0 0
8974.55 526219.0 0
6695.91 530430.0 0
13635.5 526652.0 0
11493.8 529512.0 0
14013.9 532046.0 0
15467.7 529405.0 0
22067.7 529865.0 0
26983.6 529860.0 0
33010.0 527971.0 0
43905.8 525235.0 0
42208.4 529113.0 0
47666.8 528703.0 0
54462.3 528237.0 0
59495.5 526652.0 0
64293.6 529096.0 0
68360.6 527275.0 0
72229.1 527463.0 0
78186.6 527857.0 0
83467.9 526397.0 0
87948.3 525597.0 0
92892.8 526314.0 0
98098.2 524774.0 0
102521.0 527426.0 0
108450.0 526920.0 0
117581.0 524805.0 0
113647.0 527167.0 0
121817.0 527005.0 0
126418.0 525675.0 0
132097.0 524602.0 0
137876.0 525197.0 0
142949.0 525594.0 0
148462.0 524212.0 0
153452.0 525870.0 0
158124.0 524204.0 0
159861.0 528452.0 0
167636.0 526308.0 0
163794.0 528719.0 0
172487.0 527634.0 0
182661.0 525719.0 0
188422.0 528256.0 0
196903.0 524405.0 0
194087.0 528970.0 0
201412.0 524151.0 0
199240.0 528910.0 0
207062.0 523970.0 0
204350.0 528795.0 0
212749.0 524470.0 0
214196.0 527964.0 0
217722.0 525570.0 0
222215.0 528162.0 0
226881.0 524798.0 0
226349.0 528589.0 0
231627.0 524444.0 0
235823.0 528516.0 0
240131.0 526510.0 0
244041.0 527299.0 0
250487.0 524240.0 0
255231.0 524095.0 0
260797.0 524219.0 0
266749.0 526851.0 0
283213.0 526513.0 0
293320.0 525353.0 0
298816.0 528502.0 0
303043.0 527650.0 0
308034.0 523975.0 0
314157.0 524390.0 0
317338.0 529074.0 0
322168.0 527038.0 0
327401.0 528385.0 0
333260.0 524419.0 0
332692.0 528662.0 0
336792.0 523996.0 0
342057.0 524693.0 0
346198.0 527061.0 0
357129.0 525403.0 0
361746.0 526195.0 0
366924.0 524646.0 0
372427.0 526185.0 0
376775.0 528928.0 0
378327.0 524772.0 0
381565.0 528804.0 0
386804.0 524866.0 0
386307.0 528615.0 0
389660.0 526178.0 0
392914.0 525375.0 0
396617.0 525899.0 0
404552.0 526910.0 0
410571.0 525687.0 0
415114.0 528628.0 0
420048.0 527783.0 0
424702.0 528099.0 0
429664.0 528003.0 0
435469.0 528966.0 0
439320.0 525401.0 0
439485.0 529926.0 0
443081.0 528429.0 0
447624.0 527491.0 0
452517.0 527117.0 0
457238.0 527390.0 0
461987.0 528443.0 0
469504.0 527859.0 0
474307.0 528489.0 0
480596.0 528576.0 0
488308.0 528562.0 0
492376.0 526646.0 0
492471.0 530626.0 0
497021.0 526748.0 0
2697.8 533596.0 0
6899.48 535333.0 0
10541.3 533417.0 0
18311.6 532668.0 0
24051.3 533098.0 0
30276.8 532469.0 0
34335.2 533252.0 0
37996.5 530613.0 0
38085.0 534397.0 0
42325.0 533932.0 0
47089.8 533982.0 0
52016.7 532987.0 0
59918.8 531767.0 0
56706.7 534749.0 0
64359.1 534133.0 0
69112.0 531638.0 0
74263.3 531279.0 0
78335.4 532158.0 0
79223.1 534899.0 0
82902.2 531331.0 0
88610.0 530370.0 0
93809.6 531312.0 0
98587.8 530680.0 0
103334.0 532543.0 0
107624.0 532022.0 0
112077.0 531317.0 0
117732.0 530411.0 0
124025.0 530658.0 0
129287.0 530526.0 0
134404.0 529344.0 0
137244.0 533642.0 0
138272.0 529544.0 0
141638.0 529426.0 0
146596.0 529651.0 0
152027.0 530562.0 0
156979.0 533168.0 0
162938.0 533363.0 0
167008.0 530852.0 0
173004.0 533327.0 0
178059.0 529331.0 0
183496.0 530409.0 0
186945.0 533658.0 0
192087.0 533869.0 0
197060.0 533290.0 0
202142.0 533642.0 0
209680.0 529093.0 0
213799.0 532352.0 0
217538.0 529954.0 0
220568.0 533004.0 0
225464.0 532503.0 0
230556.0 529951.0 0
236471.0 534005.0 0
240172.0 530135.0 0
245142.0 533438.0 0
250345.0 529625.0 0
256446.0 529454.0 0
262631.0 529843.0 0
267386.0 532361.0 0
272577.0 529377.0 0
278371.0 529243.0 0
283029.0 532066.0 0
289457.0 529073.0 0
289271.0 533826.0 0
294384.0 529892.0 0
292910.0 533464.0 0
303219.0 532774.0 0
307208.0 529069.0 0
312332.0 530411.0 0
319858.0 533312.0 0
324016.0 531521.0 0
328496.0 533899.0 0
334392.0 533939.0 0
338574.0 529940.0 0
343897.0 529971.0 0
350406.0 529239.0 0
354660.0 533163.0 0
358097.0 529632.0 0
358895.0 533509.0 0
362928.0 530922.0 0
367581.0 529884.0 0
372437.0 531731.0 0
376422.0 532860.0 0
380094.0 533437.0 0
384558.0 532778.0 0
388823.0 530323.0 0
389086.0 533821.0 0
393099.0 530007.0 0
399448.0 529943.0 0
400230.0 534165.0 0
403620.0 532295.0 0
409117.0 531676.0 0
415625.0 534240.0 0
421860.0 532967.0 0
427149.0 531758.0 0
432093.0 532208.0 0
437296.0 533745.0 0
442724.0 533104.0 0
447047.0 531913.0 0
451302.0 531476.0 0
449120.0 534454.0 0
456966.0 532808.0 0
462549.0 532659.0 0
466057.0 530483.0 0
466147.0 534638.0 0
470496.0 532650.0 0
476442.0 533940.0 0
482804.0 534408.0 0
488383.0 533495.0 0
493392.0 534004.0 0
497154.0 532185.0 0
1744.1 537624.0 0
5636.29 539222.0 0
10490.7 537847.0 0
14393.4 535768.0 0
18384.7 537239.0 0
22505.4 536479.0 0
26920.0 534873.0 0
30708.9 536424.0 0
26428.7 539477.0 0
35457.6 537593.0 0
39981.0 538151.0 0
45134.9 538331.0 0
49485.2 536783.0 0
53941.4 538518.0 0
60470.8 537704.0 0
68330.9 537435.0 0
72046.9 534851.0 0
75975.9 535470.0 0
73355.1 540118.0 0
82207.1 536228.0 0
78649.8 539148.0 0
87732.7 536454.0 0
93817.0 536083.0 0
92930.7 539903.0 0
99207.1 535941.0 0
103388.0 536519.0 0
106748.0 538423.0 0
109896.0 535161.0 0
112222.0 538938.0 0
114232.0 535083.0 0
122255.0 534305.0 0
118657.0 535972.0 0
122514.0 537810.0 0
126349.0 534994.0 0
132379.0 534584.0 0
131817.0 539106.0 0
136846.0 538594.0 0
139879.0 536705.0 0
143459.0 534649.0 0
147219.0 538984.0 0
149371.0 534258.0 0
152992.0 537383.0 0
160753.0 537791.0 0
167715.0 535439.0 0
165007.0 539232.0 0
171610.0 539225.0 0
183194.0 534839.0 0
178657.0 535447.0 0
185402.0 538772.0 0
190202.0 538136.0 0
195315.0 538868.0 0
201297.0 539044.0 0
207629.0 534238.0 0
212559.0 538189.0 0
217066.0 535206.0 0
223148.0 537351.0 0
229451.0 535000.0 0
232760.0 538493.0 0
240616.0 536255.0 0
248557.0 538339.0 0
252374.0 534557.0 0
254914.0 538660.0 0
257089.0 534913.0 0
259690.0 538867.0 0
262057.0 534581.0 0
272444.0 535478.0 0
277626.0 534220.0 0
276221.0 539116.0 0
281284.0 538019.0 0
285738.0 535895.0 0
292403.0 538273.0 0
297370.0 534346.0 0
303032.0 538066.0 0
308789.0 534883.0 0
314775.0 535759.0 0
323654.0 536385.0 0
331907.0 538269.0 0
338284.0 535536.0 0
337139.0 539275.0 0
342975.0 535255.0 0
348482.0 534446.0 0
353211.0 538451.0 0
362118.0 534879.0 0
358210.0 537263.0 0
366532.0 534849.0 0
371421.0 537002.0 0
367347.0 539243.0 0
376842.0 537092.0 0
382818.0 538269.0 0
391536.0 537954.0 0
395891.0 535138.0 0
400423.0 539285.0 0
405576.0 536391.0 0
410673.0 537592.0 0
415168.0 539426.0 0
419480.0 537517.0 0
424875.0 537403.0 0
428876.0 535527.0 0
428806.0 540075.0 0
433420.0 537494.0 0
440924.0 538201.0 0
446218.0 537017.0 0
452432.0 536624.0 0
457053.0 538306.0 0
461158.0 536501.0 0
461286.0 540628.0 0
464816.0 538480.0 0
469789.0 538096.0 0
475405.0 539282.0 0
479545.0 538048.0 0
485892.0 538487.0 0
491627.0 538486.0 0
497382.0 537361.0 0
2092.14 541170.0 0
9162.54 542576.0 0
14884.3 540951.0 0
20975.6 541295.0 0
24705.3 545078.0 0
31787.4 541379.0 0
34308.4 545348.0 0
37188.1 542003.0 0
41739.4 541880.0 0
45614.9 542915.0 0
49528.0 540746.0 0
53155.1 543615.0 0
57773.7 542188.0 0
63880.1 541613.0 0
68430.0 542154.0 0
83483.1 541124.0 0
89298.9 542794.0 0
95146.7 543283.0 0
97561.5 539903.0 0
102206.0 540191.0 0
108771.0 543056.0 0
113968.0 543631.0 0
117722.0 540412.0 0
122270.0 542190.0 0
126967.0 540028.0 0
130673.0 543729.0 0
134755.0 542415.0 0
142076.0 539517.0 0
139290.0 543383.0 0
144514.0 543961.0 0
152077.0 543558.0 0
157020.0 540259.0 0
161574.0 542953.0 0
167698.0 543242.0 0
176553.0 539932.0 0
180659.0 539899.0 0
179587.0 544060.0 0
184417.0 544097.0 0
189284.0 542400.0 0
198674.0 543163.0 0
206558.0 539467.0 0
218407.0 539398.0 0
217646.0 543861.0 0
222261.0 542686.0 0
227704.0 540102.0 0
231532.0 543919.0 0
238104.0 540118.0 0
243721.0 539743.0 0
247248.0 543775.0 0
251631.0 541671.0 0
256707.0 543896.0 0
261910.0 543780.0 0
266415.0 539363.0 0
272352.0 540454.0 0
277531.0 544210.0 0
282380.0 543500.0 0
286791.0 540476.0 0
298328.0 540189.0 0
303242.0 543119.0 0
307157.0 539506.0 0
308102.0 544160.0 0
311980.0 540920.0 0
318444.0 540099.0 0
323091.0 540834.0 0
327290.0 539419.0 0
333334.0 544236.0 0
341545.0 540401.0 0
343640.0 544222.0 0
347354.0 539769.0 0
351934.0 543942.0 0
357692.0 542607.0 0
362686.0 539416.0 0
362902.0 544450.0 0
370810.0 540860.0 0
368074.0 543973.0 0
373678.0 542782.0 0
378368.0 541952.0 0
387730.0 540709.0 0
391897.0 542827.0 0
395196.0 540127.0 0
396745.0 544267.0 0
407007.0 541177.0 0
411620.0 542226.0 0
418232.0 541532.0 0
422035.0 540662.0 0
425655.0 543999.0 0
432297.0 541507.0 0
436869.0 540696.0 0
434606.0 544690.0 0
440912.0 544655.0 0
445308.0 541339.0 0
449592.0 540707.0 0
453776.0 540817.0 0
457413.0 542562.0 0
461059.0 544641.0 0
466537.0 542658.0 0
472226.0 543486.0 0
477450.0 543211.0 0
482045.0 541786.0 0
487476.0 543453.0 0
492902.0 544023.0 0
497598.0 542205.0 0
3981.26 546069.0 0
9200.27 547272.0 0
13067.8 545788.0 0
18620.5 546834.0 0
29719.1 546395.0 0
35380.1 549980.0 0
39896.7 546439.0 0
44890.5 547179.0 0
49067.8 545423.0 0
52608.6 548107.0 0
57390.4 547444.0 0
61821.9 545769.0 0
66350.1 546151.0 0
71605.4 545645.0 0
69023.3 549463.0 0
78121.7 545294.0 0
83960.6 546055.0 0
87592.1 547493.0 0
92385.9 548195.0 0
100004.0 545104.0 0
104657.0 545212.0 0
102309.0 549021.0 0
113386.0 548985.0 0
118455.0 544653.0 0
121506.0 548084.0 0
126328.0 544989.0 0
129668.0 547996.0 0
135373.0 548056.0 0
141580.0 548503.0 0
147691.0 549342.0 0
152901.0 548946.0 0
157447.0 545782.0 0
162287.0 549018.0 0
168423.0 548765.0 0
174279.0 544536.0 0
178592.0 549036.0 0
188725.0 548311.0 0
193961.0 544813.0 0
198503.0 548185.0 0
202556.0 545127.0 0
203753.0 549173.0 0
207309.0 544594.0 0
207596.0 548994.0 0
212750.0 544581.0 0
211524.0 549410.0 0
216569.0 548455.0 0
223182.0 549067.0 0
226597.0 544785.0 0
229049.0 548836.0 0
233487.0 548235.0 0
236422.0 544622.0 0
238090.0 549329.0 0
241337.0 544755.0 0
248707.0 549205.0 0
251916.0 545670.0 0
254476.0 549461.0 0
259300.0 548816.0 0
266115.0 546669.0 0
270260.0 549307.0 0
272336.0 545198.0 0
276267.0 548694.0 0
287407.0 545730.0 0
293387.0 544950.0 0
298846.0 545079.0 0
297411.0 549377.0 0
305359.0 548605.0 0
315533.0 545151.0 0
311358.0 546196.0 0
320597.0 544783.0 0
318487.0 548546.0 0
326285.0 545017.0 0
339305.0 544706.0 0
336749.0 548956.0 0
340827.0 548695.0 0
345865.0 548902.0 0
347543.0 544564.0 0
357059.0 547864.0 0
361645.0 549240.0 0
372178.0 547311.0 0
377842.0 547593.0 0
383030.0 544408.0 0
388033.0 545798.0 0
392641.0 547883.0 0
402379.0 545632.0 0
406979.0 544862.0 0
406590.0 548902.0 0
410543.0 546492.0 0
415351.0 544702.0 0
414330.0 549334.0 0
420431.0 545375.0 0
430116.0 546544.0 0
436747.0 550208.0 0
447708.0 545896.0 0
452335.0 549510.0 0
453533.0 544811.0 0
457358.0 546545.0 0
460696.0 548705.0 0
464467.0 547012.0 0
468617.0 546818.0 0
472272.0 549601.0 0
475786.0 546800.0 0
480431.0 546980.0 0
485627.0 548847.0 0
490239.0 547375.0 0
496837.0 547579.0 0
3161.78 552393.0 0
8509.5 551352.0 0
13867.9 550842.0 0
18837.8 552084.0 0
24375.3 550527.0 0
30184.9 551310.0 0
33378.0 554861.0 0
40441.5 551254.0 0
44117.3 551006.0 0
43258.9 554903.0 0
48417.4 550636.0 0
47624.7 555146.0 0
54290.3 552095.0 0
58999.7 552437.0 0
63470.4 550026.0 0
68003.0 553629.0 0
73991.3 551141.0 0
79307.5 550935.0 0
83606.8 550478.0 0
85399.2 554485.0 0
88028.8 551300.0 0
92387.4 554557.0 0
97797.7 550037.0 0
102773.0 553167.0 0
107388.0 549728.0 0
111336.0 553589.0 0
115702.0 553284.0 0
117667.0 550074.0 0
120951.0 553930.0 0
125912.0 550886.0 0
131244.0 553722.0 0
137612.0 554130.0 0
143073.0 554136.0 0
152993.0 552872.0 0
156828.0 550231.0 0
165781.0 553363.0 0
170711.0 553682.0 0
173571.0 549811.0 0
183392.0 549885.0 0
180889.0 553199.0 0
193868.0 549727.0 0
191469.0 553216.0 0
196685.0 553867.0 0
201158.0 551813.0 0
208591.0 553925.0 0
219010.0 552402.0 0
214412.0 553238.0 0
227115.0 553602.0 0
232912.0 553338.0 0
243327.0 549494.0 0
241022.0 553744.0 0
257523.0 553241.0 0
262902.0 550584.0 0
267054.0 552376.0 0
272362.0 553287.0 0
277517.0 553326.0 0
282107.0 549627.0 0
287473.0 550461.0 0
291789.0 550571.0 0
301408.0 553239.0 0
309516.0 550289.0 0
307288.0 554291.0 0
313421.0 549887.0 0
317635.0 553016.0 0
322500.0 549551.0 0
325863.0 554221.0 0
328295.0 550050.0 0
332712.0 550293.0 0
336298.0 553443.0 0
342164.0 554039.0 0
347982.0 554123.0 0
352058.0 550037.0 0
357623.0 553581.0 0
367287.0 549783.0 0
363273.0 554026.0 0
372338.0 552497.0 0
377658.0 553508.0 0
383690.0 550525.0 0
388787.0 550271.0 0
392901.0 553536.0 0
397906.0 549907.0 0
407810.0 552298.0 0
403061.0 554090.0 0
410568.0 550722.0 0
413399.0 554252.0 0
419170.0 550655.0 0
422046.0 554990.0 0
425577.0 550243.0 0
431642.0 550355.0 0
432435.0 554491.0 0
436473.0 555029.0 0
442748.0 550422.0 0
447581.0 551404.0 0
446629.0 554785.0 0
451218.0 554458.0 0
457038.0 550430.0 0
455490.0 554057.0 0
461481.0 554660.0 0
467004.0 551037.0 0
476991.0 550679.0 0
481440.0 552171.0 0
490042.0 551610.0 0
493396.0 552612.0 0
497164.0 553248.0 0
2170.99 557469.0 0
6250.86 556524.0 0
6119.86 560329.0 0
11489.7 556467.0 0
17091.9 556156.0 0
19937.4 559877.0 0
21933.6 555443.0 0
24809.6 559604.0 0
28358.9 555882.0 0
32242.8 560047.0 0
38321.8 555271.0 0
42794.5 559847.0 0
48236.7 559887.0 0
52046.7 556100.0 0
53313.8 560274.0 0
56380.5 556045.0 0
63248.3 555494.0 0
62673.1 559750.0 0
67433.4 559427.0 0
76363.3 556020.0 0
71933.8 556395.0 0
80883.7 555146.0 0
77912.0 558988.0 0
81539.0 560183.0 0
87089.2 559270.0 0
98347.1 555388.0 0
106955.0 555395.0 0
102771.0 557928.0 0
111160.0 558911.0 0
116692.0 557895.0 0
126004.0 555907.0 0
134250.0 557941.0 0
145832.0 559589.0 0
148980.0 555042.0 0
156971.0 554896.0 0
161548.0 555603.0 0
158474.0 559391.0 0
165829.0 558576.0 0
171334.0 558888.0 0
176153.0 554570.0 0
186077.0 554727.0 0
192502.0 557655.0 0
202566.0 556659.0 0
212589.0 558945.0 0
218129.0 557040.0 0
222491.0 554821.0 0
228442.0 559028.0 0
233480.0 558593.0 0
237283.0 556614.0 0
241756.0 559029.0 0
246643.0 555230.0 0
252800.0 554775.0 0
257113.0 557789.0 0
262245.0 555597.0 0
268541.0 558331.0 0
275252.0 557215.0 0
282591.0 556666.0 0
288946.0 555155.0 0
295452.0 554645.0 0
303732.0 557611.0 0
312757.0 554978.0 0
316803.0 557796.0 0
321504.0 555384.0 0
331259.0 555148.0 0
338070.0 557726.0 0
342614.0 559485.0 0
347209.0 559038.0 0
352552.0 555811.0 0
356877.0 559293.0 0
361802.0 558618.0 0
366068.0 559287.0 0
367970.0 555351.0 0
376050.0 559058.0 0
381908.0 557277.0 0
387401.0 555323.0 0
391573.0 559475.0 0
397451.0 556560.0 0
406608.0 559069.0 0
408899.0 555523.0 0
411547.0 559173.0 0
417845.0 555139.0 0
416848.0 559604.0 0
427304.0 556547.0 0
437971.0 559075.0 0
442622.0 555819.0 0
447990.0 558934.0 0
455112.0 559292.0 0
468062.0 556036.0 0
465371.0 560211.0 0
473936.0 555163.0 0
479143.0 556095.0 0
476860.0 559810.0 0
481589.0 559725.0 0
486055.0 555885.0 0
492562.0 556877.0 0
498373.0 557234.0 0
2127.45 561629.0 0
5057.52 565183.0 0
10686.0 563071.0 0
15552.6 560342.0 0
17679.9 564016.0 0
22776.9 564762.0 0
28040.4 563354.0 0
37729.7 560251.0 0
43373.4 564712.0 0
48078.0 565102.0 0
52240.5 564331.0 0
58425.7 559805.0 0
56525.0 564389.0 0
61584.5 563869.0 0
66279.8 564471.0 0
72869.9 560593.0 0
76998.7 562880.0 0
82500.0 564531.0 0
87935.8 564520.0 0
93122.0 561113.0 0
98681.1 560499.0 0
97276.5 564534.0 0
106267.0 561305.0 0
102147.0 563743.0 0
110231.0 564637.0 0
116410.0 563598.0 0
121512.0 560532.0 0
126134.0 559894.0 0
126357.0 564029.0 0
130587.0 560486.0 0
139052.0 560329.0 0
143258.0 564089.0 0
152511.0 559689.0 0
162202.0 561882.0 0
158564.0 564192.0 0
166255.0 563908.0 0
171895.0 564748.0 0
177063.0 560794.0 0
182929.0 559938.0 0
180956.0 564178.0 0
188232.0 560512.0 0
185204.0 564687.0 0
192454.0 563970.0 0
197273.0 560556.0 0
202248.0 562059.0 0
206993.0 561095.0 0
211732.0 564644.0 0
217307.0 563210.0 0
222786.0 559720.0 0
228514.0 564475.0 0
233609.0 563407.0 0
237309.0 560724.0 0
240391.0 564686.0 0
247090.0 561637.0 0
252674.0 560274.0 0
257919.0 562845.0 0
263123.0 561202.0 0
269642.0 564019.0 0
273630.0 561472.0 0
278216.0 560107.0 0
283724.0 563027.0 0
287475.0 559889.0 0
289108.0 564752.0 0
292516.0 560058.0 0
299008.0 560082.0 0
303738.0 562564.0 0
307164.0 560081.0 0
308093.0 564024.0 0
311816.0 559823.0 0
311860.0 564229.0 0
321367.0 559794.0 0
316491.0 562344.0 0
322428.0 564489.0 0
327452.0 560238.0 0
333891.0 560493.0 0
331678.0 564621.0 0
338988.0 562243.0 0
347181.0 563943.0 0
352012.0 560715.0 0
355696.0 563595.0 0
360328.0 563512.0 0
366783.0 564406.0 0
370474.0 559704.0 0
373242.0 564682.0 0
379588.0 564255.0 0
386284.0 560289.0 0
382952.0 561413.0 0
388264.0 564670.0 0
396264.0 560667.0 0
397359.0 564229.0 0
401332.0 560825.0 0
406745.0 564489.0 0
422505.0 560180.0 0
421732.0 564736.0 0
427390.0 561740.0 0
432283.0 559952.0 0
430496.0 564937.0 0
436339.0 565035.0 0
442759.0 561318.0 0
447321.0 564982.0 0
451274.0 562590.0 0
460696.0 561042.0 0
461988.0 564941.0 0
466115.0 564958.0 0
471169.0 561317.0 0
479155.0 562658.0 0
475991.0 564032.0 0
486497.0 562492.0 0
491835.0 562057.0 0
496831.0 561259.0 0
2627.03 569694.0 0
8431.97 567594.0 0
14664.6 566667.0 0
11703.7 569926.0 0
20716.8 569432.0 0
27555.9 569039.0 0
32654.1 565696.0 0
34331.7 570013.0 0
38285.7 565521.0 0
42333.0 568892.0 0
46315.9 569178.0 0
55782.2 569023.0 0
50966.7 569262.0 0
61223.5 569763.0 0
67272.7 569258.0 0
71278.4 565201.0 0
73180.9 569977.0 0
78699.2 568407.0 0
83247.2 568473.0 0
87546.3 569319.0 0
92252.5 566936.0 0
97818.8 568507.0 0
105911.0 565414.0 0
102128.0 568289.0 0
107500.0 569301.0 0
112788.0 568934.0 0
121942.0 565807.0 0
117982.0 569435.0 0
126994.0 568452.0 0
131095.0 565918.0 0
136264.0 565749.0 0
141063.0 568865.0 0
148804.0 565143.0 0
152340.0 569799.0 0
154144.0 565187.0 0
162351.0 566565.0 0
167425.0 568761.0 0
177305.0 566713.0 0
180896.0 569231.0 0
196628.0 566179.0 0
201614.0 567179.0 0
207254.0 566011.0 0
210576.0 569675.0 0
216101.0 569233.0 0
223117.0 565445.0 0
231627.0 568172.0 0
236385.0 566596.0 0
244574.0 567827.0 0
248934.0 566650.0 0
253413.0 565295.0 0
257678.0 568412.0 0
260908.0 565638.0 0
265121.0 566624.0 0
261838.0 569515.0 0
270401.0 569137.0 0
277877.0 565591.0 0
282613.0 567966.0 0
286564.0 569066.0 0
295440.0 565111.0 0
300674.0 565769.0 0
305159.0 566032.0 0
303369.0 569578.0 0
311395.0 569449.0 0
317466.0 568213.0 0
322928.0 569458.0 0
326815.0 566206.0 0
331138.0 569166.0 0
337309.0 567997.0 0
342673.0 565486.0 0
351771.0 565869.0 0
347791.0 568335.0 0
357245.0 568172.0 0
362512.0 567863.0 0
366288.0 569683.0 0
376769.0 569658.0 0
384199.0 567109.0 0
388243.0 569873.0 0
393170.0 565665.0 0
396535.0 569227.0 0
401288.0 566959.0 0
413489.0 565012.0 0
418648.0 566294.0 0
422010.0 569125.0 0
425698.0 565835.0 0
432213.0 569091.0 0
442173.0 566149.0 0
452572.0 566013.0 0
450002.0 569559.0 0
457349.0 565118.0 0
461181.0 569265.0 0
470724.0 567404.0 0
475996.0 568822.0 0
481713.0 565692.0 0
486039.0 567970.0 0
490478.0 566428.0 0
493585.0 569376.0 0
497260.0 566739.0 0
6929.38 570528.0 0
9187.76 573932.0 0
13913.2 574383.0 0
16462.1 570397.0 0
19003.4 574561.0 0
23049.8 572646.0 0
26985.2 575150.0 0
32357.7 574146.0 0
38492.1 570621.0 0
37296.6 575099.0 0
42202.6 574567.0 0
47504.1 573951.0 0
52614.4 573983.0 0
57089.6 573448.0 0
65017.8 573822.0 0
70164.2 574106.0 0
76549.9 574694.0 0
83047.9 572903.0 0
88574.1 574302.0 0
92055.9 571530.0 0
95814.4 571941.0 0
99624.7 574251.0 0
103765.0 572156.0 0
110895.0 573918.0 0
121894.0 573990.0 0
123112.0 570349.0 0
126001.0 574511.0 0
130928.0 571819.0 0
135875.0 570284.0 0
137177.0 574807.0 0
142781.0 574897.0 0
146876.0 570750.0 0
147094.0 574894.0 0
158309.0 570210.0 0
161939.0 574721.0 0
163456.0 570480.0 0
167151.0 573953.0 0
172701.0 571283.0 0
177841.0 571038.0 0
181244.0 573083.0 0
185843.0 570398.0 0
192396.0 569984.0 0
197772.0 570866.0 0
201408.0 574831.0 0
205980.0 569941.0 0
207653.0 574724.0 0
213178.0 574069.0 0
221354.0 570675.0 0
223758.0 574472.0 0
226812.0 570535.0 0
231918.0 573480.0 0
235585.0 569885.0 0
236825.0 573585.0 0
240296.0 570392.0 0
246175.0 572857.0 0
252266.0 570216.0 0
250876.0 574662.0 0
256506.0 574778.0 0
262673.0 573560.0 0
267816.0 573839.0 0
275346.0 570794.0 0
279853.0 570894.0 0
283614.0 571652.0 0
287517.0 574590.0 0
291972.0 569955.0 0
298205.0 570797.0 0
302531.0 573874.0 0
306791.0 572415.0 0
312869.0 574180.0 0
317752.0 574336.0 0
327054.0 573121.0 0
332631.0 574224.0 0
338056.0 574464.0 0
343287.0 571091.0 0
351514.0 570952.0 0
355854.0 573357.0 0
362204.0 573918.0 0
371082.0 570274.0 0
374177.0 574691.0 0
381551.0 570279.0 0
379627.0 574688.0 0
384502.0 573029.0 0
392594.0 570389.0 0
388544.0 574546.0 0
392727.0 574211.0 0
402763.0 572115.0 0
398242.0 573470.0 0
408016.0 570451.0 0
412703.0 570972.0 0
416929.0 570163.0 0
422498.0 574506.0 0
427352.0 570751.0 0
433225.0 575152.0 0
436625.0 571013.0 0
441944.0 571291.0 0
446696.0 572706.0 0
455460.0 570867.0 0
458520.0 574992.0 0
466437.0 570698.0 0
467973.0 574969.0 0
471399.0 572465.0 0
476469.0 574731.0 0
481139.0 571003.0 0
486071.0 572627.0 0
491460.0 573889.0 0
497973.0 571361.0 0
3688.82 575663.0 0
1389.65 579976.0 0
11369.4 579147.0 0
17107.1 579603.0 0
22278.6 578910.0 0
34054.0 579333.0 0
39134.0 579484.0 0
43584.0 579323.0 0
48103.3 579127.0 0
52900.0 578691.0 0
60944.0 575955.0 0
57500.0 579468.0 0
62791.9 579984.0 0
67261.9 578669.0 0
72364.4 578628.0 0
81767.1 579516.0 0
87824.4 578922.0 0
94054.1 576790.0 0
98507.3 578007.0 0
106122.0 575226.0 0
102324.0 578705.0 0
106911.0 579012.0 0
117219.0 575780.0 0
112286.0 579827.0 0
122871.0 578674.0 0
132434.0 577262.0 0
127812.0 578944.0 0
134643.0 579050.0 0
152752.0 575028.0 0
148778.0 578840.0 0
157372.0 575524.0 0
154541.0 579068.0 0
162977.0 579143.0 0
158575.0 579932.0 0
167385.0 579088.0 0
173137.0 577258.0 0
177438.0 575019.0 0
177533.0 579710.0 0
184165.0 576889.0 0
189435.0 575157.0 0
192375.0 579629.0 0
195416.0 575158.0 0
197382.0 579783.0 0
214091.0 579470.0 0
218676.0 575710.0 0
227618.0 576731.0 0
231996.0 578962.0 0
236292.0 577598.0 0
241120.0 576099.0 0
246170.0 579055.0 0
251981.0 579536.0 0
260742.0 578769.0 0
265878.0 578875.0 0
273154.0 575933.0 0
278677.0 575225.0 0
276697.0 579914.0 0
282887.0 575968.0 0
280873.0 579134.0 0
293469.0 575268.0 0
290850.0 579230.0 0
298351.0 575633.0 0
296162.0 579822.0 0
301799.0 578780.0 0
306243.0 576491.0 0
310547.0 577665.0 0
315750.0 579580.0 0
320970.0 579265.0 0
322688.0 575003.0 0
325979.0 578270.0 0
329283.0 576689.0 0
331907.0 578669.0 0
346955.0 574968.0 0
343274.0 576211.0 0
346448.0 579089.0 0
351478.0 576107.0 0
357478.0 577742.0 0
366717.0 579765.0 0
368557.0 575036.0 0
372179.0 579820.0 0
384742.0 578762.0 0
390793.0 578358.0 0
396070.0 578024.0 0
401311.0 576647.0 0
406292.0 575518.0 0
404501.0 579415.0 0
411169.0 575003.0 0
409001.0 579597.0 0
416751.0 575832.0 0
427736.0 576436.0 0
423619.0 579434.0 0
431386.0 579686.0 0
438648.0 575704.0 0
435790.0 579691.0 0
443673.0 576297.0 0
448492.0 576867.0 0
453302.0 576104.0 0
457349.0 579633.0 0
463304.0 575370.0 0
467516.0 579461.0 0
471300.0 576781.0 0
478835.0 580012.0 0
482402.0 576204.0 0
487113.0 577188.0 0
492766.0 579674.0 0
497002.0 575935.0 0
498191.0 580242.0 0
2722.68 583817.0 0
6455.24 580646.0 0
8395.38 585232.0 0
13977.6 584338.0 0
19009.0 584191.0 0
23199.4 583046.0 0
28097.0 581064.0 0
32587.4 584013.0 0
37294.2 584528.0 0
40797.1 584094.0 0
45088.4 584642.0 0
50294.8 583985.0 0
55870.9 584527.0 0
60729.1 583865.0 0
65854.4 583866.0 0
76182.4 580645.0 0
71965.1 584065.0 0
78628.9 584758.0 0
86351.5 583106.0 0
82366.3 585132.0 0
91497.0 582462.0 0
97737.0 582579.0 0
108188.0 583121.0 0
113783.0 585120.0 0
117414.0 581649.0 0
121602.0 582928.0 0
118276.0 585152.0 0
126342.0 583907.0 0
131142.0 581195.0 0
135648.0 583715.0 0
140042.0 580494.0 0
145393.0 583841.0 0
152597.0 582747.0 0
157076.0 584439.0 0
161367.0 583666.0 0
166837.0 585105.0 0
171148.0 581448.0 0
177768.0 584609.0 0
181596.0 580583.0 0
182159.0 584596.0 0
186959.0 582376.0 0
192342.0 584784.0 0
198299.0 583958.0 0
202865.0 581226.0 0
208802.0 580296.0 0
210728.0 584313.0 0
218891.0 581082.0 0
215518.0 585052.0 0
223903.0 580573.0 0
228408.0 580937.0 0
231257.0 583520.0 0
236843.0 583060.0 0
240947.0 580210.0 0
242925.0 583551.0 0
248551.0 584456.0 0
254307.0 584735.0 0
256898.0 580682.0 0
262269.0 583857.0 0
269079.0 584749.0 0
272943.0 580887.0 0
275411.0 584370.0 0
279857.0 583181.0 0
285645.0 580228.0 0
289467.0 584269.0 0
294259.0 584348.0 0
298692.0 585124.0 0
302734.0 583290.0 0
306106.0 584489.0 0
306533.0 580554.0 0
311361.0 583404.0 0
317524.0 583836.0 0
322287.0 584542.0 0
327186.0 582931.0 0
336665.0 580349.0 0
332205.0 582583.0 0
340566.0 583716.0 0
342018.0 580219.0 0
344277.0 583671.0 0
350466.0 580896.0 0
348039.0 584342.0 0
355872.0 583473.0 0
361558.0 580452.0 0
364862.0 584303.0 0
369582.0 584430.0 0
374658.0 583648.0 0
378196.0 580519.0 0
382108.0 583670.0 0
387053.0 584153.0 0
392031.0 583441.0 0
397178.0 583122.0 0
400854.0 580841.0 0
401250.0 584924.0 0
405921.0 583808.0 0
410987.0 584624.0 0
413891.0 580664.0 0
416471.0 585128.0 0
418446.0 580722.0 0
421669.0 583323.0 0
427557.0 581322.0 0
431413.0 584822.0 0
437106.0 584462.0 0
440700.0 580477.0 0
445720.0 580688.0 0
448457.0 585154.0 0
451391.0 580689.0 0
454736.0 584292.0 0
462492.0 580550.0 0
463318.0 584903.0 0
459389.0 584230.0 0
467438.0 584507.0 0
473498.0 580270.0 0
471881.0 584925.0 0
476004.0 583888.0 0
483913.0 580980.0 0
480258.0 584648.0 0
488273.0 581156.0 0
486531.0 584748.0 0
490843.0 584327.0 0
495965.0 584013.0 0
2384.63 588863.0 0
6748.64 589815.0 0
12080.9 590153.0 0
17321.9 588766.0 0
22451.8 587873.0 0
27805.6 586368.0 0
31903.5 588660.0 0
36910.8 589469.0 0
42440.1 589263.0 0
47941.7 588881.0 0
53072.3 589589.0 0
58081.2 588940.0 0
63011.6 588525.0 0
67211.9 588089.0 0
74659.0 589225.0 0
86025.1 589032.0 0
94097.1 587774.0 0
99255.6 588648.0 0
103412.0 585440.0 0
105286.0 589510.0 0
108732.0 587776.0 0
113088.0 590154.0 0
117358.0 588152.0 0
122079.0 587444.0 0
126699.0 589290.0 0
131400.0 585278.0 0
130934.0 589452.0 0
135042.0 588274.0 0
140109.0 586665.0 0
148108.0 589054.0 0
153450.0 587823.0 0
158384.0 588561.0 0
162500.0 589689.0 0
172824.0 585575.0 0
170524.0 589418.0 0
176020.0 589149.0 0
180833.0 589099.0 0
184952.0 587402.0 0
189802.0 590297.0 0
196385.0 588706.0 0
201663.0 586888.0 0
206600.0 585881.0 0
211106.0 588941.0 0
221121.0 585246.0 0
222104.0 590214.0 0
226745.0 586403.0 0
232540.0 588507.0 0
237456.0 588390.0 0
242248.0 589086.0 0
253540.0 590023.0 0
258457.0 588155.0 0
263019.0 589686.0 0
273617.0 589794.0 0
278858.0 587889.0 0
283856.0 585384.0 0
282447.0 589445.0 0
292820.0 589115.0 0
303145.0 587702.0 0
308065.0 588073.0 0
313117.0 589734.0 0
318653.0 588548.0 0
325629.0 589027.0 0
330452.0 586637.0 0
335918.0 586351.0 0
342073.0 588580.0 0
351139.0 588190.0 0
359358.0 588643.0 0
364402.0 589145.0 0
368786.0 588987.0 0
373381.0 587808.0 0
378981.0 587303.0 0
384018.0 587149.0 0
387450.0 589491.0 0
391708.0 588533.0 0
397490.0 588588.0 0
408078.0 588098.0 0
403417.0 590114.0 0
412375.0 589159.0 0
416514.0 589802.0 0
421062.0 588291.0 0
425796.0 585597.0 0
428757.0 590114.0 0
434858.0 589251.0 0
442590.0 585786.0 0
447929.0 589662.0 0
444495.0 590274.0 0
452495.0 588872.0 0
457389.0 588273.0 0
462273.0 590129.0 0
467468.0 589176.0 0
471812.0 589064.0 0
477029.0 589146.0 0
483373.0 588868.0 0
488759.0 588403.0 0
493234.0 588020.0 0
497709.0 588510.0 0
2460.38 593683.0 0
7865.88 594719.0 0
13707.7 595258.0 0
16964.8 592756.0 0
23352.4 593179.0 0
27450.4 590700.0 0
28977.2 595124.0 0
33803.7 593572.0 0
38836.4 593922.0 0
43149.8 594609.0 0
47404.5 593670.0 0
52323.5 595023.0 0
61146.7 592746.0 0
56984.6 593354.0 0
65047.8 594002.0 0
69782.5 591959.0 0
73932.2 594535.0 0
79773.1 590530.0 0
77500.0 594508.0 0
82728.6 594542.0 0
91191.1 592488.0 0
87112.2 594762.0 0
96677.1 593223.0 0
102402.0 592564.0 0
108306.0 593390.0 0
117192.0 592822.0 0
122630.0 593218.0 0
128263.0 593970.0 0
133645.0 593330.0 0
138783.0 593612.0 0
143016.0 591291.0 0
147055.0 594222.0 0
152807.0 593764.0 0
158615.0 593043.0 0
163069.0 595114.0 0
166113.0 591223.0 0
170466.0 594199.0 0
175752.0 594101.0 0
181172.0 594642.0 0
184462.0 591285.0 0
186368.0 595159.0 0
196361.0 594562.0 0
200778.0 592067.0 0
205739.0 591100.0 0
210117.0 594612.0 0
216877.0 590671.0 0
215161.0 595245.0 0
219855.0 594914.0 0
227558.0 591091.0 0
225012.0 594555.0 0
230930.0 594460.0 0
236993.0 593286.0 0
247967.0 590431.0 0
253474.0 595387.0 0
258358.0 593344.0 0
263581.0 594681.0 0
267601.0 590916.0 0
274208.0 595140.0 0
279729.0 593567.0 0
286908.0 590463.0 0
289696.0 594480.0 0
293785.0 594301.0 0
298594.0 590930.0 0
303279.0 594923.0 0
308646.0 592964.0 0
313204.0 595192.0 0
317781.0 593551.0 0
321166.0 595095.0 0
321806.0 591907.0 0
325598.0 594817.0 0
330641.0 591998.0 0
334868.0 593410.0 0
337259.0 591000.0 0
339166.0 595225.0 0
344484.0 594377.0 0
347042.0 590718.0 0
350567.0 594138.0 0
356698.0 593558.0 0
361705.0 592699.0 0
366739.0 594543.0 0
377319.0 591417.0 0
373038.0 593543.0 0
378011.0 595172.0 0
382860.0 592415.0 0
388564.0 594078.0 0
393761.0 593076.0 0
399191.0 594380.0 0
408942.0 592798.0 0
414026.0 593891.0 0
419148.0 593457.0 0
423789.0 592509.0 0
427431.0 595184.0 0
432721.0 594180.0 0
436015.0 592912.0 0
439863.0 590843.0 0
443531.0 594334.0 0
447346.0 592975.0 0
451907.0 594536.0 0
457425.0 593178.0 0
467694.0 594272.0 0
471952.0 592789.0 0
475764.0 594964.0 0
480507.0 593470.0 0
485746.0 594442.0 0
491297.0 592647.0 0
497330.0 593357.0 0
2996.87 599097.0 0
13869.5 600210.0 0
19434.1 597511.0 0
25071.3 597581.0 0
29672.7 599818.0 0
34981.2 598697.0 0
40770.8 598321.0 0
46339.2 598337.0 0
50713.1 600001.0 0
55306.3 599560.0 0
60061.5 597654.0 0
65742.4 598829.0 0
71968.8 599364.0 0
81108.8 598119.0 0
77476.4 598977.0 0
85436.8 599437.0 0
91058.2 597939.0 0
97768.4 598760.0 0
103306.0 598498.0 0
109348.0 599689.0 0
113441.0 595817.0 0
115295.0 599570.0 0
117680.0 597245.0 0
121385.0 598508.0 0
126605.0 599239.0 0
136503.0 597414.0 0
142506.0 596613.0 0
147132.0 599773.0 0
154243.0 600197.0 0
159755.0 598813.0 0
166730.0 595717.0 0
164288.0 599503.0 0
168566.0 598704.0 0
173342.0 598668.0 0
178197.0 599461.0 0
182315.0 599194.0 0
186858.0 600362.0 0
191282.0 596461.0 0
197453.0 599653.0 0
200665.0 596443.0 0
202884.0 600282.0 0
205061.0 596060.0 0
207648.0 599377.0 0
212864.0 599237.0 0
217495.0 598904.0 0
221887.0 599735.0 0
227076.0 599789.0 0
232721.0 600122.0 0
237669.0 598643.0 0
241997.0 595939.0 0
247740.0 596498.0 0
259757.0 597530.0 0
256240.0 599364.0 0
262973.0 599295.0 0
269095.0 596117.0 0
272801.0 599359.0 0
277528.0 599190.0 0
285286.0 595915.0 0
282443.0 599528.0 0
289488.0 598768.0 0
294661.0 599219.0 0
297927.0 595838.0 0
299823.0 599469.0 0
307669.0 597232.0 0
311263.0 600154.0 0
316891.0 599154.0 0
322083.0 598661.0 0
326790.0 600220.0 0
332764.0 598200.0 0
337995.0 600032.0 0
342444.0 600003.0 0
347311.0 598610.0 0
351861.0 599082.0 0
356807.0 599577.0 0
362072.0 598208.0 0
366836.0 599970.0 0
371353.0 599017.0 0
376713.0 599762.0 0
381814.0 598425.0 0
386957.0 598835.0 0
392287.0 598492.0 0
402506.0 598965.0 0
398127.0 600363.0 0
404497.0 595538.0 0
410710.0 597559.0 0
415580.0 598862.0 0
421351.0 598742.0 0
427112.0 600467.0 0
432981.0 600112.0 0
438369.0 596740.0 0
447194.0 597125.0 0
451012.0 600103.0 0
456689.0 598982.0 0
462218.0 596080.0 0
466306.0 600457.0 0
471479.0 598159.0 0
481728.0 597951.0 0
490328.0 598602.0 0
496748.0 599158.0 0
2069.71 604821.0 0
8402.64 600702.0 0
5842.53 604282.0 0
11553.6 604858.0 0
18434.4 603641.0 0
23324.7 601800.0 0
28952.2 604482.0 0
32848.7 602664.0 0
38224.7 601808.0 0
43709.3 600766.0 0
42239.7 603942.0 0
46682.8 604497.0 0
50519.0 604950.0 0
55687.0 604376.0 0
62020.6 603996.0 0
67866.8 603392.0 0
71712.6 604703.0 0
75978.6 605007.0 0
80746.5 602635.0 0
85761.1 604913.0 0
94101.4 602844.0 0
99710.6 603869.0 0
104854.0 603483.0 0
109404.0 605535.0 0
113754.0 603231.0 0
118489.0 602431.0 0
123372.0 603585.0 0
132420.0 600544.0 0
128082.0 604282.0 0
132027.0 605313.0 0
136032.0 604529.0 0
139650.0 601074.0 0
143661.0 603560.0 0
147690.0 605151.0 0
157814.0 605171.0 0
162495.0 603493.0 0
167888.0 604074.0 0
172975.0 603184.0 0
177376.0 604305.0 0
182662.0 604039.0 0
192128.0 601677.0 0
196122.0 603753.0 0
200633.0 604897.0 0
206071.0 604367.0 0
212114.0 604956.0 0
217596.0 603455.0 0
222119.0 604758.0 0
226742.0 604970.0 0
231549.0 605269.0 0
236782.0 603987.0 0
244505.0 600627.0 0
240793.0 601154.0 0
241746.0 604806.0 0
247496.0 605576.0 0
251685.0 600643.0 0
253589.0 605385.0 0
258129.0 603494.0 0
263102.0 603634.0 0
267642.0 601316.0 0
272051.0 603938.0 0
280100.0 603968.0 0
284378.0 603724.0 0
288411.0 603601.0 0
293022.0 603804.0 0
297608.0 603571.0 0
304651.0 600777.0 0
302071.0 605145.0 0
307894.0 604557.0 0
313001.0 605108.0 0
317933.0 604485.0 0
322218.0 602982.0 0
336149.0 603360.0 0
331630.0 604502.0 0
340218.0 604290.0 0
346518.0 604618.0 0
352719.0 603762.0 0
357689.0 604793.0 0
363272.0 603912.0 0
369272.0 604161.0 0
373625.0 602806.0 0
376919.0 604571.0 0
382340.0 604668.0 0
388668.0 603566.0 0
393620.0 603568.0 0
406430.0 600571.0 0
412618.0 602540.0 0
408961.0 605171.0 0
417351.0 603629.0 0
422666.0 604625.0 0
437309.0 604316.0 0
443329.0 600731.0 0
447869.0 604596.0 0
453046.0 604428.0 0
457934.0 604911.0 0
461431.0 601045.0 0
463203.0 605190.0 0
467835.0 605241.0 0
472218.0 604548.0 0
476859.0 601031.0 0
481136.0 604860.0 0
485041.0 601700.0 0
489642.0 604399.0 0
497033.0 605290.0 0
2386.82 609213.0 0
7858.17 608086.0 0
12641.7 609508.0 0
17822.0 609221.0 0
23958.4 607688.0 0
29339.8 609007.0 0
32929.2 606810.0 0
37406.8 605953.0 0
41853.3 609292.0 0
47812.5 609365.0 0
52569.6 608963.0 0
57359.6 609657.0 0
62903.2 610333.0 0
67745.4 608172.0 0
72788.5 608960.0 0
77606.2 609534.0 0
81687.5 607641.0 0
85722.4 609994.0 0
90751.8 607743.0 0
96713.1 609118.0 0
101876.0 608519.0 0
106453.0 609706.0 0
111555.0 610391.0 0
116583.0 607718.0 0
125125.0 609368.0 0
130559.0 609938.0 0
133771.0 608336.0 0
138252.0 609183.0 0
143700.0 608263.0 0
152515.0 605771.0 0
149156.0 610469.0 0
154824.0 609218.0 0
162139.0 608158.0 0
166930.0 609802.0 0
173017.0 608714.0 0
179339.0 609275.0 0
188639.0 605803.0 0
184597.0 609321.0 0
193192.0 605955.0 0
188843.0 610528.0 0
192933.0 609907.0 0
197648.0 609191.0 0
202920.0 609900.0 0
208137.0 609163.0 0
218323.0 608537.0 0
222696.0 608672.0 0
226727.0 609839.0 0
232054.0 610557.0 0
237354.0 609451.0 0
242554.0 609485.0 0
252351.0 610320.0 0
257753.0 608911.0 0
262845.0 608324.0 0
267462.0 606638.0 0
272140.0 610295.0 0
275935.0 606567.0 0
279665.0 609362.0 0
285255.0 608318.0 0
291777.0 609188.0 0
298195.0 609031.0 0
303626.0 609574.0 0
308617.0 610236.0 0
312829.0 609281.0 0
317755.0 610369.0 0
326232.0 605607.0 0
321701.0 606912.0 0
324509.0 610579.0 0
329543.0 609995.0 0
335491.0 609130.0 0
341866.0 609388.0 0
351869.0 609062.0 0
347133.0 610433.0 0
357273.0 609981.0 0
369292.0 609517.0 0
373526.0 606971.0 0
377985.0 608800.0 0
387269.0 609156.0 0
397916.0 605669.0 0
393770.0 609244.0 0
403297.0 605806.0 0
409337.0 610075.0 0
413649.0 607193.0 0
418751.0 608456.0 0
427969.0 605797.0 0
423831.0 610086.0 0
432710.0 607289.0 0
437477.0 609648.0 0
442580.0 606358.0 0
446404.0 609565.0 0
451132.0 608979.0 0
455959.0 609567.0 0
460940.0 609971.0 0
465539.0 609155.0 0
470322.0 609357.0 0
476831.0 606865.0 0
481351.0 610576.0 0
485308.0 606595.0 0
492602.0 609056.0 0
497639.0 610556.0 0
2107.39 613645.0 0
6181.23 612468.0 0
10550.0 613749.0 0
15386.3 613914.0 0
21403.7 613721.0 0
27171.8 613259.0 0
32444.6 614916.0 0
36056.8 610823.0 0
37565.2 615634.0 0
41795.0 614577.0 0
46398.1 614450.0 0
52454.0 613689.0 0
59950.9 614747.0 0
56146.1 615216.0 0
65052.4 615297.0 0
69516.2 612842.0 0
74991.7 614310.0 0
81347.1 613570.0 0
87080.6 614904.0 0
92717.8 613610.0 0
97966.0 614592.0 0
102859.0 613496.0 0
108200.0 614466.0 0
114488.0 615157.0 0
119684.0 612665.0 0
129351.0 613925.0 0
133697.0 613727.0 0
137556.0 613796.0 0
141894.0 613105.0 0
154173.0 613312.0 0
158267.0 610755.0 0
162935.0 613316.0 0
158455.0 614971.0 0
168397.0 614335.0 0
173359.0 614150.0 0
177264.0 614844.0 0
182163.0 614103.0 0
186783.0 613583.0 0
192369.0 614346.0 0
197328.0 613431.0 0
203637.0 615460.0 0
208458.0 613877.0 0
213311.0 610962.0 0
217261.0 615525.0 0
221628.0 612660.0 0
226009.0 614663.0 0
230782.0 615799.0 0
236721.0 615587.0 0
242438.0 614543.0 0
247257.0 611940.0 0
251136.0 615019.0 0
255870.0 614165.0 0
262123.0 614420.0 0
266159.0 612128.0 0
277106.0 615024.0 0
282667.0 612893.0 0
287575.0 613935.0 0
293078.0 615218.0 0
300982.0 614073.0 0
307127.0 615596.0 0
312672.0 613877.0 0
323889.0 615089.0 0
330579.0 613857.0 0
327617.0 613964.0 0
333983.0 614391.0 0
338721.0 614110.0 0
344395.0 615161.0 0
352222.0 615276.0 0
358931.0 615633.0 0
363441.0 610938.0 0
369022.0 614338.0 0
373996.0 612631.0 0
382144.0 611634.0 0
384557.0 615473.0 0
389614.0 614959.0 0
395697.0 615280.0 0
399846.0 610998.0 0
402912.0 615041.0 0
404888.0 611146.0 0
408061.0 615485.0 0
413927.0 613230.0 0
419832.0 613469.0 0
425477.0 614784.0 0
429072.0 610784.0 0
430143.0 615728.0 0
433750.0 612473.0 0
436293.0 614670.0 0
441580.0 610846.0 0
439687.0 614809.0 0
444825.0 614281.0 0
451939.0 614877.0 0
457496.0 613860.0 0
461664.0 614587.0 0
466028.0 613603.0 0
470537.0 614085.0 0
475218.0 612387.0 0
487399.0 611001.0 0
491623.0 614773.0 0
497258.0 615615.0 0
1812.89 617553.0 0
6797.55 617750.0 0
12604.3 618294.0 0
18133.6 618588.0 0
23505.3 619418.0 0
28163.4 618857.0 0
34296.7 620644.0 0
39011.3 619350.0 0
43702.6 618451.0 0
49732.3 617206.0 0
47500.0 619906.0 0
57324.1 619324.0 0
62611.9 619848.0 0
67461.6 619586.0 0
72668.9 620023.0 0
78191.0 619204.0 0
83564.2 618986.0 0
88217.2 620627.0 0
93332.9 619672.0 0
98544.6 619048.0 0
104686.0 618499.0 0
110583.0 619121.0 0
115058.0 620237.0 0
119323.0 618162.0 0
124496.0 615854.0 0
123109.0 620061.0 0
131981.0 618359.0 0
127608.0 619116.0 0
137230.0 617992.0 0
142591.0 618554.0 0
147767.0 616197.0 0
153172.0 619172.0 0
163259.0 618504.0 0
158732.0 619097.0 0
168527.0 619280.0 0
173761.0 618415.0 0
179146.0 619909.0 0
184896.0 618919.0 0
188911.0 616644.0 0
192844.0 619454.0 0
198509.0 618053.0 0
207872.0 618512.0 0
212413.0 615835.0 0
212448.0 620624.0 0
222161.0 617893.0 0
227313.0 620013.0 0
232783.0 620687.0 0
244106.0 619908.0 0
247409.0 616378.0 0
249687.0 619606.0 0
259055.0 619100.0 0
264138.0 620675.0 0
270339.0 615868.0 0
265791.0 616987.0 0
268336.0 620269.0 0
273432.0 620039.0 0
283284.0 617843.0 0
288540.0 619834.0 0
293757.0 620465.0 0
297428.0 617514.0 0
302128.0 619720.0 0
307068.0 620773.0 0
312379.0 620039.0 0
318558.0 617135.0 0
323892.0 620080.0 0
329998.0 618761.0 0
336203.0 618558.0 0
347945.0 619684.0 0
356263.0 620118.0 0
360839.0 620729.0 0
364734.0 617159.0 0
371967.0 618498.0 0
378858.0 615858.0 0
382710.0 619708.0 0
399903.0 617524.0 0
404010.0 620113.0 0
412604.0 618729.0 0
417163.0 617425.0 0
421960.0 618235.0 0
427094.0 620036.0 0
432636.0 620298.0 0
434393.0 616367.0 0
437911.0 619499.0 0
442390.0 618383.0 0
447354.0 619502.0 0
452764.0 620763.0 0
458351.0 619287.0 0
463501.0 618149.0 0
468171.0 618273.0 0
473392.0 617654.0 0
479417.0 615871.0 0
477475.0 619566.0 0
481651.0 619754.0 0
485855.0 616516.0 0
491092.0 620929.0 0
497370.0 620962.0 0
2708.57 621985.0 0
7548.6 624939.0 0
12600.4 623303.0 0
18118.5 624843.0 0
23979.3 624439.0 0
28660.0 623297.0 0
37322.1 625003.0 0
41757.2 623130.0 0
47302.4 624238.0 0
52057.8 621155.0 0
55961.6 624362.0 0
60772.4 624633.0 0
66288.5 624681.0 0
71882.0 625356.0 0
81003.2 623471.0 0
76511.5 623832.0 0
85458.5 624663.0 0
90882.8 625507.0 0
96792.6 624060.0 0
101724.0 622632.0 0
107100.0 623369.0 0
112397.0 623800.0 0
120616.0 623436.0 0
126030.0 623110.0 0
131781.0 624411.0 0
138324.0 623698.0 0
147800.0 621249.0 0
143896.0 623542.0 0
152955.0 625104.0 0
157208.0 623335.0 0
162588.0 623935.0 0
168252.0 624880.0 0
174130.0 624041.0 0
188607.0 622402.0 0
183822.0 624462.0 0
192880.0 625206.0 0
203362.0 621174.0 0
198988.0 625428.0 0
208241.0 624454.0 0
217758.0 621043.0 0
218980.0 625175.0 0
214686.0 625443.0 0
222582.0 624320.0 0
229059.0 624937.0 0
234206.0 625721.0 0
238317.0 621855.0 0
242868.0 625350.0 0
248011.0 624360.0 0
253919.0 621166.0 0
252399.0 624747.0 0
256545.0 625216.0 0
261459.0 624295.0 0
266076.0 624431.0 0
270561.0 624157.0 0
275394.0 626003.0 0
278734.0 621365.0 0
283238.0 624314.0 0
288687.0 625678.0 0
294168.0 625356.0 0
297853.0 622100.0 0
300041.0 625099.0 0
304623.0 624904.0 0
309347.0 624402.0 0
315322.0 624836.0 0
316731.0 621549.0 0
319940.0 622551.0 0
327858.0 625248.0 0
335153.0 623965.0 0
341599.0 621201.0 0
339294.0 625583.0 0
346787.0 624242.0 0
350773.0 625192.0 0
352243.0 621435.0 0
357671.0 625077.0 0
363133.0 624955.0 0
367616.0 621639.0 0
372693.0 625033.0 0
377652.0 621144.0 0
383067.0 624215.0 0
388518.0 621385.0 0
395355.0 621691.0 0
400275.0 623043.0 0
407846.0 625678.0 0
408933.0 621414.0 0
413068.0 624206.0 0
418374.0 622206.0 0
422886.0 625329.0 0
427666.0 624831.0 0
432159.0 625539.0 0
437278.0 624718.0 0
442956.0 623811.0 0
448408.0 624932.0 0
455954.0 624769.0 0
462849.0 622111.0 0
460536.0 625408.0 0
467245.0 623463.0 0
471319.0 621614.0 0
474039.0 624598.0 0
479009.0 624110.0 0
483551.0 625384.0 0
485638.0 621839.0 0
487288.0 625462.0 0
2546.09 627235.0 0
7081.85 630825.0 0
11109.9 628497.0 0
15209.9 629634.0 0
21646.6 630249.0 0
27394.8 628300.0 0
32686.3 626613.0 0
38032.0 629449.0 0
43619.3 627752.0 0
47801.6 629554.0 0
51989.2 626895.0 0
57488.3 628649.0 0
63033.6 628918.0 0
67672.1 629895.0 0
75849.9 628329.0 0
71913.2 629959.0 0
81408.2 629009.0 0
86782.9 629351.0 0
97509.2 629576.0 0
103346.0 628010.0 0
109332.0 628757.0 0
116489.0 627873.0 0
122342.0 628204.0 0
127340.0 628302.0 0
131753.0 629536.0 0
136267.0 629313.0 0
142965.0 629023.0 0
148271.0 626205.0 0
154723.0 629174.0 0
158949.0 627370.0 0
165032.0 628092.0 0
169382.0 630358.0 0
174313.0 629418.0 0
178988.0 627418.0 0
183331.0 630979.0 0
188158.0 628127.0 0
192931.0 630054.0 0
197040.0 630197.0 0
203848.0 626040.0 0
202591.0 630104.0 0
207662.0 629920.0 0
212314.0 629716.0 0
217646.0 630125.0 0
222899.0 629648.0 0
226883.0 628454.0 0
231065.0 629914.0 0
238654.0 626862.0 0
236001.0 630244.0 0
240836.0 630441.0 0
246056.0 629901.0 0
251775.0 629019.0 0
257719.0 630173.0 0
262802.0 629203.0 0
268296.0 628950.0 0
273329.0 631039.0 0
278534.0 630507.0 0
282981.0 628905.0 0
286984.0 630922.0 0
292308.0 630533.0 0
297716.0 628967.0 0
303257.0 630031.0 0
308223.0 628819.0 0
311975.0 626932.0 0
312669.0 630841.0 0
317578.0 629394.0 0
322241.0 626654.0 0
327043.0 630760.0 0
332566.0 629626.0 0
338599.0 629784.0 0
343038.0 626962.0 0
344352.0 630727.0 0
348032.0 628843.0 0
352598.0 628640.0 0
356673.0 630532.0 0
367255.0 626316.0 0
362520.0 630665.0 0
374538.0 630716.0 0
379013.0 626251.0 0
382500.0 629487.0 0
378294.0 630744.0 0
386350.0 626443.0 0
387395.0 630355.0 0
391657.0 627300.0 0
395762.0 630166.0 0
398395.0 626095.0 0
403012.0 626167.0 0
400098.0 630360.0 0
405904.0 629968.0 0
411204.0 629884.0 0
417189.0 628655.0 0
422721.0 631040.0 0
427148.0 628838.0 0
431513.0 630779.0 0
437130.0 630258.0 0
442077.0 629041.0 0
447036.0 630079.0 0
452148.0 628286.0 0
456789.0 630605.0 0
461636.0 629587.0 0
466610.0 630403.0 0
470416.0 627149.0 0
475210.0 629819.0 0
481068.0 629256.0 0
486578.0 630026.0 0
491738.0 627164.0 0
497342.0 626232.0 0
498259.0 630527.0 0
2127.78 631883.0 0
8756.36 635715.0 0
11912.3 632577.0 0
17397.7 633565.0 0
21784.9 635300.0 0
26487.5 633850.0 0
33100.6 633193.0 0
38663.5 635484.0 0
42275.8 632192.0 0
46766.9 634348.0 0
53155.2 633321.0 0
60087.2 633142.0 0
65242.3 634182.0 0
70177.2 634255.0 0
73884.4 635791.0 0
76588.6 633110.0 0
81606.0 635195.0 0
86841.1 633931.0 0
91880.2 631905.0 0
97266.0 635552.0 0
103416.0 634336.0 0
109111.0 634201.0 0
113068.0 632065.0 0
117058.0 633347.0 0
113520.0 636139.0 0
119957.0 631203.0 0
122915.0 633496.0 0
127682.0 633404.0 0
133350.0 634556.0 0
139329.0 633915.0 0
145025.0 635276.0 0
149318.0 631369.0 0
149967.0 635945.0 0
153898.0 633920.0 0
158676.0 631937.0 0
164096.0 632691.0 0
168382.0 635192.0 0
177593.0 631669.0 0
173958.0 635467.0 0
179971.0 635218.0 0
188154.0 633286.0 0
184449.0 635742.0 0
192906.0 634913.0 0
196861.0 633624.0 0
200973.0 635368.0 0
206687.0 635119.0 0
212786.0 635162.0 0
218365.0 635255.0 0
222659.0 635872.0 0
226698.0 633233.0 0
231968.0 634987.0 0
237381.0 635270.0 0
243012.0 634135.0 0
247990.0 635797.0 0
252469.0 633552.0 0
256683.0 635260.0 0
261193.0 633684.0 0
265947.0 633924.0 0
270531.0 634680.0 0
276309.0 635654.0 0
282709.0 635022.0 0
288950.0 635888.0 0
294725.0 635964.0 0
299797.0 633764.0 0
304700.0 634751.0 0
308640.0 633213.0 0
312195.0 635516.0 0
316817.0 634476.0 0
322306.0 631792.0 0
325478.0 635044.0 0
330683.0 635830.0 0
336311.0 634574.0 0
346776.0 633357.0 0
341908.0 634384.0 0
351961.0 633686.0 0
358905.0 634220.0 0
369244.0 631288.0 0
377553.0 634370.0 0
373691.0 634597.0 0
381329.0 633819.0 0
386279.0 635336.0 0
391096.0 632835.0 0
394771.0 635994.0 0
399282.0 634966.0 0
404098.0 634684.0 0
408219.0 633359.0 0
411982.0 635700.0 0
417973.0 634882.0 0
427685.0 633725.0 0
424272.0 635458.0 0
431647.0 636056.0 0
436800.0 634453.0 0
441077.0 634550.0 0
446455.0 635402.0 0
451556.0 633692.0 0
456473.0 635634.0 0
461371.0 634519.0 0
466221.0 635425.0 0
471428.0 634665.0 0
478170.0 635475.0 0
482861.0 633503.0 0
487228.0 635971.0 0
494217.0 632271.0 0
497869.0 635379.0 0
3369.34 637230.0 0
9511.4 640913.0 0
12939.9 636728.0 0
18083.6 640006.0 0
24425.8 638820.0 0
35178.0 639838.0 0
39138.6 639358.0 0
43100.4 638149.0 0
49280.1 637981.0 0
53068.9 641265.0 0
57486.6 638125.0 0
62286.3 637940.0 0
66345.5 640732.0 0
71676.8 640897.0 0
76925.4 638826.0 0
85924.4 638489.0 0
91007.0 640471.0 0
92893.5 636347.0 0
96216.4 640570.0 0
101443.0 640394.0 0
107320.0 639211.0 0
117726.0 637975.0 0
123457.0 639059.0 0
129091.0 638339.0 0
133039.0 639640.0 0
138169.0 639480.0 0
143741.0 641110.0 0
148208.0 639344.0 0
158001.0 637054.0 0
153265.0 640273.0 0
163151.0 639768.0 0
169440.0 640220.0 0
174355.0 640851.0 0
183452.0 639766.0 0
178757.0 640142.0 0
188345.0 638519.0 0
192852.0 639293.0 0
197049.0 638935.0 0
202802.0 639771.0 0
208422.0 639847.0 0
213055.0 640982.0 0
217795.0 639841.0 0
222604.0 640435.0 0
227934.0 638910.0 0
233056.0 639479.0 0
237510.0 640682.0 0
241635.0 638329.0 0
245614.0 640750.0 0
250017.0 640543.0 0
254934.0 640507.0 0
261408.0 639483.0 0
268188.0 639220.0 0
273834.0 640720.0 0
279429.0 640436.0 0
283725.0 639958.0 0
287233.0 640946.0 0
291599.0 640233.0 0
296239.0 641186.0 0
301444.0 639192.0 0
308011.0 639555.0 0
313699.0 639892.0 0
318059.0 638878.0 0
321624.0 636240.0 0
326328.0 639411.0 0
321966.0 641049.0 0
335063.0 639313.0 0
340106.0 639657.0 0
347771.0 638133.0 0
353088.0 639334.0 0
361898.0 636639.0 0
357820.0 638105.0 0
361383.0 641028.0 0
366557.0 636701.0 0
371373.0 638693.0 0
376887.0 639124.0 0
382047.0 638892.0 0
385817.0 640185.0 0
390923.0 640102.0 0
397904.0 638555.0 0
401478.0 638771.0 0
407431.0 638824.0 0
413000.0 641194.0 0
422755.0 638567.0 0
418737.0 641031.0 0
427167.0 638908.0 0
431487.0 640835.0 0
436709.0 639229.0 0
441849.0 639906.0 0
445970.0 640281.0 0
451419.0 639651.0 0
457328.0 640783.0 0
461763.0 639063.0 0
465689.0 639752.0 0
471674.0 640198.0 0
476202.0 640190.0 0
482442.0 639574.0 0
492852.0 637459.0 0
497426.0 640002.0 0
3714.87 644298.0 0
13713.8 645197.0 0
23483.7 643644.0 0
29139.2 641551.0 0
33423.7 646037.0 0
40358.1 643317.0 0
47086.4 642606.0 0
61335.5 643400.0 0
66906.1 646401.0 0
72820.9 646337.0 0
77433.9 644044.0 0
81812.7 641385.0 0
86467.3 644141.0 0
91553.6 646188.0 0
96622.8 645193.0 0
101580.0 646002.0 0
107703.0 645977.0 0
113066.0 641532.0 0
118506.0 643068.0 0
127880.0 644092.0 0
134460.0 644396.0 0
140154.0 645123.0 0
148749.0 644003.0 0
153222.0 645426.0 0
158353.0 644094.0 0
168359.0 644433.0 0
164310.0 645949.0 0
172567.0 645447.0 0
178342.0 645427.0 0
183479.0 644408.0 0
188609.0 643955.0 0
194550.0 644077.0 0
199664.0 644543.0 0
203174.0 645046.0 0
207233.0 644310.0 0
212316.0 645736.0 0
217182.0 644695.0 0
222132.0 645187.0 0
227113.0 644522.0 0
232049.0 643775.0 0
236819.0 645825.0 0
241627.0 643639.0 0
246707.0 645857.0 0
251695.0 644553.0 0
257053.0 646346.0 0
263705.0 646101.0 0
268868.0 644393.0 0
273201.0 645880.0 0
278019.0 645415.0 0
283556.0 644356.0 0
287984.0 644546.0 0
292942.0 644756.0 0
296420.0 644931.0 0
300239.0 645009.0 0
306147.0 645890.0 0
312099.0 644783.0 0
316994.0 643211.0 0
321334.0 645557.0 0
326415.0 644704.0 0
330748.0 641564.0 0
332650.0 646409.0 0
337801.0 644337.0 0
342331.0 644097.0 0
347224.0 643562.0 0
357018.0 642396.0 0
352631.0 644866.0 0
366531.0 641586.0 0
363584.0 645192.0 0
369227.0 644717.0 0
373489.0 643470.0 0
378258.0 644754.0 0
387153.0 644151.0 0
382760.0 646230.0 0
391780.0 645721.0 0
396380.0 642794.0 0
402166.0 643646.0 0
408177.0 644798.0 0
413533.0 645891.0 0
423572.0 644164.0 0
427473.0 643780.0 0
432706.0 644887.0 0
437042.0 644787.0 0
442015.0 644304.0 0
448565.0 644769.0 0
453765.0 644625.0 0
458272.0 645727.0 0
462800.0 643650.0 0
467994.0 643504.0 0
473152.0 645951.0 0
479057.0 644039.0 0
484294.0 646065.0 0
487396.0 641684.0 0
488658.0 645730.0 0
492215.0 642361.0 0
493723.0 646189.0 0
497977.0 644509.0 0
3265.97 651225.0 0
8979.02 648154.0 0
14373.9 651217.0 0
19197.1 647126.0 0
23823.0 650658.0 0
27353.7 646757.0 0
28963.9 651347.0 0
38492.0 649291.0 0
44125.1 647911.0 0
50539.7 647117.0 0
48096.9 651212.0 0
56041.1 646469.0 0
58081.1 650889.0 0
61365.1 648634.0 0
64621.4 650869.0 0
74015.7 651275.0 0
77348.2 649440.0 0
81723.9 646729.0 0
86133.0 649293.0 0
90432.3 650908.0 0
95298.9 650310.0 0
100779.0 651231.0 0
112149.0 650089.0 0
114623.0 646540.0 0
122205.0 646593.0 0
117900.0 648610.0 0
127011.0 650925.0 0
132254.0 649149.0 0
137299.0 649748.0 0
144731.0 647370.0 0
148880.0 650254.0 0
154181.0 650113.0 0
159940.0 650065.0 0
169013.0 649130.0 0
173200.0 650786.0 0
177571.0 650176.0 0
181987.0 649142.0 0
187103.0 649039.0 0
192877.0 650440.0 0
198065.0 648400.0 0
202987.0 649529.0 0
208794.0 649673.0 0
214158.0 649774.0 0
218416.0 649220.0 0
222518.0 649606.0 0
226775.0 649419.0 0
232140.0 649344.0 0
238118.0 650075.0 0
242138.0 648701.0 0
247109.0 650908.0 0
252177.0 649089.0 0
257529.0 651259.0 0
261081.0 650721.0 0
269062.0 649520.0 0
274081.0 650325.0 0
278621.0 650224.0 0
283407.0 649592.0 0
287658.0 649668.0 0
291908.0 649423.0 0
296317.0 648172.0 0
300881.0 650847.0 0
305953.0 651062.0 0
310946.0 650568.0 0
316802.0 648617.0 0
323217.0 650238.0 0
328497.0 649702.0 0
332733.0 650971.0 0
341841.0 648813.0 0
336882.0 649510.0 0
347357.0 649269.0 0
352818.0 650268.0 0
358339.0 647878.0 0
367248.0 649209.0 0
362779.0 650303.0 0
373254.0 649005.0 0
378657.0 649578.0 0
387463.0 649292.0 0
382998.0 650585.0 0
391748.0 650886.0 0
395797.0 648836.0 0
401216.0 649171.0 0
406598.0 650710.0 0
411207.0 649181.0 0
414758.0 649842.0 0
418411.0 647052.0 0
428415.0 647626.0 0
423536.0 649705.0 0
433209.0 649797.0 0
438225.0 649046.0 0
442164.0 648626.0 0
446135.0 649310.0 0
451707.0 649846.0 0
456498.0 649219.0 0
460937.0 649491.0 0
466007.0 648283.0 0
470416.0 650909.0 0
480265.0 648968.0 0
484271.0 651043.0 0
490435.0 650993.0 0
497110.0 649535.0 0
2052.15 656363.0 0
8496.85 653363.0 0
19438.0 652216.0 0
22091.3 654773.0 0
26204.0 655327.0 0
33770.9 651642.0 0
32479.7 655840.0 0
37438.7 655655.0 0
43047.8 653700.0 0
48096.2 656052.0 0
52848.8 651895.0 0
56805.9 655060.0 0
62419.7 655367.0 0
68899.7 653789.0 0
73569.3 655728.0 0
77627.2 654815.0 0
81859.1 652031.0 0
86989.4 654418.0 0
92858.4 655169.0 0
97359.5 654520.0 0
106130.0 652017.0 0
102178.0 656138.0 0
106268.0 656507.0 0
110558.0 654992.0 0
116415.0 653848.0 0
121347.0 651527.0 0
121529.0 656095.0 0
133350.0 654069.0 0
142334.0 651945.0 0
138144.0 654861.0 0
146439.0 654899.0 0
151244.0 654541.0 0
156155.0 655524.0 0
161095.0 655230.0 0
165269.0 651661.0 0
170545.0 655411.0 0
176246.0 654854.0 0
182072.0 654700.0 0
188153.0 654582.0 0
193645.0 656516.0 0
198641.0 653553.0 0
202268.0 656242.0 0
205535.0 653981.0 0
212394.0 654257.0 0
216788.0 654362.0 0
221077.0 654092.0 0
226514.0 654635.0 0
231452.0 654433.0 0
236737.0 654897.0 0
242994.0 654167.0 0
247822.0 654958.0 0
251803.0 653634.0 0
256333.0 655166.0 0
261112.0 655016.0 0
266071.0 654391.0 0
270997.0 654403.0 0
275994.0 654780.0 0
282193.0 654295.0 0
286707.0 654364.0 0
291392.0 654427.0 0
295945.0 652679.0 0
301882.0 656367.0 0
307920.0 654279.0 0
315909.0 654240.0 0
311494.0 656105.0 0
321234.0 655284.0 0
325653.0 653916.0 0
330085.0 654991.0 0
335459.0 654240.0 0
341263.0 654559.0 0
347613.0 655423.0 0
353751.0 655722.0 0
360244.0 654595.0 0
366567.0 655132.0 0
371340.0 656470.0 0
374281.0 653762.0 0
378717.0 655169.0 0
383641.0 654717.0 0
388877.0 654854.0 0
393779.0 654225.0 0
398113.0 653423.0 0
402945.0 654555.0 0
407521.0 654234.0 0
411153.0 654031.0 0
417058.0 653910.0 0
422163.0 654400.0 0
427458.0 654266.0 0
432591.0 654467.0 0
437027.0 653811.0 0
442711.0 653564.0 0
448085.0 653981.0 0
452926.0 655769.0 0
457844.0 653414.0 0
462086.0 655884.0 0
466395.0 653647.0 0
472147.0 655072.0 0
475778.0 651894.0 0
480905.0 654521.0 0
486115.0 656272.0 0
497547.0 654853.0 0
3016.45 661357.0 0
6237.63 657486.0 0
8033.27 661416.0 0
12232.1 656649.0 0
12538.7 661666.0 0
17842.0 656885.0 0
20281.6 660241.0 0
23346.7 659022.0 0
29418.7 659947.0 0
41626.9 658463.0 0
46750.7 660215.0 0
52844.3 658165.0 0
57560.1 659953.0 0
62029.9 660541.0 0
66403.5 659370.0 0
71145.5 658914.0 0
75924.9 659489.0 0
81145.0 661541.0 0
82716.7 656659.0 0
87055.3 660177.0 0
92403.2 660220.0 0
96972.5 658859.0 0
101453.0 660864.0 0
106511.0 660885.0 0
112166.0 660593.0 0
118327.0 660475.0 0
126215.0 656723.0 0
123604.0 660489.0 0
130815.0 659448.0 0
135920.0 658578.0 0
142150.0 656830.0 0
139937.0 661076.0 0
143591.0 660103.0 0
147552.0 659871.0 0
152616.0 659178.0 0
157243.0 660020.0 0
161737.0 660343.0 0
165429.0 657105.0 0
168051.0 660580.0 0
172887.0 660806.0 0
177664.0 659451.0 0
181871.0 659951.0 0
187538.0 660402.0 0
192337.0 660801.0 0
198410.0 659120.0 0
202937.0 659771.0 0
208680.0 659468.0 0
213870.0 661212.0 0
216036.0 658130.0 0
220471.0 659321.0 0
225588.0 660170.0 0
230874.0 659126.0 0
235702.0 660360.0 0
240357.0 660067.0 0
246180.0 660014.0 0
253151.0 660297.0 0
259535.0 659912.0 0
264195.0 660117.0 0
268974.0 659316.0 0
273391.0 659096.0 0
278449.0 659787.0 0
283230.0 658769.0 0
287032.0 658287.0 0
291301.0 659924.0 0
296744.0 657530.0 0
300773.0 661030.0 0
306427.0 658039.0 0
310196.0 660377.0 0
316036.0 660459.0 0
322086.0 660692.0 0
326588.0 659079.0 0
331507.0 660455.0 0
337262.0 659610.0 0
342380.0 659459.0 0
346466.0 661088.0 0
350958.0 659887.0 0
357538.0 660552.0 0
363522.0 660070.0 0
368696.0 659412.0 0
375091.0 659464.0 0
379831.0 659779.0 0
384335.0 659393.0 0
392710.0 657842.0 0
389202.0 660326.0 0
397526.0 658980.0 0
402495.0 658172.0 0
402140.0 661561.0 0
407086.0 658826.0 0
413253.0 659135.0 0
418696.0 659526.0 0
423757.0 658549.0 0
428359.0 659933.0 0
433635.0 659165.0 0
438369.0 658134.0 0
442766.0 659459.0 0
448333.0 659233.0 0
453890.0 661122.0 0
457654.0 658197.0 0
461491.0 660382.0 0
467007.0 659439.0 0
472707.0 659190.0 0
476859.0 657134.0 0
477964.0 660631.0 0
481863.0 659658.0 0
489736.0 660251.0 0
493097.0 656721.0 0
494147.0 661031.0 0
497892.0 659398.0 0
8583.81 666228.0 0
14330.6 666151.0 0
17446.0 662430.0 0
24084.2 663268.0 0
20632.6 666081.0 0
27451.0 664006.0 0
30944.4 665267.0 0
36593.0 661848.0 0
39528.8 666699.0 0
42066.6 662780.0 0
50453.2 662048.0 0
46616.8 664526.0 0
50278.4 666675.0 0
54783.4 664877.0 0
60554.7 664928.0 0
65805.4 664503.0 0
72301.3 664912.0 0
78415.9 666318.0 0
82132.2 665807.0 0
85525.8 665100.0 0
91594.5 665876.0 0
97140.1 663828.0 0
103020.0 666557.0 0
109081.0 665529.0 0
113615.0 665277.0 0
121537.0 665515.0 0
127227.0 664158.0 0
133710.0 665392.0 0
140132.0 666465.0 0
144895.0 664186.0 0
149570.0 665560.0 0
154616.0 664042.0 0
159640.0 664612.0 0
167751.0 664532.0 0
163817.0 664877.0 0
171797.0 665807.0 0
177261.0 665098.0 0
183626.0 664943.0 0
188784.0 665137.0 0
192106.0 663856.0 0
197382.0 664915.0 0
203445.0 664510.0 0
213917.0 664682.0 0
209191.0 666526.0 0
217674.0 664192.0 0
222305.0 664450.0 0
227438.0 665041.0 0
232917.0 664753.0 0
238566.0 664846.0 0
242979.0 664422.0 0
247870.0 665751.0 0
251803.0 665095.0 0
255780.0 665898.0 0
260845.0 665085.0 0
265914.0 664108.0 0
271798.0 664943.0 0
276974.0 664287.0 0
282187.0 664578.0 0
287654.0 663511.0 0
291575.0 666297.0 0
296060.0 663182.0 0
300543.0 665539.0 0
305747.0 663691.0 0
311658.0 665086.0 0
321912.0 665501.0 0
327415.0 664586.0 0
332603.0 665097.0 0
337046.0 665094.0 0
341844.0 663756.0 0
351954.0 664497.0 0
347090.0 666101.0 0
362971.0 665198.0 0
367660.0 663819.0 0
372364.0 663430.0 0
376917.0 664461.0 0
382072.0 664200.0 0
387561.0 665632.0 0
393960.0 664432.0 0
399565.0 665261.0 0
405519.0 665927.0 0
411481.0 664370.0 0
417178.0 664977.0 0
423325.0 664225.0 0
429661.0 665325.0 0
437537.0 661710.0 0
435220.0 665190.0 0
440933.0 664420.0 0
446536.0 664856.0 0
451826.0 665586.0 0
458314.0 664573.0 0
464027.0 664599.0 0
469208.0 664870.0 0
473939.0 663811.0 0
478668.0 664732.0 0
483130.0 664073.0 0
487717.0 664969.0 0
492501.0 664822.0 0
497328.0 664336.0 0
2916.25 667020.0 0
1225.61 670800.0 0
6698.27 670599.0 0
11881.3 670021.0 0
17527.4 669914.0 0
21665.5 670082.0 0
25980.6 668235.0 0
35068.3 666987.0 0
31675.7 670099.0 0
37311.9 671728.0 0
42090.7 670126.0 0
46293.3 669435.0 0
52493.8 670918.0 0
58188.0 669686.0 0
63481.4 669233.0 0
68066.3 668927.0 0
71618.6 671203.0 0
76724.6 671371.0 0
81836.1 669817.0 0
86940.7 669694.0 0
97171.0 669920.0 0
107115.0 670942.0 0
102096.0 671858.0 0
112215.0 669876.0 0
116848.0 667954.0 0
122835.0 670656.0 0
128684.0 670355.0 0
139551.0 670603.0 0
144547.0 669313.0 0
148611.0 670717.0 0
153248.0 669548.0 0
158285.0 668865.0 0
162892.0 669245.0 0
168174.0 669407.0 0
174040.0 668854.0 0
177427.0 670579.0 0
181766.0 669883.0 0
186657.0 669969.0 0
192345.0 668788.0 0
197477.0 670559.0 0
201770.0 669164.0 0
206048.0 671883.0 0
214557.0 669035.0 0
218961.0 669617.0 0
222500.0 669661.0 0
226808.0 670698.0 0
232224.0 669818.0 0
237228.0 669973.0 0
242384.0 669084.0 0
247078.0 670592.0 0
252500.0 669664.0 0
256707.0 670542.0 0
261540.0 670272.0 0
267207.0 669820.0 0
272689.0 670766.0 0
277613.0 668852.0 0
282118.0 671635.0 0
286752.0 668692.0 0
291419.0 671297.0 0
296756.0 669304.0 0
302646.0 669880.0 0
307584.0 669089.0 0
312213.0 670190.0 0
316838.0 666922.0 0
320938.0 670439.0 0
316442.0 671784.0 0
326414.0 670524.0 0
331727.0 669597.0 0
337570.0 670776.0 0
342964.0 668684.0 0
347479.0 671173.0 0
352888.0 670348.0 0
357748.0 666862.0 0
366558.0 668392.0 0
362449.0 669648.0 0
372125.0 668443.0 0
376900.0 668981.0 0
381052.0 669066.0 0
385451.0 670991.0 0
391356.0 670510.0 0
396902.0 669604.0 0
401801.0 670313.0 0
407809.0 671535.0 0
412896.0 669304.0 0
417866.0 670688.0 0
422473.0 669383.0 0
426722.0 669963.0 0
432781.0 669379.0 0
437556.0 669932.0 0
442996.0 669261.0 0
448173.0 670295.0 0
452403.0 669543.0 0
456584.0 669850.0 0
461872.0 669606.0 0
467415.0 669758.0 0
472626.0 668347.0 0
477320.0 669195.0 0
482293.0 668960.0 0
488504.0 670367.0 0
493000.0 669228.0 0
497500.0 669307.0 0
2838.62 674530.0 0
8060.56 675443.0 0
13291.5 674839.0 0
18046.6 674434.0 0
22091.0 676604.0 0
27246.6 674274.0 0
32870.6 675544.0 0
42131.1 675153.0 0
47695.2 674421.0 0
52122.4 676676.0 0
56754.9 675001.0 0
62043.6 674190.0 0
67592.4 674522.0 0
73058.7 676140.0 0
78404.6 676534.0 0
84283.2 675225.0 0
91631.0 672158.0 0
89776.9 676621.0 0
94479.7 676468.0 0
99107.2 675190.0 0
104186.0 676252.0 0
108977.0 675140.0 0
112933.0 674452.0 0
115989.0 676730.0 0
118074.0 672815.0 0
122216.0 675636.0 0
135216.0 672175.0 0
139063.0 675676.0 0
143456.0 674292.0 0
147038.0 676578.0 0
151028.0 674797.0 0
157235.0 674376.0 0
162987.0 674020.0 0
167830.0 675354.0 0
172977.0 673206.0 0
178025.0 675137.0 0
183256.0 674675.0 0
188112.0 674544.0 0
192572.0 674327.0 0
197256.0 675205.0 0
202500.0 674537.0 0
208047.0 676417.0 0
212667.0 674352.0 0
217500.0 674493.0 0
222500.0 674362.0 0
227997.0 676008.0 0
232864.0 674486.0 0
237725.0 674884.0 0
242755.0 673644.0 0
247903.0 674920.0 0
252102.0 673913.0 0
256404.0 674766.0 0
260823.0 675275.0 0
265600.0 675012.0 0
270817.0 675863.0 0
277054.0 674894.0 0
282305.0 676038.0 0
286923.0 674620.0 0
292505.0 676430.0 0
298616.0 675647.0 0
304063.0 674536.0 0
308268.0 673501.0 0
312848.0 675391.0 0
318516.0 676366.0 0
323333.0 674554.0 0
327899.0 675757.0 0
333233.0 675168.0 0
337962.0 676677.0 0
342769.0 674593.0 0
351183.0 675394.0 0
357993.0 672386.0 0
362946.0 675305.0 0
368519.0 672724.0 0
373229.0 676379.0 0
378333.0 673349.0 0
382984.0 675470.0 0
388420.0 675835.0 0
393457.0 675929.0 0
398020.0 674710.0 0
403361.0 675151.0 0
407988.0 676811.0 0
412637.0 674537.0 0
417717.0 675851.0 0
422265.0 673936.0 0
426985.0 675909.0 0
430307.0 672669.0 0
434926.0 675377.0 0
441119.0 674617.0 0
452465.0 674700.0 0
459264.0 675101.0 0
464417.0 673671.0 0
469193.0 675326.0 0
474394.0 673051.0 0
479397.0 674070.0 0
483971.0 673598.0 0
488136.0 675611.0 0
492790.0 673179.0 0
497500.0 674281.0 0
1585.29 679576.0 0
5630.83 680040.0 0
10856.9 679576.0 0
17013.6 679718.0 0
23595.0 681577.0 0
28268.2 679749.0 0
33251.2 680939.0 0
37557.5 677380.0 0
38067.6 681883.0 0
42382.1 680299.0 0
47073.2 679589.0 0
51722.6 681417.0 0
57059.5 680567.0 0
62428.9 679440.0 0
67094.9 679458.0 0
71195.4 681069.0 0
76010.0 680831.0 0
81799.8 681729.0 0
87175.5 680081.0 0
91918.8 680947.0 0
97770.6 680583.0 0
103198.0 681907.0 0
108576.0 680001.0 0
113935.0 680541.0 0
119305.0 679926.0 0
128244.0 677761.0 0
134939.0 677393.0 0
133542.0 681672.0 0
138548.0 680187.0 0
143436.0 679322.0 0
147011.0 680513.0 0
151447.0 680599.0 0
157392.0 680723.0 0
162834.0 679149.0 0
167747.0 680356.0 0
173409.0 679494.0 0
177949.0 680443.0 0
181760.0 679921.0 0
187123.0 679303.0 0
193331.0 680242.0 0
198743.0 679185.0 0
202939.0 679165.0 0
207320.0 680777.0 0
212273.0 679752.0 0
217524.0 679262.0 0
222455.0 679386.0 0
226547.0 680534.0 0
231428.0 679225.0 0
236422.0 679592.0 0
241594.0 678246.0 0
247242.0 680033.0 0
253438.0 679124.0 0
258754.0 679565.0 0
262760.0 679378.0 0
267181.0 679800.0 0
273246.0 680340.0 0
277690.0 680422.0 0
281876.0 679569.0 0
286950.0 679823.0 0
290986.0 680974.0 0
296079.0 681637.0 0
301833.0 679888.0 0
306194.0 678768.0 0
310586.0 679458.0 0
315017.0 680959.0 0
320090.0 681352.0 0
325629.0 681127.0 0
331330.0 680140.0 0
336098.0 680708.0 0
342003.0 681279.0 0
347011.0 678011.0 0
351386.0 680821.0 0
356605.0 677724.0 0
361428.0 681439.0 0
367763.0 680053.0 0
378748.0 680600.0 0
384890.0 680039.0 0
389741.0 681169.0 0
394648.0 680297.0 0
399980.0 679994.0 0
404018.0 679313.0 0
407190.0 681740.0 0
412947.0 679901.0 0
418132.0 680567.0 0
422666.0 679005.0 0
427341.0 681169.0 0
431792.0 679510.0 0
436433.0 680627.0 0
441470.0 680426.0 0
446519.0 677174.0 0
451482.0 681396.0 0
457330.0 681231.0 0
462145.0 679988.0 0
467383.0 681314.0 0
473668.0 679923.0 0
484243.0 677733.0 0
479815.0 679507.0 0
487460.0 681697.0 0
492976.0 678667.0 0
497909.0 680547.0 0
2251.06 683987.0 0
5533.95 686054.0 0
10560.1 685520.0 0
17113.4 686216.0 0
22591.9 686365.0 0
27762.2 685240.0 0
33299.2 686407.0 0
38713.5 686702.0 0
47160.3 685401.0 0
53065.0 686413.0 0
58243.4 685874.0 0
63548.3 684788.0 0
68420.3 684679.0 0
72802.6 685601.0 0
77434.9 685469.0 0
82569.7 686668.0 0
87353.6 684482.0 0
92582.1 686108.0 0
98303.1 686112.0 0
102958.0 686616.0 0
107362.0 685202.0 0
112268.0 684700.0 0
117337.0 684630.0 0
121494.0 686102.0 0
123868.0 682485.0 0
125547.0 686861.0 0
128114.0 683767.0 0
131987.0 687236.0 0
137288.0 685164.0 0
142959.0 684594.0 0
148083.0 684452.0 0
153260.0 686034.0 0
162927.0 684244.0 0
158509.0 686073.0 0
167358.0 684893.0 0
172160.0 685359.0 0
177548.0 684283.0 0
182502.0 684846.0 0
186767.0 684389.0 0
191025.0 685904.0 0
197786.0 685091.0 0
203473.0 684069.0 0
208228.0 685291.0 0
213259.0 684876.0 0
218095.0 684317.0 0
222112.0 684293.0 0
225920.0 684819.0 0
230910.0 684728.0 0
236698.0 684808.0 0
242526.0 684186.0 0
248077.0 685572.0 0
252475.0 685305.0 0
256708.0 683802.0 0
261171.0 685783.0 0
266725.0 685592.0 0
272409.0 684988.0 0
277893.0 685665.0 0
283233.0 683729.0 0
288537.0 685273.0 0
293443.0 686069.0 0
301148.0 684517.0 0
307542.0 684878.0 0
313503.0 685901.0 0
318595.0 686116.0 0
323166.0 685646.0 0
327455.0 686686.0 0
332213.0 685045.0 0
337535.0 686103.0 0
342791.0 687223.0 0
347225.0 683149.0 0
351780.0 686247.0 0
347215.0 687126.0 0
356259.0 683564.0 0
363721.0 686177.0 0
367773.0 685279.0 0
372911.0 683125.0 0
377186.0 685922.0 0
382420.0 684453.0 0
386600.0 685314.0 0
392352.0 685545.0 0
397534.0 685046.0 0
402471.0 684567.0 0
406579.0 686746.0 0
411678.0 684956.0 0
417380.0 685947.0 0
422809.0 684181.0 0
427689.0 686377.0 0
432600.0 684295.0 0
438085.0 685290.0 0
443259.0 686086.0 0
446089.0 682295.0 0
448203.0 686073.0 0
452855.0 687147.0 0
457457.0 685867.0 0
462300.0 685106.0 0
467077.0 686681.0 0
472276.0 686125.0 0
477764.0 684632.0 0
482858.0 684663.0 0
487933.0 686817.0 0
492474.0 684847.0 0
497459.0 684546.0 0
42841.7 688447.0 0
297350.0 687521.0 0
359243.0 687440.0 0
372528.0 687613.0 0
POINT_DATA 5000
SCALARS Radius float 1
LOOKUP_TABLE default
4931.38 4329.05 4151.94 5337.48 6124.89 5120.0 7613.27 5529.52 5096.78 6756.95 6324.23 3843.58 3320.52 4194.5 4792.73 4736.58 3485.26 6082.81 4049.23 4685.34 4929.8 5708.81 5252.48 4780.03 4015.92 5495.39 3996.0 3856.1 4665.12 3383.4 4133.88 4834.9 3850.77 6044.04 5415.48 5085.53 3863.18 2356.98 4998.37 6182.6 5492.18 5258.36 5061.3 3642.12 3163.97 5812.43 5122.66 5906.14 5484.19 7513.1 5254.28 4436.4 5733.48 4672.91 5580.89 3588.44 5645.7 5176.86 6810.52 5840.26 3672.51 6110.27 5561.06 5073.35 3615.22 5670.04 4380.59 3589.27 6716.79 3607.45 5759.91 4951.03 4333.2 7199.21 5255.32 4523.7 6037.08 5091.39 5293.9 4129.43 4727.24 4270.53 5191.63 5344.25 4478.15 4043.57 5379.87 4501.51 5513.6 4556.36 3191.99 5110.37 4382.74 5601.05 3586.91 4651.28 3103.0 3554.9 5481.78 5542.21 4487.31 5043.05 3936.02 4044.71 5980.74 4094.62 5109.54 4927.02 5546.39 5325.36 5484.83 5538.89 5351.6 4730.36 4715.55 5867.73 3951.75 5013.56 4499.64 4375.68 5542.27 5054.98 6030.06 5170.02 3557.27 4927.31 4688.68 4402.52 4517.56 4182.53 5903.42 3968.64 3955.56 3761.32 4118.05 4366.19 5553.16 2938.66 4940.78 4231.61 4008.92 3942.53 3379.84 4827.82 5227.21 3997.1 3260.67 5123.52 4392.68 4091.31 3038.33 4295.38 7565.34 2240.39 5923.5 4612.68 3912.37 6142.94 4602.25 5082.47 4790.08 4763.45 4593.7 4150.99 5445.87 4216.92 4107.03 3771.48 5681.38 5925.6 5987.17 3708.04 6013.14 3240.09 4901.41 5664.98 5927.43 4384.42 4362.19 3693.63 4516.43 5637.59 4937.14 5816.2 5693.81 4174.52 6483.19 3829.13 5945.65 6759.9 5418.62 7021.47 5416.38 6059.59 2720.68 4955.55 5701.86 3563.63 4238.81 4468.59 5885.03 2837.58 5325.02 5200.76 5017.13 4862.64 5185.34 3673.74 4432.58 6684.56 4688.67 2635.86 5292.64 6166.5 5065.13 5936.02 5305.17 4861.08 4003.05 5390.22 4712.33 4805.87 6038.78 5697.78 4667.36 4254.17 6372.62 5090.24 5615.42 5530.87 4281.49 4973.83 6342.25 6691.39 4187.56 5344.0 4840.84 6045.46 3815.26 4704.72 4177.94 4742.68 4571.7 5782.6 5113.21 4502.5 3929.19 4271.69 5198.77 4138.42 5147.67 3979.82 2765.2 5138.31 5264.06 6327.9 6355.42 4048.37 5492.26 5690.56 4948.92 3115.91 4493.48 3307.12 5924.89 4002.16 4778.34 4138.16 3486.22 4684.5 3091.3 6230.49 6458.82 4601.27 5493.32 5740.68 5926.61 6051.14 5836.15 3261.21 4345.55 6704.06 3653.41 3871.88 5600.93 3856.01 5246.2 4390.66 5279.39 4827.23 5205.43 6116.18 7447.37 4924.6 4385.06 4733.32 7184.19 2899.43 2924.37 3867.67 4290.3 5399.73 4660.72 3888.21 5891.05 6902.81 6644.76 5629.19 4786.6 5740.84 6445.94 4310.18 7134.64 5978.9 3629.62 4997.27 5135.69 4301.06 4020.32 4290.14 4245.72 5908.1 4541.21 4344.58 5634.83 5495.84 7034.11 6261.42 4862.21 4011.77 5922.5 5499.11 3633.87 3970.25 5643.58 4292.06 5011.31 5006.58 4602.86 3688.8 4659.59 4548.16 5449.18 4220.88 5244.78 5762.84 3937.74 4749.8 6084.86 5478.92 5551.36 6894.71 4414.54 5789.98 6138.47 7054.71 3641.64 5489.43 5747.75 4277.89 5054.25 4796.33 4195.44 5539.32 5360.19 6496.85 4794.96 4874.39 5541.59 4124.71 5728.85 6337.56 4911.47 5803.39 5863.59 4381.97 6257.19 3255.82 5242.73 2812.98 4065.69 5603.15 4695.45 6052.7 3921.18 3798.62 3666.57 6392.01 5308.1 4907.89 4937.02 5655.21 4073.93 4645.41 4433.59 4320.28 5542.14 4218.06 5480.13 6308.71 4716.19 5514.76 3456.98 4877.67 3066.13 6562.18 4156.38 6048.7 5316.75 4164.68 5896.46 6268.1 5022.8 3719.84 4178.4 3784.5 3471.03 5253.55 5820.48 5011.84 2586.12 6946.21 5433.8 6125.34 4527.08 5347.48 4850.01 4810.12 2775.04 5215.05 5577.04 6318.18 5586.81 3948.17 4621.75 3369.23 4551.24 5358.59 4515.71 6519.71 6640.13 3092.35 5082.6 5210.03 5810.84 4230.54 5094.44 3748.24 4655.49 4467.94 4850.81 6038.14 2540.31 6029.66 5527.54 5573.7 5697.4 4727.62 4270.95 4055.8 7325.81 5280.17 6425.26 5143.58 6186.19 4839.34 5083.08 2980.99 6834.49 5525.39 3998.5 5938.34 4024.3 6394.38 5555.28 5169.36 4737.14 4686.65 5834.74 5556.96 5788.23 3043.85 5581.75 3599.45 6730.19 4907.06 3735.44 5163.9 6043.3 5952.75 6332.36 6122.55 2739.94 4931.53 4223.33 5911.67 6695.82 6405.76 3498.2 5794.24 5105.16 4302.5 5448.61 6006.16 6009.88 7055.53 6133.92 5669.65 5934.22 4861.06 3780.23 6481.79 5960.66 3979.26 3999.48 6608.73 4359.62 6057.22 5062.71 4497.59 5965.78 4374.35 4138.46 3821.72 4986.77 5137.34 4481.53 5330.45 4581.13 3856.59 4219.07 3610.4 6387.01 5367.52 4322.15 4714.54 3629.96 5478.47 5351.39 6142.37 6061.47 4933.21 5375.47 4723.12 5120.49 5201.36 5262.61 6302.8 5409.61 6038.2 4005.44 5206.78 5555.88 6732.43 5028.96 3866.16 6362.12 4484.76 4840.01 5611.2 7933.0 4455.12 5173.87 4894.16 5380.13 5711.87 5118.27 4941.22 5932.23 5791.61 3369.13 4479.66 5367.2 5461.13 4726.76 5839.13 5495.68 5489.34 5002.48 5708.14 5537.72 3920.42 8332.24 6155.31 5329.64 4553.56 3323.28 5709.62 5835.78 4127.74 2476.04 4678.38 5050.65 4827.33 5513.57 5013.67 5826.04 5624.49 3095.48 4166.08 5762.59 5374.51 5320.28 6739.08 4298.67 4796.58 5873.69 4203.26 4962.09 5188.81 4730.41 3745.84 5696.88 5690.26 4156.2 5975.63 5252.34 4274.61 6396.74 2965.79 6898.19 6035.6 5198.29 5423.0 5077.33 4746.52 5413.79 6338.89 6202.55 5025.39 5893.5 3320.11 5030.91 4547.19 6022.17 5119.37 3982.23 6163.38 4566.18 3459.9 4964.09 4809.42 5024.9 4306.53 5659.17 5094.81 5972.06 5713.22 5861.71 4359.04 3183.98 3794.63 4524.28 3778.1 5152.36 4511.82 5826.64 4220.65 6820.42 4816.2 6321.41 4896.52 4751.02 3372.79 5184.56 5282.64 4715.72 4669.66 4808.52 5046.33 5607.24 5053.92 6352.26 3847.38 3818.59 4863.72 6623.85 4262.82 5102.36 5065.11 4342.9 5069.84 4051.44 6049.55 4241.89 5054.74 5941.72 5991.09 3942.07 5133.97 7443.72 3937.08 5371.02 5260.34 5206.48 5729.23 5226.0 5339.78 3365.82 4123.6 4143.78 7092.87 5224.12 4850.14 7042.12 4797.52 6326.39 4471.58 4569.12 3637.61 6098.14 4472.17 6222.42 5654.31 4938.74 5470.77 4643.85 3923.03 4004.04 5607.14 5082.74 4289.17 5564.02 6072.45 4410.55 7099.43 5526.14 5315.4 6449.45 3975.31 3689.45 3824.16 5572.95 3868.18 6723.16 5584.06 7111.16 3817.13 5507.24 6851.54 4583.31 4503.89 5806.08 4997.27 4853.39 4093.08 4449.22 5543.27 4717.05 5287.2 6135.57 5998.38 4312.67 5423.8 4270.24 4989.15 5017.78 5015.69 6175.81 4727.24 6677.09 4305.57 6959.81 4829.35 5201.67 4424.7 4089.76 5526.55 3192.41 5215.15 4987.87 3315.57 5804.71 4764.96 5727.3 4242.52 5281.28 5356.51 4277.88 3057.03 4087.15 4143.08 7500.97 3948.23 5228.18 5787.31 3927.99 5868.82 4050.9 4978.31 4099.77 4981.9 4537.32 4656.78 5126.91 6600.94 4788.58 6155.1 6586.45 4709.35 4373.3 4750.78 5029.78 4538.95 4163.5 4970.88 4763.66 4666.81 5163.55 6817.32 4819.73 2965.01 6643.85 4319.79 6343.14 5501.93 5463.38 5945.21 5750.71 3474.39 4831.47 6062.05 4735.33 6915.83 5092.37 6444.77 6314.07 4287.63 5776.37 4516.28 4044.45 5125.78 5344.43 4373.47 5045.38 5350.88 5372.61 3686.21 5402.24 6480.17 5023.15 4377.07 3813.22 5101.59 5570.3 4336.42 5243.29 7589.94 3130.65 5628.24 5856.11 3327.49 4109.88 4234.94 4562.29 5013.13 5080.66 3417.33 4926.42 4164.13 4642.34 4520.1 4947.52 5874.89 4293.03 5813.4 4389.21 3791.79 4128.98 4925.44 4754.05 4951.47 6084.93 4307.28 3697.96 4739.42 4723.48 5538.93 4899.11 5020.12 4745.45 2631.9 6255.18 4668.71 4758.21 5269.18 7228.46 6362.14 6719.88 5978.82 5266.5 4523.88 4066.38 4948.98 5227.52 4414.48 4092.24 5163.02 7144.24 3600.43 4906.82 5131.24 5196.67 6496.67 5474.8 5876.71 6262.72 3664.11 6515.84 5724.64 2990.77 5965.15 4888.6 4780.2 4636.5 3382.7 4940.42 3703.1 3954.91 6471.55 5085.71 5499.39 5644.82 6263.44 5960.56 5774.97 4020.95 5462.21 6313.06 3493.7 6470.3 4200.03 4719.7 6939.12 4406.4 5411.85 4413.85 4844.57 4027.46 4470.98 5759.46 3921.08 4190.31 3627.82 5678.96 5262.19 4244.9 6070.58 6034.41 5452.83 5130.91 4948.5 4519.22 6445.22 3844.9 3695.36 4564.34 3963.86 4871.44 5076.35 4306.11 3848.93 5935.47 3402.32 5903.66 4528.49 5004.67 5365.89 5992.26 3960.8 5070.39 4980.85 5714.58 5110.45 5208.32 5248.77 3296.27 4083.97 4713.25 4607.02 5153.74 3895.51 4528.09 4165.81 5441.96 6291.51 5174.89 5882.89 6246.22 4188.32 5246.61 4100.38 3746.31 5344.77 5097.87 5027.98 4278.07 7267.18 6256.02 5320.92 4305.43 4406.1 5034.59 4942.77 4263.33 5080.18 4454.63 5912.61 3279.1 4403.98 4560.84 4729.43 5776.57 4562.74 5683.26 5598.74 5687.83 5004.23 6442.69 6320.71 4648.04 6607.87 5117.47 3163.78 4925.63 5078.86 5882.65 4918.77 5100.1 4371.99 6090.91 4946.42 3561.29 4219.78 5923.4 3295.83 5081.78 5019.93 4459.28 4260.92 6116.33 6250.23 6413.02 4863.27 3492.19 4584.5 4118.84 5122.63 5862.86 6049.79 5374.98 6345.13 5274.19 5516.95 5313.22 3905.51 3999.94 4864.22 3901.8 5511.88 5083.41 7055.42 6048.86 5486.68 4285.32 5490.43 5022.28 5197.52 4959.34 5383.07 4527.02 4531.14 5013.42 3838.56 5651.07 6020.48 6375.99 5200.05 5234.29 5313.66 5419.37 4466.03 4511.54 5409.33 5196.0 4923.9 4973.78 3329.99 3947.47 5091.68 4204.84 6243.0 6673.96 3556.85 3161.47 3435.9 6390.78 4288.3 5370.52 4652.29 4495.87 5774.81 5498.32 5527.33 5346.27 6475.1 4969.21 2691.29 2845.98 4880.14 5289.52 5314.85 5941.4 5450.44 6510.17 5742.65 5592.32 5381.16 5565.13 6193.35 6086.96 3701.27 5233.78 4806.34 5653.9 5046.21 5894.61 5139.5 7493.3 4814.55 5833.06 3527.05 5698.77 3464.83 2477.07 4721.32 3293.56 4305.16 5092.28 5274.14 4739.14 4903.82 4434.19 5746.28 5187.7 4623.61 4188.3 4963.34 3885.86 5235.29 5177.64 4378.3 4255.31 5660.16 6134.99 4479.94 5453.3 4094.73 4407.9 4718.54 4440.57 5548.29 6766.43 2315.64 4703.08 5916.16 4390.41 5226.56 5599.49 4097.57 5017.5 5563.79 6171.13 3497.9 2395.5 5941.61 4512.11 6248.6 3836.45 5683.61 5100.25 6894.26 4986.51 5339.38 5178.99 4591.87 4790.78 4247.15 6552.22 4602.85 6248.81 5872.05 5273.35 4091.8 2651.49 4645.58 5512.23 5181.4 5275.32 5985.29 4898.94 4178.15 4613.31 4733.04 6119.09 5788.66 7531.29 5069.25 5048.89 5935.03 3991.03 7435.25 6826.57 4788.87 4249.46 5965.81 3702.37 6022.72 4643.31 6917.52 5402.21 4989.09 6718.19 4982.31 4307.48 3848.54 4425.84 5331.02 4871.96 4863.23 4402.67 4470.61 4631.83 4384.88 6887.27 6008.49 4287.53 5612.21 4929.14 5945.08 3979.54 5304.13 5944.09 4863.79 4923.41 4702.06 3830.46 4497.31 6413.11 5529.42 5257.12 4965.89 5659.95 4152.85 4082.47 4453.64 5511.6 6261.75 4517.73 4338.08 5469.47 4687.64 4419.71 5037.06 4541.8 4989.56 3838.47 2588.37 6736.03 6235.57 5412.31 3623.87 3087.09 7480.41 6934.37 4890.5 6113.95 4050.08 5452.42 4901.07 5328.22 5186.3 3436.15 6853.85 4020.4 3493.47 5782.48 4933.65 5443.58 4558.46 5805.86 4049.02 4470.4 5311.03 6169.11 5255.12 5615.35 4027.09 6422.84 4502.18 5379.09 5210.48 4962.77 4853.02 6259.23 5088.44 5670.2 4711.62 4247.23 4114.24 4268.65 5349.31 4694.83 4649.22 5509.42 4354.08 4256.43 5936.36 2682.24 4520.62 3903.75 5229.48 4755.47 4485.99 5127.16 5475.8 5314.69 4244.99 6050.81 5543.46 6185.89 3997.96 4750.17 5660.85 3460.94 2330.66 3990.25 4177.19 3691.0 3587.05 4752.51 6229.37 4407.87 5282.91 3797.33 7256.35 4800.69 6566.1 3555.86 6386.78 4996.99 4456.39 4896.39 6081.14 5480.83 4607.85 4220.46 5128.57 6000.7 5604.21 4968.03 3169.67 3306.14 3361.92 5490.58 3967.48 5395.14 6213.04 6031.67 5384.76 4689.15 6138.12 4428.78 5243.43 4537.14 5551.9 2908.7 3757.34 4765.72 6415.61 4642.66 4752.14 5329.59 4888.12 4950.97 5512.16 5175.29 3197.63 5842.56 5887.15 5203.08 5374.07 5163.77 3423.15 4488.85 3731.84 3981.07 4579.69 3554.48 6496.52 5005.85 4216.17 4151.76 6484.17 4721.02 4596.75 4254.37 3374.08 4031.78 6098.1 5708.99 5687.85 5346.68 5296.29 4611.53 4285.66 4896.11 5172.53 3872.61 4135.62 5801.99 5534.94 7644.38 7552.94 6101.92 5323.3 4998.21 4635.6 4662.56 5166.79 2976.22 3405.98 5394.55 5094.52 4946.74 5996.33 5928.32 5415.19 5475.7 4612.62 4016.18 3619.07 5526.75 4275.57 5435.74 6385.23 5327.45 5560.26 6363.92 6205.93 4439.35 5830.72 6184.4 3758.07 4373.45 4236.14 5733.62 5282.51 5169.9 4460.92 5945.89 4042.28 4105.55 4340.76 5254.49 6065.22 4221.28 5514.84 3633.79 5421.53 5937.08 6070.3 5233.29 4312.56 4612.06 5204.04 4750.58 6710.88 6667.68 5235.11 5211.38 6622.11 3685.13 6790.73 4655.16 5920.32 5409.66 5251.4 3867.19 5097.69 4345.67 5857.79 4039.91 5276.7 5036.58 6119.63 5411.02 4752.9 4863.96 4287.16 5191.08 5199.44 4062.5 4435.51 4588.7 5683.95 3766.55 6027.62 5010.2 5966.61 5711.11 4575.94 4938.72 3546.71 5768.57 5564.23 5950.04 4231.83 2435.33 6401.43 4558.47 5020.71 2681.29 5094.48 5839.71 4238.4 4318.48 6132.95 5266.22 4860.33 3685.13 6004.68 4051.34 3361.26 6799.4 3627.55 6239.84 4256.67 3457.48 3931.07 6079.11 6430.39 5417.15 3688.16 4681.72 3949.6 4945.39 6326.18 3950.63 5661.62 6631.19 6648.68 4467.04 5626.61 5817.25 2983.99 2614.4 5061.98 4537.6 4923.24 4419.61 7177.44 3828.81 5309.98 4082.57 5255.18 5460.65 3004.16 4767.78 5235.17 4779.5 4421.12 4929.75 4435.36 6649.96 4303.19 5784.3 3914.2 4256.57 6088.68 4643.56 4135.08 5620.74 4778.82 6124.08 5467.84 5053.95 5926.11 5767.9 6515.8 5089.62 4590.55 4741.26 3701.16 4186.6 4255.85 4732.09 3988.3 6136.49 6543.13 4356.25 5149.72 4216.95 5776.96 5464.25 5486.48 5301.47 4617.55 6200.54 5424.88 5148.58 5415.85 4199.45 8659.64 6599.66 5469.13 4233.8 5765.42 6123.03 4997.83 4893.49 5325.44 5021.88 5956.65 4498.25 4188.87 3735.24 6574.95 4074.48 6333.29 5731.57 5997.88 5576.92 6408.83 3930.79 5226.97 4004.35 5754.18 3312.06 5180.76 3418.99 4480.95 5278.36 4409.63 5865.39 5521.25 4427.28 3082.32 3658.37 7440.72 5376.71 5703.6 4807.28 4867.08 4266.03 4713.74 5407.78 4084.49 5449.46 6179.96 6632.99 6113.54 5147.36 6260.79 3963.76 4563.46 6553.94 3062.43 5726.66 5426.78 5652.0 5463.41 5225.33 4237.98 6439.37 6045.22 4614.3 5134.39 3532.3 5769.98 5442.32 2221.99 5067.46 3580.58 4863.01 5356.79 5657.36 3619.79 5029.47 6306.21 5266.01 2978.76 5253.37 2040.66 7016.27 3685.65 3876.21 5869.4 4916.22 6022.7 5895.77 5750.07 4809.67 4757.74 6045.67 4209.49 5742.74 3821.94 4244.21 4947.24 5367.73 3645.12 3875.05 3540.11 3456.47 4652.01 5421.64 7234.66 4055.54 4886.12 6419.12 4976.12 6098.95 5453.98 3991.42 4388.63 5102.75 4597.29 4200.09 5931.77 5151.21 5398.64 6817.57 4477.04 3614.96 3886.68 5703.74 5662.55 5737.92 4360.23 5365.24 5293.51 4763.96 4446.06 5008.63 3450.93 5132.68 4993.35 6218.95 3661.9 5222.16 5370.85 5107.23 5949.46 5136.08 3178.54 3776.94 4765.02 5629.39 4448.13 2684.03 5070.29 4768.61 2261.36 5075.55 5280.69 4220.03 6923.84 5227.59 5703.07 4662.43 4630.82 4043.66 5528.53 6799.88 4540.86 5990.52 4835.83 2967.38 5604.35 4159.35 6477.91 3091.67 4081.97 5401.99 5580.92 5973.33 4347.74 3583.21 5291.9 2511.46 4009.62 4011.37 2775.69 4785.25 6519.43 5876.64 5424.46 4857.84 4908.49 4962.21 4858.44 5884.9 3468.42 4673.35 5689.26 4992.42 5297.19 4940.84 4833.46 5933.7 7248.4 5280.12 3946.28 4444.97 5984.81 5439.9 4409.27 4640.06 5471.74 3548.39 3673.28 4858.51 4207.54 3375.28 5625.65 4301.61 6107.89 4817.16 4446.84 5660.55 5148.08 4834.87 3672.21 2216.82 5760.22 5938.17 4795.43 5097.95 5108.06 3573.73 4693.52 6853.04 4745.43 5831.96 4747.55 5464.68 3056.7 3755.95 6234.32 4586.19 6625.18 5323.91 4270.74 6293.89 6595.03 4558.15 4983.39 5366.52 4690.55 5533.72 5558.68 4802.32 4010.57 4599.38 5246.47 6157.04 6191.29 4522.21 7422.36 5506.19 6719.94 4950.67 5832.37 6166.29 5453.6 5409.63 5294.77 4263.16 4709.05 3077.84 6109.49 4813.08 5860.67 5332.65 3764.1 6451.33 5413.31 6316.56 4332.87 6420.81 5208.14 4715.58 3317.83 4450.7 5151.52 5369.08 3101.75 4518.04 4766.06 2081.58 4874.18 6505.78 5461.55 3298.2 4270.15 6865.76 6449.64 6464.8 4684.44 4749.59 5799.69 5571.72 3809.69 4771.13 3208.96 7051.9 4184.23 4351.38 4144.57 5550.75 6834.41 6226.14 5466.33 3000.29 5721.05 3498.16 4247.69 4514.39 4588.99 4321.21 4344.34 3583.49 4928.27 5713.03 5052.84 4366.74 5297.16 3184.64 5206.33 5530.49 5653.03 3718.69 4514.79 6192.0 4509.89 4940.28 6752.75 5269.38 3004.34 5607.3 2928.82 4914.45 4222.4 4698.87 4000.43 3420.08 4568.41 3624.7 4912.04 4539.07 4691.91 4475.83 2685.81 5591.76 5889.35 4585.31 5010.04 4570.98 5097.45 4275.07 5825.38 2761.07 5737.75 5742.47 3778.02 6552.21 5417.8 5533.42 7132.12 3678.08 5518.57 4187.31 5463.48 3240.51 4527.99 5161.01 4376.7 4298.15 5190.61 4628.4 6051.83 4642.93 4440.81 5941.9 3973.12 6642.76 6024.75 4497.78 5567.93 5987.42 4442.22 4669.06 3012.99 4811.32 6400.08 4743.59 5829.32 3763.05 4396.25 5092.24 5549.49 3918.87 5423.42 6605.86 5012.5 5435.19 7093.13 4953.1 5818.95 4093.99 3940.49 4406.05 4680.94 5089.1 5828.35 5876.72 5236.43 5285.07 4680.14 4608.41 4083.79 4187.94 5980.59 5021.77 3796.15 4801.8 7216.98 5271.02 4209.31 5718.28 6242.79 5950.45 5088.57 5849.65 3852.6 5134.67 4165.21 4215.0 4936.96 4481.76 5452.78 5065.26 4304.41 5885.28 6579.31 5323.55 3022.6 4811.76 5313.12 5351.56 4661.03 5160.59 5262.35 4320.42 4255.34 4510.8 5064.79 5480.3 7509.24 4394.56 5896.26 5388.78 4185.61 4047.87 4573.72 5099.21 4917.99 4367.78 5146.37 4836.16 4232.16 5300.96 5151.11 5680.94 5730.33 5545.46 5193.01 4543.1 6550.44 3860.83 8325.01 3764.06 4523.39 5278.56 5434.47 5829.22 5631.14 4243.79 4343.78 5811.18 5433.65 4008.15 4887.76 7693.4 4286.49 4437.07 6184.88 5491.9 6405.0 5551.95 4659.16 2275.45 5789.55 4633.05 4901.2 4383.56 4990.79 3562.79 5166.79 4516.53 4122.92 3604.14 4452.54 5810.77 2711.19 4028.32 5474.15 7519.2 4099.92 4884.59 3858.06 4511.7 4304.63 5263.27 6300.92 4173.54 5599.29 6038.68 5046.12 4807.4 7013.17 3805.67 4601.74 6506.86 5580.34 5966.42 5775.31 4706.5 4603.5 4647.67 5375.12 4356.36 4892.44 5578.94 3746.36 7610.49 4286.17 3684.56 6028.09 5375.1 4172.6 3804.5 5498.42 3984.88 5318.53 4732.09 4281.98 7165.9 5344.83 7046.11 3427.63 4146.81 6342.48 5756.75 6101.13 5599.7 6969.28 5636.4 5698.96 4350.12 4095.75 5227.02 3603.51 5670.0 4298.45 5222.51 6609.84 4344.51 5135.96 3834.43 3781.77 5658.37 5581.55 6074.94 3474.5 5491.37 4250.88 6348.03 3475.67 5732.27 4792.39 5146.37 6917.62 4013.38 5067.56 6137.8 5263.3 3352.35 4909.65 3747.03 6523.86 4326.48 3994.07 4219.94 5907.46 3449.37 4264.91 5399.29 4909.31 6522.59 5711.62 4798.17 5425.98 6479.39 2895.63 4405.42 4997.91 5079.22 4599.81 5381.54 4714.83 6633.61 6355.68 5484.36 4478.6 3953.55 4063.9 4469.54 4314.56 5161.1 3928.53 5606.51 5740.65 3834.47 6349.67 6329.53 4590.01 6101.86 4227.41 5993.0 4803.57 4923.43 4110.59 3332.49 4847.14 5354.66 3950.27 4214.44 5378.23 4787.97 4981.43 6789.23 3989.7 4777.03 4157.29 4246.61 6813.72 5452.36 4609.02 6486.37 4638.18 4196.37 3344.57 6448.66 5220.76 6945.98 5138.2 5783.48 4449.98 4863.97 4840.44 5093.82 4587.67 4163.74 3924.14 3665.95 4296.69 6238.32 3319.67 6471.42 4076.59 5283.8 5164.1 6464.15 4707.06 4972.17 4222.77 3783.54 5268.38 5527.23 4805.33 7038.89 3863.67 4814.12 6069.3 2735.53 5887.01 5116.6 5388.39 2783.85 5335.47 4356.49 4526.81 5048.19 6799.23 4888.27 6740.71 6487.56 5971.22 4854.11 5533.19 5417.21 6602.43 3568.28 6063.64 5996.66 2995.67 7382.3 3598.08 5522.21 5698.23 4855.01 7300.58 3608.06 4923.57 3340.09 5217.95 4867.7 2279.05 4829.35 4277.24 4075.28 8137.11 5291.05 4619.2 5166.41 5067.56 2596.96 5701.75 4350.15 4139.3 3516.27 6541.45 4750.49 4643.9 5078.31 5228.75 5391.48 6047.14 5131.15 5210.38 5717.8 5116.66 3629.44 3566.79 5374.67 3299.24 6246.56 4215.2 4741.28 5069.89 2603.64 5107.0 6212.15 5327.75 4896.65 4946.23 6083.28 5211.6 4453.97 3503.41 6412.67 4701.5 4504.35 4771.65 5012.97 5589.37 5439.49 5951.81 6918.35 4834.3 6804.79 6372.13 5369.5 4428.14 6016.19 4124.49 4479.11 5714.25 6685.4 5699.53 4850.06 6332.01 7044.29 4234.18 7085.01 5980.95 6193.08 3862.77 5168.35 3185.39 3728.18 5633.61 4243.26 4153.84 5119.86 4592.15 5084.17 4901.44 3776.8 4998.22 6156.21 6104.26 5583.61 6171.71 4986.71 4668.88 4022.56 5027.43 3772.3 5522.75 6208.9 5602.53 6061.63 6545.43 6760.92 5484.32 4711.04 6650.77 4067.96 4506.18 4824.12 7104.73 6162.3 3272.75 4264.54 5261.19 7043.44 4263.78 4263.65 6106.43 4807.35 5009.83 4642.2 4811.22 3683.86 5003.78 4918.76 5293.75 4208.41 4061.6 5473.72 2856.55 4553.68 6502.97 4783.07 3758.22 4852.58 4757.2 5561.74 6100.73 5806.31 3556.79 4745.79 5456.71 7317.04 3971.08 7001.83 4036.91 4593.7 5110.11 6379.14 6639.64 5212.43 3687.65 5454.12 4887.52 5478.95 6348.54 4066.57 5642.35 5156.76 6357.47 5404.01 4891.38 5535.91 3230.13 5955.86 6176.67 5325.96 5412.24 5016.02 4581.37 4920.21 4049.16 5851.61 3936.95 5478.11 6153.94 6836.82 3858.17 4631.99 3477.1 4740.98 4078.93 5128.77 5934.82 4501.78 7122.87 5797.36 3572.94 5001.58 4729.42 5089.26 3886.72 5415.45 6592.93 5096.43 6350.71 6436.74 4653.83 2460.79 5096.24 3628.89 3908.98 6589.82 6328.42 5867.64 3619.72 4438.58 6059.93 4565.93 7107.63 5073.02 5788.97 3472.91 4989.2 3274.85 5007.21 7144.05 2970.9 4099.26 6542.5 4383.47 5971.21 5262.47 3104.96 3831.52 4991.35 4258.98 6761.81 5467.63 3903.91 5666.95 3919.62 4127.53 4474.83 5210.75 6555.44 5658.14 5826.78 4508.18 6214.73 2205.51 5175.89 5361.87 4268.19 3205.68 4374.74 4532.7 4504.86 4788.08 5975.23 4198.94 5470.04 4908.75 6556.26 6204.65 5438.92 4482.9 4349.13 4891.67 5216.26 3634.5 3851.85 6318.23 4206.98 5174.75 5932.07 6101.57 4793.65 2949.12 4532.89 4533.37 4848.46 5742.09 2779.99 5887.38 2884.65 5807.46 6942.34 3658.05 4549.69 5526.31 5030.15 3644.78 4312.15 6418.11 6015.02 5244.22 4922.49 5585.14 7039.98 4820.17 5244.98 4159.81 5792.98 4385.81 4034.05 5798.38 4456.11 5366.11 5039.12 4824.81 5769.14 7307.21 3381.82 5347.9 4646.51 4504.52 4831.93 4023.93 4928.85 5868.89 5556.0 5494.28 5610.53 5206.47 4580.06 4834.39 3926.11 5493.89 3512.94 4467.0 4994.65 4587.7 5196.92 3787.08 5644.81 5334.36 4568.64 4728.55 4929.6 5750.35 4489.99 4548.45 4551.26 5730.61 7124.45 6358.93 5064.67 3894.64 3703.49 5232.85 4062.56 6200.63 3217.67 4473.29 5079.64 6163.54 4211.82 5212.37 6003.78 5684.25 2628.22 6550.4 5036.98 3766.69 5513.8 6818.91 3503.65 4027.63 6631.28 6571.31 4392.65 6413.15 4058.87 6103.11 5048.55 4984.46 4024.31 5948.71 5844.72 3856.53 3992.97 5460.89 6040.74 5260.85 4054.22 7228.94 5393.65 4961.99 4648.21 4393.16 3311.29 6484.43 6423.81 6192.77 4458.64 4583.52 3492.83 6280.13 5832.29 4438.76 6006.89 6456.58 4960.64 4983.3 7778.01 5690.96 5124.17 3862.91 5805.1 4125.9 3419.87 4064.58 4234.88 5113.6 4384.28 5944.3 3563.14 5135.5 5640.72 5851.63 5727.79 5212.92 5615.84 4464.73 6440.38 3904.07 5545.59 3663.0 4954.81 6304.49 5755.15 4835.97 6419.64 4057.17 7066.96 2781.96 5917.34 5601.55 4462.87 5630.9 4554.68 4368.28 4692.32 4945.0 4658.11 3127.83 4212.15 5114.07 4385.49 7142.95 4383.68 6618.21 2617.39 3717.47 5144.44 4051.18 6816.66 5969.37 5034.69 996.652 4509.46 4680.69 5058.51 5965.58 4244.49 3352.34 4050.03 4901.29 4775.04 5188.53 4521.75 4882.66 5569.2 5350.88 5410.33 5420.67 4642.74 5416.45 6459.51 4955.16 4904.51 4147.31 5989.05 5751.15 5950.88 4441.22 5853.89 6551.93 4595.12 4140.4 3110.13 4386.8 4625.67 4725.01 3485.54 5966.75 5510.9 3657.69 4883.63 4971.29 5510.45 3684.15 4730.14 2606.51 3994.39 3965.3 3814.65 4128.1 5372.82 4402.17 5053.15 5127.82 5910.86 7320.78 4834.44 5782.43 4456.26 4810.98 3873.92 5091.22 5026.76 6282.38 5657.55 4546.44 4184.21 5188.82 4700.07 5043.14 4717.73 5072.5 5713.36 5748.9 5553.94 3742.31 5424.55 5134.72 4608.34 5695.79 5464.83 3622.8 5414.58 4431.23 5577.41 5740.98 4346.07 4013.86 6545.99 4218.16 2918.64 4140.92 4512.07 5984.8 5236.24 4585.04 5678.58 4263.18 6570.35 4242.63 4559.74 3269.54 5836.26 6666.67 4583.94 5046.31 4928.35 3844.54 1937.5 5849.53 3538.53 4420.11 6500.49 6127.39 4972.18 4607.18 4124.76 7200.89 4120.07 4952.52 3429.57 3840.21 6746.66 4954.76 3908.56 6735.97 5305.59 3636.15 4330.58 6114.89 5754.6 3288.01 4355.83 6870.97 2202.77 5351.86 6056.87 5474.01 4149.55 6201.86 7554.58 3380.69 5166.89 3639.44 5446.4 5725.37 3868.62 5138.33 3743.76 3425.69 4505.28 6711.21 4236.86 5393.76 4941.02 6119.99 3864.92 2955.36 4618.73 3668.93 4446.58 4009.24 7541.76 5401.4 4775.49 4681.29 3220.29 6239.68 3845.9 4439.71 5667.51 4708.31 4027.33 4198.9 5431.29 4833.67 5023.41 5325.91 4092.07 4213.05 4224.3 6203.03 5235.87 5273.37 4732.37 5810.17 4985.3 4966.07 4749.18 3669.32 4400.14 4704.92 4546.96 4316.0 4287.25 4921.1 4392.75 3814.16 4271.07 4420.6 5287.25 4770.51 4184.47 6511.37 4012.92 5759.79 4177.47 5218.42 4933.49 6139.64 4896.43 5463.06 4639.8 5260.52 3185.09 5114.23 7407.91 6015.22 4454.74 6063.44 2904.46 4826.52 5120.92 4337.32 5241.75 4731.53 4651.99 3763.9 4788.7 5863.0 5640.12 5329.76 3899.7 2403.72 4813.33 4147.49 4802.98 4833.55 4081.34 7224.99 6334.53 4844.83 5244.78 5652.87 5135.63 5018.69 6384.7 5952.38 3896.27 5807.52 5230.02 5307.35 4342.18 6016.08 4731.21 5491.63 3124.7 6102.98 5153.18 4763.4 5902.67 5454.11 5806.61 4983.1 6010.59 7123.04 5906.57 4932.29 4990.23 3784.94 5499.59 5749.6 4141.21 4174.44 4564.41 6331.74 4252.18 5951.86 4659.88 3791.41 5853.12 5157.38 5702.4 5069.9 6089.45 3306.84 3673.6 5265.21 4657.24 5866.42 4762.1 3987.69 6502.99 6219.34 4191.01 4475.38 4589.06 4920.88 5890.25 4216.44 3999.5 5034.05 4598.54 4816.51 5345.73 4770.63 3990.94 4756.8 5477.8 3986.41 4462.35 4241.68 6102.49 3469.18 5495.0 2945.34 4489.29 5064.23 4301.93 6061.85 5512.44 6449.06 4685.4 6240.42 5146.0 5721.14 4577.73 5084.5 4918.64 6638.25 5078.59 4759.99 5134.33 5419.57 5162.67 5760.98 3646.95 4705.68 5384.86 4749.96 5377.37 5869.67 5483.7 4311.48 4899.73 3152.86 5457.66 6394.19 5973.89 5963.36 5518.11 5087.14 5712.35 5169.48 4743.9 6776.22 6064.71 3719.11 4467.13 6060.17 6273.6 5136.87 5024.32 4708.17 2741.2 3779.45 5790.42 5784.37 3142.09 3682.35 5591.77 5182.13 3756.96 6110.48 6245.52 3954.77 6793.1 3125.13 6016.87 4506.66 6715.73 5209.55 5426.4 5763.05 5357.39 5076.84 5247.01 4208.37 4841.7 5685.74 952.938 5473.89 4678.7 3450.07 6215.87 5191.26 5544.27 3484.81 5308.33 4666.12 6023.07 5674.63 5340.05 5995.4 5700.79 6710.14 4426.02 4711.15 5188.22 4841.23 4357.11 5005.6 4176.32 6069.78 5532.75 6949.65 3372.95 4095.83 5676.61 5846.95 5268.15 5819.0 6347.72 4924.07 3460.93 3200.6 4629.02 5914.5 4288.45 4987.28 6206.98 6562.03 4815.47 2646.13 4368.12 4365.58 5214.4 4636.53 3629.49 5766.05 5469.35 3835.81 4019.34 4869.48 4658.24 3623.19 4906.11 4387.39 4564.1 5825.55 5509.51 4848.14 5366.22 6193.73 3742.11 4192.21 3597.43 5701.52 4158.91 5311.55 5321.17 3360.86 4869.25 5545.21 3877.8 4333.87 3667.93 5638.7 5813.79 4644.88 5293.13 7350.26 3768.46 5167.53 5003.3 4168.52 5800.81 5106.46 4068.31 5166.05 5077.29 5515.73 4850.5 5866.91 2820.07 6405.69 5129.68 4825.73 5288.33 6296.54 5797.21 6019.35 6740.35 4550.92 5146.1 6485.77 6060.06 5960.5 5393.43 4685.65 6470.23 6506.63 4140.04 5322.11 3495.3 4697.49 5735.08 4726.2 4750.81 3825.48 3810.68 2804.54 4196.62 2809.19 4916.7 5486.89 7208.19 4549.51 3587.93 4975.85 5695.25 5323.95 5716.42 5701.63 4620.95 5368.93 4488.39 5124.86 4927.73 6006.16 4602.57 3565.32 4608.62 5407.96 4071.75 4626.72 5549.71 4410.82 6443.99 3889.98 5193.58 5399.43 5117.64 3916.42 5429.3 5510.96 6653.07 4745.16 4697.91 4584.81 5071.98 5719.79 4316.5 3199.4 4371.08 7261.51 5254.24 4968.14 4914.03 5086.29 5144.56 5139.18 5551.43 3034.16 5049.99 4201.03 5001.87 5684.05 4493.79 4279.44 4899.19 5058.34 4028.22 3852.82 5487.63 4507.36 7145.73 5403.97 4795.08 6562.92 5501.73 3671.06 3612.44 7035.54 5233.76 4683.28 5679.74 4165.36 4851.18 4871.77 5811.26 6075.99 6028.63 5927.2 4419.79 5407.69 3869.39 5152.78 4117.9 4753.76 6896.55 4638.09 5377.01 5330.26 5939.22 4668.8 5125.17 4859.01 5524.45 7133.44 3953.26 4474.39 4658.59 6478.35 5453.77 4104.04 5589.53 5593.79 5025.42 5196.08 4517.29 4495.75 4849.5 6171.01 5796.26 4603.04 4870.94 5271.88 6121.56 7168.2 3763.85 3419.07 5710.33 5344.44 5131.77 6432.8 3186.07 4967.51 5173.82 7212.97 5490.64 5695.44 5034.34 3422.21 3769.2 4507.46 5036.14 5603.68 4944.51 5532.72 3220.8 5179.17 5579.39 5270.51 5148.1 5224.64 5949.73 4312.48 5527.13 6370.33 4278.57 5081.08 6318.25 6864.06 6008.81 4932.56 5192.49 3487.31 6643.4 5575.11 3918.94 4674.9 5461.72 6599.28 6224.85 5368.66 4556.19 5648.78 5226.42 4697.24 4983.43 6311.89 4217.36 6734.39 6549.8 5005.72 5368.52 5155.28 5062.77 5388.73 4884.93 4600.71 5262.79 4494.15 5035.71 4710.88 5300.17 4057.4 5534.23 4781.9 6815.96 4441.91 5828.25 4725.11 4215.05 4271.93 4604.1 5076.11 5990.75 5600.21 5467.51 5459.92 4625.53 4096.47 5114.67 5353.66 5030.33 2638.82 5234.2 4965.24 6379.38 6257.79 5353.23 6229.83 4468.26 5578.18 5293.37 5933.54 5559.79 4571.74 4096.86 3622.48 5001.51 5115.42 4369.86 5482.76 4082.4 3745.02 3720.7 4211.36 5698.53 3604.31 4450.49 3468.45 5635.32 4526.34 5610.95 5409.08 5042.75 4598.92 5241.22 6647.08 4979.52 5490.75 4407.79 5214.63 3495.68 5783.94 7362.42 4202.77 5836.14 5473.05 5537.34 5884.99 5726.42 4433.12 2549.95 3392.26 4361.24 5138.93 6406.8 7086.69 6170.9 6875.73 4436.48 6081.3 5117.52 3967.76 6213.24 5987.88 5942.45 4228.53 4150.76 6123.46 6142.88 5111.26 4574.54 5205.38 4949.55 4764.83 1969.87 3957.38 4841.28 5507.38 6889.5 4416.87 4052.43 4896.67 3934.11 6025.77 5339.6 5917.08 5483.37 3626.86 6371.96 5322.07 5770.07 5101.6 4282.11 6589.13 2347.41 4542.16 3543.37 2030.03 5527.27 5104.39 4612.13 5846.6 5327.05 5438.55 4434.65 5977.66 4523.81 5106.33 5198.94 4028.35 5464.05 5879.24 2980.31 5740.78 3148.79 4796.12 5997.91 5385.86 6791.86 4930.72 4209.0 5728.58 4887.73 6297.99 5378.24 3856.73 5817.74 5887.71 4827.61 4316.45 5285.75 5481.64 5673.75 5360.67 6263.3 3422.29 4501.05 6548.29 4114.2 5352.24 3990.96 4326.06 5034.46 5793.12 5469.17 5061.75 4373.2 6022.78 4087.32 6647.85 7025.09 5161.74 7336.37 5099.9 5118.86 4304.64 4733.79 5833.78 5758.98 5615.35 5288.64 3579.59 6161.94 5057.59 4461.14 5285.6 5615.06 5490.54 3132.34 5203.54 4047.95 6142.94 5001.69 6581.56 3980.46 5383.9 5158.44 4466.22 3886.56 4496.51 6153.71 6561.94 5259.21 5418.12 5934.05 4714.66 6771.18 4984.17 4656.01 4037.86 5602.62 5714.51 5628.97 4484.78 5157.73 5847.91 4934.66 4903.84 4109.44 4290.49 6688.53 5209.5 5065.74 5791.25 4873.23 5410.6 5453.2 6348.93 6824.53 4742.82 4332.64 4422.23 4820.68 6031.22 5485.84 6424.77 4538.89 5918.95 5689.56 5661.6 6556.86 6099.28 5385.03 3234.26 5372.25 4169.15 4778.37 5134.17 5968.54 4904.35 5592.54 4537.03 3247.97 5124.34 4904.37 4358.81 4651.64 5729.92 5757.29 5016.46 6224.13 4761.84 3769.24 3661.67 5517.65 4009.68 4622.73 2569.12 4161.32 6351.89 5932.28 6945.69 2960.5 4298.7 3902.48 4183.4 6030.39 4905.53 4823.06 7392.65 5254.49 3757.23 6828.8 6883.86 3350.99 4745.37 4065.28 5939.29 5418.98 5575.11 4052.49 5061.74 5326.03 6189.67 4948.96 5256.82 4061.87 4013.86 5165.31 3798.09 4288.5 5715.51 3721.69 4511.05 3456.3 5092.93 5881.93 2803.01 4444.0 6182.19 5327.39 5781.62 4981.81 4138.59 4970.55 4938.33 4621.33 4541.22 4946.08 4984.01 3539.68 6217.33 4557.1 5927.1 6175.27 5876.51 6731.89 4733.41 5264.83 3901.53 5136.51 6815.51 5232.16 4457.05 3989.26 3618.64 5703.84 4335.79 5453.69 5797.32 5432.04 3921.27 3702.45 3242.31 5265.63 4898.29 4431.06 5730.2 4830.13 3494.16 5370.9 4074.16 4529.77 4325.13 6172.27 5390.33 5078.73 5278.54 5729.0 5192.92 5275.57 4179.87 4786.66 5891.25 5370.1 5129.4 5114.51 3303.49 4655.37 5585.25 5256.75 4672.86 6530.78 5560.23 4975.32 3043.77 5237.55 3909.94 5088.64 3799.01 6589.8 3729.16 5319.1 3038.91 3783.36 4181.93 3922.28 6570.43 3445.92 3820.19 4979.5 5236.69 4586.82 6026.04 6200.05 5859.17 4034.41 5522.34 5771.98 4420.35 5717.45 5117.83 5268.27 4645.93 5448.64 4585.37 6417.61 5395.12 5783.69 6074.39 5317.83 3483.61 4256.08 4460.89 4399.52 4554.24 3939.96 5910.66 7415.84 4637.3 5141.03 4840.44 8123.59 5765.14 4767.54 5121.08 2927.84 4696.03 6177.68 4605.39 6270.59 6045.26 6500.45 4907.55 4103.76 4286.61 4094.63 2932.52 4603.66 4969.68 6636.43 5431.14 6298.8 5313.86 3689.24 5178.07 5189.91 5777.26 4171.02 3530.82 7012.36 5028.06 4886.99 4002.99 5159.67 3161.1 5764.52 5684.88 6523.78 4645.86 4045.67 5620.88 4941.52 5900.0 4262.74 6241.77 3783.79 5317.19 4248.14 5279.19 4016.6 5821.49 7050.08 5580.44 5998.13 5095.52 4746.15 3720.38 4758.84 4731.37 5023.61 4068.41 6463.71 5059.37 4139.39 5783.38 6264.03 3562.8 6920.92 3573.84 4174.22 4067.89 6294.09 4571.57 5131.07 4121.07 5524.28 3133.28 5731.43 6353.81 4150.44 3518.14 5044.68 2649.69 5899.78 5000.74 5772.57 4813.81 5244.95 4634.25 5901.8 6351.48 3830.7 6210.0 5350.9 4262.52 6738.9 5992.06 4157.1 8052.53 4867.12 6520.19 1458.87 5734.07 3997.68 6033.28 4819.83 4801.16 5071.38 5616.66 5688.77 4698.7 6229.64 2848.44 4220.43 6263.87 5743.8 5084.76 6605.11 4757.87 3557.46 5971.95 5652.73 3979.46 5151.19 6321.97 6509.54 6119.0 3792.06 4293.3 5128.59 5587.3 3572.73 4864.38 3770.22 4390.64 5150.84 4608.01 5087.97 6005.95 4308.49 4930.17 4581.1 4745.44 4085.96 5762.82 7360.12 6223.98 5462.6 5617.29 3035.06 4262.19 4597.88 4878.93 6275.25 6892.33 4505.3 4452.36 3976.0 4832.21 4511.34 4742.35 5394.79 5645.54 5264.08 4151.74 4526.87 4691.01 5192.82 5245.95 5821.42 4515.02 3463.53 6126.03 2970.24 4197.87 5105.54 5462.1 3414.67 6032.45 5444.36 4026.03 6908.32 3467.11 4817.75 6153.26 5637.53 3882.37 4095.4 5188.57 3873.79 5357.33 5432.4 5037.58 7430.48 5545.68 4970.12 6044.01 6369.66 5973.57 6241.48 6286.27 6327.54 5507.07 4802.36 5368.28 5466.13 5257.38 5075.23 4975.56 7282.36 6666.34 4645.91 6834.92 6379.33 5130.57 5402.45 3985.93 6412.84 2589.19 6071.59 6079.55 5485.61 4993.49 5310.33 6583.37 3688.83 3402.44 4848.98 4491.96 5184.98 4467.51 5339.82 4519.03 5460.57 5110.27 5703.34 4612.68 6668.98 6649.52 4232.33 4939.56 4747.68 5770.92 3093.38 4845.91 2002.78 5631.32 6322.0 5793.14 4491.26 4609.65 5704.61 5009.21 5410.73 4379.91 4574.03 5290.37 4227.66 5850.38 4594.89 4730.97 3677.85 5214.71 4677.84 4924.52 4811.11 4866.8 6044.69 5658.05 6593.1 4000.51 5011.37 2827.92 4441.44 4232.44 5336.61 5563.09 4848.15 4439.09 5523.81 4718.61 6697.45 5717.67 5515.59 5252.37 3224.81 4499.54 3775.38 4046.22 6457.89 5640.67 6572.17 6080.69 5555.89 4967.93 4766.47 5678.08 5922.62 5125.45 4414.09 5957.82 3784.68 4188.16 3717.22 4654.92 2943.17 5327.71 4880.78 4322.56 5509.09 5625.02 4829.77 3826.01 5581.01 3928.99 6959.88 4125.75 5749.53 5090.48 5034.02 5582.28 5945.25 3856.4 4696.06 4137.16 4937.36 5308.4 6581.13 4569.32 5537.61 6084.88 4397.06 4199.44 4053.12 4479.5 6261.67 3435.13 5065.78 4431.46 4521.42 3207.84 3977.98 6043.34 4128.93 4959.72 4712.17 3808.04 4723.71 4461.67 6126.5 4034.88 6007.1 6345.2 5488.96 5128.03 3720.92 4942.63 5087.3 6139.74 4975.57 7066.26 6150.31 3057.3 5873.62 4996.91 5379.52 3920.44 3768.62 5314.67 5563.47 5651.46 4066.36 3162.27 6033.93 5092.44 5516.37 5432.2 4612.4 3312.3 4746.19 6381.58 3282.57 4798.13 5648.59 4630.5 4432.32 4451.76 7885.41 5782.25 4104.97 4844.2 3751.73 3374.62 4926.62 4871.1 3917.09 6009.93 5872.45 5270.1 5191.29 4947.64 6305.9 6649.21 3470.69 4859.95 5286.55 5522.18 5223.1 3873.72 5212.05 4592.49 3625.98 5479.86 6474.5 4444.92 4702.32 5971.9 5247.73 3746.62 4876.37 4769.62 5260.13 4649.5 5181.31 5985.75 5475.83 6189.29 5984.55 5672.46 5803.3 3228.27 4721.98 5252.82 3543.98 5056.26 5878.55 4014.44 6604.72 6002.77 3794.47 4610.55 4967.02 4614.49 5400.69 4462.5 5573.31 5004.68 4023.88 5348.11 4405.61 5108.84 3511.5 5067.92 4520.14 5357.14 3188.21 5919.27 4793.06 6637.38 6188.33 6111.23 6916.18 5786.06 4137.41 3868.69 5447.74 4450.51 6033.72 3851.47 4966.74 4959.94 1635.31 5639.4 6185.73 4083.24 6520.96 3771.91 5217.62 6178.19 4616.81 5715.25 5212.2 4611.21 5108.42 3354.94 6296.36 5237.27 5767.65 4907.03 5497.27 4575.72 4081.77 5114.61 4948.21 6118.13 2181.29 4420.3 6332.64 4083.1 3482.73 5130.56 4957.99 4063.26 4997.89 4542.62 5093.28 6131.52 4132.08 6009.88 4699.77 4850.49 4981.55 5144.23 6188.62 6153.07 4763.04 4414.06 5944.52 4413.56 4532.67 5050.2 2513.38 5316.05 4908.32 3995.08 5019.84 4810.74 3900.93 5784.38 4149.17 4329.8 5728.27 3074.49 5202.33 3956.24 7558.99 3393.59 4142.1 5043.14 5333.04 5445.91 4521.99 4812.59 6842.54 7115.67 5675.45 3361.11 6038.56 2807.46 5599.16 4179.8 3488.34 5658.35 5428.24 4487.51 4582.12 4295.25 7394.47 4729.45 4850.95 5374.09 6271.22 3421.81 5378.75 3920.64 6186.24 5822.7 3780.07 5466.49 4038.17 5007.41 3692.99 4907.48 6213.74 2329.93 4369.87 6938.87 5412.07 5512.57 4806.99 4813.55 5856.43 3839.0 5349.85 5799.86 5172.1 4362.94 4469.82 6545.78 4870.14 4404.87 2932.2 5105.72 5003.49 4750.76 3964.03 4216.33 5617.91 4721.2 4987.01 4202.12 4706.31 2694.25 4735.99 6492.44 4739.56 4613.32 3996.93 5145.39 3352.46 6351.95 5195.09 5345.05 7679.2 4881.51 2626.41 4311.92 6729.99 5093.41 6842.35 5464.34 3621.63 5801.89 5908.57 7296.47 5742.39 4821.41 4924.53 5616.11 4499.52 4028.13 3874.12 4457.73 6476.35 6260.58 4067.24 3053.19 6571.26 5580.95 3549.92 6598.99 4032.06 5246.81 5089.1 5888.95 5394.78 3463.34 5122.38 2853.68 5262.85 4998.37 5329.84 6559.82 3879.83 6565.95 4577.98 5043.34 5886.81 4246.24 6805.02 5354.48 4900.26 6261.13 4167.55 4720.34 5244.47 5510.89 4731.16 4495.33 5282.67 4159.89 5178.55 5146.69 6203.24 6818.23 4488.41 6679.12 5652.19 5806.74 6578.62 6284.12 3465.03 4796.04 5229.56 6011.4 4672.34 6052.22 5376.41 5003.63 4695.7 4944.08 4082.01 5269.39 4305.35 5210.22 5832.72 2451.27 3903.9 4444.95 5161.02 3124.49 6265.48 4203.68 5003.81 6262.18 3818.37 4701.03 6225.05 5434.04 5200.1 3997.52 4444.54 5779.9 4909.74 5310.33 6664.54 5161.73 3922.98 5259.48 4777.96 4803.4 6833.5 2613.78 4780.16 3834.01 5738.37 4433.23 4813.24 5759.19 3113.64 4490.2 4304.75 5480.86 6139.9 4720.22 4313.38 5827.3 5250.56 3633.58 2468.16 6294.14 4339.97 5203.75 5169.09 4691.15 2459.88 4210.24 5470.67 5901.71 5225.11 5342.9 5252.22 5733.12 4962.35 6436.29 5402.81 4600.81 4919.13 5640.63 5168.97 4124.33 5783.88 5002.38 6705.93 4865.11 5449.09 5502.14 6470.87 4131.08 4465.56 5747.9 3864.19 4287.93 5315.71 6158.93 5081.65 4823.14 5438.5 4621.32 5699.4 3878.8 4698.94 3948.21 5669.15 5296.05 5263.86 3330.85 5056.32 5533.52 5410.33 4747.24 4380.86 5576.16 5648.02 3308.75 4439.17 5677.42 4929.35 5606.22 3943.77 5242.38 6081.35 5459.52 5566.5 5663.36 4276.59 5579.04 5125.53 5994.21 5403.81 5082.25 6964.78 5299.03 4374.05 5036.84 4565.36 5813.68 4025.08 4008.67 3618.53 5254.93 4770.21 6608.94 3796.73 5417.07 3082.16 5656.84 6789.66 4739.41 5312.2 5847.27 4706.59 5734.84 3982.31 4950.07 4582.24 2832.83 4084.87 6036.99 3010.1 3825.98 4589.22 5087.03 4667.84 3906.41 4123.08 4512.6 4260.38 4636.45 4932.27 5638.51 6793.49 3563.33 6060.19 5536.0 6786.37 4333.23 4328.76 5561.63 5940.5 4358.06 5093.51 5647.93 4280.92 6201.49 5154.74 4605.61 6898.8 5386.95 6540.57 5332.11 4893.72 6004.72 4072.4 5373.78 5345.65 4489.18 5863.36 4632.75 5237.76 4994.98 4286.84 6423.96 6058.13 6988.4 6635.51 4060.17 6051.35 5302.53 4909.13 4287.61 4867.13 4604.34 4863.27 2701.42 5442.79 5051.39 6673.92 5151.68 4884.94 5362.15 4609.98 4455.61 4738.72 4752.31 5240.97 5569.85 5405.6 3929.35 4884.93 4759.38 6960.97 4287.15 5282.51 5504.65 5669.41 5732.11 5040.9 5596.68 8013.28 3846.55 5159.9 5283.65 4644.68 2892.36 5981.54 5911.29 5416.41 4694.27 6760.64 2515.5 5177.88 5551.79 6981.47 3916.15 4474.96 4758.76 4790.63 5259.29 3584.05 4916.75 4818.53 5097.85 5584.64 6189.04 6224.64 4221.03 3799.55 5082.66 4550.77 4337.93 3550.88 4345.51 4048.73 6223.33 3860.8 5145.13 3747.96 5611.29 4521.88 6568.45 5004.22 4601.54 7263.57 4696.92 5705.96 6437.99 5739.69 6632.04 7360.62 4977.64 4985.45 4983.56 5699.51 2489.44 5499.37 4883.13 4836.76 4752.94 5551.09 3950.53 4501.1 5581.47 5894.69 6550.61 4987.01 4713.56 6094.34 6779.82 3999.81 5543.67 6210.48 6377.45 4182.05 4502.12 3255.93 6853.07 6327.61 4633.59 5733.59 5575.8 5268.93 6874.6 5106.9 5306.31 5523.96 4223.53 4733.37 4535.94 3037.72 4523.9 5126.08 5604.0 3760.4 4951.02 3919.47 4602.7 3783.35 4868.66 4037.16 4004.39 6395.63 4987.48 5943.61 4248.58 5479.17 4542.25 5020.37 4414.23 5233.88 4849.21 4785.55 3793.83 5245.4 6189.81 5367.05 4449.73 5647.11 4088.72 3945.62 3743.85 6236.46 5342.17 6379.3 5015.67 3795.63 5189.4 4576.71 6538.04 4894.15 6157.59 5201.3 5848.41 4090.28 5438.6 7370.52 4726.5 5467.05 3724.23 5103.3 4963.88 5888.94 4727.98 3832.09 5175.88 4122.2 5267.65 4790.16 3509.34 5360.88 3731.58 3166.37 5369.42 5207.08 5205.53 4714.52 4587.19 5543.05 6028.89 5333.16 4888.17 5755.98 5392.85 5077.2 4384.91 4274.05 5275.27 4277.54 5529.09 4531.46 5925.82 5448.68 4739.5 4072.95 4491.62 3865.5 3695.72 4246.83 4516.26 3647.26 
SCALARS Velocity float 1
LOOKUP_TABLE default
1.22193 1.32353 2.21434 1.73164 1.56903 1.21426 1.54701 1.36441 1.22184 1.66662 1.49074 1.30024 1.05566 1.206 1.18765 1.16444 1.17155 1.2256 1.84211 2.00314 1.54942 1.38151 1.37051 1.50149 1.50469 1.11737 1.29423 1.25983 1.19653 1.19178 1.28355 1.20642 1.19951 1.20648 1.20562 1.2188 1.19357 1.19178 1.19402 1.1939 1.19175 1.19709 1.19178 1.19173 1.19485 1.19451 1.19173 1.19318 1.19296 1.19228 1.19362 1.19126 1.19588 1.20671 1.19273 1.19018 1.19248 1.18981 1.19388 1.20144 1.20907 1.20007 1.20628 1.24863 1.16391 1.18614 1.31574 1.26819 1.32777 1.29644 1.3206 1.46566 1.56709 1.45617 1.30965 1.19314 1.61311 1.58707 1.53601 0.435229 1.07213 1.16156 1.16505 1.12635 0.971563 1.03418 1.06002 1.24137 0.929108 1.27275 1.66751 1.54366 2.04716 1.50956 1.3022 0.870343 1.77238 1.6884 1.52269 1.27951 1.24347 1.10279 1.24676 1.21425 1.18878 1.31554 1.35055 1.21652 1.20353 1.20646 1.20675 1.223 1.19675 1.19099 1.19774 1.1962 1.19782 1.19407 1.1905 1.19712 1.19496 1.19293 1.19128 1.19576 1.19525 1.19227 1.19212 1.19148 1.19658 1.19542 1.20159 1.19281 1.19084 1.19178 1.19109 1.19484 1.20015 1.2103 1.21102 1.20886 1.24744 1.19178 1.19178 1.25657 1.23621 1.24811 1.29552 1.29147 1.35862 1.32329 1.48983 1.62027 1.35782 1.23707 1.26 1.48603 1.55005 1.35576 1.19788 1.18784 1.21347 1.0282 1.08529 1.08608 1.02347 1.07504 0.938346 0.941144 0.956417 0.975449 1.08072 1.07274 1.0477 1.20177 1.13539 0.992207 1.25979 1.58787 1.45764 1.31825 1.48121 1.29739 1.26611 1.23155 1.37043 1.14027 1.26659 1.17629 1.21616 1.20466 1.23728 1.19859 1.19069 1.1974 1.21673 1.19097 1.19763 1.19178 1.19743 1.19511 1.19293 1.1912 1.19479 1.19702 1.1931 1.19195 1.19196 1.19499 1.197 1.1951 1.20383 1.17862 1.2083 1.20968 1.21071 1.21331 1.20971 1.20943 1.25493 1.16837 1.23732 1.26631 1.25145 1.27112 1.24337 1.34093 1.3776 1.17295 1.46335 1.32054 1.25232 1.34821 1.55818 1.15753 0.989513 1.0771 1.13745 1.07787 1.07135 1.03851 1.05567 1.03353 1.03085 0.870559 0.898717 0.947496 0.935555 0.987911 1.00471 1.02805 1.07518 1.09908 1.10487 1.10964 1.07897 1.16559 1.52909 1.39926 1.28927 1.21528 1.10229 1.33637 1.22837 1.41841 1.40746 1.28192 1.28081 1.30405 1.27037 1.24013 1.2747 1.24263 1.22438 1.19389 1.20573 1.18335 1.2113 1.19199 1.19976 1.18585 1.19751 1.19534 1.19672 1.19256 1.193 1.19486 1.19698 1.19188 1.19307 1.19381 1.19905 1.19635 1.18865 1.19383 1.1913 1.18359 1.19163 1.19178 1.19178 1.19176 1.23211 1.22764 1.18972 1.20932 1.15782 1.27665 1.24433 1.21411 1.21907 1.36403 1.11157 1.27072 1.34285 1.54983 1.23396 1.1277 1.17983 1.13491 1.07777 1.20755 1.07674 1.03818 1.01855 1.00301 1.01329 1.00272 0.842913 0.938996 0.936808 0.959107 1.00669 1.0172 1.03649 1.03082 1.07521 1.09717 1.13055 1.12495 1.12632 1.26633 1.24911 1.36381 1.18898 1.04284 1.13825 1.12702 1.28702 1.25231 1.32432 1.24878 1.17526 1.25656 1.20322 1.22509 1.2323 1.20697 1.20193 1.19511 1.1888 1.2106 1.1896 1.18412 1.19428 1.18127 1.19509 1.19835 1.19362 1.18585 1.19641 1.19123 1.19262 1.19388 1.20472 1.19518 1.1897 1.19694 1.19184 1.21419 1.19617 1.19178 1.19184 1.17373 1.23933 1.22649 1.17583 1.19015 1.20066 1.21703 1.20772 1.13165 1.1759 1.14231 1.1689 1.2024 1.30813 1.12402 1.09184 1.22532 1.23656 1.42015 0.922525 1.14517 1.12036 1.09019 1.07851 0.980138 1.00524 1.0166 0.981436 0.927906 0.980094 1.01196 0.947104 0.894898 0.879981 1.10392 0.805003 0.810491 0.822347 0.864516 0.921989 0.897155 0.937292 0.947178 1.01819 1.03913 1.05572 1.02486 0.991282 1.03308 1.07643 1.08397 1.21298 0.737535 1.4504 1.15241 1.18405 1.09064 0.932537 1.07874 1.26811 1.32119 1.15717 1.20736 1.31787 1.02478 1.24585 1.21055 1.29004 1.23761 1.15177 1.17825 1.22936 1.19714 1.20449 1.20134 1.18894 1.1949 1.18831 1.19414 1.19199 1.19167 1.19138 1.18905 1.19341 1.18739 1.19342 1.20127 1.19324 1.19593 1.19567 1.18741 1.19541 1.19192 1.19935 1.19771 1.19469 1.19913 1.16574 1.24029 1.22513 1.21901 1.20931 1.17148 1.20395 1.13721 1.19846 1.19332 1.07626 1.33479 1.16158 0.994303 0.98245 1.14347 1.17115 1.31257 0.956348 1.06524 1.08476 1.06161 1.0869 1.0241 1.05415 0.9591 0.963419 0.933549 0.857035 0.82764 0.87998 0.463089 0.723039 0.595734 0.758342 0.787098 0.799564 0.810188 0.836575 0.889845 0.909647 0.91831 1.04842 1.02853 1.04065 1.05304 1.03042 1.10635 1.0983 0.786587 1.37143 1.20504 1.18552 1.07155 1.10073 1.01844 1.41096 1.19608 1.23082 1.29182 1.03918 1.22804 1.29536 1.24603 1.14786 1.17 1.22018 1.15243 1.2065 1.20554 1.19224 1.18916 1.1795 1.19271 1.19311 1.19202 1.1901 1.18927 1.1899 1.19539 1.19521 1.19247 1.19443 1.19602 1.19571 1.18774 1.18508 1.19506 1.19954 1.18484 1.20199 1.17308 1.18635 1.23656 1.22286 1.21344 1.14882 1.18513 1.24498 1.17902 1.09966 1.13842 1.47608 1.33345 1.1197 0.979432 1.20314 0.940765 1.29043 1.18687 1.03872 1.06622 1.02913 1.07742 1.05895 0.989604 0.950442 0.895501 0.893827 0.909428 0.874109 0.779062 0.867149 0.736201 0.661717 0.697597 0.710066 0.669756 0.720462 0.817286 0.797001 0.83882 0.862279 0.86474 0.890715 0.917504 0.944378 1.02156 0.999755 0.998992 1.02692 0.89772 1.07662 1.05322 0.891098 1.0247 0.990133 1.29894 1.1319 1.06518 0.940014 1.23427 1.27061 1.24922 1.08925 1.18167 1.10998 1.25563 1.16448 1.24565 1.14429 1.17221 1.2132 1.16922 1.21312 1.20767 1.19147 1.18781 1.18035 1.19954 1.19074 1.19094 1.1905 1.18932 1.19178 1.19103 1.19626 1.18935 1.19368 1.19488 1.19558 1.19637 1.18973 1.19562 1.1963 1.2138 1.19071 1.20464 1.17615 1.16427 1.23431 1.21711 1.22071 1.14802 1.16884 1.32448 1.24365 1.18035 1.18554 1.56145 1.45265 1.12859 1.1043 1.15199 0.80786 1.20884 0.962828 1.26411 1.09699 1.02675 1.01033 1.0159 1.02574 1.01825 0.997597 0.98653 0.970422 0.917561 0.913242 0.917082 0.87293 0.825405 0.838165 0.807655 0.775086 0.860969 0.71826 0.690371 0.722608 0.698546 0.630588 0.679353 0.653447 0.746859 0.826611 0.83081 0.83551 0.86992 0.882225 0.908436 0.888211 0.92197 0.890661 0.999069 0.983457 0.953092 0.930456 1.04555 1.01167 0.887873 0.708676 1.05881 1.4678 1.10005 1.16976 1.12694 1.08345 1.00594 1.26617 1.14299 1.13995 1.11629 1.24553 1.16207 1.23661 1.17892 1.15913 1.24836 1.18002 1.20738 1.20555 1.19059 1.18447 1.19132 1.2002 1.19144 1.19292 1.19101 1.19052 1.18984 1.19188 1.19625 1.1899 1.19205 1.19407 1.19424 1.19563 1.19017 1.19519 1.19695 1.1977 1.20324 1.21342 1.18481 1.16639 1.18232 1.21304 1.22265 1.22279 1.15151 1.16797 1.31516 1.29483 1.20404 1.14075 1.16653 1.08178 1.52438 1.26554 1.07797 1.10917 0.753348 1.01345 1.35871 0.958449 0.944794 1.05301 1.02989 0.976689 0.992581 0.94158 0.994338 0.944036 0.926991 0.956973 0.830199 0.883511 0.835539 1.05115 1.16249 0.805172 0.699335 0.730916 0.840691 0.75182 0.737364 0.781705 0.754994 0.764231 0.872231 0.843155 0.896985 0.874455 0.86429 0.848357 0.949628 0.899635 1.00361 1.0284 1.02224 0.873837 0.664194 1.6832 1.61842 1.17037 1.17706 1.09585 1.06383 1.06383 1.23564 1.18453 1.18618 1.19963 1.16189 1.05895 1.12143 1.18142 1.21252 1.20162 1.17332 1.19254 1.17413 1.1943 1.19426 1.19013 1.19513 1.19235 1.2001 1.19229 1.19207 1.18988 1.20081 1.18574 1.19374 1.19654 1.19104 1.19238 1.19386 1.19436 1.19521 1.1945 1.19654 1.19582 1.18991 1.19707 1.20593 1.1855 1.19418 1.19521 1.17067 1.19614 1.19713 1.18895 1.20983 1.14926 1.16912 1.30738 1.32738 1.19079 1.16833 1.1958 1.19667 0.761576 0.800613 1.23656 1.0268 1.02524 1.19506 0.975093 1.22512 0.981178 1.0099 0.986748 0.904294 0.9404 1.02091 0.989084 0.96563 0.972541 1.00509 0.900466 0.785703 0.909659 0.781193 0.74761 0.829365 0.43195 0.672284 0.569789 0.616064 0.661294 0.728082 0.858724 0.622086 0.849943 0.777224 0.869858 0.64938 0.744911 0.922588 0.881802 0.849716 0.853812 0.831274 0.803992 0.828029 0.881296 0.865738 0.868511 0.954329 1.13661 0.470677 1.03096 0.854336 0.599402 1.57148 1.19591 0.982455 0.926896 1.16492 1.07409 1.04919 1.11298 1.17592 1.13829 1.20326 1.19462 1.15262 1.15418 1.08516 1.16037 1.2099 1.20082 1.17834 1.18061 1.1927 1.15676 1.17098 1.18519 1.187 1.18656 1.19326 1.19129 1.19862 1.18979 1.19759 1.18507 1.20089 1.20439 1.1849 1.19054 1.1926 1.19603 1.19059 1.19363 1.19308 1.19351 1.19453 1.19427 1.19608 1.19871 1.19132 1.2006 1.19698 1.19623 1.18301 1.17019 1.19312 1.18521 1.21277 1.1426 1.16717 1.29817 1.17658 1.16307 1.19675 1.18048 1.26724 0.826913 0.870214 1.25449 1.06572 1.07145 1.27738 0.740804 1.30254 1.25735 1.09656 1.03729 0.882359 0.910907 0.849704 0.930446 0.920962 0.8364 0.847979 0.873509 0.803171 0.842252 0.772642 0.651138 0.761298 0.637933 0.646832 0.66766 0.699378 0.706947 0.740493 1.06243 0.610175 1.27758 0.97744 0.676685 0.707005 0.215965 0.772205 0.387905 0.690293 0.496763 0.67923 0.849502 0.853607 0.808907 0.810424 0.759163 0.815298 0.834565 0.878616 1.17575 1.27156 0.590219 1.10592 0.917498 0.793272 0.905913 1.08268 0.893347 1.15466 1.05261 1.00152 1.14755 1.17361 1.1481 1.20853 1.16131 1.17372 1.21364 1.15799 1.17445 1.20895 1.15873 1.17972 1.18478 1.18844 1.19575 1.18184 1.18773 1.19872 1.18917 1.19178 1.18516 1.20499 1.19272 1.19576 1.19234 1.19178 1.19178 1.19457 1.19385 1.19561 1.19893 1.19285 1.19602 1.20013 1.21725 1.20954 1.17146 1.16261 1.18779 1.21684 1.13779 1.1998 1.153 1.17795 1.14784 1.22798 1.18066 1.20787 1.33192 0.867875 0.93952 1.23986 1.01402 1.16628 1.2937 1.22892 0.770118 1.10767 0.944544 0.83743 0.792228 0.849724 0.832942 0.877378 0.900393 0.911047 0.915352 0.861709 0.868051 0.911473 0.888511 0.847065 0.778955 0.732996 0.799501 0.816216 0.754911 0.650538 0.691498 0.676888 0.902436 1.15954 0.587953 0.470562 1.42289 0.613693 0.831743 1.52063 0.734058 0.0452957 0.510141 0.393314 0.72759 0.8122 0.718774 0.729534 0.689209 0.706534 0.737493 0.754508 0.866675 0.882665 0.988191 1.22055 1.19168 1.06751 1.11191 0.968892 0.920616 0.812925 1.17937 1.03114 0.942142 1.17005 1.14611 1.06736 1.17907 1.18304 1.13803 1.08904 1.17057 1.23274 1.16424 1.19583 1.20098 1.18618 1.18054 1.17781 1.17763 1.17817 1.18338 1.1817 1.19488 1.18408 1.19367 1.18245 1.19713 1.18654 1.1949 1.19566 1.19429 1.1917 1.19178 1.19456 1.19585 1.19014 1.18731 1.19333 1.18658 1.20845 1.19609 1.15674 1.1581 1.18805 1.18346 1.18364 1.17581 1.19134 1.19146 1.1599 1.19274 1.22528 1.36732 0.877236 0.951034 1.12022 1.06384 1.12059 1.18236 0.971332 1.04654 0.936981 0.834828 0.812479 0.791112 0.75905 0.877703 0.868239 0.872669 0.877579 0.881694 1.00302 0.884808 0.927826 1.18885 0.903729 1.00471 1.13688 0.636927 0.678955 0.972432 0.843861 1.13547 1.01646 0.608486 0.770999 0.852093 0.430435 0.294414 0.527299 0.787629 0.656755 0.727124 0.637458 0.71475 0.808473 0.74252 0.862533 0.877539 0.791501 0.833392 0.838493 0.843375 0.837187 0.842841 1.15161 1.01142 0.498588 0.927942 1.20101 1.14624 0.991144 0.893225 1.21211 1.15493 1.10816 1.13311 0.985655 1.22016 1.15984 1.06511 1.12852 1.21661 1.22126 1.16645 1.18146 1.18053 1.17688 1.18075 1.1792 1.20108 1.17703 1.18943 1.19683 1.20525 1.20006 1.18692 1.19296 1.18459 1.19316 1.1924 1.19494 1.19622 1.19631 1.19479 1.19207 1.19224 1.19422 1.1941 1.19309 1.19439 1.19559 1.19021 1.19172 1.18572 1.18683 1.19165 1.21394 1.21564 1.19211 1.20009 1.17081 1.15625 1.16107 1.1766 1.17929 1.18193 1.15397 1.17517 1.16847 1.21748 1.25228 0.890564 0.896795 0.971031 1.13964 1.10754 1.10311 1.1117 1.03616 1.01633 0.96825 0.882904 0.973035 0.831539 0.912937 0.798567 0.952022 0.758262 0.930093 0.837345 0.842685 0.870272 1.12111 0.865861 0.713791 0.938727 0.492447 0.688043 0.596767 0.856722 0.763664 0.582097 1.00627 1.14016 0.759304 0.771449 0.810324 0.559178 0.989134 0.558917 0.721145 0.794125 0.738493 0.842319 0.811011 0.834589 0.869979 0.820774 0.794918 0.844398 0.852304 0.862372 0.894438 0.996373 1.00796 0.918694 0.914072 1.21579 1.06663 1.03727 1.04012 0.972781 1.22079 1.13207 1.1021 0.99622 1.16272 1.1337 1.15269 1.09763 1.18572 1.13746 1.17454 1.17089 1.18951 1.18127 1.1772 1.17885 1.17445 1.17804 1.19936 1.16913 1.18863 1.19701 1.19547 1.18534 1.19215 1.19446 1.19607 1.19461 1.19502 1.19206 1.19283 1.19284 1.19472 1.19402 1.1934 1.19189 1.19465 1.19255 1.18887 1.18601 1.19547 1.20773 1.15957 1.2182 1.21163 1.16449 1.17862 1.17943 1.14185 1.15921 1.15709 1.17054 1.17065 1.18827 1.19934 1.25403 1.00506 1.15626 1.1265 1.08718 1.08171 1.0397 1.03589 1.01694 1.0048 0.956122 0.870487 0.83147 1.00063 1.03561 0.855217 0.837234 0.924516 0.761145 0.827681 0.419867 0.611416 0.783567 0.697843 0.58769 0.730093 0.727155 0.622608 1.07219 0.843332 0.773048 0.774184 0.516508 1.07207 0.432126 0.525034 0.690928 0.921836 0.838119 0.879961 0.802374 0.770091 0.86501 0.900897 0.912229 0.965975 0.992808 1.16235 0.936826 1.11102 0.979399 1.0402 1.1966 1.11718 1.03376 1.04244 0.906507 1.02561 1.14218 1.14811 1.1888 1.15183 1.17055 1.13751 1.20338 1.18109 1.17023 1.15723 1.19802 1.19506 1.18537 1.16439 1.19625 1.19779 1.19454 1.18045 1.20257 1.19796 1.19467 1.193 1.19098 1.19352 1.19178 1.19404 1.1955 1.19433 1.19285 1.19461 1.19509 1.19344 1.19313 1.18813 1.19027 1.18544 1.19389 1.20396 1.15753 1.21514 1.17702 1.17075 1.18431 1.19969 1.14565 1.16245 1.16203 1.1595 1.16893 1.16322 1.19641 1.24735 1.1474 1.23044 1.0198 1.15729 1.10481 1.06853 1.08378 1.00138 0.910771 1.11501 1.06271 0.980805 0.922558 1.06644 0.812771 0.84261 0.902333 0.854616 0.940051 0.640407 0.681206 0.694876 0.740329 0.57215 0.825233 0.886635 0.894113 0.946438 0.855634 0.761889 0.790858 1.13347 0.437299 0.532088 0.685145 0.802825 0.826448 0.777323 1.02158 0.797508 0.846625 0.87798 0.878594 0.889572 0.9824 0.917755 1.02949 1.13648 0.992375 1.06928 1.06835 1.04777 1.16364 1.12652 1.07021 0.994157 1.17783 1.14731 1.13789 1.14182 1.15628 1.26434 1.271 1.1726 1.19404 1.18158 1.18703 1.19306 1.17344 1.19527 1.17937 1.17362 1.17772 1.19742 1.19264 1.19188 1.19852 1.19142 1.19597 1.19268 1.19629 1.18924 1.18979 1.19392 1.19454 1.19091 1.1898 1.19457 1.20385 1.1998 1.18028 1.18452 1.1732 1.18502 1.18002 1.15286 1.15557 1.26906 1.17853 1.1531 1.18943 1.2076 1.1786 1.10241 0.9855 1.09895 1.16133 1.10429 1.11292 1.13218 1.004 0.960286 1.0617 0.930191 0.826476 0.698835 0.757429 0.865168 0.873424 0.908374 0.899683 0.863068 0.97881 0.866367 0.672076 0.823606 0.795339 0.620521 0.833234 0.875473 0.890981 0.869139 0.827403 0.852281 0.903174 1.20384 0.908851 0.72067 1.14926 0.659759 0.825393 0.885882 0.893565 0.963347 1.0032 0.772923 0.895632 0.84213 0.961744 0.985789 1.09738 1.1915 1.01708 0.977764 1.07318 1.06915 1.13957 1.1527 1.13385 1.07783 1.02206 1.19178 1.18655 1.1715 1.14017 1.15225 1.17483 1.16078 1.17728 1.20462 1.19359 1.184 1.19312 1.19062 1.19626 1.18542 1.18462 1.19833 1.19654 1.19178 1.19536 1.19685 1.19267 1.19174 1.19169 1.19431 1.19816 1.19128 1.19422 1.19394 1.19194 1.19442 1.19178 1.19138 1.18962 1.1943 1.20496 1.20111 1.16997 1.16454 1.17321 1.17629 1.18084 1.1718 1.15445 1.15412 1.21959 1.152 1.21185 1.14076 1.0687 1.13161 1.19178 1.21056 0.821012 1.21131 1.13314 1.06493 1.00413 0.978476 1.14677 1.01248 0.913783 0.877497 0.977181 0.965936 1.04884 0.990127 1.02434 0.755725 0.932096 1.05525 0.83406 0.942934 0.866516 0.892427 0.85837 0.876122 0.864276 0.901369 0.858711 0.787121 0.863668 1.18481 0.812442 0.890154 0.905939 0.896689 0.888345 0.985928 1.11871 0.898085 0.858142 1.09113 0.773448 0.898284 1.05669 0.917298 0.869948 1.12349 1.01697 0.934816 1.11133 1.08387 1.13849 1.14608 1.14297 1.11353 1.07695 1.23936 1.20028 1.20105 1.15772 1.1642 1.1811 1.18899 1.19714 1.17776 1.19107 1.18145 1.18513 1.19051 1.19456 1.18276 1.19442 1.20017 1.19226 1.19675 1.19264 1.19313 1.19366 1.19536 1.19788 1.19332 1.19384 1.19477 1.19414 1.1916 1.19026 1.19376 1.19145 1.18906 1.18852 1.18897 1.18842 1.19133 1.20323 1.17731 1.17604 1.18316 1.1813 1.14971 1.11419 1.19438 1.16907 1.16231 1.1552 1.15388 1.22702 1.15275 1.05485 1.17669 1.17722 1.26091 1.10639 1.06793 1.06578 0.976157 1.0599 1.32393 1.10466 0.974727 0.912819 0.881632 1.11263 0.965656 1.02977 0.650616 0.717533 0.746438 0.993939 0.756331 1.04362 1.0006 0.99687 0.93561 0.879021 0.850636 0.888422 0.941394 0.877828 0.759501 0.839131 0.83689 1.08112 0.957464 1.01937 0.905127 1.00349 0.900861 0.959212 1.04896 1.0448 0.960927 1.0666 1.07363 1.12485 1.00764 0.993692 1.13628 1.159 1.03972 0.967234 1.00717 1.10392 1.09925 1.18694 1.15404 1.15724 1.15537 1.16979 1.14239 1.16912 1.16264 1.10198 1.12244 1.20363 1.13674 1.17753 1.18223 1.16878 1.17852 1.19721 1.17861 1.18636 1.18658 1.19178 1.18154 1.19245 1.19179 1.18862 1.1957 1.19872 1.19187 1.19254 1.19316 1.19343 1.19458 1.18948 1.19562 1.19052 1.19164 1.19369 1.19578 1.19437 1.19025 1.19436 1.18747 1.19224 1.18861 1.18908 1.19175 1.19142 1.17877 1.18773 1.17217 1.16682 1.18358 1.18624 1.197 1.15927 1.16474 1.21743 1.16799 1.14942 1.04112 1.14384 1.17516 1.20712 1.15819 1.15016 1.04204 1.2597 1.09015 1.00024 0.962309 1.00983 0.953453 0.973493 0.903831 0.997481 1.07241 1.03142 0.959945 0.794619 0.843157 1.04256 0.961074 1.00088 0.929084 1.02719 0.926348 0.967936 0.896561 0.848109 0.903477 1.03596 1.06834 0.933972 0.929022 0.914417 0.977207 1.03599 1.04372 1.06098 0.982831 1.16252 1.03882 1.10173 0.999117 1.06307 1.08845 1.10303 1.2087 1.14044 1.15142 1.16786 1.16705 1.1947 1.16756 1.14877 1.15919 1.18141 1.1866 1.19561 1.1943 1.19097 1.17982 1.1834 1.18535 1.19298 1.19353 1.19248 1.2001 1.19564 1.19626 1.19345 1.19614 1.19475 1.18744 1.1923 1.18701 1.18988 1.19368 1.20226 1.19211 1.18627 1.19124 1.19258 1.18911 1.19201 1.19174 1.17219 1.18759 1.18594 1.17627 1.15606 1.18861 1.17953 1.19864 1.19554 1.17376 1.17426 1.15378 1.21243 1.2046 1.05723 1.15802 1.18616 1.18588 1.1958 1.14121 1.02976 1.18922 1.17047 1.11703 1.1746 1.06483 1.04889 0.921171 0.965245 0.976794 0.999032 1.05737 1.14721 0.96791 1.03214 0.928996 1.02651 0.942023 1.06714 1.06474 1.00544 0.909664 0.983962 0.95181 0.839133 0.891971 1.12963 0.98873 0.959745 0.976387 1.01361 1.04937 1.0609 1.04151 1.15168 1.0562 1.07184 1.09285 1.14131 1.10376 1.01899 1.05872 1.1727 1.16878 1.17757 1.14774 1.15316 1.17639 1.18451 1.18572 1.16734 1.17983 1.18556 1.19056 1.17472 1.1964 1.18965 1.18336 1.18561 1.1939 1.19137 1.19232 1.1856 1.19062 1.19964 1.20058 1.19189 1.18799 1.19532 1.19546 1.19732 1.19793 1.19496 1.19178 1.19279 1.1902 1.18998 1.19073 1.18893 1.20663 1.19254 1.18903 1.18627 1.18974 1.18935 1.18968 1.19142 1.19029 1.19051 1.19184 1.19519 1.1902 1.19102 1.17984 1.18845 1.18125 1.19062 1.18222 1.18038 1.15227 1.19019 1.17758 1.18483 1.20786 1.16362 1.16253 1.07006 1.12083 1.08582 1.08327 1.17945 1.12797 1.15235 1.17213 0.989628 1.09136 1.0492 0.979395 1.04013 0.998002 1.01334 1.03836 1.13886 1.0662 1.06117 0.981665 0.982179 0.997686 0.987818 0.831016 0.93103 1.15248 1.06559 1.03454 1.00719 0.99931 1.02046 1.04714 1.01126 1.04443 1.02621 1.04902 1.11574 1.12514 1.10434 1.13809 1.11975 1.08943 1.02949 1.08253 1.16757 1.17275 1.16673 1.14216 1.20037 1.20266 1.17795 1.16708 1.16469 1.19178 1.19178 1.19242 1.17558 1.18785 1.1886 1.18391 1.19416 1.18527 1.19178 1.1935 1.19317 1.19657 1.19703 1.19493 1.19572 1.19844 1.19494 1.19044 1.19275 1.18658 1.18727 1.19439 1.19445 1.19014 1.19246 1.18903 1.18973 1.18856 1.19159 1.1921 1.19359 1.19226 1.19178 1.18047 1.18028 1.18119 1.18176 1.18982 1.18154 1.17898 1.18951 1.16105 1.18507 1.177 1.18746 1.21058 1.19178 1.1686 1.10521 1.10778 1.15428 1.09696 1.12261 1.09536 1.07861 1.05501 1.18665 1.18503 1.00566 1.03207 1.07313 1.0516 1.0726 1.04425 1.02612 1.08611 1.03538 1.07385 1.04967 0.98761 1.05878 1.00659 1.00822 0.994738 0.997025 1.02771 1.19003 1.14462 1.09201 1.0757 1.06634 1.04856 1.09608 1.048 1.05557 1.08028 1.10875 1.13577 1.11097 1.1197 1.09743 1.0682 1.12529 1.09338 1.13829 1.10107 1.1392 1.16459 1.16811 1.17189 1.14494 1.20442 1.18018 1.14936 1.1874 1.18559 1.17626 1.19531 1.18363 1.18808 1.18836 1.19755 1.19403 1.19304 1.19382 1.19629 1.1951 1.19374 1.19818 1.19481 1.19388 1.19247 1.19163 1.19 1.18965 1.18612 1.19455 1.19176 1.19259 1.18937 1.18965 1.18989 1.19371 1.19772 1.19063 1.18204 1.18465 1.19111 1.18298 1.18954 1.18835 1.18418 1.18612 1.18635 1.18909 1.18619 1.18639 1.17177 1.15074 1.16249 1.1261 1.12835 1.09575 1.08328 1.08011 1.06773 1.05231 1.05506 1.05377 1.04513 1.01862 1.12202 1.08218 1.13487 1.11318 1.0752 1.06266 1.01946 1.02469 1.07596 1.06261 1.21174 1.2485 1.07598 1.09051 1.10111 1.05219 1.07467 1.2125 1.18033 1.19886 1.14671 1.12622 1.1314 1.15601 1.19178 1.14232 1.09975 1.20406 1.21786 1.15123 1.17518 1.15016 1.18907 1.18327 1.18114 1.18392 1.17388 1.17646 1.18239 1.18861 1.18593 1.18409 1.18909 1.18894 1.19802 1.19178 1.20532 1.19355 1.19106 1.19491 1.19432 1.19333 1.18981 1.19645 1.19535 1.19338 1.19802 1.19469 1.19178 1.19364 1.19164 1.18957 1.18916 1.1858 1.19329 1.19155 1.19286 1.19239 1.18944 1.19145 1.18953 1.18958 1.18749 1.18787 1.18834 1.19389 1.19391 1.19081 1.19791 1.18836 1.1813 1.18971 1.19436 1.18511 1.18374 1.18017 1.18576 1.18246 1.18507 1.18705 1.18674 1.18665 1.18608 1.18582 1.18534 1.15001 1.15125 1.15419 1.16749 1.08198 1.11418 1.08674 1.16985 1.14052 1.11238 1.06187 1.07933 1.00742 1.13218 1.1275 1.01257 1.09615 1.13786 1.10735 1.08538 1.06575 1.07234 1.11289 1.06427 1.16955 1.16334 1.08859 1.1026 1.06801 1.1114 1.10111 1.29034 1.13341 1.1957 1.18618 1.1471 1.14182 1.15218 1.16824 1.15561 1.19178 1.15195 1.1134 1.21748 1.19177 1.1781 1.19178 1.16392 1.18613 1.18612 1.18381 1.17621 1.18391 1.18911 1.18813 1.19209 1.18936 1.18525 1.18745 1.19824 1.1842 1.19192 1.19308 1.18971 1.19696 1.19564 1.19294 1.19598 1.19079 1.19538 1.1905 1.18864 1.18927 1.18985 1.18249 1.18178 1.19428 1.19283 1.20015 1.19101 1.19002 1.18841 1.18807 1.18868 1.19459 1.19699 1.18388 1.18339 1.19448 1.18724 1.18375 1.18021 1.18368 1.18368 1.18196 1.18456 1.18207 1.1857 1.1842 1.17413 1.17738 1.15663 1.12923 1.14881 1.12988 1.12503 1.07457 1.09133 1.04979 1.11361 1.1123 1.11122 1.11281 1.11768 1.12387 1.09696 1.06905 1.13549 1.08459 1.08249 1.19537 1.11045 1.12391 1.16125 1.13271 1.1154 1.16484 1.09854 1.12182 1.19045 1.16338 1.18714 1.1661 1.14087 1.16867 1.16274 1.1526 1.15858 1.11838 1.18213 1.17481 1.20014 1.18112 1.18096 1.17636 1.19641 1.18749 1.1841 1.18374 1.18906 1.18978 1.19016 1.1912 1.18534 1.17709 1.18786 1.18726 1.19582 1.194 1.19088 1.19487 1.18792 1.18744 1.19096 1.19219 1.19934 1.1929 1.19339 1.1947 1.19584 1.19072 1.19172 1.19357 1.19608 1.18898 1.18861 1.18958 1.18176 1.19509 1.18912 1.19601 1.1853 1.18626 1.19177 1.18853 1.18863 1.18767 1.19579 1.19707 1.1937 1.19178 1.18748 1.18539 1.18042 1.18213 1.18227 1.18578 1.18904 1.18039 1.18271 1.19178 1.17164 1.1853 1.17276 1.16215 1.18301 1.17326 1.19136 1.14695 1.13883 1.12907 1.13789 1.12501 1.09665 1.11533 1.14426 1.15275 1.13289 1.13565 1.12109 1.12304 1.12211 1.09959 1.13974 1.09059 1.1343 1.16132 1.126 1.17503 1.19905 1.17989 1.18859 1.19196 1.18763 1.19013 1.17763 1.19178 1.18528 1.18971 1.16845 1.15733 1.17088 1.19902 1.18846 1.17518 1.19155 1.17867 1.18957 1.18656 1.19445 1.19184 1.19614 1.18717 1.19184 1.18854 1.1923 1.19911 1.18508 1.19177 1.18792 1.18785 1.19475 1.19445 1.19343 1.19314 1.1885 1.19094 1.19235 1.19303 1.19166 1.19288 1.19153 1.19136 1.19361 1.18623 1.18851 1.19034 1.19547 1.19 1.19722 1.18749 1.19178 1.19579 1.18956 1.1937 1.18864 1.19359 1.18843 1.1911 1.196 1.19722 1.19656 1.1964 1.19342 1.19397 1.19316 1.2093 1.18577 1.19178 1.18047 1.18167 1.18291 1.18355 1.18815 1.19177 1.18048 1.17594 1.17116 1.17169 1.17491 1.18611 1.17495 1.15596 1.14005 1.14382 1.14482 1.12975 1.13523 1.11052 1.11994 1.15684 1.15912 1.13996 1.14377 1.1283 1.13795 1.13305 1.11386 1.14808 1.10565 1.12336 1.15064 1.10898 1.14414 1.1657 1.20767 1.20213 1.13827 1.16998 1.19159 1.19215 1.19241 1.1915 1.19262 1.18308 1.18928 1.16698 1.17217 1.19178 1.16684 1.19178 1.19631 1.1876 1.18297 1.18584 1.18993 1.19528 1.19418 1.19643 1.19097 1.19479 1.19057 1.1892 1.19431 1.1887 1.20944 1.19398 1.19098 1.19356 1.18939 1.18991 1.19209 1.18832 1.19133 1.18637 1.1909 1.19033 1.19164 1.19322 1.18963 1.1871 1.19097 1.19124 1.19178 1.18442 1.18708 1.18884 1.19007 1.19 1.19481 1.18973 1.18655 1.19187 1.18843 1.19202 1.19099 1.18608 1.18866 1.19184 1.19234 1.19611 1.19544 1.19687 1.19372 1.18809 1.19294 1.18944 1.19249 1.19235 1.18039 1.1872 1.1809 1.18272 1.18315 1.18731 1.18991 1.18298 1.1877 1.19152 1.17966 1.17684 1.16978 1.17113 1.17742 1.18253 1.16111 1.16004 1.15985 1.15585 1.14362 1.15189 1.1412 1.12723 1.11579 1.13817 1.14401 1.16897 1.1445 1.08565 1.18447 1.14683 1.17 1.16938 1.15637 1.13233 1.13258 1.12851 1.13355 1.14161 1.14095 1.15146 1.1638 1.18091 1.1933 1.19883 1.14974 1.1795 1.19192 1.19076 1.19369 1.19117 1.19541 1.18723 1.19178 1.1756 1.1739 1.19158 1.19392 1.1849 1.18517 1.18545 1.18477 1.19523 1.19525 1.19022 1.19111 1.19048 1.19415 1.19032 1.18923 1.19312 1.20118 1.19178 1.18946 1.19129 1.19306 1.19442 1.19115 1.1868 1.19072 1.1863 1.1863 1.19053 1.1907 1.18961 1.19119 1.19041 1.19105 1.18449 1.18866 1.18776 1.19158 1.19539 1.18609 1.18783 1.18695 1.19101 1.18858 1.19297 1.18828 1.19568 1.194 1.19059 1.18788 1.18915 1.18889 1.18967 1.18238 1.1919 1.19166 1.18423 1.18669 1.1865 1.17867 1.17958 1.17526 1.17735 1.18889 1.16288 1.16249 1.14815 1.15571 1.1525 1.15029 1.13745 1.16049 1.16349 1.1796 1.16974 1.15079 1.16928 1.16319 1.14886 1.19178 1.13848 1.15109 1.15491 1.16721 1.18502 1.19282 1.1923 1.15488 1.16274 1.18423 1.19456 1.19492 1.19435 1.18547 1.19154 1.19728 1.1883 1.1842 1.19178 1.17292 1.19178 1.18231 1.18981 1.18 1.1926 1.18949 1.18743 1.18997 1.1943 1.19192 1.19308 1.18524 1.19097 1.18914 1.19268 1.20105 1.19559 1.19329 1.1912 1.19236 1.19035 1.19105 1.18664 1.19063 1.18697 1.18666 1.19103 1.19148 1.18987 1.19126 1.19026 1.18988 1.19099 1.19124 1.18684 1.18847 1.18762 1.19119 1.19339 1.19522 1.18616 1.18418 1.18908 1.19216 1.18934 1.18525 1.19237 1.18836 1.19684 1.19258 1.19199 1.19393 1.19061 1.1903 1.18896 1.18466 1.18582 1.18025 1.18786 1.19345 1.18461 1.18065 1.1869 1.19394 1.19097 1.18829 1.18415 1.17507 1.18393 1.1813 1.18906 1.16661 1.17222 1.16142 1.15387 1.19178 1.1662 1.16932 1.14526 1.1678 1.18068 1.15289 1.16855 1.17496 1.15532 1.14821 1.15702 1.15532 1.15717 1.18519 1.18661 1.19483 1.16681 1.18289 1.19458 1.19721 1.18992 1.19181 1.19102 1.18988 1.19232 1.1865 1.18944 1.18593 1.1899 1.19213 1.1943 1.18921 1.19367 1.19264 1.1936 1.19543 1.19319 1.18852 1.18956 1.18903 1.19235 1.20291 1.19141 1.19537 1.19124 1.19137 1.19393 1.19048 1.18635 1.18678 1.19178 1.18678 1.18758 1.18576 1.19178 1.19003 1.18938 1.18661 1.19022 1.19077 1.19135 1.19188 1.18667 1.19179 1.19583 1.18979 1.1918 1.19412 1.18625 1.18374 1.19178 1.18916 1.19158 1.1875 1.18568 1.1914 1.18742 1.19066 1.19368 1.19408 1.19044 1.18441 1.19523 1.19236 1.18566 1.1931 1.18815 1.18076 1.19333 1.19256 1.18875 1.18504 1.17658 1.17891 1.18436 1.1803 1.1844 1.18719 1.17368 1.16463 1.18832 1.16913 1.17895 1.17216 1.17781 1.17113 1.17826 1.16388 1.15543 1.15977 1.15907 1.19155 1.18446 1.18924 1.18905 1.18674 1.19173 1.16985 1.17243 1.19337 1.18751 1.18905 1.19195 1.19018 1.19175 1.19082 1.18998 1.18835 1.1894 1.18611 1.18719 1.18639 1.19458 1.19632 1.18949 1.19218 1.19422 1.19229 1.18754 1.19337 1.1874 1.19009 1.18967 1.19148 1.18855 1.18915 1.19307 1.19326 1.19049 1.19343 1.18243 1.18676 1.19308 1.18583 1.18953 1.18922 1.189 1.19194 1.18988 1.18946 1.19338 1.18721 1.18951 1.19028 1.18868 1.19322 1.19058 1.19124 1.18936 1.19178 1.1942 1.18667 1.19403 1.18973 1.1928 1.18836 1.18426 1.1872 1.18627 1.18728 1.19086 1.19312 1.18254 1.19065 1.19259 1.19284 1.18516 1.19292 1.18845 1.18713 1.18919 1.19178 1.1894 1.18833 1.17954 1.18319 1.18697 1.18373 1.19178 1.17904 1.19743 1.17914 1.17549 1.17398 1.1995 1.1906 1.19233 1.18028 1.18375 1.16391 1.17773 1.17481 1.16292 1.1621 1.19161 1.18928 1.1898 1.18784 1.19125 1.19207 1.17224 1.19449 1.18579 1.18996 1.19087 1.19139 1.19098 1.19015 1.18869 1.18823 1.18611 1.18773 1.1907 1.1955 1.18953 1.19303 1.19095 1.19344 1.19257 1.19158 1.18938 1.19232 1.19136 1.19137 1.18924 1.195 1.1924 1.19263 1.18985 1.19401 1.18633 1.17942 1.1962 1.18617 1.19615 1.18586 1.1856 1.18921 1.18873 1.19175 1.1898 1.18892 1.19325 1.19026 1.19028 1.19106 1.18929 1.19112 1.19119 1.19332 1.19124 1.19275 1.19366 1.18746 1.1858 1.18439 1.18713 1.18983 1.19391 1.19265 1.19515 1.19195 1.18929 1.19081 1.18428 1.19285 1.19211 1.1875 1.1893 1.18865 1.18894 1.18424 1.18083 1.18518 1.18449 1.18793 1.18828 1.1712 1.18004 1.17494 1.19781 1.18892 1.17708 1.17884 1.19936 1.2015 1.19385 1.18291 1.16517 1.1776 1.17395 1.16307 1.16367 1.19156 1.18969 1.19061 1.18907 1.18967 1.18962 1.19838 1.1922 1.18596 1.18599 1.1914 1.19093 1.19246 1.18443 1.19004 1.1895 1.18864 1.19178 1.18796 1.19118 1.18932 1.19006 1.19415 1.18942 1.19237 1.19104 1.19178 1.19271 1.19162 1.19481 1.1899 1.19226 1.18963 1.19178 1.18837 1.1909 1.18618 1.19163 1.19517 1.18588 1.18587 1.18904 1.18878 1.19254 1.19095 1.1893 1.18783 1.19128 1.19036 1.18863 1.19178 1.19073 1.19178 1.19026 1.18979 1.19228 1.19276 1.19383 1.18643 1.19168 1.1871 1.19502 1.19199 1.19089 1.18882 1.18994 1.19149 1.18443 1.19117 1.1908 1.18779 1.18777 1.18718 1.1879 1.19014 1.18243 1.18396 1.18295 1.18795 1.1855 1.19338 1.18875 1.18316 1.17444 1.17835 1.18721 1.16644 1.18669 1.19022 1.18035 1.18048 1.20064 1.20207 1.19431 1.18312 1.18423 1.17245 1.16556 1.16529 1.19144 1.19009 1.18853 1.1904 1.192 1.19835 1.1945 1.19178 1.18832 1.19371 1.19178 1.19101 1.18839 1.1914 1.19059 1.18995 1.18956 1.1904 1.19114 1.18915 1.19072 1.19265 1.19729 1.19203 1.19231 1.19213 1.19112 1.19246 1.19241 1.19154 1.18836 1.19521 1.1922 1.18948 1.18822 1.18931 1.18734 1.19381 1.19909 1.19453 1.1897 1.18858 1.18782 1.18716 1.1907 1.18899 1.18651 1.18989 1.18831 1.18819 1.19284 1.18854 1.19098 1.18975 1.19058 1.19087 1.19242 1.18769 1.18756 1.18791 1.18565 1.19159 1.18734 1.18941 1.19066 1.1914 1.18929 1.19127 1.19157 1.1907 1.19066 1.19045 1.1867 1.18767 1.17994 1.18427 1.18948 1.18854 1.19533 1.18796 1.17272 1.1822 1.1888 1.1772 1.18512 1.17952 1.19941 1.1977 1.18932 1.18711 1.18374 1.18122 1.18639 1.17299 1.16916 1.16644 1.19126 1.19151 1.18853 1.19011 1.1921 1.19838 1.19473 1.18793 1.18985 1.19449 1.19342 1.18883 1.19256 1.19112 1.18962 1.19966 1.19187 1.19075 1.19316 1.19137 1.18962 1.19441 1.19208 1.19217 1.18928 1.1922 1.18805 1.19105 1.1894 1.192 1.19286 1.18854 1.18832 1.19353 1.19496 1.19435 1.19253 1.19465 1.19043 1.1856 1.18532 1.18613 1.19201 1.19236 1.18574 1.18743 1.19017 1.18916 1.19156 1.19327 1.18849 1.19075 1.18653 1.1888 1.18905 1.18951 1.19018 1.18779 1.18797 1.18486 1.18919 1.1886 1.18481 1.18826 1.18888 1.18969 1.18957 1.18815 1.19032 1.18795 1.19008 1.19025 1.1919 1.19141 1.18978 1.18893 1.18986 1.18643 1.18713 1.19007 1.18299 1.18513 1.18554 1.18513 1.19018 1.19056 1.1841 1.18811 1.1742 1.18899 1.18587 1.18567 1.18508 1.19784 1.18803 1.18988 1.18787 1.19065 1.18313 1.16895 1.17387 1.18416 1.19144 1.19136 1.19178 1.19034 1.18933 1.18894 1.19391 1.19516 1.19565 1.18943 1.19418 1.19463 1.19259 1.19566 1.19906 1.18773 1.18953 1.19024 1.19279 1.19051 1.18942 1.19277 1.1927 1.19244 1.18923 1.19171 1.19154 1.18738 1.19044 1.19192 1.19106 1.1893 1.18843 1.18953 1.18983 1.19364 1.19178 1.1918 1.19243 1.19293 1.19059 1.18864 1.18459 1.19635 1.19827 1.1872 1.18724 1.18931 1.18703 1.18907 1.19391 1.18845 1.19067 1.18642 1.18831 1.18961 1.19008 1.19018 1.18852 1.18905 1.18865 1.18506 1.18475 1.18471 1.18858 1.19068 1.19192 1.18885 1.18816 1.19027 1.18983 1.19012 1.19014 1.19044 1.18624 1.18923 1.19209 1.18501 1.19178 1.18414 1.19205 1.19102 1.18693 1.18792 1.18437 1.18471 1.18811 1.189 1.19013 1.19053 1.1843 1.18746 1.17541 1.18931 1.18524 1.18523 1.18897 1.19002 1.18727 1.18178 1.1924 1.19015 1.18247 1.18609 1.17243 1.16717 1.16754 1.19144 1.19125 1.1918 1.19025 1.18905 1.18839 1.19405 1.19364 1.19447 1.18849 1.19485 1.19474 1.1953 1.19344 1.19728 1.19923 1.18927 1.19018 1.19062 1.19264 1.18996 1.1924 1.19149 1.19304 1.19087 1.19353 1.18637 1.19198 1.18771 1.18842 1.18918 1.18769 1.19342 1.19032 1.19116 1.1896 1.18925 1.18843 1.18797 1.18832 1.19358 1.1901 1.19168 1.19179 1.19182 1.18992 1.18868 1.18424 1.17981 1.18959 1.18765 1.18997 1.18775 1.18991 1.19453 1.18882 1.19155 1.18781 1.19095 1.18738 1.1882 1.18665 1.18788 1.18848 1.18875 1.18529 1.18457 1.18798 1.19087 1.18756 1.1894 1.19036 1.18993 1.18847 1.19002 1.18938 1.18741 1.18841 1.19078 1.20546 1.19013 1.18661 1.18882 1.18731 1.19092 1.19431 1.18882 1.18948 1.18406 1.18075 1.17558 1.18953 1.18867 1.18572 1.18988 1.19058 1.18784 1.18255 1.18839 1.19439 1.18701 1.1871 1.17364 1.17714 1.19133 1.19178 1.1918 1.18952 1.18858 1.19374 1.19193 1.18808 1.19102 1.19102 1.19581 1.19487 1.19124 1.18444 1.1899 1.18988 1.19082 1.19091 1.19232 1.18905 1.19192 1.19199 1.18576 1.19128 1.18778 1.1871 1.18836 1.19215 1.19071 1.19035 1.18818 1.18878 1.18778 1.19057 1.18834 1.19367 1.19034 1.18566 1.19147 1.18915 1.18837 1.18414 1.17977 1.19003 1.1869 1.18984 1.18843 1.19074 1.18918 1.18761 1.19161 1.1892 1.18742 1.18767 1.18829 1.18875 1.1872 1.18806 1.18855 1.18409 1.18475 1.18742 1.19115 1.18796 1.18429 1.1901 1.18924 1.18835 1.1887 1.1849 1.19037 1.18555 1.18877 1.19297 1.19459 1.19878 1.19003 1.19235 1.18978 1.1911 1.19023 1.18849 1.17771 1.18775 1.19726 1.18623 1.18936 1.19169 1.18584 1.18953 1.19155 1.18833 1.18239 1.18903 1.19085 1.19178 1.1746 1.17751 1.19104 1.18919 1.18885 1.19099 1.19291 1.18823 1.19103 1.19545 1.19106 1.1844 1.18962 1.19052 1.19112 1.1906 1.19183 1.18837 1.19028 1.18721 1.20158 1.18688 1.18893 1.19078 1.19199 1.19034 1.18852 1.18884 1.18808 1.18794 1.1881 1.19057 1.1931 1.18838 1.19188 1.1908 1.18868 1.18859 1.18507 1.17997 1.18971 1.18671 1.18926 1.19194 1.19031 1.1886 1.18727 1.19141 1.18902 1.18734 1.1877 1.18824 1.18885 1.18733 1.19178 1.18956 1.18568 1.18701 1.18857 1.18412 1.18944 1.18935 1.19008 1.19178 1.18916 1.18763 1.18904 1.18815 1.18855 1.18998 1.18888 1.19346 1.19339 1.1899 1.1852 1.19014 1.19176 1.19027 1.18892 1.1888 1.19178 1.19195 1.18678 1.18976 1.19173 1.18748 1.19029 1.19218 1.18924 1.18913 1.18768 1.18759 1.18138 1.18686 1.18949 1.17625 1.18282 1.17773 1.19096 1.18846 1.189 1.18962 1.19215 1.19109 1.19098 1.19036 1.19093 1.18839 1.18792 1.18879 1.18924 1.19523 1.19216 1.18533 1.19178 1.19034 1.19073 1.18632 1.19173 1.18784 1.19047 1.18761 1.19176 1.18384 1.18648 1.18791 1.18978 1.19159 1.19053 1.19044 1.18829 1.19208 1.18787 1.18768 1.18976 1.19187 1.18782 1.18957 1.18947 1.1833 1.19031 1.18738 1.18685 1.18955 1.18801 1.18858 1.19176 1.19039 1.18847 1.18768 1.19068 1.18877 1.18645 1.18706 1.18839 1.18661 1.18848 1.18963 1.1894 1.18559 1.18688 1.18818 1.18493 1.19025 1.19012 1.18849 1.19057 1.1875 1.18788 1.18884 1.18981 1.18866 1.19338 1.19276 1.18988 1.18506 1.19065 1.19028 1.18998 1.18846 1.19009 1.18994 1.18758 1.19307 1.19441 1.18696 1.19121 1.1919 1.18621 1.18939 1.192 1.19087 1.1927 1.19022 1.18618 1.18156 1.18799 1.17827 1.19105 1.18775 1.19139 1.19213 1.1919 1.19251 1.19339 1.18946 1.19131 1.18776 1.19618 1.19017 1.19098 1.19161 1.19414 1.18691 1.19016 1.18975 1.19135 1.19027 1.18994 1.18805 1.18786 1.19011 1.19004 1.19077 1.19058 1.18807 1.19089 1.19156 1.18854 1.19021 1.19205 1.18827 1.19132 1.18919 1.18583 1.18953 1.19109 1.18735 1.1888 1.18931 1.18677 1.19206 1.19528 1.19399 1.19019 1.18871 1.18926 1.19143 1.1896 1.18862 1.18929 1.19064 1.18864 1.18881 1.18655 1.18846 1.19181 1.18834 1.191 1.18976 1.18921 1.18769 1.18286 1.18686 1.19178 1.19014 1.19049 1.18793 1.18742 1.18761 1.18851 1.18948 1.19116 1.19321 1.18656 1.1849 1.1898 1.19321 1.19029 1.18894 1.18881 1.19001 1.19093 1.19197 1.19141 1.19025 1.19254 1.18899 1.19231 1.18879 1.19062 1.18862 1.19271 1.1891 1.18527 1.18323 1.18752 1.17848 1.19098 1.18717 1.18671 1.18858 1.18825 1.19128 1.19116 1.19137 1.19209 1.19043 1.18918 1.18939 1.19007 1.19074 1.19111 1.19274 1.18714 1.18714 1.18916 1.18953 1.18892 1.1896 1.18786 1.1878 1.18984 1.1905 1.18642 1.18626 1.18832 1.18703 1.19089 1.18914 1.19193 1.18919 1.19091 1.19117 1.19075 1.18698 1.1879 1.18983 1.18652 1.18927 1.19123 1.19212 1.18954 1.19052 1.18683 1.19063 1.1948 1.19171 1.19071 1.18844 1.18881 1.19272 1.18887 1.18805 1.19014 1.19319 1.19143 1.19181 1.18853 1.18969 1.19821 1.18817 1.19152 1.18967 1.19032 1.19032 1.18746 1.18885 1.19133 1.18958 1.18989 1.18704 1.18796 1.19023 1.18758 1.18875 1.19022 1.19086 1.1874 1.18536 1.19237 1.18948 1.19005 1.18886 1.18864 1.19028 1.18973 1.19051 1.19178 1.19126 1.19017 1.19246 1.18965 1.1904 1.18909 1.19052 1.18841 1.19259 1.18928 1.18491 1.18515 1.19196 1.18654 1.18733 1.18497 1.17854 1.18644 1.18911 1.19118 1.19084 1.18982 1.19285 1.19141 1.18969 1.18886 1.18963 1.18949 1.18892 1.18957 1.19011 1.19088 1.19101 1.19244 1.18754 1.18688 1.18978 1.18858 1.18962 1.18814 1.18816 1.19042 1.19063 1.18771 1.18808 1.18896 1.19104 1.18977 1.18949 1.1894 1.188 1.19035 1.19004 1.18958 1.18855 1.19198 1.19193 1.18938 1.19047 1.19052 1.18663 1.19358 1.19219 1.19143 1.18768 1.19183 1.19178 1.18951 1.18695 1.18883 1.19044 1.19309 1.18981 1.18938 1.18585 1.18625 1.18797 1.19024 1.19108 1.19032 1.18784 1.18882 1.18982 1.18947 1.18963 1.1869 1.19078 1.18822 1.18883 1.19072 1.19207 1.18994 1.19361 1.19069 1.19157 1.19178 1.18816 1.18956 1.19044 1.19178 1.19124 1.19316 1.19178 1.18944 1.19015 1.18995 1.18763 1.18887 1.19074 1.19104 1.19096 1.19343 1.18608 1.18439 1.19034 1.19083 1.19078 1.18813 1.18838 1.18771 1.18558 1.19282 1.18961 1.19036 1.18866 1.18861 1.18869 1.18974 1.19048 1.19037 1.19121 1.1909 1.18682 1.18862 1.19028 1.19136 1.18844 1.18843 1.18764 1.18894 1.19088 1.18765 1.18899 1.19046 1.18874 1.18875 1.1885 1.19321 1.18821 1.19064 1.18953 1.18867 1.18811 1.19051 1.18935 1.19105 1.18796 1.19101 1.19158 1.19178 1.19137 1.18833 1.19185 1.192 1.1899 1.19178 1.18871 1.19046 1.19226 1.18988 1.18936 1.18874 1.18733 1.18793 1.19034 1.19141 1.19048 1.1878 1.18726 1.18848 1.18715 1.18953 1.18914 1.18952 1.18729 1.1881 1.18734 1.18699 1.19015 1.18859 1.19187 1.18989 1.19182 1.19067 1.19131 1.19217 1.1887 1.18894 1.18927 1.19032 1.19194 1.1918 1.19104 1.19073 1.18969 1.19031 1.19002 1.18767 1.18893 1.19103 1.19134 1.19082 1.19183 1.18647 1.19192 1.19178 1.19074 1.19029 1.18708 1.18748 1.18782 1.19283 1.1874 1.19031 1.18893 1.1893 1.19024 1.19017 1.19054 1.19178 1.1874 1.18942 1.18899 1.18803 1.19017 1.19214 1.18955 1.18908 1.18767 1.1891 1.18926 1.18994 1.18801 1.18937 1.19044 1.18952 1.18855 1.18849 1.19317 1.18971 1.19093 1.18941 1.18857 1.1917 1.19045 1.18929 1.19178 1.18972 1.19135 1.19178 1.19178 1.19144 1.18928 1.19203 1.19178 1.1906 1.19224 1.18858 1.19036 1.1919 1.18956 1.18938 1.18884 1.19168 1.18822 1.19093 1.19192 1.19078 1.18792 1.18771 1.18861 1.18939 1.18872 1.18854 1.18944 1.18781 1.18655 1.18828 1.18907 1.18983 1.19067 1.19011 1.19099 1.19122 1.19225 1.18882 1.19018 1.18913 1.19024 1.19187 1.19038 1.19162 1.19123 1.19003 1.18998 1.18929 1.18858 1.19112 1.19101 1.19167 1.19182 1.18634 1.19169 1.19178 1.19194 1.19158 1.1885 1.18736 1.18789 1.19297 1.18726 1.18952 1.18945 1.19027 1.18881 1.18926 1.19017 1.19008 1.19052 1.19069 1.1884 1.18988 1.18815 1.18899 1.1904 1.18928 1.18949 1.18976 1.18965 1.18744 1.188 1.18736 1.1895 1.1904 1.19024 1.18838 1.18839 1.19178 1.18971 1.19081 1.18988 1.1892 1.19178 1.19014 1.18905 1.19178 1.18995 1.19149 1.19178 1.19179 1.19146 1.19011 1.19178 1.19131 1.19071 1.19178 1.19233 1.19207 1.19084 1.19076 1.18975 1.18953 1.19168 1.18908 1.19175 1.18937 1.19077 1.18876 1.18879 1.1872 1.19003 1.18926 1.18925 1.18948 1.18858 1.18778 1.18615 1.18802 1.18904 1.1902 1.19008 1.19131 1.19157 1.19212 1.19301 1.19032 1.18915 1.19016 1.19198 1.1903 1.19097 1.19144 1.19006 1.19044 1.18989 1.19178 1.19001 1.19102 1.19138 1.19182 1.19118 1.19162 1.19153 1.1915 1.19201 1.19124 1.18828 1.18723 1.18823 1.19178 1.18719 1.1895 1.18874 1.18937 1.19026 1.19016 1.19046 1.19081 1.18996 1.18999 1.1881 1.18867 1.19028 1.18928 1.18947 1.19039 1.19096 1.19003 1.18765 1.19036 1.18739 1.1874 1.18961 1.19048 1.1907 1.18859 1.19195 1.18852 1.18967 1.19069 1.19178 1.18931 1.19198 1.19031 1.19043 1.19091 1.18974 1.19149 1.19186 1.19193 1.19158 1.18998 1.19169 1.19133 1.19063 1.19162 1.19153 1.19168 1.19069 1.19108 1.18965 1.19055 1.18907 1.19166 1.19162 1.19082 1.1887 1.18712 1.19004 1.19091 1.18933 1.18897 1.18941 1.18852 1.18773 1.18851 1.18608 1.18868 1.19204 1.18927 1.19081 1.19178 1.19178 1.19053 1.1918 1.1914 1.19028 1.18978 1.19031 1.19133 1.19035 1.19106 1.19152 1.19049 1.19039 1.19072 1.18996 1.19186 1.19002 1.19123 1.19169 1.19196 1.19131 1.19164 1.19178 1.19151 1.18903 1.19143 1.18863 1.18945 
SCALARS Stress float 1
LOOKUP_TABLE default
-2.15653e+12 -448634000000.0 -347347000000.0 -222112000000.0 -234729000000.0 -20174400000.0 -457480000000.0 -96191700000.0 -1.17015e+12 -940671000000.0 -2.07338e+12 -305032000000.0 -1.4305e+12 -1.36963e+12 -2.21627e+12 -2.10489e+12 -2.1051e+12 -3.9557e+12 -842332000000.0 -1.88149e+12 -1.33447e+12 -901971000000.0 -420995000000.0 -223673000000.0 -124953000000.0 -127814000000.0 -115819000000.0 -65000700000.0 -32462800000.0 -12549700000.0 -30391500000.0 -17873400000.0 -16399700000.0 -20907500000.0 -18065600000.0 -38975100000.0 -12932000000.0 -12549700000.0 -13309500000.0 -13796300000.0 -12640000000.0 -14316700000.0 -12568300000.0 -12590100000.0 -12947200000.0 -14821600000.0 -14664200000.0 -14665300000.0 -15808700000.0 -14975500000.0 -15784900000.0 -16472500000.0 -18588000000.0 -21285300000.0 -13257300000.0 -13403800000.0 -14189000000.0 -16106600000.0 -19423300000.0 -24219000000.0 -31004500000.0 -27546900000.0 -36744600000.0 -47671200000.0 -40288000000.0 -55493400000.0 -76640600000.0 -161632000000.0 -146416000000.0 -253160000000.0 -268070000000.0 -137861000000.0 -845730000000.0 -1.2672e+12 -474439000000.0 -114390000000.0 -564316000000.0 -498135000000.0 -2.43474e+12 -1.77968e+12 -2.00088e+12 -2.38487e+12 -2.96253e+12 -3.24972e+12 -2.26651e+12 -2.4828e+12 -3.01701e+12 -3.19558e+12 -4.48092e+12 -2.33625e+12 -1.28827e+12 -3.47718e+12 -2.22851e+12 -1.84531e+12 -144509000000.0 -1.43754e+12 -306299000000.0 -521614000000.0 -892242000000.0 -321358000000.0 -252010000000.0 -144604000000.0 -71503000000.0 -39867300000.0 -19731000000.0 -73053400000.0 -256712000000.0 -29628900000.0 -22506300000.0 -43168300000.0 -42104900000.0 -83939200000.0 -20693800000.0 -15576600000.0 -16641800000.0 -19937200000.0 -17483600000.0 -16326900000.0 -13685500000.0 -15045600000.0 -17124900000.0 -13178300000.0 -14238100000.0 -15228600000.0 -15707900000.0 -14172700000.0 -13683400000.0 -13659300000.0 -15703800000.0 -13446600000.0 -27288800000.0 -33566600000.0 -12665500000.0 -12549700000.0 -12672900000.0 -13588200000.0 -19234800000.0 -28527100000.0 -18532800000.0 -29054900000.0 -45693100000.0 -12549700000.0 -12549700000.0 -78940700000.0 -229160000000.0 -185825000000.0 -158858000000.0 -308017000000.0 -252260000000.0 -582389000000.0 -125604000000.0 -811930000000.0 -2.789e+12 -17516100000.0 -2.97701e+12 -2.29308e+12 -1.90333e+12 -2.80476e+12 -2.15556e+12 -4.05138e+12 -2.71475e+12 -3.44401e+12 -2.56231e+12 -2.54333e+12 -4.28974e+12 -2.16647e+12 -1.69767e+12 -1.41901e+12 -5.58165e+12 -4.76407e+12 -4.85299e+12 -1.56158e+12 -4.81855e+12 -1.88514e+12 -3.33623e+12 -2.95358e+12 -2.16665e+12 -1.21794e+12 -951034000000.0 -1.00223e+12 -786137000000.0 -309859000000.0 -132266000000.0 -110478000000.0 -387824000000.0 -99239700000.0 -202453000000.0 -134430000000.0 -69774900000.0 -21761700000.0 -162626000000.0 -27533600000.0 -16291800000.0 -30837500000.0 -19600300000.0 -16214400000.0 -23926600000.0 -12549700000.0 -16369100000.0 -18463400000.0 -13683900000.0 -12772100000.0 -13583700000.0 -21167800000.0 -16069000000.0 -13143600000.0 -13724400000.0 -15091900000.0 -19454300000.0 -20249000000.0 -53147900000.0 -49902400000.0 -57802000000.0 -80670600000.0 -144728000000.0 -149065000000.0 -170456000000.0 -122375000000.0 -106571000000.0 -118935000000.0 -162801000000.0 -231846000000.0 -429225000000.0 -239287000000.0 -355740000000.0 -279185000000.0 -1.10178e+12 -1.33988e+12 -1.47206e+12 -2.16723e+12 -1.60276e+12 -2.58805e+12 -3.58915e+12 -4.43218e+12 -2.44061e+12 -3.89852e+12 -2.7955e+12 -4.97201e+12 -2.17743e+12 -3.51949e+12 -1.89965e+12 -2.83194e+12 -3.91492e+12 -4.24061e+12 -3.3361e+12 -3.41365e+12 -1.84618e+12 -3.37358e+12 -4.96744e+12 -3.72407e+12 -4.12091e+12 -3.04529e+12 -1.13559e+12 -3.75667e+12 -3.45349e+12 -4.50093e+12 -2.80321e+12 -1.21246e+12 -1.95204e+12 -1.34274e+12 -548212000000.0 -429360000000.0 -293661000000.0 -287342000000.0 -551937000000.0 -528761000000.0 -474767000000.0 -69053500000.0 -155801000000.0 -110104000000.0 -161203000000.0 -228406000000.0 -256444000000.0 -167145000000.0 -115327000000.0 -107517000000.0 -88048500000.0 -80220800000.0 -43899700000.0 -32322400000.0 -25147300000.0 -30994900000.0 -16004000000.0 -13208900000.0 -27961300000.0 -19085300000.0 -24911700000.0 -12564500000.0 -17726200000.0 -28087200000.0 -27813200000.0 -34321700000.0 -56594600000.0 -13899700000.0 -27996800000.0 -23403900000.0 -79783000000.0 -12549700000.0 -12549700000.0 -12725500000.0 -121726000000.0 -135555000000.0 -167519000000.0 -181701000000.0 -314067000000.0 -649905000000.0 -931308000000.0 -464539000000.0 -673300000000.0 -1.78355e+12 -2.74843e+12 -1.26955e+12 -2.19315e+12 -3.34796e+12 -1.02647e+12 -3.33389e+12 -3.62029e+12 -2.53206e+12 -3.02499e+12 -2.54193e+12 -3.79313e+12 -6.05369e+12 -3.39866e+12 -4.31858e+12 -4.23794e+12 -3.72898e+12 -6.09123e+12 -7.31273e+12 -4.3092e+12 -3.49049e+12 -5.29709e+12 -4.48652e+12 -2.38165e+12 -2.09915e+12 -4.5677e+12 -2.35734e+12 -3.87385e+12 -3.01827e+12 -2.28145e+12 -1.77261e+12 -2.27456e+12 -1.50899e+12 -1.61081e+12 -1.17675e+12 -2.00921e+12 -2.27807e+12 -571552000000.0 -857305000000.0 -767678000000.0 -514164000000.0 -482131000000.0 -455056000000.0 -177819000000.0 -74756700000.0 -348086000000.0 -187693000000.0 -36465900000.0 -69377200000.0 -33333700000.0 -24995300000.0 -25033600000.0 -58202000000.0 -18575400000.0 -27889100000.0 -43942600000.0 -59519200000.0 -40616100000.0 -19695300000.0 -31065900000.0 -15893500000.0 -24294600000.0 -43708200000.0 -22375800000.0 -44340600000.0 -49535600000.0 -28421100000.0 -38500000000.0 -35613300000.0 -109292000000.0 -12549700000.0 -19696500000.0 -42222100000.0 -147628000000.0 -125324000000.0 -154882000000.0 -223954000000.0 -197562000000.0 -285390000000.0 -282121000000.0 -145250000000.0 -187709000000.0 -1.23294e+12 -541247000000.0 -1.05029e+12 -658765000000.0 -665618000000.0 -2.23641e+12 -2.04993e+12 -2.52053e+12 -3.24132e+12 -2.61461e+12 -3.9562e+12 -1.92731e+12 -3.3947e+12 -1.77292e+12 -5.52987e+12 -3.62207e+12 -5.71542e+12 -5.13897e+12 -4.01004e+12 -5.83003e+12 -4.38176e+12 -4.94852e+12 -3.53819e+12 -3.9512e+12 -1.38811e+12 -1.90975e+12 -3.8221e+12 -4.47822e+12 -4.68599e+12 -2.32508e+12 -8.67391e+12 -5.94776e+12 -6.9408e+12 -3.40015e+12 -4.47744e+12 -2.97995e+12 -3.52955e+12 -1.68951e+12 -3.03456e+12 -4.2853e+12 -3.77559e+12 -2.29535e+12 -2.01856e+12 -1.73952e+12 -1.24298e+12 -1.58087e+12 -1.3509e+12 -1.06242e+12 -1.67477e+12 -2.57327e+12 -390910000000.0 -987712000000.0 -1.01135e+12 -1.25412e+12 -535500000000.0 -418066000000.0 -149353000000.0 -159505000000.0 -342666000000.0 -159891000000.0 -280322000000.0 -108826000000.0 -28633200000.0 -75369400000.0 -71131600000.0 -55364700000.0 -14747600000.0 -21122900000.0 -13787100000.0 -66105200000.0 -50707900000.0 -21861800000.0 -22217700000.0 -43122500000.0 -40946800000.0 -47976100000.0 -14124400000.0 -65678100000.0 -33799100000.0 -49422300000.0 -36406800000.0 -53494900000.0 -86321500000.0 -96614300000.0 -56045000000.0 -81224300000.0 -120931000000.0 -173429000000.0 -227371000000.0 -266244000000.0 -117166000000.0 -309710000000.0 -236350000000.0 -166012000000.0 -193858000000.0 -192563000000.0 -885449000000.0 -256064000000.0 -1.1074e+12 -2.0771e+12 -2.10753e+12 -978170000000.0 -1.54206e+12 -1.12169e+12 -2.92552e+12 -3.34905e+12 -4.57433e+12 -917731000000.0 -3.53297e+12 -3.93115e+12 -3.7234e+12 -4.20219e+12 -4.79164e+12 -5.85864e+12 -7.82161e+12 -6.91723e+12 -5.20345e+12 -5.10873e+12 -2.88685e+12 -3.3706e+12 -4.81109e+12 -4.97173e+12 -2.68022e+12 -3.95282e+12 -5.76526e+12 -3.65817e+12 -6.49388e+12 -4.59848e+12 -3.37187e+12 -6.1184e+12 -2.56485e+12 -2.09701e+12 -1.83235e+12 -2.14819e+12 -1.49342e+12 -3.03645e+12 -2.70952e+12 -2.74375e+12 -1.45941e+12 -1.53407e+12 -1.07869e+12 -1.84672e+12 -2.02226e+12 -916992000000.0 -1.27794e+12 -659450000000.0 -899491000000.0 -834313000000.0 -508274000000.0 -732842000000.0 -484250000000.0 -370977000000.0 -190086000000.0 -252679000000.0 -157048000000.0 -130645000000.0 -96744900000.0 -71522100000.0 -65763800000.0 -45841400000.0 -45203400000.0 -59325100000.0 -49508200000.0 -32152000000.0 -32040900000.0 -30347100000.0 -14714400000.0 -25217400000.0 -25519100000.0 -47662400000.0 -40148800000.0 -57709200000.0 -57341200000.0 -48595200000.0 -30373000000.0 -33699500000.0 -45459700000.0 -120091000000.0 -89069400000.0 -15588300000.0 -35110300000.0 -153851000000.0 -381536000000.0 -406201000000.0 -595396000000.0 -675336000000.0 -735498000000.0 -285184000000.0 -1.17441e+12 -1.22083e+12 -570743000000.0 -2.01346e+12 -2.33368e+12 -2.41841e+12 -1.0893e+12 -651443000000.0 -3.12495e+12 -3.75472e+12 -1.97485e+12 -741726000000.0 -2.65074e+12 -3.42399e+12 -3.24924e+12 -4.64032e+12 -4.25184e+12 -5.67138e+12 -5.83245e+12 -2.06074e+12 -3.87829e+12 -5.66315e+12 -6.05891e+12 -3.12123e+12 -4.93367e+12 -3.01254e+12 -2.76168e+12 -5.36813e+12 -3.95738e+12 -4.56411e+12 -5.01125e+12 -4.13455e+12 -2.02271e+12 -4.36721e+12 -5.50258e+12 -2.46676e+12 -6.08759e+12 -4.23313e+12 -2.03756e+12 -4.64912e+12 -893310000000.0 -5.02526e+12 -2.65972e+12 -3.13243e+12 -1.80251e+12 -2.28387e+12 -1.89822e+12 -2.67048e+12 -2.80547e+12 -1.82703e+12 -915854000000.0 -1.67747e+12 -667784000000.0 -598025000000.0 -574274000000.0 -731774000000.0 -545735000000.0 -128009000000.0 -285775000000.0 -127240000000.0 -160014000000.0 -90808100000.0 -133201000000.0 -73508000000.0 -65850300000.0 -41464900000.0 -52096900000.0 -35853700000.0 -40284000000.0 -24607100000.0 -23485300000.0 -19744200000.0 -17734900000.0 -12549600000.0 -20338700000.0 -22390000000.0 -22905300000.0 -45271300000.0 -54858600000.0 -44769800000.0 -58769100000.0 -74937400000.0 -21869400000.0 -18793700000.0 -16968300000.0 -36321600000.0 -61585100000.0 -20009700000.0 -71268300000.0 -73849000000.0 -283535000000.0 -313470000000.0 -163146000000.0 -203503000000.0 -143654000000.0 -399342000000.0 -406904000000.0 -1.19438e+12 -531331000000.0 -849538000000.0 -1.16926e+12 -494124000000.0 -1.29002e+12 -1.6972e+12 -2.88607e+12 -1.9741e+12 -2.22571e+12 -2.36267e+12 -2.69825e+12 -2.17827e+12 -4.3027e+12 -5.13115e+12 -2.41922e+12 -3.2001e+12 -3.63703e+12 -4.29535e+12 -5.62621e+12 -4.5134e+12 -5.31927e+12 -2.26366e+12 -3.89319e+12 -3.06289e+12 -7.93631e+12 -6.25093e+12 -5.11913e+12 -8.92889e+12 -2.7908e+12 -3.76834e+12 -1.94769e+12 -2.28962e+12 -2.88198e+12 -6.03366e+12 -4.2937e+12 -5.53515e+12 -4.64825e+12 -4.29568e+12 -3.90375e+12 -3.14568e+12 -2.94155e+12 -2.84952e+12 -4.15787e+12 -3.2319e+12 -3.48127e+12 -4.53166e+12 -4.88922e+12 -3.15267e+12 -5.21543e+12 -3.18837e+12 -2.80436e+12 -3.14246e+12 -2.31675e+12 -624460000000.0 -977536000000.0 -1.30156e+12 -908446000000.0 -2.20357e+12 -807525000000.0 -1.68314e+12 -182841000000.0 -676884000000.0 -858109000000.0 -374677000000.0 -399170000000.0 -404118000000.0 -182669000000.0 -300673000000.0 -211457000000.0 -216698000000.0 -59058500000.0 -62768800000.0 -80390600000.0 -88959500000.0 -71527800000.0 -57555400000.0 -50394000000.0 -42537700000.0 -42415200000.0 -46146900000.0 -45287300000.0 -37866400000.0 -42718500000.0 -55696800000.0 -12605700000.0 -36350900000.0 -34617400000.0 -50628300000.0 -20139300000.0 -63941500000.0 -59112600000.0 -13327000000.0 -111184000000.0 -126993000000.0 -71242700000.0 -92948300000.0 -166824000000.0 -113913000000.0 -187773000000.0 -233636000000.0 -250258000000.0 -23125900000.0 -45924900000.0 -244266000000.0 -359016000000.0 -909049000000.0 -187960000000.0 -641686000000.0 -1.63386e+12 -1.37026e+12 -2.38587e+12 -1.2482e+12 -1.46997e+12 -1.41524e+12 -2.27632e+12 -3.03771e+12 -2.6334e+12 -3.04571e+12 -3.35919e+12 -3.3562e+12 -3.73111e+12 -7.4698e+12 -4.29013e+12 -2.47178e+12 -3.7098e+12 -4.01268e+12 -3.9612e+12 -2.62629e+12 -5.4348e+12 -5.52104e+12 -5.05177e+12 -5.18322e+12 -4.31571e+12 -4.71365e+12 -1.34956e+12 -4.92975e+12 -2.97381e+12 -7.3844e+12 -5.6096e+12 -5.69932e+12 -6.31116e+12 -4.53922e+12 -2.21431e+12 -3.26185e+12 -4.66913e+12 -3.61596e+12 -5.61519e+12 -3.05903e+12 -4.06637e+12 -2.61774e+12 -2.14726e+12 -2.14109e+12 -2.03877e+12 -1.4196e+12 -2.05105e+12 -1.77134e+12 -1.05239e+12 -729266000000.0 -848970000000.0 -1.1023e+12 -573654000000.0 -1.33382e+12 -1.204e+12 -393731000000.0 -197875000000.0 -372745000000.0 -278371000000.0 -382507000000.0 -110332000000.0 -273422000000.0 -278116000000.0 -16276200000.0 -194876000000.0 -19641400000.0 -47655300000.0 -25048400000.0 -20967400000.0 -36546900000.0 -15145300000.0 -39815100000.0 -12861900000.0 -13062600000.0 -14434100000.0 -25476000000.0 -23861700000.0 -31255300000.0 -45488500000.0 -13251000000.0 -36612000000.0 -27045100000.0 -13884300000.0 -15146900000.0 -45981800000.0 -36106600000.0 -28393800000.0 -110284000000.0 -47164100000.0 -33304500000.0 -92417700000.0 -43338600000.0 -108909000000.0 -64607800000.0 -161979000000.0 -138938000000.0 -201693000000.0 -453651000000.0 -456942000000.0 -477684000000.0 -88363200000.0 -745343000000.0 -1.07827e+12 -1.09909e+12 -1.12329e+12 -1.15496e+12 -1.1233e+12 -597073000000.0 -1.97538e+12 -1.7948e+12 -1.19965e+12 -1.76126e+12 -1.86795e+12 -4.14986e+12 -2.14354e+12 -2.52708e+12 -1.61596e+12 -2.53397e+12 -4.94682e+12 -4.36869e+12 -5.61752e+12 -4.78263e+12 -3.35389e+12 -5.00694e+12 -4.09167e+12 -1.67879e+12 -5.78594e+12 -3.73735e+12 -4.08748e+12 -3.84589e+12 -3.09308e+12 -4.70182e+12 -3.26055e+12 -3.58483e+12 -3.72444e+12 -2.8887e+12 -2.54108e+12 -3.91969e+12 -5.06554e+12 -5.42154e+12 -4.51722e+12 -3.37154e+12 -5.17365e+12 -6.60503e+12 -1.88487e+12 -4.90131e+12 -2.80986e+12 -2.09688e+12 -6.18461e+12 -1.90162e+12 -2.02882e+12 -2.07002e+12 -2.69207e+12 -1.79494e+12 -1.82695e+12 -2.63271e+12 -1.01193e+12 -2.44373e+12 -1.18286e+12 -3.07551e+12 -1.94707e+12 -210867000000.0 -2.05471e+12 -1.76442e+12 -1.86348e+12 -873950000000.0 -600002000000.0 -305921000000.0 -719629000000.0 -245864000000.0 -291955000000.0 -367010000000.0 -92394700000.0 -309332000000.0 -194554000000.0 -18753400000.0 -220204000000.0 -119434000000.0 -41265500000.0 -188511000000.0 -130354000000.0 -160057000000.0 -90543100000.0 -34182700000.0 -23379400000.0 -47503500000.0 -49565000000.0 -63115500000.0 -28034700000.0 -25075900000.0 -26597800000.0 -18365600000.0 -27813300000.0 -17700800000.0 -30153600000.0 -25079600000.0 -23898900000.0 -53066800000.0 -44292400000.0 -46057800000.0 -47762500000.0 -57506300000.0 -78595900000.0 -62703000000.0 -65500900000.0 -94739500000.0 -62637100000.0 -90267500000.0 -27791400000.0 -81874200000.0 -13385900000.0 -209113000000.0 -307441000000.0 -426806000000.0 -281168000000.0 -437864000000.0 -326758000000.0 -677695000000.0 -227544000000.0 -661911000000.0 -749575000000.0 -1.00803e+12 -809588000000.0 -335608000000.0 -682255000000.0 -1.48452e+12 -1.05892e+12 -2.11316e+12 -2.11505e+12 -1.41924e+12 -2.43307e+12 -2.06281e+12 -2.84228e+12 -4.25039e+12 -4.50554e+12 -1.77388e+12 -4.16771e+12 -4.12094e+12 -1.99366e+12 -3.86446e+12 -4.20858e+12 -4.64399e+12 -4.25305e+12 -4.76576e+12 -3.91728e+12 -6.1011e+12 -3.84278e+12 -2.11248e+12 -2.72238e+12 -6.27796e+12 -2.39258e+12 -2.98007e+12 -3.51655e+12 -2.1988e+12 -2.48045e+12 -5.59841e+12 -6.48495e+12 -6.5174e+12 -4.19785e+12 -1.87969e+12 -3.15994e+12 -3.32336e+12 -3.73974e+12 -5.43121e+12 -4.84785e+12 -4.36358e+12 -4.42675e+12 -3.30679e+12 -4.26044e+12 -3.86846e+12 -1.96782e+12 -1.88908e+12 -2.44165e+12 -1.81156e+12 -1.62626e+12 -2.09242e+12 -2.07374e+12 -2.77844e+12 -2.83036e+12 -1.76632e+12 -1.70524e+12 -686329000000.0 -1.03782e+12 -1.12603e+12 -527550000000.0 -457956000000.0 -276195000000.0 -431211000000.0 -43485700000.0 -139814000000.0 -247825000000.0 -218690000000.0 -41199600000.0 -90943700000.0 -75068200000.0 -126152000000.0 -105955000000.0 -56695200000.0 -88076300000.0 -28134600000.0 -19008500000.0 -50421500000.0 -12549700000.0 -13494600000.0 -36114000000.0 -28729000000.0 -21606400000.0 -44997300000.0 -12549700000.0 -12549700000.0 -29924400000.0 -75806900000.0 -63428200000.0 -21655400000.0 -51377800000.0 -76610200000.0 -108576000000.0 -99195900000.0 -235115000000.0 -131986000000.0 -175206000000.0 -22101000000.0 -64652500000.0 -112198000000.0 -192031000000.0 -493054000000.0 -688085000000.0 -789943000000.0 -679683000000.0 -899439000000.0 -1.18443e+12 -558458000000.0 -1.04683e+12 -1.46569e+12 -1.43399e+12 -2.51143e+12 -447673000000.0 -1.64506e+12 -1.1167e+12 -2.01329e+12 -2.17352e+12 -3.25811e+12 -2.71731e+12 -3.98488e+12 -3.30641e+12 -2.95797e+12 -1.52253e+12 -4.15429e+12 -2.06483e+12 -1.39393e+12 -3.0731e+12 -2.19209e+12 -2.62058e+12 -4.01576e+12 -3.9911e+12 -3.23125e+12 -3.34357e+12 -3.3968e+12 -5.37513e+12 -3.60606e+12 -2.29568e+12 -3.30281e+12 -4.18903e+12 -2.9366e+12 -4.22169e+12 -2.25223e+12 -1.29056e+12 -548672000000.0 -1.35919e+12 -5.83779e+12 -2.60421e+12 -4.72173e+12 -2.05362e+12 -2.84231e+12 -3.40866e+12 -2.49037e+12 -3.58887e+12 -5.29472e+12 -1.43661e+12 -3.25503e+12 -5.27906e+12 -3.17761e+12 -3.27412e+12 -3.67586e+12 -2.36372e+12 -2.10581e+12 -2.43534e+12 -2.05286e+12 -1.37042e+12 -956242000000.0 -1.48919e+12 -1.44556e+12 -1.35658e+12 -1.23564e+12 -1.52938e+12 -995820000000.0 -1.66786e+12 -610426000000.0 -1.10878e+12 -916826000000.0 -663813000000.0 -578150000000.0 -305933000000.0 -300077000000.0 -160640000000.0 -137271000000.0 -210266000000.0 -211153000000.0 -185520000000.0 -115353000000.0 -187817000000.0 -194192000000.0 -84501700000.0 -61561000000.0 -38443500000.0 -52741900000.0 -44964300000.0 -31550500000.0 -32298800000.0 -51991200000.0 -39156300000.0 -52910400000.0 -24270900000.0 -30910600000.0 -46906600000.0 -12549700000.0 -70767900000.0 -83653200000.0 -49232100000.0 -94008500000.0 -101310000000.0 -30269900000.0 -50522800000.0 -118223000000.0 -211795000000.0 -229239000000.0 -182051000000.0 -345594000000.0 -431678000000.0 -267034000000.0 -301316000000.0 -59505000000.0 -484247000000.0 -140389000000.0 -657803000000.0 -294804000000.0 -693548000000.0 -622272000000.0 -860888000000.0 -1.76876e+12 -1.09767e+12 -387556000000.0 -2.20985e+12 -1.10847e+12 -2.40076e+12 -1.58294e+12 -2.95534e+12 -3.98379e+12 -2.34971e+12 -3.03966e+12 -2.41587e+12 -1.65393e+12 -2.5482e+12 -3.97578e+12 -3.60184e+12 -3.78314e+12 -2.99868e+12 -3.53127e+12 -2.90246e+12 -2.66154e+12 -2.41048e+12 -3.90246e+12 -5.50198e+12 -2.82008e+12 -2.972e+12 -2.88869e+12 -3.25354e+12 -2.32197e+12 -1.40749e+12 -3.30993e+12 -3.39968e+12 -1.55174e+12 -1.63422e+12 -4.70029e+12 -3.13675e+12 -2.64468e+12 -2.31262e+12 -1.10536e+12 -3.83343e+12 -3.94036e+12 -2.37704e+12 -2.85998e+12 -2.21426e+12 -1.76039e+12 -2.35003e+12 -2.36693e+12 -2.17221e+12 -414823000000.0 -3.32994e+12 -887007000000.0 -617643000000.0 -1.98774e+12 -1.52983e+12 -1.37792e+12 -1.36668e+12 -589608000000.0 -349971000000.0 -1.20764e+12 -714421000000.0 -839897000000.0 -1.17496e+12 -381763000000.0 -280532000000.0 -709188000000.0 -334273000000.0 -384077000000.0 -314967000000.0 -194065000000.0 -90672800000.0 -78599100000.0 -78563400000.0 -105583000000.0 -40786300000.0 -15552800000.0 -21263400000.0 -48940600000.0 -55419800000.0 -30832100000.0 -17570900000.0 -55493300000.0 -12833800000.0 -20437900000.0 -16645000000.0 -12705600000.0 -45403100000.0 -14381200000.0 -43548000000.0 -22746100000.0 -14080000000.0 -49732900000.0 -60253700000.0 -22026500000.0 -22627200000.0 -45893100000.0 -47964000000.0 -133857000000.0 -76285900000.0 -54778400000.0 -90527800000.0 -46240100000.0 -17550000000.0 -33673900000.0 -26150300000.0 -20811300000.0 -86179500000.0 -50190300000.0 -185772000000.0 -144184000000.0 -321112000000.0 -48533300000.0 -757500000000.0 -433093000000.0 -817717000000.0 -474435000000.0 -907691000000.0 -957576000000.0 -179708000000.0 -967270000000.0 -1.05493e+12 -1.2431e+12 -829789000000.0 -1.13722e+12 -1.84695e+12 -2.94211e+12 -2.0024e+12 -1.59523e+12 -1.86543e+12 -903324000000.0 -927987000000.0 -3.0969e+12 -1.63025e+12 -1.97201e+12 -3.59614e+12 -4.34129e+12 -2.6479e+12 -3.00091e+12 -3.67292e+12 -2.97714e+12 -3.37972e+12 -1.97312e+12 -2.78863e+12 -983403000000.0 -1.01068e+12 -2.58821e+12 -4.51473e+12 -2.38668e+12 -3.25466e+12 -3.04478e+12 -1.61704e+12 -1.13041e+12 -2.46207e+12 -2.46413e+12 -1.27188e+12 -3.42485e+12 -2.72e+12 -2.60101e+12 -4.0011e+12 -2.10254e+12 -703054000000.0 -848376000000.0 -1.88234e+12 -1.30797e+12 -1.94095e+12 -1.11211e+12 -3.02941e+12 -1.43428e+12 -1.14936e+12 -2.11942e+12 -2.06414e+12 -1.54354e+12 -1.65627e+12 -1.26644e+12 -552461000000.0 -530967000000.0 -835826000000.0 -1.36486e+12 -1.00152e+12 -898769000000.0 -352160000000.0 -641675000000.0 -418322000000.0 -156061000000.0 -158232000000.0 -61296000000.0 -29104800000.0 -544270000000.0 -309607000000.0 -611809000000.0 -372636000000.0 -226581000000.0 -55940200000.0 -118681000000.0 -94583400000.0 -69235500000.0 -85222100000.0 -16245500000.0 -12861600000.0 -46300200000.0 -15065300000.0 -17744100000.0 -39718300000.0 -41040600000.0 -43421700000.0 -43484700000.0 -27343000000.0 -32637000000.0 -16695400000.0 -42975500000.0 -66301400000.0 -67457100000.0 -64015100000.0 -40877900000.0 -20357000000.0 -63597900000.0 -130101000000.0 -26897800000.0 -58959800000.0 -75394900000.0 -31631100000.0 -23932700000.0 -24133800000.0 -108649000000.0 -365941000000.0 -388290000000.0 -220826000000.0 -416905000000.0 -144231000000.0 -116005000000.0 -402923000000.0 -114975000000.0 -614173000000.0 -232547000000.0 -721740000000.0 -357293000000.0 -778908000000.0 -1.2018e+12 -977725000000.0 -1.3993e+12 -785912000000.0 -1.48584e+12 -1.50321e+12 -2.12788e+12 -2.57183e+12 -3.29173e+12 -2.1498e+12 -2.19985e+12 -2.05871e+12 -1.21811e+12 -3.74831e+12 -1.95052e+12 -3.48883e+12 -2.74849e+12 -3.20277e+12 -1.76623e+12 -2.85919e+12 -2.1802e+12 -3.68291e+12 -2.52186e+12 -3.04018e+12 -2.35851e+12 -2.26708e+12 -1.32989e+12 -2.56172e+12 -2.68089e+12 -1.40503e+12 -2.29434e+12 -1.96741e+12 -2.4203e+12 -2.32414e+12 -1.0459e+12 -1.93457e+12 -1.11029e+12 -1.73399e+12 -1.71468e+12 -2.41991e+12 -860851000000.0 -1.53288e+12 -1.36067e+12 -556848000000.0 -1.11446e+12 -921630000000.0 -1.0695e+12 -140534000000.0 -187067000000.0 -891984000000.0 -565408000000.0 -413708000000.0 -349580000000.0 -368358000000.0 -584466000000.0 -117381000000.0 -16567600000.0 -257197000000.0 -176460000000.0 -323767000000.0 -20408800000.0 -247063000000.0 -21203600000.0 -135019000000.0 -162296000000.0 -161579000000.0 -139037000000.0 -36927800000.0 -37607000000.0 -51273400000.0 -61387200000.0 -42459700000.0 -24650300000.0 -59172500000.0 -28638700000.0 -13442300000.0 -32806800000.0 -38738700000.0 -12549700000.0 -37559500000.0 -38721800000.0 -37623100000.0 -29798900000.0 -95018100000.0 -42845200000.0 -24385900000.0 -24945200000.0 -58684600000.0 -114697000000.0 -28412300000.0 -75763000000.0 -52226700000.0 -67362000000.0 -103959000000.0 -36934100000.0 -302355000000.0 -212412000000.0 -15180900000.0 -72527900000.0 -233236000000.0 -261178000000.0 -339450000000.0 -211997000000.0 -135538000000.0 -805493000000.0 -329433000000.0 -653358000000.0 -210824000000.0 -368272000000.0 -1.18426e+12 -600215000000.0 -724010000000.0 -1.63301e+12 -778638000000.0 -1.44724e+12 -2.29162e+12 -1.85913e+12 -1.83785e+12 -2.19322e+12 -2.47985e+12 -1.78445e+12 -1.56232e+12 -1.84215e+12 -1.68687e+12 -2.20306e+12 -2.32305e+12 -2.16269e+12 -1.98576e+12 -2.86917e+12 -3.91335e+12 -2.21334e+12 -2.6099e+12 -1.39879e+12 -2.27308e+12 -2.24808e+12 -1.38359e+12 -2.18332e+12 -1.50403e+12 -2.18176e+12 -3.07548e+12 -2.16512e+12 -2.97042e+12 -1.68874e+12 -4.4001e+12 -2.68055e+12 -1.80369e+12 -1.3615e+12 -1.83677e+12 -2.409e+12 -1.62815e+12 -887166000000.0 -1.35196e+12 -595971000000.0 -1.42542e+12 -969121000000.0 -407924000000.0 -288199000000.0 -545471000000.0 -283619000000.0 -714347000000.0 -817171000000.0 -709681000000.0 -598116000000.0 -576914000000.0 -153760000000.0 -110139000000.0 -19516200000.0 -170960000000.0 -45145100000.0 -119557000000.0 -12869300000.0 -94043800000.0 -35098400000.0 -42750400000.0 -80872300000.0 -19004000000.0 -51062300000.0 -15880300000.0 -50866100000.0 -78806600000.0 -42686100000.0 -33038100000.0 -15938000000.0 -31040400000.0 -38085100000.0 -29485800000.0 -55528100000.0 -55112700000.0 -58655000000.0 -32685500000.0 -67678600000.0 -183678000000.0 -46357500000.0 -86741400000.0 -96127500000.0 -44443300000.0 -306453000000.0 -24033500000.0 -167060000000.0 -92185000000.0 -205773000000.0 -360533000000.0 -211287000000.0 -240923000000.0 -541745000000.0 -573274000000.0 -432289000000.0 -361845000000.0 -444194000000.0 -1.13699e+12 -1.11393e+12 -18389900000.0 -454023000000.0 -190825000000.0 -347159000000.0 -1.51994e+12 -1.30892e+12 -514606000000.0 -836089000000.0 -1.4747e+12 -927798000000.0 -536273000000.0 -977784000000.0 -332229000000.0 -2.73712e+12 -725561000000.0 -498784000000.0 -2.14642e+12 -2.01323e+12 -2.90962e+12 -2.35057e+12 -1.805e+12 -2.38996e+12 -1.663e+12 -3.74906e+12 -1.82613e+12 -2.02248e+12 -1.27529e+12 -964473000000.0 -1.57742e+12 -1.05355e+12 -854541000000.0 -808060000000.0 -1.30106e+12 -1.22478e+12 -1.69396e+12 -1.20844e+12 -3.41858e+12 -1.2358e+12 -1.59277e+12 -1.02161e+12 -903041000000.0 -2.45528e+12 -1.90577e+12 -1.1816e+12 -1.01488e+12 -296598000000.0 -616833000000.0 -802994000000.0 -1.11471e+12 -468577000000.0 -856393000000.0 -612478000000.0 -264574000000.0 -73516600000.0 -240241000000.0 -498737000000.0 -12549700000.0 -93705600000.0 -35062100000.0 -334348000000.0 -234571000000.0 -225962000000.0 -47996000000.0 -237489000000.0 -22249300000.0 -121328000000.0 -55771200000.0 -55161500000.0 -14400300000.0 -46641200000.0 -45837400000.0 -58083800000.0 -48669100000.0 -60024600000.0 -12549700000.0 -41467600000.0 -52346100000.0 -57801700000.0 -12645800000.0 -12604800000.0 -23102000000.0 -26067000000.0 -12563300000.0 -49423900000.0 -41842800000.0 -24863600000.0 -133961000000.0 -12549700000.0 -73926900000.0 -107474000000.0 -71279300000.0 -82583500000.0 -108039000000.0 -232062000000.0 -88740400000.0 -157704000000.0 -86935300000.0 -33327100000.0 -18301300000.0 -38200200000.0 -447215000000.0 -54343900000.0 -295160000000.0 -379233000000.0 -596590000000.0 -548928000000.0 -70800600000.0 -12549700000.0 -277881000000.0 -262445000000.0 -16689500000.0 -314026000000.0 -116152000000.0 -1.03671e+12 -574351000000.0 -1.27173e+12 -1.22712e+12 -1.06959e+12 -1.27228e+12 -863110000000.0 -1.00913e+12 -2.0623e+12 -638895000000.0 -2.00992e+12 -2.18427e+12 -2.07378e+12 -3.06877e+12 -1.37024e+12 -2.32476e+12 -2.93652e+12 -3.34809e+12 -1.79912e+12 -1.14222e+12 -847278000000.0 -1.57232e+12 -1.5659e+12 -1.18705e+12 -1.4419e+12 -1.1897e+12 -798871000000.0 -1.07939e+12 -1.79804e+12 -229640000000.0 -534960000000.0 -1.54061e+12 -628502000000.0 -1.1693e+12 -970703000000.0 -1.03772e+12 -2.02057e+12 -302734000000.0 -656623000000.0 -349458000000.0 -188214000000.0 -684798000000.0 -866529000000.0 -939451000000.0 -425521000000.0 -187558000000.0 -90028400000.0 -208422000000.0 -351223000000.0 -123700000000.0 -417962000000.0 -91658200000.0 -146010000000.0 -146083000000.0 -91879500000.0 -183583000000.0 -109986000000.0 -79067300000.0 -63816700000.0 -143809000000.0 -15190300000.0 -179303000000.0 -129004000000.0 -117547000000.0 -93178200000.0 -70220700000.0 -77314100000.0 -51915000000.0 -12709000000.0 -23753400000.0 -27461400000.0 -71219000000.0 -36366300000.0 -20314000000.0 -29834900000.0 -95411200000.0 -59634500000.0 -70613700000.0 -78387600000.0 -63605400000.0 -79767300000.0 -90765200000.0 -14685500000.0 -84479100000.0 -94254800000.0 -113160000000.0 -89056100000.0 -61707100000.0 -131229000000.0 -229790000000.0 -74621500000.0 -115272000000.0 -197782000000.0 -246875000000.0 -284213000000.0 -20241100000.0 -197774000000.0 -157441000000.0 -235180000000.0 -156608000000.0 -187800000000.0 -312471000000.0 -487100000000.0 -205187000000.0 -416370000000.0 -429200000000.0 -21308900000.0 -591712000000.0 -888025000000.0 -501977000000.0 -194455000000.0 -238905000000.0 -896692000000.0 -1.07144e+12 -843993000000.0 -1.54247e+12 -262633000000.0 -1.5367e+12 -1.68797e+12 -761057000000.0 -833139000000.0 -1.09301e+12 -2.41152e+12 -900496000000.0 -651120000000.0 -394371000000.0 -1.15027e+12 -2.50192e+12 -1.9627e+12 -1.39963e+12 -741700000000.0 -1.35184e+12 -607159000000.0 -578353000000.0 -649398000000.0 -1.09648e+12 -1.36306e+12 -601327000000.0 -358536000000.0 -1.1936e+12 -481908000000.0 -1.56965e+12 -533935000000.0 -661893000000.0 -254217000000.0 -374358000000.0 -1.15316e+12 -1.45438e+12 -496360000000.0 -626375000000.0 -729866000000.0 -779233000000.0 -1.01901e+12 -683071000000.0 -593846000000.0 -517758000000.0 -250220000000.0 -172323000000.0 -182544000000.0 -144498000000.0 -63984900000.0 -22683200000.0 -92213100000.0 -232237000000.0 -25434300000.0 -79036400000.0 -241355000000.0 -181398000000.0 -32050600000.0 -90351200000.0 -45363100000.0 -184805000000.0 -169563000000.0 -80272200000.0 -41299600000.0 -135783000000.0 -73650700000.0 -96972300000.0 -12549700000.0 -68670300000.0 -95470900000.0 -12566700000.0 -35528300000.0 -41695500000.0 -68052500000.0 -70601100000.0 -14776600000.0 -66036200000.0 -47591000000.0 -65518400000.0 -13046800000.0 -18674100000.0 -14853300000.0 -25925500000.0 -48721800000.0 -104629000000.0 -60121300000.0 -76214500000.0 -76669600000.0 -38088000000.0 -108170000000.0 -69870300000.0 -144086000000.0 -53084200000.0 -36644900000.0 -28771300000.0 -188686000000.0 -20852200000.0 -190976000000.0 -28417700000.0 -16847500000.0 -40517600000.0 -93980400000.0 -105834000000.0 -227159000000.0 -102299000000.0 -128086000000.0 -324416000000.0 -316802000000.0 -293529000000.0 -72259500000.0 -400628000000.0 -434781000000.0 -739000000000.0 -479230000000.0 -1.24449e+12 -340228000000.0 -413217000000.0 -357511000000.0 -1.56741e+12 -1.26381e+12 -1.54757e+12 -1.37267e+12 -1.08958e+12 -1.05612e+12 -1.26425e+12 -1.31415e+12 -409335000000.0 -718247000000.0 -916247000000.0 -1.46712e+12 -697382000000.0 -1.3518e+12 -2.77648e+12 -1.20278e+12 -926641000000.0 -838375000000.0 -888580000000.0 -1.22794e+12 -592208000000.0 -1.42397e+12 -465008000000.0 -1.03717e+12 -510382000000.0 -770886000000.0 -690111000000.0 -396044000000.0 -729735000000.0 -359066000000.0 -799998000000.0 -880147000000.0 -1.09513e+12 -542283000000.0 -57585900000.0 -33319900000.0 -336479000000.0 -373475000000.0 -227948000000.0 -161574000000.0 -134508000000.0 -15193800000.0 -153940000000.0 -104060000000.0 -114628000000.0 -93151800000.0 -178123000000.0 -34164500000.0 -93057000000.0 -19860800000.0 -58237300000.0 -77051900000.0 -61329500000.0 -38621500000.0 -62790800000.0 -64830500000.0 -32602200000.0 -60247500000.0 -39358100000.0 -29118100000.0 -45836100000.0 -67063200000.0 -44624100000.0 -94526000000.0 -52959800000.0 -35318600000.0 -93057300000.0 -18200700000.0 -152380000000.0 -37762100000.0 -13528400000.0 -94278600000.0 -42121700000.0 -56445000000.0 -73005900000.0 -20180700000.0 -94606400000.0 -106015000000.0 -91206600000.0 -53305200000.0 -109685000000.0 -201066000000.0 -21914100000.0 -63426500000.0 -76106400000.0 -169697000000.0 -255764000000.0 -364309000000.0 -240953000000.0 -18188500000.0 -237378000000.0 -19739300000.0 -218154000000.0 -40757500000.0 -359917000000.0 -101427000000.0 -77380200000.0 -83862300000.0 -611667000000.0 -392410000000.0 -652392000000.0 -1.70222e+12 -391512000000.0 -843940000000.0 -1.13867e+12 -2.04449e+12 -980445000000.0 -733455000000.0 -851697000000.0 -989173000000.0 -754466000000.0 -533283000000.0 -1.70134e+12 -489239000000.0 -915883000000.0 -1.27802e+12 -1.45595e+12 -443405000000.0 -1.20524e+12 -279981000000.0 -832070000000.0 -611282000000.0 -920842000000.0 -634813000000.0 -956954000000.0 -764725000000.0 -669341000000.0 -720831000000.0 -744366000000.0 -348189000000.0 -287711000000.0 -863112000000.0 -251059000000.0 -503211000000.0 -444688000000.0 -394157000000.0 -337938000000.0 -426040000000.0 -333530000000.0 -126354000000.0 -105798000000.0 -212859000000.0 -168909000000.0 -50574600000.0 -67696200000.0 -245811000000.0 -112082000000.0 -170244000000.0 -78405600000.0 -72881500000.0 -70037100000.0 -18401300000.0 -90534500000.0 -63349400000.0 -71495600000.0 -65561200000.0 -57239500000.0 -32783600000.0 -23423700000.0 -42705000000.0 -32236100000.0 -46387200000.0 -17894100000.0 -51375000000.0 -17920600000.0 -28449500000.0 -35544400000.0 -78297700000.0 -12549700000.0 -67057100000.0 -55853300000.0 -63147800000.0 -13553900000.0 -101222000000.0 -22394400000.0 -97343000000.0 -14100400000.0 -20074700000.0 -17819300000.0 -14132800000.0 -119710000000.0 -47399700000.0 -66342900000.0 -73965600000.0 -58127500000.0 -31111500000.0 -95458200000.0 -54014200000.0 -132811000000.0 -69030700000.0 -81422900000.0 -65578200000.0 -148190000000.0 -130468000000.0 -185858000000.0 -311765000000.0 -197776000000.0 -296915000000.0 -218808000000.0 -186745000000.0 -426831000000.0 -541259000000.0 -84415200000.0 -324368000000.0 -443442000000.0 -462230000000.0 -525196000000.0 -632585000000.0 -742751000000.0 -651162000000.0 -511266000000.0 -530781000000.0 -364438000000.0 -518807000000.0 -554482000000.0 -837553000000.0 -1.39039e+12 -440229000000.0 -819183000000.0 -889935000000.0 -885090000000.0 -569242000000.0 -1.2298e+12 -808386000000.0 -84248000000.0 -825325000000.0 -374506000000.0 -185453000000.0 -674781000000.0 -699895000000.0 -250718000000.0 -284315000000.0 -263470000000.0 -366040000000.0 -197313000000.0 -294977000000.0 -475481000000.0 -38981100000.0 -247588000000.0 -773373000000.0 -257530000000.0 -281650000000.0 -366200000000.0 -348859000000.0 -406072000000.0 -77558300000.0 -105161000000.0 -169343000000.0 -230245000000.0 -108185000000.0 -31830900000.0 -145461000000.0 -176736000000.0 -246087000000.0 -12549700000.0 -12549700000.0 -54955700000.0 -76227000000.0 -91470300000.0 -124162000000.0 -92707600000.0 -34688100000.0 -48318900000.0 -12549700000.0 -65297500000.0 -50827100000.0 -52398500000.0 -89742800000.0 -50415200000.0 -65794200000.0 -60237900000.0 -69386600000.0 -29427300000.0 -83153100000.0 -15061100000.0 -24123700000.0 -114660000000.0 -48805100000.0 -87777900000.0 -133960000000.0 -67286200000.0 -105856000000.0 -91104600000.0 -12685900000.0 -66278800000.0 -41052900000.0 -87978300000.0 -12549700000.0 -80534700000.0 -80902500000.0 -106200000000.0 -125016000000.0 -157124000000.0 -146601000000.0 -244447000000.0 -120565000000.0 -88525700000.0 -229946000000.0 -223887000000.0 -296556000000.0 -95398200000.0 -12549700000.0 -326258000000.0 -273090000000.0 -423757000000.0 -381936000000.0 -306764000000.0 -383535000000.0 -620274000000.0 -723539000000.0 -1.44017e+12 -145055000000.0 -222711000000.0 -428357000000.0 -950635000000.0 -533611000000.0 -146575000000.0 -639769000000.0 -796400000000.0 -762395000000.0 -933680000000.0 -1.01379e+12 -881567000000.0 -912183000000.0 -1.12998e+12 -650108000000.0 -1.25493e+12 -438013000000.0 -318567000000.0 -28390500000.0 -750372000000.0 -218997000000.0 -144704000000.0 -316333000000.0 -670454000000.0 -518924000000.0 -568878000000.0 -300260000000.0 -188658000000.0 -225075000000.0 -187217000000.0 -22181100000.0 -40695200000.0 -429989000000.0 -96349000000.0 -269606000000.0 -247267000000.0 -486750000000.0 -160254000000.0 -139320000000.0 -118534000000.0 -364814000000.0 -172150000000.0 -123626000000.0 -203004000000.0 -162495000000.0 -82899200000.0 -93957600000.0 -153102000000.0 -196501000000.0 -130830000000.0 -76485000000.0 -57916200000.0 -155098000000.0 -16434500000.0 -80236000000.0 -43343700000.0 -70117400000.0 -41672400000.0 -128635000000.0 -65939300000.0 -69555600000.0 -60522800000.0 -61270200000.0 -74580000000.0 -71841400000.0 -90208700000.0 -109445000000.0 -107610000000.0 -60829200000.0 -48180300000.0 -70985500000.0 -64192700000.0 -37131200000.0 -27643800000.0 -132117000000.0 -87406800000.0 -94217500000.0 -13295100000.0 -79085800000.0 -105337000000.0 -66463500000.0 -76889200000.0 -115854000000.0 -13807900000.0 -127422000000.0 -190261000000.0 -86368600000.0 -181590000000.0 -70948100000.0 -263980000000.0 -168162000000.0 -216794000000.0 -247104000000.0 -342525000000.0 -361218000000.0 -72186300000.0 -408471000000.0 -183545000000.0 -839986000000.0 -845774000000.0 -832744000000.0 -773739000000.0 -452374000000.0 -1.15155e+12 -395437000000.0 -1.09547e+12 -258676000000.0 -206264000000.0 -346104000000.0 -1.20296e+12 -290257000000.0 -679367000000.0 -343023000000.0 -615847000000.0 -683129000000.0 -238011000000.0 -109981000000.0 -369736000000.0 -325926000000.0 -221436000000.0 -53809200000.0 -125933000000.0 -45615800000.0 -19675500000.0 -60003400000.0 -127436000000.0 -154317000000.0 -260366000000.0 -211048000000.0 -12549700000.0 -172785000000.0 -325684000000.0 -150488000000.0 -16593700000.0 -145283000000.0 -83081400000.0 -120520000000.0 -15156700000.0 -60180600000.0 -73458400000.0 -44794000000.0 -62089400000.0 -182743000000.0 -35837700000.0 -158838000000.0 -113078000000.0 -31595000000.0 -142360000000.0 -192755000000.0 -40256100000.0 -12549700000.0 -38184700000.0 -70672600000.0 -57234500000.0 -53797800000.0 -56930500000.0 -120079000000.0 -48294000000.0 -20229800000.0 -31871200000.0 -85879100000.0 -60080900000.0 -60322700000.0 -12549700000.0 -72491100000.0 -63000400000.0 -50844300000.0 -42788100000.0 -14387200000.0 -110990000000.0 -83855900000.0 -16500800000.0 -62840900000.0 -21874900000.0 -76286700000.0 -74111700000.0 -116613000000.0 -50084600000.0 -82348200000.0 -26283300000.0 -106663000000.0 -41428600000.0 -110464000000.0 -136210000000.0 -15465100000.0 -150907000000.0 -64064500000.0 -16375300000.0 -109206000000.0 -70624000000.0 -67334700000.0 -103480000000.0 -156735000000.0 -63189600000.0 -114645000000.0 -156029000000.0 -197330000000.0 -336417000000.0 -114999000000.0 -250251000000.0 -207728000000.0 -188804000000.0 -335737000000.0 -357008000000.0 -423436000000.0 -305741000000.0 -437856000000.0 -521907000000.0 -128220000000.0 -749827000000.0 -361577000000.0 -262895000000.0 -289192000000.0 -608867000000.0 -69400400000.0 -132364000000.0 -1.03815e+12 -361015000000.0 -283972000000.0 -940660000000.0 -395287000000.0 -819453000000.0 -348445000000.0 -114468000000.0 -225576000000.0 -83755900000.0 -227487000000.0 -284480000000.0 -233762000000.0 -152030000000.0 -83002500000.0 -78533000000.0 -119704000000.0 -75365800000.0 -58692900000.0 -148467000000.0 -266966000000.0 -188283000000.0 -80806800000.0 -190807000000.0 -12549700000.0 -134411000000.0 -126444000000.0 -32943900000.0 -12549500000.0 -63280200000.0 -12549700000.0 -111461000000.0 -43560400000.0 -81945700000.0 -53582000000.0 -70589600000.0 -88232900000.0 -72754300000.0 -67034800000.0 -66283600000.0 -45153600000.0 -33362200000.0 -42697700000.0 -130829000000.0 -136395000000.0 -12673400000.0 -124500000000.0 -15928700000.0 -53084200000.0 -45849200000.0 -96488600000.0 -55893900000.0 -58796100000.0 -72054400000.0 -82833800000.0 -61853700000.0 -71222900000.0 -28807500000.0 -53674700000.0 -44672000000.0 -81653100000.0 -84294200000.0 -19789700000.0 -38817500000.0 -70935500000.0 -59466500000.0 -27237600000.0 -37376200000.0 -89286400000.0 -149788000000.0 -99077500000.0 -84038600000.0 -117592000000.0 -163942000000.0 -39358600000.0 -108307000000.0 -94969600000.0 -71876400000.0 -99852800000.0 -121374000000.0 -115976000000.0 -130987000000.0 -116465000000.0 -179956000000.0 -140869000000.0 -378979000000.0 -281655000000.0 -115751000000.0 -392697000000.0 -301810000000.0 -194433000000.0 -300304000000.0 -302141000000.0 -440222000000.0 -686341000000.0 -347665000000.0 -815815000000.0 -394769000000.0 -491673000000.0 -172007000000.0 -286299000000.0 -557280000000.0 -661154000000.0 -26400000000.0 -15775500000.0 -183289000000.0 -246620000000.0 -66360900000.0 -139838000000.0 -321788000000.0 -124444000000.0 -110473000000.0 -29050200000.0 -16159100000.0 -66879400000.0 -39406200000.0 -50798700000.0 -36414800000.0 -169408000000.0 -174954000000.0 -126609000000.0 -151762000000.0 -94715000000.0 -55932800000.0 -40964400000.0 -61380800000.0 -75495700000.0 -41069900000.0 -51960800000.0 -38340000000.0 -37969600000.0 -46705500000.0 -29108300000.0 -89522800000.0 -100587000000.0 -29993600000.0 -51845700000.0 -33062300000.0 -22051800000.0 -42036200000.0 -98064800000.0 -62479100000.0 -23652000000.0 -200775000000.0 -142231000000.0 -143155000000.0 -87901700000.0 -75993500000.0 -88468800000.0 -59180800000.0 -107782000000.0 -63546400000.0 -39721600000.0 -46109600000.0 -62551300000.0 -99982500000.0 -39475000000.0 -53727200000.0 -59783800000.0 -47032700000.0 -173481000000.0 -96140500000.0 -122044000000.0 -74923800000.0 -62403800000.0 -50524000000.0 -105581000000.0 -141585000000.0 -80496300000.0 -94461600000.0 -76668600000.0 -14150900000.0 -73119800000.0 -119348000000.0 -12549700000.0 -70934400000.0 -109805000000.0 -66951500000.0 -92535400000.0 -143516000000.0 -172484000000.0 -69017700000.0 -80590600000.0 -149926000000.0 -12549700000.0 -42397700000.0 -98119900000.0 -15144900000.0 -281983000000.0 -133237000000.0 -178141000000.0 -122189000000.0 -253731000000.0 -370713000000.0 -247652000000.0 -330600000000.0 -718806000000.0 -372907000000.0 -400923000000.0 -530913000000.0 -117545000000.0 -409844000000.0 -283603000000.0 -371818000000.0 -356128000000.0 -670527000000.0 -382277000000.0 -688317000000.0 -226523000000.0 -285134000000.0 -89628400000.0 -167184000000.0 -42711800000.0 -14147200000.0 -84125000000.0 -35417900000.0 -29712900000.0 -49029300000.0 -15872200000.0 -29057300000.0 -12549700000.0 -23827400000.0 -52330400000.0 -107711000000.0 -139079000000.0 -115066000000.0 -25459600000.0 -27003300000.0 -59277300000.0 -14095000000.0 -45192200000.0 -55499000000.0 -98502800000.0 -13316300000.0 -12551000000.0 -29380100000.0 -24280600000.0 -31346100000.0 -44923800000.0 -29825700000.0 -14072100000.0 -23327000000.0 -26476300000.0 -29524500000.0 -59734100000.0 -48801700000.0 -43320400000.0 -14633700000.0 -96407400000.0 -128911000000.0 -51033500000.0 -71256500000.0 -41778100000.0 -115990000000.0 -78356300000.0 -68340200000.0 -98756400000.0 -89382500000.0 -79479200000.0 -122471000000.0 -64115900000.0 -65788500000.0 -103214000000.0 -36560100000.0 -69952800000.0 -12549700000.0 -63324900000.0 -26655800000.0 -13993500000.0 -13594700000.0 -40486900000.0 -77542400000.0 -29248800000.0 -15367500000.0 -75255800000.0 -79016800000.0 -21237500000.0 -85970100000.0 -40451800000.0 -42527800000.0 -22534800000.0 -54826000000.0 -12549700000.0 -63053800000.0 -82551900000.0 -103918000000.0 -63466500000.0 -95678700000.0 -139481000000.0 -111422000000.0 -124754000000.0 -70439600000.0 -260117000000.0 -144182000000.0 -146874000000.0 -78907300000.0 -288854000000.0 -378249000000.0 -124329000000.0 -287638000000.0 -304652000000.0 -142344000000.0 -320127000000.0 -214381000000.0 -279380000000.0 -113920000000.0 -106609000000.0 -247671000000.0 -79860000000.0 -348183000000.0 -310658000000.0 -289182000000.0 -394640000000.0 -246831000000.0 -178224000000.0 -120383000000.0 -189771000000.0 -63930600000.0 -76023600000.0 -50008000000.0 -17756200000.0 -207736000000.0 -75632400000.0 -12655100000.0 -13046000000.0 -14217600000.0 -48277200000.0 -36037600000.0 -33412300000.0 -68562700000.0 -26994000000.0 -95789500000.0 -12549700000.0 -181895000000.0 -12549700000.0 -81909700000.0 -50021100000.0 -93635000000.0 -28971000000.0 -30349600000.0 -31473100000.0 -12642300000.0 -48757700000.0 -25686100000.0 -44894900000.0 -84185000000.0 -41960100000.0 -27177700000.0 -36600500000.0 -28888900000.0 -48245300000.0 -62836000000.0 -50419100000.0 -13212700000.0 -26996400000.0 -31959500000.0 -94431500000.0 -18919900000.0 -121768000000.0 -78794200000.0 -93162100000.0 -73824700000.0 -129611000000.0 -42643000000.0 -14224000000.0 -66868300000.0 -91509700000.0 -12549700000.0 -47447600000.0 -45435100000.0 -70963000000.0 -18495100000.0 -55259700000.0 -119073000000.0 -33908800000.0 -92450800000.0 -12578400000.0 -122094000000.0 -82040600000.0 -38322300000.0 -20409900000.0 -65818100000.0 -35444400000.0 -30913000000.0 -78972600000.0 -13503400000.0 -75433200000.0 -78729000000.0 -102507000000.0 -30376000000.0 -12689900000.0 -69753300000.0 -67619700000.0 -51899300000.0 -62759700000.0 -175164000000.0 -155766000000.0 -75628600000.0 -35964900000.0 -35556100000.0 -104092000000.0 -85798000000.0 -93077500000.0 -125602000000.0 -195804000000.0 -126086000000.0 -57858000000.0 -134370000000.0 -53430300000.0 -140820000000.0 -56295300000.0 -41716200000.0 -89405600000.0 -221329000000.0 -211844000000.0 -85233700000.0 -175867000000.0 -112464000000.0 -291101000000.0 -299770000000.0 -174236000000.0 -42769300000.0 -108769000000.0 -150916000000.0 -295244000000.0 -51179900000.0 -131515000000.0 -220630000000.0 -52131100000.0 -182099000000.0 -211567000000.0 -155175000000.0 -146478000000.0 -407328000000.0 -99061800000.0 -53816700000.0 -40926200000.0 -12812100000.0 -50853800000.0 -126769000000.0 -78540200000.0 -22805800000.0 -21978100000.0 -37525500000.0 -14065600000.0 -22403200000.0 -42397800000.0 -12549700000.0 -103534000000.0 -186532000000.0 -50508900000.0 -36060300000.0 -60569700000.0 -32462000000.0 -66177100000.0 -71007500000.0 -51185100000.0 -55882100000.0 -42123800000.0 -54968800000.0 -47102900000.0 -51096700000.0 -60088100000.0 -32196000000.0 -45627200000.0 -14213000000.0 -12549700000.0 -48493200000.0 -18075100000.0 -79878900000.0 -25751700000.0 -26800600000.0 -100621000000.0 -76108200000.0 -34240400000.0 -111633000000.0 -26547700000.0 -102374000000.0 -50563800000.0 -76879600000.0 -41655400000.0 -77185600000.0 -43087400000.0 -60520800000.0 -80049100000.0 -43047800000.0 -14483100000.0 -70057700000.0 -37605500000.0 -76964900000.0 -139890000000.0 -100546000000.0 -133730000000.0 -67077900000.0 -72827000000.0 -59124400000.0 -122488000000.0 -113020000000.0 -126908000000.0 -173414000000.0 -15555700000.0 -61624800000.0 -13017800000.0 -51821400000.0 -21281000000.0 -116703000000.0 -25595700000.0 -48256000000.0 -207149000000.0 -168317000000.0 -89228300000.0 -95694600000.0 -102795000000.0 -249065000000.0 -222234000000.0 -161005000000.0 -80259800000.0 -237768000000.0 -47374000000.0 -25129600000.0 -203175000000.0 -175129000000.0 -122663000000.0 -228194000000.0 -100657000000.0 -165531000000.0 -305365000000.0 -12549700000.0 -211140000000.0 -309003000000.0 -65121400000.0 -22033600000.0 -26020400000.0 -13447300000.0 -114501000000.0 -133343000000.0 -88049600000.0 -74633400000.0 -44869700000.0 -53138900000.0 -59804600000.0 -68460200000.0 -60089400000.0 -58729700000.0 -60700800000.0 -56751200000.0 -12549700000.0 -94116500000.0 -12549700000.0 -34719900000.0 -105762000000.0 -107614000000.0 -139381000000.0 -84549500000.0 -99751900000.0 -43348300000.0 -41784500000.0 -58446100000.0 -86785200000.0 -24006500000.0 -45472700000.0 -60904900000.0 -60943200000.0 -30594500000.0 -39377600000.0 -37570500000.0 -32300400000.0 -97841400000.0 -55293700000.0 -27657900000.0 -65533800000.0 -31273500000.0 -47751900000.0 -83335600000.0 -60963900000.0 -69168300000.0 -51993000000.0 -44374500000.0 -40542500000.0 -81393100000.0 -75267600000.0 -71146800000.0 -59656600000.0 -72738300000.0 -46221100000.0 -37873400000.0 -91179500000.0 -69566800000.0 -103286000000.0 -73835500000.0 -16288300000.0 -39943800000.0 -131358000000.0 -42305400000.0 -82976200000.0 -45996300000.0 -24276100000.0 -34147700000.0 -45167900000.0 -69928000000.0 -80458600000.0 -53799800000.0 -58825700000.0 -17941600000.0 -24341600000.0 -107111000000.0 -192173000000.0 -72542900000.0 -66356600000.0 -114468000000.0 -12945600000.0 -112425000000.0 -128877000000.0 -168480000000.0 -89499000000.0 -185404000000.0 -75798700000.0 -117558000000.0 -70504800000.0 -178269000000.0 -28832400000.0 -96262500000.0 -59422000000.0 -12549700000.0 -142101000000.0 -77027700000.0 -53716500000.0 -189716000000.0 -97200400000.0 -194888000000.0 -35613000000.0 -46999300000.0 -165603000000.0 -268241000000.0 -167011000000.0 -272907000000.0 -63029200000.0 -99680500000.0 -108696000000.0 -38074700000.0 -51829900000.0 -32310600000.0 -30177100000.0 -14841100000.0 -37373200000.0 -12926700000.0 -16086900000.0 -39899100000.0 -15441100000.0 -23674700000.0 -16576500000.0 -75148400000.0 -40514400000.0 -74533400000.0 -13670600000.0 -53688800000.0 -37350000000.0 -27715800000.0 -12911200000.0 -16086100000.0 -35450500000.0 -66113700000.0 -13463400000.0 -43416100000.0 -52538000000.0 -28188900000.0 -12661800000.0 -62372300000.0 -49479300000.0 -95457600000.0 -28806300000.0 -30727300000.0 -61053400000.0 -48329900000.0 -12549700000.0 -38294600000.0 -70287000000.0 -50061400000.0 -12549700000.0 -50707300000.0 -59853200000.0 -26099200000.0 -77362200000.0 -95556400000.0 -67573800000.0 -40709900000.0 -74629000000.0 -15377500000.0 -40744400000.0 -14518500000.0 -121967000000.0 -41321600000.0 -34368600000.0 -64134000000.0 -12549700000.0 -63284600000.0 -85445400000.0 -54476400000.0 -37526600000.0 -100000000000.0 -80535000000.0 -59681700000.0 -81704700000.0 -88177700000.0 -124983000000.0 -61902000000.0 -72629800000.0 -114954000000.0 -113336000000.0 -62717800000.0 -62353900000.0 -18949700000.0 -13646700000.0 -109367000000.0 -121013000000.0 -93698400000.0 -123761000000.0 -52602300000.0 -70550300000.0 -105820000000.0 -81526000000.0 -66565400000.0 -195507000000.0 -182440000000.0 -113509000000.0 -154201000000.0 -45736800000.0 -200775000000.0 -107348000000.0 -189271000000.0 -93620200000.0 -173831000000.0 -152499000000.0 -323746000000.0 -348452000000.0 -19815500000.0 -79131000000.0 -32134900000.0 -28247600000.0 -70485800000.0 -41261500000.0 -41995200000.0 -22571400000.0 -37783600000.0 -13912100000.0 -12916100000.0 -12653800000.0 -38958200000.0 -19301400000.0 -29429800000.0 -37957300000.0 -24647300000.0 -39081800000.0 -47669800000.0 -65958600000.0 -54416700000.0 -82570900000.0 -22408600000.0 -68217000000.0 -28854000000.0 -39142100000.0 -42623600000.0 -16541900000.0 -32569900000.0 -26883600000.0 -28986700000.0 -69398700000.0 -65841400000.0 -80451100000.0 -36039100000.0 -53567600000.0 -21324600000.0 -71162900000.0 -25557400000.0 -22016600000.0 -61328500000.0 -56463100000.0 -87117200000.0 -56441600000.0 -92404300000.0 -72968100000.0 -48382900000.0 -75925300000.0 -72913100000.0 -55823600000.0 -44182300000.0 -47324700000.0 -75877300000.0 -84030900000.0 -17565600000.0 -84264500000.0 -86443800000.0 -86392100000.0 -97877800000.0 -72019000000.0 -34488600000.0 -27607700000.0 -53754200000.0 -48377800000.0 -90358400000.0 -65627600000.0 -73407300000.0 -13941300000.0 -63885700000.0 -38291600000.0 -46478800000.0 -34112100000.0 -100316000000.0 -38616100000.0 -100329000000.0 -124996000000.0 -113946000000.0 -101339000000.0 -95764500000.0 -104492000000.0 -12549700000.0 -50824500000.0 -48512900000.0 -119007000000.0 -106256000000.0 -22358800000.0 -54743000000.0 -12549700000.0 -90281500000.0 -67829600000.0 -70200300000.0 -199422000000.0 -19226100000.0 -22746800000.0 -29812100000.0 -28515100000.0 -58709600000.0 -16467200000.0 -174929000000.0 -84647100000.0 -81690300000.0 -247504000000.0 -281785000000.0 -14472500000.0 -33083100000.0 -25281000000.0 -71364700000.0 -61961400000.0 -26425200000.0 -34245100000.0 -48977400000.0 -35818100000.0 -44554200000.0 -32185000000.0 -30436100000.0 -45894100000.0 -38426300000.0 -43245700000.0 -32131800000.0 -33883500000.0 -30289900000.0 -61013500000.0 -18182500000.0 -77702200000.0 -51848800000.0 -42693100000.0 -23703700000.0 -41533200000.0 -19536100000.0 -21515900000.0 -30022600000.0 -33287700000.0 -77062600000.0 -79767400000.0 -35485700000.0 -49448200000.0 -46786500000.0 -99529000000.0 -28648600000.0 -39978200000.0 -26955500000.0 -24791300000.0 -19303800000.0 -25299700000.0 -20166400000.0 -60476200000.0 -53667700000.0 -30707800000.0 -23778300000.0 -53254600000.0 -72644100000.0 -41750800000.0 -62065100000.0 -55159300000.0 -32869100000.0 -32184200000.0 -93701500000.0 -57447000000.0 -70845800000.0 -74220000000.0 -67296100000.0 -82338100000.0 -92281700000.0 -108918000000.0 -83464500000.0 -88306800000.0 -134133000000.0 -140646000000.0 -113030000000.0 -14347700000.0 -95252000000.0 -127597000000.0 -173822000000.0 -119601000000.0 -108270000000.0 -133301000000.0 -115502000000.0 -83483800000.0 -71264000000.0 -111335000000.0 -18004200000.0 -155342000000.0 -55168000000.0 -43923200000.0 -28061000000.0 -34850200000.0 -101013000000.0 -68476000000.0 -23589000000.0 -29397700000.0 -77337500000.0 -86166000000.0 -62927700000.0 -43276400000.0 -37349700000.0 -39002100000.0 -77314500000.0 -20163700000.0 -115430000000.0 -117792000000.0 -369503000000.0 -119502000000.0 -18378000000.0 -30108600000.0 -21144600000.0 -46553200000.0 -76230200000.0 -39658000000.0 -41589800000.0 -26813700000.0 -14630700000.0 -18702200000.0 -29890900000.0 -16690000000.0 -19555500000.0 -14229000000.0 -38924500000.0 -30971400000.0 -34475100000.0 -12549700000.0 -43224100000.0 -74204900000.0 -40790600000.0 -78207000000.0 -63938200000.0 -33990500000.0 -22821000000.0 -16995200000.0 -12589400000.0 -15187900000.0 -32483100000.0 -49352600000.0 -33317700000.0 -49727400000.0 -44943500000.0 -12549700000.0 -61922200000.0 -13662200000.0 -19738300000.0 -19261400000.0 -24660600000.0 -13112100000.0 -75763100000.0 -47448600000.0 -40376100000.0 -26579700000.0 -30800700000.0 -69348300000.0 -79597500000.0 -17634500000.0 -25355800000.0 -75111400000.0 -12549700000.0 -36384200000.0 -12549700000.0 -53583600000.0 -61408400000.0 -40877800000.0 -52320100000.0 -24582600000.0 -87105200000.0 -12701800000.0 -77629700000.0 -58337100000.0 -39211500000.0 -64861500000.0 -46786800000.0 -43600500000.0 -114645000000.0 -17620600000.0 -106593000000.0 -111292000000.0 -21387700000.0 -51795600000.0 -95553700000.0 -40349600000.0 -45275100000.0 -114884000000.0 -75005300000.0 -46689500000.0 -17882400000.0 -42679000000.0 -23897400000.0 -51229400000.0 -22074500000.0 -98192200000.0 -62867100000.0 -41578500000.0 -27711500000.0 -48148300000.0 -49898000000.0 -110436000000.0 -40903700000.0 -32905000000.0 -31308900000.0 -18345600000.0 -13975800000.0 -109183000000.0 -122199000000.0 -228922000000.0 -87310600000.0 -29120800000.0 -69837400000.0 -71401700000.0 -78065700000.0 -13266800000.0 -14080700000.0 -39007200000.0 -12549700000.0 -24816100000.0 -21565200000.0 -12549700000.0 -21449400000.0 -29413500000.0 -26192200000.0 -24266900000.0 -40500200000.0 -41899800000.0 -20237400000.0 -49405800000.0 -22853500000.0 -55030600000.0 -63349200000.0 -22340800000.0 -50193600000.0 -42446400000.0 -12941500000.0 -29889500000.0 -33525300000.0 -31416500000.0 -49399200000.0 -57464100000.0 -49025700000.0 -46442700000.0 -40547100000.0 -24575100000.0 -70001500000.0 -22534100000.0 -24732600000.0 -24514200000.0 -71549700000.0 -65673500000.0 -63172900000.0 -52244400000.0 -85036400000.0 -75314900000.0 -31043400000.0 -79381100000.0 -53514800000.0 -51852900000.0 -40561700000.0 -49215600000.0 -55396100000.0 -24030200000.0 -47814800000.0 -35877700000.0 -12868000000.0 -85271800000.0 -43294800000.0 -44977900000.0 -43956500000.0 -79120200000.0 -29065200000.0 -97689200000.0 -121346000000.0 -18160500000.0 -72298400000.0 -81815200000.0 -50243100000.0 -68246800000.0 -44696300000.0 -22040200000.0 -15764300000.0 -75736300000.0 -71452400000.0 -53635900000.0 -76189500000.0 -61319800000.0 -76770500000.0 -41151700000.0 -43867800000.0 -76146200000.0 -22642300000.0 -59643400000.0 -40653200000.0 -119263000000.0 -69144100000.0 -59773600000.0 -48035400000.0 -50375900000.0 -79423700000.0 -21652800000.0 -48042900000.0 -70076900000.0 -86625100000.0 -192456000000.0 -67477800000.0 -38442400000.0 -58579700000.0 -63310800000.0 -98516900000.0 -20587000000.0 -20438000000.0 -41248200000.0 -30591400000.0 -27197000000.0 -31935400000.0 -24803300000.0 -26340200000.0 -19014100000.0 -14208000000.0 -38727900000.0 -14655700000.0 -12690500000.0 -31988900000.0 -33162400000.0 -31806500000.0 -83100800000.0 -102666000000.0 -51392700000.0 -43656000000.0 -27971400000.0 -26214800000.0 -63048400000.0 -62551500000.0 -51042400000.0 -84107900000.0 -74944500000.0 -68781100000.0 -99381300000.0 -64165900000.0 -69024200000.0 -49132600000.0 -42279600000.0 -53633400000.0 -23490900000.0 -67910500000.0 -13380800000.0 -84013300000.0 -12703000000.0 -15331000000.0 -65978000000.0 -42140400000.0 -43481600000.0 -67738600000.0 -38693400000.0 -47587100000.0 -60553300000.0 -57612100000.0 -62095700000.0 -58341100000.0 -118939000000.0 -108870000000.0 -22329600000.0 -23301100000.0 -24135000000.0 -24635500000.0 -22053800000.0 -83103700000.0 -62140000000.0 -77563800000.0 -59169200000.0 -27431600000.0 -75374300000.0 -35814400000.0 -104114000000.0 -18747600000.0 -31176900000.0 -35050300000.0 -48182500000.0 -57909200000.0 -51257700000.0 -16813300000.0 -86607600000.0 -85411300000.0 -18917500000.0 -65682700000.0 -92601400000.0 -54901700000.0 -28004800000.0 -76355600000.0 -63017400000.0 -50576800000.0 -41320000000.0 -40527900000.0 -67656700000.0 -55466900000.0 -44265000000.0 -56768600000.0 -39886000000.0 -60336400000.0 -42589600000.0 -57478300000.0 -37136000000.0 -37748800000.0 -62131300000.0 -16280400000.0 -38564900000.0 -16810100000.0 -38331200000.0 -27549200000.0 -12549700000.0 -17995900000.0 -77041400000.0 -14345200000.0 -34524000000.0 -42831100000.0 -13551400000.0 -20087600000.0 -14298000000.0 -20662300000.0 -26137200000.0 -27597700000.0 -21044800000.0 -15078900000.0 -40187000000.0 -19423700000.0 -52339900000.0 -68136100000.0 -15110600000.0 -118720000000.0 -14708000000.0 -25145700000.0 -15286200000.0 -12992400000.0 -99421100000.0 -72617900000.0 -17564000000.0 -49294300000.0 -26093100000.0 -16868200000.0 -13588700000.0 -109311000000.0 -50571900000.0 -36945600000.0 -12549700000.0 -12553100000.0 -14218000000.0 -45814400000.0 -37634300000.0 -55633000000.0 -46384400000.0 -25523300000.0 -20519400000.0 -56528700000.0 -57017100000.0 -24264900000.0 -28646300000.0 -29638900000.0 -17180700000.0 -35074100000.0 -29365900000.0 -50312400000.0 -90863400000.0 -54838400000.0 -15127600000.0 -13854200000.0 -15909600000.0 -26692200000.0 -81116200000.0 -44585700000.0 -52035700000.0 -35126500000.0 -85588400000.0 -57824000000.0 -12716900000.0 -81520300000.0 -49398000000.0 -84937800000.0 -70595400000.0 -34068000000.0 -30138300000.0 -63848000000.0 -43722200000.0 -32362600000.0 -13257300000.0 -18025800000.0 -12549700000.0 -13772300000.0 -20624800000.0 -24084200000.0 -47695800000.0 -14261300000.0 -13836400000.0 -40528900000.0 -16750900000.0 -36058600000.0 -56234500000.0 -35966100000.0 -36969200000.0 -20250900000.0 -52760800000.0 -42157400000.0 -19931700000.0 -30157000000.0 -48373900000.0 -27908200000.0 -44299800000.0 -38868600000.0 -64965300000.0 -85480300000.0 -100668000000.0 -116459000000.0 -207261000000.0 -67517900000.0 -38942500000.0 -35985600000.0 -25629500000.0 -19531700000.0 -12888300000.0 -45247400000.0 -77771100000.0 -88713000000.0 -45834400000.0 -37367400000.0 -54382600000.0 -59003200000.0 -54803800000.0 -36616200000.0 -41439700000.0 -40712900000.0 -24711800000.0 -59951400000.0 -34110600000.0 -43056200000.0 -37989400000.0 -63256600000.0 -39963400000.0 -39240800000.0 -40607800000.0 -13225800000.0 -69772900000.0 -79065900000.0 -68470700000.0 -79663800000.0 -122161000000.0 -38745500000.0 -24250400000.0 -40738200000.0 -47177100000.0 -72567200000.0 -48783500000.0 -48301900000.0 -60207300000.0 -65426900000.0 -45434000000.0 -15126400000.0 -44046500000.0 -12633400000.0 -12568100000.0 -47502200000.0 -33557700000.0 -58941700000.0 -45365000000.0 -34507300000.0 -44868900000.0 -20469200000.0 -19987900000.0 -36957700000.0 -30014000000.0 -23042100000.0 -44428200000.0 -25692100000.0 -26000900000.0 -43864800000.0 -56270700000.0 -71253100000.0 -55675000000.0 -68992800000.0 -90523800000.0 -24420400000.0 -24412700000.0 -54878600000.0 -67993600000.0 -21975900000.0 -20606900000.0 -65442300000.0 -14793100000.0 -54000500000.0 -60459500000.0 -37707300000.0 -55980700000.0 -76418800000.0 -21876400000.0 -27761700000.0 -23494200000.0 -39958100000.0 -35231500000.0 -23531900000.0 -13744600000.0 -27838000000.0 -13223500000.0 -41102500000.0 -13834300000.0 -27246900000.0 -31466300000.0 -22010600000.0 -17404700000.0 -31864500000.0 -43008300000.0 -42843000000.0 -39673500000.0 -37017100000.0 -38905600000.0 -49213600000.0 -20602200000.0 -23791200000.0 -70861900000.0 -130646000000.0 -31895500000.0 -44225400000.0 -12549700000.0 -28181300000.0 -69952200000.0 -54109200000.0 -46408900000.0 -12576500000.0 -50489200000.0 -16826000000.0 -37270300000.0 -35058400000.0 -44968200000.0 -46911200000.0 -43698400000.0 -74316000000.0 -42211300000.0 -64284600000.0 -24541900000.0 -64505500000.0 -74290700000.0 -44400300000.0 -61578500000.0 -86725500000.0 -17413500000.0 -24775600000.0 -72805900000.0 -52721300000.0 -46149800000.0 -54171600000.0 -53157000000.0 -43258500000.0 -65044500000.0 -25005700000.0 -17426200000.0 -32399100000.0 -43194000000.0 -29878300000.0 -43912100000.0 -12592300000.0 -16058000000.0 -45361700000.0 -30542700000.0 -26432000000.0 -27703600000.0 -28212600000.0 -37954400000.0 -37088700000.0 -35823300000.0 -38129400000.0 -59241700000.0 -37961300000.0 -56918500000.0 -22500300000.0 -48343300000.0 -25919100000.0 -25957400000.0 -33355600000.0 -23460700000.0 -70399300000.0 -45295100000.0 -26511100000.0 -60957400000.0 -12642000000.0 -48228800000.0 -49935800000.0 -51353100000.0 -75694700000.0 -50223700000.0 -42044200000.0 -44684500000.0 -50961300000.0 -16431400000.0 -68730800000.0 -38207000000.0 -22743400000.0 -20635300000.0 -34046600000.0 -13236500000.0 -23348400000.0 -29487200000.0 -13143200000.0 -52648200000.0 -35440800000.0 -39791300000.0 -23256200000.0 -25291500000.0 -35953000000.0 -21789700000.0 -33002800000.0 -18334800000.0 -34153000000.0 -22644100000.0 -25315700000.0 -38022000000.0 -24005300000.0 -12549700000.0 -84374600000.0 -21495100000.0 -48482200000.0 -56609700000.0 -23669000000.0 -40074100000.0 -29286400000.0 -38401500000.0 -48645300000.0 -26953300000.0 -25661200000.0 -23919200000.0 -25734100000.0 -50312500000.0 -52226800000.0 -13290900000.0 -33639200000.0 -52368000000.0 -44757900000.0 -66674600000.0 -23207300000.0 -105033000000.0 -122553000000.0 -66466800000.0 -26537700000.0 -14033600000.0 -27866300000.0 -31380500000.0 -35753800000.0 -62033100000.0 -42941400000.0 -22211900000.0 -39753000000.0 -42338100000.0 -13333100000.0 -13137700000.0 -13648800000.0 -40024400000.0 -18943900000.0 -14863100000.0 -14777000000.0 -13508400000.0 -38864700000.0 -23576700000.0 -21972500000.0 -31656600000.0 -27388900000.0 -22301400000.0 -44293900000.0 -27664900000.0 -35064900000.0 -23834700000.0 -12733500000.0 -25195700000.0 -12549700000.0 -55820900000.0 -32703000000.0 -28344100000.0 -38025900000.0 -45655700000.0 -29717500000.0 -46913800000.0 -25084200000.0 -12549700000.0 -67371900000.0 -62063200000.0 -43021200000.0 -56393300000.0 -35208600000.0 -33826000000.0 -30566300000.0 -43681600000.0 -29535000000.0 -44297400000.0 -33358400000.0 -39735100000.0 -25987800000.0 -37238200000.0 -37945700000.0 -25282700000.0 -12551400000.0 -12567100000.0 -16868900000.0 -18948000000.0 -12841100000.0 -32495000000.0 -31531200000.0 -30595300000.0 -13603000000.0 -35676900000.0 -18709500000.0 -20803200000.0 -53608600000.0 -68507900000.0 -13008600000.0 -76365800000.0 -70036900000.0 -14654900000.0 -19260100000.0 -59026200000.0 -26486600000.0 -20300200000.0 -14525400000.0 -23445100000.0 -23659700000.0 -15169700000.0 -51608400000.0 -20424200000.0 -24704800000.0 -28054200000.0 -24224300000.0 -22745300000.0 -29421400000.0 -14069000000.0 -12549700000.0 -31125200000.0 -57655400000.0 -44946200000.0 -54777500000.0 -67192800000.0 -14137400000.0 -17065400000.0 -34978300000.0 -14879000000.0 -61704700000.0 -49331400000.0 -45246600000.0 -49791000000.0 -38336000000.0 -26664600000.0 -36100800000.0 -12639100000.0 -46714300000.0 -18628500000.0 -40569200000.0 -41210100000.0 -27701700000.0 -26371000000.0 -21353000000.0 -27194500000.0 -32579000000.0 -25547700000.0 -23576100000.0 -25662800000.0 -32163900000.0 -23188500000.0 -21720800000.0 -13130100000.0 -26149200000.0 -16888000000.0 -14933900000.0 -35590400000.0 -27497000000.0 -44333800000.0 -37470500000.0 -31504500000.0 -45672800000.0 -38406600000.0 -43468800000.0 -27715900000.0 -23282800000.0 -63707200000.0 -20426200000.0 -20636700000.0 -31622600000.0 -71279000000.0 -30078200000.0 -47420000000.0 -53150100000.0 -65514100000.0 -41002700000.0 -20571100000.0 -31207100000.0 -17394600000.0 -18815700000.0 -24501600000.0 -23431200000.0 -42746900000.0 -47202900000.0 -48953400000.0 -26966400000.0 -16930400000.0 -28849700000.0 -13644800000.0 -25195200000.0 -14145700000.0 -18304500000.0 -13783000000.0 -20586200000.0 -24078500000.0 -12744200000.0 -46728900000.0 -48896100000.0 -46604700000.0 -33536200000.0 -31660700000.0 -46411300000.0 -48449200000.0 -22485500000.0 -42263400000.0 -13459000000.0 -15211100000.0 -21568200000.0 -30930400000.0 -19414100000.0 -27705800000.0 -39383300000.0 -24179800000.0 -17847600000.0 -35367500000.0 -29967600000.0 -22231000000.0 -27062700000.0 -31067400000.0 -39303800000.0 -38551100000.0 -13404900000.0 -29739100000.0 -49428600000.0 -29387600000.0 -19162700000.0 -56902700000.0 -42768300000.0 -42285800000.0 -26483600000.0 -54480300000.0 -32791600000.0 -12752000000.0 -27773600000.0 -38146800000.0 -30733100000.0 -34450600000.0 -12961400000.0 -45939700000.0 -30189400000.0 -39160500000.0 -41255200000.0 -34783600000.0 -15820900000.0 -15836400000.0 -16305800000.0 -35020900000.0 -19072300000.0 -20268200000.0 -22091800000.0 -28143800000.0 -35025800000.0 -29027100000.0 -31435700000.0 -34688800000.0 -39833200000.0 -38001900000.0 -44245300000.0 -28945900000.0 -47629000000.0 -14584600000.0 -13003100000.0 -27529700000.0 -14099100000.0 -33232000000.0 -18119800000.0 -49866100000.0 -16680900000.0 -14314200000.0 -12549700000.0 -29424100000.0 -12891200000.0 -63055800000.0 -39259000000.0 -50702100000.0 -52804400000.0 -42426700000.0 -29664400000.0 -27803900000.0 -23540800000.0 -30387900000.0 -27099700000.0 -14206000000.0 -23430400000.0 -16387100000.0 -12572600000.0 -47579500000.0 -29789100000.0 -28803300000.0 -42901100000.0 -38364700000.0 -40057300000.0 -37927700000.0 -32858500000.0 -50082100000.0 -45297300000.0 -26405200000.0 -28514100000.0 -13001100000.0 -48630100000.0 -41507500000.0 -38492100000.0 -31825300000.0 -14891900000.0 -39841300000.0 -32025500000.0 -32214800000.0 -29869200000.0 -16637000000.0 -16684400000.0 -18831000000.0 -20770300000.0 -35831800000.0 -15201000000.0 -29136800000.0 -21012700000.0 -19267000000.0 -33676800000.0 -33268800000.0 -24981900000.0 -35924600000.0 -22654900000.0 -46371800000.0 -32800500000.0 -37747300000.0 -43944900000.0 -24616300000.0 -53172600000.0 -40702000000.0 -45932700000.0 -33868800000.0 -64112000000.0 -18904300000.0 -20848500000.0 -23112800000.0 -12584300000.0 -16856000000.0 -21631800000.0 -18717800000.0 -23413500000.0 -41637700000.0 -18203900000.0 -28875600000.0 -18761800000.0 -26227300000.0 -21738400000.0 -12579900000.0 -31908900000.0 -31879800000.0 -39399200000.0 -15790000000.0 -15112500000.0 -14675300000.0 -15874600000.0 -17999200000.0 -28458500000.0 -21454100000.0 -28825400000.0 -26661500000.0 -15868300000.0 -12750600000.0 -21567200000.0 -12607200000.0 -40529300000.0 -16134800000.0 -15743100000.0 -31172400000.0 -12880900000.0 -34423700000.0 -21327400000.0 -25591000000.0 -62888500000.0 -36218300000.0 -34879600000.0 -33876800000.0 -49155800000.0 -22183200000.0 -24077500000.0 -14169600000.0 -69731000000.0 -20915100000.0 -23343100000.0 -21411500000.0 -17340600000.0 -19277700000.0 -24734400000.0 -19070300000.0 -29487600000.0 -12623400000.0 -27154900000.0 -21092900000.0 -37555200000.0 -28637300000.0 -30887600000.0 -24748500000.0 -24569000000.0 -20108100000.0 -20485100000.0 -27806600000.0 -26097100000.0 -15905300000.0 -21911500000.0 -24004900000.0 -22232400000.0 -23796500000.0 -13132800000.0 -14833000000.0 -33480400000.0 -22602100000.0 -23654800000.0 -21697700000.0 -31532600000.0 -27644100000.0 -17797600000.0 -16656800000.0 -15751200000.0 -21349600000.0 -15530900000.0 -14397400000.0 -31734600000.0 -38807300000.0 -24235400000.0 -32918900000.0 -20612600000.0 -24136600000.0 -20546400000.0 -28418100000.0 -35136800000.0 -38449400000.0 -17406900000.0 -27295500000.0 -15543900000.0 -13158100000.0 -49933100000.0 -35465800000.0 -19769700000.0 -28808300000.0 -49649100000.0 -58565200000.0 -42157500000.0 -16958600000.0 -14469600000.0 -27424000000.0 -22746600000.0 -16760700000.0 -15140100000.0 -20145800000.0 -18113100000.0 -29992400000.0 -21869800000.0 -12682300000.0 -18226200000.0 -18696100000.0 -17431500000.0 -24041600000.0 -15658900000.0 -16364800000.0 -17838700000.0 -23099100000.0 -12639700000.0 -12549700000.0 -17572200000.0 -14727500000.0 -18308300000.0 -17697700000.0 -16899000000.0 -26730400000.0 -25200900000.0 -33512000000.0 -20109500000.0 -24891500000.0 -37885900000.0 -23234300000.0 -37805700000.0 -35392900000.0 -22733200000.0 -21188500000.0 -16758300000.0 -33933500000.0 -18235700000.0 -12941100000.0 -20041500000.0 -18776500000.0 -24851400000.0 -15275100000.0 -19013500000.0 -16504600000.0 -19585400000.0 -15592200000.0 -12549700000.0 -26695300000.0 -30195500000.0 -15908600000.0 -14589200000.0 -17297900000.0 -17072700000.0 -12549700000.0 -18120900000.0 -23619800000.0 -22332700000.0 -18841500000.0 -28370200000.0 -17832700000.0 -18743900000.0 -18475300000.0 -18826000000.0 -26170100000.0 -14304700000.0 -13081100000.0 -18153100000.0 -14121100000.0 -13124500000.0 -30002900000.0 -22146000000.0 -15159600000.0 -21188800000.0 -16715300000.0 -13066700000.0 -30409700000.0 -14020200000.0 -20582300000.0 -25245100000.0 -28392800000.0 -28777900000.0 -23061500000.0 -21734200000.0 -25886100000.0 -26268200000.0 -34149300000.0 -34826100000.0 -18886500000.0 -18675900000.0 -23886000000.0 -27626000000.0 -12783800000.0 -32448700000.0 -12751600000.0 -32289100000.0 -29934600000.0 -29336400000.0 -21771900000.0 -16086000000.0 -15604200000.0 -17024700000.0 -20604800000.0 -23501300000.0 -16159800000.0 -25355600000.0 -18170800000.0 -18224300000.0 -18552800000.0 -14561500000.0 -12744700000.0 -12549700000.0 -13328300000.0 -17038700000.0 -12675800000.0 -12778900000.0 -15411700000.0 -12549700000.0 -14547000000.0 -14701000000.0 -14213200000.0 -22308700000.0 -19766300000.0 -21915500000.0 -31996400000.0 -23567200000.0 -22665000000.0 -18062400000.0 -17785100000.0 -22346600000.0 -34161300000.0 -21215600000.0 -23999000000.0 -13814900000.0 -13323400000.0 -37220300000.0 -16023900000.0 -29278600000.0 -28951400000.0 -63614600000.0 -23084400000.0 -24034800000.0 -12843000000.0 -15616800000.0 -12573600000.0 -12978500000.0 -18237200000.0 -17489700000.0 -18783100000.0 -13736000000.0 -22302300000.0 -17972800000.0 -16113800000.0 -15487300000.0 -16643900000.0 -16009500000.0 -23055900000.0 -14895100000.0 -21427400000.0 -16543200000.0 -23675300000.0 -12810000000.0 -12694300000.0 -13958400000.0 -12673200000.0 -19435800000.0 -12566400000.0 -12549700000.0 -16206900000.0 -18484800000.0 -33729000000.0 -22493900000.0 -27429700000.0 -29797500000.0 -31427500000.0 -21674600000.0 -29535500000.0 -18129300000.0 -20352400000.0 -20643100000.0 -17187100000.0 -12549700000.0 -17802700000.0 -20408900000.0 -37431100000.0 -22249300000.0 -17387900000.0 -13773500000.0 -18887000000.0 -17747600000.0 -18812300000.0 -19113100000.0 -18044200000.0 -14939700000.0 -25680600000.0 -15992200000.0 -17026000000.0 -12927900000.0 -22327000000.0 -26199900000.0 -18627900000.0 -18771400000.0 -19719100000.0 -13051800000.0 -17832800000.0 -14150500000.0 -18422700000.0 -14240300000.0 -12549700000.0 -15826100000.0 -14106700000.0 -12549700000.0 -12549700000.0 -13034900000.0 -15897800000.0 -13274000000.0 -12549700000.0 -14903100000.0 -12991800000.0 -13374900000.0 -13158300000.0 -12873600000.0 -16579400000.0 -18480900000.0 -14187200000.0 -12718700000.0 -17676700000.0 -15949200000.0 -15801200000.0 -12852600000.0 -15822300000.0 -26074900000.0 -23361300000.0 -23698000000.0 -29133500000.0 -16656800000.0 -35222500000.0 -15411400000.0 -37312200000.0 -26626300000.0 -21379700000.0 -20995500000.0 -16267500000.0 -14993200000.0 -18085300000.0 -14663000000.0 -14655700000.0 -16348600000.0 -16377100000.0 -20146600000.0 -16100600000.0 -15222100000.0 -15647500000.0 -17350200000.0 -17623800000.0 -20358000000.0 -22850600000.0 -20664600000.0 -14842300000.0 -14732600000.0 -13978500000.0 -12711500000.0 -12626600000.0 -14873300000.0 -13609900000.0 -12549700000.0 -12646500000.0 -13266700000.0 -18796900000.0 -22669500000.0 -15848100000.0 -13682200000.0 -19265900000.0 -16458900000.0 -16167800000.0 -15539800000.0 -19623500000.0 -18235400000.0 -17539700000.0 -18414000000.0 -16808300000.0 -16813400000.0 -17630700000.0 -18592800000.0 -17486500000.0 -15437300000.0 -15465100000.0 -15548400000.0 -15058100000.0 -13931000000.0 -16942100000.0 -26410800000.0 -18108500000.0 -16898900000.0 -15334800000.0 -15058900000.0 -13252900000.0 -17941400000.0 -16664900000.0 -12549700000.0 -13985700000.0 -14556000000.0 -13185500000.0 -15118500000.0 -12549700000.0 -16219100000.0 -13006100000.0 -12633600000.0 -14639200000.0 -12825400000.0 -12549700000.0 -12554400000.0 -12632300000.0 -14716700000.0 -12549700000.0 -12800600000.0 -14399700000.0 -12549700000.0 -12884000000.0 -13094800000.0 -14605700000.0 -13273800000.0 -14963600000.0 -13567400000.0 -12597000000.0 -15243800000.0 -13314000000.0 -13221500000.0 -15857000000.0 -14626700000.0 -16084100000.0 -18336200000.0 -17635700000.0 -18295800000.0 -14386700000.0 -21465500000.0 -18370900000.0 -21398000000.0 -30940000000.0 -16882400000.0 -18386300000.0 -19937300000.0 -18039100000.0 -15130800000.0 -14080600000.0 -13410200000.0 -12774900000.0 -13827100000.0 -14690700000.0 -14212500000.0 -12693800000.0 -14613700000.0 -14018800000.0 -12908800000.0 -13593400000.0 -17324600000.0 -15419600000.0 -12549700000.0 -15939500000.0 -14160300000.0 -14778700000.0 -13903000000.0 -14120300000.0 -13276900000.0 -13585900000.0 -12875900000.0 -12630900000.0 -12728100000.0 -14907700000.0 -15379200000.0 -13498400000.0 -12549700000.0 -14376500000.0 -13816600000.0 -15544900000.0 -13487000000.0 -13697900000.0 -14276300000.0 -13887600000.0 -13476400000.0 -13728000000.0 -12700800000.0 -13223300000.0 -13452900000.0 -13140600000.0 -12891100000.0 -13347900000.0 -12751300000.0 -12749800000.0 -12806400000.0 -16690200000.0 -12792600000.0 -16582600000.0 -15353300000.0 -13544200000.0 -13074800000.0 -12827100000.0 -13906600000.0 -12691300000.0 -13675100000.0 -13033500000.0 -12982600000.0 -12549700000.0 -13192700000.0 -12682400000.0 -13159400000.0 -13941200000.0 -13602800000.0 -13026100000.0 -12888700000.0 -12838200000.0 -12842200000.0 -12910500000.0 -13837300000.0 -13037200000.0 -13249100000.0 -12950500000.0 -12683100000.0 -12799500000.0 -12656600000.0 -13230100000.0 -12748500000.0 -13542300000.0 -13503000000.0 -13972800000.0 -12605800000.0 -13535400000.0 -14992500000.0 -14956500000.0 -15189700000.0 -13700900000.0 -13372100000.0 -14901700000.0 -15046500000.0 -13450100000.0 -15610600000.0 -14633100000.0 -13532900000.0 -17421600000.0 -13740600000.0 -12693500000.0 -15905000000.0 -12705700000.0 -12549700000.0 -12549700000.0 -13094300000.0 -12722800000.0 -12767100000.0 -12902000000.0 -13284500000.0 -13182500000.0 -12823000000.0 -12925700000.0 -12955900000.0 -12985600000.0 -13141900000.0 -14487500000.0 -12875900000.0 -13423000000.0 -13010200000.0 -13855200000.0 -13140700000.0 -13099600000.0 -13028600000.0 -12986100000.0 -12575200000.0 -12549700000.0 -12580800000.0 -13334700000.0 -12659600000.0 -13485200000.0 -12816600000.0 