# vtk DataFile Version 2.0
Time step 22
ASCII
DATASET UNSTRUCTURED_GRID
POINTS 5000 float
126335.0 424086.0 0
130866.0 421753.0 0
138114.0 417200.0 0
353525.0 417617.0 0
358881.0 420186.0 0
362071.0 416999.0 0
370774.0 423108.0 0
117197.0 429253.0 0
120520.0 427041.0 0
123873.0 427241.0 0
128302.0 427376.0 0
132981.0 426592.0 0
135764.0 421490.0 0
140543.0 426947.0 0
140531.0 422179.0 0
144356.0 424148.0 0
147508.0 421830.0 0
151317.0 423986.0 0
155218.0 424504.0 0
158328.0 422534.0 0
162716.0 423239.0 0
167016.0 423682.0 0
171861.0 422686.0 0
177619.0 423163.0 0
182763.0 422032.0 0
187456.0 424112.0 0
192500.0 425633.0 0
196087.0 424804.0 0
201621.0 424008.0 0
207638.0 424920.0 0
212952.0 424119.0 0
218127.0 425341.0 0
222478.0 425354.0 0
225788.0 424562.0 0
230455.0 424349.0 0
235806.0 425455.0 0
241152.0 424119.0 0
246472.0 426143.0 0
252648.0 424129.0 0
259014.0 424582.0 0
263724.0 425704.0 0
268669.0 424534.0 0
273867.0 424546.0 0
278891.0 423524.0 0
286176.0 425175.0 0
291577.0 425476.0 0
297229.0 423482.0 0
303523.0 424106.0 0
307631.0 426513.0 0
312059.0 424417.0 0
317876.0 425081.0 0
323095.0 424078.0 0
326884.0 426188.0 0
335304.0 421877.0 0
331350.0 424966.0 0
337732.0 424982.0 0
340956.0 421078.0 0
344978.0 423981.0 0
349381.0 422779.0 0
352843.0 425056.0 0
355647.0 423114.0 0
365453.0 420809.0 0
366577.0 426115.0 0
371677.0 428304.0 0
376198.0 426254.0 0
109696.0 434174.0 0
112976.0 434638.0 0
113741.0 431703.0 0
117386.0 434018.0 0
121008.0 430466.0 0
121971.0 434048.0 0
125592.0 431153.0 0
130095.0 430369.0 0
132520.0 431792.0 0
137246.0 425540.0 0
136133.0 430393.0 0
140851.0 431613.0 0
144466.0 428377.0 0
147574.0 425703.0 0
149985.0 428467.0 0
159037.0 426574.0 0
154787.0 429108.0 0
163238.0 428035.0 0
168332.0 428187.0 0
173673.0 428069.0 0
178985.0 428438.0 0
184023.0 426963.0 0
189001.0 428459.0 0
193833.0 429854.0 0
198479.0 429041.0 0
204210.0 429440.0 0
213891.0 428625.0 0
209612.0 429937.0 0
217722.0 430394.0 0
222132.0 430042.0 0
226917.0 428778.0 0
232180.0 429846.0 0
237654.0 430715.0 0
243246.0 430460.0 0
248536.0 430162.0 0
252742.0 430703.0 0
257326.0 429257.0 0
262241.0 429865.0 0
266981.0 429372.0 0
271591.0 428725.0 0
276797.0 428940.0 0
281920.0 426964.0 0
282839.0 430622.0 0
287500.0 430292.0 0
292465.0 430031.0 0
298210.0 429027.0 0
303110.0 429779.0 0
307452.0 429813.0 0
312556.0 429903.0 0
317273.0 429936.0 0
322563.0 428577.0 0
327014.0 430350.0 0
335316.0 428326.0 0
330532.0 429397.0 0
339637.0 428188.0 0
342941.0 426773.0 0
346982.0 427647.0 0
351406.0 428251.0 0
355497.0 427352.0 0
360730.0 425390.0 0
363734.0 429983.0 0
365873.0 432541.0 0
368282.0 430687.0 0
372094.0 433052.0 0
375476.0 431172.0 0
378891.0 430418.0 0
381095.0 428358.0 0
384884.0 430255.0 0
382256.0 431459.0 0
387980.0 432405.0 0
391259.0 434984.0 0
102031.0 439291.0 0
106040.0 436440.0 0
105717.0 439824.0 0
109340.0 438327.0 0
116569.0 438195.0 0
113271.0 437663.0 0
120338.0 438260.0 0
125188.0 435851.0 0
129025.0 433819.0 0
128662.0 437738.0 0
132663.0 435203.0 0
137112.0 435645.0 0
141978.0 436471.0 0
145540.0 433071.0 0
150690.0 433145.0 0
159698.0 431372.0 0
155920.0 434920.0 0
164974.0 433435.0 0
171204.0 433116.0 0
177372.0 434489.0 0
183005.0 432150.0 0
188716.0 434633.0 0
194859.0 434855.0 0
200468.0 434044.0 0
208576.0 435010.0 0
204767.0 434806.0 0
213652.0 433445.0 0
217859.0 435381.0 0
222588.0 434321.0 0
226907.0 433779.0 0
232436.0 435309.0 0
237394.0 435140.0 0
241798.0 435709.0 0
246838.0 434195.0 0
251755.0 435576.0 0
257716.0 434015.0 0
262700.0 434634.0 0
267450.0 433820.0 0
273005.0 433971.0 0
279302.0 433177.0 0
283101.0 435226.0 0
290142.0 434121.0 0
286661.0 435980.0 0
295844.0 433896.0 0
301350.0 434779.0 0
306762.0 434195.0 0
312252.0 434988.0 0
317279.0 434474.0 0
321109.0 432290.0 0
324301.0 435695.0 0
329029.0 434397.0 0
333173.0 432459.0 0
338066.0 432794.0 0
343191.0 431267.0 0
345790.0 435424.0 0
348301.0 431964.0 0
353296.0 433006.0 0
349689.0 436372.0 0
358466.0 430950.0 0
362501.0 435211.0 0
368535.0 435544.0 0
375508.0 435113.0 0
372778.0 437694.0 0
379854.0 434600.0 0
384600.0 434000.0 0
387555.0 436325.0 0
391107.0 438701.0 0
387811.0 440465.0 0
395376.0 437683.0 0
399348.0 439709.0 0
95212.0 443055.0 0
98311.7 440834.0 0
99634.2 443957.0 0
103555.0 442616.0 0
107765.0 442802.0 0
111477.0 440756.0 0
111399.0 443971.0 0
115497.0 442011.0 0
120250.0 443555.0 0
124919.0 440765.0 0
131740.0 438703.0 0
129658.0 442567.0 0
134790.0 440382.0 0
138314.0 439508.0 0
141138.0 441232.0 0
144043.0 439498.0 0
147781.0 437974.0 0
152350.0 437742.0 0
158439.0 439455.0 0
160513.0 436020.0 0
163135.0 438669.0 0
168376.0 437003.0 0
166605.0 440678.0 0
172785.0 438997.0 0
178595.0 441053.0 0
183298.0 437587.0 0
187470.0 440301.0 0
192433.0 439717.0 0
198004.0 439562.0 0
203774.0 439011.0 0
209280.0 441241.0 0
214797.0 439087.0 0
219010.0 440756.0 0
222118.0 438582.0 0
227585.0 439319.0 0
234505.0 439605.0 0
238076.0 438425.0 0
241849.0 440298.0 0
246302.0 439383.0 0
251493.0 440860.0 0
255828.0 438719.0 0
260287.0 438347.0 0
266197.0 438470.0 0
271573.0 440211.0 0
278190.0 438768.0 0
284310.0 440220.0 0
288762.0 438774.0 0
292929.0 440603.0 0
298876.0 440345.0 0
303979.0 440612.0 0
307500.0 440436.0 0
315256.0 438636.0 0
310933.0 439817.0 0
320027.0 438776.0 0
324657.0 440707.0 0
328335.0 438596.0 0
331581.0 442196.0 0
334832.0 437460.0 0
340999.0 438005.0 0
346846.0 440900.0 0
352646.0 439814.0 0
356969.0 437049.0 0
356896.0 441779.0 0
361422.0 440609.0 0
366800.0 439913.0 0
371135.0 441260.0 0
377530.0 439368.0 0
383442.0 438919.0 0
392987.0 442093.0 0
389016.0 443993.0 0
397023.0 441875.0 0
402401.0 441358.0 0
400925.0 444440.0 0
405275.0 443205.0 0
408494.0 445189.0 0
82521.6 450675.0 0
85436.2 448952.0 0
88147.2 447055.0 0
89138.2 449891.0 0
91819.7 445870.0 0
92592.3 450127.0 0
95745.7 446572.0 0
99823.9 448336.0 0
104358.0 446381.0 0
108758.0 447592.0 0
113620.0 446895.0 0
117306.0 447173.0 0
121186.0 447841.0 0
125179.0 446216.0 0
129596.0 447782.0 0
133820.0 445311.0 0
137756.0 443220.0 0
140995.0 445584.0 0
145701.0 443505.0 0
154601.0 441258.0 0
151069.0 444617.0 0
156300.0 446022.0 0
161835.0 443647.0 0
167280.0 445108.0 0
169904.0 442518.0 0
172213.0 446176.0 0
184011.0 444934.0 0
190207.0 444708.0 0
194638.0 443711.0 0
198922.0 445579.0 0
203699.0 444104.0 0
207534.0 446743.0 0
212332.0 445682.0 0
216421.0 443830.0 0
221230.0 444541.0 0
226503.0 445869.0 0
232132.0 444087.0 0
238095.0 443161.0 0
242909.0 445206.0 0
248059.0 444472.0 0
252868.0 444922.0 0
257685.0 443895.0 0
262575.0 441926.0 0
267255.0 444277.0 0
272277.0 446120.0 0
278044.0 445406.0 0
283109.0 444715.0 0
288373.0 444073.0 0
293073.0 444586.0 0
296960.0 446215.0 0
301405.0 444866.0 0
304798.0 445366.0 0
309594.0 445632.0 0
313908.0 442865.0 0
319038.0 444324.0 0
323753.0 444804.0 0
327428.0 444501.0 0
334933.0 445441.0 0
338831.0 443500.0 0
346209.0 446409.0 0
351158.0 445051.0 0
355815.0 445899.0 0
360033.0 444946.0 0
365136.0 444675.0 0
369850.0 444851.0 0
371907.0 448007.0 0
375288.0 444644.0 0
380998.0 443704.0 0
385329.0 443808.0 0
383967.0 447061.0 0
387316.0 447908.0 0
391941.0 446469.0 0
396326.0 446047.0 0
394331.0 450085.0 0
397396.0 450477.0 0
399585.0 448320.0 0
402453.0 448430.0 0
405126.0 446493.0 0
408388.0 448831.0 0
411664.0 447468.0 0
411462.0 450915.0 0
415236.0 450205.0 0
75790.5 455924.0 0
79401.7 453272.0 0
82902.0 454112.0 0
86584.5 452853.0 0
90826.4 453518.0 0
96274.9 450393.0 0
95212.5 454406.0 0
99741.5 452625.0 0
103129.0 450644.0 0
105861.0 449818.0 0
103835.0 453967.0 0
107764.0 452266.0 0
111519.0 450406.0 0
115099.0 450668.0 0
118749.0 450796.0 0
119988.0 453898.0 0
123307.0 451234.0 0
127280.0 451337.0 0
131910.0 452704.0 0
137204.0 449457.0 0
142655.0 449816.0 0
147498.0 448800.0 0
149675.0 452949.0 0
152618.0 449561.0 0
156655.0 450783.0 0
160285.0 449117.0 0
164615.0 448465.0 0
168831.0 450176.0 0
173910.0 451820.0 0
177939.0 447257.0 0
178127.0 451484.0 0
182357.0 451415.0 0
187890.0 449801.0 0
193358.0 449204.0 0
198527.0 451281.0 0
203171.0 448937.0 0
207150.0 451385.0 0
211037.0 449907.0 0
216790.0 449741.0 0
223056.0 449895.0 0
228645.0 451569.0 0
236054.0 448123.0 0
240948.0 450576.0 0
246392.0 451328.0 0
250768.0 449025.0 0
256609.0 450076.0 0
262651.0 447500.0 0
268061.0 449888.0 0
272680.0 450994.0 0
277612.0 451458.0 0
281720.0 448677.0 0
286673.0 450162.0 0
292503.0 449184.0 0
297215.0 451661.0 0
301184.0 448725.0 0
305428.0 450541.0 0
310474.0 451487.0 0
314640.0 447884.0 0
319661.0 450210.0 0
325112.0 449200.0 0
330847.0 448253.0 0
336898.0 450149.0 0
341780.0 447495.0 0
342148.0 452329.0 0
349286.0 449279.0 0
346133.0 451299.0 0
353903.0 450589.0 0
359206.0 449489.0 0
363433.0 448861.0 0
367761.0 449546.0 0
372031.0 451776.0 0
375943.0 450563.0 0
380234.0 448898.0 0
384398.0 451392.0 0
388524.0 452698.0 0
390825.0 449811.0 0
392609.0 452735.0 0
396081.0 454103.0 0
400894.0 452959.0 0
405495.0 451275.0 0
405184.0 455685.0 0
409438.0 453943.0 0
414656.0 454262.0 0
419249.0 452638.0 0
423502.0 455732.0 0
71562.3 459271.0 0
80319.8 457107.0 0
77048.7 460408.0 0
84790.8 457712.0 0
81510.2 460392.0 0
88528.0 456178.0 0
88531.5 460120.0 0
91859.4 457192.0 0
95797.2 459095.0 0
99680.8 456482.0 0
104521.0 458429.0 0
108186.0 456309.0 0
112100.0 454441.0 0
110904.0 458733.0 0
114528.0 458113.0 0
116357.0 454123.0 0
118557.0 457317.0 0
122979.0 456062.0 0
127264.0 455359.0 0
136406.0 453986.0 0
134505.0 456771.0 0
140311.0 454082.0 0
142132.0 457958.0 0
145286.0 454137.0 0
149318.0 457528.0 0
154114.0 454886.0 0
159885.0 454395.0 0
164942.0 452977.0 0
169380.0 455246.0 0
178273.0 455207.0 0
186667.0 454998.0 0
192388.0 455044.0 0
197922.0 456806.0 0
203225.0 454714.0 0
208133.0 455511.0 0
212523.0 454288.0 0
217553.0 456132.0 0
223662.0 455859.0 0
234290.0 452761.0 0
233670.0 457220.0 0
238708.0 456429.0 0
244058.0 455561.0 0
249229.0 455243.0 0
252520.0 453135.0 0
255536.0 456193.0 0
262359.0 454681.0 0
268532.0 454846.0 0
273274.0 455528.0 0
278105.0 456837.0 0
282554.0 454329.0 0
287796.0 456104.0 0
292940.0 454495.0 0
297196.0 457129.0 0
301930.0 454490.0 0
307430.0 456342.0 0
311947.0 455793.0 0
315169.0 453531.0 0
319517.0 455724.0 0
322845.0 453203.0 0
326885.0 454289.0 0
332541.0 452916.0 0
331001.0 456897.0 0
335920.0 456149.0 0
341062.0 457261.0 0
345886.0 456081.0 0
349809.0 453592.0 0
353686.0 456711.0 0
358150.0 454403.0 0
363567.0 453656.0 0
361248.0 457829.0 0
368871.0 454896.0 0
373040.0 454921.0 0
376067.0 454975.0 0
380641.0 454513.0 0
385879.0 456885.0 0
391985.0 456815.0 0
398815.0 456668.0 0
396473.0 457822.0 0
399750.0 460418.0 0
401953.0 457333.0 0
405050.0 460405.0 0
408282.0 457827.0 0
412439.0 457823.0 0
416448.0 458075.0 0
419046.0 456278.0 0
421078.0 460101.0 0
427941.0 457113.0 0
425322.0 458995.0 0
428242.0 460151.0 0
431680.0 460671.0 0
59041.1 465069.0 0
62702.6 463787.0 0
65333.8 466363.0 0
66699.9 461620.0 0
69982.8 465076.0 0
73462.7 462409.0 0
75140.3 464838.0 0
80052.1 464481.0 0
84407.9 462062.0 0
84191.1 466746.0 0
87402.7 464111.0 0
90969.9 463820.0 0
92147.1 460426.0 0
94183.1 462436.0 0
97298.2 463142.0 0
100000.0 460933.0 0
103788.0 462828.0 0
108519.0 461925.0 0
112851.0 461809.0 0
116813.0 461008.0 0
120880.0 459743.0 0
120220.0 463577.0 0
125316.0 460629.0 0
130448.0 458398.0 0
134685.0 461054.0 0
138234.0 458117.0 0
140533.0 462399.0 0
145257.0 458386.0 0
147005.0 461900.0 0
152410.0 462103.0 0
157298.0 459251.0 0
160924.0 461942.0 0
164354.0 458380.0 0
169309.0 460167.0 0
173885.0 457247.0 0
173129.0 461206.0 0
177693.0 460182.0 0
182467.0 457987.0 0
187855.0 459964.0 0
192453.0 460323.0 0
196993.0 462258.0 0
201930.0 460164.0 0
207432.0 460432.0 0
213212.0 459695.0 0
219987.0 461289.0 0
229255.0 457613.0 0
225092.0 461211.0 0
228827.0 461691.0 0
232899.0 460968.0 0
237007.0 461615.0 0
242299.0 459989.0 0
246733.0 459565.0 0
251550.0 459300.0 0
257725.0 461463.0 0
262664.0 460737.0 0
268145.0 460463.0 0
273927.0 460468.0 0
279135.0 462311.0 0
284330.0 460103.0 0
289594.0 461009.0 0
292949.0 458732.0 0
295737.0 461963.0 0
301375.0 460033.0 0
306177.0 461382.0 0
310883.0 460242.0 0
315144.0 458235.0 0
319215.0 460899.0 0
323900.0 458838.0 0
328504.0 460916.0 0
333827.0 461761.0 0
338392.0 460839.0 0
341772.0 461675.0 0
345576.0 461044.0 0
349868.0 459690.0 0
357793.0 458869.0 0
354724.0 462706.0 0
360204.0 462471.0 0
366239.0 460513.0 0
372933.0 458882.0 0
371467.0 463345.0 0
375600.0 463176.0 0
378028.0 458949.0 0
381988.0 459218.0 0
380376.0 463399.0 0
385235.0 462247.0 0
390019.0 461441.0 0
395077.0 461455.0 0
398530.0 464617.0 0
402739.0 464304.0 0
407691.0 464666.0 0
410418.0 461549.0 0
412397.0 465640.0 0
416055.0 462155.0 0
421067.0 464404.0 0
425312.0 462767.0 0
429797.0 464512.0 0
433757.0 464973.0 0
435397.0 462384.0 0
438586.0 465293.0 0
52244.3 469616.0 0
56406.7 468515.0 0
60158.0 470973.0 0
61122.5 467229.0 0
63511.9 469426.0 0
67532.1 470261.0 0
72615.1 468779.0 0
76745.7 468065.0 0
80220.4 469934.0 0
85055.5 471401.0 0
89207.6 468580.0 0
94831.8 467222.0 0
100416.0 466197.0 0
105951.0 466276.0 0
110808.0 466052.0 0
115382.0 464716.0 0
114087.0 468187.0 0
118599.0 468246.0 0
124586.0 466486.0 0
130026.0 463786.0 0
135685.0 466497.0 0
144335.0 465441.0 0
140814.0 467201.0 0
148929.0 466661.0 0
157222.0 463868.0 0
160942.0 466135.0 0
165507.0 464140.0 0
170732.0 464669.0 0
175495.0 464540.0 0
183843.0 462688.0 0
179776.0 464161.0 0
182701.0 467155.0 0
187572.0 466117.0 0
192490.0 464816.0 0
201688.0 465768.0 0
207671.0 466396.0 0
212470.0 464630.0 0
217070.0 466113.0 0
221823.0 466922.0 0
226269.0 465729.0 0
231198.0 465028.0 0
236013.0 466336.0 0
241390.0 464873.0 0
246808.0 464496.0 0
252481.0 464812.0 0
257629.0 466723.0 0
263495.0 466252.0 0
269382.0 466148.0 0
274341.0 465478.0 0
283752.0 464547.0 0
288273.0 465959.0 0
292380.0 464464.0 0
298039.0 466595.0 0
302706.0 464931.0 0
306667.0 465315.0 0
311020.0 465457.0 0
315939.0 464290.0 0
320720.0 466072.0 0
325035.0 463771.0 0
329944.0 465842.0 0
334080.0 468113.0 0
336420.0 465546.0 0
339666.0 464709.0 0
343626.0 465030.0 0
349187.0 465785.0 0
354037.0 468653.0 0
358221.0 467214.0 0
363431.0 466277.0 0
368531.0 466488.0 0
373254.0 467207.0 0
377230.0 467030.0 0
380802.0 467867.0 0
384481.0 466948.0 0
392956.0 465371.0 0
389042.0 466435.0 0
395650.0 465193.0 0
396042.0 468991.0 0
400368.0 467917.0 0
405458.0 469088.0 0
410080.0 468124.0 0
413713.0 469959.0 0
416926.0 466885.0 0
421248.0 468394.0 0
425549.0 467160.0 0
430149.0 468727.0 0
432959.0 467301.0 0
433919.0 471280.0 0
435765.0 468066.0 0
437380.0 471790.0 0
443235.0 467557.0 0
439753.0 469398.0 0
446606.0 469641.0 0
450236.0 472722.0 0
42547.6 476130.0 0
45515.4 473984.0 0
49401.1 472515.0 0
53726.1 472520.0 0
51752.3 475624.0 0
56776.2 472976.0 0
59916.2 475036.0 0
63828.5 473400.0 0
67298.4 475134.0 0
70942.5 472676.0 0
75432.9 471335.0 0
74100.7 475383.0 0
77857.8 473701.0 0
81717.1 474572.0 0
88412.0 472948.0 0
86102.2 475374.0 0
89450.2 476296.0 0
93000.4 473027.0 0
98386.0 471296.0 0
103012.0 470236.0 0
106044.0 473939.0 0
107469.0 469612.0 0
111029.0 471012.0 0
115321.0 471099.0 0
117904.0 473731.0 0
120884.0 471620.0 0
125440.0 472084.0 0
130230.0 469091.0 0
133979.0 471545.0 0
138918.0 471874.0 0
144153.0 469922.0 0
148351.0 471477.0 0
154503.0 468584.0 0
156508.0 473524.0 0
160073.0 470889.0 0
164385.0 469004.0 0
168963.0 469387.0 0
175096.0 470655.0 0
180406.0 470182.0 0
184454.0 471790.0 0
190569.0 470870.0 0
196410.0 467866.0 0
195038.0 471914.0 0
200180.0 470658.0 0
204332.0 471021.0 0
208697.0 471544.0 0
212933.0 469298.0 0
219307.0 470854.0 0
223567.0 470341.0 0
227735.0 470465.0 0
232476.0 469560.0 0
237711.0 470845.0 0
242273.0 471199.0 0
246611.0 469322.0 0
251737.0 471027.0 0
257252.0 471006.0 0
262087.0 472469.0 0
267439.0 470322.0 0
271501.0 469898.0 0
279649.0 467646.0 0
275829.0 470311.0 0
284032.0 468933.0 0
288146.0 471435.0 0
293088.0 469048.0 0
297736.0 471329.0 0
301657.0 470698.0 0
305526.0 469115.0 0
310269.0 471024.0 0
315049.0 469028.0 0
318970.0 471700.0 0
322089.0 470002.0 0
325567.0 468440.0 0
330250.0 471596.0 0
338521.0 468827.0 0
335496.0 472238.0 0
344127.0 470528.0 0
350482.0 472276.0 0
356549.0 473321.0 0
361779.0 471268.0 0
366109.0 469943.0 0
370273.0 471340.0 0
374937.0 471102.0 0
378838.0 471111.0 0
383172.0 470941.0 0
387197.0 470904.0 0
391643.0 470377.0 0
394109.0 473924.0 0
397978.0 473374.0 0
401381.0 471818.0 0
405756.0 475197.0 0
410124.0 472309.0 0
414646.0 475121.0 0
417873.0 471416.0 0
419354.0 475203.0 0
423163.0 472628.0 0
427260.0 471451.0 0
427338.0 475657.0 0
430587.0 473356.0 0
434157.0 474856.0 0
437404.0 474901.0 0
442180.0 473309.0 0
446303.0 474220.0 0
455241.0 474716.0 0
452295.0 477153.0 0
38939.9 478249.0 0
35221.2 480532.0 0
38193.9 481000.0 0
42876.6 479974.0 0
47271.0 477213.0 0
46993.0 481287.0 0
51429.0 479922.0 0
55698.9 476726.0 0
56350.6 480997.0 0
60075.4 478872.0 0
63911.5 477401.0 0
70148.1 476687.0 0
72550.9 479696.0 0
77749.5 478757.0 0
83435.9 478908.0 0
88148.7 480759.0 0
97074.2 475842.0 0
101118.0 475139.0 0
103714.0 478693.0 0
107548.0 478031.0 0
110017.0 475349.0 0
113795.0 474889.0 0
116856.0 478779.0 0
121478.0 475892.0 0
126214.0 477474.0 0
130430.0 474234.0 0
130809.0 479090.0 0
135011.0 475890.0 0
139174.0 478087.0 0
143721.0 475433.0 0
148503.0 475543.0 0
152235.0 473822.0 0
151144.0 478132.0 0
155080.0 476989.0 0
160292.0 475433.0 0
164056.0 473659.0 0
168967.0 474930.0 0
173464.0 476121.0 0
178296.0 476420.0 0
183422.0 476729.0 0
188016.0 475649.0 0
193147.0 475792.0 0
198772.0 475500.0 0
203703.0 475064.0 0
208029.0 476293.0 0
212596.0 474274.0 0
217631.0 475970.0 0
222827.0 474533.0 0
227701.0 476168.0 0
232561.0 474263.0 0
237131.0 475162.0 0
241435.0 475681.0 0
246117.0 474344.0 0
254429.0 475456.0 0
250275.0 476100.0 0
258702.0 476120.0 0
267225.0 475647.0 0
272252.0 473784.0 0
276919.0 475586.0 0
282806.0 474276.0 0
287701.0 475965.0 0
292154.0 474556.0 0
296700.0 475372.0 0
301373.0 475485.0 0
306049.0 473798.0 0
310423.0 476295.0 0
314803.0 474011.0 0
318837.0 476128.0 0
324220.0 474452.0 0
329878.0 477742.0 0
339755.0 474471.0 0
335386.0 477097.0 0
345042.0 476074.0 0
349306.0 477503.0 0
353925.0 478113.0 0
358153.0 478577.0 0
361808.0 476445.0 0
366021.0 474357.0 0
369812.0 476458.0 0
373247.0 474431.0 0
373240.0 477597.0 0
377021.0 475248.0 0
381727.0 474759.0 0
379795.0 478662.0 0
384172.0 478729.0 0
385961.0 475056.0 0
388358.0 478548.0 0
389986.0 474530.0 0
392492.0 478018.0 0
397681.0 478519.0 0
401424.0 475815.0 0
403388.0 479507.0 0
410481.0 476675.0 0
408304.0 480090.0 0
413159.0 480232.0 0
418348.0 479586.0 0
423469.0 477593.0 0
428048.0 480386.0 0
435420.0 477693.0 0
431342.0 476985.0 0
432705.0 480102.0 0
439586.0 477850.0 0
443746.0 478057.0 0
447653.0 477607.0 0
450494.0 480937.0 0
455038.0 480828.0 0
458639.0 477757.0 0
458902.0 482182.0 0
463406.0 480975.0 0
23759.5 486826.0 0
27465.2 485304.0 0
31781.3 483901.0 0
36231.9 485185.0 0
40202.1 483638.0 0
44078.5 484650.0 0
48554.4 484981.0 0
52898.0 484030.0 0
57294.9 485816.0 0
59902.9 482609.0 0
63345.1 481738.0 0
61798.7 485560.0 0
67527.4 479893.0 0
70535.6 483310.0 0
74847.9 483623.0 0
78239.2 485797.0 0
80456.9 482715.0 0
84254.5 483374.0 0
86915.3 485718.0 0
93499.9 479109.0 0
99001.3 480064.0 0
95581.1 483054.0 0
102581.0 482653.0 0
107019.0 482035.0 0
111435.0 479322.0 0
113346.0 482943.0 0
117756.0 484074.0 0
121999.0 480910.0 0
126861.0 482495.0 0
131325.0 483827.0 0
135162.0 480728.0 0
139230.0 482384.0 0
143062.0 480701.0 0
147221.0 479397.0 0
154170.0 481094.0 0
150091.0 482010.0 0
158639.0 479450.0 0
163848.0 478758.0 0
169268.0 481046.0 0
174888.0 480706.0 0
179902.0 481675.0 0
185077.0 481314.0 0
190256.0 480303.0 0
195106.0 480243.0 0
204307.0 479254.0 0
199824.0 481254.0 0
208653.0 481376.0 0
213381.0 479581.0 0
218047.0 481270.0 0
222500.0 480353.0 0
227494.0 480739.0 0
231337.0 478354.0 0
231723.0 482523.0 0
235260.0 479135.0 0
241074.0 480065.0 0
246291.0 480234.0 0
252723.0 480778.0 0
257761.0 479885.0 0
262469.0 479066.0 0
268372.0 480372.0 0
272209.0 478435.0 0
276390.0 480630.0 0
282215.0 480048.0 0
287201.0 480315.0 0
292356.0 479997.0 0
296996.0 479247.0 0
301242.0 480881.0 0
305980.0 478641.0 0
310504.0 481473.0 0
316238.0 480651.0 0
321870.0 480040.0 0
325668.0 479221.0 0
329320.0 482076.0 0
333268.0 482352.0 0
338193.0 481383.0 0
341747.0 478606.0 0
345773.0 480971.0 0
351245.0 482794.0 0
357008.0 483235.0 0
362084.0 481454.0 0
366340.0 479120.0 0
370975.0 481220.0 0
375873.0 479530.0 0
376006.0 484193.0 0
381488.0 483027.0 0
386485.0 482616.0 0
391210.0 482409.0 0
395986.0 483608.0 0
400908.0 483454.0 0
406008.0 483758.0 0
411046.0 484247.0 0
416629.0 484468.0 0
423122.0 482090.0 0
426994.0 485084.0 0
431965.0 484435.0 0
436828.0 481725.0 0
439685.0 484707.0 0
441959.0 481986.0 0
444967.0 485560.0 0
446888.0 481942.0 0
449238.0 486311.0 0
452087.0 483845.0 0
455898.0 484717.0 0
459626.0 486057.0 0
462016.0 484360.0 0
463172.0 486989.0 0
465121.0 485179.0 0
468629.0 484083.0 0
473150.0 486112.0 0
17034.8 492475.0 0
21271.6 489947.0 0
26356.9 489140.0 0
31359.4 488449.0 0
36434.8 489645.0 0
40490.7 487479.0 0
40720.7 491570.0 0
44612.8 488706.0 0
49567.6 489606.0 0
53008.8 487570.0 0
60291.6 489250.0 0
66356.6 485849.0 0
71581.8 487002.0 0
68950.4 490419.0 0
72742.7 490769.0 0
75109.1 488301.0 0
78510.6 489319.0 0
82324.5 486855.0 0
85227.7 489091.0 0
91586.6 484652.0 0
93916.2 488662.0 0
98902.2 486409.0 0
104452.0 486724.0 0
109659.0 486326.0 0
114130.0 486758.0 0
122299.0 486160.0 0
126890.0 487451.0 0
131645.0 488670.0 0
135642.0 485566.0 0
140159.0 486444.0 0
143814.0 488238.0 0
146270.0 484086.0 0
147968.0 488367.0 0
152575.0 486313.0 0
158253.0 484629.0 0
164103.0 485175.0 0
172786.0 485464.0 0
177054.0 486953.0 0
181251.0 486319.0 0
184600.0 485222.0 0
188568.0 485443.0 0
193890.0 484938.0 0
199114.0 486962.0 0
203871.0 484339.0 0
207586.0 486835.0 0
211650.0 485237.0 0
216263.0 485761.0 0
221661.0 485465.0 0
227570.0 486010.0 0
237604.0 484785.0 0
243866.0 485427.0 0
248915.0 485231.0 0
254137.0 486907.0 0
257328.0 483216.0 0
260249.0 485277.0 0
265329.0 484220.0 0
272197.0 484724.0 0
279259.0 485365.0 0
284961.0 484413.0 0
289584.0 484260.0 0
293187.0 487641.0 0
296501.0 484126.0 0
301351.0 486180.0 0
305756.0 483881.0 0
310562.0 487635.0 0
316482.0 486484.0 0
321393.0 485132.0 0
325719.0 483004.0 0
329706.0 485836.0 0
334039.0 487082.0 0
337624.0 485825.0 0
342179.0 485001.0 0
347296.0 486682.0 0
353393.0 487896.0 0
358174.0 488123.0 0
362229.0 486288.0 0
366469.0 484282.0 0
367284.0 489138.0 0
371088.0 486585.0 0
375058.0 488970.0 0
380341.0 488755.0 0
384720.0 486487.0 0
388630.0 486762.0 0
393123.0 487553.0 0
398272.0 487854.0 0
403138.0 488008.0 0
408135.0 488057.0 0
413652.0 489559.0 0
419064.0 489166.0 0
422271.0 486412.0 0
426002.0 488586.0 0
429709.0 489285.0 0
433879.0 488218.0 0
433285.0 490298.0 0
437074.0 486800.0 0
436561.0 491039.0 0
439592.0 489784.0 0
441693.0 487195.0 0
442477.0 490579.0 0
446351.0 489742.0 0
453423.0 487696.0 0
450993.0 490461.0 0
454980.0 491660.0 0
457355.0 488806.0 0
462006.0 490406.0 0
466410.0 488913.0 0
470486.0 489159.0 0
473896.0 490088.0 0
476698.0 488321.0 0
480404.0 490296.0 0
13388.5 494057.0 0
10316.7 497089.0 0
15163.7 496838.0 0
19935.7 495111.0 0
24803.8 493930.0 0
29471.7 492662.0 0
33154.3 492193.0 0
29136.6 495958.0 0
32438.4 495761.0 0
36386.7 494293.0 0
40522.8 496702.0 0
45566.5 493445.0 0
44556.4 497117.0 0
47606.7 497395.0 0
50849.1 493984.0 0
51692.3 497742.0 0
55314.9 490928.0 0
59693.9 493543.0 0
64152.8 490898.0 0
67478.1 494055.0 0
71517.0 494584.0 0
76174.8 493129.0 0
81537.8 491858.0 0
83750.3 494898.0 0
85552.1 491799.0 0
89274.3 489518.0 0
92416.2 492910.0 0
97221.5 492413.0 0
102161.0 490590.0 0
106871.0 491241.0 0
112148.0 490779.0 0
117930.0 489914.0 0
119907.0 494787.0 0
123318.0 490958.0 0
127944.0 492315.0 0
133078.0 493801.0 0
137288.0 490392.0 0
140803.0 493072.0 0
145804.0 493135.0 0
150870.0 491516.0 0
155634.0 491105.0 0
160443.0 489149.0 0
164288.0 491982.0 0
168692.0 489060.0 0
174127.0 490307.0 0
179563.0 491408.0 0
184995.0 489405.0 0
191605.0 490055.0 0
196526.0 491640.0 0
203991.0 489520.0 0
200878.0 492304.0 0
209175.0 490695.0 0
213484.0 489550.0 0
218518.0 490347.0 0
223495.0 490366.0 0
227763.0 491021.0 0
232776.0 490114.0 0
237960.0 490785.0 0
242237.0 489606.0 0
246565.0 489531.0 0
251416.0 491349.0 0
257584.0 491208.0 0
262572.0 489443.0 0
267964.0 489476.0 0
273388.0 491351.0 0
279169.0 491532.0 0
283644.0 488697.0 0
288696.0 489375.0 0
293434.0 491849.0 0
298370.0 490301.0 0
302281.0 489513.0 0
302574.0 492636.0 0
305506.0 489819.0 0
314629.0 490903.0 0
319456.0 491366.0 0
325381.0 489390.0 0
331159.0 490687.0 0
334946.0 493060.0 0
337560.0 489917.0 0
343203.0 491283.0 0
349106.0 491165.0 0
353978.0 493474.0 0
358320.0 492012.0 0
362826.0 491490.0 0
367713.0 493815.0 0
371619.0 491414.0 0
376536.0 493548.0 0
386132.0 491024.0 0
390961.0 491618.0 0
395606.0 491875.0 0
400426.0 492161.0 0
405284.0 492670.0 0
409497.0 491890.0 0
413939.0 495494.0 0
418499.0 493468.0 0
423635.0 491810.0 0
429013.0 493787.0 0
432980.0 492955.0 0
440465.0 493007.0 0
437071.0 495878.0 0
444644.0 493765.0 0
449143.0 493998.0 0
453101.0 494509.0 0
458605.0 492603.0 0
457322.0 496188.0 0
465376.0 492565.0 0
462178.0 495110.0 0
468715.0 492613.0 0
466687.0 495707.0 0
470095.0 496022.0 0
472833.0 493547.0 0
476793.0 492151.0 0
476971.0 496605.0 0
480197.0 493678.0 0
483852.0 492908.0 0
485018.0 497208.0 0
487608.0 495199.0 0
491086.0 496945.0 0
6469.48 498408.0 0
2836.4 500066.0 0
7953.22 501757.0 0
13013.2 501231.0 0
18031.7 499425.0 0
22595.9 498555.0 0
26774.8 497681.0 0
30615.6 499250.0 0
35253.5 498972.0 0
39316.9 500954.0 0
43838.1 500810.0 0
49444.3 501970.0 0
55436.1 495763.0 0
54718.2 500251.0 0
59406.2 498814.0 0
63946.3 499667.0 0
63772.1 495715.0 0
68299.7 498311.0 0
73633.0 498655.0 0
79550.7 497649.0 0
84552.4 497700.0 0
87960.0 494571.0 0
87836.0 499430.0 0
92345.3 497648.0 0
97215.2 497616.0 0
101520.0 494955.0 0
105696.0 495758.0 0
110481.0 495564.0 0
114935.0 494088.0 0
116663.0 498031.0 0
124281.0 495910.0 0
129003.0 497365.0 0
133252.0 498737.0 0
137268.0 496906.0 0
141939.0 497271.0 0
146077.0 498245.0 0
150564.0 496598.0 0
159742.0 493895.0 0
155861.0 497327.0 0
163910.0 498374.0 0
170698.0 495407.0 0
177204.0 496990.0 0
182777.0 496168.0 0
187385.0 493889.0 0
192147.0 495319.0 0
196794.0 496319.0 0
201583.0 497084.0 0
205888.0 494152.0 0
209003.0 496911.0 0
211751.0 494298.0 0
216612.0 495437.0 0
221797.0 494770.0 0
226751.0 495502.0 0
232053.0 494391.0 0
236161.0 495678.0 0
241511.0 494112.0 0
246826.0 494637.0 0
251461.0 495599.0 0
256165.0 496329.0 0
261476.0 494766.0 0
266239.0 493925.0 0
270445.0 496204.0 0
276432.0 496351.0 0
284561.0 493782.0 0
289774.0 494223.0 0
293360.0 496430.0 0
296811.0 494546.0 0
303921.0 497496.0 0
307085.0 493418.0 0
308757.0 496740.0 0
311302.0 493367.0 0
312641.0 497678.0 0
315799.0 494927.0 0
320210.0 497244.0 0
324639.0 494830.0 0
329625.0 495537.0 0
333958.0 497518.0 0
338791.0 495929.0 0
343651.0 496775.0 0
347307.0 495156.0 0
350760.0 497413.0 0
359404.0 496489.0 0
364373.0 496843.0 0
368299.0 498408.0 0
372004.0 495898.0 0
375819.0 497933.0 0
380150.0 498763.0 0
381917.0 494187.0 0
385532.0 497008.0 0
388930.0 494985.0 0
393071.0 495987.0 0
398113.0 496551.0 0
402914.0 497611.0 0
406404.0 496522.0 0
409620.0 495568.0 0
411433.0 498754.0 0
414152.0 499686.0 0
417793.0 498467.0 0
421961.0 496677.0 0
424872.0 499470.0 0
425822.0 495789.0 0
432371.0 496300.0 0
429240.0 499223.0 0
434332.0 500409.0 0
439538.0 500667.0 0
442440.0 497256.0 0
445109.0 501869.0 0
447530.0 497645.0 0
449682.0 501120.0 0
452624.0 498401.0 0
457226.0 500593.0 0
461182.0 499136.0 0
464689.0 498113.0 0
465121.0 501612.0 0
468705.0 499593.0 0
473031.0 498525.0 0
481808.0 496671.0 0
480000.0 500656.0 0
484509.0 500563.0 0
488498.0 499494.0 0
492452.0 501607.0 0
493987.0 498751.0 0
497603.0 500067.0 0
2469.28 504223.0 0
6363.03 505971.0 0
17318.5 502993.0 0
10656.8 505377.0 0
14940.2 506018.0 0
20992.2 502017.0 0
22752.5 504159.0 0
19904.5 506244.0 0
25951.5 501735.0 0
30759.8 503845.0 0
36236.3 503201.0 0
40677.7 503632.0 0
44873.4 506555.0 0
53870.3 503724.0 0
55646.1 506510.0 0
57367.3 503001.0 0
61734.8 502695.0 0
63295.0 506013.0 0
65819.9 502773.0 0
70301.4 502540.0 0
73973.8 502933.0 0
76590.5 505458.0 0
76880.4 501604.0 0
81134.3 503972.0 0
83891.7 500604.0 0
86438.8 503366.0 0
90588.6 502300.0 0
93910.8 501442.0 0
97036.1 501869.0 0
101553.0 500341.0 0
107111.0 500084.0 0
112324.0 500637.0 0
109385.0 504248.0 0
112710.0 504635.0 0
117032.0 503734.0 0
121259.0 499992.0 0
125909.0 500765.0 0
130449.0 502277.0 0
135598.0 501629.0 0
139358.0 500902.0 0
143563.0 501649.0 0
148705.0 502231.0 0
154104.0 503229.0 0
158693.0 501425.0 0
162022.0 503978.0 0
169375.0 502108.0 0
174035.0 500771.0 0
180719.0 500212.0 0
185447.0 501222.0 0
190668.0 499857.0 0
194868.0 501257.0 0
198548.0 500138.0 0
203631.0 501105.0 0
206443.0 498783.0 0
212432.0 499861.0 0
216975.0 499935.0 0
221135.0 499612.0 0
225874.0 500380.0 0
231102.0 498803.0 0
235802.0 500658.0 0
240493.0 499327.0 0
248523.0 499383.0 0
252633.0 499232.0 0
259993.0 499368.0 0
256090.0 501322.0 0
265405.0 499168.0 0
270024.0 503139.0 0
272722.0 499670.0 0
275438.0 500308.0 0
281619.0 499284.0 0
287886.0 498944.0 0
292983.0 501075.0 0
298134.0 498970.0 0
307971.0 500449.0 0
312111.0 502366.0 0
316164.0 499976.0 0
322209.0 502309.0 0
326265.0 499276.0 0
331010.0 500145.0 0
334392.0 502038.0 0
339263.0 501379.0 0
344081.0 500993.0 0
348394.0 500682.0 0
354892.0 499686.0 0
360048.0 502545.0 0
365093.0 501054.0 0
368955.0 504200.0 0
372547.0 500691.0 0
376837.0 501379.0 0
384539.0 501778.0 0
389874.0 499923.0 0
395245.0 500632.0 0
399739.0 501266.0 0
403772.0 502149.0 0
407679.0 499958.0 0
411651.0 502473.0 0
416579.0 503810.0 0
421577.0 501538.0 0
426231.0 503472.0 0
430977.0 504354.0 0
436575.0 505310.0 0
441401.0 504499.0 0
449472.0 505050.0 0
453374.0 503034.0 0
461300.0 503218.0 0
457707.0 505230.0 0
464698.0 505421.0 0
471936.0 502497.0 0
468403.0 504285.0 0
475797.0 501609.0 0
475120.0 504354.0 0
478703.0 504686.0 0
483366.0 504715.0 0
487627.0 503412.0 0
491275.0 505309.0 0
496947.0 504650.0 0
2431.6 508595.0 0
9278.78 508749.0 0
6201.15 510680.0 0
12675.4 509392.0 0
16876.0 510052.0 0
21576.7 510363.0 0
25506.6 506792.0 0
25907.9 510674.0 0
29718.3 508855.0 0
33936.7 506988.0 0
38873.3 507015.0 0
40933.9 510737.0 0
45310.5 512226.0 0
51041.8 506722.0 0
49001.0 510144.0 0
53600.1 510884.0 0
59756.3 505821.0 0
58529.3 509747.0 0
67585.6 507477.0 0
72621.7 506677.0 0
76307.4 509989.0 0
81003.8 509101.0 0
85223.1 507498.0 0
89361.4 505790.0 0
93846.7 505787.0 0
99238.3 505623.0 0
102166.0 508907.0 0
104643.0 504983.0 0
111255.0 507515.0 0
120145.0 507848.0 0
123306.0 504576.0 0
127061.0 504121.0 0
129494.0 507574.0 0
135028.0 506152.0 0
140510.0 505455.0 0
145864.0 507663.0 0
150963.0 506572.0 0
158268.0 506287.0 0
154336.0 508551.0 0
165411.0 504330.0 0
172906.0 505081.0 0
169574.0 507644.0 0
177856.0 504498.0 0
183432.0 506587.0 0
190009.0 505044.0 0
195054.0 505707.0 0
200137.0 504631.0 0
204226.0 506651.0 0
208023.0 503797.0 0
211415.0 507514.0 0
216537.0 505452.0 0
222016.0 503904.0 0
226753.0 505626.0 0
232692.0 504747.0 0
238672.0 504549.0 0
244765.0 503559.0 0
251366.0 504242.0 0
256812.0 505848.0 0
261794.0 503951.0 0
266207.0 507243.0 0
274010.0 506057.0 0
277693.0 503399.0 0
283091.0 505597.0 0
288505.0 504238.0 0
292774.0 506494.0 0
296681.0 503847.0 0
302397.0 503952.0 0
308082.0 505006.0 0
317202.0 505164.0 0
322672.0 507739.0 0
327092.0 504428.0 0
332065.0 506596.0 0
337392.0 506262.0 0
342544.0 505566.0 0
347548.0 505124.0 0
351778.0 503279.0 0
355557.0 506601.0 0
360342.0 508354.0 0
364397.0 506255.0 0
368030.0 508611.0 0
375034.0 504726.0 0
372543.0 508587.0 0
377866.0 509841.0 0
380006.0 504827.0 0
381730.0 508415.0 0
384820.0 507039.0 0
388253.0 504447.0 0
389308.0 508361.0 0
392860.0 504846.0 0
397883.0 505203.0 0
402981.0 506839.0 0
407797.0 504799.0 0
412172.0 507182.0 0
417005.0 509446.0 0
422029.0 506947.0 0
427562.0 508370.0 0
432833.0 509462.0 0
440659.0 508029.0 0
438026.0 510522.0 0
445307.0 507691.0 0
442382.0 511572.0 0
449610.0 509518.0 0
453595.0 507990.0 0
455601.0 511966.0 0
461835.0 507933.0 0
457887.0 509258.0 0
467148.0 508463.0 0
472171.0 507011.0 0
470702.0 510654.0 0
476611.0 507158.0 0
481413.0 509147.0 0
487012.0 507983.0 0
489201.0 511605.0 0
492646.0 508806.0 0
497315.0 509548.0 0
2643.99 513259.0 0
9970.51 512565.0 0
14177.5 513423.0 0
18573.6 514238.0 0
23600.4 514258.0 0
28629.2 513406.0 0
34865.3 512384.0 0
40792.1 515811.0 0
45962.4 516221.0 0
50099.3 514439.0 0
57426.0 514434.0 0
63246.3 511049.0 0
71220.2 511762.0 0
67143.3 514686.0 0
75182.7 515030.0 0
79790.8 513627.0 0
84544.0 512038.0 0
89535.8 510162.0 0
92181.8 514097.0 0
94471.2 510581.0 0
98523.8 510219.0 0
101956.0 513085.0 0
106983.0 510276.0 0
115514.0 509714.0 0
120168.0 512327.0 0
124441.0 509713.0 0
128479.0 513432.0 0
133536.0 511483.0 0
138986.0 510762.0 0
143572.0 512460.0 0
150469.0 511109.0 0
155303.0 513079.0 0
159666.0 510896.0 0
164251.0 508635.0 0
167997.0 512414.0 0
173553.0 509251.0 0
178560.0 510026.0 0
182988.0 511685.0 0
187319.0 509379.0 0
192631.0 510041.0 0
197176.0 510560.0 0
201657.0 510141.0 0
207297.0 509939.0 0
212928.0 510575.0 0
217868.0 511387.0 0
222102.0 508608.0 0
226865.0 510721.0 0
231608.0 510336.0 0
236493.0 509612.0 0
241301.0 509098.0 0
240113.0 512458.0 0
244097.0 513199.0 0
245861.0 508885.0 0
250459.0 510133.0 0
255199.0 510011.0 0
260762.0 510110.0 0
266656.0 512807.0 0
271012.0 509729.0 0
277923.0 509373.0 0
283009.0 512451.0 0
288074.0 509514.0 0
293093.0 511373.0 0
297976.0 509002.0 0
303029.0 509460.0 0
307702.0 509961.0 0
313759.0 510725.0 0
318802.0 509783.0 0
321585.0 513413.0 0
327752.0 509829.0 0
331893.0 510870.0 0
335448.0 510650.0 0
340736.0 511075.0 0
345508.0 509102.0 0
345330.0 512687.0 0
350563.0 509861.0 0
355404.0 511566.0 0
359744.0 513103.0 0
364744.0 511465.0 0
370037.0 513538.0 0
374639.0 512705.0 0
382531.0 511793.0 0
386957.0 513801.0 0
386407.0 510890.0 0
389764.0 512549.0 0
393844.0 509883.0 0
392707.0 513652.0 0
396185.0 514061.0 0
399022.0 510179.0 0
403951.0 511275.0 0
407863.0 509519.0 0
407220.0 514399.0 0
412627.0 512521.0 0
419364.0 513884.0 0
422998.0 515609.0 0
423937.0 511972.0 0
425184.0 515207.0 0
429287.0 514342.0 0
435393.0 514515.0 0
439713.0 514228.0 0
443104.0 515192.0 0
447083.0 513531.0 0
451998.0 513010.0 0
464114.0 511386.0 0
459805.0 513105.0 0
467685.0 513108.0 0
464053.0 516107.0 0
472122.0 514464.0 0
476055.0 511161.0 0
476814.0 515718.0 0
480796.0 514099.0 0
485331.0 512139.0 0
489363.0 515303.0 0
493639.0 513430.0 0
498118.0 513410.0 0
6379.45 515758.0 0
2111.79 517758.0 0
11155.4 516918.0 0
7485.96 520267.0 0
15392.9 517003.0 0
13325.4 519909.0 0
20994.0 518690.0 0
16805.8 519933.0 0
26396.0 517842.0 0
30673.0 517080.0 0
35247.9 519278.0 0
43962.0 519557.0 0
49138.0 519751.0 0
53757.4 517419.0 0
57931.3 519308.0 0
62312.1 516606.0 0
66562.9 519632.0 0
71105.7 516508.0 0
75138.3 519356.0 0
83498.7 516604.0 0
79171.2 518420.0 0
88051.2 515061.0 0
92412.5 518867.0 0
96949.4 514957.0 0
101465.0 518024.0 0
106077.0 515931.0 0
111710.0 514576.0 0
109311.0 518965.0 0
116753.0 514388.0 0
114974.0 518992.0 0
120335.0 517928.0 0
123893.0 514272.0 0
126039.0 517973.0 0
131222.0 518355.0 0
135750.0 515899.0 0
139495.0 515085.0 0
142561.0 516388.0 0
147414.0 515878.0 0
152570.0 517069.0 0
160698.0 515226.0 0
164567.0 514809.0 0
167737.0 516977.0 0
172894.0 513472.0 0
178332.0 515502.0 0
183768.0 516375.0 0
188762.0 514432.0 0
194411.0 515080.0 0
199527.0 514919.0 0
204607.0 514770.0 0
214382.0 513809.0 0
209918.0 515046.0 0
213952.0 518286.0 0
217730.0 515773.0 0
222278.0 514099.0 0
226413.0 514469.0 0
225525.0 518433.0 0
230607.0 515856.0 0
235852.0 514354.0 0
240194.0 515987.0 0
250313.0 515517.0 0
256412.0 515343.0 0
262508.0 515753.0 0
267237.0 518311.0 0
272421.0 515338.0 0
278197.0 515180.0 0
282937.0 518004.0 0
289201.0 515071.0 0
294122.0 515903.0 0
298507.0 514416.0 0
302686.0 513424.0 0
306783.0 514982.0 0
311758.0 516649.0 0
316786.0 515476.0 0
323752.0 517729.0 0
326817.0 514761.0 0
332620.0 515067.0 0
338313.0 516765.0 0
343495.0 515853.0 0
348825.0 515864.0 0
355723.0 515862.0 0
365587.0 516624.0 0
361051.0 517606.0 0
370158.0 519004.0 0
374253.0 516511.0 0
378778.0 515056.0 0
384543.0 515676.0 0
386515.0 517887.0 0
390746.0 517663.0 0
396558.0 518641.0 0
401490.0 515507.0 0
411481.0 517646.0 0
416279.0 517551.0 0
420936.0 518379.0 0
425674.0 518497.0 0
432984.0 518509.0 0
437014.0 518406.0 0
440581.0 517901.0 0
445622.0 518754.0 0
450655.0 517400.0 0
455392.0 516164.0 0
459666.0 518211.0 0
465288.0 520393.0 0
468667.0 517672.0 0
473578.0 519248.0 0
484970.0 516792.0 0
479951.0 519894.0 0
489029.0 519811.0 0
492476.0 517554.0 0
492893.0 521463.0 0
497034.0 517520.0 0
2708.1 522228.0 0
6823.04 524620.0 0
15048.2 522573.0 0
11036.9 523138.0 0
14290.6 525945.0 0
19137.3 523615.0 0
24641.6 521969.0 0
23258.0 525738.0 0
29437.8 521492.0 0
26914.6 525043.0 0
30121.9 525760.0 0
32933.3 523550.0 0
40186.3 521049.0 0
37261.4 524313.0 0
40912.9 524454.0 0
44990.3 523817.0 0
49532.1 524804.0 0
53901.0 522485.0 0
58345.9 523659.0 0
62125.9 521762.0 0
66092.9 524858.0 0
71080.0 520802.0 0
74636.1 523218.0 0
78444.9 522898.0 0
82479.9 520766.0 0
81549.9 523424.0 0
87009.9 519869.0 0
84641.8 524092.0 0
90117.7 524714.0 0
97267.1 520089.0 0
96030.2 524716.0 0
101063.0 523328.0 0
105600.0 520848.0 0
104938.0 524585.0 0
111818.0 521766.0 0
116348.0 523034.0 0
120548.0 523479.0 0
123921.0 521389.0 0
127877.0 522431.0 0
134908.0 521861.0 0
139157.0 519390.0 0
140808.0 522962.0 0
144377.0 520879.0 0
149758.0 520607.0 0
157462.0 519587.0 0
153380.0 523636.0 0
163401.0 519217.0 0
167975.0 521579.0 0
173141.0 519265.0 0
183194.0 520762.0 0
178743.0 521617.0 0
187070.0 519735.0 0
192192.0 519859.0 0
197152.0 519201.0 0
202230.0 519541.0 0
207712.0 520116.0 0
217111.0 521109.0 0
220631.0 518938.0 0
223207.0 523280.0 0
229520.0 520907.0 0
236518.0 519879.0 0
240621.0 522204.0 0
245123.0 519349.0 0
252227.0 520495.0 0
256944.0 520810.0 0
261963.0 520488.0 0
272306.0 521434.0 0
277478.0 520152.0 0
285562.0 521888.0 0
289072.0 519820.0 0
292691.0 519472.0 0
297139.0 520333.0 0
302952.0 518774.0 0
308278.0 521156.0 0
314523.0 521780.0 0
319621.0 519470.0 0
323314.0 522620.0 0
328163.0 520163.0 0
334009.0 520431.0 0
338131.0 521524.0 0
342817.0 521145.0 0
348361.0 521315.0 0
353037.0 519775.0 0
357274.0 519550.0 0
360270.0 521371.0 0
356897.0 523487.0 0
365679.0 521633.0 0
374128.0 520142.0 0
375754.0 523956.0 0
377846.0 519692.0 0
382285.0 519176.0 0
386503.0 521299.0 0
393604.0 522850.0 0
397872.0 522525.0 0
400872.0 520575.0 0
406247.0 520199.0 0
402789.0 524506.0 0
412229.0 522944.0 0
418243.0 522717.0 0
423413.0 522250.0 0
429623.0 520920.0 0
427252.0 524326.0 0
435854.0 522372.0 0
441350.0 522306.0 0
445821.0 523034.0 0
447673.0 525698.0 0
449691.0 521743.0 0
455524.0 521851.0 0
461619.0 521830.0 0
464904.0 524174.0 0
469367.0 522472.0 0
474972.0 524535.0 0
480970.0 525710.0 0
485474.0 522830.0 0
494436.0 524648.0 0
497202.0 522401.0 0
1744.44 526278.0 0
2084.68 529835.0 0
5638.54 528322.0 0
10089.8 527352.0 0
14061.3 530800.0 0
17965.4 527893.0 0
21969.5 530118.0 0
27507.2 529450.0 0
33825.5 527028.0 0
38094.9 528922.0 0
42227.7 527687.0 0
46750.5 528332.0 0
52461.1 526562.0 0
51171.0 530022.0 0
56173.1 527712.0 0
61390.6 526817.0 0
65322.7 530046.0 0
71054.1 525773.0 0
75891.4 528086.0 0
80881.3 526817.0 0
85439.3 528897.0 0
93573.6 527659.0 0
99330.1 527224.0 0
103532.0 527892.0 0
108613.0 524715.0 0
113173.0 525898.0 0
118003.0 527167.0 0
122668.0 528788.0 0
124321.0 524775.0 0
127689.0 527450.0 0
132141.0 525451.0 0
137981.0 525108.0 0
135326.0 528532.0 0
142747.0 525836.0 0
147850.0 525357.0 0
157374.0 526084.0 0
161166.0 523692.0 0
165247.0 525302.0 0
171882.0 525272.0 0
176770.0 526152.0 0
180847.0 526016.0 0
185535.0 524801.0 0
190235.0 524052.0 0
189467.0 528341.0 0
195360.0 524872.0 0
201339.0 524941.0 0
206600.0 525331.0 0
212612.0 524099.0 0
218459.0 525314.0 0
222308.0 528608.0 0
227780.0 525999.0 0
232834.0 524389.0 0
238146.0 526102.0 0
243756.0 525663.0 0
248580.0 524219.0 0
254786.0 524566.0 0
251560.0 527634.0 0
259562.0 524750.0 0
266275.0 525307.0 0
272199.0 526429.0 0
276060.0 525095.0 0
281107.0 523969.0 0
286603.0 526469.0 0
292206.0 524270.0 0
298142.0 526168.0 0
302844.0 524046.0 0
306825.0 525835.0 0
311731.0 526891.0 0
318056.0 526201.0 0
322671.0 527054.0 0
326838.0 525634.0 0
331431.0 524603.0 0
336699.0 525209.0 0
341113.0 526240.0 0
346318.0 526272.0 0
352093.0 525027.0 0
361648.0 525589.0 0
356762.0 528857.0 0
366210.0 526008.0 0
370442.0 524249.0 0
369878.0 528003.0 0
381986.0 524763.0 0
377632.0 528454.0 0
386052.0 528417.0 0
389214.0 525258.0 0
392957.0 527152.0 0
398063.0 527363.0 0
403582.0 529065.0 0
407560.0 526207.0 0
411959.0 528070.0 0
415519.0 526713.0 0
416580.0 529970.0 0
419565.0 527746.0 0
423554.0 526492.0 0
427608.0 528821.0 0
432003.0 526109.0 0
434610.0 530042.0 0
438374.0 526956.0 0
443741.0 526679.0 0
448500.0 529542.0 0
444354.0 530716.0 0
451610.0 525900.0 0
452808.0 529827.0 0
456128.0 527449.0 0
459936.0 525390.0 0
459873.0 529520.0 0
463383.0 527633.0 0
468349.0 527588.0 0
473857.0 529530.0 0
477902.0 528871.0 0
485493.0 527758.0 0
490790.0 526844.0 0
497148.0 527339.0 0
3481.63 534847.0 0
8607.04 531928.0 0
12149.7 535434.0 0
18383.5 534885.0 0
23914.1 534618.0 0
28918.4 534848.0 0
32745.7 531345.0 0
33553.3 535721.0 0
37420.1 533545.0 0
43409.4 531400.0 0
47333.1 532558.0 0
51031.6 534518.0 0
54986.4 532295.0 0
59678.6 531491.0 0
63580.0 534178.0 0
69803.3 530212.0 0
68003.0 534244.0 0
73420.0 533266.0 0
80274.1 533122.0 0
86131.7 533664.0 0
90768.7 531183.0 0
96458.8 530203.0 0
101048.0 532032.0 0
105607.0 532006.0 0
109448.0 529572.0 0
114497.0 530574.0 0
118964.0 531361.0 0
126489.0 532179.0 0
131468.0 530302.0 0
139832.0 529547.0 0
145021.0 530213.0 0
152721.0 529785.0 0
157984.0 532188.0 0
161686.0 528863.0 0
167955.0 529263.0 0
174327.0 530658.0 0
179618.0 530123.0 0
184438.0 530091.0 0
198779.0 529107.0 0
194089.0 530824.0 0
202644.0 531088.0 0
207374.0 530451.0 0
212808.0 530484.0 0
217698.0 529778.0 0
226671.0 530639.0 0
231610.0 529812.0 0
236422.0 530544.0 0
241428.0 530702.0 0
247193.0 529770.0 0
251983.0 531617.0 0
256656.0 529816.0 0
261854.0 529570.0 0
265955.0 532605.0 0
272278.0 531168.0 0
277324.0 530149.0 0
282171.0 529448.0 0
287280.0 531713.0 0
293257.0 530921.0 0
298701.0 531056.0 0
303070.0 529082.0 0
307908.0 530143.0 0
315281.0 531090.0 0
311134.0 532212.0 0
320317.0 530817.0 0
325946.0 531222.0 0
332951.0 530459.0 0
338815.0 531074.0 0
343021.0 530348.0 0
351158.0 530488.0 0
346840.0 530948.0 0
361908.0 530567.0 0
366987.0 530638.0 0
371286.0 533588.0 0
373033.0 529196.0 0
376772.0 533982.0 0
381989.0 531010.0 0
386577.0 533237.0 0
390302.0 530223.0 0
395007.0 532162.0 0
400693.0 533416.0 0
405729.0 532074.0 0
408947.0 530714.0 0
409368.0 534986.0 0
413279.0 532263.0 0
418257.0 533783.0 0
423040.0 531301.0 0
431272.0 530311.0 0
428458.0 533247.0 0
433259.0 534467.0 0
439421.0 532978.0 0
446883.0 534724.0 0
451892.0 533429.0 0
456313.0 531789.0 0
460220.0 533427.0 0
464533.0 531761.0 0
470335.0 532770.0 0
477180.0 532382.0 0
474716.0 535280.0 0
481993.0 531150.0 0
487626.0 532419.0 0
493088.0 532256.0 0
497621.0 531681.0 0
8347.61 536512.0 0
8429.42 540424.0 0
14688.8 539655.0 0
19827.3 539831.0 0
25641.8 539333.0 0
31449.1 539184.0 0
37100.5 538783.0 0
42043.3 535734.0 0
45363.2 540136.0 0
41736.2 540280.0 0
46939.2 536647.0 0
50829.4 539312.0 0
54855.8 536632.0 0
59527.9 536478.0 0
64006.8 538561.0 0
70957.8 537173.0 0
75829.2 538754.0 0
80942.5 538763.0 0
84899.4 537691.0 0
89309.9 535990.0 0
88695.8 539799.0 0
94145.5 536019.0 0
99531.7 536966.0 0
103783.0 535534.0 0
108660.0 536266.0 0
114436.0 535775.0 0
122189.0 534566.0 0
118622.0 536808.0 0
126600.0 537289.0 0
130325.0 534424.0 0
135963.0 534177.0 0
142122.0 534745.0 0
148234.0 535486.0 0
153119.0 538981.0 0
153422.0 535117.0 0
157240.0 536596.0 0
162531.0 534879.0 0
168560.0 534778.0 0
173594.0 535896.0 0
178610.0 535090.0 0
183439.0 535797.0 0
188799.0 534236.0 0
193922.0 535657.0 0
198655.0 534133.0 0
203871.0 535121.0 0
201284.0 537764.0 0
207703.0 534846.0 0
211620.0 535315.0 0
216609.0 534372.0 0
219057.0 538314.0 0
223216.0 534961.0 0
229085.0 534710.0 0
233528.0 534143.0 0
238130.0 535239.0 0
243413.0 535441.0 0
248791.0 535160.0 0
254560.0 535432.0 0
259351.0 534570.0 0
262824.0 536584.0 0
270155.0 535248.0 0
267016.0 538285.0 0
276198.0 534672.0 0
282041.0 535569.0 0
287395.0 536433.0 0
291705.0 536538.0 0
297276.0 535354.0 0
305179.0 534569.0 0
309365.0 536220.0 0
313273.0 535854.0 0
318170.0 534531.0 0
322500.0 535474.0 0
328083.0 536174.0 0
332472.0 536478.0 0
336540.0 535055.0 0
340633.0 534920.0 0
345658.0 535333.0 0
351822.0 536455.0 0
356711.0 534127.0 0
361279.0 535413.0 0
366766.0 536375.0 0
371961.0 538732.0 0
382412.0 537060.0 0
391138.0 535278.0 0
387357.0 537320.0 0
396372.0 537461.0 0
405162.0 536085.0 0
410149.0 538975.0 0
413619.0 536931.0 0
418107.0 538986.0 0
424318.0 537373.0 0
429634.0 537028.0 0
436927.0 539194.0 0
442514.0 538127.0 0
446882.0 540107.0 0
451412.0 538159.0 0
455253.0 535617.0 0
455739.0 539504.0 0
458771.0 537064.0 0
462778.0 536778.0 0
466661.0 535560.0 0
466551.0 539708.0 0
471186.0 537858.0 0
476445.0 539079.0 0
480067.0 535849.0 0
485329.0 537484.0 0
491025.0 535786.0 0
490138.0 539728.0 0
493834.0 539950.0 0
496711.0 536646.0 0
3152.3 541068.0 0
6260.73 545001.0 0
11486.6 544763.0 0
17755.0 543766.0 0
22487.0 543445.0 0
29041.0 543382.0 0
34146.3 543092.0 0
39048.6 543805.0 0
43921.0 543852.0 0
47930.4 542623.0 0
55085.1 540841.0 0
52050.7 544298.0 0
56359.0 544307.0 0
59613.2 541442.0 0
64201.6 543518.0 0
68316.8 540513.0 0
76502.4 544217.0 0
72275.4 543048.0 0
80924.3 543115.0 0
85237.5 542017.0 0
93444.8 542161.0 0
99325.2 542083.0 0
103674.0 539699.0 0
107832.0 541871.0 0
112300.0 540363.0 0
116600.0 539928.0 0
117196.0 544436.0 0
121777.0 540490.0 0
126876.0 542125.0 0
132018.0 539900.0 0
138035.0 540071.0 0
143485.0 540124.0 0
149178.0 541193.0 0
156938.0 541220.0 0
161548.0 541587.0 0
165796.0 539378.0 0
170716.0 539742.0 0
176183.0 540453.0 0
180948.0 539223.0 0
186157.0 540642.0 0
191552.0 539135.0 0
192553.0 543579.0 0
196770.0 539794.0 0
202646.0 542610.0 0
208631.0 539790.0 0
214461.0 539162.0 0
218170.0 542965.0 0
222530.0 540745.0 0
227137.0 539469.0 0
232936.0 539243.0 0
237308.0 542517.0 0
241053.0 539659.0 0
246668.0 541162.0 0
252825.0 540728.0 0
257576.0 539234.0 0
257131.0 543747.0 0
262284.0 541612.0 0
272325.0 539189.0 0
275163.0 543154.0 0
277478.0 539297.0 0
282518.0 542604.0 0
288877.0 541124.0 0
295333.0 540628.0 0
301270.0 539217.0 0
303619.0 543567.0 0
307151.0 540232.0 0
312603.0 540932.0 0
317471.0 539003.0 0
316805.0 543698.0 0
325703.0 540349.0 0
321327.0 541347.0 0
331078.0 541336.0 0
336068.0 539545.0 0
337739.0 543859.0 0
341864.0 540284.0 0
347646.0 540338.0 0
352370.0 542085.0 0
357412.0 539806.0 0
363015.0 540167.0 0
367642.0 541655.0 0
377214.0 539860.0 0
381109.0 544005.0 0
386248.0 541637.0 0
391753.0 540810.0 0
396523.0 543451.0 0
402016.0 540788.0 0
406934.0 539316.0 0
408706.0 542339.0 0
413416.0 541944.0 0
417607.0 543552.0 0
421624.0 542549.0 0
426874.0 543457.0 0
431454.0 540616.0 0
434514.0 543108.0 0
442719.0 543511.0 0
446860.0 543437.0 0
450582.0 543091.0 0
454878.0 543269.0 0
460806.0 542629.0 0
467146.0 544458.0 0
472766.0 542988.0 0
477778.0 543412.0 0
481024.0 540676.0 0
485900.0 543687.0 0
492115.0 544737.0 0
497164.0 542271.0 0
2172.69 546099.0 0
2121.69 550230.0 0
7211.02 548554.0 0
20325.2 547578.0 0
15903.7 547684.0 0
25653.2 547226.0 0
31921.7 547865.0 0
37104.9 548202.0 0
42080.6 548255.0 0
47652.8 547342.0 0
54988.0 547392.0 0
59955.8 546453.0 0
63880.0 547800.0 0
68543.6 546866.0 0
73554.0 547160.0 0
79164.5 546334.0 0
77337.2 549752.0 0
82917.9 547771.0 0
88300.6 546016.0 0
94146.9 548546.0 0
99526.2 546970.0 0
103693.0 544449.0 0
106881.0 547972.0 0
111758.0 545652.0 0
121980.0 546945.0 0
126494.0 546048.0 0
130866.0 546820.0 0
134537.0 544369.0 0
139383.0 546521.0 0
146083.0 545686.0 0
152756.0 545780.0 0
158708.0 545564.0 0
162400.0 548031.0 0
165811.0 544583.0 0
171325.0 544936.0 0
177117.0 546650.0 0
182983.0 545845.0 0
188281.0 546431.0 0
197330.0 546467.0 0
202296.0 548004.0 0
207045.0 547048.0 0
212612.0 544821.0 0
222823.0 545643.0 0
228469.0 544894.0 0
233508.0 544497.0 0
237309.0 546646.0 0
241773.0 544949.0 0
247101.0 547569.0 0
252691.0 546228.0 0
257907.0 548806.0 0
263152.0 547216.0 0
268455.0 544248.0 0
273529.0 547406.0 0
278137.0 546035.0 0
283627.0 548968.0 0
287387.0 545847.0 0
292424.0 546042.0 0
298913.0 546051.0 0
303639.0 548534.0 0
307038.0 546033.0 0
311671.0 545760.0 0
321187.0 545740.0 0
316332.0 548263.0 0
327223.0 546373.0 0
333623.0 546646.0 0
338718.0 548349.0 0
342360.0 545695.0 0
346906.0 545209.0 0
351653.0 546909.0 0
356443.0 545418.0 0
361295.0 544632.0 0
365492.0 545435.0 0
369841.0 546030.0 0
375269.0 545238.0 0
385760.0 546592.0 0
382618.0 547987.0 0
391062.0 546643.0 0
395681.0 547632.0 0
400644.0 547491.0 0
405803.0 545370.0 0
410677.0 546379.0 0
417015.0 547950.0 0
422580.0 547529.0 0
427397.0 548739.0 0
431879.0 546560.0 0
437622.0 546013.0 0
441914.0 548929.0 0
447392.0 547585.0 0
453884.0 548302.0 0
460050.0 548763.0 0
464664.0 548494.0 0
470795.0 549130.0 0
476206.0 547244.0 0
478854.0 549710.0 0
480782.0 546465.0 0
490338.0 549577.0 0
498376.0 546348.0 0
495372.0 549491.0 0
5922.77 552643.0 0
11667.7 551255.0 0
15827.2 554398.0 0
18018.8 551236.0 0
23018.7 552094.0 0
28235.2 551344.0 0
33337.7 553259.0 0
39277.4 552832.0 0
44358.7 552445.0 0
49020.7 552217.0 0
52282.1 549676.0 0
56282.0 551261.0 0
61318.3 551204.0 0
65965.4 551252.0 0
71721.5 551821.0 0
82687.5 551742.0 0
88519.9 551252.0 0
92557.1 554061.0 0
98591.9 551055.0 0
102767.0 550369.0 0
106382.0 551933.0 0
110717.0 551350.0 0
116333.0 549949.0 0
122357.0 552178.0 0
126647.0 550163.0 0
131290.0 552232.0 0
136412.0 551808.0 0
143623.0 550240.0 0
149021.0 551213.0 0
154353.0 551284.0 0
158779.0 550358.0 0
162631.0 552619.0 0
166487.0 549886.0 0
172091.0 550765.0 0
177544.0 552550.0 0
181114.0 549904.0 0
185323.0 550653.0 0
192510.0 549871.0 0
196623.0 552101.0 0
201612.0 553116.0 0
207281.0 551967.0 0
211745.0 550516.0 0
217324.0 549096.0 0
223121.0 551369.0 0
228511.0 550342.0 0
233615.0 549310.0 0
231603.0 554060.0 0
236354.0 552533.0 0
240346.0 550591.0 0
244540.0 553721.0 0
248915.0 552593.0 0
253402.0 551256.0 0
260899.0 551594.0 0
265089.0 552673.0 0
269534.0 549941.0 0
277779.0 551517.0 0
282564.0 553793.0 0
289000.0 550716.0 0
295362.0 551081.0 0
300591.0 551741.0 0
305038.0 552009.0 0
307951.0 549977.0 0
311715.0 550160.0 0
317299.0 554116.0 0
322289.0 550428.0 0
326598.0 552330.0 0
331055.0 550551.0 0
337197.0 554099.0 0
342510.0 551470.0 0
347076.0 550092.0 0
351658.0 552046.0 0
355536.0 549734.0 0
360168.0 549611.0 0
357073.0 554276.0 0
366255.0 550527.0 0
362126.0 554065.0 0
372704.0 550884.0 0
378974.0 550325.0 0
383578.0 553149.0 0
387672.0 550960.0 0
396870.0 551128.0 0
392545.0 552001.0 0
400913.0 553598.0 0
406091.0 550730.0 0
412503.0 552213.0 0
417699.0 552860.0 0
420831.0 551642.0 0
424899.0 552367.0 0
429513.0 552662.0 0
435251.0 551821.0 0
440701.0 553558.0 0
445839.0 553413.0 0
450034.0 551627.0 0
452946.0 553681.0 0
457673.0 553134.0 0
462087.0 552364.0 0
466108.0 552873.0 0
470845.0 554891.0 0
475839.0 551455.0 0
480389.0 553318.0 0
485044.0 550060.0 0
489071.0 553916.0 0
497270.0 554463.0 0
2620.31 556437.0 0
8819.86 555472.0 0
6681.31 557952.0 0
12378.2 557114.0 0
16977.1 558173.0 0
20942.5 556633.0 0
23824.3 559278.0 0
28386.9 556820.0 0
34725.4 557611.0 0
38875.3 557723.0 0
42843.9 556426.0 0
46780.4 555954.0 0
51374.0 556482.0 0
56076.7 555819.0 0
61397.4 556947.0 0
67377.2 555856.0 0
73688.3 556473.0 0
79130.4 555088.0 0
83281.8 554392.0 0
83336.5 559597.0 0
87680.9 555937.0 0
92567.5 558519.0 0
96347.3 558550.0 0
97292.0 554760.0 0
101589.0 554744.0 0
104327.0 557912.0 0
107830.0 555464.0 0
113083.0 555715.0 0
118268.0 555615.0 0
127114.0 554606.0 0
123339.0 556674.0 0
131131.0 558025.0 0
136021.0 556334.0 0
141203.0 554898.0 0
147008.0 556773.0 0
152484.0 555867.0 0
158458.0 556122.0 0
167476.0 554764.0 0
163583.0 556638.0 0
172735.0 557308.0 0
177866.0 556939.0 0
180981.0 555241.0 0
181294.0 559049.0 0
185923.0 556367.0 0
192466.0 555879.0 0
197823.0 556856.0 0
205975.0 555887.0 0
210565.0 555541.0 0
216093.0 555114.0 0
221338.0 556594.0 0
226794.0 556431.0 0
235541.0 555821.0 0
240268.0 556297.0 0
246170.0 558743.0 0
252234.0 556173.0 0
257671.0 554371.0 0
261806.0 555567.0 0
270436.0 555037.0 0
275355.0 556768.0 0
279863.0 556776.0 0
283586.0 557690.0 0
286472.0 555035.0 0
291883.0 555905.0 0
298113.0 556762.0 0
303271.0 555563.0 0
306686.0 558412.0 0
311237.0 555371.0 0
322703.0 555561.0 0
331022.0 555120.0 0
326957.0 559067.0 0
343165.0 557164.0 0
347676.0 554470.0 0
351365.0 557114.0 0
365957.0 555769.0 0
370706.0 556440.0 0
376372.0 555826.0 0
381125.0 556370.0 0
384057.0 559052.0 0
387723.0 556081.0 0
392069.0 556565.0 0
396006.0 555427.0 0
402550.0 558639.0 0
407635.0 556620.0 0
412252.0 557554.0 0
416477.0 556878.0 0
421499.0 555881.0 0
426891.0 557191.0 0
431957.0 556513.0 0
436656.0 557643.0 0
441898.0 558424.0 0
446570.0 559919.0 0
449842.0 556773.0 0
455132.0 558369.0 0
461043.0 557496.0 0
466458.0 557929.0 0
471365.0 559709.0 0
476009.0 556205.0 0
481033.0 558646.0 0
484770.0 555388.0 0
486194.0 559727.0 0
492929.0 555432.0 0
497977.0 558892.0 0
3707.32 562352.0 0
9412.72 560800.0 0
14019.8 561691.0 0
20127.1 561690.0 0
26907.7 562727.0 0
32199.5 561371.0 0
37474.6 561984.0 0
42194.4 561018.0 0
47475.4 560678.0 0
52535.4 561109.0 0
56906.2 560185.0 0
60845.2 562454.0 0
65427.3 560635.0 0
70522.5 560468.0 0
76826.8 561266.0 0
88856.1 560876.0 0
94463.6 563285.0 0
100402.0 560375.0 0
98998.8 564036.0 0
105506.0 561585.0 0
110250.0 560202.0 0
117257.0 561883.0 0
121985.0 560261.0 0
126113.0 560512.0 0
132433.0 563184.0 0
137311.0 560852.0 0
142911.0 560925.0 0
147218.0 560899.0 0
152757.0 561089.0 0
157386.0 561413.0 0
161966.0 560730.0 0
167172.0 559946.0 0
173218.0 563274.0 0
177458.0 560923.0 0
184250.0 562818.0 0
189561.0 561082.0 0
195390.0 561106.0 0
201458.0 560818.0 0
207701.0 560653.0 0
213214.0 559906.0 0
218683.0 561640.0 0
223761.0 560383.0 0
227622.0 562649.0 0
231905.0 559369.0 0
236815.0 559512.0 0
236300.0 563528.0 0
241125.0 562006.0 0
250846.0 560621.0 0
256478.0 560734.0 0
262666.0 559608.0 0
267819.0 559723.0 0
273130.0 561891.0 0
278641.0 561094.0 0
282884.0 561891.0 0
287504.0 560602.0 0
293327.0 561229.0 0
298365.0 561594.0 0
302424.0 559856.0 0
305819.0 562432.0 0
310447.0 563558.0 0
312776.0 560079.0 0
317657.0 560227.0 0
322583.0 560906.0 0
325879.0 564212.0 0
329182.0 562631.0 0
332631.0 560147.0 0
337953.0 560547.0 0
343553.0 562265.0 0
347062.0 560610.0 0
351413.0 562262.0 0
355730.0 559451.0 0
362052.0 560099.0 0
357288.0 563849.0 0
368394.0 561242.0 0
373953.0 560709.0 0
379378.0 560789.0 0
388536.0 560654.0 0
392672.0 560338.0 0
390640.0 564514.0 0
395895.0 564165.0 0
397933.0 559557.0 0
400861.0 563032.0 0
406276.0 561787.0 0
411142.0 561630.0 0
416678.0 562462.0 0
422339.0 561094.0 0
427545.0 562866.0 0
433006.0 561569.0 0
438367.0 562487.0 0
443380.0 563389.0 0
448077.0 564140.0 0
452820.0 563357.0 0
458865.0 561686.0 0
463454.0 562525.0 0
468028.0 562119.0 0
471220.0 563929.0 0
476222.0 562008.0 0
483002.0 563553.0 0
487778.0 564052.0 0
491758.0 560324.0 0
496884.0 563243.0 0
1390.1 566667.0 0
6296.71 567360.0 0
11184.2 566143.0 0
16937.5 565982.0 0
22792.8 565583.0 0
23959.4 569572.0 0
29049.1 568305.0 0
34652.9 566166.0 0
39693.9 566037.0 0
44043.4 565256.0 0
48515.8 565669.0 0
53328.7 565710.0 0
57500.0 565390.0 0
63002.8 566236.0 0
67515.7 564945.0 0
72517.4 565036.0 0
76305.8 567086.0 0
81895.1 566116.0 0
86459.5 569595.0 0
87595.1 565340.0 0
91487.2 568643.0 0
97986.4 568826.0 0
102735.0 565017.0 0
107390.0 564960.0 0
108263.0 569169.0 0
112313.0 565873.0 0
117403.0 567746.0 0
121622.0 568858.0 0
122879.0 564583.0 0
127882.0 564929.0 0
131190.0 567183.0 0
134661.0 565014.0 0
140052.0 566464.0 0
148774.0 564875.0 0
152683.0 568679.0 0
154473.0 564924.0 0
162912.0 565171.0 0
158492.0 565848.0 0
161373.0 569355.0 0
167319.0 565076.0 0
171103.0 567399.0 0
177673.0 565613.0 0
181724.0 566540.0 0
186971.0 568335.0 0
192400.0 565613.0 0
197407.0 565709.0 0
202868.0 567222.0 0
208798.0 566238.0 0
214084.0 565384.0 0
218912.0 567010.0 0
223926.0 566516.0 0
228430.0 566900.0 0
231999.0 564892.0 0
231271.0 569455.0 0
236856.0 568990.0 0
240947.0 566133.0 0
246139.0 565034.0 0
251956.0 565496.0 0
256882.0 566609.0 0
260732.0 564708.0 0
265871.0 564758.0 0
272994.0 566846.0 0
276651.0 565896.0 0
279851.0 569102.0 0
280810.0 565018.0 0
285562.0 566212.0 0
290779.0 565147.0 0
296090.0 565739.0 0
301735.0 564766.0 0
302708.0 569267.0 0
306447.0 566457.0 0
315649.0 565461.0 0
311279.0 569293.0 0
320865.0 565163.0 0
327149.0 568853.0 0
331830.0 564566.0 0
336523.0 566404.0 0
331993.0 568487.0 0
346448.0 565012.0 0
341862.0 566102.0 0
350357.0 567028.0 0
355768.0 569586.0 0
361450.0 566604.0 0
366608.0 565941.0 0
372065.0 565853.0 0
378082.0 566621.0 0
384589.0 564725.0 0
391889.0 569576.0 0
397012.0 569253.0 0
400807.0 567219.0 0
404343.0 565594.0 0
408759.0 566016.0 0
413634.0 567099.0 0
418165.0 567373.0 0
423411.0 565955.0 0
427329.0 567763.0 0
431128.0 566101.0 0
435452.0 566452.0 0
440270.0 567314.0 0
445231.0 567893.0 0
450984.0 567860.0 0
457373.0 566162.0 0
462450.0 567525.0 0
467428.0 566500.0 0
473965.0 566879.0 0
478951.0 566885.0 0
483750.0 568436.0 0
488041.0 568142.0 0
492343.0 566297.0 0
498199.0 567373.0 0
2703.14 570530.0 0
8707.4 571700.0 0
14316.5 570980.0 0
19287.3 570255.0 0
22377.2 574127.0 0
27234.7 573251.0 0
33879.4 570915.0 0
37396.3 570443.0 0
40904.8 570199.0 0
45203.0 570572.0 0
50485.4 570506.0 0
56042.8 570332.0 0
60908.7 570090.0 0
66013.8 570080.0 0
63004.7 574590.0 0
67213.2 574318.0 0
72066.7 570427.0 0
78573.8 570726.0 0
82409.0 571284.0 0
94160.7 573853.0 0
99319.3 574677.0 0
103621.0 571674.0 0
108841.0 573808.0 0
113689.0 571187.0 0
118278.0 571073.0 0
117360.0 574096.0 0
122079.0 573381.0 0
126344.0 569855.0 0
131379.0 571255.0 0
135612.0 569635.0 0
135031.0 574204.0 0
140092.0 572632.0 0
145381.0 569851.0 0
157142.0 570402.0 0
153485.0 573759.0 0
158480.0 574434.0 0
166774.0 571031.0 0
172763.0 571530.0 0
177772.0 570522.0 0
182165.0 570548.0 0
184958.0 573356.0 0
192291.0 570764.0 0
198267.0 569896.0 0
201662.0 572883.0 0
206603.0 571875.0 0
210719.0 570262.0 0
215519.0 570964.0 0
221125.0 571181.0 0
226752.0 572331.0 0
232541.0 574448.0 0
237458.0 574323.0 0
242932.0 569559.0 0
248562.0 570439.0 0
254321.0 570682.0 0
258460.0 574122.0 0
262247.0 569800.0 0
269065.0 570641.0 0
275406.0 570367.0 0
278848.0 573894.0 0
283810.0 571376.0 0
289447.0 570197.0 0
294240.0 570287.0 0
298667.0 571103.0 0
306103.0 570401.0 0
303120.0 573679.0 0
308042.0 573997.0 0
317473.0 569727.0 0
318610.0 574437.0 0
322237.0 570424.0 0
330371.0 572592.0 0
335839.0 572401.0 0
340552.0 569656.0 0
344085.0 569566.0 0
342027.0 574533.0 0
347812.0 570378.0 0
350951.0 574186.0 0
359448.0 574618.0 0
364750.0 570439.0 0
369471.0 570459.0 0
374515.0 569680.0 0
373284.0 573823.0 0
382060.0 569674.0 0
378905.0 573278.0 0
386905.0 570097.0 0
383949.0 573150.0 0
391627.0 574663.0 0
400960.0 571291.0 0
405537.0 570056.0 0
407716.0 574326.0 0
410578.0 570858.0 0
416132.0 571606.0 0
421474.0 569792.0 0
420777.0 574688.0 0
425558.0 572041.0 0
431169.0 571223.0 0
436843.0 571221.0 0
442340.0 572475.0 0
448157.0 572266.0 0
454825.0 570796.0 0
457539.0 574710.0 0
463259.0 571715.0 0
459414.0 570736.0 0
467372.0 571450.0 0
471769.0 570707.0 0
476021.0 570653.0 0
480248.0 571488.0 0
486649.0 571843.0 0
490825.0 571099.0 0
493207.0 574801.0 0
495548.0 570648.0 0
2384.48 575533.0 0
6803.88 576184.0 0
12126.1 576659.0 0
17492.6 574657.0 0
17335.7 578651.0 0
23194.1 579347.0 0
27564.8 577555.0 0
31632.7 574950.0 0
33926.7 579669.0 0
36686.4 575342.0 0
42205.3 575193.0 0
47699.7 575113.0 0
53092.1 575568.0 0
58077.3 574820.0 0
61057.1 578743.0 0
56906.0 579205.0 0
69748.2 578182.0 0
74667.3 575585.0 0
79718.3 576954.0 0
85919.7 575418.0 0
91273.4 578544.0 0
96748.4 579259.0 0
105501.0 575719.0 0
102448.0 578583.0 0
108342.0 579415.0 0
113157.0 576235.0 0
117302.0 578815.0 0
126693.0 575257.0 0
122730.0 579102.0 0
130932.0 575431.0 0
133710.0 579266.0 0
138840.0 579603.0 0
143040.0 577227.0 0
148153.0 575033.0 0
152797.0 579696.0 0
162500.0 575611.0 0
158595.0 578916.0 0
166093.0 577150.0 0
170441.0 575357.0 0
176009.0 575061.0 0
180821.0 575005.0 0
184434.0 577221.0 0
189786.0 576291.0 0
196364.0 574652.0 0
200733.0 578046.0 0
205694.0 577086.0 0
211139.0 574887.0 0
216825.0 576600.0 0
222054.0 576161.0 0
227509.0 577030.0 0
236953.0 579217.0 0
242239.0 575093.0 0
247965.0 576413.0 0
253535.0 575970.0 0
258328.0 579312.0 0
263045.0 575591.0 0
267629.0 576822.0 0
273610.0 575685.0 0
279736.0 579572.0 0
282441.0 575446.0 0
286899.0 576480.0 0
292792.0 575052.0 0
298559.0 576893.0 0
308590.0 578888.0 0
313087.0 575690.0 0
317680.0 579430.0 0
325530.0 574942.0 0
321719.0 577839.0 0
330587.0 577948.0 0
334809.0 579368.0 0
337254.0 577020.0 0
346928.0 576812.0 0
356652.0 579492.0 0
361666.0 578770.0 0
364391.0 575252.0 0
368774.0 574915.0 0
377262.0 577398.0 0
372926.0 579536.0 0
387351.0 575531.0 0
382658.0 578363.0 0
397071.0 574723.0 0
393499.0 579279.0 0
403015.0 576259.0 0
412072.0 575332.0 0
408651.0 578972.0 0
416199.0 576156.0 0
418853.0 579802.0 0
423657.0 578784.0 0
428556.0 576510.0 0
434444.0 575753.0 0
436015.0 578835.0 0
439428.0 577348.0 0
448685.0 576728.0 0
444919.0 576615.0 0
446999.0 579565.0 0
452691.0 575345.0 0
457131.0 579496.0 0
462466.0 576397.0 0
467723.0 576022.0 0
471878.0 574846.0 0
471895.0 578810.0 0
476976.0 575817.0 0
483296.0 575683.0 0
488918.0 575324.0 0
491524.0 579451.0 0
497710.0 574924.0 0
497330.0 579752.0 0
2460.29 580319.0 0
7822.82 581111.0 0
14384.4 581500.0 0
19395.4 583656.0 0
25135.3 583620.0 0
29367.4 581831.0 0
35207.8 584760.0 0
38949.7 579664.0 0
40733.1 584245.0 0
43196.1 580596.0 0
47473.0 579894.0 0
46118.0 584228.0 0
52390.1 581150.0 0
59985.8 583642.0 0
64939.0 579987.0 0
65675.9 584795.0 0
73951.4 580465.0 0
77430.0 580495.0 0
81053.1 584161.0 0
82962.5 580729.0 0
87340.7 581022.0 0
91429.5 583982.0 0
97762.0 584784.0 0
103288.0 584360.0 0
113508.0 581742.0 0
117666.0 583161.0 0
121379.0 584404.0 0
128341.0 579911.0 0
136491.0 583397.0 0
142585.0 582573.0 0
147050.0 580191.0 0
163030.0 581023.0 0
159730.0 584632.0 0
166698.0 581645.0 0
170438.0 580135.0 0
168539.0 584638.0 0
173320.0 584600.0 0
175723.0 580020.0 0
181144.0 580579.0 0
186336.0 581146.0 0
191248.0 582457.0 0
196307.0 580509.0 0
200598.0 582424.0 0
205068.0 582053.0 0
210109.0 580552.0 0
215151.0 581192.0 0
219808.0 580843.0 0
224969.0 580500.0 0
230889.0 580392.0 0
237643.0 584572.0 0
241965.0 581858.0 0
247705.0 582479.0 0
253435.0 581335.0 0
259819.0 583467.0 0
263566.0 580590.0 0
269075.0 582041.0 0
274183.0 581033.0 0
285289.0 581936.0 0
289786.0 580427.0 0
289544.0 584714.0 0
293873.0 580217.0 0
298047.0 581820.0 0
303219.0 580918.0 0
307644.0 583161.0 0
313130.0 581149.0 0
321044.0 581022.0 0
325526.0 580732.0 0
322015.0 584576.0 0
332701.0 584151.0 0
338970.0 581320.0 0
344269.0 580390.0 0
350539.0 580137.0 0
347210.0 584541.0 0
361970.0 584240.0 0
366678.0 580647.0 0
377865.0 581165.0 0
381673.0 584388.0 0
388306.0 580122.0 0
392105.0 584690.0 0
398941.0 580455.0 0
404216.0 581672.0 0
410560.0 583654.0 0
413748.0 579890.0 0
427211.0 581549.0 0
432390.0 580680.0 0
438035.0 583214.0 0
443162.0 580766.0 0
446984.0 583518.0 0
451642.0 580887.0 0
461944.0 582304.0 0
467534.0 581046.0 0
471390.0 584787.0 0
475543.0 581478.0 0
480340.0 580172.0 0
481763.0 584519.0 0
485848.0 581106.0 0
2994.99 585711.0 0
8501.13 586715.0 0
13933.6 586420.0 0
18542.8 589776.0 0
23369.5 587803.0 0
30546.3 586391.0 0
33866.2 589058.0 0
38427.1 587889.0 0
43606.1 586763.0 0
42139.8 589929.0 0
50447.0 585991.0 0
55209.0 585487.0 0
67809.4 589342.0 0
71896.8 585293.0 0
77405.0 584939.0 0
80675.4 588685.0 0
85364.0 585525.0 0
94252.5 588996.0 0
99886.9 589802.0 0
105009.0 589284.0 0
109488.0 585690.0 0
115293.0 585518.0 0
113780.0 589187.0 0
118508.0 588346.0 0
126597.0 585151.0 0
123384.0 589509.0 0
132398.0 586515.0 0
139652.0 587041.0 0
147197.0 585739.0 0
143684.0 589489.0 0
154244.0 586128.0 0
162491.0 589416.0 0
164252.0 585410.0 0
172972.0 589122.0 0
178180.0 585374.0 0
182301.0 585128.0 0
186831.0 586351.0 0
192103.0 587671.0 0
197453.0 585575.0 0
196136.0 589673.0 0
202845.0 586252.0 0
207648.0 585300.0 0
212848.0 585183.0 0
217479.0 584854.0 0
217595.0 589408.0 0
221861.0 585729.0 0
227049.0 585729.0 0
232694.0 586054.0 0
244465.0 586604.0 0
240749.0 587106.0 0
251719.0 586559.0 0
256280.0 585257.0 0
258111.0 589415.0 0
263036.0 585232.0 0
263085.0 589585.0 0
267612.0 587241.0 0
272800.0 585262.0 0
272035.0 589840.0 0
277530.0 585191.0 0
282443.0 585451.0 0
284396.0 589597.0 0
288429.0 589539.0 0
294721.0 585143.0 0
293040.0 589714.0 0
299915.0 585466.0 0
297627.0 589527.0 0
304737.0 586797.0 0
311208.0 586120.0 0
316830.0 585094.0 0
322159.0 588901.0 0
326719.0 586134.0 0
336126.0 589429.0 0
337898.0 586064.0 0
342337.0 585879.0 0
351744.0 585101.0 0
356691.0 585515.0 0
352633.0 589774.0 0
366830.0 586055.0 0
363208.0 589935.0 0
371368.0 584936.0 0
376585.0 585748.0 0
373546.0 588822.0 0
386784.0 584893.0 0
388597.0 589571.0 0
393539.0 589723.0 0
402358.0 585157.0 0
397971.0 586445.0 0
406308.0 586645.0 0
412460.0 588525.0 0
415423.0 584855.0 0
417355.0 589557.0 0
421158.0 585002.0 0
426841.0 586792.0 0
432645.0 586499.0 0
443091.0 587013.0 0
450835.0 586426.0 0
456444.0 585223.0 0
461203.0 587191.0 0
466075.0 586622.0 0
476833.0 587421.0 0
485193.0 588069.0 0
490368.0 585269.0 0
496751.0 585539.0 0
2069.23 590789.0 0
5823.44 590195.0 0
7650.9 594083.0 0
11344.4 590885.0 0
23835.8 593692.0 0
29007.3 590822.0 0
29319.2 595150.0 0
32998.3 593109.0 0
37417.3 591987.0 0
46647.0 590417.0 0
50475.8 590929.0 0
55635.2 590300.0 0
52600.7 594896.0 0
61969.0 589969.0 0
67724.5 594117.0 0
71624.9 590712.0 0
75885.0 590972.0 0
72747.5 594955.0 0
85701.5 590973.0 0
81636.3 593689.0 0
90711.2 593742.0 0
101818.0 594539.0 0
109455.0 591531.0 0
116648.0 593648.0 0
128093.0 590192.0 0
132017.0 591296.0 0
136015.0 590476.0 0
133806.0 594292.0 0
147693.0 591122.0 0
143744.0 594192.0 0
152522.0 591708.0 0
157820.0 591120.0 0
162161.0 594085.0 0
167883.0 590000.0 0
173042.0 594658.0 0
177376.0 590222.0 0
182668.0 590065.0 0
188615.0 591795.0 0
193171.0 591829.0 0
200632.0 590887.0 0
206066.0 590315.0 0
212111.0 590907.0 0
218328.0 594491.0 0
222127.0 590684.0 0
222703.0 594598.0 0
226751.0 590914.0 0
231558.0 591214.0 0
236780.0 589893.0 0
241737.0 590749.0 0
247484.0 591536.0 0
253576.0 591320.0 0
257750.0 594835.0 0
262848.0 594277.0 0
267460.0 592569.0 0
280126.0 589956.0 0
275915.0 592476.0 0
285222.0 594223.0 0
298170.0 594995.0 0
302083.0 591120.0 0
308013.0 590549.0 0
312949.0 591075.0 0
317878.0 590422.0 0
326178.0 591523.0 0
321652.0 592834.0 0
331582.0 590455.0 0
340223.0 590219.0 0
346422.0 590543.0 0
357615.0 590725.0 0
369207.0 590191.0 0
376919.0 590494.0 0
373504.0 592983.0 0
382343.0 590616.0 0
377988.0 594746.0 0
397820.0 591751.0 0
403200.0 591871.0 0
408860.0 591229.0 0
413583.0 593153.0 0
422706.0 590813.0 0
418656.0 594469.0 0
428051.0 592023.0 0
432826.0 593407.0 0
437308.0 590256.0 0
442425.0 592574.0 0
447673.0 590820.0 0
452925.0 590721.0 0
450957.0 595158.0 0
457829.0 590960.0 0
463071.0 591261.0 0
467684.0 591383.0 0
472050.0 590702.0 0
476791.0 593247.0 0
481141.0 591153.0 0
489650.0 590968.0 0
485260.0 592929.0 0
497033.0 591662.0 0
2396.55 595180.0 0
2106.97 599630.0 0
6189.53 598518.0 0
12548.5 595494.0 0
10474.7 599731.0 0
17725.5 595297.0 0
15303.0 599973.0 0
21359.6 599743.0 0
27122.3 599376.0 0
36198.3 596892.0 0
41919.8 595254.0 0
47863.5 595390.0 0
52452.1 599619.0 0
57376.2 595592.0 0
62903.3 596294.0 0
69449.4 598810.0 0
77554.5 595555.0 0
81328.0 599501.0 0
85671.5 596045.0 0
96640.6 595000.0 0
92738.7 599574.0 0
106416.0 595639.0 0
102873.0 599489.0 0
111642.0 596359.0 0
119721.0 598612.0 0
125146.0 595286.0 0
130579.0 595862.0 0
129384.0 599853.0 0
133713.0 599648.0 0
137572.0 599710.0 0
138295.0 595102.0 0
141928.0 599032.0 0
149188.0 596429.0 0
154901.0 595111.0 0
154241.0 599205.0 0
158313.0 596720.0 0
162958.0 599244.0 0
166953.0 595731.0 0
173140.0 600112.0 0
179363.0 595192.0 0
182075.0 600085.0 0
184615.0 595359.0 0
186689.0 599502.0 0
188857.0 596521.0 0
192924.0 595784.0 0
197654.0 595184.0 0
197317.0 599423.0 0
202924.0 595890.0 0
208134.0 595115.0 0
208475.0 599831.0 0
213314.0 596916.0 0
221659.0 598594.0 0
226731.0 595785.0 0
232059.0 596506.0 0
237355.0 595357.0 0
242558.0 595427.0 0
247256.0 597902.0 0
252349.0 596260.0 0
255882.0 600093.0 0
266177.0 598068.0 0
272141.0 596224.0 0
279635.0 595291.0 0
282653.0 598808.0 0
287560.0 599853.0 0
291747.0 595089.0 0
300937.0 600050.0 0
303600.0 595562.0 0
308594.0 596219.0 0
312802.0 595250.0 0
312661.0 599848.0 0
317732.0 596322.0 0
324431.0 596456.0 0
329471.0 595929.0 0
330536.0 599788.0 0
327573.0 599911.0 0
335425.0 595098.0 0
338675.0 600068.0 0
341799.0 595337.0 0
351834.0 595081.0 0
347071.0 596355.0 0
357250.0 595919.0 0
363414.0 596879.0 0
369278.0 595536.0 0
374012.0 598592.0 0
382105.0 597635.0 0
387223.0 595157.0 0
393718.0 595377.0 0
399807.0 597079.0 0
404864.0 597087.0 0
409338.0 596121.0 0
414019.0 599149.0 0
419775.0 599461.0 0
423898.0 596247.0 0
429121.0 596989.0 0
437492.0 595579.0 0
433847.0 598499.0 0
441511.0 597016.0 0
446236.0 595771.0 0
455786.0 595552.0 0
457505.0 599749.0 0
460769.0 595929.0 0
465420.0 595181.0 0
466025.0 599590.0 0
470190.0 595487.0 0
470392.0 600210.0 0
475132.0 598430.0 0
481324.0 596867.0 0
487402.0 597267.0 0
492657.0 595490.0 0
497642.0 596925.0 0
1812.98 603539.0 0
6797.07 603783.0 0
12586.5 604379.0 0
18112.8 604603.0 0
28155.1 604701.0 0
32442.9 600838.0 0
37523.1 601754.0 0
41708.0 600534.0 0
43600.8 604415.0 0
46310.6 600428.0 0
49700.5 603112.0 0
59897.5 600669.0 0
56106.1 601234.0 0
64993.3 601274.0 0
74916.5 600313.0 0
78166.6 605170.0 0
83539.7 604952.0 0
87116.8 600927.0 0
97980.3 600567.0 0
98533.1 605024.0 0
104762.0 604463.0 0
108225.0 600378.0 0
110554.0 605057.0 0
114513.0 601152.0 0
119368.0 604111.0 0
124527.0 601774.0 0
132013.0 604288.0 0
127638.0 605036.0 0
137262.0 603907.0 0
142623.0 604483.0 0
147815.0 602162.0 0
153190.0 605059.0 0
158493.0 600938.0 0
158818.0 605063.0 0
163341.0 604429.0 0
168397.0 600258.0 0
177169.0 600773.0 0
173834.0 604348.0 0
184950.0 604819.0 0
192420.0 600232.0 0
188930.0 602483.0 0
198509.0 604001.0 0
203663.0 601449.0 0
207920.0 604471.0 0
212431.0 601796.0 0
217278.0 601440.0 0
222170.0 603828.0 0
226034.0 600613.0 0
230808.0 601757.0 0
236745.0 601516.0 0
242465.0 600485.0 0
247430.0 602343.0 0
251149.0 600957.0 0
259097.0 605011.0 0
262123.0 600342.0 0
270357.0 601802.0 0
265803.0 602932.0 0
277099.0 600965.0 0
283264.0 603759.0 0
293070.0 601113.0 0
297379.0 603486.0 0
307105.0 601553.0 0
318521.0 603090.0 0
323824.0 600968.0 0
329971.0 604697.0 0
333936.0 600365.0 0
336177.0 604523.0 0
344355.0 601097.0 0
352233.0 601292.0 0
358907.0 601576.0 0
364711.0 603100.0 0
369044.0 600352.0 0
372084.0 604438.0 0
378837.0 601866.0 0
384567.0 601444.0 0
389624.0 600931.0 0
395695.0 601382.0 0
402869.0 601118.0 0
399891.0 603637.0 0
408018.0 601510.0 0
412597.0 604691.0 0
417158.0 603435.0 0
421966.0 604170.0 0
425643.0 600899.0 0
430292.0 601885.0 0
436177.0 600906.0 0
434265.0 602566.0 0
439557.0 600896.0 0
442367.0 604637.0 0
444696.0 600475.0 0
452003.0 601007.0 0
458268.0 605175.0 0
461655.0 600503.0 0
463430.0 604079.0 0
468089.0 604273.0 0
473302.0 603692.0 0
479051.0 602007.0 0
485784.0 602733.0 0
491595.0 601145.0 0
497232.0 601965.0 0
2707.22 607977.0 0
12630.8 609382.0 0
23506.1 605334.0 0
28681.6 609138.0 0
34269.4 606567.0 0
39011.3 605272.0 0
41745.8 609128.0 0
47500.0 605828.0 0
47299.6 610186.0 0
52026.2 607058.0 0
55917.7 610279.0 0
57305.2 605265.0 0
62588.3 605840.0 0
67437.4 605538.0 0
72642.8 605981.0 0
76478.2 609682.0 0
80977.9 609437.0 0
88200.7 606573.0 0
93319.6 605633.0 0
96825.8 609980.0 0
101761.0 608565.0 0
107130.0 609350.0 0
115063.0 606113.0 0
112438.0 609706.0 0
120651.0 609385.0 0
123149.0 605987.0 0
126064.0 609032.0 0
138348.0 609615.0 0
147848.0 607216.0 0
143922.0 609475.0 0
157186.0 609263.0 0
162572.0 609850.0 0
168604.0 605241.0 0
174117.0 609987.0 0
179211.0 605877.0 0
188589.0 608303.0 0
192826.0 605347.0 0
203384.0 607092.0 0
212497.0 606591.0 0
217805.0 607036.0 0
222595.0 610241.0 0
227317.0 605965.0 0
232786.0 606660.0 0
238323.0 607825.0 0
244106.0 605856.0 0
249714.0 605570.0 0
248004.0 610314.0 0
253964.0 607089.0 0
264167.0 606632.0 0
261453.0 610227.0 0
268362.0 606205.0 0
273449.0 605974.0 0
270556.0 610113.0 0
278732.0 607308.0 0
283238.0 610256.0 0
288502.0 605798.0 0
293717.0 606446.0 0
297810.0 608093.0 0
302078.0 605700.0 0
307030.0 606700.0 0
312350.0 606012.0 0
316706.0 607510.0 0
319921.0 608500.0 0
323864.0 606016.0 0
335175.0 609936.0 0
341584.0 607149.0 0
346798.0 610194.0 0
347906.0 605622.0 0
356236.0 606061.0 0
352209.0 607362.0 0
360821.0 606671.0 0
367587.0 607585.0 0
377671.0 607157.0 0
382721.0 605680.0 0
382980.0 610190.0 0
388529.0 607355.0 0
395359.0 607777.0 0
400286.0 609087.0 0
404029.0 606174.0 0
408964.0 607417.0 0
413131.0 610159.0 0
418445.0 608193.0 0
427068.0 606056.0 0
432598.0 606530.0 0
437841.0 605567.0 0
442931.0 609834.0 0
447373.0 605579.0 0
452757.0 606898.0 0
462740.0 608022.0 0
467101.0 609439.0 0
471201.0 607640.0 0
477280.0 605777.0 0
478988.0 610244.0 0
481454.0 605786.0 0
485351.0 608028.0 0
490813.0 607236.0 0
497370.0 607298.0 0
2546.32 613215.0 0
7549.61 610909.0 0
11109.9 614419.0 0
18165.8 610843.0 0
24019.1 610351.0 0
27369.8 614267.0 0
32644.1 612530.0 0
37283.2 610930.0 0
38069.0 615361.0 0
43605.2 613646.0 0
51938.8 612799.0 0
60722.4 610613.0 0
57496.1 614547.0 0
66223.8 610620.0 0
63080.2 614846.0 0
71811.1 611305.0 0
75847.6 614184.0 0
81390.5 614972.0 0
85438.6 610584.0 0
90858.0 611458.0 0
86764.6 615307.0 0
103331.0 613958.0 0
109340.0 614741.0 0
116505.0 613807.0 0
122398.0 614144.0 0
127395.0 614219.0 0
131808.0 610363.0 0
136309.0 615237.0 0
142918.0 614947.0 0
152938.0 611056.0 0
148254.0 612178.0 0
154743.0 615111.0 0
158941.0 613295.0 0
168235.0 610836.0 0
164988.0 614023.0 0
174338.0 615363.0 0
178987.0 613361.0 0
183790.0 610346.0 0
188150.0 614035.0 0
192867.0 611100.0 0
198979.0 611317.0 0
203851.0 611956.0 0
208254.0 610385.0 0
219013.0 611173.0 0
214713.0 611425.0 0
229159.0 610855.0 0
226887.0 614310.0 0
234194.0 611702.0 0
238648.0 612834.0 0
242856.0 611296.0 0
252399.0 610651.0 0
251746.0 614919.0 0
256541.0 611171.0 0
262798.0 615136.0 0
266071.0 610409.0 0
268295.0 614929.0 0
275394.0 611954.0 0
282991.0 614847.0 0
288683.0 611640.0 0
294165.0 611334.0 0
300047.0 611056.0 0
297729.0 614929.0 0
304630.0 610858.0 0
309359.0 610405.0 0
308231.0 614822.0 0
315309.0 610802.0 0
311986.0 612937.0 0
317590.0 615352.0 0
322245.0 612590.0 0
327870.0 611201.0 0
339317.0 611549.0 0
343044.0 612909.0 0
350787.0 611138.0 0
348051.0 614793.0 0
352618.0 614585.0 0
357655.0 611019.0 0
363119.0 610899.0 0
367230.0 612303.0 0
372661.0 610984.0 0
378955.0 612279.0 0
382500.0 615409.0 0
386286.0 612379.0 0
391577.0 613319.0 0
398432.0 612153.0 0
403050.0 612185.0 0
407882.0 611678.0 0
417274.0 614588.0 0
422942.0 611332.0 0
427721.0 610837.0 0
427203.0 614843.0 0
432173.0 611754.0 0
437259.0 610766.0 0
442017.0 615056.0 0
448378.0 610997.0 0
452182.0 614269.0 0
456039.0 610817.0 0
460615.0 611427.0 0
474003.0 610541.0 0
470340.0 613041.0 0
483484.0 611674.0 0
480928.0 615431.0 0
487359.0 611468.0 0
491730.0 613407.0 0
497342.0 612560.0 0
2127.52 617855.0 0
7076.74 616788.0 0
15208.9 615601.0 0
11907.1 618535.0 0
17426.9 619514.0 0
21716.5 616224.0 0
26533.3 619850.0 0
33137.2 619103.0 0
42313.3 618102.0 0
47762.3 615506.0 0
46778.7 620311.0 0
53157.8 619214.0 0
60093.0 619041.0 0
65252.4 620074.0 0
67723.2 615801.0 0
70190.4 620184.0 0
71962.3 615932.0 0
76621.9 618960.0 0
86826.9 619885.0 0
91865.8 617854.0 0
97487.0 615502.0 0
103430.0 620286.0 0
109128.0 620126.0 0
113102.0 618015.0 0
117098.0 619278.0 0
119991.0 617125.0 0
122906.0 619481.0 0
131798.0 615488.0 0
127676.0 619325.0 0
133338.0 620526.0 0
139321.0 619878.0 0
149323.0 617338.0 0
153921.0 619857.0 0
158700.0 617869.0 0
164121.0 618637.0 0
169407.0 616306.0 0
177624.0 617627.0 0
183337.0 616918.0 0
188171.0 619194.0 0
192931.0 615977.0 0
197040.0 616118.0 0
196871.0 619546.0 0
202563.0 616010.0 0
207637.0 615848.0 0
212292.0 615674.0 0
217663.0 616118.0 0
222906.0 615520.0 0
226639.0 619175.0 0
231029.0 615882.0 0
235968.0 616195.0 0
240824.0 616419.0 0
243020.0 620103.0 0
246041.0 615853.0 0
252465.0 619447.0 0
257718.0 616129.0 0
261159.0 619606.0 0
265912.0 619889.0 0
273340.0 616997.0 0
278544.0 616453.0 0
286988.0 616878.0 0
292318.0 616485.0 0
299801.0 619730.0 0
303252.0 615984.0 0
308663.0 619214.0 0
312694.0 616843.0 0
316833.0 620439.0 0
322327.0 617728.0 0
327061.0 616681.0 0
332574.0 615589.0 0
336287.0 620518.0 0
338611.0 615747.0 0
344367.0 616674.0 0
346792.0 619306.0 0
341931.0 620340.0 0
351978.0 619630.0 0
356693.0 616481.0 0
358921.0 620175.0 0
362533.0 616613.0 0
369254.0 617262.0 0
374543.0 616636.0 0
378297.0 616777.0 0
377600.0 620384.0 0
381332.0 619583.0 0
387268.0 616305.0 0
391064.0 618857.0 0
395741.0 616114.0 0
400104.0 616356.0 0
405996.0 615941.0 0
411294.0 615840.0 0
408238.0 619256.0 0
422775.0 617040.0 0
427582.0 619807.0 0
431480.0 616967.0 0
437076.0 616286.0 0
436722.0 620471.0 0
441055.0 620538.0 0
446969.0 616120.0 0
451492.0 619656.0 0
456834.0 616566.0 0
461692.0 615599.0 0
461307.0 620513.0 0
466660.0 616432.0 0
475073.0 615781.0 0
482892.0 619591.0 0
486450.0 616018.0 0
494182.0 618500.0 0
498259.0 616852.0 0
3371.7 623194.0 0
8758.56 621674.0 0
12943.7 622683.0 0
21818.7 621273.0 0
24438.3 624805.0 0
38701.2 621395.0 0
39174.8 625278.0 0
43108.9 624111.0 0
49327.2 623918.0 0
57497.0 624012.0 0
62299.1 623837.0 0
73928.7 621654.0 0
81592.4 621159.0 0
76894.5 624769.0 0
85918.1 624446.0 0
92904.5 622291.0 0
97274.4 621478.0 0
107329.0 625134.0 0
113481.0 622096.0 0
117694.0 623916.0 0
123417.0 625050.0 0
129043.0 624269.0 0
132979.0 625607.0 0
138196.0 625456.0 0
145020.0 621232.0 0
149971.0 621853.0 0
148227.0 625263.0 0
158025.0 622989.0 0
168410.0 621141.0 0
173988.0 621429.0 0
180002.0 621179.0 0
184485.0 621677.0 0
188406.0 624426.0 0
192917.0 620839.0 0
192910.0 625227.0 0
197113.0 624916.0 0
200985.0 621288.0 0
206701.0 621055.0 0
212801.0 621118.0 0
218381.0 621251.0 0
222669.0 621921.0 0
227899.0 624848.0 0
231965.0 620950.0 0
233018.0 625451.0 0
237379.0 621213.0 0
241619.0 624291.0 0
248009.0 621738.0 0
256657.0 621212.0 0
261409.0 625405.0 0
268191.0 625169.0 0
270501.0 620610.0 0
276307.0 621624.0 0
282707.0 620982.0 0
288948.0 621870.0 0
294725.0 621928.0 0
304703.0 620702.0 0
301463.0 625156.0 0
308030.0 625557.0 0
312218.0 621518.0 0
318077.0 624846.0 0
325461.0 621014.0 0
321609.0 622170.0 0
326317.0 625379.0 0
330667.0 621787.0 0
335056.0 625261.0 0
340102.0 625608.0 0
347726.0 624097.0 0
353045.0 625291.0 0
361875.0 622643.0 0
357774.0 624045.0 0
366537.0 622661.0 0
371375.0 624603.0 0
373733.0 620529.0 0
376891.0 625023.0 0
382047.0 624730.0 0
386217.0 621297.0 0
394792.0 621951.0 0
397925.0 624509.0 0
399311.0 620965.0 0
401498.0 624704.0 0
404134.0 620630.0 0
407467.0 624769.0 0
411957.0 621667.0 0
417978.0 620825.0 0
422699.0 624640.0 0
424158.0 621510.0 0
427105.0 624971.0 0
431563.0 622231.0 0
436712.0 625240.0 0
446420.0 621436.0 0
451398.0 625613.0 0
456406.0 621587.0 0
461764.0 625045.0 0
466147.0 621439.0 0
471345.0 620659.0 0
478131.0 621380.0 0
482380.0 625483.0 0
487320.0 621933.0 0
492861.0 623687.0 0
497870.0 621549.0 0
3714.96 630257.0 0
9513.68 626844.0 0
18088.5 625959.0 0
23487.4 629624.0 0
29180.2 627486.0 0
35213.1 625748.0 0
40360.6 629277.0 0
47128.2 628541.0 0
53114.0 627204.0 0
61301.9 629289.0 0
66335.4 626665.0 0
71666.1 626895.0 0
77400.8 629988.0 0
81790.5 627321.0 0
86453.7 630068.0 0
91009.0 626411.0 0
96223.3 626496.0 0
101455.0 626347.0 0
113057.0 627507.0 0
118535.0 628909.0 0
127862.0 630069.0 0
134448.0 630350.0 0
143774.0 627075.0 0
148754.0 629924.0 0
153285.0 626209.0 0
163165.0 625727.0 0
158362.0 630048.0 0
168367.0 630386.0 0
169458.0 626174.0 0
174371.0 626815.0 0
183466.0 625697.0 0
178772.0 626101.0 0
183484.0 630339.0 0
188612.0 629867.0 0
194554.0 630030.0 0
202803.0 625695.0 0
199671.0 630464.0 0
208418.0 625791.0 0
207242.0 630258.0 0
213048.0 626943.0 0
217798.0 625837.0 0
217103.0 630681.0 0
222601.0 626484.0 0
227104.0 630464.0 0
232024.0 629751.0 0
237481.0 626625.0 0
241619.0 629559.0 0
245617.0 626683.0 0
250022.0 626490.0 0
254941.0 626472.0 0
251685.0 630507.0 0
268873.0 630345.0 0
273832.0 626691.0 0
279436.0 626403.0 0
283731.0 625917.0 0
283570.0 630316.0 0
287241.0 626900.0 0
287998.0 630499.0 0
291611.0 626206.0 0
292964.0 630726.0 0
296255.0 627146.0 0
313725.0 625892.0 0
316938.0 629164.0 0
321966.0 627054.0 0
326402.0 630651.0 0
330742.0 627520.0 0
337801.0 630259.0 0
342332.0 630050.0 0
347229.0 629532.0 0
357023.0 628349.0 0
361300.0 627025.0 0
366561.0 627546.0 0
369259.0 630674.0 0
373505.0 629375.0 0
378277.0 630654.0 0
385772.0 626147.0 0
387122.0 630108.0 0
390871.0 626012.0 0
396320.0 628718.0 0
402101.0 629587.0 0
412918.0 627168.0 0
418649.0 627033.0 0
423572.0 630087.0 0
427472.0 629697.0 0
431472.0 626793.0 0
441855.0 625825.0 0
442014.0 630224.0 0
445958.0 626307.0 0
453766.0 630575.0 0
457316.0 626725.0 0
462811.0 629624.0 0
465682.0 625769.0 0
468058.0 629470.0 0
471747.0 626177.0 0
476272.0 626137.0 0
479100.0 630003.0 0
487222.0 627644.0 0
491997.0 628548.0 0
497465.0 626171.0 0
497977.0 630680.0 0
8977.73 634118.0 0
13703.3 631142.0 0
19182.4 633081.0 0
27392.7 632692.0 0
33481.6 631955.0 0
38531.3 635236.0 0
44161.7 633845.0 0
50547.7 633077.0 0
56049.2 632429.0 0
61350.5 634524.0 0
66898.0 632334.0 0
72813.8 632335.0 0
77348.2 635363.0 0
81697.1 632666.0 0
86111.1 635223.0 0
91523.0 632131.0 0
96589.6 631123.0 0
101542.0 631959.0 0
107667.0 631922.0 0
114640.0 632507.0 0
122159.0 632514.0 0
117894.0 634614.0 0
132246.0 635111.0 0
137307.0 635694.0 0
140149.0 631058.0 0
144737.0 633293.0 0
153222.0 631362.0 0
164318.0 631909.0 0
172574.0 631410.0 0
169020.0 635050.0 0
178352.0 631388.0 0
182021.0 635083.0 0
187139.0 634964.0 0
198087.0 634341.0 0
203180.0 630976.0 0
203009.0 635474.0 0
208814.0 635684.0 0
212278.0 631694.0 0
214164.0 635714.0 0
218426.0 635182.0 0
222107.0 631235.0 0
222529.0 635580.0 0
226786.0 635363.0 0
232152.0 635306.0 0
236824.0 631774.0 0
242113.0 634622.0 0
246693.0 631794.0 0
252165.0 635044.0 0
257049.0 632316.0 0
263700.0 632024.0 0
269025.0 635475.0 0
273201.0 631852.0 0
278019.0 631381.0 0
283365.0 635551.0 0
287617.0 635651.0 0
291867.0 635379.0 0
296384.0 630854.0 0
300198.0 630961.0 0
296278.0 634130.0 0
306100.0 631873.0 0
312050.0 630755.0 0
321330.0 631562.0 0
316764.0 634574.0 0
328512.0 635638.0 0
332659.0 632358.0 0
336894.0 635455.0 0
341857.0 634772.0 0
347373.0 635239.0 0
352640.0 630828.0 0
358354.0 633831.0 0
363596.0 631138.0 0
367260.0 635156.0 0
373264.0 634909.0 0
378667.0 635490.0 0
382747.0 632227.0 0
387442.0 635248.0 0
391747.0 631684.0 0
395780.0 634778.0 0
401201.0 635119.0 0
408102.0 630770.0 0
411171.0 635125.0 0
413531.0 631857.0 0
414718.0 635804.0 0
418401.0 633055.0 0
428465.0 633531.0 0
423581.0 635598.0 0
432674.0 630851.0 0
433234.0 635755.0 0
437009.0 630793.0 0
438320.0 635010.0 0
442252.0 634542.0 0
448572.0 630771.0 0
446200.0 635340.0 0
451760.0 635813.0 0
458272.0 631667.0 0
456544.0 635138.0 0
460925.0 635439.0 0
465990.0 634211.0 0
473203.0 631934.0 0
484291.0 632136.0 0
480202.0 634956.0 0
488661.0 631656.0 0
493807.0 632235.0 0
497110.0 635654.0 0
3267.43 637182.0 0
8494.04 639330.0 0
14353.9 637164.0 0
19439.3 638138.0 0
23835.2 636574.0 0
22092.8 640685.0 0
28988.3 637287.0 0
33797.1 637562.0 0
43037.7 639629.0 0
48110.0 637176.0 0
52873.3 637778.0 0
58108.8 636841.0 0
64586.6 636790.0 0
68864.8 639713.0 0
74048.3 637263.0 0
77620.3 640781.0 0
81837.6 637969.0 0
90398.1 636881.0 0
86918.6 640358.0 0
95264.4 636241.0 0
100744.0 637191.0 0
97305.4 640462.0 0
106101.0 637966.0 0
112121.0 636025.0 0
116401.0 639784.0 0
121335.0 637457.0 0
127006.0 636905.0 0
133369.0 640028.0 0
142349.0 637876.0 0
138168.0 640786.0 0
146439.0 640854.0 0
148879.0 636191.0 0
151244.0 640480.0 0
154182.0 636049.0 0
159942.0 636020.0 0
165280.0 637587.0 0
173237.0 636749.0 0
177610.0 636141.0 0
176253.0 640841.0 0
182078.0 640643.0 0
188160.0 640514.0 0
192907.0 636400.0 0
198592.0 639501.0 0
205506.0 639955.0 0
212344.0 640178.0 0
216740.0 640252.0 0
221031.0 639992.0 0
226465.0 640572.0 0
231405.0 640387.0 0
238105.0 636031.0 0
236691.0 640845.0 0
242946.0 640092.0 0
247109.0 636843.0 0
247773.0 640902.0 0
251759.0 639588.0 0
257549.0 637228.0 0
261095.0 636655.0 0
266035.0 640348.0 0
274040.0 636306.0 0
270962.0 640356.0 0
278580.0 636197.0 0
275959.0 640758.0 0
282153.0 640255.0 0
286676.0 640286.0 0
291361.0 640385.0 0
300847.0 636798.0 0
295902.0 638608.0 0
305919.0 637045.0 0
310913.0 636542.0 0
307922.0 640240.0 0
315871.0 640201.0 0
323238.0 636235.0 0
325653.0 639839.0 0
332745.0 636920.0 0
335475.0 640186.0 0
341281.0 640522.0 0
352836.0 636232.0 0
360258.0 640552.0 0
362793.0 636259.0 0
374283.0 639669.0 0
382989.0 636583.0 0
383623.0 640717.0 0
391732.0 636831.0 0
388860.0 640801.0 0
393754.0 640129.0 0
398094.0 639365.0 0
402916.0 640530.0 0
406574.0 636692.0 0
407525.0 640208.0 0
411155.0 639976.0 0
417061.0 639847.0 0
422167.0 640319.0 0
427462.0 640194.0 0
432594.0 640412.0 0
437030.0 639746.0 0
442717.0 639543.0 0
448097.0 639913.0 0
457836.0 639364.0 0
466355.0 639570.0 0
470389.0 636849.0 0
475735.0 637913.0 0
484250.0 637109.0 0
480854.0 640548.0 0
490408.0 636963.0 0
497547.0 640969.0 0
2052.23 642319.0 0
6235.91 643456.0 0
12237.8 642608.0 0
17849.5 642810.0 0
23350.6 644950.0 0
26204.0 641251.0 0
29424.7 645868.0 0
32474.4 641751.0 0
37435.2 641603.0 0
41632.9 644400.0 0
48070.5 642015.0 0
52827.3 644112.0 0
56786.2 640999.0 0
57546.0 645892.0 0
62402.3 641298.0 0
66391.7 645298.0 0
71134.8 644827.0 0
73545.5 641630.0 0
75909.3 645453.0 0
82648.4 642607.0 0
92801.8 641096.0 0
96956.4 644806.0 0
102167.0 642094.0 0
106257.0 642467.0 0
110541.0 640932.0 0
121518.0 642027.0 0
126200.0 642704.0 0
130817.0 645404.0 0
135924.0 644547.0 0
142139.0 642760.0 0
147582.0 645819.0 0
152644.0 645110.0 0
156162.0 641440.0 0
157214.0 645945.0 0
161106.0 641185.0 0
165436.0 643075.0 0
170548.0 641358.0 0
177698.0 645430.0 0
181910.0 645897.0 0
193643.0 642481.0 0
198422.0 645064.0 0
202219.0 642189.0 0
202953.0 645705.0 0
208700.0 645440.0 0
216014.0 644025.0 0
220442.0 645244.0 0
230848.0 645083.0 0
240330.0 645979.0 0
246155.0 645966.0 0
256291.0 641116.0 0
259509.0 645852.0 0
261072.0 640951.0 0
268990.0 645242.0 0
273408.0 645018.0 0
278464.0 645743.0 0
283244.0 644715.0 0
287034.0 644145.0 0
291264.0 645883.0 0
296722.0 643456.0 0
301865.0 642316.0 0
306410.0 643990.0 0
311475.0 642109.0 0
321194.0 641257.0 0
330084.0 640933.0 0
326575.0 645012.0 0
337249.0 645552.0 0
342363.0 645431.0 0
347632.0 641394.0 0
350937.0 645826.0 0
353771.0 641688.0 0
366583.0 641080.0 0
363548.0 646025.0 0
371363.0 642402.0 0
368728.0 645353.0 0
375115.0 645394.0 0
378696.0 641147.0 0
379853.0 645746.0 0
384360.0 645386.0 0
392721.0 643756.0 0
397532.0 644924.0 0
402482.0 644149.0 0
407086.0 644771.0 0
413252.0 645082.0 0
418695.0 645464.0 0
423753.0 644471.0 0
428352.0 645863.0 0
433630.0 645111.0 0
438361.0 644071.0 0
442751.0 645412.0 0
448316.0 645176.0 0
452927.0 641739.0 0
457657.0 644147.0 0
462068.0 641850.0 0
466927.0 645363.0 0
472055.0 641034.0 0
472626.0 645148.0 0
476806.0 643154.0 0
481828.0 645622.0 0
486083.0 642239.0 0
493045.0 642701.0 0
497892.0 645513.0 0
2967.4 647287.0 0
8029.32 647389.0 0
12536.2 647626.0 0
20284.8 646169.0 0
17448.7 648359.0 0
24068.4 649200.0 0
27439.8 649920.0 0
36569.5 647793.0 0
42043.6 648724.0 0
46677.1 646163.0 0
50429.6 647992.0 0
46594.2 650475.0 0
54765.0 650815.0 0
60537.1 650858.0 0
62017.7 646473.0 0
65788.4 650433.0 0
72286.4 650828.0 0
81129.9 647507.0 0
85499.0 651041.0 0
87036.3 646118.0 0
92386.1 646171.0 0
101434.0 646822.0 0
97142.2 649773.0 0
106494.0 646845.0 0
112148.0 646536.0 0
118312.0 646405.0 0
123589.0 646471.0 0
127233.0 650121.0 0
139955.0 647023.0 0
143602.0 646024.0 0
144898.0 650117.0 0
154615.0 649986.0 0
161708.0 646274.0 0
159639.0 650558.0 0
168072.0 646540.0 0
167754.0 650491.0 0
163818.0 650813.0 0
172910.0 646745.0 0
177280.0 651042.0 0
183646.0 650897.0 0
187533.0 646334.0 0
192337.0 646721.0 0
188806.0 651062.0 0
192127.0 649778.0 0
197404.0 650860.0 0
203466.0 650445.0 0
213903.0 647145.0 0
213909.0 650617.0 0
217664.0 650097.0 0
222294.0 650368.0 0
225557.0 646104.0 0
227427.0 650968.0 0
232909.0 650717.0 0
235677.0 646313.0 0
238566.0 650768.0 0
242979.0 650344.0 0
253126.0 646258.0 0
251796.0 651062.0 0
264182.0 646025.0 0
260838.0 651020.0 0
265903.0 650015.0 0
271782.0 650886.0 0
276958.0 650234.0 0
282170.0 650560.0 0
287636.0 649491.0 0
300760.0 646981.0 0
296039.0 649120.0 0
305736.0 649640.0 0
310184.0 646323.0 0
316025.0 646423.0 0
311645.0 651050.0 0
322078.0 646645.0 0
331493.0 646400.0 0
327396.0 650527.0 0
332584.0 651043.0 0
337027.0 651038.0 0
346453.0 647052.0 0
341834.0 649729.0 0
351962.0 650429.0 0
357565.0 646517.0 0
367667.0 649755.0 0
372369.0 649347.0 0
376917.0 650402.0 0
382069.0 650101.0 0
389236.0 646274.0 0
393947.0 650362.0 0
402143.0 647513.0 0
411478.0 650317.0 0
417176.0 650915.0 0
423325.0 650147.0 0
437549.0 647631.0 0
435220.0 651113.0 0
440919.0 650373.0 0
446522.0 650799.0 0
453905.0 647086.0 0
458316.0 650550.0 0
461484.0 646351.0 0
464028.0 650564.0 0
469210.0 650805.0 0
473940.0 649745.0 0
477941.0 646643.0 0
478668.0 650665.0 0
483132.0 650024.0 0
489688.0 646233.0 0
487708.0 650966.0 0
494097.0 647027.0 0
492493.0 650836.0 0
497345.0 650267.0 0
2916.29 652951.0 0
8590.8 652202.0 0
14358.0 652101.0 0
11914.0 655975.0 0
17543.0 655875.0 0
20622.4 652021.0 0
21680.7 656062.0 0
25967.0 654149.0 0
30928.8 651194.0 0
35047.2 652929.0 0
31648.4 656034.0 0
39508.9 652648.0 0
42068.6 656077.0 0
50261.2 652617.0 0
46271.5 655386.0 0
58177.1 655619.0 0
63472.8 655168.0 0
68059.0 654853.0 0
78392.5 652281.0 0
82110.2 651774.0 0
81825.2 655770.0 0
91599.7 651830.0 0
86931.5 655631.0 0
97156.1 655852.0 0
103021.0 652511.0 0
109085.0 651488.0 0
112221.0 655835.0 0
113620.0 651214.0 0
116849.0 653898.0 0
121531.0 651441.0 0
133717.0 651349.0 0
140143.0 652414.0 0
144570.0 655249.0 0
149569.0 651504.0 0
153270.0 655500.0 0
158309.0 654820.0 0
162920.0 655153.0 0
168201.0 655363.0 0
171807.0 651745.0 0
174058.0 654787.0 0
181782.0 655837.0 0
186674.0 655926.0 0
192358.0 654723.0 0
201775.0 655093.0 0
209198.0 652499.0 0
214585.0 654964.0 0
218990.0 655542.0 0
222500.0 655583.0 0
232163.0 655776.0 0
237227.0 655895.0 0
242366.0 655004.0 0
247860.0 651698.0 0
252500.0 655587.0 0
255777.0 651850.0 0
261532.0 656208.0 0
267199.0 655738.0 0
277603.0 654799.0 0
286749.0 654658.0 0
291571.0 652259.0 0
300526.0 651469.0 0
296747.0 655241.0 0
302639.0 655806.0 0
307580.0 655035.0 0
312205.0 656154.0 0
316824.0 652888.0 0
321894.0 651454.0 0
331724.0 655546.0 0
342972.0 654653.0 0
347109.0 652062.0 0
357766.0 652832.0 0
362983.0 651151.0 0
366582.0 654332.0 0
362477.0 655602.0 0
372109.0 654365.0 0
376882.0 654922.0 0
381050.0 654988.0 0
387550.0 651566.0 0
396901.0 655526.0 0
399565.0 651184.0 0
405517.0 651884.0 0
412887.0 655254.0 0
422462.0 655303.0 0
426710.0 655885.0 0
429660.0 651253.0 0
432775.0 655310.0 0
437550.0 655866.0 0
442991.0 655210.0 0
448170.0 656233.0 0
451811.0 651536.0 0
452402.0 655489.0 0
456580.0 655824.0 0
461868.0 655567.0 0
467408.0 655690.0 0
472629.0 654280.0 0
477328.0 655130.0 0
482300.0 654881.0 0
493001.0 655149.0 0
497500.0 655230.0 0
1225.62 656732.0 0
2838.67 660462.0 0
6667.45 656557.0 0
13296.2 660803.0 0
18052.3 660397.0 0
27239.3 660188.0 0
37289.6 657678.0 0
42120.8 661088.0 0
47687.9 660369.0 0
52482.7 656858.0 0
56748.6 660936.0 0
62038.3 660126.0 0
67587.8 660454.0 0
71611.0 657131.0 0
76717.2 657340.0 0
84291.5 661170.0 0
91619.3 658106.0 0
99113.5 661114.0 0
107120.0 656893.0 0
102074.0 657809.0 0
108983.0 661090.0 0
112941.0 660412.0 0
118091.0 658757.0 0
122836.0 656582.0 0
128696.0 656318.0 0
135227.0 658133.0 0
139559.0 656551.0 0
143476.0 660227.0 0
148632.0 656668.0 0
151047.0 660750.0 0
157255.0 660331.0 0
163004.0 659929.0 0
167839.0 661296.0 0
172982.0 659136.0 0
177440.0 656522.0 0
178031.0 661082.0 0
183272.0 660629.0 0
188128.0 660466.0 0
192589.0 660262.0 0
197486.0 656505.0 0
197271.0 661151.0 0
202500.0 660460.0 0
206033.0 657844.0 0
212686.0 660278.0 0
217500.0 660416.0 0
222500.0 660284.0 0
226803.0 656625.0 0
232879.0 660433.0 0
237742.0 660804.0 0
242755.0 659567.0 0
247051.0 656537.0 0
247915.0 660857.0 0
252108.0 659829.0 0
256700.0 656495.0 0
256403.0 660720.0 0
260824.0 661211.0 0
265600.0 660932.0 0
272676.0 656708.0 0
277038.0 660841.0 0
282106.0 657588.0 0
286927.0 660550.0 0
291419.0 657259.0 0
304075.0 660456.0 0
308286.0 659443.0 0
320934.0 656395.0 0
316434.0 657752.0 0
326410.0 656468.0 0
323333.0 660508.0 0
333238.0 661120.0 0
337570.0 656721.0 0
342769.0 660539.0 0
347492.0 657135.0 0
352902.0 656314.0 0
357989.0 658360.0 0
362953.0 661263.0 0
368523.0 658675.0 0
378339.0 659282.0 0
385443.0 656926.0 0
391356.0 656436.0 0
401796.0 656267.0 0
398023.0 660632.0 0
407830.0 657484.0 0
403361.0 661104.0 0
412648.0 660489.0 0
417860.0 656627.0 0
422272.0 659857.0 0
430293.0 658594.0 0
434909.0 661306.0 0
441104.0 660561.0 0
452455.0 660645.0 0
459252.0 661057.0 0
464407.0 659635.0 0
469196.0 661256.0 0
474398.0 658984.0 0
479403.0 659994.0 0
483976.0 659520.0 0
488517.0 656360.0 0
492847.0 659103.0 0
497500.0 660203.0 0
1560.13 665497.0 0
8061.0 661379.0 0
5605.34 665964.0 0
10833.9 665528.0 0
17025.4 665679.0 0
22101.5 662561.0 0
28265.1 665661.0 0
32854.6 661505.0 0
37549.7 663322.0 0
42369.0 666234.0 0
47062.5 665538.0 0
52118.1 662620.0 0
62420.6 665377.0 0
67087.3 665390.0 0
73058.7 662062.0 0
78416.6 662497.0 0
89782.9 662578.0 0
87178.0 666036.0 0
94488.6 662403.0 0
104190.0 662193.0 0
108580.0 665951.0 0
116009.0 662675.0 0
122238.0 661572.0 0
119328.0 665869.0 0
128256.0 663725.0 0
134936.0 663351.0 0
139086.0 661622.0 0
138557.0 666131.0 0
147053.0 662522.0 0
143443.0 665258.0 0
162834.0 665071.0 0
167742.0 666298.0 0
173403.0 665425.0 0
177940.0 666384.0 0
181752.0 665869.0 0
187123.0 665225.0 0
193329.0 666181.0 0
198752.0 665134.0 0
202947.0 665087.0 0
208073.0 662360.0 0
212271.0 665676.0 0
217524.0 665184.0 0
222454.0 665308.0 0
227996.0 661934.0 0
231415.0 665164.0 0
236422.0 665514.0 0
241605.0 664174.0 0
247246.0 665969.0 0
253438.0 665046.0 0
258735.0 665481.0 0
262741.0 665297.0 0
267161.0 665733.0 0
270812.0 661809.0 0
273265.0 666274.0 0
277709.0 666365.0 0
282326.0 661989.0 0
281840.0 665512.0 0
286947.0 665753.0 0
292523.0 662389.0 0
298630.0 661578.0 0
301826.0 665835.0 0
306183.0 664700.0 0
310572.0 665411.0 0
312851.0 661353.0 0
318519.0 662329.0 0
327902.0 661704.0 0
331318.0 666087.0 0
337965.0 662634.0 0
351182.0 661356.0 0
347005.0 663965.0 0
356606.0 663701.0 0
367779.0 666002.0 0
373240.0 662321.0 0
382988.0 661409.0 0
384906.0 665978.0 0
388425.0 661764.0 0
393462.0 661857.0 0
394667.0 666222.0 0
399999.0 665913.0 0
407994.0 662751.0 0
404035.0 665224.0 0
412967.0 665851.0 0
417732.0 661791.0 0
422666.0 664925.0 0
426984.0 661848.0 0
431781.0 665442.0 0
441465.0 666369.0 0
446507.0 663113.0 0
462151.0 665934.0 0
473674.0 665849.0 0
484247.0 663654.0 0
479822.0 665438.0 0
488177.0 661604.0 0
492976.0 664592.0 0
2251.06 669908.0 0
10558.7 671472.0 0
23609.6 667534.0 0
27762.2 671162.0 0
33236.1 666901.0 0
38056.7 667826.0 0
47155.5 671350.0 0
51714.1 667361.0 0
57050.3 666502.0 0
63543.9 670725.0 0
71188.7 667001.0 0
68416.1 670613.0 0
76005.1 666786.0 0
72799.0 671532.0 0
77431.8 671409.0 0
81797.5 667670.0 0
87356.3 670437.0 0
91947.3 666893.0 0
97778.9 666519.0 0
103205.0 667849.0 0
107363.0 671152.0 0
113940.0 666478.0 0
112261.0 670631.0 0
117330.0 670560.0 0
123879.0 668449.0 0
128126.0 669731.0 0
133555.0 667636.0 0
137293.0 671108.0 0
147018.0 666449.0 0
142956.0 670529.0 0
151454.0 666554.0 0
148065.0 670385.0 0
157399.0 666678.0 0
162928.0 670165.0 0
167356.0 670836.0 0
172158.0 671292.0 0
177548.0 670205.0 0
182504.0 670793.0 0
186766.0 670310.0 0
197788.0 671027.0 0
203474.0 670000.0 0
207329.0 666718.0 0
208227.0 671233.0 0
213257.0 670801.0 0
218092.0 670239.0 0
222109.0 670214.0 0
226545.0 666460.0 0
225917.0 670744.0 0
230907.0 670668.0 0
236695.0 670731.0 0
242523.0 670114.0 0
248076.0 671509.0 0
252473.0 671229.0 0
256707.0 669727.0 0
266725.0 671526.0 0
272408.0 670918.0 0
283226.0 669663.0 0
288526.0 671223.0 0
290977.0 666925.0 0
296073.0 667559.0 0
301142.0 670441.0 0
307536.0 670810.0 0
315004.0 666912.0 0
320078.0 667321.0 0
325616.0 667068.0 0
336086.0 666657.0 0
332207.0 670990.0 0
341991.0 667225.0 0
351376.0 666783.0 0
347211.0 669104.0 0
356257.0 669542.0 0
361443.0 667398.0 0
367795.0 671199.0 0
372929.0 669072.0 0
378763.0 666539.0 0
382420.0 670375.0 0
386600.0 671236.0 0
389760.0 667095.0 0
392358.0 671479.0 0
397539.0 670968.0 0
402476.0 670493.0 0
407186.0 667679.0 0
411670.0 670900.0 0
418140.0 666507.0 0
422793.0 670109.0 0
427333.0 667108.0 0
432595.0 670227.0 0
436427.0 666553.0 0
438081.0 671215.0 0
446085.0 668235.0 0
451479.0 667342.0 0
457330.0 667153.0 0
462299.0 671052.0 0
467392.0 667247.0 0
477766.0 670553.0 0
482860.0 670591.0 0
487460.0 667622.0 0
492474.0 670770.0 0
497909.0 666473.0 0
497458.0 670472.0 0
5529.82 671981.0 0
17111.1 672178.0 0
22589.8 672318.0 0
33293.2 672369.0 0
38708.6 672644.0 0
42835.0 674393.0 0
53061.1 672356.0 0
58238.7 671809.0 0
82575.3 672609.0 0
92588.9 672057.0 0
98304.5 672048.0 0
102959.0 672558.0 0
121470.0 672042.0 0
125524.0 672796.0 0
132000.0 673200.0 0
153275.0 671986.0 0
158524.0 672027.0 0
191019.0 671841.0 0
261170.0 671707.0 0
277891.0 671609.0 0
293438.0 671992.0 0
297345.0 673447.0 0
313493.0 671854.0 0
318584.0 672086.0 0
323152.0 671585.0 0
327443.0 672616.0 0
337528.0 672053.0 0
342777.0 673169.0 0
351768.0 672209.0 0
347202.0 673080.0 0
359273.0 673393.0 0
363751.0 672129.0 0
377180.0 671854.0 0
372524.0 673557.0 0
406578.0 672685.0 0
417375.0 671885.0 0
427691.0 672315.0 0
443253.0 672024.0 0
448206.0 672009.0 0
452856.0 673092.0 0
457451.0 671788.0 0
467081.0 672610.0 0
472279.0 672048.0 0
487933.0 672742.0 0
POINT_DATA 5000
SCALARS Radius float 1
LOOKUP_TABLE default
5337.48 6124.89 4780.03 7613.27 4951.03 5529.52 6756.95 4329.05 4151.94 4049.23 4929.8 5708.81 5252.48 4015.92 5495.39 3996.0 3856.1 4665.12 3383.4 4133.88 4834.9 3850.77 6044.04 5415.48 5120.0 3863.18 2356.98 4998.37 6182.6 5492.18 5258.36 5061.3 3642.12 3163.97 5812.43 5122.66 5906.14 5484.19 7513.1 5254.28 4436.4 5733.48 4672.91 5580.89 5645.7 5176.86 6810.52 5840.26 3672.51 6110.27 5561.06 5073.35 3615.22 4380.59 5670.04 3589.27 6716.79 3607.45 5759.91 3038.33 4333.2 5255.32 6037.08 5096.78 6324.23 4736.58 3485.26 4931.38 6082.81 4685.34 4382.74 5601.05 3586.91 3103.0 3554.9 5481.78 5542.21 4487.31 3936.02 4044.71 4094.62 5980.74 4927.02 5546.39 5325.36 5484.83 5085.53 5351.6 4730.36 4715.55 5867.73 3951.75 5013.56 4499.64 4375.68 5542.27 5054.98 6030.06 5170.02 3557.27 4927.31 4688.68 4402.52 4517.56 4182.53 5903.42 3588.44 3955.56 3761.32 4118.05 4366.19 5553.16 2938.66 4940.78 4231.61 4008.92 3942.53 4827.82 3379.84 3997.1 3260.67 5123.52 4392.68 4295.38 7199.21 4523.7 2240.39 5091.39 4612.68 5293.9 4129.43 4727.24 3843.58 3320.52 4194.5 5191.63 5379.87 4792.73 4501.51 4556.36 3191.99 5110.37 5927.43 4651.28 4384.42 4362.19 4516.43 5637.59 4937.14 5043.05 5816.2 5109.54 5693.81 6483.19 5945.65 6759.9 5538.89 7021.47 5416.38 6059.59 4955.55 2720.68 5701.86 3563.63 4238.81 4468.59 5885.03 2837.58 5325.02 5200.76 5017.13 4862.64 5185.34 4432.58 6684.56 3968.64 4688.67 5292.64 2635.86 6166.5 5065.13 5936.02 5305.17 4861.08 4003.05 5390.22 4712.33 4805.87 5227.21 5697.78 4667.36 4091.31 6372.62 4254.17 5615.42 7565.34 5923.5 3912.37 4973.83 6142.94 4602.25 4270.53 5082.47 4790.08 5344.25 4593.7 4478.15 4043.57 5925.6 3708.04 5513.6 3240.09 4901.41 5664.98 6327.9 6355.42 3693.63 5690.56 4948.92 3115.91 4493.48 3307.12 5924.89 4002.16 4138.16 4174.52 3486.22 3829.13 4684.5 6230.49 6458.82 5418.62 4601.27 5493.32 5740.68 5926.61 6051.14 5836.15 3261.21 4345.55 6704.06 3653.41 3871.88 3856.01 5246.2 4390.66 5279.39 3673.74 5205.43 6116.18 7447.37 4924.6 4385.06 4733.32 7184.19 2899.43 2924.37 4290.3 3867.67 5399.73 4660.72 3888.21 5891.05 6038.78 6902.81 6644.76 5629.19 5090.24 4786.6 5740.84 5530.87 4281.49 6342.25 6691.39 5344.0 4840.84 4763.45 4150.99 5445.87 4216.92 4177.94 3929.19 4107.03 3771.48 4271.69 5681.38 5198.77 4138.42 5987.17 6013.14 5138.31 5264.06 4659.59 4048.37 5492.26 5244.78 5762.84 3937.74 4749.8 6084.86 4778.34 5478.92 5551.36 6894.71 4414.54 3091.3 5789.98 7054.71 5489.43 3641.64 5747.75 4277.89 5054.25 4796.33 4195.44 5539.32 5360.19 6496.85 5600.93 4874.39 5541.59 4124.71 5728.85 4827.23 4911.47 5803.39 5863.59 4381.97 6257.19 3255.82 5242.73 2812.98 4065.69 5603.15 4695.45 6052.7 3798.62 3921.18 3666.57 5308.1 4937.02 5655.21 4645.41 4433.59 6445.94 4310.18 4218.06 7134.64 5978.9 4187.56 3629.62 4997.27 5135.69 6045.46 4290.14 4020.32 3815.26 4245.72 4704.72 4571.7 4742.68 4344.58 5634.83 5782.6 5113.21 4502.5 5922.5 3970.25 5147.67 5643.58 4292.06 3979.82 2765.2 5011.31 5006.58 4602.86 3688.8 4548.16 3369.23 5449.18 4220.88 6519.71 6640.13 5082.6 5810.84 4230.54 5094.44 3748.24 4655.49 4467.94 4850.81 6038.14 6138.47 2540.31 6029.66 5527.54 5573.7 5697.4 4727.62 4270.95 4055.8 7325.81 5280.17 6425.26 4794.96 6186.19 4839.34 5083.08 6834.49 6337.56 5525.39 3998.5 5938.34 4024.3 6394.38 5555.28 5169.36 4737.14 4686.65 5834.74 5556.96 5788.23 5581.75 6392.01 6730.19 4907.89 4907.06 4073.93 3735.44 6043.3 5952.75 4320.28 5542.14 4931.53 5480.13 6308.71 4716.19 5514.76 4301.06 3456.98 4877.67 6562.18 5908.1 4541.21 6048.7 5896.46 5495.84 6268.1 7034.11 4862.21 6261.42 5499.11 4011.77 3633.87 5347.48 4850.01 5215.05 5577.04 6318.18 4481.53 5586.81 3948.17 4581.13 4621.75 4551.24 5358.59 4515.71 3092.35 4322.15 5210.03 3629.96 5478.47 5351.39 6142.37 6061.47 4933.21 5375.47 5120.49 5262.61 6302.8 5409.61 6038.2 4005.44 5206.78 5555.88 6732.43 5143.58 3866.16 6362.12 4484.76 4840.01 2980.99 5611.2 7933.0 4455.12 5173.87 4894.16 5380.13 5711.87 5118.27 4941.22 5932.23 5791.61 3369.13 4479.66 5367.2 3043.85 5461.13 3599.45 4726.76 5839.13 5495.68 5489.34 5163.9 5708.14 5537.72 6332.36 3920.42 6122.55 2739.94 4223.33 5911.67 6695.82 6405.76 3066.13 3498.2 5105.16 4302.5 6006.16 4156.38 5316.75 4164.68 5022.8 6133.92 3784.5 3719.84 4178.4 5934.22 3471.03 5253.55 5011.84 5820.48 6946.21 2586.12 5433.8 6125.34 4527.08 5965.78 4374.35 4810.12 2775.04 4138.46 3821.72 4986.77 5137.34 5330.45 3856.59 4219.07 3610.4 5413.79 6387.01 5367.52 5025.39 4714.54 5893.5 3320.11 5030.91 6022.17 5119.37 3982.23 6163.38 4566.18 4723.12 3459.9 4964.09 5201.36 5024.9 4306.53 5659.17 5094.81 5972.06 5713.22 5861.71 5028.96 4359.04 3183.98 3794.63 4524.28 3778.1 5152.36 4511.82 5826.64 4220.65 6820.42 4816.2 6321.41 4896.52 4751.02 3372.79 5184.56 5282.64 4715.72 4669.66 4808.52 5046.33 5607.24 5053.92 6352.26 3847.38 3818.59 4863.72 5002.48 4262.82 6623.85 5102.36 8332.24 6155.31 4342.9 4553.56 5329.64 3323.28 6049.55 5709.62 5835.78 5794.24 4678.38 5448.61 5050.65 6009.88 4827.33 7055.53 5013.67 5669.65 5624.49 3780.23 4861.06 6481.79 3979.26 6608.73 5188.81 4359.62 3745.84 6057.22 5062.71 4497.59 5975.63 5252.34 6396.74 6898.19 6035.6 5423.0 5077.33 4746.52 3689.45 5572.95 6338.89 6202.55 7111.16 4547.19 3817.13 5507.24 4583.31 4503.89 5806.08 4997.27 4853.39 4809.42 4093.08 4449.22 5543.27 4717.05 6135.57 5998.38 4312.67 5423.8 4270.24 4989.15 5017.78 5015.69 6175.81 4727.24 6677.09 4305.57 6959.81 4829.35 5201.67 4089.76 5526.55 3192.41 5215.15 4987.87 3315.57 5804.71 4764.96 5727.3 4242.52 5356.51 4277.88 3057.03 4087.15 4143.08 7500.97 3948.23 5228.18 5787.31 5065.11 5069.84 4051.44 4241.89 5054.74 4127.74 5941.72 2476.04 5991.09 3942.07 7443.72 3937.08 5260.34 5513.57 5729.23 5826.04 5339.78 3095.48 5762.59 4166.08 4123.6 5320.28 5374.51 5224.12 6739.08 4796.58 4298.67 5960.66 3999.48 4962.09 4203.26 4730.41 5696.88 3923.03 5690.26 4156.2 5607.14 4289.17 5564.02 2965.79 4274.61 4410.55 7099.43 5526.14 5198.29 6449.45 3975.31 5125.78 3824.16 4373.47 3868.18 6723.16 5584.06 3686.21 6480.17 5023.15 4377.07 6851.54 3813.22 5570.3 4336.42 5243.29 7589.94 3130.65 5628.24 5856.11 5287.2 3327.49 4109.88 4234.94 4562.29 5013.13 5080.66 3417.33 4926.42 4164.13 4642.34 4520.1 4947.52 5874.89 4293.03 5813.4 4389.21 3791.79 4424.7 4925.44 4754.05 4951.47 6084.93 4307.28 3697.96 4739.42 5538.93 5020.12 4745.45 2631.9 5281.28 6255.18 4758.21 4668.71 7228.46 6362.14 6719.88 5978.82 3927.99 5868.82 4050.9 4978.31 4099.77 4981.9 4537.32 4656.78 5126.91 5133.97 6600.94 5371.02 6155.1 5206.48 4709.35 6586.45 5226.0 4373.3 4750.78 3365.82 4143.78 7092.87 4850.14 4797.52 7042.12 4569.12 4471.58 3637.61 6098.14 5873.69 4472.17 6222.42 5654.31 4938.74 5470.77 4643.85 4004.04 5082.74 6915.83 6072.45 6444.77 4287.63 5315.4 4516.28 3627.82 4044.45 5344.43 6070.58 5045.38 5350.88 5372.61 5130.91 5402.24 4519.22 6445.22 3844.9 5101.59 3695.36 3963.86 3848.93 4306.11 5935.47 3402.32 5903.66 4528.49 5004.67 5365.89 5992.26 3960.8 5070.39 4980.85 5714.58 5110.45 5208.32 5248.77 4083.97 4607.02 5153.74 4528.09 3895.51 4165.81 6291.51 4128.98 5882.89 6246.22 4188.32 5246.61 4100.38 5344.77 4723.48 5097.87 4899.11 4278.07 7267.18 6256.02 5269.18 5320.92 4406.1 5034.59 4942.77 4263.33 5080.18 5266.5 4523.88 4066.38 3279.1 4948.98 5227.52 4560.84 4729.43 4414.48 4092.24 5163.02 4562.74 7144.24 3600.43 4906.82 4788.58 5131.24 5196.67 6496.67 5876.71 6262.72 4163.5 5029.78 3664.11 4538.95 4970.88 4763.66 4666.81 5163.55 6326.39 4819.73 6817.32 2965.01 4319.79 6643.85 6343.14 5501.93 5463.38 5945.21 5750.71 6470.3 3474.39 4831.47 4200.03 6062.05 4735.33 5411.85 4844.57 5092.37 4027.46 4470.98 6314.07 5776.37 3921.08 4190.31 5678.96 5262.19 4244.9 5490.43 6034.41 5452.83 4959.34 4948.5 4527.02 4531.14 4564.34 4871.44 3838.56 5076.35 6020.48 6375.99 5200.05 5234.29 5313.66 5419.37 4466.03 4511.54 5409.33 5196.0 4923.9 4973.78 3329.99 3947.47 3296.27 5091.68 4713.25 4204.84 6243.0 6673.96 3556.85 5441.96 3435.9 5174.89 4288.3 5370.52 4652.29 5774.81 3746.31 5498.32 5027.98 5346.27 6475.1 4969.21 2691.29 2845.98 5289.52 5314.85 4305.43 5450.44 6510.17 5742.65 5592.32 4454.63 5912.61 4403.98 6193.35 6086.96 5233.78 5776.57 5683.26 5598.74 5687.83 5004.23 6442.69 5474.8 4648.04 6607.87 6515.84 2990.77 5724.64 4888.6 5965.15 5078.86 4780.2 4636.5 4940.42 3382.7 3703.1 3954.91 6471.55 5085.71 5499.39 5644.82 6263.44 5960.56 5774.97 4020.95 5862.86 5462.21 6313.06 3493.7 4719.7 6939.12 4406.4 5313.22 3905.51 4413.85 3999.94 4864.22 3901.8 5759.46 5083.41 7055.42 5486.68 6048.86 4285.32 5022.28 5197.52 5178.99 5383.07 4591.87 4790.78 5013.42 4247.15 6552.22 5651.07 6248.81 5273.35 4091.8 4645.58 2651.49 5512.23 5275.32 5985.29 4898.94 4178.15 4613.31 4733.04 6119.09 5788.66 7531.29 5069.25 5048.89 5935.03 3161.47 3991.03 6390.78 7435.25 6826.57 4788.87 4495.87 3702.37 6022.72 4643.31 5527.33 6917.52 5402.21 4989.09 4880.14 4982.31 4307.48 3848.54 5941.4 5331.02 4871.96 4863.23 4402.67 5381.16 4470.61 5565.13 4384.88 6887.27 3701.27 4806.34 5653.9 5046.21 5894.61 5139.5 7493.3 4814.55 6320.71 3527.05 5698.77 3464.83 2477.07 5117.47 4721.32 3163.78 4925.63 3293.56 5882.65 4918.77 4739.14 4434.19 5100.1 6090.91 4946.42 5923.4 3295.83 5081.78 4459.28 4260.92 6116.33 4479.94 6250.23 6413.02 4863.27 4118.84 3492.19 4584.5 5122.63 6766.43 6049.79 2315.64 4703.08 5374.98 4390.41 6345.13 5274.19 5516.95 4097.57 5017.5 5563.79 6171.13 3497.9 2395.5 5511.88 4512.11 6248.6 3836.45 5683.61 5100.25 6894.26 4470.4 4986.51 5339.38 6169.11 5615.35 4027.09 6422.84 4502.18 5379.09 4602.85 4962.77 5872.05 4853.02 6259.23 5181.4 5670.2 4711.62 4247.23 4114.24 4268.65 4694.83 5509.42 4354.08 4256.43 5936.36 4520.62 3903.75 4755.47 4485.99 5127.16 5475.8 5314.69 6050.81 5543.46 4249.46 5965.81 4750.17 5660.85 2330.66 3990.25 4177.19 3587.05 6229.37 6718.19 5282.91 3797.33 4425.84 7256.35 4800.69 6566.1 3555.86 6386.78 4996.99 4631.83 6081.14 6008.49 4287.53 5612.21 4929.14 5945.08 3979.54 5304.13 5944.09 5833.06 4923.41 4497.31 4305.16 6413.11 5092.28 5274.14 4903.82 4371.99 5746.28 3561.29 5187.7 4219.78 4623.61 4188.3 4963.34 5019.93 6261.75 3885.86 5235.29 4338.08 5177.64 4378.3 4255.31 5660.16 4541.8 6134.99 5453.3 4718.54 4407.9 4440.57 5548.29 3623.87 5916.16 6934.37 5226.56 4890.5 6113.95 4050.08 5599.49 5452.42 5328.22 6853.85 4020.4 5941.61 4596.75 5782.48 4933.65 5443.58 4558.46 5805.86 4049.02 5346.68 5311.03 5255.12 4285.66 4896.11 5172.53 4135.62 5801.99 5210.48 5534.94 7644.38 7552.94 6101.92 5323.3 5088.44 4998.21 4662.56 5166.79 5349.31 2976.22 4649.22 5394.55 5094.52 4946.74 2682.24 5928.32 5229.48 5475.7 4016.18 5526.75 5435.74 4244.99 5327.45 5560.26 6185.89 3997.96 4439.35 3460.94 6184.4 3691.0 3758.07 4752.51 4373.45 4236.14 5733.62 4407.87 5282.51 4460.92 5945.89 4042.28 4105.55 4340.76 6065.22 4221.28 4456.39 4896.39 3633.79 5421.53 5480.83 4607.85 4220.46 5128.57 6000.7 5604.21 3169.67 4968.03 3361.92 3306.14 5490.58 4863.79 3967.48 4702.06 3830.46 6213.04 6031.67 5384.76 5529.42 6138.12 5257.12 4428.78 4965.89 5659.95 4152.85 4082.47 5551.9 4453.64 5511.6 4517.73 6415.61 4752.14 4687.64 5469.47 4419.71 4888.12 5037.06 5512.16 4094.73 4989.56 5175.29 3838.47 2588.37 5842.56 6736.03 6235.57 5412.31 3087.09 7480.41 3423.15 4488.85 3731.84 3981.07 3554.48 4901.07 5186.3 3436.15 4216.17 4151.76 6484.17 3493.47 4721.02 4254.37 3374.08 4031.78 6098.1 5708.99 5687.85 4231.83 2435.33 6401.43 5296.29 4611.53 5094.48 3872.61 4238.4 4318.48 6132.95 5266.22 4860.33 3685.13 6004.68 4051.34 3627.55 6239.84 4635.6 4256.67 3457.48 3931.07 3405.98 5417.15 3688.16 4681.72 4945.39 5996.33 3950.63 5415.19 4612.62 3619.07 4275.57 4467.04 6385.23 5817.25 2983.99 2614.4 6363.92 6205.93 4923.24 5830.72 3828.81 5309.98 4082.57 5255.18 5169.9 3004.16 4767.78 5235.17 4779.5 4421.12 5254.49 6649.96 4303.19 5784.3 5514.84 3914.2 5937.08 6070.3 5233.29 4312.56 4612.06 5204.04 4750.58 6710.88 5395.14 5235.11 5211.38 6622.11 4689.15 4655.16 5243.43 4537.14 5409.66 3867.19 4765.72 4345.67 3757.34 2908.7 4642.66 5276.7 5036.58 5329.59 6119.63 4950.97 3197.63 4752.9 4287.16 4863.96 5191.08 5887.15 4062.5 4435.51 5203.08 5374.07 4588.7 5683.95 5163.77 3766.55 6027.62 4579.69 5010.2 6496.52 5005.85 5711.11 4575.94 4938.72 3546.71 5768.57 5564.23 3735.24 5950.04 4074.48 4558.47 5020.71 2681.29 5997.88 5839.71 5576.92 6408.83 3930.79 5226.97 4004.35 3312.06 3361.26 5180.76 6799.4 5278.36 5865.39 4427.28 6079.11 3082.32 6430.39 3658.37 7440.72 3949.6 5703.6 6326.18 5661.62 6631.19 6648.68 4713.74 5626.61 5407.78 4084.49 5061.98 6632.99 4537.6 5147.36 4419.61 7177.44 4563.46 6553.94 5726.66 5460.65 5652.0 5463.41 5225.33 4929.75 4435.36 6045.22 4614.3 5134.39 3532.3 4256.57 5769.98 5442.32 6088.68 2221.99 4643.56 4135.08 4863.01 5620.74 4778.82 6124.08 5467.84 5053.95 5926.11 6667.68 5767.9 6515.8 3685.13 5089.62 6790.73 4590.55 4741.26 5920.32 3701.16 5251.4 4186.6 5097.69 5857.79 3988.3 4039.91 6543.13 5149.72 4216.95 5776.96 5464.25 5411.02 5301.47 4617.55 5199.44 5424.88 5415.85 8659.64 6599.66 4055.54 5469.13 5765.42 6123.03 5966.61 4997.83 4893.49 5325.44 5021.88 5956.65 4200.09 4498.25 4188.87 5151.21 6574.95 6333.29 4477.04 5731.57 5703.74 5662.55 5737.92 4360.23 5365.24 5293.51 4763.96 5754.18 5008.63 3418.99 4480.95 4993.35 4409.63 5521.25 3661.9 5370.85 5949.46 3178.54 4765.02 5376.71 4448.13 5070.29 4807.28 4867.08 2261.36 5075.55 4266.03 5280.69 4220.03 6923.84 5227.59 5449.46 6179.96 5703.07 6113.54 4662.43 6260.79 3963.76 5528.53 6799.88 3062.43 5990.52 5426.78 2967.38 4159.35 6477.91 4237.98 3091.67 6439.37 4081.97 5401.99 5580.92 5973.33 3583.21 5067.46 2511.46 3580.58 4011.37 5356.79 2775.69 4785.25 5657.36 3619.79 5029.47 5876.64 6306.21 5266.01 2978.76 5253.37 2040.66 7016.27 5884.9 3685.65 3876.21 5869.4 4916.22 4255.85 6022.7 4732.09 5895.77 5750.07 6136.49 4809.67 4757.74 4356.25 4209.49 5742.74 3821.94 5486.48 4244.21 4947.24 5367.73 3645.12 3875.05 6200.54 3456.47 5148.58 4199.45 7234.66 4886.12 6419.12 4233.8 4976.12 6098.95 5453.98 3991.42 4388.63 5102.75 4834.87 4597.29 5938.17 5931.77 5097.95 5398.64 6817.57 3573.73 3614.96 4693.52 6853.04 3886.68 4745.43 5831.96 4747.55 3056.7 3755.95 6234.32 4586.19 4446.06 3450.93 4270.74 5132.68 6595.03 4558.15 6218.95 5222.16 5107.23 5136.08 3776.94 5558.68 4802.32 4010.57 5629.39 2684.03 5246.47 6157.04 4768.61 4522.21 5506.19 6719.94 4950.67 5832.37 6166.29 5453.6 5409.63 5294.77 4709.05 4630.82 4043.66 4813.08 5860.67 4540.86 3764.1 4835.83 5604.35 6316.56 4332.87 6420.81 4715.58 5151.52 4450.7 5369.08 4347.74 5291.9 4009.62 2081.58 6505.78 5461.55 6519.43 5424.46 4857.84 4908.49 4962.21 4858.44 3468.42 4673.35 5689.26 4992.42 5297.19 4940.84 4351.38 4833.46 5933.7 6045.67 7248.4 5280.12 3946.28 4444.97 5984.81 5439.9 4409.27 3540.11 4640.06 4588.99 5471.74 4652.01 4344.34 5421.64 3548.39 3583.49 3673.28 4207.54 4858.51 3375.28 5625.65 4301.61 6107.89 4446.84 4817.16 5660.55 5148.08 3718.69 4514.79 3672.21 2216.82 5760.22 4509.89 6752.75 4795.43 5269.38 5607.3 5108.06 2928.82 4222.4 4000.43 4568.41 3420.08 4912.04 4539.07 5464.68 2685.81 5591.76 4585.31 6625.18 5010.04 5323.91 5097.45 6293.89 2761.07 5737.75 4983.39 5366.52 4690.55 5533.72 5533.42 3678.08 4599.38 5518.57 4187.31 6191.29 3240.51 7422.36 5161.01 4298.15 4628.4 6051.83 4642.93 3973.12 4263.16 3077.84 6024.75 6109.49 5567.93 5987.42 5332.65 4442.22 6451.33 5413.31 3012.99 6400.08 4743.59 5208.14 3317.83 3763.05 4396.25 5092.24 3101.75 5423.42 4518.04 4766.06 4874.18 5435.19 3298.2 4270.15 6865.76 4953.1 6449.64 6464.8 4684.44 4749.59 4680.94 5799.69 5571.72 3809.69 3208.96 4771.13 7051.9 4184.23 4144.57 5550.75 6834.41 6226.14 5466.33 3000.29 5721.05 3498.16 4209.31 4247.69 4514.39 6242.79 4321.21 5950.45 5713.03 4928.27 5052.84 4366.74 5297.16 3184.64 4936.96 5206.33 5530.49 5065.26 5653.03 6192.0 4940.28 5885.28 3004.34 3022.6 4811.76 4914.45 4698.87 4661.03 5160.59 3624.7 5262.35 4691.91 4475.83 4255.34 4510.8 5889.35 4394.56 4570.98 4275.07 5825.38 4185.61 4047.87 5742.47 3778.02 4917.99 6552.21 5417.8 5146.37 7132.12 4836.16 5300.96 5151.11 5463.48 5730.33 5545.46 4527.99 4376.7 4543.1 5190.61 8325.01 3764.06 4440.81 5941.9 5434.47 6642.76 5829.22 4497.78 4243.79 5811.18 5433.65 4008.15 4887.76 4669.06 4811.32 4286.49 6184.88 5829.32 5551.95 6405.0 3918.87 5549.49 2275.45 6605.86 4901.2 4383.56 5012.5 3562.79 7093.13 4516.53 5818.95 4093.99 3940.49 3604.14 4452.54 4406.05 5089.1 5828.35 4028.32 5876.72 5236.43 4884.59 4099.92 5285.07 3858.06 4680.14 4608.41 4083.79 4187.94 5980.59 5021.77 3796.15 4801.8 7216.98 5271.02 7013.17 5718.28 4601.74 6506.86 5088.57 5580.34 5849.65 3852.6 5134.67 4165.21 4215.0 4603.5 4481.76 5452.78 4356.36 4304.41 4892.44 5578.94 7610.49 4286.17 6579.31 5323.55 5375.1 4172.6 5313.12 5351.56 3984.88 4732.09 4320.42 5064.79 5480.3 7509.24 4146.81 5896.26 5388.78 6101.13 4573.72 5099.21 4367.78 5636.4 4350.12 5227.02 5670.0 4232.16 4344.51 5680.94 3781.77 5581.55 5193.01 3474.5 6550.44 3860.83 6348.03 5732.27 4523.39 5278.56 5146.37 6917.62 4013.38 5631.14 4343.78 5263.3 3352.35 4909.65 6523.86 7693.4 4326.48 4437.07 5491.9 3449.37 4659.16 5789.55 4909.31 4633.05 6522.59 5711.62 4798.17 4990.79 5166.79 6479.39 2895.63 4122.92 4997.91 5079.22 5381.54 5810.77 2711.19 4714.83 5474.15 7519.2 6355.68 4478.6 4511.7 4304.63 5263.27 6300.92 4173.54 3928.53 5599.29 6038.68 5046.12 4807.4 3805.67 4590.01 6101.86 4227.41 5993.0 4803.57 5966.42 5775.31 3332.49 4110.59 4706.5 5354.66 4647.67 5375.12 4787.97 3746.36 6789.23 3989.7 4777.03 3684.56 4246.61 6028.09 5452.36 3804.5 6486.37 5498.42 5318.53 3344.57 5220.76 4281.98 7165.9 5344.83 7046.11 4449.98 3427.63 4863.97 6342.48 5756.75 4587.67 5599.7 4163.74 6969.28 3665.95 5698.96 4095.75 3319.67 3603.51 4298.45 5222.51 4076.59 6609.84 5135.96 3834.43 5658.37 4707.06 6074.94 5491.37 4250.88 3783.54 3475.67 5268.38 4792.39 7038.89 3863.67 4814.12 5067.56 6137.8 2735.53 5116.6 3747.03 2783.85 4356.49 4526.81 3994.07 4219.94 5907.46 6740.71 4264.91 5399.29 5971.22 5533.19 6602.43 5425.98 3568.28 5996.66 4405.42 3598.08 4599.81 5698.23 7300.58 3608.06 6633.61 5217.95 4867.7 5484.36 3953.55 4277.24 4063.9 4469.54 4314.56 5291.05 5161.1 4619.2 5606.51 5740.65 3834.47 5067.56 2596.96 6349.67 6329.53 4139.3 6541.45 4750.49 5078.31 5391.48 4923.43 5131.15 4847.14 3950.27 4214.44 5116.66 3566.79 5378.23 5374.67 4981.43 4215.2 4741.28 5069.89 4157.29 6813.72 5327.75 4609.02 4896.65 4638.18 4196.37 5211.6 6448.66 4453.97 6945.98 5138.2 5783.48 4701.5 4504.35 4771.65 4840.44 5093.82 5951.81 3924.14 6918.35 4296.69 4834.3 6238.32 6804.79 6471.42 5283.8 5369.5 4428.14 5164.1 6464.15 4479.11 4972.17 6685.4 5699.53 4222.77 4850.06 6332.01 5527.23 4234.18 4805.33 7085.01 5980.95 6193.08 6069.3 3862.77 5887.01 5168.35 5388.39 3185.39 5335.47 3728.18 5633.61 5048.19 4243.26 6799.23 4888.27 4592.15 6487.56 4854.11 4998.22 5417.21 6104.26 5583.61 6063.64 4986.71 7382.3 2995.67 4022.56 5522.21 3772.3 4855.01 6208.9 4923.57 3340.09 6061.63 2279.05 4829.35 4075.28 8137.11 5484.32 6650.77 4067.96 5166.41 7104.73 6162.3 5701.75 4350.15 4264.54 3516.27 4643.9 4263.78 5228.75 6047.14 5009.83 5210.38 5717.8 3629.44 5003.78 3299.24 6246.56 4061.6 2603.64 5473.72 5107.0 6212.15 6502.97 4783.07 4946.23 4852.58 6083.28 5806.31 3556.79 5456.71 3503.41 7317.04 6412.67 7001.83 5012.97 4036.91 5589.37 5439.49 6639.64 5212.43 5454.12 6348.54 4066.57 5642.35 6372.13 5404.01 6016.19 4124.49 3230.13 5714.25 6176.67 5325.96 5412.24 5016.02 7044.29 4920.21 4049.16 5851.61 3936.95 6153.94 6836.82 3858.17 4631.99 4740.98 5128.77 5934.82 7122.87 5797.36 5001.58 4153.84 5119.86 5089.26 5084.17 4901.44 3776.8 5096.43 6156.21 4653.83 2460.79 6171.71 3628.89 6589.82 4668.88 5027.43 5522.75 5867.64 4438.58 6059.93 5602.53 5073.02 6545.43 6760.92 4989.2 4711.04 7144.05 4506.18 2970.9 4824.12 4383.47 3272.75 5971.21 5261.19 7043.44 3831.52 4263.65 6106.43 4807.35 5467.63 5666.95 4642.2 4811.22 3683.86 4918.76 5293.75 4208.41 5826.78 2856.55 4553.68 5361.87 3758.22 4757.2 3205.68 5561.74 6100.73 4788.08 4745.79 5470.04 4908.75 3971.08 6204.65 4482.9 4593.7 4349.13 5110.11 6379.14 5216.26 3687.65 4887.52 5478.95 3851.85 6318.23 4206.98 5156.76 6357.47 6101.57 4891.38 5535.91 4793.65 2949.12 5955.86 4532.89 4533.37 4848.46 2779.99 5887.38 4581.37 6942.34 3658.05 5478.11 5526.31 5030.15 3644.78 3477.1 4078.93 6015.02 4501.78 4922.49 3572.94 7039.98 4820.17 4729.42 5244.98 3886.72 5415.45 5792.98 6592.93 4385.81 6350.71 6436.74 4456.11 5096.24 3908.98 5039.12 5769.14 6328.42 7307.21 3381.82 3619.72 4646.51 4565.93 7107.63 4831.93 5788.97 3472.91 4023.93 5868.89 3274.85 5007.21 5494.28 4099.26 5206.47 6542.5 4834.39 5493.89 5262.47 3104.96 3512.94 4991.35 4587.7 4258.98 3787.08 6761.81 3903.91 4568.64 3919.62 4127.53 5210.75 4474.83 6555.44 5658.14 4508.18 6214.73 2205.51 6358.93 5175.89 3894.64 3703.49 4268.19 4374.74 4062.56 4532.7 4504.86 5975.23 4198.94 4473.29 6163.54 4211.82 6556.26 5684.25 5438.92 6550.4 4891.67 3766.69 6818.91 3503.65 3634.5 4027.63 6631.28 6571.31 4392.65 4058.87 5174.75 5932.07 4984.46 5948.71 3856.53 5460.89 6040.74 5260.85 5742.09 2884.65 5807.46 4648.21 4393.16 3311.29 4549.69 6423.81 6192.77 4312.15 4583.52 6418.11 5244.22 5585.14 5832.29 6456.58 4159.81 4960.64 4034.05 5690.96 5798.38 3862.91 4125.9 5366.11 3419.87 4824.81 5113.6 5944.3 3563.14 5135.5 5347.9 5851.63 4504.52 5212.92 5615.84 4464.73 4928.85 6440.38 5556.0 5545.59 4954.81 5610.53 5755.15 4580.06 4835.97 3926.11 4057.17 7066.96 4467.0 4994.65 5196.92 5644.81 5334.36 4728.55 4929.6 5750.35 4489.99 4548.45 4658.11 4551.26 5730.61 7124.45 5064.67 6618.21 5232.85 2617.39 3717.47 6200.63 6816.66 3217.67 5079.64 996.652 5212.37 6003.78 2628.22 5058.51 4244.49 5036.98 5513.8 5188.53 4521.75 5569.2 5350.88 5420.67 6413.15 6103.11 5048.55 6459.51 4024.31 4955.16 5844.72 3992.97 4147.31 5989.05 4054.22 7228.94 5393.65 4961.99 6551.93 4595.12 3110.13 6484.43 4625.67 3485.54 4458.64 3657.69 4883.63 3492.83 6280.13 3684.15 4730.14 2606.51 4438.76 6006.89 3814.65 3965.3 5372.82 4983.3 7778.01 4402.17 5127.82 5124.17 5805.1 4064.58 4234.88 4834.44 5782.43 4384.28 4456.26 4810.98 5091.22 6282.38 5640.72 5657.55 5727.79 5188.82 5043.14 4717.73 5072.5 3904.07 5748.9 3663.0 3742.31 6304.49 5134.72 4608.34 6419.64 5464.83 2781.96 4431.23 5917.34 5601.55 4462.87 4013.86 6545.99 5630.9 4554.68 4368.28 4692.32 4945.0 3127.83 4212.15 5114.07 4385.49 4263.18 7142.95 4559.74 4383.68 5836.26 6666.67 5144.44 4051.18 4583.94 5969.37 4928.35 3844.54 5034.69 4509.46 3538.53 4680.69 6500.49 5965.58 4972.18 3352.34 4050.03 4901.29 4124.76 4775.04 4120.07 4882.66 3429.57 6746.66 5410.33 4642.74 6735.97 5305.59 5416.45 4330.58 5754.6 3288.01 4904.51 4355.83 6870.97 2202.77 5751.15 5950.88 4149.55 4441.22 5853.89 3380.69 4140.4 3639.44 4386.8 5446.4 4725.01 5966.75 5510.9 3743.76 4505.28 4971.29 6711.21 5510.45 4941.02 3994.39 6119.99 3864.92 4128.1 4618.73 4446.58 7541.76 5401.4 5053.15 5910.86 6239.68 7320.78 5667.51 4708.31 4027.33 3873.92 5026.76 5023.41 4092.07 4546.44 4224.3 4184.21 4700.07 5273.37 4732.37 4985.3 5713.36 4749.18 5553.94 4546.96 5424.55 4921.1 3814.16 5695.79 3622.8 5414.58 5577.41 5740.98 4346.07 5759.79 4177.47 4218.16 2918.64 4140.92 4512.07 5984.8 5236.24 4585.04 5678.58 5260.52 3185.09 6570.35 4242.63 3269.54 6015.22 4454.74 6063.44 4826.52 5046.31 1937.5 4337.32 5241.75 5849.53 4651.99 4420.11 4788.7 5863.0 6127.39 4607.18 5329.76 3899.7 7200.89 4813.33 4952.52 3840.21 4081.34 4954.76 3908.56 4844.83 5244.78 3636.15 6114.89 5135.63 6384.7 5952.38 3896.27 5351.86 6056.87 5474.01 5307.35 6201.86 7554.58 5166.89 4731.21 5491.63 5725.37 3868.62 5138.33 3425.69 5153.18 4763.4 4236.86 5454.11 5393.76 4983.1 6010.59 2955.36 3668.93 7123.04 4009.24 5906.57 4932.29 4775.49 4681.29 3220.29 5499.59 3845.9 5749.6 4439.71 4141.21 4564.41 4198.9 5431.29 4252.18 4833.67 5325.91 4213.05 5853.12 5157.38 6203.03 5235.87 6089.45 5810.17 4966.07 4657.24 3669.32 4400.14 4704.92 4316.0 4287.25 4392.75 4271.07 4420.6 4475.38 5287.25 4770.51 4184.47 6511.37 4012.92 3999.5 5034.05 4598.54 5218.42 5345.73 4933.49 6139.64 4896.43 5463.06 4639.8 3986.41 4462.35 6102.49 5114.23 5495.0 7407.91 5064.23 6061.85 2904.46 5512.44 6449.06 5120.92 4685.4 4731.53 6240.42 3763.9 5721.14 4577.73 5084.5 5640.12 6638.25 2403.72 5078.59 5134.33 4147.49 4802.98 4833.55 3646.95 7224.99 6334.53 4749.96 5377.37 5652.87 5483.7 5018.69 3152.86 5973.89 5807.52 5963.36 5230.02 5087.14 4342.18 5169.48 6016.08 6776.22 3124.7 6064.71 6102.98 6060.17 5136.87 5902.67 4708.17 5806.61 3779.45 5784.37 3142.09 3682.35 3756.96 6245.52 3954.77 4990.23 3784.94 3125.13 6016.87 4174.44 6715.73 6331.74 5426.4 5951.86 4659.88 5357.39 3791.41 5247.01 4208.37 5702.4 5069.9 952.938 5473.89 3306.84 3673.6 3450.07 5265.21 5191.26 5866.42 4762.1 3987.69 3484.81 6502.99 6219.34 4191.01 5674.63 4589.06 5340.05 4920.88 5890.25 4216.44 6710.14 4426.02 4816.51 5188.22 4770.63 4841.23 3990.94 4756.8 4357.11 5477.8 6069.78 4241.68 5532.75 3469.18 2945.34 3372.95 4489.29 4301.93 5846.95 5268.15 5819.0 4924.07 3200.6 4629.02 5146.0 4288.45 4987.28 4918.64 4759.99 4815.47 2646.13 5419.57 4365.58 5214.4 5162.67 5760.98 4705.68 5469.35 5384.86 4019.34 4658.24 5869.67 4311.48 4899.73 5457.66 6394.19 4848.14 5366.22 6193.73 5518.11 3742.11 5712.35 5701.52 4743.9 5321.17 3719.11 4869.25 4467.13 3877.8 6273.6 3667.93 5024.32 2741.2 5790.42 4644.88 7350.26 5591.77 5182.13 6110.48 5003.3 5106.46 6793.1 4506.66 5515.73 5209.55 5866.91 5763.05 5129.68 4825.73 5076.84 4841.7 5685.74 6740.35 4678.7 4550.92 6215.87 6060.06 5544.27 5393.43 5308.33 4666.12 4685.65 6023.07 5995.4 5322.11 5700.79 5735.08 4726.2 4711.15 3825.48 3810.68 2804.54 4196.62 5005.6 4176.32 4549.51 6949.65 4095.83 5695.25 5676.61 5716.42 5701.63 4620.95 6347.72 3460.93 4488.39 5124.86 5914.5 4927.73 6006.16 5407.96 6206.98 4071.75 6562.03 4410.82 4368.12 3889.98 4636.53 3629.49 5766.05 5117.64 3835.81 3916.42 4869.48 3623.19 4906.11 4387.39 4745.16 4564.1 5825.55 5509.51 4316.5 3199.4 5254.24 4192.21 4914.03 3597.43 5086.29 5144.56 4158.91 5139.18 5311.55 3360.86 3034.16 5049.99 5545.21 4201.03 4333.87 5001.87 5684.05 5638.7 5813.79 4028.22 5293.13 3852.82 3768.46 5167.53 4168.52 5800.81 5403.97 4068.31 6562.92 5166.05 5077.29 3671.06 4850.5 5233.76 4683.28 2820.07 6405.69 5679.74 4165.36 5288.33 4871.77 6296.54 5797.21 6019.35 6028.63 5146.1 6485.77 3869.39 5960.5 6896.55 5377.01 6470.23 6506.63 4140.04 3495.3 5125.17 4697.49 7133.44 4750.81 3953.26 4474.39 4658.59 2809.19 4916.7 5486.89 4104.04 7208.19 5025.42 3587.93 4975.85 5196.08 5323.95 4495.75 6171.01 4603.04 5368.93 6121.56 4602.57 3565.32 4608.62 3419.07 4626.72 5344.44 5131.77 5549.71 4967.51 6443.99 7212.97 5193.58 5399.43 5695.44 3422.21 5429.3 5510.96 6653.07 5532.72 4697.91 3220.8 4584.81 5071.98 5719.79 4371.08 7261.51 4968.14 5949.73 4312.48 5527.13 5551.43 4278.57 6318.25 6008.81 4493.79 4279.44 4899.19 5058.34 5575.11 3918.94 5487.63 4507.36 7145.73 4795.08 5501.73 3612.44 4697.24 7035.54 4983.43 4217.36 6549.8 4851.18 5368.52 5811.26 5155.28 5062.77 4884.93 6075.99 5262.79 5927.2 4419.79 5035.71 5407.69 5152.78 4117.9 4753.76 4781.9 4638.09 5330.26 4441.91 5939.22 4668.8 4215.05 4271.93 4859.01 4604.1 5524.45 5076.11 5990.75 5600.21 5459.92 6478.35 5453.77 5353.66 5589.53 5593.79 4965.24 4517.29 6257.79 4849.5 5796.26 6229.83 4870.94 5578.18 5271.88 5559.79 7168.2 3763.85 4571.74 4096.86 3622.48 5710.33 5001.51 6432.8 3186.07 5115.42 4369.86 5482.76 5173.82 3720.7 5490.64 5698.53 5034.34 3604.31 3769.2 4507.46 5036.14 3468.45 5603.68 4944.51 4526.34 5610.95 5042.75 5179.17 5579.39 5270.51 5148.1 5490.75 5224.64 5214.63 5783.94 6370.33 5081.08 4202.77 5836.14 6864.06 5537.34 4932.56 5192.49 3487.31 5726.42 6643.4 4674.9 5461.72 2549.95 3392.26 6599.28 5138.93 6224.85 5368.66 4556.19 5648.78 6875.73 5226.42 6081.3 5117.52 6311.89 6734.39 5942.45 4150.76 5005.72 6142.88 5111.26 5388.73 5205.38 4600.71 4764.83 3957.38 4494.15 4710.88 4416.87 5300.17 4057.4 4896.67 5534.23 3934.11 6025.77 6815.96 5339.6 5828.25 4725.11 3626.86 6371.96 5322.07 5770.07 4282.11 5467.51 4625.53 4096.47 4542.16 5114.67 3543.37 5030.33 2638.82 5234.2 6379.38 5327.05 5438.55 5353.23 4468.26 4523.81 5106.33 5293.37 5198.94 5933.54 5464.05 5879.24 5740.78 3148.79 4796.12 5997.91 5385.86 6791.86 4082.4 4209.0 4930.72 3745.02 4211.36 4887.73 5378.24 4450.49 3856.73 5887.71 5635.32 4827.61 4316.45 5409.08 5481.64 4598.92 5241.22 6647.08 4979.52 3422.29 4407.79 6548.29 3495.68 5352.24 3990.96 7362.42 5793.12 5473.05 4373.2 5884.99 7025.09 4433.12 7336.37 4361.24 5099.9 6406.8 7086.69 6170.9 5833.78 4436.48 5758.98 5615.35 3967.76 6213.24 5987.88 4228.53 3579.59 6123.46 5057.59 4461.14 5285.6 4574.54 4949.55 1969.87 3132.34 4841.28 4047.95 5507.38 6889.5 6581.56 4052.43 3980.46 5383.9 5158.44 4466.22 6153.71 5917.08 5483.37 5418.12 4714.66 5101.6 4656.01 6589.13 2347.41 5602.62 2030.03 5714.51 5628.97 4484.78 5527.27 5104.39 4612.13 5846.6 4109.44 4903.84 4434.65 5977.66 5209.5 5065.74 5791.25 4028.35 4873.23 5410.6 2980.31 5453.2 6824.53 4742.82 4332.64 4820.68 6031.22 5728.58 6424.77 6297.99 4538.89 5817.74 5661.6 5285.75 5385.03 4169.15 5673.75 5360.67 5968.54 6263.3 4501.05 5592.54 4537.03 4114.2 4904.37 4326.06 5034.46 4651.64 5757.29 5016.46 5469.17 5061.75 3769.24 6022.78 4087.32 6647.85 2569.12 4161.32 5161.74 5932.28 6945.69 4298.7 5118.86 4304.64 4183.4 4733.79 4823.06 5254.49 5288.64 3757.23 6828.8 6883.86 3350.99 6161.94 4065.28 5939.29 5418.98 5615.06 5490.54 5203.54 6189.67 6142.94 5001.69 4061.87 5165.31 3798.09 3886.56 5715.51 4496.51 4511.05 6561.94 5259.21 5092.93 5934.05 2803.01 6771.18 4984.17 5327.39 5781.62 4037.86 4981.81 4138.59 4938.33 5157.73 4621.33 5847.91 4541.22 4934.66 4984.01 6217.33 4290.49 6688.53 4557.1 6175.27 5876.51 6731.89 4733.41 5264.83 6348.93 5136.51 6815.51 4422.23 5232.16 4457.05 3989.26 5485.84 3618.64 4335.79 5453.69 5918.95 5432.04 5689.56 6556.86 3242.31 6099.28 3234.26 5372.25 4778.37 3494.16 5134.17 4074.16 4904.35 3247.97 5390.33 5124.34 5278.54 4358.81 5729.0 5729.92 4179.87 6224.13 4761.84 3661.67 5370.1 5517.65 4009.68 5114.51 4622.73 3303.49 5585.25 5256.75 6351.89 2960.5 4975.32 3902.48 5237.55 3909.94 6030.39 4905.53 3799.01 7392.65 5319.1 3038.91 4181.93 6570.43 3820.19 4979.5 4745.37 6200.05 5575.11 4052.49 4034.41 5061.74 5326.03 4420.35 4948.96 5117.83 5256.82 4013.86 4288.5 4585.37 3721.69 5395.12 3456.3 6074.39 5317.83 4256.08 5881.93 4444.0 4399.52 4554.24 6182.19 5910.66 7415.84 5141.03 4970.55 4840.44 8123.59 5765.14 4767.54 4946.08 5121.08 3539.68 4696.03 4605.39 6270.59 5927.1 6500.45 4907.55 4103.76 4286.61 2932.52 4603.66 3901.53 4969.68 6636.43 5431.14 5313.86 5178.07 5189.91 5777.26 5703.84 3530.82 5797.32 4886.99 3921.27 3702.45 3161.1 5265.63 4898.29 4431.06 5730.2 4830.13 5620.88 5370.9 4529.77 4325.13 4262.74 6172.27 3783.79 5078.73 4248.14 5279.19 5192.92 5275.57 4786.66 5891.25 5095.52 5129.4 3720.38 4655.37 4731.37 5023.61 4672.86 6530.78 5059.37 5560.23 3043.77 4139.39 5783.38 6264.03 5088.64 3562.8 6589.8 6920.92 3729.16 3783.36 3573.84 4067.89 3922.28 4571.57 3445.92 5236.69 4586.82 6026.04 3133.28 5859.17 4150.44 5522.34 5771.98 2649.69 5899.78 5717.45 5772.57 5268.27 4645.93 5244.95 5448.64 6417.61 3830.7 5783.69 5350.9 3483.61 6738.9 4460.89 4157.1 3939.96 4867.12 4637.3 1458.87 5734.07 3997.68 4819.83 4801.16 2927.84 6177.68 5688.77 4698.7 2848.44 6045.26 5743.8 4094.63 5084.76 6605.11 4757.87 3557.46 5971.95 6298.8 3689.24 3979.46 5151.19 4171.02 7012.36 5028.06 4002.99 5587.3 5159.67 3572.73 4864.38 5764.52 5684.88 6523.78 4645.86 4045.67 6005.95 4941.52 4308.49 5900.0 4581.1 6241.77 5317.19 7360.12 6223.98 4016.6 5821.49 7050.08 5580.44 5998.13 4746.15 6275.25 6892.33 4758.84 4452.36 4068.41 3976.0 4832.21 6463.71 4742.35 5394.79 5645.54 5264.08 4151.74 4526.87 5192.82 5245.95 4174.22 5821.42 4515.02 6294.09 5131.07 2970.24 4121.07 4197.87 5524.28 5105.54 5731.43 6353.81 3414.67 3518.14 5444.36 5044.68 6908.32 5000.74 6153.26 4813.81 3882.37 4634.25 5901.8 6351.48 5357.33 6210.0 5432.4 4262.52 7430.48 5992.06 8052.53 4970.12 6044.01 6520.19 5973.57 6241.48 6033.28 6286.27 5071.38 5616.66 4802.36 5368.28 5466.13 6229.64 4220.43 6263.87 6666.34 4645.91 6834.92 6379.33 5652.73 5402.45 6321.97 6509.54 6412.84 2589.19 6119.0 3792.06 4293.3 5128.59 4993.49 5310.33 6583.37 3770.22 3688.83 4390.64 4848.98 5150.84 4608.01 5184.98 5087.97 5339.82 4519.03 4930.17 5110.27 4745.44 4085.96 5762.82 4612.68 4232.33 5462.6 5617.29 3035.06 5770.92 4262.19 3093.38 4597.88 4845.91 4878.93 4505.3 4491.26 4511.34 5704.61 5009.21 4379.91 4574.03 5290.37 4227.66 4691.01 4594.89 3677.85 5214.71 4677.84 3463.53 4924.52 6126.03 6044.69 5658.05 5462.1 6032.45 5011.37 2827.92 4026.03 3467.11 5336.61 4817.75 4848.15 5637.53 5523.81 4095.4 4718.61 5188.57 3873.79 5717.67 5252.37 4499.54 5037.58 4046.22 5640.67 5545.68 6080.69 4967.93 6369.66 5678.08 5922.62 5125.45 5957.82 4188.16 6327.54 5507.07 2943.17 5327.71 4880.78 5257.38 5075.23 4975.56 7282.36 3826.01 5581.01 3928.99 4125.75 5749.53 5130.57 5090.48 3985.93 6071.59 6079.55 3856.4 5485.61 4937.36 5308.4 4569.32 3402.44 5537.61 6084.88 4491.96 4397.06 4199.44 4467.51 4053.12 4479.5 6261.67 5460.57 5065.78 5703.34 4521.42 6668.98 6649.52 6043.34 4939.56 4747.68 4712.17 3808.04 4723.71 2002.78 5631.32 4461.67 6322.0 5793.14 4609.65 6345.2 5128.03 5410.73 5087.3 4942.63 6139.74 5850.38 7066.26 4730.97 6150.31 5873.62 4996.91 4811.11 5379.52 4866.8 5314.67 5563.47 6593.1 4066.36 4000.51 3162.27 6033.93 5092.44 5516.37 4441.44 5432.2 4232.44 4612.4 3312.3 5563.09 4746.19 6381.58 4439.09 3282.57 4798.13 5648.59 6697.45 5515.59 4432.32 3224.81 3775.38 5782.25 6457.89 4844.2 6572.17 3751.73 5555.89 3374.62 4766.47 4871.1 5872.45 4414.09 5191.29 3784.68 3717.22 6649.21 4654.92 4859.95 5286.55 4322.56 5522.18 5509.09 5625.02 3873.72 5212.05 4829.77 6474.5 4444.92 6959.88 5971.9 5247.73 3746.62 4876.37 5034.02 4769.62 5582.28 5945.25 5181.31 4696.06 4137.16 5475.83 6189.29 5984.55 6581.13 5803.3 4721.98 5252.82 3543.98 5056.26 5878.55 4014.44 3435.13 6604.72 6002.77 4431.46 3794.47 4610.55 3207.84 3977.98 5400.69 4128.93 4462.5 4959.72 5573.31 5004.68 4023.88 5348.11 6126.5 4405.61 4034.88 6007.1 3511.5 5067.92 5488.96 3188.21 3720.92 4793.06 6637.38 4975.57 6916.18 3057.3 3868.69 3920.44 4450.51 3768.62 6033.72 3851.47 4966.74 4959.94 5651.46 1635.31 5639.4 6185.73 4083.24 6520.96 3771.91 5217.62 6178.19 4616.81 5212.2 5108.42 4630.5 6296.36 4451.76 5237.27 7885.41 4907.03 4104.97 4575.72 5114.61 6118.13 4420.3 4926.62 6332.64 3917.09 6009.93 4083.1 5270.1 5130.56 4947.64 4957.99 6305.9 4997.89 4542.62 3470.69 5093.28 4132.08 5223.1 4850.49 4592.49 3625.98 5479.86 4702.32 4763.04 5944.52 4413.56 4532.67 5316.05 4908.32 5260.13 3995.08 4649.5 4810.74 5985.75 4149.17 4329.8 5672.46 5202.33 3228.27 3956.24 7558.99 4142.1 5043.14 5445.91 4812.59 6842.54 4967.02 5675.45 4614.49 6038.56 2807.46 5599.16 4179.8 3488.34 5658.35 5428.24 5108.84 4582.12 4520.14 5357.14 5919.27 4850.95 6271.22 3421.81 6188.33 3920.64 6111.23 5786.06 5822.7 4137.41 3780.07 5466.49 5447.74 4038.17 5007.41 3692.99 6213.74 2329.93 6938.87 5412.07 5512.57 4806.99 4813.55 5856.43 3839.0 5349.85 5799.86 5715.25 4362.94 4611.21 6545.78 3354.94 4870.14 4404.87 5105.72 5767.65 4750.76 4216.33 5497.27 4081.77 4948.21 2181.29 4987.01 4202.12 2694.25 6492.44 4613.32 3482.73 3996.93 5145.39 6351.95 5195.09 4063.26 5345.05 7679.2 6131.52 4311.92 6009.88 4699.77 4981.55 5093.41 5144.23 6188.62 6153.07 4414.06 5908.57 5050.2 2513.38 4821.41 5616.11 5019.84 4499.52 3900.93 4028.13 3874.12 5784.38 6476.35 6260.58 5728.27 3074.49 4067.24 3053.19 6571.26 5580.95 3393.59 3549.92 4032.06 5246.81 5333.04 5089.1 5888.95 4521.99 5394.78 3463.34 7115.67 2853.68 3361.11 4998.37 5329.84 6559.82 3879.83 6565.95 4577.98 4487.51 5886.81 6805.02 4295.25 7394.47 5354.48 4729.45 5374.09 6261.13 4167.55 4720.34 5378.75 5244.47 5510.89 6186.24 5282.67 4159.89 5178.55 5146.69 4907.48 6818.23 4369.87 5652.19 5806.74 6578.62 3465.03 4796.04 5229.56 6011.4 5172.1 6052.22 4469.82 5376.41 5003.63 4695.7 2932.2 4944.08 4082.01 5003.49 5269.39 3964.03 4305.35 5210.22 5832.72 5617.91 4721.2 4444.95 5161.02 4706.31 3124.49 6265.48 4735.99 4203.68 5003.81 4739.56 3818.37 3352.46 4701.03 5434.04 5200.1 3997.52 4881.51 2626.41 4909.74 6729.99 5310.33 6664.54 6842.35 5464.34 5259.48 3621.63 4777.96 5801.89 7296.47 5742.39 4780.16 4924.53 5738.37 4433.23 4813.24 5759.19 4457.73 3113.64 4304.75 5480.86 6139.9 4313.38 6598.99 5250.56 3633.58 2468.16 4339.97 5203.75 5169.09 5122.38 2459.88 5262.85 5470.67 5901.71 5342.9 5733.12 5043.34 4246.24 6436.29 5402.81 4600.81 4919.13 5640.63 4900.26 5002.38 4865.11 4731.16 6470.87 4495.33 4131.08 4465.56 5747.9 3864.19 4287.93 6203.24 5081.65 4488.41 6679.12 4621.32 3878.8 4698.94 6284.12 3948.21 5669.15 5296.05 5263.86 4672.34 3330.85 5056.32 5533.52 5410.33 4747.24 4380.86 5576.16 3308.75 4439.17 2451.27 5677.42 3903.9 5606.22 3943.77 6081.35 6262.18 5566.5 5663.36 6225.05 5579.04 5125.53 5994.21 4444.54 5779.9 6964.78 5299.03 4565.36 5161.73 3922.98 4025.08 4008.67 5254.93 4803.4 6833.5 6608.94 2613.78 5417.07 3834.01 5656.84 6789.66 4739.41 5312.2 5847.27 4490.2 4706.59 5734.84 3982.31 4950.07 4720.22 4582.24 2832.83 5827.3 6036.99 3010.1 3825.98 6294.14 5087.03 4667.84 3906.41 4691.15 4123.08 4512.6 4210.24 4260.38 4636.45 4932.27 5225.11 6793.49 5252.22 6060.19 4962.35 4333.23 4328.76 5168.97 4124.33 5783.88 4358.06 5647.93 6705.93 6201.49 5449.09 5502.14 4605.61 6898.8 5386.95 5332.11 5315.71 6158.93 4823.14 5373.78 5438.5 5345.65 5863.36 5699.4 5237.76 4286.84 6423.96 6058.13 6988.4 6635.51 4060.17 6051.35 5302.53 4909.13 4287.61 5648.02 4604.34 4863.27 2701.42 4929.35 5442.79 5051.39 6673.92 5242.38 4884.94 5459.52 4609.98 4738.72 4752.31 4276.59 5405.6 3929.35 5403.81 5082.25 4374.05 4287.15 5036.84 5813.68 5732.11 3618.53 4770.21 5596.68 8013.28 3846.55 3796.73 5283.65 3082.16 4644.68 5416.41 4694.27 6760.64 2515.5 5177.88 5551.79 6981.47 3916.15 4474.96 4084.87 4790.63 5259.29 3584.05 4589.22 4818.53 5097.85 5584.64 6189.04 6224.64 4221.03 3799.55 5082.66 5638.51 4550.77 4337.93 3563.33 3550.88 4345.51 5536.0 6786.37 3860.8 5145.13 3747.96 5561.63 5940.5 5093.51 5004.22 4280.92 5154.74 4696.92 6437.99 6632.04 6540.57 4893.72 4977.64 6004.72 4072.4 4983.56 5699.51 4489.18 2489.44 4883.13 4632.75 4752.94 4994.98 3950.53 5581.47 5894.69 4713.56 6779.82 3999.81 5543.67 4867.13 6377.45 4502.12 6853.07 5151.68 5733.59 5362.15 4455.61 6874.6 5240.97 5569.85 5523.96 4884.93 4223.53 4759.38 4733.37 4535.94 6960.97 4523.9 5282.51 5504.65 5669.41 4951.02 5040.9 3919.47 4602.7 4868.66 4004.39 5159.9 4987.48 2892.36 5943.61 5981.54 4248.58 5911.29 4542.25 4414.23 5233.88 4849.21 4785.55 3793.83 6189.81 5367.05 4758.76 4449.73 5647.11 4088.72 3945.62 4916.75 3743.85 6236.46 5342.17 6379.3 5015.67 3795.63 5189.4 6538.04 4894.15 5201.3 5848.41 4048.73 6223.33 5438.6 7370.52 5611.29 4521.88 6568.45 4601.54 4963.88 7263.57 5705.96 3832.09 5267.65 5739.69 3509.34 5360.88 7360.62 3166.37 5369.42 4985.45 5207.08 5205.53 4714.52 5499.37 5543.05 4836.76 5333.16 5551.09 5755.98 4501.1 5392.85 4384.91 6550.61 4987.01 5529.09 6094.34 5448.68 4739.5 6210.48 4491.62 4182.05 3865.5 3255.93 6327.61 4633.59 5575.8 5268.93 3695.72 5106.9 5306.31 3037.72 5126.08 5604.0 3760.4 3783.35 4037.16 6395.63 5479.17 5020.37 5245.4 4576.71 6157.59 4090.28 4246.83 4726.5 5467.05 3724.23 5103.3 5888.94 4727.98 5175.88 4122.2 4516.26 4790.16 3731.58 3647.26 4587.19 6028.89 4888.17 5077.2 4274.05 5275.27 4277.54 4531.46 5925.82 4072.95 
SCALARS Velocity float 1
LOOKUP_TABLE default
1.083 1.0214 1.66007 1.73491 1.66189 1.36971 0.965572 1.10821 1.12718 1.17351 1.26688 1.3357 1.64339 1.70949 1.68824 1.06255 1.41743 1.61133 1.31 1.51597 1.41128 1.21582 1.20411 1.1935 1.24617 1.24762 1.19178 1.19178 1.21352 1.20581 1.20158 1.19178 1.19178 1.19178 1.21478 1.19115 1.19781 1.19385 1.19336 1.19821 1.19411 1.1981 1.22055 1.19413 1.19293 1.21428 1.19259 1.22 1.19829 1.24168 1.2072 1.25082 1.14294 1.40155 1.3534 1.38196 1.61201 1.40195 1.64531 1.40734 1.6632 1.50379 1.45686 1.25213 1.17493 1.14631 1.05546 1.11694 1.11135 1.15815 1.29148 1.2539 1.27775 1.29868 1.71701 1.44179 1.51233 1.42604 1.57287 1.05212 1.5068 1.31507 1.45504 1.28542 1.26726 1.23493 1.2783 1.20744 1.17238 1.21026 1.23258 1.20829 1.19668 1.21781 1.20492 1.19532 1.19545 1.18893 1.20149 1.1994 1.19218 1.19558 1.19745 1.19937 1.19486 1.21013 1.18813 1.18943 1.19178 1.20651 1.19456 1.22367 1.19802 1.24339 1.21101 1.2375 1.17369 1.36986 1.4038 1.37442 1.41472 1.43561 1.17375 1.43317 1.7117 1.6446 1.58844 1.52707 1.34121 1.26128 1.25003 1.2197 1.20955 1.24725 1.166 1.07724 1.08513 1.15046 1.17282 1.24904 1.26776 1.28531 1.48775 1.12797 1.18462 1.27654 1.02025 1.47738 1.42244 1.37863 1.25412 1.36408 1.29194 1.61633 1.26408 1.23838 1.26875 1.20731 1.21782 1.22384 1.16443 1.20115 1.2078 1.18472 1.20136 1.19529 1.19557 1.18883 1.19997 1.20443 1.19495 1.19463 1.19798 1.19995 1.19478 1.20125 1.22373 1.21583 1.15879 1.19465 1.23575 1.2069 1.24435 1.21445 1.29515 1.24634 1.21841 1.43008 1.3287 1.3961 1.36742 1.37627 1.30106 1.40704 1.48516 1.22884 1.47627 1.3134 1.40102 1.28707 1.24328 1.19656 1.12604 1.4191 1.0978 1.05491 0.991228 1.05937 0.989416 1.11093 1.18594 1.22559 1.20963 1.0906 1.42384 1.27333 1.11308 1.29722 1.57975 1.70072 1.20254 1.26974 1.27857 1.2653 1.58835 1.58858 1.28888 1.26375 1.26871 1.25926 1.18827 1.2592 1.22003 1.23981 1.18435 1.20561 1.20035 1.20621 1.17319 1.20147 1.1954 1.20422 1.19402 1.2002 1.20402 1.19076 1.19468 1.19831 1.20064 1.20244 1.19454 1.19473 1.19115 1.21207 1.20594 1.19178 1.19178 1.18237 1.31034 1.18366 1.2483 1.22862 1.13878 1.41919 1.32684 1.36606 1.38888 1.24661 1.23998 1.09156 1.09391 0.943392 1.32346 1.31929 0.903362 1.18312 0.919572 1.03695 0.955829 0.9876 0.960919 0.857947 0.911525 0.987511 1.00021 1.01859 1.27908 0.965299 1.17457 1.14443 1.23089 0.964697 1.41011 1.14083 1.08418 1.57094 1.54938 1.36923 1.15333 1.29311 1.2846 1.25525 1.17174 1.30264 1.2847 1.24083 1.1983 1.17742 1.22041 1.26809 1.17536 1.20431 1.18695 1.18791 1.19829 1.16133 1.20959 1.20737 1.1938 1.17426 1.20281 1.18717 1.19701 1.20078 1.21595 1.19961 1.19638 1.21018 1.19713 1.21331 1.24136 1.22714 1.20903 1.23352 1.25645 1.24266 1.33359 1.19266 1.14441 1.17198 1.24606 1.36252 1.07929 1.22909 1.14592 0.9385 0.901076 1.0151 1.17467 1.13157 1.12016 1.1121 1.08211 0.970244 1.02716 0.983296 0.972867 0.966119 0.950364 0.948887 0.945468 0.949781 0.943374 0.818519 0.820012 0.770725 0.887774 1.08376 1.20587 1.02017 1.15442 1.20637 1.35964 0.966537 1.20115 1.03187 1.3101 1.20385 1.03723 0.928501 1.61417 1.10834 1.08452 1.11121 1.23096 1.16784 1.16153 1.20727 1.22812 1.31442 1.20388 1.17743 1.19375 1.1979 1.23272 1.19576 1.24189 1.17112 1.1996 1.182 1.19099 1.20504 1.19248 1.19293 1.20005 1.19651 1.16595 1.19195 1.2013 1.20139 1.18968 1.20164 1.19681 1.20577 1.19143 1.23956 1.22217 1.23098 1.24845 1.15398 1.25305 1.23527 1.33982 1.1811 1.1616 1.15434 1.15746 1.25328 1.40663 0.987648 1.0633 0.867867 1.0732 1.00624 0.914355 1.05328 1.05418 1.05749 1.05429 1.0236 0.98829 0.971099 0.9577 0.970993 0.960896 0.954289 0.935653 0.924072 0.835592 0.765355 0.789704 0.843744 0.833816 0.940967 0.94755 0.974746 0.966889 0.946608 0.822108 1.14498 0.87256 0.955062 1.01005 1.0857 1.07246 0.917416 1.41031 1.08703 1.08319 1.12573 0.990133 1.16331 1.12171 1.12428 1.24966 1.30367 1.16135 1.20138 1.20142 1.24774 1.17537 1.13877 1.17281 1.20326 1.20393 1.19276 1.19 1.19059 1.18651 1.20798 1.19224 1.21331 1.19885 1.19884 1.1918 1.20344 1.19714 1.1853 1.19145 1.23743 1.21805 1.22676 1.14135 1.16009 1.24756 1.22416 1.27279 1.3755 1.18874 1.07978 1.21527 1.19138 1.09737 1.29269 1.23917 1.07211 0.958553 1.05841 1.08705 1.03599 1.005 1.06814 1.0548 1.01007 0.973003 0.976679 0.956501 0.978446 0.970986 0.972583 0.971226 0.972295 0.935724 0.939212 0.950492 0.934757 1.05612 1.11172 0.810057 0.852033 0.939412 0.881466 0.85352 0.795747 0.825381 0.866037 0.869591 0.878967 0.929043 0.961843 0.975743 0.978364 0.966079 0.926681 0.881331 0.974829 1.12932 1.14317 0.968024 1.11327 1.11775 1.18133 1.16391 1.17443 0.977268 1.16585 1.10681 1.06353 1.23154 1.16784 1.31314 1.1429 1.18405 1.17811 1.20612 1.14629 1.21765 1.24854 1.18334 1.18167 1.17535 1.20406 1.18812 1.18628 1.18439 1.18898 1.19564 1.19127 1.17627 1.20141 1.18306 1.19246 1.20052 1.19331 1.20451 1.20182 1.20735 1.208 1.2383 1.20883 1.233 1.14042 1.15042 1.12211 1.17252 1.37677 1.08742 1.27768 1.27894 1.20801 1.17672 1.19155 1.19497 1.18177 1.19035 1.17199 1.07829 1.17085 1.08491 1.04759 1.0721 1.06743 1.10936 1.02179 0.950154 0.910672 0.94674 0.974524 0.959002 0.992518 0.948113 0.926162 0.911668 1.03215 1.16542 1.04731 1.03992 0.87817 0.835572 1.01798 0.809137 1.10816 1.01038 0.852768 0.888556 0.910023 0.875348 0.937681 1.01772 0.984297 1.02507 1.10076 1.15193 1.14559 1.18344 1.2649 1.28692 0.975521 1.09636 1.01871 1.08555 1.18702 1.15108 1.36803 1.13937 1.20337 1.16576 1.20355 1.16698 1.14246 1.23887 1.17783 1.17626 1.20744 1.18348 1.19757 1.18729 1.19421 1.1779 1.17969 1.20187 1.1797 1.1923 1.20091 1.19361 1.19146 1.21095 1.22587 1.18846 1.18868 1.23284 1.14818 1.1751 1.36569 1.11769 1.29046 1.1128 1.05817 1.28275 1.2158 1.20701 1.18868 1.16803 1.17372 1.18372 1.20068 1.24364 1.0535 1.07133 1.11508 0.950029 1.18793 0.94552 0.928217 0.849468 0.880236 0.875305 0.838257 1.06935 1.19412 0.765701 0.861831 1.09841 0.988565 1.17617 0.974182 0.908919 1.26967 0.7834 0.42011 0.821603 0.97871 0.939218 1.00116 0.647358 1.36422 1.46197 1.43058 0.683641 0.735478 0.871543 1.03046 0.987647 0.913018 0.908322 0.819408 1.15784 1.084 1.04698 1.05013 1.06974 1.0353 1.12352 1.14023 0.849665 0.805765 0.944683 1.08297 1.04137 0.995517 1.08507 1.08653 1.18319 1.12024 1.1782 1.40425 1.13606 1.21054 1.31846 1.16992 1.17149 1.19767 1.17107 1.1863 1.2284 1.17541 1.22971 1.19212 1.20388 1.19037 1.20824 1.17565 1.19247 1.20311 1.18376 1.194 1.19855 1.19683 1.19112 1.20353 1.18925 1.21616 1.17725 1.18425 1.18782 1.11526 1.12613 1.14731 1.30523 1.21394 1.18593 1.24569 1.17302 1.24619 1.04401 1.23965 1.21151 1.1604 1.15807 1.16513 1.21787 1.34179 0.999939 1.06213 1.13216 1.25362 1.21942 0.851459 0.694454 0.78017 0.807642 0.718074 0.812162 0.769145 0.889911 0.355249 0.599327 0.455227 0.695258 0.621217 1.08473 1.08983 0.408883 0.140725 0.828263 0.849319 0.809357 0.744842 0.623692 0.777323 0.75155 0.968457 0.448763 0.309285 0.902823 0.916187 0.807045 0.777649 0.61952 1.00125 1.03933 1.05677 1.06929 1.06111 1.08151 1.04781 0.905883 0.895786 0.994004 1.06687 1.06924 1.04791 1.21273 1.13283 1.11284 1.19074 1.11643 1.08012 1.16672 1.33075 1.1297 1.16944 1.19753 1.17334 1.18033 1.17606 1.16987 1.2216 1.17147 1.2288 1.18538 1.20366 1.1791 1.20945 1.18409 1.19077 1.20214 1.19237 1.18477 1.19763 1.19704 1.19294 1.19297 1.21498 1.17731 1.19346 1.18556 1.19872 1.14455 1.15502 1.26489 1.21891 1.21157 1.18938 1.07685 1.032 1.19539 1.08822 1.03231 1.07464 1.15955 1.10367 1.14396 1.36049 1.35118 0.993913 1.03148 1.02616 1.09143 1.09526 1.12118 1.15492 1.26424 1.06004 0.814557 0.940752 0.795361 0.859947 0.805543 0.71615 0.874711 0.716724 0.693396 0.595544 0.665064 0.732143 0.957062 0.767564 0.696155 0.362486 0.2584 0.408517 0.36515 0.243164 0.909612 0.866471 0.804321 0.799042 0.836702 0.809539 0.808224 0.565295 0.508373 0.656404 0.674576 0.928611 0.955717 0.775714 0.707324 0.63832 0.849541 0.923055 1.0125 1.06344 1.00406 1.10088 1.06494 1.05797 0.947009 0.934759 0.942431 1.02052 1.05511 1.1129 1.21035 1.14372 1.11013 1.05883 1.06158 1.14269 1.3648 1.12629 1.20649 1.20344 1.18013 1.18331 1.17597 1.21301 1.17388 1.16326 1.19574 1.18704 1.19178 1.18006 1.20699 1.20916 1.19086 1.19133 1.19758 1.19023 1.19329 1.19694 1.19526 1.19302 1.193 1.22157 1.19106 1.20592 1.18905 1.19917 1.16377 1.15699 1.11999 1.17632 1.2024 1.17068 1.23737 1.09966 1.14616 1.12917 1.07822 1.03512 1.10789 1.00561 1.10673 1.14556 0.963223 0.975695 1.08638 1.10087 0.900752 1.01526 0.981842 0.893762 0.89132 0.861397 0.811748 0.735122 0.761202 0.819541 0.920213 0.951414 1.14848 1.04826 0.605462 0.46384 0.568997 0.531022 0.634013 0.504143 0.560143 0.617673 0.458597 0.483444 0.804965 0.749477 0.756608 0.767844 0.740331 0.710935 0.510814 0.613228 0.473379 0.994013 0.858768 0.794419 0.738105 0.686456 0.499219 0.927024 0.856087 1.02919 1.11451 1.13325 1.02869 0.960909 0.963233 0.993864 1.06166 1.08753 1.18324 1.20285 1.05941 1.07863 1.08738 1.05836 1.14964 1.31589 1.20254 1.19093 1.22109 1.18469 1.18553 1.17429 1.15212 1.19483 1.19421 1.19608 1.17814 1.20755 1.17869 1.19342 1.19743 1.19472 1.19017 1.19559 1.18475 1.19534 1.19721 1.18767 1.16675 1.17761 1.15741 1.2095 1.1917 1.17627 1.17651 1.12644 1.15909 1.17481 1.19003 1.23399 1.09241 1.10876 1.09057 1.08086 1.05739 1.12946 1.08898 1.04688 1.0964 1.02405 0.998479 1.04344 1.1523 1.00015 0.975149 1.01437 1.02085 0.843309 0.89407 1.01878 0.958536 0.814692 0.765378 0.833148 0.811008 0.816516 0.846496 0.880969 0.873914 1.00547 0.780888 0.914495 0.85923 0.729018 0.698629 0.663581 0.669285 0.652531 0.610434 0.718498 0.401764 0.376424 0.522705 0.640016 0.789676 0.754161 0.735949 0.778316 0.750979 0.769881 0.714288 0.634858 0.659079 0.695378 0.637197 0.70527 0.618295 0.679134 0.859576 0.777794 0.717037 0.617 0.814833 1.15438 0.439633 1.10303 1.10767 1.26469 1.00146 0.975022 0.9772 0.969308 0.771771 1.05582 1.07113 1.02956 1.16779 1.22599 1.1138 1.06493 1.06186 1.23475 1.1476 1.24294 1.18461 1.22208 1.19366 1.16584 1.16272 1.21112 1.16278 1.20229 1.16878 1.18939 1.1968 1.18145 1.19352 1.19681 1.19886 1.19569 1.19012 1.18983 1.19083 1.18741 1.19871 1.18821 1.17445 1.18741 1.1603 1.19091 1.19093 1.19278 1.19167 1.20898 1.14598 1.16739 1.19913 1.10961 1.10445 1.12486 1.11633 1.06923 1.05828 1.1306 1.04933 1.09245 1.0366 1.05742 0.782561 0.979901 0.985512 1.01515 1.14103 0.796543 0.851031 0.94084 0.734252 0.771723 0.823335 0.765245 0.866807 1.18415 0.965197 0.796608 0.778935 0.736508 0.776199 0.780361 0.77806 0.977087 0.723768 0.692351 0.691577 0.89981 0.760649 0.778169 0.553507 0.275418 0.0665084 2.01237 0.709373 0.655747 0.709356 0.779768 0.811459 0.756704 0.790408 0.65507 0.665394 0.700813 0.734352 0.722006 0.718314 0.746221 0.791921 0.747135 0.823678 0.941876 1.16034 1.1478 1.08106 0.941244 1.16328 1.02668 1.03169 0.961678 1.04977 0.921239 1.04625 1.08863 0.974229 1.06083 1.22294 1.10034 1.04734 1.22401 1.2411 1.04054 1.2059 1.2536 1.20017 1.20301 1.17224 1.16381 1.19182 1.19377 1.15199 1.17399 1.2044 1.19808 1.18057 1.19207 1.19822 1.1984 1.19601 1.19016 1.19095 1.19166 1.18818 1.18939 1.19689 1.17988 1.18092 1.16644 1.19014 1.19522 1.20722 1.20104 1.17893 1.1761 1.12114 1.15831 1.14513 1.21839 1.15938 1.14679 1.14528 1.12823 1.09085 1.08622 0.955748 1.02896 1.09528 0.997905 0.9894 1.04886 0.903932 1.00834 1.06193 1.00818 1.00837 1.01277 1.03398 0.963749 0.874562 0.818748 0.862568 0.885486 0.918122 0.746228 0.840136 0.798431 0.810983 0.724863 0.775235 0.694029 0.656929 0.463313 0.515338 0.691661 0.746439 0.825085 0.700949 1.15958 0.938278 0.494465 0.335552 0.545052 0.392121 0.13634 2.22873 0.0355626 0.775653 0.70409 0.650554 0.682025 0.741167 0.679607 0.745573 0.76489 0.643031 0.671334 0.645512 0.670734 0.709999 0.693184 0.702883 0.70812 0.735015 0.739092 0.812666 0.829106 0.816203 0.835039 0.970422 1.06086 1.12022 0.909822 0.775127 1.13859 0.957312 0.927375 0.798816 0.846042 0.857866 1.02081 1.16854 1.15785 1.0539 1.10447 1.22228 1.13435 1.04018 1.07724 1.0813 1.09663 1.16599 1.21415 1.23196 1.20113 1.17397 1.13795 1.20378 1.1715 1.21137 1.22613 1.2024 1.19983 1.1938 1.18014 1.19515 1.19912 1.19509 1.19018 1.19322 1.19214 1.18992 1.19506 1.19346 1.1886 1.19231 1.17429 1.16542 1.19105 1.20189 1.1867 1.20099 1.16015 1.13448 1.26017 1.16872 1.16854 1.17211 1.15948 1.12729 1.09549 0.941486 0.99686 1.10876 1.01524 0.835366 0.963936 1.03395 1.01969 1.03389 1.04211 0.982157 0.886509 0.841817 0.871403 0.879639 0.835229 0.881302 0.892748 0.625978 0.469512 0.554158 0.295554 0.613232 0.916994 1.22718 0.952989 0.699659 0.394244 0.376189 0.371691 0.247017 0.524692 0.696629 0.822326 0.686997 0.694572 0.738439 0.708986 0.70311 0.668969 0.662959 0.652779 0.6928 0.637674 0.706611 0.663106 0.686493 0.644706 0.478452 0.831053 0.850337 0.629561 1.04277 1.09208 0.916117 0.774151 0.967261 0.966657 0.931963 0.865931 1.01087 1.12362 1.12553 1.16453 1.00113 1.11151 1.0425 1.06173 1.0951 1.04792 1.2619 1.06678 1.14272 1.19 1.18829 1.1786 1.12746 1.18862 1.18821 1.1748 1.16194 1.20163 1.19598 1.19555 1.18477 1.19461 1.19524 1.19476 1.19328 1.19344 1.19986 1.17835 1.17835 1.19715 1.17953 1.1772 1.17483 1.19092 1.16001 1.19481 1.17456 1.14219 1.10504 1.13505 1.14736 1.1346 1.19768 1.18943 1.19207 1.09779 1.04658 1.1106 0.971397 1.04425 0.989554 1.01436 0.882647 0.918257 0.97443 0.966622 0.999138 1.01695 1.06509 1.02942 0.945556 0.852735 0.879457 0.92177 0.86138 0.776612 0.922654 0.76363 0.905004 0.772193 0.707495 0.443661 0.769142 0.644047 0.822827 0.65999 0.7881 0.65857 0.420616 0.391005 0.437852 0.512676 0.894674 0.836564 0.714139 0.740133 0.685353 0.6566 0.649204 0.705146 0.640371 0.652112 0.597571 1.2152 0.853828 1.21085 0.668159 1.12081 1.10974 1.03763 0.957894 0.925788 0.964975 0.952236 0.951606 1.02665 1.04041 1.13054 1.03113 1.03096 1.18196 1.11121 1.06835 1.03233 1.10817 1.27848 1.17594 1.2007 1.16065 1.18875 1.15215 1.1509 1.16368 1.18438 1.17673 1.15763 1.20121 1.19146 1.19166 1.19058 1.20192 1.18481 1.18538 1.19233 1.19624 1.19475 1.19382 1.19444 1.1848 1.18431 1.18778 1.18971 1.17785 1.17814 1.1769 1.19545 1.16565 1.14823 1.15543 1.13717 1.14374 1.11668 1.14092 1.1476 1.15235 1.13095 1.1296 1.18749 1.17893 1.1111 1.04069 0.963254 1.02059 0.636342 0.613159 0.964119 0.951961 0.827419 0.977518 1.01294 0.994305 1.08564 0.957447 1.09828 0.943917 0.881163 0.839606 0.849322 0.826588 1.01527 0.67894 0.736377 0.823526 0.845912 0.620426 0.755478 0.589185 0.58677 0.62847 0.770542 0.803037 0.651973 0.599061 0.403191 0.44969 0.731711 1.02082 1.04132 0.813207 1.02266 0.734784 0.792243 0.631237 0.614691 0.680982 0.662302 0.615474 0.688128 0.673356 0.585573 0.781029 1.16998 1.16953 0.77817 0.60806 1.1088 1.26719 1.02208 0.937343 0.937281 0.930935 0.974136 1.0247 1.00972 1.0471 1.05276 1.03231 1.08703 1.06064 1.05013 1.07279 1.20147 1.23533 1.16761 1.12156 1.08594 1.11199 1.17662 1.20935 1.16712 1.18907 1.12939 1.17191 1.17742 1.17236 1.19671 1.17986 1.19193 1.2085 1.18977 1.20508 1.1887 1.19013 1.20074 1.19774 1.19503 1.1947 1.19146 1.18587 1.18482 1.18685 1.18894 1.18117 1.18086 1.17835 1.19745 1.17643 1.16024 1.1456 1.13734 1.127 1.12285 1.12731 1.16995 1.08313 1.2011 1.12185 1.1921 1.09024 0.984136 1.18495 1.04667 1.0612 0.976742 1.02121 0.996684 0.953436 0.982692 0.923578 0.864844 0.778143 1.12738 0.562382 0.7483 0.881292 0.927666 0.93224 0.715433 0.630874 0.683156 0.522359 0.759663 0.440514 0.491098 1.20185 0.913381 1.02558 0.999242 0.636434 0.919118 0.776888 0.581819 0.717034 0.778217 0.649504 0.708021 0.56801 0.647074 0.801419 0.746073 0.967621 0.787438 0.67734 0.70196 0.802723 1.03086 1.14063 0.895937 0.0565055 1.29067 1.14346 1.19948 1.00899 1.09331 0.977824 0.927267 0.935499 0.90223 0.980658 0.998608 1.07444 1.08061 1.04125 1.06004 1.05167 1.1002 1.15641 1.15988 1.13239 1.13989 1.10686 1.13248 1.10024 1.17051 1.18054 1.19178 1.16212 1.15584 1.1834 1.1872 1.19128 1.19371 1.18286 1.18959 1.1892 1.19048 1.19654 1.18939 1.19165 1.19043 1.19515 1.19147 1.18556 1.18598 1.18172 1.18349 1.18195 1.18004 1.17742 1.14909 1.1781 1.15517 1.14462 1.13452 1.10148 1.18989 1.16286 1.10757 1.0765 1.23903 1.10065 1.18985 1.0679 0.989281 1.08064 1.31819 1.0768 1.07903 1.0123 1.02648 1.02349 0.954126 1.01472 0.945633 0.989855 0.883773 0.98704 0.941259 0.995985 0.645495 0.633035 0.553282 0.93971 1.04358 1.05317 0.841466 0.537747 0.657272 0.681078 1.15877 0.464049 1.07991 0.998706 0.982646 0.938834 0.888373 0.786263 0.72598 0.910633 0.701654 0.819539 0.725598 0.886019 0.73829 0.73104 0.806783 0.882331 0.970655 1.05029 0.787419 1.05916 1.22677 1.07209 0.977037 0.912666 1.00384 1.07022 1.10905 1.14489 1.12795 1.07938 1.02504 1.20836 1.09287 1.20039 1.1637 1.10615 1.21092 1.17875 1.1543 1.18704 1.14942 1.16745 1.16122 1.19291 1.18515 1.18157 1.19166 1.1948 1.19422 1.1903 1.19025 1.1921 1.19259 1.18658 1.19079 1.19585 1.19634 1.18655 1.19566 1.18581 1.18862 1.18557 1.18593 1.18102 1.18264 1.17964 1.18207 1.14998 1.18971 1.16907 1.1733 1.14226 1.12789 1.21475 1.17604 1.13393 1.10635 1.12481 1.18013 1.11074 1.02351 1.06127 1.00489 1.0441 0.997221 1.11484 1.07977 1.05381 1.03062 0.94613 0.966839 0.904652 0.910357 1.00524 0.872425 0.928078 1.06637 0.921558 0.919189 0.70832 0.599501 0.766271 0.906076 0.852923 1.00343 1.17542 1.07806 1.07179 0.78071 0.616567 0.682999 0.982025 1.36016 0.727879 0.956294 0.838475 0.768024 0.912273 0.941347 0.781505 0.841501 0.830403 0.79377 0.842229 0.762568 0.859573 0.876955 0.971809 0.999168 0.859219 0.90264 1.01183 1.05171 1.07274 0.999279 0.970803 1.09462 1.08772 1.02059 1.07075 1.16344 1.03466 1.01971 1.21204 1.14034 1.13411 1.11033 1.17836 1.16149 1.16789 1.17686 1.16731 1.18767 1.17776 1.19318 1.19669 1.1937 1.18992 1.19679 1.19296 1.19178 1.18944 1.18254 1.18803 1.18976 1.20467 1.1874 1.18945 1.18965 1.18589 1.18212 1.18615 1.18075 1.18483 1.18298 1.1893 1.16115 1.17246 1.14932 1.14205 1.11089 1.06575 1.10729 1.13924 1.13718 1.11825 1.18582 1.17504 1.07582 1.07219 1.06471 0.985531 0.922741 1.04071 1.03688 0.931346 0.932801 0.98775 0.908215 0.970243 1.07082 0.936754 0.865839 0.961968 0.771205 0.971533 0.875268 1.08267 1.23638 0.796082 0.783308 0.971844 0.727861 0.97378 1.30319 0.785876 0.834593 0.852454 0.887861 0.948057 0.901444 0.835529 0.845366 0.873703 0.881554 0.883943 0.823461 0.876468 0.881682 1.01895 0.955782 1.026 0.977197 1.09668 1.08943 0.981407 0.942151 1.03821 1.08967 1.08857 1.10228 1.0966 1.12037 1.09601 1.10457 1.03038 1.20345 1.13695 1.168 1.14069 1.13135 1.11786 1.17689 1.16039 1.17002 1.17548 1.19061 1.18838 1.18984 1.18624 1.19224 1.18546 1.19702 1.19385 1.19067 1.19051 1.19325 1.19406 1.19121 1.19278 1.18801 1.18522 1.18688 1.2033 1.18175 1.19182 1.19076 1.18366 1.18683 1.18493 1.18559 1.18264 1.18534 1.19069 1.17689 1.18076 1.19178 1.17029 1.14476 1.16983 1.13277 1.13181 1.12892 1.17278 1.13014 1.1271 1.18153 1.09063 1.00958 1.07551 0.93748 1.1855 0.989542 0.970783 0.910327 1.01 0.942347 0.946245 0.906334 0.816244 0.885147 1.0241 0.944554 1.16235 0.749083 0.900698 0.802051 0.898654 0.873 0.78261 0.971128 1.09637 1.07512 0.755899 1.00141 0.962425 0.985174 0.911184 0.940225 0.925726 0.897852 0.864345 0.865174 0.922464 0.910063 0.911376 0.893013 0.983631 1.01722 0.983873 1.1401 0.920226 1.15108 1.07183 1.05102 1.05707 1.09069 1.09515 1.10206 1.10088 1.11289 1.13212 1.07307 1.16728 1.20356 1.19169 1.14506 1.15897 1.12729 1.16768 1.16615 1.16479 1.1836 1.18276 1.18861 1.19116 1.1895 1.1886 1.18497 1.19657 1.19111 1.19017 1.18946 1.19542 1.19196 1.19188 1.19045 1.18797 1.18856 1.18717 1.18771 1.18058 1.19282 1.18874 1.18456 1.18757 1.18528 1.18138 1.18482 1.18859 1.18901 1.18026 1.17463 1.19178 1.16482 1.18988 1.1411 1.16855 1.16145 1.13471 1.13592 1.1301 1.13669 1.12872 1.14425 1.0782 1.04779 1.09675 1.02836 1.11819 1.10284 1.19122 1.11945 0.942886 0.926693 0.949853 1.06907 1.01477 1.0273 0.928652 0.853806 0.853799 0.80671 1.04183 0.733573 0.90648 1.08234 0.838633 0.979559 1.04996 0.921695 0.957109 0.947422 1.07316 0.92687 0.97349 0.917293 0.91206 0.90203 1.01397 0.927675 0.991374 1.0286 0.969668 1.04243 1.22024 1.01472 1.03195 1.11711 1.1191 1.06754 1.08696 1.09712 1.10804 1.10284 1.14707 1.16763 1.14424 1.17213 1.16523 1.16388 1.17042 1.14803 1.15121 1.17022 1.1663 1.18866 1.19577 1.18799 1.19127 1.18623 1.18825 1.19475 1.18963 1.19541 1.19209 1.19178 1.19028 1.18843 1.18853 1.18775 1.18087 1.19016 1.18977 1.18935 1.18742 1.18734 1.18161 1.18472 1.1863 1.19132 1.18386 1.19313 1.1844 1.16178 1.15425 1.16406 1.13898 1.14747 1.14268 1.15819 1.14859 1.16631 1.13755 1.11055 1.09591 1.06262 1.04862 1.10374 1.10486 1.08804 1.09074 0.891555 0.984673 1.04089 1.12834 1.00758 0.96268 0.894088 0.80268 1.26277 0.923709 0.886012 1.00403 1.08586 1.16561 1.1047 0.874968 0.983432 1.09329 0.953079 0.913332 0.951651 0.900413 0.954859 0.988449 0.986343 1.11012 0.980724 1.15122 0.936404 1.01295 1.13848 1.13912 1.117 1.1083 1.12914 1.0821 1.09355 1.1236 1.10821 1.14608 1.14455 1.16079 1.14299 1.17624 1.16413 1.17178 1.17025 1.14972 1.17314 1.18019 1.17237 1.19332 1.205 1.18377 1.19133 1.19178 1.18788 1.18795 1.19499 1.19442 1.18997 1.19534 1.19241 1.1937 1.18947 1.19193 1.19308 1.18822 1.1883 1.1876 1.17844 1.19037 1.18967 1.19964 1.18424 1.18411 1.18521 1.18458 1.19082 1.18518 1.18855 1.19592 1.16294 1.19329 1.16279 1.18846 1.1506 1.14444 1.16099 1.13993 1.16204 1.16538 1.12977 1.13384 1.1878 1.20062 1.0974 1.09321 1.06113 1.10441 1.11009 1.11678 1.11625 1.09821 1.1527 0.944473 1.08943 1.03697 0.95974 0.831438 1.13776 0.953867 1.40903 0.959138 0.949491 1.0025 1.01179 1.03844 1.07035 1.03331 1.15647 1.013 1.07521 0.98778 0.886267 0.948791 1.12278 1.00048 0.911688 1.02978 1.14226 1.04629 0.910817 0.96269 1.0231 1.13854 1.10285 1.05712 1.19676 1.03468 1.09916 1.13149 1.11419 1.14329 1.1261 1.19986 1.13544 1.06863 1.13829 1.15966 1.14777 1.14355 1.17889 1.17337 1.17786 1.17323 1.19487 1.18118 1.17628 1.17317 1.18929 1.17846 1.17927 1.18429 1.19276 1.18278 1.18779 1.19579 1.195 1.19111 1.19388 1.18981 1.1921 1.19391 1.18833 1.18786 1.17868 1.19303 1.18489 1.19448 1.17878 1.18382 1.18672 1.18632 1.18288 1.18197 1.18587 1.16327 1.18789 1.18574 1.16767 1.15241 1.14715 1.16201 1.13286 1.16015 1.16945 1.15767 1.11563 1.16891 1.11515 1.10892 1.12426 1.11135 1.1157 1.10762 1.16911 0.932678 1.13326 1.09503 1.09042 1.2018 1.04767 0.888058 0.963482 1.00208 0.990855 1.01455 1.04575 1.07478 1.16381 1.05099 1.13534 1.05221 1.00325 1.03874 1.02063 0.901053 1.05576 1.06253 1.06488 0.929137 0.990868 1.03777 1.06622 1.16514 1.06277 1.12222 1.12703 1.14317 1.15386 1.16945 1.11025 1.14478 1.14824 1.15736 1.19178 1.18315 1.1752 1.18027 1.17597 1.19442 1.18188 1.18493 1.17518 1.19014 1.18983 1.18945 1.18709 1.18435 1.18992 1.19896 1.19017 1.19228 1.19104 1.19367 1.19067 1.19059 1.1928 1.1883 1.18805 1.17953 1.19447 1.18643 1.19533 1.18968 1.18324 1.18836 1.18701 1.18373 1.18917 1.19019 1.18874 1.19092 1.18984 1.1871 1.1868 1.19178 1.16564 1.17379 1.21676 1.14792 1.15593 1.13627 1.15607 1.1309 1.1586 1.16051 1.13956 1.17983 1.13553 1.15002 1.14139 1.1127 1.12428 1.08724 1.12089 1.13173 1.16756 1.14784 1.12355 1.09661 1.07761 0.992997 1.1597 0.934754 0.988802 1.03016 1.01262 1.04345 1.0992 1.12713 1.07857 1.10105 1.13056 0.990995 1.11304 0.960514 1.01041 1.06663 1.00038 1.13563 1.12596 1.11208 0.96473 1.19178 1.1219 1.10984 1.13287 1.17942 1.05452 1.11719 1.13183 1.15136 1.13503 1.10383 1.20693 1.19248 1.15468 1.1452 1.18116 1.19178 1.16208 1.17397 1.19472 1.1838 1.17502 1.18186 1.18207 1.18008 1.19161 1.21693 1.18633 1.18569 1.1909 1.18904 1.18484 1.18315 1.1898 1.18395 1.18886 1.19182 1.19059 1.19021 1.18943 1.19045 1.1901 1.19081 1.19178 1.18771 1.18827 1.19223 1.19027 1.19429 1.18683 1.18525 1.19197 1.19458 1.18468 1.18674 1.18894 1.18365 1.18514 1.19485 1.19256 1.19063 1.19049 1.19029 1.19589 1.16835 1.19543 1.19178 1.20202 1.15228 1.15578 1.14159 1.13873 1.16767 1.16004 1.1712 1.14629 1.15589 1.11795 1.14214 1.11219 1.14651 1.11524 1.13692 1.16066 1.15294 1.13877 1.11628 1.08456 1.03249 1.12859 0.946438 0.995854 1.04771 1.05311 1.04586 1.09048 1.1091 1.094 1.09646 1.1595 1.07855 1.16224 1.08377 1.11878 1.02159 1.21067 1.12233 1.18967 1.08915 1.22865 1.14593 1.11711 1.16436 1.1037 1.12914 1.13716 1.05515 1.15904 1.16099 1.13772 1.18419 1.16445 1.19178 1.18608 1.17897 1.16885 1.17609 1.18637 1.18077 1.18479 1.1777 1.18755 1.18596 1.19147 1.18707 1.18789 1.19036 1.18686 1.18579 1.18424 1.18893 1.18425 1.18425 1.18813 1.19179 1.19039 1.19118 1.18965 1.19068 1.18482 1.18574 1.19008 1.18825 1.18996 1.19358 1.18372 1.18268 1.18379 1.18786 1.18855 1.18866 1.19417 1.18536 1.19011 1.19289 1.19289 1.19292 1.18719 1.16978 1.19177 1.19924 1.18999 1.17011 1.17854 1.18169 1.14696 1.17104 1.17056 1.17311 1.17119 1.18062 1.17749 1.17768 1.15153 1.12241 1.13911 1.15401 1.16524 1.13142 1.14675 1.15819 1.15199 1.1542 1.13105 1.1084 1.04292 1.14731 1.11331 1.1758 1.08452 1.00373 1.26278 1.05796 1.06421 1.06335 1.10807 1.11524 1.11889 1.09842 1.16487 1.11703 1.16742 1.16369 1.10951 1.1061 1.13739 1.17177 1.21614 1.19243 1.15347 1.08649 1.20619 1.17474 1.21224 1.11423 1.10941 1.11838 1.12733 1.16638 1.16432 1.15939 1.17215 1.1797 1.1732 1.18416 1.18623 1.19764 1.17776 1.18271 1.18567 1.1892 1.18307 1.18846 1.19178 1.19085 1.18739 1.18892 1.19096 1.19087 1.19051 1.18456 1.18715 1.18475 1.18545 1.18836 1.19068 1.18947 1.19025 1.1911 1.18502 1.186 1.19026 1.1884 1.19499 1.19272 1.19395 1.18275 1.18291 1.18265 1.1889 1.1866 1.19055 1.18857 1.19372 1.18981 1.18856 1.18804 1.18721 1.17526 1.16627 1.18831 1.15333 1.15662 1.18914 1.17768 1.17655 1.17766 1.18638 1.15953 1.14692 1.1876 1.17102 1.16293 1.13536 1.15183 1.15622 1.15107 1.13879 1.19178 1.12818 1.05574 1.16257 1.13464 1.1509 1.13453 1.17127 1.01929 1.29005 1.19178 1.08206 1.08354 1.0509 1.09554 1.13416 1.13991 1.10013 1.15044 1.16037 1.14915 1.13482 1.12257 1.18295 1.22562 1.20144 1.17421 1.15201 1.16708 1.16275 1.17673 1.18459 1.18606 1.1775 1.15347 1.17923 1.15194 1.14228 1.16976 1.168 1.20267 1.18507 1.19178 1.19403 1.18818 1.18151 1.18724 1.18528 1.18837 1.1977 1.19144 1.18914 1.18915 1.18989 1.19095 1.19076 1.18585 1.18398 1.1878 1.18522 1.18501 1.18925 1.18932 1.19101 1.18977 1.19066 1.19128 1.19239 1.18619 1.19019 1.18978 1.1945 1.19113 1.19358 1.1824 1.19017 1.19036 1.19168 1.18521 1.18591 1.1904 1.18842 1.18906 1.19031 1.19025 1.18809 1.16504 1.17529 1.17965 1.18662 1.17224 1.16718 1.17805 1.18531 1.17532 1.1508 1.16993 1.18006 1.16817 1.17248 1.15852 1.12924 1.12679 1.13858 1.13351 1.16329 1.17107 1.03154 1.06611 1.10428 1.09402 1.12054 1.11282 1.1015 1.1888 1.15865 1.15823 1.16603 1.13231 1.16616 1.15877 1.18094 1.18484 1.1804 1.18974 1.19047 1.19126 1.18739 1.17178 1.17025 1.15241 1.18391 1.21199 1.18424 1.18447 1.18675 1.19114 1.19181 1.19071 1.18667 1.18407 1.18621 1.1898 1.18918 1.18952 1.18948 1.18957 1.19063 1.19112 1.18566 1.18442 1.19178 1.19056 1.18706 1.19178 1.18926 1.18929 1.18931 1.18451 1.1902 1.19093 1.18655 1.1887 1.19205 1.19291 1.19211 1.19121 1.18885 1.19084 1.19285 1.19276 1.18321 1.19178 1.19867 1.19104 1.19117 1.19249 1.18451 1.18891 1.18148 1.18754 1.18933 1.19045 1.19034 1.1718 1.17764 1.19796 1.17972 1.18813 1.18195 1.17107 1.1731 1.19178 1.17817 1.17594 1.17319 1.18126 1.15919 1.17909 1.17031 1.18058 1.19338 1.1833 1.19178 1.15527 1.15823 1.1261 1.14211 1.15553 1.13782 1.16366 1.18061 1.12695 1.12071 1.10965 1.14373 1.18432 1.19906 1.18607 1.17987 1.16949 1.16357 1.1628 1.18067 1.1741 1.19204 1.1819 1.19115 1.18747 1.18167 1.1912 1.17961 1.18788 1.18221 1.17346 1.17295 1.17736 1.17494 1.18533 1.18983 1.1924 1.1856 1.18877 1.18857 1.18604 1.19003 1.18924 1.18913 1.18957 1.18938 1.18916 1.19053 1.18369 1.18527 1.19528 1.18566 1.18926 1.18913 1.18943 1.19096 1.19097 1.18989 1.19017 1.19305 1.18963 1.18832 1.19066 1.19185 1.18876 1.19061 1.1855 1.19244 1.19358 1.18853 1.18651 1.18515 1.18791 1.18984 1.19033 1.1905 1.18763 1.18991 1.18813 1.18903 1.17401 1.19178 1.17682 1.18909 1.19144 1.17142 1.17817 1.18149 1.1967 1.15742 1.16755 1.166 1.18327 1.18485 1.14351 1.16229 1.16086 1.15934 1.14673 1.16908 1.18478 1.17559 1.12967 1.12677 1.11758 1.12449 1.14523 1.18457 1.18208 1.17611 1.18633 1.18827 1.16433 1.16988 1.17014 1.16922 1.17658 1.18234 1.17755 1.18818 1.19023 1.18398 1.18448 1.1812 1.18676 1.17423 1.19371 1.18401 1.19093 1.17947 1.18812 1.18759 1.1915 1.1915 1.1915 1.19199 1.19215 1.19187 1.19068 1.18733 1.19317 1.19323 1.18588 1.1897 1.18946 1.18825 1.1912 1.18655 1.18227 1.19168 1.18501 1.19513 1.18557 1.18573 1.18576 1.18908 1.1889 1.18917 1.19064 1.18973 1.19009 1.19308 1.18989 1.18824 1.19032 1.19136 1.18993 1.19092 1.19139 1.19256 1.1917 1.19339 1.1872 1.18581 1.18713 1.18769 1.18746 1.18827 1.19627 1.18967 1.19021 1.18872 1.18672 1.18753 1.18767 1.18195 1.18917 1.18874 1.18939 1.17612 1.1888 1.18414 1.18219 1.16327 1.17221 1.19083 1.18141 1.19162 1.17589 1.16472 1.16652 1.18501 1.18111 1.15112 1.16678 1.16304 1.18109 1.17959 1.17099 1.17601 1.17926 1.17985 1.18228 1.12882 1.13877 1.13663 1.1448 1.18216 1.17806 1.16609 1.17523 1.19853 1.18557 1.17199 1.18446 1.18485 1.18304 1.192 1.18863 1.18101 1.18257 1.18237 1.18604 1.18642 1.17768 1.18453 1.18414 1.18497 1.19266 1.18835 1.18324 1.18768 1.19157 1.1912 1.19107 1.19221 1.19056 1.18751 1.19405 1.18575 1.18621 1.19025 1.19178 1.19126 1.19272 1.19343 1.1945 1.19851 1.18925 1.18585 1.18847 1.18895 1.19222 1.19052 1.18942 1.18977 1.19118 1.18998 1.18801 1.18973 1.19266 1.19178 1.19049 1.18971 1.19044 1.19241 1.19394 1.18678 1.18708 1.18841 1.19613 1.18986 1.18612 1.18715 1.1889 1.18265 1.18879 1.18965 1.17684 1.18991 1.18297 1.18701 1.18491 1.16894 1.17393 1.17008 1.18147 1.18801 1.17541 1.18058 1.16834 1.16996 1.17212 1.15376 1.15653 1.15368 1.15845 1.16764 1.18266 1.18503 1.1848 1.17844 1.17816 1.15611 1.15128 1.14328 1.14723 1.18156 1.1671 1.19276 1.19907 1.18863 1.19178 1.18194 1.19178 1.18988 1.19238 1.19251 1.18763 1.18201 1.18525 1.18092 1.19709 1.1865 1.18885 1.18482 1.19066 1.19022 1.18299 1.19346 1.19142 1.18724 1.1945 1.19068 1.19223 1.18763 1.19052 1.19005 1.1915 1.18885 1.19167 1.18821 1.19357 1.19391 1.19183 1.18873 1.18553 1.19187 1.18944 1.18895 1.18798 1.18937 1.18819 1.18905 1.19186 1.18894 1.19095 1.19036 1.18977 1.18885 1.19024 1.19024 1.18855 1.18615 1.18647 1.18732 1.19106 1.18723 1.18803 1.18877 1.18974 1.18722 1.18834 1.1884 1.18965 1.18806 1.19083 1.18921 1.19111 1.18366 1.18639 1.18671 1.18483 1.17153 1.17668 1.17587 1.18569 1.18822 1.17782 1.18167 1.16075 1.1615 1.1772 1.1694 1.16811 1.18578 1.18171 1.17752 1.14163 1.15587 1.17462 1.15672 1.15021 1.1485 1.18262 1.1842 1.19178 1.17801 1.19331 1.18671 1.19035 1.18722 1.18988 1.19284 1.19171 1.1836 1.19361 1.18659 1.18974 1.18258 1.19679 1.18675 1.19202 1.18726 1.1868 1.18808 1.18487 1.1884 1.18821 1.19143 1.18918 1.19138 1.1917 1.18895 1.1872 1.19045 1.19061 1.1894 1.19075 1.1917 1.1906 1.19494 1.1928 1.19387 1.19455 1.19215 1.19149 1.18517 1.18711 1.19204 1.19624 1.18848 1.18787 1.18953 1.19338 1.19362 1.18931 1.19102 1.18733 1.1873 1.18955 1.19018 1.18861 1.18647 1.18913 1.18842 1.18919 1.18516 1.18516 1.18768 1.1851 1.1888 1.19034 1.18849 1.18773 1.18901 1.18902 1.18862 1.18931 1.18848 1.19001 1.18577 1.18823 1.18346 1.19178 1.18851 1.1797 1.17478 1.18244 1.18521 1.19185 1.1848 1.18349 1.1843 1.16077 1.16568 1.17924 1.17122 1.18345 1.17798 1.17863 1.1868 1.193 1.13909 1.14993 1.1835 1.1575 1.14919 1.1834 1.18522 1.184 1.18417 1.18794 1.18407 1.17983 1.19142 1.19132 1.18942 1.18818 1.19312 1.1932 1.19342 1.18984 1.18798 1.18558 1.19748 1.18711 1.18778 1.18999 1.18802 1.1859 1.18602 1.18879 1.19017 1.18604 1.18921 1.19118 1.18756 1.1881 1.18779 1.19041 1.19041 1.18984 1.18992 1.18916 1.1908 1.1928 1.19178 1.19186 1.19182 1.19315 1.19187 1.18894 1.18695 1.19563 1.19064 1.18866 1.18863 1.18737 1.18803 1.18938 1.19382 1.18932 1.19192 1.18849 1.189 1.18988 1.18845 1.18978 1.18812 1.18926 1.18519 1.18555 1.18852 1.19039 1.19196 1.18737 1.18912 1.18796 1.18935 1.1889 1.18876 1.18944 1.18812 1.18829 1.18978 1.18694 1.19178 1.18399 1.1852 1.20627 1.18822 1.18056 1.19178 1.17842 1.18454 1.18712 1.19272 1.18545 1.17222 1.16288 1.16978 1.17349 1.17822 1.17632 1.1861 1.18524 1.18006 1.18286 1.18268 1.18394 1.16038 1.18318 1.15761 1.14932 1.1846 1.18632 1.18496 1.18455 1.18262 1.19181 1.19209 1.18839 1.18982 1.19348 1.19331 1.19674 1.18696 1.18971 1.18728 1.18847 1.19 1.18805 1.18554 1.18796 1.18571 1.19141 1.18789 1.18734 1.18839 1.19233 1.19192 1.19033 1.18975 1.1888 1.18886 1.19119 1.19288 1.19148 1.19108 1.1878 1.19182 1.1911 1.18909 1.18675 1.18264 1.19085 1.18894 1.18821 1.18957 1.18829 1.19038 1.18966 1.19207 1.18972 1.19124 1.18816 1.18872 1.18838 1.18853 1.18924 1.18823 1.18638 1.18573 1.18855 1.18722 1.19112 1.18734 1.18806 1.18895 1.18921 1.1881 1.18872 1.18434 1.18984 1.18804 1.19221 1.19107 1.18707 1.19329 1.18783 1.1889 1.18795 1.17978 1.18958 1.18662 1.18868 1.18669 1.19122 1.17657 1.18002 1.16982 1.16329 1.17545 1.17654 1.18654 1.18619 1.18507 1.1845 1.18345 1.18909 1.19591 1.1885 1.15496 1.16303 1.18523 1.18667 1.18787 1.18325 1.1902 1.19179 1.18852 1.19012 1.18953 1.19396 1.19053 1.18562 1.18971 1.19026 1.19134 1.18944 1.19054 1.18893 1.18709 1.19633 1.18701 1.18912 1.18792 1.19183 1.1908 1.18917 1.18975 1.18957 1.18946 1.18861 1.19146 1.18898 1.19137 1.19256 1.18973 1.19151 1.19183 1.1906 1.19043 1.18883 1.18678 1.18753 1.18254 1.19049 1.1879 1.18975 1.19203 1.1908 1.19001 1.18864 1.1895 1.1895 1.18808 1.18831 1.18882 1.1888 1.18935 1.18957 1.18869 1.1887 1.18837 1.18638 1.18952 1.18522 1.18966 1.18832 1.19178 1.1891 1.1877 1.18901 1.18496 1.18865 1.18852 1.19072 1.19428 1.18771 1.18716 1.19352 1.19103 1.1891 1.18591 1.18186 1.19177 1.19226 1.18844 1.19287 1.19279 1.17787 1.18836 1.18753 1.1858 1.18379 1.18591 1.18493 1.18704 1.18694 1.1899 1.16215 1.16228 1.16088 1.18715 1.19021 1.18761 1.19005 1.19141 1.18864 1.19024 1.1881 1.18786 1.19396 1.19054 1.18574 1.19178 1.19036 1.19118 1.18915 1.19029 1.18877 1.18937 1.18809 1.19194 1.18558 1.18896 1.18971 1.19036 1.19161 1.19082 1.18905 1.18877 1.19192 1.18892 1.19058 1.19166 1.19069 1.19135 1.19016 1.18519 1.18901 1.1904 1.1893 1.18264 1.18795 1.1904 1.18882 1.18943 1.19191 1.19058 1.18934 1.18815 1.19183 1.18927 1.18812 1.18828 1.1889 1.18685 1.18901 1.1913 1.18873 1.18909 1.18716 1.18845 1.18522 1.18919 1.19077 1.18876 1.18921 1.18882 1.18774 1.18839 1.18904 1.18886 1.18874 1.19141 1.19252 1.18545 1.18721 1.18582 1.18992 1.18828 1.18585 1.18961 1.18708 1.18629 1.1817 1.19344 1.19425 1.18765 1.18883 1.17611 1.18364 1.19361 1.1812 1.17707 1.18611 1.18691 1.19219 1.18786 1.18821 1.18496 1.17752 1.1851 1.19178 1.17999 1.17192 1.18557 1.18745 1.18991 1.19189 1.19247 1.19309 1.18903 1.19132 1.19101 1.18794 1.19472 1.18871 1.19145 1.19174 1.18652 1.18906 1.19042 1.18815 1.19057 1.19016 1.18858 1.18964 1.18905 1.19075 1.19113 1.19144 1.18694 1.18918 1.19116 1.19166 1.18942 1.19051 1.1905 1.19079 1.18953 1.19156 1.18881 1.18857 1.18694 1.19043 1.19109 1.18916 1.19015 1.18803 1.19199 1.19402 1.19341 1.19113 1.18944 1.18908 1.18988 1.19161 1.1907 1.19013 1.18944 1.18832 1.19083 1.18924 1.18774 1.1892 1.18792 1.1878 1.189 1.1918 1.18891 1.18873 1.19129 1.18724 1.18836 1.18781 1.18896 1.18629 1.19149 1.18879 1.1891 1.18863 1.1883 1.18892 1.18897 1.19168 1.18551 1.18531 1.18872 1.18939 1.1937 1.18945 1.18553 1.18438 1.18538 1.18947 1.1897 1.19253 1.19121 1.18991 1.18785 1.18444 1.19019 1.18824 1.18899 1.18769 1.18211 1.17801 1.18145 1.18807 1.17215 1.18555 1.18747 1.18819 1.19165 1.191 1.19127 1.19185 1.19213 1.18919 1.19048 1.18807 1.18967 1.19011 1.19022 1.19087 1.1913 1.19237 1.19305 1.18922 1.18983 1.1915 1.18944 1.18907 1.18916 1.19052 1.19138 1.18702 1.18933 1.18868 1.1912 1.1899 1.19105 1.19243 1.19175 1.18963 1.18845 1.19016 1.18754 1.19025 1.18882 1.19032 1.18998 1.19092 1.1883 1.19361 1.19176 1.18921 1.19258 1.1895 1.18977 1.19049 1.19085 1.1916 1.19181 1.18943 1.18989 1.19612 1.18889 1.19151 1.18886 1.18797 1.18834 1.18815 1.19006 1.1902 1.19028 1.188 1.18775 1.19051 1.18829 1.18907 1.18895 1.19044 1.1898 1.19128 1.18725 1.18824 1.18589 1.19268 1.18938 1.18528 1.18962 1.18934 1.19022 1.19212 1.19093 1.18959 1.18771 1.18813 1.18936 1.18599 1.18816 1.18687 1.18943 1.18818 1.1884 1.18198 1.18286 1.18818 1.18674 1.17227 1.19113 1.18728 1.18821 1.19118 1.19115 1.19082 1.1924 1.18953 1.19011 1.18983 1.19007 1.18976 1.19059 1.19132 1.19111 1.19132 1.19225 1.1887 1.19051 1.19052 1.18971 1.18912 1.18952 1.18911 1.19026 1.19166 1.18701 1.18886 1.19012 1.19188 1.19102 1.19023 1.1913 1.19011 1.18921 1.18931 1.19076 1.19067 1.19033 1.18962 1.19109 1.19194 1.19151 1.19186 1.19015 1.19093 1.19098 1.19095 1.19295 1.19204 1.19088 1.19145 1.1887 1.18952 1.19182 1.19178 1.18889 1.18851 1.19296 1.19086 1.19297 1.19019 1.19005 1.18771 1.18708 1.18866 1.19079 1.18801 1.18839 1.18888 1.18859 1.18971 1.19005 1.19029 1.18999 1.19018 1.18827 1.1879 1.19107 1.18841 1.19037 1.1925 1.19045 1.19379 1.18953 1.19042 1.18976 1.1896 1.1904 1.19202 1.18808 1.19178 1.18847 1.18968 1.18672 1.18604 1.18667 1.1867 1.19051 1.19044 1.18379 1.19054 1.18279 1.18638 1.18414 1.18591 1.18334 1.19157 1.19109 1.18743 1.18933 1.18925 1.18867 1.19045 1.1876 1.19235 1.19142 1.19045 1.19095 1.18989 1.18982 1.1903 1.18975 1.19102 1.19099 1.19167 1.18893 1.18862 1.18966 1.18944 1.19077 1.19103 1.18943 1.1891 1.18936 1.19071 1.19065 1.19217 1.18939 1.19001 1.19093 1.19012 1.1898 1.18953 1.19278 1.18948 1.19075 1.19108 1.1896 1.18951 1.1909 1.19131 1.18819 1.19133 1.19165 1.19178 1.18922 1.19184 1.19202 1.18982 1.19178 1.1896 1.19088 1.19206 1.19008 1.18907 1.1887 1.191 1.19068 1.19135 1.18815 1.18863 1.18882 1.18967 1.18979 1.18818 1.18861 1.18823 1.18918 1.19014 1.18917 1.19184 1.19046 1.19183 1.19078 1.19123 1.19178 1.18924 1.18952 1.19217 1.19191 1.19122 1.19086 1.19073 1.18899 1.19039 1.18861 1.18909 1.18642 1.18745 1.1908 1.19048 1.19033 1.19187 1.19182 1.19178 1.19109 1.19108 1.18882 1.18863 1.18852 1.19236 1.18985 1.191 1.19004 1.19056 1.19092 1.19087 1.19116 1.19158 1.18854 1.1902 1.19019 1.19157 1.18986 1.18972 1.18978 1.18929 1.19081 1.19178 1.18892 1.18934 1.19006 1.19095 1.18991 1.18972 1.18955 1.19276 1.19045 1.1913 1.19031 1.19023 1.18956 1.19176 1.19087 1.19013 1.1901 1.19178 1.18909 1.19154 1.19178 1.19178 1.19139 1.19004 1.19198 1.19178 1.19003 1.19063 1.19228 1.1896 1.18958 1.19082 1.19191 1.19024 1.19006 1.18984 1.18913 1.18871 1.19195 1.18853 1.18947 1.18871 1.19014 1.18955 1.18971 1.19018 1.18995 1.18855 1.18857 1.18804 1.18911 1.18959 1.19105 1.19055 1.19162 1.18919 1.19136 1.19004 1.18938 1.18944 1.1904 1.19207 1.19152 1.1912 1.18943 1.18926 1.188 1.1873 1.19104 1.19061 1.19167 1.19185 1.18439 1.1916 1.19178 1.19189 1.19096 1.19165 1.18974 1.1892 1.1895 1.19247 1.18923 1.19061 1.19097 1.19007 1.19038 1.19083 1.19117 1.19178 1.18893 1.18962 1.18972 1.19109 1.19059 1.18974 1.19056 1.19106 1.19044 1.18887 1.18935 1.1902 1.19031 1.19039 1.19094 1.19178 1.19045 1.19123 1.19051 1.19003 1.19178 1.19067 1.18993 1.19178 1.19038 1.19164 1.19178 1.19179 1.19148 1.19061 1.19178 1.19144 1.19068 1.19178 1.1922 1.192 1.19108 1.19004 1.19096 1.19032 1.18994 1.19046 1.18914 1.1891 1.19131 1.19011 1.19109 1.18939 1.18868 1.18884 1.19005 1.19012 1.18921 1.18896 1.18946 1.18789 1.18988 1.19037 1.19057 1.19057 1.19128 1.19128 1.19158 1.19202 1.19041 1.19257 1.18949 1.19036 1.19207 1.19027 1.19072 1.18953 1.19013 1.18927 1.19153 1.19184 1.19101 1.1843 1.19146 1.19191 1.18967 1.1895 1.19178 1.1892 1.19056 1.19007 1.1904 1.1909 1.19088 1.19118 1.19104 1.18951 1.19126 1.19046 1.19043 1.18971 1.19036 1.19087 1.19058 1.18993 1.19099 1.1914 1.19127 1.18881 1.18884 1.18902 1.19037 1.19091 1.19098 1.1896 1.19107 1.18949 1.19187 1.19043 1.19114 1.19178 1.19012 1.19191 1.19087 1.1912 1.19057 1.19042 1.19163 1.19184 1.19191 1.19152 1.19154 1.19055 1.1917 1.19132 1.19061 1.19165 1.1916 1.19096 1.19122 1.19108 1.18986 1.18972 1.19184 1.19163 1.19117 1.1897 1.18845 1.19052 1.18969 1.19017 1.19002 1.18896 1.18944 1.18786 1.18902 1.19196 1.19008 1.19064 1.19178 1.19178 1.19154 1.19098 1.19179 1.1915 1.19054 1.19008 1.19031 1.19125 1.19025 1.19084 1.19152 1.19164 1.19008 1.18922 1.19178 1.1893 1.19071 1.192 1.19123 1.19158 1.19178 1.19146 1.19147 1.19147 1.18917 1.18973 1.18919 1.1906 1.19026 1.19048 1.19097 1.19052 1.19017 1.19083 1.19059 1.19045 1.19081 1.18897 1.18978 1.1896 1.19079 1.1917 1.19025 1.1918 1.19153 1.18961 1.18838 1.19054 1.1912 1.18973 1.19 1.18894 1.18943 1.18966 1.18966 1.19108 1.19022 1.19052 1.19045 1.19033 1.19023 1.19056 1.18935 1.19189 1.1911 1.19168 1.19159 
SCALARS Stress float 1
LOOKUP_TABLE default
-2.75676e+12 -2.61823e+12 -176905000000.0 -764461000000.0 -2.42405e+12 -1.22056e+12 -3.18806e+12 -1.7049e+12 -1.7117e+12 -2.03916e+12 -3.39496e+12 -2.61091e+12 -1.90739e+12 -404677000000.0 -1.17362e+12 -862934000000.0 -52592900000.0 -298231000000.0 -241318000000.0 -147775000000.0 -152647000000.0 -42848000000.0 -20562200000.0 -14734200000.0 -31984600000.0 -26819300000.0 -12549700000.0 -12549700000.0 -25510600000.0 -24607100000.0 -16933100000.0 -12549700000.0 -12549700000.0 -12549700000.0 -30026800000.0 -24488500000.0 -21705900000.0 -23629700000.0 -19690400000.0 -21399200000.0 -23290900000.0 -24750100000.0 -29535800000.0 -14413100000.0 -15300600000.0 -23426000000.0 -14410700000.0 -26319400000.0 -13333900000.0 -37424700000.0 -22133900000.0 -36571800000.0 -33633200000.0 -68694200000.0 -127436000000.0 -318703000000.0 -386784000000.0 -600964000000.0 -555742000000.0 -840240000000.0 -1.03513e+12 -1.00511e+12 -4.41875e+12 -3.42854e+12 -2.99566e+12 -1.78157e+12 -2.88669e+12 -2.71461e+12 -4.94444e+12 -3.15521e+12 -3.4199e+12 -3.53483e+12 -1.42327e+12 -1.13274e+12 -566084000000.0 -2.30324e+12 -2.02501e+12 -421507000000.0 -991986000000.0 -744497000000.0 -214272000000.0 -794637000000.0 -569013000000.0 -382468000000.0 -276329000000.0 -222747000000.0 -151543000000.0 -64843400000.0 -33658300000.0 -23845700000.0 -102999000000.0 -30045600000.0 -50913400000.0 -51374400000.0 -44186300000.0 -42668400000.0 -14201900000.0 -17996400000.0 -19162500000.0 -21387200000.0 -17095300000.0 -17439000000.0 -18569800000.0 -16812400000.0 -13295500000.0 -39293200000.0 -14292000000.0 -12817400000.0 -12549700000.0 -33137400000.0 -16141800000.0 -60257500000.0 -14726400000.0 -74189900000.0 -27956500000.0 -43499100000.0 -27412400000.0 -453071000000.0 -103750000000.0 -374817000000.0 -108161000000.0 -947275000000.0 -1.02772e+12 -958677000000.0 -3.47485e+12 -2.29367e+12 -1.25404e+12 -3.74305e+12 -2.97544e+12 -4.55592e+12 -3.55805e+12 -1.98065e+12 -1.2378e+12 -2.48737e+12 -1.69387e+12 -3.07577e+12 -3.38195e+12 -2.60571e+12 -4.56653e+12 -3.66364e+12 -2.30186e+12 -3.77833e+12 -4.86796e+12 -2.71462e+12 -2.21686e+12 -2.41252e+12 -2.00704e+12 -1.90582e+12 -1.26804e+12 -1.05118e+12 -1.49592e+12 -858773000000.0 -1.20746e+12 -755310000000.0 -247457000000.0 -247023000000.0 -307960000000.0 -302083000000.0 -251858000000.0 -230074000000.0 -56839600000.0 -65742400000.0 -82995600000.0 -14786200000.0 -23744700000.0 -26782800000.0 -17004000000.0 -13485800000.0 -15366100000.0 -33889100000.0 -20816200000.0 -19064800000.0 -26102000000.0 -22252700000.0 -19804400000.0 -53552800000.0 -67366700000.0 -65930300000.0 -63623000000.0 -112449000000.0 -208451000000.0 -213566000000.0 -276073000000.0 -118302000000.0 -92925400000.0 -396170000000.0 -452994000000.0 -805657000000.0 -434704000000.0 -906150000000.0 -1.49658e+12 -398239000000.0 -1.95444e+12 -1.53022e+12 -2.62358e+12 -6.27249e+12 -4.96228e+12 -2.78884e+12 -3.07251e+12 -5.69741e+12 -3.59537e+12 -3.29178e+12 -5.07715e+12 -4.1671e+12 -2.94e+12 -2.59599e+12 -2.61993e+12 -2.47649e+12 -6.37206e+12 -3.41516e+12 -5.05325e+12 -2.17285e+12 -4.76545e+12 -3.73215e+12 -5.87289e+12 -5.6584e+12 -2.16024e+12 -2.92672e+12 -1.90485e+12 -1.13559e+12 -1.68183e+12 -1.84515e+12 -1.63773e+12 -1.04892e+12 -561277000000.0 -734678000000.0 -245090000000.0 -801818000000.0 -691295000000.0 -753924000000.0 -684923000000.0 -317341000000.0 -195234000000.0 -206844000000.0 -126856000000.0 -194488000000.0 -163065000000.0 -83932900000.0 -54897100000.0 -39864600000.0 -51508100000.0 -20988300000.0 -14551600000.0 -29719700000.0 -43104000000.0 -13021300000.0 -28487700000.0 -17844500000.0 -50261400000.0 -56082600000.0 -88992000000.0 -13409600000.0 -45245700000.0 -40375900000.0 -132902000000.0 -12549700000.0 -12549700000.0 -243880000000.0 -38472500000.0 -441838000000.0 -103914000000.0 -147734000000.0 -757719000000.0 -970405000000.0 -1.74327e+12 -1.60383e+12 -2.00067e+12 -1.64512e+12 -2.21921e+12 -3.97991e+12 -3.39319e+12 -2.04258e+12 -5.68755e+12 -6.34824e+12 -5.00176e+12 -4.34655e+12 -4.59291e+12 -2.62828e+12 -4.77003e+12 -2.36973e+12 -2.35907e+12 -2.0306e+12 -2.38169e+12 -2.13076e+12 -3.68192e+12 -3.88313e+12 -4.92214e+12 -3.44627e+12 -7.10918e+12 -6.56119e+12 -4.19635e+12 -4.42306e+12 -3.29248e+12 -2.99089e+12 -2.52827e+12 -3.02076e+12 -3.68472e+12 -1.42298e+12 -1.78204e+12 -2.04805e+12 -914807000000.0 -1.20419e+12 -931205000000.0 -1.09428e+12 -410166000000.0 -429097000000.0 -544381000000.0 -607546000000.0 -243880000000.0 -70779400000.0 -64103300000.0 -52631400000.0 -52285500000.0 -137054000000.0 -30900200000.0 -49362600000.0 -91662300000.0 -119814000000.0 -53227800000.0 -29996300000.0 -56094500000.0 -18147800000.0 -43048600000.0 -46064800000.0 -30238900000.0 -94606200000.0 -113755000000.0 -54861900000.0 -85453400000.0 -91545200000.0 -262632000000.0 -22098100000.0 -58499900000.0 -156154000000.0 -251116000000.0 -625493000000.0 -533299000000.0 -459364000000.0 -496887000000.0 -626241000000.0 -1.28979e+12 -1.51421e+12 -2.02203e+12 -2.10757e+12 -4.82216e+12 -2.09699e+12 -2.90726e+12 -5.34526e+12 -5.60957e+12 -2.56048e+12 -2.29226e+12 -3.15845e+12 -4.9884e+12 -6.53387e+12 -3.45837e+12 -3.66704e+12 -3.42382e+12 -4.10625e+12 -4.39353e+12 -4.47016e+12 -3.25137e+12 -4.73104e+12 -4.61861e+12 -4.79786e+12 -3.67505e+12 -4.7029e+12 -6.06136e+12 -2.74913e+12 -5.54709e+12 -4.9417e+12 -3.27835e+12 -3.10407e+12 -1.86634e+12 -3.92032e+12 -3.62578e+12 -3.96599e+12 -1.85188e+12 -3.06915e+12 -1.87049e+12 -3.09141e+12 -2.40217e+12 -3.03311e+12 -3.43923e+12 -2.21262e+12 -2.07808e+12 -1.59433e+12 -1.3139e+12 -649991000000.0 -708830000000.0 -870267000000.0 -523980000000.0 -364128000000.0 -603621000000.0 -343142000000.0 -176947000000.0 -281773000000.0 -257545000000.0 -198553000000.0 -35053700000.0 -32019100000.0 -31769000000.0 -171919000000.0 -137313000000.0 -66689200000.0 -69706300000.0 -70197000000.0 -62623900000.0 -87018500000.0 -140983000000.0 -85851600000.0 -81410400000.0 -72413600000.0 -74822600000.0 -122086000000.0 -211550000000.0 -230031000000.0 -177429000000.0 -237805000000.0 -331969000000.0 -656448000000.0 -815581000000.0 -537596000000.0 -745343000000.0 -905995000000.0 -1.35675e+12 -1.03864e+12 -677569000000.0 -1.36371e+12 -504940000000.0 -2.2479e+12 -3.90167e+12 -3.14188e+12 -2.8596e+12 -4.05495e+12 -3.72439e+12 -5.30865e+12 -2.56619e+12 -4.99379e+12 -3.91379e+12 -2.60616e+12 -3.68514e+12 -7.09529e+12 -6.91901e+12 -4.217e+12 -6.78472e+12 -7.36695e+12 -4.32371e+12 -5.24049e+12 -6.7379e+12 -5.14531e+12 -7.86723e+12 -5.27051e+12 -3.69597e+12 -2.88612e+12 -4.65197e+12 -4.12118e+12 -4.20744e+12 -5.12364e+12 -6.21211e+12 -3.21355e+12 -4.3302e+12 -2.30782e+12 -2.82278e+12 -3.08535e+12 -2.73005e+12 -3.58307e+12 -1.82888e+12 -992180000000.0 -2.49245e+12 -2.16881e+12 -722318000000.0 -1.45468e+12 -1.52429e+12 -1.8182e+12 -1.2507e+12 -1.02203e+12 -489585000000.0 -494590000000.0 -380162000000.0 -231678000000.0 -152478000000.0 -188375000000.0 -151804000000.0 -166772000000.0 -131058000000.0 -117495000000.0 -61342600000.0 -54162400000.0 -79500500000.0 -21707500000.0 -28736400000.0 -16010200000.0 -60700300000.0 -94327000000.0 -93859500000.0 -106505000000.0 -158083000000.0 -107357000000.0 -97077200000.0 -117693000000.0 -113914000000.0 -288621000000.0 -356430000000.0 -170633000000.0 -126533000000.0 -431773000000.0 -168906000000.0 -664572000000.0 -109786000000.0 -849640000000.0 -1.45161e+12 -1.83055e+12 -1.70762e+12 -2.46978e+12 -2.48153e+12 -3.01826e+12 -3.02767e+12 -1.64495e+12 -5.28087e+12 -1.54673e+12 -1.98529e+12 -3.15637e+12 -4.72663e+12 -5.70633e+12 -1.84803e+12 -2.131e+12 -3.37199e+12 -3.88921e+12 -5.55554e+12 -4.05105e+12 -6.04743e+12 -4.39917e+12 -6.01978e+12 -7.65227e+12 -1.5801e+12 -3.70511e+12 -4.01882e+12 -4.42063e+12 -1.92182e+12 -3.90043e+12 -5.65532e+12 -5.03763e+12 -9.29424e+12 -2.57738e+12 -6.29109e+12 -6.61738e+12 -3.7455e+12 -6.55583e+12 -4.13624e+12 -4.24538e+12 -1.57248e+12 -3.64353e+12 -2.97236e+12 -4.11393e+12 -5.0068e+12 -3.1073e+12 -1.1245e+12 -2.06875e+12 -2.01908e+12 -2.86422e+12 -3.47918e+12 -2.37087e+12 -2.00141e+12 -2.1484e+12 -1.3244e+12 -862324000000.0 -1.28367e+12 -666349000000.0 -751631000000.0 -376930000000.0 -805677000000.0 -325015000000.0 -364965000000.0 -215758000000.0 -173765000000.0 -404507000000.0 -205956000000.0 -187918000000.0 -159948000000.0 -106469000000.0 -115522000000.0 -101840000000.0 -35200100000.0 -63790500000.0 -38487500000.0 -31165200000.0 -21429300000.0 -13157700000.0 -52707100000.0 -53199600000.0 -39145900000.0 -114486000000.0 -136000000000.0 -130015000000.0 -141777000000.0 -265330000000.0 -42718600000.0 -50792400000.0 -41748000000.0 -79689500000.0 -184627000000.0 -156462000000.0 -102367000000.0 -245213000000.0 -609491000000.0 -912462000000.0 -1.24149e+12 -1.55529e+12 -1.06629e+12 -1.37531e+12 -1.62588e+12 -1.44065e+12 -2.34778e+12 -2.90895e+12 -2.09822e+12 -5.55159e+12 -3.81329e+12 -2.47667e+12 -1.71048e+12 -3.08765e+12 -1.2162e+12 -3.99899e+12 -4.37615e+12 -4.73977e+12 -4.77036e+12 -3.46784e+12 -4.76548e+12 -4.51366e+12 -6.73432e+12 -4.2742e+12 -8.77165e+12 -5.12928e+12 -6.36642e+12 -6.02393e+12 -3.00003e+12 -3.76921e+12 -5.89239e+12 -2.58877e+12 -5.77092e+12 -5.99151e+12 -4.3338e+12 -3.65548e+12 -6.60928e+12 -5.26846e+12 -4.362e+12 -5.8699e+12 -4.74035e+12 -6.32522e+12 -7.30022e+12 -4.67405e+12 -3.80447e+12 -1.85896e+12 -2.19372e+12 -1.80532e+12 -2.32479e+12 -3.04796e+12 -3.37665e+12 -3.33898e+12 -1.73524e+12 -931083000000.0 -1.08052e+12 -1.20117e+12 -730635000000.0 -690122000000.0 -591826000000.0 -640287000000.0 -524604000000.0 -468103000000.0 -246408000000.0 -338280000000.0 -145353000000.0 -201489000000.0 -206578000000.0 -137149000000.0 -106389000000.0 -88539500000.0 -79978000000.0 -90649200000.0 -91396100000.0 -82945900000.0 -89550300000.0 -118223000000.0 -12657700000.0 -68365000000.0 -56448500000.0 -59366600000.0 -238246000000.0 -240072000000.0 -15913000000.0 -421793000000.0 -442926000000.0 -517077000000.0 -665282000000.0 -800571000000.0 -477045000000.0 -378980000000.0 -887105000000.0 -555527000000.0 -513142000000.0 -736339000000.0 -892175000000.0 -3.36266e+12 -464004000000.0 -1.10529e+12 -3.49643e+12 -2.37467e+12 -2.40188e+12 -1.58593e+12 -3.05367e+12 -3.43079e+12 -2.42293e+12 -4.66637e+12 -1.61462e+12 -3.41677e+12 -2.6052e+12 -8.78973e+12 -3.32101e+12 -4.80091e+12 -5.95161e+12 -6.8577e+12 -6.33967e+12 -5.94791e+12 -2.47207e+12 -6.10191e+12 -4.0005e+12 -4.03853e+12 -4.16003e+12 -6.80633e+12 -3.85824e+12 -6.39445e+12 -3.46363e+12 -3.1286e+12 -5.15495e+12 -3.62903e+12 -5.6748e+12 -4.26376e+12 -4.62227e+12 -6.24119e+12 -2.56093e+12 -6.03212e+12 -3.22212e+12 -6.22157e+12 -3.98329e+12 -5.52694e+12 -1.5531e+12 -3.00153e+12 -3.48509e+12 -7.11475e+12 -4.19852e+12 -3.52745e+12 -5.11553e+12 -2.49518e+12 -2.0435e+12 -1.94917e+12 -2.08521e+12 -2.06648e+12 -4.9452e+12 -2.5617e+12 -613967000000.0 -2.55328e+12 -1.23438e+12 -643771000000.0 -1.46256e+12 -615746000000.0 -1.39917e+12 -632280000000.0 -643734000000.0 -688076000000.0 -80534800000.0 -267479000000.0 -220948000000.0 -145113000000.0 -85731400000.0 -43170900000.0 -27554700000.0 -95335800000.0 -24491300000.0 -58286400000.0 -28385900000.0 -15534400000.0 -15954500000.0 -39027400000.0 -31726000000.0 -48960700000.0 -74434500000.0 -14693600000.0 -63675100000.0 -49807200000.0 -37443800000.0 -75793600000.0 -77707200000.0 -136983000000.0 -143034000000.0 -482667000000.0 -119533000000.0 -82029800000.0 -166268000000.0 -411293000000.0 -432120000000.0 -574615000000.0 -309118000000.0 -1.00792e+12 -893082000000.0 -580580000000.0 -897177000000.0 -2.32776e+12 -2.01512e+12 -2.1778e+12 -3.5731e+12 -1.90237e+12 -3.04693e+12 -1.59351e+12 -2.76859e+12 -2.01601e+12 -2.83241e+12 -2.41408e+12 -2.42681e+12 -4.60018e+12 -4.34942e+12 -6.06338e+12 -4.97135e+12 -5.36255e+12 -5.30961e+12 -4.85019e+12 -7.69616e+12 -5.8323e+12 -3.63371e+12 -4.72968e+12 -2.57693e+12 -3.18677e+12 -8.36142e+12 -5.44302e+12 -3.66061e+12 -9.87544e+12 -2.70491e+12 -2.62691e+12 -3.23911e+12 -7.39729e+12 -7.15144e+12 -4.75593e+12 -7.19964e+12 -5.89679e+12 -4.85533e+12 -5.56411e+12 -3.86691e+12 -3.62507e+12 -4.76808e+12 -7.22939e+12 -6.31703e+12 -5.78078e+12 -2.85928e+12 -3.40242e+12 -2.00327e+12 -2.07819e+12 -2.72127e+12 -3.84809e+12 -2.6997e+12 -2.28026e+12 -2.35666e+12 -2.5085e+12 -1.81331e+12 -1.90362e+12 -839076000000.0 -2.26227e+12 -1.07125e+12 -1.47731e+12 -137127000000.0 -867251000000.0 -403692000000.0 -257322000000.0 -205567000000.0 -31703600000.0 -574067000000.0 -270274000000.0 -298007000000.0 -366495000000.0 -120861000000.0 -75686400000.0 -155414000000.0 -124916000000.0 -142997000000.0 -77995800000.0 -60396500000.0 -40036500000.0 -49905800000.0 -49247300000.0 -43636600000.0 -88050200000.0 -39931800000.0 -76615600000.0 -92351000000.0 -18871300000.0 -141412000000.0 -149129000000.0 -182676000000.0 -354113000000.0 -198882000000.0 -180125000000.0 -253511000000.0 -249404000000.0 -191796000000.0 -539260000000.0 -1.09971e+12 -1.13854e+12 -1.21289e+12 -1.01057e+12 -747435000000.0 -1.65605e+12 -1.7162e+12 -1.16343e+12 -1.88936e+12 -2.42955e+12 -1.77278e+12 -2.37897e+12 -1.49357e+12 -2.21881e+12 -3.11401e+12 -2.49861e+12 -2.34972e+12 -2.27594e+12 -1.1128e+12 -3.44531e+12 -2.53355e+12 -5.54479e+12 -2.26385e+12 -2.60192e+12 -4.35547e+12 -3.14693e+12 -3.36711e+12 -6.24337e+12 -6.28029e+12 -5.7734e+12 -3.20323e+12 -4.55489e+12 -2.95669e+12 -3.54328e+12 -4.87926e+12 -5.16672e+12 -5.17593e+12 -5.98283e+12 -5.2804e+12 -5.5248e+12 -5.66663e+12 -1.30063e+12 -2.5429e+12 -6.10798e+12 -7.74331e+12 -6.60339e+12 -6.1765e+12 -6.54642e+12 -6.77115e+12 -7.24901e+12 -2.67504e+12 -4.22032e+12 -3.24439e+12 -5.56001e+12 -4.44067e+12 -3.93626e+12 -4.3013e+12 -4.64468e+12 -2.99068e+12 -2.43406e+12 -4.73871e+12 -2.73193e+12 -2.57373e+12 -2.26633e+12 -3.33696e+12 -2.52343e+12 -1.58093e+12 -2.79378e+12 -3.43375e+12 -2.44166e+12 -1.87248e+12 -1.64403e+12 -1.5967e+12 -941424000000.0 -972601000000.0 -1.06655e+12 -869190000000.0 -1.20902e+12 -1.02242e+12 -996639000000.0 -526833000000.0 -493083000000.0 -353407000000.0 -425462000000.0 -349347000000.0 -141269000000.0 -294675000000.0 -71448500000.0 -15669500000.0 -88405000000.0 -12549700000.0 -13940600000.0 -38154400000.0 -65331600000.0 -38821900000.0 -40038900000.0 -27159300000.0 -67282600000.0 -12729300000.0 -84823900000.0 -32152600000.0 -123795000000.0 -72371300000.0 -67978900000.0 -204040000000.0 -370238000000.0 -202421000000.0 -306409000000.0 -172044000000.0 -390009000000.0 -619002000000.0 -259147000000.0 -28419000000.0 -581550000000.0 -748767000000.0 -1.39753e+12 -1.02782e+12 -1.32248e+12 -2.19926e+12 -1.49429e+12 -1.61898e+12 -564404000000.0 -1.94229e+12 -1.95728e+12 -3.26472e+12 -3.88375e+12 -3.10155e+12 -3.36713e+12 -4.91148e+12 -4.06966e+12 -4.19144e+12 -2.12955e+12 -4.98339e+12 -4.82526e+12 -3.08305e+12 -6.34852e+12 -7.01893e+12 -2.56978e+12 -5.54902e+12 -5.03463e+12 -6.31816e+12 -4.72213e+12 -4.62545e+12 -4.74606e+12 -5.23645e+12 -3.35668e+12 -3.5509e+12 -4.0142e+12 -4.8891e+12 -3.5894e+12 -3.89314e+12 -3.89503e+12 -7.31998e+12 -6.60724e+12 -6.05064e+12 -3.18014e+12 -6.16873e+12 -5.45116e+12 -6.61071e+12 -3.13247e+12 -3.70803e+12 -6.53533e+12 -2.79989e+12 -4.3209e+12 -2.6601e+12 -2.77525e+12 -2.84051e+12 -2.868e+12 -2.48093e+12 -3.65168e+12 -3.58229e+12 -4.1583e+12 -3.20903e+12 -3.60632e+12 -2.59018e+12 -1.49928e+12 -1.68704e+12 -1.4391e+12 -2.4081e+12 -1.76823e+12 -1.53716e+12 -351442000000.0 -1.09382e+12 -1.8231e+12 -738620000000.0 -227526000000.0 -708984000000.0 -431734000000.0 -576577000000.0 -274742000000.0 -377242000000.0 -140119000000.0 -68240500000.0 -179792000000.0 -165099000000.0 -100086000000.0 -130833000000.0 -97862200000.0 -76150400000.0 -80945200000.0 -31521500000.0 -39076300000.0 -72805900000.0 -13585600000.0 -16533400000.0 -145043000000.0 -191654000000.0 -241762000000.0 -171302000000.0 -146381000000.0 -85208900000.0 -230902000000.0 -351803000000.0 -665848000000.0 -576255000000.0 -623379000000.0 -306367000000.0 -416164000000.0 -973869000000.0 -648904000000.0 -744060000000.0 -1.75748e+12 -1.36059e+12 -477998000000.0 -969773000000.0 -851913000000.0 -1.27311e+12 -1.04476e+12 -2.66562e+12 -2.19151e+12 -3.90716e+12 -1.32353e+12 -2.383e+12 -3.52706e+12 -2.70593e+12 -4.66939e+12 -3.24884e+12 -6.52063e+12 -4.04226e+12 -5.75969e+12 -2.54279e+12 -3.81618e+12 -2.47495e+12 -1.53342e+12 -3.92589e+12 -3.20338e+12 -1.87888e+12 -3.61877e+12 -2.19221e+12 -5.51371e+12 -4.76448e+12 -3.98541e+12 -3.55849e+12 -5.36644e+12 -6.81784e+12 -4.61508e+12 -6.61539e+12 -2.82327e+12 -3.44085e+12 -2.52348e+12 -2.72669e+12 -4.20779e+12 -3.6568e+12 -7.33374e+12 -7.21706e+12 -4.80835e+12 -3.85888e+12 -2.59966e+12 -3.81464e+12 -4.84127e+12 -6.86507e+12 -5.51933e+12 -1.52769e+12 -3.60945e+12 -4.45998e+12 -3.80586e+12 -5.79803e+12 -3.92963e+12 -4.08393e+12 -2.79764e+12 -2.84237e+12 -2.79258e+12 -4.5568e+12 -2.35751e+12 -1.0147e+12 -3.36502e+12 -2.49756e+12 -3.7301e+12 -646797000000.0 -1.72265e+12 -1.95126e+12 -3.43472e+12 -1.35268e+12 -1.40376e+12 -1.83894e+12 -2.83553e+12 -1.87886e+12 -1.00749e+12 -1.76693e+12 -639296000000.0 -1.00775e+12 -314769000000.0 -383656000000.0 -520645000000.0 -186792000000.0 -481737000000.0 -170908000000.0 -190277000000.0 -53373000000.0 -17902900000.0 -28317600000.0 -169772000000.0 -61592600000.0 -66895800000.0 -21502700000.0 -33710000000.0 -17361600000.0 -63872100000.0 -17865700000.0 -20098600000.0 -14608900000.0 -80539400000.0 -99612100000.0 -45096000000.0 -66537500000.0 -104665000000.0 -174557000000.0 -187414000000.0 -110473000000.0 -207863000000.0 -71978800000.0 -124456000000.0 -100237000000.0 -161296000000.0 -827541000000.0 -965481000000.0 -753957000000.0 -204494000000.0 -130960000000.0 -1.38279e+12 -950350000000.0 -1.74319e+12 -1.59731e+12 -1.83516e+12 -1.13211e+12 -1.16872e+12 -2.51486e+12 -2.35508e+12 -1.43325e+12 -3.62026e+12 -2.60845e+12 -3.84689e+12 -3.12576e+12 -3.34316e+12 -5.00488e+12 -3.20246e+12 -2.88036e+12 -3.18063e+12 -2.76532e+12 -5.39539e+12 -4.42789e+12 -4.7795e+12 -4.35196e+12 -4.20003e+12 -4.44989e+12 -2.60352e+12 -4.11571e+12 -3.40514e+12 -3.64047e+12 -3.57517e+12 -4.00581e+12 -5.22157e+12 -6.63983e+12 -3.57991e+12 -3.23226e+12 -3.88291e+12 -3.56516e+12 -2.60034e+12 -2.77382e+12 -2.22493e+12 -1.99143e+12 -5.02957e+12 -5.26703e+12 -4.34456e+12 -4.08204e+12 -2.83718e+12 -3.79929e+12 -2.14947e+12 -4.84098e+12 -6.63705e+12 -4.18022e+12 -3.5167e+12 -4.22348e+12 -2.63599e+12 -4.55795e+12 -2.38705e+12 -1.53384e+12 -3.39361e+12 -2.71529e+12 -3.79594e+12 -2.42344e+12 -2.71934e+12 -2.01654e+12 -2.80022e+12 -2.46755e+12 -2.04209e+12 -1.40607e+12 -2.00826e+12 -1.51964e+12 -1.81224e+12 -1.42892e+12 -1.09363e+12 -1.68285e+12 -1.30033e+12 -1.1267e+12 -1.46501e+12 -961747000000.0 -1.48985e+12 -767152000000.0 -821683000000.0 -371025000000.0 -253466000000.0 -301081000000.0 -182414000000.0 -204113000000.0 -124901000000.0 -48124500000.0 -101834000000.0 -126619000000.0 -56447400000.0 -50240800000.0 -12624900000.0 -68300800000.0 -59828400000.0 -50605600000.0 -41709700000.0 -65912300000.0 -96232400000.0 -36405200000.0 -56773300000.0 -39103100000.0 -302136000000.0 -75498000000.0 -77661200000.0 -106536000000.0 -294500000000.0 -27315300000.0 -215394000000.0 -214504000000.0 -428382000000.0 -301133000000.0 -229758000000.0 -210745000000.0 -640535000000.0 -371160000000.0 -797494000000.0 -535099000000.0 -325425000000.0 -1.02165e+12 -1.45727e+12 -441711000000.0 -892312000000.0 -1.69364e+12 -1.07753e+12 -1.75165e+12 -3.06763e+12 -1.61767e+12 -1.69075e+12 -2.46306e+12 -4.00549e+12 -2.99999e+12 -2.30115e+12 -3.33487e+12 -1.66764e+12 -1.51987e+12 -4.30386e+12 -3.30562e+12 -2.84693e+12 -3.8797e+12 -2.54136e+12 -4.73658e+12 -5.31438e+12 -4.03536e+12 -4.22497e+12 -4.44578e+12 -3.83726e+12 -3.52148e+12 -2.65791e+12 -4.77253e+12 -2.30971e+12 -3.23194e+12 -4.8223e+12 -2.43758e+12 -5.07876e+12 -4.14126e+12 -6.98875e+12 -4.268e+12 -3.91229e+12 -4.22819e+12 -2.99403e+12 -1.83122e+12 -2.98034e+12 -4.08316e+12 -3.33594e+12 -3.60808e+12 -4.17167e+12 -2.52566e+12 -1.97291e+12 -4.76153e+12 -7.40357e+12 -4.63732e+12 -4.18718e+12 -1.14526e+12 -5.41263e+12 -1.74325e+12 -2.34091e+12 -1.4123e+12 -1.83679e+12 -1.24159e+12 -2.82328e+12 -2.83814e+12 -1.5638e+12 -2.12525e+12 -2.59849e+12 -3.46004e+12 -1.60996e+12 -2.29567e+12 -1.52824e+12 -1.49867e+12 -1.52202e+12 -2.57159e+12 -2.64854e+12 -2.62808e+12 -1.3449e+12 -78718000000.0 -1.82309e+12 -1.4461e+12 -1.08262e+12 -609880000000.0 -897070000000.0 -829747000000.0 -258943000000.0 -1.2296e+12 -577390000000.0 -1.03806e+12 -223684000000.0 -850592000000.0 -526086000000.0 -323867000000.0 -473487000000.0 -170420000000.0 -42670900000.0 -32792300000.0 -160669000000.0 -48450600000.0 -43817100000.0 -110544000000.0 -42355200000.0 -48431400000.0 -77562200000.0 -13335500000.0 -61951200000.0 -27188200000.0 -22041000000.0 -94274900000.0 -40874200000.0 -82111000000.0 -58889300000.0 -34660500000.0 -38336500000.0 -149026000000.0 -243315000000.0 -148549000000.0 -144018000000.0 -23221100000.0 -490506000000.0 -104182000000.0 -572611000000.0 -640555000000.0 -24309400000.0 -330325000000.0 -650094000000.0 -917556000000.0 -1.00635e+12 -477373000000.0 -1.48484e+12 -601672000000.0 -1.77472e+12 -2.34645e+12 -1.68812e+12 -2.77472e+12 -2.27032e+12 -2.15093e+12 -1.18334e+12 -2.39275e+12 -2.69098e+12 -2.58187e+12 -4.73029e+12 -3.71733e+12 -3.12194e+12 -2.66554e+12 -5.49652e+12 -4.15188e+12 -2.73057e+12 -4.15891e+12 -2.71787e+12 -4.61348e+12 -2.49701e+12 -3.26096e+12 -2.49448e+12 -2.01363e+12 -1.31137e+12 -3.26067e+12 -4.3253e+12 -4.12845e+12 -4.54247e+12 -2.6099e+12 -2.46228e+12 -1.66268e+12 -3.05926e+12 -2.24899e+12 -2.96136e+12 -3.5483e+12 -4.27183e+12 -2.75159e+12 -1.86858e+12 -5.03812e+12 -3.61548e+12 -2.97218e+12 -4.15263e+12 -3.31059e+12 -1.69283e+12 -4.08098e+12 -2.51254e+12 -3.24783e+12 -4.36197e+12 -2.75044e+12 -2.81071e+12 -1.77133e+12 -2.19773e+12 -1.11741e+12 -1.4577e+12 -1.91844e+12 -1.06332e+12 -2.80563e+12 -1.19048e+12 -1.84526e+12 -904788000000.0 -314585000000.0 -1.45566e+12 -1.18938e+12 -1.0737e+12 -804220000000.0 -344967000000.0 -671925000000.0 -231912000000.0 -304502000000.0 -278308000000.0 -325838000000.0 -544668000000.0 -271416000000.0 -381574000000.0 -171664000000.0 -177424000000.0 -60427500000.0 -99311500000.0 -99005400000.0 -145986000000.0 -15668900000.0 -57304800000.0 -64240000000.0 -52536400000.0 -54166400000.0 -36353700000.0 -37802100000.0 -128557000000.0 -83180100000.0 -97288300000.0 -122917000000.0 -134674000000.0 -131652000000.0 -184582000000.0 -342054000000.0 -384250000000.0 -378312000000.0 -796924000000.0 -561010000000.0 -464773000000.0 -835896000000.0 -826997000000.0 -695869000000.0 -555435000000.0 -633103000000.0 -1.55574e+12 -928358000000.0 -1.36936e+12 -560898000000.0 -1.18302e+12 -1.49979e+12 -1.1849e+12 -2.07355e+12 -375297000000.0 -348955000000.0 -1.7316e+12 -1.83802e+12 -2.10658e+12 -700137000000.0 -2.91343e+12 -3.26689e+12 -1.81975e+12 -3.8562e+12 -4.60525e+12 -3.36137e+12 -5.51128e+12 -2.39079e+12 -3.53074e+12 -6.09439e+12 -2.63821e+12 -3.97246e+12 -4.31794e+12 -2.14159e+12 -2.71099e+12 -3.22255e+12 -2.43491e+12 -4.14522e+12 -2.63869e+12 -2.87712e+12 -4.43264e+12 -2.16808e+12 -2.15982e+12 -4.58258e+12 -3.17224e+12 -2.76888e+12 -3.98712e+12 -2.34502e+12 -2.81258e+12 -3.99644e+12 -3.71151e+12 -8.02048e+12 -4.53984e+12 -2.45378e+12 -2.73521e+12 -3.25395e+12 -2.78199e+12 -2.98987e+12 -1.81004e+12 -1.36684e+12 -2.32658e+12 -1.74869e+12 -2.05168e+12 -1.3537e+12 -1.38312e+12 -945126000000.0 -1.44793e+12 -2.19407e+12 -2.25199e+12 -406684000000.0 -1.90231e+12 -1.11101e+12 -1.56191e+12 -721266000000.0 -497660000000.0 -691801000000.0 -482609000000.0 -769552000000.0 -437077000000.0 -385066000000.0 -25456500000.0 -195012000000.0 -73070400000.0 -204444000000.0 -176343000000.0 -49049500000.0 -75899800000.0 -129325000000.0 -14886800000.0 -107424000000.0 -74374000000.0 -12863600000.0 -26148200000.0 -17654700000.0 -39545700000.0 -12724400000.0 -60038800000.0 -52162800000.0 -49262800000.0 -39045900000.0 -175821000000.0 -20431800000.0 -111378000000.0 -31040800000.0 -158722000000.0 -346140000000.0 -171237000000.0 -158629000000.0 -177361000000.0 -335552000000.0 -498509000000.0 -30814100000.0 -255245000000.0 -470272000000.0 -75703500000.0 -44458500000.0 -846906000000.0 -881290000000.0 -167461000000.0 -1.26068e+12 -553465000000.0 -1.23947e+12 -1.02792e+12 -1.1857e+12 -538141000000.0 -1.18948e+12 -365897000000.0 -815062000000.0 -700578000000.0 -1.73495e+12 -770337000000.0 -1.9048e+12 -2.30401e+12 -893284000000.0 -1.56013e+12 -3.08687e+12 -2.84918e+12 -1.90923e+12 -1.0601e+12 -2.58686e+12 -818730000000.0 -3.849e+12 -3.9368e+12 -1.77703e+12 -2.32348e+12 -3.05468e+12 -2.88187e+12 -2.65279e+12 -3.96792e+12 -2.80671e+12 -4.1284e+12 -4.80054e+12 -4.41183e+12 -3.7772e+12 -2.10338e+12 -1.94011e+12 -1.88215e+12 -3.80878e+12 -1.72718e+12 -3.29854e+12 -901216000000.0 -2.21379e+12 -2.49874e+12 -1.03165e+12 -1.72256e+12 -3.8441e+12 -1.28333e+12 -2.9788e+12 -2.28343e+12 -5.59876e+12 -3.65896e+12 -3.87164e+12 -833163000000.0 -2.055e+12 -3.53713e+12 -2.45771e+12 -836651000000.0 -1.48233e+12 -2.24758e+12 -1.48203e+12 -956666000000.0 -1.39727e+12 -1.21777e+12 -994522000000.0 -1.84526e+12 -2.39368e+12 -625427000000.0 -698315000000.0 -1.14501e+12 -1.64876e+12 -797837000000.0 -468462000000.0 -750081000000.0 -861257000000.0 -190046000000.0 -300184000000.0 -965667000000.0 -510080000000.0 -458241000000.0 -133602000000.0 -198169000000.0 -178489000000.0 -383920000000.0 -247300000000.0 -252572000000.0 -198204000000.0 -133830000000.0 -125888000000.0 -92320000000.0 -145167000000.0 -27281600000.0 -37149600000.0 -90233200000.0 -21779900000.0 -85447800000.0 -45033000000.0 -31978100000.0 -35502200000.0 -61922300000.0 -83503600000.0 -107873000000.0 -97391000000.0 -146387000000.0 -158358000000.0 -20614300000.0 -108881000000.0 -176564000000.0 -111141000000.0 -132050000000.0 -359609000000.0 -468149000000.0 -216677000000.0 -266271000000.0 -306555000000.0 -69105700000.0 -868738000000.0 -248118000000.0 -644571000000.0 -604180000000.0 -855246000000.0 -727376000000.0 -931831000000.0 -382134000000.0 -652615000000.0 -639286000000.0 -188295000000.0 -676483000000.0 -1.80648e+12 -1.88361e+12 -2.87028e+12 -1.10962e+12 -2.20337e+12 -1.82457e+12 -2.78653e+12 -1.57071e+12 -2.15231e+12 -2.03127e+12 -1.5954e+12 -2.70318e+12 -2.73545e+12 -2.19523e+12 -2.39864e+12 -4.17673e+12 -3.59907e+12 -4.46124e+12 -3.04942e+12 -2.06019e+12 -1.94714e+12 -3.07767e+12 -1.20791e+12 -1.44883e+12 -1.55413e+12 -1.52683e+12 -1.98831e+12 -2.00056e+12 -2.12146e+12 -1.67959e+12 -2.1665e+12 -1.05279e+12 -950091000000.0 -1.90917e+12 -1.72967e+12 -2.31937e+12 -1.41824e+12 -3.05927e+12 -1.68496e+12 -3.17016e+12 -2.50704e+12 -1.47198e+12 -2.24316e+12 -2.21671e+12 -895121000000.0 -753544000000.0 -649241000000.0 -535425000000.0 -2.76643e+12 -1.3049e+12 -1.85926e+12 -1.61277e+12 -1.02088e+12 -1.12272e+12 -1.29002e+12 -892533000000.0 -763402000000.0 -236676000000.0 -572388000000.0 -463003000000.0 -317984000000.0 -376685000000.0 -750782000000.0 -298481000000.0 -347797000000.0 -501762000000.0 -525856000000.0 -337048000000.0 -204902000000.0 -426924000000.0 -114842000000.0 -12549700000.0 -109717000000.0 -289082000000.0 -184847000000.0 -84282400000.0 -81261000000.0 -104774000000.0 -23379800000.0 -48803400000.0 -81440200000.0 -62926600000.0 -22682800000.0 -13078500000.0 -107694000000.0 -15765500000.0 -60206300000.0 -78309400000.0 -97894200000.0 -102522000000.0 -118066000000.0 -135952000000.0 -159816000000.0 -162822000000.0 -227002000000.0 -54464600000.0 -422030000000.0 -261724000000.0 -98879900000.0 -460177000000.0 -595064000000.0 -18079800000.0 -343942000000.0 -432120000000.0 -691387000000.0 -80545000000.0 -634562000000.0 -235814000000.0 -307143000000.0 -382039000000.0 -965081000000.0 -740844000000.0 -679603000000.0 -566941000000.0 -997194000000.0 -1.00046e+12 -1.2297e+12 -2.41209e+12 -2.02341e+12 -2.6196e+12 -2.87421e+12 -1.88545e+12 -1.54415e+12 -1.87014e+12 -2.80324e+12 -2.08191e+12 -1.45615e+12 -802015000000.0 -1.55948e+12 -2.81222e+12 -1.37715e+12 -1.26982e+12 -2.55499e+12 -3.76706e+12 -4.40966e+12 -1.9206e+12 -2.08165e+12 -3.33256e+12 -577644000000.0 -1.14289e+12 -1.1546e+12 -1.16026e+12 -3.062e+12 -1.96341e+12 -2.81062e+12 -1.09216e+12 -2.95802e+12 -1.61702e+12 -1.71392e+12 -2.59464e+12 -1.27311e+12 -1.40401e+12 -1.0239e+12 -2.3957e+12 -911105000000.0 -2.80067e+12 -1.88463e+12 -1.38264e+12 -2.05635e+12 -1.31139e+12 -99326700000.0 -604835000000.0 -941396000000.0 -525940000000.0 -327527000000.0 -158066000000.0 -433541000000.0 -592903000000.0 -272032000000.0 -115331000000.0 -230480000000.0 -379482000000.0 -644501000000.0 -63378400000.0 -193837000000.0 -234342000000.0 -257899000000.0 -141079000000.0 -158680000000.0 -245324000000.0 -13749700000.0 -121276000000.0 -99476700000.0 -37974900000.0 -46453700000.0 -91849800000.0 -55040200000.0 -47661400000.0 -50286200000.0 -84316300000.0 -55785100000.0 -103363000000.0 -22341900000.0 -32978600000.0 -40716600000.0 -135728000000.0 -213695000000.0 -63180900000.0 -61595400000.0 -163101000000.0 -75267400000.0 -219782000000.0 -41521200000.0 -96011500000.0 -38107900000.0 -259450000000.0 -157268000000.0 -117001000000.0 -301829000000.0 -527792000000.0 -32079000000.0 -70721500000.0 -689222000000.0 -801093000000.0 -730875000000.0 -714655000000.0 -655419000000.0 -785928000000.0 -306903000000.0 -308576000000.0 -1.03863e+12 -657000000000.0 -807335000000.0 -767246000000.0 -2.38597e+12 -874498000000.0 -2.1784e+12 -909834000000.0 -1.20788e+12 -1.25419e+12 -1.10999e+12 -1.27395e+12 -1.66926e+12 -1.47254e+12 -715429000000.0 -2.32682e+12 -1.88577e+12 -985531000000.0 -1.89694e+12 -2.65642e+12 -1.32153e+12 -1.50028e+12 -1.56758e+12 -839936000000.0 -1.43889e+12 -1.94455e+12 -2.64474e+12 -1.47198e+12 -2.57086e+12 -2.57318e+12 -1.72795e+12 -2.25919e+12 -2.4148e+12 -1.51075e+12 -2.0821e+12 -2.18392e+12 -1.72775e+12 -2.89515e+12 -1.0572e+12 -1.81367e+12 -1.17233e+12 -1.22472e+12 -1.09635e+12 -931747000000.0 -1.8472e+12 -1.10858e+12 -1.10323e+12 -596222000000.0 -801210000000.0 -821413000000.0 -1.04205e+12 -2.44617e+12 -1.11161e+12 -1.56845e+12 -610280000000.0 -699010000000.0 -1.03451e+12 -373295000000.0 -354091000000.0 -147574000000.0 -317860000000.0 -413022000000.0 -552884000000.0 -168953000000.0 -265913000000.0 -98043100000.0 -205012000000.0 -106837000000.0 -83562500000.0 -72516500000.0 -125337000000.0 -63094400000.0 -72164600000.0 -89642500000.0 -51029300000.0 -39512900000.0 -76649100000.0 -12549700000.0 -60803400000.0 -55686300000.0 -28139100000.0 -109371000000.0 -18977100000.0 -119388000000.0 -33592700000.0 -16303500000.0 -133840000000.0 -19422100000.0 -191335000000.0 -88976300000.0 -134886000000.0 -196907000000.0 -172479000000.0 -50603600000.0 -274328000000.0 -353486000000.0 -612365000000.0 -320025000000.0 -295445000000.0 -649188000000.0 -512109000000.0 -668273000000.0 -876465000000.0 -755670000000.0 -260352000000.0 -972251000000.0 -1.11445e+12 -569768000000.0 -539446000000.0 -1.1918e+12 -1.45728e+12 -31858600000.0 -712535000000.0 -1.3862e+12 -1.0864e+12 -1.0957e+12 -1.68715e+12 -33289600000.0 -1.06464e+12 -794043000000.0 -3.04304e+12 -2.14656e+12 -1.21824e+12 -970389000000.0 -1.08936e+12 -1.14486e+12 -3.49663e+12 -1.26498e+12 -620370000000.0 -1.67209e+12 -1.54577e+12 -1.26842e+12 -1.81686e+12 -1.07197e+12 -818121000000.0 -1.79288e+12 -546566000000.0 -1.97501e+12 -949744000000.0 -1.46634e+12 -1.78217e+12 -436345000000.0 -1.24787e+12 -1.29509e+12 -1.49848e+12 -1.35052e+12 -1.85995e+12 -699396000000.0 -524889000000.0 -1.14592e+12 -1.01772e+12 -961448000000.0 -319814000000.0 -691833000000.0 -1.37325e+12 -1.29479e+12 -655143000000.0 -822105000000.0 -906225000000.0 -497383000000.0 -360458000000.0 -352893000000.0 -280345000000.0 -583890000000.0 -242974000000.0 -423681000000.0 -191667000000.0 -293236000000.0 -218734000000.0 -212114000000.0 -114248000000.0 -204082000000.0 -70377800000.0 -14076500000.0 -112277000000.0 -13742100000.0 -99305900000.0 -35745900000.0 -86778400000.0 -44341400000.0 -46385300000.0 -48238200000.0 -47149500000.0 -13826700000.0 -37670900000.0 -83199600000.0 -67863500000.0 -35175400000.0 -76023200000.0 -104142000000.0 -18906700000.0 -21892300000.0 -25470500000.0 -136698000000.0 -24123200000.0 -174483000000.0 -83821000000.0 -161052000000.0 -68828200000.0 -143723000000.0 -13430000000.0 -81799000000.0 -114422000000.0 -12549700000.0 -169234000000.0 -272152000000.0 -49497900000.0 -79105300000.0 -484401000000.0 -723042000000.0 -318803000000.0 -661953000000.0 -892759000000.0 -327358000000.0 -939785000000.0 -1.19069e+12 -550669000000.0 -1.37517e+12 -1.05445e+12 -666912000000.0 -728665000000.0 -1.42977e+12 -1.70312e+12 -734808000000.0 -1.70714e+12 -1.86888e+12 -1.34454e+12 -1.63339e+12 -992501000000.0 -1.54876e+12 -1.25064e+12 -1.08567e+12 -2.28628e+12 -2.25122e+12 -1.95172e+12 -835966000000.0 -2.21086e+12 -1.24572e+12 -966077000000.0 -1.39871e+12 -317718000000.0 -1.32794e+12 -1.43875e+12 -578897000000.0 -1.55949e+12 -942410000000.0 -1.35762e+12 -1.66999e+12 -866188000000.0 -982371000000.0 -1.30107e+12 -781124000000.0 -1.05059e+12 -551521000000.0 -664948000000.0 -1.56948e+12 -1.2234e+12 -599761000000.0 -213586000000.0 -878836000000.0 -666804000000.0 -610485000000.0 -1.47128e+12 -1.05644e+12 -252696000000.0 -287313000000.0 -354942000000.0 -684111000000.0 -543866000000.0 -413432000000.0 -340010000000.0 -590854000000.0 -61319600000.0 -47307500000.0 -392920000000.0 -220613000000.0 -56531800000.0 -133334000000.0 -178001000000.0 -129883000000.0 -78979600000.0 -105835000000.0 -61257100000.0 -45775400000.0 -35930600000.0 -149453000000.0 -92265500000.0 -76193900000.0 -79940800000.0 -62809400000.0 -63264100000.0 -72077400000.0 -77618500000.0 -88568700000.0 -121759000000.0 -108753000000.0 -21900700000.0 -71339400000.0 -61496300000.0 -53281700000.0 -68985700000.0 -96102600000.0 -53801700000.0 -48922500000.0 -189554000000.0 -161678000000.0 -132360000000.0 -115042000000.0 -182158000000.0 -172162000000.0 -12549700000.0 -161687000000.0 -149536000000.0 -179565000000.0 -284126000000.0 -211981000000.0 -550542000000.0 -372745000000.0 -33499600000.0 -517878000000.0 -467751000000.0 -560888000000.0 -614442000000.0 -717378000000.0 -1.11686e+12 -1.53742e+12 -302337000000.0 -1.1296e+12 -154354000000.0 -397458000000.0 -628691000000.0 -760535000000.0 -1.51902e+12 -1.33765e+12 -849483000000.0 -1.2582e+12 -995736000000.0 -479132000000.0 -720506000000.0 -1.05705e+12 -2.43345e+12 -2.4467e+12 -2.74279e+12 -1.14378e+12 -1.73109e+12 -2.66302e+12 -1.86919e+12 -1.32585e+12 -476373000000.0 -483173000000.0 -345765000000.0 -679082000000.0 -663217000000.0 -893980000000.0 -1.95675e+12 -1.21066e+12 -763592000000.0 -702531000000.0 -611584000000.0 -615374000000.0 -115511000000.0 -1.25412e+12 -493023000000.0 -328381000000.0 -677739000000.0 -45896600000.0 -518181000000.0 -750041000000.0 -435128000000.0 -484061000000.0 -487658000000.0 -360211000000.0 -314769000000.0 -274782000000.0 -206276000000.0 -348875000000.0 -424001000000.0 -494936000000.0 -228723000000.0 -278526000000.0 -212489000000.0 -30666300000.0 -104670000000.0 -117664000000.0 -23842200000.0 -99022200000.0 -71010000000.0 -123704000000.0 -42465600000.0 -64439200000.0 -94797500000.0 -65662800000.0 -81731800000.0 -12549700000.0 -86547600000.0 -61933600000.0 -45313200000.0 -48737100000.0 -15907700000.0 -80571300000.0 -95605400000.0 -19786100000.0 -83254600000.0 -35072200000.0 -120713000000.0 -139266000000.0 -76444300000.0 -131710000000.0 -185642000000.0 -218324000000.0 -238910000000.0 -314385000000.0 -210753000000.0 -268346000000.0 -224697000000.0 -307205000000.0 -217047000000.0 -407385000000.0 -356910000000.0 -222257000000.0 -698995000000.0 -626195000000.0 -637647000000.0 -266873000000.0 -984275000000.0 -515215000000.0 -837142000000.0 -533388000000.0 -209060000000.0 -721230000000.0 -1.25222e+12 -795982000000.0 -1.70546e+12 -870867000000.0 -762312000000.0 -1.51116e+12 -879754000000.0 -1.43406e+12 -983895000000.0 -2.45027e+12 -655447000000.0 -443581000000.0 -684530000000.0 -636186000000.0 -553821000000.0 -1.47198e+12 -1.19768e+12 -1.5569e+12 -775709000000.0 -615768000000.0 -969971000000.0 -1.31959e+12 -420424000000.0 -722925000000.0 -493417000000.0 -740978000000.0 -230897000000.0 -446187000000.0 -769970000000.0 -451757000000.0 -380115000000.0 -15746900000.0 -371644000000.0 -618755000000.0 -241295000000.0 -259810000000.0 -150586000000.0 -359536000000.0 -255642000000.0 -196535000000.0 -116367000000.0 -224041000000.0 -214817000000.0 -57668500000.0 -198270000000.0 -75992000000.0 -57929100000.0 -24065400000.0 -249044000000.0 -307813000000.0 -192215000000.0 -47960100000.0 -66221700000.0 -76782500000.0 -12549700000.0 -125728000000.0 -13480100000.0 -23512900000.0 -23966000000.0 -87276400000.0 -48550200000.0 -60286200000.0 -55444000000.0 -54096000000.0 -66782800000.0 -63171500000.0 -76329900000.0 -53750200000.0 -29994800000.0 -53352200000.0 -107752000000.0 -104884000000.0 -19015800000.0 -98654200000.0 -111489000000.0 -66535000000.0 -34942800000.0 -36614300000.0 -72071000000.0 -205157000000.0 -14888700000.0 -123695000000.0 -37063200000.0 -324019000000.0 -21960700000.0 -100708000000.0 -195660000000.0 -226965000000.0 -152145000000.0 -171864000000.0 -367433000000.0 -255045000000.0 -564903000000.0 -411126000000.0 -341464000000.0 -737556000000.0 -280080000000.0 -322902000000.0 -689870000000.0 -1.03274e+12 -1.30382e+12 -332071000000.0 -643638000000.0 -336328000000.0 -112001000000.0 -1.43548e+12 -1.05228e+12 -687061000000.0 -508106000000.0 -580511000000.0 -1.92982e+12 -208197000000.0 -895206000000.0 -1.94509e+12 -348249000000.0 -870614000000.0 -1.71892e+12 -694450000000.0 -1.17264e+12 -587315000000.0 -298906000000.0 -139262000000.0 -570974000000.0 -957031000000.0 -535714000000.0 -428915000000.0 -910766000000.0 -331351000000.0 -694708000000.0 -165001000000.0 -568544000000.0 -435900000000.0 -450486000000.0 -659606000000.0 -352814000000.0 -310575000000.0 -624101000000.0 -13552400000.0 -543477000000.0 -372745000000.0 -474099000000.0 -214322000000.0 -236151000000.0 -110305000000.0 -118629000000.0 -175556000000.0 -226989000000.0 -342917000000.0 -87705500000.0 -193864000000.0 -89885600000.0 -74740200000.0 -138676000000.0 -145338000000.0 -120373000000.0 -51921800000.0 -84733600000.0 -34547000000.0 -135757000000.0 -62102500000.0 -188262000000.0 -38644100000.0 -233020000000.0 -166605000000.0 -149812000000.0 -69898900000.0 -53378400000.0 -40453300000.0 -101361000000.0 -44132400000.0 -58395000000.0 -36417500000.0 -43265500000.0 -55373600000.0 -69172900000.0 -40424100000.0 -77898400000.0 -81535400000.0 -69166100000.0 -58079000000.0 -43536500000.0 -179264000000.0 -88110700000.0 -37607500000.0 -83284100000.0 -113930000000.0 -127034000000.0 -199476000000.0 -176782000000.0 -214094000000.0 -182491000000.0 -119732000000.0 -301444000000.0 -493012000000.0 -197646000000.0 -298253000000.0 -100553000000.0 -287251000000.0 -65369900000.0 -244250000000.0 -522785000000.0 -357046000000.0 -362942000000.0 -615478000000.0 -858213000000.0 -267695000000.0 -228870000000.0 -679627000000.0 -812643000000.0 -524779000000.0 -689439000000.0 -1.40625e+12 -591425000000.0 -1.07847e+12 -1.18177e+12 -996353000000.0 -1.03208e+12 -973538000000.0 -383774000000.0 -726683000000.0 -643643000000.0 -427010000000.0 -98451100000.0 -813233000000.0 -498127000000.0 -558986000000.0 -439350000000.0 -399798000000.0 -200392000000.0 -479306000000.0 -270384000000.0 -227348000000.0 -262696000000.0 -240490000000.0 -497981000000.0 -661192000000.0 -321400000000.0 -555641000000.0 -55774100000.0 -56796400000.0 -106032000000.0 -232055000000.0 -184367000000.0 -59110700000.0 -146466000000.0 -12549700000.0 -53516000000.0 -101426000000.0 -76712700000.0 -77840600000.0 -40911500000.0 -47511700000.0 -71864800000.0 -74364000000.0 -42920800000.0 -33338400000.0 -114058000000.0 -51636700000.0 -94517500000.0 -83671400000.0 -61581200000.0 -116780000000.0 -54020600000.0 -57107600000.0 -33821300000.0 -86070600000.0 -85747500000.0 -67344800000.0 -37789500000.0 -157312000000.0 -85916800000.0 -107735000000.0 -98733500000.0 -35279400000.0 -13165600000.0 -131380000000.0 -35256000000.0 -13095200000.0 -105159000000.0 -28297400000.0 -17349500000.0 -21651800000.0 -107071000000.0 -48092200000.0 -101280000000.0 -53922400000.0 -12549700000.0 -143013000000.0 -72651500000.0 -52161800000.0 -122095000000.0 -199375000000.0 -381616000000.0 -139117000000.0 -211463000000.0 -191321000000.0 -287781000000.0 -185964000000.0 -27531300000.0 -208685000000.0 -210695000000.0 -170638000000.0 -193436000000.0 -356994000000.0 -428034000000.0 -724640000000.0 -843609000000.0 -550535000000.0 -357807000000.0 -257808000000.0 -636065000000.0 -557917000000.0 -731715000000.0 -538059000000.0 -880596000000.0 -719197000000.0 -365602000000.0 -1.27039e+12 -459852000000.0 -508537000000.0 -465114000000.0 -756969000000.0 -61951000000.0 -547942000000.0 -518354000000.0 -385166000000.0 -280831000000.0 -218112000000.0 -493994000000.0 -643469000000.0 -160186000000.0 -131120000000.0 -368409000000.0 -71436200000.0 -12549700000.0 -189128000000.0 -164266000000.0 -254887000000.0 -99581200000.0 -595374000000.0 -550107000000.0 -207348000000.0 -374018000000.0 -255112000000.0 -50826300000.0 -55645100000.0 -203279000000.0 -288160000000.0 -81649400000.0 -63162600000.0 -12549700000.0 -100831000000.0 -70001300000.0 -55871600000.0 -78726000000.0 -120262000000.0 -55491100000.0 -22198900000.0 -25013600000.0 -28341000000.0 -31596900000.0 -52533100000.0 -71081500000.0 -35671100000.0 -13664400000.0 -42293300000.0 -138442000000.0 -76078900000.0 -125309000000.0 -68326900000.0 -38196300000.0 -74985900000.0 -31820600000.0 -15550300000.0 -53748900000.0 -57452700000.0 -88262600000.0 -12549700000.0 -62207100000.0 -106042000000.0 -15300300000.0 -55603700000.0 -53935400000.0 -38339800000.0 -58881000000.0 -12607900000.0 -56065900000.0 -126064000000.0 -24819700000.0 -48140200000.0 -87395800000.0 -64813000000.0 -36451300000.0 -103276000000.0 -103522000000.0 -95720400000.0 -86778900000.0 -57290900000.0 -168409000000.0 -37940000000.0 -12549700000.0 -94777500000.0 -80635700000.0 -277380000000.0 -263325000000.0 -217179000000.0 -148652000000.0 -175068000000.0 -251895000000.0 -212358000000.0 -275259000000.0 -231233000000.0 -200638000000.0 -247115000000.0 -349121000000.0 -174031000000.0 -319575000000.0 -324513000000.0 -450428000000.0 -264789000000.0 -618613000000.0 -72351600000.0 -748114000000.0 -307769000000.0 -457616000000.0 -643389000000.0 -350864000000.0 -853178000000.0 -503730000000.0 -428399000000.0 -556625000000.0 -491885000000.0 -285707000000.0 -110901000000.0 -258977000000.0 -278083000000.0 -401520000000.0 -251143000000.0 -278880000000.0 -41911300000.0 -50318300000.0 -25606900000.0 -351629000000.0 -143627000000.0 -106369000000.0 -371523000000.0 -146070000000.0 -72919800000.0 -318416000000.0 -27451900000.0 -26837300000.0 -276341000000.0 -49714900000.0 -200926000000.0 -104431000000.0 -55628200000.0 -12549700000.0 -55957600000.0 -57824800000.0 -110964000000.0 -106372000000.0 -22572400000.0 -108106000000.0 -117310000000.0 -88652200000.0 -46544900000.0 -42586400000.0 -24181400000.0 -68839800000.0 -47279900000.0 -35621500000.0 -19781900000.0 -27545400000.0 -106265000000.0 -13035300000.0 -23689100000.0 -106440000000.0 -76580700000.0 -111316000000.0 -91746000000.0 -72444300000.0 -35441500000.0 -72268800000.0 -46167500000.0 -44688700000.0 -54422000000.0 -67874500000.0 -51588000000.0 -101077000000.0 -80311800000.0 -61455300000.0 -49221600000.0 -75249400000.0 -36784300000.0 -19487800000.0 -33069600000.0 -102715000000.0 -144035000000.0 -13381700000.0 -65196700000.0 -80458500000.0 -139469000000.0 -145903000000.0 -12549600000.0 -90824100000.0 -149473000000.0 -86333800000.0 -244119000000.0 -16720200000.0 -181972000000.0 -40536700000.0 -113477000000.0 -111245000000.0 -130355000000.0 -23605300000.0 -152719000000.0 -176562000000.0 -69422800000.0 -251806000000.0 -311538000000.0 -223089000000.0 -236490000000.0 -83607600000.0 -289597000000.0 -359753000000.0 -242772000000.0 -385749000000.0 -218891000000.0 -555399000000.0 -575519000000.0 -531385000000.0 -520218000000.0 -168912000000.0 -565500000000.0 -524376000000.0 -155464000000.0 -510880000000.0 -394242000000.0 -611591000000.0 -386577000000.0 -402616000000.0 -825416000000.0 -192776000000.0 -49456800000.0 -152801000000.0 -42736200000.0 -27461500000.0 -497000000000.0 -368429000000.0 -274835000000.0 -178907000000.0 -53209000000.0 -65794800000.0 -169066000000.0 -66504800000.0 -74530500000.0 -159135000000.0 -142027000000.0 -148679000000.0 -263352000000.0 -226442000000.0 -471712000000.0 -230240000000.0 -277801000000.0 -96123500000.0 -146682000000.0 -165876000000.0 -110257000000.0 -90758600000.0 -27477000000.0 -83731700000.0 -33430300000.0 -127637000000.0 -34137500000.0 -58003800000.0 -32110700000.0 -62976000000.0 -12549700000.0 -41325000000.0 -47984800000.0 -28293700000.0 -63807100000.0 -26852700000.0 -23356500000.0 -86794700000.0 -55315400000.0 -47555300000.0 -83492700000.0 -27809100000.0 -57478500000.0 -46609500000.0 -36261500000.0 -63510700000.0 -40824200000.0 -57071000000.0 -54785000000.0 -40375700000.0 -37080500000.0 -75782500000.0 -13566800000.0 -100846000000.0 -82936200000.0 -71485500000.0 -130601000000.0 -127328000000.0 -90277800000.0 -58537500000.0 -21744000000.0 -63663500000.0 -39118500000.0 -92734800000.0 -66039900000.0 -85150500000.0 -136704000000.0 -104936000000.0 -110881000000.0 -153251000000.0 -14305100000.0 -15523100000.0 -232702000000.0 -26653100000.0 -258899000000.0 -347906000000.0 -354199000000.0 -55465500000.0 -96135200000.0 -267198000000.0 -65919800000.0 -331263000000.0 -66519800000.0 -273765000000.0 -213918000000.0 -12549700000.0 -347319000000.0 -198981000000.0 -17108200000.0 -173522000000.0 -483236000000.0 -389085000000.0 -212505000000.0 -456082000000.0 -159486000000.0 -12549700000.0 -571433000000.0 -697569000000.0 -166327000000.0 -444142000000.0 -363974000000.0 -315136000000.0 -135473000000.0 -33771000000.0 -80733700000.0 -401213000000.0 -125954000000.0 -227874000000.0 -64785100000.0 -93517900000.0 -45000000000.0 -106145000000.0 -174977000000.0 -49305700000.0 -163922000000.0 -45394300000.0 -124422000000.0 -73374000000.0 -15596300000.0 -15609800000.0 -23236600000.0 -41496200000.0 -287148000000.0 -106894000000.0 -142480000000.0 -18675700000.0 -75008000000.0 -12549700000.0 -13517300000.0 -93350300000.0 -75714600000.0 -19319300000.0 -69982100000.0 -46667800000.0 -20045000000.0 -12597300000.0 -44561100000.0 -46450200000.0 -72638900000.0 -77170700000.0 -46967100000.0 -54118400000.0 -53730300000.0 -30653500000.0 -28284800000.0 -48180600000.0 -59456600000.0 -48017800000.0 -33817700000.0 -68144300000.0 -57364700000.0 -62971100000.0 -32712900000.0 -64856200000.0 -64143000000.0 -17072600000.0 -40898300000.0 -110055000000.0 -64073000000.0 -56872100000.0 -15874900000.0 -56245000000.0 -32751600000.0 -52540200000.0 -39679100000.0 -101353000000.0 -49412300000.0 -29011900000.0 -74030700000.0 -86330600000.0 -147398000000.0 -29027900000.0 -41449300000.0 -244907000000.0 -161286000000.0 -93998700000.0 -250639000000.0 -243045000000.0 -175910000000.0 -187482000000.0 -212268000000.0 -158846000000.0 -162009000000.0 -209956000000.0 -171023000000.0 -211275000000.0 -202726000000.0 -408732000000.0 -112959000000.0 -206712000000.0 -379807000000.0 -388715000000.0 -401058000000.0 -419199000000.0 -214820000000.0 -350704000000.0 -387681000000.0 -399923000000.0 -151170000000.0 -215182000000.0 -330699000000.0 -189867000000.0 -106732000000.0 -146927000000.0 -34183600000.0 -52036800000.0 -35427400000.0 -33273700000.0 -82652700000.0 -15711300000.0 -71332300000.0 -17680000000.0 -20799500000.0 -93772200000.0 -206446000000.0 -122967000000.0 -149591000000.0 -50970300000.0 -70182800000.0 -47253100000.0 -37214100000.0 -53809800000.0 -35695000000.0 -58837700000.0 -17646500000.0 -75778900000.0 -49204800000.0 -67887600000.0 -37915800000.0 -52363900000.0 -54359700000.0 -57761600000.0 -23351400000.0 -24874700000.0 -45514900000.0 -59648900000.0 -12549700000.0 -49915400000.0 -57539500000.0 -12549700000.0 -41243700000.0 -55577400000.0 -64615400000.0 -29456200000.0 -74964600000.0 -82727900000.0 -42374000000.0 -45532400000.0 -14513100000.0 -37880000000.0 -80420100000.0 -12664900000.0 -81340900000.0 -85925700000.0 -37023600000.0 -64467600000.0 -37160400000.0 -12549700000.0 -30342200000.0 -53886100000.0 -72073300000.0 -47789000000.0 -37417400000.0 -83866600000.0 -67188800000.0 -76832500000.0 -75261400000.0 -34572000000.0 -97862900000.0 -40370500000.0 -76878100000.0 -93264500000.0 -133270000000.0 -77605700000.0 -134832000000.0 -67045600000.0 -117079000000.0 -12549700000.0 -147349000000.0 -134486000000.0 -176475000000.0 -91045700000.0 -201478000000.0 -114915000000.0 -149935000000.0 -203020000000.0 -37064700000.0 -164798000000.0 -12549700000.0 -403658000000.0 -502067000000.0 -389479000000.0 -278453000000.0 -444853000000.0 -400328000000.0 -122828000000.0 -210383000000.0 -445742000000.0 -293700000000.0 -818277000000.0 -471947000000.0 -29883100000.0 -63007500000.0 -92271200000.0 -109120000000.0 -142974000000.0 -128597000000.0 -48784300000.0 -64328000000.0 -50212000000.0 -12697800000.0 -77966200000.0 -26560900000.0 -71261300000.0 -61251400000.0 -75265500000.0 -44876900000.0 -82942400000.0 -94555100000.0 -147599000000.0 -58532800000.0 -118438000000.0 -109585000000.0 -104025000000.0 -29158300000.0 -29651600000.0 -27801700000.0 -29150500000.0 -21940700000.0 -89998800000.0 -29309600000.0 -66399900000.0 -39430800000.0 -42781600000.0 -29818300000.0 -80269200000.0 -21048200000.0 -20438500000.0 -34827500000.0 -20923800000.0 -78934600000.0 -42310700000.0 -76205900000.0 -23355600000.0 -45135000000.0 -19321000000.0 -69370800000.0 -62566600000.0 -56232500000.0 -76341000000.0 -84626700000.0 -81194000000.0 -23162400000.0 -23862100000.0 -71324200000.0 -37748400000.0 -68327800000.0 -59696600000.0 -77459900000.0 -73699800000.0 -14246800000.0 -59044000000.0 -41346300000.0 -139614000000.0 -116751000000.0 -108677000000.0 -46963800000.0 -117800000000.0 -117435000000.0 -137443000000.0 -12549700000.0 -93058300000.0 -53754200000.0 -76865200000.0 -20619600000.0 -121217000000.0 -80241900000.0 -69087900000.0 -212525000000.0 -97873600000.0 -165102000000.0 -18143900000.0 -193395000000.0 -318213000000.0 -420971000000.0 -23878900000.0 -137197000000.0 -163346000000.0 -221142000000.0 -92901000000.0 -80820800000.0 -30009600000.0 -183053000000.0 -578789000000.0 -373640000000.0 -299678000000.0 -13987700000.0 -26763400000.0 -88214900000.0 -60372600000.0 -58324600000.0 -179658000000.0 -103380000000.0 -156154000000.0 -80859500000.0 -87071200000.0 -93209500000.0 -98588700000.0 -19893200000.0 -65691500000.0 -102274000000.0 -35842500000.0 -59608000000.0 -16472100000.0 -48062100000.0 -15697200000.0 -112202000000.0 -49258600000.0 -109795000000.0 -76618100000.0 -18757200000.0 -40105200000.0 -20250900000.0 -18553900000.0 -13485200000.0 -15600800000.0 -29190500000.0 -27255500000.0 -77061500000.0 -29550900000.0 -47178900000.0 -27151900000.0 -48030600000.0 -49131400000.0 -41464100000.0 -37096800000.0 -17266600000.0 -38402200000.0 -15570200000.0 -22347800000.0 -28155000000.0 -26624800000.0 -13130400000.0 -58362300000.0 -44866100000.0 -33427700000.0 -26995500000.0 -26755700000.0 -43874800000.0 -53596800000.0 -30384200000.0 -51769900000.0 -57862900000.0 -40225000000.0 -32869100000.0 -39478000000.0 -53130200000.0 -65125500000.0 -40826900000.0 -42822300000.0 -68070100000.0 -81787700000.0 -103735000000.0 -80730400000.0 -84468300000.0 -67488000000.0 -131904000000.0 -14980700000.0 -87617700000.0 -26207500000.0 -64792700000.0 -127657000000.0 -47742500000.0 -191452000000.0 -122968000000.0 -107740000000.0 -130988000000.0 -126944000000.0 -158459000000.0 -65691600000.0 -114599000000.0 -150441000000.0 -214483000000.0 -126363000000.0 -13377700000.0 -62206600000.0 -12633100000.0 -102923000000.0 -136565000000.0 -192164000000.0 -55194800000.0 -70365500000.0 -204299000000.0 -151754000000.0 -130879000000.0 -101553000000.0 -71802400000.0 -101516000000.0 -86524000000.0 -113813000000.0 -35188300000.0 -137742000000.0 -196064000000.0 -192177000000.0 -651318000000.0 -232044000000.0 -25564000000.0 -168397000000.0 -120986000000.0 -141573000000.0 -14001800000.0 -80641700000.0 -18213700000.0 -22131900000.0 -32533300000.0 -45383100000.0 -26680500000.0 -23246300000.0 -14819300000.0 -62069800000.0 -59366200000.0 -45044900000.0 -44729900000.0 -52410100000.0 -53069000000.0 -23724300000.0 -69857000000.0 -75850700000.0 -73859600000.0 -60651000000.0 -59226200000.0 -44107100000.0 -28363000000.0 -32027900000.0 -29734800000.0 -41750900000.0 -52582500000.0 -38972800000.0 -42393600000.0 -34214700000.0 -39030300000.0 -12549700000.0 -13296200000.0 -47869300000.0 -20868700000.0 -20340000000.0 -19789700000.0 -49918600000.0 -61848500000.0 -54354100000.0 -33248600000.0 -20266700000.0 -63981900000.0 -58148700000.0 -63790600000.0 -18440800000.0 -29622400000.0 -41052000000.0 -13475100000.0 -42733100000.0 -12549700000.0 -26291200000.0 -35201600000.0 -50413200000.0 -76781200000.0 -21492800000.0 -42528600000.0 -14580600000.0 -117153000000.0 -55628900000.0 -62840200000.0 -38500000000.0 -83640800000.0 -107622000000.0 -18855800000.0 -95072600000.0 -25863800000.0 -36671700000.0 -25636500000.0 -100139000000.0 -39451700000.0 -62764900000.0 -187759000000.0 -61690100000.0 -59874500000.0 -79285900000.0 -95360500000.0 -105009000000.0 -62842500000.0 -49911000000.0 -145384000000.0 -60601800000.0 -45532000000.0 -174456000000.0 -29133100000.0 -232200000000.0 -80464000000.0 -97871100000.0 -85862000000.0 -82008900000.0 -124353000000.0 -126477000000.0 -55491700000.0 -156805000000.0 -356718000000.0 -126953000000.0 -108838000000.0 -82173300000.0 -12909100000.0 -20915200000.0 -57146800000.0 -12549700000.0 -37338600000.0 -12549700000.0 -30107500000.0 -35573200000.0 -30422300000.0 -21656200000.0 -32685600000.0 -35223200000.0 -36100400000.0 -13991900000.0 -42468200000.0 -17776500000.0 -69772300000.0 -39067200000.0 -33425500000.0 -89358400000.0 -12933000000.0 -91334100000.0 -53553500000.0 -15117300000.0 -42832400000.0 -24663200000.0 -54041900000.0 -49917200000.0 -62910700000.0 -55652600000.0 -20906600000.0 -67720200000.0 -20229800000.0 -50484000000.0 -52574000000.0 -32874900000.0 -62934300000.0 -59303300000.0 -12609100000.0 -26288300000.0 -63012600000.0 -34666300000.0 -49208000000.0 -32841500000.0 -58685100000.0 -32209500000.0 -44913000000.0 -49226100000.0 -33947600000.0 -13316000000.0 -50931800000.0 -91402500000.0 -19075600000.0 -42952900000.0 -44766500000.0 -22671500000.0 -69154000000.0 -22611100000.0 -82995700000.0 -55576800000.0 -26084000000.0 -17140800000.0 -43152700000.0 -95315900000.0 -26402500000.0 -45250000000.0 -62356400000.0 -43944400000.0 -43829200000.0 -14367500000.0 -87448700000.0 -73282600000.0 -27029600000.0 -70848400000.0 -146453000000.0 -69629100000.0 -99534600000.0 -93085300000.0 -80126700000.0 -70750200000.0 -53801800000.0 -139052000000.0 -141745000000.0 -55965600000.0 -228636000000.0 -110940000000.0 -114749000000.0 -107875000000.0 -41932800000.0 -99327200000.0 -84994600000.0 -92797600000.0 -91688900000.0 -311219000000.0 -94677000000.0 -56847100000.0 -78933600000.0 -12549700000.0 -147994000000.0 -22887300000.0 -15790700000.0 -40130400000.0 -50026800000.0 -47022000000.0 -12787400000.0 -19505100000.0 -32827500000.0 -20086800000.0 -25776900000.0 -25840900000.0 -17092600000.0 -21226400000.0 -44663700000.0 -12906400000.0 -40876200000.0 -24411200000.0 -58466200000.0 -30801600000.0 -104935000000.0 -18624200000.0 -26222700000.0 -26904000000.0 -13567100000.0 -74697600000.0 -39416200000.0 -58922700000.0 -15498400000.0 -38128300000.0 -49735100000.0 -22203300000.0 -12730000000.0 -78573300000.0 -53393300000.0 -26874600000.0 -35881200000.0 -41327500000.0 -12596400000.0 -16263800000.0 -13157400000.0 -64629300000.0 -14359600000.0 -17576300000.0 -53324500000.0 -44134800000.0 -35148500000.0 -41829400000.0 -16389800000.0 -50911400000.0 -25361700000.0 -50481800000.0 -39119200000.0 -101307000000.0 -13433400000.0 -22578900000.0 -24323100000.0 -20736300000.0 -24908600000.0 -75275000000.0 -59250200000.0 -40700800000.0 -68807900000.0 -50708100000.0 -70041500000.0 -46357000000.0 -57373400000.0 -24229300000.0 -70236800000.0 -30813800000.0 -30222800000.0 -24419700000.0 -54586800000.0 -40734000000.0 -35530400000.0 -83944800000.0 -31329900000.0 -12549700000.0 -29701900000.0 -66997600000.0 -26668800000.0 -43209700000.0 -37473000000.0 -36839200000.0 -51186200000.0 -51523500000.0 -24383700000.0 -130280000000.0 -123085000000.0 -28272700000.0 -108692000000.0 -73112200000.0 -71201600000.0 -80696800000.0 -41152600000.0 -113768000000.0 -50041600000.0 -177069000000.0 -13411500000.0 -306195000000.0 -88455200000.0 -59607900000.0 -45242600000.0 -26848700000.0 -26284100000.0 -13413900000.0 -101078000000.0 -80727400000.0 -88677500000.0 -36345900000.0 -17233900000.0 -48377100000.0 -49036100000.0 -44434500000.0 -26520500000.0 -28314300000.0 -31464600000.0 -16029500000.0 -19893400000.0 -30089000000.0 -37951500000.0 -49878400000.0 -49317100000.0 -35219200000.0 -35288000000.0 -39918200000.0 -60092900000.0 -65879300000.0 -16492700000.0 -56447600000.0 -64176200000.0 -92573600000.0 -25661800000.0 -39279200000.0 -53473800000.0 -37608200000.0 -14996800000.0 -47472400000.0 -34597000000.0 -14384400000.0 -12549700000.0 -12560400000.0 -12606800000.0 -37415700000.0 -29895200000.0 -46111700000.0 -34948700000.0 -21102900000.0 -35867300000.0 -43651900000.0 -23041400000.0 -23973100000.0 -30587100000.0 -28756800000.0 -20524900000.0 -30420100000.0 -21474600000.0 -20905200000.0 -74331500000.0 -46459200000.0 -13562200000.0 -13984100000.0 -79707200000.0 -71727000000.0 -23780700000.0 -34272900000.0 -52559900000.0 -26527300000.0 -12761200000.0 -70113400000.0 -16977300000.0 -40444100000.0 -60096000000.0 -49018500000.0 -49683300000.0 -35021000000.0 -56660100000.0 -46322300000.0 -27185400000.0 -71499600000.0 -12549700000.0 -23247600000.0 -30046000000.0 -21697200000.0 -32056000000.0 -42533100000.0 -12549700000.0 -21466600000.0 -50859400000.0 -72025900000.0 -12785100000.0 -47431500000.0 -38328000000.0 -114037000000.0 -95391200000.0 -34907200000.0 -48568200000.0 -68708000000.0 -77091200000.0 -26096800000.0 -72449600000.0 -71659700000.0 -50573300000.0 -163891000000.0 -46493100000.0 -146347000000.0 -196831000000.0 -46908400000.0 -60787500000.0 -28733500000.0 -28483000000.0 -45117700000.0 -60742800000.0 -38816500000.0 -12611300000.0 -42110500000.0 -18771900000.0 -29045600000.0 -37598600000.0 -30341200000.0 -52420200000.0 -57965300000.0 -35675300000.0 -22027600000.0 -35710400000.0 -35062400000.0 -13968300000.0 -54836700000.0 -73122600000.0 -16560800000.0 -21577200000.0 -52675400000.0 -34204900000.0 -31866100000.0 -33940400000.0 -41672100000.0 -36582400000.0 -49869500000.0 -34461400000.0 -33595300000.0 -32189400000.0 -12813600000.0 -24295000000.0 -35455400000.0 -37908300000.0 -26494200000.0 -47921000000.0 -35513900000.0 -28854400000.0 -23201500000.0 -18313800000.0 -24039000000.0 -19770300000.0 -31642500000.0 -26291600000.0 -37114200000.0 -34440600000.0 -46779500000.0 -38472100000.0 -47243700000.0 -60527200000.0 -48079600000.0 -59862800000.0 -23201400000.0 -58503200000.0 -36050800000.0 -50414800000.0 -48720600000.0 -25152900000.0 -12765200000.0 -42336400000.0 -60307900000.0 -43631700000.0 -61201500000.0 -44855400000.0 -36954000000.0 -39733800000.0 -41443900000.0 -62345400000.0 -31748300000.0 -25203200000.0 -32301400000.0 -24847400000.0 -48472800000.0 -27249500000.0 -27278700000.0 -15278400000.0 -37979900000.0 -37984500000.0 -13743900000.0 -50708200000.0 -12852500000.0 -59244500000.0 -45081000000.0 -43700700000.0 -72002200000.0 -79148300000.0 -81519800000.0 -26310600000.0 -58484100000.0 -39809000000.0 -63223800000.0 -76499500000.0 -34412000000.0 -16110300000.0 -94828100000.0 -118237000000.0 -50451300000.0 -57478800000.0 -14656400000.0 -57628300000.0 -29980000000.0 -38629400000.0 -41300200000.0 -32900500000.0 -39299200000.0 -30876000000.0 -23774400000.0 -40350700000.0 -38441600000.0 -21498500000.0 -36896300000.0 -37188500000.0 -49192200000.0 -51096800000.0 -54915700000.0 -52583500000.0 -16925600000.0 -81815100000.0 -88030800000.0 -38838000000.0 -21792200000.0 -38069800000.0 -34652400000.0 -21579300000.0 -25324700000.0 -48455800000.0 -21367600000.0 -15637900000.0 -25574000000.0 -19647400000.0 -29916900000.0 -34736100000.0 -12589600000.0 -12902700000.0 -14047000000.0 -13028400000.0 -36530500000.0 -24402400000.0 -16727200000.0 -22717500000.0 -14076100000.0 -13280200000.0 -31741900000.0 -21137800000.0 -31233000000.0 -32421300000.0 -48345000000.0 -27198100000.0 -36144600000.0 -20149300000.0 -40937100000.0 -24028500000.0 -22062800000.0 -24172600000.0 -12684600000.0 -32824400000.0 -23812700000.0 -15562400000.0 -29665700000.0 -28657100000.0 -42589400000.0 -26341600000.0 -45764300000.0 -12549700000.0 -54076000000.0 -52796900000.0 -33588900000.0 -15620400000.0 -34611800000.0 -31854600000.0 -44637900000.0 -26851900000.0 -35682600000.0 -44959600000.0 -14623600000.0 -32829100000.0 -51652700000.0 -75059200000.0 -65044700000.0 -12554900000.0 -12599500000.0 -21338400000.0 -38720700000.0 -13058100000.0 -67656000000.0 -51159700000.0 -42283500000.0 -34687700000.0 -41381100000.0 -52697500000.0 -52927900000.0 -32811300000.0 -30008500000.0 -90298300000.0 -98372700000.0 -32960000000.0 -17138900000.0 -49254400000.0 -45525800000.0 -24937500000.0 -21462000000.0 -29429900000.0 -15490100000.0 -40107400000.0 -20232700000.0 -25203400000.0 -18706000000.0 -21334400000.0 -20921900000.0 -12549700000.0 -24826200000.0 -40436000000.0 -13848800000.0 -30222500000.0 -41562400000.0 -37043500000.0 -16237600000.0 -23204000000.0 -14309800000.0 -34578400000.0 -34367700000.0 -48228400000.0 -37666800000.0 -13669900000.0 -28670900000.0 -45568900000.0 -12592400000.0 -32350200000.0 -28922800000.0 -28604800000.0 -22081700000.0 -12811200000.0 -18844800000.0 -23424600000.0 -32745600000.0 -26738300000.0 -21827100000.0 -14337800000.0 -20544300000.0 -22117800000.0 -27082600000.0 -32257600000.0 -19423300000.0 -20033100000.0 -23390800000.0 -24298100000.0 -22127300000.0 -32835900000.0 -23635200000.0 -30012100000.0 -33318500000.0 -28112000000.0 -39197100000.0 -16109200000.0 -54301100000.0 -33102600000.0 -33197100000.0 -33482800000.0 -39553300000.0 -50798400000.0 -18216300000.0 -26567200000.0 -27243900000.0 -57507400000.0 -42201200000.0 -46082200000.0 -53609400000.0 -30582500000.0 -37704400000.0 -28432800000.0 -15657000000.0 -31320300000.0 -17840300000.0 -40396900000.0 -38068300000.0 -47691500000.0 -58975500000.0 -24301900000.0 -20163000000.0 -19392400000.0 -32539600000.0 -14031500000.0 -25172800000.0 -15977800000.0 -13679700000.0 -33975200000.0 -29028900000.0 -16573300000.0 -64203500000.0 -27655800000.0 -46262400000.0 -39163500000.0 -12907600000.0 -48498400000.0 -71716900000.0 -33195700000.0 -68988700000.0 -31656700000.0 -12549700000.0 -85223700000.0 -66405900000.0 -24290400000.0 -35100800000.0 -23974700000.0 -12571600000.0 -13065000000.0 -14346100000.0 -21476300000.0 -26487900000.0 -29798100000.0 -22597100000.0 -16151800000.0 -19877200000.0 -22832100000.0 -18106400000.0 -13796100000.0 -22799100000.0 -27677400000.0 -32084200000.0 -29728600000.0 -39902600000.0 -46512500000.0 -25877700000.0 -34557900000.0 -13957100000.0 -30472000000.0 -28220900000.0 -48773200000.0 -37726300000.0 -26529500000.0 -12657600000.0 -23336400000.0 -30159100000.0 -29673200000.0 -22437900000.0 -28691200000.0 -12746200000.0 -34656500000.0 -15758400000.0 -26439700000.0 -31861900000.0 -34353200000.0 -25238200000.0 -14702600000.0 -15335100000.0 -28113800000.0 -17002500000.0 -18050400000.0 -19870500000.0 -24260300000.0 -20202900000.0 -29358900000.0 -25461500000.0 -13422700000.0 -28066000000.0 -30304500000.0 -15540000000.0 -14250000000.0 -37808900000.0 -25455800000.0 -25611400000.0 -38541800000.0 -40101400000.0 -14132000000.0 -12713300000.0 -23649000000.0 -37224000000.0 -12946900000.0 -23723000000.0 -26303800000.0 -23769700000.0 -38900800000.0 -18777000000.0 -12837400000.0 -28006200000.0 -13246400000.0 -49066300000.0 -43923300000.0 -40696700000.0 -19902900000.0 -25685100000.0 -22257800000.0 -28151900000.0 -18974800000.0 -24887700000.0 -19318400000.0 -32150600000.0 -22255800000.0 -53941200000.0 -12595900000.0 -44076000000.0 -30252500000.0 -29072200000.0 -42195100000.0 -37821200000.0 -43628200000.0 -33398500000.0 -24424300000.0 -44346900000.0 -39922300000.0 -47899200000.0 -60930300000.0 -52309200000.0 -63608000000.0 -58958800000.0 -38745700000.0 -20867400000.0 -32179600000.0 -27609700000.0 -15346300000.0 -16904700000.0 -19147800000.0 -17600000000.0 -16623700000.0 -23810500000.0 -26347900000.0 -21276600000.0 -22737400000.0 -26329800000.0 -17775200000.0 -22978500000.0 -25036900000.0 -24663000000.0 -20378200000.0 -20629900000.0 -18305200000.0 -13106300000.0 -31215900000.0 -23121800000.0 -16716300000.0 -38787300000.0 -19126200000.0 -37131700000.0 -43992900000.0 -16151300000.0 -17195800000.0 -16490300000.0 -19377400000.0 -25216100000.0 -16347100000.0 -27897700000.0 -32555200000.0 -34260100000.0 -16575700000.0 -21201600000.0 -26486500000.0 -24698000000.0 -14925200000.0 -25025400000.0 -30686900000.0 -14155100000.0 -13991800000.0 -16366300000.0 -18968300000.0 -25190800000.0 -33901900000.0 -14714700000.0 -32584000000.0 -19949800000.0 -12602000000.0 -34452500000.0 -14758100000.0 -14518600000.0 -26212000000.0 -12899800000.0 -29877600000.0 -25685800000.0 -16312900000.0 -13853000000.0 -26348900000.0 -28692400000.0 -38025700000.0 -20374000000.0 -33302300000.0 -13729000000.0 -40448600000.0 -36327200000.0 -20282200000.0 -25346300000.0 -21492200000.0 -18444300000.0 -22085400000.0 -15880500000.0 -17513100000.0 -19188300000.0 -27983800000.0 -12713300000.0 -21117300000.0 -37085500000.0 -29101500000.0 -31111800000.0 -26017700000.0 -25935500000.0 -25779500000.0 -24764400000.0 -34931100000.0 -63897800000.0 -14810800000.0 -23794300000.0 -38405900000.0 -13166600000.0 -28329700000.0 -29412600000.0 -21905100000.0 -35796300000.0 -28661600000.0 -22459200000.0 -14202500000.0 -26094000000.0 -25026700000.0 -15396400000.0 -16090400000.0 -15125200000.0 -17806300000.0 -14173700000.0 -27690600000.0 -14862400000.0 -18897000000.0 -24624000000.0 -19034600000.0 -17878100000.0 -16754000000.0 -22238300000.0 -25371100000.0 -27303300000.0 -22838900000.0 -35903400000.0 -26908100000.0 -34126200000.0 -13195900000.0 -21828300000.0 -39066900000.0 -31702400000.0 -31251200000.0 -37169400000.0 -18384200000.0 -12571800000.0 -16582600000.0 -22795400000.0 -19539800000.0 -19514600000.0 -17128500000.0 -16022800000.0 -14510600000.0 -22479200000.0 -16618700000.0 -24420500000.0 -19811800000.0 -12563900000.0 -19155300000.0 -12613400000.0 -15702000000.0 -16322200000.0 -14453000000.0 -15481800000.0 -14476000000.0 -14965800000.0 -15214700000.0 -16369000000.0 -19983800000.0 -23927700000.0 -12592000000.0 -12549700000.0 -22549700000.0 -14591800000.0 -12718200000.0 -16637600000.0 -16273400000.0 -24327100000.0 -21971700000.0 -31499400000.0 -18061600000.0 -29194300000.0 -31925900000.0 -38626900000.0 -21300400000.0 -47463400000.0 -31335600000.0 -29435300000.0 -28012500000.0 -19419600000.0 -15892400000.0 -27497000000.0 -22019100000.0 -17295000000.0 -12849100000.0 -53516000000.0 -23218700000.0 -15642000000.0 -18007700000.0 -16664700000.0 -16653900000.0 -19064100000.0 -22789000000.0 -27567400000.0 -15529200000.0 -14116100000.0 -17401800000.0 -12549700000.0 -18344100000.0 -27471300000.0 -34498300000.0 -24083900000.0 -18257500000.0 -37801100000.0 -18983600000.0 -21220500000.0 -13090500000.0 -20468400000.0 -23549400000.0 -37005100000.0 -31598100000.0 -22749400000.0 -14818500000.0 -12629300000.0 -15980300000.0 -24907600000.0 -22774800000.0 -23513700000.0 -18807900000.0 -14530300000.0 -14271000000.0 -17665100000.0 -14378300000.0 -15032600000.0 -12853700000.0 -23630200000.0 -13453500000.0 -17484300000.0 -17350400000.0 -20556700000.0 -20947200000.0 -17710200000.0 -28003800000.0 -15948100000.0 -18649600000.0 -14657700000.0 -25964700000.0 -25370300000.0 -35880100000.0 -25537200000.0 -19903600000.0 -15260300000.0 -20118700000.0 -20251000000.0 -43622000000.0 -32234400000.0 -24986100000.0 -14127900000.0 -23231500000.0 -18085700000.0 -14325700000.0 -14107400000.0 -16495900000.0 -15116500000.0 -19522200000.0 -14458000000.0 -20816600000.0 -16447000000.0 -20289100000.0 -13800900000.0 -12679800000.0 -12549700000.0 -15666300000.0 -12626300000.0 -12792200000.0 -17311100000.0 -12549700000.0 -16923000000.0 -13904100000.0 -13510700000.0 -16751000000.0 -31529300000.0 -23411600000.0 -23828200000.0 -19541400000.0 -15753100000.0 -18001200000.0 -20119900000.0 -28377400000.0 -20549400000.0 -13143700000.0 -15543700000.0 -18570800000.0 -49971300000.0 -19131600000.0 -20322500000.0 -21242900000.0 -12762600000.0 -14719600000.0 -12575700000.0 -19299200000.0 -17261300000.0 -12549700000.0 -23312100000.0 -21108100000.0 -15804200000.0 -15495200000.0 -17629500000.0 -17085700000.0 -16700700000.0 -25342100000.0 -14804300000.0 -25775000000.0 -23794400000.0 -17345900000.0 -28019000000.0 -12890200000.0 -13022600000.0 -14249000000.0 -12693600000.0 -12554900000.0 -12549700000.0 -13488900000.0 -14541600000.0 -13023900000.0 -25223100000.0 -18401000000.0 -22160900000.0 -22573600000.0 -17313500000.0 -21912800000.0 -19785200000.0 -16705200000.0 -17030100000.0 -15013000000.0 -17258400000.0 -20093000000.0 -17908200000.0 -26809300000.0 -12753100000.0 -18499000000.0 -14876000000.0 -16918100000.0 -16512700000.0 -14652700000.0 -12549700000.0 -26232600000.0 -21140400000.0 -12679100000.0 -15316500000.0 -23495300000.0 -18716200000.0 -21510000000.0 -16421800000.0 -16505400000.0 -17000200000.0 -17632200000.0 -12877700000.0 -16136800000.0 -13632100000.0 -16511700000.0 -16375300000.0 -13693400000.0 -12549700000.0 -16635000000.0 -13503800000.0 -12549700000.0 -12549700000.0 -13259200000.0 -14848800000.0 -13063800000.0 -12549700000.0 -15367300000.0 -14932300000.0 -13019900000.0 -13908500000.0 -13253800000.0 -13076400000.0 -12884000000.0 -19944400000.0 -16889600000.0 -18615200000.0 -15116600000.0 -20898300000.0 -14680300000.0 -13184100000.0 -18802100000.0 -20730900000.0 -13504500000.0 -20372700000.0 -24354500000.0 -29581200000.0 -28843600000.0 -25783600000.0 -25990200000.0 -29207200000.0 -22592900000.0 -18897800000.0 -15211200000.0 -13025600000.0 -16164800000.0 -17670100000.0 -14630200000.0 -13276100000.0 -15798900000.0 -19175700000.0 -17514000000.0 -14992600000.0 -17573300000.0 -18369900000.0 -22061200000.0 -25977500000.0 -23553500000.0 -14762500000.0 -14678600000.0 -14193900000.0 -12713500000.0 -12657200000.0 -21916700000.0 -13905700000.0 -12549700000.0 -12616900000.0 -15701600000.0 -13036000000.0 -16405600000.0 -18376800000.0 -20942800000.0 -13189300000.0 -23003200000.0 -14508200000.0 -14250600000.0 -16729500000.0 -15320400000.0 -15812800000.0 -14894200000.0 -12549700000.0 -15954700000.0 -17717900000.0 -15295700000.0 -15119900000.0 -14365400000.0 -14994700000.0 -16238500000.0 -13272400000.0 -15377100000.0 -21523500000.0 -16242500000.0 -14739400000.0 -14245800000.0 -12780900000.0 -14046000000.0 -12549700000.0 -13476500000.0 -13763800000.0 -12974000000.0 -14283800000.0 -12549700000.0 -15018500000.0 -12857500000.0 -12605700000.0 -14742600000.0 -12685300000.0 -12549700000.0 -12554200000.0 -12986700000.0 -14046000000.0 -12549700000.0 -12728100000.0 -14425700000.0 -12549700000.0 -12803700000.0 -12961300000.0 -14090900000.0 -15680200000.0 -13131200000.0 -14294200000.0 -13526600000.0 -13149600000.0 -13181700000.0 -16306300000.0 -14718500000.0 -13015600000.0 -14771200000.0 -14037900000.0 -15134200000.0 -22316300000.0 -20615000000.0 -16586800000.0 -15872900000.0 -15393100000.0 -16284100000.0 -24804500000.0 -16563700000.0 -18590000000.0 -14332300000.0 -16375900000.0 -16432600000.0 -14263200000.0 -13628900000.0 -13143900000.0 -15861400000.0 -12696500000.0 -14402700000.0 -15751300000.0 -12752400000.0 -15620100000.0 -14468800000.0 -13925900000.0 -18257800000.0 -17266400000.0 -15288800000.0 -14277300000.0 -14535700000.0 -15636400000.0 -13781100000.0 -12597200000.0 -13980700000.0 -14462400000.0 -12549700000.0 -16357700000.0 -14521400000.0 -14296300000.0 -15465400000.0 -15234900000.0 -13697100000.0 -14951700000.0 -13476600000.0 -15495600000.0 -13188200000.0 -13402000000.0 -16438500000.0 -12928800000.0 -14035700000.0 -14582900000.0 -14340800000.0 -13111700000.0 -13103500000.0 -12603900000.0 -12674600000.0 -15402100000.0 -15173700000.0 -15191900000.0 -13195100000.0 -12956700000.0 -12872500000.0 -15937800000.0 -12731300000.0 -15300200000.0 -12623600000.0 -12848000000.0 -12800400000.0 -12549700000.0 -12982300000.0 -12638000000.0 -13482000000.0 -13255400000.0 -13945100000.0 -12874100000.0 -12782900000.0 -12776600000.0 -12786100000.0 -12643000000.0 -12856200000.0 -13521500000.0 -13020500000.0 -13246400000.0 -12948300000.0 -12661400000.0 -12748100000.0 -13064100000.0 -12708700000.0 -13141900000.0 -13543600000.0 -14585900000.0 -13080400000.0 -13298800000.0 -14225300000.0 -15032800000.0 -16752400000.0 -16207900000.0 -14016000000.0 -14152300000.0 -19211800000.0 -18581000000.0 -14760500000.0 -15872500000.0 -15585300000.0 -12648100000.0 -14821300000.0 -17720900000.0 -12549700000.0 -12549700000.0 -14270100000.0 -12891500000.0 -12649200000.0 -12681700000.0 -13620100000.0 -13171300000.0 -14073200000.0 -12875800000.0 -14833300000.0 -13080400000.0 -12813500000.0 -13021200000.0 -14923200000.0 -16464100000.0 -12549700000.0 -14259500000.0 -14821500000.0 -13114900000.0 -13056500000.0 -13412300000.0 -12549700000.0 -12929900000.0 -12585800000.0 -12654600000.0 -14185100000.0 -13100600000.0 -13583900000.0 -13229000000.0 -12985300000.0 -13210000000.0 -13332900000.0 -12656100000.0 -13018800000.0 -12922400000.0 -12717500000.0 -12747100000.0 -12718100000.0 -14347200000.0 -13390100000.0 -13280100000.0 -12960700000.0 -12635900000.0 -13252700000.0 -12571700000.0 -12631200000.0 -14225500000.0 -14414700000.0 -13320400000.0 -13101200000.0 -14350100000.0 -13214000000.0 -13995400000.0 -13237500000.0 -13185000000.0 -13365000000.0 -12662200000.0 -12729800000.0 -12838800000.0 -13124900000.0 -12931000000.0 -13257000000.0 -12911000000.0 -13675000000.0 -13106600000.0 -13279600000.0 -13214800000.0 -12582500000.0 