# vtk DataFile Version 2.0
Time step 53
ASCII
DATASET UNSTRUCTURED_GRID
POINTS 4650 float
189012.0 385340.0 0
310988.0 385340.0 0
180371.0 389595.0 0
183718.0 387502.0 0
187123.0 388845.0 0
193310.0 387029.0 0
199607.0 387839.0 0
300393.0 387839.0 0
306690.0 387029.0 0
312877.0 388845.0 0
316282.0 387502.0 0
319629.0 389595.0 0
177045.0 391673.0 0
183675.0 391218.0 0
190674.0 389953.0 0
196174.0 389812.0 0
203086.0 389786.0 0
206884.0 388652.0 0
210418.0 390496.0 0
214208.0 389298.0 0
218078.0 390260.0 0
222055.0 389891.0 0
226036.0 390217.0 0
230030.0 390152.0 0
234024.0 390210.0 0
238018.0 390163.0 0
242012.0 390210.0 0
246006.0 390158.0 0
250000.0 390211.0 0
253994.0 390158.0 0
257988.0 390210.0 0
261982.0 390163.0 0
265976.0 390210.0 0
269970.0 390152.0 0
273964.0 390217.0 0
277945.0 389891.0 0
281922.0 390260.0 0
285792.0 389298.0 0
289582.0 390496.0 0
293116.0 388652.0 0
296914.0 389786.0 0
303826.0 389812.0 0
309326.0 389953.0 0
316325.0 391218.0 0
322955.0 391673.0 0
173734.0 393742.0 0
180344.0 393324.0 0
186977.0 392789.0 0
193383.0 392571.0 0
199761.0 391910.0 0
207091.0 392671.0 0
214355.0 393281.0 0
285645.0 393281.0 0
292909.0 392671.0 0
300239.0 391910.0 0
306617.0 392571.0 0
313023.0 392789.0 0
319656.0 393324.0 0
326266.0 393742.0 0
170431.0 395804.0 0
173717.0 397443.0 0
177027.0 395393.0 0
183628.0 395003.0 0
186835.0 396751.0 0
190143.0 394675.0 0
193423.0 396529.0 0
196713.0 394363.0 0
200130.0 396110.0 0
203295.0 393774.0 0
210608.0 394556.0 0
218179.0 394352.0 0
222127.0 393876.0 0
226092.0 394231.0 0
230073.0 394148.0 0
234056.0 394214.0 0
238041.0 394161.0 0
242027.0 394215.0 0
246013.0 394156.0 0
250000.0 394215.0 0
253987.0 394156.0 0
257973.0 394215.0 0
261959.0 394161.0 0
265944.0 394214.0 0
269927.0 394148.0 0
273908.0 394231.0 0
277873.0 393876.0 0
281821.0 394352.0 0
289392.0 394556.0 0
296705.0 393774.0 0
299870.0 396110.0 0
303287.0 394363.0 0
306577.0 396529.0 0
309857.0 394675.0 0
313165.0 396751.0 0
316372.0 395003.0 0
322973.0 395393.0 0
326283.0 397443.0 0
329569.0 395804.0 0
163836.0 399923.0 0
167133.0 397864.0 0
170415.0 399486.0 0
176988.0 399150.0 0
180300.0 397099.0 0
183532.0 398868.0 0
190054.0 398600.0 0
196807.0 398307.0 0
203604.0 397903.0 0
207376.0 396819.0 0
210846.0 398785.0 0
214502.0 397263.0 0
218265.0 398536.0 0
222182.0 397850.0 0
226138.0 398267.0 0
230115.0 398141.0 0
234092.0 398231.0 0
238069.0 398157.0 0
242046.0 398234.0 0
246023.0 398153.0 0
250000.0 398235.0 0
253977.0 398153.0 0
257954.0 398234.0 0
261931.0 398157.0 0
265908.0 398231.0 0
269885.0 398141.0 0
273862.0 398267.0 0
277818.0 397850.0 0
281735.0 398536.0 0
285498.0 397263.0 0
289154.0 398785.0 0
292624.0 396819.0 0
296396.0 397903.0 0
303193.0 398307.0 0
309946.0 398600.0 0
316468.0 398868.0 0
319700.0 397099.0 0
323012.0 399150.0 0
329585.0 399486.0 0
332867.0 397864.0 0
336164.0 399923.0 0
160539.0 401982.0 0
167112.0 401525.0 0
173685.0 401178.0 0
180233.0 400927.0 0
186743.0 400687.0 0
193291.0 400433.0 0
200251.0 400050.0 0
207451.0 400804.0 0
214492.0 401252.0 0
285508.0 401252.0 0
292549.0 400804.0 0
299749.0 400050.0 0
306709.0 400433.0 0
313257.0 400687.0 0
319767.0 400927.0 0
326315.0 401178.0 0
332888.0 401525.0 0
339461.0 401982.0 0
157241.0 404043.0 0
163811.0 403568.0 0
167082.0 405216.0 0
170381.0 403196.0 0
173640.0 404938.0 0
176937.0 402943.0 0
183454.0 402762.0 0
189964.0 402537.0 0
193222.0 404358.0 0
196555.0 402214.0 0
199865.0 403955.0 0
203695.0 401858.0 0
210848.0 402830.0 0
218250.0 402563.0 0
222162.0 401816.0 0
226118.0 402283.0 0
230098.0 402132.0 0
234079.0 402244.0 0
238060.0 402152.0 0
242040.0 402246.0 0
246020.0 402148.0 0
250000.0 402246.0 0
253980.0 402148.0 0
257960.0 402246.0 0
261940.0 402152.0 0
265921.0 402244.0 0
269902.0 402132.0 0
273882.0 402283.0 0
277838.0 401816.0 0
281750.0 402563.0 0
289152.0 402830.0 0
296305.0 401858.0 0
300135.0 403955.0 0
303445.0 402214.0 0
306778.0 404358.0 0
310036.0 402537.0 0
316546.0 402762.0 0
323063.0 402943.0 0
326360.0 404938.0 0
329619.0 403196.0 0
332918.0 405216.0 0
336189.0 403568.0 0
342759.0 404043.0 0
153939.0 406105.0 0
157208.0 407658.0 0
160511.0 405612.0 0
163783.0 407239.0 0
170349.0 406932.0 0
176893.0 406752.0 0
180174.0 404781.0 0
186673.0 404624.0 0
189916.0 406475.0 0
196528.0 406127.0 0
203210.0 405710.0 0
207212.0 404911.0 0
210809.0 406794.0 0
214477.0 405243.0 0
218233.0 406586.0 0
222138.0 405773.0 0
226095.0 406282.0 0
230081.0 406118.0 0
234066.0 406244.0 0
238051.0 406145.0 0
242034.0 406246.0 0
246017.0 406141.0 0
250000.0 406246.0 0
253983.0 406141.0 0
257966.0 406246.0 0
261949.0 406145.0 0
265934.0 406244.0 0
269919.0 406118.0 0
273905.0 406282.0 0
277862.0 405773.0 0
281767.0 406586.0 0
285523.0 405243.0 0
289191.0 406794.0 0
292788.0 404911.0 0
296790.0 405710.0 0
303472.0 406127.0 0
310084.0 406475.0 0
313327.0 404624.0 0
319826.0 404781.0 0
323107.0 406752.0 0
329651.0 406932.0 0
336217.0 407239.0 0
339489.0 405612.0 0
342792.0 407658.0 0
346061.0 406105.0 0
147318.0 410242.0 0
150632.0 408171.0 0
153901.0 409707.0 0
160485.0 409265.0 0
167054.0 408929.0 0
173607.0 408712.0 0
176868.0 410562.0 0
180141.0 408648.0 0
183403.0 406671.0 0
186638.0 408564.0 0
193207.0 408279.0 0
199878.0 407866.0 0
205576.0 408598.0 0
215123.0 409177.0 0
284877.0 409177.0 0
294424.0 408598.0 0
300122.0 407866.0 0
306793.0 408279.0 0
313362.0 408564.0 0
316597.0 406671.0 0
319859.0 408648.0 0
323132.0 410562.0 0
326393.0 408712.0 0
332946.0 408929.0 0
339515.0 409265.0 0
346099.0 409707.0 0
349368.0 408171.0 0
352682.0 410242.0 0
143995.0 412319.0 0
150587.0 411762.0 0
157184.0 411294.0 0
160479.0 412940.0 0
163767.0 410934.0 0
167050.0 412667.0 0
170318.0 410681.0 0
173584.0 412490.0 0
183377.0 410592.0 0
189904.0 410411.0 0
193230.0 412189.0 0
196553.0 410032.0 0
202238.0 410772.0 0
205651.0 412505.0 0
208985.0 410301.0 0
212399.0 412074.0 0
218603.0 411119.0 0
222309.0 409719.0 0
226217.0 410392.0 0
230174.0 410098.0 0
234137.0 410279.0 0
238103.0 410136.0 0
242069.0 410285.0 0
246034.0 410133.0 0
250000.0 410284.0 0
253966.0 410133.0 0
257931.0 410285.0 0
261897.0 410136.0 0
265863.0 410279.0 0
269826.0 410098.0 0
273783.0 410392.0 0
277691.0 409719.0 0
281397.0 411119.0 0
287601.0 412074.0 0
291015.0 410301.0 0
294349.0 412505.0 0
297762.0 410772.0 0
303447.0 410032.0 0
306770.0 412189.0 0
310096.0 410411.0 0
316623.0 410592.0 0
326416.0 412490.0 0
329682.0 410681.0 0
332950.0 412667.0 0
336233.0 410934.0 0
339521.0 412940.0 0
342816.0 411294.0 0
349413.0 411762.0 0
356005.0 412319.0 0
140663.0 414401.0 0
143932.0 415901.0 0
147264.0 413826.0 0
150558.0 415368.0 0
153877.0 413327.0 0
157184.0 414948.0 0
163781.0 414651.0 0
170332.0 414456.0 0
176858.0 414359.0 0
180122.0 412520.0 0
186617.0 412510.0 0
189903.0 414337.0 0
195578.0 415095.0 0
198905.0 412938.0 0
202309.0 414677.0 0
209057.0 414256.0 0
215801.0 413922.0 0
222492.0 413673.0 0
226338.0 414545.0 0
230258.0 414074.0 0
234202.0 414319.0 0
238149.0 414125.0 0
242099.0 414309.0 0
246049.0 414125.0 0
250000.0 414298.0 0
253951.0 414125.0 0
257901.0 414309.0 0
261851.0 414125.0 0
265798.0 414319.0 0
269742.0 414074.0 0
273662.0 414545.0 0
277508.0 413673.0 0
284199.0 413922.0 0
290943.0 414256.0 0
297691.0 414677.0 0
301095.0 412938.0 0
304422.0 415095.0 0
310097.0 414337.0 0
313383.0 412510.0 0
319878.0 412520.0 0
323142.0 414359.0 0
329668.0 414456.0 0
336219.0 414651.0 0
342816.0 414948.0 0
346123.0 413327.0 0
349442.0 415368.0 0
352736.0 413826.0 0
356068.0 415901.0 0
359337.0 414401.0 0
133985.0 418577.0 0
137325.0 416489.0 0
140594.0 417990.0 0
147229.0 417427.0 0
153876.0 416960.0 0
160505.0 416631.0 0
167092.0 416425.0 0
170420.0 418247.0 0
173624.0 416284.0 0
176954.0 418138.0 0
183349.0 414534.0 0
186558.0 416466.0 0
192257.0 417236.0 0
198971.0 416840.0 0
205711.0 416434.0 0
212454.0 416060.0 0
219198.0 415812.0 0
280802.0 415812.0 0
287546.0 416060.0 0
294289.0 416434.0 0
301029.0 416840.0 0
307743.0 417236.0 0
313442.0 416466.0 0
316651.0 414534.0 0
323046.0 418138.0 0
326376.0 416284.0 0
329580.0 418247.0 0
332908.0 416425.0 0
339495.0 416631.0 0
346124.0 416960.0 0
352771.0 417427.0 0
359406.0 417990.0 0
362675.0 416489.0 0
366015.0 418577.0 0
130644.0 420666.0 0
137256.0 420091.0 0
143891.0 419502.0 0
147216.0 421041.0 0
150552.0 418984.0 0
153903.0 420600.0 0
157214.0 418613.0 0
160571.0 420331.0 0
163840.0 418384.0 0
167187.0 420194.0 0
173808.0 420077.0 0
180100.0 416396.0 0
183156.0 418526.0 0
188938.0 419348.0 0
195636.0 418998.0 0
202366.0 418600.0 0
209107.0 418217.0 0
212502.0 420038.0 0
215853.0 417914.0 0
219279.0 419786.0 0
222649.0 417675.0 0
226446.0 418660.0 0
230328.0 418050.0 0
234254.0 418336.0 0
238186.0 418116.0 0
242123.0 418310.0 0
246062.0 418117.0 0
250000.0 418298.0 0
253938.0 418117.0 0
257877.0 418310.0 0
261814.0 418116.0 0
265746.0 418336.0 0
269672.0 418050.0 0
273554.0 418660.0 0
277351.0 417675.0 0
280721.0 419786.0 0
284147.0 417914.0 0
287498.0 420038.0 0
290893.0 418217.0 0
297634.0 418600.0 0
304364.0 418998.0 0
311062.0 419348.0 0
316844.0 418526.0 0
319900.0 416396.0 0
326192.0 420077.0 0
332813.0 420194.0 0
336160.0 418384.0 0
339429.0 420331.0 0
342786.0 418613.0 0
346097.0 420600.0 0
349448.0 418984.0 0
352784.0 421041.0 0
356109.0 419502.0 0
362744.0 420091.0 0
369356.0 420666.0 0
127301.0 422756.0 0
133921.0 422191.0 0
137218.0 423725.0 0
140551.0 421603.0 0
143875.0 423117.0 0
150571.0 422602.0 0
157276.0 422281.0 0
163945.0 422126.0 0
170564.0 422023.0 0
177391.0 421780.0 0
181276.0 422121.0 0
185588.0 421373.0 0
192296.0 421138.0 0
199023.0 420758.0 0
202412.0 422541.0 0
205758.0 420379.0 0
209149.0 422182.0 0
215910.0 421889.0 0
222711.0 421669.0 0
226485.0 422720.0 0
230350.0 422029.0 0
234270.0 422337.0 0
238198.0 422108.0 0
242131.0 422309.0 0
246065.0 422110.0 0
250000.0 422297.0 0
253935.0 422110.0 0
257869.0 422309.0 0
261802.0 422108.0 0
265730.0 422337.0 0
269650.0 422029.0 0
273515.0 422720.0 0
277289.0 421669.0 0
284090.0 421889.0 0
290851.0 422182.0 0
294242.0 420379.0 0
297588.0 422541.0 0
300977.0 420758.0 0
307704.0 421138.0 0
314412.0 421373.0 0
318724.0 422121.0 0
322609.0 421780.0 0
329436.0 422023.0 0
336055.0 422126.0 0
342724.0 422281.0 0
349429.0 422602.0 0
356125.0 423117.0 0
359449.0 421603.0 0
362782.0 423725.0 0
366079.0 422191.0 0
372699.0 422756.0 0
123954.0 424849.0 0
127247.0 426387.0 0
130586.0 424289.0 0
133892.0 425837.0 0
140537.0 425240.0 0
147231.0 424669.0 0
153959.0 424241.0 0
157365.0 425950.0 0
160671.0 424028.0 0
164082.0 425873.0 0
167334.0 423977.0 0
170745.0 425814.0 0
174015.0 423775.0 0
177416.0 425520.0 0
184046.0 424892.0 0
188934.0 423254.0 0
192335.0 425037.0 0
195681.0 422916.0 0
199065.0 424685.0 0
205798.0 424334.0 0
212546.0 424007.0 0
219329.0 423761.0 0
280671.0 423761.0 0
287454.0 424007.0 0
294202.0 424334.0 0
300935.0 424685.0 0
304319.0 422916.0 0
307665.0 425037.0 0
311066.0 423254.0 0
315954.0 424892.0 0
322584.0 425520.0 0
325985.0 423775.0 0
329255.0 425814.0 0
332666.0 423977.0 0
335918.0 425873.0 0
339329.0 424028.0 0
342635.0 425950.0 0
346041.0 424241.0 0
352769.0 424669.0 0
359463.0 425240.0 0
366108.0 425837.0 0
369414.0 424289.0 0
372753.0 426387.0 0
376046.0 424849.0 0
117242.0 429046.0 0
120601.0 426945.0 0
123900.0 428487.0 0
130561.0 427942.0 0
137213.0 427399.0 0
140560.0 428897.0 0
143894.0 426740.0 0
147288.0 428319.0 0
150620.0 426209.0 0
154045.0 427882.0 0
160790.0 427711.0 0
167487.0 427784.0 0
174171.0 427563.0 0
180795.0 427017.0 0
187430.0 426835.0 0
195712.0 426857.0 0
202457.0 426498.0 0
209185.0 426148.0 0
212582.0 427969.0 0
215952.0 425861.0 0
219364.0 427734.0 0
222752.0 425655.0 0
226519.0 426713.0 0
230377.0 426013.0 0
234290.0 426336.0 0
238214.0 426102.0 0
242141.0 426307.0 0
246070.0 426105.0 0
250000.0 426295.0 0
253930.0 426105.0 0
257859.0 426307.0 0
261786.0 426102.0 0
265710.0 426336.0 0
269623.0 426013.0 0
273481.0 426713.0 0
277248.0 425655.0 0
280636.0 427734.0 0
284048.0 425861.0 0
287418.0 427969.0 0
290815.0 426148.0 0
297543.0 426498.0 0
304288.0 426857.0 0
312570.0 426835.0 0
319205.0 427017.0 0
325829.0 427563.0 0
332513.0 427784.0 0
339210.0 427711.0 0
345955.0 427882.0 0
349380.0 426209.0 0
352712.0 428319.0 0
356106.0 426740.0 0
359440.0 428897.0 0
362787.0 427399.0 0
369439.0 427942.0 0
376100.0 428487.0 0
379399.0 426945.0 0
382758.0 429046.0 0
113876.0 431151.0 0
120549.0 430593.0 0
127218.0 430045.0 0
130548.0 431620.0 0
133896.0 429514.0 0
137247.0 431123.0 0
143976.0 430353.0 0
150706.0 429782.0 0
157466.0 429624.0 0
164225.0 429632.0 0
170853.0 429673.0 0
177668.0 429410.0 0
184090.0 428811.0 0
190848.0 428622.0 0
194277.0 430528.0 0
199118.0 428602.0 0
202437.0 430532.0 0
205830.0 428297.0 0
209222.0 430117.0 0
215982.0 429832.0 0
222781.0 429639.0 0
226544.0 430697.0 0
230399.0 430001.0 0
234308.0 430333.0 0
238228.0 430097.0 0
242151.0 430303.0 0
246075.0 430101.0 0
250000.0 430290.0 0
253925.0 430101.0 0
257849.0 430303.0 0
261772.0 430097.0 0
265692.0 430333.0 0
269601.0 430001.0 0
273456.0 430697.0 0
277219.0 429639.0 0
284018.0 429832.0 0
290778.0 430117.0 0
294170.0 428297.0 0
297563.0 430532.0 0
300882.0 428602.0 0
305723.0 430528.0 0
309152.0 428622.0 0
315910.0 428811.0 0
322332.0 429410.0 0
329147.0 429673.0 0
335775.0 429632.0 0
342534.0 429624.0 0
349294.0 429782.0 0
356024.0 430353.0 0
362753.0 431123.0 0
366104.0 429514.0 0
369452.0 431620.0 0
372782.0 430045.0 0
379451.0 430593.0 0
386124.0 431151.0 0
110505.0 433259.0 0
117190.0 432704.0 0
120527.0 434268.0 0
123877.0 432154.0 0
127223.0 433735.0 0
133877.0 433210.0 0
140661.0 432557.0 0
144112.0 433911.0 0
147417.0 432035.0 0
150892.0 433249.0 0
154183.0 431539.0 0
157562.0 433354.0 0
160878.0 431362.0 0
164241.0 433396.0 0
167621.0 431669.0 0
174240.0 431286.0 0
180043.0 432496.0 0
183906.0 432616.0 0
187413.0 430807.0 0
190876.0 432493.0 0
197768.0 432252.0 0
205885.0 432246.0 0
212607.0 431923.0 0
219386.0 431699.0 0
280614.0 431699.0 0
287393.0 431923.0 0
294115.0 432246.0 0
302232.0 432252.0 0
309124.0 432493.0 0
312587.0 430807.0 0
316094.0 432616.0 0
319957.0 432496.0 0
325760.0 431286.0 0
332379.0 431669.0 0
335759.0 433396.0 0
339122.0 431362.0 0
342438.0 433354.0 0
345817.0 431539.0 0
349108.0 433249.0 0
352583.0 432035.0 0
355888.0 433911.0 0
359339.0 432557.0 0
366123.0 433210.0 0
372777.0 433735.0 0
376123.0 432154.0 0
379473.0 434268.0 0
382810.0 432704.0 0
389495.0 433259.0 0
107134.0 435370.0 0
113827.0 434825.0 0
117176.0 436393.0 0
123881.0 435847.0 0
130582.0 435345.0 0
137133.0 434895.0 0
140390.0 436225.0 0
147388.0 435908.0 0
151050.0 436502.0 0
154491.0 435272.0 0
160798.0 434966.0 0
168556.0 435437.0 0
172423.0 434683.0 0
176509.0 434166.0 0
186449.0 435511.0 0
193916.0 434927.0 0
201133.0 434304.0 0
208865.0 434705.0 0
215992.0 433811.0 0
219400.0 435636.0 0
222806.0 433621.0 0
226567.0 434667.0 0
230422.0 433993.0 0
234326.0 434326.0 0
238241.0 434095.0 0
242159.0 434296.0 0
246079.0 434099.0 0
250000.0 434284.0 0
253921.0 434099.0 0
257841.0 434296.0 0
261759.0 434095.0 0
265674.0 434326.0 0
269578.0 433993.0 0
273433.0 434667.0 0
277194.0 433621.0 0
280600.0 435636.0 0
284008.0 433811.0 0
291135.0 434705.0 0
298867.0 434304.0 0
306084.0 434927.0 0
313551.0 435511.0 0
323491.0 434166.0 0
327577.0 434683.0 0
331444.0 435437.0 0
339202.0 434966.0 0
345509.0 435272.0 0
348950.0 436502.0 0
352612.0 435908.0 0
359610.0 436225.0 0
362867.0 434895.0 0
369418.0 435345.0 0
376119.0 435847.0 0
382824.0 436393.0 0
386173.0 434825.0 0
392866.0 435370.0 0
100423.0 439566.0 0
103778.0 437469.0 0
107111.0 439122.0 0
110462.0 436957.0 0
113821.0 438529.0 0
120546.0 437973.0 0
127244.0 437450.0 0
130590.0 439086.0 0
133959.0 436985.0 0
137395.0 438842.0 0
143819.0 437363.0 0
153793.0 438947.0 0
157539.0 437720.0 0
161376.0 438280.0 0
164993.0 437061.0 0
171153.0 438393.0 0
174957.0 437755.0 0
178831.0 437121.0 0
182585.0 436276.0 0
190206.0 436276.0 0
197596.0 436139.0 0
204692.0 436013.0 0
212581.0 435849.0 0
215587.0 438316.0 0
222778.0 437618.0 0
230414.0 437990.0 0
238235.0 438111.0 0
246077.0 438127.0 0
253923.0 438127.0 0
261765.0 438111.0 0
269586.0 437990.0 0
277222.0 437618.0 0
284413.0 438316.0 0
287419.0 435849.0 0
295308.0 436013.0 0
302404.0 436139.0 0
309794.0 436276.0 0
317415.0 436276.0 0
321169.0 437121.0 0
325043.0 437755.0 0
328847.0 438393.0 0
335007.0 437061.0 0
338624.0 438280.0 0
342461.0 437720.0 0
346207.0 438947.0 0
356181.0 437363.0 0
362605.0 438842.0 0
366041.0 436985.0 0
369410.0 439086.0 0
372756.0 437450.0 0
379454.0 437973.0 0
386179.0 438529.0 0
389538.0 436957.0 0
392889.0 439122.0 0
396222.0 437469.0 0
399577.0 439566.0 0
97058.8 441669.0 0
103764.0 441234.0 0
110471.0 440684.0 0
117196.0 440109.0 0
120582.0 441700.0 0
123935.0 439574.0 0
127352.0 441216.0 0
133900.0 440647.0 0
141147.0 439811.0 0
146276.0 439672.0 0
149876.0 439587.0 0
159662.0 441400.0 0
163892.0 440878.0 0
167595.0 439789.0 0
177465.0 440789.0 0
181334.0 440056.0 0
185164.0 439240.0 0
188973.0 439979.0 0
192850.0 439076.0 0
196615.0 439960.0 0
200408.0 438785.0 0
204103.0 439928.0 0
207780.0 438501.0 0
211544.0 439666.0 0
219304.0 439534.0 0
226554.0 438623.0 0
234319.0 438316.0 0
242155.0 438286.0 0
250000.0 438274.0 0
257845.0 438286.0 0
265681.0 438316.0 0
273446.0 438623.0 0
280696.0 439534.0 0
288456.0 439666.0 0
292220.0 438501.0 0
295897.0 439928.0 0
299592.0 438785.0 0
303385.0 439960.0 0
307150.0 439076.0 0
311027.0 439979.0 0
314836.0 439240.0 0
318666.0 440056.0 0
322535.0 440789.0 0
332405.0 439789.0 0
336108.0 440878.0 0
340338.0 441400.0 0
350124.0 439587.0 0
353724.0 439672.0 0
358853.0 439811.0 0
366100.0 440647.0 0
372648.0 441216.0 0
376065.0 439574.0 0
379418.0 441700.0 0
382804.0 440109.0 0
389529.0 440684.0 0
396236.0 441234.0 0
402941.0 441669.0 0
92784.8 444360.0 0
100395.0 443320.0 0
107098.0 442938.0 0
110520.0 444435.0 0
113855.0 442266.0 0
117248.0 443860.0 0
123981.0 443305.0 0
130825.0 442938.0 0
136352.0 443111.0 0
140012.0 443087.0 0
143879.0 442588.0 0
148115.0 442824.0 0
152084.0 442389.0 0
155946.0 441844.0 0
166059.0 443903.0 0
169861.0 442826.0 0
173580.0 441497.0 0
183918.0 442979.0 0
191655.0 442815.0 0
199460.0 442620.0 0
207127.0 442416.0 0
214613.0 442155.0 0
218394.0 443340.0 0
222253.0 442115.0 0
226177.0 442544.0 0
230119.0 442153.0 0
234085.0 442293.0 0
238058.0 442184.0 0
242036.0 442273.0 0
246018.0 442183.0 0
250000.0 442263.0 0
253982.0 442183.0 0
257964.0 442273.0 0
261942.0 442184.0 0
265915.0 442293.0 0
269881.0 442153.0 0
273823.0 442544.0 0
277747.0 442115.0 0
281606.0 443340.0 0
285387.0 442155.0 0
292873.0 442416.0 0
300540.0 442620.0 0
308345.0 442815.0 0
316082.0 442979.0 0
326420.0 441497.0 0
330139.0 442826.0 0
333941.0 443903.0 0
344054.0 441844.0 0
347916.0 442389.0 0
351885.0 442824.0 0
356121.0 442588.0 0
359988.0 443087.0 0
363648.0 443111.0 0
369175.0 442938.0 0
376019.0 443305.0 0
382752.0 443860.0 0
386145.0 442266.0 0
389480.0 444435.0 0
392902.0 442938.0 0
399605.0 443320.0 0
407215.0 444360.0 0
89427.1 446458.0 0
96547.4 445387.0 0
100116.0 447084.0 0
103725.0 445039.0 0
107064.0 446803.0 0
113921.0 446039.0 0
120655.0 445459.0 0
124077.0 447074.0 0
127376.0 444938.0 0
130663.0 446687.0 0
134372.0 446370.0 0
138251.0 446380.0 0
142172.0 446085.0 0
146013.0 445825.0 0
150323.0 445738.0 0
154270.0 445329.0 0
158168.0 444902.0 0
162092.0 444347.0 0
168696.0 446630.0 0
172493.0 445597.0 0
176196.0 444483.0 0
180056.0 443798.0 0
187790.0 443753.0 0
195517.0 443792.0 0
203251.0 443793.0 0
210905.0 443591.0 0
214840.0 446103.0 0
285160.0 446103.0 0
289095.0 443591.0 0
296749.0 443793.0 0
304483.0 443792.0 0
312210.0 443753.0 0
319944.0 443798.0 0
323804.0 444483.0 0
327507.0 445597.0 0
331304.0 446630.0 0
337908.0 444347.0 0
341832.0 444902.0 0
345730.0 445329.0 0
349677.0 445738.0 0
353987.0 445825.0 0
357828.0 446085.0 0
361749.0 446380.0 0
365628.0 446370.0 0
369337.0 446687.0 0
372624.0 444938.0 0
375923.0 447074.0 0
379345.0 445459.0 0
386079.0 446039.0 0
392936.0 446803.0 0
396275.0 445039.0 0
399884.0 447084.0 0
403453.0 445387.0 0
410573.0 446458.0 0
84514.4 449530.0 0
92892.1 448335.0 0
96758.3 449181.0 0
103639.0 448864.0 0
110588.0 448210.0 0
117336.0 447643.0 0
120756.0 449244.0 0
127512.0 448759.0 0
144316.0 449218.0 0
148259.0 448912.0 0
152469.0 448728.0 0
156425.0 448361.0 0
160383.0 447924.0 0
164326.0 447438.0 0
177478.0 448200.0 0
181295.0 447548.0 0
185099.0 446690.0 0
188875.0 447562.0 0
192631.0 446553.0 0
196307.0 447706.0 0
200021.0 446468.0 0
203710.0 447723.0 0
207394.0 446338.0 0
211139.0 447547.0 0
218641.0 447247.0 0
222414.0 446077.0 0
226344.0 446490.0 0
230275.0 446148.0 0
234220.0 446279.0 0
238165.0 446182.0 0
242110.0 446262.0 0
246055.0 446182.0 0
250000.0 446254.0 0
253945.0 446182.0 0
257890.0 446262.0 0
261835.0 446182.0 0
265780.0 446279.0 0
269725.0 446148.0 0
273656.0 446490.0 0
277586.0 446077.0 0
281359.0 447247.0 0
288861.0 447547.0 0
292606.0 446338.0 0
296290.0 447723.0 0
299979.0 446468.0 0
303693.0 447706.0 0
307369.0 446553.0 0
311125.0 447562.0 0
314901.0 446690.0 0
318705.0 447548.0 0
322522.0 448200.0 0
335674.0 447438.0 0
339617.0 447924.0 0
343575.0 448361.0 0
347531.0 448728.0 0
351741.0 448912.0 0
355684.0 449218.0 0
372488.0 448759.0 0
379244.0 449244.0 0
382664.0 447643.0 0
389412.0 448210.0 0
396361.0 448864.0 0
403242.0 449181.0 0
407108.0 448335.0 0
415486.0 449530.0 0
88352.4 450238.0 0
91718.3 452177.0 0
100283.0 450928.0 0
107096.0 450687.0 0
110729.0 452011.0 0
114042.0 449843.0 0
117514.0 451466.0 0
124155.0 450846.0 0
127509.0 452443.0 0
132541.0 449904.0 0
136419.0 449679.0 0
140382.0 449473.0 0
150484.0 452025.0 0
154566.0 451795.0 0
158513.0 451449.0 0
162402.0 451105.0 0
166236.0 450722.0 0
170023.0 450221.0 0
173735.0 449253.0 0
183966.0 450465.0 0
191669.0 450371.0 0
199221.0 450338.0 0
206726.0 450259.0 0
214212.0 450031.0 0
218025.0 451102.0 0
221917.0 450061.0 0
225897.0 450422.0 0
229990.0 450198.0 0
233989.0 450261.0 0
237993.0 450201.0 0
241993.0 450252.0 0
245999.0 450193.0 0
250000.0 450246.0 0
254001.0 450193.0 0
258007.0 450252.0 0
262007.0 450201.0 0
266011.0 450261.0 0
270010.0 450198.0 0
274103.0 450422.0 0
278083.0 450061.0 0
281975.0 451102.0 0
285788.0 450031.0 0
293274.0 450259.0 0
300779.0 450338.0 0
308331.0 450371.0 0
316034.0 450465.0 0
326265.0 449253.0 0
329977.0 450221.0 0
333764.0 450722.0 0
337598.0 451105.0 0
341487.0 451449.0 0
345434.0 451795.0 0
349516.0 452025.0 0
359618.0 449473.0 0
363581.0 449679.0 0
367459.0 449904.0 0
372491.0 452443.0 0
375845.0 450846.0 0
382486.0 451466.0 0
385958.0 449843.0 0
389271.0 452011.0 0
392904.0 450687.0 0
399717.0 450928.0 0
408282.0 452177.0 0
411648.0 450238.0 0
95536.5 452821.0 0
98997.8 454563.0 0
103757.0 452784.0 0
107260.0 454645.0 0
114277.0 453679.0 0
120982.0 453091.0 0
124498.0 454703.0 0
130946.0 453407.0 0
134711.0 453126.0 0
138602.0 452847.0 0
142552.0 452603.0 0
146516.0 452326.0 0
164546.0 454292.0 0
168495.0 453857.0 0
172618.0 453087.0 0
176439.0 452029.0 0
180374.0 452121.0 0
187843.0 451366.0 0
195448.0 451592.0 0
202972.0 451600.0 0
210499.0 451467.0 0
289501.0 451467.0 0
297028.0 451600.0 0
304552.0 451592.0 0
312157.0 451366.0 0
319626.0 452121.0 0
323561.0 452029.0 0
327382.0 453087.0 0
331505.0 453857.0 0
335454.0 454292.0 0
353484.0 452326.0 0
357448.0 452603.0 0
361398.0 452847.0 0
365289.0 453126.0 0
369054.0 453407.0 0
375502.0 454703.0 0
379018.0 453091.0 0
385723.0 453679.0 0
392740.0 454645.0 0
396243.0 452784.0 0
401002.0 454563.0 0
404463.0 452821.0 0
95059.0 456705.0 0
102392.0 456458.0 0
111061.0 455807.0 0
117769.0 455329.0 0
121335.0 456940.0 0
128163.0 456248.0 0
132832.0 456634.0 0
136800.0 456280.0 0
140760.0 456000.0 0
144728.0 455742.0 0
148698.0 455466.0 0
152670.0 455185.0 0
156661.0 454931.0 0
160609.0 454624.0 0
174229.0 456640.0 0
177916.0 455646.0 0
181709.0 455875.0 0
185162.0 454218.0 0
188791.0 455629.0 0
192466.0 454223.0 0
196198.0 455510.0 0
199940.0 454198.0 0
203685.0 455479.0 0
207427.0 454152.0 0
211197.0 455367.0 0
214899.0 453941.0 0
218735.0 454945.0 0
222552.0 453999.0 0
226468.0 454351.0 0
230389.0 454176.0 0
234312.0 454241.0 0
238235.0 454193.0 0
242157.0 454242.0 0
246079.0 454191.0 0
250000.0 454240.0 0
253921.0 454191.0 0
257843.0 454242.0 0
261765.0 454193.0 0
265688.0 454241.0 0
269611.0 454176.0 0
273532.0 454351.0 0
277448.0 453999.0 0
281265.0 454945.0 0
285101.0 453941.0 0
288803.0 455367.0 0
292573.0 454152.0 0
296315.0 455479.0 0
300060.0 454198.0 0
303802.0 455510.0 0
307534.0 454223.0 0
311209.0 455629.0 0
314838.0 454218.0 0
318291.0 455875.0 0
322084.0 455646.0 0
325771.0 456640.0 0
339391.0 454624.0 0
343339.0 454931.0 0
347330.0 455185.0 0
351302.0 455466.0 0
355272.0 455742.0 0
359240.0 456000.0 0
363200.0 456280.0 0
367168.0 456634.0 0
371837.0 456248.0 0
378665.0 456940.0 0
382231.0 455329.0 0
388939.0 455807.0 0
397608.0 456458.0 0
404941.0 456705.0 0
98639.0 458439.0 0
104978.0 459330.0 0
108760.0 458770.0 0
114546.0 457616.0 0
118214.0 459172.0 0
124897.0 458479.0 0
138975.0 459419.0 0
142930.0 459169.0 0
146891.0 458915.0 0
150853.0 458650.0 0
154815.0 458387.0 0
158778.0 458124.0 0
162716.0 457830.0 0
166613.0 457528.0 0
170453.0 457171.0 0
176659.0 459716.0 0
184380.0 458754.0 0
191854.0 458141.0 0
199238.0 458087.0 0
206697.0 458065.0 0
210459.0 459260.0 0
214210.0 457966.0 0
218085.0 458791.0 0
222028.0 458183.0 0
226019.0 458298.0 0
230015.0 458207.0 0
234012.0 458223.0 0
238009.0 458207.0 0
242006.0 458232.0 0
246003.0 458204.0 0
250000.0 458234.0 0
253997.0 458204.0 0
257994.0 458232.0 0
261991.0 458207.0 0
265988.0 458223.0 0
269985.0 458207.0 0
273981.0 458298.0 0
277972.0 458183.0 0
281915.0 458791.0 0
285790.0 457966.0 0
289541.0 459260.0 0
293303.0 458065.0 0
300762.0 458087.0 0
308146.0 458141.0 0
315620.0 458754.0 0
323341.0 459716.0 0
329547.0 457171.0 0
333387.0 457528.0 0
337284.0 457830.0 0
341222.0 458124.0 0
345185.0 458387.0 0
349147.0 458650.0 0
353109.0 458915.0 0
357070.0 459169.0 0
361025.0 459419.0 0
375103.0 458479.0 0
381786.0 459172.0 0
385454.0 457616.0 0
391240.0 458770.0 0
395022.0 459330.0 0
401361.0 458439.0 0
95347.4 460648.0 0
101508.0 461081.0 0
107401.0 462440.0 0
111365.0 461657.0 0
115249.0 461479.0 0
121742.0 460850.0 0
126882.0 461674.0 0
130192.0 459564.0 0
135018.0 459711.0 0
149034.0 462128.0 0
152996.0 461872.0 0
156962.0 461614.0 0
160927.0 461352.0 0
164878.0 461075.0 0
168820.0 460760.0 0
172760.0 460338.0 0
180557.0 459666.0 0
188187.0 459552.0 0
195552.0 459438.0 0
202962.0 459363.0 0
297038.0 459363.0 0
304448.0 459438.0 0
311813.0 459552.0 0
319443.0 459666.0 0
327240.0 460338.0 0
331180.0 460760.0 0
335122.0 461075.0 0
339073.0 461352.0 0
343038.0 461614.0 0
347004.0 461872.0 0
350966.0 462128.0 0
364982.0 459711.0 0
369808.0 459564.0 0
373118.0 461674.0 0
378258.0 460850.0 0
384751.0 461479.0 0
388635.0 461657.0 0
392599.0 462440.0 0
398492.0 461081.0 0
404653.0 460648.0 0
95942.5 464568.0 0
99927.9 464680.0 0
103897.0 464237.0 0
113941.0 465056.0 0
118777.0 463513.0 0
123562.0 464294.0 0
132555.0 462678.0 0
137168.0 462835.0 0
141120.0 462611.0 0
145075.0 462376.0 0
163106.0 464604.0 0
167090.0 464319.0 0
171104.0 463950.0 0
175224.0 463426.0 0
179190.0 463401.0 0
183117.0 462701.0 0
187039.0 463341.0 0
191101.0 462222.0 0
194913.0 463324.0 0
198778.0 462056.0 0
202645.0 463277.0 0
206579.0 462059.0 0
210494.0 463205.0 0
214309.0 462045.0 0
218246.0 462700.0 0
222191.0 462178.0 0
226168.0 462275.0 0
230142.0 462207.0 0
234116.0 462218.0 0
238088.0 462206.0 0
242059.0 462227.0 0
246030.0 462204.0 0
250000.0 462229.0 0
253970.0 462204.0 0
257941.0 462227.0 0
261912.0 462206.0 0
265884.0 462218.0 0
269858.0 462207.0 0
273832.0 462275.0 0
277809.0 462178.0 0
281754.0 462700.0 0
285691.0 462045.0 0
289506.0 463205.0 0
293421.0 462059.0 0
297355.0 463277.0 0
301222.0 462056.0 0
305087.0 463324.0 0
308899.0 462222.0 0
312961.0 463341.0 0
316883.0 462701.0 0
320810.0 463401.0 0
324776.0 463426.0 0
328896.0 463950.0 0
332910.0 464319.0 0
336894.0 464604.0 0
354925.0 462376.0 0
358880.0 462611.0 0
362832.0 462835.0 0
367445.0 462678.0 0
376438.0 464294.0 0
381223.0 463513.0 0
386059.0 465056.0 0
396103.0 464237.0 0
400072.0 464680.0 0
404058.0 464568.0 0
110013.0 465333.0 0
127327.0 465417.0 0
131121.0 466240.0 0
135043.0 466042.0 0
139259.0 466047.0 0
143234.0 465843.0 0
147201.0 465615.0 0
151170.0 465368.0 0
155143.0 465115.0 0
159122.0 464860.0 0
173559.0 467030.0 0
181742.0 466458.0 0
189615.0 466375.0 0
197476.0 466345.0 0
201396.0 467023.0 0
205318.0 466226.0 0
209240.0 466950.0 0
213806.0 466128.0 0
217769.0 466599.0 0
221994.0 466198.0 0
225993.0 466257.0 0
229999.0 466207.0 0
233999.0 466214.0 0
237999.0 466207.0 0
241999.0 466222.0 0
246000.0 466205.0 0
250000.0 466224.0 0
254000.0 466205.0 0
258001.0 466222.0 0
262001.0 466207.0 0
266001.0 466214.0 0
270001.0 466207.0 0
274007.0 466257.0 0
278006.0 466198.0 0
282231.0 466599.0 0
286194.0 466128.0 0
290760.0 466950.0 0
294682.0 466226.0 0
298604.0 467023.0 0
302524.0 466345.0 0
310385.0 466375.0 0
318258.0 466458.0 0
326441.0 467030.0 0
340878.0 464860.0 0
344857.0 465115.0 0
348830.0 465368.0 0
352799.0 465615.0 0
356766.0 465843.0 0
360741.0 466047.0 0
364957.0 466042.0 0
368879.0 466240.0 0
372673.0 465417.0 0
389987.0 465333.0 0
98441.3 468356.0 0
103102.0 468106.0 0
107069.0 467898.0 0
112230.0 468547.0 0
116804.0 467754.0 0
120701.0 467040.0 0
124527.0 468152.0 0
128475.0 469102.0 0
133232.0 469522.0 0
137195.0 469357.0 0
141354.0 469295.0 0
145345.0 469108.0 0
149331.0 468874.0 0
153313.0 468626.0 0
157297.0 468373.0 0
161286.0 468122.0 0
165303.0 467865.0 0
169368.0 467537.0 0
177556.0 467049.0 0
185686.0 467081.0 0
193542.0 467046.0 0
306458.0 467046.0 0
314314.0 467081.0 0
322444.0 467049.0 0
330632.0 467537.0 0
334697.0 467865.0 0
338714.0 468122.0 0
342703.0 468373.0 0
346687.0 468626.0 0
350669.0 468874.0 0
354655.0 469108.0 0
358646.0 469295.0 0
362805.0 469357.0 0
366768.0 469522.0 0
371525.0 469102.0 0
375473.0 468152.0 0
379299.0 467040.0 0
383196.0 467754.0 0
387770.0 468547.0 0
392931.0 467898.0 0
396898.0 468106.0 0
401559.0 468356.0 0
100974.0 471442.0 0
105359.0 471447.0 0
109331.0 471207.0 0
114429.0 471738.0 0
118377.0 471397.0 0
122322.0 471406.0 0
126204.0 472232.0 0
143432.0 472577.0 0
147481.0 472383.0 0
151478.0 472148.0 0
155467.0 471899.0 0
159457.0 471647.0 0
163469.0 471394.0 0
167464.0 471176.0 0
171432.0 470917.0 0
175373.0 470538.0 0
179300.0 470798.0 0
183195.0 470181.0 0
187106.0 470819.0 0
191010.0 470120.0 0
194936.0 470779.0 0
198850.0 470090.0 0
202776.0 470746.0 0
206667.0 469987.0 0
210583.0 470688.0 0
214496.0 470065.0 0
218436.0 470484.0 0
222371.0 470178.0 0
226317.0 470235.0 0
230263.0 470209.0 0
234210.0 470209.0 0
238158.0 470207.0 0
242105.0 470218.0 0
246052.0 470205.0 0
250000.0 470221.0 0
253948.0 470205.0 0
257895.0 470218.0 0
261842.0 470207.0 0
265790.0 470209.0 0
269737.0 470209.0 0
273683.0 470235.0 0
277629.0 470178.0 0
281564.0 470484.0 0
285504.0 470065.0 0
289417.0 470688.0 0
293333.0 469987.0 0
297224.0 470746.0 0
301150.0 470090.0 0
305064.0 470779.0 0
308990.0 470120.0 0
312894.0 470819.0 0
316805.0 470181.0 0
320700.0 470798.0 0
324627.0 470538.0 0
328568.0 470917.0 0
332536.0 471176.0 0
336531.0 471394.0 0
340543.0 471647.0 0
344533.0 471899.0 0
348522.0 472148.0 0
352519.0 472383.0 0
356568.0 472577.0 0
373796.0 472232.0 0
377678.0 471406.0 0
381623.0 471397.0 0
385571.0 471738.0 0
390669.0 471207.0 0
394641.0 471447.0 0
399026.0 471442.0 0
104011.0 475152.0 0
108126.0 474994.0 0
116618.0 474983.0 0
130581.0 472398.0 0
135331.0 472831.0 0
139321.0 472667.0 0
161634.0 474932.0 0
165625.0 474707.0 0
169726.0 474522.0 0
173731.0 474167.0 0
177732.0 474475.0 0
181718.0 474146.0 0
185694.0 474556.0 0
189672.0 474161.0 0
193649.0 474551.0 0
197632.0 474177.0 0
201610.0 474545.0 0
205663.0 474188.0 0
209641.0 474543.0 0
213919.0 474193.0 0
217909.0 474396.0 0
221999.0 474206.0 0
225999.0 474216.0 0
230000.0 474207.0 0
234000.0 474207.0 0
238000.0 474207.0 0
242000.0 474214.0 0
246000.0 474207.0 0
250000.0 474218.0 0
254000.0 474207.0 0
258000.0 474214.0 0
262000.0 474207.0 0
266000.0 474207.0 0
270000.0 474207.0 0
274001.0 474216.0 0
278001.0 474206.0 0
282091.0 474396.0 0
286081.0 474193.0 0
290359.0 474543.0 0
294337.0 474188.0 0
298390.0 474545.0 0
302368.0 474177.0 0
306351.0 474551.0 0
310328.0 474161.0 0
314306.0 474556.0 0
318282.0 474146.0 0
322268.0 474475.0 0
326269.0 474167.0 0
330274.0 474522.0 0
334375.0 474707.0 0
338366.0 474932.0 0
360679.0 472667.0 0
364669.0 472831.0 0
369419.0 472398.0 0
383382.0 474983.0 0
391874.0 474994.0 0
395989.0 475152.0 0
99970.1 475286.0 0
112232.0 475055.0 0
120594.0 474982.0 0
124505.0 475736.0 0
128483.0 475706.0 0
132667.0 475749.0 0
137429.0 476142.0 0
141416.0 476001.0 0
145542.0 475859.0 0
149625.0 475665.0 0
153643.0 475440.0 0
157634.0 475188.0 0
342366.0 475188.0 0
346357.0 475440.0 0
350375.0 475665.0 0
354458.0 475859.0 0
358584.0 476001.0 0
362571.0 476142.0 0
367333.0 475749.0 0
371517.0 475706.0 0
375495.0 475736.0 0
379406.0 474982.0 0
387768.0 475055.0 0
400030.0 475286.0 0
102130.0 478641.0 0
106141.0 478525.0 0
110135.0 478447.0 0
114130.0 478575.0 0
118121.0 478623.0 0
122075.0 478801.0 0
126557.0 479154.0 0
130568.0 479105.0 0
134793.0 479105.0 0
139338.0 479573.0 0
143338.0 479433.0 0
147330.0 479336.0 0
151305.0 479214.0 0
155266.0 479049.0 0
159207.0 478815.0 0
163128.0 478595.0 0
167037.0 478409.0 0
170944.0 478431.0 0
174838.0 477996.0 0
178741.0 478437.0 0
182657.0 478032.0 0
186580.0 478456.0 0
190513.0 478070.0 0
194452.0 478460.0 0
198396.0 478102.0 0
202346.0 478460.0 0
206299.0 478136.0 0
210257.0 478466.0 0
214215.0 478181.0 0
218184.0 478345.0 0
222152.0 478203.0 0
226126.0 478211.0 0
230101.0 478208.0 0
234079.0 478208.0 0
238058.0 478207.0 0
242038.0 478212.0 0
246019.0 478207.0 0
250000.0 478216.0 0
253981.0 478207.0 0
257962.0 478212.0 0
261942.0 478207.0 0
265921.0 478208.0 0
269899.0 478208.0 0
273874.0 478211.0 0
277848.0 478203.0 0
281816.0 478345.0 0
285785.0 478181.0 0
289743.0 478466.0 0
293701.0 478136.0 0
297654.0 478460.0 0
301604.0 478102.0 0
305548.0 478460.0 0
309487.0 478070.0 0
313420.0 478456.0 0
317343.0 478032.0 0
321259.0 478437.0 0
325162.0 477996.0 0
329056.0 478431.0 0
332963.0 478409.0 0
336872.0 478595.0 0
340793.0 478815.0 0
344734.0 479049.0 0
348695.0 479214.0 0
352670.0 479336.0 0
356662.0 479433.0 0
360662.0 479573.0 0
365207.0 479105.0 0
369432.0 479105.0 0
373443.0 479154.0 0
377925.0 478801.0 0
381879.0 478623.0 0
385870.0 478575.0 0
389865.0 478447.0 0
393859.0 478525.0 0
397870.0 478641.0 0
101342.0 482535.0 0
105338.0 482442.0 0
109322.0 482380.0 0
117253.0 482486.0 0
121214.0 482655.0 0
153409.0 482570.0 0
157550.0 482431.0 0
161866.0 482366.0 0
165951.0 482243.0 0
169954.0 482303.0 0
173953.0 482200.0 0
177949.0 482348.0 0
181945.0 482200.0 0
185939.0 482393.0 0
189944.0 482202.0 0
193938.0 482411.0 0
197948.0 482203.0 0
201941.0 482419.0 0
205955.0 482205.0 0
209948.0 482423.0 0
213990.0 482206.0 0
217988.0 482305.0 0
222000.0 482207.0 0
226000.0 482208.0 0
230000.0 482207.0 0
234000.0 482207.0 0
238000.0 482207.0 0
242000.0 482210.0 0
246000.0 482207.0 0
250000.0 482214.0 0
254000.0 482207.0 0
258000.0 482210.0 0
262000.0 482207.0 0
266000.0 482207.0 0
270000.0 482207.0 0
274000.0 482208.0 0
278000.0 482207.0 0
282012.0 482305.0 0
286010.0 482206.0 0
290052.0 482423.0 0
294045.0 482205.0 0
298059.0 482419.0 0
302052.0 482203.0 0
306062.0 482411.0 0
310056.0 482202.0 0
314061.0 482393.0 0
318055.0 482200.0 0
322051.0 482348.0 0
326047.0 482200.0 0
330046.0 482303.0 0
334049.0 482243.0 0
338134.0 482366.0 0
342450.0 482431.0 0
346591.0 482570.0 0
378786.0 482655.0 0
382747.0 482486.0 0
390678.0 482380.0 0
394662.0 482442.0 0
398658.0 482535.0 0
113292.0 482505.0 0
125183.0 482865.0 0
129173.0 482819.0 0
133168.0 482731.0 0
137180.0 482938.0 0
141405.0 482924.0 0
145395.0 482809.0 0
149391.0 482702.0 0
350609.0 482702.0 0
354605.0 482809.0 0
358595.0 482924.0 0
362820.0 482938.0 0
366832.0 482731.0 0
370827.0 482819.0 0
374817.0 482865.0 0
386708.0 482505.0 0
102036.0 486455.0 0
106034.0 486382.0 0
110033.0 486359.0 0
114063.0 486429.0 0
118114.0 486366.0 0
122229.0 486488.0 0
126341.0 486660.0 0
130336.0 486625.0 0
134332.0 486546.0 0
138330.0 486764.0 0
142344.0 486756.0 0
146331.0 486646.0 0
150309.0 486539.0 0
154277.0 486441.0 0
158243.0 486356.0 0
162213.0 486335.0 0
166186.0 486227.0 0
170163.0 486294.0 0
174143.0 486195.0 0
178125.0 486337.0 0
182109.0 486196.0 0
186094.0 486378.0 0
190080.0 486199.0 0
194068.0 486394.0 0
198056.0 486202.0 0
202046.0 486398.0 0
206036.0 486204.0 0
210027.0 486392.0 0
214019.0 486206.0 0
218015.0 486278.0 0
222011.0 486207.0 0
226009.0 486207.0 0
230007.0 486207.0 0
234005.0 486207.0 0
238004.0 486207.0 0
242002.0 486209.0 0
246001.0 486207.0 0
250000.0 486213.0 0
253999.0 486207.0 0
257998.0 486209.0 0
261996.0 486207.0 0
265995.0 486207.0 0
269993.0 486207.0 0
273991.0 486207.0 0
277989.0 486207.0 0
281985.0 486278.0 0
285981.0 486206.0 0
289973.0 486392.0 0
293964.0 486204.0 0
297954.0 486398.0 0
301944.0 486202.0 0
305932.0 486394.0 0
309920.0 486199.0 0
313906.0 486378.0 0
317891.0 486196.0 0
321875.0 486337.0 0
325857.0 486195.0 0
329837.0 486294.0 0
333814.0 486227.0 0
337787.0 486335.0 0
341757.0 486356.0 0
345723.0 486441.0 0
349691.0 486539.0 0
353669.0 486646.0 0
357656.0 486756.0 0
361670.0 486764.0 0
365668.0 486546.0 0
369664.0 486625.0 0
373659.0 486660.0 0
377771.0 486488.0 0
381886.0 486366.0 0
385937.0 486429.0 0
389967.0 486359.0 0
393966.0 486382.0 0
397964.0 486455.0 0
165996.0 490223.0 0
169996.0 490287.0 0
173996.0 490207.0 0
181996.0 490207.0 0
189998.0 490207.0 0
197999.0 490207.0 0
206000.0 490207.0 0
214000.0 490207.0 0
218000.0 490258.0 0
222000.0 490207.0 0
226000.0 490207.0 0
230000.0 490207.0 0
234000.0 490207.0 0
238000.0 490207.0 0
242000.0 490209.0 0
246000.0 490207.0 0
250000.0 490211.0 0
254000.0 490207.0 0
258000.0 490209.0 0
262000.0 490207.0 0
266000.0 490207.0 0
270000.0 490207.0 0
274000.0 490207.0 0
278000.0 490207.0 0
282000.0 490258.0 0
286000.0 490207.0 0
294000.0 490207.0 0
302001.0 490207.0 0
310002.0 490207.0 0
318004.0 490207.0 0
326004.0 490207.0 0
330004.0 490287.0 0
334004.0 490223.0 0
101942.0 490441.0 0
105940.0 490380.0 0
109936.0 490358.0 0
113931.0 490424.0 0
117922.0 490340.0 0
121913.0 490446.0 0
125902.0 490606.0 0
129896.0 490582.0 0
133890.0 490512.0 0
137877.0 490727.0 0
141869.0 490681.0 0
145864.0 490577.0 0
149894.0 490474.0 0
153942.0 490406.0 0
157962.0 490334.0 0
161988.0 490316.0 0
177994.0 490327.0 0
185992.0 490364.0 0
193994.0 490378.0 0
201995.0 490379.0 0
209997.0 490365.0 0
290003.0 490365.0 0
298005.0 490379.0 0
306006.0 490378.0 0
314008.0 490364.0 0
322006.0 490327.0 0
338012.0 490316.0 0
342038.0 490334.0 0
346058.0 490406.0 0
350106.0 490474.0 0
354136.0 490577.0 0
358131.0 490681.0 0
362123.0 490727.0 0
366110.0 490512.0 0
370104.0 490582.0 0
374098.0 490606.0 0
378087.0 490446.0 0
382078.0 490340.0 0
386069.0 490424.0 0
390064.0 490358.0 0
394060.0 490380.0 0
398058.0 490441.0 0
102003.0 494430.0 0
106002.0 494377.0 0
110002.0 494356.0 0
114006.0 494417.0 0
118005.0 494324.0 0
122010.0 494421.0 0
126030.0 494574.0 0
130030.0 494562.0 0
134029.0 494500.0 0
138037.0 494707.0 0
142036.0 494636.0 0
146033.0 494538.0 0
150029.0 494437.0 0
154026.0 494391.0 0
158022.0 494321.0 0
162020.0 494306.0 0
166017.0 494223.0 0
170015.0 494283.0 0
174013.0 494207.0 0
178010.0 494319.0 0
182008.0 494207.0 0
186005.0 494351.0 0
190002.0 494207.0 0
194001.0 494363.0 0
198000.0 494207.0 0
202000.0 494361.0 0
206000.0 494207.0 0
210000.0 494340.0 0
214000.0 494207.0 0
218000.0 494243.0 0
222000.0 494207.0 0
226000.0 494207.0 0
230000.0 494207.0 0
234000.0 494207.0 0
238000.0 494207.0 0
242000.0 494208.0 0
246000.0 494207.0 0
250000.0 494210.0 0
254000.0 494207.0 0
258000.0 494208.0 0
262000.0 494207.0 0
266000.0 494207.0 0
270000.0 494207.0 0
274000.0 494207.0 0
278000.0 494207.0 0
282000.0 494243.0 0
286000.0 494207.0 0
290000.0 494340.0 0
294000.0 494207.0 0
298000.0 494361.0 0
302000.0 494207.0 0
305999.0 494363.0 0
309998.0 494207.0 0
313995.0 494351.0 0
317992.0 494207.0 0
321990.0 494319.0 0
325987.0 494207.0 0
329985.0 494283.0 0
333983.0 494223.0 0
337980.0 494306.0 0
341978.0 494321.0 0
345974.0 494391.0 0
349971.0 494437.0 0
353967.0 494538.0 0
357964.0 494636.0 0
361963.0 494707.0 0
365971.0 494500.0 0
369970.0 494562.0 0
373970.0 494574.0 0
377990.0 494421.0 0
381995.0 494324.0 0
385994.0 494417.0 0
389998.0 494356.0 0
393998.0 494377.0 0
397997.0 494430.0 0
101999.0 498421.0 0
105998.0 498374.0 0
109998.0 498355.0 0
113997.0 498409.0 0
117995.0 498312.0 0
121993.0 498400.0 0
125990.0 498545.0 0
129989.0 498545.0 0
133988.0 498492.0 0
137983.0 498684.0 0
141981.0 498598.0 0
145989.0 498507.0 0
149994.0 498410.0 0
153996.0 498379.0 0
157998.0 498310.0 0
161999.0 498298.0 0
166000.0 498223.0 0
170000.0 498280.0 0
174000.0 498207.0 0
178000.0 498312.0 0
182000.0 498207.0 0
186000.0 498339.0 0
190000.0 498207.0 0
194000.0 498349.0 0
198000.0 498207.0 0
202000.0 498345.0 0
206000.0 498207.0 0
210000.0 498318.0 0
214000.0 498207.0 0
218000.0 498232.0 0
222000.0 498207.0 0
226000.0 498207.0 0
230000.0 498207.0 0
234000.0 498207.0 0
238000.0 498207.0 0
242000.0 498208.0 0
246000.0 498207.0 0
250000.0 498210.0 0
254000.0 498207.0 0
258000.0 498208.0 0
262000.0 498207.0 0
266000.0 498207.0 0
270000.0 498207.0 0
274000.0 498207.0 0
278000.0 498207.0 0
282000.0 498232.0 0
286000.0 498207.0 0
290000.0 498318.0 0
294000.0 498207.0 0
298000.0 498345.0 0
302000.0 498207.0 0
306000.0 498349.0 0
310000.0 498207.0 0
314000.0 498339.0 0
318000.0 498207.0 0
322000.0 498312.0 0
326000.0 498207.0 0
330000.0 498280.0 0
334000.0 498223.0 0
338001.0 498298.0 0
342002.0 498310.0 0
346004.0 498379.0 0
350006.0 498410.0 0
354011.0 498507.0 0
358019.0 498598.0 0
362017.0 498684.0 0
366012.0 498492.0 0
370011.0 498545.0 0
374010.0 498545.0 0
378007.0 498400.0 0
382005.0 498312.0 0
386003.0 498409.0 0
390002.0 498355.0 0
394002.0 498374.0 0
398001.0 498421.0 0
102000.0 502412.0 0
106000.0 502371.0 0
110000.0 502353.0 0
114000.0 502399.0 0
118000.0 502303.0 0
122000.0 502383.0 0
126003.0 502517.0 0
130003.0 502527.0 0
134002.0 502483.0 0
138007.0 502659.0 0
142005.0 502564.0 0
146004.0 502481.0 0
150003.0 502388.0 0
154002.0 502367.0 0
158002.0 502299.0 0
162001.0 502291.0 0
166001.0 502222.0 0
170000.0 502276.0 0
174000.0 502207.0 0
178000.0 502305.0 0
182000.0 502207.0 0
186000.0 502327.0 0
190000.0 502207.0 0
194000.0 502335.0 0
198000.0 502207.0 0
202000.0 502329.0 0
206000.0 502207.0 0
210000.0 502299.0 0
214000.0 502207.0 0
218000.0 502224.0 0
222000.0 502207.0 0
226000.0 502207.0 0
230000.0 502207.0 0
234000.0 502207.0 0
238000.0 502207.0 0
242000.0 502208.0 0
246000.0 502207.0 0
250000.0 502209.0 0
254000.0 502207.0 0
258000.0 502208.0 0
262000.0 502207.0 0
266000.0 502207.0 0
270000.0 502207.0 0
274000.0 502207.0 0
278000.0 502207.0 0
282000.0 502224.0 0
286000.0 502207.0 0
290000.0 502299.0 0
294000.0 502207.0 0
298000.0 502329.0 0
302000.0 502207.0 0
306000.0 502335.0 0
310000.0 502207.0 0
314000.0 502327.0 0
318000.0 502207.0 0
322000.0 502305.0 0
326000.0 502207.0 0
330000.0 502276.0 0
333999.0 502222.0 0
337999.0 502291.0 0
341998.0 502299.0 0
345998.0 502367.0 0
349997.0 502388.0 0
353996.0 502481.0 0
357995.0 502564.0 0
361993.0 502659.0 0
365998.0 502483.0 0
369997.0 502527.0 0
373997.0 502517.0 0
378000.0 502383.0 0
382000.0 502303.0 0
386000.0 502399.0 0
390000.0 502353.0 0
394000.0 502371.0 0
398000.0 502412.0 0
102000.0 506403.0 0
106000.0 506368.0 0
110000.0 506351.0 0
114000.0 506389.0 0
118000.0 506296.0 0
122000.0 506369.0 0
125999.0 506491.0 0
129999.0 506511.0 0
133999.0 506474.0 0
137996.0 506632.0 0
141998.0 506533.0 0
145999.0 506457.0 0
150000.0 506371.0 0
154000.0 506356.0 0
158000.0 506290.0 0
162000.0 506286.0 0
166000.0 506222.0 0
170000.0 506273.0 0
174000.0 506207.0 0
178000.0 506298.0 0
182000.0 506207.0 0
186000.0 506316.0 0
190000.0 506207.0 0
194000.0 506323.0 0
198000.0 506207.0 0
202000.0 506315.0 0
206000.0 506207.0 0
210000.0 506282.0 0
214000.0 506207.0 0
218000.0 506218.0 0
222000.0 506207.0 0
226000.0 506207.0 0
230000.0 506207.0 0
234000.0 506207.0 0
238000.0 506207.0 0
242000.0 506207.0 0
246000.0 506207.0 0
250000.0 506209.0 0
254000.0 506207.0 0
258000.0 506207.0 0
262000.0 506207.0 0
266000.0 506207.0 0
270000.0 506207.0 0
274000.0 506207.0 0
278000.0 506207.0 0
282000.0 506218.0 0
286000.0 506207.0 0
290000.0 506282.0 0
294000.0 506207.0 0
298000.0 506315.0 0
302000.0 506207.0 0
306000.0 506323.0 0
310000.0 506207.0 0
314000.0 506316.0 0
318000.0 506207.0 0
322000.0 506298.0 0
326000.0 506207.0 0
330000.0 506273.0 0
334000.0 506222.0 0
338000.0 506286.0 0
342000.0 506290.0 0
346000.0 506356.0 0
350000.0 506371.0 0
354001.0 506457.0 0
358002.0 506533.0 0
362004.0 506632.0 0
366001.0 506474.0 0
370001.0 506511.0 0
374001.0 506491.0 0
378000.0 506369.0 0
382000.0 506296.0 0
386000.0 506389.0 0
390000.0 506351.0 0
394000.0 506368.0 0
398000.0 506403.0 0
102000.0 510394.0 0
106000.0 510364.0 0
110000.0 510348.0 0
114000.0 510378.0 0
118000.0 510292.0 0
122000.0 510357.0 0
126000.0 510467.0 0
130000.0 510495.0 0
134000.0 510464.0 0
138001.0 510604.0 0
142000.0 510505.0 0
146000.0 510437.0 0
150000.0 510355.0 0
154000.0 510345.0 0
158000.0 510281.0 0
162000.0 510282.0 0
166000.0 510221.0 0
170000.0 510269.0 0
174000.0 510207.0 0
178000.0 510291.0 0
182000.0 510207.0 0
186000.0 510306.0 0
190000.0 510207.0 0
194000.0 510311.0 0
198000.0 510207.0 0
202000.0 510301.0 0
206000.0 510207.0 0
210000.0 510268.0 0
214000.0 510207.0 0
218000.0 510214.0 0
222000.0 510207.0 0
226000.0 510207.0 0
230000.0 510207.0 0
234000.0 510207.0 0
238000.0 510207.0 0
242000.0 510207.0 0
246000.0 510207.0 0
250000.0 510208.0 0
254000.0 510207.0 0
258000.0 510207.0 0
262000.0 510207.0 0
266000.0 510207.0 0
270000.0 510207.0 0
274000.0 510207.0 0
278000.0 510207.0 0
282000.0 510214.0 0
286000.0 510207.0 0
290000.0 510268.0 0
294000.0 510207.0 0
298000.0 510301.0 0
302000.0 510207.0 0
306000.0 510311.0 0
310000.0 510207.0 0
314000.0 510306.0 0
318000.0 510207.0 0
322000.0 510291.0 0
326000.0 510207.0 0
330000.0 510269.0 0
334000.0 510221.0 0
338000.0 510282.0 0
342000.0 510281.0 0
346000.0 510345.0 0
350000.0 510355.0 0
354000.0 510437.0 0
358000.0 510505.0 0
361999.0 510604.0 0
366000.0 510464.0 0
370000.0 510495.0 0
374000.0 510467.0 0
378000.0 510357.0 0
382000.0 510292.0 0
386000.0 510378.0 0
390000.0 510348.0 0
394000.0 510364.0 0
398000.0 510394.0 0
102000.0 514385.0 0
106000.0 514360.0 0
110000.0 514345.0 0
114000.0 514367.0 0
118000.0 514288.0 0
122000.0 514348.0 0
126000.0 514445.0 0
130000.0 514480.0 0
134000.0 514454.0 0
138000.0 514575.0 0
142000.0 514479.0 0
146000.0 514418.0 0
150000.0 514342.0 0
154000.0 514335.0 0
158000.0 514273.0 0
162000.0 514278.0 0
166000.0 514220.0 0
170000.0 514266.0 0
174000.0 514207.0 0
178000.0 514285.0 0
182000.0 514207.0 0
186000.0 514297.0 0
190000.0 514207.0 0
194000.0 514301.0 0
198000.0 514207.0 0
202000.0 514289.0 0
206000.0 514207.0 0
210000.0 514256.0 0
214000.0 514207.0 0
218000.0 514212.0 0
222000.0 514207.0 0
226000.0 514207.0 0
230000.0 514207.0 0
234000.0 514207.0 0
238000.0 514207.0 0
242000.0 514207.0 0
246000.0 514207.0 0
250000.0 514208.0 0
254000.0 514207.0 0
258000.0 514207.0 0
262000.0 514207.0 0
266000.0 514207.0 0
270000.0 514207.0 0
274000.0 514207.0 0
278000.0 514207.0 0
282000.0 514212.0 0
286000.0 514207.0 0
290000.0 514256.0 0
294000.0 514207.0 0
298000.0 514289.0 0
302000.0 514207.0 0
306000.0 514301.0 0
310000.0 514207.0 0
314000.0 514297.0 0
318000.0 514207.0 0
322000.0 514285.0 0
326000.0 514207.0 0
330000.0 514266.0 0
334000.0 514220.0 0
338000.0 514278.0 0
342000.0 514273.0 0
346000.0 514335.0 0
350000.0 514342.0 0
354000.0 514418.0 0
358000.0 514479.0 0
362000.0 514575.0 0
366000.0 514454.0 0
370000.0 514480.0 0
374000.0 514445.0 0
378000.0 514348.0 0
382000.0 514288.0 0
386000.0 514367.0 0
390000.0 514345.0 0
394000.0 514360.0 0
398000.0 514385.0 0
102000.0 518377.0 0
106000.0 518357.0 0
110000.0 518342.0 0
114000.0 518356.0 0
118000.0 518285.0 0
122000.0 518340.0 0
126000.0 518425.0 0
130000.0 518465.0 0
134000.0 518443.0 0
138000.0 518547.0 0
142000.0 518454.0 0
146000.0 518401.0 0
150000.0 518330.0 0
154000.0 518325.0 0
158000.0 518266.0 0
162000.0 518274.0 0
166000.0 518219.0 0
170000.0 518263.0 0
174000.0 518207.0 0
178000.0 518279.0 0
182000.0 518207.0 0
186000.0 518288.0 0
190000.0 518207.0 0
194000.0 518291.0 0
198000.0 518207.0 0
202000.0 518278.0 0
206000.0 518207.0 0
210000.0 518246.0 0
214000.0 518207.0 0
218000.0 518210.0 0
222000.0 518207.0 0
226000.0 518207.0 0
230000.0 518207.0 0
234000.0 518207.0 0
238000.0 518207.0 0
242000.0 518207.0 0
246000.0 518207.0 0
250000.0 518208.0 0
254000.0 518207.0 0
258000.0 518207.0 0
262000.0 518207.0 0
266000.0 518207.0 0
270000.0 518207.0 0
274000.0 518207.0 0
278000.0 518207.0 0
282000.0 518210.0 0
286000.0 518207.0 0
290000.0 518246.0 0
294000.0 518207.0 0
298000.0 518278.0 0
302000.0 518207.0 0
306000.0 518291.0 0
310000.0 518207.0 0
314000.0 518288.0 0
318000.0 518207.0 0
322000.0 518279.0 0
326000.0 518207.0 0
330000.0 518263.0 0
334000.0 518219.0 0
338000.0 518274.0 0
342000.0 518266.0 0
346000.0 518325.0 0
350000.0 518330.0 0
354000.0 518401.0 0
358000.0 518454.0 0
362000.0 518547.0 0
366000.0 518443.0 0
370000.0 518465.0 0
374000.0 518425.0 0
378000.0 518340.0 0
382000.0 518285.0 0
386000.0 518356.0 0
390000.0 518342.0 0
394000.0 518357.0 0
398000.0 518377.0 0
102000.0 522369.0 0
106000.0 522353.0 0
110000.0 522338.0 0
114000.0 522346.0 0
118000.0 522282.0 0
122000.0 522333.0 0
126000.0 522408.0 0
130000.0 522451.0 0
134000.0 522432.0 0
138000.0 522520.0 0
142000.0 522432.0 0
146000.0 522385.0 0
150000.0 522319.0 0
154000.0 522315.0 0
158000.0 522259.0 0
162000.0 522271.0 0
166000.0 522218.0 0
170000.0 522259.0 0
174000.0 522207.0 0
178000.0 522273.0 0
182000.0 522207.0 0
186000.0 522280.0 0
190000.0 522207.0 0
194000.0 522281.0 0
198000.0 522207.0 0
202000.0 522268.0 0
206000.0 522207.0 0
210000.0 522237.0 0
214000.0 522207.0 0
218000.0 522209.0 0
222000.0 522207.0 0
226000.0 522207.0 0
230000.0 522207.0 0
234000.0 522207.0 0
238000.0 522207.0 0
242000.0 522207.0 0
246000.0 522207.0 0
250000.0 522208.0 0
254000.0 522207.0 0
258000.0 522207.0 0
262000.0 522207.0 0
266000.0 522207.0 0
270000.0 522207.0 0
274000.0 522207.0 0
278000.0 522207.0 0
282000.0 522209.0 0
286000.0 522207.0 0
290000.0 522237.0 0
294000.0 522207.0 0
298000.0 522268.0 0
302000.0 522207.0 0
306000.0 522281.0 0
310000.0 522207.0 0
314000.0 522280.0 0
318000.0 522207.0 0
322000.0 522273.0 0
326000.0 522207.0 0
330000.0 522259.0 0
334000.0 522218.0 0
338000.0 522271.0 0
342000.0 522259.0 0
346000.0 522315.0 0
350000.0 522319.0 0
354000.0 522385.0 0
358000.0 522432.0 0
362000.0 522520.0 0
366000.0 522432.0 0
370000.0 522451.0 0
374000.0 522408.0 0
378000.0 522333.0 0
382000.0 522282.0 0
386000.0 522346.0 0
390000.0 522338.0 0
394000.0 522353.0 0
398000.0 522369.0 0
102000.0 526361.0 0
106000.0 526349.0 0
110000.0 526334.0 0
114000.0 526336.0 0
118000.0 526280.0 0
122000.0 526327.0 0
126000.0 526391.0 0
130000.0 526437.0 0
134000.0 526420.0 0
138000.0 526494.0 0
142000.0 526411.0 0
146000.0 526370.0 0
150000.0 526309.0 0
154000.0 526306.0 0
158000.0 526253.0 0
162000.0 526267.0 0
166000.0 526217.0 0
170000.0 526256.0 0
174000.0 526207.0 0
178000.0 526267.0 0
182000.0 526207.0 0
186000.0 526272.0 0
190000.0 526207.0 0
194000.0 526273.0 0
198000.0 526207.0 0
202000.0 526259.0 0
206000.0 526207.0 0
210000.0 526230.0 0
214000.0 526207.0 0
218000.0 526208.0 0
222000.0 526207.0 0
226000.0 526207.0 0
230000.0 526207.0 0
234000.0 526207.0 0
238000.0 526207.0 0
242000.0 526207.0 0
246000.0 526207.0 0
250000.0 526208.0 0
254000.0 526207.0 0
258000.0 526207.0 0
262000.0 526207.0 0
266000.0 526207.0 0
270000.0 526207.0 0
274000.0 526207.0 0
278000.0 526207.0 0
282000.0 526208.0 0
286000.0 526207.0 0
290000.0 526230.0 0
294000.0 526207.0 0
298000.0 526259.0 0
302000.0 526207.0 0
306000.0 526273.0 0
310000.0 526207.0 0
314000.0 526272.0 0
318000.0 526207.0 0
322000.0 526267.0 0
326000.0 526207.0 0
330000.0 526256.0 0
334000.0 526217.0 0
338000.0 526267.0 0
342000.0 526253.0 0
346000.0 526306.0 0
350000.0 526309.0 0
354000.0 526370.0 0
358000.0 526411.0 0
362000.0 526494.0 0
366000.0 526420.0 0
370000.0 526437.0 0
374000.0 526391.0 0
378000.0 526327.0 0
382000.0 526280.0 0
386000.0 526336.0 0
390000.0 526334.0 0
394000.0 526349.0 0
398000.0 526361.0 0
102000.0 530354.0 0
106000.0 530344.0 0
110000.0 530330.0 0
114000.0 530327.0 0
118000.0 530277.0 0
122000.0 530322.0 0
126000.0 530377.0 0
130000.0 530424.0 0
134000.0 530408.0 0
138000.0 530470.0 0
142000.0 530392.0 0
146000.0 530356.0 0
150000.0 530299.0 0
154000.0 530298.0 0
158000.0 530248.0 0
162000.0 530263.0 0
166000.0 530216.0 0
170000.0 530253.0 0
174000.0 530207.0 0
178000.0 530261.0 0
182000.0 530207.0 0
186000.0 530265.0 0
190000.0 530207.0 0
194000.0 530265.0 0
198000.0 530207.0 0
202000.0 530251.0 0
206000.0 530207.0 0
210000.0 530225.0 0
214000.0 530207.0 0
218000.0 530208.0 0
222000.0 530207.0 0
226000.0 530207.0 0
230000.0 530207.0 0
234000.0 530207.0 0
238000.0 530207.0 0
242000.0 530207.0 0
246000.0 530207.0 0
250000.0 530208.0 0
254000.0 530207.0 0
258000.0 530207.0 0
262000.0 530207.0 0
266000.0 530207.0 0
270000.0 530207.0 0
274000.0 530207.0 0
278000.0 530207.0 0
282000.0 530208.0 0
286000.0 530207.0 0
290000.0 530225.0 0
294000.0 530207.0 0
298000.0 530251.0 0
302000.0 530207.0 0
306000.0 530265.0 0
310000.0 530207.0 0
314000.0 530265.0 0
318000.0 530207.0 0
322000.0 530261.0 0
326000.0 530207.0 0
330000.0 530253.0 0
334000.0 530216.0 0
338000.0 530263.0 0
342000.0 530248.0 0
346000.0 530298.0 0
350000.0 530299.0 0
354000.0 530356.0 0
358000.0 530392.0 0
362000.0 530470.0 0
366000.0 530408.0 0
370000.0 530424.0 0
374000.0 530377.0 0
378000.0 530322.0 0
382000.0 530277.0 0
386000.0 530327.0 0
390000.0 530330.0 0
394000.0 530344.0 0
398000.0 530354.0 0
102000.0 534347.0 0
106000.0 534340.0 0
110000.0 534326.0 0
114000.0 534319.0 0
118000.0 534274.0 0
122000.0 534318.0 0
126000.0 534364.0 0
130000.0 534411.0 0
134000.0 534396.0 0
138000.0 534447.0 0
142000.0 534374.0 0
146000.0 534343.0 0
150000.0 534289.0 0
154000.0 534290.0 0
158000.0 534243.0 0
162000.0 534260.0 0
166000.0 534215.0 0
170000.0 534250.0 0
174000.0 534207.0 0
178000.0 534256.0 0
182000.0 534207.0 0
186000.0 534259.0 0
190000.0 534207.0 0
194000.0 534258.0 0
198000.0 534207.0 0
202000.0 534244.0 0
206000.0 534207.0 0
210000.0 534221.0 0
214000.0 534207.0 0
218000.0 534208.0 0
222000.0 534207.0 0
226000.0 534207.0 0
230000.0 534207.0 0
234000.0 534207.0 0
238000.0 534207.0 0
242000.0 534207.0 0
246000.0 534207.0 0
250000.0 534207.0 0
254000.0 534207.0 0
258000.0 534207.0 0
262000.0 534207.0 0
266000.0 534207.0 0
270000.0 534207.0 0
274000.0 534207.0 0
278000.0 534207.0 0
282000.0 534208.0 0
286000.0 534207.0 0
290000.0 534221.0 0
294000.0 534207.0 0
298000.0 534244.0 0
302000.0 534207.0 0
306000.0 534258.0 0
310000.0 534207.0 0
314000.0 534259.0 0
318000.0 534207.0 0
322000.0 534256.0 0
326000.0 534207.0 0
330000.0 534250.0 0
334000.0 534215.0 0
338000.0 534260.0 0
342000.0 534243.0 0
346000.0 534290.0 0
350000.0 534289.0 0
354000.0 534343.0 0
358000.0 534374.0 0
362000.0 534447.0 0
366000.0 534396.0 0
370000.0 534411.0 0
374000.0 534364.0 0
378000.0 534318.0 0
382000.0 534274.0 0
386000.0 534319.0 0
390000.0 534326.0 0
394000.0 534340.0 0
398000.0 534347.0 0
102000.0 538340.0 0
106000.0 538335.0 0
110000.0 538321.0 0
114000.0 538311.0 0
118000.0 538271.0 0
122000.0 538314.0 0
126000.0 538352.0 0
130000.0 538399.0 0
134000.0 538383.0 0
138000.0 538426.0 0
142000.0 538357.0 0
146000.0 538331.0 0
150000.0 538280.0 0
154000.0 538283.0 0
158000.0 538238.0 0
162000.0 538256.0 0
166000.0 538214.0 0
170000.0 538247.0 0
174000.0 538207.0 0
178000.0 538252.0 0
182000.0 538207.0 0
186000.0 538253.0 0
190000.0 538207.0 0
194000.0 538252.0 0
198000.0 538207.0 0
202000.0 538238.0 0
206000.0 538207.0 0
210000.0 538217.0 0
214000.0 538207.0 0
218000.0 538207.0 0
222000.0 538207.0 0
226000.0 538207.0 0
230000.0 538207.0 0
234000.0 538207.0 0
238000.0 538207.0 0
242000.0 538207.0 0
246000.0 538207.0 0
250000.0 538207.0 0
254000.0 538207.0 0
258000.0 538207.0 0
262000.0 538207.0 0
266000.0 538207.0 0
270000.0 538207.0 0
274000.0 538207.0 0
278000.0 538207.0 0
282000.0 538207.0 0
286000.0 538207.0 0
290000.0 538217.0 0
294000.0 538207.0 0
298000.0 538238.0 0
302000.0 538207.0 0
306000.0 538252.0 0
310000.0 538207.0 0
314000.0 538253.0 0
318000.0 538207.0 0
322000.0 538252.0 0
326000.0 538207.0 0
330000.0 538247.0 0
334000.0 538214.0 0
338000.0 538256.0 0
342000.0 538238.0 0
346000.0 538283.0 0
350000.0 538280.0 0
354000.0 538331.0 0
358000.0 538357.0 0
362000.0 538426.0 0
366000.0 538383.0 0
370000.0 538399.0 0
374000.0 538352.0 0
378000.0 538314.0 0
382000.0 538271.0 0
386000.0 538311.0 0
390000.0 538321.0 0
394000.0 538335.0 0
398000.0 538340.0 0
102000.0 542334.0 0
106000.0 542331.0 0
110000.0 542317.0 0
114000.0 542304.0 0
118000.0 542269.0 0
122000.0 542310.0 0
126000.0 542341.0 0
134000.0 542371.0 0
142000.0 542342.0 0
146000.0 542320.0 0
150000.0 542272.0 0
154000.0 542276.0 0
158000.0 542234.0 0
162000.0 542253.0 0
166000.0 542213.0 0
170000.0 542244.0 0
174000.0 542207.0 0
178000.0 542247.0 0
182000.0 542207.0 0
186000.0 542248.0 0
190000.0 542207.0 0
194000.0 542246.0 0
198000.0 542207.0 0
202000.0 542233.0 0
206000.0 542207.0 0
210000.0 542215.0 0
214000.0 542207.0 0
218000.0 542207.0 0
222000.0 542207.0 0
226000.0 542207.0 0
230000.0 542207.0 0
234000.0 542207.0 0
238000.0 542207.0 0
242000.0 542207.0 0
246000.0 542207.0 0
250000.0 542207.0 0
254000.0 542207.0 0
258000.0 542207.0 0
262000.0 542207.0 0
266000.0 542207.0 0
270000.0 542207.0 0
274000.0 542207.0 0
278000.0 542207.0 0
282000.0 542207.0 0
286000.0 542207.0 0
290000.0 542215.0 0
294000.0 542207.0 0
298000.0 542233.0 0
302000.0 542207.0 0
306000.0 542246.0 0
310000.0 542207.0 0
314000.0 542248.0 0
318000.0 542207.0 0
322000.0 542247.0 0
326000.0 542207.0 0
330000.0 542244.0 0
334000.0 542213.0 0
338000.0 542253.0 0
342000.0 542234.0 0
346000.0 542276.0 0
350000.0 542272.0 0
354000.0 542320.0 0
358000.0 542342.0 0
366000.0 542371.0 0
374000.0 542341.0 0
378000.0 542310.0 0
382000.0 542269.0 0
386000.0 542304.0 0
390000.0 542317.0 0
394000.0 542331.0 0
398000.0 542334.0 0
130000.0 542387.0 0
138000.0 542407.0 0
362000.0 542407.0 0
370000.0 542387.0 0
102000.0 546328.0 0
106000.0 546326.0 0
110000.0 546313.0 0
114000.0 546298.0 0
118000.0 546266.0 0
122000.0 546306.0 0
126000.0 546331.0 0
130000.0 546375.0 0
134000.0 546359.0 0
138000.0 546389.0 0
142000.0 546328.0 0
146000.0 546310.0 0
150000.0 546264.0 0
154000.0 546270.0 0
158000.0 546231.0 0
162000.0 546250.0 0
166000.0 546212.0 0
170000.0 546241.0 0
174000.0 546207.0 0
178000.0 546243.0 0
182000.0 546207.0 0
186000.0 546243.0 0
190000.0 546207.0 0
194000.0 546241.0 0
198000.0 546207.0 0
202000.0 546229.0 0
206000.0 546207.0 0
210000.0 546213.0 0
214000.0 546207.0 0
218000.0 546207.0 0
222000.0 546207.0 0
226000.0 546207.0 0
230000.0 546207.0 0
234000.0 546207.0 0
238000.0 546207.0 0
242000.0 546207.0 0
246000.0 546207.0 0
250000.0 546207.0 0
254000.0 546207.0 0
258000.0 546207.0 0
262000.0 546207.0 0
266000.0 546207.0 0
270000.0 546207.0 0
274000.0 546207.0 0
278000.0 546207.0 0
282000.0 546207.0 0
286000.0 546207.0 0
290000.0 546213.0 0
294000.0 546207.0 0
298000.0 546229.0 0
302000.0 546207.0 0
306000.0 546241.0 0
310000.0 546207.0 0
314000.0 546243.0 0
318000.0 546207.0 0
322000.0 546243.0 0
326000.0 546207.0 0
330000.0 546241.0 0
334000.0 546212.0 0
338000.0 546250.0 0
342000.0 546231.0 0
346000.0 546270.0 0
350000.0 546264.0 0
354000.0 546310.0 0
358000.0 546328.0 0
362000.0 546389.0 0
366000.0 546359.0 0
370000.0 546375.0 0
374000.0 546331.0 0
378000.0 546306.0 0
382000.0 546266.0 0
386000.0 546298.0 0
390000.0 546313.0 0
394000.0 546326.0 0
398000.0 546328.0 0
102000.0 550323.0 0
106000.0 550321.0 0
110000.0 550308.0 0
114000.0 550292.0 0
118000.0 550263.0 0
122000.0 550302.0 0
126000.0 550322.0 0
130000.0 550364.0 0
134000.0 550347.0 0
138000.0 550372.0 0
142000.0 550315.0 0
146000.0 550300.0 0
150000.0 550258.0 0
154000.0 550264.0 0
158000.0 550227.0 0
162000.0 550246.0 0
166000.0 550212.0 0
170000.0 550239.0 0
174000.0 550207.0 0
178000.0 550239.0 0
182000.0 550207.0 0
186000.0 550239.0 0
190000.0 550207.0 0
194000.0 550236.0 0
198000.0 550207.0 0
202000.0 550225.0 0
206000.0 550207.0 0
210000.0 550211.0 0
214000.0 550207.0 0
218000.0 550207.0 0
222000.0 550207.0 0
226000.0 550207.0 0
230000.0 550207.0 0
234000.0 550207.0 0
238000.0 550207.0 0
242000.0 550207.0 0
246000.0 550207.0 0
250000.0 550207.0 0
254000.0 550207.0 0
258000.0 550207.0 0
262000.0 550207.0 0
266000.0 550207.0 0
270000.0 550207.0 0
274000.0 550207.0 0
278000.0 550207.0 0
282000.0 550207.0 0
286000.0 550207.0 0
290000.0 550211.0 0
294000.0 550207.0 0
298000.0 550225.0 0
302000.0 550207.0 0
306000.0 550236.0 0
310000.0 550207.0 0
314000.0 550239.0 0
318000.0 550207.0 0
322000.0 550239.0 0
326000.0 550207.0 0
330000.0 550239.0 0
334000.0 550212.0 0
338000.0 550246.0 0
342000.0 550227.0 0
346000.0 550264.0 0
350000.0 550258.0 0
354000.0 550300.0 0
358000.0 550315.0 0
362000.0 550372.0 0
366000.0 550347.0 0
370000.0 550364.0 0
374000.0 550322.0 0
378000.0 550302.0 0
382000.0 550263.0 0
386000.0 550292.0 0
390000.0 550308.0 0
394000.0 550321.0 0
398000.0 550323.0 0
102000.0 554317.0 0
106000.0 554317.0 0
110000.0 554304.0 0
114000.0 554286.0 0
118000.0 554260.0 0
122000.0 554298.0 0
126000.0 554314.0 0
130000.0 554354.0 0
134000.0 554336.0 0
138000.0 554357.0 0
142000.0 554304.0 0
146000.0 554292.0 0
150000.0 554251.0 0
154000.0 554259.0 0
158000.0 554225.0 0
162000.0 554243.0 0
166000.0 554211.0 0
170000.0 554236.0 0
174000.0 554207.0 0
178000.0 554236.0 0
182000.0 554207.0 0
186000.0 554235.0 0
190000.0 554207.0 0
194000.0 554232.0 0
198000.0 554207.0 0
202000.0 554222.0 0
206000.0 554207.0 0
210000.0 554210.0 0
214000.0 554207.0 0
218000.0 554207.0 0
222000.0 554207.0 0
226000.0 554207.0 0
230000.0 554207.0 0
234000.0 554207.0 0
238000.0 554207.0 0
242000.0 554207.0 0
246000.0 554207.0 0
250000.0 554207.0 0
254000.0 554207.0 0
258000.0 554207.0 0
262000.0 554207.0 0
266000.0 554207.0 0
270000.0 554207.0 0
274000.0 554207.0 0
278000.0 554207.0 0
282000.0 554207.0 0
286000.0 554207.0 0
290000.0 554210.0 0
294000.0 554207.0 0
298000.0 554222.0 0
302000.0 554207.0 0
306000.0 554232.0 0
310000.0 554207.0 0
314000.0 554235.0 0
318000.0 554207.0 0
322000.0 554236.0 0
326000.0 554207.0 0
330000.0 554236.0 0
334000.0 554211.0 0
338000.0 554243.0 0
342000.0 554225.0 0
346000.0 554259.0 0
350000.0 554251.0 0
354000.0 554292.0 0
358000.0 554304.0 0
362000.0 554357.0 0
366000.0 554336.0 0
370000.0 554354.0 0
374000.0 554314.0 0
378000.0 554298.0 0
382000.0 554260.0 0
386000.0 554286.0 0
390000.0 554304.0 0
394000.0 554317.0 0
398000.0 554317.0 0
102000.0 558312.0 0
106000.0 558312.0 0
110000.0 558300.0 0
114000.0 558281.0 0
118000.0 558257.0 0
122000.0 558295.0 0
126000.0 558307.0 0
130000.0 558344.0 0
134000.0 558325.0 0
138000.0 558344.0 0
142000.0 558293.0 0
146000.0 558284.0 0
150000.0 558246.0 0
154000.0 558254.0 0
158000.0 558222.0 0
162000.0 558240.0 0
166000.0 558210.0 0
170000.0 558234.0 0
174000.0 558207.0 0
178000.0 558232.0 0
182000.0 558207.0 0
186000.0 558231.0 0
190000.0 558207.0 0
194000.0 558228.0 0
198000.0 558207.0 0
202000.0 558219.0 0
206000.0 558207.0 0
210000.0 558209.0 0
214000.0 558207.0 0
218000.0 558207.0 0
222000.0 558207.0 0
226000.0 558207.0 0
230000.0 558207.0 0
234000.0 558207.0 0
238000.0 558207.0 0
242000.0 558207.0 0
246000.0 558207.0 0
250000.0 558207.0 0
254000.0 558207.0 0
258000.0 558207.0 0
262000.0 558207.0 0
266000.0 558207.0 0
270000.0 558207.0 0
274000.0 558207.0 0
278000.0 558207.0 0
282000.0 558207.0 0
286000.0 558207.0 0
290000.0 558209.0 0
294000.0 558207.0 0
298000.0 558219.0 0
302000.0 558207.0 0
306000.0 558228.0 0
310000.0 558207.0 0
314000.0 558231.0 0
318000.0 558207.0 0
322000.0 558232.0 0
326000.0 558207.0 0
330000.0 558234.0 0
334000.0 558210.0 0
338000.0 558240.0 0
342000.0 558222.0 0
346000.0 558254.0 0
350000.0 558246.0 0
354000.0 558284.0 0
358000.0 558293.0 0
362000.0 558344.0 0
366000.0 558325.0 0
370000.0 558344.0 0
374000.0 558307.0 0
378000.0 558295.0 0
382000.0 558257.0 0
386000.0 558281.0 0
390000.0 558300.0 0
394000.0 558312.0 0
398000.0 558312.0 0
102000.0 562308.0 0
106000.0 562308.0 0
110000.0 562296.0 0
114000.0 562277.0 0
118000.0 562255.0 0
122000.0 562291.0 0
126000.0 562300.0 0
130000.0 562335.0 0
134000.0 562315.0 0
138000.0 562331.0 0
142000.0 562284.0 0
146000.0 562276.0 0
150000.0 562241.0 0
154000.0 562250.0 0
158000.0 562220.0 0
162000.0 562238.0 0
166000.0 562210.0 0
170000.0 562231.0 0
174000.0 562207.0 0
178000.0 562229.0 0
182000.0 562207.0 0
186000.0 562228.0 0
190000.0 562207.0 0
194000.0 562225.0 0
198000.0 562207.0 0
202000.0 562217.0 0
206000.0 562207.0 0
210000.0 562209.0 0
214000.0 562207.0 0
218000.0 562207.0 0
222000.0 562207.0 0
226000.0 562207.0 0
230000.0 562207.0 0
234000.0 562207.0 0
238000.0 562207.0 0
242000.0 562207.0 0
246000.0 562207.0 0
250000.0 562207.0 0
254000.0 562207.0 0
258000.0 562207.0 0
262000.0 562207.0 0
266000.0 562207.0 0
270000.0 562207.0 0
274000.0 562207.0 0
278000.0 562207.0 0
282000.0 562207.0 0
286000.0 562207.0 0
290000.0 562209.0 0
294000.0 562207.0 0
298000.0 562217.0 0
302000.0 562207.0 0
306000.0 562225.0 0
310000.0 562207.0 0
314000.0 562228.0 0
318000.0 562207.0 0
322000.0 562229.0 0
326000.0 562207.0 0
330000.0 562231.0 0
334000.0 562210.0 0
338000.0 562238.0 0
342000.0 562220.0 0
346000.0 562250.0 0
350000.0 562241.0 0
354000.0 562276.0 0
358000.0 562284.0 0
362000.0 562331.0 0
366000.0 562315.0 0
370000.0 562335.0 0
374000.0 562300.0 0
378000.0 562291.0 0
382000.0 562255.0 0
386000.0 562277.0 0
390000.0 562296.0 0
394000.0 562308.0 0
398000.0 562308.0 0
102000.0 566303.0 0
106000.0 566304.0 0
110000.0 566292.0 0
114000.0 566272.0 0
118000.0 566252.0 0
122000.0 566288.0 0
126000.0 566294.0 0
130000.0 566326.0 0
134000.0 566305.0 0
138000.0 566320.0 0
142000.0 566275.0 0
146000.0 566270.0 0
150000.0 566236.0 0
154000.0 566246.0 0
158000.0 566218.0 0
162000.0 566235.0 0
166000.0 566209.0 0
170000.0 566229.0 0
174000.0 566207.0 0
178000.0 566227.0 0
182000.0 566207.0 0
186000.0 566226.0 0
190000.0 566207.0 0
194000.0 566223.0 0
198000.0 566207.0 0
202000.0 566215.0 0
206000.0 566207.0 0
210000.0 566208.0 0
214000.0 566207.0 0
218000.0 566207.0 0
222000.0 566207.0 0
226000.0 566207.0 0
230000.0 566207.0 0
234000.0 566207.0 0
238000.0 566207.0 0
242000.0 566207.0 0
246000.0 566207.0 0
250000.0 566207.0 0
254000.0 566207.0 0
258000.0 566207.0 0
262000.0 566207.0 0
266000.0 566207.0 0
270000.0 566207.0 0
274000.0 566207.0 0
278000.0 566207.0 0
282000.0 566207.0 0
286000.0 566207.0 0
290000.0 566208.0 0
294000.0 566207.0 0
298000.0 566215.0 0
302000.0 566207.0 0
306000.0 566223.0 0
310000.0 566207.0 0
314000.0 566226.0 0
318000.0 566207.0 0
322000.0 566227.0 0
326000.0 566207.0 0
330000.0 566229.0 0
334000.0 566209.0 0
338000.0 566235.0 0
342000.0 566218.0 0
346000.0 566246.0 0
350000.0 566236.0 0
354000.0 566270.0 0
358000.0 566275.0 0
362000.0 566320.0 0
366000.0 566305.0 0
370000.0 566326.0 0
374000.0 566294.0 0
378000.0 566288.0 0
382000.0 566252.0 0
386000.0 566272.0 0
390000.0 566292.0 0
394000.0 566304.0 0
398000.0 566303.0 0
102000.0 570299.0 0
106000.0 570300.0 0
110000.0 570288.0 0
114000.0 570269.0 0
118000.0 570250.0 0
122000.0 570285.0 0
126000.0 570288.0 0
130000.0 570318.0 0
134000.0 570296.0 0
138000.0 570310.0 0
142000.0 570268.0 0
146000.0 570264.0 0
150000.0 570232.0 0
154000.0 570242.0 0
158000.0 570216.0 0
162000.0 570233.0 0
166000.0 570209.0 0
170000.0 570227.0 0
174000.0 570207.0 0
178000.0 570225.0 0
182000.0 570207.0 0
186000.0 570223.0 0
190000.0 570207.0 0
194000.0 570220.0 0
198000.0 570207.0 0
202000.0 570213.0 0
206000.0 570207.0 0
210000.0 570208.0 0
214000.0 570207.0 0
218000.0 570207.0 0
222000.0 570207.0 0
226000.0 570207.0 0
230000.0 570207.0 0
234000.0 570207.0 0
238000.0 570207.0 0
242000.0 570207.0 0
246000.0 570207.0 0
250000.0 570207.0 0
254000.0 570207.0 0
258000.0 570207.0 0
262000.0 570207.0 0
266000.0 570207.0 0
270000.0 570207.0 0
274000.0 570207.0 0
278000.0 570207.0 0
282000.0 570207.0 0
286000.0 570207.0 0
290000.0 570208.0 0
294000.0 570207.0 0
298000.0 570213.0 0
302000.0 570207.0 0
306000.0 570220.0 0
310000.0 570207.0 0
314000.0 570223.0 0
318000.0 570207.0 0
322000.0 570225.0 0
326000.0 570207.0 0
330000.0 570227.0 0
334000.0 570209.0 0
338000.0 570233.0 0
342000.0 570216.0 0
346000.0 570242.0 0
350000.0 570232.0 0
354000.0 570264.0 0
358000.0 570268.0 0
362000.0 570310.0 0
366000.0 570296.0 0
370000.0 570318.0 0
374000.0 570288.0 0
378000.0 570285.0 0
382000.0 570250.0 0
386000.0 570269.0 0
390000.0 570288.0 0
394000.0 570300.0 0
398000.0 570299.0 0
102000.0 574295.0 0
106000.0 574296.0 0
110000.0 574284.0 0
114000.0 574265.0 0
118000.0 574247.0 0
122000.0 574281.0 0
126000.0 574283.0 0
130000.0 574310.0 0
134000.0 574288.0 0
138000.0 574301.0 0
142000.0 574261.0 0
146000.0 574259.0 0
150000.0 574229.0 0
154000.0 574239.0 0
158000.0 574215.0 0
162000.0 574231.0 0
166000.0 574209.0 0
170000.0 574225.0 0
174000.0 574207.0 0
178000.0 574222.0 0
182000.0 574207.0 0
186000.0 574221.0 0
190000.0 574207.0 0
194000.0 574218.0 0
198000.0 574207.0 0
202000.0 574212.0 0
206000.0 574207.0 0
210000.0 574208.0 0
214000.0 574207.0 0
218000.0 574207.0 0
222000.0 574207.0 0
226000.0 574207.0 0
230000.0 574207.0 0
234000.0 574207.0 0
238000.0 574207.0 0
242000.0 574207.0 0
246000.0 574207.0 0
250000.0 574207.0 0
254000.0 574207.0 0
258000.0 574207.0 0
262000.0 574207.0 0
266000.0 574207.0 0
270000.0 574207.0 0
274000.0 574207.0 0
278000.0 574207.0 0
282000.0 574207.0 0
286000.0 574207.0 0
290000.0 574208.0 0
294000.0 574207.0 0
298000.0 574212.0 0
302000.0 574207.0 0
306000.0 574218.0 0
310000.0 574207.0 0
314000.0 574221.0 0
318000.0 574207.0 0
322000.0 574222.0 0
326000.0 574207.0 0
330000.0 574225.0 0
334000.0 574209.0 0
338000.0 574231.0 0
342000.0 574215.0 0
346000.0 574239.0 0
350000.0 574229.0 0
354000.0 574259.0 0
358000.0 574261.0 0
362000.0 574301.0 0
366000.0 574288.0 0
370000.0 574310.0 0
374000.0 574283.0 0
378000.0 574281.0 0
382000.0 574247.0 0
386000.0 574265.0 0
390000.0 574284.0 0
394000.0 574296.0 0
398000.0 574295.0 0
102000.0 578292.0 0
106000.0 578292.0 0
110000.0 578281.0 0
114000.0 578262.0 0
118000.0 578245.0 0
122000.0 578278.0 0
126000.0 578278.0 0
130000.0 578303.0 0
134000.0 578280.0 0
138000.0 578293.0 0
142000.0 578255.0 0
146000.0 578254.0 0
150000.0 578226.0 0
154000.0 578236.0 0
158000.0 578213.0 0
162000.0 578229.0 0
166000.0 578208.0 0
170000.0 578224.0 0
174000.0 578207.0 0
178000.0 578221.0 0
182000.0 578207.0 0
186000.0 578219.0 0
190000.0 578207.0 0
194000.0 578216.0 0
198000.0 578207.0 0
202000.0 578211.0 0
206000.0 578207.0 0
210000.0 578207.0 0
214000.0 578207.0 0
218000.0 578207.0 0
222000.0 578207.0 0
226000.0 578207.0 0
230000.0 578207.0 0
234000.0 578207.0 0
238000.0 578207.0 0
242000.0 578207.0 0
246000.0 578207.0 0
250000.0 578207.0 0
254000.0 578207.0 0
258000.0 578207.0 0
262000.0 578207.0 0
266000.0 578207.0 0
270000.0 578207.0 0
274000.0 578207.0 0
278000.0 578207.0 0
282000.0 578207.0 0
286000.0 578207.0 0
290000.0 578207.0 0
294000.0 578207.0 0
298000.0 578211.0 0
302000.0 578207.0 0
306000.0 578216.0 0
310000.0 578207.0 0
314000.0 578219.0 0
318000.0 578207.0 0
322000.0 578221.0 0
326000.0 578207.0 0
330000.0 578224.0 0
334000.0 578208.0 0
338000.0 578229.0 0
342000.0 578213.0 0
346000.0 578236.0 0
350000.0 578226.0 0
354000.0 578254.0 0
358000.0 578255.0 0
362000.0 578293.0 0
366000.0 578280.0 0
370000.0 578303.0 0
374000.0 578278.0 0
378000.0 578278.0 0
382000.0 578245.0 0
386000.0 578262.0 0
390000.0 578281.0 0
394000.0 578292.0 0
398000.0 578292.0 0
102000.0 582288.0 0
106000.0 582288.0 0
110000.0 582277.0 0
114000.0 582259.0 0
118000.0 582243.0 0
122000.0 582275.0 0
126000.0 582273.0 0
130000.0 582296.0 0
134000.0 582273.0 0
138000.0 582286.0 0
142000.0 582250.0 0
146000.0 582250.0 0
150000.0 582223.0 0
154000.0 582233.0 0
158000.0 582212.0 0
162000.0 582227.0 0
166000.0 582208.0 0
170000.0 582222.0 0
174000.0 582207.0 0
178000.0 582219.0 0
182000.0 582207.0 0
186000.0 582217.0 0
190000.0 582207.0 0
194000.0 582215.0 0
198000.0 582207.0 0
202000.0 582210.0 0
206000.0 582207.0 0
210000.0 582207.0 0
214000.0 582207.0 0
218000.0 582207.0 0
222000.0 582207.0 0
226000.0 582207.0 0
230000.0 582207.0 0
234000.0 582207.0 0
238000.0 582207.0 0
242000.0 582207.0 0
246000.0 582207.0 0
250000.0 582207.0 0
254000.0 582207.0 0
258000.0 582207.0 0
262000.0 582207.0 0
266000.0 582207.0 0
270000.0 582207.0 0
274000.0 582207.0 0
278000.0 582207.0 0
282000.0 582207.0 0
286000.0 582207.0 0
290000.0 582207.0 0
294000.0 582207.0 0
298000.0 582210.0 0
302000.0 582207.0 0
306000.0 582215.0 0
310000.0 582207.0 0
314000.0 582217.0 0
318000.0 582207.0 0
322000.0 582219.0 0
326000.0 582207.0 0
330000.0 582222.0 0
334000.0 582208.0 0
338000.0 582227.0 0
342000.0 582212.0 0
346000.0 582233.0 0
350000.0 582223.0 0
354000.0 582250.0 0
358000.0 582250.0 0
362000.0 582286.0 0
366000.0 582273.0 0
370000.0 582296.0 0
374000.0 582273.0 0
378000.0 582275.0 0
382000.0 582243.0 0
386000.0 582259.0 0
390000.0 582277.0 0
394000.0 582288.0 0
398000.0 582288.0 0
102000.0 586285.0 0
106000.0 586285.0 0
110000.0 586274.0 0
114000.0 586256.0 0
118000.0 586241.0 0
122000.0 586273.0 0
126000.0 586269.0 0
130000.0 586290.0 0
134000.0 586267.0 0
138000.0 586279.0 0
142000.0 586245.0 0
146000.0 586246.0 0
150000.0 586221.0 0
154000.0 586231.0 0
158000.0 586211.0 0
162000.0 586225.0 0
166000.0 586208.0 0
170000.0 586221.0 0
174000.0 586207.0 0
178000.0 586217.0 0
182000.0 586207.0 0
186000.0 586216.0 0
190000.0 586207.0 0
194000.0 586214.0 0
198000.0 586207.0 0
202000.0 586210.0 0
206000.0 586207.0 0
210000.0 586207.0 0
214000.0 586207.0 0
218000.0 586207.0 0
222000.0 586207.0 0
226000.0 586207.0 0
230000.0 586207.0 0
234000.0 586207.0 0
238000.0 586207.0 0
242000.0 586207.0 0
246000.0 586207.0 0
250000.0 586207.0 0
254000.0 586207.0 0
258000.0 586207.0 0
262000.0 586207.0 0
266000.0 586207.0 0
270000.0 586207.0 0
274000.0 586207.0 0
278000.0 586207.0 0
282000.0 586207.0 0
286000.0 586207.0 0
290000.0 586207.0 0
294000.0 586207.0 0
298000.0 586210.0 0
302000.0 586207.0 0
306000.0 586214.0 0
310000.0 586207.0 0
314000.0 586216.0 0
318000.0 586207.0 0
322000.0 586217.0 0
326000.0 586207.0 0
330000.0 586221.0 0
334000.0 586208.0 0
338000.0 586225.0 0
342000.0 586211.0 0
346000.0 586231.0 0
350000.0 586221.0 0
354000.0 586246.0 0
358000.0 586245.0 0
362000.0 586279.0 0
366000.0 586267.0 0
370000.0 586290.0 0
374000.0 586269.0 0
378000.0 586273.0 0
382000.0 586241.0 0
386000.0 586256.0 0
390000.0 586274.0 0
394000.0 586285.0 0
398000.0 586285.0 0
102000.0 590282.0 0
106000.0 590282.0 0
110000.0 590271.0 0
114000.0 590254.0 0
118000.0 590239.0 0
122000.0 590270.0 0
126000.0 590265.0 0
130000.0 590285.0 0
134000.0 590261.0 0
138000.0 590274.0 0
142000.0 590241.0 0
146000.0 590242.0 0
150000.0 590219.0 0
154000.0 590229.0 0
158000.0 590211.0 0
162000.0 590223.0 0
166000.0 590208.0 0
170000.0 590219.0 0
174000.0 590207.0 0
178000.0 590216.0 0
182000.0 590207.0 0
186000.0 590215.0 0
190000.0 590207.0 0
194000.0 590213.0 0
198000.0 590207.0 0
202000.0 590209.0 0
206000.0 590207.0 0
210000.0 590207.0 0
214000.0 590207.0 0
218000.0 590207.0 0
222000.0 590207.0 0
226000.0 590207.0 0
230000.0 590207.0 0
234000.0 590207.0 0
238000.0 590207.0 0
242000.0 590207.0 0
246000.0 590207.0 0
250000.0 590207.0 0
254000.0 590207.0 0
258000.0 590207.0 0
262000.0 590207.0 0
266000.0 590207.0 0
270000.0 590207.0 0
274000.0 590207.0 0
278000.0 590207.0 0
282000.0 590207.0 0
286000.0 590207.0 0
290000.0 590207.0 0
294000.0 590207.0 0
298000.0 590209.0 0
302000.0 590207.0 0
306000.0 590213.0 0
310000.0 590207.0 0
314000.0 590215.0 0
318000.0 590207.0 0
322000.0 590216.0 0
326000.0 590207.0 0
330000.0 590219.0 0
334000.0 590208.0 0
338000.0 590223.0 0
342000.0 590211.0 0
346000.0 590229.0 0
350000.0 590219.0 0
354000.0 590242.0 0
358000.0 590241.0 0
362000.0 590274.0 0
366000.0 590261.0 0
370000.0 590285.0 0
374000.0 590265.0 0
378000.0 590270.0 0
382000.0 590239.0 0
386000.0 590254.0 0
390000.0 590271.0 0
394000.0 590282.0 0
398000.0 590282.0 0
102000.0 594280.0 0
106000.0 594279.0 0
110000.0 594269.0 0
114000.0 594252.0 0
118000.0 594237.0 0
122000.0 594267.0 0
126000.0 594262.0 0
130000.0 594280.0 0
134000.0 594256.0 0
138000.0 594269.0 0
142000.0 594237.0 0
146000.0 594239.0 0
150000.0 594217.0 0
154000.0 594227.0 0
158000.0 594210.0 0
162000.0 594222.0 0
166000.0 594208.0 0
170000.0 594218.0 0
174000.0 594207.0 0
178000.0 594215.0 0
182000.0 594207.0 0
186000.0 594214.0 0
190000.0 594207.0 0
194000.0 594212.0 0
198000.0 594207.0 0
202000.0 594209.0 0
206000.0 594207.0 0
210000.0 594207.0 0
214000.0 594207.0 0
218000.0 594207.0 0
222000.0 594207.0 0
226000.0 594207.0 0
230000.0 594207.0 0
234000.0 594207.0 0
238000.0 594207.0 0
242000.0 594207.0 0
246000.0 594207.0 0
250000.0 594207.0 0
254000.0 594207.0 0
258000.0 594207.0 0
262000.0 594207.0 0
266000.0 594207.0 0
270000.0 594207.0 0
274000.0 594207.0 0
278000.0 594207.0 0
282000.0 594207.0 0
286000.0 594207.0 0
290000.0 594207.0 0
294000.0 594207.0 0
298000.0 594209.0 0
302000.0 594207.0 0
306000.0 594212.0 0
310000.0 594207.0 0
314000.0 594214.0 0
318000.0 594207.0 0
322000.0 594215.0 0
326000.0 594207.0 0
330000.0 594218.0 0
334000.0 594208.0 0
338000.0 594222.0 0
342000.0 594210.0 0
346000.0 594227.0 0
350000.0 594217.0 0
354000.0 594239.0 0
358000.0 594237.0 0
362000.0 594269.0 0
366000.0 594256.0 0
370000.0 594280.0 0
374000.0 594262.0 0
378000.0 594267.0 0
382000.0 594237.0 0
386000.0 594252.0 0
390000.0 594269.0 0
394000.0 594279.0 0
398000.0 594280.0 0
102000.0 598277.0 0
106000.0 598277.0 0
110000.0 598266.0 0
114000.0 598250.0 0
118000.0 598236.0 0
122000.0 598265.0 0
126000.0 598259.0 0
130000.0 598275.0 0
134000.0 598251.0 0
138000.0 598264.0 0
142000.0 598234.0 0
146000.0 598237.0 0
150000.0 598216.0 0
154000.0 598226.0 0
158000.0 598210.0 0
162000.0 598221.0 0
166000.0 598207.0 0
170000.0 598217.0 0
174000.0 598207.0 0
178000.0 598214.0 0
182000.0 598207.0 0
186000.0 598213.0 0
190000.0 598207.0 0
194000.0 598211.0 0
198000.0 598207.0 0
202000.0 598208.0 0
206000.0 598207.0 0
210000.0 598207.0 0
214000.0 598207.0 0
218000.0 598207.0 0
222000.0 598207.0 0
226000.0 598207.0 0
230000.0 598207.0 0
234000.0 598207.0 0
238000.0 598207.0 0
242000.0 598207.0 0
246000.0 598207.0 0
250000.0 598207.0 0
254000.0 598207.0 0
258000.0 598207.0 0
262000.0 598207.0 0
266000.0 598207.0 0
270000.0 598207.0 0
274000.0 598207.0 0
278000.0 598207.0 0
282000.0 598207.0 0
286000.0 598207.0 0
290000.0 598207.0 0
294000.0 598207.0 0
298000.0 598208.0 0
302000.0 598207.0 0
306000.0 598211.0 0
310000.0 598207.0 0
314000.0 598213.0 0
318000.0 598207.0 0
322000.0 598214.0 0
326000.0 598207.0 0
330000.0 598217.0 0
334000.0 598207.0 0
338000.0 598221.0 0
342000.0 598210.0 0
346000.0 598226.0 0
350000.0 598216.0 0
354000.0 598237.0 0
358000.0 598234.0 0
362000.0 598264.0 0
366000.0 598251.0 0
370000.0 598275.0 0
374000.0 598259.0 0
378000.0 598265.0 0
382000.0 598236.0 0
386000.0 598250.0 0
390000.0 598266.0 0
394000.0 598277.0 0
398000.0 598277.0 0
110000.0 602264.0 0
114000.0 602248.0 0
118000.0 602235.0 0
122000.0 602263.0 0
126000.0 602256.0 0
130000.0 602271.0 0
134000.0 602247.0 0
138000.0 602260.0 0
142000.0 602231.0 0
146000.0 602234.0 0
150000.0 602215.0 0
154000.0 602224.0 0
158000.0 602209.0 0
162000.0 602220.0 0
166000.0 602207.0 0
170000.0 602216.0 0
174000.0 602207.0 0
178000.0 602213.0 0
182000.0 602207.0 0
186000.0 602212.0 0
190000.0 602207.0 0
194000.0 602210.0 0
198000.0 602207.0 0
202000.0 602208.0 0
206000.0 602207.0 0
210000.0 602207.0 0
214000.0 602207.0 0
218000.0 602207.0 0
222000.0 602207.0 0
226000.0 602207.0 0
230000.0 602207.0 0
234000.0 602207.0 0
238000.0 602207.0 0
242000.0 602207.0 0
246000.0 602207.0 0
250000.0 602207.0 0
254000.0 602207.0 0
258000.0 602207.0 0
262000.0 602207.0 0
266000.0 602207.0 0
270000.0 602207.0 0
274000.0 602207.0 0
278000.0 602207.0 0
282000.0 602207.0 0
286000.0 602207.0 0
290000.0 602207.0 0
294000.0 602207.0 0
298000.0 602208.0 0
302000.0 602207.0 0
306000.0 602210.0 0
310000.0 602207.0 0
314000.0 602212.0 0
318000.0 602207.0 0
322000.0 602213.0 0
326000.0 602207.0 0
330000.0 602216.0 0
334000.0 602207.0 0
338000.0 602220.0 0
342000.0 602209.0 0
346000.0 602224.0 0
350000.0 602215.0 0
354000.0 602234.0 0
358000.0 602231.0 0
362000.0 602260.0 0
366000.0 602247.0 0
370000.0 602271.0 0
374000.0 602256.0 0
378000.0 602263.0 0
382000.0 602235.0 0
386000.0 602248.0 0
390000.0 602264.0 0
102000.0 602275.0 0
106000.0 602274.0 0
394000.0 602274.0 0
398000.0 602275.0 0
102000.0 606273.0 0
106000.0 606272.0 0
110000.0 606262.0 0
114000.0 606247.0 0
118000.0 606233.0 0
122000.0 606261.0 0
126000.0 606254.0 0
130000.0 606268.0 0
134000.0 606244.0 0
138000.0 606257.0 0
142000.0 606229.0 0
146000.0 606232.0 0
150000.0 606213.0 0
154000.0 606223.0 0
158000.0 606209.0 0
162000.0 606219.0 0
166000.0 606207.0 0
170000.0 606215.0 0
174000.0 606207.0 0
178000.0 606212.0 0
182000.0 606207.0 0
186000.0 606211.0 0
190000.0 606207.0 0
194000.0 606210.0 0
198000.0 606207.0 0
202000.0 606208.0 0
206000.0 606207.0 0
210000.0 606207.0 0
214000.0 606207.0 0
218000.0 606207.0 0
222000.0 606207.0 0
226000.0 606207.0 0
230000.0 606207.0 0
234000.0 606207.0 0
238000.0 606207.0 0
242000.0 606207.0 0
246000.0 606207.0 0
250000.0 606207.0 0
254000.0 606207.0 0
258000.0 606207.0 0
262000.0 606207.0 0
266000.0 606207.0 0
270000.0 606207.0 0
274000.0 606207.0 0
278000.0 606207.0 0
282000.0 606207.0 0
286000.0 606207.0 0
290000.0 606207.0 0
294000.0 606207.0 0
298000.0 606208.0 0
302000.0 606207.0 0
306000.0 606210.0 0
310000.0 606207.0 0
314000.0 606211.0 0
318000.0 606207.0 0
322000.0 606212.0 0
326000.0 606207.0 0
330000.0 606215.0 0
334000.0 606207.0 0
338000.0 606219.0 0
342000.0 606209.0 0
346000.0 606223.0 0
350000.0 606213.0 0
354000.0 606232.0 0
358000.0 606229.0 0
362000.0 606257.0 0
366000.0 606244.0 0
370000.0 606268.0 0
374000.0 606254.0 0
378000.0 606261.0 0
382000.0 606233.0 0
386000.0 606247.0 0
390000.0 606262.0 0
394000.0 606272.0 0
398000.0 606273.0 0
102000.0 610272.0 0
106000.0 610270.0 0
110000.0 610261.0 0
114000.0 610245.0 0
118000.0 610232.0 0
122000.0 610260.0 0
126000.0 610252.0 0
130000.0 610265.0 0
134000.0 610241.0 0
138000.0 610254.0 0
142000.0 610227.0 0
146000.0 610231.0 0
150000.0 610213.0 0
154000.0 610222.0 0
158000.0 610208.0 0
162000.0 610218.0 0
166000.0 610207.0 0
170000.0 610215.0 0
174000.0 610207.0 0
178000.0 610212.0 0
182000.0 610207.0 0
186000.0 610211.0 0
190000.0 610207.0 0
194000.0 610209.0 0
198000.0 610207.0 0
202000.0 610208.0 0
206000.0 610207.0 0
210000.0 610207.0 0
214000.0 610207.0 0
218000.0 610207.0 0
222000.0 610207.0 0
226000.0 610207.0 0
230000.0 610207.0 0
234000.0 610207.0 0
238000.0 610207.0 0
242000.0 610207.0 0
246000.0 610207.0 0
250000.0 610207.0 0
254000.0 610207.0 0
258000.0 610207.0 0
262000.0 610207.0 0
266000.0 610207.0 0
270000.0 610207.0 0
274000.0 610207.0 0
278000.0 610207.0 0
282000.0 610207.0 0
286000.0 610207.0 0
290000.0 610207.0 0
294000.0 610207.0 0
298000.0 610208.0 0
302000.0 610207.0 0
306000.0 610209.0 0
310000.0 610207.0 0
314000.0 610211.0 0
318000.0 610207.0 0
322000.0 610212.0 0
326000.0 610207.0 0
330000.0 610215.0 0
334000.0 610207.0 0
338000.0 610218.0 0
342000.0 610208.0 0
346000.0 610222.0 0
350000.0 610213.0 0
354000.0 610231.0 0
358000.0 610227.0 0
362000.0 610254.0 0
366000.0 610241.0 0
370000.0 610265.0 0
374000.0 610252.0 0
378000.0 610260.0 0
382000.0 610232.0 0
386000.0 610245.0 0
390000.0 610261.0 0
394000.0 610270.0 0
398000.0 610272.0 0
102000.0 614270.0 0
106000.0 614269.0 0
110000.0 614259.0 0
114000.0 614244.0 0
118000.0 614231.0 0
122000.0 614258.0 0
126000.0 614250.0 0
130000.0 614262.0 0
134000.0 614238.0 0
138000.0 614251.0 0
142000.0 614225.0 0
146000.0 614229.0 0
150000.0 614212.0 0
154000.0 614221.0 0
158000.0 614208.0 0
162000.0 614217.0 0
166000.0 614207.0 0
170000.0 614214.0 0
174000.0 614207.0 0
178000.0 614211.0 0
182000.0 614207.0 0
186000.0 614210.0 0
190000.0 614207.0 0
194000.0 614209.0 0
198000.0 614207.0 0
202000.0 614208.0 0
206000.0 614207.0 0
210000.0 614207.0 0
214000.0 614207.0 0
218000.0 614207.0 0
222000.0 614207.0 0
226000.0 614207.0 0
230000.0 614207.0 0
234000.0 614207.0 0
238000.0 614207.0 0
242000.0 614207.0 0
246000.0 614207.0 0
250000.0 614207.0 0
254000.0 614207.0 0
258000.0 614207.0 0
262000.0 614207.0 0
266000.0 614207.0 0
270000.0 614207.0 0
274000.0 614207.0 0
278000.0 614207.0 0
282000.0 614207.0 0
286000.0 614207.0 0
290000.0 614207.0 0
294000.0 614207.0 0
298000.0 614208.0 0
302000.0 614207.0 0
306000.0 614209.0 0
310000.0 614207.0 0
314000.0 614210.0 0
318000.0 614207.0 0
322000.0 614211.0 0
326000.0 614207.0 0
330000.0 614214.0 0
334000.0 614207.0 0
338000.0 614217.0 0
342000.0 614208.0 0
346000.0 614221.0 0
350000.0 614212.0 0
354000.0 614229.0 0
358000.0 614225.0 0
362000.0 614251.0 0
366000.0 614238.0 0
370000.0 614262.0 0
374000.0 614250.0 0
378000.0 614258.0 0
382000.0 614231.0 0
386000.0 614244.0 0
390000.0 614259.0 0
394000.0 614269.0 0
398000.0 614270.0 0
102000.0 618269.0 0
106000.0 618267.0 0
110000.0 618258.0 0
114000.0 618243.0 0
118000.0 618231.0 0
122000.0 618257.0 0
126000.0 618248.0 0
130000.0 618260.0 0
134000.0 618236.0 0
138000.0 618249.0 0
142000.0 618224.0 0
146000.0 618228.0 0
150000.0 618211.0 0
154000.0 618220.0 0
158000.0 618208.0 0
162000.0 618217.0 0
166000.0 618207.0 0
170000.0 618213.0 0
174000.0 618207.0 0
178000.0 618211.0 0
182000.0 618207.0 0
186000.0 618210.0 0
190000.0 618207.0 0
194000.0 618209.0 0
198000.0 618207.0 0
202000.0 618207.0 0
206000.0 618207.0 0
210000.0 618207.0 0
214000.0 618207.0 0
218000.0 618207.0 0
222000.0 618207.0 0
226000.0 618207.0 0
230000.0 618207.0 0
234000.0 618207.0 0
238000.0 618207.0 0
242000.0 618207.0 0
246000.0 618207.0 0
250000.0 618207.0 0
254000.0 618207.0 0
258000.0 618207.0 0
262000.0 618207.0 0
266000.0 618207.0 0
270000.0 618207.0 0
274000.0 618207.0 0
278000.0 618207.0 0
282000.0 618207.0 0
286000.0 618207.0 0
290000.0 618207.0 0
294000.0 618207.0 0
298000.0 618207.0 0
302000.0 618207.0 0
306000.0 618209.0 0
310000.0 618207.0 0
314000.0 618210.0 0
318000.0 618207.0 0
322000.0 618211.0 0
326000.0 618207.0 0
330000.0 618213.0 0
334000.0 618207.0 0
338000.0 618217.0 0
342000.0 618208.0 0
346000.0 618220.0 0
350000.0 618211.0 0
354000.0 618228.0 0
358000.0 618224.0 0
362000.0 618249.0 0
366000.0 618236.0 0
370000.0 618260.0 0
374000.0 618248.0 0
378000.0 618257.0 0
382000.0 618231.0 0
386000.0 618243.0 0
390000.0 618258.0 0
394000.0 618267.0 0
398000.0 618269.0 0
102000.0 622268.0 0
106000.0 622266.0 0
110000.0 622257.0 0
114000.0 622243.0 0
118000.0 622230.0 0
122000.0 622256.0 0
126000.0 622247.0 0
130000.0 622258.0 0
134000.0 622235.0 0
138000.0 622248.0 0
142000.0 622223.0 0
146000.0 622227.0 0
150000.0 622211.0 0
154000.0 622220.0 0
158000.0 622208.0 0
162000.0 622216.0 0
166000.0 622207.0 0
170000.0 622213.0 0
174000.0 622207.0 0
178000.0 622211.0 0
182000.0 622207.0 0
186000.0 622209.0 0
190000.0 622207.0 0
194000.0 622208.0 0
198000.0 622207.0 0
202000.0 622207.0 0
206000.0 622207.0 0
210000.0 622207.0 0
214000.0 622207.0 0
218000.0 622207.0 0
222000.0 622207.0 0
226000.0 622207.0 0
230000.0 622207.0 0
234000.0 622207.0 0
238000.0 622207.0 0
242000.0 622207.0 0
246000.0 622207.0 0
250000.0 622207.0 0
254000.0 622207.0 0
258000.0 622207.0 0
262000.0 622207.0 0
266000.0 622207.0 0
270000.0 622207.0 0
274000.0 622207.0 0
278000.0 622207.0 0
282000.0 622207.0 0
286000.0 622207.0 0
290000.0 622207.0 0
294000.0 622207.0 0
298000.0 622207.0 0
302000.0 622207.0 0
306000.0 622208.0 0
310000.0 622207.0 0
314000.0 622209.0 0
318000.0 622207.0 0
322000.0 622211.0 0
326000.0 622207.0 0
330000.0 622213.0 0
334000.0 622207.0 0
338000.0 622216.0 0
342000.0 622208.0 0
346000.0 622220.0 0
350000.0 622211.0 0
354000.0 622227.0 0
358000.0 622223.0 0
362000.0 622248.0 0
366000.0 622235.0 0
370000.0 622258.0 0
374000.0 622247.0 0
378000.0 622256.0 0
382000.0 622230.0 0
386000.0 622243.0 0
390000.0 622257.0 0
394000.0 622266.0 0
398000.0 622268.0 0
102000.0 626267.0 0
106000.0 626266.0 0
110000.0 626256.0 0
114000.0 626242.0 0
118000.0 626229.0 0
122000.0 626255.0 0
126000.0 626246.0 0
130000.0 626257.0 0
134000.0 626233.0 0
138000.0 626246.0 0
142000.0 626222.0 0
146000.0 626226.0 0
150000.0 626211.0 0
154000.0 626219.0 0
158000.0 626208.0 0
162000.0 626216.0 0
166000.0 626207.0 0
170000.0 626213.0 0
174000.0 626207.0 0
178000.0 626210.0 0
182000.0 626207.0 0
186000.0 626209.0 0
190000.0 626207.0 0
194000.0 626208.0 0
198000.0 626207.0 0
202000.0 626207.0 0
206000.0 626207.0 0
210000.0 626207.0 0
214000.0 626207.0 0
218000.0 626207.0 0
222000.0 626207.0 0
226000.0 626207.0 0
230000.0 626207.0 0
234000.0 626207.0 0
238000.0 626207.0 0
242000.0 626207.0 0
246000.0 626207.0 0
250000.0 626207.0 0
254000.0 626207.0 0
258000.0 626207.0 0
262000.0 626207.0 0
266000.0 626207.0 0
270000.0 626207.0 0
274000.0 626207.0 0
278000.0 626207.0 0
282000.0 626207.0 0
286000.0 626207.0 0
290000.0 626207.0 0
294000.0 626207.0 0
298000.0 626207.0 0
302000.0 626207.0 0
306000.0 626208.0 0
310000.0 626207.0 0
314000.0 626209.0 0
318000.0 626207.0 0
322000.0 626210.0 0
326000.0 626207.0 0
330000.0 626213.0 0
334000.0 626207.0 0
338000.0 626216.0 0
342000.0 626208.0 0
346000.0 626219.0 0
350000.0 626211.0 0
354000.0 626226.0 0
358000.0 626222.0 0
362000.0 626246.0 0
366000.0 626233.0 0
370000.0 626257.0 0
374000.0 626246.0 0
378000.0 626255.0 0
382000.0 626229.0 0
386000.0 626242.0 0
390000.0 626256.0 0
394000.0 626266.0 0
398000.0 626267.0 0
102000.0 630267.0 0
106000.0 630265.0 0
110000.0 630256.0 0
114000.0 630242.0 0
118000.0 630229.0 0
122000.0 630255.0 0
126000.0 630245.0 0
130000.0 630256.0 0
134000.0 630233.0 0
138000.0 630246.0 0
142000.0 630221.0 0
146000.0 630226.0 0
150000.0 630210.0 0
154000.0 630219.0 0
158000.0 630208.0 0
162000.0 630216.0 0
166000.0 630207.0 0
170000.0 630213.0 0
174000.0 630207.0 0
178000.0 630210.0 0
182000.0 630207.0 0
186000.0 630209.0 0
190000.0 630207.0 0
194000.0 630208.0 0
198000.0 630207.0 0
202000.0 630207.0 0
206000.0 630207.0 0
210000.0 630207.0 0
214000.0 630207.0 0
218000.0 630207.0 0
222000.0 630207.0 0
226000.0 630207.0 0
230000.0 630207.0 0
234000.0 630207.0 0
238000.0 630207.0 0
242000.0 630207.0 0
246000.0 630207.0 0
250000.0 630207.0 0
254000.0 630207.0 0
258000.0 630207.0 0
262000.0 630207.0 0
266000.0 630207.0 0
270000.0 630207.0 0
274000.0 630207.0 0
278000.0 630207.0 0
282000.0 630207.0 0
286000.0 630207.0 0
290000.0 630207.0 0
294000.0 630207.0 0
298000.0 630207.0 0
302000.0 630207.0 0
306000.0 630208.0 0
310000.0 630207.0 0
314000.0 630209.0 0
318000.0 630207.0 0
322000.0 630210.0 0
326000.0 630207.0 0
330000.0 630213.0 0
334000.0 630207.0 0
338000.0 630216.0 0
342000.0 630208.0 0
346000.0 630219.0 0
350000.0 630210.0 0
354000.0 630226.0 0
358000.0 630221.0 0
362000.0 630246.0 0
366000.0 630233.0 0
370000.0 630256.0 0
374000.0 630245.0 0
378000.0 630255.0 0
382000.0 630229.0 0
386000.0 630242.0 0
390000.0 630256.0 0
394000.0 630265.0 0
398000.0 630267.0 0
102000.0 634266.0 0
106000.0 634265.0 0
110000.0 634255.0 0
114000.0 634242.0 0
118000.0 634229.0 0
122000.0 634255.0 0
126000.0 634245.0 0
130000.0 634255.0 0
134000.0 634232.0 0
138000.0 634245.0 0
142000.0 634221.0 0
146000.0 634226.0 0
150000.0 634210.0 0
154000.0 634219.0 0
158000.0 634208.0 0
162000.0 634216.0 0
166000.0 634207.0 0
170000.0 634212.0 0
174000.0 634207.0 0
178000.0 634210.0 0
182000.0 634207.0 0
186000.0 634209.0 0
190000.0 634207.0 0
194000.0 634208.0 0
198000.0 634207.0 0
202000.0 634207.0 0
206000.0 634207.0 0
210000.0 634207.0 0
214000.0 634207.0 0
218000.0 634207.0 0
222000.0 634207.0 0
226000.0 634207.0 0
230000.0 634207.0 0
234000.0 634207.0 0
238000.0 634207.0 0
242000.0 634207.0 0
246000.0 634207.0 0
250000.0 634207.0 0
254000.0 634207.0 0
258000.0 634207.0 0
262000.0 634207.0 0
266000.0 634207.0 0
270000.0 634207.0 0
274000.0 634207.0 0
278000.0 634207.0 0
282000.0 634207.0 0
286000.0 634207.0 0
290000.0 634207.0 0
294000.0 634207.0 0
298000.0 634207.0 0
302000.0 634207.0 0
306000.0 634208.0 0
310000.0 634207.0 0
314000.0 634209.0 0
318000.0 634207.0 0
322000.0 634210.0 0
326000.0 634207.0 0
330000.0 634212.0 0
334000.0 634207.0 0
338000.0 634216.0 0
342000.0 634208.0 0
346000.0 634219.0 0
350000.0 634210.0 0
354000.0 634226.0 0
358000.0 634221.0 0
362000.0 634245.0 0
366000.0 634232.0 0
370000.0 634255.0 0
374000.0 634245.0 0
378000.0 634255.0 0
382000.0 634229.0 0
386000.0 634242.0 0
390000.0 634255.0 0
394000.0 634265.0 0
398000.0 634266.0 0
POINT_DATA 4650
SCALARS Radius float 1
LOOKUP_TABLE default
4000.0 4000.0 4000.0 4000.0 4000.0 4000.0 4000.0 4000.0 4000.0 4000.0 4000.0 4000.0 4000.0 4000.0 4000.0 4000.0 4000.0 4000.0 4000.0 4000.0 4000.0 4000.0 4000.0 4000.0 4000.0 4000.0 4000.0 4000.0 4000.0 4000.0 4000.0 4000.0 4000.0 4000.0 4000.0 4000.0 4000.0 4000.0 4000.0 4000.0 4000.0 4000.0 4000.0 4000.0 4000.0 4000.0 4000.0 4000.0 4000.0 4000.0 4000.0 4000.0 4000.0 4000.0 4000.0 4000.0 4000.0 4000.0 4000.0 4000.0 4000.0 4000.0 4000.0 4000.0 4000.0 4000.0 4000.0 4000.0 4000.0 4000.0 4000.0 4000.0 4000.0 4000.0 4000.0 4000.0 4000.0 4000.0 4000.0 4000.0 4000.0 4000.0 4000.0 4000.0 4000.0 4000.0 4000.0 4000.0 4000.0 4000.0 4000.0 4000.0 4000.0 4000.0 4000.0 4000.0 4000.0 4000.0 4000.0 4000.0 4000.0 4000.0 4000.0 4000.0 4000.0 4000.0 4000.0 4000.0 4000.0 4000.0 4000.0 4000.0 4000.0 4000.0 4000.0 4000.0 4000.0 4000.0 4000.0 4000.0 4000.0 4000.0 4000.0 4000.0 4000.0 4000.0 4000.0 4000.0 4000.0 4000.0 4000.0 4000.0 4000.0 4000.0 4000.0 4000.0 4000.0 4000.0 4000.0 4000.0 4000.0 4000.0 4000.0 4000.0 4000.0 4000.0 4000.0 4000.0 4000.0 4000.0 4000.0 4000.0 4000.0 4000.0 4000.0 4000.0 4000.0 4000.0 4000.0 4000.0 4000.0 4000.0 4000.0 4000.0 4000.0 4000.0 4000.0 4000.0 4000.0 4000.0 4000.0 4000.0 4000.0 4000.0 4000.0 4000.0 4000.0 4000.0 4000.0 4000.0 4000.0 4000.0 4000.0 4000.0 4000.0 4000.0 4000.0 4000.0 4000.0 4000.0 4000.0 4000.0 4000.0 4000.0 4000.0 4000.0 4000.0 4000.0 4000.0 4000.0 4000.0 4000.0 4000.0 4000.0 4000.0 4000.0 4000.0 4000.0 4000.0 4000.0 4000.0 4000.0 4000.0 4000.0 4000.0 4000.0 4000.0 4000.0 4000.0 4000.0 4000.0 4000.0 4000.0 4000.0 4000.0 4000.0 4000.0 4000.0 4000.0 4000.0 4000.0 4000.0 4000.0 4000.0 4000.0 4000.0 4000.0 4000.0 4000.0 4000.0 4000.0 4000.0 4000.0 4000.0 4000.0 4000.0 4000.0 4000.0 4000.0 4000.0 4000.0 4000.0 4000.0 4000.0 4000.0 4000.0 4000.0 4000.0 4000.0 4000.0 4000.0 4000.0 4000.0 4000.0 4000.0 4000.0 4000.0 4000.0 4000.0 4000.0 4000.0 4000.0 4000.0 4000.0 4000.0 4000.0 4000.0 4000.0 4000.0 4000.0 4000.0 4000.0 4000.0 4000.0 4000.0 4000.0 4000.0 4000.0 4000.0 4000.0 4000.0 4000.0 4000.0 4000.0 4000.0 4000.0 4000.0 4000.0 4000.0 4000.0 4000.0 4000.0 4000.0 4000.0 4000.0 4000.0 4000.0 4000.0 4000.0 4000.0 4000.0 4000.0 4000.0 4000.0 4000.0 4000.0 4000.0 4000.0 4000.0 4000.0 4000.0 4000.0 4000.0 4000.0 4000.0 4000.0 4000.0 4000.0 4000.0 4000.0 4000.0 4000.0 4000.0 4000.0 4000.0 4000.0 4000.0 4000.0 4000.0 4000.0 4000.0 4000.0 4000.0 4000.0 4000.0 4000.0 4000.0 4000.0 4000.0 4000.0 4000.0 4000.0 4000.0 4000.0 4000.0 4000.0 4000.0 4000.0 4000.0 4000.0 4000.0 4000.0 4000.0 4000.0 4000.0 4000.0 4000.0 4000.0 4000.0 4000.0 4000.0 4000.0 4000.0 4000.0 4000.0 4000.0 4000.0 4000.0 4000.0 4000.0 4000.0 4000.0 4000.0 4000.0 4000.0 4000.0 4000.0 4000.0 4000.0 4000.0 4000.0 4000.0 4000.0 4000.0 4000.0 4000.0 4000.0 4000.0 4000.0 4000.0 4000.0 4000.0 4000.0 4000.0 4000.0 4000.0 4000.0 4000.0 4000.0 4000.0 4000.0 4000.0 4000.0 4000.0 4000.0 4000.0 4000.0 4000.0 4000.0 4000.0 4000.0 4000.0 4000.0 4000.0 4000.0 4000.0 4000.0 4000.0 4000.0 4000.0 4000.0 4000.0 4000.0 4000.0 4000.0 4000.0 4000.0 4000.0 4000.0 4000.0 4000.0 4000.0 4000.0 4000.0 4000.0 4000.0 4000.0 4000.0 4000.0 4000.0 4000.0 4000.0 4000.0 4000.0 4000.0 4000.0 4000.0 4000.0 4000.0 4000.0 4000.0 4000.0 4000.0 4000.0 4000.0 4000.0 4000.0 4000.0 4000.0 4000.0 4000.0 4000.0 4000.0 4000.0 4000.0 4000.0 4000.0 4000.0 4000.0 4000.0 4000.0 4000.0 4000.0 4000.0 4000.0 4000.0 4000.0 4000.0 4000.0 4000.0 4000.0 4000.0 4000.0 4000.0 4000.0 4000.0 4000.0 4000.0 4000.0 4000.0 4000.0 4000.0 4000.0 4000.0 4000.0 4000.0 4000.0 4000.0 4000.0 4000.0 4000.0 4000.0 4000.0 4000.0 4000.0 4000.0 4000.0 4000.0 4000.0 4000.0 4000.0 4000.0 4000.0 4000.0 4000.0 4000.0 4000.0 4000.0 4000.0 4000.0 4000.0 4000.0 4000.0 4000.0 4000.0 4000.0 4000.0 4000.0 4000.0 4000.0 4000.0 4000.0 4000.0 4000.0 4000.0 4000.0 4000.0 4000.0 4000.0 4000.0 4000.0 4000.0 4000.0 4000.0 4000.0 4000.0 4000.0 4000.0 4000.0 4000.0 4000.0 4000.0 4000.0 4000.0 4000.0 4000.0 4000.0 4000.0 4000.0 4000.0 4000.0 4000.0 4000.0 4000.0 4000.0 4000.0 4000.0 4000.0 4000.0 4000.0 4000.0 4000.0 4000.0 4000.0 4000.0 4000.0 4000.0 4000.0 4000.0 4000.0 4000.0 4000.0 4000.0 4000.0 4000.0 4000.0 4000.0 4000.0 4000.0 4000.0 4000.0 4000.0 4000.0 4000.0 4000.0 4000.0 4000.0 4000.0 4000.0 4000.0 4000.0 4000.0 4000.0 4000.0 4000.0 4000.0 4000.0 4000.0 4000.0 4000.0 4000.0 4000.0 4000.0 4000.0 4000.0 4000.0 4000.0 4000.0 4000.0 4000.0 4000.0 4000.0 4000.0 4000.0 4000.0 4000.0 4000.0 4000.0 4000.0 4000.0 4000.0 4000.0 4000.0 4000.0 4000.0 4000.0 4000.0 4000.0 4000.0 4000.0 4000.0 4000.0 4000.0 4000.0 4000.0 4000.0 4000.0 4000.0 4000.0 4000.0 4000.0 4000.0 4000.0 4000.0 4000.0 4000.0 4000.0 4000.0 4000.0 4000.0 4000.0 4000.0 4000.0 4000.0 4000.0 4000.0 4000.0 4000.0 4000.0 4000.0 4000.0 4000.0 4000.0 4000.0 4000.0 4000.0 4000.0 4000.0 4000.0 4000.0 4000.0 4000.0 4000.0 4000.0 4000.0 4000.0 4000.0 4000.0 4000.0 4000.0 4000.0 4000.0 4000.0 4000.0 4000.0 4000.0 4000.0 4000.0 4000.0 4000.0 4000.0 4000.0 4000.0 4000.0 4000.0 4000.0 4000.0 4000.0 4000.0 4000.0 4000.0 4000.0 4000.0 4000.0 4000.0 4000.0 4000.0 4000.0 4000.0 4000.0 4000.0 4000.0 4000.0 4000.0 4000.0 4000.0 4000.0 4000.0 4000.0 4000.0 4000.0 4000.0 4000.0 4000.0 4000.0 4000.0 4000.0 4000.0 4000.0 4000.0 4000.0 4000.0 4000.0 4000.0 4000.0 4000.0 4000.0 4000.0 4000.0 4000.0 4000.0 4000.0 4000.0 4000.0 4000.0 4000.0 4000.0 4000.0 4000.0 4000.0 4000.0 4000.0 4000.0 4000.0 4000.0 4000.0 4000.0 4000.0 4000.0 4000.0 4000.0 4000.0 4000.0 4000.0 4000.0 4000.0 4000.0 4000.0 4000.0 4000.0 4000.0 4000.0 4000.0 4000.0 4000.0 4000.0 4000.0 4000.0 4000.0 4000.0 4000.0 4000.0 4000.0 4000.0 4000.0 4000.0 4000.0 4000.0 4000.0 4000.0 4000.0 4000.0 4000.0 4000.0 4000.0 4000.0 4000.0 4000.0 4000.0 4000.0 4000.0 4000.0 4000.0 4000.0 4000.0 4000.0 4000.0 4000.0 4000.0 4000.0 4000.0 4000.0 4000.0 4000.0 4000.0 4000.0 4000.0 4000.0 4000.0 4000.0 4000.0 4000.0 4000.0 4000.0 4000.0 4000.0 4000.0 4000.0 4000.0 4000.0 4000.0 4000.0 4000.0 4000.0 4000.0 4000.0 4000.0 4000.0 4000.0 4000.0 4000.0 4000.0 4000.0 4000.0 4000.0 4000.0 4000.0 4000.0 4000.0 4000.0 4000.0 4000.0 4000.0 4000.0 4000.0 4000.0 4000.0 4000.0 4000.0 4000.0 4000.0 4000.0 4000.0 4000.0 4000.0 4000.0 4000.0 4000.0 4000.0 4000.0 4000.0 4000.0 4000.0 4000.0 4000.0 4000.0 4000.0 4000.0 4000.0 4000.0 4000.0 4000.0 4000.0 4000.0 4000.0 4000.0 4000.0 4000.0 4000.0 4000.0 4000.0 4000.0 4000.0 4000.0 4000.0 4000.0 4000.0 4000.0 4000.0 4000.0 4000.0 4000.0 4000.0 4000.0 4000.0 4000.0 4000.0 4000.0 4000.0 4000.0 4000.0 4000.0 4000.0 4000.0 4000.0 4000.0 4000.0 4000.0 4000.0 4000.0 4000.0 4000.0 4000.0 4000.0 4000.0 4000.0 4000.0 4000.0 4000.0 4000.0 4000.0 4000.0 4000.0 4000.0 4000.0 4000.0 4000.0 4000.0 4000.0 4000.0 4000.0 4000.0 4000.0 4000.0 4000.0 4000.0 4000.0 4000.0 4000.0 4000.0 4000.0 4000.0 4000.0 4000.0 4000.0 4000.0 4000.0 4000.0 4000.0 4000.0 4000.0 4000.0 4000.0 4000.0 4000.0 4000.0 4000.0 4000.0 4000.0 4000.0 4000.0 4000.0 4000.0 4000.0 4000.0 4000.0 4000.0 4000.0 4000.0 4000.0 4000.0 4000.0 4000.0 4000.0 4000.0 4000.0 4000.0 4000.0 4000.0 4000.0 4000.0 4000.0 4000.0 4000.0 4000.0 4000.0 4000.0 4000.0 4000.0 4000.0 4000.0 4000.0 4000.0 4000.0 4000.0 4000.0 4000.0 4000.0 4000.0 4000.0 4000.0 4000.0 4000.0 4000.0 4000.0 4000.0 4000.0 4000.0 4000.0 4000.0 4000.0 4000.0 4000.0 4000.0 4000.0 4000.0 4000.0 4000.0 4000.0 4000.0 4000.0 4000.0 4000.0 4000.0 4000.0 4000.0 4000.0 4000.0 4000.0 4000.0 4000.0 4000.0 4000.0 4000.0 4000.0 4000.0 4000.0 4000.0 4000.0 4000.0 4000.0 4000.0 4000.0 4000.0 4000.0 4000.0 4000.0 4000.0 4000.0 4000.0 4000.0 4000.0 4000.0 4000.0 4000.0 4000.0 4000.0 4000.0 4000.0 4000.0 4000.0 4000.0 4000.0 4000.0 4000.0 4000.0 4000.0 4000.0 4000.0 4000.0 4000.0 4000.0 4000.0 4000.0 4000.0 4000.0 4000.0 4000.0 4000.0 4000.0 4000.0 4000.0 4000.0 4000.0 4000.0 4000.0 4000.0 4000.0 4000.0 4000.0 4000.0 4000.0 4000.0 4000.0 4000.0 4000.0 4000.0 4000.0 4000.0 4000.0 4000.0 4000.0 4000.0 4000.0 4000.0 4000.0 4000.0 4000.0 4000.0 4000.0 4000.0 4000.0 4000.0 4000.0 4000.0 4000.0 4000.0 4000.0 4000.0 4000.0 4000.0 4000.0 4000.0 4000.0 4000.0 4000.0 4000.0 4000.0 4000.0 4000.0 4000.0 4000.0 4000.0 4000.0 4000.0 4000.0 4000.0 4000.0 4000.0 4000.0 4000.0 4000.0 4000.0 4000.0 4000.0 4000.0 4000.0 4000.0 4000.0 4000.0 4000.0 4000.0 4000.0 4000.0 4000.0 4000.0 4000.0 4000.0 4000.0 4000.0 4000.0 4000.0 4000.0 4000.0 4000.0 4000.0 4000.0 4000.0 4000.0 4000.0 4000.0 4000.0 4000.0 4000.0 4000.0 4000.0 4000.0 4000.0 4000.0 4000.0 4000.0 4000.0 4000.0 4000.0 4000.0 4000.0 4000.0 4000.0 4000.0 4000.0 4000.0 4000.0 4000.0 4000.0 4000.0 4000.0 4000.0 4000.0 4000.0 4000.0 4000.0 4000.0 4000.0 4000.0 4000.0 4000.0 4000.0 4000.0 4000.0 4000.0 4000.0 4000.0 4000.0 4000.0 4000.0 4000.0 4000.0 4000.0 4000.0 4000.0 4000.0 4000.0 4000.0 4000.0 4000.0 4000.0 4000.0 4000.0 4000.0 4000.0 4000.0 4000.0 4000.0 4000.0 4000.0 4000.0 4000.0 4000.0 4000.0 4000.0 4000.0 4000.0 4000.0 4000.0 4000.0 4000.0 4000.0 4000.0 4000.0 4000.0 4000.0 4000.0 4000.0 4000.0 4000.0 4000.0 4000.0 4000.0 4000.0 4000.0 4000.0 4000.0 4000.0 4000.0 4000.0 4000.0 4000.0 4000.0 4000.0 4000.0 4000.0 4000.0 4000.0 4000.0 4000.0 4000.0 4000.0 4000.0 4000.0 4000.0 4000.0 4000.0 4000.0 4000.0 4000.0 4000.0 4000.0 4000.0 4000.0 4000.0 4000.0 4000.0 4000.0 4000.0 4000.0 4000.0 4000.0 4000.0 4000.0 4000.0 4000.0 4000.0 4000.0 4000.0 4000.0 4000.0 4000.0 4000.0 4000.0 4000.0 4000.0 4000.0 4000.0 4000.0 4000.0 4000.0 4000.0 4000.0 4000.0 4000.0 4000.0 4000.0 4000.0 4000.0 4000.0 4000.0 4000.0 4000.0 4000.0 4000.0 4000.0 4000.0 4000.0 4000.0 4000.0 4000.0 4000.0 4000.0 4000.0 4000.0 4000.0 4000.0 4000.0 4000.0 4000.0 4000.0 4000.0 4000.0 4000.0 4000.0 4000.0 4000.0 4000.0 4000.0 4000.0 4000.0 4000.0 4000.0 4000.0 4000.0 4000.0 4000.0 4000.0 4000.0 4000.0 4000.0 4000.0 4000.0 4000.0 4000.0 4000.0 4000.0 4000.0 4000.0 4000.0 4000.0 4000.0 4000.0 4000.0 4000.0 4000.0 4000.0 4000.0 4000.0 4000.0 4000.0 4000.0 4000.0 4000.0 4000.0 4000.0 4000.0 4000.0 4000.0 4000.0 4000.0 4000.0 4000.0 4000.0 4000.0 4000.0 4000.0 4000.0 4000.0 4000.0 4000.0 4000.0 4000.0 4000.0 4000.0 4000.0 4000.0 4000.0 4000.0 4000.0 4000.0 4000.0 4000.0 4000.0 4000.0 4000.0 4000.0 4000.0 4000.0 4000.0 4000.0 4000.0 4000.0 4000.0 4000.0 4000.0 4000.0 4000.0 4000.0 4000.0 4000.0 4000.0 4000.0 4000.0 4000.0 4000.0 4000.0 4000.0 4000.0 4000.0 4000.0 4000.0 4000.0 4000.0 4000.0 4000.0 4000.0 4000.0 4000.0 4000.0 4000.0 4000.0 4000.0 4000.0 4000.0 4000.0 4000.0 4000.0 4000.0 4000.0 4000.0 4000.0 4000.0 4000.0 4000.0 4000.0 4000.0 4000.0 4000.0 4000.0 4000.0 4000.0 4000.0 4000.0 4000.0 4000.0 4000.0 4000.0 4000.0 4000.0 4000.0 4000.0 4000.0 4000.0 4000.0 4000.0 4000.0 4000.0 4000.0 4000.0 4000.0 4000.0 4000.0 4000.0 4000.0 4000.0 4000.0 4000.0 4000.0 4000.0 4000.0 4000.0 4000.0 4000.0 4000.0 4000.0 4000.0 4000.0 4000.0 4000.0 4000.0 4000.0 4000.0 4000.0 4000.0 4000.0 4000.0 4000.0 4000.0 4000.0 4000.0 4000.0 4000.0 4000.0 4000.0 4000.0 4000.0 4000.0 4000.0 4000.0 4000.0 4000.0 4000.0 4000.0 4000.0 4000.0 4000.0 4000.0 4000.0 4000.0 4000.0 4000.0 4000.0 4000.0 4000.0 4000.0 4000.0 4000.0 4000.0 4000.0 4000.0 4000.0 4000.0 4000.0 4000.0 4000.0 4000.0 4000.0 4000.0 4000.0 4000.0 4000.0 4000.0 4000.0 4000.0 4000.0 4000.0 4000.0 4000.0 4000.0 4000.0 4000.0 4000.0 4000.0 4000.0 4000.0 4000.0 4000.0 4000.0 4000.0 4000.0 4000.0 4000.0 4000.0 4000.0 4000.0 4000.0 4000.0 4000.0 4000.0 4000.0 4000.0 4000.0 4000.0 4000.0 4000.0 4000.0 4000.0 4000.0 4000.0 4000.0 4000.0 4000.0 4000.0 4000.0 4000.0 4000.0 4000.0 4000.0 4000.0 4000.0 4000.0 4000.0 4000.0 4000.0 4000.0 4000.0 4000.0 4000.0 4000.0 4000.0 4000.0 4000.0 4000.0 4000.0 4000.0 4000.0 4000.0 4000.0 4000.0 4000.0 4000.0 4000.0 4000.0 4000.0 4000.0 4000.0 4000.0 4000.0 4000.0 4000.0 4000.0 4000.0 4000.0 4000.0 4000.0 4000.0 4000.0 4000.0 4000.0 4000.0 4000.0 4000.0 4000.0 4000.0 4000.0 4000.0 4000.0 4000.0 4000.0 4000.0 4000.0 4000.0 4000.0 4000.0 4000.0 4000.0 4000.0 4000.0 4000.0 4000.0 4000.0 4000.0 4000.0 4000.0 4000.0 4000.0 4000.0 4000.0 4000.0 4000.0 4000.0 4000.0 4000.0 4000.0 4000.0 4000.0 4000.0 4000.0 4000.0 4000.0 4000.0 4000.0 4000.0 4000.0 4000.0 4000.0 4000.0 4000.0 4000.0 4000.0 4000.0 4000.0 4000.0 4000.0 4000.0 4000.0 4000.0 4000.0 4000.0 4000.0 4000.0 4000.0 4000.0 4000.0 4000.0 4000.0 4000.0 4000.0 4000.0 4000.0 4000.0 4000.0 4000.0 4000.0 4000.0 4000.0 4000.0 4000.0 4000.0 4000.0 4000.0 4000.0 4000.0 4000.0 4000.0 4000.0 4000.0 4000.0 4000.0 4000.0 4000.0 4000.0 4000.0 4000.0 4000.0 4000.0 4000.0 4000.0 4000.0 4000.0 4000.0 4000.0 4000.0 4000.0 4000.0 4000.0 4000.0 4000.0 4000.0 4000.0 4000.0 4000.0 4000.0 4000.0 4000.0 4000.0 4000.0 4000.0 4000.0 4000.0 4000.0 4000.0 4000.0 4000.0 4000.0 4000.0 4000.0 4000.0 4000.0 4000.0 4000.0 4000.0 4000.0 4000.0 4000.0 4000.0 4000.0 4000.0 4000.0 4000.0 4000.0 4000.0 4000.0 4000.0 4000.0 4000.0 4000.0 4000.0 4000.0 4000.0 4000.0 4000.0 4000.0 4000.0 4000.0 4000.0 4000.0 4000.0 4000.0 4000.0 4000.0 4000.0 4000.0 4000.0 4000.0 4000.0 4000.0 4000.0 4000.0 4000.0 4000.0 4000.0 4000.0 4000.0 4000.0 4000.0 4000.0 4000.0 4000.0 4000.0 4000.0 4000.0 4000.0 4000.0 4000.0 4000.0 4000.0 4000.0 4000.0 4000.0 4000.0 4000.0 4000.0 4000.0 4000.0 4000.0 4000.0 4000.0 4000.0 4000.0 4000.0 4000.0 4000.0 4000.0 4000.0 4000.0 4000.0 4000.0 4000.0 4000.0 4000.0 4000.0 4000.0 4000.0 4000.0 4000.0 4000.0 4000.0 4000.0 4000.0 4000.0 4000.0 4000.0 4000.0 4000.0 4000.0 4000.0 4000.0 4000.0 4000.0 4000.0 4000.0 4000.0 4000.0 4000.0 4000.0 4000.0 4000.0 4000.0 4000.0 4000.0 4000.0 4000.0 4000.0 4000.0 4000.0 4000.0 4000.0 4000.0 4000.0 4000.0 4000.0 4000.0 4000.0 4000.0 4000.0 4000.0 4000.0 4000.0 4000.0 4000.0 4000.0 4000.0 4000.0 4000.0 4000.0 4000.0 4000.0 4000.0 4000.0 4000.0 4000.0 4000.0 4000.0 4000.0 4000.0 4000.0 4000.0 4000.0 4000.0 4000.0 4000.0 4000.0 4000.0 4000.0 4000.0 4000.0 4000.0 4000.0 4000.0 4000.0 4000.0 4000.0 4000.0 4000.0 4000.0 4000.0 4000.0 4000.0 4000.0 4000.0 4000.0 4000.0 4000.0 4000.0 4000.0 4000.0 4000.0 4000.0 4000.0 4000.0 4000.0 4000.0 4000.0 4000.0 4000.0 4000.0 4000.0 4000.0 4000.0 4000.0 4000.0 4000.0 4000.0 4000.0 4000.0 4000.0 4000.0 4000.0 4000.0 4000.0 4000.0 4000.0 4000.0 4000.0 4000.0 4000.0 4000.0 4000.0 4000.0 4000.0 4000.0 4000.0 4000.0 4000.0 4000.0 4000.0 4000.0 4000.0 4000.0 4000.0 4000.0 4000.0 4000.0 4000.0 4000.0 4000.0 4000.0 4000.0 4000.0 4000.0 4000.0 4000.0 4000.0 4000.0 4000.0 4000.0 4000.0 4000.0 4000.0 4000.0 4000.0 4000.0 4000.0 4000.0 4000.0 4000.0 4000.0 4000.0 4000.0 4000.0 4000.0 4000.0 4000.0 4000.0 4000.0 4000.0 4000.0 4000.0 4000.0 4000.0 4000.0 4000.0 4000.0 4000.0 4000.0 4000.0 4000.0 4000.0 4000.0 4000.0 4000.0 4000.0 4000.0 4000.0 4000.0 4000.0 4000.0 4000.0 4000.0 4000.0 4000.0 4000.0 4000.0 4000.0 4000.0 4000.0 4000.0 4000.0 4000.0 4000.0 4000.0 4000.0 4000.0 4000.0 4000.0 4000.0 4000.0 4000.0 4000.0 4000.0 4000.0 4000.0 4000.0 4000.0 4000.0 4000.0 4000.0 4000.0 4000.0 4000.0 4000.0 4000.0 4000.0 4000.0 4000.0 4000.0 4000.0 4000.0 4000.0 4000.0 4000.0 4000.0 4000.0 4000.0 4000.0 4000.0 4000.0 4000.0 4000.0 4000.0 4000.0 4000.0 4000.0 4000.0 4000.0 4000.0 4000.0 4000.0 4000.0 4000.0 4000.0 4000.0 4000.0 4000.0 4000.0 4000.0 4000.0 4000.0 4000.0 4000.0 4000.0 4000.0 4000.0 4000.0 4000.0 4000.0 4000.0 4000.0 4000.0 4000.0 4000.0 4000.0 4000.0 4000.0 4000.0 4000.0 4000.0 4000.0 4000.0 4000.0 4000.0 4000.0 4000.0 4000.0 4000.0 4000.0 4000.0 4000.0 4000.0 4000.0 4000.0 4000.0 4000.0 4000.0 4000.0 4000.0 4000.0 4000.0 4000.0 4000.0 4000.0 4000.0 4000.0 4000.0 4000.0 4000.0 4000.0 4000.0 4000.0 4000.0 4000.0 4000.0 4000.0 4000.0 4000.0 4000.0 4000.0 4000.0 4000.0 4000.0 4000.0 4000.0 4000.0 4000.0 4000.0 4000.0 4000.0 4000.0 4000.0 4000.0 4000.0 4000.0 4000.0 4000.0 4000.0 4000.0 4000.0 4000.0 4000.0 4000.0 4000.0 4000.0 4000.0 4000.0 4000.0 4000.0 4000.0 4000.0 4000.0 4000.0 4000.0 4000.0 4000.0 4000.0 4000.0 4000.0 4000.0 4000.0 4000.0 4000.0 4000.0 4000.0 4000.0 4000.0 4000.0 4000.0 4000.0 4000.0 4000.0 4000.0 4000.0 4000.0 4000.0 4000.0 4000.0 4000.0 4000.0 4000.0 4000.0 4000.0 4000.0 4000.0 4000.0 4000.0 4000.0 4000.0 4000.0 4000.0 4000.0 4000.0 4000.0 4000.0 4000.0 4000.0 4000.0 4000.0 4000.0 4000.0 4000.0 4000.0 4000.0 4000.0 4000.0 4000.0 4000.0 4000.0 4000.0 4000.0 4000.0 4000.0 4000.0 4000.0 4000.0 4000.0 4000.0 4000.0 4000.0 4000.0 4000.0 4000.0 4000.0 4000.0 4000.0 4000.0 4000.0 4000.0 4000.0 4000.0 4000.0 4000.0 4000.0 4000.0 4000.0 4000.0 4000.0 4000.0 4000.0 4000.0 4000.0 4000.0 4000.0 4000.0 4000.0 4000.0 4000.0 4000.0 4000.0 4000.0 4000.0 4000.0 4000.0 4000.0 4000.0 4000.0 4000.0 4000.0 4000.0 4000.0 4000.0 4000.0 4000.0 4000.0 4000.0 4000.0 4000.0 4000.0 4000.0 4000.0 4000.0 4000.0 4000.0 4000.0 4000.0 4000.0 4000.0 4000.0 4000.0 4000.0 4000.0 4000.0 4000.0 4000.0 4000.0 4000.0 4000.0 4000.0 4000.0 4000.0 4000.0 4000.0 4000.0 4000.0 4000.0 4000.0 4000.0 4000.0 4000.0 4000.0 4000.0 4000.0 4000.0 4000.0 4000.0 4000.0 4000.0 4000.0 4000.0 4000.0 4000.0 4000.0 4000.0 4000.0 4000.0 4000.0 4000.0 4000.0 4000.0 4000.0 4000.0 4000.0 4000.0 4000.0 4000.0 4000.0 4000.0 4000.0 4000.0 4000.0 4000.0 4000.0 4000.0 4000.0 4000.0 4000.0 4000.0 4000.0 4000.0 4000.0 4000.0 4000.0 4000.0 4000.0 4000.0 4000.0 4000.0 4000.0 4000.0 4000.0 4000.0 4000.0 4000.0 4000.0 4000.0 4000.0 4000.0 4000.0 4000.0 4000.0 4000.0 4000.0 4000.0 4000.0 4000.0 4000.0 4000.0 4000.0 4000.0 4000.0 4000.0 4000.0 4000.0 4000.0 4000.0 4000.0 4000.0 4000.0 4000.0 4000.0 4000.0 4000.0 4000.0 4000.0 4000.0 4000.0 4000.0 4000.0 4000.0 4000.0 4000.0 4000.0 4000.0 4000.0 4000.0 4000.0 4000.0 4000.0 4000.0 4000.0 4000.0 4000.0 4000.0 4000.0 4000.0 4000.0 4000.0 4000.0 4000.0 4000.0 4000.0 4000.0 4000.0 4000.0 4000.0 4000.0 4000.0 4000.0 4000.0 4000.0 4000.0 4000.0 4000.0 4000.0 4000.0 4000.0 4000.0 4000.0 4000.0 4000.0 4000.0 4000.0 4000.0 4000.0 4000.0 4000.0 4000.0 4000.0 4000.0 4000.0 4000.0 4000.0 4000.0 4000.0 4000.0 4000.0 4000.0 4000.0 4000.0 4000.0 4000.0 4000.0 4000.0 4000.0 4000.0 4000.0 4000.0 4000.0 4000.0 4000.0 4000.0 4000.0 4000.0 4000.0 4000.0 4000.0 4000.0 4000.0 4000.0 4000.0 4000.0 4000.0 4000.0 4000.0 4000.0 4000.0 4000.0 4000.0 4000.0 4000.0 4000.0 4000.0 4000.0 4000.0 4000.0 4000.0 4000.0 4000.0 4000.0 4000.0 4000.0 4000.0 4000.0 4000.0 4000.0 4000.0 4000.0 4000.0 4000.0 4000.0 4000.0 4000.0 4000.0 4000.0 4000.0 4000.0 4000.0 4000.0 4000.0 4000.0 4000.0 4000.0 4000.0 4000.0 4000.0 4000.0 4000.0 4000.0 4000.0 4000.0 4000.0 4000.0 4000.0 4000.0 4000.0 4000.0 4000.0 4000.0 4000.0 4000.0 4000.0 4000.0 4000.0 4000.0 4000.0 4000.0 4000.0 4000.0 4000.0 4000.0 4000.0 4000.0 4000.0 4000.0 4000.0 4000.0 4000.0 4000.0 4000.0 4000.0 4000.0 4000.0 4000.0 4000.0 4000.0 4000.0 4000.0 4000.0 4000.0 4000.0 4000.0 4000.0 4000.0 4000.0 4000.0 4000.0 4000.0 4000.0 4000.0 4000.0 4000.0 4000.0 4000.0 4000.0 4000.0 4000.0 4000.0 4000.0 4000.0 4000.0 4000.0 4000.0 4000.0 4000.0 4000.0 4000.0 4000.0 4000.0 4000.0 4000.0 4000.0 4000.0 4000.0 4000.0 4000.0 4000.0 4000.0 4000.0 4000.0 4000.0 4000.0 4000.0 4000.0 4000.0 4000.0 4000.0 4000.0 4000.0 4000.0 4000.0 4000.0 4000.0 4000.0 4000.0 4000.0 4000.0 4000.0 4000.0 4000.0 4000.0 4000.0 4000.0 4000.0 4000.0 4000.0 4000.0 4000.0 4000.0 4000.0 4000.0 4000.0 4000.0 4000.0 4000.0 4000.0 4000.0 4000.0 4000.0 4000.0 4000.0 4000.0 4000.0 4000.0 4000.0 4000.0 4000.0 4000.0 4000.0 4000.0 4000.0 4000.0 4000.0 4000.0 4000.0 4000.0 4000.0 4000.0 4000.0 4000.0 4000.0 4000.0 4000.0 4000.0 4000.0 4000.0 4000.0 4000.0 4000.0 4000.0 4000.0 4000.0 4000.0 4000.0 4000.0 4000.0 4000.0 4000.0 4000.0 4000.0 4000.0 4000.0 4000.0 4000.0 4000.0 4000.0 4000.0 4000.0 4000.0 4000.0 4000.0 4000.0 4000.0 4000.0 4000.0 4000.0 4000.0 4000.0 4000.0 4000.0 4000.0 4000.0 4000.0 4000.0 4000.0 4000.0 4000.0 4000.0 4000.0 4000.0 4000.0 4000.0 4000.0 4000.0 4000.0 4000.0 4000.0 4000.0 4000.0 4000.0 4000.0 4000.0 4000.0 4000.0 4000.0 4000.0 4000.0 4000.0 4000.0 4000.0 4000.0 4000.0 4000.0 4000.0 4000.0 4000.0 4000.0 4000.0 4000.0 4000.0 4000.0 4000.0 4000.0 4000.0 4000.0 4000.0 4000.0 4000.0 4000.0 4000.0 4000.0 4000.0 4000.0 4000.0 4000.0 4000.0 4000.0 4000.0 4000.0 4000.0 4000.0 4000.0 4000.0 4000.0 4000.0 4000.0 4000.0 4000.0 4000.0 4000.0 4000.0 4000.0 4000.0 4000.0 4000.0 4000.0 4000.0 4000.0 4000.0 4000.0 4000.0 4000.0 4000.0 4000.0 4000.0 4000.0 4000.0 4000.0 4000.0 4000.0 4000.0 4000.0 4000.0 4000.0 4000.0 4000.0 4000.0 4000.0 4000.0 4000.0 4000.0 4000.0 4000.0 4000.0 4000.0 4000.0 4000.0 4000.0 4000.0 4000.0 4000.0 4000.0 4000.0 4000.0 4000.0 4000.0 4000.0 4000.0 4000.0 4000.0 4000.0 4000.0 4000.0 4000.0 4000.0 4000.0 4000.0 4000.0 4000.0 4000.0 4000.0 4000.0 4000.0 4000.0 4000.0 4000.0 4000.0 4000.0 4000.0 4000.0 4000.0 4000.0 4000.0 4000.0 4000.0 4000.0 4000.0 4000.0 4000.0 4000.0 4000.0 4000.0 4000.0 4000.0 4000.0 4000.0 4000.0 4000.0 4000.0 4000.0 4000.0 4000.0 4000.0 4000.0 4000.0 4000.0 4000.0 4000.0 4000.0 4000.0 4000.0 4000.0 4000.0 4000.0 4000.0 4000.0 4000.0 4000.0 4000.0 4000.0 4000.0 4000.0 4000.0 4000.0 4000.0 4000.0 4000.0 4000.0 4000.0 4000.0 4000.0 4000.0 4000.0 4000.0 4000.0 4000.0 4000.0 4000.0 4000.0 4000.0 4000.0 4000.0 4000.0 4000.0 4000.0 4000.0 4000.0 4000.0 4000.0 4000.0 4000.0 4000.0 4000.0 4000.0 4000.0 4000.0 4000.0 4000.0 4000.0 4000.0 4000.0 4000.0 4000.0 4000.0 4000.0 4000.0 4000.0 4000.0 4000.0 4000.0 4000.0 4000.0 4000.0 4000.0 4000.0 4000.0 4000.0 4000.0 4000.0 4000.0 4000.0 4000.0 4000.0 4000.0 4000.0 4000.0 4000.0 4000.0 4000.0 4000.0 4000.0 4000.0 4000.0 4000.0 4000.0 4000.0 4000.0 4000.0 4000.0 4000.0 4000.0 4000.0 4000.0 4000.0 4000.0 4000.0 4000.0 4000.0 4000.0 4000.0 4000.0 4000.0 4000.0 4000.0 4000.0 4000.0 4000.0 4000.0 4000.0 4000.0 4000.0 4000.0 4000.0 4000.0 4000.0 4000.0 4000.0 4000.0 4000.0 4000.0 4000.0 4000.0 4000.0 4000.0 4000.0 4000.0 4000.0 4000.0 4000.0 4000.0 4000.0 4000.0 4000.0 4000.0 4000.0 4000.0 4000.0 4000.0 4000.0 4000.0 4000.0 4000.0 4000.0 4000.0 4000.0 4000.0 4000.0 4000.0 4000.0 4000.0 4000.0 4000.0 4000.0 4000.0 4000.0 4000.0 4000.0 4000.0 4000.0 4000.0 4000.0 4000.0 4000.0 4000.0 4000.0 4000.0 4000.0 4000.0 4000.0 4000.0 4000.0 4000.0 4000.0 4000.0 4000.0 4000.0 4000.0 4000.0 4000.0 4000.0 4000.0 4000.0 4000.0 4000.0 4000.0 4000.0 4000.0 4000.0 4000.0 4000.0 4000.0 4000.0 4000.0 4000.0 4000.0 4000.0 4000.0 4000.0 4000.0 4000.0 4000.0 4000.0 4000.0 4000.0 4000.0 4000.0 4000.0 4000.0 4000.0 4000.0 4000.0 4000.0 4000.0 4000.0 4000.0 4000.0 4000.0 4000.0 4000.0 4000.0 4000.0 4000.0 4000.0 4000.0 4000.0 4000.0 4000.0 4000.0 4000.0 4000.0 4000.0 4000.0 4000.0 4000.0 4000.0 4000.0 4000.0 4000.0 4000.0 4000.0 4000.0 4000.0 4000.0 4000.0 4000.0 4000.0 4000.0 4000.0 4000.0 4000.0 4000.0 4000.0 4000.0 4000.0 4000.0 4000.0 4000.0 4000.0 4000.0 4000.0 4000.0 4000.0 4000.0 4000.0 4000.0 4000.0 4000.0 4000.0 4000.0 4000.0 4000.0 4000.0 4000.0 4000.0 4000.0 4000.0 4000.0 4000.0 4000.0 4000.0 4000.0 4000.0 4000.0 4000.0 4000.0 4000.0 4000.0 4000.0 4000.0 4000.0 4000.0 4000.0 4000.0 4000.0 4000.0 4000.0 4000.0 4000.0 4000.0 4000.0 4000.0 4000.0 4000.0 4000.0 4000.0 4000.0 4000.0 4000.0 4000.0 4000.0 4000.0 4000.0 4000.0 4000.0 4000.0 4000.0 4000.0 4000.0 4000.0 4000.0 4000.0 4000.0 4000.0 4000.0 4000.0 4000.0 4000.0 4000.0 4000.0 4000.0 4000.0 4000.0 4000.0 4000.0 4000.0 4000.0 4000.0 4000.0 4000.0 4000.0 4000.0 4000.0 4000.0 4000.0 4000.0 4000.0 4000.0 4000.0 4000.0 4000.0 4000.0 4000.0 4000.0 4000.0 4000.0 4000.0 4000.0 4000.0 4000.0 4000.0 4000.0 4000.0 4000.0 4000.0 4000.0 4000.0 4000.0 4000.0 4000.0 4000.0 4000.0 4000.0 4000.0 4000.0 4000.0 4000.0 4000.0 4000.0 4000.0 4000.0 4000.0 4000.0 4000.0 4000.0 4000.0 4000.0 4000.0 4000.0 4000.0 4000.0 4000.0 4000.0 4000.0 4000.0 4000.0 4000.0 4000.0 4000.0 4000.0 4000.0 4000.0 4000.0 4000.0 4000.0 4000.0 4000.0 4000.0 4000.0 4000.0 4000.0 4000.0 4000.0 4000.0 4000.0 4000.0 4000.0 4000.0 4000.0 4000.0 4000.0 4000.0 4000.0 4000.0 4000.0 4000.0 4000.0 4000.0 4000.0 4000.0 4000.0 4000.0 4000.0 4000.0 4000.0 4000.0 4000.0 4000.0 4000.0 4000.0 4000.0 4000.0 4000.0 4000.0 4000.0 4000.0 4000.0 4000.0 4000.0 4000.0 4000.0 4000.0 4000.0 4000.0 4000.0 4000.0 4000.0 4000.0 4000.0 4000.0 4000.0 4000.0 4000.0 4000.0 4000.0 4000.0 4000.0 4000.0 4000.0 4000.0 4000.0 4000.0 4000.0 4000.0 4000.0 4000.0 4000.0 4000.0 4000.0 4000.0 4000.0 4000.0 4000.0 4000.0 4000.0 4000.0 4000.0 4000.0 4000.0 4000.0 4000.0 4000.0 4000.0 4000.0 4000.0 4000.0 4000.0 4000.0 4000.0 4000.0 4000.0 4000.0 4000.0 4000.0 4000.0 4000.0 4000.0 4000.0 4000.0 4000.0 4000.0 4000.0 4000.0 4000.0 4000.0 4000.0 4000.0 4000.0 4000.0 4000.0 4000.0 4000.0 4000.0 4000.0 4000.0 4000.0 4000.0 4000.0 4000.0 4000.0 4000.0 4000.0 4000.0 4000.0 4000.0 4000.0 4000.0 4000.0 4000.0 4000.0 4000.0 4000.0 4000.0 4000.0 4000.0 4000.0 4000.0 4000.0 4000.0 4000.0 4000.0 4000.0 4000.0 4000.0 4000.0 4000.0 4000.0 4000.0 4000.0 4000.0 4000.0 4000.0 4000.0 4000.0 4000.0 4000.0 4000.0 4000.0 4000.0 4000.0 4000.0 4000.0 4000.0 4000.0 4000.0 4000.0 4000.0 4000.0 4000.0 4000.0 4000.0 4000.0 4000.0 4000.0 4000.0 4000.0 4000.0 4000.0 4000.0 4000.0 4000.0 4000.0 4000.0 4000.0 4000.0 4000.0 4000.0 4000.0 4000.0 4000.0 4000.0 4000.0 4000.0 4000.0 4000.0 4000.0 4000.0 4000.0 4000.0 4000.0 4000.0 4000.0 4000.0 4000.0 4000.0 4000.0 4000.0 4000.0 4000.0 4000.0 4000.0 4000.0 4000.0 4000.0 4000.0 4000.0 4000.0 4000.0 4000.0 4000.0 4000.0 4000.0 4000.0 4000.0 4000.0 4000.0 4000.0 4000.0 4000.0 4000.0 4000.0 4000.0 4000.0 4000.0 4000.0 4000.0 4000.0 4000.0 4000.0 4000.0 4000.0 4000.0 4000.0 4000.0 4000.0 4000.0 4000.0 4000.0 4000.0 4000.0 4000.0 4000.0 4000.0 4000.0 4000.0 4000.0 4000.0 4000.0 4000.0 4000.0 4000.0 4000.0 4000.0 4000.0 4000.0 4000.0 4000.0 4000.0 4000.0 4000.0 4000.0 4000.0 4000.0 4000.0 4000.0 4000.0 4000.0 4000.0 4000.0 4000.0 4000.0 4000.0 4000.0 4000.0 4000.0 4000.0 4000.0 4000.0 4000.0 4000.0 4000.0 4000.0 4000.0 4000.0 4000.0 4000.0 4000.0 4000.0 4000.0 4000.0 4000.0 4000.0 4000.0 4000.0 4000.0 4000.0 4000.0 4000.0 4000.0 4000.0 4000.0 4000.0 4000.0 4000.0 4000.0 4000.0 4000.0 4000.0 4000.0 4000.0 4000.0 4000.0 4000.0 4000.0 4000.0 4000.0 4000.0 4000.0 4000.0 4000.0 4000.0 4000.0 4000.0 4000.0 4000.0 4000.0 4000.0 4000.0 4000.0 4000.0 4000.0 4000.0 4000.0 4000.0 4000.0 4000.0 4000.0 4000.0 4000.0 4000.0 4000.0 4000.0 4000.0 4000.0 4000.0 4000.0 4000.0 4000.0 4000.0 4000.0 4000.0 4000.0 4000.0 4000.0 4000.0 4000.0 4000.0 4000.0 4000.0 4000.0 4000.0 4000.0 4000.0 4000.0 4000.0 4000.0 4000.0 4000.0 4000.0 4000.0 4000.0 4000.0 4000.0 4000.0 4000.0 4000.0 4000.0 4000.0 4000.0 4000.0 4000.0 4000.0 4000.0 4000.0 4000.0 4000.0 4000.0 4000.0 4000.0 4000.0 4000.0 4000.0 4000.0 4000.0 4000.0 4000.0 4000.0 4000.0 4000.0 4000.0 4000.0 4000.0 4000.0 4000.0 4000.0 4000.0 4000.0 4000.0 4000.0 4000.0 4000.0 4000.0 4000.0 4000.0 4000.0 4000.0 4000.0 4000.0 4000.0 4000.0 4000.0 4000.0 4000.0 4000.0 4000.0 4000.0 4000.0 4000.0 4000.0 4000.0 4000.0 4000.0 4000.0 4000.0 4000.0 4000.0 4000.0 4000.0 4000.0 4000.0 4000.0 4000.0 4000.0 4000.0 4000.0 4000.0 4000.0 4000.0 4000.0 4000.0 4000.0 4000.0 4000.0 4000.0 4000.0 4000.0 4000.0 4000.0 4000.0 4000.0 4000.0 4000.0 4000.0 4000.0 4000.0 4000.0 4000.0 4000.0 4000.0 4000.0 4000.0 4000.0 4000.0 4000.0 4000.0 4000.0 4000.0 4000.0 4000.0 4000.0 4000.0 4000.0 4000.0 4000.0 4000.0 4000.0 4000.0 4000.0 4000.0 4000.0 4000.0 4000.0 4000.0 4000.0 4000.0 4000.0 4000.0 4000.0 4000.0 4000.0 4000.0 4000.0 4000.0 4000.0 4000.0 4000.0 4000.0 4000.0 4000.0 4000.0 4000.0 4000.0 4000.0 4000.0 4000.0 4000.0 4000.0 4000.0 4000.0 4000.0 4000.0 4000.0 4000.0 4000.0 4000.0 4000.0 4000.0 4000.0 4000.0 4000.0 4000.0 4000.0 4000.0 4000.0 4000.0 4000.0 4000.0 4000.0 4000.0 4000.0 4000.0 4000.0 4000.0 4000.0 4000.0 4000.0 4000.0 4000.0 4000.0 4000.0 4000.0 4000.0 4000.0 4000.0 4000.0 4000.0 4000.0 4000.0 4000.0 4000.0 4000.0 4000.0 4000.0 4000.0 4000.0 4000.0 4000.0 4000.0 4000.0 4000.0 4000.0 4000.0 4000.0 4000.0 4000.0 4000.0 4000.0 4000.0 4000.0 4000.0 4000.0 4000.0 4000.0 4000.0 4000.0 4000.0 4000.0 4000.0 4000.0 4000.0 4000.0 4000.0 4000.0 4000.0 4000.0 4000.0 4000.0 4000.0 4000.0 4000.0 4000.0 4000.0 4000.0 4000.0 4000.0 4000.0 4000.0 4000.0 4000.0 4000.0 4000.0 4000.0 4000.0 4000.0 4000.0 4000.0 4000.0 4000.0 4000.0 4000.0 4000.0 4000.0 4000.0 4000.0 4000.0 4000.0 4000.0 4000.0 4000.0 4000.0 4000.0 4000.0 4000.0 4000.0 4000.0 4000.0 4000.0 4000.0 4000.0 4000.0 4000.0 4000.0 4000.0 4000.0 4000.0 4000.0 4000.0 4000.0 4000.0 4000.0 4000.0 4000.0 4000.0 4000.0 4000.0 4000.0 4000.0 4000.0 4000.0 4000.0 4000.0 4000.0 4000.0 4000.0 4000.0 4000.0 4000.0 4000.0 4000.0 4000.0 4000.0 4000.0 4000.0 4000.0 4000.0 4000.0 4000.0 4000.0 4000.0 4000.0 4000.0 4000.0 4000.0 4000.0 4000.0 4000.0 4000.0 4000.0 4000.0 4000.0 4000.0 4000.0 4000.0 4000.0 4000.0 4000.0 4000.0 4000.0 4000.0 4000.0 4000.0 4000.0 4000.0 4000.0 4000.0 4000.0 4000.0 4000.0 4000.0 4000.0 4000.0 4000.0 4000.0 4000.0 4000.0 4000.0 4000.0 4000.0 4000.0 4000.0 4000.0 4000.0 4000.0 4000.0 4000.0 4000.0 4000.0 4000.0 4000.0 4000.0 4000.0 4000.0 4000.0 4000.0 4000.0 4000.0 4000.0 4000.0 4000.0 4000.0 4000.0 4000.0 4000.0 4000.0 4000.0 4000.0 4000.0 4000.0 4000.0 4000.0 4000.0 4000.0 4000.0 4000.0 4000.0 4000.0 4000.0 4000.0 4000.0 4000.0 4000.0 4000.0 4000.0 4000.0 4000.0 4000.0 4000.0 4000.0 4000.0 4000.0 4000.0 4000.0 4000.0 4000.0 4000.0 4000.0 4000.0 4000.0 4000.0 4000.0 4000.0 4000.0 4000.0 4000.0 4000.0 4000.0 4000.0 4000.0 4000.0 4000.0 4000.0 4000.0 4000.0 4000.0 4000.0 4000.0 4000.0 4000.0 4000.0 4000.0 4000.0 4000.0 4000.0 4000.0 4000.0 4000.0 4000.0 4000.0 4000.0 4000.0 4000.0 4000.0 4000.0 4000.0 4000.0 4000.0 4000.0 4000.0 4000.0 4000.0 4000.0 4000.0 4000.0 4000.0 4000.0 4000.0 4000.0 4000.0 4000.0 4000.0 4000.0 4000.0 4000.0 4000.0 4000.0 4000.0 4000.0 4000.0 4000.0 4000.0 4000.0 4000.0 4000.0 4000.0 4000.0 4000.0 4000.0 4000.0 4000.0 4000.0 4000.0 4000.0 4000.0 4000.0 4000.0 4000.0 4000.0 4000.0 4000.0 4000.0 4000.0 4000.0 4000.0 4000.0 4000.0 4000.0 4000.0 4000.0 4000.0 4000.0 4000.0 4000.0 4000.0 4000.0 4000.0 4000.0 4000.0 4000.0 4000.0 4000.0 4000.0 4000.0 4000.0 4000.0 4000.0 4000.0 4000.0 4000.0 4000.0 4000.0 4000.0 4000.0 4000.0 4000.0 4000.0 4000.0 4000.0 4000.0 4000.0 4000.0 4000.0 4000.0 4000.0 4000.0 4000.0 4000.0 4000.0 4000.0 4000.0 4000.0 4000.0 4000.0 4000.0 4000.0 4000.0 4000.0 4000.0 4000.0 4000.0 4000.0 4000.0 4000.0 4000.0 4000.0 4000.0 4000.0 4000.0 4000.0 4000.0 4000.0 4000.0 4000.0 4000.0 4000.0 4000.0 4000.0 4000.0 4000.0 4000.0 4000.0 4000.0 4000.0 4000.0 4000.0 4000.0 4000.0 4000.0 4000.0 4000.0 4000.0 4000.0 4000.0 4000.0 4000.0 4000.0 4000.0 4000.0 4000.0 4000.0 4000.0 4000.0 4000.0 4000.0 4000.0 4000.0 4000.0 4000.0 4000.0 4000.0 4000.0 4000.0 4000.0 4000.0 4000.0 4000.0 4000.0 4000.0 4000.0 4000.0 4000.0 4000.0 4000.0 4000.0 4000.0 4000.0 4000.0 4000.0 4000.0 4000.0 4000.0 4000.0 4000.0 4000.0 4000.0 4000.0 4000.0 4000.0 4000.0 4000.0 4000.0 4000.0 4000.0 4000.0 4000.0 4000.0 4000.0 4000.0 4000.0 4000.0 4000.0 4000.0 4000.0 4000.0 4000.0 4000.0 4000.0 4000.0 4000.0 4000.0 4000.0 4000.0 4000.0 4000.0 4000.0 4000.0 4000.0 4000.0 4000.0 4000.0 4000.0 4000.0 4000.0 4000.0 4000.0 4000.0 4000.0 4000.0 4000.0 4000.0 4000.0 4000.0 4000.0 4000.0 4000.0 4000.0 4000.0 4000.0 4000.0 4000.0 4000.0 4000.0 4000.0 4000.0 4000.0 4000.0 4000.0 4000.0 4000.0 4000.0 4000.0 4000.0 4000.0 4000.0 4000.0 4000.0 4000.0 4000.0 4000.0 4000.0 4000.0 4000.0 4000.0 4000.0 4000.0 4000.0 4000.0 4000.0 4000.0 4000.0 4000.0 4000.0 4000.0 4000.0 4000.0 4000.0 4000.0 4000.0 4000.0 4000.0 4000.0 4000.0 4000.0 4000.0 4000.0 4000.0 4000.0 4000.0 4000.0 4000.0 4000.0 4000.0 4000.0 4000.0 4000.0 4000.0 4000.0 4000.0 4000.0 4000.0 4000.0 4000.0 4000.0 4000.0 4000.0 4000.0 4000.0 4000.0 4000.0 4000.0 4000.0 4000.0 4000.0 4000.0 4000.0 4000.0 4000.0 4000.0 4000.0 4000.0 4000.0 4000.0 4000.0 4000.0 4000.0 4000.0 4000.0 4000.0 4000.0 4000.0 4000.0 4000.0 4000.0 4000.0 4000.0 4000.0 4000.0 4000.0 4000.0 4000.0 4000.0 4000.0 4000.0 4000.0 4000.0 4000.0 4000.0 4000.0 4000.0 4000.0 4000.0 4000.0 4000.0 4000.0 4000.0 4000.0 4000.0 4000.0 4000.0 4000.0 4000.0 4000.0 4000.0 4000.0 4000.0 4000.0 4000.0 4000.0 4000.0 4000.0 4000.0 4000.0 4000.0 4000.0 4000.0 4000.0 4000.0 4000.0 4000.0 4000.0 4000.0 4000.0 4000.0 4000.0 4000.0 4000.0 4000.0 4000.0 4000.0 4000.0 4000.0 4000.0 4000.0 4000.0 4000.0 4000.0 4000.0 4000.0 4000.0 4000.0 4000.0 4000.0 4000.0 4000.0 4000.0 4000.0 4000.0 4000.0 4000.0 4000.0 4000.0 4000.0 4000.0 4000.0 4000.0 4000.0 4000.0 4000.0 4000.0 4000.0 4000.0 4000.0 4000.0 4000.0 4000.0 4000.0 4000.0 4000.0 4000.0 4000.0 4000.0 4000.0 4000.0 4000.0 4000.0 4000.0 4000.0 4000.0 4000.0 4000.0 4000.0 4000.0 4000.0 4000.0 4000.0 4000.0 4000.0 4000.0 SCALARS Mass float 1
LOOKUP_TABLE default
11309700000.0 11309700000.0 11309700000.0 11309700000.0 11309700000.0 11309700000.0 11309700000.0 11309700000.0 11309700000.0 11309700000.0 11309700000.0 11309700000.0 11309700000.0 11309700000.0 11309700000.0 11309700000.0 11309700000.0 11309700000.0 11309700000.0 11309700000.0 11309700000.0 11309700000.0 11309700000.0 11309700000.0 11309700000.0 11309700000.0 11309700000.0 11309700000.0 11309700000.0 11309700000.0 11309700000.0 11309700000.0 11309700000.0 11309700000.0 11309700000.0 11309700000.0 11309700000.0 11309700000.0 11309700000.0 11309700000.0 11309700000.0 11309700000.0 11309700000.0 11309700000.0 11309700000.0 11309700000.0 11309700000.0 11309700000.0 11309700000.0 11309700000.0 11309700000.0 11309700000.0 11309700000.0 11309700000.0 11309700000.0 11309700000.0 11309700000.0 11309700000.0 11309700000.0 11309700000.0 11309700000.0 11309700000.0 11309700000.0 11309700000.0 11309700000.0 11309700000.0 11309700000.0 11309700000.0 11309700000.0 11309700000.0 11309700000.0 11309700000.0 11309700000.0 11309700000.0 11309700000.0 11309700000.0 11309700000.0 11309700000.0 11309700000.0 11309700000.0 11309700000.0 11309700000.0 11309700000.0 11309700000.0 11309700000.0 11309700000.0 11309700000.0 11309700000.0 11309700000.0 11309700000.0 11309700000.0 11309700000.0 11309700000.0 11309700000.0 11309700000.0 11309700000.0 11309700000.0 11309700000.0 11309700000.0 11309700000.0 11309700000.0 11309700000.0 11309700000.0 11309700000.0 11309700000.0 11309700000.0 11309700000.0 11309700000.0 11309700000.0 11309700000.0 11309700000.0 11309700000.0 11309700000.0 11309700000.0 11309700000.0 11309700000.0 11309700000.0 11309700000.0 11309700000.0 11309700000.0 11309700000.0 11309700000.0 11309700000.0 11309700000.0 11309700000.0 11309700000.0 11309700000.0 11309700000.0 11309700000.0 11309700000.0 11309700000.0 11309700000.0 11309700000.0 11309700000.0 11309700000.0 11309700000.0 11309700000.0 11309700000.0 11309700000.0 11309700000.0 11309700000.0 11309700000.0 11309700000.0 11309700000.0 11309700000.0 11309700000.0 11309700000.0 11309700000.0 11309700000.0 11309700000.0 11309700000.0 11309700000.0 11309700000.0 11309700000.0 11309700000.0 11309700000.0 11309700000.0 11309700000.0 11309700000.0 11309700000.0 11309700000.0 11309700000.0 11309700000.0 11309700000.0 11309700000.0 11309700000.0 11309700000.0 11309700000.0 11309700000.0 11309700000.0 11309700000.0 11309700000.0 11309700000.0 11309700000.0 11309700000.0 11309700000.0 11309700000.0 11309700000.0 11309700000.0 11309700000.0 11309700000.0 11309700000.0 11309700000.0 11309700000.0 11309700000.0 11309700000.0 11309700000.0 11309700000.0 11309700000.0 11309700000.0 11309700000.0 11309700000.0 11309700000.0 11309700000.0 11309700000.0 11309700000.0 11309700000.0 11309700000.0 11309700000.0 11309700000.0 11309700000.0 11309700000.0 11309700000.0 11309700000.0 11309700000.0 11309700000.0 11309700000.0 11309700000.0 11309700000.0 11309700000.0 11309700000.0 11309700000.0 11309700000.0 11309700000.0 11309700000.0 11309700000.0 11309700000.0 11309700000.0 11309700000.0 11309700000.0 11309700000.0 11309700000.0 11309700000.0 11309700000.0 11309700000.0 11309700000.0 11309700000.0 11309700000.0 11309700000.0 11309700000.0 11309700000.0 11309700000.0 11309700000.0 11309700000.0 11309700000.0 11309700000.0 11309700000.0 11309700000.0 11309700000.0 11309700000.0 11309700000.0 11309700000.0 11309700000.0 11309700000.0 11309700000.0 11309700000.0 11309700000.0 11309700000.0 11309700000.0 11309700000.0 11309700000.0 11309700000.0 11309700000.0 11309700000.0 11309700000.0 11309700000.0 11309700000.0 11309700000.0 11309700000.0 11309700000.0 11309700000.0 11309700000.0 11309700000.0 11309700000.0 11309700000.0 11309700000.0 11309700000.0 11309700000.0 11309700000.0 11309700000.0 11309700000.0 11309700000.0 11309700000.0 11309700000.0 11309700000.0 11309700000.0 11309700000.0 11309700000.0 11309700000.0 11309700000.0 11309700000.0 11309700000.0 11309700000.0 11309700000.0 11309700000.0 11309700000.0 11309700000.0 11309700000.0 11309700000.0 11309700000.0 11309700000.0 11309700000.0 11309700000.0 11309700000.0 11309700000.0 11309700000.0 11309700000.0 11309700000.0 11309700000.0 11309700000.0 11309700000.0 11309700000.0 11309700000.0 11309700000.0 11309700000.0 11309700000.0 11309700000.0 11309700000.0 11309700000.0 11309700000.0 11309700000.0 11309700000.0 11309700000.0 11309700000.0 11309700000.0 11309700000.0 11309700000.0 11309700000.0 11309700000.0 11309700000.0 11309700000.0 11309700000.0 11309700000.0 11309700000.0 11309700000.0 11309700000.0 11309700000.0 11309700000.0 11309700000.0 11309700000.0 11309700000.0 11309700000.0 11309700000.0 11309700000.0 11309700000.0 11309700000.0 11309700000.0 11309700000.0 11309700000.0 11309700000.0 11309700000.0 11309700000.0 11309700000.0 11309700000.0 11309700000.0 11309700000.0 11309700000.0 11309700000.0 11309700000.0 11309700000.0 11309700000.0 11309700000.0 11309700000.0 11309700000.0 11309700000.0 11309700000.0 11309700000.0 11309700000.0 11309700000.0 11309700000.0 11309700000.0 11309700000.0 11309700000.0 11309700000.0 11309700000.0 11309700000.0 11309700000.0 11309700000.0 11309700000.0 11309700000.0 11309700000.0 11309700000.0 11309700000.0 11309700000.0 11309700000.0 11309700000.0 11309700000.0 11309700000.0 11309700000.0 11309700000.0 11309700000.0 11309700000.0 11309700000.0 11309700000.0 11309700000.0 11309700000.0 11309700000.0 11309700000.0 11309700000.0 11309700000.0 11309700000.0 11309700000.0 11309700000.0 11309700000.0 11309700000.0 11309700000.0 11309700000.0 11309700000.0 11309700000.0 11309700000.0 11309700000.0 11309700000.0 11309700000.0 11309700000.0 11309700000.0 11309700000.0 11309700000.0 11309700000.0 11309700000.0 11309700000.0 11309700000.0 11309700000.0 11309700000.0 11309700000.0 11309700000.0 11309700000.0 11309700000.0 11309700000.0 11309700000.0 11309700000.0 11309700000.0 11309700000.0 11309700000.0 11309700000.0 11309700000.0 11309700000.0 11309700000.0 11309700000.0 11309700000.0 11309700000.0 11309700000.0 11309700000.0 11309700000.0 11309700000.0 11309700000.0 11309700000.0 11309700000.0 11309700000.0 11309700000.0 11309700000.0 11309700000.0 11309700000.0 11309700000.0 11309700000.0 11309700000.0 11309700000.0 11309700000.0 11309700000.0 11309700000.0 11309700000.0 11309700000.0 11309700000.0 11309700000.0 11309700000.0 11309700000.0 11309700000.0 11309700000.0 11309700000.0 11309700000.0 11309700000.0 11309700000.0 11309700000.0 11309700000.0 11309700000.0 11309700000.0 11309700000.0 11309700000.0 11309700000.0 11309700000.0 11309700000.0 11309700000.0 11309700000.0 11309700000.0 11309700000.0 11309700000.0 11309700000.0 11309700000.0 11309700000.0 11309700000.0 11309700000.0 11309700000.0 11309700000.0 11309700000.0 11309700000.0 11309700000.0 11309700000.0 11309700000.0 11309700000.0 11309700000.0 11309700000.0 11309700000.0 11309700000.0 11309700000.0 11309700000.0 11309700000.0 11309700000.0 11309700000.0 11309700000.0 11309700000.0 11309700000.0 11309700000.0 11309700000.0 11309700000.0 11309700000.0 11309700000.0 11309700000.0 11309700000.0 11309700000.0 11309700000.0 11309700000.0 11309700000.0 11309700000.0 11309700000.0 11309700000.0 11309700000.0 11309700000.0 11309700000.0 11309700000.0 11309700000.0 11309700000.0 11309700000.0 11309700000.0 11309700000.0 11309700000.0 11309700000.0 11309700000.0 11309700000.0 11309700000.0 11309700000.0 11309700000.0 11309700000.0 11309700000.0 11309700000.0 11309700000.0 11309700000.0 11309700000.0 11309700000.0 11309700000.0 11309700000.0 11309700000.0 11309700000.0 11309700000.0 11309700000.0 11309700000.0 11309700000.0 11309700000.0 11309700000.0 11309700000.0 11309700000.0 11309700000.0 11309700000.0 11309700000.0 11309700000.0 11309700000.0 11309700000.0 11309700000.0 11309700000.0 11309700000.0 11309700000.0 11309700000.0 11309700000.0 11309700000.0 11309700000.0 11309700000.0 11309700000.0 11309700000.0 11309700000.0 11309700000.0 11309700000.0 11309700000.0 11309700000.0 11309700000.0 11309700000.0 11309700000.0 11309700000.0 11309700000.0 11309700000.0 11309700000.0 11309700000.0 11309700000.0 11309700000.0 11309700000.0 11309700000.0 11309700000.0 11309700000.0 11309700000.0 11309700000.0 11309700000.0 11309700000.0 11309700000.0 11309700000.0 11309700000.0 11309700000.0 11309700000.0 11309700000.0 11309700000.0 11309700000.0 11309700000.0 11309700000.0 11309700000.0 11309700000.0 11309700000.0 11309700000.0 11309700000.0 11309700000.0 11309700000.0 11309700000.0 11309700000.0 11309700000.0 11309700000.0 11309700000.0 11309700000.0 11309700000.0 11309700000.0 11309700000.0 11309700000.0 11309700000.0 11309700000.0 11309700000.0 11309700000.0 11309700000.0 11309700000.0 11309700000.0 11309700000.0 11309700000.0 11309700000.0 11309700000.0 11309700000.0 11309700000.0 11309700000.0 11309700000.0 11309700000.0 11309700000.0 11309700000.0 11309700000.0 11309700000.0 11309700000.0 11309700000.0 11309700000.0 11309700000.0 11309700000.0 11309700000.0 11309700000.0 11309700000.0 11309700000.0 11309700000.0 11309700000.0 11309700000.0 11309700000.0 11309700000.0 11309700000.0 11309700000.0 11309700000.0 11309700000.0 11309700000.0 11309700000.0 11309700000.0 11309700000.0 11309700000.0 11309700000.0 11309700000.0 11309700000.0 11309700000.0 11309700000.0 11309700000.0 11309700000.0 11309700000.0 11309700000.0 11309700000.0 11309700000.0 11309700000.0 11309700000.0 11309700000.0 11309700000.0 11309700000.0 11309700000.0 11309700000.0 11309700000.0 11309700000.0 11309700000.0 11309700000.0 11309700000.0 11309700000.0 11309700000.0 11309700000.0 11309700000.0 11309700000.0 11309700000.0 11309700000.0 11309700000.0 11309700000.0 11309700000.0 11309700000.0 11309700000.0 11309700000.0 11309700000.0 11309700000.0 11309700000.0 11309700000.0 11309700000.0 11309700000.0 11309700000.0 11309700000.0 11309700000.0 11309700000.0 11309700000.0 11309700000.0 11309700000.0 11309700000.0 11309700000.0 11309700000.0 11309700000.0 11309700000.0 11309700000.0 11309700000.0 11309700000.0 11309700000.0 11309700000.0 11309700000.0 11309700000.0 11309700000.0 11309700000.0 11309700000.0 11309700000.0 11309700000.0 11309700000.0 11309700000.0 11309700000.0 11309700000.0 11309700000.0 11309700000.0 11309700000.0 11309700000.0 11309700000.0 11309700000.0 11309700000.0 11309700000.0 11309700000.0 11309700000.0 11309700000.0 11309700000.0 11309700000.0 11309700000.0 11309700000.0 11309700000.0 11309700000.0 11309700000.0 11309700000.0 11309700000.0 11309700000.0 11309700000.0 11309700000.0 11309700000.0 11309700000.0 11309700000.0 11309700000.0 11309700000.0 11309700000.0 11309700000.0 11309700000.0 11309700000.0 11309700000.0 11309700000.0 11309700000.0 11309700000.0 11309700000.0 11309700000.0 11309700000.0 11309700000.0 11309700000.0 11309700000.0 11309700000.0 11309700000.0 11309700000.0 11309700000.0 11309700000.0 11309700000.0 11309700000.0 11309700000.0 11309700000.0 11309700000.0 11309700000.0 11309700000.0 11309700000.0 11309700000.0 11309700000.0 11309700000.0 11309700000.0 11309700000.0 11309700000.0 11309700000.0 11309700000.0 11309700000.0 11309700000.0 11309700000.0 11309700000.0 11309700000.0 11309700000.0 11309700000.0 11309700000.0 11309700000.0 11309700000.0 11309700000.0 11309700000.0 11309700000.0 11309700000.0 11309700000.0 11309700000.0 11309700000.0 11309700000.0 11309700000.0 11309700000.0 11309700000.0 11309700000.0 11309700000.0 11309700000.0 11309700000.0 11309700000.0 11309700000.0 11309700000.0 11309700000.0 11309700000.0 11309700000.0 11309700000.0 11309700000.0 11309700000.0 11309700000.0 11309700000.0 11309700000.0 11309700000.0 11309700000.0 11309700000.0 11309700000.0 11309700000.0 11309700000.0 11309700000.0 11309700000.0 11309700000.0 11309700000.0 11309700000.0 11309700000.0 11309700000.0 11309700000.0 11309700000.0 11309700000.0 11309700000.0 11309700000.0 11309700000.0 11309700000.0 11309700000.0 11309700000.0 11309700000.0 11309700000.0 11309700000.0 11309700000.0 11309700000.0 11309700000.0 11309700000.0 11309700000.0 11309700000.0 11309700000.0 11309700000.0 11309700000.0 11309700000.0 11309700000.0 11309700000.0 11309700000.0 11309700000.0 11309700000.0 11309700000.0 11309700000.0 11309700000.0 11309700000.0 11309700000.0 11309700000.0 11309700000.0 11309700000.0 11309700000.0 11309700000.0 11309700000.0 11309700000.0 11309700000.0 11309700000.0 11309700000.0 11309700000.0 11309700000.0 11309700000.0 11309700000.0 11309700000.0 11309700000.0 11309700000.0 11309700000.0 11309700000.0 11309700000.0 11309700000.0 11309700000.0 11309700000.0 11309700000.0 11309700000.0 11309700000.0 11309700000.0 11309700000.0 11309700000.0 11309700000.0 11309700000.0 11309700000.0 11309700000.0 11309700000.0 11309700000.0 11309700000.0 11309700000.0 11309700000.0 11309700000.0 11309700000.0 11309700000.0 11309700000.0 11309700000.0 11309700000.0 11309700000.0 11309700000.0 11309700000.0 11309700000.0 11309700000.0 11309700000.0 11309700000.0 11309700000.0 11309700000.0 11309700000.0 11309700000.0 11309700000.0 11309700000.0 11309700000.0 11309700000.0 11309700000.0 11309700000.0 11309700000.0 11309700000.0 11309700000.0 11309700000.0 11309700000.0 11309700000.0 11309700000.0 11309700000.0 11309700000.0 11309700000.0 11309700000.0 11309700000.0 11309700000.0 11309700000.0 11309700000.0 11309700000.0 11309700000.0 11309700000.0 11309700000.0 11309700000.0 11309700000.0 11309700000.0 11309700000.0 11309700000.0 11309700000.0 11309700000.0 11309700000.0 11309700000.0 11309700000.0 11309700000.0 11309700000.0 11309700000.0 11309700000.0 11309700000.0 11309700000.0 11309700000.0 11309700000.0 11309700000.0 11309700000.0 11309700000.0 11309700000.0 11309700000.0 11309700000.0 11309700000.0 11309700000.0 11309700000.0 11309700000.0 11309700000.0 11309700000.0 11309700000.0 11309700000.0 11309700000.0 11309700000.0 11309700000.0 11309700000.0 11309700000.0 11309700000.0 11309700000.0 11309700000.0 11309700000.0 11309700000.0 11309700000.0 11309700000.0 11309700000.0 11309700000.0 11309700000.0 11309700000.0 11309700000.0 11309700000.0 11309700000.0 11309700000.0 11309700000.0 11309700000.0 11309700000.0 11309700000.0 11309700000.0 11309700000.0 11309700000.0 11309700000.0 11309700000.0 11309700000.0 11309700000.0 11309700000.0 11309700000.0 11309700000.0 11309700000.0 11309700000.0 11309700000.0 11309700000.0 11309700000.0 11309700000.0 11309700000.0 11309700000.0 11309700000.0 11309700000.0 11309700000.0 11309700000.0 11309700000.0 11309700000.0 11309700000.0 11309700000.0 11309700000.0 11309700000.0 11309700000.0 11309700000.0 11309700000.0 11309700000.0 11309700000.0 11309700000.0 11309700000.0 11309700000.0 11309700000.0 11309700000.0 11309700000.0 11309700000.0 11309700000.0 11309700000.0 11309700000.0 11309700000.0 11309700000.0 11309700000.0 11309700000.0 11309700000.0 11309700000.0 11309700000.0 11309700000.0 11309700000.0 11309700000.0 11309700000.0 11309700000.0 11309700000.0 11309700000.0 11309700000.0 11309700000.0 11309700000.0 11309700000.0 11309700000.0 11309700000.0 11309700000.0 11309700000.0 11309700000.0 11309700000.0 11309700000.0 11309700000.0 11309700000.0 11309700000.0 11309700000.0 11309700000.0 11309700000.0 11309700000.0 11309700000.0 11309700000.0 11309700000.0 11309700000.0 11309700000.0 11309700000.0 11309700000.0 11309700000.0 11309700000.0 11309700000.0 11309700000.0 11309700000.0 11309700000.0 11309700000.0 11309700000.0 11309700000.0 11309700000.0 11309700000.0 11309700000.0 11309700000.0 11309700000.0 11309700000.0 11309700000.0 11309700000.0 11309700000.0 11309700000.0 11309700000.0 11309700000.0 11309700000.0 11309700000.0 11309700000.0 11309700000.0 11309700000.0 11309700000.0 11309700000.0 11309700000.0 11309700000.0 11309700000.0 11309700000.0 11309700000.0 11309700000.0 11309700000.0 11309700000.0 11309700000.0 11309700000.0 11309700000.0 11309700000.0 11309700000.0 11309700000.0 11309700000.0 11309700000.0 11309700000.0 11309700000.0 11309700000.0 11309700000.0 11309700000.0 11309700000.0 11309700000.0 11309700000.0 11309700000.0 11309700000.0 11309700000.0 11309700000.0 11309700000.0 11309700000.0 11309700000.0 11309700000.0 11309700000.0 11309700000.0 11309700000.0 11309700000.0 11309700000.0 11309700000.0 11309700000.0 11309700000.0 11309700000.0 11309700000.0 11309700000.0 11309700000.0 11309700000.0 11309700000.0 11309700000.0 11309700000.0 11309700000.0 11309700000.0 11309700000.0 11309700000.0 11309700000.0 11309700000.0 11309700000.0 11309700000.0 11309700000.0 11309700000.0 11309700000.0 11309700000.0 11309700000.0 11309700000.0 11309700000.0 11309700000.0 11309700000.0 11309700000.0 11309700000.0 11309700000.0 11309700000.0 11309700000.0 11309700000.0 11309700000.0 11309700000.0 11309700000.0 11309700000.0 11309700000.0 11309700000.0 11309700000.0 11309700000.0 11309700000.0 11309700000.0 11309700000.0 11309700000.0 11309700000.0 11309700000.0 11309700000.0 11309700000.0 11309700000.0 11309700000.0 11309700000.0 11309700000.0 11309700000.0 11309700000.0 11309700000.0 11309700000.0 11309700000.0 11309700000.0 11309700000.0 11309700000.0 11309700000.0 11309700000.0 11309700000.0 11309700000.0 11309700000.0 11309700000.0 11309700000.0 11309700000.0 11309700000.0 11309700000.0 11309700000.0 11309700000.0 11309700000.0 11309700000.0 11309700000.0 11309700000.0 11309700000.0 11309700000.0 11309700000.0 11309700000.0 11309700000.0 11309700000.0 11309700000.0 11309700000.0 11309700000.0 11309700000.0 11309700000.0 11309700000.0 11309700000.0 11309700000.0 11309700000.0 11309700000.0 11309700000.0 11309700000.0 11309700000.0 11309700000.0 11309700000.0 11309700000.0 11309700000.0 11309700000.0 11309700000.0 11309700000.0 11309700000.0 11309700000.0 11309700000.0 11309700000.0 11309700000.0 11309700000.0 11309700000.0 11309700000.0 11309700000.0 11309700000.0 11309700000.0 11309700000.0 11309700000.0 11309700000.0 11309700000.0 11309700000.0 11309700000.0 11309700000.0 11309700000.0 11309700000.0 11309700000.0 11309700000.0 11309700000.0 11309700000.0 11309700000.0 11309700000.0 11309700000.0 11309700000.0 11309700000.0 11309700000.0 11309700000.0 11309700000.0 11309700000.0 11309700000.0 11309700000.0 11309700000.0 11309700000.0 11309700000.0 11309700000.0 11309700000.0 11309700000.0 11309700000.0 11309700000.0 11309700000.0 11309700000.0 11309700000.0 11309700000.0 11309700000.0 11309700000.0 11309700000.0 11309700000.0 11309700000.0 11309700000.0 11309700000.0 11309700000.0 11309700000.0 11309700000.0 11309700000.0 11309700000.0 11309700000.0 11309700000.0 11309700000.0 11309700000.0 11309700000.0 11309700000.0 11309700000.0 11309700000.0 11309700000.0 11309700000.0 11309700000.0 11309700000.0 11309700000.0 11309700000.0 11309700000.0 11309700000.0 11309700000.0 11309700000.0 11309700000.0 11309700000.0 11309700000.0 11309700000.0 11309700000.0 11309700000.0 11309700000.0 11309700000.0 11309700000.0 11309700000.0 11309700000.0 11309700000.0 11309700000.0 11309700000.0 11309700000.0 11309700000.0 11309700000.0 11309700000.0 11309700000.0 11309700000.0 11309700000.0 11309700000.0 11309700000.0 11309700000.0 11309700000.0 11309700000.0 11309700000.0 11309700000.0 11309700000.0 11309700000.0 11309700000.0 11309700000.0 11309700000.0 11309700000.0 11309700000.0 11309700000.0 11309700000.0 11309700000.0 11309700000.0 11309700000.0 11309700000.0 11309700000.0 11309700000.0 11309700000.0 11309700000.0 11309700000.0 11309700000.0 11309700000.0 11309700000.0 11309700000.0 11309700000.0 11309700000.0 11309700000.0 11309700000.0 11309700000.0 11309700000.0 11309700000.0 11309700000.0 11309700000.0 11309700000.0 11309700000.0 11309700000.0 11309700000.0 11309700000.0 11309700000.0 11309700000.0 11309700000.0 11309700000.0 11309700000.0 11309700000.0 11309700000.0 11309700000.0 11309700000.0 11309700000.0 11309700000.0 11309700000.0 11309700000.0 11309700000.0 11309700000.0 11309700000.0 11309700000.0 11309700000.0 11309700000.0 11309700000.0 11309700000.0 11309700000.0 11309700000.0 11309700000.0 11309700000.0 11309700000.0 11309700000.0 11309700000.0 11309700000.0 11309700000.0 11309700000.0 11309700000.0 11309700000.0 11309700000.0 11309700000.0 11309700000.0 11309700000.0 11309700000.0 11309700000.0 11309700000.0 11309700000.0 11309700000.0 11309700000.0 11309700000.0 11309700000.0 11309700000.0 11309700000.0 11309700000.0 11309700000.0 11309700000.0 11309700000.0 11309700000.0 11309700000.0 11309700000.0 11309700000.0 11309700000.0 11309700000.0 11309700000.0 11309700000.0 11309700000.0 11309700000.0 11309700000.0 11309700000.0 11309700000.0 11309700000.0 11309700000.0 11309700000.0 11309700000.0 11309700000.0 11309700000.0 11309700000.0 11309700000.0 11309700000.0 11309700000.0 11309700000.0 11309700000.0 11309700000.0 11309700000.0 11309700000.0 11309700000.0 11309700000.0 11309700000.0 11309700000.0 11309700000.0 11309700000.0 11309700000.0 11309700000.0 11309700000.0 11309700000.0 11309700000.0 11309700000.0 11309700000.0 11309700000.0 11309700000.0 11309700000.0 11309700000.0 11309700000.0 11309700000.0 11309700000.0 11309700000.0 11309700000.0 11309700000.0 11309700000.0 11309700000.0 11309700000.0 11309700000.0 11309700000.0 11309700000.0 11309700000.0 11309700000.0 11309700000.0 11309700000.0 11309700000.0 11309700000.0 11309700000.0 11309700000.0 11309700000.0 11309700000.0 11309700000.0 11309700000.0 11309700000.0 11309700000.0 11309700000.0 11309700000.0 11309700000.0 11309700000.0 11309700000.0 11309700000.0 11309700000.0 11309700000.0 11309700000.0 11309700000.0 11309700000.0 11309700000.0 11309700000.0 11309700000.0 11309700000.0 11309700000.0 11309700000.0 11309700000.0 11309700000.0 11309700000.0 11309700000.0 11309700000.0 11309700000.0 11309700000.0 11309700000.0 11309700000.0 11309700000.0 11309700000.0 11309700000.0 11309700000.0 11309700000.0 11309700000.0 11309700000.0 11309700000.0 11309700000.0 11309700000.0 11309700000.0 11309700000.0 11309700000.0 11309700000.0 11309700000.0 11309700000.0 11309700000.0 11309700000.0 11309700000.0 11309700000.0 11309700000.0 11309700000.0 11309700000.0 11309700000.0 11309700000.0 11309700000.0 11309700000.0 11309700000.0 11309700000.0 11309700000.0 11309700000.0 11309700000.0 11309700000.0 11309700000.0 11309700000.0 11309700000.0 11309700000.0 11309700000.0 11309700000.0 11309700000.0 11309700000.0 11309700000.0 11309700000.0 11309700000.0 11309700000.0 11309700000.0 11309700000.0 11309700000.0 11309700000.0 11309700000.0 11309700000.0 11309700000.0 11309700000.0 11309700000.0 11309700000.0 11309700000.0 11309700000.0 11309700000.0 11309700000.0 11309700000.0 11309700000.0 11309700000.0 11309700000.0 11309700000.0 11309700000.0 11309700000.0 11309700000.0 11309700000.0 11309700000.0 11309700000.0 11309700000.0 11309700000.0 11309700000.0 11309700000.0 11309700000.0 11309700000.0 11309700000.0 11309700000.0 11309700000.0 11309700000.0 11309700000.0 11309700000.0 11309700000.0 11309700000.0 11309700000.0 11309700000.0 11309700000.0 11309700000.0 11309700000.0 11309700000.0 11309700000.0 11309700000.0 11309700000.0 11309700000.0 11309700000.0 11309700000.0 11309700000.0 11309700000.0 11309700000.0 11309700000.0 11309700000.0 11309700000.0 11309700000.0 11309700000.0 11309700000.0 11309700000.0 11309700000.0 11309700000.0 11309700000.0 11309700000.0 11309700000.0 11309700000.0 11309700000.0 11309700000.0 11309700000.0 11309700000.0 11309700000.0 11309700000.0 11309700000.0 11309700000.0 11309700000.0 11309700000.0 11309700000.0 11309700000.0 11309700000.0 11309700000.0 11309700000.0 11309700000.0 11309700000.0 11309700000.0 11309700000.0 11309700000.0 11309700000.0 11309700000.0 11309700000.0 11309700000.0 11309700000.0 11309700000.0 11309700000.0 11309700000.0 11309700000.0 11309700000.0 11309700000.0 11309700000.0 11309700000.0 11309700000.0 11309700000.0 11309700000.0 11309700000.0 11309700000.0 11309700000.0 11309700000.0 11309700000.0 11309700000.0 11309700000.0 11309700000.0 11309700000.0 11309700000.0 11309700000.0 11309700000.0 11309700000.0 11309700000.0 11309700000.0 11309700000.0 11309700000.0 11309700000.0 11309700000.0 11309700000.0 11309700000.0 11309700000.0 11309700000.0 11309700000.0 11309700000.0 11309700000.0 11309700000.0 11309700000.0 11309700000.0 11309700000.0 11309700000.0 11309700000.0 11309700000.0 11309700000.0 11309700000.0 11309700000.0 11309700000.0 11309700000.0 11309700000.0 11309700000.0 11309700000.0 11309700000.0 11309700000.0 11309700000.0 11309700000.0 11309700000.0 11309700000.0 11309700000.0 11309700000.0 11309700000.0 11309700000.0 11309700000.0 11309700000.0 11309700000.0 11309700000.0 11309700000.0 11309700000.0 11309700000.0 11309700000.0 11309700000.0 11309700000.0 11309700000.0 11309700000.0 11309700000.0 11309700000.0 11309700000.0 11309700000.0 11309700000.0 11309700000.0 11309700000.0 11309700000.0 11309700000.0 11309700000.0 11309700000.0 11309700000.0 11309700000.0 11309700000.0 11309700000.0 11309700000.0 11309700000.0 11309700000.0 11309700000.0 11309700000.0 11309700000.0 11309700000.0 11309700000.0 11309700000.0 11309700000.0 11309700000.0 11309700000.0 11309700000.0 11309700000.0 11309700000.0 11309700000.0 11309700000.0 11309700000.0 11309700000.0 11309700000.0 11309700000.0 11309700000.0 11309700000.0 11309700000.0 11309700000.0 11309700000.0 11309700000.0 11309700000.0 11309700000.0 11309700000.0 11309700000.0 11309700000.0 11309700000.0 11309700000.0 11309700000.0 11309700000.0 11309700000.0 11309700000.0 11309700000.0 11309700000.0 11309700000.0 11309700000.0 11309700000.0 11309700000.0 11309700000.0 11309700000.0 11309700000.0 11309700000.0 11309700000.0 11309700000.0 11309700000.0 11309700000.0 11309700000.0 11309700000.0 11309700000.0 11309700000.0 11309700000.0 11309700000.0 11309700000.0 11309700000.0 11309700000.0 11309700000.0 11309700000.0 11309700000.0 11309700000.0 11309700000.0 11309700000.0 11309700000.0 11309700000.0 11309700000.0 11309700000.0 11309700000.0 11309700000.0 11309700000.0 11309700000.0 11309700000.0 11309700000.0 11309700000.0 11309700000.0 11309700000.0 11309700000.0 11309700000.0 11309700000.0 11309700000.0 11309700000.0 11309700000.0 11309700000.0 11309700000.0 11309700000.0 11309700000.0 11309700000.0 11309700000.0 11309700000.0 11309700000.0 11309700000.0 11309700000.0 11309700000.0 11309700000.0 11309700000.0 11309700000.0 11309700000.0 11309700000.0 11309700000.0 11309700000.0 11309700000.0 11309700000.0 11309700000.0 11309700000.0 11309700000.0 11309700000.0 11309700000.0 11309700000.0 11309700000.0 11309700000.0 11309700000.0 11309700000.0 11309700000.0 11309700000.0 11309700000.0 11309700000.0 11309700000.0 11309700000.0 11309700000.0 11309700000.0 11309700000.0 11309700000.0 11309700000.0 11309700000.0 11309700000.0 11309700000.0 11309700000.0 11309700000.0 11309700000.0 11309700000.0 11309700000.0 11309700000.0 11309700000.0 11309700000.0 11309700000.0 11309700000.0 11309700000.0 11309700000.0 11309700000.0 11309700000.0 11309700000.0 11309700000.0 11309700000.0 11309700000.0 11309700000.0 11309700000.0 11309700000.0 11309700000.0 11309700000.0 11309700000.0 11309700000.0 11309700000.0 11309700000.0 11309700000.0 11309700000.0 11309700000.0 11309700000.0 11309700000.0 11309700000.0 11309700000.0 11309700000.0 11309700000.0 11309700000.0 11309700000.0 11309700000.0 11309700000.0 11309700000.0 11309700000.0 11309700000.0 11309700000.0 11309700000.0 11309700000.0 11309700000.0 11309700000.0 11309700000.0 11309700000.0 11309700000.0 11309700000.0 11309700000.0 11309700000.0 11309700000.0 11309700000.0 11309700000.0 11309700000.0 11309700000.0 11309700000.0 11309700000.0 11309700000.0 11309700000.0 11309700000.0 11309700000.0 11309700000.0 11309700000.0 11309700000.0 11309700000.0 11309700000.0 11309700000.0 11309700000.0 11309700000.0 11309700000.0 11309700000.0 11309700000.0 11309700000.0 11309700000.0 11309700000.0 11309700000.0 11309700000.0 11309700000.0 11309700000.0 11309700000.0 11309700000.0 11309700000.0 11309700000.0 11309700000.0 11309700000.0 11309700000.0 11309700000.0 11309700000.0 11309700000.0 11309700000.0 11309700000.0 11309700000.0 11309700000.0 11309700000.0 11309700000.0 11309700000.0 11309700000.0 11309700000.0 11309700000.0 11309700000.0 11309700000.0 11309700000.0 11309700000.0 11309700000.0 11309700000.0 11309700000.0 11309700000.0 11309700000.0 11309700000.0 11309700000.0 11309700000.0 11309700000.0 11309700000.0 11309700000.0 11309700000.0 11309700000.0 11309700000.0 11309700000.0 11309700000.0 11309700000.0 11309700000.0 11309700000.0 11309700000.0 11309700000.0 11309700000.0 11309700000.0 11309700000.0 11309700000.0 11309700000.0 11309700000.0 11309700000.0 11309700000.0 11309700000.0 11309700000.0 11309700000.0 11309700000.0 11309700000.0 11309700000.0 11309700000.0 11309700000.0 11309700000.0 11309700000.0 11309700000.0 11309700000.0 11309700000.0 11309700000.0 11309700000.0 11309700000.0 11309700000.0 11309700000.0 11309700000.0 11309700000.0 11309700000.0 11309700000.0 11309700000.0 11309700000.0 11309700000.0 11309700000.0 11309700000.0 11309700000.0 11309700000.0 11309700000.0 11309700000.0 11309700000.0 11309700000.0 11309700000.0 11309700000.0 11309700000.0 11309700000.0 11309700000.0 11309700000.0 11309700000.0 11309700000.0 11309700000.0 11309700000.0 11309700000.0 11309700000.0 11309700000.0 11309700000.0 11309700000.0 11309700000.0 11309700000.0 11309700000.0 11309700000.0 11309700000.0 11309700000.0 11309700000.0 11309700000.0 11309700000.0 11309700000.0 11309700000.0 11309700000.0 11309700000.0 11309700000.0 11309700000.0 11309700000.0 11309700000.0 11309700000.0 11309700000.0 11309700000.0 11309700000.0 11309700000.0 11309700000.0 11309700000.0 11309700000.0 11309700000.0 11309700000.0 11309700000.0 11309700000.0 11309700000.0 11309700000.0 11309700000.0 11309700000.0 11309700000.0 11309700000.0 11309700000.0 11309700000.0 11309700000.0 11309700000.0 11309700000.0 11309700000.0 11309700000.0 11309700000.0 11309700000.0 11309700000.0 11309700000.0 11309700000.0 11309700000.0 11309700000.0 11309700000.0 11309700000.0 11309700000.0 11309700000.0 11309700000.0 11309700000.0 11309700000.0 11309700000.0 11309700000.0 11309700000.0 11309700000.0 11309700000.0 11309700000.0 11309700000.0 11309700000.0 11309700000.0 11309700000.0 11309700000.0 11309700000.0 11309700000.0 11309700000.0 11309700000.0 11309700000.0 11309700000.0 11309700000.0 11309700000.0 11309700000.0 11309700000.0 11309700000.0 11309700000.0 11309700000.0 11309700000.0 11309700000.0 11309700000.0 11309700000.0 11309700000.0 11309700000.0 11309700000.0 11309700000.0 11309700000.0 11309700000.0 11309700000.0 11309700000.0 11309700000.0 11309700000.0 11309700000.0 11309700000.0 11309700000.0 11309700000.0 11309700000.0 11309700000.0 11309700000.0 11309700000.0 11309700000.0 11309700000.0 11309700000.0 11309700000.0 11309700000.0 11309700000.0 11309700000.0 11309700000.0 11309700000.0 11309700000.0 11309700000.0 11309700000.0 11309700000.0 11309700000.0 11309700000.0 11309700000.0 11309700000.0 11309700000.0 11309700000.0 11309700000.0 11309700000.0 11309700000.0 11309700000.0 11309700000.0 11309700000.0 11309700000.0 11309700000.0 11309700000.0 11309700000.0 11309700000.0 11309700000.0 11309700000.0 11309700000.0 11309700000.0 11309700000.0 11309700000.0 11309700000.0 11309700000.0 11309700000.0 11309700000.0 11309700000.0 11309700000.0 11309700000.0 11309700000.0 11309700000.0 11309700000.0 11309700000.0 11309700000.0 11309700000.0 11309700000.0 11309700000.0 11309700000.0 11309700000.0 11309700000.0 11309700000.0 11309700000.0 11309700000.0 11309700000.0 11309700000.0 11309700000.0 11309700000.0 11309700000.0 11309700000.0 11309700000.0 11309700000.0 11309700000.0 11309700000.0 11309700000.0 11309700000.0 11309700000.0 11309700000.0 11309700000.0 11309700000.0 11309700000.0 11309700000.0 11309700000.0 11309700000.0 11309700000.0 11309700000.0 11309700000.0 11309700000.0 11309700000.0 11309700000.0 11309700000.0 11309700000.0 11309700000.0 11309700000.0 11309700000.0 11309700000.0 11309700000.0 11309700000.0 11309700000.0 11309700000.0 11309700000.0 11309700000.0 11309700000.0 11309700000.0 11309700000.0 11309700000.0 11309700000.0 11309700000.0 11309700000.0 11309700000.0 11309700000.0 11309700000.0 11309700000.0 11309700000.0 11309700000.0 11309700000.0 11309700000.0 11309700000.0 11309700000.0 11309700000.0 11309700000.0 11309700000.0 11309700000.0 11309700000.0 11309700000.0 11309700000.0 11309700000.0 11309700000.0 11309700000.0 11309700000.0 11309700000.0 11309700000.0 11309700000.0 11309700000.0 11309700000.0 11309700000.0 11309700000.0 11309700000.0 11309700000.0 11309700000.0 11309700000.0 11309700000.0 11309700000.0 11309700000.0 11309700000.0 11309700000.0 11309700000.0 11309700000.0 11309700000.0 11309700000.0 11309700000.0 11309700000.0 11309700000.0 11309700000.0 11309700000.0 11309700000.0 11309700000.0 11309700000.0 11309700000.0 11309700000.0 11309700000.0 11309700000.0 11309700000.0 11309700000.0 11309700000.0 11309700000.0 11309700000.0 11309700000.0 11309700000.0 11309700000.0 11309700000.0 11309700000.0 11309700000.0 11309700000.0 11309700000.0 11309700000.0 11309700000.0 11309700000.0 11309700000.0 11309700000.0 11309700000.0 11309700000.0 11309700000.0 11309700000.0 11309700000.0 11309700000.0 11309700000.0 11309700000.0 11309700000.0 11309700000.0 11309700000.0 11309700000.0 11309700000.0 11309700000.0 11309700000.0 11309700000.0 11309700000.0 11309700000.0 11309700000.0 11309700000.0 11309700000.0 11309700000.0 11309700000.0 11309700000.0 11309700000.0 11309700000.0 11309700000.0 11309700000.0 11309700000.0 11309700000.0 11309700000.0 11309700000.0 11309700000.0 11309700000.0 11309700000.0 11309700000.0 11309700000.0 11309700000.0 11309700000.0 11309700000.0 11309700000.0 11309700000.0 11309700000.0 11309700000.0 11309700000.0 11309700000.0 11309700000.0 11309700000.0 11309700000.0 11309700000.0 11309700000.0 11309700000.0 11309700000.0 11309700000.0 11309700000.0 11309700000.0 11309700000.0 11309700000.0 11309700000.0 11309700000.0 11309700000.0 11309700000.0 11309700000.0 11309700000.0 11309700000.0 11309700000.0 11309700000.0 11309700000.0 11309700000.0 11309700000.0 11309700000.0 11309700000.0 11309700000.0 11309700000.0 11309700000.0 11309700000.0 11309700000.0 11309700000.0 11309700000.0 11309700000.0 11309700000.0 11309700000.0 11309700000.0 11309700000.0 11309700000.0 11309700000.0 11309700000.0 11309700000.0 11309700000.0 11309700000.0 11309700000.0 11309700000.0 11309700000.0 11309700000.0 11309700000.0 11309700000.0 11309700000.0 11309700000.0 11309700000.0 11309700000.0 11309700000.0 11309700000.0 11309700000.0 11309700000.0 11309700000.0 11309700000.0 11309700000.0 11309700000.0 11309700000.0 11309700000.0 11309700000.0 11309700000.0 11309700000.0 11309700000.0 11309700000.0 11309700000.0 11309700000.0 11309700000.0 11309700000.0 11309700000.0 11309700000.0 11309700000.0 11309700000.0 11309700000.0 11309700000.0 11309700000.0 11309700000.0 11309700000.0 11309700000.0 11309700000.0 11309700000.0 11309700000.0 11309700000.0 11309700000.0 11309700000.0 11309700000.0 11309700000.0 11309700000.0 11309700000.0 11309700000.0 11309700000.0 11309700000.0 11309700000.0 11309700000.0 11309700000.0 11309700000.0 11309700000.0 11309700000.0 11309700000.0 11309700000.0 11309700000.0 11309700000.0 11309700000.0 11309700000.0 11309700000.0 11309700000.0 11309700000.0 11309700000.0 11309700000.0 11309700000.0 11309700000.0 11309700000.0 11309700000.0 11309700000.0 11309700000.0 11309700000.0 11309700000.0 11309700000.0 11309700000.0 11309700000.0 11309700000.0 11309700000.0 11309700000.0 11309700000.0 11309700000.0 11309700000.0 11309700000.0 11309700000.0 11309700000.0 11309700000.0 11309700000.0 11309700000.0 11309700000.0 11309700000.0 11309700000.0 11309700000.0 11309700000.0 11309700000.0 11309700000.0 11309700000.0 11309700000.0 11309700000.0 11309700000.0 11309700000.0 11309700000.0 11309700000.0 11309700000.0 11309700000.0 11309700000.0 11309700000.0 11309700000.0 11309700000.0 11309700000.0 11309700000.0 11309700000.0 11309700000.0 11309700000.0 11309700000.0 11309700000.0 11309700000.0 11309700000.0 11309700000.0 11309700000.0 11309700000.0 11309700000.0 11309700000.0 11309700000.0 11309700000.0 11309700000.0 11309700000.0 11309700000.0 11309700000.0 11309700000.0 11309700000.0 11309700000.0 11309700000.0 11309700000.0 11309700000.0 11309700000.0 11309700000.0 11309700000.0 11309700000.0 11309700000.0 11309700000.0 11309700000.0 11309700000.0 11309700000.0 11309700000.0 11309700000.0 11309700000.0 11309700000.0 11309700000.0 11309700000.0 11309700000.0 11309700000.0 11309700000.0 11309700000.0 11309700000.0 11309700000.0 11309700000.0 11309700000.0 11309700000.0 11309700000.0 11309700000.0 11309700000.0 11309700000.0 11309700000.0 11309700000.0 11309700000.0 11309700000.0 11309700000.0 11309700000.0 11309700000.0 11309700000.0 11309700000.0 11309700000.0 11309700000.0 11309700000.0 11309700000.0 11309700000.0 11309700000.0 11309700000.0 11309700000.0 11309700000.0 11309700000.0 11309700000.0 11309700000.0 11309700000.0 11309700000.0 11309700000.0 11309700000.0 11309700000.0 11309700000.0 11309700000.0 11309700000.0 11309700000.0 11309700000.0 11309700000.0 11309700000.0 11309700000.0 11309700000.0 11309700000.0 11309700000.0 11309700000.0 11309700000.0 11309700000.0 11309700000.0 11309700000.0 11309700000.0 11309700000.0 11309700000.0 11309700000.0 11309700000.0 11309700000.0 11309700000.0 11309700000.0 11309700000.0 11309700000.0 11309700000.0 11309700000.0 11309700000.0 11309700000.0 11309700000.0 11309700000.0 11309700000.0 11309700000.0 11309700000.0 11309700000.0 11309700000.0 11309700000.0 11309700000.0 11309700000.0 11309700000.0 11309700000.0 11309700000.0 11309700000.0 11309700000.0 11309700000.0 11309700000.0 11309700000.0 11309700000.0 11309700000.0 11309700000.0 11309700000.0 11309700000.0 11309700000.0 11309700000.0 11309700000.0 11309700000.0 11309700000.0 11309700000.0 11309700000.0 11309700000.0 11309700000.0 11309700000.0 11309700000.0 11309700000.0 11309700000.0 11309700000.0 11309700000.0 11309700000.0 11309700000.0 11309700000.0 11309700000.0 11309700000.0 11309700000.0 11309700000.0 11309700000.0 11309700000.0 11309700000.0 11309700000.0 11309700000.0 11309700000.0 11309700000.0 11309700000.0 11309700000.0 11309700000.0 11309700000.0 11309700000.0 11309700000.0 11309700000.0 11309700000.0 11309700000.0 11309700000.0 11309700000.0 11309700000.0 11309700000.0 11309700000.0 11309700000.0 11309700000.0 11309700000.0 11309700000.0 11309700000.0 11309700000.0 11309700000.0 11309700000.0 11309700000.0 11309700000.0 11309700000.0 11309700000.0 11309700000.0 11309700000.0 11309700000.0 11309700000.0 11309700000.0 11309700000.0 11309700000.0 11309700000.0 11309700000.0 11309700000.0 11309700000.0 11309700000.0 11309700000.0 11309700000.0 11309700000.0 11309700000.0 11309700000.0 11309700000.0 11309700000.0 11309700000.0 11309700000.0 11309700000.0 11309700000.0 11309700000.0 11309700000.0 11309700000.0 11309700000.0 11309700000.0 11309700000.0 11309700000.0 11309700000.0 11309700000.0 11309700000.0 11309700000.0 11309700000.0 11309700000.0 11309700000.0 11309700000.0 11309700000.0 11309700000.0 11309700000.0 11309700000.0 11309700000.0 11309700000.0 11309700000.0 11309700000.0 11309700000.0 11309700000.0 11309700000.0 11309700000.0 11309700000.0 11309700000.0 11309700000.0 11309700000.0 11309700000.0 11309700000.0 11309700000.0 11309700000.0 11309700000.0 11309700000.0 11309700000.0 11309700000.0 11309700000.0 11309700000.0 11309700000.0 11309700000.0 11309700000.0 11309700000.0 11309700000.0 11309700000.0 11309700000.0 11309700000.0 11309700000.0 11309700000.0 11309700000.0 11309700000.0 11309700000.0 11309700000.0 11309700000.0 11309700000.0 11309700000.0 11309700000.0 11309700000.0 11309700000.0 11309700000.0 11309700000.0 11309700000.0 11309700000.0 11309700000.0 11309700000.0 11309700000.0 11309700000.0 11309700000.0 11309700000.0 11309700000.0 11309700000.0 11309700000.0 11309700000.0 11309700000.0 11309700000.0 11309700000.0 11309700000.0 11309700000.0 11309700000.0 11309700000.0 11309700000.0 11309700000.0 11309700000.0 11309700000.0 11309700000.0 11309700000.0 11309700000.0 11309700000.0 11309700000.0 11309700000.0 11309700000.0 11309700000.0 11309700000.0 11309700000.0 11309700000.0 11309700000.0 11309700000.0 11309700000.0 11309700000.0 11309700000.0 11309700000.0 11309700000.0 11309700000.0 11309700000.0 11309700000.0 11309700000.0 11309700000.0 11309700000.0 11309700000.0 11309700000.0 11309700000.0 11309700000.0 11309700000.0 11309700000.0 11309700000.0 11309700000.0 11309700000.0 11309700000.0 11309700000.0 11309700000.0 11309700000.0 11309700000.0 11309700000.0 11309700000.0 11309700000.0 11309700000.0 11309700000.0 11309700000.0 11309700000.0 11309700000.0 11309700000.0 11309700000.0 11309700000.0 11309700000.0 11309700000.0 11309700000.0 11309700000.0 11309700000.0 11309700000.0 11309700000.0 11309700000.0 11309700000.0 11309700000.0 11309700000.0 11309700000.0 11309700000.0 11309700000.0 11309700000.0 11309700000.0 11309700000.0 11309700000.0 11309700000.0 11309700000.0 11309700000.0 11309700000.0 11309700000.0 11309700000.0 11309700000.0 11309700000.0 11309700000.0 11309700000.0 11309700000.0 11309700000.0 11309700000.0 11309700000.0 11309700000.0 11309700000.0 11309700000.0 11309700000.0 11309700000.0 11309700000.0 11309700000.0 11309700000.0 11309700000.0 11309700000.0 11309700000.0 11309700000.0 11309700000.0 11309700000.0 11309700000.0 11309700000.0 11309700000.0 11309700000.0 11309700000.0 11309700000.0 11309700000.0 11309700000.0 11309700000.0 11309700000.0 11309700000.0 11309700000.0 11309700000.0 11309700000.0 11309700000.0 11309700000.0 11309700000.0 11309700000.0 11309700000.0 11309700000.0 11309700000.0 11309700000.0 11309700000.0 11309700000.0 11309700000.0 11309700000.0 11309700000.0 11309700000.0 11309700000.0 11309700000.0 11309700000.0 11309700000.0 11309700000.0 11309700000.0 11309700000.0 11309700000.0 11309700000.0 11309700000.0 11309700000.0 11309700000.0 11309700000.0 11309700000.0 11309700000.0 11309700000.0 11309700000.0 11309700000.0 11309700000.0 11309700000.0 11309700000.0 11309700000.0 11309700000.0 11309700000.0 11309700000.0 11309700000.0 11309700000.0 11309700000.0 11309700000.0 11309700000.0 11309700000.0 11309700000.0 11309700000.0 11309700000.0 11309700000.0 11309700000.0 11309700000.0 11309700000.0 11309700000.0 11309700000.0 11309700000.0 11309700000.0 11309700000.0 11309700000.0 11309700000.0 11309700000.0 11309700000.0 11309700000.0 11309700000.0 11309700000.0 11309700000.0 11309700000.0 11309700000.0 11309700000.0 11309700000.0 11309700000.0 11309700000.0 11309700000.0 11309700000.0 11309700000.0 11309700000.0 11309700000.0 11309700000.0 11309700000.0 11309700000.0 11309700000.0 11309700000.0 11309700000.0 11309700000.0 11309700000.0 11309700000.0 11309700000.0 11309700000.0 11309700000.0 11309700000.0 11309700000.0 11309700000.0 11309700000.0 11309700000.0 11309700000.0 11309700000.0 11309700000.0 11309700000.0 11309700000.0 11309700000.0 11309700000.0 11309700000.0 11309700000.0 11309700000.0 11309700000.0 11309700000.0 11309700000.0 11309700000.0 11309700000.0 11309700000.0 11309700000.0 11309700000.0 11309700000.0 11309700000.0 11309700000.0 11309700000.0 11309700000.0 11309700000.0 11309700000.0 11309700000.0 11309700000.0 11309700000.0 11309700000.0 11309700000.0 11309700000.0 11309700000.0 11309700000.0 11309700000.0 11309700000.0 11309700000.0 11309700000.0 11309700000.0 11309700000.0 11309700000.0 11309700000.0 11309700000.0 11309700000.0 11309700000.0 11309700000.0 11309700000.0 11309700000.0 11309700000.0 11309700000.0 11309700000.0 11309700000.0 11309700000.0 11309700000.0 11309700000.0 11309700000.0 11309700000.0 11309700000.0 11309700000.0 11309700000.0 11309700000.0 11309700000.0 11309700000.0 11309700000.0 11309700000.0 11309700000.0 11309700000.0 11309700000.0 11309700000.0 11309700000.0 11309700000.0 11309700000.0 11309700000.0 11309700000.0 11309700000.0 11309700000.0 11309700000.0 11309700000.0 11309700000.0 11309700000.0 11309700000.0 11309700000.0 11309700000.0 11309700000.0 11309700000.0 11309700000.0 11309700000.0 11309700000.0 11309700000.0 11309700000.0 11309700000.0 11309700000.0 11309700000.0 11309700000.0 11309700000.0 11309700000.0 11309700000.0 11309700000.0 11309700000.0 11309700000.0 11309700000.0 11309700000.0 11309700000.0 11309700000.0 11309700000.0 11309700000.0 11309700000.0 11309700000.0 11309700000.0 11309700000.0 11309700000.0 11309700000.0 11309700000.0 11309700000.0 11309700000.0 11309700000.0 11309700000.0 11309700000.0 11309700000.0 11309700000.0 11309700000.0 11309700000.0 11309700000.0 11309700000.0 11309700000.0 11309700000.0 11309700000.0 11309700000.0 11309700000.0 11309700000.0 11309700000.0 11309700000.0 11309700000.0 11309700000.0 11309700000.0 11309700000.0 11309700000.0 11309700000.0 11309700000.0 11309700000.0 11309700000.0 11309700000.0 11309700000.0 11309700000.0 11309700000.0 11309700000.0 11309700000.0 11309700000.0 11309700000.0 11309700000.0 11309700000.0 11309700000.0 11309700000.0 11309700000.0 11309700000.0 11309700000.0 11309700000.0 11309700000.0 11309700000.0 11309700000.0 11309700000.0 11309700000.0 11309700000.0 11309700000.0 11309700000.0 11309700000.0 11309700000.0 11309700000.0 11309700000.0 11309700000.0 11309700000.0 11309700000.0 11309700000.0 11309700000.0 11309700000.0 11309700000.0 11309700000.0 11309700000.0 11309700000.0 11309700000.0 11309700000.0 11309700000.0 11309700000.0 11309700000.0 11309700000.0 11309700000.0 11309700000.0 11309700000.0 11309700000.0 11309700000.0 11309700000.0 11309700000.0 11309700000.0 11309700000.0 11309700000.0 11309700000.0 11309700000.0 11309700000.0 11309700000.0 11309700000.0 11309700000.0 11309700000.0 11309700000.0 11309700000.0 11309700000.0 11309700000.0 11309700000.0 11309700000.0 11309700000.0 11309700000.0 11309700000.0 11309700000.0 11309700000.0 11309700000.0 11309700000.0 11309700000.0 11309700000.0 11309700000.0 11309700000.0 11309700000.0 11309700000.0 11309700000.0 11309700000.0 11309700000.0 11309700000.0 11309700000.0 11309700000.0 11309700000.0 11309700000.0 11309700000.0 11309700000.0 11309700000.0 11309700000.0 11309700000.0 11309700000.0 11309700000.0 11309700000.0 11309700000.0 11309700000.0 11309700000.0 11309700000.0 11309700000.0 11309700000.0 11309700000.0 11309700000.0 11309700000.0 11309700000.0 11309700000.0 11309700000.0 11309700000.0 11309700000.0 11309700000.0 11309700000.0 11309700000.0 11309700000.0 11309700000.0 11309700000.0 11309700000.0 11309700000.0 11309700000.0 11309700000.0 11309700000.0 11309700000.0 11309700000.0 11309700000.0 11309700000.0 11309700000.0 11309700000.0 11309700000.0 11309700000.0 11309700000.0 11309700000.0 11309700000.0 11309700000.0 11309700000.0 11309700000.0 11309700000.0 11309700000.0 11309700000.0 11309700000.0 11309700000.0 11309700000.0 11309700000.0 11309700000.0 11309700000.0 11309700000.0 11309700000.0 11309700000.0 11309700000.0 11309700000.0 11309700000.0 11309700000.0 11309700000.0 11309700000.0 11309700000.0 11309700000.0 11309700000.0 11309700000.0 11309700000.0 11309700000.0 11309700000.0 11309700000.0 11309700000.0 11309700000.0 11309700000.0 11309700000.0 11309700000.0 11309700000.0 11309700000.0 11309700000.0 11309700000.0 11309700000.0 11309700000.0 11309700000.0 11309700000.0 11309700000.0 11309700000.0 11309700000.0 11309700000.0 11309700000.0 11309700000.0 11309700000.0 11309700000.0 11309700000.0 11309700000.0 11309700000.0 11309700000.0 11309700000.0 11309700000.0 11309700000.0 11309700000.0 11309700000.0 11309700000.0 11309700000.0 11309700000.0 11309700000.0 11309700000.0 11309700000.0 11309700000.0 11309700000.0 11309700000.0 11309700000.0 11309700000.0 11309700000.0 11309700000.0 11309700000.0 11309700000.0 11309700000.0 11309700000.0 11309700000.0 11309700000.0 11309700000.0 11309700000.0 11309700000.0 11309700000.0 11309700000.0 11309700000.0 11309700000.0 11309700000.0 11309700000.0 11309700000.0 11309700000.0 11309700000.0 11309700000.0 11309700000.0 11309700000.0 11309700000.0 11309700000.0 11309700000.0 11309700000.0 11309700000.0 11309700000.0 11309700000.0 11309700000.0 11309700000.0 11309700000.0 11309700000.0 11309700000.0 11309700000.0 11309700000.0 11309700000.0 11309700000.0 11309700000.0 11309700000.0 11309700000.0 11309700000.0 11309700000.0 11309700000.0 11309700000.0 11309700000.0 11309700000.0 11309700000.0 11309700000.0 11309700000.0 11309700000.0 11309700000.0 11309700000.0 11309700000.0 11309700000.0 11309700000.0 11309700000.0 11309700000.0 11309700000.0 11309700000.0 11309700000.0 11309700000.0 11309700000.0 11309700000.0 11309700000.0 11309700000.0 11309700000.0 11309700000.0 11309700000.0 11309700000.0 11309700000.0 11309700000.0 11309700000.0 11309700000.0 11309700000.0 11309700000.0 11309700000.0 11309700000.0 11309700000.0 11309700000.0 11309700000.0 11309700000.0 11309700000.0 11309700000.0 11309700000.0 11309700000.0 11309700000.0 11309700000.0 11309700000.0 11309700000.0 11309700000.0 11309700000.0 11309700000.0 11309700000.0 11309700000.0 11309700000.0 11309700000.0 11309700000.0 11309700000.0 11309700000.0 11309700000.0 11309700000.0 11309700000.0 11309700000.0 11309700000.0 11309700000.0 11309700000.0 11309700000.0 11309700000.0 11309700000.0 11309700000.0 11309700000.0 11309700000.0 11309700000.0 11309700000.0 11309700000.0 11309700000.0 11309700000.0 11309700000.0 11309700000.0 11309700000.0 11309700000.0 11309700000.0 11309700000.0 11309700000.0 11309700000.0 11309700000.0 11309700000.0 11309700000.0 11309700000.0 11309700000.0 11309700000.0 11309700000.0 11309700000.0 11309700000.0 11309700000.0 11309700000.0 11309700000.0 11309700000.0 11309700000.0 11309700000.0 11309700000.0 11309700000.0 11309700000.0 11309700000.0 11309700000.0 11309700000.0 11309700000.0 11309700000.0 11309700000.0 11309700000.0 11309700000.0 11309700000.0 11309700000.0 11309700000.0 11309700000.0 11309700000.0 11309700000.0 11309700000.0 11309700000.0 11309700000.0 11309700000.0 11309700000.0 11309700000.0 11309700000.0 11309700000.0 11309700000.0 11309700000.0 11309700000.0 11309700000.0 11309700000.0 11309700000.0 11309700000.0 11309700000.0 11309700000.0 11309700000.0 11309700000.0 11309700000.0 11309700000.0 11309700000.0 11309700000.0 11309700000.0 11309700000.0 11309700000.0 11309700000.0 11309700000.0 11309700000.0 11309700000.0 11309700000.0 11309700000.0 11309700000.0 11309700000.0 11309700000.0 11309700000.0 11309700000.0 11309700000.0 11309700000.0 11309700000.0 11309700000.0 11309700000.0 11309700000.0 11309700000.0 11309700000.0 11309700000.0 11309700000.0 11309700000.0 11309700000.0 11309700000.0 11309700000.0 11309700000.0 11309700000.0 11309700000.0 11309700000.0 11309700000.0 11309700000.0 11309700000.0 11309700000.0 11309700000.0 11309700000.0 11309700000.0 11309700000.0 11309700000.0 11309700000.0 11309700000.0 11309700000.0 11309700000.0 11309700000.0 11309700000.0 11309700000.0 11309700000.0 11309700000.0 11309700000.0 11309700000.0 11309700000.0 11309700000.0 11309700000.0 11309700000.0 11309700000.0 11309700000.0 11309700000.0 11309700000.0 11309700000.0 11309700000.0 11309700000.0 11309700000.0 11309700000.0 11309700000.0 11309700000.0 11309700000.0 11309700000.0 11309700000.0 11309700000.0 11309700000.0 11309700000.0 11309700000.0 11309700000.0 11309700000.0 11309700000.0 11309700000.0 11309700000.0 11309700000.0 11309700000.0 11309700000.0 11309700000.0 11309700000.0 11309700000.0 11309700000.0 11309700000.0 11309700000.0 11309700000.0 11309700000.0 11309700000.0 11309700000.0 11309700000.0 11309700000.0 11309700000.0 11309700000.0 11309700000.0 11309700000.0 11309700000.0 11309700000.0 11309700000.0 11309700000.0 11309700000.0 11309700000.0 11309700000.0 11309700000.0 11309700000.0 11309700000.0 11309700000.0 11309700000.0 11309700000.0 11309700000.0 11309700000.0 11309700000.0 11309700000.0 11309700000.0 11309700000.0 11309700000.0 11309700000.0 11309700000.0 11309700000.0 11309700000.0 11309700000.0 11309700000.0 11309700000.0 11309700000.0 11309700000.0 11309700000.0 11309700000.0 11309700000.0 11309700000.0 11309700000.0 11309700000.0 11309700000.0 11309700000.0 11309700000.0 11309700000.0 11309700000.0 11309700000.0 11309700000.0 11309700000.0 11309700000.0 11309700000.0 11309700000.0 11309700000.0 11309700000.0 11309700000.0 11309700000.0 11309700000.0 11309700000.0 11309700000.0 11309700000.0 11309700000.0 11309700000.0 11309700000.0 11309700000.0 11309700000.0 11309700000.0 11309700000.0 11309700000.0 11309700000.0 11309700000.0 11309700000.0 11309700000.0 11309700000.0 11309700000.0 11309700000.0 11309700000.0 11309700000.0 11309700000.0 11309700000.0 11309700000.0 11309700000.0 11309700000.0 11309700000.0 11309700000.0 11309700000.0 11309700000.0 11309700000.0 11309700000.0 11309700000.0 11309700000.0 11309700000.0 11309700000.0 11309700000.0 11309700000.0 11309700000.0 11309700000.0 11309700000.0 11309700000.0 11309700000.0 11309700000.0 11309700000.0 11309700000.0 11309700000.0 11309700000.0 11309700000.0 11309700000.0 11309700000.0 11309700000.0 11309700000.0 11309700000.0 11309700000.0 11309700000.0 11309700000.0 11309700000.0 11309700000.0 11309700000.0 11309700000.0 11309700000.0 11309700000.0 11309700000.0 11309700000.0 11309700000.0 11309700000.0 11309700000.0 11309700000.0 11309700000.0 11309700000.0 11309700000.0 11309700000.0 11309700000.0 11309700000.0 11309700000.0 11309700000.0 11309700000.0 11309700000.0 11309700000.0 11309700000.0 11309700000.0 11309700000.0 11309700000.0 11309700000.0 11309700000.0 11309700000.0 11309700000.0 11309700000.0 11309700000.0 11309700000.0 11309700000.0 11309700000.0 11309700000.0 11309700000.0 11309700000.0 11309700000.0 11309700000.0 11309700000.0 11309700000.0 11309700000.0 11309700000.0 11309700000.0 11309700000.0 11309700000.0 11309700000.0 11309700000.0 11309700000.0 11309700000.0 11309700000.0 11309700000.0 11309700000.0 11309700000.0 11309700000.0 11309700000.0 11309700000.0 11309700000.0 11309700000.0 11309700000.0 11309700000.0 11309700000.0 11309700000.0 11309700000.0 11309700000.0 11309700000.0 11309700000.0 11309700000.0 11309700000.0 11309700000.0 11309700000.0 11309700000.0 11309700000.0 11309700000.0 11309700000.0 11309700000.0 11309700000.0 11309700000.0 11309700000.0 11309700000.0 11309700000.0 11309700000.0 11309700000.0 11309700000.0 11309700000.0 11309700000.0 11309700000.0 11309700000.0 11309700000.0 11309700000.0 11309700000.0 11309700000.0 11309700000.0 11309700000.0 11309700000.0 11309700000.0 11309700000.0 11309700000.0 11309700000.0 11309700000.0 11309700000.0 11309700000.0 11309700000.0 11309700000.0 11309700000.0 11309700000.0 11309700000.0 11309700000.0 11309700000.0 11309700000.0 11309700000.0 11309700000.0 11309700000.0 11309700000.0 11309700000.0 11309700000.0 11309700000.0 11309700000.0 11309700000.0 11309700000.0 11309700000.0 11309700000.0 11309700000.0 11309700000.0 11309700000.0 11309700000.0 11309700000.0 11309700000.0 11309700000.0 11309700000.0 11309700000.0 11309700000.0 11309700000.0 11309700000.0 11309700000.0 11309700000.0 11309700000.0 11309700000.0 11309700000.0 11309700000.0 11309700000.0 11309700000.0 11309700000.0 11309700000.0 11309700000.0 11309700000.0 11309700000.0 11309700000.0 11309700000.0 11309700000.0 11309700000.0 11309700000.0 11309700000.0 11309700000.0 11309700000.0 11309700000.0 11309700000.0 11309700000.0 11309700000.0 11309700000.0 11309700000.0 11309700000.0 11309700000.0 11309700000.0 11309700000.0 11309700000.0 11309700000.0 11309700000.0 11309700000.0 11309700000.0 11309700000.0 11309700000.0 11309700000.0 11309700000.0 11309700000.0 11309700000.0 11309700000.0 11309700000.0 11309700000.0 11309700000.0 11309700000.0 11309700000.0 11309700000.0 11309700000.0 11309700000.0 11309700000.0 11309700000.0 11309700000.0 11309700000.0 11309700000.0 11309700000.0 11309700000.0 11309700000.0 11309700000.0 11309700000.0 11309700000.0 11309700000.0 11309700000.0 11309700000.0 11309700000.0 11309700000.0 11309700000.0 11309700000.0 11309700000.0 11309700000.0 11309700000.0 11309700000.0 11309700000.0 11309700000.0 11309700000.0 11309700000.0 11309700000.0 11309700000.0 11309700000.0 11309700000.0 11309700000.0 11309700000.0 11309700000.0 11309700000.0 11309700000.0 11309700000.0 11309700000.0 11309700000.0 11309700000.0 11309700000.0 11309700000.0 11309700000.0 11309700000.0 11309700000.0 11309700000.0 11309700000.0 11309700000.0 11309700000.0 11309700000.0 11309700000.0 11309700000.0 11309700000.0 11309700000.0 11309700000.0 11309700000.0 11309700000.0 11309700000.0 11309700000.0 11309700000.0 11309700000.0 11309700000.0 11309700000.0 11309700000.0 11309700000.0 11309700000.0 11309700000.0 11309700000.0 11309700000.0 11309700000.0 11309700000.0 11309700000.0 11309700000.0 11309700000.0 11309700000.0 11309700000.0 11309700000.0 11309700000.0 11309700000.0 11309700000.0 11309700000.0 11309700000.0 11309700000.0 11309700000.0 11309700000.0 11309700000.0 11309700000.0 11309700000.0 11309700000.0 11309700000.0 11309700000.0 11309700000.0 11309700000.0 11309700000.0 11309700000.0 11309700000.0 11309700000.0 11309700000.0 11309700000.0 11309700000.0 11309700000.0 11309700000.0 11309700000.0 11309700000.0 11309700000.0 11309700000.0 11309700000.0 11309700000.0 11309700000.0 11309700000.0 11309700000.0 11309700000.0 11309700000.0 11309700000.0 11309700000.0 11309700000.0 11309700000.0 11309700000.0 11309700000.0 11309700000.0 11309700000.0 11309700000.0 11309700000.0 11309700000.0 11309700000.0 11309700000.0 11309700000.0 11309700000.0 11309700000.0 11309700000.0 11309700000.0 11309700000.0 11309700000.0 11309700000.0 11309700000.0 11309700000.0 11309700000.0 11309700000.0 11309700000.0 11309700000.0 11309700000.0 11309700000.0 11309700000.0 11309700000.0 11309700000.0 11309700000.0 11309700000.0 11309700000.0 11309700000.0 11309700000.0 11309700000.0 11309700000.0 11309700000.0 11309700000.0 11309700000.0 11309700000.0 11309700000.0 11309700000.0 11309700000.0 11309700000.0 11309700000.0 11309700000.0 11309700000.0 11309700000.0 11309700000.0 11309700000.0 11309700000.0 11309700000.0 11309700000.0 11309700000.0 11309700000.0 11309700000.0 11309700000.0 11309700000.0 11309700000.0 11309700000.0 11309700000.0 11309700000.0 11309700000.0 11309700000.0 11309700000.0 11309700000.0 11309700000.0 11309700000.0 11309700000.0 11309700000.0 11309700000.0 11309700000.0 11309700000.0 11309700000.0 11309700000.0 11309700000.0 11309700000.0 11309700000.0 11309700000.0 11309700000.0 11309700000.0 11309700000.0 11309700000.0 11309700000.0 11309700000.0 11309700000.0 11309700000.0 11309700000.0 11309700000.0 11309700000.0 11309700000.0 11309700000.0 11309700000.0 11309700000.0 11309700000.0 11309700000.0 11309700000.0 11309700000.0 11309700000.0 11309700000.0 11309700000.0 11309700000.0 11309700000.0 11309700000.0 11309700000.0 11309700000.0 11309700000.0 11309700000.0 11309700000.0 11309700000.0 11309700000.0 11309700000.0 11309700000.0 11309700000.0 11309700000.0 11309700000.0 11309700000.0 11309700000.0 11309700000.0 11309700000.0 11309700000.0 11309700000.0 11309700000.0 11309700000.0 11309700000.0 11309700000.0 11309700000.0 11309700000.0 11309700000.0 11309700000.0 11309700000.0 11309700000.0 11309700000.0 11309700000.0 11309700000.0 11309700000.0 11309700000.0 11309700000.0 11309700000.0 11309700000.0 11309700000.0 11309700000.0 11309700000.0 11309700000.0 11309700000.0 11309700000.0 11309700000.0 11309700000.0 11309700000.0 11309700000.0 11309700000.0 11309700000.0 11309700000.0 11309700000.0 11309700000.0 11309700000.0 11309700000.0 11309700000.0 11309700000.0 11309700000.0 11309700000.0 11309700000.0 11309700000.0 11309700000.0 11309700000.0 11309700000.0 11309700000.0 11309700000.0 11309700000.0 11309700000.0 11309700000.0 11309700000.0 11309700000.0 11309700000.0 11309700000.0 11309700000.0 11309700000.0 11309700000.0 11309700000.0 11309700000.0 11309700000.0 11309700000.0 11309700000.0 11309700000.0 11309700000.0 11309700000.0 11309700000.0 11309700000.0 11309700000.0 11309700000.0 11309700000.0 11309700000.0 11309700000.0 11309700000.0 11309700000.0 11309700000.0 11309700000.0 11309700000.0 11309700000.0 11309700000.0 11309700000.0 11309700000.0 11309700000.0 11309700000.0 11309700000.0 11309700000.0 11309700000.0 11309700000.0 11309700000.0 11309700000.0 11309700000.0 11309700000.0 11309700000.0 11309700000.0 11309700000.0 11309700000.0 11309700000.0 11309700000.0 11309700000.0 11309700000.0 11309700000.0 11309700000.0 11309700000.0 11309700000.0 11309700000.0 11309700000.0 11309700000.0 11309700000.0 11309700000.0 11309700000.0 11309700000.0 11309700000.0 11309700000.0 11309700000.0 11309700000.0 11309700000.0 11309700000.0 11309700000.0 11309700000.0 11309700000.0 11309700000.0 11309700000.0 11309700000.0 11309700000.0 11309700000.0 11309700000.0 11309700000.0 11309700000.0 11309700000.0 11309700000.0 11309700000.0 11309700000.0 11309700000.0 11309700000.0 11309700000.0 11309700000.0 11309700000.0 11309700000.0 11309700000.0 11309700000.0 11309700000.0 11309700000.0 11309700000.0 11309700000.0 11309700000.0 11309700000.0 11309700000.0 11309700000.0 11309700000.0 11309700000.0 11309700000.0 11309700000.0 11309700000.0 11309700000.0 11309700000.0 11309700000.0 11309700000.0 11309700000.0 11309700000.0 11309700000.0 11309700000.0 11309700000.0 11309700000.0 11309700000.0 11309700000.0 11309700000.0 11309700000.0 11309700000.0 11309700000.0 11309700000.0 11309700000.0 11309700000.0 11309700000.0 11309700000.0 11309700000.0 11309700000.0 11309700000.0 11309700000.0 11309700000.0 11309700000.0 11309700000.0 11309700000.0 11309700000.0 11309700000.0 11309700000.0 11309700000.0 11309700000.0 11309700000.0 11309700000.0 11309700000.0 11309700000.0 11309700000.0 11309700000.0 11309700000.0 11309700000.0 11309700000.0 11309700000.0 11309700000.0 11309700000.0 11309700000.0 11309700000.0 11309700000.0 11309700000.0 11309700000.0 11309700000.0 11309700000.0 11309700000.0 11309700000.0 11309700000.0 11309700000.0 11309700000.0 11309700000.0 11309700000.0 11309700000.0 11309700000.0 11309700000.0 11309700000.0 11309700000.0 11309700000.0 11309700000.0 11309700000.0 11309700000.0 11309700000.0 11309700000.0 11309700000.0 11309700000.0 11309700000.0 11309700000.0 11309700000.0 11309700000.0 11309700000.0 11309700000.0 11309700000.0 11309700000.0 11309700000.0 11309700000.0 11309700000.0 11309700000.0 11309700000.0 11309700000.0 11309700000.0 11309700000.0 11309700000.0 11309700000.0 11309700000.0 11309700000.0 11309700000.0 11309700000.0 11309700000.0 11309700000.0 11309700000.0 11309700000.0 11309700000.0 11309700000.0 11309700000.0 11309700000.0 11309700000.0 11309700000.0 11309700000.0 11309700000.0 11309700000.0 11309700000.0 11309700000.0 11309700000.0 11309700000.0 11309700000.0 11309700000.0 11309700000.0 11309700000.0 11309700000.0 11309700000.0 11309700000.0 11309700000.0 11309700000.0 11309700000.0 11309700000.0 11309700000.0 11309700000.0 11309700000.0 11309700000.0 11309700000.0 11309700000.0 11309700000.0 11309700000.0 11309700000.0 11309700000.0 11309700000.0 11309700000.0 11309700000.0 11309700000.0 11309700000.0 11309700000.0 11309700000.0 11309700000.0 11309700000.0 11309700000.0 11309700000.0 11309700000.0 11309700000.0 11309700000.0 11309700000.0 11309700000.0 11309700000.0 11309700000.0 11309700000.0 11309700000.0 11309700000.0 11309700000.0 11309700000.0 11309700000.0 11309700000.0 11309700000.0 11309700000.0 11309700000.0 11309700000.0 11309700000.0 11309700000.0 11309700000.0 11309700000.0 11309700000.0 11309700000.0 11309700000.0 11309700000.0 11309700000.0 11309700000.0 11309700000.0 11309700000.0 11309700000.0 11309700000.0 11309700000.0 11309700000.0 11309700000.0 11309700000.0 11309700000.0 11309700000.0 11309700000.0 11309700000.0 11309700000.0 11309700000.0 11309700000.0 11309700000.0 11309700000.0 11309700000.0 11309700000.0 11309700000.0 11309700000.0 11309700000.0 11309700000.0 11309700000.0 11309700000.0 11309700000.0 11309700000.0 11309700000.0 11309700000.0 11309700000.0 11309700000.0 11309700000.0 11309700000.0 11309700000.0 11309700000.0 11309700000.0 11309700000.0 11309700000.0 11309700000.0 11309700000.0 11309700000.0 11309700000.0 11309700000.0 11309700000.0 11309700000.0 11309700000.0 11309700000.0 11309700000.0 11309700000.0 11309700000.0 11309700000.0 11309700000.0 11309700000.0 11309700000.0 11309700000.0 11309700000.0 11309700000.0 11309700000.0 11309700000.0 11309700000.0 11309700000.0 11309700000.0 11309700000.0 11309700000.0 11309700000.0 11309700000.0 11309700000.0 11309700000.0 11309700000.0 11309700000.0 11309700000.0 11309700000.0 11309700000.0 11309700000.0 11309700000.0 11309700000.0 11309700000.0 11309700000.0 11309700000.0 11309700000.0 11309700000.0 11309700000.0 11309700000.0 11309700000.0 11309700000.0 11309700000.0 11309700000.0 11309700000.0 11309700000.0 11309700000.0 11309700000.0 11309700000.0 11309700000.0 11309700000.0 11309700000.0 11309700000.0 11309700000.0 11309700000.0 11309700000.0 11309700000.0 11309700000.0 11309700000.0 11309700000.0 11309700000.0 11309700000.0 11309700000.0 11309700000.0 11309700000.0 
SCALARS Velocity float 1
LOOKUP_TABLE default
1.02457 1.02457 0.709291 0.716927 1.00121 1.32211 1.13818 1.13818 1.32211 1.00121 0.716927 0.709291 0.704848 0.72407 1.26209 1.14429 1.07924 1.0724 0.892634 1.09442 0.869662 1.02547 0.889128 0.924144 0.892492 0.91219 0.892586 0.912413 0.892528 0.912413 0.892586 0.91219 0.892492 0.924143 0.889128 1.02547 0.869662 1.09442 0.892634 1.0724 1.07924 1.14429 1.26209 0.72407 0.704848 0.707644 0.736725 0.966165 1.04048 1.11793 0.952799 1.08616 1.08616 0.952799 1.11793 1.04048 0.966165 0.736725 0.707644 0.709352 0.734286 0.735208 0.829522 0.996668 1.02434 1.05352 0.995201 0.914866 1.04579 0.99702 0.802209 1.02749 0.876395 0.926825 0.890082 0.912776 0.890543 0.912724 0.890429 0.912724 0.890543 0.912776 0.890082 0.926825 0.876395 1.02749 0.802209 0.99702 1.04579 0.914866 0.995201 1.05352 1.02434 0.996668 0.829522 0.735208 0.734286 0.709352 0.706181 0.712272 0.717464 0.795101 0.82235 0.94616 1.06003 0.955766 0.87556 0.999373 0.948965 1.07066 0.778983 1.02158 0.867698 0.930132 0.885939 0.913688 0.885811 0.913248 0.885323 0.913248 0.885811 0.913688 0.885939 0.930132 0.867698 1.02158 0.778983 1.07066 0.948965 0.999373 0.87556 0.955766 1.06003 0.94616 0.82235 0.795101 0.717464 0.712272 0.706181 0.709967 0.704351 0.747387 0.901741 1.05811 1.14166 0.902938 0.994667 1.04153 1.04153 0.994667 0.902938 1.14166 1.05811 0.901741 0.747387 0.704351 0.709967 0.709566 0.709114 0.72645 0.720959 0.794349 0.843733 1.02817 1.12607 1.12361 1.08838 1.0538 0.872968 0.915484 0.80263 1.01224 0.873717 0.936118 0.886169 0.915385 0.88598 0.914199 0.885629 0.914199 0.88598 0.915385 0.886169 0.936118 0.873717 1.01224 0.80263 0.915484 0.872968 1.0538 1.08838 1.12361 1.12607 1.02817 0.843733 0.794349 0.720959 0.72645 0.709114 0.709566 0.697865 0.709042 0.711732 0.716109 0.741407 0.929233 0.987543 1.1185 1.11988 1.07145 1.04396 0.893838 0.902671 1.01157 0.833689 0.998375 0.874773 0.945602 0.886615 0.918228 0.886063 0.915874 0.885658 0.915874 0.886063 0.918228 0.886615 0.945602 0.874773 0.998375 0.833689 1.01157 0.902671 0.893838 1.04396 1.07145 1.11988 1.1185 0.987543 0.929233 0.741407 0.716109 0.711732 0.709042 0.697865 0.641153 0.67187 0.691921 0.716769 0.713019 0.815368 0.895713 1.03777 1.10949 1.12505 1.0824 1.05414 0.718693 1.00148 1.00148 0.718693 1.05414 1.0824 1.12505 1.10949 1.03777 0.895713 0.815368 0.713019 0.716769 0.691921 0.67187 0.641153 0.610386 0.660143 0.704186 0.716724 0.725259 0.725248 0.73365 0.81467 1.12106 1.08633 1.04524 1.05393 0.724671 0.771708 0.825598 0.851343 0.920489 0.985472 0.82042 0.958969 0.870633 0.922412 0.872045 0.918818 0.871366 0.918818 0.872045 0.922412 0.870633 0.958969 0.82042 0.985472 0.920489 0.851343 0.825598 0.771708 0.724671 1.05393 1.04524 1.08633 1.12106 0.81467 0.73365 0.725248 0.725259 0.716724 0.704186 0.660143 0.610386 0.58419 0.59677 0.626701 0.646301 0.678524 0.693401 0.728048 0.760289 0.918417 1.08716 1.12188 1.05142 0.757195 0.734166 0.757928 0.820192 0.825373 0.976408 0.719159 0.976254 0.846088 0.927722 0.855679 0.923635 0.859693 0.923635 0.855679 0.927722 0.846088 0.976254 0.719159 0.976407 0.825373 0.820192 0.757928 0.734166 0.757195 1.05142 1.12188 1.08716 0.918417 0.760289 0.728048 0.693401 0.678524 0.646301 0.626701 0.59677 0.58419 0.548312 0.562832 0.571298 0.614928 0.666339 0.704284 0.748921 0.783357 0.851637 0.965758 1.14589 1.11185 0.800531 0.75914 0.791065 0.825851 0.859876 0.859876 0.825851 0.791065 0.75914 0.800531 1.11185 1.14589 0.965758 0.851637 0.783357 0.748921 0.704284 0.666339 0.614928 0.571298 0.562832 0.548312 0.540042 0.552527 0.587208 0.607082 0.636516 0.65739 0.679905 0.687695 0.716497 0.722903 0.852194 1.16918 1.15545 0.860615 0.77885 0.773169 0.813875 0.826432 0.835732 0.880172 0.937156 0.598556 0.997273 0.823102 0.935376 0.851807 0.929018 0.856861 0.929018 0.851807 0.935376 0.823102 0.997273 0.598556 0.937156 0.880172 0.835732 0.826432 0.813875 0.773169 0.77885 0.860615 1.15545 1.16918 0.852194 0.722903 0.716497 0.687695 0.679905 0.65739 0.636516 0.607082 0.587208 0.552527 0.540042 0.530985 0.542859 0.544027 0.562229 0.583344 0.632026 0.663936 0.688885 0.751064 0.688417 1.32405 0.835564 0.821962 0.777774 0.782179 0.796638 0.817489 0.852365 0.917704 0.608764 1.01135 0.822927 0.940221 0.851405 0.933037 0.855658 0.933037 0.851405 0.940221 0.822927 1.01135 0.608764 0.917704 0.852365 0.817489 0.796638 0.782179 0.777774 0.821962 0.835564 1.32405 0.688417 0.751064 0.688885 0.663936 0.632026 0.583344 0.562229 0.544027 0.542859 0.530985 0.520005 0.52705 0.5369 0.539611 0.556807 0.606542 0.65886 0.653407 0.665387 0.656161 0.684904 0.620955 0.619278 0.563548 0.830172 0.880764 0.846262 0.80193 0.800006 0.803981 0.841242 0.88275 0.88275 0.841242 0.803981 0.800006 0.80193 0.846262 0.880764 0.830172 0.563548 0.619278 0.620955 0.684904 0.656161 0.665387 0.653407 0.65886 0.606542 0.556807 0.539611 0.5369 0.52705 0.520005 0.481298 0.504259 0.508462 0.530427 0.535166 0.562171 0.594031 0.624311 0.640961 0.686656 0.645664 0.621517 0.565174 0.626223 0.904646 0.840283 0.787334 0.828323 0.849731 0.863996 0.881485 0.89767 0.616923 1.02363 0.823898 0.943324 0.851104 0.935831 0.855277 0.935831 0.851104 0.943324 0.823898 1.02363 0.616923 0.89767 0.881485 0.863996 0.849731 0.828323 0.787334 0.840283 0.904646 0.626223 0.565174 0.621517 0.645664 0.686656 0.640961 0.624311 0.594031 0.562171 0.535166 0.530427 0.508462 0.504259 0.481298 0.454876 0.484978 0.508162 0.505432 0.529817 0.51808 0.648269 0.670445 0.649544 0.641982 0.59905 0.547153 0.888448 0.833088 0.845709 0.82472 0.837372 0.83388 0.828003 0.867535 0.881081 0.630458 1.03207 0.826177 0.945269 0.851549 0.937292 0.85611 0.937292 0.851549 0.945269 0.826177 1.03207 0.630458 0.881081 0.867535 0.828003 0.83388 0.837372 0.82472 0.845709 0.833088 0.888448 0.547153 0.59905 0.641982 0.649544 0.670445 0.648269 0.51808 0.529817 0.505432 0.508162 0.484978 0.454876 0.434734 0.464178 0.47325 0.486745 0.489529 0.484785 0.602378 0.704693 0.675833 0.816892 0.78159 0.530998 0.613054 0.736281 0.645532 0.531195 0.462501 0.875118 0.912298 0.850086 0.836959 0.843713 0.858103 0.870249 0.870249 0.858103 0.843713 0.836959 0.850086 0.912298 0.875118 0.462501 0.531195 0.645532 0.736281 0.613054 0.530998 0.78159 0.816892 0.675833 0.704693 0.602378 0.484785 0.489529 0.486745 0.47325 0.464178 0.434734 0.416522 0.449564 0.459175 0.474251 0.478755 0.381542 0.42547 0.481805 0.492566 0.618719 0.762883 0.356786 0.548137 0.614889 0.780852 0.836757 0.83339 0.874003 0.863831 0.848209 0.867406 0.650106 1.03628 0.831347 0.946687 0.854453 0.938389 0.857744 0.938389 0.854453 0.946687 0.831347 1.03628 0.650106 0.867406 0.848209 0.863831 0.874003 0.83339 0.836757 0.780852 0.614889 0.548137 0.356786 0.762883 0.618719 0.492566 0.481805 0.42547 0.381542 0.478755 0.474251 0.459175 0.449564 0.416522 0.386831 0.403614 0.401863 0.427202 0.439469 0.455918 0.465098 0.449373 0.429069 0.39718 0.618738 0.571511 0.679309 0.370783 0.482657 0.541161 0.647849 0.678701 0.823123 0.860693 0.845558 0.84983 0.854613 0.859134 0.858625 1.04069 0.956687 0.942075 0.942075 0.956687 1.04069 0.858625 0.859134 0.854613 0.84983 0.845558 0.860693 0.823123 0.678701 0.647849 0.541161 0.482657 0.370783 0.679309 0.571511 0.618738 0.39718 0.429069 0.449373 0.465098 0.455918 0.439469 0.427202 0.401863 0.403614 0.386831 0.370604 0.387672 0.433199 0.433678 0.440295 0.449985 0.448425 0.414271 0.568639 0.515356 0.523736 0.448363 0.515538 0.647926 0.703451 0.785975 0.815955 0.866577 0.901548 0.85303 0.913512 0.854227 0.873804 0.845942 0.833773 0.686237 0.841358 0.858809 0.861347 0.858809 0.841358 0.686237 0.833772 0.845942 0.873804 0.854227 0.913512 0.85303 0.901548 0.866577 0.815955 0.785975 0.703451 0.647926 0.515538 0.448363 0.523736 0.515356 0.568639 0.414271 0.448425 0.449985 0.440295 0.433678 0.433199 0.387672 0.370604 0.356919 0.374541 0.378874 0.42199 0.428273 0.432439 0.444693 0.451265 0.695201 0.593403 0.53542 0.546482 0.553601 0.538607 0.55905 0.663788 0.628837 0.837437 0.910782 0.930575 0.883572 0.865843 0.812543 0.778476 0.717576 0.948535 0.853191 0.913173 0.866111 0.906699 0.866545 0.906699 0.866111 0.913173 0.853191 0.948535 0.717576 0.778476 0.812543 0.865843 0.883572 0.930575 0.910782 0.837437 0.628837 0.663788 0.55905 0.538607 0.553601 0.546482 0.53542 0.593403 0.695201 0.451265 0.444693 0.432439 0.428273 0.42199 0.378874 0.374541 0.356919 0.366849 0.343785 0.362266 0.375255 0.378199 0.427274 0.449865 0.464612 0.451257 0.495618 0.664059 0.60076 0.55644 0.541387 0.558025 0.550046 0.528362 0.545309 0.676676 0.731441 0.709038 0.791847 0.855614 0.855873 0.86325 0.835904 0.850296 0.850296 0.835904 0.86325 0.855873 0.855614 0.791847 0.709038 0.731441 0.676676 0.545309 0.528362 0.550046 0.558025 0.541387 0.55644 0.60076 0.664059 0.495618 0.451257 0.464612 0.449865 0.427274 0.378199 0.375255 0.362266 0.343785 0.366849 0.827721 0.386052 0.375811 0.379345 0.413362 0.445465 0.480051 0.476334 0.560203 0.551168 0.559971 0.561061 0.580517 0.573907 0.676891 0.775744 0.848143 0.826477 0.89019 0.821599 0.883671 0.811678 0.870127 0.799535 0.760971 0.752749 0.726828 0.9364 0.8536 0.906971 0.867776 0.904799 0.871832 0.904799 0.867776 0.906971 0.8536 0.9364 0.726828 0.752749 0.760971 0.799535 0.870127 0.811678 0.883671 0.821599 0.89019 0.826477 0.848143 0.775744 0.676891 0.573907 0.580517 0.561061 0.559971 0.551168 0.560203 0.476334 0.480051 0.445465 0.413362 0.379345 0.375811 0.386052 0.827721 0.679506 0.659943 0.391025 0.383423 0.408552 0.450354 0.468311 0.481467 0.44159 0.640605 0.64745 0.593871 0.562374 0.577763 0.600933 0.635647 0.640216 0.613071 0.672336 0.86475 0.895509 0.890392 0.887847 0.853988 0.741649 0.985182 0.770513 0.912464 0.862704 0.901914 0.873178 0.902275 0.876009 0.902275 0.873178 0.901914 0.862704 0.912464 0.770513 0.985182 0.741649 0.853988 0.887847 0.890392 0.895509 0.86475 0.672336 0.613071 0.640216 0.635647 0.600933 0.577763 0.562374 0.593871 0.64745 0.640605 0.44159 0.481467 0.468311 0.450354 0.408552 0.383423 0.391025 0.659943 0.679506 0.694789 0.69391 0.382793 0.383532 0.439803 0.476568 0.443535 0.644207 0.675826 0.629769 0.590143 0.566539 0.639305 0.612613 0.67939 0.693921 0.872957 0.82803 0.833046 0.82444 0.821467 0.821467 0.82444 0.833046 0.82803 0.872957 0.693921 0.67939 0.612613 0.639305 0.566539 0.590143 0.629769 0.675826 0.644207 0.443535 0.476568 0.439803 0.383532 0.382793 0.69391 0.694789 0.798523 0.676426 0.404338 0.45392 0.444157 0.484543 0.727112 0.651029 0.614716 0.589874 0.575542 0.575541 0.608145 0.629175 0.603227 0.633321 0.829794 0.841405 0.846224 0.864249 0.808081 0.859661 0.806002 0.876706 0.794445 0.819327 0.70926 0.996813 0.797352 0.914683 0.868354 0.902328 0.877006 0.902659 0.878689 0.902659 0.877006 0.902328 0.868354 0.914683 0.797352 0.996813 0.70926 0.819327 0.794445 0.876706 0.806002 0.859661 0.808081 0.864249 0.846224 0.841405 0.829794 0.633321 0.603227 0.629175 0.608145 0.575541 0.575542 0.589874 0.614716 0.651029 0.727112 0.484543 0.444157 0.45392 0.404338 0.676426 0.798523 0.799175 0.626444 0.87185 0.491255 0.3455 0.449725 0.607096 0.597627 0.590442 0.58852 0.602524 0.624909 0.639749 0.658043 0.647676 0.528165 0.754333 0.860517 0.858453 0.876473 0.804904 0.959318 0.699679 0.915741 0.817849 0.894549 0.87314 0.895306 0.880227 0.895585 0.881348 0.895585 0.880227 0.895306 0.87314 0.894549 0.817849 0.915741 0.699679 0.959318 0.804904 0.876473 0.858453 0.860517 0.754333 0.528165 0.647676 0.658043 0.639749 0.624909 0.602524 0.58852 0.590442 0.597627 0.607096 0.449725 0.3455 0.491255 0.87185 0.626444 0.799175 0.762801 0.783223 0.662069 0.800288 0.509449 0.558397 0.898549 0.802637 0.680598 0.597872 0.604798 0.619119 0.635497 0.647294 0.655145 0.611954 0.823251 0.849296 0.817145 0.824705 0.824705 0.817145 0.849296 0.823251 0.611954 0.655145 0.647294 0.635497 0.619119 0.604798 0.597872 0.680598 0.802637 0.898549 0.558397 0.509449 0.800288 0.662069 0.783223 0.762801 0.517803 0.569073 0.791709 0.511958 0.841681 0.609618 0.65303 0.626808 0.609927 0.601359 0.641983 0.65821 0.627328 0.529733 0.851307 0.714928 0.848114 0.665143 0.806549 0.852808 0.816717 0.852252 0.785267 0.935403 0.698566 0.913284 0.83428 0.898219 0.87632 0.894724 0.882687 0.895617 0.883496 0.895617 0.882687 0.894724 0.87632 0.898218 0.83428 0.913284 0.698566 0.935403 0.785267 0.852252 0.816717 0.852808 0.806549 0.665143 0.848114 0.714928 0.851307 0.529733 0.627328 0.65821 0.641983 0.601359 0.609927 0.626808 0.65303 0.609618 0.841681 0.511958 0.791709 0.569073 0.517803 0.663446 0.561811 0.68012 0.736335 0.634861 0.618831 0.605192 0.609642 0.621441 0.632486 0.57311 0.802838 0.824754 0.754484 0.766057 0.806798 0.823206 0.936924 0.74579 0.912833 0.845535 0.893833 0.877007 0.893836 0.884539 0.895446 0.885349 0.895446 0.884539 0.893836 0.877007 0.893833 0.845535 0.912833 0.74579 0.936924 0.823206 0.806798 0.766057 0.754484 0.824754 0.802838 0.57311 0.632486 0.621441 0.609642 0.605192 0.618831 0.634861 0.736335 0.68012 0.561811 0.663446 0.703429 0.797658 0.834961 0.601806 0.671267 0.794478 0.615629 0.613145 0.720647 0.733474 0.640847 0.617879 0.616554 0.624188 0.63336 0.643844 0.666021 0.615038 0.870797 0.834021 0.822648 0.822648 0.834021 0.870797 0.615038 0.666021 0.643844 0.63336 0.624188 0.616554 0.617879 0.640847 0.733474 0.720647 0.613145 0.615629 0.794478 0.671267 0.601806 0.834961 0.797658 0.703429 0.728335 0.92825 0.788857 0.727359 0.679408 0.647429 0.711024 0.638488 0.651932 0.637288 0.633468 0.650355 0.678426 0.647427 0.697194 0.720525 0.801131 0.82578 0.820456 0.831466 0.815001 0.754782 0.768902 0.811331 0.841977 0.957 0.760909 0.916882 0.859707 0.896653 0.893582 0.895308 0.886296 0.895572 0.88685 0.895572 0.886296 0.895308 0.893582 0.896653 0.859707 0.916882 0.760909 0.957 0.841977 0.811331 0.768902 0.754782 0.815001 0.831466 0.820456 0.82578 0.801131 0.720525 0.697194 0.647427 0.678426 0.650355 0.633468 0.637288 0.651932 0.638488 0.711024 0.647429 0.679408 0.727359 0.788857 0.92825 0.728335 0.778902 0.696499 0.702942 0.659052 0.7251 0.722643 0.680061 0.677419 0.787852 0.815253 0.876868 0.921177 0.855061 0.915508 0.850533 0.907632 0.836427 0.907076 0.864244 0.906335 0.788416 0.896726 0.870251 0.893832 0.893832 0.893833 0.88792 0.894068 0.888262 0.894068 0.88792 0.893833 0.893832 0.893832 0.870251 0.896726 0.788416 0.906335 0.864244 0.907076 0.836427 0.907632 0.850533 0.915508 0.855061 0.921177 0.876868 0.815253 0.787852 0.677419 0.680061 0.722643 0.7251 0.659052 0.702942 0.696499 0.778902 0.723017 0.821008 0.685806 0.731064 0.751871 0.665962 0.717999 0.709126 0.672389 0.691237 0.631278 0.648577 0.648577 0.631278 0.691237 0.672389 0.709126 0.717999 0.665962 0.751871 0.731064 0.685806 0.821008 0.723017 0.776289 0.833037 0.765177 0.890662 0.725714 0.673897 0.737155 0.74646 0.665191 0.803484 0.814419 0.762983 0.771819 0.625976 0.671037 0.736237 0.773395 0.858689 0.959121 0.857571 0.982042 0.890543 0.95956 0.884101 0.946658 0.876463 0.936009 0.875393 0.916407 0.805989 0.90072 0.878786 0.894292 0.894052 0.894152 0.889422 0.894156 0.889386 0.894156 0.889422 0.894152 0.894052 0.894292 0.878786 0.90072 0.805989 0.916407 0.875393 0.936009 0.876463 0.946658 0.884101 0.95956 0.890543 0.982042 0.857571 0.959121 0.858689 0.773395 0.736237 0.671037 0.625976 0.771819 0.762983 0.814419 0.803484 0.665191 0.74646 0.737155 0.673897 0.725714 0.890662 0.765177 0.833037 0.776289 0.823593 0.900634 0.916982 0.794817 0.755514 0.730166 0.857218 0.844647 0.828466 0.889328 0.896568 0.881919 0.897079 0.898007 0.896819 0.890937 0.896329 0.884047 0.895917 0.873407 0.894909 0.82126 0.894006 0.887246 0.893832 0.893832 0.893832 0.890521 0.893839 0.89034 0.893839 0.890521 0.893832 0.893832 0.893832 0.887246 0.894006 0.82126 0.894909 0.873407 0.895917 0.884047 0.896329 0.890937 0.896819 0.898007 0.897079 0.881919 0.896568 0.889328 0.828466 0.844647 0.857218 0.730166 0.755514 0.794817 0.916982 0.900634 0.823593 0.904719 0.805995 0.801362 0.789222 0.918126 0.819429 0.795901 0.791101 0.791101 0.795901 0.819429 0.918126 0.789222 0.801362 0.805995 0.904719 0.848114 0.905538 0.897589 0.919558 0.846378 0.855715 0.889487 0.88695 0.88135 0.951286 0.831449 0.817895 0.787383 0.802325 0.888189 0.861874 0.85368 0.893511 0.901619 0.887884 0.90033 0.895428 0.898935 0.889117 0.897621 0.884926 0.896665 0.869891 0.895143 0.83477 0.894098 0.893136 0.893842 0.893838 0.893841 0.891375 0.893842 0.891093 0.893842 0.891375 0.893841 0.893838 0.893842 0.893136 0.894098 0.83477 0.895143 0.869891 0.896665 0.884926 0.897621 0.889117 0.898935 0.895428 0.90033 0.887884 0.901619 0.893511 0.85368 0.861874 0.888189 0.802325 0.787383 0.817895 0.831449 0.951286 0.88135 0.88695 0.889487 0.855715 0.846378 0.919558 0.897589 0.905538 0.848114 0.895612 0.892948 0.894056 0.893997 0.893889 0.893886 0.893887 0.893834 0.847057 0.893832 0.893806 0.893832 0.893832 0.893832 0.892036 0.893832 0.891687 0.893832 0.892036 0.893832 0.893832 0.893832 0.893806 0.893832 0.847057 0.893834 0.893887 0.893886 0.893889 0.893997 0.894056 0.892948 0.895612 0.878976 0.902336 0.899002 0.917296 0.850868 0.854694 0.890119 0.891696 0.891023 0.948444 0.850645 0.841853 0.813005 0.859262 0.886959 0.868752 0.890051 0.891885 0.887036 0.885059 0.867997 0.867997 0.885059 0.887036 0.891885 0.890051 0.868752 0.886959 0.859262 0.813005 0.841853 0.850645 0.948444 0.891023 0.891696 0.890119 0.854694 0.850868 0.917296 0.899002 0.902336 0.878976 0.89333 0.898175 0.898674 0.912268 0.857327 0.858014 0.884045 0.889798 0.893415 0.934165 0.857763 0.85145 0.828722 0.887251 0.88551 0.874288 0.895635 0.892682 0.894109 0.891322 0.89404 0.88908 0.893908 0.885955 0.893832 0.884927 0.893832 0.867544 0.893832 0.857646 0.893832 0.893832 0.893832 0.893832 0.893832 0.89254 0.893832 0.892153 0.893832 0.89254 0.893832 0.893832 0.893832 0.893832 0.893832 0.857646 0.893832 0.867544 0.893832 0.884927 0.893832 0.885955 0.893908 0.88908 0.89404 0.891322 0.894109 0.892682 0.895635 0.874288 0.88551 0.887251 0.828722 0.85145 0.857763 0.934165 0.893415 0.889798 0.884045 0.858014 0.857327 0.912268 0.898674 0.898175 0.89333 0.894914 0.895927 0.898376 0.906782 0.865067 0.861976 0.879169 0.888433 0.895254 0.920529 0.862891 0.858933 0.846328 0.891788 0.884997 0.879607 0.895483 0.892724 0.893832 0.89207 0.893832 0.887482 0.893832 0.885797 0.893832 0.884419 0.893832 0.868148 0.893832 0.866435 0.893832 0.893832 0.893832 0.893832 0.893832 0.892917 0.893832 0.892516 0.893832 0.892917 0.893832 0.893832 0.893832 0.893832 0.893832 0.866435 0.893832 0.868148 0.893832 0.884419 0.893832 0.885797 0.893832 0.887482 0.893832 0.89207 0.893832 0.892724 0.895483 0.879607 0.884997 0.891788 0.846328 0.858933 0.862891 0.920529 0.895254 0.888433 0.879169 0.861976 0.865067 0.906782 0.898376 0.895927 0.894914 0.893309 0.895025 0.898027 0.901333 0.872759 0.866276 0.876048 0.888004 0.897252 0.909397 0.867183 0.865442 0.860753 0.890816 0.885288 0.884354 0.895289 0.892949 0.893832 0.892386 0.893832 0.886849 0.893832 0.886077 0.893832 0.883726 0.893832 0.869458 0.893832 0.873523 0.893832 0.893832 0.893832 0.893832 0.893832 0.893193 0.893832 0.8928 0.893832 0.893193 0.893832 0.893832 0.893832 0.893832 0.893832 0.873523 0.893832 0.869458 0.893832 0.883726 0.893832 0.886077 0.893832 0.886849 0.893832 0.892386 0.893832 0.892949 0.895289 0.884354 0.885288 0.890816 0.860753 0.865442 0.867183 0.909397 0.897252 0.888004 0.876048 0.866276 0.872759 0.901333 0.898027 0.895025 0.893309 0.891845 0.89494 0.897652 0.896606 0.879696 0.870674 0.874499 0.888026 0.898739 0.900647 0.870821 0.87122 0.871724 0.889847 0.886047 0.888153 0.895061 0.893189 0.893832 0.892396 0.893832 0.886782 0.893832 0.886398 0.893832 0.883165 0.893832 0.871174 0.893832 0.879086 0.893832 0.893832 0.893832 0.893832 0.893832 0.893394 0.893832 0.893021 0.893832 0.893394 0.893832 0.893832 0.893832 0.893832 0.893832 0.879086 0.893832 0.871174 0.893832 0.883165 0.893832 0.886398 0.893832 0.886782 0.893832 0.892396 0.893832 0.893189 0.895061 0.888153 0.886047 0.889847 0.871724 0.87122 0.870821 0.900647 0.898739 0.888026 0.874499 0.870674 0.879696 0.896606 0.897652 0.89494 0.891845 0.890967 0.895153 0.89725 0.892987 0.885261 0.875056 0.874186 0.888301 0.89961 0.893817 0.873793 0.876036 0.879524 0.889349 0.886914 0.890863 0.894808 0.89336 0.893832 0.892219 0.893832 0.887002 0.893832 0.886615 0.893832 0.882902 0.893832 0.873132 0.893832 0.883342 0.893832 0.893832 0.893832 0.893832 0.893832 0.893538 0.893832 0.893194 0.893832 0.893538 0.893832 0.893832 0.893832 0.893832 0.893832 0.883342 0.893832 0.873132 0.893832 0.882902 0.893832 0.886615 0.893832 0.887002 0.893832 0.892219 0.893832 0.89336 0.894808 0.890863 0.886914 0.889349 0.879524 0.876036 0.873793 0.893817 0.89961 0.888301 0.874186 0.875056 0.885261 0.892987 0.89725 0.895153 0.890967 0.890528 0.895487 0.896829 0.890493 0.889344 0.879134 0.874763 0.888766 0.900005 0.888535 0.876129 0.879713 0.884694 0.889106 0.887664 0.892572 0.894545 0.893446 0.893832 0.891947 0.893832 0.88734 0.893832 0.886747 0.893832 0.882939 0.893832 0.875252 0.893832 0.886521 0.893832 0.893832 0.893832 0.893832 0.893832 0.893639 0.893832 0.89333 0.893832 0.893639 0.893832 0.893832 0.893832 0.893832 0.893832 0.886521 0.893832 0.875252 0.893832 0.882939 0.893832 0.886747 0.893832 0.88734 0.893832 0.891947 0.893832 0.893446 0.894545 0.892572 0.887664 0.889106 0.884694 0.879713 0.876129 0.888535 0.900005 0.888766 0.874763 0.879134 0.889344 0.890493 0.896829 0.895487 0.890528 0.890345 0.895732 0.896397 0.88893 0.892155 0.882679 0.875919 0.889258 0.899681 0.884601 0.877865 0.882349 0.88767 0.888982 0.888249 0.893508 0.894282 0.893463 0.893832 0.891643 0.893832 0.887699 0.893832 0.886849 0.893832 0.883217 0.893832 0.877458 0.893832 0.888843 0.893832 0.893832 0.893832 0.893832 0.893832 0.893709 0.893832 0.893437 0.893832 0.893709 0.893832 0.893832 0.893832 0.893832 0.893832 0.888843 0.893832 0.877458 0.893832 0.883217 0.893832 0.886849 0.893832 0.887699 0.893832 0.891643 0.893832 0.893463 0.894282 0.893508 0.888249 0.888982 0.88767 0.882349 0.877865 0.884601 0.899681 0.889258 0.875919 0.882679 0.892155 0.88893 0.896397 0.895732 0.890345 0.8903 0.895716 0.89596 0.888064 0.893806 0.885633 0.877401 0.889633 0.898632 0.881818 0.879098 0.884138 0.888887 0.888904 0.888689 0.893888 0.89403 0.893428 0.893832 0.891353 0.893832 0.888033 0.893832 0.886966 0.893832 0.88367 0.893832 0.879659 0.893832 0.890502 0.893832 0.893832 0.893832 0.893832 0.893832 0.893756 0.893832 0.893521 0.893832 0.893756 0.893832 0.893832 0.893832 0.893832 0.893832 0.890502 0.893832 0.879659 0.893832 0.88367 0.893832 0.886966 0.893832 0.888033 0.893832 0.891353 0.893832 0.893428 0.89403 0.893888 0.888689 0.888904 0.888887 0.884138 0.879098 0.881818 0.898632 0.889633 0.877401 0.885633 0.893806 0.888064 0.89596 0.895716 0.8903 0.890328 0.895465 0.895526 0.887706 0.894503 0.888006 0.879031 0.889848 0.897178 0.87997 0.879972 0.88526 0.888988 0.888847 0.889017 0.893886 0.893799 0.893352 0.893832 0.891105 0.893832 0.888333 0.893832 0.887121 0.893832 0.884246 0.893832 0.881774 0.893832 0.891661 0.893832 0.893832 0.893832 0.893832 0.893832 0.893787 0.893832 0.893587 0.893832 0.893787 0.893832 0.893832 0.893832 0.893832 0.893832 0.891661 0.893832 0.881774 0.893832 0.884246 0.893832 0.887121 0.893832 0.888333 0.893832 0.891105 0.893832 0.893352 0.893799 0.893886 0.889017 0.888847 0.888988 0.88526 0.879972 0.87997 0.897178 0.889848 0.879031 0.888006 0.894503 0.887706 0.895526 0.895465 0.890328 0.890394 0.895093 0.895102 0.887697 0.894613 0.889825 0.880683 0.889915 0.895626 0.878877 0.880623 0.885859 0.888613 0.888818 0.889275 0.893668 0.893595 0.89325 0.893832 0.890914 0.893832 0.888607 0.893832 0.887323 0.893832 0.884904 0.893832 0.883739 0.893832 0.892452 0.893832 0.893832 0.893832 0.893832 0.893832 0.893806 0.893832 0.893639 0.893832 0.893806 0.893832 0.893832 0.893832 0.893832 0.893832 0.892452 0.893832 0.883739 0.893832 0.884904 0.893832 0.887323 0.893832 0.888607 0.893832 0.890914 0.893832 0.89325 0.893595 0.893668 0.889275 0.888818 0.888613 0.885859 0.880623 0.878877 0.895626 0.889915 0.880683 0.889825 0.894613 0.887697 0.895102 0.895093 0.890394 0.890482 0.894691 0.894695 0.887903 0.89446 0.891152 0.882261 0.889858 0.894139 0.878398 0.881152 0.886093 0.888172 0.888829 0.889504 0.893368 0.893425 0.893134 0.893832 0.890787 0.893832 0.888866 0.893832 0.887577 0.893832 0.885616 0.893832 0.885514 0.893832 0.892978 0.893832 0.893832 0.893832 0.893832 0.893832 0.893818 0.893832 0.89368 0.893832 0.893818 0.893832 0.893832 0.893832 0.893832 0.893832 0.892978 0.893832 0.885514 0.893832 0.885616 0.893832 0.887577 0.893832 0.888866 0.893832 0.890787 0.893832 0.893134 0.893425 0.893368 0.889504 0.888829 0.888172 0.886093 0.881152 0.878398 0.894139 0.889858 0.882261 0.891152 0.89446 0.887903 0.894695 0.894691 0.890482 0.89059 0.8943 0.894308 0.888221 0.894224 0.892075 0.883698 0.889706 0.892785 0.87841 0.881623 0.886147 0.887842 0.888889 0.889731 0.893068 0.893292 0.893016 0.893832 0.890723 0.893832 0.889119 0.893832 0.887879 0.893832 0.886354 0.893832 0.887077 0.893832 0.893318 0.893832 0.893832 0.893832 0.893832 0.893832 0.893825 0.893832 0.893712 0.893832 0.893825 0.893832 0.893832 0.893832 0.893832 0.893832 0.893318 0.893832 0.887077 0.893832 0.886354 0.893832 0.887879 0.893832 0.889119 0.893832 0.890723 0.893832 0.893016 0.893292 0.893068 0.889731 0.888889 0.887842 0.886147 0.881623 0.87841 0.892785 0.889706 0.883698 0.892075 0.894224 0.888221 0.894308 0.8943 0.89059 0.890712 0.893933 0.893947 0.888585 0.893979 0.892683 0.884963 0.89159 0.882083 0.886181 0.887672 0.889 0.889964 0.892805 0.893194 0.892903 0.893832 0.890717 0.893832 0.889374 0.893832 0.888222 0.893832 0.887098 0.893832 0.888423 0.893832 0.893533 0.893832 0.893832 0.893832 0.893832 0.893832 0.893829 0.893832 0.893738 0.893832 0.893829 0.893832 0.893832 0.893832 0.893832 0.893832 0.893533 0.893832 0.888423 0.893832 0.887098 0.893832 0.888222 0.893832 0.889374 0.893832 0.890717 0.893832 0.892903 0.893194 0.892805 0.889964 0.889 0.887672 0.886181 0.882083 0.89159 0.884963 0.892683 0.893979 0.888585 0.893947 0.893933 0.890712 0.889497 0.878793 0.878793 0.889497 0.890845 0.893598 0.893615 0.888954 0.893746 0.893048 0.886052 0.889269 0.890564 0.879434 0.882573 0.886286 0.887659 0.88916 0.890207 0.892591 0.893132 0.892801 0.893832 0.890761 0.893832 0.889632 0.893832 0.888595 0.893832 0.887828 0.893832 0.889561 0.893832 0.893664 0.893832 0.893832 0.893832 0.893832 0.893832 0.893831 0.893832 0.893758 0.893832 0.893831 0.893832 0.893832 0.893832 0.893832 0.893832 0.893664 0.893832 0.889561 0.893832 0.887828 0.893832 0.888595 0.893832 0.889632 0.893832 0.890761 0.893832 0.892801 0.893132 0.892591 0.890207 0.88916 0.887659 0.886286 0.882573 0.879434 0.890564 0.889269 0.886052 0.893048 0.893746 0.888954 0.893615 0.893598 0.890845 0.890981 0.893293 0.893313 0.889311 0.893532 0.893231 0.886973 0.889052 0.88971 0.88024 0.88312 0.886491 0.887781 0.889362 0.89046 0.892427 0.893101 0.892713 0.893832 0.890846 0.893832 0.889895 0.893832 0.888987 0.893832 0.888529 0.893832 0.890504 0.893832 0.893741 0.893832 0.893832 0.893832 0.893832 0.893832 0.893832 0.893832 0.893774 0.893832 0.893832 0.893832 0.893832 0.893832 0.893832 0.893832 0.893741 0.893832 0.890504 0.893832 0.888529 0.893832 0.888987 0.893832 0.889895 0.893832 0.890846 0.893832 0.892713 0.893101 0.892427 0.89046 0.889362 0.887781 0.886491 0.88312 0.88024 0.88971 0.889052 0.886973 0.893231 0.893532 0.889311 0.893313 0.893293 0.890981 0.891115 0.89302 0.893042 0.889647 0.893339 0.89328 0.887743 0.88887 0.889025 0.881136 0.883729 0.886787 0.888011 0.889595 0.89072 0.89231 0.893098 0.892641 0.893832 0.890963 0.893832 0.89016 0.893832 0.889387 0.893832 0.889192 0.893832 0.891272 0.893832 0.893785 0.893832 0.893832 0.893832 0.893832 0.893832 0.893832 0.893832 0.893786 0.893832 0.893832 0.893832 0.893832 0.893832 0.893832 0.893832 0.893785 0.893832 0.891272 0.893832 0.889192 0.893832 0.889387 0.893832 0.89016 0.893832 0.890963 0.893832 0.892641 0.893098 0.89231 0.89072 0.889595 0.888011 0.886787 0.883729 0.881136 0.889025 0.88887 0.887743 0.89328 0.893339 0.889647 0.893042 0.89302 0.891115 0.89124 0.892778 0.892801 0.889961 0.893167 0.893238 0.888381 0.888735 0.888501 0.882067 0.884385 0.887153 0.888322 0.88985 0.890983 0.892234 0.893117 0.892586 0.893832 0.891103 0.893832 0.890426 0.893832 0.889787 0.893832 0.889807 0.893832 0.891888 0.893832 0.893809 0.893832 0.893832 0.893832 0.893832 0.893832 0.893832 0.893832 0.893796 0.893832 0.893832 0.893832 0.893832 0.893832 0.893832 0.893832 0.893809 0.893832 0.891888 0.893832 0.889807 0.893832 0.889787 0.893832 0.890426 0.893832 0.891103 0.893832 0.892586 0.893117 0.892234 0.890983 0.88985 0.888322 0.887153 0.884385 0.882067 0.888501 0.888735 0.888381 0.893238 0.893167 0.889961 0.892801 0.892778 0.89124 0.891351 0.892565 0.892591 0.890253 0.893016 0.893136 0.888906 0.888654 0.888127 0.882993 0.885068 0.887562 0.888688 0.890115 0.891244 0.892193 0.893153 0.892548 0.893832 0.891258 0.893832 0.890688 0.893832 0.890177 0.893832 0.890371 0.893832 0.892374 0.893832 0.893822 0.893832 0.893832 0.893832 0.893832 0.893832 0.893832 0.893832 0.893804 0.893832 0.893832 0.893832 0.893832 0.893832 0.893832 0.893832 0.893822 0.893832 0.892374 0.893832 0.890371 0.893832 0.890177 0.893832 0.890688 0.893832 0.891258 0.893832 0.892548 0.893153 0.892193 0.891244 0.890115 0.888688 0.887562 0.885068 0.882993 0.888127 0.888654 0.888906 0.893136 0.893016 0.890253 0.892591 0.892565 0.891351 0.891445 0.892378 0.892409 0.890523 0.892885 0.893001 0.889338 0.888624 0.887888 0.883887 0.885755 0.887992 0.889085 0.89038 0.891498 0.892182 0.893202 0.892526 0.893832 0.891423 0.893832 0.890946 0.893832 0.890551 0.893832 0.89088 0.893832 0.892752 0.893832 0.893828 0.893832 0.893832 0.893832 0.893832 0.893832 0.893832 0.893832 0.89381 0.893832 0.893832 0.893832 0.893832 0.893832 0.893832 0.893832 0.893828 0.893832 0.892752 0.893832 0.89088 0.893832 0.890551 0.893832 0.890946 0.893832 0.891423 0.893832 0.892526 0.893202 0.892182 0.891498 0.89038 0.889085 0.887992 0.885755 0.883887 0.887888 0.888624 0.889338 0.893001 0.892885 0.890523 0.892409 0.892378 0.891445 0.891521 0.892216 0.892252 0.89077 0.892775 0.892851 0.889692 0.888639 0.887767 0.884729 0.886427 0.888426 0.889494 0.890639 0.891741 0.892194 0.89326 0.892518 0.893832 0.891591 0.893832 0.891195 0.893832 0.890906 0.893832 0.891335 0.893832 0.893042 0.893832 0.89383 0.893832 0.893832 0.893832 0.893832 0.893832 0.893832 0.893832 0.893815 0.893832 0.893832 0.893832 0.893832 0.893832 0.893832 0.893832 0.89383 0.893832 0.893042 0.893832 0.891335 0.893832 0.890906 0.893832 0.891195 0.893832 0.891591 0.893832 0.892518 0.89326 0.892194 0.891741 0.890639 0.889494 0.888426 0.886427 0.884729 0.887767 0.888639 0.889692 0.892851 0.892775 0.89077 0.892252 0.892216 0.891521 0.891578 0.892076 0.89212 0.890993 0.892683 0.892698 0.889982 0.888692 0.887747 0.885507 0.88707 0.888849 0.8899 0.890885 0.89197 0.892223 0.893321 0.892524 0.893832 0.891758 0.893832 0.891434 0.893832 0.891237 0.893832 0.891737 0.893832 0.893261 0.893832 0.893832 0.893832 0.893832 0.893832 0.893832 0.893832 0.893832 0.893832 0.893819 0.893832 0.893832 0.893832 0.893832 0.893832 0.893832 0.893832 0.893832 0.893832 0.893261 0.893832 0.891737 0.893832 0.891237 0.893832 0.891434 0.893832 0.891758 0.893832 0.892524 0.893321 0.892223 0.89197 0.890885 0.8899 0.888849 0.88707 0.885507 0.887747 0.888692 0.889982 0.892698 0.892683 0.890993 0.89212 0.892076 0.891578 0.891618 0.891956 0.89201 0.891193 0.892608 0.89255 0.89022 0.888773 0.887809 0.886217 0.887674 0.88925 0.890292 0.891116 0.892183 0.892266 0.893384 0.89254 0.893832 0.891922 0.893832 0.891661 0.893832 0.891543 0.893832 0.892087 0.893832 0.893424 0.893832 0.893832 0.893832 0.893832 0.893832 0.893832 0.893832 0.893832 0.893832 0.893822 0.893832 0.893832 0.893832 0.893832 0.893832 0.893832 0.893832 0.893832 0.893832 0.893424 0.893832 0.892087 0.893832 0.891543 0.893832 0.891661 0.893832 0.891922 0.893832 0.89254 0.893384 0.892266 0.892183 0.891116 0.890292 0.88925 0.887674 0.886217 0.887809 0.888773 0.89022 0.89255 0.892608 0.891193 0.89201 0.891956 0.891618 0.891644 0.891854 0.891918 0.89137 0.892548 0.892412 0.890414 0.888875 0.887937 0.886855 0.888232 0.889624 0.890662 0.891329 0.89238 0.892317 0.893445 0.892565 0.893832 0.892078 0.893832 0.891874 0.893832 0.891822 0.893832 0.89239 0.893832 0.893544 0.893832 0.893832 0.893832 0.893832 0.893832 0.893832 0.893832 0.893832 0.893832 0.893824 0.893832 0.893832 0.893832 0.893832 0.893832 0.893832 0.893832 0.893832 0.893832 0.893544 0.893832 0.89239 0.893832 0.891822 0.893832 0.891874 0.893832 0.892078 0.893832 0.892565 0.893445 0.892317 0.89238 0.891329 0.890662 0.889624 0.888232 0.886855 0.887937 0.888875 0.890414 0.892412 0.892548 0.89137 0.891918 0.891854 0.891644 0.891658 0.891766 0.891843 0.891524 0.892503 0.892286 0.890572 0.88899 0.888114 0.887423 0.888741 0.889967 0.891005 0.891523 0.89256 0.892372 0.893503 0.892596 0.893832 0.892227 0.893832 0.892073 0.893832 0.892075 0.893832 0.892648 0.893832 0.893631 0.893832 0.893832 0.893832 0.893832 0.893832 0.893832 0.893832 0.893832 0.893832 0.893826 0.893832 0.893832 0.893832 0.893832 0.893832 0.893832 0.893832 0.893832 0.893832 0.893631 0.893832 0.892648 0.893832 0.892075 0.893832 0.892073 0.893832 0.892227 0.893832 0.892596 0.893503 0.892372 0.89256 0.891523 0.891005 0.889967 0.888741 0.887423 0.888114 0.88899 0.890572 0.892286 0.892503 0.891524 0.891843 0.891766 0.891658 0.891662 0.891692 0.891782 0.891657 0.892469 0.892172 0.890698 0.88911 0.888325 0.887924 0.889199 0.890276 0.891317 0.891698 0.892723 0.89243 0.893557 0.892633 0.893832 0.892365 0.893832 0.892256 0.893832 0.892302 0.893832 0.892867 0.893832 0.893694 0.893832 0.893832 0.893832 0.893832 0.893832 0.893832 0.893832 0.893832 0.893832 0.893827 0.893832 0.893832 0.893832 0.893832 0.893832 0.893832 0.893832 0.893832 0.893832 0.893694 0.893832 0.892867 0.893832 0.892302 0.893832 0.892256 0.893832 0.892365 0.893832 0.892633 0.893557 0.89243 0.892723 0.891698 0.891317 0.890276 0.889199 0.887924 0.888325 0.88911 0.890698 0.892172 0.892469 0.891657 0.891782 0.891692 0.891662 0.891661 0.89163 0.891733 0.891771 0.892445 0.892071 0.890798 0.889231 0.888556 0.888362 0.889608 0.890552 0.891599 0.891855 0.89287 0.892487 0.893604 0.892672 0.893832 0.892493 0.893832 0.892423 0.893832 0.892504 0.893832 0.89305 0.893832 0.893738 0.893832 0.893832 0.893832 0.893832 0.893832 0.893832 0.893832 0.893832 0.893832 0.893828 0.893832 0.893832 0.893832 0.893832 0.893832 0.893832 0.893832 0.893832 0.893832 0.893738 0.893832 0.89305 0.893832 0.892504 0.893832 0.892423 0.893832 0.892493 0.893832 0.892672 0.893604 0.892487 0.89287 0.891855 0.891599 0.890552 0.889608 0.888362 0.888556 0.889231 0.890798 0.892071 0.892445 0.891771 0.891733 0.89163 0.891661 0.891655 0.891578 0.891694 0.891866 0.89243 0.891981 0.890875 0.889349 0.888796 0.888743 0.88997 0.890795 0.891849 0.891994 0.893 0.892542 0.893646 0.892713 0.893832 0.89261 0.893832 0.892574 0.893832 0.892682 0.893832 0.893202 0.893832 0.893769 0.893832 0.893832 0.893832 0.893832 0.893832 0.893832 0.893832 0.893832 0.893832 0.893829 0.893832 0.893832 0.893832 0.893832 0.893832 0.893832 0.893832 0.893832 0.893832 0.893769 0.893832 0.893202 0.893832 0.892682 0.893832 0.892574 0.893832 0.89261 0.893832 0.892713 0.893646 0.892542 0.893 0.891994 0.891849 0.890795 0.88997 0.888743 0.888796 0.889349 0.890875 0.891981 0.89243 0.891866 0.891694 0.891578 0.891655 0.891664 0.891945 0.892421 0.891902 0.890934 0.889462 0.889036 0.88907 0.890285 0.891007 0.892069 0.892116 0.893116 0.892594 0.893682 0.892754 0.893832 0.892715 0.893832 0.892708 0.893832 0.892836 0.893832 0.893327 0.893832 0.89379 0.893832 0.893832 0.893832 0.893832 0.893832 0.893832 0.893832 0.893832 0.893832 0.89383 0.893832 0.893832 0.893832 0.893832 0.893832 0.893832 0.893832 0.893832 0.893832 0.89379 0.893832 0.893327 0.893832 0.892836 0.893832 0.892708 0.893832 0.892715 0.893832 0.892754 0.893682 0.892594 0.893116 0.892116 0.892069 0.891007 0.890285 0.88907 0.889036 0.889462 0.890934 0.891902 0.892421 0.891945 0.891664 0.891647 0.891534 0.891534 0.891647 0.891638 0.891498 0.891641 0.892011 0.892417 0.891834 0.890976 0.889566 0.889265 0.88935 0.890558 0.891189 0.89226 0.892222 0.893216 0.892641 0.893712 0.892793 0.893832 0.892808 0.893832 0.892827 0.893832 0.89297 0.893832 0.893428 0.893832 0.893804 0.893832 0.893832 0.893832 0.893832 0.893832 0.893832 0.893832 0.893832 0.893832 0.89383 0.893832 0.893832 0.893832 0.893832 0.893832 0.893832 0.893832 0.893832 0.893832 0.893804 0.893832 0.893428 0.893832 0.89297 0.893832 0.892827 0.893832 0.892808 0.893832 0.892793 0.893712 0.892641 0.893216 0.892222 0.89226 0.891189 0.890558 0.88935 0.889265 0.889566 0.890976 0.891834 0.892417 0.892011 0.891641 0.891498 0.891638 0.89163 0.891468 0.891623 0.892064 0.892417 0.891776 0.891006 0.88966 0.889478 0.889585 0.890791 0.891345 0.892423 0.892313 0.893302 0.892682 0.893737 0.89283 0.893832 0.892889 0.893832 0.892929 0.893832 0.893083 0.893832 0.893509 0.893832 0.893814 0.893832 0.893832 0.893832 0.893832 0.893832 0.893832 0.893832 0.893832 0.893832 0.893831 0.893832 0.893832 0.893832 0.893832 0.893832 0.893832 0.893832 0.893832 0.893832 0.893814 0.893832 0.893509 0.893832 0.893083 0.893832 0.892929 0.893832 0.892889 0.893832 0.89283 0.893737 0.892682 0.893302 0.892313 0.892423 0.891345 0.890791 0.889585 0.889478 0.88966 0.891006 0.891776 0.892417 0.892064 0.891623 0.891468 0.89163 0.891622 0.891443 0.89161 0.892106 0.892419 0.891727 0.891027 0.889742 0.889669 0.889779 0.890986 0.891474 0.89256 0.89239 0.893375 0.892719 0.893758 0.892863 0.893832 0.892959 0.893832 0.893016 0.893832 0.893177 0.893832 0.893574 0.893832 0.893821 0.893832 0.893832 0.893832 0.893832 0.893832 0.893832 0.893832 0.893832 0.893832 0.893831 0.893832 0.893832 0.893832 0.893832 0.893832 0.893832 0.893832 0.893832 0.893832 0.893821 0.893832 0.893574 0.893832 0.893177 0.893832 0.893016 0.893832 0.892959 0.893832 0.892863 0.893758 0.892719 0.893375 0.89239 0.89256 0.891474 0.890986 0.889779 0.889669 0.889742 0.891027 0.891727 0.892419 0.892106 0.89161 0.891443 0.891622 0.891615 0.891424 0.8916 0.892139 0.892423 0.891687 0.89104 0.889813 0.889834 0.889937 0.891145 0.89158 0.892672 0.892453 0.893434 0.892749 0.893773 0.892892 0.893832 0.893016 0.893832 0.893088 0.893832 0.893254 0.893832 0.893623 0.893832 0.893825 0.893832 0.893832 0.893832 0.893832 0.893832 0.893832 0.893832 0.893832 0.893832 0.893831 0.893832 0.893832 0.893832 0.893832 0.893832 0.893832 0.893832 0.893832 0.893832 0.893825 0.893832 0.893623 0.893832 0.893254 0.893832 0.893088 0.893832 0.893016 0.893832 0.892892 0.893773 0.892749 0.893434 0.892453 0.892672 0.89158 0.891145 0.889937 0.889834 0.889813 0.89104 0.891687 0.892423 0.892139 0.8916 0.891424 0.891615 0.891609 0.891409 0.891593 0.892164 0.892427 0.891656 0.891048 0.88987 0.88997 0.89006 0.89127 0.891663 0.89276 0.892502 0.893481 0.892774 0.893785 0.892916 0.893832 0.893062 0.893832 0.893145 0.893832 0.893314 0.893832 0.893661 0.893832 0.893828 0.893832 0.893832 0.893832 0.893832 0.893832 0.893832 0.893832 0.893832 0.893832 0.893831 0.893832 0.893832 0.893832 0.893832 0.893832 0.893832 0.893832 0.893832 0.893832 0.893828 0.893832 0.893661 0.893832 0.893314 0.893832 0.893145 0.893832 0.893062 0.893832 0.892916 0.893785 0.892774 0.893481 0.892502 0.89276 0.891663 0.89127 0.89006 0.88997 0.88987 0.891048 0.891656 0.892427 0.892164 0.891593 0.891409 0.891609 0.891605 0.891398 0.891588 0.892182 0.892431 0.891633 0.891052 0.889913 0.890073 0.890151 0.891362 0.891724 0.892825 0.892539 0.893516 0.892792 0.893794 0.892934 0.893832 0.893097 0.893832 0.893187 0.893832 0.893358 0.893832 0.893687 0.893832 0.893829 0.893832 0.893832 0.893832 0.893832 0.893832 0.893832 0.893832 0.893832 0.893832 0.893832 0.893832 0.893832 0.893832 0.893832 0.893832 0.893832 0.893832 0.893832 0.893832 0.893829 0.893832 0.893687 0.893832 0.893358 0.893832 0.893187 0.893832 0.893097 0.893832 0.892934 0.893794 0.892792 0.893516 0.892539 0.892825 0.891724 0.891362 0.890151 0.890073 0.889913 0.891052 0.891633 0.892431 0.892182 0.891588 0.891398 0.891605 0.891602 0.891391 0.891585 0.892194 0.892433 0.891618 0.891054 0.889943 0.890143 0.89021 0.891423 0.891764 0.892869 0.892564 0.893539 0.892804 0.8938 0.892947 0.893832 0.89312 0.893832 0.893215 0.893832 0.893387 0.893832 0.893704 0.893832 0.89383 0.893832 0.893832 0.893832 0.893832 0.893832 0.893832 0.893832 0.893832 0.893832 0.893832 0.893832 0.893832 0.893832 0.893832 0.893832 0.893832 0.893832 0.893832 0.893832 0.89383 0.893832 0.893704 0.893832 0.893387 0.893832 0.893215 0.893832 0.89312 0.893832 0.892947 0.8938 0.892804 0.893539 0.892564 0.892869 0.891764 0.891423 0.89021 0.890143 0.889943 0.891054 0.891618 0.892433 0.892194 0.891585 0.891391 0.891602 0.891601 0.891388 0.891584 0.8922 0.892435 0.89161 0.891055 0.889957 0.890178 0.89024 0.891454 0.891784 0.89289 0.892576 0.89355 0.89281 0.893802 0.892953 0.893832 0.893131 0.893832 0.893229 0.893832 0.893402 0.893832 0.893712 0.893832 0.893831 0.893832 0.893832 0.893832 0.893832 0.893832 0.893832 0.893832 0.893832 0.893832 0.893832 0.893832 0.893832 0.893832 0.893832 0.893832 0.893832 0.893832 0.893832 0.893832 0.893831 0.893832 0.893712 0.893832 0.893402 0.893832 0.893229 0.893832 0.893131 0.893832 0.892953 0.893802 0.89281 0.89355 0.892576 0.89289 0.891784 0.891454 0.89024 0.890178 0.889957 0.891055 0.89161 0.892435 0.8922 0.891584 0.891388 0.891601 
SCALARS Axial_Stress float 1
LOOKUP_TABLE default
-47983800000.0 -47983800000.0 -1.35379e+12 -1.25782e+12 -1.2957e+12 -157605000000.0 -120775000000.0 -120775000000.0 -157605000000.0 -1.2957e+12 -1.25782e+12 -1.35379e+12 -1.44088e+12 -2.2722e+12 -1.10098e+12 -255290000000.0 -232933000000.0 -112651000000.0 -137214000000.0 -116012000000.0 -44803600000.0 -63660800000.0 -30122300000.0 -38685200000.0 -31979600000.0 -36373500000.0 -31922700000.0 -36022200000.0 -31651000000.0 -36022200000.0 -31922700000.0 -36373500000.0 -31979600000.0 -38685200000.0 -30122300000.0 -63660800000.0 -44803600000.0 -116012000000.0 -137214000000.0 -112651000000.0 -232933000000.0 -255290000000.0 -1.10098e+12 -2.2722e+12 -1.44088e+12 -1.53358e+12 -2.37742e+12 -1.39483e+12 -1.3597e+12 -302102000000.0 -171784000000.0 -212766000000.0 -212766000000.0 -171784000000.0 -302102000000.0 -1.3597e+12 -1.39483e+12 -2.37742e+12 -1.53358e+12 -1.61671e+12 -2.66357e+12 -2.5199e+12 -2.01538e+12 -1.71008e+12 -1.62432e+12 -1.26526e+12 -1.13658e+12 -773979000000.0 -258568000000.0 -221272000000.0 -112011000000.0 -176282000000.0 -82228500000.0 -96726300000.0 -70472300000.0 -77591600000.0 -62848200000.0 -73070000000.0 -60950300000.0 -73070000000.0 -62848200000.0 -77591600000.0 -70472300000.0 -96726300000.0 -82228500000.0 -176282000000.0 -112011000000.0 -221272000000.0 -258568000000.0 -773979000000.0 -1.13658e+12 -1.26526e+12 -1.62432e+12 -1.71008e+12 -2.01538e+12 -2.5199e+12 -2.66357e+12 -1.61671e+12 -1.73644e+12 -1.68366e+12 -2.79248e+12 -2.42841e+12 -2.24609e+12 -1.9922e+12 -1.59234e+12 -925379000000.0 -457672000000.0 -317919000000.0 -211825000000.0 -200992000000.0 -107343000000.0 -218680000000.0 -95398600000.0 -129383000000.0 -95998200000.0 -114431000000.0 -96869400000.0 -115485000000.0 -98095700000.0 -115485000000.0 -96869400000.0 -114431000000.0 -95998200000.0 -129383000000.0 -95398600000.0 -218680000000.0 -107343000000.0 -200992000000.0 -211825000000.0 -317919000000.0 -457672000000.0 -925379000000.0 -1.59234e+12 -1.9922e+12 -2.24609e+12 -2.42841e+12 -2.79248e+12 -1.68366e+12 -1.73644e+12 -1.77491e+12 -2.90355e+12 -2.58043e+12 -2.19446e+12 -1.74445e+12 -1.51334e+12 -796091000000.0 -418339000000.0 -152708000000.0 -152708000000.0 -418339000000.0 -796091000000.0 -1.51334e+12 -1.74445e+12 -2.19446e+12 -2.58043e+12 -2.90355e+12 -1.77491e+12 -1.80201e+12 -2.99438e+12 -2.80518e+12 -2.70491e+12 -2.53366e+12 -2.3796e+12 -1.95862e+12 -1.6135e+12 -1.50489e+12 -1.43325e+12 -1.27683e+12 -732088000000.0 -226301000000.0 -81724800000.0 -230017000000.0 -76027800000.0 -125263000000.0 -80016800000.0 -105962000000.0 -82916300000.0 -106842000000.0 -84261100000.0 -106842000000.0 -82916300000.0 -105962000000.0 -80016800000.0 -125263000000.0 -76027800000.0 -230017000000.0 -81724800000.0 -226301000000.0 -732088000000.0 -1.27683e+12 -1.43325e+12 -1.50489e+12 -1.6135e+12 -1.95862e+12 -2.3796e+12 -2.53366e+12 -2.70491e+12 -2.80518e+12 -2.99438e+12 -1.80201e+12 -1.81757e+12 -3.12728e+12 -3.07008e+12 -2.89077e+12 -2.65057e+12 -2.36283e+12 -2.1627e+12 -1.74845e+12 -1.58918e+12 -1.38386e+12 -1.22008e+12 -9035870000.0 -207285000000.0 -113408000000.0 -52252600000.0 -236737000000.0 -52123800000.0 -123174000000.0 -62246800000.0 -98727000000.0 -70106600000.0 -101080000000.0 -72558800000.0 -101080000000.0 -70106600000.0 -98727000000.0 -62246800000.0 -123174000000.0 -52123800000.0 -236737000000.0 -52252600000.0 -113408000000.0 -207285000000.0 -9035870000.0 -1.22008e+12 -1.38386e+12 -1.58918e+12 -1.74845e+12 -2.1627e+12 -2.36283e+12 -2.65057e+12 -2.89077e+12 -3.07008e+12 -3.12728e+12 -1.81757e+12 -1.80065e+12 -1.81817e+12 -3.16561e+12 -2.95351e+12 -2.73389e+12 -2.50992e+12 -2.37226e+12 -2.14096e+12 -1.92824e+12 -1.70202e+12 -1.44902e+12 -1.21529e+12 -1.07739e+12 -112669000000.0 -112669000000.0 -1.07739e+12 -1.21529e+12 -1.44902e+12 -1.70202e+12 -1.92824e+12 -2.14096e+12 -2.37226e+12 -2.50992e+12 -2.73389e+12 -2.95351e+12 -3.16561e+12 -1.81817e+12 -1.80065e+12 -1.76938e+12 -3.18068e+12 -2.99878e+12 -2.83719e+12 -2.7892e+12 -2.64806e+12 -2.6033e+12 -2.49544e+12 -1.86711e+12 -1.51159e+12 -1.26707e+12 -1.24548e+12 -1.08423e+12 -1.01647e+12 -848735000000.0 -642187000000.0 -189311000000.0 -336151000000.0 -138638000000.0 -222493000000.0 -136705000000.0 -172652000000.0 -132976000000.0 -167425000000.0 -134005000000.0 -167425000000.0 -132976000000.0 -172652000000.0 -136705000000.0 -222493000000.0 -138638000000.0 -336151000000.0 -189311000000.0 -642187000000.0 -848735000000.0 -1.01647e+12 -1.08423e+12 -1.24548e+12 -1.26707e+12 -1.51159e+12 -1.86711e+12 -2.49544e+12 -2.6033e+12 -2.64806e+12 -2.7892e+12 -2.83719e+12 -2.99878e+12 -3.18068e+12 -1.76938e+12 -1.72858e+12 -3.13245e+12 -3.16733e+12 -3.02753e+12 -3.02443e+12 -2.87046e+12 -2.67764e+12 -2.53254e+12 -2.49155e+12 -2.14596e+12 -1.59522e+12 -1.25379e+12 -1.20561e+12 -1.14365e+12 -1.08282e+12 -824509000000.0 -620944000000.0 -345244000000.0 -218955000000.0 -302240000000.0 -198837000000.0 -233682000000.0 -189970000000.0 -222044000000.0 -187335000000.0 -222044000000.0 -189970000000.0 -233682000000.0 -198837000000.0 -302240000000.0 -218955000000.0 -345244000000.0 -620944000000.0 -824509000000.0 -1.08282e+12 -1.14365e+12 -1.20561e+12 -1.25379e+12 -1.59522e+12 -2.14596e+12 -2.49155e+12 -2.53254e+12 -2.67764e+12 -2.87046e+12 -3.02443e+12 -3.02753e+12 -3.16733e+12 -3.13245e+12 -1.72858e+12 -1.65048e+12 -1.68692e+12 -3.07366e+12 -2.99815e+12 -2.88686e+12 -2.71637e+12 -2.52238e+12 -2.37775e+12 -2.48656e+12 -2.68389e+12 -1.76515e+12 -1.18161e+12 -1.27922e+12 -1.14409e+12 -940813000000.0 -713575000000.0 -673953000000.0 -673953000000.0 -713575000000.0 -940813000000.0 -1.14409e+12 -1.27922e+12 -1.18161e+12 -1.76515e+12 -2.68389e+12 -2.48656e+12 -2.37775e+12 -2.52238e+12 -2.71637e+12 -2.88686e+12 -2.99815e+12 -3.07366e+12 -1.68692e+12 -1.65048e+12 -1.61188e+12 -3.00176e+12 -2.95491e+12 -2.83576e+12 -2.88499e+12 -2.75615e+12 -2.74095e+12 -2.58882e+12 -2.54964e+12 -2.37282e+12 -2.26843e+12 -2.30029e+12 -1.05941e+12 -1.34902e+12 -1.18464e+12 -1.00744e+12 -816906000000.0 -734801000000.0 -670487000000.0 -567449000000.0 -374149000000.0 -293390000000.0 -362883000000.0 -254194000000.0 -279657000000.0 -236573000000.0 -264193000000.0 -236455000000.0 -264193000000.0 -236573000000.0 -279657000000.0 -254194000000.0 -362883000000.0 -293390000000.0 -374149000000.0 -567449000000.0 -670487000000.0 -734801000000.0 -816906000000.0 -1.00744e+12 -1.18464e+12 -1.34902e+12 -1.05941e+12 -2.30029e+12 -2.26843e+12 -2.37282e+12 -2.54964e+12 -2.58882e+12 -2.74095e+12 -2.75615e+12 -2.88499e+12 -2.83576e+12 -2.95491e+12 -3.00176e+12 -1.61188e+12 -1.56771e+12 -2.93696e+12 -2.785e+12 -2.87912e+12 -2.79302e+12 -2.76428e+12 -2.61408e+12 -2.39341e+12 -2.20416e+12 -1.51544e+12 -375630000000.0 -1.26789e+12 -1.22327e+12 -1.07183e+12 -938632000000.0 -896721000000.0 -803980000000.0 -652924000000.0 -420969000000.0 -323360000000.0 -363658000000.0 -271281000000.0 -288992000000.0 -256391000000.0 -273204000000.0 -253326000000.0 -273204000000.0 -256391000000.0 -288992000000.0 -271282000000.0 -363658000000.0 -323360000000.0 -420969000000.0 -652924000000.0 -803980000000.0 -896721000000.0 -938632000000.0 -1.07183e+12 -1.22327e+12 -1.26789e+12 -375630000000.0 -1.51544e+12 -2.20416e+12 -2.39341e+12 -2.61408e+12 -2.76428e+12 -2.79302e+12 -2.87912e+12 -2.785e+12 -2.93696e+12 -1.56771e+12 -1.51752e+12 -2.7898e+12 -2.86553e+12 -2.72199e+12 -2.68412e+12 -2.67638e+12 -2.63943e+12 -2.49569e+12 -2.4679e+12 -2.22166e+12 -2.1518e+12 -1.84845e+12 -1.9748e+12 -1.90552e+12 -1.04472e+12 -1.09091e+12 -1.13267e+12 -1.08754e+12 -1.01593e+12 -868540000000.0 -734798000000.0 -574121000000.0 -574121000000.0 -734798000000.0 -868540000000.0 -1.01593e+12 -1.08754e+12 -1.13267e+12 -1.09091e+12 -1.04472e+12 -1.90552e+12 -1.9748e+12 -1.84845e+12 -2.1518e+12 -2.22166e+12 -2.4679e+12 -2.49569e+12 -2.63943e+12 -2.67638e+12 -2.68412e+12 -2.72199e+12 -2.86553e+12 -2.7898e+12 -1.51752e+12 -1.39891e+12 -1.46313e+12 -2.71517e+12 -2.64606e+12 -2.53205e+12 -2.46651e+12 -2.65724e+12 -2.50274e+12 -2.69829e+12 -2.5543e+12 -2.3827e+12 -1.87822e+12 -1.74919e+12 -1.38006e+12 -987171000000.0 -894908000000.0 -868924000000.0 -781587000000.0 -765991000000.0 -662838000000.0 -603590000000.0 -461590000000.0 -376463000000.0 -366656000000.0 -295814000000.0 -299914000000.0 -282731000000.0 -287313000000.0 -278223000000.0 -287313000000.0 -282731000000.0 -299914000000.0 -295814000000.0 -366656000000.0 -376463000000.0 -461590000000.0 -603590000000.0 -662838000000.0 -765991000000.0 -781587000000.0 -868924000000.0 -894908000000.0 -987171000000.0 -1.38006e+12 -1.74919e+12 -1.87822e+12 -2.3827e+12 -2.5543e+12 -2.69829e+12 -2.50274e+12 -2.65724e+12 -2.46651e+12 -2.53205e+12 -2.64606e+12 -2.71517e+12 -1.46313e+12 -1.39891e+12 -1.32884e+12 -2.62133e+12 -2.59161e+12 -2.47122e+12 -2.47996e+12 -2.10727e+12 -2.60254e+12 -2.74205e+12 -2.43218e+12 -2.01086e+12 -1.52628e+12 -799772000000.0 -1.46577e+12 -915163000000.0 -624712000000.0 -1.12688e+12 -621395000000.0 -840758000000.0 -778793000000.0 -672513000000.0 -483115000000.0 -435777000000.0 -364012000000.0 -320826000000.0 -308203000000.0 -309463000000.0 -299136000000.0 -306169000000.0 -299136000000.0 -309463000000.0 -308203000000.0 -320826000000.0 -364012000000.0 -435777000000.0 -483116000000.0 -672513000000.0 -778793000000.0 -840758000000.0 -621395000000.0 -1.12688e+12 -624712000000.0 -915163000000.0 -1.46577e+12 -799772000000.0 -1.52628e+12 -2.01086e+12 -2.43218e+12 -2.74205e+12 -2.60254e+12 -2.10727e+12 -2.47996e+12 -2.47122e+12 -2.59161e+12 -2.62133e+12 -1.32884e+12 -1.25396e+12 -2.5158e+12 -2.40897e+12 -2.50173e+12 -2.37828e+12 -2.39189e+12 -2.34679e+12 -2.95136e+12 -2.09695e+12 -3.26284e+12 -2.54134e+12 -2.45504e+12 -2.50895e+12 -1.86706e+12 -1.30171e+12 -2.06148e+12 -648049000000.0 -1.23353e+12 -694791000000.0 -1.19641e+12 -752669000000.0 -835226000000.0 -857581000000.0 -643058000000.0 -643058000000.0 -857581000000.0 -835226000000.0 -752669000000.0 -1.19642e+12 -694791000000.0 -1.23353e+12 -648049000000.0 -2.06148e+12 -1.30171e+12 -1.86706e+12 -2.50895e+12 -2.45504e+12 -2.54134e+12 -3.26284e+12 -2.09695e+12 -2.95136e+12 -2.34679e+12 -2.39189e+12 -2.37828e+12 -2.50173e+12 -2.40897e+12 -2.5158e+12 -1.25396e+12 -1.16876e+12 -2.38889e+12 -2.2897e+12 -2.31272e+12 -2.22373e+12 -2.35562e+12 -2.80064e+12 -1.52627e+12 -4.13446e+12 -2.46056e+12 -2.89152e+12 -641062000000.0 -595672000000.0 -1.42316e+12 -836209000000.0 -561690000000.0 -273372000000.0 -593341000000.0 -605474000000.0 -836556000000.0 -472310000000.0 -508178000000.0 -364225000000.0 -355459000000.0 -318647000000.0 -338507000000.0 -307599000000.0 -332539000000.0 -307599000000.0 -338507000000.0 -318647000000.0 -355459000000.0 -364225000000.0 -508178000000.0 -472310000000.0 -836556000000.0 -605474000000.0 -593341000000.0 -273372000000.0 -561690000000.0 -836209000000.0 -1.42316e+12 -595672000000.0 -641062000000.0 -2.89152e+12 -2.46056e+12 -4.13446e+12 -1.52627e+12 -2.80064e+12 -2.35562e+12 -2.22373e+12 -2.31272e+12 -2.2897e+12 -2.38889e+12 -1.16876e+12 -1.11133e+12 -1.13309e+12 -1.98571e+12 -2.23791e+12 -2.16918e+12 -2.18998e+12 -2.23159e+12 -2.19249e+12 -2.12768e+12 -691614000000.0 -3.65131e+12 -2.26916e+12 -535749000000.0 -3.13373e+12 -1.48892e+12 -1.01776e+12 -785523000000.0 -1.33943e+12 -809709000000.0 -1.20976e+12 -871282000000.0 -357669000000.0 -728390000000.0 -475412000000.0 -423218000000.0 -351169000000.0 -313894000000.0 -303195000000.0 -303195000000.0 -313894000000.0 -351169000000.0 -423218000000.0 -475412000000.0 -728390000000.0 -357669000000.0 -871282000000.0 -1.20976e+12 -809709000000.0 -1.33943e+12 -785523000000.0 -1.01776e+12 -1.48892e+12 -3.13373e+12 -535749000000.0 -2.26916e+12 -3.65131e+12 -691614000000.0 -2.12768e+12 -2.19249e+12 -2.23159e+12 -2.18998e+12 -2.16918e+12 -2.23791e+12 -1.98571e+12 -1.13309e+12 -1.11133e+12 -1.04606e+12 -1.9472e+12 -2.05116e+12 -2.08973e+12 -2.01335e+12 -2.0749e+12 -1.89958e+12 -2.60318e+12 -2.66641e+12 -2.99355e+12 -3.28739e+12 -1.97997e+12 -1.72085e+12 -1.44881e+12 -759837000000.0 -889843000000.0 -770746000000.0 -747469000000.0 -739211000000.0 -663752000000.0 -688632000000.0 -701482000000.0 -467423000000.0 -358224000000.0 -769195000000.0 -567115000000.0 -373656000000.0 -348828000000.0 -341202000000.0 -348828000000.0 -373656000000.0 -567115000000.0 -769195000000.0 -358224000000.0 -467423000000.0 -701482000000.0 -688632000000.0 -663752000000.0 -739211000000.0 -747469000000.0 -770746000000.0 -889843000000.0 -759837000000.0 -1.44881e+12 -1.72085e+12 -1.97997e+12 -3.28739e+12 -2.99355e+12 -2.66641e+12 -2.60318e+12 -1.89958e+12 -2.0749e+12 -2.01335e+12 -2.08973e+12 -2.05116e+12 -1.9472e+12 -1.04606e+12 -324264000000.0 -1.95362e+12 -1.63805e+12 -1.88139e+12 -1.97726e+12 -1.89235e+12 -1.9707e+12 -1.32064e+12 -2.30748e+12 -2.80455e+12 -1.27828e+12 -2.48132e+12 -2.31083e+12 -2.05959e+12 -1.15269e+12 -984780000000.0 -405117000000.0 -728417000000.0 -687553000000.0 -589701000000.0 -453574000000.0 -395415000000.0 -417166000000.0 -338533000000.0 -405796000000.0 -151684000000.0 -176555000000.0 -102067000000.0 -127305000000.0 -79744900000.0 -116614000000.0 -79744900000.0 -127305000000.0 -102067000000.0 -176555000000.0 -151684000000.0 -405796000000.0 -338533000000.0 -417166000000.0 -395415000000.0 -453574000000.0 -589701000000.0 -687553000000.0 -728417000000.0 -405117000000.0 -984780000000.0 -1.15269e+12 -2.05959e+12 -2.31083e+12 -2.48132e+12 -1.27828e+12 -2.80455e+12 -2.30748e+12 -1.32064e+12 -1.9707e+12 -1.89235e+12 -1.97726e+12 -1.88139e+12 -1.63805e+12 -1.95362e+12 -324264000000.0 -337205000000.0 -1.13557e+12 -1.00179e+12 -1.6504e+12 -1.30498e+12 -1.76626e+12 -1.8402e+12 -1.80794e+12 -1.97277e+12 -2.44312e+12 -1.3646e+12 -2.16663e+12 -1.90845e+12 -1.88507e+12 -2.09727e+12 -1.91173e+12 -1.73448e+12 -1.0429e+12 -897513000000.0 -998517000000.0 -794404000000.0 -514520000000.0 -355926000000.0 -93057300000.0 -239999000000.0 -261184000000.0 -255624000000.0 -255624000000.0 -261184000000.0 -239999000000.0 -93057300000.0 -355926000000.0 -514520000000.0 -794404000000.0 -998517000000.0 -897513000000.0 -1.0429e+12 -1.73448e+12 -1.91173e+12 -2.09727e+12 -1.88507e+12 -1.90845e+12 -2.16663e+12 -1.3646e+12 -2.44312e+12 -1.97277e+12 -1.80794e+12 -1.8402e+12 -1.76626e+12 -1.30498e+12 -1.6504e+12 -1.00179e+12 -1.13557e+12 -337205000000.0 -197755000000.0 -249492000000.0 -985881000000.0 -895886000000.0 -1.57365e+12 -1.72489e+12 -1.77033e+12 -1.77637e+12 -1.69981e+12 -1.49508e+12 -1.7606e+12 -1.55488e+12 -1.0975e+12 -917544000000.0 -667893000000.0 -639328000000.0 -798952000000.0 -735093000000.0 -907629000000.0 -656011000000.0 -690662000000.0 -643532000000.0 -441803000000.0 -412721000000.0 -520681000000.0 -269586000000.0 -391115000000.0 -222949000000.0 -265568000000.0 -224478000000.0 -259632000000.0 -224770000000.0 -256014000000.0 -224770000000.0 -259632000000.0 -224478000000.0 -265568000000.0 -222949000000.0 -391115000000.0 -269586000000.0 -520681000000.0 -412721000000.0 -441803000000.0 -643532000000.0 -690662000000.0 -656011000000.0 -907629000000.0 -735093000000.0 -798952000000.0 -639328000000.0 -667893000000.0 -917544000000.0 -1.0975e+12 -1.55488e+12 -1.7606e+12 -1.49508e+12 -1.69981e+12 -1.77637e+12 -1.77033e+12 -1.72489e+12 -1.57365e+12 -895886000000.0 -985881000000.0 -249492000000.0 -197755000000.0 -557376000000.0 -476511000000.0 -942185000000.0 -852193000000.0 -1.23023e+12 -1.49472e+12 -1.52223e+12 -1.97439e+12 -2.59339e+12 -1.29623e+12 -1.5196e+12 -1.67844e+12 -1.20953e+12 -1.44955e+12 -1.27583e+12 -1.31552e+12 -1.37264e+12 -1.35967e+12 -1.05905e+12 -460973000000.0 -488090000000.0 -525432000000.0 -361351000000.0 -321509000000.0 -452167000000.0 -38511400000.0 -156392000000.0 -14923900000.0 -44937900000.0 -11515200000.0 -39927700000.0 -11143900000.0 -37336200000.0 -11143900000.0 -39927700000.0 -11515200000.0 -44937900000.0 -14923900000.0 -156392000000.0 -38511400000.0 -452167000000.0 -321509000000.0 -361351000000.0 -525432000000.0 -488090000000.0 -460973000000.0 -1.05905e+12 -1.35967e+12 -1.37264e+12 -1.31552e+12 -1.27583e+12 -1.44955e+12 -1.20953e+12 -1.67844e+12 -1.5196e+12 -1.29623e+12 -2.59339e+12 -1.97439e+12 -1.52223e+12 -1.49472e+12 -1.23023e+12 -852193000000.0 -942185000000.0 -476511000000.0 -557376000000.0 -972121000000.0 -952062000000.0 -611962000000.0 -194028000000.0 -1.26259e+12 -1.51275e+12 -1.62323e+12 -2.02512e+12 -1.59192e+12 -1.50919e+12 -1.50628e+12 -1.39682e+12 -899390000000.0 -721124000000.0 -539908000000.0 -688082000000.0 -254787000000.0 -421917000000.0 -220121000000.0 -348671000000.0 -252228000000.0 -252228000000.0 -348671000000.0 -220121000000.0 -421917000000.0 -254787000000.0 -688082000000.0 -539908000000.0 -721124000000.0 -899390000000.0 -1.39682e+12 -1.50628e+12 -1.50919e+12 -1.59192e+12 -2.02512e+12 -1.62323e+12 -1.51275e+12 -1.26259e+12 -194028000000.0 -611962000000.0 -952062000000.0 -972121000000.0 -312324000000.0 -644250000000.0 -1.29869e+12 -1.2026e+12 -1.35774e+12 -671164000000.0 -1.10432e+12 -1.3496e+12 -1.34227e+12 -1.27313e+12 -1.15897e+12 -1.02171e+12 -1.10941e+12 -1.06174e+12 -1.09701e+12 -913223000000.0 -964691000000.0 -828008000000.0 -480534000000.0 -484315000000.0 -269782000000.0 -413381000000.0 -418488000000.0 -273230000000.0 -341295000000.0 -201357000000.0 -582176000000.0 -298384000000.0 -402505000000.0 -310965000000.0 -336195000000.0 -314780000000.0 -340148000000.0 -317801000000.0 -340589000000.0 -317801000000.0 -340148000000.0 -314780000000.0 -336195000000.0 -310965000000.0 -402505000000.0 -298384000000.0 -582176000000.0 -201357000000.0 -341295000000.0 -273230000000.0 -418488000000.0 -413381000000.0 -269782000000.0 -484315000000.0 -480534000000.0 -828008000000.0 -964691000000.0 -913223000000.0 -1.09701e+12 -1.06174e+12 -1.10941e+12 -1.02171e+12 -1.15897e+12 -1.27313e+12 -1.34227e+12 -1.3496e+12 -1.10432e+12 -671164000000.0 -1.35774e+12 -1.2026e+12 -1.29869e+12 -644250000000.0 -312324000000.0 -525728000000.0 -938056000000.0 -1.19742e+12 -520391000000.0 -1.2386e+12 -1.25983e+12 -1.32328e+12 -1.18617e+12 -1.081e+12 -989548000000.0 -936718000000.0 -948320000000.0 -925713000000.0 -1.03823e+12 -1.20072e+12 -503834000000.0 -501605000000.0 -450930000000.0 -411507000000.0 -312711000000.0 -355844000000.0 -189758000000.0 -466916000000.0 -46122500000.0 -123637000000.0 -21611000000.0 -41490800000.0 -21317100000.0 -43698900000.0 -20730600000.0 -43043700000.0 -20730600000.0 -43698900000.0 -21317100000.0 -41490800000.0 -21611000000.0 -123637000000.0 -46122500000.0 -466916000000.0 -189758000000.0 -355844000000.0 -312711000000.0 -411507000000.0 -450930000000.0 -501605000000.0 -503834000000.0 -1.20072e+12 -1.03823e+12 -925713000000.0 -948320000000.0 -936718000000.0 -989548000000.0 -1.081e+12 -1.18617e+12 -1.32328e+12 -1.25983e+12 -1.2386e+12 -520391000000.0 -1.19742e+12 -938056000000.0 -525728000000.0 -239684000000.0 -642524000000.0 -608308000000.0 -603804000000.0 -1.18658e+12 -657324000000.0 -1.03887e+12 -662740000000.0 -1.42414e+12 -891204000000.0 -829197000000.0 -784032000000.0 -746018000000.0 -715571000000.0 -683602000000.0 -531191000000.0 -520996000000.0 -596090000000.0 -474429000000.0 -464830000000.0 -464830000000.0 -474429000000.0 -596090000000.0 -520996000000.0 -531191000000.0 -683602000000.0 -715571000000.0 -746018000000.0 -784032000000.0 -829197000000.0 -891204000000.0 -1.42414e+12 -662740000000.0 -1.03887e+12 -657324000000.0 -1.18658e+12 -603804000000.0 -608308000000.0 -642524000000.0 -239684000000.0 -98798400000.0 -247918000000.0 -323991000000.0 -836243000000.0 -37544200000.0 -461519000000.0 -765975000000.0 -1.35933e+12 -1.12338e+12 -986456000000.0 -511535000000.0 -415889000000.0 -357591000000.0 -272212000000.0 -183824000000.0 -135899000000.0 -228048000000.0 -162527000000.0 -335274000000.0 -17103100000.0 -293016000000.0 -17011200000.0 -238468000000.0 -50666600000.0 -377279000000.0 -96841800000.0 -170008000000.0 -111526000000.0 -128055000000.0 -121120000000.0 -142364000000.0 -127129000000.0 -145903000000.0 -127129000000.0 -142364000000.0 -121120000000.0 -128055000000.0 -111526000000.0 -170008000000.0 -96841800000.0 -377279000000.0 -50666600000.0 -238468000000.0 -17011200000.0 -293016000000.0 -17103100000.0 -335274000000.0 -162527000000.0 -228048000000.0 -135899000000.0 -183824000000.0 -272212000000.0 -357591000000.0 -415889000000.0 -511535000000.0 -986456000000.0 -1.12338e+12 -1.35933e+12 -765975000000.0 -461519000000.0 -37544200000.0 -836243000000.0 -323991000000.0 -247918000000.0 -98798400000.0 -861777000000.0 -1.24589e+12 -1.07468e+12 -688362000000.0 -1.00072e+12 -864448000000.0 -761815000000.0 -705589000000.0 -657377000000.0 -601910000000.0 -287254000000.0 -64718500000.0 -103749000000.0 -156815000000.0 -237293000000.0 -77433200000.0 -225193000000.0 -34381700000.0 -281623000000.0 -15159100000.0 -54846300000.0 -9126800000.0 -12969700000.0 -9274360000.0 -23325600000.0 -9442960000.0 -23898500000.0 -9442960000.0 -23325600000.0 -9274360000.0 -12969600000.0 -9126800000.0 -54846300000.0 -15159100000.0 -281623000000.0 -34381700000.0 -225193000000.0 -77433200000.0 -237293000000.0 -156815000000.0 -103749000000.0 -64718500000.0 -287254000000.0 -601910000000.0 -657377000000.0 -705589000000.0 -761815000000.0 -864448000000.0 -1.00072e+12 -688362000000.0 -1.07468e+12 -1.24589e+12 -861777000000.0 -90145400000.0 -247437000000.0 -367519000000.0 -779235000000.0 -274381000000.0 -182441000000.0 -384673000000.0 -904198000000.0 -746823000000.0 -605047000000.0 -757036000000.0 -588548000000.0 -562478000000.0 -533355000000.0 -497348000000.0 -442465000000.0 -333201000000.0 -226284000000.0 -20675200000.0 -133027000000.0 -178629000000.0 -178629000000.0 -133027000000.0 -20675200000.0 -226284000000.0 -333201000000.0 -442465000000.0 -497348000000.0 -533355000000.0 -562478000000.0 -588548000000.0 -757036000000.0 -605047000000.0 -746823000000.0 -904198000000.0 -384673000000.0 -182441000000.0 -274381000000.0 -779235000000.0 -367519000000.0 -247437000000.0 -90145400000.0 -160912000000.0 -281555000000.0 -228360000000.0 -532785000000.0 -262457000000.0 -365828000000.0 -529686000000.0 -549318000000.0 -443646000000.0 -400207000000.0 -383005000000.0 -370340000000.0 -304025000000.0 -180853000000.0 -273567000000.0 -345080000000.0 -250621000000.0 -246726000000.0 -159852000000.0 -154307000000.0 -157290000000.0 -146058000000.0 -224569000000.0 -168581000000.0 -244871000000.0 -166136000000.0 -405696000000.0 -225141000000.0 -248371000000.0 -219466000000.0 -218204000000.0 -217093000000.0 -227403000000.0 -216527000000.0 -228185000000.0 -216527000000.0 -227403000000.0 -217093000000.0 -218204000000.0 -219466000000.0 -248371000000.0 -225141000000.0 -405696000000.0 -166136000000.0 -244871000000.0 -168581000000.0 -224569000000.0 -146058000000.0 -157290000000.0 -154307000000.0 -159852000000.0 -246726000000.0 -250621000000.0 -345080000000.0 -273567000000.0 -180853000000.0 -304025000000.0 -370340000000.0 -383005000000.0 -400207000000.0 -443646000000.0 -549318000000.0 -529686000000.0 -365828000000.0 -262457000000.0 -532785000000.0 -228360000000.0 -281555000000.0 -160912000000.0 -214667000000.0 -65625600000.0 -354710000000.0 -617187000000.0 -548648000000.0 -481914000000.0 -243480000000.0 -216852000000.0 -30653500000.0 -106623000000.0 -14254200000.0 -21635300000.0 -30137100000.0 -25928600000.0 -63882300000.0 -20926200000.0 -101742000000.0 -22634800000.0 -140899000000.0 -21134200000.0 -203029000000.0 -10289300000.0 -27121600000.0 -9071850000.0 -9143170000.0 -9221150000.0 -17739900000.0 -9098030000.0 -19329500000.0 -9098030000.0 -17739900000.0 -9221150000.0 -9143170000.0 -9071850000.0 -27121600000.0 -10289300000.0 -203029000000.0 -21134200000.0 -140899000000.0 -22634800000.0 -101742000000.0 -20926200000.0 -63882300000.0 -25928600000.0 -30137100000.0 -21635300000.0 -14254200000.0 -106623000000.0 -30653500000.0 -216852000000.0 -243480000000.0 -481914000000.0 -548648000000.0 -617187000000.0 -354710000000.0 -65625600000.0 -214667000000.0 -78435000000.0 -76660300000.0 -142035000000.0 -489682000000.0 -338409000000.0 -341308000000.0 -483126000000.0 -333463000000.0 -413572000000.0 -353220000000.0 -241259000000.0 -253551000000.0 -253551000000.0 -241259000000.0 -353220000000.0 -413572000000.0 -333463000000.0 -483126000000.0 -341308000000.0 -338409000000.0 -489682000000.0 -142035000000.0 -76660300000.0 -78435000000.0 -152779000000.0 -44127600000.0 -56610900000.0 -34377400000.0 -307066000000.0 -363758000000.0 -219216000000.0 -178052000000.0 -177271000000.0 -279191000000.0 -262904000000.0 -394178000000.0 -386340000000.0 -300364000000.0 -385724000000.0 -451900000000.0 -465252000000.0 -356795000000.0 -338736000000.0 -292537000000.0 -247416000000.0 -236494000000.0 -193037000000.0 -219357000000.0 -156719000000.0 -216299000000.0 -134505000000.0 -247792000000.0 -129071000000.0 -271048000000.0 -120774000000.0 -119335000000.0 -102356000000.0 -95557100000.0 -90338200000.0 -93045800000.0 -84630400000.0 -92028700000.0 -84630400000.0 -93045800000.0 -90338200000.0 -95557100000.0 -102356000000.0 -119335000000.0 -120774000000.0 -271048000000.0 -129071000000.0 -247792000000.0 -134505000000.0 -216299000000.0 -156719000000.0 -219357000000.0 -193037000000.0 -236494000000.0 -247416000000.0 -292537000000.0 -338736000000.0 -356795000000.0 -465252000000.0 -451900000000.0 -385724000000.0 -300364000000.0 -386340000000.0 -394178000000.0 -262904000000.0 -279191000000.0 -177271000000.0 -178052000000.0 -219216000000.0 -363758000000.0 -307066000000.0 -34377400000.0 -56610900000.0 -44127600000.0 -152779000000.0 -103837000000.0 -47799200000.0 -96618100000.0 -287117000000.0 -295628000000.0 -187566000000.0 -80585300000.0 -85985900000.0 -55878600000.0 -22241600000.0 -12568000000.0 -46390400000.0 -12951000000.0 -57023100000.0 -12079500000.0 -72575800000.0 -12002600000.0 -89804000000.0 -12345600000.0 -132382000000.0 -11043400000.0 -130718000000.0 -9106770000.0 -12926800000.0 -9044260000.0 -9058310000.0 -9069550000.0 -13717200000.0 -9037750000.0 -15602600000.0 -9037750000.0 -13717200000.0 -9069550000.0 -9058310000.0 -9044260000.0 -12926800000.0 -9106770000.0 -130718000000.0 -11043400000.0 -132382000000.0 -12345600000.0 -89804000000.0 -12002600000.0 -72575800000.0 -12079500000.0 -57023100000.0 -12951000000.0 -46390400000.0 -12568000000.0 -22241600000.0 -55878600000.0 -85985900000.0 -80585300000.0 -187566000000.0 -295628000000.0 -287117000000.0 -96618100000.0 -47799200000.0 -103837000000.0 -145181000000.0 -226673000000.0 -140761000000.0 -91241700000.0 -24316800000.0 -274558000000.0 -270798000000.0 -268308000000.0 -268308000000.0 -270798000000.0 -274558000000.0 -24316800000.0 -91241700000.0 -140761000000.0 -226673000000.0 -145181000000.0 -76889900000.0 -16999700000.0 -11396700000.0 -17574700000.0 -101693000000.0 -134443000000.0 -140875000000.0 -100636000000.0 -59083800000.0 -41223600000.0 -230206000000.0 -254223000000.0 -302501000000.0 -241428000000.0 -186559000000.0 -176128000000.0 -122731000000.0 -104588000000.0 -78120700000.0 -98007400000.0 -58118900000.0 -98503500000.0 -44266500000.0 -99543500000.0 -34612100000.0 -105538000000.0 -27800400000.0 -137607000000.0 -23755600000.0 -113709000000.0 -19813400000.0 -18674400000.0 -16613500000.0 -15464100000.0 -14582100000.0 -17299000000.0 -13591900000.0 -18623200000.0 -13591900000.0 -17299000000.0 -14582100000.0 -15464100000.0 -16613500000.0 -18674300000.0 -19813400000.0 -113709000000.0 -23755600000.0 -137607000000.0 -27800400000.0 -105538000000.0 -34612100000.0 -99543500000.0 -44266500000.0 -98503500000.0 -58118800000.0 -98007400000.0 -78120700000.0 -104588000000.0 -122731000000.0 -176128000000.0 -186559000000.0 -241428000000.0 -302501000000.0 -254223000000.0 -230206000000.0 -41223600000.0 -59083800000.0 -100636000000.0 -140875000000.0 -134443000000.0 -101693000000.0 -17574700000.0 -11396700000.0 -16999700000.0 -76889900000.0 -9617440000.0 -24164400000.0 -9363030000.0 -9425770000.0 -9323960000.0 -9349190000.0 -9410230000.0 -9074730000.0 -78860300000.0 -9035810000.0 -9071240000.0 -9036080000.0 -9036280000.0 -9036540000.0 -11392800000.0 -9035750000.0 -13088500000.0 -9035750000.0 -11392800000.0 -9036540000.0 -9036280000.0 -9036080000.0 -9071230000.0 -9035810000.0 -78860300000.0 -9074730000.0 -9410230000.0 -9349190000.0 -9323960000.0 -9425770000.0 -9363030000.0 -24164400000.0 -9617440000.0 -57864800000.0 -25229600000.0 -28910400000.0 -53559600000.0 -111697000000.0 -144850000000.0 -154388000000.0 -103469000000.0 -70817200000.0 -95880200000.0 -204562000000.0 -165734000000.0 -160831000000.0 -77592100000.0 -58524700000.0 -53916200000.0 -40191900000.0 -60089800000.0 -69764300000.0 -81440000000.0 -112543000000.0 -112543000000.0 -81440000000.0 -69764300000.0 -60089800000.0 -40191900000.0 -53916200000.0 -58524700000.0 -77592100000.0 -160831000000.0 -165734000000.0 -204562000000.0 -95880200000.0 -70817200000.0 -103469000000.0 -154388000000.0 -144850000000.0 -111697000000.0 -53559600000.0 -28910400000.0 -25229600000.0 -57864800000.0 -47148400000.0 -19323600000.0 -13485200000.0 -37566300000.0 -63902900000.0 -97585200000.0 -126619000000.0 -81331800000.0 -44586400000.0 -88619700000.0 -168337000000.0 -146937000000.0 -142082000000.0 -72929100000.0 -66514000000.0 -53662700000.0 -17653600000.0 -29809400000.0 -13607400000.0 -41687400000.0 -11297900000.0 -60119200000.0 -9490460000.0 -66673900000.0 -9035750000.0 -77154200000.0 -9035750000.0 -101539000000.0 -9035760000.0 -60628100000.0 -9035760000.0 -9036610000.0 -9035800000.0 -9035800000.0 -9035760000.0 -10672000000.0 -9035750000.0 -12218300000.0 -9035750000.0 -10672000000.0 -9035760000.0 -9035800000.0 -9035800000.0 -9036610000.0 -9035760000.0 -60628100000.0 -9035760000.0 -101539000000.0 -9035750000.0 -77154200000.0 -9035750000.0 -66673900000.0 -9490460000.0 -60119200000.0 -11297900000.0 -41687400000.0 -13607400000.0 -29809400000.0 -17653600000.0 -53662700000.0 -66514000000.0 -72929100000.0 -142082000000.0 -146937000000.0 -168337000000.0 -88619700000.0 -44586400000.0 -81331800000.0 -126619000000.0 -97585200000.0 -63902900000.0 -37566300000.0 -13485200000.0 -19323600000.0 -47148400000.0 -45923200000.0 -21929100000.0 -16974600000.0 -46801200000.0 -53243800000.0 -87044700000.0 -124495000000.0 -80805900000.0 -47110000000.0 -106593000000.0 -151170000000.0 -121554000000.0 -105432000000.0 -56078800000.0 -52211500000.0 -37005700000.0 -10658800000.0 -23481200000.0 -9035760000.0 -37407700000.0 -9035760000.0 -56838200000.0 -9035760000.0 -63399800000.0 -9035760000.0 -73127900000.0 -9035760000.0 -90774300000.0 -9035760000.0 -46454800000.0 -9035760000.0 -9035860000.0 -9035830000.0 -9035820000.0 -9035760000.0 -10153500000.0 -9035750000.0 -11536500000.0 -9035750000.0 -10153500000.0 -9035760000.0 -9035820000.0 -9035830000.0 -9035860000.0 -9035760000.0 -46454800000.0 -9035760000.0 -90774300000.0 -9035760000.0 -73127900000.0 -9035760000.0 -63399800000.0 -9035760000.0 -56838200000.0 -9035760000.0 -37407700000.0 -9035760000.0 -23481200000.0 -10658800000.0 -37005700000.0 -52211500000.0 -56078800000.0 -105432000000.0 -121554000000.0 -151170000000.0 -106593000000.0 -47110000000.0 -80805900000.0 -124495000000.0 -87044700000.0 -53243800000.0 -46801200000.0 -16974600000.0 -21929100000.0 -45923200000.0 -45726100000.0 -22132200000.0 -17283800000.0 -49151100000.0 -39123100000.0 -70932300000.0 -115152000000.0 -75991500000.0 -44855600000.0 -114166000000.0 -138654000000.0 -109355000000.0 -88462700000.0 -55924400000.0 -49540700000.0 -32203600000.0 -11684900000.0 -23159800000.0 -9035770000.0 -36576100000.0 -9035770000.0 -54192500000.0 -9035760000.0 -60001300000.0 -9035760000.0 -68965400000.0 -9035760000.0 -80296600000.0 -9035760000.0 -35661700000.0 -9035760000.0 -9035880000.0 -9035860000.0 -9035830000.0 -9035760000.0 -9785870000.0 -9035750000.0 -11002000000.0 -9035750000.0 -9785870000.0 -9035760000.0 -9035830000.0 -9035860000.0 -9035880000.0 -9035760000.0 -35661700000.0 -9035760000.0 -80296600000.0 -9035760000.0 -68965400000.0 -9035760000.0 -60001300000.0 -9035760000.0 -54192500000.0 -9035770000.0 -36576100000.0 -9035770000.0 -23159800000.0 -11684900000.0 -32203600000.0 -49540700000.0 -55924400000.0 -88462700000.0 -109355000000.0 -138654000000.0 -114166000000.0 -44855600000.0 -75991500000.0 -115152000000.0 -70932300000.0 -39123100000.0 -49151100000.0 -17283800000.0 -22132200000.0 -45726100000.0 -45392000000.0 -22794700000.0 -19018100000.0 -51782700000.0 -31066000000.0 -60158000000.0 -107636000000.0 -73492000000.0 -46626000000.0 -119493000000.0 -126807000000.0 -96729800000.0 -74091100000.0 -53445400000.0 -45153400000.0 -27837900000.0 -11876100000.0 -22704400000.0 -9035780000.0 -35861200000.0 -9035770000.0 -51279900000.0 -9035770000.0 -56674400000.0 -9035760000.0 -64598900000.0 -9035760000.0 -70386500000.0 -9035770000.0 -27621200000.0 -9035760000.0 -9035890000.0 -9035860000.0 -9035830000.0 -9035760000.0 -9529350000.0 -9035750000.0 -10582500000.0 -9035750000.0 -9529350000.0 -9035760000.0 -9035830000.0 -9035860000.0 -9035890000.0 -9035760000.0 -27621200000.0 -9035770000.0 -70386500000.0 -9035760000.0 -64598900000.0 -9035760000.0 -56674400000.0 -9035770000.0 -51279900000.0 -9035770000.0 -35861200000.0 -9035780000.0 -22704400000.0 -11876100000.0 -27837900000.0 -45153400000.0 -53445400000.0 -74091100000.0 -96729800000.0 -126807000000.0 -119493000000.0 -46626000000.0 -73492000000.0 -107636000000.0 -60158000000.0 -31066000000.0 -51782700000.0 -19018100000.0 -22794700000.0 -45392000000.0 -44509300000.0 -23361300000.0 -20583800000.0 -52622400000.0 -25593000000.0 -51106800000.0 -99642700000.0 -70982600000.0 -48384500000.0 -121301000000.0 -117397000000.0 -87683500000.0 -65170700000.0 -51708000000.0 -41931400000.0 -25563500000.0 -12346100000.0 -22428400000.0 -9035790000.0 -35146900000.0 -9035780000.0 -48327300000.0 -9035770000.0 -53466700000.0 -9035770000.0 -60060800000.0 -9035760000.0 -61208800000.0 -9035770000.0 -21758800000.0 -9035760000.0 -9035880000.0 -9035840000.0 -9035810000.0 -9035760000.0 -9353370000.0 -9035750000.0 -10253000000.0 -9035750000.0 -9353370000.0 -9035760000.0 -9035810000.0 -9035840000.0 -9035880000.0 -9035760000.0 -21758800000.0 -9035770000.0 -61208800000.0 -9035760000.0 -60060800000.0 -9035770000.0 -53466700000.0 -9035770000.0 -48327300000.0 -9035780000.0 -35146900000.0 -9035790000.0 -22428400000.0 -12346100000.0 -25563500000.0 -41931400000.0 -51708000000.0 -65170700000.0 -87683500000.0 -117397000000.0 -121301000000.0 -48384500000.0 -70982600000.0 -99642700000.0 -51106800000.0 -25593000000.0 -52622400000.0 -20583800000.0 -23361300000.0 -44509300000.0 -43271900000.0 -23953400000.0 -21971800000.0 -52078100000.0 -22219500000.0 -43750500000.0 -91637600000.0 -68708400000.0 -50652600000.0 -120631000000.0 -109108000000.0 -80439000000.0 -59170500000.0 -49751700000.0 -39030300000.0 -24321100000.0 -12708000000.0 -22211600000.0 -9035800000.0 -34362200000.0 -9035790000.0 -45452800000.0 -9035780000.0 -50355200000.0 -9035770000.0 -55452700000.0 -9035760000.0 -52853200000.0 -9035770000.0 -17573600000.0 -9035770000.0 -9035860000.0 -9035830000.0 -9035800000.0 -9035760000.0 -9234980000.0 -9035750000.0 -9993920000.0 -9035750000.0 -9234980000.0 -9035760000.0 -9035800000.0 -9035830000.0 -9035860000.0 -9035770000.0 -17573600000.0 -9035770000.0 -52853200000.0 -9035760000.0 -55452700000.0 -9035770000.0 -50355200000.0 -9035780000.0 -45452800000.0 -9035790000.0 -34362200000.0 -9035800000.0 -22211600000.0 -12708000000.0 -24321100000.0 -39030300000.0 -49751700000.0 -59170500000.0 -80439000000.0 -109108000000.0 -120631000000.0 -50652600000.0 -68708400000.0 -91637600000.0 -43750500000.0 -22219500000.0 -52078100000.0 -21971800000.0 -23953400000.0 -43271900000.0 -41852200000.0 -24618100000.0 -23175600000.0 -50575900000.0 -20392200000.0 -37976500000.0 -83892900000.0 -66582600000.0 -52958100000.0 -117926000000.0 -101708000000.0 -74584800000.0 -55126800000.0 -47687000000.0 -36421600000.0 -23736100000.0 -12959600000.0 -22022300000.0 -9035810000.0 -33471900000.0 -9035790000.0 -42708900000.0 -9035780000.0 -47311900000.0 -9035770000.0 -50886700000.0 -9035770000.0 -45372300000.0 -9035770000.0 -14647400000.0 -9035770000.0 -9035830000.0 -9035810000.0 -9035790000.0 -9035760000.0 -9157130000.0 -9035750000.0 -9790000000.0 -9035750000.0 -9157130000.0 -9035760000.0 -9035790000.0 -9035810000.0 -9035830000.0 -9035770000.0 -14647400000.0 -9035770000.0 -45372300000.0 -9035770000.0 -50886700000.0 -9035770000.0 -47311900000.0 -9035780000.0 -42708900000.0 -9035790000.0 -33471900000.0 -9035810000.0 -22022300000.0 -12959600000.0 -23736100000.0 -36421600000.0 -47687000000.0 -55126800000.0 -74584800000.0 -101708000000.0 -117926000000.0 -52958100000.0 -66582600000.0 -83892900000.0 -37976500000.0 -20392200000.0 -50575900000.0 -23175600000.0 -24618100000.0 -41852200000.0 -40356600000.0 -25344500000.0 -24192000000.0 -48475000000.0 -19638000000.0 -33583800000.0 -76625800000.0 -64619500000.0 -55081500000.0 -113722000000.0 -94983900000.0 -69729500000.0 -52256900000.0 -45569900000.0 -34048300000.0 -23512800000.0 -13103300000.0 -21834100000.0 -9035820000.0 -32466100000.0 -9035800000.0 -40109600000.0 -9035790000.0 -44326400000.0 -9035780000.0 -46456600000.0 -9035770000.0 -38789500000.0 -9035780000.0 -12644400000.0 -9035770000.0 -9035810000.0 -9035790000.0 -9035780000.0 -9035760000.0 -9107260000.0 -9035750000.0 -9629410000.0 -9035750000.0 -9107260000.0 -9035760000.0 -9035780000.0 -9035790000.0 -9035810000.0 -9035770000.0 -12644400000.0 -9035780000.0 -38789500000.0 -9035770000.0 -46456600000.0 -9035780000.0 -44326400000.0 -9035790000.0 -40109600000.0 -9035800000.0 -32466100000.0 -9035820000.0 -21834100000.0 -13103300000.0 -23512800000.0 -34048300000.0 -45569900000.0 -52256900000.0 -69729500000.0 -94983900000.0 -113722000000.0 -55081500000.0 -64619500000.0 -76625800000.0 -33583800000.0 -19638000000.0 -48475000000.0 -24192000000.0 -25344500000.0 -40356600000.0 -38843900000.0 -26055000000.0 -25020900000.0 -46045400000.0 -19540300000.0 -30342000000.0 -69957500000.0 -62781200000.0 -56774800000.0 -108475000000.0 -88754000000.0 -65556600000.0 -49924900000.0 -43426700000.0 -31859000000.0 -23440200000.0 -13145400000.0 -21626900000.0 -9035830000.0 -31351500000.0 -9035810000.0 -37649800000.0 -9035790000.0 -41404800000.0 -9035780000.0 -42231000000.0 -9035770000.0 -33096900000.0 -9035780000.0 -11303000000.0 -9035770000.0 -9035800000.0 -9035780000.0 -9035770000.0 -9035760000.0 -9076280000.0 -9035750000.0 -9502880000.0 -9035750000.0 -9076280000.0 -9035760000.0 -9035770000.0 -9035780000.0 -9035800000.0 -9035770000.0 -11303000000.0 -9035780000.0 -33096900000.0 -9035770000.0 -42231000000.0 -9035780000.0 -41404800000.0 -9035790000.0 -37649800000.0 -9035810000.0 -31351500000.0 -9035830000.0 -21626900000.0 -13145400000.0 -23440200000.0 -31859000000.0 -43426700000.0 -49924900000.0 -65556600000.0 -88754000000.0 -108475000000.0 -56774800000.0 -62781200000.0 -69957500000.0 -30342000000.0 -19540300000.0 -46045400000.0 -25020900000.0 -26055000000.0 -38843900000.0 -37346400000.0 -26663900000.0 -25665200000.0 -43481600000.0 -19743500000.0 -28024900000.0 -63940200000.0 -61009800000.0 -57881100000.0 -102553000000.0 -82884300000.0 -61825100000.0 -47699000000.0 -41271100000.0 -29812500000.0 -23373900000.0 -13095800000.0 -21386100000.0 -9035840000.0 -30145700000.0 -9035810000.0 -35318400000.0 -9035790000.0 -38562500000.0 -9035780000.0 -38257700000.0 -9035770000.0 -28256500000.0 -9035780000.0 -10425200000.0 -9035770000.0 -9035780000.0 -9035770000.0 -9035760000.0 -9035760000.0 -9057720000.0 -9035750000.0 -9403160000.0 -9035750000.0 -9057720000.0 -9035760000.0 -9035760000.0 -9035770000.0 -9035780000.0 -9035770000.0 -10425200000.0 -9035780000.0 -28256500000.0 -9035770000.0 -38257700000.0 -9035780000.0 -38562500000.0 -9035790000.0 -35318400000.0 -9035810000.0 -30145700000.0 -9035840000.0 -21386100000.0 -13095800000.0 -23373900000.0 -29812500000.0 -41271100000.0 -47699000000.0 -61825100000.0 -82884300000.0 -102553000000.0 -57881100000.0 -61009800000.0 -63940200000.0 -28024900000.0 -19743500000.0 -43481600000.0 -25665200000.0 -26663900000.0 -37346400000.0 -35880900000.0 -27121300000.0 -26130600000.0 -40917800000.0 -20009200000.0 -26418300000.0 -58579200000.0 -59251600000.0 -58358100000.0 -96249200000.0 -77292400000.0 -58352100000.0 -45374500000.0 -39116400000.0 -27881900000.0 -23228800000.0 -12966900000.0 -21102200000.0 -9035850000.0 -28872000000.0 -9035820000.0 -33105900000.0 -9035790000.0 -35818100000.0 -9035780000.0 -34567900000.0 -9035770000.0 -24206200000.0 -9035780000.0 -9864690000.0 -9035770000.0 -9035780000.0 -9035770000.0 -9035760000.0 -9035760000.0 -9047050000.0 -9035750000.0 -9324590000.0 -9035750000.0 -9047050000.0 -9035760000.0 -9035760000.0 -9035770000.0 -9035780000.0 -9035770000.0 -9864690000.0 -9035780000.0 -24206200000.0 -9035770000.0 -34567900000.0 -9035780000.0 -35818100000.0 -9035790000.0 -33105900000.0 -9035820000.0 -28872000000.0 -9035850000.0 -21102200000.0 -12966900000.0 -23228800000.0 -27881900000.0 -39116400000.0 -45374500000.0 -58352100000.0 -77292400000.0 -96249200000.0 -58358100000.0 -59251600000.0 -58579200000.0 -26418300000.0 -20009200000.0 -40917800000.0 -26130600000.0 -27121300000.0 -35880900000.0 -34456800000.0 -27412500000.0 -26424900000.0 -38438800000.0 -20220700000.0 -25330000000.0 -53844700000.0 -57463000000.0 -58233300000.0 -89796500000.0 -71935400000.0 -55006800000.0 -42908700000.0 -36979400000.0 -26054800000.0 -22969400000.0 -12772800000.0 -20770900000.0 -9035850000.0 -27555900000.0 -9035820000.0 -31006800000.0 -9035800000.0 -33191000000.0 -9035780000.0 -31180600000.0 -9035770000.0 -20868600000.0 -9035780000.0 -9516070000.0 -9035770000.0 -9035770000.0 -9035760000.0 -9035760000.0 -9035760000.0 -9041210000.0 -9035750000.0 -9262680000.0 -9035750000.0 -9041210000.0 -9035760000.0 -9035760000.0 -9035760000.0 -9035770000.0 -9035770000.0 -9516070000.0 -9035780000.0 -20868600000.0 -9035770000.0 -31180600000.0 -9035780000.0 -33191000000.0 -9035800000.0 -31006800000.0 -9035820000.0 -27555900000.0 -9035850000.0 -20770900000.0 -12772800000.0 -22969400000.0 -26054800000.0 -36979400000.0 -42908700000.0 -55006800000.0 -71935400000.0 -89796500000.0 -58233300000.0 -57463000000.0 -53844700000.0 -25330000000.0 -20220700000.0 -38438800000.0 -26424900000.0 -27412500000.0 -34456800000.0 -33080600000.0 -27541400000.0 -26558100000.0 -36090600000.0 -20337700000.0 -24600200000.0 -49682300000.0 -57564000000.0 -66794500000.0 -51718800000.0 -40337400000.0 -34879300000.0 -24329200000.0 -22593700000.0 -12528500000.0 -20391800000.0 -9035860000.0 -26222300000.0 -9035820000.0 -29018800000.0 -9035800000.0 -30699100000.0 -9035780000.0 -28104400000.0 -9035770000.0 -18158400000.0 -9035780000.0 -9305290000.0 -9035770000.0 -9035770000.0 -9035760000.0 -9035760000.0 -9035760000.0 -9038200000.0 -9035750000.0 -9213940000.0 -9035750000.0 -9038200000.0 -9035760000.0 -9035760000.0 -9035760000.0 -9035770000.0 -9035770000.0 -9305290000.0 -9035780000.0 -18158400000.0 -9035770000.0 -28104400000.0 -9035780000.0 -30699100000.0 -9035800000.0 -29018800000.0 -9035820000.0 -26222300000.0 -9035860000.0 -20391800000.0 -12528500000.0 -22593700000.0 -24329200000.0 -34879300000.0 -40337400000.0 -51718800000.0 -66794500000.0 -57564000000.0 -49682300000.0 -24600200000.0 -20337700000.0 -36090600000.0 -26558100000.0 -27541400000.0 -33080600000.0 -55612300000.0 -83380500000.0 -83380500000.0 -55612300000.0 -31757000000.0 -27518500000.0 -26541400000.0 -33892400000.0 -20353600000.0 -24103600000.0 -46025200000.0 -53680800000.0 -56418700000.0 -77141100000.0 -61866800000.0 -48473600000.0 -37720200000.0 -32835700000.0 -22707200000.0 -22115900000.0 -12248800000.0 -19967600000.0 -9035860000.0 -24893800000.0 -9035820000.0 -27142000000.0 -9035800000.0 -28357300000.0 -9035780000.0 -25339200000.0 -9035770000.0 -15988600000.0 -9035780000.0 -9181710000.0 -9035770000.0 -9035770000.0 -9035760000.0 -9035760000.0 -9035760000.0 -9036760000.0 -9035750000.0 -9175570000.0 -9035750000.0 -9036760000.0 -9035760000.0 -9035760000.0 -9035760000.0 -9035770000.0 -9035770000.0 -9181710000.0 -9035780000.0 -15988600000.0 -9035770000.0 -25339200000.0 -9035780000.0 -28357300000.0 -9035800000.0 -27142000000.0 -9035820000.0 -24893800000.0 -9035860000.0 -19967600000.0 -12248800000.0 -22115900000.0 -22707200000.0 -32835700000.0 -37720200000.0 -48473600000.0 -61866800000.0 -77141100000.0 -56418700000.0 -53680800000.0 -46025200000.0 -24103600000.0 -20353600000.0 -33892400000.0 -26541400000.0 -27518500000.0 -31757000000.0 -30488800000.0 -27356700000.0 -26387500000.0 -31847700000.0 -20273300000.0 -23744600000.0 -42803700000.0 -51663500000.0 -54869000000.0 -71176200000.0 -57161800000.0 -45292800000.0 -35117000000.0 -30866500000.0 -21191700000.0 -21555400000.0 -11947700000.0 -19503200000.0 -9035870000.0 -23590000000.0 -9035830000.0 -25377500000.0 -9035800000.0 -26176600000.0 -9035780000.0 -22878100000.0 -9035770000.0 -14274900000.0 -9035780000.0 -9111690000.0 -9035770000.0 -9035760000.0 -9035760000.0 -9035760000.0 -9035760000.0 -9036130000.0 -9035750000.0 -9145390000.0 -9035750000.0 -9036130000.0 -9035760000.0 -9035760000.0 -9035760000.0 -9035760000.0 -9035770000.0 -9111690000.0 -9035780000.0 -14274900000.0 -9035770000.0 -22878100000.0 -9035780000.0 -26176600000.0 -9035800000.0 -25377500000.0 -9035830000.0 -23590000000.0 -9035870000.0 -19503200000.0 -11947700000.0 -21555400000.0 -21191700000.0 -30866500000.0 -35117000000.0 -45292800000.0 -57161800000.0 -71176200000.0 -54869000000.0 -51663500000.0 -42803700000.0 -23744600000.0 -20273300000.0 -31847700000.0 -26387500000.0 -27356700000.0 -30488800000.0 -29276000000.0 -27069400000.0 -26109100000.0 -29951700000.0 -20104800000.0 -23451900000.0 -39951600000.0 -49566400000.0 -52986800000.0 -65548000000.0 -52697600000.0 -42211100000.0 -32579300000.0 -28987100000.0 -19785800000.0 -20932600000.0 -11637600000.0 -19004700000.0 -9035870000.0 -22326900000.0 -9035830000.0 -23726300000.0 -9035800000.0 -24163300000.0 -9035780000.0 -20707900000.0 -9035770000.0 -12939400000.0 -9035780000.0 -9073510000.0 -9035770000.0 -9035760000.0 -9035760000.0 -9035760000.0 -9035760000.0 -9035880000.0 -9035750000.0 -9121670000.0 -9035750000.0 -9035880000.0 -9035760000.0 -9035760000.0 -9035760000.0 -9035760000.0 -9035770000.0 -9073510000.0 -9035780000.0 -12939400000.0 -9035770000.0 -20707900000.0 -9035780000.0 -24163300000.0 -9035800000.0 -23726300000.0 -9035830000.0 -22326900000.0 -9035870000.0 -19004700000.0 -11637600000.0 -20932600000.0 -19785800000.0 -28987100000.0 -32579300000.0 -42211100000.0 -52697600000.0 -65548000000.0 -52986800000.0 -49566400000.0 -39951600000.0 -23451900000.0 -20104800000.0 -29951700000.0 -26109100000.0 -27069400000.0 -29276000000.0 -28116700000.0 -26669800000.0 -25719600000.0 -28195900000.0 -19857100000.0 -23173800000.0 -37409200000.0 -47404000000.0 -50841500000.0 -60290000000.0 -48494600000.0 -39261700000.0 -30148200000.0 -27208800000.0 -18491200000.0 -20266000000.0 -11329200000.0 -18478800000.0 -9035870000.0 -21116600000.0 -9035830000.0 -22188900000.0 -9035800000.0 -22319600000.0 -9035780000.0 -18811500000.0 -9035770000.0 -11911900000.0 -9035780000.0 -9053580000.0 -9035770000.0 -9035760000.0 -9035760000.0 -9035760000.0 -9035760000.0 -9035790000.0 -9035750000.0 -9103040000.0 -9035750000.0 -9035790000.0 -9035760000.0 -9035760000.0 -9035760000.0 -9035760000.0 -9035770000.0 -9053580000.0 -9035780000.0 -11911900000.0 -9035770000.0 -18811500000.0 -9035780000.0 -22319600000.0 -9035800000.0 -22188900000.0 -9035830000.0 -21116600000.0 -9035870000.0 -18478800000.0 -11329200000.0 -20266000000.0 -18491200000.0 -27208800000.0 -30148200000.0 -39261700000.0 -48494600000.0 -60290000000.0 -50841500000.0 -47404000000.0 -37409200000.0 -23173800000.0 -19857100000.0 -28195900000.0 -25719600000.0 -26669800000.0 -28116700000.0 -27006600000.0 -26170700000.0 -25231800000.0 -26571000000.0 -19539100000.0 -22874500000.0 -35124000000.0 -45195000000.0 -48498700000.0 -55414300000.0 -44568500000.0 -36469800000.0 -27854000000.0 -25538900000.0 -17308400000.0 -19572000000.0 -11031200000.0 -17932600000.0 -9035870000.0 -19967900000.0 -9035830000.0 -20764900000.0 -9035800000.0 -20644000000.0 -9035780000.0 -17168900000.0 -9035770000.0 -11131500000.0 -9035770000.0 -9043680000.0 -9035770000.0 -9035760000.0 -9035760000.0 -9035760000.0 -9035760000.0 -9035760000.0 -9035750000.0 -9088410000.0 -9035750000.0 -9035760000.0 -9035760000.0 -9035760000.0 -9035760000.0 -9035760000.0 -9035770000.0 -9043680000.0 -9035770000.0 -11131500000.0 -9035770000.0 -17168900000.0 -9035780000.0 -20644000000.0 -9035800000.0 -20764900000.0 -9035830000.0 -19967900000.0 -9035870000.0 -17932600000.0 -11031200000.0 -19572000000.0 -17308400000.0 -25538900000.0 -27854000000.0 -36469800000.0 -44568500000.0 -55414300000.0 -48498700000.0 -45195000000.0 -35124000000.0 -22874500000.0 -19539100000.0 -26571000000.0 -25231800000.0 -26170700000.0 -27006600000.0 -25939900000.0 -25583900000.0 -24658200000.0 -25067000000.0 -19159900000.0 -22531100000.0 -33051100000.0 -42959900000.0 -46018600000.0 -50917600000.0 -40927600000.0 -33850800000.0 -25716600000.0 -23980600000.0 -16235600000.0 -18864600000.0 -10750200000.0 -17373100000.0 -9035870000.0 -18886500000.0 -9035830000.0 -19452700000.0 -9035800000.0 -19131900000.0 -9035780000.0 -15758000000.0 -9035770000.0 -10546000000.0 -9035770000.0 -9039060000.0 -9035760000.0 -9035760000.0 -9035760000.0 -9035760000.0 -9035760000.0 -9035760000.0 -9035750000.0 -9076940000.0 -9035750000.0 -9035760000.0 -9035760000.0 -9035760000.0 -9035760000.0 -9035760000.0 -9035760000.0 -9039060000.0 -9035770000.0 -10546000000.0 -9035770000.0 -15758000000.0 -9035780000.0 -19131900000.0 -9035800000.0 -19452700000.0 -9035830000.0 -18886500000.0 -9035870000.0 -17373100000.0 -10750200000.0 -18864600000.0 -16235600000.0 -23980600000.0 -25716600000.0 -33850800000.0 -40927600000.0 -50917600000.0 -46018600000.0 -42959900000.0 -33051100000.0 -22531100000.0 -19159900000.0 -25067000000.0 -24658200000.0 -25583900000.0 -25939900000.0 -24909500000.0 -24920700000.0 -24010300000.0 -23674300000.0 -18728000000.0 -22130900000.0 -31152700000.0 -40718400000.0 -43454800000.0 -46785500000.0 -37571700000.0 -31411800000.0 -23747200000.0 -22533300000.0 -15269300000.0 -18155300000.0 -10490800000.0 -16806700000.0 -9035870000.0 -17875700000.0 -9035830000.0 -18249300000.0 -9035800000.0 -17776300000.0 -9035780000.0 -14556000000.0 -9035770000.0 -10112100000.0 -9035770000.0 -9037040000.0 -9035760000.0 -9035760000.0 -9035760000.0 -9035760000.0 -9035760000.0 -9035750000.0 -9035750000.0 -9067940000.0 -9035750000.0 -9035750000.0 -9035760000.0 -9035760000.0 -9035760000.0 -9035760000.0 -9035760000.0 -9037040000.0 -9035770000.0 -10112100000.0 -9035770000.0 -14556000000.0 -9035780000.0 -17776300000.0 -9035800000.0 -18249300000.0 -9035830000.0 -17875700000.0 -9035870000.0 -16806700000.0 -10490800000.0 -18155300000.0 -15269300000.0 -22533300000.0 -23747200000.0 -31411800000.0 -37571700000.0 -46785500000.0 -43454800000.0 -40718400000.0 -31152700000.0 -22130900000.0 -18728000000.0 -23674300000.0 -24010300000.0 -24920700000.0 -24909500000.0 -23908100000.0 -24191100000.0 -23299100000.0 -22383000000.0 -18251800000.0 -21668100000.0 -29397300000.0 -38488000000.0 -40854200000.0 -42996500000.0 -34493600000.0 -29153000000.0 -21949200000.0 -21193800000.0 -14404800000.0 -17453200000.0 -10256100000.0 -16239200000.0 -9035860000.0 -16936300000.0 -9035820000.0 -17151100000.0 -9035800000.0 -16568400000.0 -9035780000.0 -13540300000.0 -9035770000.0 -9794430000.0 -9035770000.0 -9036220000.0 -9035760000.0 -9035760000.0 -9035760000.0 -9035760000.0 -9035750000.0 -9035750000.0 -9035750000.0 -9060890000.0 -9035750000.0 -9035750000.0 -9035750000.0 -9035760000.0 -9035760000.0 -9035760000.0 -9035760000.0 -9036220000.0 -9035770000.0 -9794430000.0 -9035770000.0 -13540300000.0 -9035780000.0 -16568400000.0 -9035800000.0 -17151100000.0 -9035820000.0 -16936300000.0 -9035860000.0 -16239200000.0 -10256100000.0 -17453200000.0 -14404800000.0 -21193800000.0 -21949200000.0 -29153000000.0 -34493600000.0 -42996500000.0 -40854200000.0 -38488000000.0 -29397300000.0 -21668100000.0 -18251800000.0 -22383000000.0 -23299100000.0 -24191100000.0 -23908100000.0 -22928400000.0 -23404200000.0 -22534300000.0 -21183200000.0 -17738800000.0 -21141800000.0 -27759000000.0 -36282900000.0 -38256000000.0 -39524400000.0 -31680400000.0 -27068800000.0 -20320600000.0 -19956600000.0 -13635700000.0 -16765100000.0 -10047400000.0 -15675600000.0 -9035860000.0 -16067700000.0 -9035820000.0 -16153300000.0 -9035800000.0 -15498100000.0 -9035780000.0 -12688600000.0 -9035770000.0 -9564640000.0 -9035770000.0 -9035910000.0 -9035760000.0 -9035760000.0 -9035760000.0 -9035760000.0 -9035750000.0 -9035750000.0 -9035750000.0 -9055370000.0 -9035750000.0 -9035750000.0 -9035750000.0 -9035760000.0 -9035760000.0 -9035760000.0 -9035760000.0 -9035910000.0 -9035770000.0 -9564640000.0 -9035770000.0 -12688600000.0 -9035780000.0 -15498100000.0 -9035800000.0 -16153300000.0 -9035820000.0 -16067700000.0 -9035860000.0 -15675600000.0 -10047400000.0 -16765100000.0 -13635700000.0 -19956600000.0 -20320600000.0 -27068800000.0 -31680400000.0 -39524400000.0 -38256000000.0 -36282900000.0 -27759000000.0 -21141800000.0 -17738800000.0 -21183200000.0 -22534300000.0 -23404200000.0 -22928400000.0 -21963700000.0 -22568200000.0 -21724600000.0 -20065000000.0 -17196000000.0 -20554400000.0 -26216500000.0 -34113900000.0 -35692600000.0 -36340900000.0 -29115300000.0 -25150100000.0 -18854600000.0 -18815000000.0 -12955600000.0 -16095800000.0 -9864860000.0 -15120300000.0 -9035860000.0 -15267800000.0 -9035820000.0 -15250600000.0 -9035790000.0 -14554600000.0 -9035780000.0 -11979900000.0 -9035770000.0 -9400370000.0 -9035770000.0 -9035810000.0 -9035760000.0 -9035760000.0 -9035760000.0 -9035760000.0 -9035750000.0 -9035750000.0 -9035750000.0 -9051040000.0 -9035750000.0 -9035750000.0 -9035750000.0 -9035760000.0 -9035760000.0 -9035760000.0 -9035760000.0 -9035810000.0 -9035770000.0 -9400370000.0 -9035770000.0 -11979900000.0 -9035780000.0 -14554600000.0 -9035790000.0 -15250600000.0 -9035820000.0 -15267800000.0 -9035860000.0 -15120300000.0 -9864860000.0 -16095800000.0 -12955600000.0 -18815000000.0 -18854600000.0 -25150100000.0 -29115300000.0 -36340900000.0 -35692600000.0 -34113900000.0 -26216500000.0 -20554400000.0 -17196000000.0 -20065000000.0 -21724600000.0 -22568200000.0 -21963700000.0 -21008500000.0 -21690200000.0 -20877900000.0 -19018900000.0 -16629900000.0 -19909900000.0 -24751600000.0 -31988700000.0 -33188800000.0 -33416800000.0 -26779200000.0 -23385100000.0 -17541600000.0 -17761400000.0 -12357200000.0 -15448500000.0 -9707720000.0 -14576600000.0 -9035850000.0 -14533600000.0 -9035820000.0 -14436900000.0 -9035790000.0 -13726700000.0 -9035780000.0 -11394400000.0 -9035770000.0 -9284330000.0 -9035770000.0 -9035780000.0 -9035760000.0 -9035760000.0 -9035760000.0 -9035760000.0 -9035750000.0 -9035750000.0 -9035750000.0 -9047660000.0 -9035750000.0 -9035750000.0 -9035750000.0 -9035760000.0 -9035760000.0 -9035760000.0 -9035760000.0 -9035780000.0 -9035770000.0 -9284330000.0 -9035770000.0 -11394400000.0 -9035780000.0 -13726700000.0 -9035790000.0 -14436900000.0 -9035820000.0 -14533600000.0 -9035850000.0 -14576600000.0 -9707720000.0 -15448500000.0 -12357200000.0 -17761400000.0 -17541600000.0 -23385100000.0 -26779200000.0 -33416800000.0 -33188800000.0 -31988700000.0 -24751600000.0 -19909900000.0 -16629900000.0 -19018900000.0 -20877900000.0 -21690200000.0 -21008500000.0 -20058200000.0 -20776600000.0 -20000800000.0 -18035400000.0 -16045800000.0 -19213200000.0 -23349600000.0 -29911700000.0 -30763100000.0 -30723700000.0 -24651400000.0 -21760600000.0 -16369800000.0 -16787900000.0 -11833400000.0 -14824900000.0 -9574390000.0 -14047000000.0 -9035850000.0 -13861300000.0 -9035810000.0 -13705800000.0 -9035790000.0 -13003200000.0 -9035780000.0 -10914000000.0 -9035770000.0 -9203300000.0 -9035770000.0 -9035770000.0 -9035760000.0 -9035760000.0 -9035760000.0 -9035760000.0 -9035750000.0 -9035750000.0 -9035750000.0 -9045010000.0 -9035750000.0 -9035750000.0 -9035750000.0 -9035760000.0 -9035760000.0 -9035760000.0 -9035760000.0 -9035770000.0 -9035770000.0 -9203300000.0 -9035770000.0 -10914000000.0 -9035780000.0 -13003200000.0 -9035790000.0 -13705800000.0 -9035810000.0 -13861300000.0 -9035850000.0 -14047000000.0 -9574390000.0 -14824900000.0 -11833400000.0 -16787900000.0 -16369800000.0 -21760600000.0 -24651400000.0 -30723700000.0 -30763100000.0 -29911700000.0 -23349600000.0 -19213200000.0 -16045800000.0 -18035400000.0 -20000800000.0 -20776600000.0 -20058200000.0 -19109400000.0 -19832700000.0 -19099100000.0 -17105800000.0 -15448500000.0 -18469500000.0 -21997600000.0 -27884900000.0 -28427900000.0 -28234100000.0 -22711300000.0 -20262600000.0 -15326700000.0 -15886600000.0 -11377200000.0 -14225500000.0 -9462820000.0 -13533300000.0 -9035840000.0 -13246500000.0 -9035810000.0 -13050700000.0 -9035790000.0 -12373100000.0 -9035780000.0 -10522500000.0 -9035770000.0 -9147400000.0 -9035760000.0 -9035760000.0 -9035760000.0 -9035760000.0 -9035760000.0 -9035760000.0 -9035750000.0 -9035750000.0 -9035750000.0 -9042940000.0 -9035750000.0 -9035750000.0 -9035750000.0 -9035760000.0 -9035760000.0 -9035760000.0 -9035760000.0 -9035760000.0 -9035760000.0 -9147400000.0 -9035770000.0 -10522500000.0 -9035780000.0 -12373100000.0 -9035790000.0 -13050700000.0 -9035810000.0 -13246500000.0 -9035840000.0 -13533300000.0 -9462820000.0 -14225500000.0 -11377200000.0 -15886600000.0 -15326700000.0 -20262600000.0 -22711300000.0 -28234100000.0 -28427900000.0 -27884900000.0 -21997600000.0 -18469500000.0 -15448500000.0 -17105800000.0 -19099100000.0 -19832700000.0 -19109400000.0 -18159700000.0 -18863300000.0 -18177700000.0 -16222000000.0 -14842200000.0 -17684000000.0 -20685000000.0 -25908200000.0 -26190200000.0 -25922300000.0 -20938100000.0 -18877100000.0 -14399000000.0 -15049600000.0 -10981300000.0 -13649800000.0 -9370680000.0 -13036400000.0 -9035830000.0 -12684700000.0 -9035800000.0 -12464500000.0 -9035780000.0 -11825800000.0 -9035770000.0 -10205200000.0 -9035770000.0 -9109280000.0 -9035760000.0 -9035760000.0 -9035760000.0 -9035760000.0 -9035760000.0 -9035750000.0 -9035750000.0 -9035750000.0 -9035750000.0 -9041320000.0 -9035750000.0 -9035750000.0 -9035750000.0 -9035750000.0 -9035760000.0 -9035760000.0 -9035760000.0 -9035760000.0 -9035760000.0 -9109280000.0 -9035770000.0 -10205200000.0 -9035770000.0 -11825800000.0 -9035780000.0 -12464500000.0 -9035800000.0 -12684700000.0 -9035830000.0 -13036400000.0 -9370680000.0 -13649800000.0 -10981300000.0 -15049600000.0 -14399000000.0 -18877100000.0 -20938100000.0 -25922300000.0 -26190200000.0 -25908200000.0 -20685000000.0 -17684000000.0 -14842200000.0 -16222000000.0 -18177700000.0 -18863300000.0 -18159700000.0 -17240800000.0 -15376700000.0 -14229900000.0 -16861700000.0 -19402700000.0 -23980000000.0 -24052300000.0 -23764500000.0 -19311900000.0 -17590700000.0 -13573600000.0 -14269600000.0 -10639200000.0 -13096900000.0 -9295500000.0 -12556800000.0 -9035830000.0 -12170900000.0 -9035800000.0 -11940300000.0 -9035780000.0 -11351100000.0 -9035770000.0 -9949450000.0 -9035770000.0 -9083590000.0 -9035760000.0 -9035760000.0 -9035760000.0 -9035760000.0 -9035760000.0 -9035750000.0 -9035750000.0 -9035750000.0 -9035750000.0 -9040050000.0 -9035750000.0 -9035750000.0 -9035750000.0 -9035750000.0 -9035760000.0 -9035760000.0 -9035760000.0 -9035760000.0 -9035760000.0 -9083590000.0 -9035770000.0 -9949450000.0 -9035770000.0 -11351100000.0 -9035780000.0 -11940300000.0 -9035800000.0 -12170900000.0 -9035830000.0 -12556800000.0 -9295500000.0 -13096900000.0 -10639200000.0 -14269600000.0 -13573600000.0 -17590700000.0 -19311900000.0 -23764500000.0 -24052300000.0 -23980000000.0 -19402700000.0 -16861700000.0 -14229900000.0 -15376700000.0 -17240800000.0 -17207400000.0 -17872500000.0 -17872500000.0 -17207400000.0 -16251800000.0 -16863900000.0 -16291500000.0 -14563300000.0 -13614400000.0 -16007200000.0 -18143200000.0 -22097400000.0 -22012300000.0 -21738700000.0 -17813700000.0 -16390300000.0 -12837700000.0 -13539300000.0 -10344100000.0 -12565100000.0 -9234840000.0 -12094100000.0 -9035820000.0 -11700100000.0 -9035790000.0 -11471100000.0 -9035780000.0 -10939400000.0 -9035770000.0 -9744060000.0 -9035760000.0 -9066500000.0 -9035760000.0 -9035760000.0 -9035760000.0 -9035760000.0 -9035760000.0 -9035750000.0 -9035750000.0 -9035750000.0 -9035750000.0 -9039060000.0 -9035750000.0 -9035750000.0 -9035750000.0 -9035750000.0 -9035760000.0 -9035760000.0 -9035760000.0 -9035760000.0 -9035760000.0 -9066500000.0 -9035760000.0 -9744060000.0 -9035770000.0 -10939400000.0 -9035780000.0 -11471100000.0 -9035790000.0 -11700100000.0 -9035820000.0 -12094100000.0 -9234840000.0 -12565100000.0 -10344100000.0 -13539300000.0 -12837700000.0 -16390300000.0 -17813700000.0 -21738700000.0 -22012300000.0 -22097400000.0 -18143200000.0 -16007200000.0 -13614400000.0 -14563300000.0 -16291500000.0 -16863900000.0 -16251800000.0 -15292600000.0 -15840400000.0 -15332900000.0 -13776000000.0 -12997600000.0 -15125000000.0 -16900400000.0 -20256500000.0 -20065300000.0 -19825000000.0 -16425600000.0 -15263500000.0 -12179100000.0 -12852100000.0 -10089700000.0 -12052300000.0 -9186360000.0 -11647500000.0 -9035810000.0 -11267200000.0 -9035790000.0 -11049900000.0 -9035780000.0 -10581700000.0 -9035770000.0 -9579470000.0 -9035760000.0 -9055250000.0 -9035760000.0 -9035760000.0 -9035760000.0 -9035760000.0 -9035760000.0 -9035750000.0 -9035750000.0 -9035750000.0 -9035750000.0 -9038270000.0 -9035750000.0 -9035750000.0 -9035750000.0 -9035750000.0 -9035760000.0 -9035760000.0 -9035760000.0 -9035760000.0 -9035760000.0 -9055250000.0 -9035760000.0 -9579470000.0 -9035770000.0 -10581700000.0 -9035780000.0 -11049900000.0 -9035790000.0 -11267200000.0 -9035810000.0 -11647500000.0 -9186360000.0 -12052300000.0 -10089700000.0 -12852100000.0 -12179100000.0 -15263500000.0 -16425600000.0 -19825000000.0 -20065300000.0 -20256500000.0 -16900400000.0 -15125000000.0 -12997600000.0 -13776000000.0 -15332900000.0 -15840400000.0 -15292600000.0 -14329800000.0 -14804900000.0 -14367000000.0 -13010000000.0 -12380700000.0 -14219400000.0 -15669200000.0 -18453000000.0 -18203400000.0 -18004900000.0 -15130500000.0 -14198800000.0 -11586000000.0 -12201300000.0 -9870000000.0 -11556300000.0 -9147860000.0 -11215800000.0 -9035800000.0 -10866900000.0 -9035780000.0 -10669900000.0 -9035770000.0 -10269300000.0 -9035770000.0 -9447440000.0 -9035760000.0 -9047950000.0 -9035760000.0 -9035760000.0 -9035760000.0 -9035760000.0 -9035750000.0 -9035750000.0 -9035750000.0 -9035750000.0 -9035750000.0 -9037660000.0 -9035750000.0 -9035750000.0 -9035750000.0 -9035750000.0 -9035750000.0 -9035760000.0 -9035760000.0 -9035760000.0 -9035760000.0 -9047950000.0 -9035760000.0 -9447440000.0 -9035770000.0 -10269300000.0 -9035770000.0 -10669900000.0 -9035780000.0 -10866900000.0 -9035800000.0 -11215800000.0 -9147860000.0 -11556300000.0 -9870000000.0 -12201300000.0 -11586000000.0 -14198800000.0 -15130500000.0 -18004900000.0 -18203400000.0 -18453000000.0 -15669200000.0 -14219400000.0 -12380700000.0 -13010000000.0 -14367000000.0 -14804900000.0 -14329800000.0 -13363800000.0 -13759500000.0 -13395700000.0 -12260600000.0 -11764700000.0 -13294500000.0 -14445900000.0 -16681800000.0 -16416500000.0 -16261400000.0 -13912300000.0 -13185400000.0 -11047200000.0 -11580900000.0 -9679100000.0 -11074600000.0 -9117370000.0 -10797200000.0 -9035790000.0 -10494200000.0 -9035780000.0 -10324500000.0 -9035770000.0 -9994460000.0 -9035760000.0 -9340960000.0 -9035760000.0 -9043250000.0 -9035760000.0 -9035760000.0 -9035760000.0 -9035750000.0 -9035750000.0 -9035750000.0 -9035750000.0 -9035750000.0 -9035750000.0 -9037160000.0 -9035750000.0 -9035750000.0 -9035750000.0 -9035750000.0 -9035750000.0 -9035750000.0 -9035760000.0 -9035760000.0 -9035760000.0 -9043250000.0 -9035760000.0 -9340960000.0 -9035760000.0 -9994460000.0 -9035770000.0 -10324500000.0 -9035780000.0 -10494200000.0 -9035790000.0 -10797200000.0 -9117370000.0 -11074600000.0 -9679100000.0 -11580900000.0 -11047200000.0 -13185400000.0 -13912300000.0 -16261400000.0 -16416500000.0 -16681800000.0 -14445900000.0 -13294500000.0 -11764700000.0 -12260600000.0 -13395700000.0 -13759500000.0 -13363800000.0 -12395000000.0 -12706500000.0 -12420400000.0 -11524300000.0 -11150100000.0 -12353900000.0 -13227600000.0 -14937300000.0 -14692800000.0 -14578900000.0 -12755800000.0 -12212900000.0 -10552000000.0 -10984900000.0 -9511400000.0 -10604700000.0 -9093100000.0 -10389900000.0 -9035790000.0 -10143900000.0 -9035770000.0 -10006900000.0 -9035770000.0 -9749470000.0 -9035760000.0 -9253990000.0 -9035760000.0 -9040250000.0 -9035760000.0 -9035760000.0 -9035760000.0 -9035750000.0 -9035750000.0 -9035750000.0 -9035750000.0 -9035750000.0 -9035750000.0 -9036760000.0 -9035750000.0 -9035750000.0 -9035750000.0 -9035750000.0 -9035750000.0 -9035750000.0 -9035760000.0 -9035760000.0 -9035760000.0 -9040250000.0 -9035760000.0 -9253990000.0 -9035760000.0 -9749470000.0 -9035770000.0 -10006900000.0 -9035770000.0 -10143900000.0 -9035790000.0 -10389900000.0 -9093100000.0 -10604700000.0 -9511400000.0 -10984900000.0 -10552000000.0 -12212900000.0 -12755800000.0 -14578900000.0 -14692800000.0 -14937300000.0 -13227600000.0 -12353900000.0 -11150100000.0 -11524300000.0 -12420400000.0 -12706500000.0 -12395000000.0 -11424000000.0 -11647700000.0 -11442300000.0 -10797400000.0 -10536700000.0 -11401400000.0 -12012400000.0 -13213900000.0 -13019400000.0 -12942500000.0 -11646400000.0 -11271700000.0 -10090100000.0 -10407700000.0 -9361460000.0 -10144000000.0 -9073420000.0 -9991440000.0 -9035780000.0 -9811030000.0 -9035770000.0 -9710880000.0 -9035760000.0 -9527250000.0 -9035760000.0 -9181340000.0 -9035760000.0 -9038330000.0 -9035760000.0 -9035750000.0 -9035750000.0 -9035750000.0 -9035750000.0 -9035750000.0 -9035750000.0 -9035750000.0 -9035750000.0 -9036420000.0 -9035750000.0 -9035750000.0 -9035750000.0 -9035750000.0 -9035750000.0 -9035750000.0 -9035750000.0 -9035750000.0 -9035760000.0 -9038330000.0 -9035760000.0 -9181340000.0 -9035760000.0 -9527250000.0 -9035760000.0 -9710880000.0 -9035770000.0 -9811030000.0 -9035780000.0 -9991440000.0 -9073420000.0 -10144000000.0 -9361460000.0 -10407700000.0 -10090100000.0 -11271700000.0 -11646400000.0 -12942500000.0 -13019400000.0 -13213900000.0 -12012400000.0 -11401400000.0 -10536700000.0 -10797400000.0 -11442300000.0 -11647700000.0 -11424000000.0 -10451300000.0 -10584800000.0 -10462200000.0 -10077100000.0 -9924570000.0 -10440500000.0 -10798900000.0 -11505600000.0 -11382200000.0 -11338400000.0 -10570100000.0 -10352300000.0 -9651600000.0 -9843630000.0 -9224020000.0 -9689910000.0 -9056910000.0 -9599490000.0 -9035770000.0 -9490430000.0 -9035760000.0 -9430020000.0 -9035760000.0 -9320980000.0 -9035760000.0 -9118430000.0 -9035760000.0 -9037060000.0 -9035750000.0 -9035750000.0 -9035750000.0 -9035750000.0 -9035750000.0 -9035750000.0 -9035750000.0 -9035750000.0 -9035750000.0 -9036130000.0 -9035750000.0 -9035750000.0 -9035750000.0 -9035750000.0 -9035750000.0 -9035750000.0 -9035750000.0 -9035750000.0 -9035750000.0 -9037060000.0 -9035760000.0 -9118430000.0 -9035760000.0 -9320980000.0 -9035760000.0 -9430020000.0 -9035760000.0 -9490430000.0 -9035770000.0 -9599490000.0 -9056910000.0 -9689910000.0 -9224020000.0 -9843630000.0 -9651600000.0 -10352300000.0 -10570100000.0 -11338400000.0 -11382200000.0 -11505600000.0 -10798900000.0 -10440500000.0 -9924570000.0 -10077100000.0 -10462200000.0 -10584800000.0 -10451300000.0 -9477680000.0 -9519450000.0 -9481100000.0 -9360500000.0 -9313130000.0 -9474620000.0 -9586030000.0 -9806010000.0 -9766520000.0 -9753050000.0 -9513180000.0 -9445700000.0 -9226910000.0 -9287320000.0 -9093950000.0 -9239640000.0 -9042210000.0 -9211420000.0 -9035760000.0 -9177110000.0 -9035760000.0 -9158120000.0 -9035750000.0 -9124060000.0 -9035750000.0 -9061120000.0 -9035750000.0 -9036140000.0 -9035750000.0 -9035750000.0 -9035750000.0 -9035750000.0 -9035750000.0 -9035750000.0 -9035750000.0 -9035750000.0 -9035750000.0 -9035870000.0 -9035750000.0 -9035750000.0 -9035750000.0 -9035750000.0 -9035750000.0 -9035750000.0 -9035750000.0 -9035750000.0 -9035750000.0 -9036140000.0 -9035750000.0 -9061120000.0 -9035750000.0 -9124060000.0 -9035750000.0 -9158120000.0 -9035760000.0 -9177110000.0 -9035760000.0 -9211420000.0 -9042210000.0 -9239640000.0 -9093950000.0 -9287320000.0 -9226910000.0 -9445700000.0 -9513180000.0 -9753050000.0 -9766520000.0 -9806010000.0 -9586030000.0 -9474620000.0 -9313130000.0 -9360500000.0 -9481100000.0 -9519450000.0 -9477680000.0 
SCALARS Shear_Stress float 1
LOOKUP_TABLE default
31342700000.0 31342700000.0 31937900000.0 23993200000.0 758014000000.0 27339500000.0 41674900000.0 41674900000.0 27339500000.0 758014000000.0 23993200000.0 31937900000.0 25712600000.0 128181000000.0 424801000000.0 30144700000.0 93543700000.0 65331600000.0 69574400000.0 21419400000.0 24780600000.0 17797300000.0 12097500000.0 5887210000.0 13954100000.0 9800100000.0 13894400000.0 9423090000.0 13624500000.0 9423090000.0 13894400000.0 9800110000.0 13954100000.0 5887220000.0 12097500000.0 17797300000.0 24780600000.0 21419400000.0 69574400000.0 65331600000.0 93543700000.0 30144700000.0 424801000000.0 128181000000.0 25712600000.0 28396200000.0 118560000000.0 494876000000.0 262933000000.0 74965200000.0 99413200000.0 44581000000.0 44580900000.0 99413200000.0 74965200000.0 262933000000.0 494876000000.0 118560000000.0 28396200000.0 35480800000.0 162335000000.0 130905000000.0 72029800000.0 560300000000.0 540216000000.0 232925000000.0 383250000000.0 217083000000.0 95890500000.0 103239000000.0 87842100000.0 7919120000.0 64230300000.0 37409200000.0 52529900000.0 36160200000.0 44888500000.0 31741900000.0 42993300000.0 31741900000.0 44888500000.0 36160200000.0 52529900000.0 37409200000.0 64230300000.0 7919120000.0 87842100000.0 103239000000.0 95890500000.0 217083000000.0 383250000000.0 232925000000.0 540216000000.0 560300000000.0 72029800000.0 130905000000.0 162335000000.0 35480800000.0 56571800000.0 47842600000.0 202058000000.0 18742000000.0 35076300000.0 301160000000.0 380487000000.0 86672800000.0 149693000000.0 136118000000.0 106575000000.0 36128700000.0 79692000000.0 44696100000.0 77323900000.0 44487200000.0 78173400000.0 60085600000.0 79053900000.0 62096800000.0 80291000000.0 62096800000.0 79053900000.0 60085600000.0 78173400000.0 44487200000.0 77323900000.0 44696100000.0 79692000000.0 36128700000.0 106575000000.0 136118000000.0 149693000000.0 86672800000.0 380487000000.0 301160000000.0 35076300000.0 18742000000.0 202058000000.0 47842600000.0 56571800000.0 68826900000.0 232558000000.0 82027000000.0 181962000000.0 479254000000.0 272963000000.0 32172000000.0 215106000000.0 18896000000.0 18896000000.0 215106000000.0 32172000000.0 272963000000.0 479254000000.0 181962000000.0 82027000000.0 232558000000.0 68826900000.0 83820400000.0 265932000000.0 179033000000.0 133397000000.0 27620400000.0 62243400000.0 375426000000.0 422843000000.0 310143000000.0 251535000000.0 205388000000.0 26993800000.0 3763650000.0 56059500000.0 99133800000.0 56258600000.0 12102200000.0 61909200000.0 39251500000.0 64884300000.0 42888400000.0 66247700000.0 42888400000.0 64884300000.0 39251500000.0 61909300000.0 12102200000.0 56258700000.0 99133800000.0 56059600000.0 3763650000.0 26993800000.0 205388000000.0 251535000000.0 310143000000.0 422843000000.0 375426000000.0 62243400000.0 27620400000.0 133397000000.0 179033000000.0 265932000000.0 83820400000.0 100806000000.0 333480000000.0 297511000000.0 218006000000.0 82332100000.0 78906100000.0 246332000000.0 475823000000.0 404019000000.0 195041000000.0 57591600000.0 9035870000.0 107940000000.0 12778600000.0 29613900000.0 155342000000.0 32612300000.0 27012300000.0 44140600000.0 17079000000.0 52077600000.0 24871200000.0 54548300000.0 24871300000.0 52077600000.0 17079100000.0 44140600000.0 27012200000.0 32612300000.0 155342000000.0 29613900000.0 12778600000.0 107940000000.0 9035870000.0 57591600000.0 195041000000.0 404019000000.0 475823000000.0 246332000000.0 78906100000.0 82332100000.0 218006000000.0 297511000000.0 333480000000.0 100806000000.0 134316000000.0 118944000000.0 372036000000.0 269464000000.0 116613000000.0 9070700000.0 42921700000.0 270566000000.0 416645000000.0 470574000000.0 246053000000.0 20096800000.0 52332200000.0 22164200000.0 22164200000.0 52332200000.0 20096800000.0 246053000000.0 470574000000.0 416645000000.0 270566000000.0 42921700000.0 9070700000.0 116613000000.0 269464000000.0 372036000000.0 118944000000.0 134316000000.0 146653000000.0 409565000000.0 328044000000.0 257952000000.0 178697000000.0 65354500000.0 23229900000.0 31178200000.0 469703000000.0 339974000000.0 19116000000.0 3470090000.0 58905600000.0 75560300000.0 242083000000.0 273942000000.0 63533400000.0 71461700000.0 118857000000.0 34243000000.0 119125000000.0 78226700000.0 115425000000.0 82033100000.0 116469000000.0 82033100000.0 115425000000.0 78226700000.0 119125000000.0 34243000000.0 118857000000.0 71461700000.0 63533400000.0 273942000000.0 242083000000.0 75560200000.0 58905600000.0 3470080000.0 19116000000.0 339974000000.0 469703000000.0 31178200000.0 23229900000.0 65354500000.0 178697000000.0 257952000000.0 328044000000.0 409565000000.0 146653000000.0 146853000000.0 440432000000.0 429985000000.0 445413000000.0 389707000000.0 344053000000.0 157184000000.0 41114300000.0 17938200000.0 292584000000.0 466902000000.0 47589300000.0 23104000000.0 48346900000.0 79860900000.0 198779000000.0 253333000000.0 65923100000.0 193602000000.0 91945100000.0 181459000000.0 136559000000.0 172627000000.0 136318000000.0 169935000000.0 136318000000.0 172627000000.0 136559000000.0 181459000000.0 91945200000.0 193602000000.0 65923100000.0 253333000000.0 198779000000.0 79860900000.0 48346900000.0 23104000000.0 47589300000.0 466902000000.0 292584000000.0 17938200000.0 41114300000.0 157184000000.0 344053000000.0 389707000000.0 445413000000.0 429985000000.0 440432000000.0 146853000000.0 129920000000.0 135347000000.0 419230000000.0 460081000000.0 430368000000.0 274535000000.0 58174700000.0 32203400000.0 71206100000.0 176121000000.0 634457000000.0 85962100000.0 3484870000.0 82936000000.0 135587000000.0 260793000000.0 242483000000.0 242483000000.0 260793000000.0 135587000000.0 82936000000.0 3484850000.0 85962100000.0 634457000000.0 176121000000.0 71206100000.0 32203400000.0 58174700000.0 274535000000.0 430368000000.0 460081000000.0 419230000000.0 135347000000.0 129920000000.0 129912000000.0 375680000000.0 465749000000.0 487149000000.0 505663000000.0 492856000000.0 388066000000.0 333772000000.0 166319000000.0 63391400000.0 279979000000.0 697977000000.0 107955000000.0 54759500000.0 102706000000.0 137651000000.0 208978000000.0 219686000000.0 235555000000.0 129976000000.0 217412000000.0 260022000000.0 156671000000.0 236871000000.0 189807000000.0 216196000000.0 185256000000.0 215316000000.0 185256000000.0 216196000000.0 189807000000.0 236871000000.0 156671000000.0 260022000000.0 217412000000.0 129976000000.0 235555000000.0 219686000000.0 208978000000.0 137651000000.0 102706000000.0 54759400000.0 107955000000.0 697977000000.0 279979000000.0 63391400000.0 166319000000.0 333772000000.0 388066000000.0 492856000000.0 505663000000.0 487149000000.0 465749000000.0 375680000000.0 129912000000.0 136355000000.0 364775000000.0 324627000000.0 412513000000.0 502547000000.0 599560000000.0 452157000000.0 209568000000.0 96334300000.0 767777000000.0 179689000000.0 48746300000.0 54972100000.0 113736000000.0 194410000000.0 179580000000.0 212428000000.0 169362000000.0 203081000000.0 257563000000.0 182870000000.0 249325000000.0 211036000000.0 227788000000.0 204085000000.0 223164000000.0 204086000000.0 227788000000.0 211036000000.0 249325000000.0 182870000000.0 257563000000.0 203081000000.0 169362000000.0 212428000000.0 179580000000.0 194410000000.0 113736000000.0 54972100000.0 48746400000.0 179689000000.0 767777000000.0 96334300000.0 209568000000.0 452157000000.0 599560000000.0 502547000000.0 412513000000.0 324627000000.0 364775000000.0 136355000000.0 145153000000.0 380405000000.0 368766000000.0 339571000000.0 403231000000.0 482597000000.0 559356000000.0 502248000000.0 435597000000.0 243027000000.0 71908200000.0 55324000000.0 393420000000.0 29971300000.0 184335000000.0 8762010000.0 12141100000.0 154953000000.0 76637500000.0 211041000000.0 173111000000.0 130447000000.0 130447000000.0 173111000000.0 211041000000.0 76637500000.0 154953000000.0 12141100000.0 8762000000.0 184335000000.0 29971300000.0 393420000000.0 55324000000.0 71908200000.0 243027000000.0 435597000000.0 502248000000.0 559356000000.0 482597000000.0 403231000000.0 339571000000.0 368766000000.0 380405000000.0 145153000000.0 154867000000.0 149283000000.0 378937000000.0 366103000000.0 234187000000.0 440062000000.0 586996000000.0 341289000000.0 743413000000.0 564982000000.0 593287000000.0 70156600000.0 491245000000.0 750673000000.0 143487000000.0 161713000000.0 324964000000.0 216509000000.0 141557000000.0 162076000000.0 113044000000.0 193491000000.0 242489000000.0 217831000000.0 260787000000.0 235338000000.0 240792000000.0 229313000000.0 235140000000.0 229313000000.0 240792000000.0 235338000000.0 260787000000.0 217831000000.0 242489000000.0 193491000000.0 113044000000.0 162076000000.0 141557000000.0 216509000000.0 324964000000.0 161713000000.0 143487000000.0 750673000000.0 491245000000.0 70156600000.0 593287000000.0 564982000000.0 743413000000.0 341289000000.0 586996000000.0 440062000000.0 234187000000.0 366103000000.0 378937000000.0 149283000000.0 154867000000.0 151674000000.0 384877000000.0 351179000000.0 285776000000.0 364234000000.0 186098000000.0 794427000000.0 1.024e+12 376943000000.0 291837000000.0 392361000000.0 69008900000.0 47566000000.0 180817000000.0 187551000000.0 62220000000.0 305543000000.0 182731000000.0 313278000000.0 189383000000.0 193151000000.0 209345000000.0 248821000000.0 264645000000.0 259113000000.0 249174000000.0 254662000000.0 245683000000.0 254662000000.0 249174000000.0 259113000000.0 264645000000.0 248821000000.0 209346000000.0 193151000000.0 189383000000.0 313278000000.0 182731000000.0 305543000000.0 62220000000.0 187551000000.0 180817000000.0 47566000000.0 69008900000.0 392361000000.0 291837000000.0 376943000000.0 1.024e+12 794427000000.0 186098000000.0 364234000000.0 285776000000.0 351179000000.0 384877000000.0 151674000000.0 135284000000.0 378586000000.0 365505000000.0 370526000000.0 339133000000.0 178402000000.0 406970000000.0 960187000000.0 97816600000.0 1.34335e+12 298658000000.0 513351000000.0 717690000000.0 330973000000.0 16622300000.0 426348000000.0 322504000000.0 242680000000.0 287390000000.0 248161000000.0 199717000000.0 73340100000.0 85355800000.0 27497300000.0 27497300000.0 85355800000.0 73340100000.0 199717000000.0 248161000000.0 287390000000.0 242680000000.0 322504000000.0 426348000000.0 16622300000.0 330973000000.0 717690000000.0 513351000000.0 298658000000.0 1.34335e+12 97816600000.0 960187000000.0 406970000000.0 178402000000.0 339133000000.0 370526000000.0 365505000000.0 378586000000.0 135284000000.0 44784500000.0 369862000000.0 364767000000.0 329668000000.0 285727000000.0 593545000000.0 24664300000.0 485630000000.0 999369000000.0 96493900000.0 1.03054e+12 1722240000.0 180238000000.0 260688000000.0 274542000000.0 313825000000.0 114583000000.0 135965000000.0 247999000000.0 63649400000.0 232148000000.0 169272000000.0 284147000000.0 268786000000.0 287175000000.0 255279000000.0 278396000000.0 250645000000.0 278396000000.0 255279000000.0 287175000000.0 268786000000.0 284147000000.0 169272000000.0 232148000000.0 63649400000.0 247999000000.0 135965000000.0 114583000000.0 313825000000.0 274542000000.0 260688000000.0 180238000000.0 1722230000.0 1.03054e+12 96493900000.0 999369000000.0 485630000000.0 24664300000.0 593545000000.0 285727000000.0 329668000000.0 364767000000.0 369862000000.0 44784500000.0 95566000000.0 54459000000.0 103657000000.0 334000000000.0 333963000000.0 364165000000.0 229477000000.0 78262300000.0 477325000000.0 305877000000.0 32541700000.0 621792000000.0 353795000000.0 945887000000.0 127599000000.0 341539000000.0 225065000000.0 122330000000.0 158166000000.0 87780300000.0 84856200000.0 84144900000.0 20284200000.0 105869000000.0 258202000000.0 302962000000.0 291859000000.0 282226000000.0 282226000000.0 291859000000.0 302962000000.0 258202000000.0 105869000000.0 20284200000.0 84144900000.0 84856200000.0 87780300000.0 158166000000.0 122330000000.0 225065000000.0 341539000000.0 127599000000.0 945887000000.0 353795000000.0 621792000000.0 32541700000.0 305877000000.0 477325000000.0 78262300000.0 229477000000.0 364165000000.0 333963000000.0 334000000000.0 103657000000.0 54459000000.0 95566000000.0 103605000000.0 165214000000.0 290680000000.0 317028000000.0 314173000000.0 380981000000.0 438007000000.0 59759700000.0 1.02023e+12 260371000000.0 584588000000.0 272678000000.0 113117000000.0 338675000000.0 99630800000.0 90609900000.0 161645000000.0 8725370000.0 120203000000.0 165847000000.0 182210000000.0 163231000000.0 38750400000.0 12380600000.0 157456000000.0 111173000000.0 250726000000.0 243852000000.0 240842000000.0 243852000000.0 250726000000.0 111173000000.0 157456000000.0 12380600000.0 38750400000.0 163231000000.0 182210000000.0 165847000000.0 120203000000.0 8725360000.0 161645000000.0 90609900000.0 99630800000.0 338675000000.0 113117000000.0 272678000000.0 584588000000.0 260372000000.0 1.02023e+12 59759700000.0 438007000000.0 380981000000.0 314173000000.0 317028000000.0 290680000000.0 165214000000.0 103605000000.0 156430000000.0 261420000000.0 27667800000.0 249088000000.0 262812000000.0 249830000000.0 312248000000.0 485980000000.0 247177000000.0 368069000000.0 120181000000.0 1.00082e+12 575342000000.0 160397000000.0 160645000000.0 11395900000.0 114276000000.0 102060000000.0 300873000000.0 234893000000.0 97222600000.0 47725800000.0 260240000000.0 48720300000.0 44778100000.0 125183000000.0 50094900000.0 79863100000.0 23422200000.0 58094300000.0 19415100000.0 58094300000.0 23422200000.0 79863100000.0 50094900000.0 125183000000.0 44778100000.0 48720300000.0 260240000000.0 47725800000.0 97222600000.0 234893000000.0 300873000000.0 102060000000.0 114276000000.0 11395900000.0 160645000000.0 160397000000.0 575342000000.0 1.00082e+12 120181000000.0 368069000000.0 247177000000.0 485980000000.0 312248000000.0 249830000000.0 262812000000.0 249088000000.0 27667800000.0 261420000000.0 156430000000.0 17696400000.0 596045000000.0 556200000000.0 167177000000.0 37857800000.0 199757000000.0 259924000000.0 313703000000.0 225575000000.0 251918000000.0 460028000000.0 506357000000.0 212696000000.0 359110000000.0 694838000000.0 463608000000.0 453189000000.0 241805000000.0 191214000000.0 90790000000.0 100281000000.0 76421400000.0 14143500000.0 14669000000.0 113633000000.0 19106800000.0 48916400000.0 48916400000.0 19106800000.0 113633000000.0 14669000000.0 14143500000.0 76421400000.0 100281000000.0 90790000000.0 191214000000.0 241805000000.0 453189000000.0 463608000000.0 694838000000.0 359110000000.0 212696000000.0 506357000000.0 460028000000.0 251918000000.0 225575000000.0 313703000000.0 259924000000.0 199757000000.0 37857800000.0 167177000000.0 556200000000.0 596045000000.0 17696400000.0 180893000000.0 93606200000.0 431842000000.0 266056000000.0 277479000000.0 143065000000.0 48146800000.0 504605000000.0 498533000000.0 480569000000.0 633268000000.0 523458000000.0 300227000000.0 327181000000.0 254349000000.0 317241000000.0 120671000000.0 229666000000.0 72871900000.0 327185000000.0 8745730000.0 86703100000.0 14353800000.0 31673800000.0 219543000000.0 100893000000.0 9705090000.0 196516000000.0 157517000000.0 202265000000.0 168261000000.0 203064000000.0 170809000000.0 203064000000.0 168261000000.0 202265000000.0 157517000000.0 196516000000.0 9705130000.0 100893000000.0 219543000000.0 31673800000.0 14353800000.0 86703100000.0 8745730000.0 327185000000.0 72871900000.0 229666000000.0 120671000000.0 317241000000.0 254349000000.0 327181000000.0 300227000000.0 523458000000.0 633268000000.0 480569000000.0 498533000000.0 504605000000.0 48146800000.0 143065000000.0 277479000000.0 266056000000.0 431842000000.0 93606200000.0 180893000000.0 173339000000.0 348677000000.0 307907000000.0 46445200000.0 399710000000.0 182777000000.0 57747100000.0 64079400000.0 277800000000.0 330600000000.0 322418000000.0 498112000000.0 452035000000.0 505759000000.0 151676000000.0 99451500000.0 270802000000.0 252751000000.0 227209000000.0 114864000000.0 108988000000.0 110591000000.0 29269800000.0 8099240000.0 286332000000.0 23644500000.0 137913000000.0 12890900000.0 42666000000.0 10590000000.0 38941000000.0 11142400000.0 37336200000.0 11142400000.0 38941000000.0 10590000000.0 42665900000.0 12890900000.0 137912000000.0 23644500000.0 286332000000.0 8099240000.0 29269800000.0 110591000000.0 108988000000.0 114864000000.0 227209000000.0 252751000000.0 270802000000.0 99451500000.0 151676000000.0 505759000000.0 452035000000.0 498112000000.0 322418000000.0 330600000000.0 277800000000.0 64079400000.0 57747100000.0 182777000000.0 399710000000.0 46445200000.0 307907000000.0 348677000000.0 173339000000.0 29536100000.0 161090000000.0 119801000000.0 2844580000.0 28133000000.0 31378600000.0 219682000000.0 639957000000.0 163014000000.0 292566000000.0 489166000000.0 495844000000.0 181912000000.0 249203000000.0 107678000000.0 10734800000.0 153171000000.0 995739000.0 27819200000.0 118250000000.0 42068600000.0 42068600000.0 118250000000.0 27819200000.0 995738000.0 153171000000.0 10734800000.0 107678000000.0 249203000000.0 181912000000.0 495844000000.0 489166000000.0 292566000000.0 163014000000.0 639957000000.0 219682000000.0 31378600000.0 28133000000.0 2844580000.0 119801000000.0 161090000000.0 29536100000.0 224331000000.0 32143500000.0 238849000000.0 124212000000.0 63875000000.0 292628000000.0 387485000000.0 477971000000.0 460819000000.0 451167000000.0 410148000000.0 392772000000.0 363095000000.0 216275000000.0 446599000000.0 543572000000.0 477582000000.0 241407000000.0 199469000000.0 8662310000.0 75895000000.0 110798000000.0 80617100000.0 16639700000.0 31594800000.0 45260000000.0 177447000000.0 218153000000.0 160824000000.0 282386000000.0 265561000000.0 292565000000.0 270463000000.0 295401000000.0 272928000000.0 295401000000.0 270463000000.0 292565000000.0 265561000000.0 282386000000.0 160824000000.0 218153000000.0 177447000000.0 45260000000.0 31594800000.0 16639700000.0 80617100000.0 110798000000.0 75895000000.0 8662310000.0 199469000000.0 241407000000.0 477582000000.0 543572000000.0 446599000000.0 216275000000.0 363095000000.0 392772000000.0 410148000000.0 451167000000.0 460819000000.0 477971000000.0 387485000000.0 292628000000.0 63875000000.0 124212000000.0 238849000000.0 32143500000.0 224331000000.0 131840000000.0 399255000000.0 53861400000.0 105223000000.0 102320000000.0 356770000000.0 404774000000.0 349027000000.0 319330000000.0 276907000000.0 256885000000.0 196468000000.0 4077500000.0 190461000000.0 348090000000.0 224413000000.0 302161000000.0 170306000000.0 110128000000.0 112721000000.0 48318500000.0 115171000000.0 270475000000.0 22102800000.0 81422600000.0 3504120000.0 16626400000.0 2669990000.0 20135900000.0 1953980000.0 20152700000.0 1953980000.0 20135900000.0 2670000000.0 16626400000.0 3504120000.0 81422500000.0 22102700000.0 270475000000.0 115171000000.0 48318500000.0 112721000000.0 110128000000.0 170306000000.0 302161000000.0 224413000000.0 348090000000.0 190461000000.0 4077500000.0 196468000000.0 256885000000.0 276907000000.0 319330000000.0 349027000000.0 404774000000.0 356770000000.0 102320000000.0 105223000000.0 53861400000.0 399255000000.0 131840000000.0 127548000000.0 30005000000.0 108528000000.0 65041600000.0 87220400000.0 101688000000.0 559608000000.0 96669000000.0 420820000000.0 224562000000.0 216384000000.0 207421000000.0 152196000000.0 87436800000.0 77029600000.0 31968900000.0 207658000000.0 175467000000.0 77007100000.0 69184000000.0 69184000000.0 77007100000.0 175467000000.0 207658000000.0 31968900000.0 77029600000.0 87436800000.0 152196000000.0 207421000000.0 216384000000.0 224562000000.0 420820000000.0 96669000000.0 559608000000.0 101688000000.0 87220500000.0 65041600000.0 108528000000.0 30005000000.0 127548000000.0 42203900000.0 105800000000.0 34585400000.0 284740000000.0 4710460000.0 39629200000.0 320281000000.0 454471000000.0 287018000000.0 248265000000.0 195495000000.0 169854000000.0 132390000000.0 26832800000.0 34424200000.0 52787800000.0 68000500000.0 57226300000.0 131989000000.0 16865900000.0 234466000000.0 16995900000.0 173733000000.0 25903500000.0 259413000000.0 72444800000.0 18253600000.0 93261900000.0 87133400000.0 102500000000.0 88179100000.0 108344000000.0 91190800000.0 108344000000.0 88179200000.0 102500000000.0 87133400000.0 93261900000.0 18253700000.0 72444900000.0 259413000000.0 25903500000.0 173733000000.0 16995900000.0 234466000000.0 16865900000.0 131989000000.0 57226300000.0 68000600000.0 52787800000.0 34424200000.0 26832800000.0 132390000000.0 169854000000.0 195495000000.0 248265000000.0 287018000000.0 454471000000.0 320281000000.0 39629200000.0 4710460000.0 284740000000.0 34585500000.0 105800000000.0 42203900000.0 68769700000.0 321188000000.0 28993700000.0 103236000000.0 386757000000.0 264517000000.0 203145000000.0 198489000000.0 205010000000.0 212905000000.0 121990000000.0 6364040000.0 25836800000.0 13908300000.0 95757800000.0 3087340000.0 116990000000.0 3154510000.0 233470000000.0 12784700000.0 52216400000.0 8944730000.0 12649600000.0 8797270000.0 22966500000.0 9442830000.0 23898500000.0 9442830000.0 22966500000.0 8797270000.0 12649600000.0 8944730000.0 52216400000.0 12784700000.0 233470000000.0 3154510000.0 116990000000.0 3087340000.0 95757800000.0 13908300000.0 25836800000.0 6364040000.0 121990000000.0 212905000000.0 205010000000.0 198489000000.0 203145000000.0 264517000000.0 386757000000.0 103236000000.0 28993700000.0 321188000000.0 68769700000.0 53933100000.0 76129700000.0 842344000.0 275083000000.0 29080300000.0 92454400000.0 64620100000.0 395578000000.0 186850000000.0 180038000000.0 329412000000.0 229494000000.0 201334000000.0 187923000000.0 192155000000.0 190585000000.0 151499000000.0 96133400000.0 9338800000.0 25284900000.0 50070900000.0 50070900000.0 25284900000.0 9338800000.0 96133400000.0 151499000000.0 190585000000.0 192155000000.0 187923000000.0 201334000000.0 229494000000.0 329412000000.0 180038000000.0 186850000000.0 395578000000.0 64620100000.0 92454400000.0 29080300000.0 275083000000.0 842343000.0 76129700000.0 53933100000.0 89243100000.0 126271000000.0 6912510000.0 99414600000.0 124614000000.0 75013300000.0 156671000000.0 246055000000.0 196847000000.0 170548000000.0 154562000000.0 158685000000.0 135275000000.0 14032300000.0 57396500000.0 119563000000.0 223560000000.0 152600000000.0 115254000000.0 80025400000.0 31877100000.0 55971400000.0 9361630000.0 86210100000.0 3985930000.0 128644000000.0 36172800000.0 195714000000.0 173017000000.0 201272000000.0 199810000000.0 198960000000.0 187385000000.0 197630000000.0 185594000000.0 197630000000.0 187385000000.0 198960000000.0 199810000000.0 201272000000.0 173017000000.0 195714000000.0 36172800000.0 128644000000.0 3985930000.0 86210100000.0 9361630000.0 55971400000.0 31877100000.0 80025400000.0 115254000000.0 152600000000.0 223560000000.0 119563000000.0 57396500000.0 14032300000.0 135275000000.0 158685000000.0 154562000000.0 170548000000.0 196847000000.0 246055000000.0 156671000000.0 75013300000.0 124614000000.0 99414600000.0 6912510000.0 126271000000.0 89243000000.0 142109000000.0 49946700000.0 112551000000.0 206802000000.0 199164000000.0 202976000000.0 123483000000.0 114769000000.0 21766800000.0 65119700000.0 9673410000.0 8231470000.0 8919750000.0 348489000.0 39979900000.0 1033770000.0 71147600000.0 2178620000.0 106281000000.0 1057300000.0 178435000000.0 9332420000.0 26000600000.0 8999660000.0 8928330000.0 8850390000.0 17504200000.0 9098030000.0 19329500000.0 9098030000.0 17504200000.0 8850390000.0 8928330000.0 8999660000.0 26000600000.0 9332420000.0 178435000000.0 1057300000.0 106281000000.0 2178620000.0 71147600000.0 1033760000.0 39979900000.0 348489000.0 8919750000.0 8231470000.0 9673410000.0 65119700000.0 21766800000.0 114769000000.0 123483000000.0 202976000000.0 199164000000.0 206802000000.0 112551000000.0 49946700000.0 142109000000.0 58112800000.0 35940600000.0 40183200000.0 111001000000.0 95627000000.0 118685000000.0 182817000000.0 131391000000.0 208264000000.0 186281000000.0 125490000000.0 134287000000.0 134287000000.0 125490000000.0 186281000000.0 208264000000.0 131391000000.0 182817000000.0 118685000000.0 95627000000.0 111001000000.0 40183200000.0 35940600000.0 58112800000.0 103654000000.0 9342480000.0 3778140000.0 12432300000.0 63994500000.0 52034100000.0 136267000000.0 102009000000.0 70278800000.0 140235000000.0 114287000000.0 122715000000.0 38126800000.0 89966800000.0 148007000000.0 208378000000.0 263860000000.0 324094000000.0 260681000000.0 234781000000.0 210445000000.0 166960000000.0 162014000000.0 102538000000.0 131012000000.0 51412400000.0 111228000000.0 6201170000.0 105635000000.0 43770400000.0 100894000000.0 83290200000.0 84292300000.0 77493200000.0 72262800000.0 62300600000.0 66431300000.0 57561700000.0 66431300000.0 62300600000.0 72262800000.0 77493200000.0 84292300000.0 83290200000.0 100894000000.0 43770400000.0 105635000000.0 6201180000.0 111228000000.0 51412400000.0 131012000000.0 102538000000.0 162014000000.0 166960000000.0 210445000000.0 234781000000.0 260681000000.0 324094000000.0 263860000000.0 208378000000.0 148007000000.0 89966800000.0 38126800000.0 122715000000.0 114287000000.0 140235000000.0 70278800000.0 102009000000.0 136267000000.0 52034100000.0 63994500000.0 12432300000.0 3778140000.0 9342470000.0 103654000000.0 86688400000.0 25064600000.0 78416800000.0 22934400000.0 38490600000.0 121053000000.0 62660000000.0 75713800000.0 51167000000.0 20967800000.0 6522740000.0 37858800000.0 6376850000.0 50562200000.0 7136870000.0 66542800000.0 6956630000.0 83870000000.0 6332790000.0 125562000000.0 7458000000.0 126791000000.0 9059240000.0 12872500000.0 9027250000.0 9013200000.0 9001960000.0 13677200000.0 9037750000.0 15602600000.0 9037750000.0 13677200000.0 9001960000.0 9013200000.0 9027250000.0 12872500000.0 9059240000.0 126791000000.0 7458000000.0 125562000000.0 6332790000.0 83870000000.0 6956630000.0 66542800000.0 7136870000.0 50562200000.0 6376850000.0 37858800000.0 6522740000.0 20967800000.0 51167000000.0 75713800000.0 62660000000.0 121053000000.0 38490600000.0 22934400000.0 78416800000.0 25064600000.0 86688400000.0 124955000000.0 54005500000.0 58861100000.0 52930400000.0 19537900000.0 151211000000.0 141612000000.0 168291000000.0 168291000000.0 141612000000.0 151211000000.0 19537900000.0 52930400000.0 58861100000.0 54005500000.0 124955000000.0 66280100000.0 5720640000.0 8367470000.0 17461300000.0 96277600000.0 123778000000.0 110998000000.0 60525000000.0 39159600000.0 38995900000.0 169705000000.0 111799000000.0 83398600000.0 18583000000.0 63172300000.0 45779400000.0 70853500000.0 59524100000.0 58766700000.0 17237100000.0 38546400000.0 16769800000.0 24836000000.0 40723900000.0 15498200000.0 62661000000.0 9016870000.0 105245000000.0 5207500000.0 89069900000.0 1641510000.0 663634000.0 1457740000.0 2607210000.0 3489540000.0 7450270000.0 4483650000.0 9763250000.0 4483650000.0 7450270000.0 3489540000.0 2607210000.0 1457740000.0 663630000.0 1641510000.0 89069900000.0 5207500000.0 105245000000.0 9016870000.0 62661000000.0 15498200000.0 40723900000.0 24836000000.0 16769800000.0 38546400000.0 17237000000.0 58766700000.0 59524100000.0 70853500000.0 45779400000.0 63172300000.0 18583000000.0 83398600000.0 111799000000.0 169705000000.0 38995900000.0 39159600000.0 60525000000.0 110998000000.0 123778000000.0 96277600000.0 17461300000.0 8367470000.0 5720640000.0 66280100000.0 9276110000.0 23796500000.0 8804290000.0 8695890000.0 8750760000.0 8725560000.0 8664590000.0 8996860000.0 78781200000.0 9035700000.0 9070900000.0 9035460000.0 9035260000.0 9034970000.0 11391800000.0 9035750000.0 13088500000.0 9035750000.0 11391800000.0 9034970000.0 9035260000.0 9035460000.0 9070900000.0 9035700000.0 78781200000.0 8996860000.0 8664590000.0 8725560000.0 8750760000.0 8695890000.0 8804290000.0 23796500000.0 9276110000.0 51983500000.0 5976460000.0 5903580000.0 3018200000.0 49883300000.0 81216000000.0 99346000000.0 56532000000.0 19358600000.0 35430200000.0 156191000000.0 149487000000.0 158619000000.0 76964300000.0 58252800000.0 53748700000.0 39598400000.0 59326600000.0 69169800000.0 80804400000.0 111791000000.0 111791000000.0 80804400000.0 69169800000.0 59326600000.0 39598400000.0 53748700000.0 58252800000.0 76964300000.0 158619000000.0 149487000000.0 156191000000.0 35430200000.0 19358600000.0 56532000000.0 99346000000.0 81216000000.0 49883300000.0 3018200000.0 5903580000.0 5976460000.0 51983500000.0 46846000000.0 18836000000.0 13292000000.0 37557300000.0 63874400000.0 97522500000.0 124607000000.0 77655100000.0 42823900000.0 87418400000.0 160025000000.0 128856000000.0 117849000000.0 48108100000.0 44771600000.0 35113600000.0 2481880000.0 17794800000.0 4565860000.0 35171200000.0 6828530000.0 57499100000.0 8584970000.0 66673800000.0 9035750000.0 77154000000.0 9035750000.0 101539000000.0 9035760000.0 60628100000.0 9035760000.0 9036610000.0 9035800000.0 9035800000.0 9035760000.0 10672000000.0 9035750000.0 12218300000.0 9035750000.0 10672000000.0 9035760000.0 9035800000.0 9035800000.0 9036610000.0 9035760000.0 60628100000.0 9035760000.0 101539000000.0 9035750000.0 77154000000.0 9035750000.0 66673800000.0 8584970000.0 57499100000.0 6828530000.0 35171200000.0 4565860000.0 17794800000.0 2481880000.0 35113600000.0 44771600000.0 48108100000.0 117849000000.0 128856000000.0 160025000000.0 87418400000.0 42823900000.0 77655100000.0 124607000000.0 97522500000.0 63874400000.0 37557300000.0 13292000000.0 18836000000.0 46846000000.0 45372800000.0 20195500000.0 13840400000.0 42034300000.0 46961200000.0 79865300000.0 117899000000.0 74967300000.0 40717900000.0 100780000000.0 148772000000.0 121536000000.0 105423000000.0 56076000000.0 52209700000.0 37004900000.0 10658800000.0 23481000000.0 9035760000.0 37407500000.0 9035760000.0 56838100000.0 9035760000.0 63399800000.0 9035760000.0 73127900000.0 9035760000.0 90774300000.0 9035760000.0 46454800000.0 9035760000.0 9035860000.0 9035830000.0 9035820000.0 9035760000.0 10153500000.0 9035750000.0 11536500000.0 9035750000.0 10153500000.0 9035760000.0 9035820000.0 9035830000.0 9035860000.0 9035760000.0 46454800000.0 9035760000.0 90774300000.0 9035760000.0 73127900000.0 9035760000.0 63399800000.0 9035760000.0 56838100000.0 9035760000.0 37407500000.0 9035760000.0 23481000000.0 10658800000.0 37004900000.0 52209700000.0 56076000000.0 105423000000.0 121536000000.0 148772000000.0 100780000000.0 40717900000.0 74967300000.0 117899000000.0 79865300000.0 46961200000.0 42034300000.0 13840400000.0 20195500000.0 45372800000.0 45726100000.0 22132200000.0 17283800000.0 49151000000.0 39123000000.0 70932100000.0 114800000000.0 75436500000.0 44651900000.0 113405000000.0 136490000000.0 106479000000.0 85749600000.0 53673300000.0 47746700000.0 30873600000.0 10939600000.0 22960800000.0 9035770000.0 36576100000.0 9035770000.0 54192500000.0 9035760000.0 60001300000.0 9035760000.0 68965400000.0 9035760000.0 80296600000.0 9035760000.0 35661700000.0 9035760000.0 9035880000.0 9035860000.0 9035830000.0 9035760000.0 9785870000.0 9035750000.0 11002000000.0 9035750000.0 9785870000.0 9035760000.0 9035830000.0 9035860000.0 9035880000.0 9035760000.0 35661700000.0 9035760000.0 80296600000.0 9035760000.0 68965400000.0 9035760000.0 60001300000.0 9035760000.0 54192500000.0 9035770000.0 36576100000.0 9035770000.0 22960800000.0 10939600000.0 30873600000.0 47746700000.0 53673300000.0 85749600000.0 106479000000.0 136490000000.0 113405000000.0 44651900000.0 75436500000.0 114800000000.0 70932100000.0 39123000000.0 49151000000.0 17283800000.0 22132200000.0 45726100000.0 45392000000.0 22794700000.0 19018100000.0 51782700000.0 31066000000.0 60158000000.0 107516000000.0 73198500000.0 46047500000.0 119087000000.0 126806000000.0 96729600000.0 74091000000.0 53445400000.0 45153400000.0 27837900000.0 11876100000.0 22704400000.0 9035780000.0 35861200000.0 9035770000.0 51279900000.0 9035770000.0 56674400000.0 9035760000.0 64598900000.0 9035760000.0 70386500000.0 9035770000.0 27621200000.0 9035760000.0 9035890000.0 9035860000.0 9035830000.0 9035760000.0 9529350000.0 9035750000.0 10582500000.0 9035750000.0 9529350000.0 9035760000.0 9035830000.0 9035860000.0 9035890000.0 9035760000.0 27621200000.0 9035770000.0 70386500000.0 9035760000.0 64598900000.0 9035760000.0 56674400000.0 9035770000.0 51279900000.0 9035770000.0 35861200000.0 9035780000.0 22704400000.0 11876100000.0 27837900000.0 45153400000.0 53445400000.0 74091000000.0 96729600000.0 126806000000.0 119087000000.0 46047500000.0 73198500000.0 107516000000.0 60158000000.0 31066000000.0 51782700000.0 19018100000.0 22794700000.0 45392000000.0 44509300000.0 23361300000.0 20583800000.0 52622400000.0 25593000000.0 51106800000.0 99642700000.0 70982600000.0 48384500000.0 121301000000.0 117397000000.0 87683500000.0 65170700000.0 51708000000.0 41930800000.0 25562800000.0 12346100000.0 22428400000.0 9035790000.0 35146900000.0 9035780000.0 48327300000.0 9035770000.0 53466700000.0 9035770000.0 60060800000.0 9035760000.0 61208800000.0 9035770000.0 21758800000.0 9035760000.0 9035880000.0 9035840000.0 9035810000.0 9035760000.0 9353370000.0 9035750000.0 10253000000.0 9035750000.0 9353370000.0 9035760000.0 9035810000.0 9035840000.0 9035880000.0 9035760000.0 21758800000.0 9035770000.0 61208800000.0 9035760000.0 60060800000.0 9035770000.0 53466700000.0 9035770000.0 48327300000.0 9035780000.0 35146900000.0 9035790000.0 22428400000.0 12346100000.0 25562800000.0 41930800000.0 51708000000.0 65170700000.0 87683500000.0 117397000000.0 121301000000.0 48384500000.0 70982600000.0 99642700000.0 51106800000.0 25593000000.0 52622400000.0 20583800000.0 23361300000.0 44509300000.0 43271900000.0 23953400000.0 21971800000.0 52078100000.0 22219500000.0 43750500000.0 91637600000.0 68708400000.0 50652600000.0 120631000000.0 109108000000.0 80439000000.0 59170500000.0 49751700000.0 39030300000.0 24321100000.0 12708000000.0 22211600000.0 9035800000.0 34362200000.0 9035790000.0 45452800000.0 9035780000.0 50355200000.0 9035770000.0 55452700000.0 9035760000.0 52853200000.0 9035770000.0 17573600000.0 9035770000.0 9035860000.0 9035830000.0 9035800000.0 9035760000.0 9234980000.0 9035750000.0 9993920000.0 9035750000.0 9234980000.0 9035760000.0 9035800000.0 9035830000.0 9035860000.0 9035770000.0 17573600000.0 9035770000.0 52853200000.0 9035760000.0 55452700000.0 9035770000.0 50355200000.0 9035780000.0 45452800000.0 9035790000.0 34362200000.0 9035800000.0 22211600000.0 12708000000.0 24321100000.0 39030300000.0 49751700000.0 59170500000.0 80439000000.0 109108000000.0 120631000000.0 50652600000.0 68708400000.0 91637600000.0 43750500000.0 22219500000.0 52078100000.0 21971800000.0 23953400000.0 43271900000.0 41852200000.0 24618100000.0 23175600000.0 50575900000.0 20392200000.0 37976500000.0 83892900000.0 66582600000.0 52958100000.0 117926000000.0 101708000000.0 74584800000.0 55126800000.0 47687000000.0 36421600000.0 23736100000.0 12959600000.0 22022300000.0 9035810000.0 33471900000.0 9035790000.0 42708900000.0 9035780000.0 47311900000.0 9035770000.0 50886700000.0 9035770000.0 45372300000.0 9035770000.0 14647400000.0 9035770000.0 9035830000.0 9035810000.0 9035790000.0 9035760000.0 9157130000.0 9035750000.0 9790000000.0 9035750000.0 9157130000.0 9035760000.0 9035790000.0 9035810000.0 9035830000.0 9035770000.0 14647400000.0 9035770000.0 45372300000.0 9035770000.0 50886700000.0 9035770000.0 47311900000.0 9035780000.0 42708900000.0 9035790000.0 33471900000.0 9035810000.0 22022300000.0 12959600000.0 23736100000.0 36421600000.0 47687000000.0 55126800000.0 74584800000.0 101708000000.0 117926000000.0 52958100000.0 66582600000.0 83892900000.0 37976500000.0 20392200000.0 50575900000.0 23175600000.0 24618100000.0 41852200000.0 40356600000.0 25344500000.0 24192000000.0 48475000000.0 19638000000.0 33583800000.0 76625800000.0 64619500000.0 55081500000.0 113722000000.0 94983900000.0 69729500000.0 52256900000.0 45569900000.0 34048300000.0 23512800000.0 13103300000.0 21834100000.0 9035820000.0 32466100000.0 9035800000.0 40109600000.0 9035790000.0 44326400000.0 9035780000.0 46456600000.0 9035770000.0 38789500000.0 9035780000.0 12644400000.0 9035770000.0 9035810000.0 9035790000.0 9035780000.0 9035760000.0 9107260000.0 9035750000.0 9629410000.0 9035750000.0 9107260000.0 9035760000.0 9035780000.0 9035790000.0 9035810000.0 9035770000.0 12644400000.0 9035780000.0 38789500000.0 9035770000.0 46456600000.0 9035780000.0 44326400000.0 9035790000.0 40109600000.0 9035800000.0 32466100000.0 9035820000.0 21834100000.0 13103300000.0 23512800000.0 34048300000.0 45569900000.0 52256900000.0 69729500000.0 94983900000.0 113722000000.0 55081500000.0 64619500000.0 76625800000.0 33583800000.0 19638000000.0 48475000000.0 24192000000.0 25344500000.0 40356600000.0 38843900000.0 26055000000.0 25020900000.0 46045400000.0 19540300000.0 30342000000.0 69957500000.0 62781200000.0 56774800000.0 108475000000.0 88754000000.0 65556600000.0 49924900000.0 43426700000.0 31859000000.0 23440200000.0 13145400000.0 21626900000.0 9035830000.0 31351500000.0 9035810000.0 37649800000.0 9035790000.0 41404800000.0 9035780000.0 42231000000.0 9035770000.0 33096900000.0 9035780000.0 11303000000.0 9035770000.0 9035800000.0 9035780000.0 9035770000.0 9035760000.0 9076280000.0 9035750000.0 9502880000.0 9035750000.0 9076280000.0 9035760000.0 9035770000.0 9035780000.0 9035800000.0 9035770000.0 11303000000.0 9035780000.0 33096900000.0 9035770000.0 42231000000.0 9035780000.0 41404800000.0 9035790000.0 37649800000.0 9035810000.0 31351500000.0 9035830000.0 21626900000.0 13145400000.0 23440200000.0 31859000000.0 43426700000.0 49924900000.0 65556600000.0 88754000000.0 108475000000.0 56774800000.0 62781200000.0 69957500000.0 30342000000.0 19540300000.0 46045400000.0 25020900000.0 26055000000.0 38843900000.0 37346400000.0 26663900000.0 25665200000.0 43481600000.0 19743500000.0 28024900000.0 63940200000.0 61009800000.0 57881100000.0 102553000000.0 82884300000.0 61825100000.0 47699000000.0 41271100000.0 29812500000.0 23373900000.0 13095800000.0 21386100000.0 9035840000.0 30145700000.0 9035810000.0 35318400000.0 9035790000.0 38562500000.0 9035780000.0 38257700000.0 9035770000.0 28256500000.0 9035780000.0 10425200000.0 9035770000.0 9035780000.0 9035770000.0 9035760000.0 9035760000.0 9057720000.0 9035750000.0 9403160000.0 9035750000.0 9057720000.0 9035760000.0 9035760000.0 9035770000.0 9035780000.0 9035770000.0 10425200000.0 9035780000.0 28256500000.0 9035770000.0 38257700000.0 9035780000.0 38562500000.0 9035790000.0 35318400000.0 9035810000.0 30145700000.0 9035840000.0 21386100000.0 13095800000.0 23373900000.0 29812500000.0 41271100000.0 47699000000.0 61825100000.0 82884300000.0 102553000000.0 57881100000.0 61009800000.0 63940200000.0 28024900000.0 19743500000.0 43481600000.0 25665200000.0 26663900000.0 37346400000.0 35880900000.0 27121300000.0 26130600000.0 40917800000.0 20009200000.0 26418300000.0 58579200000.0 59251600000.0 58358100000.0 96249200000.0 77292400000.0 58352100000.0 45374500000.0 39116400000.0 27881900000.0 23228800000.0 12966900000.0 21102200000.0 9035850000.0 28872000000.0 9035820000.0 33105900000.0 9035790000.0 35818100000.0 9035780000.0 34567900000.0 9035770000.0 24206200000.0 9035780000.0 9864690000.0 9035770000.0 9035780000.0 9035770000.0 9035760000.0 9035760000.0 9047050000.0 9035750000.0 9324590000.0 9035750000.0 9047050000.0 9035760000.0 9035760000.0 9035770000.0 9035780000.0 9035770000.0 9864690000.0 9035780000.0 24206200000.0 9035770000.0 34567900000.0 9035780000.0 35818100000.0 9035790000.0 33105900000.0 9035820000.0 28872000000.0 9035850000.0 21102200000.0 12966900000.0 23228800000.0 27881900000.0 39116400000.0 45374500000.0 58352100000.0 77292400000.0 96249200000.0 58358100000.0 59251600000.0 58579200000.0 26418300000.0 20009200000.0 40917800000.0 26130600000.0 27121300000.0 35880900000.0 34456800000.0 27412500000.0 26424900000.0 38438800000.0 20220700000.0 25330000000.0 53844700000.0 57463000000.0 58233300000.0 89796500000.0 71935400000.0 55006800000.0 42908700000.0 36979400000.0 26054800000.0 22969400000.0 12772800000.0 20770900000.0 9035850000.0 27555900000.0 9035820000.0 31006800000.0 9035800000.0 33191000000.0 9035780000.0 31180600000.0 9035770000.0 20868600000.0 9035780000.0 9516070000.0 9035770000.0 9035770000.0 9035760000.0 9035760000.0 9035760000.0 9041210000.0 9035750000.0 9262680000.0 9035750000.0 9041210000.0 9035760000.0 9035760000.0 9035760000.0 9035770000.0 9035770000.0 9516070000.0 9035780000.0 20868600000.0 9035770000.0 31180600000.0 9035780000.0 33191000000.0 9035800000.0 31006800000.0 9035820000.0 27555900000.0 9035850000.0 20770900000.0 12772800000.0 22969400000.0 26054800000.0 36979400000.0 42908700000.0 55006800000.0 71935400000.0 89796500000.0 58233300000.0 57463000000.0 53844700000.0 25330000000.0 20220700000.0 38438800000.0 26424900000.0 27412500000.0 34456800000.0 33080600000.0 27541400000.0 26558100000.0 36090600000.0 20337700000.0 24600200000.0 49682300000.0 57564000000.0 66794500000.0 51718800000.0 40337400000.0 34879300000.0 24329200000.0 22593700000.0 12528500000.0 20391800000.0 9035860000.0 26222300000.0 9035820000.0 29018800000.0 9035800000.0 30699100000.0 9035780000.0 28104400000.0 9035770000.0 18158400000.0 9035780000.0 9305290000.0 9035770000.0 9035770000.0 9035760000.0 9035760000.0 9035760000.0 9038200000.0 9035750000.0 9213940000.0 9035750000.0 9038200000.0 9035760000.0 9035760000.0 9035760000.0 9035770000.0 9035770000.0 9305290000.0 9035780000.0 18158400000.0 9035770000.0 28104400000.0 9035780000.0 30699100000.0 9035800000.0 29018800000.0 9035820000.0 26222300000.0 9035860000.0 20391800000.0 12528500000.0 22593700000.0 24329200000.0 34879300000.0 40337400000.0 51718800000.0 66794500000.0 57564000000.0 49682300000.0 24600200000.0 20337700000.0 36090600000.0 26558100000.0 27541400000.0 33080600000.0 55612300000.0 83380500000.0 83380500000.0 55612300000.0 31757000000.0 27518500000.0 26541400000.0 33892400000.0 20353600000.0 24103600000.0 46025200000.0 53680800000.0 56418700000.0 77141100000.0 61866800000.0 48473600000.0 37720200000.0 32835700000.0 22707200000.0 22115900000.0 12248800000.0 19967600000.0 9035860000.0 24893800000.0 9035820000.0 27142000000.0 9035800000.0 28357300000.0 9035780000.0 25339200000.0 9035770000.0 15988600000.0 9035780000.0 9181710000.0 9035770000.0 9035770000.0 9035760000.0 9035760000.0 9035760000.0 9036760000.0 9035750000.0 9175570000.0 9035750000.0 9036760000.0 9035760000.0 9035760000.0 9035760000.0 9035770000.0 9035770000.0 9181710000.0 9035780000.0 15988600000.0 9035770000.0 25339200000.0 9035780000.0 28357300000.0 9035800000.0 27142000000.0 9035820000.0 24893800000.0 9035860000.0 19967600000.0 12248800000.0 22115900000.0 22707200000.0 32835700000.0 37720200000.0 48473600000.0 61866800000.0 77141100000.0 56418700000.0 53680800000.0 46025200000.0 24103600000.0 20353600000.0 33892400000.0 26541400000.0 27518500000.0 31757000000.0 30488800000.0 27356700000.0 26387500000.0 31847700000.0 20273300000.0 23744600000.0 42803700000.0 51663500000.0 54869000000.0 71176200000.0 57161800000.0 45292800000.0 35117000000.0 30866500000.0 21191700000.0 21555400000.0 11947700000.0 19503200000.0 9035870000.0 23590000000.0 9035830000.0 25377500000.0 9035800000.0 26176600000.0 9035780000.0 22878100000.0 9035770000.0 14274900000.0 9035780000.0 9111690000.0 9035770000.0 9035760000.0 9035760000.0 9035760000.0 9035760000.0 9036130000.0 9035750000.0 9145390000.0 9035750000.0 9036130000.0 9035760000.0 9035760000.0 9035760000.0 9035760000.0 9035770000.0 9111690000.0 9035780000.0 14274900000.0 9035770000.0 22878100000.0 9035780000.0 26176600000.0 9035800000.0 25377500000.0 9035830000.0 23590000000.0 9035870000.0 19503200000.0 11947700000.0 21555400000.0 21191700000.0 30866500000.0 35117000000.0 45292800000.0 57161800000.0 71176200000.0 54869000000.0 51663500000.0 42803700000.0 23744600000.0 20273300000.0 31847700000.0 26387500000.0 27356700000.0 30488800000.0 29276000000.0 27069400000.0 26109100000.0 29951700000.0 20104800000.0 23451900000.0 39951600000.0 49566400000.0 52986800000.0 65548000000.0 52697600000.0 42211100000.0 32579300000.0 28987100000.0 19785800000.0 20932600000.0 11637600000.0 19004700000.0 9035870000.0 22326900000.0 9035830000.0 23726300000.0 9035800000.0 24163300000.0 9035780000.0 20707900000.0 9035770000.0 12939400000.0 9035780000.0 9073510000.0 9035770000.0 9035760000.0 9035760000.0 9035760000.0 9035760000.0 9035880000.0 9035750000.0 9121670000.0 9035750000.0 9035880000.0 9035760000.0 9035760000.0 9035760000.0 9035760000.0 9035770000.0 9073510000.0 9035780000.0 12939400000.0 9035770000.0 20707900000.0 9035780000.0 24163300000.0 9035800000.0 23726300000.0 9035830000.0 22326900000.0 9035870000.0 19004700000.0 11637600000.0 20932600000.0 19785800000.0 28987100000.0 32579300000.0 42211100000.0 52697600000.0 65548000000.0 52986800000.0 49566400000.0 39951600000.0 23451900000.0 20104800000.0 29951700000.0 26109100000.0 27069400000.0 29276000000.0 28116700000.0 26669800000.0 25719600000.0 28195900000.0 19857100000.0 23173800000.0 37409200000.0 47404000000.0 50841500000.0 60290000000.0 48494600000.0 39261700000.0 30148200000.0 27208800000.0 18491200000.0 20266000000.0 11329200000.0 18478800000.0 9035870000.0 21116600000.0 9035830000.0 22188900000.0 9035800000.0 22319600000.0 9035780000.0 18811500000.0 9035770000.0 11911900000.0 9035780000.0 9053580000.0 9035770000.0 9035760000.0 9035760000.0 9035760000.0 9035760000.0 9035790000.0 9035750000.0 9103040000.0 9035750000.0 9035790000.0 9035760000.0 9035760000.0 9035760000.0 9035760000.0 9035770000.0 9053580000.0 9035780000.0 11911900000.0 9035770000.0 18811500000.0 9035780000.0 22319600000.0 9035800000.0 22188900000.0 9035830000.0 21116600000.0 9035870000.0 18478800000.0 11329200000.0 20266000000.0 18491200000.0 27208800000.0 30148200000.0 39261700000.0 48494600000.0 60290000000.0 50841500000.0 47404000000.0 37409200000.0 23173800000.0 19857100000.0 28195900000.0 25719600000.0 26669800000.0 28116700000.0 27006600000.0 26170700000.0 25231800000.0 26571000000.0 19539100000.0 22874500000.0 35124000000.0 45195000000.0 48498700000.0 55414300000.0 44568500000.0 36469800000.0 27854000000.0 25538900000.0 17308400000.0 19572000000.0 11031200000.0 17932600000.0 9035870000.0 19967900000.0 9035830000.0 20764900000.0 9035800000.0 20644000000.0 9035780000.0 17168900000.0 9035770000.0 11131500000.0 9035770000.0 9043680000.0 9035770000.0 9035760000.0 9035760000.0 9035760000.0 9035760000.0 9035760000.0 9035750000.0 9088410000.0 9035750000.0 9035760000.0 9035760000.0 9035760000.0 9035760000.0 9035760000.0 9035770000.0 9043680000.0 9035770000.0 11131500000.0 9035770000.0 17168900000.0 9035780000.0 20644000000.0 9035800000.0 20764900000.0 9035830000.0 19967900000.0 9035870000.0 17932600000.0 11031200000.0 19572000000.0 17308400000.0 25538900000.0 27854000000.0 36469800000.0 44568500000.0 55414300000.0 48498700000.0 45195000000.0 35124000000.0 22874500000.0 19539100000.0 26571000000.0 25231800000.0 26170700000.0 27006600000.0 25939900000.0 25583900000.0 24658200000.0 25067000000.0 19159900000.0 22531100000.0 33051100000.0 42959900000.0 46018600000.0 50917600000.0 40927600000.0 33850800000.0 25716600000.0 23980600000.0 16235600000.0 18864600000.0 10750200000.0 17373100000.0 9035870000.0 18886500000.0 9035830000.0 19452700000.0 9035800000.0 19131900000.0 9035780000.0 15758000000.0 9035770000.0 10546000000.0 9035770000.0 9039060000.0 9035760000.0 9035760000.0 9035760000.0 9035760000.0 9035760000.0 9035760000.0 9035750000.0 9076940000.0 9035750000.0 9035760000.0 9035760000.0 9035760000.0 9035760000.0 9035760000.0 9035760000.0 9039060000.0 9035770000.0 10546000000.0 9035770000.0 15758000000.0 9035780000.0 19131900000.0 9035800000.0 19452700000.0 9035830000.0 18886500000.0 9035870000.0 17373100000.0 10750200000.0 18864600000.0 16235600000.0 23980600000.0 25716600000.0 33850800000.0 40927600000.0 50917600000.0 46018600000.0 42959900000.0 33051100000.0 22531100000.0 19159900000.0 25067000000.0 24658200000.0 25583900000.0 25939900000.0 24909500000.0 24920700000.0 24010300000.0 23674300000.0 18728000000.0 22130900000.0 31152700000.0 40718400000.0 43454800000.0 46785500000.0 37571700000.0 31411800000.0 23747200000.0 22533300000.0 15269300000.0 18155300000.0 10490800000.0 16806700000.0 9035870000.0 17875700000.0 9035830000.0 18249300000.0 9035800000.0 17776300000.0 9035780000.0 14556000000.0 9035770000.0 10112100000.0 9035770000.0 9037040000.0 9035760000.0 9035760000.0 9035760000.0 9035760000.0 9035760000.0 9035750000.0 9035750000.0 9067940000.0 9035750000.0 9035750000.0 9035760000.0 9035760000.0 9035760000.0 9035760000.0 9035760000.0 9037040000.0 9035770000.0 10112100000.0 9035770000.0 14556000000.0 9035780000.0 17776300000.0 9035800000.0 18249300000.0 9035830000.0 17875700000.0 9035870000.0 16806700000.0 10490800000.0 18155300000.0 15269300000.0 22533300000.0 23747200000.0 31411800000.0 37571700000.0 46785500000.0 43454800000.0 40718400000.0 31152700000.0 22130900000.0 18728000000.0 23674300000.0 24010300000.0 24920700000.0 24909500000.0 23908100000.0 24191100000.0 23299100000.0 22383000000.0 18251800000.0 21668100000.0 29397300000.0 38488000000.0 40854200000.0 42996500000.0 34493600000.0 29153000000.0 21949200000.0 21193800000.0 14404800000.0 17453200000.0 10256100000.0 16239200000.0 9035860000.0 16936300000.0 9035820000.0 17151100000.0 9035800000.0 16568400000.0 9035780000.0 13540300000.0 9035770000.0 9794430000.0 9035770000.0 9036220000.0 9035760000.0 9035760000.0 9035760000.0 9035760000.0 9035750000.0 9035750000.0 9035750000.0 9060890000.0 9035750000.0 9035750000.0 9035750000.0 9035760000.0 9035760000.0 9035760000.0 9035760000.0 9036220000.0 9035770000.0 9794430000.0 9035770000.0 13540300000.0 9035780000.0 16568400000.0 9035800000.0 17151100000.0 9035820000.0 16936300000.0 9035860000.0 16239200000.0 10256100000.0 17453200000.0 14404800000.0 21193800000.0 21949200000.0 29153000000.0 34493600000.0 42996500000.0 40854200000.0 38488000000.0 29397300000.0 21668100000.0 18251800000.0 22383000000.0 23299100000.0 24191100000.0 23908100000.0 22928400000.0 23404200000.0 22534300000.0 21183200000.0 17738800000.0 21141800000.0 27759000000.0 36282900000.0 38256000000.0 39524400000.0 31680400000.0 27068800000.0 20320600000.0 19956600000.0 13635700000.0 16765100000.0 10047400000.0 15675600000.0 9035860000.0 16067700000.0 9035820000.0 16153300000.0 9035800000.0 15498100000.0 9035780000.0 12688600000.0 9035770000.0 9564640000.0 9035770000.0 9035910000.0 9035760000.0 9035760000.0 9035760000.0 9035760000.0 9035750000.0 9035750000.0 9035750000.0 9055370000.0 9035750000.0 9035750000.0 9035750000.0 9035760000.0 9035760000.0 9035760000.0 9035760000.0 9035910000.0 9035770000.0 9564640000.0 9035770000.0 12688600000.0 9035780000.0 15498100000.0 9035800000.0 16153300000.0 9035820000.0 16067700000.0 9035860000.0 15675600000.0 10047400000.0 16765100000.0 13635700000.0 19956600000.0 20320600000.0 27068800000.0 31680400000.0 39524400000.0 38256000000.0 36282900000.0 27759000000.0 21141800000.0 17738800000.0 21183200000.0 22534300000.0 23404200000.0 22928400000.0 21963700000.0 22568200000.0 21724600000.0 20065000000.0 17196000000.0 20554400000.0 26216500000.0 34113900000.0 35692600000.0 36340900000.0 29115300000.0 25150100000.0 18854600000.0 18815000000.0 12955600000.0 16095800000.0 9864860000.0 15120300000.0 9035860000.0 15267800000.0 9035820000.0 15250600000.0 9035790000.0 14554600000.0 9035780000.0 11979900000.0 9035770000.0 9400370000.0 9035770000.0 9035810000.0 9035760000.0 9035760000.0 9035760000.0 9035760000.0 9035750000.0 9035750000.0 9035750000.0 9051040000.0 9035750000.0 9035750000.0 9035750000.0 9035760000.0 9035760000.0 9035760000.0 9035760000.0 9035810000.0 9035770000.0 9400370000.0 9035770000.0 11979900000.0 9035780000.0 14554600000.0 9035790000.0 15250600000.0 9035820000.0 15267800000.0 9035860000.0 15120300000.0 9864860000.0 16095800000.0 12955600000.0 18815000000.0 18854600000.0 25150100000.0 29115300000.0 36340900000.0 35692600000.0 34113900000.0 26216500000.0 20554400000.0 17196000000.0 20065000000.0 21724600000.0 22568200000.0 21963700000.0 21008500000.0 21690200000.0 20877900000.0 19018900000.0 16629900000.0 19909900000.0 24751600000.0 31988700000.0 33188800000.0 33416800000.0 26779200000.0 23385100000.0 17541600000.0 17761400000.0 12357200000.0 15448500000.0 9707720000.0 14576600000.0 9035850000.0 14533600000.0 9035820000.0 14436900000.0 9035790000.0 13726700000.0 9035780000.0 11394400000.0 9035770000.0 9284330000.0 9035770000.0 9035780000.0 9035760000.0 9035760000.0 9035760000.0 9035760000.0 9035750000.0 9035750000.0 9035750000.0 9047660000.0 9035750000.0 9035750000.0 9035750000.0 9035760000.0 9035760000.0 9035760000.0 9035760000.0 9035780000.0 9035770000.0 9284330000.0 9035770000.0 11394400000.0 9035780000.0 13726700000.0 9035790000.0 14436900000.0 9035820000.0 14533600000.0 9035850000.0 14576600000.0 9707720000.0 15448500000.0 12357200000.0 17761400000.0 17541600000.0 23385100000.0 26779200000.0 33416800000.0 33188800000.0 31988700000.0 24751600000.0 19909900000.0 16629900000.0 19018900000.0 20877900000.0 21690200000.0 21008500000.0 20058200000.0 20776600000.0 20000800000.0 18035400000.0 16045800000.0 19213200000.0 23349600000.0 29911700000.0 30763100000.0 30723700000.0 24651400000.0 21760600000.0 16369800000.0 16787900000.0 11833400000.0 14824900000.0 9574390000.0 14047000000.0 9035850000.0 13861300000.0 9035810000.0 13705800000.0 9035790000.0 13003200000.0 9035780000.0 10914000000.0 9035770000.0 9203300000.0 9035770000.0 9035770000.0 9035760000.0 9035760000.0 9035760000.0 9035760000.0 9035750000.0 9035750000.0 9035750000.0 9045010000.0 9035750000.0 9035750000.0 9035750000.0 9035760000.0 9035760000.0 9035760000.0 9035760000.0 9035770000.0 9035770000.0 9203300000.0 9035770000.0 10914000000.0 9035780000.0 13003200000.0 9035790000.0 13705800000.0 9035810000.0 13861300000.0 9035850000.0 14047000000.0 9574390000.0 14824900000.0 11833400000.0 16787900000.0 16369800000.0 21760600000.0 24651400000.0 30723700000.0 30763100000.0 29911700000.0 23349600000.0 19213200000.0 16045800000.0 18035400000.0 20000800000.0 20776600000.0 20058200000.0 19109400000.0 19832700000.0 19099100000.0 17105800000.0 15448500000.0 18469500000.0 21997600000.0 27884900000.0 28427900000.0 28234100000.0 22711300000.0 20262600000.0 15326700000.0 15886600000.0 11377200000.0 14225500000.0 9462820000.0 13533300000.0 9035840000.0 13246500000.0 9035810000.0 13050700000.0 9035790000.0 12373100000.0 9035780000.0 10522500000.0 9035770000.0 9147400000.0 9035760000.0 9035760000.0 9035760000.0 9035760000.0 9035760000.0 9035760000.0 9035750000.0 9035750000.0 9035750000.0 9042940000.0 9035750000.0 9035750000.0 9035750000.0 9035760000.0 9035760000.0 9035760000.0 9035760000.0 9035760000.0 9035760000.0 9147400000.0 9035770000.0 10522500000.0 9035780000.0 12373100000.0 9035790000.0 13050700000.0 9035810000.0 13246500000.0 9035840000.0 13533300000.0 9462820000.0 14225500000.0 11377200000.0 15886600000.0 15326700000.0 20262600000.0 22711300000.0 28234100000.0 28427900000.0 27884900000.0 21997600000.0 18469500000.0 15448500000.0 17105800000.0 19099100000.0 19832700000.0 19109400000.0 18159700000.0 18863300000.0 18177700000.0 16222000000.0 14842200000.0 17684000000.0 20685000000.0 25908200000.0 26190200000.0 25922300000.0 20938100000.0 18877100000.0 14399000000.0 15049600000.0 10981300000.0 13649800000.0 9370680000.0 13036400000.0 9035830000.0 12684700000.0 9035800000.0 12464500000.0 9035780000.0 11825800000.0 9035770000.0 10205200000.0 9035770000.0 9109280000.0 9035760000.0 9035760000.0 9035760000.0 9035760000.0 9035760000.0 9035750000.0 9035750000.0 9035750000.0 9035750000.0 9041320000.0 9035750000.0 9035750000.0 9035750000.0 9035750000.0 9035760000.0 9035760000.0 9035760000.0 9035760000.0 9035760000.0 9109280000.0 9035770000.0 10205200000.0 9035770000.0 11825800000.0 9035780000.0 12464500000.0 9035800000.0 12684700000.0 9035830000.0 13036400000.0 9370680000.0 13649800000.0 10981300000.0 15049600000.0 14399000000.0 18877100000.0 20938100000.0 25922300000.0 26190200000.0 25908200000.0 20685000000.0 17684000000.0 14842200000.0 16222000000.0 18177700000.0 18863300000.0 18159700000.0 17240800000.0 15376700000.0 14229900000.0 16861700000.0 19402700000.0 23980000000.0 24052300000.0 23764500000.0 19311900000.0 17590700000.0 13573600000.0 14269600000.0 10639200000.0 13096900000.0 9295500000.0 12556800000.0 9035830000.0 12170900000.0 9035800000.0 11940300000.0 9035780000.0 11351100000.0 9035770000.0 9949450000.0 9035770000.0 9083590000.0 9035760000.0 9035760000.0 9035760000.0 9035760000.0 9035760000.0 9035750000.0 9035750000.0 9035750000.0 9035750000.0 9040050000.0 9035750000.0 9035750000.0 9035750000.0 9035750000.0 9035760000.0 9035760000.0 9035760000.0 9035760000.0 9035760000.0 9083590000.0 9035770000.0 9949450000.0 9035770000.0 11351100000.0 9035780000.0 11940300000.0 9035800000.0 12170900000.0 9035830000.0 12556800000.0 9295500000.0 13096900000.0 10639200000.0 14269600000.0 13573600000.0 17590700000.0 19311900000.0 23764500000.0 24052300000.0 23980000000.0 19402700000.0 16861700000.0 14229900000.0 15376700000.0 17240800000.0 17207400000.0 17872500000.0 17872500000.0 17207400000.0 16251800000.0 16863900000.0 16291500000.0 14563300000.0 13614400000.0 16007200000.0 18143200000.0 22097400000.0 22012300000.0 21738700000.0 17813700000.0 16390300000.0 12837700000.0 13539300000.0 10344100000.0 12565100000.0 9234840000.0 12094100000.0 9035820000.0 11700100000.0 9035790000.0 11471100000.0 9035780000.0 10939400000.0 9035770000.0 9744060000.0 9035760000.0 9066500000.0 9035760000.0 9035760000.0 9035760000.0 9035760000.0 9035760000.0 9035750000.0 9035750000.0 9035750000.0 9035750000.0 9039060000.0 9035750000.0 9035750000.0 9035750000.0 9035750000.0 9035760000.0 9035760000.0 9035760000.0 9035760000.0 9035760000.0 9066500000.0 9035760000.0 9744060000.0 9035770000.0 10939400000.0 9035780000.0 11471100000.0 9035790000.0 11700100000.0 9035820000.0 12094100000.0 9234840000.0 12565100000.0 10344100000.0 13539300000.0 12837700000.0 16390300000.0 17813700000.0 21738700000.0 22012300000.0 22097400000.0 18143200000.0 16007200000.0 13614400000.0 14563300000.0 16291500000.0 16863900000.0 16251800000.0 15292600000.0 15840400000.0 15332900000.0 13776000000.0 12997600000.0 15125000000.0 16900400000.0 20256500000.0 20065300000.0 19825000000.0 16425600000.0 15263500000.0 12179100000.0 12852100000.0 10089700000.0 12052300000.0 9186360000.0 11647500000.0 9035810000.0 11267200000.0 9035790000.0 11049900000.0 9035780000.0 10581700000.0 9035770000.0 9579470000.0 9035760000.0 9055250000.0 9035760000.0 9035760000.0 9035760000.0 9035760000.0 9035760000.0 9035750000.0 9035750000.0 9035750000.0 9035750000.0 9038270000.0 9035750000.0 9035750000.0 9035750000.0 9035750000.0 9035760000.0 9035760000.0 9035760000.0 9035760000.0 9035760000.0 9055250000.0 9035760000.0 9579470000.0 9035770000.0 10581700000.0 9035780000.0 11049900000.0 9035790000.0 11267200000.0 9035810000.0 11647500000.0 9186360000.0 12052300000.0 10089700000.0 12852100000.0 12179100000.0 15263500000.0 16425600000.0 19825000000.0 20065300000.0 20256500000.0 16900400000.0 15125000000.0 12997600000.0 13776000000.0 15332900000.0 15840400000.0 15292600000.0 14329800000.0 14804900000.0 14367000000.0 13010000000.0 12380700000.0 14219400000.0 15669200000.0 18453000000.0 18203400000.0 18004900000.0 15130500000.0 14198800000.0 11586000000.0 12201300000.0 9870000000.0 11556300000.0 9147860000.0 11215800000.0 9035800000.0 10866900000.0 9035780000.0 10669900000.0 9035770000.0 10269300000.0 9035770000.0 9447440000.0 9035760000.0 9047950000.0 9035760000.0 9035760000.0 9035760000.0 9035760000.0 9035750000.0 9035750000.0 9035750000.0 9035750000.0 9035750000.0 9037660000.0 9035750000.0 9035750000.0 9035750000.0 9035750000.0 9035750000.0 9035760000.0 9035760000.0 9035760000.0 9035760000.0 9047950000.0 9035760000.0 9447440000.0 9035770000.0 10269300000.0 9035770000.0 10669900000.0 9035780000.0 10866900000.0 9035800000.0 11215800000.0 9147860000.0 11556300000.0 9870000000.0 12201300000.0 11586000000.0 14198800000.0 15130500000.0 18004900000.0 18203400000.0 18453000000.0 15669200000.0 14219400000.0 12380700000.0 13010000000.0 14367000000.0 14804900000.0 14329800000.0 13363800000.0 13759500000.0 13395700000.0 12260600000.0 11764700000.0 13294500000.0 14445900000.0 16681800000.0 16416500000.0 16261400000.0 13912300000.0 13185400000.0 11047200000.0 11580900000.0 9679100000.0 11074600000.0 9117370000.0 10797200000.0 9035790000.0 10494200000.0 9035780000.0 10324500000.0 9035770000.0 9994460000.0 9035760000.0 9340960000.0 9035760000.0 9043250000.0 9035760000.0 9035760000.0 9035760000.0 9035750000.0 9035750000.0 9035750000.0 9035750000.0 9035750000.0 9035750000.0 9037160000.0 9035750000.0 9035750000.0 9035750000.0 9035750000.0 9035750000.0 9035750000.0 9035760000.0 9035760000.0 9035760000.0 9043250000.0 9035760000.0 9340960000.0 9035760000.0 9994460000.0 9035770000.0 10324500000.0 9035780000.0 10494200000.0 9035790000.0 10797200000.0 9117370000.0 11074600000.0 9679100000.0 11580900000.0 11047200000.0 13185400000.0 13912300000.0 16261400000.0 16416500000.0 16681800000.0 14445900000.0 13294500000.0 11764700000.0 12260600000.0 13395700000.0 13759500000.0 13363800000.0 12395000000.0 12706500000.0 12420400000.0 11524300000.0 11150100000.0 12353900000.0 13227600000.0 14937300000.0 14692800000.0 14578900000.0 12755800000.0 12212900000.0 10552000000.0 10984900000.0 9511400000.0 10604700000.0 9093100000.0 10389900000.0 9035790000.0 10143900000.0 9035770000.0 10006900000.0 9035770000.0 9749470000.0 9035760000.0 9253990000.0 9035760000.0 9040250000.0 9035760000.0 9035760000.0 9035760000.0 9035750000.0 9035750000.0 9035750000.0 9035750000.0 9035750000.0 9035750000.0 9036760000.0 9035750000.0 9035750000.0 9035750000.0 9035750000.0 9035750000.0 9035750000.0 9035760000.0 9035760000.0 9035760000.0 9040250000.0 9035760000.0 9253990000.0 9035760000.0 9749470000.0 9035770000.0 10006900000.0 9035770000.0 10143900000.0 9035790000.0 10389900000.0 9093100000.0 10604700000.0 9511400000.0 10984900000.0 10552000000.0 12212900000.0 12755800000.0 14578900000.0 14692800000.0 14937300000.0 13227600000.0 12353900000.0 11150100000.0 11524300000.0 12420400000.0 12706500000.0 12395000000.0 11424000000.0 11647700000.0 11442300000.0 10797400000.0 10536700000.0 11401400000.0 12012400000.0 13213900000.0 13019400000.0 12942500000.0 11646400000.0 11271700000.0 10090100000.0 10407700000.0 9361460000.0 10144000000.0 9073420000.0 9991440000.0 9035780000.0 9811030000.0 9035770000.0 9710880000.0 9035760000.0 9527250000.0 9035760000.0 9181340000.0 9035760000.0 9038330000.0 9035760000.0 9035750000.0 9035750000.0 9035750000.0 9035750000.0 9035750000.0 9035750000.0 9035750000.0 9035750000.0 9036420000.0 9035750000.0 9035750000.0 9035750000.0 9035750000.0 9035750000.0 9035750000.0 9035750000.0 9035750000.0 9035760000.0 9038330000.0 9035760000.0 9181340000.0 9035760000.0 9527250000.0 9035760000.0 9710880000.0 9035770000.0 9811030000.0 9035780000.0 9991440000.0 9073420000.0 10144000000.0 9361460000.0 10407700000.0 10090100000.0 11271700000.0 11646400000.0 12942500000.0 13019400000.0 13213900000.0 12012400000.0 11401400000.0 10536700000.0 10797400000.0 11442300000.0 11647700000.0 11424000000.0 10451300000.0 10584800000.0 10462200000.0 10077100000.0 9924570000.0 10440500000.0 10798900000.0 11505600000.0 11382200000.0 11338400000.0 10570100000.0 10352300000.0 9651600000.0 9843630000.0 9224020000.0 9689910000.0 9056910000.0 9599490000.0 9035770000.0 9490430000.0 9035760000.0 9430020000.0 9035760000.0 9320980000.0 9035760000.0 9118430000.0 9035760000.0 9037060000.0 9035750000.0 9035750000.0 9035750000.0 9035750000.0 9035750000.0 9035750000.0 9035750000.0 9035750000.0 9035750000.0 9036130000.0 9035750000.0 9035750000.0 9035750000.0 9035750000.0 9035750000.0 9035750000.0 9035750000.0 9035750000.0 9035750000.0 9037060000.0 9035760000.0 9118430000.0 9035760000.0 9320980000.0 9035760000.0 9430020000.0 9035760000.0 9490430000.0 9035770000.0 9599490000.0 9056910000.0 9689910000.0 9224020000.0 9843630000.0 9651600000.0 10352300000.0 10570100000.0 11338400000.0 11382200000.0 11505600000.0 10798900000.0 10440500000.0 9924570000.0 10077100000.0 10462200000.0 10584800000.0 10451300000.0 9477680000.0 9519450000.0 9481100000.0 9360500000.0 9313130000.0 9474620000.0 9586030000.0 9806010000.0 9766520000.0 9753050000.0 9513180000.0 9445700000.0 9226910000.0 9287320000.0 9093950000.0 9239640000.0 9042210000.0 9211420000.0 9035760000.0 9177110000.0 9035760000.0 9158120000.0 9035750000.0 9124060000.0 9035750000.0 9061120000.0 9035750000.0 9036140000.0 9035750000.0 9035750000.0 9035750000.0 9035750000.0 9035750000.0 9035750000.0 9035750000.0 9035750000.0 9035750000.0 9035870000.0 9035750000.0 9035750000.0 9035750000.0 9035750000.0 9035750000.0 9035750000.0 9035750000.0 9035750000.0 9035750000.0 9036140000.0 9035750000.0 9061120000.0 9035750000.0 9124060000.0 9035750000.0 9158120000.0 9035760000.0 9177110000.0 9035760000.0 9211420000.0 9042210000.0 9239640000.0 9093950000.0 9287320000.0 9226910000.0 9445700000.0 9513180000.0 9753050000.0 9766520000.0 9806010000.0 9586030000.0 9474620000.0 9313130000.0 9360500000.0 9481100000.0 9519450000.0 9477680000.0 