# vtk DataFile Version 2.0
Time step 104
ASCII
DATASET UNSTRUCTURED_GRID
POINTS 4650 float
208881.0 256843.0 0
215471.0 256446.0 0
219354.0 257309.0 0
236910.0 258172.0 0
243863.0 257986.0 0
247295.0 255938.0 0
250793.0 257873.0 0
257735.0 257832.0 0
284551.0 257657.0 0
291226.0 257845.0 0
294659.0 255831.0 0
298003.0 257989.0 0
201998.0 260825.0 0
205432.0 258830.0 0
208880.0 260839.0 0
212314.0 258858.0 0
215759.0 260833.0 0
222977.0 258956.0 0
226575.0 260665.0 0
233515.0 260284.0 0
240444.0 260048.0 0
247363.0 259919.0 0
254273.0 259828.0 0
261194.0 259834.0 0
265176.0 260146.0 0
274497.0 259478.0 0
281131.0 259690.0 0
287838.0 259897.0 0
294590.0 259972.0 0
205441.0 262817.0 0
212336.0 262840.0 0
219683.0 261273.0 0
223265.0 262921.0 0
230147.0 262432.0 0
237053.0 262147.0 0
243951.0 261966.0 0
250843.0 261858.0 0
257724.0 261815.0 0
267559.0 263347.0 0
271077.0 261519.0 0
277760.0 261759.0 0
284443.0 261894.0 0
291207.0 261969.0 0
298005.0 261982.0 0
201997.0 264798.0 0
208890.0 264811.0 0
215805.0 264818.0 0
219766.0 265241.0 0
226816.0 264633.0 0
233687.0 264260.0 0
237211.0 266113.0 0
240568.0 264028.0 0
244055.0 265938.0 0
247436.0 263894.0 0
250890.0 265838.0 0
254293.0 263818.0 0
257710.0 265803.0 0
261140.0 263815.0 0
264495.0 265848.0 0
270895.0 265538.0 0
274370.0 263753.0 0
277710.0 265866.0 0
281082.0 263909.0 0
284458.0 265936.0 0
287825.0 263949.0 0
291224.0 265955.0 0
294610.0 263968.0 0
298006.0 265967.0 0
205440.0 266775.0 0
212344.0 266800.0 0
223399.0 266871.0 0
226995.0 268574.0 0
230346.0 266405.0 0
233883.0 268215.0 0
240703.0 267996.0 0
247514.0 267867.0 0
254313.0 267803.0 0
261085.0 267813.0 0
267799.0 267914.0 0
274307.0 267752.0 0
281084.0 267905.0 0
287846.0 267937.0 0
294617.0 267949.0 0
201996.0 268750.0 0
205409.0 270712.0 0
208877.0 268757.0 0
212309.0 270743.0 0
215794.0 268784.0 0
219752.0 269189.0 0
223387.0 270800.0 0
230582.0 270331.0 0
237381.0 270072.0 0
244164.0 269906.0 0
250942.0 269815.0 0
257702.0 269794.0 0
264424.0 269854.0 0
271108.0 269939.0 0
277701.0 269851.0 0
284471.0 269915.0 0
291236.0 269929.0 0
298007.0 269938.0 0
201994.0 272696.0 0
208780.0 272681.0 0
215745.0 272721.0 0
219684.0 273119.0 0
227340.0 272469.0 0
234091.0 272161.0 0
240842.0 271959.0 0
244270.0 273870.0 0
247594.0 271837.0 0
250996.0 273788.0 0
254339.0 271786.0 0
257711.0 273779.0 0
261061.0 271808.0 0
264408.0 273837.0 0
267758.0 271894.0 0
271101.0 273908.0 0
274437.0 271928.0 0
277787.0 273896.0 0
281100.0 271883.0 0
284490.0 273880.0 0
287859.0 271906.0 0
291243.0 273888.0 0
294622.0 271913.0 0
298007.0 273891.0 0
205364.0 274657.0 0
212086.0 274657.0 0
224173.0 274614.0 0
227657.0 276402.0 0
230847.0 274271.0 0
234295.0 276114.0 0
237550.0 274027.0 0
240973.0 275918.0 0
247671.0 275802.0 0
254373.0 275760.0 0
261066.0 275788.0 0
267756.0 275860.0 0
274453.0 275894.0 0
281148.0 275867.0 0
287870.0 275861.0 0
294625.0 275860.0 0
201991.0 276644.0 0
205327.0 278613.0 0
208688.0 276637.0 0
211969.0 278618.0 0
215339.0 276599.0 0
218175.0 278968.0 0
221086.0 276751.0 0
224523.0 278550.0 0
231082.0 278224.0 0
237705.0 277984.0 0
244368.0 277828.0 0
251049.0 277753.0 0
257732.0 277750.0 0
264415.0 277803.0 0
271108.0 277862.0 0
277806.0 277862.0 0
284511.0 277841.0 0
291248.0 277829.0 0
298008.0 277825.0 0
201989.0 280590.0 0
208626.0 280609.0 0
215021.0 280854.0 0
221463.0 280731.0 0
227910.0 280358.0 0
234471.0 280071.0 0
241087.0 279872.0 0
244448.0 281778.0 0
247740.0 279758.0 0
251095.0 281705.0 0
254408.0 279722.0 0
257755.0 281705.0 0
261082.0 279751.0 0
264426.0 281753.0 0
267764.0 279811.0 0
271111.0 281804.0 0
274458.0 279843.0 0
281158.0 279826.0 0
287877.0 279802.0 0
294627.0 279786.0 0
205298.0 282566.0 0
211810.0 282720.0 0
218304.0 282835.0 0
224778.0 282516.0 0
231269.0 282181.0 0
234604.0 284023.0 0
237832.0 281936.0 0
241174.0 283817.0 0
247792.0 283700.0 0
254436.0 283668.0 0
261095.0 283696.0 0
267768.0 283750.0 0
274454.0 283781.0 0
277806.0 281809.0 0
281152.0 283762.0 0
284513.0 281781.0 0
287874.0 283721.0 0
291249.0 281751.0 0
294626.0 283690.0 0
298008.0 281737.0 0
201987.0 284527.0 0
205281.0 286513.0 0
208557.0 284596.0 0
211856.0 286645.0 0
215092.0 284765.0 0
218429.0 286714.0 0
221620.0 284658.0 0
224929.0 286452.0 0
228097.0 284314.0 0
231403.0 286132.0 0
237920.0 285880.0 0
244502.0 285712.0 0
251125.0 285640.0 0
257768.0 285643.0 0
264429.0 285689.0 0
271105.0 285736.0 0
277794.0 285741.0 0
284502.0 285699.0 0
291244.0 285649.0 0
298009.0 285625.0 0
201986.0 288442.0 0
208591.0 288519.0 0
215210.0 288648.0 0
221767.0 288577.0 0
228222.0 288253.0 0
234687.0 287967.0 0
241224.0 287748.0 0
247820.0 287625.0 0
251131.0 289557.0 0
254447.0 287596.0 0
257763.0 289563.0 0
261095.0 287625.0 0
264418.0 289609.0 0
267760.0 287678.0 0
274439.0 287707.0 0
281134.0 287680.0 0
287862.0 287616.0 0
294622.0 287568.0 0
298009.0 289485.0 0
205302.0 290412.0 0
211944.0 290521.0 0
218606.0 290600.0 0
225075.0 290377.0 0
231472.0 290074.0 0
234715.0 291894.0 0
237962.0 289808.0 0
241232.0 291657.0 0
244522.0 289627.0 0
247817.0 291528.0 0
254434.0 291505.0 0
261075.0 291536.0 0
267738.0 291591.0 0
271088.0 289658.0 0
274413.0 291623.0 0
277771.0 289658.0 0
281107.0 291578.0 0
284483.0 289593.0 0
287845.0 291483.0 0
291234.0 289519.0 0
294618.0 291416.0 0
201987.0 292315.0 0
205329.0 294261.0 0
208648.0 292385.0 0
212033.0 294348.0 0
215340.0 292492.0 0
218775.0 294432.0 0
222043.0 292518.0 0
228277.0 292200.0 0
231486.0 294000.0 0
237952.0 293715.0 0
244502.0 293513.0 0
251104.0 293452.0 0
257731.0 293463.0 0
264385.0 293512.0 0
271057.0 293566.0 0
277739.0 293562.0 0
284458.0 293463.0 0
291224.0 293357.0 0
298009.0 293316.0 0
201987.0 296144.0 0
208701.0 296201.0 0
215452.0 296292.0 0
222244.0 296350.0 0
225843.0 295097.0 0
229273.0 297073.0 0
234689.0 295802.0 0
241188.0 295539.0 0
244429.0 297359.0 0
247772.0 295403.0 0
251035.0 297323.0 0
254385.0 295392.0 0
257663.0 297341.0 0
261027.0 295427.0 0
264325.0 297394.0 0
267696.0 295488.0 0
271007.0 297460.0 0
274376.0 295527.0 0
281076.0 295456.0 0
287830.0 295318.0 0
291223.0 297160.0 0
294616.0 295231.0 0
298010.0 297119.0 0
201988.0 299933.0 0
205350.0 298062.0 0
212101.0 298132.0 0
218894.0 298220.0 0
225943.0 298991.0 0
232703.0 299027.0 0
237888.0 297598.0 0
241080.0 299394.0 0
247674.0 299247.0 0
254293.0 299256.0 0
260944.0 299293.0 0
267624.0 299363.0 0
274324.0 299420.0 0
277699.0 297454.0 0
281046.0 299310.0 0
284437.0 297303.0 0
287830.0 299115.0 0
294625.0 299015.0 0
205360.0 301824.0 0
208734.0 299973.0 0
212133.0 301879.0 0
215521.0 300055.0 0
218942.0 301983.0 0
222326.0 300162.0 0
229355.0 300958.0 0
236147.0 300954.0 0
244282.0 301144.0 0
250907.0 301168.0 0
257559.0 301193.0 0
264226.0 301251.0 0
270929.0 301333.0 0
277655.0 301335.0 0
284439.0 301106.0 0
291248.0 300927.0 0
298012.0 300899.0 0
201987.0 303690.0 0
208739.0 303711.0 0
215536.0 303788.0 0
222357.0 303936.0 0
226008.0 302875.0 0
229411.0 304828.0 0
232778.0 302889.0 0
236220.0 304788.0 0
239605.0 302869.0 0
243916.0 304806.0 0
247482.0 303057.0 0
250747.0 304967.0 0
254164.0 303089.0 0
257424.0 305019.0 0
260826.0 303137.0 0
264085.0 305089.0 0
267503.0 303213.0 0
270768.0 305173.0 0
274245.0 303295.0 0
281040.0 303124.0 0
284511.0 304858.0 0
287880.0 302867.0 0
291354.0 304660.0 0
294663.0 302773.0 0
298016.0 304675.0 0
201986.0 307427.0 0
205351.0 305558.0 0
208705.0 307424.0 0
212120.0 305597.0 0
215497.0 307489.0 0
218938.0 305715.0 0
222341.0 307665.0 0
226047.0 306758.0 0
232840.0 306726.0 0
240493.0 306559.0 0
247282.0 306784.0 0
254017.0 306891.0 0
260675.0 306961.0 0
267326.0 307050.0 0
274002.0 307122.0 0
277610.0 305198.0 0
281093.0 306861.0 0
288106.0 306555.0 0
294727.0 306539.0 0
205327.0 309280.0 0
212036.0 309286.0 0
218876.0 309408.0 0
229459.0 308679.0 0
233870.0 310343.0 0
237154.0 308439.0 0
243874.0 308571.0 0
250601.0 308733.0 0
257273.0 308827.0 0
263904.0 308916.0 0
270533.0 309021.0 0
277228.0 309007.0 0
284994.0 308480.0 0
291501.0 308420.0 0
298020.0 308462.0 0
201984.0 311153.0 0
208642.0 311133.0 0
215328.0 311144.0 0
222289.0 311343.0 0
226081.0 310644.0 0
230641.0 312261.0 0
237260.0 312258.0 0
240539.0 310383.0 0
243879.0 312366.0 0
247215.0 310551.0 0
250514.0 312515.0 0
253881.0 310679.0 0
257122.0 312631.0 0
260501.0 310776.0 0
263689.0 312744.0 0
267097.0 310891.0 0
270237.0 312887.0 0
273707.0 310963.0 0
276033.0 313722.0 0
279060.0 312113.0 0
282006.0 310365.0 0
285290.0 312248.0 0
288362.0 310325.0 0
291629.0 312228.0 0
294793.0 310333.0 0
298023.0 312266.0 0
201982.0 314875.0 0
205295.0 313000.0 0
208576.0 314852.0 0
211920.0 312988.0 0
215142.0 314852.0 0
218528.0 313008.0 0
221592.0 314856.0 0
227481.0 314208.0 0
234029.0 314163.0 0
240597.0 314206.0 0
247184.0 314342.0 0
253771.0 314477.0 0
260319.0 314598.0 0
266815.0 314743.0 0
272922.0 315304.0 0
279093.0 315874.0 0
282220.0 314121.0 0
288509.0 314140.0 0
294842.0 314151.0 0
205267.0 316721.0 0
211819.0 316715.0 0
218305.0 316733.0 0
224656.0 316471.0 0
227839.0 318159.0 0
230860.0 316098.0 0
234173.0 318002.0 0
237361.0 316087.0 0
240652.0 318032.0 0
243897.0 316176.0 0
250451.0 316313.0 0
256985.0 316447.0 0
263460.0 316591.0 0
269724.0 316922.0 0
275920.0 317524.0 0
285391.0 316040.0 0
291696.0 316051.0 0
294865.0 317969.0 0
298026.0 316079.0 0
201980.0 318592.0 0
205247.0 320438.0 0
208525.0 318577.0 0
211763.0 320443.0 0
215031.0 318589.0 0
218250.0 320450.0 0
221492.0 318560.0 0
224714.0 320261.0 0
231058.0 319984.0 0
237447.0 319921.0 0
243913.0 319991.0 0
247165.0 318147.0 0
250400.0 320121.0 0
253679.0 318287.0 0
256865.0 320274.0 0
260149.0 318437.0 0
263248.0 320473.0 0
266491.0 318669.0 0
269520.0 320814.0 0
272720.0 319147.0 0
275813.0 321287.0 0
279031.0 319612.0 0
282231.0 317872.0 0
285385.0 319808.0 0
288554.0 317948.0 0
291710.0 319859.0 0
298027.0 319883.0 0
201978.0 322297.0 0
208499.0 322293.0 0
215000.0 322305.0 0
221496.0 322256.0 0
227924.0 322003.0 0
234285.0 321855.0 0
240693.0 321857.0 0
247146.0 321957.0 0
253600.0 322104.0 0
260005.0 322290.0 0
266320.0 322557.0 0
272603.0 322956.0 0
278957.0 323341.0 0
282181.0 321607.0 0
288539.0 321727.0 0
294866.0 321768.0 0
205238.0 324141.0 0
208492.0 325988.0 0
211747.0 324150.0 0
215000.0 325997.0 0
218250.0 324145.0 0
221501.0 325951.0 0
224733.0 324011.0 0
227947.0 325791.0 0
231128.0 323820.0 0
234329.0 325679.0 0
237505.0 323754.0 0
240712.0 325674.0 0
243918.0 323805.0 0
247121.0 325764.0 0
250353.0 323931.0 0
253532.0 325920.0 0
256766.0 324106.0 0
263114.0 324339.0 0
269408.0 324660.0 0
275736.0 325042.0 0
282121.0 325331.0 0
285341.0 323553.0 0
288504.0 325477.0 0
291695.0 323638.0 0
294857.0 325539.0 0
298027.0 323666.0 0
201978.0 325986.0 0
205236.0 327822.0 0
211748.0 327833.0 0
218254.0 327827.0 0
224734.0 327739.0 0
231146.0 327616.0 0
237521.0 327566.0 0
243906.0 327610.0 0
250305.0 327735.0 0
256689.0 327927.0 0
259904.0 326132.0 0
263029.0 328179.0 0
266219.0 326408.0 0
269338.0 328477.0 0
272530.0 326747.0 0
275680.0 328792.0 0
278896.0 327069.0 0
285292.0 327279.0 0
291671.0 327386.0 0
298027.0 327423.0 0
201977.0 329652.0 0
208494.0 329659.0 0
215005.0 329670.0 0
221500.0 329641.0 0
227946.0 329546.0 0
234333.0 329473.0 0
240704.0 329474.0 0
247085.0 329559.0 0
253470.0 329722.0 0
259832.0 329953.0 0
266154.0 330232.0 0
272479.0 330525.0 0
278850.0 330793.0 0
282071.0 329047.0 0
285253.0 330990.0 0
288468.0 329203.0 0
294845.0 329280.0 0
201977.0 333294.0 0
205237.0 331478.0 0
208497.0 333304.0 0
211752.0 331493.0 0
215008.0 333324.0 0
218256.0 331497.0 0
221496.0 333320.0 0
224728.0 331451.0 0
227933.0 333278.0 0
231139.0 331382.0 0
234315.0 333243.0 0
237509.0 331355.0 0
240671.0 333255.0 0
243874.0 331399.0 0
247032.0 333337.0 0
250250.0 331522.0 0
253407.0 333501.0 0
256624.0 331726.0 0
259772.0 333748.0 0
262969.0 331993.0 0
266108.0 334034.0 0
269290.0 332275.0 0
275640.0 332536.0 0
282034.0 332754.0 0
288441.0 332908.0 0
291649.0 331108.0 0
294836.0 332994.0 0
298027.0 331154.0 0
205237.0 335110.0 0
211755.0 335131.0 0
218255.0 335153.0 0
224716.0 335148.0 0
231119.0 335126.0 0
237475.0 335123.0 0
243821.0 335169.0 0
250182.0 335287.0 0
256558.0 335497.0 0
262919.0 335783.0 0
269254.0 336056.0 0
272442.0 334290.0 0
275611.0 336270.0 0
278818.0 334509.0 0
282011.0 336449.0 0
285226.0 334685.0 0
291634.0 334806.0 0
298027.0 334860.0 0
201976.0 336913.0 0
205237.0 338717.0 0
208497.0 336926.0 0
211753.0 338747.0 0
215007.0 336959.0 0
218249.0 338792.0 0
221487.0 336985.0 0
224701.0 338828.0 0
227915.0 336991.0 0
231092.0 338852.0 0
234284.0 336993.0 0
237430.0 338877.0 0
240620.0 337019.0 0
243748.0 338924.0 0
246959.0 337094.0 0
253327.0 337252.0 0
259711.0 337511.0 0
266068.0 337816.0 0
272414.0 338044.0 0
278800.0 338213.0 0
285215.0 338364.0 0
288426.0 336593.0 0
291629.0 338484.0 0
294831.0 336685.0 0
298027.0 338546.0 0
201975.0 340508.0 0
208495.0 340525.0 0
215002.0 340573.0 0
221476.0 340634.0 0
227894.0 340686.0 0
234247.0 340729.0 0
240555.0 340771.0 0
246860.0 340835.0 0
250089.0 339028.0 0
253215.0 340971.0 0
256474.0 339232.0 0
259628.0 341235.0 0
262866.0 339545.0 0
266025.0 341580.0 0
269223.0 339824.0 0
272396.0 341782.0 0
275595.0 339990.0 0
282005.0 340129.0 0
288424.0 340261.0 0
294831.0 340358.0 0
201975.0 344082.0 0
205234.0 342301.0 0
208488.0 344101.0 0
211747.0 342340.0 0
218238.0 342411.0 0
224684.0 342490.0 0
231063.0 342562.0 0
237379.0 342620.0 0
240486.0 344520.0 0
243659.0 342672.0 0
246740.0 344574.0 0
249956.0 342748.0 0
253034.0 344659.0 0
256344.0 342925.0 0
262792.0 343270.0 0
269196.0 343577.0 0
275599.0 343692.0 0
278799.0 341902.0 0
282021.0 343793.0 0
285221.0 342026.0 0
288438.0 343912.0 0
291633.0 342144.0 0
294837.0 344014.0 0
298028.0 342215.0 0
205228.0 345865.0 0
211735.0 345912.0 0
214990.0 344167.0 0
218221.0 346008.0 0
221459.0 344262.0 0
224662.0 346132.0 0
227870.0 344364.0 0
231034.0 346256.0 0
234209.0 344453.0 0
237329.0 346357.0 0
243567.0 346423.0 0
249794.0 346472.0 0
256087.0 346562.0 0
259489.0 344902.0 0
265972.0 345319.0 0
272401.0 345503.0 0
278829.0 345571.0 0
285248.0 345673.0 0
291649.0 345789.0 0
298029.0 345871.0 0
201974.0 347638.0 0
205220.0 349410.0 0
208476.0 347657.0 0
214971.0 347737.0 0
221436.0 347868.0 0
227843.0 348021.0 0
234172.0 348165.0 0
240422.0 348269.0 0
246619.0 348325.0 0
252815.0 348362.0 0
255788.0 350245.0 0
259092.0 348454.0 0
261963.0 350347.0 0
262665.0 346935.0 0
265925.0 349012.0 0
269193.0 347309.0 0
272479.0 349197.0 0
275647.0 347371.0 0
278907.0 349223.0 0
282068.0 347440.0 0
285297.0 349307.0 0
288468.0 347549.0 0
294848.0 347659.0 0
302245.0 347827.0 0
201973.0 351179.0 0
208458.0 351194.0 0
211715.0 349462.0 0
214942.0 351285.0 0
218194.0 349581.0 0
221402.0 351448.0 0
224632.0 349749.0 0
227808.0 351654.0 0
231001.0 349931.0 0
234134.0 351860.0 0
237284.0 350087.0 0
240366.0 352017.0 0
243485.0 350183.0 0
246515.0 352097.0 0
249637.0 350222.0 0
252615.0 352114.0 0
258681.0 352135.0 0
264626.0 352201.0 0
269318.0 351003.0 0
275777.0 351033.0 0
282147.0 351080.0 0
288510.0 351174.0 0
291675.0 349423.0 0
294865.0 351296.0 0
298030.0 349519.0 0
205207.0 352942.0 0
211685.0 352992.0 0
218156.0 353131.0 0
224591.0 353339.0 0
230961.0 353581.0 0
237241.0 353804.0 0
243419.0 353952.0 0
249511.0 354006.0 0
255544.0 354008.0 0
261494.0 354045.0 0
267340.0 353790.0 0
272708.0 352885.0 0
279035.0 352876.0 0
285360.0 352933.0 0
291708.0 353047.0 0
298031.0 353164.0 0
201972.0 354713.0 0
205191.0 356467.0 0
208432.0 354716.0 0
211647.0 356506.0 0
214902.0 354812.0 0
218104.0 356657.0 0
221353.0 355002.0 0
227759.0 355257.0 0
234090.0 355531.0 0
240319.0 355759.0 0
246440.0 355885.0 0
249433.0 357812.0 0
252473.0 355911.0 0
255413.0 357812.0 0
258434.0 355911.0 0
261362.0 357773.0 0
264371.0 355861.0 0
267360.0 357462.0 0
270221.0 355214.0 0
273217.0 356783.0 0
275993.0 354717.0 0
279182.0 356560.0 0
282241.0 354727.0 0
285423.0 356554.0 0
288559.0 354787.0 0
291746.0 356657.0 0
294886.0 354927.0 0
298033.0 356810.0 0
302175.0 355911.0 0
201970.0 358249.0 0
205169.0 359990.0 0
208400.0 358228.0 0
214851.0 358319.0 0
221290.0 358530.0 0
224456.0 360434.0 0
224532.0 356901.0 0
227690.0 358829.0 0
230905.0 357201.0 0
234027.0 359170.0 0
237193.0 357499.0 0
240270.0 359480.0 0
243369.0 357718.0 0
246395.0 359676.0 0
252410.0 359726.0 0
258372.0 359685.0 0
264374.0 359516.0 0
270367.0 358982.0 0
276256.0 358517.0 0
282329.0 358392.0 0
288604.0 358381.0 0
294910.0 358554.0 0
201969.0 361798.0 0
208365.0 361733.0 0
211603.0 360005.0 0
214799.0 361810.0 0
218043.0 360161.0 0
221216.0 362036.0 0
227596.0 362372.0 0
230823.0 360787.0 0
237124.0 361160.0 0
243326.0 361466.0 0
249404.0 361619.0 0
255396.0 361611.0 0
261388.0 361486.0 0
267412.0 361133.0 0
270419.0 362723.0 0
273356.0 360593.0 0
276354.0 362283.0 0
279320.0 360291.0 0
282388.0 362083.0 0
285469.0 360160.0 0
288639.0 361939.0 0
291784.0 360249.0 0
294941.0 362179.0 0
298035.0 360468.0 0
205148.0 363515.0 0
208340.0 365224.0 0
211564.0 363493.0 0
214763.0 365288.0 0
217983.0 363650.0 0
224364.0 363947.0 0
230704.0 364341.0 0
233775.0 366336.0 0
233929.0 362771.0 0
237010.0 364778.0 0
240199.0 363165.0 0
243261.0 365173.0 0
246366.0 363449.0 0
249406.0 365405.0 0
252417.0 363530.0 0
255460.0 365391.0 0
258421.0 363442.0 0
261479.0 365208.0 0
264435.0 363196.0 0
267463.0 364840.0 0
273396.0 364357.0 0
279373.0 364006.0 0
285480.0 363729.0 0
291824.0 363809.0 0
298037.0 364155.0 0
197757.0 367454.0 0
201968.0 365352.0 0
205143.0 367035.0 0
211561.0 366960.0 0
217958.0 367130.0 0
221145.0 365530.0 0
224259.0 367455.0 0
227472.0 365895.0 0
230535.0 367876.0 0
236811.0 368345.0 0
240075.0 366797.0 0
246327.0 367178.0 0
252474.0 367306.0 0
258537.0 367194.0 0
264531.0 366918.0 0
270444.0 366472.0 0
276377.0 366011.0 0
279388.0 367692.0 0
282383.0 365795.0 0
285438.0 367209.0 0
288655.0 365431.0 0
291869.0 367308.0 0
294982.0 365798.0 0
201969.0 368963.0 0
208383.0 368683.0 0
214819.0 368748.0 0
217987.0 370633.0 0
221088.0 369034.0 0
224135.0 370984.0 0
227313.0 369418.0 0
233554.0 369879.0 0
239810.0 370359.0 0
243136.0 368816.0 0
249418.0 369146.0 0
255576.0 369150.0 0
261626.0 368953.0 0
264685.0 370691.0 0
267536.0 368597.0 0
270472.0 370257.0 0
273387.0 368105.0 0
276331.0 369691.0 0
282366.0 369584.0 0
288637.0 368810.0 0
294998.0 369387.0 0
298040.0 367888.0 0
200731.0 376026.0 0
205190.0 370548.0 0
208732.0 372052.0 0
211740.0 370384.0 0
214973.0 372243.0 0
221045.0 372583.0 0
227099.0 372961.0 0
230311.0 371409.0 0
236535.0 371898.0 0
242767.0 372340.0 0
245673.0 374230.0 0
246225.0 370823.0 0
249381.0 372815.0 0
252553.0 371041.0 0
255760.0 372877.0 0
258707.0 370942.0 0
261808.0 372715.0 0
267699.0 372421.0 0
273331.0 371867.0 0
279312.0 371281.0 0
285452.0 370509.0 0
288477.0 372199.0 0
291657.0 370705.0 0
294433.0 372789.0 0
298022.0 371713.0 0
299130.0 376393.0 0
198396.0 378284.0 0
202001.0 372691.0 0
205881.0 373771.0 0
212068.0 373855.0 0
215168.0 375821.0 0
218054.0 374199.0 0
221014.0 376205.0 0
224001.0 374569.0 0
226864.0 376570.0 0
229989.0 374943.0 0
232811.0 376910.0 0
233267.0 373414.0 0
236195.0 375442.0 0
239473.0 373940.0 0
242367.0 375954.0 0
248422.0 376046.0 0
252717.0 374684.0 0
258928.0 374699.0 0
264855.0 374483.0 0
270681.0 374141.0 0
276108.0 373317.0 0
278717.0 374631.0 0
282075.0 373472.0 0
285225.0 373652.0 0
291156.0 374198.0 0
293525.0 376490.0 0
296641.0 375251.0 0
301550.0 378240.0 0
304248.0 379939.0 0
195821.0 379888.0 0
193111.0 381580.0 0
198995.0 381111.0 0
201787.0 378984.0 0
203859.0 375883.0 0
206858.0 377378.0 0
209292.0 375489.0 0
212396.0 377453.0 0
218132.0 377848.0 0
223872.0 378236.0 0
229650.0 378562.0 0
235551.0 378857.0 0
239116.0 377530.0 0
245246.0 377864.0 0
251208.0 377633.0 0
256012.0 376583.0 0
262018.0 376506.0 0
265029.0 378308.0 0
267849.0 376241.0 0
270839.0 377941.0 0
273706.0 375799.0 0
276730.0 377511.0 0
280480.0 376893.0 0
284186.0 376818.0 0
287818.0 375607.0 0
287235.0 378834.0 0
290515.0 377700.0 0
295696.0 378867.0 0
298487.0 378728.0 0
306842.0 381562.0 0
190358.0 383308.0 0
196074.0 382904.0 0
201967.0 381854.0 0
204663.0 379517.0 0
209829.0 379199.0 0
215351.0 379491.0 0
220990.0 379911.0 0
226645.0 380270.0 0
232373.0 380532.0 0
238165.0 380780.0 0
240629.0 382592.0 0
242098.0 379622.0 0
245302.0 381511.0 0
248241.0 379629.0 0
251251.0 381299.0 0
254001.0 379183.0 0
256826.0 380775.0 0
259194.0 378482.0 0
262244.0 380343.0 0
267998.0 380068.0 0
273851.0 379561.0 0
278573.0 380312.0 0
281802.0 379403.0 0
284463.0 380609.0 0
290069.0 381056.0 0
292947.0 380344.0 0
298171.0 381797.0 0
301308.0 381175.0 0
304342.0 383285.0 0
309293.0 383091.0 0
185049.0 386613.0 0
187769.0 384916.0 0
193196.0 384710.0 0
195959.0 386047.0 0
198970.0 384079.0 0
201861.0 384877.0 0
204823.0 383066.0 0
207435.0 381140.0 0
210183.0 382991.0 0
212711.0 381191.0 0
215527.0 383257.0 0
218203.0 381578.0 0
220938.0 383701.0 0
223749.0 381989.0 0
226463.0 384045.0 0
229368.0 382282.0 0
232069.0 384272.0 0
235031.0 382498.0 0
237692.0 384434.0 0
243285.0 384040.0 0
248473.0 383276.0 0
254196.0 382967.0 0
259674.0 382486.0 0
265201.0 382169.0 0
270988.0 381728.0 0
273185.0 384146.0 0
275800.0 382175.0 0
278566.0 384105.0 0
281383.0 382590.0 0
284201.0 384219.0 0
287011.0 382379.0 0
292586.0 384212.0 0
295315.0 382568.0 0
298266.0 384831.0 0
301305.0 383961.0 0
307443.0 385111.0 0
311621.0 384541.0 0
314168.0 386133.0 0
182217.0 388380.0 0
185077.0 389564.0 0
188068.0 387895.0 0
190698.0 386654.0 0
193347.0 388096.0 0
198825.0 387127.0 0
201761.0 387912.0 0
204749.0 386416.0 0
207578.0 384803.0 0
210361.0 386665.0 0
212951.0 384968.0 0
218207.0 385406.0 0
223624.0 385803.0 0
229179.0 386061.0 0
234811.0 386227.0 0
240537.0 386184.0 0
246094.0 385472.0 0
251490.0 385046.0 0
257072.0 384675.0 0
259899.0 386456.0 0
262524.0 384299.0 0
265403.0 386075.0 0
268150.0 383900.0 0
270594.0 386106.0 0
275954.0 386024.0 0
281399.0 386113.0 0
286984.0 385938.0 0
289676.0 384154.0 0
295401.0 386106.0 0
298430.0 387901.0 0
301501.0 386664.0 0
304486.0 386276.0 0
307615.0 388118.0 0
310546.0 386993.0 0
313815.0 388879.0 0
317018.0 387907.0 0
176645.0 391871.0 0
179418.0 390133.0 0
182257.0 391448.0 0
187994.0 390723.0 0
190865.0 390165.0 0
196205.0 389320.0 0
199105.0 390322.0 0
201957.0 390978.0 0
204782.0 389595.0 0
207644.0 388260.0 0
212902.0 388787.0 0
215556.0 387118.0 0
218112.0 389290.0 0
220841.0 387550.0 0
226328.0 387851.0 0
231955.0 388025.0 0
237692.0 388076.0 0
240660.0 389790.0 0
243466.0 387725.0 0
246331.0 389327.0 0
248938.0 387174.0 0
251791.0 388943.0 0
254410.0 386813.0 0
257260.0 388606.0 0
262731.0 388258.0 0
268016.0 388115.0 0
273356.0 388014.0 0
278720.0 387910.0 0
281614.0 389732.0 0
284292.0 387820.0 0
287407.0 389277.0 0
290176.0 387203.0 0
293006.0 388097.0 0
295875.0 389706.0 0
301589.0 389382.0 0
304688.0 389305.0 0
308162.0 391029.0 0
310971.0 389919.0 0
317200.0 390720.0 0
320100.0 389827.0 0
323153.0 391740.0 0
173878.0 393603.0 0
179487.0 393273.0 0
182415.0 394549.0 0
185165.0 392601.0 0
188342.0 393376.0 0
191192.0 393447.0 0
193857.0 391420.0 0
197028.0 392639.0 0
204097.0 393002.0 0
207199.0 391751.0 0
210159.0 390367.0 0
215394.0 390990.0 0
220692.0 391415.0 0
223500.0 389636.0 0
226253.0 391632.0 0
229107.0 389829.0 0
231989.0 391733.0 0
234843.0 389911.0 0
237809.0 391715.0 0
243596.0 391447.0 0
249162.0 391072.0 0
254627.0 390745.0 0
260084.0 390422.0 0
265447.0 390186.0 0
270776.0 390028.0 0
273575.0 391904.0 0
276136.0 389881.0 0
279007.0 391672.0 0
284692.0 391294.0 0
290490.0 390583.0 0
293462.0 391780.0 0
296528.0 393206.0 0
298945.0 391191.0 0
302310.0 392204.0 0
305429.0 392249.0 0
311642.0 392798.0 0
314412.0 391705.0 0
317443.0 393700.0 0
320312.0 392817.0 0
326135.0 393596.0 0
171140.0 395320.0 0
173955.0 396872.0 0
176694.0 395064.0 0
179586.0 396408.0 0
185523.0 395531.0 0
188624.0 396243.0 0
194208.0 394533.0 0
197298.0 395713.0 0
200353.0 393627.0 0
203129.0 395847.0 0
206585.0 395108.0 0
209698.0 393941.0 0
212630.0 392570.0 0
215026.0 394840.0 0
217877.0 393164.0 0
223385.0 393435.0 0
229116.0 393547.0 0
234943.0 393579.0 0
240775.0 393465.0 0
246465.0 393171.0 0
249299.0 394971.0 0
251984.0 392871.0 0
254802.0 394698.0 0
257448.0 392568.0 0
260254.0 394415.0 0
262861.0 392290.0 0
265654.0 394171.0 0
268217.0 392082.0 0
271032.0 393958.0 0
276451.0 393703.0 0
282024.0 393315.0 0
285111.0 394786.0 0
287812.0 392702.0 0
290938.0 394031.0 0
294102.0 395275.0 0
299825.0 394386.0 0
303128.0 395171.0 0
306262.0 395032.0 0
308939.0 393949.0 0
311506.0 396091.0 0
314493.0 394822.0 0
320404.0 395895.0 0
323267.0 394882.0 0
326359.0 396499.0 0
329263.0 395555.0 0
162972.0 400413.0 0
165789.0 398660.0 0
168434.0 397025.0 0
171247.0 398649.0 0
176823.0 398295.0 0
179841.0 399539.0 0
182622.0 397554.0 0
185697.0 398474.0 0
188771.0 399195.0 0
191622.0 396726.0 0
194772.0 397657.0 0
200004.0 396711.0 0
205365.0 398176.0 0
208893.0 397397.0 0
212069.0 396268.0 0
217510.0 396966.0 0
220481.0 395223.0 0
226213.0 395354.0 0
229147.0 397221.0 0
232060.0 395413.0 0
235031.0 397260.0 0
237915.0 395392.0 0
240862.0 397198.0 0
243691.0 395219.0 0
246558.0 397027.0 0
252124.0 396805.0 0
257619.0 396542.0 0
263068.0 396278.0 0
268489.0 396036.0 0
273920.0 395773.0 0
276887.0 397490.0 0
279431.0 395380.0 0
282490.0 396917.0 0
288226.0 396141.0 0
291369.0 397409.0 0
294563.0 398511.0 0
297492.0 396479.0 0
301091.0 397552.0 0
304977.0 397871.0 0
308436.0 397371.0 0
314303.0 397938.0 0
317436.0 396720.0 0
320546.0 398911.0 0
323439.0 398041.0 0
326515.0 399378.0 0
329501.0 398549.0 0
332386.0 397513.0 0
335483.0 399447.0 0
159995.0 402269.0 0
165957.0 401740.0 0
168687.0 400489.0 0
174058.0 400184.0 0
177047.0 401494.0 0
182945.0 400620.0 0
186132.0 401512.0 0
191788.0 399860.0 0
194776.0 400562.0 0
197924.0 399261.0 0
201804.0 399001.0 0
207657.0 400486.0 0
211245.0 399788.0 0
214450.0 398612.0 0
220212.0 398919.0 0
223256.0 397155.0 0
226186.0 399004.0 0
232116.0 399085.0 0
237994.0 399108.0 0
243763.0 399031.0 0
249402.0 398874.0 0
254952.0 398653.0 0
260449.0 398394.0 0
265921.0 398132.0 0
268838.0 399952.0 0
271392.0 397858.0 0
274366.0 399614.0 0
279927.0 399081.0 0
285606.0 398312.0 0
288777.0 399606.0 0
292008.0 400811.0 0
297765.0 399471.0 0
300696.0 400392.0 0
303870.0 400291.0 0
307610.0 400395.0 0
311056.0 399276.0 0
314128.0 400909.0 0
317400.0 399601.0 0
323537.0 401291.0 0
329789.0 401489.0 0
332657.0 400622.0 0
338516.0 401350.0 0
157052.0 404113.0 0
159913.0 405353.0 0
162833.0 403403.0 0
165685.0 404638.0 0
168652.0 404082.0 0
171356.0 402112.0 0
174319.0 403469.0 0
180083.0 402671.0 0
183167.0 403660.0 0
189373.0 402311.0 0
192694.0 403128.0 0
196505.0 402718.0 0
200073.0 401570.0 0
203973.0 401122.0 0
206135.0 403409.0 0
209878.0 402881.0 0
213638.0 402265.0 0
217033.0 400633.0 0
217052.0 404024.0 0
220105.0 402449.0 0
223167.0 400764.0 0
226122.0 402610.0 0
229154.0 400866.0 0
232151.0 402751.0 0
235093.0 400959.0 0
238044.0 402859.0 0
240923.0 400976.0 0
243816.0 402869.0 0
246632.0 400898.0 0
249491.0 402782.0 0
252244.0 400737.0 0
255097.0 402599.0 0
257792.0 400505.0 0
260665.0 402344.0 0
263314.0 400236.0 0
266239.0 402049.0 0
271830.0 401720.0 0
277397.0 401266.0 0
280483.0 402777.0 0
283035.0 400528.0 0
286223.0 401833.0 0
289517.0 403039.0 0
295255.0 401840.0 0
298512.0 402786.0 0
302088.0 403168.0 0
305504.0 403048.0 0
308639.0 403578.0 0
310988.0 402251.0 0
316983.0 402458.0 0
320299.0 401832.0 0
326727.0 402095.0 0
329208.0 404482.0 0
332530.0 403863.0 0
335558.0 402615.0 0
338910.0 404439.0 0
341669.0 403314.0 0
344687.0 405213.0 0
151178.0 407790.0 0
154126.0 405946.0 0
157020.0 407254.0 0
162827.0 406510.0 0
166076.0 407338.0 0
171621.0 405444.0 0
177322.0 404739.0 0
180369.0 405856.0 0
183442.0 406796.0 0
186242.0 404486.0 0
189256.0 405241.0 0
192027.0 406112.0 0
195064.0 405800.0 0
198825.0 404501.0 0
202387.0 403844.0 0
207835.0 405967.0 0
211240.0 405631.0 0
214321.0 405527.0 0
223024.0 404364.0 0
226078.0 406153.0 0
229149.0 404474.0 0
235127.0 404678.0 0
240958.0 404785.0 0
246691.0 404780.0 0
252358.0 404664.0 0
257977.0 404447.0 0
263590.0 404153.0 0
269242.0 403816.0 0
274882.0 403440.0 0
277957.0 405047.0 0
283653.0 404113.0 0
286953.0 405279.0 0
290439.0 406346.0 0
292916.0 404210.0 0
296365.0 405128.0 0
300121.0 405617.0 0
303868.0 405849.0 0
307348.0 406186.0 0
311022.0 406081.0 0
313577.0 404020.0 0
316501.0 405249.0 0
319653.0 404814.0 0
322772.0 404394.0 0
325748.0 404635.0 0
330778.0 407138.0 0
333645.0 406712.0 0
336173.0 405526.0 0
338947.0 407744.0 0
341841.0 406567.0 0
347597.0 407035.0 0
148211.0 409644.0 0
151147.0 410974.0 0
154095.0 409111.0 0
157081.0 410396.0 0
159992.0 408478.0 0
163153.0 409457.0 0
169003.0 407493.0 0
171996.0 408834.0 0
174627.0 406793.0 0
177658.0 408031.0 0
180728.0 409095.0 0
186534.0 407619.0 0
189592.0 408566.0 0
197496.0 407281.0 0
200908.0 406886.0 0
204325.0 406366.0 0
209383.0 408747.0 0
212984.0 408656.0 0
216704.0 407798.0 0
219879.0 406050.0 0
229141.0 408061.0 0
232163.0 406417.0 0
235121.0 408423.0 0
238059.0 406638.0 0
243846.0 406727.0 0
249571.0 406689.0 0
255249.0 406530.0 0
260900.0 406262.0 0
266589.0 405912.0 0
269676.0 407615.0 0
272330.0 405534.0 0
275471.0 407274.0 0
281068.0 406461.0 0
284272.0 407631.0 0
287606.0 408586.0 0
290928.0 409462.0 0
294140.0 407461.0 0
298053.0 407937.0 0
301920.0 408323.0 0
305596.0 408732.0 0
309269.0 408883.0 0
314365.0 407289.0 0
318115.0 407796.0 0
321435.0 407548.0 0
324499.0 407567.0 0
327647.0 407433.0 0
332836.0 409895.0 0
336018.0 408965.0 0
341631.0 409933.0 0
344623.0 408602.0 0
347446.0 410323.0 0
350549.0 408875.0 0
142157.0 413428.0 0
145207.0 411521.0 0
148162.0 412807.0 0
154121.0 412287.0 0
157165.0 413508.0 0
160181.0 411514.0 0
163287.0 412454.0 0
166290.0 410246.0 0
169286.0 410860.0 0
175012.0 410172.0 0
178060.0 411368.0 0
183838.0 409985.0 0
186991.0 410818.0 0
192859.0 409029.0 0
195674.0 409734.0 0
199107.0 409943.0 0
202483.0 409525.0 0
205886.0 409072.0 0
210285.0 411617.0 0
213604.0 411587.0 0
216859.0 411094.0 0
219944.0 409532.0 0
222990.0 407916.0 0
226062.0 409664.0 0
232142.0 410100.0 0
238026.0 410446.0 0
240956.0 408618.0 0
243842.0 410594.0 0
246733.0 408666.0 0
249649.0 410587.0 0
252475.0 408580.0 0
255414.0 410443.0 0
258177.0 408365.0 0
261155.0 410149.0 0
263886.0 408024.0 0
266951.0 409717.0 0
272864.0 409270.0 0
278586.0 408865.0 0
281741.0 410146.0 0
285123.0 411078.0 0
293957.0 410480.0 0
297003.0 410626.0 0
300360.0 410872.0 0
303893.0 411261.0 0
307515.0 411552.0 0
312580.0 409485.0 0
316225.0 410092.0 0
319897.0 410457.0 0
323229.0 410548.0 0
326461.0 410492.0 0
329650.0 410264.0 0
335126.0 412185.0 0
338430.0 411094.0 0
344338.0 412050.0 0
350848.0 411891.0 0
353769.0 410879.0 0
356929.0 412859.0 0
139064.0 415361.0 0
145127.0 414660.0 0
148126.0 415991.0 0
151139.0 414175.0 0
154150.0 415471.0 0
160245.0 414580.0 0
166395.0 413271.0 0
169469.0 414144.0 0
172310.0 412206.0 0
175364.0 413558.0 0
181149.0 412369.0 0
184303.0 413182.0 0
187596.0 413886.0 0
190315.0 411684.0 0
193413.0 412431.0 0
196736.0 412770.0 0
200186.0 412674.0 0
203568.0 412274.0 0
206933.0 411878.0 0
211100.0 414606.0 0
214305.0 414516.0 0
217359.0 414248.0 0
220232.0 413017.0 0
223049.0 411552.0 0
225944.0 413156.0 0
229094.0 411646.0 0
232112.0 413802.0 0
235072.0 412204.0 0
240894.0 412469.0 0
246765.0 412544.0 0
252600.0 412482.0 0
258396.0 412262.0 0
264200.0 411857.0 0
270105.0 411340.0 0
273383.0 412852.0 0
276114.0 411137.0 0
279248.0 412748.0 0
282773.0 413642.0 0
288523.0 411950.0 0
291844.0 412900.0 0
295362.0 413529.0 0
298785.0 413680.0 0
302229.0 413927.0 0
305763.0 414207.0 0
310988.0 412058.0 0
314515.0 412505.0 0
318142.0 412953.0 0
321722.0 413340.0 0
325159.0 413487.0 0
328456.0 413377.0 0
331741.0 412994.0 0
333989.0 415333.0 0
337450.0 414333.0 0
340854.0 413153.0 0
345749.0 414926.0 0
348041.0 413282.0 0
350978.0 415105.0 0
353916.0 414021.0 0
360440.0 415036.0 0
135929.0 417321.0 0
138919.0 418483.0 0
142045.0 416556.0 0
145068.0 417815.0 0
151144.0 417409.0 0
154176.0 418690.0 0
157202.0 416650.0 0
160312.0 417672.0 0
163362.0 415492.0 0
166507.0 416345.0 0
172582.0 415536.0 0
175691.0 416970.0 0
178431.0 414720.0 0
181547.0 415633.0 0
184770.0 416290.0 0
188115.0 416906.0 0
190925.0 415019.0 0
194200.0 415582.0 0
197673.0 415642.0 0
201140.0 415442.0 0
204521.0 415094.0 0
207844.0 414782.0 0
216038.0 417392.0 0
219581.0 416638.0 0
222864.0 415507.0 0
226079.0 416313.0 0
229130.0 415169.0 0
234837.0 416082.0 0
237887.0 414290.0 0
243814.0 414449.0 0
249735.0 414469.0 0
255587.0 414337.0 0
261439.0 414010.0 0
264570.0 415659.0 0
267323.0 413474.0 0
270517.0 415005.0 0
273818.0 416127.0 0
277165.0 415688.0 0
280682.0 416335.0 0
286292.0 414483.0 0
289778.0 415339.0 0
293373.0 416026.0 0
297006.0 416474.0 0
300523.0 416704.0 0
304029.0 416936.0 0
309280.0 414620.0 0
312862.0 415063.0 0
316452.0 415470.0 0
320047.0 415908.0 0
323621.0 416260.0 0
327135.0 416444.0 0
330514.0 416147.0 0
336250.0 417585.0 0
339596.0 416552.0 0
342744.0 415475.0 0
345068.0 418025.0 0
348409.0 416909.0 0
352424.0 417804.0 0
355114.0 416797.0 0
357725.0 415734.0 0
361035.0 417953.0 0
363800.0 417139.0 0
132732.0 419318.0 0
135684.0 420421.0 0
141958.0 419691.0 0
145057.0 420977.0 0
148128.0 419203.0 0
151194.0 420705.0 0
157269.0 419816.0 0
163478.0 418560.0 0
166678.0 419428.0 0
169682.0 417348.0 0
172922.0 418855.0 0
178745.0 418094.0 0
181848.0 418845.0 0
185072.0 419315.0 0
188371.0 419709.0 0
191591.0 418372.0 0
195193.0 418523.0 0
198781.0 418467.0 0
202294.0 418249.0 0
205731.0 417965.0 0
209134.0 417738.0 0
212553.0 417583.0 0
221420.0 419238.0 0
224681.0 419057.0 0
228436.0 418761.0 0
231743.0 417623.0 0
237653.0 418107.0 0
240785.0 416301.0 0
243799.0 418266.0 0
246802.0 416398.0 0
249821.0 418332.0 0
252740.0 416371.0 0
255790.0 418221.0 0
258616.0 416135.0 0
261686.0 417829.0 0
267844.0 417199.0 0
271367.0 418665.0 0
275313.0 419123.0 0
284237.0 417088.0 0
287801.0 417856.0 0
291430.0 418531.0 0
295097.0 419066.0 0
298736.0 419458.0 0
307532.0 417249.0 0
311097.0 417597.0 0
314733.0 418026.0 0
318328.0 418466.0 0
321888.0 418915.0 0
325436.0 419221.0 0
329161.0 419340.0 0
332768.0 418500.0 0
338704.0 419873.0 0
341908.0 418877.0 0
347216.0 420342.0 0
350113.0 419505.0 0
355482.0 419977.0 0
358277.0 418855.0 0
361439.0 421053.0 0
364286.0 420145.0 0
367110.0 419212.0 0
370384.0 421262.0 0
126303.0 423339.0 0
129516.0 421329.0 0
132454.0 422435.0 0
135413.0 423547.0 0
138657.0 421570.0 0
141635.0 422744.0 0
148210.0 422452.0 0
151427.0 424055.0 0
154292.0 421952.0 0
157510.0 423007.0 0
160442.0 420782.0 0
163613.0 421651.0 0
166807.0 422473.0 0
169956.0 420444.0 0
173296.0 422150.0 0
176090.0 420501.0 0
179154.0 421523.0 0
182525.0 421999.0 0
186011.0 422324.0 0
189723.0 422126.0 0
193007.0 421437.0 0
196578.0 421413.0 0
200151.0 421295.0 0
203683.0 421082.0 0
207183.0 420841.0 0
210697.0 420625.0 0
214266.0 420394.0 0
217917.0 419934.0 0
226895.0 421828.0 0
230803.0 421290.0 0
234395.0 419996.0 0
240742.0 420063.0 0
246812.0 420235.0 0
252904.0 420242.0 0
258877.0 420020.0 0
264807.0 419362.0 0
267965.0 420690.0 0
270899.0 422012.0 0
274039.0 422270.0 0
278845.0 419255.0 0
282385.0 419831.0 0
285959.0 420486.0 0
289588.0 421111.0 0
293256.0 421661.0 0
296926.0 422119.0 0
302294.0 419717.0 0
305804.0 419978.0 0
309325.0 420243.0 0
312893.0 420526.0 0
316537.0 421026.0 0
320005.0 421582.0 0
323256.0 422109.0 0
329559.0 422549.0 0
332343.0 421641.0 0
335476.0 420840.0 0
341072.0 422269.0 0
344169.0 421374.0 0
349856.0 422741.0 0
352838.0 421362.0 0
355754.0 423329.0 0
358578.0 422062.0 0
364600.0 423259.0 0
367508.0 422279.0 0
373641.0 423300.0 0
123100.0 425343.0 0
129243.0 424480.0 0
132210.0 425594.0 0
138379.0 424704.0 0
141338.0 425903.0 0
144568.0 423959.0 0
147324.0 425314.0 0
154836.0 425217.0 0
160649.0 423976.0 0
163759.0 424792.0 0
170049.0 423371.0 0
176483.0 424214.0 0
180084.0 424693.0 0
183717.0 425005.0 0
191058.0 424812.0 0
194481.0 424414.0 0
198042.0 424298.0 0
201621.0 424136.0 0
205193.0 423919.0 0
208770.0 423680.0 0
212383.0 423423.0 0
216049.0 423069.0 0
219680.0 422615.0 0
223203.0 422254.0 0
231810.0 424471.0 0
234999.0 423689.0 0
237670.0 421752.0 0
240456.0 423893.0 0
243704.0 422088.0 0
249931.0 422152.0 0
256025.0 422091.0 0
261999.0 421678.0 0
265175.0 423126.0 0
277379.0 422449.0 0
280786.0 422769.0 0
284295.0 423265.0 0
287885.0 423801.0 0
291528.0 424319.0 0
295194.0 424788.0 0
300559.0 422477.0 0
304122.0 422761.0 0
307643.0 423008.0 0
311147.0 423222.0 0
314669.0 423441.0 0
318293.0 424183.0 0
326554.0 422188.0 0
331604.0 425211.0 0
334697.0 424296.0 0
337895.0 423252.0 0
343679.0 424676.0 0
346798.0 423679.0 0
352777.0 424670.0 0
358763.0 425358.0 0
361680.0 424247.0 0
364804.0 426443.0 0
367779.0 425410.0 0
370729.0 424372.0 0
373949.0 426443.0 0
376893.0 425336.0 0
119917.0 427335.0 0
122882.0 428581.0 0
126050.0 426530.0 0
129032.0 427678.0 0
132045.0 428801.0 0
135197.0 426726.0 0
138204.0 427920.0 0
144252.0 427215.0 0
147114.0 428752.0 0
149845.0 426775.0 0
152787.0 427615.0 0
158030.0 426376.0 0
161198.0 427317.0 0
166847.0 425521.0 0
169924.0 426238.0 0
173145.0 425296.0 0
178057.0 427532.0 0
187442.0 425021.0 0
195968.0 427345.0 0
199550.0 427173.0 0
203157.0 426975.0 0
206776.0 426740.0 0
210414.0 426478.0 0
214079.0 426170.0 0
217730.0 425820.0 0
221324.0 425476.0 0
224917.0 425078.0 0
228457.0 424685.0 0
237438.0 426401.0 0
243798.0 425793.0 0
246876.0 424011.0 0
249998.0 425944.0 0
253070.0 424098.0 0
256298.0 425905.0 0
259209.0 423923.0 0
262422.0 425552.0 0
268390.0 424436.0 0
271939.0 425326.0 0
275490.0 425607.0 0
279064.0 425834.0 0
282647.0 426170.0 0
286254.0 426598.0 0
289891.0 427056.0 0
298857.0 425194.0 0
302486.0 425535.0 0
306064.0 425814.0 0
309589.0 426041.0 0
313051.0 426215.0 0
316452.0 426341.0 0
321351.0 425117.0 0
324738.0 425245.0 0
328079.0 425446.0 0
333861.0 427841.0 0
337220.0 426622.0 0
340497.0 425597.0 0
346589.0 426931.0 0
349691.0 425932.0 0
352673.0 427923.0 0
355760.0 426604.0 0
358792.0 428626.0 0
361821.0 427505.0 0
367946.0 428602.0 0
370963.0 427533.0 0
377175.0 428508.0 0
380146.0 427372.0 0
113594.0 431291.0 0
116753.0 429317.0 0
125878.0 429773.0 0
128908.0 430919.0 0
135088.0 429954.0 0
138153.0 431194.0 0
141212.0 429182.0 0
144221.0 430573.0 0
150261.0 430072.0 0
153377.0 431170.0 0
155793.0 428842.0 0
158886.0 429903.0 0
164411.0 428079.0 0
167750.0 428714.0 0
171472.0 428668.0 0
174830.0 427883.0 0
181590.0 427777.0 0
185240.0 427872.0 0
188882.0 427827.0 0
192460.0 427629.0 0
204734.0 429804.0 0
208392.0 429549.0 0
212063.0 429266.0 0
215730.0 428966.0 0
219372.0 428663.0 0
222999.0 428328.0 0
226595.0 427989.0 0
230173.0 427719.0 0
233853.0 427289.0 0
240825.0 427424.0 0
246817.0 427831.0 0
253244.0 427918.0 0
259602.0 427852.0 0
265743.0 426884.0 0
269375.0 427851.0 0
273197.0 428554.0 0
277067.0 428817.0 0
280868.0 429095.0 0
284608.0 429459.0 0
293547.0 427507.0 0
297215.0 427918.0 0
300883.0 428284.0 0
304538.0 428597.0 0
308177.0 428848.0 0
311815.0 429028.0 0
315498.0 429060.0 0
319323.0 428119.0 0
322924.0 428248.0 0
326468.0 428346.0 0
330122.0 428182.0 0
334647.0 430989.0 0
337344.0 429787.0 0
340375.0 428807.0 0
343477.0 427901.0 0
346411.0 430200.0 0
349541.0 429153.0 0
355686.0 429846.0 0
361856.0 430773.0 0
364914.0 429687.0 0
371104.0 430736.0 0
374158.0 429626.0 0
377357.0 431715.0 0
380406.0 430572.0 0
383405.0 429411.0 0
386665.0 431452.0 0
107227.0 435275.0 0
110419.0 433279.0 0
113448.0 434622.0 0
119730.0 430620.0 0
122741.0 431867.0 0
125781.0 433057.0 0
131969.0 432044.0 0
135067.0 433206.0 0
138183.0 434503.0 0
141219.0 432500.0 0
144362.0 433841.0 0
147391.0 432046.0 0
150614.0 433380.0 0
156529.0 432459.0 0
162107.0 430698.0 0
165527.0 431258.0 0
169193.0 431452.0 0
172816.0 431297.0 0
176168.0 430881.0 0
179554.0 430721.0 0
183115.0 430789.0 0
186727.0 430797.0 0
190337.0 430700.0 0
193917.0 430497.0 0
197481.0 430245.0 0
201093.0 430033.0 0
210014.0 432362.0 0
213696.0 432089.0 0
217362.0 431817.0 0
221013.0 431532.0 0
224635.0 431239.0 0
228233.0 430958.0 0
231842.0 430626.0 0
235379.0 430296.0 0
238816.0 430063.0 0
243508.0 429705.0 0
250139.0 429618.0 0
256515.0 429591.0 0
262963.0 429405.0 0
266579.0 430395.0 0
270187.0 431133.0 0
273557.0 431825.0 0
276828.0 432110.0 0
280107.0 432285.0 0
283459.0 432480.0 0
288294.0 429854.0 0
291955.0 430279.0 0
295621.0 430680.0 0
299295.0 431045.0 0
302977.0 431365.0 0
306663.0 431629.0 0
310357.0 431814.0 0
314085.0 431849.0 0
317880.0 431431.0 0
321343.0 431264.0 0
324836.0 431338.0 0
328310.0 431260.0 0
331644.0 431024.0 0
337065.0 433359.0 0
340144.0 432147.0 0
343278.0 431180.0 0
349335.0 432434.0 0
352517.0 431190.0 0
355540.0 433066.0 0
358743.0 431873.0 0
361825.0 434046.0 0
364947.0 432972.0 0
368031.0 431848.0 0
371164.0 433989.0 0
374271.0 432850.0 0
380566.0 433802.0 0
383642.0 432643.0 0
389922.0 433490.0 0
104017.0 437284.0 0
110288.0 436617.0 0
113407.0 437979.0 0
116592.0 432640.0 0
119624.0 433950.0 0
122681.0 435203.0 0
128853.0 434192.0 0
131968.0 435303.0 0
141320.0 435798.0 0
147525.0 435341.0 0
153869.0 434637.0 0
157238.0 436040.0 0
159754.0 433377.0 0
163250.0 433889.0 0
166881.0 434191.0 0
170530.0 434274.0 0
174090.0 434156.0 0
177545.0 433917.0 0
181038.0 433810.0 0
184613.0 433802.0 0
188218.0 433749.0 0
191820.0 433607.0 0
195414.0 433383.0 0
199017.0 433126.0 0
202660.0 432881.0 0
206331.0 432628.0 0
215322.0 434952.0 0
218988.0 434705.0 0
222631.0 434456.0 0
226247.0 434204.0 0
229848.0 433933.0 0
233410.0 433664.0 0
236933.0 433430.0 0
240475.0 433143.0 0
243921.0 433289.0 0
246894.0 431525.0 0
250068.0 433114.0 0
253426.0 431820.0 0
256976.0 433005.0 0
260487.0 432213.0 0
264117.0 433105.0 0
267796.0 433918.0 0
271391.0 434606.0 0
274975.0 435120.0 0
278502.0 435373.0 0
286910.0 432746.0 0
290468.0 433122.0 0
294088.0 433496.0 0
297745.0 433846.0 0
301427.0 434159.0 0
305130.0 434423.0 0
308852.0 434618.0 0
312600.0 434692.0 0
316369.0 434531.0 0
319971.0 434428.0 0
323472.0 434396.0 0
326971.0 434383.0 0
330400.0 434260.0 0
333710.0 434129.0 0
339684.0 435533.0 0
342945.0 434508.0 0
346150.0 433518.0 0
349028.0 435773.0 0
352275.0 434497.0 0
358623.0 435089.0 0
364901.0 436293.0 0
368045.0 435146.0 0
374306.0 436117.0 0
377448.0 434953.0 0
380634.0 437064.0 0
383775.0 435906.0 0
386874.0 434724.0 0
390109.0 436803.0 0
393177.0 435528.0 0
100793.0 439303.0 0
107110.0 438628.0 0
110280.0 439966.0 0
116517.0 435998.0 0
119605.0 437329.0 0
125759.0 436385.0 0
128874.0 437489.0 0
132035.0 438566.0 0
135127.0 436470.0 0
138307.0 437848.0 0
144498.0 437106.0 0
147664.0 438784.0 0
150619.0 436628.0 0
153613.0 437872.0 0
160924.0 436559.0 0
164581.0 436940.0 0
168233.0 437144.0 0
171858.0 437191.0 0
175435.0 437099.0 0
178966.0 436950.0 0
182520.0 436867.0 0
186117.0 436816.0 0
189728.0 436720.0 0
193330.0 436532.0 0
196937.0 436272.0 0
200571.0 435991.0 0
204244.0 435721.0 0
207940.0 435457.0 0
211637.0 435201.0 0
224227.0 437434.0 0
227832.0 437211.0 0
231405.0 436988.0 0
234942.0 436779.0 0
238450.0 436565.0 0
241875.0 436494.0 0
245351.0 436427.0 0
248669.0 436255.0 0
252292.0 435948.0 0
255693.0 436202.0 0
259296.0 435982.0 0
262712.0 436426.0 0
266112.0 436958.0 0
269575.0 437467.0 0
281994.0 435554.0 0
285486.0 435767.0 0
289007.0 436052.0 0
292589.0 436379.0 0
296220.0 436699.0 0
299889.0 436995.0 0
303590.0 437250.0 0
307320.0 437448.0 0
311076.0 437557.0 0
314844.0 437533.0 0
318531.0 437500.0 0
322149.0 437485.0 0
325722.0 437471.0 0
329264.0 437424.0 0
332731.0 437282.0 0
336205.0 436666.0 0
342440.0 437812.0 0
345780.0 436866.0 0
351916.0 437859.0 0
355306.0 436234.0 0
358407.0 438253.0 0
361707.0 437314.0 0
364769.0 439651.0 0
367973.0 438493.0 0
371149.0 437295.0 0
374270.0 439429.0 0
377467.0 438228.0 0
383855.0 439192.0 0
386997.0 438022.0 0
393337.0 438884.0 0
396429.0 437564.0 0
399678.0 439598.0 0
97564.8 441325.0 0
100707.0 442727.0 0
103913.0 440664.0 0
107114.0 441982.0 0
113488.0 441367.0 0
116549.0 439407.0 0
119672.0 440772.0 0
122699.0 438591.0 0
125822.0 439747.0 0
128988.0 440808.0 0
135245.0 439721.0 0
141464.0 439124.0 0
144676.0 440343.0 0
150689.0 440070.0 0
153724.0 441589.0 0
156215.0 439290.0 0
159139.0 439455.0 0
162474.0 439787.0 0
165997.0 440025.0 0
169601.0 440147.0 0
173222.0 440160.0 0
176827.0 440087.0 0
180416.0 439987.0 0
184020.0 439912.0 0
187642.0 439837.0 0
191264.0 439709.0 0
194862.0 439464.0 0
198480.0 439153.0 0
202144.0 438842.0 0
205851.0 438556.0 0
209564.0 438304.0 0
213264.0 438076.0 0
216943.0 437860.0 0
220597.0 437647.0 0
232954.0 440105.0 0
236488.0 439935.0 0
239981.0 439825.0 0
243484.0 439743.0 0
246993.0 439662.0 0
250501.0 439420.0 0
253947.0 439434.0 0
257494.0 439437.0 0
260914.0 439612.0 0
273144.0 437982.0 0
276765.0 438354.0 0
280360.0 438591.0 0
283926.0 438802.0 0
287485.0 439045.0 0
291068.0 439321.0 0
294690.0 439607.0 0
298350.0 439878.0 0
302044.0 440119.0 0
328058.0 440508.0 0
331696.0 440436.0 0
335296.0 439989.0 0
338963.0 438706.0 0
345238.0 440184.0 0
348644.0 439176.0 0
351531.0 441341.0 0
354958.0 439282.0 0
361524.0 440555.0 0
367711.0 441902.0 0
371028.0 440634.0 0
377502.0 441508.0 0
380689.0 440347.0 0
387047.0 441359.0 0
390206.0 440149.0 0
393395.0 442278.0 0
396557.0 440960.0 0
402935.0 441636.0 0
91108.5 445371.0 0
94331.9 443350.0 0
97500.1 444801.0 0
103927.0 444052.0 0
107196.0 445347.0 0
110368.0 443326.0 0
113663.0 444763.0 0
116694.0 442896.0 0
122801.0 442025.0 0
125956.0 443132.0 0
132214.0 441837.0 0
135517.0 442963.0 0
138432.0 441261.0 0
141451.0 442445.0 0
144583.0 443334.0 0
147834.0 442446.0 0
151157.0 443506.0 0
156792.0 442662.0 0
160147.0 442753.0 0
163672.0 442957.0 0
167289.0 443097.0 0
170947.0 443163.0 0
174609.0 443157.0 0
178259.0 443100.0 0
181902.0 443026.0 0
185550.0 442957.0 0
189201.0 442871.0 0
192836.0 442723.0 0
196414.0 442392.0 0
200046.0 442010.0 0
203758.0 441667.0 0
207486.0 441402.0 0
211199.0 441188.0 0
214886.0 441001.0 0
218549.0 440823.0 0
222187.0 440646.0 0
225803.0 440465.0 0
229393.0 440282.0 0
264363.0 440036.0 0
267858.0 440486.0 0
271400.0 440913.0 0
275012.0 441292.0 0
278652.0 441587.0 0
282275.0 441825.0 0
285883.0 442057.0 0
289494.0 442304.0 0
293127.0 442558.0 0
296790.0 442804.0 0
305770.0 440314.0 0
309524.0 440444.0 0
313292.0 440491.0 0
317028.0 440509.0 0
320726.0 440522.0 0
324400.0 440527.0 0
334169.0 443337.0 0
338331.0 441689.0 0
341881.0 441036.0 0
347912.0 442529.0 0
354911.0 442088.0 0
358212.0 441326.0 0
365506.0 446137.0 0
364250.0 443091.0 0
371208.0 443896.0 0
374317.0 442732.0 0
377407.0 444857.0 0
380648.0 443677.0 0
383862.0 442527.0 0
387010.0 444745.0 0
390214.0 443544.0 0
396584.0 444392.0 0
399781.0 443024.0 0
403019.0 445094.0 0
406201.0 443681.0 0
87897.0 447385.0 0
94315.7 446890.0 0
100736.0 446163.0 0
104015.0 447460.0 0
110527.0 446669.0 0
113934.0 448100.0 0
119860.0 444293.0 0
123035.0 445517.0 0
129155.0 444123.0 0
132376.0 445063.0 0
135626.0 445994.0 0
138790.0 444929.0 0
142212.0 445804.0 0
149290.0 445882.0 0
153964.0 445373.0 0
157626.0 445786.0 0
194463.0 445773.0 0
197988.0 445281.0 0
201679.0 444801.0 0
205412.0 444495.0 0
209130.0 444289.0 0
212822.0 444129.0 0
216488.0 443985.0 0
220134.0 443843.0 0
223761.0 443698.0 0
227367.0 443550.0 0
230953.0 443404.0 0
234518.0 443264.0 0
238060.0 443151.0 0
241597.0 443061.0 0
245137.0 442982.0 0
248685.0 442858.0 0
252172.0 442785.0 0
255681.0 442786.0 0
259162.0 442914.0 0
262626.0 443182.0 0
266134.0 443554.0 0
269688.0 443931.0 0
273288.0 444275.0 0
276927.0 444577.0 0
280577.0 444838.0 0
284223.0 445075.0 0
287867.0 445307.0 0
300483.0 443029.0 0
304205.0 443218.0 0
307953.0 443358.0 0
311718.0 443441.0 0
315473.0 443492.0 0
319213.0 443527.0 0
322942.0 443546.0 0
326670.0 443544.0 0
330408.0 443511.0 0
337549.0 444474.0 0
341175.0 444152.0 0
344695.0 443621.0 0
350205.0 444675.0 0
353486.0 444640.0 0
357228.0 444489.0 0
360736.0 443818.0 0
368311.0 445106.0 0
371087.0 447468.0 0
374187.0 446186.0 0
377162.0 448235.0 0
380493.0 447033.0 0
383774.0 445898.0 0
390144.0 446984.0 0
393371.0 445721.0 0
399782.0 446476.0 0
406268.0 447176.0 0
409479.0 445734.0 0
412763.0 447791.0 0
84691.0 449394.0 0
91153.9 448979.0 0
94464.2 450465.0 0
97585.1 448303.0 0
100902.0 449637.0 0
107317.0 448713.0 0
110641.0 449955.0 0
116963.0 446478.0 0
120152.0 447896.0 0
123494.0 449009.0 0
126291.0 446552.0 0
129608.0 447486.0 0
132997.0 448340.0 0
140003.0 448428.0 0
145964.0 445960.0 0
161260.0 445910.0 0
164936.0 446051.0 0
168635.0 446144.0 0
172342.0 446182.0 0
176046.0 446171.0 0
179742.0 446128.0 0
183432.0 446072.0 0
187123.0 446011.0 0
190808.0 445925.0 0
203346.0 447594.0 0
207054.0 447380.0 0
210741.0 447246.0 0
214408.0 447135.0 0
218060.0 447027.0 0
221698.0 446914.0 0
225322.0 446797.0 0
228931.0 446679.0 0
232526.0 446564.0 0
236104.0 446461.0 0
239674.0 446374.0 0
243241.0 446299.0 0
246807.0 446216.0 0
250346.0 446156.0 0
253870.0 446137.0 0
257379.0 446216.0 0
260884.0 446404.0 0
264405.0 446681.0 0
267967.0 447001.0 0
271569.0 447313.0 0
275205.0 447599.0 0
278863.0 447859.0 0
282530.0 448099.0 0
291523.0 445540.0 0
295197.0 445767.0 0
298896.0 445976.0 0
302619.0 446157.0 0
306365.0 446301.0 0
310126.0 446403.0 0
313889.0 446475.0 0
317646.0 446525.0 0
321397.0 446557.0 0
325144.0 446569.0 0
328886.0 446561.0 0
332619.0 446527.0 0
336140.0 447077.0 0
339974.0 447158.0 0
343704.0 446834.0 0
347351.0 446396.0 0
351829.0 447551.0 0
355504.0 447371.0 0
359121.0 447118.0 0
362452.0 446583.0 0
367982.0 448667.0 0
373844.0 449788.0 0
376790.0 451556.0 0
380234.0 450373.0 0
383594.0 449285.0 0
386890.0 448165.0 0
393251.0 449221.0 0
396515.0 447873.0 0
399671.0 449954.0 0
402995.0 448569.0 0
409526.0 449277.0 0
416051.0 449852.0 0
78214.3 453449.0 0
81471.1 451411.0 0
84837.0 453102.0 0
88002.9 451052.0 0
91366.9 452623.0 0
97833.3 451841.0 0
104246.0 450916.0 0
107614.0 452136.0 0
113962.0 451230.0 0
117262.0 450227.0 0
120698.0 451465.0 0
126930.0 449960.0 0
130456.0 450801.0 0
134151.0 451385.0 0
136640.0 448753.0 0
143763.0 448770.0 0
147547.0 448911.0 0
151429.0 448426.0 0
155113.0 448626.0 0
158856.0 448879.0 0
162574.0 449009.0 0
166308.0 449119.0 0
170050.0 449185.0 0
173794.0 449209.0 0
177535.0 449199.0 0
181272.0 449168.0 0
185008.0 449127.0 0
188747.0 449075.0 0
192486.0 449000.0 0
196206.0 448869.0 0
199657.0 448005.0 0
208616.0 450345.0 0
212288.0 450271.0 0
215950.0 450196.0 0
219604.0 450114.0 0
223248.0 450025.0 0
226882.0 449933.0 0
230504.0 449840.0 0
234115.0 449754.0 0
237716.0 449676.0 0
241310.0 449608.0 0
244899.0 449546.0 0
248473.0 449500.0 0
252032.0 449483.0 0
255574.0 449527.0 0
259112.0 449656.0 0
262659.0 449864.0 0
266232.0 450121.0 0
269840.0 450395.0 0
273479.0 450659.0 0
286201.0 448326.0 0
289879.0 448546.0 0
293570.0 448758.0 0
297279.0 448954.0 0
301008.0 449128.0 0
304756.0 449272.0 0
308518.0 449384.0 0
312286.0 449468.0 0
316053.0 449531.0 0
319817.0 449574.0 0
323576.0 449601.0 0
327323.0 449616.0 0
331047.0 449632.0 0
334677.0 449884.0 0
338464.0 450008.0 0
342296.0 449922.0 0
346018.0 449672.0 0
349583.0 449657.0 0
353812.0 450244.0 0
357546.0 450162.0 0
361165.0 449905.0 0
364611.0 449467.0 0
370629.0 451084.0 0
383352.0 452665.0 0
386685.0 451614.0 0
389979.0 450471.0 0
396332.0 451419.0 0
402865.0 452052.0 0
406227.0 450690.0 0
409464.0 452849.0 0
412785.0 451392.0 0
419337.0 451911.0 0
74907.9 455516.0 0
81629.0 455142.0 0
88264.2 454742.0 0
94792.0 454070.0 0
98270.0 455403.0 0
101251.0 453153.0 0
104718.0 454407.0 0
110997.0 453320.0 0
114566.0 454216.0 0
118038.0 454027.0 0
124255.0 452446.0 0
127877.0 453294.0 0
131606.0 453956.0 0
137893.0 451636.0 0
141502.0 451583.0 0
145276.0 451758.0 0
149125.0 451682.0 0
152765.0 451641.0 0
156472.0 451802.0 0
160223.0 451981.0 0
163978.0 452097.0 0
167744.0 452182.0 0
171516.0 452231.0 0
175291.0 452249.0 0
179064.0 452243.0 0
182838.0 452222.0 0
186614.0 452193.0 0
190395.0 452154.0 0
194174.0 452106.0 0
197919.0 452109.0 0
201212.0 450699.0 0
204925.0 450454.0 0
228451.0 453097.0 0
232093.0 453028.0 0
235725.0 452964.0 0
239348.0 452908.0 0
242964.0 452859.0 0
246568.0 452824.0 0
250160.0 452812.0 0
253738.0 452840.0 0
257309.0 452929.0 0
277141.0 450907.0 0
280819.0 451140.0 0
284507.0 451362.0 0
288203.0 451573.0 0
291911.0 451773.0 0
295633.0 451959.0 0
299371.0 452126.0 0
303124.0 452269.0 0
306891.0 452386.0 0
310664.0 452478.0 0
314441.0 452549.0 0
318216.0 452603.0 0
321988.0 452642.0 0
325751.0 452671.0 0
329496.0 452707.0 0
333202.0 452839.0 0
336967.0 452927.0 0
340784.0 452913.0 0
344582.0 452812.0 0
348283.0 452762.0 0
351971.0 452796.0 0
355917.0 453062.0 0
359744.0 452954.0 0
363486.0 452640.0 0
367134.0 452013.0 0
373339.0 453525.0 0
376609.0 454650.0 0
379990.0 453655.0 0
386309.0 455094.0 0
389690.0 454011.0 0
393016.0 452788.0 0
396013.0 455054.0 0
399445.0 453446.0 0
406087.0 454218.0 0
412687.0 455034.0 0
416035.0 453515.0 0
419278.0 455633.0 0
422624.0 453971.0 0
71468.6 457655.0 0
78361.6 457185.0 0
85115.3 456814.0 0
88674.0 458446.0 0
91752.5 456286.0 0
95302.2 457690.0 0
101827.0 456670.0 0
105427.0 457893.0 0
108223.0 455600.0 0
111853.0 456617.0 0
115600.0 457266.0 0
121635.0 454982.0 0
125299.0 455833.0 0
129043.0 456538.0 0
135400.0 454396.0 0
139182.0 454612.0 0
142912.0 454662.0 0
146709.0 454727.0 0
150435.0 454771.0 0
154132.0 454822.0 0
157870.0 454953.0 0
161642.0 455088.0 0
165425.0 455183.0 0
169219.0 455250.0 0
173017.0 455288.0 0
176818.0 455304.0 0
180619.0 455304.0 0
184423.0 455293.0 0
188229.0 455277.0 0
192036.0 455264.0 0
195832.0 455286.0 0
199620.0 455409.0 0
202645.0 453449.0 0
206393.0 453400.0 0
210095.0 453379.0 0
213783.0 453344.0 0
217463.0 453294.0 0
221136.0 453234.0 0
224799.0 453167.0 0
260885.0 453083.0 0
264477.0 453287.0 0
268095.0 453518.0 0
271740.0 453755.0 0
275408.0 453985.0 0
279094.0 454206.0 0
282793.0 454418.0 0
286504.0 454620.0 0
290226.0 454811.0 0
293961.0 454989.0 0
297709.0 455150.0 0
301470.0 455290.0 0
305243.0 455409.0 0
309024.0 455505.0 0
312809.0 455583.0 0
316596.0 455644.0 0
320380.0 455691.0 0
324160.0 455729.0 0
327929.0 455770.0 0
331682.0 455849.0 0
335459.0 455912.0 0
339266.0 455918.0 0
343075.0 455874.0 0
346845.0 455840.0 0
350588.0 455834.0 0
354346.0 455857.0 0
358246.0 455880.0 0
362127.0 455668.0 0
365978.0 455211.0 0
369737.0 454511.0 0
375717.0 457541.0 0
379393.0 456980.0 0
382874.0 456075.0 0
389187.0 457571.0 0
392645.0 456429.0 0
399132.0 456900.0 0
402646.0 455526.0 0
405870.0 457758.0 0
409297.0 456452.0 0
412453.0 458724.0 0
415885.0 457225.0 0
422534.0 457738.0 0
425920.0 456035.0 0
429244.0 458112.0 0
68090.6 459772.0 0
71382.9 461391.0 0
74720.7 459220.0 0
77912.0 460836.0 0
81901.3 458865.0 0
85517.0 460523.0 0
92315.5 459972.0 0
98929.2 458955.0 0
102602.0 460181.0 0
109105.0 458989.0 0
112861.0 459881.0 0
119125.0 457664.0 0
122755.0 458456.0 0
126480.0 459169.0 0
132847.0 457076.0 0
136673.0 457439.0 0
140484.0 457640.0 0
144265.0 457726.0 0
148030.0 457823.0 0
151779.0 457900.0 0
155526.0 457983.0 0
159300.0 458093.0 0
163097.0 458196.0 0
166906.0 458274.0 0
170723.0 458328.0 0
174543.0 458362.0 0
178365.0 458379.0 0
182187.0 458385.0 0
186010.0 458386.0 0
189832.0 458392.0 0
193649.0 458422.0 0
197462.0 458513.0 0
201288.0 458723.0 0
203995.0 456316.0 0
207789.0 456421.0 0
211537.0 456451.0 0
215265.0 456445.0 0
218978.0 456418.0 0
222677.0 456379.0 0
226364.0 456333.0 0
230038.0 456285.0 0
233702.0 456237.0 0
237355.0 456194.0 0
241000.0 456157.0 0
244634.0 456132.0 0
248258.0 456124.0 0
251870.0 456146.0 0
255475.0 456211.0 0
259080.0 456325.0 0
262695.0 456486.0 0
266328.0 456678.0 0
269983.0 456885.0 0
273659.0 457094.0 0
277353.0 457299.0 0
281062.0 457498.0 0
284784.0 457689.0 0
288518.0 457871.0 0
292264.0 458041.0 0
296023.0 458197.0 0
299793.0 458334.0 0
356761.0 458802.0 0
360668.0 458651.0 0
364585.0 458313.0 0
368451.0 457802.0 0
372219.0 457163.0 0
378274.0 460145.0 0
382030.0 459458.0 0
385648.0 458568.0 0
392029.0 460077.0 0
395586.0 458825.0 0
398926.0 460201.0 0
402413.0 458973.0 0
408989.0 460101.0 0
415589.0 460974.0 0
419091.0 459391.0 0
425839.0 459822.0 0
432617.0 460219.0 0
61355.8 463991.0 0
64721.8 461883.0 0
68060.8 463554.0 0
74644.8 463011.0 0
81055.9 462417.0 0
89259.5 462144.0 0
93224.9 463633.0 0
96043.3 461282.0 0
99772.6 462514.0 0
106316.0 461347.0 0
110078.0 462367.0 0
116564.0 460588.0 0
120201.0 461187.0 0
123912.0 461873.0 0
130277.0 459757.0 0
134114.0 460207.0 0
137959.0 460521.0 0
141789.0 460713.0 0
145588.0 460839.0 0
149378.0 460948.0 0
153163.0 461041.0 0
156953.0 461131.0 0
160760.0 461225.0 0
164582.0 461310.0 0
168412.0 461375.0 0
172247.0 461423.0 0
205347.0 459317.0 0
209202.0 459484.0 0
213003.0 459547.0 0
216771.0 459566.0 0
220515.0 459563.0 0
224241.0 459545.0 0
227952.0 459521.0 0
231648.0 459492.0 0
235333.0 459465.0 0
239008.0 459441.0 0
242672.0 459426.0 0
246326.0 459425.0 0
249971.0 459444.0 0
253609.0 459495.0 0
257244.0 459583.0 0
260884.0 459710.0 0
264536.0 459868.0 0
268205.0 460045.0 0
271891.0 460231.0 0
275595.0 460419.0 0
279314.0 460604.0 0
283046.0 460783.0 0
286790.0 460955.0 0
303574.0 458453.0 0
307363.0 458552.0 0
311157.0 458633.0 0
314955.0 458699.0 0
318752.0 458751.0 0
322548.0 458795.0 0
326338.0 458837.0 0
330123.0 458891.0 0
333919.0 458937.0 0
337732.0 458949.0 0
341551.0 458929.0 0
345354.0 458903.0 0
349143.0 458885.0 0
352934.0 458867.0 0
363102.0 461402.0 0
366990.0 461018.0 0
370794.0 460568.0 0
374427.0 460456.0 0
380875.0 462715.0 0
384682.0 461982.0 0
388395.0 461100.0 0
394750.0 462678.0 0
401974.0 462448.0 0
405500.0 461338.0 0
412040.0 462460.0 0
418769.0 463166.0 0
422349.0 461519.0 0
429271.0 461880.0 0
435988.0 462329.0 0
57985.9 466102.0 0
64738.1 465707.0 0
71390.4 465212.0 0
77890.6 464639.0 0
81158.8 466218.0 0
84190.0 463897.0 0
87378.6 465220.0 0
96963.0 464892.0 0
103516.0 463701.0 0
107280.0 464805.0 0
113849.0 463256.0 0
117587.0 464005.0 0
121316.0 464647.0 0
127698.0 462476.0 0
131537.0 462974.0 0
135401.0 463359.0 0
139266.0 463638.0 0
143114.0 463831.0 0
176084.0 461455.0 0
179921.0 461476.0 0
183757.0 461493.0 0
187590.0 461512.0 0
191417.0 461548.0 0
195236.0 461622.0 0
199054.0 461768.0 0
202888.0 462023.0 0
206820.0 462410.0 0
210696.0 462582.0 0
214524.0 462669.0 0
218317.0 462711.0 0
222086.0 462730.0 0
225834.0 462734.0 0
229566.0 462729.0 0
233283.0 462720.0 0
236989.0 462712.0 0
240683.0 462708.0 0
244368.0 462713.0 0
248043.0 462734.0 0
251712.0 462777.0 0
255376.0 462849.0 0
259042.0 462951.0 0
262716.0 463081.0 0
266402.0 463232.0 0
270102.0 463396.0 0
273817.0 463565.0 0
290546.0 461117.0 0
294314.0 461266.0 0
298094.0 461400.0 0
301884.0 461517.0 0
305681.0 461617.0 0
309485.0 461701.0 0
313294.0 461770.0 0
317104.0 461826.0 0
320914.0 461872.0 0
324723.0 461913.0 0
328530.0 461955.0 0
332345.0 461990.0 0
336171.0 462004.0 0
340003.0 461994.0 0
343831.0 461972.0 0
347654.0 461947.0 0
351478.0 461912.0 0
355321.0 461833.0 0
359194.0 461672.0 0
369379.0 463841.0 0
373158.0 463589.0 0
376991.0 463236.0 0
383473.0 465320.0 0
387312.0 464570.0 0
391080.0 463704.0 0
398323.0 463364.0 0
404821.0 464932.0 0
408452.0 463804.0 0
411383.0 466224.0 0
415116.0 464749.0 0
422739.0 465251.0 0
425977.0 463578.0 0
429280.0 465733.0 0
432621.0 464027.0 0
435959.0 466174.0 0
439356.0 464438.0 0
442725.0 466548.0 0
54607.8 468218.0 0
61406.3 467855.0 0
68123.6 467406.0 0
71513.3 469092.0 0
74714.7 466864.0 0
78061.7 468487.0 0
84496.6 467677.0 0
90752.9 466273.0 0
94283.6 467390.0 0
100705.0 466088.0 0
104480.0 467244.0 0
111077.0 465792.0 0
114887.0 466710.0 0
125108.0 465247.0 0
128952.0 465764.0 0
132831.0 466192.0 0
136723.0 466529.0 0
146946.0 463972.0 0
150769.0 464088.0 0
154589.0 464186.0 0
158413.0 464276.0 0
162247.0 464361.0 0
166090.0 464434.0 0
169937.0 464492.0 0
173787.0 464537.0 0
177636.0 464571.0 0
181483.0 464601.0 0
185326.0 464632.0 0
189163.0 464675.0 0
192991.0 464743.0 0
196812.0 464857.0 0
200635.0 465038.0 0
204482.0 465285.0 0
208381.0 465556.0 0
212254.0 465721.0 0
216092.0 465821.0 0
219903.0 465883.0 0
223689.0 465921.0 0
227456.0 465944.0 0
231207.0 465957.0 0
234944.0 465967.0 0
238668.0 465976.0 0
242382.0 465991.0 0
246088.0 466016.0 0
249786.0 466057.0 0
277546.0 463735.0 0
281288.0 463902.0 0
285042.0 464063.0 0
288808.0 464216.0 0
292586.0 464359.0 0
296374.0 464488.0 0
300173.0 464603.0 0
303980.0 464703.0 0
307793.0 464787.0 0
311612.0 464857.0 0
315434.0 464915.0 0
319257.0 464962.0 0
323082.0 465002.0 0
326909.0 465038.0 0
330741.0 465066.0 0
334581.0 465079.0 0
338427.0 465073.0 0
342276.0 465054.0 0
346124.0 465025.0 0
349977.0 464981.0 0
353843.0 464900.0 0
357727.0 464753.0 0
361626.0 464517.0 0
365523.0 464203.0 0
375681.0 466404.0 0
379579.0 465927.0 0
386036.0 467985.0 0
389880.0 467254.0 0
393650.0 466469.0 0
397313.0 466507.0 0
401103.0 465867.0 0
407574.0 467510.0 0
413125.0 469516.0 0
416359.0 468279.0 0
419543.0 466839.0 0
425964.0 467456.0 0
432567.0 467908.0 0
439299.0 468325.0 0
446094.0 468659.0 0
51221.4 470339.0 0
58061.1 470004.0 0
61528.5 471769.0 0
64837.4 469589.0 0
68280.1 471310.0 0
74921.6 470754.0 0
81472.8 470025.0 0
84982.9 471409.0 0
87965.0 468921.0 0
91497.3 470014.0 0
97928.6 468559.0 0
108267.0 468300.0 0
112090.0 469252.0 0
118671.0 467461.0 0
122491.0 468066.0 0
126358.0 468591.0 0
130257.0 469040.0 0
134173.0 469414.0 0
140612.0 466785.0 0
144487.0 466974.0 0
148349.0 467120.0 0
152202.0 467240.0 0
156052.0 467340.0 0
159903.0 467428.0 0
163758.0 467506.0 0
167617.0 467572.0 0
171478.0 467628.0 0
175338.0 467674.0 0
179196.0 467715.0 0
183049.0 467756.0 0
186897.0 467805.0 0
190736.0 467873.0 0
194568.0 467972.0 0
198398.0 468115.0 0
202237.0 468305.0 0
206099.0 468525.0 0
209984.0 468740.0 0
253479.0 466118.0 0
257172.0 466203.0 0
260868.0 466312.0 0
264573.0 466441.0 0
268289.0 466584.0 0
272017.0 466735.0 0
275757.0 466889.0 0
279510.0 467043.0 0
283275.0 467194.0 0
287051.0 467338.0 0
290838.0 467473.0 0
294635.0 467598.0 0
298442.0 467709.0 0
302258.0 467807.0 0
306081.0 467891.0 0
309909.0 467962.0 0
313742.0 468021.0 0
317579.0 468068.0 0
321418.0 468107.0 0
325260.0 468139.0 0
329107.0 468163.0 0
332961.0 468174.0 0
336822.0 468170.0 0
340687.0 468152.0 0
344557.0 468121.0 0
348432.0 468073.0 0
352320.0 467994.0 0
356221.0 467860.0 0
360132.0 467654.0 0
364046.0 467382.0 0
367944.0 467062.0 0
371804.0 466764.0 0
378220.0 469170.0 0
382139.0 468628.0 0
388547.0 470748.0 0
392355.0 470100.0 0
396073.0 469754.0 0
399925.0 469244.0 0
403754.0 468467.0 0
415932.0 472136.0 0
419329.0 470735.0 0
422656.0 469147.0 0
429180.0 469658.0 0
435872.0 470077.0 0
442639.0 470474.0 0
449464.0 470769.0 0
54704.0 472162.0 0
58199.3 473954.0 0
65011.6 473518.0 0
71742.5 473013.0 0
78379.4 472344.0 0
81920.2 473821.0 0
88560.6 472622.0 0
95097.0 471111.0 0
98790.0 472201.0 0
101655.0 469689.0 0
105438.0 470824.0 0
109222.0 471833.0 0
115968.0 470238.0 0
119847.0 470916.0 0
123755.0 471451.0 0
127687.0 471914.0 0
138095.0 469714.0 0
142010.0 469952.0 0
145910.0 470137.0 0
149797.0 470284.0 0
153674.0 470404.0 0
157547.0 470505.0 0
161418.0 470591.0 0
165289.0 470665.0 0
169161.0 470729.0 0
173032.0 470785.0 0
176901.0 470836.0 0
180765.0 470886.0 0
184623.0 470941.0 0
188475.0 471010.0 0
192321.0 471101.0 0
196162.0 471223.0 0
200007.0 471381.0 0
203863.0 471567.0 0
213854.0 468896.0 0
217700.0 469005.0 0
221522.0 469081.0 0
225324.0 469136.0 0
229107.0 469176.0 0
232875.0 469206.0 0
236629.0 469232.0 0
240373.0 469259.0 0
244107.0 469290.0 0
247833.0 469332.0 0
251554.0 469388.0 0
255273.0 469463.0 0
258993.0 469556.0 0
262718.0 469667.0 0
266451.0 469792.0 0
270194.0 469927.0 0
273948.0 470066.0 0
277712.0 470207.0 0
281487.0 470347.0 0
285274.0 470482.0 0
289070.0 470610.0 0
292876.0 470729.0 0
296692.0 470836.0 0
300516.0 470932.0 0
304348.0 471015.0 0
308186.0 471085.0 0
312030.0 471144.0 0
315877.0 471191.0 0
319729.0 471229.0 0
323585.0 471258.0 0
327446.0 471279.0 0
331313.0 471288.0 0
335187.0 471284.0 0
339068.0 471268.0 0
342954.0 471236.0 0
346848.0 471187.0 0
350754.0 471111.0 0
354672.0 470991.0 0
358600.0 470811.0 0
362532.0 470561.0 0
366474.0 470265.0 0
370386.0 469962.0 0
374298.0 469609.0 0
384668.0 471376.0 0
391026.0 473635.0 0
394818.0 473163.0 0
398644.0 472656.0 0
402469.0 472012.0 0
406201.0 471225.0 0
409764.0 470476.0 0
418879.0 474651.0 0
422371.0 473101.0 0
425791.0 471408.0 0
432429.0 471844.0 0
435728.0 474008.0 0
439201.0 472276.0 0
445957.0 472634.0 0
61709.7 475726.0 0
68517.4 475252.0 0
72057.3 476965.0 0
75241.1 474669.0 0
78803.5 476206.0 0
85538.8 475156.0 0
92187.6 473724.0 0
95873.0 474785.0 0
102555.0 473270.0 0
106386.0 474470.0 0
113042.0 472707.0 0
117220.0 473798.0 0
121169.0 474350.0 0
125130.0 474814.0 0
131629.0 472309.0 0
135580.0 472639.0 0
139528.0 472913.0 0
143462.0 473138.0 0
147381.0 473319.0 0
151286.0 473465.0 0
155181.0 473585.0 0
159070.0 473685.0 0
162956.0 473770.0 0
166839.0 473843.0 0
170721.0 473907.0 0
174600.0 473966.0 0
178475.0 474024.0 0
182346.0 474085.0 0
186210.0 474155.0 0
190069.0 474242.0 0
207735.0 471765.0 0
211616.0 471952.0 0
215486.0 472102.0 0
219339.0 472218.0 0
223172.0 472306.0 0
226987.0 472375.0 0
230785.0 472429.0 0
234569.0 472474.0 0
238341.0 472515.0 0
242103.0 472556.0 0
245856.0 472603.0 0
249604.0 472658.0 0
253349.0 472727.0 0
257092.0 472810.0 0
260839.0 472907.0 0
264590.0 473017.0 0
268349.0 473137.0 0
272117.0 473263.0 0
275894.0 473393.0 0
279680.0 473521.0 0
283477.0 473647.0 0
287283.0 473768.0 0
291099.0 473881.0 0
345226.0 474321.0 0
349146.0 474248.0 0
353079.0 474140.0 0
357026.0 473984.0 0
360980.0 473761.0 0
364958.0 473446.0 0
368929.0 473174.0 0
372869.0 472842.0 0
376809.0 472433.0 0
380748.0 471944.0 0
397376.0 476116.0 0
401234.0 475539.0 0
405047.0 474865.0 0
408766.0 474148.0 0
412409.0 473287.0 0
421937.0 477078.0 0
425500.0 475387.0 0
428984.0 473628.0 0
432253.0 475817.0 0
65242.9 477483.0 0
68810.7 479221.0 0
75642.2 478616.0 0
82463.3 477621.0 0
86175.4 478929.0 0
89205.2 476332.0 0
92919.4 477408.0 0
99604.6 475809.0 0
103373.0 476824.0 0
110209.0 475397.0 0
114074.0 476112.0 0
118657.0 477321.0 0
129103.0 475231.0 0
133082.0 475573.0 0
137056.0 475873.0 0
141017.0 476130.0 0
144963.0 476345.0 0
148894.0 476522.0 0
152810.0 476667.0 0
156717.0 476785.0 0
160618.0 476884.0 0
193924.0 474352.0 0
197779.0 474489.0 0
201640.0 474652.0 0
205511.0 474832.0 0
209391.0 475016.0 0
213273.0 475189.0 0
217147.0 475336.0 0
221007.0 475457.0 0
224850.0 475556.0 0
228676.0 475636.0 0
232488.0 475703.0 0
236288.0 475761.0 0
240077.0 475814.0 0
243857.0 475868.0 0
247631.0 475926.0 0
251400.0 475993.0 0
255167.0 476069.0 0
258935.0 476158.0 0
262706.0 476256.0 0
266482.0 476364.0 0
270264.0 476479.0 0
294923.0 473984.0 0
298756.0 474077.0 0
302596.0 474158.0 0
306443.0 474227.0 0
310296.0 474285.0 0
314154.0 474332.0 0
318018.0 474368.0 0
321885.0 474396.0 0
325758.0 474414.0 0
329638.0 474421.0 0
333524.0 474417.0 0
337417.0 474401.0 0
341317.0 474370.0 0
359365.0 476984.0 0
363418.0 476637.0 0
367388.0 476355.0 0
371413.0 476098.0 0
375370.0 475718.0 0
379322.0 475268.0 0
383263.0 474759.0 0
387170.0 474205.0 0
393517.0 476627.0 0
403856.0 478443.0 0
407714.0 477772.0 0
411522.0 476990.0 0
415263.0 475948.0 0
428745.0 477615.0 0
435614.0 477954.0 0
79335.0 480055.0 0
83079.5 481442.0 0
89937.5 480043.0 0
96664.7 478438.0 0
100422.0 479422.0 0
107459.0 478174.0 0
111332.0 478959.0 0
115377.0 479422.0 0
122618.0 477770.0 0
126594.0 478168.0 0
130623.0 478537.0 0
134611.0 478845.0 0
138590.0 479125.0 0
142555.0 479370.0 0
164514.0 476967.0 0
168407.0 477041.0 0
172297.0 477107.0 0
176184.0 477171.0 0
180065.0 477237.0 0
183942.0 477310.0 0
187814.0 477395.0 0
191682.0 477497.0 0
195550.0 477621.0 0
199420.0 477766.0 0
203295.0 477930.0 0
207178.0 478105.0 0
211066.0 478281.0 0
214954.0 478447.0 0
218833.0 478594.0 0
222700.0 478721.0 0
226553.0 478828.0 0
230391.0 478919.0 0
234217.0 478996.0 0
274055.0 476597.0 0
277853.0 476716.0 0
281661.0 476833.0 0
285477.0 476946.0 0
289302.0 477053.0 0
293135.0 477152.0 0
296976.0 477241.0 0
300825.0 477320.0 0
304681.0 477388.0 0
308543.0 477444.0 0
312410.0 477490.0 0
316283.0 477526.0 0
320162.0 477552.0 0
324046.0 477568.0 0
327936.0 477574.0 0
331833.0 477569.0 0
335737.0 477552.0 0
339648.0 477522.0 0
343568.0 477475.0 0
347498.0 477406.0 0
351440.0 477308.0 0
355396.0 477170.0 0
365823.0 479578.0 0
369782.0 479284.0 0
373918.0 479031.0 0
377874.0 478609.0 0
381826.0 478141.0 0
385759.0 477642.0 0
389656.0 477123.0 0
396063.0 479595.0 0
399966.0 479052.0 0
410452.0 480662.0 0
414424.0 479711.0 0
418234.0 478553.0 0
425183.0 479335.0 0
79936.9 483911.0 0
86953.3 482727.0 0
93724.9 481095.0 0
97507.2 482114.0 0
104219.0 480326.0 0
108635.0 481898.0 0
120198.0 480817.0 0
124164.0 481179.0 0
128162.0 481511.0 0
132203.0 481847.0 0
136188.0 482137.0 0
146505.0 479577.0 0
150441.0 479749.0 0
154364.0 479890.0 0
158279.0 480006.0 0
162188.0 480103.0 0
166093.0 480185.0 0
169994.0 480260.0 0
173891.0 480330.0 0
177784.0 480400.0 0
181673.0 480475.0 0
185557.0 480559.0 0
189438.0 480656.0 0
193317.0 480770.0 0
197197.0 480903.0 0
201081.0 481053.0 0
204971.0 481218.0 0
208865.0 481390.0 0
212761.0 481562.0 0
238032.0 479064.0 0
241837.0 479128.0 0
245636.0 479192.0 0
249429.0 479260.0 0
253219.0 479334.0 0
257008.0 479416.0 0
260798.0 479507.0 0
264592.0 479606.0 0
268390.0 479710.0 0
272195.0 479819.0 0
276006.0 479929.0 0
279825.0 480038.0 0
283651.0 480144.0 0
287486.0 480245.0 0
291328.0 480339.0 0
295178.0 480425.0 0
299035.0 480501.0 0
302899.0 480567.0 0
306770.0 480623.0 0
310646.0 480668.0 0
314528.0 480702.0 0
318416.0 480726.0 0
322310.0 480741.0 0
326209.0 480745.0 0
330116.0 480739.0 0
334029.0 480722.0 0
337950.0 480693.0 0
341879.0 480649.0 0
345816.0 480586.0 0
349762.0 480496.0 0
353719.0 480374.0 0
357686.0 480216.0 0
361864.0 479836.0 0
376418.0 481980.0 0
380369.0 481532.0 0
384319.0 481067.0 0
388251.0 480589.0 0
392159.0 480101.0 0
398629.0 482562.0 0
402578.0 481997.0 0
406522.0 481353.0 0
413310.0 483434.0 0
421109.0 481273.0 0
83894.5 485268.0 0
87806.7 486582.0 0
90778.2 483760.0 0
94606.4 484812.0 0
101292.0 483043.0 0
105102.0 483778.0 0
112853.0 482365.0 0
116817.0 482755.0 0
121817.0 484284.0 0
125792.0 484571.0 0
129795.0 484862.0 0
140165.0 482402.0 0
144130.0 482637.0 0
148080.0 482836.0 0
152017.0 483002.0 0
155944.0 483138.0 0
159864.0 483249.0 0
163780.0 483342.0 0
167692.0 483424.0 0
171600.0 483500.0 0
175504.0 483574.0 0
179404.0 483652.0 0
183300.0 483736.0 0
187193.0 483830.0 0
191083.0 483937.0 0
194974.0 484060.0 0
198867.0 484199.0 0
202763.0 484352.0 0
206665.0 484517.0 0
216656.0 481726.0 0
220542.0 481876.0 0
224417.0 482008.0 0
228279.0 482122.0 0
232130.0 482220.0 0
235969.0 482306.0 0
239799.0 482383.0 0
243621.0 482455.0 0
247438.0 482527.0 0
251250.0 482602.0 0
255060.0 482682.0 0
258870.0 482768.0 0
262681.0 482859.0 0
266495.0 482956.0 0
270314.0 483057.0 0
274139.0 483159.0 0
277969.0 483261.0 0
281807.0 483361.0 0
285651.0 483456.0 0
289503.0 483546.0 0
293361.0 483628.0 0
297227.0 483702.0 0
301099.0 483766.0 0
304977.0 483820.0 0
308862.0 483864.0 0
312752.0 483897.0 0
316648.0 483920.0 0
320550.0 483933.0 0
324459.0 483936.0 0
328374.0 483929.0 0
332295.0 483912.0 0
336224.0 483884.0 0
340160.0 483843.0 0
344104.0 483785.0 0
348054.0 483706.0 0
352011.0 483599.0 0
355972.0 483460.0 0
360254.0 483018.0 0
364244.0 482826.0 0
368203.0 482553.0 0
372161.0 482216.0 0
382853.0 484495.0 0
386807.0 484044.0 0
390751.0 483583.0 0
394683.0 483088.0 0
401193.0 485545.0 0
405232.0 484920.0 0
409172.0 484308.0 0
417214.0 482588.0 0
80789.6 487772.0 0
84730.5 489133.0 0
91685.5 487493.0 0
98439.4 485825.0 0
102285.0 486682.0 0
106872.0 486839.0 0
110451.0 485392.0 0
114398.0 485816.0 0
118367.0 486106.0 0
123499.0 487719.0 0
133817.0 485174.0 0
137800.0 485451.0 0
141773.0 485706.0 0
145734.0 485932.0 0
149681.0 486123.0 0
153618.0 486280.0 0
157547.0 486407.0 0
161472.0 486512.0 0
165393.0 486601.0 0
169312.0 486682.0 0
173227.0 486761.0 0
177138.0 486841.0 0
181044.0 486925.0 0
184947.0 487017.0 0
188849.0 487120.0 0
210570.0 484689.0 0
214476.0 484860.0 0
218378.0 485026.0 0
222272.0 485179.0 0
226156.0 485316.0 0
230028.0 485436.0 0
233891.0 485540.0 0
237744.0 485632.0 0
241589.0 485715.0 0
245428.0 485794.0 0
249262.0 485873.0 0
253092.0 485953.0 0
256921.0 486036.0 0
260750.0 486124.0 0
264580.0 486215.0 0
268414.0 486309.0 0
272252.0 486405.0 0
276095.0 486501.0 0
279943.0 486595.0 0
283798.0 486686.0 0
287659.0 486771.0 0
291526.0 486850.0 0
295400.0 486921.0 0
330536.0 487121.0 0
334472.0 487094.0 0
338415.0 487055.0 0
342365.0 487003.0 0
346319.0 486934.0 0
350278.0 486843.0 0
354239.0 486723.0 0
358597.0 486220.0 0
362575.0 486035.0 0
366621.0 485850.0 0
370583.0 485540.0 0
374542.0 485158.0 0
378902.0 484948.0 0
393250.0 486607.0 0
397202.0 486076.0 0
403858.0 488468.0 0
407803.0 487959.0 0
411991.0 487117.0 0
95550.3 488560.0 0
99500.2 489555.0 0
112063.0 488959.0 0
116035.0 489252.0 0
120011.0 489477.0 0
127474.0 487961.0 0
131462.0 488232.0 0
135461.0 488522.0 0
139440.0 488791.0 0
143409.0 489039.0 0
147364.0 489256.0 0
151307.0 489437.0 0
155241.0 489582.0 0
159172.0 489698.0 0
163102.0 489794.0 0
192749.0 487235.0 0
196651.0 487364.0 0
200556.0 487507.0 0
204464.0 487664.0 0
208378.0 487830.0 0
212293.0 488002.0 0
216208.0 488176.0 0
220119.0 488345.0 0
224022.0 488502.0 0
227916.0 488643.0 0
231799.0 488768.0 0
235674.0 488876.0 0
239540.0 488972.0 0
243401.0 489061.0 0
247255.0 489145.0 0
251106.0 489228.0 0
254953.0 489311.0 0
258799.0 489397.0 0
262646.0 489485.0 0
299280.0 486983.0 0
303166.0 487036.0 0
307058.0 487079.0 0
310956.0 487111.0 0
314860.0 487133.0 0
318769.0 487145.0 0
322685.0 487147.0 0
326607.0 487139.0 0
356924.0 489449.0 0
360894.0 489284.0 0
364865.0 489071.0 0
369002.0 488891.0 0
372967.0 488535.0 0
376927.0 488122.0 0
381360.0 487944.0 0
385313.0 487495.0 0
389284.0 487064.0 0
399721.0 489079.0 0
410586.0 490802.0 0
92600.8 491249.0 0
96603.8 492314.0 0
104364.0 489829.0 0
108330.0 490143.0 0
125209.0 491136.0 0
129176.0 491360.0 0
133154.0 491620.0 0
137134.0 491897.0 0
141106.0 492160.0 0
167030.0 489880.0 0
170954.0 489961.0 0
174875.0 490044.0 0
178791.0 490129.0 0
182705.0 490220.0 0
186615.0 490319.0 0
190525.0 490428.0 0
194435.0 490549.0 0
198347.0 490683.0 0
202263.0 490830.0 0
206183.0 490988.0 0
210107.0 491156.0 0
214033.0 491332.0 0
217959.0 491509.0 0
221880.0 491682.0 0
225792.0 491844.0 0
266495.0 489575.0 0
270346.0 489666.0 0
274201.0 489756.0 0
278061.0 489846.0 0
281926.0 489932.0 0
285797.0 490014.0 0
289673.0 490090.0 0
293555.0 490159.0 0
297443.0 490219.0 0
301337.0 490271.0 0
305236.0 490312.0 0
309141.0 490344.0 0
313052.0 490365.0 0
316968.0 490377.0 0
320891.0 490378.0 0
324819.0 490369.0 0
328754.0 490351.0 0
332695.0 490323.0 0
336644.0 490286.0 0
340599.0 490238.0 0
344559.0 490179.0 0
348521.0 490103.0 0
352484.0 490004.0 0
363173.0 492372.0 0
367140.0 492117.0 0
371382.0 491935.0 0
375349.0 491544.0 0
379309.0 491119.0 0
383777.0 490974.0 0
387730.0 490533.0 0
391743.0 490119.0 0
395784.0 489631.0 0
402367.0 491975.0 0
406316.0 491614.0 0
93654.9 495014.0 0
101743.0 492756.0 0
105969.0 493262.0 0
109975.0 493438.0 0
113778.0 492465.0 0
117749.0 492684.0 0
121717.0 492883.0 0
126927.0 494550.0 0
130889.0 494771.0 0
134858.0 495029.0 0
145067.0 492402.0 0
149015.0 492611.0 0
152952.0 492777.0 0
156885.0 492904.0 0
160819.0 493005.0 0
164755.0 493093.0 0
168689.0 493177.0 0
172618.0 493261.0 0
176544.0 493347.0 0
180466.0 493438.0 0
184385.0 493534.0 0
188303.0 493639.0 0
192220.0 493754.0 0
196139.0 493879.0 0
200061.0 494016.0 0
203987.0 494165.0 0
207918.0 494326.0 0
211853.0 494497.0 0
215790.0 494676.0 0
229695.0 491989.0 0
233590.0 492116.0 0
237477.0 492227.0 0
241358.0 492326.0 0
245232.0 492419.0 0
249102.0 492507.0 0
252968.0 492593.0 0
256831.0 492679.0 0
260694.0 492765.0 0
264557.0 492852.0 0
268422.0 492940.0 0
272289.0 493027.0 0
276161.0 493112.0 0
280036.0 493195.0 0
283917.0 493274.0 0
287802.0 493347.0 0
291693.0 493414.0 0
295589.0 493473.0 0
299490.0 493523.0 0
303396.0 493564.0 0
307308.0 493596.0 0
311225.0 493617.0 0
315148.0 493628.0 0
319076.0 493629.0 0
323010.0 493620.0 0
326950.0 493601.0 0
330895.0 493573.0 0
334848.0 493537.0 0
338806.0 493491.0 0
342771.0 493438.0 0
346739.0 493376.0 0
350705.0 493298.0 0
355229.0 492696.0 0
359200.0 492557.0 0
373751.0 494982.0 0
377717.0 494581.0 0
381675.0 494161.0 0
386159.0 494042.0 0
390111.0 493599.0 0
394261.0 493145.0 0
398339.0 492690.0 0
409080.0 494478.0 0
98908.6 495505.0 0
103457.0 496273.0 0
107707.0 496644.0 0
111704.0 496775.0 0
115538.0 495940.0 0
119498.0 496128.0 0
123455.0 496328.0 0
138828.0 495299.0 0
142791.0 495560.0 0
146743.0 495796.0 0
150685.0 495994.0 0
154616.0 496138.0 0
158550.0 496241.0 0
162492.0 496326.0 0
166432.0 496409.0 0
170370.0 496494.0 0
174303.0 496581.0 0
178233.0 496671.0 0
182159.0 496767.0 0
186084.0 496868.0 0
190009.0 496977.0 0
193934.0 497096.0 0
197861.0 497224.0 0
201792.0 497364.0 0
205728.0 497515.0 0
219727.0 494860.0 0
223657.0 495040.0 0
227579.0 495206.0 0
231493.0 495352.0 0
235400.0 495479.0 0
239300.0 495591.0 0
243194.0 495693.0 0
247082.0 495789.0 0
250966.0 495880.0 0
254846.0 495968.0 0
258724.0 496055.0 0
262602.0 496141.0 0
266480.0 496227.0 0
270360.0 496311.0 0
274243.0 496394.0 0
278129.0 496474.0 0
282019.0 496550.0 0
285913.0 496621.0 0
289812.0 496687.0 0
293716.0 496744.0 0
297625.0 496794.0 0
301539.0 496835.0 0
305457.0 496866.0 0
309380.0 496887.0 0
313309.0 496898.0 0
317242.0 496899.0 0
321181.0 496891.0 0
325125.0 496872.0 0
329075.0 496844.0 0
333030.0 496808.0 0
336991.0 496764.0 0
340957.0 496714.0 0
344928.0 496660.0 0
348900.0 496602.0 0
353502.0 495961.0 0
357477.0 495846.0 0
361459.0 495686.0 0
365446.0 495479.0 0
369423.0 495164.0 0
384018.0 497245.0 0
388531.0 497142.0 0
392567.0 496611.0 0
396726.0 496229.0 0
401253.0 495602.0 0
95997.8 498198.0 0
100667.0 499054.0 0
105273.0 499744.0 0
117307.0 499408.0 0
121256.0 499597.0 0
125205.0 499809.0 0
128647.0 497969.0 0
132607.0 498198.0 0
136571.0 498461.0 0
140533.0 498732.0 0
144487.0 498991.0 0
148435.0 499220.0 0
152375.0 499406.0 0
156300.0 499512.0 0
160244.0 499583.0 0
164189.0 499661.0 0
168132.0 499744.0 0
172071.0 499831.0 0
176007.0 499922.0 0
179941.0 500016.0 0
209668.0 497678.0 0
213613.0 497851.0 0
217562.0 498035.0 0
221511.0 498231.0 0
225453.0 498417.0 0
229384.0 498584.0 0
233310.0 498729.0 0
237229.0 498856.0 0
241142.0 498969.0 0
245048.0 499074.0 0
248949.0 499171.0 0
252845.0 499264.0 0
256738.0 499353.0 0
260630.0 499441.0 0
264521.0 499526.0 0
268413.0 499609.0 0
272307.0 499690.0 0
276204.0 499768.0 0
280104.0 499842.0 0
284008.0 499912.0 0
335155.0 500058.0 0
339121.0 500009.0 0
343091.0 499957.0 0
347062.0 499909.0 0
351742.0 499243.0 0
355717.0 499153.0 0
359703.0 499014.0 0
363695.0 498835.0 0
367751.0 498578.0 0
371734.0 498220.0 0
376094.0 498050.0 0
380059.0 497653.0 0
394956.0 499710.0 0
399537.0 499023.0 0
404823.0 497374.0 0
94443.2 501853.0 0
109487.0 500021.0 0
113462.0 500182.0 0
130364.0 501399.0 0
134327.0 501646.0 0
138287.0 501921.0 0
142241.0 502197.0 0
183872.0 500115.0 0
187803.0 500220.0 0
191733.0 500333.0 0
195665.0 500454.0 0
199600.0 500585.0 0
203538.0 500726.0 0
207482.0 500879.0 0
211431.0 501043.0 0
215385.0 501220.0 0
219347.0 501412.0 0
223312.0 501619.0 0
227263.0 501814.0 0
231208.0 501977.0 0
235146.0 502120.0 0
239077.0 502246.0 0
243001.0 502361.0 0
287915.0 499976.0 0
291827.0 500033.0 0
295743.0 500082.0 0
299664.0 500123.0 0
303589.0 500154.0 0
307518.0 500176.0 0
311452.0 500188.0 0
315391.0 500190.0 0
319335.0 500181.0 0
323283.0 500163.0 0
327236.0 500136.0 0
331193.0 500101.0 0
349928.0 502532.0 0
353923.0 502480.0 0
357912.0 502358.0 0
361908.0 502202.0 0
365971.0 501966.0 0
370074.0 501672.0 0
374051.0 501311.0 0
378407.0 501147.0 0
382375.0 500763.0 0
386336.0 500365.0 0
391009.0 500165.0 0
403024.0 500945.0 0
98481.0 502348.0 0
102519.0 502584.0 0
107163.0 503183.0 0
111240.0 503448.0 0
115202.0 503655.0 0
119060.0 502887.0 0
123010.0 503089.0 0
126959.0 503319.0 0
132074.0 504841.0 0
136047.0 505123.0 0
146192.0 502452.0 0
150143.0 502670.0 0
154093.0 502844.0 0
158020.0 502873.0 0
161962.0 502937.0 0
165906.0 503015.0 0
169850.0 503100.0 0
173791.0 503190.0 0
177730.0 503283.0 0
181667.0 503380.0 0
185603.0 503482.0 0
189538.0 503590.0 0
193475.0 503705.0 0
197412.0 503829.0 0
201353.0 503961.0 0
205298.0 504104.0 0
209248.0 504258.0 0
213204.0 504424.0 0
217168.0 504604.0 0
221143.0 504800.0 0
246918.0 502467.0 0
250829.0 502566.0 0
254737.0 502660.0 0
258642.0 502750.0 0
262546.0 502836.0 0
266451.0 502919.0 0
270356.0 502999.0 0
274263.0 503076.0 0
278172.0 503149.0 0
282085.0 503218.0 0
286001.0 503281.0 0
289921.0 503338.0 0
293844.0 503387.0 0
297772.0 503428.0 0
301703.0 503461.0 0
305639.0 503483.0 0
309579.0 503496.0 0
313523.0 503499.0 0
317471.0 503492.0 0
321424.0 503475.0 0
325380.0 503449.0 0
329340.0 503415.0 0
333304.0 503373.0 0
337270.0 503326.0 0
341239.0 503275.0 0
345208.0 503226.0 0
364168.0 505367.0 0
368289.0 505083.0 0
372374.0 504798.0 0
376354.0 504440.0 0
380692.0 504278.0 0
384667.0 503913.0 0
388814.0 503375.0 0
393371.0 503309.0 0
397769.0 502440.0 0
96057.8 505502.0 0
100325.0 505893.0 0
104477.0 506072.0 0
108978.0 506666.0 0
112968.0 506937.0 0
116936.0 507171.0 0
120803.0 506383.0 0
124757.0 506603.0 0
128712.0 506854.0 0
139999.0 505416.0 0
143945.0 505694.0 0
147901.0 505933.0 0
151861.0 506141.0 0
155811.0 506328.0 0
159748.0 506241.0 0
163693.0 506307.0 0
167639.0 506388.0 0
171584.0 506476.0 0
175528.0 506567.0 0
179470.0 506663.0 0
183411.0 506762.0 0
187352.0 506866.0 0
191292.0 506977.0 0
195233.0 507094.0 0
199175.0 507220.0 0
203121.0 507354.0 0
207070.0 507498.0 0
211024.0 507653.0 0
214983.0 507820.0 0
218950.0 508000.0 0
222924.0 508203.0 0
225124.0 505035.0 0
229094.0 505222.0 0
233052.0 505383.0 0
237002.0 505524.0 0
240942.0 505652.0 0
244874.0 505768.0 0
248801.0 505875.0 0
252722.0 505975.0 0
256640.0 506068.0 0
260556.0 506157.0 0
264472.0 506241.0 0
268388.0 506321.0 0
272305.0 506398.0 0
276224.0 506471.0 0
280146.0 506539.0 0
284070.0 506602.0 0
287998.0 506659.0 0
291929.0 506709.0 0
295863.0 506751.0 0
299801.0 506784.0 0
303743.0 506808.0 0
307689.0 506822.0 0
311638.0 506826.0 0
315591.0 506821.0 0
319548.0 506806.0 0
323508.0 506781.0 0
327472.0 506749.0 0
331438.0 506709.0 0
335407.0 506663.0 0
339377.0 506613.0 0
343347.0 506563.0 0
348076.0 505854.0 0
352057.0 505790.0 0
356108.0 505730.0 0
360096.0 505577.0 0
378640.0 507608.0 0
382939.0 507451.0 0
387159.0 506914.0 0
391124.0 506548.0 0
396256.0 506003.0 0
400379.0 505402.0 0
404309.0 504726.0 0
97888.9 509048.0 0
102294.0 509371.0 0
106350.0 509613.0 0
122543.0 509897.0 0
126502.0 510139.0 0
130459.0 510414.0 0
133769.0 508295.0 0
137764.0 508647.0 0
141692.0 508953.0 0
145650.0 509206.0 0
149620.0 509430.0 0
153589.0 509638.0 0
161486.0 509622.0 0
165436.0 509696.0 0
169386.0 509781.0 0
173335.0 509870.0 0
177283.0 509964.0 0
181229.0 510061.0 0
185174.0 510162.0 0
189118.0 510269.0 0
193062.0 510381.0 0
226977.0 508465.0 0
230953.0 508646.0 0
234918.0 508804.0 0
238873.0 508945.0 0
242820.0 509073.0 0
246760.0 509190.0 0
250694.0 509297.0 0
254624.0 509396.0 0
258552.0 509488.0 0
262478.0 509575.0 0
266405.0 509656.0 0
270332.0 509734.0 0
274260.0 509807.0 0
278190.0 509875.0 0
282123.0 509938.0 0
286058.0 509995.0 0
289997.0 510046.0 0
293938.0 510089.0 0
297883.0 510124.0 0
301831.0 510149.0 0
305783.0 510165.0 0
309738.0 510172.0 0
313696.0 510168.0 0
317657.0 510155.0 0
321622.0 510133.0 0
325589.0 510102.0 0
329559.0 510064.0 0
333530.0 510020.0 0
337503.0 509971.0 0
341477.0 509921.0 0
346214.0 509210.0 0
350193.0 509141.0 0
354179.0 509049.0 0
358303.0 508993.0 0
362326.0 508773.0 0
366483.0 508509.0 0
370571.0 508243.0 0
374657.0 507950.0 0
394024.0 509207.0 0
398760.0 509051.0 0
402730.0 508614.0 0
110719.0 510192.0 0
114704.0 510460.0 0
118674.0 510718.0 0
135431.0 511756.0 0
143377.0 512487.0 0
157544.0 509840.0 0
163239.0 513020.0 0
167196.0 513103.0 0
197007.0 510501.0 0
200953.0 510628.0 0
204901.0 510764.0 0
208853.0 510909.0 0
212809.0 511065.0 0
216771.0 511232.0 0
220738.0 511414.0 0
224717.0 511607.0 0
228850.0 511911.0 0
232828.0 512086.0 0
236796.0 512242.0 0
240755.0 512383.0 0
244707.0 512511.0 0
248653.0 512627.0 0
252594.0 512733.0 0
256533.0 512830.0 0
344341.0 512591.0 0
348322.0 512521.0 0
352310.0 512436.0 0
356300.0 512317.0 0
360544.0 512231.0 0
364631.0 511935.0 0
368750.0 511700.0 0
372848.0 511423.0 0
376913.0 511137.0 0
380892.0 510822.0 0
385450.0 510438.0 0
389428.0 510120.0 0
401076.0 512280.0 0
99868.8 512516.0 0
104150.0 512907.0 0
108135.0 513197.0 0
112456.0 513732.0 0
116441.0 514013.0 0
120412.0 514295.0 0
124278.0 513431.0 0
128238.0 513699.0 0
132199.0 513997.0 0
139337.0 512578.0 0
147373.0 512721.0 0
151363.0 512938.0 0
155336.0 513160.0 0
159297.0 513370.0 0
171151.0 513191.0 0
175105.0 513283.0 0
179057.0 513378.0 0
183007.0 513477.0 0
186955.0 513580.0 0
190902.0 513689.0 0
194849.0 513804.0 0
198796.0 513925.0 0
202744.0 514055.0 0
206695.0 514192.0 0
210648.0 514338.0 0
214606.0 514495.0 0
218570.0 514662.0 0
222541.0 514838.0 0
226522.0 515022.0 0
260470.0 512920.0 0
264406.0 513004.0 0
268343.0 513082.0 0
272280.0 513156.0 0
276219.0 513225.0 0
280160.0 513289.0 0
284103.0 513347.0 0
288049.0 513399.0 0
291997.0 513443.0 0
295948.0 513480.0 0
299903.0 513507.0 0
303860.0 513526.0 0
307821.0 513534.0 0
311784.0 513533.0 0
315751.0 513522.0 0
319720.0 513502.0 0
323691.0 513474.0 0
327665.0 513438.0 0
331640.0 513396.0 0
335617.0 513348.0 0
339595.0 513298.0 0
358479.0 515559.0 0
362857.0 515426.0 0
366882.0 515154.0 0
371019.0 514906.0 0
375105.0 514635.0 0
379137.0 514369.0 0
383442.0 513823.0 0
387664.0 513667.0 0
392350.0 512761.0 0
396471.0 512318.0 0
97981.0 516024.0 0
102133.0 516324.0 0
106147.0 516641.0 0
110134.0 516958.0 0
114188.0 517293.0 0
125999.0 516993.0 0
129968.0 517280.0 0
136529.0 515426.0 0
141127.0 516152.0 0
145123.0 516016.0 0
149154.0 516235.0 0
153132.0 516474.0 0
157104.0 516702.0 0
161070.0 516912.0 0
165010.0 516439.0 0
168975.0 516528.0 0
172937.0 516619.0 0
176895.0 516712.0 0
180851.0 516809.0 0
184804.0 516910.0 0
188755.0 517016.0 0
192703.0 517128.0 0
196651.0 517245.0 0
200599.0 517368.0 0
204549.0 517500.0 0
208500.0 517638.0 0
212456.0 517786.0 0
216416.0 517942.0 0
220382.0 518107.0 0
224356.0 518278.0 0
228337.0 518453.0 0
230732.0 515372.0 0
234710.0 515542.0 0
238681.0 515697.0 0
242644.0 515837.0 0
246600.0 515964.0 0
250552.0 516079.0 0
254500.0 516182.0 0
258447.0 516276.0 0
262393.0 516363.0 0
266339.0 516444.0 0
270285.0 516519.0 0
274232.0 516589.0 0
278181.0 516654.0 0
282131.0 516713.0 0
286084.0 516766.0 0
290040.0 516813.0 0
293997.0 516851.0 0
297958.0 516881.0 0
301922.0 516902.0 0
305888.0 516914.0 0
309857.0 516915.0 0
313828.0 516907.0 0
317802.0 516890.0 0
321778.0 516864.0 0
325757.0 516830.0 0
329737.0 516790.0 0
333718.0 516744.0 0
337699.0 516694.0 0
342453.0 515994.0 0
346437.0 515923.0 0
350429.0 515841.0 0
354428.0 515742.0 0
377322.0 517893.0 0
381692.0 517367.0 0
385672.0 517087.0 0
390588.0 516302.0 0
394732.0 515907.0 0
398779.0 515551.0 0
99821.2 519571.0 0
103875.0 519919.0 0
118173.0 517594.0 0
122140.0 517963.0 0
127729.0 520574.0 0
133809.0 518309.0 0
138231.0 518905.0 0
146952.0 519525.0 0
150932.0 519790.0 0
166806.0 519878.0 0
170779.0 519971.0 0
174746.0 520064.0 0
178709.0 520159.0 0
182667.0 520259.0 0
186621.0 520363.0 0
190571.0 520471.0 0
194520.0 520585.0 0
198467.0 520705.0 0
202415.0 520831.0 0
206365.0 520964.0 0
210316.0 521104.0 0
232616.0 518848.0 0
236596.0 519015.0 0
240569.0 519169.0 0
244535.0 519309.0 0
248496.0 519433.0 0
252454.0 519544.0 0
256410.0 519644.0 0
260365.0 519734.0 0
264320.0 519818.0 0
268274.0 519895.0 0
272230.0 519967.0 0
276186.0 520033.0 0
280144.0 520094.0 0
284104.0 520149.0 0
288066.0 520197.0 0
292030.0 520238.0 0
295997.0 520270.0 0
299967.0 520294.0 0
303939.0 520309.0 0
307914.0 520314.0 0
311891.0 520309.0 0
315870.0 520294.0 0
319851.0 520271.0 0
323834.0 520240.0 0
327819.0 520202.0 0
331805.0 520158.0 0
335791.0 520110.0 0
340552.0 519417.0 0
344539.0 519347.0 0
348530.0 519266.0 0
352528.0 519174.0 0
356612.0 519020.0 0
360757.0 518759.0 0
365104.0 518674.0 0
369145.0 518382.0 0
373274.0 518139.0 0
392177.0 519904.0 0
396155.0 519599.0 0
400140.0 519295.0 0
107876.0 520245.0 0
111889.0 520550.0 0
115903.0 520872.0 0
119883.0 521263.0 0
123866.0 521569.0 0
131581.0 521605.0 0
135571.0 521886.0 0
139883.0 522441.0 0
142872.0 519781.0 0
154912.0 520031.0 0
158892.0 520259.0 0
162872.0 520458.0 0
168630.0 523336.0 0
172611.0 523430.0 0
214273.0 521252.0 0
218235.0 521407.0 0
222204.0 521568.0 0
226180.0 521735.0 0
230163.0 521905.0 0
234498.0 522339.0 0
238481.0 522505.0 0
242456.0 522659.0 0
246426.0 522796.0 0
250393.0 522916.0 0
254359.0 523022.0 0
258323.0 523117.0 0
262286.0 523204.0 0
266249.0 523284.0 0
333868.0 523544.0 0
338639.0 522859.0 0
342629.0 522792.0 0
346621.0 522713.0 0
350617.0 522621.0 0
354699.0 522474.0 0
358893.0 522250.0 0
362977.0 522019.0 0
367365.0 521925.0 0
371398.0 521634.0 0
375490.0 521417.0 0
379896.0 520900.0 0
383908.0 520646.0 0
388189.0 520149.0 0
101555.0 523168.0 0
105534.0 523551.0 0
109513.0 523888.0 0
113490.0 524210.0 0
117465.0 524528.0 0
129350.0 524911.0 0
142280.0 525564.0 0
145432.0 523168.0 0
149405.0 523463.0 0
153386.0 523711.0 0
157370.0 523949.0 0
161356.0 524146.0 0
176583.0 523526.0 0
180546.0 523625.0 0
184503.0 523728.0 0
188455.0 523835.0 0
192403.0 523947.0 0
196349.0 524063.0 0
200294.0 524185.0 0
204240.0 524314.0 0
208188.0 524448.0 0
212139.0 524588.0 0
216098.0 524737.0 0
220062.0 524891.0 0
224034.0 525048.0 0
228013.0 525212.0 0
231997.0 525380.0 0
270212.0 523358.0 0
274176.0 523426.0 0
278141.0 523489.0 0
282107.0 523545.0 0
286076.0 523596.0 0
290047.0 523639.0 0
294020.0 523675.0 0
297996.0 523702.0 0
301974.0 523720.0 0
305954.0 523728.0 0
309937.0 523726.0 0
313922.0 523715.0 0
317909.0 523695.0 0
321897.0 523667.0 0
325886.0 523631.0 0
329877.0 523589.0 0
352780.0 525941.0 0
356966.0 525730.0 0
361115.0 525535.0 0
365226.0 525281.0 0
369618.0 525195.0 0
373615.0 524928.0 0
378073.0 524435.0 0
382109.0 524197.0 0
386410.0 523730.0 0
390394.0 523465.0 0
394405.0 523188.0 0
398392.0 522887.0 0
102068.0 527132.0 0
106146.0 527501.0 0
121418.0 524992.0 0
125387.0 525289.0 0
133329.0 525194.0 0
137309.0 525483.0 0
146046.0 527110.0 0
150074.0 527397.0 0
165170.0 525321.0 0
170495.0 526810.0 0
174477.0 526909.0 0
178446.0 527009.0 0
182405.0 527112.0 0
186357.0 527219.0 0
190304.0 527329.0 0
194247.0 527443.0 0
198188.0 527563.0 0
202128.0 527688.0 0
206070.0 527818.0 0
210015.0 527955.0 0
213964.0 528090.0 0
217925.0 528244.0 0
221897.0 528393.0 0
225873.0 528548.0 0
229853.0 528711.0 0
233838.0 528879.0 0
236376.0 525844.0 0
240361.0 526013.0 0
244339.0 526167.0 0
248316.0 526297.0 0
252292.0 526411.0 0
256266.0 526511.0 0
260238.0 526602.0 0
264210.0 526685.0 0
268180.0 526762.0 0
272151.0 526832.0 0
276122.0 526897.0 0
280095.0 526956.0 0
284070.0 527009.0 0
288047.0 527055.0 0
292026.0 527094.0 0
296008.0 527124.0 0
299992.0 527145.0 0
303979.0 527157.0 0
307968.0 527160.0 0
311959.0 527152.0 0
315951.0 527136.0 0
319945.0 527111.0 0
323940.0 527077.0 0
327935.0 527037.0 0
331931.0 526994.0 0
336712.0 526318.0 0
340707.0 526255.0 0
344705.0 526181.0 0
348704.0 526092.0 0
386638.0 527711.0 0
390612.0 527443.0 0
394592.0 527167.0 0
398575.0 526869.0 0
110155.0 527834.0 0
114142.0 528154.0 0
118137.0 528461.0 0
122177.0 528919.0 0
126193.0 529206.0 0
130214.0 528812.0 0
134282.0 529073.0 0
138424.0 529316.0 0
142427.0 529524.0 0
154069.0 527646.0 0
158085.0 527881.0 0
162105.0 528072.0 0
166399.0 529124.0 0
170263.0 530774.0 0
174324.0 530877.0 0
178408.0 530980.0 0
182516.0 531082.0 0
186644.0 531179.0 0
238246.0 529367.0 0
242232.0 529543.0 0
246221.0 529686.0 0
250209.0 529808.0 0
254194.0 529915.0 0
258177.0 530011.0 0
262156.0 530099.0 0
266134.0 530178.0 0
270112.0 530252.0 0
274089.0 530319.0 0
278067.0 530381.0 0
282047.0 530436.0 0
286030.0 530485.0 0
290015.0 530527.0 0
294003.0 530560.0 0
297993.0 530585.0 0
301986.0 530601.0 0
305982.0 530608.0 0
309980.0 530605.0 0
313978.0 530592.0 0
317978.0 530570.0 0
321980.0 530540.0 0
325979.0 530503.0 0
329979.0 530461.0 0
334772.0 529793.0 0
338770.0 529733.0 0
342773.0 529663.0 0
346789.0 529581.0 0
350871.0 529437.0 0
354874.0 529321.0 0
358865.0 529225.0 0
362847.0 529116.0 0
366820.0 528923.0 0
370792.0 528998.0 0
374757.0 528741.0 0
378712.0 528362.0 0
382682.0 528135.0 0
190811.0 531267.0 0
194952.0 531351.0 0
199098.0 531428.0 0
203259.0 531494.0 0
207438.0 531547.0 0
211625.0 531586.0 0
215777.0 531614.0 0
219761.0 531763.0 0
223741.0 531914.0 0
227718.0 532071.0 0
231697.0 532234.0 0
235682.0 532404.0 0
POINT_DATA 4650
SCALARS Radius float 1
LOOKUP_TABLE default
4000.0 4000.0 4000.0 4000.0 4000.0 4000.0 4000.0 4000.0 4000.0 4000.0 4000.0 4000.0 4000.0 4000.0 4000.0 4000.0 4000.0 4000.0 4000.0 4000.0 4000.0 4000.0 4000.0 4000.0 4000.0 4000.0 4000.0 4000.0 4000.0 4000.0 4000.0 4000.0 4000.0 4000.0 4000.0 4000.0 4000.0 4000.0 4000.0 4000.0 4000.0 4000.0 4000.0 4000.0 4000.0 4000.0 4000.0 4000.0 4000.0 4000.0 4000.0 4000.0 4000.0 4000.0 4000.0 4000.0 4000.0 4000.0 4000.0 4000.0 4000.0 4000.0 4000.0 4000.0 4000.0 4000.0 4000.0 4000.0 4000.0 4000.0 4000.0 4000.0 4000.0 4000.0 4000.0 4000.0 4000.0 4000.0 4000.0 4000.0 4000.0 4000.0 4000.0 4000.0 4000.0 4000.0 4000.0 4000.0 4000.0 4000.0 4000.0 4000.0 4000.0 4000.0 4000.0 4000.0 4000.0 4000.0 4000.0 4000.0 4000.0 4000.0 4000.0 4000.0 4000.0 4000.0 4000.0 4000.0 4000.0 4000.0 4000.0 4000.0 4000.0 4000.0 4000.0 4000.0 4000.0 4000.0 4000.0 4000.0 4000.0 4000.0 4000.0 4000.0 4000.0 4000.0 4000.0 4000.0 4000.0 4000.0 4000.0 4000.0 4000.0 4000.0 4000.0 4000.0 4000.0 4000.0 4000.0 4000.0 4000.0 4000.0 4000.0 4000.0 4000.0 4000.0 4000.0 4000.0 4000.0 4000.0 4000.0 4000.0 4000.0 4000.0 4000.0 4000.0 4000.0 4000.0 4000.0 4000.0 4000.0 4000.0 4000.0 4000.0 4000.0 4000.0 4000.0 4000.0 4000.0 4000.0 4000.0 4000.0 4000.0 4000.0 4000.0 4000.0 4000.0 4000.0 4000.0 4000.0 4000.0 4000.0 4000.0 4000.0 4000.0 4000.0 4000.0 4000.0 4000.0 4000.0 4000.0 4000.0 4000.0 4000.0 4000.0 4000.0 4000.0 4000.0 4000.0 4000.0 4000.0 4000.0 4000.0 4000.0 4000.0 4000.0 4000.0 4000.0 4000.0 4000.0 4000.0 4000.0 4000.0 4000.0 4000.0 4000.0 4000.0 4000.0 4000.0 4000.0 4000.0 4000.0 4000.0 4000.0 4000.0 4000.0 4000.0 4000.0 4000.0 4000.0 4000.0 4000.0 4000.0 4000.0 4000.0 4000.0 4000.0 4000.0 4000.0 4000.0 4000.0 4000.0 4000.0 4000.0 4000.0 4000.0 4000.0 4000.0 4000.0 4000.0 4000.0 4000.0 4000.0 4000.0 4000.0 4000.0 4000.0 4000.0 4000.0 4000.0 4000.0 4000.0 4000.0 4000.0 4000.0 4000.0 4000.0 4000.0 4000.0 4000.0 4000.0 4000.0 4000.0 4000.0 4000.0 4000.0 4000.0 4000.0 4000.0 4000.0 4000.0 4000.0 4000.0 4000.0 4000.0 4000.0 4000.0 4000.0 4000.0 4000.0 4000.0 4000.0 4000.0 4000.0 4000.0 4000.0 4000.0 4000.0 4000.0 4000.0 4000.0 4000.0 4000.0 4000.0 4000.0 4000.0 4000.0 4000.0 4000.0 4000.0 4000.0 4000.0 4000.0 4000.0 4000.0 4000.0 4000.0 4000.0 4000.0 4000.0 4000.0 4000.0 4000.0 4000.0 4000.0 4000.0 4000.0 4000.0 4000.0 4000.0 4000.0 4000.0 4000.0 4000.0 4000.0 4000.0 4000.0 4000.0 4000.0 4000.0 4000.0 4000.0 4000.0 4000.0 4000.0 4000.0 4000.0 4000.0 4000.0 4000.0 4000.0 4000.0 4000.0 4000.0 4000.0 4000.0 4000.0 4000.0 4000.0 4000.0 4000.0 4000.0 4000.0 4000.0 4000.0 4000.0 4000.0 4000.0 4000.0 4000.0 4000.0 4000.0 4000.0 4000.0 4000.0 4000.0 4000.0 4000.0 4000.0 4000.0 4000.0 4000.0 4000.0 4000.0 4000.0 4000.0 4000.0 4000.0 4000.0 4000.0 4000.0 4000.0 4000.0 4000.0 4000.0 4000.0 4000.0 4000.0 4000.0 4000.0 4000.0 4000.0 4000.0 4000.0 4000.0 4000.0 4000.0 4000.0 4000.0 4000.0 4000.0 4000.0 4000.0 4000.0 4000.0 4000.0 4000.0 4000.0 4000.0 4000.0 4000.0 4000.0 4000.0 4000.0 4000.0 4000.0 4000.0 4000.0 4000.0 4000.0 4000.0 4000.0 4000.0 4000.0 4000.0 4000.0 4000.0 4000.0 4000.0 4000.0 4000.0 4000.0 4000.0 4000.0 4000.0 4000.0 4000.0 4000.0 4000.0 4000.0 4000.0 4000.0 4000.0 4000.0 4000.0 4000.0 4000.0 4000.0 4000.0 4000.0 4000.0 4000.0 4000.0 4000.0 4000.0 4000.0 4000.0 4000.0 4000.0 4000.0 4000.0 4000.0 4000.0 4000.0 4000.0 4000.0 4000.0 4000.0 4000.0 4000.0 4000.0 4000.0 4000.0 4000.0 4000.0 4000.0 4000.0 4000.0 4000.0 4000.0 4000.0 4000.0 4000.0 4000.0 4000.0 4000.0 4000.0 4000.0 4000.0 4000.0 4000.0 4000.0 4000.0 4000.0 4000.0 4000.0 4000.0 4000.0 4000.0 4000.0 4000.0 4000.0 4000.0 4000.0 4000.0 4000.0 4000.0 4000.0 4000.0 4000.0 4000.0 4000.0 4000.0 4000.0 4000.0 4000.0 4000.0 4000.0 4000.0 4000.0 4000.0 4000.0 4000.0 4000.0 4000.0 4000.0 4000.0 4000.0 4000.0 4000.0 4000.0 4000.0 4000.0 4000.0 4000.0 4000.0 4000.0 4000.0 4000.0 4000.0 4000.0 4000.0 4000.0 4000.0 4000.0 4000.0 4000.0 4000.0 4000.0 4000.0 4000.0 4000.0 4000.0 4000.0 4000.0 4000.0 4000.0 4000.0 4000.0 4000.0 4000.0 4000.0 4000.0 4000.0 4000.0 4000.0 4000.0 4000.0 4000.0 4000.0 4000.0 4000.0 4000.0 4000.0 4000.0 4000.0 4000.0 4000.0 4000.0 4000.0 4000.0 4000.0 4000.0 4000.0 4000.0 4000.0 4000.0 4000.0 4000.0 4000.0 4000.0 4000.0 4000.0 4000.0 4000.0 4000.0 4000.0 4000.0 4000.0 4000.0 4000.0 4000.0 4000.0 4000.0 4000.0 4000.0 4000.0 4000.0 4000.0 4000.0 4000.0 4000.0 4000.0 4000.0 4000.0 4000.0 4000.0 4000.0 4000.0 4000.0 4000.0 4000.0 4000.0 4000.0 4000.0 4000.0 4000.0 4000.0 4000.0 4000.0 4000.0 4000.0 4000.0 4000.0 4000.0 4000.0 4000.0 4000.0 4000.0 4000.0 4000.0 4000.0 4000.0 4000.0 4000.0 4000.0 4000.0 4000.0 4000.0 4000.0 4000.0 4000.0 4000.0 4000.0 4000.0 4000.0 4000.0 4000.0 4000.0 4000.0 4000.0 4000.0 4000.0 4000.0 4000.0 4000.0 4000.0 4000.0 4000.0 4000.0 4000.0 4000.0 4000.0 4000.0 4000.0 4000.0 4000.0 4000.0 4000.0 4000.0 4000.0 4000.0 4000.0 4000.0 4000.0 4000.0 4000.0 4000.0 4000.0 4000.0 4000.0 4000.0 4000.0 4000.0 4000.0 4000.0 4000.0 4000.0 4000.0 4000.0 4000.0 4000.0 4000.0 4000.0 4000.0 4000.0 4000.0 4000.0 4000.0 4000.0 4000.0 4000.0 4000.0 4000.0 4000.0 4000.0 4000.0 4000.0 4000.0 4000.0 4000.0 4000.0 4000.0 4000.0 4000.0 4000.0 4000.0 4000.0 4000.0 4000.0 4000.0 4000.0 4000.0 4000.0 4000.0 4000.0 4000.0 4000.0 4000.0 4000.0 4000.0 4000.0 4000.0 4000.0 4000.0 4000.0 4000.0 4000.0 4000.0 4000.0 4000.0 4000.0 4000.0 4000.0 4000.0 4000.0 4000.0 4000.0 4000.0 4000.0 4000.0 4000.0 4000.0 4000.0 4000.0 4000.0 4000.0 4000.0 4000.0 4000.0 4000.0 4000.0 4000.0 4000.0 4000.0 4000.0 4000.0 4000.0 4000.0 4000.0 4000.0 4000.0 4000.0 4000.0 4000.0 4000.0 4000.0 4000.0 4000.0 4000.0 4000.0 4000.0 4000.0 4000.0 4000.0 4000.0 4000.0 4000.0 4000.0 4000.0 4000.0 4000.0 4000.0 4000.0 4000.0 4000.0 4000.0 4000.0 4000.0 4000.0 4000.0 4000.0 4000.0 4000.0 4000.0 4000.0 4000.0 4000.0 4000.0 4000.0 4000.0 4000.0 4000.0 4000.0 4000.0 4000.0 4000.0 4000.0 4000.0 4000.0 4000.0 4000.0 4000.0 4000.0 4000.0 4000.0 4000.0 4000.0 4000.0 4000.0 4000.0 4000.0 4000.0 4000.0 4000.0 4000.0 4000.0 4000.0 4000.0 4000.0 4000.0 4000.0 4000.0 4000.0 4000.0 4000.0 4000.0 4000.0 4000.0 4000.0 4000.0 4000.0 4000.0 4000.0 4000.0 4000.0 4000.0 4000.0 4000.0 4000.0 4000.0 4000.0 4000.0 4000.0 4000.0 4000.0 4000.0 4000.0 4000.0 4000.0 4000.0 4000.0 4000.0 4000.0 4000.0 4000.0 4000.0 4000.0 4000.0 4000.0 4000.0 4000.0 4000.0 4000.0 4000.0 4000.0 4000.0 4000.0 4000.0 4000.0 4000.0 4000.0 4000.0 4000.0 4000.0 4000.0 4000.0 4000.0 4000.0 4000.0 4000.0 4000.0 4000.0 4000.0 4000.0 4000.0 4000.0 4000.0 4000.0 4000.0 4000.0 4000.0 4000.0 4000.0 4000.0 4000.0 4000.0 4000.0 4000.0 4000.0 4000.0 4000.0 4000.0 4000.0 4000.0 4000.0 4000.0 4000.0 4000.0 4000.0 4000.0 4000.0 4000.0 4000.0 4000.0 4000.0 4000.0 4000.0 4000.0 4000.0 4000.0 4000.0 4000.0 4000.0 4000.0 4000.0 4000.0 4000.0 4000.0 4000.0 4000.0 4000.0 4000.0 4000.0 4000.0 4000.0 4000.0 4000.0 4000.0 4000.0 4000.0 4000.0 4000.0 4000.0 4000.0 4000.0 4000.0 4000.0 4000.0 4000.0 4000.0 4000.0 4000.0 4000.0 4000.0 4000.0 4000.0 4000.0 4000.0 4000.0 4000.0 4000.0 4000.0 4000.0 4000.0 4000.0 4000.0 4000.0 4000.0 4000.0 4000.0 4000.0 4000.0 4000.0 4000.0 4000.0 4000.0 4000.0 4000.0 4000.0 4000.0 4000.0 4000.0 4000.0 4000.0 4000.0 4000.0 4000.0 4000.0 4000.0 4000.0 4000.0 4000.0 4000.0 4000.0 4000.0 4000.0 4000.0 4000.0 4000.0 4000.0 4000.0 4000.0 4000.0 4000.0 4000.0 4000.0 4000.0 4000.0 4000.0 4000.0 4000.0 4000.0 4000.0 4000.0 4000.0 4000.0 4000.0 4000.0 4000.0 4000.0 4000.0 4000.0 4000.0 4000.0 4000.0 4000.0 4000.0 4000.0 4000.0 4000.0 4000.0 4000.0 4000.0 4000.0 4000.0 4000.0 4000.0 4000.0 4000.0 4000.0 4000.0 4000.0 4000.0 4000.0 4000.0 4000.0 4000.0 4000.0 4000.0 4000.0 4000.0 4000.0 4000.0 4000.0 4000.0 4000.0 4000.0 4000.0 4000.0 4000.0 4000.0 4000.0 4000.0 4000.0 4000.0 4000.0 4000.0 4000.0 4000.0 4000.0 4000.0 4000.0 4000.0 4000.0 4000.0 4000.0 4000.0 4000.0 4000.0 4000.0 4000.0 4000.0 4000.0 4000.0 4000.0 4000.0 4000.0 4000.0 4000.0 4000.0 4000.0 4000.0 4000.0 4000.0 4000.0 4000.0 4000.0 4000.0 4000.0 4000.0 4000.0 4000.0 4000.0 4000.0 4000.0 4000.0 4000.0 4000.0 4000.0 4000.0 4000.0 4000.0 4000.0 4000.0 4000.0 4000.0 4000.0 4000.0 4000.0 4000.0 4000.0 4000.0 4000.0 4000.0 4000.0 4000.0 4000.0 4000.0 4000.0 4000.0 4000.0 4000.0 4000.0 4000.0 4000.0 4000.0 4000.0 4000.0 4000.0 4000.0 4000.0 4000.0 4000.0 4000.0 4000.0 4000.0 4000.0 4000.0 4000.0 4000.0 4000.0 4000.0 4000.0 4000.0 4000.0 4000.0 4000.0 4000.0 4000.0 4000.0 4000.0 4000.0 4000.0 4000.0 4000.0 4000.0 4000.0 4000.0 4000.0 4000.0 4000.0 4000.0 4000.0 4000.0 4000.0 4000.0 4000.0 4000.0 4000.0 4000.0 4000.0 4000.0 4000.0 4000.0 4000.0 4000.0 4000.0 4000.0 4000.0 4000.0 4000.0 4000.0 4000.0 4000.0 4000.0 4000.0 4000.0 4000.0 4000.0 4000.0 4000.0 4000.0 4000.0 4000.0 4000.0 4000.0 4000.0 4000.0 4000.0 4000.0 4000.0 4000.0 4000.0 4000.0 4000.0 4000.0 4000.0 4000.0 4000.0 4000.0 4000.0 4000.0 4000.0 4000.0 4000.0 4000.0 4000.0 4000.0 4000.0 4000.0 4000.0 4000.0 4000.0 4000.0 4000.0 4000.0 4000.0 4000.0 4000.0 4000.0 4000.0 4000.0 4000.0 4000.0 4000.0 4000.0 4000.0 4000.0 4000.0 4000.0 4000.0 4000.0 4000.0 4000.0 4000.0 4000.0 4000.0 4000.0 4000.0 4000.0 4000.0 4000.0 4000.0 4000.0 4000.0 4000.0 4000.0 4000.0 4000.0 4000.0 4000.0 4000.0 4000.0 4000.0 4000.0 4000.0 4000.0 4000.0 4000.0 4000.0 4000.0 4000.0 4000.0 4000.0 4000.0 4000.0 4000.0 4000.0 4000.0 4000.0 4000.0 4000.0 4000.0 4000.0 4000.0 4000.0 4000.0 4000.0 4000.0 4000.0 4000.0 4000.0 4000.0 4000.0 4000.0 4000.0 4000.0 4000.0 4000.0 4000.0 4000.0 4000.0 4000.0 4000.0 4000.0 4000.0 4000.0 4000.0 4000.0 4000.0 4000.0 4000.0 4000.0 4000.0 4000.0 4000.0 4000.0 4000.0 4000.0 4000.0 4000.0 4000.0 4000.0 4000.0 4000.0 4000.0 4000.0 4000.0 4000.0 4000.0 4000.0 4000.0 4000.0 4000.0 4000.0 4000.0 4000.0 4000.0 4000.0 4000.0 4000.0 4000.0 4000.0 4000.0 4000.0 4000.0 4000.0 4000.0 4000.0 4000.0 4000.0 4000.0 4000.0 4000.0 4000.0 4000.0 4000.0 4000.0 4000.0 4000.0 4000.0 4000.0 4000.0 4000.0 4000.0 4000.0 4000.0 4000.0 4000.0 4000.0 4000.0 4000.0 4000.0 4000.0 4000.0 4000.0 4000.0 4000.0 4000.0 4000.0 4000.0 4000.0 4000.0 4000.0 4000.0 4000.0 4000.0 4000.0 4000.0 4000.0 4000.0 4000.0 4000.0 4000.0 4000.0 4000.0 4000.0 4000.0 4000.0 4000.0 4000.0 4000.0 4000.0 4000.0 4000.0 4000.0 4000.0 4000.0 4000.0 4000.0 4000.0 4000.0 4000.0 4000.0 4000.0 4000.0 4000.0 4000.0 4000.0 4000.0 4000.0 4000.0 4000.0 4000.0 4000.0 4000.0 4000.0 4000.0 4000.0 4000.0 4000.0 4000.0 4000.0 4000.0 4000.0 4000.0 4000.0 4000.0 4000.0 4000.0 4000.0 4000.0 4000.0 4000.0 4000.0 4000.0 4000.0 4000.0 4000.0 4000.0 4000.0 4000.0 4000.0 4000.0 4000.0 4000.0 4000.0 4000.0 4000.0 4000.0 4000.0 4000.0 4000.0 4000.0 4000.0 4000.0 4000.0 4000.0 4000.0 4000.0 4000.0 4000.0 4000.0 4000.0 4000.0 4000.0 4000.0 4000.0 4000.0 4000.0 4000.0 4000.0 4000.0 4000.0 4000.0 4000.0 4000.0 4000.0 4000.0 4000.0 4000.0 4000.0 4000.0 4000.0 4000.0 4000.0 4000.0 4000.0 4000.0 4000.0 4000.0 4000.0 4000.0 4000.0 4000.0 4000.0 4000.0 4000.0 4000.0 4000.0 4000.0 4000.0 4000.0 4000.0 4000.0 4000.0 4000.0 4000.0 4000.0 4000.0 4000.0 4000.0 4000.0 4000.0 4000.0 4000.0 4000.0 4000.0 4000.0 4000.0 4000.0 4000.0 4000.0 4000.0 4000.0 4000.0 4000.0 4000.0 4000.0 4000.0 4000.0 4000.0 4000.0 4000.0 4000.0 4000.0 4000.0 4000.0 4000.0 4000.0 4000.0 4000.0 4000.0 4000.0 4000.0 4000.0 4000.0 4000.0 4000.0 4000.0 4000.0 4000.0 4000.0 4000.0 4000.0 4000.0 4000.0 4000.0 4000.0 4000.0 4000.0 4000.0 4000.0 4000.0 4000.0 4000.0 4000.0 4000.0 4000.0 4000.0 4000.0 4000.0 4000.0 4000.0 4000.0 4000.0 4000.0 4000.0 4000.0 4000.0 4000.0 4000.0 4000.0 4000.0 4000.0 4000.0 4000.0 4000.0 4000.0 4000.0 4000.0 4000.0 4000.0 4000.0 4000.0 4000.0 4000.0 4000.0 4000.0 4000.0 4000.0 4000.0 4000.0 4000.0 4000.0 4000.0 4000.0 4000.0 4000.0 4000.0 4000.0 4000.0 4000.0 4000.0 4000.0 4000.0 4000.0 4000.0 4000.0 4000.0 4000.0 4000.0 4000.0 4000.0 4000.0 4000.0 4000.0 4000.0 4000.0 4000.0 4000.0 4000.0 4000.0 4000.0 4000.0 4000.0 4000.0 4000.0 4000.0 4000.0 4000.0 4000.0 4000.0 4000.0 4000.0 4000.0 4000.0 4000.0 4000.0 4000.0 4000.0 4000.0 4000.0 4000.0 4000.0 4000.0 4000.0 4000.0 4000.0 4000.0 4000.0 4000.0 4000.0 4000.0 4000.0 4000.0 4000.0 4000.0 4000.0 4000.0 4000.0 4000.0 4000.0 4000.0 4000.0 4000.0 4000.0 4000.0 4000.0 4000.0 4000.0 4000.0 4000.0 4000.0 4000.0 4000.0 4000.0 4000.0 4000.0 4000.0 4000.0 4000.0 4000.0 4000.0 4000.0 4000.0 4000.0 4000.0 4000.0 4000.0 4000.0 4000.0 4000.0 4000.0 4000.0 4000.0 4000.0 4000.0 4000.0 4000.0 4000.0 4000.0 4000.0 4000.0 4000.0 4000.0 4000.0 4000.0 4000.0 4000.0 4000.0 4000.0 4000.0 4000.0 4000.0 4000.0 4000.0 4000.0 4000.0 4000.0 4000.0 4000.0 4000.0 4000.0 4000.0 4000.0 4000.0 4000.0 4000.0 4000.0 4000.0 4000.0 4000.0 4000.0 4000.0 4000.0 4000.0 4000.0 4000.0 4000.0 4000.0 4000.0 4000.0 4000.0 4000.0 4000.0 4000.0 4000.0 4000.0 4000.0 4000.0 4000.0 4000.0 4000.0 4000.0 4000.0 4000.0 4000.0 4000.0 4000.0 4000.0 4000.0 4000.0 4000.0 4000.0 4000.0 4000.0 4000.0 4000.0 4000.0 4000.0 4000.0 4000.0 4000.0 4000.0 4000.0 4000.0 4000.0 4000.0 4000.0 4000.0 4000.0 4000.0 4000.0 4000.0 4000.0 4000.0 4000.0 4000.0 4000.0 4000.0 4000.0 4000.0 4000.0 4000.0 4000.0 4000.0 4000.0 4000.0 4000.0 4000.0 4000.0 4000.0 4000.0 4000.0 4000.0 4000.0 4000.0 4000.0 4000.0 4000.0 4000.0 4000.0 4000.0 4000.0 4000.0 4000.0 4000.0 4000.0 4000.0 4000.0 4000.0 4000.0 4000.0 4000.0 4000.0 4000.0 4000.0 4000.0 4000.0 4000.0 4000.0 4000.0 4000.0 4000.0 4000.0 4000.0 4000.0 4000.0 4000.0 4000.0 4000.0 4000.0 4000.0 4000.0 4000.0 4000.0 4000.0 4000.0 4000.0 4000.0 4000.0 4000.0 4000.0 4000.0 4000.0 4000.0 4000.0 4000.0 4000.0 4000.0 4000.0 4000.0 4000.0 4000.0 4000.0 4000.0 4000.0 4000.0 4000.0 4000.0 4000.0 4000.0 4000.0 4000.0 4000.0 4000.0 4000.0 4000.0 4000.0 4000.0 4000.0 4000.0 4000.0 4000.0 4000.0 4000.0 4000.0 4000.0 4000.0 4000.0 4000.0 4000.0 4000.0 4000.0 4000.0 4000.0 4000.0 4000.0 4000.0 4000.0 4000.0 4000.0 4000.0 4000.0 4000.0 4000.0 4000.0 4000.0 4000.0 4000.0 4000.0 4000.0 4000.0 4000.0 4000.0 4000.0 4000.0 4000.0 4000.0 4000.0 4000.0 4000.0 4000.0 4000.0 4000.0 4000.0 4000.0 4000.0 4000.0 4000.0 4000.0 4000.0 4000.0 4000.0 4000.0 4000.0 4000.0 4000.0 4000.0 4000.0 4000.0 4000.0 4000.0 4000.0 4000.0 4000.0 4000.0 4000.0 4000.0 4000.0 4000.0 4000.0 4000.0 4000.0 4000.0 4000.0 4000.0 4000.0 4000.0 4000.0 4000.0 4000.0 4000.0 4000.0 4000.0 4000.0 4000.0 4000.0 4000.0 4000.0 4000.0 4000.0 4000.0 4000.0 4000.0 4000.0 4000.0 4000.0 4000.0 4000.0 4000.0 4000.0 4000.0 4000.0 4000.0 4000.0 4000.0 4000.0 4000.0 4000.0 4000.0 4000.0 4000.0 4000.0 4000.0 4000.0 4000.0 4000.0 4000.0 4000.0 4000.0 4000.0 4000.0 4000.0 4000.0 4000.0 4000.0 4000.0 4000.0 4000.0 4000.0 4000.0 4000.0 4000.0 4000.0 4000.0 4000.0 4000.0 4000.0 4000.0 4000.0 4000.0 4000.0 4000.0 4000.0 4000.0 4000.0 4000.0 4000.0 4000.0 4000.0 4000.0 4000.0 4000.0 4000.0 4000.0 4000.0 4000.0 4000.0 4000.0 4000.0 4000.0 4000.0 4000.0 4000.0 4000.0 4000.0 4000.0 4000.0 4000.0 4000.0 4000.0 4000.0 4000.0 4000.0 4000.0 4000.0 4000.0 4000.0 4000.0 4000.0 4000.0 4000.0 4000.0 4000.0 4000.0 4000.0 4000.0 4000.0 4000.0 4000.0 4000.0 4000.0 4000.0 4000.0 4000.0 4000.0 4000.0 4000.0 4000.0 4000.0 4000.0 4000.0 4000.0 4000.0 4000.0 4000.0 4000.0 4000.0 4000.0 4000.0 4000.0 4000.0 4000.0 4000.0 4000.0 4000.0 4000.0 4000.0 4000.0 4000.0 4000.0 4000.0 4000.0 4000.0 4000.0 4000.0 4000.0 4000.0 4000.0 4000.0 4000.0 4000.0 4000.0 4000.0 4000.0 4000.0 4000.0 4000.0 4000.0 4000.0 4000.0 4000.0 4000.0 4000.0 4000.0 4000.0 4000.0 4000.0 4000.0 4000.0 4000.0 4000.0 4000.0 4000.0 4000.0 4000.0 4000.0 4000.0 4000.0 4000.0 4000.0 4000.0 4000.0 4000.0 4000.0 4000.0 4000.0 4000.0 4000.0 4000.0 4000.0 4000.0 4000.0 4000.0 4000.0 4000.0 4000.0 4000.0 4000.0 4000.0 4000.0 4000.0 4000.0 4000.0 4000.0 4000.0 4000.0 4000.0 4000.0 4000.0 4000.0 4000.0 4000.0 4000.0 4000.0 4000.0 4000.0 4000.0 4000.0 4000.0 4000.0 4000.0 4000.0 4000.0 4000.0 4000.0 4000.0 4000.0 4000.0 4000.0 4000.0 4000.0 4000.0 4000.0 4000.0 4000.0 4000.0 4000.0 4000.0 4000.0 4000.0 4000.0 4000.0 4000.0 4000.0 4000.0 4000.0 4000.0 4000.0 4000.0 4000.0 4000.0 4000.0 4000.0 4000.0 4000.0 4000.0 4000.0 4000.0 4000.0 4000.0 4000.0 4000.0 4000.0 4000.0 4000.0 4000.0 4000.0 4000.0 4000.0 4000.0 4000.0 4000.0 4000.0 4000.0 4000.0 4000.0 4000.0 4000.0 4000.0 4000.0 4000.0 4000.0 4000.0 4000.0 4000.0 4000.0 4000.0 4000.0 4000.0 4000.0 4000.0 4000.0 4000.0 4000.0 4000.0 4000.0 4000.0 4000.0 4000.0 4000.0 4000.0 4000.0 4000.0 4000.0 4000.0 4000.0 4000.0 4000.0 4000.0 4000.0 4000.0 4000.0 4000.0 4000.0 4000.0 4000.0 4000.0 4000.0 4000.0 4000.0 4000.0 4000.0 4000.0 4000.0 4000.0 4000.0 4000.0 4000.0 4000.0 4000.0 4000.0 4000.0 4000.0 4000.0 4000.0 4000.0 4000.0 4000.0 4000.0 4000.0 4000.0 4000.0 4000.0 4000.0 4000.0 4000.0 4000.0 4000.0 4000.0 4000.0 4000.0 4000.0 4000.0 4000.0 4000.0 4000.0 4000.0 4000.0 4000.0 4000.0 4000.0 4000.0 4000.0 4000.0 4000.0 4000.0 4000.0 4000.0 4000.0 4000.0 4000.0 4000.0 4000.0 4000.0 4000.0 4000.0 4000.0 4000.0 4000.0 4000.0 4000.0 4000.0 4000.0 4000.0 4000.0 4000.0 4000.0 4000.0 4000.0 4000.0 4000.0 4000.0 4000.0 4000.0 4000.0 4000.0 4000.0 4000.0 4000.0 4000.0 4000.0 4000.0 4000.0 4000.0 4000.0 4000.0 4000.0 4000.0 4000.0 4000.0 4000.0 4000.0 4000.0 4000.0 4000.0 4000.0 4000.0 4000.0 4000.0 4000.0 4000.0 4000.0 4000.0 4000.0 4000.0 4000.0 4000.0 4000.0 4000.0 4000.0 4000.0 4000.0 4000.0 4000.0 4000.0 4000.0 4000.0 4000.0 4000.0 4000.0 4000.0 4000.0 4000.0 4000.0 4000.0 4000.0 4000.0 4000.0 4000.0 4000.0 4000.0 4000.0 4000.0 4000.0 4000.0 4000.0 4000.0 4000.0 4000.0 4000.0 4000.0 4000.0 4000.0 4000.0 4000.0 4000.0 4000.0 4000.0 4000.0 4000.0 4000.0 4000.0 4000.0 4000.0 4000.0 4000.0 4000.0 4000.0 4000.0 4000.0 4000.0 4000.0 4000.0 4000.0 4000.0 4000.0 4000.0 4000.0 4000.0 4000.0 4000.0 4000.0 4000.0 4000.0 4000.0 4000.0 4000.0 4000.0 4000.0 4000.0 4000.0 4000.0 4000.0 4000.0 4000.0 4000.0 4000.0 4000.0 4000.0 4000.0 4000.0 4000.0 4000.0 4000.0 4000.0 4000.0 4000.0 4000.0 4000.0 4000.0 4000.0 4000.0 4000.0 4000.0 4000.0 4000.0 4000.0 4000.0 4000.0 4000.0 4000.0 4000.0 4000.0 4000.0 4000.0 4000.0 4000.0 4000.0 4000.0 4000.0 4000.0 4000.0 4000.0 4000.0 4000.0 4000.0 4000.0 4000.0 4000.0 4000.0 4000.0 4000.0 4000.0 4000.0 4000.0 4000.0 4000.0 4000.0 4000.0 4000.0 4000.0 4000.0 4000.0 4000.0 4000.0 4000.0 4000.0 4000.0 4000.0 4000.0 4000.0 4000.0 4000.0 4000.0 4000.0 4000.0 4000.0 4000.0 4000.0 4000.0 4000.0 4000.0 4000.0 4000.0 4000.0 4000.0 4000.0 4000.0 4000.0 4000.0 4000.0 4000.0 4000.0 4000.0 4000.0 4000.0 4000.0 4000.0 4000.0 4000.0 4000.0 4000.0 4000.0 4000.0 4000.0 4000.0 4000.0 4000.0 4000.0 4000.0 4000.0 4000.0 4000.0 4000.0 4000.0 4000.0 4000.0 4000.0 4000.0 4000.0 4000.0 4000.0 4000.0 4000.0 4000.0 4000.0 4000.0 4000.0 4000.0 4000.0 4000.0 4000.0 4000.0 4000.0 4000.0 4000.0 4000.0 4000.0 4000.0 4000.0 4000.0 4000.0 4000.0 4000.0 4000.0 4000.0 4000.0 4000.0 4000.0 4000.0 4000.0 4000.0 4000.0 4000.0 4000.0 4000.0 4000.0 4000.0 4000.0 4000.0 4000.0 4000.0 4000.0 4000.0 4000.0 4000.0 4000.0 4000.0 4000.0 4000.0 4000.0 4000.0 4000.0 4000.0 4000.0 4000.0 4000.0 4000.0 4000.0 4000.0 4000.0 4000.0 4000.0 4000.0 4000.0 4000.0 4000.0 4000.0 4000.0 4000.0 4000.0 4000.0 4000.0 4000.0 4000.0 4000.0 4000.0 4000.0 4000.0 4000.0 4000.0 4000.0 4000.0 4000.0 4000.0 4000.0 4000.0 4000.0 4000.0 4000.0 4000.0 4000.0 4000.0 4000.0 4000.0 4000.0 4000.0 4000.0 4000.0 4000.0 4000.0 4000.0 4000.0 4000.0 4000.0 4000.0 4000.0 4000.0 4000.0 4000.0 4000.0 4000.0 4000.0 4000.0 4000.0 4000.0 4000.0 4000.0 4000.0 4000.0 4000.0 4000.0 4000.0 4000.0 4000.0 4000.0 4000.0 4000.0 4000.0 4000.0 4000.0 4000.0 4000.0 4000.0 4000.0 4000.0 4000.0 4000.0 4000.0 4000.0 4000.0 4000.0 4000.0 4000.0 4000.0 4000.0 4000.0 4000.0 4000.0 4000.0 4000.0 4000.0 4000.0 4000.0 4000.0 4000.0 4000.0 4000.0 4000.0 4000.0 4000.0 4000.0 4000.0 4000.0 4000.0 4000.0 4000.0 4000.0 4000.0 4000.0 4000.0 4000.0 4000.0 4000.0 4000.0 4000.0 4000.0 4000.0 4000.0 4000.0 4000.0 4000.0 4000.0 4000.0 4000.0 4000.0 4000.0 4000.0 4000.0 4000.0 4000.0 4000.0 4000.0 4000.0 4000.0 4000.0 4000.0 4000.0 4000.0 4000.0 4000.0 4000.0 4000.0 4000.0 4000.0 4000.0 4000.0 4000.0 4000.0 4000.0 4000.0 4000.0 4000.0 4000.0 4000.0 4000.0 4000.0 4000.0 4000.0 4000.0 4000.0 4000.0 4000.0 4000.0 4000.0 4000.0 4000.0 4000.0 4000.0 4000.0 4000.0 4000.0 4000.0 4000.0 4000.0 4000.0 4000.0 4000.0 4000.0 4000.0 4000.0 4000.0 4000.0 4000.0 4000.0 4000.0 4000.0 4000.0 4000.0 4000.0 4000.0 4000.0 4000.0 4000.0 4000.0 4000.0 4000.0 4000.0 4000.0 4000.0 4000.0 4000.0 4000.0 4000.0 4000.0 4000.0 4000.0 4000.0 4000.0 4000.0 4000.0 4000.0 4000.0 4000.0 4000.0 4000.0 4000.0 4000.0 4000.0 4000.0 4000.0 4000.0 4000.0 4000.0 4000.0 4000.0 4000.0 4000.0 4000.0 4000.0 4000.0 4000.0 4000.0 4000.0 4000.0 4000.0 4000.0 4000.0 4000.0 4000.0 4000.0 4000.0 4000.0 4000.0 4000.0 4000.0 4000.0 4000.0 4000.0 4000.0 4000.0 4000.0 4000.0 4000.0 4000.0 4000.0 4000.0 4000.0 4000.0 4000.0 4000.0 4000.0 4000.0 4000.0 4000.0 4000.0 4000.0 4000.0 4000.0 4000.0 4000.0 4000.0 4000.0 4000.0 4000.0 4000.0 4000.0 4000.0 4000.0 4000.0 4000.0 4000.0 4000.0 4000.0 4000.0 4000.0 4000.0 4000.0 4000.0 4000.0 4000.0 4000.0 4000.0 4000.0 4000.0 4000.0 4000.0 4000.0 4000.0 4000.0 4000.0 4000.0 4000.0 4000.0 4000.0 4000.0 4000.0 4000.0 4000.0 4000.0 4000.0 4000.0 4000.0 4000.0 4000.0 4000.0 4000.0 4000.0 4000.0 4000.0 4000.0 4000.0 4000.0 4000.0 4000.0 4000.0 4000.0 4000.0 4000.0 4000.0 4000.0 4000.0 4000.0 4000.0 4000.0 4000.0 4000.0 4000.0 4000.0 4000.0 4000.0 4000.0 4000.0 4000.0 4000.0 4000.0 4000.0 4000.0 4000.0 4000.0 4000.0 4000.0 4000.0 4000.0 4000.0 4000.0 4000.0 4000.0 4000.0 4000.0 4000.0 4000.0 4000.0 4000.0 4000.0 4000.0 4000.0 4000.0 4000.0 4000.0 4000.0 4000.0 4000.0 4000.0 4000.0 4000.0 4000.0 4000.0 4000.0 4000.0 4000.0 4000.0 4000.0 4000.0 4000.0 4000.0 4000.0 4000.0 4000.0 4000.0 4000.0 4000.0 4000.0 4000.0 4000.0 4000.0 4000.0 4000.0 4000.0 4000.0 4000.0 4000.0 4000.0 4000.0 4000.0 4000.0 4000.0 4000.0 4000.0 4000.0 4000.0 4000.0 4000.0 4000.0 4000.0 4000.0 4000.0 4000.0 4000.0 4000.0 4000.0 4000.0 4000.0 4000.0 4000.0 4000.0 4000.0 4000.0 4000.0 4000.0 4000.0 4000.0 4000.0 4000.0 4000.0 4000.0 4000.0 4000.0 4000.0 4000.0 4000.0 4000.0 4000.0 4000.0 4000.0 4000.0 4000.0 4000.0 4000.0 4000.0 4000.0 4000.0 4000.0 4000.0 4000.0 4000.0 4000.0 4000.0 4000.0 4000.0 4000.0 4000.0 4000.0 4000.0 4000.0 4000.0 4000.0 4000.0 4000.0 4000.0 4000.0 4000.0 4000.0 4000.0 4000.0 4000.0 4000.0 4000.0 4000.0 4000.0 4000.0 4000.0 4000.0 4000.0 4000.0 4000.0 4000.0 4000.0 4000.0 4000.0 4000.0 4000.0 4000.0 4000.0 4000.0 4000.0 4000.0 4000.0 4000.0 4000.0 4000.0 4000.0 4000.0 4000.0 4000.0 4000.0 4000.0 4000.0 4000.0 4000.0 4000.0 4000.0 4000.0 4000.0 4000.0 4000.0 4000.0 4000.0 4000.0 4000.0 4000.0 4000.0 4000.0 4000.0 4000.0 4000.0 4000.0 4000.0 4000.0 4000.0 4000.0 4000.0 4000.0 4000.0 4000.0 4000.0 4000.0 4000.0 4000.0 4000.0 4000.0 4000.0 4000.0 4000.0 4000.0 4000.0 4000.0 4000.0 4000.0 4000.0 4000.0 4000.0 4000.0 4000.0 4000.0 4000.0 4000.0 4000.0 4000.0 4000.0 4000.0 4000.0 4000.0 4000.0 4000.0 4000.0 4000.0 4000.0 4000.0 4000.0 4000.0 4000.0 4000.0 4000.0 4000.0 4000.0 4000.0 4000.0 4000.0 4000.0 4000.0 4000.0 4000.0 4000.0 4000.0 4000.0 4000.0 4000.0 4000.0 4000.0 4000.0 4000.0 4000.0 4000.0 4000.0 4000.0 4000.0 4000.0 4000.0 4000.0 4000.0 4000.0 4000.0 4000.0 4000.0 4000.0 4000.0 4000.0 4000.0 4000.0 4000.0 4000.0 4000.0 4000.0 4000.0 4000.0 4000.0 4000.0 4000.0 4000.0 4000.0 4000.0 4000.0 4000.0 4000.0 4000.0 4000.0 4000.0 4000.0 4000.0 4000.0 4000.0 4000.0 4000.0 4000.0 4000.0 4000.0 4000.0 4000.0 4000.0 4000.0 4000.0 4000.0 4000.0 4000.0 4000.0 4000.0 4000.0 4000.0 4000.0 4000.0 4000.0 4000.0 4000.0 4000.0 4000.0 4000.0 4000.0 4000.0 4000.0 4000.0 4000.0 4000.0 4000.0 4000.0 4000.0 4000.0 4000.0 4000.0 4000.0 4000.0 4000.0 4000.0 4000.0 4000.0 4000.0 4000.0 4000.0 4000.0 4000.0 4000.0 4000.0 4000.0 4000.0 4000.0 4000.0 4000.0 4000.0 4000.0 4000.0 4000.0 4000.0 4000.0 4000.0 4000.0 4000.0 4000.0 4000.0 4000.0 4000.0 4000.0 4000.0 4000.0 4000.0 4000.0 4000.0 4000.0 4000.0 4000.0 4000.0 4000.0 4000.0 4000.0 4000.0 4000.0 4000.0 4000.0 4000.0 4000.0 4000.0 4000.0 4000.0 4000.0 4000.0 4000.0 4000.0 4000.0 4000.0 4000.0 4000.0 4000.0 4000.0 4000.0 4000.0 4000.0 4000.0 4000.0 4000.0 4000.0 4000.0 4000.0 4000.0 4000.0 4000.0 4000.0 4000.0 4000.0 4000.0 4000.0 4000.0 4000.0 4000.0 4000.0 4000.0 4000.0 4000.0 4000.0 4000.0 4000.0 4000.0 4000.0 4000.0 4000.0 4000.0 4000.0 4000.0 4000.0 4000.0 4000.0 4000.0 4000.0 4000.0 4000.0 4000.0 4000.0 4000.0 4000.0 4000.0 4000.0 4000.0 4000.0 4000.0 4000.0 4000.0 4000.0 4000.0 4000.0 4000.0 4000.0 4000.0 4000.0 4000.0 4000.0 4000.0 4000.0 4000.0 4000.0 4000.0 4000.0 4000.0 4000.0 4000.0 4000.0 4000.0 4000.0 4000.0 4000.0 4000.0 4000.0 4000.0 4000.0 4000.0 4000.0 4000.0 4000.0 4000.0 4000.0 4000.0 4000.0 4000.0 4000.0 4000.0 4000.0 4000.0 4000.0 4000.0 4000.0 4000.0 4000.0 4000.0 4000.0 4000.0 4000.0 4000.0 4000.0 4000.0 4000.0 4000.0 4000.0 4000.0 4000.0 4000.0 4000.0 4000.0 4000.0 4000.0 4000.0 4000.0 4000.0 4000.0 4000.0 4000.0 4000.0 4000.0 4000.0 4000.0 4000.0 4000.0 4000.0 4000.0 4000.0 4000.0 4000.0 4000.0 4000.0 4000.0 4000.0 4000.0 4000.0 4000.0 4000.0 4000.0 4000.0 4000.0 4000.0 4000.0 4000.0 4000.0 4000.0 4000.0 4000.0 4000.0 4000.0 4000.0 4000.0 4000.0 4000.0 4000.0 4000.0 4000.0 4000.0 4000.0 4000.0 4000.0 4000.0 4000.0 4000.0 4000.0 4000.0 4000.0 4000.0 4000.0 4000.0 4000.0 4000.0 4000.0 4000.0 4000.0 4000.0 4000.0 4000.0 4000.0 4000.0 4000.0 4000.0 4000.0 4000.0 4000.0 4000.0 4000.0 4000.0 4000.0 4000.0 4000.0 4000.0 4000.0 4000.0 4000.0 4000.0 4000.0 4000.0 4000.0 4000.0 4000.0 4000.0 4000.0 4000.0 4000.0 4000.0 4000.0 4000.0 4000.0 4000.0 4000.0 4000.0 4000.0 4000.0 4000.0 4000.0 4000.0 4000.0 4000.0 4000.0 4000.0 4000.0 4000.0 4000.0 4000.0 4000.0 4000.0 4000.0 4000.0 4000.0 4000.0 4000.0 4000.0 4000.0 4000.0 4000.0 4000.0 4000.0 4000.0 4000.0 4000.0 4000.0 4000.0 4000.0 4000.0 4000.0 4000.0 4000.0 4000.0 4000.0 4000.0 4000.0 4000.0 4000.0 4000.0 4000.0 4000.0 4000.0 4000.0 4000.0 4000.0 4000.0 4000.0 4000.0 4000.0 4000.0 4000.0 4000.0 4000.0 4000.0 4000.0 4000.0 4000.0 4000.0 4000.0 4000.0 4000.0 4000.0 4000.0 4000.0 4000.0 4000.0 4000.0 4000.0 4000.0 4000.0 4000.0 4000.0 4000.0 4000.0 4000.0 4000.0 4000.0 4000.0 4000.0 4000.0 4000.0 4000.0 4000.0 4000.0 4000.0 4000.0 4000.0 4000.0 4000.0 4000.0 4000.0 4000.0 4000.0 4000.0 4000.0 4000.0 4000.0 4000.0 4000.0 4000.0 4000.0 4000.0 4000.0 4000.0 4000.0 4000.0 4000.0 4000.0 4000.0 4000.0 4000.0 4000.0 4000.0 4000.0 4000.0 4000.0 4000.0 4000.0 4000.0 4000.0 4000.0 4000.0 4000.0 4000.0 4000.0 4000.0 4000.0 4000.0 4000.0 4000.0 4000.0 4000.0 4000.0 4000.0 4000.0 4000.0 4000.0 4000.0 4000.0 4000.0 4000.0 4000.0 4000.0 4000.0 4000.0 4000.0 4000.0 4000.0 4000.0 4000.0 4000.0 4000.0 4000.0 4000.0 4000.0 4000.0 4000.0 4000.0 4000.0 4000.0 4000.0 4000.0 4000.0 4000.0 4000.0 4000.0 4000.0 4000.0 4000.0 4000.0 4000.0 4000.0 4000.0 4000.0 4000.0 4000.0 4000.0 4000.0 4000.0 4000.0 4000.0 4000.0 4000.0 4000.0 4000.0 4000.0 4000.0 4000.0 4000.0 4000.0 4000.0 4000.0 4000.0 4000.0 4000.0 4000.0 4000.0 4000.0 4000.0 4000.0 4000.0 4000.0 4000.0 4000.0 4000.0 4000.0 4000.0 4000.0 4000.0 4000.0 4000.0 4000.0 4000.0 4000.0 4000.0 4000.0 4000.0 4000.0 4000.0 4000.0 4000.0 4000.0 4000.0 4000.0 4000.0 4000.0 4000.0 4000.0 4000.0 4000.0 4000.0 4000.0 4000.0 4000.0 4000.0 4000.0 4000.0 4000.0 4000.0 4000.0 4000.0 4000.0 4000.0 4000.0 4000.0 4000.0 4000.0 4000.0 4000.0 4000.0 4000.0 4000.0 4000.0 4000.0 4000.0 4000.0 4000.0 4000.0 4000.0 4000.0 4000.0 4000.0 4000.0 4000.0 4000.0 4000.0 4000.0 4000.0 4000.0 4000.0 4000.0 4000.0 4000.0 4000.0 4000.0 4000.0 4000.0 4000.0 4000.0 4000.0 4000.0 4000.0 4000.0 4000.0 4000.0 4000.0 4000.0 4000.0 4000.0 4000.0 4000.0 4000.0 4000.0 4000.0 4000.0 4000.0 4000.0 4000.0 4000.0 4000.0 4000.0 4000.0 4000.0 4000.0 4000.0 4000.0 4000.0 4000.0 4000.0 4000.0 4000.0 4000.0 4000.0 4000.0 4000.0 4000.0 4000.0 4000.0 4000.0 4000.0 4000.0 4000.0 4000.0 4000.0 4000.0 4000.0 4000.0 4000.0 4000.0 4000.0 4000.0 4000.0 4000.0 4000.0 4000.0 4000.0 4000.0 4000.0 4000.0 4000.0 4000.0 4000.0 4000.0 4000.0 4000.0 4000.0 4000.0 4000.0 4000.0 4000.0 4000.0 4000.0 4000.0 4000.0 4000.0 4000.0 4000.0 4000.0 4000.0 4000.0 4000.0 4000.0 4000.0 4000.0 4000.0 4000.0 4000.0 4000.0 4000.0 4000.0 4000.0 4000.0 4000.0 4000.0 4000.0 4000.0 4000.0 4000.0 4000.0 4000.0 4000.0 4000.0 4000.0 4000.0 4000.0 4000.0 4000.0 4000.0 4000.0 4000.0 4000.0 4000.0 4000.0 4000.0 4000.0 4000.0 4000.0 4000.0 4000.0 4000.0 4000.0 4000.0 4000.0 4000.0 4000.0 4000.0 4000.0 4000.0 4000.0 4000.0 4000.0 4000.0 4000.0 4000.0 4000.0 4000.0 4000.0 4000.0 4000.0 4000.0 4000.0 4000.0 4000.0 4000.0 4000.0 4000.0 4000.0 4000.0 4000.0 4000.0 4000.0 4000.0 4000.0 4000.0 4000.0 4000.0 4000.0 4000.0 4000.0 4000.0 4000.0 4000.0 4000.0 4000.0 4000.0 4000.0 4000.0 4000.0 4000.0 4000.0 4000.0 4000.0 4000.0 4000.0 4000.0 4000.0 4000.0 4000.0 4000.0 4000.0 4000.0 4000.0 4000.0 4000.0 4000.0 4000.0 4000.0 4000.0 4000.0 4000.0 4000.0 4000.0 4000.0 4000.0 4000.0 4000.0 4000.0 4000.0 4000.0 4000.0 4000.0 4000.0 4000.0 4000.0 4000.0 4000.0 4000.0 4000.0 4000.0 4000.0 4000.0 4000.0 4000.0 4000.0 4000.0 4000.0 4000.0 4000.0 4000.0 4000.0 4000.0 4000.0 4000.0 4000.0 4000.0 4000.0 4000.0 4000.0 4000.0 4000.0 4000.0 4000.0 4000.0 4000.0 4000.0 4000.0 4000.0 4000.0 4000.0 4000.0 4000.0 4000.0 4000.0 4000.0 4000.0 4000.0 4000.0 4000.0 4000.0 4000.0 4000.0 4000.0 4000.0 4000.0 4000.0 4000.0 4000.0 4000.0 4000.0 4000.0 4000.0 4000.0 4000.0 4000.0 4000.0 4000.0 4000.0 4000.0 4000.0 4000.0 4000.0 4000.0 4000.0 4000.0 4000.0 4000.0 4000.0 4000.0 4000.0 4000.0 4000.0 4000.0 4000.0 4000.0 4000.0 4000.0 4000.0 4000.0 4000.0 4000.0 4000.0 4000.0 4000.0 4000.0 4000.0 4000.0 4000.0 4000.0 4000.0 4000.0 4000.0 4000.0 4000.0 4000.0 4000.0 4000.0 4000.0 4000.0 4000.0 4000.0 4000.0 4000.0 4000.0 4000.0 4000.0 4000.0 4000.0 4000.0 4000.0 4000.0 4000.0 4000.0 4000.0 4000.0 4000.0 4000.0 4000.0 4000.0 4000.0 4000.0 4000.0 4000.0 4000.0 4000.0 4000.0 4000.0 4000.0 4000.0 4000.0 4000.0 4000.0 4000.0 4000.0 4000.0 4000.0 4000.0 4000.0 4000.0 4000.0 4000.0 4000.0 4000.0 4000.0 4000.0 4000.0 4000.0 4000.0 4000.0 4000.0 4000.0 4000.0 4000.0 4000.0 4000.0 4000.0 4000.0 4000.0 4000.0 4000.0 4000.0 4000.0 4000.0 4000.0 4000.0 4000.0 4000.0 4000.0 4000.0 4000.0 4000.0 4000.0 4000.0 4000.0 4000.0 4000.0 4000.0 4000.0 4000.0 4000.0 4000.0 4000.0 4000.0 4000.0 4000.0 4000.0 4000.0 4000.0 4000.0 4000.0 4000.0 4000.0 4000.0 4000.0 4000.0 4000.0 4000.0 4000.0 4000.0 4000.0 4000.0 4000.0 4000.0 4000.0 4000.0 4000.0 4000.0 4000.0 4000.0 4000.0 4000.0 4000.0 4000.0 4000.0 4000.0 4000.0 4000.0 4000.0 4000.0 4000.0 4000.0 4000.0 4000.0 4000.0 4000.0 4000.0 4000.0 4000.0 4000.0 4000.0 4000.0 4000.0 4000.0 4000.0 4000.0 4000.0 4000.0 4000.0 4000.0 4000.0 4000.0 4000.0 4000.0 4000.0 4000.0 4000.0 4000.0 4000.0 4000.0 4000.0 4000.0 4000.0 4000.0 4000.0 4000.0 4000.0 4000.0 4000.0 4000.0 4000.0 4000.0 4000.0 4000.0 4000.0 4000.0 4000.0 4000.0 4000.0 4000.0 4000.0 4000.0 4000.0 4000.0 4000.0 4000.0 4000.0 4000.0 4000.0 4000.0 4000.0 4000.0 4000.0 4000.0 4000.0 4000.0 4000.0 4000.0 4000.0 4000.0 4000.0 4000.0 4000.0 4000.0 4000.0 4000.0 4000.0 4000.0 4000.0 4000.0 4000.0 4000.0 4000.0 4000.0 4000.0 4000.0 4000.0 4000.0 4000.0 4000.0 4000.0 4000.0 4000.0 4000.0 4000.0 4000.0 4000.0 4000.0 4000.0 4000.0 4000.0 4000.0 4000.0 4000.0 4000.0 4000.0 4000.0 4000.0 4000.0 4000.0 4000.0 4000.0 4000.0 4000.0 4000.0 4000.0 4000.0 4000.0 4000.0 4000.0 4000.0 4000.0 4000.0 4000.0 4000.0 4000.0 4000.0 4000.0 4000.0 4000.0 4000.0 4000.0 4000.0 4000.0 4000.0 4000.0 4000.0 4000.0 4000.0 4000.0 4000.0 4000.0 4000.0 4000.0 4000.0 4000.0 4000.0 4000.0 4000.0 4000.0 4000.0 4000.0 4000.0 4000.0 4000.0 4000.0 4000.0 4000.0 4000.0 4000.0 4000.0 4000.0 4000.0 4000.0 4000.0 4000.0 4000.0 4000.0 4000.0 4000.0 4000.0 4000.0 4000.0 4000.0 4000.0 4000.0 4000.0 4000.0 4000.0 4000.0 4000.0 4000.0 4000.0 4000.0 4000.0 4000.0 4000.0 4000.0 4000.0 4000.0 4000.0 4000.0 4000.0 4000.0 4000.0 4000.0 4000.0 4000.0 4000.0 4000.0 4000.0 4000.0 4000.0 4000.0 4000.0 4000.0 4000.0 4000.0 4000.0 4000.0 4000.0 4000.0 4000.0 4000.0 4000.0 4000.0 4000.0 4000.0 4000.0 4000.0 4000.0 4000.0 4000.0 4000.0 4000.0 4000.0 4000.0 4000.0 4000.0 4000.0 4000.0 4000.0 4000.0 4000.0 4000.0 4000.0 4000.0 4000.0 4000.0 4000.0 4000.0 4000.0 4000.0 4000.0 4000.0 4000.0 4000.0 4000.0 4000.0 4000.0 4000.0 4000.0 4000.0 4000.0 4000.0 4000.0 4000.0 4000.0 4000.0 4000.0 4000.0 4000.0 4000.0 4000.0 4000.0 4000.0 4000.0 4000.0 4000.0 4000.0 4000.0 4000.0 4000.0 4000.0 4000.0 4000.0 4000.0 4000.0 4000.0 SCALARS Mass float 1
LOOKUP_TABLE default
11309700000.0 11309700000.0 11309700000.0 11309700000.0 11309700000.0 11309700000.0 11309700000.0 11309700000.0 11309700000.0 11309700000.0 11309700000.0 11309700000.0 11309700000.0 11309700000.0 11309700000.0 11309700000.0 11309700000.0 11309700000.0 11309700000.0 11309700000.0 11309700000.0 11309700000.0 11309700000.0 11309700000.0 11309700000.0 11309700000.0 11309700000.0 11309700000.0 11309700000.0 11309700000.0 11309700000.0 11309700000.0 11309700000.0 11309700000.0 11309700000.0 11309700000.0 11309700000.0 11309700000.0 11309700000.0 11309700000.0 11309700000.0 11309700000.0 11309700000.0 11309700000.0 11309700000.0 11309700000.0 11309700000.0 11309700000.0 11309700000.0 11309700000.0 11309700000.0 11309700000.0 11309700000.0 11309700000.0 11309700000.0 11309700000.0 11309700000.0 11309700000.0 11309700000.0 11309700000.0 11309700000.0 11309700000.0 11309700000.0 11309700000.0 11309700000.0 11309700000.0 11309700000.0 11309700000.0 11309700000.0 11309700000.0 11309700000.0 11309700000.0 11309700000.0 11309700000.0 11309700000.0 11309700000.0 11309700000.0 11309700000.0 11309700000.0 11309700000.0 11309700000.0 11309700000.0 11309700000.0 11309700000.0 11309700000.0 11309700000.0 11309700000.0 11309700000.0 11309700000.0 11309700000.0 11309700000.0 11309700000.0 11309700000.0 11309700000.0 11309700000.0 11309700000.0 11309700000.0 11309700000.0 11309700000.0 11309700000.0 11309700000.0 11309700000.0 11309700000.0 11309700000.0 11309700000.0 11309700000.0 11309700000.0 11309700000.0 11309700000.0 11309700000.0 11309700000.0 11309700000.0 11309700000.0 11309700000.0 11309700000.0 11309700000.0 11309700000.0 11309700000.0 11309700000.0 11309700000.0 11309700000.0 11309700000.0 11309700000.0 11309700000.0 11309700000.0 11309700000.0 11309700000.0 11309700000.0 11309700000.0 11309700000.0 11309700000.0 11309700000.0 11309700000.0 11309700000.0 11309700000.0 11309700000.0 11309700000.0 11309700000.0 11309700000.0 11309700000.0 11309700000.0 11309700000.0 11309700000.0 11309700000.0 11309700000.0 11309700000.0 11309700000.0 11309700000.0 11309700000.0 11309700000.0 11309700000.0 11309700000.0 11309700000.0 11309700000.0 11309700000.0 11309700000.0 11309700000.0 11309700000.0 11309700000.0 11309700000.0 11309700000.0 11309700000.0 11309700000.0 11309700000.0 11309700000.0 11309700000.0 11309700000.0 11309700000.0 11309700000.0 11309700000.0 11309700000.0 11309700000.0 11309700000.0 11309700000.0 11309700000.0 11309700000.0 11309700000.0 11309700000.0 11309700000.0 11309700000.0 11309700000.0 11309700000.0 11309700000.0 11309700000.0 11309700000.0 11309700000.0 11309700000.0 11309700000.0 11309700000.0 11309700000.0 11309700000.0 11309700000.0 11309700000.0 11309700000.0 11309700000.0 11309700000.0 11309700000.0 11309700000.0 11309700000.0 11309700000.0 11309700000.0 11309700000.0 11309700000.0 11309700000.0 11309700000.0 11309700000.0 11309700000.0 11309700000.0 11309700000.0 11309700000.0 11309700000.0 11309700000.0 11309700000.0 11309700000.0 11309700000.0 11309700000.0 11309700000.0 11309700000.0 11309700000.0 11309700000.0 11309700000.0 11309700000.0 11309700000.0 11309700000.0 11309700000.0 11309700000.0 11309700000.0 11309700000.0 11309700000.0 11309700000.0 11309700000.0 11309700000.0 11309700000.0 11309700000.0 11309700000.0 11309700000.0 11309700000.0 11309700000.0 11309700000.0 11309700000.0 11309700000.0 11309700000.0 11309700000.0 11309700000.0 11309700000.0 11309700000.0 11309700000.0 11309700000.0 11309700000.0 11309700000.0 11309700000.0 11309700000.0 11309700000.0 11309700000.0 11309700000.0 11309700000.0 11309700000.0 11309700000.0 11309700000.0 11309700000.0 11309700000.0 11309700000.0 11309700000.0 11309700000.0 11309700000.0 11309700000.0 11309700000.0 11309700000.0 11309700000.0 11309700000.0 11309700000.0 11309700000.0 11309700000.0 11309700000.0 11309700000.0 11309700000.0 11309700000.0 11309700000.0 11309700000.0 11309700000.0 11309700000.0 11309700000.0 11309700000.0 11309700000.0 11309700000.0 11309700000.0 11309700000.0 11309700000.0 11309700000.0 11309700000.0 11309700000.0 11309700000.0 11309700000.0 11309700000.0 11309700000.0 11309700000.0 11309700000.0 11309700000.0 11309700000.0 11309700000.0 11309700000.0 11309700000.0 11309700000.0 11309700000.0 11309700000.0 11309700000.0 11309700000.0 11309700000.0 11309700000.0 11309700000.0 11309700000.0 11309700000.0 11309700000.0 11309700000.0 11309700000.0 11309700000.0 11309700000.0 11309700000.0 11309700000.0 11309700000.0 11309700000.0 11309700000.0 11309700000.0 11309700000.0 11309700000.0 11309700000.0 11309700000.0 11309700000.0 11309700000.0 11309700000.0 11309700000.0 11309700000.0 11309700000.0 11309700000.0 11309700000.0 11309700000.0 11309700000.0 11309700000.0 11309700000.0 11309700000.0 11309700000.0 11309700000.0 11309700000.0 11309700000.0 11309700000.0 11309700000.0 11309700000.0 11309700000.0 11309700000.0 11309700000.0 11309700000.0 11309700000.0 11309700000.0 11309700000.0 11309700000.0 11309700000.0 11309700000.0 11309700000.0 11309700000.0 11309700000.0 11309700000.0 11309700000.0 11309700000.0 11309700000.0 11309700000.0 11309700000.0 11309700000.0 11309700000.0 11309700000.0 11309700000.0 11309700000.0 11309700000.0 11309700000.0 11309700000.0 11309700000.0 11309700000.0 11309700000.0 11309700000.0 11309700000.0 11309700000.0 11309700000.0 11309700000.0 11309700000.0 11309700000.0 11309700000.0 11309700000.0 11309700000.0 11309700000.0 11309700000.0 11309700000.0 11309700000.0 11309700000.0 11309700000.0 11309700000.0 11309700000.0 11309700000.0 11309700000.0 11309700000.0 11309700000.0 11309700000.0 11309700000.0 11309700000.0 11309700000.0 11309700000.0 11309700000.0 11309700000.0 11309700000.0 11309700000.0 11309700000.0 11309700000.0 11309700000.0 11309700000.0 11309700000.0 11309700000.0 11309700000.0 11309700000.0 11309700000.0 11309700000.0 11309700000.0 11309700000.0 11309700000.0 11309700000.0 11309700000.0 11309700000.0 11309700000.0 11309700000.0 11309700000.0 11309700000.0 11309700000.0 11309700000.0 11309700000.0 11309700000.0 11309700000.0 11309700000.0 11309700000.0 11309700000.0 11309700000.0 11309700000.0 11309700000.0 11309700000.0 11309700000.0 11309700000.0 11309700000.0 11309700000.0 11309700000.0 11309700000.0 11309700000.0 11309700000.0 11309700000.0 11309700000.0 11309700000.0 11309700000.0 11309700000.0 11309700000.0 11309700000.0 11309700000.0 11309700000.0 11309700000.0 11309700000.0 11309700000.0 11309700000.0 11309700000.0 11309700000.0 11309700000.0 11309700000.0 11309700000.0 11309700000.0 11309700000.0 11309700000.0 11309700000.0 11309700000.0 11309700000.0 11309700000.0 11309700000.0 11309700000.0 11309700000.0 11309700000.0 11309700000.0 11309700000.0 11309700000.0 11309700000.0 11309700000.0 11309700000.0 11309700000.0 11309700000.0 11309700000.0 11309700000.0 11309700000.0 11309700000.0 11309700000.0 11309700000.0 11309700000.0 11309700000.0 11309700000.0 11309700000.0 11309700000.0 11309700000.0 11309700000.0 11309700000.0 11309700000.0 11309700000.0 11309700000.0 11309700000.0 11309700000.0 11309700000.0 11309700000.0 11309700000.0 11309700000.0 11309700000.0 11309700000.0 11309700000.0 11309700000.0 11309700000.0 11309700000.0 11309700000.0 11309700000.0 11309700000.0 11309700000.0 11309700000.0 11309700000.0 11309700000.0 11309700000.0 11309700000.0 11309700000.0 11309700000.0 11309700000.0 11309700000.0 11309700000.0 11309700000.0 11309700000.0 11309700000.0 11309700000.0 11309700000.0 11309700000.0 11309700000.0 11309700000.0 11309700000.0 11309700000.0 11309700000.0 11309700000.0 11309700000.0 11309700000.0 11309700000.0 11309700000.0 11309700000.0 11309700000.0 11309700000.0 11309700000.0 11309700000.0 11309700000.0 11309700000.0 11309700000.0 11309700000.0 11309700000.0 11309700000.0 11309700000.0 11309700000.0 11309700000.0 11309700000.0 11309700000.0 11309700000.0 11309700000.0 11309700000.0 11309700000.0 11309700000.0 11309700000.0 11309700000.0 11309700000.0 11309700000.0 11309700000.0 11309700000.0 11309700000.0 11309700000.0 11309700000.0 11309700000.0 11309700000.0 11309700000.0 11309700000.0 11309700000.0 11309700000.0 11309700000.0 11309700000.0 11309700000.0 11309700000.0 11309700000.0 11309700000.0 11309700000.0 11309700000.0 11309700000.0 11309700000.0 11309700000.0 11309700000.0 11309700000.0 11309700000.0 11309700000.0 11309700000.0 11309700000.0 11309700000.0 11309700000.0 11309700000.0 11309700000.0 11309700000.0 11309700000.0 11309700000.0 11309700000.0 11309700000.0 11309700000.0 11309700000.0 11309700000.0 11309700000.0 11309700000.0 11309700000.0 11309700000.0 11309700000.0 11309700000.0 11309700000.0 11309700000.0 11309700000.0 11309700000.0 11309700000.0 11309700000.0 11309700000.0 11309700000.0 11309700000.0 11309700000.0 11309700000.0 11309700000.0 11309700000.0 11309700000.0 11309700000.0 11309700000.0 11309700000.0 11309700000.0 11309700000.0 11309700000.0 11309700000.0 11309700000.0 11309700000.0 11309700000.0 11309700000.0 11309700000.0 11309700000.0 11309700000.0 11309700000.0 11309700000.0 11309700000.0 11309700000.0 11309700000.0 11309700000.0 11309700000.0 11309700000.0 11309700000.0 11309700000.0 11309700000.0 11309700000.0 11309700000.0 11309700000.0 11309700000.0 11309700000.0 11309700000.0 11309700000.0 11309700000.0 11309700000.0 11309700000.0 11309700000.0 11309700000.0 11309700000.0 11309700000.0 11309700000.0 11309700000.0 11309700000.0 11309700000.0 11309700000.0 11309700000.0 11309700000.0 11309700000.0 11309700000.0 11309700000.0 11309700000.0 11309700000.0 11309700000.0 11309700000.0 11309700000.0 11309700000.0 11309700000.0 11309700000.0 11309700000.0 11309700000.0 11309700000.0 11309700000.0 11309700000.0 11309700000.0 11309700000.0 11309700000.0 11309700000.0 11309700000.0 11309700000.0 11309700000.0 11309700000.0 11309700000.0 11309700000.0 11309700000.0 11309700000.0 11309700000.0 11309700000.0 11309700000.0 11309700000.0 11309700000.0 11309700000.0 11309700000.0 11309700000.0 11309700000.0 11309700000.0 11309700000.0 11309700000.0 11309700000.0 11309700000.0 11309700000.0 11309700000.0 11309700000.0 11309700000.0 11309700000.0 11309700000.0 11309700000.0 11309700000.0 11309700000.0 11309700000.0 11309700000.0 11309700000.0 11309700000.0 11309700000.0 11309700000.0 11309700000.0 11309700000.0 11309700000.0 11309700000.0 11309700000.0 11309700000.0 11309700000.0 11309700000.0 11309700000.0 11309700000.0 11309700000.0 11309700000.0 11309700000.0 11309700000.0 11309700000.0 11309700000.0 11309700000.0 11309700000.0 11309700000.0 11309700000.0 11309700000.0 11309700000.0 11309700000.0 11309700000.0 11309700000.0 11309700000.0 11309700000.0 11309700000.0 11309700000.0 11309700000.0 11309700000.0 11309700000.0 11309700000.0 11309700000.0 11309700000.0 11309700000.0 11309700000.0 11309700000.0 11309700000.0 11309700000.0 11309700000.0 11309700000.0 11309700000.0 11309700000.0 11309700000.0 11309700000.0 11309700000.0 11309700000.0 11309700000.0 11309700000.0 11309700000.0 11309700000.0 11309700000.0 11309700000.0 11309700000.0 11309700000.0 11309700000.0 11309700000.0 11309700000.0 11309700000.0 11309700000.0 11309700000.0 11309700000.0 11309700000.0 11309700000.0 11309700000.0 11309700000.0 11309700000.0 11309700000.0 11309700000.0 11309700000.0 11309700000.0 11309700000.0 11309700000.0 11309700000.0 11309700000.0 11309700000.0 11309700000.0 11309700000.0 11309700000.0 11309700000.0 11309700000.0 11309700000.0 11309700000.0 11309700000.0 11309700000.0 11309700000.0 11309700000.0 11309700000.0 11309700000.0 11309700000.0 11309700000.0 11309700000.0 11309700000.0 11309700000.0 11309700000.0 11309700000.0 11309700000.0 11309700000.0 11309700000.0 11309700000.0 11309700000.0 11309700000.0 11309700000.0 11309700000.0 11309700000.0 11309700000.0 11309700000.0 11309700000.0 11309700000.0 11309700000.0 11309700000.0 11309700000.0 11309700000.0 11309700000.0 11309700000.0 11309700000.0 11309700000.0 11309700000.0 11309700000.0 11309700000.0 11309700000.0 11309700000.0 11309700000.0 11309700000.0 11309700000.0 11309700000.0 11309700000.0 11309700000.0 11309700000.0 11309700000.0 11309700000.0 11309700000.0 11309700000.0 11309700000.0 11309700000.0 11309700000.0 11309700000.0 11309700000.0 11309700000.0 11309700000.0 11309700000.0 11309700000.0 11309700000.0 11309700000.0 11309700000.0 11309700000.0 11309700000.0 11309700000.0 11309700000.0 11309700000.0 11309700000.0 11309700000.0 11309700000.0 11309700000.0 11309700000.0 11309700000.0 11309700000.0 11309700000.0 11309700000.0 11309700000.0 11309700000.0 11309700000.0 11309700000.0 11309700000.0 11309700000.0 11309700000.0 11309700000.0 11309700000.0 11309700000.0 11309700000.0 11309700000.0 11309700000.0 11309700000.0 11309700000.0 11309700000.0 11309700000.0 11309700000.0 11309700000.0 11309700000.0 11309700000.0 11309700000.0 11309700000.0 11309700000.0 11309700000.0 11309700000.0 11309700000.0 11309700000.0 11309700000.0 11309700000.0 11309700000.0 11309700000.0 11309700000.0 11309700000.0 11309700000.0 11309700000.0 11309700000.0 11309700000.0 11309700000.0 11309700000.0 11309700000.0 11309700000.0 11309700000.0 11309700000.0 11309700000.0 11309700000.0 11309700000.0 11309700000.0 11309700000.0 11309700000.0 11309700000.0 11309700000.0 11309700000.0 11309700000.0 11309700000.0 11309700000.0 11309700000.0 11309700000.0 11309700000.0 11309700000.0 11309700000.0 11309700000.0 11309700000.0 11309700000.0 11309700000.0 11309700000.0 11309700000.0 11309700000.0 11309700000.0 11309700000.0 11309700000.0 11309700000.0 11309700000.0 11309700000.0 11309700000.0 11309700000.0 11309700000.0 11309700000.0 11309700000.0 11309700000.0 11309700000.0 11309700000.0 11309700000.0 11309700000.0 11309700000.0 11309700000.0 11309700000.0 11309700000.0 11309700000.0 11309700000.0 11309700000.0 11309700000.0 11309700000.0 11309700000.0 11309700000.0 11309700000.0 11309700000.0 11309700000.0 11309700000.0 11309700000.0 11309700000.0 11309700000.0 11309700000.0 11309700000.0 11309700000.0 11309700000.0 11309700000.0 11309700000.0 11309700000.0 11309700000.0 11309700000.0 11309700000.0 11309700000.0 11309700000.0 11309700000.0 11309700000.0 11309700000.0 11309700000.0 11309700000.0 11309700000.0 11309700000.0 11309700000.0 11309700000.0 11309700000.0 11309700000.0 11309700000.0 11309700000.0 11309700000.0 11309700000.0 11309700000.0 11309700000.0 11309700000.0 11309700000.0 11309700000.0 11309700000.0 11309700000.0 11309700000.0 11309700000.0 11309700000.0 11309700000.0 11309700000.0 11309700000.0 11309700000.0 11309700000.0 11309700000.0 11309700000.0 11309700000.0 11309700000.0 11309700000.0 11309700000.0 11309700000.0 11309700000.0 11309700000.0 11309700000.0 11309700000.0 11309700000.0 11309700000.0 11309700000.0 11309700000.0 11309700000.0 11309700000.0 11309700000.0 11309700000.0 11309700000.0 11309700000.0 11309700000.0 11309700000.0 11309700000.0 11309700000.0 11309700000.0 11309700000.0 11309700000.0 11309700000.0 11309700000.0 11309700000.0 11309700000.0 11309700000.0 11309700000.0 11309700000.0 11309700000.0 11309700000.0 11309700000.0 11309700000.0 11309700000.0 11309700000.0 11309700000.0 11309700000.0 11309700000.0 11309700000.0 11309700000.0 11309700000.0 11309700000.0 11309700000.0 11309700000.0 11309700000.0 11309700000.0 11309700000.0 11309700000.0 11309700000.0 11309700000.0 11309700000.0 11309700000.0 11309700000.0 11309700000.0 11309700000.0 11309700000.0 11309700000.0 11309700000.0 11309700000.0 11309700000.0 11309700000.0 11309700000.0 11309700000.0 11309700000.0 11309700000.0 11309700000.0 11309700000.0 11309700000.0 11309700000.0 11309700000.0 11309700000.0 11309700000.0 11309700000.0 11309700000.0 11309700000.0 11309700000.0 11309700000.0 11309700000.0 11309700000.0 11309700000.0 11309700000.0 11309700000.0 11309700000.0 11309700000.0 11309700000.0 11309700000.0 11309700000.0 11309700000.0 11309700000.0 11309700000.0 11309700000.0 11309700000.0 11309700000.0 11309700000.0 11309700000.0 11309700000.0 11309700000.0 11309700000.0 11309700000.0 11309700000.0 11309700000.0 11309700000.0 11309700000.0 11309700000.0 11309700000.0 11309700000.0 11309700000.0 11309700000.0 11309700000.0 11309700000.0 11309700000.0 11309700000.0 11309700000.0 11309700000.0 11309700000.0 11309700000.0 11309700000.0 11309700000.0 11309700000.0 11309700000.0 11309700000.0 11309700000.0 11309700000.0 11309700000.0 11309700000.0 11309700000.0 11309700000.0 11309700000.0 11309700000.0 11309700000.0 11309700000.0 11309700000.0 11309700000.0 11309700000.0 11309700000.0 11309700000.0 11309700000.0 11309700000.0 11309700000.0 11309700000.0 11309700000.0 11309700000.0 11309700000.0 11309700000.0 11309700000.0 11309700000.0 11309700000.0 11309700000.0 11309700000.0 11309700000.0 11309700000.0 11309700000.0 11309700000.0 11309700000.0 11309700000.0 11309700000.0 11309700000.0 11309700000.0 11309700000.0 11309700000.0 11309700000.0 11309700000.0 11309700000.0 11309700000.0 11309700000.0 11309700000.0 11309700000.0 11309700000.0 11309700000.0 11309700000.0 11309700000.0 11309700000.0 11309700000.0 11309700000.0 11309700000.0 11309700000.0 11309700000.0 11309700000.0 11309700000.0 11309700000.0 11309700000.0 11309700000.0 11309700000.0 11309700000.0 11309700000.0 11309700000.0 11309700000.0 11309700000.0 11309700000.0 11309700000.0 11309700000.0 11309700000.0 11309700000.0 11309700000.0 11309700000.0 11309700000.0 11309700000.0 11309700000.0 11309700000.0 11309700000.0 11309700000.0 11309700000.0 11309700000.0 11309700000.0 11309700000.0 11309700000.0 11309700000.0 11309700000.0 11309700000.0 11309700000.0 11309700000.0 11309700000.0 11309700000.0 11309700000.0 11309700000.0 11309700000.0 11309700000.0 11309700000.0 11309700000.0 11309700000.0 11309700000.0 11309700000.0 11309700000.0 11309700000.0 11309700000.0 11309700000.0 11309700000.0 11309700000.0 11309700000.0 11309700000.0 11309700000.0 11309700000.0 11309700000.0 11309700000.0 11309700000.0 11309700000.0 11309700000.0 11309700000.0 11309700000.0 11309700000.0 11309700000.0 11309700000.0 11309700000.0 11309700000.0 11309700000.0 11309700000.0 11309700000.0 11309700000.0 11309700000.0 11309700000.0 11309700000.0 11309700000.0 11309700000.0 11309700000.0 11309700000.0 11309700000.0 11309700000.0 11309700000.0 11309700000.0 11309700000.0 11309700000.0 11309700000.0 11309700000.0 11309700000.0 11309700000.0 11309700000.0 11309700000.0 11309700000.0 11309700000.0 11309700000.0 11309700000.0 11309700000.0 11309700000.0 11309700000.0 11309700000.0 11309700000.0 11309700000.0 11309700000.0 11309700000.0 11309700000.0 11309700000.0 11309700000.0 11309700000.0 11309700000.0 11309700000.0 11309700000.0 11309700000.0 11309700000.0 11309700000.0 11309700000.0 11309700000.0 11309700000.0 11309700000.0 11309700000.0 11309700000.0 11309700000.0 11309700000.0 11309700000.0 11309700000.0 11309700000.0 11309700000.0 11309700000.0 11309700000.0 11309700000.0 11309700000.0 11309700000.0 11309700000.0 11309700000.0 11309700000.0 11309700000.0 11309700000.0 11309700000.0 11309700000.0 11309700000.0 11309700000.0 11309700000.0 11309700000.0 11309700000.0 11309700000.0 11309700000.0 11309700000.0 11309700000.0 11309700000.0 11309700000.0 11309700000.0 11309700000.0 11309700000.0 11309700000.0 11309700000.0 11309700000.0 11309700000.0 11309700000.0 11309700000.0 11309700000.0 11309700000.0 11309700000.0 11309700000.0 11309700000.0 11309700000.0 11309700000.0 11309700000.0 11309700000.0 11309700000.0 11309700000.0 11309700000.0 11309700000.0 11309700000.0 11309700000.0 11309700000.0 11309700000.0 11309700000.0 11309700000.0 11309700000.0 11309700000.0 11309700000.0 11309700000.0 11309700000.0 11309700000.0 11309700000.0 11309700000.0 11309700000.0 11309700000.0 11309700000.0 11309700000.0 11309700000.0 11309700000.0 11309700000.0 11309700000.0 11309700000.0 11309700000.0 11309700000.0 11309700000.0 11309700000.0 11309700000.0 11309700000.0 11309700000.0 11309700000.0 11309700000.0 11309700000.0 11309700000.0 11309700000.0 11309700000.0 11309700000.0 11309700000.0 11309700000.0 11309700000.0 11309700000.0 11309700000.0 11309700000.0 11309700000.0 11309700000.0 11309700000.0 11309700000.0 11309700000.0 11309700000.0 11309700000.0 11309700000.0 11309700000.0 11309700000.0 11309700000.0 11309700000.0 11309700000.0 11309700000.0 11309700000.0 11309700000.0 11309700000.0 11309700000.0 11309700000.0 11309700000.0 11309700000.0 11309700000.0 11309700000.0 11309700000.0 11309700000.0 11309700000.0 11309700000.0 11309700000.0 11309700000.0 11309700000.0 11309700000.0 11309700000.0 11309700000.0 11309700000.0 11309700000.0 11309700000.0 11309700000.0 11309700000.0 11309700000.0 11309700000.0 11309700000.0 11309700000.0 11309700000.0 11309700000.0 11309700000.0 11309700000.0 11309700000.0 11309700000.0 11309700000.0 11309700000.0 11309700000.0 11309700000.0 11309700000.0 11309700000.0 11309700000.0 11309700000.0 11309700000.0 11309700000.0 11309700000.0 11309700000.0 11309700000.0 11309700000.0 11309700000.0 11309700000.0 11309700000.0 11309700000.0 11309700000.0 11309700000.0 11309700000.0 11309700000.0 11309700000.0 11309700000.0 11309700000.0 11309700000.0 11309700000.0 11309700000.0 11309700000.0 11309700000.0 11309700000.0 11309700000.0 11309700000.0 11309700000.0 11309700000.0 11309700000.0 11309700000.0 11309700000.0 11309700000.0 11309700000.0 11309700000.0 11309700000.0 11309700000.0 11309700000.0 11309700000.0 11309700000.0 11309700000.0 11309700000.0 11309700000.0 11309700000.0 11309700000.0 11309700000.0 11309700000.0 11309700000.0 11309700000.0 11309700000.0 11309700000.0 11309700000.0 11309700000.0 11309700000.0 11309700000.0 11309700000.0 11309700000.0 11309700000.0 11309700000.0 11309700000.0 11309700000.0 11309700000.0 11309700000.0 11309700000.0 11309700000.0 11309700000.0 11309700000.0 11309700000.0 11309700000.0 11309700000.0 11309700000.0 11309700000.0 11309700000.0 11309700000.0 11309700000.0 11309700000.0 11309700000.0 11309700000.0 11309700000.0 11309700000.0 11309700000.0 11309700000.0 11309700000.0 11309700000.0 11309700000.0 11309700000.0 11309700000.0 11309700000.0 11309700000.0 11309700000.0 11309700000.0 11309700000.0 11309700000.0 11309700000.0 11309700000.0 11309700000.0 11309700000.0 11309700000.0 11309700000.0 11309700000.0 11309700000.0 11309700000.0 11309700000.0 11309700000.0 11309700000.0 11309700000.0 11309700000.0 11309700000.0 11309700000.0 11309700000.0 11309700000.0 11309700000.0 11309700000.0 11309700000.0 11309700000.0 11309700000.0 11309700000.0 11309700000.0 11309700000.0 11309700000.0 11309700000.0 11309700000.0 11309700000.0 11309700000.0 11309700000.0 11309700000.0 11309700000.0 11309700000.0 11309700000.0 11309700000.0 11309700000.0 11309700000.0 11309700000.0 11309700000.0 11309700000.0 11309700000.0 11309700000.0 11309700000.0 11309700000.0 11309700000.0 11309700000.0 11309700000.0 11309700000.0 11309700000.0 11309700000.0 11309700000.0 11309700000.0 11309700000.0 11309700000.0 11309700000.0 11309700000.0 11309700000.0 11309700000.0 11309700000.0 11309700000.0 11309700000.0 11309700000.0 11309700000.0 11309700000.0 11309700000.0 11309700000.0 11309700000.0 11309700000.0 11309700000.0 11309700000.0 11309700000.0 11309700000.0 11309700000.0 11309700000.0 11309700000.0 11309700000.0 11309700000.0 11309700000.0 11309700000.0 11309700000.0 11309700000.0 11309700000.0 11309700000.0 11309700000.0 11309700000.0 11309700000.0 11309700000.0 11309700000.0 11309700000.0 11309700000.0 11309700000.0 11309700000.0 11309700000.0 11309700000.0 11309700000.0 11309700000.0 11309700000.0 11309700000.0 11309700000.0 11309700000.0 11309700000.0 11309700000.0 11309700000.0 11309700000.0 11309700000.0 11309700000.0 11309700000.0 11309700000.0 11309700000.0 11309700000.0 11309700000.0 11309700000.0 11309700000.0 11309700000.0 11309700000.0 11309700000.0 11309700000.0 11309700000.0 11309700000.0 11309700000.0 11309700000.0 11309700000.0 11309700000.0 11309700000.0 11309700000.0 11309700000.0 11309700000.0 11309700000.0 11309700000.0 11309700000.0 11309700000.0 11309700000.0 11309700000.0 11309700000.0 11309700000.0 11309700000.0 11309700000.0 11309700000.0 11309700000.0 11309700000.0 11309700000.0 11309700000.0 11309700000.0 11309700000.0 11309700000.0 11309700000.0 11309700000.0 11309700000.0 11309700000.0 11309700000.0 11309700000.0 11309700000.0 11309700000.0 11309700000.0 11309700000.0 11309700000.0 11309700000.0 11309700000.0 11309700000.0 11309700000.0 11309700000.0 11309700000.0 11309700000.0 11309700000.0 11309700000.0 11309700000.0 11309700000.0 11309700000.0 11309700000.0 11309700000.0 11309700000.0 11309700000.0 11309700000.0 11309700000.0 11309700000.0 11309700000.0 11309700000.0 11309700000.0 11309700000.0 11309700000.0 11309700000.0 11309700000.0 11309700000.0 11309700000.0 11309700000.0 11309700000.0 11309700000.0 11309700000.0 11309700000.0 11309700000.0 11309700000.0 11309700000.0 11309700000.0 11309700000.0 11309700000.0 11309700000.0 11309700000.0 11309700000.0 11309700000.0 11309700000.0 11309700000.0 11309700000.0 11309700000.0 11309700000.0 11309700000.0 11309700000.0 11309700000.0 11309700000.0 11309700000.0 11309700000.0 11309700000.0 11309700000.0 11309700000.0 11309700000.0 11309700000.0 11309700000.0 11309700000.0 11309700000.0 11309700000.0 11309700000.0 11309700000.0 11309700000.0 11309700000.0 11309700000.0 11309700000.0 11309700000.0 11309700000.0 11309700000.0 11309700000.0 11309700000.0 11309700000.0 11309700000.0 11309700000.0 11309700000.0 11309700000.0 11309700000.0 11309700000.0 11309700000.0 11309700000.0 11309700000.0 11309700000.0 11309700000.0 11309700000.0 11309700000.0 11309700000.0 11309700000.0 11309700000.0 11309700000.0 11309700000.0 11309700000.0 11309700000.0 11309700000.0 11309700000.0 11309700000.0 11309700000.0 11309700000.0 11309700000.0 11309700000.0 11309700000.0 11309700000.0 11309700000.0 11309700000.0 11309700000.0 11309700000.0 11309700000.0 11309700000.0 11309700000.0 11309700000.0 11309700000.0 11309700000.0 11309700000.0 11309700000.0 11309700000.0 11309700000.0 11309700000.0 11309700000.0 11309700000.0 11309700000.0 11309700000.0 11309700000.0 11309700000.0 11309700000.0 11309700000.0 11309700000.0 11309700000.0 11309700000.0 11309700000.0 11309700000.0 11309700000.0 11309700000.0 11309700000.0 11309700000.0 11309700000.0 11309700000.0 11309700000.0 11309700000.0 11309700000.0 11309700000.0 11309700000.0 11309700000.0 11309700000.0 11309700000.0 11309700000.0 11309700000.0 11309700000.0 11309700000.0 11309700000.0 11309700000.0 11309700000.0 11309700000.0 11309700000.0 11309700000.0 11309700000.0 11309700000.0 11309700000.0 11309700000.0 11309700000.0 11309700000.0 11309700000.0 11309700000.0 11309700000.0 11309700000.0 11309700000.0 11309700000.0 11309700000.0 11309700000.0 11309700000.0 11309700000.0 11309700000.0 11309700000.0 11309700000.0 11309700000.0 11309700000.0 11309700000.0 11309700000.0 11309700000.0 11309700000.0 11309700000.0 11309700000.0 11309700000.0 11309700000.0 11309700000.0 11309700000.0 11309700000.0 11309700000.0 11309700000.0 11309700000.0 11309700000.0 11309700000.0 11309700000.0 11309700000.0 11309700000.0 11309700000.0 11309700000.0 11309700000.0 11309700000.0 11309700000.0 11309700000.0 11309700000.0 11309700000.0 11309700000.0 11309700000.0 11309700000.0 11309700000.0 11309700000.0 11309700000.0 11309700000.0 11309700000.0 11309700000.0 11309700000.0 11309700000.0 11309700000.0 11309700000.0 11309700000.0 11309700000.0 11309700000.0 11309700000.0 11309700000.0 11309700000.0 11309700000.0 11309700000.0 11309700000.0 11309700000.0 11309700000.0 11309700000.0 11309700000.0 11309700000.0 11309700000.0 11309700000.0 11309700000.0 11309700000.0 11309700000.0 11309700000.0 11309700000.0 11309700000.0 11309700000.0 11309700000.0 11309700000.0 11309700000.0 11309700000.0 11309700000.0 11309700000.0 11309700000.0 11309700000.0 11309700000.0 11309700000.0 11309700000.0 11309700000.0 11309700000.0 11309700000.0 11309700000.0 11309700000.0 11309700000.0 11309700000.0 11309700000.0 11309700000.0 11309700000.0 11309700000.0 11309700000.0 11309700000.0 11309700000.0 11309700000.0 11309700000.0 11309700000.0 11309700000.0 11309700000.0 11309700000.0 11309700000.0 11309700000.0 11309700000.0 11309700000.0 11309700000.0 11309700000.0 11309700000.0 11309700000.0 11309700000.0 11309700000.0 11309700000.0 11309700000.0 11309700000.0 11309700000.0 11309700000.0 11309700000.0 11309700000.0 11309700000.0 11309700000.0 11309700000.0 11309700000.0 11309700000.0 11309700000.0 11309700000.0 11309700000.0 11309700000.0 11309700000.0 11309700000.0 11309700000.0 11309700000.0 11309700000.0 11309700000.0 11309700000.0 11309700000.0 11309700000.0 11309700000.0 11309700000.0 11309700000.0 11309700000.0 11309700000.0 11309700000.0 11309700000.0 11309700000.0 11309700000.0 11309700000.0 11309700000.0 11309700000.0 11309700000.0 11309700000.0 11309700000.0 11309700000.0 11309700000.0 11309700000.0 11309700000.0 11309700000.0 11309700000.0 11309700000.0 11309700000.0 11309700000.0 11309700000.0 11309700000.0 11309700000.0 11309700000.0 11309700000.0 11309700000.0 11309700000.0 11309700000.0 11309700000.0 11309700000.0 11309700000.0 11309700000.0 11309700000.0 11309700000.0 11309700000.0 11309700000.0 11309700000.0 11309700000.0 11309700000.0 11309700000.0 11309700000.0 11309700000.0 11309700000.0 11309700000.0 11309700000.0 11309700000.0 11309700000.0 11309700000.0 11309700000.0 11309700000.0 11309700000.0 11309700000.0 11309700000.0 11309700000.0 11309700000.0 11309700000.0 11309700000.0 11309700000.0 11309700000.0 11309700000.0 11309700000.0 11309700000.0 11309700000.0 11309700000.0 11309700000.0 11309700000.0 11309700000.0 11309700000.0 11309700000.0 11309700000.0 11309700000.0 11309700000.0 11309700000.0 11309700000.0 11309700000.0 11309700000.0 11309700000.0 11309700000.0 11309700000.0 11309700000.0 11309700000.0 11309700000.0 11309700000.0 11309700000.0 11309700000.0 11309700000.0 11309700000.0 11309700000.0 11309700000.0 11309700000.0 11309700000.0 11309700000.0 11309700000.0 11309700000.0 11309700000.0 11309700000.0 11309700000.0 11309700000.0 11309700000.0 11309700000.0 11309700000.0 11309700000.0 11309700000.0 11309700000.0 11309700000.0 11309700000.0 11309700000.0 11309700000.0 11309700000.0 11309700000.0 11309700000.0 11309700000.0 11309700000.0 11309700000.0 11309700000.0 11309700000.0 11309700000.0 11309700000.0 11309700000.0 11309700000.0 11309700000.0 11309700000.0 11309700000.0 11309700000.0 11309700000.0 11309700000.0 11309700000.0 11309700000.0 11309700000.0 11309700000.0 11309700000.0 11309700000.0 11309700000.0 11309700000.0 11309700000.0 11309700000.0 11309700000.0 11309700000.0 11309700000.0 11309700000.0 11309700000.0 11309700000.0 11309700000.0 11309700000.0 11309700000.0 11309700000.0 11309700000.0 11309700000.0 11309700000.0 11309700000.0 11309700000.0 11309700000.0 11309700000.0 11309700000.0 11309700000.0 11309700000.0 11309700000.0 11309700000.0 11309700000.0 11309700000.0 11309700000.0 11309700000.0 11309700000.0 11309700000.0 11309700000.0 11309700000.0 11309700000.0 11309700000.0 11309700000.0 11309700000.0 11309700000.0 11309700000.0 11309700000.0 11309700000.0 11309700000.0 11309700000.0 11309700000.0 11309700000.0 11309700000.0 11309700000.0 11309700000.0 11309700000.0 11309700000.0 11309700000.0 11309700000.0 11309700000.0 11309700000.0 11309700000.0 11309700000.0 11309700000.0 11309700000.0 11309700000.0 11309700000.0 11309700000.0 11309700000.0 11309700000.0 11309700000.0 11309700000.0 11309700000.0 11309700000.0 11309700000.0 11309700000.0 11309700000.0 11309700000.0 11309700000.0 11309700000.0 11309700000.0 11309700000.0 11309700000.0 11309700000.0 11309700000.0 11309700000.0 11309700000.0 11309700000.0 11309700000.0 11309700000.0 11309700000.0 11309700000.0 11309700000.0 11309700000.0 11309700000.0 11309700000.0 11309700000.0 11309700000.0 11309700000.0 11309700000.0 11309700000.0 11309700000.0 11309700000.0 11309700000.0 11309700000.0 11309700000.0 11309700000.0 11309700000.0 11309700000.0 11309700000.0 11309700000.0 11309700000.0 11309700000.0 11309700000.0 11309700000.0 11309700000.0 11309700000.0 11309700000.0 11309700000.0 11309700000.0 11309700000.0 11309700000.0 11309700000.0 11309700000.0 11309700000.0 11309700000.0 11309700000.0 11309700000.0 11309700000.0 11309700000.0 11309700000.0 11309700000.0 11309700000.0 11309700000.0 11309700000.0 11309700000.0 11309700000.0 11309700000.0 11309700000.0 11309700000.0 11309700000.0 11309700000.0 11309700000.0 11309700000.0 11309700000.0 11309700000.0 11309700000.0 11309700000.0 11309700000.0 11309700000.0 11309700000.0 11309700000.0 11309700000.0 11309700000.0 11309700000.0 11309700000.0 11309700000.0 11309700000.0 11309700000.0 11309700000.0 11309700000.0 11309700000.0 11309700000.0 11309700000.0 11309700000.0 11309700000.0 11309700000.0 11309700000.0 11309700000.0 11309700000.0 11309700000.0 11309700000.0 11309700000.0 11309700000.0 11309700000.0 11309700000.0 11309700000.0 11309700000.0 11309700000.0 11309700000.0 11309700000.0 11309700000.0 11309700000.0 11309700000.0 11309700000.0 11309700000.0 11309700000.0 11309700000.0 11309700000.0 11309700000.0 11309700000.0 11309700000.0 11309700000.0 11309700000.0 11309700000.0 11309700000.0 11309700000.0 11309700000.0 11309700000.0 11309700000.0 11309700000.0 11309700000.0 11309700000.0 11309700000.0 11309700000.0 11309700000.0 11309700000.0 11309700000.0 11309700000.0 11309700000.0 11309700000.0 11309700000.0 11309700000.0 11309700000.0 11309700000.0 11309700000.0 11309700000.0 11309700000.0 11309700000.0 11309700000.0 11309700000.0 11309700000.0 11309700000.0 11309700000.0 11309700000.0 11309700000.0 11309700000.0 11309700000.0 11309700000.0 11309700000.0 11309700000.0 11309700000.0 11309700000.0 11309700000.0 11309700000.0 11309700000.0 11309700000.0 11309700000.0 11309700000.0 11309700000.0 11309700000.0 11309700000.0 11309700000.0 11309700000.0 11309700000.0 11309700000.0 11309700000.0 11309700000.0 11309700000.0 11309700000.0 11309700000.0 11309700000.0 11309700000.0 11309700000.0 11309700000.0 11309700000.0 11309700000.0 11309700000.0 11309700000.0 11309700000.0 11309700000.0 11309700000.0 11309700000.0 11309700000.0 11309700000.0 11309700000.0 11309700000.0 11309700000.0 11309700000.0 11309700000.0 11309700000.0 11309700000.0 11309700000.0 11309700000.0 11309700000.0 11309700000.0 11309700000.0 11309700000.0 11309700000.0 11309700000.0 11309700000.0 11309700000.0 11309700000.0 11309700000.0 11309700000.0 11309700000.0 11309700000.0 11309700000.0 11309700000.0 11309700000.0 11309700000.0 11309700000.0 11309700000.0 11309700000.0 11309700000.0 11309700000.0 11309700000.0 11309700000.0 11309700000.0 11309700000.0 11309700000.0 11309700000.0 11309700000.0 11309700000.0 11309700000.0 11309700000.0 11309700000.0 11309700000.0 11309700000.0 11309700000.0 11309700000.0 11309700000.0 11309700000.0 11309700000.0 11309700000.0 11309700000.0 11309700000.0 11309700000.0 11309700000.0 11309700000.0 11309700000.0 11309700000.0 11309700000.0 11309700000.0 11309700000.0 11309700000.0 11309700000.0 11309700000.0 11309700000.0 11309700000.0 11309700000.0 11309700000.0 11309700000.0 11309700000.0 11309700000.0 11309700000.0 11309700000.0 11309700000.0 11309700000.0 11309700000.0 11309700000.0 11309700000.0 11309700000.0 11309700000.0 11309700000.0 11309700000.0 11309700000.0 11309700000.0 11309700000.0 11309700000.0 11309700000.0 11309700000.0 11309700000.0 11309700000.0 11309700000.0 11309700000.0 11309700000.0 11309700000.0 11309700000.0 11309700000.0 11309700000.0 11309700000.0 11309700000.0 11309700000.0 11309700000.0 11309700000.0 11309700000.0 11309700000.0 11309700000.0 11309700000.0 11309700000.0 11309700000.0 11309700000.0 11309700000.0 11309700000.0 11309700000.0 11309700000.0 11309700000.0 11309700000.0 11309700000.0 11309700000.0 11309700000.0 11309700000.0 11309700000.0 11309700000.0 11309700000.0 11309700000.0 11309700000.0 11309700000.0 11309700000.0 11309700000.0 11309700000.0 11309700000.0 11309700000.0 11309700000.0 11309700000.0 11309700000.0 11309700000.0 11309700000.0 11309700000.0 11309700000.0 11309700000.0 11309700000.0 11309700000.0 11309700000.0 11309700000.0 11309700000.0 11309700000.0 11309700000.0 11309700000.0 11309700000.0 11309700000.0 11309700000.0 11309700000.0 11309700000.0 11309700000.0 11309700000.0 11309700000.0 11309700000.0 11309700000.0 11309700000.0 11309700000.0 11309700000.0 11309700000.0 11309700000.0 11309700000.0 11309700000.0 11309700000.0 11309700000.0 11309700000.0 11309700000.0 11309700000.0 11309700000.0 11309700000.0 11309700000.0 11309700000.0 11309700000.0 11309700000.0 11309700000.0 11309700000.0 11309700000.0 11309700000.0 11309700000.0 11309700000.0 11309700000.0 11309700000.0 11309700000.0 11309700000.0 11309700000.0 11309700000.0 11309700000.0 11309700000.0 11309700000.0 11309700000.0 11309700000.0 11309700000.0 11309700000.0 11309700000.0 11309700000.0 11309700000.0 11309700000.0 11309700000.0 11309700000.0 11309700000.0 11309700000.0 11309700000.0 11309700000.0 11309700000.0 11309700000.0 11309700000.0 11309700000.0 11309700000.0 11309700000.0 11309700000.0 11309700000.0 11309700000.0 11309700000.0 11309700000.0 11309700000.0 11309700000.0 11309700000.0 11309700000.0 11309700000.0 11309700000.0 11309700000.0 11309700000.0 11309700000.0 11309700000.0 11309700000.0 11309700000.0 11309700000.0 11309700000.0 11309700000.0 11309700000.0 11309700000.0 11309700000.0 11309700000.0 11309700000.0 11309700000.0 11309700000.0 11309700000.0 11309700000.0 11309700000.0 11309700000.0 11309700000.0 11309700000.0 11309700000.0 11309700000.0 11309700000.0 11309700000.0 11309700000.0 11309700000.0 11309700000.0 11309700000.0 11309700000.0 11309700000.0 11309700000.0 11309700000.0 11309700000.0 11309700000.0 11309700000.0 11309700000.0 11309700000.0 11309700000.0 11309700000.0 11309700000.0 11309700000.0 11309700000.0 11309700000.0 11309700000.0 11309700000.0 11309700000.0 11309700000.0 11309700000.0 11309700000.0 11309700000.0 11309700000.0 11309700000.0 11309700000.0 11309700000.0 11309700000.0 11309700000.0 11309700000.0 11309700000.0 11309700000.0 11309700000.0 11309700000.0 11309700000.0 11309700000.0 11309700000.0 11309700000.0 11309700000.0 11309700000.0 11309700000.0 11309700000.0 11309700000.0 11309700000.0 11309700000.0 11309700000.0 11309700000.0 11309700000.0 11309700000.0 11309700000.0 11309700000.0 11309700000.0 11309700000.0 11309700000.0 11309700000.0 11309700000.0 11309700000.0 11309700000.0 11309700000.0 11309700000.0 11309700000.0 11309700000.0 11309700000.0 11309700000.0 11309700000.0 11309700000.0 11309700000.0 11309700000.0 11309700000.0 11309700000.0 11309700000.0 11309700000.0 11309700000.0 11309700000.0 11309700000.0 11309700000.0 11309700000.0 11309700000.0 11309700000.0 11309700000.0 11309700000.0 11309700000.0 11309700000.0 11309700000.0 11309700000.0 11309700000.0 11309700000.0 11309700000.0 11309700000.0 11309700000.0 11309700000.0 11309700000.0 11309700000.0 11309700000.0 11309700000.0 11309700000.0 11309700000.0 11309700000.0 11309700000.0 11309700000.0 11309700000.0 11309700000.0 11309700000.0 11309700000.0 11309700000.0 11309700000.0 11309700000.0 11309700000.0 11309700000.0 11309700000.0 11309700000.0 11309700000.0 11309700000.0 11309700000.0 11309700000.0 11309700000.0 11309700000.0 11309700000.0 11309700000.0 11309700000.0 11309700000.0 11309700000.0 11309700000.0 11309700000.0 11309700000.0 11309700000.0 11309700000.0 11309700000.0 11309700000.0 11309700000.0 11309700000.0 11309700000.0 11309700000.0 11309700000.0 11309700000.0 11309700000.0 11309700000.0 11309700000.0 11309700000.0 11309700000.0 11309700000.0 11309700000.0 11309700000.0 11309700000.0 11309700000.0 11309700000.0 11309700000.0 11309700000.0 11309700000.0 11309700000.0 11309700000.0 11309700000.0 11309700000.0 11309700000.0 11309700000.0 11309700000.0 11309700000.0 11309700000.0 11309700000.0 11309700000.0 11309700000.0 11309700000.0 11309700000.0 11309700000.0 11309700000.0 11309700000.0 11309700000.0 11309700000.0 11309700000.0 11309700000.0 11309700000.0 11309700000.0 11309700000.0 11309700000.0 11309700000.0 11309700000.0 11309700000.0 11309700000.0 11309700000.0 11309700000.0 11309700000.0 11309700000.0 11309700000.0 11309700000.0 11309700000.0 11309700000.0 11309700000.0 11309700000.0 11309700000.0 11309700000.0 11309700000.0 11309700000.0 11309700000.0 11309700000.0 11309700000.0 11309700000.0 11309700000.0 11309700000.0 11309700000.0 11309700000.0 11309700000.0 11309700000.0 11309700000.0 11309700000.0 11309700000.0 11309700000.0 11309700000.0 11309700000.0 11309700000.0 11309700000.0 11309700000.0 11309700000.0 11309700000.0 11309700000.0 11309700000.0 11309700000.0 11309700000.0 11309700000.0 11309700000.0 11309700000.0 11309700000.0 11309700000.0 11309700000.0 11309700000.0 11309700000.0 11309700000.0 11309700000.0 11309700000.0 11309700000.0 11309700000.0 11309700000.0 11309700000.0 11309700000.0 11309700000.0 11309700000.0 11309700000.0 11309700000.0 11309700000.0 11309700000.0 11309700000.0 11309700000.0 11309700000.0 11309700000.0 11309700000.0 11309700000.0 11309700000.0 11309700000.0 11309700000.0 11309700000.0 11309700000.0 11309700000.0 11309700000.0 11309700000.0 11309700000.0 11309700000.0 11309700000.0 11309700000.0 11309700000.0 11309700000.0 11309700000.0 11309700000.0 11309700000.0 11309700000.0 11309700000.0 11309700000.0 11309700000.0 11309700000.0 11309700000.0 11309700000.0 11309700000.0 11309700000.0 11309700000.0 11309700000.0 11309700000.0 11309700000.0 11309700000.0 11309700000.0 11309700000.0 11309700000.0 11309700000.0 11309700000.0 11309700000.0 11309700000.0 11309700000.0 11309700000.0 11309700000.0 11309700000.0 11309700000.0 11309700000.0 11309700000.0 11309700000.0 11309700000.0 11309700000.0 11309700000.0 11309700000.0 11309700000.0 11309700000.0 11309700000.0 11309700000.0 11309700000.0 11309700000.0 11309700000.0 11309700000.0 11309700000.0 11309700000.0 11309700000.0 11309700000.0 11309700000.0 11309700000.0 11309700000.0 11309700000.0 11309700000.0 11309700000.0 11309700000.0 11309700000.0 11309700000.0 11309700000.0 11309700000.0 11309700000.0 11309700000.0 11309700000.0 11309700000.0 11309700000.0 11309700000.0 11309700000.0 11309700000.0 11309700000.0 11309700000.0 11309700000.0 11309700000.0 11309700000.0 11309700000.0 11309700000.0 11309700000.0 11309700000.0 11309700000.0 11309700000.0 11309700000.0 11309700000.0 11309700000.0 11309700000.0 11309700000.0 11309700000.0 11309700000.0 11309700000.0 11309700000.0 11309700000.0 11309700000.0 11309700000.0 11309700000.0 11309700000.0 11309700000.0 11309700000.0 11309700000.0 11309700000.0 11309700000.0 11309700000.0 11309700000.0 11309700000.0 11309700000.0 11309700000.0 11309700000.0 11309700000.0 11309700000.0 11309700000.0 11309700000.0 11309700000.0 11309700000.0 11309700000.0 11309700000.0 11309700000.0 11309700000.0 11309700000.0 11309700000.0 11309700000.0 11309700000.0 11309700000.0 11309700000.0 11309700000.0 11309700000.0 11309700000.0 11309700000.0 11309700000.0 11309700000.0 11309700000.0 11309700000.0 11309700000.0 11309700000.0 11309700000.0 11309700000.0 11309700000.0 11309700000.0 11309700000.0 11309700000.0 11309700000.0 11309700000.0 11309700000.0 11309700000.0 11309700000.0 11309700000.0 11309700000.0 11309700000.0 11309700000.0 11309700000.0 11309700000.0 11309700000.0 11309700000.0 11309700000.0 11309700000.0 11309700000.0 11309700000.0 11309700000.0 11309700000.0 11309700000.0 11309700000.0 11309700000.0 11309700000.0 11309700000.0 11309700000.0 11309700000.0 11309700000.0 11309700000.0 11309700000.0 11309700000.0 11309700000.0 11309700000.0 11309700000.0 11309700000.0 11309700000.0 11309700000.0 11309700000.0 11309700000.0 11309700000.0 11309700000.0 11309700000.0 11309700000.0 11309700000.0 11309700000.0 11309700000.0 11309700000.0 11309700000.0 11309700000.0 11309700000.0 11309700000.0 11309700000.0 11309700000.0 11309700000.0 11309700000.0 11309700000.0 11309700000.0 11309700000.0 11309700000.0 11309700000.0 11309700000.0 11309700000.0 11309700000.0 11309700000.0 11309700000.0 11309700000.0 11309700000.0 11309700000.0 11309700000.0 11309700000.0 11309700000.0 11309700000.0 11309700000.0 11309700000.0 11309700000.0 11309700000.0 11309700000.0 11309700000.0 11309700000.0 11309700000.0 11309700000.0 11309700000.0 11309700000.0 11309700000.0 11309700000.0 11309700000.0 11309700000.0 11309700000.0 11309700000.0 11309700000.0 11309700000.0 11309700000.0 11309700000.0 11309700000.0 11309700000.0 11309700000.0 11309700000.0 11309700000.0 11309700000.0 11309700000.0 11309700000.0 11309700000.0 11309700000.0 11309700000.0 11309700000.0 11309700000.0 11309700000.0 11309700000.0 11309700000.0 11309700000.0 11309700000.0 11309700000.0 11309700000.0 11309700000.0 11309700000.0 11309700000.0 11309700000.0 11309700000.0 11309700000.0 11309700000.0 11309700000.0 11309700000.0 11309700000.0 11309700000.0 11309700000.0 11309700000.0 11309700000.0 11309700000.0 11309700000.0 11309700000.0 11309700000.0 11309700000.0 11309700000.0 11309700000.0 11309700000.0 11309700000.0 11309700000.0 11309700000.0 11309700000.0 11309700000.0 11309700000.0 11309700000.0 11309700000.0 11309700000.0 11309700000.0 11309700000.0 11309700000.0 11309700000.0 11309700000.0 11309700000.0 11309700000.0 11309700000.0 11309700000.0 11309700000.0 11309700000.0 11309700000.0 11309700000.0 11309700000.0 11309700000.0 11309700000.0 11309700000.0 11309700000.0 11309700000.0 11309700000.0 11309700000.0 11309700000.0 11309700000.0 11309700000.0 11309700000.0 11309700000.0 11309700000.0 11309700000.0 11309700000.0 11309700000.0 11309700000.0 11309700000.0 11309700000.0 11309700000.0 11309700000.0 11309700000.0 11309700000.0 11309700000.0 11309700000.0 11309700000.0 11309700000.0 11309700000.0 11309700000.0 11309700000.0 11309700000.0 11309700000.0 11309700000.0 11309700000.0 11309700000.0 11309700000.0 11309700000.0 11309700000.0 11309700000.0 11309700000.0 11309700000.0 11309700000.0 11309700000.0 11309700000.0 11309700000.0 11309700000.0 11309700000.0 11309700000.0 11309700000.0 11309700000.0 11309700000.0 11309700000.0 11309700000.0 11309700000.0 11309700000.0 11309700000.0 11309700000.0 11309700000.0 11309700000.0 11309700000.0 11309700000.0 11309700000.0 11309700000.0 11309700000.0 11309700000.0 11309700000.0 11309700000.0 11309700000.0 11309700000.0 11309700000.0 11309700000.0 11309700000.0 11309700000.0 11309700000.0 11309700000.0 11309700000.0 11309700000.0 11309700000.0 11309700000.0 11309700000.0 11309700000.0 11309700000.0 11309700000.0 11309700000.0 11309700000.0 11309700000.0 11309700000.0 11309700000.0 11309700000.0 11309700000.0 11309700000.0 11309700000.0 11309700000.0 11309700000.0 11309700000.0 11309700000.0 11309700000.0 11309700000.0 11309700000.0 11309700000.0 11309700000.0 11309700000.0 11309700000.0 11309700000.0 11309700000.0 11309700000.0 11309700000.0 11309700000.0 11309700000.0 11309700000.0 11309700000.0 11309700000.0 11309700000.0 11309700000.0 11309700000.0 11309700000.0 11309700000.0 11309700000.0 11309700000.0 11309700000.0 11309700000.0 11309700000.0 11309700000.0 11309700000.0 11309700000.0 11309700000.0 11309700000.0 11309700000.0 11309700000.0 11309700000.0 11309700000.0 11309700000.0 11309700000.0 11309700000.0 11309700000.0 11309700000.0 11309700000.0 11309700000.0 11309700000.0 11309700000.0 11309700000.0 11309700000.0 11309700000.0 11309700000.0 11309700000.0 11309700000.0 11309700000.0 11309700000.0 11309700000.0 11309700000.0 11309700000.0 11309700000.0 11309700000.0 11309700000.0 11309700000.0 11309700000.0 11309700000.0 11309700000.0 11309700000.0 11309700000.0 11309700000.0 11309700000.0 11309700000.0 11309700000.0 11309700000.0 11309700000.0 11309700000.0 11309700000.0 11309700000.0 11309700000.0 11309700000.0 11309700000.0 11309700000.0 11309700000.0 11309700000.0 11309700000.0 11309700000.0 11309700000.0 11309700000.0 11309700000.0 11309700000.0 11309700000.0 11309700000.0 11309700000.0 11309700000.0 11309700000.0 11309700000.0 11309700000.0 11309700000.0 11309700000.0 11309700000.0 11309700000.0 11309700000.0 11309700000.0 11309700000.0 11309700000.0 11309700000.0 11309700000.0 11309700000.0 11309700000.0 11309700000.0 11309700000.0 11309700000.0 11309700000.0 11309700000.0 11309700000.0 11309700000.0 11309700000.0 11309700000.0 11309700000.0 11309700000.0 11309700000.0 11309700000.0 11309700000.0 11309700000.0 11309700000.0 11309700000.0 11309700000.0 11309700000.0 11309700000.0 11309700000.0 11309700000.0 11309700000.0 11309700000.0 11309700000.0 11309700000.0 11309700000.0 11309700000.0 11309700000.0 11309700000.0 11309700000.0 11309700000.0 11309700000.0 11309700000.0 11309700000.0 11309700000.0 11309700000.0 11309700000.0 11309700000.0 11309700000.0 11309700000.0 11309700000.0 11309700000.0 11309700000.0 11309700000.0 11309700000.0 11309700000.0 11309700000.0 11309700000.0 11309700000.0 11309700000.0 11309700000.0 11309700000.0 11309700000.0 11309700000.0 11309700000.0 11309700000.0 11309700000.0 11309700000.0 11309700000.0 11309700000.0 11309700000.0 11309700000.0 11309700000.0 11309700000.0 11309700000.0 11309700000.0 11309700000.0 11309700000.0 11309700000.0 11309700000.0 11309700000.0 11309700000.0 11309700000.0 11309700000.0 11309700000.0 11309700000.0 11309700000.0 11309700000.0 11309700000.0 11309700000.0 11309700000.0 11309700000.0 11309700000.0 11309700000.0 11309700000.0 11309700000.0 11309700000.0 11309700000.0 11309700000.0 11309700000.0 11309700000.0 11309700000.0 11309700000.0 11309700000.0 11309700000.0 11309700000.0 11309700000.0 11309700000.0 11309700000.0 11309700000.0 11309700000.0 11309700000.0 11309700000.0 11309700000.0 11309700000.0 11309700000.0 11309700000.0 11309700000.0 11309700000.0 11309700000.0 11309700000.0 11309700000.0 11309700000.0 11309700000.0 11309700000.0 11309700000.0 11309700000.0 11309700000.0 11309700000.0 11309700000.0 11309700000.0 11309700000.0 11309700000.0 11309700000.0 11309700000.0 11309700000.0 11309700000.0 11309700000.0 11309700000.0 11309700000.0 11309700000.0 11309700000.0 11309700000.0 11309700000.0 11309700000.0 11309700000.0 11309700000.0 11309700000.0 11309700000.0 11309700000.0 11309700000.0 11309700000.0 11309700000.0 11309700000.0 11309700000.0 11309700000.0 11309700000.0 11309700000.0 11309700000.0 11309700000.0 11309700000.0 11309700000.0 11309700000.0 11309700000.0 11309700000.0 11309700000.0 11309700000.0 11309700000.0 11309700000.0 11309700000.0 11309700000.0 11309700000.0 11309700000.0 11309700000.0 11309700000.0 11309700000.0 11309700000.0 11309700000.0 11309700000.0 11309700000.0 11309700000.0 11309700000.0 11309700000.0 11309700000.0 11309700000.0 11309700000.0 11309700000.0 11309700000.0 11309700000.0 11309700000.0 11309700000.0 11309700000.0 11309700000.0 11309700000.0 11309700000.0 11309700000.0 11309700000.0 11309700000.0 11309700000.0 11309700000.0 11309700000.0 11309700000.0 11309700000.0 11309700000.0 11309700000.0 11309700000.0 11309700000.0 11309700000.0 11309700000.0 11309700000.0 11309700000.0 11309700000.0 11309700000.0 11309700000.0 11309700000.0 11309700000.0 11309700000.0 11309700000.0 11309700000.0 11309700000.0 11309700000.0 11309700000.0 11309700000.0 11309700000.0 11309700000.0 11309700000.0 11309700000.0 11309700000.0 11309700000.0 11309700000.0 11309700000.0 11309700000.0 11309700000.0 11309700000.0 11309700000.0 11309700000.0 11309700000.0 11309700000.0 11309700000.0 11309700000.0 11309700000.0 11309700000.0 11309700000.0 11309700000.0 11309700000.0 11309700000.0 11309700000.0 11309700000.0 11309700000.0 11309700000.0 11309700000.0 11309700000.0 11309700000.0 11309700000.0 11309700000.0 11309700000.0 11309700000.0 11309700000.0 11309700000.0 11309700000.0 11309700000.0 11309700000.0 11309700000.0 11309700000.0 11309700000.0 11309700000.0 11309700000.0 11309700000.0 11309700000.0 11309700000.0 11309700000.0 11309700000.0 11309700000.0 11309700000.0 11309700000.0 11309700000.0 11309700000.0 11309700000.0 11309700000.0 11309700000.0 11309700000.0 11309700000.0 11309700000.0 11309700000.0 11309700000.0 11309700000.0 11309700000.0 11309700000.0 11309700000.0 11309700000.0 11309700000.0 11309700000.0 11309700000.0 11309700000.0 11309700000.0 11309700000.0 11309700000.0 11309700000.0 11309700000.0 11309700000.0 11309700000.0 11309700000.0 11309700000.0 11309700000.0 11309700000.0 11309700000.0 11309700000.0 11309700000.0 11309700000.0 11309700000.0 11309700000.0 11309700000.0 11309700000.0 11309700000.0 11309700000.0 11309700000.0 11309700000.0 11309700000.0 11309700000.0 11309700000.0 11309700000.0 11309700000.0 11309700000.0 11309700000.0 11309700000.0 11309700000.0 11309700000.0 11309700000.0 11309700000.0 11309700000.0 11309700000.0 11309700000.0 11309700000.0 11309700000.0 11309700000.0 11309700000.0 11309700000.0 11309700000.0 11309700000.0 11309700000.0 11309700000.0 11309700000.0 11309700000.0 11309700000.0 11309700000.0 11309700000.0 11309700000.0 11309700000.0 11309700000.0 11309700000.0 11309700000.0 11309700000.0 11309700000.0 11309700000.0 11309700000.0 11309700000.0 11309700000.0 11309700000.0 11309700000.0 11309700000.0 11309700000.0 11309700000.0 11309700000.0 11309700000.0 11309700000.0 11309700000.0 11309700000.0 11309700000.0 11309700000.0 11309700000.0 11309700000.0 11309700000.0 11309700000.0 11309700000.0 11309700000.0 11309700000.0 11309700000.0 11309700000.0 11309700000.0 11309700000.0 11309700000.0 11309700000.0 11309700000.0 11309700000.0 11309700000.0 11309700000.0 11309700000.0 11309700000.0 11309700000.0 11309700000.0 11309700000.0 11309700000.0 11309700000.0 11309700000.0 11309700000.0 11309700000.0 11309700000.0 11309700000.0 11309700000.0 11309700000.0 11309700000.0 11309700000.0 11309700000.0 11309700000.0 11309700000.0 11309700000.0 11309700000.0 11309700000.0 11309700000.0 11309700000.0 11309700000.0 11309700000.0 11309700000.0 11309700000.0 11309700000.0 11309700000.0 11309700000.0 11309700000.0 11309700000.0 11309700000.0 11309700000.0 11309700000.0 11309700000.0 11309700000.0 11309700000.0 11309700000.0 11309700000.0 11309700000.0 11309700000.0 11309700000.0 11309700000.0 11309700000.0 11309700000.0 11309700000.0 11309700000.0 11309700000.0 11309700000.0 11309700000.0 11309700000.0 11309700000.0 11309700000.0 11309700000.0 11309700000.0 11309700000.0 11309700000.0 11309700000.0 11309700000.0 11309700000.0 11309700000.0 11309700000.0 11309700000.0 11309700000.0 11309700000.0 11309700000.0 11309700000.0 11309700000.0 11309700000.0 11309700000.0 11309700000.0 11309700000.0 11309700000.0 11309700000.0 11309700000.0 11309700000.0 11309700000.0 11309700000.0 11309700000.0 11309700000.0 11309700000.0 11309700000.0 11309700000.0 11309700000.0 11309700000.0 11309700000.0 11309700000.0 11309700000.0 11309700000.0 11309700000.0 11309700000.0 11309700000.0 11309700000.0 11309700000.0 11309700000.0 11309700000.0 11309700000.0 11309700000.0 11309700000.0 11309700000.0 11309700000.0 11309700000.0 11309700000.0 11309700000.0 11309700000.0 11309700000.0 11309700000.0 11309700000.0 11309700000.0 11309700000.0 11309700000.0 11309700000.0 11309700000.0 11309700000.0 11309700000.0 11309700000.0 11309700000.0 11309700000.0 11309700000.0 11309700000.0 11309700000.0 11309700000.0 11309700000.0 11309700000.0 11309700000.0 11309700000.0 11309700000.0 11309700000.0 11309700000.0 11309700000.0 11309700000.0 11309700000.0 11309700000.0 11309700000.0 11309700000.0 11309700000.0 11309700000.0 11309700000.0 11309700000.0 11309700000.0 11309700000.0 11309700000.0 11309700000.0 11309700000.0 11309700000.0 11309700000.0 11309700000.0 11309700000.0 11309700000.0 11309700000.0 11309700000.0 11309700000.0 11309700000.0 11309700000.0 11309700000.0 11309700000.0 11309700000.0 11309700000.0 11309700000.0 11309700000.0 11309700000.0 11309700000.0 11309700000.0 11309700000.0 11309700000.0 11309700000.0 11309700000.0 11309700000.0 11309700000.0 11309700000.0 11309700000.0 11309700000.0 11309700000.0 11309700000.0 11309700000.0 11309700000.0 11309700000.0 11309700000.0 11309700000.0 11309700000.0 11309700000.0 11309700000.0 11309700000.0 11309700000.0 11309700000.0 11309700000.0 11309700000.0 11309700000.0 11309700000.0 11309700000.0 11309700000.0 11309700000.0 11309700000.0 11309700000.0 11309700000.0 11309700000.0 11309700000.0 11309700000.0 11309700000.0 11309700000.0 11309700000.0 11309700000.0 11309700000.0 11309700000.0 11309700000.0 11309700000.0 11309700000.0 11309700000.0 11309700000.0 11309700000.0 11309700000.0 11309700000.0 11309700000.0 11309700000.0 11309700000.0 11309700000.0 11309700000.0 11309700000.0 11309700000.0 11309700000.0 11309700000.0 11309700000.0 11309700000.0 11309700000.0 11309700000.0 11309700000.0 11309700000.0 11309700000.0 11309700000.0 11309700000.0 11309700000.0 11309700000.0 11309700000.0 11309700000.0 11309700000.0 11309700000.0 11309700000.0 11309700000.0 11309700000.0 11309700000.0 11309700000.0 11309700000.0 11309700000.0 11309700000.0 11309700000.0 11309700000.0 11309700000.0 11309700000.0 11309700000.0 11309700000.0 11309700000.0 11309700000.0 11309700000.0 11309700000.0 11309700000.0 11309700000.0 11309700000.0 11309700000.0 11309700000.0 11309700000.0 11309700000.0 11309700000.0 11309700000.0 11309700000.0 11309700000.0 11309700000.0 11309700000.0 11309700000.0 11309700000.0 11309700000.0 11309700000.0 11309700000.0 11309700000.0 11309700000.0 11309700000.0 11309700000.0 11309700000.0 11309700000.0 11309700000.0 11309700000.0 11309700000.0 11309700000.0 11309700000.0 11309700000.0 11309700000.0 11309700000.0 11309700000.0 11309700000.0 11309700000.0 11309700000.0 11309700000.0 11309700000.0 11309700000.0 11309700000.0 11309700000.0 11309700000.0 11309700000.0 11309700000.0 11309700000.0 11309700000.0 11309700000.0 11309700000.0 11309700000.0 11309700000.0 11309700000.0 11309700000.0 11309700000.0 11309700000.0 11309700000.0 11309700000.0 11309700000.0 11309700000.0 11309700000.0 11309700000.0 11309700000.0 11309700000.0 11309700000.0 11309700000.0 11309700000.0 11309700000.0 11309700000.0 11309700000.0 11309700000.0 11309700000.0 11309700000.0 11309700000.0 11309700000.0 11309700000.0 11309700000.0 11309700000.0 11309700000.0 11309700000.0 11309700000.0 11309700000.0 11309700000.0 11309700000.0 11309700000.0 11309700000.0 11309700000.0 11309700000.0 11309700000.0 11309700000.0 11309700000.0 11309700000.0 11309700000.0 11309700000.0 11309700000.0 11309700000.0 11309700000.0 11309700000.0 11309700000.0 11309700000.0 11309700000.0 11309700000.0 11309700000.0 11309700000.0 11309700000.0 11309700000.0 11309700000.0 11309700000.0 11309700000.0 11309700000.0 11309700000.0 11309700000.0 11309700000.0 11309700000.0 11309700000.0 11309700000.0 11309700000.0 11309700000.0 11309700000.0 11309700000.0 11309700000.0 11309700000.0 11309700000.0 11309700000.0 11309700000.0 11309700000.0 11309700000.0 11309700000.0 11309700000.0 11309700000.0 11309700000.0 11309700000.0 11309700000.0 11309700000.0 11309700000.0 11309700000.0 11309700000.0 11309700000.0 11309700000.0 11309700000.0 11309700000.0 11309700000.0 11309700000.0 11309700000.0 11309700000.0 11309700000.0 11309700000.0 11309700000.0 11309700000.0 11309700000.0 11309700000.0 11309700000.0 11309700000.0 11309700000.0 11309700000.0 11309700000.0 11309700000.0 11309700000.0 11309700000.0 11309700000.0 11309700000.0 11309700000.0 11309700000.0 11309700000.0 11309700000.0 11309700000.0 11309700000.0 11309700000.0 11309700000.0 11309700000.0 11309700000.0 11309700000.0 11309700000.0 11309700000.0 11309700000.0 11309700000.0 11309700000.0 11309700000.0 11309700000.0 11309700000.0 11309700000.0 11309700000.0 11309700000.0 11309700000.0 11309700000.0 11309700000.0 11309700000.0 11309700000.0 11309700000.0 11309700000.0 11309700000.0 11309700000.0 11309700000.0 11309700000.0 11309700000.0 11309700000.0 11309700000.0 11309700000.0 11309700000.0 11309700000.0 11309700000.0 11309700000.0 11309700000.0 11309700000.0 11309700000.0 11309700000.0 11309700000.0 11309700000.0 11309700000.0 11309700000.0 11309700000.0 11309700000.0 11309700000.0 11309700000.0 11309700000.0 11309700000.0 11309700000.0 11309700000.0 11309700000.0 11309700000.0 11309700000.0 11309700000.0 11309700000.0 11309700000.0 11309700000.0 11309700000.0 11309700000.0 11309700000.0 11309700000.0 11309700000.0 11309700000.0 11309700000.0 11309700000.0 11309700000.0 11309700000.0 11309700000.0 11309700000.0 11309700000.0 11309700000.0 11309700000.0 11309700000.0 11309700000.0 11309700000.0 11309700000.0 11309700000.0 11309700000.0 11309700000.0 11309700000.0 11309700000.0 11309700000.0 11309700000.0 11309700000.0 11309700000.0 11309700000.0 11309700000.0 11309700000.0 11309700000.0 11309700000.0 11309700000.0 11309700000.0 11309700000.0 11309700000.0 11309700000.0 11309700000.0 11309700000.0 11309700000.0 11309700000.0 11309700000.0 11309700000.0 11309700000.0 11309700000.0 11309700000.0 11309700000.0 11309700000.0 11309700000.0 11309700000.0 11309700000.0 11309700000.0 11309700000.0 11309700000.0 11309700000.0 11309700000.0 11309700000.0 11309700000.0 11309700000.0 11309700000.0 11309700000.0 11309700000.0 11309700000.0 11309700000.0 11309700000.0 11309700000.0 11309700000.0 11309700000.0 11309700000.0 11309700000.0 11309700000.0 11309700000.0 11309700000.0 11309700000.0 11309700000.0 11309700000.0 11309700000.0 11309700000.0 11309700000.0 11309700000.0 11309700000.0 11309700000.0 11309700000.0 11309700000.0 11309700000.0 11309700000.0 11309700000.0 11309700000.0 11309700000.0 11309700000.0 11309700000.0 11309700000.0 11309700000.0 11309700000.0 11309700000.0 11309700000.0 11309700000.0 11309700000.0 11309700000.0 11309700000.0 11309700000.0 11309700000.0 11309700000.0 11309700000.0 11309700000.0 11309700000.0 11309700000.0 11309700000.0 11309700000.0 11309700000.0 11309700000.0 11309700000.0 11309700000.0 11309700000.0 11309700000.0 11309700000.0 11309700000.0 11309700000.0 11309700000.0 11309700000.0 11309700000.0 11309700000.0 11309700000.0 11309700000.0 11309700000.0 11309700000.0 11309700000.0 11309700000.0 11309700000.0 11309700000.0 11309700000.0 11309700000.0 11309700000.0 11309700000.0 11309700000.0 11309700000.0 11309700000.0 11309700000.0 11309700000.0 11309700000.0 11309700000.0 11309700000.0 11309700000.0 11309700000.0 11309700000.0 11309700000.0 11309700000.0 11309700000.0 11309700000.0 11309700000.0 11309700000.0 11309700000.0 11309700000.0 11309700000.0 11309700000.0 11309700000.0 11309700000.0 11309700000.0 11309700000.0 11309700000.0 11309700000.0 11309700000.0 11309700000.0 11309700000.0 11309700000.0 11309700000.0 11309700000.0 11309700000.0 11309700000.0 11309700000.0 11309700000.0 11309700000.0 11309700000.0 11309700000.0 11309700000.0 11309700000.0 11309700000.0 11309700000.0 11309700000.0 11309700000.0 11309700000.0 11309700000.0 11309700000.0 11309700000.0 11309700000.0 11309700000.0 11309700000.0 11309700000.0 11309700000.0 11309700000.0 11309700000.0 11309700000.0 11309700000.0 11309700000.0 11309700000.0 11309700000.0 11309700000.0 11309700000.0 11309700000.0 11309700000.0 11309700000.0 11309700000.0 11309700000.0 11309700000.0 11309700000.0 11309700000.0 11309700000.0 11309700000.0 11309700000.0 11309700000.0 11309700000.0 11309700000.0 11309700000.0 11309700000.0 11309700000.0 11309700000.0 11309700000.0 11309700000.0 11309700000.0 11309700000.0 11309700000.0 11309700000.0 11309700000.0 11309700000.0 11309700000.0 11309700000.0 11309700000.0 11309700000.0 11309700000.0 11309700000.0 11309700000.0 11309700000.0 11309700000.0 11309700000.0 11309700000.0 11309700000.0 11309700000.0 11309700000.0 11309700000.0 11309700000.0 11309700000.0 11309700000.0 11309700000.0 11309700000.0 11309700000.0 11309700000.0 11309700000.0 11309700000.0 11309700000.0 11309700000.0 11309700000.0 11309700000.0 11309700000.0 11309700000.0 11309700000.0 11309700000.0 11309700000.0 11309700000.0 11309700000.0 11309700000.0 11309700000.0 11309700000.0 11309700000.0 11309700000.0 11309700000.0 11309700000.0 11309700000.0 11309700000.0 11309700000.0 11309700000.0 11309700000.0 11309700000.0 11309700000.0 11309700000.0 11309700000.0 11309700000.0 11309700000.0 11309700000.0 11309700000.0 11309700000.0 11309700000.0 11309700000.0 11309700000.0 11309700000.0 11309700000.0 11309700000.0 11309700000.0 11309700000.0 11309700000.0 11309700000.0 11309700000.0 11309700000.0 11309700000.0 11309700000.0 11309700000.0 11309700000.0 11309700000.0 11309700000.0 11309700000.0 11309700000.0 11309700000.0 11309700000.0 11309700000.0 11309700000.0 11309700000.0 11309700000.0 11309700000.0 11309700000.0 11309700000.0 11309700000.0 11309700000.0 11309700000.0 11309700000.0 11309700000.0 11309700000.0 11309700000.0 11309700000.0 11309700000.0 11309700000.0 11309700000.0 11309700000.0 11309700000.0 11309700000.0 11309700000.0 11309700000.0 11309700000.0 11309700000.0 11309700000.0 11309700000.0 11309700000.0 11309700000.0 11309700000.0 11309700000.0 11309700000.0 11309700000.0 11309700000.0 11309700000.0 11309700000.0 11309700000.0 11309700000.0 11309700000.0 11309700000.0 11309700000.0 11309700000.0 11309700000.0 11309700000.0 11309700000.0 11309700000.0 11309700000.0 11309700000.0 11309700000.0 11309700000.0 11309700000.0 11309700000.0 11309700000.0 11309700000.0 11309700000.0 
SCALARS Velocity float 1
LOOKUP_TABLE default
1.08248 1.07346 1.11183 1.08223 1.07617 1.07303 1.06948 1.06145 1.09191 1.06991 1.06938 1.07845 1.08476 1.08343 1.08287 1.08217 1.08214 1.09375 1.0925 1.08557 1.07911 1.07278 1.06604 1.05686 0.959589 1.05719 1.09262 1.07111 1.07877 1.08401 1.08272 1.11019 1.09309 1.08842 1.08206 1.07582 1.06931 1.06218 0.981851 1.05187 1.09026 1.07294 1.07925 1.07908 1.08485 1.08341 1.0827 1.10888 1.09208 1.0853 1.08199 1.07882 1.0753 1.0723 1.06865 1.06584 1.06221 1.05758 1.04568 1.00211 1.08182 1.07134 1.07395 1.0781 1.07927 1.0801 1.0796 1.08032 1.08449 1.08317 1.09312 1.09143 1.08855 1.08537 1.07853 1.07157 1.06478 1.05801 1.06876 1.07895 1.07475 1.08003 1.08104 1.08526 1.0853 1.08363 1.08333 1.08363 1.10737 1.09312 1.08855 1.08196 1.07479 1.06763 1.06102 1.06688 1.07143 1.07364 1.0788 1.08155 1.08207 1.08548 1.0846 1.08424 1.10529 1.09098 1.0854 1.07832 1.07441 1.07081 1.06686 1.0639 1.06215 1.06165 1.06611 1.06912 1.07115 1.07304 1.07738 1.07747 1.08083 1.08144 1.08359 1.08296 1.08421 1.08535 1.0845 1.09309 1.09102 1.08844 1.08553 1.08199 1.07828 1.07033 1.06389 1.06294 1.06845 1.07426 1.07998 1.08387 1.08536 1.08537 1.08528 1.08503 1.08476 1.08537 1.09133 1.09616 1.09349 1.08871 1.08225 1.07427 1.06662 1.0625 1.06533 1.07134 1.07858 1.08372 1.08637 1.08673 1.08524 1.08545 1.08968 1.09376 1.09145 1.086 1.07857 1.07451 1.07021 1.0664 1.06374 1.06205 1.0627 1.06424 1.06779 1.07138 1.0754 1.08283 1.08716 1.08825 1.08524 1.08826 1.09124 1.09295 1.08926 1.08682 1.0829 1.07933 1.07023 1.0632 1.06164 1.06678 1.07656 1.08066 1.08639 1.0874 1.09121 1.08981 1.09151 1.08955 1.08534 1.08572 1.08626 1.088 1.0896 1.09092 1.09267 1.09276 1.09159 1.08985 1.08405 1.07513 1.06605 1.06095 1.06257 1.07106 1.08335 1.09191 1.09372 1.09245 1.08582 1.08667 1.08923 1.09211 1.09181 1.08796 1.08068 1.07046 1.06575 1.06235 1.05951 1.05989 1.06038 1.06516 1.07769 1.09064 1.09588 1.09481 1.09492 1.08626 1.08787 1.09036 1.09298 1.09056 1.08969 1.08585 1.08275 1.07618 1.07092 1.06155 1.05797 1.06327 1.07035 1.07889 1.08659 1.09531 1.09704 1.10049 1.09767 1.09716 1.08647 1.08693 1.08704 1.08791 1.08889 1.08995 1.09157 1.09184 1.09175 1.08845 1.07758 1.06572 1.05831 1.05828 1.0699 1.09131 1.10222 1.09995 1.09577 1.08735 1.08757 1.08871 1.0917 1.08573 1.08737 1.09196 1.08568 1.079 1.07161 1.06628 1.06129 1.05793 1.05632 1.05595 1.06138 1.06832 1.08092 1.10087 1.10358 1.10027 1.09719 1.0959 1.08852 1.08785 1.0882 1.08971 1.08653 1.08901 1.0918 1.08966 1.07259 1.06216 1.05558 1.05844 1.08101 1.09891 1.10568 1.10749 1.10598 1.09632 1.08916 1.08843 1.08883 1.08869 1.08924 1.09157 1.08916 1.09001 1.07974 1.06817 1.05876 1.05458 1.06547 1.11236 1.11285 1.099 1.09419 1.09005 1.08976 1.08884 1.09131 1.08766 1.09144 1.0918 1.09351 1.08927 1.08126 1.07502 1.07179 1.06457 1.061 1.05587 1.05467 1.05657 1.06474 1.07694 1.10445 1.12258 1.1059 1.09291 1.09284 1.09492 1.09181 1.09095 1.09175 1.09 1.08946 1.08847 1.09084 1.08938 1.09498 1.08407 1.07893 1.0686 1.05754 1.05796 1.07164 1.13808 1.10164 1.09186 1.09369 1.09292 1.09229 1.08716 1.09458 1.08449 1.08563 1.08442 1.07661 1.06505 1.05552 1.07102 1.16397 1.1024 1.09468 1.09912 1.09356 1.09377 1.09237 1.08995 1.0924 1.08188 1.08771 1.08723 1.08751 1.08323 1.08162 1.07397 1.07104 1.06139 1.05746 1.05702 1.07794 1.08526 0.972926 1.01326 1.06393 1.09927 1.10285 1.10503 1.10022 1.10601 1.09504 1.09468 1.09527 1.0941 1.09276 1.0896 1.09141 1.0793 1.08588 1.08896 1.08685 1.07961 1.0679 1.05256 0.963461 1.01607 1.06362 1.10555 1.1092 1.09598 1.09483 1.09111 1.07852 1.08047 1.08299 1.08541 1.08798 1.08882 1.08923 1.08572 1.07709 1.0631 0.981761 0.982801 1.08965 1.10999 1.1143 1.11247 1.09612 1.0968 1.09616 1.09558 1.09355 1.09088 1.08749 1.08181 1.08269 1.08654 1.08888 1.08885 1.08792 1.08403 1.08069 1.07248 1.05729 1.0352 0.999466 0.976408 0.992627 1.01526 1.05374 1.07793 1.10124 1.10922 1.11637 1.09669 1.09684 1.09405 1.08775 1.08214 1.08383 1.08663 1.08837 1.086 1.07191 1.03443 0.994141 1.01722 1.04551 1.09343 1.11443 1.09719 1.09721 1.09624 1.09519 1.09194 1.08978 1.08474 1.08397 1.08258 1.08196 1.08371 1.08246 1.08599 1.0849 1.08736 1.08519 1.08125 1.05719 1.01389 1.00381 1.04145 1.06871 1.08581 1.10414 1.11077 1.11613 1.09659 1.0969 1.09696 1.09399 1.08786 1.08281 1.07996 1.08039 1.0835 1.08112 1.07287 1.06141 1.04014 1.02531 1.00821 1.0127 1.02083 1.06268 1.09816 1.11332 1.0954 1.09704 1.0967 1.09286 1.08645 1.08032 1.07664 1.07795 1.08166 1.07541 1.04787 1.01797 1.02436 1.04027 1.0594 1.07996 1.10612 1.0925 1.09548 1.09575 1.09733 1.09806 1.09665 1.09679 1.09176 1.09029 1.08409 1.07995 1.07616 1.07033 1.07235 1.06807 1.07584 1.07416 1.07934 1.07747 1.06772 1.05614 1.03426 1.0184 1.0403 1.07641 1.09321 1.10248 1.11002 1.09217 1.09662 1.09937 1.0968 1.08735 1.07356 1.06328 1.0649 1.07459 1.0754 1.04067 1.02394 1.02011 1.0261 1.04004 1.05791 1.09049 1.10781 1.08702 1.08594 1.09244 1.09389 1.09846 1.10146 1.10116 1.10304 1.09607 1.09365 1.08221 1.07441 1.06476 1.05434 1.05604 1.06234 1.07851 1.06455 1.02543 1.02586 1.05797 1.07525 1.09041 1.10101 1.10738 1.07802 1.08607 1.09697 1.10545 1.10431 1.08883 1.0634 1.04268 1.04829 1.04177 1.06359 1.0742 1.08576 1.07548 1.04483 1.02248 1.01906 1.04005 1.07646 1.10194 1.06511 1.07593 1.07592 1.08812 1.10185 1.11002 1.10385 1.08071 1.06883 1.0498 1.03313 1.02771 1.01139 1.04188 1.10056 1.04677 1.01406 1.02433 1.04223 1.05979 1.08018 1.09276 1.10402 1.10823 1.06165 1.07873 1.09254 1.09949 1.10841 1.11637 1.11433 1.11726 1.10071 1.09395 1.05382 1.01379 0.9945 1.05766 1.08729 1.01347 1.02615 1.0651 1.09639 1.10862 1.04862 1.04335 1.06165 1.08458 1.10893 1.12489 1.11812 1.08354 1.03447 0.992978 0.977189 0.977516 1.02356 1.12224 1.10531 1.04732 1.0071 1.01177 1.03382 1.04935 1.07391 1.08614 1.10562 0.893832 1.02688 1.04335 1.06554 1.07311 1.09345 1.10519 1.12051 1.13312 1.13293 1.13949 1.11528 1.10775 1.06819 1.04679 1.012 0.992048 0.99831 0.902943 1.07938 1.01778 1.06174 1.09201 1.09992 1.10649 1.10805 1.0179 1.04907 1.08386 1.11925 1.14605 1.14119 1.09351 1.02099 0.988822 0.989478 0.750523 1.00637 1.04968 1.0817 1.10363 1.10914 0.984723 0.976193 1.01565 1.02373 1.05841 1.06976 1.0971 1.13496 1.158 1.1393 1.07185 1.04039 1.00012 0.974319 0.97865 0.931171 0.8741 0.778796 0.738174 0.926037 1.03499 1.05426 1.07052 1.08505 1.09822 1.10616 1.10678 1.10516 0.893832 0.918219 0.934232 0.972078 1.03674 1.08154 1.09336 1.11188 1.12768 1.15265 1.17068 1.16757 1.17927 1.12946 1.11222 0.998442 0.93663 0.857798 0.818169 0.992424 1.06874 1.10119 1.09245 0.947347 0.951411 0.986949 1.00926 1.05058 1.06278 1.10578 1.14395 1.18978 1.17047 1.06385 0.952686 0.898442 0.830572 0.873762 0.922286 0.973208 1.03161 1.05911 1.07527 1.08218 1.08474 1.07135 1.07416 0.949889 1.00233 0.971518 0.999182 1.02627 1.07373 1.11911 1.13854 1.15998 1.17926 1.20961 1.19129 1.16593 1.09811 1.0089 0.951626 0.914587 0.89837 0.871317 0.881614 0.933493 1.02291 1.04309 1.06638 1.08048 0.893832 0.950247 0.813411 1.01761 1.02842 1.04364 1.04961 1.08049 1.08735 1.15488 1.19634 1.23641 1.02251 0.916666 0.912721 0.920459 0.965455 1.08195 1.07008 1.00055 1.0666 1.14263 1.15234 0.149971 0.919056 1.02248 1.038 1.03403 1.03814 1.0485 1.10769 1.11912 1.19761 1.1261 0.968882 0.935737 0.974705 0.949461 0.98877 0.972023 0.965393 1.1702 1.11914 1.06833 1.10829 4.70043 0.816189 0.838557 0.956877 1.0714 1.04808 1.03481 1.05859 1.11559 0.986559 1.18324 1.38367 1.34314 1.09298 1.10669 0.961781 0.978352 1.01965 1.04984 1.21113 0.872482 0.988906 1.19568 0.772445 0.736435 10.7602 0.537903 1.17973 1.46576 1.0979 1.10474 1.07554 1.06909 1.03782 1.03657 1.04517 1.01154 1.08423 1.10968 1.17951 1.15481 0.756599 1.39651 1.05338 1.00274 1.09037 0.91996 1.48666 1.22568 0.955375 1.15841 1.2145 0.976115 0.384548 0.758309 0.2824 0.599357 0.233317 1.13156 0.347702 0.827219 0.940355 1.13056 1.09425 1.05138 1.05672 1.00445 1.38196 0.882277 0.525694 1.37264 1.02966 1.04128 1.03575 1.11162 1.19076 1.56335 1.22307 1.12389 0.956286 1.09929 1.00149 0.502807 0.948869 0.0939748 0.649048 0.767684 0.842748 1.4369 1.25055 1.13196 1.0654 1.06081 1.05218 1.45889 0.941292 1.14868 0.881514 0.510737 0.413553 0.44862 0.43809 1.21404 1.10628 1.09869 1.34783 1.20027 1.23285 1.21423 1.34287 1.23782 1.59831 1.25604 0.565702 0.699094 0.481313 0.447349 1.01199 1.19978 0.791123 0.964707 1.4108 1.15188 1.24898 1.18417 1.0559 1.07296 1.06391 1.06846 1.06172 1.06088 1.09966 1.20501 1.00143 0.401232 0.686991 0.431921 0.821396 1.10895 1.37534 0.727057 0.894751 0.967931 1.08456 1.09772 1.008 0.989876 1.25726 1.03658 0.959537 0.775018 0.466714 0.129073 0.4552 0.493738 0.509231 0.749393 0.638801 1.44272 1.25236 1.68137 1.44033 0.789837 1.00007 1.04191 1.06556 1.05691 0.960806 0.326751 0.366484 0.613814 0.670691 0.872545 1.00535 1.23954 1.34403 0.666514 0.828491 0.818409 0.767277 1.22724 1.20218 0.781938 0.875714 0.826255 0.67189 0.865445 0.730763 0.354694 0.294777 0.313677 0.368396 0.445025 0.59764 0.868043 0.581059 0.839818 0.705927 0.813462 0.894676 1.02257 1.0492 1.06129 1.04536 0.943594 0.667813 0.387701 0.154473 0.477872 0.571453 0.665252 0.671949 0.789362 1.08061 0.648269 0.736619 0.90946 0.804208 0.793491 0.684507 0.967619 0.865613 0.978025 0.790704 0.496155 0.746565 0.818001 0.627748 0.463751 0.518096 0.396997 0.384537 0.253522 0.12684 0.459295 0.754161 0.821905 0.584431 0.703063 0.829515 0.756443 1.00257 1.04383 1.04537 0.969761 0.949452 0.800099 0.735603 0.587322 0.377758 0.625935 0.749899 0.912378 0.683685 0.703035 0.784917 0.838371 0.852526 0.714721 0.874978 0.936272 1.06902 0.851221 0.783757 0.725921 0.768632 0.696381 0.64857 0.60349 0.528951 0.525244 0.526173 0.478443 0.343294 0.423864 0.625046 0.75702 0.362298 0.343152 0.691178 0.757442 0.89971 0.858307 0.947519 1.02319 0.988362 0.851994 0.666498 0.482889 0.574149 0.67464 0.712477 0.772691 0.823657 0.820792 0.758461 0.761787 0.721421 0.776159 0.814814 0.805958 0.707503 0.745571 0.872672 1.00702 0.840155 0.912913 0.804058 0.75211 0.777706 0.719359 0.621316 0.580425 0.550097 0.50106 0.368365 0.483247 0.534528 0.454641 0.451358 0.529494 0.453259 0.491743 0.576872 0.74249 0.600256 0.474886 0.821391 0.830679 0.927783 0.942279 0.996903 0.893951 0.802018 0.739497 0.653313 0.586417 0.568534 0.529722 0.64446 0.735631 0.795755 0.7943 0.781561 0.794135 0.7978 0.821557 0.792868 0.707636 0.681162 0.603025 1.35766 0.878404 0.99596 0.818995 0.721137 0.677944 0.632266 0.580294 0.550959 0.507166 0.46829 0.409604 0.321804 0.25465 0.412459 0.411022 0.467293 0.501222 0.56939 0.691092 0.696942 0.241567 0.78001 0.804504 0.83453 0.940929 0.958343 0.941652 0.858588 0.712186 0.613577 0.62178 0.707469 0.768257 0.799063 0.78744 0.789269 0.785322 0.787844 0.789635 0.717252 0.710487 0.740457 1.00623 0.611449 0.41672 0.688998 0.732092 0.683172 0.668645 0.58988 0.514885 0.471621 0.351055 0.157 0.150158 0.176478 0.373616 0.479342 0.426425 0.422108 0.443737 0.430825 0.720687 0.748787 0.225227 0.709814 0.765387 0.829953 0.80093 0.956509 0.920676 0.864377 0.918915 0.895765 0.814565 0.76621 0.697685 0.654504 0.642626 0.628842 0.665136 0.685065 0.718889 0.741724 0.763687 0.783555 0.789591 0.794181 0.786597 0.782032 0.783583 0.778506 0.770692 0.730811 0.767447 0.961389 0.675479 0.219127 0.460433 0.628235 0.676139 0.654866 0.625564 0.552879 0.524626 0.515636 0.407627 0.323995 0.27328 0.291275 0.19304 0.162619 0.097964 0.285568 0.518557 0.39925 0.493357 0.399765 0.400528 0.529445 0.47568 0.620745 0.649075 0.870268 0.836487 0.670237 0.466156 0.807352 0.827838 0.753577 0.736508 0.663701 0.657326 0.698011 0.742114 0.779017 0.790701 0.780363 0.780078 0.768004 0.751934 0.738275 0.806475 0.930477 0.801407 0.678442 0.332287 0.540135 0.638325 0.661992 0.652257 0.63916 0.594958 0.540263 0.535101 0.589858 0.419724 0.384998 0.279258 0.326468 0.201311 0.125556 0.0835338 0.0407713 0.163041 0.241328 0.636872 0.661704 0.553603 0.477159 0.402672 0.460389 0.564443 1.51843 1.03177 0.804258 0.578526 0.679558 0.967957 0.884798 0.699629 0.687983 0.675511 0.661776 0.678891 0.720271 0.76253 0.790098 0.783615 0.774314 0.774151 0.776378 0.747702 0.705534 0.685333 0.66799 0.975645 0.79329 0.703364 0.529555 0.609805 0.656767 0.653943 0.636012 0.592916 0.550866 0.563887 0.617565 0.414202 0.444929 0.495459 0.281417 0.322911 0.250044 0.20602 0.138279 0.190351 0.0352625 0.224787 0.229782 0.529093 0.603948 0.503351 0.446434 0.490912 0.46756 1.56576 0.614661 0.597083 0.587714 0.638414 0.45786 0.989562 0.805958 0.773666 0.691624 0.691501 0.669488 0.668503 0.681192 0.699344 0.718652 0.741227 0.762077 0.781052 0.794796 0.793348 0.785525 0.764242 0.751252 0.712047 0.688879 0.783542 0.218709 0.565266 0.592209 0.583812 0.654234 0.665927 0.655518 0.622499 0.580263 0.539013 0.592759 0.69005 0.333165 0.350113 0.292183 0.716573 0.384649 0.318705 0.370137 0.274163 0.267421 0.270797 0.362235 0.636256 0.661261 0.604645 0.493667 0.518017 0.489511 0.382924 0.782152 1.06861 0.630036 0.585728 0.626148 0.477341 0.341385 0.894968 0.707176 0.750542 0.738086 0.709105 0.674893 0.672878 0.674116 0.697756 0.736848 0.781452 0.796507 0.775967 0.745486 0.779722 0.695129 0.674054 0.66992 0.75208 0.622159 0.444348 0.541991 0.581777 0.631647 0.663392 0.659407 0.637652 0.594875 0.539083 0.524636 0.528781 0.640107 0.646868 0.20928 0.545437 0.840524 0.743747 0.435784 0.424981 0.445429 0.400904 0.394841 0.378108 0.326745 0.298429 0.390537 0.369329 0.505649 0.671408 0.6236 0.565059 0.561578 0.554539 0.607046 0.688327 0.798537 0.819838 0.571278 0.454703 0.481576 0.420421 0.778051 0.706053 0.783374 0.686156 0.672907 0.671466 0.684185 0.709665 0.757493 0.800379 0.808911 0.794558 0.79239 0.738553 0.601527 0.615987 0.659294 0.689576 0.678048 0.605075 0.522845 0.540962 0.612264 0.643792 0.666653 0.656001 0.63387 0.584697 0.538845 0.467662 0.638194 0.601146 0.368685 0.230255 0.918739 0.916478 0.763905 0.27278 0.192451 0.412851 0.439942 0.458408 0.538353 0.485096 0.421971 0.411765 0.48272 0.568792 0.663007 0.654545 0.607595 0.611863 0.645386 0.695045 0.79277 0.675228 0.652978 0.501526 0.451949 0.409541 0.268432 0.74833 0.773805 0.743399 0.680791 0.672823 0.677571 0.682184 0.691572 0.697464 0.729373 0.749673 0.783866 0.805491 0.817812 0.836998 0.678594 0.617357 0.631683 0.631491 0.630541 0.573173 0.582517 0.620187 0.664961 0.674193 0.660125 0.625011 0.553351 0.486072 0.479759 0.629317 0.344633 0.618606 0.232771 0.343049 0.142131 0.140192 0.0153988 0.0901576 0.341215 0.383826 0.404952 0.363902 0.402232 0.333855 0.701211 0.674967 0.554957 0.628961 0.504071 0.522254 0.572755 0.649435 0.643356 0.638235 0.629648 0.617881 0.589424 0.336528 0.611476 0.587751 0.56424 0.484649 0.424165 0.355111 0.422841 0.591779 0.740289 0.699935 0.674573 0.681504 0.682625 0.7362 0.791315 0.812261 0.838674 0.857773 0.673876 0.608604 0.584402 0.610464 0.624599 0.60815 0.593812 0.538668 0.557536 0.582644 0.618112 0.682535 0.663985 0.642305 0.56038 0.500958 0.434132 0.529324 0.561165 0.403925 0.413804 0.100508 0.135516 0.130549 0.0717565 0.203825 0.320344 0.339041 0.346192 0.327181 0.247372 0.175128 0.593186 0.728949 0.547239 0.513545 0.640184 0.651762 0.600387 0.557223 0.496619 0.578851 0.555797 0.530564 0.476869 0.433018 0.454414 0.555437 0.641672 0.72859 0.686893 0.675146 0.681104 0.690189 0.679101 0.691042 0.745065 0.811789 0.818107 0.631504 0.527243 0.564922 0.609786 0.635897 0.602942 0.566634 0.556822 0.567737 0.582608 0.614366 0.722281 0.606339 0.536288 0.427248 0.398761 0.555321 0.557263 0.300332 0.073167 0.0667769 0.100115 0.108843 0.124801 0.128525 0.207921 0.3144 0.216698 0.288687 0.342738 0.318309 0.325206 0.309111 0.163849 0.171438 0.547924 0.170741 0.665252 0.540186 0.596231 0.655237 0.644562 0.587996 0.449306 0.544133 0.533491 0.517847 0.488484 0.49122 0.532501 0.581201 0.647226 0.6846 0.714949 0.686017 0.673385 0.677383 0.697115 0.810125 0.755599 0.803834 0.810892 0.888622 0.82644 0.746843 0.693247 0.604201 0.601261 0.637814 0.580705 0.57481 0.56611 0.564798 0.570579 0.574009 0.643481 0.622157 0.532566 0.544286 0.414874 0.449495 0.527958 0.433037 0.335927 0.157637 0.132213 0.0217206 0.144765 0.125769 0.205701 0.206098 0.131473 0.272848 0.31673 0.349004 0.344953 0.272189 0.152523 0.0561996 0.301078 0.393728 0.407679 0.32668 0.567501 0.644366 0.60935 0.557936 0.546014 0.491637 0.500912 0.513005 0.52273 0.526622 0.53771 0.559774 0.598373 0.633702 0.665974 0.672195 0.662699 0.693035 0.667808 0.928033 0.794031 0.794803 0.918231 0.987514 0.983098 0.955677 0.744145 0.628627 0.600602 0.577815 0.576263 0.572282 0.573427 0.582987 0.53961 0.591314 0.587078 0.544199 0.654149 0.467855 0.429798 0.485011 0.547682 0.468245 0.276945 0.0622188 0.118151 0.151545 0.153657 0.196655 0.215554 0.219596 0.18367 0.014618 0.0094012 0.18576 0.173839 0.263716 0.340897 0.339851 0.338446 0.24476 0.170954 0.130475 0.223892 0.334804 0.508305 0.44919 0.603396 0.601252 0.571952 0.571439 0.553556 0.509417 0.501062 0.500297 0.511582 0.527579 0.52701 0.556019 0.564791 0.574792 0.595506 0.620755 0.638016 0.646063 0.649626 0.680677 0.673335 0.731384 0.689461 0.704276 0.626691 0.888361 0.947491 0.755303 0.599435 0.330328 0.695861 0.657666 0.621459 0.595947 0.577603 0.574434 0.572585 0.573587 0.566409 0.580994 0.628435 0.590006 0.540369 0.590214 0.417488 0.484887 0.514351 0.400659 0.360148 0.191999 0.152902 0.128872 0.199746 0.177316 0.162152 0.227051 0.237134 0.2035 0.026469 0.0325863 0.254529 0.179032 0.25135 0.3312 0.329293 0.376631 0.187939 0.223092 0.368394 0.522936 0.483361 0.557031 0.599281 0.563556 0.549108 0.536212 0.515564 0.498998 0.492367 0.497716 0.514103 0.529762 0.53774 0.549316 0.574994 0.576691 0.588958 0.608548 0.62241 0.636213 0.65905 0.681928 0.667919 0.712458 0.579889 0.990035 0.668466 0.97209 0.739003 0.792359 0.839813 0.576924 0.328231 0.51417 0.600426 0.604002 0.594215 0.584457 0.574684 0.572168 0.575884 0.567226 0.570402 0.595864 0.626034 0.53409 0.547748 0.53931 0.47143 0.554301 0.545255 0.472839 0.293228 0.20576 0.311713 0.172394 0.172742 0.124202 0.259458 0.240813 0.175865 0.172351 0.0320468 0.062381 0.148048 0.275855 0.31758 0.340993 0.36529 0.375712 0.32343 0.253708 0.230829 0.262388 0.208116 0.216228 0.511989 0.552209 0.518891 0.506063 0.505747 0.502041 0.49389 0.485366 0.485119 0.500587 0.525382 0.547285 0.563694 0.573923 0.578031 0.582988 0.600528 0.61714 0.636255 0.659259 0.667552 0.643618 0.575662 0.604769 0.457856 0.782637 0.668916 0.725781 0.758952 0.239611 0.364408 0.517615 0.563219 0.577764 0.579154 0.573896 0.568846 0.570673 0.575129 0.576865 0.586796 0.614452 0.590215 0.585725 0.525389 0.522985 0.539072 0.580536 0.472209 0.489872 0.293039 0.423813 0.414013 0.200949 0.104306 0.0628253 0.207538 0.215025 0.131076 0.115871 0.0292261 0.042533 0.0181858 0.0466354 0.104447 0.181052 0.268291 0.366646 0.37706 0.36828 0.396181 0.357266 0.211203 0.267554 0.0955065 0.260615 0.597989 0.574393 0.619295 0.510138 0.470972 0.472244 0.478098 0.48149 0.478616 0.476808 0.482846 0.510975 0.546796 0.574461 0.592718 0.59338 0.584458 0.576366 0.574501 0.615641 0.633549 0.64784 0.645155 0.612506 0.591628 0.550567 0.628072 0.709465 0.642468 0.461807 0.31819 0.346118 0.440174 0.522498 0.55434 0.566709 0.570663 0.587405 0.603555 0.564933 0.469436 0.542716 0.582071 0.667404 0.639687 0.566434 0.800484 0.336802 0.153202 0.180856 0.204099 0.156088 0.141334 0.115133 0.0600612 0.131822 0.0882868 0.0796084 0.124389 0.0663175 0.0781431 0.169422 0.326895 0.421749 0.407727 0.396266 0.421052 0.265807 0.237849 0.251962 0.266707 0.124509 0.601356 0.584709 0.557694 0.497499 0.470679 0.467386 0.469938 0.471448 0.471706 0.474534 0.484483 0.532914 0.582613 0.613443 0.610414 0.595981 0.58079 0.571476 0.571389 0.57986 0.596438 0.684195 0.695592 0.646141 0.544781 0.44443 0.411527 0.444706 0.494332 0.535167 0.55299 0.57018 0.568699 0.569696 0.57615 0.585027 0.600667 0.591093 0.515257 0.476677 0.59534 0.75559 0.783414 0.923998 0.932928 0.225843 0.132152 0.236361 0.228224 0.201573 0.297733 0.243641 0.194188 0.107601 0.128658 0.132877 0.201786 0.146891 0.169048 0.0779746 0.144961 0.148485 0.42737 0.421501 0.419943 0.469133 0.559239 0.328505 0.351319 0.494922 0.512239 0.567288 0.490715 0.592303 0.643954 0.631874 0.605007 0.582963 0.571668 0.567738 0.570781 0.580522 0.596444 0.613545 0.627033 0.632617 0.623401 0.607676 0.582968 0.610225 0.646417 0.675059 0.663228 0.629996 0.574426 0.518276 0.479808 0.476625 0.498596 0.560889 0.565657 0.571374 0.570114 0.571911 0.578558 0.586251 0.586425 0.586741 0.525821 0.503082 0.4594 0.708366 0.590498 0.737578 1.07125 0.882467 0.467797 0.310072 0.346777 0.306129 0.294352 0.324649 0.260417 0.153858 0.173899 0.177962 0.211218 0.242857 0.168135 0.0661042 0.1181 0.182401 0.137451 0.168456 0.398742 0.42605 0.407107 0.402384 0.407892 0.421131 0.31488 0.348233 0.573745 0.547659 0.510701 0.47894 0.465915 0.464604 0.468643 0.47327 0.479594 0.659169 0.612262 0.581157 0.569092 0.565668 0.568013 0.574038 0.584767 0.598405 0.61169 0.619783 0.619115 0.615159 0.605854 0.609388 0.625673 0.641742 0.644997 0.620252 0.586088 0.55127 0.526093 0.51016 0.524469 0.543687 0.553356 0.559078 0.565512 0.569337 0.572701 0.571281 0.573499 0.578315 0.573666 0.559867 0.479431 0.50496 0.458224 0.385226 0.684278 0.47708 0.517441 1.20248 0.361911 0.329195 0.314029 0.398065 0.295901 0.322556 0.315618 0.240057 0.208313 0.175764 0.190874 0.234005 0.203341 0.244463 0.207307 0.171148 0.156589 0.137949 0.12942 0.135207 0.124931 0.42094 0.413828 0.401059 0.427743 0.477345 0.551515 0.316831 0.296455 0.631836 0.50125 0.526647 0.563882 0.541174 0.491368 0.465442 0.460962 0.466484 0.475458 0.485293 0.497081 0.492108 0.695216 0.5795 0.565002 0.565025 0.568399 0.573668 0.581419 0.591159 0.601643 0.610789 0.614302 0.614967 0.613083 0.614375 0.619953 0.627244 0.626604 0.615708 0.593204 0.569187 0.514081 0.527373 0.540059 0.549343 0.555315 0.560352 0.564927 0.567221 0.566792 0.566826 0.567678 0.564775 0.556644 0.525995 0.498137 0.492126 0.420163 0.304442 0.601452 0.620054 0.885772 0.684269 0.174787 0.371909 0.351017 0.357766 0.246987 0.203149 0.197022 0.213364 0.224517 0.232827 0.125668 0.187578 0.183925 0.0878985 0.11797 0.239113 0.242751 0.147805 0.276183 0.547542 0.412283 0.42812 0.45861 0.456246 0.341464 0.368594 0.518742 0.56315 0.494998 0.53923 0.545681 0.509816 0.472865 0.461655 0.465318 0.475132 0.487444 0.497371 0.499859 0.453728 0.712591 0.624254 0.59088 0.59832 0.60537 0.610527 0.613372 0.613923 0.61524 0.618149 0.620447 0.547482 0.536048 0.532063 0.535808 0.542545 0.548946 0.554289 0.558433 0.56184 0.562565 0.561529 0.560671 0.559095 0.552789 0.544747 0.527652 0.514812 0.49866 0.461954 0.369513 0.390895 0.649505 0.749293 0.639691 0.28371 0.213264 0.508026 0.442023 0.27606 0.29588 0.274055 0.24446 0.232326 0.178296 0.203887 0.229623 0.211897 0.244871 0.504337 0.174773 0.175175 0.0958471 0.212666 0.200628 0.254423 0.31024 0.123737 0.211489 0.26103 0.45548 0.437067 0.453733 0.463688 0.42925 0.40028 0.480616 0.533027 0.551303 0.529801 0.526683 0.511931 0.485212 0.468444 0.46714 0.474398 0.485076 0.494069 0.497334 0.476961 0.43316 0.688987 0.595379 0.567249 0.567796 0.572802 0.57821 0.583895 0.619132 0.612587 0.59875 0.579605 0.563068 0.551618 0.546609 0.546283 0.548394 0.552243 0.556064 0.558997 0.560978 0.560891 0.558931 0.556396 0.553307 0.546967 0.536748 0.523108 0.510749 0.500193 0.47615 0.42132 0.417538 0.536099 0.662225 0.580257 0.445579 0.250944 0.541457 0.368698 0.343334 0.257662 0.261766 0.261947 0.197738 0.145662 0.156589 0.130737 0.166668 0.220273 0.235309 0.239583 0.461455 0.487768 0.510966 0.63484 0.205246 0.247237 0.336778 0.0700686 0.264322 0.215131 0.177729 0.455287 0.438085 0.446234 0.466123 0.460151 0.446067 0.467783 0.517079 0.546299 0.542888 0.521283 0.502287 0.494462 0.480503 0.473295 0.476388 0.483277 0.491326 0.495301 0.487008 0.46351 0.436814 0.644654 0.58184 0.578532 0.580736 0.586081 0.590004 0.594916 0.599756 0.604515 0.608773 0.61197 0.613939 0.615157 0.616445 0.616858 0.615624 0.611034 0.600974 0.587359 0.57386 0.563687 0.557821 0.555567 0.55618 0.557725 0.559727 0.561361 0.573703 0.572656 0.446095 0.416597 0.280141 0.430042 0.31741 0.281309 0.246538 0.209941 0.310699 0.191581 0.117232 0.127124 0.153048 0.241734 0.281202 0.417127 0.433814 0.457969 0.538855 0.712921 0.663591 0.520517 0.270957 0.264934 0.29251 0.213181 0.250748 0.386766 0.410765 0.461433 0.476726 0.480787 0.484962 0.498261 0.52696 0.535626 0.523586 0.510023 0.499639 0.493313 0.484564 0.587409 0.592031 0.590032 0.594492 0.598304 0.600824 0.603911 0.606937 0.609597 0.612236 0.614264 0.615405 0.615926 0.615592 0.614156 0.610281 0.602667 0.592312 0.581797 0.572993 0.566981 0.564207 0.563498 0.56217 0.561558 0.559311 0.555687 0.550913 0.544235 0.53379 0.521736 0.508947 0.497944 0.479146 0.443223 0.431451 0.511296 0.507873 0.424883 0.402232 0.474014 0.383568 0.342401 0.298332 0.142019 0.0594047 0.142985 0.0468022 0.217267 0.18308 0.319084 0.307461 0.403305 0.435235 0.491098 0.580302 0.5547 0.733323 0.699485 0.364791 0.239668 0.253757 0.217822 0.298322 0.378885 0.453607 0.479957 0.491598 0.504324 0.510916 0.481664 0.485513 0.490601 0.493088 0.489071 0.478863 0.461821 0.452961 0.574153 0.59184 0.598573 0.603438 0.606971 0.609288 0.611114 0.612617 0.613972 0.615091 0.615907 0.616171 0.615623 0.614119 0.610729 0.604743 0.596815 0.588177 0.580456 0.563878 0.564528 0.564903 0.564705 0.563633 0.561391 0.557726 0.55244 0.54549 0.535827 0.524593 0.511512 0.501082 0.48704 0.462209 0.441805 0.480267 0.542921 0.57231 0.419445 0.423075 0.393619 0.394913 0.317915 0.260391 0.263612 0.183863 0.143762 0.33053 0.230796 0.61042 0.495523 0.455292 0.346186 0.336036 0.304826 0.301078 0.395226 0.417444 0.458015 0.470244 0.50863 0.477786 0.481369 0.608128 0.485787 0.388717 0.29168 0.23989 0.22803 0.421991 0.464805 0.493266 0.511476 0.518385 0.529559 0.533296 0.523693 0.513092 0.504621 0.496542 0.490592 0.490344 0.493076 0.494578 0.491326 0.485705 0.478447 0.472401 0.509517 0.568288 0.593423 0.603343 0.609601 0.613945 0.615925 0.616982 0.617381 0.617265 0.617012 0.616684 0.616057 0.575056 0.571827 0.570197 0.569576 0.56939 0.569135 0.568403 0.566881 0.564427 0.560987 0.556143 0.549338 0.540555 0.530734 0.520306 0.510187 0.499674 0.483576 0.466385 0.475465 0.508026 0.533104 0.536619 0.509094 0.416174 0.429973 0.327929 0.274738 0.205487 0.280408 0.13632 0.394002 0.68934 0.699221 0.671353 0.54584 0.413092 0.338996 0.315802 0.392611 0.402958 0.414102 0.43266 0.443681 0.451488 0.405866 0.371587 0.471983 0.469957 0.433322 0.261097 0.299476 0.323429 0.395809 0.437141 0.479382 0.504514 0.524173 0.530533 0.535058 0.537596 0.536672 0.528161 0.516872 0.507899 0.501782 0.498441 0.497975 0.4978 0.496122 0.491473 0.488001 0.487226 0.503778 0.534697 0.574633 0.614532 0.611562 0.606917 0.600659 0.5936 0.587061 0.581906 0.578389 0.576196 0.574896 0.574169 0.573526 0.572544 0.570917 0.568455 0.565037 0.560631 0.554717 0.546851 0.537658 0.529 0.520316 0.513531 0.506809 0.498106 0.49727 0.512148 0.520545 0.52582 0.50535 0.487989 0.438982 0.427167 0.399893 0.282755 0.255089 0.266088 0.279987 0.271464 0.483269 0.550907 0.557087 0.47513 0.38032 0.326888 0.312078 0.395395 0.404496 0.422923 0.439895 0.383137 0.285592 0.434536 0.529617 0.428173 0.329254 0.27835 0.35753 0.262214 0.351903 0.413358 0.452268 0.522059 0.535399 0.540762 0.541945 0.540758 0.53661 0.528451 0.519678 0.51333 0.508819 0.505686 0.503408 0.500776 0.497685 0.495261 0.496772 0.506819 0.524796 0.596372 0.607679 0.615315 0.619642 0.621864 0.622187 0.621239 0.619733 0.618216 0.616754 0.614986 0.612297 0.608419 0.603434 0.597804 0.592317 0.587636 0.584029 0.581523 0.579901 0.578757 0.577835 0.576823 0.575313 0.572964 0.569647 0.56547 0.560298 0.55362 0.545496 0.537753 0.530305 0.524214 0.520547 0.51951 0.522368 0.533374 0.539461 0.54058 0.518384 0.492968 0.456824 0.437492 0.346135 0.30589 0.2981 0.312463 0.37783 0.357643 0.612539 0.371036 0.4851 0.490589 0.443448 0.413053 0.36998 0.321362 0.414715 0.42198 0.404592 0.388105 0.280416 0.299927 0.464101 0.463331 0.355311 0.341641 0.361928 0.251134 0.391118 0.426848 0.492673 0.513121 0.527833 0.536985 0.541092 0.541984 0.539935 0.536003 0.530707 0.524378 0.519001 0.514697 0.510769 0.507085 0.504109 0.50213 0.554186 0.581901 0.600215 0.612408 0.620934 0.625656 0.627351 0.626556 0.624109 0.621219 0.618443 0.615854 0.613014 0.609501 0.605305 0.600738 0.596238 0.592153 0.588754 0.586233 0.584477 0.583191 0.58208 0.536197 0.545246 0.557223 0.561562 0.552639 0.519403 0.446466 0.446107 0.416601 0.368256 0.353234 0.422133 0.476468 0.547049 0.532274 0.335401 0.468875 0.489741 0.499601 0.420108 0.413187 0.302088 0.192839 0.206868 0.348858 0.377587 0.392133 0.431349 0.38393 0.377578 0.368491 0.476813 0.49866 0.517282 0.528066 0.536662 0.540951 0.542748 0.542071 0.538641 0.502266 0.510065 0.523833 0.543335 0.565751 0.587576 0.606738 0.619811 0.62743 0.631421 0.631775 0.629462 0.625607 0.621451 0.617622 0.614162 0.610642 0.606844 0.602931 0.599129 0.595642 0.580937 0.579549 0.57754 0.574604 0.570628 0.565753 0.560009 0.553018 0.545639 0.539063 0.533894 0.530922 0.531642 0.574686 0.548227 0.51845 0.439916 0.425496 0.385527 0.354391 0.357032 0.351952 0.480294 0.495484 0.433096 0.339025 0.617188 0.524226 0.158649 0.057657 0.284122 0.385562 0.408784 0.393594 0.384415 0.489933 0.408141 0.458436 0.482688 0.502847 0.517898 0.531109 0.533692 0.528213 0.523031 0.518446 0.514359 0.510918 0.508888 0.508773 0.512179 0.522289 0.537618 0.554213 0.575216 0.59732 0.614769 0.627404 0.634222 0.636355 0.634873 0.592651 0.590274 0.588516 0.587206 0.586085 0.584946 0.583604 0.581811 0.579294 0.57585 0.571422 0.566138 0.559976 0.553137 0.546582 0.541309 0.538283 0.538141 0.542493 0.551023 0.562485 0.571015 0.549859 0.539679 0.420006 0.404837 0.39801 0.397282 0.394365 0.38065 0.415 0.453775 0.275581 0.267785 0.608048 0.122464 0.194126 0.35928 0.375189 0.430051 0.39121 0.40584 0.428513 0.456447 0.489409 0.509551 0.540542 0.545318 0.546737 0.54501 0.540907 0.535669 0.530251 0.525476 0.521333 0.517986 0.51551 0.514862 0.51664 0.522691 0.531948 0.546487 0.564795 0.586045 0.630842 0.625561 0.620462 0.616073 0.612185 0.60846 0.604831 0.601455 0.598428 0.595817 0.593684 0.592022 0.590756 0.589711 0.588632 0.587352 0.585747 0.583615 0.580701 0.576844 0.572079 0.566547 0.560342 0.553846 0.548032 0.544243 0.54248 0.543382 0.549867 0.559255 0.570066 0.578204 0.564306 0.412435 0.416718 0.437901 0.41358 0.404328 0.433105 0.472092 0.484572 0.413646 0.78342 0.074132 0.24363 0.259933 0.358803 0.410792 0.452643 0.517598 0.48691 0.420467 0.42313 0.467536 0.524778 0.538811 0.54812 0.551668 0.550683 0.546723 0.541446 0.536096 0.53152 0.527583 0.524627 0.522439 0.521121 0.521547 0.524962 0.530795 0.540615 0.554821 0.6059 0.622261 0.63478 0.641127 0.640317 0.636392 0.630671 0.624315 0.618737 0.614211 0.610338 0.606792 0.603578 0.600799 0.598473 0.596563 0.595042 0.593865 0.592909 0.59197 0.590832 0.589368 0.587479 0.585009 0.581755 0.577585 0.572575 0.566953 0.560842 0.554665 0.549621 0.54668 0.545115 0.546565 0.552632 0.561084 0.571941 0.561864 0.560979 0.54827 0.551255 0.435633 0.443692 0.435902 0.434686 0.47446 0.450412 0.428441 0.909474 0.207003 0.261225 0.194473 0.441048 0.437814 0.693252 0.555074 0.484364 0.492681 0.419502 0.499777 0.517821 0.536213 0.550337 0.557225 0.557337 0.552873 0.546601 0.540547 0.536149 0.533069 0.530571 0.528873 0.52777 0.527546 0.57257 0.593899 0.614072 0.631637 0.642948 0.64572 0.642495 0.636267 0.629163 0.622329 0.616841 0.612526 0.608899 0.605741 0.603058 0.600858 0.599088 0.597691 0.596606 0.595734 0.594919 0.59397 0.59272 0.555094 0.550617 0.547751 0.545949 0.547428 0.552348 0.56095 0.558155 0.555687 0.546848 0.539787 0.562501 0.418939 0.456888 0.449468 0.436824 0.399934 0.392502 0.328578 0.59449 0.490988 0.492327 0.512178 0.434544 0.4833 0.508612 0.530266 0.549842 0.562624 0.565401 0.560712 0.552431 0.544526 0.528869 0.53196 0.537531 0.546969 0.559027 0.577507 0.60058 0.627736 0.641873 0.648904 0.648517 0.641583 0.634224 0.626818 0.620257 0.615214 0.611305 0.608069 0.605379 0.591053 0.58888 0.586053 0.582425 0.577978 0.572853 0.567197 0.561084 0.553539 0.555997 0.548779 0.533457 0.538676 0.574684 0.44029 0.454492 0.482428 0.4806 0.454932 0.170606 0.361663 0.69433 0.573324 0.429192 0.46351 0.494031 0.52155 0.545037 0.53957 0.537123 0.535799 0.534911 0.53437 0.534076 0.534087 0.535061 0.537789 0.541998 0.548893 0.561848 0.585858 0.610128 0.636312 0.651446 0.603195 0.601459 0.600111 0.599085 0.598278 0.597557 0.596773 0.595747 0.594319 0.592394 0.58988 0.58666 0.582662 0.577964 0.57272 0.566922 0.560656 0.554871 0.550671 0.547353 0.545376 0.546735 0.550542 0.552827 0.550726 0.528407 0.549563 0.595954 0.474122 0.498125 0.49817 0.459192 0.447018 0.382872 0.21886 0.746427 0.592664 0.605855 0.498033 0.519173 0.541429 0.449858 0.481073 0.510872 0.564516 0.57578 0.572313 0.560405 0.547811 0.542538 0.540443 0.540104 0.540452 0.540616 0.540697 0.540579 0.540264 0.540524 0.541576 0.544814 0.552128 0.565847 0.59179 0.656013 0.647545 0.638611 0.631012 0.624219 0.61861 0.614202 0.610716 0.607924 0.605668 0.603866 0.602468 0.601428 0.600647 0.599983 0.599297 0.598452 0.597282 0.595615 0.593352 0.590423 0.586749 0.582357 0.577399 0.571963 0.565963 0.559668 0.553935 0.549277 0.545487 0.54426 0.54489 0.551914 0.553283 0.537293 0.570541 0.612336 0.495415 0.520028 0.481206 0.500022 0.455593 0.579886 0.650939 0.614873 0.644069 0.517506 0.541089 0.565794 0.536733 0.560659 0.580401 0.592117 0.574364 0.550754 0.544096 0.543184 0.544137 0.545575 0.546759 0.547384 0.54756 0.546928 0.545822 0.545557 0.5454 0.546504 0.613781 0.643424 0.664623 0.657468 0.64456 0.635156 0.628164 0.622439 0.617735 0.613911 0.610874 0.608455 0.606494 0.604937 0.603777 0.602941 0.602285 0.601649 0.6009 0.599907 0.598518 0.596561 0.593903 0.59046 0.586258 0.581495 0.576336 0.57069 0.564477 0.558113 0.552233 0.546928 0.543244 0.542674 0.557441 0.554839 0.551254 0.55553 0.55911 0.623749 0.531735 0.479514 0.533964 0.476691 0.511223 0.432857 0.657859 0.539607 0.55982 0.579582 0.471837 0.498708 0.52588 0.551767 0.577296 0.598685 0.613001 0.559295 0.545371 0.545148 0.547696 0.550337 0.552569 0.554046 0.552362 0.565109 0.578287 0.634859 0.661863 0.66378 0.651531 0.640853 0.632927 0.62681 0.621978 0.617841 0.614407 0.611712 0.609521 0.607708 0.606299 0.605283 0.604537 0.603895 0.555664 0.550181 0.54492 0.54208 0.563849 0.561069 0.557504 0.553517 0.556852 0.581305 0.550984 0.586278 0.543408 0.514713 0.866523 0.765434 0.64336 0.677746 0.490295 0.512639 0.539428 0.568078 0.554756 0.554632 0.553001 0.551177 0.55024 0.547916 0.545974 0.547911 0.554744 0.578375 0.670154 0.665814 0.653386 0.645996 0.638695 0.632196 0.603197 0.60231 0.601118 0.599441 0.597081 0.593923 0.589974 0.585389 0.580318 0.574848 0.568853 0.56215 0.571747 0.5688 0.567318 0.56168 0.547015 0.573722 0.60097 0.571018 0.603177 0.650209 0.481549 0.869562 0.747117 0.840464 0.668717 0.67044 0.697192 0.560272 0.574834 0.586764 0.50547 0.521464 0.597429 0.621467 0.651912 0.544952 0.546125 0.550685 0.554757 0.557897 0.560119 0.56139 0.562069 0.561372 0.558927 0.556431 0.554116 0.550825 0.54635 0.543462 0.561502 0.57698 0.627295 0.622834 0.618765 0.615552 0.613031 0.610916 0.609161 0.607831 0.606858 0.606095 0.605394 0.604588 0.603519 0.60203 0.599948 0.597142 0.593561 0.589247 0.5843 0.578806 0.57269 0.565995 0.558838 0.552488 0.547756 0.543804 0.549935 0.565631 0.591303 0.621668 0.596234 0.631396 0.621594 0.55068 0.529784 0.744531 0.765171 0.863952 0.683129 0.694115 0.702228 0.573766 0.588903 0.593231 0.553165 0.592364 0.621183 0.65405 0.694061 0.542829 0.551122 0.557864 0.562585 0.565412 0.567199 0.568484 0.568864 0.567443 0.564364 0.561235 0.557783 0.554048 0.548254 0.549512 0.565005 0.553298 0.682143 0.660764 0.652754 0.646433 0.63952 0.634143 0.629234 0.624435 0.620339 0.617148 0.614587 0.612431 0.610699 0.609388 0.608384 0.607559 0.606753 0.605757 0.604406 0.602582 0.600148 0.596994 0.593061 0.588359 0.582986 0.576907 0.569929 0.562751 0.555671 0.549349 0.544999 0.582241 0.577372 0.573306 0.573767 0.638464 0.623078 0.613311 0.663962 0.544224 0.747406 0.879931 0.752186 0.776926 0.857592 0.589126 0.592807 0.59466 0.5247 0.516746 0.587785 0.615417 0.646232 0.686531 0.545585 0.557445 0.5664 0.570102 0.571985 0.573526 0.574808 0.574713 0.572515 0.686831 0.669099 0.659159 0.65015 0.643203 0.637325 0.631652 0.626517 0.622264 0.618877 0.616152 0.613941 0.612215 0.610887 0.609814 0.608865 0.607867 0.606633 0.605018 0.602907 0.600191 0.59677 0.592548 0.587464 0.581384 0.574469 0.567299 0.560645 0.553998 0.546446 0.591074 0.584076 0.579312 0.577097 0.561072 0.572795 0.583694 0.616563 0.659732 0.744675 0.787331 0.710163 0.706938 0.705998 0.523523 0.613012 0.725763 0.552676 0.566198 0.568681 0.564637 0.560622 0.554795 0.54855 0.550205 0.536658 0.509287 0.696146 0.677553 0.664725 0.655161 0.647467 0.640415 0.634157 0.628694 0.594056 0.589507 0.587198 0.581542 0.556083 0.590655 0.591116 0.611446 0.637235 0.655621 0.62689 0.648456 0.758174 0.752657 0.788593 0.834843 0.722212 0.71574 0.693836 0.593402 0.592106 0.582704 0.916723 0.630916 0.679977 0.716483 0.750031 0.57268 0.575516 0.577497 0.579218 0.580047 0.579162 0.576121 0.571477 0.565741 0.559559 0.550562 0.542014 0.527178 0.507567 0.482837 0.624125 0.620492 0.617618 0.615374 0.613641 0.612248 0.611056 0.609944 0.608739 0.607279 0.605395 0.603085 0.600203 0.596513 0.591857 0.585899 0.57886 0.572099 0.565694 0.558939 0.552471 0.560796 0.586385 0.610778 0.619555 0.634326 0.651644 0.671354 0.649318 0.642319 0.805945 0.810024 0.809845 0.828593 0.824854 0.739771 0.598585 0.585033 0.71135 0.91067 0.621391 0.672969 0.707071 0.741416 0.769854 0.563817 0.572108 0.575149 0.579351 0.582281 0.58383 0.583852 0.58197 0.577832 0.571524 0.563275 0.55403 0.539682 0.523269 0.506054 0.484898 0.464729 0.698783 0.681339 0.66904 0.659541 0.650808 0.643227 0.63648 0.630549 0.625677 0.621899 0.618963 0.616671 0.61487 0.61339 0.61208 0.610779 0.609366 0.607677 0.605598 0.60313 0.599948 0.595829 0.590258 0.583724 0.577014 0.570188 0.561836 0.555843 0.598024 0.593448 0.593504 0.591648 0.643058 0.68293 0.675657 0.646502 0.793844 0.805627 0.811704 0.834841 0.70776 0.856435 0.594571 0.850387 0.674327 0.673953 0.694806 0.571948 0.56988 0.577048 0.582718 0.586093 0.587174 0.586126 0.582656 0.576623 0.567943 0.556446 0.545466 0.697214 0.682912 0.672189 0.662312 0.653491 0.645354 0.638122 0.63187 0.626883 0.623066 0.62011 0.617759 0.61587 0.614284 0.612819 0.611362 0.609739 0.607729 0.6055 0.602798 0.599449 0.594676 0.588716 0.582091 0.575009 0.566898 0.55823 0.601931 0.594794 0.596313 0.598508 0.582069 0.588907 0.606257 0.638272 0.643997 0.740156 0.771905 0.817478 0.824622 0.823359 0.744038 0.88469 0.858435 0.852462 0.828915 0.63816 0.893943 0.728478 0.765955 0.774634 0.560907 0.57347 0.52461 0.504115 0.485285 0.471289 0.451958 0.694367 0.683831 0.67407 0.664397 0.655138 0.646562 0.638956 0.63271 0.62777 0.564384 0.603591 0.597952 0.58597 0.593358 0.608182 0.596646 0.605144 0.634181 0.660231 0.647458 0.690981 0.682255 0.798796 0.848212 0.864745 0.868716 0.871827 0.7951 0.858224 0.474748 0.77683 0.78976 0.817818 0.85523 0.846102 0.581326 0.586373 0.588777 0.58875 0.586187 0.580702 0.57209 0.560228 0.546593 0.537417 0.511531 0.47946 0.474161 0.463508 0.44466 0.623935 0.620974 0.618582 0.616586 0.61489 0.613307 0.611587 0.609637 0.607549 0.605262 0.602114 0.598618 0.593673 0.586607 0.57966 0.571833 0.601636 0.607547 0.610576 0.632501 0.65294 0.661904 0.703632 0.677755 0.799051 0.760851 0.767484 0.807822 0.866486 0.867481 0.889301 0.87812 0.838163 0.808221 0.791435 0.806514 0.839838 0.570888 0.579574 0.58552 0.588951 0.589806 0.588216 0.583615 0.575552 0.564483 0.549857 0.53671 0.53208 0.498209 0.467499 0.469869 0.45365 0.439273 0.69115 0.683694 0.674951 0.665372 0.655647 0.646859 0.639329 0.633195 0.628301 0.624477 0.621493 0.619081 0.617032 0.615171 0.613303 0.611387 0.609503 0.607188 0.604208 0.601088 0.597199 0.591155 0.584089 0.576708 0.568894 0.608554 0.598779 0.596256 0.569733 0.78354 0.749751 0.73746 0.76751 0.870544 0.873715 0.808259 0.889743 0.878646 0.856424 0.840845 0.821583 0.459141 0.831662 0.866989 0.85878 0.860746 0.567259 0.572052 0.573342 0.573868 0.576019 0.688949 0.683239 0.67512 0.6653 0.655211 0.646523 0.639442 0.633411 0.628489 0.624662 0.621649 0.6192 0.617042 0.614977 0.613001 0.611124 0.608855 0.605947 0.602905 0.599571 0.594471 0.588455 0.581222 0.573853 0.610644 0.604859 0.599308 0.590956 0.581985 0.701825 0.692038 0.682285 0.684512 0.685563 0.699806 0.71084 0.689326 0.582266 0.590578 0.601574 0.615562 0.632595 0.652692 0.548479 0.479934 0.472509 0.459075 0.442918 0.434761 
SCALARS Axial_Stress float 1
LOOKUP_TABLE default
-96340200000.0 -111138000000.0 -142899000000.0 -59889300000.0 -77288000000.0 -62397400000.0 -77458100000.0 -59500600000.0 -101851000000.0 -168846000000.0 -92472300000.0 -171418000000.0 -166399000000.0 -153706000000.0 -244076000000.0 -266842000000.0 -264397000000.0 -137495000000.0 -127640000000.0 -70671100000.0 -93136600000.0 -190391000000.0 -121304000000.0 -75124500000.0 -41214500000.0 -84118900000.0 -188186000000.0 -341960000000.0 -380222000000.0 -316965000000.0 -278631000000.0 -336453000000.0 -384507000000.0 -142637000000.0 -222899000000.0 -261709000000.0 -267978000000.0 -250099000000.0 -208170000000.0 -156723000000.0 -355851000000.0 -421219000000.0 -532489000000.0 -263327000000.0 -275106000000.0 -355139000000.0 -180455000000.0 -246549000000.0 -399246000000.0 -311119000000.0 -471869000000.0 -352319000000.0 -480848000000.0 -378909000000.0 -477343000000.0 -360747000000.0 -473983000000.0 -355908000000.0 -581717000000.0 -402426000000.0 -464351000000.0 -661353000000.0 -586123000000.0 -665312000000.0 -562709000000.0 -632390000000.0 -558541000000.0 -364936000000.0 -462845000000.0 -334738000000.0 -323822000000.0 -369473000000.0 -416672000000.0 -600061000000.0 -592786000000.0 -588006000000.0 -577149000000.0 -616227000000.0 -884812000000.0 -487329000000.0 -671959000000.0 -697300000000.0 -691481000000.0 -399918000000.0 -692926000000.0 -471817000000.0 -427081000000.0 -293372000000.0 -341925000000.0 -406259000000.0 -724477000000.0 -723925000000.0 -700758000000.0 -684429000000.0 -693713000000.0 -816005000000.0 -1.02194e+12 -584270000000.0 -743145000000.0 -758281000000.0 -461777000000.0 -516922000000.0 -822884000000.0 -486129000000.0 -439940000000.0 -970094000000.0 -862647000000.0 -824697000000.0 -914912000000.0 -795681000000.0 -884182000000.0 -782531000000.0 -886839000000.0 -826326000000.0 -952520000000.0 -968997000000.0 -1.04058e+12 -1.02732e+12 -963805000000.0 -724310000000.0 -854177000000.0 -812488000000.0 -880474000000.0 -821011000000.0 -561847000000.0 -929061000000.0 -1.06305e+12 -1.2766e+12 -1.28458e+12 -1.04713e+12 -1.12268e+12 -962160000000.0 -1.04551e+12 -996776000000.0 -971138000000.0 -986582000000.0 -1.04568e+12 -1.05169e+12 -953524000000.0 -934629000000.0 -947802000000.0 -632733000000.0 -1.14734e+12 -1.05822e+12 -1.17e+12 -1.31371e+12 -2.55062e+12 -1.54416e+12 -1.53944e+12 -1.31177e+12 -1.19244e+12 -1.12078e+12 -1.07292e+12 -1.05416e+12 -1.07262e+12 -1.09614e+12 -1.05009e+12 -1.00683e+12 -1.00628e+12 -665565000000.0 -758038000000.0 -1.19585e+12 -2.04301e+12 -1.94204e+12 -1.52297e+12 -1.35775e+12 -1.25749e+12 -1.3185e+12 -1.1891e+12 -1.25065e+12 -1.14361e+12 -1.20671e+12 -1.1279e+12 -1.18838e+12 -1.13582e+12 -1.17716e+12 -1.12173e+12 -1.07689e+12 -1.06882e+12 -1.07615e+12 -1.3601e+12 -1.75138e+12 -2.08482e+12 -1.77703e+12 -1.5403e+12 -1.57311e+12 -1.40825e+12 -1.45815e+12 -1.37322e+12 -1.30451e+12 -1.25972e+12 -1.2336e+12 -1.2073e+12 -1.14601e+12 -1.18599e+12 -1.12955e+12 -1.19359e+12 -1.13657e+12 -1.20715e+12 -774613000000.0 -891305000000.0 -1.5936e+12 -1.57006e+12 -1.73278e+12 -1.88443e+12 -1.9058e+12 -1.8949e+12 -1.88773e+12 -1.74201e+12 -1.75396e+12 -1.60728e+12 -1.50916e+12 -1.41939e+12 -1.34944e+12 -1.30132e+12 -1.26611e+12 -1.23957e+12 -1.24392e+12 -1.26538e+12 -889484000000.0 -1.04654e+12 -1.69098e+12 -1.77884e+12 -1.86969e+12 -1.93443e+12 -1.76331e+12 -1.64934e+12 -1.55066e+12 -1.58022e+12 -1.45628e+12 -1.48379e+12 -1.38452e+12 -1.40931e+12 -1.33143e+12 -1.29283e+12 -1.28701e+12 -1.31569e+12 -1.34013e+12 -1.00932e+12 -1.72725e+12 -1.75657e+12 -1.72093e+12 -2.09822e+12 -1.91667e+12 -1.94015e+12 -1.79487e+12 -1.83326e+12 -1.69631e+12 -1.72311e+12 -1.59902e+12 -1.50202e+12 -1.42368e+12 -1.35215e+12 -1.36837e+12 -1.32472e+12 -1.37887e+12 -1.35371e+12 -1.4392e+12 -1.39664e+12 -1.47937e+12 -1.18252e+12 -1.82546e+12 -1.77832e+12 -1.80276e+12 -1.75674e+12 -1.67611e+12 -1.48841e+12 -2.00829e+12 -2.02789e+12 -1.97417e+12 -1.88782e+12 -1.73196e+12 -1.60901e+12 -1.51065e+12 -1.42787e+12 -1.39229e+12 -1.45938e+12 -1.53576e+12 -1.13329e+12 -1.30559e+12 -1.86051e+12 -1.78017e+12 -1.42914e+12 -1.07225e+12 -1.12716e+12 -2.04552e+12 -2.01338e+12 -2.10035e+12 -1.89032e+12 -1.86653e+12 -1.72943e+12 -1.72266e+12 -1.61197e+12 -1.60747e+12 -1.5074e+12 -1.48543e+12 -1.42261e+12 -1.45657e+12 -1.56821e+12 -1.69267e+12 -1.6335e+12 -1.26219e+12 -1.42088e+12 -1.92099e+12 -1.87179e+12 -1.69725e+12 -1.24239e+12 -1.15014e+12 -2.09408e+12 -2.13272e+12 -2.04171e+12 -1.83343e+12 -1.72199e+12 -1.58342e+12 -1.43383e+12 -1.42389e+12 -1.5078e+12 -1.55877e+12 -1.71005e+12 -1.8223e+12 -2.03698e+12 -1.95742e+12 -1.97372e+12 -1.85005e+12 -1.81442e+12 -1.58628e+12 -1.27915e+12 -1.1675e+12 -2.37149e+12 -1.93686e+12 -1.83156e+12 -1.71553e+12 -1.51638e+12 -1.37059e+12 -1.64647e+12 -1.88339e+12 -1.40225e+12 -1.53491e+12 -2.08499e+12 -1.97209e+12 -1.73224e+12 -1.26407e+12 -1.31715e+12 -1.30783e+12 -1.31561e+12 -1.13146e+12 -1.58397e+12 -2.01264e+12 -1.99292e+12 -1.92826e+12 -1.94328e+12 -1.83649e+12 -1.83512e+12 -1.69103e+12 -1.63131e+12 -1.33806e+12 -1.51095e+12 -1.63668e+12 -1.86974e+12 -2.21578e+12 -2.09032e+12 -1.53522e+12 -1.64765e+12 -2.19375e+12 -2.27195e+12 -2.11387e+12 -2.10616e+12 -1.94075e+12 -1.8516e+12 -1.21489e+12 -1.32132e+12 -1.48571e+12 -1.8911e+12 -2.02378e+12 -1.96309e+12 -1.81175e+12 -1.61846e+12 -1.13951e+12 -1.53738e+12 -2.36355e+12 -2.37885e+12 -2.37995e+12 -2.35758e+12 -1.97887e+12 -1.26308e+12 -1.85606e+12 -1.69082e+12 -1.87807e+12 -2.03702e+12 -2.06795e+12 -1.97479e+12 -1.75606e+12 -1.54879e+12 -2.81886e+12 -2.5308e+12 -1.64827e+12 -1.75637e+12 -2.47929e+12 -2.47693e+12 -1.78214e+12 -1.02163e+12 -1.96015e+12 -2.04223e+12 -1.90708e+12 -2.10613e+12 -2.06587e+12 -2.19101e+12 -2.13367e+12 -2.21187e+12 -2.11332e+12 -2.15405e+12 -1.95872e+12 -1.74407e+12 -1.58754e+12 -3.44619e+12 -3.61414e+12 -3.36231e+12 -3.13231e+12 -2.78318e+12 -2.80339e+12 -2.63862e+12 -1.7474e+12 -1.8603e+12 -2.57234e+12 -2.67764e+12 -2.59729e+12 -2.78263e+12 -2.78651e+12 -3.39889e+12 -1.87532e+12 -2.17269e+12 -2.1751e+12 -2.24864e+12 -2.28928e+12 -2.28448e+12 -2.13126e+12 -3.13861e+12 -3.45692e+12 -3.42002e+12 -3.01298e+12 -2.85925e+12 -2.75395e+12 -2.80901e+12 -3.07845e+12 -3.13684e+12 -2.71186e+12 -2.27559e+12 -2.41864e+12 -2.29085e+12 -2.40156e+12 -2.31469e+12 -2.35919e+12 -2.37702e+12 -2.35354e+12 -2.71847e+12 -3.2996e+12 -3.22223e+12 -2.99497e+12 -3.02939e+12 -1.84658e+12 -1.96167e+12 -2.91731e+12 -2.85562e+12 -2.9711e+12 -2.97747e+12 -3.10234e+12 -3.23032e+12 -3.0086e+12 -2.67095e+12 -2.51791e+12 -2.51022e+12 -2.43015e+12 -2.52925e+12 -2.45481e+12 -2.54764e+12 -2.4661e+12 -2.62423e+12 -2.61032e+12 -2.85773e+12 -3.05685e+12 -3.18692e+12 -3.30935e+12 -3.3328e+12 -3.24502e+12 -3.13827e+12 -3.12665e+12 -1.94618e+12 -2.06251e+12 -3.00486e+12 -3.0694e+12 -3.11822e+12 -2.87012e+12 -2.68917e+12 -2.60808e+12 -2.6077e+12 -2.6216e+12 -2.66468e+12 -2.79314e+12 -3.05054e+12 -3.24329e+12 -3.28174e+12 -3.21217e+12 -3.15519e+12 -3.05914e+12 -3.12801e+12 -3.08605e+12 -3.14761e+12 -3.12436e+12 -3.13865e+12 -3.03951e+12 -2.99552e+12 -2.85404e+12 -2.87429e+12 -2.73777e+12 -2.80166e+12 -2.6962e+12 -2.78027e+12 -2.69756e+12 -2.78609e+12 -2.71988e+12 -2.79189e+12 -2.95131e+12 -3.16394e+12 -3.26925e+12 -3.26338e+12 -3.26845e+12 -3.21928e+12 -3.24899e+12 -2.0419e+12 -2.16224e+12 -3.18295e+12 -3.18869e+12 -3.18893e+12 -3.11929e+12 -3.00153e+12 -2.91658e+12 -2.87276e+12 -2.86179e+12 -2.87328e+12 -2.82169e+12 -2.91953e+12 -2.91494e+12 -3.02928e+12 -3.08439e+12 -3.18391e+12 -3.23626e+12 -3.29205e+12 -3.29225e+12 -2.12996e+12 -2.25998e+12 -3.24092e+12 -3.23865e+12 -3.2106e+12 -3.11622e+12 -3.02996e+12 -2.97231e+12 -2.94585e+12 -2.94042e+12 -2.95445e+12 -3.01025e+12 -3.13298e+12 -3.26166e+12 -3.28803e+12 -3.33409e+12 -3.3222e+12 -3.32578e+12 -2.35626e+12 -3.29847e+12 -3.35275e+12 -3.29384e+12 -3.34043e+12 -3.2776e+12 -3.30641e+12 -3.21963e+12 -3.23682e+12 -3.13685e+12 -3.17181e+12 -3.07344e+12 -3.12713e+12 -3.03551e+12 -3.10152e+12 -3.01796e+12 -3.08523e+12 -3.01234e+12 -3.07168e+12 -3.02482e+12 -3.08691e+12 -3.09721e+12 -3.22341e+12 -3.32728e+12 -3.38073e+12 -3.35893e+12 -3.39777e+12 -2.21036e+12 -3.41248e+12 -3.40357e+12 -3.3804e+12 -3.33004e+12 -3.26632e+12 -3.21741e+12 -3.18709e+12 -3.16617e+12 -3.14152e+12 -3.11266e+12 -3.151e+12 -3.18367e+12 -3.26954e+12 -3.3043e+12 -3.38021e+12 -3.3883e+12 -3.428e+12 -2.28506e+12 -2.45113e+12 -3.52761e+12 -3.4665e+12 -3.51772e+12 -3.45009e+12 -3.49205e+12 -3.41457e+12 -3.44593e+12 -3.35766e+12 -3.3918e+12 -3.30518e+12 -3.35179e+12 -3.27121e+12 -3.33158e+12 -3.24963e+12 -3.22341e+12 -3.17784e+12 -3.14093e+12 -3.22622e+12 -3.35621e+12 -3.45457e+12 -3.44788e+12 -3.50506e+12 -3.47329e+12 -2.35631e+12 -2.54367e+12 -3.58281e+12 -3.56554e+12 -3.52997e+12 -3.47867e+12 -3.43181e+12 -3.40523e+12 -3.39747e+12 -3.31015e+12 -3.3603e+12 -3.26419e+12 -3.27323e+12 -3.18093e+12 -3.15713e+12 -3.17972e+12 -3.2496e+12 -3.31482e+12 -3.44488e+12 -3.52687e+12 -3.55751e+12 -2.63244e+12 -3.6443e+12 -3.70129e+12 -3.63551e+12 -3.60966e+12 -3.56542e+12 -3.51426e+12 -3.47702e+12 -3.52723e+12 -3.46579e+12 -3.53437e+12 -3.46863e+12 -3.54785e+12 -3.38232e+12 -3.21537e+12 -3.15952e+12 -3.35694e+12 -3.4155e+12 -3.52565e+12 -3.53536e+12 -3.62125e+12 -3.59387e+12 -3.65267e+12 -2.42543e+12 -3.76206e+12 -3.75607e+12 -3.68523e+12 -3.73165e+12 -3.65028e+12 -3.68804e+12 -3.60022e+12 -3.635e+12 -3.55265e+12 -3.59344e+12 -3.58408e+12 -3.61316e+12 -3.64238e+12 -3.32919e+12 -3.08513e+12 -3.24313e+12 -3.49264e+12 -3.63614e+12 -3.69614e+12 -2.49209e+12 -2.71552e+12 -3.8798e+12 -3.82124e+12 -3.80815e+12 -3.77468e+12 -3.72352e+12 -3.66971e+12 -3.6368e+12 -3.64894e+12 -3.70844e+12 -3.83024e+12 -3.76475e+12 -4.10182e+12 -3.03146e+12 -2.50757e+12 -3.04359e+12 -3.24359e+12 -3.41807e+12 -3.60907e+12 -3.63269e+12 -3.7604e+12 -3.73332e+12 -3.7582e+12 -9035750000.0 -2.78902e+12 -3.94133e+12 -3.87857e+12 -3.9336e+12 -3.85719e+12 -3.90293e+12 -3.81436e+12 -3.85035e+12 -3.75661e+12 -3.78665e+12 -3.70372e+12 -3.73685e+12 -3.68471e+12 -3.73848e+12 -3.72478e+12 -3.82042e+12 -4.0522e+12 -4.81043e+12 -2.59294e+12 -3.54186e+12 -3.76983e+12 -3.86225e+12 -3.81128e+12 -3.87232e+12 -2.55486e+12 -3.99297e+12 -4.00183e+12 -3.98611e+12 -3.94495e+12 -3.88169e+12 -3.81213e+12 -3.77128e+12 -3.80517e+12 -3.96843e+12 -4.46953e+12 -4.89854e+12 -3.15258e+12 -3.77161e+12 -3.90446e+12 -3.93867e+12 -2.61125e+12 -2.84235e+12 -4.09131e+12 -4.05602e+12 -4.12033e+12 -4.06077e+12 -4.11819e+12 -4.03579e+12 -3.98224e+12 -3.90683e+12 -3.83256e+12 -3.80991e+12 -3.86689e+12 -3.90375e+12 -4.05554e+12 -4.21042e+12 -4.44563e+12 -4.75924e+12 -4.64515e+12 -4.41277e+12 -4.07675e+12 -3.70186e+12 -3.93966e+12 -3.92031e+12 -4.06771e+12 -4.00872e+12 -4.07614e+12 -3.99152e+12 -2.65066e+12 -9035750000.0 -2.8701e+12 -4.17842e+12 -4.15674e+12 -4.18534e+12 -4.17386e+12 -4.22661e+12 -4.08181e+12 -4.1225e+12 -4.01324e+12 -4.03519e+12 -3.92361e+12 -3.93072e+12 -3.85092e+12 -3.87049e+12 -3.95642e+12 -4.22548e+12 -4.53027e+12 -4.36321e+12 -4.11984e+12 -4.06857e+12 -4.17301e+12 -4.10373e+12 -2.89883e+12 -4.25671e+12 -4.22851e+12 -4.30635e+12 -4.25222e+12 -4.31964e+12 -4.27463e+12 -4.15458e+12 -4.04311e+12 -3.92841e+12 -3.90526e+12 -4.06819e+12 -4.34822e+12 -4.44829e+12 -4.34445e+12 -4.24563e+12 -4.29098e+12 -4.1947e+12 -4.20835e+12 -4.25022e+12 -4.35166e+12 -4.21417e+12 -4.20685e+12 -2.65222e+12 -4.27333e+12 -4.36728e+12 -4.34047e+12 -4.43537e+12 -4.38984e+12 -4.38782e+12 -4.31096e+12 -4.33148e+12 -4.17187e+12 -4.16461e+12 -4.03142e+12 -3.99508e+12 -3.91664e+12 -3.90228e+12 -3.96211e+12 -4.02968e+12 -4.17569e+12 -4.26132e+12 -4.39252e+12 -4.37564e+12 -4.32884e+12 -4.37241e+12 -4.45943e+12 -4.36827e+12 -2.61166e+12 -9035750000.0 -2.8356e+12 -4.23004e+12 -4.46061e+12 -4.57952e+12 -4.49134e+12 -4.56878e+12 -4.44136e+12 -4.47314e+12 -4.32899e+12 -4.11861e+12 -3.93441e+12 -3.91331e+12 -4.10375e+12 -4.31859e+12 -4.36416e+12 -4.41538e+12 -4.55194e+12 -4.20914e+12 -4.71889e+12 -4.56146e+12 -4.59125e+12 -4.34607e+12 -2.47722e+12 -4.3448e+12 -4.65027e+12 -4.79802e+12 -4.69195e+12 -4.76734e+12 -4.61512e+12 -4.48145e+12 -4.28781e+12 -4.01801e+12 -3.81745e+12 -3.95057e+12 -4.19155e+12 -4.24599e+12 -4.34893e+12 -4.39869e+12 -4.41557e+12 -4.59143e+12 -3.80961e+12 -5.10605e+12 -4.27643e+12 -2.42737e+12 -4.95002e+12 -3.9121e+12 -4.71541e+12 -4.69402e+12 -4.90382e+12 -4.88021e+12 -4.81316e+12 -4.6287e+12 -4.45585e+12 -4.23134e+12 -4.24202e+12 -3.82814e+12 -3.25249e+12 -3.77053e+12 -3.89287e+12 -4.05581e+12 -4.16587e+12 -4.25409e+12 -4.52855e+12 -4.92484e+12 -5.38546e+12 -5.61859e+12 -5.14373e+12 -4.62973e+12 -1.55122e+12 -6.40279e+12 -5.22411e+12 -2.16198e+12 -4.71132e+12 -4.98679e+12 -5.09814e+12 -4.98379e+12 -5.0099e+12 -4.92509e+12 -4.94364e+12 -4.84009e+12 -4.87211e+12 -4.60638e+12 -4.50997e+12 -4.36781e+12 -4.25281e+12 -4.8651e+12 -3.33449e+12 -4.02937e+12 -4.23751e+12 -4.23449e+12 -4.94031e+12 -5.91186e+12 -3.689e+12 -5.79629e+12 -5.34293e+12 -5.30558e+12 -4.96921e+12 -5.69665e+12 -5.12344e+12 -5.24409e+12 -5.094e+12 -7.42989e+12 -6.84754e+12 -5.61085e+12 -5.70196e+12 -4.99654e+12 -5.16776e+12 -5.10254e+12 -5.00568e+12 -4.94963e+12 -4.92041e+12 -4.22771e+12 -4.46346e+12 -5.07042e+12 -3.56161e+12 -4.1626e+12 -4.24038e+12 -4.27468e+12 -4.29646e+12 -4.11767e+12 -4.10354e+12 -4.80399e+12 -3.94473e+12 -5.34264e+12 -5.42473e+12 -5.7109e+12 -5.64217e+12 -7.03097e+12 -5.22669e+12 -5.06576e+12 -7.41906e+12 -7.19527e+12 -6.37783e+12 -5.42477e+12 -5.20092e+12 -5.06924e+12 -4.98236e+12 -4.98106e+12 -5.07288e+12 -5.71769e+12 -3.62914e+12 -3.97523e+12 -4.89191e+12 -5.00064e+12 -5.00861e+12 -4.68298e+12 -3.82983e+12 -4.09943e+12 -4.27131e+12 -4.21807e+12 -4.53478e+12 -6.43687e+12 -5.83635e+12 -5.79566e+12 -5.29989e+12 -6.40784e+12 -6.89639e+12 -6.73184e+12 -5.06141e+12 -5.10835e+12 -5.24263e+12 -7.5002e+12 -7.25562e+12 -7.07655e+12 -6.97454e+12 -6.64805e+12 -6.03949e+12 -5.83403e+12 -5.38951e+12 -5.30243e+12 -5.15038e+12 -5.05743e+12 -5.01148e+12 -4.97863e+12 -4.97715e+12 -5.05061e+12 -5.12467e+12 -5.46836e+12 -5.51998e+12 -4.57389e+12 -4.8122e+12 -4.34555e+12 -4.21876e+12 -4.10534e+12 -4.95381e+12 -4.84664e+12 -5.25245e+12 -5.91841e+12 -5.9448e+12 -6.45147e+12 -4.63365e+12 -5.93311e+12 -6.62645e+12 -6.65241e+12 -6.64304e+12 -4.99409e+12 -4.79782e+12 -5.08911e+12 -7.78084e+12 -7.63345e+12 -7.33254e+12 -7.35142e+12 -7.05224e+12 -7.14537e+12 -6.89839e+12 -6.39758e+12 -6.11159e+12 -5.63503e+12 -5.14672e+12 -4.99361e+12 -5.00875e+12 -5.22093e+12 -5.57683e+12 -4.90499e+12 -4.64942e+12 -4.52828e+12 -4.33319e+12 -4.25797e+12 -4.18675e+12 -4.12472e+12 -4.81085e+12 -5.16709e+12 -5.81148e+12 -6.44089e+12 -6.89951e+12 -6.10811e+12 -6.78531e+12 -6.65388e+12 -6.57039e+12 -6.74431e+12 -6.28933e+12 -6.58907e+12 -4.50737e+12 -4.99412e+12 -5.05563e+12 -7.7127e+12 -7.3805e+12 -6.76896e+12 -7.32908e+12 -7.2249e+12 -7.29972e+12 -7.06568e+12 -6.61349e+12 -5.68447e+12 -5.34191e+12 -5.15542e+12 -5.03879e+12 -4.99016e+12 -5.09421e+12 -5.30907e+12 -5.20565e+12 -5.23665e+12 -4.84188e+12 -4.72243e+12 -4.56624e+12 -4.53302e+12 -4.38988e+12 -4.21959e+12 -4.62463e+12 -5.00506e+12 -5.35305e+12 -5.72019e+12 -5.98805e+12 -6.05984e+12 -6.18926e+12 -5.62262e+12 -6.30128e+12 -6.89457e+12 -6.36015e+12 -6.43271e+12 -6.64738e+12 -6.93358e+12 -4.3557e+12 -4.38109e+12 -4.94902e+12 -7.57128e+12 -7.47428e+12 -7.65312e+12 -7.01758e+12 -6.69914e+12 -7.11639e+12 -6.75837e+12 -6.65632e+12 -6.50681e+12 -6.10069e+12 -5.35717e+12 -5.04978e+12 -4.99619e+12 -5.00581e+12 -5.03105e+12 -5.04186e+12 -5.13657e+12 -5.08191e+12 -4.9506e+12 -4.63635e+12 -4.4273e+12 -4.26041e+12 -4.48667e+12 -4.78135e+12 -4.92333e+12 -5.14503e+12 -5.36837e+12 -5.80738e+12 -6.13085e+12 -6.00698e+12 -6.35345e+12 -6.73833e+12 -6.85282e+12 -6.65775e+12 -6.85986e+12 -6.96186e+12 -7.07605e+12 -7.05889e+12 -4.36358e+12 -4.90231e+12 -7.28527e+12 -7.44406e+12 -7.35737e+12 -7.2276e+12 -6.89965e+12 -7.14914e+12 -6.73118e+12 -6.27385e+12 -6.57996e+12 -6.5319e+12 -6.13101e+12 -5.71602e+12 -5.2889e+12 -5.15533e+12 -5.01169e+12 -4.99826e+12 -4.99102e+12 -4.9406e+12 -4.69425e+12 -4.51786e+12 -4.47396e+12 -4.35283e+12 -4.31642e+12 -4.28867e+12 -4.36018e+12 -4.43579e+12 -4.58414e+12 -4.71036e+12 -5.10133e+12 -5.57614e+12 -5.70733e+12 -5.90093e+12 -5.98903e+12 -5.96245e+12 -6.55293e+12 -6.87944e+12 -7.22209e+12 -6.87904e+12 -6.95756e+12 -7.05984e+12 -6.88539e+12 -7.08428e+12 -7.15269e+12 -4.09409e+12 -4.70151e+12 -4.91479e+12 -4.80704e+12 -7.11058e+12 -7.17823e+12 -7.07529e+12 -7.21263e+12 -7.06004e+12 -6.88405e+12 -6.60549e+12 -6.73354e+12 -6.98133e+12 -6.15705e+12 -5.98958e+12 -5.65322e+12 -5.08778e+12 -5.04877e+12 -4.98973e+12 -4.94646e+12 -4.94634e+12 -4.84372e+12 -4.88473e+12 -4.73276e+12 -4.73532e+12 -4.54279e+12 -4.38084e+12 -4.28639e+12 -4.33249e+12 -4.53663e+12 -4.85186e+12 -4.99183e+12 -5.26857e+12 -5.43097e+12 -5.83897e+12 -5.98042e+12 -6.10996e+12 -5.83405e+12 -5.14974e+12 -6.08315e+12 -6.82461e+12 -6.76832e+12 -6.8311e+12 -6.49799e+12 -6.78383e+12 -6.84725e+12 -6.76122e+12 -4.0216e+12 -4.14472e+12 -4.63227e+12 -7.27675e+12 -6.83332e+12 -6.99943e+12 -6.96721e+12 -6.91467e+12 -6.68096e+12 -6.72493e+12 -6.8938e+12 -5.75701e+12 -6.29003e+12 -5.81922e+12 -5.42009e+12 -5.03878e+12 -4.94163e+12 -4.98213e+12 -4.97548e+12 -4.83736e+12 -4.71423e+12 -4.55727e+12 -4.39564e+12 -4.28963e+12 -4.278e+12 -4.40961e+12 -4.49905e+12 -4.65251e+12 -4.741e+12 -5.13061e+12 -5.57746e+12 -5.71837e+12 -5.81247e+12 -6.30764e+12 -6.9817e+12 -6.0824e+12 -5.58471e+12 -6.469e+12 -6.82117e+12 -6.79404e+12 -6.0055e+12 -6.75313e+12 -6.81199e+12 -3.92015e+12 -4.58248e+12 -7.29736e+12 -7.39814e+12 -7.1865e+12 -6.25253e+12 -6.82887e+12 -6.84257e+12 -6.86948e+12 -6.73318e+12 -6.29876e+12 -5.70296e+12 -5.58168e+12 -5.87825e+12 -5.99505e+12 -5.70545e+12 -5.01075e+12 -3.66893e+12 -4.69327e+12 -4.99791e+12 -5.05429e+12 -4.99204e+12 -4.87836e+12 -4.86083e+12 -4.73634e+12 -4.7095e+12 -4.56304e+12 -4.55978e+12 -4.39927e+12 -4.39892e+12 -4.27309e+12 -4.28541e+12 -4.21694e+12 -4.24738e+12 -4.2516e+12 -4.31865e+12 -4.38547e+12 -4.57958e+12 -4.84506e+12 -4.97592e+12 -5.2826e+12 -5.43213e+12 -5.54071e+12 -6.05431e+12 -6.53449e+12 -6.75914e+12 -6.49561e+12 -6.6863e+12 -6.24528e+12 -6.79578e+12 -6.65906e+12 -6.97701e+12 -6.90411e+12 -6.11476e+12 -6.48575e+12 -6.63823e+12 -4.03429e+12 -4.11721e+12 -4.36215e+12 -4.48188e+12 -7.12596e+12 -7.30779e+12 -6.67304e+12 -6.68539e+12 -6.77206e+12 -6.68034e+12 -6.60942e+12 -6.58654e+12 -6.34215e+12 -6.88579e+12 -5.1278e+12 -6.33746e+12 -6.0316e+12 -5.7133e+12 -5.39545e+12 -6.09041e+12 -4.77477e+12 -4.86031e+12 -4.79386e+12 -4.58021e+12 -4.40187e+12 -4.2569e+12 -4.1809e+12 -4.1898e+12 -4.29157e+12 -4.45004e+12 -4.57752e+12 -4.64724e+12 -5.12419e+12 -5.21605e+12 -5.11587e+12 -5.57547e+12 -5.83871e+12 -6.0364e+12 -6.24235e+12 -6.26644e+12 -5.46471e+12 -6.72582e+12 -7.30328e+12 -7.16148e+12 -6.61133e+12 -6.52581e+12 -6.9726e+12 -7.09126e+12 -6.52257e+12 -6.59009e+12 -6.61067e+12 -4.11968e+12 -4.26451e+12 -6.81263e+12 -6.94485e+12 -6.85911e+12 -7.07308e+12 -6.81595e+12 -6.16333e+12 -6.54308e+12 -6.62875e+12 -6.55449e+12 -6.47655e+12 -6.5822e+12 -6.71535e+12 -6.8786e+12 -6.51241e+12 -5.99519e+12 -5.09372e+12 -4.47663e+12 -4.35567e+12 -4.64837e+12 -4.75109e+12 -4.63582e+12 -4.43176e+12 -4.41315e+12 -4.24379e+12 -4.14358e+12 -4.12673e+12 -4.19954e+12 -4.34952e+12 -4.39948e+12 -4.49691e+12 -4.30014e+12 -4.81412e+12 -5.03896e+12 -5.40234e+12 -5.72213e+12 -4.43259e+12 -5.01899e+12 -5.67258e+12 -6.08579e+12 -5.94675e+12 -6.5487e+12 -6.89846e+12 -6.78962e+12 -6.84415e+12 -6.93773e+12 -6.95262e+12 -6.96125e+12 -6.29562e+12 -6.33057e+12 -6.04924e+12 -3.75673e+12 -3.99164e+12 -4.13834e+12 -6.72068e+12 -6.6933e+12 -6.53245e+12 -6.66625e+12 -6.49145e+12 -6.49982e+12 -6.29094e+12 -6.4404e+12 -6.32816e+12 -6.42203e+12 -6.49801e+12 -5.9412e+12 -6.17263e+12 -6.30562e+12 -5.78977e+12 -5.41286e+12 -5.10269e+12 -5.44332e+12 -4.78469e+12 -4.82214e+12 -4.70215e+12 -4.96058e+12 -4.5132e+12 -4.25183e+12 -4.2399e+12 -4.07137e+12 -4.10646e+12 -4.00579e+12 -4.0626e+12 -4.01213e+12 -4.10356e+12 -4.11087e+12 -4.2405e+12 -4.306e+12 -4.45303e+12 -4.28995e+12 -4.49034e+12 -5.00388e+12 -6.56021e+12 -6.05382e+12 -5.87893e+12 -5.96398e+12 -5.93916e+12 -5.98742e+12 -6.23392e+12 -6.58274e+12 -6.63314e+12 -6.61299e+12 -6.67905e+12 -6.56244e+12 -6.56271e+12 -5.21004e+12 -6.4632e+12 -3.64708e+12 -3.2737e+12 -3.83805e+12 -6.60303e+12 -6.48354e+12 -6.56688e+12 -6.41225e+12 -6.3853e+12 -6.3404e+12 -6.26782e+12 -6.39677e+12 -6.19701e+12 -6.22056e+12 -6.19586e+12 -6.13041e+12 -6.05233e+12 -6.16184e+12 -5.77612e+12 -5.51238e+12 -5.23076e+12 -5.12297e+12 -5.72602e+12 -6.09849e+12 -6.30314e+12 -5.06172e+12 -4.53794e+12 -4.92243e+12 -4.69313e+12 -4.45153e+12 -4.25429e+12 -4.03998e+12 -3.94807e+12 -3.92673e+12 -3.9758e+12 -4.15672e+12 -4.37507e+12 -4.54436e+12 -3.81077e+12 -3.31995e+12 -4.39908e+12 -5.3884e+12 -5.95107e+12 -6.28527e+12 -6.03804e+12 -5.92348e+12 -5.90236e+12 -6.06372e+12 -5.97311e+12 -6.07771e+12 -6.33351e+12 -6.27619e+12 -6.32886e+12 -6.45963e+12 -6.12645e+12 -6.13591e+12 -5.98115e+12 -6.82864e+12 -6.28144e+12 -6.35355e+12 -5.92502e+12 -3.27462e+12 -3.65065e+12 -6.26391e+12 -6.46392e+12 -6.37148e+12 -6.29399e+12 -6.1534e+12 -6.27603e+12 -6.13426e+12 -6.24182e+12 -6.19184e+12 -6.19872e+12 -5.87541e+12 -6.03549e+12 -5.89224e+12 -5.76298e+12 -5.82537e+12 -5.78644e+12 -5.40526e+12 -5.37352e+12 -5.30606e+12 -5.29753e+12 -5.36699e+12 -5.88215e+12 -5.26475e+12 -3.08691e+12 -6.11936e+12 -5.04006e+12 -3.8215e+12 -4.00795e+12 -3.892e+12 -3.85305e+12 -3.87505e+12 -3.96292e+12 -3.95313e+12 -4.2599e+12 -4.42609e+12 -5.02943e+12 -2.83177e+12 -3.86308e+12 -4.90297e+12 -5.35429e+12 -5.64e+12 -5.86677e+12 -5.85497e+12 -5.83784e+12 -5.98163e+12 -5.94972e+12 -5.90603e+12 -5.95761e+12 -6.02904e+12 -5.808e+12 -5.92534e+12 -5.98592e+12 -6.23408e+12 -6.31424e+12 -6.54625e+12 -6.02535e+12 -5.9003e+12 -6.47411e+12 -6.21082e+12 -6.27921e+12 -3.32133e+12 -3.52798e+12 -6.17215e+12 -6.11163e+12 -5.88076e+12 -6.22571e+12 -6.00219e+12 -6.03299e+12 -6.04794e+12 -6.00887e+12 -6.15967e+12 -5.9337e+12 -5.73743e+12 -5.61012e+12 -5.91816e+12 -6.2391e+12 -4.43581e+12 -5.14781e+12 -5.30505e+12 -5.37587e+12 -5.43652e+12 -5.592e+12 -5.78592e+12 -4.51861e+12 -4.7317e+12 -4.87597e+12 -4.06818e+12 -3.67327e+12 -3.81893e+12 -3.7592e+12 -3.79252e+12 -3.66067e+12 -3.74522e+12 -3.68823e+12 -3.83592e+12 -3.86432e+12 -3.82539e+12 -2.83284e+12 -3.35797e+12 -4.43113e+12 -4.86053e+12 -5.16015e+12 -5.39813e+12 -5.61643e+12 -5.91404e+12 -5.94289e+12 -5.85922e+12 -5.85035e+12 -5.78883e+12 -5.42691e+12 -4.45907e+12 -5.57531e+12 -6.16983e+12 -6.27844e+12 -6.5795e+12 -6.88116e+12 -6.31718e+12 -6.36688e+12 -6.18765e+12 -6.26842e+12 -3.37743e+12 -3.37854e+12 -3.43101e+12 -3.46507e+12 -6.0946e+12 -6.03495e+12 -6.08086e+12 -5.99476e+12 -5.41353e+12 -5.02493e+12 -5.89491e+12 -6.01363e+12 -6.00249e+12 -5.92162e+12 -5.93516e+12 -5.94583e+12 -5.47772e+12 -5.27928e+12 -5.13405e+12 -5.59509e+12 -5.85671e+12 -5.39416e+12 -4.88092e+12 -5.25145e+12 -5.3287e+12 -5.36277e+12 -5.40432e+12 -5.4568e+12 -5.44746e+12 -5.16262e+12 -4.00284e+12 -2.90183e+12 -2.70945e+12 -3.79633e+12 -3.55312e+12 -3.53701e+12 -3.57712e+12 -4.00869e+12 -4.19702e+12 -5.46018e+12 -4.66351e+12 -3.48183e+12 -4.00424e+12 -4.43437e+12 -4.7457e+12 -4.9917e+12 -5.21362e+12 -5.68941e+12 -5.7859e+12 -5.89666e+12 -5.97576e+12 -5.84183e+12 -5.83258e+12 -5.6307e+12 -6.57887e+12 -5.71723e+12 -5.95865e+12 -6.17754e+12 -6.48568e+12 -6.6114e+12 -6.5897e+12 -6.38143e+12 -6.16463e+12 -6.08487e+12 -6.19223e+12 -3.3373e+12 -3.4097e+12 -6.0077e+12 -5.94637e+12 -5.99909e+12 -6.00726e+12 -5.95604e+12 -6.17485e+12 -5.61259e+12 -5.99315e+12 -6.06298e+12 -6.10846e+12 -3.41191e+12 -4.99424e+12 -5.33796e+12 -5.21027e+12 -5.03969e+12 -5.17526e+12 -5.20893e+12 -5.21678e+12 -5.2062e+12 -5.1525e+12 -4.9642e+12 -4.71202e+12 -4.70927e+12 -4.92687e+12 -3.88212e+12 -4.05686e+12 -2.94213e+12 -3.38408e+12 -3.50999e+12 -3.45731e+12 -3.59079e+12 -3.75986e+12 -4.11001e+12 -3.98548e+12 -4.21609e+12 -4.45379e+12 -4.66278e+12 -4.85444e+12 -5.41097e+12 -5.55481e+12 -5.70703e+12 -5.90454e+12 -6.11965e+12 -5.57502e+12 -5.73078e+12 -5.85684e+12 -5.55931e+12 -5.9415e+12 -6.06371e+12 -6.24224e+12 -6.33372e+12 -6.1034e+12 -6.00415e+12 -5.87919e+12 -5.979e+12 -6.06932e+12 -5.92519e+12 -3.26734e+12 -3.38681e+12 -5.7934e+12 -5.90895e+12 -5.83518e+12 -5.80199e+12 -5.92446e+12 -5.91319e+12 -6.16071e+12 -6.37995e+12 -6.55148e+12 -5.90903e+12 -5.76796e+12 -5.86522e+12 -6.32861e+12 -6.80773e+12 -5.78349e+12 -4.67236e+12 -5.27561e+12 -4.98534e+12 -5.03221e+12 -5.03459e+12 -5.00951e+12 -4.9516e+12 -4.83612e+12 -4.71729e+12 -4.6995e+12 -4.50559e+12 -4.36279e+12 -2.35208e+12 -3.47389e+12 -3.4569e+12 -3.28041e+12 -3.24893e+12 -3.25212e+12 -3.18002e+12 -3.15366e+12 -4.3815e+12 -4.51783e+12 -4.03529e+12 -3.9872e+12 -4.04709e+12 -4.23331e+12 -4.41454e+12 -5.03938e+12 -5.22089e+12 -5.38408e+12 -5.58249e+12 -5.90338e+12 -6.34623e+12 -5.06938e+12 -5.50304e+12 -5.99041e+12 -4.28369e+12 -5.30928e+12 -5.73995e+12 -5.96365e+12 -6.20996e+12 -6.05987e+12 -6.15112e+12 -5.89712e+12 -5.86307e+12 -5.75907e+12 -5.85066e+12 -5.76873e+12 -3.18167e+12 -3.26879e+12 -3.34991e+12 -5.71361e+12 -5.66277e+12 -5.80239e+12 -5.7947e+12 -5.95573e+12 -6.05135e+12 -6.13676e+12 -5.65203e+12 -5.65789e+12 -5.58049e+12 -6.04558e+12 -6.28608e+12 -5.79643e+12 -4.83561e+12 -5.11429e+12 -5.11637e+12 -5.12137e+12 -5.07721e+12 -4.83742e+12 -4.78911e+12 -4.71375e+12 -4.63894e+12 -4.59097e+12 -4.46452e+12 -4.33448e+12 -4.35554e+12 -3.70137e+12 -4.62985e+12 -2.92399e+12 -2.95083e+12 -2.44156e+12 -3.47485e+12 -3.66158e+12 -3.13068e+12 -3.25291e+12 -3.50287e+12 -3.7267e+12 -4.57067e+12 -4.71885e+12 -4.86486e+12 -4.99975e+12 -5.1114e+12 -5.20802e+12 -5.22194e+12 -3.76322e+12 -4.93612e+12 -5.32596e+12 -5.23186e+12 -6.49738e+12 -5.55197e+12 -5.67835e+12 -5.81278e+12 -5.739e+12 -5.92135e+12 -5.91714e+12 -5.63872e+12 -5.67929e+12 -5.62747e+12 -5.70618e+12 -5.5513e+12 -5.59966e+12 -3.08695e+12 -2.9998e+12 -3.02911e+12 -3.15617e+12 -5.41427e+12 -5.66977e+12 -5.5854e+12 -5.5169e+12 -5.65318e+12 -5.68242e+12 -5.64401e+12 -5.82699e+12 -5.79428e+12 -5.8245e+12 -5.56753e+12 -5.18461e+12 -5.63385e+12 -5.79342e+12 -5.52549e+12 -5.17359e+12 -4.91114e+12 -4.81817e+12 -4.92253e+12 -4.93798e+12 -4.93407e+12 -4.90147e+12 -4.85399e+12 -4.85953e+12 -4.5986e+12 -4.54776e+12 -4.49929e+12 -4.41457e+12 -4.3188e+12 -4.2593e+12 -4.02857e+12 -3.88368e+12 -3.41735e+12 -2.38237e+12 -3.25488e+12 -3.30224e+12 -2.42305e+12 -3.30775e+12 -3.87476e+12 -4.8937e+12 -4.94508e+12 -4.77195e+12 -4.53335e+12 -4.10387e+12 -4.31361e+12 -4.46725e+12 -4.59679e+12 -4.71905e+12 -4.83586e+12 -4.94321e+12 -5.02178e+12 -4.63102e+12 -4.66931e+12 -5.08821e+12 -5.38239e+12 -5.51353e+12 -5.9048e+12 -5.65072e+12 -5.65026e+12 -5.6491e+12 -5.78348e+12 -5.69518e+12 -5.6686e+12 -5.39772e+12 -5.43243e+12 -5.53395e+12 -5.40302e+12 -5.48709e+12 -5.37964e+12 -5.42255e+12 -2.91248e+12 -2.8814e+12 -5.24831e+12 -5.20036e+12 -5.54581e+12 -5.4534e+12 -5.37627e+12 -5.483e+12 -5.50408e+12 -5.6076e+12 -5.569e+12 -4.95414e+12 -3.60177e+12 -5.08664e+12 -5.34496e+12 -5.24659e+12 -5.12385e+12 -4.98406e+12 -4.78928e+12 -4.71097e+12 -4.74197e+12 -4.74197e+12 -4.73533e+12 -4.71677e+12 -4.69097e+12 -4.67783e+12 -4.6449e+12 -4.41921e+12 -4.35412e+12 -4.27549e+12 -4.19388e+12 -4.04808e+12 -3.92843e+12 -3.88278e+12 -3.34433e+12 -3.92659e+12 -3.05243e+12 -4.08592e+12 -1.84781e+12 -3.54626e+12 -1.79678e+12 -2.50616e+12 -3.15046e+12 -4.15859e+12 -4.65862e+12 -4.69296e+12 -4.23222e+12 -4.24074e+12 -4.31536e+12 -4.40242e+12 -4.49157e+12 -4.58224e+12 -4.66763e+12 -4.72763e+12 -4.6045e+12 -4.66666e+12 -4.68295e+12 -4.88021e+12 -5.09496e+12 -5.73046e+12 -5.60525e+12 -5.46736e+12 -5.51505e+12 -5.35456e+12 -5.4681e+12 -5.45165e+12 -5.16157e+12 -5.29281e+12 -5.25469e+12 -5.33222e+12 -5.13632e+12 -5.18769e+12 -5.23738e+12 -5.05331e+12 -2.82289e+12 -2.73722e+12 -5.0337e+12 -5.00956e+12 -5.32169e+12 -5.2283e+12 -5.32351e+12 -5.32506e+12 -5.40109e+12 -5.56695e+12 -5.41618e+12 -5.65698e+12 -5.17631e+12 -5.48185e+12 -5.1371e+12 -4.72831e+12 -4.92527e+12 -4.92485e+12 -4.86856e+12 -4.74735e+12 -4.60843e+12 -4.55208e+12 -4.54685e+12 -4.53277e+12 -4.53529e+12 -4.5351e+12 -4.5247e+12 -4.50965e+12 -4.49059e+12 -4.46077e+12 -4.14609e+12 -4.042e+12 -3.94792e+12 -3.88213e+12 -3.70397e+12 -3.94637e+12 -4.03727e+12 -3.7697e+12 -2.84168e+12 -3.81793e+12 -2.4415e+12 -3.31887e+12 -3.69322e+12 -3.7976e+12 -4.56412e+12 -4.38416e+12 -4.24906e+12 -4.24011e+12 -4.27313e+12 -4.32461e+12 -4.38218e+12 -4.43891e+12 -4.47716e+12 -4.43942e+12 -4.46611e+12 -4.48768e+12 -4.49146e+12 -4.56118e+12 -4.89624e+12 -5.17441e+12 -5.31277e+12 -5.20487e+12 -5.06285e+12 -5.49302e+12 -5.22808e+12 -5.1385e+12 -4.88886e+12 -5.04559e+12 -5.17771e+12 -4.94265e+12 -5.07654e+12 -4.97021e+12 -5.01387e+12 -4.85841e+12 -2.7276e+12 -2.61477e+12 -2.5879e+12 -4.52048e+12 -4.78373e+12 -4.76644e+12 -4.97204e+12 -5.07581e+12 -4.98932e+12 -5.15647e+12 -5.12559e+12 -5.15482e+12 -5.54821e+12 -5.41339e+12 -5.44774e+12 -5.23925e+12 -5.47502e+12 -6.14265e+12 -4.85791e+12 -4.94968e+12 -4.80873e+12 -4.70115e+12 -4.60691e+12 -4.50505e+12 -4.41104e+12 -4.36186e+12 -4.33776e+12 -4.31055e+12 -4.34186e+12 -4.36958e+12 -4.37733e+12 -4.39408e+12 -4.3867e+12 -4.35426e+12 -4.29727e+12 -4.22566e+12 -3.85303e+12 -3.75915e+12 -3.79433e+12 -3.79415e+12 -3.8434e+12 -3.29374e+12 -3.45421e+12 -3.18513e+12 -3.14927e+12 -4.14917e+12 -4.35289e+12 -4.36211e+12 -4.29535e+12 -4.22266e+12 -4.17422e+12 -4.17206e+12 -4.19346e+12 -4.22463e+12 -4.20992e+12 -4.18367e+12 -4.09522e+12 -5.09873e+12 -5.10295e+12 -4.88998e+12 -3.93751e+12 -5.21402e+12 -5.14615e+12 -4.17421e+12 -4.72611e+12 -4.94766e+12 -4.94866e+12 -4.78647e+12 -4.82185e+12 -4.60719e+12 -4.64443e+12 -2.47772e+12 -2.27631e+12 -2.43725e+12 -4.2451e+12 -4.50898e+12 -4.52206e+12 -4.77019e+12 -4.75251e+12 -4.7598e+12 -4.94367e+12 -4.9692e+12 -5.26808e+12 -5.39384e+12 -5.21443e+12 -5.46948e+12 -6.29977e+12 -4.02803e+12 -5.62793e+12 -4.74622e+12 -4.49943e+12 -4.49179e+12 -4.43576e+12 -4.38538e+12 -4.33105e+12 -4.26574e+12 -4.19996e+12 -4.15262e+12 -4.115e+12 -4.06338e+12 -4.16593e+12 -4.23508e+12 -4.3211e+12 -4.33709e+12 -4.30889e+12 -4.24999e+12 -4.17535e+12 -4.09481e+12 -4.00723e+12 -3.92422e+12 -3.48388e+12 -3.69628e+12 -3.84267e+12 -4.00739e+12 -4.10258e+12 -4.11438e+12 -4.09542e+12 -4.0726e+12 -4.06145e+12 -4.06872e+12 -4.25589e+12 -4.27655e+12 -4.26396e+12 -4.27468e+12 -4.28011e+12 -4.26306e+12 -3.20786e+12 -5.11244e+12 -4.95198e+12 -4.68431e+12 -6.33052e+12 -5.72415e+12 -5.85689e+12 -4.09732e+12 -4.89428e+12 -4.88402e+12 -4.86937e+12 -4.80094e+12 -4.77604e+12 -4.56189e+12 -4.5756e+12 -4.3774e+12 -4.42264e+12 -4.17064e+12 -2.32245e+12 -2.09242e+12 -3.91403e+12 -4.26566e+12 -4.32818e+12 -4.54882e+12 -4.50268e+12 -4.6867e+12 -4.65321e+12 -5.13846e+12 -5.49397e+12 -6.01989e+12 -4.06438e+12 -5.3009e+12 -5.10801e+12 -3.21259e+12 -4.10699e+12 -3.74148e+12 -4.02225e+12 -4.30353e+12 -4.33668e+12 -4.2942e+12 -4.21641e+12 -4.12661e+12 -4.0371e+12 -3.95115e+12 -3.87174e+12 -3.79988e+12 -3.72705e+12 -3.69875e+12 -3.66897e+12 -3.64694e+12 -3.46573e+12 -3.38404e+12 -3.25067e+12 -3.25771e+12 -3.32592e+12 -3.5182e+12 -3.66965e+12 -3.76942e+12 -3.85232e+12 -3.9051e+12 -3.92412e+12 -3.92701e+12 -4.08499e+12 -4.10114e+12 -4.11045e+12 -4.10559e+12 -4.11102e+12 -4.11494e+12 -4.10072e+12 -4.04428e+12 -3.89711e+12 -5.26481e+12 -4.98761e+12 -4.43208e+12 -5.53634e+12 -5.66513e+12 -5.80394e+12 -5.21356e+12 -5.48305e+12 -4.97387e+12 -4.76868e+12 -4.7489e+12 -4.63981e+12 -4.57899e+12 -4.32285e+12 -4.34382e+12 -4.15894e+12 -3.87835e+12 -2.15179e+12 -1.9753e+12 -1.87696e+12 -3.52689e+12 -3.58443e+12 -3.96232e+12 -4.04465e+12 -4.44849e+12 -4.72166e+12 -4.23844e+12 -4.15669e+12 -4.33738e+12 -4.81921e+12 -5.09544e+12 -5.47401e+12 -4.19397e+12 -5.00952e+12 -4.11515e+12 -4.15096e+12 -4.14776e+12 -4.12768e+12 -4.0899e+12 -4.03742e+12 -3.97944e+12 -3.9248e+12 -3.86674e+12 -4.43581e+12 -4.32815e+12 -4.20058e+12 -4.07865e+12 -3.97176e+12 -3.87912e+12 -3.79877e+12 -3.72698e+12 -3.66012e+12 -3.6114e+12 -3.5679e+12 -3.52693e+12 -3.434e+12 -3.36666e+12 -3.26018e+12 -3.23538e+12 -3.28354e+12 -3.37304e+12 -3.49704e+12 -3.5913e+12 -3.65362e+12 -3.70348e+12 -3.74035e+12 -3.92805e+12 -3.93414e+12 -3.94524e+12 -3.9555e+12 -3.96017e+12 -3.95842e+12 -3.96236e+12 -3.96993e+12 -3.97228e+12 -3.95824e+12 -3.90833e+12 -3.59855e+12 -4.44106e+12 -4.67969e+12 -4.37904e+12 -3.11348e+12 -5.34927e+12 -5.42062e+12 -5.49101e+12 -5.33334e+12 -5.30889e+12 -4.34871e+12 -4.50348e+12 -4.46972e+12 -4.37021e+12 -4.32765e+12 -4.06539e+12 -4.0988e+12 -3.90331e+12 -3.89033e+12 -3.55445e+12 -1.78929e+12 -1.34774e+12 -1.62114e+12 -2.6817e+12 -3.10692e+12 -3.15869e+12 -3.66982e+12 -4.17715e+12 -4.40185e+12 -5.2293e+12 -2.90423e+12 -3.65429e+12 -4.58576e+12 -4.79403e+12 -4.74695e+12 -5.25186e+12 -4.48494e+12 -4.49709e+12 -2.86258e+12 -3.66899e+12 -3.91435e+12 -3.92211e+12 -3.93236e+12 -3.92551e+12 -3.90187e+12 -3.86128e+12 -3.80584e+12 -3.73681e+12 -3.65002e+12 -3.51624e+12 -3.05643e+12 -4.3962e+12 -4.18849e+12 -4.02083e+12 -3.89256e+12 -3.79128e+12 -3.70852e+12 -3.63792e+12 -3.57407e+12 -3.5198e+12 -3.47093e+12 -3.42513e+12 -3.36346e+12 -3.30676e+12 -3.24013e+12 -3.19828e+12 -3.21241e+12 -3.27051e+12 -3.34762e+12 -3.4259e+12 -3.48446e+12 -3.76186e+12 -3.77552e+12 -3.78732e+12 -3.79871e+12 -3.80802e+12 -3.81262e+12 -3.81292e+12 -3.81654e+12 -3.82417e+12 -3.8317e+12 -3.83531e+12 -3.82899e+12 -3.76259e+12 -4.02076e+12 -4.16161e+12 -4.22492e+12 -3.98581e+12 -3.46785e+12 -4.89661e+12 -5.00617e+12 -5.12619e+12 -5.32441e+12 -4.46638e+12 -4.32931e+12 -4.1465e+12 -4.07661e+12 -3.7615e+12 -3.61161e+12 -3.56554e+12 -3.21898e+12 -3.20351e+12 -1.59268e+12 -1.05201e+12 -2.27247e+12 -2.68994e+12 -3.23491e+12 -3.34423e+12 -3.78359e+12 -3.94749e+12 -4.79864e+12 -4.88931e+12 -2.62084e+12 -4.02687e+12 -4.2351e+12 -4.25569e+12 -4.57745e+12 -4.10698e+12 -4.08992e+12 -3.56234e+12 -3.56005e+12 -3.66815e+12 -3.74719e+12 -3.74018e+12 -3.73493e+12 -3.715e+12 -3.68085e+12 -3.63299e+12 -3.56797e+12 -3.48096e+12 -3.35994e+12 -3.15868e+12 -2.75465e+12 -4.48657e+12 -4.38659e+12 -3.47419e+12 -3.42063e+12 -3.37139e+12 -3.3254e+12 -3.27633e+12 -3.22949e+12 -3.18135e+12 -3.14538e+12 -3.13798e+12 -3.52736e+12 -3.56321e+12 -3.59261e+12 -3.61467e+12 -3.63192e+12 -3.64577e+12 -3.6563e+12 -3.66272e+12 -3.66549e+12 -3.66941e+12 -3.67639e+12 -3.68431e+12 -3.6908e+12 -3.69502e+12 -3.6873e+12 -3.81356e+12 -3.86406e+12 -3.89273e+12 -3.88e+12 -3.84966e+12 -3.46588e+12 -4.29217e+12 -4.53057e+12 -4.70734e+12 -4.6669e+12 -2.93047e+12 -5.31847e+12 -4.69786e+12 -3.97451e+12 -3.77971e+12 -3.73126e+12 -3.22155e+12 -3.64423e+12 -3.26886e+12 -2.84952e+12 -2.82398e+12 -2.41228e+12 -1.38094e+12 -1.22862e+12 -1.83767e+12 -2.23665e+12 -2.12494e+12 -2.69018e+12 -2.82118e+12 -3.47865e+12 -3.60684e+12 -4.13566e+12 -4.17123e+12 -3.77222e+12 -3.50892e+12 -3.75841e+12 -3.83135e+12 -4.18624e+12 -4.06164e+12 -3.7995e+12 -3.59805e+12 -3.57765e+12 -3.5064e+12 -3.53645e+12 -3.56027e+12 -3.55064e+12 -3.53235e+12 -3.50258e+12 -3.46225e+12 -3.40757e+12 -3.33326e+12 -3.23439e+12 -3.10002e+12 -2.9449e+12 -2.5988e+12 -4.34494e+12 -4.1561e+12 -3.93521e+12 -3.7879e+12 -3.68365e+12 -3.60154e+12 -3.53371e+12 -3.16723e+12 -3.21927e+12 -3.27591e+12 -3.32678e+12 -3.36679e+12 -3.39942e+12 -3.42815e+12 -3.45288e+12 -3.47323e+12 -3.4894e+12 -3.50161e+12 -3.51005e+12 -3.5153e+12 -3.52e+12 -3.52639e+12 -3.5344e+12 -3.54203e+12 -3.54924e+12 -3.55842e+12 -3.62275e+12 -3.66042e+12 -3.67091e+12 -3.67948e+12 -3.71941e+12 -3.71871e+12 -3.65629e+12 -3.99179e+12 -4.1228e+12 -4.11608e+12 -3.8444e+12 -4.78197e+12 -4.74064e+12 -4.2904e+12 -3.45336e+12 -3.2258e+12 -3.40851e+12 -3.3638e+12 -3.0979e+12 -2.92553e+12 -2.48492e+12 -2.42648e+12 -2.00387e+12 -1.17237e+12 -1.00077e+12 -1.09751e+12 -2.20301e+12 -2.43718e+12 -2.71983e+12 -1.69798e+12 -1.64417e+12 -2.05853e+12 -2.9955e+12 -3.12033e+12 -3.61416e+12 -3.45412e+12 -3.12262e+12 -3.38998e+12 -3.46022e+12 -3.81819e+12 -3.76296e+12 -3.65623e+12 -3.47675e+12 -3.44954e+12 -3.40752e+12 -3.36762e+12 -3.36963e+12 -3.37117e+12 -3.35375e+12 -3.32813e+12 -3.29494e+12 -3.25151e+12 -3.19313e+12 -3.11729e+12 -3.02428e+12 -2.92231e+12 -2.80858e+12 -2.57727e+12 -3.98418e+12 -3.78944e+12 -3.64373e+12 -3.54954e+12 -3.47767e+12 -3.41616e+12 -3.36241e+12 -3.31314e+12 -3.26653e+12 -3.22255e+12 -3.17966e+12 -3.13928e+12 -3.10102e+12 -3.07059e+12 -3.05698e+12 -3.06669e+12 -3.09775e+12 -3.13869e+12 -3.17895e+12 -3.21434e+12 -3.24441e+12 -3.27077e+12 -3.29455e+12 -3.31521e+12 -3.33238e+12 -3.34582e+12 -3.3558e+12 -3.58656e+12 -3.70337e+12 -3.72546e+12 -3.61455e+12 -2.86474e+12 -4.06084e+12 -4.00555e+12 -3.72274e+12 -2.72748e+12 -2.02487e+12 -4.06643e+12 -3.43646e+12 -2.6309e+12 -1.9523e+12 -1.95563e+12 -1.63148e+12 -950717000000.0 -760578000000.0 -938920000000.0 -1.86826e+12 -2.28684e+12 -3.04568e+12 -1.66535e+12 -2.02839e+12 -2.5089e+12 -2.67727e+12 -3.1795e+12 -3.10157e+12 -3.31007e+12 -3.0416e+12 -3.09611e+12 -3.4697e+12 -3.45307e+12 -3.41121e+12 -3.33655e+12 -3.27995e+12 -3.25385e+12 -3.22577e+12 -3.19987e+12 -3.18953e+12 -3.17814e+12 -3.15717e+12 -3.13106e+12 -3.45436e+12 -3.43338e+12 -3.38478e+12 -3.33588e+12 -3.28745e+12 -3.24114e+12 -3.1977e+12 -3.15546e+12 -3.11469e+12 -3.07583e+12 -3.03979e+12 -3.007e+12 -2.98034e+12 -2.96471e+12 -2.96458e+12 -2.98059e+12 -3.00783e+12 -3.03869e+12 -3.06815e+12 -3.09477e+12 -3.11871e+12 -3.14039e+12 -3.1599e+12 -3.363e+12 -3.36883e+12 -3.37488e+12 -3.38233e+12 -3.39059e+12 -3.39864e+12 -3.40985e+12 -3.44542e+12 -3.47093e+12 -3.48067e+12 -3.48759e+12 -3.51981e+12 -3.5556e+12 -3.59065e+12 -3.43527e+12 -3.44511e+12 -3.32735e+12 -3.76229e+12 -3.48768e+12 -3.38301e+12 -3.1119e+12 -1.68003e+12 -3.53157e+12 -2.97241e+12 -2.0065e+12 -1.28194e+12 -1.42909e+12 -1.80013e+12 -829044000000.0 -566666000000.0 -1.5106e+12 -1.89642e+12 -2.49857e+12 -2.70337e+12 -3.29805e+12 -3.3615e+12 -2.36067e+12 -2.75857e+12 -2.77398e+12 -2.98424e+12 -2.86585e+12 -2.72623e+12 -3.12083e+12 -3.13126e+12 -3.13336e+12 -3.11715e+12 -3.09619e+12 -3.09781e+12 -3.05418e+12 -2.99899e+12 -2.93527e+12 -2.8703e+12 -2.80979e+12 -2.76973e+12 -2.75616e+12 -3.14784e+12 -3.19185e+12 -3.17898e+12 -3.14899e+12 -3.11266e+12 -3.07545e+12 -3.03827e+12 -3.00136e+12 -2.96591e+12 -2.93317e+12 -2.90381e+12 -2.87948e+12 -2.86306e+12 -2.85748e+12 -2.86398e+12 -2.88054e+12 -2.90274e+12 -2.92635e+12 -2.94907e+12 -3.17674e+12 -3.19051e+12 -3.20129e+12 -3.20965e+12 -3.21653e+12 -3.22272e+12 -3.22926e+12 -3.2371e+12 -3.24567e+12 -3.25542e+12 -3.27507e+12 -3.29192e+12 -3.29893e+12 -3.30355e+12 -3.32136e+12 -3.35211e+12 -3.38879e+12 -3.41536e+12 -3.41105e+12 -3.20156e+12 -3.4181e+12 -3.43375e+12 -3.00991e+12 -2.84382e+12 -2.47614e+12 -3.99652e+12 -2.73791e+12 -2.2206e+12 -1.2348e+12 -1.20775e+12 -2.26978e+12 -1.99554e+12 -1.61426e+12 -1.59804e+12 -1.31701e+12 -674482000000.0 -514542000000.0 -362614000000.0 -1.14681e+12 -1.51062e+12 -1.52418e+12 -1.97443e+12 -2.09765e+12 -2.8048e+12 -2.72075e+12 -2.38071e+12 -2.42621e+12 -2.41073e+12 -2.6868e+12 -2.46972e+12 -2.75367e+12 -2.7954e+12 -2.83166e+12 -2.85517e+12 -3.07192e+12 -3.05711e+12 -3.03783e+12 -3.01815e+12 -3.00411e+12 -2.98925e+12 -2.96969e+12 -2.94519e+12 -2.91402e+12 -2.87527e+12 -2.83127e+12 -2.78881e+12 -2.75347e+12 -2.7353e+12 -2.75658e+12 -2.80985e+12 -2.97045e+12 -3.00425e+12 -2.99859e+12 -2.97566e+12 -2.94656e+12 -2.91524e+12 -2.88257e+12 -2.85038e+12 -2.8204e+12 -2.79358e+12 -2.77094e+12 -2.75424e+12 -2.97019e+12 -2.98967e+12 -3.00746e+12 -3.02327e+12 -3.0367e+12 -3.0476e+12 -3.05639e+12 -3.06378e+12 -3.07033e+12 -3.07639e+12 -3.08294e+12 -3.09086e+12 -3.09959e+12 -3.11078e+12 -3.12038e+12 -3.1246e+12 -3.125e+12 -3.13101e+12 -3.147e+12 -3.17111e+12 -3.19277e+12 -3.1997e+12 -3.17904e+12 -3.18414e+12 -3.09765e+12 -3.0559e+12 -2.60075e+12 -2.37828e+12 -1.71161e+12 -3.39226e+12 -3.22604e+12 -1.57423e+12 -2.94921e+12 -2.81492e+12 -2.55379e+12 -1.73022e+12 -1.2822e+12 -989998000000.0 -329672000000.0 -145463000000.0 -780723000000.0 -764358000000.0 -1.13257e+12 -1.11244e+12 -1.55254e+12 -2.18363e+12 -2.12058e+12 -2.61068e+12 -2.26158e+12 -2.29861e+12 -2.3806e+12 -2.26668e+12 -2.36144e+12 -2.35554e+12 -2.43136e+12 -2.50964e+12 -2.57033e+12 -2.87009e+12 -2.87447e+12 -2.87074e+12 -2.8637e+12 -2.85086e+12 -2.83656e+12 -2.82417e+12 -2.81038e+12 -2.79293e+12 -2.77133e+12 -2.74532e+12 -2.7159e+12 -2.68718e+12 -2.66473e+12 -2.65293e+12 -2.66169e+12 -2.69082e+12 -2.73061e+12 -2.80776e+12 -2.74546e+12 -2.74578e+12 -2.75461e+12 -2.76951e+12 -2.78747e+12 -2.80616e+12 -2.82434e+12 -2.8415e+12 -2.85746e+12 -2.87198e+12 -2.88469e+12 -2.89532e+12 -2.90401e+12 -2.91138e+12 -2.91799e+12 -2.92397e+12 -2.92957e+12 -2.93587e+12 -2.94327e+12 -2.95062e+12 -2.95499e+12 -2.95597e+12 -2.95388e+12 -2.95194e+12 -2.95409e+12 -2.96019e+12 -2.96561e+12 -2.96871e+12 -2.96083e+12 -2.94037e+12 -2.97019e+12 -3.07448e+12 -2.76099e+12 -2.69979e+12 -2.27937e+12 -2.03006e+12 -2.53483e+12 -2.66864e+12 -2.41355e+12 -2.17941e+12 -2.04664e+12 -1.88473e+12 -1.27587e+12 -975467000000.0 -699999000000.0 -105457000000.0 -404986000000.0 -404975000000.0 -728926000000.0 -1.0786e+12 -1.60316e+12 -1.58668e+12 -1.98529e+12 -2.09585e+12 -2.05858e+12 -2.24411e+12 -2.05781e+12 -2.02523e+12 -1.69191e+12 -1.87556e+12 -2.03839e+12 -2.16063e+12 -2.61932e+12 -2.65337e+12 -2.67377e+12 -2.68123e+12 -2.67982e+12 -2.67231e+12 -2.66265e+12 -2.65268e+12 -2.64092e+12 -2.62655e+12 -2.60981e+12 -2.59114e+12 -2.5722e+12 -2.55684e+12 -2.54891e+12 -2.55114e+12 -2.56481e+12 -2.58477e+12 -2.83151e+12 -2.82741e+12 -2.80933e+12 -2.78529e+12 -2.75786e+12 -2.72934e+12 -2.70203e+12 -2.67732e+12 -2.65611e+12 -2.63956e+12 -2.62901e+12 -2.62536e+12 -2.62867e+12 -2.63778e+12 -2.65065e+12 -2.66535e+12 -2.68053e+12 -2.69538e+12 -2.70947e+12 -2.72254e+12 -2.73432e+12 -2.74449e+12 -2.75293e+12 -2.75998e+12 -2.76621e+12 -2.77195e+12 -2.77712e+12 -2.78203e+12 -2.78754e+12 -2.79299e+12 -2.79509e+12 -2.79312e+12 -2.78851e+12 -2.78182e+12 -2.77459e+12 -2.7673e+12 -2.75519e+12 -2.73786e+12 -2.72265e+12 -2.71446e+12 -2.72547e+12 -2.77752e+12 -2.78967e+12 -2.38196e+12 -2.01626e+12 -2.15465e+12 -2.21447e+12 -2.26496e+12 -2.22934e+12 -2.75823e+12 -1.28333e+12 -1.29036e+12 -1.29293e+12 -928008000000.0 -737048000000.0 -580221000000.0 -182894000000.0 -373507000000.0 -668173000000.0 -548479000000.0 -1.02339e+12 -1.02785e+12 -1.52376e+12 -1.85238e+12 -1.821e+12 -2.00541e+12 -1.43245e+12 -2.20452e+12 -1.20653e+12 -1.60816e+12 -1.81925e+12 -2.26376e+12 -2.35339e+12 -2.41884e+12 -2.46484e+12 -2.49215e+12 -2.50351e+12 -2.50533e+12 -2.50191e+12 -2.496e+12 -2.48877e+12 -2.4801e+12 -2.47018e+12 -2.45931e+12 -2.44801e+12 -2.43798e+12 -2.4319e+12 -2.61354e+12 -2.65325e+12 -2.66724e+12 -2.66255e+12 -2.64771e+12 -2.62681e+12 -2.60273e+12 -2.57839e+12 -2.5557e+12 -2.53585e+12 -2.51973e+12 -2.50834e+12 -2.50233e+12 -2.50184e+12 -2.50648e+12 -2.51507e+12 -2.52609e+12 -2.53831e+12 -2.55085e+12 -2.56309e+12 -2.57468e+12 -2.58538e+12 -2.5949e+12 -2.5916e+12 -2.5688e+12 -2.53307e+12 -2.4844e+12 -2.43047e+12 -2.54123e+12 -2.47145e+12 -2.50188e+12 -2.49036e+12 -2.44765e+12 -1.85418e+12 -1.84151e+12 -1.83867e+12 -1.98241e+12 -2.16564e+12 -420504000000.0 -769010000000.0 -832158000000.0 -488675000000.0 -303151000000.0 -195066000000.0 -293263000000.0 -1.02341e+12 -891301000000.0 -1.49389e+12 -1.50762e+12 -1.86774e+12 -2.0242e+12 -1.68394e+12 -1.99116e+12 -1.16037e+12 -1.92294e+12 -2.07895e+12 -2.17925e+12 -2.24745e+12 -2.29369e+12 -2.32098e+12 -2.33377e+12 -2.3381e+12 -2.33799e+12 -2.43189e+12 -2.43805e+12 -2.44847e+12 -2.46281e+12 -2.48154e+12 -2.50182e+12 -2.50825e+12 -2.50283e+12 -2.48916e+12 -2.47038e+12 -2.44961e+12 -2.42927e+12 -2.41081e+12 -2.39532e+12 -2.38362e+12 -2.3763e+12 -2.37342e+12 -2.37478e+12 -2.37988e+12 -2.38773e+12 -2.39723e+12 -2.60302e+12 -2.60976e+12 -2.61551e+12 -2.6207e+12 -2.62543e+12 -2.62953e+12 -2.63333e+12 -2.63701e+12 -2.63841e+12 -2.63527e+12 -2.62857e+12 -2.61954e+12 -2.60728e+12 -2.18944e+12 -2.45452e+12 -2.42071e+12 -2.16544e+12 -2.22311e+12 -2.20227e+12 -2.1572e+12 -2.09711e+12 -1.8605e+12 -1.41971e+12 -1.38565e+12 -1.27304e+12 -1.3484e+12 -342089000000.0 -141321000000.0 -570037000000.0 -469992000000.0 -1.10068e+12 -1.55649e+12 -1.67722e+12 -951967000000.0 -1.20853e+12 -1.90301e+12 -1.49525e+12 -1.71785e+12 -1.82567e+12 -1.94961e+12 -2.03174e+12 -2.09127e+12 -2.33553e+12 -2.33186e+12 -2.32745e+12 -2.32245e+12 -2.31695e+12 -2.31166e+12 -2.30782e+12 -2.30692e+12 -2.30984e+12 -2.31543e+12 -2.32281e+12 -2.33215e+12 -2.34284e+12 -2.35204e+12 -2.35317e+12 -2.34602e+12 -2.33254e+12 -2.31578e+12 -2.29814e+12 -2.40754e+12 -2.41799e+12 -2.42813e+12 -2.43767e+12 -2.44639e+12 -2.45406e+12 -2.46054e+12 -2.4659e+12 -2.4705e+12 -2.47462e+12 -2.47815e+12 -2.48087e+12 -2.4829e+12 -2.48355e+12 -2.4806e+12 -2.47304e+12 -2.46235e+12 -2.44833e+12 -2.42907e+12 -2.40263e+12 -2.36357e+12 -2.30242e+12 -2.32006e+12 -2.32021e+12 -1.93126e+12 -1.97647e+12 -1.93933e+12 -1.891e+12 -1.83862e+12 -1.55141e+12 -1.48548e+12 -693024000000.0 -578667000000.0 -332240000000.0 -261419000000.0 -285714000000.0 -465395000000.0 -1.19684e+12 -1.26804e+12 -1.9129e+12 -329428000000.0 -1.12444e+12 -1.42544e+12 -1.59668e+12 -1.74432e+12 -1.82574e+12 -2.13184e+12 -2.15612e+12 -2.16935e+12 -2.17627e+12 -2.17968e+12 -2.18119e+12 -2.1818e+12 -2.1818e+12 -2.18107e+12 -2.17981e+12 -2.17863e+12 -2.17824e+12 -2.17993e+12 -2.18334e+12 -2.18745e+12 -2.19197e+12 -2.19651e+12 -2.20132e+12 -2.28146e+12 -2.26683e+12 -2.25514e+12 -2.24711e+12 -2.24285e+12 -2.24208e+12 -2.24453e+12 -2.24971e+12 -2.25684e+12 -2.2651e+12 -2.27385e+12 -2.28261e+12 -2.29101e+12 -2.29883e+12 -2.3059e+12 -2.31205e+12 -2.31716e+12 -2.32134e+12 -2.32485e+12 -2.32777e+12 -2.32984e+12 -2.33078e+12 -2.33042e+12 -2.32768e+12 -2.32064e+12 -2.3091e+12 -2.29405e+12 -2.27427e+12 -2.24757e+12 -2.21198e+12 -2.16329e+12 -2.06309e+12 -2.36546e+12 -1.73258e+12 -1.74981e+12 -1.69181e+12 -1.63076e+12 -1.5995e+12 -1.19596e+12 -1.04605e+12 -1.01366e+12 -442947000000.0 -89860100000.0 -331546000000.0 -141857000000.0 -853295000000.0 -881040000000.0 -1.4232e+12 -1.83228e+12 -1.45495e+12 -1.66847e+12 -1.09882e+12 -1.34136e+12 -1.48339e+12 -1.8897e+12 -1.93859e+12 -1.97278e+12 -1.99499e+12 -2.00948e+12 -2.01941e+12 -2.02684e+12 -2.0329e+12 -2.03798e+12 -2.04166e+12 -2.04403e+12 -2.04555e+12 -2.04665e+12 -2.04834e+12 -2.05117e+12 -2.05393e+12 -2.05619e+12 -2.05768e+12 -2.20335e+12 -2.19988e+12 -2.19071e+12 -2.17761e+12 -2.16252e+12 -2.14771e+12 -2.1345e+12 -2.12329e+12 -2.11491e+12 -2.10987e+12 -2.10787e+12 -2.10853e+12 -2.11163e+12 -2.11674e+12 -2.12322e+12 -2.13043e+12 -2.13787e+12 -2.14518e+12 -2.15211e+12 -2.15848e+12 -2.16416e+12 -2.169e+12 -2.17291e+12 -2.176e+12 -2.1784e+12 -2.17996e+12 -2.18032e+12 -2.17918e+12 -2.17618e+12 -2.16996e+12 -2.15895e+12 -2.14323e+12 -2.12304e+12 -2.09703e+12 -2.06385e+12 -2.02391e+12 -1.95136e+12 -2.24611e+12 -2.10691e+12 -2.12685e+12 -2.13825e+12 -1.54247e+12 -1.4472e+12 -1.35897e+12 -1.30683e+12 -915796000000.0 -933126000000.0 -587999000000.0 -20920900000.0 -113367000000.0 -97947600000.0 -665260000000.0 -834261000000.0 -981165000000.0 -1.98637e+12 -885250000000.0 -1.24532e+12 -1.43705e+12 -1.10254e+12 -1.63241e+12 -1.69395e+12 -1.74608e+12 -1.78559e+12 -1.81479e+12 -1.8365e+12 -1.85341e+12 -1.86747e+12 -1.87988e+12 -1.89085e+12 -1.89945e+12 -1.90556e+12 -1.90985e+12 -1.91288e+12 -1.91531e+12 -2.05856e+12 -2.05816e+12 -2.05457e+12 -2.04726e+12 -2.03652e+12 -2.02352e+12 -2.00989e+12 -1.99801e+12 -1.9881e+12 -1.97993e+12 -1.97441e+12 -1.97179e+12 -1.97149e+12 -1.97315e+12 -1.97663e+12 -1.98158e+12 -1.98746e+12 -1.99373e+12 -2.00002e+12 -2.00608e+12 -2.01174e+12 -2.01684e+12 -2.02129e+12 -2.01085e+12 -1.99576e+12 -1.97511e+12 -1.9485e+12 -1.91567e+12 -1.87636e+12 -1.80496e+12 -2.10117e+12 -2.10002e+12 -1.85134e+12 -1.9098e+12 -1.91149e+12 -1.55738e+12 -1.02254e+12 -1.0878e+12 -883004000000.0 -431625000000.0 -324832000000.0 -520470000000.0 -419557000000.0 -724925000000.0 -1.06721e+12 -1.20198e+12 -1.27127e+12 -1.37683e+12 -1.50271e+12 -1.55804e+12 -1.59944e+12 -1.62975e+12 -1.65636e+12 -1.67995e+12 -1.70131e+12 -1.72141e+12 -1.9183e+12 -1.92113e+12 -1.92264e+12 -1.9227e+12 -1.92159e+12 -1.91936e+12 -1.91328e+12 -1.90523e+12 -1.8944e+12 -1.88211e+12 -1.86939e+12 -1.85763e+12 -1.84905e+12 -1.84215e+12 -1.83671e+12 -1.8337e+12 -1.83299e+12 -1.83392e+12 -1.83629e+12 -2.02497e+12 -2.0278e+12 -2.02982e+12 -2.03101e+12 -2.03106e+12 -2.02959e+12 -2.02631e+12 -2.02058e+12 -1.95142e+12 -1.94605e+12 -1.94997e+12 -1.62663e+12 -1.69492e+12 -1.66881e+12 -1.39901e+12 -1.34313e+12 -1.1672e+12 -946900000000.0 -208990000000.0 -453315000000.0 -326832000000.0 -1.20768e+12 -1.66805e+12 -1.11907e+12 -1.2419e+12 -1.30998e+12 -1.38258e+12 -1.4216e+12 -1.74008e+12 -1.75455e+12 -1.76504e+12 -1.77231e+12 -1.77749e+12 -1.78133e+12 -1.78491e+12 -1.78835e+12 -1.79016e+12 -1.78985e+12 -1.78814e+12 -1.7856e+12 -1.77888e+12 -1.76667e+12 -1.75385e+12 -1.73936e+12 -1.84001e+12 -1.84474e+12 -1.84999e+12 -1.85536e+12 -1.86062e+12 -1.86557e+12 -1.87008e+12 -1.87404e+12 -1.87737e+12 -1.87997e+12 -1.88176e+12 -1.8827e+12 -1.88259e+12 -1.8811e+12 -1.87785e+12 -1.87245e+12 -1.864e+12 -1.85085e+12 -1.83158e+12 -1.80507e+12 -1.77029e+12 -1.72949e+12 -1.65273e+12 -1.73844e+12 -1.75077e+12 -1.44844e+12 -1.49527e+12 -1.42633e+12 -1.23402e+12 -1.18133e+12 -921704000000.0 -844090000000.0 -972776000000.0 -231472000000.0 -273109000000.0 -597326000000.0 -1.10369e+12 -1.32959e+12 -732890000000.0 -957614000000.0 -1.01288e+12 -1.11949e+12 -1.19559e+12 -1.23116e+12 -1.44762e+12 -1.46772e+12 -1.49609e+12 -1.52578e+12 -1.55542e+12 -1.58568e+12 -1.60738e+12 -1.62276e+12 -1.63354e+12 -1.64111e+12 -1.64664e+12 -1.65107e+12 -1.65528e+12 -1.65821e+12 -1.65835e+12 -1.65664e+12 -1.65473e+12 -1.64932e+12 -1.63717e+12 -1.72701e+12 -1.71463e+12 -1.70602e+12 -1.7009e+12 -1.69668e+12 -1.69371e+12 -1.69287e+12 -1.69364e+12 -1.69546e+12 -1.69832e+12 -1.70213e+12 -1.70653e+12 -1.71111e+12 -1.71561e+12 -1.7199e+12 -1.72382e+12 -1.72725e+12 -1.73014e+12 -1.73242e+12 -1.73397e+12 -1.73472e+12 -1.73453e+12 -1.73316e+12 -1.73024e+12 -1.72539e+12 -1.71808e+12 -1.70721e+12 -1.69111e+12 -1.6678e+12 -1.63435e+12 -1.588e+12 -1.50834e+12 -1.79028e+12 -1.76904e+12 -1.32001e+12 -1.30973e+12 -1.21117e+12 -1.04452e+12 -1.03372e+12 -830183000000.0 -504620000000.0 -95214300000.0 -375887000000.0 -610741000000.0 -988057000000.0 -1.06423e+12 -762989000000.0 -874968000000.0 -866706000000.0 -1.26075e+12 -1.27579e+12 -1.28412e+12 -1.29259e+12 -1.33447e+12 -1.37736e+12 -1.42821e+12 -1.45955e+12 -1.48003e+12 -1.49413e+12 -1.5041e+12 -1.51144e+12 -1.51716e+12 -1.52225e+12 -1.52636e+12 -1.52771e+12 -1.52685e+12 -1.52544e+12 -1.6165e+12 -1.59759e+12 -1.58256e+12 -1.56963e+12 -1.56003e+12 -1.55559e+12 -1.55356e+12 -1.55177e+12 -1.55117e+12 -1.55207e+12 -1.55386e+12 -1.55634e+12 -1.55953e+12 -1.56325e+12 -1.56718e+12 -1.57102e+12 -1.57467e+12 -1.57801e+12 -1.58091e+12 -1.5833e+12 -1.58515e+12 -1.58638e+12 -1.5869e+12 -1.5866e+12 -1.58535e+12 -1.58287e+12 -1.57882e+12 -1.57274e+12 -1.56397e+12 -1.55145e+12 -1.53353e+12 -1.50723e+12 -1.46573e+12 -1.36986e+12 -1.61967e+12 -1.5885e+12 -1.53243e+12 -1.44335e+12 -1.51244e+12 -1.0213e+12 -800675000000.0 -899368000000.0 -578284000000.0 -752879000000.0 -220083000000.0 -318002000000.0 -518785000000.0 -768212000000.0 -787747000000.0 -739146000000.0 -1.09006e+12 -1.12232e+12 -1.12337e+12 -1.12049e+12 -1.11153e+12 -1.10041e+12 -1.09295e+12 -1.1794e+12 -1.27168e+12 -1.31441e+12 -1.33908e+12 -1.35537e+12 -1.36712e+12 -1.37611e+12 -1.52232e+12 -1.51218e+12 -1.49123e+12 -1.46098e+12 -1.43601e+12 -1.41908e+12 -1.41178e+12 -1.40712e+12 -1.40687e+12 -1.40737e+12 -1.40779e+12 -1.40918e+12 -1.41133e+12 -1.41386e+12 -1.4168e+12 -1.4201e+12 -1.42353e+12 -1.42683e+12 -1.42988e+12 -1.43264e+12 -1.39841e+12 -1.38186e+12 -1.35839e+12 -1.28961e+12 -1.44497e+12 -1.41282e+12 -1.36082e+12 -1.29348e+12 -1.23322e+12 -1.27152e+12 -1.18043e+12 -1.1272e+12 -703960000000.0 -733982000000.0 -41656200000.0 -80311800000.0 -970625000000.0 -841731000000.0 -1.03304e+12 -1.01719e+12 -987365000000.0 -954683000000.0 -1.38326e+12 -1.38925e+12 -1.39463e+12 -1.3981e+12 -1.39839e+12 -1.39718e+12 -1.39617e+12 -1.38978e+12 -1.3716e+12 -1.3472e+12 -1.29524e+12 -1.25646e+12 -1.25515e+12 -1.25528e+12 -1.25722e+12 -1.26045e+12 -1.43501e+12 -1.43688e+12 -1.43822e+12 -1.43902e+12 -1.4392e+12 -1.43869e+12 -1.43742e+12 -1.43529e+12 -1.43203e+12 -1.42724e+12 -1.42037e+12 -1.41088e+12 -1.28041e+12 -1.18344e+12 -1.18904e+12 -1.14412e+12 -1.09899e+12 -1.11527e+12 -1.05006e+12 -1.02181e+12 -937500000000.0 -811508000000.0 -817174000000.0 -61610400000.0 -150510000000.0 -181718000000.0 -553021000000.0 -795856000000.0 -639597000000.0 -696825000000.0 -681730000000.0 -617674000000.0 -967639000000.0 -866450000000.0 -918694000000.0 -886911000000.0 -808371000000.0 -1.14805e+12 -1.18386e+12 -1.20476e+12 -1.21935e+12 -1.23097e+12 -1.24079e+12 -1.24925e+12 -1.25664e+12 -1.26313e+12 -1.26841e+12 -1.27094e+12 -1.27075e+12 -1.26962e+12 -1.26709e+12 -1.25715e+12 -1.23666e+12 -1.21586e+12 -1.26277e+12 -1.26509e+12 -1.26782e+12 -1.27071e+12 -1.27376e+12 -1.27697e+12 -1.28012e+12 -1.28303e+12 -1.28557e+12 -1.28775e+12 -1.28955e+12 -1.29088e+12 -1.29167e+12 -1.29192e+12 -1.29164e+12 -1.29079e+12 -1.28935e+12 -1.28735e+12 -1.28463e+12 -1.28085e+12 -1.27552e+12 -1.26826e+12 -1.25938e+12 -1.24972e+12 -1.23968e+12 -1.20614e+12 -948157000000.0 -964656000000.0 -923323000000.0 -846991000000.0 -851566000000.0 -695710000000.0 -746814000000.0 -489184000000.0 -807505000000.0 -88772000000.0 -108196000000.0 -207597000000.0 -516292000000.0 -552422000000.0 -466748000000.0 -594822000000.0 -570389000000.0 -494402000000.0 -819627000000.0 -750354000000.0 -719313000000.0 -680529000000.0 -633063000000.0 -1.06345e+12 -1.07698e+12 -1.0865e+12 -1.09582e+12 -1.10545e+12 -1.11488e+12 -1.12383e+12 -1.1319e+12 -1.13876e+12 -1.14369e+12 -1.1458e+12 -1.1457e+12 -1.14499e+12 -1.14343e+12 -1.138e+12 -1.13178e+12 -1.14664e+12 -1.07017e+12 -1.07984e+12 -1.09418e+12 -1.10358e+12 -1.11117e+12 -1.11626e+12 -1.12004e+12 -1.12359e+12 -1.12694e+12 -1.13028e+12 -1.13369e+12 -1.13687e+12 -1.13958e+12 -1.14176e+12 -1.14342e+12 -1.14461e+12 -1.14535e+12 -1.14554e+12 -1.14518e+12 -1.1443e+12 -1.14295e+12 -1.14119e+12 -1.13906e+12 -1.13654e+12 -1.13335e+12 -1.12902e+12 -1.12323e+12 -1.11647e+12 -1.10999e+12 -1.10468e+12 -1.08087e+12 -1.11401e+12 -1.16209e+12 -965419000000.0 -1.03436e+12 -653176000000.0 -645398000000.0 -718766000000.0 -520513000000.0 -650773000000.0 -187761000000.0 -46130900000.0 -66696000000.0 -170975000000.0 -186985000000.0 -498948000000.0 -461700000000.0 -376261000000.0 -928465000000.0 -636759000000.0 -584120000000.0 -544195000000.0 -536535000000.0 -528827000000.0 -953321000000.0 -956518000000.0 -960949000000.0 -969364000000.0 -979554000000.0 -990194000000.0 -1.0004e+12 -1.00924e+12 -1.01608e+12 -894143000000.0 -931452000000.0 -949220000000.0 -961260000000.0 -969142000000.0 -974498000000.0 -978929000000.0 -982808000000.0 -986428000000.0 -990109000000.0 -993601000000.0 -996421000000.0 -998418000000.0 -999678000000.0 -1.0003e+12 -1.00038e+12 -999896000000.0 -998839000000.0 -997259000000.0 -995272000000.0 -992997000000.0 -990522000000.0 -987886000000.0 -984902000000.0 -981195000000.0 -976453000000.0 -971112000000.0 -966283000000.0 -962453000000.0 -941029000000.0 -954861000000.0 -989112000000.0 -1.01201e+12 -764578000000.0 -834826000000.0 -813398000000.0 -775468000000.0 -769238000000.0 -544090000000.0 -217384000000.0 -57181100000.0 -418924000000.0 -399464000000.0 -320552000000.0 -1.00279e+12 -309117000000.0 -492221000000.0 -824719000000.0 -824717000000.0 -1.0206e+12 -1.0227e+12 -1.02296e+12 -1.0231e+12 -1.02361e+12 -1.02406e+12 -1.03511e+12 -1.0499e+12 -763061000000.0 -797519000000.0 -813209000000.0 -823027000000.0 -829298000000.0 -834067000000.0 -838358000000.0 -842366000000.0 -801113000000.0 -821757000000.0 -819394000000.0 -824968000000.0 -611105000000.0 -686113000000.0 -638180000000.0 -618291000000.0 -621124000000.0 -486948000000.0 -669187000000.0 -453038000000.0 -64383700000.0 -107638000000.0 -170030000000.0 -137072000000.0 -319001000000.0 -268722000000.0 -190806000000.0 -406612000000.0 -346744000000.0 -286566000000.0 -33881800000.0 -347990000000.0 -410705000000.0 -393787000000.0 -368969000000.0 -830845000000.0 -841861000000.0 -854834000000.0 -867758000000.0 -879423000000.0 -888629000000.0 -895108000000.0 -899159000000.0 -900759000000.0 -901066000000.0 -901470000000.0 -902500000000.0 -907062000000.0 -915351000000.0 -923907000000.0 -846282000000.0 -850149000000.0 -853380000000.0 -855500000000.0 -856545000000.0 -856699000000.0 -856095000000.0 -854843000000.0 -852994000000.0 -850610000000.0 -847821000000.0 -844851000000.0 -841836000000.0 -838828000000.0 -835831000000.0 -832514000000.0 -828488000000.0 -824021000000.0 -819886000000.0 -816782000000.0 -798675000000.0 -624749000000.0 -497649000000.0 -514924000000.0 -491979000000.0 -483207000000.0 -432258000000.0 -439358000000.0 -456364000000.0 -461196000000.0 -191828000000.0 -48509100000.0 -109872000000.0 -86958200000.0 -89184500000.0 -224478000000.0 -252151000000.0 -232125000000.0 -649473000000.0 -26772600000.0 -235117000000.0 -349282000000.0 -297099000000.0 -271867000000.0 -259708000000.0 -678362000000.0 -686649000000.0 -699179000000.0 -716411000000.0 -733245000000.0 -748483000000.0 -760996000000.0 -769995000000.0 -775834000000.0 -778585000000.0 -778667000000.0 -778321000000.0 -775946000000.0 -774966000000.0 -775699000000.0 -779472000000.0 -779791000000.0 -642224000000.0 -669859000000.0 -680092000000.0 -685894000000.0 -689611000000.0 -693358000000.0 -697837000000.0 -702246000000.0 -706493000000.0 -710280000000.0 -712877000000.0 -713993000000.0 -713832000000.0 -712624000000.0 -710550000000.0 -707782000000.0 -704451000000.0 -700691000000.0 -696799000000.0 -693053000000.0 -689493000000.0 -686151000000.0 -682874000000.0 -679323000000.0 -675287000000.0 -671267000000.0 -667723000000.0 -653280000000.0 -649312000000.0 -664832000000.0 -652550000000.0 -608458000000.0 -333259000000.0 -394861000000.0 -328425000000.0 -344051000000.0 -220365000000.0 -99104500000.0 -58844700000.0 -71454800000.0 -140427000000.0 -91314900000.0 -127398000000.0 -195099000000.0 -459402000000.0 -298464000000.0 -189171000000.0 -532920000000.0 -546970000000.0 -571408000000.0 -595139000000.0 -615907000000.0 -632883000000.0 -645331000000.0 -653407000000.0 -657518000000.0 -657646000000.0 -655173000000.0 -652331000000.0 -524479000000.0 -542895000000.0 -546204000000.0 -546731000000.0 -547744000000.0 -552104000000.0 -557483000000.0 -562543000000.0 -567023000000.0 -570379000000.0 -571964000000.0 -571751000000.0 -570062000000.0 -567182000000.0 -563381000000.0 -558915000000.0 -553976000000.0 -548908000000.0 -544135000000.0 -539737000000.0 -535808000000.0 -532124000000.0 -528959000000.0 -525721000000.0 -521917000000.0 -517339000000.0 -503599000000.0 -501023000000.0 -513211000000.0 -511521000000.0 -493313000000.0 -448854000000.0 -459461000000.0 -365617000000.0 -374914000000.0 -363316000000.0 -256794000000.0 -181043000000.0 -55660700000.0 -50802500000.0 -48783800000.0 -143241000000.0 -25386700000.0 -44608500000.0 -115908000000.0 -61038700000.0 -347256000000.0 -9038000000.0 -164105000000.0 -131105000000.0 -152597000000.0 -365592000000.0 -414210000000.0 -642932000000.0 -636049000000.0 -630921000000.0 -631871000000.0 -623029000000.0 -407429000000.0 -413141000000.0 -406935000000.0 -401158000000.0 -404299000000.0 -410849000000.0 -417628000000.0 -423426000000.0 -427881000000.0 -355497000000.0 -357236000000.0 -359641000000.0 -359508000000.0 -369439000000.0 -343180000000.0 -290029000000.0 -302147000000.0 -251876000000.0 -253229000000.0 -240584000000.0 -264121000000.0 -239543000000.0 -126335000000.0 -49457100000.0 -46984300000.0 -57934200000.0 -65538400000.0 -138710000000.0 -98308000000.0 -281886000000.0 -245733000000.0 -123020000000.0 -93209800000.0 -69556000000.0 -75939300000.0 -450587000000.0 -480167000000.0 -503626000000.0 -521005000000.0 -532316000000.0 -538470000000.0 -539361000000.0 -535481000000.0 -527379000000.0 -520638000000.0 -500696000000.0 -479869000000.0 -477775000000.0 -474928000000.0 -457313000000.0 -430357000000.0 -430492000000.0 -428533000000.0 -424903000000.0 -420004000000.0 -414222000000.0 -407849000000.0 -401271000000.0 -395092000000.0 -389544000000.0 -384759000000.0 -380973000000.0 -377385000000.0 -374796000000.0 -372483000000.0 -367599000000.0 -233501000000.0 -157929000000.0 -158265000000.0 -166642000000.0 -140518000000.0 -141130000000.0 -145544000000.0 -141478000000.0 -107713000000.0 -122419000000.0 -120612000000.0 -96560100000.0 -14769000000.0 -13941500000.0 -89878500000.0 -89244700000.0 -84904700000.0 -81727900000.0 -28411400000.0 -26054600000.0 -54924200000.0 -232579000000.0 -288737000000.0 -331331000000.0 -363900000000.0 -388300000000.0 -404697000000.0 -414440000000.0 -418192000000.0 -415648000000.0 -406382000000.0 -387015000000.0 -394519000000.0 -332096000000.0 -319602000000.0 -320201000000.0 -312323000000.0 -285949000000.0 -289800000000.0 -273955000000.0 -251487000000.0 -252733000000.0 -260745000000.0 -270395000000.0 -278808000000.0 -285180000000.0 -289102000000.0 -290083000000.0 -288195000000.0 -283956000000.0 -277930000000.0 -270648000000.0 -262541000000.0 -254089000000.0 -246090000000.0 -238975000000.0 -232907000000.0 -228418000000.0 -225116000000.0 -220656000000.0 -221890000000.0 -220069000000.0 -209546000000.0 -213471000000.0 -208387000000.0 -193494000000.0 -206069000000.0 -108368000000.0 -91847800000.0 -74046100000.0 -45428100000.0 -13568000000.0 -13159100000.0 -27086600000.0 -9853620000.0 -12040000000.0 -15781700000.0 -19141400000.0 -23457400000.0 -76791800000.0 -21013200000.0 -14770200000.0 -15952300000.0 -14858900000.0 -62747300000.0 -62022500000.0 -61720500000.0 -61765700000.0 -61894300000.0 -168165000000.0 -90536000000.0 -92526600000.0 -104369000000.0 -118862000000.0 -131921000000.0 -141782000000.0 -148109000000.0 -150618000000.0 -149278000000.0 -144649000000.0 -137498000000.0 -128537000000.0 -118403000000.0 -107709000000.0 -97317500000.0 -88021200000.0 -80072300000.0 -74261200000.0 -71319800000.0 -69742800000.0 -70127000000.0 -71483800000.0 -72153800000.0 -71169100000.0 -67810600000.0 -67400100000.0 -68992700000.0 -65803100000.0 -69776700000.0 -98615000000.0 -127448000000.0 -151696000000.0 -151056000000.0 -151484000000.0 -147595000000.0 -135482000000.0 -61886400000.0 -61781900000.0 -61596800000.0 -61343700000.0 -60941000000.0 -59948700000.0 -110261000000.0 -144580000000.0 -159108000000.0 -160916000000.0 -148480000000.0 -118462000000.0 
SCALARS Shear_Stress float 1
LOOKUP_TABLE default
17704100000.0 40623100000.0 6123650000.0 54877300000.0 39067200000.0 42320400000.0 25470800000.0 38577100000.0 23764700000.0 58871200000.0 22776400000.0 41467300000.0 16088200000.0 17022100000.0 6944640000.0 48904900000.0 114769000000.0 14673400000.0 22018700000.0 46761500000.0 28990700000.0 51450100000.0 10480700000.0 31525500000.0 4526880000.0 16345500000.0 63758900000.0 136728000000.0 152363000000.0 25073400000.0 52005000000.0 51993100000.0 12468100000.0 9706000000.0 68071700000.0 26748900000.0 10668200000.0 17601500000.0 48934800000.0 58599600000.0 138215000000.0 176448000000.0 194572000000.0 45652300000.0 102782000000.0 84694900000.0 59204200000.0 120973000000.0 35165600000.0 47372900000.0 2623020000.0 9210000000.0 46582600000.0 16042800000.0 90631600000.0 85389400000.0 147670000000.0 92124700000.0 227387000000.0 151136000000.0 212302000000.0 260242000000.0 245086000000.0 240977000000.0 216333000000.0 170524000000.0 184021000000.0 28149700000.0 98644600000.0 138818000000.0 196365000000.0 254867000000.0 64739300000.0 7144360000.0 74915000000.0 101863000000.0 167730000000.0 260014000000.0 297296000000.0 195137000000.0 231271000000.0 193837000000.0 155515000000.0 121181000000.0 22026800000.0 161275000000.0 208224000000.0 139767000000.0 180402000000.0 310855000000.0 35389100000.0 93663500000.0 126272000000.0 167924000000.0 245079000000.0 323981000000.0 347490000000.0 204910000000.0 179680000000.0 151362000000.0 18433800000.0 77232000000.0 35785300000.0 215188000000.0 226523000000.0 12035500000.0 120155000000.0 157397000000.0 198400000000.0 176208000000.0 224145000000.0 232103000000.0 278565000000.0 306060000000.0 291799000000.0 287983000000.0 253883000000.0 358056000000.0 341545000000.0 214768000000.0 175685000000.0 153612000000.0 115884000000.0 120175000000.0 74881700000.0 143532000000.0 147518000000.0 84610700000.0 294240000000.0 193691000000.0 266775000000.0 197007000000.0 235253000000.0 229543000000.0 260118000000.0 285561000000.0 242524000000.0 238108000000.0 271458000000.0 130580000000.0 74768700000.0 24102900000.0 262467000000.0 278364000000.0 353091000000.0 151547000000.0 559706000000.0 289764000000.0 434023000000.0 358408000000.0 292549000000.0 251274000000.0 251806000000.0 271269000000.0 253280000000.0 207085000000.0 234061000000.0 177417000000.0 75520900000.0 141159000000.0 79954700.0 401522000000.0 631016000000.0 666027000000.0 455587000000.0 368369000000.0 293137000000.0 276401000000.0 256303000000.0 253702000000.0 259561000000.0 249076000000.0 255043000000.0 221867000000.0 212172000000.0 186150000000.0 194732000000.0 196137000000.0 96960300000.0 19366000000.0 328301000000.0 581946000000.0 240519000000.0 555417000000.0 448012000000.0 427460000000.0 354121000000.0 317987000000.0 255572000000.0 241664000000.0 223521000000.0 190303000000.0 171420000000.0 181841000000.0 134974000000.0 119525000000.0 30978600000.0 19536300000.0 51186200000.0 217656000000.0 25948200000.0 299528000000.0 468667000000.0 251013000000.0 293379000000.0 224929000000.0 448544000000.0 481129000000.0 509722000000.0 500860000000.0 376917000000.0 268441000000.0 234998000000.0 218796000000.0 192087000000.0 169312000000.0 144732000000.0 51421200000.0 59545600000.0 305242000000.0 122799000000.0 201411000000.0 75312900000.0 484766000000.0 557943000000.0 445175000000.0 308931000000.0 228456000000.0 199716000000.0 211206000000.0 179559000000.0 187527000000.0 154245000000.0 165118000000.0 151022000000.0 79591400000.0 52412300000.0 138610000000.0 400627000000.0 105603000000.0 10813600000.0 16122000000.0 702780000000.0 508883000000.0 437060000000.0 367404000000.0 272425000000.0 224705000000.0 177486000000.0 169639000000.0 140170000000.0 126553000000.0 146119000000.0 127083000000.0 112650000000.0 20215900000.0 25228600000.0 151505000000.0 155774000000.0 235545000000.0 287696000000.0 101557000000.0 37297800000.0 202670000000.0 142243000000.0 242431000000.0 21167000000.0 536960000000.0 444195000000.0 339582000000.0 138684000000.0 151640000000.0 127626000000.0 99486100000.0 107905000000.0 79476500000.0 117035000000.0 263101000000.0 493370000000.0 450929000000.0 239828000000.0 338531000000.0 195653000000.0 35920500000.0 116315000000.0 355015000000.0 227221000000.0 12433300000.0 106740000000.0 89147000000.0 114801000000.0 56562300000.0 75644700000.0 26366800000.0 66019800000.0 41355600000.0 91791500000.0 58833100000.0 268655000000.0 369724000000.0 327099000000.0 563059000000.0 581071000000.0 273789000000.0 376239000000.0 411591000000.0 76249000000.0 221962000000.0 252910000000.0 155976000000.0 21073400000.0 23141000000.0 5155490000.0 20330700000.0 22796200000.0 35870000000.0 197567000000.0 239152000000.0 408967000000.0 377503000000.0 385052000000.0 389656000000.0 494877000000.0 475600000000.0 495234000000.0 267348000000.0 83607000000.0 351186000000.0 289304000000.0 59488700000.0 23506900000.0 34639400000.0 79579800000.0 58055500000.0 418261000000.0 450795000000.0 564233000000.0 658448000000.0 473528000000.0 569189000000.0 398685000000.0 69605100000.0 161449000000.0 222266000000.0 429011000000.0 494791000000.0 732607000000.0 293483000000.0 228364000000.0 87265900000.0 82062300000.0 48251700000.0 53122200000.0 63954800000.0 84023300000.0 179230000000.0 489699000000.0 798381000000.0 590937000000.0 303565000000.0 289069000000.0 482858000000.0 680093000000.0 408717000000.0 448250000000.0 565895000000.0 687518000000.0 605908000000.0 579275000000.0 54575200000.0 426245000000.0 293979000000.0 449453000000.0 153719000000.0 57784500000.0 28015400000.0 120116000000.0 297597000000.0 894967000000.0 323291000000.0 70476600000.0 351875000000.0 477434000000.0 867488000000.0 377673000000.0 213393000000.0 283096000000.0 295922000000.0 253356000000.0 78879400000.0 11765900000.0 53744800000.0 439707000000.0 236845000000.0 15617000000.0 363401000000.0 664928000000.0 333607000000.0 486433000000.0 959753000000.0 126400000000.0 81839700000.0 3942820000.0 59712700000.0 80384800000.0 214810000000.0 105080000000.0 115660000000.0 2852630000.0 3723630000.0 115944000000.0 81427000000.0 192890000000.0 141787000000.0 734560000000.0 418210000000.0 22451900000.0 258434000000.0 171849000000.0 274134000000.0 161156000000.0 266343000000.0 642303000000.0 260314000000.0 206967000000.0 277956000000.0 152083000000.0 417356000000.0 166245000000.0 205193000000.0 78490600000.0 60668600000.0 40358400000.0 6631560000.0 132613000000.0 306784000000.0 886062000000.0 258285000000.0 253132000000.0 338431000000.0 304629000000.0 184425000000.0 123312000000.0 15108100000.0 821612000000.0 706662000000.0 250054000000.0 252060000000.0 139855000000.0 156953000000.0 59108100000.0 32167600000.0 128203000000.0 311676000000.0 890697000000.0 371149000000.0 283171000000.0 345804000000.0 329092000000.0 228704000000.0 636015000000.0 153256000000.0 133932000000.0 93248100000.0 46681700000.0 87277300000.0 67931600000.0 179050000000.0 449466000000.0 239838000000.0 151196000000.0 83457600000.0 134214000000.0 124101000000.0 237123000000.0 277829000000.0 484580000000.0 662231000000.0 593656000000.0 483899000000.0 215268000000.0 135130000000.0 164186000000.0 189359000000.0 304718000000.0 299258000000.0 256151000000.0 656954000000.0 133714000000.0 109975000000.0 132404000000.0 329559000000.0 336682000000.0 220272000000.0 162140000000.0 206386000000.0 373719000000.0 545901000000.0 345390000000.0 84538600000.0 90886000000.0 210399000000.0 273888000000.0 169731000000.0 179386000000.0 143185000000.0 173848000000.0 157277000000.0 134757000000.0 39917100000.0 164474000000.0 306333000000.0 276491000000.0 278658000000.0 242184000000.0 202573000000.0 199364000000.0 193405000000.0 239666000000.0 294781000000.0 455084000000.0 442242000000.0 168254000000.0 48679800000.0 107035000000.0 119870000000.0 208300000000.0 185719000000.0 326014000000.0 703221000000.0 216054000000.0 201326000000.0 182998000000.0 15432600000.0 202422000000.0 250959000000.0 217266000000.0 209055000000.0 284771000000.0 365656000000.0 391570000000.0 442812000000.0 354109000000.0 277776000000.0 144050000000.0 67581000000.0 46766800000.0 115574000000.0 411663000000.0 764264000000.0 235411000000.0 215497000000.0 137723000000.0 83397100000.0 215227000000.0 228494000000.0 201405000000.0 222419000000.0 313605000000.0 366064000000.0 232651000000.0 51379700000.0 21332100000.0 473862000.0 45301800000.0 96650900000.0 828801000000.0 270809000000.0 288402000000.0 250962000000.0 249538000000.0 200818000000.0 147996000000.0 45780700000.0 39302700000.0 139783000000.0 174961000000.0 216602000000.0 209825000000.0 206599000000.0 181255000000.0 187713000000.0 169206000000.0 231058000000.0 234428000000.0 321599000000.0 304094000000.0 295180000000.0 118239000000.0 7018600000.0 15094800000.0 36042500000.0 21291000000.0 494111000000.0 322776000000.0 294922000000.0 221605000000.0 68672100000.0 104165000000.0 196382000000.0 193462000000.0 145707000000.0 144448000000.0 241668000000.0 247619000000.0 193074000000.0 81991600000.0 24859200000.0 42342500000.0 43237900000.0 27029200000.0 564025000000.0 889955000000.0 367581000000.0 335757000000.0 335248000000.0 282806000000.0 248057000000.0 166061000000.0 92053500000.0 11222500000.0 83290400000.0 155134000000.0 195271000000.0 205945000000.0 202181000000.0 162270000000.0 94673600000.0 123024000000.0 243088000000.0 147661000000.0 15556300000.0 83713900000.0 64356600000.0 73295600000.0 35365200000.0 617700000000.0 943780000000.0 376480000000.0 317135000000.0 191973000000.0 12877900000.0 148650000000.0 225419000000.0 181251000000.0 108179000000.0 19698600000.0 27397800000.0 43232300000.0 132267000000.0 160049000000.0 196149000000.0 82796400000.0 28895900000.0 82988200000.0 102094000000.0 71602400000.0 987126000000.0 402705000000.0 409071000000.0 371939000000.0 279986000000.0 120709000000.0 66247300000.0 208281000000.0 262633000000.0 244952000000.0 253966000000.0 138600000000.0 69615500000.0 121941000000.0 58280200000.0 112940000000.0 43425200000.0 67494300000.0 116792000000.0 117200000000.0 124291000000.0 101581000000.0 86660000000.0 653552000000.0 425485000000.0 403433000000.0 351803000000.0 315719000000.0 225465000000.0 157471000000.0 41357700000.0 43008200000.0 144897000000.0 223071000000.0 311991000000.0 254146000000.0 27756800000.0 345381000000.0 17152600000.0 14377000000.0 108820000000.0 132140000000.0 111330000000.0 670801000000.0 1.01693e+12 432873000000.0 431303000000.0 384504000000.0 265104000000.0 79772000000.0 131617000000.0 300902000000.0 358934000000.0 254445000000.0 275804000000.0 157445000000.0 256687000000.0 637735000000.0 760134000000.0 52736200000.0 60937200000.0 96001600000.0 87611800000.0 116881000000.0 119652000000.0 128474000000.0 81938100000.0 9035750000.0 1.02854e+12 440706000000.0 427520000000.0 412428000000.0 352212000000.0 307490000000.0 202322000000.0 129332000000.0 5959980000.0 98889700000.0 224226000000.0 320518000000.0 378342000000.0 456635000000.0 406306000000.0 462899000000.0 369622000000.0 110717000000.0 378401000000.0 26678200000.0 58669600000.0 122955000000.0 106959000000.0 61626600000.0 669190000000.0 421601000000.0 441902000000.0 385352000000.0 251624000000.0 47365700000.0 198874000000.0 417088000000.0 532149000000.0 540557000000.0 473213000000.0 728159000000.0 75552000000.0 38507100000.0 91509100000.0 99998100000.0 647816000000.0 1.01271e+12 391028000000.0 435492000000.0 446171000000.0 432116000000.0 408974000000.0 346314000000.0 185918000000.0 42373800000.0 303421000000.0 513781000000.0 593947000000.0 601463000000.0 633514000000.0 591123000000.0 461660000000.0 335504000000.0 389888000000.0 1.14762e+12 994818000000.0 222571000000.0 216578000000.0 46533200000.0 76556400000.0 129100000000.0 106223000000.0 30341700000.0 598332000000.0 9035750000.0 965124000000.0 351271000000.0 420093000000.0 442006000000.0 370931000000.0 318110000000.0 295774000000.0 235388000000.0 112170000000.0 32943800000.0 138441000000.0 234373000000.0 405176000000.0 505785000000.0 632115000000.0 555774000000.0 302484000000.0 649848000000.0 612636000000.0 182345000000.0 176208000000.0 9426070000.0 912439000000.0 417284000000.0 445541000000.0 440878000000.0 415918000000.0 365868000000.0 253491000000.0 169503000000.0 44336900000.0 324252000000.0 571014000000.0 593405000000.0 419667000000.0 391265000000.0 583243000000.0 711426000000.0 530819000000.0 387419000000.0 372507000000.0 115459000000.0 298351000000.0 141714000000.0 45227600000.0 499330000000.0 314472000000.0 459389000000.0 455253000000.0 434003000000.0 396351000000.0 289792000000.0 189332000000.0 142445000000.0 108787000000.0 72168900000.0 110144000000.0 158040000000.0 408591000000.0 453057000000.0 563760000000.0 510306000000.0 501007000000.0 454047000000.0 388634000000.0 520150000000.0 611430000000.0 352512000000.0 260613000000.0 236924000000.0 328063000000.0 9035750000.0 793447000000.0 353420000000.0 503618000000.0 272115000000.0 288576000000.0 180655000000.0 213539000000.0 157595000000.0 118885000000.0 69005200000.0 173224000000.0 422024000000.0 461453000000.0 533648000000.0 661556000000.0 417082000000.0 123452000000.0 701822000000.0 552794000000.0 521637000000.0 388323000000.0 60584400000.0 514909000000.0 652671000000.0 279011000000.0 22091000000.0 101060000000.0 30547000000.0 106880000000.0 135987000000.0 84547000000.0 148453000000.0 208161000000.0 393878000000.0 498122000000.0 608063000000.0 718150000000.0 933341000000.0 657542000000.0 352280000000.0 1.31521e+12 404515000000.0 217177000000.0 18698100000.0 303156000000.0 873567000000.0 428408000000.0 334646000000.0 47712800000.0 168964000000.0 109889000000.0 91356200000.0 116932000000.0 106159000000.0 343967000000.0 419625000000.0 715632000000.0 116919000000.0 294894000000.0 465874000000.0 574982000000.0 735066000000.0 1.1348e+12 301335000000.0 561196000000.0 25634100000.0 145914000000.0 164026000000.0 135795000000.0 658819000000.0 74480900000.0 1.26059e+12 841331000000.0 97920700000.0 380962000000.0 282598000000.0 448198000000.0 302596000000.0 386615000000.0 122949000000.0 81095800000.0 149849000000.0 262906000000.0 19135900000.0 134473000000.0 203888000000.0 554776000000.0 537685000000.0 699713000000.0 770128000000.0 1.17711e+12 122515000000.0 1.62014e+12 47764100000.0 183446000000.0 1.07065e+12 1.00619e+12 736360000000.0 1.005e+12 512932000000.0 554866000000.0 302977000000.0 298573000000.0 999436000000.0 668069000000.0 106523000000.0 480059000000.0 555285000000.0 570284000000.0 417888000000.0 9919040000.0 414497000000.0 237217000000.0 339474000000.0 6506560000.0 704315000000.0 815776000000.0 773985000000.0 695693000000.0 609155000000.0 329704000000.0 805714000000.0 338856000000.0 643344000000.0 277859000000.0 50839900000.0 1.32873e+12 30493700000.0 1.17541e+12 928802000000.0 104741000000.0 586419000000.0 957205000000.0 692227000000.0 631102000000.0 698677000000.0 620983000000.0 444721000000.0 232576000000.0 216706000000.0 442218000000.0 57347700000.0 243783000000.0 537646000000.0 861226000000.0 1.19911e+12 571184000000.0 864851000000.0 794332000000.0 212163000000.0 566787000000.0 268988000000.0 1.20338e+12 46780600000.0 1.70641e+12 274668000000.0 868969000000.0 269087000000.0 1.31669e+12 318948000000.0 212802000000.0 75592400000.0 33072500000.0 265403000000.0 433358000000.0 374505000000.0 725860000000.0 710796000000.0 711357000000.0 887985000000.0 793577000000.0 864618000000.0 760241000000.0 752066000000.0 634496000000.0 642200000000.0 485703000000.0 491977000000.0 957357000000.0 438724000000.0 812933000000.0 1.2898e+12 913597000000.0 394892000000.0 704163000000.0 479410000000.0 977987000000.0 360469000000.0 553806000000.0 594817000000.0 2.11239e+12 818738000000.0 432228000000.0 871859000000.0 686692000000.0 216345000000.0 55042100000.0 550188000000.0 119647000000.0 633832000000.0 725426000000.0 198436000000.0 32719700000.0 367036000000.0 42476600000.0 458475000000.0 699291000000.0 875131000000.0 957108000000.0 845191000000.0 707734000000.0 589339000000.0 311017000000.0 1.29968e+12 716911000000.0 1.08033e+12 1.22178e+12 1.18714e+12 945151000000.0 666638000000.0 981098000000.0 926058000000.0 166905000000.0 310098000000.0 110634000000.0 482589000000.0 222554000000.0 932081000000.0 181557000000.0 427242000000.0 686936000000.0 714779000000.0 29692500000.0 558468000000.0 555502000000.0 94005100000.0 529375000000.0 701720000000.0 361699000000.0 589579000000.0 254675000000.0 163523000000.0 363250000000.0 851541000000.0 989512000000.0 1.00294e+12 934812000000.0 757021000000.0 621398000000.0 406135000000.0 364251000000.0 591431000000.0 990034000000.0 1.08553e+12 1.0559e+12 946399000000.0 1.12588e+12 1.12855e+12 1.13416e+12 939714000000.0 826106000000.0 345390000000.0 341090000000.0 20068900000.0 192626000000.0 1.42277e+12 501438000000.0 706677000000.0 340311000000.0 373234000000.0 316691000000.0 398377000000.0 331905000000.0 443199000000.0 628992000000.0 103478000000.0 225983000000.0 157992000000.0 389140000000.0 629276000000.0 293159000000.0 500963000000.0 586241000000.0 81312600000.0 534234000000.0 1.00485e+12 872848000000.0 814525000000.0 645872000000.0 635689000000.0 505447000000.0 475662000000.0 401636000000.0 652130000000.0 1.04652e+12 1.11905e+12 1.19162e+12 1.20474e+12 1.05521e+12 956125000000.0 885654000000.0 690807000000.0 124795000000.0 23854100000.0 641202000000.0 214413000000.0 3785790000.0 466073000000.0 236576000000.0 53827000000.0 123175000000.0 300076000000.0 148866000000.0 41052100000.0 656124000000.0 75033400000.0 3420940000.0 115750000000.0 386274000000.0 430079000000.0 165147000000.0 548681000000.0 1.1093e+12 47326900000.0 27975700000.0 389525000000.0 785579000000.0 941740000000.0 895874000000.0 663741000000.0 495782000000.0 436930000000.0 501992000000.0 922030000000.0 1.02776e+12 1.10225e+12 1.14886e+12 1.1748e+12 1.22558e+12 1.23427e+12 1.17721e+12 1.14742e+12 1.03668e+12 806095000000.0 359028000000.0 212068000000.0 18277000000.0 46732400000.0 155631000000.0 180685000000.0 291065000000.0 174735000000.0 376752000000.0 104144000000.0 235692000000.0 193406000000.0 130303000000.0 650840000000.0 193825000000.0 182744000000.0 138107000000.0 878842000000.0 180717000000.0 73660200000.0 221838000000.0 268987000000.0 283263000000.0 108648000000.0 149677000000.0 862278000000.0 310359000000.0 468155000000.0 84283700000.0 496296000000.0 614990000000.0 641991000000.0 454689000000.0 382891000000.0 433581000000.0 451167000000.0 471878000000.0 619414000000.0 737580000000.0 922613000000.0 1.09635e+12 1.18034e+12 1.18588e+12 1.08374e+12 908520000000.0 750107000000.0 599125000000.0 393391000000.0 145319000000.0 110337000000.0 29861000000.0 953042000000.0 1.75922e+12 1.42916e+12 140351000000.0 576954000000.0 600332000000.0 442019000000.0 269025000000.0 958753000000.0 336288000000.0 286293000000.0 305808000000.0 416104000000.0 619449000000.0 818121000000.0 12742000000.0 66216900000.0 431577000000.0 629059000000.0 471171000000.0 202896000000.0 62260300000.0 774374000000.0 532576000000.0 34913900000.0 787218000000.0 176212000000.0 382142000000.0 295800000000.0 386190000000.0 552390000000.0 804676000000.0 1.02019e+12 1.13541e+12 1.16834e+12 1.09393e+12 965524000000.0 952256000000.0 863349000000.0 575855000000.0 240792000000.0 127317000000.0 159211000000.0 108202000000.0 28849000000.0 449643000000.0 1.08069e+12 685305000000.0 291178000000.0 772809000000.0 204431000000.0 160069000000.0 162732000000.0 95656800000.0 402750000000.0 148962000000.0 109284000000.0 493623000000.0 913542000000.0 109744000000.0 58773900000.0 159526000000.0 247091000000.0 804970000000.0 1.32179e+12 272247000000.0 974466000000.0 866167000000.0 895425000000.0 1.13261e+12 698655000000.0 264156000000.0 337563000000.0 224853000000.0 272735000000.0 69086400000.0 252962000000.0 361657000000.0 484849000000.0 626829000000.0 707462000000.0 849537000000.0 935849000000.0 1.00893e+12 1.07747e+12 1.09755e+12 1.13814e+12 1.08788e+12 1.09378e+12 959808000000.0 827978000000.0 748965000000.0 551857000000.0 359619000000.0 108875000000.0 128513000000.0 61825100000.0 191234000000.0 374701000000.0 456022000000.0 242098000000.0 392366000000.0 1.04266e+12 634020000000.0 672005000000.0 704929000000.0 655525000000.0 502803000000.0 136230000000.0 452921000000.0 570189000000.0 325579000000.0 353321000000.0 169801000000.0 215570000000.0 495549000000.0 87586000000.0 3570970000.0 73726800000.0 131255000000.0 237763000000.0 16583300000.0 160641000000.0 1.35824e+12 892643000000.0 563968000000.0 53655600000.0 749355000000.0 475511000000.0 66574700000.0 90248300000.0 152075000000.0 539810000000.0 769910000000.0 937910000000.0 1.04386e+12 1.07513e+12 973154000000.0 792730000000.0 873664000000.0 841400000000.0 209392000000.0 299382000000.0 1.0173e+12 28261000000.0 407091000000.0 691740000000.0 587044000000.0 698203000000.0 264812000000.0 233984000000.0 50370900000.0 212472000000.0 558769000000.0 154744000000.0 734558000000.0 576995000000.0 33128300000.0 130387000000.0 70278300000.0 269460000000.0 243118000000.0 153693000000.0 170297000000.0 280404000000.0 286103000000.0 492699000000.0 616114000000.0 127365000000.0 91491700000.0 50922500000.0 20493300000.0 158574000000.0 65814600000.0 235588000000.0 40064000000.0 46698300000.0 684609000000.0 1.49469e+12 484202000000.0 207585000000.0 118944000000.0 383600000000.0 629574000000.0 694126000000.0 870134000000.0 977064000000.0 1.04199e+12 997054000000.0 795503000000.0 572336000000.0 602972000000.0 945924000000.0 608854000000.0 227476000000.0 28818200000.0 61288600000.0 1.70736e+12 1.6824e+12 1.02167e+12 785270000000.0 178293000000.0 635960000000.0 543653000000.0 292505000000.0 316032000000.0 468410000000.0 24724300000.0 199067000000.0 68982400000.0 261456000000.0 644661000000.0 234029000000.0 133114000000.0 178045000000.0 240465000000.0 217149000000.0 362539000000.0 444818000000.0 497821000000.0 472037000000.0 264075000000.0 157973000000.0 109240000000.0 137038000000.0 328852000000.0 276927000000.0 748573000000.0 328218000000.0 248360000000.0 336293000000.0 240405000000.0 486532000000.0 601187000000.0 133680000000.0 211415000000.0 178728000000.0 438170000000.0 780390000000.0 812411000000.0 829408000000.0 905261000000.0 917083000000.0 990074000000.0 968571000000.0 1.00294e+12 907404000000.0 851863000000.0 640584000000.0 155389000000.0 1.00362e+12 449683000000.0 135594000000.0 124194000000.0 339527000000.0 26441100000.0 395426000000.0 321374000000.0 88950700000.0 493208000000.0 393686000000.0 20830100000.0 195416000000.0 258039000000.0 145123000000.0 20154900000.0 654760000000.0 289390000000.0 160535000000.0 155250000000.0 82676900000.0 325826000000.0 295878000000.0 180244000000.0 254460000000.0 456921000000.0 475211000000.0 139431000000.0 36537900000.0 183649000000.0 12713700000.0 286773000000.0 703051000000.0 40862700000.0 69441100000.0 308984000000.0 544676000000.0 379830000000.0 276864000000.0 291464000000.0 432683000000.0 330542000000.0 420761000000.0 1.17666e+12 799213000000.0 2129000000.0 812942000000.0 888644000000.0 757089000000.0 821162000000.0 930741000000.0 909728000000.0 749118000000.0 389678000000.0 569016000000.0 1.20018e+12 492447000000.0 10235200000.0 84489200000.0 110583000000.0 422873000000.0 76083000000.0 160152000000.0 249007000000.0 355976000000.0 366938000000.0 448890000000.0 432803000000.0 41658000000.0 107476000000.0 58920300000.0 350408000000.0 343368000000.0 544105000000.0 235640000000.0 75248800000.0 134444000000.0 216788000000.0 101533000000.0 7179230000.0 457952000000.0 375336000000.0 426628000000.0 152896000000.0 239437000000.0 369741000000.0 491772000000.0 520636000000.0 553325000000.0 97984000000.0 383702000000.0 121589000000.0 127558000000.0 577039000000.0 1.2955e+12 209257000000.0 279365000000.0 544462000000.0 450462000000.0 176930000000.0 102900000000.0 522507000000.0 69741900000.0 1.72502e+12 290403000000.0 489528000000.0 1.05282e+12 705551000000.0 701402000000.0 829541000000.0 904891000000.0 754298000000.0 414298000000.0 561711000000.0 630682000000.0 72681200000.0 1.30908e+12 329394000000.0 72505200000.0 235944000000.0 445244000000.0 452122000000.0 226690000000.0 188339000000.0 405852000000.0 453528000000.0 431950000000.0 458668000000.0 444037000000.0 37325300000.0 31989200000.0 253069000000.0 198130000000.0 798887000000.0 477292000000.0 252973000000.0 330983000000.0 336129000000.0 137055000000.0 11618100000.0 85347900000.0 32247600000.0 364946000000.0 607860000000.0 811489000000.0 348932000000.0 87375000000.0 377312000000.0 562538000000.0 714003000000.0 558309000000.0 268717000000.0 270120000000.0 29091400000.0 255336000000.0 893380000000.0 13160500000.0 698911000000.0 582209000000.0 347872000000.0 107728000000.0 22668500000.0 141588000000.0 817701000000.0 49835900000.0 140333000000.0 727946000000.0 144707000000.0 524782000000.0 644148000000.0 725751000000.0 661448000000.0 842092000000.0 815406000000.0 900291000000.0 803543000000.0 285106000000.0 1.1135e+12 701493000000.0 43132000000.0 279677000000.0 460306000000.0 498217000000.0 430947000000.0 316641000000.0 494001000000.0 465296000000.0 433346000000.0 459305000000.0 866621000000.0 1.1037e+12 853836000000.0 190780000000.0 251097000000.0 668643000000.0 400881000000.0 22400400000.0 166670000000.0 12147300000.0 96798200000.0 65725600000.0 45981800000.0 79640600000.0 57600100000.0 310106000000.0 330344000000.0 433841000000.0 481039000000.0 900278000000.0 751300000000.0 208410000000.0 84168600000.0 400829000000.0 482006000000.0 681423000000.0 1.06401e+12 721404000000.0 838598000000.0 80943700000.0 305339000000.0 745935000000.0 420941000000.0 105137000000.0 389879000000.0 387523000000.0 275882000000.0 209289000000.0 274170000000.0 475478000000.0 259593000000.0 971744000000.0 955997000000.0 284595000000.0 637949000000.0 493728000000.0 735325000000.0 913016000000.0 589849000000.0 320400000000.0 417327000000.0 1.02685e+12 481611000000.0 94675000000.0 215723000000.0 422338000000.0 506765000000.0 490365000000.0 251158000000.0 232030000000.0 326641000000.0 517048000000.0 230453000000.0 211380000000.0 519043000000.0 507622000000.0 441086000000.0 376141000000.0 259609000000.0 209458000000.0 250146000000.0 491475000000.0 51467600000.0 12541900000.0 142713000000.0 194170000000.0 23654900000.0 111872000000.0 273867000000.0 296772000000.0 327114000000.0 273468000000.0 489790000000.0 216065000000.0 163960000000.0 8152140000.0 26892200000.0 1.1825e+12 628272000000.0 645718000000.0 799986000000.0 374519000000.0 52461800000.0 325986000000.0 366946000000.0 349456000000.0 378421000000.0 485789000000.0 440550000000.0 125331000000.0 441188000000.0 525983000000.0 529003000000.0 683150000000.0 410492000000.0 238689000000.0 484621000000.0 591686000000.0 862614000000.0 617035000000.0 902000000000.0 581616000000.0 70904100000.0 266576000000.0 439690000000.0 501151000000.0 393670000000.0 267869000000.0 216789000000.0 253726000000.0 569454000000.0 397542000000.0 731411000000.0 172690000000.0 577637000000.0 174023000000.0 152616000000.0 54663100000.0 101610000000.0 39254700000.0 66268400000.0 181782000000.0 246246000000.0 246773000000.0 303566000000.0 6601460000.0 140102000000.0 222980000000.0 246654000000.0 270678000000.0 303615000000.0 309284000000.0 272840000000.0 127335000000.0 55291600000.0 584952000000.0 965491000000.0 154622000000.0 160531000000.0 14855900000.0 347433000000.0 277545000000.0 635208000000.0 713943000000.0 198932000000.0 355587000000.0 412900000000.0 440651000000.0 479631000000.0 451520000000.0 303874000000.0 245385000000.0 11008400000.0 503316000000.0 1.00752e+12 643793000000.0 489079000000.0 70245400000.0 560649000000.0 95651600000.0 927283000000.0 769753000000.0 191189000000.0 301523000000.0 200293000000.0 210955000000.0 54305900000.0 203842000000.0 382054000000.0 480167000000.0 406054000000.0 298655000000.0 178585000000.0 65887600000.0 496581000000.0 678665000000.0 332180000000.0 157929000000.0 841336000000.0 635325000000.0 291074000000.0 105582000000.0 318840000000.0 265031000000.0 236103000000.0 249224000000.0 125089000000.0 273408000000.0 312381000000.0 341164000000.0 13226100000.0 104036000000.0 154194000000.0 234260000000.0 273697000000.0 339858000000.0 256002000000.0 203005000000.0 210044000000.0 240587000000.0 322500000000.0 812730000000.0 508379000000.0 6922870000.0 578783000000.0 630425000000.0 655851000000.0 278799000000.0 491839000000.0 482593000000.0 320759000000.0 467737000000.0 493001000000.0 474107000000.0 402727000000.0 339960000000.0 207062000000.0 60453100000.0 344285000000.0 315996000000.0 282747000000.0 28999400000.0 684699000000.0 955021000000.0 42034700000.0 949086000000.0 1.49187e+12 1.29148e+12 972186000000.0 682938000000.0 474221000000.0 521582000000.0 542287000000.0 555534000000.0 605911000000.0 794653000000.0 1.44454e+12 349503000000.0 277771000000.0 546042000000.0 953271000000.0 476795000000.0 146146000000.0 43220700000.0 129738000000.0 123914000000.0 291817000000.0 438412000000.0 244107000000.0 199590000000.0 351430000000.0 360678000000.0 412898000000.0 376472000000.0 24080900000.0 19094000000.0 35218700000.0 67474700000.0 270698000000.0 194539000000.0 191096000000.0 208175000000.0 334686000000.0 396710000000.0 227047000000.0 244063000000.0 447032000000.0 356242000000.0 578621000000.0 644098000000.0 111520000000.0 428156000000.0 651539000000.0 276843000000.0 275293000000.0 207537000000.0 224841000000.0 365030000000.0 373704000000.0 311335000000.0 298706000000.0 408548000000.0 499403000000.0 450981000000.0 388222000000.0 282423000000.0 154283000000.0 124857000000.0 103282000000.0 474792000000.0 113520000000.0 351121000000.0 553051000000.0 606012000000.0 338967000000.0 112859000000.0 60009600000.0 188511000000.0 464342000000.0 457661000000.0 307607000000.0 532717000000.0 492693000000.0 516682000000.0 555918000000.0 600812000000.0 656330000000.0 759253000000.0 971570000000.0 17795900000.0 223845000000.0 41381300000.0 293164000000.0 927523000000.0 296059000000.0 19884700000.0 95089000000.0 246414000000.0 304750000000.0 685063000000.0 444101000000.0 355787000000.0 223246000000.0 278930000000.0 354063000000.0 396337000000.0 440716000000.0 389587000000.0 16254300000.0 17218000000.0 348429000000.0 324482000000.0 191338000000.0 168091000000.0 139536000000.0 284671000000.0 399788000000.0 324872000000.0 92723800000.0 584794000000.0 601068000000.0 126678000000.0 369980000000.0 583891000000.0 537615000000.0 251976000000.0 52295700000.0 2511350000.0 212792000000.0 292085000000.0 312151000000.0 320470000000.0 369041000000.0 459582000000.0 504554000000.0 420559000000.0 325725000000.0 211584000000.0 114183000000.0 46589800000.0 234842000000.0 269579000000.0 748334000000.0 79208300000.0 741373000000.0 685736000000.0 873953000000.0 681043000000.0 941480000000.0 71389200000.0 42595900000.0 99573500000.0 139421000000.0 79340800000.0 83618800000.0 208176000000.0 381155000000.0 494113000000.0 582018000000.0 664626000000.0 755540000000.0 831192000000.0 393796000000.0 94805700000.0 18235900000.0 61659800000.0 285290000000.0 154159000000.0 408447000000.0 207958000000.0 142317000000.0 198788000000.0 271322000000.0 671353000000.0 232551000000.0 275352000000.0 419062000000.0 462459000000.0 505512000000.0 453465000000.0 390422000000.0 362955000000.0 5412390000.0 29110200000.0 407881000000.0 469102000000.0 186363000000.0 107318000000.0 170609000000.0 273410000000.0 427198000000.0 512989000000.0 149258000000.0 627520000000.0 468044000000.0 193528000000.0 142082000000.0 750163000000.0 597068000000.0 547031000000.0 451905000000.0 248749000000.0 78232900000.0 111293000000.0 206559000000.0 233063000000.0 266875000000.0 334374000000.0 423566000000.0 501835000000.0 524277000000.0 487552000000.0 121592000000.0 25691700000.0 195449000000.0 350374000000.0 687449000000.0 683228000000.0 808117000000.0 572839000000.0 1.19546e+12 382152000000.0 1.2856e+12 978363000000.0 771292000000.0 458311000000.0 171179000000.0 139412000000.0 7818850000.0 217512000000.0 379607000000.0 507974000000.0 618296000000.0 715747000000.0 768493000000.0 574616000000.0 375206000000.0 255653000000.0 187350000000.0 93177300000.0 281542000000.0 136350000000.0 504208000000.0 263607000000.0 53997100000.0 1.05453e+12 979903000000.0 498140000000.0 30323700000.0 218025000000.0 371267000000.0 552262000000.0 555562000000.0 439591000000.0 406413000000.0 339104000000.0 36027000.0 18900200000.0 45556600000.0 379111000000.0 413237000000.0 539852000000.0 422556000000.0 99309500000.0 25952200000.0 78021100000.0 152251000000.0 312406000000.0 601554000000.0 355897000000.0 1.12761e+12 147641000000.0 1.0989e+12 709383000000.0 1.26618e+12 297138000000.0 189919000000.0 384823000000.0 381861000000.0 269424000000.0 176005000000.0 179116000000.0 195978000000.0 160222000000.0 218198000000.0 354932000000.0 480095000000.0 546578000000.0 519836000000.0 444533000000.0 345118000000.0 235036000000.0 286057000000.0 484853000000.0 552628000000.0 552585000000.0 476216000000.0 976118000000.0 784874000000.0 1.00134e+12 1.17762e+12 178617000.0 124120000000.0 23285700000.0 41829900000.0 682683000.0 125661000000.0 279817000000.0 419121000000.0 541545000000.0 450825000000.0 489666000000.0 206579000000.0 1.20804e+12 193369000000.0 256077000000.0 200520000000.0 1.64107e+12 240709000000.0 875949000000.0 731691000000.0 487299000000.0 475510000000.0 375555000000.0 349776000000.0 325126000000.0 341346000000.0 34154500000.0 135346000000.0 89000500000.0 304259000000.0 496357000000.0 640404000000.0 623338000000.0 663291000000.0 75987200000.0 34170300000.0 53535600000.0 575309000000.0 1.11474e+12 540611000000.0 101588000000.0 470029000000.0 909161000000.0 261405000000.0 11816700000.0 136083000000.0 237334000000.0 426135000000.0 478294000000.0 429317000000.0 334571000000.0 260845000000.0 227305000000.0 175393000000.0 41941400000.0 156873000000.0 402295000000.0 569249000000.0 551918000000.0 463647000000.0 354025000000.0 242045000000.0 130062000000.0 3703170000.0 138949000000.0 774106000000.0 463574000000.0 192098000000.0 49131200000.0 105788000000.0 57445300000.0 50484600000.0 116165000000.0 226611000000.0 350627000000.0 645432000000.0 706507000000.0 638167000000.0 537075000000.0 470812000000.0 453552000000.0 156967000000.0 1.49727e+12 667300000000.0 237770000000.0 760684000000.0 353227000000.0 845365000000.0 556576000000.0 30039100000.0 241672000000.0 439404000000.0 458888000000.0 407543000000.0 338368000000.0 309646000000.0 334392000000.0 387554000000.0 416432000000.0 41449100000.0 160036000000.0 223180000000.0 398309000000.0 433470000000.0 884393000000.0 1.24813e+12 183756000000.0 62867600000.0 133268000000.0 232890000000.0 789027000000.0 810840000000.0 511871000000.0 214055000000.0 161442000000.0 731944000000.0 162173000000.0 78923100000.0 563534000000.0 573759000000.0 473808000000.0 354968000000.0 242757000000.0 137669000000.0 29967800000.0 85651300000.0 207845000000.0 345729000000.0 433651000000.0 472027000000.0 467959000000.0 682766000000.0 808982000000.0 909651000000.0 963527000000.0 848148000000.0 532195000000.0 267219000000.0 68915000000.0 55747400000.0 92281400000.0 98830700000.0 135944000000.0 467885000000.0 568860000000.0 634952000000.0 628594000000.0 588913000000.0 559384000000.0 564816000000.0 606458000000.0 690256000000.0 1.01922e+12 635037000000.0 171371000000.0 652167000000.0 179522000000.0 685837000000.0 460927000000.0 343380000000.0 435434000000.0 155805000000.0 663823000000.0 560856000000.0 417466000000.0 254545000000.0 260552000000.0 446820000000.0 415197000000.0 29537000000.0 3563980000.0 138962000000.0 149391000000.0 230184000000.0 311808000000.0 338954000000.0 502967000000.0 622666000000.0 447123000000.0 116337000000.0 109529000000.0 42769100000.0 140104000000.0 445351000000.0 167008000000.0 100793000000.0 487646000000.0 543557000000.0 561607000000.0 540115000000.0 478725000000.0 399991000000.0 332966000000.0 271285000000.0 155795000000.0 524290000000.0 461742000000.0 348608000000.0 243941000000.0 150786000000.0 59335000000.0 36075500000.0 136207000000.0 242520000000.0 330891000000.0 392607000000.0 432287000000.0 545095000000.0 672449000000.0 805576000000.0 849695000000.0 778141000000.0 592259000000.0 346966000000.0 150790000000.0 18241300000.0 63998200000.0 111145000000.0 211697000000.0 308923000000.0 410383000000.0 502402000000.0 569480000000.0 590724000000.0 581429000000.0 567289000000.0 557433000000.0 543466000000.0 497733000000.0 1142830000.0 654985000000.0 1.0011e+12 664291000000.0 291937000000.0 798854000000.0 375473000000.0 64102700000.0 942086000000.0 130469000000.0 546007000000.0 1.32923e+12 801871000000.0 495278000000.0 323692000000.0 152169000000.0 264520000000.0 530021000000.0 523041000000.0 363754000000.0 35120400000.0 49414000000.0 67050400000.0 208716000000.0 139134000000.0 183835000000.0 318486000000.0 322914000000.0 297766000000.0 1.0979e+12 770228000000.0 174150000000.0 280814000000.0 575174000000.0 881568000000.0 520858000000.0 785965000000.0 1.28372e+12 115787000000.0 491881000000.0 691037000000.0 593228000000.0 613224000000.0 609218000000.0 577848000000.0 525218000000.0 467182000000.0 417922000000.0 366917000000.0 261677000000.0 301581000000.0 238334000000.0 392704000000.0 275786000000.0 188370000000.0 107126000000.0 23177100000.0 64563800000.0 155047000000.0 238774000000.0 310271000000.0 370681000000.0 454568000000.0 555261000000.0 666462000000.0 735290000000.0 706087000000.0 582997000000.0 403981000000.0 222010000000.0 81211900000.0 151752000000.0 209509000000.0 285735000000.0 370260000000.0 450969000000.0 515233000000.0 549953000000.0 559689000000.0 556380000000.0 544668000000.0 516218000000.0 445370000000.0 197273000000.0 557081000000.0 900879000000.0 759478000000.0 154990000000.0 53860400000.0 1.03444e+12 460996000000.0 121543000000.0 151621000000.0 65626800000.0 355772000000.0 226269000000.0 147366000000.0 115140000000.0 677594000000.0 499489000000.0 387675000000.0 279152000000.0 62398600000.0 256757000000.0 325721000000.0 232319000000.0 267763000000.0 403574000000.0 366659000000.0 368909000000.0 432008000000.0 828320000000.0 833092000000.0 407816000000.0 644800000000.0 908738000000.0 765416000000.0 359704000000.0 904072000000.0 528567000000.0 228439000000.0 470651000000.0 622951000000.0 624232000000.0 642393000000.0 636683000000.0 609918000000.0 570797000000.0 530823000000.0 493423000000.0 435741000000.0 258329000000.0 186753000000.0 622343000000.0 552346000000.0 66294100000.0 149368000000.0 225270000000.0 294804000000.0 370610000000.0 454485000000.0 543824000000.0 612383000000.0 620159000000.0 18560000000.0 89847400000.0 146648000000.0 203741000000.0 269396000000.0 341429000000.0 412011000000.0 471877000000.0 512472000000.0 533904000000.0 541051000000.0 537099000000.0 518784000000.0 474920000000.0 375124000000.0 550009000000.0 764328000000.0 785756000000.0 546887000000.0 460715000000.0 579120000000.0 1.19273e+12 874828000000.0 753071000000.0 469851000000.0 538489000000.0 1.04232e+12 495794000000.0 197588000000.0 83322600000.0 7703790000.0 166937000000.0 758778000000.0 573606000000.0 227055000000.0 192061000000.0 164093000000.0 58789100000.0 37664400000.0 640291000000.0 409941000000.0 454008000000.0 271289000000.0 431397000000.0 492971000000.0 571337000000.0 473196000000.0 802361000000.0 631604000000.0 253897000000.0 570637000000.0 837034000000.0 1.01089e+12 879947000000.0 684284000000.0 667819000000.0 490510000000.0 387283000000.0 527399000000.0 630128000000.0 655882000000.0 668084000000.0 659071000000.0 636330000000.0 606365000000.0 573386000000.0 530385000000.0 443848000000.0 324853000000.0 86662600000.0 997894000000.0 619138000000.0 403237000000.0 285551000000.0 194910000000.0 108171000000.0 20969800000.0 548640000000.0 420048000000.0 271473000000.0 135041000000.0 27450400000.0 55757800000.0 124634000000.0 187708000000.0 251227000000.0 316427000000.0 380080000000.0 436354000000.0 479448000000.0 507977000000.0 523691000000.0 528588000000.0 522261000000.0 501682000000.0 466905000000.0 556248000000.0 687985000000.0 732029000000.0 647523000000.0 583504000000.0 624016000000.0 863699000000.0 1.17276e+12 1.13983e+12 975145000000.0 590863000000.0 776124000000.0 532683000000.0 298489000000.0 186596000000.0 7518330000.0 1.30065e+12 879103000000.0 461538000000.0 311403000000.0 148242000000.0 168369000000.0 211174000000.0 847010000.0 131438000000.0 6365920000.0 23771500000.0 27244000000.0 64719800000.0 779821000000.0 793539000000.0 443721000000.0 528176000000.0 613442000000.0 776903000000.0 820965000000.0 386757000000.0 289657000000.0 660592000000.0 1.00356e+12 1.02911e+12 910119000000.0 704246000000.0 627863000000.0 534748000000.0 511119000000.0 593718000000.0 658204000000.0 679031000000.0 683282000000.0 671312000000.0 648681000000.0 618861000000.0 579910000000.0 521194000000.0 449705000000.0 411737000000.0 426114000000.0 1.23047e+12 716564000000.0 489615000000.0 347141000000.0 232082000000.0 129596000000.0 34274600000.0 54403100000.0 135871000000.0 211205000000.0 285548000000.0 361220000000.0 436839000000.0 499475000000.0 525091000000.0 494119000000.0 408850000000.0 293154000000.0 173938000000.0 67985800000.0 20248600000.0 95353500000.0 163377000000.0 227981000000.0 290990000000.0 351218000000.0 405330000000.0 1.02307e+12 1.19941e+12 1.10454e+12 788080000000.0 373742000000.0 1.02472e+12 672222000000.0 392856000000.0 167040000000.0 430782000000.0 1.24953e+12 705880000000.0 151733000000.0 217722000000.0 243998000000.0 416635000000.0 27238800000.0 15590200000.0 8656990000.0 21599000000.0 230092000000.0 241971000000.0 621177000000.0 388548000000.0 595891000000.0 606730000000.0 751135000000.0 853632000000.0 509788000000.0 130584000000.0 498475000000.0 901581000000.0 1.01759e+12 1.0063e+12 877144000000.0 731366000000.0 658334000000.0 604852000000.0 601321000000.0 644388000000.0 679111000000.0 689943000000.0 685401000000.0 1.25336e+12 813279000000.0 567133000000.0 396809000000.0 263014000000.0 149340000000.0 48896400000.0 40882500000.0 122245000000.0 198457000000.0 271271000000.0 340036000000.0 398202000000.0 431974000000.0 426429000000.0 376412000000.0 292466000000.0 194302000000.0 98132400000.0 11306100000.0 65713400000.0 135676000000.0 201432000000.0 449707000000.0 482802000000.0 505126000000.0 517949000000.0 522224000000.0 518854000000.0 514053000000.0 566565000000.0 650720000000.0 698601000000.0 679029000000.0 654381000000.0 680476000000.0 813640000000.0 1.03547e+12 786890000000.0 140986000000.0 755295000000.0 1.0197e+12 723657000000.0 443053000000.0 747456000000.0 547252000000.0 290265000000.0 153883000000.0 623016000000.0 555631000000.0 86555300000.0 2949350000.0 20166100000.0 25471800000.0 168318000000.0 330446000000.0 332860000000.0 467300000000.0 636313000000.0 451402000000.0 652433000000.0 795103000000.0 711903000000.0 515810000000.0 451625000000.0 779701000000.0 953424000000.0 1.01457e+12 974574000000.0 871683000000.0 668142000000.0 640940000000.0 603019000000.0 549959000000.0 485166000000.0 428792000000.0 428691000000.0 582704000000.0 1.01216e+12 772471000000.0 567433000000.0 405122000000.0 272321000000.0 158624000000.0 58710600000.0 29858500000.0 109816000000.0 183034000000.0 249515000000.0 305785000000.0 343976000000.0 354030000000.0 329541000000.0 273590000000.0 197873000000.0 115544000000.0 35330600000.0 264047000000.0 322988000000.0 376382000000.0 421876000000.0 458191000000.0 485614000000.0 505114000000.0 517721000000.0 525665000000.0 535848000000.0 574347000000.0 633063000000.0 677796000000.0 688670000000.0 690959000000.0 722303000000.0 810993000000.0 935413000000.0 1.04369e+12 614571000000.0 845523000000.0 1.08065e+12 924379000000.0 655901000000.0 262705000000.0 1.05344e+12 381368000000.0 112726000000.0 538026000000.0 618214000000.0 251684000000.0 49457900000.0 219519000000.0 21221400000.0 17505300000.0 32539700000.0 57261900000.0 34739300000.0 23845000000.0 110310000000.0 240722000000.0 312335000000.0 282767000000.0 217890000000.0 770322000000.0 290595000000.0 585177000000.0 646665000000.0 885318000000.0 632089000000.0 691658000000.0 882281000000.0 991697000000.0 1.0142e+12 767825000000.0 703073000000.0 662219000000.0 656390000000.0 674650000000.0 687837000000.0 687050000000.0 673539000000.0 648422000000.0 612418000000.0 564252000000.0 505032000000.0 444573000000.0 409142000000.0 453882000000.0 611664000000.0 797785000000.0 678301000000.0 528076000000.0 389856000000.0 267246000000.0 158990000000.0 63580700000.0 21057100000.0 96534800000.0 163294000000.0 219674000000.0 261194000000.0 39396600000.0 108893000000.0 174437000000.0 236608000000.0 294896000000.0 348021000000.0 394520000000.0 433466000000.0 464934000000.0 489770000000.0 509119000000.0 525116000000.0 543089000000.0 575704000000.0 620830000000.0 662307000000.0 688810000000.0 709730000000.0 745188000000.0 813771000000.0 903117000000.0 978195000000.0 978809000000.0 865106000000.0 1.04884e+12 1.06376e+12 758521000000.0 401394000000.0 546238000000.0 735696000000.0 696534000000.0 418702000000.0 888820000000.0 733298000000.0 507851000000.0 409510000000.0 151397000000.0 59503600000.0 104693000000.0 81615300000.0 3496330000.0 48498400000.0 66237900000.0 159398000000.0 284023000000.0 118011000000.0 80232900000.0 69567700000.0 141192000000.0 236477000000.0 793241000000.0 1.06676e+12 595126000000.0 689390000000.0 849919000000.0 964166000000.0 1.01857e+12 965103000000.0 877077000000.0 792841000000.0 735133000000.0 698596000000.0 684897000000.0 685233000000.0 682788000000.0 670693000000.0 648084000000.0 615078000000.0 571741000000.0 519079000000.0 463572000000.0 421576000000.0 422109000000.0 490075000000.0 599854000000.0 673075000000.0 281357000000.0 274829000000.0 241364000000.0 186833000000.0 120396000000.0 50235300000.0 18973500000.0 85560000000.0 149253000000.0 209937000000.0 267115000000.0 319884000000.0 367156000000.0 408120000000.0 442711000000.0 471707000000.0 496297000000.0 518172000000.0 540986000000.0 571824000000.0 610832000000.0 649907000000.0 682116000000.0 711346000000.0 750232000000.0 810682000000.0 882776000000.0 942442000000.0 962416000000.0 925906000000.0 836734000000.0 921612000000.0 1.03595e+12 959704000000.0 460642000000.0 114669000000.0 514678000000.0 757681000000.0 589829000000.0 461690000000.0 610102000000.0 557600000000.0 354545000000.0 45751600000.0 151904000000.0 53038200000.0 61017600000.0 82701900000.0 98459000000.0 228314000000.0 122467000000.0 111289000000.0 163960000000.0 86295900000.0 476378000000.0 573854000000.0 516176000000.0 685746000000.0 641668000000.0 759273000000.0 870837000000.0 948397000000.0 1.01338e+12 957209000000.0 876831000000.0 801879000000.0 747419000000.0 711425000000.0 690884000000.0 678367000000.0 664016000000.0 642853000000.0 613239000000.0 575080000000.0 529881000000.0 481645000000.0 439996000000.0 422564000000.0 446790000000.0 506110000000.0 597650000000.0 482658000000.0 365133000000.0 255097000000.0 155223000000.0 66156600000.0 12476200000.0 80991600000.0 138676000000.0 183151000000.0 210495000000.0 216787000000.0 200574000000.0 164397000000.0 113957000000.0 55658700000.0 5580750000.0 66967500000.0 127113000000.0 185203000000.0 240539000000.0 292295000000.0 339618000000.0 381884000000.0 418922000000.0 451155000000.0 479606000000.0 505810000000.0 532139000000.0 562508000000.0 598204000000.0 635835000000.0 671442000000.0 706453000000.0 747068000000.0 800505000000.0 863126000000.0 915930000000.0 945579000000.0 971923000000.0 973896000000.0 977188000000.0 1.02503e+12 774429000000.0 238089000000.0 388886000000.0 502220000000.0 237848000000.0 485056000000.0 839383000000.0 351295000000.0 517944000000.0 468031000000.0 218707000000.0 43201700000.0 184387000000.0 20473000000.0 89584100000.0 127563000000.0 159699000000.0 215807000000.0 110671000000.0 207452000000.0 195207000000.0 347168000000.0 838564000000.0 401675000000.0 1.08804e+12 535950000000.0 819851000000.0 939925000000.0 1.01082e+12 1.03252e+12 997593000000.0 930994000000.0 856241000000.0 790117000000.0 739496000000.0 702918000000.0 677217000000.0 656980000000.0 635397000000.0 608343000000.0 574720000000.0 535596000000.0 494249000000.0 457102000000.0 569780000000.0 591558000000.0 532923000000.0 439821000000.0 338260000000.0 239805000000.0 149227000000.0 68253800000.0 2483150000.0 62246100000.0 109667000000.0 142512000000.0 158202000000.0 155156000000.0 134143000000.0 98413300000.0 52498900000.0 699338000.0 53768400000.0 108826000000.0 163157000000.0 215764000000.0 265777000000.0 782630000000.0 841227000000.0 897416000000.0 934247000000.0 975219000000.0 1.12273e+12 1.04544e+12 1.01171e+12 1.01045e+12 946589000000.0 497087000000.0 393092000000.0 64112600000.0 91583300000.0 251681000000.0 165799000000.0 207606000000.0 311299000000.0 177488000000.0 74323300000.0 30746400000.0 70516800000.0 283517000000.0 299989000000.0 332733000000.0 383717000000.0 571176000000.0 953942000000.0 633885000000.0 1.05252e+12 422072000000.0 979617000000.0 1.01859e+12 999868000000.0 950232000000.0 884123000000.0 815975000000.0 757013000000.0 711198000000.0 677063000000.0 434060000000.0 435419000000.0 463166000000.0 505278000000.0 537945000000.0 534401000000.0 481129000000.0 400851000000.0 311739000000.0 224262000000.0 143366000000.0 71415400000.0 9753530000.0 40491700000.0 77915100000.0 100827000000.0 107924000000.0 99198600000.0 76354600000.0 42355100000.0 587555000.0 312426000000.0 355118000000.0 393605000000.0 428117000000.0 459433000000.0 488790000000.0 517802000000.0 548635000000.0 582644000000.0 618814000000.0 655031000000.0 691755000000.0 732706000000.0 894108000000.0 1.10117e+12 1.08786e+12 1.00128e+12 979475000000.0 928293000000.0 797734000000.0 564136000000.0 447977000000.0 425001000000.0 356957000000.0 214300000000.0 33783800000.0 156873000000.0 86340600000.0 311263000000.0 379463000000.0 458475000000.0 425865000000.0 566782000000.0 217690000000.0 660073000000.0 989606000000.0 736650000000.0 873667000000.0 915861000000.0 949194000000.0 923823000000.0 874227000000.0 650598000000.0 626811000000.0 601124000000.0 571174000000.0 537085000000.0 501119000000.0 467821000000.0 443825000000.0 436085000000.0 446514000000.0 470402000000.0 496999000000.0 508706000000.0 490200000000.0 438781000000.0 367229000000.0 288026000000.0 210284000000.0 138941000000.0 45894800000.0 94758700000.0 144336000000.0 193380000000.0 240868000000.0 285986000000.0 328194000000.0 367213000000.0 403067000000.0 436210000000.0 467594000000.0 498494000000.0 530200000000.0 563562000000.0 598591000000.0 634504000000.0 670887000000.0 709415000000.0 753089000000.0 802745000000.0 854718000000.0 898028000000.0 930837000000.0 968580000000.0 864898000000.0 874752000000.0 799490000000.0 645009000000.0 451818000000.0 544761000000.0 531060000000.0 471714000000.0 405169000000.0 17503300000.0 13394600000.0 260627000000.0 239597000000.0 425001000000.0 352938000000.0 1.06562e+12 224011000000.0 357768000000.0 673100000000.0 790422000000.0 848123000000.0 857403000000.0 814664000000.0 756710000000.0 707875000000.0 669974000000.0 640778000000.0 616104000000.0 591656000000.0 564552000000.0 534272000000.0 502518000000.0 472684000000.0 449305000000.0 437079000000.0 438504000000.0 452203000000.0 471342000000.0 485053000000.0 482651000000.0 76378300000.0 24049400000.0 16955300000.0 45566300000.0 60740000000.0 62027000000.0 50173800000.0 27068500000.0 4797110000.0 42847500000.0 84810500000.0 128872000000.0 173604000000.0 217865000000.0 260763000000.0 301668000000.0 340238000000.0 376424000000.0 410482000000.0 443022000000.0 474969000000.0 507273000000.0 540485000000.0 574709000000.0 609768000000.0 645222000000.0 680958000000.0 717632000000.0 755190000000.0 791286000000.0 820930000000.0 795754000000.0 1.01483e+12 731757000000.0 757603000000.0 690572000000.0 574546000000.0 527213000000.0 607650000000.0 590464000000.0 635044000000.0 306268000000.0 9004370000.0 226439000000.0 64206600000.0 473917000000.0 413801000000.0 435724000000.0 877759000000.0 676320000000.0 739528000000.0 340697000000.0 625849000000.0 719307000000.0 831128000000.0 784902000000.0 732597000000.0 685493000000.0 648781000000.0 621435000000.0 599386000000.0 577946000000.0 553989000000.0 527023000000.0 498681000000.0 471664000000.0 449415000000.0 435275000000.0 431810000000.0 439172000000.0 453366000000.0 467399000000.0 455072000000.0 403669000000.0 338160000000.0 267692000000.0 198888000000.0 136679000000.0 83341100000.0 39745000000.0 6716680000.0 14827400000.0 24290300000.0 21800800000.0 8405750000.0 14142800000.0 43800400000.0 78553900000.0 116610000000.0 156459000000.0 196876000000.0 236888000000.0 275782000000.0 313134000000.0 348793000000.0 382857000000.0 415698000000.0 447955000000.0 480344000000.0 513321000000.0 546948000000.0 581137000000.0 615568000000.0 649188000000.0 680467000000.0 708023000000.0 729403000000.0 740423000000.0 712937000000.0 989826000000.0 907451000000.0 851612000000.0 845150000000.0 669882000000.0 627758000000.0 560852000000.0 562492000000.0 529318000000.0 570351000000.0 336521000000.0 1738650000.0 78044800000.0 79931200000.0 466538000000.0 322863000000.0 430699000000.0 727873000000.0 6665370000.0 502265000000.0 555944000000.0 332015000000.0 780288000000.0 766897000000.0 732848000000.0 686286000000.0 641502000000.0 607742000000.0 586061000000.0 571251000000.0 556663000000.0 537978000000.0 514637000000.0 489066000000.0 464232000000.0 443228000000.0 428773000000.0 472242000000.0 459899000000.0 426111000000.0 374565000000.0 313426000000.0 249906000000.0 190078000000.0 136913000000.0 91752000000.0 55557500000.0 28979800000.0 12718400000.0 7213800000.0 12078600000.0 26123700000.0 47763900000.0 75314800000.0 107140000000.0 141747000000.0 177860000000.0 214453000000.0 250742000000.0 286201000000.0 581647000000.0 614230000000.0 643503000000.0 665616000000.0 677599000000.0 677363000000.0 640405000000.0 869790000000.0 924094000000.0 809988000000.0 780455000000.0 727094000000.0 624470000000.0 516379000000.0 557580000000.0 494597000000.0 190041000000.0 216439000000.0 395480000000.0 260622000000.0 109049000000.0 452406000000.0 413254000000.0 568750000000.0 656476000000.0 701869000000.0 669632000000.0 626901000000.0 578975000000.0 543731000000.0 528392000000.0 526051000000.0 524359000000.0 422772000000.0 425853000000.0 436520000000.0 450718000000.0 460874000000.0 459195000000.0 440670000000.0 404075000000.0 350582000000.0 291166000000.0 234712000000.0 183709000000.0 138796000000.0 100438000000.0 69889100000.0 48135000000.0 35827700000.0 33137400000.0 39476900000.0 320579000000.0 353875000000.0 386271000000.0 418142000000.0 450008000000.0 482294000000.0 515089000000.0 548279000000.0 774699000000.0 784312000000.0 812597000000.0 697668000000.0 703459000000.0 619533000000.0 543571000000.0 606821000000.0 590221000000.0 419867000000.0 123351000000.0 379245000000.0 206884000000.0 437812000000.0 699474000000.0 307771000000.0 494911000000.0 565065000000.0 589563000000.0 556706000000.0 514648000000.0 496005000000.0 473284000000.0 450477000000.0 430602000000.0 416064000000.0 408483000000.0 408957000000.0 417365000000.0 431027000000.0 444882000000.0 453532000000.0 450380000000.0 426221000000.0 383003000000.0 328000000000.0 53662900000.0 74282600000.0 99890600000.0 129092000000.0 160620000000.0 193406000000.0 226620000000.0 259666000000.0 292189000000.0 324056000000.0 355315000000.0 386176000000.0 416967000000.0 448007000000.0 479449000000.0 511233000000.0 543145000000.0 574542000000.0 603423000000.0 625206000000.0 632895000000.0 624563000000.0 574786000000.0 692484000000.0 683502000000.0 600647000000.0 622184000000.0 518968000000.0 457060000000.0 517331000000.0 485186000000.0 441811000000.0 523344000000.0 17158700000.0 177551000000.0 184865000000.0 551910000000.0 537089000000.0 115209000000.0 346177000000.0 266981000000.0 288593000000.0 431506000000.0 472289000000.0 510181000000.0 462236000000.0 443775000000.0 455691000000.0 475377000000.0 482031000000.0 470431000000.0 451022000000.0 430067000000.0 411258000000.0 396946000000.0 388697000000.0 387390000000.0 393251000000.0 405888000000.0 422869000000.0 438878000000.0 448993000000.0 445467000000.0 272836000000.0 223421000000.0 179992000000.0 140764000000.0 107394000000.0 81207900000.0 63059400000.0 53690200000.0 53104400000.0 60470900000.0 74591200000.0 94195000000.0 118018000000.0 144847000000.0 173602000000.0 203413000000.0 233639000000.0 263839000000.0 293772000000.0 323383000000.0 352734000000.0 381965000000.0 411266000000.0 440778000000.0 470503000000.0 500272000000.0 529633000000.0 557362000000.0 580551000000.0 592062000000.0 579198000000.0 517634000000.0 699472000000.0 715846000000.0 523612000000.0 521731000000.0 427396000000.0 368681000000.0 407097000000.0 439214000000.0 339859000000.0 41134600000.0 80412100000.0 229236000000.0 493979000000.0 364643000000.0 87387900000.0 232304000000.0 142631000000.0 472411000000.0 437394000000.0 390254000000.0 339867000000.0 349888000000.0 400765000000.0 437086000000.0 435600000000.0 420933000000.0 402685000000.0 385467000000.0 371825000000.0 363145000000.0 360184000000.0 363969000000.0 375219000000.0 392015000000.0 411075000000.0 410594000000.0 359890000000.0 307799000000.0 259158000000.0 217004000000.0 177445000000.0 141380000000.0 111090000000.0 88008000000.0 72881000000.0 66063300000.0 67200300000.0 75337200000.0 89314400000.0 107963000000.0 130142000000.0 154793000000.0 181029000000.0 208170000000.0 235715000000.0 263345000000.0 290899000000.0 318329000000.0 345643000000.0 372882000000.0 400092000000.0 427236000000.0 454116000000.0 480393000000.0 505356000000.0 527451000000.0 543439000000.0 542737000000.0 473282000000.0 624042000000.0 662065000000.0 673663000000.0 626898000000.0 598825000000.0 349260000000.0 315017000000.0 415723000000.0 275703000000.0 505124000000.0 61063600000.0 99986700000.0 207038000000.0 57447600000.0 138687000000.0 59083100000.0 279812000000.0 377771000000.0 383592000000.0 360787000000.0 324305000000.0 281090000000.0 212497000000.0 280363000000.0 374767000000.0 388034000000.0 380885000000.0 367250000000.0 352872000000.0 340642000000.0 431011000000.0 444453000000.0 441402000000.0 401787000000.0 340718000000.0 289069000000.0 249962000000.0 211195000000.0 172594000000.0 138056000000.0 110143000000.0 89718700000.0 77341500000.0 72937200000.0 75693100000.0 84521000000.0 98326000000.0 116042000000.0 136658000000.0 159277000000.0 468044000000.0 481152000000.0 484970000000.0 428786000000.0 538170000000.0 585483000000.0 609020000000.0 593760000000.0 568444000000.0 523156000000.0 455292000000.0 428672000000.0 188890000000.0 348981000000.0 9128790000.0 54244300000.0 420071000000.0 174521000000.0 285815000000.0 326356000000.0 289336000000.0 253409000000.0 332162000000.0 328449000000.0 330142000000.0 337913000000.0 352199000000.0 372058000000.0 394323000000.0 417732000000.0 441822000000.0 453332000000.0 394209000000.0 323057000000.0 281427000000.0 240902000000.0 200186000000.0 161585000000.0 183193000000.0 207890000000.0 232990000000.0 258225000000.0 283442000000.0 308576000000.0 333588000000.0 358388000000.0 382770000000.0 406468000000.0 429102000000.0 450003000000.0 499187000000.0 533385000000.0 547467000000.0 537962000000.0 495672000000.0 497087000000.0 416435000000.0 393418000000.0 344180000000.0 238919000000.0 258487000000.0 760229000.0 55770500000.0 47953400000.0 217997000000.0 317276000000.0 72041200000.0 57959100000.0 90400600000.0 14667200000.0 313894000000.0 255095000000.0 235033000000.0 216622000000.0 103457000000.0 252810000000.0 314408000000.0 326768000000.0 322368000000.0 313198000000.0 304066000000.0 296747000000.0 292390000000.0 291994000000.0 296693000000.0 307383000000.0 323668000000.0 344755000000.0 371227000000.0 403583000000.0 444810000000.0 481133000000.0 128767000000.0 103380000000.0 86042200000.0 76749900000.0 74777900000.0 79052200000.0 88491300000.0 102074000000.0 118838000000.0 137916000000.0 158602000000.0 180365000000.0 202790000000.0 225550000000.0 248429000000.0 271297000000.0 294024000000.0 316408000000.0 338156000000.0 358922000000.0 378313000000.0 395733000000.0 409857000000.0 418852000000.0 420360000000.0 385845000000.0 428693000000.0 435699000000.0 411964000000.0 344734000000.0 335746000000.0 260317000000.0 281977000000.0 163014000000.0 354299000000.0 39581200000.0 43943300000.0 50019300000.0 222516000000.0 218898000000.0 31587000000.0 58417200000.0 68229000000.0 8083170000.0 173300000000.0 157686000000.0 178595000000.0 142682000000.0 39662400000.0 247282000000.0 272588000000.0 274314000000.0 269479000000.0 263403000000.0 257708000000.0 253390000000.0 251445000000.0 252921000000.0 258836000000.0 270074000000.0 286813000000.0 307964000000.0 333095000000.0 365466000000.0 402605000000.0 480899000000.0 378441000000.0 328294000000.0 273991000000.0 225023000000.0 180862000000.0 143092000000.0 113008000000.0 91203400000.0 77696300000.0 71739800000.0 72157800000.0 77817600000.0 87713000000.0 100934000000.0 116674000000.0 134245000000.0 153089000000.0 172783000000.0 193010000000.0 213519000000.0 234114000000.0 254596000000.0 274698000000.0 294135000000.0 312608000000.0 329698000000.0 344765000000.0 356737000000.0 364050000000.0 366336000000.0 344631000000.0 383831000000.0 504414000000.0 438294000000.0 468691000000.0 269720000000.0 235575000000.0 269274000000.0 100667000000.0 254445000000.0 16136200000.0 6218970000.0 30671600000.0 66041000000.0 48368000000.0 48245200000.0 39587000000.0 31566400000.0 377139000000.0 91344600000.0 46983600000.0 135325000000.0 152987000000.0 100955000000.0 232069000000.0 234538000000.0 228680000000.0 223055000000.0 217739000000.0 212991000000.0 209281000000.0 207798000000.0 209707000000.0 335267000000.0 289675000000.0 239641000000.0 192979000000.0 151616000000.0 117508000000.0 91879600000.0 74954800000.0 65882900000.0 63229400000.0 65752200000.0 72481300000.0 82565700000.0 95242400000.0 109862000000.0 125897000000.0 142945000000.0 160696000000.0 178876000000.0 197232000000.0 215530000000.0 233543000000.0 251029000000.0 267649000000.0 282888000000.0 296029000000.0 306470000000.0 313768000000.0 318014000000.0 302550000000.0 312700000000.0 386304000000.0 438775000000.0 360771000000.0 383658000000.0 366929000000.0 348833000000.0 342687000000.0 167904000000.0 48145400000.0 4586250000.0 184817000000.0 133295000000.0 15383400000.0 466422000000.0 188459000000.0 5853430000.0 208462000000.0 197700000000.0 215754000000.0 226365000000.0 241748000000.0 261725000000.0 286764000000.0 318064000000.0 369660000000.0 441173000000.0 271227000000.0 239318000000.0 195789000000.0 153480000000.0 116467000000.0 87601800000.0 67936900000.0 56624600000.0 259404000000.0 319222000000.0 343814000000.0 348481000000.0 276214000000.0 314279000000.0 287406000000.0 277916000000.0 261327000000.0 161513000000.0 241021000000.0 123981000000.0 22521400000.0 44562200000.0 63443200000.0 31312600000.0 150322000000.0 70021500000.0 61426700000.0 24898000000.0 1303950000.0 54857600000.0 1489110000.0 187396000000.0 145954000000.0 53127900000.0 18983600000.0 187708000000.0 180593000000.0 173870000000.0 167299000000.0 162118000000.0 159718000000.0 161094000000.0 166762000000.0 176839000000.0 191331000000.0 211108000000.0 238217000000.0 276435000000.0 327019000000.0 379945000000.0 51806700000.0 51931400000.0 56015200000.0 63360100000.0 73293800000.0 85211600000.0 98636300000.0 113189000000.0 128560000000.0 144485000000.0 160701000000.0 176975000000.0 193043000000.0 208599000000.0 223366000000.0 236816000000.0 248466000000.0 258104000000.0 265366000000.0 270917000000.0 260257000000.0 264434000000.0 222081000000.0 236371000000.0 220539000000.0 220934000000.0 170687000000.0 175360000000.0 138493000000.0 163702000000.0 66100200000.0 29301500000.0 53062900000.0 41563100000.0 33219800000.0 112613000000.0 22125200000.0 12096300000.0 428374000000.0 11295800000.0 133516000000.0 130079000000.0 46829600000.0 246384000.0 33413400000.0 182216000000.0 163851000000.0 148026000000.0 136911000000.0 126287000000.0 116637000000.0 109358000000.0 105637000000.0 106113000000.0 111303000000.0 121361000000.0 137238000000.0 158270000000.0 188793000000.0 228238000000.0 272386000000.0 309630000000.0 215085000000.0 188853000000.0 149043000000.0 110428000000.0 78643000000.0 56720300000.0 43927500000.0 37708900000.0 36177800000.0 38167600000.0 43093400000.0 50527700000.0 59993300000.0 71041900000.0 83303400000.0 96468400000.0 110289000000.0 124546000000.0 138932000000.0 153104000000.0 166821000000.0 179798000000.0 191859000000.0 203020000000.0 212471000000.0 219179000000.0 223577000000.0 216421000000.0 209458000000.0 263789000000.0 298527000000.0 291690000000.0 134419000000.0 136580000000.0 109092000000.0 128961000000.0 111837000000.0 50060500000.0 29652800000.0 36160100000.0 13130700000.0 56230700000.0 3467810000.0 3204880000.0 276344000000.0 135777000000.0 35585300000.0 147060000000.0 125490000000.0 105910000000.0 86833400000.0 70115400000.0 56825200000.0 47688500000.0 43124500000.0 43408100000.0 48605900000.0 58737300000.0 79001900000.0 165921000000.0 140466000000.0 101155000000.0 65851300000.0 41758800000.0 28477200000.0 21497000000.0 18708000000.0 18938300000.0 21681200000.0 26749400000.0 33879600000.0 42727600000.0 52944400000.0 64201600000.0 76223100000.0 88741500000.0 101397000000.0 113898000000.0 126141000000.0 137878000000.0 148641000000.0 158667000000.0 167598000000.0 174012000000.0 177597000000.0 171792000000.0 158782000000.0 197684000000.0 227547000000.0 234271000000.0 207029000000.0 188834000000.0 163041000000.0 170681000000.0 165194000000.0 105959000000.0 68225800000.0 29791300000.0 27924700000.0 25478100000.0 83836200000.0 2260790000.0 17847500000.0 21084000000.0 32669400000.0 161641000000.0 9037950000.0 15403600000.0 9981270000.0 24145300000.0 124835000000.0 87280800000.0 102727000000.0 133177000000.0 171667000000.0 211344000000.0 236474000000.0 122475000000.0 92654000000.0 51721900000.0 24060200000.0 11789300000.0 4648080000.0 489237000.0 1259570000.0 874102000.0 127627000000.0 111545000000.0 133862000000.0 149985000000.0 169459000000.0 158934000000.0 129344000000.0 124833000000.0 111462000000.0 116323000000.0 99124200000.0 108842000000.0 104392000000.0 28669700000.0 20883600000.0 1869360000.0 12056900000.0 22997000000.0 4027740000.0 34721100000.0 86765300000.0 47455100000.0 1042300000.0 1813850000.0 10538500000.0 967548000.0 51001400000.0 22573100000.0 672751000.0 15391600000.0 25790100000.0 30469000000.0 29727400000.0 23928700000.0 12858400000.0 18979300000.0 43952800000.0 71448000000.0 113802000000.0 146258000000.0 162903000000.0 1703690000.0 6501020000.0 13262900000.0 21645600000.0 31329300000.0 41939900000.0 53087200000.0 64465700000.0 75825300000.0 86825200000.0 97063400000.0 106570000000.0 114419000000.0 121996000000.0 129524000000.0 133133000000.0 112806000000.0 74341400000.0 80638600000.0 80506500000.0 80675600000.0 81103900000.0 78548500000.0 87921200000.0 32133300000.0 57055400000.0 66892800000.0 53282400000.0 14561300000.0 13684800000.0 68710600000.0 64330200000.0 9815460000.0 12566700000.0 27377300000.0 24983800000.0 12791700000.0 100507000000.0 39455800000.0 5529100000.0 39025800000.0 64073900000.0 82335700000.0 94351400000.0 101129000000.0 102783000000.0 99127000000.0 90499300000.0 41040900000.0 9037270000.0 24852400000.0 48441800000.0 73403600000.0 88308600000.0 82020800000.0 40650000000.0 5546760000.0 2812220000.0 9910180000.0 16358900000.0 21327200000.0 24285800000.0 24829400000.0 22731500000.0 18100700000.0 11314700000.0 2854350000.0 6803170000.0 17260100000.0 28124100000.0 38855200000.0 48885900000.0 57879900000.0 65861000000.0 73081200000.0 78038500000.0 83674100000.0 87431300000.0 83667000000.0 68143300000.0 87880600000.0 94635700000.0 103153000000.0 41276500000.0 17756300000.0 6370470000.0 22087000000.0 13006200000.0 12614500000.0 25954000000.0 9788740000.0 11770200000.0 15073700000.0 17854500000.0 20942200000.0 76531800000.0 20232500000.0 14368200000.0 15413300000.0 13621600000.0 62310700000.0 61839000000.0 61709900000.0 61658100000.0 61203000000.0 37127000000.0 7890820000.0 6745660000.0 16230800000.0 28476600000.0 39573000000.0 47960400000.0 53092900000.0 54591200000.0 52460000000.0 47191900000.0 39489200000.0 30045600000.0 19439000000.0 8247010000.0 2719150000.0 12769100000.0 21456600000.0 28139900000.0 32077800000.0 34795900000.0 36146600000.0 36067600000.0 37136800000.0 22999900000.0 33312500000.0 35732300000.0 36675000000.0 33609900000.0 11667100000.0 19105800000.0 43993300000.0 59101300000.0 70036500000.0 67260800000.0 54567600000.0 45835600000.0 59758200000.0 57720700000.0 54893000000.0 51132000000.0 46255300000.0 40137800000.0 22555700000.0 14168500000.0 28271300000.0 30092000000.0 13150200000.0 11135000000.0 