# vtk DataFile Version 2.0
Time step 58
ASCII
DATASET UNSTRUCTURED_GRID
POINTS 4650 float
200970.0 375500.0 0
204924.0 376195.0 0
295076.0 376195.0 0
299030.0 375500.0 0
194554.0 380720.0 0
197940.0 378613.0 0
201532.0 379438.0 0
208268.0 378565.0 0
210116.0 375059.0 0
217179.0 377097.0 0
221059.0 377998.0 0
224991.0 377347.0 0
232271.0 377613.0 0
267729.0 377613.0 0
275009.0 377347.0 0
278941.0 377998.0 0
282821.0 377097.0 0
289884.0 375059.0 0
291732.0 378565.0 0
298468.0 379438.0 0
302060.0 378613.0 0
305446.0 380720.0 0
191191.0 382821.0 0
197776.0 382249.0 0
205018.0 380758.0 0
213237.0 377538.0 0
228576.0 379120.0 0
235606.0 380017.0 0
239078.0 378084.0 0
242510.0 380109.0 0
246233.0 378682.0 0
250000.0 379992.0 0
253767.0 378682.0 0
257490.0 380109.0 0
260922.0 378084.0 0
264394.0 380017.0 0
271424.0 379120.0 0
286763.0 377538.0 0
294982.0 380758.0 0
302224.0 382249.0 0
308809.0 382821.0 0
187850.0 384909.0 0
194419.0 384341.0 0
201168.0 383378.0 0
204545.0 384731.0 0
208060.0 383030.0 0
211391.0 381012.0 0
214855.0 382842.0 0
218344.0 380916.0 0
221740.0 383125.0 0
225261.0 381327.0 0
231983.0 381594.0 0
238521.0 382732.0 0
242278.0 384094.0 0
246112.0 382962.0 0
250000.0 383984.0 0
253888.0 382962.0 0
257722.0 384094.0 0
261479.0 382732.0 0
268017.0 381594.0 0
274739.0 381327.0 0
278260.0 383125.0 0
281656.0 380916.0 0
285145.0 382842.0 0
288609.0 381012.0 0
291940.0 383030.0 0
295455.0 384731.0 0
298832.0 383378.0 0
305581.0 384341.0 0
312150.0 384909.0 0
184523.0 386987.0 0
187745.0 388508.0 0
191080.0 386433.0 0
194307.0 388001.0 0
197648.0 385898.0 0
200951.0 387280.0 0
207532.0 386947.0 0
211355.0 384997.0 0
218226.0 384899.0 0
225110.0 385401.0 0
228566.0 383538.0 0
234866.0 384355.0 0
265134.0 384355.0 0
271434.0 383538.0 0
274890.0 385401.0 0
281774.0 384899.0 0
288645.0 384997.0 0
292468.0 386947.0 0
299049.0 387280.0 0
302352.0 385898.0 0
305693.0 388001.0 0
308920.0 386433.0 0
312255.0 388508.0 0
315477.0 386987.0 0
177904.0 391121.0 0
181208.0 389057.0 0
184420.0 390573.0 0
190956.0 390079.0 0
197547.0 389597.0 0
204167.0 388986.0 0
210697.0 388882.0 0
214758.0 386825.0 0
221605.0 387141.0 0
227780.0 388400.0 0
231309.0 386410.0 0
234795.0 388342.0 0
238440.0 386710.0 0
242194.0 388086.0 0
246052.0 386953.0 0
250000.0 387978.0 0
253948.0 386953.0 0
257806.0 388086.0 0
261560.0 386710.0 0
265205.0 388342.0 0
268691.0 386410.0 0
272220.0 388400.0 0
278395.0 387141.0 0
285242.0 386825.0 0
289303.0 388882.0 0
295833.0 388986.0 0
302453.0 389597.0 0
309044.0 390079.0 0
315580.0 390573.0 0
318792.0 389057.0 0
322096.0 391121.0 0
174608.0 393180.0 0
181108.0 392629.0 0
187619.0 392144.0 0
194161.0 391685.0 0
200811.0 391155.0 0
204014.0 392943.0 0
207353.0 390922.0 0
213924.0 390687.0 0
218105.0 388840.0 0
224247.0 390200.0 0
231349.0 390385.0 0
238456.0 390681.0 0
246013.0 390934.0 0
253987.0 390934.0 0
261544.0 390681.0 0
268651.0 390385.0 0
275753.0 390200.0 0
281895.0 388840.0 0
286076.0 390687.0 0
292647.0 390922.0 0
295986.0 392943.0 0
299189.0 391155.0 0
305839.0 391685.0 0
312381.0 392144.0 0
318892.0 392629.0 0
325392.0 393180.0 0
171316.0 395237.0 0
177805.0 394678.0 0
180990.0 396240.0 0
184297.0 394198.0 0
187471.0 395821.0 0
190804.0 393761.0 0
193969.0 395418.0 0
197343.0 393330.0 0
200507.0 395001.0 0
207266.0 394895.0 0
210584.0 392848.0 0
213867.0 394636.0 0
217146.0 392562.0 0
221005.0 392415.0 0
227928.0 392389.0 0
234839.0 392315.0 0
242188.0 392085.0 0
250000.0 391974.0 0
257812.0 392085.0 0
265161.0 392315.0 0
272072.0 392389.0 0
278995.0 392415.0 0
282854.0 392562.0 0
286133.0 394636.0 0
289416.0 392848.0 0
292734.0 394895.0 0
299493.0 395001.0 0
302657.0 393330.0 0
306031.0 395418.0 0
309196.0 393761.0 0
312529.0 395821.0 0
315703.0 394198.0 0
319010.0 396240.0 0
322195.0 394678.0 0
328684.0 395237.0 0
168029.0 397291.0 0
171213.0 398768.0 0
174507.0 396722.0 0
177691.0 398271.0 0
184159.0 397864.0 0
190624.0 397491.0 0
197115.0 397112.0 0
203639.0 396796.0 0
210629.0 396931.0 0
218963.0 395832.0 0
222328.0 397589.0 0
224475.0 394286.0 0
228048.0 396367.0 0
231451.0 394367.0 0
234983.0 396284.0 0
238610.0 394654.0 0
242335.0 396081.0 0
246151.0 394905.0 0
250000.0 395973.0 0
253849.0 394905.0 0
257665.0 396081.0 0
261390.0 394654.0 0
265017.0 396284.0 0
268549.0 394367.0 0
271952.0 396367.0 0
275525.0 394286.0 0
277672.0 397589.0 0
281037.0 395832.0 0
289371.0 396931.0 0
296361.0 396796.0 0
302885.0 397112.0 0
309376.0 397491.0 0
315841.0 397864.0 0
322309.0 398271.0 0
325493.0 396722.0 0
328787.0 398768.0 0
331971.0 397291.0 0
161494.0 401377.0 0
164752.0 399339.0 0
167928.0 400822.0 0
174397.0 400297.0 0
180861.0 399890.0 0
187306.0 399544.0 0
193757.0 399199.0 0
200231.0 398854.0 0
203309.0 400689.0 0
206712.0 398714.0 0
209656.0 400782.0 0
215697.0 397906.0 0
219035.0 399747.0 0
225651.0 399461.0 0
231602.0 398343.0 0
238733.0 398628.0 0
246180.0 398870.0 0
253820.0 398870.0 0
261267.0 398628.0 0
268398.0 398343.0 0
274349.0 399461.0 0
280965.0 399747.0 0
284303.0 397906.0 0
290344.0 400782.0 0
293288.0 398714.0 0
296691.0 400689.0 0
299769.0 398854.0 0
306243.0 399199.0 0
312694.0 399544.0 0
319139.0 399890.0 0
325603.0 400297.0 0
332072.0 400822.0 0
335248.0 399339.0 0
338506.0 401377.0 0
158260.0 403399.0 0
164665.0 402886.0 0
167840.0 404394.0 0
171109.0 402332.0 0
174288.0 403905.0 0
177572.0 401899.0 0
180725.0 403580.0 0
184009.0 401574.0 0
187132.0 403314.0 0
190432.0 401269.0 0
193536.0 403028.0 0
196867.0 400943.0 0
199956.0 402738.0 0
206349.0 402640.0 0
213171.0 400623.0 0
216363.0 402516.0 0
222358.0 401577.0 0
229012.0 401300.0 0
235113.0 400260.0 0
242407.0 400167.0 0
250000.0 400028.0 0
257593.0 400167.0 0
264887.0 400260.0 0
270988.0 401300.0 0
277642.0 401577.0 0
283637.0 402516.0 0
286829.0 400623.0 0
293651.0 402640.0 0
300044.0 402738.0 0
303133.0 400943.0 0
306464.0 403028.0 0
309568.0 401269.0 0
312868.0 403314.0 0
315991.0 401574.0 0
319275.0 403580.0 0
322428.0 401899.0 0
325712.0 403905.0 0
328891.0 402332.0 0
332160.0 404394.0 0
335335.0 402886.0 0
341740.0 403399.0 0
155050.0 405407.0 0
158244.0 406977.0 0
161437.0 404941.0 0
164610.0 406483.0 0
171016.0 405931.0 0
177450.0 405564.0 0
183851.0 405328.0 0
190233.0 405094.0 0
196628.0 404816.0 0
203034.0 404605.0 0
209479.0 404632.0 0
213100.0 404547.0 0
219605.0 404342.0 0
225707.0 403440.0 0
229097.0 405282.0 0
232408.0 403130.0 0
235842.0 404953.0 0
239019.0 402598.0 0
242567.0 404397.0 0
246233.0 402831.0 0
250000.0 404148.0 0
253767.0 402831.0 0
257433.0 404397.0 0
260981.0 402598.0 0
264158.0 404953.0 0
267592.0 403130.0 0
270903.0 405282.0 0
274293.0 403440.0 0
280395.0 404342.0 0
286900.0 404547.0 0
290521.0 404632.0 0
296966.0 404605.0 0
303372.0 404816.0 0
309767.0 405094.0 0
316149.0 405328.0 0
322550.0 405564.0 0
328984.0 405931.0 0
335390.0 406483.0 0
338563.0 404941.0 0
341756.0 406977.0 0
344950.0 405407.0 0
148645.0 409409.0 0
151850.0 407407.0 0
155070.0 408985.0 0
161435.0 408564.0 0
167777.0 408012.0 0
174184.0 407546.0 0
177323.0 409268.0 0
180582.0 407311.0 0
183678.0 409126.0 0
186949.0 407129.0 0
193320.0 406900.0 0
199721.0 406640.0 0
202850.0 408498.0 0
206161.0 406521.0 0
209368.0 408443.0 0
216326.0 406465.0 0
222880.0 406153.0 0
232520.0 407117.0 0
239333.0 406754.0 0
246305.0 406788.0 0
253695.0 406788.0 0
260667.0 406754.0 0
267480.0 407117.0 0
277120.0 406153.0 0
283674.0 406465.0 0
290632.0 408443.0 0
293839.0 406521.0 0
297150.0 408498.0 0
300279.0 406640.0 0
306680.0 406900.0 0
313051.0 407129.0 0
316322.0 409126.0 0
319418.0 407311.0 0
322677.0 409268.0 0
325816.0 407546.0 0
332223.0 408012.0 0
338565.0 408564.0 0
344930.0 408985.0 0
348150.0 407407.0 0
351355.0 409409.0 0
145410.0 411429.0 0
151888.0 410973.0 0
158300.0 410605.0 0
161522.0 412259.0 0
164608.0 410150.0 0
167759.0 411685.0 0
170941.0 409566.0 0
174084.0 411225.0 0
180415.0 411087.0 0
186754.0 410984.0 0
190032.0 408961.0 0
193115.0 410804.0 0
196413.0 408710.0 0
199542.0 410536.0 0
206039.0 410373.0 0
213034.0 408498.0 0
219594.0 408307.0 0
222901.0 410120.0 0
226197.0 407944.0 0
229550.0 409730.0 0
235978.0 408935.0 0
242813.0 408647.0 0
250000.0 408251.0 0
257187.0 408647.0 0
264022.0 408935.0 0
270450.0 409730.0 0
273803.0 407944.0 0
277099.0 410120.0 0
280406.0 408307.0 0
286966.0 408498.0 0
293961.0 410373.0 0
300458.0 410536.0 0
303587.0 408710.0 0
306885.0 410804.0 0
309968.0 408961.0 0
313246.0 410984.0 0
319585.0 411087.0 0
325916.0 411225.0 0
329059.0 409566.0 0
332241.0 411685.0 0
335392.0 410150.0 0
338478.0 412259.0 0
341700.0 410605.0 0
348112.0 410973.0 0
354590.0 411429.0 0
138813.0 415552.0 0
142128.0 413478.0 0
145386.0 414905.0 0
148666.0 412937.0 0
155156.0 412588.0 0
164711.0 413915.0 0
170891.0 413243.0 0
177166.0 413020.0 0
183476.0 412962.0 0
189830.0 412862.0 0
196233.0 412606.0 0
202725.0 412370.0 0
209294.0 412235.0 0
212983.0 412467.0 0
216288.0 410416.0 0
219586.0 412261.0 0
226242.0 411916.0 0
232937.0 411511.0 0
239449.0 410764.0 0
242912.0 412690.0 0
246365.0 410758.0 0
250000.0 412355.0 0
253635.0 410758.0 0
257088.0 412690.0 0
260551.0 410764.0 0
267063.0 411511.0 0
273758.0 411916.0 0
280414.0 412261.0 0
283712.0 410416.0 0
287017.0 412467.0 0
290706.0 412235.0 0
297275.0 412370.0 0
303767.0 412606.0 0
310170.0 412862.0 0
316524.0 412962.0 0
322834.0 413020.0 0
329109.0 413243.0 0
335289.0 413915.0 0
344844.0 412588.0 0
351334.0 412937.0 0
354614.0 414905.0 0
357872.0 413478.0 0
361187.0 415552.0 0
135504.0 417625.0 0
142058.0 416949.0 0
148699.0 416450.0 0
151952.0 414543.0 0
155261.0 416183.0 0
158453.0 414274.0 0
161778.0 416026.0 0
167836.0 415436.0 0
170809.0 417000.0 0
173947.0 414958.0 0
176924.0 416820.0 0
180196.0 414905.0 0
183226.0 416819.0 0
186538.0 414868.0 0
189623.0 416785.0 0
192925.0 414734.0 0
199416.0 414419.0 0
202653.0 416230.0 0
205961.0 414216.0 0
209250.0 416018.0 0
216262.0 414369.0 0
222919.0 414076.0 0
229611.0 413706.0 0
232996.0 415498.0 0
236353.0 413276.0 0
239761.0 415108.0 0
246489.0 414745.0 0
253511.0 414745.0 0
260239.0 415108.0 0
263647.0 413276.0 0
267004.0 415498.0 0
270389.0 413706.0 0
277081.0 414076.0 0
283738.0 414369.0 0
290750.0 416018.0 0
294039.0 414216.0 0
297347.0 416230.0 0
300584.0 414419.0 0
307075.0 414734.0 0
310377.0 416785.0 0
313462.0 414868.0 0
316774.0 416819.0 0
319804.0 414905.0 0
323076.0 416820.0 0
326053.0 414958.0 0
329191.0 417000.0 0
332164.0 415436.0 0
338222.0 416026.0 0
341547.0 414274.0 0
344739.0 416183.0 0
348048.0 414543.0 0
351301.0 416450.0 0
357942.0 416949.0 0
364496.0 417625.0 0
132248.0 419668.0 0
138730.0 419076.0 0
145386.0 418346.0 0
152022.0 418123.0 0
158602.0 417917.0 0
165161.0 417826.0 0
173666.0 418750.0 0
179896.0 418746.0 0
186289.0 418761.0 0
192743.0 418695.0 0
196093.0 416476.0 0
199351.0 418294.0 0
205926.0 418073.0 0
212946.0 416447.0 0
219586.0 416209.0 0
222939.0 418027.0 0
226277.0 415879.0 0
229651.0 417678.0 0
236408.0 417265.0 0
243187.0 416957.0 0
250000.0 416627.0 0
256813.0 416957.0 0
263592.0 417265.0 0
270349.0 417678.0 0
273723.0 415879.0 0
277061.0 418027.0 0
280414.0 416209.0 0
287054.0 416447.0 0
294074.0 418073.0 0
300649.0 418294.0 0
303907.0 416476.0 0
307257.0 418695.0 0
313711.0 418761.0 0
320104.0 418746.0 0
326334.0 418750.0 0
334839.0 417826.0 0
341398.0 417917.0 0
347978.0 418123.0 0
354614.0 418346.0 0
361270.0 419076.0 0
367752.0 419668.0 0
129089.0 421657.0 0
132303.0 423441.0 0
135456.0 421252.0 0
138738.0 422616.0 0
142041.0 420401.0 0
145429.0 421739.0 0
148757.0 419954.0 0
152080.0 421757.0 0
155346.0 419755.0 0
158693.0 421551.0 0
161957.0 419725.0 0
165274.0 421624.0 0
168541.0 419816.0 0
171861.0 421933.0 0
176530.0 420629.0 0
179477.0 422563.0 0
182930.0 420670.0 0
189381.0 420714.0 0
196025.0 420271.0 0
202627.0 420083.0 0
209250.0 419795.0 0
212927.0 420436.0 0
216249.0 418318.0 0
219598.0 420150.0 0
226307.0 419842.0 0
233032.0 419483.0 0
239818.0 419092.0 0
243237.0 420944.0 0
246646.0 418796.0 0
250000.0 420836.0 0
253354.0 418796.0 0
256763.0 420944.0 0
260182.0 419092.0 0
266968.0 419483.0 0
273693.0 419842.0 0
280402.0 420150.0 0
283751.0 418318.0 0
287073.0 420436.0 0
290750.0 419795.0 0
297373.0 420083.0 0
303975.0 420271.0 0
310619.0 420714.0 0
317070.0 420670.0 0
320523.0 422563.0 0
323470.0 420629.0 0
328139.0 421933.0 0
331459.0 419816.0 0
334726.0 421624.0 0
338043.0 419725.0 0
341307.0 421551.0 0
344654.0 419755.0 0
347920.0 421757.0 0
351243.0 419954.0 0
354571.0 421739.0 0
357959.0 420401.0 0
361262.0 422616.0 0
364544.0 421252.0 0
367697.0 423441.0 0
370911.0 421657.0 0
123120.0 425381.0 0
126137.0 423697.0 0
135585.0 424945.0 0
142064.0 423836.0 0
145445.0 425035.0 0
148841.0 423469.0 0
155365.0 423288.0 0
161998.0 423450.0 0
168522.0 423665.0 0
175117.0 424062.0 0
182540.0 424438.0 0
186052.0 422662.0 0
192436.0 422684.0 0
199262.0 422201.0 0
202579.0 423841.0 0
205992.0 421977.0 0
209497.0 423564.0 0
216251.0 422255.0 0
222972.0 421978.0 0
229677.0 421652.0 0
236452.0 421241.0 0
239855.0 423071.0 0
260145.0 423071.0 0
263548.0 421241.0 0
270323.0 421652.0 0
277028.0 421978.0 0
283749.0 422255.0 0
290503.0 423564.0 0
294008.0 421977.0 0
297421.0 423841.0 0
300738.0 422201.0 0
307564.0 422684.0 0
313948.0 422662.0 0
317460.0 424438.0 0
324883.0 424062.0 0
331478.0 423665.0 0
338002.0 423450.0 0
344635.0 423288.0 0
351159.0 423469.0 0
354555.0 425035.0 0
357936.0 423836.0 0
364415.0 424945.0 0
373863.0 423697.0 0
376880.0 425381.0 0
116765.0 429333.0 0
119971.0 427330.0 0
123221.0 428921.0 0
129346.0 425675.0 0
132649.0 427322.0 0
138857.0 426213.0 0
142106.0 427282.0 0
148689.0 426971.0 0
152090.0 425554.0 0
155512.0 426651.0 0
158743.0 425204.0 0
165173.0 425446.0 0
171762.0 425792.0 0
178283.0 426145.0 0
185563.0 426466.0 0
189168.0 424838.0 0
195827.0 423982.0 0
198820.0 426172.0 0
205766.0 425903.0 0
212662.0 425697.0 0
219654.0 424082.0 0
222971.0 425954.0 0
226325.0 423820.0 0
229703.0 425623.0 0
233062.0 423462.0 0
236484.0 425216.0 0
243245.0 424941.0 0
246621.0 422868.0 0
250000.0 424842.0 0
253379.0 422868.0 0
256755.0 424941.0 0
263516.0 425216.0 0
266938.0 423462.0 0
270297.0 425623.0 0
273675.0 423820.0 0
277029.0 425954.0 0
280346.0 424082.0 0
287338.0 425697.0 0
294234.0 425903.0 0
301180.0 426172.0 0
304173.0 423982.0 0
310832.0 424838.0 0
314437.0 426466.0 0
321717.0 426145.0 0
328238.0 425792.0 0
334827.0 425446.0 0
341257.0 425204.0 0
344488.0 426651.0 0
347910.0 425554.0 0
351311.0 426971.0 0
357894.0 427282.0 0
361143.0 426213.0 0
367351.0 427322.0 0
370654.0 425675.0 0
376779.0 428921.0 0
380029.0 427330.0 0
383235.0 429333.0 0
113552.0 431345.0 0
119983.0 430832.0 0
123278.0 432308.0 0
126501.0 427905.0 0
129761.0 429664.0 0
135992.0 428752.0 0
145283.0 428245.0 0
150964.0 429689.0 0
154517.0 429734.0 0
158356.0 429039.0 0
161791.0 427267.0 0
164938.0 429244.0 0
168369.0 427508.0 0
175007.0 427975.0 0
181395.0 428018.0 0
187936.0 429234.0 0
191472.0 427905.0 0
195197.0 427652.0 0
202244.0 427533.0 0
209184.0 427398.0 0
216390.0 426127.0 0
226349.0 427804.0 0
233098.0 427441.0 0
239874.0 427053.0 0
246626.0 426866.0 0
250000.0 428841.0 0
253374.0 426866.0 0
260126.0 427053.0 0
266902.0 427441.0 0
273651.0 427804.0 0
283610.0 426127.0 0
290816.0 427398.0 0
297756.0 427533.0 0
304803.0 427652.0 0
308528.0 427905.0 0
312064.0 429234.0 0
318605.0 428018.0 0
324993.0 427975.0 0
331631.0 427508.0 0
335062.0 429244.0 0
338209.0 427267.0 0
341644.0 429039.0 0
345483.0 429734.0 0
349036.0 429689.0 0
354717.0 428245.0 0
364008.0 428752.0 0
370239.0 429664.0 0
373499.0 427905.0 0
376722.0 432308.0 0
380017.0 430832.0 0
386448.0 431345.0 0
110327.0 433365.0 0
116802.0 432878.0 0
120125.0 434344.0 0
126739.0 431885.0 0
133128.0 431233.0 0
139422.0 429909.0 0
142968.0 430848.0 0
147393.0 430512.0 0
161455.0 431064.0 0
168139.0 431331.0 0
171581.0 429640.0 0
174791.0 431836.0 0
178283.0 430218.0 0
184208.0 430124.0 0
189910.0 432342.0 0
193596.0 431249.0 0
197450.0 430659.0 0
201150.0 431115.0 0
204921.0 430114.0 0
208467.0 431147.0 0
212099.0 429884.0 0
215839.0 429941.0 0
219454.0 428454.0 0
222978.0 429900.0 0
229754.0 429585.0 0
236511.0 429196.0 0
239896.0 431038.0 0
243256.0 428932.0 0
256744.0 428932.0 0
260104.0 431038.0 0
263489.0 429196.0 0
270246.0 429585.0 0
277022.0 429900.0 0
280546.0 428454.0 0
284161.0 429941.0 0
287901.0 429884.0 0
291533.0 431147.0 0
295079.0 430114.0 0
298850.0 431115.0 0
302550.0 430659.0 0
306404.0 431249.0 0
310090.0 432342.0 0
315792.0 430124.0 0
321717.0 430218.0 0
325209.0 431836.0 0
328419.0 429640.0 0
331861.0 431331.0 0
338545.0 431064.0 0
352607.0 430512.0 0
357032.0 430848.0 0
360578.0 429909.0 0
366872.0 431233.0 0
373261.0 431885.0 0
379875.0 434344.0 0
383198.0 432878.0 0
389673.0 433365.0 0
107076.0 435400.0 0
110402.0 436980.0 0
113621.0 434932.0 0
116996.0 436439.0 0
123565.0 435655.0 0
127072.0 436137.0 0
129948.0 433583.0 0
133184.0 435005.0 0
136733.0 432534.0 0
140549.0 433457.0 0
145253.0 433429.0 0
149153.0 433261.0 0
152818.0 432903.0 0
156752.0 432488.0 0
164773.0 432991.0 0
171211.0 433473.0 0
178014.0 434168.0 0
181864.0 433275.0 0
186125.0 433152.0 0
196107.0 434304.0 0
203773.0 433887.0 0
211238.0 433767.0 0
218716.0 432449.0 0
222262.0 433811.0 0
225915.0 432350.0 0
229540.0 433528.0 0
233019.0 431665.0 0
236560.0 433175.0 0
243255.0 432927.0 0
246627.0 430863.0 0
250000.0 432835.0 0
253373.0 430863.0 0
256745.0 432927.0 0
263440.0 433175.0 0
266981.0 431665.0 0
270460.0 433528.0 0
274085.0 432350.0 0
277738.0 433811.0 0
281284.0 432449.0 0
288762.0 433767.0 0
296227.0 433887.0 0
303893.0 434304.0 0
313875.0 433152.0 0
318136.0 433275.0 0
321986.0 434168.0 0
328789.0 433473.0 0
335227.0 432991.0 0
343248.0 432488.0 0
347182.0 432903.0 0
350847.0 433261.0 0
354747.0 433429.0 0
359451.0 433457.0 0
363267.0 432534.0 0
366816.0 435005.0 0
370052.0 433583.0 0
372928.0 436137.0 0
376435.0 435655.0 0
383004.0 436439.0 0
386379.0 434932.0 0
389598.0 436980.0 0
392924.0 435400.0 0
100468.0 439535.0 0
103789.0 437456.0 0
107136.0 439039.0 0
113809.0 438515.0 0
120472.0 437853.0 0
124036.0 439108.0 0
130407.0 437568.0 0
136349.0 436175.0 0
139615.0 436775.0 0
143189.0 436397.0 0
147068.0 436454.0 0
150888.0 436268.0 0
154637.0 435873.0 0
158269.0 435608.0 0
161664.0 434787.0 0
167677.0 435247.0 0
170711.0 437289.0 0
174325.0 435607.0 0
180891.0 437113.0 0
184681.0 436664.0 0
188564.0 436019.0 0
192379.0 435181.0 0
199926.0 434757.0 0
207464.0 434844.0 0
215025.0 433782.0 0
217914.0 436344.0 0
225238.0 436269.0 0
232585.0 435892.0 0
239753.0 435366.0 0
246643.0 434857.0 0
253357.0 434857.0 0
260247.0 435366.0 0
267415.0 435892.0 0
274762.0 436269.0 0
282086.0 436344.0 0
284975.0 433782.0 0
292536.0 434844.0 0
300074.0 434757.0 0
307621.0 435181.0 0
311436.0 436019.0 0
315319.0 436664.0 0
319109.0 437113.0 0
325675.0 435607.0 0
329289.0 437289.0 0
332323.0 435247.0 0
338336.0 434787.0 0
341731.0 435608.0 0
345363.0 435873.0 0
349112.0 436268.0 0
352932.0 436454.0 0
356811.0 436397.0 0
360385.0 436775.0 0
363651.0 436175.0 0
369593.0 437568.0 0
375964.0 439108.0 0
379528.0 437853.0 0
386191.0 438515.0 0
392864.0 439039.0 0
396211.0 437456.0 0
399532.0 439535.0 0
97119.1 441631.0 0
103836.0 441126.0 0
110557.0 440586.0 0
117306.0 439985.0 0
127557.0 440105.0 0
133818.0 438912.0 0
137398.0 439805.0 0
141286.0 439819.0 0
145059.0 439631.0 0
148928.0 439532.0 0
152788.0 439270.0 0
156611.0 438939.0 0
160539.0 438468.0 0
164395.0 437333.0 0
173627.0 439360.0 0
177221.0 438060.0 0
187187.0 439653.0 0
191074.0 438891.0 0
194934.0 438079.0 0
198761.0 438473.0 0
202613.0 437605.0 0
206392.0 438558.0 0
210258.0 437543.0 0
214165.0 437671.0 0
221541.0 437719.0 0
228931.0 437439.0 0
236241.0 437145.0 0
243278.0 436891.0 0
250000.0 436865.0 0
256722.0 436891.0 0
263759.0 437145.0 0
271069.0 437439.0 0
278459.0 437719.0 0
285835.0 437671.0 0
289742.0 437543.0 0
293608.0 438558.0 0
297387.0 437605.0 0
301239.0 438473.0 0
305066.0 438079.0 0
308926.0 438891.0 0
312813.0 439653.0 0
322779.0 438060.0 0
326373.0 439360.0 0
335605.0 437333.0 0
339461.0 438468.0 0
343389.0 438939.0 0
347212.0 439270.0 0
351072.0 439532.0 0
354941.0 439631.0 0
358714.0 439819.0 0
362602.0 439805.0 0
366182.0 438912.0 0
372443.0 440105.0 0
382694.0 439985.0 0
389443.0 440586.0 0
396164.0 441126.0 0
402881.0 441631.0 0
93748.4 443744.0 0
100509.0 443242.0 0
103957.0 444803.0 0
107269.0 442678.0 0
110760.0 444197.0 0
114045.0 442084.0 0
117586.0 443521.0 0
120891.0 441376.0 0
124534.0 442706.0 0
131109.0 441475.0 0
131910.0 445253.0 0
146947.0 442786.0 0
150850.0 442597.0 0
154742.0 442298.0 0
158655.0 441850.0 0
163166.0 440969.0 0
167548.0 439518.0 0
175822.0 442257.0 0
179526.0 441123.0 0
183308.0 440321.0 0
193626.0 441769.0 0
201423.0 441315.0 0
209216.0 441253.0 0
217183.0 440207.0 0
224598.0 440162.0 0
228350.0 441361.0 0
232030.0 439827.0 0
235758.0 441073.0 0
239410.0 439469.0 0
243110.0 440821.0 0
246601.0 438924.0 0
250000.0 440805.0 0
253399.0 438924.0 0
256890.0 440821.0 0
260590.0 439469.0 0
264242.0 441073.0 0
267970.0 439827.0 0
271650.0 441361.0 0
275402.0 440162.0 0
282817.0 440207.0 0
290784.0 441253.0 0
298577.0 441315.0 0
306374.0 441769.0 0
316692.0 440321.0 0
320474.0 441123.0 0
324178.0 442257.0 0
332452.0 439518.0 0
336834.0 440969.0 0
341345.0 441850.0 0
345258.0 442298.0 0
349150.0 442597.0 0
353053.0 442786.0 0
368090.0 445253.0 0
368891.0 441475.0 0
375466.0 442706.0 0
379109.0 441376.0 0
382414.0 443521.0 0
385955.0 442084.0 0
389240.0 444197.0 0
392731.0 442678.0 0
396043.0 444803.0 0
399491.0 443242.0 0
406252.0 443744.0 0
90374.4 445859.0 0
93827.0 447573.0 0
97167.0 445378.0 0
100642.0 446966.0 0
107459.0 446326.0 0
114294.0 445674.0 0
121129.0 444922.0 0
128175.0 443938.0 0
134830.0 442682.0 0
139131.0 442951.0 0
143070.0 442928.0 0
156709.0 445305.0 0
160613.0 444777.0 0
164387.0 444304.0 0
168050.0 443332.0 0
171862.0 442734.0 0
178216.0 445154.0 0
182011.0 444090.0 0
185856.0 443337.0 0
189744.0 442590.0 0
197552.0 442246.0 0
205276.0 442320.0 0
213193.0 441606.0 0
216914.0 444099.0 0
220891.0 441646.0 0
224107.0 444052.0 0
231514.0 443748.0 0
238936.0 443428.0 0
246335.0 443131.0 0
253665.0 443131.0 0
261064.0 443428.0 0
268486.0 443748.0 0
275893.0 444052.0 0
279109.0 441646.0 0
283086.0 444099.0 0
286807.0 441606.0 0
294724.0 442320.0 0
302448.0 442246.0 0
310256.0 442590.0 0
314144.0 443337.0 0
317989.0 444090.0 0
321784.0 445154.0 0
328138.0 442734.0 0
331950.0 443332.0 0
335613.0 444304.0 0
339387.0 444777.0 0
343291.0 445305.0 0
356930.0 442928.0 0
360869.0 442951.0 0
365170.0 442682.0 0
371825.0 443938.0 0
378871.0 444922.0 0
385706.0 445674.0 0
392541.0 446326.0 0
399358.0 446966.0 0
402833.0 445378.0 0
406173.0 447573.0 0
409626.0 445859.0 0
83635.4 450084.0 0
87004.3 447975.0 0
90507.6 449757.0 0
97331.3 449141.0 0
104159.0 448493.0 0
111000.0 447835.0 0
117843.0 447113.0 0
121380.0 448578.0 0
124578.0 446389.0 0
127986.0 447699.0 0
131393.0 449013.0 0
136865.0 445929.0 0
140990.0 446101.0 0
144946.0 446065.0 0
148875.0 445911.0 0
152800.0 445675.0 0
162749.0 447772.0 0
166635.0 447183.0 0
170418.0 446394.0 0
174276.0 445812.0 0
183769.0 447567.0 0
187523.0 446864.0 0
191281.0 446144.0 0
195021.0 445347.0 0
198719.0 446037.0 0
202388.0 445046.0 0
205990.0 446212.0 0
209606.0 445052.0 0
213354.0 445601.0 0
220501.0 445602.0 0
227855.0 445298.0 0
235268.0 445005.0 0
242684.0 444731.0 0
250000.0 444657.0 0
257316.0 444731.0 0
264732.0 445005.0 0
272145.0 445298.0 0
279499.0 445602.0 0
286646.0 445601.0 0
290394.0 445052.0 0
294010.0 446212.0 0
297612.0 445046.0 0
301281.0 446037.0 0
304979.0 445347.0 0
308719.0 446144.0 0
312477.0 446864.0 0
316231.0 447567.0 0
325724.0 445812.0 0
329582.0 446394.0 0
333365.0 447183.0 0
337251.0 447772.0 0
347200.0 445675.0 0
351125.0 445911.0 0
355054.0 446065.0 0
359010.0 446101.0 0
363135.0 445929.0 0
368607.0 449013.0 0
372014.0 447699.0 0
375422.0 446389.0 0
378620.0 448578.0 0
382157.0 447113.0 0
389000.0 447835.0 0
395841.0 448493.0 0
402669.0 449141.0 0
409492.0 449757.0 0
412996.0 447975.0 0
416365.0 450084.0 0
94012.2 451464.0 0
100873.0 450722.0 0
104425.0 452202.0 0
107710.0 449996.0 0
111272.0 451529.0 0
114547.0 449312.0 0
118089.0 450759.0 0
124918.0 450201.0 0
135050.0 449194.0 0
138916.0 449235.0 0
142896.0 449294.0 0
146870.0 449219.0 0
150826.0 449046.0 0
154769.0 448771.0 0
158850.0 448216.0 0
172523.0 449610.0 0
176306.0 449059.0 0
180073.0 448470.0 0
186220.0 450626.0 0
193829.0 449120.0 0
201402.0 448894.0 0
208875.0 448917.0 0
216391.0 448061.0 0
223657.0 448002.0 0
227402.0 449225.0 0
231046.0 447686.0 0
234803.0 448941.0 0
238460.0 447383.0 0
242231.0 448631.0 0
246053.0 447448.0 0
250000.0 448518.0 0
253947.0 447448.0 0
257769.0 448631.0 0
261540.0 447383.0 0
265197.0 448941.0 0
268954.0 447686.0 0
272598.0 449225.0 0
276343.0 448002.0 0
283609.0 448061.0 0
291125.0 448917.0 0
298598.0 448894.0 0
306171.0 449120.0 0
313780.0 450626.0 0
319927.0 448470.0 0
323694.0 449059.0 0
327477.0 449610.0 0
341150.0 448216.0 0
345231.0 448771.0 0
349174.0 449046.0 0
353130.0 449219.0 0
357104.0 449294.0 0
361084.0 449235.0 0
364950.0 449194.0 0
375082.0 450201.0 0
381911.0 450759.0 0
385453.0 449312.0 0
388728.0 451529.0 0
392290.0 449996.0 0
395575.0 452202.0 0
399127.0 450722.0 0
405988.0 451464.0 0
87634.1 452442.0 0
92325.8 455037.0 0
97597.1 452920.0 0
101129.0 454549.0 0
108022.0 453692.0 0
114801.0 453012.0 0
121655.0 452224.0 0
128466.0 451496.0 0
132898.0 452504.0 0
136863.0 452522.0 0
140834.0 452520.0 0
144825.0 452501.0 0
148806.0 452404.0 0
152761.0 452220.0 0
157106.0 451597.0 0
161026.0 451218.0 0
164925.0 450753.0 0
168756.0 450242.0 0
178630.0 452152.0 0
182454.0 451479.0 0
190022.0 449896.0 0
197608.0 449812.0 0
205105.0 449976.0 0
212726.0 449522.0 0
220001.0 449501.0 0
223063.0 451965.0 0
230567.0 451650.0 0
238312.0 451460.0 0
246118.0 451443.0 0
253882.0 451443.0 0
261688.0 451460.0 0
269433.0 451650.0 0
276937.0 451965.0 0
279999.0 449501.0 0
287274.0 449522.0 0
294895.0 449976.0 0
302392.0 449812.0 0
309978.0 449896.0 0
317546.0 451479.0 0
321370.0 452152.0 0
331244.0 450242.0 0
335075.0 450753.0 0
338974.0 451218.0 0
342894.0 451597.0 0
347239.0 452220.0 0
351194.0 452404.0 0
355175.0 452501.0 0
359166.0 452520.0 0
363137.0 452522.0 0
367102.0 452504.0 0
371534.0 451496.0 0
378345.0 452224.0 0
385199.0 453012.0 0
391978.0 453692.0 0
398871.0 454549.0 0
402403.0 452920.0 0
407674.0 455037.0 0
412366.0 452442.0 0
87427.0 456402.0 0
97586.4 456724.0 0
104757.0 455906.0 0
111593.0 455317.0 0
118325.0 454428.0 0
121859.0 455790.0 0
125480.0 454125.0 0
129823.0 454908.0 0
138796.0 455800.0 0
146767.0 455743.0 0
150727.0 455645.0 0
155319.0 454927.0 0
159263.0 454642.0 0
163196.0 454260.0 0
167099.0 453829.0 0
170966.0 453319.0 0
174795.0 452737.0 0
181037.0 455196.0 0
184898.0 454486.0 0
188722.0 453655.0 0
192576.0 452884.0 0
196408.0 453570.0 0
200257.0 452713.0 0
204033.0 453690.0 0
207884.0 452750.0 0
211748.0 453369.0 0
215554.0 452274.0 0
219331.0 453362.0 0
226830.0 453114.0 0
234569.0 452876.0 0
242284.0 452567.0 0
250000.0 452404.0 0
257716.0 452567.0 0
265431.0 452876.0 0
273170.0 453114.0 0
280669.0 453362.0 0
284446.0 452274.0 0
288252.0 453369.0 0
292116.0 452750.0 0
295967.0 453690.0 0
299743.0 452713.0 0
303592.0 453570.0 0
307424.0 452884.0 0
311278.0 453655.0 0
315102.0 454486.0 0
318963.0 455196.0 0
325205.0 452737.0 0
329034.0 453319.0 0
332901.0 453829.0 0
336804.0 454260.0 0
340737.0 454642.0 0
344681.0 454927.0 0
349273.0 455645.0 0
353233.0 455743.0 0
361204.0 455800.0 0
370177.0 454908.0 0
374520.0 454125.0 0
378141.0 455790.0 0
381675.0 454428.0 0
388407.0 455317.0 0
395243.0 455906.0 0
402414.0 456724.0 0
412573.0 456402.0 0
94280.6 458858.0 0
101139.0 458435.0 0
108349.0 457409.0 0
115128.0 456786.0 0
118751.0 458141.0 0
134817.0 455819.0 0
142784.0 455784.0 0
157438.0 458042.0 0
161409.0 457722.0 0
165367.0 457356.0 0
169312.0 456936.0 0
173241.0 456405.0 0
177144.0 455825.0 0
191283.0 456634.0 0
199040.0 456506.0 0
206752.0 456527.0 0
214518.0 456185.0 0
222354.0 455891.0 0
226162.0 457009.0 0
229900.0 455588.0 0
233699.0 456733.0 0
237632.0 455415.0 0
241484.0 456439.0 0
245974.0 455433.0 0
250000.0 456310.0 0
254026.0 455433.0 0
258516.0 456439.0 0
262368.0 455415.0 0
266301.0 456733.0 0
270100.0 455588.0 0
273838.0 457009.0 0
277646.0 455891.0 0
285482.0 456185.0 0
293248.0 456527.0 0
300960.0 456506.0 0
308717.0 456634.0 0
322856.0 455825.0 0
326759.0 456405.0 0
330688.0 456936.0 0
334633.0 457356.0 0
338591.0 457722.0 0
342562.0 458042.0 0
357216.0 455784.0 0
365183.0 455819.0 0
381249.0 458141.0 0
384872.0 456786.0 0
391651.0 457409.0 0
398861.0 458435.0 0
405719.0 458858.0 0
90318.1 459134.0 0
97879.0 460628.0 0
104815.0 459640.0 0
108420.0 461073.0 0
111959.0 459232.0 0
115714.0 460534.0 0
120955.0 461112.0 0
123936.0 458615.0 0
127736.0 458131.0 0
131723.0 458159.0 0
136770.0 459103.0 0
140749.0 459083.0 0
144728.0 459077.0 0
148689.0 459046.0 0
153475.0 458238.0 0
167527.0 460492.0 0
171600.0 460017.0 0
175602.0 459477.0 0
179571.0 458881.0 0
183515.0 458227.0 0
187422.0 457462.0 0
195159.0 457332.0 0
202888.0 457409.0 0
210661.0 457199.0 0
218361.0 457177.0 0
223178.0 459775.0 0
230737.0 459473.0 0
269263.0 459473.0 0
276822.0 459775.0 0
281639.0 457177.0 0
289339.0 457199.0 0
297112.0 457409.0 0
304841.0 457332.0 0
312578.0 457462.0 0
316485.0 458227.0 0
320429.0 458881.0 0
324398.0 459477.0 0
328400.0 460017.0 0
332473.0 460492.0 0
346525.0 458238.0 0
351311.0 459046.0 0
355272.0 459077.0 0
359251.0 459083.0 0
363230.0 459103.0 0
368277.0 458159.0 0
372264.0 458131.0 0
376064.0 458615.0 0
379045.0 461112.0 0
384286.0 460534.0 0
388041.0 459232.0 0
391580.0 461073.0 0
395185.0 459640.0 0
402121.0 460628.0 0
409682.0 459134.0 0
92544.3 462441.0 0
101339.0 462609.0 0
105241.0 463400.0 0
110199.0 464269.0 0
125845.0 461698.0 0
129720.0 461484.0 0
133679.0 461449.0 0
138699.0 462390.0 0
142678.0 462400.0 0
146647.0 462433.0 0
151578.0 461554.0 0
155551.0 461430.0 0
159568.0 461154.0 0
163548.0 460840.0 0
177248.0 462987.0 0
181089.0 462477.0 0
184924.0 461898.0 0
188738.0 461166.0 0
192566.0 460372.0 0
196405.0 461092.0 0
200222.0 460292.0 0
204059.0 461167.0 0
207902.0 460269.0 0
211746.0 461021.0 0
215564.0 460017.0 0
219398.0 460982.0 0
226994.0 460867.0 0
234574.0 460587.0 0
238359.0 459342.0 0
242224.0 460334.0 0
246100.0 459419.0 0
250000.0 460234.0 0
253900.0 459419.0 0
257776.0 460334.0 0
261641.0 459342.0 0
265426.0 460587.0 0
273006.0 460867.0 0
280602.0 460982.0 0
284436.0 460017.0 0
288254.0 461021.0 0
292098.0 460269.0 0
295941.0 461167.0 0
299778.0 460292.0 0
303595.0 461092.0 0
307434.0 460372.0 0
311262.0 461166.0 0
315076.0 461898.0 0
318911.0 462477.0 0
322752.0 462987.0 0
336452.0 460840.0 0
340432.0 461154.0 0
344449.0 461430.0 0
348422.0 461554.0 0
353353.0 462433.0 0
357322.0 462400.0 0
361301.0 462390.0 0
366321.0 461449.0 0
370280.0 461484.0 0
374155.0 461698.0 0
389801.0 464269.0 0
394759.0 463400.0 0
398661.0 462609.0 0
407456.0 462441.0 0
96133.8 464135.0 0
114040.0 463935.0 0
118016.0 463710.0 0
122909.0 464285.0 0
127727.0 464914.0 0
131664.0 464806.0 0
135626.0 464784.0 0
140585.0 465702.0 0
144553.0 465781.0 0
149646.0 464887.0 0
153624.0 464820.0 0
157700.0 464572.0 0
161678.0 464312.0 0
165629.0 464018.0 0
169537.0 463740.0 0
173404.0 463414.0 0
183476.0 465607.0 0
187400.0 464984.0 0
191288.0 464168.0 0
195187.0 464847.0 0
199047.0 464069.0 0
202907.0 464953.0 0
206757.0 464052.0 0
210637.0 464848.0 0
214494.0 463859.0 0
218351.0 464803.0 0
222220.0 463751.0 0
226076.0 464730.0 0
230031.0 463397.0 0
233856.0 464478.0 0
237658.0 463278.0 0
241533.0 464243.0 0
245962.0 463406.0 0
250000.0 464167.0 0
254038.0 463406.0 0
258467.0 464243.0 0
262342.0 463278.0 0
266144.0 464478.0 0
269969.0 463397.0 0
273924.0 464730.0 0
277780.0 463751.0 0
281649.0 464803.0 0
285506.0 463859.0 0
289363.0 464848.0 0
293243.0 464052.0 0
297093.0 464953.0 0
300953.0 464069.0 0
304813.0 464847.0 0
308712.0 464168.0 0
312600.0 464984.0 0
316524.0 465607.0 0
326596.0 463414.0 0
330463.0 463740.0 0
334371.0 464018.0 0
338322.0 464312.0 0
342300.0 464572.0 0
346376.0 464820.0 0
350354.0 464887.0 0
355447.0 465781.0 0
359415.0 465702.0 0
364374.0 464784.0 0
368336.0 464806.0 0
372273.0 464914.0 0
377091.0 464285.0 0
381984.0 463710.0 0
385960.0 463935.0 0
403866.0 464135.0 0
97826.2 467697.0 0
102936.0 466535.0 0
107205.0 466724.0 0
112238.0 467447.0 0
116173.0 467202.0 0
120127.0 467057.0 0
124807.0 467532.0 0
129622.0 468186.0 0
133582.0 468141.0 0
137550.0 468164.0 0
147597.0 468178.0 0
151681.0 468214.0 0
155835.0 467984.0 0
159824.0 467772.0 0
163790.0 467523.0 0
167732.0 467262.0 0
171669.0 466984.0 0
175610.0 466618.0 0
179545.0 466147.0 0
320455.0 466147.0 0
324390.0 466618.0 0
328331.0 466984.0 0
332268.0 467262.0 0
336210.0 467523.0 0
340176.0 467772.0 0
344165.0 467984.0 0
348319.0 468214.0 0
352403.0 468178.0 0
362450.0 468164.0 0
366418.0 468141.0 0
370378.0 468186.0 0
375193.0 467532.0 0
379873.0 467057.0 0
383827.0 467202.0 0
387762.0 467447.0 0
392795.0 466724.0 0
397064.0 466535.0 0
402174.0 467697.0 0
101061.0 469982.0 0
105044.0 469943.0 0
109293.0 470040.0 0
114262.0 470696.0 0
118215.0 470538.0 0
122179.0 470449.0 0
126710.0 470817.0 0
142397.0 469077.0 0
161965.0 471012.0 0
165920.0 470777.0 0
169851.0 470526.0 0
173750.0 470274.0 0
177602.0 469972.0 0
181423.0 469587.0 0
185215.0 469147.0 0
188966.0 468627.0 0
192700.0 467881.0 0
196448.0 468786.0 0
200230.0 467858.0 0
204049.0 468769.0 0
207879.0 467830.0 0
211717.0 468676.0 0
215544.0 467683.0 0
219378.0 468629.0 0
223210.0 467603.0 0
227055.0 468576.0 0
230809.0 467292.0 0
234631.0 468359.0 0
238409.0 467196.0 0
242247.0 468153.0 0
246119.0 467388.0 0
250000.0 468114.0 0
253881.0 467388.0 0
257753.0 468153.0 0
261591.0 467196.0 0
265369.0 468359.0 0
269191.0 467292.0 0
272945.0 468576.0 0
276790.0 467603.0 0
280622.0 468629.0 0
284456.0 467683.0 0
288283.0 468676.0 0
292121.0 467830.0 0
295951.0 468769.0 0
299770.0 467858.0 0
303552.0 468786.0 0
307300.0 467881.0 0
311034.0 468627.0 0
314785.0 469147.0 0
318577.0 469587.0 0
322398.0 469972.0 0
326250.0 470274.0 0
330149.0 470526.0 0
334080.0 470777.0 0
338035.0 471012.0 0
357603.0 469077.0 0
373290.0 470817.0 0
377821.0 470449.0 0
381785.0 470538.0 0
385738.0 470696.0 0
390707.0 470040.0 0
394956.0 469943.0 0
398939.0 469982.0 0
107142.0 473335.0 0
131509.0 471503.0 0
135469.0 471508.0 0
139433.0 471597.0 0
145424.0 471444.0 0
149591.0 471511.0 0
153973.0 471398.0 0
157988.0 471222.0 0
179844.0 473225.0 0
183731.0 472818.0 0
187624.0 472387.0 0
191491.0 471682.0 0
195304.0 472597.0 0
199136.0 471688.0 0
202953.0 472595.0 0
206782.0 471653.0 0
210633.0 472511.0 0
214470.0 471529.0 0
218310.0 472460.0 0
222151.0 471459.0 0
225992.0 472399.0 0
229845.0 471415.0 0
233740.0 472201.0 0
237756.0 471495.0 0
241709.0 472076.0 0
245996.0 471502.0 0
250000.0 472054.0 0
254004.0 471502.0 0
258291.0 472076.0 0
262244.0 471495.0 0
266260.0 472201.0 0
270155.0 471415.0 0
274008.0 472399.0 0
277849.0 471459.0 0
281690.0 472460.0 0
285530.0 471529.0 0
289367.0 472511.0 0
293218.0 471653.0 0
297047.0 472595.0 0
300864.0 471688.0 0
304696.0 472597.0 0
308509.0 471682.0 0
312376.0 472387.0 0
316269.0 472818.0 0
320156.0 473225.0 0
342012.0 471222.0 0
346027.0 471398.0 0
350409.0 471511.0 0
354576.0 471444.0 0
360567.0 471597.0 0
364531.0 471508.0 0
368491.0 471503.0 0
392858.0 473335.0 0
98745.4 473197.0 0
103142.0 473368.0 0
111372.0 473402.0 0
116269.0 474016.0 0
120249.0 473905.0 0
124224.0 473862.0 0
128608.0 474151.0 0
133381.0 474867.0 0
137349.0 474897.0 0
142474.0 474116.0 0
147416.0 474737.0 0
151879.0 474685.0 0
156172.0 474665.0 0
160165.0 474493.0 0
164139.0 474286.0 0
168090.0 474060.0 0
172019.0 473828.0 0
175938.0 473573.0 0
324062.0 473573.0 0
327981.0 473828.0 0
331910.0 474060.0 0
335861.0 474286.0 0
339835.0 474493.0 0
343828.0 474665.0 0
348121.0 474685.0 0
352584.0 474737.0 0
357526.0 474116.0 0
362651.0 474897.0 0
366619.0 474867.0 0
371392.0 474151.0 0
375776.0 473862.0 0
379751.0 473905.0 0
383731.0 474016.0 0
388628.0 473402.0 0
396858.0 473368.0 0
401255.0 473197.0 0
100855.0 476585.0 0
105197.0 476770.0 0
109228.0 476735.0 0
113431.0 476803.0 0
118309.0 477349.0 0
122288.0 477312.0 0
126259.0 477300.0 0
130489.0 477542.0 0
135288.0 478243.0 0
139543.0 478086.0 0
143498.0 477945.0 0
147395.0 478534.0 0
151302.0 478507.0 0
155216.0 478419.0 0
159158.0 478246.0 0
163124.0 478050.0 0
167103.0 477850.0 0
171086.0 477647.0 0
175067.0 477427.0 0
179038.0 477088.0 0
183296.0 476755.0 0
187273.0 476364.0 0
191214.0 475697.0 0
195120.0 476545.0 0
199116.0 475678.0 0
203014.0 476553.0 0
206971.0 475640.0 0
210931.0 476473.0 0
214809.0 475507.0 0
218708.0 476410.0 0
222581.0 475430.0 0
226476.0 476329.0 0
230347.0 475378.0 0
234266.0 476113.0 0
238189.0 475469.0 0
242126.0 476018.0 0
246062.0 475498.0 0
250000.0 476005.0 0
253938.0 475498.0 0
257874.0 476018.0 0
261811.0 475469.0 0
265734.0 476113.0 0
269653.0 475378.0 0
273524.0 476329.0 0
277419.0 475430.0 0
281292.0 476410.0 0
285191.0 475507.0 0
289069.0 476473.0 0
293029.0 475640.0 0
296986.0 476553.0 0
300884.0 475678.0 0
304880.0 476545.0 0
308786.0 475697.0 0
312727.0 476364.0 0
316704.0 476755.0 0
320962.0 477088.0 0
324933.0 477427.0 0
328914.0 477647.0 0
332897.0 477850.0 0
336876.0 478050.0 0
340842.0 478246.0 0
344784.0 478419.0 0
348698.0 478507.0 0
352605.0 478534.0 0
356502.0 477945.0 0
360457.0 478086.0 0
364712.0 478243.0 0
369511.0 477542.0 0
373741.0 477300.0 0
377712.0 477312.0 0
381691.0 477349.0 0
386569.0 476803.0 0
390772.0 476735.0 0
394803.0 476770.0 0
399145.0 476585.0 0
100133.0 480485.0 0
104172.0 480585.0 0
108282.0 480585.0 0
112305.0 480616.0 0
116294.0 480737.0 0
120317.0 480753.0 0
124303.0 480747.0 0
128292.0 480817.0 0
169292.0 481169.0 0
173283.0 480971.0 0
177353.0 480698.0 0
181423.0 480268.0 0
185720.0 480047.0 0
189721.0 479526.0 0
193677.0 480244.0 0
197649.0 479620.0 0
201587.0 480270.0 0
205570.0 479603.0 0
209517.0 480196.0 0
213483.0 479585.0 0
217434.0 480180.0 0
221532.0 479588.0 0
225482.0 480168.0 0
229787.0 479583.0 0
233756.0 480032.0 0
237914.0 479597.0 0
241894.0 479971.0 0
245999.0 479602.0 0
250000.0 479957.0 0
254001.0 479602.0 0
258106.0 479971.0 0
262086.0 479597.0 0
266244.0 480032.0 0
270213.0 479583.0 0
274518.0 480168.0 0
278468.0 479588.0 0
282566.0 480180.0 0
286517.0 479585.0 0
290483.0 480196.0 0
294430.0 479603.0 0
298413.0 480270.0 0
302351.0 479620.0 0
306323.0 480244.0 0
310279.0 479526.0 0
314280.0 480047.0 0
318577.0 480268.0 0
322647.0 480698.0 0
326717.0 480971.0 0
330708.0 481169.0 0
371708.0 480817.0 0
375697.0 480747.0 0
379683.0 480753.0 0
383706.0 480737.0 0
387695.0 480616.0 0
391718.0 480585.0 0
395828.0 480585.0 0
399867.0 480485.0 0
132423.0 480953.0 0
137310.0 481551.0 0
141264.0 481604.0 0
145189.0 481709.0 0
149351.0 481916.0 0
153336.0 481882.0 0
157330.0 481740.0 0
161318.0 481553.0 0
165304.0 481361.0 0
334696.0 481361.0 0
338682.0 481553.0 0
342670.0 481740.0 0
346664.0 481882.0 0
350649.0 481916.0 0
354811.0 481709.0 0
358736.0 481604.0 0
362690.0 481551.0 0
367577.0 480953.0 0
102083.0 483965.0 0
106236.0 484001.0 0
110271.0 484041.0 0
114261.0 484135.0 0
118317.0 484174.0 0
122313.0 484192.0 0
126298.0 484240.0 0
130291.0 484278.0 0
134481.0 484337.0 0
139181.0 484999.0 0
143147.0 485090.0 0
147123.0 485158.0 0
151329.0 485306.0 0
155435.0 485210.0 0
159475.0 485051.0 0
163470.0 484871.0 0
167461.0 484690.0 0
171451.0 484507.0 0
175431.0 484322.0 0
179394.0 484125.0 0
183336.0 483754.0 0
187263.0 484152.0 0
191110.0 483277.0 0
194999.0 484044.0 0
198913.0 483403.0 0
202824.0 484063.0 0
206733.0 483418.0 0
210650.0 484022.0 0
214568.0 483433.0 0
218491.0 484024.0 0
222419.0 483487.0 0
226348.0 484043.0 0
230279.0 483549.0 0
234222.0 483965.0 0
238163.0 483585.0 0
242109.0 483929.0 0
246054.0 483598.0 0
250000.0 483917.0 0
253946.0 483598.0 0
257891.0 483929.0 0
261837.0 483585.0 0
265778.0 483965.0 0
269721.0 483549.0 0
273652.0 484043.0 0
277581.0 483487.0 0
281509.0 484024.0 0
285432.0 483433.0 0
289350.0 484022.0 0
293267.0 483418.0 0
297176.0 484063.0 0
301087.0 483403.0 0
305001.0 484044.0 0
308890.0 483277.0 0
312737.0 484152.0 0
316664.0 483754.0 0
320606.0 484125.0 0
324569.0 484322.0 0
328549.0 484507.0 0
332539.0 484690.0 0
336530.0 484871.0 0
340525.0 485051.0 0
344565.0 485210.0 0
348671.0 485306.0 0
352877.0 485158.0 0
356853.0 485090.0 0
360819.0 484999.0 0
365519.0 484337.0 0
369709.0 484278.0 0
373702.0 484240.0 0
377687.0 484192.0 0
381683.0 484174.0 0
385739.0 484135.0 0
389729.0 484041.0 0
393764.0 484001.0 0
397917.0 483965.0 0
101319.0 487873.0 0
105310.0 487882.0 0
109289.0 487902.0 0
113262.0 487982.0 0
117234.0 487992.0 0
121207.0 488015.0 0
125176.0 488056.0 0
129144.0 488077.0 0
133116.0 488065.0 0
137081.0 488360.0 0
141074.0 488483.0 0
145069.0 488558.0 0
153428.0 488633.0 0
157564.0 488526.0 0
161610.0 488378.0 0
165608.0 488207.0 0
169604.0 488037.0 0
173600.0 487866.0 0
177844.0 487806.0 0
181849.0 487633.0 0
185839.0 487878.0 0
189878.0 487632.0 0
193869.0 487871.0 0
197862.0 487637.0 0
201849.0 487924.0 0
205881.0 487640.0 0
209868.0 487927.0 0
213887.0 487644.0 0
217872.0 487955.0 0
221904.0 487646.0 0
225887.0 487981.0 0
229956.0 487648.0 0
233945.0 487913.0 0
237982.0 487649.0 0
241974.0 487888.0 0
246000.0 487649.0 0
250000.0 487878.0 0
254000.0 487649.0 0
258026.0 487888.0 0
262018.0 487649.0 0
266055.0 487913.0 0
270044.0 487648.0 0
274113.0 487981.0 0
278096.0 487646.0 0
282128.0 487955.0 0
286113.0 487644.0 0
290132.0 487927.0 0
294119.0 487640.0 0
298151.0 487924.0 0
302138.0 487637.0 0
306131.0 487871.0 0
310122.0 487632.0 0
314161.0 487878.0 0
318151.0 487633.0 0
322156.0 487806.0 0
326400.0 487866.0 0
330396.0 488037.0 0
334392.0 488207.0 0
338390.0 488378.0 0
342436.0 488526.0 0
346572.0 488633.0 0
354931.0 488558.0 0
358926.0 488483.0 0
362919.0 488360.0 0
366884.0 488065.0 0
370856.0 488077.0 0
374824.0 488056.0 0
378793.0 488015.0 0
382766.0 487992.0 0
386738.0 487982.0 0
390711.0 487902.0 0
394690.0 487882.0 0
398681.0 487873.0 0
149078.0 488592.0 0
350922.0 488592.0 0
102004.0 491811.0 0
106026.0 491812.0 0
110069.0 491816.0 0
114123.0 491869.0 0
118122.0 491870.0 0
122120.0 491898.0 0
126119.0 491930.0 0
130127.0 491934.0 0
134150.0 491914.0 0
138426.0 492107.0 0
142606.0 492145.0 0
146724.0 492165.0 0
150720.0 492201.0 0
154706.0 492355.0 0
158676.0 492303.0 0
162628.0 492193.0 0
166567.0 492049.0 0
170502.0 491908.0 0
174438.0 491763.0 0
178383.0 491769.0 0
182334.0 491603.0 0
186289.0 491845.0 0
190250.0 491614.0 0
194217.0 491848.0 0
198188.0 491623.0 0
202161.0 491898.0 0
206136.0 491631.0 0
210115.0 491903.0 0
214096.0 491638.0 0
218078.0 491929.0 0
222061.0 491643.0 0
226046.0 491943.0 0
230031.0 491647.0 0
234022.0 491876.0 0
238013.0 491649.0 0
242006.0 491854.0 0
246000.0 491649.0 0
250000.0 491844.0 0
254000.0 491649.0 0
257994.0 491854.0 0
261987.0 491649.0 0
265978.0 491876.0 0
269969.0 491647.0 0
273954.0 491943.0 0
277939.0 491643.0 0
281922.0 491929.0 0
285904.0 491638.0 0
289885.0 491903.0 0
293864.0 491631.0 0
297839.0 491898.0 0
301812.0 491623.0 0
305783.0 491848.0 0
309750.0 491614.0 0
313711.0 491845.0 0
317666.0 491603.0 0
321617.0 491769.0 0
325562.0 491763.0 0
329498.0 491908.0 0
333433.0 492049.0 0
337372.0 492193.0 0
341324.0 492303.0 0
345294.0 492355.0 0
349280.0 492201.0 0
353276.0 492165.0 0
357394.0 492145.0 0
361574.0 492107.0 0
365850.0 491914.0 0
369873.0 491934.0 0
373881.0 491930.0 0
377880.0 491898.0 0
381878.0 491870.0 0
385877.0 491869.0 0
389931.0 491816.0 0
393974.0 491812.0 0
397996.0 491811.0 0
101933.0 495810.0 0
105931.0 495806.0 0
109927.0 495805.0 0
113920.0 495848.0 0
117912.0 495845.0 0
121902.0 495884.0 0
125889.0 495914.0 0
129873.0 495911.0 0
133854.0 495894.0 0
157711.0 496131.0 0
161704.0 496042.0 0
165729.0 495928.0 0
169890.0 495841.0 0
173955.0 495726.0 0
177982.0 495747.0 0
181984.0 495648.0 0
185980.0 495823.0 0
189989.0 495648.0 0
193985.0 495830.0 0
197990.0 495649.0 0
201983.0 495878.0 0
205994.0 495649.0 0
209987.0 495883.0 0
213997.0 495649.0 0
217989.0 495905.0 0
222000.0 495649.0 0
225992.0 495910.0 0
230000.0 495649.0 0
233998.0 495844.0 0
238000.0 495649.0 0
241999.0 495823.0 0
246000.0 495649.0 0
250000.0 495815.0 0
254000.0 495649.0 0
258001.0 495823.0 0
262000.0 495649.0 0
266002.0 495844.0 0
270000.0 495649.0 0
274008.0 495910.0 0
278000.0 495649.0 0
282011.0 495905.0 0
286003.0 495649.0 0
290013.0 495883.0 0
294006.0 495649.0 0
298017.0 495878.0 0
302010.0 495649.0 0
306015.0 495830.0 0
310011.0 495648.0 0
314020.0 495823.0 0
318016.0 495648.0 0
322018.0 495747.0 0
326045.0 495726.0 0
330110.0 495841.0 0
334271.0 495928.0 0
338296.0 496042.0 0
342289.0 496131.0 0
366146.0 495894.0 0
370127.0 495911.0 0
374111.0 495914.0 0
378098.0 495884.0 0
382088.0 495845.0 0
386080.0 495848.0 0
390073.0 495805.0 0
394069.0 495806.0 0
398067.0 495810.0 0
137828.0 496047.0 0
141803.0 496041.0 0
145778.0 496029.0 0
149752.0 496059.0 0
153726.0 496179.0 0
346274.0 496179.0 0
350248.0 496059.0 0
354222.0 496029.0 0
358197.0 496041.0 0
362172.0 496047.0 0
102001.0 499809.0 0
106002.0 499802.0 0
110004.0 499798.0 0
114007.0 499834.0 0
118010.0 499827.0 0
122010.0 499874.0 0
126009.0 499903.0 0
130010.0 499897.0 0
134014.0 499884.0 0
138044.0 500026.0 0
142054.0 500012.0 0
146063.0 499999.0 0
150071.0 500024.0 0
154084.0 500115.0 0
158081.0 500066.0 0
162074.0 499987.0 0
166065.0 499886.0 0
170056.0 499819.0 0
174046.0 499717.0 0
178040.0 499744.0 0
182034.0 499647.0 0
186027.0 499813.0 0
190021.0 499648.0 0
194015.0 499819.0 0
198010.0 499649.0 0
202004.0 499863.0 0
206000.0 499649.0 0
210002.0 499866.0 0
214000.0 499649.0 0
218002.0 499884.0 0
222000.0 499649.0 0
226001.0 499879.0 0
230000.0 499649.0 0
234000.0 499816.0 0
238000.0 499649.0 0
242000.0 499797.0 0
246000.0 499649.0 0
250000.0 499790.0 0
254000.0 499649.0 0
258000.0 499797.0 0
262000.0 499649.0 0
266000.0 499816.0 0
270000.0 499649.0 0
273999.0 499879.0 0
278000.0 499649.0 0
281998.0 499884.0 0
286000.0 499649.0 0
289998.0 499866.0 0
294000.0 499649.0 0
297996.0 499863.0 0
301990.0 499649.0 0
305985.0 499819.0 0
309979.0 499648.0 0
313973.0 499813.0 0
317966.0 499647.0 0
321960.0 499744.0 0
325954.0 499717.0 0
329944.0 499819.0 0
333935.0 499886.0 0
337926.0 499987.0 0
341919.0 500066.0 0
345916.0 500115.0 0
349929.0 500024.0 0
353937.0 499999.0 0
357946.0 500012.0 0
361956.0 500026.0 0
365986.0 499884.0 0
369990.0 499897.0 0
373991.0 499903.0 0
377990.0 499874.0 0
381990.0 499827.0 0
385993.0 499834.0 0
389996.0 499798.0 0
393998.0 499802.0 0
397999.0 499809.0 0
109996.0 503791.0 0
165985.0 503858.0 0
169993.0 503802.0 0
173997.0 503711.0 0
177999.0 503741.0 0
182000.0 503649.0 0
190000.0 503649.0 0
198000.0 503649.0 0
206000.0 503649.0 0
214000.0 503649.0 0
222000.0 503649.0 0
226000.0 503851.0 0
230000.0 503649.0 0
234000.0 503792.0 0
238000.0 503649.0 0
242000.0 503774.0 0
246000.0 503649.0 0
250000.0 503768.0 0
254000.0 503649.0 0
258000.0 503774.0 0
262000.0 503649.0 0
266000.0 503792.0 0
270000.0 503649.0 0
274000.0 503851.0 0
278000.0 503649.0 0
286000.0 503649.0 0
294000.0 503649.0 0
302000.0 503649.0 0
310000.0 503649.0 0
318000.0 503649.0 0
322001.0 503741.0 0
326003.0 503711.0 0
330007.0 503802.0 0
334015.0 503858.0 0
390004.0 503791.0 0
101996.0 503808.0 0
105996.0 503799.0 0
113995.0 503822.0 0
117994.0 503812.0 0
121993.0 503865.0 0
125992.0 503895.0 0
129991.0 503888.0 0
133990.0 503878.0 0
137986.0 504010.0 0
141984.0 503991.0 0
145983.0 503978.0 0
149981.0 504001.0 0
153978.0 504069.0 0
157977.0 504020.0 0
161976.0 503951.0 0
185998.0 503803.0 0
193999.0 503808.0 0
202000.0 503848.0 0
210000.0 503850.0 0
218000.0 503862.0 0
282000.0 503862.0 0
290000.0 503850.0 0
298000.0 503848.0 0
306001.0 503808.0 0
314002.0 503803.0 0
338024.0 503951.0 0
342023.0 504020.0 0
346022.0 504069.0 0
350019.0 504001.0 0
354017.0 503978.0 0
358016.0 503991.0 0
362014.0 504010.0 0
366010.0 503878.0 0
370009.0 503888.0 0
374008.0 503895.0 0
378007.0 503865.0 0
382006.0 503812.0 0
386005.0 503822.0 0
394004.0 503799.0 0
398004.0 503808.0 0
102000.0 507806.0 0
106000.0 507797.0 0
110000.0 507786.0 0
114000.0 507811.0 0
118000.0 507800.0 0
122001.0 507857.0 0
126001.0 507887.0 0
130001.0 507880.0 0
134001.0 507872.0 0
138005.0 507995.0 0
142005.0 507971.0 0
146005.0 507958.0 0
150006.0 507979.0 0
154007.0 508028.0 0
158006.0 507979.0 0
162006.0 507919.0 0
166004.0 507833.0 0
170003.0 507788.0 0
174002.0 507704.0 0
178002.0 507737.0 0
182001.0 507649.0 0
186000.0 507793.0 0
190000.0 507649.0 0
194000.0 507797.0 0
198000.0 507649.0 0
202000.0 507834.0 0
206000.0 507649.0 0
210000.0 507834.0 0
214000.0 507649.0 0
218000.0 507842.0 0
222000.0 507649.0 0
226000.0 507826.0 0
230000.0 507649.0 0
234000.0 507771.0 0
238000.0 507649.0 0
242000.0 507754.0 0
246000.0 507649.0 0
250000.0 507750.0 0
254000.0 507649.0 0
258000.0 507754.0 0
262000.0 507649.0 0
266000.0 507771.0 0
270000.0 507649.0 0
274000.0 507826.0 0
278000.0 507649.0 0
282000.0 507842.0 0
286000.0 507649.0 0
290000.0 507834.0 0
294000.0 507649.0 0
298000.0 507834.0 0
302000.0 507649.0 0
306000.0 507797.0 0
310000.0 507649.0 0
314000.0 507793.0 0
317999.0 507649.0 0
321998.0 507737.0 0
325998.0 507704.0 0
329997.0 507788.0 0
333996.0 507833.0 0
337994.0 507919.0 0
341994.0 507979.0 0
345993.0 508028.0 0
349994.0 507979.0 0
353995.0 507958.0 0
357995.0 507971.0 0
361995.0 507995.0 0
365999.0 507872.0 0
369999.0 507880.0 0
373999.0 507887.0 0
377999.0 507857.0 0
382000.0 507800.0 0
386000.0 507811.0 0
390000.0 507786.0 0
394000.0 507797.0 0
398000.0 507806.0 0
102000.0 511804.0 0
106000.0 511794.0 0
110000.0 511780.0 0
114000.0 511802.0 0
118000.0 511788.0 0
122000.0 511850.0 0
126000.0 511880.0 0
130000.0 511873.0 0
134000.0 511866.0 0
137998.0 511980.0 0
141998.0 511952.0 0
145998.0 511939.0 0
149998.0 511957.0 0
153998.0 511990.0 0
157998.0 511942.0 0
161999.0 511890.0 0
166000.0 511811.0 0
170000.0 511774.0 0
174000.0 511699.0 0
178000.0 511733.0 0
182000.0 511649.0 0
186000.0 511783.0 0
190000.0 511649.0 0
194000.0 511787.0 0
198000.0 511649.0 0
202000.0 511820.0 0
206000.0 511649.0 0
210000.0 511819.0 0
214000.0 511649.0 0
218000.0 511823.0 0
222000.0 511649.0 0
226000.0 511803.0 0
230000.0 511649.0 0
234000.0 511752.0 0
238000.0 511649.0 0
242000.0 511737.0 0
246000.0 511649.0 0
250000.0 511734.0 0
254000.0 511649.0 0
258000.0 511737.0 0
262000.0 511649.0 0
266000.0 511752.0 0
270000.0 511649.0 0
274000.0 511803.0 0
278000.0 511649.0 0
282000.0 511823.0 0
286000.0 511649.0 0
290000.0 511819.0 0
294000.0 511649.0 0
298000.0 511820.0 0
302000.0 511649.0 0
306000.0 511787.0 0
310000.0 511649.0 0
314000.0 511783.0 0
318000.0 511649.0 0
322000.0 511733.0 0
326000.0 511699.0 0
330000.0 511774.0 0
334000.0 511811.0 0
338001.0 511890.0 0
342002.0 511942.0 0
346002.0 511990.0 0
350002.0 511957.0 0
354002.0 511939.0 0
358002.0 511952.0 0
362002.0 511980.0 0
366000.0 511866.0 0
370000.0 511873.0 0
374000.0 511880.0 0
378000.0 511850.0 0
382000.0 511788.0 0
386000.0 511802.0 0
390000.0 511780.0 0
394000.0 511794.0 0
398000.0 511804.0 0
102000.0 515802.0 0
106000.0 515791.0 0
110000.0 515776.0 0
114000.0 515794.0 0
118000.0 515779.0 0
122000.0 515842.0 0
126000.0 515873.0 0
130000.0 515866.0 0
134000.0 515860.0 0
138000.0 515966.0 0
142000.0 515935.0 0
146000.0 515920.0 0
150000.0 515936.0 0
154001.0 515957.0 0
158000.0 515908.0 0
162000.0 515864.0 0
166000.0 515790.0 0
170000.0 515762.0 0
174000.0 515693.0 0
178000.0 515729.0 0
182000.0 515649.0 0
186000.0 515774.0 0
190000.0 515649.0 0
194000.0 515778.0 0
198000.0 515649.0 0
202000.0 515807.0 0
206000.0 515649.0 0
210000.0 515804.0 0
214000.0 515649.0 0
218000.0 515805.0 0
222000.0 515649.0 0
226000.0 515782.0 0
230000.0 515649.0 0
234000.0 515736.0 0
238000.0 515649.0 0
242000.0 515723.0 0
246000.0 515649.0 0
250000.0 515720.0 0
254000.0 515649.0 0
258000.0 515723.0 0
262000.0 515649.0 0
266000.0 515736.0 0
270000.0 515649.0 0
274000.0 515782.0 0
278000.0 515649.0 0
282000.0 515805.0 0
286000.0 515649.0 0
290000.0 515804.0 0
294000.0 515649.0 0
298000.0 515807.0 0
302000.0 515649.0 0
306000.0 515778.0 0
310000.0 515649.0 0
314000.0 515774.0 0
318000.0 515649.0 0
322000.0 515729.0 0
326000.0 515693.0 0
330000.0 515762.0 0
334000.0 515790.0 0
338000.0 515864.0 0
342000.0 515908.0 0
345999.0 515957.0 0
350000.0 515936.0 0
354000.0 515920.0 0
358000.0 515935.0 0
362000.0 515966.0 0
366000.0 515860.0 0
370000.0 515866.0 0
374000.0 515873.0 0
378000.0 515842.0 0
382000.0 515779.0 0
386000.0 515794.0 0
390000.0 515776.0 0
394000.0 515791.0 0
398000.0 515802.0 0
102000.0 519800.0 0
106000.0 519787.0 0
110000.0 519771.0 0
114000.0 519787.0 0
118000.0 519771.0 0
122000.0 519835.0 0
126000.0 519866.0 0
130000.0 519860.0 0
134000.0 519853.0 0
138000.0 519951.0 0
142000.0 519919.0 0
146000.0 519904.0 0
150000.0 519916.0 0
154000.0 519927.0 0
158000.0 519878.0 0
162000.0 519841.0 0
166000.0 519772.0 0
170000.0 519752.0 0
174000.0 519688.0 0
178000.0 519725.0 0
182000.0 519649.0 0
186000.0 519765.0 0
190000.0 519649.0 0
194000.0 519769.0 0
198000.0 519649.0 0
202000.0 519794.0 0
206000.0 519649.0 0
210000.0 519790.0 0
214000.0 519649.0 0
218000.0 519788.0 0
222000.0 519649.0 0
226000.0 519764.0 0
230000.0 519649.0 0
234000.0 519723.0 0
238000.0 519649.0 0
242000.0 519711.0 0
246000.0 519649.0 0
250000.0 519709.0 0
254000.0 519649.0 0
258000.0 519711.0 0
262000.0 519649.0 0
266000.0 519723.0 0
270000.0 519649.0 0
274000.0 519764.0 0
278000.0 519649.0 0
282000.0 519788.0 0
286000.0 519649.0 0
290000.0 519790.0 0
294000.0 519649.0 0
298000.0 519794.0 0
302000.0 519649.0 0
306000.0 519769.0 0
310000.0 519649.0 0
314000.0 519765.0 0
318000.0 519649.0 0
322000.0 519725.0 0
326000.0 519688.0 0
330000.0 519752.0 0
334000.0 519772.0 0
338000.0 519841.0 0
342000.0 519878.0 0
346000.0 519927.0 0
350000.0 519916.0 0
354000.0 519904.0 0
358000.0 519919.0 0
362000.0 519951.0 0
366000.0 519853.0 0
370000.0 519860.0 0
374000.0 519866.0 0
378000.0 519835.0 0
382000.0 519771.0 0
386000.0 519787.0 0
390000.0 519771.0 0
394000.0 519787.0 0
398000.0 519800.0 0
102000.0 523797.0 0
106000.0 523784.0 0
110000.0 523767.0 0
114000.0 523781.0 0
118000.0 523763.0 0
122000.0 523828.0 0
126000.0 523859.0 0
130000.0 523855.0 0
134000.0 523846.0 0
138000.0 523937.0 0
142000.0 523904.0 0
146000.0 523888.0 0
150000.0 523896.0 0
154000.0 523900.0 0
158000.0 523851.0 0
162000.0 523820.0 0
166000.0 523756.0 0
170000.0 523742.0 0
174000.0 523684.0 0
178000.0 523721.0 0
182000.0 523649.0 0
186000.0 523757.0 0
190000.0 523649.0 0
194000.0 523760.0 0
198000.0 523649.0 0
202000.0 523782.0 0
206000.0 523649.0 0
210000.0 523776.0 0
214000.0 523649.0 0
218000.0 523772.0 0
222000.0 523649.0 0
226000.0 523748.0 0
230000.0 523649.0 0
234000.0 523711.0 0
238000.0 523649.0 0
242000.0 523700.0 0
246000.0 523649.0 0
250000.0 523699.0 0
254000.0 523649.0 0
258000.0 523700.0 0
262000.0 523649.0 0
266000.0 523711.0 0
270000.0 523649.0 0
274000.0 523748.0 0
278000.0 523649.0 0
282000.0 523772.0 0
286000.0 523649.0 0
290000.0 523776.0 0
294000.0 523649.0 0
298000.0 523782.0 0
302000.0 523649.0 0
306000.0 523760.0 0
310000.0 523649.0 0
314000.0 523757.0 0
318000.0 523649.0 0
322000.0 523721.0 0
326000.0 523684.0 0
330000.0 523742.0 0
334000.0 523756.0 0
338000.0 523820.0 0
342000.0 523851.0 0
346000.0 523900.0 0
350000.0 523896.0 0
354000.0 523888.0 0
358000.0 523904.0 0
362000.0 523937.0 0
366000.0 523846.0 0
370000.0 523855.0 0
374000.0 523859.0 0
378000.0 523828.0 0
382000.0 523763.0 0
386000.0 523781.0 0
390000.0 523767.0 0
394000.0 523784.0 0
398000.0 523797.0 0
102000.0 527794.0 0
106000.0 527781.0 0
110000.0 527763.0 0
114000.0 527775.0 0
118000.0 527756.0 0
122000.0 527821.0 0
126000.0 527852.0 0
130000.0 527849.0 0
134000.0 527838.0 0
138000.0 527923.0 0
142000.0 527890.0 0
146000.0 527873.0 0
150000.0 527878.0 0
154000.0 527875.0 0
158000.0 527828.0 0
162000.0 527802.0 0
166000.0 527742.0 0
170000.0 527734.0 0
174000.0 527679.0 0
178000.0 527717.0 0
182000.0 527649.0 0
186000.0 527749.0 0
190000.0 527649.0 0
194000.0 527751.0 0
198000.0 527649.0 0
202000.0 527770.0 0
206000.0 527649.0 0
210000.0 527764.0 0
214000.0 527649.0 0
218000.0 527758.0 0
222000.0 527649.0 0
226000.0 527734.0 0
230000.0 527649.0 0
234000.0 527701.0 0
238000.0 527649.0 0
242000.0 527691.0 0
246000.0 527649.0 0
250000.0 527691.0 0
254000.0 527649.0 0
258000.0 527691.0 0
262000.0 527649.0 0
266000.0 527701.0 0
270000.0 527649.0 0
274000.0 527734.0 0
278000.0 527649.0 0
282000.0 527758.0 0
286000.0 527649.0 0
290000.0 527764.0 0
294000.0 527649.0 0
298000.0 527770.0 0
302000.0 527649.0 0
306000.0 527751.0 0
310000.0 527649.0 0
314000.0 527749.0 0
318000.0 527649.0 0
322000.0 527717.0 0
326000.0 527679.0 0
330000.0 527734.0 0
334000.0 527742.0 0
338000.0 527802.0 0
342000.0 527828.0 0
346000.0 527875.0 0
350000.0 527878.0 0
354000.0 527873.0 0
358000.0 527890.0 0
362000.0 527923.0 0
366000.0 527838.0 0
370000.0 527849.0 0
374000.0 527852.0 0
378000.0 527821.0 0
382000.0 527756.0 0
386000.0 527775.0 0
390000.0 527763.0 0
394000.0 527781.0 0
398000.0 527794.0 0
102000.0 531791.0 0
106000.0 531778.0 0
110000.0 531760.0 0
114000.0 531769.0 0
118000.0 531750.0 0
122000.0 531814.0 0
126000.0 531844.0 0
130000.0 531843.0 0
134000.0 531830.0 0
138000.0 531910.0 0
142000.0 531876.0 0
146000.0 531859.0 0
150000.0 531860.0 0
154000.0 531854.0 0
158000.0 531807.0 0
162000.0 531786.0 0
166000.0 531730.0 0
170000.0 531726.0 0
174000.0 531675.0 0
178000.0 531713.0 0
182000.0 531649.0 0
186000.0 531742.0 0
190000.0 531649.0 0
194000.0 531744.0 0
198000.0 531649.0 0
202000.0 531760.0 0
206000.0 531649.0 0
210000.0 531752.0 0
214000.0 531649.0 0
218000.0 531745.0 0
222000.0 531649.0 0
226000.0 531722.0 0
230000.0 531649.0 0
234000.0 531692.0 0
238000.0 531649.0 0
242000.0 531684.0 0
246000.0 531649.0 0
250000.0 531684.0 0
254000.0 531649.0 0
258000.0 531684.0 0
262000.0 531649.0 0
266000.0 531692.0 0
270000.0 531649.0 0
274000.0 531722.0 0
278000.0 531649.0 0
282000.0 531745.0 0
286000.0 531649.0 0
290000.0 531752.0 0
294000.0 531649.0 0
298000.0 531760.0 0
302000.0 531649.0 0
306000.0 531744.0 0
310000.0 531649.0 0
314000.0 531742.0 0
318000.0 531649.0 0
322000.0 531713.0 0
326000.0 531675.0 0
330000.0 531726.0 0
334000.0 531730.0 0
338000.0 531786.0 0
342000.0 531807.0 0
346000.0 531854.0 0
350000.0 531860.0 0
354000.0 531859.0 0
358000.0 531876.0 0
362000.0 531910.0 0
366000.0 531830.0 0
370000.0 531843.0 0
374000.0 531844.0 0
378000.0 531814.0 0
382000.0 531750.0 0
386000.0 531769.0 0
390000.0 531760.0 0
394000.0 531778.0 0
398000.0 531791.0 0
102000.0 535788.0 0
106000.0 535775.0 0
110000.0 535756.0 0
114000.0 535764.0 0
118000.0 535744.0 0
122000.0 535807.0 0
126000.0 535836.0 0
130000.0 535837.0 0
134000.0 535823.0 0
138000.0 535897.0 0
142000.0 535863.0 0
146000.0 535845.0 0
150000.0 535843.0 0
154000.0 535835.0 0
158000.0 535789.0 0
162000.0 535772.0 0
166000.0 535719.0 0
170000.0 535719.0 0
174000.0 535672.0 0
178000.0 535710.0 0
182000.0 535649.0 0
186000.0 535734.0 0
190000.0 535649.0 0
194000.0 535736.0 0
198000.0 535649.0 0
202000.0 535749.0 0
206000.0 535649.0 0
210000.0 535742.0 0
214000.0 535649.0 0
218000.0 535734.0 0
222000.0 535649.0 0
226000.0 535711.0 0
230000.0 535649.0 0
234000.0 535685.0 0
238000.0 535649.0 0
242000.0 535678.0 0
246000.0 535649.0 0
250000.0 535678.0 0
254000.0 535649.0 0
258000.0 535678.0 0
262000.0 535649.0 0
266000.0 535685.0 0
270000.0 535649.0 0
274000.0 535711.0 0
278000.0 535649.0 0
282000.0 535734.0 0
286000.0 535649.0 0
290000.0 535742.0 0
294000.0 535649.0 0
298000.0 535749.0 0
302000.0 535649.0 0
306000.0 535736.0 0
310000.0 535649.0 0
314000.0 535734.0 0
318000.0 535649.0 0
322000.0 535710.0 0
326000.0 535672.0 0
330000.0 535719.0 0
334000.0 535719.0 0
338000.0 535772.0 0
342000.0 535789.0 0
346000.0 535835.0 0
350000.0 535843.0 0
354000.0 535845.0 0
358000.0 535863.0 0
362000.0 535897.0 0
366000.0 535823.0 0
370000.0 535837.0 0
374000.0 535836.0 0
378000.0 535807.0 0
382000.0 535744.0 0
386000.0 535764.0 0
390000.0 535756.0 0
394000.0 535775.0 0
398000.0 535788.0 0
102000.0 539784.0 0
106000.0 539771.0 0
110000.0 539753.0 0
114000.0 539759.0 0
118000.0 539739.0 0
122000.0 539799.0 0
126000.0 539828.0 0
130000.0 539831.0 0
134000.0 539815.0 0
138000.0 539884.0 0
142000.0 539851.0 0
146000.0 539833.0 0
150000.0 539827.0 0
154000.0 539817.0 0
158000.0 539773.0 0
162000.0 539759.0 0
166000.0 539710.0 0
170000.0 539713.0 0
174000.0 539668.0 0
178000.0 539706.0 0
182000.0 539649.0 0
186000.0 539728.0 0
190000.0 539649.0 0
194000.0 539729.0 0
198000.0 539649.0 0
202000.0 539740.0 0
206000.0 539649.0 0
210000.0 539732.0 0
214000.0 539649.0 0
218000.0 539723.0 0
222000.0 539649.0 0
226000.0 539702.0 0
230000.0 539649.0 0
234000.0 539678.0 0
238000.0 539649.0 0
242000.0 539673.0 0
246000.0 539649.0 0
250000.0 539673.0 0
254000.0 539649.0 0
258000.0 539673.0 0
262000.0 539649.0 0
266000.0 539678.0 0
270000.0 539649.0 0
274000.0 539702.0 0
278000.0 539649.0 0
282000.0 539723.0 0
286000.0 539649.0 0
290000.0 539732.0 0
294000.0 539649.0 0
298000.0 539740.0 0
302000.0 539649.0 0
306000.0 539729.0 0
310000.0 539649.0 0
314000.0 539728.0 0
318000.0 539649.0 0
322000.0 539706.0 0
326000.0 539668.0 0
330000.0 539713.0 0
334000.0 539710.0 0
338000.0 539759.0 0
342000.0 539773.0 0
346000.0 539817.0 0
350000.0 539827.0 0
354000.0 539833.0 0
358000.0 539851.0 0
362000.0 539884.0 0
366000.0 539815.0 0
370000.0 539831.0 0
374000.0 539828.0 0
378000.0 539799.0 0
382000.0 539739.0 0
386000.0 539759.0 0
390000.0 539753.0 0
394000.0 539771.0 0
398000.0 539784.0 0
102000.0 543781.0 0
106000.0 543768.0 0
110000.0 543750.0 0
114000.0 543754.0 0
118000.0 543734.0 0
122000.0 543792.0 0
126000.0 543820.0 0
130000.0 543825.0 0
134000.0 543807.0 0
138000.0 543872.0 0
142000.0 543839.0 0
146000.0 543821.0 0
150000.0 543811.0 0
154000.0 543802.0 0
158000.0 543758.0 0
162000.0 543748.0 0
166000.0 543702.0 0
170000.0 543708.0 0
174000.0 543665.0 0
178000.0 543702.0 0
182000.0 543649.0 0
186000.0 543722.0 0
190000.0 543649.0 0
194000.0 543723.0 0
198000.0 543649.0 0
202000.0 543731.0 0
206000.0 543649.0 0
210000.0 543723.0 0
214000.0 543649.0 0
218000.0 543714.0 0
222000.0 543649.0 0
226000.0 543693.0 0
230000.0 543649.0 0
234000.0 543673.0 0
238000.0 543649.0 0
242000.0 543668.0 0
246000.0 543649.0 0
250000.0 543669.0 0
254000.0 543649.0 0
258000.0 543668.0 0
262000.0 543649.0 0
266000.0 543673.0 0
270000.0 543649.0 0
274000.0 543693.0 0
278000.0 543649.0 0
282000.0 543714.0 0
286000.0 543649.0 0
290000.0 543723.0 0
294000.0 543649.0 0
298000.0 543731.0 0
302000.0 543649.0 0
306000.0 543723.0 0
310000.0 543649.0 0
314000.0 543722.0 0
318000.0 543649.0 0
322000.0 543702.0 0
326000.0 543665.0 0
330000.0 543708.0 0
334000.0 543702.0 0
338000.0 543748.0 0
342000.0 543758.0 0
346000.0 543802.0 0
350000.0 543811.0 0
354000.0 543821.0 0
358000.0 543839.0 0
362000.0 543872.0 0
366000.0 543807.0 0
370000.0 543825.0 0
374000.0 543820.0 0
378000.0 543792.0 0
382000.0 543734.0 0
386000.0 543754.0 0
390000.0 543750.0 0
394000.0 543768.0 0
398000.0 543781.0 0
102000.0 547777.0 0
106000.0 547765.0 0
110000.0 547747.0 0
114000.0 547750.0 0
118000.0 547729.0 0
122000.0 547786.0 0
126000.0 547812.0 0
130000.0 547819.0 0
134000.0 547800.0 0
138000.0 547861.0 0
142000.0 547827.0 0
146000.0 547810.0 0
150000.0 547797.0 0
154000.0 547788.0 0
158000.0 547746.0 0
162000.0 547739.0 0
166000.0 547694.0 0
170000.0 547703.0 0
174000.0 547662.0 0
178000.0 547699.0 0
182000.0 547649.0 0
186000.0 547716.0 0
190000.0 547649.0 0
194000.0 547716.0 0
198000.0 547649.0 0
202000.0 547723.0 0
206000.0 547649.0 0
210000.0 547715.0 0
214000.0 547649.0 0
218000.0 547705.0 0
222000.0 547649.0 0
226000.0 547686.0 0
230000.0 547649.0 0
234000.0 547669.0 0
238000.0 547649.0 0
242000.0 547665.0 0
246000.0 547649.0 0
250000.0 547665.0 0
254000.0 547649.0 0
258000.0 547665.0 0
262000.0 547649.0 0
266000.0 547669.0 0
270000.0 547649.0 0
274000.0 547686.0 0
278000.0 547649.0 0
282000.0 547705.0 0
286000.0 547649.0 0
290000.0 547715.0 0
294000.0 547649.0 0
298000.0 547723.0 0
302000.0 547649.0 0
306000.0 547716.0 0
310000.0 547649.0 0
314000.0 547716.0 0
318000.0 547649.0 0
322000.0 547699.0 0
326000.0 547662.0 0
330000.0 547703.0 0
334000.0 547694.0 0
338000.0 547739.0 0
342000.0 547746.0 0
346000.0 547788.0 0
350000.0 547797.0 0
354000.0 547810.0 0
358000.0 547827.0 0
362000.0 547861.0 0
366000.0 547800.0 0
370000.0 547819.0 0
374000.0 547812.0 0
378000.0 547786.0 0
382000.0 547729.0 0
386000.0 547750.0 0
390000.0 547747.0 0
394000.0 547765.0 0
398000.0 547777.0 0
102000.0 551774.0 0
106000.0 551762.0 0
110000.0 551744.0 0
114000.0 551745.0 0
118000.0 551724.0 0
122000.0 551779.0 0
126000.0 551804.0 0
130000.0 551813.0 0
134000.0 551793.0 0
138000.0 551850.0 0
142000.0 551816.0 0
146000.0 551799.0 0
150000.0 551783.0 0
154000.0 551775.0 0
158000.0 551735.0 0
162000.0 551730.0 0
166000.0 551688.0 0
170000.0 551698.0 0
174000.0 551660.0 0
178000.0 551696.0 0
182000.0 551649.0 0
186000.0 551710.0 0
190000.0 551649.0 0
194000.0 551711.0 0
198000.0 551649.0 0
202000.0 551716.0 0
206000.0 551649.0 0
210000.0 551707.0 0
214000.0 551649.0 0
218000.0 551698.0 0
222000.0 551649.0 0
226000.0 551680.0 0
230000.0 551649.0 0
234000.0 551665.0 0
238000.0 551649.0 0
242000.0 551662.0 0
246000.0 551649.0 0
250000.0 551662.0 0
254000.0 551649.0 0
258000.0 551662.0 0
262000.0 551649.0 0
266000.0 551665.0 0
270000.0 551649.0 0
274000.0 551680.0 0
278000.0 551649.0 0
282000.0 551698.0 0
286000.0 551649.0 0
290000.0 551707.0 0
294000.0 551649.0 0
298000.0 551716.0 0
302000.0 551649.0 0
306000.0 551711.0 0
310000.0 551649.0 0
314000.0 551710.0 0
318000.0 551649.0 0
322000.0 551696.0 0
326000.0 551660.0 0
330000.0 551698.0 0
334000.0 551688.0 0
338000.0 551730.0 0
342000.0 551735.0 0
346000.0 551775.0 0
350000.0 551783.0 0
354000.0 551799.0 0
358000.0 551816.0 0
362000.0 551850.0 0
366000.0 551793.0 0
370000.0 551813.0 0
374000.0 551804.0 0
378000.0 551779.0 0
382000.0 551724.0 0
386000.0 551745.0 0
390000.0 551744.0 0
394000.0 551762.0 0
398000.0 551774.0 0
102000.0 555770.0 0
106000.0 555759.0 0
110000.0 555742.0 0
114000.0 555741.0 0
118000.0 555720.0 0
122000.0 555773.0 0
126000.0 555797.0 0
130000.0 555807.0 0
134000.0 555786.0 0
138000.0 555839.0 0
142000.0 555805.0 0
146000.0 555790.0 0
150000.0 555771.0 0
154000.0 555763.0 0
158000.0 555725.0 0
162000.0 555722.0 0
166000.0 555683.0 0
170000.0 555694.0 0
174000.0 555658.0 0
178000.0 555693.0 0
182000.0 555649.0 0
186000.0 555705.0 0
190000.0 555649.0 0
194000.0 555705.0 0
198000.0 555649.0 0
202000.0 555709.0 0
206000.0 555649.0 0
210000.0 555701.0 0
214000.0 555649.0 0
218000.0 555691.0 0
222000.0 555649.0 0
226000.0 555675.0 0
230000.0 555649.0 0
234000.0 555662.0 0
238000.0 555649.0 0
242000.0 555660.0 0
246000.0 555649.0 0
250000.0 555660.0 0
254000.0 555649.0 0
258000.0 555660.0 0
262000.0 555649.0 0
266000.0 555662.0 0
270000.0 555649.0 0
274000.0 555675.0 0
278000.0 555649.0 0
282000.0 555691.0 0
286000.0 555649.0 0
290000.0 555701.0 0
294000.0 555649.0 0
298000.0 555709.0 0
302000.0 555649.0 0
306000.0 555705.0 0
310000.0 555649.0 0
314000.0 555705.0 0
318000.0 555649.0 0
322000.0 555693.0 0
326000.0 555658.0 0
330000.0 555694.0 0
334000.0 555683.0 0
338000.0 555722.0 0
342000.0 555725.0 0
346000.0 555763.0 0
350000.0 555771.0 0
354000.0 555790.0 0
358000.0 555805.0 0
362000.0 555839.0 0
366000.0 555786.0 0
370000.0 555807.0 0
374000.0 555797.0 0
378000.0 555773.0 0
382000.0 555720.0 0
386000.0 555741.0 0
390000.0 555742.0 0
394000.0 555759.0 0
398000.0 555770.0 0
102000.0 559767.0 0
106000.0 559757.0 0
110000.0 559740.0 0
114000.0 559737.0 0
118000.0 559716.0 0
122000.0 559767.0 0
126000.0 559789.0 0
130000.0 559801.0 0
134000.0 559779.0 0
138000.0 559829.0 0
142000.0 559795.0 0
146000.0 559780.0 0
150000.0 559759.0 0
154000.0 559753.0 0
158000.0 559716.0 0
162000.0 559716.0 0
166000.0 559678.0 0
170000.0 559690.0 0
174000.0 559656.0 0
178000.0 559690.0 0
182000.0 559649.0 0
186000.0 559701.0 0
190000.0 559649.0 0
194000.0 559701.0 0
198000.0 559649.0 0
202000.0 559703.0 0
206000.0 559649.0 0
210000.0 559695.0 0
214000.0 559649.0 0
218000.0 559685.0 0
222000.0 559649.0 0
226000.0 559671.0 0
230000.0 559649.0 0
234000.0 559659.0 0
238000.0 559649.0 0
242000.0 559658.0 0
246000.0 559649.0 0
250000.0 559658.0 0
254000.0 559649.0 0
258000.0 559658.0 0
262000.0 559649.0 0
266000.0 559659.0 0
270000.0 559649.0 0
274000.0 559671.0 0
278000.0 559649.0 0
282000.0 559685.0 0
286000.0 559649.0 0
290000.0 559695.0 0
294000.0 559649.0 0
298000.0 559703.0 0
302000.0 559649.0 0
306000.0 559701.0 0
310000.0 559649.0 0
314000.0 559701.0 0
318000.0 559649.0 0
322000.0 559690.0 0
326000.0 559656.0 0
330000.0 559690.0 0
334000.0 559678.0 0
338000.0 559716.0 0
342000.0 559716.0 0
346000.0 559753.0 0
350000.0 559759.0 0
354000.0 559780.0 0
358000.0 559795.0 0
362000.0 559829.0 0
366000.0 559779.0 0
370000.0 559801.0 0
374000.0 559789.0 0
378000.0 559767.0 0
382000.0 559716.0 0
386000.0 559737.0 0
390000.0 559740.0 0
394000.0 559757.0 0
398000.0 559767.0 0
166000.0 563674.0 0
174000.0 563655.0 0
182000.0 563649.0 0
190000.0 563649.0 0
198000.0 563649.0 0
206000.0 563649.0 0
210000.0 563689.0 0
214000.0 563649.0 0
218000.0 563680.0 0
222000.0 563649.0 0
226000.0 563667.0 0
230000.0 563649.0 0
234000.0 563657.0 0
238000.0 563649.0 0
242000.0 563656.0 0
246000.0 563649.0 0
250000.0 563656.0 0
254000.0 563649.0 0
258000.0 563656.0 0
262000.0 563649.0 0
266000.0 563657.0 0
270000.0 563649.0 0
274000.0 563667.0 0
278000.0 563649.0 0
282000.0 563680.0 0
286000.0 563649.0 0
290000.0 563689.0 0
294000.0 563649.0 0
302000.0 563649.0 0
310000.0 563649.0 0
318000.0 563649.0 0
326000.0 563655.0 0
334000.0 563674.0 0
102000.0 563763.0 0
106000.0 563754.0 0
110000.0 563737.0 0
114000.0 563734.0 0
118000.0 563712.0 0
122000.0 563761.0 0
126000.0 563782.0 0
130000.0 563795.0 0
134000.0 563773.0 0
138000.0 563820.0 0
142000.0 563786.0 0
146000.0 563771.0 0
150000.0 563748.0 0
154000.0 563744.0 0
158000.0 563708.0 0
162000.0 563710.0 0
170000.0 563687.0 0
178000.0 563687.0 0
186000.0 563696.0 0
194000.0 563696.0 0
202000.0 563697.0 0
298000.0 563697.0 0
306000.0 563696.0 0
314000.0 563696.0 0
322000.0 563687.0 0
330000.0 563687.0 0
338000.0 563710.0 0
342000.0 563708.0 0
346000.0 563744.0 0
350000.0 563748.0 0
354000.0 563771.0 0
358000.0 563786.0 0
362000.0 563820.0 0
366000.0 563773.0 0
370000.0 563795.0 0
374000.0 563782.0 0
378000.0 563761.0 0
382000.0 563712.0 0
386000.0 563734.0 0
390000.0 563737.0 0
394000.0 563754.0 0
398000.0 563763.0 0
102000.0 567760.0 0
106000.0 567751.0 0
110000.0 567735.0 0
114000.0 567731.0 0
118000.0 567709.0 0
122000.0 567756.0 0
126000.0 567776.0 0
130000.0 567790.0 0
134000.0 567767.0 0
138000.0 567811.0 0
142000.0 567777.0 0
146000.0 567763.0 0
150000.0 567739.0 0
154000.0 567735.0 0
158000.0 567701.0 0
162000.0 567704.0 0
166000.0 567670.0 0
170000.0 567684.0 0
174000.0 567654.0 0
178000.0 567684.0 0
182000.0 567649.0 0
186000.0 567692.0 0
190000.0 567649.0 0
194000.0 567692.0 0
198000.0 567649.0 0
202000.0 567692.0 0
206000.0 567649.0 0
210000.0 567684.0 0
214000.0 567649.0 0
218000.0 567676.0 0
222000.0 567649.0 0
226000.0 567664.0 0
230000.0 567649.0 0
234000.0 567656.0 0
238000.0 567649.0 0
242000.0 567655.0 0
246000.0 567649.0 0
250000.0 567655.0 0
254000.0 567649.0 0
258000.0 567655.0 0
262000.0 567649.0 0
266000.0 567656.0 0
270000.0 567649.0 0
274000.0 567664.0 0
278000.0 567649.0 0
282000.0 567676.0 0
286000.0 567649.0 0
290000.0 567684.0 0
294000.0 567649.0 0
298000.0 567692.0 0
302000.0 567649.0 0
306000.0 567692.0 0
310000.0 567649.0 0
314000.0 567692.0 0
318000.0 567649.0 0
322000.0 567684.0 0
326000.0 567654.0 0
330000.0 567684.0 0
334000.0 567670.0 0
338000.0 567704.0 0
342000.0 567701.0 0
346000.0 567735.0 0
350000.0 567739.0 0
354000.0 567763.0 0
358000.0 567777.0 0
362000.0 567811.0 0
366000.0 567767.0 0
370000.0 567790.0 0
374000.0 567776.0 0
378000.0 567756.0 0
382000.0 567709.0 0
386000.0 567731.0 0
390000.0 567735.0 0
394000.0 567751.0 0
398000.0 567760.0 0
102000.0 571757.0 0
106000.0 571749.0 0
110000.0 571733.0 0
114000.0 571727.0 0
118000.0 571706.0 0
122000.0 571751.0 0
126000.0 571769.0 0
130000.0 571785.0 0
134000.0 571762.0 0
138000.0 571803.0 0
142000.0 571768.0 0
146000.0 571756.0 0
150000.0 571730.0 0
154000.0 571728.0 0
158000.0 571695.0 0
162000.0 571699.0 0
166000.0 571667.0 0
170000.0 571681.0 0
174000.0 571653.0 0
178000.0 571682.0 0
182000.0 571649.0 0
186000.0 571689.0 0
190000.0 571649.0 0
194000.0 571688.0 0
198000.0 571649.0 0
202000.0 571688.0 0
206000.0 571649.0 0
210000.0 571680.0 0
214000.0 571649.0 0
218000.0 571672.0 0
222000.0 571649.0 0
226000.0 571661.0 0
230000.0 571649.0 0
234000.0 571654.0 0
238000.0 571649.0 0
242000.0 571654.0 0
246000.0 571649.0 0
250000.0 571654.0 0
254000.0 571649.0 0
258000.0 571654.0 0
262000.0 571649.0 0
266000.0 571654.0 0
270000.0 571649.0 0
274000.0 571661.0 0
278000.0 571649.0 0
282000.0 571672.0 0
286000.0 571649.0 0
290000.0 571680.0 0
294000.0 571649.0 0
298000.0 571688.0 0
302000.0 571649.0 0
306000.0 571688.0 0
310000.0 571649.0 0
314000.0 571689.0 0
318000.0 571649.0 0
322000.0 571682.0 0
326000.0 571653.0 0
330000.0 571681.0 0
334000.0 571667.0 0
338000.0 571699.0 0
342000.0 571695.0 0
346000.0 571728.0 0
350000.0 571730.0 0
354000.0 571756.0 0
358000.0 571768.0 0
362000.0 571803.0 0
366000.0 571762.0 0
370000.0 571785.0 0
374000.0 571769.0 0
378000.0 571751.0 0
382000.0 571706.0 0
386000.0 571727.0 0
390000.0 571733.0 0
394000.0 571749.0 0
398000.0 571757.0 0
102000.0 575754.0 0
106000.0 575747.0 0
110000.0 575731.0 0
114000.0 575725.0 0
118000.0 575703.0 0
122000.0 575747.0 0
126000.0 575763.0 0
130000.0 575779.0 0
134000.0 575756.0 0
138000.0 575795.0 0
142000.0 575760.0 0
146000.0 575749.0 0
150000.0 575722.0 0
154000.0 575721.0 0
158000.0 575690.0 0
162000.0 575695.0 0
166000.0 575665.0 0
170000.0 575679.0 0
174000.0 575652.0 0
178000.0 575680.0 0
182000.0 575649.0 0
186000.0 575685.0 0
190000.0 575649.0 0
194000.0 575685.0 0
198000.0 575649.0 0
202000.0 575684.0 0
206000.0 575649.0 0
210000.0 575676.0 0
214000.0 575649.0 0
218000.0 575669.0 0
222000.0 575649.0 0
226000.0 575659.0 0
230000.0 575649.0 0
234000.0 575653.0 0
238000.0 575649.0 0
242000.0 575653.0 0
246000.0 575649.0 0
250000.0 575653.0 0
254000.0 575649.0 0
258000.0 575653.0 0
262000.0 575649.0 0
266000.0 575653.0 0
270000.0 575649.0 0
274000.0 575659.0 0
278000.0 575649.0 0
282000.0 575669.0 0
286000.0 575649.0 0
290000.0 575676.0 0
294000.0 575649.0 0
298000.0 575684.0 0
302000.0 575649.0 0
306000.0 575685.0 0
310000.0 575649.0 0
314000.0 575685.0 0
318000.0 575649.0 0
322000.0 575680.0 0
326000.0 575652.0 0
330000.0 575679.0 0
334000.0 575665.0 0
338000.0 575695.0 0
342000.0 575690.0 0
346000.0 575721.0 0
350000.0 575722.0 0
354000.0 575749.0 0
358000.0 575760.0 0
362000.0 575795.0 0
366000.0 575756.0 0
370000.0 575779.0 0
374000.0 575763.0 0
378000.0 575747.0 0
382000.0 575703.0 0
386000.0 575725.0 0
390000.0 575731.0 0
394000.0 575747.0 0
398000.0 575754.0 0
102000.0 579751.0 0
106000.0 579744.0 0
110000.0 579730.0 0
114000.0 579722.0 0
118000.0 579700.0 0
122000.0 579743.0 0
126000.0 579758.0 0
130000.0 579775.0 0
134000.0 579751.0 0
138000.0 579788.0 0
142000.0 579753.0 0
146000.0 579742.0 0
150000.0 579715.0 0
154000.0 579715.0 0
158000.0 579685.0 0
162000.0 579691.0 0
166000.0 579662.0 0
170000.0 579677.0 0
174000.0 579651.0 0
178000.0 579678.0 0
182000.0 579649.0 0
186000.0 579682.0 0
190000.0 579649.0 0
194000.0 579682.0 0
198000.0 579649.0 0
202000.0 579680.0 0
206000.0 579649.0 0
210000.0 579673.0 0
214000.0 579649.0 0
218000.0 579666.0 0
222000.0 579649.0 0
226000.0 579657.0 0
230000.0 579649.0 0
234000.0 579652.0 0
238000.0 579649.0 0
242000.0 579652.0 0
246000.0 579649.0 0
250000.0 579652.0 0
254000.0 579649.0 0
258000.0 579652.0 0
262000.0 579649.0 0
266000.0 579652.0 0
270000.0 579649.0 0
274000.0 579657.0 0
278000.0 579649.0 0
282000.0 579666.0 0
286000.0 579649.0 0
290000.0 579673.0 0
294000.0 579649.0 0
298000.0 579680.0 0
302000.0 579649.0 0
306000.0 579682.0 0
310000.0 579649.0 0
314000.0 579682.0 0
318000.0 579649.0 0
322000.0 579678.0 0
326000.0 579651.0 0
330000.0 579677.0 0
334000.0 579662.0 0
338000.0 579691.0 0
342000.0 579685.0 0
346000.0 579715.0 0
350000.0 579715.0 0
354000.0 579742.0 0
358000.0 579753.0 0
362000.0 579788.0 0
366000.0 579751.0 0
370000.0 579775.0 0
374000.0 579758.0 0
378000.0 579743.0 0
382000.0 579700.0 0
386000.0 579722.0 0
390000.0 579730.0 0
394000.0 579744.0 0
398000.0 579751.0 0
102000.0 583749.0 0
106000.0 583742.0 0
110000.0 583728.0 0
114000.0 583719.0 0
118000.0 583698.0 0
122000.0 583739.0 0
126000.0 583753.0 0
130000.0 583770.0 0
134000.0 583747.0 0
138000.0 583781.0 0
142000.0 583746.0 0
146000.0 583736.0 0
150000.0 583709.0 0
154000.0 583710.0 0
158000.0 583681.0 0
162000.0 583688.0 0
166000.0 583660.0 0
170000.0 583675.0 0
174000.0 583651.0 0
178000.0 583676.0 0
182000.0 583649.0 0
186000.0 583680.0 0
190000.0 583649.0 0
194000.0 583679.0 0
198000.0 583649.0 0
202000.0 583677.0 0
206000.0 583649.0 0
210000.0 583670.0 0
214000.0 583649.0 0
218000.0 583663.0 0
222000.0 583649.0 0
226000.0 583656.0 0
230000.0 583649.0 0
234000.0 583652.0 0
238000.0 583649.0 0
242000.0 583651.0 0
246000.0 583649.0 0
250000.0 583652.0 0
254000.0 583649.0 0
258000.0 583651.0 0
262000.0 583649.0 0
266000.0 583652.0 0
270000.0 583649.0 0
274000.0 583656.0 0
278000.0 583649.0 0
282000.0 583663.0 0
286000.0 583649.0 0
290000.0 583670.0 0
294000.0 583649.0 0
298000.0 583677.0 0
302000.0 583649.0 0
306000.0 583679.0 0
310000.0 583649.0 0
314000.0 583680.0 0
318000.0 583649.0 0
322000.0 583676.0 0
326000.0 583651.0 0
330000.0 583675.0 0
334000.0 583660.0 0
338000.0 583688.0 0
342000.0 583681.0 0
346000.0 583710.0 0
350000.0 583709.0 0
354000.0 583736.0 0
358000.0 583746.0 0
362000.0 583781.0 0
366000.0 583747.0 0
370000.0 583770.0 0
374000.0 583753.0 0
378000.0 583739.0 0
382000.0 583698.0 0
386000.0 583719.0 0
390000.0 583728.0 0
394000.0 583742.0 0
398000.0 583749.0 0
102000.0 587746.0 0
106000.0 587741.0 0
110000.0 587727.0 0
114000.0 587717.0 0
118000.0 587696.0 0
122000.0 587736.0 0
126000.0 587748.0 0
130000.0 587766.0 0
134000.0 587743.0 0
138000.0 587775.0 0
142000.0 587740.0 0
146000.0 587731.0 0
150000.0 587703.0 0
154000.0 587705.0 0
158000.0 587677.0 0
162000.0 587685.0 0
166000.0 587659.0 0
170000.0 587673.0 0
174000.0 587650.0 0
178000.0 587674.0 0
182000.0 587649.0 0
186000.0 587677.0 0
190000.0 587649.0 0
194000.0 587676.0 0
198000.0 587649.0 0
202000.0 587674.0 0
206000.0 587649.0 0
210000.0 587667.0 0
214000.0 587649.0 0
218000.0 587661.0 0
222000.0 587649.0 0
226000.0 587654.0 0
230000.0 587649.0 0
234000.0 587651.0 0
238000.0 587649.0 0
242000.0 587651.0 0
246000.0 587649.0 0
250000.0 587651.0 0
254000.0 587649.0 0
258000.0 587651.0 0
262000.0 587649.0 0
266000.0 587651.0 0
270000.0 587649.0 0
274000.0 587654.0 0
278000.0 587649.0 0
282000.0 587661.0 0
286000.0 587649.0 0
290000.0 587667.0 0
294000.0 587649.0 0
298000.0 587674.0 0
302000.0 587649.0 0
306000.0 587676.0 0
310000.0 587649.0 0
314000.0 587677.0 0
318000.0 587649.0 0
322000.0 587674.0 0
326000.0 587650.0 0
330000.0 587673.0 0
334000.0 587659.0 0
338000.0 587685.0 0
342000.0 587677.0 0
346000.0 587705.0 0
350000.0 587703.0 0
354000.0 587731.0 0
358000.0 587740.0 0
362000.0 587775.0 0
366000.0 587743.0 0
370000.0 587766.0 0
374000.0 587748.0 0
378000.0 587736.0 0
382000.0 587696.0 0
386000.0 587717.0 0
390000.0 587727.0 0
394000.0 587741.0 0
398000.0 587746.0 0
102000.0 591744.0 0
106000.0 591739.0 0
110000.0 591725.0 0
114000.0 591715.0 0
118000.0 591694.0 0
122000.0 591733.0 0
126000.0 591744.0 0
130000.0 591762.0 0
134000.0 591739.0 0
138000.0 591770.0 0
142000.0 591734.0 0
146000.0 591726.0 0
150000.0 591698.0 0
154000.0 591701.0 0
158000.0 591674.0 0
162000.0 591683.0 0
166000.0 591657.0 0
170000.0 591672.0 0
174000.0 591650.0 0
178000.0 591672.0 0
182000.0 591649.0 0
186000.0 591675.0 0
190000.0 591649.0 0
194000.0 591674.0 0
198000.0 591649.0 0
202000.0 591671.0 0
206000.0 591649.0 0
210000.0 591665.0 0
214000.0 591649.0 0
218000.0 591659.0 0
222000.0 591649.0 0
226000.0 591653.0 0
230000.0 591649.0 0
234000.0 591651.0 0
238000.0 591649.0 0
242000.0 591650.0 0
246000.0 591649.0 0
250000.0 591651.0 0
254000.0 591649.0 0
258000.0 591650.0 0
262000.0 591649.0 0
266000.0 591651.0 0
270000.0 591649.0 0
274000.0 591653.0 0
278000.0 591649.0 0
282000.0 591659.0 0
286000.0 591649.0 0
290000.0 591665.0 0
294000.0 591649.0 0
298000.0 591671.0 0
302000.0 591649.0 0
306000.0 591674.0 0
310000.0 591649.0 0
314000.0 591675.0 0
318000.0 591649.0 0
322000.0 591672.0 0
326000.0 591650.0 0
330000.0 591672.0 0
334000.0 591657.0 0
338000.0 591683.0 0
342000.0 591674.0 0
346000.0 591701.0 0
350000.0 591698.0 0
354000.0 591726.0 0
358000.0 591734.0 0
362000.0 591770.0 0
366000.0 591739.0 0
370000.0 591762.0 0
374000.0 591744.0 0
378000.0 591733.0 0
382000.0 591694.0 0
386000.0 591715.0 0
390000.0 591725.0 0
394000.0 591739.0 0
398000.0 591744.0 0
102000.0 595742.0 0
106000.0 595737.0 0
110000.0 595724.0 0
114000.0 595713.0 0
118000.0 595693.0 0
122000.0 595730.0 0
126000.0 595740.0 0
130000.0 595759.0 0
134000.0 595736.0 0
138000.0 595765.0 0
142000.0 595730.0 0
146000.0 595722.0 0
150000.0 595694.0 0
154000.0 595698.0 0
158000.0 595671.0 0
162000.0 595681.0 0
166000.0 595656.0 0
170000.0 595670.0 0
174000.0 595650.0 0
178000.0 595671.0 0
182000.0 595649.0 0
186000.0 595673.0 0
190000.0 595649.0 0
194000.0 595672.0 0
198000.0 595649.0 0
202000.0 595669.0 0
206000.0 595649.0 0
210000.0 595663.0 0
214000.0 595649.0 0
218000.0 595658.0 0
222000.0 595649.0 0
226000.0 595653.0 0
230000.0 595649.0 0
234000.0 595650.0 0
238000.0 595649.0 0
242000.0 595650.0 0
246000.0 595649.0 0
250000.0 595650.0 0
254000.0 595649.0 0
258000.0 595650.0 0
262000.0 595649.0 0
266000.0 595650.0 0
270000.0 595649.0 0
274000.0 595653.0 0
278000.0 595649.0 0
282000.0 595658.0 0
286000.0 595649.0 0
290000.0 595663.0 0
294000.0 595649.0 0
298000.0 595669.0 0
302000.0 595649.0 0
306000.0 595672.0 0
310000.0 595649.0 0
314000.0 595673.0 0
318000.0 595649.0 0
322000.0 595671.0 0
326000.0 595650.0 0
330000.0 595670.0 0
334000.0 595656.0 0
338000.0 595681.0 0
342000.0 595671.0 0
346000.0 595698.0 0
350000.0 595694.0 0
354000.0 595722.0 0
358000.0 595730.0 0
362000.0 595765.0 0
366000.0 595736.0 0
370000.0 595759.0 0
374000.0 595740.0 0
378000.0 595730.0 0
382000.0 595693.0 0
386000.0 595713.0 0
390000.0 595724.0 0
394000.0 595737.0 0
398000.0 595742.0 0
102000.0 599741.0 0
106000.0 599736.0 0
110000.0 599723.0 0
114000.0 599712.0 0
118000.0 599691.0 0
122000.0 599728.0 0
126000.0 599737.0 0
130000.0 599756.0 0
134000.0 599733.0 0
138000.0 599760.0 0
142000.0 599725.0 0
146000.0 599718.0 0
150000.0 599690.0 0
154000.0 599695.0 0
158000.0 599669.0 0
162000.0 599679.0 0
166000.0 599655.0 0
170000.0 599669.0 0
174000.0 599650.0 0
178000.0 599670.0 0
182000.0 599649.0 0
186000.0 599672.0 0
190000.0 599649.0 0
194000.0 599670.0 0
198000.0 599649.0 0
202000.0 599667.0 0
206000.0 599649.0 0
210000.0 599661.0 0
214000.0 599649.0 0
218000.0 599656.0 0
222000.0 599649.0 0
226000.0 599652.0 0
230000.0 599649.0 0
234000.0 599650.0 0
238000.0 599649.0 0
242000.0 599650.0 0
246000.0 599649.0 0
250000.0 599650.0 0
254000.0 599649.0 0
258000.0 599650.0 0
262000.0 599649.0 0
266000.0 599650.0 0
270000.0 599649.0 0
274000.0 599652.0 0
278000.0 599649.0 0
282000.0 599656.0 0
286000.0 599649.0 0
290000.0 599661.0 0
294000.0 599649.0 0
298000.0 599667.0 0
302000.0 599649.0 0
306000.0 599670.0 0
310000.0 599649.0 0
314000.0 599672.0 0
318000.0 599649.0 0
322000.0 599670.0 0
326000.0 599650.0 0
330000.0 599669.0 0
334000.0 599655.0 0
338000.0 599679.0 0
342000.0 599669.0 0
346000.0 599695.0 0
350000.0 599690.0 0
354000.0 599718.0 0
358000.0 599725.0 0
362000.0 599760.0 0
366000.0 599733.0 0
370000.0 599756.0 0
374000.0 599737.0 0
378000.0 599728.0 0
382000.0 599691.0 0
386000.0 599712.0 0
390000.0 599723.0 0
394000.0 599736.0 0
398000.0 599741.0 0
102000.0 603739.0 0
106000.0 603735.0 0
110000.0 603722.0 0
114000.0 603711.0 0
118000.0 603690.0 0
122000.0 603726.0 0
126000.0 603734.0 0
130000.0 603754.0 0
134000.0 603730.0 0
138000.0 603757.0 0
142000.0 603722.0 0
146000.0 603715.0 0
150000.0 603687.0 0
154000.0 603692.0 0
158000.0 603667.0 0
162000.0 603677.0 0
166000.0 603654.0 0
170000.0 603669.0 0
174000.0 603649.0 0
178000.0 603669.0 0
182000.0 603649.0 0
186000.0 603670.0 0
190000.0 603649.0 0
194000.0 603669.0 0
198000.0 603649.0 0
202000.0 603666.0 0
206000.0 603649.0 0
210000.0 603660.0 0
214000.0 603649.0 0
218000.0 603655.0 0
222000.0 603649.0 0
226000.0 603651.0 0
230000.0 603649.0 0
234000.0 603650.0 0
238000.0 603649.0 0
242000.0 603650.0 0
246000.0 603649.0 0
250000.0 603650.0 0
254000.0 603649.0 0
258000.0 603650.0 0
262000.0 603649.0 0
266000.0 603650.0 0
270000.0 603649.0 0
274000.0 603651.0 0
278000.0 603649.0 0
282000.0 603655.0 0
286000.0 603649.0 0
290000.0 603660.0 0
294000.0 603649.0 0
298000.0 603666.0 0
302000.0 603649.0 0
306000.0 603669.0 0
310000.0 603649.0 0
314000.0 603670.0 0
318000.0 603649.0 0
322000.0 603669.0 0
326000.0 603649.0 0
330000.0 603669.0 0
334000.0 603654.0 0
338000.0 603677.0 0
342000.0 603667.0 0
346000.0 603692.0 0
350000.0 603687.0 0
354000.0 603715.0 0
358000.0 603722.0 0
362000.0 603757.0 0
366000.0 603730.0 0
370000.0 603754.0 0
374000.0 603734.0 0
378000.0 603726.0 0
382000.0 603690.0 0
386000.0 603711.0 0
390000.0 603722.0 0
394000.0 603735.0 0
398000.0 603739.0 0
102000.0 607738.0 0
106000.0 607734.0 0
110000.0 607722.0 0
114000.0 607709.0 0
118000.0 607689.0 0
122000.0 607725.0 0
126000.0 607732.0 0
130000.0 607751.0 0
134000.0 607728.0 0
138000.0 607754.0 0
142000.0 607718.0 0
146000.0 607712.0 0
150000.0 607685.0 0
154000.0 607690.0 0
158000.0 607666.0 0
162000.0 607676.0 0
166000.0 607654.0 0
170000.0 607668.0 0
174000.0 607649.0 0
178000.0 607668.0 0
182000.0 607649.0 0
186000.0 607669.0 0
190000.0 607649.0 0
194000.0 607668.0 0
198000.0 607649.0 0
202000.0 607664.0 0
206000.0 607649.0 0
210000.0 607659.0 0
214000.0 607649.0 0
218000.0 607654.0 0
222000.0 607649.0 0
226000.0 607651.0 0
230000.0 607649.0 0
234000.0 607650.0 0
238000.0 607649.0 0
242000.0 607650.0 0
246000.0 607649.0 0
250000.0 607650.0 0
254000.0 607649.0 0
258000.0 607650.0 0
262000.0 607649.0 0
266000.0 607650.0 0
270000.0 607649.0 0
274000.0 607651.0 0
278000.0 607649.0 0
282000.0 607654.0 0
286000.0 607649.0 0
290000.0 607659.0 0
294000.0 607649.0 0
298000.0 607664.0 0
302000.0 607649.0 0
306000.0 607668.0 0
310000.0 607649.0 0
314000.0 607669.0 0
318000.0 607649.0 0
322000.0 607668.0 0
326000.0 607649.0 0
330000.0 607668.0 0
334000.0 607654.0 0
338000.0 607676.0 0
342000.0 607666.0 0
346000.0 607690.0 0
350000.0 607685.0 0
354000.0 607712.0 0
358000.0 607718.0 0
362000.0 607754.0 0
366000.0 607728.0 0
370000.0 607751.0 0
374000.0 607732.0 0
378000.0 607725.0 0
382000.0 607689.0 0
386000.0 607709.0 0
390000.0 607722.0 0
394000.0 607734.0 0
398000.0 607738.0 0
102000.0 611737.0 0
106000.0 611733.0 0
110000.0 611721.0 0
114000.0 611709.0 0
118000.0 611689.0 0
122000.0 611724.0 0
126000.0 611730.0 0
130000.0 611750.0 0
134000.0 611726.0 0
138000.0 611751.0 0
142000.0 611716.0 0
146000.0 611710.0 0
150000.0 611683.0 0
154000.0 611688.0 0
158000.0 611665.0 0
162000.0 611675.0 0
166000.0 611653.0 0
170000.0 611667.0 0
174000.0 611649.0 0
178000.0 611667.0 0
182000.0 611649.0 0
186000.0 611668.0 0
190000.0 611649.0 0
194000.0 611667.0 0
198000.0 611649.0 0
202000.0 611663.0 0
206000.0 611649.0 0
210000.0 611658.0 0
214000.0 611649.0 0
218000.0 611654.0 0
222000.0 611649.0 0
226000.0 611651.0 0
230000.0 611649.0 0
234000.0 611649.0 0
238000.0 611649.0 0
242000.0 611650.0 0
246000.0 611649.0 0
250000.0 611650.0 0
254000.0 611649.0 0
258000.0 611650.0 0
262000.0 611649.0 0
266000.0 611649.0 0
270000.0 611649.0 0
274000.0 611651.0 0
278000.0 611649.0 0
282000.0 611654.0 0
286000.0 611649.0 0
290000.0 611658.0 0
294000.0 611649.0 0
298000.0 611663.0 0
302000.0 611649.0 0
306000.0 611667.0 0
310000.0 611649.0 0
314000.0 611668.0 0
318000.0 611649.0 0
322000.0 611667.0 0
326000.0 611649.0 0
330000.0 611667.0 0
334000.0 611653.0 0
338000.0 611675.0 0
342000.0 611665.0 0
346000.0 611688.0 0
350000.0 611683.0 0
354000.0 611710.0 0
358000.0 611716.0 0
362000.0 611751.0 0
366000.0 611726.0 0
370000.0 611750.0 0
374000.0 611730.0 0
378000.0 611724.0 0
382000.0 611689.0 0
386000.0 611709.0 0
390000.0 611721.0 0
394000.0 611733.0 0
398000.0 611737.0 0
102000.0 615736.0 0
106000.0 615732.0 0
110000.0 615720.0 0
114000.0 615708.0 0
118000.0 615688.0 0
122000.0 615723.0 0
126000.0 615729.0 0
130000.0 615748.0 0
134000.0 615725.0 0
138000.0 615750.0 0
142000.0 615714.0 0
146000.0 615709.0 0
150000.0 615681.0 0
154000.0 615687.0 0
158000.0 615664.0 0
162000.0 615674.0 0
166000.0 615653.0 0
170000.0 615667.0 0
174000.0 615649.0 0
178000.0 615667.0 0
182000.0 615649.0 0
186000.0 615667.0 0
190000.0 615649.0 0
194000.0 615666.0 0
198000.0 615649.0 0
202000.0 615663.0 0
206000.0 615649.0 0
210000.0 615658.0 0
214000.0 615649.0 0
218000.0 615653.0 0
222000.0 615649.0 0
226000.0 615650.0 0
230000.0 615649.0 0
234000.0 615649.0 0
238000.0 615649.0 0
242000.0 615649.0 0
246000.0 615649.0 0
250000.0 615650.0 0
254000.0 615649.0 0
258000.0 615649.0 0
262000.0 615649.0 0
266000.0 615649.0 0
270000.0 615649.0 0
274000.0 615650.0 0
278000.0 615649.0 0
282000.0 615653.0 0
286000.0 615649.0 0
290000.0 615658.0 0
294000.0 615649.0 0
298000.0 615663.0 0
302000.0 615649.0 0
306000.0 615666.0 0
310000.0 615649.0 0
314000.0 615667.0 0
318000.0 615649.0 0
322000.0 615667.0 0
326000.0 615649.0 0
330000.0 615667.0 0
334000.0 615653.0 0
338000.0 615674.0 0
342000.0 615664.0 0
346000.0 615687.0 0
350000.0 615681.0 0
354000.0 615709.0 0
358000.0 615714.0 0
362000.0 615750.0 0
366000.0 615725.0 0
370000.0 615748.0 0
374000.0 615729.0 0
378000.0 615723.0 0
382000.0 615688.0 0
386000.0 615708.0 0
390000.0 615720.0 0
394000.0 615732.0 0
398000.0 615736.0 0
102000.0 619736.0 0
106000.0 619732.0 0
110000.0 619720.0 0
114000.0 619707.0 0
118000.0 619688.0 0
122000.0 619722.0 0
126000.0 619728.0 0
130000.0 619747.0 0
134000.0 619724.0 0
138000.0 619748.0 0
142000.0 619713.0 0
146000.0 619708.0 0
150000.0 619680.0 0
154000.0 619686.0 0
158000.0 619663.0 0
162000.0 619674.0 0
166000.0 619653.0 0
170000.0 619667.0 0
174000.0 619649.0 0
178000.0 619666.0 0
182000.0 619649.0 0
186000.0 619667.0 0
190000.0 619649.0 0
194000.0 619666.0 0
198000.0 619649.0 0
202000.0 619662.0 0
206000.0 619649.0 0
210000.0 619657.0 0
214000.0 619649.0 0
218000.0 619653.0 0
222000.0 619649.0 0
226000.0 619650.0 0
230000.0 619649.0 0
234000.0 619649.0 0
238000.0 619649.0 0
242000.0 619649.0 0
246000.0 619649.0 0
250000.0 619650.0 0
254000.0 619649.0 0
258000.0 619649.0 0
262000.0 619649.0 0
266000.0 619649.0 0
270000.0 619649.0 0
274000.0 619650.0 0
278000.0 619649.0 0
282000.0 619653.0 0
286000.0 619649.0 0
290000.0 619657.0 0
294000.0 619649.0 0
298000.0 619662.0 0
302000.0 619649.0 0
306000.0 619666.0 0
310000.0 619649.0 0
314000.0 619667.0 0
318000.0 619649.0 0
322000.0 619666.0 0
326000.0 619649.0 0
330000.0 619667.0 0
334000.0 619653.0 0
338000.0 619674.0 0
342000.0 619663.0 0
346000.0 619686.0 0
350000.0 619680.0 0
354000.0 619708.0 0
358000.0 619713.0 0
362000.0 619748.0 0
366000.0 619724.0 0
370000.0 619747.0 0
374000.0 619728.0 0
378000.0 619722.0 0
382000.0 619688.0 0
386000.0 619707.0 0
390000.0 619720.0 0
394000.0 619732.0 0
398000.0 619736.0 0
102000.0 623735.0 0
106000.0 623732.0 0
110000.0 623720.0 0
114000.0 623707.0 0
118000.0 623687.0 0
122000.0 623722.0 0
126000.0 623727.0 0
130000.0 623747.0 0
134000.0 623724.0 0
138000.0 623748.0 0
142000.0 623712.0 0
146000.0 623707.0 0
150000.0 623680.0 0
154000.0 623686.0 0
158000.0 623663.0 0
162000.0 623673.0 0
166000.0 623653.0 0
170000.0 623666.0 0
174000.0 623649.0 0
178000.0 623666.0 0
182000.0 623649.0 0
186000.0 623667.0 0
190000.0 623649.0 0
194000.0 623666.0 0
198000.0 623649.0 0
202000.0 623662.0 0
206000.0 623649.0 0
210000.0 623657.0 0
214000.0 623649.0 0
218000.0 623653.0 0
222000.0 623649.0 0
226000.0 623650.0 0
230000.0 623649.0 0
234000.0 623649.0 0
238000.0 623649.0 0
242000.0 623649.0 0
246000.0 623649.0 0
250000.0 623650.0 0
254000.0 623649.0 0
258000.0 623649.0 0
262000.0 623649.0 0
266000.0 623649.0 0
270000.0 623649.0 0
274000.0 623650.0 0
278000.0 623649.0 0
282000.0 623653.0 0
286000.0 623649.0 0
290000.0 623657.0 0
294000.0 623649.0 0
298000.0 623662.0 0
302000.0 623649.0 0
306000.0 623666.0 0
310000.0 623649.0 0
314000.0 623667.0 0
318000.0 623649.0 0
322000.0 623666.0 0
326000.0 623649.0 0
330000.0 623666.0 0
334000.0 623653.0 0
338000.0 623673.0 0
342000.0 623663.0 0
346000.0 623686.0 0
350000.0 623680.0 0
354000.0 623707.0 0
358000.0 623712.0 0
362000.0 623748.0 0
366000.0 623724.0 0
370000.0 623747.0 0
374000.0 623727.0 0
378000.0 623722.0 0
382000.0 623687.0 0
386000.0 623707.0 0
390000.0 623720.0 0
394000.0 623732.0 0
398000.0 623735.0 0
POINT_DATA 4650
SCALARS Radius float 1
LOOKUP_TABLE default
4000.0 4000.0 4000.0 4000.0 4000.0 4000.0 4000.0 4000.0 4000.0 4000.0 4000.0 4000.0 4000.0 4000.0 4000.0 4000.0 4000.0 4000.0 4000.0 4000.0 4000.0 4000.0 4000.0 4000.0 4000.0 4000.0 4000.0 4000.0 4000.0 4000.0 4000.0 4000.0 4000.0 4000.0 4000.0 4000.0 4000.0 4000.0 4000.0 4000.0 4000.0 4000.0 4000.0 4000.0 4000.0 4000.0 4000.0 4000.0 4000.0 4000.0 4000.0 4000.0 4000.0 4000.0 4000.0 4000.0 4000.0 4000.0 4000.0 4000.0 4000.0 4000.0 4000.0 4000.0 4000.0 4000.0 4000.0 4000.0 4000.0 4000.0 4000.0 4000.0 4000.0 4000.0 4000.0 4000.0 4000.0 4000.0 4000.0 4000.0 4000.0 4000.0 4000.0 4000.0 4000.0 4000.0 4000.0 4000.0 4000.0 4000.0 4000.0 4000.0 4000.0 4000.0 4000.0 4000.0 4000.0 4000.0 4000.0 4000.0 4000.0 4000.0 4000.0 4000.0 4000.0 4000.0 4000.0 4000.0 4000.0 4000.0 4000.0 4000.0 4000.0 4000.0 4000.0 4000.0 4000.0 4000.0 4000.0 4000.0 4000.0 4000.0 4000.0 4000.0 4000.0 4000.0 4000.0 4000.0 4000.0 4000.0 4000.0 4000.0 4000.0 4000.0 4000.0 4000.0 4000.0 4000.0 4000.0 4000.0 4000.0 4000.0 4000.0 4000.0 4000.0 4000.0 4000.0 4000.0 4000.0 4000.0 4000.0 4000.0 4000.0 4000.0 4000.0 4000.0 4000.0 4000.0 4000.0 4000.0 4000.0 4000.0 4000.0 4000.0 4000.0 4000.0 4000.0 4000.0 4000.0 4000.0 4000.0 4000.0 4000.0 4000.0 4000.0 4000.0 4000.0 4000.0 4000.0 4000.0 4000.0 4000.0 4000.0 4000.0 4000.0 4000.0 4000.0 4000.0 4000.0 4000.0 4000.0 4000.0 4000.0 4000.0 4000.0 4000.0 4000.0 4000.0 4000.0 4000.0 4000.0 4000.0 4000.0 4000.0 4000.0 4000.0 4000.0 4000.0 4000.0 4000.0 4000.0 4000.0 4000.0 4000.0 4000.0 4000.0 4000.0 4000.0 4000.0 4000.0 4000.0 4000.0 4000.0 4000.0 4000.0 4000.0 4000.0 4000.0 4000.0 4000.0 4000.0 4000.0 4000.0 4000.0 4000.0 4000.0 4000.0 4000.0 4000.0 4000.0 4000.0 4000.0 4000.0 4000.0 4000.0 4000.0 4000.0 4000.0 4000.0 4000.0 4000.0 4000.0 4000.0 4000.0 4000.0 4000.0 4000.0 4000.0 4000.0 4000.0 4000.0 4000.0 4000.0 4000.0 4000.0 4000.0 4000.0 4000.0 4000.0 4000.0 4000.0 4000.0 4000.0 4000.0 4000.0 4000.0 4000.0 4000.0 4000.0 4000.0 4000.0 4000.0 4000.0 4000.0 4000.0 4000.0 4000.0 4000.0 4000.0 4000.0 4000.0 4000.0 4000.0 4000.0 4000.0 4000.0 4000.0 4000.0 4000.0 4000.0 4000.0 4000.0 4000.0 4000.0 4000.0 4000.0 4000.0 4000.0 4000.0 4000.0 4000.0 4000.0 4000.0 4000.0 4000.0 4000.0 4000.0 4000.0 4000.0 4000.0 4000.0 4000.0 4000.0 4000.0 4000.0 4000.0 4000.0 4000.0 4000.0 4000.0 4000.0 4000.0 4000.0 4000.0 4000.0 4000.0 4000.0 4000.0 4000.0 4000.0 4000.0 4000.0 4000.0 4000.0 4000.0 4000.0 4000.0 4000.0 4000.0 4000.0 4000.0 4000.0 4000.0 4000.0 4000.0 4000.0 4000.0 4000.0 4000.0 4000.0 4000.0 4000.0 4000.0 4000.0 4000.0 4000.0 4000.0 4000.0 4000.0 4000.0 4000.0 4000.0 4000.0 4000.0 4000.0 4000.0 4000.0 4000.0 4000.0 4000.0 4000.0 4000.0 4000.0 4000.0 4000.0 4000.0 4000.0 4000.0 4000.0 4000.0 4000.0 4000.0 4000.0 4000.0 4000.0 4000.0 4000.0 4000.0 4000.0 4000.0 4000.0 4000.0 4000.0 4000.0 4000.0 4000.0 4000.0 4000.0 4000.0 4000.0 4000.0 4000.0 4000.0 4000.0 4000.0 4000.0 4000.0 4000.0 4000.0 4000.0 4000.0 4000.0 4000.0 4000.0 4000.0 4000.0 4000.0 4000.0 4000.0 4000.0 4000.0 4000.0 4000.0 4000.0 4000.0 4000.0 4000.0 4000.0 4000.0 4000.0 4000.0 4000.0 4000.0 4000.0 4000.0 4000.0 4000.0 4000.0 4000.0 4000.0 4000.0 4000.0 4000.0 4000.0 4000.0 4000.0 4000.0 4000.0 4000.0 4000.0 4000.0 4000.0 4000.0 4000.0 4000.0 4000.0 4000.0 4000.0 4000.0 4000.0 4000.0 4000.0 4000.0 4000.0 4000.0 4000.0 4000.0 4000.0 4000.0 4000.0 4000.0 4000.0 4000.0 4000.0 4000.0 4000.0 4000.0 4000.0 4000.0 4000.0 4000.0 4000.0 4000.0 4000.0 4000.0 4000.0 4000.0 4000.0 4000.0 4000.0 4000.0 4000.0 4000.0 4000.0 4000.0 4000.0 4000.0 4000.0 4000.0 4000.0 4000.0 4000.0 4000.0 4000.0 4000.0 4000.0 4000.0 4000.0 4000.0 4000.0 4000.0 4000.0 4000.0 4000.0 4000.0 4000.0 4000.0 4000.0 4000.0 4000.0 4000.0 4000.0 4000.0 4000.0 4000.0 4000.0 4000.0 4000.0 4000.0 4000.0 4000.0 4000.0 4000.0 4000.0 4000.0 4000.0 4000.0 4000.0 4000.0 4000.0 4000.0 4000.0 4000.0 4000.0 4000.0 4000.0 4000.0 4000.0 4000.0 4000.0 4000.0 4000.0 4000.0 4000.0 4000.0 4000.0 4000.0 4000.0 4000.0 4000.0 4000.0 4000.0 4000.0 4000.0 4000.0 4000.0 4000.0 4000.0 4000.0 4000.0 4000.0 4000.0 4000.0 4000.0 4000.0 4000.0 4000.0 4000.0 4000.0 4000.0 4000.0 4000.0 4000.0 4000.0 4000.0 4000.0 4000.0 4000.0 4000.0 4000.0 4000.0 4000.0 4000.0 4000.0 4000.0 4000.0 4000.0 4000.0 4000.0 4000.0 4000.0 4000.0 4000.0 4000.0 4000.0 4000.0 4000.0 4000.0 4000.0 4000.0 4000.0 4000.0 4000.0 4000.0 4000.0 4000.0 4000.0 4000.0 4000.0 4000.0 4000.0 4000.0 4000.0 4000.0 4000.0 4000.0 4000.0 4000.0 4000.0 4000.0 4000.0 4000.0 4000.0 4000.0 4000.0 4000.0 4000.0 4000.0 4000.0 4000.0 4000.0 4000.0 4000.0 4000.0 4000.0 4000.0 4000.0 4000.0 4000.0 4000.0 4000.0 4000.0 4000.0 4000.0 4000.0 4000.0 4000.0 4000.0 4000.0 4000.0 4000.0 4000.0 4000.0 4000.0 4000.0 4000.0 4000.0 4000.0 4000.0 4000.0 4000.0 4000.0 4000.0 4000.0 4000.0 4000.0 4000.0 4000.0 4000.0 4000.0 4000.0 4000.0 4000.0 4000.0 4000.0 4000.0 4000.0 4000.0 4000.0 4000.0 4000.0 4000.0 4000.0 4000.0 4000.0 4000.0 4000.0 4000.0 4000.0 4000.0 4000.0 4000.0 4000.0 4000.0 4000.0 4000.0 4000.0 4000.0 4000.0 4000.0 4000.0 4000.0 4000.0 4000.0 4000.0 4000.0 4000.0 4000.0 4000.0 4000.0 4000.0 4000.0 4000.0 4000.0 4000.0 4000.0 4000.0 4000.0 4000.0 4000.0 4000.0 4000.0 4000.0 4000.0 4000.0 4000.0 4000.0 4000.0 4000.0 4000.0 4000.0 4000.0 4000.0 4000.0 4000.0 4000.0 4000.0 4000.0 4000.0 4000.0 4000.0 4000.0 4000.0 4000.0 4000.0 4000.0 4000.0 4000.0 4000.0 4000.0 4000.0 4000.0 4000.0 4000.0 4000.0 4000.0 4000.0 4000.0 4000.0 4000.0 4000.0 4000.0 4000.0 4000.0 4000.0 4000.0 4000.0 4000.0 4000.0 4000.0 4000.0 4000.0 4000.0 4000.0 4000.0 4000.0 4000.0 4000.0 4000.0 4000.0 4000.0 4000.0 4000.0 4000.0 4000.0 4000.0 4000.0 4000.0 4000.0 4000.0 4000.0 4000.0 4000.0 4000.0 4000.0 4000.0 4000.0 4000.0 4000.0 4000.0 4000.0 4000.0 4000.0 4000.0 4000.0 4000.0 4000.0 4000.0 4000.0 4000.0 4000.0 4000.0 4000.0 4000.0 4000.0 4000.0 4000.0 4000.0 4000.0 4000.0 4000.0 4000.0 4000.0 4000.0 4000.0 4000.0 4000.0 4000.0 4000.0 4000.0 4000.0 4000.0 4000.0 4000.0 4000.0 4000.0 4000.0 4000.0 4000.0 4000.0 4000.0 4000.0 4000.0 4000.0 4000.0 4000.0 4000.0 4000.0 4000.0 4000.0 4000.0 4000.0 4000.0 4000.0 4000.0 4000.0 4000.0 4000.0 4000.0 4000.0 4000.0 4000.0 4000.0 4000.0 4000.0 4000.0 4000.0 4000.0 4000.0 4000.0 4000.0 4000.0 4000.0 4000.0 4000.0 4000.0 4000.0 4000.0 4000.0 4000.0 4000.0 4000.0 4000.0 4000.0 4000.0 4000.0 4000.0 4000.0 4000.0 4000.0 4000.0 4000.0 4000.0 4000.0 4000.0 4000.0 4000.0 4000.0 4000.0 4000.0 4000.0 4000.0 4000.0 4000.0 4000.0 4000.0 4000.0 4000.0 4000.0 4000.0 4000.0 4000.0 4000.0 4000.0 4000.0 4000.0 4000.0 4000.0 4000.0 4000.0 4000.0 4000.0 4000.0 4000.0 4000.0 4000.0 4000.0 4000.0 4000.0 4000.0 4000.0 4000.0 4000.0 4000.0 4000.0 4000.0 4000.0 4000.0 4000.0 4000.0 4000.0 4000.0 4000.0 4000.0 4000.0 4000.0 4000.0 4000.0 4000.0 4000.0 4000.0 4000.0 4000.0 4000.0 4000.0 4000.0 4000.0 4000.0 4000.0 4000.0 4000.0 4000.0 4000.0 4000.0 4000.0 4000.0 4000.0 4000.0 4000.0 4000.0 4000.0 4000.0 4000.0 4000.0 4000.0 4000.0 4000.0 4000.0 4000.0 4000.0 4000.0 4000.0 4000.0 4000.0 4000.0 4000.0 4000.0 4000.0 4000.0 4000.0 4000.0 4000.0 4000.0 4000.0 4000.0 4000.0 4000.0 4000.0 4000.0 4000.0 4000.0 4000.0 4000.0 4000.0 4000.0 4000.0 4000.0 4000.0 4000.0 4000.0 4000.0 4000.0 4000.0 4000.0 4000.0 4000.0 4000.0 4000.0 4000.0 4000.0 4000.0 4000.0 4000.0 4000.0 4000.0 4000.0 4000.0 4000.0 4000.0 4000.0 4000.0 4000.0 4000.0 4000.0 4000.0 4000.0 4000.0 4000.0 4000.0 4000.0 4000.0 4000.0 4000.0 4000.0 4000.0 4000.0 4000.0 4000.0 4000.0 4000.0 4000.0 4000.0 4000.0 4000.0 4000.0 4000.0 4000.0 4000.0 4000.0 4000.0 4000.0 4000.0 4000.0 4000.0 4000.0 4000.0 4000.0 4000.0 4000.0 4000.0 4000.0 4000.0 4000.0 4000.0 4000.0 4000.0 4000.0 4000.0 4000.0 4000.0 4000.0 4000.0 4000.0 4000.0 4000.0 4000.0 4000.0 4000.0 4000.0 4000.0 4000.0 4000.0 4000.0 4000.0 4000.0 4000.0 4000.0 4000.0 4000.0 4000.0 4000.0 4000.0 4000.0 4000.0 4000.0 4000.0 4000.0 4000.0 4000.0 4000.0 4000.0 4000.0 4000.0 4000.0 4000.0 4000.0 4000.0 4000.0 4000.0 4000.0 4000.0 4000.0 4000.0 4000.0 4000.0 4000.0 4000.0 4000.0 4000.0 4000.0 4000.0 4000.0 4000.0 4000.0 4000.0 4000.0 4000.0 4000.0 4000.0 4000.0 4000.0 4000.0 4000.0 4000.0 4000.0 4000.0 4000.0 4000.0 4000.0 4000.0 4000.0 4000.0 4000.0 4000.0 4000.0 4000.0 4000.0 4000.0 4000.0 4000.0 4000.0 4000.0 4000.0 4000.0 4000.0 4000.0 4000.0 4000.0 4000.0 4000.0 4000.0 4000.0 4000.0 4000.0 4000.0 4000.0 4000.0 4000.0 4000.0 4000.0 4000.0 4000.0 4000.0 4000.0 4000.0 4000.0 4000.0 4000.0 4000.0 4000.0 4000.0 4000.0 4000.0 4000.0 4000.0 4000.0 4000.0 4000.0 4000.0 4000.0 4000.0 4000.0 4000.0 4000.0 4000.0 4000.0 4000.0 4000.0 4000.0 4000.0 4000.0 4000.0 4000.0 4000.0 4000.0 4000.0 4000.0 4000.0 4000.0 4000.0 4000.0 4000.0 4000.0 4000.0 4000.0 4000.0 4000.0 4000.0 4000.0 4000.0 4000.0 4000.0 4000.0 4000.0 4000.0 4000.0 4000.0 4000.0 4000.0 4000.0 4000.0 4000.0 4000.0 4000.0 4000.0 4000.0 4000.0 4000.0 4000.0 4000.0 4000.0 4000.0 4000.0 4000.0 4000.0 4000.0 4000.0 4000.0 4000.0 4000.0 4000.0 4000.0 4000.0 4000.0 4000.0 4000.0 4000.0 4000.0 4000.0 4000.0 4000.0 4000.0 4000.0 4000.0 4000.0 4000.0 4000.0 4000.0 4000.0 4000.0 4000.0 4000.0 4000.0 4000.0 4000.0 4000.0 4000.0 4000.0 4000.0 4000.0 4000.0 4000.0 4000.0 4000.0 4000.0 4000.0 4000.0 4000.0 4000.0 4000.0 4000.0 4000.0 4000.0 4000.0 4000.0 4000.0 4000.0 4000.0 4000.0 4000.0 4000.0 4000.0 4000.0 4000.0 4000.0 4000.0 4000.0 4000.0 4000.0 4000.0 4000.0 4000.0 4000.0 4000.0 4000.0 4000.0 4000.0 4000.0 4000.0 4000.0 4000.0 4000.0 4000.0 4000.0 4000.0 4000.0 4000.0 4000.0 4000.0 4000.0 4000.0 4000.0 4000.0 4000.0 4000.0 4000.0 4000.0 4000.0 4000.0 4000.0 4000.0 4000.0 4000.0 4000.0 4000.0 4000.0 4000.0 4000.0 4000.0 4000.0 4000.0 4000.0 4000.0 4000.0 4000.0 4000.0 4000.0 4000.0 4000.0 4000.0 4000.0 4000.0 4000.0 4000.0 4000.0 4000.0 4000.0 4000.0 4000.0 4000.0 4000.0 4000.0 4000.0 4000.0 4000.0 4000.0 4000.0 4000.0 4000.0 4000.0 4000.0 4000.0 4000.0 4000.0 4000.0 4000.0 4000.0 4000.0 4000.0 4000.0 4000.0 4000.0 4000.0 4000.0 4000.0 4000.0 4000.0 4000.0 4000.0 4000.0 4000.0 4000.0 4000.0 4000.0 4000.0 4000.0 4000.0 4000.0 4000.0 4000.0 4000.0 4000.0 4000.0 4000.0 4000.0 4000.0 4000.0 4000.0 4000.0 4000.0 4000.0 4000.0 4000.0 4000.0 4000.0 4000.0 4000.0 4000.0 4000.0 4000.0 4000.0 4000.0 4000.0 4000.0 4000.0 4000.0 4000.0 4000.0 4000.0 4000.0 4000.0 4000.0 4000.0 4000.0 4000.0 4000.0 4000.0 4000.0 4000.0 4000.0 4000.0 4000.0 4000.0 4000.0 4000.0 4000.0 4000.0 4000.0 4000.0 4000.0 4000.0 4000.0 4000.0 4000.0 4000.0 4000.0 4000.0 4000.0 4000.0 4000.0 4000.0 4000.0 4000.0 4000.0 4000.0 4000.0 4000.0 4000.0 4000.0 4000.0 4000.0 4000.0 4000.0 4000.0 4000.0 4000.0 4000.0 4000.0 4000.0 4000.0 4000.0 4000.0 4000.0 4000.0 4000.0 4000.0 4000.0 4000.0 4000.0 4000.0 4000.0 4000.0 4000.0 4000.0 4000.0 4000.0 4000.0 4000.0 4000.0 4000.0 4000.0 4000.0 4000.0 4000.0 4000.0 4000.0 4000.0 4000.0 4000.0 4000.0 4000.0 4000.0 4000.0 4000.0 4000.0 4000.0 4000.0 4000.0 4000.0 4000.0 4000.0 4000.0 4000.0 4000.0 4000.0 4000.0 4000.0 4000.0 4000.0 4000.0 4000.0 4000.0 4000.0 4000.0 4000.0 4000.0 4000.0 4000.0 4000.0 4000.0 4000.0 4000.0 4000.0 4000.0 4000.0 4000.0 4000.0 4000.0 4000.0 4000.0 4000.0 4000.0 4000.0 4000.0 4000.0 4000.0 4000.0 4000.0 4000.0 4000.0 4000.0 4000.0 4000.0 4000.0 4000.0 4000.0 4000.0 4000.0 4000.0 4000.0 4000.0 4000.0 4000.0 4000.0 4000.0 4000.0 4000.0 4000.0 4000.0 4000.0 4000.0 4000.0 4000.0 4000.0 4000.0 4000.0 4000.0 4000.0 4000.0 4000.0 4000.0 4000.0 4000.0 4000.0 4000.0 4000.0 4000.0 4000.0 4000.0 4000.0 4000.0 4000.0 4000.0 4000.0 4000.0 4000.0 4000.0 4000.0 4000.0 4000.0 4000.0 4000.0 4000.0 4000.0 4000.0 4000.0 4000.0 4000.0 4000.0 4000.0 4000.0 4000.0 4000.0 4000.0 4000.0 4000.0 4000.0 4000.0 4000.0 4000.0 4000.0 4000.0 4000.0 4000.0 4000.0 4000.0 4000.0 4000.0 4000.0 4000.0 4000.0 4000.0 4000.0 4000.0 4000.0 4000.0 4000.0 4000.0 4000.0 4000.0 4000.0 4000.0 4000.0 4000.0 4000.0 4000.0 4000.0 4000.0 4000.0 4000.0 4000.0 4000.0 4000.0 4000.0 4000.0 4000.0 4000.0 4000.0 4000.0 4000.0 4000.0 4000.0 4000.0 4000.0 4000.0 4000.0 4000.0 4000.0 4000.0 4000.0 4000.0 4000.0 4000.0 4000.0 4000.0 4000.0 4000.0 4000.0 4000.0 4000.0 4000.0 4000.0 4000.0 4000.0 4000.0 4000.0 4000.0 4000.0 4000.0 4000.0 4000.0 4000.0 4000.0 4000.0 4000.0 4000.0 4000.0 4000.0 4000.0 4000.0 4000.0 4000.0 4000.0 4000.0 4000.0 4000.0 4000.0 4000.0 4000.0 4000.0 4000.0 4000.0 4000.0 4000.0 4000.0 4000.0 4000.0 4000.0 4000.0 4000.0 4000.0 4000.0 4000.0 4000.0 4000.0 4000.0 4000.0 4000.0 4000.0 4000.0 4000.0 4000.0 4000.0 4000.0 4000.0 4000.0 4000.0 4000.0 4000.0 4000.0 4000.0 4000.0 4000.0 4000.0 4000.0 4000.0 4000.0 4000.0 4000.0 4000.0 4000.0 4000.0 4000.0 4000.0 4000.0 4000.0 4000.0 4000.0 4000.0 4000.0 4000.0 4000.0 4000.0 4000.0 4000.0 4000.0 4000.0 4000.0 4000.0 4000.0 4000.0 4000.0 4000.0 4000.0 4000.0 4000.0 4000.0 4000.0 4000.0 4000.0 4000.0 4000.0 4000.0 4000.0 4000.0 4000.0 4000.0 4000.0 4000.0 4000.0 4000.0 4000.0 4000.0 4000.0 4000.0 4000.0 4000.0 4000.0 4000.0 4000.0 4000.0 4000.0 4000.0 4000.0 4000.0 4000.0 4000.0 4000.0 4000.0 4000.0 4000.0 4000.0 4000.0 4000.0 4000.0 4000.0 4000.0 4000.0 4000.0 4000.0 4000.0 4000.0 4000.0 4000.0 4000.0 4000.0 4000.0 4000.0 4000.0 4000.0 4000.0 4000.0 4000.0 4000.0 4000.0 4000.0 4000.0 4000.0 4000.0 4000.0 4000.0 4000.0 4000.0 4000.0 4000.0 4000.0 4000.0 4000.0 4000.0 4000.0 4000.0 4000.0 4000.0 4000.0 4000.0 4000.0 4000.0 4000.0 4000.0 4000.0 4000.0 4000.0 4000.0 4000.0 4000.0 4000.0 4000.0 4000.0 4000.0 4000.0 4000.0 4000.0 4000.0 4000.0 4000.0 4000.0 4000.0 4000.0 4000.0 4000.0 4000.0 4000.0 4000.0 4000.0 4000.0 4000.0 4000.0 4000.0 4000.0 4000.0 4000.0 4000.0 4000.0 4000.0 4000.0 4000.0 4000.0 4000.0 4000.0 4000.0 4000.0 4000.0 4000.0 4000.0 4000.0 4000.0 4000.0 4000.0 4000.0 4000.0 4000.0 4000.0 4000.0 4000.0 4000.0 4000.0 4000.0 4000.0 4000.0 4000.0 4000.0 4000.0 4000.0 4000.0 4000.0 4000.0 4000.0 4000.0 4000.0 4000.0 4000.0 4000.0 4000.0 4000.0 4000.0 4000.0 4000.0 4000.0 4000.0 4000.0 4000.0 4000.0 4000.0 4000.0 4000.0 4000.0 4000.0 4000.0 4000.0 4000.0 4000.0 4000.0 4000.0 4000.0 4000.0 4000.0 4000.0 4000.0 4000.0 4000.0 4000.0 4000.0 4000.0 4000.0 4000.0 4000.0 4000.0 4000.0 4000.0 4000.0 4000.0 4000.0 4000.0 4000.0 4000.0 4000.0 4000.0 4000.0 4000.0 4000.0 4000.0 4000.0 4000.0 4000.0 4000.0 4000.0 4000.0 4000.0 4000.0 4000.0 4000.0 4000.0 4000.0 4000.0 4000.0 4000.0 4000.0 4000.0 4000.0 4000.0 4000.0 4000.0 4000.0 4000.0 4000.0 4000.0 4000.0 4000.0 4000.0 4000.0 4000.0 4000.0 4000.0 4000.0 4000.0 4000.0 4000.0 4000.0 4000.0 4000.0 4000.0 4000.0 4000.0 4000.0 4000.0 4000.0 4000.0 4000.0 4000.0 4000.0 4000.0 4000.0 4000.0 4000.0 4000.0 4000.0 4000.0 4000.0 4000.0 4000.0 4000.0 4000.0 4000.0 4000.0 4000.0 4000.0 4000.0 4000.0 4000.0 4000.0 4000.0 4000.0 4000.0 4000.0 4000.0 4000.0 4000.0 4000.0 4000.0 4000.0 4000.0 4000.0 4000.0 4000.0 4000.0 4000.0 4000.0 4000.0 4000.0 4000.0 4000.0 4000.0 4000.0 4000.0 4000.0 4000.0 4000.0 4000.0 4000.0 4000.0 4000.0 4000.0 4000.0 4000.0 4000.0 4000.0 4000.0 4000.0 4000.0 4000.0 4000.0 4000.0 4000.0 4000.0 4000.0 4000.0 4000.0 4000.0 4000.0 4000.0 4000.0 4000.0 4000.0 4000.0 4000.0 4000.0 4000.0 4000.0 4000.0 4000.0 4000.0 4000.0 4000.0 4000.0 4000.0 4000.0 4000.0 4000.0 4000.0 4000.0 4000.0 4000.0 4000.0 4000.0 4000.0 4000.0 4000.0 4000.0 4000.0 4000.0 4000.0 4000.0 4000.0 4000.0 4000.0 4000.0 4000.0 4000.0 4000.0 4000.0 4000.0 4000.0 4000.0 4000.0 4000.0 4000.0 4000.0 4000.0 4000.0 4000.0 4000.0 4000.0 4000.0 4000.0 4000.0 4000.0 4000.0 4000.0 4000.0 4000.0 4000.0 4000.0 4000.0 4000.0 4000.0 4000.0 4000.0 4000.0 4000.0 4000.0 4000.0 4000.0 4000.0 4000.0 4000.0 4000.0 4000.0 4000.0 4000.0 4000.0 4000.0 4000.0 4000.0 4000.0 4000.0 4000.0 4000.0 4000.0 4000.0 4000.0 4000.0 4000.0 4000.0 4000.0 4000.0 4000.0 4000.0 4000.0 4000.0 4000.0 4000.0 4000.0 4000.0 4000.0 4000.0 4000.0 4000.0 4000.0 4000.0 4000.0 4000.0 4000.0 4000.0 4000.0 4000.0 4000.0 4000.0 4000.0 4000.0 4000.0 4000.0 4000.0 4000.0 4000.0 4000.0 4000.0 4000.0 4000.0 4000.0 4000.0 4000.0 4000.0 4000.0 4000.0 4000.0 4000.0 4000.0 4000.0 4000.0 4000.0 4000.0 4000.0 4000.0 4000.0 4000.0 4000.0 4000.0 4000.0 4000.0 4000.0 4000.0 4000.0 4000.0 4000.0 4000.0 4000.0 4000.0 4000.0 4000.0 4000.0 4000.0 4000.0 4000.0 4000.0 4000.0 4000.0 4000.0 4000.0 4000.0 4000.0 4000.0 4000.0 4000.0 4000.0 4000.0 4000.0 4000.0 4000.0 4000.0 4000.0 4000.0 4000.0 4000.0 4000.0 4000.0 4000.0 4000.0 4000.0 4000.0 4000.0 4000.0 4000.0 4000.0 4000.0 4000.0 4000.0 4000.0 4000.0 4000.0 4000.0 4000.0 4000.0 4000.0 4000.0 4000.0 4000.0 4000.0 4000.0 4000.0 4000.0 4000.0 4000.0 4000.0 4000.0 4000.0 4000.0 4000.0 4000.0 4000.0 4000.0 4000.0 4000.0 4000.0 4000.0 4000.0 4000.0 4000.0 4000.0 4000.0 4000.0 4000.0 4000.0 4000.0 4000.0 4000.0 4000.0 4000.0 4000.0 4000.0 4000.0 4000.0 4000.0 4000.0 4000.0 4000.0 4000.0 4000.0 4000.0 4000.0 4000.0 4000.0 4000.0 4000.0 4000.0 4000.0 4000.0 4000.0 4000.0 4000.0 4000.0 4000.0 4000.0 4000.0 4000.0 4000.0 4000.0 4000.0 4000.0 4000.0 4000.0 4000.0 4000.0 4000.0 4000.0 4000.0 4000.0 4000.0 4000.0 4000.0 4000.0 4000.0 4000.0 4000.0 4000.0 4000.0 4000.0 4000.0 4000.0 4000.0 4000.0 4000.0 4000.0 4000.0 4000.0 4000.0 4000.0 4000.0 4000.0 4000.0 4000.0 4000.0 4000.0 4000.0 4000.0 4000.0 4000.0 4000.0 4000.0 4000.0 4000.0 4000.0 4000.0 4000.0 4000.0 4000.0 4000.0 4000.0 4000.0 4000.0 4000.0 4000.0 4000.0 4000.0 4000.0 4000.0 4000.0 4000.0 4000.0 4000.0 4000.0 4000.0 4000.0 4000.0 4000.0 4000.0 4000.0 4000.0 4000.0 4000.0 4000.0 4000.0 4000.0 4000.0 4000.0 4000.0 4000.0 4000.0 4000.0 4000.0 4000.0 4000.0 4000.0 4000.0 4000.0 4000.0 4000.0 4000.0 4000.0 4000.0 4000.0 4000.0 4000.0 4000.0 4000.0 4000.0 4000.0 4000.0 4000.0 4000.0 4000.0 4000.0 4000.0 4000.0 4000.0 4000.0 4000.0 4000.0 4000.0 4000.0 4000.0 4000.0 4000.0 4000.0 4000.0 4000.0 4000.0 4000.0 4000.0 4000.0 4000.0 4000.0 4000.0 4000.0 4000.0 4000.0 4000.0 4000.0 4000.0 4000.0 4000.0 4000.0 4000.0 4000.0 4000.0 4000.0 4000.0 4000.0 4000.0 4000.0 4000.0 4000.0 4000.0 4000.0 4000.0 4000.0 4000.0 4000.0 4000.0 4000.0 4000.0 4000.0 4000.0 4000.0 4000.0 4000.0 4000.0 4000.0 4000.0 4000.0 4000.0 4000.0 4000.0 4000.0 4000.0 4000.0 4000.0 4000.0 4000.0 4000.0 4000.0 4000.0 4000.0 4000.0 4000.0 4000.0 4000.0 4000.0 4000.0 4000.0 4000.0 4000.0 4000.0 4000.0 4000.0 4000.0 4000.0 4000.0 4000.0 4000.0 4000.0 4000.0 4000.0 4000.0 4000.0 4000.0 4000.0 4000.0 4000.0 4000.0 4000.0 4000.0 4000.0 4000.0 4000.0 4000.0 4000.0 4000.0 4000.0 4000.0 4000.0 4000.0 4000.0 4000.0 4000.0 4000.0 4000.0 4000.0 4000.0 4000.0 4000.0 4000.0 4000.0 4000.0 4000.0 4000.0 4000.0 4000.0 4000.0 4000.0 4000.0 4000.0 4000.0 4000.0 4000.0 4000.0 4000.0 4000.0 4000.0 4000.0 4000.0 4000.0 4000.0 4000.0 4000.0 4000.0 4000.0 4000.0 4000.0 4000.0 4000.0 4000.0 4000.0 4000.0 4000.0 4000.0 4000.0 4000.0 4000.0 4000.0 4000.0 4000.0 4000.0 4000.0 4000.0 4000.0 4000.0 4000.0 4000.0 4000.0 4000.0 4000.0 4000.0 4000.0 4000.0 4000.0 4000.0 4000.0 4000.0 4000.0 4000.0 4000.0 4000.0 4000.0 4000.0 4000.0 4000.0 4000.0 4000.0 4000.0 4000.0 4000.0 4000.0 4000.0 4000.0 4000.0 4000.0 4000.0 4000.0 4000.0 4000.0 4000.0 4000.0 4000.0 4000.0 4000.0 4000.0 4000.0 4000.0 4000.0 4000.0 4000.0 4000.0 4000.0 4000.0 4000.0 4000.0 4000.0 4000.0 4000.0 4000.0 4000.0 4000.0 4000.0 4000.0 4000.0 4000.0 4000.0 4000.0 4000.0 4000.0 4000.0 4000.0 4000.0 4000.0 4000.0 4000.0 4000.0 4000.0 4000.0 4000.0 4000.0 4000.0 4000.0 4000.0 4000.0 4000.0 4000.0 4000.0 4000.0 4000.0 4000.0 4000.0 4000.0 4000.0 4000.0 4000.0 4000.0 4000.0 4000.0 4000.0 4000.0 4000.0 4000.0 4000.0 4000.0 4000.0 4000.0 4000.0 4000.0 4000.0 4000.0 4000.0 4000.0 4000.0 4000.0 4000.0 4000.0 4000.0 4000.0 4000.0 4000.0 4000.0 4000.0 4000.0 4000.0 4000.0 4000.0 4000.0 4000.0 4000.0 4000.0 4000.0 4000.0 4000.0 4000.0 4000.0 4000.0 4000.0 4000.0 4000.0 4000.0 4000.0 4000.0 4000.0 4000.0 4000.0 4000.0 4000.0 4000.0 4000.0 4000.0 4000.0 4000.0 4000.0 4000.0 4000.0 4000.0 4000.0 4000.0 4000.0 4000.0 4000.0 4000.0 4000.0 4000.0 4000.0 4000.0 4000.0 4000.0 4000.0 4000.0 4000.0 4000.0 4000.0 4000.0 4000.0 4000.0 4000.0 4000.0 4000.0 4000.0 4000.0 4000.0 4000.0 4000.0 4000.0 4000.0 4000.0 4000.0 4000.0 4000.0 4000.0 4000.0 4000.0 4000.0 4000.0 4000.0 4000.0 4000.0 4000.0 4000.0 4000.0 4000.0 4000.0 4000.0 4000.0 4000.0 4000.0 4000.0 4000.0 4000.0 4000.0 4000.0 4000.0 4000.0 4000.0 4000.0 4000.0 4000.0 4000.0 4000.0 4000.0 4000.0 4000.0 4000.0 4000.0 4000.0 4000.0 4000.0 4000.0 4000.0 4000.0 4000.0 4000.0 4000.0 4000.0 4000.0 4000.0 4000.0 4000.0 4000.0 4000.0 4000.0 4000.0 4000.0 4000.0 4000.0 4000.0 4000.0 4000.0 4000.0 4000.0 4000.0 4000.0 4000.0 4000.0 4000.0 4000.0 4000.0 4000.0 4000.0 4000.0 4000.0 4000.0 4000.0 4000.0 4000.0 4000.0 4000.0 4000.0 4000.0 4000.0 4000.0 4000.0 4000.0 4000.0 4000.0 4000.0 4000.0 4000.0 4000.0 4000.0 4000.0 4000.0 4000.0 4000.0 4000.0 4000.0 4000.0 4000.0 4000.0 4000.0 4000.0 4000.0 4000.0 4000.0 4000.0 4000.0 4000.0 4000.0 4000.0 4000.0 4000.0 4000.0 4000.0 4000.0 4000.0 4000.0 4000.0 4000.0 4000.0 4000.0 4000.0 4000.0 4000.0 4000.0 4000.0 4000.0 4000.0 4000.0 4000.0 4000.0 4000.0 4000.0 4000.0 4000.0 4000.0 4000.0 4000.0 4000.0 4000.0 4000.0 4000.0 4000.0 4000.0 4000.0 4000.0 4000.0 4000.0 4000.0 4000.0 4000.0 4000.0 4000.0 4000.0 4000.0 4000.0 4000.0 4000.0 4000.0 4000.0 4000.0 4000.0 4000.0 4000.0 4000.0 4000.0 4000.0 4000.0 4000.0 4000.0 4000.0 4000.0 4000.0 4000.0 4000.0 4000.0 4000.0 4000.0 4000.0 4000.0 4000.0 4000.0 4000.0 4000.0 4000.0 4000.0 4000.0 4000.0 4000.0 4000.0 4000.0 4000.0 4000.0 4000.0 4000.0 4000.0 4000.0 4000.0 4000.0 4000.0 4000.0 4000.0 4000.0 4000.0 4000.0 4000.0 4000.0 4000.0 4000.0 4000.0 4000.0 4000.0 4000.0 4000.0 4000.0 4000.0 4000.0 4000.0 4000.0 4000.0 4000.0 4000.0 4000.0 4000.0 4000.0 4000.0 4000.0 4000.0 4000.0 4000.0 4000.0 4000.0 4000.0 4000.0 4000.0 4000.0 4000.0 4000.0 4000.0 4000.0 4000.0 4000.0 4000.0 4000.0 4000.0 4000.0 4000.0 4000.0 4000.0 4000.0 4000.0 4000.0 4000.0 4000.0 4000.0 4000.0 4000.0 4000.0 4000.0 4000.0 4000.0 4000.0 4000.0 4000.0 4000.0 4000.0 4000.0 4000.0 4000.0 4000.0 4000.0 4000.0 4000.0 4000.0 4000.0 4000.0 4000.0 4000.0 4000.0 4000.0 4000.0 4000.0 4000.0 4000.0 4000.0 4000.0 4000.0 4000.0 4000.0 4000.0 4000.0 4000.0 4000.0 4000.0 4000.0 4000.0 4000.0 4000.0 4000.0 4000.0 4000.0 4000.0 4000.0 4000.0 4000.0 4000.0 4000.0 4000.0 4000.0 4000.0 4000.0 4000.0 4000.0 4000.0 4000.0 4000.0 4000.0 4000.0 4000.0 4000.0 4000.0 4000.0 4000.0 4000.0 4000.0 4000.0 4000.0 4000.0 4000.0 4000.0 4000.0 4000.0 4000.0 4000.0 4000.0 4000.0 4000.0 4000.0 4000.0 4000.0 4000.0 4000.0 4000.0 4000.0 4000.0 4000.0 4000.0 4000.0 4000.0 4000.0 4000.0 4000.0 4000.0 4000.0 4000.0 4000.0 4000.0 4000.0 4000.0 4000.0 4000.0 4000.0 4000.0 4000.0 4000.0 4000.0 4000.0 4000.0 4000.0 4000.0 4000.0 4000.0 4000.0 4000.0 4000.0 4000.0 4000.0 4000.0 4000.0 4000.0 4000.0 4000.0 4000.0 4000.0 4000.0 4000.0 4000.0 4000.0 4000.0 4000.0 4000.0 4000.0 4000.0 4000.0 4000.0 4000.0 4000.0 4000.0 4000.0 4000.0 4000.0 4000.0 4000.0 4000.0 4000.0 4000.0 4000.0 4000.0 4000.0 4000.0 4000.0 4000.0 4000.0 4000.0 4000.0 4000.0 4000.0 4000.0 4000.0 4000.0 4000.0 4000.0 4000.0 4000.0 4000.0 4000.0 4000.0 4000.0 4000.0 4000.0 4000.0 4000.0 4000.0 4000.0 4000.0 4000.0 4000.0 4000.0 4000.0 4000.0 4000.0 4000.0 4000.0 4000.0 4000.0 4000.0 4000.0 4000.0 4000.0 4000.0 4000.0 4000.0 4000.0 4000.0 4000.0 4000.0 4000.0 4000.0 4000.0 4000.0 4000.0 4000.0 4000.0 4000.0 4000.0 4000.0 4000.0 4000.0 4000.0 4000.0 4000.0 4000.0 4000.0 4000.0 4000.0 4000.0 4000.0 4000.0 4000.0 4000.0 4000.0 4000.0 4000.0 4000.0 4000.0 4000.0 4000.0 4000.0 4000.0 4000.0 4000.0 4000.0 4000.0 4000.0 4000.0 4000.0 4000.0 4000.0 4000.0 4000.0 4000.0 4000.0 4000.0 4000.0 4000.0 4000.0 4000.0 4000.0 4000.0 4000.0 4000.0 4000.0 4000.0 4000.0 4000.0 4000.0 4000.0 4000.0 4000.0 4000.0 4000.0 4000.0 4000.0 4000.0 4000.0 4000.0 4000.0 4000.0 4000.0 4000.0 4000.0 4000.0 4000.0 4000.0 4000.0 4000.0 4000.0 4000.0 4000.0 4000.0 4000.0 4000.0 4000.0 4000.0 4000.0 4000.0 4000.0 4000.0 4000.0 4000.0 4000.0 4000.0 4000.0 4000.0 4000.0 4000.0 4000.0 4000.0 4000.0 4000.0 4000.0 4000.0 4000.0 4000.0 4000.0 4000.0 4000.0 4000.0 4000.0 4000.0 4000.0 4000.0 4000.0 4000.0 4000.0 4000.0 4000.0 4000.0 4000.0 4000.0 4000.0 4000.0 4000.0 4000.0 4000.0 4000.0 4000.0 4000.0 4000.0 4000.0 4000.0 4000.0 4000.0 4000.0 4000.0 4000.0 4000.0 4000.0 4000.0 4000.0 4000.0 4000.0 4000.0 4000.0 4000.0 4000.0 4000.0 4000.0 4000.0 4000.0 4000.0 4000.0 4000.0 4000.0 4000.0 4000.0 4000.0 4000.0 4000.0 4000.0 4000.0 4000.0 4000.0 4000.0 4000.0 4000.0 4000.0 4000.0 4000.0 4000.0 4000.0 4000.0 4000.0 4000.0 4000.0 4000.0 4000.0 4000.0 4000.0 4000.0 4000.0 4000.0 4000.0 4000.0 4000.0 4000.0 4000.0 4000.0 4000.0 4000.0 4000.0 4000.0 4000.0 4000.0 4000.0 4000.0 4000.0 4000.0 4000.0 4000.0 4000.0 4000.0 4000.0 4000.0 4000.0 4000.0 4000.0 4000.0 4000.0 4000.0 4000.0 4000.0 4000.0 4000.0 4000.0 4000.0 4000.0 4000.0 4000.0 4000.0 4000.0 4000.0 4000.0 4000.0 4000.0 4000.0 4000.0 4000.0 4000.0 4000.0 4000.0 4000.0 4000.0 4000.0 4000.0 4000.0 4000.0 4000.0 4000.0 4000.0 4000.0 4000.0 4000.0 4000.0 4000.0 4000.0 4000.0 4000.0 4000.0 4000.0 4000.0 4000.0 4000.0 4000.0 4000.0 4000.0 4000.0 4000.0 4000.0 4000.0 4000.0 4000.0 4000.0 4000.0 4000.0 4000.0 4000.0 4000.0 4000.0 4000.0 4000.0 4000.0 4000.0 4000.0 4000.0 4000.0 4000.0 4000.0 4000.0 4000.0 4000.0 4000.0 4000.0 4000.0 4000.0 4000.0 4000.0 4000.0 4000.0 4000.0 4000.0 4000.0 4000.0 4000.0 4000.0 4000.0 4000.0 4000.0 4000.0 4000.0 4000.0 4000.0 4000.0 4000.0 4000.0 4000.0 4000.0 4000.0 4000.0 4000.0 4000.0 4000.0 4000.0 4000.0 4000.0 4000.0 4000.0 4000.0 4000.0 4000.0 4000.0 4000.0 4000.0 4000.0 4000.0 4000.0 4000.0 4000.0 4000.0 4000.0 4000.0 4000.0 4000.0 4000.0 4000.0 4000.0 4000.0 4000.0 4000.0 4000.0 4000.0 4000.0 4000.0 4000.0 4000.0 4000.0 4000.0 4000.0 4000.0 4000.0 4000.0 4000.0 4000.0 4000.0 4000.0 4000.0 4000.0 4000.0 4000.0 4000.0 4000.0 4000.0 4000.0 4000.0 4000.0 4000.0 4000.0 4000.0 4000.0 4000.0 4000.0 4000.0 4000.0 4000.0 4000.0 4000.0 4000.0 4000.0 4000.0 4000.0 4000.0 4000.0 4000.0 4000.0 4000.0 4000.0 4000.0 4000.0 4000.0 4000.0 4000.0 4000.0 4000.0 4000.0 4000.0 4000.0 4000.0 4000.0 4000.0 4000.0 4000.0 4000.0 4000.0 4000.0 4000.0 4000.0 4000.0 4000.0 4000.0 4000.0 4000.0 4000.0 4000.0 4000.0 4000.0 4000.0 4000.0 4000.0 4000.0 4000.0 4000.0 4000.0 4000.0 4000.0 4000.0 4000.0 4000.0 4000.0 4000.0 4000.0 4000.0 4000.0 4000.0 4000.0 4000.0 4000.0 4000.0 4000.0 4000.0 4000.0 4000.0 4000.0 4000.0 4000.0 4000.0 4000.0 4000.0 4000.0 4000.0 4000.0 4000.0 4000.0 4000.0 4000.0 4000.0 4000.0 4000.0 4000.0 4000.0 4000.0 4000.0 4000.0 4000.0 4000.0 4000.0 4000.0 4000.0 4000.0 4000.0 4000.0 4000.0 4000.0 4000.0 4000.0 4000.0 4000.0 4000.0 4000.0 4000.0 4000.0 4000.0 4000.0 4000.0 4000.0 4000.0 4000.0 4000.0 4000.0 4000.0 4000.0 4000.0 4000.0 4000.0 4000.0 4000.0 4000.0 4000.0 4000.0 4000.0 4000.0 4000.0 4000.0 4000.0 4000.0 4000.0 4000.0 4000.0 4000.0 4000.0 4000.0 4000.0 4000.0 4000.0 4000.0 4000.0 4000.0 4000.0 4000.0 4000.0 4000.0 4000.0 4000.0 4000.0 4000.0 4000.0 4000.0 4000.0 4000.0 4000.0 4000.0 4000.0 4000.0 4000.0 4000.0 4000.0 4000.0 4000.0 4000.0 4000.0 4000.0 4000.0 4000.0 4000.0 4000.0 4000.0 4000.0 4000.0 4000.0 4000.0 4000.0 4000.0 4000.0 4000.0 4000.0 4000.0 4000.0 4000.0 4000.0 4000.0 4000.0 4000.0 4000.0 4000.0 4000.0 4000.0 4000.0 4000.0 4000.0 4000.0 4000.0 4000.0 4000.0 4000.0 4000.0 4000.0 4000.0 4000.0 4000.0 4000.0 4000.0 4000.0 4000.0 4000.0 4000.0 4000.0 4000.0 4000.0 4000.0 4000.0 4000.0 4000.0 4000.0 4000.0 4000.0 4000.0 4000.0 4000.0 4000.0 4000.0 4000.0 4000.0 4000.0 4000.0 4000.0 4000.0 4000.0 4000.0 4000.0 4000.0 4000.0 4000.0 4000.0 4000.0 4000.0 4000.0 4000.0 4000.0 4000.0 4000.0 4000.0 4000.0 4000.0 4000.0 4000.0 4000.0 4000.0 4000.0 4000.0 4000.0 4000.0 4000.0 4000.0 4000.0 4000.0 4000.0 4000.0 4000.0 4000.0 4000.0 4000.0 4000.0 4000.0 4000.0 4000.0 4000.0 4000.0 4000.0 4000.0 4000.0 4000.0 4000.0 4000.0 4000.0 4000.0 4000.0 4000.0 4000.0 4000.0 4000.0 4000.0 4000.0 4000.0 4000.0 4000.0 4000.0 4000.0 4000.0 4000.0 4000.0 4000.0 4000.0 4000.0 4000.0 4000.0 4000.0 4000.0 4000.0 4000.0 4000.0 4000.0 4000.0 4000.0 4000.0 4000.0 4000.0 4000.0 4000.0 4000.0 4000.0 4000.0 4000.0 4000.0 4000.0 4000.0 4000.0 4000.0 4000.0 4000.0 4000.0 4000.0 4000.0 4000.0 4000.0 4000.0 4000.0 4000.0 4000.0 4000.0 4000.0 4000.0 4000.0 4000.0 4000.0 4000.0 4000.0 4000.0 4000.0 4000.0 4000.0 4000.0 4000.0 4000.0 4000.0 4000.0 4000.0 4000.0 4000.0 4000.0 4000.0 4000.0 4000.0 4000.0 4000.0 4000.0 4000.0 4000.0 4000.0 4000.0 4000.0 4000.0 4000.0 4000.0 4000.0 4000.0 4000.0 4000.0 4000.0 4000.0 4000.0 4000.0 4000.0 4000.0 4000.0 4000.0 4000.0 4000.0 4000.0 4000.0 4000.0 4000.0 4000.0 4000.0 4000.0 4000.0 4000.0 4000.0 4000.0 4000.0 4000.0 4000.0 4000.0 4000.0 4000.0 4000.0 4000.0 4000.0 4000.0 4000.0 4000.0 4000.0 4000.0 4000.0 4000.0 4000.0 4000.0 4000.0 4000.0 4000.0 4000.0 4000.0 4000.0 4000.0 4000.0 4000.0 4000.0 4000.0 4000.0 4000.0 4000.0 4000.0 4000.0 4000.0 4000.0 4000.0 4000.0 4000.0 4000.0 4000.0 4000.0 4000.0 4000.0 4000.0 4000.0 4000.0 4000.0 4000.0 4000.0 4000.0 4000.0 4000.0 4000.0 4000.0 4000.0 4000.0 4000.0 4000.0 4000.0 4000.0 4000.0 4000.0 4000.0 4000.0 4000.0 4000.0 4000.0 4000.0 4000.0 4000.0 4000.0 4000.0 4000.0 4000.0 4000.0 4000.0 4000.0 4000.0 4000.0 4000.0 4000.0 4000.0 4000.0 4000.0 4000.0 4000.0 4000.0 4000.0 4000.0 4000.0 4000.0 4000.0 4000.0 4000.0 4000.0 4000.0 4000.0 4000.0 4000.0 4000.0 4000.0 4000.0 4000.0 4000.0 4000.0 4000.0 4000.0 4000.0 4000.0 4000.0 4000.0 4000.0 4000.0 4000.0 4000.0 4000.0 4000.0 4000.0 4000.0 4000.0 4000.0 4000.0 4000.0 4000.0 4000.0 4000.0 4000.0 4000.0 4000.0 4000.0 4000.0 4000.0 4000.0 4000.0 4000.0 4000.0 4000.0 4000.0 4000.0 4000.0 4000.0 4000.0 4000.0 4000.0 4000.0 4000.0 4000.0 4000.0 4000.0 4000.0 4000.0 4000.0 4000.0 4000.0 4000.0 4000.0 4000.0 4000.0 4000.0 4000.0 4000.0 4000.0 4000.0 4000.0 4000.0 4000.0 4000.0 4000.0 4000.0 4000.0 4000.0 4000.0 4000.0 4000.0 4000.0 4000.0 4000.0 4000.0 4000.0 4000.0 4000.0 4000.0 4000.0 4000.0 4000.0 4000.0 4000.0 4000.0 4000.0 4000.0 4000.0 4000.0 4000.0 4000.0 4000.0 4000.0 4000.0 4000.0 4000.0 4000.0 4000.0 4000.0 4000.0 4000.0 4000.0 4000.0 4000.0 4000.0 4000.0 4000.0 4000.0 4000.0 4000.0 4000.0 4000.0 4000.0 4000.0 4000.0 4000.0 4000.0 4000.0 4000.0 4000.0 4000.0 4000.0 4000.0 4000.0 4000.0 4000.0 4000.0 4000.0 4000.0 4000.0 4000.0 4000.0 4000.0 4000.0 4000.0 4000.0 4000.0 4000.0 4000.0 4000.0 4000.0 4000.0 4000.0 4000.0 4000.0 4000.0 4000.0 4000.0 4000.0 4000.0 4000.0 4000.0 4000.0 4000.0 4000.0 4000.0 4000.0 4000.0 4000.0 4000.0 4000.0 4000.0 4000.0 4000.0 4000.0 4000.0 4000.0 4000.0 4000.0 4000.0 4000.0 4000.0 4000.0 4000.0 4000.0 4000.0 4000.0 4000.0 4000.0 4000.0 4000.0 4000.0 4000.0 4000.0 4000.0 4000.0 4000.0 4000.0 4000.0 4000.0 4000.0 4000.0 4000.0 4000.0 4000.0 4000.0 4000.0 4000.0 4000.0 4000.0 4000.0 4000.0 4000.0 4000.0 4000.0 4000.0 4000.0 4000.0 4000.0 4000.0 4000.0 4000.0 4000.0 4000.0 4000.0 4000.0 4000.0 4000.0 4000.0 4000.0 4000.0 4000.0 4000.0 4000.0 4000.0 4000.0 4000.0 4000.0 4000.0 4000.0 4000.0 4000.0 4000.0 4000.0 4000.0 4000.0 4000.0 4000.0 4000.0 4000.0 4000.0 4000.0 4000.0 4000.0 4000.0 4000.0 4000.0 4000.0 4000.0 4000.0 4000.0 4000.0 4000.0 4000.0 4000.0 4000.0 4000.0 4000.0 4000.0 4000.0 4000.0 4000.0 4000.0 4000.0 4000.0 4000.0 4000.0 4000.0 4000.0 4000.0 4000.0 4000.0 4000.0 4000.0 4000.0 4000.0 4000.0 4000.0 4000.0 4000.0 4000.0 4000.0 4000.0 4000.0 4000.0 4000.0 4000.0 4000.0 4000.0 4000.0 4000.0 4000.0 4000.0 4000.0 4000.0 4000.0 4000.0 4000.0 4000.0 4000.0 4000.0 4000.0 4000.0 4000.0 4000.0 4000.0 4000.0 4000.0 4000.0 4000.0 4000.0 4000.0 4000.0 4000.0 4000.0 4000.0 4000.0 4000.0 4000.0 4000.0 4000.0 4000.0 4000.0 4000.0 4000.0 4000.0 4000.0 4000.0 4000.0 4000.0 4000.0 4000.0 4000.0 4000.0 4000.0 4000.0 4000.0 4000.0 4000.0 4000.0 4000.0 4000.0 4000.0 4000.0 4000.0 4000.0 4000.0 4000.0 4000.0 4000.0 4000.0 4000.0 4000.0 4000.0 4000.0 4000.0 4000.0 4000.0 4000.0 4000.0 4000.0 4000.0 4000.0 4000.0 4000.0 4000.0 4000.0 4000.0 4000.0 4000.0 4000.0 4000.0 4000.0 4000.0 4000.0 4000.0 4000.0 4000.0 4000.0 4000.0 4000.0 4000.0 4000.0 4000.0 4000.0 4000.0 4000.0 4000.0 4000.0 4000.0 4000.0 4000.0 4000.0 4000.0 4000.0 4000.0 4000.0 4000.0 4000.0 4000.0 4000.0 4000.0 4000.0 4000.0 4000.0 4000.0 4000.0 4000.0 4000.0 4000.0 4000.0 4000.0 4000.0 4000.0 4000.0 4000.0 4000.0 4000.0 4000.0 4000.0 4000.0 4000.0 4000.0 4000.0 4000.0 4000.0 4000.0 4000.0 4000.0 4000.0 4000.0 4000.0 4000.0 4000.0 4000.0 4000.0 4000.0 4000.0 4000.0 4000.0 4000.0 4000.0 4000.0 4000.0 4000.0 4000.0 4000.0 4000.0 SCALARS Mass float 1
LOOKUP_TABLE default
11309700000.0 11309700000.0 11309700000.0 11309700000.0 11309700000.0 11309700000.0 11309700000.0 11309700000.0 11309700000.0 11309700000.0 11309700000.0 11309700000.0 11309700000.0 11309700000.0 11309700000.0 11309700000.0 11309700000.0 11309700000.0 11309700000.0 11309700000.0 11309700000.0 11309700000.0 11309700000.0 11309700000.0 11309700000.0 11309700000.0 11309700000.0 11309700000.0 11309700000.0 11309700000.0 11309700000.0 11309700000.0 11309700000.0 11309700000.0 11309700000.0 11309700000.0 11309700000.0 11309700000.0 11309700000.0 11309700000.0 11309700000.0 11309700000.0 11309700000.0 11309700000.0 11309700000.0 11309700000.0 11309700000.0 11309700000.0 11309700000.0 11309700000.0 11309700000.0 11309700000.0 11309700000.0 11309700000.0 11309700000.0 11309700000.0 11309700000.0 11309700000.0 11309700000.0 11309700000.0 11309700000.0 11309700000.0 11309700000.0 11309700000.0 11309700000.0 11309700000.0 11309700000.0 11309700000.0 11309700000.0 11309700000.0 11309700000.0 11309700000.0 11309700000.0 11309700000.0 11309700000.0 11309700000.0 11309700000.0 11309700000.0 11309700000.0 11309700000.0 11309700000.0 11309700000.0 11309700000.0 11309700000.0 11309700000.0 11309700000.0 11309700000.0 11309700000.0 11309700000.0 11309700000.0 11309700000.0 11309700000.0 11309700000.0 11309700000.0 11309700000.0 11309700000.0 11309700000.0 11309700000.0 11309700000.0 11309700000.0 11309700000.0 11309700000.0 11309700000.0 11309700000.0 11309700000.0 11309700000.0 11309700000.0 11309700000.0 11309700000.0 11309700000.0 11309700000.0 11309700000.0 11309700000.0 11309700000.0 11309700000.0 11309700000.0 11309700000.0 11309700000.0 11309700000.0 11309700000.0 11309700000.0 11309700000.0 11309700000.0 11309700000.0 11309700000.0 11309700000.0 11309700000.0 11309700000.0 11309700000.0 11309700000.0 11309700000.0 11309700000.0 11309700000.0 11309700000.0 11309700000.0 11309700000.0 11309700000.0 11309700000.0 11309700000.0 11309700000.0 11309700000.0 11309700000.0 11309700000.0 11309700000.0 11309700000.0 11309700000.0 11309700000.0 11309700000.0 11309700000.0 11309700000.0 11309700000.0 11309700000.0 11309700000.0 11309700000.0 11309700000.0 11309700000.0 11309700000.0 11309700000.0 11309700000.0 11309700000.0 11309700000.0 11309700000.0 11309700000.0 11309700000.0 11309700000.0 11309700000.0 11309700000.0 11309700000.0 11309700000.0 11309700000.0 11309700000.0 11309700000.0 11309700000.0 11309700000.0 11309700000.0 11309700000.0 11309700000.0 11309700000.0 11309700000.0 11309700000.0 11309700000.0 11309700000.0 11309700000.0 11309700000.0 11309700000.0 11309700000.0 11309700000.0 11309700000.0 11309700000.0 11309700000.0 11309700000.0 11309700000.0 11309700000.0 11309700000.0 11309700000.0 11309700000.0 11309700000.0 11309700000.0 11309700000.0 11309700000.0 11309700000.0 11309700000.0 11309700000.0 11309700000.0 11309700000.0 11309700000.0 11309700000.0 11309700000.0 11309700000.0 11309700000.0 11309700000.0 11309700000.0 11309700000.0 11309700000.0 11309700000.0 11309700000.0 11309700000.0 11309700000.0 11309700000.0 11309700000.0 11309700000.0 11309700000.0 11309700000.0 11309700000.0 11309700000.0 11309700000.0 11309700000.0 11309700000.0 11309700000.0 11309700000.0 11309700000.0 11309700000.0 11309700000.0 11309700000.0 11309700000.0 11309700000.0 11309700000.0 11309700000.0 11309700000.0 11309700000.0 11309700000.0 11309700000.0 11309700000.0 11309700000.0 11309700000.0 11309700000.0 11309700000.0 11309700000.0 11309700000.0 11309700000.0 11309700000.0 11309700000.0 11309700000.0 11309700000.0 11309700000.0 11309700000.0 11309700000.0 11309700000.0 11309700000.0 11309700000.0 11309700000.0 11309700000.0 11309700000.0 11309700000.0 11309700000.0 11309700000.0 11309700000.0 11309700000.0 11309700000.0 11309700000.0 11309700000.0 11309700000.0 11309700000.0 11309700000.0 11309700000.0 11309700000.0 11309700000.0 11309700000.0 11309700000.0 11309700000.0 11309700000.0 11309700000.0 11309700000.0 11309700000.0 11309700000.0 11309700000.0 11309700000.0 11309700000.0 11309700000.0 11309700000.0 11309700000.0 11309700000.0 11309700000.0 11309700000.0 11309700000.0 11309700000.0 11309700000.0 11309700000.0 11309700000.0 11309700000.0 11309700000.0 11309700000.0 11309700000.0 11309700000.0 11309700000.0 11309700000.0 11309700000.0 11309700000.0 11309700000.0 11309700000.0 11309700000.0 11309700000.0 11309700000.0 11309700000.0 11309700000.0 11309700000.0 11309700000.0 11309700000.0 11309700000.0 11309700000.0 11309700000.0 11309700000.0 11309700000.0 11309700000.0 11309700000.0 11309700000.0 11309700000.0 11309700000.0 11309700000.0 11309700000.0 11309700000.0 11309700000.0 11309700000.0 11309700000.0 11309700000.0 11309700000.0 11309700000.0 11309700000.0 11309700000.0 11309700000.0 11309700000.0 11309700000.0 11309700000.0 11309700000.0 11309700000.0 11309700000.0 11309700000.0 11309700000.0 11309700000.0 11309700000.0 11309700000.0 11309700000.0 11309700000.0 11309700000.0 11309700000.0 11309700000.0 11309700000.0 11309700000.0 11309700000.0 11309700000.0 11309700000.0 11309700000.0 11309700000.0 11309700000.0 11309700000.0 11309700000.0 11309700000.0 11309700000.0 11309700000.0 11309700000.0 11309700000.0 11309700000.0 11309700000.0 11309700000.0 11309700000.0 11309700000.0 11309700000.0 11309700000.0 11309700000.0 11309700000.0 11309700000.0 11309700000.0 11309700000.0 11309700000.0 11309700000.0 11309700000.0 11309700000.0 11309700000.0 11309700000.0 11309700000.0 11309700000.0 11309700000.0 11309700000.0 11309700000.0 11309700000.0 11309700000.0 11309700000.0 11309700000.0 11309700000.0 11309700000.0 11309700000.0 11309700000.0 11309700000.0 11309700000.0 11309700000.0 11309700000.0 11309700000.0 11309700000.0 11309700000.0 11309700000.0 11309700000.0 11309700000.0 11309700000.0 11309700000.0 11309700000.0 11309700000.0 11309700000.0 11309700000.0 11309700000.0 11309700000.0 11309700000.0 11309700000.0 11309700000.0 11309700000.0 11309700000.0 11309700000.0 11309700000.0 11309700000.0 11309700000.0 11309700000.0 11309700000.0 11309700000.0 11309700000.0 11309700000.0 11309700000.0 11309700000.0 11309700000.0 11309700000.0 11309700000.0 11309700000.0 11309700000.0 11309700000.0 11309700000.0 11309700000.0 11309700000.0 11309700000.0 11309700000.0 11309700000.0 11309700000.0 11309700000.0 11309700000.0 11309700000.0 11309700000.0 11309700000.0 11309700000.0 11309700000.0 11309700000.0 11309700000.0 11309700000.0 11309700000.0 11309700000.0 11309700000.0 11309700000.0 11309700000.0 11309700000.0 11309700000.0 11309700000.0 11309700000.0 11309700000.0 11309700000.0 11309700000.0 11309700000.0 11309700000.0 11309700000.0 11309700000.0 11309700000.0 11309700000.0 11309700000.0 11309700000.0 11309700000.0 11309700000.0 11309700000.0 11309700000.0 11309700000.0 11309700000.0 11309700000.0 11309700000.0 11309700000.0 11309700000.0 11309700000.0 11309700000.0 11309700000.0 11309700000.0 11309700000.0 11309700000.0 11309700000.0 11309700000.0 11309700000.0 11309700000.0 11309700000.0 11309700000.0 11309700000.0 11309700000.0 11309700000.0 11309700000.0 11309700000.0 11309700000.0 11309700000.0 11309700000.0 11309700000.0 11309700000.0 11309700000.0 11309700000.0 11309700000.0 11309700000.0 11309700000.0 11309700000.0 11309700000.0 11309700000.0 11309700000.0 11309700000.0 11309700000.0 11309700000.0 11309700000.0 11309700000.0 11309700000.0 11309700000.0 11309700000.0 11309700000.0 11309700000.0 11309700000.0 11309700000.0 11309700000.0 11309700000.0 11309700000.0 11309700000.0 11309700000.0 11309700000.0 11309700000.0 11309700000.0 11309700000.0 11309700000.0 11309700000.0 11309700000.0 11309700000.0 11309700000.0 11309700000.0 11309700000.0 11309700000.0 11309700000.0 11309700000.0 11309700000.0 11309700000.0 11309700000.0 11309700000.0 11309700000.0 11309700000.0 11309700000.0 11309700000.0 11309700000.0 11309700000.0 11309700000.0 11309700000.0 11309700000.0 11309700000.0 11309700000.0 11309700000.0 11309700000.0 11309700000.0 11309700000.0 11309700000.0 11309700000.0 11309700000.0 11309700000.0 11309700000.0 11309700000.0 11309700000.0 11309700000.0 11309700000.0 11309700000.0 11309700000.0 11309700000.0 11309700000.0 11309700000.0 11309700000.0 11309700000.0 11309700000.0 11309700000.0 11309700000.0 11309700000.0 11309700000.0 11309700000.0 11309700000.0 11309700000.0 11309700000.0 11309700000.0 11309700000.0 11309700000.0 11309700000.0 11309700000.0 11309700000.0 11309700000.0 11309700000.0 11309700000.0 11309700000.0 11309700000.0 11309700000.0 11309700000.0 11309700000.0 11309700000.0 11309700000.0 11309700000.0 11309700000.0 11309700000.0 11309700000.0 11309700000.0 11309700000.0 11309700000.0 11309700000.0 11309700000.0 11309700000.0 11309700000.0 11309700000.0 11309700000.0 11309700000.0 11309700000.0 11309700000.0 11309700000.0 11309700000.0 11309700000.0 11309700000.0 11309700000.0 11309700000.0 11309700000.0 11309700000.0 11309700000.0 11309700000.0 11309700000.0 11309700000.0 11309700000.0 11309700000.0 11309700000.0 11309700000.0 11309700000.0 11309700000.0 11309700000.0 11309700000.0 11309700000.0 11309700000.0 11309700000.0 11309700000.0 11309700000.0 11309700000.0 11309700000.0 11309700000.0 11309700000.0 11309700000.0 11309700000.0 11309700000.0 11309700000.0 11309700000.0 11309700000.0 11309700000.0 11309700000.0 11309700000.0 11309700000.0 11309700000.0 11309700000.0 11309700000.0 11309700000.0 11309700000.0 11309700000.0 11309700000.0 11309700000.0 11309700000.0 11309700000.0 11309700000.0 11309700000.0 11309700000.0 11309700000.0 11309700000.0 11309700000.0 11309700000.0 11309700000.0 11309700000.0 11309700000.0 11309700000.0 11309700000.0 11309700000.0 11309700000.0 11309700000.0 11309700000.0 11309700000.0 11309700000.0 11309700000.0 11309700000.0 11309700000.0 11309700000.0 11309700000.0 11309700000.0 11309700000.0 11309700000.0 11309700000.0 11309700000.0 11309700000.0 11309700000.0 11309700000.0 11309700000.0 11309700000.0 11309700000.0 11309700000.0 11309700000.0 11309700000.0 11309700000.0 11309700000.0 11309700000.0 11309700000.0 11309700000.0 11309700000.0 11309700000.0 11309700000.0 11309700000.0 11309700000.0 11309700000.0 11309700000.0 11309700000.0 11309700000.0 11309700000.0 11309700000.0 11309700000.0 11309700000.0 11309700000.0 11309700000.0 11309700000.0 11309700000.0 11309700000.0 11309700000.0 11309700000.0 11309700000.0 11309700000.0 11309700000.0 11309700000.0 11309700000.0 11309700000.0 11309700000.0 11309700000.0 11309700000.0 11309700000.0 11309700000.0 11309700000.0 11309700000.0 11309700000.0 11309700000.0 11309700000.0 11309700000.0 11309700000.0 11309700000.0 11309700000.0 11309700000.0 11309700000.0 11309700000.0 11309700000.0 11309700000.0 11309700000.0 11309700000.0 11309700000.0 11309700000.0 11309700000.0 11309700000.0 11309700000.0 11309700000.0 11309700000.0 11309700000.0 11309700000.0 11309700000.0 11309700000.0 11309700000.0 11309700000.0 11309700000.0 11309700000.0 11309700000.0 11309700000.0 11309700000.0 11309700000.0 11309700000.0 11309700000.0 11309700000.0 11309700000.0 11309700000.0 11309700000.0 11309700000.0 11309700000.0 11309700000.0 11309700000.0 11309700000.0 11309700000.0 11309700000.0 11309700000.0 11309700000.0 11309700000.0 11309700000.0 11309700000.0 11309700000.0 11309700000.0 11309700000.0 11309700000.0 11309700000.0 11309700000.0 11309700000.0 11309700000.0 11309700000.0 11309700000.0 11309700000.0 11309700000.0 11309700000.0 11309700000.0 11309700000.0 11309700000.0 11309700000.0 11309700000.0 11309700000.0 11309700000.0 11309700000.0 11309700000.0 11309700000.0 11309700000.0 11309700000.0 11309700000.0 11309700000.0 11309700000.0 11309700000.0 11309700000.0 11309700000.0 11309700000.0 11309700000.0 11309700000.0 11309700000.0 11309700000.0 11309700000.0 11309700000.0 11309700000.0 11309700000.0 11309700000.0 11309700000.0 11309700000.0 11309700000.0 11309700000.0 11309700000.0 11309700000.0 11309700000.0 11309700000.0 11309700000.0 11309700000.0 11309700000.0 11309700000.0 11309700000.0 11309700000.0 11309700000.0 11309700000.0 11309700000.0 11309700000.0 11309700000.0 11309700000.0 11309700000.0 11309700000.0 11309700000.0 11309700000.0 11309700000.0 11309700000.0 11309700000.0 11309700000.0 11309700000.0 11309700000.0 11309700000.0 11309700000.0 11309700000.0 11309700000.0 11309700000.0 11309700000.0 11309700000.0 11309700000.0 11309700000.0 11309700000.0 11309700000.0 11309700000.0 11309700000.0 11309700000.0 11309700000.0 11309700000.0 11309700000.0 11309700000.0 11309700000.0 11309700000.0 11309700000.0 11309700000.0 11309700000.0 11309700000.0 11309700000.0 11309700000.0 11309700000.0 11309700000.0 11309700000.0 11309700000.0 11309700000.0 11309700000.0 11309700000.0 11309700000.0 11309700000.0 11309700000.0 11309700000.0 11309700000.0 11309700000.0 11309700000.0 11309700000.0 11309700000.0 11309700000.0 11309700000.0 11309700000.0 11309700000.0 11309700000.0 11309700000.0 11309700000.0 11309700000.0 11309700000.0 11309700000.0 11309700000.0 11309700000.0 11309700000.0 11309700000.0 11309700000.0 11309700000.0 11309700000.0 11309700000.0 11309700000.0 11309700000.0 11309700000.0 11309700000.0 11309700000.0 11309700000.0 11309700000.0 11309700000.0 11309700000.0 11309700000.0 11309700000.0 11309700000.0 11309700000.0 11309700000.0 11309700000.0 11309700000.0 11309700000.0 11309700000.0 11309700000.0 11309700000.0 11309700000.0 11309700000.0 11309700000.0 11309700000.0 11309700000.0 11309700000.0 11309700000.0 11309700000.0 11309700000.0 11309700000.0 11309700000.0 11309700000.0 11309700000.0 11309700000.0 11309700000.0 11309700000.0 11309700000.0 11309700000.0 11309700000.0 11309700000.0 11309700000.0 11309700000.0 11309700000.0 11309700000.0 11309700000.0 11309700000.0 11309700000.0 11309700000.0 11309700000.0 11309700000.0 11309700000.0 11309700000.0 11309700000.0 11309700000.0 11309700000.0 11309700000.0 11309700000.0 11309700000.0 11309700000.0 11309700000.0 11309700000.0 11309700000.0 11309700000.0 11309700000.0 11309700000.0 11309700000.0 11309700000.0 11309700000.0 11309700000.0 11309700000.0 11309700000.0 11309700000.0 11309700000.0 11309700000.0 11309700000.0 11309700000.0 11309700000.0 11309700000.0 11309700000.0 11309700000.0 11309700000.0 11309700000.0 11309700000.0 11309700000.0 11309700000.0 11309700000.0 11309700000.0 11309700000.0 11309700000.0 11309700000.0 11309700000.0 11309700000.0 11309700000.0 11309700000.0 11309700000.0 11309700000.0 11309700000.0 11309700000.0 11309700000.0 11309700000.0 11309700000.0 11309700000.0 11309700000.0 11309700000.0 11309700000.0 11309700000.0 11309700000.0 11309700000.0 11309700000.0 11309700000.0 11309700000.0 11309700000.0 11309700000.0 11309700000.0 11309700000.0 11309700000.0 11309700000.0 11309700000.0 11309700000.0 11309700000.0 11309700000.0 11309700000.0 11309700000.0 11309700000.0 11309700000.0 11309700000.0 11309700000.0 11309700000.0 11309700000.0 11309700000.0 11309700000.0 11309700000.0 11309700000.0 11309700000.0 11309700000.0 11309700000.0 11309700000.0 11309700000.0 11309700000.0 11309700000.0 11309700000.0 11309700000.0 11309700000.0 11309700000.0 11309700000.0 11309700000.0 11309700000.0 11309700000.0 11309700000.0 11309700000.0 11309700000.0 11309700000.0 11309700000.0 11309700000.0 11309700000.0 11309700000.0 11309700000.0 11309700000.0 11309700000.0 11309700000.0 11309700000.0 11309700000.0 11309700000.0 11309700000.0 11309700000.0 11309700000.0 11309700000.0 11309700000.0 11309700000.0 11309700000.0 11309700000.0 11309700000.0 11309700000.0 11309700000.0 11309700000.0 11309700000.0 11309700000.0 11309700000.0 11309700000.0 11309700000.0 11309700000.0 11309700000.0 11309700000.0 11309700000.0 11309700000.0 11309700000.0 11309700000.0 11309700000.0 11309700000.0 11309700000.0 11309700000.0 11309700000.0 11309700000.0 11309700000.0 11309700000.0 11309700000.0 11309700000.0 11309700000.0 11309700000.0 11309700000.0 11309700000.0 11309700000.0 11309700000.0 11309700000.0 11309700000.0 11309700000.0 11309700000.0 11309700000.0 11309700000.0 11309700000.0 11309700000.0 11309700000.0 11309700000.0 11309700000.0 11309700000.0 11309700000.0 11309700000.0 11309700000.0 11309700000.0 11309700000.0 11309700000.0 11309700000.0 11309700000.0 11309700000.0 11309700000.0 11309700000.0 11309700000.0 11309700000.0 11309700000.0 11309700000.0 11309700000.0 11309700000.0 11309700000.0 11309700000.0 11309700000.0 11309700000.0 11309700000.0 11309700000.0 11309700000.0 11309700000.0 11309700000.0 11309700000.0 11309700000.0 11309700000.0 11309700000.0 11309700000.0 11309700000.0 11309700000.0 11309700000.0 11309700000.0 11309700000.0 11309700000.0 11309700000.0 11309700000.0 11309700000.0 11309700000.0 11309700000.0 11309700000.0 11309700000.0 11309700000.0 11309700000.0 11309700000.0 11309700000.0 11309700000.0 11309700000.0 11309700000.0 11309700000.0 11309700000.0 11309700000.0 11309700000.0 11309700000.0 11309700000.0 11309700000.0 11309700000.0 11309700000.0 11309700000.0 11309700000.0 11309700000.0 11309700000.0 11309700000.0 11309700000.0 11309700000.0 11309700000.0 11309700000.0 11309700000.0 11309700000.0 11309700000.0 11309700000.0 11309700000.0 11309700000.0 11309700000.0 11309700000.0 11309700000.0 11309700000.0 11309700000.0 11309700000.0 11309700000.0 11309700000.0 11309700000.0 11309700000.0 11309700000.0 11309700000.0 11309700000.0 11309700000.0 11309700000.0 11309700000.0 11309700000.0 11309700000.0 11309700000.0 11309700000.0 11309700000.0 11309700000.0 11309700000.0 11309700000.0 11309700000.0 11309700000.0 11309700000.0 11309700000.0 11309700000.0 11309700000.0 11309700000.0 11309700000.0 11309700000.0 11309700000.0 11309700000.0 11309700000.0 11309700000.0 11309700000.0 11309700000.0 11309700000.0 11309700000.0 11309700000.0 11309700000.0 11309700000.0 11309700000.0 11309700000.0 11309700000.0 11309700000.0 11309700000.0 11309700000.0 11309700000.0 11309700000.0 11309700000.0 11309700000.0 11309700000.0 11309700000.0 11309700000.0 11309700000.0 11309700000.0 11309700000.0 11309700000.0 11309700000.0 11309700000.0 11309700000.0 11309700000.0 11309700000.0 11309700000.0 11309700000.0 11309700000.0 11309700000.0 11309700000.0 11309700000.0 11309700000.0 11309700000.0 11309700000.0 11309700000.0 11309700000.0 11309700000.0 11309700000.0 11309700000.0 11309700000.0 11309700000.0 11309700000.0 11309700000.0 11309700000.0 11309700000.0 11309700000.0 11309700000.0 11309700000.0 11309700000.0 11309700000.0 11309700000.0 11309700000.0 11309700000.0 11309700000.0 11309700000.0 11309700000.0 11309700000.0 11309700000.0 11309700000.0 11309700000.0 11309700000.0 11309700000.0 11309700000.0 11309700000.0 11309700000.0 11309700000.0 11309700000.0 11309700000.0 11309700000.0 11309700000.0 11309700000.0 11309700000.0 11309700000.0 11309700000.0 11309700000.0 11309700000.0 11309700000.0 11309700000.0 11309700000.0 11309700000.0 11309700000.0 11309700000.0 11309700000.0 11309700000.0 11309700000.0 11309700000.0 11309700000.0 11309700000.0 11309700000.0 11309700000.0 11309700000.0 11309700000.0 11309700000.0 11309700000.0 11309700000.0 11309700000.0 11309700000.0 11309700000.0 11309700000.0 11309700000.0 11309700000.0 11309700000.0 11309700000.0 11309700000.0 11309700000.0 11309700000.0 11309700000.0 11309700000.0 11309700000.0 11309700000.0 11309700000.0 11309700000.0 11309700000.0 11309700000.0 11309700000.0 11309700000.0 11309700000.0 11309700000.0 11309700000.0 11309700000.0 11309700000.0 11309700000.0 11309700000.0 11309700000.0 11309700000.0 11309700000.0 11309700000.0 11309700000.0 11309700000.0 11309700000.0 11309700000.0 11309700000.0 11309700000.0 11309700000.0 11309700000.0 11309700000.0 11309700000.0 11309700000.0 11309700000.0 11309700000.0 11309700000.0 11309700000.0 11309700000.0 11309700000.0 11309700000.0 11309700000.0 11309700000.0 11309700000.0 11309700000.0 11309700000.0 11309700000.0 11309700000.0 11309700000.0 11309700000.0 11309700000.0 11309700000.0 11309700000.0 11309700000.0 11309700000.0 11309700000.0 11309700000.0 11309700000.0 11309700000.0 11309700000.0 11309700000.0 11309700000.0 11309700000.0 11309700000.0 11309700000.0 11309700000.0 11309700000.0 11309700000.0 11309700000.0 11309700000.0 11309700000.0 11309700000.0 11309700000.0 11309700000.0 11309700000.0 11309700000.0 11309700000.0 11309700000.0 11309700000.0 11309700000.0 11309700000.0 11309700000.0 11309700000.0 11309700000.0 11309700000.0 11309700000.0 11309700000.0 11309700000.0 11309700000.0 11309700000.0 11309700000.0 11309700000.0 11309700000.0 11309700000.0 11309700000.0 11309700000.0 11309700000.0 11309700000.0 11309700000.0 11309700000.0 11309700000.0 11309700000.0 11309700000.0 11309700000.0 11309700000.0 11309700000.0 11309700000.0 11309700000.0 11309700000.0 11309700000.0 11309700000.0 11309700000.0 11309700000.0 11309700000.0 11309700000.0 11309700000.0 11309700000.0 11309700000.0 11309700000.0 11309700000.0 11309700000.0 11309700000.0 11309700000.0 11309700000.0 11309700000.0 11309700000.0 11309700000.0 11309700000.0 11309700000.0 11309700000.0 11309700000.0 11309700000.0 11309700000.0 11309700000.0 11309700000.0 11309700000.0 11309700000.0 11309700000.0 11309700000.0 11309700000.0 11309700000.0 11309700000.0 11309700000.0 11309700000.0 11309700000.0 11309700000.0 11309700000.0 11309700000.0 11309700000.0 11309700000.0 11309700000.0 11309700000.0 11309700000.0 11309700000.0 11309700000.0 11309700000.0 11309700000.0 11309700000.0 11309700000.0 11309700000.0 11309700000.0 11309700000.0 11309700000.0 11309700000.0 11309700000.0 11309700000.0 11309700000.0 11309700000.0 11309700000.0 11309700000.0 11309700000.0 11309700000.0 11309700000.0 11309700000.0 11309700000.0 11309700000.0 11309700000.0 11309700000.0 11309700000.0 11309700000.0 11309700000.0 11309700000.0 11309700000.0 11309700000.0 11309700000.0 11309700000.0 11309700000.0 11309700000.0 11309700000.0 11309700000.0 11309700000.0 11309700000.0 11309700000.0 11309700000.0 11309700000.0 11309700000.0 11309700000.0 11309700000.0 11309700000.0 11309700000.0 11309700000.0 11309700000.0 11309700000.0 11309700000.0 11309700000.0 11309700000.0 11309700000.0 11309700000.0 11309700000.0 11309700000.0 11309700000.0 11309700000.0 11309700000.0 11309700000.0 11309700000.0 11309700000.0 11309700000.0 11309700000.0 11309700000.0 11309700000.0 11309700000.0 11309700000.0 11309700000.0 11309700000.0 11309700000.0 11309700000.0 11309700000.0 11309700000.0 11309700000.0 11309700000.0 11309700000.0 11309700000.0 11309700000.0 11309700000.0 11309700000.0 11309700000.0 11309700000.0 11309700000.0 11309700000.0 11309700000.0 11309700000.0 11309700000.0 11309700000.0 11309700000.0 11309700000.0 11309700000.0 11309700000.0 11309700000.0 11309700000.0 11309700000.0 11309700000.0 11309700000.0 11309700000.0 11309700000.0 11309700000.0 11309700000.0 11309700000.0 11309700000.0 11309700000.0 11309700000.0 11309700000.0 11309700000.0 11309700000.0 11309700000.0 11309700000.0 11309700000.0 11309700000.0 11309700000.0 11309700000.0 11309700000.0 11309700000.0 11309700000.0 11309700000.0 11309700000.0 11309700000.0 11309700000.0 11309700000.0 11309700000.0 11309700000.0 11309700000.0 11309700000.0 11309700000.0 11309700000.0 11309700000.0 11309700000.0 11309700000.0 11309700000.0 11309700000.0 11309700000.0 11309700000.0 11309700000.0 11309700000.0 11309700000.0 11309700000.0 11309700000.0 11309700000.0 11309700000.0 11309700000.0 11309700000.0 11309700000.0 11309700000.0 11309700000.0 11309700000.0 11309700000.0 11309700000.0 11309700000.0 11309700000.0 11309700000.0 11309700000.0 11309700000.0 11309700000.0 11309700000.0 11309700000.0 11309700000.0 11309700000.0 11309700000.0 11309700000.0 11309700000.0 11309700000.0 11309700000.0 11309700000.0 11309700000.0 11309700000.0 11309700000.0 11309700000.0 11309700000.0 11309700000.0 11309700000.0 11309700000.0 11309700000.0 11309700000.0 11309700000.0 11309700000.0 11309700000.0 11309700000.0 11309700000.0 11309700000.0 11309700000.0 11309700000.0 11309700000.0 11309700000.0 11309700000.0 11309700000.0 11309700000.0 11309700000.0 11309700000.0 11309700000.0 11309700000.0 11309700000.0 11309700000.0 11309700000.0 11309700000.0 11309700000.0 11309700000.0 11309700000.0 11309700000.0 11309700000.0 11309700000.0 11309700000.0 11309700000.0 11309700000.0 11309700000.0 11309700000.0 11309700000.0 11309700000.0 11309700000.0 11309700000.0 11309700000.0 11309700000.0 11309700000.0 11309700000.0 11309700000.0 11309700000.0 11309700000.0 11309700000.0 11309700000.0 11309700000.0 11309700000.0 11309700000.0 11309700000.0 11309700000.0 11309700000.0 11309700000.0 11309700000.0 11309700000.0 11309700000.0 11309700000.0 11309700000.0 11309700000.0 11309700000.0 11309700000.0 11309700000.0 11309700000.0 11309700000.0 11309700000.0 11309700000.0 11309700000.0 11309700000.0 11309700000.0 11309700000.0 11309700000.0 11309700000.0 11309700000.0 11309700000.0 11309700000.0 11309700000.0 11309700000.0 11309700000.0 11309700000.0 11309700000.0 11309700000.0 11309700000.0 11309700000.0 11309700000.0 11309700000.0 11309700000.0 11309700000.0 11309700000.0 11309700000.0 11309700000.0 11309700000.0 11309700000.0 11309700000.0 11309700000.0 11309700000.0 11309700000.0 11309700000.0 11309700000.0 11309700000.0 11309700000.0 11309700000.0 11309700000.0 11309700000.0 11309700000.0 11309700000.0 11309700000.0 11309700000.0 11309700000.0 11309700000.0 11309700000.0 11309700000.0 11309700000.0 11309700000.0 11309700000.0 11309700000.0 11309700000.0 11309700000.0 11309700000.0 11309700000.0 11309700000.0 11309700000.0 11309700000.0 11309700000.0 11309700000.0 11309700000.0 11309700000.0 11309700000.0 11309700000.0 11309700000.0 11309700000.0 11309700000.0 11309700000.0 11309700000.0 11309700000.0 11309700000.0 11309700000.0 11309700000.0 11309700000.0 11309700000.0 11309700000.0 11309700000.0 11309700000.0 11309700000.0 11309700000.0 11309700000.0 11309700000.0 11309700000.0 11309700000.0 11309700000.0 11309700000.0 11309700000.0 11309700000.0 11309700000.0 11309700000.0 11309700000.0 11309700000.0 11309700000.0 11309700000.0 11309700000.0 11309700000.0 11309700000.0 11309700000.0 11309700000.0 11309700000.0 11309700000.0 11309700000.0 11309700000.0 11309700000.0 11309700000.0 11309700000.0 11309700000.0 11309700000.0 11309700000.0 11309700000.0 11309700000.0 11309700000.0 11309700000.0 11309700000.0 11309700000.0 11309700000.0 11309700000.0 11309700000.0 11309700000.0 11309700000.0 11309700000.0 11309700000.0 11309700000.0 11309700000.0 11309700000.0 11309700000.0 11309700000.0 11309700000.0 11309700000.0 11309700000.0 11309700000.0 11309700000.0 11309700000.0 11309700000.0 11309700000.0 11309700000.0 11309700000.0 11309700000.0 11309700000.0 11309700000.0 11309700000.0 11309700000.0 11309700000.0 11309700000.0 11309700000.0 11309700000.0 11309700000.0 11309700000.0 11309700000.0 11309700000.0 11309700000.0 11309700000.0 11309700000.0 11309700000.0 11309700000.0 11309700000.0 11309700000.0 11309700000.0 11309700000.0 11309700000.0 11309700000.0 11309700000.0 11309700000.0 11309700000.0 11309700000.0 11309700000.0 11309700000.0 11309700000.0 11309700000.0 11309700000.0 11309700000.0 11309700000.0 11309700000.0 11309700000.0 11309700000.0 11309700000.0 11309700000.0 11309700000.0 11309700000.0 11309700000.0 11309700000.0 11309700000.0 11309700000.0 11309700000.0 11309700000.0 11309700000.0 11309700000.0 11309700000.0 11309700000.0 11309700000.0 11309700000.0 11309700000.0 11309700000.0 11309700000.0 11309700000.0 11309700000.0 11309700000.0 11309700000.0 11309700000.0 11309700000.0 11309700000.0 11309700000.0 11309700000.0 11309700000.0 11309700000.0 11309700000.0 11309700000.0 11309700000.0 11309700000.0 11309700000.0 11309700000.0 11309700000.0 11309700000.0 11309700000.0 11309700000.0 11309700000.0 11309700000.0 11309700000.0 11309700000.0 11309700000.0 11309700000.0 11309700000.0 11309700000.0 11309700000.0 11309700000.0 11309700000.0 11309700000.0 11309700000.0 11309700000.0 11309700000.0 11309700000.0 11309700000.0 11309700000.0 11309700000.0 11309700000.0 11309700000.0 11309700000.0 11309700000.0 11309700000.0 11309700000.0 11309700000.0 11309700000.0 11309700000.0 11309700000.0 11309700000.0 11309700000.0 11309700000.0 11309700000.0 11309700000.0 11309700000.0 11309700000.0 11309700000.0 11309700000.0 11309700000.0 11309700000.0 11309700000.0 11309700000.0 11309700000.0 11309700000.0 11309700000.0 11309700000.0 11309700000.0 11309700000.0 11309700000.0 11309700000.0 11309700000.0 11309700000.0 11309700000.0 11309700000.0 11309700000.0 11309700000.0 11309700000.0 11309700000.0 11309700000.0 11309700000.0 11309700000.0 11309700000.0 11309700000.0 11309700000.0 11309700000.0 11309700000.0 11309700000.0 11309700000.0 11309700000.0 11309700000.0 11309700000.0 11309700000.0 11309700000.0 11309700000.0 11309700000.0 11309700000.0 11309700000.0 11309700000.0 11309700000.0 11309700000.0 11309700000.0 11309700000.0 11309700000.0 11309700000.0 11309700000.0 11309700000.0 11309700000.0 11309700000.0 11309700000.0 11309700000.0 11309700000.0 11309700000.0 11309700000.0 11309700000.0 11309700000.0 11309700000.0 11309700000.0 11309700000.0 11309700000.0 11309700000.0 11309700000.0 11309700000.0 11309700000.0 11309700000.0 11309700000.0 11309700000.0 11309700000.0 11309700000.0 11309700000.0 11309700000.0 11309700000.0 11309700000.0 11309700000.0 11309700000.0 11309700000.0 11309700000.0 11309700000.0 11309700000.0 11309700000.0 11309700000.0 11309700000.0 11309700000.0 11309700000.0 11309700000.0 11309700000.0 11309700000.0 11309700000.0 11309700000.0 11309700000.0 11309700000.0 11309700000.0 11309700000.0 11309700000.0 11309700000.0 11309700000.0 11309700000.0 11309700000.0 11309700000.0 11309700000.0 11309700000.0 11309700000.0 11309700000.0 11309700000.0 11309700000.0 11309700000.0 11309700000.0 11309700000.0 11309700000.0 11309700000.0 11309700000.0 11309700000.0 11309700000.0 11309700000.0 11309700000.0 11309700000.0 11309700000.0 11309700000.0 11309700000.0 11309700000.0 11309700000.0 11309700000.0 11309700000.0 11309700000.0 11309700000.0 11309700000.0 11309700000.0 11309700000.0 11309700000.0 11309700000.0 11309700000.0 11309700000.0 11309700000.0 11309700000.0 11309700000.0 11309700000.0 11309700000.0 11309700000.0 11309700000.0 11309700000.0 11309700000.0 11309700000.0 11309700000.0 11309700000.0 11309700000.0 11309700000.0 11309700000.0 11309700000.0 11309700000.0 11309700000.0 11309700000.0 11309700000.0 11309700000.0 11309700000.0 11309700000.0 11309700000.0 11309700000.0 11309700000.0 11309700000.0 11309700000.0 11309700000.0 11309700000.0 11309700000.0 11309700000.0 11309700000.0 11309700000.0 11309700000.0 11309700000.0 11309700000.0 11309700000.0 11309700000.0 11309700000.0 11309700000.0 11309700000.0 11309700000.0 11309700000.0 11309700000.0 11309700000.0 11309700000.0 11309700000.0 11309700000.0 11309700000.0 11309700000.0 11309700000.0 11309700000.0 11309700000.0 11309700000.0 11309700000.0 11309700000.0 11309700000.0 11309700000.0 11309700000.0 11309700000.0 11309700000.0 11309700000.0 11309700000.0 11309700000.0 11309700000.0 11309700000.0 11309700000.0 11309700000.0 11309700000.0 11309700000.0 11309700000.0 11309700000.0 11309700000.0 11309700000.0 11309700000.0 11309700000.0 11309700000.0 11309700000.0 11309700000.0 11309700000.0 11309700000.0 11309700000.0 11309700000.0 11309700000.0 11309700000.0 11309700000.0 11309700000.0 11309700000.0 11309700000.0 11309700000.0 11309700000.0 11309700000.0 11309700000.0 11309700000.0 11309700000.0 11309700000.0 11309700000.0 11309700000.0 11309700000.0 11309700000.0 11309700000.0 11309700000.0 11309700000.0 11309700000.0 11309700000.0 11309700000.0 11309700000.0 11309700000.0 11309700000.0 11309700000.0 11309700000.0 11309700000.0 11309700000.0 11309700000.0 11309700000.0 11309700000.0 11309700000.0 11309700000.0 11309700000.0 11309700000.0 11309700000.0 11309700000.0 11309700000.0 11309700000.0 11309700000.0 11309700000.0 11309700000.0 11309700000.0 11309700000.0 11309700000.0 11309700000.0 11309700000.0 11309700000.0 11309700000.0 11309700000.0 11309700000.0 11309700000.0 11309700000.0 11309700000.0 11309700000.0 11309700000.0 11309700000.0 11309700000.0 11309700000.0 11309700000.0 11309700000.0 11309700000.0 11309700000.0 11309700000.0 11309700000.0 11309700000.0 11309700000.0 11309700000.0 11309700000.0 11309700000.0 11309700000.0 11309700000.0 11309700000.0 11309700000.0 11309700000.0 11309700000.0 11309700000.0 11309700000.0 11309700000.0 11309700000.0 11309700000.0 11309700000.0 11309700000.0 11309700000.0 11309700000.0 11309700000.0 11309700000.0 11309700000.0 11309700000.0 11309700000.0 11309700000.0 11309700000.0 11309700000.0 11309700000.0 11309700000.0 11309700000.0 11309700000.0 11309700000.0 11309700000.0 11309700000.0 11309700000.0 11309700000.0 11309700000.0 11309700000.0 11309700000.0 11309700000.0 11309700000.0 11309700000.0 11309700000.0 11309700000.0 11309700000.0 11309700000.0 11309700000.0 11309700000.0 11309700000.0 11309700000.0 11309700000.0 11309700000.0 11309700000.0 11309700000.0 11309700000.0 11309700000.0 11309700000.0 11309700000.0 11309700000.0 11309700000.0 11309700000.0 11309700000.0 11309700000.0 11309700000.0 11309700000.0 11309700000.0 11309700000.0 11309700000.0 11309700000.0 11309700000.0 11309700000.0 11309700000.0 11309700000.0 11309700000.0 11309700000.0 11309700000.0 11309700000.0 11309700000.0 11309700000.0 11309700000.0 11309700000.0 11309700000.0 11309700000.0 11309700000.0 11309700000.0 11309700000.0 11309700000.0 11309700000.0 11309700000.0 11309700000.0 11309700000.0 11309700000.0 11309700000.0 11309700000.0 11309700000.0 11309700000.0 11309700000.0 11309700000.0 11309700000.0 11309700000.0 11309700000.0 11309700000.0 11309700000.0 11309700000.0 11309700000.0 11309700000.0 11309700000.0 11309700000.0 11309700000.0 11309700000.0 11309700000.0 11309700000.0 11309700000.0 11309700000.0 11309700000.0 11309700000.0 11309700000.0 11309700000.0 11309700000.0 11309700000.0 11309700000.0 11309700000.0 11309700000.0 11309700000.0 11309700000.0 11309700000.0 11309700000.0 11309700000.0 11309700000.0 11309700000.0 11309700000.0 11309700000.0 11309700000.0 11309700000.0 11309700000.0 11309700000.0 11309700000.0 11309700000.0 11309700000.0 11309700000.0 11309700000.0 11309700000.0 11309700000.0 11309700000.0 11309700000.0 11309700000.0 11309700000.0 11309700000.0 11309700000.0 11309700000.0 11309700000.0 11309700000.0 11309700000.0 11309700000.0 11309700000.0 11309700000.0 11309700000.0 11309700000.0 11309700000.0 11309700000.0 11309700000.0 11309700000.0 11309700000.0 11309700000.0 11309700000.0 11309700000.0 11309700000.0 11309700000.0 11309700000.0 11309700000.0 11309700000.0 11309700000.0 11309700000.0 11309700000.0 11309700000.0 11309700000.0 11309700000.0 11309700000.0 11309700000.0 11309700000.0 11309700000.0 11309700000.0 11309700000.0 11309700000.0 11309700000.0 11309700000.0 11309700000.0 11309700000.0 11309700000.0 11309700000.0 11309700000.0 11309700000.0 11309700000.0 11309700000.0 11309700000.0 11309700000.0 11309700000.0 11309700000.0 11309700000.0 11309700000.0 11309700000.0 11309700000.0 11309700000.0 11309700000.0 11309700000.0 11309700000.0 11309700000.0 11309700000.0 11309700000.0 11309700000.0 11309700000.0 11309700000.0 11309700000.0 11309700000.0 11309700000.0 11309700000.0 11309700000.0 11309700000.0 11309700000.0 11309700000.0 11309700000.0 11309700000.0 11309700000.0 11309700000.0 11309700000.0 11309700000.0 11309700000.0 11309700000.0 11309700000.0 11309700000.0 11309700000.0 11309700000.0 11309700000.0 11309700000.0 11309700000.0 11309700000.0 11309700000.0 11309700000.0 11309700000.0 11309700000.0 11309700000.0 11309700000.0 11309700000.0 11309700000.0 11309700000.0 11309700000.0 11309700000.0 11309700000.0 11309700000.0 11309700000.0 11309700000.0 11309700000.0 11309700000.0 11309700000.0 11309700000.0 11309700000.0 11309700000.0 11309700000.0 11309700000.0 11309700000.0 11309700000.0 11309700000.0 11309700000.0 11309700000.0 11309700000.0 11309700000.0 11309700000.0 11309700000.0 11309700000.0 11309700000.0 11309700000.0 11309700000.0 11309700000.0 11309700000.0 11309700000.0 11309700000.0 11309700000.0 11309700000.0 11309700000.0 11309700000.0 11309700000.0 11309700000.0 11309700000.0 11309700000.0 11309700000.0 11309700000.0 11309700000.0 11309700000.0 11309700000.0 11309700000.0 11309700000.0 11309700000.0 11309700000.0 11309700000.0 11309700000.0 11309700000.0 11309700000.0 11309700000.0 11309700000.0 11309700000.0 11309700000.0 11309700000.0 11309700000.0 11309700000.0 11309700000.0 11309700000.0 11309700000.0 11309700000.0 11309700000.0 11309700000.0 11309700000.0 11309700000.0 11309700000.0 11309700000.0 11309700000.0 11309700000.0 11309700000.0 11309700000.0 11309700000.0 11309700000.0 11309700000.0 11309700000.0 11309700000.0 11309700000.0 11309700000.0 11309700000.0 11309700000.0 11309700000.0 11309700000.0 11309700000.0 11309700000.0 11309700000.0 11309700000.0 11309700000.0 11309700000.0 11309700000.0 11309700000.0 11309700000.0 11309700000.0 11309700000.0 11309700000.0 11309700000.0 11309700000.0 11309700000.0 11309700000.0 11309700000.0 11309700000.0 11309700000.0 11309700000.0 11309700000.0 11309700000.0 11309700000.0 11309700000.0 11309700000.0 11309700000.0 11309700000.0 11309700000.0 11309700000.0 11309700000.0 11309700000.0 11309700000.0 11309700000.0 11309700000.0 11309700000.0 11309700000.0 11309700000.0 11309700000.0 11309700000.0 11309700000.0 11309700000.0 11309700000.0 11309700000.0 11309700000.0 11309700000.0 11309700000.0 11309700000.0 11309700000.0 11309700000.0 11309700000.0 11309700000.0 11309700000.0 11309700000.0 11309700000.0 11309700000.0 11309700000.0 11309700000.0 11309700000.0 11309700000.0 11309700000.0 11309700000.0 11309700000.0 11309700000.0 11309700000.0 11309700000.0 11309700000.0 11309700000.0 11309700000.0 11309700000.0 11309700000.0 11309700000.0 11309700000.0 11309700000.0 11309700000.0 11309700000.0 11309700000.0 11309700000.0 11309700000.0 11309700000.0 11309700000.0 11309700000.0 11309700000.0 11309700000.0 11309700000.0 11309700000.0 11309700000.0 11309700000.0 11309700000.0 11309700000.0 11309700000.0 11309700000.0 11309700000.0 11309700000.0 11309700000.0 11309700000.0 11309700000.0 11309700000.0 11309700000.0 11309700000.0 11309700000.0 11309700000.0 11309700000.0 11309700000.0 11309700000.0 11309700000.0 11309700000.0 11309700000.0 11309700000.0 11309700000.0 11309700000.0 11309700000.0 11309700000.0 11309700000.0 11309700000.0 11309700000.0 11309700000.0 11309700000.0 11309700000.0 11309700000.0 11309700000.0 11309700000.0 11309700000.0 11309700000.0 11309700000.0 11309700000.0 11309700000.0 11309700000.0 11309700000.0 11309700000.0 11309700000.0 11309700000.0 11309700000.0 11309700000.0 11309700000.0 11309700000.0 11309700000.0 11309700000.0 11309700000.0 11309700000.0 11309700000.0 11309700000.0 11309700000.0 11309700000.0 11309700000.0 11309700000.0 11309700000.0 11309700000.0 11309700000.0 11309700000.0 11309700000.0 11309700000.0 11309700000.0 11309700000.0 11309700000.0 11309700000.0 11309700000.0 11309700000.0 11309700000.0 11309700000.0 11309700000.0 11309700000.0 11309700000.0 11309700000.0 11309700000.0 11309700000.0 11309700000.0 11309700000.0 11309700000.0 11309700000.0 11309700000.0 11309700000.0 11309700000.0 11309700000.0 11309700000.0 11309700000.0 11309700000.0 11309700000.0 11309700000.0 11309700000.0 11309700000.0 11309700000.0 11309700000.0 11309700000.0 11309700000.0 11309700000.0 11309700000.0 11309700000.0 11309700000.0 11309700000.0 11309700000.0 11309700000.0 11309700000.0 11309700000.0 11309700000.0 11309700000.0 11309700000.0 11309700000.0 11309700000.0 11309700000.0 11309700000.0 11309700000.0 11309700000.0 11309700000.0 11309700000.0 11309700000.0 11309700000.0 11309700000.0 11309700000.0 11309700000.0 11309700000.0 11309700000.0 11309700000.0 11309700000.0 11309700000.0 11309700000.0 11309700000.0 11309700000.0 11309700000.0 11309700000.0 11309700000.0 11309700000.0 11309700000.0 11309700000.0 11309700000.0 11309700000.0 11309700000.0 11309700000.0 11309700000.0 11309700000.0 11309700000.0 11309700000.0 11309700000.0 11309700000.0 11309700000.0 11309700000.0 11309700000.0 11309700000.0 11309700000.0 11309700000.0 11309700000.0 11309700000.0 11309700000.0 11309700000.0 11309700000.0 11309700000.0 11309700000.0 11309700000.0 11309700000.0 11309700000.0 11309700000.0 11309700000.0 11309700000.0 11309700000.0 11309700000.0 11309700000.0 11309700000.0 11309700000.0 11309700000.0 11309700000.0 11309700000.0 11309700000.0 11309700000.0 11309700000.0 11309700000.0 11309700000.0 11309700000.0 11309700000.0 11309700000.0 11309700000.0 11309700000.0 11309700000.0 11309700000.0 11309700000.0 11309700000.0 11309700000.0 11309700000.0 11309700000.0 11309700000.0 11309700000.0 11309700000.0 11309700000.0 11309700000.0 11309700000.0 11309700000.0 11309700000.0 11309700000.0 11309700000.0 11309700000.0 11309700000.0 11309700000.0 11309700000.0 11309700000.0 11309700000.0 11309700000.0 11309700000.0 11309700000.0 11309700000.0 11309700000.0 11309700000.0 11309700000.0 11309700000.0 11309700000.0 11309700000.0 11309700000.0 11309700000.0 11309700000.0 11309700000.0 11309700000.0 11309700000.0 11309700000.0 11309700000.0 11309700000.0 11309700000.0 11309700000.0 11309700000.0 11309700000.0 11309700000.0 11309700000.0 11309700000.0 11309700000.0 11309700000.0 11309700000.0 11309700000.0 11309700000.0 11309700000.0 11309700000.0 11309700000.0 11309700000.0 11309700000.0 11309700000.0 11309700000.0 11309700000.0 11309700000.0 11309700000.0 11309700000.0 11309700000.0 11309700000.0 11309700000.0 11309700000.0 11309700000.0 11309700000.0 11309700000.0 11309700000.0 11309700000.0 11309700000.0 11309700000.0 11309700000.0 11309700000.0 11309700000.0 11309700000.0 11309700000.0 11309700000.0 11309700000.0 11309700000.0 11309700000.0 11309700000.0 11309700000.0 11309700000.0 11309700000.0 11309700000.0 11309700000.0 11309700000.0 11309700000.0 11309700000.0 11309700000.0 11309700000.0 11309700000.0 11309700000.0 11309700000.0 11309700000.0 11309700000.0 11309700000.0 11309700000.0 11309700000.0 11309700000.0 11309700000.0 11309700000.0 11309700000.0 11309700000.0 11309700000.0 11309700000.0 11309700000.0 11309700000.0 11309700000.0 11309700000.0 11309700000.0 11309700000.0 11309700000.0 11309700000.0 11309700000.0 11309700000.0 11309700000.0 11309700000.0 11309700000.0 11309700000.0 11309700000.0 11309700000.0 11309700000.0 11309700000.0 11309700000.0 11309700000.0 11309700000.0 11309700000.0 11309700000.0 11309700000.0 11309700000.0 11309700000.0 11309700000.0 11309700000.0 11309700000.0 11309700000.0 11309700000.0 11309700000.0 11309700000.0 11309700000.0 11309700000.0 11309700000.0 11309700000.0 11309700000.0 11309700000.0 11309700000.0 11309700000.0 11309700000.0 11309700000.0 11309700000.0 11309700000.0 11309700000.0 11309700000.0 11309700000.0 11309700000.0 11309700000.0 11309700000.0 11309700000.0 11309700000.0 11309700000.0 11309700000.0 11309700000.0 11309700000.0 11309700000.0 11309700000.0 11309700000.0 11309700000.0 11309700000.0 11309700000.0 11309700000.0 11309700000.0 11309700000.0 11309700000.0 11309700000.0 11309700000.0 11309700000.0 11309700000.0 11309700000.0 11309700000.0 11309700000.0 11309700000.0 11309700000.0 11309700000.0 11309700000.0 11309700000.0 11309700000.0 11309700000.0 11309700000.0 11309700000.0 11309700000.0 11309700000.0 11309700000.0 11309700000.0 11309700000.0 11309700000.0 11309700000.0 11309700000.0 11309700000.0 11309700000.0 11309700000.0 11309700000.0 11309700000.0 11309700000.0 11309700000.0 11309700000.0 11309700000.0 11309700000.0 11309700000.0 11309700000.0 11309700000.0 11309700000.0 11309700000.0 11309700000.0 11309700000.0 11309700000.0 11309700000.0 11309700000.0 11309700000.0 11309700000.0 11309700000.0 11309700000.0 11309700000.0 11309700000.0 11309700000.0 11309700000.0 11309700000.0 11309700000.0 11309700000.0 11309700000.0 11309700000.0 11309700000.0 11309700000.0 11309700000.0 11309700000.0 11309700000.0 11309700000.0 11309700000.0 11309700000.0 11309700000.0 11309700000.0 11309700000.0 11309700000.0 11309700000.0 11309700000.0 11309700000.0 11309700000.0 11309700000.0 11309700000.0 11309700000.0 11309700000.0 11309700000.0 11309700000.0 11309700000.0 11309700000.0 11309700000.0 11309700000.0 11309700000.0 11309700000.0 11309700000.0 11309700000.0 11309700000.0 11309700000.0 11309700000.0 11309700000.0 11309700000.0 11309700000.0 11309700000.0 11309700000.0 11309700000.0 11309700000.0 11309700000.0 11309700000.0 11309700000.0 11309700000.0 11309700000.0 11309700000.0 11309700000.0 11309700000.0 11309700000.0 11309700000.0 11309700000.0 11309700000.0 11309700000.0 11309700000.0 11309700000.0 11309700000.0 11309700000.0 11309700000.0 11309700000.0 11309700000.0 11309700000.0 11309700000.0 11309700000.0 11309700000.0 11309700000.0 11309700000.0 11309700000.0 11309700000.0 11309700000.0 11309700000.0 11309700000.0 11309700000.0 11309700000.0 11309700000.0 11309700000.0 11309700000.0 11309700000.0 11309700000.0 11309700000.0 11309700000.0 11309700000.0 11309700000.0 11309700000.0 11309700000.0 11309700000.0 11309700000.0 11309700000.0 11309700000.0 11309700000.0 11309700000.0 11309700000.0 11309700000.0 11309700000.0 11309700000.0 11309700000.0 11309700000.0 11309700000.0 11309700000.0 11309700000.0 11309700000.0 11309700000.0 11309700000.0 11309700000.0 11309700000.0 11309700000.0 11309700000.0 11309700000.0 11309700000.0 11309700000.0 11309700000.0 11309700000.0 11309700000.0 11309700000.0 11309700000.0 11309700000.0 11309700000.0 11309700000.0 11309700000.0 11309700000.0 11309700000.0 11309700000.0 11309700000.0 11309700000.0 11309700000.0 11309700000.0 11309700000.0 11309700000.0 11309700000.0 11309700000.0 11309700000.0 11309700000.0 11309700000.0 11309700000.0 11309700000.0 11309700000.0 11309700000.0 11309700000.0 11309700000.0 11309700000.0 11309700000.0 11309700000.0 11309700000.0 11309700000.0 11309700000.0 11309700000.0 11309700000.0 11309700000.0 11309700000.0 11309700000.0 11309700000.0 11309700000.0 11309700000.0 11309700000.0 11309700000.0 11309700000.0 11309700000.0 11309700000.0 11309700000.0 11309700000.0 11309700000.0 11309700000.0 11309700000.0 11309700000.0 11309700000.0 11309700000.0 11309700000.0 11309700000.0 11309700000.0 11309700000.0 11309700000.0 11309700000.0 11309700000.0 11309700000.0 11309700000.0 11309700000.0 11309700000.0 11309700000.0 11309700000.0 11309700000.0 11309700000.0 11309700000.0 11309700000.0 11309700000.0 11309700000.0 11309700000.0 11309700000.0 11309700000.0 11309700000.0 11309700000.0 11309700000.0 11309700000.0 11309700000.0 11309700000.0 11309700000.0 11309700000.0 11309700000.0 11309700000.0 11309700000.0 11309700000.0 11309700000.0 11309700000.0 11309700000.0 11309700000.0 11309700000.0 11309700000.0 11309700000.0 11309700000.0 11309700000.0 11309700000.0 11309700000.0 11309700000.0 11309700000.0 11309700000.0 11309700000.0 11309700000.0 11309700000.0 11309700000.0 11309700000.0 11309700000.0 11309700000.0 11309700000.0 11309700000.0 11309700000.0 11309700000.0 11309700000.0 11309700000.0 11309700000.0 11309700000.0 11309700000.0 11309700000.0 11309700000.0 11309700000.0 11309700000.0 11309700000.0 11309700000.0 11309700000.0 11309700000.0 11309700000.0 11309700000.0 11309700000.0 11309700000.0 11309700000.0 11309700000.0 11309700000.0 11309700000.0 11309700000.0 11309700000.0 11309700000.0 11309700000.0 11309700000.0 11309700000.0 11309700000.0 11309700000.0 11309700000.0 11309700000.0 11309700000.0 11309700000.0 11309700000.0 11309700000.0 11309700000.0 11309700000.0 11309700000.0 11309700000.0 11309700000.0 11309700000.0 11309700000.0 11309700000.0 11309700000.0 11309700000.0 11309700000.0 11309700000.0 11309700000.0 11309700000.0 11309700000.0 11309700000.0 11309700000.0 11309700000.0 11309700000.0 11309700000.0 11309700000.0 11309700000.0 11309700000.0 11309700000.0 11309700000.0 11309700000.0 11309700000.0 11309700000.0 11309700000.0 11309700000.0 11309700000.0 11309700000.0 11309700000.0 11309700000.0 11309700000.0 11309700000.0 11309700000.0 11309700000.0 11309700000.0 11309700000.0 11309700000.0 11309700000.0 11309700000.0 11309700000.0 11309700000.0 11309700000.0 11309700000.0 11309700000.0 11309700000.0 11309700000.0 11309700000.0 11309700000.0 11309700000.0 11309700000.0 11309700000.0 11309700000.0 11309700000.0 11309700000.0 11309700000.0 11309700000.0 11309700000.0 11309700000.0 11309700000.0 11309700000.0 11309700000.0 11309700000.0 11309700000.0 11309700000.0 11309700000.0 11309700000.0 11309700000.0 11309700000.0 11309700000.0 11309700000.0 11309700000.0 11309700000.0 11309700000.0 11309700000.0 11309700000.0 11309700000.0 11309700000.0 11309700000.0 11309700000.0 11309700000.0 11309700000.0 11309700000.0 11309700000.0 11309700000.0 11309700000.0 11309700000.0 11309700000.0 11309700000.0 11309700000.0 11309700000.0 11309700000.0 11309700000.0 11309700000.0 11309700000.0 11309700000.0 11309700000.0 11309700000.0 11309700000.0 11309700000.0 11309700000.0 11309700000.0 11309700000.0 11309700000.0 11309700000.0 11309700000.0 11309700000.0 11309700000.0 11309700000.0 11309700000.0 11309700000.0 11309700000.0 11309700000.0 11309700000.0 11309700000.0 11309700000.0 11309700000.0 11309700000.0 11309700000.0 11309700000.0 11309700000.0 11309700000.0 11309700000.0 11309700000.0 11309700000.0 11309700000.0 11309700000.0 11309700000.0 11309700000.0 11309700000.0 11309700000.0 11309700000.0 11309700000.0 11309700000.0 11309700000.0 11309700000.0 11309700000.0 11309700000.0 11309700000.0 11309700000.0 11309700000.0 11309700000.0 11309700000.0 11309700000.0 11309700000.0 11309700000.0 11309700000.0 11309700000.0 11309700000.0 11309700000.0 11309700000.0 11309700000.0 11309700000.0 11309700000.0 11309700000.0 11309700000.0 11309700000.0 11309700000.0 11309700000.0 11309700000.0 11309700000.0 11309700000.0 11309700000.0 11309700000.0 11309700000.0 11309700000.0 11309700000.0 11309700000.0 11309700000.0 11309700000.0 11309700000.0 11309700000.0 11309700000.0 11309700000.0 11309700000.0 11309700000.0 11309700000.0 11309700000.0 11309700000.0 11309700000.0 11309700000.0 11309700000.0 11309700000.0 11309700000.0 11309700000.0 11309700000.0 11309700000.0 11309700000.0 11309700000.0 11309700000.0 11309700000.0 11309700000.0 11309700000.0 11309700000.0 11309700000.0 11309700000.0 11309700000.0 11309700000.0 11309700000.0 11309700000.0 11309700000.0 11309700000.0 11309700000.0 11309700000.0 11309700000.0 11309700000.0 11309700000.0 11309700000.0 11309700000.0 11309700000.0 11309700000.0 11309700000.0 11309700000.0 11309700000.0 11309700000.0 11309700000.0 11309700000.0 11309700000.0 11309700000.0 11309700000.0 11309700000.0 11309700000.0 11309700000.0 11309700000.0 11309700000.0 11309700000.0 11309700000.0 11309700000.0 11309700000.0 11309700000.0 11309700000.0 11309700000.0 11309700000.0 11309700000.0 11309700000.0 11309700000.0 11309700000.0 11309700000.0 11309700000.0 11309700000.0 11309700000.0 11309700000.0 11309700000.0 11309700000.0 11309700000.0 11309700000.0 11309700000.0 11309700000.0 11309700000.0 11309700000.0 11309700000.0 11309700000.0 11309700000.0 11309700000.0 11309700000.0 11309700000.0 11309700000.0 11309700000.0 11309700000.0 11309700000.0 11309700000.0 11309700000.0 11309700000.0 11309700000.0 11309700000.0 11309700000.0 11309700000.0 11309700000.0 11309700000.0 11309700000.0 11309700000.0 11309700000.0 11309700000.0 11309700000.0 11309700000.0 11309700000.0 11309700000.0 11309700000.0 11309700000.0 11309700000.0 11309700000.0 11309700000.0 11309700000.0 11309700000.0 11309700000.0 11309700000.0 11309700000.0 11309700000.0 11309700000.0 11309700000.0 11309700000.0 11309700000.0 11309700000.0 11309700000.0 11309700000.0 11309700000.0 11309700000.0 11309700000.0 11309700000.0 11309700000.0 11309700000.0 11309700000.0 11309700000.0 11309700000.0 11309700000.0 11309700000.0 11309700000.0 11309700000.0 11309700000.0 11309700000.0 11309700000.0 11309700000.0 11309700000.0 11309700000.0 11309700000.0 11309700000.0 11309700000.0 11309700000.0 11309700000.0 11309700000.0 11309700000.0 11309700000.0 11309700000.0 11309700000.0 11309700000.0 11309700000.0 11309700000.0 11309700000.0 11309700000.0 11309700000.0 11309700000.0 11309700000.0 11309700000.0 11309700000.0 11309700000.0 11309700000.0 11309700000.0 11309700000.0 11309700000.0 11309700000.0 11309700000.0 11309700000.0 11309700000.0 11309700000.0 11309700000.0 11309700000.0 11309700000.0 11309700000.0 11309700000.0 11309700000.0 11309700000.0 11309700000.0 11309700000.0 11309700000.0 11309700000.0 11309700000.0 11309700000.0 11309700000.0 11309700000.0 11309700000.0 11309700000.0 11309700000.0 11309700000.0 11309700000.0 11309700000.0 11309700000.0 11309700000.0 11309700000.0 11309700000.0 11309700000.0 11309700000.0 11309700000.0 11309700000.0 11309700000.0 11309700000.0 11309700000.0 11309700000.0 11309700000.0 11309700000.0 11309700000.0 11309700000.0 11309700000.0 11309700000.0 11309700000.0 11309700000.0 11309700000.0 11309700000.0 11309700000.0 11309700000.0 11309700000.0 11309700000.0 11309700000.0 11309700000.0 11309700000.0 11309700000.0 11309700000.0 11309700000.0 11309700000.0 11309700000.0 11309700000.0 11309700000.0 11309700000.0 11309700000.0 11309700000.0 11309700000.0 11309700000.0 11309700000.0 11309700000.0 11309700000.0 11309700000.0 11309700000.0 11309700000.0 11309700000.0 11309700000.0 11309700000.0 11309700000.0 11309700000.0 11309700000.0 11309700000.0 11309700000.0 11309700000.0 11309700000.0 11309700000.0 11309700000.0 11309700000.0 11309700000.0 11309700000.0 11309700000.0 11309700000.0 11309700000.0 11309700000.0 11309700000.0 11309700000.0 11309700000.0 11309700000.0 11309700000.0 11309700000.0 11309700000.0 11309700000.0 11309700000.0 11309700000.0 11309700000.0 11309700000.0 11309700000.0 11309700000.0 11309700000.0 11309700000.0 11309700000.0 11309700000.0 11309700000.0 11309700000.0 11309700000.0 11309700000.0 11309700000.0 11309700000.0 11309700000.0 11309700000.0 11309700000.0 11309700000.0 11309700000.0 11309700000.0 11309700000.0 11309700000.0 11309700000.0 11309700000.0 11309700000.0 11309700000.0 11309700000.0 11309700000.0 11309700000.0 11309700000.0 11309700000.0 11309700000.0 11309700000.0 11309700000.0 11309700000.0 11309700000.0 11309700000.0 11309700000.0 11309700000.0 11309700000.0 11309700000.0 11309700000.0 11309700000.0 11309700000.0 11309700000.0 11309700000.0 11309700000.0 11309700000.0 11309700000.0 11309700000.0 11309700000.0 11309700000.0 11309700000.0 11309700000.0 11309700000.0 11309700000.0 11309700000.0 11309700000.0 11309700000.0 11309700000.0 11309700000.0 11309700000.0 11309700000.0 11309700000.0 11309700000.0 11309700000.0 11309700000.0 11309700000.0 11309700000.0 11309700000.0 11309700000.0 11309700000.0 11309700000.0 11309700000.0 11309700000.0 11309700000.0 11309700000.0 11309700000.0 11309700000.0 11309700000.0 11309700000.0 11309700000.0 11309700000.0 11309700000.0 11309700000.0 11309700000.0 11309700000.0 11309700000.0 11309700000.0 11309700000.0 11309700000.0 11309700000.0 11309700000.0 11309700000.0 11309700000.0 11309700000.0 11309700000.0 11309700000.0 11309700000.0 11309700000.0 11309700000.0 11309700000.0 11309700000.0 11309700000.0 11309700000.0 11309700000.0 11309700000.0 11309700000.0 11309700000.0 11309700000.0 11309700000.0 11309700000.0 11309700000.0 11309700000.0 11309700000.0 11309700000.0 11309700000.0 11309700000.0 11309700000.0 11309700000.0 11309700000.0 11309700000.0 11309700000.0 11309700000.0 11309700000.0 11309700000.0 11309700000.0 11309700000.0 11309700000.0 11309700000.0 11309700000.0 11309700000.0 11309700000.0 11309700000.0 11309700000.0 11309700000.0 11309700000.0 11309700000.0 11309700000.0 11309700000.0 11309700000.0 11309700000.0 11309700000.0 11309700000.0 11309700000.0 11309700000.0 11309700000.0 11309700000.0 11309700000.0 11309700000.0 11309700000.0 11309700000.0 11309700000.0 11309700000.0 11309700000.0 11309700000.0 11309700000.0 11309700000.0 11309700000.0 11309700000.0 11309700000.0 11309700000.0 11309700000.0 11309700000.0 11309700000.0 11309700000.0 11309700000.0 11309700000.0 11309700000.0 11309700000.0 11309700000.0 11309700000.0 11309700000.0 11309700000.0 11309700000.0 11309700000.0 11309700000.0 11309700000.0 11309700000.0 11309700000.0 11309700000.0 11309700000.0 11309700000.0 11309700000.0 11309700000.0 11309700000.0 11309700000.0 11309700000.0 11309700000.0 11309700000.0 11309700000.0 11309700000.0 11309700000.0 11309700000.0 11309700000.0 11309700000.0 11309700000.0 11309700000.0 11309700000.0 11309700000.0 11309700000.0 11309700000.0 11309700000.0 11309700000.0 11309700000.0 11309700000.0 11309700000.0 11309700000.0 11309700000.0 11309700000.0 11309700000.0 11309700000.0 11309700000.0 11309700000.0 11309700000.0 11309700000.0 11309700000.0 11309700000.0 11309700000.0 11309700000.0 11309700000.0 11309700000.0 11309700000.0 11309700000.0 11309700000.0 11309700000.0 11309700000.0 11309700000.0 11309700000.0 11309700000.0 11309700000.0 11309700000.0 11309700000.0 11309700000.0 11309700000.0 11309700000.0 11309700000.0 11309700000.0 11309700000.0 11309700000.0 11309700000.0 11309700000.0 11309700000.0 11309700000.0 11309700000.0 11309700000.0 11309700000.0 11309700000.0 11309700000.0 11309700000.0 11309700000.0 11309700000.0 11309700000.0 11309700000.0 11309700000.0 11309700000.0 11309700000.0 11309700000.0 11309700000.0 11309700000.0 11309700000.0 11309700000.0 11309700000.0 11309700000.0 11309700000.0 11309700000.0 11309700000.0 11309700000.0 11309700000.0 11309700000.0 11309700000.0 11309700000.0 11309700000.0 11309700000.0 11309700000.0 11309700000.0 11309700000.0 11309700000.0 11309700000.0 11309700000.0 11309700000.0 11309700000.0 11309700000.0 11309700000.0 11309700000.0 11309700000.0 11309700000.0 11309700000.0 11309700000.0 11309700000.0 11309700000.0 11309700000.0 11309700000.0 11309700000.0 11309700000.0 11309700000.0 11309700000.0 11309700000.0 11309700000.0 11309700000.0 11309700000.0 11309700000.0 11309700000.0 11309700000.0 11309700000.0 11309700000.0 11309700000.0 11309700000.0 11309700000.0 11309700000.0 11309700000.0 11309700000.0 11309700000.0 11309700000.0 11309700000.0 11309700000.0 11309700000.0 11309700000.0 11309700000.0 11309700000.0 11309700000.0 11309700000.0 11309700000.0 11309700000.0 11309700000.0 11309700000.0 11309700000.0 11309700000.0 11309700000.0 11309700000.0 11309700000.0 11309700000.0 11309700000.0 11309700000.0 11309700000.0 11309700000.0 11309700000.0 11309700000.0 11309700000.0 11309700000.0 11309700000.0 11309700000.0 11309700000.0 11309700000.0 11309700000.0 11309700000.0 11309700000.0 11309700000.0 11309700000.0 11309700000.0 11309700000.0 11309700000.0 11309700000.0 11309700000.0 11309700000.0 11309700000.0 11309700000.0 11309700000.0 11309700000.0 11309700000.0 11309700000.0 11309700000.0 11309700000.0 11309700000.0 11309700000.0 11309700000.0 11309700000.0 11309700000.0 11309700000.0 11309700000.0 11309700000.0 11309700000.0 11309700000.0 11309700000.0 11309700000.0 11309700000.0 11309700000.0 11309700000.0 11309700000.0 11309700000.0 11309700000.0 11309700000.0 11309700000.0 11309700000.0 11309700000.0 11309700000.0 11309700000.0 11309700000.0 11309700000.0 11309700000.0 11309700000.0 11309700000.0 11309700000.0 11309700000.0 11309700000.0 11309700000.0 11309700000.0 11309700000.0 11309700000.0 11309700000.0 11309700000.0 11309700000.0 11309700000.0 11309700000.0 11309700000.0 11309700000.0 11309700000.0 11309700000.0 11309700000.0 11309700000.0 11309700000.0 11309700000.0 11309700000.0 11309700000.0 11309700000.0 11309700000.0 11309700000.0 11309700000.0 11309700000.0 11309700000.0 11309700000.0 11309700000.0 11309700000.0 11309700000.0 11309700000.0 11309700000.0 11309700000.0 11309700000.0 11309700000.0 11309700000.0 11309700000.0 11309700000.0 11309700000.0 11309700000.0 11309700000.0 11309700000.0 11309700000.0 11309700000.0 11309700000.0 11309700000.0 11309700000.0 11309700000.0 11309700000.0 11309700000.0 11309700000.0 11309700000.0 11309700000.0 11309700000.0 11309700000.0 11309700000.0 11309700000.0 11309700000.0 11309700000.0 11309700000.0 11309700000.0 11309700000.0 11309700000.0 11309700000.0 11309700000.0 11309700000.0 11309700000.0 11309700000.0 11309700000.0 11309700000.0 11309700000.0 11309700000.0 11309700000.0 11309700000.0 11309700000.0 11309700000.0 11309700000.0 11309700000.0 11309700000.0 11309700000.0 11309700000.0 11309700000.0 11309700000.0 11309700000.0 11309700000.0 11309700000.0 11309700000.0 11309700000.0 11309700000.0 11309700000.0 11309700000.0 11309700000.0 11309700000.0 11309700000.0 11309700000.0 11309700000.0 11309700000.0 11309700000.0 11309700000.0 11309700000.0 11309700000.0 11309700000.0 11309700000.0 11309700000.0 11309700000.0 11309700000.0 11309700000.0 11309700000.0 11309700000.0 11309700000.0 11309700000.0 11309700000.0 11309700000.0 11309700000.0 11309700000.0 11309700000.0 11309700000.0 11309700000.0 11309700000.0 11309700000.0 11309700000.0 11309700000.0 11309700000.0 11309700000.0 11309700000.0 11309700000.0 11309700000.0 11309700000.0 11309700000.0 11309700000.0 11309700000.0 11309700000.0 11309700000.0 11309700000.0 11309700000.0 11309700000.0 11309700000.0 11309700000.0 11309700000.0 11309700000.0 11309700000.0 11309700000.0 11309700000.0 11309700000.0 11309700000.0 11309700000.0 11309700000.0 11309700000.0 11309700000.0 11309700000.0 11309700000.0 11309700000.0 11309700000.0 11309700000.0 11309700000.0 11309700000.0 11309700000.0 11309700000.0 11309700000.0 11309700000.0 11309700000.0 11309700000.0 11309700000.0 11309700000.0 11309700000.0 11309700000.0 11309700000.0 11309700000.0 11309700000.0 11309700000.0 11309700000.0 11309700000.0 11309700000.0 11309700000.0 11309700000.0 11309700000.0 11309700000.0 11309700000.0 11309700000.0 11309700000.0 11309700000.0 11309700000.0 11309700000.0 11309700000.0 11309700000.0 11309700000.0 11309700000.0 11309700000.0 11309700000.0 11309700000.0 11309700000.0 11309700000.0 11309700000.0 11309700000.0 11309700000.0 11309700000.0 11309700000.0 11309700000.0 11309700000.0 11309700000.0 11309700000.0 11309700000.0 11309700000.0 11309700000.0 11309700000.0 11309700000.0 11309700000.0 11309700000.0 11309700000.0 11309700000.0 11309700000.0 11309700000.0 11309700000.0 11309700000.0 11309700000.0 11309700000.0 11309700000.0 11309700000.0 11309700000.0 11309700000.0 11309700000.0 11309700000.0 11309700000.0 11309700000.0 11309700000.0 11309700000.0 11309700000.0 11309700000.0 11309700000.0 11309700000.0 11309700000.0 11309700000.0 11309700000.0 11309700000.0 11309700000.0 11309700000.0 11309700000.0 11309700000.0 11309700000.0 11309700000.0 11309700000.0 11309700000.0 11309700000.0 11309700000.0 11309700000.0 11309700000.0 11309700000.0 11309700000.0 11309700000.0 11309700000.0 11309700000.0 11309700000.0 11309700000.0 11309700000.0 11309700000.0 11309700000.0 11309700000.0 11309700000.0 11309700000.0 11309700000.0 11309700000.0 11309700000.0 11309700000.0 11309700000.0 11309700000.0 11309700000.0 11309700000.0 11309700000.0 11309700000.0 11309700000.0 11309700000.0 11309700000.0 11309700000.0 11309700000.0 11309700000.0 11309700000.0 11309700000.0 11309700000.0 11309700000.0 11309700000.0 11309700000.0 11309700000.0 11309700000.0 11309700000.0 11309700000.0 11309700000.0 11309700000.0 11309700000.0 11309700000.0 11309700000.0 11309700000.0 11309700000.0 11309700000.0 11309700000.0 11309700000.0 11309700000.0 11309700000.0 11309700000.0 11309700000.0 11309700000.0 11309700000.0 11309700000.0 11309700000.0 11309700000.0 11309700000.0 11309700000.0 11309700000.0 11309700000.0 11309700000.0 11309700000.0 11309700000.0 11309700000.0 11309700000.0 11309700000.0 11309700000.0 11309700000.0 11309700000.0 11309700000.0 11309700000.0 11309700000.0 11309700000.0 11309700000.0 11309700000.0 11309700000.0 11309700000.0 11309700000.0 11309700000.0 11309700000.0 11309700000.0 11309700000.0 11309700000.0 11309700000.0 11309700000.0 11309700000.0 11309700000.0 11309700000.0 11309700000.0 11309700000.0 11309700000.0 11309700000.0 11309700000.0 11309700000.0 11309700000.0 11309700000.0 11309700000.0 11309700000.0 11309700000.0 11309700000.0 11309700000.0 11309700000.0 11309700000.0 11309700000.0 11309700000.0 11309700000.0 11309700000.0 11309700000.0 11309700000.0 11309700000.0 11309700000.0 11309700000.0 11309700000.0 11309700000.0 11309700000.0 11309700000.0 11309700000.0 11309700000.0 11309700000.0 11309700000.0 11309700000.0 11309700000.0 11309700000.0 11309700000.0 11309700000.0 11309700000.0 11309700000.0 11309700000.0 11309700000.0 11309700000.0 11309700000.0 11309700000.0 11309700000.0 11309700000.0 11309700000.0 11309700000.0 11309700000.0 11309700000.0 11309700000.0 11309700000.0 11309700000.0 11309700000.0 11309700000.0 11309700000.0 11309700000.0 11309700000.0 11309700000.0 11309700000.0 11309700000.0 11309700000.0 11309700000.0 11309700000.0 11309700000.0 11309700000.0 11309700000.0 11309700000.0 11309700000.0 11309700000.0 11309700000.0 11309700000.0 11309700000.0 11309700000.0 11309700000.0 11309700000.0 11309700000.0 11309700000.0 11309700000.0 11309700000.0 11309700000.0 11309700000.0 11309700000.0 
SCALARS Velocity float 1
LOOKUP_TABLE default
1.05673 0.894025 0.894025 1.05673 0.715791 0.644714 1.34789 1.17832 1.21849 1.05212 0.897972 1.02611 1.01714 1.01714 1.02611 0.897972 1.05212 1.21849 1.17832 1.34789 0.644714 0.715791 0.742849 0.679092 0.889445 1.26117 0.948612 1.0573 1.08113 0.856589 0.97693 0.885838 0.97693 0.856589 1.08113 1.0573 0.948612 1.26117 0.889445 0.679092 0.742849 0.74437 0.72951 1.39079 0.909365 0.915591 1.16427 0.91772 0.992911 0.960675 1.01201 1.00523 0.98935 0.852514 0.976392 0.879909 0.976392 0.852514 0.98935 1.00523 1.01201 0.960675 0.992911 0.91772 1.16427 0.915591 0.909365 1.39079 0.72951 0.74437 0.740018 0.743401 0.744356 0.744588 0.694762 1.29677 0.924102 1.13635 0.976159 0.911227 0.970712 0.95939 0.95939 0.970712 0.911227 0.976159 1.13635 0.924102 1.29677 0.694762 0.744588 0.744356 0.743401 0.740018 0.720071 0.732767 0.740897 0.75255 0.748281 0.849362 1.1132 0.941489 0.962323 1.13411 0.989404 0.93825 0.99116 0.834222 0.973175 0.875443 0.973175 0.834222 0.99116 0.93825 0.989404 1.13411 0.962323 0.941489 1.1132 0.849362 0.748281 0.75255 0.740897 0.732767 0.720071 0.703132 0.730224 0.752412 0.763776 1.18308 0.91642 0.969532 1.0326 0.919867 1.13969 1.04435 1.0173 0.979269 0.979269 1.0173 1.04435 1.13969 0.919867 1.0326 0.969532 0.91642 1.18308 0.763776 0.752412 0.730224 0.703132 0.686869 0.712553 0.729101 0.744969 0.763735 0.768795 0.786075 0.764318 0.94649 1.02346 1.08404 0.978242 0.975798 1.05688 1.10828 0.94294 0.83878 0.869175 0.83878 0.94294 1.10828 1.05688 0.975798 0.978242 1.08404 1.02346 0.94649 0.764318 0.786075 0.768795 0.763735 0.744969 0.729101 0.712553 0.686869 0.677858 0.674744 0.691617 0.707369 0.751157 0.783565 0.841243 0.829054 0.890245 1.0762 0.96671 0.937308 1.06568 0.992665 0.95184 1.02654 0.834749 0.983949 0.857228 0.983949 0.834749 1.02654 0.95184 0.992665 1.06568 0.937308 0.96671 1.0762 0.890245 0.829054 0.841243 0.783565 0.751157 0.707369 0.691617 0.674744 0.677858 0.685854 0.680664 0.671434 0.683801 0.731351 0.7738 0.812966 0.864432 0.835784 0.863004 0.740414 1.11 1.0141 0.908774 0.984409 1.02437 0.983158 0.983158 1.02437 0.984409 0.908774 1.0141 1.11 0.740414 0.863004 0.835784 0.864432 0.812966 0.7738 0.731351 0.683801 0.671434 0.680664 0.685854 0.688048 0.68664 0.671803 0.667481 0.680053 0.706265 0.737298 0.758273 0.783958 0.797141 0.814311 0.829927 0.834489 0.800458 1.19459 1.06686 0.93025 0.858563 0.964862 0.799686 0.846315 0.799686 0.964862 0.858563 0.93025 1.06686 1.19459 0.800458 0.834489 0.829927 0.814311 0.797141 0.783958 0.758273 0.737298 0.706265 0.680053 0.667481 0.671803 0.68664 0.688048 0.68216 0.688796 0.691575 0.693365 0.662976 0.710934 0.769552 0.803417 0.821139 0.809076 0.693717 1.15329 0.979125 0.871411 0.842097 0.840875 0.872822 1.0538 0.750323 0.994434 0.830268 0.994434 0.750323 1.0538 0.872822 0.840874 0.842097 0.871411 0.979125 1.15329 0.693717 0.809076 0.821139 0.803417 0.769552 0.710934 0.662976 0.693365 0.691575 0.688796 0.68216 0.657602 0.670967 0.67142 0.683619 0.666481 0.680448 0.726086 0.752163 0.789089 0.795046 0.814469 0.811304 0.777256 0.754917 0.65794 1.0341 0.927719 0.849397 0.874425 1.03688 1.03688 0.874425 0.849397 0.927719 1.0341 0.65794 0.754917 0.777256 0.811304 0.814469 0.795046 0.789089 0.752163 0.726086 0.680448 0.666481 0.683619 0.67142 0.670967 0.657602 0.652353 0.656201 0.657078 0.671891 0.67732 0.642574 0.653672 0.685593 0.783951 0.810269 0.81043 0.814663 0.80901 0.785684 0.720467 1.11015 0.959272 0.921581 0.911802 0.922272 0.863817 0.713101 0.721175 0.713101 0.863816 0.922272 0.911802 0.921581 0.959272 1.11015 0.720467 0.785684 0.80901 0.814663 0.81043 0.810269 0.783951 0.685593 0.653672 0.642574 0.67732 0.671891 0.657078 0.656201 0.652353 0.648045 0.651848 0.632938 0.636838 0.645567 0.672373 0.637131 0.774167 0.817624 0.819792 0.792957 0.750001 0.644466 1.07246 1.00838 0.949755 0.916014 0.934578 0.757622 0.725584 1.02139 0.669207 1.02139 0.725584 0.757622 0.934578 0.916014 0.949755 1.00838 1.07246 0.644466 0.750001 0.792957 0.819792 0.817624 0.774167 0.637131 0.672373 0.645567 0.636838 0.632938 0.651848 0.648045 0.657864 0.647415 0.608257 0.622383 0.600756 0.629132 0.61193 0.611605 0.768865 0.761237 0.849363 0.831443 0.853106 0.830141 0.839608 0.820414 0.762975 0.739854 0.708283 0.647395 0.990878 0.921377 0.920463 0.915914 0.875913 0.863705 0.993016 0.993016 0.863705 0.875913 0.915914 0.920463 0.921377 0.990878 0.647395 0.708283 0.739854 0.762975 0.820414 0.839608 0.830141 0.853106 0.831443 0.849363 0.761237 0.768865 0.611605 0.61193 0.629132 0.600756 0.622383 0.608257 0.647415 0.657864 0.683965 0.669354 0.601758 0.572863 0.591527 0.532953 0.888526 0.891104 0.857882 0.8554 0.757321 0.754295 0.710966 1.04686 0.942424 0.915506 0.914206 0.906339 0.882123 0.848962 0.720442 0.848962 0.882123 0.906339 0.914206 0.915506 0.942424 1.04686 0.710966 0.754295 0.757321 0.8554 0.857882 0.891104 0.888526 0.532953 0.591527 0.572863 0.601758 0.669354 0.683965 0.549754 0.745595 0.696379 0.625688 0.627312 0.523418 0.552614 0.520107 0.562016 0.545421 0.540876 0.573382 0.650021 0.691215 0.937225 0.936995 0.896339 0.878498 0.753133 0.736792 0.655155 1.03055 0.974248 0.930639 0.907921 0.901276 0.846427 0.829916 0.889657 0.717213 0.889657 0.829916 0.846427 0.901276 0.907921 0.930639 0.974248 1.03055 0.655155 0.736792 0.753133 0.878498 0.896339 0.936995 0.937225 0.691215 0.650021 0.573382 0.540876 0.545421 0.562016 0.520107 0.552614 0.523418 0.627312 0.625688 0.696379 0.745595 0.549754 0.173529 1.84625 0.579521 0.539986 0.332177 0.480588 0.523176 0.552841 0.623345 0.694783 0.907978 0.905293 0.847644 0.76082 0.746817 0.726034 0.640559 0.945011 0.910306 0.892265 0.858159 0.830079 0.830079 0.858159 0.892265 0.910306 0.945011 0.640559 0.726034 0.746817 0.76082 0.847644 0.905293 0.907978 0.694783 0.623345 0.552841 0.523176 0.480588 0.332177 0.539987 0.579521 1.84625 0.173529 0.0814222 0.170365 0.308121 1.38284 0.818872 0.56865 0.423735 0.462535 0.469403 0.534037 0.547239 0.571298 0.662652 0.713549 0.900801 0.852578 0.758883 0.759197 0.828215 0.791116 0.942655 0.877358 0.905781 0.874505 0.891089 0.830427 0.782114 0.739217 0.719153 0.739217 0.782114 0.830427 0.891089 0.874505 0.905781 0.877358 0.942655 0.791116 0.828215 0.759197 0.758883 0.852578 0.900801 0.713549 0.662652 0.571298 0.547239 0.534037 0.469403 0.462535 0.423735 0.56865 0.818872 1.38284 0.308121 0.170365 0.081422 0.0230963 0.0698133 0.367309 1.42155 1.14632 0.686074 0.163805 0.769301 0.60371 0.580917 0.596122 0.572899 0.624664 0.684715 0.694286 0.550734 0.61635 0.674334 0.827278 0.743106 0.978365 0.933587 0.882553 0.794089 0.736915 0.712122 0.736915 0.794089 0.882553 0.933587 0.978365 0.743106 0.827278 0.674334 0.61635 0.550734 0.694286 0.684715 0.624664 0.572899 0.596122 0.580917 0.60371 0.769301 0.163805 0.686074 1.14632 1.42155 0.367309 0.0698131 0.0230962 0.0175682 0.0354595 0.0554421 1.39445 0.887164 0.563275 0.348392 0.829368 0.628611 0.61362 0.655009 0.687837 0.689091 0.797267 0.712031 0.650555 0.617865 0.794237 0.681582 0.743914 0.665137 1.03528 1.06649 0.881919 0.856263 0.811728 0.784902 0.754118 0.754118 0.784902 0.811728 0.856263 0.881919 1.06649 1.03528 0.665137 0.743914 0.681582 0.794237 0.617865 0.650555 0.712031 0.797267 0.689091 0.687837 0.655009 0.61362 0.628611 0.829368 0.348392 0.563275 0.887164 1.39445 0.0554421 0.0354594 0.0175683 0.0260062 0.063342 0.0935279 0.136938 0.29303 0.688838 0.944323 0.850164 0.783829 0.624137 0.850274 0.63026 0.590139 0.567877 0.500036 0.674329 0.713011 0.821853 0.824171 0.528657 0.643719 0.62532 0.961382 0.882126 0.869992 0.89309 1.03152 0.793168 0.727039 0.718526 0.733971 0.718526 0.727039 0.793168 1.03152 0.893089 0.869992 0.882126 0.961382 0.62532 0.643719 0.528657 0.824171 0.821853 0.71301 0.674329 0.500036 0.567877 0.590139 0.63026 0.850273 0.624137 0.783829 0.850164 0.944323 0.688838 0.29303 0.136938 0.0935279 0.063342 0.0260062 0.0755042 0.0681043 0.0496709 0.108396 0.174976 0.182723 0.744092 0.729529 0.493024 0.815256 0.633012 0.524824 0.492163 0.364727 0.567865 0.690977 0.657346 0.696327 0.829587 0.769626 0.682167 0.592341 0.77448 0.733183 1.02165 0.948501 0.858453 0.871321 1.06093 0.714712 0.714712 1.06093 0.871321 0.858453 0.948501 1.02165 0.733183 0.77448 0.592341 0.682167 0.769626 0.829587 0.696327 0.657346 0.690977 0.567865 0.364727 0.492163 0.524824 0.633012 0.815255 0.493024 0.729529 0.744092 0.182723 0.174976 0.108396 0.0496708 0.0681042 0.0755042 0.0558159 0.0440901 0.0796695 0.118961 0.609605 0.792195 0.676169 0.672267 0.680141 0.567042 0.498163 0.454285 0.466963 0.935093 0.70093 0.721937 0.685659 0.602867 0.49793 0.757322 0.637399 0.74738 0.610189 1.00119 0.877852 0.891893 0.866095 0.737456 0.692602 0.737456 0.866095 0.891893 0.877852 1.00119 0.610189 0.74738 0.637399 0.757322 0.49793 0.602867 0.685659 0.721937 0.70093 0.935093 0.466963 0.454285 0.498163 0.567042 0.680141 0.672267 0.676169 0.792195 0.609605 0.11896 0.0796695 0.0440901 0.0558159 0.169964 0.0490748 0.0426111 0.0443801 0.0870266 0.101305 0.112338 0.0450485 0.306769 0.731536 0.725443 0.608705 0.531994 0.478352 0.470557 1.16521 0.750461 0.616447 0.643468 0.729772 0.535667 0.645371 0.615467 0.942468 0.846509 0.890177 0.859329 0.890503 0.884209 0.813779 0.99954 0.619265 0.99954 0.813779 0.884209 0.890503 0.859329 0.890177 0.846509 0.942468 0.615467 0.645371 0.535667 0.729772 0.643468 0.616447 0.750461 1.16521 0.470557 0.478352 0.531994 0.608705 0.725443 0.731536 0.306769 0.0450485 0.112338 0.101305 0.0870266 0.0443801 0.0426111 0.0490748 0.169964 0.126289 0.108965 0.10236 0.123586 0.0697606 0.11088 0.093862 0.625749 0.75808 0.686381 0.650594 0.478179 0.551194 0.564021 0.716358 0.69873 0.628613 0.688307 0.68878 0.627714 0.764048 0.76614 0.902622 0.931531 0.869139 0.833884 0.841195 0.842485 0.914945 0.914945 0.842485 0.841195 0.833884 0.869139 0.931531 0.902622 0.76614 0.764048 0.627714 0.68878 0.688307 0.628613 0.69873 0.716358 0.564021 0.551194 0.478179 0.650594 0.686381 0.75808 0.625749 0.093862 0.11088 0.0697606 0.123586 0.10236 0.108965 0.126289 0.145963 0.127996 0.12581 0.191508 0.0967511 0.105623 0.116796 0.14162 0.228094 0.464002 0.640916 0.678323 0.66621 0.628169 0.564963 0.509652 0.600967 0.635182 0.708083 0.646632 0.721529 0.733615 0.717988 0.655114 0.844445 0.729993 0.817473 0.712618 0.939886 0.852845 0.878554 0.88082 0.792083 0.598882 0.792083 0.88082 0.878554 0.852845 0.939886 0.712618 0.817473 0.729993 0.844445 0.655114 0.717988 0.733615 0.721529 0.646632 0.708083 0.635182 0.600967 0.509652 0.564963 0.628169 0.66621 0.678323 0.640916 0.464002 0.228094 0.14162 0.116796 0.105623 0.096751 0.191508 0.12581 0.127996 0.145963 0.102499 0.0859646 0.173904 0.127425 0.166673 0.165145 0.185386 0.270953 0.690353 0.654725 0.652946 0.583727 0.536074 0.485547 0.603636 0.732555 0.697183 0.684162 0.721382 0.680491 0.780473 0.730846 0.91581 0.830631 0.869277 0.834326 0.866992 0.825688 0.720572 0.932788 0.658253 0.932788 0.720572 0.825688 0.866992 0.834326 0.869277 0.830631 0.915811 0.730846 0.780473 0.680491 0.721382 0.684162 0.697184 0.732555 0.603636 0.485547 0.536074 0.583727 0.652946 0.654725 0.690353 0.270953 0.185386 0.165145 0.166673 0.127425 0.173903 0.0859646 0.102499 0.993502 0.57431 0.181508 0.183093 0.160738 0.213679 0.233113 0.463754 0.707793 0.699149 0.610081 0.597294 0.55823 0.511855 0.662241 0.632013 0.642758 0.662984 0.688568 0.696329 0.716232 0.842217 0.812576 0.921259 0.848584 0.81048 0.829674 0.900346 0.93589 0.93589 0.900346 0.829674 0.81048 0.848584 0.921259 0.812576 0.842217 0.716232 0.696329 0.688568 0.662984 0.642758 0.632013 0.662241 0.511855 0.55823 0.597294 0.610081 0.699149 0.707793 0.463754 0.233113 0.213679 0.160738 0.183093 0.181508 0.57431 0.993502 0.767711 0.281962 0.235246 0.208639 0.218881 0.217755 0.315292 0.666235 0.65854 0.566301 0.545411 0.702443 0.661394 0.652805 0.659166 0.663942 0.694637 0.701187 0.728697 0.71669 0.711744 0.829491 0.807248 0.814813 0.76668 0.905777 0.835385 0.851896 0.869627 0.877056 0.715216 0.688232 0.715216 0.877056 0.869627 0.851896 0.835385 0.905777 0.76668 0.814813 0.807248 0.829491 0.711744 0.71669 0.728697 0.701187 0.694637 0.663942 0.659166 0.652805 0.661394 0.702443 0.545411 0.566301 0.65854 0.666235 0.315292 0.217755 0.218881 0.208639 0.235246 0.281962 0.767711 0.770413 0.267008 0.177865 0.258832 0.23821 0.675564 0.563269 0.688497 0.66836 0.665113 0.66521 0.680338 0.68827 0.736133 0.846992 0.802697 0.910492 0.80658 0.866469 0.829602 0.820025 0.860231 0.769888 0.935765 0.716062 0.935765 0.769888 0.860231 0.820025 0.829602 0.866469 0.80658 0.910492 0.802697 0.846992 0.736133 0.68827 0.680338 0.66521 0.665113 0.66836 0.688497 0.563269 0.675564 0.23821 0.258832 0.177865 0.267008 0.770413 0.81632 0.646568 0.348718 0.255092 0.231227 0.319186 0.572653 0.615466 0.695279 0.63966 0.631789 0.598239 0.544948 0.551592 0.724393 0.667977 0.67993 0.685147 0.693118 0.740007 0.755509 0.809671 0.823361 0.888452 0.860824 0.798205 0.822773 0.822773 0.798205 0.860824 0.888452 0.823361 0.809671 0.755509 0.740007 0.693118 0.685147 0.67993 0.667977 0.724393 0.551592 0.544948 0.598239 0.631789 0.63966 0.695279 0.615466 0.572653 0.319186 0.231227 0.255092 0.348718 0.646568 0.81632 0.840615 0.886541 0.501916 0.239659 0.58858 0.650797 0.601603 0.594252 0.556878 0.554358 0.732461 0.713133 0.683834 0.677013 0.69561 0.6921 0.75485 0.759939 0.770068 0.808284 0.844872 0.822427 0.82636 0.857738 0.893887 0.843498 0.858067 0.803949 0.949977 0.798586 0.937328 0.738879 0.937328 0.798586 0.949977 0.803949 0.858067 0.843498 0.893887 0.857738 0.82636 0.822427 0.844872 0.808284 0.770068 0.759939 0.75485 0.6921 0.69561 0.677013 0.683834 0.713133 0.732461 0.554357 0.556878 0.594252 0.601603 0.650797 0.58858 0.239659 0.501916 0.886541 0.840615 0.776783 0.32882 0.554093 0.569241 0.641039 0.638609 0.599595 0.570139 0.530935 0.747944 0.725562 0.696722 0.691768 0.703884 0.707638 0.705609 0.742072 0.872439 0.831056 0.810033 0.843019 0.827032 0.843406 0.846522 0.892583 0.837269 0.853184 0.859734 0.823011 0.788307 1.00179 0.829534 0.938177 0.757599 0.938177 0.829534 1.00179 0.788306 0.823011 0.859734 0.853184 0.837269 0.892583 0.846522 0.843406 0.827032 0.843019 0.810033 0.831056 0.872439 0.742072 0.705609 0.707638 0.703884 0.691768 0.696722 0.725562 0.747944 0.530935 0.570139 0.599595 0.638609 0.641039 0.569241 0.554093 0.32882 0.776783 0.628891 0.792754 0.561971 0.354576 0.522753 0.613519 0.610615 0.654198 0.632907 0.581489 0.760922 0.737527 0.702138 0.699753 0.704168 0.709854 0.712734 0.702781 0.700696 0.700696 0.702781 0.712734 0.709854 0.704168 0.699753 0.702138 0.737527 0.760922 0.581489 0.632907 0.654198 0.610615 0.613519 0.522753 0.354576 0.561971 0.792754 0.628891 0.557443 0.754001 0.636739 0.528433 0.603961 0.638513 0.616747 0.529341 0.702961 0.710379 0.719663 0.731024 0.722511 0.702244 0.697825 0.887228 0.849626 0.838615 0.836435 0.825069 0.847067 0.820743 0.874211 0.809602 0.850063 0.851447 0.813846 0.814288 1.01511 0.84293 0.939061 0.775191 0.939061 0.84293 1.01511 0.814288 0.813846 0.851447 0.850063 0.809602 0.874211 0.820743 0.847067 0.825069 0.836435 0.838615 0.849626 0.887228 0.697825 0.702244 0.722511 0.731024 0.719663 0.710379 0.702961 0.529341 0.616747 0.638513 0.603961 0.528433 0.636739 0.754001 0.557443 0.789278 0.668175 0.618333 0.561455 0.772478 0.74336 0.706603 0.700554 0.708479 0.698262 0.889036 0.880584 0.857796 0.840472 0.832645 0.849366 0.817885 0.866804 0.806445 0.883246 0.83438 0.9279 0.816651 0.928618 0.855846 0.929093 0.792857 0.929093 0.855846 0.928618 0.816651 0.9279 0.83438 0.883246 0.806445 0.866804 0.817885 0.849366 0.832645 0.840472 0.857796 0.880584 0.889036 0.698262 0.708479 0.700554 0.706603 0.74336 0.772478 0.561455 0.618333 0.668175 0.789278 0.783534 0.614011 0.735978 0.611129 0.646768 0.629465 0.607989 0.664479 0.611569 0.815967 0.762454 0.703109 0.695902 0.700118 0.710399 0.722559 0.735518 0.736299 0.736299 0.735518 0.722559 0.710399 0.700118 0.695902 0.703109 0.762454 0.815967 0.611569 0.664479 0.607989 0.629465 0.646768 0.611129 0.735978 0.614011 0.783534 0.770114 0.724096 0.828327 0.759412 0.681407 0.603305 0.626712 0.575537 0.664342 0.549466 0.643134 0.665802 0.689456 0.726129 0.741692 0.757179 0.765949 0.779207 0.776258 0.726216 0.664277 0.868748 0.905283 0.853229 0.811906 0.808752 0.815115 0.788522 0.836179 0.774371 0.856628 0.794137 0.901126 0.795619 0.933804 0.854709 0.928788 0.809483 0.928788 0.854709 0.933804 0.795619 0.901126 0.794137 0.856628 0.774371 0.836179 0.788522 0.815115 0.808752 0.811906 0.853229 0.905283 0.868748 0.664277 0.726216 0.776258 0.779207 0.765949 0.757179 0.741692 0.726129 0.689456 0.665802 0.643134 0.549466 0.664342 0.575537 0.626712 0.603305 0.681407 0.759412 0.828327 0.724096 0.770114 0.643727 0.727541 0.825102 0.822103 0.835394 0.671205 0.767178 0.780426 0.776022 0.79273 0.750717 0.718289 0.87572 0.885911 0.830754 0.874861 0.796225 0.864869 0.821617 0.918903 0.835383 0.921235 0.845888 0.927524 0.820835 0.924156 0.852805 0.922377 0.822818 0.922377 0.852805 0.924156 0.820835 0.927524 0.845888 0.921235 0.835383 0.918903 0.821617 0.864869 0.796225 0.874861 0.830754 0.885911 0.87572 0.718289 0.750717 0.79273 0.776022 0.780426 0.767179 0.671205 0.835394 0.822103 0.825102 0.727541 0.643727 0.562831 0.739154 0.635792 0.598115 0.657415 0.692276 0.718369 0.73938 0.759804 0.759804 0.73938 0.718369 0.692276 0.657415 0.598115 0.635792 0.739154 0.562831 0.743406 0.794426 0.810163 0.804008 0.794881 0.749888 0.791346 0.771305 0.647583 0.688499 0.622858 0.607995 0.660804 0.697995 0.717065 0.742686 0.769348 0.792256 0.83248 0.827585 0.797487 0.828028 0.884812 0.864219 0.898795 0.842289 0.911922 0.86234 0.972014 0.882134 0.963776 0.872401 0.943239 0.835699 0.929385 0.851902 0.923806 0.832923 0.923806 0.851902 0.929385 0.835699 0.943239 0.872401 0.963776 0.882134 0.972014 0.86234 0.911922 0.842289 0.898795 0.864219 0.884812 0.828028 0.797487 0.827585 0.83248 0.792256 0.769348 0.742686 0.717065 0.697995 0.660804 0.607995 0.622858 0.688499 0.647583 0.771305 0.791346 0.749888 0.794881 0.804008 0.810163 0.794426 0.743406 0.786042 0.871372 0.85599 0.836148 0.834503 0.837687 0.825389 0.796512 0.797643 0.761348 0.658866 0.629712 0.670979 0.702647 0.723749 0.752129 0.786962 0.8239 0.85889 0.900357 0.861164 0.901598 0.88457 0.90047 0.87603 0.899389 0.885458 0.898001 0.894701 0.897583 0.877511 0.895786 0.845682 0.894258 0.853316 0.893847 0.842819 0.893847 0.853316 0.894258 0.845682 0.895786 0.877511 0.897583 0.894701 0.898001 0.885458 0.899389 0.87603 0.90047 0.88457 0.901598 0.861164 0.900357 0.85889 0.8239 0.786962 0.752129 0.723749 0.702647 0.670979 0.629712 0.658866 0.761348 0.797643 0.796512 0.825389 0.837687 0.834503 0.836148 0.85599 0.871372 0.786042 0.633965 0.633965 0.893192 0.880818 0.8826 0.872353 0.873177 0.885283 0.874253 0.853078 0.858578 0.868551 0.86587 0.84623 0.843015 0.809012 0.812341 0.812069 0.825447 0.855072 0.880178 0.898204 0.930596 0.888023 0.920069 0.893201 0.912878 0.887795 0.907059 0.890549 0.902981 0.89441 0.900161 0.874418 0.897075 0.851501 0.895267 0.855078 0.894028 0.850589 0.894028 0.855078 0.895267 0.851501 0.897075 0.874418 0.900161 0.89441 0.902981 0.890549 0.907059 0.887795 0.912878 0.893201 0.920069 0.888023 0.930596 0.898204 0.880178 0.855072 0.825447 0.812069 0.812341 0.809012 0.843015 0.84623 0.86587 0.868551 0.858578 0.853078 0.874253 0.885283 0.873177 0.872353 0.8826 0.880818 0.893192 0.897894 0.884408 0.88774 0.874261 0.874956 0.891517 0.883705 0.869974 0.881009 0.867591 0.869857 0.881857 0.877223 0.887436 0.899228 0.894832 0.892868 0.894552 0.892186 0.894032 0.890092 0.893992 0.890225 0.894028 0.890658 0.893832 0.871097 0.893832 0.856386 0.893832 0.857843 0.893832 0.856777 0.893832 0.857843 0.893832 0.856386 0.893832 0.871097 0.893832 0.890658 0.894028 0.890225 0.893992 0.890092 0.894032 0.892186 0.894552 0.892868 0.894832 0.899228 0.887436 0.877223 0.881857 0.869857 0.867591 0.881009 0.869974 0.883705 0.891517 0.874956 0.874261 0.88774 0.884408 0.897894 0.894394 0.890402 0.895172 0.897525 0.862222 0.862222 0.897525 0.895172 0.890402 0.894394 0.897595 0.891383 0.88761 0.875768 0.873654 0.890448 0.886462 0.874693 0.887337 0.893329 0.885724 0.893029 0.894808 0.861143 0.864441 0.869604 0.877822 0.879575 0.889018 0.898502 0.895462 0.893163 0.894914 0.891129 0.894631 0.890441 0.893832 0.889994 0.893832 0.887501 0.893832 0.869511 0.893832 0.86076 0.893832 0.861094 0.893832 0.861821 0.893832 0.861094 0.893832 0.86076 0.893832 0.869511 0.893832 0.887501 0.893832 0.889994 0.893832 0.890441 0.894631 0.891129 0.894914 0.893163 0.895462 0.898502 0.889018 0.879575 0.877822 0.869604 0.864441 0.861143 0.894808 0.893029 0.885724 0.893329 0.887337 0.874693 0.886462 0.890448 0.873654 0.875768 0.88761 0.891383 0.897595 0.887941 0.873674 0.878984 0.889041 0.897188 0.893841 0.893832 0.893832 0.893832 0.893832 0.893832 0.869208 0.893832 0.864673 0.893832 0.864461 0.893832 0.866045 0.893832 0.864461 0.893832 0.864673 0.893832 0.869208 0.893832 0.893832 0.893832 0.893832 0.893832 0.893841 0.897188 0.889041 0.878984 0.873674 0.887941 0.897369 0.895756 0.879543 0.87445 0.889911 0.888514 0.879713 0.894297 0.891947 0.882265 0.888072 0.890591 0.857853 0.859306 0.866011 0.89212 0.890491 0.889722 0.889608 0.88512 0.88512 0.889608 0.889722 0.890491 0.89212 0.866011 0.859306 0.857853 0.890591 0.888072 0.882265 0.891947 0.894297 0.879713 0.888514 0.889911 0.87445 0.879543 0.895756 0.897369 0.897114 0.896215 0.88895 0.882604 0.877057 0.890559 0.890655 0.885106 0.898633 0.891473 0.881289 0.884746 0.888471 0.857234 0.856896 0.864222 0.871827 0.879566 0.8896 0.896082 0.893844 0.891202 0.893832 0.890096 0.893832 0.889071 0.893832 0.888796 0.893832 0.883404 0.893832 0.869766 0.893832 0.868187 0.893832 0.867797 0.893832 0.869668 0.893832 0.867797 0.893832 0.868187 0.893832 0.869766 0.893832 0.883404 0.893832 0.888796 0.893832 0.889071 0.893832 0.890096 0.893832 0.891202 0.893844 0.896082 0.8896 0.879566 0.871827 0.864222 0.856896 0.857234 0.888471 0.884746 0.881289 0.891473 0.898633 0.885106 0.890655 0.890559 0.877057 0.882604 0.88895 0.896215 0.897114 0.896835 0.895339 0.890024 0.884745 0.880361 0.891861 0.893083 0.889149 0.899689 0.891411 0.881901 0.883295 0.887472 0.858464 0.856963 0.864546 0.871821 0.880833 0.890386 0.895141 0.893832 0.890581 0.893832 0.889877 0.893832 0.888608 0.893832 0.887807 0.893832 0.882262 0.893832 0.870895 0.893832 0.871317 0.893832 0.870983 0.893832 0.872828 0.893832 0.870983 0.893832 0.871317 0.893832 0.870895 0.893832 0.882262 0.893832 0.887807 0.893832 0.888608 0.893832 0.889877 0.893832 0.890581 0.893832 0.895141 0.890386 0.880833 0.871821 0.864546 0.856963 0.858464 0.887472 0.883295 0.881901 0.891411 0.899689 0.889149 0.893083 0.891861 0.880361 0.884745 0.890024 0.895339 0.896835 0.896531 0.894512 0.890849 0.886493 0.883478 0.893122 0.895058 0.891609 0.898876 0.891312 0.883354 0.883189 0.886933 0.86093 0.85879 0.866361 0.872817 0.882101 0.891292 0.894358 0.893832 0.890196 0.893832 0.889771 0.893832 0.888271 0.893832 0.886931 0.893832 0.881623 0.893832 0.87238 0.893832 0.874078 0.893832 0.873942 0.893832 0.87561 0.893832 0.873942 0.893832 0.874078 0.893832 0.87238 0.893832 0.881623 0.893832 0.886931 0.893832 0.888271 0.893832 0.889771 0.893832 0.890196 0.893832 0.894358 0.891292 0.882101 0.872817 0.866361 0.85879 0.86093 0.886933 0.883189 0.883354 0.891312 0.898876 0.891609 0.895058 0.893122 0.883478 0.886493 0.890849 0.894512 0.896531 0.896207 0.893978 0.891382 0.888045 0.886054 0.893967 0.896299 0.893058 0.897454 0.891134 0.885009 0.883856 0.886656 0.864018 0.861612 0.868874 0.874262 0.883376 0.891796 0.893731 0.893832 0.889965 0.893832 0.889732 0.893832 0.887998 0.893832 0.88629 0.893832 0.881397 0.893832 0.874061 0.893832 0.876494 0.893832 0.876634 0.893832 0.878067 0.893832 0.876634 0.893832 0.876494 0.893832 0.874061 0.893832 0.881397 0.893832 0.88629 0.893832 0.887998 0.893832 0.889732 0.893832 0.889965 0.893832 0.893731 0.891796 0.883376 0.874262 0.868874 0.861612 0.864018 0.886656 0.883856 0.885009 0.891134 0.897454 0.893058 0.896299 0.893967 0.886054 0.888045 0.891382 0.893978 0.896207 0.895869 0.893678 0.89173 0.889368 0.888003 0.894307 0.896724 0.89394 0.89604 0.890876 0.886521 0.884845 0.886548 0.867284 0.864861 0.87157 0.875948 0.884702 0.89168 0.893261 0.893832 0.889847 0.893832 0.889729 0.893832 0.887773 0.893832 0.885895 0.893832 0.881496 0.893832 0.87582 0.893832 0.878608 0.893832 0.879047 0.893832 0.880239 0.893832 0.879047 0.893832 0.878608 0.893832 0.87582 0.893832 0.881496 0.893832 0.885895 0.893832 0.887773 0.893832 0.889729 0.893832 0.889847 0.893832 0.893261 0.89168 0.884702 0.875948 0.87157 0.864861 0.867284 0.886548 0.884845 0.886521 0.890876 0.89604 0.89394 0.896724 0.894307 0.888003 0.889368 0.89173 0.893678 0.895869 0.895522 0.893527 0.89196 0.89039 0.889368 0.894219 0.896437 0.894455 0.89483 0.89053 0.887783 0.88587 0.886522 0.870471 0.868196 0.87421 0.877754 0.885967 0.89122 0.892935 0.893832 0.889815 0.893832 0.889743 0.893832 0.887597 0.893832 0.885715 0.893832 0.881845 0.893832 0.877577 0.893832 0.880466 0.893832 0.881184 0.893832 0.882152 0.893832 0.881184 0.893832 0.880466 0.893832 0.877577 0.893832 0.881845 0.893832 0.885715 0.893832 0.887597 0.893832 0.889743 0.893832 0.889815 0.893832 0.892935 0.89122 0.885967 0.877754 0.87421 0.868196 0.870471 0.886522 0.88587 0.887783 0.89053 0.89483 0.894455 0.896437 0.894219 0.889368 0.89039 0.89196 0.893527 0.895522 0.895171 0.893452 0.892074 0.891098 0.890248 0.893829 0.895725 0.894684 0.893847 0.890144 0.888739 0.886727 0.886447 0.873401 0.8714 0.876669 0.879567 0.887065 0.890751 0.892726 0.893832 0.889841 0.893832 0.889766 0.893832 0.887486 0.893832 0.885712 0.893832 0.882376 0.893832 0.879276 0.893832 0.882113 0.893832 0.883059 0.893832 0.883833 0.893832 0.883059 0.893832 0.882113 0.893832 0.879276 0.893832 0.882376 0.893832 0.885712 0.893832 0.887486 0.893832 0.889766 0.893832 0.889841 0.893832 0.892726 0.890751 0.887065 0.879567 0.876669 0.8714 0.873401 0.886447 0.886727 0.888739 0.890144 0.893847 0.894684 0.895725 0.893829 0.890248 0.891098 0.892074 0.893452 0.895171 0.894823 0.893401 0.892102 0.891521 0.890765 0.893258 0.894863 0.894682 0.893069 0.889785 0.889341 0.887333 0.886217 0.875967 0.874326 0.878875 0.881305 0.88795 0.89044 0.892598 0.893832 0.889906 0.893832 0.889797 0.893832 0.887454 0.893832 0.885849 0.893832 0.883027 0.893832 0.88088 0.893832 0.883584 0.893832 0.884691 0.893832 0.885302 0.893832 0.884691 0.893832 0.883584 0.893832 0.88088 0.893832 0.883027 0.893832 0.885849 0.893832 0.887454 0.893832 0.889797 0.893832 0.889906 0.893832 0.892598 0.89044 0.88795 0.881305 0.878875 0.874326 0.875967 0.886217 0.887333 0.889341 0.889785 0.893069 0.894682 0.894863 0.893258 0.890765 0.891521 0.892102 0.893401 0.894823 0.894483 0.893349 0.892109 0.891715 0.891039 0.892622 0.894005 0.894493 0.892469 0.889492 0.889616 0.887731 0.885853 0.878141 0.876898 0.880814 0.882907 0.88863 0.890313 0.892517 0.893832 0.889992 0.893832 0.88984 0.893832 0.887508 0.893832 0.886095 0.893832 0.883749 0.893832 0.882368 0.893832 0.884908 0.893832 0.886104 0.893832 0.886579 0.893832 0.886104 0.893832 0.884908 0.893832 0.882368 0.893832 0.883749 0.893832 0.886095 0.893832 0.887508 0.893832 0.88984 0.893832 0.889992 0.893832 0.892517 0.890313 0.88863 0.882907 0.880814 0.876898 0.878141 0.885853 0.887731 0.889616 0.889492 0.892469 0.894493 0.894005 0.892622 0.891039 0.891715 0.892109 0.893349 0.894483 0.894155 0.893287 0.892144 0.891759 0.891156 0.892013 0.893214 0.894164 0.892015 0.889265 0.889659 0.888001 0.885464 0.879953 0.879098 0.882498 0.884341 0.88914 0.890341 0.89246 0.893832 0.89009 0.893832 0.889897 0.893832 0.88764 0.893832 0.886424 0.893832 0.884504 0.893832 0.883726 0.893832 0.886103 0.893832 0.887319 0.893832 0.887686 0.893832 0.887319 0.893832 0.886103 0.893832 0.883726 0.893832 0.884504 0.893832 0.886424 0.893832 0.88764 0.893832 0.889897 0.893832 0.89009 0.893832 0.89246 0.890341 0.88914 0.884341 0.882498 0.879098 0.879953 0.885464 0.888001 0.889659 0.889265 0.892015 0.894164 0.893214 0.892013 0.891156 0.891759 0.892144 0.893287 0.894155 0.893842 0.893215 0.892216 0.891733 0.891182 0.891485 0.892509 0.893746 0.891671 0.889093 0.889573 0.888194 0.885152 0.881453 0.88095 0.883943 0.885598 0.889525 0.890485 0.892414 0.893832 0.890194 0.893832 0.88997 0.893832 0.887835 0.893832 0.88681 0.893832 0.885265 0.893832 0.884954 0.893832 0.88718 0.893832 0.888361 0.893832 0.88864 0.893832 0.888361 0.893832 0.88718 0.893832 0.884954 0.893832 0.885265 0.893832 0.88681 0.893832 0.887835 0.893832 0.88997 0.893832 0.890194 0.893832 0.892414 0.890485 0.889525 0.885598 0.883943 0.88095 0.881453 0.885152 0.888194 0.889573 0.889093 0.891671 0.893746 0.892509 0.891485 0.891182 0.891733 0.892216 0.893215 0.893842 0.893549 0.893134 0.892312 0.891697 0.891165 0.891058 0.891894 0.893293 0.891404 0.888962 0.889426 0.888336 0.884967 0.882698 0.882497 0.885169 0.886679 0.889829 0.890711 0.892374 0.893832 0.890303 0.893832 0.89006 0.893832 0.888079 0.893832 0.887233 0.893832 0.886012 0.893832 0.886056 0.893832 0.888145 0.893832 0.889249 0.893832 0.889459 0.893832 0.889249 0.893832 0.888145 0.893832 0.886056 0.893832 0.886012 0.893832 0.887233 0.893832 0.888079 0.893832 0.89006 0.893832 0.890303 0.893832 0.892374 0.890711 0.889829 0.886679 0.885169 0.882497 0.882698 0.884967 0.888336 0.889426 0.888962 0.891404 0.893293 0.891894 0.891058 0.891165 0.891697 0.892312 0.893134 0.893549 0.893276 0.893045 0.892416 0.891679 0.891143 0.890733 0.891367 0.892846 0.891188 0.88886 0.889254 0.888434 0.884922 0.883736 0.883788 0.8862 0.887595 0.89009 0.890987 0.892337 0.893832 0.890414 0.893832 0.890165 0.893832 0.888355 0.893832 0.887674 0.893832 0.886731 0.893832 0.887039 0.893832 0.889003 0.893832 0.890004 0.893832 0.89016 0.893832 0.890004 0.893832 0.889003 0.893832 0.887039 0.893832 0.886731 0.893832 0.887674 0.893832 0.888355 0.893832 0.890165 0.893832 0.890414 0.893832 0.892337 0.890987 0.89009 0.887595 0.8862 0.883788 0.883736 0.884922 0.888434 0.889254 0.88886 0.891188 0.892846 0.891367 0.890733 0.891143 0.891679 0.892416 0.893045 0.893276 0.893025 0.892948 0.892512 0.891683 0.891139 0.8905 0.890925 0.892426 0.891008 0.888779 0.889075 0.888498 0.885004 0.884609 0.884874 0.887064 0.888363 0.890338 0.89129 0.892303 0.893832 0.890526 0.893832 0.890284 0.893832 0.888651 0.893832 0.88812 0.893832 0.887413 0.893832 0.887914 0.893832 0.88976 0.893832 0.890643 0.893832 0.890758 0.893832 0.890643 0.893832 0.88976 0.893832 0.887914 0.893832 0.887413 0.893832 0.88812 0.893832 0.888651 0.893832 0.890284 0.893832 0.890526 0.893832 0.892303 0.89129 0.890338 0.888363 0.887064 0.884874 0.884609 0.885004 0.888498 0.889075 0.888779 0.891008 0.892426 0.890925 0.8905 0.891139 0.891683 0.892512 0.892948 0.893025 0.889009 0.8916 0.893832 0.893832 0.893832 0.893832 0.888558 0.893832 0.888051 0.893832 0.888691 0.893832 0.890422 0.893832 0.891183 0.893832 0.891265 0.893832 0.891183 0.893832 0.890422 0.893832 0.888691 0.893832 0.888051 0.893832 0.888558 0.893832 0.893832 0.893832 0.893832 0.8916 0.889009 0.892798 0.892847 0.892592 0.891703 0.89116 0.890348 0.890562 0.892043 0.890852 0.888713 0.888899 0.888535 0.885195 0.885355 0.885797 0.887788 0.890585 0.892275 0.890641 0.890414 0.888955 0.888955 0.890414 0.890641 0.892275 0.890585 0.887788 0.885797 0.885355 0.885195 0.888535 0.888899 0.888713 0.890852 0.892043 0.890562 0.890348 0.89116 0.891703 0.892592 0.892847 0.892798 0.892593 0.892743 0.892651 0.891731 0.891206 0.890263 0.89027 0.891698 0.890714 0.888657 0.888733 0.888557 0.885473 0.886005 0.886591 0.888397 0.889557 0.890834 0.891903 0.892252 0.893832 0.890756 0.893832 0.89055 0.893832 0.889258 0.893832 0.88898 0.893832 0.888643 0.893832 0.88938 0.893832 0.890995 0.893832 0.891638 0.893832 0.891695 0.893832 0.891638 0.893832 0.890995 0.893832 0.88938 0.893832 0.888643 0.893832 0.88898 0.893832 0.889258 0.893832 0.89055 0.893832 0.890756 0.893832 0.892252 0.891903 0.890834 0.889557 0.888397 0.886591 0.886005 0.885473 0.888557 0.888733 0.888657 0.890714 0.891698 0.89027 0.890263 0.891206 0.891731 0.892651 0.892743 0.892593 0.892411 0.892641 0.892688 0.891761 0.891274 0.890234 0.890042 0.891391 0.890591 0.888607 0.888585 0.888572 0.885814 0.886581 0.887283 0.888914 0.890032 0.891079 0.892188 0.892235 0.893832 0.890871 0.893832 0.89069 0.893832 0.889554 0.893832 0.88938 0.893832 0.889187 0.893832 0.889989 0.893832 0.891486 0.893832 0.892019 0.893832 0.892056 0.893832 0.892019 0.893832 0.891486 0.893832 0.889989 0.893832 0.889187 0.893832 0.88938 0.893832 0.889554 0.893832 0.89069 0.893832 0.890871 0.893832 0.892235 0.892188 0.891079 0.890032 0.888914 0.887283 0.886581 0.885814 0.888572 0.888585 0.888607 0.890591 0.891391 0.890042 0.890234 0.891274 0.891761 0.892688 0.892641 0.892411 0.89225 0.892543 0.892704 0.891788 0.891358 0.890249 0.889871 0.891121 0.890481 0.888563 0.888457 0.888588 0.886199 0.8871 0.887893 0.889357 0.89045 0.891314 0.892449 0.892225 0.893832 0.890985 0.893832 0.890828 0.893832 0.889838 0.893832 0.889753 0.893832 0.889683 0.893832 0.890526 0.893832 0.891904 0.893832 0.892338 0.893832 0.89236 0.893832 0.892338 0.893832 0.891904 0.893832 0.890526 0.893832 0.889683 0.893832 0.889753 0.893832 0.889838 0.893832 0.890828 0.893832 0.890985 0.893832 0.892225 0.892449 0.891314 0.89045 0.889357 0.887893 0.8871 0.886199 0.888588 0.888457 0.888563 0.890481 0.891121 0.889871 0.890249 0.891358 0.891788 0.892704 0.892543 0.89225 0.892111 0.892451 0.892702 0.891808 0.891451 0.890297 0.889746 0.890884 0.890384 0.888521 0.888354 0.888612 0.886608 0.887575 0.888435 0.889742 0.890823 0.891532 0.892682 0.89222 0.893832 0.891097 0.893832 0.890963 0.893832 0.890104 0.893832 0.890098 0.893832 0.890134 0.893832 0.890998 0.893832 0.892256 0.893832 0.892604 0.893832 0.892614 0.893832 0.892604 0.893832 0.892256 0.893832 0.890998 0.893832 0.890134 0.893832 0.890098 0.893832 0.890104 0.893832 0.890963 0.893832 0.891097 0.893832 0.89222 0.892682 0.891532 0.890823 0.889742 0.888435 0.887575 0.886608 0.888612 0.888354 0.888521 0.890384 0.890884 0.889746 0.890297 0.891451 0.891808 0.892702 0.892451 0.892111 0.89199 0.892368 0.892685 0.891822 0.891549 0.890368 0.889662 0.890679 0.890299 0.888482 0.888276 0.888645 0.887024 0.888011 0.888919 0.89008 0.891161 0.891731 0.892886 0.89222 0.893832 0.891205 0.893832 0.891091 0.893832 0.890351 0.893832 0.890412 0.893832 0.890539 0.893832 0.89141 0.893832 0.892551 0.893832 0.892824 0.893832 0.892826 0.893832 0.892824 0.893832 0.892551 0.893832 0.89141 0.893832 0.890539 0.893832 0.890412 0.893832 0.890351 0.893832 0.891091 0.893832 0.891205 0.893832 0.89222 0.892886 0.891731 0.891161 0.89008 0.888919 0.888011 0.887024 0.888645 0.888276 0.888482 0.890299 0.890679 0.889662 0.890368 0.891549 0.891822 0.892685 0.892368 0.89199 0.891887 0.892294 0.892657 0.891829 0.891648 0.890456 0.889609 0.890502 0.890226 0.888443 0.888221 0.888689 0.887434 0.88841 0.889353 0.890379 0.891465 0.891909 0.893061 0.892224 0.893832 0.891308 0.893832 0.89121 0.893832 0.890577 0.893832 0.890696 0.893832 0.8909 0.893832 0.891769 0.893832 0.892795 0.893832 0.893007 0.893832 0.893002 0.893832 0.893007 0.893832 0.892795 0.893832 0.891769 0.893832 0.8909 0.893832 0.890696 0.893832 0.890577 0.893832 0.89121 0.893832 0.891308 0.893832 0.892224 0.893061 0.891909 0.891465 0.890379 0.889353 0.88841 0.887434 0.888689 0.888221 0.888443 0.890226 0.890502 0.889609 0.890456 0.891648 0.891829 0.892657 0.892294 0.891887 0.8918 0.89223 0.892621 0.89183 0.891743 0.890552 0.889581 0.89035 0.890162 0.888406 0.888187 0.888743 0.887824 0.888774 0.889739 0.890644 0.891739 0.892064 0.89321 0.892232 0.893832 0.891404 0.893832 0.891319 0.893832 0.890781 0.893832 0.89095 0.893832 0.891221 0.893832 0.892079 0.893832 0.892996 0.893832 0.893157 0.893832 0.893146 0.893832 0.893157 0.893832 0.892996 0.893832 0.892079 0.893832 0.891221 0.893832 0.89095 0.893832 0.890781 0.893832 0.891319 0.893832 0.891404 0.893832 0.892232 0.89321 0.892064 0.891739 0.890644 0.889739 0.888774 0.887824 0.888743 0.888187 0.888406 0.890162 0.89035 0.889581 0.890552 0.891743 0.89183 0.892621 0.89223 0.8918 0.891728 0.892175 0.892582 0.891825 0.891831 0.890651 0.889572 0.890222 0.890107 0.888369 0.888171 0.888804 0.888186 0.889101 0.89008 0.890877 0.891983 0.892196 0.893334 0.89224 0.893832 0.891493 0.893832 0.891416 0.893832 0.890962 0.893832 0.891174 0.893832 0.891501 0.893832 0.892344 0.893832 0.893159 0.893832 0.893279 0.893832 0.893265 0.893832 0.893279 0.893832 0.893159 0.893832 0.892344 0.893832 0.891501 0.893832 0.891174 0.893832 0.890962 0.893832 0.891416 0.893832 0.891493 0.893832 0.89224 0.893334 0.892196 0.891983 0.890877 0.89008 0.889101 0.888186 0.888804 0.888171 0.888369 0.890107 0.890222 0.889572 0.890651 0.891831 0.891825 0.892582 0.892175 0.891728 0.891668 0.892128 0.892541 0.891817 0.891912 0.890747 0.889575 0.890115 0.890061 0.888335 0.888168 0.888869 0.888513 0.88939 0.890378 0.891081 0.892196 0.892308 0.893435 0.89225 0.893832 0.891572 0.893832 0.891502 0.893832 0.89112 0.893832 0.891368 0.893832 0.891743 0.893832 0.892568 0.893832 0.89329 0.893832 0.893378 0.893832 0.893361 0.893832 0.893378 0.893832 0.89329 0.893832 0.892568 0.893832 0.891743 0.893832 0.891368 0.893832 0.89112 0.893832 0.891502 0.893832 0.891572 0.893832 0.89225 0.893435 0.892308 0.892196 0.891081 0.890378 0.88939 0.888513 0.888869 0.888168 0.888335 0.890061 0.890115 0.889575 0.890747 0.891912 0.891817 0.892541 0.892128 0.891668 0.89162 0.89209 0.892502 0.891807 0.891982 0.890836 0.889587 0.890027 0.890023 0.888303 0.888175 0.888933 0.8888 0.88964 0.890634 0.891255 0.892378 0.8924 0.893517 0.89226 0.893832 0.891641 0.893832 0.891575 0.893832 0.891255 0.893832 0.891534 0.893832 0.891947 0.893832 0.892754 0.893832 0.893394 0.893832 0.893457 0.893832 0.893438 0.893832 0.893457 0.893832 0.893394 0.893832 0.892754 0.893832 0.891947 0.893832 0.891534 0.893832 0.891255 0.893832 0.891575 0.893832 0.891641 0.893832 0.89226 0.893517 0.8924 0.892378 0.891255 0.890634 0.88964 0.8888 0.888933 0.888175 0.888303 0.890023 0.890027 0.889587 0.890836 0.891982 0.891807 0.892502 0.89209 0.89162 0.891583 0.89206 0.892466 0.891796 0.892042 0.890915 0.889603 0.889956 0.889991 0.888274 0.888187 0.888994 0.889042 0.88985 0.890846 0.891401 0.892528 0.892473 0.893581 0.892269 0.893832 0.8917 0.893832 0.891636 0.893832 0.891367 0.893832 0.891671 0.893832 0.892116 0.893832 0.892904 0.893832 0.893475 0.893832 0.893518 0.893832 0.893498 0.893832 0.893518 0.893832 0.893475 0.893832 0.892904 0.893832 0.892116 0.893832 0.891671 0.893832 0.891367 0.893832 0.891636 0.893832 0.8917 0.893832 0.892269 0.893581 0.892473 0.892528 0.891401 0.890846 0.88985 0.889042 0.888994 0.888187 0.888274 0.889991 0.889956 0.889603 0.890915 0.892042 0.891796 0.892466 0.89206 0.891583 0.891554 0.892036 0.892436 0.891785 0.89209 0.890982 0.889619 0.889901 0.889966 0.88825 0.888201 0.889046 0.889238 0.890018 0.891016 0.891517 0.892648 0.89253 0.893629 0.892277 0.893832 0.891747 0.893832 0.891685 0.893832 0.891456 0.893832 0.89178 0.893832 0.89225 0.893832 0.893021 0.893832 0.893536 0.893832 0.893565 0.893832 0.893544 0.893832 0.893565 0.893832 0.893536 0.893832 0.893021 0.893832 0.89225 0.893832 0.89178 0.893832 0.891456 0.893832 0.891685 0.893832 0.891747 0.893832 0.892277 0.893629 0.89253 0.892648 0.891517 0.891016 0.890018 0.889238 0.889046 0.888201 0.88825 0.889966 0.889901 0.889619 0.890982 0.89209 0.891785 0.892436 0.892036 0.891554 0.891533 0.892019 0.892412 0.891776 0.892126 0.891033 0.889634 0.88986 0.889947 0.888231 0.888214 0.889089 0.889386 0.890144 0.891143 0.891605 0.892738 0.892571 0.893664 0.892283 0.893832 0.891783 0.893832 0.891721 0.893832 0.891523 0.893832 0.891862 0.893832 0.89235 0.893832 0.893108 0.893832 0.89358 0.893832 0.893599 0.893832 0.893576 0.893832 0.893599 0.893832 0.89358 0.893832 0.893108 0.893832 0.89235 0.893832 0.891862 0.893832 0.891523 0.893832 0.891721 0.893832 0.891783 0.893832 0.892283 0.893664 0.892571 0.892738 0.891605 0.891143 0.890144 0.889386 0.889089 0.888214 0.888231 0.889947 0.88986 0.889634 0.891033 0.892126 0.891776 0.892412 0.892019 0.891533 0.89152 0.892008 0.892396 0.89177 0.892151 0.891068 0.889644 0.889834 0.889934 0.888218 0.888224 0.889118 0.889485 0.890228 0.891228 0.891663 0.892797 0.892598 0.893686 0.892287 0.893832 0.891807 0.893832 0.891746 0.893832 0.891568 0.893832 0.891916 0.893832 0.892416 0.893832 0.893164 0.893832 0.893608 0.893832 0.89362 0.893832 0.893598 0.893832 0.89362 0.893832 0.893608 0.893832 0.893164 0.893832 0.892416 0.893832 0.891916 0.893832 0.891568 0.893832 0.891746 0.893832 0.891807 0.893832 0.892287 0.893686 0.892598 0.892797 0.891663 0.891228 0.890228 0.889485 0.889118 0.888224 0.888218 0.889934 0.889834 0.889644 0.891068 0.892151 0.89177 0.892396 0.892008 0.89152 0.891514 0.892002 0.892387 0.891767 0.892163 0.891086 0.88965 0.889821 0.889928 0.888211 0.888229 0.889134 0.889534 0.89027 0.891271 0.891692 0.892827 0.892611 0.893697 0.892289 0.893832 0.891819 0.893832 0.891758 0.893832 0.89159 0.893832 0.891943 0.893832 0.892449 0.893832 0.893193 0.893832 0.893621 0.893832 0.893631 0.893832 0.893608 0.893832 0.893631 0.893832 0.893621 0.893832 0.893193 0.893832 0.892449 0.893832 0.891943 0.893832 0.89159 0.893832 0.891758 0.893832 0.891819 0.893832 0.892289 0.893697 0.892611 0.892827 0.891692 0.891271 0.89027 0.889534 0.889134 0.888229 0.888211 0.889928 0.889821 0.88965 0.891086 0.892163 0.891767 0.892387 0.892002 0.891514 
SCALARS Axial_Stress float 1
LOOKUP_TABLE default
-57766900000.0 -9039650000.0 -9039650000.0 -57766900000.0 -1.55325e+12 -1.26228e+12 -1.23877e+12 -307076000000.0 -117822000000.0 -125616000000.0 -100179000000.0 -64194800000.0 -48206000000.0 -48206000000.0 -64194800000.0 -100179000000.0 -125616000000.0 -117822000000.0 -307076000000.0 -1.23877e+12 -1.26228e+12 -1.55325e+12 -1.66407e+12 -2.9162e+12 -1.05712e+12 -242627000000.0 -66991000000.0 -194512000000.0 -95664400000.0 -79955600000.0 -60311800000.0 -72682800000.0 -60311800000.0 -79955600000.0 -95664400000.0 -194512000000.0 -66991000000.0 -242627000000.0 -1.05712e+12 -2.9162e+12 -1.66407e+12 -1.76149e+12 -3.02876e+12 -1.70576e+12 -1.3757e+12 -1.18987e+12 -605249000000.0 -333265000000.0 -114648000000.0 -226784000000.0 -208020000000.0 -275508000000.0 -93318300000.0 -50727800000.0 -35389300000.0 -35779500000.0 -35389100000.0 -50727600000.0 -93318400000.0 -275508000000.0 -208020000000.0 -226784000000.0 -114648000000.0 -333265000000.0 -605249000000.0 -1.18987e+12 -1.3757e+12 -1.70576e+12 -3.02876e+12 -1.76149e+12 -1.85798e+12 -3.2329e+12 -3.11027e+12 -2.85866e+12 -2.79543e+12 -1.84286e+12 -1.33513e+12 -737604000000.0 -446429000000.0 -324614000000.0 -395176000000.0 -52209900000.0 -52210000000.0 -395176000000.0 -324614000000.0 -446429000000.0 -737604000000.0 -1.33513e+12 -1.84286e+12 -2.79543e+12 -2.85866e+12 -3.11027e+12 -3.2329e+12 -1.85798e+12 -2.02908e+12 -1.94859e+12 -3.36348e+12 -2.99045e+12 -2.48829e+12 -1.38633e+12 -1.45685e+12 -650971000000.0 -392835000000.0 -100838000000.0 -145456000000.0 -129404000000.0 -126532000000.0 -26606600000.0 -65632000000.0 -29014500000.0 -65632000000.0 -26606600000.0 -126532000000.0 -129404000000.0 -145457000000.0 -100838000000.0 -392835000000.0 -650971000000.0 -1.45685e+12 -1.38633e+12 -2.48829e+12 -2.99045e+12 -3.36348e+12 -1.94859e+12 -2.02908e+12 -2.09563e+12 -3.49062e+12 -3.12664e+12 -2.71387e+12 -1.83691e+12 -1.52904e+12 -1.41183e+12 -1.31845e+12 -817068000000.0 -228126000000.0 -187774000000.0 -205705000000.0 -112793000000.0 -112793000000.0 -205704000000.0 -187774000000.0 -228126000000.0 -817068000000.0 -1.31845e+12 -1.41183e+12 -1.52904e+12 -1.83691e+12 -2.71387e+12 -3.12664e+12 -3.49062e+12 -2.09563e+12 -2.14764e+12 -3.60563e+12 -3.38931e+12 -3.26173e+12 -3.02222e+12 -2.87416e+12 -2.61943e+12 -2.46412e+12 -2.01733e+12 -1.05894e+12 -1.25619e+12 -1.36944e+12 -1.80368e+12 -575429000000.0 -260019000000.0 -281812000000.0 -51009500000.0 -18749700000.0 -51009500000.0 -281812000000.0 -260019000000.0 -575429000000.0 -1.80368e+12 -1.36944e+12 -1.25619e+12 -1.05894e+12 -2.01733e+12 -2.46412e+12 -2.61943e+12 -2.87416e+12 -3.02222e+12 -3.26173e+12 -3.38931e+12 -3.60563e+12 -2.14764e+12 -2.19106e+12 -3.77087e+12 -3.70112e+12 -3.50309e+12 -3.16148e+12 -2.77583e+12 -2.34788e+12 -1.86387e+12 -261800000000.0 -1.3418e+12 -1.01928e+12 -360177000000.0 -324769000000.0 -266909000000.0 -239225000000.0 -178164000000.0 -44502200000.0 -156477000000.0 -33908500000.0 -156477000000.0 -44502200000.0 -178164000000.0 -239225000000.0 -266909000000.0 -324769000000.0 -360177000000.0 -1.01928e+12 -1.3418e+12 -261800000000.0 -1.86387e+12 -2.34788e+12 -2.77583e+12 -3.16148e+12 -3.50309e+12 -3.70112e+12 -3.77087e+12 -2.19106e+12 -2.29463e+12 -2.23815e+12 -3.8138e+12 -3.59654e+12 -3.29233e+12 -2.92176e+12 -2.52532e+12 -2.11056e+12 -2.04996e+12 -1.93056e+12 -2.30487e+12 -1.63825e+12 -1.34436e+12 -1.06498e+12 -269176000000.0 -191335000000.0 -193325000000.0 -193325000000.0 -191335000000.0 -269176000000.0 -1.06498e+12 -1.34436e+12 -1.63825e+12 -2.30487e+12 -1.93056e+12 -2.04996e+12 -2.11056e+12 -2.52532e+12 -2.92176e+12 -3.29233e+12 -3.59654e+12 -3.8138e+12 -2.23815e+12 -2.29463e+12 -2.34638e+12 -3.83989e+12 -3.69861e+12 -3.66317e+12 -3.51517e+12 -3.41211e+12 -3.20142e+12 -3.06281e+12 -2.81581e+12 -2.67438e+12 -2.43733e+12 -2.30438e+12 -2.1639e+12 -2.25521e+12 -2.08407e+12 -1.76096e+12 -1.10745e+12 -898499000000.0 -222887000000.0 -61580000000.0 -40937700000.0 -61580000000.0 -222887000000.0 -898499000000.0 -1.10745e+12 -1.76096e+12 -2.08407e+12 -2.25521e+12 -2.1639e+12 -2.30438e+12 -2.43733e+12 -2.67438e+12 -2.81581e+12 -3.06281e+12 -3.20142e+12 -3.41211e+12 -3.51517e+12 -3.66317e+12 -3.69861e+12 -3.83989e+12 -2.34638e+12 -2.37472e+12 -3.858e+12 -3.8581e+12 -3.70476e+12 -3.58944e+12 -3.33889e+12 -2.96032e+12 -2.56339e+12 -2.26152e+12 -2.18295e+12 -2.21419e+12 -1.70677e+12 -1.4576e+12 -928720000000.0 -765484000000.0 -732984000000.0 -556776000000.0 -183602000000.0 -75583200000.0 -218596000000.0 -45780400000.0 -218596000000.0 -75583200000.0 -183602000000.0 -556776000000.0 -732984000000.0 -765484000000.0 -928720000000.0 -1.4576e+12 -1.70677e+12 -2.21419e+12 -2.18295e+12 -2.26152e+12 -2.56339e+12 -2.96032e+12 -3.33889e+12 -3.58944e+12 -3.70476e+12 -3.8581e+12 -3.858e+12 -2.37472e+12 -2.33018e+12 -2.36597e+12 -3.83712e+12 -3.70388e+12 -3.61131e+12 -3.46996e+12 -3.28813e+12 -3.11445e+12 -2.84454e+12 -2.69557e+12 -2.33252e+12 -2.17957e+12 -2.16431e+12 -2.23285e+12 -2.14678e+12 -1.57466e+12 -1.29122e+12 -595631000000.0 -225298000000.0 -293608000000.0 -293608000000.0 -225298000000.0 -595631000000.0 -1.29122e+12 -1.57466e+12 -2.14678e+12 -2.23285e+12 -2.16431e+12 -2.17957e+12 -2.33252e+12 -2.69557e+12 -2.84454e+12 -3.11445e+12 -3.28813e+12 -3.46996e+12 -3.61131e+12 -3.70388e+12 -3.83712e+12 -2.36597e+12 -2.33018e+12 -2.261e+12 -3.80236e+12 -3.6742e+12 -3.50076e+12 -3.55636e+12 -3.5734e+12 -3.57001e+12 -3.48181e+12 -3.01941e+12 -2.54999e+12 -2.42956e+12 -2.18479e+12 -2.19888e+12 -2.12012e+12 -2.1578e+12 -1.45644e+12 -1.36163e+12 -1.19015e+12 -1.10545e+12 -927681000000.0 -400121000000.0 -219086000000.0 -109590000000.0 -219086000000.0 -400121000000.0 -927681000000.0 -1.10545e+12 -1.19015e+12 -1.36163e+12 -1.45644e+12 -2.1578e+12 -2.12012e+12 -2.19888e+12 -2.18479e+12 -2.42956e+12 -2.54999e+12 -3.01941e+12 -3.48181e+12 -3.57001e+12 -3.5734e+12 -3.55636e+12 -3.50076e+12 -3.6742e+12 -3.80236e+12 -2.261e+12 -2.02941e+12 -2.13932e+12 -3.81157e+12 -3.81956e+12 -3.62838e+12 -3.33177e+12 -3.66833e+12 -3.24629e+12 -2.70585e+12 -2.25645e+12 -2.10264e+12 -2.09305e+12 -2.07678e+12 -1.28545e+12 -1.40788e+12 -1.24351e+12 -1.02428e+12 -724548000000.0 -309811000000.0 -221593000000.0 -235832000000.0 -122666000000.0 -235832000000.0 -221593000000.0 -309811000000.0 -724548000000.0 -1.02428e+12 -1.24351e+12 -1.40788e+12 -1.28545e+12 -2.07678e+12 -2.09305e+12 -2.10264e+12 -2.25645e+12 -2.70585e+12 -3.24629e+12 -3.66833e+12 -3.33177e+12 -3.62838e+12 -3.81956e+12 -3.81157e+12 -2.13932e+12 -2.02941e+12 -1.9853e+12 -3.68023e+12 -3.65713e+12 -3.61021e+12 -3.45051e+12 -3.38212e+12 -3.01189e+12 -3.64615e+12 -3.80029e+12 -3.53943e+12 -3.17066e+12 -2.89613e+12 -2.54934e+12 -2.37276e+12 -2.0285e+12 -1.94241e+12 -2.01544e+12 -2.00732e+12 -2.04482e+12 -2.00534e+12 -1.27742e+12 -1.09814e+12 -861557000000.0 -707899000000.0 -608561000000.0 -583995000000.0 -115793000000.0 -115793000000.0 -583995000000.0 -608561000000.0 -707899000000.0 -861557000000.0 -1.09814e+12 -1.27742e+12 -2.00534e+12 -2.04482e+12 -2.00732e+12 -2.01544e+12 -1.94241e+12 -2.0285e+12 -2.37276e+12 -2.54934e+12 -2.89613e+12 -3.17066e+12 -3.53943e+12 -3.80029e+12 -3.64615e+12 -3.01189e+12 -3.38212e+12 -3.45051e+12 -3.61021e+12 -3.65713e+12 -3.68023e+12 -1.9853e+12 -1.98542e+12 -3.48187e+12 -3.68874e+12 -3.3926e+12 -3.16467e+12 -2.2369e+12 -3.4846e+12 -2.71336e+12 -2.1893e+12 -1.51079e+12 -2.01794e+12 -1.88892e+12 -1.84973e+12 -1.14921e+12 -1.15318e+12 -1.0304e+12 -952853000000.0 -823461000000.0 -661000000000.0 -477648000000.0 -92775300000.0 -477648000000.0 -661000000000.0 -823461000000.0 -952853000000.0 -1.0304e+12 -1.15318e+12 -1.14921e+12 -1.84973e+12 -1.88892e+12 -2.01794e+12 -1.51079e+12 -2.1893e+12 -2.71336e+12 -3.4846e+12 -2.2369e+12 -3.16467e+12 -3.3926e+12 -3.68874e+12 -3.48187e+12 -1.98542e+12 -1.83606e+12 -2.78946e+12 -3.23716e+12 -3.34448e+12 -3.53566e+12 -3.67011e+12 -3.5343e+12 -3.08891e+12 -3.33548e+12 -2.9874e+12 -2.76153e+12 -2.34177e+12 -1.76247e+12 -1.68288e+12 -2.96933e+12 -2.43338e+12 -2.34202e+12 -1.85386e+12 -2.26518e+12 -1.82126e+12 -1.98128e+12 -1.05175e+12 -1.19234e+12 -1.09135e+12 -904442000000.0 -707773000000.0 -588534000000.0 -477169000000.0 -327531000000.0 -524999000000.0 -327531000000.0 -477169000000.0 -588534000000.0 -707773000000.0 -904442000000.0 -1.09135e+12 -1.19234e+12 -1.05175e+12 -1.98128e+12 -1.82126e+12 -2.26518e+12 -1.85386e+12 -2.34202e+12 -2.43338e+12 -2.96933e+12 -1.68288e+12 -1.76247e+12 -2.34177e+12 -2.76153e+12 -2.9874e+12 -3.33548e+12 -3.08891e+12 -3.5343e+12 -3.67011e+12 -3.53566e+12 -3.34448e+12 -3.23716e+12 -2.78945e+12 -1.83606e+12 -2.30273e+12 -2.15443e+12 -3.03671e+12 -3.56412e+12 -4.07212e+12 -3.42718e+12 -3.29843e+12 -2.70813e+12 -1.98873e+12 -1.74088e+12 -2.37847e+12 -1.83434e+12 -1.50995e+12 -1.48662e+12 -2.16075e+12 -1.25448e+12 -1.36139e+12 -1.13286e+12 -1.01538e+12 -788561000000.0 -675787000000.0 -615732000000.0 -615732000000.0 -675788000000.0 -788561000000.0 -1.01538e+12 -1.13286e+12 -1.36139e+12 -1.25448e+12 -2.16075e+12 -1.48662e+12 -1.50995e+12 -1.83434e+12 -2.37847e+12 -1.74088e+12 -1.98873e+12 -2.70813e+12 -3.29843e+12 -3.42718e+12 -4.07212e+12 -3.56412e+12 -3.03671e+12 -2.15443e+12 -2.30273e+12 -2.4143e+12 -2.52615e+12 -3.96469e+12 -2.26866e+12 -2.5038e+12 -3.41078e+12 -4.14315e+12 -3.77135e+12 -2.00428e+12 -4.37923e+12 -3.10532e+12 -2.25231e+12 -1.7735e+12 -1.9603e+12 -1.9061e+12 -957367000000.0 -2.51061e+12 -1.30564e+12 -1.26169e+12 -1.06943e+12 -1.19702e+12 -861704000000.0 -809481000000.0 -768037000000.0 -711369000000.0 -680970000000.0 -609798000000.0 -575271000000.0 -606275000000.0 -575271000000.0 -609798000000.0 -680970000000.0 -711369000000.0 -768037000000.0 -809481000000.0 -861704000000.0 -1.19702e+12 -1.06943e+12 -1.26169e+12 -1.30564e+12 -2.51061e+12 -957367000000.0 -1.9061e+12 -1.9603e+12 -1.7735e+12 -2.25231e+12 -3.10532e+12 -4.37923e+12 -2.00428e+12 -3.77135e+12 -4.14315e+12 -3.41078e+12 -2.5038e+12 -2.26866e+12 -3.96469e+12 -2.52615e+12 -2.4143e+12 -2.23771e+12 -4.08837e+12 -4.17408e+12 -2.26668e+12 -2.23597e+12 -2.69354e+12 -5.35129e+12 -2.75917e+12 -3.7511e+12 -2.19365e+12 -2.38257e+12 -2.14657e+12 -1.9526e+12 -1.4925e+12 -2.34119e+12 -1.9764e+12 -1.3135e+12 -1.76726e+12 -2.36367e+12 -1.72464e+12 -1.58009e+12 -689852000000.0 -705670000000.0 -672187000000.0 -626486000000.0 -641318000000.0 -626486000000.0 -672187000000.0 -705670000000.0 -689852000000.0 -1.58009e+12 -1.72464e+12 -2.36367e+12 -1.76726e+12 -1.3135e+12 -1.9764e+12 -2.34119e+12 -1.4925e+12 -1.9526e+12 -2.14657e+12 -2.38257e+12 -2.19365e+12 -3.7511e+12 -2.75917e+12 -5.35129e+12 -2.69354e+12 -2.23597e+12 -2.26668e+12 -4.17408e+12 -4.08837e+12 -2.23771e+12 -2.0227e+12 -3.79453e+12 -3.84565e+12 -2.08288e+12 -1.89888e+12 -3.21624e+12 -3.8565e+12 -4.34537e+12 -1.87101e+12 -2.0421e+12 -1.75169e+12 -1.31933e+12 -797261000000.0 -2.2639e+12 -1.75139e+12 -794909000000.0 -1.39125e+12 -1.83655e+12 -1.39979e+12 -1.89975e+12 -1.15642e+12 -1.45228e+12 -848701000000.0 -922827000000.0 -792513000000.0 -705351000000.0 -745298000000.0 -673614000000.0 -673614000000.0 -745298000000.0 -705351000000.0 -792513000000.0 -922827000000.0 -848701000000.0 -1.45228e+12 -1.15642e+12 -1.89975e+12 -1.39979e+12 -1.83655e+12 -1.39125e+12 -794909000000.0 -1.75139e+12 -2.2639e+12 -797261000000.0 -1.31933e+12 -1.75169e+12 -2.0421e+12 -1.87101e+12 -4.34537e+12 -3.8565e+12 -3.21624e+12 -1.89888e+12 -2.08288e+12 -3.84565e+12 -3.79453e+12 -2.0227e+12 -1.79423e+12 -3.09626e+12 -3.44022e+12 -3.39896e+12 -3.76425e+12 -1.79335e+12 -2.04053e+12 -2.81548e+12 -1.82986e+12 -2.50139e+12 -3.36785e+12 -3.25011e+12 -3.07537e+12 -2.20594e+12 -2.57694e+12 -1.70083e+12 -359687000000.0 -324769000000.0 -1.83257e+12 -1.03258e+12 -1.13798e+12 -1.14895e+12 -940583000000.0 -891075000000.0 -876942000000.0 -936592000000.0 -657334000000.0 -693769000000.0 -656716000000.0 -654231000000.0 -699626000000.0 -654231000000.0 -656716000000.0 -693769000000.0 -657334000000.0 -936592000000.0 -876942000000.0 -891075000000.0 -940583000000.0 -1.14895e+12 -1.13798e+12 -1.03258e+12 -1.83257e+12 -324769000000.0 -359686000000.0 -1.70083e+12 -2.57694e+12 -2.20594e+12 -3.07537e+12 -3.25011e+12 -3.36785e+12 -2.50139e+12 -1.82986e+12 -2.81548e+12 -2.04053e+12 -1.79335e+12 -3.76425e+12 -3.39896e+12 -3.44022e+12 -3.09626e+12 -1.79423e+12 -1.31221e+12 -1.55518e+12 -2.77744e+12 -3.03112e+12 -3.25836e+12 -2.84596e+12 -2.11993e+12 -3.73681e+12 -4.19027e+12 -2.42135e+12 -2.93937e+12 -3.08542e+12 -2.90916e+12 -3.61678e+12 -2.91714e+12 -1.64316e+12 -1.95935e+12 -1.65396e+12 -836421000000.0 -1.2417e+12 -1.49997e+12 -1.35861e+12 -1.08843e+12 -1.32086e+12 -1.01125e+12 -741562000000.0 -732303000000.0 -662638000000.0 -690548000000.0 -677928000000.0 -677928000000.0 -690548000000.0 -662638000000.0 -732303000000.0 -741562000000.0 -1.01125e+12 -1.32086e+12 -1.08843e+12 -1.35861e+12 -1.49997e+12 -1.2417e+12 -836421000000.0 -1.65396e+12 -1.95935e+12 -1.64316e+12 -2.91714e+12 -3.61678e+12 -2.90916e+12 -3.08542e+12 -2.93937e+12 -2.42135e+12 -4.19027e+12 -3.73681e+12 -2.11993e+12 -2.84596e+12 -3.25836e+12 -3.03112e+12 -2.77744e+12 -1.55518e+12 -1.31221e+12 -1.07943e+12 -2.44467e+12 -2.72724e+12 -2.86192e+12 -1.60337e+12 -2.47433e+12 -2.685e+12 -2.84517e+12 -2.50479e+12 -2.65617e+12 -2.62087e+12 -2.65149e+12 -1.94052e+12 -1.34793e+12 -2.48045e+12 -1.50869e+12 -990038000000.0 -1.10876e+12 -928551000000.0 -888743000000.0 -878314000000.0 -808553000000.0 -888111000000.0 -382260000000.0 -559765000000.0 -638602000000.0 -651701000000.0 -848622000000.0 -570794000000.0 -848622000000.0 -651701000000.0 -638602000000.0 -559765000000.0 -382260000000.0 -888112000000.0 -808553000000.0 -878314000000.0 -888743000000.0 -928551000000.0 -1.10876e+12 -990038000000.0 -1.50869e+12 -2.48045e+12 -1.34793e+12 -1.94052e+12 -2.65149e+12 -2.62087e+12 -2.65617e+12 -2.50479e+12 -2.84517e+12 -2.685e+12 -2.47433e+12 -1.60337e+12 -2.86192e+12 -2.72724e+12 -2.44467e+12 -1.07943e+12 -805083000000.0 -2.10271e+12 -2.11593e+12 -2.42268e+12 -2.35783e+12 -2.62847e+12 -2.47376e+12 -2.48466e+12 -1.81353e+12 -1.69987e+12 -952890000000.0 -2.28423e+12 -2.27747e+12 -2.25997e+12 -2.07188e+12 -1.79926e+12 -865974000000.0 -1.63027e+12 -1.07897e+12 -703799000000.0 -923902000000.0 -766156000000.0 -835872000000.0 -495603000000.0 -572871000000.0 -360895000000.0 -481576000000.0 -414273000000.0 -314401000000.0 -510062000000.0 -542385000000.0 -855327000000.0 -542385000000.0 -510062000000.0 -314401000000.0 -414273000000.0 -481576000000.0 -360895000000.0 -572871000000.0 -495603000000.0 -835872000000.0 -766156000000.0 -923902000000.0 -703800000000.0 -1.07897e+12 -1.63027e+12 -865974000000.0 -1.79926e+12 -2.07188e+12 -2.25997e+12 -2.27747e+12 -2.28423e+12 -952890000000.0 -1.69987e+12 -1.81353e+12 -2.48466e+12 -2.47376e+12 -2.62847e+12 -2.35783e+12 -2.42268e+12 -2.11593e+12 -2.10271e+12 -805083000000.0 -553691000000.0 -1.17798e+12 -1.72995e+12 -1.77589e+12 -2.10424e+12 -2.2661e+12 -2.34174e+12 -1.37703e+12 -1.17643e+12 -2.34363e+12 -2.41269e+12 -1.81845e+12 -2.19134e+12 -2.52126e+12 -1.22069e+12 -968903000000.0 -964166000000.0 -764788000000.0 -704905000000.0 -738287000000.0 -274040000000.0 -332461000000.0 -26479400000.0 -689351000000.0 -154638000000.0 -456553000000.0 -374489000000.0 -231409000000.0 -162494000000.0 -162494000000.0 -231409000000.0 -374489000000.0 -456553000000.0 -154638000000.0 -689351000000.0 -26479400000.0 -332461000000.0 -274040000000.0 -738287000000.0 -704905000000.0 -764788000000.0 -964166000000.0 -968903000000.0 -1.22069e+12 -2.52126e+12 -2.19134e+12 -1.81845e+12 -2.41269e+12 -2.34363e+12 -1.17643e+12 -1.37703e+12 -2.34174e+12 -2.2661e+12 -2.10424e+12 -1.77589e+12 -1.72995e+12 -1.17798e+12 -553691000000.0 -50599900000.0 -229246000000.0 -715319000000.0 -1.46185e+12 -1.84184e+12 -2.03223e+12 -2.17796e+12 -2.12545e+12 -2.26387e+12 -2.12902e+12 -2.33698e+12 -1.51671e+12 -2.08741e+12 -2.05999e+12 -1.97094e+12 -1.92392e+12 -2.0511e+12 -1.63511e+12 -1.13842e+12 -946111000000.0 -1.08093e+12 -1.05145e+12 -1.16864e+12 -1.182e+12 -1.1885e+12 -1.18492e+12 -1.22896e+12 -1.26892e+12 -914310000000.0 -624304000000.0 -347096000000.0 -291930000000.0 -374950000000.0 -674253000000.0 -374950000000.0 -291930000000.0 -347096000000.0 -624304000000.0 -914310000000.0 -1.26892e+12 -1.22896e+12 -1.18492e+12 -1.1885e+12 -1.182e+12 -1.16864e+12 -1.05145e+12 -1.08093e+12 -946111000000.0 -1.13842e+12 -1.63511e+12 -2.0511e+12 -1.92392e+12 -1.97094e+12 -2.05999e+12 -2.08741e+12 -1.51671e+12 -2.33698e+12 -2.12902e+12 -2.26387e+12 -2.12545e+12 -2.17796e+12 -2.03223e+12 -1.84184e+12 -1.46185e+12 -715319000000.0 -229246000000.0 -50599900000.0 -751749000000.0 -1.45465e+12 -1.63055e+12 -1.85687e+12 -1.77004e+12 -1.9843e+12 -1.97104e+12 -1.42395e+12 -1.88095e+12 -1.58495e+12 -1.76164e+12 -1.71878e+12 -1.61274e+12 -1.38695e+12 -2.02849e+12 -1.24973e+12 -1.33072e+12 -1.51584e+12 -855740000000.0 -844172000000.0 -709335000000.0 -669483000000.0 -525833000000.0 -340001000000.0 -469368000000.0 -284608000000.0 -322418000000.0 -181627000000.0 -329276000000.0 -18602800000.0 -493975000000.0 -18602800000.0 -329276000000.0 -181627000000.0 -322418000000.0 -284608000000.0 -469368000000.0 -340001000000.0 -525833000000.0 -669483000000.0 -709335000000.0 -844172000000.0 -855740000000.0 -1.51584e+12 -1.33072e+12 -1.24973e+12 -2.02849e+12 -1.38695e+12 -1.61274e+12 -1.71878e+12 -1.76164e+12 -1.58495e+12 -1.88095e+12 -1.42395e+12 -1.97104e+12 -1.9843e+12 -1.77004e+12 -1.85687e+12 -1.63055e+12 -1.45465e+12 -751749000000.0 -211828000000.0 -100845000000.0 -1.34934e+12 -996215000000.0 -1.69449e+12 -1.78091e+12 -1.99672e+12 -1.70995e+12 -1.07144e+12 -1.37661e+12 -1.42252e+12 -1.4738e+12 -1.39855e+12 -1.17366e+12 -2.02544e+12 -1.87432e+12 -1.67602e+12 -1.62493e+12 -1.11782e+12 -1.09898e+12 -880978000000.0 -877831000000.0 -1.10674e+12 -539800000000.0 -756780000000.0 -314218000000.0 -59157800000.0 -9167920000.0 -43913600000.0 -43913600000.0 -9167920000.0 -59157800000.0 -314218000000.0 -756780000000.0 -539800000000.0 -1.10674e+12 -877831000000.0 -880978000000.0 -1.09898e+12 -1.11782e+12 -1.62493e+12 -1.67602e+12 -1.87432e+12 -2.02544e+12 -1.17366e+12 -1.39855e+12 -1.4738e+12 -1.42253e+12 -1.37661e+12 -1.07144e+12 -1.70995e+12 -1.99672e+12 -1.78091e+12 -1.69449e+12 -996215000000.0 -1.34934e+12 -100845000000.0 -211828000000.0 -120461000000.0 -781143000000.0 -1.57774e+12 -1.35847e+12 -1.94009e+12 -2.26184e+12 -143156000000.0 -1.54546e+12 -1.29345e+12 -1.22535e+12 -1.03894e+12 -1.8602e+12 -1.71122e+12 -1.52774e+12 -1.37212e+12 -1.20999e+12 -1.05896e+12 -773186000000.0 -777058000000.0 -637385000000.0 -618837000000.0 -619800000000.0 -512731000000.0 -883601000000.0 -586173000000.0 -455013000000.0 -329020000000.0 -572773000000.0 -476078000000.0 -257406000000.0 -230642000000.0 -414959000000.0 -230642000000.0 -257406000000.0 -476078000000.0 -572773000000.0 -329019000000.0 -455013000000.0 -586173000000.0 -883601000000.0 -512731000000.0 -619800000000.0 -618837000000.0 -637385000000.0 -777058000000.0 -773186000000.0 -1.05896e+12 -1.20999e+12 -1.37212e+12 -1.52774e+12 -1.71122e+12 -1.8602e+12 -1.03894e+12 -1.22535e+12 -1.29345e+12 -1.54546e+12 -143156000000.0 -2.26184e+12 -1.94009e+12 -1.35847e+12 -1.57774e+12 -781143000000.0 -120461000000.0 -228206000000.0 -730024000000.0 -1.59219e+12 -1.4319e+12 -1.76317e+12 -1.18202e+12 -1.27322e+12 -1.48042e+12 -1.37117e+12 -1.17571e+12 -892547000000.0 -838667000000.0 -795425000000.0 -530386000000.0 -375087000000.0 -564796000000.0 -247928000000.0 -263282000000.0 -272579000000.0 -250629000000.0 -257316000000.0 -92268300000.0 -196684000000.0 -49481900000.0 -339178000000.0 -49481900000.0 -196684000000.0 -92267900000.0 -257316000000.0 -250629000000.0 -272579000000.0 -263282000000.0 -247928000000.0 -564796000000.0 -375087000000.0 -530386000000.0 -795425000000.0 -838667000000.0 -892547000000.0 -1.17571e+12 -1.37117e+12 -1.48042e+12 -1.27322e+12 -1.18202e+12 -1.76317e+12 -1.4319e+12 -1.59219e+12 -730024000000.0 -228206000000.0 -134772000000.0 -500420000000.0 -1.39399e+12 -1.61586e+12 -206557000000.0 -1.25175e+12 -1.43825e+12 -2.08745e+12 -865788000000.0 -1.26698e+12 -1.22271e+12 -1.19515e+12 -1.0857e+12 -913567000000.0 -1.59646e+12 -769163000000.0 -675504000000.0 -558620000000.0 -457387000000.0 -370571000000.0 -470731000000.0 -350612000000.0 -650511000000.0 -191848000000.0 -331750000000.0 -191537000000.0 -104056000000.0 -104056000000.0 -191537000000.0 -331750000000.0 -191848000000.0 -650511000000.0 -350612000000.0 -470731000000.0 -370571000000.0 -457387000000.0 -558620000000.0 -675504000000.0 -769163000000.0 -1.59646e+12 -913567000000.0 -1.0857e+12 -1.19515e+12 -1.22271e+12 -1.26698e+12 -865788000000.0 -2.08745e+12 -1.43825e+12 -1.25175e+12 -206557000000.0 -1.61586e+12 -1.39399e+12 -500420000000.0 -134771000000.0 -133382000000.0 -72304200000.0 -1.04802e+12 -1.57841e+12 -1.59262e+12 -1.1032e+12 -1.07942e+12 -1.18064e+12 -1.03979e+12 -755757000000.0 -1.29966e+12 -1.22428e+12 -1.24362e+12 -1.07324e+12 -958169000000.0 -835505000000.0 -724053000000.0 -664751000000.0 -473180000000.0 -606811000000.0 -627653000000.0 -548067000000.0 -534358000000.0 -457181000000.0 -309019000000.0 -441050000000.0 -338380000000.0 -228729000000.0 -77400900000.0 -191879000000.0 -120486000000.0 -349965000000.0 -120485000000.0 -191879000000.0 -77400700000.0 -228729000000.0 -338380000000.0 -441050000000.0 -309019000000.0 -457181000000.0 -534358000000.0 -548067000000.0 -627653000000.0 -606811000000.0 -473180000000.0 -664751000000.0 -724053000000.0 -835505000000.0 -958169000000.0 -1.07324e+12 -1.24362e+12 -1.22428e+12 -1.29966e+12 -755757000000.0 -1.03979e+12 -1.18064e+12 -1.07942e+12 -1.1032e+12 -1.59262e+12 -1.57841e+12 -1.04802e+12 -72304200000.0 -133382000000.0 -341317000000.0 -1.00923e+12 -529237000000.0 -1.27663e+12 -1.26854e+12 -1.05253e+12 -902320000000.0 -1.10487e+12 -789439000000.0 -1.00932e+12 -970955000000.0 -1.12667e+12 -1.04877e+12 -965277000000.0 -1.05568e+12 -1.06697e+12 -397432000000.0 -269288000000.0 -320150000000.0 -469424000000.0 -400791000000.0 -396589000000.0 -484594000000.0 -197560000000.0 -293978000000.0 -219665000000.0 -188709000000.0 -172690000000.0 -232258000000.0 -252282000000.0 -76204600000.0 -131729000000.0 -59122600000.0 -242655000000.0 -59122600000.0 -131729000000.0 -76204600000.0 -252282000000.0 -232258000000.0 -172690000000.0 -188709000000.0 -219665000000.0 -293978000000.0 -197560000000.0 -484594000000.0 -396589000000.0 -400791000000.0 -469424000000.0 -320150000000.0 -269288000000.0 -397432000000.0 -1.06697e+12 -1.05568e+12 -965278000000.0 -1.04877e+12 -1.12667e+12 -970955000000.0 -1.00932e+12 -789439000000.0 -1.10487e+12 -902320000000.0 -1.05253e+12 -1.26854e+12 -1.27663e+12 -529237000000.0 -1.00923e+12 -341317000000.0 -192956000000.0 -367233000000.0 -917573000000.0 -1.12202e+12 -703844000000.0 -443678000000.0 -1.13677e+12 -1.09687e+12 -946979000000.0 -748917000000.0 -863929000000.0 -713732000000.0 -936672000000.0 -926555000000.0 -876454000000.0 -848963000000.0 -731126000000.0 -603360000000.0 -521176000000.0 -521176000000.0 -603360000000.0 -731126000000.0 -848963000000.0 -876454000000.0 -926555000000.0 -936672000000.0 -713732000000.0 -863930000000.0 -748917000000.0 -946979000000.0 -1.09687e+12 -1.13677e+12 -443678000000.0 -703844000000.0 -1.12202e+12 -917573000000.0 -367233000000.0 -192956000000.0 -390338000000.0 -462988000000.0 -535126000000.0 -766788000000.0 -549517000000.0 -416385000000.0 -989276000000.0 -964258000000.0 -763140000000.0 -761719000000.0 -754086000000.0 -834341000000.0 -929965000000.0 -943998000000.0 -947976000000.0 -933768000000.0 -881507000000.0 -622227000000.0 -552940000000.0 -387646000000.0 -417262000000.0 -381097000000.0 -284986000000.0 -369153000000.0 -190899000000.0 -302884000000.0 -190571000000.0 -357886000000.0 -214571000000.0 -329924000000.0 -246191000000.0 -434958000000.0 -246191000000.0 -329924000000.0 -214571000000.0 -357886000000.0 -190571000000.0 -302885000000.0 -190899000000.0 -369153000000.0 -284986000000.0 -381097000000.0 -417262000000.0 -387646000000.0 -552940000000.0 -622227000000.0 -881507000000.0 -933768000000.0 -947976000000.0 -943998000000.0 -929965000000.0 -834341000000.0 -754086000000.0 -761719000000.0 -763140000000.0 -964258000000.0 -989276000000.0 -416385000000.0 -549517000000.0 -766788000000.0 -535126000000.0 -462988000000.0 -390338000000.0 -284954000000.0 -966087000000.0 -873881000000.0 -743116000000.0 -793449000000.0 -802593000000.0 -694059000000.0 -784421000000.0 -608469000000.0 -562811000000.0 -338206000000.0 -392673000000.0 -419565000000.0 -421773000000.0 -389523000000.0 -343193000000.0 -275765000000.0 -281508000000.0 -269630000000.0 -249249000000.0 -287859000000.0 -157065000000.0 -274348000000.0 -24554900000.0 -170193000000.0 -17510400000.0 -222388000000.0 -17510400000.0 -170193000000.0 -24554900000.0 -274348000000.0 -157065000000.0 -287859000000.0 -249249000000.0 -269629000000.0 -281508000000.0 -275765000000.0 -343193000000.0 -389523000000.0 -421773000000.0 -419565000000.0 -392673000000.0 -338206000000.0 -562811000000.0 -608469000000.0 -784421000000.0 -694059000000.0 -802593000000.0 -793450000000.0 -743116000000.0 -873881000000.0 -966087000000.0 -284954000000.0 -100904000000.0 -372308000000.0 -301817000000.0 -526656000000.0 -456319000000.0 -330251000000.0 -836379000000.0 -801433000000.0 -885141000000.0 -220495000000.0 -896613000000.0 -636900000000.0 -585864000000.0 -572033000000.0 -596442000000.0 -610031000000.0 -601534000000.0 -547663000000.0 -547663000000.0 -601534000000.0 -610031000000.0 -596441000000.0 -572033000000.0 -585864000000.0 -636900000000.0 -896613000000.0 -220495000000.0 -885141000000.0 -801433000000.0 -836379000000.0 -330251000000.0 -456319000000.0 -526656000000.0 -301817000000.0 -372308000000.0 -100904000000.0 -195888000000.0 -258786000000.0 -172534000000.0 -145788000000.0 -528922000000.0 -352802000000.0 -284092000000.0 -626402000000.0 -727128000000.0 -501065000000.0 -275996000000.0 -1.12754e+12 -873623000000.0 -766048000000.0 -604715000000.0 -479720000000.0 -379266000000.0 -313901000000.0 -242865000000.0 -225712000000.0 -127920000000.0 -44701200000.0 -19588800000.0 -203874000000.0 -37543200000.0 -179101000000.0 -24418900000.0 -100966000000.0 -29333600000.0 -117402000000.0 -36739800000.0 -188004000000.0 -72177700000.0 -278227000000.0 -112769000000.0 -268394000000.0 -136076000000.0 -316284000000.0 -136076000000.0 -268394000000.0 -112769000000.0 -278227000000.0 -72177700000.0 -188004000000.0 -36739800000.0 -117402000000.0 -29333600000.0 -100966000000.0 -24418900000.0 -179101000000.0 -37543200000.0 -203874000000.0 -19588800000.0 -44701200000.0 -127920000000.0 -225712000000.0 -242865000000.0 -313901000000.0 -379266000000.0 -479720000000.0 -604715000000.0 -766048000000.0 -873623000000.0 -1.12754e+12 -275996000000.0 -501065000000.0 -727128000000.0 -626402000000.0 -284092000000.0 -352802000000.0 -528922000000.0 -145788000000.0 -172534000000.0 -258786000000.0 -195888000000.0 -92327300000.0 -174289000000.0 -138019000000.0 -106546000000.0 -243805000000.0 -320170000000.0 -207240000000.0 -219676000000.0 -282516000000.0 -182790000000.0 -80542800000.0 -140260000000.0 -14950300000.0 -11692400000.0 -120337000000.0 -87934600000.0 -84046600000.0 -90324400000.0 -79760500000.0 -22550200000.0 -82898900000.0 -27331000000.0 -149619000000.0 -26069100000.0 -192827000000.0 -20066600000.0 -162677000000.0 -16183000000.0 -180337000000.0 -16183000000.0 -162677000000.0 -20066600000.0 -192827000000.0 -26069100000.0 -149619000000.0 -27331000000.0 -82898900000.0 -22550200000.0 -79760500000.0 -90324500000.0 -84046600000.0 -87934600000.0 -120337000000.0 -11692400000.0 -14950300000.0 -140260000000.0 -80542800000.0 -182790000000.0 -282516000000.0 -219676000000.0 -207240000000.0 -320170000000.0 -243805000000.0 -106546000000.0 -138019000000.0 -174289000000.0 -92327300000.0 -445820000000.0 -545465000000.0 -512405000000.0 -597034000000.0 -637980000000.0 -468609000000.0 -465731000000.0 -437904000000.0 -362660000000.0 -362660000000.0 -437904000000.0 -465731000000.0 -468610000000.0 -637980000000.0 -597034000000.0 -512405000000.0 -545465000000.0 -445820000000.0 -115641000000.0 -79755800000.0 -115602000000.0 -155653000000.0 -174637000000.0 -175620000000.0 -170164000000.0 -188191000000.0 -199268000000.0 -399544000000.0 -408803000000.0 -423879000000.0 -380946000000.0 -405992000000.0 -370071000000.0 -321949000000.0 -258316000000.0 -192815000000.0 -162281000000.0 -184458000000.0 -237887000000.0 -242330000000.0 -241520000000.0 -166344000000.0 -167769000000.0 -206125000000.0 -179899000000.0 -210636000000.0 -154883000000.0 -212562000000.0 -145602000000.0 -276490000000.0 -162488000000.0 -321187000000.0 -174675000000.0 -315058000000.0 -178388000000.0 -325751000000.0 -178388000000.0 -315058000000.0 -174675000000.0 -321187000000.0 -162488000000.0 -276490000000.0 -145602000000.0 -212562000000.0 -154883000000.0 -210636000000.0 -179899000000.0 -206125000000.0 -167769000000.0 -166344000000.0 -241520000000.0 -242330000000.0 -237887000000.0 -184458000000.0 -162281000000.0 -192815000000.0 -258316000000.0 -321949000000.0 -370071000000.0 -405992000000.0 -380946000000.0 -423879000000.0 -408803000000.0 -399544000000.0 -199267000000.0 -188191000000.0 -170164000000.0 -175620000000.0 -174637000000.0 -155653000000.0 -115602000000.0 -79755800000.0 -115641000000.0 -66607600000.0 -98154300000.0 -152325000000.0 -204786000000.0 -221896000000.0 -183491000000.0 -202602000000.0 -228932000000.0 -196558000000.0 -175472000000.0 -200766000000.0 -201505000000.0 -324424000000.0 -312582000000.0 -262452000000.0 -208971000000.0 -145148000000.0 -83746700000.0 -19976500000.0 -15337700000.0 -51259200000.0 -14496400000.0 -49409400000.0 -16640000000.0 -76857300000.0 -14342900000.0 -80475000000.0 -13968200000.0 -97280700000.0 -14832700000.0 -153065000000.0 -12712400000.0 -165976000000.0 -10509600000.0 -153854000000.0 -9050340000.0 -153627000000.0 -9050340000.0 -153854000000.0 -10509600000.0 -165976000000.0 -12712400000.0 -153065000000.0 -14832700000.0 -97280700000.0 -13968200000.0 -80475000000.0 -14342900000.0 -76857300000.0 -16640000000.0 -49409400000.0 -14496400000.0 -51259200000.0 -15337700000.0 -19976500000.0 -83746700000.0 -145148000000.0 -208971000000.0 -262452000000.0 -312582000000.0 -324424000000.0 -201505000000.0 -200766000000.0 -175472000000.0 -196558000000.0 -228932000000.0 -202602000000.0 -183491000000.0 -221896000000.0 -204786000000.0 -152325000000.0 -98154300000.0 -66607600000.0 -204223000000.0 -204223000000.0 -15771000000.0 -28991900000.0 -43202100000.0 -78000800000.0 -95592400000.0 -53786000000.0 -55292900000.0 -76957000000.0 -56504900000.0 -76080700000.0 -111601000000.0 -120471000000.0 -150403000000.0 -317239000000.0 -385483000000.0 -397376000000.0 -385640000000.0 -345751000000.0 -281252000000.0 -212526000000.0 -175859000000.0 -182571000000.0 -127202000000.0 -144548000000.0 -90057400000.0 -134979000000.0 -64558500000.0 -120143000000.0 -45303400000.0 -123066000000.0 -31012900000.0 -158396000000.0 -22253500000.0 -153228000000.0 -15825600000.0 -140646000000.0 -11185400000.0 -133317000000.0 -11185400000.0 -140646000000.0 -15825600000.0 -153228000000.0 -22253500000.0 -158396000000.0 -31012900000.0 -123066000000.0 -45303400000.0 -120143000000.0 -64558500000.0 -134979000000.0 -90057400000.0 -144548000000.0 -127202000000.0 -182571000000.0 -175859000000.0 -212526000000.0 -281252000000.0 -345751000000.0 -385640000000.0 -397376000000.0 -385483000000.0 -317239000000.0 -150403000000.0 -120471000000.0 -111601000000.0 -76080700000.0 -56504900000.0 -76957000000.0 -55292900000.0 -53786000000.0 -95592400000.0 -78000800000.0 -43202100000.0 -28991900000.0 -15771000000.0 -15756700000.0 -38429800000.0 -60273500000.0 -97121100000.0 -115707000000.0 -88636500000.0 -103290000000.0 -130010000000.0 -124745000000.0 -245007000000.0 -175013000000.0 -126474000000.0 -84162500000.0 -39879300000.0 -18020600000.0 -10103800000.0 -49500600000.0 -9903250000.0 -53573900000.0 -9777290000.0 -71195700000.0 -9651760000.0 -77799100000.0 -9635300000.0 -97023900000.0 -9035750000.0 -134493000000.0 -9035750000.0 -127386000000.0 -9035750000.0 -121024000000.0 -9035750000.0 -115998000000.0 -9035750000.0 -121024000000.0 -9035750000.0 -127386000000.0 -9035750000.0 -134493000000.0 -9035750000.0 -97023900000.0 -9635300000.0 -77799100000.0 -9651760000.0 -71195700000.0 -9777290000.0 -53573900000.0 -9903250000.0 -49500600000.0 -10103800000.0 -18020600000.0 -39879300000.0 -84162500000.0 -126474000000.0 -175013000000.0 -245007000000.0 -124745000000.0 -130010000000.0 -103290000000.0 -88636500000.0 -115707000000.0 -97121100000.0 -60273500000.0 -38429800000.0 -15756700000.0 -163815000000.0 -195545000000.0 -192443000000.0 -198388000000.0 -284756000000.0 -284756000000.0 -198388000000.0 -192443000000.0 -195545000000.0 -163815000000.0 -12748200000.0 -21355700000.0 -35376300000.0 -60124700000.0 -72227000000.0 -43106700000.0 -42792400000.0 -51319900000.0 -34769000000.0 -69711000000.0 -92596000000.0 -89751100000.0 -97225100000.0 -197424000000.0 -208518000000.0 -179579000000.0 -151685000000.0 -109707000000.0 -65104800000.0 -43074800000.0 -26413900000.0 -61033600000.0 -18332700000.0 -59007100000.0 -13487900000.0 -70142700000.0 -9035750000.0 -75470400000.0 -9035750000.0 -94663100000.0 -9035750000.0 -125011000000.0 -9035750000.0 -112351000000.0 -9035750000.0 -106600000000.0 -9035750000.0 -101098000000.0 -9035750000.0 -106600000000.0 -9035750000.0 -112351000000.0 -9035750000.0 -125011000000.0 -9035750000.0 -94663100000.0 -9035750000.0 -75470400000.0 -9035750000.0 -70142700000.0 -13487900000.0 -59007100000.0 -18332700000.0 -61033600000.0 -26413900000.0 -43074800000.0 -65104800000.0 -109707000000.0 -151685000000.0 -179579000000.0 -208518000000.0 -197424000000.0 -97225100000.0 -89751200000.0 -92596000000.0 -69711000000.0 -34769000000.0 -51320000000.0 -42792400000.0 -43106700000.0 -72227000000.0 -60124700000.0 -35376300000.0 -21355700000.0 -12748200000.0 -34464900000.0 -111228000000.0 -70760900000.0 -34420600000.0 -22573500000.0 -9038140000.0 -9035750000.0 -9035750000.0 -9035750000.0 -9035750000.0 -9035750000.0 -114982000000.0 -9035760000.0 -99033100000.0 -9035750000.0 -93458200000.0 -9035750000.0 -88189800000.0 -9035750000.0 -93458200000.0 -9035750000.0 -99033100000.0 -9035760000.0 -114982000000.0 -9035750000.0 -9035750000.0 -9035750000.0 -9035750000.0 -9035750000.0 -9038140000.0 -22573500000.0 -34420600000.0 -70760900000.0 -111228000000.0 -34464900000.0 -14630600000.0 -20789500000.0 -55098800000.0 -66573300000.0 -44447400000.0 -43858000000.0 -48976300000.0 -38173500000.0 -76372200000.0 -96327900000.0 -95911300000.0 -104632000000.0 -184107000000.0 -181176000000.0 -141982000000.0 -48283800000.0 -51372900000.0 -67112600000.0 -73545200000.0 -91663700000.0 -91663700000.0 -73545200000.0 -67112600000.0 -51372900000.0 -48283800000.0 -141982000000.0 -181176000000.0 -184107000000.0 -104632000000.0 -95911300000.0 -96327900000.0 -76372200000.0 -38173500000.0 -48976300000.0 -43858000000.0 -44447400000.0 -66573300000.0 -55098800000.0 -20789500000.0 -14630600000.0 -15808500000.0 -20274200000.0 -30669800000.0 -47285000000.0 -56544600000.0 -39980400000.0 -38168100000.0 -38719900000.0 -32017500000.0 -68974000000.0 -84883500000.0 -86429100000.0 -95937700000.0 -164094000000.0 -165287000000.0 -131635000000.0 -104638000000.0 -66247000000.0 -33637900000.0 -24496500000.0 -9258350000.0 -47439800000.0 -9035760000.0 -49905800000.0 -9035760000.0 -65244700000.0 -9035760000.0 -71456400000.0 -9035760000.0 -87761700000.0 -9035760000.0 -104881000000.0 -9035760000.0 -87248600000.0 -9035750000.0 -81647500000.0 -9035750000.0 -76962100000.0 -9035750000.0 -81647500000.0 -9035750000.0 -87248600000.0 -9035760000.0 -104881000000.0 -9035760000.0 -87761700000.0 -9035760000.0 -71456400000.0 -9035760000.0 -65244700000.0 -9035760000.0 -49905800000.0 -9035760000.0 -47439800000.0 -9258350000.0 -24496500000.0 -33637900000.0 -66247000000.0 -104638000000.0 -131635000000.0 -165287000000.0 -164094000000.0 -95937700000.0 -86429100000.0 -84883500000.0 -68974000000.0 -32017500000.0 -38719900000.0 -38168100000.0 -39980400000.0 -56544600000.0 -47285000000.0 -30669800000.0 -20274200000.0 -15808500000.0 -17167100000.0 -21101300000.0 -28695100000.0 -42778200000.0 -50017400000.0 -38839400000.0 -37153900000.0 -35248900000.0 -33571500000.0 -67986800000.0 -80134600000.0 -82956300000.0 -93817800000.0 -149297000000.0 -149557000000.0 -118264000000.0 -93976800000.0 -58989600000.0 -30834000000.0 -24683000000.0 -9035760000.0 -46250600000.0 -9035760000.0 -48282100000.0 -9035760000.0 -63119600000.0 -9035760000.0 -69090200000.0 -9035760000.0 -83224200000.0 -9035760000.0 -95036500000.0 -9035760000.0 -76845800000.0 -9035750000.0 -71156800000.0 -9035750000.0 -67182000000.0 -9035750000.0 -71156700000.0 -9035750000.0 -76845800000.0 -9035760000.0 -95036500000.0 -9035760000.0 -83224200000.0 -9035760000.0 -69090200000.0 -9035760000.0 -63119600000.0 -9035760000.0 -48282100000.0 -9035760000.0 -46250600000.0 -9035760000.0 -24683000000.0 -30834000000.0 -58989600000.0 -93976800000.0 -118264000000.0 -149557000000.0 -149297000000.0 -93817800000.0 -82956300000.0 -80134600000.0 -67986800000.0 -33571500000.0 -35248900000.0 -37153900000.0 -38839400000.0 -50017400000.0 -42778200000.0 -28695100000.0 -21101300000.0 -17167100000.0 -18398600000.0 -21686600000.0 -27112900000.0 -39166900000.0 -44691300000.0 -38089900000.0 -36934900000.0 -33369900000.0 -35662300000.0 -66814600000.0 -75316700000.0 -78577000000.0 -90912000000.0 -135177000000.0 -134922000000.0 -106556000000.0 -85016200000.0 -53708800000.0 -29317900000.0 -25139300000.0 -9035760000.0 -44817400000.0 -9035760000.0 -46568400000.0 -9035760000.0 -60799000000.0 -9035760000.0 -66375900000.0 -9035760000.0 -78275500000.0 -9035760000.0 -85666900000.0 -9035760000.0 -67682800000.0 -9035750000.0 -61931500000.0 -9035750000.0 -58668700000.0 -9035750000.0 -61931500000.0 -9035750000.0 -67682700000.0 -9035760000.0 -85666900000.0 -9035760000.0 -78275500000.0 -9035760000.0 -66375900000.0 -9035760000.0 -60799000000.0 -9035760000.0 -46568400000.0 -9035760000.0 -44817400000.0 -9035760000.0 -25139300000.0 -29317900000.0 -53708800000.0 -85016200000.0 -106556000000.0 -134922000000.0 -135177000000.0 -90912000000.0 -78577100000.0 -75316700000.0 -66814600000.0 -35662300000.0 -33369900000.0 -36934900000.0 -38089900000.0 -44691300000.0 -39166900000.0 -27112900000.0 -21686600000.0 -18398600000.0 -19494300000.0 -21961100000.0 -25849400000.0 -36242200000.0 -40534600000.0 -37750400000.0 -37380200000.0 -32496800000.0 -37516800000.0 -65630600000.0 -71140700000.0 -74290300000.0 -87952300000.0 -122032000000.0 -120941000000.0 -95531500000.0 -76469100000.0 -48960300000.0 -28068500000.0 -25291700000.0 -9035760000.0 -43234200000.0 -9035760000.0 -44809700000.0 -9035760000.0 -58340600000.0 -9035760000.0 -63344800000.0 -9035760000.0 -73109700000.0 -9035760000.0 -76908500000.0 -9035760000.0 -59622700000.0 -9035750000.0 -53886500000.0 -9035750000.0 -51273700000.0 -9035750000.0 -53886500000.0 -9035750000.0 -59622700000.0 -9035760000.0 -76908500000.0 -9035760000.0 -73109700000.0 -9035760000.0 -63344800000.0 -9035760000.0 -58340600000.0 -9035760000.0 -44809700000.0 -9035760000.0 -43234200000.0 -9035760000.0 -25291700000.0 -28068500000.0 -48960300000.0 -76469100000.0 -95531500000.0 -120941000000.0 -122032000000.0 -87952300000.0 -74290300000.0 -71140700000.0 -65630600000.0 -37516800000.0 -32496800000.0 -37380200000.0 -37750400000.0 -40534600000.0 -36242200000.0 -25849400000.0 -21961100000.0 -19494300000.0 -20447100000.0 -22019100000.0 -24796400000.0 -33901600000.0 -37358100000.0 -37689400000.0 -38246500000.0 -32205100000.0 -38842500000.0 -64359500000.0 -67571000000.0 -70217800000.0 -84843100000.0 -110093000000.0 -108073000000.0 -85478000000.0 -68523100000.0 -44718500000.0 -27014400000.0 -25201600000.0 -9035770000.0 -41563900000.0 -9035760000.0 -43033900000.0 -9035760000.0 -55778800000.0 -9035760000.0 -60082200000.0 -9035760000.0 -67885800000.0 -9035760000.0 -68835900000.0 -9035760000.0 -52537500000.0 -9035750000.0 -46919400000.0 -9035750000.0 -44869100000.0 -9035750000.0 -46919300000.0 -9035750000.0 -52537500000.0 -9035760000.0 -68835900000.0 -9035760000.0 -67885800000.0 -9035760000.0 -60082200000.0 -9035760000.0 -55778800000.0 -9035760000.0 -43033900000.0 -9035760000.0 -41563900000.0 -9035770000.0 -25201600000.0 -27014400000.0 -44718500000.0 -68523100000.0 -85478000000.0 -108073000000.0 -110093000000.0 -84843100000.0 -70217800000.0 -67571000000.0 -64359500000.0 -38842500000.0 -32205100000.0 -38246500000.0 -37689400000.0 -37358100000.0 -33901600000.0 -24796400000.0 -22019100000.0 -20447100000.0 -21252100000.0 -21948700000.0 -23879000000.0 -32053300000.0 -34931500000.0 -37730900000.0 -39256100000.0 -32245300000.0 -39615100000.0 -62981300000.0 -64556000000.0 -66494700000.0 -81642300000.0 -99405400000.0 -96460300000.0 -76481200000.0 -61264900000.0 -40983800000.0 -25964700000.0 -24927200000.0 -9035770000.0 -39850600000.0 -9035770000.0 -41257000000.0 -9035760000.0 -53139000000.0 -9035760000.0 -56682800000.0 -9035760000.0 -62728700000.0 -9035760000.0 -61478400000.0 -9035760000.0 -46311800000.0 -9035750000.0 -40921500000.0 -9035750000.0 -39341600000.0 -9035750000.0 -40921500000.0 -9035750000.0 -46311800000.0 -9035760000.0 -61478400000.0 -9035760000.0 -62728700000.0 -9035760000.0 -56682800000.0 -9035760000.0 -53139000000.0 -9035760000.0 -41257000000.0 -9035770000.0 -39850600000.0 -9035770000.0 -24927200000.0 -25964700000.0 -40983800000.0 -61264900000.0 -76481200000.0 -96460300000.0 -99405400000.0 -81642300000.0 -66494700000.0 -64556000000.0 -62981300000.0 -39615100000.0 -32245300000.0 -39256100000.0 -37730900000.0 -34931500000.0 -32053300000.0 -23879000000.0 -21948700000.0 -21252100000.0 -21906700000.0 -21808700000.0 -23056100000.0 -30587900000.0 -33035500000.0 -37721200000.0 -40152900000.0 -32463100000.0 -39907800000.0 -61471500000.0 -61999000000.0 -63147300000.0 -78386400000.0 -89942700000.0 -86136400000.0 -68525100000.0 -54734100000.0 -37733500000.0 -24782100000.0 -24521600000.0 -9035770000.0 -38127000000.0 -9035770000.0 -39488000000.0 -9035760000.0 -50445100000.0 -9035760000.0 -53230800000.0 -9035760000.0 -57733800000.0 -9035760000.0 -54833900000.0 -9035760000.0 -40846400000.0 -9035750000.0 -35784700000.0 -9035750000.0 -34588500000.0 -9035750000.0 -35784700000.0 -9035750000.0 -40846400000.0 -9035760000.0 -54833900000.0 -9035760000.0 -57733800000.0 -9035760000.0 -53230800000.0 -9035760000.0 -50445100000.0 -9035760000.0 -39488000000.0 -9035770000.0 -38127000000.0 -9035770000.0 -24521600000.0 -24782100000.0 -37733500000.0 -54734100000.0 -68525100000.0 -86136400000.0 -89942700000.0 -78386400000.0 -63147300000.0 -61999000000.0 -61471500000.0 -39907800000.0 -32463100000.0 -40152900000.0 -37721200000.0 -33035500000.0 -30587900000.0 -23056100000.0 -21808700000.0 -21906700000.0 -22411000000.0 -21630800000.0 -22291000000.0 -29392500000.0 -31485400000.0 -37552300000.0 -40769700000.0 -32745700000.0 -39809000000.0 -59815400000.0 -59790600000.0 -60129100000.0 -75080800000.0 -81614800000.0 -77055100000.0 -61542700000.0 -48929900000.0 -34909200000.0 -23446300000.0 -24029100000.0 -9035770000.0 -36416500000.0 -9035770000.0 -37731800000.0 -9035760000.0 -47723400000.0 -9035760000.0 -49795600000.0 -9035760000.0 -52970100000.0 -9035760000.0 -48878700000.0 -9035760000.0 -36056900000.0 -9035750000.0 -31405200000.0 -9035750000.0 -30516500000.0 -9035750000.0 -31405200000.0 -9035750000.0 -36056900000.0 -9035760000.0 -48878700000.0 -9035760000.0 -52970100000.0 -9035760000.0 -49795600000.0 -9035760000.0 -47723400000.0 -9035760000.0 -37731800000.0 -9035770000.0 -36416500000.0 -9035770000.0 -24029100000.0 -23446300000.0 -34909200000.0 -48929900000.0 -61542700000.0 -77055100000.0 -81614800000.0 -75080800000.0 -60129100000.0 -59790600000.0 -59815400000.0 -39809000000.0 -32745700000.0 -40769700000.0 -37552300000.0 -31485400000.0 -29392500000.0 -22291000000.0 -21630800000.0 -22411000000.0 -22767000000.0 -21426800000.0 -21552200000.0 -28365700000.0 -30141900000.0 -37160400000.0 -41039900000.0 -33005600000.0 -39398700000.0 -58020200000.0 -57808200000.0 -57353900000.0 -71693100000.0 -74290500000.0 -69116400000.0 -55438200000.0 -43819900000.0 -32435000000.0 -22007700000.0 -23481800000.0 -9035780000.0 -34734400000.0 -9035770000.0 -35993000000.0 -9035760000.0 -45004400000.0 -9035760000.0 -46432000000.0 -9035760000.0 -48483500000.0 -9035760000.0 -43575000000.0 -9035760000.0 -31872300000.0 -9035750000.0 -27686600000.0 -9035750000.0 -27040900000.0 -9035750000.0 -27686600000.0 -9035750000.0 -31872300000.0 -9035760000.0 -43575000000.0 -9035760000.0 -48483500000.0 -9035760000.0 -46432000000.0 -9035760000.0 -45004400000.0 -9035760000.0 -35993000000.0 -9035770000.0 -34734400000.0 -9035780000.0 -23481800000.0 -22007700000.0 -32435000000.0 -43819900000.0 -55438200000.0 -69116400000.0 -74290500000.0 -71693100000.0 -57353900000.0 -57808200000.0 -58020200000.0 -39398700000.0 -33005600000.0 -41039900000.0 -37160400000.0 -30141900000.0 -28365700000.0 -21552200000.0 -21426800000.0 -22767000000.0 -22978900000.0 -21196900000.0 -20826600000.0 -27424600000.0 -28910300000.0 -36522100000.0 -40961900000.0 -33175000000.0 -38745900000.0 -56108200000.0 -55932600000.0 -54740400000.0 -68185200000.0 -67824800000.0 -62189700000.0 -50107200000.0 -39350100000.0 -30236300000.0 -20533900000.0 -22899100000.0 -9035780000.0 -33089700000.0 -9035770000.0 -34276900000.0 -9035760000.0 -42320200000.0 -9035760000.0 -43182200000.0 -9035760000.0 -44300700000.0 -9035760000.0 -38876400000.0 -9035760000.0 -28231600000.0 -9035750000.0 -24540700000.0 -9035750000.0 -24084600000.0 -9035750000.0 -24540700000.0 -9035750000.0 -28231600000.0 -9035760000.0 -38876400000.0 -9035760000.0 -44300700000.0 -9035760000.0 -43182200000.0 -9035760000.0 -42320200000.0 -9035760000.0 -34276900000.0 -9035770000.0 -33089700000.0 -9035780000.0 -22899100000.0 -20533900000.0 -30236300000.0 -39350100000.0 -50107200000.0 -62189700000.0 -67824800000.0 -68185200000.0 -54740400000.0 -55932600000.0 -56108200000.0 -38745900000.0 -33175000000.0 -40961900000.0 -36522100000.0 -28910300000.0 -27424600000.0 -20826600000.0 -21196900000.0 -22978900000.0 -23052600000.0 -20937500000.0 -20119200000.0 -26511400000.0 -27731300000.0 -35647300000.0 -40562200000.0 -33203500000.0 -37907000000.0 -54104600000.0 -54073600000.0 -52234000000.0 -64549400000.0 -62079700000.0 -56136200000.0 -45448700000.0 -35454100000.0 -28250400000.0 -19084300000.0 -22291600000.0 -9035780000.0 -31487600000.0 -9035770000.0 -32589600000.0 -9035770000.0 -39700200000.0 -9035760000.0 -40077300000.0 -9035760000.0 -40433900000.0 -9035760000.0 -34731900000.0 -9035760000.0 -25081200000.0 -9035750000.0 -21888500000.0 -9035750000.0 -21578600000.0 -9035750000.0 -21888500000.0 -9035750000.0 -25081200000.0 -9035760000.0 -34731900000.0 -9035760000.0 -40433900000.0 -9035760000.0 -40077300000.0 -9035760000.0 -39700200000.0 -9035770000.0 -32589600000.0 -9035770000.0 -31487600000.0 -9035780000.0 -22291600000.0 -19084300000.0 -28250400000.0 -35454100000.0 -45448700000.0 -56136200000.0 -62079700000.0 -64549400000.0 -52234000000.0 -54073600000.0 -54104600000.0 -37907000000.0 -33203500000.0 -40562200000.0 -35647300000.0 -27731300000.0 -26511400000.0 -20119200000.0 -20937500000.0 -23052600000.0 -22995300000.0 -20644500000.0 -19441000000.0 -25596100000.0 -26570100000.0 -34567600000.0 -39877000000.0 -33059000000.0 -36925400000.0 -52030800000.0 -52177800000.0 -49802300000.0 -60813200000.0 -56935800000.0 -50823300000.0 -41369100000.0 -32061900000.0 -26430500000.0 -17703200000.0 -21664500000.0 -9035780000.0 -29931000000.0 -9035770000.0 -30937400000.0 -9035770000.0 -37168800000.0 -9035760000.0 -37139100000.0 -9035760000.0 -36884200000.0 -9035760000.0 -31089400000.0 -9035760000.0 -22371700000.0 -9035750000.0 -19659700000.0 -9035750000.0 -19461300000.0 -9035750000.0 -19659700000.0 -9035750000.0 -22371700000.0 -9035760000.0 -31089400000.0 -9035760000.0 -36884200000.0 -9035760000.0 -37139100000.0 -9035760000.0 -37168800000.0 -9035770000.0 -30937400000.0 -9035770000.0 -29931000000.0 -9035780000.0 -21664500000.0 -17703200000.0 -26430500000.0 -32061900000.0 -41369100000.0 -50823300000.0 -56935800000.0 -60813200000.0 -49802300000.0 -52177800000.0 -52030800000.0 -36925400000.0 -33059000000.0 -39877000000.0 -34567600000.0 -26570100000.0 -25596100000.0 -19441000000.0 -20644500000.0 -22995300000.0 -22815500000.0 -20314800000.0 -18800100000.0 -24671300000.0 -25410100000.0 -33322900000.0 -38943900000.0 -32728300000.0 -35832200000.0 -49902900000.0 -50219800000.0 -47424200000.0 -57024800000.0 -52294200000.0 -46133800000.0 -37782400000.0 -29105600000.0 -24744600000.0 -16421100000.0 -21020700000.0 -9035780000.0 -28421600000.0 -9035770000.0 -29326800000.0 -9035770000.0 -34744100000.0 -9035760000.0 -34380600000.0 -9035760000.0 -33644900000.0 -9035760000.0 -27898200000.0 -9035760000.0 -20056900000.0 -9035750000.0 -17792400000.0 -9035750000.0 -17677900000.0 -9035750000.0 -17792400000.0 -9035750000.0 -20056900000.0 -9035760000.0 -27898200000.0 -9035760000.0 -33644900000.0 -9035760000.0 -34380600000.0 -9035760000.0 -34744100000.0 -9035770000.0 -29326800000.0 -9035770000.0 -28421600000.0 -9035780000.0 -21020700000.0 -16421100000.0 -24744600000.0 -29105600000.0 -37782400000.0 -46133800000.0 -52294200000.0 -57024800000.0 -47424200000.0 -50219800000.0 -49902900000.0 -35832200000.0 -32728300000.0 -38943900000.0 -33322900000.0 -25410100000.0 -24671300000.0 -18800100000.0 -20314800000.0 -22815500000.0 -22522400000.0 -19945300000.0 -18198200000.0 -23741200000.0 -24248600000.0 -31953800000.0 -37799900000.0 -32213500000.0 -34648900000.0 -47732600000.0 -48190000000.0 -45083900000.0 -53237300000.0 -48074600000.0 -41968500000.0 -34612400000.0 -26521300000.0 -23174700000.0 -15256800000.0 -20362100000.0 -9035780000.0 -26960500000.0 -9035770000.0 -27763700000.0 -9035770000.0 -32438000000.0 -9035760000.0 -31808100000.0 -9035760000.0 -30703900000.0 -9035760000.0 -25110400000.0 -9035760000.0 -18092800000.0 -9035750000.0 -16232600000.0 -9035750000.0 -16180400000.0 -9035750000.0 -16232600000.0 -9035750000.0 -18092800000.0 -9035760000.0 -25110400000.0 -9035760000.0 -30703900000.0 -9035760000.0 -31808100000.0 -9035760000.0 -32438000000.0 -9035770000.0 -27763700000.0 -9035770000.0 -26960500000.0 -9035780000.0 -20362100000.0 -15256800000.0 -23174700000.0 -26521300000.0 -34612400000.0 -41968500000.0 -48074600000.0 -53237300000.0 -45083900000.0 -48190000000.0 -47732600000.0 -34648900000.0 -32213500000.0 -37799900000.0 -31953800000.0 -24248600000.0 -23741200000.0 -18198200000.0 -19945300000.0 -22522400000.0 -24252300000.0 -14219400000.0 -9035780000.0 -9035770000.0 -9035770000.0 -9035760000.0 -29422300000.0 -9035760000.0 -28045500000.0 -9035760000.0 -22682300000.0 -9035760000.0 -16437400000.0 -9035750000.0 -14933300000.0 -9035750000.0 -14926500000.0 -9035750000.0 -14933300000.0 -9035750000.0 -16437400000.0 -9035760000.0 -22682300000.0 -9035760000.0 -28045500000.0 -9035760000.0 -29422300000.0 -9035760000.0 -9035770000.0 -9035770000.0 -9035780000.0 -14219400000.0 -24252300000.0 -22125600000.0 -19533800000.0 -17632200000.0 -22812900000.0 -23091000000.0 -30497100000.0 -36479600000.0 -31525700000.0 -33390100000.0 -45528100000.0 -46086500000.0 -42768700000.0 -49499800000.0 -44213200000.0 -38246600000.0 -31793200000.0 -21712600000.0 -19690600000.0 -25548300000.0 -26253000000.0 -30257500000.0 -30257500000.0 -26253000000.0 -25548300000.0 -19690600000.0 -21712600000.0 -31793200000.0 -38246600000.0 -44213200000.0 -49499800000.0 -42768700000.0 -46086500000.0 -45528100000.0 -33390100000.0 -31525700000.0 -36479600000.0 -30497100000.0 -23091000000.0 -22812900000.0 -17632200000.0 -19533800000.0 -22125600000.0 -21634800000.0 -19079100000.0 -17095300000.0 -21892200000.0 -21946800000.0 -28984700000.0 -35015200000.0 -30680000000.0 -32066200000.0 -43295300000.0 -43911700000.0 -40469900000.0 -45853700000.0 -40660100000.0 -34903400000.0 -29269700000.0 -22250400000.0 -20355900000.0 -13310600000.0 -19008200000.0 -9035780000.0 -24185400000.0 -9035770000.0 -24798300000.0 -9035770000.0 -28205200000.0 -9035760000.0 -27219200000.0 -9035760000.0 -25651300000.0 -9035760000.0 -20573600000.0 -9035760000.0 -15051600000.0 -9035750000.0 -13854100000.0 -9035750000.0 -13879600000.0 -9035750000.0 -13854100000.0 -9035750000.0 -15051600000.0 -9035760000.0 -20573600000.0 -9035760000.0 -25651300000.0 -9035760000.0 -27219200000.0 -9035760000.0 -28205200000.0 -9035770000.0 -24798300000.0 -9035770000.0 -24185400000.0 -9035780000.0 -19008200000.0 -13310600000.0 -20355900000.0 -22250400000.0 -29269700000.0 -34903400000.0 -40660100000.0 -45853700000.0 -40469900000.0 -43911700000.0 -43295300000.0 -32066200000.0 -30680000000.0 -35015200000.0 -28984700000.0 -21946800000.0 -21892200000.0 -17095300000.0 -19079100000.0 -21634800000.0 -21059800000.0 -18580700000.0 -16579100000.0 -20981800000.0 -20825400000.0 -27443500000.0 -33435600000.0 -29692600000.0 -30685100000.0 -41038100000.0 -41670900000.0 -38181900000.0 -42331800000.0 -37376400000.0 -31887200000.0 -26996200000.0 -20476900000.0 -19103400000.0 -12526500000.0 -18317300000.0 -9035780000.0 -22872100000.0 -9035770000.0 -23401800000.0 -9035760000.0 -26280000000.0 -9035760000.0 -25191600000.0 -9035760000.0 -23502100000.0 -9035760000.0 -18748100000.0 -9035760000.0 -13899000000.0 -9035750000.0 -12960000000.0 -9035750000.0 -13007600000.0 -9035750000.0 -12960000000.0 -9035750000.0 -13899000000.0 -9035760000.0 -18748100000.0 -9035760000.0 -23502100000.0 -9035760000.0 -25191600000.0 -9035760000.0 -26280000000.0 -9035760000.0 -23401800000.0 -9035770000.0 -22872100000.0 -9035780000.0 -18317300000.0 -12526500000.0 -19103400000.0 -20476900000.0 -26996200000.0 -31887200000.0 -37376400000.0 -42331800000.0 -38181900000.0 -41670900000.0 -41038100000.0 -30685100000.0 -29692600000.0 -33435600000.0 -27443500000.0 -20825400000.0 -20981800000.0 -16579100000.0 -18580700000.0 -21059800000.0 -20410100000.0 -18039900000.0 -16075000000.0 -20082300000.0 -19734700000.0 -25895100000.0 -31766700000.0 -28579200000.0 -29253100000.0 -38759200000.0 -39371600000.0 -35902800000.0 -38957800000.0 -34332400000.0 -29156500000.0 -24936000000.0 -18901500000.0 -17952300000.0 -11859100000.0 -17620400000.0 -9035780000.0 -21607900000.0 -9035770000.0 -22064000000.0 -9035760000.0 -24478100000.0 -9035760000.0 -23329800000.0 -9035760000.0 -21577800000.0 -9035760000.0 -17172900000.0 -9035760000.0 -12946300000.0 -9035750000.0 -12221400000.0 -9035750000.0 -12283200000.0 -9035750000.0 -12221400000.0 -9035750000.0 -12946300000.0 -9035760000.0 -17172900000.0 -9035760000.0 -21577800000.0 -9035760000.0 -23329800000.0 -9035760000.0 -24478100000.0 -9035760000.0 -22064000000.0 -9035770000.0 -21607900000.0 -9035780000.0 -17620400000.0 -11859100000.0 -17952300000.0 -18901500000.0 -24936000000.0 -29156500000.0 -34332400000.0 -38957800000.0 -35902800000.0 -39371600000.0 -38759200000.0 -29253100000.0 -28579200000.0 -31766700000.0 -25895100000.0 -19734700000.0 -20082300000.0 -16075000000.0 -18039900000.0 -20410100000.0 -19694700000.0 -17458500000.0 -15575000000.0 -19192300000.0 -18680200000.0 -24356700000.0 -30030700000.0 -27355100000.0 -27776000000.0 -36460500000.0 -37022700000.0 -33633500000.0 -35747000000.0 -31504500000.0 -26677900000.0 -23059000000.0 -17500600000.0 -16897700000.0 -11298300000.0 -16919900000.0 -9035780000.0 -20392000000.0 -9035770000.0 -20784200000.0 -9035760000.0 -22793800000.0 -9035760000.0 -21622500000.0 -9035760000.0 -19858500000.0 -9035760000.0 -15818200000.0 -9035760000.0 -12163500000.0 -9035750000.0 -11612700000.0 -9035750000.0 -11682600000.0 -9035750000.0 -11612700000.0 -9035750000.0 -12163500000.0 -9035760000.0 -15818200000.0 -9035760000.0 -19858500000.0 -9035760000.0 -21622500000.0 -9035760000.0 -22793800000.0 -9035760000.0 -20784200000.0 -9035770000.0 -20392000000.0 -9035780000.0 -16919900000.0 -11298300000.0 -16897700000.0 -17500600000.0 -23059000000.0 -26677900000.0 -31504500000.0 -35747000000.0 -33633500000.0 -37022700000.0 -36460500000.0 -27776000000.0 -27355100000.0 -30030700000.0 -24356700000.0 -18680200000.0 -19192300000.0 -15575000000.0 -17458500000.0 -19694700000.0 -18922300000.0 -16839700000.0 -15072100000.0 -18309400000.0 -17665500000.0 -22840900000.0 -28246500000.0 -26034100000.0 -26259000000.0 -34143200000.0 -34633900000.0 -31376600000.0 -32707300000.0 -28873300000.0 -24423000000.0 -21341300000.0 -16255400000.0 -15932600000.0 -10832300000.0 -16218000000.0 -9035780000.0 -19223200000.0 -9035770000.0 -19560300000.0 -9035760000.0 -21219500000.0 -9035760000.0 -20057300000.0 -9035760000.0 -18324700000.0 -9035760000.0 -14657100000.0 -9035760000.0 -11523700000.0 -9035750000.0 -11112100000.0 -9035750000.0 -11185400000.0 -9035750000.0 -11112100000.0 -9035750000.0 -11523700000.0 -9035760000.0 -14657100000.0 -9035760000.0 -18324700000.0 -9035760000.0 -20057300000.0 -9035760000.0 -21219500000.0 -9035760000.0 -19560300000.0 -9035770000.0 -19223200000.0 -9035780000.0 -16218000000.0 -10832300000.0 -15932600000.0 -16255400000.0 -21341300000.0 -24423000000.0 -28873300000.0 -32707300000.0 -31376600000.0 -34633900000.0 -34143200000.0 -26259000000.0 -26034100000.0 -28246500000.0 -22840900000.0 -17665500000.0 -18309400000.0 -15072100000.0 -16839700000.0 -18922300000.0 -18100700000.0 -16187000000.0 -14560700000.0 -17431000000.0 -16691800000.0 -21356800000.0 -26429700000.0 -24629100000.0 -24707000000.0 -31808200000.0 -32215000000.0 -29135800000.0 -29839700000.0 -26421800000.0 -22367600000.0 -19763300000.0 -15149900000.0 -15048600000.0 -10449200000.0 -15516600000.0 -9035780000.0 -18099500000.0 -9035770000.0 -18389000000.0 -9035760000.0 -19747000000.0 -9035760000.0 -18621600000.0 -9035760000.0 -16957400000.0 -9035760000.0 -13665000000.0 -9035760000.0 -11003400000.0 -9035750000.0 -10701300000.0 -9035750000.0 -10774400000.0 -9035750000.0 -10701300000.0 -9035750000.0 -11003400000.0 -9035760000.0 -13665000000.0 -9035760000.0 -16957400000.0 -9035760000.0 -18621600000.0 -9035760000.0 -19747000000.0 -9035760000.0 -18389000000.0 -9035770000.0 -18099500000.0 -9035780000.0 -15516600000.0 -10449200000.0 -15048600000.0 -15149900000.0 -19763300000.0 -22367600000.0 -26421800000.0 -29839700000.0 -29135800000.0 -32215000000.0 -31808200000.0 -24707000000.0 -24629100000.0 -26429700000.0 -21356800000.0 -16691800000.0 -17431000000.0 -14560700000.0 -16187000000.0 -18100700000.0 -17237300000.0 -15504100000.0 -14036700000.0 -16554600000.0 -15758800000.0 -19909800000.0 -24592700000.0 -23151900000.0 -23124500000.0 -29456000000.0 -29775200000.0 -26914800000.0 -27139900000.0 -24134100000.0 -20489900000.0 -18308100000.0 -14169800000.0 -14236500000.0 -10137200000.0 -14817300000.0 -9035770000.0 -17018200000.0 -9035770000.0 -17266600000.0 -9035760000.0 -18367000000.0 -9035760000.0 -17302300000.0 -9035760000.0 -15738200000.0 -9035760000.0 -12819400000.0 -9035760000.0 -10582000000.0 -9035750000.0 -10364500000.0 -9035750000.0 -10434700000.0 -9035750000.0 -10364500000.0 -9035750000.0 -10582000000.0 -9035760000.0 -12819400000.0 -9035760000.0 -15738200000.0 -9035760000.0 -17302300000.0 -9035760000.0 -18367000000.0 -9035760000.0 -17266600000.0 -9035770000.0 -17018200000.0 -9035770000.0 -14817300000.0 -10137200000.0 -14236500000.0 -14169800000.0 -18308100000.0 -20489900000.0 -24134100000.0 -27139900000.0 -26914800000.0 -29775200000.0 -29456000000.0 -23124500000.0 -23151900000.0 -24592700000.0 -19909800000.0 -15758800000.0 -16554600000.0 -14036700000.0 -15504100000.0 -17237300000.0 -16338800000.0 -14795200000.0 -13497500000.0 -15677700000.0 -14864700000.0 -18502800000.0 -22745100000.0 -21613000000.0 -21515800000.0 -27087300000.0 -27322500000.0 -24716800000.0 -24598500000.0 -21994300000.0 -18769600000.0 -16961000000.0 -13301700000.0 -13487100000.0 -9885250000.0 -14121000000.0 -9035770000.0 -15976400000.0 -9035760000.0 -16188500000.0 -9035760000.0 -17069900000.0 -9035760000.0 -16086400000.0 -9035760000.0 -14649600000.0 -9035760000.0 -12099800000.0 -9035760000.0 -10241600000.0 -9035750000.0 -10088300000.0 -9035750000.0 -10153600000.0 -9035750000.0 -10088300000.0 -9035750000.0 -10241600000.0 -9035760000.0 -12099800000.0 -9035760000.0 -14649600000.0 -9035760000.0 -16086400000.0 -9035760000.0 -17069900000.0 -9035760000.0 -16188500000.0 -9035760000.0 -15976400000.0 -9035770000.0 -14121000000.0 -9885250000.0 -13487100000.0 -13301700000.0 -16961000000.0 -18769600000.0 -21994300000.0 -24598500000.0 -24716800000.0 -27322500000.0 -27087300000.0 -21515800000.0 -21613000000.0 -22745100000.0 -18502800000.0 -14864700000.0 -15677700000.0 -13497500000.0 -14795200000.0 -16338800000.0 -15411100000.0 -14063900000.0 -12941900000.0 -14798500000.0 -14006600000.0 -17136100000.0 -20894100000.0 -20022300000.0 -19884700000.0 -24702900000.0 -24863400000.0 -22544000000.0 -22202900000.0 -19986500000.0 -17187400000.0 -15708600000.0 -12532200000.0 -12790900000.0 -9683140000.0 -13428300000.0 -9035770000.0 -14970300000.0 -9035760000.0 -15149800000.0 -9035760000.0 -15846000000.0 -9035760000.0 -14961100000.0 -9035760000.0 -13674400000.0 -9035760000.0 -11487300000.0 -9035760000.0 -9966910000.0 -9035750000.0 -9861550000.0 -9035750000.0 -9920310000.0 -9035750000.0 -9861550000.0 -9035750000.0 -9966910000.0 -9035760000.0 -11487300000.0 -9035760000.0 -13674400000.0 -9035760000.0 -14961100000.0 -9035760000.0 -15846000000.0 -9035760000.0 -15149800000.0 -9035760000.0 -14970300000.0 -9035770000.0 -13428300000.0 -9683140000.0 -12790900000.0 -12532200000.0 -15708600000.0 -17187400000.0 -19986500000.0 -22202900000.0 -22544000000.0 -24863400000.0 -24702900000.0 -19884700000.0 -20022300000.0 -20894100000.0 -17136100000.0 -14006600000.0 -14798500000.0 -12941900000.0 -14063900000.0 -15411100000.0 -14459500000.0 -13314100000.0 -12369800000.0 -13915800000.0 -13180600000.0 -15807900000.0 -19044300000.0 -18388300000.0 -18234700000.0 -22303800000.0 -22402800000.0 -20396800000.0 -19937300000.0 -18094100000.0 -15724600000.0 -14537800000.0 -11848100000.0 -12139400000.0 -9521630000.0 -12739600000.0 -9035770000.0 -13996000000.0 -9035760000.0 -14145300000.0 -9035760000.0 -14685400000.0 -9035760000.0 -13913800000.0 -9035760000.0 -12796200000.0 -9035760000.0 -10964600000.0 -9035760000.0 -9744890000.0 -9035750000.0 -9674430000.0 -9035750000.0 -9725520000.0 -9035750000.0 -9674430000.0 -9035750000.0 -9744890000.0 -9035760000.0 -10964600000.0 -9035760000.0 -12796200000.0 -9035760000.0 -13913800000.0 -9035760000.0 -14685400000.0 -9035760000.0 -14145300000.0 -9035760000.0 -13996000000.0 -9035770000.0 -12739600000.0 -9521630000.0 -12139400000.0 -11848100000.0 -14537800000.0 -15724600000.0 -18094100000.0 -19937300000.0 -20396800000.0 -22402800000.0 -22303800000.0 -18234700000.0 -18388300000.0 -19044300000.0 -15807900000.0 -13180600000.0 -13915800000.0 -12369800000.0 -13314100000.0 -14459500000.0 -13488900000.0 -12549000000.0 -11782100000.0 -13028900000.0 -12382400000.0 -14514800000.0 -17198600000.0 -16719000000.0 -16569000000.0 -19891300000.0 -19944200000.0 -18274600000.0 -17784000000.0 -16299800000.0 -14362600000.0 -13435900000.0 -11236100000.0 -11524100000.0 -9392490000.0 -12054600000.0 -9035760000.0 -13048900000.0 -9035760000.0 -13169600000.0 -9035760000.0 -13578000000.0 -9035760000.0 -12931900000.0 -9035760000.0 -11999000000.0 -9035760000.0 -10515600000.0 -9035760000.0 -9564290000.0 -9035750000.0 -9518670000.0 -9035750000.0 -9561290000.0 -9035750000.0 -9518670000.0 -9035750000.0 -9564290000.0 -9035760000.0 -10515600000.0 -9035760000.0 -11999000000.0 -9035760000.0 -12931900000.0 -9035760000.0 -13578000000.0 -9035760000.0 -13169600000.0 -9035760000.0 -13048900000.0 -9035760000.0 -12054600000.0 -9392490000.0 -11524100000.0 -11236100000.0 -13435900000.0 -14362600000.0 -16299800000.0 -17784000000.0 -18274600000.0 -19944200000.0 -19891300000.0 -16569000000.0 -16719000000.0 -17198600000.0 -14514800000.0 -12382400000.0 -13028900000.0 -11782100000.0 -12549000000.0 -13488900000.0 -12503400000.0 -11772000000.0 -11180600000.0 -12137700000.0 -11607300000.0 -13252000000.0 -15358400000.0 -15021700000.0 -14890600000.0 -17467100000.0 -17489200000.0 -16174900000.0 -15723900000.0 -14586300000.0 -13082800000.0 -12390400000.0 -10682600000.0 -10937400000.0 -9288400000.0 -11373000000.0 -9035760000.0 -12124500000.0 -9035760000.0 -12217600000.0 -9035760000.0 -12514100000.0 -9035760000.0 -12003200000.0 -9035760000.0 -11267500000.0 -9035750000.0 -10125200000.0 -9035760000.0 -9415470000.0 -9035750000.0 -9387110000.0 -9035750000.0 -9420660000.0 -9035750000.0 -9387110000.0 -9035750000.0 -9415470000.0 -9035760000.0 -10125200000.0 -9035750000.0 -11267500000.0 -9035760000.0 -12003200000.0 -9035760000.0 -12514100000.0 -9035760000.0 -12217600000.0 -9035760000.0 -12124500000.0 -9035760000.0 -11373000000.0 -9288400000.0 -10937400000.0 -10682600000.0 -12390400000.0 -13082800000.0 -14586300000.0 -15723900000.0 -16174900000.0 -17489200000.0 -17467100000.0 -14890600000.0 -15021700000.0 -15358400000.0 -13252000000.0 -11607300000.0 -12137700000.0 -11180600000.0 -11772000000.0 -12503400000.0 -11506800000.0 -10985900000.0 -10567800000.0 -11242600000.0 -10850100000.0 -12013600000.0 -13523400000.0 -13303200000.0 -13202400000.0 -15033300000.0 -15038200000.0 -14094000000.0 -13736500000.0 -12935500000.0 -11866700000.0 -11388700000.0 -10174500000.0 -10372300000.0 -9202870000.0 -10694200000.0 -9035760000.0 -11217800000.0 -9035760000.0 -11283700000.0 -9035760000.0 -11483700000.0 -9035750000.0 -11115600000.0 -9035750000.0 -10586500000.0 -9035750000.0 -9779380000.0 -9035750000.0 -9290020000.0 -9035750000.0 -9273450000.0 -9035750000.0 -9297520000.0 -9035750000.0 -9273450000.0 -9035750000.0 -9290020000.0 -9035750000.0 -9779380000.0 -9035750000.0 -10586500000.0 -9035750000.0 -11115600000.0 -9035750000.0 -11483700000.0 -9035760000.0 -11283700000.0 -9035760000.0 -11217800000.0 -9035760000.0 -10694200000.0 -9202870000.0 -10372300000.0 -10174500000.0 -11388700000.0 -11866700000.0 -12935500000.0 -13736500000.0 -14094000000.0 -15038200000.0 -15033300000.0 -13202400000.0 -13303200000.0 -13523400000.0 -12013600000.0 -10850100000.0 -11242600000.0 -10567800000.0 -10985900000.0 -11506800000.0 -10502700000.0 -10193500000.0 -9946710000.0 -10344500000.0 -10105800000.0 -10793200000.0 -11692900000.0 -11569700000.0 -11507100000.0 -12592100000.0 -12590700000.0 -12027200000.0 -11801200000.0 -11329400000.0 -10695900000.0 -10418000000.0 -9698320000.0 -9822080000.0 -9130070000.0 -10017500000.0 -9035760000.0 -10323800000.0 -9035760000.0 -10362800000.0 -9035750000.0 -10477200000.0 -9035750000.0 -10257000000.0 -9035750000.0 -9941080000.0 -9035750000.0 -9464680000.0 -9035750000.0 -9180520000.0 -9035750000.0 -9172050000.0 -9035750000.0 -9186400000.0 -9035750000.0 -9172050000.0 -9035750000.0 -9180520000.0 -9035750000.0 -9464680000.0 -9035750000.0 -9941080000.0 -9035750000.0 -10257000000.0 -9035750000.0 -10477200000.0 -9035750000.0 -10362800000.0 -9035760000.0 -10323800000.0 -9035760000.0 -10017500000.0 -9130070000.0 -9822080000.0 -9698320000.0 -10418000000.0 -10695900000.0 -11329400000.0 -11801200000.0 -12027200000.0 -12590700000.0 -12592100000.0 -11507100000.0 -11569700000.0 -11692900000.0 -10793200000.0 -10105800000.0 -10344500000.0 -9946710000.0 -10193500000.0 -10502700000.0 -9493980000.0 -9397430000.0 -9320480000.0 -9444410000.0 -9369180000.0 -9583510000.0 -9864960000.0 -9827410000.0 -9807500000.0 -10146200000.0 -10145300000.0 -9968900000.0 -9896590000.0 -9749670000.0 -9551900000.0 -9465800000.0 -9241100000.0 -9280520000.0 -9064620000.0 -9342100000.0 -9035750000.0 -9437210000.0 -9035750000.0 -9449380000.0 -9035750000.0 -9484590000.0 -9035750000.0 -9415630000.0 -9035750000.0 -9316710000.0 -9035750000.0 -9168220000.0 -9035750000.0 -9080220000.0 -9035750000.0 -9077740000.0 -9035750000.0 -9082230000.0 -9035750000.0 -9077740000.0 -9035750000.0 -9080220000.0 -9035750000.0 -9168220000.0 -9035750000.0 -9316710000.0 -9035750000.0 -9415630000.0 -9035750000.0 -9484590000.0 -9035750000.0 -9449380000.0 -9035750000.0 -9437210000.0 -9035750000.0 -9342100000.0 -9064620000.0 -9280520000.0 -9241100000.0 -9465800000.0 -9551900000.0 -9749670000.0 -9896590000.0 -9968900000.0 -10145300000.0 -10146200000.0 -9807500000.0 -9827410000.0 -9864960000.0 -9583510000.0 -9369180000.0 -9444410000.0 -9320480000.0 -9397430000.0 -9493980000.0 
SCALARS Shear_Stress float 1
LOOKUP_TABLE default
55940200000.0 9038770000.0 9038770000.0 55940200000.0 148886000000.0 118420000000.0 765421000000.0 18324900000.0 51146400000.0 69978100000.0 47816500000.0 4063350000.0 15164900000.0 15164900000.0 4063340000.0 47816500000.0 69978200000.0 51146400000.0 18324900000.0 765421000000.0 118420000000.0 148886000000.0 120244000000.0 149236000000.0 545320000000.0 20884900000.0 18939700000.0 83094500000.0 29463300000.0 7870360000.0 27036200000.0 14632000000.0 27036200000.0 7870390000.0 29463300000.0 83094500000.0 18939700000.0 20884900000.0 545320000000.0 149236000000.0 120244000000.0 110177000000.0 252441000000.0 814149000000.0 741401000000.0 371178000000.0 84700800000.0 112587000000.0 40151400000.0 118216000000.0 52423200000.0 106246000000.0 43501700000.0 27207000000.0 23899800000.0 35779500000.0 23900000000.0 27207100000.0 43501600000.0 106246000000.0 52423300000.0 118216000000.0 40151300000.0 112587000000.0 84700800000.0 371178000000.0 741401000000.0 814149000000.0 252441000000.0 110177000000.0 95974200000.0 272936000000.0 278122000000.0 212618000000.0 149922000000.0 475731000000.0 321445000000.0 144448000000.0 4031440000.0 173585000000.0 153978000000.0 33506700000.0 33506700000.0 153978000000.0 173586000000.0 4031540000.0 144448000000.0 321444000000.0 475731000000.0 149922000000.0 212618000000.0 278122000000.0 272936000000.0 95974200000.0 78440600000.0 84140400000.0 267338000000.0 188951000000.0 154160000000.0 583590000000.0 433627000000.0 138599000000.0 224413000000.0 12254000000.0 48068600000.0 62818900000.0 97844000000.0 21344000000.0 65616600000.0 29014500000.0 65616600000.0 21344000000.0 97844000000.0 62819000000.0 48068600000.0 12254000000.0 224413000000.0 138599000000.0 433627000000.0 583590000000.0 154160000000.0 188951000000.0 267338000000.0 84140400000.0 78440600000.0 77175900000.0 270598000000.0 166733000000.0 115566000000.0 252756000000.0 269430000000.0 515704000000.0 369073000000.0 165583000000.0 82248600000.0 46176000000.0 56134100000.0 91121900000.0 91121900000.0 56134000000.0 46176000000.0 82248600000.0 165583000000.0 369073000000.0 515704000000.0 269430000000.0 252756000000.0 115566000000.0 166733000000.0 270598000000.0 77175900000.0 70979300000.0 286259000000.0 173764000000.0 159077000000.0 39351100000.0 66543300000.0 54516200000.0 5624410000.0 252719000000.0 27205300000.0 516999000000.0 33869500000.0 94191300000.0 357784000000.0 28978700000.0 29428400000.0 16333500000.0 18749700000.0 16333500000.0 29428400000.0 28978700000.0 357784000000.0 94191300000.0 33869500000.0 516999000000.0 27205300000.0 252719000000.0 5624400000.0 54516200000.0 66543300000.0 39351100000.0 159077000000.0 173764000000.0 286259000000.0 70979300000.0 45833200000.0 311013000000.0 306607000000.0 207226000000.0 40785200000.0 90832800000.0 164611000000.0 249896000000.0 38916100000.0 112340000000.0 380311000000.0 73313300000.0 43465200000.0 1837350000.0 41105800000.0 59934400000.0 16675500000.0 111662000000.0 9893760000.0 111662000000.0 16675500000.0 59934400000.0 41105800000.0 1837350000.0 43465200000.0 73313300000.0 380311000000.0 112340000000.0 38916100000.0 249896000000.0 164611000000.0 90832800000.0 40785200000.0 207226000000.0 306607000000.0 311013000000.0 45833200000.0 56158800000.0 3590680000.0 271552000000.0 241464000000.0 71664100000.0 104379000000.0 219660000000.0 342500000000.0 451324000000.0 238524000000.0 966651000000.0 8649140000.0 271755000000.0 343453000000.0 32352600000.0 37119500000.0 124418000000.0 124418000000.0 37119400000.0 32352600000.0 343453000000.0 271755000000.0 8649100000.0 966651000000.0 238524000000.0 451324000000.0 342500000000.0 219660000000.0 104379000000.0 71664100000.0 241464000000.0 271552000000.0 3590680000.0 56158800000.0 92052000000.0 188211000000.0 161604000000.0 241573000000.0 164643000000.0 121553000000.0 42475500000.0 86705900000.0 247862000000.0 248419000000.0 377729000000.0 339578000000.0 458518000000.0 524576000000.0 905478000000.0 539120000000.0 420965000000.0 321937000000.0 20740000000.0 32975600000.0 19217900000.0 32975600000.0 20740000000.0 321937000000.0 420965000000.0 539120000000.0 905478000000.0 524576000000.0 458518000000.0 339578000000.0 377729000000.0 248419000000.0 247862000000.0 86705900000.0 42475500000.0 121553000000.0 164643000000.0 241573000000.0 161604000000.0 188211000000.0 92052000000.0 90366500000.0 111880000000.0 118423000000.0 13075800000.0 148781000000.0 15714500000.0 218844000000.0 392106000000.0 454472000000.0 500247000000.0 453942000000.0 785555000000.0 524553000000.0 331549000000.0 288880000000.0 283243000000.0 225690000000.0 838777000.0 37718900000.0 139290000000.0 21910700000.0 139290000000.0 37718900000.0 838795000.0 225690000000.0 283243000000.0 288880000000.0 331549000000.0 524553000000.0 785555000000.0 453942000000.0 500247000000.0 454472000000.0 392106000000.0 218844000000.0 15714600000.0 148781000000.0 13075800000.0 118423000000.0 111880000000.0 90366500000.0 43844400000.0 53553000000.0 191366000000.0 59786200000.0 1194730000.0 57920500000.0 131068000000.0 175491000000.0 340910000000.0 377264000000.0 500737000000.0 480337000000.0 373988000000.0 312015000000.0 237454000000.0 446892000000.0 484549000000.0 242540000000.0 120349000000.0 69802400000.0 69802400000.0 120349000000.0 242540000000.0 484549000000.0 446892000000.0 237454000000.0 312015000000.0 373988000000.0 480337000000.0 500737000000.0 377264000000.0 340910000000.0 175491000000.0 131068000000.0 57920500000.0 1194730000.0 59786200000.0 191366000000.0 53553000000.0 43844400000.0 163595000000.0 297389000000.0 32758300000.0 257143000000.0 274490000000.0 258668000000.0 11122900000.0 122225000000.0 316575000000.0 466345000000.0 503102000000.0 584382000000.0 474034000000.0 402461000000.0 189188000000.0 762026000000.0 427668000000.0 372029000000.0 439223000000.0 385471000000.0 159492000000.0 110075000000.0 69695400000.0 110075000000.0 159492000000.0 385471000000.0 439223000000.0 372029000000.0 427668000000.0 762026000000.0 189188000000.0 402461000000.0 474034000000.0 584382000000.0 503102000000.0 466345000000.0 316575000000.0 122225000000.0 11122900000.0 258668000000.0 274490000000.0 257143000000.0 32758400000.0 297389000000.0 163595000000.0 108311000000.0 192112000000.0 689307000000.0 471931000000.0 284305000000.0 774551000000.0 261993000000.0 312419000000.0 412536000000.0 558775000000.0 369241000000.0 259864000000.0 105924000000.0 740491000000.0 386382000000.0 325216000000.0 334225000000.0 344748000000.0 149878000000.0 95650700000.0 8426750000.0 74454100000.0 8426760000.0 95650700000.0 149878000000.0 344748000000.0 334225000000.0 325216000000.0 386382000000.0 740491000000.0 105924000000.0 259864000000.0 369241000000.0 558775000000.0 412536000000.0 312419000000.0 261993000000.0 774551000000.0 284305000000.0 471931000000.0 689307000000.0 192112000000.0 108311000000.0 82225500000.0 674779000000.0 619179000000.0 363981000000.0 439936000000.0 176207000000.0 40981200000.0 937425000000.0 701004000000.0 375555000000.0 414844000000.0 414199000000.0 380762000000.0 478901000000.0 529952000000.0 649961000000.0 305808000000.0 168742000000.0 162550000000.0 5921750000.0 327542000000.0 284199000000.0 298563000000.0 300309000000.0 289686000000.0 241260000000.0 4233910000.0 4233910000.0 241260000000.0 289686000000.0 300309000000.0 298563000000.0 284199000000.0 327542000000.0 5921760000.0 162550000000.0 168742000000.0 305808000000.0 649961000000.0 529952000000.0 478901000000.0 380762000000.0 414199000000.0 414844000000.0 375555000000.0 701004000000.0 937424000000.0 40981200000.0 176207000000.0 439936000000.0 363981000000.0 619179000000.0 674779000000.0 82225500000.0 380024000000.0 451888000000.0 942316000000.0 318743000000.0 335011000000.0 81661000000.0 394807000000.0 357869000000.0 441353000000.0 697895000000.0 81830900000.0 323147000000.0 254147000000.0 709113000000.0 248565000000.0 235508000000.0 275495000000.0 272640000000.0 252439000000.0 199185000000.0 39108100000.0 199185000000.0 252439000000.0 272640000000.0 275495000000.0 235508000000.0 248565000000.0 709113000000.0 254147000000.0 323147000000.0 81831000000.0 697895000000.0 441353000000.0 357869000000.0 394807000000.0 81661000000.0 335011000000.0 318743000000.0 942316000000.0 451888000000.0 380024000000.0 793240000000.0 403150000000.0 55639900000.0 294109000000.0 795863000000.0 1.25164e+12 694836000000.0 109652000000.0 638102000000.0 385082000000.0 187969000000.0 98559300000.0 51322100000.0 197726000000.0 178765000000.0 99168600000.0 91367300000.0 626830000000.0 173922000000.0 188103000000.0 35028600000.0 704422000000.0 250996000000.0 177893000000.0 290216000000.0 277071000000.0 194624000000.0 189634000000.0 153738000000.0 235018000000.0 153738000000.0 189634000000.0 194624000000.0 277071000000.0 290216000000.0 177893000000.0 250996000000.0 704422000000.0 35028600000.0 188103000000.0 173922000000.0 626830000000.0 91367300000.0 99168600000.0 178765000000.0 197726000000.0 51322100000.0 98559300000.0 187969000000.0 385082000000.0 638102000000.0 109652000000.0 694836000000.0 1.25164e+12 795863000000.0 294109000000.0 55639900000.0 403150000000.0 793240000000.0 71576500000.0 919558000000.0 345458000000.0 696842000000.0 1.32511e+12 741827000000.0 1.05859e+12 84927600000.0 122752000000.0 61221100000.0 100923000000.0 92280600000.0 839146000000.0 519256000000.0 376966000000.0 188589000000.0 383921000000.0 26877900000.0 291695000000.0 253233000000.0 218224000000.0 202869000000.0 202869000000.0 218224000000.0 253233000000.0 291695000000.0 26877900000.0 383921000000.0 188589000000.0 376966000000.0 519255000000.0 839146000000.0 92280500000.0 100923000000.0 61221200000.0 122752000000.0 84927500000.0 1.05859e+12 741827000000.0 1.32511e+12 696842000000.0 345458000000.0 919558000000.0 71576400000.0 62884300000.0 22354000000.0 404277000000.0 833290000000.0 675981000000.0 290490000000.0 251677000000.0 230632000000.0 744005000000.0 834671000000.0 275803000000.0 38420800000.0 75197100000.0 371784000000.0 243177000000.0 168227000000.0 199060000000.0 695690000000.0 518841000000.0 733265000000.0 379758000000.0 201931000000.0 303703000000.0 206650000000.0 260827000000.0 231574000000.0 264543000000.0 268060000000.0 278695000000.0 268060000000.0 264543000000.0 231574000000.0 260827000000.0 206650000000.0 303703000000.0 201931000000.0 379758000000.0 733265000000.0 518841000000.0 695690000000.0 199060000000.0 168227000000.0 243177000000.0 371784000000.0 75197000000.0 38420700000.0 275803000000.0 834671000000.0 744005000000.0 230632000000.0 251677000000.0 290490000000.0 675981000000.0 833291000000.0 404277000000.0 22353900000.0 62884300000.0 59876100000.0 351676000000.0 571543000000.0 1.22193e+12 726420000000.0 513067000000.0 23496400000.0 934797000000.0 593786000000.0 128183000000.0 73452400000.0 212747000000.0 39902600000.0 127994000000.0 300150000000.0 254824000000.0 689568000000.0 85170100000.0 338009000000.0 70261800000.0 135433000000.0 313738000000.0 313615000000.0 242928000000.0 282552000000.0 277766000000.0 282552000000.0 242928000000.0 313615000000.0 313738000000.0 135433000000.0 70261800000.0 338009000000.0 85170100000.0 689568000000.0 254824000000.0 300150000000.0 127994000000.0 39902600000.0 212747000000.0 73452400000.0 128183000000.0 593786000000.0 934797000000.0 23496600000.0 513067000000.0 726420000000.0 1.22193e+12 571543000000.0 351676000000.0 59876100000.0 10673700000.0 322580000000.0 422099000000.0 1.33824e+12 120649000000.0 206186000000.0 291669000000.0 584438000000.0 401737000000.0 344579000000.0 35375200000.0 266492000000.0 246770000000.0 14044900000.0 40057100000.0 305884000000.0 382275000000.0 95742600.0 569827000000.0 124574000000.0 728602000000.0 248753000000.0 456364000000.0 187044000000.0 117118000000.0 257581000000.0 323165000000.0 285372000000.0 285372000000.0 323165000000.0 257582000000.0 117118000000.0 187044000000.0 456364000000.0 248753000000.0 728602000000.0 124574000000.0 569827000000.0 95740400.0 382275000000.0 305884000000.0 40056900000.0 14044800000.0 246770000000.0 266492000000.0 35375200000.0 344579000000.0 401737000000.0 584438000000.0 291669000000.0 206186000000.0 120649000000.0 1.33824e+12 422099000000.0 322580000000.0 10673700000.0 44175900000.0 435044000000.0 378197000000.0 515079000000.0 575028000000.0 1.27418e+12 836667000000.0 873513000000.0 485290000000.0 1.17712e+12 773841000000.0 343909000000.0 539789000000.0 895825000000.0 483307000000.0 114549000000.0 20744900000.0 33932200000.0 440569000000.0 313909000000.0 127568000000.0 338734000000.0 398122000000.0 331423000000.0 396051000000.0 232627000000.0 354512000000.0 239497000000.0 201131000000.0 281890000000.0 308922000000.0 281890000000.0 201131000000.0 239497000000.0 354512000000.0 232627000000.0 396051000000.0 331423000000.0 398122000000.0 338734000000.0 127568000000.0 313909000000.0 440569000000.0 33932200000.0 20744900000.0 114549000000.0 483307000000.0 895825000000.0 539789000000.0 343909000000.0 773841000000.0 1.17712e+12 485290000000.0 873513000000.0 836667000000.0 1.27418e+12 575028000000.0 515079000000.0 378197000000.0 435044000000.0 44176000000.0 104603000000.0 81589500000.0 458134000000.0 616711000000.0 680243000000.0 575503000000.0 922299000000.0 849581000000.0 322065000000.0 354671000000.0 504169000000.0 332502000000.0 247781000000.0 405380000000.0 442362000000.0 417695000000.0 303592000000.0 402714000000.0 612707000000.0 7818710000.0 127839000000.0 258943000000.0 38448000000.0 58442200000.0 376640000000.0 68972000000.0 141841000000.0 264516000000.0 360760000000.0 299257000000.0 299257000000.0 360760000000.0 264516000000.0 141841000000.0 68972000000.0 376640000000.0 58442300000.0 38448200000.0 258943000000.0 127839000000.0 7818620000.0 612707000000.0 402714000000.0 303592000000.0 417695000000.0 442362000000.0 405380000000.0 247781000000.0 332502000000.0 504169000000.0 354671000000.0 322065000000.0 849581000000.0 922299000000.0 575503000000.0 680243000000.0 616711000000.0 458134000000.0 81589500000.0 104603000000.0 120514000000.0 453095000000.0 616839000000.0 842911000000.0 622639000000.0 693408000000.0 197981000000.0 458691000000.0 191509000000.0 477337000000.0 360638000000.0 615774000000.0 397299000000.0 18537600000.0 207643000000.0 528449000000.0 167574000000.0 123273000000.0 148928000000.0 132642000000.0 76979700000.0 158451000000.0 223176000000.0 191727000000.0 164591000000.0 137357000000.0 200749000000.0 158018000000.0 85698000000.0 158018000000.0 200749000000.0 137357000000.0 164591000000.0 191727000000.0 223176000000.0 158451000000.0 76979800000.0 132642000000.0 148928000000.0 123273000000.0 167574000000.0 528449000000.0 207643000000.0 18537600000.0 397299000000.0 615774000000.0 360637000000.0 477337000000.0 191509000000.0 458691000000.0 197981000000.0 693408000000.0 622639000000.0 842911000000.0 616839000000.0 453095000000.0 120514000000.0 39873200000.0 413760000000.0 557395000000.0 604242000000.0 714802000000.0 781294000000.0 893139000000.0 1.04209e+12 801972000000.0 188607000000.0 532901000000.0 448853000000.0 487741000000.0 543399000000.0 640172000000.0 821665000000.0 96284700000.0 205733000000.0 302778000000.0 172026000000.0 246777000000.0 366079000000.0 559733000000.0 269288000000.0 113666000000.0 1445710000.0 30348400000.0 11355400000.0 117814000000.0 124080000000.0 253054000000.0 170988000000.0 253054000000.0 124080000000.0 117813000000.0 11355300000.0 30348400000.0 1445690000.0 113666000000.0 269288000000.0 559733000000.0 366079000000.0 246777000000.0 172026000000.0 302778000000.0 205733000000.0 96284700000.0 821665000000.0 640172000000.0 543399000000.0 487741000000.0 448853000000.0 532901000000.0 188607000000.0 801972000000.0 1.04209e+12 893139000000.0 781294000000.0 714802000000.0 604242000000.0 557395000000.0 413760000000.0 39873200000.0 7991230000.0 128832000000.0 407041000000.0 447479000000.0 679364000000.0 791449000000.0 763439000000.0 300284000000.0 173091000000.0 841686000000.0 614252000000.0 312378000000.0 192268000000.0 255224000000.0 251173000000.0 67545600000.0 178881000000.0 55411900000.0 44863100000.0 173870000000.0 2013430000.0 177481000000.0 5051080000.0 128069000000.0 48177500000.0 23971200000.0 36894200000.0 24520700000.0 73995100000.0 73995200000.0 24520800000.0 36894200000.0 23971300000.0 48177500000.0 128069000000.0 5051080000.0 177481000000.0 2013430000.0 173870000000.0 44863100000.0 55411900000.0 178881000000.0 67545600000.0 251173000000.0 255224000000.0 192268000000.0 312378000000.0 614252000000.0 841686000000.0 173091000000.0 300284000000.0 763439000000.0 791449000000.0 679364000000.0 447479000000.0 407041000000.0 128832000000.0 7991220000.0 22105800000.0 120834000000.0 37181500000.0 441187000000.0 604228000000.0 669685000000.0 802489000000.0 734313000000.0 20362300000.0 197748000000.0 500128000000.0 629617000000.0 802636000000.0 621977000000.0 505505000000.0 454260000000.0 464843000000.0 18350100000.0 142365000000.0 157861000000.0 491132000000.0 448606000000.0 350662000000.0 424101000000.0 567145000000.0 359105000000.0 330122000000.0 234249000000.0 539709000000.0 82293600000.0 34099700000.0 63094200000.0 206666000000.0 472612000000.0 206666000000.0 63094200000.0 34099700000.0 82293600000.0 539709000000.0 234249000000.0 330122000000.0 359105000000.0 567145000000.0 424101000000.0 350662000000.0 448606000000.0 491132000000.0 157861000000.0 142365000000.0 18350000000.0 464843000000.0 454260000000.0 505505000000.0 621977000000.0 802636000000.0 629617000000.0 500128000000.0 197748000000.0 20362300000.0 734313000000.0 802489000000.0 669685000000.0 604228000000.0 441187000000.0 37181500000.0 120834000000.0 22105800000.0 39735200000.0 329242000000.0 648104000000.0 678526000000.0 414627000000.0 659564000000.0 729198000000.0 218579000000.0 351913000000.0 268121000000.0 670719000000.0 596966000000.0 487313000000.0 320503000000.0 601458000000.0 444450000000.0 411988000000.0 330614000000.0 379236000000.0 335893000000.0 312170000000.0 137273000000.0 259272000000.0 128230000000.0 64707700000.0 43515100000.0 95106500000.0 51175800000.0 226583000000.0 18598100000.0 493975000000.0 18598100000.0 226583000000.0 51175800000.0 95106500000.0 43515000000.0 64707800000.0 128230000000.0 259272000000.0 137273000000.0 312170000000.0 335893000000.0 379236000000.0 330614000000.0 411988000000.0 444450000000.0 601458000000.0 320503000000.0 487313000000.0 596966000000.0 670719000000.0 268121000000.0 351913000000.0 218579000000.0 729198000000.0 659564000000.0 414627000000.0 678526000000.0 648104000000.0 329242000000.0 39735200000.0 57592400000.0 58874700000.0 406118000000.0 209305000000.0 667453000000.0 381126000000.0 1.03961e+12 381114000000.0 352175000000.0 482513000000.0 546688000000.0 600914000000.0 484614000000.0 217420000000.0 609553000000.0 408629000000.0 91107200000.0 201435000000.0 189201000000.0 297325000000.0 279529000000.0 235837000000.0 86722200000.0 153089000000.0 31844900000.0 126564000000.0 24834300000.0 9121090000.0 25016400000.0 25016300000.0 9121090000.0 24834300000.0 126564000000.0 31844900000.0 153089000000.0 86722200000.0 235837000000.0 279529000000.0 297325000000.0 189201000000.0 201435000000.0 91107200000.0 408629000000.0 609553000000.0 217420000000.0 484614000000.0 600914000000.0 546688000000.0 482513000000.0 352175000000.0 381114000000.0 1.03961e+12 381126000000.0 667453000000.0 209305000000.0 406118000000.0 58874700000.0 57592400000.0 67921900000.0 413435000000.0 642330000000.0 28861400000.0 470955000000.0 645666000000.0 45338600000.0 737170000000.0 510146000000.0 419219000000.0 161842000000.0 544842000000.0 464114000000.0 295985000000.0 84266700000.0 166460000000.0 254614000000.0 68959400000.0 186685000000.0 191572000000.0 193563000000.0 132434000000.0 202918000000.0 174105000000.0 53130900000.0 132815000000.0 178130000000.0 107822000000.0 103158000000.0 196339000000.0 207061000000.0 408778000000.0 207061000000.0 196339000000.0 103158000000.0 107822000000.0 178130000000.0 132815000000.0 53130900000.0 174105000000.0 202918000000.0 132434000000.0 193563000000.0 191572000000.0 186685000000.0 68959400000.0 254614000000.0 166460000000.0 84266700000.0 295985000000.0 464114000000.0 544842000000.0 161842000000.0 419219000000.0 510146000000.0 737170000000.0 45338600000.0 645666000000.0 470955000000.0 28861300000.0 642330000000.0 413435000000.0 67921800000.0 82075200000.0 106333000000.0 850726000000.0 328176000000.0 331873000000.0 327815000000.0 508483000000.0 502129000000.0 462970000000.0 324403000000.0 134728000000.0 56604100000.0 5608430000.0 51589400000.0 41540800000.0 115958000000.0 16222500000.0 7527130000.0 139351000000.0 14651900000.0 122329000000.0 13867800000.0 129936000000.0 49391800000.0 339178000000.0 49391800000.0 129936000000.0 13867800000.0 122329000000.0 14651800000.0 139351000000.0 7527130000.0 16222500000.0 115958000000.0 41540800000.0 51589400000.0 5608420000.0 56604100000.0 134728000000.0 324402000000.0 462970000000.0 502129000000.0 508483000000.0 327815000000.0 331873000000.0 328176000000.0 850726000000.0 106333000000.0 82075200000.0 43011600000.0 194054000000.0 520840000000.0 724920000000.0 79154400000.0 563833000000.0 335620000000.0 211259000000.0 112453000000.0 394227000000.0 348286000000.0 441269000000.0 343845000000.0 121543000000.0 449981000000.0 302662000000.0 301440000000.0 268838000000.0 224486000000.0 115769000000.0 16513700000.0 46969300000.0 147676000000.0 596373000.0 160110000000.0 43807700000.0 60065700000.0 60065700000.0 43807700000.0 160110000000.0 596364000.0 147676000000.0 46969300000.0 16513700000.0 115769000000.0 224486000000.0 268838000000.0 301440000000.0 302662000000.0 449981000000.0 121543000000.0 343845000000.0 441269000000.0 348287000000.0 394227000000.0 112453000000.0 211259000000.0 335620000000.0 563833000000.0 79154400000.0 724920000000.0 520840000000.0 194054000000.0 43011600000.0 2607160000.0 39710600000.0 520559000000.0 183705000000.0 305278000000.0 74068100000.0 225580000000.0 366485000000.0 352074000000.0 109933000000.0 346155000000.0 460900000000.0 515136000000.0 418390000000.0 250519000000.0 266273000000.0 284675000000.0 241054000000.0 249477000000.0 192077000000.0 146766000000.0 19648000000.0 22069100000.0 158835000000.0 94523100000.0 36073800000.0 79256200000.0 138597000000.0 15826800000.0 82322100000.0 6083150000.0 229320000000.0 6083150000.0 82322100000.0 15827000000.0 138597000000.0 79256200000.0 36073800000.0 94523100000.0 158835000000.0 22069100000.0 19648000000.0 146766000000.0 192077000000.0 249477000000.0 241054000000.0 284675000000.0 266273000000.0 250519000000.0 418390000000.0 515136000000.0 460900000000.0 346155000000.0 109933000000.0 352074000000.0 366485000000.0 225580000000.0 74068100000.0 305278000000.0 183705000000.0 520559000000.0 39710700000.0 2607150000.0 124824000000.0 71867200000.0 90854900000.0 429899000000.0 354697000000.0 223589000000.0 182126000000.0 340583000000.0 113702000000.0 249147000000.0 366415000000.0 456149000000.0 312256000000.0 77502200000.0 91065100000.0 193201000000.0 19893200000.0 26637800000.0 60620800000.0 71850700000.0 49356900000.0 39833400000.0 35560400000.0 31383800000.0 6357510000.0 85792900000.0 8360340000.0 77541800000.0 22422700000.0 98578200000.0 3797260000.0 99979300000.0 58978600000.0 242655000000.0 58978600000.0 99979300000.0 3797200000.0 98578200000.0 22422700000.0 77541800000.0 8360340000.0 85792900000.0 6357520000.0 31383800000.0 35560400000.0 39833400000.0 49357000000.0 71850700000.0 60620800000.0 26637800000.0 19893200000.0 193201000000.0 91065100000.0 77502200000.0 312256000000.0 456149000000.0 366415000000.0 249147000000.0 113702000000.0 340583000000.0 182126000000.0 223589000000.0 354697000000.0 429899000000.0 90854900000.0 71867300000.0 124824000000.0 47533900000.0 143442000000.0 242505000000.0 252923000000.0 37366500000.0 17432500000.0 413858000000.0 342672000000.0 258304000000.0 155243000000.0 216677000000.0 309232000000.0 403416000000.0 330239000000.0 178798000000.0 95989900000.0 56917100000.0 40687500000.0 39730800000.0 39730800000.0 40687500000.0 56917100000.0 95989900000.0 178798000000.0 330239000000.0 403416000000.0 309232000000.0 216677000000.0 155243000000.0 258304000000.0 342672000000.0 413858000000.0 17432400000.0 37366400000.0 252923000000.0 242505000000.0 143442000000.0 47533900000.0 68245100000.0 154989000000.0 147995000000.0 182813000000.0 31388300000.0 44202200000.0 368317000000.0 123243000000.0 198517000000.0 74234700000.0 87789100000.0 258061000000.0 386071000000.0 485804000000.0 597910000000.0 645530000000.0 489190000000.0 382747000000.0 219383000000.0 157008000000.0 79539700000.0 133104000000.0 89043500000.0 33735500000.0 66855500000.0 6830960000.0 45866000000.0 52919400000.0 124032000000.0 42846300000.0 152622000000.0 38042800000.0 152622000000.0 42846300000.0 124032000000.0 52919400000.0 45866000000.0 6830960000.0 66855500000.0 33735500000.0 89043500000.0 133104000000.0 79539700000.0 157008000000.0 219383000000.0 382747000000.0 489190000000.0 645530000000.0 597910000000.0 485804000000.0 386071000000.0 258061000000.0 87789100000.0 74234700000.0 198517000000.0 123243000000.0 368317000000.0 44202200000.0 31388300000.0 182813000000.0 147995000000.0 154989000000.0 68245100000.0 130818000000.0 289275000000.0 217431000000.0 51653100000.0 121168000000.0 323617000000.0 299006000000.0 325388000000.0 145736000000.0 179266000000.0 253590000000.0 224929000000.0 112707000000.0 180665000000.0 109806000000.0 133374000000.0 82388500000.0 117075000000.0 35291900000.0 108823000000.0 17252700000.0 69296300000.0 156862000000.0 6802790000.0 147968000000.0 17506100000.0 222388000000.0 17506100000.0 147968000000.0 6802790000.0 156862000000.0 69296300000.0 17252700000.0 108823000000.0 35291900000.0 117075000000.0 82388500000.0 133374000000.0 109806000000.0 180665000000.0 112707000000.0 224929000000.0 253590000000.0 179266000000.0 145736000000.0 325388000000.0 299006000000.0 323617000000.0 121168000000.0 51653100000.0 217431000000.0 289275000000.0 130818000000.0 32431900000.0 168445000000.0 95208000000.0 169415000000.0 96128300000.0 50917700000.0 315155000000.0 248249000000.0 303500000000.0 43733400000.0 603243000000.0 390557000000.0 376259000000.0 293790000000.0 177848000000.0 50336800000.0 44911500000.0 127921000000.0 127921000000.0 44911500000.0 50336800000.0 177848000000.0 293790000000.0 376259000000.0 390557000000.0 603243000000.0 43733400000.0 303500000000.0 248249000000.0 315155000000.0 50917700000.0 96128300000.0 169415000000.0 95208000000.0 168445000000.0 32431900000.0 106004000000.0 168482000000.0 109512000000.0 67254900000.0 193724000000.0 26775000000.0 25190200000.0 240919000000.0 291383000000.0 108442000000.0 129278000000.0 276664000000.0 32305800000.0 64710300000.0 136616000000.0 181725000000.0 176215000000.0 145340000000.0 84435100000.0 108437000000.0 94632700000.0 14698900000.0 326986000.0 148261000000.0 18301500000.0 115718000000.0 24340900000.0 78098100000.0 15513200000.0 87559000000.0 6188400000.0 115067000000.0 28329400000.0 128413000000.0 77015400000.0 54166200000.0 97106200000.0 84765100000.0 97106200000.0 54166200000.0 77015400000.0 128413000000.0 28329400000.0 115067000000.0 6188400000.0 87559000000.0 15513200000.0 78098100000.0 24340900000.0 115718000000.0 18301500000.0 148261000000.0 326987000.0 14698900000.0 94632700000.0 108437000000.0 84435100000.0 145340000000.0 176215000000.0 181725000000.0 136616000000.0 64710300000.0 32305800000.0 276664000000.0 129278000000.0 108442000000.0 291383000000.0 240919000000.0 25190200000.0 26775000000.0 193724000000.0 67254900000.0 109512000000.0 168482000000.0 106004000000.0 75704200000.0 123178000000.0 98576600000.0 44028300000.0 92523900000.0 116782000000.0 34319900000.0 69523100000.0 112799000000.0 83828000000.0 44311200000.0 65703200000.0 13052900000.0 9569140000.0 59936000000.0 17767700000.0 35788600000.0 17330700000.0 33082900000.0 4080540000.0 53141800000.0 2588930000.0 105793000000.0 5066930000.0 166570000000.0 12269400000.0 153955000000.0 16180600000.0 180337000000.0 16180600000.0 153955000000.0 12269400000.0 166570000000.0 5066930000.0 105793000000.0 2588930000.0 53141800000.0 4080540000.0 33082900000.0 17330700000.0 35788600000.0 17767700000.0 59936000000.0 9569140000.0 13052900000.0 65703200000.0 44311200000.0 83828000000.0 112799000000.0 69523100000.0 34319900000.0 116782000000.0 92523900000.0 44028300000.0 98576600000.0 123178000000.0 75704200000.0 154196000000.0 106246000000.0 72580800000.0 44336200000.0 256747000000.0 172892000000.0 194489000000.0 169541000000.0 137161000000.0 137161000000.0 169541000000.0 194489000000.0 172892000000.0 256747000000.0 44336200000.0 72580800000.0 106246000000.0 154196000000.0 73444800000.0 49703200000.0 46357500000.0 71952800000.0 98885800000.0 49877900000.0 38577800000.0 87742000000.0 83439900000.0 107136000000.0 38856500000.0 127672000000.0 177091000000.0 189959000000.0 173565000000.0 141642000000.0 97981800000.0 33197000000.0 55356300000.0 117089000000.0 149608000000.0 174226000000.0 145658000000.0 106006000000.0 100877000000.0 80783100000.0 112950000000.0 83306600000.0 120196000000.0 58542200000.0 114354000000.0 3362960000.0 126919000000.0 19062400000.0 139534000000.0 1912000000.0 143782000000.0 6054310000.0 143782000000.0 1912010000.0 139534000000.0 19062400000.0 126919000000.0 3362960000.0 114354000000.0 58542200000.0 120196000000.0 83306600000.0 112950000000.0 80783100000.0 100877000000.0 106006000000.0 145658000000.0 174226000000.0 149608000000.0 117089000000.0 55356300000.0 33197000000.0 97981800000.0 141642000000.0 173565000000.0 189959000000.0 177091000000.0 127672000000.0 38856500000.0 107136000000.0 83439900000.0 87742000000.0 38577800000.0 49877900000.0 98885800000.0 71952800000.0 46357500000.0 49703100000.0 73444800000.0 25259800000.0 22716900000.0 39723100000.0 23484900000.0 10953700000.0 54257300000.0 57917500000.0 26680300000.0 26131200000.0 10308700000.0 85382900000.0 98856200000.0 191671000000.0 193734000000.0 167481000000.0 134411000000.0 92974200000.0 55086800000.0 16673400000.0 5041040000.0 34774200000.0 6803640000.0 36532000000.0 3624790000.0 61373300000.0 5670260000.0 68877700000.0 5286850000.0 86348200000.0 3855640000.0 139947000000.0 5800640000.0 158201000000.0 7586220000.0 150745000000.0 9050340000.0 153627000000.0 9050340000.0 150745000000.0 7586220000.0 158201000000.0 5800640000.0 139947000000.0 3855640000.0 86348200000.0 5286850000.0 68877700000.0 5670260000.0 61373300000.0 3624790000.0 36532000000.0 6803640000.0 34774200000.0 5041040000.0 16673400000.0 55086800000.0 92974200000.0 134411000000.0 167481000000.0 193734000000.0 191671000000.0 98856200000.0 85382900000.0 10308700000.0 26131200000.0 26680300000.0 57917400000.0 54257300000.0 10953700000.0 23484900000.0 39723100000.0 22716900000.0 25259800000.0 111221000000.0 111221000000.0 15413500000.0 28269100000.0 41691500000.0 70920900000.0 77688900000.0 38599900000.0 49352200000.0 71675900000.0 52319600000.0 65465000000.0 88340500000.0 77493300000.0 63177600000.0 115383000000.0 48035500000.0 38053100000.0 104427000000.0 152025000000.0 180673000000.0 185197000000.0 153770000000.0 94673400000.0 104584000000.0 48518800000.0 68832900000.0 3154070000.0 43829900000.0 31737600000.0 25572300000.0 66738800000.0 12047500000.0 124897000000.0 3598350000.0 134506000000.0 2339650000.0 132050000000.0 6933270000.0 133317000000.0 6933270000.0 132050000000.0 2339650000.0 134506000000.0 3598350000.0 124897000000.0 12047500000.0 66738800000.0 25572300000.0 31737600000.0 43829900000.0 3154070000.0 68832900000.0 48518800000.0 104584000000.0 94673400000.0 153770000000.0 185197000000.0 180673000000.0 152025000000.0 104427000000.0 38053100000.0 48035500000.0 115383000000.0 63177600000.0 77493300000.0 88340500000.0 65465000000.0 52319600000.0 71675900000.0 49352200000.0 38599900000.0 77688900000.0 70920900000.0 41691500000.0 28269100000.0 15413500000.0 6624810000.0 11502400000.0 16098900000.0 37738100000.0 43102800000.0 1688810000.0 10639700000.0 8479750000.0 41141700000.0 150567000000.0 143280000000.0 119631000000.0 82051800000.0 39379500000.0 17940500000.0 8392970000.0 47543300000.0 8469230000.0 51988300000.0 8306240000.0 69599200000.0 8429850000.0 76504700000.0 8448430000.0 95791800000.0 9035750000.0 134467000000.0 9035750000.0 127382000000.0 9035750000.0 121024000000.0 9035750000.0 115998000000.0 9035750000.0 121024000000.0 9035750000.0 127382000000.0 9035750000.0 134467000000.0 9035750000.0 95791800000.0 8448430000.0 76504700000.0 8429850000.0 69599200000.0 8306240000.0 51988300000.0 8469230000.0 47543300000.0 8392970000.0 17940500000.0 39379500000.0 82051800000.0 119631000000.0 143280000000.0 150567000000.0 41141700000.0 8479740000.0 10639700000.0 1688800000.0 43102800000.0 37738100000.0 16098900000.0 11502400000.0 6624810000.0 28340200000.0 9332150000.0 14198000000.0 7260460000.0 112256000000.0 112256000000.0 7260450000.0 14198000000.0 9332140000.0 28340200000.0 12747400000.0 21351400000.0 35365700000.0 60096900000.0 71202900000.0 41552700000.0 42212900000.0 51262500000.0 34723500000.0 69513600000.0 92215000000.0 89278800000.0 96584500000.0 183968000000.0 170967000000.0 122369000000.0 84120500000.0 43498400000.0 8531650000.0 2054070000.0 7866930000.0 35622700000.0 78806000.0 45654500000.0 4633500000.0 67231700000.0 9035750000.0 75469400000.0 9035750000.0 94662100000.0 9035750000.0 125010000000.0 9035750000.0 112351000000.0 9035750000.0 106600000000.0 9035750000.0 101098000000.0 9035750000.0 106600000000.0 9035750000.0 112351000000.0 9035750000.0 125010000000.0 9035750000.0 94662100000.0 9035750000.0 75469400000.0 9035750000.0 67231700000.0 4633500000.0 45654500000.0 78808400.0 35622700000.0 7866930000.0 2054060000.0 8531650000.0 43498400000.0 84120500000.0 122369000000.0 170967000000.0 183968000000.0 96584500000.0 89278800000.0 92215000000.0 69513600000.0 34723500000.0 51262500000.0 42212900000.0 41552700000.0 71202900000.0 60096900000.0 35365700000.0 21351400000.0 12747400000.0 31488200000.0 111179000000.0 70744100000.0 34416500000.0 22572100000.0 9038140000.0 9035750000.0 9035750000.0 9035750000.0 9035750000.0 9035750000.0 114982000000.0 9035760000.0 99033100000.0 9035750000.0 93458200000.0 9035750000.0 88189800000.0 9035750000.0 93458200000.0 9035750000.0 99033100000.0 9035760000.0 114982000000.0 9035750000.0 9035750000.0 9035750000.0 9035750000.0 9035750000.0 9038140000.0 22572100000.0 34416500000.0 70744100000.0 111179000000.0 31488200000.0 14033600000.0 18996600000.0 50990400000.0 61405000000.0 38062900000.0 35930900000.0 39276300000.0 26319100000.0 62849000000.0 82365900000.0 81809900000.0 90064800000.0 171900000000.0 175161000000.0 140661000000.0 48281700000.0 51372200000.0 67112600000.0 73545100000.0 91663700000.0 91663700000.0 73545100000.0 67112600000.0 51372200000.0 48281700000.0 140661000000.0 175161000000.0 171900000000.0 90064800000.0 81809900000.0 82365900000.0 62849000000.0 26319100000.0 39276300000.0 35930900000.0 38062900000.0 61405000000.0 50990400000.0 18996600000.0 14033600000.0 15808500000.0 20274200000.0 30669800000.0 47285000000.0 56544500000.0 39980300000.0 38168000000.0 38719800000.0 32017300000.0 68972500000.0 84881100000.0 86426100000.0 95933400000.0 163420000000.0 163253000000.0 128543000000.0 101251000000.0 63294200000.0 31488900000.0 23199900000.0 8818180000.0 47439800000.0 9035760000.0 49905800000.0 9035760000.0 65244700000.0 9035760000.0 71456400000.0 9035760000.0 87761700000.0 9035760000.0 104881000000.0 9035760000.0 87248600000.0 9035750000.0 81647500000.0 9035750000.0 76962100000.0 9035750000.0 81647500000.0 9035750000.0 87248600000.0 9035760000.0 104881000000.0 9035760000.0 87761700000.0 9035760000.0 71456400000.0 9035760000.0 65244700000.0 9035760000.0 49905800000.0 9035760000.0 47439800000.0 8818180000.0 23199900000.0 31488900000.0 63294200000.0 101251000000.0 128543000000.0 163253000000.0 163420000000.0 95933400000.0 86426100000.0 84881100000.0 68972500000.0 32017300000.0 38719800000.0 38168000000.0 39980300000.0 56544500000.0 47285000000.0 30669800000.0 20274200000.0 15808500000.0 17167100000.0 21101300000.0 28695100000.0 42778200000.0 50017400000.0 38839400000.0 37153900000.0 35248900000.0 33571500000.0 67881100000.0 79878300000.0 82621200000.0 93459800000.0 149123000000.0 149556000000.0 118264000000.0 93976600000.0 58989600000.0 30834000000.0 24683000000.0 9035760000.0 46250600000.0 9035760000.0 48282100000.0 9035760000.0 63119600000.0 9035760000.0 69090200000.0 9035760000.0 83224200000.0 9035760000.0 95036500000.0 9035760000.0 76845800000.0 9035750000.0 71156800000.0 9035750000.0 67182000000.0 9035750000.0 71156700000.0 9035750000.0 76845800000.0 9035760000.0 95036500000.0 9035760000.0 83224200000.0 9035760000.0 69090200000.0 9035760000.0 63119600000.0 9035760000.0 48282100000.0 9035760000.0 46250600000.0 9035760000.0 24683000000.0 30834000000.0 58989600000.0 93976600000.0 118264000000.0 149556000000.0 149123000000.0 93459800000.0 82621200000.0 79878300000.0 67881100000.0 33571500000.0 35248900000.0 37153900000.0 38839400000.0 50017400000.0 42778200000.0 28695100000.0 21101300000.0 17167100000.0 18398600000.0 21686600000.0 27112900000.0 39166900000.0 44691300000.0 38089900000.0 36933000000.0 33368100000.0 35662300000.0 66814600000.0 75316700000.0 78577000000.0 90912000000.0 135124000000.0 134869000000.0 106556000000.0 85016200000.0 53708800000.0 29317900000.0 25139300000.0 9035760000.0 44817400000.0 9035760000.0 46568400000.0 9035760000.0 60799000000.0 9035760000.0 66375900000.0 9035760000.0 78275500000.0 9035760000.0 85666900000.0 9035760000.0 67682800000.0 9035750000.0 61931500000.0 9035750000.0 58668700000.0 9035750000.0 61931500000.0 9035750000.0 67682700000.0 9035760000.0 85666900000.0 9035760000.0 78275500000.0 9035760000.0 66375900000.0 9035760000.0 60799000000.0 9035760000.0 46568400000.0 9035760000.0 44817400000.0 9035760000.0 25139300000.0 29317900000.0 53708800000.0 85016200000.0 106556000000.0 134869000000.0 135124000000.0 90912000000.0 78577000000.0 75316700000.0 66814600000.0 35662300000.0 33368100000.0 36933100000.0 38089900000.0 44691300000.0 39166900000.0 27112900000.0 21686600000.0 18398600000.0 19494300000.0 21961100000.0 25849400000.0 36242200000.0 40534600000.0 37750400000.0 37380200000.0 32496800000.0 37516800000.0 65630600000.0 71140700000.0 74287800000.0 87949800000.0 122032000000.0 120941000000.0 95531500000.0 76469100000.0 48960300000.0 28068500000.0 25291700000.0 9035760000.0 43234200000.0 9035760000.0 44809700000.0 9035760000.0 58340600000.0 9035760000.0 63344800000.0 9035760000.0 73109700000.0 9035760000.0 76908500000.0 9035760000.0 59622700000.0 9035750000.0 53886500000.0 9035750000.0 51273700000.0 9035750000.0 53886500000.0 9035750000.0 59622700000.0 9035760000.0 76908500000.0 9035760000.0 73109700000.0 9035760000.0 63344800000.0 9035760000.0 58340600000.0 9035760000.0 44809700000.0 9035760000.0 43234200000.0 9035760000.0 25291700000.0 28068500000.0 48960300000.0 76469100000.0 95531500000.0 120941000000.0 122032000000.0 87949800000.0 74287800000.0 71140700000.0 65630600000.0 37516800000.0 32496800000.0 37380200000.0 37750400000.0 40534600000.0 36242200000.0 25849400000.0 21961100000.0 19494300000.0 20447100000.0 22019100000.0 24796400000.0 33901600000.0 37358100000.0 37689400000.0 38246500000.0 32205100000.0 38842500000.0 64359500000.0 67571000000.0 70217800000.0 84843100000.0 110093000000.0 108073000000.0 85478000000.0 68523100000.0 44718500000.0 27014400000.0 25201600000.0 9035770000.0 41563900000.0 9035760000.0 43033900000.0 9035760000.0 55778800000.0 9035760000.0 60082200000.0 9035760000.0 67885800000.0 9035760000.0 68835900000.0 9035760000.0 52537500000.0 9035750000.0 46919400000.0 9035750000.0 44869100000.0 9035750000.0 46919300000.0 9035750000.0 52537500000.0 9035760000.0 68835900000.0 9035760000.0 67885800000.0 9035760000.0 60082200000.0 9035760000.0 55778800000.0 9035760000.0 43033900000.0 9035760000.0 41563900000.0 9035770000.0 25201600000.0 27014400000.0 44718500000.0 68523100000.0 85478000000.0 108073000000.0 110093000000.0 84843100000.0 70217800000.0 67571000000.0 64359500000.0 38842500000.0 32205100000.0 38246500000.0 37689400000.0 37358100000.0 33901600000.0 24796400000.0 22019100000.0 20447100000.0 21252100000.0 21948700000.0 23879000000.0 32053300000.0 34931500000.0 37730900000.0 39256100000.0 32245300000.0 39615100000.0 62981300000.0 64556000000.0 66494700000.0 81642300000.0 99405400000.0 96460300000.0 76481200000.0 61264900000.0 40983800000.0 25964700000.0 24927200000.0 9035770000.0 39850600000.0 9035770000.0 41257000000.0 9035760000.0 53139000000.0 9035760000.0 56682800000.0 9035760000.0 62728700000.0 9035760000.0 61478400000.0 9035760000.0 46311800000.0 9035750000.0 40921500000.0 9035750000.0 39341600000.0 9035750000.0 40921500000.0 9035750000.0 46311800000.0 9035760000.0 61478400000.0 9035760000.0 62728700000.0 9035760000.0 56682800000.0 9035760000.0 53139000000.0 9035760000.0 41257000000.0 9035770000.0 39850600000.0 9035770000.0 24927200000.0 25964700000.0 40983800000.0 61264900000.0 76481200000.0 96460300000.0 99405400000.0 81642300000.0 66494700000.0 64556000000.0 62981300000.0 39615100000.0 32245300000.0 39256100000.0 37730900000.0 34931500000.0 32053300000.0 23879000000.0 21948700000.0 21252100000.0 21906700000.0 21808700000.0 23056100000.0 30587900000.0 33035500000.0 37721200000.0 40152900000.0 32463100000.0 39907800000.0 61471500000.0 61999000000.0 63147300000.0 78386400000.0 89942700000.0 86136400000.0 68525100000.0 54734100000.0 37733500000.0 24782100000.0 24521600000.0 9035770000.0 38127000000.0 9035770000.0 39488000000.0 9035760000.0 50445100000.0 9035760000.0 53230800000.0 9035760000.0 57733800000.0 9035760000.0 54833900000.0 9035760000.0 40846400000.0 9035750000.0 35784700000.0 9035750000.0 34588500000.0 9035750000.0 35784700000.0 9035750000.0 40846400000.0 9035760000.0 54833900000.0 9035760000.0 57733800000.0 9035760000.0 53230800000.0 9035760000.0 50445100000.0 9035760000.0 39488000000.0 9035770000.0 38127000000.0 9035770000.0 24521600000.0 24782100000.0 37733500000.0 54734100000.0 68525100000.0 86136400000.0 89942700000.0 78386400000.0 63147300000.0 61999000000.0 61471500000.0 39907800000.0 32463100000.0 40152900000.0 37721200000.0 33035500000.0 30587900000.0 23056100000.0 21808700000.0 21906700000.0 22411000000.0 21630800000.0 22291000000.0 29392500000.0 31485400000.0 37552300000.0 40769700000.0 32745700000.0 39809000000.0 59815400000.0 59790600000.0 60129100000.0 75080800000.0 81614800000.0 77055100000.0 61542700000.0 48929900000.0 34909200000.0 23446300000.0 24029100000.0 9035770000.0 36416500000.0 9035770000.0 37731800000.0 9035760000.0 47723400000.0 9035760000.0 49795600000.0 9035760000.0 52970100000.0 9035760000.0 48878700000.0 9035760000.0 36056900000.0 9035750000.0 31405200000.0 9035750000.0 30516500000.0 9035750000.0 31405200000.0 9035750000.0 36056900000.0 9035760000.0 48878700000.0 9035760000.0 52970100000.0 9035760000.0 49795600000.0 9035760000.0 47723400000.0 9035760000.0 37731800000.0 9035770000.0 36416500000.0 9035770000.0 24029100000.0 23446300000.0 34909200000.0 48929900000.0 61542700000.0 77055100000.0 81614800000.0 75080800000.0 60129100000.0 59790600000.0 59815400000.0 39809000000.0 32745700000.0 40769700000.0 37552300000.0 31485400000.0 29392500000.0 22291000000.0 21630800000.0 22411000000.0 22767000000.0 21426800000.0 21552200000.0 28365700000.0 30141900000.0 37160400000.0 41039900000.0 33005600000.0 39398700000.0 58020200000.0 57808200000.0 57353900000.0 71693100000.0 74290500000.0 69116400000.0 55438200000.0 43819900000.0 32435000000.0 22007700000.0 23481800000.0 9035780000.0 34734400000.0 9035770000.0 35993000000.0 9035760000.0 45004400000.0 9035760000.0 46432000000.0 9035760000.0 48483500000.0 9035760000.0 43575000000.0 9035760000.0 31872300000.0 9035750000.0 27686600000.0 9035750000.0 27040900000.0 9035750000.0 27686600000.0 9035750000.0 31872300000.0 9035760000.0 43575000000.0 9035760000.0 48483500000.0 9035760000.0 46432000000.0 9035760000.0 45004400000.0 9035760000.0 35993000000.0 9035770000.0 34734400000.0 9035780000.0 23481800000.0 22007700000.0 32435000000.0 43819900000.0 55438200000.0 69116400000.0 74290500000.0 71693100000.0 57353900000.0 57808200000.0 58020200000.0 39398700000.0 33005600000.0 41039900000.0 37160400000.0 30141900000.0 28365700000.0 21552200000.0 21426800000.0 22767000000.0 22978900000.0 21196900000.0 20826600000.0 27424600000.0 28910300000.0 36522100000.0 40961900000.0 33175000000.0 38745900000.0 56108200000.0 55932600000.0 54740400000.0 68185200000.0 67824800000.0 62189700000.0 50107200000.0 39350100000.0 30236300000.0 20533900000.0 22899100000.0 9035780000.0 33089700000.0 9035770000.0 34276900000.0 9035760000.0 42320200000.0 9035760000.0 43182200000.0 9035760000.0 44300700000.0 9035760000.0 38876400000.0 9035760000.0 28231600000.0 9035750000.0 24540700000.0 9035750000.0 24084600000.0 9035750000.0 24540700000.0 9035750000.0 28231600000.0 9035760000.0 38876400000.0 9035760000.0 44300700000.0 9035760000.0 43182200000.0 9035760000.0 42320200000.0 9035760000.0 34276900000.0 9035770000.0 33089700000.0 9035780000.0 22899100000.0 20533900000.0 30236300000.0 39350100000.0 50107200000.0 62189700000.0 67824800000.0 68185200000.0 54740400000.0 55932600000.0 56108200000.0 38745900000.0 33175000000.0 40961900000.0 36522100000.0 28910300000.0 27424600000.0 20826600000.0 21196900000.0 22978900000.0 23052600000.0 20937500000.0 20119200000.0 26511400000.0 27731300000.0 35647300000.0 40562200000.0 33203500000.0 37907000000.0 54104600000.0 54073600000.0 52234000000.0 64549400000.0 62079700000.0 56136200000.0 45448700000.0 35454100000.0 28250400000.0 19084300000.0 22291600000.0 9035780000.0 31487600000.0 9035770000.0 32589600000.0 9035770000.0 39700200000.0 9035760000.0 40077300000.0 9035760000.0 40433900000.0 9035760000.0 34731900000.0 9035760000.0 25081200000.0 9035750000.0 21888500000.0 9035750000.0 21578600000.0 9035750000.0 21888500000.0 9035750000.0 25081200000.0 9035760000.0 34731900000.0 9035760000.0 40433900000.0 9035760000.0 40077300000.0 9035760000.0 39700200000.0 9035770000.0 32589600000.0 9035770000.0 31487600000.0 9035780000.0 22291600000.0 19084300000.0 28250400000.0 35454100000.0 45448700000.0 56136200000.0 62079700000.0 64549400000.0 52234000000.0 54073600000.0 54104600000.0 37907000000.0 33203500000.0 40562200000.0 35647300000.0 27731300000.0 26511400000.0 20119200000.0 20937500000.0 23052600000.0 22995300000.0 20644500000.0 19441000000.0 25596100000.0 26570100000.0 34567600000.0 39877000000.0 33059000000.0 36925400000.0 52030800000.0 52177800000.0 49802300000.0 60813200000.0 56935800000.0 50823300000.0 41369100000.0 32061900000.0 26430500000.0 17703200000.0 21664500000.0 9035780000.0 29931000000.0 9035770000.0 30937400000.0 9035770000.0 37168800000.0 9035760000.0 37139100000.0 9035760000.0 36884200000.0 9035760000.0 31089400000.0 9035760000.0 22371700000.0 9035750000.0 19659700000.0 9035750000.0 19461300000.0 9035750000.0 19659700000.0 9035750000.0 22371700000.0 9035760000.0 31089400000.0 9035760000.0 36884200000.0 9035760000.0 37139100000.0 9035760000.0 37168800000.0 9035770000.0 30937400000.0 9035770000.0 29931000000.0 9035780000.0 21664500000.0 17703200000.0 26430500000.0 32061900000.0 41369100000.0 50823300000.0 56935800000.0 60813200000.0 49802300000.0 52177800000.0 52030800000.0 36925400000.0 33059000000.0 39877000000.0 34567600000.0 26570100000.0 25596100000.0 19441000000.0 20644500000.0 22995300000.0 22815500000.0 20314800000.0 18800100000.0 24671300000.0 25410100000.0 33322900000.0 38943900000.0 32728300000.0 35832200000.0 49902900000.0 50219800000.0 47424200000.0 57024800000.0 52294200000.0 46133800000.0 37782400000.0 29105600000.0 24744600000.0 16421100000.0 21020700000.0 9035780000.0 28421600000.0 9035770000.0 29326800000.0 9035770000.0 34744100000.0 9035760000.0 34380600000.0 9035760000.0 33644900000.0 9035760000.0 27898200000.0 9035760000.0 20056900000.0 9035750000.0 17792400000.0 9035750000.0 17677900000.0 9035750000.0 17792400000.0 9035750000.0 20056900000.0 9035760000.0 27898200000.0 9035760000.0 33644900000.0 9035760000.0 34380600000.0 9035760000.0 34744100000.0 9035770000.0 29326800000.0 9035770000.0 28421600000.0 9035780000.0 21020700000.0 16421100000.0 24744600000.0 29105600000.0 37782400000.0 46133800000.0 52294200000.0 57024800000.0 47424200000.0 50219800000.0 49902900000.0 35832200000.0 32728300000.0 38943900000.0 33322900000.0 25410100000.0 24671300000.0 18800100000.0 20314800000.0 22815500000.0 22522400000.0 19945300000.0 18198200000.0 23741200000.0 24248600000.0 31953800000.0 37799900000.0 32213500000.0 34648900000.0 47732600000.0 48190000000.0 45083900000.0 53237300000.0 48074600000.0 41968500000.0 34612400000.0 26521300000.0 23174700000.0 15256800000.0 20362100000.0 9035780000.0 26960500000.0 9035770000.0 27763700000.0 9035770000.0 32438000000.0 9035760000.0 31808100000.0 9035760000.0 30703900000.0 9035760000.0 25110400000.0 9035760000.0 18092800000.0 9035750000.0 16232600000.0 9035750000.0 16180400000.0 9035750000.0 16232600000.0 9035750000.0 18092800000.0 9035760000.0 25110400000.0 9035760000.0 30703900000.0 9035760000.0 31808100000.0 9035760000.0 32438000000.0 9035770000.0 27763700000.0 9035770000.0 26960500000.0 9035780000.0 20362100000.0 15256800000.0 23174700000.0 26521300000.0 34612400000.0 41968500000.0 48074600000.0 53237300000.0 45083900000.0 48190000000.0 47732600000.0 34648900000.0 32213500000.0 37799900000.0 31953800000.0 24248600000.0 23741200000.0 18198200000.0 19945300000.0 22522400000.0 24252300000.0 14219400000.0 9035780000.0 9035770000.0 9035770000.0 9035760000.0 29422300000.0 9035760000.0 28045500000.0 9035760000.0 22682300000.0 9035760000.0 16437400000.0 9035750000.0 14933300000.0 9035750000.0 14926500000.0 9035750000.0 14933300000.0 9035750000.0 16437400000.0 9035760000.0 22682300000.0 9035760000.0 28045500000.0 9035760000.0 29422300000.0 9035760000.0 9035770000.0 9035770000.0 9035780000.0 14219400000.0 24252300000.0 22125600000.0 19533800000.0 17632200000.0 22812900000.0 23091000000.0 30497100000.0 36479600000.0 31525700000.0 33390100000.0 45528100000.0 46086500000.0 42768700000.0 49499800000.0 44213200000.0 38246600000.0 31793200000.0 21712600000.0 19690600000.0 25548300000.0 26253000000.0 30257500000.0 30257500000.0 26253000000.0 25548300000.0 19690600000.0 21712600000.0 31793200000.0 38246600000.0 44213200000.0 49499800000.0 42768700000.0 46086500000.0 45528100000.0 33390100000.0 31525700000.0 36479600000.0 30497100000.0 23091000000.0 22812900000.0 17632200000.0 19533800000.0 22125600000.0 21634800000.0 19079100000.0 17095300000.0 21892200000.0 21946800000.0 28984700000.0 35015200000.0 30680000000.0 32066200000.0 43295300000.0 43911700000.0 40469900000.0 45853700000.0 40660100000.0 34903400000.0 29269700000.0 22250400000.0 20355900000.0 13310600000.0 19008200000.0 9035780000.0 24185400000.0 9035770000.0 24798300000.0 9035770000.0 28205200000.0 9035760000.0 27219200000.0 9035760000.0 25651300000.0 9035760000.0 20573600000.0 9035760000.0 15051600000.0 9035750000.0 13854100000.0 9035750000.0 13879600000.0 9035750000.0 13854100000.0 9035750000.0 15051600000.0 9035760000.0 20573600000.0 9035760000.0 25651300000.0 9035760000.0 27219200000.0 9035760000.0 28205200000.0 9035770000.0 24798300000.0 9035770000.0 24185400000.0 9035780000.0 19008200000.0 13310600000.0 20355900000.0 22250400000.0 29269700000.0 34903400000.0 40660100000.0 45853700000.0 40469900000.0 43911700000.0 43295300000.0 32066200000.0 30680000000.0 35015200000.0 28984700000.0 21946800000.0 21892200000.0 17095300000.0 19079100000.0 21634800000.0 21059800000.0 18580700000.0 16579100000.0 20981800000.0 20825400000.0 27443500000.0 33435600000.0 29692600000.0 30685100000.0 41038100000.0 41670900000.0 38181900000.0 42331800000.0 37376400000.0 31887200000.0 26996200000.0 20476900000.0 19103400000.0 12526500000.0 18317300000.0 9035780000.0 22872100000.0 9035770000.0 23401800000.0 9035760000.0 26280000000.0 9035760000.0 25191600000.0 9035760000.0 23502100000.0 9035760000.0 18748100000.0 9035760000.0 13899000000.0 9035750000.0 12960000000.0 9035750000.0 13007600000.0 9035750000.0 12960000000.0 9035750000.0 13899000000.0 9035760000.0 18748100000.0 9035760000.0 23502100000.0 9035760000.0 25191600000.0 9035760000.0 26280000000.0 9035760000.0 23401800000.0 9035770000.0 22872100000.0 9035780000.0 18317300000.0 12526500000.0 19103400000.0 20476900000.0 26996200000.0 31887200000.0 37376400000.0 42331800000.0 38181900000.0 41670900000.0 41038100000.0 30685100000.0 29692600000.0 33435600000.0 27443500000.0 20825400000.0 20981800000.0 16579100000.0 18580700000.0 21059800000.0 20410100000.0 18039900000.0 16075000000.0 20082300000.0 19734700000.0 25895100000.0 31766700000.0 28579200000.0 29253100000.0 38759200000.0 39371600000.0 35902800000.0 38957800000.0 34332400000.0 29156500000.0 24936000000.0 18901500000.0 17952300000.0 11859100000.0 17620400000.0 9035780000.0 21607900000.0 9035770000.0 22064000000.0 9035760000.0 24478100000.0 9035760000.0 23329800000.0 9035760000.0 21577800000.0 9035760000.0 17172900000.0 9035760000.0 12946300000.0 9035750000.0 12221400000.0 9035750000.0 12283200000.0 9035750000.0 12221400000.0 9035750000.0 12946300000.0 9035760000.0 17172900000.0 9035760000.0 21577800000.0 9035760000.0 23329800000.0 9035760000.0 24478100000.0 9035760000.0 22064000000.0 9035770000.0 21607900000.0 9035780000.0 17620400000.0 11859100000.0 17952300000.0 18901500000.0 24936000000.0 29156500000.0 34332400000.0 38957800000.0 35902800000.0 39371600000.0 38759200000.0 29253100000.0 28579200000.0 31766700000.0 25895100000.0 19734700000.0 20082300000.0 16075000000.0 18039900000.0 20410100000.0 19694700000.0 17458500000.0 15575000000.0 19192300000.0 18680200000.0 24356700000.0 30030700000.0 27355100000.0 27776000000.0 36460500000.0 37022700000.0 33633500000.0 35747000000.0 31504500000.0 26677900000.0 23059000000.0 17500600000.0 16897700000.0 11298300000.0 16919900000.0 9035780000.0 20392000000.0 9035770000.0 20784200000.0 9035760000.0 22793800000.0 9035760000.0 21622500000.0 9035760000.0 19858500000.0 9035760000.0 15818200000.0 9035760000.0 12163500000.0 9035750000.0 11612700000.0 9035750000.0 11682600000.0 9035750000.0 11612700000.0 9035750000.0 12163500000.0 9035760000.0 15818200000.0 9035760000.0 19858500000.0 9035760000.0 21622500000.0 9035760000.0 22793800000.0 9035760000.0 20784200000.0 9035770000.0 20392000000.0 9035780000.0 16919900000.0 11298300000.0 16897700000.0 17500600000.0 23059000000.0 26677900000.0 31504500000.0 35747000000.0 33633500000.0 37022700000.0 36460500000.0 27776000000.0 27355100000.0 30030700000.0 24356700000.0 18680200000.0 19192300000.0 15575000000.0 17458500000.0 19694700000.0 18922300000.0 16839700000.0 15072100000.0 18309400000.0 17665500000.0 22840900000.0 28246500000.0 26034100000.0 26259000000.0 34143200000.0 34633900000.0 31376600000.0 32707300000.0 28873300000.0 24423000000.0 21341300000.0 16255400000.0 15932600000.0 10832300000.0 16218000000.0 9035780000.0 19223200000.0 9035770000.0 19560300000.0 9035760000.0 21219500000.0 9035760000.0 20057300000.0 9035760000.0 18324700000.0 9035760000.0 14657100000.0 9035760000.0 11523700000.0 9035750000.0 11112100000.0 9035750000.0 11185400000.0 9035750000.0 11112100000.0 9035750000.0 11523700000.0 9035760000.0 14657100000.0 9035760000.0 18324700000.0 9035760000.0 20057300000.0 9035760000.0 21219500000.0 9035760000.0 19560300000.0 9035770000.0 19223200000.0 9035780000.0 16218000000.0 10832300000.0 15932600000.0 16255400000.0 21341300000.0 24423000000.0 28873300000.0 32707300000.0 31376600000.0 34633900000.0 34143200000.0 26259000000.0 26034100000.0 28246500000.0 22840900000.0 17665500000.0 18309400000.0 15072100000.0 16839700000.0 18922300000.0 18100700000.0 16187000000.0 14560700000.0 17431000000.0 16691800000.0 21356800000.0 26429700000.0 24629100000.0 24707000000.0 31808200000.0 32215000000.0 29135800000.0 29839700000.0 26421800000.0 22367600000.0 19763300000.0 15149900000.0 15048600000.0 10449200000.0 15516600000.0 9035780000.0 18099500000.0 9035770000.0 18389000000.0 9035760000.0 19747000000.0 9035760000.0 18621600000.0 9035760000.0 16957400000.0 9035760000.0 13665000000.0 9035760000.0 11003400000.0 9035750000.0 10701300000.0 9035750000.0 10774400000.0 9035750000.0 10701300000.0 9035750000.0 11003400000.0 9035760000.0 13665000000.0 9035760000.0 16957400000.0 9035760000.0 18621600000.0 9035760000.0 19747000000.0 9035760000.0 18389000000.0 9035770000.0 18099500000.0 9035780000.0 15516600000.0 10449200000.0 15048600000.0 15149900000.0 19763300000.0 22367600000.0 26421800000.0 29839700000.0 29135800000.0 32215000000.0 31808200000.0 24707000000.0 24629100000.0 26429700000.0 21356800000.0 16691800000.0 17431000000.0 14560700000.0 16187000000.0 18100700000.0 17237300000.0 15504100000.0 14036700000.0 16554600000.0 15758800000.0 19909800000.0 24592700000.0 23151900000.0 23124500000.0 29456000000.0 29775200000.0 26914800000.0 27139900000.0 24134100000.0 20489900000.0 18308100000.0 14169800000.0 14236500000.0 10137200000.0 14817300000.0 9035770000.0 17018200000.0 9035770000.0 17266600000.0 9035760000.0 18367000000.0 9035760000.0 17302300000.0 9035760000.0 15738200000.0 9035760000.0 12819400000.0 9035760000.0 10582000000.0 9035750000.0 10364500000.0 9035750000.0 10434700000.0 9035750000.0 10364500000.0 9035750000.0 10582000000.0 9035760000.0 12819400000.0 9035760000.0 15738200000.0 9035760000.0 17302300000.0 9035760000.0 18367000000.0 9035760000.0 17266600000.0 9035770000.0 17018200000.0 9035770000.0 14817300000.0 10137200000.0 14236500000.0 14169800000.0 18308100000.0 20489900000.0 24134100000.0 27139900000.0 26914800000.0 29775200000.0 29456000000.0 23124500000.0 23151900000.0 24592700000.0 19909800000.0 15758800000.0 16554600000.0 14036700000.0 15504100000.0 17237300000.0 16338800000.0 14795200000.0 13497500000.0 15677700000.0 14864700000.0 18502800000.0 22745100000.0 21613000000.0 21515800000.0 27087300000.0 27322500000.0 24716800000.0 24598500000.0 21994300000.0 18769600000.0 16961000000.0 13301700000.0 13487100000.0 9885250000.0 14121000000.0 9035770000.0 15976400000.0 9035760000.0 16188500000.0 9035760000.0 17069900000.0 9035760000.0 16086400000.0 9035760000.0 14649600000.0 9035760000.0 12099800000.0 9035760000.0 10241600000.0 9035750000.0 10088300000.0 9035750000.0 10153600000.0 9035750000.0 10088300000.0 9035750000.0 10241600000.0 9035760000.0 12099800000.0 9035760000.0 14649600000.0 9035760000.0 16086400000.0 9035760000.0 17069900000.0 9035760000.0 16188500000.0 9035760000.0 15976400000.0 9035770000.0 14121000000.0 9885250000.0 13487100000.0 13301700000.0 16961000000.0 18769600000.0 21994300000.0 24598500000.0 24716800000.0 27322500000.0 27087300000.0 21515800000.0 21613000000.0 22745100000.0 18502800000.0 14864700000.0 15677700000.0 13497500000.0 14795200000.0 16338800000.0 15411100000.0 14063900000.0 12941900000.0 14798500000.0 14006600000.0 17136100000.0 20894100000.0 20022300000.0 19884700000.0 24702900000.0 24863400000.0 22544000000.0 22202900000.0 19986500000.0 17187400000.0 15708600000.0 12532200000.0 12790900000.0 9683140000.0 13428300000.0 9035770000.0 14970300000.0 9035760000.0 15149800000.0 9035760000.0 15846000000.0 9035760000.0 14961100000.0 9035760000.0 13674400000.0 9035760000.0 11487300000.0 9035760000.0 9966910000.0 9035750000.0 9861550000.0 9035750000.0 9920310000.0 9035750000.0 9861550000.0 9035750000.0 9966910000.0 9035760000.0 11487300000.0 9035760000.0 13674400000.0 9035760000.0 14961100000.0 9035760000.0 15846000000.0 9035760000.0 15149800000.0 9035760000.0 14970300000.0 9035770000.0 13428300000.0 9683140000.0 12790900000.0 12532200000.0 15708600000.0 17187400000.0 19986500000.0 22202900000.0 22544000000.0 24863400000.0 24702900000.0 19884700000.0 20022300000.0 20894100000.0 17136100000.0 14006600000.0 14798500000.0 12941900000.0 14063900000.0 15411100000.0 14459500000.0 13314100000.0 12369800000.0 13915800000.0 13180600000.0 15807900000.0 19044300000.0 18388300000.0 18234700000.0 22303800000.0 22402800000.0 20396800000.0 19937300000.0 18094100000.0 15724600000.0 14537800000.0 11848100000.0 12139400000.0 9521630000.0 12739600000.0 9035770000.0 13996000000.0 9035760000.0 14145300000.0 9035760000.0 14685400000.0 9035760000.0 13913800000.0 9035760000.0 12796200000.0 9035760000.0 10964600000.0 9035760000.0 9744890000.0 9035750000.0 9674430000.0 9035750000.0 9725520000.0 9035750000.0 9674430000.0 9035750000.0 9744890000.0 9035760000.0 10964600000.0 9035760000.0 12796200000.0 9035760000.0 13913800000.0 9035760000.0 14685400000.0 9035760000.0 14145300000.0 9035760000.0 13996000000.0 9035770000.0 12739600000.0 9521630000.0 12139400000.0 11848100000.0 14537800000.0 15724600000.0 18094100000.0 19937300000.0 20396800000.0 22402800000.0 22303800000.0 18234700000.0 18388300000.0 19044300000.0 15807900000.0 13180600000.0 13915800000.0 12369800000.0 13314100000.0 14459500000.0 13488900000.0 12549000000.0 11782100000.0 13028900000.0 12382400000.0 14514800000.0 17198600000.0 16719000000.0 16569000000.0 19891300000.0 19944200000.0 18274600000.0 17784000000.0 16299800000.0 14362600000.0 13435900000.0 11236100000.0 11524100000.0 9392490000.0 12054600000.0 9035760000.0 13048900000.0 9035760000.0 13169600000.0 9035760000.0 13578000000.0 9035760000.0 12931900000.0 9035760000.0 11999000000.0 9035760000.0 10515600000.0 9035760000.0 9564290000.0 9035750000.0 9518670000.0 9035750000.0 9561290000.0 9035750000.0 9518670000.0 9035750000.0 9564290000.0 9035760000.0 10515600000.0 9035760000.0 11999000000.0 9035760000.0 12931900000.0 9035760000.0 13578000000.0 9035760000.0 13169600000.0 9035760000.0 13048900000.0 9035760000.0 12054600000.0 9392490000.0 11524100000.0 11236100000.0 13435900000.0 14362600000.0 16299800000.0 17784000000.0 18274600000.0 19944200000.0 19891300000.0 16569000000.0 16719000000.0 17198600000.0 14514800000.0 12382400000.0 13028900000.0 11782100000.0 12549000000.0 13488900000.0 12503400000.0 11772000000.0 11180600000.0 12137700000.0 11607300000.0 13252000000.0 15358400000.0 15021700000.0 14890600000.0 17467100000.0 17489200000.0 16174900000.0 15723900000.0 14586300000.0 13082800000.0 12390400000.0 10682600000.0 10937400000.0 9288400000.0 11373000000.0 9035760000.0 12124500000.0 9035760000.0 12217600000.0 9035760000.0 12514100000.0 9035760000.0 12003200000.0 9035760000.0 11267500000.0 9035750000.0 10125200000.0 9035760000.0 9415470000.0 9035750000.0 9387110000.0 9035750000.0 9420660000.0 9035750000.0 9387110000.0 9035750000.0 9415470000.0 9035760000.0 10125200000.0 9035750000.0 11267500000.0 9035760000.0 12003200000.0 9035760000.0 12514100000.0 9035760000.0 12217600000.0 9035760000.0 12124500000.0 9035760000.0 11373000000.0 9288400000.0 10937400000.0 10682600000.0 12390400000.0 13082800000.0 14586300000.0 15723900000.0 16174900000.0 17489200000.0 17467100000.0 14890600000.0 15021700000.0 15358400000.0 13252000000.0 11607300000.0 12137700000.0 11180600000.0 11772000000.0 12503400000.0 11506800000.0 10985900000.0 10567800000.0 11242600000.0 10850100000.0 12013600000.0 13523400000.0 13303200000.0 13202400000.0 15033300000.0 15038200000.0 14094000000.0 13736500000.0 12935500000.0 11866700000.0 11388700000.0 10174500000.0 10372300000.0 9202870000.0 10694200000.0 9035760000.0 11217800000.0 9035760000.0 11283700000.0 9035760000.0 11483700000.0 9035750000.0 11115600000.0 9035750000.0 10586500000.0 9035750000.0 9779380000.0 9035750000.0 9290020000.0 9035750000.0 9273450000.0 9035750000.0 9297520000.0 9035750000.0 9273450000.0 9035750000.0 9290020000.0 9035750000.0 9779380000.0 9035750000.0 10586500000.0 9035750000.0 11115600000.0 9035750000.0 11483700000.0 9035760000.0 11283700000.0 9035760000.0 11217800000.0 9035760000.0 10694200000.0 9202870000.0 10372300000.0 10174500000.0 11388700000.0 11866700000.0 12935500000.0 13736500000.0 14094000000.0 15038200000.0 15033300000.0 13202400000.0 13303200000.0 13523400000.0 12013600000.0 10850100000.0 11242600000.0 10567800000.0 10985900000.0 11506800000.0 10502700000.0 10193500000.0 9946710000.0 10344500000.0 10105800000.0 10793200000.0 11692900000.0 11569700000.0 11507100000.0 12592100000.0 12590700000.0 12027200000.0 11801200000.0 11329400000.0 10695900000.0 10418000000.0 9698320000.0 9822080000.0 9130070000.0 10017500000.0 9035760000.0 10323800000.0 9035760000.0 10362800000.0 9035750000.0 10477200000.0 9035750000.0 10257000000.0 9035750000.0 9941080000.0 9035750000.0 9464680000.0 9035750000.0 9180520000.0 9035750000.0 9172050000.0 9035750000.0 9186400000.0 9035750000.0 9172050000.0 9035750000.0 9180520000.0 9035750000.0 9464680000.0 9035750000.0 9941080000.0 9035750000.0 10257000000.0 9035750000.0 10477200000.0 9035750000.0 10362800000.0 9035760000.0 10323800000.0 9035760000.0 10017500000.0 9130070000.0 9822080000.0 9698320000.0 10418000000.0 10695900000.0 11329400000.0 11801200000.0 12027200000.0 12590700000.0 12592100000.0 11507100000.0 11569700000.0 11692900000.0 10793200000.0 10105800000.0 10344500000.0 9946710000.0 10193500000.0 10502700000.0 9493980000.0 9397430000.0 9320480000.0 9444410000.0 9369180000.0 9583510000.0 9864960000.0 9827410000.0 9807500000.0 10146200000.0 10145300000.0 9968900000.0 9896590000.0 9749670000.0 9551900000.0 9465800000.0 9241100000.0 9280520000.0 9064620000.0 9342100000.0 9035750000.0 9437210000.0 9035750000.0 9449380000.0 9035750000.0 9484590000.0 9035750000.0 9415630000.0 9035750000.0 9316710000.0 9035750000.0 9168220000.0 9035750000.0 9080220000.0 9035750000.0 9077740000.0 9035750000.0 9082230000.0 9035750000.0 9077740000.0 9035750000.0 9080220000.0 9035750000.0 9168220000.0 9035750000.0 9316710000.0 9035750000.0 9415630000.0 9035750000.0 9484590000.0 9035750000.0 9449380000.0 9035750000.0 9437210000.0 9035750000.0 9342100000.0 9064620000.0 9280520000.0 9241100000.0 9465800000.0 9551900000.0 9749670000.0 9896590000.0 9968900000.0 10145300000.0 10146200000.0 9807500000.0 9827410000.0 9864960000.0 9583510000.0 9369180000.0 9444410000.0 9320480000.0 9397430000.0 9493980000.0 