# vtk DataFile Version 2.0
Time step 88
ASCII
DATASET UNSTRUCTURED_GRID
POINTS 5000 float
225949.0 140358.0 0
231609.0 138022.0 0
235576.0 140109.0 0
279481.0 139764.0 0
207328.0 143183.0 0
212904.0 144814.0 0
218095.0 141108.0 0
222291.0 142970.0 0
227681.0 144793.0 0
230222.0 141123.0 0
232675.0 144978.0 0
237968.0 144985.0 0
242198.0 141467.0 0
248815.0 142526.0 0
255668.0 143659.0 0
260025.0 145711.0 0
263874.0 143610.0 0
268802.0 144733.0 0
273632.0 141796.0 0
276663.0 145237.0 0
286543.0 144012.0 0
292326.0 143384.0 0
192060.0 147652.0 0
196241.0 149618.0 0
198540.0 145785.0 0
203397.0 147118.0 0
201041.0 149941.0 0
208611.0 148803.0 0
213498.0 149875.0 0
218239.0 146665.0 0
223612.0 147221.0 0
227832.0 149198.0 0
232371.0 150206.0 0
237879.0 150511.0 0
242768.0 147110.0 0
247782.0 148734.0 0
252466.0 146650.0 0
256511.0 148545.0 0
264915.0 148502.0 0
260870.0 150073.0 0
273196.0 147455.0 0
278059.0 149995.0 0
281248.0 145711.0 0
285153.0 148831.0 0
288603.0 147707.0 0
291840.0 148231.0 0
295553.0 147349.0 0
300454.0 147587.0 0
305858.0 148285.0 0
188826.0 153606.0 0
193770.0 153329.0 0
199045.0 153313.0 0
204414.0 152231.0 0
211109.0 154111.0 0
218091.0 152605.0 0
224086.0 152500.0 0
221293.0 155500.0 0
228948.0 153333.0 0
234390.0 154398.0 0
243180.0 152443.0 0
248224.0 153821.0 0
252321.0 150836.0 0
252918.0 155572.0 0
257353.0 153365.0 0
264391.0 152799.0 0
269226.0 151096.0 0
273990.0 151540.0 0
272469.0 154945.0 0
278887.0 155147.0 0
282243.0 151873.0 0
285465.0 155796.0 0
289175.0 151659.0 0
294159.0 151835.0 0
299209.0 153143.0 0
304798.0 153547.0 0
188391.0 159517.0 0
193962.0 158494.0 0
199926.0 159302.0 0
206645.0 157989.0 0
215008.0 157732.0 0
220640.0 159695.0 0
226295.0 157306.0 0
231071.0 156524.0 0
239106.0 156276.0 0
234656.0 158732.0 0
244404.0 157504.0 0
249193.0 158720.0 0
253731.0 160195.0 0
257168.0 157761.0 0
261402.0 156513.0 0
267778.0 157191.0 0
275248.0 156616.0 0
272826.0 158833.0 0
277022.0 159772.0 0
281484.0 159177.0 0
291613.0 156609.0 0
296361.0 157062.0 0
297708.0 160742.0 0
301591.0 157999.0 0
306415.0 158293.0 0
311890.0 157446.0 0
186025.0 163859.0 0
190165.0 166058.0 0
195449.0 163870.0 0
200932.0 165183.0 0
206300.0 164202.0 0
211242.0 161946.0 0
216391.0 163630.0 0
222135.0 164546.0 0
225265.0 161746.0 0
225715.0 165408.0 0
230145.0 161013.0 0
239504.0 160930.0 0
235496.0 164101.0 0
242717.0 161083.0 0
241479.0 165030.0 0
245981.0 161776.0 0
246544.0 165570.0 0
249853.0 163195.0 0
254264.0 165017.0 0
258154.0 161906.0 0
263458.0 161651.0 0
271473.0 164286.0 0
277616.0 164470.0 0
282263.0 163583.0 0
287862.0 161923.0 0
293568.0 161658.0 0
291899.0 164861.0 0
295126.0 165587.0 0
299378.0 164958.0 0
302911.0 162410.0 0
306528.0 162156.0 0
305052.0 166309.0 0
311424.0 164582.0 0
182383.0 170631.0 0
186646.0 169351.0 0
197208.0 169629.0 0
204444.0 170129.0 0
210586.0 166830.0 0
214533.0 167926.0 0
219179.0 168431.0 0
224313.0 169148.0 0
229853.0 166537.0 0
234278.0 170348.0 0
244279.0 169593.0 0
250236.0 167281.0 0
254150.0 170259.0 0
259523.0 167309.0 0
265499.0 166897.0 0
275864.0 168026.0 0
272699.0 169968.0 0
281868.0 168437.0 0
285099.0 166068.0 0
289593.0 166550.0 0
287032.0 169792.0 0
292409.0 168471.0 0
301451.0 168825.0 0
296884.0 169833.0 0
305082.0 171275.0 0
308881.0 169548.0 0
317205.0 168625.0 0
313145.0 169889.0 0
181567.0 176246.0 0
185656.0 173745.0 0
191244.0 171938.0 0
193962.0 176420.0 0
198325.0 175071.0 0
210353.0 171767.0 0
215441.0 172141.0 0
221062.0 174460.0 0
228573.0 171716.0 0
226375.0 175709.0 0
231945.0 175349.0 0
236672.0 175178.0 0
239714.0 171618.0 0
243073.0 173570.0 0
248923.0 171464.0 0
246353.0 175614.0 0
252215.0 175983.0 0
258867.0 173069.0 0
263089.0 171032.0 0
263806.0 175844.0 0
268009.0 171779.0 0
273230.0 173995.0 0
277824.0 172278.0 0
283214.0 173230.0 0
287646.0 174760.0 0
291770.0 172742.0 0
296125.0 175121.0 0
300713.0 173075.0 0
305823.0 176212.0 0
310712.0 173838.0 0
315694.0 173111.0 0
317881.0 176254.0 0
184393.0 179478.0 0
189094.0 177935.0 0
193848.0 181319.0 0
198277.0 179481.0 0
201444.0 180781.0 0
203744.0 176647.0 0
209647.0 177076.0 0
215383.0 177314.0 0
222672.0 180026.0 0
229032.0 179166.0 0
234691.0 180123.0 0
241294.0 177672.0 0
248359.0 180303.0 0
258133.0 179508.0 0
264358.0 181286.0 0
269615.0 177301.0 0
275444.0 178200.0 0
280385.0 176922.0 0
285062.0 179113.0 0
291564.0 177960.0 0
295749.0 180137.0 0
300695.0 178365.0 0
305548.0 181636.0 0
310352.0 179242.0 0
314352.0 177071.0 0
317809.0 180026.0 0
181873.0 182398.0 0
185385.0 183237.0 0
182682.0 186585.0 0
189299.0 183056.0 0
192564.0 186259.0 0
198679.0 184189.0 0
202608.0 183283.0 0
206432.0 181858.0 0
204077.0 186202.0 0
212259.0 182052.0 0
218011.0 182200.0 0
222229.0 184396.0 0
226056.0 182471.0 0
230407.0 183904.0 0
235265.0 185492.0 0
239572.0 183021.0 0
244023.0 181881.0 0
249305.0 185300.0 0
252768.0 182154.0 0
260585.0 185757.0 0
266171.0 186074.0 0
269311.0 182500.0 0
274512.0 183432.0 0
279477.0 181588.0 0
284017.0 184645.0 0
289306.0 182898.0 0
294507.0 184841.0 0
300320.0 184208.0 0
306249.0 186348.0 0
314047.0 182414.0 0
319909.0 183027.0 0
317243.0 185615.0 0
187723.0 187522.0 0
183748.0 190593.0 0
191497.0 190330.0 0
196008.0 189339.0 0
200686.0 188823.0 0
205135.0 190779.0 0
208974.0 186929.0 0
215031.0 187339.0 0
220746.0 189249.0 0
226055.0 187010.0 0
231397.0 189409.0 0
239021.0 187347.0 0
236289.0 189399.0 0
243849.0 186913.0 0
248319.0 189743.0 0
254411.0 186756.0 0
263891.0 189912.0 0
270789.0 186697.0 0
274333.0 189387.0 0
278750.0 186761.0 0
283413.0 190128.0 0
289297.0 188806.0 0
294250.0 189593.0 0
297737.0 188287.0 0
302619.0 189547.0 0
311488.0 187538.0 0
317349.0 191407.0 0
180543.0 193592.0 0
185012.0 196578.0 0
187127.0 192201.0 0
189555.0 195299.0 0
194222.0 194247.0 0
199457.0 193330.0 0
203453.0 194603.0 0
207465.0 194961.0 0
211209.0 191796.0 0
216356.0 192660.0 0
220944.0 194803.0 0
225548.0 192255.0 0
230338.0 194870.0 0
235495.0 193281.0 0
239633.0 191248.0 0
244718.0 191533.0 0
242314.0 193994.0 0
248078.0 194825.0 0
252352.0 191550.0 0
258024.0 191695.0 0
264025.0 194216.0 0
269011.0 191503.0 0
274630.0 193248.0 0
272030.0 195924.0 0
278342.0 191847.0 0
276925.0 196712.0 0
281788.0 195007.0 0
287058.0 193706.0 0
291927.0 193931.0 0
297765.0 193373.0 0
303303.0 194406.0 0
307625.0 192324.0 0
312224.0 193699.0 0
319817.0 196849.0 0
323396.0 193359.0 0
178384.0 199809.0 0
183706.0 201894.0 0
191851.0 199611.0 0
198155.0 198988.0 0
204271.0 198902.0 0
212253.0 196664.0 0
209400.0 201074.0 0
216726.0 197068.0 0
220286.0 200234.0 0
225571.0 197807.0 0
230451.0 199428.0 0
239002.0 196582.0 0
234181.0 197478.0 0
236664.0 200618.0 0
243685.0 197698.0 0
249078.0 199794.0 0
253788.0 196915.0 0
259851.0 197106.0 0
257265.0 200783.0 0
264573.0 198876.0 0
267845.0 196141.0 0
269577.0 200308.0 0
273612.0 199214.0 0
281041.0 199655.0 0
285369.0 197877.0 0
289103.0 197054.0 0
288375.0 201026.0 0
296527.0 197913.0 0
292781.0 199148.0 0
301050.0 199112.0 0
307441.0 198258.0 0
314273.0 199131.0 0
180418.0 206142.0 0
188350.0 203839.0 0
192759.0 204614.0 0
197219.0 204683.0 0
201752.0 203390.0 0
206059.0 205438.0 0
210817.0 205936.0 0
214838.0 201193.0 0
215268.0 205837.0 0
220269.0 205677.0 0
225220.0 203376.0 0
229876.0 203045.0 0
233964.0 204412.0 0
238549.0 203852.0 0
240877.0 201055.0 0
242154.0 205353.0 0
244913.0 201744.0 0
248216.0 204217.0 0
253113.0 202980.0 0
257812.0 204526.0 0
261108.0 201491.0 0
261878.0 205132.0 0
265533.0 203117.0 0
271932.0 204525.0 0
276629.0 202208.0 0
281487.0 204262.0 0
284498.0 201675.0 0
286377.0 205512.0 0
291755.0 204036.0 0
296564.0 202868.0 0
300825.0 204152.0 0
304896.0 203200.0 0
309992.0 204084.0 0
314876.0 206059.0 0
319113.0 203324.0 0
179662.0 211551.0 0
185564.0 208546.0 0
190110.0 207539.0 0
190118.0 210795.0 0
194083.0 209236.0 0
199205.0 209034.0 0
203740.0 209630.0 0
208235.0 209719.0 0
212760.0 209879.0 0
217720.0 210183.0 0
224609.0 208644.0 0
228637.0 210858.0 0
228969.0 206873.0 0
232897.0 209054.0 0
237635.0 207529.0 0
241513.0 210018.0 0
246048.0 208298.0 0
255099.0 207410.0 0
250922.0 207497.0 0
256526.0 210752.0 0
259234.0 208214.0 0
263475.0 208627.0 0
267639.0 206771.0 0
271828.0 209157.0 0
276296.0 207332.0 0
280953.0 208777.0 0
285674.0 210473.0 0
290735.0 208913.0 0
295645.0 207665.0 0
297405.0 211510.0 0
300457.0 208304.0 0
306031.0 208140.0 0
311155.0 209275.0 0
316307.0 212034.0 0
322411.0 210423.0 0
178338.0 215707.0 0
183180.0 214500.0 0
187338.0 213677.0 0
192548.0 214538.0 0
196928.0 212728.0 0
200797.0 213288.0 0
197061.0 216713.0 0
205745.0 214349.0 0
210246.0 212999.0 0
210362.0 217031.0 0
214123.0 214260.0 0
218825.0 214950.0 0
222147.0 212172.0 0
225558.0 212638.0 0
231923.0 213430.0 0
228153.0 214778.0 0
236796.0 212310.0 0
241093.0 213746.0 0
249283.0 211127.0 0
245197.0 213084.0 0
249401.0 214893.0 0
253001.0 210620.0 0
254515.0 215080.0 0
260716.0 212786.0 0
267055.0 211827.0 0
269375.0 216066.0 0
272005.0 213300.0 0
276808.0 212473.0 0
281945.0 213213.0 0
289575.0 214380.0 0
293872.0 212390.0 0
303226.0 212139.0 0
299899.0 214825.0 0
308039.0 213670.0 0
303953.0 216616.0 0
311971.0 212936.0 0
312576.0 216552.0 0
177450.0 221540.0 0
181365.0 218798.0 0
185135.0 222434.0 0
186231.0 218179.0 0
190510.0 219259.0 0
194574.0 219751.0 0
201442.0 217797.0 0
206185.0 220195.0 0
211072.0 221370.0 0
214415.0 218625.0 0
219082.0 219409.0 0
223980.0 216792.0 0
233642.0 217164.0 0
229033.0 218800.0 0
238500.0 216430.0 0
236604.0 220011.0 0
242840.0 216647.0 0
240748.0 220222.0 0
246305.0 216829.0 0
244988.0 220144.0 0
249861.0 219692.0 0
254827.0 220434.0 0
259132.0 217719.0 0
264638.0 216602.0 0
262289.0 220900.0 0
270238.0 219529.0 0
266689.0 220818.0 0
274126.0 217231.0 0
272881.0 221564.0 0
276607.0 221391.0 0
279554.0 217353.0 0
284929.0 216226.0 0
283925.0 220140.0 0
288464.0 219368.0 0
292551.0 218452.0 0
295699.0 216185.0 0
295681.0 220124.0 0
300289.0 219481.0 0
307996.0 219454.0 0
312833.0 221269.0 0
317721.0 218998.0 0
181234.0 224372.0 0
187918.0 225723.0 0
192410.0 223845.0 0
196905.0 222619.0 0
196345.0 227172.0 0
201338.0 222953.0 0
206106.0 225925.0 0
215547.0 223171.0 0
220636.0 223419.0 0
223243.0 225713.0 0
224936.0 221872.0 0
229216.0 223194.0 0
232957.0 221808.0 0
237669.0 224454.0 0
242652.0 223569.0 0
246867.0 224106.0 0
251841.0 224495.0 0
258642.0 222182.0 0
255958.0 224093.0 0
264217.0 224986.0 0
269545.0 224082.0 0
274417.0 225118.0 0
280429.0 221814.0 0
282447.0 226778.0 0
283160.0 224045.0 0
287263.0 223455.0 0
292459.0 222844.0 0
297859.0 224073.0 0
303651.0 223559.0 0
309457.0 224453.0 0
313541.0 225098.0 0
317488.0 224605.0 0
179924.0 228697.0 0
185137.0 230181.0 0
191498.0 228511.0 0
195997.0 232443.0 0
201280.0 228427.0 0
211000.0 225784.0 0
214590.0 227316.0 0
215939.0 230293.0 0
218929.0 227348.0 0
226928.0 226297.0 0
223580.0 230688.0 0
232465.0 226560.0 0
229257.0 229619.0 0
236413.0 228530.0 0
242331.0 228480.0 0
248616.0 228338.0 0
252791.0 228351.0 0
255332.0 226787.0 0
259503.0 225958.0 0
257541.0 230597.0 0
262536.0 229179.0 0
266997.0 228341.0 0
271464.0 228053.0 0
278991.0 225778.0 0
281588.0 229502.0 0
285421.0 226790.0 0
286008.0 230320.0 0
290078.0 227221.0 0
291096.0 231826.0 0
295755.0 229311.0 0
301298.0 228462.0 0
306948.0 229271.0 0
311913.0 228224.0 0
311357.0 232243.0 0
315282.0 230495.0 0
186237.0 236827.0 0
190251.0 233206.0 0
200894.0 233029.0 0
206111.0 232069.0 0
203646.0 235951.0 0
210953.0 235234.0 0
211539.0 230593.0 0
215334.0 233733.0 0
218754.0 231704.0 0
219599.0 234887.0 0
233195.0 231281.0 0
228738.0 233774.0 0
232884.0 235974.0 0
237665.0 231815.0 0
237120.0 235289.0 0
241749.0 234155.0 0
246361.0 232311.0 0
248524.0 235502.0 0
245182.0 236035.0 0
251905.0 232549.0 0
265412.0 231808.0 0
261982.0 233252.0 0
269679.0 231960.0 0
266607.0 235731.0 0
276097.0 230650.0 0
281165.0 233266.0 0
286233.0 235445.0 0
296251.0 236608.0 0
299363.0 232646.0 0
301318.0 236073.0 0
305645.0 234843.0 0
310847.0 237463.0 0
315234.0 234747.0 0
317414.0 238320.0 0
188780.0 240907.0 0
193317.0 238019.0 0
196034.0 243283.0 0
199254.0 237776.0 0
207169.0 236897.0 0
211529.0 238689.0 0
215885.0 238000.0 0
220551.0 238613.0 0
224324.0 236176.0 0
224487.0 240692.0 0
228517.0 238399.0 0
232333.0 240603.0 0
236317.0 239008.0 0
239786.0 237897.0 0
243355.0 238916.0 0
247205.0 239137.0 0
251638.0 238063.0 0
256787.0 236386.0 0
262013.0 237290.0 0
264924.0 240596.0 0
269605.0 240037.0 0
272134.0 235936.0 0
274366.0 239428.0 0
277219.0 236299.0 0
281345.0 237487.0 0
291750.0 235639.0 0
300253.0 239994.0 0
305796.0 240839.0 0
310098.0 243753.0 0
195391.0 247936.0 0
204158.0 239867.0 0
205466.0 244292.0 0
200951.0 243124.0 0
208650.0 240656.0 0
210160.0 244707.0 0
213433.0 241960.0 0
219121.0 243135.0 0
224173.0 245119.0 0
228724.0 243045.0 0
233119.0 245291.0 0
236072.0 242540.0 0
240155.0 241958.0 0
241648.0 245768.0 0
249834.0 242351.0 0
245022.0 243153.0 0
254568.0 241675.0 0
252483.0 245672.0 0
259378.0 241612.0 0
259810.0 245858.0 0
256435.0 245388.0 0
263015.0 244383.0 0
267838.0 245254.0 0
273103.0 242526.0 0
276158.0 245704.0 0
278084.0 241380.0 0
283988.0 241260.0 0
286686.0 245744.0 0
290554.0 240696.0 0
296306.0 243679.0 0
302033.0 243896.0 0
199454.0 247407.0 0
204445.0 248516.0 0
212216.0 248289.0 0
208554.0 248203.0 0
214886.0 245993.0 0
217968.0 247890.0 0
215474.0 250267.0 0
221505.0 248556.0 0
218600.0 251378.0 0
227256.0 246392.0 0
226184.0 249794.0 0
229703.0 247627.0 0
232666.0 249261.0 0
237816.0 246274.0 0
235240.0 248619.0 0
238122.0 250483.0 0
240832.0 248567.0 0
248276.0 246750.0 0
244544.0 248291.0 0
250671.0 249452.0 0
254437.0 249258.0 0
258573.0 249410.0 0
263349.0 248689.0 0
266317.0 250177.0 0
268812.0 249751.0 0
272183.0 246668.0 0
271841.0 250162.0 0
274606.0 248879.0 0
281305.0 246282.0 0
277756.0 249818.0 0
285084.0 249934.0 0
291027.0 246381.0 0
294487.0 249349.0 0
300145.0 247332.0 0
305518.0 247308.0 0
202379.0 251396.0 0
202299.0 255125.0 0
207983.0 251806.0 0
205313.0 253003.0 0
208109.0 254769.0 0
205659.0 256341.0 0
211669.0 251772.0 0
210791.0 255045.0 0
218999.0 254269.0 0
215131.0 254589.0 0
222870.0 253038.0 0
221240.0 256601.0 0
227203.0 254359.0 0
230012.0 251807.0 0
234253.0 252675.0 0
231086.0 255591.0 0
238481.0 254597.0 0
242436.0 252077.0 0
247639.0 251838.0 0
245047.0 254983.0 0
247961.0 256210.0 0
251991.0 252636.0 0
250475.0 255075.0 0
255912.0 253388.0 0
257790.0 256357.0 0
264420.0 252329.0 0
260609.0 253530.0 0
264617.0 256334.0 0
267144.0 252803.0 0
270457.0 253453.0 0
268213.0 255905.0 0
274290.0 252243.0 0
281338.0 251246.0 0
277942.0 254647.0 0
282982.0 255258.0 0
289353.0 249879.0 0
287474.0 253712.0 0
294230.0 254169.0 0
291183.0 252238.0 0
297931.0 251428.0 0
297972.0 254965.0 0
304323.0 254842.0 0
202321.0 258842.0 0
208897.0 257503.0 0
206109.0 260018.0 0
212134.0 258025.0 0
209795.0 261210.0 0
218318.0 257693.0 0
215216.0 258698.0 0
217972.0 261362.0 0
224481.0 257807.0 0
221408.0 259841.0 0
228319.0 258462.0 0
232494.0 260201.0 0
234860.0 256834.0 0
238374.0 258640.0 0
236265.0 260639.0 0
241941.0 256664.0 0
241360.0 260876.0 0
245476.0 259466.0 0
253728.0 257349.0 0
250054.0 259082.0 0
257610.0 259214.0 0
259940.0 261299.0 0
255396.0 260647.0 0
260732.0 257963.0 0
263802.0 261258.0 0
270407.0 257547.0 0
267598.0 259303.0 0
273172.0 256138.0 0
271505.0 261401.0 0
275181.0 258901.0 0
279088.0 259054.0 0
282477.0 259957.0 0
290369.0 256784.0 0
286408.0 259450.0 0
294093.0 258683.0 0
294530.0 261846.0 0
297530.0 258356.0 0
197681.0 266581.0 0
202674.0 262850.0 0
202505.0 266685.0 0
206531.0 264099.0 0
213986.0 262556.0 0
210701.0 266005.0 0
216901.0 266768.0 0
220718.0 263423.0 0
221754.0 266578.0 0
224906.0 262626.0 0
229047.0 262501.0 0
228890.0 266066.0 0
232587.0 264922.0 0
238280.0 262509.0 0
235532.0 263472.0 0
240675.0 264308.0 0
243966.0 263946.0 0
248387.0 263302.0 0
252789.0 262725.0 0
257242.0 262734.0 0
255489.0 266552.0 0
260641.0 265371.0 0
265340.0 265855.0 0
267699.0 262684.0 0
269557.0 265985.0 0
273581.0 265716.0 0
280123.0 263136.0 0
276221.0 262696.0 0
277616.0 266257.0 0
283968.0 263536.0 0
284557.0 267065.0 0
280958.0 266894.0 0
290635.0 261900.0 0
287388.0 263995.0 0
287915.0 267490.0 0
294363.0 264452.0 0
291342.0 266107.0 0
294541.0 267160.0 0
297657.0 261970.0 0
297578.0 265475.0 0
201790.0 269799.0 0
206171.0 267430.0 0
204835.0 269959.0 0
208635.0 269840.0 0
213132.0 270086.0 0
220572.0 270811.0 0
224346.0 272030.0 0
225302.0 268021.0 0
227944.0 272390.0 0
233225.0 269041.0 0
229702.0 269416.0 0
237828.0 267391.0 0
242336.0 267087.0 0
242944.0 270387.0 0
239816.0 271863.0 0
246198.0 267502.0 0
246984.0 271019.0 0
250710.0 267602.0 0
254150.0 270670.0 0
259238.0 270221.0 0
263338.0 269440.0 0
267547.0 270923.0 0
272284.0 270282.0 0
276159.0 268888.0 0
279279.0 270583.0 0
275960.0 272322.0 0
282881.0 269950.0 0
286434.0 271293.0 0
290663.0 269882.0 0
293688.0 269838.0 0
297410.0 269198.0 0
202914.0 273204.0 0
202223.0 276761.0 0
206977.0 272562.0 0
205791.0 275670.0 0
205305.0 277671.0 0
210501.0 273065.0 0
213682.0 275077.0 0
209034.0 276241.0 0
216777.0 272541.0 0
218324.0 275326.0 0
221936.0 275544.0 0
225867.0 275636.0 0
231741.0 272990.0 0
230240.0 276418.0 0
233370.0 275964.0 0
235842.0 273192.0 0
238144.0 276630.0 0
240821.0 275071.0 0
244529.0 274222.0 0
248047.0 276377.0 0
250434.0 272627.0 0
253390.0 275326.0 0
256717.0 273491.0 0
260311.0 275148.0 0
256936.0 277513.0 0
262699.0 273102.0 0
265610.0 275526.0 0
269676.0 275013.0 0
272372.0 274056.0 0
279233.0 274585.0 0
275507.0 275897.0 0
282772.0 273581.0 0
283368.0 276854.0 0
289815.0 272971.0 0
286402.0 275134.0 0
290150.0 277027.0 0
293529.0 273119.0 0
294828.0 276822.0 0
297393.0 272717.0 0
298338.0 275543.0 0
196515.0 280214.0 0
202874.0 280213.0 0
207265.0 280130.0 0
212110.0 279390.0 0
210438.0 283009.0 0
216640.0 277944.0 0
215768.0 281766.0 0
219848.0 279343.0 0
223645.0 280083.0 0
219118.0 282760.0 0
227396.0 279330.0 0
232546.0 279258.0 0
230369.0 282323.0 0
235325.0 277603.0 0
235901.0 280948.0 0
239682.0 279922.0 0
242740.0 278050.0 0
245583.0 279429.0 0
249598.0 280535.0 0
251778.0 277856.0 0
253897.0 279574.0 0
252171.0 282256.0 0
259335.0 280474.0 0
262360.0 277977.0 0
262959.0 281963.0 0
268825.0 278423.0 0
265773.0 279517.0 0
269737.0 281746.0 0
271968.0 277665.0 0
273023.0 280767.0 0
280224.0 277683.0 0
276895.0 279745.0 0
280148.0 282159.0 0
282171.0 280090.0 0
284432.0 282675.0 0
286240.0 279470.0 0
289418.0 282298.0 0
293422.0 281006.0 0
297922.0 278249.0 0
297774.0 280926.0 0
303051.0 279545.0 0
195692.0 285132.0 0
202903.0 283876.0 0
201945.0 287263.0 0
206536.0 283233.0 0
208708.0 286010.0 0
205383.0 287012.0 0
213768.0 284545.0 0
211774.0 286900.0 0
217354.0 285713.0 0
223168.0 284629.0 0
220012.0 287394.0 0
226835.0 283322.0 0
228259.0 286245.0 0
233915.0 284272.0 0
231476.0 287313.0 0
237959.0 283414.0 0
239756.0 283312.0 0
237155.0 286579.0 0
243137.0 283127.0 0
240495.0 285747.0 0
244547.0 287062.0 0
246921.0 282871.0 0
249560.0 283520.0 0
247622.0 285907.0 0
251322.0 285625.0 0
255100.0 286721.0 0
255718.0 282612.0 0
259903.0 284842.0 0
263594.0 285725.0 0
266353.0 282854.0 0
267363.0 287017.0 0
273759.0 284219.0 0
270907.0 285430.0 0
274219.0 287530.0 0
276783.0 284118.0 0
281876.0 285209.0 0
284511.0 287673.0 0
286579.0 284580.0 0
290342.0 286238.0 0
293547.0 285415.0 0
297079.0 284350.0 0
297690.0 287680.0 0
202005.0 289811.0 0
202161.0 292497.0 0
208889.0 289330.0 0
205485.0 290061.0 0
208923.0 292555.0 0
211708.0 289338.0 0
211593.0 291810.0 0
215263.0 288502.0 0
218627.0 289889.0 0
214739.0 291861.0 0
217510.0 292660.0 0
221427.0 291252.0 0
225066.0 289554.0 0
229097.0 290226.0 0
232311.0 291019.0 0
234868.0 288779.0 0
239085.0 289810.0 0
236247.0 291824.0 0
241767.0 288190.0 0
242563.0 291302.0 0
249570.0 289196.0 0
246053.0 290689.0 0
253343.0 291137.0 0
258354.0 289748.0 0
259021.0 293165.0 0
261907.0 288806.0 0
264751.0 289863.0 0
262144.0 292052.0 0
269475.0 290447.0 0
266352.0 292759.0 0
271733.0 288295.0 0
273343.0 290631.0 0
278333.0 287914.0 0
276556.0 291640.0 0
281700.0 290308.0 0
285130.0 290897.0 0
287827.0 288509.0 0
288725.0 290964.0 0
294672.0 288466.0 0
291894.0 289042.0 0
295154.0 291297.0 0
291848.0 292110.0 0
298153.0 290211.0 0
298003.0 292746.0 0
202057.0 295288.0 0
202753.0 298324.0 0
205557.0 293685.0 0
206437.0 297338.0 0
213425.0 294936.0 0
210085.0 295893.0 0
216883.0 296125.0 0
220576.0 295023.0 0
224368.0 294923.0 0
227783.0 294198.0 0
231440.0 294933.0 0
234990.0 295015.0 0
237267.0 296987.0 0
239842.0 293882.0 0
243247.0 294149.0 0
241891.0 296868.0 0
247095.0 294892.0 0
250748.0 293837.0 0
252460.0 296710.0 0
255537.0 294203.0 0
256139.0 297323.0 0
263610.0 294194.0 0
260258.0 296145.0 0
263611.0 297298.0 0
268393.0 295479.0 0
271669.0 293772.0 0
274872.0 295114.0 0
271497.0 297038.0 0
279235.0 293385.0 0
277964.0 295880.0 0
282482.0 293810.0 0
280843.0 297077.0 0
285116.0 296465.0 0
286596.0 293283.0 0
289245.0 295157.0 0
288257.0 297890.0 0
293224.0 295684.0 0
296800.0 295803.0 0
202495.0 301419.0 0
207697.0 300723.0 0
205470.0 302706.0 0
211273.0 299194.0 0
210915.0 303112.0 0
214399.0 298813.0 0
217791.0 299880.0 0
214930.0 302432.0 0
217994.0 303373.0 0
221011.0 299398.0 0
221516.0 303293.0 0
224803.0 298935.0 0
227826.0 298732.0 0
225176.0 302456.0 0
227770.0 302095.0 0
231473.0 299342.0 0
230543.0 302802.0 0
234790.0 299874.0 0
237727.0 301134.0 0
239949.0 298976.0 0
244791.0 298347.0 0
240782.0 302342.0 0
243851.0 301811.0 0
249832.0 298459.0 0
247600.0 300618.0 0
253885.0 299734.0 0
251632.0 301605.0 0
258974.0 299793.0 0
256098.0 301791.0 0
259754.0 303203.0 0
262438.0 300314.0 0
266892.0 298865.0 0
266468.0 302803.0 0
270585.0 299742.0 0
274227.0 298441.0 0
271165.0 303153.0 0
274402.0 302019.0 0
277778.0 298896.0 0
280273.0 300604.0 0
277494.0 303322.0 0
283314.0 299077.0 0
282738.0 302445.0 0
286508.0 300333.0 0
285738.0 303377.0 0
290336.0 301169.0 0
292041.0 298627.0 0
294721.0 299946.0 0
293729.0 302584.0 0
297974.0 298754.0 0
297732.0 301353.0 0
196497.0 305078.0 0
201805.0 304063.0 0
202500.0 306665.0 0
209135.0 305921.0 0
205834.0 305851.0 0
214260.0 305906.0 0
212213.0 308317.0 0
217354.0 306911.0 0
220318.0 306420.0 0
222572.0 308440.0 0
227050.0 304900.0 0
224553.0 305973.0 0
229343.0 305773.0 0
226369.0 308336.0 0
228347.0 308345.0 0
233288.0 304305.0 0
232483.0 307601.0 0
235792.0 303615.0 0
238906.0 306059.0 0
242620.0 306628.0 0
248703.0 303771.0 0
245361.0 305067.0 0
253866.0 304684.0 0
250580.0 307328.0 0
257663.0 304756.0 0
255198.0 307684.0 0
258665.0 307934.0 0
263023.0 303826.0 0
262370.0 307449.0 0
268438.0 306144.0 0
266056.0 308723.0 0
273459.0 306032.0 0
276035.0 307102.0 0
280753.0 305392.0 0
284306.0 307175.0 0
289110.0 304461.0 0
287818.0 308116.0 0
292324.0 305144.0 0
290959.0 308242.0 0
294005.0 307702.0 0
297125.0 304333.0 0
297811.0 307583.0 0
303399.0 305448.0 0
201978.0 309622.0 0
202014.0 312107.0 0
205434.0 309645.0 0
208912.0 309714.0 0
205445.0 312430.0 0
214071.0 310556.0 0
209388.0 312948.0 0
212603.0 313251.0 0
217396.0 310483.0 0
217148.0 313779.0 0
220681.0 310842.0 0
225343.0 311238.0 0
228069.0 312760.0 0
229959.0 310197.0 0
232617.0 311533.0 0
235764.0 308404.0 0
236357.0 312126.0 0
240066.0 313157.0 0
240082.0 309884.0 0
243378.0 309992.0 0
244198.0 313158.0 0
246802.0 308795.0 0
247771.0 312402.0 0
252590.0 311565.0 0
256962.0 310739.0 0
258627.0 313079.0 0
261497.0 312024.0 0
265023.0 312405.0 0
269141.0 310740.0 0
268076.0 312507.0 0
271508.0 308583.0 0
274238.0 310194.0 0
271859.0 312980.0 0
279262.0 309163.0 0
276680.0 311360.0 0
280555.0 313165.0 0
282787.0 310334.0 0
284730.0 312127.0 0
290762.0 310210.0 0
287436.0 311142.0 0
290392.0 312373.0 0
294188.0 311115.0 0
297994.0 310247.0 0
297909.0 312840.0 0
197463.0 318096.0 0
201318.0 314174.0 0
201904.0 316414.0 0
202058.0 318875.0 0
204451.0 315028.0 0
207532.0 315631.0 0
205819.0 318905.0 0
212466.0 316717.0 0
209963.0 316761.0 0
215321.0 315799.0 0
219179.0 317749.0 0
216380.0 318751.0 0
219622.0 315179.0 0
222512.0 313897.0 0
224562.0 316226.0 0
221703.0 318327.0 0
227162.0 316033.0 0
231333.0 314700.0 0
229802.0 318247.0 0
235140.0 315949.0 0
238042.0 317041.0 0
241295.0 316243.0 0
244979.0 318726.0 0
245260.0 316205.0 0
247935.0 316080.0 0
250486.0 315181.0 0
251673.0 317300.0 0
254386.0 318767.0 0
255163.0 315399.0 0
258849.0 316787.0 0
261929.0 315945.0 0
263031.0 318851.0 0
269299.0 314990.0 0
265647.0 315667.0 0
270140.0 317758.0 0
266408.0 318859.0 0
273879.0 314946.0 0
272921.0 317598.0 0
277344.0 314661.0 0
278190.0 318114.0 0
282447.0 314701.0 0
285586.0 315032.0 0
281340.0 317006.0 0
283722.0 318266.0 0
288378.0 314184.0 0
286897.0 317988.0 0
290343.0 317157.0 0
293260.0 314738.0 0
294072.0 318394.0 0
297145.0 315704.0 0
297713.0 318614.0 0
202304.0 321562.0 0
205877.0 322377.0 0
209026.0 323661.0 0
212915.0 320080.0 0
209502.0 320189.0 0
214151.0 322684.0 0
217345.0 321792.0 0
224255.0 319483.0 0
220134.0 320733.0 0
221649.0 322023.0 0
226768.0 319492.0 0
224614.0 322702.0 0
227271.0 322936.0 0
233825.0 319515.0 0
229671.0 321779.0 0
232682.0 323385.0 0
238340.0 319651.0 0
236526.0 320758.0 0
239740.0 322781.0 0
235344.0 323270.0 0
237553.0 323310.0 0
241838.0 320047.0 0
243937.0 322939.0 0
249321.0 319219.0 0
246630.0 320105.0 0
246563.0 323958.0 0
249551.0 323396.0 0
252377.0 320875.0 0
252537.0 323769.0 0
258868.0 319880.0 0
256076.0 321503.0 0
261792.0 322166.0 0
270141.0 320460.0 0
267041.0 322390.0 0
275039.0 320257.0 0
272226.0 322225.0 0
280029.0 320873.0 0
276671.0 323476.0 0
279393.0 323899.0 0
283211.0 321030.0 0
290524.0 320741.0 0
287079.0 321080.0 0
290348.0 323972.0 0
293787.0 321089.0 0
297281.0 321395.0 0
297424.0 324274.0 0
203337.0 324815.0 0
201732.0 327769.0 0
206431.0 327477.0 0
211886.0 324628.0 0
210086.0 327539.0 0
218138.0 324633.0 0
214788.0 326472.0 0
218009.0 329182.0 0
220728.0 324701.0 0
223493.0 325863.0 0
221084.0 328822.0 0
228033.0 325587.0 0
226025.0 328240.0 0
230456.0 325714.0 0
234484.0 326762.0 0
231583.0 328425.0 0
236521.0 325690.0 0
238952.0 326318.0 0
238529.0 328566.0 0
241662.0 325546.0 0
243233.0 327982.0 0
246154.0 327275.0 0
248495.0 329131.0 0
250337.0 326485.0 0
253132.0 327694.0 0
255760.0 325052.0 0
259653.0 325033.0 0
257350.0 328590.0 0
264620.0 324941.0 0
260710.0 328194.0 0
264355.0 328047.0 0
269755.0 325244.0 0
267930.0 327798.0 0
273799.0 324434.0 0
272682.0 327183.0 0
275855.0 326377.0 0
279011.0 326479.0 0
277284.0 328457.0 0
283367.0 324712.0 0
282219.0 328160.0 0
287052.0 324739.0 0
290692.0 327252.0 0
288000.0 328327.0 0
293527.0 324340.0 0
293390.0 327733.0 0
297361.0 327023.0 0
201899.0 329812.0 0
202603.0 332242.0 0
206471.0 330960.0 0
212154.0 329280.0 0
211045.0 332154.0 0
214883.0 331335.0 0
218885.0 333209.0 0
224138.0 331564.0 0
221714.0 333891.0 0
228892.0 329544.0 0
226967.0 333915.0 0
229216.0 332332.0 0
233022.0 332414.0 0
235948.0 330016.0 0
238265.0 332952.0 0
240533.0 330096.0 0
243501.0 332050.0 0
246674.0 332696.0 0
249559.0 334234.0 0
251095.0 330799.0 0
254524.0 330699.0 0
257456.0 331936.0 0
260153.0 331295.0 0
264660.0 331221.0 0
262359.0 333609.0 0
269056.0 330338.0 0
267216.0 332261.0 0
269677.0 333902.0 0
272497.0 330459.0 0
272680.0 334056.0 0
275796.0 330521.0 0
280145.0 330587.0 0
277819.0 332947.0 0
285185.0 329926.0 0
282154.0 333049.0 0
285168.0 332950.0 0
289636.0 331558.0 0
292374.0 330969.0 0
296988.0 330121.0 0
296379.0 333392.0 0
202845.0 335164.0 0
202097.0 337925.0 0
208033.0 334194.0 0
205702.0 336195.0 0
205240.0 339191.0 0
207802.0 338959.0 0
212858.0 335219.0 0
210216.0 337379.0 0
215944.0 334533.0 0
219292.0 336393.0 0
214510.0 338391.0 0
217132.0 337887.0 0
222527.0 337482.0 0
225472.0 336518.0 0
229183.0 336413.0 0
227482.0 338810.0 0
230977.0 335181.0 0
232514.0 338406.0 0
235498.0 335987.0 0
238705.0 338445.0 0
241064.0 335005.0 0
243613.0 337004.0 0
245910.0 336663.0 0
248527.0 338095.0 0
252901.0 334457.0 0
251833.0 338248.0 0
256654.0 335792.0 0
255122.0 339345.0 0
264771.0 335596.0 0
260078.0 337009.0 0
264985.0 338115.0 0
267345.0 335236.0 0
268501.0 337795.0 0
266283.0 339521.0 0
271062.0 336931.0 0
272945.0 339159.0 0
275629.0 335975.0 0
278102.0 338646.0 0
280583.0 335453.0 0
282902.0 336979.0 0
286468.0 336114.0 0
290088.0 335083.0 0
290487.0 338529.0 0
286955.0 339456.0 0
293437.0 335934.0 0
294448.0 339173.0 0
298113.0 336519.0 0
298182.0 338559.0 0
302895.0 338299.0 0
202161.0 340251.0 0
202656.0 342871.0 0
208280.0 341233.0 0
205697.0 341971.0 0
207224.0 343918.0 0
212152.0 340130.0 0
210237.0 342150.0 0
213465.0 344673.0 0
217675.0 341918.0 0
214598.0 342032.0 0
220627.0 340289.0 0
222483.0 342504.0 0
225340.0 340590.0 0
226829.0 343410.0 0
229556.0 340143.0 0
229491.0 343190.0 0
233705.0 341539.0 0
237261.0 342153.0 0
242300.0 339882.0 0
242484.0 342831.0 0
239856.0 344861.0 0
245109.0 339864.0 0
247779.0 341577.0 0
245364.0 344368.0 0
252206.0 341467.0 0
250513.0 344501.0 0
257600.0 340800.0 0
255124.0 343067.0 0
259416.0 342403.0 0
262137.0 339563.0 0
263693.0 342465.0 0
269605.0 340747.0 0
267096.0 342743.0 0
271991.0 342581.0 0
275062.0 341021.0 0
279385.0 341978.0 0
276030.0 343625.0 0
282062.0 339605.0 0
284054.0 340914.0 0
280865.0 344382.0 0
284062.0 343363.0 0
288580.0 342028.0 0
291832.0 341153.0 0
293003.0 343877.0 0
297335.0 341143.0 0
296583.0 344379.0 0
202522.0 345782.0 0
202446.0 348861.0 0
205794.0 346112.0 0
206179.0 349714.0 0
210369.0 345066.0 0
209781.0 348680.0 0
213056.0 348624.0 0
218468.0 345422.0 0
215585.0 346722.0 0
220978.0 345270.0 0
224147.0 345048.0 0
221417.0 347884.0 0
224556.0 348084.0 0
227839.0 347069.0 0
232122.0 345377.0 0
230281.0 348662.0 0
235566.0 346285.0 0
240687.0 348124.0 0
243986.0 347384.0 0
248195.0 346498.0 0
245682.0 349354.0 0
253337.0 346220.0 0
250839.0 348110.0 0
254919.0 349124.0 0
257332.0 344438.0 0
258903.0 346780.0 0
262054.0 345483.0 0
262095.0 349058.0 0
265066.0 347690.0 0
268144.0 346158.0 0
272577.0 346285.0 0
277677.0 345662.0 0
276160.0 348083.0 0
279454.0 347856.0 0
282675.0 346319.0 0
284864.0 348343.0 0
286736.0 345029.0 0
290308.0 346301.0 0
292715.0 348745.0 0
297044.0 347538.0 0
202325.0 351641.0 0
202959.0 354450.0 0
206215.0 352891.0 0
208796.0 354837.0 0
210907.0 352142.0 0
215940.0 350289.0 0
219274.0 349725.0 0
214559.0 353270.0 0
217630.0 354497.0 0
221845.0 350234.0 0
219903.0 352910.0 0
223406.0 354275.0 0
225118.0 351097.0 0
228315.0 351356.0 0
229369.0 354504.0 0
232883.0 350493.0 0
232121.0 353767.0 0
236488.0 349799.0 0
238835.0 352216.0 0
235393.0 354740.0 0
239079.0 355215.0 0
241858.0 351366.0 0
244432.0 351146.0 0
242363.0 354894.0 0
248673.0 349941.0 0
245221.0 353391.0 0
247818.0 353328.0 0
252136.0 351332.0 0
251130.0 354760.0 0
258562.0 351147.0 0
255368.0 353141.0 0
262499.0 351207.0 0
262492.0 353633.0 0
268354.0 349839.0 0
265390.0 350890.0 0
267759.0 351859.0 0
265027.0 354207.0 0
267605.0 354693.0 0
269693.0 353537.0 0
271578.0 350462.0 0
273921.0 352709.0 0
276697.0 350880.0 0
278965.0 352525.0 0
281594.0 349966.0 0
283814.0 351901.0 0
281703.0 353378.0 0
287242.0 350195.0 0
290108.0 351130.0 0
285583.0 353352.0 0
290374.0 354096.0 0
294351.0 351630.0 0
294005.0 354509.0 0
297598.0 350618.0 0
298227.0 353113.0 0
302910.0 354823.0 0
203036.0 357586.0 0
207259.0 357594.0 0
212921.0 356579.0 0
210390.0 360019.0 0
218405.0 357025.0 0
215905.0 358759.0 0
221191.0 357055.0 0
224705.0 359482.0 0
228970.0 358546.0 0
226117.0 356773.0 0
231710.0 357739.0 0
234655.0 358333.0 0
238441.0 358177.0 0
243750.0 357864.0 0
240539.0 360068.0 0
246736.0 356516.0 0
249300.0 357691.0 0
254260.0 355664.0 0
251874.0 358834.0 0
253937.0 358706.0 0
257200.0 356146.0 0
259644.0 354599.0 0
257778.0 358414.0 0
256374.0 359384.0 0
261278.0 357250.0 0
264025.0 357116.0 0
268161.0 357051.0 0
266438.0 358014.0 0
271665.0 355553.0 0
274296.0 357123.0 0
270509.0 358238.0 0
273486.0 359326.0 0
275517.0 355225.0 0
278183.0 355672.0 0
280350.0 356959.0 0
276644.0 358519.0 0
282973.0 355393.0 0
284209.0 357588.0 0
287826.0 355156.0 0
287261.0 358260.0 0
290052.0 359100.0 0
292452.0 357229.0 0
297255.0 355795.0 0
297285.0 358789.0 0
194764.0 363471.0 0
202765.0 360807.0 0
202590.0 364133.0 0
206088.0 360193.0 0
208392.0 362733.0 0
205747.0 362743.0 0
213637.0 361738.0 0
219137.0 361158.0 0
216987.0 363289.0 0
221987.0 359950.0 0
221040.0 363879.0 0
223958.0 364015.0 0
225834.0 361949.0 0
229387.0 361840.0 0
227960.0 364596.0 0
232167.0 362259.0 0
232980.0 365308.0 0
235358.0 361752.0 0
238091.0 361777.0 0
235917.0 365419.0 0
238571.0 364737.0 0
241066.0 364094.0 0
243597.0 363129.0 0
245536.0 360841.0 0
249064.0 361599.0 0
245355.0 365425.0 0
252456.0 362620.0 0
254399.0 365146.0 0
255317.0 361477.0 0
257914.0 362486.0 0
257102.0 365018.0 0
264129.0 359897.0 0
260057.0 360057.0 0
262180.0 362535.0 0
266542.0 360379.0 0
269050.0 361046.0 0
265444.0 363203.0 0
271123.0 362666.0 0
273747.0 361981.0 0
278068.0 360705.0 0
276448.0 363812.0 0
279384.0 364701.0 0
280687.0 360133.0 0
283232.0 360438.0 0
281701.0 363799.0 0
284004.0 364307.0 0
285842.0 361675.0 0
288040.0 363234.0 0
294389.0 359849.0 0
291159.0 362068.0 0
297763.0 361751.0 0
296825.0 364690.0 0
196505.0 369658.0 0
203351.0 367504.0 0
209593.0 368841.0 0
209676.0 365809.0 0
206498.0 366277.0 0
212939.0 365292.0 0
212622.0 368079.0 0
216335.0 366773.0 0
219623.0 366030.0 0
214944.0 369608.0 0
218423.0 369278.0 0
221500.0 368516.0 0
224746.0 367776.0 0
228228.0 367879.0 0
231074.0 366903.0 0
233171.0 369461.0 0
236272.0 368948.0 0
239401.0 368375.0 0
241456.0 367295.0 0
243940.0 367153.0 0
242772.0 370723.0 0
245146.0 369412.0 0
248194.0 365755.0 0
247982.0 369570.0 0
250974.0 366471.0 0
253414.0 368123.0 0
251392.0 370366.0 0
258984.0 367819.0 0
256519.0 370373.0 0
261688.0 365793.0 0
264251.0 367404.0 0
261407.0 370056.0 0
267447.0 364949.0 0
266472.0 368759.0 0
272431.0 365631.0 0
269844.0 366291.0 0
270488.0 369327.0 0
275314.0 367199.0 0
278344.0 368685.0 0
283104.0 367353.0 0
280669.0 367388.0 0
283718.0 369815.0 0
285311.0 366430.0 0
288211.0 366385.0 0
291420.0 367529.0 0
293275.0 364322.0 0
297154.0 367987.0 0
294283.0 370003.0 0
201104.0 377107.0 0
198821.0 378131.0 0
204600.0 376106.0 0
202506.0 373416.0 0
202430.0 370518.0 0
205472.0 372449.0 0
206673.0 369504.0 0
207868.0 372124.0 0
209813.0 374691.0 0
213549.0 374187.0 0
211899.0 370919.0 0
216311.0 371745.0 0
218550.0 372118.0 0
219057.0 375281.0 0
220923.0 371422.0 0
224828.0 371500.0 0
222667.0 372879.0 0
229094.0 371233.0 0
227268.0 373432.0 0
231883.0 372174.0 0
234721.0 373299.0 0
232052.0 375728.0 0
237646.0 372777.0 0
241041.0 372720.0 0
244918.0 372050.0 0
245696.0 374461.0 0
248129.0 372850.0 0
250942.0 374711.0 0
254452.0 373929.0 0
257738.0 375443.0 0
259572.0 372653.0 0
263508.0 370783.0 0
261779.0 374126.0 0
267485.0 372156.0 0
264593.0 374258.0 0
268218.0 376345.0 0
273809.0 370651.0 0
271120.0 373191.0 0
277088.0 371533.0 0
278941.0 373622.0 0
274238.0 374463.0 0
281270.0 371139.0 0
283120.0 373614.0 0
286346.0 369902.0 0
287266.0 375477.0 0
286066.0 373267.0 0
289288.0 370803.0 0
291472.0 372976.0 0
293089.0 375713.0 0
297253.0 373284.0 0
298220.0 370821.0 0
299832.0 375233.0 0
300364.0 378418.0 0
302677.0 379678.0 0
191121.0 382764.0 0
187662.0 385343.0 0
189762.0 384600.0 0
192766.0 381435.0 0
197102.0 380019.0 0
195156.0 381079.0 0
194910.0 384136.0 0
200254.0 381698.0 0
203148.0 379812.0 0
199222.0 383855.0 0
205329.0 382018.0 0
207411.0 376722.0 0
208088.0 382177.0 0
208196.0 379065.0 0
211256.0 377600.0 0
211911.0 380465.0 0
215579.0 380274.0 0
215782.0 376276.0 0
218668.0 379159.0 0
220733.0 379555.0 0
222280.0 376487.0 0
224203.0 379706.0 0
225520.0 375719.0 0
227232.0 378162.0 0
229391.0 376710.0 0
230068.0 380112.0 0
234578.0 378207.0 0
232525.0 381256.0 0
237415.0 376399.0 0
240205.0 377959.0 0
243036.0 376176.0 0
244942.0 379579.0 0
247196.0 376759.0 0
247999.0 381077.0 0
249919.0 377903.0 0
254859.0 378166.0 0
252881.0 380388.0 0
257397.0 379136.0 0
259218.0 377312.0 0
256238.0 381763.0 0
258979.0 382011.0 0
262500.0 377819.0 0
265262.0 377700.0 0
266097.0 380878.0 0
271921.0 378634.0 0
271611.0 376035.0 0
269200.0 380279.0 0
276548.0 376660.0 0
274244.0 379170.0 0
279302.0 379019.0 0
282124.0 376624.0 0
284521.0 378061.0 0
286642.0 378667.0 0
288384.0 379764.0 0
286486.0 380471.0 0
288759.0 377139.0 0
291026.0 378949.0 0
295292.0 378009.0 0
297637.0 379825.0 0
295530.0 383627.0 0
301379.0 382448.0 0
298806.0 382166.0 0
297907.0 384891.0 0
304819.0 380636.0 0
306965.0 382136.0 0
302919.0 385053.0 0
304561.0 383349.0 0
308778.0 383980.0 0
311694.0 384010.0 0
313169.0 385249.0 0
183921.0 387240.0 0
185602.0 386087.0 0
182348.0 388922.0 0
186576.0 389485.0 0
189007.0 388406.0 0
191394.0 387115.0 0
193090.0 385047.0 0
197110.0 384794.0 0
196246.0 388271.0 0
199159.0 387792.0 0
201199.0 386147.0 0
201227.0 389043.0 0
202987.0 384549.0 0
205068.0 385603.0 0
203375.0 387807.0 0
206935.0 387160.0 0
209300.0 385646.0 0
211542.0 383895.0 0
213647.0 385525.0 0
215901.0 384032.0 0
218472.0 382277.0 0
217935.0 385966.0 0
220672.0 382275.0 0
220488.0 385965.0 0
223179.0 382576.0 0
223434.0 385871.0 0
226169.0 385606.0 0
227024.0 381885.0 0
229641.0 383695.0 0
228873.0 386118.0 0
232671.0 384361.0 0
236528.0 381531.0 0
239710.0 381156.0 0
236267.0 385754.0 0
239803.0 385196.0 0
242936.0 381742.0 0
243286.0 385261.0 0
249161.0 384454.0 0
245918.0 384702.0 0
252640.0 383805.0 0
255432.0 384248.0 0
257088.0 386080.0 0
261394.0 380808.0 0
259953.0 385798.0 0
262403.0 384797.0 0
264146.0 382578.0 0
267869.0 383550.0 0
265880.0 385384.0 0
271203.0 382592.0 0
274463.0 382364.0 0
274374.0 385766.0 0
276910.0 386534.0 0
277330.0 382205.0 0
279130.0 384718.0 0
281407.0 381846.0 0
284106.0 382359.0 0
287053.0 382748.0 0
284973.0 385528.0 0
289513.0 381780.0 0
292046.0 381331.0 0
288123.0 387127.0 0
289592.0 384549.0 0
292578.0 384532.0 0
294214.0 381504.0 0
293228.0 386917.0 0
295502.0 386924.0 0
300521.0 386700.0 0
297099.0 387655.0 0
300526.0 389570.0 0
305267.0 387034.0 0
304883.0 389403.0 0
308783.0 386881.0 0
312440.0 386870.0 0
310574.0 389477.0 0
314915.0 386620.0 0
314026.0 389669.0 0
316353.0 388479.0 0
318618.0 389316.0 0
170643.0 395715.0 0
173182.0 395071.0 0
175310.0 393756.0 0
180427.0 390902.0 0
177049.0 391522.0 0
177789.0 395569.0 0
180070.0 393663.0 0
183376.0 392097.0 0
186697.0 392468.0 0
184763.0 394982.0 0
191150.0 391193.0 0
189405.0 393550.0 0
193505.0 389464.0 0
197537.0 391228.0 0
194603.0 392453.0 0
199796.0 390767.0 0
197476.0 393363.0 0
199358.0 395017.0 0
201504.0 391743.0 0
203244.0 389802.0 0
206929.0 389568.0 0
205163.0 391569.0 0
204557.0 393779.0 0
210787.0 387947.0 0
208357.0 391708.0 0
210631.0 390231.0 0
212473.0 392125.0 0
213734.0 388315.0 0
214859.0 392710.0 0
216398.0 388851.0 0
218402.0 391906.0 0
220705.0 389630.0 0
223176.0 389099.0 0
225378.0 389997.0 0
227385.0 388628.0 0
230900.0 390712.0 0
231295.0 387354.0 0
234842.0 388874.0 0
238195.0 388864.0 0
238682.0 392054.0 0
235517.0 391747.0 0
241087.0 388894.0 0
243274.0 390495.0 0
244873.0 387991.0 0
246875.0 388513.0 0
249332.0 387725.0 0
245706.0 392143.0 0
252811.0 387389.0 0
250925.0 391021.0 0
255482.0 389229.0 0
258338.0 390434.0 0
261178.0 389115.0 0
263262.0 391820.0 0
263832.0 387169.0 0
265267.0 389316.0 0
268328.0 387944.0 0
268549.0 391000.0 0
270560.0 385550.0 0
271039.0 392080.0 0
272816.0 388682.0 0
274607.0 391759.0 0
277468.0 389272.0 0
281080.0 386453.0 0
280046.0 389716.0 0
282497.0 393627.0 0
283395.0 387830.0 0
283614.0 391044.0 0
285811.0 389087.0 0
286548.0 392381.0 0
292684.0 389300.0 0
289403.0 390528.0 0
295238.0 390952.0 0
294326.0 394208.0 0
297465.0 390141.0 0
301827.0 392228.0 0
298976.0 393168.0 0
304595.0 391801.0 0
307274.0 393767.0 0
307914.0 391191.0 0
311995.0 392157.0 0
310177.0 394046.0 0
316109.0 392001.0 0
314125.0 393563.0 0
320981.0 391700.0 0
318685.0 393102.0 0
321802.0 395531.0 0
323849.0 392866.0 0
325971.0 395198.0 0
164359.0 399806.0 0
166531.0 398611.0 0
168698.0 397781.0 0
170959.0 399106.0 0
174085.0 398878.0 0
176962.0 398742.0 0
180235.0 398012.0 0
181426.0 400538.0 0
182237.0 396008.0 0
184914.0 397984.0 0
184179.0 399737.0 0
187357.0 396652.0 0
191082.0 395704.0 0
189203.0 398416.0 0
192409.0 393822.0 0
194860.0 394578.0 0
192440.0 399409.0 0
194597.0 397437.0 0
197464.0 398198.0 0
202047.0 395097.0 0
206672.0 395452.0 0
202748.0 398237.0 0
205819.0 398203.0 0
208520.0 393720.0 0
209028.0 396843.0 0
211195.0 394979.0 0
213343.0 398041.0 0
216459.0 396212.0 0
220742.0 394595.0 0
222564.0 392591.0 0
225337.0 393169.0 0
224897.0 396048.0 0
228376.0 392891.0 0
228822.0 395482.0 0
229303.0 397992.0 0
231616.0 397786.0 0
231745.0 394878.0 0
234398.0 394532.0 0
238821.0 395498.0 0
241489.0 393368.0 0
243915.0 395889.0 0
248521.0 392824.0 0
249625.0 395966.0 0
252357.0 395155.0 0
253958.0 392476.0 0
253587.0 397017.0 0
256185.0 394388.0 0
258412.0 396306.0 0
258498.0 392963.0 0
261018.0 394740.0 0
263974.0 396953.0 0
266683.0 394204.0 0
270118.0 394928.0 0
272672.0 395916.0 0
275320.0 397695.0 0
277262.0 394557.0 0
279682.0 392760.0 0
281725.0 396057.0 0
279371.0 397194.0 0
284453.0 396715.0 0
286727.0 395524.0 0
290982.0 393462.0 0
289521.0 396798.0 0
297323.0 395422.0 0
292667.0 397250.0 0
300671.0 396621.0 0
297123.0 398841.0 0
300056.0 399808.0 0
302590.0 395329.0 0
305984.0 396298.0 0
303570.0 398403.0 0
310567.0 396025.0 0
312293.0 395458.0 0
307891.0 399004.0 0
311110.0 399456.0 0
315375.0 396215.0 0
314170.0 398852.0 0
317381.0 399330.0 0
317994.0 395832.0 0
318608.0 398870.0 0
320419.0 397123.0 0
321575.0 399384.0 0
324337.0 397862.0 0
327825.0 399347.0 0
328836.0 395946.0 0
331236.0 397205.0 0
329868.0 400572.0 0
333233.0 399547.0 0
158643.0 402800.0 0
155152.0 406114.0 0
162580.0 401758.0 0
165633.0 402231.0 0
161145.0 403800.0 0
168095.0 401813.0 0
170311.0 402006.0 0
166949.0 405240.0 0
169738.0 406123.0 0
173201.0 402011.0 0
175468.0 402910.0 0
172319.0 404710.0 0
177463.0 401131.0 0
180475.0 402874.0 0
177656.0 403782.0 0
185281.0 401968.0 0
182135.0 405622.0 0
184586.0 404243.0 0
187904.0 400997.0 0
191965.0 402111.0 0
189624.0 403961.0 0
196165.0 401229.0 0
194473.0 402658.0 0
199825.0 399639.0 0
197725.0 402735.0 0
200055.0 402357.0 0
202907.0 401304.0 0
204416.0 403481.0 0
207366.0 400815.0 0
210261.0 399364.0 0
208797.0 403314.0 0
211004.0 402075.0 0
213941.0 403611.0 0
216305.0 400996.0 0
219059.0 399549.0 0
221849.0 397624.0 0
223778.0 400470.0 0
226429.0 400722.0 0
226789.0 397690.0 0
229113.0 400454.0 0
231044.0 401946.0 0
233796.0 399980.0 0
236174.0 402189.0 0
236224.0 397210.0 0
238744.0 400025.0 0
241232.0 398031.0 0
242249.0 401109.0 0
245281.0 401426.0 0
246439.0 397997.0 0
250323.0 399784.0 0
253152.0 400556.0 0
255098.0 402363.0 0
256191.0 398162.0 0
258595.0 401200.0 0
260757.0 398217.0 0
262323.0 400621.0 0
265381.0 400556.0 0
268192.0 398548.0 0
271027.0 399019.0 0
274038.0 399504.0 0
272502.0 401634.0 0
276519.0 400123.0 0
275239.0 402843.0 0
278272.0 403222.0 0
279664.0 400255.0 0
281604.0 402627.0 0
283301.0 403805.0 0
283405.0 399708.0 0
287860.0 399141.0 0
285223.0 403774.0 0
285974.0 401071.0 0
289104.0 403226.0 0
291016.0 401282.0 0
294131.0 400360.0 0
295922.0 403652.0 0
298393.0 402644.0 0
301135.0 404624.0 0
302622.0 401586.0 0
305970.0 402292.0 0
308391.0 404796.0 0
311522.0 402964.0 0
316007.0 401595.0 0
314154.0 403906.0 0
319992.0 400986.0 0
318332.0 402725.0 0
322732.0 402668.0 0
321189.0 405382.0 0
324869.0 400894.0 0
326827.0 403223.0 0
325522.0 404926.0 0
329686.0 403834.0 0
332314.0 404157.0 0
335453.0 401127.0 0
335765.0 404611.0 0
338295.0 405839.0 0
338633.0 401791.0 0
340935.0 404100.0 0
343472.0 405962.0 0
148539.0 410223.0 0
152665.0 407072.0 0
150870.0 408767.0 0
155307.0 409807.0 0
157508.0 405178.0 0
159508.0 408221.0 0
163890.0 406237.0 0
162527.0 408879.0 0
166268.0 408933.0 0
170642.0 409051.0 0
167548.0 410679.0 0
174174.0 406034.0 0
173376.0 409121.0 0
176235.0 409791.0 0
176789.0 406329.0 0
179778.0 407135.0 0
179885.0 409532.0 0
183342.0 408118.0 0
187288.0 406216.0 0
182340.0 410537.0 0
186525.0 409178.0 0
191596.0 406555.0 0
190442.0 408887.0 0
194784.0 405588.0 0
193846.0 409115.0 0
197635.0 405450.0 0
200749.0 405078.0 0
197238.0 408332.0 0
201324.0 407588.0 0
204173.0 408906.0 0
205581.0 406156.0 0
208461.0 406033.0 0
207888.0 409366.0 0
211564.0 406538.0 0
214253.0 408230.0 0
217178.0 405413.0 0
219846.0 403126.0 0
219497.0 407252.0 0
222717.0 402924.0 0
221772.0 406697.0 0
223937.0 405507.0 0
225800.0 407629.0 0
226706.0 403545.0 0
229644.0 405739.0 0
233576.0 404662.0 0
234330.0 408350.0 0
235879.0 405987.0 0
238417.0 403609.0 0
237911.0 407626.0 0
241007.0 407604.0 0
241062.0 404089.0 0
243810.0 404511.0 0
245475.0 406172.0 0
248456.0 403867.0 0
251889.0 404800.0 0
254439.0 405101.0 0
257258.0 404954.0 0
257696.0 408138.0 0
260948.0 404249.0 0
260590.0 407508.0 0
263315.0 407552.0 0
263831.0 403962.0 0
265907.0 406416.0 0
267798.0 402985.0 0
269053.0 407284.0 0
270270.0 403705.0 0
271978.0 408619.0 0
272367.0 405592.0 0
275132.0 406472.0 0
278133.0 406284.0 0
281097.0 405181.0 0
282888.0 408020.0 0
285059.0 406160.0 0
287833.0 405997.0 0
287648.0 408661.0 0
291077.0 406203.0 0
294111.0 406279.0 0
293275.0 409788.0 0
297701.0 408774.0 0
299192.0 406019.0 0
302131.0 408248.0 0
303444.0 406409.0 0
306025.0 407386.0 0
305874.0 410136.0 0
310818.0 407060.0 0
309075.0 409081.0 0
315565.0 406264.0 0
313339.0 408944.0 0
318374.0 406993.0 0
318441.0 410021.0 0
321050.0 409012.0 0
326528.0 408771.0 0
323735.0 407375.0 0
328923.0 406835.0 0
331633.0 408327.0 0
331225.0 410756.0 0
333832.0 406797.0 0
335484.0 408838.0 0
338314.0 408262.0 0
341612.0 408278.0 0
339888.0 410258.0 0
346146.0 407488.0 0
344765.0 410671.0 0
348952.0 408448.0 0
351253.0 410328.0 0
137993.0 416154.0 0
143886.0 413786.0 0
140885.0 415270.0 0
146431.0 412042.0 0
150402.0 414142.0 0
148395.0 415832.0 0
152576.0 411882.0 0
155214.0 413685.0 0
154457.0 416047.0 0
158094.0 411052.0 0
157968.0 414043.0 0
163235.0 411496.0 0
160781.0 412531.0 0
165693.0 413645.0 0
161139.0 414590.0 0
170565.0 412047.0 0
169510.0 413723.0 0
173091.0 412561.0 0
173803.0 415353.0 0
176823.0 412384.0 0
179617.0 411595.0 0
179401.0 414556.0 0
182788.0 413922.0 0
186254.0 412512.0 0
189597.0 410460.0 0
188512.0 414427.0 0
190516.0 412235.0 0
193645.0 411906.0 0
199093.0 410249.0 0
197397.0 413252.0 0
201866.0 411576.0 0
203019.0 414449.0 0
205846.0 411694.0 0
210943.0 410425.0 0
208529.0 413849.0 0
216063.0 409262.0 0
213300.0 411823.0 0
215065.0 413417.0 0
218756.0 411290.0 0
222107.0 409563.0 0
224384.0 410265.0 0
224282.0 413833.0 0
227371.0 414074.0 0
228120.0 410420.0 0
230783.0 411607.0 0
231928.0 408548.0 0
233529.0 412424.0 0
236641.0 411397.0 0
240136.0 411405.0 0
242634.0 412719.0 0
243925.0 408875.0 0
246611.0 410671.0 0
248772.0 408286.0 0
251691.0 409287.0 0
251107.0 412697.0 0
254082.0 412923.0 0
254705.0 408690.0 0
255712.0 411759.0 0
258374.0 412350.0 0
263599.0 409657.0 0
261175.0 411060.0 0
263514.0 413659.0 0
265837.0 410629.0 0
268358.0 410378.0 0
269484.0 413689.0 0
271904.0 411600.0 0
274900.0 409499.0 0
274537.0 413473.0 0
277197.0 411370.0 0
279498.0 409577.0 0
282205.0 413628.0 0
285044.0 411295.0 0
290370.0 410073.0 0
288369.0 412546.0 0
292028.0 412884.0 0
295535.0 411290.0 0
295267.0 415155.0 0
300363.0 410911.0 0
303637.0 411939.0 0
299126.0 414271.0 0
302246.0 414563.0 0
308525.0 411566.0 0
305281.0 414720.0 0
308384.0 414970.0 0
311670.0 411391.0 0
312027.0 414843.0 0
315805.0 410820.0 0
315096.0 414051.0 0
317852.0 413777.0 0
321577.0 415716.0 0
320631.0 412420.0 0
323307.0 411252.0 0
327972.0 411682.0 0
324722.0 413451.0 0
327922.0 415011.0 0
333248.0 413237.0 0
331744.0 416299.0 0
335464.0 411461.0 0
338105.0 412220.0 0
336764.0 415343.0 0
342246.0 411326.0 0
339225.0 414467.0 0
342144.0 414123.0 0
346015.0 412549.0 0
348092.0 411525.0 0
346958.0 415825.0 0
351369.0 413193.0 0
348893.0 414271.0 0
352485.0 415821.0 0
354164.0 411410.0 0
356185.0 413125.0 0
358935.0 414110.0 0
355611.0 415684.0 0
360630.0 416315.0 0
363394.0 416620.0 0
130278.0 420193.0 0
133543.0 420038.0 0
136023.0 418514.0 0
138799.0 420153.0 0
141203.0 418492.0 0
144378.0 419879.0 0
145689.0 416898.0 0
148471.0 418029.0 0
147188.0 421705.0 0
150625.0 420202.0 0
151990.0 417051.0 0
154079.0 419671.0 0
156634.0 417108.0 0
156246.0 419753.0 0
159094.0 416276.0 0
160969.0 418902.0 0
163397.0 416120.0 0
163508.0 420780.0 0
167703.0 416700.0 0
170756.0 416598.0 0
166234.0 419334.0 0
168851.0 420698.0 0
171238.0 419940.0 0
176984.0 417622.0 0
181019.0 418691.0 0
183873.0 417347.0 0
186948.0 417133.0 0
184743.0 420893.0 0
190708.0 416446.0 0
187843.0 419925.0 0
193473.0 415425.0 0
190609.0 419133.0 0
195622.0 417866.0 0
199740.0 415291.0 0
199034.0 418331.0 0
201468.0 417183.0 0
201426.0 419534.0 0
204883.0 417012.0 0
205723.0 420012.0 0
211289.0 415291.0 0
208315.0 417360.0 0
210322.0 418816.0 0
213521.0 415193.0 0
213253.0 418550.0 0
215233.0 417177.0 0
216554.0 419467.0 0
221301.0 414038.0 0
217707.0 415665.0 0
219302.0 418538.0 0
221423.0 417274.0 0
224174.0 418152.0 0
229917.0 414567.0 0
227236.0 418057.0 0
229849.0 417671.0 0
232689.0 415790.0 0
235474.0 416836.0 0
238095.0 415178.0 0
238612.0 418493.0 0
244889.0 414303.0 0
241059.0 415716.0 0
244120.0 417751.0 0
247494.0 417544.0 0
248165.0 413639.0 0
250323.0 417109.0 0
253448.0 416456.0 0
257031.0 416307.0 0
260432.0 415298.0 0
263732.0 417227.0 0
266723.0 414201.0 0
266958.0 418262.0 0
270301.0 416756.0 0
272920.0 416063.0 0
274750.0 418788.0 0
276935.0 416517.0 0
279268.0 414664.0 0
280541.0 417302.0 0
279282.0 419048.0 0
286112.0 415011.0 0
283771.0 417380.0 0
288096.0 416143.0 0
287274.0 418827.0 0
289864.0 414843.0 0
290353.0 419889.0 0
292320.0 417516.0 0
297644.0 418772.0 0
301093.0 417702.0 0
303829.0 416893.0 0
305706.0 418727.0 0
308438.0 418362.0 0
312179.0 418335.0 0
316189.0 418057.0 0
318830.0 416849.0 0
324048.0 415611.0 0
320193.0 420485.0 0
321719.0 418779.0 0
326502.0 417889.0 0
324256.0 419155.0 0
330930.0 419650.0 0
328441.0 420223.0 0
335665.0 417842.0 0
335047.0 420509.0 0
339085.0 418969.0 0
340140.0 416972.0 0
342168.0 419336.0 0
344020.0 416508.0 0
348660.0 418445.0 0
345281.0 419669.0 0
347823.0 420817.0 0
351430.0 417969.0 0
351946.0 420489.0 0
356255.0 418178.0 0
354611.0 420199.0 0
359462.0 418896.0 0
364293.0 419926.0 0
361975.0 420111.0 0
365195.0 418260.0 0
367475.0 419000.0 0
368968.0 421241.0 0
123445.0 426008.0 0
126381.0 424626.0 0
128630.0 422521.0 0
129129.0 426495.0 0
131916.0 422861.0 0
132819.0 426104.0 0
136213.0 422379.0 0
136218.0 424625.0 0
139706.0 422351.0 0
139674.0 425138.0 0
142541.0 422480.0 0
144050.0 424481.0 0
147201.0 424717.0 0
150042.0 426134.0 0
152259.0 423113.0 0
155188.0 424005.0 0
158226.0 421744.0 0
159987.0 424052.0 0
163143.0 424092.0 0
166323.0 423134.0 0
168804.0 423812.0 0
173607.0 419868.0 0
174525.0 422277.0 0
172015.0 424289.0 0
177485.0 421336.0 0
177609.0 424390.0 0
181182.0 421506.0 0
181161.0 424872.0 0
185382.0 424496.0 0
190411.0 421801.0 0
188558.0 422875.0 0
193457.0 420047.0 0
192917.0 422874.0 0
195326.0 423260.0 0
197239.0 421330.0 0
199633.0 423618.0 0
203098.0 422564.0 0
205679.0 425148.0 0
208360.0 421594.0 0
210801.0 423458.0 0
213368.0 421669.0 0
216349.0 422120.0 0
219789.0 421604.0 0
223198.0 421489.0 0
226179.0 422300.0 0
228468.0 420877.0 0
230159.0 423480.0 0
231847.0 420095.0 0
235801.0 420171.0 0
233815.0 423445.0 0
240933.0 419584.0 0
238214.0 422288.0 0
241149.0 423710.0 0
244724.0 422435.0 0
248138.0 420936.0 0
249260.0 423649.0 0
251246.0 420497.0 0
254293.0 420411.0 0
256811.0 419943.0 0
255103.0 423674.0 0
258043.0 422909.0 0
260782.0 419368.0 0
262165.0 424706.0 0
264424.0 421358.0 0
271676.0 419943.0 0
268626.0 422309.0 0
277268.0 420799.0 0
274277.0 422689.0 0
279066.0 423298.0 0
282692.0 421485.0 0
286597.0 422522.0 0
288791.0 425075.0 0
292705.0 423769.0 0
295103.0 420815.0 0
302005.0 421130.0 0
298743.0 422453.0 0
304781.0 420659.0 0
303694.0 424930.0 0
306871.0 423453.0 0
309084.0 421457.0 0
312448.0 422288.0 0
311692.0 425607.0 0
316533.0 422021.0 0
315890.0 425654.0 0
322924.0 422923.0 0
321102.0 422530.0 0
319583.0 424785.0 0
324589.0 421761.0 0
327219.0 422781.0 0
325500.0 425474.0 0
329535.0 424562.0 0
332591.0 421608.0 0
332415.0 424617.0 0
336772.0 422713.0 0
335824.0 425372.0 0
339315.0 421556.0 0
343163.0 422223.0 0
340814.0 424423.0 0
343874.0 426033.0 0
345738.0 423709.0 0
347711.0 425893.0 0
350356.0 422747.0 0
352634.0 424738.0 0
355688.0 422940.0 0
358693.0 421902.0 0
357075.0 425907.0 0
360863.0 424070.0 0
363651.0 422996.0 0
366727.0 422114.0 0
369289.0 424373.0 0
365182.0 425581.0 0
371453.0 422002.0 0
371416.0 425399.0 0
373495.0 423711.0 0
375842.0 425248.0 0
378702.0 426676.0 0
117018.0 429191.0 0
120569.0 427702.0 0
124082.0 429324.0 0
120208.0 430740.0 0
126947.0 428573.0 0
132704.0 430315.0 0
137231.0 427125.0 0
136797.0 429032.0 0
139223.0 429828.0 0
142102.0 427663.0 0
143964.0 431141.0 0
145891.0 427234.0 0
148065.0 429697.0 0
152366.0 427757.0 0
155945.0 427014.0 0
152438.0 430244.0 0
155928.0 430033.0 0
158915.0 426633.0 0
160650.0 428557.0 0
158539.0 430444.0 0
164029.0 427453.0 0
163843.0 431177.0 0
167380.0 426869.0 0
169759.0 428422.0 0
166389.0 429897.0 0
167742.0 431010.0 0
174958.0 426751.0 0
172553.0 430323.0 0
177643.0 428614.0 0
177418.0 431097.0 0
180939.0 428530.0 0
184368.0 428746.0 0
188084.0 427100.0 0
191190.0 425782.0 0
188840.0 430468.0 0
191424.0 429324.0 0
194259.0 426885.0 0
194787.0 430302.0 0
196692.0 425641.0 0
200821.0 426867.0 0
198186.0 428868.0 0
203916.0 429008.0 0
209182.0 426383.0 0
207956.0 429433.0 0
213325.0 425339.0 0
211852.0 427525.0 0
216334.0 425675.0 0
219924.0 425321.0 0
223021.0 424689.0 0
225019.0 426054.0 0
222968.0 427767.0 0
225601.0 429944.0 0
227329.0 424893.0 0
228822.0 428282.0 0
231879.0 426769.0 0
234154.0 429570.0 0
236336.0 425677.0 0
239405.0 427004.0 0
243329.0 427739.0 0
247183.0 426418.0 0
250639.0 427066.0 0
252128.0 423801.0 0
253277.0 427040.0 0
255540.0 426785.0 0
258343.0 427011.0 0
261827.0 429655.0 0
266109.0 425866.0 0
265578.0 430110.0 0
271572.0 425104.0 0
269446.0 428365.0 0
276743.0 425171.0 0
274589.0 427713.0 0
278744.0 427452.0 0
281359.0 426297.0 0
284270.0 425438.0 0
283480.0 428657.0 0
286163.0 426936.0 0
289788.0 428545.0 0
293058.0 428182.0 0
296668.0 425390.0 0
296877.0 429005.0 0
300453.0 425556.0 0
300280.0 428670.0 0
304146.0 428919.0 0
308714.0 427593.0 0
311836.0 429964.0 0
314092.0 426997.0 0
317051.0 428664.0 0
314448.0 429642.0 0
318174.0 427074.0 0
322683.0 426611.0 0
318844.0 430604.0 0
321038.0 429234.0 0
328048.0 427555.0 0
325415.0 429363.0 0
332210.0 427654.0 0
330273.0 430142.0 0
335264.0 428721.0 0
339640.0 427548.0 0
343312.0 428279.0 0
339334.0 431158.0 0
343720.0 430755.0 0
346190.0 428401.0 0
347082.0 431264.0 0
350526.0 427678.0 0
354457.0 427110.0 0
351074.0 431343.0 0
354502.0 429121.0 0
356935.0 430282.0 0
359786.0 427767.0 0
363977.0 428021.0 0
361523.0 430903.0 0
367734.0 425865.0 0
368506.0 428166.0 0
366289.0 429960.0 0
371480.0 427660.0 0
374453.0 427933.0 0
370899.0 430599.0 0
373856.0 431560.0 0
377138.0 428726.0 0
379761.0 430812.0 0
381140.0 428607.0 0
383982.0 430377.0 0
108421.0 435156.0 0
105748.0 436279.0 0
111220.0 433555.0 0
114230.0 432018.0 0
112642.0 436846.0 0
117036.0 432208.0 0
115036.0 435329.0 0
117808.0 434070.0 0
116965.0 436218.0 0
119394.0 435787.0 0
121608.0 433537.0 0
124823.0 431923.0 0
123761.0 435895.0 0
128682.0 431991.0 0
126433.0 435460.0 0
135212.0 433530.0 0
130406.0 435432.0 0
132310.0 436627.0 0
138715.0 432549.0 0
136231.0 436804.0 0
139604.0 436839.0 0
141540.0 434115.0 0
144004.0 436334.0 0
146024.0 433899.0 0
148753.0 433068.0 0
146652.0 436520.0 0
149767.0 436437.0 0
151872.0 432356.0 0
155613.0 432717.0 0
153259.0 434955.0 0
161044.0 431989.0 0
158339.0 434274.0 0
162244.0 434009.0 0
163704.0 434512.0 0
165597.0 432843.0 0
169344.0 432812.0 0
166522.0 435253.0 0
169366.0 435868.0 0
175349.0 431808.0 0
172434.0 434191.0 0
174863.0 434769.0 0
177667.0 434021.0 0
180600.0 431909.0 0
183225.0 431437.0 0
185935.0 430819.0 0
181900.0 435191.0 0
185180.0 433549.0 0
188957.0 434419.0 0
192061.0 432690.0 0
193840.0 435106.0 0
196755.0 433707.0 0
200092.0 432000.0 0
204635.0 433072.0 0
211647.0 431227.0 0
208038.0 432828.0 0
210193.0 435970.0 0
215997.0 429983.0 0
213220.0 434449.0 0
216344.0 434651.0 0
220125.0 429084.0 0
219472.0 432854.0 0
222304.0 431826.0 0
224410.0 434725.0 0
227943.0 433047.0 0
230807.0 431308.0 0
233827.0 433707.0 0
237489.0 430291.0 0
236947.0 433299.0 0
240839.0 431122.0 0
244929.0 430745.0 0
243584.0 433334.0 0
247897.0 430600.0 0
246752.0 433983.0 0
251431.0 430500.0 0
250436.0 434946.0 0
254543.0 433979.0 0
255061.0 430219.0 0
258227.0 430680.0 0
258343.0 434079.0 0
262064.0 433908.0 0
265971.0 434182.0 0
269316.0 432661.0 0
272492.0 430145.0 0
272926.0 433400.0 0
276986.0 430683.0 0
276673.0 434675.0 0
280842.0 430693.0 0
280355.0 434270.0 0
286305.0 430201.0 0
284322.0 433702.0 0
288325.0 434697.0 0
289856.0 431937.0 0
293458.0 432615.0 0
298072.0 433740.0 0
302087.0 432262.0 0
307707.0 431625.0 0
305585.0 433785.0 0
308420.0 435835.0 0
310948.0 433614.0 0
313840.0 432593.0 0
316508.0 431937.0 0
316980.0 435420.0 0
320408.0 433176.0 0
323752.0 432316.0 0
320964.0 436260.0 0
328017.0 432669.0 0
324115.0 436167.0 0
327403.0 435723.0 0
331859.0 435400.0 0
334412.0 432171.0 0
336420.0 435579.0 0
338216.0 434066.0 0
342344.0 433310.0 0
340533.0 436023.0 0
345757.0 434964.0 0
349576.0 435329.0 0
352636.0 436298.0 0
354605.0 433677.0 0
358215.0 432351.0 0
357157.0 436235.0 0
360307.0 433678.0 0
364007.0 431795.0 0
364799.0 434044.0 0
362496.0 435871.0 0
368343.0 432581.0 0
366911.0 436074.0 0
373159.0 434825.0 0
370568.0 434768.0 0
377047.0 432164.0 0
378113.0 435209.0 0
375350.0 436442.0 0
381806.0 432480.0 0
380824.0 434181.0 0
383295.0 434486.0 0
386393.0 432612.0 0
389386.0 433293.0 0
386808.0 436247.0 0
391568.0 435199.0 0
394463.0 436922.0 0
97185.1 442441.0 0
99712.7 440206.0 0
103468.0 438774.0 0
109419.0 438376.0 0
106729.0 440423.0 0
114237.0 439456.0 0
111405.0 440892.0 0
116568.0 438388.0 0
120026.0 437990.0 0
118414.0 439460.0 0
122702.0 438853.0 0
121782.0 441768.0 0
125785.0 439521.0 0
128518.0 437029.0 0
128530.0 439597.0 0
131728.0 439752.0 0
134665.0 439979.0 0
137502.0 440291.0 0
140628.0 439711.0 0
143760.0 439049.0 0
147348.0 439367.0 0
149706.0 441204.0 0
151569.0 438898.0 0
155268.0 437663.0 0
153449.0 441623.0 0
160582.0 436512.0 0
158251.0 439564.0 0
164100.0 438084.0 0
166009.0 441224.0 0
168174.0 439107.0 0
172153.0 437317.0 0
175042.0 437291.0 0
171159.0 440265.0 0
174660.0 440192.0 0
178166.0 437100.0 0
177951.0 440340.0 0
186188.0 437655.0 0
181819.0 439353.0 0
191109.0 436973.0 0
188953.0 439548.0 0
194645.0 437649.0 0
192495.0 440475.0 0
198042.0 437145.0 0
196052.0 439790.0 0
197893.0 441503.0 0
201494.0 435693.0 0
206580.0 435931.0 0
204487.0 437943.0 0
208594.0 439539.0 0
213371.0 437509.0 0
212482.0 440952.0 0
220350.0 436148.0 0
216521.0 438445.0 0
223497.0 438178.0 0
227330.0 437952.0 0
230542.0 435568.0 0
230970.0 439383.0 0
233536.0 437979.0 0
239725.0 434839.0 0
236406.0 436515.0 0
239202.0 438637.0 0
243478.0 437119.0 0
247144.0 437425.0 0
252983.0 437741.0 0
256325.0 437664.0 0
260491.0 438294.0 0
264818.0 437637.0 0
267218.0 440446.0 0
269661.0 437238.0 0
273449.0 436763.0 0
273543.0 439921.0 0
276181.0 438479.0 0
279845.0 437773.0 0
282053.0 441233.0 0
284091.0 438000.0 0
288984.0 438674.0 0
292492.0 436459.0 0
295863.0 437320.0 0
294096.0 439529.0 0
297012.0 439576.0 0
302895.0 436017.0 0
300187.0 437926.0 0
303786.0 440176.0 0
308266.0 439332.0 0
305846.0 437651.0 0
310253.0 437812.0 0
313393.0 436417.0 0
313328.0 440699.0 0
316860.0 439648.0 0
320091.0 439563.0 0
323382.0 440084.0 0
326857.0 439354.0 0
329904.0 438262.0 0
330578.0 441594.0 0
333029.0 439922.0 0
334668.0 437838.0 0
338528.0 438216.0 0
336886.0 440845.0 0
342850.0 437769.0 0
341361.0 440694.0 0
344267.0 441404.0 0
346070.0 438719.0 0
349690.0 438233.0 0
352595.0 438792.0 0
355314.0 438872.0 0
358446.0 441207.0 0
359977.0 438427.0 0
363048.0 440992.0 0
365525.0 439139.0 0
369932.0 437268.0 0
368899.0 439520.0 0
374961.0 439053.0 0
372357.0 438343.0 0
371216.0 441210.0 0
374249.0 441795.0 0
379968.0 437820.0 0
377540.0 439828.0 0
383495.0 437448.0 0
384553.0 440637.0 0
380793.0 442031.0 0
389551.0 438109.0 0
388068.0 441039.0 0
393066.0 439712.0 0
397165.0 438376.0 0
400135.0 440183.0 0
396796.0 440913.0 0
403142.0 441902.0 0
88604.1 447677.0 0
91357.6 445699.0 0
94160.5 443973.0 0
96184.4 446626.0 0
99698.9 444699.0 0
102258.0 442376.0 0
104163.0 444490.0 0
107655.0 443597.0 0
107390.0 446504.0 0
111279.0 443976.0 0
115230.0 442368.0 0
114945.0 445468.0 0
111701.0 447117.0 0
118505.0 442305.0 0
118550.0 445489.0 0
122204.0 444324.0 0
125071.0 442427.0 0
124493.0 445354.0 0
121026.0 446714.0 0
127329.0 444346.0 0
128385.0 442458.0 0
129709.0 446397.0 0
131486.0 443397.0 0
134786.0 442625.0 0
134397.0 445577.0 0
137517.0 442719.0 0
137009.0 444779.0 0
138953.0 446138.0 0
140816.0 443149.0 0
144886.0 442722.0 0
142772.0 446778.0 0
147905.0 444646.0 0
151745.0 445215.0 0
155253.0 445899.0 0
156294.0 442589.0 0
159041.0 445097.0 0
161612.0 441824.0 0
164782.0 444170.0 0
167915.0 442268.0 0
167556.0 446472.0 0
170758.0 444096.0 0
174568.0 443491.0 0
174802.0 446399.0 0
177878.0 443837.0 0
180974.0 442980.0 0
185262.0 440941.0 0
182022.0 446008.0 0
183987.0 442964.0 0
187204.0 442156.0 0
190008.0 443595.0 0
185911.0 445661.0 0
194864.0 442895.0 0
193104.0 446333.0 0
197881.0 445460.0 0
200615.0 443643.0 0
201169.0 440097.0 0
205123.0 442610.0 0
209379.0 444435.0 0
212954.0 445879.0 0
216038.0 442620.0 0
218826.0 444756.0 0
220290.0 440706.0 0
224461.0 441293.0 0
222242.0 445144.0 0
228651.0 442064.0 0
225988.0 444496.0 0
232525.0 442863.0 0
236109.0 440616.0 0
235509.0 444835.0 0
239284.0 443723.0 0
241971.0 440767.0 0
243464.0 444195.0 0
245530.0 440855.0 0
249804.0 440337.0 0
247278.0 444185.0 0
254058.0 441343.0 0
251277.0 445097.0 0
257627.0 441112.0 0
263457.0 441440.0 0
260131.0 443377.0 0
262864.0 445567.0 0
266801.0 444959.0 0
270498.0 441865.0 0
274691.0 443679.0 0
278151.0 441474.0 0
281458.0 444407.0 0
286108.0 441179.0 0
285028.0 443292.0 0
288389.0 443120.0 0
291812.0 441344.0 0
291420.0 444974.0 0
296108.0 443232.0 0
300100.0 441779.0 0
302987.0 444975.0 0
306626.0 442760.0 0
309950.0 442223.0 0
310698.0 445575.0 0
317489.0 443006.0 0
314626.0 445523.0 0
320090.0 442775.0 0
322868.0 443992.0 0
319526.0 446535.0 0
327048.0 443555.0 0
332677.0 444059.0 0
330437.0 446184.0 0
334743.0 441929.0 0
339298.0 443443.0 0
336076.0 445933.0 0
344078.0 444470.0 0
341799.0 446271.0 0
347178.0 443654.0 0
349007.0 441343.0 0
347050.0 447351.0 0
352281.0 442859.0 0
350198.0 445935.0 0
355716.0 442421.0 0
357263.0 446060.0 0
361317.0 444525.0 0
365613.0 444765.0 0
368162.0 442944.0 0
368044.0 446382.0 0
373092.0 444312.0 0
370464.0 445442.0 0
377065.0 442765.0 0
379923.0 444963.0 0
376484.0 446374.0 0
383480.0 444230.0 0
382324.0 446661.0 0
386235.0 444844.0 0
390240.0 444657.0 0
392906.0 442386.0 0
396807.0 444344.0 0
400727.0 443002.0 0
399918.0 446684.0 0
402724.0 445345.0 0
405508.0 444034.0 0
408592.0 445349.0 0
411168.0 447470.0 0
82304.4 450931.0 0
85441.9 449709.0 0
88573.0 451511.0 0
91099.7 449468.0 0
93571.6 448376.0 0
94492.2 450902.0 0
91445.0 451880.0 0
97665.4 448766.0 0
94300.1 453446.0 0
97816.8 451607.0 0
100655.0 447358.0 0
104042.0 447382.0 0
100955.0 450521.0 0
108777.0 448756.0 0
104944.0 450584.0 0
113736.0 449932.0 0
110228.0 451804.0 0
116513.0 448033.0 0
119069.0 450182.0 0
116700.0 452449.0 0
122543.0 448928.0 0
120856.0 452945.0 0
123636.0 451745.0 0
126425.0 448385.0 0
128563.0 451461.0 0
132226.0 448236.0 0
132554.0 451951.0 0
136498.0 448594.0 0
139928.0 449290.0 0
136572.0 451721.0 0
138999.0 451885.0 0
142279.0 451121.0 0
146381.0 448970.0 0
150940.0 450137.0 0
155003.0 449288.0 0
159021.0 449038.0 0
162688.0 447110.0 0
161534.0 451573.0 0
164974.0 449909.0 0
170037.0 449985.0 0
172652.0 447108.0 0
174067.0 450222.0 0
178202.0 448076.0 0
180018.0 451760.0 0
182904.0 449089.0 0
185724.0 449333.0 0
189066.0 447946.0 0
192507.0 451562.0 0
196311.0 448740.0 0
199946.0 448992.0 0
202650.0 446318.0 0
204366.0 450283.0 0
206539.0 446940.0 0
209577.0 449321.0 0
213659.0 449855.0 0
216325.0 446742.0 0
219104.0 447228.0 0
217080.0 450240.0 0
221337.0 449731.0 0
225478.0 448357.0 0
229823.0 447085.0 0
233704.0 447701.0 0
237540.0 447934.0 0
241346.0 447694.0 0
245098.0 447736.0 0
248725.0 447721.0 0
255994.0 446110.0 0
260687.0 448637.0 0
264687.0 449888.0 0
268625.0 448625.0 0
271400.0 446272.0 0
272000.0 450939.0 0
278348.0 446082.0 0
275328.0 448382.0 0
279410.0 450776.0 0
284682.0 446176.0 0
282282.0 448161.0 0
287684.0 446602.0 0
285251.0 449080.0 0
287851.0 450832.0 0
291115.0 449039.0 0
295023.0 447743.0 0
298817.0 450820.0 0
299279.0 446713.0 0
303457.0 449850.0 0
307678.0 447657.0 0
312180.0 450686.0 0
316785.0 449692.0 0
323322.0 447646.0 0
321075.0 451717.0 0
326408.0 447275.0 0
325641.0 450899.0 0
333756.0 448764.0 0
329336.0 449673.0 0
338986.0 448884.0 0
344220.0 449035.0 0
341529.0 451927.0 0
347722.0 450414.0 0
350693.0 449778.0 0
353787.0 447202.0 0
354749.0 450391.0 0
358549.0 449881.0 0
362238.0 448577.0 0
363075.0 451779.0 0
365951.0 448402.0 0
369351.0 448940.0 0
365989.0 451656.0 0
369215.0 451763.0 0
373004.0 448790.0 0
372525.0 452255.0 0
376112.0 450441.0 0
379987.0 449408.0 0
384953.0 447910.0 0
383936.0 450719.0 0
387759.0 448397.0 0
387436.0 451114.0 0
390731.0 448666.0 0
394459.0 447406.0 0
390992.0 451909.0 0
399612.0 449622.0 0
395858.0 451744.0 0
403315.0 447801.0 0
403136.0 451507.0 0
406211.0 447848.0 0
408965.0 449989.0 0
414299.0 449193.0 0
412210.0 451481.0 0
417293.0 451738.0 0
72982.7 456765.0 0
75982.7 454976.0 0
79206.0 453553.0 0
82561.2 453632.0 0
79428.7 456942.0 0
82884.5 456729.0 0
85606.0 453265.0 0
86403.6 457196.0 0
88741.3 454275.0 0
91869.2 455279.0 0
97041.2 454755.0 0
101588.0 453578.0 0
99440.7 456431.0 0
103898.0 455484.0 0
106778.0 453367.0 0
108362.0 456195.0 0
111153.0 455107.0 0
113757.0 453744.0 0
118086.0 455582.0 0
115001.0 456383.0 0
122238.0 456653.0 0
125752.0 454290.0 0
129142.0 455020.0 0
128050.0 457091.0 0
131893.0 455985.0 0
136097.0 455262.0 0
140824.0 455463.0 0
145615.0 453425.0 0
149278.0 454874.0 0
153693.0 454225.0 0
156697.0 452427.0 0
159057.0 454643.0 0
163250.0 454533.0 0
167108.0 453808.0 0
171505.0 454686.0 0
176005.0 453478.0 0
179722.0 456441.0 0
183803.0 453009.0 0
188118.0 451973.0 0
187083.0 455782.0 0
190312.0 455872.0 0
194044.0 455984.0 0
197292.0 452600.0 0
200236.0 455353.0 0
201250.0 452241.0 0
204461.0 455555.0 0
207390.0 452050.0 0
209327.0 454576.0 0
211831.0 452837.0 0
214991.0 454462.0 0
218746.0 452990.0 0
224752.0 451932.0 0
222014.0 453930.0 0
228030.0 451738.0 0
225914.0 455087.0 0
229340.0 455512.0 0
231484.0 451692.0 0
234982.0 451209.0 0
233070.0 455619.0 0
239292.0 451502.0 0
236712.0 454109.0 0
243076.0 451720.0 0
247420.0 451481.0 0
249244.0 455045.0 0
252197.0 450695.0 0
252236.0 455140.0 0
254787.0 454864.0 0
257332.0 451920.0 0
261585.0 454068.0 0
268164.0 451307.0 0
265849.0 454585.0 0
269641.0 454673.0 0
273455.0 455407.0 0
276000.0 452772.0 0
276175.0 455819.0 0
279299.0 456026.0 0
283817.0 453413.0 0
288400.0 454607.0 0
291253.0 453318.0 0
294655.0 451775.0 0
294000.0 455336.0 0
297383.0 455038.0 0
302356.0 454543.0 0
307203.0 452351.0 0
305988.0 455253.0 0
308395.0 456999.0 0
310352.0 454571.0 0
313279.0 455675.0 0
316832.0 454442.0 0
321395.0 456629.0 0
328862.0 453839.0 0
325084.0 455023.0 0
332605.0 452760.0 0
336592.0 451617.0 0
335592.0 455233.0 0
339399.0 455407.0 0
343415.0 456597.0 0
345818.0 453324.0 0
349919.0 453755.0 0
353102.0 452746.0 0
354764.0 455394.0 0
356669.0 453105.0 0
358463.0 456956.0 0
360404.0 453867.0 0
364194.0 454966.0 0
367444.0 454811.0 0
371158.0 455867.0 0
375830.0 453166.0 0
379571.0 453264.0 0
375275.0 456316.0 0
379231.0 456853.0 0
382977.0 454013.0 0
382878.0 457284.0 0
386250.0 454005.0 0
389992.0 455528.0 0
394293.0 456213.0 0
399743.0 454459.0 0
397738.0 457404.0 0
403419.0 456006.0 0
406880.0 453078.0 0
407281.0 458300.0 0
410796.0 454967.0 0
414443.0 453410.0 0
414960.0 456840.0 0
418595.0 455436.0 0
421677.0 454100.0 0
425118.0 455361.0 0
422966.0 457324.0 0
64244.8 462228.0 0
67631.4 460829.0 0
69981.8 458212.0 0
72234.2 460252.0 0
76178.6 458153.0 0
74593.9 462188.0 0
77673.9 461137.0 0
81208.5 460490.0 0
85173.7 461459.0 0
89968.1 458511.0 0
93168.0 460624.0 0
89010.4 462670.0 0
94850.5 457383.0 0
97402.8 459386.0 0
95795.1 462517.0 0
101887.0 458256.0 0
99980.5 460834.0 0
105652.0 457787.0 0
108926.0 460009.0 0
104392.0 461155.0 0
112257.0 458094.0 0
113242.0 460812.0 0
115984.0 459581.0 0
119034.0 459213.0 0
114905.0 463041.0 0
122972.0 461487.0 0
125775.0 457911.0 0
127195.0 460104.0 0
129913.0 458104.0 0
130622.0 461223.0 0
133780.0 458799.0 0
134242.0 462832.0 0
137652.0 459443.0 0
141798.0 460347.0 0
145082.0 457979.0 0
148744.0 458864.0 0
152336.0 458131.0 0
150465.0 462046.0 0
154462.0 461468.0 0
156444.0 457535.0 0
158785.0 461439.0 0
161175.0 457895.0 0
163202.0 461911.0 0
165422.0 457975.0 0
168767.0 457467.0 0
167627.0 461428.0 0
170419.0 458781.0 0
174332.0 458251.0 0
171566.0 462155.0 0
177984.0 460796.0 0
183968.0 457409.0 0
182503.0 461687.0 0
187323.0 459607.0 0
191609.0 459445.0 0
197421.0 456752.0 0
195729.0 460252.0 0
200550.0 459736.0 0
204760.0 460037.0 0
208436.0 458604.0 0
212096.0 457163.0 0
215012.0 459760.0 0
218788.0 457164.0 0
221907.0 459629.0 0
223197.0 457114.0 0
226406.0 459530.0 0
230635.0 459085.0 0
233936.0 459840.0 0
236448.0 457479.0 0
237391.0 460360.0 0
240692.0 456488.0 0
244128.0 458994.0 0
245169.0 455461.0 0
247415.0 458560.0 0
251199.0 458303.0 0
254636.0 458091.0 0
258062.0 456579.0 0
264185.0 458047.0 0
260974.0 458832.0 0
268139.0 459323.0 0
270796.0 457243.0 0
272872.0 459374.0 0
276205.0 458623.0 0
282825.0 459075.0 0
287135.0 458068.0 0
291420.0 457522.0 0
289888.0 461003.0 0
293063.0 461457.0 0
295029.0 458234.0 0
299652.0 458793.0 0
304891.0 458936.0 0
308315.0 460367.0 0
311704.0 459031.0 0
315287.0 458646.0 0
318573.0 458152.0 0
317645.0 461082.0 0
321655.0 461478.0 0
324866.0 459202.0 0
328565.0 457540.0 0
328113.0 460641.0 0
332229.0 456991.0 0
336267.0 459061.0 0
340360.0 459800.0 0
344549.0 460680.0 0
347234.0 457368.0 0
349035.0 461979.0 0
351545.0 457871.0 0
355778.0 459410.0 0
357893.0 462295.0 0
362680.0 457553.0 0
360336.0 460145.0 0
364038.0 461460.0 0
366543.0 458467.0 0
370923.0 460142.0 0
375028.0 459430.0 0
378717.0 460432.0 0
382505.0 460814.0 0
386146.0 457653.0 0
386356.0 461137.0 0
390176.0 462962.0 0
390080.0 459063.0 0
393599.0 459740.0 0
397154.0 460461.0 0
400830.0 458104.0 0
403468.0 459347.0 0
400847.0 461528.0 0
409368.0 462285.0 0
411820.0 458698.0 0
412898.0 461369.0 0
416305.0 460101.0 0
419966.0 458852.0 0
420962.0 462236.0 0
425056.0 461064.0 0
427556.0 458099.0 0
431073.0 460143.0 0
434653.0 462129.0 0
57214.5 467822.0 0
61666.4 465461.0 0
66500.3 464259.0 0
66207.6 466886.0 0
70101.2 463764.0 0
69973.5 467722.0 0
73844.5 465294.0 0
77529.6 464601.0 0
80789.8 464008.0 0
84109.1 466025.0 0
88122.9 466192.0 0
92429.9 465093.0 0
98489.3 463562.0 0
96101.8 466298.0 0
101996.0 463933.0 0
99729.2 467068.0 0
103774.0 466432.0 0
106819.0 464276.0 0
111152.0 463154.0 0
109734.0 466782.0 0
113858.0 466795.0 0
118242.0 463140.0 0
120814.0 465578.0 0
123902.0 465779.0 0
127335.0 463893.0 0
130876.0 465405.0 0
138629.0 463640.0 0
135274.0 467287.0 0
142391.0 463822.0 0
140150.0 467513.0 0
144096.0 466789.0 0
145876.0 462265.0 0
148594.0 465849.0 0
153114.0 465353.0 0
156741.0 464760.0 0
160736.0 465860.0 0
164961.0 465385.0 0
168815.0 465619.0 0
175053.0 462746.0 0
173416.0 466860.0 0
178213.0 465083.0 0
186270.0 464274.0 0
189740.0 462690.0 0
189951.0 466762.0 0
193240.0 464096.0 0
197802.0 464837.0 0
202942.0 464001.0 0
207460.0 462797.0 0
210497.0 466041.0 0
211529.0 461494.0 0
214999.0 465256.0 0
218647.0 461836.0 0
219705.0 466143.0 0
222872.0 462848.0 0
229009.0 462448.0 0
226454.0 464633.0 0
230318.0 466344.0 0
231884.0 462633.0 0
235472.0 464117.0 0
240994.0 462012.0 0
245756.0 462888.0 0
249641.0 461638.0 0
246235.0 466972.0 0
253279.0 462175.0 0
257395.0 461362.0 0
258794.0 465631.0 0
261252.0 462828.0 0
264542.0 462176.0 0
268610.0 463810.0 0
265936.0 466154.0 0
271354.0 462223.0 0
272374.0 466114.0 0
274770.0 462625.0 0
278845.0 461832.0 0
282434.0 463673.0 0
286335.0 463250.0 0
290755.0 465739.0 0
296467.0 461583.0 0
295204.0 465238.0 0
299144.0 464254.0 0
302571.0 462311.0 0
302653.0 466311.0 0
306678.0 463748.0 0
310304.0 462664.0 0
314379.0 463159.0 0
311140.0 466852.0 0
318689.0 464883.0 0
322170.0 465699.0 0
326283.0 464244.0 0
332283.0 462143.0 0
337876.0 463219.0 0
335457.0 465886.0 0
338198.0 467035.0 0
341676.0 463496.0 0
340998.0 466471.0 0
345518.0 466263.0 0
353865.0 463070.0 0
351006.0 466804.0 0
354856.0 467375.0 0
357123.0 465564.0 0
361225.0 464956.0 0
367886.0 462680.0 0
365860.0 466174.0 0
371287.0 465447.0 0
374860.0 463335.0 0
379450.0 464514.0 0
376183.0 467338.0 0
384071.0 465351.0 0
387225.0 463997.0 0
388241.0 466418.0 0
394446.0 463950.0 0
391847.0 466560.0 0
398118.0 464455.0 0
398652.0 467256.0 0
401690.0 465694.0 0
404817.0 462892.0 0
404113.0 467591.0 0
407003.0 465893.0 0
410949.0 466036.0 0
413820.0 464299.0 0
415892.0 467538.0 0
417426.0 463428.0 0
420041.0 466264.0 0
423744.0 465883.0 0
427850.0 465528.0 0
429964.0 462971.0 0
433137.0 464819.0 0
435862.0 466004.0 0
437964.0 463954.0 0
437851.0 467088.0 0
441244.0 466877.0 0
50107.0 471644.0 0
53162.2 469250.0 0
55891.5 471611.0 0
53481.2 472635.0 0
60589.0 471038.0 0
64351.3 469584.0 0
67742.2 471643.0 0
72246.9 471966.0 0
74704.8 468639.0 0
76216.3 472126.0 0
78972.6 468276.0 0
83126.4 470465.0 0
79653.0 472316.0 0
86554.9 468948.0 0
86423.8 472131.0 0
90161.7 469196.0 0
93643.8 472219.0 0
93992.8 468892.0 0
97329.0 470536.0 0
102266.0 469824.0 0
106500.0 468387.0 0
106078.0 472867.0 0
110086.0 470125.0 0
113682.0 470942.0 0
117684.0 467336.0 0
117282.0 471299.0 0
121705.0 469695.0 0
127024.0 468461.0 0
129171.0 472651.0 0
131393.0 468989.0 0
133589.0 472461.0 0
137661.0 471285.0 0
142305.0 470911.0 0
146810.0 470350.0 0
151761.0 469569.0 0
156657.0 469075.0 0
160798.0 470054.0 0
163322.0 468515.0 0
166326.0 468929.0 0
169918.0 469175.0 0
168310.0 472129.0 0
177486.0 469974.0 0
182223.0 467368.0 0
184823.0 470833.0 0
186433.0 468022.0 0
189059.0 471504.0 0
194056.0 469362.0 0
199034.0 470112.0 0
201082.0 467071.0 0
203109.0 468740.0 0
205656.0 470900.0 0
206225.0 466979.0 0
208973.0 469919.0 0
213035.0 470774.0 0
217686.0 470481.0 0
223349.0 466611.0 0
221532.0 469863.0 0
226075.0 470020.0 0
230840.0 471001.0 0
233743.0 468299.0 0
239237.0 466550.0 0
237412.0 469989.0 0
243044.0 467036.0 0
241369.0 470913.0 0
246140.0 471492.0 0
250446.0 466657.0 0
255320.0 466374.0 0
258503.0 470569.0 0
262250.0 466947.0 0
262126.0 470705.0 0
268971.0 468000.0 0
265547.0 470785.0 0
271591.0 469900.0 0
276790.0 466427.0 0
275059.0 470557.0 0
279477.0 471682.0 0
280635.0 466949.0 0
284122.0 466589.0 0
283463.0 470106.0 0
286946.0 468172.0 0
289875.0 471026.0 0
294021.0 469433.0 0
298477.0 468662.0 0
302816.0 470428.0 0
306609.0 468140.0 0
309557.0 470852.0 0
313326.0 471568.0 0
315764.0 468121.0 0
319863.0 468667.0 0
323490.0 468533.0 0
321969.0 471746.0 0
327051.0 468778.0 0
329574.0 472113.0 0
331565.0 467578.0 0
336186.0 469373.0 0
339693.0 469764.0 0
342264.0 469264.0 0
344642.0 470783.0 0
348858.0 471120.0 0
354132.0 471681.0 0
358828.0 469487.0 0
362837.0 469093.0 0
369195.0 468982.0 0
365883.0 471092.0 0
369920.0 472703.0 0
373097.0 469872.0 0
377528.0 471221.0 0
380798.0 468643.0 0
381869.0 472457.0 0
385741.0 470226.0 0
390527.0 469973.0 0
395337.0 468689.0 0
393921.0 472774.0 0
397538.0 471832.0 0
400352.0 469750.0 0
403977.0 470900.0 0
408126.0 470020.0 0
412698.0 469660.0 0
416447.0 472172.0 0
419230.0 469535.0 0
420783.0 472717.0 0
422746.0 469698.0 0
424339.0 473020.0 0
426976.0 470396.0 0
430519.0 472854.0 0
431780.0 468504.0 0
436133.0 469298.0 0
434421.0 472815.0 0
438986.0 470054.0 0
445337.0 469048.0 0
442299.0 472068.0 0
449340.0 470172.0 0
447392.0 472786.0 0
451992.0 473120.0 0
42775.7 476239.0 0
46172.2 473556.0 0
45972.7 476700.0 0
50199.7 475753.0 0
54742.3 475292.0 0
57563.3 474182.0 0
57556.4 477535.0 0
60932.2 475477.0 0
64130.4 473567.0 0
64556.5 477167.0 0
67201.7 475307.0 0
70345.0 475407.0 0
74091.3 475527.0 0
77935.9 475478.0 0
82574.0 474754.0 0
86872.2 475771.0 0
90171.6 473420.0 0
92820.1 475201.0 0
90459.4 476965.0 0
93376.4 477456.0 0
96006.1 475112.0 0
100161.0 473537.0 0
98803.6 477461.0 0
102895.0 476723.0 0
107738.0 477541.0 0
110994.0 474193.0 0
115086.0 474828.0 0
119820.0 474715.0 0
123496.0 476684.0 0
124604.0 472965.0 0
127350.0 476234.0 0
131612.0 476040.0 0
133282.0 479705.0 0
135341.0 476151.0 0
139932.0 475482.0 0
144946.0 475094.0 0
150068.0 474363.0 0
154693.0 473498.0 0
158828.0 473371.0 0
156661.0 476404.0 0
160175.0 477258.0 0
163660.0 473156.0 0
168817.0 476810.0 0
172985.0 472579.0 0
177449.0 475087.0 0
181216.0 472622.0 0
185071.0 474916.0 0
181312.0 477485.0 0
189154.0 476591.0 0
192585.0 474077.0 0
196569.0 474509.0 0
202653.0 473400.0 0
208475.0 474673.0 0
212387.0 474780.0 0
216495.0 475571.0 0
221534.0 474036.0 0
228595.0 473845.0 0
225527.0 474842.0 0
234348.0 472876.0 0
231449.0 474868.0 0
238485.0 474280.0 0
234943.0 477528.0 0
242890.0 475363.0 0
250331.0 470961.0 0
253963.0 471243.0 0
250199.0 474355.0 0
253486.0 475034.0 0
256993.0 476062.0 0
262158.0 474983.0 0
269263.0 471674.0 0
267653.0 476034.0 0
272163.0 473845.0 0
276026.0 475353.0 0
283272.0 474425.0 0
279818.0 476262.0 0
286315.0 472203.0 0
293072.0 474018.0 0
296405.0 472369.0 0
296764.0 476283.0 0
299637.0 473351.0 0
303226.0 474384.0 0
306299.0 472607.0 0
306009.0 476765.0 0
309767.0 474868.0 0
313946.0 476438.0 0
317999.0 472885.0 0
322994.0 476636.0 0
325531.0 472307.0 0
328029.0 475640.0 0
333663.0 472318.0 0
331358.0 475346.0 0
334753.0 476762.0 0
338151.0 473332.0 0
342022.0 472500.0 0
341728.0 476405.0 0
345818.0 475241.0 0
350431.0 475768.0 0
353483.0 475757.0 0
358366.0 473436.0 0
356322.0 475957.0 0
359906.0 476606.0 0
362219.0 473017.0 0
363527.0 477076.0 0
366503.0 474798.0 0
374123.0 473948.0 0
370689.0 476883.0 0
378561.0 475519.0 0
382437.0 476429.0 0
385810.0 474499.0 0
389774.0 473824.0 0
388160.0 476802.0 0
390327.0 476630.0 0
393165.0 476550.0 0
397106.0 475186.0 0
401287.0 474152.0 0
406085.0 474118.0 0
404047.0 477770.0 0
408333.0 476977.0 0
411354.0 473984.0 0
415861.0 476496.0 0
419478.0 475476.0 0
423236.0 475741.0 0
427661.0 475560.0 0
432123.0 475994.0 0
435606.0 475921.0 0
438141.0 473533.0 0
441839.0 475715.0 0
438875.0 478036.0 0
445288.0 475915.0 0
449459.0 476417.0 0
455702.0 474613.0 0
453610.0 477599.0 0
458647.0 477260.0 0
30413.3 483727.0 0
33335.8 481544.0 0
35057.3 479676.0 0
38867.4 479775.0 0
42420.2 483486.0 0
43711.0 479731.0 0
46733.3 478961.0 0
46367.1 482348.0 0
49623.5 479952.0 0
53879.9 479184.0 0
57790.4 481182.0 0
54663.9 482843.0 0
61197.6 479230.0 0
61017.8 482790.0 0
65299.4 481440.0 0
68331.1 478444.0 0
72081.3 478724.0 0
69635.3 481929.0 0
75833.1 478755.0 0
73683.9 481930.0 0
77704.4 481983.0 0
79857.7 478379.0 0
81690.3 481434.0 0
84047.5 478520.0 0
87927.6 479170.0 0
85977.4 482901.0 0
91456.3 480721.0 0
95718.3 479554.0 0
97341.7 481880.0 0
100448.0 480701.0 0
104615.0 480349.0 0
108159.0 481807.0 0
111954.0 478532.0 0
111456.0 483202.0 0
114470.0 481383.0 0
116630.0 478270.0 0
117467.0 482354.0 0
120625.0 479264.0 0
125441.0 480592.0 0
129744.0 479142.0 0
137827.0 480315.0 0
143006.0 480048.0 0
147925.0 479467.0 0
152939.0 478327.0 0
156976.0 481297.0 0
164089.0 478323.0 0
161582.0 481908.0 0
173906.0 477914.0 0
171321.0 481133.0 0
174569.0 482462.0 0
177831.0 480018.0 0
185210.0 479545.0 0
181666.0 482199.0 0
189381.0 481125.0 0
193083.0 478143.0 0
200159.0 477250.0 0
196695.0 479528.0 0
197430.0 482976.0 0
204658.0 477925.0 0
201383.0 481773.0 0
208492.0 479558.0 0
205845.0 482059.0 0
212466.0 478866.0 0
219910.0 478467.0 0
216880.0 481163.0 0
223893.0 478435.0 0
228484.0 477657.0 0
231842.0 480414.0 0
231721.0 477748.0 0
239609.0 478888.0 0
236041.0 482857.0 0
243918.0 479403.0 0
247138.0 477221.0 0
245043.0 481767.0 0
248453.0 481521.0 0
252094.0 478533.0 0
256142.0 481252.0 0
260536.0 480015.0 0
264490.0 479366.0 0
268165.0 481473.0 0
272316.0 478527.0 0
277197.0 480576.0 0
283208.0 479660.0 0
288301.0 476877.0 0
293188.0 478463.0 0
296742.0 481377.0 0
301155.0 478122.0 0
305076.0 480826.0 0
309890.0 480321.0 0
318115.0 477753.0 0
315141.0 481966.0 0
320656.0 481783.0 0
327122.0 478565.0 0
331148.0 479779.0 0
338453.0 477847.0 0
336210.0 481730.0 0
344198.0 479155.0 0
341022.0 480750.0 0
348465.0 480044.0 0
353544.0 479138.0 0
357422.0 479348.0 0
361453.0 481172.0 0
364697.0 482563.0 0
366831.0 479614.0 0
371671.0 481858.0 0
375502.0 478905.0 0
380452.0 480400.0 0
385342.0 479187.0 0
390087.0 479827.0 0
387476.0 482659.0 0
393970.0 480629.0 0
396609.0 478690.0 0
398281.0 481637.0 0
400098.0 478394.0 0
402323.0 482068.0 0
407540.0 481186.0 0
411985.0 478686.0 0
412986.0 482351.0 0
416569.0 480478.0 0
420850.0 478924.0 0
420289.0 482403.0 0
424756.0 478523.0 0
424835.0 482419.0 0
427527.0 479148.0 0
429005.0 481834.0 0
430830.0 479167.0 0
434627.0 478958.0 0
433531.0 483262.0 0
437525.0 481828.0 0
441601.0 482469.0 0
443463.0 479162.0 0
446882.0 478882.0 0
446293.0 482803.0 0
450254.0 480326.0 0
453913.0 481969.0 0
456694.0 480060.0 0
461316.0 481630.0 0
457446.0 482860.0 0
462474.0 478570.0 0
465565.0 481096.0 0
23471.4 487718.0 0
27048.0 485914.0 0
31429.0 487986.0 0
34974.6 484305.0 0
36395.2 488559.0 0
38678.6 484567.0 0
41117.3 487967.0 0
46079.6 486957.0 0
50576.5 483546.0 0
50162.2 487652.0 0
53508.4 486043.0 0
57949.1 486114.0 0
63426.4 485344.0 0
67429.1 485093.0 0
71468.5 485443.0 0
75356.6 485743.0 0
78364.6 485131.0 0
81270.8 484760.0 0
83632.7 488067.0 0
87329.0 486683.0 0
90482.6 484710.0 0
89618.4 487605.0 0
94769.3 484284.0 0
99236.7 484663.0 0
101290.0 488001.0 0
104103.0 484520.0 0
108164.0 486137.0 0
112390.0 487164.0 0
114708.0 484307.0 0
117234.0 487109.0 0
121424.0 483897.0 0
126110.0 485537.0 0
129877.0 482858.0 0
134266.0 484357.0 0
130148.0 487314.0 0
138360.0 484049.0 0
138577.0 487568.0 0
141401.0 484030.0 0
145741.0 484171.0 0
151170.0 484111.0 0
159542.0 485432.0 0
155744.0 486009.0 0
163114.0 485710.0 0
166817.0 482824.0 0
171435.0 485632.0 0
177773.0 484373.0 0
178505.0 487320.0 0
185756.0 483974.0 0
181886.0 486778.0 0
189713.0 485204.0 0
193336.0 482775.0 0
192966.0 487168.0 0
195897.0 485786.0 0
199666.0 486071.0 0
204495.0 486488.0 0
210089.0 484232.0 0
213807.0 482504.0 0
215070.0 485339.0 0
218321.0 485599.0 0
221417.0 483000.0 0
224559.0 486412.0 0
227427.0 482669.0 0
231700.0 483349.0 0
232630.0 486138.0 0
235992.0 487919.0 0
239772.0 486420.0 0
241778.0 482989.0 0
243431.0 488849.0 0
245808.0 485307.0 0
250138.0 485843.0 0
252448.0 482928.0 0
255022.0 486087.0 0
263885.0 483569.0 0
259299.0 484695.0 0
272329.0 483360.0 0
276247.0 486619.0 0
281152.0 484417.0 0
283706.0 487644.0 0
286488.0 484216.0 0
290930.0 482443.0 0
294267.0 485563.0 0
298448.0 485858.0 0
301677.0 483269.0 0
306712.0 485503.0 0
311297.0 484740.0 0
314587.0 487088.0 0
318229.0 485481.0 0
322512.0 486857.0 0
326346.0 482614.0 0
331773.0 485164.0 0
336219.0 485727.0 0
340531.0 484963.0 0
344687.0 482913.0 0
344523.0 486612.0 0
348647.0 485609.0 0
352079.0 482912.0 0
353110.0 486278.0 0
356771.0 483466.0 0
360516.0 484940.0 0
363871.0 485276.0 0
367889.0 484288.0 0
372044.0 486670.0 0
376637.0 484227.0 0
380971.0 484427.0 0
383995.0 483066.0 0
383502.0 486130.0 0
386835.0 485745.0 0
391080.0 484352.0 0
395450.0 484001.0 0
394495.0 487977.0 0
399556.0 486315.0 0
405029.0 486392.0 0
409803.0 484964.0 0
413938.0 486345.0 0
417238.0 484186.0 0
421547.0 485700.0 0
418082.0 488101.0 0
425876.0 487103.0 0
429487.0 485320.0 0
433637.0 488441.0 0
438564.0 486451.0 0
443614.0 486362.0 0
447881.0 486665.0 0
450853.0 484124.0 0
451823.0 487698.0 0
455647.0 486128.0 0
460736.0 485952.0 0
465137.0 484943.0 0
468942.0 483639.0 0
468443.0 487999.0 0
472955.0 486800.0 0
14566.8 494001.0 0
17382.2 491255.0 0
20276.5 489720.0 0
22803.2 492473.0 0
26871.7 489686.0 0
26889.7 493450.0 0
29870.9 491686.0 0
33969.9 492661.0 0
39316.3 492360.0 0
44190.2 491859.0 0
48707.5 491306.0 0
53339.0 489792.0 0
57719.4 492213.0 0
61601.8 488846.0 0
65735.2 488624.0 0
63543.9 492492.0 0
69244.3 488466.0 0
68199.0 492086.0 0
73418.6 490612.0 0
77818.4 492533.0 0
78555.7 488473.0 0
81149.6 491659.0 0
87945.4 490016.0 0
84668.2 492711.0 0
92740.8 488815.0 0
97076.5 488340.0 0
95703.2 492325.0 0
100301.0 492165.0 0
104991.0 489318.0 0
109160.0 490443.0 0
114054.0 491276.0 0
118896.0 491373.0 0
122181.0 488536.0 0
126371.0 490126.0 0
134150.0 489362.0 0
130353.0 492065.0 0
137277.0 491541.0 0
143317.0 487801.0 0
141052.0 491493.0 0
144872.0 491563.0 0
147924.0 488739.0 0
153100.0 490395.0 0
157773.0 488755.0 0
157977.0 492412.0 0
161393.0 489086.0 0
166683.0 488949.0 0
171328.0 490209.0 0
175277.0 488163.0 0
178983.0 490543.0 0
183172.0 491659.0 0
186110.0 488302.0 0
189890.0 488907.0 0
192722.0 491679.0 0
196929.0 489841.0 0
201115.0 489240.0 0
205216.0 491587.0 0
208310.0 489090.0 0
212330.0 489107.0 0
217079.0 489743.0 0
221191.0 487846.0 0
224718.0 490591.0 0
228799.0 488296.0 0
232792.0 489684.0 0
239434.0 490631.0 0
235396.0 492513.0 0
242778.0 492892.0 0
247843.0 489560.0 0
252177.0 489058.0 0
251093.0 493728.0 0
255450.0 491145.0 0
258106.0 488633.0 0
262486.0 488421.0 0
268239.0 487234.0 0
272684.0 490970.0 0
277085.0 491717.0 0
280266.0 489752.0 0
284021.0 491769.0 0
287318.0 488833.0 0
291351.0 488847.0 0
296570.0 489765.0 0
302084.0 487773.0 0
300783.0 491911.0 0
305841.0 491655.0 0
310571.0 488895.0 0
318546.0 489923.0 0
314441.0 491883.0 0
323443.0 492552.0 0
327446.0 488305.0 0
331222.0 489779.0 0
334533.0 488997.0 0
338322.0 488149.0 0
337587.0 491984.0 0
342121.0 489761.0 0
346792.0 489808.0 0
351503.0 490121.0 0
356718.0 488291.0 0
355346.0 492113.0 0
359287.0 492258.0 0
361735.0 488563.0 0
364191.0 493087.0 0
367473.0 489129.0 0
372414.0 490977.0 0
375506.0 488765.0 0
380101.0 488575.0 0
377065.0 492807.0 0
385078.0 489670.0 0
385474.0 493076.0 0
389779.0 488628.0 0
388471.0 492612.0 0
392829.0 492043.0 0
397863.0 491553.0 0
402061.0 490164.0 0
406237.0 491590.0 0
409892.0 488957.0 0
414250.0 490918.0 0
418315.0 492319.0 0
422764.0 490656.0 0
429603.0 488990.0 0
427202.0 491211.0 0
431136.0 491868.0 0
434359.0 492719.0 0
437841.0 491407.0 0
442071.0 490416.0 0
445756.0 489512.0 0
449927.0 491044.0 0
454927.0 490519.0 0
459123.0 490065.0 0
462444.0 493506.0 0
464046.0 489187.0 0
472726.0 491490.0 0
467770.0 492760.0 0
477637.0 489465.0 0
481632.0 491251.0 0
485177.0 493886.0 0
7411.59 497812.0 0
10765.8 496212.0 0
14317.4 499051.0 0
18610.8 495778.0 0
21660.8 499051.0 0
22390.7 496297.0 0
25348.9 497060.0 0
29872.7 495447.0 0
33450.7 497293.0 0
37399.7 496118.0 0
42403.6 496007.0 0
47067.0 495479.0 0
52020.8 494207.0 0
50550.5 498628.0 0
55901.2 497617.0 0
60799.3 496276.0 0
65956.9 496160.0 0
70854.3 495610.0 0
75705.0 495488.0 0
80638.0 495716.0 0
85133.9 496552.0 0
90579.5 494661.0 0
96386.3 497239.0 0
100912.0 496427.0 0
105392.0 494310.0 0
110537.0 494911.0 0
114825.0 495936.0 0
116940.0 493735.0 0
119540.0 496229.0 0
122993.0 493214.0 0
126925.0 494482.0 0
124413.0 498070.0 0
134186.0 494038.0 0
130334.0 497067.0 0
138470.0 495138.0 0
143183.0 495211.0 0
148573.0 494241.0 0
154166.0 496190.0 0
159097.0 496188.0 0
163050.0 493174.0 0
169010.0 494996.0 0
174868.0 493260.0 0
179605.0 494797.0 0
184224.0 496578.0 0
187988.0 493095.0 0
191907.0 495821.0 0
196205.0 494999.0 0
200969.0 493245.0 0
204971.0 496046.0 0
209480.0 493777.0 0
213878.0 493396.0 0
221149.0 492341.0 0
217613.0 495019.0 0
222137.0 496881.0 0
226336.0 494773.0 0
229491.0 497543.0 0
230711.0 493338.0 0
234339.0 497621.0 0
239192.0 495236.0 0
243701.0 497286.0 0
246378.0 493497.0 0
248264.0 497594.0 0
252672.0 499053.0 0
255765.0 495335.0 0
259654.0 492690.0 0
262842.0 495811.0 0
264949.0 492272.0 0
268557.0 492450.0 0
267161.0 496558.0 0
270964.0 494935.0 0
275317.0 495906.0 0
280028.0 494025.0 0
284005.0 496421.0 0
288749.0 493596.0 0
293408.0 492904.0 0
297520.0 494918.0 0
302554.0 496584.0 0
308062.0 497979.0 0
310505.0 493501.0 0
313682.0 496739.0 0
318404.0 494918.0 0
328635.0 492884.0 0
326291.0 496407.0 0
333074.0 493425.0 0
330267.0 496698.0 0
336777.0 496990.0 0
341276.0 494704.0 0
344863.0 493108.0 0
348517.0 494186.0 0
345022.0 497571.0 0
352813.0 495192.0 0
356681.0 495194.0 0
360820.0 496948.0 0
369342.0 494348.0 0
365914.0 497635.0 0
372235.0 496355.0 0
373184.0 494224.0 0
375581.0 497461.0 0
381977.0 493424.0 0
390806.0 495835.0 0
385985.0 496522.0 0
395292.0 495406.0 0
398280.0 495418.0 0
398696.0 498538.0 0
402502.0 495388.0 0
407562.0 495488.0 0
410791.0 493687.0 0
410960.0 497771.0 0
415574.0 496089.0 0
421044.0 495435.0 0
425338.0 494602.0 0
424238.0 498591.0 0
428791.0 494059.0 0
428310.0 497537.0 0
432405.0 495992.0 0
437137.0 495954.0 0
441049.0 494520.0 0
445501.0 493684.0 0
443596.0 498233.0 0
449758.0 494966.0 0
447744.0 497160.0 0
453765.0 494022.0 0
456723.0 497020.0 0
452471.0 498664.0 0
458005.0 493720.0 0
460546.0 497357.0 0
465876.0 497779.0 0
471957.0 496540.0 0
476399.0 494007.0 0
476779.0 498480.0 0
480583.0 495789.0 0
485020.0 499062.0 0
489254.0 496318.0 0
493057.0 498714.0 0
3392.54 500078.0 0
9464.55 501220.0 0
14386.7 504182.0 0
18352.6 500864.0 0
20125.9 504917.0 0
23584.5 501983.0 0
29049.6 500990.0 0
34887.0 500770.0 0
39697.8 500261.0 0
45323.4 500428.0 0
49575.9 503094.0 0
53888.5 502110.0 0
58580.2 501576.0 0
62850.3 500004.0 0
68359.8 501359.0 0
72340.9 501642.0 0
73440.9 499244.0 0
77760.9 499752.0 0
83085.1 500585.0 0
87914.7 499403.0 0
87510.2 502895.0 0
92147.9 500372.0 0
96710.5 503072.0 0
99916.5 499808.0 0
103388.0 498621.0 0
102761.0 503143.0 0
107902.0 499805.0 0
112449.0 498642.0 0
112853.0 502479.0 0
116326.0 499733.0 0
120307.0 500312.0 0
123566.0 503249.0 0
128321.0 501027.0 0
134785.0 498361.0 0
139964.0 500028.0 0
145758.0 499034.0 0
148626.0 502835.0 0
150087.0 498676.0 0
153080.0 501280.0 0
157909.0 500786.0 0
163496.0 498767.0 0
168835.0 501657.0 0
172226.0 498639.0 0
173595.0 501704.0 0
176114.0 498303.0 0
179170.0 501518.0 0
180420.0 498697.0 0
183502.0 502048.0 0
189065.0 499890.0 0
194653.0 499529.0 0
200274.0 499041.0 0
204826.0 499639.0 0
208557.0 498893.0 0
213659.0 498112.0 0
211351.0 502164.0 0
218349.0 499132.0 0
222576.0 501548.0 0
226083.0 499142.0 0
230873.0 501096.0 0
239282.0 500017.0 0
235207.0 503226.0 0
246468.0 502152.0 0
251576.0 503988.0 0
257107.0 502882.0 0
259183.0 497867.0 0
263574.0 500909.0 0
271244.0 498530.0 0
274952.0 501786.0 0
279560.0 498697.0 0
283433.0 500860.0 0
287824.0 499690.0 0
293093.0 497956.0 0
298501.0 499595.0 0
295219.0 502376.0 0
303963.0 501173.0 0
313211.0 501302.0 0
317716.0 499855.0 0
322215.0 497912.0 0
327579.0 501339.0 0
333017.0 500164.0 0
337981.0 502721.0 0
340908.0 498787.0 0
343178.0 501722.0 0
349813.0 499415.0 0
355795.0 499924.0 0
363375.0 499825.0 0
360968.0 501833.0 0
365340.0 502011.0 0
370668.0 500251.0 0
376838.0 502118.0 0
380954.0 498472.0 0
385683.0 501575.0 0
389274.0 499582.0 0
393992.0 499946.0 0
398240.0 502914.0 0
402397.0 500838.0 0
406602.0 499026.0 0
410216.0 501160.0 0
414515.0 501169.0 0
419518.0 499767.0 0
423549.0 502984.0 0
427520.0 501455.0 0
431186.0 500052.0 0
434842.0 499404.0 0
435641.0 503593.0 0
439338.0 500237.0 0
443510.0 503325.0 0
448079.0 501448.0 0
457402.0 501263.0 0
453028.0 503887.0 0
461747.0 501236.0 0
465174.0 502116.0 0
469862.0 500893.0 0
473520.0 500710.0 0
476315.0 502485.0 0
480685.0 501996.0 0
489738.0 501344.0 0
494089.0 502541.0 0
496546.0 499858.0 0
497913.0 502583.0 0
3676.5 505698.0 0
9335.56 505472.0 0
17093.9 509203.0 0
25410.7 506595.0 0
30209.0 506045.0 0
33248.0 504146.0 0
36928.2 504567.0 0
33868.1 507970.0 0
38518.8 507669.0 0
41742.5 504924.0 0
46182.5 505818.0 0
51238.3 507756.0 0
56613.6 505920.0 0
62782.8 505310.0 0
69073.1 507149.0 0
74173.2 504280.0 0
79201.1 504169.0 0
83643.8 505530.0 0
87584.3 506489.0 0
91655.8 504847.0 0
95006.3 508202.0 0
99624.4 507443.0 0
109076.0 504697.0 0
112887.0 507025.0 0
117823.0 504618.0 0
119923.0 508223.0 0
123243.0 507914.0 0
128477.0 506306.0 0
134365.0 503673.0 0
139462.0 504933.0 0
143831.0 503810.0 0
146781.0 507013.0 0
152187.0 505968.0 0
156728.0 505688.0 0
162779.0 505576.0 0
168327.0 506646.0 0
172517.0 506051.0 0
176707.0 504121.0 0
180144.0 504243.0 0
182474.0 507730.0 0
187816.0 505741.0 0
193157.0 504264.0 0
198071.0 504055.0 0
196241.0 508153.0 0
200644.0 507903.0 0
202764.0 503923.0 0
207337.0 503465.0 0
211012.0 506684.0 0
216291.0 503809.0 0
222061.0 506731.0 0
227081.0 503783.0 0
241099.0 505268.0 0
269050.0 502914.0 0
272537.0 506320.0 0
276520.0 506665.0 0
280178.0 503816.0 0
286111.0 505713.0 0
291320.0 503113.0 0
298893.0 504329.0 0
294457.0 506867.0 0
303192.0 505477.0 0
308660.0 504447.0 0
312758.0 507926.0 0
316391.0 505113.0 0
321848.0 503292.0 0
326146.0 507022.0 0
332243.0 505878.0 0
342381.0 506312.0 0
346991.0 503990.0 0
352352.0 504867.0 0
357910.0 505032.0 0
362740.0 505752.0 0
368110.0 506166.0 0
373433.0 505534.0 0
377570.0 507364.0 0
381452.0 504258.0 0
390392.0 503621.0 0
386765.0 507130.0 0
394308.0 504742.0 0
392203.0 508125.0 0
397402.0 508112.0 0
402014.0 505552.0 0
405530.0 508004.0 0
406788.0 503866.0 0
409775.0 508748.0 0
411611.0 504527.0 0
414501.0 507348.0 0
418803.0 504753.0 0
423901.0 507847.0 0
426979.0 504923.0 0
430756.0 503871.0 0
429100.0 508317.0 0
433299.0 507114.0 0
439791.0 504734.0 0
437733.0 508631.0 0
442749.0 507772.0 0
448196.0 506903.0 0
457712.0 506269.0 0
453319.0 507950.0 0
462737.0 505593.0 0
467859.0 504850.0 0
472832.0 504601.0 0
470412.0 507968.0 0
477616.0 506731.0 0
473664.0 508579.0 0
482460.0 506689.0 0
485996.0 504367.0 0
491131.0 505954.0 0
496135.0 506031.0 0
3223.18 511920.0 0
7476.57 509137.0 0
8841.05 512810.0 0
11814.9 508960.0 0
17735.4 514376.0 0
26409.2 510522.0 0
22470.1 511497.0 0
29428.5 509373.0 0
28292.5 513323.0 0
37256.3 511888.0 0
32327.4 511940.0 0
41975.3 509441.0 0
42343.8 513882.0 0
46344.0 510315.0 0
46029.3 513859.0 0
50122.1 512684.0 0
54295.2 511569.0 0
59251.2 510067.0 0
64717.7 510502.0 0
69757.3 512610.0 0
73973.3 509397.0 0
79533.0 509143.0 0
85082.8 509976.0 0
90267.3 509542.0 0
93515.3 513534.0 0
97913.3 511353.0 0
101700.0 512990.0 0
105515.0 508754.0 0
111149.0 511780.0 0
116553.0 509727.0 0
120997.0 511907.0 0
126118.0 511454.0 0
132979.0 509215.0 0
137335.0 508270.0 0
136311.0 513118.0 0
142228.0 508713.0 0
149704.0 509428.0 0
146299.0 511877.0 0
153746.0 510544.0 0
150407.0 513051.0 0
158386.0 510096.0 0
162492.0 511430.0 0
166875.0 510639.0 0
171815.0 511050.0 0
176897.0 509306.0 0
180811.0 512498.0 0
186889.0 511264.0 0
191738.0 509324.0 0
205480.0 508059.0 0
281048.0 508500.0 0
290425.0 509833.0 0
300126.0 509103.0 0
305443.0 510082.0 0
310523.0 511436.0 0
316055.0 510000.0 0
320436.0 508723.0 0
324301.0 511501.0 0
333813.0 510596.0 0
329353.0 511269.0 0
337522.0 508321.0 0
336625.0 512636.0 0
341980.0 512519.0 0
346638.0 508827.0 0
351450.0 510622.0 0
355579.0 508596.0 0
356268.0 513024.0 0
359823.0 509611.0 0
364651.0 510447.0 0
368365.0 510532.0 0
372098.0 510603.0 0
377119.0 512507.0 0
381691.0 509644.0 0
385492.0 511920.0 0
389528.0 511807.0 0
394490.0 513173.0 0
399176.0 512345.0 0
402296.0 510150.0 0
406213.0 511149.0 0
409194.0 513873.0 0
413986.0 512167.0 0
418785.0 509950.0 0
422579.0 512502.0 0
427090.0 512525.0 0
433345.0 510848.0 0
441234.0 511721.0 0
445748.0 511482.0 0
451150.0 511201.0 0
456483.0 511522.0 0
461224.0 509755.0 0
463254.0 513678.0 0
466133.0 509578.0 0
467621.0 513765.0 0
471172.0 511643.0 0
476253.0 512139.0 0
480980.0 510443.0 0
486972.0 510622.0 0
493776.0 509984.0 0
498006.0 509330.0 0
497209.0 513156.0 0
2034.64 516524.0 0
6198.69 516489.0 0
11219.8 517061.0 0
13479.2 513025.0 0
15775.3 518284.0 0
20556.5 518201.0 0
24834.7 515959.0 0
28741.3 517413.0 0
32885.7 516163.0 0
38124.0 517523.0 0
43813.5 518864.0 0
48035.1 516376.0 0
53165.7 516863.0 0
57163.9 514066.0 0
61381.5 514297.0 0
58602.3 517925.0 0
65210.1 514661.0 0
67868.1 517537.0 0
63177.6 518145.0 0
72147.7 516519.0 0
76495.4 514216.0 0
74977.3 518474.0 0
82179.8 514014.0 0
87989.2 513870.0 0
85303.9 517907.0 0
90469.8 518279.0 0
98193.3 515595.0 0
94955.2 518201.0 0
102302.0 517550.0 0
106233.0 514713.0 0
110530.0 517079.0 0
116129.0 515359.0 0
121577.0 516542.0 0
126253.0 516458.0 0
130817.0 513784.0 0
133948.0 517075.0 0
138098.0 518088.0 0
141702.0 514288.0 0
144125.0 518377.0 0
147820.0 516313.0 0
152841.0 516848.0 0
156280.0 513812.0 0
160007.0 514468.0 0
164956.0 515940.0 0
333128.0 514813.0 0
337786.0 516091.0 0
347682.0 514180.0 0
344721.0 516943.0 0
352325.0 515926.0 0
357373.0 517899.0 0
361565.0 514709.0 0
368175.0 514342.0 0
372966.0 515401.0 0
378781.0 517444.0 0
382311.0 514528.0 0
386991.0 515897.0 0
391501.0 517733.0 0
399397.0 515989.0 0
404059.0 514863.0 0
413813.0 517384.0 0
418555.0 515204.0 0
424100.0 517558.0 0
431419.0 514516.0 0
429145.0 517803.0 0
436957.0 514199.0 0
443324.0 515742.0 0
448953.0 515916.0 0
453199.0 514375.0 0
455168.0 517603.0 0
459244.0 515510.0 0
462336.0 517464.0 0
466199.0 517523.0 0
471439.0 516571.0 0
476688.0 517421.0 0
480686.0 514654.0 0
488489.0 515995.0 0
484699.0 515997.0 0
492383.0 514292.0 0
494192.0 518632.0 0
497914.0 517129.0 0
2743.65 520847.0 0
7791.56 520836.0 0
12798.8 521916.0 0
17796.9 522379.0 0
25527.4 521402.0 0
31402.4 521004.0 0
35497.6 521204.0 0
39727.4 522690.0 0
44543.1 524024.0 0
49010.0 520952.0 0
55704.8 522390.0 0
60745.1 521499.0 0
65707.7 522285.0 0
71385.1 521153.0 0
76198.0 521734.0 0
80038.7 518846.0 0
83991.2 522723.0 0
89278.9 523370.0 0
98586.1 520030.0 0
94598.1 522770.0 0
102489.0 522191.0 0
106424.0 519563.0 0
108904.0 522350.0 0
113850.0 521858.0 0
119076.0 519954.0 0
123625.0 520810.0 0
130318.0 519860.0 0
348322.0 519178.0 0
353259.0 520891.0 0
365117.0 518367.0 0
369655.0 519025.0 0
374472.0 520107.0 0
379534.0 522790.0 0
383301.0 519060.0 0
387723.0 520745.0 0
392255.0 522803.0 0
396319.0 519366.0 0
402199.0 520335.0 0
408301.0 519103.0 0
406221.0 523824.0 0
413012.0 522443.0 0
418417.0 520569.0 0
422989.0 522739.0 0
428320.0 522571.0 0
433842.0 519400.0 0
439692.0 519120.0 0
437510.0 523165.0 0
441824.0 523618.0 0
445553.0 520480.0 0
451371.0 520739.0 0
455727.0 522258.0 0
459348.0 519638.0 0
463475.0 520929.0 0
469148.0 521073.0 0
473618.0 520788.0 0
477468.0 521931.0 0
481618.0 519669.0 0
486793.0 519905.0 0
490527.0 518628.0 0
491530.0 523218.0 0
497785.0 521174.0 0
2920.63 526258.0 0
6246.12 528889.0 0
9096.52 525872.0 0
15031.9 526210.0 0
21627.4 526752.0 0
29460.7 526369.0 0
34692.2 524886.0 0
40886.9 527844.0 0
46521.5 528706.0 0
51069.0 525768.0 0
55821.8 528043.0 0
60033.1 525538.0 0
64253.5 526965.0 0
69263.1 525824.0 0
73923.7 525491.0 0
79303.9 524969.0 0
83491.4 527931.0 0
119039.0 524266.0 0
398128.0 524170.0 0
402349.0 525452.0 0
409987.0 527113.0 0
415495.0 527216.0 0
419903.0 525469.0 0
424631.0 526999.0 0
429630.0 528244.0 0
433495.0 524996.0 0
438828.0 527663.0 0
443847.0 527682.0 0
448486.0 525271.0 0
454177.0 527259.0 0
460154.0 524345.0 0
465944.0 525746.0 0
472026.0 525233.0 0
476919.0 526249.0 0
480678.0 524275.0 0
485588.0 525098.0 0
489774.0 528307.0 0
493866.0 527727.0 0
497571.0 525569.0 0
1224.85 529993.0 0
17289.0 529303.0 0
67366.7 529533.0 0
76809.8 530350.0 0
434295.0 529468.0 0
461046.0 529722.0 0
470027.0 530217.0 0
497909.0 529989.0 0
POINT_DATA 5000
SCALARS Radius float 1
LOOKUP_TABLE default
5061.3 3163.97 5812.43 6810.52 6182.6 5492.18 5258.36 3951.75 4499.64 3642.12 5542.27 5122.66 5906.14 7513.1 5254.28 4402.52 4436.4 5733.48 5580.89 3588.44 5553.16 6110.27 5415.48 3863.18 5120.0 4998.37 2356.98 5351.6 4715.55 5867.73 5013.56 4375.68 5054.98 6030.06 5484.19 5170.02 3557.27 4688.68 4182.53 4517.56 4672.91 5176.86 5645.7 4366.19 2938.66 3672.51 4008.92 5840.26 5073.35 4834.9 5085.53 5484.83 5538.89 4730.36 6059.59 5701.86 2720.68 4238.81 4468.59 5325.02 5200.76 4927.31 4862.64 5185.34 4432.58 5903.42 3761.32 3955.56 5292.64 4118.05 6166.5 5065.13 4940.78 5561.06 5670.04 6044.04 5325.36 6759.9 7021.47 5926.61 6051.14 4955.55 3563.63 5885.03 4345.55 5246.2 5017.13 4827.23 3673.74 5205.43 6684.56 2635.86 3968.64 4688.67 4385.06 5936.02 3615.22 4231.61 5305.17 4380.59 6716.79 3850.77 5546.39 5945.65 5418.62 5493.32 5416.38 5740.68 4277.89 4195.44 3261.21 5836.15 3653.41 6704.06 2837.58 5600.93 3871.88 3856.01 4390.66 5279.39 4911.47 6116.18 7447.37 4924.6 4733.32 7184.19 4290.3 2924.37 3867.67 4861.08 3942.53 3379.84 4827.82 7613.27 4133.88 4094.62 6230.49 7054.71 4601.27 3641.64 5747.75 4796.33 5539.32 6496.85 5541.59 4124.71 5728.85 6337.56 5803.39 3255.82 4381.97 5242.73 2812.98 2899.43 5603.15 4065.69 4003.05 5399.73 4805.87 3607.45 4951.03 3589.27 4665.12 4927.02 6483.19 4174.52 5109.54 5489.43 5054.25 7325.81 5360.19 4055.8 4794.96 4874.39 4839.34 2980.99 5083.08 4840.01 6834.49 5525.39 3998.5 5938.34 5863.59 4024.3 6257.19 4737.14 4695.45 4660.72 5390.22 4712.33 5227.21 5759.91 4333.2 3260.67 3936.02 5980.74 5816.2 3829.13 3091.3 6458.82 5527.54 5573.7 4727.62 5206.78 6425.26 6186.19 5611.2 7933.0 5173.87 6394.38 5555.28 4686.65 5834.74 5556.96 3888.21 6038.78 5697.78 5123.52 3997.1 4295.38 3383.4 3856.1 4780.03 4044.71 4487.31 5693.81 2540.31 5789.98 4138.16 6138.47 5697.4 4270.95 4005.44 5280.17 5028.96 5143.58 4484.76 5152.36 4220.65 6820.42 4455.12 5380.13 5118.27 5169.36 5932.23 5581.75 5788.23 6052.7 3921.18 4667.36 3038.33 4392.68 5495.39 3554.9 4002.16 4778.34 4684.5 5120.49 6029.66 6302.8 6038.2 5555.88 6732.43 3866.16 3183.98 6362.12 4511.82 5826.64 4816.2 4894.16 4896.52 5711.87 5791.61 6392.01 3666.57 3798.62 5891.05 6902.81 7199.21 5252.48 5542.21 3996.0 4015.92 5708.81 5043.05 3486.22 4414.54 5409.61 5262.61 5094.81 5713.22 5861.71 5017.78 4524.28 3778.1 3794.63 6175.81 4727.24 6959.81 4829.35 6321.41 3372.79 4751.02 4941.22 5184.56 5282.64 4479.66 5308.1 6644.76 4254.17 5615.42 4091.31 4523.7 5529.52 6124.89 5481.78 5924.89 6894.71 5551.36 5201.36 6038.14 4306.53 6135.57 5972.06 4312.67 5015.69 4359.04 4989.15 4947.52 4520.1 6677.09 5813.4 4305.57 5201.67 4089.76 5526.55 3192.41 4987.87 4715.72 3369.13 4669.66 3043.85 5367.2 6730.19 6372.62 7565.34 5337.48 4937.14 4467.94 4933.21 4850.81 5375.47 4723.12 5024.9 4717.05 5659.17 5998.38 4270.24 5423.8 3417.33 4164.13 4926.42 4642.34 5153.74 5874.89 4293.03 3791.79 4424.7 4754.05 4951.47 6084.93 4764.96 3315.57 5607.24 4808.52 5461.13 3599.45 4907.89 5629.19 4937.02 5255.32 5637.59 6084.86 3307.12 3115.91 5478.92 5094.44 4655.49 4566.18 4809.42 5856.11 5287.2 4234.94 4562.29 5013.13 5080.66 5110.45 5248.77 4165.81 4528.09 3556.85 4389.21 4128.98 4925.44 5246.61 5215.15 5046.33 5053.92 5839.13 4726.76 4073.93 5090.24 5655.21 5091.39 6756.95 6037.08 3103.0 3586.91 4948.92 5810.84 3748.24 4230.54 4493.48 6163.38 3459.9 4997.27 4964.09 5543.27 4109.88 3327.49 4980.85 3960.8 5714.58 3329.99 4083.97 5208.32 4607.02 3895.51 6673.96 6291.51 6246.22 4100.38 4307.28 5804.71 5020.12 6352.26 3735.44 4645.41 4786.6 5923.5 4433.59 2240.39 5096.78 4049.23 5601.05 4384.42 4516.43 4749.8 3693.63 5082.6 6061.47 4449.22 4093.08 5628.24 5992.26 4923.9 5070.39 4973.78 4613.31 3947.47 5091.68 3296.27 4713.25 6243.0 5441.96 5174.89 5882.89 5370.52 4188.32 4739.42 5538.93 3697.96 4899.11 5727.3 4242.52 4745.45 5356.51 3847.38 4907.06 3057.03 5163.9 5740.84 4612.68 6324.23 4382.74 4362.19 5690.56 3937.74 5244.78 5478.47 6142.37 5806.08 4853.39 3130.65 5365.89 4511.54 5196.0 6119.09 4204.84 5069.25 5048.89 4288.3 3435.9 5774.81 5344.77 4723.48 4278.07 2631.9 3818.59 4863.72 5495.68 6043.3 5530.87 4973.83 3320.52 4727.24 4651.28 6355.42 4151.94 5492.26 5762.84 5119.37 3982.23 4336.42 5243.29 5004.67 7589.94 5409.33 4466.03 4178.15 7531.29 5935.03 3161.47 3991.03 4652.29 6826.57 4495.87 5027.98 5097.87 5281.28 4143.08 4087.15 5002.48 5489.34 5708.14 5952.75 5537.72 6445.94 3912.37 4281.49 4310.18 4929.8 5927.43 4220.88 6640.13 3092.35 5210.03 5351.39 4583.31 3402.32 4306.11 4898.94 5419.37 5985.29 4733.04 4247.23 5788.66 4755.47 4485.99 3903.75 6390.78 3746.31 4788.87 5346.27 5498.32 7267.18 4758.21 7500.97 6332.36 4262.82 4218.06 5542.14 6342.25 4320.28 4129.43 4685.34 6327.9 6082.81 6519.71 3629.96 3320.11 6022.17 4503.89 5903.66 5313.66 4528.49 5275.32 4268.65 4694.83 4354.08 4520.62 5475.8 7435.25 5543.46 6022.72 5527.33 6475.1 2691.29 6255.18 4277.88 3920.42 4931.53 6691.39 3843.58 3191.99 5449.18 5367.52 4048.37 4714.54 5030.91 5507.24 6851.54 5935.47 5512.23 5349.31 4649.22 5509.42 4256.43 5475.7 5936.36 5314.69 5127.16 6050.81 4249.46 4244.99 4643.31 6917.52 4969.21 4668.71 6256.02 6623.85 5102.36 8332.24 7134.64 4602.25 5110.37 5664.98 4322.15 4659.59 5101.59 3813.22 4377.07 5570.3 3848.93 2651.49 5234.29 4711.62 4114.24 5394.55 2976.22 5094.52 2682.24 5229.48 5415.19 4016.18 5435.74 5560.26 5965.81 2330.66 4177.19 5402.21 3691.0 2845.98 7228.46 5320.92 5228.18 5787.31 6122.55 5480.13 5293.9 4931.38 4736.58 4548.16 3485.26 3240.09 4556.36 5025.39 3688.8 3695.36 5893.5 6020.48 3963.86 5200.05 4645.58 5670.2 4091.8 5166.79 5928.32 5526.75 3950.63 4612.62 4275.57 3619.07 5327.45 2983.99 3702.37 6185.89 5660.85 3990.25 4752.51 3758.07 4880.14 3948.23 6362.14 6719.88 4342.9 5978.82 5978.9 2739.94 4270.53 4194.5 6142.94 4792.73 3369.23 5264.06 4515.71 5358.59 4547.19 3817.13 5023.15 5076.35 3844.9 5273.35 6259.23 5181.4 4662.56 3457.48 4946.74 5417.15 5996.33 6385.23 4467.04 3997.96 3460.94 2614.4 4750.17 6184.4 3587.05 4373.45 4989.09 6229.37 4982.31 5269.18 4406.1 6308.71 6155.31 4790.08 4187.56 5082.47 4329.05 5513.6 5138.31 4901.41 6202.55 6387.01 7111.16 4871.44 4564.34 6375.99 4853.02 5088.44 4998.21 3405.98 3931.07 3688.16 4681.72 6631.19 5817.25 4439.35 6363.92 6205.93 5830.72 3828.81 5309.98 5289.52 5034.59 5314.85 4305.43 5065.11 4553.56 4942.77 5911.67 4223.33 5069.84 3629.62 5329.64 3323.28 4840.84 4997.27 3708.04 4551.24 3610.4 4621.75 6338.89 6480.17 3838.56 6248.81 5872.05 6079.11 4256.67 7440.72 3949.6 4945.39 5376.71 5661.62 4867.08 5626.61 5407.78 6632.99 4923.24 7177.44 6718.19 4307.48 5450.44 3848.54 3927.99 5868.82 4051.44 4301.06 5344.25 6013.14 4602.86 4581.13 3856.59 2765.2 4219.07 5372.61 5413.79 5584.06 3686.21 6445.22 4962.77 4427.28 5323.3 3082.32 6430.39 4765.02 4448.13 5703.6 6326.18 6648.68 4713.74 5061.98 4537.6 6179.96 4419.61 6260.79 4082.57 4407.87 5080.18 5941.4 5266.5 4454.63 4716.19 4050.9 6695.82 5135.69 5514.76 5344.0 3456.98 4501.51 5925.6 5572.95 6723.16 4746.52 5402.24 4948.5 5013.42 5651.07 5210.48 6101.92 4635.6 6239.84 3658.37 5370.85 5629.39 5070.29 4807.28 5075.55 4266.03 4084.49 4220.03 5703.07 5147.36 4662.43 4563.46 3963.76 5169.9 4236.14 5282.91 4263.33 6510.17 4871.96 4066.38 4523.88 6049.55 5709.62 6405.76 4290.14 4593.7 5191.63 5379.87 5987.17 4043.57 3979.82 5586.81 5006.58 5130.91 3868.18 4527.02 7552.94 4519.22 3627.55 4409.63 5865.39 5521.25 3178.54 2684.03 5949.46 6157.04 3776.94 5246.47 4768.61 2261.36 4522.21 5280.69 6923.84 5449.46 6113.54 4043.66 5733.62 6553.94 4425.84 5282.51 3797.33 5331.02 5742.65 5592.32 4241.89 5835.78 4877.67 6045.46 4763.45 4138.42 4481.53 3824.16 5011.31 5077.33 3689.45 3948.17 5383.07 4531.14 4959.34 4247.15 4602.85 7644.38 4051.34 5278.36 3661.9 5136.08 5107.23 4010.57 4187.31 5506.19 6191.29 6719.94 6166.29 5453.6 5294.77 4709.05 3077.84 5255.18 5528.53 3004.16 4460.92 7256.35 5945.89 4800.69 3279.1 5054.74 4099.77 4020.32 3498.2 4245.72 5941.72 3815.26 4150.99 4292.06 5681.38 5330.45 6318.18 5350.88 5045.38 4790.78 6552.22 5379.09 6004.68 6799.4 5222.16 5533.42 5558.68 3240.51 4599.38 7422.36 5161.01 4628.4 4950.67 5227.59 4630.82 5409.63 4813.08 5726.66 5460.65 4767.78 3062.43 4105.55 4042.28 5912.61 4402.67 4403.98 4978.31 4981.9 4948.98 5794.24 6562.18 5147.67 5577.04 4986.77 5125.78 6034.41 5452.83 4591.87 5178.99 4027.09 6422.84 5801.99 5534.94 5180.76 4502.18 3312.06 6218.95 4993.35 5533.72 3678.08 4802.32 5730.33 5518.57 5463.48 4527.99 4543.1 4376.7 5190.61 6051.83 4298.15 3973.12 4263.16 6799.88 5860.67 4540.86 5426.78 5990.52 5235.17 4863.23 3555.86 6566.1 5381.16 4560.84 4414.48 5227.52 5163.02 4537.32 4127.74 4541.21 4216.92 4704.72 4478.15 3771.48 5198.77 5423.0 5643.58 5197.52 5344.43 5615.35 4135.62 5266.22 3361.26 4860.33 4983.39 3685.13 3418.99 4690.55 5366.52 5146.37 7132.12 4836.16 5545.46 5680.94 5832.37 6550.44 4642.93 3764.06 5941.9 6024.75 6642.76 5987.42 6109.49 4340.76 4435.36 6386.78 5565.13 6086.96 6193.35 4302.5 3066.13 6048.7 5908.1 4571.7 5445.87 4107.03 4138.46 5215.05 5137.34 3975.31 4373.47 6070.58 5490.43 6169.11 4896.11 5172.53 5226.97 5754.18 4480.95 4558.15 5417.8 6552.21 5227.02 4232.16 5151.11 5300.96 5581.55 5193.01 8325.01 4440.81 4523.39 5829.22 5567.93 3764.1 2967.38 5652.0 4421.12 5463.41 6065.22 5254.49 4221.28 4996.99 4470.61 2476.04 4656.78 4156.38 6009.88 4177.94 4344.58 4850.01 2775.04 3970.25 4271.69 5198.29 4044.45 6035.6 4285.32 3627.82 5022.28 4285.66 5339.38 4318.48 6132.95 5008.63 4004.35 4270.74 5132.68 6293.89 6595.03 4350.12 5670.0 3834.43 4344.51 4707.06 3474.5 3860.83 4792.39 6348.03 5732.27 4497.78 4243.79 4835.83 5811.18 4779.5 5332.65 4929.75 4237.98 6045.22 6649.96 4456.39 4631.83 3701.27 4729.43 4092.24 5105.16 5991.09 6006.16 4164.68 5896.46 4742.68 4810.12 3821.72 5526.14 5262.19 6449.45 4244.9 4986.51 4763.96 3872.61 3930.79 3450.93 5293.51 4446.06 5737.75 5097.45 5742.47 3603.51 3778.02 4095.75 2761.07 4367.78 6609.84 5135.96 5491.37 3781.77 5658.37 6074.94 4250.88 3475.67 5434.47 5278.56 6917.62 4159.35 6451.33 6439.37 5225.33 4896.39 4614.3 4384.88 5233.78 5126.91 4562.74 4806.34 4678.38 5634.83 5316.75 6898.19 3633.87 7099.43 4470.4 4516.28 5311.03 6048.86 6894.26 4238.4 5365.24 5255.12 4047.87 6625.18 4185.61 4917.99 5099.21 3319.67 4076.59 4298.45 5222.51 5164.1 4972.17 5699.53 3783.54 5527.23 7038.89 5146.37 3863.67 5433.65 5631.14 6137.8 5604.35 4442.22 3091.67 5413.31 4332.87 3633.79 4303.19 6887.27 6081.14 6008.49 3942.07 5480.83 5050.65 5448.61 5495.84 3929.19 5347.48 6396.74 5315.4 5486.68 4611.53 5094.48 6408.83 5576.92 4573.72 5323.91 4163.74 6969.28 5636.4 5283.8 4428.14 6464.15 6685.4 4850.06 4222.77 5268.38 4805.33 4814.12 5067.56 5980.95 4887.76 4343.78 3012.99 6477.91 6316.56 4081.97 5514.84 5401.99 5421.53 3914.2 5653.9 5776.57 4827.33 6268.1 7443.72 5922.5 4374.35 5776.37 4527.08 4011.77 4287.63 5100.25 5805.86 5678.96 2681.29 4049.02 5296.29 6234.32 4586.19 4296.69 4570.98 3665.95 5698.96 6471.42 6372.13 6016.19 4124.49 4479.11 5714.25 6332.01 5325.96 7044.29 4581.37 4013.38 7085.01 3352.35 5263.3 4909.65 2735.53 4008.15 4811.32 6420.81 6400.08 5134.39 4256.57 7144.24 5133.97 3600.43 5683.26 6600.94 5371.02 3937.08 3784.5 5022.8 4502.5 5499.11 2965.79 4410.55 3921.08 5346.68 4190.31 4558.46 5839.71 5020.71 5997.88 4360.23 4585.31 5010.04 4275.07 5388.78 6238.32 6804.79 5369.5 5535.91 5404.01 3230.13 6176.67 5955.86 5016.02 5412.24 4234.18 4920.21 3936.95 6193.08 6069.3 5116.6 5887.01 4669.06 4286.49 5580.92 4715.58 4607.85 4220.46 5784.3 4287.53 5598.74 4906.82 5131.24 5513.57 7055.53 5252.34 5113.21 5083.41 5965.78 5683.61 7055.42 3836.45 5737.92 5662.55 3755.95 5889.35 3056.7 5591.76 4394.56 5825.38 6101.13 5642.35 6357.47 4793.65 4533.37 4532.89 5887.38 2779.99 6942.34 4049.16 5851.61 6153.94 3862.77 5168.35 6523.86 7693.4 3317.83 4743.59 4450.7 3532.3 5769.98 6088.68 6070.3 6155.1 6133.92 4862.21 6125.34 4274.61 6314.07 5443.58 5731.57 5464.68 6401.43 4747.55 2685.81 4510.8 7509.24 5896.26 4587.67 5951.81 5599.7 4834.3 6918.35 4066.57 6348.54 5156.76 4891.38 2949.12 6101.57 6040.74 3856.53 5460.89 4848.46 5742.09 6836.82 3658.05 3858.17 3477.1 3747.03 4631.99 2783.85 5388.39 4356.49 4326.48 6184.88 5829.32 5208.14 5151.52 5973.33 2221.99 3583.21 5937.08 4788.58 4643.56 5046.21 5260.34 5894.61 5013.67 3719.84 4178.4 6261.42 5975.63 5687.85 6444.77 4539.07 5703.74 4475.83 4146.81 5093.82 5756.75 3924.14 6318.23 4206.98 5948.71 5932.07 4054.22 5260.85 5807.46 2884.65 4648.21 4393.16 5478.11 3311.29 3110.13 5030.15 4740.98 3728.18 3185.39 4437.07 3449.37 5335.47 4526.81 4396.25 5092.24 4347.74 3763.05 5442.32 4135.08 5612.21 5687.83 5196.67 5206.48 5729.23 5669.65 7034.11 5782.6 5433.8 2586.12 5564.02 4497.59 6248.6 5831.96 4558.47 5064.79 4691.91 5480.3 4840.44 6639.64 3427.63 5212.43 3687.65 5454.12 4058.87 5478.95 3851.85 5174.75 4984.46 5844.72 7228.94 3992.97 5393.65 4961.99 4595.12 4549.69 4386.8 3644.78 5526.31 6192.77 4078.93 5128.77 4312.15 3994.07 5491.9 5551.95 6405.0 3918.87 5291.9 5067.46 4518.04 4009.62 5128.57 4929.14 5004.23 6000.7 4709.35 6586.45 5820.48 6946.21 4512.11 5759.46 4470.98 5708.99 2435.33 6333.29 4477.04 4074.48 3614.96 5344.83 7046.11 6342.48 5216.26 4887.52 6571.31 4392.65 5048.55 4024.31 4955.16 4147.31 5989.05 5950.88 4441.22 5853.89 4149.55 6484.43 6551.93 6423.81 4583.52 3485.54 5934.82 4501.78 4219.94 5633.61 5048.19 5907.46 4659.16 3101.75 5369.08 3580.58 4863.01 5620.74 5945.08 6496.67 5934.22 5876.71 5011.84 4359.62 6057.22 5253.55 5062.71 4156.2 4289.17 4933.65 5941.61 5950.04 6098.1 4231.83 4745.43 4912.04 3886.68 4449.98 4255.34 4863.97 5589.37 5439.49 3634.5 6379.14 6413.15 6103.11 2202.77 4904.51 5751.15 6201.86 7554.58 4140.4 4625.67 4458.64 5966.75 7122.87 3657.69 6418.11 6799.23 4243.26 4264.91 5399.29 4888.27 5549.49 4766.06 5356.79 5233.29 5604.21 5139.5 6442.69 7493.3 5474.8 3780.23 5826.04 5624.49 5339.78 4004.04 4730.41 5696.88 3471.03 5690.26 5411.85 5082.74 5607.14 6915.83 4844.57 6072.45 5511.88 5782.48 3735.24 4031.78 6574.95 6817.57 6853.04 3420.08 4320.42 7165.9 4701.5 4771.65 4036.91 5110.11 4027.63 6631.28 5350.88 5420.67 5416.45 6459.51 5754.6 3288.01 6870.97 5474.01 5307.35 6056.87 3380.69 4725.01 3639.44 5446.4 5510.9 4883.63 4505.28 3572.94 4153.84 6015.02 6740.71 5119.86 6487.56 5789.55 4874.18 2081.58 4011.37 2511.46 3979.54 4312.56 6320.71 5226.0 4814.55 4373.3 4648.04 5304.13 4750.78 5029.78 5833.06 3527.05 6262.72 3095.48 3664.11 3923.03 3745.84 5188.81 6062.05 4643.85 4203.26 4413.85 3999.94 6171.13 5092.37 4864.22 2395.5 4027.46 3901.8 3497.9 5564.23 5151.21 5398.64 4693.52 4568.41 3624.7 5262.35 4281.98 5783.48 4504.35 5012.97 4891.67 6818.91 3503.65 3429.57 5569.2 5305.59 6114.89 6735.97 5483.7 4330.58 6384.7 5351.86 4355.83 5230.02 4342.18 5166.89 5725.37 5491.63 3868.62 5138.33 3492.83 4971.29 4922.49 5797.36 5001.58 4820.17 4592.15 5084.17 5423.42 6605.86 2775.69 4901.2 4778.82 3169.67 6505.78 5657.36 4612.06 4968.03 5204.04 3361.92 5944.09 3306.14 5490.58 5698.77 4863.79 6607.87 3365.82 6515.84 4166.08 4163.5 5762.59 4861.06 4298.67 5873.69 5960.66 6608.73 3979.26 4962.09 5654.31 3999.48 6939.12 5563.79 4735.33 4406.4 6853.85 4020.4 3493.47 3374.08 4596.75 5768.57 4498.25 4188.87 5108.06 4222.4 4914.45 3573.73 4000.43 4661.03 5318.53 5160.59 4732.09 5138.2 7001.83 4593.7 4349.13 5188.53 4521.75 6746.66 5410.33 4642.74 3636.15 5652.87 5244.78 5135.63 5018.69 3152.86 3896.27 5963.36 5952.38 5169.48 5087.14 6016.08 4731.21 6064.71 6102.98 3425.69 3743.76 6280.13 5510.45 5244.22 3684.15 5585.14 7039.98 4729.42 4854.11 5089.26 4901.44 4633.05 5971.22 2275.45 4909.31 5012.5 6522.59 5467.84 6124.08 5029.47 5876.64 3619.79 4750.58 5395.14 4702.06 5117.47 3464.83 4143.78 4923.41 6481.79 5374.51 4123.6 5320.28 7092.87 4569.12 4796.58 5750.71 4472.17 6222.42 5470.77 5516.95 5328.22 4831.47 4151.76 4216.17 3905.51 4721.02 6484.17 3546.71 4254.37 4938.72 5956.65 5931.77 5313.12 4698.87 5498.42 5351.56 3984.88 3344.57 5220.76 6945.98 6412.67 4482.9 3766.69 5513.8 5036.98 4882.66 3840.21 4081.34 3908.56 4844.83 5377.37 4899.73 4311.48 6394.19 5807.52 5518.11 4192.21 5712.35 3742.11 4743.9 3124.7 3719.11 6060.17 5153.18 6711.21 4236.86 5832.29 4438.76 6456.58 4159.81 3886.72 5244.98 4998.22 5533.19 5711.62 5417.21 6519.43 4785.25 4270.15 5435.19 5461.55 5053.95 6710.88 3298.2 3967.48 2477.07 5926.11 6667.68 5724.64 6213.04 2990.77 4538.95 3163.78 4925.63 4305.16 4970.88 4763.66 5224.12 4850.14 4666.81 6739.08 3637.61 5463.38 6098.14 3493.7 5945.21 4938.74 4200.03 6470.3 5599.49 5313.22 3436.15 4719.7 3474.39 5711.11 5005.85 4575.94 5325.44 5102.75 5021.88 4597.29 5938.17 4200.09 4795.43 5097.95 2928.82 4638.18 4196.37 5806.31 6448.66 4453.97 3556.79 3503.41 7317.04 3971.08 6204.65 6550.4 4775.04 4952.52 4120.07 3646.95 4954.76 6334.53 4906.11 5869.67 4564.1 5457.66 4848.14 5366.22 5973.89 6193.73 5254.24 3597.43 5701.52 6776.22 4467.13 3877.8 6273.6 5902.67 4730.14 2606.51 5393.76 3994.39 4941.02 3864.92 6006.89 3814.65 2955.36 5415.45 3776.8 3965.3 5792.98 5096.43 6156.21 6602.43 6104.26 3562.79 4990.79 7093.13 6306.21 6865.76 5253.37 4497.31 5235.11 3830.46 5211.38 4721.32 6515.8 5965.15 4888.6 3293.56 5882.65 5078.86 7042.12 4780.2 5163.55 4797.52 6326.39 6817.32 5501.93 4471.58 5462.21 5374.98 6313.06 5226.56 6345.13 5274.19 4050.08 5452.42 5186.3 4097.57 5017.5 5966.61 4893.49 4834.87 4514.79 3672.21 5760.22 4509.89 6752.75 5269.38 3022.6 5607.3 5375.1 4811.76 5211.6 4172.6 4745.79 5470.04 5456.71 4908.75 4211.82 6556.26 2628.22 5684.25 5438.92 4124.76 4244.49 4050.03 4813.33 4705.68 4833.55 7224.99 4749.96 3623.19 4658.24 4387.39 4745.16 5825.55 5509.51 3199.4 4316.5 7261.51 4968.14 4914.03 4158.91 5144.56 5321.17 5311.55 3360.86 4869.25 5545.21 4763.4 5024.32 5454.11 4708.17 3779.45 5806.61 4983.1 4618.73 6119.99 3668.93 4960.64 4128.1 4983.3 6592.93 4385.81 6350.71 4383.56 3568.28 4798.17 4953.1 5425.98 5424.46 2895.63 5266.01 6449.64 5767.9 4857.84 2040.66 6413.11 6031.67 5092.28 4739.14 5274.14 4918.77 4636.5 4819.73 3382.7 4903.82 6471.55 4940.42 5085.71 5923.4 4319.79 6643.85 5960.56 6343.14 5862.86 4020.95 6049.79 4390.41 4890.5 6113.95 3731.84 4901.07 3981.07 6496.52 3554.48 3991.42 3718.69 4388.63 6192.0 4940.28 2216.82 5885.28 6579.31 5323.55 3004.34 5452.36 3804.5 6486.37 6100.73 6083.28 4198.94 6163.54 5212.37 6003.78 5965.58 4901.29 5058.51 3899.7 7200.89 4147.49 4802.98 5760.98 5469.35 5384.86 4019.34 4869.48 5510.96 6653.07 4697.91 5071.98 5719.79 5148.1 5224.64 5949.73 5214.63 3495.68 5086.29 4312.48 5527.13 3034.16 5139.18 5551.43 5049.99 4333.87 5136.87 5638.7 2741.2 5813.79 5790.42 5784.37 6010.59 7123.04 5372.82 4009.24 4402.17 4034.05 7778.01 6436.74 5583.61 5690.96 2460.79 5166.79 4653.83 6063.64 4516.53 5996.66 3940.49 5818.95 4093.99 5079.22 6464.8 5384.76 5529.42 2978.76 7016.27 6138.12 6622.11 5257.12 4434.19 4689.15 5100.1 4428.78 4965.89 3954.91 3703.1 5746.28 4946.42 4371.99 5659.95 4623.61 5409.66 4082.47 5187.7 6090.91 3561.29 2965.01 6235.57 6263.44 4863.27 5122.63 6766.43 5774.97 2315.64 5916.16 6934.37 4703.08 3423.15 4488.85 5010.2 4579.69 6123.03 4997.83 5453.98 5148.08 5578.94 5653.03 4157.29 4777.03 7610.49 4286.17 6028.09 4609.02 4852.58 4896.65 4532.7 5561.74 4504.86 5975.23 4788.08 5079.64 996.652 4680.69 6500.49 4972.18 4607.18 3352.34 5078.59 2403.72 4365.58 5134.33 2646.13 5162.67 5419.57 4636.53 3629.49 5766.05 3835.81 5117.64 3916.42 5429.3 4944.51 5532.72 3220.8 4371.08 4584.81 5579.39 5270.51 5490.75 4407.79 6548.29 5783.94 4278.57 5081.08 4201.03 6318.25 5001.87 3667.93 5684.05 4644.88 5293.13 3142.09 4028.22 3682.35 5591.77 3756.96 5182.13 4446.58 5906.57 5401.4 5127.82 5798.38 4456.11 4125.9 5096.24 4986.71 6479.39 4122.92 3604.14 4405.42 4997.91 4908.49 4452.54 4962.21 4684.44 5884.9 4749.59 5089.62 3685.65 3468.42 6790.73 4590.55 3685.13 4673.35 5243.43 3876.21 4741.26 4655.16 5920.32 4186.6 3701.16 4537.14 3295.83 5551.9 5644.82 6413.02 5203.08 4440.57 5412.31 6736.03 3492.19 5374.07 4584.5 5548.29 4118.84 3623.87 5163.77 5469.13 6027.62 5765.42 6098.95 4817.16 5660.55 3989.7 5107.0 4246.61 3684.56 6212.15 5327.75 4783.07 4946.23 6200.63 6816.66 3217.67 3844.54 4473.29 5034.69 3538.53 4509.46 6127.39 5640.12 6638.25 5329.76 4759.99 5214.4 5193.58 5399.43 5695.44 4507.46 3422.21 4526.34 5603.68 5610.95 5042.75 5179.17 4598.92 5241.22 6647.08 4979.52 3422.29 4537.03 4114.2 3990.96 4326.06 5352.24 6370.33 7362.42 4202.77 4493.79 6864.06 4279.44 4932.56 4899.19 7350.26 5167.53 6110.48 7541.76 5053.15 5124.17 5910.86 3862.91 6239.68 5805.1 5366.11 6171.71 5039.12 7382.3 3908.98 3598.08 2995.67 4668.88 4599.81 5381.54 4022.56 5522.21 4406.05 5698.23 4680.94 5810.77 4858.44 5828.35 5089.1 2711.19 5799.69 5876.72 5571.72 5689.26 5869.4 4916.22 4992.42 5297.19 6022.7 4152.85 3867.19 5251.4 4219.78 4188.3 4963.34 5081.78 4459.28 4260.92 5499.39 4407.9 6250.23 4718.54 8659.64 3087.09 4055.54 4588.7 7480.41 5683.95 3766.55 6107.89 4976.12 5530.49 4233.8 5065.26 4304.41 4892.44 3746.36 6789.23 4215.2 5069.89 5361.87 2205.51 3703.49 6813.72 6502.97 4757.2 3205.68 5969.37 4928.35 5241.75 5849.53 4731.53 3763.9 4651.99 5863.0 4420.11 4918.64 5084.5 6562.03 4815.47 4410.82 3889.98 4368.12 5490.64 5034.34 3769.2 3468.45 3856.73 5887.71 5036.14 5635.32 5409.08 5481.64 5673.75 5360.67 5968.54 6263.3 4501.05 5124.34 3247.97 4358.81 5034.46 5757.29 5836.14 5793.12 6008.81 5473.05 5192.49 5537.34 3487.31 5058.34 3768.46 3918.94 3852.82 4507.36 5003.3 4775.49 6245.52 4681.29 4932.29 5499.59 7320.78 3845.9 4064.58 3419.87 4834.44 3628.89 6589.82 4234.88 4824.81 5027.43 4384.28 3772.3 6328.42 4855.01 7300.58 4714.83 5522.75 3608.06 4028.32 5474.15 5236.43 3809.69 7519.2 4099.92 4771.13 7051.9 4940.84 5285.07 4345.67 4255.85 4680.14 4453.64 5019.93 5097.69 5511.6 3885.86 4517.73 5235.29 5177.64 5191.08 4255.31 5453.3 6116.33 5148.58 4479.94 3838.47 2588.37 4062.5 4199.45 5887.15 4435.51 5415.85 7234.66 4858.51 6599.66 4207.54 4603.5 4886.12 5625.65 4936.96 6419.12 4481.76 4301.61 5206.33 3184.64 5375.12 4446.84 4356.36 5452.78 4741.28 5473.72 2603.64 2856.55 4553.68 4268.19 3894.64 5232.85 3758.22 4374.74 4062.56 4583.94 5046.31 1937.5 4337.32 6240.42 5146.0 5721.14 4788.7 4577.73 4987.28 6206.98 5549.71 6443.99 4967.51 5173.82 7212.97 3720.7 5378.24 5698.53 3604.31 4450.49 5661.6 4827.61 4316.45 5385.03 4778.37 4169.15 5134.17 4074.16 4529.77 4904.35 4325.13 5592.54 6172.27 5390.33 4904.37 4651.64 5278.54 5729.92 5016.46 5469.17 4373.2 5061.75 5884.99 6022.78 5726.42 4087.32 5575.11 6643.4 4674.9 5487.63 6599.28 7145.73 5800.81 5749.6 4990.23 3220.29 6016.87 3125.13 4141.21 6715.73 4439.71 5782.43 4174.44 5769.14 5667.51 4456.26 5944.3 7307.21 3563.14 3381.82 5867.64 5135.5 6208.9 4923.57 3340.09 6633.61 3208.96 6059.93 4884.59 3858.06 4478.6 5217.95 5895.77 4608.41 4765.72 4732.09 6261.75 5857.79 3988.3 3757.34 2908.7 4039.91 6415.61 4338.08 4642.66 5276.7 5149.72 5660.16 4541.8 6134.99 5424.88 6200.54 4928.27 4652.01 3583.49 3548.39 3673.28 5421.64 5052.84 4366.74 3375.28 5297.16 5354.66 4647.67 4214.44 5378.23 4787.97 4981.43 4508.18 4061.6 6214.73 5064.67 5175.89 5836.26 6618.21 2617.39 5144.44 3717.47 4051.18 4826.52 5120.92 4685.4 4629.02 6006.16 5914.5 4288.45 4608.62 4071.75 5407.96 5131.77 3186.07 4369.86 5482.76 3745.02 4887.73 6297.99 4211.36 5918.95 5817.74 4538.89 3242.31 6099.28 5285.75 3234.26 4830.13 5370.9 3494.16 4941.52 5900.0 4262.74 3783.79 5078.73 5729.0 5275.57 4179.87 6224.13 3769.24 4761.84 3661.67 5517.65 4009.68 6647.85 7025.09 5461.72 4361.24 3392.26 2549.95 4168.52 6224.85 4556.19 3954.77 5403.97 3784.94 5166.05 6793.1 4506.66 5515.73 5209.55 4708.31 5113.6 4564.41 3873.92 4810.98 5431.29 4198.9 3619.72 5026.76 5091.22 5347.9 4646.51 4438.58 4565.93 4504.52 5602.53 6061.63 6355.68 4184.23 4083.79 4833.46 4144.57 4511.7 4304.63 5750.07 4351.38 6136.49 5550.75 5980.59 6543.13 5933.7 4809.67 4752.14 4687.64 4757.74 4378.3 5411.02 4950.97 5037.06 5175.29 4863.96 5842.56 4094.73 5713.03 3852.6 5849.65 5134.67 4110.59 5131.15 5775.31 4847.14 3332.49 4165.21 4215.0 4811.22 3683.86 3950.27 4918.76 5116.66 3566.79 5003.78 3629.44 3299.24 4208.41 5374.67 6246.56 5730.61 5826.78 6358.93 4559.74 4383.68 6015.22 6666.67 6063.44 2904.46 5512.44 6449.06 4924.07 3200.6 4927.73 4602.57 3565.32 4571.74 3763.85 3419.07 5344.44 5710.33 4626.72 6432.8 5115.42 4082.4 5728.58 6424.77 5453.69 5432.04 5689.56 3702.45 6556.86 4898.29 5265.63 5372.25 4431.06 5730.2 5620.88 4045.67 6005.95 4308.49 4930.17 4581.1 6241.77 4745.44 5317.19 5762.82 4248.14 5192.92 5279.19 4016.6 7050.08 4786.66 5891.25 5370.1 5114.51 2569.12 4622.73 4161.32 4433.12 5161.74 7336.37 5138.93 6945.69 5368.66 5106.46 4795.08 4068.31 6562.92 3671.06 5077.29 5501.73 7035.54 4850.5 4983.43 4027.33 5951.86 6331.74 4252.18 5763.05 4833.67 5023.41 5357.39 6282.38 4659.88 5640.72 5851.63 7107.63 5073.02 5484.36 2279.05 4829.35 4867.7 4187.94 3953.55 6545.43 4063.9 4075.28 5263.27 6834.41 5021.77 7248.4 4356.25 5161.1 3796.15 5469.47 4419.71 5329.59 4244.21 5512.16 4617.55 3197.63 4989.56 4287.16 3875.05 3645.12 3456.47 5471.74 5199.44 5580.34 4344.34 5009.83 5966.42 5717.8 5210.38 4706.5 5210.75 4548.45 4474.83 4658.11 4551.26 6555.44 5658.14 5293.75 6570.35 5114.07 4385.49 4242.63 3269.54 4263.18 7124.45 7142.95 5064.23 6061.85 4454.74 5268.15 5819.0 6347.72 3460.93 5124.86 7168.2 4796.12 4096.86 3622.48 5001.51 6791.86 4209.0 4930.72 5485.84 5703.84 4335.79 5797.32 4886.99 3921.27 3161.1 5159.67 5764.52 5684.88 6523.78 4645.86 5087.97 4519.03 5110.27 4085.96 7360.12 6223.98 5821.49 3035.06 5580.44 5998.13 5129.4 5095.52 6275.25 3303.49 4746.15 4655.37 3720.38 4758.84 5585.25 5256.75 6351.89 5099.9 5932.28 6406.8 7086.69 5648.78 4697.24 6875.73 3612.44 5226.42 5233.76 6081.3 5426.4 5129.68 5866.91 2820.07 5076.84 5325.91 4546.44 5657.55 5727.79 4213.05 5212.92 4831.93 4224.3 4184.21 5788.97 4700.07 3472.91 6760.92 4277.24 4989.2 4469.54 4023.93 4314.56 6300.92 5868.89 5291.05 8137.11 3928.53 6650.77 5036.58 5776.96 4888.12 4209.49 6119.63 4247.69 4409.27 5439.9 4588.99 4752.9 4947.24 4321.21 6506.86 3540.11 5950.45 5088.57 4923.43 4728.55 4568.64 5666.95 4642.2 4127.53 4489.99 5260.52 4212.15 6102.49 5678.58 3185.09 2945.34 5114.23 5495.0 7407.91 5846.95 5716.42 5701.63 4620.95 5368.93 4488.39 6121.56 5879.24 5740.78 6824.53 5997.91 5385.86 4742.82 4422.23 4820.68 6031.22 4171.02 3618.64 7012.36 3530.82 5028.06 4002.99 5587.3 3572.73 3770.22 4864.38 4390.64 4848.98 4491.96 5150.84 4608.01 5184.98 5339.82 4467.51 5460.57 5703.34 4612.68 6668.98 3207.84 3977.98 6649.52 5462.6 4262.19 5617.29 4597.88 4845.91 4878.93 2002.78 5631.32 6892.33 4505.3 4731.37 5023.61 3976.0 4672.86 6530.78 5118.86 2960.5 4975.32 4298.7 4183.4 6170.9 4733.79 4436.48 5833.78 5615.35 5117.52 3967.76 6311.89 4683.28 6405.69 5679.74 3791.41 4825.73 4092.07 5247.01 5853.12 4208.37 5157.38 6203.03 5188.82 5615.84 5235.87 5273.37 4464.73 5043.14 4928.85 6440.38 5556.0 5484.32 4711.04 5007.21 6045.67 7144.05 6226.14 4216.95 5466.33 5742.74 5464.25 3821.94 3946.28 4209.31 5486.48 3498.16 5718.28 5301.47 4514.39 4640.06 6242.79 5993.0 5391.48 5467.63 6047.14 4803.57 4554.68 4140.92 4929.6 4368.28 3919.62 5984.8 5750.35 4945.0 3127.83 4585.04 4241.68 3986.41 6949.65 3469.18 4095.83 3372.95 5695.25 4489.29 5323.95 5676.61 4301.93 5796.26 4603.04 4870.94 5106.33 5198.94 5293.37 5933.54 5271.88 5464.05 5559.79 2980.31 5453.2 3148.79 6348.93 5264.83 5136.51 4332.64 6815.51 5232.16 5189.91 3989.26 5777.26 6119.0 3792.06 5128.59 4293.3 5310.33 6583.37 3688.83 3402.44 6084.88 4397.06 4053.12 4479.5 4014.44 6261.67 3435.13 5065.78 4431.46 4521.42 4614.49 4232.33 4747.68 4939.56 5770.92 3093.38 4723.71 4461.67 6322.0 5793.14 4452.36 4491.26 4511.34 4068.41 6463.71 5560.23 3043.77 5237.55 3902.48 4304.64 3909.94 6030.39 4905.53 4823.06 3799.01 5758.98 5254.49 5288.64 6213.24 4217.36 6734.39 6549.8 4851.18 4150.76 4165.36 5005.72 5368.52 5288.33 6296.54 4841.7 5702.4 5069.9 4717.73 5473.89 6089.45 4732.37 4985.3 5072.5 3904.07 3274.85 5713.36 5545.59 4173.54 4619.2 5599.29 5280.12 4801.8 7216.98 5984.81 5721.05 5271.02 6329.53 7013.17 3805.67 4590.01 5367.73 6101.86 5078.31 4807.35 4227.41 6761.81 3903.91 5630.9 4512.07 4756.8 4692.32 4896.43 4176.32 5463.06 5236.24 4639.8 6069.78 5532.75 3587.93 4517.29 4975.85 4495.75 6171.01 6229.83 4468.26 4523.81 5065.74 5578.18 5791.25 4873.23 4028.35 5410.6 4733.41 4969.68 3901.53 6636.43 5431.14 5313.86 4457.05 5178.07 5151.19 6509.54 6079.55 5485.61 5308.4 4993.49 6581.13 4569.32 5803.3 5537.61 3543.98 4721.98 5252.82 4199.44 5878.55 6604.72 6002.77 4610.55 3794.47 4967.02 6043.34 4462.5 4128.93 4959.72 4712.17 5004.68 3808.04 5348.11 4405.61 6126.5 4034.88 6007.1 6345.2 4832.21 4609.65 5009.21 5059.37 4742.35 5783.38 4139.39 6264.03 5645.54 5088.64 3562.8 6589.8 7392.65 5319.1 3729.16 3783.36 3757.23 4181.93 6828.8 5942.45 5987.88 3579.59 4228.53 6123.46 4871.77 6142.88 5811.26 5797.21 5685.74 5388.73 6740.35 952.938 4678.7 5810.17 3673.6 4966.07 3306.84 4657.24 5748.9 4400.14 4749.18 5553.94 4506.18 5494.28 5606.51 5166.41 5740.65 6038.68 4444.97 5046.12 3000.29 4807.4 2596.96 6349.67 5261.19 4350.15 4139.3 3516.27 6541.45 4601.74 6106.43 5644.81 5228.75 4177.47 6545.99 5334.36 4218.16 2918.64 4933.49 6139.64 4357.11 3990.94 5477.8 5486.89 4462.35 7208.19 4549.51 5025.42 5196.08 4965.24 6379.38 6257.79 5438.55 4849.5 5353.23 5977.66 5209.5 6175.27 5876.51 6731.89 4286.61 2932.52 4603.66 3557.46 4757.87 5971.95 6298.8 3979.46 3689.24 6321.97 6412.84 6071.59 2589.19 3856.4 4137.16 4696.06 4937.36 5984.55 5672.46 3228.27 3956.24 7558.99 4142.1 5056.26 5445.91 5333.04 4812.59 4521.99 6842.54 7115.67 5400.69 6038.56 5573.31 2807.46 4023.88 5599.16 3488.34 5428.24 5658.35 5886.81 5108.84 3511.5 4582.12 4520.14 5067.92 5488.96 5704.61 5410.73 5394.79 4574.03 5290.37 5264.08 4526.87 4151.74 4227.66 5192.82 4594.89 6920.92 4174.22 3573.84 3038.91 3922.28 6570.43 6883.86 6161.94 4065.28 5155.28 5057.59 4461.14 5111.26 5285.6 5062.77 5205.38 6019.35 6075.99 6028.63 4600.71 3450.07 5265.21 4550.92 6215.87 5191.26 5866.42 4067.96 4704.92 4824.12 3663.0 6542.5 4099.26 7104.73 5067.56 5206.47 3834.47 5701.75 6162.3 3272.75 5971.21 5493.89 5262.47 4264.54 3512.94 7043.44 3831.52 4263.65 4258.98 4750.49 4263.78 4643.9 3787.08 4013.86 4816.51 5218.42 5345.73 4770.63 4841.23 2804.54 4196.62 2809.19 5005.6 5589.53 4104.04 5593.79 5104.39 5234.2 4612.13 5846.6 4109.44 5327.05 4903.84 4290.49 4557.1 4434.65 6688.53 5927.1 6500.45 4907.55 4103.76 4094.63 5084.76 6605.11 6834.92 6379.33 5130.57 5652.73 5402.45 5090.48 5582.28 3985.93 5945.25 5985.75 6189.29 3074.49 6571.26 5202.33 3393.59 3549.92 5043.14 4032.06 5089.1 5246.81 5394.78 2853.68 5675.45 4998.37 3361.11 5901.71 6559.82 4179.8 6565.95 4577.98 5043.34 4487.51 4246.24 4295.25 5357.14 3188.21 4850.95 5128.03 3720.92 4379.91 5087.3 4942.63 6139.74 5850.38 7066.26 4691.01 4730.97 5245.95 3677.85 5214.71 5821.42 4067.89 4515.02 6294.09 4571.57 3445.92 3350.99 3820.19 5236.69 4979.5 4586.82 4745.37 5418.98 5939.29 5575.11 4574.54 4949.55 4884.93 3132.34 1969.87 4764.83 5262.79 5927.2 5146.1 5035.71 4419.79 6485.77 6060.06 3669.32 4762.1 5610.53 4954.81 2970.9 4834.39 4383.47 6304.49 4608.34 4835.97 4057.17 5695.79 5464.83 4770.51 4184.47 2781.96 7066.96 4991.35 4467.0 3104.96 4994.65 4587.7 5601.55 4462.87 4346.07 5196.92 4012.92 5759.79 4598.54 4711.15 4426.02 3825.48 4474.39 5459.92 4658.59 4096.47 5188.22 3810.68 6478.35 5453.77 4916.7 2638.82 5030.33 5157.73 4541.22 5847.91 4946.08 3539.68 4934.66 4696.03 4984.01 6217.33 4605.39 6270.59 6045.26 6263.87 5743.8 6666.34 5581.01 4645.91 5749.53 4125.75 3746.62 5247.73 5034.02 4876.37 5260.13 4649.5 5181.31 4810.74 3900.93 5475.83 5784.38 4329.8 4149.17 5728.27 4313.38 4720.22 5580.95 5250.56 3633.58 2468.16 5888.95 6294.14 3463.34 5122.38 2459.88 5262.85 5329.84 5470.67 5225.11 3879.83 5252.22 5733.12 6436.29 6805.02 7394.47 4729.45 6261.13 5919.27 4793.06 6637.38 4975.57 6188.33 6111.23 3057.3 6150.31 4677.84 5873.62 3463.53 4811.11 6126.03 5131.07 4121.07 5524.28 3133.28 6026.04 5731.43 6200.05 5859.17 5615.06 5490.54 4034.41 4841.28 3957.38 4047.95 4494.15 5507.38 6889.5 4710.88 5001.69 5407.69 5544.27 3869.39 3484.81 5960.5 3742.31 3987.69 4316.0 4546.96 6502.99 4287.25 5424.55 4580.06 3926.11 5755.15 5134.72 4271.07 4191.01 6419.64 3814.16 3622.8 4589.06 4140.04 4920.88 5995.4 5414.58 5577.41 4431.23 5917.34 6511.37 5740.98 4216.44 3999.5 6710.14 5034.05 3953.26 5467.51 4625.53 2347.41 4542.16 5714.51 3543.37 5114.67 2030.03 5353.66 5527.27 4621.33 5765.14 4767.54 5121.08 2927.84 5688.77 6177.68 5466.13 4698.7 6229.64 5257.38 2848.44 5625.02 4220.43 4975.56 7282.36 3826.01 4829.77 4444.92 6959.88 5971.9 4532.67 2513.38 4769.62 5316.05 3995.08 5019.84 3874.12 4028.13 4457.73 6476.35 6260.58 3053.19 4067.24 2832.83 5827.3 4084.87 6598.99 3010.1 3825.98 4589.22 4339.97 5203.75 4667.84 5169.09 4512.6 4210.24 4636.45 5342.9 4932.27 4962.35 6786.37 5402.81 4600.81 5354.48 5640.63 4900.26 4167.55 5374.09 6271.22 3421.81 5378.75 3920.64 6186.24 6916.18 5786.06 4137.41 4996.91 4924.52 3920.44 5379.52 4866.8 3768.62 6044.69 2970.24 4197.87 5105.54 5462.1 6353.81 3414.67 4052.49 3518.14 4150.44 5061.74 5203.54 5326.03 6189.67 6142.94 4948.96 5117.83 4416.87 5300.17 5256.82 5152.78 5308.33 5393.43 6896.55 4666.12 4392.75 4921.1 4685.65 6219.34 6023.07 4420.6 5340.05 5287.25 6506.63 5418.12 3626.86 4215.05 6371.96 4668.8 4271.93 3495.3 5890.25 5322.11 5700.79 4697.49 5735.08 7133.44 4726.2 4750.81 5600.21 4282.11 4656.01 6589.13 4037.86 5602.62 4138.59 4938.33 4970.55 5628.97 4484.78 4819.83 6286.27 4801.16 5071.38 5616.66 4802.36 5368.28 4880.78 5075.23 5509.09 3873.72 5212.05 4592.49 3625.98 5479.86 6474.5 3928.99 4702.32 4763.04 5944.52 4413.56 5050.2 4821.41 4924.53 4908.32 4499.52 4813.24 5759.19 3113.64 4490.2 4304.75 5480.86 6139.9 4474.96 4758.76 6036.99 3584.05 5087.03 4916.75 3906.41 4691.15 4260.38 6224.64 4221.03 3799.55 5638.51 6793.49 6060.19 3860.8 4333.23 4919.13 4124.33 5168.97 5783.88 4720.34 5002.38 6705.93 5244.47 5510.89 4731.16 6470.87 5822.7 3780.07 4159.89 3868.69 5466.49 5447.74 4450.51 6033.72 5314.67 3851.47 4966.74 5658.05 5563.47 6593.1 4066.36 4000.51 6032.45 6033.93 5444.36 2827.92 5522.34 4026.03 5044.68 5771.98 4420.35 5899.78 5717.45 5772.57 4813.81 6581.56 4117.9 4052.43 3980.46 4057.4 5534.23 4753.76 4638.09 6025.77 4441.91 5377.01 5330.26 5674.63 5828.25 6470.23 5939.22 4725.11 5483.37 4256.08 5092.93 5881.93 5934.05 4157.1 2803.01 4604.1 5125.17 4399.52 5322.07 4859.01 5076.11 5524.45 5770.07 5990.75 5101.6 5327.39 5781.62 4981.81 5141.03 4840.44 8123.59 6033.28 4188.16 6327.54 5507.07 4654.92 2943.17 5286.55 5327.71 4322.56 5522.18 4850.49 5223.1 4981.55 5144.23 6188.62 6153.07 4414.06 5908.57 7296.47 5742.39 4780.16 5738.37 5616.11 4433.23 5312.2 5847.27 4706.59 5734.84 3982.31 4582.24 4950.07 5367.05 4790.63 3743.85 5259.29 6236.46 4818.53 5584.64 4123.08 3795.63 5189.4 4576.71 5082.66 4337.93 4550.77 3563.33 5201.3 3550.88 5536.0 4328.76 5561.63 5940.5 4358.06 5093.51 5647.93 6201.49 4865.11 5449.09 5502.14 4495.33 4465.56 5282.67 4131.08 5747.9 5178.55 4038.17 5007.41 5146.69 4907.48 3692.99 6213.74 5651.46 4959.94 1635.31 3162.27 5639.4 5011.37 5092.44 5516.37 4441.44 2649.69 4232.44 6908.32 3467.11 5000.74 4817.75 6153.26 5268.27 4013.86 5244.95 4061.87 4645.93 5165.31 4896.67 4585.37 5383.9 5901.8 3934.11 3798.09 5158.44 4288.5 6417.61 4466.22 4781.9 6815.96 6153.71 4475.38 5339.6 5917.08 6561.94 5259.21 5317.83 6738.9 5640.67 5992.06 4460.89 5545.68 4714.66 8052.53 4444.0 6771.18 6182.19 4967.93 4984.17 4867.12 5910.66 7415.84 1458.87 4637.3 5734.07 6241.48 3997.68 4414.09 5125.45 5957.82 3784.68 3717.22 6305.9 6649.21 3470.69 5093.28 4859.95 4132.08 6009.88 4699.77 5093.41 6842.35 5464.34 5259.48 3621.63 4777.96 5801.89 6833.5 6608.94 2613.78 3796.73 5417.07 3082.16 3834.01 5656.84 6789.66 4739.41 6760.64 2515.5 5177.88 5551.79 3793.83 3916.15 4449.73 4088.72 3945.62 5097.85 5342.17 6189.04 5015.67 6538.04 4894.15 6157.59 4345.51 6223.33 5145.13 3747.96 5611.29 6568.45 5004.22 3724.23 4280.92 4696.92 5154.74 4605.61 6898.8 5386.95 6540.57 3864.19 4287.93 6203.24 6818.23 2329.93 4488.41 4369.87 6938.87 5412.07 6185.73 5512.57 4083.24 6520.96 5432.2 4612.4 5336.61 3312.3 5563.09 5637.53 4848.15 4439.09 3882.37 4634.25 5523.81 5448.64 5188.57 6351.48 5715.51 5395.12 4496.51 3886.56 4511.05 3830.7 3456.3 6074.39 5350.9 3775.38 3483.61 4262.52 7430.48 4844.2 6572.17 6080.69 3751.73 3939.96 4554.24 4926.62 3374.62 5555.89 4970.12 6369.66 6044.01 6520.19 5973.57 5922.62 5130.56 4957.99 4063.26 5191.29 4947.64 4997.89 4542.62 4881.51 6131.52 2626.41 4311.92 6729.99 6664.54 3922.98 5161.73 4025.08 5254.93 4803.4 8013.28 3846.55 5283.65 4644.68 2892.36 5981.54 5911.29 5416.41 4694.27 4542.25 4414.23 4849.21 4785.55 5245.4 6981.47 6189.81 5647.11 6379.3 5848.41 4090.28 4048.73 5438.6 7370.52 4521.88 5103.3 5467.05 4601.54 7263.57 3832.09 5705.96 6437.99 5267.65 6632.04 5332.11 5315.71 6158.93 5081.65 4823.14 6679.12 5652.19 4621.32 5806.74 4806.99 6578.62 3771.91 4813.55 5856.43 5217.62 3839.0 6178.19 5349.85 4746.19 4616.81 6381.58 5715.25 3282.57 4798.13 5212.2 4611.21 4095.4 5648.59 4718.61 6697.45 5717.67 3873.79 5357.33 5783.69 5252.37 3721.69 6210.0 3224.81 4499.54 5432.4 5782.25 5037.58 6457.89 4081.77 4948.21 5114.61 4987.01 2181.29 6118.13 4420.3 4706.31 6332.64 4202.12 4766.47 5003.81 4871.1 2694.25 4735.99 3917.09 6009.93 5678.08 5872.45 5270.1 6351.95 5195.09 5345.05 5994.21 3997.52 4444.54 7679.2 5779.9 4909.74 5310.33 5299.03 5036.84 4565.36 5669.41 5813.68 4008.67 5040.9 4770.21 3618.53 4868.66 4004.39 5159.9 4987.48 5943.61 4248.58 5479.17 5020.37 5233.88 4246.83 4726.5 4963.88 5888.94 4727.98 4122.2 5175.88 4516.26 3509.34 5739.69 5360.88 3647.26 7360.62 4893.72 6004.72 4072.4 4983.56 5373.78 5345.65 2489.44 5438.5 5863.36 5699.4 3878.8 4698.94 6284.12 3948.21 4796.04 3465.03 5229.56 6011.4 5799.86 4672.34 5172.1 4362.94 4469.82 5108.42 4630.5 6296.36 4432.32 5105.72 5515.59 4082.01 5237.27 5767.65 4451.76 7885.41 4750.76 4046.22 4907.03 4104.97 4575.72 5617.91 4444.95 3903.9 5606.22 4721.2 3943.77 5161.02 6265.48 6081.35 4203.68 6492.44 4083.1 4613.32 4739.56 3482.73 5145.39 4701.03 3996.93 6225.05 3352.46 5434.04 5200.1 5125.53 5405.6 4884.93 3929.35 4759.38 5403.81 5082.25 6964.78 4374.05 5282.51 5504.65 3760.4 4951.02 5732.11 3919.47 4602.7 5596.68 3783.35 4037.16 6395.63 4790.16 3731.58 4977.64 3166.37 4985.45 5205.53 5699.51 5499.37 4489.18 4883.13 4632.75 5237.76 4994.98 4286.84 5669.15 5296.05 5263.86 6988.4 5056.32 3330.85 6052.22 5376.41 6545.78 3354.94 4870.14 4404.87 2932.2 4944.08 5576.16 5269.39 5003.49 3964.03 4305.35 5210.22 4604.34 4216.33 5497.27 4929.35 5442.79 5051.39 6673.92 5242.38 3124.49 5151.68 4884.94 5459.52 6262.18 3818.37 5566.5 5663.36 4276.59 5579.04 5569.85 5306.31 4223.53 5523.96 4733.37 4535.94 3037.72 6960.97 4287.15 5126.08 5604.0 5369.42 5207.08 4714.52 4587.19 5543.05 6028.89 4836.76 4752.94 5333.16 5551.09 6423.96 6058.13 4501.1 5581.47 5894.69 4274.05 6550.61 6635.51 5533.52 4060.17 4713.56 5410.33 5003.63 4747.24 4695.7 4380.86 4909.13 4287.61 3999.81 5648.02 4867.13 3308.75 6377.45 4439.17 5832.72 2701.42 5677.42 4502.12 6853.07 6327.61 4633.59 5733.59 5575.8 5362.15 5268.93 4609.98 4455.61 4738.72 4752.31 5240.97 5106.9 4523.9 4888.17 3950.53 5755.98 5392.85 4384.91 5077.2 5275.27 4987.01 5529.09 4531.46 6051.35 6094.34 5302.53 6779.82 5543.67 4739.5 4072.95 6210.48 4491.62 3865.5 4863.27 2451.27 3255.93 3695.72 6874.6 4277.54 5925.82 5448.68 4182.05 
SCALARS Velocity float 1
LOOKUP_TABLE default
1.29898 1.27978 1.31094 1.24788 1.27574 1.23326 1.23228 1.30733 1.31066 1.28523 1.30822 1.31417 1.2923 1.31455 1.32272 1.27691 1.3156 1.2228 1.19502 1.27029 1.27545 1.25621 1.22584 1.29871 1.29289 1.31437 1.22706 1.27072 1.23122 1.2298 1.31571 1.31199 1.31376 1.31243 1.28918 1.32103 1.33268 1.3194 1.25098 1.27167 1.32736 1.29869 1.28055 1.25732 1.26158 1.25742 1.23743 1.21533 1.20909 1.19108 1.29481 1.29814 1.30946 1.21975 1.23047 1.3129 1.29056 1.31385 1.32523 1.28777 1.32259 1.32937 1.32249 1.32293 1.31523 1.31489 1.32196 1.31234 1.29148 1.27869 1.27438 1.26004 1.25689 1.21813 1.21111 1.19004 1.29134 1.29312 1.29209 1.22038 1.29189 1.26916 1.32343 1.3023 1.33543 1.27828 1.32325 1.32093 1.32643 1.35759 1.31742 1.29592 1.30577 1.29061 1.28407 1.25899 1.22314 1.21465 1.21365 1.20782 1.23018 1.2211 1.27069 1.28048 1.29095 1.28736 1.28854 1.36094 1.28555 1.23907 1.22601 1.33586 1.30177 1.34843 1.25493 1.27413 1.29159 1.29732 1.33143 1.31887 1.33601 1.3642 1.30049 1.28935 1.28638 1.27959 1.17446 1.38043 1.23878 1.2382 1.23516 1.21337 1.25861 1.23104 1.24661 1.26756 1.27338 1.27765 1.28741 1.36449 1.33772 1.23745 1.33972 1.3541 1.318 1.3271 1.31531 1.34429 1.37474 1.28817 1.29936 1.28397 1.29273 1.31511 1.31938 1.3156 1.26764 1.27205 1.24433 1.22373 1.22041 1.23401 1.21143 1.25387 1.27401 1.20777 1.25121 1.28259 1.35624 1.32431 1.34077 1.37876 1.36535 1.3611 1.39086 1.35056 1.32761 1.37335 1.30922 1.34177 1.35694 1.35418 1.36996 1.32163 1.32118 1.28521 1.32318 1.31649 1.27854 1.26623 1.23239 1.22609 1.20876 1.25862 1.19011 1.23608 1.18202 1.21071 1.22643 1.30204 1.31917 1.35113 1.31689 1.39793 1.37116 1.34767 1.36548 1.33122 1.37312 1.37989 1.30551 1.29667 1.34261 1.3057 1.17542 1.26708 1.21761 1.21619 1.18018 1.26839 1.21906 1.18843 1.24951 1.27444 1.18274 1.1936 1.24523 1.30643 1.26734 1.34251 1.34557 1.32485 1.39188 1.38736 1.38615 1.37769 1.33237 1.37498 1.42204 1.34905 1.3348 1.36297 1.31325 1.28908 1.33192 1.3363 1.1816 1.25957 1.26597 1.32158 1.15898 1.18441 1.27721 1.23941 1.24248 1.23224 1.195 1.19357 1.29514 1.33727 1.31649 1.372 1.40072 1.38991 1.4127 1.33645 1.38911 1.44224 1.33513 1.3554 1.2763 1.27618 1.31865 1.34971 1.1453 1.2315 1.32448 1.29372 1.19391 1.22213 1.22576 1.28517 1.32889 1.29252 1.22472 1.22909 1.16111 1.25025 1.35193 1.29605 1.33309 1.38502 1.42552 1.39406 1.35586 1.47803 1.39417 1.42815 1.40131 1.32349 1.32256 1.28718 1.26738 1.28417 1.33292 1.32545 1.34916 1.38857 1.24909 1.33933 1.31238 1.15705 1.20364 1.25837 1.3213 1.33117 1.29483 1.2701 1.20755 1.24744 1.41644 1.40356 1.28701 1.30077 1.38801 1.47113 1.43655 1.44255 1.49296 1.41945 1.41494 1.40516 1.41523 1.28344 1.29046 1.24758 1.2865 1.35944 1.34619 1.37032 1.32183 1.2242 1.40093 1.31911 1.31018 1.19479 1.25904 1.35356 1.30186 1.30493 1.24774 1.41873 1.42603 1.49958 1.47 1.28656 1.33366 1.47756 1.55569 1.49224 1.50333 1.49688 1.46552 1.4424 1.42141 1.41859 1.38948 1.40887 1.21512 1.3353 1.39684 1.36889 1.33607 1.28009 1.44909 1.34286 1.34301 1.28631 1.17347 1.33527 1.30932 1.17721 1.289 1.35395 1.29368 1.30202 1.28768 1.33818 1.39772 1.49572 1.39032 1.41191 1.47342 1.43549 1.49308 1.54134 1.51701 1.49658 1.4201 1.46308 1.43979 1.44889 1.46373 1.39686 1.28791 1.44629 1.43801 1.22133 1.5189 1.28364 1.3819 1.40201 1.3627 1.26437 1.25576 1.29892 1.35572 1.02738 1.27171 1.31439 1.26259 1.2572 1.21478 1.27551 1.44401 1.47017 1.53032 1.34904 1.51889 1.50994 1.48604 1.54468 1.5055 1.51296 1.52478 1.51639 1.52192 1.44308 1.45978 1.5497 1.40605 1.22243 1.12927 1.34322 1.3647 1.57033 1.77891 1.33781 1.26093 1.29421 1.32543 1.29224 1.27663 1.08578 1.25367 1.26065 1.4454 1.55191 1.26539 1.2204 1.1291 1.69299 1.51879 1.27823 1.54747 1.53392 1.58833 1.51525 1.51252 1.51222 1.50688 1.51507 1.51454 1.51309 1.5055 1.5308 1.50364 1.4082 1.34619 1.63285 1.28992 1.31313 1.37563 1.40907 1.72527 1.63326 1.59548 1.45943 1.6071 1.54034 1.30778 1.27556 1.27271 1.30301 1.14021 1.15264 1.5876 1.07119 1.3991 1.28135 1.25425 1.44864 1.09855 1.54327 1.56525 1.64976 1.54841 1.50193 1.51656 1.51625 1.51075 1.57027 1.50713 1.56284 1.41852 1.39919 1.51546 1.49234 1.55718 1.64382 1.52685 1.34698 1.36429 1.24061 1.27333 1.26102 1.40748 1.30032 1.27165 0.816371 1.33632 1.8724 1.68458 1.69981 1.26514 1.54136 1.59738 1.55709 1.45565 1.54421 1.52353 1.51221 1.52812 1.52437 1.58209 1.54959 1.57859 1.5065 1.40317 1.51343 1.45428 1.65193 1.53205 1.54923 1.56768 1.31815 1.44477 1.17933 1.27122 1.25926 1.43269 1.13582 1.49314 0.61101 1.4368 2.43974 1.59441 1.76442 1.66376 2.01694 1.8366 1.48906 1.50224 1.49482 1.57312 1.56775 1.52 1.51484 1.52739 1.52843 1.524 1.50976 1.55808 1.4916 1.51423 1.51861 1.45933 1.53024 1.53196 1.55407 2.00869 1.50813 1.6292 1.70688 0.980671 1.19283 1.45742 1.24711 1.40467 1.63388 1.63232 1.63544 1.67597 1.57957 1.53075 1.52539 1.51329 1.5371 1.55031 1.53755 1.53346 1.52491 1.52198 1.55532 1.5553 1.60583 1.61857 1.61 1.55177 1.46197 1.70652 1.95753 1.82899 1.13574 1.13199 1.867 2.04478 1.00211 2.00609 1.9912 1.65885 1.5667 1.4728 1.54217 1.54363 1.54069 1.54848 1.55343 1.53327 1.54446 1.52847 1.54073 1.53397 1.53091 1.53656 1.54234 1.64481 1.6137 1.59206 1.56612 1.44702 1.39082 1.65586 2.25663 2.25568 1.31464 2.15247 1.92233 1.9825 1.74803 1.60358 1.91811 1.49281 1.58557 1.57356 1.57543 1.55058 1.56054 1.55056 1.55176 1.5518 1.55391 1.54278 1.56168 1.55172 1.54513 1.55 1.55486 1.32588 1.59842 1.56749 1.56838 1.56939 1.60193 1.63584 1.4765 1.81615 1.88693 1.77805 1.13304 1.35966 1.49773 2.10296 1.73725 1.9096 1.69436 1.73452 1.52499 1.34921 1.75571 1.57479 1.31432 1.5784 1.56977 1.56495 1.57094 1.55378 1.55387 1.56122 1.55612 1.55952 1.54917 1.54576 1.55106 1.52995 1.44123 1.53497 1.47069 1.44721 1.57671 1.49439 1.5919 1.52838 1.5779 1.54565 1.95887 1.84545 1.67778 2.0583 2.37326 2.27668 1.19178 1.58494 1.70238 1.61017 1.65005 1.63767 1.51964 1.70192 1.54693 1.51551 1.42446 1.528 1.54669 1.56205 1.53599 1.54666 1.54174 1.52216 1.54674 1.54287 1.54035 1.51838 1.51656 1.53066 1.51876 1.49316 1.55799 1.50747 1.57937 1.54963 1.57477 1.58166 1.51107 1.64471 1.61573 1.52507 1.48179 1.64664 1.19178 1.56821 1.53608 1.56547 1.64717 1.54008 1.52819 1.4874 1.5015 1.47977 1.50899 1.49164 1.55365 1.5146 1.53053 1.50605 1.53797 1.51703 1.52597 1.51582 1.50166 1.51116 1.50909 1.51332 1.51425 1.52374 1.52665 1.55926 1.50407 1.55278 1.51975 1.53107 1.5457 1.49743 1.40197 1.47106 1.46579 1.4785 1.50478 1.49626 1.51255 1.52729 1.50913 1.48135 1.4829 1.50294 1.43384 1.44165 1.2872 1.49032 1.35176 1.44002 1.57123 1.57413 1.37157 1.51219 1.49204 1.49143 1.45215 1.48881 1.5402 1.48774 1.49337 1.47844 1.49843 1.4642 1.51092 1.42272 1.42679 1.46824 1.49478 1.48881 1.44542 1.44258 1.40561 1.38837 1.47612 1.4653 1.45707 1.48817 1.4731 1.46748 1.33191 1.45511 1.38337 1.48312 1.48056 1.36669 1.35217 1.51191 1.48735 1.51363 1.49366 1.41587 1.47203 1.40454 1.53349 1.45323 1.46966 1.4813 1.44816 1.43237 1.47107 1.45251 1.41646 1.40718 1.41102 1.44012 1.44897 1.47634 1.46118 1.19178 1.41888 1.39829 1.42986 1.38028 1.47795 1.45244 1.43853 1.4082 1.39858 1.3486 1.38561 1.32583 1.51179 1.47039 1.34991 1.47051 1.39539 1.47286 1.54138 1.46929 1.37905 1.37588 1.42288 1.40262 1.44252 1.43392 1.42572 1.44551 1.42658 1.42797 1.42694 1.41647 1.43886 1.4057 1.41436 1.42131 1.42122 1.44174 1.43147 1.19178 1.19178 1.40827 1.39962 1.39076 1.37192 1.39703 1.42344 1.37089 1.39657 1.41701 1.38894 1.3844 1.36108 1.41785 1.40013 1.42536 1.31942 1.37312 1.42784 1.36796 1.40745 1.37678 1.40638 1.36934 1.35899 1.4358 1.46892 1.39652 1.41058 1.42088 1.40057 1.42552 1.40954 1.41798 1.42312 1.39733 1.40031 1.40171 1.42703 1.40799 1.41052 1.40255 1.3955 1.38459 1.37424 1.38436 1.35586 1.34637 1.3343 1.3794 1.37843 1.37314 1.36748 1.34711 1.38422 1.40005 1.37973 1.3955 1.37673 1.38252 1.31944 1.37082 1.35884 1.4044 1.3744 1.3343 1.3393 1.42891 1.39535 1.42234 1.39234 1.38071 1.41547 1.42625 1.40792 1.39367 1.39436 1.38784 1.38123 1.36797 1.40304 1.40909 1.38919 1.3967 1.39694 1.37956 1.36203 1.34438 1.35261 1.3392 1.35589 1.33553 1.3567 1.35531 1.35669 1.41133 1.36887 1.36736 1.37045 1.42652 1.42363 1.54314 1.3573 1.37443 1.36535 1.33666 1.33789 1.3793 1.29399 1.38728 1.36988 1.39179 1.37702 1.38229 1.41827 1.41437 1.36958 1.39055 1.34729 1.36833 1.36014 1.35079 1.38514 1.36876 1.3379 1.3348 1.33523 1.3361 1.33042 1.34671 1.33467 1.33198 1.3307 1.35295 1.34283 1.37306 1.38243 1.38097 1.38713 1.35355 1.35902 1.37353 1.40914 1.39969 1.3537 1.37627 1.31453 1.36249 1.36257 1.35115 1.3556 1.30512 1.33762 1.31994 1.3279 1.35933 1.32961 1.38695 1.40412 1.37522 1.47283 1.39016 1.33399 1.33275 1.34461 1.33417 1.3414 1.34208 1.36218 1.3696 1.36775 1.36344 1.36541 1.36538 1.19178 1.33285 1.32947 1.33012 1.33349 1.3255 1.32096 1.33149 1.32895 1.32663 1.42 1.34663 1.34847 1.41141 1.27953 1.35253 1.36512 1.40123 1.39147 1.34536 1.35131 1.33956 1.3435 1.34632 1.32358 1.33315 1.32737 1.33204 1.33551 1.33047 1.32273 1.40245 1.30816 1.33616 1.33668 1.35029 1.33883 1.3582 1.34443 1.35521 1.36108 1.34661 1.19178 1.32438 1.32132 1.3293 1.32544 1.32164 1.32732 1.31735 1.32921 1.32655 1.32034 1.32202 1.36945 1.31478 1.32926 1.34994 1.37589 1.36557 1.33761 1.36767 1.35336 1.35671 1.35063 1.34174 1.3369 1.33346 1.32901 1.33341 1.33135 1.3224 1.32272 1.36052 1.39043 1.32469 1.32111 1.29138 1.33705 1.33976 1.33081 1.333 1.33269 1.32296 1.33695 1.33648 1.32239 1.19178 1.31706 1.31129 1.30931 1.31327 1.30969 1.30048 1.32257 1.32014 1.31938 1.31867 1.31984 1.32287 1.32223 1.34942 1.32815 1.31342 1.34121 1.33009 1.35611 1.34278 1.32526 1.33693 1.36301 1.31761 1.33054 1.33508 1.33795 1.33696 1.32357 1.33759 1.32054 1.31991 1.32214 1.31382 1.31236 1.28939 1.30671 1.31369 1.31572 1.33105 1.3199 1.32554 1.3213 1.31512 1.30859 1.30969 1.33408 1.30992 1.30973 1.3043 1.30204 1.29393 1.30392 1.31821 1.31368 1.31415 1.31517 1.34502 1.3187 1.32104 1.33208 1.34072 1.34117 1.34646 1.3278 1.34298 1.33693 1.34689 1.33593 1.35066 1.33863 1.32712 1.32239 1.31576 1.30779 1.30455 1.3124 1.32527 1.3166 1.3228 1.32445 1.31556 1.31194 1.30197 1.3126 1.31358 1.32095 1.31623 1.31181 1.31482 1.29291 1.30263 1.288 1.29657 1.30112 1.28735 1.29433 1.2876 1.2917 1.31133 1.29911 1.31211 1.30476 1.29356 1.31007 1.32876 1.31147 1.33589 1.33375 1.34436 1.35489 1.34869 1.34087 1.33315 1.33189 1.32447 1.31858 1.30628 1.29696 1.31548 1.30186 1.3208 1.32229 1.31956 1.30677 1.31011 1.30757 1.32001 1.3317 1.31194 1.31177 1.30437 1.30372 1.29098 1.30486 1.29824 1.29477 1.28647 1.29083 1.28688 1.27804 1.276 1.2834 1.25371 1.30851 1.3167 1.30802 1.28739 1.29833 1.32248 1.29867 1.33349 1.31588 1.33859 1.36752 1.34826 1.33023 1.32592 1.30972 1.31044 1.27371 1.27105 1.32226 1.29737 1.3059 1.31351 1.3065 1.33311 1.31648 1.34169 1.30889 1.30127 1.29812 1.29154 1.28373 1.2968 1.29165 1.29101 1.28732 1.27851 1.27127 1.27185 1.23318 1.23823 1.35505 1.3169 1.23002 1.39454 1.27863 1.3161 1.28394 1.31947 1.26559 1.28694 1.30088 1.32855 1.27182 1.30928 1.42543 1.37773 1.3433 1.32684 1.31545 1.31129 1.29336 1.30837 1.30721 1.27711 1.30673 1.30101 1.31144 1.30493 1.2943 1.3093 1.27342 1.24914 1.32264 1.30644 1.28337 1.28054 1.28887 1.28785 1.28109 1.28418 1.27918 1.28039 1.28077 1.27762 1.27311 1.27223 1.19178 1.23274 1.23535 1.39857 1.24481 1.2523 1.27743 1.30322 1.30157 1.24753 1.31031 1.34632 1.25319 1.34068 1.38466 1.193 1.17531 1.31053 1.35556 1.30865 1.28554 1.24018 1.29065 1.28208 1.29693 1.26213 1.1771 1.3378 1.40628 1.32627 1.30801 1.28202 1.28386 1.27385 1.26659 1.28146 1.27955 1.2762 1.28508 1.28489 1.27871 1.28534 1.27693 1.27676 1.28116 1.27408 1.27688 1.21907 1.19835 1.23995 1.23422 1.27204 1.26423 1.27818 1.32755 1.27629 1.05515 1.31206 1.20042 1.28188 1.28923 1.29874 1.26134 1.29765 1.23829 1.27589 1.27268 1.26961 1.31186 1.23185 1.3308 1.36965 1.40224 1.28227 1.29565 1.2921 1.28944 1.27131 1.27234 1.27413 1.27326 1.27477 1.28212 1.27865 1.27071 1.28453 1.27667 1.19228 1.1939 1.25117 1.27121 1.27465 1.28985 1.33094 1.29245 1.31853 1.24789 1.30476 1.27062 1.26577 1.27146 1.26629 1.28388 1.27325 1.23925 1.23758 1.23338 1.23486 1.24537 1.26374 1.24746 1.26973 1.25663 1.27067 1.27252 1.24853 1.33893 1.30151 1.30631 1.31799 1.29248 1.31003 1.29853 1.3037 1.30224 1.28667 1.27913 1.28399 1.27052 1.2766 1.27428 1.26954 1.25029 1.27019 1.23318 1.32283 1.22734 1.27635 1.27484 1.28274 1.2899 1.19178 1.17091 1.27463 1.30022 1.3335 1.29876 1.30202 1.2859 1.25242 1.23549 1.26013 1.26788 1.23114 1.2337 1.23984 1.24251 1.24895 1.25248 1.28531 1.19361 1.3183 1.33233 1.33182 1.35551 1.27296 1.30709 1.3213 1.29602 1.3011 1.27326 1.28177 1.27116 1.25587 1.27731 1.28598 1.29602 1.28756 1.26314 1.16758 1.21789 1.20655 1.2338 1.26518 1.27657 1.2546 1.19178 1.20881 1.2687 1.26929 1.3378 1.33022 1.32398 1.25219 1.32899 1.27947 1.24346 1.21891 1.2524 1.24766 1.24979 1.24178 1.24061 1.2193 1.23873 1.23586 1.23589 1.24315 1.23493 1.2407 1.25127 1.22871 1.18195 1.18739 1.33463 1.23253 1.26263 1.32003 1.29453 1.29253 1.31644 1.28153 1.34066 1.26236 1.26963 1.20183 1.22685 1.21393 1.3955 1.15823 1.3101 1.14902 1.20209 1.21512 1.27525 1.24152 1.25262 1.21145 1.19178 1.28936 1.32135 1.27908 1.42867 1.3322 1.36392 1.39684 1.24391 1.41516 1.23332 1.18614 1.23187 1.23604 1.23482 1.23338 1.2361 1.23713 1.23573 1.23193 1.2359 1.24415 1.27113 1.20043 1.15539 1.17801 1.15572 1.26578 1.21567 1.27347 1.30414 1.2619 1.32184 1.16094 1.30141 1.23185 1.29777 1.26416 1.1453 1.20586 1.33368 1.20024 1.13656 1.23496 1.16214 1.25757 1.0331 1.26494 0.804696 0.925824 1.77521 1.2222 1.18566 1.54018 1.46729 1.49875 1.45966 1.44844 1.29274 1.37851 1.01647 1.17684 1.22756 1.24575 1.25015 1.22655 1.26189 1.22124 1.22163 1.19586 1.22211 1.23589 1.23301 1.21447 1.19752 1.12925 1.20603 1.16584 1.19584 1.26621 1.24046 1.15781 1.28437 1.24181 1.3197 1.32433 1.14029 1.13785 1.17269 1.23725 1.15115 1.1714 1.21185 1.22701 1.21302 0.968651 1.7174 0.640392 1.26897 4.98444 1.51977 0.654264 0.867974 0.777525 0.786238 0.927235 0.986898 0.992239 0.951267 1.31001 1.23812 1.24958 1.70727 1.62462 1.64233 1.73102 1.22972 1.09413 1.18557 0.746673 1.06213 1.19925 1.26129 1.24884 1.26316 1.23378 1.26812 1.24266 1.22408 1.1896 1.21495 1.20198 1.24061 1.19405 1.17959 1.16451 1.14231 1.24258 1.1303 1.11422 1.11202 1.103 1.05812 1.27029 1.21976 1.14927 1.29173 1.29893 1.28556 1.19198 1.2116 1.20714 1.19576 1.22114 1.39129 1.03669 1.37178 1.29719 2.27926 1.57639 1.89224 1.53422 1.26886 1.0585 1.17952 1.40527 0.981911 0.908957 0.547418 0.747558 0.502997 0.642823 0.697421 0.762298 0.659469 0.710188 0.819943 1.02479 1.07353 1.39136 1.09069 0.98734 1.04693 0.78786 1.0985 1.64336 1.00743 0.879914 0.874856 0.982052 1.2515 1.39157 1.2144 1.11546 1.13123 1.26497 1.17294 1.09909 1.16326 1.19127 1.23233 1.25624 1.16438 1.21844 1.19959 1.22086 1.08362 1.06371 1.11464 1.17709 1.01225 1.16158 1.06869 1.07655 1.22184 1.14049 1.12902 1.25875 1.13858 1.03263 1.33323 1.23152 1.22312 1.24798 1.18046 1.18446 1.21878 1.27918 1.2564 1.2487 1.09554 2.39497 1.12616 1.2896 1.23638 1.47119 1.28584 1.12293 1.21315 1.17824 0.911052 0.764123 0.845311 0.779055 0.621986 0.692931 0.724395 0.768187 0.705268 0.776072 0.729101 0.729664 0.694921 0.674149 0.653923 0.651631 0.630006 0.565907 0.735061 0.7114 0.975259 1.00725 0.954025 1.07512 1.08033 0.786434 0.803644 0.657445 0.905916 0.725999 0.920553 0.859064 0.833757 0.82224 0.76091 0.712093 1.2009 1.0676 1.14218 1.20289 1.15551 1.1649 1.10914 0.886467 1.25472 1.23064 1.09659 1.25737 1.00821 0.964765 1.07477 1.05832 1.07377 1.06862 0.989222 1.09007 1.04217 1.14476 1.11098 1.09165 1.11484 1.14234 1.03923 0.94357 0.989708 1.00988 0.96568 1.34537 0.898488 1.09697 1.24427 1.24213 1.26692 1.27285 1.28088 1.3495 1.41588 1.18983 1.18991 0.724598 1.22204 0.875662 1.06052 0.655062 0.852179 0.834538 0.871373 0.809632 0.771626 0.802719 0.829852 0.805096 0.792217 0.752509 0.779964 0.735355 0.730194 0.726027 0.796581 0.838769 0.798496 0.782948 0.716073 0.680992 0.683551 0.650604 0.672766 0.754546 0.625912 1.05518 0.839275 0.700267 0.960167 0.714567 0.76176 0.829489 0.666733 0.937571 0.830355 0.883379 0.687244 0.948159 0.851005 1.08114 1.16911 1.09707 0.833125 0.965862 0.988122 1.05476 1.31019 1.11441 0.887901 0.957752 0.984046 1.12596 0.97327 1.01966 1.00234 1.02528 1.06194 1.12149 1.11015 1.05248 1.04837 1.04488 1.09937 1.07095 1.01681 0.976947 0.934298 0.8222 0.694079 1.26339 1.29004 1.34146 1.38865 0.920271 1.32126 1.23773 0.999143 1.03458 1.21242 0.962878 1.04017 0.989714 0.867785 0.853897 0.904591 0.814665 0.82957 0.852949 0.828759 0.806612 0.788699 0.768301 0.798378 0.763252 0.823871 0.766444 0.704245 0.679607 0.717884 0.715011 0.663337 0.705394 1.03595 0.27963 0.872277 0.926658 0.841168 0.779172 0.716705 0.615582 0.603924 0.70689 0.668878 0.534651 0.668611 0.646454 0.685431 0.692205 0.727527 0.694692 0.727906 0.736468 0.759429 0.859273 0.886596 1.00243 1.04464 0.859683 0.835431 0.864146 0.915637 1.15786 0.708425 1.32943 0.763616 0.926142 0.731654 0.94902 1.01472 0.846711 0.890054 0.841901 0.920357 1.15186 1.13373 1.10387 0.941309 0.988447 0.943771 1.02198 0.97762 1.06964 0.744976 0.851705 0.952813 1.01532 1.11963 0.98732 0.948234 1.04079 0.970914 0.898627 0.960878 0.793154 1.03919 0.983725 1.21038 0.635532 0.841614 0.963097 0.883576 0.93858 1.06754 0.863232 0.684637 0.989174 0.815997 0.871408 0.850202 0.999976 0.85993 0.907051 0.792272 0.773861 0.826483 0.739303 0.73977 0.790746 0.791965 0.596177 0.580843 0.677715 0.634691 0.711983 0.700176 0.712224 0.707631 0.70229 0.697975 0.689242 0.246549 0.232944 0.0946463 0.163721 0.786595 1.19 0.718906 0.807076 0.678735 0.522309 0.361019 0.558338 0.53023 0.608241 0.511605 0.681356 0.596173 0.683694 0.796037 0.645313 0.816051 0.939533 0.714062 0.996675 0.602966 0.966378 0.805427 0.689625 0.77588 0.865651 0.831701 0.37973 0.704151 0.963054 0.899948 1.03911 0.971165 1.05808 0.931425 0.946785 0.868648 0.889021 0.874157 0.966487 0.964928 0.794575 0.883445 0.915533 0.522563 0.999609 0.980257 1.07028 1.07623 1.00207 0.950912 0.853152 0.834792 0.789338 0.834051 0.777015 0.895698 0.934263 0.937685 0.965292 0.948601 1.04479 0.782032 1.01223 1.0346 0.86998 0.83483 0.883176 0.905188 0.853163 0.860373 0.638306 0.596752 0.555879 0.626812 0.703629 0.6904 0.84469 0.707287 0.685837 0.897203 0.672621 0.794834 0.938508 0.75349 0.861604 0.858694 0.740038 0.898424 0.690039 0.688928 0.63701 0.687551 0.686644 0.709294 0.706276 0.703624 0.694376 0.676074 0.701623 0.682123 0.496838 0.334197 0.463147 0.301621 0.59007 0.592389 0.467826 0.804133 0.349107 1.32129 1.08146 0.479072 0.815507 0.409645 0.847181 0.489786 0.541912 0.550026 0.593244 0.594409 0.618603 0.626456 0.69576 0.687949 0.74404 0.647681 0.668146 0.738058 0.893486 0.85891 0.84523 0.822327 0.745704 0.85934 0.773605 1.03573 0.944319 1.0216 1.00126 0.908214 0.864656 0.826649 0.80004 0.852767 0.810161 0.907494 0.791137 0.658225 0.801303 0.9689 1.10794 1.01423 1.01188 0.928882 0.928349 0.88193 0.87024 0.85998 0.807597 0.88327 0.819964 0.896037 0.93565 0.943867 0.725952 0.853411 0.879663 0.900467 0.861197 0.869774 0.917933 0.903789 0.802069 0.806486 0.65483 0.544933 0.526558 0.629761 0.594718 0.601091 0.60514 0.64484 0.585631 0.649633 0.647901 0.754671 0.782395 0.546595 0.590893 0.627833 0.780878 0.987042 0.487265 1.16304 0.74691 0.610266 0.595571 0.691947 0.684223 0.652262 0.708839 0.686099 0.66817 0.636975 0.63711 0.622958 0.618406 0.612975 0.622914 0.65307 0.641015 0.629652 0.616302 0.627801 0.608456 0.542833 0.533576 0.509215 0.509194 0.494269 0.537811 0.55045 0.668032 0.553026 0.49189 0.308355 0.577546 0.525047 0.651482 1.15443 0.798336 0.641969 0.763544 0.53164 0.565278 0.594915 0.616022 0.609922 0.613507 0.639555 0.641536 0.658144 0.650528 0.779544 0.70818 0.815024 0.757518 0.693741 0.81176 0.827638 0.825058 0.788308 0.76578 0.764126 0.877281 0.802665 0.615327 1.11674 0.941345 0.775583 0.756014 0.863101 0.869993 0.724613 0.890156 0.76546 0.773032 0.777377 0.763471 0.754765 0.714544 0.739938 0.763821 0.849457 0.78806 0.940039 0.86877 0.920125 0.883052 0.892524 0.842125 0.825176 0.865903 0.868015 0.760264 0.727671 0.796165 0.773304 0.800217 0.869874 0.899766 0.721834 0.928218 0.969033 0.855494 0.989573 0.753867 0.789982 0.812024 0.504327 0.608796 0.592684 0.594216 0.627794 0.690302 0.600963 0.545454 0.714877 0.540633 0.751939 0.466387 0.613037 0.581772 0.508371 0.531466 0.619514 0.597139 0.659383 0.670731 0.678124 0.629595 0.639884 0.617458 0.622528 0.617227 0.624759 0.616227 0.613056 0.591571 0.621973 0.609217 0.603855 0.592554 0.587205 0.569101 0.554531 0.563947 0.555506 0.536159 0.537318 0.545044 0.524698 0.548291 0.533012 0.562051 0.55716 0.573105 0.567234 0.619176 0.669632 0.749764 0.814437 0.667651 0.630337 0.574669 0.610146 0.624846 0.623248 0.62016 0.634839 0.645217 0.662877 0.708542 0.684234 0.678681 0.739999 0.663547 0.716756 0.75241 0.788327 0.689434 0.658978 0.645495 0.791894 0.653993 0.649699 0.778218 0.764513 0.772916 0.805165 0.79497 0.760684 0.883671 0.678905 0.740455 0.459148 0.918844 0.84581 0.801544 0.789349 0.840845 0.827769 0.826197 0.777529 0.760746 0.62642 0.806647 0.764287 0.808529 0.71441 0.770163 0.667693 0.812651 0.643035 0.596731 0.708303 0.799685 0.608893 0.667555 0.641717 0.673706 0.63205 0.629506 0.674294 0.671973 0.737908 0.775258 0.641879 0.706382 0.675954 0.805121 0.680626 0.737583 0.635196 0.557878 0.680477 0.581612 0.597117 0.563844 0.653963 0.557625 0.611878 0.64007 0.623798 0.625229 0.614263 0.616024 0.615333 0.609956 0.609807 0.608315 0.596496 0.577572 0.596154 0.588712 0.571037 0.581897 0.567466 0.553242 0.583893 0.596994 0.589269 0.58149 0.588064 0.583919 0.571958 0.592563 0.576447 0.578436 0.591767 0.57707 0.614845 0.646575 0.686688 0.648527 0.701256 0.709583 0.747949 0.710279 0.684959 0.649117 0.657357 0.667613 0.647916 0.666686 0.629725 0.636594 0.632592 0.646841 0.660771 0.706425 0.768063 0.785496 0.758756 0.761571 0.741973 0.795167 0.756454 0.842615 0.873084 0.801035 0.646774 0.798806 0.511846 0.490078 0.645845 0.746514 0.732413 0.807886 0.849797 0.785893 0.78683 0.853146 0.795484 0.625365 0.724673 0.533529 0.688978 0.854061 0.765361 0.7295 0.631001 0.806355 0.70939 0.576569 0.796764 0.644688 0.82812 0.859392 0.757117 0.781534 0.746728 0.737993 0.904386 0.803111 0.86393 0.737251 0.704468 0.757047 0.733506 0.685406 0.667872 0.672914 0.61425 0.643243 0.659614 0.666401 0.702091 0.792014 0.689536 0.693244 0.637906 0.651004 0.671737 0.620443 0.529143 0.623806 0.582544 0.566195 0.619765 0.600533 0.594739 0.593406 0.606253 0.605314 0.601631 0.604875 0.59506 0.611097 0.598521 0.587927 0.599113 0.590996 0.570936 0.592063 0.573973 0.550316 0.553105 0.555039 0.543059 0.540678 0.52984 0.575925 0.568265 0.578089 0.577852 0.57816 0.575426 0.579341 0.583819 0.580664 0.585746 0.590567 0.586567 0.58551 0.58836 0.585664 0.586245 0.585741 0.585316 0.583434 0.584852 0.585987 0.584754 0.586665 0.600255 0.62665 0.599325 0.598021 0.653584 0.6722 0.611563 0.652924 0.643451 0.649427 0.655294 0.657349 0.655611 0.649339 0.659325 0.652659 0.647652 0.688003 0.684349 0.700482 0.726834 0.783364 0.726405 0.77162 0.66447 0.680188 0.745397 0.753744 0.814389 0.90608 0.846306 0.871165 0.706024 0.821125 0.746916 0.784508 1.00682 0.946421 0.866737 0.620628 0.575724 0.75157 0.682291 0.586903 0.562313 0.655245 0.634458 0.584562 0.806772 0.76511 0.70998 0.725808 0.709619 0.731062 0.755877 0.781137 0.582934 0.611062 0.66634 0.879783 0.690906 0.752849 0.464105 0.798028 0.69865 0.742528 0.771948 0.737533 0.66992 0.686871 0.681457 0.677323 0.594993 0.678961 0.60193 0.620185 0.657631 0.683089 0.634411 0.638807 0.607295 0.604014 0.708595 0.650411 0.558885 0.635858 0.618328 0.634945 0.603958 0.595637 0.615394 0.587678 0.585996 0.586463 0.592727 0.584103 0.586898 0.588105 0.574451 0.585619 0.587215 0.553221 0.574356 0.540824 0.536524 0.546196 0.539723 0.537485 0.535404 0.53718 0.529093 0.518733 0.515323 0.514555 0.512554 0.501533 0.54116 0.545423 0.558995 0.581658 0.582823 0.578445 0.576968 0.579214 0.588163 0.587077 0.58934 0.592863 0.588368 0.590251 0.584255 0.582825 0.583841 0.594996 0.588882 0.581448 0.549003 0.549026 0.577482 0.641151 0.636826 0.650718 0.637904 0.643162 0.611731 0.646897 0.655227 0.668095 0.613948 0.603355 0.626579 0.546797 0.675209 0.610181 0.656789 0.699218 0.627706 0.604326 0.708643 0.650121 0.362477 0.976272 0.751523 0.78108 0.526639 0.549355 0.511331 0.687809 0.62433 0.586996 0.604795 0.618437 0.654853 0.636828 0.670554 0.655185 0.703325 0.653129 0.717679 0.70276 0.724531 0.648676 0.577846 0.588641 0.639563 0.57597 0.580236 0.407299 0.531186 0.49722 0.683934 0.775586 0.657543 0.683499 0.675578 0.693701 0.667558 0.665069 0.657806 0.629309 0.674382 0.595555 0.680525 0.648268 0.728715 0.521631 0.6015 0.661708 0.46294 0.461372 0.463311 0.603508 0.605472 0.515455 0.596305 0.577863 0.555495 0.560034 0.57707 0.581849 0.586215 0.580856 0.585639 0.582908 0.591469 0.552669 0.573203 0.532908 0.540175 0.546314 0.534292 0.537849 0.540008 0.528231 0.521872 0.543257 0.514403 0.514667 0.510043 0.499395 0.477323 0.478371 0.476701 0.480391 0.502376 0.519933 0.54263 0.559829 0.571524 0.57604 0.575313 0.574016 0.576392 0.581655 0.579805 0.565854 0.589956 0.589745 0.596267 0.583919 0.543457 0.573309 0.550779 0.576893 0.549969 0.560522 0.598581 0.575672 0.586693 0.567085 0.563304 0.565591 0.511822 0.5218 0.513911 0.623302 0.601152 0.617742 0.553252 0.59961 0.594512 0.617604 0.588653 0.596091 0.543223 0.504698 0.51932 0.563162 0.710811 0.606043 0.67035 0.644091 0.557856 0.583075 0.468503 0.480965 0.51556 0.886575 0.954885 0.733629 0.607058 0.554142 0.634314 0.678299 0.643593 0.618941 0.673188 0.644092 0.664916 0.666978 0.655074 0.653391 0.652161 0.661746 0.654742 0.664266 0.709654 0.668444 0.690904 0.689033 0.665654 0.620091 0.640013 0.618325 0.596156 0.598843 0.614313 0.481837 0.489583 0.659705 0.505781 0.627258 0.715798 0.505629 0.735869 0.747172 0.790172 0.614707 0.554287 0.517143 0.691822 0.585682 0.397043 0.481694 0.593069 0.539122 0.445838 0.495833 0.48714 0.507741 0.490266 0.507383 0.518613 0.534541 0.554028 0.499155 0.565109 0.522278 0.578759 0.571127 0.588741 0.604494 0.579415 0.607078 0.522836 0.601913 0.535247 0.521469 0.496041 0.508558 0.593755 0.492339 0.508025 0.499676 0.504397 0.475574 0.497468 0.476127 0.467653 0.464701 0.467178 0.431709 0.433813 0.472584 0.519499 0.532187 0.521584 0.493397 0.564718 0.522588 0.535339 0.568262 0.579745 0.566005 0.567247 0.564368 0.560081 0.536851 0.577428 0.533092 0.494884 0.510869 0.471457 0.49041 0.541864 0.475979 0.535702 0.402396 0.49934 0.403454 0.426493 0.39264 0.506006 0.637365 0.723479 0.763067 0.741162 0.622873 0.505168 0.522286 0.508347 0.500233 0.556113 0.557952 0.449528 0.516007 0.547548 0.518427 0.482621 0.481275 0.376065 0.380809 0.654476 0.831611 0.611355 0.658605 0.649076 0.679601 0.577797 0.733726 0.712438 0.675309 0.676868 0.649258 0.636896 0.647316 0.652237 0.637534 0.61116 0.60006 0.613986 0.628008 0.595351 0.508236 0.580006 0.525868 0.503324 0.477018 0.497184 0.488664 0.485051 0.42143 0.50581 0.514919 0.699801 0.721843 0.692852 0.576146 0.583469 0.619286 0.597599 0.680977 0.657519 0.498949 0.62749 0.503014 0.521553 0.503081 0.513063 0.492833 0.545743 0.543913 0.553952 0.584246 0.543712 0.604209 0.580422 0.612561 0.600853 0.536627 0.567141 0.551941 0.566002 0.591908 0.610193 0.556335 0.572304 0.538575 0.487491 0.541123 0.514164 0.498323 0.502155 0.513933 0.471477 0.482168 0.455131 0.464631 0.453925 0.409858 0.407909 0.416191 0.421642 0.422682 0.433618 0.442156 0.466676 0.490786 0.510775 0.519903 0.540758 0.532058 0.527497 0.540314 0.489821 0.444496 0.459501 0.472181 0.49204 0.492698 0.493092 0.452101 0.475069 0.470682 0.49919 0.511997 0.5181 0.613032 0.555636 0.649769 0.463189 0.444263 0.493707 0.489379 0.475804 0.467573 0.503037 0.504427 0.488394 0.478651 0.448283 0.426902 0.455877 0.522298 0.560294 0.545069 0.701023 0.947511 0.515982 0.640188 0.75492 0.744506 0.708063 0.692029 0.756202 0.712735 0.689442 0.747356 0.618532 0.667481 0.619417 0.62736 0.625739 0.637708 0.631856 0.607156 0.603229 0.594382 0.62283 0.589146 0.616541 0.569052 0.555982 0.544942 0.536584 0.492672 0.509256 0.450082 0.460866 0.4737 0.470659 0.516386 0.635469 0.489258 0.452555 0.611717 0.583257 0.574941 0.560719 0.575543 0.58893 0.566555 0.494627 0.528677 0.511085 0.498056 0.498548 0.488525 0.430014 0.411792 0.499207 0.417887 0.524762 0.573385 0.709626 0.629903 0.540794 0.565165 0.60057 0.578696 0.542016 0.624953 0.64843 0.605803 0.635139 0.456072 0.663959 0.440695 0.506292 0.399343 0.512036 0.46494 0.487124 0.455097 0.458037 0.462683 0.442273 0.377325 0.378504 0.390536 0.400979 0.419331 0.434227 0.44428 0.448472 0.462059 0.492404 0.507461 0.494996 0.512336 0.517448 0.50769 0.520864 0.517041 0.534863 0.496594 0.552256 0.472511 0.415914 0.392766 0.50007 0.336989 0.474008 0.504254 0.451367 0.46588 0.432107 0.470013 0.461082 0.493199 0.508129 0.527452 0.580924 0.519364 0.512716 0.467297 0.450055 0.465821 0.480167 0.495137 0.502286 0.517936 0.491099 0.47272 0.472813 0.488249 0.478713 0.487392 0.488775 0.48494 0.477249 0.434923 0.449169 0.470951 0.475492 0.460407 0.407493 0.565167 0.682103 0.555313 0.653103 0.663642 0.826912 0.856588 0.689708 0.618846 0.575863 0.555095 0.600051 0.627201 0.637412 0.610828 0.592577 0.608544 0.562677 0.580182 0.623439 0.595618 0.549008 0.512791 0.527164 0.493755 0.531815 0.539073 0.505181 0.476747 0.483977 0.438344 0.459524 0.510451 0.540942 0.514759 0.523816 0.567207 0.554073 0.553189 0.529196 0.514789 0.506712 0.493714 0.489751 0.493332 0.489682 0.457465 0.473431 0.444311 0.42778 0.43471 0.494175 0.426126 0.484366 0.508884 0.497067 0.830146 0.554879 0.317419 0.692144 0.57203 0.570873 0.654533 0.560026 0.585584 0.421118 0.452307 0.448526 0.449079 0.430315 0.441258 0.420356 0.461887 0.445275 0.434348 0.362279 0.377946 0.391915 0.376608 0.420662 0.420028 0.43301 0.432604 0.44537 0.461825 0.490472 0.503152 0.509284 0.500341 0.529489 0.495225 0.428685 0.453349 0.417273 0.458881 0.435393 0.51303 0.574586 0.446775 0.436047 0.414659 0.485375 0.461779 0.528166 0.533158 0.506294 0.5261 0.498451 0.482884 0.472057 0.482705 0.490396 0.488286 0.486923 0.491249 0.490805 0.497749 0.495019 0.498718 0.484896 0.481651 0.495788 0.521324 0.54294 0.481601 0.519052 0.582617 0.567519 0.581519 0.602702 0.57044 0.862664 1.08681 0.899708 0.53364 0.628961 0.68061 0.694536 0.638273 0.572762 0.550617 0.530684 0.585695 0.546099 0.547935 0.560808 0.539181 0.601455 0.542039 0.507463 0.564141 0.588634 0.517333 0.556309 0.505352 0.441171 0.454395 0.410468 0.406153 0.429786 0.400052 0.476446 0.494538 0.527968 0.521683 0.511995 0.511958 0.51003 0.503016 0.501607 0.493779 0.486559 0.485862 0.474384 0.470803 0.470152 0.465849 0.47873 0.44463 0.310051 0.377478 0.328036 0.431301 0.498805 0.467069 0.162659 0.380544 0.271052 0.485891 0.347502 0.542741 0.327387 0.484263 0.390082 0.429294 0.401234 0.445284 0.420233 0.405566 0.384209 0.45467 0.443995 0.425868 0.426329 0.420589 0.410223 0.33809 0.348961 0.343508 0.336007 0.347364 0.353222 0.389398 0.402898 0.427029 0.413239 0.439067 0.441017 0.422318 0.470679 0.45766 0.48708 0.464575 0.489374 0.466236 0.418006 0.437113 0.390954 0.341476 0.0687406 0.721694 0.569515 0.401529 0.443147 0.472128 0.449284 0.508834 0.591383 0.488897 0.488312 0.488114 0.48964 0.483522 0.490678 0.494572 0.493535 0.496736 0.495266 0.498601 0.503847 0.505347 0.50131 0.501328 0.485815 0.488439 0.524779 0.602151 0.544483 0.594569 0.559838 0.545453 0.654287 0.599234 0.633762 0.650204 0.627457 0.792657 0.385142 0.712587 0.606898 0.721094 0.720997 0.607049 0.540762 0.515916 0.508848 0.510781 0.509765 0.502317 0.647084 0.526834 0.378375 0.5045 0.563822 0.539487 0.614973 0.636379 0.588564 0.526739 0.473047 0.428334 0.432675 0.443708 0.4402 0.477657 0.494227 0.489835 0.51625 0.510241 0.506866 0.505202 0.50399 0.498074 0.494134 0.487482 0.478486 0.461043 0.487964 0.473758 0.502046 0.459084 0.474163 0.400429 0.413624 0.416224 0.451173 0.457782 0.368809 0.415916 0.374642 0.415798 0.375366 0.39716 0.365113 0.37948 0.399964 0.392041 0.400132 0.395462 0.388115 0.384905 0.376272 0.388418 0.378811 0.397178 0.399776 0.391854 0.392714 0.389258 0.384853 0.316832 0.325213 0.318264 0.325856 0.338187 0.344408 0.345637 0.357219 0.371346 0.366815 0.376659 0.388747 0.40027 0.413832 0.429095 0.436229 0.457836 0.439921 0.438117 0.433106 0.431539 0.401247 0.405753 0.403847 0.373083 0.288375 0.434683 0.465863 0.42592 0.453368 0.436796 0.407902 0.251264 0.262031 0.41357 0.44289 0.469237 0.484512 0.490946 0.495161 0.500647 0.496647 0.502866 0.497792 0.502946 0.501565 0.503208 0.50193 0.485155 0.4718 0.474778 0.602838 0.570255 0.529173 0.541893 0.597582 0.615422 0.63286 0.389667 0.501136 0.477854 0.444839 0.624919 0.813981 0.639894 0.817551 0.56364 0.56393 0.524474 0.507908 0.520346 0.509092 0.464166 0.463687 0.365024 0.626688 0.602821 0.558472 0.542531 0.507149 0.481882 0.459607 0.47869 0.455662 0.471815 0.470511 0.495267 0.499383 0.506327 0.507746 0.510288 0.510748 0.505024 0.500213 0.503363 0.496023 0.48852 0.483025 0.47645 0.478646 0.47598 0.485608 0.480097 0.484947 0.454179 0.457955 0.450839 0.438084 0.453258 0.441997 0.457279 0.454017 0.432402 0.42231 0.408629 0.383094 0.407165 0.389061 0.389867 0.389768 0.382646 0.384931 0.384758 0.382171 0.377414 0.382334 0.377218 0.374615 0.378881 0.377758 0.382968 0.372483 0.378206 0.303541 0.299048 0.310233 0.314422 0.314677 0.314665 0.318025 0.320563 0.322736 0.334711 0.345866 0.340556 0.354678 0.354137 0.368627 0.379638 0.392128 0.385443 0.403958 0.396849 0.409191 0.416049 0.417704 0.425716 0.429341 0.421357 0.428624 0.422442 0.423679 0.414179 0.39868 0.418834 0.421854 0.430295 0.435394 0.433993 0.449452 0.459229 0.449117 0.455363 0.417305 0.474258 0.480735 0.491756 0.502383 0.503365 0.50479 0.50524 0.50854 0.506985 0.506814 0.494179 0.501815 0.487163 0.483348 0.593309 0.527904 0.506165 0.553935 0.553086 0.550686 0.539983 0.542663 0.533448 0.512519 0.544428 0.516822 0.486023 0.499321 0.759473 0.649311 0.530568 0.728753 0.404427 0.620456 0.589148 0.631989 0.564594 0.55137 0.535927 0.495018 0.451816 0.345868 0.676932 0.60057 0.563407 0.509028 0.50492 0.488488 0.48907 0.502327 0.509304 0.501556 0.509802 0.508516 0.512152 0.501248 0.507221 0.495874 0.485833 0.480827 0.479502 0.471441 0.479162 0.465979 0.464056 0.459206 0.454577 0.451894 0.456606 0.434468 0.423428 0.42291 0.418628 0.415007 0.400777 0.39076 0.393811 0.391018 0.386956 0.386638 0.384685 0.383424 0.381414 0.379637 0.379803 0.377504 0.376361 0.373247 0.369107 0.373372 0.373189 0.366346 0.369203 0.363608 0.366767 0.37031 0.364864 0.381768 0.381519 0.272594 0.308438 0.342271 0.323731 0.310934 0.311272 0.314576 0.323024 0.333563 0.336431 0.340667 0.347052 0.362512 0.376817 0.389902 0.402812 0.408499 0.413863 0.419787 0.424932 0.428867 0.428391 0.427376 0.426357 0.426624 0.421982 0.429969 0.440867 0.442156 0.454895 0.46519 0.509683 0.552049 0.453394 0.486395 0.480563 0.483653 0.491453 0.49865 0.501459 0.506571 0.505041 0.507734 0.506992 0.508546 0.507973 0.504078 0.497288 0.500428 0.497301 0.511307 0.517123 0.507442 0.518755 0.537138 0.524411 0.518404 0.501786 0.535116 0.5332 0.530569 0.560253 0.662241 0.52724 0.488485 0.606075 0.747322 0.671465 0.523095 0.479845 0.757351 0.747748 0.593437 0.625486 0.502724 0.474035 0.457062 0.440016 0.243323 0.730822 0.656145 0.621924 0.538373 0.530091 0.512052 0.518704 0.513848 0.520684 0.514989 0.520986 0.518559 0.511375 0.504122 0.508668 0.501963 0.493938 0.496353 0.487942 0.484151 0.478773 0.471346 0.458535 0.460927 0.460352 0.461846 0.464381 0.459582 0.447029 0.430272 0.436753 0.420913 0.408386 0.39824 0.392594 0.390183 0.386523 0.389496 0.383806 0.381252 0.37809 0.369488 0.363112 0.359412 0.361715 0.358257 0.354409 0.360551 0.371571 0.391645 0.379902 0.411672 0.164071 0.17789 0.185782 0.324342 0.359321 0.46109 0.377269 0.302669 0.311846 0.313929 0.332375 0.340657 0.339097 0.354907 0.36941 0.363711 0.381593 0.378264 0.396775 0.410877 0.40933 0.417871 0.426401 0.422613 0.42862 0.430085 0.432384 0.429532 0.429237 0.437827 0.447711 0.466052 0.483665 0.483718 0.458608 0.475965 0.480428 0.498998 0.491302 0.500966 0.505603 0.507818 0.508994 0.510842 0.508639 0.509574 0.511786 0.512063 0.500134 0.484418 0.49361 0.505309 0.468369 0.485189 0.504522 0.494614 0.511738 0.508881 0.539914 0.496225 0.546158 0.565472 0.428726 0.325878 0.319445 0.929755 0.441711 0.415605 0.417277 0.408786 0.663926 0.650502 0.57149 0.545061 0.514114 0.431243 0.427731 0.384614 0.466614 0.55526 0.576401 0.521868 0.548216 0.520868 0.522628 0.525936 0.529152 0.526587 0.530076 0.525091 0.518992 0.525963 0.516696 0.510661 0.505112 0.494403 0.503284 0.498123 0.486146 0.492279 0.473595 0.454507 0.447919 0.461279 0.43732 0.46053 0.457842 0.452242 0.454311 0.449136 0.425318 0.415114 0.406786 0.39896 0.392821 0.389658 0.386909 0.382125 0.385904 0.385939 0.385034 0.370104 0.359589 0.357328 0.350021 0.348569 0.3467 0.334874 0.358956 0.386692 0.355825 0.438162 0.474279 0.515803 0.0566803 0.135917 0.282127 0.254303 0.578377 0.390124 0.536512 0.346845 0.180951 0.281129 0.26429 0.311382 0.333209 0.318243 0.319521 0.355458 0.369165 0.391666 0.406576 0.418016 0.424457 0.429264 0.437575 0.437671 0.436842 0.439138 0.451523 0.458931 0.463326 0.475349 0.476207 0.470275 0.473298 0.48224 0.485909 0.496766 0.506331 0.511304 0.516657 0.512012 0.511935 0.51048 0.490975 0.481552 0.483399 0.449504 0.439788 0.453431 0.499367 0.519981 0.472247 0.482697 0.596967 0.164441 0.324195 0.442197 0.433688 0.433436 0.270788 0.32129 0.900901 0.378744 0.46316 0.571981 0.642966 0.571205 0.610083 0.614636 0.617927 0.568835 0.523626 0.496069 0.47847 0.417328 0.471135 0.498196 0.491557 0.480698 0.532639 0.529594 0.519252 0.53341 0.538132 0.536095 0.534049 0.540831 0.528177 0.520363 0.517383 0.529284 0.51351 0.508807 0.508843 0.482348 0.508597 0.476495 0.456023 0.460275 0.459425 0.452104 0.461562 0.452333 0.426543 0.412527 0.418811 0.407557 0.399762 0.400237 0.392506 0.388357 0.386144 0.386326 0.387694 0.384242 0.389808 0.389068 0.360238 0.353642 0.347887 0.344011 0.343714 0.33839 0.330438 0.338845 0.337787 0.330062 0.317681 0.348045 0.377051 0.359784 0.382867 0.370529 0.610122 0.745841 0.159854 0.266532 0.310479 0.46926 0.188723 0.300352 0.198514 0.0841783 0.216329 0.278103 0.295248 0.275263 0.325035 0.352956 0.392682 0.403821 0.405422 0.416199 0.424166 0.428625 0.431246 0.433611 0.43437 0.436791 0.440941 0.43698 0.434985 0.444865 0.449533 0.456753 0.465787 0.475608 0.478977 0.482203 0.49571 0.505155 0.511451 0.51025 0.510414 0.52036 0.518109 0.518622 0.506859 0.500548 0.492971 0.46087 0.479896 0.474123 0.458435 0.448702 0.490045 0.535368 0.586672 0.517678 0.478876 0.662932 0.197651 0.303707 0.44927 0.320192 0.453235 0.303188 0.421055 0.364684 0.42261 0.514951 0.537991 0.476458 0.464508 0.449699 0.474309 0.43487 0.458653 0.450969 0.490149 0.550585 0.531882 0.518778 0.563232 0.543283 0.54894 0.538657 0.541662 0.525867 0.518307 0.513284 0.515936 0.517567 0.516923 0.402388 0.482495 0.461473 0.450185 0.438334 0.428884 0.415162 0.412061 0.409194 0.393725 0.389641 0.381306 0.385686 0.381525 0.389388 0.402482 0.382397 0.371595 0.345956 0.337275 0.338348 0.344388 0.358342 0.308187 0.322814 0.326115 0.365044 0.347029 0.514767 0.857453 0.767165 0.124548 0.195023 0.161743 0.0406582 0.180751 0.15651 0.172421 0.187766 0.389306 0.340082 0.258607 0.414172 0.366662 0.392923 0.402364 0.414328 0.421813 0.429494 0.433962 0.435515 0.434107 0.441073 0.448693 0.454949 0.468542 0.490085 0.490376 0.498875 0.493881 0.499069 0.505738 0.514447 0.500192 0.516263 0.511756 0.499515 0.469397 0.449545 0.508006 0.459677 0.436534 0.410404 0.458559 0.469203 0.411315 0.384989 0.54436 0.42894 0.32702 0.258924 0.330275 0.348479 0.468976 0.463221 0.47453 0.453999 0.466613 0.464197 0.466913 0.463826 0.473885 0.486048 0.493699 0.547061 0.541062 0.53917 0.563158 0.550762 0.540987 0.532015 0.52332 0.515218 0.51991 0.520044 0.543126 0.449169 0.455974 0.456858 0.446191 0.447941 0.44141 0.42258 0.420851 0.418133 0.418818 0.419946 0.41957 0.385887 0.378541 0.380333 0.394043 0.369989 0.402826 0.396462 0.413315 0.399504 0.364926 0.322291 0.34702 0.320329 0.328828 0.297391 0.294834 0.270992 0.266849 0.302743 0.224428 0.337462 0.555921 0.0716295 0.162533 0.136493 0.158148 0.192822 0.117468 0.108724 0.17991 0.274864 0.386625 0.232601 0.444809 0.406168 0.389794 0.303579 0.547156 0.619826 0.417186 0.405962 0.439329 0.432404 0.430557 0.435707 0.439336 0.457832 0.46403 0.441615 0.432582 0.41602 0.488645 0.489095 0.503075 0.490945 0.496909 0.49414 0.509701 0.498688 0.497942 0.50437 0.506038 0.51294 0.500279 0.497447 0.451425 0.424691 0.496616 0.444386 0.455545 0.586304 0.466697 0.471259 0.470656 0.47082 0.446736 0.512696 0.545275 0.553423 0.563256 0.54324 0.560882 0.567574 0.564711 0.550013 0.544242 0.533164 0.543101 0.526723 0.508984 0.516891 0.530598 0.563259 0.50657 0.498561 0.471265 0.462273 0.457215 0.425349 0.418755 0.413109 0.426978 0.415414 0.428318 0.449328 0.444627 0.425999 0.420235 0.370822 0.355707 0.3086 0.214928 0.316723 0.240573 0.218159 0.225946 0.250352 0.307418 0.410259 0.424836 0.371445 0.0711198 0.227783 0.146015 0.124282 0.0288997 0.302634 0.187167 0.488489 0.410178 0.456524 0.470331 0.481217 0.40887 0.387401 0.382776 0.388142 0.381982 0.430124 0.397302 0.427553 0.42771 0.45498 0.437763 0.448902 0.451573 0.456777 0.444508 0.453502 0.494861 0.498316 0.448528 0.473356 0.484981 0.492613 0.491063 0.498115 0.504641 0.502597 0.506689 0.504658 0.515284 0.515688 0.503352 0.511306 0.54289 0.572596 0.558416 0.574411 0.554681 0.562363 0.54844 0.487595 0.507481 0.566445 0.529238 0.515899 0.512992 0.451641 0.420589 0.445759 0.429355 0.429443 0.448278 0.438759 0.450048 0.441372 0.441639 0.399909 0.319112 0.286586 0.250038 0.229777 0.215642 0.208119 0.228562 0.341818 0.267669 0.377413 0.348819 0.367098 0.0833305 0.268696 0.230771 0.300236 0.460859 0.276326 0.580526 0.454516 0.43588 0.416392 0.34609 0.392595 0.464832 0.449989 0.459428 0.448285 0.451594 0.459736 0.473742 0.464513 0.52761 0.449239 0.545473 0.496675 0.497965 0.499028 0.499459 0.574648 0.570553 0.54258 0.518293 0.543245 0.555932 0.547477 0.531235 0.524459 0.506392 0.479882 0.464814 0.48487 0.458536 0.430483 0.429808 0.43354 0.443313 0.46392 0.427846 0.460864 0.431979 0.354306 0.31707 0.290659 0.267105 0.234116 0.207828 0.234521 0.209422 0.296472 0.415579 0.422288 0.347031 0.165025 0.177102 0.622201 0.205679 0.574664 0.46884 0.587939 0.419614 0.339734 0.341123 0.319884 0.321192 0.3742 0.461644 0.466734 0.43043 0.541075 0.530439 0.52082 0.508221 0.472274 0.462697 0.434648 0.422367 0.425296 0.437598 0.3343 0.426425 0.399608 0.368675 0.291069 0.281586 0.241426 0.272792 0.229769 0.323287 0.370669 0.446665 0.317484 0.18842 0.599198 0.394813 0.405451 0.358714 0.289313 0.276322 0.313829 
SCALARS Stress float 1
LOOKUP_TABLE default
-61406300000.0 -26042000000.0 -84704600000.0 -56198600000.0 -96555000000.0 -109469000000.0 -35349200000.0 -78765600000.0 -122069000000.0 -57115400000.0 -218489000000.0 -274425000000.0 -80904100000.0 -142925000000.0 -72800400000.0 -120955000000.0 -91431400000.0 -101814000000.0 -23221400000.0 -39236300000.0 -106398000000.0 -60689700000.0 -35596800000.0 -120910000000.0 -67293400000.0 -156121000000.0 -16499100000.0 -91627100000.0 -120880000000.0 -151604000000.0 -240843000000.0 -247955000000.0 -347304000000.0 -295473000000.0 -268678000000.0 -324666000000.0 -135484000000.0 -159937000000.0 -40254600000.0 -111462000000.0 -134166000000.0 -329065000000.0 -218402000000.0 -79506700000.0 -80933800000.0 -134358000000.0 -59558300000.0 -56338200000.0 -30271100000.0 -23580600000.0 -104956000000.0 -223152000000.0 -333508000000.0 -24015500000.0 -200107000000.0 -362352000000.0 -358621000000.0 -165558000000.0 -445989000000.0 -302761000000.0 -332253000000.0 -313958000000.0 -529904000000.0 -315345000000.0 -171788000000.0 -186442000000.0 -378524000000.0 -389284000000.0 -153402000000.0 -223090000000.0 -407898000000.0 -152419000000.0 -138453000000.0 -117206000000.0 -51781400000.0 -44344900000.0 -209507000000.0 -415070000000.0 -539746000000.0 -103309000000.0 -545118000000.0 -155807000000.0 -289425000000.0 -580686000000.0 -296663000000.0 -615903000000.0 -867458000000.0 -808896000000.0 -150863000000.0 -367036000000.0 -553850000000.0 -150482000000.0 -267130000000.0 -211766000000.0 -271264000000.0 -150638000000.0 -25040800000.0 -69991800000.0 -98026800000.0 -65311100000.0 -51395200000.0 -29515100000.0 -121887000000.0 -295357000000.0 -556907000000.0 -221197000000.0 -623694000000.0 -664424000000.0 -405074000000.0 -288301000000.0 -282261000000.0 -720413000000.0 -326553000000.0 -890601000000.0 -221752000000.0 -625975000000.0 -82200200000.0 -187661000000.0 -510932000000.0 -1.01721e+12 -684311000000.0 -1.22455e+12 -522526000000.0 -401741000000.0 -544555000000.0 -696325000000.0 -69805700000.0 -204544000000.0 -206174000000.0 -197328000000.0 -118523000000.0 -104258000000.0 -39410800000.0 -157566000000.0 -27261100000.0 -39605200000.0 -309400000000.0 -914460000000.0 -291850000000.0 -117437000000.0 -1.10647e+12 -292419000000.0 -762576000000.0 -1.43494e+12 -1.13995e+12 -520333000000.0 -973750000000.0 -520509000000.0 -1.38473e+12 -324102000000.0 -524892000000.0 -547936000000.0 -72308700000.0 -364714000000.0 -486783000000.0 -195683000000.0 -189844000000.0 -270447000000.0 -145991000000.0 -113860000000.0 -32099200000.0 -104283000000.0 -24534600000.0 -84037100000.0 -199396000000.0 -328096000000.0 -521707000000.0 -776493000000.0 -797656000000.0 -1.33286e+12 -710911000000.0 -801085000000.0 -845751000000.0 -1.53587e+12 -611241000000.0 -319634000000.0 -1.30769e+12 -388652000000.0 -2.37003e+12 -980173000000.0 -382562000000.0 -1.00434e+12 -1.23079e+12 -873718000000.0 -889412000000.0 -206465000000.0 -669357000000.0 -242948000000.0 -487314000000.0 -297010000000.0 -265833000000.0 -220458000000.0 -28372100000.0 -24852400000.0 -41661700000.0 -164320000000.0 -580769000000.0 -185813000000.0 -140374000000.0 -1.08924e+12 -630262000000.0 -725163000000.0 -758667000000.0 -1.22064e+12 -1.49151e+12 -1.04261e+12 -1.83805e+12 -2.96389e+12 -704419000000.0 -2.20433e+12 -350644000000.0 -661727000000.0 -783571000000.0 -431538000000.0 -18091400000.0 -682934000000.0 -264590000000.0 -146463000000.0 -40075800000.0 -51116300000.0 -21241100000.0 -76576600000.0 -64353700000.0 -160049000000.0 -125955000000.0 -513709000000.0 -283307000000.0 -1.04484e+12 -401587000000.0 -1.6798e+12 -823802000000.0 -830030000000.0 -738729000000.0 -1.3966e+12 -1.52035e+12 -794059000000.0 -1.65818e+12 -1.05693e+12 -498147000000.0 -2.87491e+12 -474300000000.0 -2.08171e+12 -146760000000.0 -735509000000.0 -1.42317e+12 -796735000000.0 -386573000000.0 -821620000000.0 -203920000000.0 -163674000000.0 -16086400000.0 -24729700000.0 -154981000000.0 -81060900000.0 -204443000000.0 -82956900000.0 -627965000000.0 -383453000000.0 -1.63718e+12 -1.25356e+12 -824430000000.0 -1.66285e+12 -2.97048e+12 -1.10377e+12 -428327000000.0 -1.55128e+12 -1.20173e+12 -1.03098e+12 -1.71506e+12 -1.98087e+12 -1.23187e+12 -1.03813e+12 -1.14404e+12 -437566000000.0 -37999000000.0 -395141000000.0 -707318000000.0 -367425000000.0 -126907000000.0 -60009300000.0 -165563000000.0 -148878000000.0 -352208000000.0 -533687000000.0 -628934000000.0 -374591000000.0 -23811000000.0 -1.07135e+12 -1.25132e+12 -581554000000.0 -1.8354e+12 -3.13476e+12 -1.29412e+12 -786131000000.0 -1.19336e+12 -1.25328e+12 -2.04414e+12 -852717000000.0 -2.48743e+12 -1.45692e+12 -1.66274e+12 -893593000000.0 -1.25832e+12 -1.26918e+12 -509956000000.0 -2.10908e+12 -252329000000.0 -537589000000.0 -771346000000.0 -742954000000.0 -537448000000.0 -152250000000.0 -121369000000.0 -65020900000.0 -140598000000.0 -461982000000.0 -379719000000.0 -1.22355e+12 -713193000000.0 -1.19764e+12 -1.63105e+12 -1.40231e+12 -2.10468e+12 -1.79782e+12 -1.32857e+12 -1.06738e+12 -1.68351e+12 -2.51546e+12 -1.8435e+12 -924824000000.0 -1.9324e+12 -3.05833e+12 -2.11585e+12 -2.44752e+12 -1.69738e+12 -1.64676e+12 -945852000000.0 -1.74807e+12 -1.49335e+12 -505393000000.0 -1.24057e+12 -676244000000.0 -1.02035e+12 -1.70443e+12 -520575000000.0 -353255000000.0 -146421000000.0 -570323000000.0 -876075000000.0 -975167000000.0 -970849000000.0 -1.50601e+12 -1.51585e+12 -600945000000.0 -1.16604e+12 -2.40231e+12 -2.59459e+12 -2.19258e+12 -2.30744e+12 -1.28413e+12 -1.10102e+12 -1.23885e+12 -2.00595e+12 -3.06846e+12 -1.99922e+12 -1.58101e+12 -956999000000.0 -1.83453e+12 -2.05353e+12 -1.53026e+12 -2.39675e+12 -1.15484e+12 -612204000000.0 -1.34134e+12 -1.0309e+12 -1.09137e+12 -514978000000.0 -887363000000.0 -293271000000.0 -220294000000.0 -93047000000.0 -81399100000.0 -281056000000.0 -165889000000.0 -83583500000.0 -834275000000.0 -1.06565e+12 -1.11922e+12 -904364000000.0 -1.53807e+12 -2.73293e+12 -1.83359e+12 -1.40847e+12 -1.67777e+12 -1.91833e+12 -2.29112e+12 -2.44404e+12 -2.1824e+12 -1.12494e+12 -1.80074e+12 -1.3632e+12 -1.70823e+12 -1.17353e+12 -1.73661e+12 -2.39391e+12 -1.92254e+12 -1.3328e+12 -1.38019e+12 -2.01986e+12 -792705000000.0 -903122000000.0 -602371000000.0 -775200000000.0 -628629000000.0 -439808000000.0 -147812000000.0 -52684000000.0 -64893000000.0 -435323000000.0 -723682000000.0 -485528000000.0 -517978000000.0 -799762000000.0 -1.66127e+12 -773312000000.0 -1.84302e+12 -1.62651e+12 -3.78609e+12 -1.47911e+12 -1.14185e+12 -2.81658e+12 -1.67857e+12 -2.68427e+12 -1.18177e+12 -1.63536e+12 -2.1967e+12 -2.61526e+12 -1.71176e+12 -3.5113e+12 -2.80424e+12 -3.00051e+12 -1.57494e+12 -1.90925e+12 -1.49051e+12 -2.45657e+12 -2.74091e+12 -870272000000.0 -1.27474e+12 -1.8041e+12 -984243000000.0 -749779000000.0 -175805000000.0 -470045000000.0 -65060100000.0 -284975000000.0 -175330000000.0 -623407000000.0 -888903000000.0 -490925000000.0 -1.09151e+12 -2.18717e+12 -1.44623e+12 -857492000000.0 -3.50121e+12 -2.30451e+12 -2.16631e+12 -1.48035e+12 -3.00754e+12 -3.94215e+12 -1.44158e+12 -3.78454e+12 -1.38958e+12 -2.93928e+12 -3.74415e+12 -3.80453e+12 -2.97742e+12 -3.70358e+12 -4.63836e+12 -2.2631e+12 -3.38577e+12 -2.05866e+12 -1.86215e+12 -2.75754e+12 -2.21653e+12 -1.35379e+12 -2.09862e+12 -3.08202e+12 -1.312e+12 -1.14012e+12 -171806000000.0 -1.15338e+12 -474645000000.0 -535816000000.0 -139801000000.0 -41433500000.0 -410250000000.0 -1.38797e+12 -597761000000.0 -1.06567e+12 -1.20483e+12 -2.79598e+12 -2.87929e+12 -3.20844e+12 -1.30597e+12 -2.39271e+12 -3.03306e+12 -3.36866e+12 -4.06495e+12 -2.81652e+12 -2.56091e+12 -2.14756e+12 -2.97227e+12 -1.87393e+12 -4.24032e+12 -2.7741e+12 -2.46665e+12 -2.92234e+12 -1.29159e+12 -1.6612e+12 -2.44243e+12 -1.51743e+12 -1.71013e+12 -229534000000.0 -774186000000.0 -224317000000.0 -59951600000.0 -130303000000.0 -561278000000.0 -433741000000.0 -119600000000.0 -2.10266e+12 -2.73574e+12 -2.57425e+12 -3.26569e+12 -2.94132e+12 -3.36793e+12 -6.25644e+12 -2.62018e+12 -2.85683e+12 -2.53252e+12 -5.65317e+12 -4.7455e+12 -1.50516e+12 -2.65569e+12 -2.24476e+12 -6.28792e+12 -2.51291e+12 -3.66155e+12 -4.49697e+12 -2.59174e+12 -1.44255e+12 -2.29276e+12 -2.64383e+12 -2.55191e+12 -3.57354e+12 -1.65492e+12 -1.38091e+12 -1.37847e+12 -317741000000.0 -203318000000.0 -134366000000.0 -41293600000.0 -1.16854e+12 -1.03771e+12 -2.06384e+12 -736536000000.0 -2.2027e+12 -2.47522e+12 -2.34889e+12 -1.77622e+12 -1.93162e+12 -2.51862e+12 -4.00119e+12 -5.03739e+12 -3.27921e+12 -3.18579e+12 -4.75857e+12 -3.28175e+12 -4.08189e+12 -3.11466e+12 -5.3582e+12 -2.12461e+12 -3.10262e+12 -4.20353e+12 -3.8122e+12 -4.80107e+12 -2.90201e+12 -7.36188e+12 -2.24969e+12 -1.21227e+12 -1.50477e+12 -1.18682e+12 -1.17484e+12 -354209000000.0 -49130300000.0 -185185000000.0 -1.92496e+12 -929165000000.0 -2.09906e+12 -1.01986e+12 -2.03608e+12 -4.27554e+12 -3.63454e+12 -5.33576e+12 -4.3663e+12 -2.60828e+12 -4.79392e+12 -3.22703e+12 -4.34922e+12 -3.25051e+12 -3.79442e+12 -5.27661e+12 -8.29248e+12 -5.99239e+12 -6.63792e+12 -5.05541e+12 -6.03082e+12 -1.42378e+12 -6.45441e+12 -3.36763e+12 -3.01247e+12 -2.71779e+12 -2.22439e+12 -103411000000.0 -65755400000.0 -3.25963e+12 -3.13997e+12 -492240000000.0 -2.26055e+12 -3.9959e+12 -4.79237e+12 -5.88532e+12 -6.50384e+12 -4.66973e+12 -4.82848e+12 -4.50979e+12 -5.04648e+12 -4.0007e+12 -5.51809e+12 -5.78372e+12 -5.03627e+12 -5.18904e+12 -6.1477e+12 -4.21542e+12 -3.45845e+12 -5.01671e+12 -7.46661e+12 -3.56712e+12 -4.14e+12 -5.5471e+12 -7.11221e+12 -4.35588e+12 -9.68713e+12 -6.25388e+12 -2.90651e+12 -881978000000.0 -4.62982e+12 -3.92702e+12 -3.86055e+12 -4.69722e+12 -3.11595e+12 -3.7132e+12 -5.60308e+12 -2.80198e+12 -2.19081e+12 -4.98156e+12 -4.33741e+12 -3.92657e+12 -5.15989e+12 -2.11148e+12 -5.21363e+12 -1.86805e+12 -5.14822e+12 -5.59197e+12 -3.71691e+12 -5.88496e+12 -6.28031e+12 -6.36648e+12 -1.54619e+12 -3.43717e+12 -5.65895e+12 -3.21172e+12 -2.14222e+12 -8.72102e+12 -5.79388e+12 -4.84994e+12 -6.65112e+12 -5.42013e+12 -2.73581e+12 -115939000000.0 -3.41363e+12 -3.3727e+12 -3.74368e+12 -2.54693e+12 -2.32964e+12 -4.35117e+12 -4.73184e+12 -2.83561e+12 -3.36491e+12 -5.88677e+12 -6.60646e+12 -3.88831e+12 -5.39458e+12 -4.23799e+12 -5.97875e+12 -3.4313e+12 -5.84979e+12 -6.59153e+12 -5.0418e+12 -3.93004e+12 -4.70745e+12 -3.82987e+12 -3.05716e+12 -6.02143e+12 -2.58469e+12 -3.47847e+12 -7.39011e+12 -6.5242e+12 -3.42404e+12 -4.51929e+12 -3.43289e+12 -5.27234e+12 -3.66238e+12 -7.92884e+12 -8.34976e+12 -3.19425e+12 -6.88019e+12 -6.95546e+12 -1.5432e+12 -2.69734e+12 -2.90837e+12 -12549600000.0 -3.70948e+12 -2.72861e+12 -6.16046e+12 -4.32431e+12 -6.48307e+12 -4.48717e+12 -3.87651e+12 -5.80926e+12 -5.44021e+12 -3.67278e+12 -5.99082e+12 -7.75162e+12 -5.81861e+12 -4.81964e+12 -3.16525e+12 -5.62812e+12 -6.46286e+12 -7.60526e+12 -7.42447e+12 -4.84469e+12 -3.78569e+12 -3.40676e+12 -2.45484e+12 -5.15875e+12 -7.87296e+12 -3.11206e+12 -4.60043e+12 -5.1487e+12 -7.53625e+12 -5.79594e+12 -6.32241e+12 -5.06879e+12 -8.21281e+12 -7.8318e+12 -5.48823e+12 -4.14631e+12 -3.86847e+12 -12549700000.0 -4.79673e+12 -4.10015e+12 -5.68369e+12 -8.38152e+12 -9.0759e+12 -1.06774e+13 -5.73909e+12 -5.64423e+12 -7.7377e+12 -5.9249e+12 -6.12307e+12 -5.92492e+12 -3.05784e+12 -4.10688e+12 -3.98401e+12 -5.53294e+12 -9.46689e+12 -7.23952e+12 -4.93033e+12 -8.92466e+12 -8.56203e+12 -7.90103e+12 -4.14071e+12 -6.83786e+12 -6.71212e+12 -5.89864e+12 -6.5166e+12 -4.66579e+12 -5.69908e+12 -5.0148e+12 -5.64796e+12 -7.44431e+12 -4.37406e+12 -5.84974e+12 -3.46701e+12 -6.15081e+12 -3.36058e+12 -3.67279e+12 -3.99303e+12 -2.60867e+12 -4.91639e+12 -3.60615e+12 -5.42456e+12 -9.23774e+12 -9.34544e+12 -4.68717e+12 -8.46732e+12 -7.61969e+12 -8.34649e+12 -4.87038e+12 -1.11023e+13 -4.3197e+12 -5.89381e+12 -6.8188e+12 -7.41583e+12 -5.89422e+12 -7.39659e+12 -7.59362e+12 -9.84206e+12 -6.4909e+12 -1.09747e+13 -9.53636e+12 -4.88573e+12 -6.56103e+12 -4.33594e+12 -4.38329e+12 -7.57133e+12 -4.34151e+12 -4.36059e+12 -4.67479e+12 -5.97208e+12 -3.92556e+12 -5.28809e+12 -4.07966e+12 -2.66772e+12 -4.83481e+12 -7.21506e+12 -7.05582e+12 -7.3281e+12 -3.70365e+12 -9.0915e+12 -6.47e+12 -5.32516e+12 -6.67108e+12 -3.03388e+12 -9.36252e+12 -5.42968e+12 -4.9998e+12 -7.3314e+12 -9.0101e+12 -9.30641e+12 -5.82025e+12 -6.61794e+12 -5.15388e+12 -8.72038e+12 -5.21908e+12 -8.80875e+12 -4.56719e+12 -4.92276e+12 -6.07899e+12 -7.69747e+12 -6.46489e+12 -4.94855e+12 -5.53075e+12 -4.81152e+12 -1.05536e+13 -6.26886e+12 -7.45431e+12 -4.86407e+12 -2.55524e+12 -12549700000.0 -6.11839e+12 -7.41211e+12 -1.06496e+13 -5.97988e+12 -6.99572e+12 -6.41815e+12 -6.25402e+12 -7.91629e+12 -6.58383e+12 -8.44339e+12 -5.45372e+12 -8.94218e+12 -3.81744e+12 -6.62907e+12 -7.17381e+12 -6.28816e+12 -6.01648e+12 -6.40008e+12 -4.61207e+12 -4.52183e+12 -4.78111e+12 -7.85838e+12 -6.27162e+12 -5.92515e+12 -5.12982e+12 -4.52635e+12 -6.07234e+12 -4.58947e+12 -6.72139e+12 -4.51658e+12 -9.11378e+12 -6.13371e+12 -4.39465e+12 -5.33324e+12 -8.3554e+12 -8.12504e+12 -9.81936e+12 -3.34302e+12 -4.04474e+12 -12549700000.0 -12549700000.0 -6.17006e+12 -3.26256e+12 -4.80948e+12 -7.01084e+12 -6.48449e+12 -6.55403e+12 -4.17394e+12 -5.48623e+12 -1.2313e+13 -5.75433e+12 -4.3959e+12 -5.60674e+12 -8.05753e+12 -7.41148e+12 -3.36507e+12 -2.63248e+12 -7.73798e+12 -8.52743e+12 -4.08249e+12 -6.4414e+12 -5.79096e+12 -2.2631e+12 -5.49871e+12 -6.71113e+12 -1.13554e+13 -7.81803e+12 -9.80683e+12 -5.06194e+12 -7.77138e+12 -9.83681e+12 -4.68859e+12 -6.77663e+12 -4.44345e+12 -7.61813e+12 -8.04827e+12 -7.30388e+12 -5.24896e+12 -7.4708e+12 -6.15073e+12 -6.84474e+12 -4.03688e+12 -3.24028e+12 -4.04108e+12 -4.12064e+12 -6.33931e+12 -6.57905e+12 -3.82184e+12 -4.36797e+12 -6.84605e+12 -5.25363e+12 -6.2227e+12 -5.18228e+12 -5.99271e+12 -1.29089e+13 -5.16967e+12 -7.46213e+12 -4.16564e+12 -6.55532e+12 -6.89289e+12 -4.15022e+12 -4.71933e+12 -7.76819e+12 -8.75667e+12 -1.04006e+13 -9.74808e+12 -7.066e+12 -7.02821e+12 -5.69457e+12 -3.04312e+12 -7.25404e+12 -6.91422e+12 -3.08425e+12 -5.38198e+12 -1.13523e+13 -8.35287e+12 -6.14285e+12 -3.62176e+12 -6.14125e+12 -4.30741e+12 -4.38155e+12 -3.57675e+12 -4.92852e+12 -8.32485e+12 -2.73139e+12 -3.43548e+12 -4.07977e+12 -5.87849e+12 -7.23376e+12 -9.91269e+12 -7.51021e+12 -6.36861e+12 -6.64357e+12 -9.77589e+12 -7.85758e+12 -8.84897e+12 -1.08613e+13 -7.3327e+12 -7.5315e+12 -7.85422e+12 -3.7923e+12 -6.0082e+12 -1.25212e+13 -6.88081e+12 -5.89101e+12 -6.49783e+12 -7.45016e+12 -5.6335e+12 -7.44898e+12 -6.10299e+12 -8.16044e+12 -7.38929e+12 -5.38901e+12 -3.23501e+12 -4.71104e+12 -4.65093e+12 -8.14591e+12 -5.25043e+12 -5.5941e+12 -6.12541e+12 -6.81907e+12 -6.00955e+12 -8.02859e+12 -7.49535e+12 -4.69977e+12 -7.75041e+12 -6.51848e+12 -7.71125e+12 -9.25607e+12 -7.60427e+12 -5.85207e+12 -7.39539e+12 -4.81592e+12 -9.90201e+12 -8.45397e+12 -7.61679e+12 -7.2719e+12 -5.81727e+12 -3.26384e+12 -8.70955e+12 -6.003e+12 -7.88437e+12 -4.98656e+12 -6.16093e+12 -7.85638e+12 -7.85723e+12 -7.44784e+12 -5.51177e+12 -6.22225e+12 -5.14274e+12 -6.81272e+12 -8.93735e+12 -5.54955e+12 -4.74816e+12 -5.63185e+12 -1.02448e+13 -8.52564e+12 -6.10458e+12 -7.10983e+12 -9.37167e+12 -7.28807e+12 -6.33866e+12 -4.26999e+12 -1.02574e+13 -7.21089e+12 -5.78796e+12 -5.64436e+12 -7.78685e+12 -6.86023e+12 -5.44273e+12 -5.05864e+12 -5.94145e+12 -3.59434e+12 -4.31639e+12 -12549700000.0 -3.19314e+12 -5.4169e+12 -7.58221e+12 -7.99951e+12 -6.95496e+12 -7.82663e+12 -7.62881e+12 -4.96223e+12 -7.28274e+12 -3.11638e+12 -6.12356e+12 -6.55513e+12 -3.92154e+12 -3.24556e+12 -5.99907e+12 -7.00496e+12 -7.02261e+12 -1.16809e+13 -6.92526e+12 -8.06382e+12 -8.18269e+12 -8.66909e+12 -1.07938e+13 -5.99294e+12 -5.53081e+12 -8.39885e+12 -8.63199e+12 -1.07305e+13 -8.83219e+12 -9.58264e+12 -5.669e+12 -6.12527e+12 -1.01633e+13 -8.14745e+12 -9.46899e+12 -9.29634e+12 -5.16055e+12 -3.58158e+12 -9.14479e+12 -6.57088e+12 -4.46805e+12 -12549700000.0 -3.31237e+12 -3.5633e+12 -7.61384e+12 -7.27268e+12 -4.44479e+12 -4.94383e+12 -9.21158e+12 -8.29787e+12 -8.75111e+12 -6.50007e+12 -7.46755e+12 -6.95718e+12 -8.37195e+12 -5.39867e+12 -6.82832e+12 -7.92911e+12 -1.04889e+13 -7.60236e+12 -5.88911e+12 -6.99067e+12 -7.61772e+12 -8.97288e+12 -7.4504e+12 -1.60827e+13 -6.38951e+12 -5.99688e+12 -9.55424e+12 -8.31743e+12 -4.56835e+12 -3.45126e+12 -8.69368e+12 -5.17362e+12 -7.57495e+12 -9.51601e+12 -7.33944e+12 -5.05589e+12 -6.65123e+12 -5.18878e+12 -2.55832e+12 -5.61194e+12 -5.50048e+12 -9.53533e+12 -3.8478e+12 -3.991e+12 -12549700000.0 -1.92346e+12 -3.28934e+12 -3.8189e+12 -7.22726e+12 -5.18912e+12 -9.55208e+12 -6.3042e+12 -4.40302e+12 -6.80203e+12 -5.10497e+12 -7.28193e+12 -5.10454e+12 -8.97572e+12 -6.40332e+12 -5.00038e+12 -5.09282e+12 -7.21202e+12 -1.00952e+13 -1.09071e+13 -5.9222e+12 -8.2206e+12 -4.56046e+12 -5.22729e+12 -5.80968e+12 -4.49945e+12 -5.23046e+12 -6.54331e+12 -1.03713e+13 -8.49315e+12 -5.60456e+12 -5.89733e+12 -6.26264e+12 -8.85378e+12 -5.90869e+12 -7.92138e+12 -6.77764e+12 -4.7905e+12 -8.69311e+12 -1.00842e+13 -5.58578e+12 -6.01806e+12 -4.11712e+12 -6.42815e+12 -5.0829e+12 -7.47019e+12 -8.93573e+12 -9.06081e+12 -6.23227e+12 -7.05249e+12 -4.24768e+12 -5.05791e+12 -5.95437e+12 -8.52866e+12 -7.20683e+12 -1.07692e+13 -5.49746e+12 -6.60388e+12 -5.58307e+12 -4.22233e+12 -4.78499e+12 -4.36924e+12 -7.34862e+12 -4.765e+12 -8.60005e+12 -7.53292e+12 -8.27568e+12 -4.28632e+12 -3.95725e+12 -5.20884e+12 -2.81927e+12 -5.102e+12 -1.12547e+13 -6.80296e+12 -7.66741e+12 -4.63435e+12 -7.62742e+12 -9.48943e+12 -6.08978e+12 -4.42238e+12 -7.62663e+12 -7.4201e+12 -1.26991e+13 -5.54537e+12 -1.06146e+13 -1.05703e+13 -7.63725e+12 -7.66178e+12 -5.94163e+12 -5.16516e+12 -7.33356e+12 -7.59746e+12 -6.59395e+12 -6.62414e+12 -5.96223e+12 -6.34224e+12 -5.25222e+12 -9.25198e+12 -3.27682e+12 -1.19687e+13 -6.05539e+12 -6.89087e+12 -7.67707e+12 -1.01235e+13 -1.23227e+13 -5.36978e+12 -7.5991e+12 -8.27833e+12 -4.87974e+12 -1.14429e+13 -5.46763e+12 -6.42869e+12 -7.66276e+12 -3.29987e+12 -4.61676e+12 -5.09303e+12 -7.57014e+12 -6.71165e+12 -7.00567e+12 -8.41979e+12 -4.29921e+12 -8.57805e+12 -1.25211e+13 -7.16521e+12 -5.5647e+12 -8.48787e+12 -9.03514e+12 -8.89834e+12 -7.94698e+12 -5.37003e+12 -3.87437e+12 -7.52522e+12 -5.09797e+12 -4.87281e+12 -5.31576e+12 -1.26358e+13 -8.90386e+12 -9.45529e+12 -5.38816e+12 -7.82932e+12 -7.81707e+12 -8.43428e+12 -6.18129e+12 -3.57215e+12 -5.32955e+12 -1.056e+13 -7.32941e+12 -8.69262e+12 -7.35892e+12 -7.46285e+12 -1.06397e+13 -8.18774e+12 -6.51772e+12 -7.33089e+12 -5.31459e+12 -1.29909e+13 -8.70011e+12 -9.1808e+12 -6.31686e+12 -1.07689e+13 -1.12847e+13 -6.88235e+12 -6.38884e+12 -8.42382e+12 -7.08708e+12 -6.62183e+12 -7.2278e+12 -9.72441e+12 -6.86023e+12 -4.93702e+12 -3.54883e+12 -9.7419e+12 -1.0751e+13 -5.28294e+12 -8.18161e+12 -8.39386e+12 -8.6924e+12 -4.97921e+12 -8.24207e+12 -1.01451e+13 -7.45134e+12 -7.77095e+12 -1.03737e+13 -7.3216e+12 -4.01065e+12 -9.21993e+12 -6.2853e+12 -5.06533e+12 -5.66874e+12 -7.62357e+12 -9.01171e+12 -8.81142e+12 -3.47106e+12 -5.93408e+12 -8.27531e+12 -9.98264e+12 -6.67515e+12 -5.86173e+12 -5.58715e+12 -4.93115e+12 -8.67575e+12 -1.15759e+13 -1.05314e+13 -1.04181e+13 -5.01164e+12 -5.77045e+12 -9.07312e+12 -1.05408e+13 -8.81506e+12 -1.32238e+13 -6.92083e+12 -5.09938e+12 -1.20073e+13 -4.05451e+12 -7.72566e+12 -6.23358e+12 -3.22888e+12 -5.66682e+12 -7.43269e+12 -1.07333e+13 -1.06884e+13 -8.2929e+12 -5.55116e+12 -1.28444e+13 -7.20526e+12 -5.6978e+12 -8.20018e+12 -1.09279e+13 -8.51792e+12 -3.67888e+12 -3.19893e+12 -12549700000.0 -4.23125e+12 -5.97487e+12 -2.8252e+12 -5.88947e+12 -4.54423e+12 -7.58973e+12 -5.17008e+12 -6.13708e+12 -9.01352e+12 -7.41031e+12 -8.97228e+12 -5.89273e+12 -6.93494e+12 -6.64757e+12 -5.99342e+12 -7.70097e+12 -1.16653e+13 -1.24199e+13 -8.17191e+12 -9.0213e+12 -8.04961e+12 -4.20548e+12 -1.05177e+13 -9.29274e+12 -7.98024e+12 -8.23926e+12 -6.17285e+12 -6.81824e+12 -5.43712e+12 -9.6013e+12 -9.36986e+12 -7.227e+12 -9.30431e+12 -7.11465e+12 -5.90899e+12 -8.02482e+12 -6.95656e+12 -6.90433e+12 -5.33602e+12 -8.72834e+12 -5.35621e+12 -9.03826e+12 -6.68249e+12 -8.09176e+12 -5.78709e+12 -9.72168e+12 -5.29098e+12 -5.64223e+12 -9.23325e+12 -1.05481e+13 -8.70628e+12 -1.28895e+13 -5.63731e+12 -8.72718e+12 -9.68155e+12 -4.18457e+12 -9.21049e+12 -3.80397e+12 -7.90645e+12 -6.72378e+12 -9.74095e+12 -9.07472e+12 -1.01808e+13 -1.09458e+13 -6.61675e+12 -6.6681e+12 -6.40419e+12 -9.03304e+12 -3.91801e+12 -1.21145e+13 -5.24869e+12 -9.88946e+12 -1.00314e+13 -5.87241e+12 -7.48076e+12 -1.18605e+13 -1.46931e+13 -4.34146e+12 -6.53063e+12 -6.02937e+12 -4.98066e+12 -8.26005e+12 -1.02764e+13 -1.00164e+13 -1.11071e+13 -7.71947e+12 -5.11159e+12 -7.69746e+12 -5.85286e+12 -1.15194e+13 -8.82172e+12 -9.20201e+12 -8.21688e+12 -1.02633e+13 -6.93467e+12 -3.67936e+12 -5.97046e+12 -1.53883e+13 -8.7563e+12 -6.49302e+12 -1.04728e+13 -9.94812e+12 -6.37958e+12 -1.22839e+13 -6.59494e+12 -1.19114e+13 -7.95267e+12 -7.52128e+12 -2.94832e+12 -9.71875e+12 -9.21665e+12 -4.67725e+12 -8.50828e+12 -7.2706e+12 -8.8074e+12 -1.26426e+13 -5.24014e+12 -5.162e+12 -4.42435e+12 -5.06226e+12 -6.05098e+12 -3.37653e+12 -7.98228e+12 -5.28258e+12 -5.76178e+12 -1.09419e+13 -9.5174e+12 -8.18805e+12 -7.70781e+12 -1.01385e+13 -2.44969e+12 -4.23299e+12 -1.06221e+13 -7.36388e+12 -5.77158e+12 -7.69196e+12 -8.6342e+12 -9.20939e+12 -5.46667e+12 -3.25714e+12 -12549700000.0 -7.07563e+12 -1.02274e+13 -9.69231e+12 -1.17789e+13 -6.09755e+12 -9.71571e+12 -6.03942e+12 -5.33318e+12 -7.53046e+12 -8.76446e+12 -5.27049e+12 -1.03912e+13 -5.67768e+12 -8.73607e+12 -1.05484e+13 -5.57997e+12 -8.45395e+12 -8.52446e+12 -3.72202e+12 -7.02842e+12 -6.34825e+12 -7.40636e+12 -3.52522e+12 -3.78269e+12 -7.45252e+12 -6.13175e+12 -4.40152e+12 -3.50768e+12 -6.22068e+12 -3.98598e+12 -7.74719e+12 -5.64271e+12 -5.74504e+12 -7.0762e+12 -5.54826e+12 -4.50516e+12 -8.66629e+12 -5.57188e+12 -9.80497e+12 -9.54285e+12 -8.13237e+12 -8.74719e+12 -7.23661e+12 -6.70885e+12 -12549700000.0 -6.74239e+12 -6.13176e+12 -3.52775e+12 -9.28132e+12 -6.54091e+12 -1.20126e+13 -9.62041e+12 -7.39218e+12 -7.90855e+12 -6.96533e+12 -8.29487e+12 -6.67946e+12 -1.10622e+13 -5.10549e+12 -7.62906e+12 -4.39767e+12 -7.99661e+12 -5.82992e+12 -8.62135e+12 -5.02394e+12 -7.46133e+12 -7.79611e+12 -9.77338e+12 -1.33773e+13 -4.91329e+12 -8.09441e+12 -7.69929e+12 -6.42509e+12 -6.4906e+12 -6.15779e+12 -4.85551e+12 -8.04974e+12 -1.01718e+13 -5.25664e+12 -7.46051e+12 -6.06211e+12 -5.3746e+12 -8.9047e+12 -8.83162e+12 -1.08929e+13 -4.83345e+12 -7.03215e+12 -7.64463e+12 -6.44144e+12 -4.94289e+12 -7.2823e+12 -7.43974e+12 -8.9795e+12 -1.0832e+13 -5.14149e+12 -8.72707e+12 -12549700000.0 -9.22068e+12 -6.34314e+12 -9.27765e+12 -7.25849e+12 -9.45744e+12 -3.28064e+12 -1.09749e+13 -6.62969e+12 -5.20742e+12 -5.13478e+12 -8.62043e+12 -1.25546e+13 -1.07071e+13 -7.63126e+12 -6.87668e+12 -1.19483e+13 -6.30734e+12 -7.64859e+12 -5.75616e+12 -7.26109e+12 -5.41581e+12 -1.02569e+13 -9.39694e+12 -7.19075e+12 -1.02749e+13 -6.62905e+12 -1.13616e+13 -1.05172e+13 -1.07932e+13 -6.14759e+12 -4.74527e+12 -9.90648e+12 -7.00455e+12 -6.56092e+12 -8.18145e+12 -8.27693e+12 -9.76658e+12 -7.07889e+12 -3.10398e+12 -8.66689e+12 -4.73412e+12 -7.34552e+12 -9.70416e+12 -1.02677e+13 -1.23788e+13 -7.91735e+12 -1.13541e+13 -7.69296e+12 -5.41639e+12 -1.12074e+13 -6.16099e+12 -5.1452e+12 -6.13863e+12 -6.41654e+12 -7.79245e+12 -1.08688e+13 -9.256e+12 -1.12845e+13 -6.51291e+12 -6.767e+12 -6.43906e+12 -4.76491e+12 -6.85318e+12 -6.0057e+12 -7.28207e+12 -9.89405e+12 -8.79354e+12 -5.32212e+12 -1.09672e+13 -1.06778e+13 -1.01618e+13 -2.57526e+12 -6.85354e+12 -9.2076e+12 -1.01291e+13 -1.57437e+13 -5.94822e+12 -7.14026e+12 -6.57252e+12 -1.0496e+13 -1.36066e+13 -5.45476e+12 -1.18044e+13 -1.30919e+13 -7.28968e+12 -6.46071e+12 -9.08463e+12 -7.44349e+12 -9.18008e+12 -7.05938e+12 -8.16707e+12 -7.80864e+12 -9.30454e+12 -8.50197e+12 -1.08657e+13 -1.43539e+13 -8.44038e+12 -3.64528e+12 -6.27149e+12 -9.07505e+12 -6.88868e+12 -4.16987e+12 -5.64576e+12 -8.41443e+12 -3.35174e+12 -8.08648e+12 -7.08839e+12 -9.46682e+12 -1.1341e+13 -1.52216e+13 -8.41268e+12 -1.04429e+13 -9.03016e+12 -1.13201e+13 -5.80516e+12 -6.58988e+12 -1.26309e+13 -1.26062e+13 -1.4167e+13 -5.13102e+12 -6.29844e+12 -1.43126e+13 -7.62952e+12 -7.28504e+12 -5.85951e+12 -7.82285e+12 -5.63368e+12 -1.21493e+13 -8.72219e+12 -9.26032e+12 -8.6209e+12 -1.06812e+13 -9.27413e+12 -5.28827e+12 -1.32246e+13 -9.36345e+12 -8.67969e+12 -1.01822e+13 -3.77793e+12 -7.62072e+12 -4.61696e+12 -8.14133e+12 -8.24766e+12 -7.36603e+12 -6.55844e+12 -4.56007e+12 -5.8843e+12 -1.03468e+13 -1.191e+13 -8.5829e+12 -1.24785e+13 -9.80023e+12 -7.25575e+12 -2.05213e+12 -5.13586e+12 -2.93135e+12 -5.23713e+12 -7.31421e+12 -1.13176e+13 -9.11003e+12 -7.77051e+12 -8.04899e+12 -7.9209e+12 -8.98813e+12 -5.97113e+12 -6.56237e+12 -1.12034e+13 -5.73079e+12 -1.01047e+13 -2.97077e+12 -3.76169e+12 -3.93176e+12 -3.82725e+12 -6.97682e+12 -1.16427e+13 -9.04882e+12 -6.62306e+12 -7.97503e+12 -6.06589e+12 -1.14547e+13 -8.32923e+12 -7.592e+12 -3.09927e+12 -6.34505e+12 -5.49294e+12 -4.485e+12 -8.72066e+12 -8.40399e+12 -9.59096e+12 -7.34831e+12 -6.68282e+12 -5.12924e+12 -7.67593e+12 -5.1763e+12 -9.68974e+12 -7.15499e+12 -7.36706e+12 -6.99097e+12 -1.29743e+13 -4.71918e+12 -4.49526e+12 -8.25072e+12 -9.14412e+12 -1.19145e+13 -1.23519e+13 -8.97925e+12 -6.06323e+12 -1.12423e+13 -8.02574e+12 -5.89943e+12 -8.34979e+12 -6.19302e+12 -8.09468e+12 -9.19225e+12 -8.13414e+12 -5.44594e+12 -6.87798e+12 -5.21783e+12 -7.25933e+12 -7.03134e+12 -9.57605e+12 -7.29328e+12 -7.57308e+12 -6.89315e+12 -7.00749e+12 -8.18312e+12 -1.24457e+13 -3.64393e+12 -7.23627e+12 -7.21339e+12 -3.73909e+12 -1.27072e+13 -9.18856e+12 -7.42387e+12 -8.34552e+12 -9.65903e+12 -4.87334e+12 -1.15104e+13 -5.06554e+12 -9.33392e+12 -1.14794e+13 -8.93205e+12 -1.38095e+13 -5.34634e+12 -1.33809e+13 -4.2503e+12 -6.97406e+12 -8.22425e+12 -5.71733e+12 -4.77699e+12 -8.68739e+12 -9.13957e+12 -1.03854e+13 -4.5124e+12 -9.80227e+12 -1.15015e+13 -8.12897e+12 -1.51606e+13 -1.01622e+13 -8.29971e+12 -6.8065e+12 -1.42882e+13 -6.78309e+12 -5.14499e+12 -4.44933e+12 -6.76543e+12 -1.11128e+13 -7.38101e+12 -5.99148e+12 -7.9041e+12 -5.71613e+12 -7.60548e+12 -4.72853e+12 -5.3586e+12 -6.87661e+12 -7.93861e+12 -8.30264e+12 -7.68094e+12 -8.17341e+12 -1.32189e+13 -6.64435e+12 -6.04841e+12 -8.21114e+12 -6.5119e+12 -1.25168e+13 -8.81253e+12 -6.99375e+12 -5.34115e+12 -8.9655e+12 -7.34304e+12 -7.84696e+12 -7.32872e+12 -3.80803e+12 -4.52035e+12 -9.65732e+12 -9.387e+12 -8.66017e+12 -7.90063e+12 -9.54613e+12 -6.87296e+12 -1.06136e+13 -9.88499e+12 -4.24315e+12 -5.66858e+12 -9.95726e+12 -8.93954e+12 -8.56401e+12 -5.45493e+12 -1.00025e+13 -1.2678e+13 -6.68851e+12 -7.70698e+12 -8.27252e+12 -8.07809e+12 -7.01025e+12 -1.03194e+13 -3.10331e+12 -7.61399e+12 -8.37828e+12 -1.1993e+13 -9.8664e+12 -1.11233e+13 -8.79873e+12 -1.14661e+13 -4.89751e+12 -8.91701e+12 -9.24426e+12 -8.98736e+12 -8.56225e+12 -4.80273e+12 -7.29822e+12 -7.9863e+12 -1.07867e+13 -1.04796e+13 -7.83808e+12 -6.11458e+12 -1.28941e+13 -5.19041e+12 -5.33428e+12 -8.57243e+12 -7.94548e+12 -1.3011e+13 -9.56518e+12 -1.03323e+13 -8.97121e+12 -8.34484e+12 -6.76119e+12 -5.86312e+12 -6.0428e+12 -8.2268e+12 -1.39052e+13 -5.48916e+12 -6.65301e+12 -8.1781e+12 -1.08796e+13 -1.0295e+13 -8.01768e+12 -7.01917e+12 -1.04061e+13 -8.50971e+12 -5.13661e+12 -5.20159e+12 -8.74153e+12 -1.36145e+13 -1.25029e+13 -6.51429e+12 -5.4884e+12 -8.21876e+12 -6.95325e+12 -7.35957e+12 -5.12663e+12 -5.35364e+12 -4.86885e+12 -7.47841e+12 -8.7399e+12 -7.54241e+12 -6.51374e+12 -1.08937e+13 -9.3762e+12 -8.72064e+12 -5.51393e+12 -8.5035e+12 -5.1256e+12 -7.03978e+12 -3.73318e+12 -4.07172e+12 -1.07936e+13 -8.95177e+12 -1.19648e+13 -6.20533e+12 -1.03465e+13 -6.11901e+12 -1.16315e+13 -6.23829e+12 -5.2522e+12 -8.04549e+12 -7.16671e+12 -8.95817e+12 -1.1043e+13 -8.56616e+12 -1.43698e+13 -8.82161e+12 -6.72127e+12 -9.57358e+12 -9.06078e+12 -8.19138e+12 -1.4775e+13 -5.19684e+12 -6.77838e+12 -3.62638e+12 -1.09746e+13 -1.45041e+13 -1.06931e+13 -1.18276e+13 -4.14745e+12 -7.27093e+12 -4.20801e+12 -8.18822e+12 -6.78809e+12 -8.62384e+12 -9.59296e+12 -6.15063e+12 -6.22124e+12 -8.27085e+12 -1.0333e+13 -3.77315e+12 -6.45909e+12 -9.53919e+12 -5.66677e+12 -1.00573e+13 -8.80465e+12 -7.03504e+12 -1.34686e+13 -9.59711e+12 -8.95475e+12 -4.62996e+12 -6.93281e+12 -5.36333e+12 -1.05767e+13 -8.07347e+12 -7.18597e+12 -8.60685e+12 -8.87785e+12 -7.86771e+12 -7.50752e+12 -1.10239e+13 -6.489e+12 -7.26635e+12 -8.05357e+12 -3.54813e+12 -7.45615e+12 -6.8547e+12 -9.83462e+12 -1.25196e+13 -6.48631e+12 -4.9685e+12 -5.54146e+12 -1.37946e+13 -6.18829e+12 -1.08734e+13 -1.14201e+13 -7.20698e+12 -6.80305e+12 -5.33819e+12 -4.25276e+12 -7.16616e+12 -1.0604e+13 -6.96406e+12 -9.36192e+12 -6.98668e+12 -8.44931e+12 -6.41264e+12 -8.20739e+12 -1.01177e+13 -1.0388e+13 -8.26186e+12 -4.59426e+12 -8.67228e+12 -1.15301e+13 -6.86717e+12 -5.79434e+12 -9.5182e+12 -1.06214e+13 -6.15454e+12 -3.14556e+12 -7.8507e+12 -5.36257e+12 -7.0925e+12 -5.19891e+12 -9.32965e+12 -4.83052e+12 -3.40861e+12 -8.3911e+12 -5.08122e+12 -5.13027e+12 -9.49645e+12 -7.23266e+12 -1.17167e+13 -1.22719e+13 -1.12671e+13 -5.49784e+12 -7.75816e+12 -1.48157e+13 -1.18419e+13 -1.44006e+13 -9.15023e+12 -6.25742e+12 -9.87088e+12 -5.34969e+12 -9.35427e+12 -7.85673e+12 -1.20978e+13 -1.15463e+13 -8.27636e+12 -5.27563e+12 -1.09342e+13 -1.00252e+13 -1.13753e+13 -8.56242e+12 -9.83911e+12 -5.75293e+12 -9.52647e+12 -1.05309e+13 -7.371e+12 -4.93379e+12 -7.78825e+12 -1.04542e+13 -9.55123e+12 -9.57416e+12 -1.26033e+13 -8.67275e+12 -6.9841e+12 -9.19961e+12 -8.42859e+12 -6.27349e+12 -8.16775e+12 -1.04328e+13 -7.51805e+12 -8.34068e+12 -6.92435e+12 -5.26241e+12 -9.42346e+12 -6.99225e+12 -1.40289e+13 -8.99739e+12 -3.88012e+12 -9.64269e+12 -8.20643e+12 -7.63627e+12 -7.68401e+12 -5.94244e+12 -6.96702e+12 -8.76011e+12 -8.20469e+12 -7.59834e+12 -7.16296e+12 -1.23167e+13 -2.95913e+12 -8.81188e+12 -8.91925e+12 -5.83109e+12 -5.24758e+12 -4.61704e+12 -5.96483e+12 -6.91012e+12 -7.18505e+12 -1.27661e+13 -7.50675e+12 -4.68965e+12 -5.82414e+12 -5.52844e+12 -6.6118e+12 -8.96063e+12 -7.62771e+12 -4.02172e+12 -5.75933e+12 -1.34879e+13 -7.09371e+12 -6.81909e+12 -5.871e+12 -7.70352e+12 -7.56286e+12 -7.38735e+12 -3.91747e+12 -7.09447e+12 -7.93039e+12 -7.05855e+12 -7.32263e+12 -7.4538e+12 -6.26397e+12 -5.19237e+12 -8.83931e+12 -7.18085e+12 -6.41277e+12 -1.02856e+13 -4.32408e+12 -7.05133e+12 -5.45384e+12 -7.77627e+12 -1.1854e+13 -6.98131e+12 -1.20017e+13 -6.56434e+12 -5.02388e+12 -8.27402e+12 -7.43698e+12 -8.77135e+12 -9.63792e+12 -4.21229e+12 -8.16567e+12 -1.27023e+13 -1.04013e+13 -7.54639e+12 -3.33942e+12 -1.22464e+13 -1.1268e+13 -9.036e+12 -7.62697e+12 -1.03019e+13 -7.71122e+12 -7.69092e+12 -8.10429e+12 -5.5144e+12 -7.85205e+12 -9.24823e+12 -7.95799e+12 -5.25311e+12 -8.00024e+12 -4.57257e+12 -9.77118e+12 -8.31341e+12 -9.61542e+12 -1.13489e+13 -6.18815e+12 -1.18569e+13 -7.17926e+12 -8.23883e+12 -1.11623e+13 -5.16505e+12 -7.83611e+12 -5.31046e+12 -1.17194e+13 -4.87199e+12 -5.72007e+12 -5.61836e+12 -7.08884e+12 -1.08098e+13 -8.5472e+12 -2.9927e+12 -1.06232e+13 -1.21385e+13 -7.98128e+12 -3.38074e+12 -8.62603e+12 -4.72859e+12 -1.12692e+13 -1.11382e+13 -1.11633e+13 -6.20675e+12 -1.01958e+13 -8.31677e+12 -9.73371e+12 -1.02275e+13 -7.23265e+12 -7.20618e+12 -5.02045e+12 -1.39722e+13 -5.11106e+12 -6.30052e+12 -8.8662e+12 -8.01545e+12 -8.74386e+12 -4.98897e+12 -7.29098e+12 -8.11458e+12 -1.10371e+13 -6.94912e+12 -6.50422e+12 -8.31043e+12 -7.26499e+12 -7.86291e+12 -9.16332e+12 -7.26184e+12 -4.04984e+12 -6.46381e+12 -5.47133e+12 -7.88827e+12 -3.49383e+12 -7.46364e+12 -8.02591e+12 -7.34491e+12 -5.7514e+12 -7.46618e+12 -7.89487e+12 -3.19707e+12 -8.94101e+12 -8.8285e+12 -9.75046e+12 -1.00754e+13 -1.30105e+13 -8.99416e+12 -5.28756e+12 -6.56257e+12 -5.72995e+12 -1.62129e+13 -1.12464e+13 -8.7989e+12 -9.7002e+12 -3.37436e+12 -8.82289e+12 -6.39516e+12 -1.03801e+13 -7.04835e+12 -1.07979e+13 -4.97653e+12 -1.02589e+13 -6.14356e+12 -7.41969e+12 -1.16426e+13 -9.2918e+12 -9.08545e+12 -4.08863e+12 -1.50893e+13 -1.20918e+13 -1.26078e+13 -8.58996e+12 -7.13414e+12 -7.99202e+12 -8.84261e+12 -6.72234e+12 -7.81138e+12 -6.10948e+12 -6.2357e+12 -9.41334e+12 -7.99428e+12 -7.12935e+12 -1.03568e+13 -5.4127e+12 -6.59933e+12 -4.04389e+12 -8.88888e+12 -8.48938e+12 -3.01522e+12 -2.79714e+12 -8.68593e+12 -8.19059e+12 -7.08773e+12 -9.56204e+12 -1.36523e+13 -1.23964e+13 -2.78752e+12 -1.06133e+13 -1.495e+13 -6.46007e+12 -5.04397e+12 -6.8482e+12 -8.51791e+12 -6.13728e+12 -1.13316e+13 -8.29335e+12 -8.40366e+12 -7.87482e+12 -9.39932e+12 -9.47976e+12 -5.73201e+12 -6.55367e+12 -1.54745e+13 -6.55305e+12 -1.03254e+13 -6.90142e+12 -6.91528e+12 -6.90852e+12 -6.49615e+12 -9.22846e+12 -5.76092e+12 -9.33231e+12 -7.02789e+12 -6.84164e+12 -1.36224e+12 -6.59772e+12 -1.07864e+13 -7.29607e+12 -6.39698e+12 -4.21596e+12 -7.0452e+12 -2.25637e+12 -4.82383e+12 -7.1065e+12 -2.52681e+12 -7.21782e+12 -8.0977e+12 -6.16375e+12 -4.10868e+12 -8.77381e+12 -4.48613e+12 -6.76222e+12 -4.7022e+12 -7.50958e+12 -6.69743e+12 -7.75824e+12 -3.5947e+12 -5.79881e+12 -5.88623e+12 -7.80762e+12 -7.31509e+12 -7.23362e+12 -5.65664e+12 -1.02663e+13 -8.36683e+12 -6.26287e+12 -7.12205e+12 -5.46308e+12 -1.02164e+13 -6.58072e+12 -3.98585e+12 -8.47298e+12 -5.71601e+12 -7.95041e+12 -4.01127e+12 -5.00777e+12 -5.2796e+12 -8.33628e+12 -4.13937e+12 -7.78328e+12 -5.9253e+12 -9.66613e+12 -7.68158e+12 -8.08016e+12 -9.34992e+12 -5.37788e+12 -5.35388e+12 -7.07805e+12 -8.68865e+12 -1.26308e+13 -6.08058e+12 -5.15188e+12 -6.05796e+12 -6.90383e+12 -7.08349e+12 -5.87246e+12 -7.54941e+12 -7.49144e+12 -1.03489e+13 -7.46517e+12 -8.35492e+12 -5.1958e+12 -4.8164e+12 -1.36338e+13 -7.49112e+12 -5.79963e+12 -6.79478e+12 -8.8055e+12 -5.23744e+12 -7.46467e+12 -7.06581e+12 -9.73033e+12 -5.28265e+12 -5.80579e+12 -4.73658e+12 -2.85143e+12 -6.29666e+12 -6.73781e+12 -8.06747e+12 -6.37764e+12 -8.05734e+12 -8.40518e+12 -1.21658e+13 -4.83776e+12 -9.38189e+12 -7.07689e+12 -8.65539e+12 -6.3008e+12 -5.30627e+12 -8.54265e+12 -8.45926e+12 -1.07419e+13 -1.00159e+13 -1.01381e+13 -7.25391e+12 -8.74624e+12 -6.19201e+12 -7.18316e+12 -6.76685e+12 -5.39126e+12 -1.03802e+13 -8.58219e+12 -6.67212e+12 -8.32798e+12 -1.04264e+13 -1.24738e+13 -3.8219e+12 -4.55524e+12 -5.81508e+12 -6.58984e+12 -3.98498e+12 -5.92629e+12 -9.44525e+12 -8.32898e+12 -1.14695e+13 -7.47161e+12 -6.19406e+12 -7.4562e+12 -6.67902e+12 -6.69924e+12 -7.57521e+12 -5.4913e+12 -3.5724e+12 -5.86981e+12 -8.55253e+12 -7.89265e+12 -7.18073e+12 -7.55431e+12 -5.65031e+12 -7.48153e+12 -1.10959e+13 -6.35549e+12 -4.02569e+12 -5.77265e+12 -4.83239e+12 -5.01011e+12 -4.43031e+12 -7.83375e+12 -1.0536e+13 -1.28768e+13 -6.24897e+12 -5.85053e+12 -1.10819e+13 -5.54034e+12 -6.91636e+12 -6.29456e+12 -1.35716e+13 -7.53703e+12 -9.48691e+12 -1.39815e+13 -8.27663e+12 -7.21743e+12 -1.03095e+13 -4.88337e+12 -1.1113e+13 -8.60846e+12 -7.80265e+12 -1.04795e+13 -6.71677e+12 -1.3764e+13 -5.03714e+12 -4.02324e+12 -3.77188e+12 -6.58727e+12 -6.6687e+12 -7.80546e+12 -5.54415e+12 -8.7129e+12 -6.06084e+12 -8.54806e+12 -7.14166e+12 -9.56208e+12 -7.22348e+12 -9.9626e+12 -7.92793e+12 -3.58292e+12 -9.44149e+12 -9.93967e+12 -1.01108e+13 -9.65971e+12 -1.04073e+13 -7.68792e+12 -8.63459e+12 -8.80342e+12 -1.10096e+13 -6.06427e+12 -5.29912e+12 -8.54354e+12 -4.12708e+12 -5.75503e+12 -5.43194e+12 -5.29369e+12 -4.21457e+12 -4.73973e+12 -6.06085e+12 -7.25832e+12 -1.04189e+13 -8.52816e+12 -1.95388e+13 -4.517e+12 -6.5315e+12 -6.87176e+12 -1.53347e+13 -8.77886e+12 -5.30587e+12 -1.13793e+13 -8.17058e+12 -8.2797e+12 -5.03082e+12 -6.88545e+12 -5.74819e+12 -6.91521e+12 -4.7947e+12 -1.19921e+13 -5.02741e+12 -7.34011e+12 -8.54743e+12 -2.42989e+12 -4.15419e+12 -1.15693e+13 -1.05508e+13 -6.90419e+12 -3.30589e+12 -8.84184e+12 -7.11125e+12 -7.66676e+12 -8.45781e+12 -5.89118e+12 -4.93083e+12 -6.31673e+12 -8.65714e+12 -5.37704e+12 -7.23704e+12 -6.79536e+12 -9.99309e+12 -6.00453e+12 -5.93477e+12 -4.46388e+12 -5.48997e+12 -7.86594e+12 -6.73512e+12 -3.90362e+12 -3.41951e+12 -4.33447e+12 -8.2055e+12 -5.95337e+12 -7.32888e+12 -7.65037e+12 -7.05856e+12 -8.10405e+12 -7.26556e+12 -8.91202e+12 -9.04581e+12 -5.41266e+12 -6.40895e+12 -3.21274e+12 -4.66782e+12 -7.04032e+12 -8.051e+12 -8.84758e+12 -8.65979e+12 -8.98398e+12 -7.82269e+12 -6.9895e+12 -7.71903e+12 -4.04389e+12 -7.26561e+12 -4.86609e+12 -4.72878e+12 -4.3008e+12 -6.15811e+12 -7.55468e+12 -6.65277e+12 -1.02103e+13 -6.52844e+12 -7.19184e+12 -8.44912e+12 -1.37602e+13 -4.69966e+12 -4.70411e+12 -3.61805e+12 -5.47711e+12 -4.26817e+12 -1.11551e+13 -4.7943e+12 -6.14164e+12 -7.44229e+12 -6.2093e+12 -5.6754e+12 -1.07211e+13 -7.91988e+12 -1.39116e+13 -6.68048e+12 -8.5207e+12 -4.48073e+12 -4.86493e+12 -9.01669e+12 -8.32723e+12 -5.15395e+12 -1.40236e+13 -6.06109e+12 -7.37112e+12 -1.26604e+13 -7.79113e+12 -8.22199e+12 -5.70876e+12 -6.14408e+12 -6.48689e+12 -6.05861e+12 -8.68629e+12 -7.8421e+12 -8.53554e+12 -5.97252e+12 -6.5823e+12 -5.94437e+12 -5.81289e+12 -5.58317e+12 -4.53831e+12 -6.10062e+12 -7.46961e+12 -8.29492e+12 -6.41188e+12 -4.93117e+12 -3.04381e+12 -4.89149e+12 -5.23859e+12 -8.90836e+12 -7.34744e+12 -7.76428e+12 -1.35665e+13 -7.28301e+12 -1.13979e+13 -6.35454e+12 -6.66788e+12 -7.61967e+12 -8.57305e+12 -7.15607e+12 -1.12552e+13 -5.56886e+12 -6.32851e+12 -7.27994e+12 -3.53736e+12 -7.74321e+12 -5.8604e+12 -5.70305e+12 -7.98565e+12 -6.50196e+12 -8.20124e+12 -2.32853e+12 -3.14326e+12 -5.17446e+12 -5.78179e+12 -4.69819e+12 -6.90106e+12 -4.59758e+12 -5.69118e+12 -4.59347e+12 -6.03188e+12 -6.88001e+12 -1.99702e+12 -5.02142e+12 -9.73364e+12 -7.29525e+12 -8.08389e+12 -6.14602e+12 -5.4359e+12 -6.02233e+12 -1.00107e+13 -7.95852e+12 -1.00818e+13 -6.61471e+12 -6.81629e+12 -1.18127e+13 -4.31874e+12 -7.1518e+12 -8.30462e+12 -4.48257e+12 -5.27433e+12 -7.66493e+12 -6.16843e+12 -5.07776e+12 -6.6235e+12 -5.71391e+12 -4.50767e+12 -6.89508e+12 -4.82945e+12 -5.31887e+12 -5.95677e+12 -5.09828e+12 -7.33722e+12 -8.48856e+12 -7.13773e+12 -5.88207e+12 -5.35615e+12 -6.48926e+12 -7.89968e+12 -6.5766e+12 -7.73464e+12 -5.46347e+12 -6.54451e+12 -8.08084e+12 -8.38883e+12 -8.2935e+12 -5.09906e+12 -7.89294e+12 -1.00513e+13 -6.32382e+12 -7.69471e+12 -1.05521e+13 -1.23367e+13 -8.22776e+12 -8.29886e+12 -6.444e+12 -3.35249e+12 -8.58657e+12 -3.66089e+12 -4.97084e+12 -1.11187e+13 -6.05714e+12 -8.38551e+12 -5.3035e+12 -8.8659e+12 -8.52349e+12 -5.90433e+12 -9.45978e+12 -1.37084e+13 -4.45781e+12 -4.49961e+12 -9.09491e+12 -7.02023e+12 -1.02691e+13 -7.42768e+12 -4.1535e+12 -1.17163e+13 -4.48755e+12 -9.02296e+12 -6.66239e+12 -4.86646e+12 -6.13636e+12 -8.04307e+12 -9.38124e+12 -6.96709e+12 -7.02033e+12 -6.90139e+12 -1.10639e+13 -9.47553e+12 -4.99419e+12 -5.28984e+12 -3.71921e+12 -5.6017e+12 -8.78157e+12 -4.46401e+12 -6.92402e+12 -5.57182e+12 -5.83343e+12 -6.76859e+12 -4.56425e+12 -7.23806e+12 -8.09231e+12 -1.08238e+13 -6.55938e+12 -7.44491e+12 -3.80985e+12 -3.62889e+12 -4.07351e+12 -7.77493e+12 -6.24115e+12 -5.56948e+12 -3.76125e+12 -7.18856e+12 -7.35533e+12 -5.99396e+12 -5.71627e+12 -7.84856e+12 -6.19974e+12 -6.79837e+12 -6.16765e+12 -5.2907e+12 -9.65396e+12 -6.90749e+12 -7.74053e+12 -8.92971e+12 -1.07329e+13 -2.97707e+12 -6.68374e+12 -4.19317e+12 -4.29936e+12 -5.93987e+12 -6.63528e+12 -6.31388e+12 -5.7609e+12 -9.23053e+12 -8.83431e+12 -5.16809e+12 -5.49281e+12 -4.43776e+12 -6.73029e+12 -6.48275e+12 -3.27881e+12 -4.95285e+12 -7.58629e+12 -4.53772e+12 -6.55907e+12 -9.27218e+12 -4.73059e+12 -7.96676e+12 -7.92344e+12 -5.58504e+12 -3.81481e+12 -8.27324e+12 -6.6068e+12 -3.2678e+12 -5.40508e+12 -6.74381e+12 -3.56732e+12 -5.85156e+12 -7.85323e+12 -5.03071e+12 -4.24449e+12 -6.27903e+12 -7.37511e+12 -6.85211e+12 -4.94993e+12 -8.44287e+12 -4.27052e+12 -5.36437e+12 -3.90237e+12 -7.46563e+12 -4.5888e+12 -9.90471e+12 -1.03871e+13 -7.40236e+12 -5.47282e+12 -3.58897e+12 -2.51065e+12 -5.3481e+12 -9.03144e+12 -5.72459e+12 -4.19263e+12 -6.76492e+12 -4.34279e+12 -6.91807e+12 -1.08016e+13 -5.5721e+12 -7.70524e+12 -7.32194e+12 -6.54806e+12 -6.6042e+12 -5.77168e+12 -4.3289e+12 -6.63661e+12 -7.57063e+12 -4.80205e+12 -4.68289e+12 -6.19936e+12 -6.58443e+12 -7.3638e+12 -6.11096e+12 -5.40776e+12 -6.55876e+12 -6.41559e+12 -8.73509e+12 -9.8147e+12 -1.03066e+13 -5.50677e+12 -5.51163e+12 -6.39857e+12 -5.54243e+12 -6.26613e+12 -5.61509e+12 -8.76266e+12 -6.09128e+12 -1.05757e+13 -8.96741e+12 -1.00794e+13 -1.17812e+13 -9.67602e+12 -6.94845e+12 -4.47211e+12 -5.15784e+12 -6.8337e+12 -3.98603e+12 -5.42852e+12 -4.6821e+12 -5.17356e+12 -7.57703e+12 -6.20071e+12 -1.02724e+13 -4.80167e+12 -8.4652e+12 -4.36861e+12 -8.43559e+12 -7.34958e+12 -5.47421e+12 -6.44024e+12 -8.34241e+12 -6.27483e+12 -3.63975e+12 -5.33851e+12 -5.18021e+12 -5.8253e+12 -4.38663e+12 -4.72009e+12 -6.27499e+12 -7.17872e+12 -4.15699e+12 -6.33169e+12 -3.84845e+12 -3.31283e+12 -5.06999e+12 -7.69688e+12 -1.03053e+13 -8.67396e+12 -8.52571e+12 -9.92869e+12 -5.8258e+12 -5.59548e+12 -8.99205e+12 -1.06481e+13 -8.87409e+12 -2.89603e+12 -7.27007e+12 -9.73491e+12 -6.12979e+12 -3.28366e+12 -5.95065e+12 -5.39419e+12 -3.66365e+12 -5.4578e+12 -4.20815e+12 -3.46197e+12 -6.97615e+12 -6.9643e+12 -5.44682e+12 -9.16408e+12 -6.31272e+12 -4.8529e+12 -8.00855e+12 -9.60008e+12 -7.32319e+12 -6.76509e+12 -7.44655e+12 -3.91001e+12 -9.43308e+12 -6.09494e+12 -6.3402e+12 -6.90481e+12 -5.27271e+12 -6.9427e+12 -7.01833e+12 -4.46746e+12 -7.58854e+12 -4.90414e+12 -5.68407e+12 -5.2828e+12 -8.30776e+12 -5.39549e+12 -6.86242e+12 -7.4912e+12 -4.84785e+12 -6.53931e+12 -6.33093e+12 -4.54798e+12 -9.8746e+12 -5.78305e+12 -7.57058e+12 -6.45457e+12 -5.97809e+12 -2.73844e+12 -4.81635e+12 -4.55657e+12 -5.40856e+12 -6.52101e+12 -1.13219e+13 -6.7762e+12 -1.06307e+13 -7.04072e+12 -6.13528e+12 -6.1354e+12 -5.04124e+12 -9.94598e+12 -3.89515e+12 -6.49493e+12 -7.54721e+12 -1.11481e+13 -6.24279e+12 -6.27895e+12 -4.68468e+12 -8.75071e+12 -9.15818e+12 -4.92051e+12 -7.74e+12 -6.46414e+12 -6.70138e+12 -6.86559e+12 -9.79191e+12 -6.0943e+12 -8.17277e+12 -8.58313e+12 -1.22351e+13 -7.2717e+12 -7.9575e+12 -2.66914e+12 -6.56314e+12 -6.34481e+12 -5.634e+12 -5.45038e+12 -1.06647e+13 -5.11203e+12 -5.02423e+12 -8.34321e+12 -1.23564e+13 -7.89191e+12 -1.35565e+13 -5.88351e+12 -7.52058e+12 -4.54532e+12 -5.64813e+12 -4.23754e+12 -5.41338e+12 -3.46572e+12 -5.61566e+12 -6.09308e+12 -3.42782e+12 -6.49322e+12 -4.55868e+12 -4.38948e+12 -3.91466e+12 -4.0241e+12 -7.35183e+12 -7.27758e+12 -8.51037e+12 -5.7949e+12 -6.7426e+12 -8.67129e+12 -8.01433e+12 -7.12508e+12 -5.5208e+12 -6.69968e+12 -5.60741e+12 -5.57563e+12 -5.82239e+12 -5.67155e+12 -9.99779e+12 -7.78882e+12 -7.34301e+12 -9.96637e+12 -6.85558e+12 -5.03352e+12 -4.97213e+12 -3.2691e+12 -5.7063e+12 -1.15441e+13 -1.13964e+13 -6.91454e+12 -8.56105e+12 -5.74131e+12 -6.44858e+12 -8.03477e+12 -9.61036e+12 -3.68394e+12 -6.47308e+12 -1.08531e+13 -6.138e+12 -4.55292e+12 -3.79291e+12 -6.56574e+12 -9.76667e+12 -5.12962e+12 -5.75283e+12 -7.08837e+12 -7.13763e+12 -5.14525e+12 -6.85937e+12 -5.42875e+12 -3.9154e+12 -2.93104e+12 -5.67105e+12 -7.02915e+12 -7.28379e+12 -8.55369e+12 -4.89802e+12 -5.80761e+12 -4.79294e+12 -5.78176e+12 -4.44029e+12 -1.11214e+13 -8.26953e+12 -6.77412e+12 -2.95077e+12 -7.09032e+12 -7.32284e+12 -6.24457e+12 -6.2683e+12 -8.16613e+12 -3.095e+12 -5.22802e+12 -4.83075e+12 -3.61951e+12 -5.29864e+12 -6.84103e+12 -7.12468e+12 -8.79826e+12 -6.80297e+12 -8.46412e+12 -9.30069e+12 -1.04225e+13 -8.24502e+12 -5.80517e+12 -1.02745e+13 -4.07592e+12 -6.92043e+12 -7.05047e+12 -8.4084e+12 -7.14814e+12 -6.5215e+12 -8.27006e+12 -2.87788e+12 -6.4145e+12 -7.26561e+12 -5.27953e+12 -7.86131e+12 -8.20682e+12 -4.76239e+12 -6.65431e+12 -6.0611e+12 -4.78416e+12 -4.86788e+12 -8.74678e+12 -5.62824e+12 -4.28073e+12 -1.12398e+13 -5.17476e+12 -6.72077e+12 -6.20437e+12 -4.47707e+12 -5.88291e+12 -1.08025e+13 -9.24657e+12 -8.10328e+12 -1.56654e+13 -5.19586e+12 -1.09365e+13 -7.28043e+12 -8.55399e+12 -4.39503e+12 -5.4386e+12 -6.42225e+12 -3.56889e+12 -3.90442e+12 -5.27061e+12 -5.65575e+12 -6.42243e+12 -6.88453e+12 -5.58064e+12 -1.02956e+13 -3.97934e+12 -8.82028e+12 -6.41018e+12 -6.45641e+12 -5.20651e+12 -5.32584e+12 -7.57542e+12 -5.6713e+12 -4.52602e+12 -5.49734e+12 -6.67836e+12 -4.46919e+12 -9.00918e+12 -7.61975e+12 -3.30783e+12 -2.413e+12 -6.02645e+12 -7.7991e+12 -1.18668e+13 -8.68904e+12 -7.74172e+12 -7.72035e+12 -5.32275e+12 -6.70513e+12 -5.52973e+12 -8.5065e+12 -7.55088e+12 -7.85905e+12 -1.00075e+13 -7.94986e+12 -6.75985e+12 -5.35695e+12 -4.34189e+12 -5.45837e+12 -7.78612e+12 -4.59078e+12 -3.74487e+12 -9.35187e+12 -3.67525e+12 -5.31412e+12 -3.81446e+12 -5.79785e+12 -3.6441e+12 -3.94127e+12 -5.36197e+12 -4.3291e+12 -5.04456e+12 -4.01906e+12 -5.33161e+12 -4.54229e+12 -4.86669e+12 -6.05683e+12 -4.75591e+12 -6.20097e+12 -7.0673e+12 -4.39342e+12 -8.28386e+12 -2.44392e+12 -3.79299e+12 -9.20088e+12 -5.37341e+12 -4.6947e+12 -6.43805e+12 -4.81809e+12 -5.04796e+12 -5.4715e+12 -1.59989e+12 -6.17101e+12 -9.05577e+12 -4.73116e+12 -4.94068e+12 -6.04377e+12 -3.82295e+12 -5.04981e+12 -8.84689e+12 -6.00588e+12 -2.81254e+12 -5.21618e+12 -4.50856e+12 -4.21623e+12 -7.83756e+12 -5.08322e+12 -5.3091e+12 -7.71211e+12 -7.61862e+12 -6.53171e+12 -4.61381e+12 -8.49905e+12 -5.62214e+12 -8.76946e+12 -7.28952e+12 -3.9259e+12 -5.60146e+12 -4.87109e+12 -6.28807e+12 -7.80073e+12 -4.81658e+12 -6.36183e+12 -9.11781e+12 -7.11247e+12 -7.58009e+12 -6.42601e+12 -6.64508e+12 -5.21158e+12 -6.01019e+12 -6.50995e+12 -9.75827e+12 -7.866e+12 -8.35219e+12 -5.87513e+12 -7.25101e+12 -9.55954e+12 -1.19688e+13 -1.04631e+13 -5.67578e+12 -7.49392e+12 -8.33707e+12 -5.27049e+12 -2.73925e+12 -4.67936e+12 -3.34917e+12 -5.51941e+12 -2.50199e+12 -7.92518e+12 -7.26837e+12 -5.58498e+12 -5.56889e+12 -9.34005e+12 -8.50074e+12 -7.18229e+12 -7.55715e+12 -8.8212e+12 -5.75562e+12 -5.18978e+12 -4.34467e+12 -6.1074e+12 -4.9042e+12 -4.83385e+12 -8.36704e+12 -7.71562e+12 -5.93918e+12 -3.00966e+12 -5.25222e+12 -5.14112e+12 -4.23248e+12 -1.01284e+13 -3.83071e+12 -4.44115e+12 -2.98071e+12 -7.00738e+12 -5.112e+12 -6.75176e+12 -7.60404e+12 -4.90131e+12 -7.97674e+12 -5.30802e+12 -5.83404e+12 -5.89079e+12 -6.02398e+12 -6.42196e+12 -7.43742e+12 -6.59244e+12 -6.70127e+12 -7.04034e+12 -2.40329e+12 -5.77216e+12 -2.5976e+12 -8.41133e+12 -5.97568e+12 -6.47272e+12 -5.03518e+12 -8.92954e+12 -5.4312e+12 -5.42196e+12 -4.20021e+12 -6.87851e+12 -7.15899e+12 -3.68475e+12 -5.54063e+12 -3.7391e+12 -5.27441e+12 -8.34047e+12 -3.34045e+12 -3.13435e+12 -6.15757e+12 -3.69052e+12 -3.28002e+12 -4.59941e+12 -3.56178e+12 -6.63386e+12 -2.92353e+12 -5.3728e+12 -3.961e+12 -3.9923e+12 -4.21631e+12 -3.63858e+12 -4.86332e+12 -4.40102e+12 -5.79343e+12 -2.91075e+12 -4.67733e+12 -4.14691e+12 -7.86601e+12 -6.90408e+12 -3.67593e+12 -4.62576e+12 -3.75507e+12 -3.59311e+12 -8.05689e+12 -6.39592e+12 -2.57969e+12 -5.36502e+12 -3.54592e+12 -4.38331e+12 -3.90844e+12 -6.8095e+12 -5.48874e+12 -5.45791e+12 -4.09079e+12 -7.50767e+12 -6.67291e+12 -6.54419e+12 -8.15734e+12 -4.94164e+12 -9.88919e+12 -8.98714e+12 -5.847e+12 -4.50263e+12 -4.45826e+12 -5.77023e+12 -6.67251e+12 -6.6933e+12 -8.69068e+12 -6.22353e+12 -7.64122e+12 -6.35232e+12 -5.74587e+12 -7.12706e+12 -8.43593e+12 -5.97233e+12 -6.43653e+12 -6.59467e+12 -4.49753e+12 -4.00861e+12 -7.60322e+12 -7.73228e+12 -5.48282e+12 -5.17937e+12 -7.61292e+12 -7.23986e+12 -6.3383e+12 -1.18359e+13 -5.95251e+12 -5.73429e+12 -4.41508e+12 -6.4698e+12 -8.00671e+12 -4.15937e+12 -5.2224e+12 -7.02862e+12 -8.5105e+12 -6.36459e+12 -5.85341e+12 -5.18739e+12 -1.01054e+13 -4.35519e+12 -7.33774e+12 -5.08632e+12 -5.4952e+12 -5.38198e+12 -5.67863e+12 -4.36527e+12 -7.09592e+12 -6.57715e+12 -5.33137e+12 -7.28112e+12 -6.73272e+12 -3.92009e+12 -5.41269e+12 -5.94679e+12 -4.72434e+12 -8.17575e+12 -7.75727e+12 -4.71619e+12 -4.49382e+12 -5.4575e+12 -6.55697e+12 -7.00937e+12 -5.25546e+12 -4.12393e+12 -5.65011e+12 -4.47842e+12 -5.06455e+12 -4.11222e+12 -8.03996e+12 -6.23347e+12 -5.81699e+12 -4.66918e+12 -5.53648e+12 -5.27172e+12 -7.58584e+12 -6.81061e+12 -6.01362e+12 -5.2558e+12 -4.86398e+12 -6.43981e+12 -4.35635e+12 -6.44878e+12 -5.93813e+12 -2.76362e+12 -4.23625e+12 -4.12871e+12 -3.62615e+12 -5.25526e+12 -7.36309e+12 -6.40655e+12 -4.76779e+12 -3.90186e+12 -4.88761e+12 -6.33454e+12 -4.20686e+12 -3.69849e+12 -4.00109e+12 -4.19342e+12 -5.01428e+12 -3.33428e+12 -4.6997e+12 -4.01983e+12 -6.35324e+12 -3.90435e+12 -6.53859e+12 -6.64614e+12 -5.21264e+12 -4.19167e+12 -5.08485e+12 -5.74759e+12 -4.58624e+12 -5.86641e+12 -4.09715e+12 -7.1483e+12 -5.28906e+12 -5.32577e+12 -2.86935e+12 -7.46254e+12 -1.0073e+13 -5.49356e+12 -3.71141e+12 -3.21128e+12 -3.61369e+12 -3.60447e+12 -8.56691e+12 -7.65402e+12 -7.77213e+12 -3.3397e+12 -4.48354e+12 -7.86976e+12 -5.96362e+12 -7.85562e+12 -7.12e+12 -8.086e+12 -7.70358e+12 -6.26105e+12 -9.59196e+12 -957930000000.0 -5.68042e+12 -7.88865e+12 -4.28584e+12 -6.26928e+12 -3.31195e+12 -5.35981e+12 -7.97914e+12 -4.75194e+12 -5.82804e+12 -7.17788e+12 -5.29366e+12 -7.41935e+12 -7.65779e+12 -6.77416e+12 -8.21262e+12 -9.1752e+12 -4.99323e+12 -6.13044e+12 -2.79365e+12 -3.67585e+12 -2.41443e+12 -6.33657e+12 -4.18705e+12 -3.04527e+12 -4.30592e+12 -3.40401e+12 -9.50204e+12 -5.5426e+12 -7.96652e+12 -7.19263e+12 -6.51866e+12 -4.54758e+12 -9.27829e+12 -6.77688e+12 -4.73182e+12 -2.94211e+12 -5.41429e+12 -7.6713e+12 -4.41681e+12 -4.39722e+12 -6.26118e+12 -6.72151e+12 -5.10836e+12 -9.8712e+12 -4.91514e+12 -5.38045e+12 -6.03531e+12 -5.35994e+12 -8.13778e+12 -7.71401e+12 -6.13954e+12 -5.54288e+12 -5.6627e+12 -6.97859e+12 -5.76648e+12 -7.96752e+12 -7.18475e+12 -8.09105e+12 -4.12204e+12 -1.87299e+12 -4.10826e+12 -2.99438e+12 -4.93191e+12 -6.67852e+12 -7.06673e+12 -3.6915e+12 -3.32145e+12 -6.77517e+12 -6.35813e+12 -6.63987e+12 -2.24703e+12 -2.82814e+12 -3.59603e+12 -4.41604e+12 -5.02463e+12 -4.86449e+12 -5.1973e+12 -2.72946e+12 -3.46042e+12 -8.17158e+12 -2.75479e+12 -4.55697e+12 -5.58847e+12 -5.40335e+12 -4.08577e+12 -3.27166e+12 -6.75023e+12 -8.21045e+12 -5.1206e+12 -5.13177e+12 -5.14973e+12 -2.23185e+12 -3.04315e+12 -5.08326e+12 -2.58785e+12 -5.20128e+12 -5.27216e+12 -4.83516e+12 -4.5042e+12 -2.8522e+12 -3.66995e+12 -3.66124e+12 -4.16476e+12 -5.50838e+12 -5.17535e+12 -5.50715e+12 -5.55867e+12 -4.36087e+12 -4.69397e+12 -4.75638e+12 -3.80688e+12 -3.22945e+12 -3.69013e+12 -5.89128e+12 -4.38414e+12 -8.75255e+12 -3.52063e+12 -2.48773e+12 -2.14583e+12 -3.68013e+12 -8.40119e+12 -8.13697e+12 -7.13712e+12 -4.14992e+12 -6.07414e+12 -5.26843e+12 -4.19451e+12 -5.53911e+12 -5.99275e+12 -5.76644e+12 -5.84991e+12 -7.08087e+12 -7.72834e+12 -7.54461e+12 -4.60665e+12 -3.0178e+12 -5.93493e+12 -5.26558e+12 -8.57426e+12 -6.71423e+12 -7.52178e+12 -4.56828e+12 -5.02962e+12 -5.87734e+12 -3.764e+12 -9.62597e+12 -4.82212e+12 -1.10389e+13 -5.85328e+12 -6.25965e+12 -4.06521e+12 -5.39712e+12 -8.60444e+12 -1.86898e+12 -7.9785e+12 -4.52287e+12 -3.71437e+12 -2.70073e+12 -3.28952e+12 -9.90424e+12 -3.55948e+12 -4.34642e+12 -3.97657e+12 -5.25095e+12 -4.62138e+12 -4.7805e+12 -3.6933e+12 -3.83855e+12 -4.99678e+12 -5.58377e+12 -5.7586e+12 -4.89823e+12 -5.2286e+12 -2.14331e+12 -3.78711e+12 -1.91496e+12 -4.70527e+12 -6.60194e+12 -3.84169e+12 -6.58799e+12 -5.39677e+12 -5.7653e+12 -4.16726e+12 -5.93869e+12 -3.79833e+12 -5.75572e+12 -4.90858e+12 -3.5586e+12 -3.40153e+12 -3.49481e+12 -8.34936e+12 -6.88846e+12 -8.10945e+12 -4.45602e+12 -2.90235e+12 -3.44791e+12 -4.23377e+12 -6.34076e+12 -7.3552e+12 -6.529e+12 -4.34536e+12 -5.8378e+12 -5.25025e+12 -4.00211e+12 -5.26767e+12 -2.93601e+12 -4.78808e+12 -5.10259e+12 -4.22623e+12 -2.17348e+12 -5.55797e+12 -2.83778e+12 -2.35933e+12 -2.29569e+12 -4.33564e+12 -2.69663e+12 -4.16813e+12 -3.27464e+12 -4.43513e+12 -2.41159e+12 -4.88181e+12 -4.45369e+12 -2.79782e+12 -3.7561e+12 -5.90351e+12 -3.59817e+12 -5.97438e+12 -3.48163e+12 -3.65007e+12 -2.87525e+12 -2.95843e+12 -3.56713e+12 -4.92973e+12 -2.00227e+12 -3.79698e+12 -4.59465e+12 -2.93842e+12 -3.55975e+12 -4.29407e+12 -4.10976e+12 -6.10875e+12 -4.66834e+12 -6.6132e+12 -4.21954e+12 -4.02659e+12 -5.26786e+12 -2.99098e+12 -4.96933e+12 -5.66292e+12 -3.05977e+12 -3.59603e+12 -6.65672e+12 -3.81717e+12 -3.12967e+12 -2.62508e+12 -2.93044e+12 -5.11232e+12 -4.27305e+12 -4.28699e+12 -4.24405e+12 -5.90227e+12 -6.66281e+12 -6.27166e+12 -4.77481e+12 -5.04669e+12 -4.43951e+12 -2.6305e+12 -1.40816e+12 -4.26364e+12 -5.51375e+12 -6.83711e+12 -5.82347e+12 -5.23691e+12 -4.7268e+12 -8.55132e+12 -7.32135e+12 -3.4801e+12 -4.94236e+12 -5.82723e+12 -5.21291e+12 -2.59678e+12 -5.20697e+12 -4.83249e+12 -7.51806e+12 -5.07165e+12 -5.62119e+12 -2.69205e+12 -6.63378e+12 -4.22868e+12 -3.26081e+12 -2.6321e+12 -1.6603e+12 -6.04575e+12 -5.41443e+12 -4.65216e+12 -2.63803e+12 -5.5429e+12 -5.20849e+12 -6.22009e+12 -4.37464e+12 -4.53648e+12 -5.58717e+12 -3.77938e+12 -5.9297e+12 -4.50805e+12 -4.28268e+12 -3.7759e+12 -3.0514e+12 -3.81702e+12 -5.23818e+12 -4.40373e+12 -3.99204e+12 -5.67356e+12 -3.48401e+12 -6.50865e+12 -4.8021e+12 -3.88093e+12 -2.11526e+12 -4.43114e+12 -5.59786e+12 -3.50372e+12 -5.64634e+12 -4.40424e+12 -2.89169e+12 -4.47331e+12 -4.04582e+12 -4.70543e+12 -6.52355e+12 -4.43147e+12 -6.43665e+12 -6.41933e+12 -6.96284e+12 -5.8141e+12 -6.55864e+12 -6.15156e+12 -3.2642e+12 -5.49653e+12 -3.31285e+12 -1.80887e+12 -4.12575e+12 -3.71231e+12 -2.87292e+12 -3.9368e+12 -2.79818e+12 -5.02828e+12 -3.31049e+12 -2.7938e+12 -4.92676e+12 -4.33307e+12 -3.21271e+12 -2.96141e+12 -3.79317e+12 -2.90578e+12 -1.7459e+12 -4.41173e+12 -3.91328e+12 -1.18622e+12 -1.5255e+12 -5.16764e+12 -2.98202e+12 -1.42019e+12 -3.17903e+12 -1.08079e+12 -3.36384e+12 -3.24076e+12 -3.62243e+12 -3.35958e+12 -2.32545e+12 -3.0953e+12 -4.49119e+12 -4.20272e+12 -5.96088e+12 -6.47952e+12 -4.21438e+12 -4.59835e+12 -4.7101e+12 -4.22636e+12 -5.66924e+12 -4.70593e+12 -4.72119e+12 -5.88383e+12 -2.5236e+12 -5.30726e+12 -4.51186e+12 -4.0576e+12 -2.33022e+12 -3.5309e+12 -5.03556e+12 -3.88072e+12 -3.3824e+12 -3.81706e+12 -2.5964e+12 -6.10172e+12 -5.77205e+12 -7.08703e+12 -5.59842e+12 -5.70108e+12 -5.51052e+12 -3.41923e+12 -4.31749e+12 -3.3352e+12 -2.97226e+12 -4.10119e+12 -5.33648e+12 -8.13471e+12 -4.65616e+12 -4.65646e+12 -5.65103e+12 -5.62142e+12 -3.40324e+12 -3.10102e+12 -5.54198e+12 -3.38885e+12 -3.74672e+12 -3.79048e+12 -4.61797e+12 -7.28758e+12 -4.6107e+12 -5.9689e+12 -4.78944e+12 -3.84948e+12 -5.93538e+12 -5.69892e+12 -4.07311e+12 -4.2331e+12 -7.8688e+12 -3.89258e+12 -2.04986e+12 -2.81548e+12 -1.92305e+12 -3.06328e+12 -5.7138e+12 -5.26078e+12 -5.70016e+12 -4.56352e+12 -6.67721e+12 -7.38999e+12 -6.17137e+12 -4.12431e+12 -4.06466e+12 -7.31913e+12 -4.80394e+12 -2.8367e+12 -5.3554e+12 -3.95302e+12 -1.77646e+12 -3.92683e+12 -5.08493e+12 -3.15722e+12 -5.13877e+12 -1.41985e+12 -4.46975e+12 -5.72272e+12 -4.3059e+12 -5.02584e+12 -3.34912e+12 -4.22821e+12 -1.84163e+12 -4.35655e+12 -6.78104e+12 -4.95709e+12 -3.52607e+12 -5.72846e+12 -4.40069e+12 -2.19171e+12 -4.43989e+12 -2.63508e+12 -3.49114e+12 -6.96097e+12 -1.9018e+12 -4.4066e+12 -3.36069e+12 -6.85736e+12 -4.48693e+12 -2.08595e+12 -1.49577e+12 -2.46746e+12 -2.67621e+12 -1.58597e+12 -2.56594e+12 -1.37051e+12 -2.93319e+12 -2.89197e+12 -4.52815e+12 -3.12102e+12 -1.87207e+12 -1.04154e+12 -629829000000.0 -2.79424e+12 -2.41569e+12 -4.32735e+12 -1.46371e+12 -1.84947e+12 -2.3044e+12 -2.04261e+12 -2.95547e+12 -1.80257e+12 -2.96201e+12 -2.21438e+12 -2.68079e+12 -1.3567e+12 -3.09715e+12 -2.45e+12 -2.69922e+12 -4.63361e+12 -3.68623e+12 -3.1468e+12 -2.23923e+12 -2.97718e+12 -3.40182e+12 -2.5578e+12 -3.93822e+12 -3.61534e+12 -1.24644e+12 -3.85326e+12 -2.68012e+12 -5.78489e+12 -6.11308e+12 -3.18735e+12 -2.82456e+12 -2.24315e+12 -3.44138e+12 -2.22762e+12 -2.88157e+12 -4.37437e+12 -2.29812e+12 -4.66923e+12 -1.49087e+12 -2.56395e+12 -4.738e+12 -4.69771e+12 -5.80633e+12 -2.35614e+12 -2.86666e+12 -2.45176e+12 -2.76409e+12 -3.75146e+12 -5.28082e+12 -4.4844e+12 -5.47078e+12 -5.72395e+12 -5.32526e+12 -5.01163e+12 -3.68639e+12 -5.36765e+12 -5.26632e+12 -5.0293e+12 -5.12662e+12 -4.30281e+12 -7.80254e+12 -3.96619e+12 -3.7204e+12 -4.87333e+12 -4.69498e+12 -6.89048e+12 -7.42211e+12 -3.85923e+12 -3.69981e+12 -5.23151e+12 -5.32979e+12 -3.66427e+12 -1.21826e+12 -2.36656e+12 -6.02083e+12 -3.81982e+12 -3.70509e+12 -2.54915e+12 -4.96844e+12 -4.44502e+12 -5.40807e+12 -3.56735e+12 -6.00725e+12 -7.80125e+12 -4.94164e+12 -4.1068e+12 -5.1597e+12 -3.7411e+12 -3.23202e+12 -5.00641e+12 -3.04171e+12 -4.982e+12 -3.32296e+12 -4.59385e+12 -3.8017e+12 -4.76935e+12 -3.12952e+12 -4.0424e+12 -4.99435e+12 -3.03252e+12 -3.38315e+12 -4.07776e+12 -3.46069e+12 -4.57864e+12 -3.4931e+12 -3.95117e+12 -4.48066e+12 -2.65188e+12 -3.84131e+12 -2.85359e+12 -1.79704e+12 -3.55351e+12 -3.83972e+12 -2.48479e+12 -1.92776e+12 -2.72591e+12 -2.43641e+12 -2.64865e+12 -2.971e+12 -2.84711e+12 -1.98949e+12 -2.7316e+12 -3.13187e+12 -2.5515e+12 -3.44184e+12 -1.43314e+12 -2.07531e+12 -2.55907e+12 -3.29487e+12 -3.8086e+12 -2.02553e+12 -2.27326e+12 -3.64072e+12 -1.7691e+12 -3.03221e+12 -2.2318e+12 -1.37247e+12 -1.31276e+12 -1.90561e+12 -2.54312e+12 -1.2732e+12 -1.27911e+12 -2.79926e+12 -2.66213e+12 -3.85748e+12 -1.59878e+12 -1.80704e+12 -2.33627e+12 -1.4001e+12 -1.99603e+12 -3.32411e+12 -2.36852e+12 -3.44272e+12 -3.87379e+12 -3.23864e+12 -3.93216e+12 -2.03192e+12 -3.67171e+12 -4.27006e+12 -1.95047e+12 -1.98816e+12 -2.60007e+12 -4.12058e+12 -3.14229e+12 -2.00536e+12 -3.64756e+12 -3.26039e+12 -2.39487e+12 -3.49412e+12 -4.12803e+12 -4.03003e+12 -5.04652e+12 -1.40847e+12 -2.72283e+12 -4.80365e+12 -4.23535e+12 -4.06402e+12 -1.86344e+12 -4.66803e+12 -2.07473e+12 -3.70085e+12 -3.97467e+12 -3.52103e+12 -5.77318e+12 -5.93593e+12 -6.00572e+12 -4.94074e+12 -7.03702e+12 -3.44037e+12 -2.75465e+12 -2.64336e+12 -2.98134e+12 -5.15714e+12 -3.68976e+12 -4.36942e+12 -5.78996e+12 -3.39249e+12 -5.2512e+12 -4.55248e+12 -6.06148e+12 -5.76048e+12 -7.14877e+12 -3.52056e+12 -2.57965e+12 -3.50135e+12 -2.87378e+12 -3.15206e+12 -4.96048e+12 -4.57539e+12 -2.61092e+12 -2.1866e+12 -2.84718e+12 -4.39323e+12 -3.37676e+12 -4.48126e+12 -2.9333e+12 -3.25059e+12 -4.55019e+12 -4.79511e+12 -4.64755e+12 -4.08727e+12 -4.17878e+12 -4.45795e+12 -3.33405e+12 -2.51335e+12 -4.09974e+12 -8.34892e+12 -3.54397e+12 -2.90915e+12 -4.50859e+12 -4.08573e+12 -3.19532e+12 -2.11354e+12 -2.97055e+12 -3.96974e+12 -2.82893e+12 -2.42402e+12 -3.03495e+12 -2.33503e+12 -3.11636e+12 -2.75595e+12 -2.63478e+12 -2.05338e+12 -2.37899e+12 -3.62166e+12 -3.38852e+12 -2.74402e+12 -1.90282e+12 -2.77095e+12 -2.32344e+12 -2.07423e+12 -2.62623e+12 -3.65445e+12 -1.50436e+12 -1.84264e+12 -1.39071e+12 -2.12079e+12 -1.97235e+12 -1.87725e+12 -1.39895e+12 -553650000000.0 -1.77598e+12 -1.62408e+12 -1.38707e+12 -1.57298e+12 -1.34061e+12 -513380000000.0 -337623000000.0 -1.49495e+12 -1.03623e+12 -1.60511e+12 -1.40256e+12 -1.00563e+12 -1.11765e+12 -1.26131e+12 -1.00089e+12 -831193000000.0 -2.70568e+12 -1.70948e+12 -2.12626e+12 -2.14058e+12 -1.76674e+12 -1.44189e+12 -3.31622e+12 -2.36524e+12 -2.58377e+12 -1.87124e+12 -2.33768e+12 -2.65328e+12 -1.48275e+12 -3.24619e+12 -3.37631e+12 -2.34567e+12 -2.46179e+12 -2.0505e+12 -2.58011e+12 -2.21313e+12 -4.83999e+12 -3.22676e+12 -2.95428e+12 -339590000000.0 -1.67021e+12 -3.99708e+12 -2.74968e+12 -3.56289e+12 -3.0754e+12 -2.7546e+12 -1.55108e+12 -2.1297e+12 -5.29772e+12 -1.96431e+12 -3.89899e+12 -3.06145e+12 -4.62297e+12 -4.42513e+12 -2.28375e+12 -4.0455e+12 -3.04176e+12 -3.22508e+12 -3.54366e+12 -2.96251e+12 -3.07279e+12 -4.07168e+12 -4.87544e+12 -3.05111e+12 -2.75203e+12 -4.66165e+12 -3.61308e+12 -6.01685e+12 -3.11578e+12 -3.18178e+12 -5.74618e+12 -4.68357e+12 -2.83174e+12 -3.90382e+12 -4.54631e+12 -6.35485e+12 -3.04927e+12 -3.30738e+12 -3.08756e+12 -2.97889e+12 -2.47261e+12 -2.18141e+12 -2.74944e+12 -3.18346e+12 -7.61471e+12 -2.76034e+12 -6.71023e+12 -3.64247e+12 -3.7836e+12 -3.18532e+12 -2.89033e+12 -5.73197e+12 -5.76222e+12 -1.1014e+12 -3.44372e+12 -4.03905e+12 -4.1958e+12 -2.30833e+12 -1.86749e+12 -2.7423e+12 -1.65426e+12 -2.14112e+12 -2.04111e+12 -3.48877e+12 -4.01988e+12 -1.70615e+12 -2.61642e+12 -2.78438e+12 -2.17728e+12 -3.23124e+12 -1.54877e+12 -2.89575e+12 -3.91447e+12 -2.72144e+12 -2.1922e+12 -873701000000.0 -1.74805e+12 -2.05161e+12 -4.91427e+12 -2.82717e+12 -309502000000.0 -1.26944e+12 -1.52264e+12 -612898000000.0 -1.62756e+12 -1.33551e+12 -2.72489e+12 -808330000000.0 -2.3347e+12 -110372000000.0 -1.55084e+12 -620673000000.0 -521927000000.0 -962206000000.0 -445577000000.0 -578939000000.0 -430839000000.0 -935602000000.0 -210844000000.0 -874793000000.0 -490588000000.0 -591256000000.0 -1.59072e+12 -680213000000.0 -1.36824e+12 -1.01822e+12 -1.20724e+12 -606010000000.0 -2.18308e+12 -2.64687e+12 -1.29201e+12 -827676000000.0 -397654000000.0 -1.70499e+12 -1.49908e+12 -688950000000.0 -3.43065e+12 -2.85593e+12 -2.37414e+12 -1.70926e+12 -1.28224e+12 -3.00573e+12 -4.13504e+12 -1.17212e+12 -1.81363e+12 -1.41163e+12 -3.22155e+12 -2.78013e+12 -2.76049e+12 -2.95094e+12 -2.54453e+12 -5.03806e+12 -3.55966e+12 -1.68383e+12 -3.8618e+12 -1.56387e+12 -3.20727e+12 -4.22787e+12 -2.50578e+12 -2.61452e+12 -1.94214e+12 -3.29762e+12 -3.42325e+12 -3.17347e+12 -2.99767e+12 -6.18774e+12 -4.02544e+12 -3.39742e+12 -2.87072e+12 -2.99082e+12 -2.78221e+12 -2.55233e+12 -1.76964e+12 -3.46131e+12 -4.08475e+12 -1.48637e+12 -1.30458e+12 -1.56766e+12 -4.63098e+12 -3.10058e+12 -4.41949e+12 -2.73462e+12 -2.04946e+12 -2.6678e+12 -2.27944e+12 -1.8687e+12 -1.33872e+12 -3.61253e+12 -2.48488e+12 -3.06445e+12 -4.03535e+12 -2.94178e+12 -2.73799e+12 -2.34341e+12 -3.47495e+12 -2.42998e+12 -2.31441e+12 -2.38786e+12 -1.26816e+12 -1.78011e+12 -2.42905e+12 -1.52655e+12 -1.78819e+12 -527971000000.0 -1.28604e+12 -3.08216e+12 -1.7032e+12 -1.15081e+12 -2.12195e+12 -634200000000.0 -2.06191e+12 -1.56294e+12 -2.78464e+12 -1.28634e+12 -1.45667e+12 -1.35351e+12 -871243000000.0 -1.10273e+12 -1.55847e+12 -668785000000.0 -750501000000.0 -392163000000.0 -214678000000.0 -1.0448e+12 -853240000000.0 -314886000000.0 -1.01395e+12 -475591000000.0 -482639000000.0 -370839000000.0 -647572000000.0 -214629000000.0 -211887000000.0 -1.19888e+12 -1.00453e+12 -798908000000.0 -1.42439e+12 -511273000000.0 -1.23076e+12 -1.95749e+12 -637722000000.0 -1.01304e+12 -2.63699e+12 -857795000000.0 -1.32334e+12 -1.27426e+12 -1.85693e+12 -2.05327e+12 -1.81875e+12 -1.34179e+12 -3.89323e+12 -3.52297e+12 -1.63041e+12 -2.77562e+12 -2.00606e+12 -3.11905e+12 -1.49881e+12 -959766000000.0 -2.02596e+12 -2.92042e+12 -2.07933e+12 -3.92671e+12 -1.58412e+12 -3.02947e+12 -2.12614e+12 -4.34312e+12 -1.95186e+12 -1.06382e+12 -2.42089e+12 -2.08274e+12 -3.30632e+12 -2.18064e+12 -2.21907e+12 -1.61719e+12 -3.87265e+12 -2.95877e+12 -1.46571e+12 -2.7938e+12 -4.43775e+12 -2.87094e+12 -1.95382e+12 -3.76885e+12 -1.08221e+12 -2.48812e+12 -3.12275e+12 -3.47023e+12 -2.66808e+12 -2.07367e+12 -2.27156e+12 -1.63622e+12 -2.56484e+12 -1.76152e+12 -288231000000.0 -1.85396e+12 -1.98552e+12 -1.34035e+12 -2.93634e+12 -1.81915e+12 -2.09706e+12 -1.44636e+12 -1.59698e+12 -536523000000.0 -1.84224e+12 -511393000000.0 -3.65235e+12 -2.67584e+12 -2.07426e+12 -2.04124e+12 -2.80231e+12 -1.98627e+12 -2.60871e+12 -1.46551e+12 -853149000000.0 -1.03162e+12 -4.44045e+12 -1.37051e+12 -1.40724e+12 -1.25284e+12 -1.55233e+12 -1.83847e+12 -1.40299e+12 -974052000000.0 -1.64583e+12 -1.27875e+12 -1.16833e+12 -773226000000.0 -307045000000.0 -740195000000.0 -664488000000.0 -878685000000.0 -381450000000.0 -775908000000.0 -142425000000.0 -277025000000.0 -391236000000.0 -186082000000.0 -138389000000.0 -241054000000.0 -196943000000.0 -390873000000.0 -194313000000.0 -198646000000.0 -503435000000.0 -251637000000.0 -435732000000.0 -679309000000.0 -1.40819e+12 -541540000000.0 -1.5028e+12 -1.19473e+12 -1.99314e+12 -1.51837e+12 -739491000000.0 -2.11142e+12 -2.03951e+12 -807524000000.0 -1.30473e+12 -1.36279e+12 -2.913e+12 -1.46336e+12 -1.39973e+12 -1.47354e+12 -1.74348e+12 -1.79244e+12 -1.16588e+12 -1.89868e+12 -3.18812e+12 -3.65803e+12 -2.52543e+12 -1.82769e+12 -1.74829e+12 -1.98028e+12 -2.30244e+12 -1.79109e+12 -2.87178e+12 -1.52175e+12 -1.73472e+12 -1.9394e+12 -1.7874e+12 -2.58956e+12 -1.95391e+12 -1.7517e+12 -2.87106e+12 -1.69328e+12 -1.3938e+12 -1.39332e+12 -1.26937e+12 -731738000000.0 -1.84312e+12 -1.56328e+12 -132152000000.0 -1.78922e+12 -1.72751e+12 -1.00744e+12 -1.27572e+12 -2.42669e+12 -1.84961e+12 -1.15672e+12 -2.09213e+12 -1.72352e+12 -1.68261e+12 -1.04374e+12 -1.05469e+12 -1.75089e+12 -1.34659e+12 -1.18935e+12 -1.82127e+12 -826894000000.0 -1.76356e+12 -1.65324e+12 -1.30246e+12 -878481000000.0 -1.62744e+12 -735253000000.0 -810804000000.0 -1.74009e+12 -1.09371e+12 -1.76659e+12 -635412000000.0 -1.01571e+12 -793754000000.0 -439109000000.0 -266631000000.0 -975716000000.0 -118788000000.0 -251221000000.0 -293796000000.0 -444768000000.0 -284812000000.0 -348465000000.0 -217685000000.0 -95420100000.0 -961163000000.0 -132902000000.0 -378025000000.0 -516865000000.0 -926688000000.0 -799424000000.0 -454227000000.0 -758859000000.0 -836107000000.0 -1.21802e+12 -894905000000.0 -1.28431e+12 -1.43819e+12 -1.05319e+12 -1.23353e+12 -2.16025e+12 -1.74895e+12 -486560000000.0 -1.72832e+12 -2.14609e+12 -2.86423e+12 -1.52512e+12 -688402000000.0 -1.49867e+12 -321453000000.0 -1.47681e+12 -1.29156e+12 -1.13744e+12 -1.97201e+12 -1.58222e+12 -1.5418e+12 -1.25474e+12 -1.28979e+12 -1.21406e+12 -1.00922e+12 -786341000000.0 -1.26215e+12 -951520000000.0 -1.46547e+12 -614436000000.0 -387596000000.0 -669766000000.0 -598338000000.0 -857934000000.0 -1.06523e+12 -354212000000.0 -830748000000.0 -1.10928e+12 -1.02937e+12 -602556000000.0 -1.05546e+12 -399213000000.0 -214181000000.0 -292375000000.0 -140054000000.0 -275328000000.0 -91027400000.0 -582693000000.0 -613364000000.0 -264254000000.0 -314341000000.0 -310001000000.0 -291544000000.0 -281894000000.0 -397825000000.0 -522583000000.0 -336477000000.0 -649483000000.0 -322366000000.0 -292890000000.0 -949721000000.0 -1.0519e+12 -694849000000.0 -529294000000.0 -787920000000.0 -382051000000.0 -917906000000.0 -1.22733e+12 -2.09192e+12 -1.59152e+12 -654228000000.0 -670319000000.0 -1.00456e+12 -1.03929e+12 -1.1281e+12 -1.4805e+12 -886777000000.0 -1.20185e+12 -964470000000.0 -388689000000.0 -964163000000.0 -849645000000.0 -834275000000.0 -639864000000.0 -692860000000.0 -409606000000.0 -68094400000.0 -367215000000.0 -269080000000.0 -468355000000.0 -434485000000.0 -164641000000.0 -240780000000.0 -263362000000.0 -472200000000.0 -266189000000.0 -363737000000.0 -263855000000.0 -402543000000.0 -679488000000.0 -824660000000.0 -199632000000.0 -134030000000.0 -208698000000.0 -125414000000.0 -398529000000.0 -412342000000.0 -415693000000.0 -233358000000.0 -269421000000.0 -691774000000.0 -280855000000.0 -190736000000.0 -520580000000.0 -312667000000.0 -866410000000.0 -852900000000.0 -882281000000.0 -368474000000.0 -621658000000.0 -676447000000.0 -218041000000.0 -186576000000.0 -459061000000.0 -41735700000.0 -78614600000.0 -95909100000.0 -417251000000.0 -132381000000.0 -291979000000.0 -261672000000.0 -100595000000.0 