# vtk DataFile Version 2.0
Time step 102
ASCII
DATASET UNSTRUCTURED_GRID
POINTS 4650 float
208866.0 261946.0 0
215441.0 261524.0 0
219280.0 262571.0 0
243829.0 263068.0 0
247255.0 261008.0 0
250761.0 262929.0 0
257708.0 262860.0 0
284499.0 262814.0 0
291237.0 262901.0 0
294668.0 260884.0 0
298003.0 263056.0 0
205423.0 263940.0 0
212299.0 263957.0 0
222946.0 264121.0 0
233483.0 265411.0 0
236869.0 263283.0 0
240415.0 265143.0 0
247337.0 264988.0 0
254253.0 264869.0 0
261177.0 264845.0 0
265168.0 264688.0 0
274661.0 264343.0 0
281084.0 264853.0 0
287852.0 264955.0 0
294594.0 265039.0 0
201997.0 265941.0 0
205437.0 267930.0 0
208870.0 265945.0 0
212324.0 267944.0 0
215741.0 265929.0 0
219638.0 266530.0 0
223255.0 268086.0 0
226549.0 265820.0 0
230125.0 267574.0 0
237029.0 267258.0 0
243930.0 267046.0 0
250828.0 266911.0 0
257717.0 266843.0 0
267376.0 268010.0 0
271194.0 266323.0 0
277708.0 266913.0 0
284460.0 266958.0 0
291216.0 267036.0 0
298005.0 267051.0 0
201997.0 269916.0 0
208884.0 269921.0 0
215792.0 269916.0 0
219730.0 270493.0 0
226805.0 269789.0 0
233670.0 269387.0 0
240550.0 269123.0 0
247423.0 268960.0 0
250889.0 270888.0 0
254290.0 268857.0 0
257724.0 270827.0 0
261150.0 268825.0 0
264545.0 270810.0 0
270656.0 270268.0 0
274311.0 268886.0 0
277721.0 270927.0 0
281095.0 268967.0 0
284479.0 270995.0 0
287841.0 269015.0 0
294616.0 269038.0 0
205436.0 271892.0 0
212338.0 271909.0 0
223396.0 272037.0 0
230337.0 271548.0 0
233876.0 273344.0 0
237199.0 271224.0 0
240696.0 273090.0 0
244045.0 271017.0 0
247512.0 272929.0 0
254325.0 272836.0 0
261125.0 272816.0 0
267822.0 272941.0 0
274357.0 272872.0 0
281113.0 272961.0 0
287868.0 273004.0 0
291237.0 271025.0 0
294626.0 273025.0 0
298006.0 271042.0 0
201996.0 273871.0 0
205410.0 275834.0 0
208870.0 273869.0 0
212291.0 275855.0 0
215794.0 273886.0 0
219738.0 274438.0 0
223409.0 275970.0 0
226994.0 273731.0 0
230580.0 275477.0 0
237378.0 275183.0 0
244163.0 274982.0 0
250951.0 274859.0 0
257729.0 274809.0 0
264452.0 274873.0 0
271128.0 274974.0 0
277758.0 274923.0 0
284503.0 274978.0 0
291253.0 275006.0 0
298007.0 275021.0 0
201994.0 277820.0 0
208790.0 277801.0 0
215716.0 277827.0 0
219632.0 278360.0 0
227343.0 277629.0 0
234092.0 277292.0 0
240843.0 277052.0 0
247601.0 276894.0 0
254359.0 276812.0 0
257737.0 278792.0 0
261089.0 276819.0 0
267788.0 276920.0 0
274473.0 276958.0 0
281150.0 276946.0 0
287887.0 276981.0 0
294632.0 276999.0 0
205372.0 279781.0 0
212108.0 279776.0 0
224184.0 279790.0 0
230853.0 279419.0 0
234304.0 281247.0 0
237554.0 279140.0 0
240981.0 281010.0 0
244277.0 278943.0 0
247685.0 280854.0 0
251012.0 278826.0 0
254397.0 280781.0 0
261098.0 280796.0 0
264440.0 278852.0 0
267798.0 280877.0 0
271142.0 278935.0 0
274501.0 280924.0 0
277832.0 278937.0 0
281193.0 280929.0 0
284531.0 278952.0 0
287903.0 280946.0 0
291264.0 278974.0 0
294637.0 280958.0 0
298008.0 278985.0 0
201992.0 281768.0 0
205338.0 283737.0 0
208706.0 281761.0 0
212001.0 283738.0 0
215378.0 281714.0 0
221115.0 281947.0 0
224548.0 283733.0 0
227671.0 281568.0 0
231097.0 283378.0 0
237717.0 283098.0 0
244381.0 282898.0 0
251070.0 282784.0 0
257763.0 282758.0 0
264457.0 282811.0 0
271159.0 282884.0 0
277856.0 282908.0 0
284553.0 282919.0 0
291272.0 282928.0 0
298008.0 282934.0 0
201989.0 285713.0 0
208648.0 285735.0 0
215035.0 286019.0 0
218188.0 284141.0 0
221486.0 285918.0 0
227934.0 285531.0 0
234488.0 285208.0 0
241102.0 284964.0 0
247759.0 284804.0 0
254436.0 284735.0 0
261121.0 284751.0 0
267815.0 284821.0 0
274515.0 284875.0 0
281208.0 284893.0 0
287913.0 284899.0 0
294640.0 284901.0 0
205307.0 287689.0 0
211825.0 287871.0 0
218325.0 288010.0 0
224805.0 287703.0 0
231293.0 287341.0 0
237852.0 287053.0 0
241196.0 288910.0 0
244467.0 286845.0 0
247816.0 288742.0 0
251120.0 286729.0 0
254468.0 288672.0 0
257791.0 286704.0 0
261140.0 288685.0 0
264476.0 286751.0 0
267827.0 288752.0 0
271170.0 286822.0 0
274519.0 288815.0 0
277864.0 286861.0 0
281209.0 288839.0 0
284559.0 286870.0 0
287913.0 288835.0 0
291274.0 286867.0 0
294639.0 288824.0 0
298009.0 286865.0 0
201987.0 289649.0 0
205285.0 291638.0 0
208566.0 289729.0 0
215110.0 289929.0 0
221648.0 289845.0 0
224963.0 291645.0 0
228127.0 289494.0 0
231437.0 291299.0 0
234631.0 289166.0 0
237949.0 291001.0 0
244527.0 290778.0 0
251153.0 290656.0 0
257808.0 290630.0 0
264484.0 290675.0 0
271173.0 290750.0 0
277860.0 290799.0 0
284554.0 290804.0 0
291271.0 290786.0 0
298009.0 290774.0 0
201986.0 293566.0 0
208596.0 293653.0 0
211866.0 291793.0 0
215225.0 293808.0 0
218453.0 291889.0 0
221798.0 293766.0 0
228262.0 293440.0 0
234726.0 293116.0 0
241255.0 292843.0 0
247848.0 292661.0 0
254482.0 292588.0 0
261142.0 292600.0 0
267825.0 292669.0 0
274511.0 292743.0 0
281198.0 292770.0 0
287903.0 292752.0 0
294636.0 292725.0 0
205303.0 295540.0 0
211949.0 295666.0 0
218624.0 295771.0 0
225117.0 295578.0 0
231524.0 295248.0 0
238003.0 294937.0 0
241272.0 296759.0 0
244554.0 294691.0 0
247849.0 296558.0 0
251161.0 294564.0 0
254465.0 296485.0 0
257802.0 294535.0 0
261117.0 296493.0 0
264473.0 294580.0 0
267802.0 296568.0 0
271160.0 294666.0 0
274490.0 296660.0 0
277844.0 294725.0 0
281176.0 296688.0 0
284538.0 294721.0 0
287886.0 296646.0 0
291261.0 294682.0 0
294630.0 296599.0 0
298009.0 294658.0 0
201987.0 297442.0 0
205328.0 299390.0 0
208649.0 297520.0 0
212031.0 299492.0 0
215346.0 297647.0 0
222060.0 297704.0 0
228343.0 297390.0 0
231561.0 299187.0 0
234772.0 297054.0 0
238010.0 298857.0 0
244541.0 298578.0 0
251135.0 298451.0 0
257761.0 298419.0 0
264431.0 298462.0 0
271127.0 298567.0 0
277816.0 298641.0 0
284514.0 298620.0 0
291248.0 298550.0 0
298010.0 298514.0 0
201987.0 301273.0 0
208697.0 301337.0 0
215445.0 301445.0 0
218777.0 299600.0 0
222230.0 301540.0 0
225772.0 300166.0 0
229195.0 302153.0 0
234768.0 300978.0 0
241243.0 300655.0 0
247811.0 300431.0 0
254409.0 300362.0 0
257670.0 302283.0 0
261051.0 300363.0 0
267746.0 300444.0 0
274450.0 300565.0 0
281147.0 300594.0 0
287867.0 300516.0 0
294625.0 300443.0 0
205347.0 303194.0 0
212092.0 303276.0 0
218878.0 303386.0 0
225881.0 304082.0 0
232621.0 304115.0 0
237968.0 302760.0 0
241158.0 304532.0 0
244482.0 302427.0 0
247728.0 304277.0 0
251067.0 302319.0 0
254305.0 304224.0 0
260923.0 304205.0 0
264341.0 302315.0 0
267637.0 304285.0 0
271064.0 302449.0 0
274391.0 304451.0 0
277779.0 302545.0 0
281123.0 304488.0 0
284491.0 302500.0 0
287857.0 304358.0 0
291239.0 302387.0 0
294626.0 304253.0 0
298010.0 302340.0 0
201987.0 305065.0 0
205355.0 306960.0 0
208726.0 305111.0 0
212119.0 307025.0 0
215504.0 305207.0 0
218919.0 307144.0 0
222304.0 305343.0 0
229288.0 306062.0 0
236060.0 306047.0 0
244367.0 306212.0 0
250943.0 306173.0 0
257538.0 306132.0 0
264158.0 306130.0 0
270947.0 306299.0 0
277751.0 306432.0 0
284486.0 306361.0 0
291246.0 306190.0 0
298011.0 306137.0 0
201987.0 308824.0 0
208730.0 308852.0 0
215517.0 308939.0 0
222333.0 309103.0 0
225962.0 307996.0 0
229359.0 309963.0 0
232706.0 308004.0 0
236141.0 309913.0 0
239512.0 307964.0 0
244016.0 309876.0 0
247552.0 308101.0 0
250792.0 309993.0 0
254169.0 308070.0 0
257387.0 309974.0 0
260753.0 308043.0 0
263932.0 309961.0 0
267351.0 308057.0 0
270417.0 310018.0 0
274335.0 308299.0 0
281132.0 308378.0 0
287880.0 308167.0 0
294644.0 308032.0 0
201986.0 312562.0 0
205349.0 310697.0 0
208702.0 312568.0 0
212107.0 310743.0 0
218917.0 310864.0 0
226016.0 311912.0 0
232777.0 311876.0 0
240625.0 311627.0 0
247366.0 311848.0 0
254032.0 311898.0 0
260580.0 311891.0 0
267039.0 311906.0 0
273385.0 311928.0 0
277767.0 310298.0 0
281225.0 312279.0 0
284538.0 310202.0 0
288002.0 311936.0 0
291301.0 309958.0 0
294697.0 311791.0 0
298014.0 309914.0 0
205329.0 314419.0 0
212040.0 314436.0 0
215481.0 312636.0 0
218857.0 314541.0 0
222320.0 312817.0 0
229414.0 313851.0 0
237328.0 313526.0 0
243994.0 313663.0 0
250666.0 313786.0 0
257251.0 313815.0 0
263729.0 313829.0 0
270089.0 313870.0 0
276276.0 313750.0 0
284786.0 314005.0 0
291443.0 313707.0 0
298019.0 313690.0 0
201984.0 316288.0 0
208651.0 316277.0 0
215347.0 316296.0 0
222249.0 316480.0 0
226048.0 315828.0 0
230866.0 317367.0 0
234079.0 315444.0 0
237458.0 317385.0 0
240700.0 315491.0 0
244036.0 317491.0 0
247327.0 315644.0 0
250620.0 317601.0 0
253927.0 315719.0 0
257155.0 317657.0 0
260440.0 315750.0 0
263599.0 317707.0 0
266840.0 315793.0 0
269932.0 317765.0 0
273108.0 315805.0 0
276120.0 317678.0 0
279113.0 315462.0 0
282150.0 316602.0 0
288294.0 315685.0 0
291647.0 317487.0 0
294784.0 315561.0 0
298024.0 317484.0 0
201982.0 320006.0 0
205302.0 318136.0 0
208595.0 319989.0 0
211944.0 318134.0 0
215195.0 319990.0 0
218593.0 318144.0 0
221688.0 319998.0 0
227696.0 319311.0 0
234250.0 319297.0 0
240795.0 319355.0 0
247344.0 319470.0 0
253879.0 319549.0 0
260354.0 319609.0 0
266744.0 319681.0 0
273029.0 319713.0 0
279216.0 319379.0 0
285418.0 317875.0 0
288668.0 319524.0 0
294882.0 319370.0 0
205276.0 321852.0 0
211857.0 321847.0 0
218384.0 321860.0 0
224811.0 321551.0 0
231079.0 321225.0 0
234410.0 323156.0 0
237590.0 321248.0 0
240899.0 323217.0 0
244105.0 321338.0 0
250622.0 321432.0 0
257109.0 321500.0 0
263536.0 321574.0 0
269894.0 321655.0 0
276163.0 321583.0 0
279266.0 323363.0 0
282479.0 320241.0 0
285720.0 321642.0 0
291847.0 321332.0 0
298029.0 321307.0 0
201980.0 323719.0 0
205256.0 325564.0 0
208547.0 323705.0 0
211797.0 325564.0 0
215088.0 323713.0 0
221611.0 323668.0 0
224856.0 325344.0 0
228022.0 323262.0 0
231270.0 325109.0 0
237712.0 325107.0 0
244185.0 325192.0 0
247391.0 323312.0 0
250655.0 325273.0 0
253873.0 323387.0 0
257105.0 325341.0 0
260319.0 323458.0 0
263518.0 325422.0 0
266714.0 323546.0 0
269901.0 325512.0 0
273071.0 323605.0 0
276259.0 325543.0 0
282647.0 323725.0 0
288865.0 323349.0 0
291936.0 325186.0 0
294959.0 323221.0 0
298032.0 325146.0 0
201979.0 327425.0 0
208515.0 327416.0 0
215044.0 327416.0 0
218329.0 325557.0 0
221590.0 327345.0 0
228088.0 327094.0 0
234534.0 327008.0 0
240995.0 327073.0 0
247454.0 327159.0 0
253901.0 327226.0 0
260321.0 327296.0 0
266711.0 327386.0 0
273084.0 327473.0 0
279290.0 327691.0 0
282656.0 327120.0 0
285840.0 325341.0 0
288895.0 327149.0 0
294983.0 327071.0 0
205243.0 329268.0 0
211766.0 329267.0 0
218297.0 329240.0 0
224836.0 329080.0 0
231325.0 328924.0 0
237802.0 328946.0 0
241069.0 330907.0 0
244265.0 329041.0 0
247528.0 331002.0 0
250710.0 329115.0 0
257132.0 329175.0 0
263524.0 329254.0 0
269891.0 329350.0 0
276185.0 329509.0 0
285751.0 329010.0 0
291926.0 329008.0 0
298034.0 328971.0 0
201978.0 331119.0 0
205237.0 332958.0 0
208498.0 331115.0 0
211747.0 332959.0 0
215015.0 331106.0 0
218256.0 332921.0 0
221544.0 331025.0 0
224770.0 332787.0 0
228065.0 330853.0 0
231293.0 332672.0 0
234574.0 330807.0 0
237833.0 332735.0 0
244337.0 332871.0 0
250785.0 332952.0 0
253954.0 331062.0 0
257184.0 333005.0 0
260347.0 331125.0 0
263541.0 333080.0 0
266708.0 331215.0 0
269853.0 333193.0 0
273020.0 331346.0 0
276079.0 333425.0 0
279209.0 331715.0 0
282442.0 330563.0 0
285558.0 332627.0 0
288800.0 330893.0 0
291857.0 332771.0 0
294968.0 330885.0 0
298033.0 332760.0 0
201977.0 334797.0 0
208489.0 334800.0 0
214987.0 334792.0 0
221479.0 334711.0 0
227972.0 334562.0 0
231154.0 336359.0 0
234528.0 334536.0 0
241103.0 334698.0 0
247609.0 334829.0 0
254035.0 334893.0 0
260393.0 334952.0 0
266701.0 335047.0 0
272945.0 335216.0 0
279115.0 335602.0 0
282280.0 334152.0 0
288668.0 334572.0 0
294932.0 334645.0 0
201977.0 338456.0 0
205234.0 336632.0 0
208487.0 338472.0 0
211734.0 336642.0 0
214967.0 338480.0 0
218211.0 336609.0 0
221412.0 338409.0 0
224675.0 336485.0 0
227840.0 338262.0 0
234309.0 338177.0 0
237778.0 336447.0 0
241061.0 338421.0 0
244389.0 336663.0 0
247717.0 338619.0 0
250889.0 336776.0 0
254150.0 338720.0 0
257264.0 336834.0 0
263568.0 336910.0 0
269816.0 337041.0 0
276002.0 337297.0 0
282220.0 337830.0 0
285430.0 336251.0 0
288577.0 338225.0 0
291776.0 336475.0 0
294895.0 338350.0 0
298032.0 336501.0 0
205236.0 340286.0 0
211733.0 340318.0 0
218181.0 340309.0 0
224584.0 340196.0 0
230971.0 340050.0 0
234054.0 341857.0 0
237409.0 340005.0 0
240347.0 341863.0 0
244462.0 340372.0 0
251037.0 340582.0 0
257374.0 340665.0 0
260459.0 338782.0 0
263613.0 340746.0 0
266703.0 338885.0 0
269801.0 340883.0 0
272896.0 339069.0 0
275969.0 341124.0 0
279076.0 339415.0 0
285372.0 339898.0 0
291722.0 340140.0 0
298031.0 340197.0 0
201977.0 342092.0 0
208495.0 342126.0 0
214966.0 342169.0 0
221371.0 342124.0 0
224534.0 343926.0 0
227724.0 341982.0 0
230832.0 343779.0 0
237063.0 343696.0 0
243221.0 343618.0 0
247879.0 342356.0 0
254312.0 342548.0 0
260551.0 342620.0 0
266726.0 342725.0 0
272880.0 342897.0 0
279064.0 343184.0 0
282196.0 341528.0 0
285348.0 343552.0 0
288532.0 341870.0 0
294872.0 342016.0 0
201977.0 345700.0 0
205243.0 343915.0 0
208514.0 345753.0 0
211750.0 343981.0 0
214996.0 345851.0 0
218182.0 344018.0 0
221376.0 345854.0 0
227676.0 345725.0 0
233904.0 345600.0 0
240056.0 345531.0 0
243069.0 347306.0 0
246085.0 345291.0 0
248987.0 346930.0 0
251249.0 344370.0 0
254528.0 346391.0 0
257521.0 344506.0 0
263680.0 344589.0 0
269812.0 344714.0 0
275964.0 344916.0 0
282192.0 345222.0 0
288514.0 345505.0 0
291695.0 343783.0 0
294862.0 345655.0 0
298030.0 343859.0 0
205254.0 347510.0 0
211788.0 347617.0 0
218227.0 347728.0 0
224553.0 347669.0 0
227727.0 349473.0 0
230802.0 347532.0 0
233932.0 349348.0 0
236973.0 347432.0 0
240061.0 349246.0 0
246102.0 349031.0 0
251942.0 348615.0 0
257714.0 348366.0 0
260671.0 346470.0 0
263766.0 348440.0 0
266771.0 346564.0 0
269845.0 348534.0 0
272890.0 346703.0 0
275979.0 348681.0 0
279069.0 346923.0 0
285345.0 347201.0 0
291686.0 347407.0 0
298030.0 347493.0 0
201977.0 349274.0 0
205266.0 351063.0 0
208543.0 349341.0 0
211841.0 351209.0 0
215059.0 349512.0 0
218325.0 351424.0 0
221445.0 349589.0 0
224659.0 351409.0 0
230910.0 351274.0 0
237076.0 351165.0 0
243161.0 351027.0 0
249135.0 350745.0 0
254946.0 350397.0 0
260810.0 350342.0 0
266835.0 350401.0 0
272919.0 350490.0 0
279087.0 350638.0 0
282200.0 348902.0 0
285353.0 350838.0 0
288513.0 349128.0 0
291687.0 351014.0 0
294860.0 349272.0 0
298031.0 351107.0 0
302245.0 352050.0 0
201975.0 352814.0 0
208566.0 352877.0 0
215149.0 353126.0 0
221588.0 353318.0 0
227889.0 353203.0 0
234107.0 353080.0 0
237294.0 354898.0 0
240220.0 352974.0 0
243342.0 354775.0 0
246247.0 352789.0 0
249296.0 354566.0 0
252151.0 352502.0 0
255134.0 354338.0 0
257954.0 352310.0 0
260969.0 354244.0 0
263869.0 352300.0 0
269897.0 352344.0 0
276007.0 352426.0 0
282216.0 352566.0 0
288520.0 352735.0 0
294862.0 352871.0 0
201973.0 356331.0 0
205251.0 354571.0 0
208513.0 356347.0 0
211877.0 354733.0 0
215199.0 356651.0 0
218464.0 355083.0 0
221775.0 357042.0 0
224853.0 355131.0 0
228191.0 356897.0 0
231147.0 354992.0 0
234385.0 356807.0 0
240447.0 356725.0 0
246422.0 356583.0 0
252301.0 356387.0 0
258116.0 356234.0 0
263989.0 356168.0 0
266916.0 354236.0 0
269966.0 356146.0 0
272965.0 354263.0 0
276046.0 356155.0 0
279112.0 354335.0 0
282236.0 356214.0 0
285366.0 354459.0 0
288531.0 356322.0 0
291694.0 354603.0 0
294869.0 356455.0 0
298032.0 354706.0 0
205212.0 358061.0 0
208415.0 359817.0 0
211736.0 358154.0 0
214854.0 360000.0 0
218535.0 358673.0 0
225235.0 358790.0 0
231494.0 358702.0 0
237573.0 358649.0 0
243551.0 358563.0 0
249451.0 358415.0 0
255280.0 358251.0 0
261109.0 358138.0 0
267017.0 358070.0 0
273025.0 358026.0 0
279142.0 358017.0 0
285379.0 358060.0 0
291706.0 358171.0 0
298032.0 358296.0 0
302175.0 360135.0 0
201970.0 359837.0 0
205168.0 361545.0 0
211552.0 361630.0 0
217672.0 361877.0 0
222299.0 360655.0 0
228628.0 360582.0 0
231910.0 362440.0 0
234724.0 360554.0 0
237870.0 362440.0 0
240698.0 360513.0 0
243764.0 362390.0 0
246602.0 360415.0 0
249611.0 362283.0 0
252445.0 360273.0 0
255426.0 362146.0 0
258260.0 360135.0 0
264116.0 360029.0 0
267136.0 361897.0 0
270055.0 359943.0 0
273103.0 361783.0 0
276095.0 359874.0 0
279176.0 361690.0 0
282254.0 359848.0 0
285386.0 361638.0 0
288541.0 359884.0 0
291719.0 361712.0 0
294880.0 360022.0 0
298034.0 361885.0 0
201964.0 363329.0 0
205058.0 365008.0 0
208321.0 363297.0 0
214556.0 363596.0 0
217633.0 365433.0 0
220508.0 363383.0 0
223552.0 364740.0 0
225811.0 362456.0 0
229154.0 364315.0 0
235078.0 364348.0 0
240948.0 364343.0 0
246786.0 364275.0 0
252600.0 364157.0 0
258412.0 364018.0 0
261252.0 362016.0 0
264258.0 363878.0 0
270166.0 363735.0 0
276157.0 363590.0 0
282268.0 363473.0 0
288548.0 363412.0 0
294897.0 363574.0 0
201958.0 366837.0 0
208054.0 366702.0 0
211445.0 365144.0 0
214646.0 367178.0 0
220899.0 366947.0 0
226659.0 366354.0 0
232335.0 366246.0 0
238162.0 366277.0 0
243976.0 366250.0 0
249782.0 366160.0 0
255587.0 366027.0 0
261410.0 365876.0 0
267275.0 365716.0 0
273199.0 365540.0 0
279213.0 365366.0 0
282265.0 367099.0 0
285385.0 365187.0 0
288548.0 366893.0 0
291737.0 365216.0 0
294923.0 367109.0 0
298036.0 365494.0 0
204943.0 368524.0 0
210959.0 368382.0 0
213525.0 370180.0 0
218100.0 368912.0 0
221464.0 370525.0 0
224108.0 368484.0 0
227168.0 370240.0 0
229728.0 368210.0 0
232751.0 370148.0 0
235416.0 368200.0 0
238435.0 370158.0 0
241190.0 368210.0 0
244186.0 370131.0 0
246976.0 368151.0 0
252772.0 368034.0 0
258583.0 367883.0 0
261591.0 369721.0 0
264421.0 367714.0 0
267439.0 369527.0 0
270296.0 367524.0 0
273315.0 369304.0 0
276228.0 367315.0 0
279244.0 369056.0 0
285341.0 368691.0 0
291743.0 368667.0 0
298037.0 369155.0 0
197757.0 371677.0 0
201953.0 370378.0 0
207843.0 370204.0 0
210607.0 371958.0 0
216282.0 371424.0 0
219205.0 372731.0 0
224581.0 372275.0 0
230146.0 372137.0 0
235731.0 372113.0 0
241420.0 372102.0 0
247176.0 372031.0 0
249968.0 370036.0 0
252968.0 371900.0 0
255770.0 369892.0 0
258780.0 371732.0 0
264607.0 371538.0 0
270456.0 371315.0 0
276320.0 371060.0 0
282237.0 370749.0 0
285253.0 372142.0 0
288461.0 370298.0 0
291553.0 372012.0 0
294932.0 370609.0 0
298026.0 372912.0 0
197714.0 378706.0 0
200302.0 377092.0 0
201964.0 373942.0 0
204878.0 372090.0 0
207724.0 373805.0 0
213588.0 373607.0 0
216641.0 374973.0 0
222138.0 374386.0 0
227559.0 374142.0 0
233080.0 374090.0 0
238687.0 374074.0 0
244399.0 374020.0 0
250175.0 373903.0 0
255981.0 373741.0 0
261800.0 373552.0 0
267624.0 373333.0 0
270628.0 375108.0 0
273463.0 373083.0 0
276457.0 374833.0 0
279299.0 372782.0 0
282222.0 374475.0 0
288341.0 373677.0 0
291358.0 375429.0 0
294489.0 373906.0 0
296509.0 376345.0 0
299182.0 376751.0 0
195292.0 380221.0 0
199513.0 380666.0 0
202591.0 378130.0 0
205392.0 379280.0 0
204834.0 375685.0 0
210760.0 375426.0 0
213854.0 377009.0 0
219594.0 376498.0 0
222474.0 378240.0 0
225036.0 376191.0 0
227887.0 378097.0 0
230463.0 376083.0 0
233333.0 378051.0 0
235994.0 376056.0 0
238913.0 378001.0 0
241644.0 376007.0 0
247392.0 375903.0 0
253190.0 375749.0 0
256220.0 377574.0 0
259005.0 375564.0 0
262034.0 377372.0 0
264822.0 375355.0 0
267838.0 377142.0 0
273610.0 376864.0 0
279435.0 376566.0 0
285197.0 375488.0 0
285575.0 378487.0 0
288438.0 377045.0 0
293704.0 377652.0 0
298834.0 379555.0 0
301988.0 378517.0 0
304792.0 380270.0 0
189796.0 383653.0 0
192669.0 381863.0 0
196291.0 382689.0 0
202397.0 381331.0 0
205345.0 382622.0 0
208281.0 380805.0 0
207949.0 377261.0 0
211018.0 378863.0 0
216878.0 378543.0 0
219800.0 380231.0 0
225302.0 380107.0 0
230703.0 380058.0 0
236207.0 380005.0 0
241864.0 379905.0 0
244621.0 377902.0 0
247631.0 379757.0 0
250407.0 377754.0 0
253442.0 379580.0 0
259257.0 379385.0 0
262290.0 381186.0 0
265058.0 379167.0 0
270839.0 378918.0 0
273824.0 380687.0 0
276551.0 378601.0 0
279417.0 380288.0 0
282397.0 378340.0 0
288079.0 380704.0 0
290919.0 379172.0 0
295999.0 380050.0 0
298579.0 382659.0 0
301679.0 381534.0 0
304602.0 383293.0 0
307664.0 382066.0 0
186759.0 385544.0 0
193029.0 384658.0 0
195968.0 385651.0 0
199240.0 383683.0 0
202196.0 384411.0 0
211205.0 382356.0 0
214052.0 380478.0 0
217017.0 382146.0 0
222654.0 382069.0 0
228075.0 382058.0 0
233521.0 382019.0 0
239119.0 381916.0 0
244859.0 381762.0 0
250669.0 381583.0 0
256488.0 381392.0 0
259531.0 383198.0 0
265309.0 382980.0 0
268068.0 380952.0 0
271061.0 382728.0 0
276792.0 382465.0 0
281902.0 382202.0 0
284836.0 381404.0 0
290433.0 382901.0 0
293271.0 381426.0 0
295692.0 383761.0 0
301478.0 384587.0 0
307564.0 385138.0 0
310576.0 383883.0 0
313553.0 385741.0 0
183675.0 387470.0 0
186500.0 388534.0 0
189716.0 386572.0 0
192557.0 387549.0 0
195392.0 388553.0 0
198897.0 386749.0 0
201857.0 387316.0 0
205195.0 385853.0 0
208263.0 384256.0 0
211141.0 385794.0 0
214148.0 383995.0 0
217164.0 385736.0 0
219935.0 383948.0 0
222693.0 385914.0 0
225411.0 384020.0 0
228137.0 386007.0 0
230840.0 384029.0 0
233645.0 385965.0 0
236382.0 383938.0 0
239318.0 385794.0 0
242090.0 383773.0 0
247896.0 383584.0 0
253724.0 383394.0 0
256778.0 385203.0 0
262561.0 385001.0 0
268312.0 384767.0 0
274028.0 384502.0 0
279623.0 384409.0 0
284396.0 384630.0 0
287350.0 384142.0 0
289565.0 386421.0 0
292805.0 385066.0 0
295467.0 387391.0 0
298407.0 385926.0 0
301361.0 387667.0 0
304490.0 386292.0 0
307596.0 388190.0 0
310593.0 386925.0 0
313661.0 388789.0 0
316557.0 387618.0 0
177639.0 391249.0 0
180637.0 389372.0 0
183462.0 390553.0 0
189306.0 389557.0 0
192138.0 390530.0 0
198137.0 389710.0 0
201035.0 390151.0 0
204548.0 388955.0 0
207999.0 387704.0 0
211569.0 388959.0 0
214352.0 387410.0 0
217116.0 389421.0 0
219927.0 387718.0 0
225386.0 387925.0 0
230891.0 387973.0 0
236534.0 387825.0 0
242336.0 387595.0 0
245121.0 385587.0 0
248193.0 387382.0 0
250960.0 385391.0 0
251275.0 389183.0 0
254028.0 387198.0 0
257081.0 389013.0 0
259820.0 387013.0 0
262842.0 388823.0 0
265572.0 386799.0 0
268561.0 388590.0 0
271291.0 386548.0 0
274235.0 388344.0 0
276925.0 386332.0 0
279821.0 388242.0 0
282380.0 386516.0 0
286054.0 387699.0 0
288980.0 389601.0 0
291937.0 391216.0 0
292441.0 388331.0 0
298267.0 389233.0 0
301497.0 390676.0 0
304559.0 389222.0 0
307795.0 391243.0 0
310726.0 389965.0 0
316718.0 390688.0 0
319563.0 389495.0 0
174681.0 393103.0 0
180473.0 392518.0 0
183362.0 393685.0 0
186331.0 391643.0 0
189265.0 392701.0 0
192252.0 393754.0 0
194927.0 391646.0 0
197648.0 392738.0 0
200324.0 393278.0 0
203378.0 392273.0 0
206385.0 391285.0 0
209173.0 390618.0 0
214286.0 391029.0 0
219739.0 391523.0 0
222583.0 389777.0 0
225232.0 391805.0 0
228096.0 389926.0 0
233727.0 389861.0 0
239531.0 389609.0 0
245416.0 389371.0 0
248518.0 391157.0 0
254341.0 391001.0 0
260113.0 390835.0 0
265844.0 390628.0 0
271526.0 390377.0 0
277186.0 390153.0 0
283182.0 389817.0 0
286219.0 391433.0 0
289311.0 393133.0 0
295225.0 391010.0 0
298535.0 392382.0 0
301830.0 393671.0 0
304833.0 392064.0 0
310947.0 393041.0 0
313836.0 391843.0 0
316953.0 393758.0 0
319780.0 392565.0 0
322570.0 391375.0 0
328320.0 394975.0 0
168805.0 396773.0 0
171763.0 394925.0 0
174689.0 396379.0 0
177549.0 394454.0 0
180458.0 395712.0 0
186315.0 394772.0 0
189310.0 395833.0 0
195289.0 395039.0 0
198425.0 396141.0 0
202041.0 395656.0 0
205289.0 394745.0 0
208437.0 393945.0 0
211560.0 392679.0 0
213998.0 394763.0 0
216866.0 393167.0 0
222310.0 393643.0 0
227970.0 393788.0 0
230883.0 391867.0 0
233797.0 393678.0 0
236687.0 391636.0 0
239781.0 393342.0 0
242619.0 391358.0 0
242976.0 395058.0 0
245754.0 393119.0 0
248852.0 394933.0 0
251598.0 392975.0 0
254646.0 394815.0 0
257382.0 392832.0 0
263125.0 392654.0 0
268829.0 392425.0 0
274485.0 392150.0 0
277530.0 393819.0 0
280362.0 391800.0 0
283488.0 393436.0 0
286696.0 395080.0 0
290255.0 396406.0 0
292867.0 394071.0 0
296109.0 394509.0 0
299386.0 395674.0 0
305093.0 394818.0 0
308093.0 394328.0 0
311453.0 396092.0 0
314143.0 394909.0 0
319742.0 395738.0 0
322649.0 394543.0 0
325487.0 393204.0 0
328290.0 398070.0 0
331238.0 396798.0 0
165629.0 398746.0 0
171824.0 398102.0 0
174786.0 399733.0 0
177587.0 397714.0 0
180619.0 398911.0 0
183453.0 396853.0 0
186505.0 397943.0 0
189578.0 399048.0 0
192303.0 396876.0 0
195258.0 398217.0 0
200893.0 398590.0 0
204286.0 397997.0 0
207571.0 397182.0 0
210867.0 396112.0 0
216426.0 396942.0 0
219377.0 395348.0 0
224957.0 395621.0 0
230842.0 395686.0 0
236887.0 395339.0 0
240181.0 396968.0 0
246099.0 396869.0 0
251907.0 396782.0 0
257667.0 396664.0 0
260400.0 394666.0 0
263404.0 396491.0 0
266124.0 394465.0 0
269123.0 396256.0 0
271810.0 394203.0 0
274832.0 395918.0 0
280540.0 395411.0 0
283501.0 396924.0 0
286364.0 398324.0 0
293902.0 397177.0 0
297254.0 397932.0 0
302690.0 396823.0 0
306139.0 397556.0 0
309012.0 397353.0 0
313815.0 398333.0 0
316767.0 397011.0 0
319527.0 398887.0 0
322536.0 397763.0 0
325424.0 396486.0 0
331267.0 399915.0 0
334186.0 398644.0 0
162508.0 400698.0 0
165276.0 401791.0 0
168392.0 399744.0 0
171034.0 400936.0 0
177916.0 400968.0 0
183699.0 400028.0 0
186777.0 401140.0 0
192687.0 400112.0 0
197840.0 399344.0 0
206455.0 400370.0 0
209908.0 399420.0 0
213272.0 398303.0 0
218856.0 399190.0 0
221869.0 397515.0 0
224553.0 399292.0 0
227784.0 397563.0 0
230808.0 399397.0 0
233909.0 397370.0 0
237392.0 398851.0 0
243339.0 398774.0 0
249163.0 398729.0 0
254928.0 398648.0 0
260670.0 398506.0 0
266408.0 398297.0 0
272149.0 398004.0 0
277851.0 397566.0 0
280850.0 399151.0 0
283829.0 400658.0 0
289134.0 399358.0 0
292197.0 399778.0 0
295471.0 400524.0 0
298779.0 401311.0 0
300626.0 398968.0 0
304168.0 399828.0 0
307735.0 400453.0 0
310938.0 399768.0 0
316378.0 400266.0 0
322442.0 400940.0 0
325351.0 399804.0 0
328259.0 401101.0 0
331431.0 402992.0 0
334276.0 401852.0 0
337132.0 400483.0 0
340051.0 402312.0 0
156390.0 404527.0 0
159435.0 402622.0 0
162231.0 403799.0 0
168003.0 402913.0 0
170604.0 404323.0 0
173360.0 402406.0 0
175959.0 403383.0 0
181053.0 402149.0 0
184217.0 403278.0 0
189782.0 402281.0 0
192729.0 403127.0 0
195793.0 401888.0 0
199507.0 401830.0 0
202940.0 401073.0 0
208727.0 402619.0 0
212249.0 401660.0 0
215676.0 400570.0 0
218074.0 402938.0 0
221301.0 401436.0 0
224183.0 402718.0 0
227484.0 401191.0 0
232122.0 402457.0 0
234666.0 400693.0 0
237837.0 402515.0 0
240579.0 400650.0 0
243658.0 402537.0 0
246412.0 400648.0 0
249429.0 402555.0 0
252183.0 400613.0 0
255176.0 402499.0 0
257928.0 400510.0 0
260924.0 402353.0 0
263672.0 400328.0 0
266688.0 402114.0 0
269434.0 400065.0 0
272489.0 401790.0 0
275195.0 399705.0 0
278255.0 401348.0 0
286905.0 401918.0 0
290222.0 402638.0 0
293558.0 403139.0 0
296934.0 403845.0 0
302268.0 402091.0 0
305916.0 402738.0 0
309783.0 403010.0 0
313200.0 401747.0 0
316035.0 403389.0 0
319278.0 401900.0 0
322053.0 404002.0 0
325271.0 403198.0 0
328388.0 403896.0 0
334101.0 405219.0 0
337078.0 403708.0 0
343108.0 404212.0 0
153357.0 406424.0 0
156213.0 407681.0 0
159217.0 405758.0 0
162057.0 406980.0 0
165028.0 404962.0 0
167772.0 406248.0 0
173355.0 405731.0 0
178731.0 404477.0 0
181647.0 405511.0 0
184624.0 406548.0 0
187409.0 404476.0 0
190707.0 405679.0 0
194512.0 405352.0 0
197863.0 404547.0 0
201579.0 404150.0 0
205137.0 403425.0 0
207350.0 405725.0 0
210968.0 404898.0 0
214546.0 403966.0 0
220022.0 405677.0 0
226458.0 405144.0 0
229384.0 403825.0 0
235093.0 404362.0 0
240899.0 404402.0 0
246665.0 404467.0 0
252413.0 404468.0 0
258162.0 404367.0 0
263931.0 404162.0 0
269728.0 403853.0 0
275578.0 403476.0 0
281350.0 402929.0 0
284565.0 404337.0 0
287982.0 405259.0 0
291547.0 405817.0 0
295035.0 406403.0 0
300374.0 404515.0 0
303891.0 405123.0 0
307446.0 405533.0 0
310543.0 406316.0 0
312903.0 404851.0 0
315358.0 406596.0 0
318766.0 404869.0 0
324404.0 406479.0 0
327381.0 406495.0 0
330863.0 406117.0 0
337660.0 406701.0 0
340334.0 405429.0 0
343206.0 407428.0 0
346073.0 406071.0 0
147273.0 410228.0 0
150322.0 408322.0 0
153205.0 409583.0 0
159082.0 408953.0 0
164885.0 408234.0 0
167722.0 409585.0 0
170555.0 407673.0 0
173420.0 409044.0 0
176170.0 406830.0 0
179049.0 407877.0 0
181996.0 408866.0 0
187618.0 407661.0 0
190300.0 408947.0 0
193127.0 408288.0 0
196658.0 407687.0 0
200087.0 407025.0 0
203739.0 406476.0 0
209451.0 408090.0 0
213045.0 407294.0 0
216581.0 406455.0 0
223268.0 406005.0 0
228939.0 407447.0 0
232125.0 406029.0 0
235191.0 407950.0 0
238113.0 406237.0 0
241084.0 408185.0 0
243890.0 406347.0 0
249634.0 406410.0 0
255388.0 406365.0 0
261158.0 406201.0 0
266964.0 405924.0 0
272797.0 405542.0 0
275879.0 407192.0 0
278728.0 405084.0 0
282046.0 406572.0 0
285648.0 407810.0 0
289449.0 408367.0 0
298544.0 407047.0 0
302088.0 407643.0 0
305666.0 408159.0 0
309113.0 408847.0 0
312836.0 408790.0 0
318197.0 407731.0 0
321336.0 407136.0 0
329315.0 409171.0 0
332457.0 408694.0 0
335238.0 408091.0 0
337690.0 410256.0 0
340393.0 408812.0 0
346095.0 409274.0 0
349039.0 407925.0 0
352058.0 409811.0 0
144195.0 412151.0 0
150179.0 411475.0 0
153092.0 412782.0 0
156098.0 410882.0 0
159000.0 412199.0 0
161955.0 410228.0 0
164838.0 411536.0 0
170610.0 411015.0 0
176324.0 410198.0 0
179269.0 411226.0 0
185022.0 409878.0 0
188025.0 411225.0 0
191409.0 411867.0 0
195016.0 410614.0 0
198638.0 410125.0 0
202193.0 409467.0 0
205836.0 408834.0 0
211351.0 410598.0 0
214864.0 409889.0 0
218311.0 409226.0 0
221715.0 408988.0 0
225527.0 408888.0 0
229040.0 410758.0 0
232137.0 409456.0 0
238195.0 409932.0 0
243993.0 410183.0 0
246834.0 408319.0 0
249773.0 410280.0 0
252596.0 408339.0 0
255570.0 410239.0 0
258371.0 408230.0 0
261372.0 410049.0 0
264176.0 407988.0 0
267233.0 409715.0 0
270036.0 407631.0 0
273156.0 409293.0 0
278953.0 408665.0 0
281966.0 409921.0 0
284857.0 410922.0 0
287989.0 411090.0 0
293089.0 408979.0 0
296663.0 409583.0 0
300241.0 410178.0 0
303831.0 410725.0 0
307374.0 411330.0 0
311064.0 411610.0 0
316130.0 409944.0 0
319827.0 410270.0 0
323088.0 409817.0 0
326142.0 409553.0 0
331425.0 411865.0 0
334658.0 411362.0 0
340266.0 412317.0 0
343155.0 410745.0 0
346083.0 412489.0 0
349078.0 411070.0 0
352260.0 412875.0 0
355180.0 411758.0 0
141077.0 414100.0 0
144022.0 415264.0 0
147122.0 413365.0 0
150057.0 414663.0 0
156018.0 414123.0 0
158958.0 415483.0 0
161914.0 413515.0 0
164869.0 414843.0 0
167761.0 412913.0 0
170734.0 414363.0 0
173548.0 412388.0 0
176515.0 413562.0 0
182282.0 412169.0 0
185366.0 413180.0 0
188702.0 414437.0 0
191512.0 415635.0 0
193884.0 413525.0 0
197182.0 413130.0 0
200678.0 412570.0 0
204207.0 411939.0 0
207792.0 411294.0 0
212963.0 413293.0 0
216357.0 412709.0 0
219679.0 412296.0 0
223045.0 411989.0 0
226259.0 412362.0 0
232306.0 412932.0 0
235242.0 411533.0 0
241082.0 411974.0 0
246904.0 412177.0 0
252733.0 412214.0 0
258568.0 412099.0 0
264399.0 411804.0 0
270349.0 411371.0 0
276300.0 410993.0 0
279392.0 412427.0 0
282651.0 413511.0 0
286185.0 414081.0 0
291378.0 411624.0 0
294874.0 412189.0 0
298420.0 412746.0 0
302006.0 413290.0 0
305598.0 413848.0 0
309271.0 414267.0 0
314396.0 412244.0 0
318035.0 412766.0 0
321652.0 412923.0 0
324943.0 412709.0 0
328180.0 412329.0 0
330324.0 414998.0 0
333742.0 414404.0 0
337194.0 413592.0 0
339883.0 415706.0 0
343058.0 414070.0 0
346485.0 415540.0 0
349360.0 414149.0 0
355445.0 414804.0 0
358350.0 413738.0 0
134678.0 418099.0 0
137906.0 416081.0 0
140863.0 417185.0 0
146976.0 416530.0 0
149945.0 417874.0 0
153005.0 416013.0 0
155971.0 417395.0 0
161929.0 416819.0 0
167892.0 416232.0 0
173732.0 415771.0 0
176720.0 416935.0 0
179531.0 414560.0 0
182622.0 415445.0 0
185912.0 416267.0 0
198824.0 415655.0 0
202406.0 415114.0 0
205958.0 414511.0 0
209491.0 413907.0 0
214349.0 416159.0 0
217637.0 415725.0 0
220853.0 415419.0 0
223939.0 415354.0 0
226940.0 415653.0 0
229561.0 414254.0 0
235099.0 415269.0 0
238101.0 413674.0 0
240941.0 415759.0 0
243965.0 414009.0 0
246895.0 416016.0 0
249846.0 414142.0 0
255724.0 414110.0 0
261600.0 413906.0 0
264680.0 415640.0 0
267453.0 413476.0 0
270521.0 415027.0 0
273562.0 412984.0 0
276834.0 414888.0 0
280360.0 416046.0 0
289610.0 414401.0 0
293085.0 414882.0 0
296609.0 415387.0 0
300176.0 415890.0 0
303779.0 416398.0 0
307441.0 416854.0 0
312791.0 414834.0 0
316366.0 415276.0 0
320010.0 415625.0 0
323566.0 415749.0 0
326962.0 415484.0 0
332624.0 417429.0 0
336227.0 416612.0 0
341197.0 418521.0 0
343672.0 417021.0 0
349662.0 417304.0 0
352554.0 415981.0 0
355853.0 417856.0 0
358707.0 416756.0 0
361574.0 415751.0 0
364814.0 417778.0 0
131392.0 420153.0 0
137642.0 419141.0 0
140633.0 420285.0 0
143837.0 418398.0 0
146828.0 419712.0 0
152930.0 419264.0 0
158963.0 418798.0 0
162001.0 420125.0 0
164971.0 418130.0 0
168123.0 419490.0 0
170988.0 417733.0 0
174100.0 419242.0 0
179703.0 417868.0 0
182750.0 418562.0 0
185839.0 419152.0 0
189097.0 418144.0 0
192803.0 418575.0 0
195185.0 416179.0 0
200414.0 418221.0 0
203997.0 417732.0 0
207514.0 417198.0 0
210972.0 416670.0 0
219131.0 418806.0 0
222445.0 418647.0 0
225750.0 418697.0 0
229206.0 418077.0 0
232156.0 416729.0 0
237843.0 417460.0 0
243860.0 417804.0 0
249873.0 417984.0 0
252826.0 416077.0 0
255845.0 417964.0 0
258757.0 415962.0 0
261848.0 417749.0 0
267821.0 417289.0 0
273559.0 416445.0 0
275849.0 418527.0 0
279021.0 419041.0 0
284072.0 416715.0 0
287710.0 417228.0 0
291246.0 417637.0 0
294783.0 418092.0 0
298343.0 418551.0 0
301934.0 419007.0 0
305572.0 419442.0 0
311057.0 417394.0 0
314692.0 417866.0 0
318341.0 418243.0 0
321998.0 418548.0 0
325591.0 418568.0 0
329082.0 418142.0 0
338168.0 419027.0 0
343901.0 420534.0 0
346755.0 418765.0 0
350229.0 420380.0 0
353020.0 419067.0 0
359065.0 419838.0 0
361946.0 418770.0 0
368052.0 419803.0 0
128059.0 422238.0 0
131026.0 423196.0 0
134357.0 421144.0 0
137357.0 422212.0 0
140383.0 423394.0 0
143647.0 421546.0 0
146680.0 422908.0 0
149835.0 421103.0 0
152863.0 422531.0 0
155938.0 420683.0 0
158966.0 422128.0 0
165134.0 421360.0 0
168402.0 422622.0 0
171378.0 421084.0 0
177134.0 420420.0 0
180269.0 421231.0 0
183625.0 421749.0 0
187339.0 421598.0 0
190708.0 421222.0 0
194475.0 421260.0 0
196722.0 418597.0 0
201897.0 420872.0 0
205463.0 420445.0 0
208965.0 419989.0 0
212406.0 419541.0 0
215788.0 419132.0 0
224355.0 421770.0 0
228020.0 421410.0 0
231559.0 420563.0 0
234721.0 419131.0 0
237474.0 421226.0 0
240722.0 419506.0 0
246845.0 419829.0 0
252892.0 419929.0 0
258908.0 419798.0 0
265039.0 419446.0 0
271048.0 418788.0 0
273443.0 421207.0 0
282352.0 419445.0 0
285864.0 419965.0 0
289420.0 420430.0 0
292962.0 420850.0 0
296516.0 421274.0 0
300092.0 421690.0 0
303697.0 422088.0 0
309220.0 419926.0 0
312908.0 420435.0 0
316577.0 420859.0 0
320249.0 421211.0 0
323966.0 421466.0 0
327691.0 421313.0 0
331329.0 420537.0 0
334829.0 419786.0 0
340589.0 421649.0 0
345063.0 423348.0 0
347542.0 421781.0 0
353347.0 422306.0 0
356192.0 421015.0 0
359313.0 423003.0 0
362248.0 421855.0 0
365169.0 420821.0 0
368372.0 422889.0 0
371275.0 421820.0 0
124691.0 424344.0 0
127663.0 425292.0 0
134035.0 424204.0 0
137076.0 425301.0 0
143425.0 424697.0 0
149734.0 424346.0 0
155914.0 423990.0 0
158965.0 425512.0 0
162027.0 423395.0 0
165169.0 424479.0 0
168448.0 425566.0 0
171765.0 424404.0 0
174570.0 422821.0 0
177741.0 423876.0 0
181281.0 424371.0 0
185039.0 424466.0 0
188705.0 424359.0 0
192306.0 424084.0 0
196006.0 424043.0 0
198245.0 421196.0 0
203372.0 423597.0 0
206942.0 423233.0 0
210452.0 422842.0 0
213926.0 422462.0 0
217381.0 422125.0 0
220842.0 421884.0 0
230344.0 424034.0 0
234100.0 422990.0 0
240569.0 423153.0 0
243748.0 421554.0 0
246739.0 423646.0 0
249854.0 421802.0 0
252934.0 423757.0 0
255972.0 421807.0 0
259124.0 423657.0 0
262004.0 421537.0 0
265101.0 423096.0 0
268423.0 421046.0 0
271365.0 424033.0 0
276994.0 421928.0 0
280526.0 422381.0 0
284033.0 422782.0 0
287580.0 423226.0 0
291142.0 423650.0 0
294703.0 424051.0 0
307323.0 422502.0 0
310996.0 422945.0 0
314703.0 423481.0 0
318269.0 423920.0 0
321682.0 424300.0 0
324847.0 424600.0 0
327790.0 424490.0 0
330744.0 423653.0 0
333975.0 422973.0 0
337269.0 422263.0 0
342330.0 424220.0 0
347829.0 425257.0 0
350554.0 423711.0 0
353517.0 425664.0 0
356396.0 424278.0 0
362435.0 425008.0 0
365420.0 423916.0 0
371558.0 424944.0 0
374482.0 423827.0 0
377688.0 425832.0 0
117958.0 428558.0 0
121318.0 426455.0 0
124300.0 427446.0 0
127338.0 428377.0 0
130687.0 426261.0 0
133746.0 427293.0 0
136828.0 428421.0 0
140138.0 426525.0 0
143204.0 427880.0 0
146468.0 426095.0 0
149494.0 427559.0 0
152819.0 425811.0 0
155962.0 427326.0 0
162005.0 426670.0 0
165188.0 427552.0 0
168381.0 428412.0 0
175100.0 426498.0 0
178873.0 426987.0 0
182700.0 427219.0 0
186469.0 427258.0 0
190179.0 427121.0 0
193823.0 426954.0 0
197535.0 426833.0 0
199721.0 423889.0 0
201224.0 426647.0 0
204857.0 426393.0 0
208439.0 426072.0 0
211989.0 425726.0 0
215525.0 425390.0 0
219074.0 425098.0 0
222682.0 424859.0 0
226450.0 424543.0 0
234547.0 426627.0 0
237358.0 424837.0 0
243563.0 425310.0 0
249795.0 425577.0 0
256097.0 425599.0 0
262340.0 425420.0 0
268055.0 424433.0 0
274931.0 424666.0 0
278563.0 425220.0 0
282167.0 425658.0 0
285743.0 426061.0 0
289323.0 426471.0 0
292902.0 426866.0 0
298271.0 424440.0 0
301852.0 424812.0 0
305445.0 425176.0 0
309069.0 425535.0 0
312753.0 425939.0 0
316511.0 426622.0 0
319973.0 427195.0 0
323270.0 427707.0 0
326601.0 427733.0 0
329928.0 427136.0 0
333060.0 426348.0 0
336197.0 425642.0 0
339288.0 424975.0 0
341760.0 427554.0 0
344870.0 426662.0 0
347669.0 428639.0 0
350656.0 427161.0 0
356497.0 427609.0 0
359456.0 426243.0 0
362542.0 428217.0 0
365579.0 427053.0 0
368590.0 426016.0 0
371759.0 428103.0 0
374744.0 426973.0 0
380902.0 427842.0 0
114582.0 430669.0 0
120963.0 429617.0 0
124021.0 430593.0 0
130413.0 429364.0 0
133500.0 430418.0 0
139925.0 429692.0 0
143019.0 431113.0 0
146256.0 429335.0 0
149271.0 430874.0 0
152482.0 428993.0 0
155393.0 430405.0 0
159161.0 429034.0 0
162652.0 429948.0 0
166141.0 430737.0 0
171661.0 427491.0 0
176859.0 429771.0 0
191689.0 429962.0 0
195366.0 429799.0 0
199052.0 429657.0 0
202720.0 429473.0 0
206363.0 429230.0 0
209974.0 428934.0 0
213565.0 428620.0 0
217149.0 428317.0 0
220741.0 428035.0 0
224356.0 427733.0 0
227911.0 427445.0 0
231278.0 427210.0 0
240233.0 426782.0 0
243419.0 429015.0 0
246605.0 427489.0 0
252923.0 427564.0 0
259387.0 427481.0 0
265633.0 426997.0 0
269466.0 427430.0 0
273006.0 427540.0 0
276629.0 428029.0 0
280276.0 428501.0 0
283904.0 428922.0 0
287514.0 429318.0 0
296478.0 427242.0 0
300052.0 427601.0 0
303624.0 427941.0 0
307200.0 428259.0 0
310793.0 428553.0 0
314447.0 428881.0 0
318249.0 429941.0 0
321572.0 430690.0 0
325226.0 430850.0 0
328847.0 430397.0 0
332242.0 429774.0 0
335455.0 429044.0 0
338617.0 428322.0 0
341309.0 430821.0 0
344517.0 429896.0 0
350521.0 430568.0 0
353537.0 429076.0 0
356478.0 430971.0 0
359511.0 429544.0 0
365664.0 430230.0 0
368732.0 429177.0 0
374920.0 430159.0 0
377933.0 428987.0 0
381138.0 431017.0 0
384124.0 429858.0 0
111235.0 432765.0 0
114243.0 433908.0 0
117569.0 431739.0 0
120579.0 432784.0 0
123638.0 433758.0 0
127097.0 431505.0 0
130167.0 432512.0 0
133276.0 433566.0 0
136613.0 431567.0 0
139742.0 432892.0 0
146096.0 432644.0 0
152251.0 432348.0 0
157904.0 432072.0 0
160831.0 432623.0 0
164083.0 433292.0 0
170018.0 430798.0 0
173507.0 430071.0 0
180534.0 429985.0 0
184274.0 430104.0 0
188005.0 430078.0 0
196894.0 432681.0 0
200571.0 432523.0 0
207906.0 432091.0 0
211546.0 431814.0 0
215171.0 431528.0 0
218789.0 431248.0 0
222406.0 430970.0 0
226002.0 430712.0 0
229576.0 430490.0 0
233187.0 430115.0 0
236766.0 429480.0 0
240155.0 430076.0 0
246078.0 431560.0 0
249678.0 429283.0 0
252908.0 431411.0 0
256150.0 429268.0 0
259478.0 431211.0 0
262804.0 429272.0 0
267289.0 430273.0 0
271138.0 430616.0 0
274784.0 430924.0 0
278431.0 431357.0 0
282080.0 431784.0 0
291117.0 429705.0 0
294714.0 430078.0 0
298303.0 430432.0 0
301881.0 430769.0 0
305443.0 431082.0 0
308976.0 431361.0 0
312456.0 431597.0 0
315864.0 431773.0 0
321921.0 433938.0 0
325126.0 434029.0 0
328275.0 433533.0 0
331570.0 433056.0 0
334851.0 432415.0 0
338083.0 431655.0 0
340859.0 434085.0 0
344149.0 433143.0 0
347384.0 431965.0 0
353411.0 432489.0 0
359487.0 432883.0 0
362576.0 431467.0 0
368801.0 432371.0 0
371877.0 431304.0 0
378093.0 432168.0 0
384344.0 433071.0 0
387347.0 431876.0 0
390559.0 433888.0 0
107923.0 434839.0 0
110957.0 436068.0 0
117285.0 434986.0 0
120367.0 436016.0 0
126764.0 434660.0 0
129901.0 435665.0 0
136425.0 434729.0 0
139586.0 436123.0 0
142861.0 434385.0 0
145967.0 435985.0 0
149145.0 434302.0 0
152195.0 435801.0 0
155158.0 433959.0 0
158436.0 435433.0 0
167768.0 433502.0 0
171502.0 433407.0 0
174983.0 433062.0 0
178484.0 432918.0 0
182139.0 432998.0 0
185845.0 433022.0 0
189543.0 432964.0 0
193225.0 432834.0 0
204246.0 432331.0 0
213148.0 434713.0 0
216800.0 434451.0 0
220442.0 434193.0 0
224071.0 433948.0 0
227695.0 433718.0 0
231342.0 433429.0 0
234970.0 433035.0 0
238482.0 432967.0 0
242424.0 432745.0 0
249500.0 432705.0 0
256265.0 432783.0 0
262587.0 432943.0 0
266000.0 433390.0 0
269502.0 433592.0 0
273101.0 433936.0 0
276696.0 434288.0 0
280318.0 434683.0 0
285719.0 432185.0 0
289347.0 432566.0 0
292969.0 432934.0 0
296586.0 433286.0 0
300198.0 433622.0 0
303806.0 433936.0 0
307414.0 434220.0 0
311033.0 434453.0 0
314707.0 434556.0 0
318544.0 433781.0 0
323978.0 437093.0 0
334198.0 435778.0 0
337521.0 435007.0 0
343751.0 436407.0 0
347054.0 435298.0 0
350277.0 433948.0 0
353209.0 435895.0 0
356381.0 434317.0 0
359405.0 436255.0 0
362547.0 434740.0 0
365691.0 433439.0 0
368819.0 435598.0 0
371927.0 434546.0 0
375015.0 433387.0 0
378150.0 435378.0 0
381273.0 434215.0 0
384437.0 436312.0 0
387535.0 435144.0 0
393752.0 435889.0 0
101406.0 438923.0 0
104647.0 436892.0 0
107714.0 438211.0 0
114031.0 437211.0 0
117137.0 438285.0 0
120267.0 439297.0 0
123483.0 436974.0 0
126610.0 437891.0 0
129745.0 438877.0 0
133056.0 436714.0 0
136224.0 437887.0 0
142737.0 437687.0 0
149025.0 437800.0 0
155528.0 437274.0 0
161749.0 436036.0 0
165434.0 436270.0 0
169189.0 436330.0 0
172876.0 436261.0 0
176457.0 436079.0 0
180051.0 435996.0 0
183717.0 436002.0 0
187405.0 435976.0 0
191088.0 435889.0 0
194760.0 435751.0 0
198432.0 435589.0 0
202115.0 435411.0 0
205803.0 435208.0 0
209482.0 434971.0 0
222099.0 437170.0 0
225743.0 436949.0 0
229386.0 436708.0 0
233004.0 436429.0 0
236546.0 436236.0 0
240139.0 436012.0 0
243610.0 435980.0 0
246967.0 435432.0 0
250556.0 435911.0 0
253957.0 435593.0 0
257579.0 435975.0 0
260936.0 436090.0 0
264383.0 436460.0 0
267916.0 436737.0 0
271448.0 436986.0 0
283956.0 435074.0 0
287598.0 435451.0 0
291239.0 435812.0 0
294880.0 436158.0 0
298520.0 436488.0 0
302162.0 436798.0 0
305809.0 437076.0 0
309474.0 437298.0 0
313182.0 437397.0 0
327504.0 436844.0 0
330867.0 436369.0 0
340336.0 437323.0 0
346729.0 438649.0 0
350010.0 437326.0 0
356243.0 437617.0 0
359298.0 439704.0 0
362450.0 438029.0 0
365661.0 436654.0 0
371901.0 437852.0 0
375009.0 436680.0 0
378054.0 438620.0 0
381273.0 437438.0 0
387581.0 438444.0 0
390702.0 437222.0 0
396924.0 437877.0 0
98191.5 440938.0 0
104509.0 440333.0 0
107658.0 441643.0 0
110824.0 439435.0 0
113963.0 440572.0 0
117122.0 441641.0 0
123410.0 440249.0 0
126554.0 441185.0 0
132892.0 439903.0 0
136039.0 441077.0 0
139362.0 439362.0 0
142428.0 440921.0 0
145916.0 439342.0 0
152130.0 439040.0 0
155473.0 440332.0 0
159112.0 438816.0 0
163029.0 439027.0 0
166864.0 439181.0 0
170627.0 439237.0 0
174326.0 439195.0 0
177966.0 439100.0 0
181610.0 439042.0 0
185283.0 439016.0 0
188964.0 438959.0 0
192639.0 438850.0 0
196311.0 438694.0 0
199990.0 438511.0 0
203685.0 438314.0 0
207388.0 438101.0 0
211087.0 437871.0 0
214773.0 437634.0 0
218443.0 437397.0 0
231025.0 439757.0 0
234603.0 439567.0 0
238170.0 439379.0 0
241690.0 439277.0 0
245232.0 439104.0 0
248636.0 438990.0 0
252232.0 439093.0 0
255679.0 439106.0 0
259208.0 439374.0 0
262686.0 439588.0 0
266222.0 439856.0 0
275022.0 437307.0 0
278616.0 437647.0 0
282236.0 438007.0 0
285875.0 438366.0 0
289524.0 438716.0 0
293181.0 439052.0 0
296842.0 439373.0 0
300511.0 439675.0 0
304191.0 439947.0 0
307890.0 440167.0 0
316969.0 437099.0 0
320461.0 437024.0 0
326346.0 439961.0 0
329971.0 439661.0 0
333469.0 439179.0 0
336854.0 438409.0 0
339768.0 440496.0 0
343303.0 439638.0 0
349849.0 440703.0 0
353010.0 439329.0 0
356080.0 440821.0 0
362574.0 441338.0 0
365636.0 439831.0 0
368788.0 438855.0 0
374836.0 440091.0 0
377814.0 441848.0 0
381140.0 440667.0 0
384393.0 439574.0 0
387509.0 441766.0 0
390704.0 440592.0 0
393843.0 439292.0 0
396952.0 441348.0 0
400073.0 439850.0 0
403212.0 441818.0 0
94995.1 442942.0 0
98179.9 444500.0 0
101334.0 442427.0 0
104522.0 443826.0 0
110836.0 442859.0 0
114033.0 443993.0 0
120294.0 442646.0 0
123466.0 443603.0 0
126632.0 444547.0 0
129710.0 442158.0 0
132879.0 443176.0 0
136062.0 444382.0 0
139071.0 442717.0 0
141878.0 444193.0 0
145462.0 442436.0 0
149102.0 441459.0 0
152670.0 442164.0 0
157699.0 442171.0 0
161051.0 441896.0 0
164695.0 442044.0 0
168412.0 442159.0 0
172133.0 442204.0 0
175830.0 442183.0 0
179501.0 442131.0 0
183173.0 442089.0 0
186856.0 442047.0 0
190536.0 441970.0 0
194207.0 441834.0 0
197880.0 441650.0 0
201570.0 441441.0 0
205280.0 441227.0 0
209000.0 441010.0 0
212715.0 440794.0 0
216413.0 440582.0 0
220092.0 440377.0 0
223754.0 440178.0 0
227402.0 439973.0 0
269781.0 440108.0 0
273346.0 440371.0 0
276934.0 440674.0 0
280543.0 440994.0 0
284175.0 441324.0 0
287825.0 441654.0 0
291489.0 441975.0 0
295165.0 442283.0 0
298852.0 442574.0 0
311622.0 440286.0 0
315392.0 440199.0 0
319048.0 440143.0 0
322668.0 440099.0 0
328756.0 442801.0 0
332491.0 442490.0 0
336145.0 441934.0 0
339406.0 443509.0 0
342918.0 442833.0 0
346367.0 441965.0 0
356827.0 443651.0 0
360129.0 443073.0 0
365323.0 443105.0 0
368546.0 442160.0 0
371719.0 441260.0 0
377615.0 444926.0 0
380975.0 443865.0 0
384264.0 442841.0 0
390568.0 444000.0 0
393784.0 442741.0 0
400042.0 443368.0 0
406351.0 443784.0 0
85428.5 448932.0 0
91809.1 444938.0 0
95039.0 446552.0 0
101404.0 445979.0 0
107741.0 445129.0 0
110982.0 446339.0 0
117239.0 445058.0 0
120450.0 446064.0 0
123662.0 447024.0 0
129791.0 445496.0 0
132934.0 446482.0 0
136075.0 447587.0 0
139115.0 446482.0 0
144564.0 445532.0 0
147856.0 444897.0 0
151162.0 444855.0 0
155036.0 444656.0 0
158845.0 445076.0 0
162488.0 445008.0 0
166192.0 445099.0 0
169921.0 445179.0 0
173648.0 445215.0 0
177359.0 445209.0 0
181056.0 445182.0 0
184750.0 445148.0 0
188443.0 445099.0 0
192127.0 445007.0 0
195792.0 444836.0 0
199466.0 444611.0 0
203170.0 444373.0 0
206901.0 444146.0 0
210637.0 443938.0 0
214360.0 443747.0 0
218061.0 443568.0 0
221741.0 443395.0 0
225400.0 443224.0 0
229036.0 443050.0 0
232642.0 442885.0 0
236226.0 442727.0 0
239783.0 442606.0 0
243342.0 442487.0 0
246864.0 442403.0 0
250368.0 442363.0 0
253905.0 442449.0 0
257407.0 442566.0 0
260947.0 442788.0 0
264493.0 443000.0 0
268064.0 443235.0 0
271647.0 443480.0 0
275241.0 443743.0 0
278853.0 444028.0 0
282484.0 444327.0 0
286134.0 444630.0 0
289803.0 444931.0 0
293487.0 445223.0 0
302553.0 442838.0 0
306275.0 443056.0 0
310025.0 443195.0 0
313800.0 443209.0 0
317534.0 443187.0 0
321254.0 443133.0 0
324995.0 443006.0 0
331095.0 445664.0 0
334896.0 445400.0 0
338394.0 446275.0 0
342149.0 446051.0 0
345762.0 445390.0 0
349472.0 443886.0 0
353087.0 442879.0 0
359708.0 446157.0 0
363243.0 445372.0 0
367601.0 445432.0 0
371145.0 444702.0 0
374481.0 443656.0 0
380669.0 447068.0 0
384011.0 446136.0 0
387308.0 445123.0 0
393563.0 446238.0 0
396822.0 444866.0 0
403141.0 445373.0 0
412641.0 447720.0 0
82210.1 450946.0 0
88621.4 446931.0 0
98301.3 448108.0 0
101598.0 449580.0 0
104664.0 447369.0 0
107946.0 448664.0 0
114233.0 447473.0 0
117497.0 448536.0 0
120774.0 449540.0 0
126878.0 447967.0 0
130107.0 448906.0 0
133368.0 449865.0 0
136859.0 450508.0 0
142138.0 447889.0 0
145887.0 448248.0 0
149355.0 448014.0 0
152965.0 447792.0 0
156569.0 447866.0 0
160315.0 448063.0 0
164001.0 448088.0 0
167719.0 448162.0 0
171453.0 448225.0 0
197391.0 447845.0 0
201070.0 447564.0 0
204800.0 447296.0 0
208550.0 447075.0 0
212292.0 446895.0 0
216013.0 446740.0 0
219709.0 446597.0 0
223382.0 446457.0 0
227033.0 446318.0 0
230660.0 446182.0 0
234267.0 446050.0 0
237854.0 445936.0 0
241432.0 445834.0 0
244992.0 445760.0 0
248539.0 445719.0 0
252074.0 445739.0 0
255620.0 445841.0 0
259165.0 445987.0 0
262737.0 446181.0 0
266320.0 446385.0 0
269918.0 446608.0 0
273527.0 446846.0 0
277149.0 447100.0 0
280786.0 447368.0 0
284441.0 447645.0 0
297186.0 445500.0 0
300902.0 445753.0 0
304638.0 445967.0 0
308399.0 446120.0 0
312181.0 446187.0 0
315953.0 446199.0 0
319721.0 446158.0 0
323499.0 446054.0 0
327291.0 445885.0 0
333242.0 448646.0 0
336825.0 448947.0 0
340704.0 449079.0 0
344491.0 448843.0 0
348908.0 446909.0 0
352523.0 446230.0 0
356040.0 446473.0 0
362435.0 448634.0 0
366054.0 448148.0 0
370025.0 447918.0 0
373766.0 447251.0 0
377196.0 447798.0 0
383439.0 449458.0 0
386892.0 448521.0 0
390256.0 447454.0 0
396536.0 448430.0 0
399866.0 446908.0 0
406253.0 447386.0 0
409492.0 445753.0 0
415832.0 449714.0 0
78959.2 452978.0 0
85541.7 452620.0 0
88733.3 450611.0 0
91890.8 448584.0 0
95192.4 450204.0 0
104925.0 450964.0 0
111249.0 449873.0 0
114573.0 451004.0 0
117916.0 452057.0 0
124069.0 450498.0 0
127395.0 451426.0 0
130776.0 452327.0 0
134299.0 453083.0 0
143649.0 450998.0 0
147313.0 451178.0 0
150899.0 451008.0 0
154466.0 450949.0 0
158103.0 451012.0 0
175188.0 448260.0 0
178915.0 448266.0 0
182634.0 448253.0 0
186348.0 448227.0 0
190053.0 448175.0 0
193741.0 448071.0 0
202712.0 450483.0 0
206466.0 450216.0 0
210219.0 450032.0 0
213953.0 449896.0 0
217662.0 449781.0 0
221347.0 449674.0 0
225012.0 449567.0 0
228658.0 449459.0 0
232286.0 449352.0 0
235898.0 449254.0 0
239499.0 449166.0 0
243087.0 449098.0 0
246664.0 449058.0 0
250231.0 449059.0 0
253796.0 449116.0 0
257369.0 449230.0 0
260952.0 449381.0 0
264553.0 449562.0 0
268165.0 449759.0 0
271789.0 449973.0 0
275425.0 450201.0 0
288114.0 447923.0 0
291805.0 448196.0 0
295512.0 448457.0 0
299239.0 448697.0 0
302985.0 448906.0 0
306754.0 449066.0 0
310541.0 449161.0 0
314333.0 449200.0 0
318125.0 449184.0 0
321919.0 449108.0 0
325713.0 448977.0 0
329496.0 448808.0 0
335295.0 451922.0 0
339057.0 451998.0 0
342858.0 452025.0 0
347844.0 449743.0 0
351494.0 449467.0 0
354994.0 449356.0 0
358698.0 449141.0 0
365012.0 451349.0 0
368691.0 450928.0 0
372477.0 450564.0 0
376031.0 450547.0 0
379841.0 450224.0 0
386222.0 451893.0 0
389754.0 450929.0 0
393178.0 449777.0 0
396107.0 452047.0 0
399566.0 450445.0 0
402952.0 448942.0 0
409368.0 449399.0 0
412522.0 451334.0 0
419078.0 451745.0 0
75670.9 455035.0 0
82309.2 454641.0 0
85698.9 456327.0 0
92066.5 452268.0 0
98529.6 451756.0 0
101896.0 453226.0 0
105294.0 454604.0 0
108275.0 452253.0 0
111652.0 453454.0 0
115058.0 454561.0 0
121286.0 453043.0 0
124692.0 453982.0 0
128149.0 454862.0 0
131700.0 455633.0 0
140082.0 450549.0 0
161816.0 451126.0 0
165525.0 451178.0 0
169257.0 451243.0 0
173002.0 451298.0 0
176750.0 451333.0 0
180496.0 451348.0 0
184237.0 451346.0 0
187972.0 451328.0 0
191694.0 451279.0 0
195389.0 451170.0 0
199007.0 450842.0 0
219294.0 452875.0 0
222971.0 452799.0 0
226633.0 452720.0 0
230280.0 452638.0 0
233915.0 452557.0 0
237539.0 452484.0 0
241153.0 452424.0 0
244758.0 452385.0 0
248355.0 452378.0 0
251948.0 452411.0 0
255542.0 452490.0 0
259146.0 452610.0 0
262762.0 452759.0 0
279073.0 450443.0 0
282737.0 450694.0 0
286418.0 450949.0 0
290116.0 451202.0 0
293831.0 451446.0 0
297564.0 451673.0 0
301318.0 451873.0 0
305092.0 452035.0 0
308884.0 452146.0 0
312686.0 452206.0 0
316492.0 452214.0 0
320299.0 452168.0 0
324100.0 452074.0 0
327883.0 451950.0 0
331629.0 451837.0 0
341209.0 455088.0 0
346428.0 452483.0 0
350203.0 452538.0 0
353865.0 452401.0 0
357551.0 452146.0 0
361301.0 451766.0 0
371286.0 453730.0 0
374991.0 453556.0 0
378757.0 453218.0 0
382560.0 452681.0 0
389038.0 454363.0 0
392637.0 453341.0 0
399188.0 453923.0 0
402690.0 452501.0 0
406065.0 451012.0 0
409175.0 453088.0 0
412354.0 454903.0 0
415756.0 453310.0 0
419069.0 455380.0 0
422370.0 453808.0 0
425633.0 455858.0 0
72348.3 457113.0 0
75722.4 458756.0 0
79032.5 456683.0 0
82439.7 458348.0 0
88906.3 454314.0 0
92311.5 455978.0 0
95439.0 453889.0 0
98848.2 455442.0 0
102292.0 456914.0 0
108726.0 455881.0 0
112195.0 457058.0 0
118499.0 455591.0 0
121980.0 456546.0 0
125505.0 457433.0 0
129096.0 458235.0 0
137878.0 453624.0 0
141392.0 453853.0 0
145020.0 454096.0 0
148686.0 454173.0 0
152294.0 454106.0 0
155922.0 454093.0 0
159599.0 454146.0 0
163320.0 454225.0 0
167053.0 454282.0 0
170803.0 454342.0 0
174565.0 454393.0 0
178332.0 454430.0 0
182099.0 454452.0 0
185865.0 454460.0 0
189628.0 454451.0 0
193380.0 454412.0 0
197106.0 454315.0 0
200675.0 453755.0 0
204395.0 453378.0 0
208145.0 453165.0 0
211882.0 453038.0 0
215598.0 452951.0 0
266390.0 452933.0 0
270029.0 453123.0 0
273679.0 453328.0 0
277341.0 453546.0 0
281017.0 453774.0 0
284708.0 454006.0 0
288414.0 454239.0 0
292138.0 454465.0 0
295879.0 454679.0 0
299639.0 454870.0 0
303417.0 455030.0 0
307214.0 455149.0 0
311022.0 455224.0 0
314837.0 455252.0 0
318653.0 455233.0 0
322465.0 455172.0 0
326259.0 455084.0 0
330022.0 454999.0 0
333737.0 455003.0 0
337468.0 455034.0 0
344897.0 455333.0 0
348699.0 455463.0 0
352513.0 455421.0 0
356297.0 455204.0 0
360071.0 454872.0 0
363832.0 454506.0 0
367570.0 454118.0 0
373882.0 456627.0 0
377692.0 456293.0 0
381518.0 455816.0 0
385327.0 455185.0 0
391865.0 456868.0 0
395538.0 455744.0 0
402390.0 456018.0 0
405844.0 454666.0 0
412296.0 458332.0 0
415706.0 456854.0 0
422319.0 457558.0 0
432035.0 459869.0 0
65636.3 461314.0 0
68999.9 459208.0 0
72383.6 460860.0 0
79136.4 460400.0 0
85897.4 460033.0 0
89134.3 458028.0 0
95755.8 457604.0 0
99238.2 459157.0 0
105777.0 458279.0 0
109309.0 459530.0 0
115708.0 458129.0 0
119261.0 459120.0 0
122845.0 460030.0 0
126480.0 460849.0 0
135326.0 456278.0 0
138991.0 456755.0 0
142645.0 457017.0 0
146332.0 457183.0 0
150020.0 457236.0 0
153688.0 457216.0 0
157372.0 457229.0 0
161087.0 457278.0 0
164831.0 457343.0 0
168589.0 457401.0 0
172361.0 457458.0 0
176142.0 457508.0 0
179930.0 457548.0 0
183721.0 457577.0 0
187514.0 457594.0 0
191307.0 457597.0 0
195091.0 457579.0 0
198843.0 457557.0 0
202330.0 456589.0 0
206058.0 456300.0 0
209792.0 456170.0 0
213512.0 456105.0 0
217215.0 456060.0 0
220904.0 456016.0 0
224581.0 455965.0 0
228247.0 455908.0 0
231904.0 455848.0 0
235552.0 455789.0 0
239191.0 455739.0 0
242823.0 455704.0 0
246448.0 455692.0 0
250069.0 455711.0 0
253689.0 455766.0 0
257314.0 455857.0 0
260948.0 455980.0 0
264592.0 456128.0 0
268247.0 456295.0 0
271913.0 456478.0 0
275589.0 456674.0 0
279278.0 456880.0 0
282980.0 457092.0 0
286697.0 457305.0 0
290430.0 457515.0 0
294179.0 457714.0 0
297945.0 457895.0 0
301730.0 458051.0 0
305531.0 458174.0 0
309344.0 458258.0 0
332167.0 458121.0 0
335921.0 458127.0 0
339673.0 458162.0 0
347196.0 458384.0 0
351046.0 458387.0 0
354906.0 458243.0 0
358745.0 457975.0 0
362556.0 457646.0 0
366351.0 457288.0 0
370128.0 456921.0 0
376538.0 459408.0 0
380406.0 458975.0 0
384269.0 458425.0 0
388102.0 457737.0 0
394602.0 459466.0 0
398846.0 457260.0 0
405455.0 458330.0 0
408942.0 456886.0 0
415511.0 460415.0 0
418945.0 459052.0 0
428854.0 457869.0 0
435325.0 461920.0 0
62264.9 463425.0 0
69036.5 462993.0 0
75798.6 462496.0 0
79253.5 464119.0 0
82601.2 462049.0 0
86099.6 463733.0 0
92607.2 459710.0 0
96109.5 461346.0 0
102778.0 460629.0 0
106379.0 461974.0 0
112899.0 460662.0 0
116522.0 461699.0 0
120170.0 462646.0 0
132750.0 458915.0 0
136451.0 459477.0 0
140185.0 459892.0 0
143915.0 460136.0 0
147651.0 460274.0 0
151380.0 460323.0 0
155100.0 460335.0 0
158831.0 460365.0 0
162583.0 460416.0 0
166353.0 460476.0 0
170136.0 460534.0 0
173929.0 460590.0 0
177731.0 460641.0 0
181540.0 460685.0 0
185355.0 460720.0 0
189172.0 460749.0 0
192989.0 460773.0 0
196793.0 460805.0 0
203895.0 459427.0 0
207647.0 459280.0 0
211381.0 459239.0 0
215097.0 459227.0 0
218801.0 459216.0 0
222496.0 459195.0 0
226183.0 459163.0 0
229863.0 459124.0 0
233535.0 459082.0 0
237201.0 459043.0 0
240859.0 459014.0 0
244512.0 459001.0 0
248160.0 459011.0 0
251807.0 459050.0 0
255456.0 459120.0 0
259110.0 459219.0 0
262772.0 459343.0 0
266444.0 459489.0 0
270125.0 459651.0 0
273817.0 459826.0 0
277520.0 460012.0 0
281235.0 460204.0 0
284963.0 460399.0 0
288705.0 460592.0 0
292463.0 460777.0 0
313166.0 458302.0 0
316991.0 458305.0 0
320813.0 458271.0 0
324621.0 458212.0 0
328408.0 458148.0 0
338121.0 461254.0 0
343407.0 458291.0 0
353433.0 461266.0 0
357320.0 461058.0 0
361188.0 460774.0 0
365038.0 460445.0 0
368873.0 460095.0 0
372696.0 459764.0 0
379189.0 462152.0 0
383095.0 461667.0 0
386982.0 461079.0 0
390829.0 460363.0 0
398162.0 460479.0 0
401873.0 459528.0 0
408359.0 460779.0 0
411946.0 461620.0 0
422062.0 461390.0 0
425473.0 459747.0 0
428532.0 461965.0 0
431883.0 463694.0 0
438629.0 463989.0 0
58889.8 465538.0 0
65686.8 465138.0 0
69130.4 466820.0 0
72459.8 464642.0 0
75910.3 466263.0 0
82744.4 465742.0 0
89392.1 461762.0 0
92890.0 463468.0 0
99684.3 462879.0 0
103358.0 464358.0 0
110070.0 463169.0 0
113777.0 464275.0 0
117482.0 465276.0 0
123857.0 463500.0 0
130168.0 461569.0 0
133898.0 462182.0 0
137659.0 462669.0 0
141442.0 463028.0 0
145225.0 463252.0 0
149006.0 463375.0 0
152775.0 463431.0 0
156539.0 463465.0 0
160309.0 463508.0 0
164093.0 463563.0 0
167888.0 463623.0 0
171693.0 463682.0 0
200569.0 460893.0 0
205380.0 462321.0 0
209168.0 462327.0 0
212918.0 462362.0 0
216649.0 462392.0 0
220370.0 462405.0 0
224082.0 462402.0 0
227788.0 462385.0 0
231488.0 462362.0 0
235180.0 462336.0 0
238867.0 462315.0 0
242548.0 462304.0 0
246224.0 462311.0 0
249897.0 462339.0 0
253571.0 462393.0 0
257247.0 462473.0 0
260929.0 462576.0 0
264619.0 462701.0 0
268317.0 462843.0 0
272024.0 462999.0 0
275741.0 463166.0 0
279469.0 463340.0 0
296237.0 460948.0 0
300027.0 461099.0 0
303833.0 461222.0 0
307652.0 461312.0 0
311481.0 461367.0 0
315314.0 461387.0 0
319145.0 461374.0 0
322969.0 461336.0 0
326778.0 461290.0 0
330567.0 461254.0 0
334345.0 461242.0 0
341893.0 461319.0 0
345699.0 461375.0 0
349547.0 461367.0 0
355837.0 464133.0 0
359742.0 463891.0 0
363637.0 463593.0 0
367522.0 463262.0 0
371401.0 462921.0 0
375288.0 462561.0 0
385737.0 464410.0 0
389629.0 463824.0 0
393459.0 463128.0 0
400997.0 462983.0 0
404733.0 462005.0 0
411187.0 464862.0 0
414928.0 463952.0 0
418541.0 462761.0 0
425089.0 463814.0 0
431680.0 467457.0 0
435180.0 465778.0 0
441938.0 466063.0 0
55509.3 467656.0 0
58982.9 469447.0 0
62336.5 467291.0 0
65806.5 469008.0 0
72595.6 468466.0 0
79385.9 467858.0 0
82880.1 469451.0 0
86248.2 467427.0 0
89590.9 465545.0 0
96464.2 465093.0 0
100157.0 466562.0 0
107222.0 465635.0 0
111024.0 466825.0 0
114806.0 467918.0 0
121208.0 466161.0 0
127580.0 464243.0 0
131338.0 464893.0 0
135124.0 465439.0 0
138937.0 465866.0 0
142762.0 466176.0 0
146587.0 466377.0 0
150403.0 466493.0 0
154207.0 466558.0 0
175507.0 463739.0 0
179329.0 463792.0 0
183157.0 463841.0 0
186990.0 463886.0 0
190826.0 463932.0 0
194658.0 463991.0 0
198481.0 464089.0 0
202294.0 464270.0 0
206822.0 465303.0 0
210651.0 465435.0 0
214432.0 465529.0 0
218192.0 465588.0 0
221939.0 465619.0 0
225677.0 465630.0 0
229407.0 465627.0 0
233130.0 465616.0 0
236846.0 465606.0 0
240556.0 465600.0 0
244260.0 465607.0 0
247961.0 465629.0 0
251660.0 465672.0 0
255360.0 465737.0 0
259063.0 465823.0 0
283210.0 463518.0 0
286963.0 463695.0 0
290730.0 463866.0 0
294512.0 464027.0 0
298309.0 464171.0 0
302121.0 464292.0 0
305946.0 464386.0 0
309780.0 464449.0 0
313621.0 464481.0 0
317462.0 464484.0 0
321300.0 464464.0 0
325128.0 464430.0 0
328944.0 464397.0 0
332750.0 464375.0 0
336552.0 464370.0 0
340352.0 464392.0 0
344177.0 464411.0 0
348038.0 464393.0 0
351928.0 464301.0 0
362168.0 466740.0 0
366089.0 466428.0 0
370010.0 466090.0 0
373936.0 465734.0 0
377871.0 465346.0 0
381811.0 464911.0 0
388317.0 467248.0 0
392190.0 466711.0 0
397171.0 463671.0 0
399868.0 466388.0 0
403715.0 465621.0 0
407464.0 464651.0 0
414001.0 467443.0 0
417786.0 466440.0 0
421483.0 465232.0 0
424356.0 467822.0 0
427997.0 466373.0 0
434908.0 469682.0 0
438451.0 467911.0 0
441765.0 470027.0 0
445272.0 468148.0 0
448642.0 470256.0 0
52123.4 469776.0 0
55624.8 471607.0 0
62482.4 471200.0 0
69299.3 470691.0 0
76077.6 470075.0 0
79576.4 471640.0 0
86408.5 471074.0 0
89852.2 469428.0 0
93066.1 467232.0 0
96480.2 468821.0 0
104306.0 468007.0 0
108255.0 469311.0 0
118575.0 468859.0 0
124980.0 466940.0 0
128775.0 467627.0 0
132591.0 468213.0 0
136430.0 468696.0 0
140282.0 469070.0 0
158006.0 466609.0 0
161809.0 466663.0 0
165619.0 466723.0 0
169436.0 466785.0 0
173261.0 466847.0 0
177093.0 466906.0 0
180931.0 466963.0 0
184774.0 467019.0 0
188621.0 467078.0 0
192468.0 467148.0 0
196314.0 467249.0 0
200159.0 467408.0 0
204012.0 467659.0 0
208271.0 468384.0 0
262772.0 465930.0 0
266487.0 466053.0 0
270210.0 466191.0 0
273943.0 466341.0 0
277685.0 466498.0 0
281437.0 466660.0 0
285202.0 466822.0 0
288979.0 466981.0 0
292770.0 467131.0 0
296575.0 467268.0 0
300393.0 467385.0 0
304224.0 467480.0 0
308064.0 467549.0 0
311912.0 467590.0 0
315763.0 467605.0 0
319612.0 467598.0 0
323457.0 467575.0 0
327294.0 467545.0 0
331125.0 467519.0 0
334953.0 467502.0 0
338784.0 467497.0 0
342630.0 467489.0 0
346500.0 467453.0 0
350399.0 467367.0 0
354317.0 467218.0 0
358244.0 467008.0 0
368544.0 469270.0 0
372498.0 468922.0 0
376458.0 468552.0 0
380424.0 468154.0 0
384388.0 467726.0 0
390834.0 470219.0 0
395988.0 466905.0 0
406357.0 468408.0 0
410149.0 468153.0 0
416774.0 470076.0 0
420592.0 469025.0 0
427190.0 470539.0 0
431094.0 471188.0 0
438227.0 471864.0 0
445131.0 472119.0 0
59151.3 473398.0 0
66004.8 472920.0 0
69546.7 474609.0 0
72806.5 472340.0 0
76328.7 473940.0 0
83109.0 473181.0 0
86695.5 474703.0 0
93344.1 471131.0 0
96871.7 472647.0 0
99889.0 470237.0 0
103287.0 471513.0 0
112145.0 470523.0 0
115985.0 471604.0 0
122398.0 469659.0 0
126217.0 470383.0 0
130056.0 471005.0 0
133920.0 471529.0 0
144141.0 469338.0 0
147997.0 469519.0 0
151841.0 469631.0 0
155673.0 469707.0 0
159500.0 469770.0 0
163328.0 469834.0 0
167160.0 469899.0 0
170996.0 469965.0 0
174837.0 470030.0 0
178683.0 470093.0 0
182533.0 470157.0 0
186387.0 470223.0 0
190243.0 470299.0 0
194100.0 470397.0 0
197959.0 470537.0 0
201827.0 470744.0 0
205715.0 471040.0 0
212136.0 468598.0 0
215956.0 468728.0 0
219750.0 468806.0 0
223528.0 468851.0 0
227294.0 468874.0 0
231050.0 468883.0 0
234797.0 468885.0 0
238537.0 468889.0 0
242270.0 468898.0 0
245998.0 468919.0 0
249724.0 468955.0 0
253448.0 469009.0 0
257174.0 469082.0 0
260903.0 469173.0 0
264636.0 469280.0 0
268377.0 469402.0 0
272124.0 469535.0 0
275881.0 469677.0 0
279646.0 469824.0 0
283423.0 469973.0 0
287211.0 470119.0 0
291011.0 470259.0 0
294824.0 470388.0 0
298649.0 470501.0 0
302486.0 470595.0 0
306333.0 470667.0 0
310188.0 470715.0 0
314047.0 470739.0 0
317907.0 470742.0 0
321766.0 470727.0 0
325621.0 470703.0 0
329472.0 470675.0 0
333322.0 470649.0 0
337177.0 470625.0 0
341043.0 470599.0 0
344929.0 470551.0 0
348837.0 470463.0 0
352764.0 470327.0 0
356703.0 470138.0 0
360648.0 469896.0 0
364592.0 469603.0 0
374968.0 471774.0 0
378946.0 471401.0 0
382930.0 471013.0 0
386914.0 470634.0 0
394691.0 470207.0 0
398596.0 469782.0 0
402501.0 469160.0 0
408945.0 471529.0 0
412878.0 470923.0 0
419540.0 472793.0 0
423375.0 471686.0 0
429978.0 474887.0 0
434273.0 473556.0 0
62700.4 475152.0 0
66273.8 476875.0 0
73110.4 476267.0 0
79882.4 475457.0 0
83501.0 476930.0 0
90332.1 473543.0 0
93902.6 475069.0 0
100415.0 474028.0 0
106743.0 472643.0 0
110239.0 473679.0 0
113783.0 474569.0 0
119861.0 472411.0 0
123695.0 473174.0 0
127550.0 473826.0 0
137800.0 471953.0 0
141688.0 472280.0 0
145575.0 472517.0 0
149452.0 472682.0 0
153315.0 472795.0 0
157170.0 472879.0 0
161019.0 472952.0 0
164867.0 473024.0 0
168716.0 473094.0 0
172567.0 473164.0 0
176420.0 473234.0 0
180276.0 473303.0 0
184134.0 473374.0 0
187995.0 473452.0 0
191857.0 473547.0 0
195722.0 473672.0 0
209763.0 471559.0 0
213662.0 471803.0 0
217517.0 471952.0 0
221343.0 472044.0 0
225150.0 472100.0 0
228942.0 472133.0 0
232722.0 472153.0 0
236493.0 472167.0 0
240256.0 472183.0 0
244013.0 472205.0 0
247764.0 472238.0 0
251514.0 472285.0 0
255262.0 472348.0 0
259012.0 472427.0 0
262765.0 472521.0 0
266522.0 472629.0 0
270286.0 472747.0 0
274057.0 472875.0 0
277836.0 473008.0 0
281625.0 473144.0 0
285424.0 473279.0 0
289234.0 473409.0 0
293055.0 473531.0 0
296888.0 473639.0 0
300732.0 473732.0 0
327794.0 473844.0 0
331664.0 473812.0 0
335537.0 473777.0 0
339420.0 473736.0 0
343320.0 473678.0 0
347239.0 473589.0 0
351175.0 473460.0 0
355124.0 473287.0 0
359082.0 473068.0 0
363045.0 472798.0 0
367022.0 472463.0 0
370994.0 472127.0 0
377401.0 474663.0 0
381382.0 474301.0 0
385367.0 473943.0 0
389405.0 473661.0 0
393326.0 473564.0 0
397254.0 473199.0 0
401185.0 472663.0 0
405092.0 472025.0 0
411626.0 474404.0 0
415638.0 473681.0 0
422275.0 475604.0 0
426076.0 474492.0 0
433074.0 477338.0 0
69875.8 478568.0 0
76694.7 477862.0 0
80347.2 479285.0 0
87173.7 478362.0 0
90933.2 477545.0 0
97510.9 476498.0 0
104003.0 475261.0 0
107626.0 476416.0 0
111262.0 477428.0 0
117487.0 475262.0 0
121249.0 476031.0 0
125079.0 476697.0 0
131430.0 474381.0 0
135329.0 474843.0 0
139238.0 475215.0 0
143150.0 475504.0 0
147053.0 475717.0 0
150944.0 475871.0 0
154824.0 475984.0 0
158695.0 476075.0 0
162561.0 476156.0 0
166423.0 476234.0 0
170285.0 476310.0 0
174146.0 476385.0 0
178008.0 476460.0 0
199593.0 473844.0 0
203478.0 474084.0 0
207385.0 474409.0 0
211341.0 474804.0 0
215253.0 475046.0 0
219129.0 475200.0 0
222979.0 475300.0 0
226809.0 475363.0 0
230624.0 475405.0 0
234427.0 475435.0 0
238220.0 475461.0 0
242005.0 475488.0 0
245784.0 475521.0 0
249558.0 475565.0 0
253329.0 475621.0 0
257101.0 475691.0 0
260873.0 475774.0 0
264649.0 475869.0 0
268429.0 475976.0 0
272215.0 476091.0 0
276008.0 476212.0 0
304585.0 473805.0 0
308447.0 473857.0 0
312314.0 473887.0 0
316184.0 473898.0 0
320055.0 473891.0 0
323925.0 473872.0 0
349549.0 476620.0 0
353505.0 476459.0 0
357471.0 476258.0 0
361443.0 476014.0 0
365467.0 475671.0 0
369445.0 475350.0 0
373422.0 475015.0 0
383754.0 477266.0 0
387720.0 476951.0 0
399840.0 476169.0 0
403781.0 475578.0 0
407693.0 475011.0 0
414335.0 477259.0 0
418342.0 476530.0 0
427690.0 478127.0 0
84044.4 480705.0 0
87761.2 482101.0 0
94572.6 478976.0 0
101162.0 477809.0 0
104858.0 478999.0 0
108604.0 480212.0 0
115019.0 478210.0 0
118782.0 478953.0 0
128961.0 477265.0 0
132872.0 477751.0 0
136801.0 478158.0 0
140735.0 478489.0 0
144660.0 478748.0 0
148572.0 478943.0 0
152471.0 479089.0 0
156362.0 479201.0 0
160245.0 479296.0 0
181871.0 476536.0 0
185734.0 476617.0 0
189599.0 476708.0 0
193466.0 476821.0 0
197339.0 476967.0 0
201222.0 477163.0 0
205123.0 477426.0 0
209050.0 477765.0 0
212987.0 478095.0 0
216902.0 478321.0 0
220791.0 478473.0 0
224659.0 478574.0 0
228508.0 478643.0 0
232343.0 478692.0 0
236166.0 478731.0 0
239979.0 478766.0 0
243783.0 478803.0 0
279809.0 476336.0 0
283619.0 476460.0 0
287439.0 476581.0 0
291269.0 476695.0 0
295110.0 476799.0 0
298961.0 476889.0 0
302821.0 476962.0 0
306689.0 477017.0 0
310564.0 477052.0 0
314443.0 477068.0 0
318325.0 477068.0 0
322207.0 477052.0 0
326091.0 477026.0 0
329977.0 476992.0 0
333867.0 476950.0 0
337766.0 476900.0 0
341677.0 476834.0 0
345605.0 476743.0 0
355819.0 479470.0 0
359793.0 479250.0 0
363881.0 478890.0 0
367860.0 478593.0 0
371837.0 478278.0 0
375812.0 477948.0 0
379785.0 477607.0 0
391933.0 476947.0 0
395876.0 476645.0 0
402489.0 479129.0 0
406412.0 478539.0 0
410355.0 477933.0 0
416956.0 480224.0 0
421078.0 479399.0 0
80909.8 483121.0 0
84664.1 484527.0 0
91600.1 481482.0 0
98251.4 480325.0 0
101970.0 481563.0 0
122610.0 479626.0 0
126505.0 480195.0 0
130434.0 480689.0 0
134384.0 481115.0 0
138340.0 481480.0 0
142285.0 481784.0 0
146212.0 482021.0 0
164123.0 479382.0 0
167996.0 479466.0 0
171866.0 479548.0 0
175735.0 479629.0 0
179602.0 479710.0 0
183469.0 479794.0 0
187336.0 479884.0 0
191204.0 479988.0 0
195075.0 480115.0 0
198955.0 480276.0 0
202850.0 480486.0 0
206773.0 480758.0 0
210736.0 481128.0 0
247582.0 478846.0 0
251377.0 478898.0 0
255170.0 478962.0 0
258962.0 479036.0 0
262756.0 479122.0 0
266553.0 479218.0 0
270354.0 479322.0 0
274161.0 479433.0 0
277975.0 479546.0 0
281796.0 479661.0 0
285626.0 479774.0 0
289466.0 479881.0 0
293314.0 479979.0 0
297173.0 480066.0 0
301040.0 480138.0 0
304915.0 480195.0 0
308797.0 480233.0 0
312685.0 480254.0 0
316576.0 480259.0 0
320469.0 480248.0 0
324365.0 480223.0 0
328264.0 480188.0 0
332168.0 480143.0 0
336080.0 480087.0 0
340003.0 480015.0 0
343939.0 479923.0 0
347889.0 479804.0 0
351849.0 479654.0 0
362261.0 482122.0 0
366242.0 481854.0 0
370219.0 481561.0 0
374193.0 481253.0 0
378160.0 480935.0 0
382117.0 480615.0 0
386055.0 480310.0 0
389965.0 480035.0 0
394717.0 480222.0 0
398591.0 479722.0 0
409044.0 481493.0 0
413022.0 480864.0 0
81563.4 486999.0 0
88406.1 485939.0 0
95299.2 482852.0 0
99028.7 484140.0 0
105712.0 482698.0 0
112400.0 481098.0 0
116223.0 481854.0 0
120129.0 482604.0 0
124061.0 483171.0 0
128018.0 483662.0 0
131991.0 484097.0 0
135968.0 484480.0 0
150124.0 482199.0 0
154028.0 482334.0 0
157926.0 482443.0 0
161818.0 482540.0 0
165704.0 482632.0 0
169583.0 482722.0 0
173459.0 482811.0 0
177332.0 482897.0 0
181203.0 482984.0 0
185072.0 483075.0 0
188941.0 483174.0 0
192812.0 483288.0 0
196687.0 483425.0 0
200571.0 483594.0 0
204473.0 483806.0 0
208404.0 484077.0 0
214676.0 481417.0 0
218598.0 481622.0 0
222499.0 481765.0 0
226381.0 481865.0 0
230246.0 481937.0 0
234097.0 481992.0 0
237937.0 482038.0 0
241767.0 482082.0 0
245590.0 482128.0 0
249408.0 482179.0 0
253221.0 482239.0 0
257033.0 482308.0 0
260845.0 482386.0 0
264659.0 482473.0 0
268475.0 482568.0 0
272296.0 482669.0 0
276122.0 482774.0 0
279956.0 482880.0 0
283796.0 482985.0 0
287645.0 483086.0 0
291502.0 483179.0 0
295368.0 483263.0 0
299242.0 483334.0 0
303125.0 483391.0 0
307014.0 483432.0 0
310909.0 483457.0 0
314808.0 483465.0 0
318711.0 483458.0 0
322618.0 483437.0 0
326528.0 483402.0 0
330443.0 483355.0 0
334366.0 483295.0 0
338299.0 483221.0 0
342243.0 483128.0 0
346198.0 483013.0 0
350162.0 482873.0 0
354133.0 482705.0 0
358107.0 482507.0 0
372547.0 484574.0 0
376518.0 484276.0 0
380479.0 483976.0 0
384429.0 483685.0 0
388364.0 483411.0 0
392276.0 483049.0 0
397313.0 483327.0 0
401199.0 482731.0 0
405109.0 482114.0 0
411661.0 484467.0 0
418518.0 483863.0 0
85308.4 488412.0 0
92308.1 485395.0 0
96056.6 486711.0 0
102798.0 485302.0 0
106585.0 486293.0 0
109731.0 483971.0 0
113594.0 484789.0 0
117496.0 485445.0 0
121662.0 486208.0 0
125630.0 486676.0 0
129628.0 487109.0 0
139934.0 484822.0 0
143878.0 485112.0 0
147797.0 485328.0 0
151704.0 485484.0 0
155611.0 485603.0 0
159516.0 485707.0 0
163412.0 485808.0 0
167301.0 485907.0 0
171184.0 486003.0 0
175063.0 486097.0 0
178939.0 486189.0 0
182812.0 486282.0 0
186684.0 486379.0 0
190556.0 486485.0 0
194428.0 486606.0 0
198305.0 486748.0 0
212472.0 484508.0 0
216415.0 484760.0 0
220342.0 484943.0 0
224250.0 485076.0 0
228142.0 485173.0 0
232019.0 485247.0 0
235884.0 485306.0 0
239738.0 485358.0 0
243584.0 485409.0 0
247423.0 485462.0 0
251257.0 485521.0 0
255088.0 485586.0 0
258918.0 485659.0 0
262748.0 485740.0 0
266579.0 485828.0 0
270414.0 485921.0 0
274253.0 486018.0 0
278098.0 486117.0 0
281949.0 486215.0 0
285807.0 486309.0 0
289673.0 486398.0 0
293546.0 486479.0 0
297428.0 486549.0 0
301317.0 486606.0 0
305213.0 486648.0 0
309115.0 486676.0 0
313022.0 486688.0 0
316934.0 486685.0 0
320849.0 486666.0 0
324769.0 486633.0 0
328694.0 486586.0 0
332626.0 486525.0 0
336567.0 486449.0 0
340518.0 486357.0 0
344478.0 486246.0 0
348445.0 486114.0 0
352418.0 485961.0 0
356392.0 485783.0 0
360609.0 485371.0 0
364591.0 485129.0 0
368571.0 484860.0 0
378821.0 487345.0 0
382786.0 487063.0 0
390725.0 486508.0 0
394650.0 486053.0 0
399894.0 486378.0 0
403795.0 485740.0 0
407728.0 485096.0 0
415256.0 486166.0 0
99846.8 487951.0 0
103686.0 489046.0 0
111033.0 487812.0 0
114960.0 488432.0 0
118914.0 488949.0 0
123317.0 489766.0 0
133631.0 487502.0 0
137608.0 487867.0 0
141571.0 488201.0 0
145508.0 488486.0 0
149406.0 488668.0 0
153311.0 488787.0 0
157223.0 488889.0 0
161127.0 488997.0 0
165024.0 489104.0 0
168914.0 489208.0 0
172799.0 489309.0 0
202191.0 486918.0 0
206093.0 487124.0 0
210024.0 487372.0 0
214265.0 487903.0 0
218203.0 488120.0 0
222128.0 488283.0 0
226040.0 488405.0 0
229938.0 488498.0 0
233825.0 488571.0 0
237700.0 488634.0 0
241567.0 488691.0 0
245426.0 488748.0 0
249280.0 488807.0 0
253129.0 488871.0 0
256976.0 488941.0 0
260821.0 489017.0 0
264667.0 489099.0 0
268516.0 489186.0 0
342731.0 489500.0 0
346703.0 489377.0 0
350678.0 489236.0 0
354653.0 489076.0 0
358928.0 488639.0 0
362910.0 488421.0 0
366893.0 488174.0 0
370873.0 487907.0 0
374850.0 487628.0 0
386750.0 486788.0 0
397094.0 489055.0 0
402501.0 489432.0 0
406414.0 488726.0 0
410340.0 488115.0 0
93031.3 489298.0 0
96828.3 490560.0 0
107604.0 489795.0 0
112523.0 491525.0 0
116492.0 491996.0 0
127295.0 490158.0 0
131314.0 490549.0 0
135304.0 490926.0 0
139281.0 491285.0 0
143241.0 491623.0 0
147172.0 491919.0 0
151042.0 492019.0 0
154950.0 492095.0 0
176680.0 489406.0 0
180559.0 489503.0 0
184435.0 489601.0 0
188310.0 489703.0 0
192183.0 489814.0 0
196058.0 489939.0 0
199937.0 490081.0 0
203825.0 490246.0 0
207729.0 490435.0 0
211660.0 490641.0 0
216096.0 491311.0 0
220026.0 491496.0 0
223948.0 491638.0 0
272367.0 489277.0 0
276223.0 489369.0 0
280085.0 489461.0 0
283952.0 489551.0 0
287827.0 489636.0 0
291708.0 489713.0 0
295597.0 489781.0 0
299493.0 489838.0 0
303396.0 489882.0 0
307304.0 489912.0 0
311219.0 489927.0 0
315138.0 489927.0 0
319062.0 489912.0 0
322990.0 489882.0 0
326923.0 489837.0 0
330862.0 489776.0 0
334809.0 489700.0 0
338766.0 489608.0 0
352892.0 492386.0 0
357220.0 491927.0 0
361202.0 491730.0 0
365187.0 491502.0 0
369173.0 491252.0 0
373155.0 490990.0 0
377134.0 490721.0 0
381109.0 490450.0 0
385082.0 490178.0 0
389062.0 489901.0 0
393157.0 489600.0 0
405177.0 492405.0 0
409121.0 491847.0 0
93826.6 493200.0 0
100758.0 491754.0 0
104939.0 492707.0 0
108956.0 493226.0 0
120470.0 492401.0 0
125040.0 493286.0 0
129019.0 493634.0 0
133016.0 494006.0 0
136998.0 494375.0 0
140973.0 494739.0 0
158854.0 492201.0 0
162754.0 492313.0 0
166649.0 492425.0 0
170540.0 492533.0 0
174428.0 492637.0 0
178313.0 492738.0 0
182195.0 492837.0 0
186075.0 492939.0 0
189953.0 493045.0 0
193831.0 493159.0 0
197709.0 493284.0 0
201592.0 493422.0 0
205485.0 493574.0 0
209393.0 493736.0 0
213322.0 493896.0 0
227862.0 491749.0 0
231765.0 491837.0 0
235658.0 491910.0 0
239543.0 491975.0 0
243420.0 492036.0 0
247291.0 492098.0 0
251157.0 492162.0 0
255020.0 492230.0 0
258880.0 492304.0 0
262741.0 492382.0 0
266602.0 492464.0 0
270465.0 492549.0 0
274333.0 492637.0 0
278204.0 492724.0 0
282081.0 492809.0 0
285964.0 492890.0 0
289853.0 492965.0 0
293749.0 493032.0 0
297652.0 493088.0 0
301561.0 493133.0 0
305477.0 493165.0 0
309398.0 493183.0 0
313324.0 493186.0 0
317255.0 493175.0 0
321191.0 493148.0 0
325132.0 493106.0 0
329078.0 493048.0 0
333030.0 492972.0 0
336990.0 492881.0 0
340959.0 492775.0 0
344935.0 492657.0 0
348915.0 492529.0 0
363457.0 494848.0 0
367447.0 494612.0 0
371435.0 494364.0 0
375420.0 494109.0 0
379402.0 493848.0 0
383383.0 493584.0 0
387367.0 493312.0 0
391383.0 493015.0 0
395652.0 492676.0 0
399589.0 492070.0 0
97765.0 494386.0 0
102092.0 495451.0 0
106466.0 496277.0 0
110565.0 496604.0 0
114183.0 495139.0 0
118143.0 495509.0 0
122119.0 495837.0 0
126781.0 496789.0 0
130750.0 497123.0 0
134727.0 497484.0 0
144931.0 495097.0 0
148857.0 495439.0 0
152711.0 495340.0 0
156597.0 495429.0 0
160492.0 495540.0 0
164390.0 495656.0 0
168286.0 495770.0 0
172181.0 495879.0 0
176074.0 495985.0 0
179964.0 496088.0 0
183852.0 496190.0 0
187737.0 496294.0 0
191620.0 496402.0 0
195503.0 496516.0 0
199388.0 496637.0 0
203278.0 496766.0 0
207177.0 496899.0 0
211090.0 497030.0 0
215017.0 497146.0 0
217952.0 494728.0 0
221876.0 494884.0 0
225796.0 495008.0 0
229710.0 495107.0 0
233617.0 495190.0 0
237516.0 495262.0 0
241408.0 495329.0 0
245295.0 495394.0 0
249175.0 495460.0 0
253052.0 495528.0 0
256927.0 495600.0 0
260800.0 495675.0 0
264674.0 495754.0 0
268549.0 495836.0 0
272426.0 495919.0 0
276308.0 496002.0 0
280194.0 496083.0 0
284085.0 496161.0 0
287982.0 496234.0 0
291885.0 496299.0 0
295795.0 496355.0 0
299710.0 496401.0 0
303632.0 496435.0 0
307559.0 496455.0 0
311492.0 496462.0 0
315430.0 496454.0 0
319373.0 496431.0 0
323321.0 496393.0 0
327273.0 496338.0 0
331230.0 496266.0 0
335194.0 496176.0 0
339165.0 496072.0 0
343144.0 495956.0 0
347127.0 495835.0 0
351110.0 495710.0 0
355488.0 495235.0 0
359470.0 495059.0 0
373682.0 497507.0 0
377670.0 497258.0 0
381659.0 497005.0 0
385646.0 496742.0 0
389642.0 496461.0 0
393777.0 496099.0 0
398171.0 495754.0 0
402245.0 494984.0 0
407637.0 495532.0 0
95048.5 497304.0 0
99137.7 498096.0 0
103671.0 499065.0 0
115883.0 498693.0 0
119839.0 498994.0 0
123805.0 499282.0 0
128515.0 500296.0 0
138701.0 497855.0 0
142661.0 498239.0 0
146592.0 498645.0 0
154327.0 498681.0 0
158229.0 498784.0 0
162133.0 498901.0 0
166036.0 499019.0 0
169939.0 499134.0 0
173840.0 499244.0 0
177740.0 499350.0 0
181638.0 499455.0 0
185532.0 499559.0 0
219827.0 498151.0 0
223746.0 498282.0 0
227665.0 498389.0 0
231579.0 498478.0 0
235489.0 498557.0 0
239394.0 498628.0 0
243292.0 498697.0 0
247186.0 498765.0 0
251076.0 498834.0 0
254962.0 498905.0 0
258848.0 498979.0 0
262732.0 499056.0 0
266618.0 499134.0 0
270506.0 499214.0 0
274396.0 499294.0 0
278291.0 499373.0 0
282190.0 499448.0 0
286095.0 499519.0 0
290005.0 499583.0 0
293921.0 499639.0 0
325449.0 499646.0 0
329412.0 499580.0 0
333379.0 499494.0 0
337352.0 499391.0 0
341332.0 499276.0 0
345316.0 499157.0 0
349301.0 499042.0 0
353730.0 498561.0 0
357712.0 498407.0 0
361703.0 498211.0 0
365701.0 497986.0 0
369693.0 497751.0 0
396200.0 499186.0 0
400900.0 498658.0 0
96465.9 501042.0 0
100739.0 501728.0 0
108242.0 499740.0 0
112224.0 500043.0 0
117596.0 502206.0 0
121544.0 502473.0 0
132475.0 500627.0 0
136440.0 500987.0 0
140396.0 501375.0 0
150458.0 499088.0 0
155956.0 502040.0 0
159873.0 502158.0 0
163786.0 502281.0 0
189424.0 499664.0 0
193315.0 499771.0 0
197205.0 499882.0 0
201099.0 499996.0 0
204997.0 500111.0 0
208904.0 500223.0 0
212821.0 500323.0 0
216746.0 500402.0 0
221715.0 501578.0 0
225632.0 501687.0 0
229550.0 501779.0 0
233466.0 501861.0 0
237379.0 501936.0 0
241287.0 502007.0 0
245191.0 502078.0 0
249092.0 502148.0 0
297843.0 499685.0 0
301770.0 499720.0 0
305703.0 499743.0 0
309642.0 499753.0 0
313587.0 499748.0 0
317536.0 499730.0 0
321490.0 499696.0 0
343488.0 502497.0 0
347474.0 502384.0 0
351933.0 501897.0 0
355927.0 501774.0 0
359925.0 501591.0 0
363939.0 501375.0 0
367932.0 501152.0 0
371924.0 500920.0 0
375915.0 500680.0 0
379906.0 500435.0 0
383904.0 500187.0 0
387896.0 499923.0 0
391988.0 499581.0 0
398915.0 502052.0 0
403855.0 501337.0 0
105524.0 502563.0 0
109968.0 503233.0 0
113928.0 503540.0 0
125497.0 502743.0 0
130245.0 503815.0 0
134197.0 504147.0 0
138148.0 504521.0 0
144329.0 501803.0 0
148200.0 502374.0 0
152106.0 502718.0 0
167699.0 502400.0 0
171612.0 502514.0 0
175523.0 502623.0 0
179432.0 502731.0 0
183337.0 502836.0 0
187240.0 502941.0 0
191140.0 503046.0 0
195039.0 503150.0 0
198939.0 503255.0 0
202842.0 503359.0 0
206750.0 503458.0 0
210665.0 503547.0 0
214586.0 503621.0 0
218510.0 503670.0 0
252989.0 502220.0 0
256884.0 502294.0 0
260779.0 502369.0 0
264674.0 502446.0 0
268571.0 502523.0 0
272470.0 502601.0 0
276373.0 502677.0 0
280280.0 502750.0 0
284192.0 502819.0 0
288109.0 502883.0 0
292031.0 502939.0 0
295958.0 502986.0 0
299892.0 503022.0 0
303831.0 503048.0 0
307775.0 503060.0 0
311725.0 503059.0 0
315680.0 503044.0 0
319640.0 503015.0 0
323605.0 502970.0 0
327575.0 502910.0 0
331548.0 502832.0 0
335523.0 502733.0 0
339504.0 502618.0 0
358137.0 504988.0 0
362159.0 504779.0 0
366158.0 504568.0 0
370151.0 504347.0 0
374143.0 504117.0 0
378135.0 503880.0 0
382127.0 503638.0 0
386136.0 503395.0 0
390206.0 503082.0 0
394367.0 502696.0 0
95835.9 504982.0 0
99780.1 505574.0 0
103725.0 506048.0 0
107693.0 506399.0 0
111678.0 506769.0 0
119302.0 505707.0 0
123241.0 505959.0 0
127184.0 506214.0 0
131978.0 507350.0 0
135920.0 507688.0 0
142082.0 504945.0 0
145946.0 505666.0 0
149866.0 506004.0 0
157607.0 505422.0 0
161536.0 505552.0 0
165461.0 505676.0 0
169387.0 505794.0 0
173311.0 505907.0 0
177233.0 506017.0 0
181151.0 506125.0 0
185065.0 506231.0 0
188976.0 506335.0 0
192886.0 506438.0 0
196794.0 506538.0 0
200704.0 506634.0 0
204617.0 506725.0 0
208535.0 506807.0 0
212457.0 506877.0 0
216382.0 506929.0 0
220306.0 506958.0 0
223613.0 505007.0 0
227529.0 505097.0 0
231448.0 505179.0 0
235366.0 505255.0 0
239281.0 505328.0 0
243193.0 505401.0 0
247102.0 505473.0 0
251007.0 505546.0 0
254911.0 505619.0 0
258815.0 505694.0 0
262718.0 505770.0 0
266623.0 505846.0 0
270531.0 505921.0 0
274441.0 505996.0 0
278355.0 506067.0 0
282273.0 506135.0 0
286197.0 506198.0 0
290125.0 506254.0 0
294058.0 506302.0 0
297997.0 506340.0 0
301941.0 506368.0 0
305890.0 506383.0 0
309845.0 506386.0 0
313805.0 506374.0 0
317771.0 506349.0 0
321742.0 506309.0 0
325717.0 506255.0 0
329697.0 506184.0 0
333680.0 506095.0 0
337664.0 505983.0 0
341651.0 505858.0 0
345636.0 505739.0 0
350099.0 505254.0 0
354092.0 505138.0 0
368365.0 507789.0 0
372358.0 507569.0 0
380342.0 507106.0 0
384337.0 506865.0 0
388411.0 506589.0 0
392569.0 506224.0 0
397092.0 505547.0 0
401809.0 504771.0 0
97446.4 508799.0 0
101418.0 509264.0 0
115638.0 507082.0 0
121005.0 509215.0 0
124937.0 509455.0 0
128873.0 509687.0 0
133730.0 510902.0 0
139853.0 508094.0 0
143696.0 508962.0 0
153790.0 506330.0 0
159282.0 508827.0 0
163223.0 508962.0 0
167164.0 509084.0 0
171104.0 509199.0 0
175040.0 509312.0 0
178972.0 509424.0 0
182899.0 509533.0 0
186822.0 509639.0 0
190742.0 509741.0 0
194661.0 509839.0 0
198579.0 509932.0 0
202499.0 510018.0 0
206422.0 510096.0 0
210347.0 510163.0 0
214276.0 510216.0 0
218205.0 510252.0 0
222131.0 510270.0 0
225517.0 508436.0 0
229435.0 508513.0 0
233356.0 508587.0 0
237275.0 508661.0 0
241193.0 508734.0 0
245107.0 508808.0 0
249019.0 508882.0 0
252930.0 508957.0 0
256840.0 509031.0 0
260751.0 509106.0 0
264663.0 509181.0 0
268577.0 509256.0 0
272495.0 509328.0 0
276415.0 509399.0 0
280340.0 509466.0 0
284269.0 509528.0 0
288203.0 509584.0 0
292142.0 509633.0 0
296086.0 509673.0 0
300035.0 509703.0 0
303989.0 509722.0 0
307948.0 509728.0 0
311913.0 509720.0 0
315882.0 509699.0 0
319858.0 509663.0 0
323839.0 509614.0 0
327826.0 509550.0 0
331816.0 509469.0 0
335815.0 509369.0 0
339809.0 509242.0 0
343798.0 509117.0 0
348246.0 508635.0 0
352240.0 508519.0 0
356278.0 508372.0 0
360370.0 508201.0 0
364371.0 507999.0 0
376350.0 507340.0 0
395296.0 509077.0 0
399310.0 508823.0 0
403290.0 508473.0 0
105451.0 509630.0 0
109429.0 509983.0 0
113403.0 510333.0 0
117358.0 510652.0 0
122722.0 512739.0 0
126659.0 512953.0 0
137638.0 511259.0 0
147627.0 509293.0 0
151562.0 509621.0 0
155502.0 509931.0 0
160984.0 512255.0 0
164943.0 512384.0 0
168902.0 512499.0 0
227426.0 511866.0 0
231347.0 511935.0 0
235269.0 512006.0 0
239190.0 512080.0 0
243109.0 512155.0 0
247026.0 512231.0 0
250941.0 512306.0 0
254857.0 512381.0 0
258773.0 512456.0 0
262691.0 512530.0 0
266612.0 512603.0 0
337969.0 512647.0 0
341961.0 512518.0 0
346390.0 512048.0 0
350377.0 511916.0 0
354413.0 511774.0 0
358497.0 511603.0 0
362577.0 511447.0 0
366571.0 511246.0 0
370563.0 511036.0 0
374554.0 510817.0 0
378546.0 510588.0 0
382539.0 510356.0 0
386578.0 510090.0 0
390759.0 509750.0 0
99051.8 512463.0 0
103175.0 512852.0 0
107185.0 513215.0 0
111161.0 513573.0 0
115131.0 513919.0 0
119089.0 514238.0 0
130596.0 513142.0 0
141446.0 512260.0 0
145386.0 512583.0 0
149329.0 512913.0 0
153282.0 513228.0 0
157236.0 513523.0 0
172855.0 512616.0 0
176800.0 512732.0 0
180739.0 512845.0 0
184674.0 512954.0 0
188606.0 513058.0 0
192535.0 513156.0 0
196464.0 513249.0 0
200392.0 513334.0 0
204321.0 513409.0 0
208252.0 513475.0 0
212185.0 513528.0 0
216119.0 513568.0 0
220052.0 513595.0 0
223979.0 513611.0 0
270535.0 512675.0 0
274462.0 512745.0 0
278392.0 512811.0 0
282327.0 512873.0 0
286267.0 512929.0 0
290211.0 512979.0 0
294160.0 513021.0 0
298114.0 513054.0 0
302072.0 513075.0 0
306036.0 513085.0 0
310004.0 513082.0 0
313978.0 513064.0 0
317957.0 513033.0 0
321941.0 512987.0 0
325932.0 512929.0 0
329928.0 512860.0 0
333935.0 512758.0 0
352530.0 515189.0 0
356621.0 515024.0 0
360691.0 514868.0 0
364769.0 514718.0 0
368761.0 514519.0 0
372751.0 514309.0 0
376740.0 514089.0 0
380731.0 513859.0 0
384758.0 513610.0 0
388918.0 513265.0 0
393486.0 512615.0 0
397489.0 512378.0 0
401578.0 512096.0 0
100826.0 516045.0 0
104920.0 516444.0 0
108903.0 516815.0 0
124493.0 516269.0 0
128481.0 516421.0 0
132494.0 516533.0 0
136078.0 514817.0 0
143134.0 515872.0 0
147089.0 516208.0 0
151052.0 516521.0 0
162726.0 515698.0 0
166710.0 515807.0 0
170678.0 515928.0 0
174636.0 516049.0 0
178587.0 516166.0 0
182534.0 516279.0 0
186477.0 516387.0 0
190417.0 516488.0 0
194355.0 516582.0 0
198292.0 516668.0 0
202229.0 516744.0 0
206166.0 516809.0 0
210104.0 516863.0 0
214043.0 516905.0 0
217981.0 516936.0 0
221917.0 516959.0 0
225847.0 516981.0 0
229337.0 515299.0 0
233261.0 515364.0 0
237185.0 515437.0 0
241107.0 515514.0 0
245026.0 515592.0 0
248945.0 515669.0 0
252864.0 515744.0 0
256785.0 515819.0 0
260708.0 515893.0 0
264634.0 515965.0 0
268562.0 516036.0 0
272495.0 516105.0 0
276430.0 516170.0 0
280371.0 516232.0 0
284315.0 516289.0 0
288264.0 516340.0 0
292218.0 516384.0 0
296176.0 516418.0 0
300140.0 516443.0 0
304108.0 516457.0 0
308080.0 516458.0 0
312058.0 516446.0 0
316039.0 516419.0 0
320026.0 516377.0 0
324017.0 516323.0 0
328014.0 516260.0 0
332051.0 516166.0 0
336079.0 516045.0 0
340121.0 515941.0 0
344535.0 515485.0 0
348527.0 515347.0 0
366953.0 518015.0 0
382925.0 517137.0 0
387098.0 516799.0 0
391636.0 516147.0 0
395659.0 515929.0 0
399749.0 515654.0 0
99138.7 519648.0 0
112884.0 517174.0 0
116863.0 517517.0 0
120841.0 517826.0 0
126380.0 519743.0 0
130366.0 519868.0 0
135755.0 518723.0 0
139369.0 517108.0 0
155022.0 516836.0 0
159003.0 517102.0 0
164547.0 519127.0 0
168517.0 519249.0 0
172483.0 519375.0 0
176443.0 519498.0 0
180400.0 519616.0 0
184353.0 519728.0 0
188304.0 519832.0 0
192252.0 519929.0 0
196199.0 520018.0 0
200144.0 520096.0 0
204088.0 520164.0 0
208032.0 520220.0 0
211975.0 520264.0 0
215918.0 520297.0 0
219858.0 520324.0 0
223796.0 520349.0 0
227729.0 520381.0 0
231248.0 518735.0 0
235175.0 518805.0 0
239099.0 518884.0 0
243020.0 518965.0 0
246940.0 519045.0 0
250862.0 519121.0 0
254787.0 519196.0 0
258714.0 519269.0 0
262643.0 519341.0 0
266577.0 519411.0 0
270514.0 519479.0 0
274455.0 519544.0 0
278400.0 519606.0 0
282349.0 519663.0 0
286303.0 519715.0 0
290261.0 519760.0 0
294224.0 519797.0 0
298192.0 519825.0 0
302164.0 519843.0 0
306141.0 519849.0 0
310122.0 519842.0 0
314107.0 519821.0 0
318095.0 519784.0 0
322088.0 519733.0 0
326084.0 519673.0 0
330135.0 519576.0 0
334195.0 519472.0 0
338217.0 519350.0 0
342681.0 518943.0 0
346670.0 518800.0 0
350680.0 518642.0 0
354720.0 518454.0 0
358808.0 518309.0 0
362875.0 518157.0 0
370941.0 517819.0 0
374928.0 517607.0 0
378918.0 517380.0 0
393811.0 519471.0 0
397917.0 519206.0 0
103178.0 519997.0 0
107163.0 520370.0 0
111146.0 520736.0 0
115126.0 521085.0 0
119101.0 521413.0 0
123051.0 521855.0 0
128256.0 523226.0 0
133643.0 522057.0 0
137631.0 522159.0 0
141290.0 520612.0 0
145157.0 519700.0 0
149123.0 520005.0 0
153084.0 520325.0 0
157048.0 520579.0 0
161006.0 520881.0 0
166362.0 522582.0 0
170337.0 522711.0 0
174305.0 522841.0 0
233154.0 522180.0 0
237083.0 522262.0 0
241006.0 522350.0 0
244926.0 522434.0 0
248849.0 522512.0 0
252777.0 522586.0 0
256707.0 522660.0 0
260641.0 522731.0 0
264579.0 522800.0 0
268520.0 522867.0 0
272466.0 522932.0 0
276415.0 522993.0 0
328208.0 522999.0 0
332269.0 522900.0 0
336336.0 522794.0 0
340754.0 522380.0 0
344810.0 522279.0 0
348818.0 522110.0 0
352868.0 521930.0 0
356887.0 521750.0 0
360989.0 521620.0 0
365049.0 521472.0 0
369127.0 521341.0 0
373111.0 521146.0 0
377100.0 520920.0 0
381105.0 520678.0 0
385263.0 520335.0 0
389811.0 519701.0 0
100876.0 523241.0 0
104860.0 523614.0 0
108849.0 523986.0 0
112846.0 524349.0 0
116834.0 524696.0 0
143152.0 524142.0 0
147033.0 523394.0 0
150980.0 523717.0 0
154935.0 523964.0 0
158890.0 524250.0 0
162857.0 524427.0 0
178271.0 522964.0 0
182234.0 523080.0 0
186195.0 523189.0 0
190154.0 523290.0 0
194110.0 523382.0 0
198064.0 523465.0 0
202016.0 523536.0 0
205967.0 523596.0 0
209916.0 523643.0 0
213862.0 523680.0 0
217806.0 523708.0 0
221747.0 523733.0 0
225685.0 523764.0 0
229620.0 523814.0 0
280368.0 523051.0 0
284326.0 523104.0 0
288289.0 523151.0 0
292256.0 523190.0 0
296228.0 523221.0 0
300204.0 523242.0 0
304186.0 523252.0 0
308171.0 523251.0 0
312160.0 523237.0 0
316153.0 523208.0 0
320148.0 523159.0 0
324145.0 523102.0 0
350994.0 525415.0 0
355032.0 525247.0 0
359044.0 525068.0 0
363162.0 524956.0 0
367210.0 524815.0 0
375240.0 524509.0 0
379301.0 524229.0 0
383289.0 523999.0 0
387268.0 523768.0 0
391233.0 523425.0 0
395212.0 523202.0 0
399197.0 522987.0 0
101674.0 527145.0 0
105653.0 527517.0 0
120805.0 525136.0 0
124919.0 525381.0 0
131546.0 525430.0 0
135521.0 525541.0 0
139488.0 525630.0 0
168193.0 526053.0 0
172170.0 526194.0 0
176146.0 526322.0 0
180119.0 526443.0 0
184090.0 526557.0 0
188058.0 526663.0 0
192024.0 526760.0 0
195987.0 526847.0 0
199949.0 526924.0 0
203907.0 526989.0 0
207863.0 527041.0 0
211815.0 527082.0 0
215762.0 527113.0 0
219705.0 527139.0 0
223642.0 527167.0 0
227576.0 527208.0 0
231510.0 527279.0 0
235051.0 525640.0 0
238979.0 525742.0 0
242899.0 525838.0 0
246824.0 525917.0 0
250753.0 525991.0 0
254687.0 526064.0 0
258626.0 526135.0 0
262568.0 526203.0 0
266514.0 526269.0 0
270463.0 526333.0 0
274417.0 526395.0 0
278374.0 526453.0 0
282336.0 526507.0 0
286302.0 526555.0 0
290273.0 526597.0 0
294249.0 526630.0 0
298229.0 526655.0 0
302214.0 526669.0 0
306204.0 526673.0 0
310198.0 526664.0 0
314195.0 526643.0 0
318202.0 526603.0 0
322202.0 526547.0 0
326275.0 526439.0 0
330331.0 526339.0 0
334406.0 526237.0 0
338852.0 525855.0 0
342864.0 525731.0 0
346969.0 525607.0 0
371206.0 524746.0 0
393958.0 526996.0 0
398000.0 526904.0 0
109627.0 527893.0 0
113597.0 528265.0 0
117567.0 528620.0 0
121525.0 529060.0 0
125499.0 529325.0 0
129446.0 528805.0 0
133437.0 528937.0 0
137432.0 529034.0 0
142058.0 528641.0 0
145749.0 527175.0 0
149703.0 527502.0 0
153663.0 527750.0 0
157620.0 528029.0 0
161587.0 528204.0 0
165491.0 528954.0 0
170032.0 529556.0 0
174022.0 529692.0 0
178007.0 529818.0 0
181987.0 529936.0 0
185964.0 530047.0 0
189939.0 530149.0 0
193912.0 530243.0 0
197883.0 530325.0 0
201852.0 530396.0 0
205816.0 530455.0 0
209776.0 530503.0 0
213730.0 530539.0 0
217675.0 530568.0 0
221611.0 530595.0 0
225538.0 530629.0 0
229458.0 530681.0 0
233381.0 530779.0 0
236928.0 529125.0 0
240853.0 529253.0 0
244783.0 529337.0 0
248715.0 529410.0 0
252652.0 529481.0 0
256597.0 529552.0 0
260544.0 529620.0 0
264495.0 529685.0 0
268448.0 529749.0 0
272405.0 529811.0 0
276366.0 529869.0 0
280331.0 529924.0 0
284301.0 529973.0 0
288276.0 530017.0 0
292255.0 530053.0 0
296240.0 530081.0 0
300228.0 530099.0 0
304222.0 530107.0 0
308219.0 530104.0 0
312221.0 530088.0 0
316240.0 530055.0 0
320260.0 530008.0 0
324337.0 529899.0 0
328394.0 529794.0 0
332456.0 529696.0 0
336905.0 529326.0 0
340958.0 529224.0 0
345016.0 529070.0 0
349143.0 528934.0 0
353149.0 528748.0 0
357187.0 528584.0 0
361189.0 528409.0 0
365344.0 528330.0 0
369850.0 528538.0 0
373856.0 528321.0 0
377835.0 527935.0 0
381827.0 527712.0 0
385827.0 527490.0 0
389905.0 527194.0 0
102018.0 531122.0 0
106083.0 531485.0 0
110100.0 531858.0 0
114098.0 532227.0 0
118104.0 532580.0 0
142200.0 532616.0 0
146015.0 531208.0 0
150039.0 531485.0 0
154031.0 531730.0 0
158056.0 531998.0 0
162068.0 532170.0 0
238644.0 532720.0 0
242629.0 532820.0 0
246610.0 532875.0 0
342438.0 532919.0 0
346417.0 532794.0 0
350394.0 532712.0 0
354367.0 532534.0 0
358337.0 532392.0 0
362305.0 532227.0 0
366274.0 532213.0 0
378151.0 531917.0 0
382128.0 531697.0 0
386109.0 531477.0 0
390088.0 531189.0 0
394076.0 530992.0 0
398072.0 530904.0 0
122130.0 533009.0 0
126132.0 533266.0 0
130098.0 532743.0 0
134100.0 532867.0 0
138214.0 532938.0 0
166169.0 532881.0 0
170224.0 533525.0 0
174243.0 533660.0 0
178268.0 533783.0 0
182301.0 533898.0 0
186340.0 534004.0 0
190395.0 534098.0 0
194436.0 534182.0 0
198478.0 534255.0 0
202525.0 534313.0 0
206577.0 534356.0 0
210633.0 534382.0 0
214696.0 534392.0 0
218769.0 534387.0 0
222847.0 534370.0 0
226948.0 534341.0 0
231027.0 534326.0 0
235022.0 534394.0 0
250585.0 532922.0 0
254550.0 532980.0 0
258509.0 533050.0 0
262465.0 533114.0 0
266422.0 533178.0 0
270381.0 533240.0 0
274345.0 533299.0 0
278312.0 533355.0 0
282285.0 533406.0 0
286263.0 533451.0 0
290246.0 533490.0 0
294235.0 533520.0 0
298228.0 533542.0 0
302225.0 533554.0 0
306225.0 533555.0 0
310236.0 533545.0 0
314263.0 533514.0 0
318292.0 533475.0 0
322396.0 533376.0 0
326463.0 533277.0 0
330473.0 533189.0 0
334468.0 533129.0 0
338454.0 532993.0 0
370227.0 532595.0 0
374193.0 532330.0 0
POINT_DATA 4650
SCALARS Radius float 1
LOOKUP_TABLE default
4000.0 4000.0 4000.0 4000.0 4000.0 4000.0 4000.0 4000.0 4000.0 4000.0 4000.0 4000.0 4000.0 4000.0 4000.0 4000.0 4000.0 4000.0 4000.0 4000.0 4000.0 4000.0 4000.0 4000.0 4000.0 4000.0 4000.0 4000.0 4000.0 4000.0 4000.0 4000.0 4000.0 4000.0 4000.0 4000.0 4000.0 4000.0 4000.0 4000.0 4000.0 4000.0 4000.0 4000.0 4000.0 4000.0 4000.0 4000.0 4000.0 4000.0 4000.0 4000.0 4000.0 4000.0 4000.0 4000.0 4000.0 4000.0 4000.0 4000.0 4000.0 4000.0 4000.0 4000.0 4000.0 4000.0 4000.0 4000.0 4000.0 4000.0 4000.0 4000.0 4000.0 4000.0 4000.0 4000.0 4000.0 4000.0 4000.0 4000.0 4000.0 4000.0 4000.0 4000.0 4000.0 4000.0 4000.0 4000.0 4000.0 4000.0 4000.0 4000.0 4000.0 4000.0 4000.0 4000.0 4000.0 4000.0 4000.0 4000.0 4000.0 4000.0 4000.0 4000.0 4000.0 4000.0 4000.0 4000.0 4000.0 4000.0 4000.0 4000.0 4000.0 4000.0 4000.0 4000.0 4000.0 4000.0 4000.0 4000.0 4000.0 4000.0 4000.0 4000.0 4000.0 4000.0 4000.0 4000.0 4000.0 4000.0 4000.0 4000.0 4000.0 4000.0 4000.0 4000.0 4000.0 4000.0 4000.0 4000.0 4000.0 4000.0 4000.0 4000.0 4000.0 4000.0 4000.0 4000.0 4000.0 4000.0 4000.0 4000.0 4000.0 4000.0 4000.0 4000.0 4000.0 4000.0 4000.0 4000.0 4000.0 4000.0 4000.0 4000.0 4000.0 4000.0 4000.0 4000.0 4000.0 4000.0 4000.0 4000.0 4000.0 4000.0 4000.0 4000.0 4000.0 4000.0 4000.0 4000.0 4000.0 4000.0 4000.0 4000.0 4000.0 4000.0 4000.0 4000.0 4000.0 4000.0 4000.0 4000.0 4000.0 4000.0 4000.0 4000.0 4000.0 4000.0 4000.0 4000.0 4000.0 4000.0 4000.0 4000.0 4000.0 4000.0 4000.0 4000.0 4000.0 4000.0 4000.0 4000.0 4000.0 4000.0 4000.0 4000.0 4000.0 4000.0 4000.0 4000.0 4000.0 4000.0 4000.0 4000.0 4000.0 4000.0 4000.0 4000.0 4000.0 4000.0 4000.0 4000.0 4000.0 4000.0 4000.0 4000.0 4000.0 4000.0 4000.0 4000.0 4000.0 4000.0 4000.0 4000.0 4000.0 4000.0 4000.0 4000.0 4000.0 4000.0 4000.0 4000.0 4000.0 4000.0 4000.0 4000.0 4000.0 4000.0 4000.0 4000.0 4000.0 4000.0 4000.0 4000.0 4000.0 4000.0 4000.0 4000.0 4000.0 4000.0 4000.0 4000.0 4000.0 4000.0 4000.0 4000.0 4000.0 4000.0 4000.0 4000.0 4000.0 4000.0 4000.0 4000.0 4000.0 4000.0 4000.0 4000.0 4000.0 4000.0 4000.0 4000.0 4000.0 4000.0 4000.0 4000.0 4000.0 4000.0 4000.0 4000.0 4000.0 4000.0 4000.0 4000.0 4000.0 4000.0 4000.0 4000.0 4000.0 4000.0 4000.0 4000.0 4000.0 4000.0 4000.0 4000.0 4000.0 4000.0 4000.0 4000.0 4000.0 4000.0 4000.0 4000.0 4000.0 4000.0 4000.0 4000.0 4000.0 4000.0 4000.0 4000.0 4000.0 4000.0 4000.0 4000.0 4000.0 4000.0 4000.0 4000.0 4000.0 4000.0 4000.0 4000.0 4000.0 4000.0 4000.0 4000.0 4000.0 4000.0 4000.0 4000.0 4000.0 4000.0 4000.0 4000.0 4000.0 4000.0 4000.0 4000.0 4000.0 4000.0 4000.0 4000.0 4000.0 4000.0 4000.0 4000.0 4000.0 4000.0 4000.0 4000.0 4000.0 4000.0 4000.0 4000.0 4000.0 4000.0 4000.0 4000.0 4000.0 4000.0 4000.0 4000.0 4000.0 4000.0 4000.0 4000.0 4000.0 4000.0 4000.0 4000.0 4000.0 4000.0 4000.0 4000.0 4000.0 4000.0 4000.0 4000.0 4000.0 4000.0 4000.0 4000.0 4000.0 4000.0 4000.0 4000.0 4000.0 4000.0 4000.0 4000.0 4000.0 4000.0 4000.0 4000.0 4000.0 4000.0 4000.0 4000.0 4000.0 4000.0 4000.0 4000.0 4000.0 4000.0 4000.0 4000.0 4000.0 4000.0 4000.0 4000.0 4000.0 4000.0 4000.0 4000.0 4000.0 4000.0 4000.0 4000.0 4000.0 4000.0 4000.0 4000.0 4000.0 4000.0 4000.0 4000.0 4000.0 4000.0 4000.0 4000.0 4000.0 4000.0 4000.0 4000.0 4000.0 4000.0 4000.0 4000.0 4000.0 4000.0 4000.0 4000.0 4000.0 4000.0 4000.0 4000.0 4000.0 4000.0 4000.0 4000.0 4000.0 4000.0 4000.0 4000.0 4000.0 4000.0 4000.0 4000.0 4000.0 4000.0 4000.0 4000.0 4000.0 4000.0 4000.0 4000.0 4000.0 4000.0 4000.0 4000.0 4000.0 4000.0 4000.0 4000.0 4000.0 4000.0 4000.0 4000.0 4000.0 4000.0 4000.0 4000.0 4000.0 4000.0 4000.0 4000.0 4000.0 4000.0 4000.0 4000.0 4000.0 4000.0 4000.0 4000.0 4000.0 4000.0 4000.0 4000.0 4000.0 4000.0 4000.0 4000.0 4000.0 4000.0 4000.0 4000.0 4000.0 4000.0 4000.0 4000.0 4000.0 4000.0 4000.0 4000.0 4000.0 4000.0 4000.0 4000.0 4000.0 4000.0 4000.0 4000.0 4000.0 4000.0 4000.0 4000.0 4000.0 4000.0 4000.0 4000.0 4000.0 4000.0 4000.0 4000.0 4000.0 4000.0 4000.0 4000.0 4000.0 4000.0 4000.0 4000.0 4000.0 4000.0 4000.0 4000.0 4000.0 4000.0 4000.0 4000.0 4000.0 4000.0 4000.0 4000.0 4000.0 4000.0 4000.0 4000.0 4000.0 4000.0 4000.0 4000.0 4000.0 4000.0 4000.0 4000.0 4000.0 4000.0 4000.0 4000.0 4000.0 4000.0 4000.0 4000.0 4000.0 4000.0 4000.0 4000.0 4000.0 4000.0 4000.0 4000.0 4000.0 4000.0 4000.0 4000.0 4000.0 4000.0 4000.0 4000.0 4000.0 4000.0 4000.0 4000.0 4000.0 4000.0 4000.0 4000.0 4000.0 4000.0 4000.0 4000.0 4000.0 4000.0 4000.0 4000.0 4000.0 4000.0 4000.0 4000.0 4000.0 4000.0 4000.0 4000.0 4000.0 4000.0 4000.0 4000.0 4000.0 4000.0 4000.0 4000.0 4000.0 4000.0 4000.0 4000.0 4000.0 4000.0 4000.0 4000.0 4000.0 4000.0 4000.0 4000.0 4000.0 4000.0 4000.0 4000.0 4000.0 4000.0 4000.0 4000.0 4000.0 4000.0 4000.0 4000.0 4000.0 4000.0 4000.0 4000.0 4000.0 4000.0 4000.0 4000.0 4000.0 4000.0 4000.0 4000.0 4000.0 4000.0 4000.0 4000.0 4000.0 4000.0 4000.0 4000.0 4000.0 4000.0 4000.0 4000.0 4000.0 4000.0 4000.0 4000.0 4000.0 4000.0 4000.0 4000.0 4000.0 4000.0 4000.0 4000.0 4000.0 4000.0 4000.0 4000.0 4000.0 4000.0 4000.0 4000.0 4000.0 4000.0 4000.0 4000.0 4000.0 4000.0 4000.0 4000.0 4000.0 4000.0 4000.0 4000.0 4000.0 4000.0 4000.0 4000.0 4000.0 4000.0 4000.0 4000.0 4000.0 4000.0 4000.0 4000.0 4000.0 4000.0 4000.0 4000.0 4000.0 4000.0 4000.0 4000.0 4000.0 4000.0 4000.0 4000.0 4000.0 4000.0 4000.0 4000.0 4000.0 4000.0 4000.0 4000.0 4000.0 4000.0 4000.0 4000.0 4000.0 4000.0 4000.0 4000.0 4000.0 4000.0 4000.0 4000.0 4000.0 4000.0 4000.0 4000.0 4000.0 4000.0 4000.0 4000.0 4000.0 4000.0 4000.0 4000.0 4000.0 4000.0 4000.0 4000.0 4000.0 4000.0 4000.0 4000.0 4000.0 4000.0 4000.0 4000.0 4000.0 4000.0 4000.0 4000.0 4000.0 4000.0 4000.0 4000.0 4000.0 4000.0 4000.0 4000.0 4000.0 4000.0 4000.0 4000.0 4000.0 4000.0 4000.0 4000.0 4000.0 4000.0 4000.0 4000.0 4000.0 4000.0 4000.0 4000.0 4000.0 4000.0 4000.0 4000.0 4000.0 4000.0 4000.0 4000.0 4000.0 4000.0 4000.0 4000.0 4000.0 4000.0 4000.0 4000.0 4000.0 4000.0 4000.0 4000.0 4000.0 4000.0 4000.0 4000.0 4000.0 4000.0 4000.0 4000.0 4000.0 4000.0 4000.0 4000.0 4000.0 4000.0 4000.0 4000.0 4000.0 4000.0 4000.0 4000.0 4000.0 4000.0 4000.0 4000.0 4000.0 4000.0 4000.0 4000.0 4000.0 4000.0 4000.0 4000.0 4000.0 4000.0 4000.0 4000.0 4000.0 4000.0 4000.0 4000.0 4000.0 4000.0 4000.0 4000.0 4000.0 4000.0 4000.0 4000.0 4000.0 4000.0 4000.0 4000.0 4000.0 4000.0 4000.0 4000.0 4000.0 4000.0 4000.0 4000.0 4000.0 4000.0 4000.0 4000.0 4000.0 4000.0 4000.0 4000.0 4000.0 4000.0 4000.0 4000.0 4000.0 4000.0 4000.0 4000.0 4000.0 4000.0 4000.0 4000.0 4000.0 4000.0 4000.0 4000.0 4000.0 4000.0 4000.0 4000.0 4000.0 4000.0 4000.0 4000.0 4000.0 4000.0 4000.0 4000.0 4000.0 4000.0 4000.0 4000.0 4000.0 4000.0 4000.0 4000.0 4000.0 4000.0 4000.0 4000.0 4000.0 4000.0 4000.0 4000.0 4000.0 4000.0 4000.0 4000.0 4000.0 4000.0 4000.0 4000.0 4000.0 4000.0 4000.0 4000.0 4000.0 4000.0 4000.0 4000.0 4000.0 4000.0 4000.0 4000.0 4000.0 4000.0 4000.0 4000.0 4000.0 4000.0 4000.0 4000.0 4000.0 4000.0 4000.0 4000.0 4000.0 4000.0 4000.0 4000.0 4000.0 4000.0 4000.0 4000.0 4000.0 4000.0 4000.0 4000.0 4000.0 4000.0 4000.0 4000.0 4000.0 4000.0 4000.0 4000.0 4000.0 4000.0 4000.0 4000.0 4000.0 4000.0 4000.0 4000.0 4000.0 4000.0 4000.0 4000.0 4000.0 4000.0 4000.0 4000.0 4000.0 4000.0 4000.0 4000.0 4000.0 4000.0 4000.0 4000.0 4000.0 4000.0 4000.0 4000.0 4000.0 4000.0 4000.0 4000.0 4000.0 4000.0 4000.0 4000.0 4000.0 4000.0 4000.0 4000.0 4000.0 4000.0 4000.0 4000.0 4000.0 4000.0 4000.0 4000.0 4000.0 4000.0 4000.0 4000.0 4000.0 4000.0 4000.0 4000.0 4000.0 4000.0 4000.0 4000.0 4000.0 4000.0 4000.0 4000.0 4000.0 4000.0 4000.0 4000.0 4000.0 4000.0 4000.0 4000.0 4000.0 4000.0 4000.0 4000.0 4000.0 4000.0 4000.0 4000.0 4000.0 4000.0 4000.0 4000.0 4000.0 4000.0 4000.0 4000.0 4000.0 4000.0 4000.0 4000.0 4000.0 4000.0 4000.0 4000.0 4000.0 4000.0 4000.0 4000.0 4000.0 4000.0 4000.0 4000.0 4000.0 4000.0 4000.0 4000.0 4000.0 4000.0 4000.0 4000.0 4000.0 4000.0 4000.0 4000.0 4000.0 4000.0 4000.0 4000.0 4000.0 4000.0 4000.0 4000.0 4000.0 4000.0 4000.0 4000.0 4000.0 4000.0 4000.0 4000.0 4000.0 4000.0 4000.0 4000.0 4000.0 4000.0 4000.0 4000.0 4000.0 4000.0 4000.0 4000.0 4000.0 4000.0 4000.0 4000.0 4000.0 4000.0 4000.0 4000.0 4000.0 4000.0 4000.0 4000.0 4000.0 4000.0 4000.0 4000.0 4000.0 4000.0 4000.0 4000.0 4000.0 4000.0 4000.0 4000.0 4000.0 4000.0 4000.0 4000.0 4000.0 4000.0 4000.0 4000.0 4000.0 4000.0 4000.0 4000.0 4000.0 4000.0 4000.0 4000.0 4000.0 4000.0 4000.0 4000.0 4000.0 4000.0 4000.0 4000.0 4000.0 4000.0 4000.0 4000.0 4000.0 4000.0 4000.0 4000.0 4000.0 4000.0 4000.0 4000.0 4000.0 4000.0 4000.0 4000.0 4000.0 4000.0 4000.0 4000.0 4000.0 4000.0 4000.0 4000.0 4000.0 4000.0 4000.0 4000.0 4000.0 4000.0 4000.0 4000.0 4000.0 4000.0 4000.0 4000.0 4000.0 4000.0 4000.0 4000.0 4000.0 4000.0 4000.0 4000.0 4000.0 4000.0 4000.0 4000.0 4000.0 4000.0 4000.0 4000.0 4000.0 4000.0 4000.0 4000.0 4000.0 4000.0 4000.0 4000.0 4000.0 4000.0 4000.0 4000.0 4000.0 4000.0 4000.0 4000.0 4000.0 4000.0 4000.0 4000.0 4000.0 4000.0 4000.0 4000.0 4000.0 4000.0 4000.0 4000.0 4000.0 4000.0 4000.0 4000.0 4000.0 4000.0 4000.0 4000.0 4000.0 4000.0 4000.0 4000.0 4000.0 4000.0 4000.0 4000.0 4000.0 4000.0 4000.0 4000.0 4000.0 4000.0 4000.0 4000.0 4000.0 4000.0 4000.0 4000.0 4000.0 4000.0 4000.0 4000.0 4000.0 4000.0 4000.0 4000.0 4000.0 4000.0 4000.0 4000.0 4000.0 4000.0 4000.0 4000.0 4000.0 4000.0 4000.0 4000.0 4000.0 4000.0 4000.0 4000.0 4000.0 4000.0 4000.0 4000.0 4000.0 4000.0 4000.0 4000.0 4000.0 4000.0 4000.0 4000.0 4000.0 4000.0 4000.0 4000.0 4000.0 4000.0 4000.0 4000.0 4000.0 4000.0 4000.0 4000.0 4000.0 4000.0 4000.0 4000.0 4000.0 4000.0 4000.0 4000.0 4000.0 4000.0 4000.0 4000.0 4000.0 4000.0 4000.0 4000.0 4000.0 4000.0 4000.0 4000.0 4000.0 4000.0 4000.0 4000.0 4000.0 4000.0 4000.0 4000.0 4000.0 4000.0 4000.0 4000.0 4000.0 4000.0 4000.0 4000.0 4000.0 4000.0 4000.0 4000.0 4000.0 4000.0 4000.0 4000.0 4000.0 4000.0 4000.0 4000.0 4000.0 4000.0 4000.0 4000.0 4000.0 4000.0 4000.0 4000.0 4000.0 4000.0 4000.0 4000.0 4000.0 4000.0 4000.0 4000.0 4000.0 4000.0 4000.0 4000.0 4000.0 4000.0 4000.0 4000.0 4000.0 4000.0 4000.0 4000.0 4000.0 4000.0 4000.0 4000.0 4000.0 4000.0 4000.0 4000.0 4000.0 4000.0 4000.0 4000.0 4000.0 4000.0 4000.0 4000.0 4000.0 4000.0 4000.0 4000.0 4000.0 4000.0 4000.0 4000.0 4000.0 4000.0 4000.0 4000.0 4000.0 4000.0 4000.0 4000.0 4000.0 4000.0 4000.0 4000.0 4000.0 4000.0 4000.0 4000.0 4000.0 4000.0 4000.0 4000.0 4000.0 4000.0 4000.0 4000.0 4000.0 4000.0 4000.0 4000.0 4000.0 4000.0 4000.0 4000.0 4000.0 4000.0 4000.0 4000.0 4000.0 4000.0 4000.0 4000.0 4000.0 4000.0 4000.0 4000.0 4000.0 4000.0 4000.0 4000.0 4000.0 4000.0 4000.0 4000.0 4000.0 4000.0 4000.0 4000.0 4000.0 4000.0 4000.0 4000.0 4000.0 4000.0 4000.0 4000.0 4000.0 4000.0 4000.0 4000.0 4000.0 4000.0 4000.0 4000.0 4000.0 4000.0 4000.0 4000.0 4000.0 4000.0 4000.0 4000.0 4000.0 4000.0 4000.0 4000.0 4000.0 4000.0 4000.0 4000.0 4000.0 4000.0 4000.0 4000.0 4000.0 4000.0 4000.0 4000.0 4000.0 4000.0 4000.0 4000.0 4000.0 4000.0 4000.0 4000.0 4000.0 4000.0 4000.0 4000.0 4000.0 4000.0 4000.0 4000.0 4000.0 4000.0 4000.0 4000.0 4000.0 4000.0 4000.0 4000.0 4000.0 4000.0 4000.0 4000.0 4000.0 4000.0 4000.0 4000.0 4000.0 4000.0 4000.0 4000.0 4000.0 4000.0 4000.0 4000.0 4000.0 4000.0 4000.0 4000.0 4000.0 4000.0 4000.0 4000.0 4000.0 4000.0 4000.0 4000.0 4000.0 4000.0 4000.0 4000.0 4000.0 4000.0 4000.0 4000.0 4000.0 4000.0 4000.0 4000.0 4000.0 4000.0 4000.0 4000.0 4000.0 4000.0 4000.0 4000.0 4000.0 4000.0 4000.0 4000.0 4000.0 4000.0 4000.0 4000.0 4000.0 4000.0 4000.0 4000.0 4000.0 4000.0 4000.0 4000.0 4000.0 4000.0 4000.0 4000.0 4000.0 4000.0 4000.0 4000.0 4000.0 4000.0 4000.0 4000.0 4000.0 4000.0 4000.0 4000.0 4000.0 4000.0 4000.0 4000.0 4000.0 4000.0 4000.0 4000.0 4000.0 4000.0 4000.0 4000.0 4000.0 4000.0 4000.0 4000.0 4000.0 4000.0 4000.0 4000.0 4000.0 4000.0 4000.0 4000.0 4000.0 4000.0 4000.0 4000.0 4000.0 4000.0 4000.0 4000.0 4000.0 4000.0 4000.0 4000.0 4000.0 4000.0 4000.0 4000.0 4000.0 4000.0 4000.0 4000.0 4000.0 4000.0 4000.0 4000.0 4000.0 4000.0 4000.0 4000.0 4000.0 4000.0 4000.0 4000.0 4000.0 4000.0 4000.0 4000.0 4000.0 4000.0 4000.0 4000.0 4000.0 4000.0 4000.0 4000.0 4000.0 4000.0 4000.0 4000.0 4000.0 4000.0 4000.0 4000.0 4000.0 4000.0 4000.0 4000.0 4000.0 4000.0 4000.0 4000.0 4000.0 4000.0 4000.0 4000.0 4000.0 4000.0 4000.0 4000.0 4000.0 4000.0 4000.0 4000.0 4000.0 4000.0 4000.0 4000.0 4000.0 4000.0 4000.0 4000.0 4000.0 4000.0 4000.0 4000.0 4000.0 4000.0 4000.0 4000.0 4000.0 4000.0 4000.0 4000.0 4000.0 4000.0 4000.0 4000.0 4000.0 4000.0 4000.0 4000.0 4000.0 4000.0 4000.0 4000.0 4000.0 4000.0 4000.0 4000.0 4000.0 4000.0 4000.0 4000.0 4000.0 4000.0 4000.0 4000.0 4000.0 4000.0 4000.0 4000.0 4000.0 4000.0 4000.0 4000.0 4000.0 4000.0 4000.0 4000.0 4000.0 4000.0 4000.0 4000.0 4000.0 4000.0 4000.0 4000.0 4000.0 4000.0 4000.0 4000.0 4000.0 4000.0 4000.0 4000.0 4000.0 4000.0 4000.0 4000.0 4000.0 4000.0 4000.0 4000.0 4000.0 4000.0 4000.0 4000.0 4000.0 4000.0 4000.0 4000.0 4000.0 4000.0 4000.0 4000.0 4000.0 4000.0 4000.0 4000.0 4000.0 4000.0 4000.0 4000.0 4000.0 4000.0 4000.0 4000.0 4000.0 4000.0 4000.0 4000.0 4000.0 4000.0 4000.0 4000.0 4000.0 4000.0 4000.0 4000.0 4000.0 4000.0 4000.0 4000.0 4000.0 4000.0 4000.0 4000.0 4000.0 4000.0 4000.0 4000.0 4000.0 4000.0 4000.0 4000.0 4000.0 4000.0 4000.0 4000.0 4000.0 4000.0 4000.0 4000.0 4000.0 4000.0 4000.0 4000.0 4000.0 4000.0 4000.0 4000.0 4000.0 4000.0 4000.0 4000.0 4000.0 4000.0 4000.0 4000.0 4000.0 4000.0 4000.0 4000.0 4000.0 4000.0 4000.0 4000.0 4000.0 4000.0 4000.0 4000.0 4000.0 4000.0 4000.0 4000.0 4000.0 4000.0 4000.0 4000.0 4000.0 4000.0 4000.0 4000.0 4000.0 4000.0 4000.0 4000.0 4000.0 4000.0 4000.0 4000.0 4000.0 4000.0 4000.0 4000.0 4000.0 4000.0 4000.0 4000.0 4000.0 4000.0 4000.0 4000.0 4000.0 4000.0 4000.0 4000.0 4000.0 4000.0 4000.0 4000.0 4000.0 4000.0 4000.0 4000.0 4000.0 4000.0 4000.0 4000.0 4000.0 4000.0 4000.0 4000.0 4000.0 4000.0 4000.0 4000.0 4000.0 4000.0 4000.0 4000.0 4000.0 4000.0 4000.0 4000.0 4000.0 4000.0 4000.0 4000.0 4000.0 4000.0 4000.0 4000.0 4000.0 4000.0 4000.0 4000.0 4000.0 4000.0 4000.0 4000.0 4000.0 4000.0 4000.0 4000.0 4000.0 4000.0 4000.0 4000.0 4000.0 4000.0 4000.0 4000.0 4000.0 4000.0 4000.0 4000.0 4000.0 4000.0 4000.0 4000.0 4000.0 4000.0 4000.0 4000.0 4000.0 4000.0 4000.0 4000.0 4000.0 4000.0 4000.0 4000.0 4000.0 4000.0 4000.0 4000.0 4000.0 4000.0 4000.0 4000.0 4000.0 4000.0 4000.0 4000.0 4000.0 4000.0 4000.0 4000.0 4000.0 4000.0 4000.0 4000.0 4000.0 4000.0 4000.0 4000.0 4000.0 4000.0 4000.0 4000.0 4000.0 4000.0 4000.0 4000.0 4000.0 4000.0 4000.0 4000.0 4000.0 4000.0 4000.0 4000.0 4000.0 4000.0 4000.0 4000.0 4000.0 4000.0 4000.0 4000.0 4000.0 4000.0 4000.0 4000.0 4000.0 4000.0 4000.0 4000.0 4000.0 4000.0 4000.0 4000.0 4000.0 4000.0 4000.0 4000.0 4000.0 4000.0 4000.0 4000.0 4000.0 4000.0 4000.0 4000.0 4000.0 4000.0 4000.0 4000.0 4000.0 4000.0 4000.0 4000.0 4000.0 4000.0 4000.0 4000.0 4000.0 4000.0 4000.0 4000.0 4000.0 4000.0 4000.0 4000.0 4000.0 4000.0 4000.0 4000.0 4000.0 4000.0 4000.0 4000.0 4000.0 4000.0 4000.0 4000.0 4000.0 4000.0 4000.0 4000.0 4000.0 4000.0 4000.0 4000.0 4000.0 4000.0 4000.0 4000.0 4000.0 4000.0 4000.0 4000.0 4000.0 4000.0 4000.0 4000.0 4000.0 4000.0 4000.0 4000.0 4000.0 4000.0 4000.0 4000.0 4000.0 4000.0 4000.0 4000.0 4000.0 4000.0 4000.0 4000.0 4000.0 4000.0 4000.0 4000.0 4000.0 4000.0 4000.0 4000.0 4000.0 4000.0 4000.0 4000.0 4000.0 4000.0 4000.0 4000.0 4000.0 4000.0 4000.0 4000.0 4000.0 4000.0 4000.0 4000.0 4000.0 4000.0 4000.0 4000.0 4000.0 4000.0 4000.0 4000.0 4000.0 4000.0 4000.0 4000.0 4000.0 4000.0 4000.0 4000.0 4000.0 4000.0 4000.0 4000.0 4000.0 4000.0 4000.0 4000.0 4000.0 4000.0 4000.0 4000.0 4000.0 4000.0 4000.0 4000.0 4000.0 4000.0 4000.0 4000.0 4000.0 4000.0 4000.0 4000.0 4000.0 4000.0 4000.0 4000.0 4000.0 4000.0 4000.0 4000.0 4000.0 4000.0 4000.0 4000.0 4000.0 4000.0 4000.0 4000.0 4000.0 4000.0 4000.0 4000.0 4000.0 4000.0 4000.0 4000.0 4000.0 4000.0 4000.0 4000.0 4000.0 4000.0 4000.0 4000.0 4000.0 4000.0 4000.0 4000.0 4000.0 4000.0 4000.0 4000.0 4000.0 4000.0 4000.0 4000.0 4000.0 4000.0 4000.0 4000.0 4000.0 4000.0 4000.0 4000.0 4000.0 4000.0 4000.0 4000.0 4000.0 4000.0 4000.0 4000.0 4000.0 4000.0 4000.0 4000.0 4000.0 4000.0 4000.0 4000.0 4000.0 4000.0 4000.0 4000.0 4000.0 4000.0 4000.0 4000.0 4000.0 4000.0 4000.0 4000.0 4000.0 4000.0 4000.0 4000.0 4000.0 4000.0 4000.0 4000.0 4000.0 4000.0 4000.0 4000.0 4000.0 4000.0 4000.0 4000.0 4000.0 4000.0 4000.0 4000.0 4000.0 4000.0 4000.0 4000.0 4000.0 4000.0 4000.0 4000.0 4000.0 4000.0 4000.0 4000.0 4000.0 4000.0 4000.0 4000.0 4000.0 4000.0 4000.0 4000.0 4000.0 4000.0 4000.0 4000.0 4000.0 4000.0 4000.0 4000.0 4000.0 4000.0 4000.0 4000.0 4000.0 4000.0 4000.0 4000.0 4000.0 4000.0 4000.0 4000.0 4000.0 4000.0 4000.0 4000.0 4000.0 4000.0 4000.0 4000.0 4000.0 4000.0 4000.0 4000.0 4000.0 4000.0 4000.0 4000.0 4000.0 4000.0 4000.0 4000.0 4000.0 4000.0 4000.0 4000.0 4000.0 4000.0 4000.0 4000.0 4000.0 4000.0 4000.0 4000.0 4000.0 4000.0 4000.0 4000.0 4000.0 4000.0 4000.0 4000.0 4000.0 4000.0 4000.0 4000.0 4000.0 4000.0 4000.0 4000.0 4000.0 4000.0 4000.0 4000.0 4000.0 4000.0 4000.0 4000.0 4000.0 4000.0 4000.0 4000.0 4000.0 4000.0 4000.0 4000.0 4000.0 4000.0 4000.0 4000.0 4000.0 4000.0 4000.0 4000.0 4000.0 4000.0 4000.0 4000.0 4000.0 4000.0 4000.0 4000.0 4000.0 4000.0 4000.0 4000.0 4000.0 4000.0 4000.0 4000.0 4000.0 4000.0 4000.0 4000.0 4000.0 4000.0 4000.0 4000.0 4000.0 4000.0 4000.0 4000.0 4000.0 4000.0 4000.0 4000.0 4000.0 4000.0 4000.0 4000.0 4000.0 4000.0 4000.0 4000.0 4000.0 4000.0 4000.0 4000.0 4000.0 4000.0 4000.0 4000.0 4000.0 4000.0 4000.0 4000.0 4000.0 4000.0 4000.0 4000.0 4000.0 4000.0 4000.0 4000.0 4000.0 4000.0 4000.0 4000.0 4000.0 4000.0 4000.0 4000.0 4000.0 4000.0 4000.0 4000.0 4000.0 4000.0 4000.0 4000.0 4000.0 4000.0 4000.0 4000.0 4000.0 4000.0 4000.0 4000.0 4000.0 4000.0 4000.0 4000.0 4000.0 4000.0 4000.0 4000.0 4000.0 4000.0 4000.0 4000.0 4000.0 4000.0 4000.0 4000.0 4000.0 4000.0 4000.0 4000.0 4000.0 4000.0 4000.0 4000.0 4000.0 4000.0 4000.0 4000.0 4000.0 4000.0 4000.0 4000.0 4000.0 4000.0 4000.0 4000.0 4000.0 4000.0 4000.0 4000.0 4000.0 4000.0 4000.0 4000.0 4000.0 4000.0 4000.0 4000.0 4000.0 4000.0 4000.0 4000.0 4000.0 4000.0 4000.0 4000.0 4000.0 4000.0 4000.0 4000.0 4000.0 4000.0 4000.0 4000.0 4000.0 4000.0 4000.0 4000.0 4000.0 4000.0 4000.0 4000.0 4000.0 4000.0 4000.0 4000.0 4000.0 4000.0 4000.0 4000.0 4000.0 4000.0 4000.0 4000.0 4000.0 4000.0 4000.0 4000.0 4000.0 4000.0 4000.0 4000.0 4000.0 4000.0 4000.0 4000.0 4000.0 4000.0 4000.0 4000.0 4000.0 4000.0 4000.0 4000.0 4000.0 4000.0 4000.0 4000.0 4000.0 4000.0 4000.0 4000.0 4000.0 4000.0 4000.0 4000.0 4000.0 4000.0 4000.0 4000.0 4000.0 4000.0 4000.0 4000.0 4000.0 4000.0 4000.0 4000.0 4000.0 4000.0 4000.0 4000.0 4000.0 4000.0 4000.0 4000.0 4000.0 4000.0 4000.0 4000.0 4000.0 4000.0 4000.0 4000.0 4000.0 4000.0 4000.0 4000.0 4000.0 4000.0 4000.0 4000.0 4000.0 4000.0 4000.0 4000.0 4000.0 4000.0 4000.0 4000.0 4000.0 4000.0 4000.0 4000.0 4000.0 4000.0 4000.0 4000.0 4000.0 4000.0 4000.0 4000.0 4000.0 4000.0 4000.0 4000.0 4000.0 4000.0 4000.0 4000.0 4000.0 4000.0 4000.0 4000.0 4000.0 4000.0 4000.0 4000.0 4000.0 4000.0 4000.0 4000.0 4000.0 4000.0 4000.0 4000.0 4000.0 4000.0 4000.0 4000.0 4000.0 4000.0 4000.0 4000.0 4000.0 4000.0 4000.0 4000.0 4000.0 4000.0 4000.0 4000.0 4000.0 4000.0 4000.0 4000.0 4000.0 4000.0 4000.0 4000.0 4000.0 4000.0 4000.0 4000.0 4000.0 4000.0 4000.0 4000.0 4000.0 4000.0 4000.0 4000.0 4000.0 4000.0 4000.0 4000.0 4000.0 4000.0 4000.0 4000.0 4000.0 4000.0 4000.0 4000.0 4000.0 4000.0 4000.0 4000.0 4000.0 4000.0 4000.0 4000.0 4000.0 4000.0 4000.0 4000.0 4000.0 4000.0 4000.0 4000.0 4000.0 4000.0 4000.0 4000.0 4000.0 4000.0 4000.0 4000.0 4000.0 4000.0 4000.0 4000.0 4000.0 4000.0 4000.0 4000.0 4000.0 4000.0 4000.0 4000.0 4000.0 4000.0 4000.0 4000.0 4000.0 4000.0 4000.0 4000.0 4000.0 4000.0 4000.0 4000.0 4000.0 4000.0 4000.0 4000.0 4000.0 4000.0 4000.0 4000.0 4000.0 4000.0 4000.0 4000.0 4000.0 4000.0 4000.0 4000.0 4000.0 4000.0 4000.0 4000.0 4000.0 4000.0 4000.0 4000.0 4000.0 4000.0 4000.0 4000.0 4000.0 4000.0 4000.0 4000.0 4000.0 4000.0 4000.0 4000.0 4000.0 4000.0 4000.0 4000.0 4000.0 4000.0 4000.0 4000.0 4000.0 4000.0 4000.0 4000.0 4000.0 4000.0 4000.0 4000.0 4000.0 4000.0 4000.0 4000.0 4000.0 4000.0 4000.0 4000.0 4000.0 4000.0 4000.0 4000.0 4000.0 4000.0 4000.0 4000.0 4000.0 4000.0 4000.0 4000.0 4000.0 4000.0 4000.0 4000.0 4000.0 4000.0 4000.0 4000.0 4000.0 4000.0 4000.0 4000.0 4000.0 4000.0 4000.0 4000.0 4000.0 4000.0 4000.0 4000.0 4000.0 4000.0 4000.0 4000.0 4000.0 4000.0 4000.0 4000.0 4000.0 4000.0 4000.0 4000.0 4000.0 4000.0 4000.0 4000.0 4000.0 4000.0 4000.0 4000.0 4000.0 4000.0 4000.0 4000.0 4000.0 4000.0 4000.0 4000.0 4000.0 4000.0 4000.0 4000.0 4000.0 4000.0 4000.0 4000.0 4000.0 4000.0 4000.0 4000.0 4000.0 4000.0 4000.0 4000.0 4000.0 4000.0 4000.0 4000.0 4000.0 4000.0 4000.0 4000.0 4000.0 4000.0 4000.0 4000.0 4000.0 4000.0 4000.0 4000.0 4000.0 4000.0 4000.0 4000.0 4000.0 4000.0 4000.0 4000.0 4000.0 4000.0 4000.0 4000.0 4000.0 4000.0 4000.0 4000.0 4000.0 4000.0 4000.0 4000.0 4000.0 4000.0 4000.0 4000.0 4000.0 4000.0 4000.0 4000.0 4000.0 4000.0 4000.0 4000.0 4000.0 4000.0 4000.0 4000.0 4000.0 4000.0 4000.0 4000.0 4000.0 4000.0 4000.0 4000.0 4000.0 4000.0 4000.0 4000.0 4000.0 4000.0 4000.0 4000.0 4000.0 4000.0 4000.0 4000.0 4000.0 4000.0 4000.0 4000.0 4000.0 4000.0 4000.0 4000.0 4000.0 4000.0 4000.0 4000.0 4000.0 4000.0 4000.0 4000.0 4000.0 4000.0 4000.0 4000.0 4000.0 4000.0 4000.0 4000.0 4000.0 4000.0 4000.0 4000.0 4000.0 4000.0 4000.0 4000.0 4000.0 4000.0 4000.0 4000.0 4000.0 4000.0 4000.0 4000.0 4000.0 4000.0 4000.0 4000.0 4000.0 4000.0 4000.0 4000.0 4000.0 4000.0 4000.0 4000.0 4000.0 4000.0 4000.0 4000.0 4000.0 4000.0 4000.0 4000.0 4000.0 4000.0 4000.0 4000.0 4000.0 4000.0 4000.0 4000.0 4000.0 4000.0 4000.0 4000.0 4000.0 4000.0 4000.0 4000.0 4000.0 4000.0 4000.0 4000.0 4000.0 4000.0 4000.0 4000.0 4000.0 4000.0 4000.0 4000.0 4000.0 4000.0 4000.0 4000.0 4000.0 4000.0 4000.0 4000.0 4000.0 4000.0 4000.0 4000.0 4000.0 4000.0 4000.0 4000.0 4000.0 4000.0 4000.0 4000.0 4000.0 4000.0 4000.0 4000.0 4000.0 4000.0 4000.0 4000.0 4000.0 4000.0 4000.0 4000.0 4000.0 4000.0 4000.0 4000.0 4000.0 4000.0 4000.0 4000.0 4000.0 4000.0 4000.0 4000.0 4000.0 4000.0 4000.0 4000.0 4000.0 4000.0 4000.0 4000.0 4000.0 4000.0 4000.0 4000.0 4000.0 4000.0 4000.0 4000.0 4000.0 4000.0 4000.0 4000.0 4000.0 4000.0 4000.0 4000.0 4000.0 4000.0 4000.0 4000.0 4000.0 4000.0 4000.0 4000.0 4000.0 4000.0 4000.0 4000.0 4000.0 4000.0 4000.0 4000.0 4000.0 4000.0 4000.0 4000.0 4000.0 4000.0 4000.0 4000.0 4000.0 4000.0 4000.0 4000.0 4000.0 4000.0 4000.0 4000.0 4000.0 4000.0 4000.0 4000.0 4000.0 4000.0 4000.0 4000.0 4000.0 4000.0 4000.0 4000.0 4000.0 4000.0 4000.0 4000.0 4000.0 4000.0 4000.0 4000.0 4000.0 4000.0 4000.0 4000.0 4000.0 4000.0 4000.0 4000.0 4000.0 4000.0 4000.0 4000.0 4000.0 4000.0 4000.0 4000.0 4000.0 4000.0 4000.0 4000.0 4000.0 4000.0 4000.0 4000.0 4000.0 4000.0 4000.0 4000.0 4000.0 4000.0 4000.0 4000.0 4000.0 4000.0 4000.0 4000.0 4000.0 4000.0 4000.0 4000.0 4000.0 4000.0 4000.0 4000.0 4000.0 4000.0 4000.0 4000.0 4000.0 4000.0 4000.0 4000.0 4000.0 4000.0 4000.0 4000.0 4000.0 4000.0 4000.0 4000.0 4000.0 4000.0 4000.0 4000.0 4000.0 4000.0 4000.0 4000.0 4000.0 4000.0 4000.0 4000.0 4000.0 4000.0 4000.0 4000.0 4000.0 4000.0 4000.0 4000.0 4000.0 4000.0 4000.0 4000.0 4000.0 4000.0 4000.0 4000.0 4000.0 4000.0 4000.0 4000.0 4000.0 4000.0 4000.0 4000.0 4000.0 4000.0 4000.0 4000.0 4000.0 4000.0 4000.0 4000.0 4000.0 4000.0 4000.0 4000.0 4000.0 4000.0 4000.0 4000.0 4000.0 4000.0 4000.0 4000.0 4000.0 4000.0 4000.0 4000.0 4000.0 4000.0 4000.0 4000.0 4000.0 4000.0 4000.0 4000.0 4000.0 4000.0 4000.0 4000.0 4000.0 4000.0 4000.0 4000.0 4000.0 4000.0 4000.0 4000.0 4000.0 4000.0 4000.0 4000.0 4000.0 4000.0 4000.0 4000.0 4000.0 4000.0 4000.0 4000.0 4000.0 4000.0 4000.0 4000.0 4000.0 4000.0 4000.0 4000.0 4000.0 4000.0 4000.0 4000.0 4000.0 4000.0 4000.0 4000.0 4000.0 4000.0 4000.0 4000.0 4000.0 4000.0 4000.0 4000.0 4000.0 4000.0 4000.0 4000.0 4000.0 4000.0 4000.0 4000.0 4000.0 4000.0 4000.0 4000.0 4000.0 4000.0 4000.0 4000.0 4000.0 4000.0 4000.0 4000.0 4000.0 4000.0 4000.0 4000.0 4000.0 4000.0 4000.0 4000.0 4000.0 4000.0 4000.0 4000.0 4000.0 4000.0 4000.0 4000.0 4000.0 4000.0 4000.0 4000.0 4000.0 4000.0 4000.0 4000.0 4000.0 4000.0 4000.0 4000.0 4000.0 4000.0 4000.0 4000.0 4000.0 4000.0 4000.0 4000.0 4000.0 4000.0 4000.0 4000.0 4000.0 4000.0 4000.0 4000.0 4000.0 4000.0 4000.0 4000.0 4000.0 4000.0 4000.0 4000.0 4000.0 4000.0 4000.0 4000.0 4000.0 4000.0 4000.0 4000.0 4000.0 4000.0 4000.0 4000.0 4000.0 4000.0 4000.0 4000.0 4000.0 4000.0 4000.0 4000.0 4000.0 4000.0 4000.0 4000.0 4000.0 4000.0 4000.0 4000.0 4000.0 4000.0 4000.0 4000.0 4000.0 4000.0 4000.0 4000.0 4000.0 4000.0 4000.0 4000.0 4000.0 4000.0 4000.0 4000.0 4000.0 4000.0 4000.0 4000.0 4000.0 4000.0 4000.0 4000.0 4000.0 4000.0 4000.0 4000.0 4000.0 4000.0 4000.0 4000.0 4000.0 4000.0 4000.0 4000.0 4000.0 4000.0 4000.0 4000.0 4000.0 4000.0 4000.0 4000.0 4000.0 4000.0 4000.0 4000.0 4000.0 4000.0 4000.0 4000.0 4000.0 4000.0 4000.0 4000.0 4000.0 4000.0 4000.0 4000.0 4000.0 4000.0 4000.0 4000.0 4000.0 4000.0 4000.0 4000.0 4000.0 4000.0 4000.0 4000.0 4000.0 4000.0 4000.0 4000.0 4000.0 4000.0 4000.0 4000.0 4000.0 4000.0 4000.0 4000.0 4000.0 4000.0 4000.0 4000.0 4000.0 4000.0 4000.0 4000.0 4000.0 4000.0 4000.0 4000.0 4000.0 4000.0 4000.0 4000.0 4000.0 4000.0 4000.0 4000.0 4000.0 4000.0 4000.0 4000.0 4000.0 4000.0 4000.0 4000.0 4000.0 4000.0 4000.0 4000.0 4000.0 4000.0 4000.0 4000.0 4000.0 4000.0 4000.0 4000.0 4000.0 4000.0 4000.0 4000.0 4000.0 4000.0 4000.0 4000.0 4000.0 4000.0 4000.0 4000.0 4000.0 4000.0 4000.0 4000.0 4000.0 4000.0 4000.0 4000.0 4000.0 4000.0 4000.0 4000.0 4000.0 4000.0 4000.0 4000.0 4000.0 4000.0 4000.0 4000.0 4000.0 4000.0 4000.0 4000.0 4000.0 4000.0 4000.0 4000.0 4000.0 4000.0 4000.0 4000.0 4000.0 4000.0 4000.0 4000.0 4000.0 4000.0 4000.0 4000.0 4000.0 4000.0 4000.0 4000.0 4000.0 4000.0 4000.0 4000.0 4000.0 4000.0 4000.0 4000.0 4000.0 4000.0 4000.0 4000.0 4000.0 4000.0 4000.0 4000.0 4000.0 4000.0 4000.0 4000.0 4000.0 4000.0 4000.0 4000.0 4000.0 4000.0 4000.0 4000.0 4000.0 4000.0 4000.0 4000.0 4000.0 4000.0 4000.0 4000.0 4000.0 4000.0 4000.0 4000.0 4000.0 4000.0 4000.0 4000.0 4000.0 4000.0 4000.0 4000.0 4000.0 4000.0 4000.0 4000.0 4000.0 4000.0 4000.0 4000.0 4000.0 4000.0 4000.0 4000.0 4000.0 4000.0 4000.0 4000.0 4000.0 4000.0 4000.0 4000.0 4000.0 4000.0 4000.0 4000.0 4000.0 4000.0 4000.0 4000.0 4000.0 4000.0 4000.0 4000.0 4000.0 4000.0 4000.0 4000.0 4000.0 4000.0 4000.0 4000.0 4000.0 4000.0 4000.0 4000.0 4000.0 4000.0 4000.0 4000.0 4000.0 4000.0 4000.0 4000.0 4000.0 4000.0 4000.0 4000.0 4000.0 4000.0 4000.0 4000.0 4000.0 4000.0 4000.0 4000.0 4000.0 4000.0 4000.0 4000.0 4000.0 4000.0 4000.0 4000.0 4000.0 4000.0 4000.0 4000.0 4000.0 4000.0 4000.0 4000.0 4000.0 4000.0 4000.0 4000.0 4000.0 4000.0 4000.0 4000.0 4000.0 4000.0 4000.0 4000.0 4000.0 4000.0 4000.0 4000.0 4000.0 4000.0 4000.0 4000.0 4000.0 4000.0 4000.0 4000.0 4000.0 4000.0 4000.0 4000.0 4000.0 4000.0 4000.0 4000.0 4000.0 4000.0 4000.0 4000.0 4000.0 4000.0 4000.0 4000.0 4000.0 4000.0 4000.0 4000.0 4000.0 4000.0 4000.0 4000.0 4000.0 4000.0 4000.0 4000.0 4000.0 4000.0 4000.0 4000.0 4000.0 4000.0 4000.0 4000.0 4000.0 4000.0 4000.0 4000.0 4000.0 4000.0 4000.0 4000.0 4000.0 4000.0 4000.0 4000.0 4000.0 4000.0 4000.0 4000.0 4000.0 4000.0 4000.0 4000.0 4000.0 4000.0 4000.0 4000.0 4000.0 4000.0 4000.0 4000.0 4000.0 4000.0 4000.0 4000.0 4000.0 4000.0 4000.0 4000.0 4000.0 4000.0 4000.0 4000.0 4000.0 4000.0 4000.0 4000.0 4000.0 4000.0 4000.0 4000.0 4000.0 4000.0 4000.0 4000.0 4000.0 4000.0 4000.0 4000.0 4000.0 4000.0 4000.0 4000.0 4000.0 4000.0 4000.0 4000.0 4000.0 4000.0 4000.0 4000.0 4000.0 4000.0 4000.0 4000.0 4000.0 4000.0 4000.0 4000.0 4000.0 4000.0 4000.0 4000.0 4000.0 4000.0 4000.0 4000.0 4000.0 4000.0 4000.0 4000.0 4000.0 4000.0 4000.0 4000.0 4000.0 4000.0 4000.0 4000.0 4000.0 4000.0 4000.0 4000.0 4000.0 4000.0 4000.0 4000.0 4000.0 4000.0 4000.0 4000.0 4000.0 4000.0 4000.0 4000.0 4000.0 4000.0 4000.0 4000.0 4000.0 4000.0 4000.0 4000.0 4000.0 4000.0 4000.0 4000.0 4000.0 4000.0 4000.0 4000.0 4000.0 4000.0 4000.0 4000.0 4000.0 4000.0 4000.0 4000.0 4000.0 4000.0 4000.0 4000.0 4000.0 4000.0 4000.0 4000.0 4000.0 4000.0 4000.0 4000.0 4000.0 4000.0 4000.0 4000.0 4000.0 4000.0 4000.0 4000.0 4000.0 4000.0 4000.0 4000.0 4000.0 4000.0 4000.0 4000.0 4000.0 4000.0 4000.0 4000.0 4000.0 4000.0 4000.0 4000.0 4000.0 4000.0 4000.0 4000.0 4000.0 4000.0 4000.0 4000.0 4000.0 4000.0 4000.0 4000.0 4000.0 4000.0 4000.0 4000.0 4000.0 4000.0 4000.0 4000.0 4000.0 4000.0 4000.0 4000.0 4000.0 4000.0 4000.0 4000.0 4000.0 4000.0 4000.0 4000.0 4000.0 4000.0 4000.0 4000.0 4000.0 4000.0 4000.0 4000.0 4000.0 4000.0 4000.0 4000.0 4000.0 4000.0 4000.0 4000.0 4000.0 4000.0 4000.0 4000.0 4000.0 4000.0 4000.0 4000.0 4000.0 4000.0 4000.0 4000.0 4000.0 4000.0 4000.0 4000.0 4000.0 4000.0 4000.0 4000.0 4000.0 4000.0 4000.0 4000.0 4000.0 4000.0 4000.0 4000.0 4000.0 4000.0 4000.0 4000.0 4000.0 4000.0 4000.0 4000.0 4000.0 4000.0 4000.0 4000.0 4000.0 4000.0 4000.0 4000.0 4000.0 4000.0 4000.0 4000.0 4000.0 4000.0 4000.0 4000.0 4000.0 4000.0 4000.0 4000.0 4000.0 4000.0 4000.0 4000.0 4000.0 4000.0 4000.0 4000.0 4000.0 4000.0 4000.0 4000.0 4000.0 4000.0 4000.0 4000.0 4000.0 4000.0 4000.0 4000.0 4000.0 4000.0 4000.0 4000.0 4000.0 4000.0 4000.0 4000.0 4000.0 4000.0 4000.0 4000.0 4000.0 4000.0 4000.0 4000.0 4000.0 4000.0 4000.0 4000.0 4000.0 4000.0 4000.0 4000.0 4000.0 4000.0 4000.0 4000.0 4000.0 4000.0 4000.0 4000.0 4000.0 4000.0 4000.0 4000.0 4000.0 4000.0 4000.0 4000.0 4000.0 4000.0 4000.0 4000.0 4000.0 4000.0 4000.0 4000.0 4000.0 4000.0 4000.0 4000.0 4000.0 4000.0 4000.0 4000.0 4000.0 4000.0 4000.0 4000.0 4000.0 4000.0 4000.0 4000.0 4000.0 4000.0 4000.0 4000.0 4000.0 4000.0 4000.0 4000.0 4000.0 4000.0 4000.0 4000.0 4000.0 4000.0 4000.0 4000.0 4000.0 4000.0 4000.0 4000.0 4000.0 4000.0 4000.0 4000.0 4000.0 4000.0 4000.0 4000.0 4000.0 4000.0 4000.0 4000.0 4000.0 4000.0 4000.0 4000.0 4000.0 4000.0 4000.0 4000.0 4000.0 4000.0 4000.0 4000.0 4000.0 4000.0 4000.0 4000.0 4000.0 4000.0 4000.0 4000.0 4000.0 4000.0 4000.0 4000.0 4000.0 4000.0 4000.0 4000.0 4000.0 4000.0 4000.0 4000.0 4000.0 4000.0 4000.0 4000.0 4000.0 4000.0 4000.0 4000.0 4000.0 4000.0 4000.0 4000.0 4000.0 4000.0 4000.0 4000.0 4000.0 4000.0 4000.0 4000.0 4000.0 4000.0 4000.0 4000.0 4000.0 4000.0 4000.0 4000.0 4000.0 4000.0 4000.0 4000.0 4000.0 4000.0 4000.0 4000.0 4000.0 4000.0 4000.0 4000.0 4000.0 4000.0 4000.0 4000.0 4000.0 4000.0 4000.0 4000.0 4000.0 4000.0 4000.0 4000.0 4000.0 4000.0 4000.0 4000.0 4000.0 4000.0 4000.0 4000.0 4000.0 4000.0 4000.0 4000.0 4000.0 4000.0 4000.0 4000.0 4000.0 4000.0 4000.0 4000.0 4000.0 4000.0 4000.0 4000.0 4000.0 4000.0 4000.0 4000.0 4000.0 4000.0 4000.0 4000.0 4000.0 4000.0 4000.0 4000.0 4000.0 4000.0 4000.0 4000.0 4000.0 4000.0 4000.0 4000.0 4000.0 4000.0 4000.0 4000.0 4000.0 4000.0 4000.0 4000.0 4000.0 4000.0 4000.0 4000.0 4000.0 4000.0 4000.0 4000.0 4000.0 4000.0 4000.0 4000.0 4000.0 4000.0 4000.0 4000.0 4000.0 4000.0 4000.0 4000.0 4000.0 4000.0 4000.0 4000.0 4000.0 4000.0 4000.0 4000.0 4000.0 4000.0 4000.0 4000.0 4000.0 4000.0 4000.0 4000.0 4000.0 4000.0 4000.0 4000.0 4000.0 4000.0 4000.0 4000.0 4000.0 4000.0 4000.0 4000.0 4000.0 4000.0 4000.0 4000.0 4000.0 4000.0 4000.0 4000.0 4000.0 4000.0 4000.0 4000.0 4000.0 4000.0 4000.0 4000.0 4000.0 4000.0 4000.0 4000.0 4000.0 4000.0 4000.0 4000.0 4000.0 4000.0 4000.0 4000.0 4000.0 4000.0 4000.0 4000.0 4000.0 4000.0 4000.0 4000.0 4000.0 4000.0 4000.0 4000.0 4000.0 4000.0 4000.0 4000.0 4000.0 4000.0 4000.0 4000.0 4000.0 4000.0 4000.0 4000.0 4000.0 4000.0 4000.0 4000.0 4000.0 4000.0 4000.0 4000.0 4000.0 4000.0 4000.0 4000.0 4000.0 4000.0 4000.0 4000.0 4000.0 4000.0 4000.0 4000.0 4000.0 4000.0 4000.0 4000.0 4000.0 4000.0 4000.0 4000.0 4000.0 4000.0 4000.0 4000.0 4000.0 4000.0 4000.0 4000.0 4000.0 4000.0 4000.0 4000.0 4000.0 4000.0 4000.0 4000.0 4000.0 4000.0 4000.0 4000.0 4000.0 4000.0 4000.0 4000.0 4000.0 4000.0 4000.0 4000.0 4000.0 4000.0 4000.0 4000.0 4000.0 4000.0 4000.0 4000.0 4000.0 4000.0 4000.0 4000.0 4000.0 4000.0 4000.0 4000.0 4000.0 4000.0 4000.0 4000.0 4000.0 4000.0 4000.0 4000.0 4000.0 4000.0 4000.0 4000.0 4000.0 4000.0 4000.0 4000.0 4000.0 4000.0 4000.0 4000.0 4000.0 4000.0 4000.0 4000.0 4000.0 4000.0 4000.0 4000.0 4000.0 4000.0 4000.0 4000.0 4000.0 4000.0 4000.0 4000.0 4000.0 4000.0 4000.0 4000.0 4000.0 4000.0 4000.0 4000.0 4000.0 4000.0 4000.0 4000.0 4000.0 4000.0 4000.0 4000.0 4000.0 4000.0 4000.0 4000.0 4000.0 4000.0 4000.0 4000.0 4000.0 4000.0 4000.0 4000.0 4000.0 4000.0 4000.0 4000.0 4000.0 4000.0 SCALARS Mass float 1
LOOKUP_TABLE default
11309700000.0 11309700000.0 11309700000.0 11309700000.0 11309700000.0 11309700000.0 11309700000.0 11309700000.0 11309700000.0 11309700000.0 11309700000.0 11309700000.0 11309700000.0 11309700000.0 11309700000.0 11309700000.0 11309700000.0 11309700000.0 11309700000.0 11309700000.0 11309700000.0 11309700000.0 11309700000.0 11309700000.0 11309700000.0 11309700000.0 11309700000.0 11309700000.0 11309700000.0 11309700000.0 11309700000.0 11309700000.0 11309700000.0 11309700000.0 11309700000.0 11309700000.0 11309700000.0 11309700000.0 11309700000.0 11309700000.0 11309700000.0 11309700000.0 11309700000.0 11309700000.0 11309700000.0 11309700000.0 11309700000.0 11309700000.0 11309700000.0 11309700000.0 11309700000.0 11309700000.0 11309700000.0 11309700000.0 11309700000.0 11309700000.0 11309700000.0 11309700000.0 11309700000.0 11309700000.0 11309700000.0 11309700000.0 11309700000.0 11309700000.0 11309700000.0 11309700000.0 11309700000.0 11309700000.0 11309700000.0 11309700000.0 11309700000.0 11309700000.0 11309700000.0 11309700000.0 11309700000.0 11309700000.0 11309700000.0 11309700000.0 11309700000.0 11309700000.0 11309700000.0 11309700000.0 11309700000.0 11309700000.0 11309700000.0 11309700000.0 11309700000.0 11309700000.0 11309700000.0 11309700000.0 11309700000.0 11309700000.0 11309700000.0 11309700000.0 11309700000.0 11309700000.0 11309700000.0 11309700000.0 11309700000.0 11309700000.0 11309700000.0 11309700000.0 11309700000.0 11309700000.0 11309700000.0 11309700000.0 11309700000.0 11309700000.0 11309700000.0 11309700000.0 11309700000.0 11309700000.0 11309700000.0 11309700000.0 11309700000.0 11309700000.0 11309700000.0 11309700000.0 11309700000.0 11309700000.0 11309700000.0 11309700000.0 11309700000.0 11309700000.0 11309700000.0 11309700000.0 11309700000.0 11309700000.0 11309700000.0 11309700000.0 11309700000.0 11309700000.0 11309700000.0 11309700000.0 11309700000.0 11309700000.0 11309700000.0 11309700000.0 11309700000.0 11309700000.0 11309700000.0 11309700000.0 11309700000.0 11309700000.0 11309700000.0 11309700000.0 11309700000.0 11309700000.0 11309700000.0 11309700000.0 11309700000.0 11309700000.0 11309700000.0 11309700000.0 11309700000.0 11309700000.0 11309700000.0 11309700000.0 11309700000.0 11309700000.0 11309700000.0 11309700000.0 11309700000.0 11309700000.0 11309700000.0 11309700000.0 11309700000.0 11309700000.0 11309700000.0 11309700000.0 11309700000.0 11309700000.0 11309700000.0 11309700000.0 11309700000.0 11309700000.0 11309700000.0 11309700000.0 11309700000.0 11309700000.0 11309700000.0 11309700000.0 11309700000.0 11309700000.0 11309700000.0 11309700000.0 11309700000.0 11309700000.0 11309700000.0 11309700000.0 11309700000.0 11309700000.0 11309700000.0 11309700000.0 11309700000.0 11309700000.0 11309700000.0 11309700000.0 11309700000.0 11309700000.0 11309700000.0 11309700000.0 11309700000.0 11309700000.0 11309700000.0 11309700000.0 11309700000.0 11309700000.0 11309700000.0 11309700000.0 11309700000.0 11309700000.0 11309700000.0 11309700000.0 11309700000.0 11309700000.0 11309700000.0 11309700000.0 11309700000.0 11309700000.0 11309700000.0 11309700000.0 11309700000.0 11309700000.0 11309700000.0 11309700000.0 11309700000.0 11309700000.0 11309700000.0 11309700000.0 11309700000.0 11309700000.0 11309700000.0 11309700000.0 11309700000.0 11309700000.0 11309700000.0 11309700000.0 11309700000.0 11309700000.0 11309700000.0 11309700000.0 11309700000.0 11309700000.0 11309700000.0 11309700000.0 11309700000.0 11309700000.0 11309700000.0 11309700000.0 11309700000.0 11309700000.0 11309700000.0 11309700000.0 11309700000.0 11309700000.0 11309700000.0 11309700000.0 11309700000.0 11309700000.0 11309700000.0 11309700000.0 11309700000.0 11309700000.0 11309700000.0 11309700000.0 11309700000.0 11309700000.0 11309700000.0 11309700000.0 11309700000.0 11309700000.0 11309700000.0 11309700000.0 11309700000.0 11309700000.0 11309700000.0 11309700000.0 11309700000.0 11309700000.0 11309700000.0 11309700000.0 11309700000.0 11309700000.0 11309700000.0 11309700000.0 11309700000.0 11309700000.0 11309700000.0 11309700000.0 11309700000.0 11309700000.0 11309700000.0 11309700000.0 11309700000.0 11309700000.0 11309700000.0 11309700000.0 11309700000.0 11309700000.0 11309700000.0 11309700000.0 11309700000.0 11309700000.0 11309700000.0 11309700000.0 11309700000.0 11309700000.0 11309700000.0 11309700000.0 11309700000.0 11309700000.0 11309700000.0 11309700000.0 11309700000.0 11309700000.0 11309700000.0 11309700000.0 11309700000.0 11309700000.0 11309700000.0 11309700000.0 11309700000.0 11309700000.0 11309700000.0 11309700000.0 11309700000.0 11309700000.0 11309700000.0 11309700000.0 11309700000.0 11309700000.0 11309700000.0 11309700000.0 11309700000.0 11309700000.0 11309700000.0 11309700000.0 11309700000.0 11309700000.0 11309700000.0 11309700000.0 11309700000.0 11309700000.0 11309700000.0 11309700000.0 11309700000.0 11309700000.0 11309700000.0 11309700000.0 11309700000.0 11309700000.0 11309700000.0 11309700000.0 11309700000.0 11309700000.0 11309700000.0 11309700000.0 11309700000.0 11309700000.0 11309700000.0 11309700000.0 11309700000.0 11309700000.0 11309700000.0 11309700000.0 11309700000.0 11309700000.0 11309700000.0 11309700000.0 11309700000.0 11309700000.0 11309700000.0 11309700000.0 11309700000.0 11309700000.0 11309700000.0 11309700000.0 11309700000.0 11309700000.0 11309700000.0 11309700000.0 11309700000.0 11309700000.0 11309700000.0 11309700000.0 11309700000.0 11309700000.0 11309700000.0 11309700000.0 11309700000.0 11309700000.0 11309700000.0 11309700000.0 11309700000.0 11309700000.0 11309700000.0 11309700000.0 11309700000.0 11309700000.0 11309700000.0 11309700000.0 11309700000.0 11309700000.0 11309700000.0 11309700000.0 11309700000.0 11309700000.0 11309700000.0 11309700000.0 11309700000.0 11309700000.0 11309700000.0 11309700000.0 11309700000.0 11309700000.0 11309700000.0 11309700000.0 11309700000.0 11309700000.0 11309700000.0 11309700000.0 11309700000.0 11309700000.0 11309700000.0 11309700000.0 11309700000.0 11309700000.0 11309700000.0 11309700000.0 11309700000.0 11309700000.0 11309700000.0 11309700000.0 11309700000.0 11309700000.0 11309700000.0 11309700000.0 11309700000.0 11309700000.0 11309700000.0 11309700000.0 11309700000.0 11309700000.0 11309700000.0 11309700000.0 11309700000.0 11309700000.0 11309700000.0 11309700000.0 11309700000.0 11309700000.0 11309700000.0 11309700000.0 11309700000.0 11309700000.0 11309700000.0 11309700000.0 11309700000.0 11309700000.0 11309700000.0 11309700000.0 11309700000.0 11309700000.0 11309700000.0 11309700000.0 11309700000.0 11309700000.0 11309700000.0 11309700000.0 11309700000.0 11309700000.0 11309700000.0 11309700000.0 11309700000.0 11309700000.0 11309700000.0 11309700000.0 11309700000.0 11309700000.0 11309700000.0 11309700000.0 11309700000.0 11309700000.0 11309700000.0 11309700000.0 11309700000.0 11309700000.0 11309700000.0 11309700000.0 11309700000.0 11309700000.0 11309700000.0 11309700000.0 11309700000.0 11309700000.0 11309700000.0 11309700000.0 11309700000.0 11309700000.0 11309700000.0 11309700000.0 11309700000.0 11309700000.0 11309700000.0 11309700000.0 11309700000.0 11309700000.0 11309700000.0 11309700000.0 11309700000.0 11309700000.0 11309700000.0 11309700000.0 11309700000.0 11309700000.0 11309700000.0 11309700000.0 11309700000.0 11309700000.0 11309700000.0 11309700000.0 11309700000.0 11309700000.0 11309700000.0 11309700000.0 11309700000.0 11309700000.0 11309700000.0 11309700000.0 11309700000.0 11309700000.0 11309700000.0 11309700000.0 11309700000.0 11309700000.0 11309700000.0 11309700000.0 11309700000.0 11309700000.0 11309700000.0 11309700000.0 11309700000.0 11309700000.0 11309700000.0 11309700000.0 11309700000.0 11309700000.0 11309700000.0 11309700000.0 11309700000.0 11309700000.0 11309700000.0 11309700000.0 11309700000.0 11309700000.0 11309700000.0 11309700000.0 11309700000.0 11309700000.0 11309700000.0 11309700000.0 11309700000.0 11309700000.0 11309700000.0 11309700000.0 11309700000.0 11309700000.0 11309700000.0 11309700000.0 11309700000.0 11309700000.0 11309700000.0 11309700000.0 11309700000.0 11309700000.0 11309700000.0 11309700000.0 11309700000.0 11309700000.0 11309700000.0 11309700000.0 11309700000.0 11309700000.0 11309700000.0 11309700000.0 11309700000.0 11309700000.0 11309700000.0 11309700000.0 11309700000.0 11309700000.0 11309700000.0 11309700000.0 11309700000.0 11309700000.0 11309700000.0 11309700000.0 11309700000.0 11309700000.0 11309700000.0 11309700000.0 11309700000.0 11309700000.0 11309700000.0 11309700000.0 11309700000.0 11309700000.0 11309700000.0 11309700000.0 11309700000.0 11309700000.0 11309700000.0 11309700000.0 11309700000.0 11309700000.0 11309700000.0 11309700000.0 11309700000.0 11309700000.0 11309700000.0 11309700000.0 11309700000.0 11309700000.0 11309700000.0 11309700000.0 11309700000.0 11309700000.0 11309700000.0 11309700000.0 11309700000.0 11309700000.0 11309700000.0 11309700000.0 11309700000.0 11309700000.0 11309700000.0 11309700000.0 11309700000.0 11309700000.0 11309700000.0 11309700000.0 11309700000.0 11309700000.0 11309700000.0 11309700000.0 11309700000.0 11309700000.0 11309700000.0 11309700000.0 11309700000.0 11309700000.0 11309700000.0 11309700000.0 11309700000.0 11309700000.0 11309700000.0 11309700000.0 11309700000.0 11309700000.0 11309700000.0 11309700000.0 11309700000.0 11309700000.0 11309700000.0 11309700000.0 11309700000.0 11309700000.0 11309700000.0 11309700000.0 11309700000.0 11309700000.0 11309700000.0 11309700000.0 11309700000.0 11309700000.0 11309700000.0 11309700000.0 11309700000.0 11309700000.0 11309700000.0 11309700000.0 11309700000.0 11309700000.0 11309700000.0 11309700000.0 11309700000.0 11309700000.0 11309700000.0 11309700000.0 11309700000.0 11309700000.0 11309700000.0 11309700000.0 11309700000.0 11309700000.0 11309700000.0 11309700000.0 11309700000.0 11309700000.0 11309700000.0 11309700000.0 11309700000.0 11309700000.0 11309700000.0 11309700000.0 11309700000.0 11309700000.0 11309700000.0 11309700000.0 11309700000.0 11309700000.0 11309700000.0 11309700000.0 11309700000.0 11309700000.0 11309700000.0 11309700000.0 11309700000.0 11309700000.0 11309700000.0 11309700000.0 11309700000.0 11309700000.0 11309700000.0 11309700000.0 11309700000.0 11309700000.0 11309700000.0 11309700000.0 11309700000.0 11309700000.0 11309700000.0 11309700000.0 11309700000.0 11309700000.0 11309700000.0 11309700000.0 11309700000.0 11309700000.0 11309700000.0 11309700000.0 11309700000.0 11309700000.0 11309700000.0 11309700000.0 11309700000.0 11309700000.0 11309700000.0 11309700000.0 11309700000.0 11309700000.0 11309700000.0 11309700000.0 11309700000.0 11309700000.0 11309700000.0 11309700000.0 11309700000.0 11309700000.0 11309700000.0 11309700000.0 11309700000.0 11309700000.0 11309700000.0 11309700000.0 11309700000.0 11309700000.0 11309700000.0 11309700000.0 11309700000.0 11309700000.0 11309700000.0 11309700000.0 11309700000.0 11309700000.0 11309700000.0 11309700000.0 11309700000.0 11309700000.0 11309700000.0 11309700000.0 11309700000.0 11309700000.0 11309700000.0 11309700000.0 11309700000.0 11309700000.0 11309700000.0 11309700000.0 11309700000.0 11309700000.0 11309700000.0 11309700000.0 11309700000.0 11309700000.0 11309700000.0 11309700000.0 11309700000.0 11309700000.0 11309700000.0 11309700000.0 11309700000.0 11309700000.0 11309700000.0 11309700000.0 11309700000.0 11309700000.0 11309700000.0 11309700000.0 11309700000.0 11309700000.0 11309700000.0 11309700000.0 11309700000.0 11309700000.0 11309700000.0 11309700000.0 11309700000.0 11309700000.0 11309700000.0 11309700000.0 11309700000.0 11309700000.0 11309700000.0 11309700000.0 11309700000.0 11309700000.0 11309700000.0 11309700000.0 11309700000.0 11309700000.0 11309700000.0 11309700000.0 11309700000.0 11309700000.0 11309700000.0 11309700000.0 11309700000.0 11309700000.0 11309700000.0 11309700000.0 11309700000.0 11309700000.0 11309700000.0 11309700000.0 11309700000.0 11309700000.0 11309700000.0 11309700000.0 11309700000.0 11309700000.0 11309700000.0 11309700000.0 11309700000.0 11309700000.0 11309700000.0 11309700000.0 11309700000.0 11309700000.0 11309700000.0 11309700000.0 11309700000.0 11309700000.0 11309700000.0 11309700000.0 11309700000.0 11309700000.0 11309700000.0 11309700000.0 11309700000.0 11309700000.0 11309700000.0 11309700000.0 11309700000.0 11309700000.0 11309700000.0 11309700000.0 11309700000.0 11309700000.0 11309700000.0 11309700000.0 11309700000.0 11309700000.0 11309700000.0 11309700000.0 11309700000.0 11309700000.0 11309700000.0 11309700000.0 11309700000.0 11309700000.0 11309700000.0 11309700000.0 11309700000.0 11309700000.0 11309700000.0 11309700000.0 11309700000.0 11309700000.0 11309700000.0 11309700000.0 11309700000.0 11309700000.0 11309700000.0 11309700000.0 11309700000.0 11309700000.0 11309700000.0 11309700000.0 11309700000.0 11309700000.0 11309700000.0 11309700000.0 11309700000.0 11309700000.0 11309700000.0 11309700000.0 11309700000.0 11309700000.0 11309700000.0 11309700000.0 11309700000.0 11309700000.0 11309700000.0 11309700000.0 11309700000.0 11309700000.0 11309700000.0 11309700000.0 11309700000.0 11309700000.0 11309700000.0 11309700000.0 11309700000.0 11309700000.0 11309700000.0 11309700000.0 11309700000.0 11309700000.0 11309700000.0 11309700000.0 11309700000.0 11309700000.0 11309700000.0 11309700000.0 11309700000.0 11309700000.0 11309700000.0 11309700000.0 11309700000.0 11309700000.0 11309700000.0 11309700000.0 11309700000.0 11309700000.0 11309700000.0 11309700000.0 11309700000.0 11309700000.0 11309700000.0 11309700000.0 11309700000.0 11309700000.0 11309700000.0 11309700000.0 11309700000.0 11309700000.0 11309700000.0 11309700000.0 11309700000.0 11309700000.0 11309700000.0 11309700000.0 11309700000.0 11309700000.0 11309700000.0 11309700000.0 11309700000.0 11309700000.0 11309700000.0 11309700000.0 11309700000.0 11309700000.0 11309700000.0 11309700000.0 11309700000.0 11309700000.0 11309700000.0 11309700000.0 11309700000.0 11309700000.0 11309700000.0 11309700000.0 11309700000.0 11309700000.0 11309700000.0 11309700000.0 11309700000.0 11309700000.0 11309700000.0 11309700000.0 11309700000.0 11309700000.0 11309700000.0 11309700000.0 11309700000.0 11309700000.0 11309700000.0 11309700000.0 11309700000.0 11309700000.0 11309700000.0 11309700000.0 11309700000.0 11309700000.0 11309700000.0 11309700000.0 11309700000.0 11309700000.0 11309700000.0 11309700000.0 11309700000.0 11309700000.0 11309700000.0 11309700000.0 11309700000.0 11309700000.0 11309700000.0 11309700000.0 11309700000.0 11309700000.0 11309700000.0 11309700000.0 11309700000.0 11309700000.0 11309700000.0 11309700000.0 11309700000.0 11309700000.0 11309700000.0 11309700000.0 11309700000.0 11309700000.0 11309700000.0 11309700000.0 11309700000.0 11309700000.0 11309700000.0 11309700000.0 11309700000.0 11309700000.0 11309700000.0 11309700000.0 11309700000.0 11309700000.0 11309700000.0 11309700000.0 11309700000.0 11309700000.0 11309700000.0 11309700000.0 11309700000.0 11309700000.0 11309700000.0 11309700000.0 11309700000.0 11309700000.0 11309700000.0 11309700000.0 11309700000.0 11309700000.0 11309700000.0 11309700000.0 11309700000.0 11309700000.0 11309700000.0 11309700000.0 11309700000.0 11309700000.0 11309700000.0 11309700000.0 11309700000.0 11309700000.0 11309700000.0 11309700000.0 11309700000.0 11309700000.0 11309700000.0 11309700000.0 11309700000.0 11309700000.0 11309700000.0 11309700000.0 11309700000.0 11309700000.0 11309700000.0 11309700000.0 11309700000.0 11309700000.0 11309700000.0 11309700000.0 11309700000.0 11309700000.0 11309700000.0 11309700000.0 11309700000.0 11309700000.0 11309700000.0 11309700000.0 11309700000.0 11309700000.0 11309700000.0 11309700000.0 11309700000.0 11309700000.0 11309700000.0 11309700000.0 11309700000.0 11309700000.0 11309700000.0 11309700000.0 11309700000.0 11309700000.0 11309700000.0 11309700000.0 11309700000.0 11309700000.0 11309700000.0 11309700000.0 11309700000.0 11309700000.0 11309700000.0 11309700000.0 11309700000.0 11309700000.0 11309700000.0 11309700000.0 11309700000.0 11309700000.0 11309700000.0 11309700000.0 11309700000.0 11309700000.0 11309700000.0 11309700000.0 11309700000.0 11309700000.0 11309700000.0 11309700000.0 11309700000.0 11309700000.0 11309700000.0 11309700000.0 11309700000.0 11309700000.0 11309700000.0 11309700000.0 11309700000.0 11309700000.0 11309700000.0 11309700000.0 11309700000.0 11309700000.0 11309700000.0 11309700000.0 11309700000.0 11309700000.0 11309700000.0 11309700000.0 11309700000.0 11309700000.0 11309700000.0 11309700000.0 11309700000.0 11309700000.0 11309700000.0 11309700000.0 11309700000.0 11309700000.0 11309700000.0 11309700000.0 11309700000.0 11309700000.0 11309700000.0 11309700000.0 11309700000.0 11309700000.0 11309700000.0 11309700000.0 11309700000.0 11309700000.0 11309700000.0 11309700000.0 11309700000.0 11309700000.0 11309700000.0 11309700000.0 11309700000.0 11309700000.0 11309700000.0 11309700000.0 11309700000.0 11309700000.0 11309700000.0 11309700000.0 11309700000.0 11309700000.0 11309700000.0 11309700000.0 11309700000.0 11309700000.0 11309700000.0 11309700000.0 11309700000.0 11309700000.0 11309700000.0 11309700000.0 11309700000.0 11309700000.0 11309700000.0 11309700000.0 11309700000.0 11309700000.0 11309700000.0 11309700000.0 11309700000.0 11309700000.0 11309700000.0 11309700000.0 11309700000.0 11309700000.0 11309700000.0 11309700000.0 11309700000.0 11309700000.0 11309700000.0 11309700000.0 11309700000.0 11309700000.0 11309700000.0 11309700000.0 11309700000.0 11309700000.0 11309700000.0 11309700000.0 11309700000.0 11309700000.0 11309700000.0 11309700000.0 11309700000.0 11309700000.0 11309700000.0 11309700000.0 11309700000.0 11309700000.0 11309700000.0 11309700000.0 11309700000.0 11309700000.0 11309700000.0 11309700000.0 11309700000.0 11309700000.0 11309700000.0 11309700000.0 11309700000.0 11309700000.0 11309700000.0 11309700000.0 11309700000.0 11309700000.0 11309700000.0 11309700000.0 11309700000.0 11309700000.0 11309700000.0 11309700000.0 11309700000.0 11309700000.0 11309700000.0 11309700000.0 11309700000.0 11309700000.0 11309700000.0 11309700000.0 11309700000.0 11309700000.0 11309700000.0 11309700000.0 11309700000.0 11309700000.0 11309700000.0 11309700000.0 11309700000.0 11309700000.0 11309700000.0 11309700000.0 11309700000.0 11309700000.0 11309700000.0 11309700000.0 11309700000.0 11309700000.0 11309700000.0 11309700000.0 11309700000.0 11309700000.0 11309700000.0 11309700000.0 11309700000.0 11309700000.0 11309700000.0 11309700000.0 11309700000.0 11309700000.0 11309700000.0 11309700000.0 11309700000.0 11309700000.0 11309700000.0 11309700000.0 11309700000.0 11309700000.0 11309700000.0 11309700000.0 11309700000.0 11309700000.0 11309700000.0 11309700000.0 11309700000.0 11309700000.0 11309700000.0 11309700000.0 11309700000.0 11309700000.0 11309700000.0 11309700000.0 11309700000.0 11309700000.0 11309700000.0 11309700000.0 11309700000.0 11309700000.0 11309700000.0 11309700000.0 11309700000.0 11309700000.0 11309700000.0 11309700000.0 11309700000.0 11309700000.0 11309700000.0 11309700000.0 11309700000.0 11309700000.0 11309700000.0 11309700000.0 11309700000.0 11309700000.0 11309700000.0 11309700000.0 11309700000.0 11309700000.0 11309700000.0 11309700000.0 11309700000.0 11309700000.0 11309700000.0 11309700000.0 11309700000.0 11309700000.0 11309700000.0 11309700000.0 11309700000.0 11309700000.0 11309700000.0 11309700000.0 11309700000.0 11309700000.0 11309700000.0 11309700000.0 11309700000.0 11309700000.0 11309700000.0 11309700000.0 11309700000.0 11309700000.0 11309700000.0 11309700000.0 11309700000.0 11309700000.0 11309700000.0 11309700000.0 11309700000.0 11309700000.0 11309700000.0 11309700000.0 11309700000.0 11309700000.0 11309700000.0 11309700000.0 11309700000.0 11309700000.0 11309700000.0 11309700000.0 11309700000.0 11309700000.0 11309700000.0 11309700000.0 11309700000.0 11309700000.0 11309700000.0 11309700000.0 11309700000.0 11309700000.0 11309700000.0 11309700000.0 11309700000.0 11309700000.0 11309700000.0 11309700000.0 11309700000.0 11309700000.0 11309700000.0 11309700000.0 11309700000.0 11309700000.0 11309700000.0 11309700000.0 11309700000.0 11309700000.0 11309700000.0 11309700000.0 11309700000.0 11309700000.0 11309700000.0 11309700000.0 11309700000.0 11309700000.0 11309700000.0 11309700000.0 11309700000.0 11309700000.0 11309700000.0 11309700000.0 11309700000.0 11309700000.0 11309700000.0 11309700000.0 11309700000.0 11309700000.0 11309700000.0 11309700000.0 11309700000.0 11309700000.0 11309700000.0 11309700000.0 11309700000.0 11309700000.0 11309700000.0 11309700000.0 11309700000.0 11309700000.0 11309700000.0 11309700000.0 11309700000.0 11309700000.0 11309700000.0 11309700000.0 11309700000.0 11309700000.0 11309700000.0 11309700000.0 11309700000.0 11309700000.0 11309700000.0 11309700000.0 11309700000.0 11309700000.0 11309700000.0 11309700000.0 11309700000.0 11309700000.0 11309700000.0 11309700000.0 11309700000.0 11309700000.0 11309700000.0 11309700000.0 11309700000.0 11309700000.0 11309700000.0 11309700000.0 11309700000.0 11309700000.0 11309700000.0 11309700000.0 11309700000.0 11309700000.0 11309700000.0 11309700000.0 11309700000.0 11309700000.0 11309700000.0 11309700000.0 11309700000.0 11309700000.0 11309700000.0 11309700000.0 11309700000.0 11309700000.0 11309700000.0 11309700000.0 11309700000.0 11309700000.0 11309700000.0 11309700000.0 11309700000.0 11309700000.0 11309700000.0 11309700000.0 11309700000.0 11309700000.0 11309700000.0 11309700000.0 11309700000.0 11309700000.0 11309700000.0 11309700000.0 11309700000.0 11309700000.0 11309700000.0 11309700000.0 11309700000.0 11309700000.0 11309700000.0 11309700000.0 11309700000.0 11309700000.0 11309700000.0 11309700000.0 11309700000.0 11309700000.0 11309700000.0 11309700000.0 11309700000.0 11309700000.0 11309700000.0 11309700000.0 11309700000.0 11309700000.0 11309700000.0 11309700000.0 11309700000.0 11309700000.0 11309700000.0 11309700000.0 11309700000.0 11309700000.0 11309700000.0 11309700000.0 11309700000.0 11309700000.0 11309700000.0 11309700000.0 11309700000.0 11309700000.0 11309700000.0 11309700000.0 11309700000.0 11309700000.0 11309700000.0 11309700000.0 11309700000.0 11309700000.0 11309700000.0 11309700000.0 11309700000.0 11309700000.0 11309700000.0 11309700000.0 11309700000.0 11309700000.0 11309700000.0 11309700000.0 11309700000.0 11309700000.0 11309700000.0 11309700000.0 11309700000.0 11309700000.0 11309700000.0 11309700000.0 11309700000.0 11309700000.0 11309700000.0 11309700000.0 11309700000.0 11309700000.0 11309700000.0 11309700000.0 11309700000.0 11309700000.0 11309700000.0 11309700000.0 11309700000.0 11309700000.0 11309700000.0 11309700000.0 11309700000.0 11309700000.0 11309700000.0 11309700000.0 11309700000.0 11309700000.0 11309700000.0 11309700000.0 11309700000.0 11309700000.0 11309700000.0 11309700000.0 11309700000.0 11309700000.0 11309700000.0 11309700000.0 11309700000.0 11309700000.0 11309700000.0 11309700000.0 11309700000.0 11309700000.0 11309700000.0 11309700000.0 11309700000.0 11309700000.0 11309700000.0 11309700000.0 11309700000.0 11309700000.0 11309700000.0 11309700000.0 11309700000.0 11309700000.0 11309700000.0 11309700000.0 11309700000.0 11309700000.0 11309700000.0 11309700000.0 11309700000.0 11309700000.0 11309700000.0 11309700000.0 11309700000.0 11309700000.0 11309700000.0 11309700000.0 11309700000.0 11309700000.0 11309700000.0 11309700000.0 11309700000.0 11309700000.0 11309700000.0 11309700000.0 11309700000.0 11309700000.0 11309700000.0 11309700000.0 11309700000.0 11309700000.0 11309700000.0 11309700000.0 11309700000.0 11309700000.0 11309700000.0 11309700000.0 11309700000.0 11309700000.0 11309700000.0 11309700000.0 11309700000.0 11309700000.0 11309700000.0 11309700000.0 11309700000.0 11309700000.0 11309700000.0 11309700000.0 11309700000.0 11309700000.0 11309700000.0 11309700000.0 11309700000.0 11309700000.0 11309700000.0 11309700000.0 11309700000.0 11309700000.0 11309700000.0 11309700000.0 11309700000.0 11309700000.0 11309700000.0 11309700000.0 11309700000.0 11309700000.0 11309700000.0 11309700000.0 11309700000.0 11309700000.0 11309700000.0 11309700000.0 11309700000.0 11309700000.0 11309700000.0 11309700000.0 11309700000.0 11309700000.0 11309700000.0 11309700000.0 11309700000.0 11309700000.0 11309700000.0 11309700000.0 11309700000.0 11309700000.0 11309700000.0 11309700000.0 11309700000.0 11309700000.0 11309700000.0 11309700000.0 11309700000.0 11309700000.0 11309700000.0 11309700000.0 11309700000.0 11309700000.0 11309700000.0 11309700000.0 11309700000.0 11309700000.0 11309700000.0 11309700000.0 11309700000.0 11309700000.0 11309700000.0 11309700000.0 11309700000.0 11309700000.0 11309700000.0 11309700000.0 11309700000.0 11309700000.0 11309700000.0 11309700000.0 11309700000.0 11309700000.0 11309700000.0 11309700000.0 11309700000.0 11309700000.0 11309700000.0 11309700000.0 11309700000.0 11309700000.0 11309700000.0 11309700000.0 11309700000.0 11309700000.0 11309700000.0 11309700000.0 11309700000.0 11309700000.0 11309700000.0 11309700000.0 11309700000.0 11309700000.0 11309700000.0 11309700000.0 11309700000.0 11309700000.0 11309700000.0 11309700000.0 11309700000.0 11309700000.0 11309700000.0 11309700000.0 11309700000.0 11309700000.0 11309700000.0 11309700000.0 11309700000.0 11309700000.0 11309700000.0 11309700000.0 11309700000.0 11309700000.0 11309700000.0 11309700000.0 11309700000.0 11309700000.0 11309700000.0 11309700000.0 11309700000.0 11309700000.0 11309700000.0 11309700000.0 11309700000.0 11309700000.0 11309700000.0 11309700000.0 11309700000.0 11309700000.0 11309700000.0 11309700000.0 11309700000.0 11309700000.0 11309700000.0 11309700000.0 11309700000.0 11309700000.0 11309700000.0 11309700000.0 11309700000.0 11309700000.0 11309700000.0 11309700000.0 11309700000.0 11309700000.0 11309700000.0 11309700000.0 11309700000.0 11309700000.0 11309700000.0 11309700000.0 11309700000.0 11309700000.0 11309700000.0 11309700000.0 11309700000.0 11309700000.0 11309700000.0 11309700000.0 11309700000.0 11309700000.0 11309700000.0 11309700000.0 11309700000.0 11309700000.0 11309700000.0 11309700000.0 11309700000.0 11309700000.0 11309700000.0 11309700000.0 11309700000.0 11309700000.0 11309700000.0 11309700000.0 11309700000.0 11309700000.0 11309700000.0 11309700000.0 11309700000.0 11309700000.0 11309700000.0 11309700000.0 11309700000.0 11309700000.0 11309700000.0 11309700000.0 11309700000.0 11309700000.0 11309700000.0 11309700000.0 11309700000.0 11309700000.0 11309700000.0 11309700000.0 11309700000.0 11309700000.0 11309700000.0 11309700000.0 11309700000.0 11309700000.0 11309700000.0 11309700000.0 11309700000.0 11309700000.0 11309700000.0 11309700000.0 11309700000.0 11309700000.0 11309700000.0 11309700000.0 11309700000.0 11309700000.0 11309700000.0 11309700000.0 11309700000.0 11309700000.0 11309700000.0 11309700000.0 11309700000.0 11309700000.0 11309700000.0 11309700000.0 11309700000.0 11309700000.0 11309700000.0 11309700000.0 11309700000.0 11309700000.0 11309700000.0 11309700000.0 11309700000.0 11309700000.0 11309700000.0 11309700000.0 11309700000.0 11309700000.0 11309700000.0 11309700000.0 11309700000.0 11309700000.0 11309700000.0 11309700000.0 11309700000.0 11309700000.0 11309700000.0 11309700000.0 11309700000.0 11309700000.0 11309700000.0 11309700000.0 11309700000.0 11309700000.0 11309700000.0 11309700000.0 11309700000.0 11309700000.0 11309700000.0 11309700000.0 11309700000.0 11309700000.0 11309700000.0 11309700000.0 11309700000.0 11309700000.0 11309700000.0 11309700000.0 11309700000.0 11309700000.0 11309700000.0 11309700000.0 11309700000.0 11309700000.0 11309700000.0 11309700000.0 11309700000.0 11309700000.0 11309700000.0 11309700000.0 11309700000.0 11309700000.0 11309700000.0 11309700000.0 11309700000.0 11309700000.0 11309700000.0 11309700000.0 11309700000.0 11309700000.0 11309700000.0 11309700000.0 11309700000.0 11309700000.0 11309700000.0 11309700000.0 11309700000.0 11309700000.0 11309700000.0 11309700000.0 11309700000.0 11309700000.0 11309700000.0 11309700000.0 11309700000.0 11309700000.0 11309700000.0 11309700000.0 11309700000.0 11309700000.0 11309700000.0 11309700000.0 11309700000.0 11309700000.0 11309700000.0 11309700000.0 11309700000.0 11309700000.0 11309700000.0 11309700000.0 11309700000.0 11309700000.0 11309700000.0 11309700000.0 11309700000.0 11309700000.0 11309700000.0 11309700000.0 11309700000.0 11309700000.0 11309700000.0 11309700000.0 11309700000.0 11309700000.0 11309700000.0 11309700000.0 11309700000.0 11309700000.0 11309700000.0 11309700000.0 11309700000.0 11309700000.0 11309700000.0 11309700000.0 11309700000.0 11309700000.0 11309700000.0 11309700000.0 11309700000.0 11309700000.0 11309700000.0 11309700000.0 11309700000.0 11309700000.0 11309700000.0 11309700000.0 11309700000.0 11309700000.0 11309700000.0 11309700000.0 11309700000.0 11309700000.0 11309700000.0 11309700000.0 11309700000.0 11309700000.0 11309700000.0 11309700000.0 11309700000.0 11309700000.0 11309700000.0 11309700000.0 11309700000.0 11309700000.0 11309700000.0 11309700000.0 11309700000.0 11309700000.0 11309700000.0 11309700000.0 11309700000.0 11309700000.0 11309700000.0 11309700000.0 11309700000.0 11309700000.0 11309700000.0 11309700000.0 11309700000.0 11309700000.0 11309700000.0 11309700000.0 11309700000.0 11309700000.0 11309700000.0 11309700000.0 11309700000.0 11309700000.0 11309700000.0 11309700000.0 11309700000.0 11309700000.0 11309700000.0 11309700000.0 11309700000.0 11309700000.0 11309700000.0 11309700000.0 11309700000.0 11309700000.0 11309700000.0 11309700000.0 11309700000.0 11309700000.0 11309700000.0 11309700000.0 11309700000.0 11309700000.0 11309700000.0 11309700000.0 11309700000.0 11309700000.0 11309700000.0 11309700000.0 11309700000.0 11309700000.0 11309700000.0 11309700000.0 11309700000.0 11309700000.0 11309700000.0 11309700000.0 11309700000.0 11309700000.0 11309700000.0 11309700000.0 11309700000.0 11309700000.0 11309700000.0 11309700000.0 11309700000.0 11309700000.0 11309700000.0 11309700000.0 11309700000.0 11309700000.0 11309700000.0 11309700000.0 11309700000.0 11309700000.0 11309700000.0 11309700000.0 11309700000.0 11309700000.0 11309700000.0 11309700000.0 11309700000.0 11309700000.0 11309700000.0 11309700000.0 11309700000.0 11309700000.0 11309700000.0 11309700000.0 11309700000.0 11309700000.0 11309700000.0 11309700000.0 11309700000.0 11309700000.0 11309700000.0 11309700000.0 11309700000.0 11309700000.0 11309700000.0 11309700000.0 11309700000.0 11309700000.0 11309700000.0 11309700000.0 11309700000.0 11309700000.0 11309700000.0 11309700000.0 11309700000.0 11309700000.0 11309700000.0 11309700000.0 11309700000.0 11309700000.0 11309700000.0 11309700000.0 11309700000.0 11309700000.0 11309700000.0 11309700000.0 11309700000.0 11309700000.0 11309700000.0 11309700000.0 11309700000.0 11309700000.0 11309700000.0 11309700000.0 11309700000.0 11309700000.0 11309700000.0 11309700000.0 11309700000.0 11309700000.0 11309700000.0 11309700000.0 11309700000.0 11309700000.0 11309700000.0 11309700000.0 11309700000.0 11309700000.0 11309700000.0 11309700000.0 11309700000.0 11309700000.0 11309700000.0 11309700000.0 11309700000.0 11309700000.0 11309700000.0 11309700000.0 11309700000.0 11309700000.0 11309700000.0 11309700000.0 11309700000.0 11309700000.0 11309700000.0 11309700000.0 11309700000.0 11309700000.0 11309700000.0 11309700000.0 11309700000.0 11309700000.0 11309700000.0 11309700000.0 11309700000.0 11309700000.0 11309700000.0 11309700000.0 11309700000.0 11309700000.0 11309700000.0 11309700000.0 11309700000.0 11309700000.0 11309700000.0 11309700000.0 11309700000.0 11309700000.0 11309700000.0 11309700000.0 11309700000.0 11309700000.0 11309700000.0 11309700000.0 11309700000.0 11309700000.0 11309700000.0 11309700000.0 11309700000.0 11309700000.0 11309700000.0 11309700000.0 11309700000.0 11309700000.0 11309700000.0 11309700000.0 11309700000.0 11309700000.0 11309700000.0 11309700000.0 11309700000.0 11309700000.0 11309700000.0 11309700000.0 11309700000.0 11309700000.0 11309700000.0 11309700000.0 11309700000.0 11309700000.0 11309700000.0 11309700000.0 11309700000.0 11309700000.0 11309700000.0 11309700000.0 11309700000.0 11309700000.0 11309700000.0 11309700000.0 11309700000.0 11309700000.0 11309700000.0 11309700000.0 11309700000.0 11309700000.0 11309700000.0 11309700000.0 11309700000.0 11309700000.0 11309700000.0 11309700000.0 11309700000.0 11309700000.0 11309700000.0 11309700000.0 11309700000.0 11309700000.0 11309700000.0 11309700000.0 11309700000.0 11309700000.0 11309700000.0 11309700000.0 11309700000.0 11309700000.0 11309700000.0 11309700000.0 11309700000.0 11309700000.0 11309700000.0 11309700000.0 11309700000.0 11309700000.0 11309700000.0 11309700000.0 11309700000.0 11309700000.0 11309700000.0 11309700000.0 11309700000.0 11309700000.0 11309700000.0 11309700000.0 11309700000.0 11309700000.0 11309700000.0 11309700000.0 11309700000.0 11309700000.0 11309700000.0 11309700000.0 11309700000.0 11309700000.0 11309700000.0 11309700000.0 11309700000.0 11309700000.0 11309700000.0 11309700000.0 11309700000.0 11309700000.0 11309700000.0 11309700000.0 11309700000.0 11309700000.0 11309700000.0 11309700000.0 11309700000.0 11309700000.0 11309700000.0 11309700000.0 11309700000.0 11309700000.0 11309700000.0 11309700000.0 11309700000.0 11309700000.0 11309700000.0 11309700000.0 11309700000.0 11309700000.0 11309700000.0 11309700000.0 11309700000.0 11309700000.0 11309700000.0 11309700000.0 11309700000.0 11309700000.0 11309700000.0 11309700000.0 11309700000.0 11309700000.0 11309700000.0 11309700000.0 11309700000.0 11309700000.0 11309700000.0 11309700000.0 11309700000.0 11309700000.0 11309700000.0 11309700000.0 11309700000.0 11309700000.0 11309700000.0 11309700000.0 11309700000.0 11309700000.0 11309700000.0 11309700000.0 11309700000.0 11309700000.0 11309700000.0 11309700000.0 11309700000.0 11309700000.0 11309700000.0 11309700000.0 11309700000.0 11309700000.0 11309700000.0 11309700000.0 11309700000.0 11309700000.0 11309700000.0 11309700000.0 11309700000.0 11309700000.0 11309700000.0 11309700000.0 11309700000.0 11309700000.0 11309700000.0 11309700000.0 11309700000.0 11309700000.0 11309700000.0 11309700000.0 11309700000.0 11309700000.0 11309700000.0 11309700000.0 11309700000.0 11309700000.0 11309700000.0 11309700000.0 11309700000.0 11309700000.0 11309700000.0 11309700000.0 11309700000.0 11309700000.0 11309700000.0 11309700000.0 11309700000.0 11309700000.0 11309700000.0 11309700000.0 11309700000.0 11309700000.0 11309700000.0 11309700000.0 11309700000.0 11309700000.0 11309700000.0 11309700000.0 11309700000.0 11309700000.0 11309700000.0 11309700000.0 11309700000.0 11309700000.0 11309700000.0 11309700000.0 11309700000.0 11309700000.0 11309700000.0 11309700000.0 11309700000.0 11309700000.0 11309700000.0 11309700000.0 11309700000.0 11309700000.0 11309700000.0 11309700000.0 11309700000.0 11309700000.0 11309700000.0 11309700000.0 11309700000.0 11309700000.0 11309700000.0 11309700000.0 11309700000.0 11309700000.0 11309700000.0 11309700000.0 11309700000.0 11309700000.0 11309700000.0 11309700000.0 11309700000.0 11309700000.0 11309700000.0 11309700000.0 11309700000.0 11309700000.0 11309700000.0 11309700000.0 11309700000.0 11309700000.0 11309700000.0 11309700000.0 11309700000.0 11309700000.0 11309700000.0 11309700000.0 11309700000.0 11309700000.0 11309700000.0 11309700000.0 11309700000.0 11309700000.0 11309700000.0 11309700000.0 11309700000.0 11309700000.0 11309700000.0 11309700000.0 11309700000.0 11309700000.0 11309700000.0 11309700000.0 11309700000.0 11309700000.0 11309700000.0 11309700000.0 11309700000.0 11309700000.0 11309700000.0 11309700000.0 11309700000.0 11309700000.0 11309700000.0 11309700000.0 11309700000.0 11309700000.0 11309700000.0 11309700000.0 11309700000.0 11309700000.0 11309700000.0 11309700000.0 11309700000.0 11309700000.0 11309700000.0 11309700000.0 11309700000.0 11309700000.0 11309700000.0 11309700000.0 11309700000.0 11309700000.0 11309700000.0 11309700000.0 11309700000.0 11309700000.0 11309700000.0 11309700000.0 11309700000.0 11309700000.0 11309700000.0 11309700000.0 11309700000.0 11309700000.0 11309700000.0 11309700000.0 11309700000.0 11309700000.0 11309700000.0 11309700000.0 11309700000.0 11309700000.0 11309700000.0 11309700000.0 11309700000.0 11309700000.0 11309700000.0 11309700000.0 11309700000.0 11309700000.0 11309700000.0 11309700000.0 11309700000.0 11309700000.0 11309700000.0 11309700000.0 11309700000.0 11309700000.0 11309700000.0 11309700000.0 11309700000.0 11309700000.0 11309700000.0 11309700000.0 11309700000.0 11309700000.0 11309700000.0 11309700000.0 11309700000.0 11309700000.0 11309700000.0 11309700000.0 11309700000.0 11309700000.0 11309700000.0 11309700000.0 11309700000.0 11309700000.0 11309700000.0 11309700000.0 11309700000.0 11309700000.0 11309700000.0 11309700000.0 11309700000.0 11309700000.0 11309700000.0 11309700000.0 11309700000.0 11309700000.0 11309700000.0 11309700000.0 11309700000.0 11309700000.0 11309700000.0 11309700000.0 11309700000.0 11309700000.0 11309700000.0 11309700000.0 11309700000.0 11309700000.0 11309700000.0 11309700000.0 11309700000.0 11309700000.0 11309700000.0 11309700000.0 11309700000.0 11309700000.0 11309700000.0 11309700000.0 11309700000.0 11309700000.0 11309700000.0 11309700000.0 11309700000.0 11309700000.0 11309700000.0 11309700000.0 11309700000.0 11309700000.0 11309700000.0 11309700000.0 11309700000.0 11309700000.0 11309700000.0 11309700000.0 11309700000.0 11309700000.0 11309700000.0 11309700000.0 11309700000.0 11309700000.0 11309700000.0 11309700000.0 11309700000.0 11309700000.0 11309700000.0 11309700000.0 11309700000.0 11309700000.0 11309700000.0 11309700000.0 11309700000.0 11309700000.0 11309700000.0 11309700000.0 11309700000.0 11309700000.0 11309700000.0 11309700000.0 11309700000.0 11309700000.0 11309700000.0 11309700000.0 11309700000.0 11309700000.0 11309700000.0 11309700000.0 11309700000.0 11309700000.0 11309700000.0 11309700000.0 11309700000.0 11309700000.0 11309700000.0 11309700000.0 11309700000.0 11309700000.0 11309700000.0 11309700000.0 11309700000.0 11309700000.0 11309700000.0 11309700000.0 11309700000.0 11309700000.0 11309700000.0 11309700000.0 11309700000.0 11309700000.0 11309700000.0 11309700000.0 11309700000.0 11309700000.0 11309700000.0 11309700000.0 11309700000.0 11309700000.0 11309700000.0 11309700000.0 11309700000.0 11309700000.0 11309700000.0 11309700000.0 11309700000.0 11309700000.0 11309700000.0 11309700000.0 11309700000.0 11309700000.0 11309700000.0 11309700000.0 11309700000.0 11309700000.0 11309700000.0 11309700000.0 11309700000.0 11309700000.0 11309700000.0 11309700000.0 11309700000.0 11309700000.0 11309700000.0 11309700000.0 11309700000.0 11309700000.0 11309700000.0 11309700000.0 11309700000.0 11309700000.0 11309700000.0 11309700000.0 11309700000.0 11309700000.0 11309700000.0 11309700000.0 11309700000.0 11309700000.0 11309700000.0 11309700000.0 11309700000.0 11309700000.0 11309700000.0 11309700000.0 11309700000.0 11309700000.0 11309700000.0 11309700000.0 11309700000.0 11309700000.0 11309700000.0 11309700000.0 11309700000.0 11309700000.0 11309700000.0 11309700000.0 11309700000.0 11309700000.0 11309700000.0 11309700000.0 11309700000.0 11309700000.0 11309700000.0 11309700000.0 11309700000.0 11309700000.0 11309700000.0 11309700000.0 11309700000.0 11309700000.0 11309700000.0 11309700000.0 11309700000.0 11309700000.0 11309700000.0 11309700000.0 11309700000.0 11309700000.0 11309700000.0 11309700000.0 11309700000.0 11309700000.0 11309700000.0 11309700000.0 11309700000.0 11309700000.0 11309700000.0 11309700000.0 11309700000.0 11309700000.0 11309700000.0 11309700000.0 11309700000.0 11309700000.0 11309700000.0 11309700000.0 11309700000.0 11309700000.0 11309700000.0 11309700000.0 11309700000.0 11309700000.0 11309700000.0 11309700000.0 11309700000.0 11309700000.0 11309700000.0 11309700000.0 11309700000.0 11309700000.0 11309700000.0 11309700000.0 11309700000.0 11309700000.0 11309700000.0 11309700000.0 11309700000.0 11309700000.0 11309700000.0 11309700000.0 11309700000.0 11309700000.0 11309700000.0 11309700000.0 11309700000.0 11309700000.0 11309700000.0 11309700000.0 11309700000.0 11309700000.0 11309700000.0 11309700000.0 11309700000.0 11309700000.0 11309700000.0 11309700000.0 11309700000.0 11309700000.0 11309700000.0 11309700000.0 11309700000.0 11309700000.0 11309700000.0 11309700000.0 11309700000.0 11309700000.0 11309700000.0 11309700000.0 11309700000.0 11309700000.0 11309700000.0 11309700000.0 11309700000.0 11309700000.0 11309700000.0 11309700000.0 11309700000.0 11309700000.0 11309700000.0 11309700000.0 11309700000.0 11309700000.0 11309700000.0 11309700000.0 11309700000.0 11309700000.0 11309700000.0 11309700000.0 11309700000.0 11309700000.0 11309700000.0 11309700000.0 11309700000.0 11309700000.0 11309700000.0 11309700000.0 11309700000.0 11309700000.0 11309700000.0 11309700000.0 11309700000.0 11309700000.0 11309700000.0 11309700000.0 11309700000.0 11309700000.0 11309700000.0 11309700000.0 11309700000.0 11309700000.0 11309700000.0 11309700000.0 11309700000.0 11309700000.0 11309700000.0 11309700000.0 11309700000.0 11309700000.0 11309700000.0 11309700000.0 11309700000.0 11309700000.0 11309700000.0 11309700000.0 11309700000.0 11309700000.0 11309700000.0 11309700000.0 11309700000.0 11309700000.0 11309700000.0 11309700000.0 11309700000.0 11309700000.0 11309700000.0 11309700000.0 11309700000.0 11309700000.0 11309700000.0 11309700000.0 11309700000.0 11309700000.0 11309700000.0 11309700000.0 11309700000.0 11309700000.0 11309700000.0 11309700000.0 11309700000.0 11309700000.0 11309700000.0 11309700000.0 11309700000.0 11309700000.0 11309700000.0 11309700000.0 11309700000.0 11309700000.0 11309700000.0 11309700000.0 11309700000.0 11309700000.0 11309700000.0 11309700000.0 11309700000.0 11309700000.0 11309700000.0 11309700000.0 11309700000.0 11309700000.0 11309700000.0 11309700000.0 11309700000.0 11309700000.0 11309700000.0 11309700000.0 11309700000.0 11309700000.0 11309700000.0 11309700000.0 11309700000.0 11309700000.0 11309700000.0 11309700000.0 11309700000.0 11309700000.0 11309700000.0 11309700000.0 11309700000.0 11309700000.0 11309700000.0 11309700000.0 11309700000.0 11309700000.0 11309700000.0 11309700000.0 11309700000.0 11309700000.0 11309700000.0 11309700000.0 11309700000.0 11309700000.0 11309700000.0 11309700000.0 11309700000.0 11309700000.0 11309700000.0 11309700000.0 11309700000.0 11309700000.0 11309700000.0 11309700000.0 11309700000.0 11309700000.0 11309700000.0 11309700000.0 11309700000.0 11309700000.0 11309700000.0 11309700000.0 11309700000.0 11309700000.0 11309700000.0 11309700000.0 11309700000.0 11309700000.0 11309700000.0 11309700000.0 11309700000.0 11309700000.0 11309700000.0 11309700000.0 11309700000.0 11309700000.0 11309700000.0 11309700000.0 11309700000.0 11309700000.0 11309700000.0 11309700000.0 11309700000.0 11309700000.0 11309700000.0 11309700000.0 11309700000.0 11309700000.0 11309700000.0 11309700000.0 11309700000.0 11309700000.0 11309700000.0 11309700000.0 11309700000.0 11309700000.0 11309700000.0 11309700000.0 11309700000.0 11309700000.0 11309700000.0 11309700000.0 11309700000.0 11309700000.0 11309700000.0 11309700000.0 11309700000.0 11309700000.0 11309700000.0 11309700000.0 11309700000.0 11309700000.0 11309700000.0 11309700000.0 11309700000.0 11309700000.0 11309700000.0 11309700000.0 11309700000.0 11309700000.0 11309700000.0 11309700000.0 11309700000.0 11309700000.0 11309700000.0 11309700000.0 11309700000.0 11309700000.0 11309700000.0 11309700000.0 11309700000.0 11309700000.0 11309700000.0 11309700000.0 11309700000.0 11309700000.0 11309700000.0 11309700000.0 11309700000.0 11309700000.0 11309700000.0 11309700000.0 11309700000.0 11309700000.0 11309700000.0 11309700000.0 11309700000.0 11309700000.0 11309700000.0 11309700000.0 11309700000.0 11309700000.0 11309700000.0 11309700000.0 11309700000.0 11309700000.0 11309700000.0 11309700000.0 11309700000.0 11309700000.0 11309700000.0 11309700000.0 11309700000.0 11309700000.0 11309700000.0 11309700000.0 11309700000.0 11309700000.0 11309700000.0 11309700000.0 11309700000.0 11309700000.0 11309700000.0 11309700000.0 11309700000.0 11309700000.0 11309700000.0 11309700000.0 11309700000.0 11309700000.0 11309700000.0 11309700000.0 11309700000.0 11309700000.0 11309700000.0 11309700000.0 11309700000.0 11309700000.0 11309700000.0 11309700000.0 11309700000.0 11309700000.0 11309700000.0 11309700000.0 11309700000.0 11309700000.0 11309700000.0 11309700000.0 11309700000.0 11309700000.0 11309700000.0 11309700000.0 11309700000.0 11309700000.0 11309700000.0 11309700000.0 11309700000.0 11309700000.0 11309700000.0 11309700000.0 11309700000.0 11309700000.0 11309700000.0 11309700000.0 11309700000.0 11309700000.0 11309700000.0 11309700000.0 11309700000.0 11309700000.0 11309700000.0 11309700000.0 11309700000.0 11309700000.0 11309700000.0 11309700000.0 11309700000.0 11309700000.0 11309700000.0 11309700000.0 11309700000.0 11309700000.0 11309700000.0 11309700000.0 11309700000.0 11309700000.0 11309700000.0 11309700000.0 11309700000.0 11309700000.0 11309700000.0 11309700000.0 11309700000.0 11309700000.0 11309700000.0 11309700000.0 11309700000.0 11309700000.0 11309700000.0 11309700000.0 11309700000.0 11309700000.0 11309700000.0 11309700000.0 11309700000.0 11309700000.0 11309700000.0 11309700000.0 11309700000.0 11309700000.0 11309700000.0 11309700000.0 11309700000.0 11309700000.0 11309700000.0 11309700000.0 11309700000.0 11309700000.0 11309700000.0 11309700000.0 11309700000.0 11309700000.0 11309700000.0 11309700000.0 11309700000.0 11309700000.0 11309700000.0 11309700000.0 11309700000.0 11309700000.0 11309700000.0 11309700000.0 11309700000.0 11309700000.0 11309700000.0 11309700000.0 11309700000.0 11309700000.0 11309700000.0 11309700000.0 11309700000.0 11309700000.0 11309700000.0 11309700000.0 11309700000.0 11309700000.0 11309700000.0 11309700000.0 11309700000.0 11309700000.0 11309700000.0 11309700000.0 11309700000.0 11309700000.0 11309700000.0 11309700000.0 11309700000.0 11309700000.0 11309700000.0 11309700000.0 11309700000.0 11309700000.0 11309700000.0 11309700000.0 11309700000.0 11309700000.0 11309700000.0 11309700000.0 11309700000.0 11309700000.0 11309700000.0 11309700000.0 11309700000.0 11309700000.0 11309700000.0 11309700000.0 11309700000.0 11309700000.0 11309700000.0 11309700000.0 11309700000.0 11309700000.0 11309700000.0 11309700000.0 11309700000.0 11309700000.0 11309700000.0 11309700000.0 11309700000.0 11309700000.0 11309700000.0 11309700000.0 11309700000.0 11309700000.0 11309700000.0 11309700000.0 11309700000.0 11309700000.0 11309700000.0 11309700000.0 11309700000.0 11309700000.0 11309700000.0 11309700000.0 11309700000.0 11309700000.0 11309700000.0 11309700000.0 11309700000.0 11309700000.0 11309700000.0 11309700000.0 11309700000.0 11309700000.0 11309700000.0 11309700000.0 11309700000.0 11309700000.0 11309700000.0 11309700000.0 11309700000.0 11309700000.0 11309700000.0 11309700000.0 11309700000.0 11309700000.0 11309700000.0 11309700000.0 11309700000.0 11309700000.0 11309700000.0 11309700000.0 11309700000.0 11309700000.0 11309700000.0 11309700000.0 11309700000.0 11309700000.0 11309700000.0 11309700000.0 11309700000.0 11309700000.0 11309700000.0 11309700000.0 11309700000.0 11309700000.0 11309700000.0 11309700000.0 11309700000.0 11309700000.0 11309700000.0 11309700000.0 11309700000.0 11309700000.0 11309700000.0 11309700000.0 11309700000.0 11309700000.0 11309700000.0 11309700000.0 11309700000.0 11309700000.0 11309700000.0 11309700000.0 11309700000.0 11309700000.0 11309700000.0 11309700000.0 11309700000.0 11309700000.0 11309700000.0 11309700000.0 11309700000.0 11309700000.0 11309700000.0 11309700000.0 11309700000.0 11309700000.0 11309700000.0 11309700000.0 11309700000.0 11309700000.0 11309700000.0 11309700000.0 11309700000.0 11309700000.0 11309700000.0 11309700000.0 11309700000.0 11309700000.0 11309700000.0 11309700000.0 11309700000.0 11309700000.0 11309700000.0 11309700000.0 11309700000.0 11309700000.0 11309700000.0 11309700000.0 11309700000.0 11309700000.0 11309700000.0 11309700000.0 11309700000.0 11309700000.0 11309700000.0 11309700000.0 11309700000.0 11309700000.0 11309700000.0 11309700000.0 11309700000.0 11309700000.0 11309700000.0 11309700000.0 11309700000.0 11309700000.0 11309700000.0 11309700000.0 11309700000.0 11309700000.0 11309700000.0 11309700000.0 11309700000.0 11309700000.0 11309700000.0 11309700000.0 11309700000.0 11309700000.0 11309700000.0 11309700000.0 11309700000.0 11309700000.0 11309700000.0 11309700000.0 11309700000.0 11309700000.0 11309700000.0 11309700000.0 11309700000.0 11309700000.0 11309700000.0 11309700000.0 11309700000.0 11309700000.0 11309700000.0 11309700000.0 11309700000.0 11309700000.0 11309700000.0 11309700000.0 11309700000.0 11309700000.0 11309700000.0 11309700000.0 11309700000.0 11309700000.0 11309700000.0 11309700000.0 11309700000.0 11309700000.0 11309700000.0 11309700000.0 11309700000.0 11309700000.0 11309700000.0 11309700000.0 11309700000.0 11309700000.0 11309700000.0 11309700000.0 11309700000.0 11309700000.0 11309700000.0 11309700000.0 11309700000.0 11309700000.0 11309700000.0 11309700000.0 11309700000.0 11309700000.0 11309700000.0 11309700000.0 11309700000.0 11309700000.0 11309700000.0 11309700000.0 11309700000.0 11309700000.0 11309700000.0 11309700000.0 11309700000.0 11309700000.0 11309700000.0 11309700000.0 11309700000.0 11309700000.0 11309700000.0 11309700000.0 11309700000.0 11309700000.0 11309700000.0 11309700000.0 11309700000.0 11309700000.0 11309700000.0 11309700000.0 11309700000.0 11309700000.0 11309700000.0 11309700000.0 11309700000.0 11309700000.0 11309700000.0 11309700000.0 11309700000.0 11309700000.0 11309700000.0 11309700000.0 11309700000.0 11309700000.0 11309700000.0 11309700000.0 11309700000.0 11309700000.0 11309700000.0 11309700000.0 11309700000.0 11309700000.0 11309700000.0 11309700000.0 11309700000.0 11309700000.0 11309700000.0 11309700000.0 11309700000.0 11309700000.0 11309700000.0 11309700000.0 11309700000.0 11309700000.0 11309700000.0 11309700000.0 11309700000.0 11309700000.0 11309700000.0 11309700000.0 11309700000.0 11309700000.0 11309700000.0 11309700000.0 11309700000.0 11309700000.0 11309700000.0 11309700000.0 11309700000.0 11309700000.0 11309700000.0 11309700000.0 11309700000.0 11309700000.0 11309700000.0 11309700000.0 11309700000.0 11309700000.0 11309700000.0 11309700000.0 11309700000.0 11309700000.0 11309700000.0 11309700000.0 11309700000.0 11309700000.0 11309700000.0 11309700000.0 11309700000.0 11309700000.0 11309700000.0 11309700000.0 11309700000.0 11309700000.0 11309700000.0 11309700000.0 11309700000.0 11309700000.0 11309700000.0 11309700000.0 11309700000.0 11309700000.0 11309700000.0 11309700000.0 11309700000.0 11309700000.0 11309700000.0 11309700000.0 11309700000.0 11309700000.0 11309700000.0 11309700000.0 11309700000.0 11309700000.0 11309700000.0 11309700000.0 11309700000.0 11309700000.0 11309700000.0 11309700000.0 11309700000.0 11309700000.0 11309700000.0 11309700000.0 11309700000.0 11309700000.0 11309700000.0 11309700000.0 11309700000.0 11309700000.0 11309700000.0 11309700000.0 11309700000.0 11309700000.0 11309700000.0 11309700000.0 11309700000.0 11309700000.0 11309700000.0 11309700000.0 11309700000.0 11309700000.0 11309700000.0 11309700000.0 11309700000.0 11309700000.0 11309700000.0 11309700000.0 11309700000.0 11309700000.0 11309700000.0 11309700000.0 11309700000.0 11309700000.0 11309700000.0 11309700000.0 11309700000.0 11309700000.0 11309700000.0 11309700000.0 11309700000.0 11309700000.0 11309700000.0 11309700000.0 11309700000.0 11309700000.0 11309700000.0 11309700000.0 11309700000.0 11309700000.0 11309700000.0 11309700000.0 11309700000.0 11309700000.0 11309700000.0 11309700000.0 11309700000.0 11309700000.0 11309700000.0 11309700000.0 11309700000.0 11309700000.0 11309700000.0 11309700000.0 11309700000.0 11309700000.0 11309700000.0 11309700000.0 11309700000.0 11309700000.0 11309700000.0 11309700000.0 11309700000.0 11309700000.0 11309700000.0 11309700000.0 11309700000.0 11309700000.0 11309700000.0 11309700000.0 11309700000.0 11309700000.0 11309700000.0 11309700000.0 11309700000.0 11309700000.0 11309700000.0 11309700000.0 11309700000.0 11309700000.0 11309700000.0 11309700000.0 11309700000.0 11309700000.0 11309700000.0 11309700000.0 11309700000.0 11309700000.0 11309700000.0 11309700000.0 11309700000.0 11309700000.0 11309700000.0 11309700000.0 11309700000.0 11309700000.0 11309700000.0 11309700000.0 11309700000.0 11309700000.0 11309700000.0 11309700000.0 11309700000.0 11309700000.0 11309700000.0 11309700000.0 11309700000.0 11309700000.0 11309700000.0 11309700000.0 11309700000.0 11309700000.0 11309700000.0 11309700000.0 11309700000.0 11309700000.0 11309700000.0 11309700000.0 11309700000.0 11309700000.0 11309700000.0 11309700000.0 11309700000.0 11309700000.0 11309700000.0 11309700000.0 11309700000.0 11309700000.0 11309700000.0 11309700000.0 11309700000.0 11309700000.0 11309700000.0 11309700000.0 11309700000.0 11309700000.0 11309700000.0 11309700000.0 11309700000.0 11309700000.0 11309700000.0 11309700000.0 11309700000.0 11309700000.0 11309700000.0 11309700000.0 11309700000.0 11309700000.0 11309700000.0 11309700000.0 11309700000.0 11309700000.0 11309700000.0 11309700000.0 11309700000.0 11309700000.0 11309700000.0 11309700000.0 11309700000.0 11309700000.0 11309700000.0 11309700000.0 11309700000.0 11309700000.0 11309700000.0 11309700000.0 11309700000.0 11309700000.0 11309700000.0 11309700000.0 11309700000.0 11309700000.0 11309700000.0 11309700000.0 11309700000.0 11309700000.0 11309700000.0 11309700000.0 11309700000.0 11309700000.0 11309700000.0 11309700000.0 11309700000.0 11309700000.0 11309700000.0 11309700000.0 11309700000.0 11309700000.0 11309700000.0 11309700000.0 11309700000.0 11309700000.0 11309700000.0 11309700000.0 11309700000.0 11309700000.0 11309700000.0 11309700000.0 11309700000.0 11309700000.0 11309700000.0 11309700000.0 11309700000.0 11309700000.0 11309700000.0 11309700000.0 11309700000.0 11309700000.0 11309700000.0 11309700000.0 11309700000.0 11309700000.0 11309700000.0 11309700000.0 11309700000.0 11309700000.0 11309700000.0 11309700000.0 11309700000.0 11309700000.0 11309700000.0 11309700000.0 11309700000.0 11309700000.0 11309700000.0 11309700000.0 11309700000.0 11309700000.0 11309700000.0 11309700000.0 11309700000.0 11309700000.0 11309700000.0 11309700000.0 11309700000.0 11309700000.0 11309700000.0 11309700000.0 11309700000.0 11309700000.0 11309700000.0 11309700000.0 11309700000.0 11309700000.0 11309700000.0 11309700000.0 11309700000.0 11309700000.0 11309700000.0 11309700000.0 11309700000.0 11309700000.0 11309700000.0 11309700000.0 11309700000.0 11309700000.0 11309700000.0 11309700000.0 11309700000.0 11309700000.0 11309700000.0 11309700000.0 11309700000.0 11309700000.0 11309700000.0 11309700000.0 11309700000.0 11309700000.0 11309700000.0 11309700000.0 11309700000.0 11309700000.0 11309700000.0 11309700000.0 11309700000.0 11309700000.0 11309700000.0 11309700000.0 11309700000.0 11309700000.0 11309700000.0 11309700000.0 11309700000.0 11309700000.0 11309700000.0 11309700000.0 11309700000.0 11309700000.0 11309700000.0 11309700000.0 11309700000.0 11309700000.0 11309700000.0 11309700000.0 11309700000.0 11309700000.0 11309700000.0 11309700000.0 11309700000.0 11309700000.0 11309700000.0 11309700000.0 11309700000.0 11309700000.0 11309700000.0 11309700000.0 11309700000.0 11309700000.0 11309700000.0 11309700000.0 11309700000.0 11309700000.0 11309700000.0 11309700000.0 11309700000.0 11309700000.0 11309700000.0 11309700000.0 11309700000.0 11309700000.0 11309700000.0 11309700000.0 11309700000.0 11309700000.0 11309700000.0 11309700000.0 11309700000.0 11309700000.0 11309700000.0 11309700000.0 11309700000.0 11309700000.0 11309700000.0 11309700000.0 11309700000.0 11309700000.0 11309700000.0 11309700000.0 11309700000.0 11309700000.0 11309700000.0 11309700000.0 11309700000.0 11309700000.0 11309700000.0 11309700000.0 11309700000.0 11309700000.0 11309700000.0 11309700000.0 11309700000.0 11309700000.0 11309700000.0 11309700000.0 11309700000.0 11309700000.0 11309700000.0 11309700000.0 11309700000.0 11309700000.0 11309700000.0 11309700000.0 11309700000.0 11309700000.0 11309700000.0 11309700000.0 11309700000.0 11309700000.0 11309700000.0 11309700000.0 11309700000.0 11309700000.0 11309700000.0 11309700000.0 11309700000.0 11309700000.0 11309700000.0 11309700000.0 11309700000.0 11309700000.0 11309700000.0 11309700000.0 11309700000.0 11309700000.0 11309700000.0 11309700000.0 11309700000.0 11309700000.0 11309700000.0 11309700000.0 11309700000.0 11309700000.0 11309700000.0 11309700000.0 11309700000.0 11309700000.0 11309700000.0 11309700000.0 11309700000.0 11309700000.0 11309700000.0 11309700000.0 11309700000.0 11309700000.0 11309700000.0 11309700000.0 11309700000.0 11309700000.0 11309700000.0 11309700000.0 11309700000.0 11309700000.0 11309700000.0 11309700000.0 11309700000.0 11309700000.0 11309700000.0 11309700000.0 11309700000.0 11309700000.0 11309700000.0 11309700000.0 11309700000.0 11309700000.0 11309700000.0 11309700000.0 11309700000.0 11309700000.0 11309700000.0 11309700000.0 11309700000.0 11309700000.0 11309700000.0 11309700000.0 11309700000.0 11309700000.0 11309700000.0 11309700000.0 11309700000.0 11309700000.0 11309700000.0 11309700000.0 11309700000.0 11309700000.0 11309700000.0 11309700000.0 11309700000.0 11309700000.0 11309700000.0 11309700000.0 11309700000.0 11309700000.0 11309700000.0 11309700000.0 11309700000.0 11309700000.0 11309700000.0 11309700000.0 11309700000.0 11309700000.0 11309700000.0 11309700000.0 11309700000.0 11309700000.0 11309700000.0 11309700000.0 11309700000.0 11309700000.0 11309700000.0 11309700000.0 11309700000.0 11309700000.0 11309700000.0 11309700000.0 11309700000.0 11309700000.0 11309700000.0 11309700000.0 11309700000.0 11309700000.0 11309700000.0 11309700000.0 11309700000.0 11309700000.0 11309700000.0 11309700000.0 11309700000.0 11309700000.0 11309700000.0 11309700000.0 11309700000.0 11309700000.0 11309700000.0 11309700000.0 11309700000.0 11309700000.0 11309700000.0 11309700000.0 11309700000.0 11309700000.0 11309700000.0 11309700000.0 11309700000.0 11309700000.0 11309700000.0 11309700000.0 11309700000.0 11309700000.0 11309700000.0 11309700000.0 11309700000.0 11309700000.0 11309700000.0 11309700000.0 11309700000.0 11309700000.0 11309700000.0 11309700000.0 11309700000.0 11309700000.0 11309700000.0 11309700000.0 11309700000.0 11309700000.0 11309700000.0 11309700000.0 11309700000.0 11309700000.0 11309700000.0 11309700000.0 11309700000.0 11309700000.0 11309700000.0 11309700000.0 11309700000.0 11309700000.0 11309700000.0 11309700000.0 11309700000.0 11309700000.0 11309700000.0 11309700000.0 11309700000.0 11309700000.0 11309700000.0 11309700000.0 11309700000.0 11309700000.0 11309700000.0 11309700000.0 11309700000.0 11309700000.0 11309700000.0 11309700000.0 11309700000.0 11309700000.0 11309700000.0 11309700000.0 11309700000.0 11309700000.0 11309700000.0 11309700000.0 11309700000.0 11309700000.0 11309700000.0 11309700000.0 11309700000.0 11309700000.0 11309700000.0 11309700000.0 11309700000.0 11309700000.0 11309700000.0 11309700000.0 11309700000.0 11309700000.0 11309700000.0 11309700000.0 11309700000.0 11309700000.0 11309700000.0 11309700000.0 11309700000.0 11309700000.0 11309700000.0 11309700000.0 11309700000.0 11309700000.0 11309700000.0 11309700000.0 11309700000.0 11309700000.0 11309700000.0 11309700000.0 11309700000.0 11309700000.0 11309700000.0 11309700000.0 11309700000.0 11309700000.0 11309700000.0 11309700000.0 11309700000.0 11309700000.0 11309700000.0 11309700000.0 11309700000.0 11309700000.0 11309700000.0 11309700000.0 11309700000.0 11309700000.0 11309700000.0 11309700000.0 11309700000.0 11309700000.0 11309700000.0 11309700000.0 11309700000.0 11309700000.0 11309700000.0 11309700000.0 11309700000.0 11309700000.0 11309700000.0 11309700000.0 11309700000.0 11309700000.0 11309700000.0 11309700000.0 11309700000.0 11309700000.0 11309700000.0 11309700000.0 11309700000.0 11309700000.0 11309700000.0 11309700000.0 11309700000.0 11309700000.0 11309700000.0 11309700000.0 11309700000.0 11309700000.0 11309700000.0 11309700000.0 11309700000.0 11309700000.0 11309700000.0 11309700000.0 11309700000.0 11309700000.0 11309700000.0 11309700000.0 11309700000.0 11309700000.0 11309700000.0 11309700000.0 11309700000.0 11309700000.0 11309700000.0 11309700000.0 11309700000.0 11309700000.0 11309700000.0 11309700000.0 11309700000.0 11309700000.0 11309700000.0 11309700000.0 11309700000.0 11309700000.0 11309700000.0 11309700000.0 11309700000.0 11309700000.0 11309700000.0 11309700000.0 11309700000.0 11309700000.0 11309700000.0 11309700000.0 11309700000.0 11309700000.0 11309700000.0 11309700000.0 11309700000.0 11309700000.0 11309700000.0 11309700000.0 11309700000.0 11309700000.0 11309700000.0 11309700000.0 11309700000.0 11309700000.0 11309700000.0 11309700000.0 11309700000.0 11309700000.0 11309700000.0 11309700000.0 11309700000.0 11309700000.0 11309700000.0 11309700000.0 11309700000.0 11309700000.0 11309700000.0 11309700000.0 11309700000.0 11309700000.0 11309700000.0 11309700000.0 11309700000.0 11309700000.0 11309700000.0 11309700000.0 11309700000.0 11309700000.0 11309700000.0 11309700000.0 11309700000.0 11309700000.0 11309700000.0 11309700000.0 11309700000.0 11309700000.0 11309700000.0 11309700000.0 11309700000.0 11309700000.0 11309700000.0 11309700000.0 11309700000.0 11309700000.0 11309700000.0 11309700000.0 11309700000.0 11309700000.0 11309700000.0 11309700000.0 11309700000.0 11309700000.0 11309700000.0 11309700000.0 11309700000.0 11309700000.0 11309700000.0 11309700000.0 11309700000.0 11309700000.0 11309700000.0 11309700000.0 11309700000.0 11309700000.0 11309700000.0 11309700000.0 11309700000.0 11309700000.0 11309700000.0 11309700000.0 11309700000.0 11309700000.0 11309700000.0 11309700000.0 11309700000.0 11309700000.0 11309700000.0 11309700000.0 11309700000.0 11309700000.0 11309700000.0 11309700000.0 11309700000.0 11309700000.0 11309700000.0 11309700000.0 11309700000.0 11309700000.0 11309700000.0 11309700000.0 11309700000.0 11309700000.0 11309700000.0 11309700000.0 11309700000.0 11309700000.0 11309700000.0 11309700000.0 11309700000.0 11309700000.0 11309700000.0 11309700000.0 11309700000.0 11309700000.0 11309700000.0 11309700000.0 11309700000.0 11309700000.0 11309700000.0 11309700000.0 11309700000.0 11309700000.0 11309700000.0 11309700000.0 11309700000.0 11309700000.0 11309700000.0 11309700000.0 11309700000.0 11309700000.0 11309700000.0 11309700000.0 11309700000.0 11309700000.0 11309700000.0 11309700000.0 11309700000.0 11309700000.0 11309700000.0 11309700000.0 11309700000.0 11309700000.0 11309700000.0 11309700000.0 11309700000.0 11309700000.0 11309700000.0 11309700000.0 11309700000.0 11309700000.0 11309700000.0 11309700000.0 11309700000.0 11309700000.0 11309700000.0 11309700000.0 11309700000.0 11309700000.0 11309700000.0 11309700000.0 11309700000.0 11309700000.0 11309700000.0 11309700000.0 11309700000.0 11309700000.0 11309700000.0 11309700000.0 11309700000.0 11309700000.0 11309700000.0 11309700000.0 11309700000.0 11309700000.0 11309700000.0 11309700000.0 11309700000.0 11309700000.0 11309700000.0 11309700000.0 11309700000.0 11309700000.0 11309700000.0 11309700000.0 11309700000.0 11309700000.0 11309700000.0 11309700000.0 11309700000.0 11309700000.0 11309700000.0 11309700000.0 11309700000.0 11309700000.0 11309700000.0 11309700000.0 11309700000.0 11309700000.0 11309700000.0 11309700000.0 11309700000.0 11309700000.0 11309700000.0 11309700000.0 11309700000.0 11309700000.0 11309700000.0 11309700000.0 11309700000.0 11309700000.0 11309700000.0 11309700000.0 11309700000.0 11309700000.0 11309700000.0 11309700000.0 11309700000.0 11309700000.0 11309700000.0 11309700000.0 11309700000.0 11309700000.0 11309700000.0 11309700000.0 11309700000.0 11309700000.0 11309700000.0 11309700000.0 11309700000.0 11309700000.0 11309700000.0 11309700000.0 11309700000.0 11309700000.0 11309700000.0 11309700000.0 11309700000.0 11309700000.0 11309700000.0 11309700000.0 11309700000.0 11309700000.0 11309700000.0 11309700000.0 11309700000.0 11309700000.0 11309700000.0 11309700000.0 11309700000.0 11309700000.0 11309700000.0 11309700000.0 11309700000.0 11309700000.0 11309700000.0 11309700000.0 11309700000.0 11309700000.0 11309700000.0 11309700000.0 11309700000.0 11309700000.0 11309700000.0 11309700000.0 11309700000.0 11309700000.0 11309700000.0 11309700000.0 11309700000.0 11309700000.0 11309700000.0 11309700000.0 11309700000.0 11309700000.0 11309700000.0 11309700000.0 11309700000.0 11309700000.0 11309700000.0 11309700000.0 11309700000.0 11309700000.0 11309700000.0 11309700000.0 11309700000.0 11309700000.0 11309700000.0 11309700000.0 11309700000.0 11309700000.0 11309700000.0 11309700000.0 11309700000.0 11309700000.0 11309700000.0 11309700000.0 11309700000.0 11309700000.0 11309700000.0 11309700000.0 11309700000.0 11309700000.0 11309700000.0 11309700000.0 11309700000.0 11309700000.0 11309700000.0 11309700000.0 11309700000.0 11309700000.0 11309700000.0 11309700000.0 11309700000.0 11309700000.0 11309700000.0 11309700000.0 11309700000.0 11309700000.0 11309700000.0 11309700000.0 11309700000.0 11309700000.0 11309700000.0 11309700000.0 11309700000.0 11309700000.0 11309700000.0 11309700000.0 11309700000.0 11309700000.0 11309700000.0 11309700000.0 11309700000.0 11309700000.0 11309700000.0 11309700000.0 11309700000.0 11309700000.0 11309700000.0 11309700000.0 
SCALARS Velocity float 1
LOOKUP_TABLE default
1.07541 1.07399 1.11087 1.07509 1.07312 1.07078 1.06761 1.08827 1.07213 1.07186 1.07006 1.07675 1.07467 1.08878 1.08293 1.08028 1.07738 1.07274 1.06858 1.06665 0.976768 1.00552 1.08955 1.07179 1.06997 1.07808 1.07752 1.07601 1.07558 1.07369 1.11053 1.08914 1.0873 1.08579 1.08017 1.07483 1.07025 1.06751 1.01215 1.01515 1.08989 1.07196 1.06961 1.07038 1.07853 1.07704 1.07418 1.10997 1.0878 1.08315 1.07735 1.07219 1.06954 1.06808 1.06648 1.06703 1.07079 0.996241 1.09134 1.07376 1.07057 1.06855 1.06931 1.07027 1.0785 1.07714 1.09016 1.08609 1.08357 1.08033 1.07725 1.07449 1.07154 1.06712 1.06725 1.06176 1.08697 1.06982 1.06946 1.06999 1.07105 1.07105 1.07971 1.08042 1.07774 1.07841 1.07465 1.10949 1.09163 1.08858 1.08693 1.08049 1.074 1.06867 1.06528 1.06022 1.06649 1.07541 1.06922 1.07084 1.07222 1.08091 1.08032 1.07576 1.1088 1.09013 1.0841 1.07702 1.07068 1.0661 1.06305 1.06054 1.06252 1.0641 1.07033 1.07061 1.07239 1.08167 1.08037 1.09428 1.08794 1.08484 1.08065 1.07667 1.07328 1.06945 1.06746 1.06423 1.06038 1.06053 1.06139 1.06393 1.06351 1.06494 1.06867 1.07059 1.07212 1.07238 1.07438 1.07398 1.08165 1.08244 1.08215 1.08088 1.07849 1.10004 1.09708 1.09214 1.08959 1.08087 1.07229 1.06566 1.06134 1.05976 1.06204 1.06514 1.0708 1.07439 1.07641 1.08195 1.08362 1.09537 1.09605 1.09938 1.09489 1.08592 1.07619 1.06779 1.06221 1.05921 1.05986 1.06275 1.06822 1.07353 1.07699 1.08262 1.09233 1.09784 1.09945 1.09174 1.0812 1.07568 1.07103 1.06582 1.06354 1.05988 1.05936 1.0573 1.05822 1.058 1.0604 1.06164 1.06483 1.06819 1.07147 1.07549 1.07683 1.08032 1.07957 1.08239 1.08387 1.08611 1.09578 1.1015 1.10316 1.09775 1.09409 1.08728 1.08174 1.06955 1.06111 1.057 1.05613 1.05854 1.06415 1.07262 1.08005 1.08357 1.08335 1.087 1.09154 1.09558 1.09961 1.10467 1.10102 1.08898 1.07535 1.06352 1.05728 1.05494 1.05572 1.06007 1.06822 1.07819 1.08459 1.08482 1.09113 1.10034 1.10768 1.0967 1.083 1.07556 1.06787 1.06094 1.05843 1.05463 1.05443 1.05235 1.05361 1.05294 1.05623 1.05781 1.06298 1.06798 1.07423 1.0819 1.08431 1.09002 1.08852 1.08424 1.08569 1.08761 1.09142 1.09534 1.10725 1.1032 1.10228 1.09225 1.08557 1.06597 1.05575 1.05194 1.05076 1.05324 1.06092 1.07636 1.08994 1.09447 1.08505 1.08849 1.09621 1.1009 1.11355 1.03461 1.04095 1.09781 1.07708 1.05821 1.05233 1.04988 1.04982 1.04953 1.05451 1.06692 1.08701 1.09677 1.08664 1.09258 1.10377 1.04753 1.04287 1.09052 1.08161 1.0635 1.0556 1.05352 1.05081 1.04741 1.04771 1.04538 1.04943 1.04981 1.05724 1.06395 1.07928 1.09435 1.0973 1.10477 1.10124 1.0857 1.08749 1.08972 1.09415 1.09812 1.10397 1.11263 1.05153 1.04344 1.05895 1.05264 1.04803 1.04466 1.04493 1.05079 1.0844 1.10676 1.10811 1.08577 1.09069 1.09897 1.10809 1.06505 1.06572 1.05206 1.05206 1.04601 1.05194 1.05521 1.05103 1.04932 1.0459 1.04495 1.04119 1.04078 1.03802 1.04311 1.05675 1.10585 1.11323 1.08466 1.08751 1.09044 1.09477 1.1022 1.0845 1.0647 1.03873 1.05111 1.04669 1.04265 1.03687 1.03219 1.04074 1.03882 1.0975 1.12702 1.11857 1.11888 1.11317 1.08567 1.09423 1.0984 1.09818 1.10237 1.08251 1.04876 1.04858 1.04688 1.04333 1.03944 1.03068 1.02248 1.14567 1.12692 1.11407 1.08175 1.08749 1.09801 1.0978 1.10226 1.0884 1.06768 1.06542 1.0494 1.05036 1.04708 1.0426 1.04286 1.04071 1.04127 1.03987 1.035 1.02578 1.01855 0.996161 0.985269 1.23069 1.14169 1.12608 1.1179 1.1103 1.07741 1.08136 1.08148 1.08958 1.08979 1.09707 1.10119 1.10346 1.08761 1.06297 1.04543 1.03859 1.04117 1.03683 1.00497 0.955713 1.1776 1.14641 1.11035 1.0755 1.08136 1.08986 1.10774 1.10517 1.11066 1.0883 1.08218 1.05671 1.03844 1.03754 1.04428 1.02632 0.959833 0.955615 1.26942 1.18931 1.11591 1.1053 1.0725 1.06972 1.07402 1.0721 1.08051 1.09565 1.1007 1.10947 1.1199 1.1182 1.06882 1.04563 1.03532 1.03366 1.03423 1.0407 1.04738 1.04911 1.0551 0.995499 0.911239 1.32321 1.12929 1.1079 1.10347 1.10394 1.06848 1.06769 1.06981 1.08111 1.08201 1.10702 1.13163 1.11047 1.05256 1.03017 1.04008 1.05546 1.05891 0.254347 1.36358 1.17436 1.12953 1.10426 1.06575 1.06542 1.0674 1.08085 1.12153 1.15641 1.14654 1.0929 1.06777 1.03771 1.03228 1.04896 1.05889 0.989135 1.20358 1.11756 1.10809 1.06649 1.06497 1.06426 1.0633 1.06213 1.05647 1.06284 1.05801 1.08543 1.09342 1.138 1.19913 1.11685 1.04593 1.0299 1.0354 1.04142 1.05115 1.05507 1.04492 1.02543 1.0335 1.12048 1.2605 1.19338 1.15545 1.13521 1.11445 1.1171 1.06712 1.06573 1.06157 1.04732 1.05492 1.02071 1.12857 1.17485 1.08757 1.04029 1.04728 1.05341 1.04407 1.10731 1.18711 1.15909 1.1277 1.07055 1.06802 1.0722 1.06777 1.06994 1.05714 1.04919 1.03873 1.02701 0.999912 1.26595 1.2518 1.15277 1.16452 1.08088 1.06846 1.04757 1.0572 1.0557 1.06579 1.14746 1.16786 1.1512 1.14239 1.13567 1.12685 1.07428 1.07911 1.0714 1.04062 1.0221 1.09071 1.16208 1.04888 1.29494 1.16274 1.07092 1.06008 1.07213 1.06449 1.07209 1.06548 1.08212 1.10397 1.14693 1.14219 1.13342 1.07641 1.08251 1.08825 1.06457 1.05249 1.03294 1.0617 1.11904 0.881276 1.33088 1.11696 1.08245 1.08124 1.08005 1.10118 1.12684 1.13169 1.14188 1.13847 1.08483 1.08254 1.09462 1.09596 1.1154 1.09632 1.08169 1.05567 1.07022 0.944752 0.761404 0.714709 0.616634 1.3068 1.20616 1.10292 1.09374 1.08498 1.08808 1.11332 1.13331 1.13916 1.13818 1.13635 1.09097 1.11667 1.13141 1.06049 1.03022 1.04463 0.998649 1.00654 0.870733 0.652629 0.682355 1.14557 1.11416 1.11077 1.09484 1.09105 1.08621 1.08589 1.09495 1.1189 1.13531 1.13628 1.0966 1.09895 1.10526 1.14416 1.15784 1.17684 1.0869 1.02268 0.989311 0.93289 0.770933 0.665462 0.935702 1.12999 1.10091 1.08544 1.08477 1.10014 1.10631 1.12494 1.13032 1.13561 1.1312 0.893832 1.11675 1.1181 1.23828 1.04927 0.965986 0.950683 0.911468 0.85929 0.823517 0.741065 0.806698 0.818684 0.986754 1.0784 1.09954 1.11351 1.09019 1.07848 1.0868 1.11717 1.12878 1.16246 1.11088 1.1006 1.19393 1.3299 1.20527 1.00376 0.943624 0.946653 0.952474 0.936534 0.883664 0.843486 0.919786 1.05907 1.09804 1.09889 1.08696 1.07995 1.06959 1.07215 1.07271 1.09519 1.1108 1.12528 1.11759 1.11845 1.16436 1.16351 1.07612 1.0693 1.32152 0.956488 0.949886 0.924801 0.887489 0.90981 1.01438 1.08227 1.09102 1.07684 1.05952 1.08438 1.11993 1.09365 0.893832 1.23271 1.23978 1.18889 1.03207 1.05432 0.964871 0.978192 0.952537 0.954426 0.92499 0.946157 0.924503 0.975672 0.982352 1.03543 1.05872 1.08873 1.09169 1.08461 1.0736 1.05915 1.03757 1.05399 1.06903 1.10369 1.11264 1.10173 1.05334 1.29875 1.28645 1.24075 1.19482 0.863628 0.533318 0.513354 0.973797 1.00033 0.979868 0.967347 0.981649 1.02044 1.06334 1.07899 1.08875 1.09293 1.04322 1.02824 1.08822 1.07157 1.30339 1.24063 1.17606 1.18642 0.557035 0.857227 1.00288 0.985578 0.992396 1.01699 1.05002 1.07694 1.09368 1.0733 1.02656 1.04317 1.05886 1.08038 1.08817 1.00025 0.97263 1.29296 1.07803 1.13725 0.757511 0.776848 0.728646 0.899407 0.957257 0.98787 1.00162 1.01194 1.00305 1.02531 1.01996 1.04216 1.06503 1.0716 1.08261 1.08308 1.08579 1.05059 1.04634 1.05968 1.08561 1.05185 0.850093 0.893832 1.23334 1.18155 1.11721 0.362107 0.696936 0.866078 0.960696 1.00738 1.02987 1.04347 1.0408 1.05028 1.05496 1.05804 1.07361 1.06812 1.04605 1.07696 1.1081 1.10469 1.08296 0.938183 0.700594 0.130633 0.521318 0.93387 1.28481 1.2478 0.807283 0.534749 0.83228 0.940751 0.990933 1.02807 1.04713 1.05046 1.04904 1.05623 1.06556 1.03781 1.05028 1.05512 1.06207 1.08681 1.15631 1.09379 0.970808 0.880166 0.6029 0.287741 1.03394 1.38157 1.16181 1.34343 0.950435 0.724225 0.781876 0.864217 0.906011 0.94492 0.972672 1.0019 1.01735 1.04272 1.04762 1.05356 1.04484 1.03069 1.04088 1.03224 1.05155 1.0358 1.02722 1.10223 1.14624 1.15569 1.1617 0.980756 0.78508 0.672183 0.746132 0.563412 0.447719 1.03666 1.20539 1.05478 0.963476 1.12727 0.881963 0.714499 0.838401 0.907743 0.977097 1.03228 1.05665 1.05609 1.04712 1.04442 1.02481 1.01547 1.00184 1.02225 1.0194 0.977848 1.0263 1.19631 1.16889 1.17125 1.0701 0.956999 0.956961 0.833843 0.841036 0.759702 0.56571 0.963725 1.01688 0.840112 1.21128 0.842415 0.760204 0.805255 0.878731 0.939682 1.01393 1.05762 1.05022 1.02324 1.00301 0.983751 0.991571 1.01411 1.00981 0.946781 1.2941 1.16261 1.08369 1.01007 1.01823 0.926732 0.769045 0.759865 0.872027 0.57823 0.674818 0.771889 0.84535 0.756545 0.779241 1.38938 1.0714 0.914665 0.837202 0.821431 0.84881 0.853952 0.873263 0.901165 0.932579 0.979374 1.03911 1.05113 1.07198 1.0576 1.02497 0.992769 0.966439 0.971304 0.990631 1.01831 0.770376 1.28075 1.18456 1.06349 1.04204 0.935901 0.969096 0.955199 0.883075 0.76184 0.771908 0.90681 0.819673 0.526527 0.575081 0.637059 0.728295 0.741495 0.324299 1.36362 0.92687 0.854024 0.836238 0.854442 0.847333 0.855627 0.892452 0.990418 1.07247 1.04255 1.0276 0.978133 0.98613 0.935281 0.950411 0.930544 0.951805 0.945321 0.966754 0.964223 0.996679 0.996863 0.991384 0.894613 0.622118 1.0419 0.919912 0.914929 0.98358 0.942071 0.961699 0.909963 0.764184 0.695801 0.888128 0.786338 0.434077 0.583081 0.652 0.6903 0.781102 0.624857 0.546499 0.0686992 1.26179 0.876998 0.770177 0.7929 0.840514 0.84651 0.854216 0.865854 0.924685 1.0805 1.06551 0.973426 0.916291 0.910441 0.923106 0.94275 0.962535 0.968127 0.801423 0.95539 0.737743 0.851912 0.905193 0.980393 0.974372 0.733461 0.896929 0.902988 0.844972 0.745753 0.654865 0.607021 0.535634 0.427927 0.455695 0.56125 0.745255 0.686356 0.460388 0.847082 0.994027 0.844386 0.804136 0.828164 0.846137 0.849051 0.832108 0.895029 1.00722 1.1559 1.06901 1.00174 0.989292 0.902988 0.909848 0.857743 0.88512 0.878391 0.901272 0.92142 0.942589 0.944888 0.91978 0.93817 0.919376 1.13779 0.8058 0.886377 0.776136 0.845152 1.02869 0.87266 0.54254 0.713192 0.721026 0.66544 0.692636 0.525207 0.496705 0.441661 0.618633 0.405991 0.458383 0.784738 0.687386 0.626964 0.483209 0.444546 0.661205 1.00228 0.947827 0.860495 0.838983 0.84816 0.846181 0.860037 1.04885 1.05608 0.814592 0.84945 0.851886 0.876772 0.898722 0.901071 0.923474 0.92522 0.936247 0.923588 0.84488 0.7371 1.02399 0.81688 0.672375 0.984088 1.19881 1.36159 0.305858 0.600529 0.56377 0.535419 0.544099 0.316554 0.383756 0.390083 0.388104 0.52359 0.505431 1.0676 0.58751 0.487799 0.652833 1.01886 0.80771 0.807367 0.82983 0.849005 0.84095 0.978002 0.949278 1.3283 1.33671 0.734384 0.823614 0.829766 0.852339 0.878009 0.904827 0.924673 0.907965 0.892851 0.948127 0.219054 0.415827 0.540472 0.557323 0.698768 0.703239 0.775464 0.765622 0.290084 0.469657 0.378408 0.512446 0.321308 0.224556 0.336661 0.386058 0.36531 0.374666 0.364987 0.432707 0.148311 0.671248 0.913608 0.64946 0.498611 0.540914 0.688526 0.816975 0.852915 0.805182 0.792059 0.812474 0.835871 0.818436 0.847528 1.23107 1.28419 0.62374 1.13517 0.930736 0.779105 0.78994 0.815489 0.818778 0.831253 0.832542 0.854501 0.857291 0.880924 0.886477 0.91049 0.917259 0.925082 0.93085 0.717762 0.400151 0.492122 0.527742 0.6111 0.660537 0.690894 0.665037 0.529626 0.392951 0.384595 0.3817 0.533993 0.246729 0.313211 0.335862 0.35885 0.357731 0.360989 0.367158 0.374222 0.214285 0.493572 0.528182 0.434795 0.412295 0.422163 0.587766 0.734034 0.838456 0.818728 0.779135 0.758404 0.773726 0.79889 0.471237 0.157501 0.251108 0.826738 0.840802 0.792401 0.814649 0.833008 0.862311 0.892917 0.917045 0.987213 0.821698 0.696871 0.5109 0.549241 0.572924 0.623546 0.684334 0.75309 0.644236 0.597635 0.590543 0.363246 0.399148 0.386663 0.329657 0.355583 0.377992 0.39368 0.337962 0.349855 0.352657 0.364416 0.297141 0.379308 0.417232 0.61271 0.872948 0.544979 0.509767 0.491879 0.571272 0.718915 0.925174 0.859671 0.793909 0.689014 0.678944 0.635181 0.93904 0.0816934 0.268032 0.610306 0.799003 0.768039 0.804528 0.797695 0.811925 0.834773 0.871335 0.89022 0.852568 0.945846 1.01756 0.851376 0.713206 0.570222 0.635766 0.723468 0.76533 0.705851 0.687207 0.462836 0.321969 0.351531 0.269169 0.329597 0.372203 0.409157 0.474134 0.452885 0.320718 0.345717 0.36426 0.362248 0.364484 0.340166 0.348641 0.513691 0.754342 0.611247 0.511878 0.535411 0.673244 1.05684 0.96445 0.844605 0.725837 0.591211 0.581174 0.529277 0.654529 0.531612 0.324445 0.342058 0.649899 0.755777 0.791824 0.778197 0.794893 0.787346 0.808954 0.807857 0.841733 0.855709 0.884377 0.894177 0.798265 0.866793 0.360826 0.509658 0.594298 0.608281 0.632645 0.702352 0.719661 0.726953 0.703925 0.698336 0.479537 0.448905 0.437315 0.459362 0.329912 0.30086 0.348696 0.418516 0.432713 0.417871 0.294464 0.301697 0.333246 0.360453 0.384965 0.414534 0.362748 0.375981 0.393415 0.596274 0.649239 0.732472 0.61703 0.551259 0.64473 0.709758 1.14701 1.10418 0.860291 0.694191 0.60403 0.548046 0.548997 0.580492 0.581213 0.573301 0.413587 0.537737 0.672488 0.748117 0.768951 0.779301 0.81331 0.890039 0.812128 0.827615 0.704758 0.48726 0.615538 0.618898 0.650265 0.694601 0.702735 0.703306 0.729629 0.72302 0.691801 0.614907 0.529644 0.553002 0.452786 0.482207 0.5082 0.318532 0.391843 0.417485 0.411221 0.408184 0.24526 0.266428 0.263669 0.321989 0.348262 0.394291 0.442552 0.445454 0.460511 0.726921 0.713109 0.661237 0.606612 0.71324 0.747801 0.663245 0.554959 0.534533 0.561337 0.571974 0.56501 0.593386 0.600292 0.464652 0.514339 0.58449 0.621584 0.691895 0.699367 0.742271 0.760336 0.774082 0.771896 0.831009 0.90022 0.94198 0.761681 0.729164 0.566681 0.617788 0.649424 0.684006 0.694763 0.703541 0.701069 0.709626 0.718664 0.668618 0.620439 0.613421 0.553435 0.51135 0.433877 0.477147 0.436927 0.333079 0.351848 0.368268 0.347513 0.229553 0.235187 0.224199 0.268765 0.288668 0.381343 0.488672 0.509274 0.484099 0.648751 0.726437 0.737214 0.579272 0.695153 0.773496 0.862651 1.14186 1.45533 0.787689 0.615593 0.566423 0.557045 0.577226 0.586147 0.601291 0.547276 0.483803 0.55923 0.649355 0.703551 0.738121 0.735364 0.754269 0.751673 0.776687 1.06704 0.829575 0.842104 0.64696 0.557614 0.598629 0.638422 0.667863 0.684259 0.694767 0.704576 0.699313 0.697253 0.74535 0.585467 0.65269 0.728841 0.868381 0.595479 0.267475 0.322418 0.309909 0.331523 0.317026 0.216413 0.216571 0.220477 0.206887 0.185492 0.220143 0.235745 0.314462 0.346255 0.417815 0.422091 0.445207 0.433906 0.577666 0.564614 0.588985 0.65777 0.466558 0.580573 0.238964 0.784445 0.653711 0.60602 0.596292 0.58659 0.585268 0.595604 0.57902 0.546795 0.531695 0.555883 0.597442 0.664291 0.708702 0.738856 0.756539 0.911676 0.606029 0.717114 0.650341 0.603826 0.623366 0.64549 0.661443 0.674603 0.705302 0.727595 0.719192 0.713161 0.86152 0.730619 0.726851 0.69493 1.04826 0.857467 0.27399 0.216477 0.250421 0.272336 0.344439 0.37848 0.386456 0.347027 0.216452 0.215765 0.213592 0.199712 0.155647 0.271446 0.356059 0.319741 0.34214 0.212151 0.476918 0.519865 0.644868 0.543439 0.639681 0.573504 0.434354 0.121748 0.478375 0.714445 0.617043 0.6283 0.61654 0.604601 0.592743 0.590869 0.577199 0.567743 0.59133 0.624995 0.643438 0.675503 0.686643 0.714401 0.7273 0.746331 0.770435 0.772894 0.442239 0.725998 0.732038 0.669046 0.632698 0.613952 0.621889 0.693528 0.712934 0.770838 0.688165 0.511041 0.68332 0.238816 0.438245 0.579714 0.683509 1.23426 0.299169 0.249287 0.181913 0.126671 0.264155 0.413694 0.372768 0.362649 0.353626 0.260315 0.229053 0.2274 0.245619 0.225514 0.223441 0.20805 0.156215 0.0761077 0.17484 0.244948 0.302161 0.295852 0.231288 0.262254 0.145411 0.456361 0.615631 0.611048 0.504389 0.247845 0.321897 0.230029 0.461443 0.548383 0.656852 0.637773 0.617214 0.602701 0.595585 0.594039 0.58705 0.59145 0.551757 0.620093 0.656395 0.696278 0.734546 0.732098 0.564176 0.648325 0.653053 0.625879 0.609498 0.600413 0.631208 0.641264 0.653396 0.673364 0.716521 0.880966 0.739329 0.598276 0.531645 0.254029 0.39268 0.388269 0.374 0.739391 0.319009 0.260427 0.140911 0.120514 0.086905 0.227031 0.346895 0.38945 0.376909 0.36599 0.355055 0.252691 0.268939 0.305112 0.246526 0.230039 0.163931 0.0863011 0.124124 0.245153 0.309529 0.301001 0.266907 0.251541 0.26178 0.40089 0.553934 0.282431 0.270482 0.420143 0.600534 0.63069 0.6191 0.604117 0.595599 0.59131 0.588056 0.583439 0.581376 0.600961 0.61792 0.63351 0.673892 0.713779 0.7371 0.592515 0.523267 0.573963 0.607125 0.607608 0.59457 0.599445 0.597801 0.594426 0.600695 0.632804 0.726616 1.02234 0.995377 0.876213 0.602583 0.36192 0.437007 0.468658 0.558487 0.449305 0.327055 0.1359 0.128658 0.176622 0.301341 0.422937 0.368424 0.355633 0.325267 0.324323 0.262661 0.248059 0.23981 0.172545 0.111253 0.30035 0.229059 0.199578 0.226255 0.239106 0.130505 0.322349 0.302331 0.292109 0.353661 0.37201 0.54253 0.620013 0.558171 0.41472 0.402091 0.481176 0.605446 0.599128 0.591978 0.589311 0.588317 0.586795 0.588679 0.599145 0.62148 0.602263 0.679176 0.643611 0.667597 0.682263 0.715619 0.682987 0.644023 0.594904 0.564531 0.575915 0.583666 0.585833 0.577542 0.569874 0.565543 0.564988 0.578594 0.589776 0.48623 0.836898 0.395628 0.210013 0.365837 0.393632 0.482913 0.48371 0.504293 0.483303 0.313528 0.305344 0.309952 0.411071 0.404094 0.322212 0.295431 0.285759 0.26944 0.261873 0.24824 0.19934 0.162334 0.0491103 0.0831939 0.268213 0.343153 0.157328 0.17292 0.266654 0.351811 0.271648 0.314794 0.417671 0.400087 0.559445 0.603076 0.582728 0.489916 0.401204 0.370117 0.587572 0.585623 0.584436 0.587559 0.590785 0.594576 0.602881 0.617337 0.619727 0.616019 0.636561 0.650697 0.646719 0.572687 0.604424 0.586522 0.57182 0.569929 0.580094 0.572354 0.565207 0.556803 0.549308 0.545441 0.561826 0.58803 0.588554 0.933401 0.292734 0.368144 0.440615 0.499866 0.594153 0.54749 0.510832 0.324369 0.475802 0.483912 0.305514 0.391711 0.397833 0.36489 0.332472 0.287766 0.292709 0.260902 0.278122 0.229244 0.248913 0.243614 0.217216 0.167713 0.126386 0.145255 0.133249 0.192491 0.177032 0.346956 0.100009 0.341042 0.255268 0.386717 0.452564 0.44126 0.491393 0.582845 0.56987 0.528607 0.478258 0.45551 0.446251 0.465577 0.514102 0.572771 0.585455 0.591896 0.598146 0.604535 0.613701 0.621105 0.62302 0.593822 0.673665 0.61431 0.661249 0.617813 0.628683 0.6029 0.580215 0.587568 0.567848 0.563794 0.558255 0.551236 0.548714 0.555067 0.577852 0.614134 0.653492 0.191175 0.32628 0.386776 0.579763 0.766068 0.467725 0.717118 0.795209 0.473201 0.445222 0.380068 0.292498 0.277135 0.274205 0.246569 0.294458 0.170304 0.242871 0.218357 0.221529 0.160032 0.101506 0.113852 0.16639 0.326716 0.537501 0.53 0.200564 0.325776 0.467059 0.255106 0.438937 0.470268 0.496356 0.530548 0.543504 0.558298 0.545197 0.52094 0.498559 0.48773 0.484661 0.499029 0.531087 0.563146 0.575319 0.581466 0.586236 0.611423 0.617454 0.619933 0.608789 0.596571 0.636391 0.634533 0.630832 0.618707 0.606797 0.591579 0.578448 0.569083 0.563622 0.55907 0.554844 0.549669 0.54606 0.551816 0.575651 0.619993 0.785632 0.746973 0.289714 0.300376 0.407427 0.234165 0.0925496 0.252353 0.733315 0.930379 1.15001 0.987616 0.272773 0.423944 0.439033 0.225272 0.207894 0.272719 0.261002 0.25647 0.272682 0.288587 0.28567 0.285548 0.113725 0.208259 0.220414 0.212704 0.150576 0.0594814 0.0569424 0.0381385 0.13552 0.231209 0.398421 0.707024 0.808917 0.445448 0.658731 0.558092 0.48887 0.678363 0.569926 0.542856 0.541823 0.544492 0.54536 0.541631 0.532754 0.519697 0.510126 0.504659 0.506964 0.521721 0.542292 0.564645 0.579181 0.586869 0.592306 0.597313 0.603372 0.58081 0.579256 0.57228 0.565023 0.559552 0.556535 0.554411 0.551894 0.554625 0.66381 0.721553 0.689159 0.476832 0.364671 0.348193 0.374488 0.233387 0.235433 0.429958 0.833214 0.590241 0.853098 0.6548 0.562709 0.0722267 0.12559 0.212921 0.230762 0.254012 0.293278 0.261618 0.0453705 0.065105 0.169355 0.196916 0.159312 0.086785 0.122891 0.228053 0.281371 0.209579 0.264849 0.331536 1.15135 1.21146 0.975188 0.731689 0.735873 0.586241 0.559984 0.541722 0.535258 0.537828 0.537018 0.531293 0.526025 0.51901 0.5147 0.519044 0.526204 0.54072 0.560679 0.577321 0.586711 0.591983 0.596925 0.601604 0.607658 0.613626 0.616371 0.612434 0.606301 0.614961 0.63191 0.625574 0.620298 0.607481 0.596228 0.586224 0.578851 0.574194 0.568423 0.562883 0.559282 0.557911 0.558521 0.571124 0.609253 0.650816 0.691305 0.671073 0.556778 0.447552 0.448575 0.408133 0.33606 0.239508 0.334554 0.42906 0.883175 0.3084 0.571905 0.882286 0.649652 0.502998 0.196988 0.170016 0.202746 0.229117 0.249551 0.283081 0.19197 0.094233 0.0612202 0.172745 0.195997 0.187927 0.110182 0.143694 0.232183 0.319952 0.299093 0.342187 0.526236 0.943349 1.44877 1.01683 0.791637 0.683569 0.626561 0.564397 0.53946 0.527235 0.524853 0.533184 0.548358 0.565601 0.579024 0.586656 0.592474 0.596246 0.600621 0.605215 0.609531 0.61308 0.613439 0.611199 0.613168 0.619797 0.623444 0.618167 0.610109 0.599503 0.590468 0.582757 0.576521 0.571434 0.566887 0.564179 0.562443 0.573235 0.598556 0.634539 0.667961 0.66495 0.612178 0.547903 0.481721 0.431707 0.157856 0.0525137 0.40639 1.01148 0.877005 0.731315 0.584267 0.65836 0.602339 0.570133 0.385111 0.18373 0.165897 0.184063 0.22006 0.264887 0.262874 0.233485 0.204559 0.172892 0.126576 0.0524041 0.0764508 0.19768 0.145498 0.188963 0.252381 0.298639 0.320998 0.303138 0.365274 0.458844 0.574121 0.511446 0.497687 0.538179 0.547855 0.527051 0.52862 0.527431 0.523574 0.518562 0.520353 0.577376 0.58505 0.590224 0.593523 0.596433 0.599673 0.603436 0.607221 0.610607 0.612601 0.612923 0.613634 0.61577 0.617898 0.616927 0.610883 0.603032 0.594527 0.587112 0.580543 0.575185 0.563564 0.56468 0.568619 0.578157 0.595472 0.620293 0.645656 0.652821 0.637178 0.601666 0.54958 0.505825 0.349879 0.25613 0.388981 1.05752 0.729169 0.606866 0.531762 0.557175 0.481425 0.410197 0.24227 0.252051 0.174216 0.16156 0.183132 0.202743 0.236818 0.28145 0.234675 0.17961 0.120682 0.190321 0.207233 0.205943 0.145764 0.208659 0.210561 0.164376 0.133811 0.230435 0.288891 0.297459 0.300251 0.251361 0.13811 1.7632 0.524548 0.515002 0.5122 0.515636 0.521032 0.524911 0.525422 0.524482 0.52362 0.526588 0.55309 0.599215 0.602202 0.605707 0.60909 0.611512 0.612845 0.613793 0.614749 0.615362 0.614621 0.611432 0.605309 0.598406 0.571046 0.56819 0.567651 0.569743 0.57478 0.584341 0.598051 0.614983 0.632061 0.640303 0.63387 0.61428 0.583852 0.545612 0.488784 0.263869 1.00404 0.631286 0.41549 0.353546 0.475746 0.29339 0.188371 0.163616 0.196181 0.170206 0.162102 0.218103 0.257021 0.302985 0.282166 0.199036 0.138934 0.0908369 0.00517377 0.0689438 0.162742 0.207786 0.210156 0.184231 0.197961 0.249055 0.253199 0.273856 0.241964 0.23333 0.290317 0.253472 0.21558 0.256856 0.204384 0.425609 1.18551 0.737262 0.565398 0.485251 0.489635 0.496636 0.494859 0.498361 0.504894 0.512499 0.51959 0.524794 0.528119 0.529843 0.531936 0.536385 0.589562 0.5975 0.596676 0.596067 0.597063 0.59142 0.58496 0.579778 0.575671 0.572503 0.57133 0.573042 0.577519 0.585794 0.598904 0.614109 0.626678 0.632744 0.629676 0.615314 0.590034 0.561735 0.506923 0.401638 0.359401 0.553625 0.762979 0.504198 0.28224 0.343683 0.416619 0.396811 0.206899 0.177234 0.191721 0.192629 0.220618 0.243925 0.300026 0.312385 0.139699 0.195854 0.0469011 0.0813958 0.159441 0.156025 0.167441 0.205084 0.171546 0.27822 0.339273 0.326364 0.204656 0.270335 0.259989 0.245694 0.20394 0.0874098 0.255398 0.62495 0.942027 0.709464 0.495807 0.453177 0.463352 0.473017 0.481975 0.49327 0.504318 0.513922 0.522111 0.528839 0.533727 0.537613 0.540319 0.532389 0.613482 0.607047 0.600767 0.598368 0.599369 0.601812 0.605019 0.608164 0.610715 0.612496 0.613685 0.614422 0.614634 0.613875 0.611379 0.60699 0.601512 0.595415 0.58946 0.584365 0.580117 0.577173 0.57587 0.576682 0.580208 0.58633 0.595929 0.608256 0.62051 0.627473 0.43301 0.39322 0.326389 0.604948 0.635459 0.444308 0.361493 0.361761 0.333553 0.270034 0.221694 0.221993 0.22183 0.220634 0.281392 0.28463 0.373851 0.338162 0.110134 0.162331 0.116915 0.207562 0.190014 0.160807 0.200563 0.248824 0.185087 0.341121 0.348304 0.398742 0.292146 0.283546 0.267735 0.2456 0.269914 0.288285 0.468291 0.645115 0.771768 0.609954 0.463764 0.438607 0.448248 0.464376 0.480375 0.495339 0.508193 0.518892 0.527699 0.535071 0.540895 0.544694 0.543132 0.627837 0.609866 0.60195 0.600541 0.60255 0.605623 0.608492 0.6108 0.612546 0.613863 0.614586 0.614668 0.61399 0.612016 0.608555 0.604019 0.598952 0.593969 0.589039 0.584631 0.5816 0.580261 0.580583 0.582857 0.587453 0.625149 0.613628 0.595602 0.566072 0.526376 0.400787 0.4868 0.542379 0.447095 0.384529 0.336108 0.292752 0.247734 0.247699 0.247071 0.245559 0.263338 0.417285 0.4044 0.543755 0.199362 0.184928 0.0496693 1.23176 0.36323 0.362956 0.209013 0.156701 0.146649 0.152828 0.19689 0.300473 0.326085 0.447374 0.415573 0.413281 0.32945 0.322866 0.333573 0.234241 0.209494 0.434261 0.528002 0.619329 0.66597 0.532446 0.44441 0.431795 0.446147 0.4669 0.485612 0.501887 0.534587 0.632479 0.610445 0.604165 0.604906 0.607886 0.610559 0.612435 0.613728 0.614671 0.615283 0.615325 0.614646 0.613013 0.610323 0.60656 0.602209 0.597864 0.593615 0.5896 0.586389 0.584587 0.594495 0.603278 0.612288 0.61846 0.618944 0.610738 0.595497 0.569227 0.541937 0.489217 0.434596 0.480188 0.585323 0.609006 0.496789 0.437369 0.375172 0.330278 0.296304 0.25916 0.266213 0.276559 0.291824 0.487987 0.510747 0.360315 0.272183 0.187269 1.00998 0.540117 0.367123 0.434499 0.223246 0.203503 0.173922 0.196639 0.162703 0.274318 0.391724 0.35416 0.350475 0.490988 0.492466 0.338285 0.337712 0.321408 0.310305 0.241195 0.384911 0.515151 0.607212 0.608596 0.586589 0.483972 0.434828 0.515488 0.52641 0.535209 0.542281 0.547524 0.549837 0.548184 0.540582 0.630682 0.612092 0.609262 0.612242 0.614907 0.61589 0.616334 0.616606 0.616709 0.616519 0.61579 0.614393 0.612212 0.609158 0.60546 0.584224 0.585369 0.588422 0.593429 0.599816 0.606457 0.611268 0.611834 0.605955 0.594304 0.574431 0.546495 0.514643 0.475454 0.480679 0.497954 0.53593 0.561227 0.546071 0.419365 0.375854 0.340859 0.304337 0.284516 0.269404 0.266624 0.272629 0.498644 0.503896 0.53145 0.586132 0.459232 0.481294 0.55527 0.659056 0.793781 0.546146 0.409626 0.455088 0.457686 0.477514 0.23984 0.240157 0.224725 0.196954 0.20748 0.342584 0.621098 0.722952 0.526702 0.541309 0.680673 0.518924 0.185923 0.357862 0.414698 0.510627 0.580226 0.609031 0.434618 0.454474 0.476499 0.495368 0.511779 0.525176 0.535397 0.543295 0.549446 0.553627 0.555792 0.555143 0.550722 0.625208 0.601513 0.597723 0.594282 0.591261 0.589032 0.588094 0.588425 0.589999 0.593043 0.597326 0.601803 0.605407 0.606351 0.602969 0.593502 0.578278 0.556416 0.533147 0.496496 0.491494 0.494444 0.531223 0.544017 0.526753 0.511637 0.47195 0.384298 0.351416 0.320556 0.298315 0.279882 0.260436 0.530491 0.565564 0.446083 0.538977 0.588433 0.650415 0.675838 0.578254 0.456504 0.22826 0.224248 0.245013 0.200024 0.305419 0.539106 0.794231 0.735498 0.69143 0.42587 0.178018 0.359672 0.133063 0.345264 0.449529 0.523884 0.568235 0.572447 0.524313 0.457746 0.435476 0.446313 0.468262 0.489676 0.50812 0.523715 0.535857 0.544741 0.551317 0.556209 0.559806 0.562374 0.563182 0.564547 0.614709 0.619072 0.621533 0.621681 0.620661 0.619773 0.619124 0.618428 0.617496 0.616152 0.614284 0.611794 0.608692 0.605172 0.601648 0.598508 0.595812 0.593509 0.591905 0.591487 0.592328 0.594145 0.596684 0.599357 0.601549 0.601916 0.599738 0.593238 0.581726 0.565936 0.548696 0.526268 0.509006 0.502979 0.524948 0.535425 0.533763 0.514931 0.489383 0.450166 0.413815 0.361833 0.339975 0.330461 0.255838 0.540492 0.505349 0.518623 0.419881 0.469415 0.606225 0.643599 0.698923 0.690561 0.235602 0.270304 0.301265 0.507656 0.69192 1.11072 0.90493 0.588756 0.234091 0.400744 0.471849 0.430971 0.496283 0.501702 0.575829 0.564374 0.530973 0.480765 0.446851 0.445828 0.463232 0.485218 0.505342 0.522212 0.53614 0.546632 0.553944 0.559118 0.562834 0.565352 0.615531 0.626884 0.629927 0.629419 0.626895 0.624371 0.622598 0.621246 0.619918 0.618421 0.616627 0.614446 0.61183 0.608801 0.605571 0.602509 0.599906 0.597752 0.596006 0.594899 0.594746 0.59562 0.597307 0.599134 0.600279 0.544028 0.52976 0.526979 0.529755 0.532087 0.532106 0.520768 0.499521 0.470821 0.437726 0.421805 0.39186 0.381953 0.368441 0.349158 0.298794 0.542079 0.506121 0.501003 0.514907 0.318714 0.57484 0.58136 0.632929 0.705015 0.289413 0.442856 0.677057 0.841486 0.942284 0.854742 0.368201 0.464366 0.398289 0.498959 0.535794 0.526699 0.554454 0.567149 0.559474 0.522378 0.486092 0.458142 0.452304 0.463632 0.482829 0.503694 0.521859 0.536687 0.548671 0.566549 0.568183 0.579275 0.627567 0.636329 0.63696 0.634004 0.630317 0.627233 0.624985 0.623138 0.621334 0.619398 0.61726 0.614881 0.612248 0.609392 0.606478 0.603819 0.601635 0.599917 0.600157 0.598407 0.593613 0.584732 0.5733 0.558916 0.522764 0.505063 0.4834 0.458586 0.446908 0.426862 0.404925 0.391565 0.429151 0.481704 0.475405 0.385063 0.394681 0.536665 0.383521 0.787592 0.823029 0.93187 0.812903 0.593619 0.631375 0.349872 0.664942 0.557193 0.556359 0.537255 0.510992 0.479051 0.464105 0.461463 0.469186 0.484074 0.557373 0.563017 0.566536 0.568182 0.568223 0.568773 0.575623 0.61011 0.64055 0.643045 0.639943 0.636317 0.632782 0.629719 0.6272 0.624945 0.622727 0.598636 0.59792 0.597895 0.598515 0.599596 0.600575 0.600541 0.598818 0.595187 0.589054 0.580159 0.568441 0.557259 0.545 0.541261 0.541211 0.539004 0.53263 0.490822 0.472203 0.47478 0.453784 0.436451 0.417196 0.399135 0.522262 0.494089 0.478843 0.419843 0.33747 0.367076 0.516454 0.773555 0.753366 0.811687 0.894125 0.983281 0.573337 0.541984 0.537439 0.518482 0.497713 0.476639 0.46752 0.503201 0.522419 0.538296 0.550965 0.560981 0.567811 0.571614 0.573288 0.573405 0.572345 0.572923 0.585216 0.641799 0.620431 0.618033 0.615547 0.61297 0.610321 0.607716 0.605406 0.603592 0.60228 0.601386 0.600943 0.600951 0.601256 0.601602 0.601628 0.600653 0.597961 0.593172 0.586444 0.577858 0.568195 0.558681 0.552722 0.547316 0.543082 0.536784 0.524621 0.508841 0.495382 0.478495 0.462854 0.445791 0.432553 0.424355 0.439698 0.549682 0.470076 0.465046 0.370853 0.373134 0.725358 0.813597 0.813691 0.679715 0.995183 0.438023 0.674943 0.65343 0.60146 0.543126 0.512681 0.498425 0.469015 0.475937 0.488277 0.504854 0.523483 0.540669 0.554271 0.564902 0.572962 0.57788 0.57992 0.580184 0.579735 0.579071 0.58159 0.593597 0.648003 0.646614 0.642677 0.638768 0.635318 0.632228 0.629371 0.626682 0.624081 0.621486 0.6189 0.616371 0.613898 0.611474 0.609205 0.607276 0.605823 0.604871 0.604327 0.604088 0.604048 0.604016 0.603773 0.602951 0.60112 0.597907 0.59291 0.586413 0.578575 0.570791 0.563427 0.556492 0.548916 0.539993 0.528845 0.513924 0.497466 0.483105 0.470565 0.463843 0.457426 0.463464 0.520627 0.603112 0.457482 0.472838 0.448663 0.355078 0.658108 0.773829 0.732669 0.70639 0.64587 0.509833 0.864976 0.835185 0.840747 0.646061 0.5871 0.537458 0.483032 0.472472 0.475207 0.482396 0.492696 0.50748 0.52532 0.543037 0.558098 0.56953 0.578225 0.584371 0.587546 0.588287 0.587777 0.587419 0.659802 0.655702 0.651339 0.646338 0.642208 0.638463 0.634839 0.631447 0.628306 0.625326 0.622476 0.619783 0.617284 0.614975 0.612857 0.611031 0.609571 0.608499 0.607861 0.607587 0.607471 0.607329 0.606997 0.606227 0.60476 0.60244 0.599033 0.594553 0.588752 0.582489 0.575179 0.568235 0.558886 0.547725 0.535636 0.518766 0.505362 0.491875 0.513995 0.497119 0.482611 0.484602 0.491802 0.571796 0.628903 0.451416 0.440802 0.409991 0.789335 0.67252 0.67635 0.887026 0.87982 0.832272 0.615212 0.506302 0.500176 0.485498 0.478783 0.484453 0.495958 0.509175 0.527544 0.545841 0.56177 0.574262 0.588755 0.589061 0.578878 0.676142 0.664823 0.657127 0.65155 0.646607 0.641798 0.637312 0.633293 0.629668 0.626351 0.623341 0.620656 0.618316 0.616347 0.614719 0.543369 0.52514 0.513308 0.498789 0.530145 0.515338 0.501995 0.489914 0.483854 0.518325 0.674885 0.454278 0.416614 0.358282 0.686659 0.732799 0.493333 0.865543 0.833997 0.574646 0.53633 0.514923 0.50224 0.49038 0.480456 0.495709 0.506573 0.583495 0.590328 0.594759 0.596575 0.596523 0.595597 0.595073 0.592359 0.58506 0.560165 0.687266 0.673778 0.664813 0.613395 0.612362 0.611667 0.611331 0.611197 0.611078 0.610818 0.61018 0.609001 0.60723 0.604821 0.601549 0.597462 0.592826 0.587182 0.580578 0.571659 0.55844 0.504274 0.54529 0.530662 0.519844 0.510571 0.504127 0.504318 0.509703 0.53177 0.545762 0.595733 0.340211 0.34057 0.734372 0.694235 0.635191 0.533559 0.782581 0.581331 0.562803 0.536277 0.513923 0.502723 0.527999 0.548523 0.565719 0.579066 0.588887 0.595771 0.600739 0.603617 0.604339 0.603521 0.601795 0.598031 0.589463 0.57204 0.543661 0.657437 0.650718 0.644644 0.639341 0.634711 0.63065 0.627131 0.624143 0.621693 0.619766 0.618287 0.617119 0.616186 0.615568 0.615267 0.615071 0.614949 0.614803 0.614451 0.613666 0.612437 0.610604 0.607999 0.604914 0.601344 0.597329 0.592569 0.584361 0.56937 0.550404 0.536437 0.521553 0.532816 0.528693 0.524107 0.525367 0.528725 0.540548 0.556192 0.571192 0.646042 0.7249 0.72122 0.648581 0.654904 0.588966 0.828657 0.770919 0.732836 0.548798 0.545067 0.525107 0.489685 0.494458 0.498707 0.524715 0.549353 0.569027 0.58369 0.594279 0.601317 0.606005 0.609203 0.61058 0.610104 0.608083 0.604142 0.595792 0.581514 0.559989 0.529112 0.697105 0.682792 0.671634 0.662131 0.653879 0.646798 0.640751 0.635596 0.631301 0.62787 0.625201 0.623168 0.621631 0.620496 0.619776 0.619408 0.619175 0.619057 0.618981 0.618852 0.618707 0.618405 0.617785 0.616614 0.614602 0.611679 0.608539 0.605662 0.602811 0.596187 0.581898 0.560959 0.543177 0.529355 0.513297 0.562041 0.545446 0.542773 0.548359 0.552605 0.564415 0.579883 0.623606 0.708609 0.621643 0.333248 0.830571 0.703462 0.61565 0.763231 0.711605 0.689263 0.521048 0.512315 0.500663 0.481221 0.514421 0.546519 0.570278 0.587463 0.598906 0.606565 0.610973 0.613843 0.615579 0.705526 0.689604 0.676511 0.665436 0.656037 0.648107 0.641478 0.636104 0.631946 0.628845 0.626476 0.624654 0.623545 0.623107 0.622924 0.622865 0.622983 0.622998 0.623029 0.623111 0.609843 0.607142 0.596515 0.576934 0.549233 0.532945 0.524444 0.575913 0.562571 0.542179 0.542903 0.542021 0.692496 0.594075 0.827701 0.694617 0.689642 0.649048 0.693553 0.660881 0.522776 0.516836 0.508787 0.863141 0.534137 0.567245 0.5893 0.615466 0.613489 0.609588 0.602342 0.59061 0.573157 0.548858 0.517121 0.711402 0.694117 0.679651 0.667416 0.657114 0.648581 0.641747 0.636503 0.623182 0.622945 0.622242 0.620686 0.618416 0.615461 0.612649 0.539652 0.528099 0.584907 0.580014 0.552406 0.554408 0.557624 0.558341 0.561381 0.568569 0.577502 0.579953 0.633325 0.62745 0.834858 0.613906 0.719118 0.714252 0.651495 0.501225 0.50966 0.512827 0.492888 0.866346 0.874572 0.602204 0.610583 0.615361 0.617764 0.619249 0.619636 0.618137 0.614539 0.608269 0.5985 0.584203 0.564484 0.538865 0.507404 0.632571 0.629583 0.627562 0.626599 0.626341 0.62619 0.626286 0.626508 0.62662 0.626891 0.62739 0.627762 0.627895 0.627288 0.626266 0.624558 0.622182 0.619523 0.615253 0.61197 0.613443 0.595444 0.562454 0.555271 0.566898 0.57057 0.573367 0.576208 0.58036 0.589502 0.597211 0.633818 0.67504 0.844229 0.749593 0.766349 0.784157 0.75598 0.632854 0.619209 0.618666 0.491933 0.508534 0.505015 0.846484 0.859841 0.55818 0.587478 0.604205 0.613048 0.618342 0.620908 0.62206 0.622584 0.621658 0.618746 0.613493 0.605272 0.59339 0.577117 0.555943 0.529753 0.499023 0.715137 0.696808 0.681267 0.668115 0.657191 0.648405 0.641587 0.636469 0.632774 0.63053 0.62969 0.629491 0.629384 0.629597 0.629829 0.629888 0.630322 0.631081 0.631719 0.631974 0.631927 0.631685 0.630331 0.628809 0.62616 0.622167 0.617753 0.614198 0.62026 0.578552 0.558663 0.520665 0.597551 0.60059 0.584256 0.588733 0.596612 0.603319 0.644066 0.670307 0.664358 0.830274 0.762444 0.781981 0.770248 0.588176 0.587169 0.587849 0.490671 0.516236 0.82842 0.866805 0.582066 0.604192 0.613273 0.619065 0.622455 0.623939 0.624555 0.624185 0.622046 0.61776 0.610949 0.601055 0.587506 0.569754 0.547599 0.521172 0.491219 0.717275 0.69797 0.681489 0.667639 0.656361 0.647448 0.640786 0.636254 0.633592 0.632326 0.632041 0.632472 0.63289 0.633148 0.633254 0.633523 0.634342 0.635049 0.63569 0.63655 0.636387 0.635999 0.635083 0.633047 0.630468 0.626535 0.620742 0.616935 0.608555 0.5705 0.535907 0.612807 0.602147 0.57337 0.573529 0.580611 0.59224 0.725056 0.747715 0.793967 0.773719 0.783916 0.785314 0.808765 0.567463 0.560937 0.527167 0.841955 0.853276 0.859247 0.602421 0.61292 0.617473 0.71808 0.697752 0.680413 0.666086 0.65465 0.645942 0.639892 0.636211 0.634414 0.634184 0.634941 0.60039 0.557468 0.632018 0.620451 0.55183 0.59517 0.587758 0.590077 0.596332 0.60235 0.602712 0.607217 0.6364 0.665394 0.783695 0.784766 0.779766 0.788834 0.804167 0.83314 0.55515 0.820059 0.818912 0.841021 0.850017 0.847289 0.621727 0.624153 0.625424 0.625664 0.624386 0.621147 0.615608 0.607325 0.595971 0.581081 0.562231 0.539356 0.512762 0.483385 0.635715 0.636486 0.636532 0.636576 0.637421 0.638119 0.639057 0.640288 0.641546 0.641995 0.641117 0.640638 0.638484 0.634751 0.629597 0.625739 0.594272 0.597281 0.565095 0.59928 0.59535 0.605012 0.607073 0.610537 0.612522 0.631398 0.652877 0.762466 0.764594 0.775589 0.789327 0.786102 0.782748 0.57814 0.51305 0.488501 0.770189 0.807096 0.83571 0.841087 0.614311 0.614657 0.620567 0.62283 0.624977 0.626171 0.625809 0.623575 0.619234 0.612463 0.602908 0.590284 0.574229 0.554446 0.530944 0.504132 0.475032 0.717701 0.696249 0.678219 0.663679 0.652429 0.644277 0.638699 0.636287 0.63642 0.637027 0.637813 0.639124 0.639562 0.639562 0.640155 0.640805 0.64121 0.643307 0.645697 0.647363 0.647848 0.646587 0.645077 0.641667 0.636597 0.632542 0.606574 0.576572 0.579859 0.65602 0.627924 0.609211 0.643496 0.644605 0.800032 0.771771 0.769475 0.810279 0.795311 0.817033 0.848377 0.568801 0.454365 0.718665 0.974699 0.839983 0.840882 0.610609 0.620388 0.621516 0.623763 0.625801 0.626388 0.625228 0.621942 0.61642 0.608468 0.597751 0.584015 0.566927 0.54625 0.522075 0.494963 0.46592 0.716256 0.69365 0.675085 0.660759 0.650066 0.643009 0.639301 0.638614 0.63922 0.640538 0.641096 0.641917 0.642308 0.642602 0.642838 0.643091 0.645642 0.648295 0.650734 0.652733 0.652326 0.647992 0.644675 0.642397 0.63673 0.62577 0.587483 0.552573 0.674157 0.641686 0.604194 0.61972 0.570989 0.598794 0.614727 0.611475 0.622614 0.77055 0.791826 0.807204 0.808319 0.821795 0.846866 0.888551 0.864721 0.549971 0.730707 0.694648 0.960171 0.892629 0.896135 0.888493 0.883896 0.842537 0.621094 0.620893 0.622429 0.713832 0.689978 0.671459 0.65826 0.648757 0.644098 0.641437 0.6433 0.643789 0.644087 0.643927 0.643851 0.637938 0.610799 0.551926 0.671126 0.650554 0.613515 0.623318 0.628671 0.578969 0.605138 0.638658 0.614204 0.613568 0.699868 0.645027 0.833227 0.813918 0.806549 0.810917 0.825049 0.851191 0.950157 0.889291 0.861231 0.86641 0.827014 0.843484 0.624912 0.626351 0.626061 0.623819 0.619388 0.612691 0.603603 0.591821 0.577066 0.559003 0.537424 0.512563 0.485194 0.455802 0.644124 0.644629 0.644995 0.646754 0.649867 0.652458 0.655362 0.656585 0.655233 0.64752 0.641595 0.649067 0.619704 0.630412 0.63686 0.590691 0.610957 0.749691 0.707192 0.777421 0.773426 0.823523 0.826019 0.844287 0.820127 0.811513 0.826483 0.851574 0.78888 0.723983 0.674129 0.620098 0.621327 0.623823 0.6258 0.626233 0.62485 0.621329 0.615697 0.607926 0.597769 0.584992 0.569274 0.550261 0.527806 0.50229 0.474801 0.44467 0.710448 0.685751 0.668829 0.657875 0.645406 0.645159 0.651355 0.645836 0.647401 0.647596 0.645311 0.645024 0.645433 0.645849 0.647441 0.650288 0.652405 0.656062 0.658982 0.661406 0.656108 0.650901 0.644692 0.637788 0.641984 0.556137 0.674196 0.640541 0.633022 0.875184 0.875561 0.893832 0.817312 0.830969 0.857657 0.83907 0.807437 0.802079 0.761 0.705117 0.670322 0.934665 0.866204 0.868778 0.826685 0.841615 0.732747 0.621196 0.622971 0.624937 0.625786 0.624944 0.622163 0.617421 0.610671 0.60188 0.590758 0.577058 0.56045 0.540516 0.51721 0.49112 0.464905 0.432229 0.70674 0.682539 0.668746 0.658742 0.6367 0.652024 0.648932 0.647826 0.649566 0.647571 0.646335 0.646326 0.646518 0.647326 0.649439 0.652702 0.655438 0.658986 0.6628 0.66181 0.659347 0.656055 0.612412 0.630732 0.5763 0.673723 0.639893 0.628871 0.638112 0.623089 0.635869 0.645881 0.806471 0.893832 0.891983 0.839478 0.849525 0.853267 0.878025 0.82245 0.81519 0.821898 0.835038 0.860987 0.651861 0.893832 0.867946 0.869478 0.829973 0.843948 0.79457 0.757979 0.734337 0.710327 0.703128 0.695359 0.677314 0.681452 0.687021 0.846177 0.858555 0.859515 0.861502 0.882521 0.880029 0.895628 0.844027 0.812181 0.811777 0.772255 0.71932 0.7496 0.616809 0.619355 0.622608 0.625445 0.627375 0.628811 0.628831 0.628037 0.626752 0.625358 0.623792 0.622954 0.623636 0.626203 0.634082 0.599996 0.563138 0.711495 0.64157 0.654291 0.646428 0.649455 0.648184 0.646778 0.647245 0.647056 0.647061 0.648961 0.65156 0.654165 0.657646 0.661937 0.661994 0.660954 0.663152 0.634586 0.612907 0.752656 0.710447 0.72212 0.855476 0.890635 
SCALARS Axial_Stress float 1
LOOKUP_TABLE default
-97769700000.0 -107118000000.0 -142984000000.0 -68732400000.0 -59775400000.0 -69755100000.0 -60827500000.0 -102174000000.0 -171303000000.0 -93353300000.0 -171792000000.0 -163676000000.0 -271348000000.0 -131955000000.0 -70277400000.0 -59118500000.0 -80995800000.0 -181702000000.0 -106329000000.0 -80776900000.0 -45241300000.0 -54340300000.0 -191347000000.0 -341654000000.0 -392195000000.0 -181981000000.0 -325438000000.0 -247624000000.0 -280032000000.0 -282045000000.0 -368940000000.0 -400374000000.0 -128028000000.0 -151290000000.0 -213666000000.0 -251744000000.0 -255209000000.0 -236439000000.0 -104371000000.0 -62485900000.0 -348423000000.0 -419903000000.0 -547824000000.0 -260079000000.0 -275551000000.0 -353964000000.0 -183040000000.0 -276734000000.0 -409923000000.0 -308680000000.0 -342712000000.0 -368414000000.0 -464535000000.0 -342441000000.0 -442447000000.0 -336342000000.0 -428643000000.0 -465400000000.0 -413394000000.0 -573765000000.0 -560452000000.0 -665340000000.0 -583975000000.0 -568782000000.0 -462875000000.0 -312856000000.0 -327538000000.0 -418215000000.0 -593373000000.0 -464358000000.0 -584362000000.0 -471689000000.0 -578943000000.0 -558611000000.0 -512965000000.0 -893484000000.0 -602914000000.0 -671041000000.0 -706041000000.0 -644299000000.0 -697061000000.0 -354798000000.0 -386911000000.0 -664603000000.0 -483828000000.0 -447018000000.0 -260805000000.0 -351849000000.0 -387622000000.0 -373410000000.0 -715007000000.0 -715061000000.0 -693255000000.0 -674332000000.0 -655134000000.0 -843854000000.0 -1.07847e+12 -660649000000.0 -752534000000.0 -761792000000.0 -442828000000.0 -495020000000.0 -763749000000.0 -507958000000.0 -488516000000.0 -943905000000.0 -851135000000.0 -816537000000.0 -789737000000.0 -768260000000.0 -882895000000.0 -818015000000.0 -1.00035e+12 -997402000000.0 -780286000000.0 -815974000000.0 -818867000000.0 -875652000000.0 -998596000000.0 -1.25739e+12 -1.02837e+12 -1.10567e+12 -950996000000.0 -1.03738e+12 -909544000000.0 -995668000000.0 -879784000000.0 -973401000000.0 -993034000000.0 -968336000000.0 -1.05839e+12 -1.05006e+12 -1.04017e+12 -937770000000.0 -953498000000.0 -868107000000.0 -932010000000.0 -876425000000.0 -936649000000.0 -532487000000.0 -604768000000.0 -1.08366e+12 -987608000000.0 -1.09039e+12 -1.23993e+12 -1.60914e+12 -1.53468e+12 -1.26244e+12 -1.28897e+12 -1.17852e+12 -1.11829e+12 -1.07868e+12 -1.06395e+12 -1.0858e+12 -1.10033e+12 -1.03909e+12 -998501000000.0 -992441000000.0 -624993000000.0 -730934000000.0 -1.10375e+12 -2.02362e+12 -2.50242e+12 -1.92939e+12 -1.49921e+12 -1.33636e+12 -1.24942e+12 -1.19473e+12 -1.15725e+12 -1.14312e+12 -1.14668e+12 -1.11603e+12 -1.06567e+12 -1.05047e+12 -1.05362e+12 -1.30392e+12 -1.74658e+12 -2.05403e+12 -1.74376e+12 -1.51148e+12 -1.39172e+12 -1.45019e+12 -1.3197e+12 -1.38588e+12 -1.26573e+12 -1.32892e+12 -1.22718e+12 -1.28464e+12 -1.20583e+12 -1.24723e+12 -1.1809e+12 -1.20021e+12 -1.13327e+12 -1.1632e+12 -1.10779e+12 -1.15999e+12 -1.10826e+12 -1.17031e+12 -722191000000.0 -867384000000.0 -1.5619e+12 -1.53371e+12 -1.86421e+12 -1.86244e+12 -1.832e+12 -1.70149e+12 -1.71398e+12 -1.54641e+12 -1.58793e+12 -1.51411e+12 -1.44438e+12 -1.38174e+12 -1.32666e+12 -1.26923e+12 -1.21949e+12 -1.20658e+12 -1.22099e+12 -825210000000.0 -1.0306e+12 -1.66811e+12 -1.71432e+12 -1.75951e+12 -1.87396e+12 -1.8195e+12 -1.87637e+12 -1.73194e+12 -1.63961e+12 -1.57126e+12 -1.49323e+12 -1.42182e+12 -1.35e+12 -1.28046e+12 -1.24875e+12 -1.26401e+12 -1.28747e+12 -1.70939e+12 -1.74365e+12 -1.69746e+12 -1.99658e+12 -1.875e+12 -1.76938e+12 -1.81783e+12 -1.70531e+12 -1.7539e+12 -1.61731e+12 -1.65245e+12 -1.53113e+12 -1.55616e+12 -1.44611e+12 -1.44933e+12 -1.35316e+12 -1.34611e+12 -1.29259e+12 -1.31802e+12 -1.29598e+12 -1.36535e+12 -1.33385e+12 -1.40985e+12 -934916000000.0 -1.17234e+12 -1.81926e+12 -1.76771e+12 -1.80181e+12 -1.74976e+12 -1.44988e+12 -1.96905e+12 -1.9834e+12 -1.90022e+12 -1.93837e+12 -1.90239e+12 -1.78553e+12 -1.6775e+12 -1.56377e+12 -1.4216e+12 -1.34217e+12 -1.37463e+12 -1.45285e+12 -1.05276e+12 -1.30039e+12 -1.86201e+12 -1.79222e+12 -1.6782e+12 -1.4841e+12 -1.04728e+12 -1.08022e+12 -2.00096e+12 -1.98394e+12 -1.93519e+12 -1.8072e+12 -1.82681e+12 -1.69131e+12 -1.54208e+12 -1.38082e+12 -1.36073e+12 -1.46918e+12 -1.5468e+12 -1.925e+12 -1.88526e+12 -1.7384e+12 -1.16578e+12 -1.08788e+12 -2.0459e+12 -2.07072e+12 -2.12722e+12 -2.11588e+12 -1.94185e+12 -1.93398e+12 -1.8651e+12 -1.68605e+12 -1.61785e+12 -1.45334e+12 -1.3429e+12 -1.34783e+12 -1.36364e+12 -1.44238e+12 -1.58538e+12 -1.58903e+12 -1.71615e+12 -1.18106e+12 -1.41984e+12 -2.04738e+12 -1.96951e+12 -1.9997e+12 -1.88393e+12 -1.8735e+12 -1.65665e+12 -1.19576e+12 -1.08653e+12 -2.47403e+12 -2.02569e+12 -1.97004e+12 -1.92396e+12 -1.30673e+12 -1.29615e+12 -1.49848e+12 -1.76264e+12 -1.3248e+12 -1.53575e+12 -2.10307e+12 -2.01763e+12 -1.81364e+12 -1.17485e+12 -1.22019e+12 -1.20939e+12 -1.19337e+12 -1.01599e+12 -1.65944e+12 -2.10085e+12 -2.08068e+12 -2.04182e+12 -2.09963e+12 -2.03631e+12 -2.13748e+12 -2.02048e+12 -2.46775e+12 -1.16646e+12 -1.28609e+12 -1.73286e+12 -1.95271e+12 -1.64795e+12 -2.20081e+12 -2.27991e+12 -2.14677e+12 -2.01697e+12 -1.13812e+12 -1.20306e+12 -1.44997e+12 -1.9443e+12 -2.13186e+12 -2.18866e+12 -2.35774e+12 -2.85694e+12 -1.0502e+12 -836062000000.0 -1.53149e+12 -2.02331e+12 -2.02626e+12 -2.28536e+12 -1.48725e+12 -2.37575e+12 -2.36639e+12 -2.16913e+12 -2.1308e+12 -1.93516e+12 -1.15715e+12 -1.64303e+12 -1.87365e+12 -2.09434e+12 -2.21487e+12 -2.32948e+12 -2.64548e+12 -3.15259e+12 -1.71872e+12 -2.42402e+12 -1.65162e+12 -1.75384e+12 -2.47055e+12 -2.48236e+12 -1.87271e+12 -928319000000.0 -1.85383e+12 -1.77976e+12 -1.94005e+12 -1.83798e+12 -2.04398e+12 -2.064e+12 -2.1995e+12 -2.2102e+12 -2.32255e+12 -2.32556e+12 -2.45477e+12 -2.50603e+12 -2.68102e+12 -2.87901e+12 -3.02903e+12 -3.39419e+12 -3.29266e+12 -2.54075e+12 -2.84835e+12 -2.66452e+12 -1.7956e+12 -1.85221e+12 -2.55384e+12 -2.65152e+12 -2.58033e+12 -2.72901e+12 -2.68971e+12 -3.38966e+12 -1.74637e+12 -2.0459e+12 -2.05756e+12 -2.19018e+12 -2.31775e+12 -2.43901e+12 -2.58103e+12 -2.79237e+12 -2.52378e+12 -3.2237e+12 -3.26908e+12 -3.01805e+12 -2.7212e+12 -2.76512e+12 -3.01237e+12 -2.90497e+12 -2.13777e+12 -2.26367e+12 -2.14317e+12 -2.23362e+12 -2.19363e+12 -2.3116e+12 -2.43257e+12 -2.55319e+12 -2.66482e+12 -2.67426e+12 -2.34779e+12 -3.85365e+12 -3.77612e+12 -3.28123e+12 -1.91704e+12 -1.94414e+12 -2.87103e+12 -2.81271e+12 -2.91677e+12 -2.91923e+12 -3.11899e+12 -2.85508e+12 -2.5556e+12 -2.52183e+12 -2.33463e+12 -2.32776e+12 -2.3095e+12 -2.41781e+12 -2.4259e+12 -2.54011e+12 -2.54584e+12 -2.65002e+12 -2.64615e+12 -2.67893e+12 -2.60537e+12 -2.2444e+12 -4.24577e+12 -3.63162e+12 -3.53171e+12 -3.32204e+12 -2.0442e+12 -2.0316e+12 -2.95046e+12 -2.99776e+12 -3.01399e+12 -3.01328e+12 -2.73646e+12 -2.52075e+12 -2.3896e+12 -2.4183e+12 -2.52919e+12 -2.65245e+12 -2.72894e+12 -2.61739e+12 -2.25321e+12 -4.31848e+12 -4.0559e+12 -3.7806e+12 -3.53153e+12 -3.00133e+12 -3.02038e+12 -3.03957e+12 -2.91742e+12 -2.7147e+12 -2.5264e+12 -2.52468e+12 -2.44688e+12 -2.51202e+12 -2.51496e+12 -2.64626e+12 -2.75572e+12 -2.77318e+12 -2.603e+12 -3.99313e+12 -3.67463e+12 -2.17565e+12 -2.11608e+12 -3.11357e+12 -3.06194e+12 -3.11353e+12 -3.07176e+12 -3.10676e+12 -3.04646e+12 -3.02822e+12 -2.87718e+12 -2.87148e+12 -2.70305e+12 -2.67812e+12 -2.53487e+12 -2.59708e+12 -2.62671e+12 -2.75539e+12 -2.76475e+12 -2.87928e+12 -2.84504e+12 -2.93755e+12 -2.83461e+12 -2.94655e+12 -2.61827e+12 -3.7942e+12 -3.76705e+12 -3.79684e+12 -3.74197e+12 -3.66807e+12 -2.30221e+12 -2.19939e+12 -3.16281e+12 -3.15511e+12 -3.13e+12 -3.04352e+12 -3.08978e+12 -2.85219e+12 -2.59765e+12 -2.56955e+12 -2.72268e+12 -2.88877e+12 -2.99311e+12 -3.05644e+12 -3.13323e+12 -3.50217e+12 -3.75186e+12 -3.74435e+12 -2.28559e+12 -3.21669e+12 -3.26001e+12 -3.20537e+12 -3.24082e+12 -3.19021e+12 -3.22656e+12 -3.15604e+12 -3.20978e+12 -3.1704e+12 -2.76138e+12 -2.34891e+12 -2.53644e+12 -2.60915e+12 -2.67125e+12 -2.82259e+12 -2.87337e+12 -3.02128e+12 -3.11729e+12 -3.2121e+12 -3.53877e+12 -3.67124e+12 -3.74622e+12 -3.76431e+12 -3.78728e+12 -2.41061e+12 -3.3168e+12 -3.29606e+12 -3.27426e+12 -3.27866e+12 -3.29857e+12 -3.44628e+12 -3.30621e+12 -3.87905e+12 -2.28123e+12 -2.74879e+12 -3.00446e+12 -3.02691e+12 -3.17519e+12 -3.15465e+12 -3.29253e+12 -3.25849e+12 -3.40971e+12 -3.38898e+12 -3.69866e+12 -3.79669e+12 -2.49985e+12 -2.37776e+12 -3.35679e+12 -3.32379e+12 -3.31627e+12 -3.38414e+12 -3.35973e+12 -3.48686e+12 -3.76516e+12 -4.24663e+12 -2.39283e+12 -2.92864e+12 -3.1777e+12 -3.31796e+12 -3.43376e+12 -3.56753e+12 -3.62684e+12 -3.7675e+12 -3.79048e+12 -3.8349e+12 -2.47733e+12 -3.41794e+12 -3.45646e+12 -3.38606e+12 -3.40119e+12 -3.34963e+12 -3.38743e+12 -3.48794e+12 -3.69366e+12 -4.10823e+12 -4.29472e+12 -4.37697e+12 -4.24701e+12 -2.61398e+12 -2.88516e+12 -3.14855e+12 -3.33547e+12 -3.45576e+12 -3.57633e+12 -3.73634e+12 -3.86147e+12 -3.85358e+12 -3.90054e+12 -2.57965e+12 -3.52485e+12 -3.47775e+12 -3.40771e+12 -3.46463e+12 -3.58243e+12 -3.64026e+12 -3.81176e+12 -3.92131e+12 -4.10122e+12 -4.29222e+12 -3.96023e+12 -3.27411e+12 -3.34225e+12 -3.48939e+12 -3.47466e+12 -3.60849e+12 -3.59228e+12 -3.72633e+12 -3.71751e+12 -3.85975e+12 -3.92979e+12 -2.65532e+12 -2.58424e+12 -3.65062e+12 -3.5651e+12 -3.57609e+12 -3.47264e+12 -3.43301e+12 -3.42195e+12 -3.5025e+12 -3.72208e+12 -3.96504e+12 -4.16724e+12 -4.13365e+12 -3.62927e+12 -3.48562e+12 -3.62321e+12 -3.73936e+12 -3.8557e+12 -3.85446e+12 -3.96663e+12 -3.95143e+12 -4.02097e+12 -3.98162e+12 -2.72658e+12 -9035750000.0 -2.71223e+12 -3.69377e+12 -3.53771e+12 -3.37355e+12 -3.61327e+12 -3.87004e+12 -3.97827e+12 -4.05963e+12 -4.07832e+12 -4.12534e+12 -4.01417e+12 -3.91366e+12 -3.77492e+12 -3.61465e+12 -3.69258e+12 -3.63384e+12 -3.7518e+12 -3.86682e+12 -3.97744e+12 -4.05602e+12 -4.07302e+12 -2.85466e+12 -3.85965e+12 -3.96568e+12 -3.69067e+12 -3.53959e+12 -3.37818e+12 -3.04636e+12 -3.43384e+12 -3.66646e+12 -3.78215e+12 -3.91407e+12 -4.03132e+12 -4.03752e+12 -3.91338e+12 -3.7812e+12 -3.79306e+12 -3.76333e+12 -3.88774e+12 -3.87808e+12 -4.00239e+12 -3.9891e+12 -4.1036e+12 -4.0849e+12 -4.17353e+12 -4.12421e+12 -4.17019e+12 -2.78983e+12 -4.12538e+12 -4.27411e+12 -4.1022e+12 -4.26257e+12 -2.92673e+12 -3.45514e+12 -3.84826e+12 -3.99306e+12 -4.0324e+12 -3.97951e+12 -3.87148e+12 -3.84163e+12 -3.90234e+12 -4.01224e+12 -4.12073e+12 -4.21314e+12 -4.23751e+12 -2.83674e+12 -9035750000.0 -3.01182e+12 -4.43269e+12 -4.43692e+12 -5.0229e+12 -2.86225e+12 -3.74847e+12 -3.92521e+12 -3.96119e+12 -4.00937e+12 -4.02047e+12 -4.01818e+12 -4.00768e+12 -3.98776e+12 -3.94512e+12 -3.9521e+12 -3.89931e+12 -3.92706e+12 -4.02891e+12 -4.0191e+12 -4.14017e+12 -4.13344e+12 -4.24548e+12 -4.22916e+12 -4.34966e+12 -4.30339e+12 -4.36004e+12 -4.26919e+12 -2.85143e+12 -3.22411e+12 -4.90143e+12 -4.54226e+12 -4.65115e+12 -4.886e+12 -5.15423e+12 -4.60581e+12 -3.31615e+12 -3.78805e+12 -3.99882e+12 -4.02214e+12 -4.01138e+12 -3.9932e+12 -3.99707e+12 -3.9613e+12 -4.04463e+12 -4.14292e+12 -4.25552e+12 -4.34571e+12 -4.4437e+12 -4.36494e+12 -3.39586e+12 -5.13161e+12 -4.53761e+12 -3.86523e+12 -4.87568e+12 -4.18035e+12 -3.95641e+12 -4.0245e+12 -4.02475e+12 -4.01985e+12 -4.02788e+12 -4.06426e+12 -4.14408e+12 -4.25803e+12 -4.36771e+12 -4.46285e+12 -4.4984e+12 -4.59907e+12 -4.4881e+12 -4.43963e+12 -2.79282e+12 -5.26588e+12 -5.31161e+12 -6.09983e+12 -4.06341e+12 -4.54194e+12 -4.60163e+12 -4.34696e+12 -4.10939e+12 -4.0864e+12 -4.01746e+12 -4.03904e+12 -4.0336e+12 -4.04781e+12 -4.03668e+12 -4.05114e+12 -4.08543e+12 -4.15697e+12 -4.14691e+12 -4.24129e+12 -4.25042e+12 -4.35266e+12 -4.37013e+12 -4.48903e+12 -4.72434e+12 -4.60304e+12 -2.57177e+12 -9035750000.0 -3.49068e+12 -5.42603e+12 -5.84236e+12 -5.84499e+12 -5.14174e+12 -4.491e+12 -4.2315e+12 -4.07653e+12 -4.05619e+12 -4.07835e+12 -4.06726e+12 -4.11562e+12 -4.10247e+12 -4.16667e+12 -4.23887e+12 -4.33595e+12 -4.45927e+12 -4.52882e+12 -5.01888e+12 -4.92208e+12 -5.11214e+12 -4.37941e+12 -1.79588e+12 -4.86397e+12 -4.72355e+12 -3.59014e+12 -5.47695e+12 -5.68387e+12 -6.09329e+12 -5.70969e+12 -4.87577e+12 -4.37388e+12 -4.16441e+12 -4.07829e+12 -4.08692e+12 -4.12537e+12 -4.17561e+12 -4.23699e+12 -4.328e+12 -4.41665e+12 -4.42107e+12 -4.49702e+12 -4.57132e+12 -4.40877e+12 -5.33151e+12 -5.58078e+12 -5.16723e+12 -5.50137e+12 -4.5507e+12 -4.81497e+12 -5.8229e+12 -5.79008e+12 -6.3238e+12 -5.45584e+12 -5.90516e+12 -5.84928e+12 -5.25721e+12 -4.97606e+12 -4.6461e+12 -4.47509e+12 -4.28037e+12 -4.21025e+12 -4.13029e+12 -4.13127e+12 -4.10099e+12 -4.13355e+12 -4.18265e+12 -4.24323e+12 -4.24035e+12 -4.30549e+12 -4.31023e+12 -4.38217e+12 -4.50767e+12 -4.5649e+12 -5.34077e+12 -6.65473e+12 -5.97426e+12 -5.80882e+12 -6.78532e+12 -4.8808e+12 -4.73585e+12 -4.41749e+12 -4.63729e+12 -5.95596e+12 -6.2908e+12 -6.33523e+12 -6.10682e+12 -5.83614e+12 -5.85695e+12 -5.56395e+12 -5.26126e+12 -4.7408e+12 -4.34343e+12 -4.18237e+12 -4.1642e+12 -4.14449e+12 -4.19911e+12 -4.18938e+12 -4.24677e+12 -4.30242e+12 -4.35813e+12 -4.36998e+12 -4.44242e+12 -4.47829e+12 -4.61668e+12 -4.79601e+12 -3.67802e+12 -6.19457e+12 -5.86499e+12 -5.80484e+12 -6.65434e+12 -7.07629e+12 -7.07457e+12 -4.59766e+12 -4.28107e+12 -6.37084e+12 -6.36505e+12 -6.19607e+12 -6.25706e+12 -5.93242e+12 -5.74082e+12 -5.49512e+12 -5.01572e+12 -4.53344e+12 -4.26452e+12 -4.1977e+12 -4.21556e+12 -4.2541e+12 -4.3005e+12 -4.34792e+12 -4.41276e+12 -4.43363e+12 -4.49487e+12 -4.39598e+12 -5.25623e+12 -5.99748e+12 -6.06818e+12 -6.00437e+12 -5.89694e+12 -6.83274e+12 -6.99591e+12 -4.50038e+12 -4.42352e+12 -4.29719e+12 -6.95897e+12 -6.69969e+12 -6.58606e+12 -6.40491e+12 -5.82406e+12 -6.61284e+12 -6.34751e+12 -6.00006e+12 -5.65528e+12 -5.67824e+12 -5.58564e+12 -5.28615e+12 -4.97008e+12 -4.7531e+12 -4.54114e+12 -4.38573e+12 -4.31408e+12 -4.24935e+12 -4.28041e+12 -4.24152e+12 -4.26874e+12 -4.3024e+12 -4.34095e+12 -4.39168e+12 -4.46952e+12 -4.53872e+12 -4.65786e+12 -6.24346e+12 -5.73459e+12 -5.53028e+12 -6.05522e+12 -5.74704e+12 -6.50172e+12 -6.59894e+12 -6.83421e+12 -6.75522e+12 -7.01435e+12 -7.04866e+12 -4.41795e+12 -4.37259e+12 -4.34191e+12 -7.0301e+12 -6.86622e+12 -6.83064e+12 -6.43094e+12 -6.26905e+12 -6.18459e+12 -5.11761e+12 -6.10182e+12 -5.89946e+12 -5.50397e+12 -5.22352e+12 -4.71688e+12 -4.39589e+12 -4.32206e+12 -4.32553e+12 -4.29217e+12 -4.3322e+12 -4.31222e+12 -4.35489e+12 -4.34211e+12 -4.35987e+12 -4.37214e+12 -4.40223e+12 -4.43723e+12 -4.49436e+12 -4.53066e+12 -4.65559e+12 -4.70627e+12 -5.11877e+12 -5.33943e+12 -4.22527e+12 -5.7201e+12 -6.51889e+12 -5.85792e+12 -6.14446e+12 -6.5304e+12 -6.65738e+12 -6.5737e+12 -6.87237e+12 -7.10617e+12 -4.44967e+12 -4.35529e+12 -7.01606e+12 -6.92382e+12 -6.92925e+12 -6.83484e+12 -6.82703e+12 -6.91349e+12 -6.78047e+12 -6.82048e+12 -6.79154e+12 -6.37497e+12 -6.90593e+12 -5.77018e+12 -5.10806e+12 -4.874e+12 -4.65283e+12 -4.50877e+12 -4.34713e+12 -4.36409e+12 -4.36212e+12 -4.38334e+12 -4.35793e+12 -4.37469e+12 -4.43994e+12 -4.59516e+12 -4.89858e+12 -4.91997e+12 -5.0632e+12 -5.66724e+12 -4.66788e+12 -6.16209e+12 -6.7857e+12 -6.5471e+12 -6.77217e+12 -6.90981e+12 -7.14516e+12 -7.26656e+12 -4.55246e+12 -4.66711e+12 -4.04259e+12 -4.36315e+12 -6.80779e+12 -6.92843e+12 -6.84386e+12 -6.85447e+12 -6.81171e+12 -6.62017e+12 -6.1563e+12 -6.49866e+12 -6.44692e+12 -6.676e+12 -6.36191e+12 -5.84197e+12 -5.3781e+12 -4.68612e+12 -4.42059e+12 -4.35988e+12 -4.34689e+12 -4.38201e+12 -4.42163e+12 -4.39847e+12 -4.49013e+12 -4.43037e+12 -4.39547e+12 -4.36806e+12 -4.34616e+12 -4.35569e+12 -4.39473e+12 -4.50278e+12 -4.7744e+12 -4.87628e+12 -4.87493e+12 -4.95386e+12 -4.6858e+12 -4.3203e+12 -5.61272e+12 -5.69586e+12 -6.37469e+12 -7.04162e+12 -6.42785e+12 -6.82006e+12 -7.02956e+12 -7.17215e+12 -7.20968e+12 -4.59372e+12 -7.20077e+12 -4.51528e+12 -4.07029e+12 -6.54027e+12 -6.05024e+12 -6.71736e+12 -6.76883e+12 -6.81252e+12 -6.75383e+12 -6.63375e+12 -6.88608e+12 -6.4307e+12 -6.65589e+12 -6.59122e+12 -6.45616e+12 -6.19607e+12 -5.33253e+12 -4.93581e+12 -4.5552e+12 -4.23136e+12 -4.37773e+12 -4.56396e+12 -4.44246e+12 -4.34809e+12 -4.3288e+12 -4.3587e+12 -4.37547e+12 -4.43042e+12 -4.4909e+12 -4.60832e+12 -4.68531e+12 -5.05771e+12 -5.29249e+12 -5.67448e+12 -5.54685e+12 -5.78868e+12 -6.89604e+12 -7.09541e+12 -7.17185e+12 -6.86444e+12 -7.04823e+12 -6.92358e+12 -7.01451e+12 -7.06339e+12 -6.95617e+12 -4.39057e+12 -4.17128e+12 -6.96052e+12 -6.82688e+12 -6.68077e+12 -6.48812e+12 -6.75855e+12 -6.74147e+12 -6.59169e+12 -6.93902e+12 -6.21731e+12 -5.99612e+12 -5.70755e+12 -4.72149e+12 -4.32909e+12 -4.49301e+12 -4.2321e+12 -3.45794e+12 -4.13881e+12 -4.64691e+12 -4.49374e+12 -4.36821e+12 -4.30671e+12 -4.32617e+12 -4.41095e+12 -4.54472e+12 -4.78696e+12 -4.91929e+12 -5.20461e+12 -6.24523e+12 -5.67015e+12 -5.91156e+12 -5.95202e+12 -6.20405e+12 -6.49184e+12 -6.87112e+12 -6.85232e+12 -6.75001e+12 -6.69757e+12 -6.73943e+12 -6.89546e+12 -6.94545e+12 -6.90804e+12 -4.44047e+12 -4.21553e+12 -4.23237e+12 -4.22379e+12 -6.98529e+12 -6.87061e+12 -7.10082e+12 -7.09273e+12 -6.7414e+12 -6.56669e+12 -6.53468e+12 -6.69089e+12 -6.91977e+12 -5.80767e+12 -6.42659e+12 -6.26678e+12 -5.83194e+12 -5.57744e+12 -5.16879e+12 -4.19492e+12 -3.53301e+12 -5.08968e+12 -3.86234e+12 -5.55014e+12 -4.78347e+12 -4.71091e+12 -4.56121e+12 -4.45824e+12 -4.40694e+12 -4.30645e+12 -4.29712e+12 -4.24279e+12 -4.27979e+12 -4.27309e+12 -4.34314e+12 -4.37588e+12 -4.45237e+12 -4.49205e+12 -4.58961e+12 -4.66222e+12 -5.77704e+12 -5.8469e+12 -5.75656e+12 -5.89417e+12 -6.07051e+12 -6.05478e+12 -5.72111e+12 -6.49761e+12 -6.81808e+12 -6.90177e+12 -6.72856e+12 -5.97031e+12 -7.09314e+12 -6.13526e+12 -6.63627e+12 -4.32916e+12 -4.2072e+12 -6.88783e+12 -6.94784e+12 -6.82497e+12 -6.86451e+12 -6.89347e+12 -7.02033e+12 -6.71811e+12 -6.66609e+12 -6.65634e+12 -6.34266e+12 -5.81615e+12 -6.04725e+12 -6.01041e+12 -6.16499e+12 -6.01356e+12 -5.68934e+12 -5.42542e+12 -5.02835e+12 -3.75334e+12 -4.85606e+12 -5.41675e+12 -5.09071e+12 -4.57054e+12 -4.33993e+12 -4.21851e+12 -4.21048e+12 -4.2849e+12 -4.42715e+12 -4.4971e+12 -4.78336e+12 -4.93792e+12 -5.24203e+12 -5.57366e+12 -5.64609e+12 -5.95436e+12 -6.09979e+12 -6.16e+12 -6.66736e+12 -6.30483e+12 -6.5267e+12 -6.80291e+12 -6.47203e+12 -6.5623e+12 -6.83475e+12 -6.68833e+12 -6.8765e+12 -6.9195e+12 -4.34543e+12 -4.07494e+12 -4.15491e+12 -6.81574e+12 -6.76596e+12 -6.76626e+12 -6.72099e+12 -6.86724e+12 -6.71414e+12 -6.65982e+12 -6.51028e+12 -6.45077e+12 -6.45118e+12 -6.91001e+12 -5.91949e+12 -6.45883e+12 -6.04968e+12 -5.938e+12 -5.35971e+12 -5.05761e+12 -4.61312e+12 -5.05463e+12 -4.68355e+12 -5.19332e+12 -4.95359e+12 -4.80274e+12 -4.57192e+12 -4.41765e+12 -4.217e+12 -4.15619e+12 -4.2005e+12 -4.31327e+12 -4.49799e+12 -4.51064e+12 -4.50592e+12 -4.22388e+12 -3.53818e+12 -4.81305e+12 -5.73081e+12 -5.76592e+12 -5.76653e+12 -6.01387e+12 -5.19615e+12 -7.26615e+12 -7.07021e+12 -6.80202e+12 -6.76469e+12 -7.0535e+12 -6.87657e+12 -6.701e+12 -6.82632e+12 -4.24274e+12 -4.03973e+12 -3.96079e+12 -6.73751e+12 -6.6242e+12 -6.6996e+12 -6.57305e+12 -6.66286e+12 -6.59403e+12 -6.63109e+12 -6.44258e+12 -6.29564e+12 -6.43787e+12 -6.45449e+12 -5.19384e+12 -6.07303e+12 -6.07556e+12 -5.81728e+12 -5.61843e+12 -5.03983e+12 -4.72134e+12 -4.2674e+12 -4.35775e+12 -2.69578e+12 -4.49597e+12 -4.89086e+12 -4.72092e+12 -4.3328e+12 -4.25008e+12 -4.11064e+12 -4.11604e+12 -4.04222e+12 -4.11861e+12 -4.10842e+12 -4.21248e+12 -4.243e+12 -4.36073e+12 -4.4115e+12 -4.68308e+12 -5.09907e+12 -6.06336e+12 -5.20235e+12 -5.28829e+12 -5.47054e+12 -5.58079e+12 -5.62913e+12 -5.77142e+12 -5.65097e+12 -6.49812e+12 -6.77851e+12 -6.57476e+12 -6.71305e+12 -6.57042e+12 -6.86149e+12 -6.47427e+12 -6.66135e+12 -6.42973e+12 -6.65189e+12 -6.62532e+12 -3.88757e+12 -3.80628e+12 -6.5325e+12 -6.64724e+12 -6.53829e+12 -6.49958e+12 -6.35413e+12 -6.46245e+12 -6.38882e+12 -6.53079e+12 -6.40957e+12 -6.44093e+12 -6.2103e+12 -6.26871e+12 -6.42835e+12 -5.51317e+12 -5.8956e+12 -6.88613e+12 -6.32105e+12 -5.94977e+12 -5.58074e+12 -5.31424e+12 -4.80053e+12 -4.5595e+12 -4.56577e+12 -4.4236e+12 -5.15581e+12 -4.7556e+12 -4.79006e+12 -4.42628e+12 -4.13164e+12 -3.99648e+12 -3.9853e+12 -4.13978e+12 -4.2899e+12 -4.12024e+12 -4.39597e+12 -5.2432e+12 -5.51813e+12 -5.29552e+12 -5.37816e+12 -5.44463e+12 -5.50056e+12 -5.57778e+12 -5.53109e+12 -5.78986e+12 -6.1243e+12 -6.42117e+12 -6.47139e+12 -6.46412e+12 -6.20219e+12 -6.37533e+12 -6.34326e+12 -5.08197e+12 -6.03828e+12 -6.41989e+12 -6.51322e+12 -6.52442e+12 -3.73179e+12 -3.3939e+12 -3.61359e+12 -6.38358e+12 -6.43724e+12 -6.32029e+12 -6.41412e+12 -6.27499e+12 -6.23082e+12 -6.32836e+12 -6.19263e+12 -6.03168e+12 -6.04476e+12 -6.01305e+12 -5.84958e+12 -5.66923e+12 -5.46906e+12 -5.21823e+12 -5.01269e+12 -4.79916e+12 -4.80969e+12 -4.86415e+12 -5.2742e+12 -6.41815e+12 -5.2262e+12 -4.42836e+12 -4.47188e+12 -4.19231e+12 -4.16654e+12 -3.95908e+12 -3.98325e+12 -3.90722e+12 -3.94672e+12 -3.9431e+12 -4.23743e+12 -4.52294e+12 -4.26565e+12 -2.99459e+12 -3.74458e+12 -5.26104e+12 -5.29016e+12 -5.34615e+12 -5.3985e+12 -5.4587e+12 -5.44622e+12 -5.73293e+12 -5.71222e+12 -5.86269e+12 -6.09854e+12 -6.134e+12 -5.92127e+12 -5.7647e+12 -6.77421e+12 -6.0499e+12 -6.25827e+12 -6.39577e+12 -6.39692e+12 -6.48686e+12 -3.6388e+12 -3.58487e+12 -3.17621e+12 -6.19429e+12 -6.13643e+12 -6.30712e+12 -6.20734e+12 -6.18961e+12 -6.08848e+12 -5.96002e+12 -6.17784e+12 -6.11223e+12 -6.13966e+12 -5.80896e+12 -5.96003e+12 -6.07043e+12 -6.58889e+12 -4.63847e+12 -5.37e+12 -6.0183e+12 -5.33524e+12 -5.18433e+12 -5.01608e+12 -4.89695e+12 -4.88651e+12 -5.01995e+12 -5.45582e+12 -5.33503e+12 -4.61193e+12 -4.12021e+12 -3.95266e+12 -3.81511e+12 -3.85224e+12 -3.75883e+12 -3.81832e+12 -3.72761e+12 -3.97609e+12 -5.07976e+12 -4.56278e+12 -4.98363e+12 -4.73627e+12 -5.10039e+12 -5.13648e+12 -5.21647e+12 -5.29113e+12 -5.36056e+12 -5.3886e+12 -5.51504e+12 -5.57593e+12 -5.55178e+12 -5.57709e+12 -5.62338e+12 -5.72584e+12 -6.15068e+12 -5.62149e+12 -6.04194e+12 -6.27564e+12 -6.32398e+12 -6.38127e+12 -6.44133e+12 -3.55814e+12 -2.98231e+12 -5.77813e+12 -5.98575e+12 -5.94722e+12 -5.90338e+12 -6.05401e+12 -5.93802e+12 -6.08404e+12 -5.94838e+12 -6.03711e+12 -5.80004e+12 -5.91783e+12 -5.73719e+12 -5.76498e+12 -5.71485e+12 -5.69808e+12 -5.99304e+12 -5.43654e+12 -5.14461e+12 -5.18262e+12 -5.40828e+12 -5.14703e+12 -5.02707e+12 -4.9268e+12 -4.87622e+12 -4.86842e+12 -4.88361e+12 -4.6176e+12 -4.24492e+12 -3.93204e+12 -3.65447e+12 -3.93131e+12 -3.74983e+12 -3.63161e+12 -3.67335e+12 -3.58452e+12 -4.09454e+12 -3.72344e+12 -4.68142e+12 -4.88924e+12 -5.02584e+12 -5.08132e+12 -5.16396e+12 -5.24891e+12 -5.31775e+12 -5.42512e+12 -5.38709e+12 -5.42939e+12 -5.31322e+12 -4.864e+12 -4.50623e+12 -5.5607e+12 -5.97746e+12 -6.16725e+12 -6.85388e+12 -6.35115e+12 -6.30212e+12 -6.33202e+12 -6.26516e+12 -6.30726e+12 -6.3631e+12 -6.27161e+12 -3.54418e+12 -2.83671e+12 -5.57946e+12 -5.74779e+12 -5.73412e+12 -5.83362e+12 -5.77027e+12 -5.79877e+12 -5.47711e+12 -5.69227e+12 -5.66175e+12 -5.8201e+12 -5.1093e+12 -5.11369e+12 -5.00724e+12 -5.31383e+12 -5.1494e+12 -5.2291e+12 -4.98575e+12 -5.03355e+12 -5.23306e+12 -4.99141e+12 -4.91298e+12 -4.85405e+12 -4.81651e+12 -4.78856e+12 -4.80537e+12 -2.94651e+12 -2.68973e+12 -3.97186e+12 -3.78422e+12 -3.41292e+12 -3.59845e+12 -3.34356e+12 -3.52147e+12 -3.31074e+12 -3.66125e+12 -3.81468e+12 -2.98874e+12 -3.11691e+12 -4.66666e+12 -4.73329e+12 -4.6996e+12 -4.81348e+12 -4.924e+12 -5.00767e+12 -5.39127e+12 -5.4041e+12 -5.3209e+12 -5.48911e+12 -5.4755e+12 -5.71095e+12 -6.2482e+12 -5.74204e+12 -5.89474e+12 -5.95956e+12 -6.27144e+12 -6.56191e+12 -6.31937e+12 -6.19121e+12 -6.22287e+12 -6.1561e+12 -6.19875e+12 -6.18484e+12 -3.51501e+12 -3.46245e+12 -2.68029e+12 -2.76316e+12 -5.40055e+12 -5.39524e+12 -5.56091e+12 -5.5555e+12 -5.55333e+12 -5.7082e+12 -5.65331e+12 -5.74134e+12 -5.61139e+12 -5.54221e+12 -5.17217e+12 -5.50223e+12 -6.08359e+12 -6.64343e+12 -2.99631e+12 -4.57579e+12 -4.78506e+12 -4.94202e+12 -4.94476e+12 -4.86558e+12 -4.88354e+12 -5.05376e+12 -4.89248e+12 -4.84553e+12 -4.77952e+12 -4.71869e+12 -4.65852e+12 -4.59711e+12 -4.48105e+12 -3.91293e+12 -4.03439e+12 -3.88624e+12 -3.44769e+12 -3.4096e+12 -3.24594e+12 -3.10996e+12 -5.32873e+12 -4.08154e+12 -4.42373e+12 -4.54992e+12 -4.61298e+12 -4.71679e+12 -4.82181e+12 -5.10191e+12 -5.1965e+12 -5.30199e+12 -5.38553e+12 -5.3896e+12 -5.05929e+12 -5.14455e+12 -5.10377e+12 -5.75211e+12 -5.89884e+12 -5.731e+12 -5.9127e+12 -6.25988e+12 -6.13863e+12 -6.59098e+12 -6.22775e+12 -6.25308e+12 -6.07661e+12 -6.11372e+12 -5.99036e+12 -6.01625e+12 -6.07578e+12 -5.97679e+12 -6.09302e+12 -3.37851e+12 -2.66277e+12 -5.19673e+12 -5.18518e+12 -5.40754e+12 -5.37883e+12 -5.5334e+12 -5.47145e+12 -5.58188e+12 -5.44885e+12 -5.51559e+12 -5.42831e+12 -4.02884e+12 -5.35069e+12 -5.81152e+12 -5.52893e+12 -4.36916e+12 -4.78332e+12 -4.72926e+12 -4.74102e+12 -4.73106e+12 -4.68605e+12 -4.62703e+12 -4.56713e+12 -4.51452e+12 -4.47143e+12 -4.3586e+12 -4.38006e+12 -4.80088e+12 -3.59806e+12 -3.41503e+12 -2.91695e+12 -2.95316e+12 -2.77729e+12 -3.15243e+12 -3.91331e+12 -3.68544e+12 -4.05013e+12 -4.27732e+12 -4.41015e+12 -4.50455e+12 -4.91945e+12 -5.02367e+12 -5.14618e+12 -5.2875e+12 -5.44948e+12 -5.50423e+12 -4.60876e+12 -4.12139e+12 -4.13838e+12 -5.12155e+12 -5.43468e+12 -5.533e+12 -5.82125e+12 -5.74946e+12 -6.05822e+12 -5.96242e+12 -6.03401e+12 -5.8937e+12 -5.92522e+12 -5.8375e+12 -5.86753e+12 -5.88512e+12 -5.98409e+12 -5.82626e+12 -3.28816e+12 -2.67611e+12 -5.05085e+12 -5.14842e+12 -5.16314e+12 -5.08393e+12 -5.28405e+12 -5.19616e+12 -5.18501e+12 -5.39047e+12 -5.37221e+12 -5.38547e+12 -5.43335e+12 -6.30773e+12 -5.36046e+12 -5.45009e+12 -5.52972e+12 -4.65161e+12 -4.66571e+12 -4.7522e+12 -4.78419e+12 -4.58046e+12 -4.58501e+12 -4.5223e+12 -4.47033e+12 -4.41782e+12 -4.36712e+12 -4.29412e+12 -4.27681e+12 -4.38167e+12 -4.1128e+12 -2.58422e+12 -5.07426e+12 -1.65663e+12 -3.17337e+12 -2.09975e+12 -3.16568e+12 -2.62161e+12 -2.06507e+12 -2.70255e+12 -3.63581e+12 -3.74102e+12 -3.97909e+12 -4.15871e+12 -4.60639e+12 -4.70778e+12 -4.80922e+12 -4.92709e+12 -5.07878e+12 -5.30143e+12 -5.70028e+12 -6.32879e+12 -4.96569e+12 -5.64336e+12 -5.03164e+12 -5.12322e+12 -5.24977e+12 -5.43887e+12 -5.37676e+12 -5.61834e+12 -5.81188e+12 -5.74234e+12 -5.70322e+12 -5.82047e+12 -5.66565e+12 -5.76097e+12 -5.79027e+12 -5.64833e+12 -3.20587e+12 -3.12937e+12 -2.67873e+12 -4.92237e+12 -5.01539e+12 -4.9908e+12 -4.92781e+12 -4.97455e+12 -5.23212e+12 -5.18035e+12 -5.29865e+12 -5.21345e+12 -5.12777e+12 -5.21238e+12 -5.74711e+12 -5.29057e+12 -5.19423e+12 -4.90929e+12 -4.66416e+12 -4.47216e+12 -4.56557e+12 -4.59782e+12 -4.61616e+12 -4.59283e+12 -4.56372e+12 -4.31791e+12 -4.26914e+12 -4.20891e+12 -4.16205e+12 -4.1371e+12 -3.9671e+12 -3.44855e+12 -3.5925e+12 -2.53235e+12 -3.91187e+12 -3.89512e+12 -3.23535e+12 -4.0813e+12 -3.62471e+12 -3.78035e+12 -3.81853e+12 -3.94901e+12 -4.28604e+12 -4.38672e+12 -4.48279e+12 -4.57411e+12 -4.66308e+12 -4.75606e+12 -4.85801e+12 -4.97204e+12 -5.04257e+12 -3.64155e+12 -5.00528e+12 -4.8383e+12 -5.04656e+12 -5.14292e+12 -5.37954e+12 -5.60704e+12 -5.38357e+12 -5.67003e+12 -5.43155e+12 -5.65423e+12 -5.6761e+12 -5.4779e+12 -5.54966e+12 -5.68023e+12 -5.64127e+12 -5.62768e+12 -5.42136e+12 -5.44627e+12 -3.04921e+12 -2.60315e+12 -2.65725e+12 -4.75029e+12 -4.87381e+12 -4.84974e+12 -4.82895e+12 -4.92043e+12 -4.88436e+12 -4.96812e+12 -5.05934e+12 -5.17398e+12 -5.03996e+12 -4.77678e+12 -4.67652e+12 -4.71038e+12 -4.76286e+12 -4.68577e+12 -4.65666e+12 -4.48956e+12 -4.39809e+12 -4.42023e+12 -4.43424e+12 -4.43009e+12 -4.42628e+12 -4.42305e+12 -4.41858e+12 -4.39673e+12 -4.36167e+12 -4.07165e+12 -4.01702e+12 -3.90526e+12 -3.69961e+12 -3.77479e+12 -3.48382e+12 -4.09091e+12 -2.41931e+12 -4.14219e+12 -2.67672e+12 -3.73175e+12 -3.50937e+12 -3.80849e+12 -3.82703e+12 -3.69621e+12 -4.07257e+12 -4.1772e+12 -4.26875e+12 -4.35471e+12 -4.43621e+12 -4.51618e+12 -4.60159e+12 -4.69417e+12 -4.77027e+12 -5.0506e+12 -4.74313e+12 -4.98981e+12 -4.77211e+12 -5.22932e+12 -5.45531e+12 -4.83017e+12 -5.43071e+12 -5.53967e+12 -5.38674e+12 -5.48484e+12 -5.51079e+12 -5.44813e+12 -5.19114e+12 -5.22185e+12 -2.95997e+12 -2.50996e+12 -4.53283e+12 -4.5036e+12 -4.71049e+12 -4.68909e+12 -4.68375e+12 -4.80677e+12 -4.83866e+12 -5.09972e+12 -5.34595e+12 -5.10358e+12 -5.04342e+12 -4.76991e+12 -4.96135e+12 -4.99679e+12 -3.03938e+12 -4.15379e+12 -4.39226e+12 -4.46719e+12 -4.4366e+12 -4.33314e+12 -4.27029e+12 -4.26429e+12 -4.25892e+12 -4.25981e+12 -4.26258e+12 -4.26238e+12 -4.25616e+12 -4.23905e+12 -4.21192e+12 -4.17413e+12 -4.12453e+12 -3.73959e+12 -3.71175e+12 -3.58047e+12 -3.71641e+12 -3.49409e+12 -3.24322e+12 -3.51184e+12 -3.22782e+12 -3.62657e+12 -3.58571e+12 -3.67364e+12 -3.76075e+12 -3.81039e+12 -3.89695e+12 -3.98672e+12 -4.07096e+12 -4.14971e+12 -4.2247e+12 -4.29562e+12 -4.36441e+12 -4.43274e+12 -4.38002e+12 -4.57194e+12 -4.51878e+12 -4.43601e+12 -4.2295e+12 -4.44549e+12 -4.47303e+12 -4.63337e+12 -4.51669e+12 -5.05857e+12 -5.53569e+12 -5.47027e+12 -5.76401e+12 -5.42784e+12 -5.18855e+12 -5.28104e+12 -5.24305e+12 -5.19492e+12 -4.97083e+12 -4.96206e+12 -4.97835e+12 -4.70574e+12 -2.85524e+12 -2.71621e+12 -2.39015e+12 -3.98496e+12 -4.27396e+12 -4.24999e+12 -4.48852e+12 -4.48604e+12 -4.68154e+12 -4.71401e+12 -4.81486e+12 -4.94954e+12 -5.12667e+12 -5.39001e+12 -5.11192e+12 -5.24889e+12 -5.07733e+12 -2.97982e+12 -5.44983e+12 -5.35765e+12 -4.5031e+12 -4.43565e+12 -4.37154e+12 -4.32091e+12 -4.25529e+12 -4.17138e+12 -4.11661e+12 -4.0948e+12 -4.08341e+12 -4.09045e+12 -4.10172e+12 -4.10812e+12 -4.10682e+12 -4.09971e+12 -4.07947e+12 -4.04292e+12 -3.99342e+12 -3.93408e+12 -3.85029e+12 -3.68677e+12 -3.66682e+12 -3.71133e+12 -3.76012e+12 -3.82511e+12 -3.89438e+12 -3.96299e+12 -4.02948e+12 -4.09383e+12 -4.47689e+12 -4.34991e+12 -4.4324e+12 -4.47163e+12 -4.05017e+12 -3.72957e+12 -3.0644e+12 -4.94881e+12 -4.43508e+12 -4.28555e+12 -4.92538e+12 -5.14145e+12 -6.08269e+12 -5.56031e+12 -5.19347e+12 -5.39401e+12 -5.19593e+12 -5.03387e+12 -4.71325e+12 -4.69723e+12 -4.42332e+12 -2.55533e+12 -1.93947e+12 -2.24883e+12 -3.67331e+12 -3.96218e+12 -4.237e+12 -4.229e+12 -4.49277e+12 -4.53014e+12 -4.61659e+12 -5.01644e+12 -5.3826e+12 -5.9223e+12 -4.08759e+12 -6.3761e+12 -4.99837e+12 -4.46565e+12 -3.42584e+12 -4.43354e+12 -4.18762e+12 -4.18486e+12 -4.15849e+12 -4.11702e+12 -4.05835e+12 -3.99271e+12 -3.94385e+12 -3.91562e+12 -3.89679e+12 -3.92047e+12 -3.94933e+12 -3.96902e+12 -3.98655e+12 -3.98756e+12 -3.96562e+12 -3.92296e+12 -3.86502e+12 -3.79286e+12 -3.71152e+12 -3.65477e+12 -3.57101e+12 -3.56439e+12 -3.46801e+12 -3.42878e+12 -3.28057e+12 -3.39019e+12 -3.34607e+12 -3.51043e+12 -3.51912e+12 -3.56184e+12 -3.58424e+12 -3.60069e+12 -3.64029e+12 -3.68533e+12 -3.73796e+12 -3.79411e+12 -3.85088e+12 -4.15413e+12 -4.20726e+12 -4.24056e+12 -4.20038e+12 -4.22738e+12 -4.23877e+12 -4.16252e+12 -3.64034e+12 -2.73299e+12 -4.77818e+12 -4.40877e+12 -3.31846e+12 -4.09227e+12 -3.49718e+12 -4.92193e+12 -3.52932e+12 -5.20493e+12 -4.76928e+12 -4.31357e+12 -5.31181e+12 -4.96004e+12 -4.78563e+12 -4.36499e+12 -4.37372e+12 -4.10853e+12 -2.26619e+12 -1.77108e+12 -2.09155e+12 -3.6503e+12 -3.61892e+12 -3.94398e+12 -3.92846e+12 -4.23518e+12 -4.27484e+12 -4.35249e+12 -4.77342e+12 -5.04156e+12 -5.49546e+12 -5.38901e+12 -5.17803e+12 -5.07536e+12 -4.70721e+12 -4.04057e+12 -4.06495e+12 -4.21808e+12 -4.06252e+12 -4.01487e+12 -3.9714e+12 -3.75573e+12 -3.81647e+12 -3.88051e+12 -3.90784e+12 -3.89864e+12 -3.86063e+12 -3.80297e+12 -3.73324e+12 -3.65908e+12 -3.59342e+12 -3.52267e+12 -3.47683e+12 -3.40911e+12 -3.36373e+12 -3.30371e+12 -3.26254e+12 -3.31474e+12 -3.3337e+12 -3.40579e+12 -3.42906e+12 -3.46138e+12 -3.48883e+12 -3.51674e+12 -3.5539e+12 -3.59472e+12 -3.90666e+12 -3.96024e+12 -4.00663e+12 -4.03679e+12 -4.03199e+12 -4.04566e+12 -4.04616e+12 -3.99331e+12 -3.87348e+12 -3.46459e+12 -3.865e+12 -4.09472e+12 -3.30208e+12 -5.0422e+12 -3.81002e+12 -4.8691e+12 -4.32233e+12 -3.53898e+12 -4.22952e+12 -3.33127e+12 -5.56149e+12 -4.69354e+12 -4.51022e+12 -4.40442e+12 -3.94247e+12 -4.09388e+12 -3.78454e+12 -2.39201e+12 -2.08128e+12 -1.58701e+12 -2.84372e+12 -3.08696e+12 -3.36623e+12 -3.32382e+12 -3.59104e+12 -3.92012e+12 -3.95549e+12 -4.02636e+12 -4.45871e+12 -4.62e+12 -4.86153e+12 -4.89839e+12 -4.77699e+12 -4.69089e+12 -4.20335e+12 -4.06422e+12 -3.98639e+12 -3.92211e+12 -3.86466e+12 -3.806e+12 -3.75828e+12 -3.72155e+12 -3.68703e+12 -3.7903e+12 -3.85893e+12 -3.85516e+12 -3.81251e+12 -3.74796e+12 -3.67314e+12 -3.59654e+12 -3.52522e+12 -3.45653e+12 -3.39908e+12 -3.33948e+12 -3.29099e+12 -3.2458e+12 -3.2142e+12 -3.20766e+12 -3.24031e+12 -3.26609e+12 -3.30664e+12 -3.33288e+12 -3.3622e+12 -3.39111e+12 -3.63946e+12 -3.68653e+12 -3.73351e+12 -3.7791e+12 -3.82041e+12 -3.85027e+12 -3.86105e+12 -3.8735e+12 -3.87642e+12 -3.85121e+12 -3.79672e+12 -3.70451e+12 -3.74337e+12 -3.74838e+12 -3.62393e+12 -5.06277e+12 -4.72809e+12 -4.50645e+12 -4.57222e+12 -4.09324e+12 -3.80601e+12 -3.89071e+12 -4.29596e+12 -4.78383e+12 -4.10129e+12 -3.98267e+12 -3.93175e+12 -3.29818e+12 -3.72548e+12 -3.77113e+12 -3.48756e+12 -3.4117e+12 -1.8173e+12 -1.39209e+12 -2.61863e+12 -2.51755e+12 -3.0183e+12 -3.28131e+12 -3.22863e+12 -3.18627e+12 -3.5752e+12 -3.59163e+12 -3.65589e+12 -4.11799e+12 -4.23932e+12 -4.36927e+12 -4.41695e+12 -4.29051e+12 -3.99135e+12 -3.88543e+12 -3.82749e+12 -3.77678e+12 -3.72377e+12 -3.66614e+12 -3.60822e+12 -3.5545e+12 -3.50195e+12 -3.42331e+12 -3.60688e+12 -3.61453e+12 -3.52865e+12 -3.45043e+12 -3.37942e+12 -3.31758e+12 -3.26046e+12 -3.21162e+12 -3.16992e+12 -3.13962e+12 -3.12558e+12 -3.13101e+12 -3.15383e+12 -3.17748e+12 -3.42162e+12 -3.45626e+12 -3.49293e+12 -3.53177e+12 -3.57154e+12 -3.60996e+12 -3.64504e+12 -3.67323e+12 -3.691e+12 -3.70483e+12 -3.71049e+12 -3.70152e+12 -3.67729e+12 -3.64082e+12 -3.56815e+12 -3.58753e+12 -4.28089e+12 -4.51809e+12 -4.5109e+12 -4.3489e+12 -4.21231e+12 -3.66135e+12 -3.92853e+12 -3.97812e+12 -4.15019e+12 -3.49609e+12 -3.34272e+12 -3.41531e+12 -3.41077e+12 -3.43891e+12 -3.04197e+12 -3.16126e+12 -3.17512e+12 -2.8481e+12 -1.60159e+12 -1.39089e+12 -1.19447e+12 -2.15462e+12 -2.39535e+12 -2.30781e+12 -2.74579e+12 -2.62928e+12 -2.94001e+12 -2.86691e+12 -2.77461e+12 -3.18296e+12 -3.22884e+12 -3.74114e+12 -3.84919e+12 -3.95632e+12 -4.002e+12 -4.83561e+12 -4.42417e+12 -4.3767e+12 -4.19079e+12 -3.99147e+12 -3.87265e+12 -3.80274e+12 -3.76242e+12 -3.68577e+12 -3.62906e+12 -3.57589e+12 -3.51952e+12 -3.45825e+12 -3.39217e+12 -3.31774e+12 -3.218e+12 -2.94591e+12 -3.72883e+12 -3.87852e+12 -3.85783e+12 -3.78969e+12 -3.70401e+12 -3.20657e+12 -3.23248e+12 -3.26006e+12 -3.28837e+12 -3.31821e+12 -3.35003e+12 -3.38282e+12 -3.41645e+12 -3.44944e+12 -3.47942e+12 -3.50424e+12 -3.52298e+12 -3.5383e+12 -3.54682e+12 -3.54597e+12 -3.53793e+12 -3.52652e+12 -3.51154e+12 -3.5977e+12 -3.62564e+12 -3.87929e+12 -4.0214e+12 -4.16027e+12 -4.14081e+12 -4.02416e+12 -3.93953e+12 -3.84286e+12 -3.57259e+12 -3.60076e+12 -3.57754e+12 -3.59327e+12 -2.76958e+12 -2.19822e+12 -3.27151e+12 -3.0145e+12 -3.60833e+12 -3.11299e+12 -2.33826e+12 -1.02367e+12 -836755000000.0 -1.01053e+12 -1.89753e+12 -2.08491e+12 -2.20315e+12 -2.37305e+12 -2.5099e+12 -2.38633e+12 -2.72017e+12 -2.7364e+12 -3.31443e+12 -3.41677e+12 -3.51207e+12 -3.59531e+12 -4.42276e+12 -4.34372e+12 -4.13006e+12 -3.99973e+12 -3.87996e+12 -3.74701e+12 -3.65743e+12 -3.59251e+12 -3.5415e+12 -3.48049e+12 -3.42636e+12 -3.37099e+12 -3.31018e+12 -3.24157e+12 -3.16064e+12 -3.05597e+12 -2.89162e+12 -2.51235e+12 -3.9383e+12 -3.92394e+12 -3.80048e+12 -3.67392e+12 -3.55786e+12 -3.45595e+12 -3.36833e+12 -3.29293e+12 -3.22838e+12 -3.17195e+12 -3.12378e+12 -3.08348e+12 -3.05296e+12 -3.03478e+12 -3.03065e+12 -3.03953e+12 -3.05776e+12 -3.0788e+12 -3.10305e+12 -3.1276e+12 -3.15347e+12 -3.18021e+12 -3.2081e+12 -3.23688e+12 -3.2658e+12 -3.29424e+12 -3.32047e+12 -3.34245e+12 -3.35955e+12 -3.37388e+12 -3.42357e+12 -3.45094e+12 -3.46633e+12 -3.68838e+12 -3.76613e+12 -3.82416e+12 -3.79494e+12 -3.72905e+12 -3.65784e+12 -3.57169e+12 -3.29205e+12 -3.23119e+12 -3.14077e+12 -3.02144e+12 -1.8418e+12 -3.77862e+12 -2.59768e+12 -2.02231e+12 -3.1716e+12 -2.60643e+12 -1.09622e+12 -956039000000.0 -669275000000.0 -1.61765e+12 -1.85107e+12 -1.82512e+12 -2.03829e+12 -1.95322e+12 -2.20501e+12 -1.99861e+12 -2.2191e+12 -2.11641e+12 -2.83611e+12 -2.93329e+12 -3.04541e+12 -4.01968e+12 -4.01177e+12 -3.9509e+12 -3.81913e+12 -3.70234e+12 -3.60314e+12 -3.50927e+12 -3.43599e+12 -3.37798e+12 -3.32871e+12 -3.27621e+12 -3.22313e+12 -3.16524e+12 -3.09984e+12 -3.02316e+12 -2.92823e+12 -2.80075e+12 -2.62859e+12 -3.95013e+12 -3.83589e+12 -3.65214e+12 -3.49905e+12 -3.37543e+12 -3.2764e+12 -3.19586e+12 -3.12939e+12 -3.07346e+12 -3.0265e+12 -2.98762e+12 -2.95733e+12 -2.93689e+12 -2.92738e+12 -2.92857e+12 -2.93859e+12 -2.95463e+12 -2.97366e+12 -2.99527e+12 -3.01817e+12 -3.0421e+12 -3.06677e+12 -3.09214e+12 -3.1176e+12 -3.14238e+12 -3.38433e+12 -3.38796e+12 -3.38681e+12 -3.38477e+12 -3.3845e+12 -3.30528e+12 -3.60062e+12 -3.51172e+12 -3.52238e+12 -3.49444e+12 -3.44176e+12 -3.38175e+12 -3.35322e+12 -2.95853e+12 -2.84239e+12 -2.67885e+12 -2.42809e+12 -3.55629e+12 -3.14639e+12 -1.47477e+12 -3.69457e+12 -1.79037e+12 -1.59773e+12 -1.04495e+12 -1.64262e+12 -755625000000.0 -493458000000.0 -1.31723e+12 -1.29307e+12 -1.58789e+12 -1.58021e+12 -1.84174e+12 -1.9578e+12 -1.70798e+12 -1.81277e+12 -1.45436e+12 -2.2873e+12 -2.40548e+12 -2.56151e+12 -3.14719e+12 -3.65178e+12 -3.67414e+12 -3.65972e+12 -3.60979e+12 -3.51376e+12 -3.42402e+12 -3.35076e+12 -3.27905e+12 -3.21819e+12 -3.1686e+12 -3.12388e+12 -3.07554e+12 -2.2852e+12 -3.79043e+12 -3.62438e+12 -3.42881e+12 -3.28064e+12 -3.17027e+12 -3.08561e+12 -3.01856e+12 -2.96408e+12 -2.91922e+12 -2.88246e+12 -2.85337e+12 -2.83233e+12 -2.81996e+12 -2.81635e+12 -2.82067e+12 -2.83122e+12 -2.84602e+12 -2.86352e+12 -2.88323e+12 -2.9043e+12 -2.92611e+12 -3.16552e+12 -3.18536e+12 -3.20093e+12 -3.21342e+12 -3.22373e+12 -3.22994e+12 -3.2319e+12 -3.23382e+12 -3.24002e+12 -3.26247e+12 -3.28125e+12 -3.37632e+12 -3.43557e+12 -3.47169e+12 -3.26268e+12 -3.2515e+12 -3.21954e+12 -3.17337e+12 -3.13117e+12 -3.06097e+12 -2.43204e+12 -2.1916e+12 -1.71803e+12 -2.8197e+12 -2.31786e+12 -3.20631e+12 -2.91274e+12 -2.37905e+12 -914078000000.0 -1.55416e+12 -1.2746e+12 -488230000000.0 -305277000000.0 -655092000000.0 -997823000000.0 -974448000000.0 -1.28196e+12 -1.62789e+12 -1.77311e+12 -1.86992e+12 -1.52183e+12 -1.33131e+12 -1.38617e+12 -1.72828e+12 -1.82228e+12 -1.97122e+12 -2.68459e+12 -3.24561e+12 -3.30929e+12 -3.33371e+12 -3.32168e+12 -3.28922e+12 -3.22679e+12 -3.1693e+12 -3.11423e+12 -3.02271e+12 -2.96329e+12 -2.89489e+12 -2.8136e+12 -2.71325e+12 -2.58967e+12 -2.44715e+12 -2.15207e+12 -3.49124e+12 -3.32638e+12 -3.15993e+12 -3.04331e+12 -2.95858e+12 -2.89383e+12 -2.84271e+12 -2.80145e+12 -2.76793e+12 -2.74122e+12 -2.7211e+12 -2.70781e+12 -2.70153e+12 -2.70197e+12 -2.70825e+12 -2.94837e+12 -2.97077e+12 -2.99257e+12 -3.01301e+12 -3.03101e+12 -3.04549e+12 -3.05652e+12 -3.06531e+12 -3.07209e+12 -3.07596e+12 -3.07909e+12 -3.08576e+12 -3.10032e+12 -3.11557e+12 -3.13361e+12 -3.1769e+12 -3.21761e+12 -3.24588e+12 -3.2565e+12 -2.99758e+12 -2.96232e+12 -2.92237e+12 -2.85039e+12 -2.74447e+12 -2.60087e+12 -2.00534e+12 -1.64829e+12 -3.07383e+12 -2.4101e+12 -2.05227e+12 -1.34335e+12 -2.3423e+12 -2.02214e+12 -1.44715e+12 -686840000000.0 -718718000000.0 -606928000000.0 -731630000000.0 -340949000000.0 -280518000000.0 -103368000000.0 -107357000000.0 -293770000000.0 -634985000000.0 -956399000000.0 -1.31053e+12 -1.44802e+12 -2.03829e+12 -997761000000.0 -1.53308e+12 -2.02117e+12 -1.52839e+12 -1.49177e+12 -2.1632e+12 -2.82263e+12 -2.90882e+12 -2.97679e+12 -3.01265e+12 -3.02228e+12 -3.05736e+12 -3.00882e+12 -2.96767e+12 -2.92669e+12 -2.88075e+12 -2.82913e+12 -2.77039e+12 -2.70267e+12 -2.6236e+12 -2.53185e+12 -2.42891e+12 -2.31298e+12 -2.08296e+12 -3.10872e+12 -2.71904e+12 -2.73297e+12 -2.74912e+12 -2.76709e+12 -2.7862e+12 -2.80574e+12 -2.82527e+12 -2.84434e+12 -2.86227e+12 -2.87833e+12 -2.89172e+12 -2.902e+12 -2.9096e+12 -2.9155e+12 -2.92005e+12 -2.92368e+12 -2.92893e+12 -2.93892e+12 -2.95184e+12 -2.96627e+12 -2.9951e+12 -3.02246e+12 -3.04e+12 -3.04311e+12 -3.03291e+12 -3.01888e+12 -2.72702e+12 -2.66359e+12 -2.5662e+12 -2.42717e+12 -2.22422e+12 -1.55727e+12 -2.53364e+12 -1.31554e+12 -2.45195e+12 -1.52595e+12 -1.19568e+12 -265687000000.0 -844786000000.0 -168369000000.0 -177706000000.0 -279103000000.0 -608389000000.0 -579095000000.0 -947222000000.0 -982247000000.0 -1.68117e+12 -1.9913e+12 -1.23713e+12 -1.76354e+12 -2.424e+12 -2.67203e+12 -1.37814e+12 -1.43725e+12 -2.39362e+12 -2.53019e+12 -2.62171e+12 -2.68531e+12 -3.00108e+12 -2.96848e+12 -2.93354e+12 -2.89009e+12 -2.84661e+12 -2.81013e+12 -2.77571e+12 -2.73791e+12 -2.69501e+12 -2.64648e+12 -2.5913e+12 -2.52913e+12 -2.46037e+12 -2.38608e+12 -2.30552e+12 -2.21564e+12 -2.05415e+12 -2.98611e+12 -2.8839e+12 -2.80935e+12 -2.75269e+12 -2.7082e+12 -2.67263e+12 -2.6439e+12 -2.62089e+12 -2.60312e+12 -2.59057e+12 -2.5834e+12 -2.58159e+12 -2.5848e+12 -2.59229e+12 -2.60307e+12 -2.61615e+12 -2.63096e+12 -2.64716e+12 -2.6641e+12 -2.68113e+12 -2.6977e+12 -2.71327e+12 -2.72729e+12 -2.73925e+12 -2.74873e+12 -2.75564e+12 -2.76056e+12 -2.76448e+12 -2.7679e+12 -2.77202e+12 -2.77893e+12 -2.78887e+12 -2.80025e+12 -2.81785e+12 -2.83515e+12 -2.84513e+12 -2.83991e+12 -2.82468e+12 -2.80054e+12 -2.77462e+12 -2.7485e+12 -2.41377e+12 -2.3007e+12 -2.13031e+12 -1.80838e+12 -2.02404e+12 -1.99054e+12 -1.80259e+12 -1.70244e+12 -1.66021e+12 -732860000000.0 -572246000000.0 -589964000000.0 -287091000000.0 -255848000000.0 -215983000000.0 -526866000000.0 -1.16775e+12 -1.42215e+12 -863106000000.0 -1.16476e+12 -2.08829e+12 -2.57178e+12 -2.48507e+12 -2.293e+12 -1.93672e+12 -2.13434e+12 -2.25888e+12 -2.73107e+12 -2.7459e+12 -2.74537e+12 -2.73648e+12 -2.71154e+12 -2.67873e+12 -2.64932e+12 -2.62278e+12 -2.59354e+12 -2.5596e+12 -2.52109e+12 -2.47755e+12 -2.42911e+12 -2.37739e+12 -2.32428e+12 -2.27033e+12 -2.67934e+12 -2.66604e+12 -2.62855e+12 -2.59104e+12 -2.55899e+12 -2.53218e+12 -2.51017e+12 -2.49236e+12 -2.47835e+12 -2.46801e+12 -2.4615e+12 -2.45897e+12 -2.46035e+12 -2.46536e+12 -2.47348e+12 -2.48396e+12 -2.49608e+12 -2.50944e+12 -2.52369e+12 -2.53827e+12 -2.55255e+12 -2.56599e+12 -2.57806e+12 -2.58835e+12 -2.59663e+12 -2.62635e+12 -2.63486e+12 -2.64459e+12 -2.65389e+12 -2.65709e+12 -2.64894e+12 -2.6286e+12 -2.59855e+12 -2.55914e+12 -2.50741e+12 -2.54283e+12 -2.49506e+12 -2.18542e+12 -2.06171e+12 -1.90566e+12 -1.382e+12 -1.57281e+12 -1.55787e+12 -1.52402e+12 -1.37997e+12 -1.32605e+12 -1.11749e+12 -276986000000.0 -486368000000.0 -172069000000.0 -153813000000.0 -444948000000.0 -881705000000.0 -1.5723e+12 -750226000000.0 -1.51671e+12 -2.18564e+12 -2.015e+12 -1.91334e+12 -1.84546e+12 -1.85269e+12 -1.92475e+12 -2.35848e+12 -2.43141e+12 -2.47485e+12 -2.50249e+12 -2.51934e+12 -2.51771e+12 -2.50094e+12 -2.48286e+12 -2.46644e+12 -2.44733e+12 -2.42271e+12 -2.39341e+12 -2.36025e+12 -2.21599e+12 -2.16222e+12 -2.10294e+12 -2.37648e+12 -2.40914e+12 -2.40451e+12 -2.39239e+12 -2.37902e+12 -2.36637e+12 -2.35557e+12 -2.34679e+12 -2.34006e+12 -2.3356e+12 -2.33371e+12 -2.33453e+12 -2.33804e+12 -2.34407e+12 -2.35231e+12 -2.36218e+12 -2.37313e+12 -2.38483e+12 -2.60288e+12 -2.6072e+12 -2.61022e+12 -2.61281e+12 -2.6157e+12 -2.61992e+12 -2.44589e+12 -2.41348e+12 -2.36866e+12 -2.2962e+12 -2.41083e+12 -2.3491e+12 -2.27675e+12 -1.88315e+12 -1.77503e+12 -1.12379e+12 -1.21348e+12 -1.32586e+12 -890934000000.0 -469456000000.0 -114427000000.0 -1.00827e+12 -1.02985e+12 -1.04541e+12 -1.70154e+12 -1.72979e+12 -1.28009e+12 -1.73082e+12 -1.51353e+12 -2.02819e+12 -2.12126e+12 -2.18899e+12 -2.24115e+12 -2.28358e+12 -2.30618e+12 -2.31003e+12 -2.30739e+12 -2.30464e+12 -2.32345e+12 -2.28463e+12 -2.24645e+12 -2.21036e+12 -2.1768e+12 -2.14777e+12 -2.12224e+12 -2.06848e+12 -2.15717e+12 -2.18996e+12 -2.20462e+12 -2.21068e+12 -2.21153e+12 -2.21018e+12 -2.20838e+12 -2.20673e+12 -2.20563e+12 -2.39694e+12 -2.40896e+12 -2.42036e+12 -2.43062e+12 -2.43933e+12 -2.44624e+12 -2.45135e+12 -2.4549e+12 -2.45722e+12 -2.45893e+12 -2.4607e+12 -2.46307e+12 -2.46639e+12 -2.47132e+12 -2.47626e+12 -2.47969e+12 -2.47777e+12 -2.46723e+12 -2.19751e+12 -2.12432e+12 -2.28751e+12 -2.21906e+12 -2.14633e+12 -2.07093e+12 -1.98329e+12 -1.33759e+12 -1.09805e+12 -1.0438e+12 -1.08588e+12 -1.04725e+12 -301404000000.0 -116810000000.0 -459970000000.0 -575360000000.0 -612066000000.0 -1.24916e+12 -1.42059e+12 -1.53975e+12 -1.66484e+12 -1.79066e+12 -1.89114e+12 -1.97041e+12 -2.02695e+12 -2.07405e+12 -2.29793e+12 -2.28391e+12 -2.26366e+12 -2.23933e+12 -2.21231e+12 -2.18388e+12 -2.15658e+12 -2.13267e+12 -2.11281e+12 -2.09826e+12 -2.08645e+12 -2.05534e+12 -1.84395e+12 -2.20559e+12 -2.20702e+12 -2.21006e+12 -2.21479e+12 -2.2212e+12 -2.22909e+12 -2.23801e+12 -2.24755e+12 -2.25738e+12 -2.26717e+12 -2.27652e+12 -2.28497e+12 -2.29214e+12 -2.29774e+12 -2.30169e+12 -2.30415e+12 -2.30545e+12 -2.30613e+12 -2.30679e+12 -2.30771e+12 -2.309e+12 -2.31092e+12 -2.31255e+12 -2.3123e+12 -2.30693e+12 -2.29416e+12 -2.27276e+12 -2.24095e+12 -2.14239e+12 -2.08504e+12 -2.01585e+12 -1.94747e+12 -1.88407e+12 -1.82799e+12 -1.81516e+12 -2.00897e+12 -1.13063e+12 -1.11056e+12 -901981000000.0 -702120000000.0 -205452000000.0 -409164000000.0 -835822000000.0 -942353000000.0 -1.66479e+12 -1.2919e+12 -1.29448e+12 -964979000000.0 -1.25385e+12 -1.4369e+12 -1.57667e+12 -1.69911e+12 -2.10242e+12 -2.11983e+12 -2.13567e+12 -2.14535e+12 -2.14281e+12 -2.13172e+12 -2.11528e+12 -2.09617e+12 -2.07621e+12 -2.05742e+12 -2.04263e+12 -2.03367e+12 -2.03152e+12 -2.03859e+12 -2.05185e+12 -2.07252e+12 -1.93478e+12 -1.98943e+12 -2.02297e+12 -2.04345e+12 -2.05547e+12 -2.06298e+12 -2.06807e+12 -2.07169e+12 -2.07465e+12 -2.07768e+12 -2.08121e+12 -2.08549e+12 -2.09069e+12 -2.09692e+12 -2.10403e+12 -2.11169e+12 -2.11956e+12 -2.12733e+12 -2.13472e+12 -2.14136e+12 -2.14692e+12 -2.15116e+12 -2.15396e+12 -2.15531e+12 -2.15547e+12 -2.15492e+12 -2.15427e+12 -2.15375e+12 -2.15336e+12 -2.15304e+12 -2.15245e+12 -2.14968e+12 -2.14199e+12 -2.12804e+12 -2.10629e+12 -2.07573e+12 -2.03508e+12 -1.96384e+12 -1.81544e+12 -1.75538e+12 -1.70183e+12 -1.66794e+12 -1.69184e+12 -1.74687e+12 -839295000000.0 -884109000000.0 -881021000000.0 -678397000000.0 -98822500000.0 -201004000000.0 -431766000000.0 -538333000000.0 -1.14793e+12 -1.54922e+12 -591526000000.0 -835711000000.0 -1.27532e+12 -808864000000.0 -1.15985e+12 -1.33703e+12 -1.76752e+12 -1.81068e+12 -1.87079e+12 -1.91535e+12 -1.95729e+12 -1.99047e+12 -2.00083e+12 -1.99816e+12 -1.98856e+12 -1.97576e+12 -1.96243e+12 -1.95049e+12 -1.94225e+12 -1.94043e+12 -1.94687e+12 -1.96407e+12 -1.61283e+12 -1.74745e+12 -1.81675e+12 -1.86189e+12 -1.89103e+12 -1.91054e+12 -1.92425e+12 -1.93402e+12 -1.94112e+12 -1.94667e+12 -1.95148e+12 -1.95605e+12 -1.96073e+12 -1.96577e+12 -1.97132e+12 -1.97729e+12 -1.98342e+12 -1.98942e+12 -1.99503e+12 -1.99997e+12 -2.00393e+12 -2.00673e+12 -2.00828e+12 -2.00851e+12 -2.00754e+12 -2.0057e+12 -2.00355e+12 -2.00147e+12 -1.99947e+12 -1.99734e+12 -1.99492e+12 -1.99082e+12 -1.9818e+12 -1.96682e+12 -1.94497e+12 -1.91545e+12 -1.8779e+12 -1.81044e+12 -1.98717e+12 -1.93926e+12 -1.87861e+12 -1.56491e+12 -1.51322e+12 -1.28024e+12 -1.32957e+12 -588406000000.0 -678560000000.0 -725477000000.0 -67507700000.0 -505889000000.0 -613604000000.0 -211349000000.0 -809926000000.0 -1.2921e+12 -822565000000.0 -1.46612e+12 -1.52769e+12 -1.56123e+12 -1.57133e+12 -1.67882e+12 -1.76722e+12 -1.83847e+12 -1.86105e+12 -1.86468e+12 -1.85986e+12 -1.8517e+12 -1.99613e+12 -2.0501e+12 -2.12681e+12 -1.45939e+12 -1.60111e+12 -1.67077e+12 -1.71879e+12 -1.75219e+12 -1.77603e+12 -1.79318e+12 -1.80545e+12 -1.81437e+12 -1.82115e+12 -1.82659e+12 -1.83128e+12 -1.83565e+12 -1.84002e+12 -1.84452e+12 -1.78966e+12 -1.76001e+12 -1.72429e+12 -1.65981e+12 -1.82654e+12 -1.78717e+12 -1.73332e+12 -1.6785e+12 -1.62076e+12 -1.46616e+12 -919547000000.0 -361152000000.0 -660057000000.0 -448103000000.0 -140286000000.0 -296587000000.0 -1.4244e+12 -278875000000.0 -885808000000.0 -1.10029e+12 -1.23663e+12 -1.31791e+12 -1.34015e+12 -1.32681e+12 -1.23549e+12 -1.56345e+12 -1.70888e+12 -1.8432e+12 -1.83649e+12 -1.83328e+12 -1.83584e+12 -1.84674e+12 -1.86819e+12 -1.90363e+12 -1.95906e+12 -2.03927e+12 -2.12023e+12 -1.33696e+12 -1.47808e+12 -1.5432e+12 -1.84905e+12 -1.85343e+12 -1.85744e+12 -1.86082e+12 -1.86329e+12 -1.86465e+12 -1.86487e+12 -1.86392e+12 -1.86179e+12 -1.85872e+12 -1.8551e+12 -1.85132e+12 -1.8476e+12 -1.84377e+12 -1.83982e+12 -1.83495e+12 -1.8259e+12 -1.81078e+12 -1.51111e+12 -1.66315e+12 -1.62969e+12 -1.58231e+12 -1.53702e+12 -1.48646e+12 -1.43289e+12 -1.38201e+12 -1.33393e+12 -1.26942e+12 -846070000000.0 -493384000000.0 -235074000000.0 -47409100000.0 -368134000000.0 -677759000000.0 -1.27842e+12 -1.23682e+12 -860021000000.0 -1.00665e+12 -1.12046e+12 -1.159e+12 -1.1461e+12 -1.7324e+12 -1.73503e+12 -1.73073e+12 -1.72452e+12 -1.71903e+12 -1.71593e+12 -1.71653e+12 -1.72215e+12 -1.73488e+12 -1.75719e+12 -1.79142e+12 -1.84107e+12 -1.90931e+12 -1.99604e+12 -2.06717e+12 -1.59055e+12 -1.62512e+12 -1.65032e+12 -1.66847e+12 -1.68141e+12 -1.69069e+12 -1.69746e+12 -1.70256e+12 -1.70664e+12 -1.71016e+12 -1.71346e+12 -1.7166e+12 -1.71947e+12 -1.72198e+12 -1.72391e+12 -1.72497e+12 -1.72497e+12 -1.72387e+12 -1.72169e+12 -1.7184e+12 -1.71416e+12 -1.70917e+12 -1.7037e+12 -1.69813e+12 -1.6926e+12 -1.68688e+12 -1.68135e+12 -1.67327e+12 -1.65942e+12 -1.64051e+12 -1.61308e+12 -1.57509e+12 -1.424e+12 -1.39254e+12 -1.34997e+12 -1.30222e+12 -1.25006e+12 -1.20087e+12 -1.15227e+12 -977119000000.0 -551938000000.0 -564771000000.0 -267138000000.0 -411942000000.0 -666175000000.0 -1.21262e+12 -601696000000.0 -957929000000.0 -1.14546e+12 -866492000000.0 -955234000000.0 -1.01818e+12 -1.05301e+12 -764636000000.0 -1.67481e+12 -1.63467e+12 -1.61461e+12 -1.60262e+12 -1.59471e+12 -1.59028e+12 -1.5895e+12 -1.59268e+12 -1.60056e+12 -1.61422e+12 -1.63561e+12 -1.66686e+12 -1.70986e+12 -1.76646e+12 -1.8368e+12 -1.92085e+12 -1.9745e+12 -1.23542e+12 -1.37095e+12 -1.42998e+12 -1.47443e+12 -1.50748e+12 -1.53159e+12 -1.54879e+12 -1.56086e+12 -1.56921e+12 -1.57495e+12 -1.57894e+12 -1.58185e+12 -1.58416e+12 -1.58608e+12 -1.58763e+12 -1.58872e+12 -1.58925e+12 -1.58898e+12 -1.58768e+12 -1.58533e+12 -1.58195e+12 -1.57751e+12 -1.57212e+12 -1.56589e+12 -1.55891e+12 -1.55146e+12 -1.54401e+12 -1.53657e+12 -1.52927e+12 -1.52194e+12 -1.51043e+12 -1.49579e+12 -1.47448e+12 -1.43998e+12 -1.36744e+12 -1.5006e+12 -1.46621e+12 -1.1723e+12 -1.12536e+12 -1.06571e+12 -1.01743e+12 -921672000000.0 -695487000000.0 -266901000000.0 -471469000000.0 -97611500000.0 -38809300000.0 -268861000000.0 -376901000000.0 -750238000000.0 -969849000000.0 -1.05583e+12 -836906000000.0 -1.03053e+12 -987562000000.0 -842066000000.0 -1.50425e+12 -1.48657e+12 -1.46974e+12 -1.46025e+12 -1.45623e+12 -1.4575e+12 -1.46292e+12 -1.47228e+12 -1.48649e+12 -1.14921e+12 -1.27582e+12 -1.32788e+12 -1.3675e+12 -1.39688e+12 -1.41804e+12 -1.43276e+12 -1.44264e+12 -1.44902e+12 -1.45299e+12 -1.45536e+12 -1.45676e+12 -1.45759e+12 -1.45793e+12 -1.45769e+12 -1.45687e+12 -1.45531e+12 -1.45278e+12 -1.44924e+12 -1.4447e+12 -1.37919e+12 -1.36968e+12 -1.36087e+12 -1.35108e+12 -1.341e+12 -1.31996e+12 -1.26185e+12 -1.33834e+12 -1.2971e+12 -1.25794e+12 -1.25067e+12 -1.21391e+12 -418568000000.0 -361794000000.0 -77598800000.0 -215115000000.0 -779732000000.0 -954086000000.0 -825040000000.0 -948937000000.0 -908585000000.0 -938890000000.0 -935372000000.0 -516123000000.0 -1.34241e+12 -1.33372e+12 -1.32061e+12 -1.5066e+12 -1.53433e+12 -1.57116e+12 -1.61795e+12 -1.67472e+12 -1.74105e+12 -1.81583e+12 -1.84835e+12 -1.07448e+12 -1.18952e+12 -1.2337e+12 -1.26699e+12 -1.29114e+12 -1.30789e+12 -1.31887e+12 -1.32559e+12 -1.43915e+12 -1.43262e+12 -1.42524e+12 -1.41696e+12 -1.40784e+12 -1.39835e+12 -1.38885e+12 -1.20186e+12 -1.16999e+12 -1.17796e+12 -1.09705e+12 -1.10402e+12 -1.11403e+12 -1.08138e+12 -1.04432e+12 -1.00408e+12 -960558000000.0 -888609000000.0 -822815000000.0 -659117000000.0 -414400000000.0 -36199700000.0 -398736000000.0 -785498000000.0 -723971000000.0 -996696000000.0 -776071000000.0 -855728000000.0 -881010000000.0 -877596000000.0 -391542000000.0 -443869000000.0 -1.31611e+12 -1.31933e+12 -1.32787e+12 -1.3388e+12 -1.35319e+12 -1.37215e+12 -1.39668e+12 -1.42804e+12 -1.46688e+12 -1.51303e+12 -1.5659e+12 -1.62414e+12 -1.68557e+12 -1.69676e+12 -1.32932e+12 -1.33105e+12 -1.33153e+12 -1.33129e+12 -1.33045e+12 -1.32892e+12 -1.32678e+12 -1.32393e+12 -1.32018e+12 -1.3155e+12 -1.30986e+12 -1.30318e+12 -1.29552e+12 -1.28698e+12 -1.27759e+12 -1.2672e+12 -1.2559e+12 -1.24422e+12 -1.23162e+12 -1.2194e+12 -1.20777e+12 -1.20112e+12 -1.20035e+12 -943871000000.0 -967464000000.0 -952595000000.0 -917326000000.0 -881824000000.0 -843667000000.0 -802146000000.0 -723484000000.0 -567761000000.0 -434547000000.0 -50970900000.0 -192511000000.0 -376314000000.0 -405610000000.0 -564699000000.0 -806923000000.0 -904329000000.0 -967407000000.0 -713433000000.0 -838460000000.0 -866287000000.0 -317265000000.0 -371412000000.0 -1.17824e+12 -1.17511e+12 -1.16868e+12 -1.17396e+12 -1.18735e+12 -1.2011e+12 -1.21581e+12 -1.23363e+12 -1.25554e+12 -1.28237e+12 -1.31478e+12 -1.35269e+12 -1.3955e+12 -1.44193e+12 -1.48993e+12 -1.53649e+12 -1.52838e+12 -1.00784e+12 -1.10929e+12 -1.14475e+12 -1.17048e+12 -1.18811e+12 -1.19927e+12 -1.2056e+12 -1.20856e+12 -1.20927e+12 -1.20863e+12 -1.20723e+12 -1.2052e+12 -1.20244e+12 -1.19904e+12 -1.1949e+12 -1.18987e+12 -1.18403e+12 -1.17731e+12 -1.16953e+12 -1.16076e+12 -1.15105e+12 -1.14058e+12 -1.12925e+12 -1.11697e+12 -1.1036e+12 -1.08851e+12 -1.07105e+12 -1.05613e+12 -1.03933e+12 -1.04682e+12 -1.06932e+12 -1.07169e+12 -1.03008e+12 -1.01038e+12 -789465000000.0 -758104000000.0 -688678000000.0 -641850000000.0 -494804000000.0 -398813000000.0 -394706000000.0 -95476600000.0 -48620000000.0 -142319000000.0 -546464000000.0 -730844000000.0 -845171000000.0 -982455000000.0 -730991000000.0 -832218000000.0 -277892000000.0 -389524000000.0 -1.00431e+12 -1.00886e+12 -1.01845e+12 -1.04131e+12 -1.05973e+12 -1.07574e+12 -1.09241e+12 -1.11203e+12 -1.13518e+12 -1.16242e+12 -1.19389e+12 -1.2291e+12 -1.26705e+12 -1.30596e+12 -1.34329e+12 -1.37543e+12 -1.35125e+12 -946577000000.0 -1.03294e+12 -1.05865e+12 -1.0756e+12 -1.08554e+12 -1.09019e+12 -1.09133e+12 -1.09034e+12 -1.08815e+12 -1.08533e+12 -1.08206e+12 -1.07818e+12 -1.07359e+12 -1.06825e+12 -1.06192e+12 -1.05482e+12 -1.047e+12 -1.03809e+12 -1.02824e+12 -1.0175e+12 -1.00592e+12 -993746000000.0 -980939000000.0 -966756000000.0 -950944000000.0 -931300000000.0 -905076000000.0 -882047000000.0 -860088000000.0 -916098000000.0 -940584000000.0 -885680000000.0 -894693000000.0 -853247000000.0 -816011000000.0 -813582000000.0 -725357000000.0 -312409000000.0 -148452000000.0 -42543200000.0 -342831000000.0 -382924000000.0 -436741000000.0 -428304000000.0 -586988000000.0 -776397000000.0 -836311000000.0 -302923000000.0 -318407000000.0 -322391000000.0 -807896000000.0 -842505000000.0 -889828000000.0 -888576000000.0 -958418000000.0 -972886000000.0 -979654000000.0 -980812000000.0 -978465000000.0 -974601000000.0 -970249000000.0 -965587000000.0 -960811000000.0 -955773000000.0 -764999000000.0 -796425000000.0 -739754000000.0 -801824000000.0 -741248000000.0 -709375000000.0 -679706000000.0 -661640000000.0 -634037000000.0 -604648000000.0 -575567000000.0 -535250000000.0 -427470000000.0 -351754000000.0 -53520800000.0 -209813000000.0 -318239000000.0 -312467000000.0 -327502000000.0 -326109000000.0 -1.08307e+12 -264620000000.0 -257001000000.0 -241229000000.0 -248638000000.0 -231551000000.0 -915307000000.0 -933969000000.0 -949807000000.0 -967188000000.0 -987211000000.0 -1.01019e+12 -1.03647e+12 -1.06579e+12 -1.09747e+12 -1.13017e+12 -1.16177e+12 -1.18937e+12 -1.20894e+12 -1.17221e+12 -950158000000.0 -943867000000.0 -936373000000.0 -927990000000.0 -918997000000.0 -908786000000.0 -897806000000.0 -886176000000.0 -873654000000.0 -860383000000.0 -846670000000.0 -832940000000.0 -817626000000.0 -799589000000.0 -774099000000.0 -729552000000.0 -771889000000.0 -657635000000.0 -594364000000.0 -569174000000.0 -539874000000.0 -510925000000.0 -482016000000.0 -456939000000.0 -441330000000.0 -338358000000.0 -304567000000.0 -245939000000.0 -142057000000.0 -42475400000.0 -127414000000.0 -215931000000.0 -217170000000.0 -353006000000.0 -651144000000.0 -505249000000.0 -439874000000.0 -196629000000.0 -165231000000.0 -175171000000.0 -603470000000.0 -736739000000.0 -771894000000.0 -792592000000.0 -807034000000.0 -821959000000.0 -839050000000.0 -858380000000.0 -880283000000.0 -904811000000.0 -931528000000.0 -959695000000.0 -987760000000.0 -1.01337e+12 -1.03331e+12 -1.04306e+12 -996842000000.0 -831959000000.0 -883209000000.0 -884234000000.0 -879211000000.0 -871076000000.0 -862502000000.0 -855044000000.0 -848085000000.0 -841443000000.0 -834912000000.0 -828351000000.0 -821282000000.0 -813023000000.0 -803413000000.0 -793264000000.0 -781867000000.0 -769537000000.0 -757027000000.0 -743488000000.0 -729252000000.0 -714232000000.0 -699431000000.0 -685868000000.0 -671124000000.0 -653572000000.0 -625158000000.0 -638871000000.0 -667796000000.0 -644681000000.0 -604083000000.0 -632170000000.0 -389092000000.0 -277729000000.0 -227678000000.0 -173332000000.0 -142724000000.0 -54068600000.0 -67669800000.0 -202862000000.0 -188566000000.0 -126744000000.0 -457926000000.0 -437748000000.0 -658718000000.0 -175908000000.0 -113656000000.0 -110223000000.0 -648803000000.0 -653810000000.0 -660110000000.0 -666391000000.0 -677298000000.0 -691215000000.0 -707228000000.0 -725244000000.0 -745550000000.0 -768063000000.0 -792446000000.0 -817946000000.0 -842924000000.0 -864911000000.0 -880221000000.0 -883479000000.0 -829860000000.0 -774496000000.0 -803467000000.0 -787941000000.0 -769897000000.0 -754008000000.0 -742629000000.0 -732885000000.0 -724050000000.0 -715880000000.0 -708273000000.0 -700159000000.0 -691245000000.0 -680857000000.0 -669522000000.0 -657157000000.0 -643228000000.0 -629609000000.0 -615313000000.0 -600149000000.0 -584175000000.0 -567474000000.0 -551226000000.0 -540213000000.0 -531097000000.0 -516109000000.0 -541217000000.0 -525371000000.0 -558309000000.0 -480833000000.0 -502365000000.0 -516592000000.0 -523700000000.0 -447306000000.0 -433449000000.0 -354474000000.0 -326568000000.0 -319189000000.0 -100958000000.0 -70536500000.0 -159031000000.0 -154971000000.0 -144540000000.0 -149634000000.0 -128488000000.0 -237153000000.0 -292940000000.0 -388462000000.0 -399267000000.0 -144545000000.0 -125454000000.0 -177673000000.0 -151104000000.0 -167052000000.0 -205652000000.0 -528707000000.0 -532577000000.0 -525355000000.0 -712426000000.0 -711939000000.0 -675976000000.0 -646811000000.0 -632449000000.0 -619723000000.0 -608049000000.0 -598790000000.0 -589788000000.0 -581110000000.0 -571077000000.0 -560045000000.0 -443742000000.0 -414843000000.0 -426547000000.0 -373298000000.0 -337795000000.0 -409320000000.0 -387228000000.0 -397768000000.0 -304087000000.0 -294476000000.0 -239407000000.0 -174046000000.0 -180569000000.0 -209879000000.0 -161709000000.0 -98568700000.0 -100093000000.0 -107107000000.0 -100494000000.0 -84484500000.0 -65416800000.0 -223896000000.0 -229605000000.0 -188851000000.0 -183194000000.0 -203462000000.0 -171396000000.0 -532236000000.0 -543520000000.0 -556744000000.0 -571371000000.0 -587725000000.0 -606207000000.0 -626948000000.0 -649923000000.0 -674467000000.0 -699024000000.0 -720918000000.0 -735620000000.0 -736389000000.0 -676053000000.0 -547593000000.0 -534158000000.0 -518961000000.0 -503703000000.0 -488875000000.0 -472945000000.0 -456105000000.0 -437717000000.0 -417835000000.0 -397743000000.0 -403548000000.0 -404129000000.0 -284185000000.0 -269454000000.0 -276845000000.0 -161327000000.0 -154888000000.0 -44779300000.0 -130801000000.0 -115614000000.0 -142165000000.0 -111066000000.0 -92006400000.0 -42625300000.0 -62063300000.0 -82574100000.0 -84445800000.0 -109331000000.0 -269845000000.0 -294692000000.0 -413336000000.0 -408650000000.0 -378517000000.0 -384030000000.0 -395013000000.0 -406800000000.0 -418771000000.0 -431425000000.0 -445702000000.0 -462356000000.0 -482059000000.0 -505247000000.0 -531628000000.0 -559842000000.0 -586775000000.0 -606438000000.0 -610359000000.0 -542773000000.0 -636670000000.0 -592206000000.0 -534359000000.0 -520652000000.0 -507870000000.0 -491272000000.0 -481449000000.0 -472298000000.0 -463565000000.0 -453341000000.0 -440889000000.0 -427414000000.0 -412732000000.0 -396657000000.0 -379409000000.0 -363240000000.0 -346742000000.0 -329970000000.0 -310763000000.0 -289284000000.0 -266132000000.0 -263080000000.0 -281873000000.0 -323526000000.0 -321963000000.0 -293873000000.0 -249832000000.0 -255905000000.0 -258194000000.0 -36666400000.0 -20466100000.0 -9035750000.0 -94636600000.0 -99843400000.0 -93585300000.0 -107382000000.0 -125183000000.0 -125846000000.0 -119391000000.0 -133601000000.0 -188154000000.0 -155750000000.0 -154214000000.0 -154803000000.0 -169994000000.0 -155650000000.0 -156343000000.0 -189950000000.0 -215800000000.0 -235325000000.0 -249369000000.0 -260290000000.0 -269788000000.0 -279664000000.0 -291453000000.0 -306605000000.0 -326615000000.0 -352844000000.0 -385721000000.0 -424276000000.0 -464989000000.0 -499191000000.0 -522015000000.0 -441722000000.0 -515948000000.0 -392026000000.0 -396240000000.0 -396561000000.0 -373511000000.0 -357598000000.0 -353234000000.0 -346933000000.0 -337359000000.0 -324483000000.0 -309436000000.0 -292996000000.0 -275466000000.0 -256553000000.0 -238093000000.0 -220774000000.0 -203986000000.0 -188475000000.0 -166398000000.0 -159433000000.0 -162665000000.0 -160821000000.0 -175161000000.0 -217476000000.0 -155613000000.0 -135661000000.0 -141235000000.0 -149443000000.0 -143423000000.0 -159707000000.0 -150918000000.0 -155449000000.0 -63952200000.0 -9035750000.0 -15332300000.0 -56044500000.0 -37618200000.0 -32239800000.0 -18423000000.0 -22492500000.0 -23766800000.0 -22669000000.0 -20149400000.0 -15132000000.0 -51296900000.0 -9035750000.0 -13838300000.0 -13503400000.0 -21219500000.0 -18492000000.0 -88926400000.0 -100329000000.0 -127945000000.0 -113638000000.0 -127563000000.0 -135784000000.0 -151030000000.0 -157861000000.0 -169307000000.0 -142452000000.0 -93301000000.0 -77389400000.0 -62895700000.0 -45944800000.0 -32781100000.0 -15998800000.0 -18516600000.0 -24422800000.0 -24754200000.0 -34881700000.0 -44719000000.0 -35944000000.0 -56383300000.0 -56084500000.0 -55682800000.0 -55331400000.0 -55129800000.0 -55072600000.0 -55237400000.0 -55579300000.0 -56079900000.0 -56723700000.0 -57514400000.0 -58423000000.0 -59413800000.0 -60431500000.0 -61135400000.0 -76138700000.0 -93274300000.0 -167137000000.0 -209940000000.0 -221025000000.0 -228201000000.0 -222698000000.0 -210491000000.0 -194634000000.0 -175986000000.0 -156141000000.0 -135431000000.0 -113758000000.0 -93823400000.0 -76470100000.0 -63401800000.0 -57650300000.0 -56957300000.0 -57573100000.0 -56993800000.0 -63577300000.0 -58509600000.0 -53235300000.0 -77462300000.0 -98204900000.0 -114165000000.0 -98708000000.0 
SCALARS Shear_Stress float 1
LOOKUP_TABLE default
26621400000.0 36293800000.0 170635000.0 46460200000.0 47559700000.0 34934300000.0 40922200000.0 26356200000.0 59529900000.0 22758600000.0 49220600000.0 31825000000.0 62794700000.0 12270100000.0 43964000000.0 54815500000.0 34877000000.0 67038300000.0 3001980000.0 33521200000.0 6537420000.0 1107010000.0 67939800000.0 138198000000.0 166814000000.0 5570740000.0 1691380000.0 28371500000.0 24907100000.0 134357000000.0 60646200000.0 12579700000.0 14509700000.0 275449000.0 68516400000.0 39867900000.0 11985900000.0 2078970000.0 6719170000.0 37928200000.0 137574000000.0 178296000000.0 210741000000.0 67255600000.0 90411600000.0 68123600000.0 36511900000.0 125223000000.0 15412200000.0 38788700000.0 3882700000.0 6508850000.0 58104700000.0 54334500000.0 98960300000.0 60103100000.0 158798000000.0 113380000000.0 187351000000.0 250537000000.0 233157000000.0 252173000000.0 231684000000.0 215092000000.0 72814600000.0 126198000000.0 176677000000.0 48996100000.0 17282200000.0 6031000000.0 69214100000.0 31095100000.0 75295300000.0 123047000000.0 198585000000.0 246732000000.0 210641000000.0 245062000000.0 222558000000.0 202656000000.0 201627000000.0 62600000000.0 111187000000.0 13063400000.0 128592000000.0 174859000000.0 134715000000.0 209981000000.0 299795000000.0 235796000000.0 21617500000.0 97051800000.0 109375000000.0 130749000000.0 195641000000.0 324332000000.0 360735000000.0 278165000000.0 219988000000.0 198595000000.0 29101600000.0 79576200000.0 41395400000.0 177257000000.0 233864000000.0 797076000.0 130596000000.0 151524000000.0 148190000000.0 190224000000.0 254595000000.0 307532000000.0 276289000000.0 354093000000.0 260247000000.0 204696000000.0 180917000000.0 125050000000.0 137289000000.0 102696000000.0 209380000000.0 281580000000.0 201856000000.0 231382000000.0 181589000000.0 202566000000.0 188461000000.0 225991000000.0 261199000000.0 266867000000.0 206998000000.0 222669000000.0 241759000000.0 342939000000.0 282821000000.0 227684000000.0 193551000000.0 179836000000.0 150078000000.0 14146100000.0 38773600000.0 231094000000.0 266336000000.0 314291000000.0 116893000000.0 278941000000.0 466737000000.0 322786000000.0 384687000000.0 301990000000.0 236824000000.0 218354000000.0 236092000000.0 213910000000.0 184282000000.0 256617000000.0 222997000000.0 152365000000.0 67672000000.0 15192200000.0 382736000000.0 617506000000.0 541986000000.0 628993000000.0 488852000000.0 390313000000.0 294561000000.0 231493000000.0 220165000000.0 212629000000.0 174919000000.0 201156000000.0 231228000000.0 167515000000.0 107200000000.0 306459000000.0 573348000000.0 234462000000.0 567518000000.0 477478000000.0 371313000000.0 329610000000.0 267061000000.0 233793000000.0 218924000000.0 196757000000.0 201914000000.0 167995000000.0 173415000000.0 148159000000.0 166722000000.0 178055000000.0 210189000000.0 187963000000.0 182382000000.0 118444000000.0 108190000000.0 47406500000.0 133167000000.0 32280800000.0 298386000000.0 478416000000.0 274365000000.0 434213000000.0 497925000000.0 532852000000.0 525612000000.0 454871000000.0 407071000000.0 267620000000.0 201217000000.0 163043000000.0 131846000000.0 146822000000.0 179316000000.0 134838000000.0 43688700000.0 212538000000.0 119228000000.0 199133000000.0 228880000000.0 48206900000.0 200924000000.0 456159000000.0 564997000000.0 484292000000.0 337359000000.0 213646000000.0 166066000000.0 120161000000.0 110505000000.0 155903000000.0 150930000000.0 55181600000.0 31201800000.0 108578000000.0 4845930000.0 12970900000.0 689520000000.0 545280000000.0 417442000000.0 326787000000.0 236503000000.0 176628000000.0 174594000000.0 136554000000.0 121200000000.0 62779500000.0 76538300000.0 47680700000.0 114129000000.0 123704000000.0 151925000000.0 114694000000.0 82589000000.0 21343400000.0 38530800000.0 125485000000.0 304817000000.0 280326000000.0 92306600000.0 36197800000.0 205203000000.0 159809000000.0 11781200000.0 571265000000.0 506540000000.0 494701000000.0 415744000000.0 164062000000.0 151361000000.0 80905500000.0 4386100000.0 55894400000.0 115822000000.0 23166600000.0 135667000000.0 404223000000.0 439962000000.0 229087000000.0 338404000000.0 251735000000.0 194215000000.0 119104000000.0 25719300000.0 438003000000.0 319795000000.0 129215000000.0 122257000000.0 62686000000.0 2832630000.0 61905400000.0 59814100000.0 73573200000.0 110619000000.0 226708000000.0 256712000000.0 364422000000.0 406828000000.0 181001000000.0 121268000000.0 359725000000.0 303115000000.0 15679200000.0 98565500000.0 141740000000.0 100077000000.0 869122000.0 114496000000.0 274560000000.0 59668100000.0 111991000000.0 43867300000.0 36305800000.0 42555000000.0 210048000000.0 240013000000.0 312725000000.0 497346000000.0 567722000000.0 363538000000.0 369422000000.0 474157000000.0 464719000000.0 506551000000.0 298390000000.0 23837000000.0 235513000000.0 220003000000.0 58984100000.0 77336300000.0 52644100000.0 461752000000.0 80946000000.0 112843000000.0 331922000000.0 554917000000.0 648106000000.0 448827000000.0 559284000000.0 433936000000.0 197906000000.0 24825900000.0 101849000000.0 294920000000.0 360068000000.0 633027000000.0 160401000000.0 64204400000.0 63914000000.0 113523000000.0 92611600000.0 169023000000.0 82223400000.0 45816200000.0 508438000000.0 28983500000.0 319180000000.0 327189000000.0 679675000000.0 395437000000.0 439273000000.0 538193000000.0 633361000000.0 199006000000.0 271425000000.0 98737900000.0 303147000000.0 42254000000.0 208752000000.0 358417000000.0 300434000000.0 414891000000.0 191055000000.0 228185000000.0 320043000000.0 336265000000.0 188415000000.0 532224000000.0 359402000000.0 476930000000.0 653965000000.0 841488000000.0 604181000000.0 220165000000.0 93422300000.0 160950000000.0 80156100000.0 157982000000.0 358746000000.0 491056000000.0 674036000000.0 181939000000.0 122609000000.0 414018000000.0 676758000000.0 355724000000.0 503176000000.0 1.01303e+12 128971000.0 28458600000.0 48263600000.0 140204000000.0 117308000000.0 69418200000.0 62038600000.0 57238300000.0 77764500000.0 205539000000.0 286483000000.0 399741000000.0 493592000000.0 574217000000.0 654528000000.0 835694000000.0 1.29994e+12 929989000000.0 18199600000.0 256602000000.0 95446900000.0 244943000000.0 661096000000.0 289233000000.0 254568000000.0 325569000000.0 245021000000.0 494344000000.0 281172000000.0 245095000000.0 157002000000.0 204354000000.0 108218000000.0 162532000000.0 306103000000.0 465613000000.0 649456000000.0 1.29766e+12 721082000000.0 566193000000.0 406562000000.0 222308000000.0 197106000000.0 102724000000.0 779898000000.0 242434000000.0 237445000000.0 223836000000.0 255612000000.0 196055000000.0 170252000000.0 246232000000.0 366896000000.0 477794000000.0 778037000000.0 1.502e+12 48578500000.0 410100000000.0 595394000000.0 104875000000.0 651225000000.0 181485000000.0 184060000000.0 149780000000.0 131706000000.0 228650000000.0 101949000000.0 605068000000.0 331235000000.0 242570000000.0 256469000000.0 214177000000.0 242051000000.0 227799000000.0 271176000000.0 301722000000.0 325811000000.0 380751000000.0 366952000000.0 473408000000.0 662591000000.0 295590000000.0 589602000000.0 629208000000.0 603368000000.0 56369300000.0 657466000000.0 159179000000.0 173067000000.0 195075000000.0 248528000000.0 179303000000.0 206636000000.0 250161000000.0 262732000000.0 268113000000.0 299022000000.0 330458000000.0 431321000000.0 1.47286e+12 397907000000.0 265853000000.0 460029000000.0 598907000000.0 172047000000.0 161238000000.0 220006000000.0 82024600000.0 87789000000.0 158341000000.0 155653000000.0 247918000000.0 252039000000.0 274150000000.0 291257000000.0 319037000000.0 368881000000.0 787265000000.0 49041900000.0 493291000000.0 119941000000.0 682588000000.0 187443000000.0 165757000000.0 162558000000.0 177846000000.0 173691000000.0 206165000000.0 116621000000.0 47155900000.0 131645000000.0 4474710000.0 74278800000.0 149749000000.0 266692000000.0 290671000000.0 320101000000.0 318163000000.0 360055000000.0 356951000000.0 453719000000.0 534356000000.0 719863000000.0 1.12369e+12 340381000000.0 136619000000.0 219163000000.0 280904000000.0 464763000000.0 255083000000.0 725054000000.0 179923000000.0 144439000000.0 126322000000.0 97879000000.0 142550000000.0 282676000000.0 70836300000.0 155547000000.0 310507000000.0 367080000000.0 431787000000.0 580643000000.0 707753000000.0 106628000000.0 20832100000.0 276572000000.0 783134000000.0 219792000000.0 206548000000.0 156408000000.0 103395000000.0 96602800000.0 21254100000.0 51467100000.0 1757230000.0 224756000000.0 526955000000.0 803066000000.0 129140000000.0 16577100000.0 234673000000.0 351334000000.0 369317000000.0 433210000000.0 520893000000.0 616165000000.0 81145600000.0 114834000000.0 50100100000.0 94626100000.0 105926000000.0 413279000000.0 272443000000.0 164586000000.0 19436100000.0 63583700000.0 36441100000.0 93109200000.0 349151000000.0 256441000000.0 793601000000.0 206380000000.0 448710000000.0 442437000000.0 515847000000.0 506005000000.0 548914000000.0 565059000000.0 502951000000.0 467942000000.0 45234500000.0 14059200000.0 552736000000.0 857746000000.0 259964000000.0 82296100000.0 78464500000.0 166494000000.0 142677000000.0 224235000000.0 239970000000.0 54573400000.0 462061000000.0 446067000000.0 536836000000.0 562983000000.0 522340000000.0 341630000000.0 125062000000.0 19361300000.0 67151000000.0 9044440000.0 947586000000.0 351909000000.0 352677000000.0 209221000000.0 106601000000.0 31560300000.0 145371000000.0 238284000000.0 318891000000.0 263604000000.0 360616000000.0 464746000000.0 857684000000.0 42198800000.0 538640000000.0 564445000000.0 600053000000.0 553968000000.0 420973000000.0 116582000000.0 81901100000.0 73005200000.0 78147900000.0 654932000000.0 459097000000.0 310009000000.0 31620700000.0 211003000000.0 245523000000.0 301039000000.0 332393000000.0 352359000000.0 354215000000.0 509345000000.0 1.10613e+12 742143000000.0 657519000000.0 675440000000.0 604538000000.0 554276000000.0 484565000000.0 366580000000.0 266807000000.0 21966300000.0 111121000000.0 724910000000.0 1.04389e+12 576628000000.0 487727000000.0 489410000000.0 209253000000.0 48895000000.0 166108000000.0 186003000000.0 264365000000.0 357383000000.0 418990000000.0 714020000000.0 1.16988e+12 774675000000.0 636480000000.0 460180000000.0 220442000000.0 92582800000.0 40038100000.0 101732000000.0 141914000000.0 120405000000.0 770555000000.0 9035750000.0 1.10258e+12 660078000000.0 450294000000.0 148152000000.0 159392000000.0 318308000000.0 400307000000.0 407835000000.0 513179000000.0 554709000000.0 733931000000.0 903480000000.0 1.02478e+12 1.00932e+12 881744000000.0 735164000000.0 558204000000.0 335520000000.0 68257800000.0 129902000000.0 147511000000.0 1.10834e+12 598267000000.0 653480000000.0 768454000000.0 932696000000.0 277147000000.0 134339000000.0 18248000000.0 120601000000.0 239511000000.0 370476000000.0 509995000000.0 658645000000.0 888990000000.0 959738000000.0 780989000000.0 662768000000.0 569465000000.0 451457000000.0 326855000000.0 195741000000.0 52255600000.0 67282200000.0 170984000000.0 174664000000.0 166060000000.0 793264000000.0 523725000000.0 502813000000.0 663937000000.0 536345000000.0 1.10909e+12 34473200000.0 315779000000.0 512877000000.0 638741000000.0 803248000000.0 947215000000.0 869315000000.0 685394000000.0 461086000000.0 195169000000.0 102339000000.0 219597000000.0 786538000000.0 9035750000.0 1.09081e+12 437951000000.0 389118000000.0 243082000000.0 650906000000.0 245160000000.0 517303000000.0 512726000000.0 666444000000.0 645679000000.0 759363000000.0 764043000000.0 850717000000.0 888953000000.0 900439000000.0 905072000000.0 778387000000.0 690655000000.0 587812000000.0 488978000000.0 345933000000.0 227603000000.0 57256000000.0 147490000000.0 232179000000.0 288043000000.0 182334000000.0 728752000000.0 985575000000.0 156374000000.0 491558000000.0 158155000000.0 76721200000.0 516956000000.0 1.01209e+12 87823700000.0 526622000000.0 702095000000.0 778581000000.0 837703000000.0 880040000000.0 859063000000.0 835919000000.0 761814000000.0 607643000000.0 397727000000.0 98184000000.0 325794000000.0 198845000000.0 840525000000.0 152026000000.0 632580000000.0 751885000000.0 88607300000.0 1.11543e+12 760660000000.0 818091000000.0 848632000000.0 868897000000.0 861695000000.0 800773000000.0 692454000000.0 537464000000.0 305314000000.0 226090000000.0 222080000000.0 476065000000.0 397196000000.0 248796000000.0 571788000000.0 133699000000.0 327344000000.0 58881400000.0 502405000000.0 215742000000.0 664003000000.0 1.0047e+12 1.02647e+12 1.02978e+12 881146000000.0 937788000000.0 881652000000.0 896953000000.0 873687000000.0 857718000000.0 818097000000.0 770855000000.0 741918000000.0 691368000000.0 634722000000.0 602325000000.0 486658000000.0 441216000000.0 279671000000.0 609986000000.0 254903000000.0 9035750000.0 723493000000.0 169742000000.0 269618000000.0 825770000000.0 1.1266e+12 769162000000.0 1.09302e+12 1.03843e+12 941137000000.0 873001000000.0 859641000000.0 822481000000.0 821738000000.0 779804000000.0 732036000000.0 658038000000.0 594129000000.0 533487000000.0 382167000000.0 482955000000.0 435502000000.0 591082000000.0 182890000000.0 1.2008e+12 862837000000.0 328998000000.0 277523000000.0 205796000000.0 75296400000.0 295729000000.0 978058000000.0 1.0337e+12 1.12172e+12 1.01528e+12 901792000000.0 826974000000.0 780977000000.0 745176000000.0 710700000000.0 716793000000.0 638116000000.0 615154000000.0 619630000000.0 1.15169e+12 366977000000.0 232339000000.0 207328000000.0 1.52097e+12 557637000000.0 48599400000.0 603703000000.0 912552000000.0 509707000000.0 61411600000.0 80838700000.0 54905800000.0 751670000000.0 903128000000.0 1.05997e+12 1.15317e+12 1.13752e+12 1.15176e+12 1.09646e+12 1.01865e+12 952523000000.0 839427000000.0 779234000000.0 745070000000.0 748609000000.0 731060000000.0 724386000000.0 722712000000.0 751765000000.0 514654000000.0 678357000000.0 568850000000.0 323178000000.0 944650000000.0 240825000000.0 466547000000.0 271574000000.0 75597700000.0 62788800000.0 854152000000.0 150777000000.0 140125000000.0 369339000000.0 67677900000.0 21093900000.0 312115000000.0 633008000000.0 1.06518e+12 1.18708e+12 1.08165e+12 904697000000.0 864943000000.0 780180000000.0 778103000000.0 736292000000.0 730581000000.0 733940000000.0 730294000000.0 730494000000.0 745021000000.0 867032000000.0 858527000000.0 1.55184e+12 559416000000.0 758410000000.0 1.34295e+12 263305000000.0 406474000000.0 512493000000.0 300952000000.0 216564000000.0 792416000000.0 504256000000.0 231753000000.0 593533000000.0 111034000000.0 62124000000.0 312715000000.0 894427000000.0 1.15344e+12 1.14003e+12 950142000000.0 788251000000.0 723220000000.0 722091000000.0 731368000000.0 748838000000.0 742292000000.0 762726000000.0 754918000000.0 1.4554e+12 283215000000.0 708504000000.0 723001000000.0 1.0001e+12 522464000000.0 326864000000.0 199111000000.0 229452000000.0 338041000000.0 126208000000.0 389490000000.0 325333000000.0 271125000000.0 158306000000.0 406840000000.0 343233000000.0 258115000000.0 422785000000.0 265950000.0 507764000000.0 700503000000.0 934585000000.0 1.04653e+12 1.09949e+12 1.1545e+12 1.04791e+12 999027000000.0 809733000000.0 800584000000.0 706203000000.0 705054000000.0 718887000000.0 754104000000.0 766447000000.0 791753000000.0 689657000000.0 100044000000.0 1.05654e+12 455172000000.0 32580100000.0 1.01179e+12 194223000000.0 708297000000.0 720684000000.0 343036000000.0 365987000000.0 270924000000.0 282765000000.0 401107000000.0 362664000000.0 119834000000.0 50211400000.0 42684500000.0 157040000000.0 419037000000.0 722400000000.0 515187000000.0 59362200000.0 316411000000.0 662189000000.0 801999000000.0 996297000000.0 1.05642e+12 825328000000.0 652628000000.0 685308000000.0 640636000000.0 678412000000.0 666588000000.0 697729000000.0 736999000000.0 748871000000.0 779444000000.0 779164000000.0 803535000000.0 784509000000.0 799667000000.0 875017000000.0 604681000000.0 190617000000.0 108783000000.0 129885000000.0 589132000000.0 720357000000.0 508402000000.0 740676000000.0 864790000000.0 201941000000.0 331129000000.0 165854000000.0 294181000000.0 463732000000.0 63457500000.0 120436000000.0 124850000000.0 178722000000.0 306086000000.0 384787000000.0 598021000000.0 580299000000.0 718339000000.0 1.2349e+12 310484000000.0 525404000000.0 862572000000.0 976002000000.0 853501000000.0 979156000000.0 865854000000.0 596096000000.0 583606000000.0 623880000000.0 719340000000.0 774403000000.0 804422000000.0 820450000000.0 644973000000.0 141189000000.0 668430000000.0 33521400000.0 748210000000.0 406194000000.0 328489000000.0 984310000000.0 241801000000.0 250412000000.0 50148400000.0 48470400000.0 472359000000.0 191456000000.0 52498600000.0 232550000000.0 172724000000.0 41279200000.0 122651000000.0 129084000000.0 65667600000.0 182204000000.0 647600000000.0 495551000000.0 166456000000.0 160955000000.0 430392000000.0 523977000000.0 728871000000.0 1.01968e+12 755046000000.0 879959000000.0 535220000000.0 546703000000.0 317927000000.0 480868000000.0 444828000000.0 557234000000.0 662221000000.0 695799000000.0 763359000000.0 769347000000.0 799502000000.0 816942000000.0 769229000000.0 577662000000.0 139306000000.0 48377100000.0 420786000000.0 1.09988e+12 463684000000.0 661791000000.0 48144200000.0 486531000000.0 139839000000.0 495977000000.0 270258000000.0 199820000000.0 72590900000.0 586842000000.0 496361000000.0 314224000000.0 279931000000.0 545179000000.0 421213000000.0 53608700000.0 90546000000.0 175427000000.0 183427000000.0 152599000000.0 116093000000.0 659754000000.0 297605000000.0 81806500000.0 114456000000.0 78774100000.0 605662000000.0 891966000000.0 486174000000.0 573757000000.0 84575200000.0 305032000000.0 608486000000.0 754210000000.0 806493000000.0 800433000000.0 806292000000.0 805308000000.0 776506000000.0 790469000000.0 709306000000.0 584886000000.0 536795000000.0 214684000000.0 693276000000.0 84568100000.0 59114200000.0 183087000000.0 417759000000.0 184159000000.0 33538100000.0 499565000000.0 126178000000.0 262114000000.0 292339000000.0 416108000000.0 308084000000.0 12446500000.0 5363920000.0 134946000000.0 221186000000.0 87118800000.0 98161300000.0 775074000000.0 358644000000.0 360324000000.0 177896000000.0 135353000000.0 787952000000.0 1.19446e+12 210142000000.0 341059000000.0 475866000000.0 258099000000.0 109820000000.0 544986000000.0 736167000000.0 813812000000.0 820862000000.0 776140000000.0 706234000000.0 709493000000.0 749876000000.0 723402000000.0 626668000000.0 855637000000.0 216765000000.0 12449500000.0 252478000000.0 405356000000.0 270888000000.0 469200000000.0 326274000000.0 296206000000.0 487063000000.0 883900000000.0 66643800000.0 272058000000.0 397679000000.0 148241000000.0 293753000000.0 308836000000.0 37527000000.0 129406000000.0 345139000000.0 454508000000.0 985180000000.0 222456000000.0 303434000000.0 497751000000.0 81453200000.0 272024000000.0 616493000000.0 318268000000.0 380737000000.0 181941000000.0 197651000000.0 129221000000.0 1.50204e+12 544456000000.0 6115500000.0 168795000000.0 220355000000.0 433743000000.0 487328000000.0 681043000000.0 705780000000.0 814083000000.0 818694000000.0 855858000000.0 837853000000.0 825686000000.0 800695000000.0 744474000000.0 701491000000.0 609667000000.0 679248000000.0 631969000000.0 227461000000.0 48035200000.0 223045000000.0 16994700000.0 417864000000.0 1.00507e+12 945926000000.0 377128000000.0 50596000000.0 579968000000.0 422586000000.0 541317000000.0 543619000000.0 335796000000.0 442464000000.0 440100000000.0 270276000000.0 97864800000.0 63388400000.0 29277700000.0 27685200000.0 219166000000.0 93437100000.0 644738000000.0 381077000000.0 214456000000.0 458830000000.0 942215000000.0 491269000000.0 458542000000.0 586601000000.0 460357000000.0 463610000000.0 417453000000.0 291722000000.0 1.19574e+12 1.59719e+12 877487000000.0 363066000000.0 648664000000.0 808536000000.0 867043000000.0 856420000000.0 774769000000.0 667039000000.0 534488000000.0 553663000000.0 403172000000.0 165167000000.0 272326000000.0 160336000000.0 115723000000.0 167813000000.0 282147000000.0 52924200000.0 703861000000.0 69547500000.0 891445000000.0 841035000000.0 140206000000.0 570594000000.0 121647000000.0 219266000000.0 11479300000.0 323896000000.0 183285000000.0 234046000000.0 135600000000.0 62735900000.0 63020600000.0 94379200000.0 157985000000.0 97565400000.0 442198000000.0 350468000000.0 193870000000.0 338665000000.0 228496000000.0 947815000000.0 221590000000.0 287247000000.0 510459000000.0 394321000000.0 246449000000.0 142067000000.0 540432000000.0 516580000000.0 137113000000.0 223473000000.0 550202000000.0 729211000000.0 790924000000.0 865192000000.0 879929000000.0 819369000000.0 688333000000.0 602031000000.0 766362000000.0 186805000000.0 558825000000.0 1.15566e+12 979010000000.0 276608000000.0 345127000000.0 278658000000.0 695494000000.0 411159000000.0 59093500000.0 336199000000.0 479908000000.0 822374000000.0 411393000000.0 350020000000.0 321420000000.0 194887000000.0 190669000000.0 53213200000.0 120012000000.0 181313000000.0 156108000000.0 108463000000.0 57861500000.0 12607800000.0 7408650000.0 75065400000.0 266631000000.0 231200000000.0 58495100000.0 209180000000.0 270363000000.0 1.17866e+12 577971000000.0 470707000000.0 481016000000.0 203774000000.0 20074100000.0 464196000000.0 469163000000.0 374371000000.0 455819000000.0 143411000000.0 587432000000.0 802742000000.0 854787000000.0 859189000000.0 879645000000.0 865850000000.0 866556000000.0 832101000000.0 738658000000.0 596138000000.0 560158000000.0 422628000000.0 638842000000.0 311768000000.0 514672000000.0 728747000000.0 548297000000.0 391741000000.0 397596000000.0 347125000000.0 502647000000.0 152567000000.0 573663000000.0 440417000000.0 432196000000.0 326873000000.0 171645000000.0 100763000000.0 342578000000.0 68332200000.0 504714000000.0 399371000000.0 293448000000.0 72105500000.0 47529700000.0 315725000000.0 242927000000.0 218607000000.0 124700000000.0 66133400000.0 38962500000.0 108998000000.0 16648000000.0 40574300000.0 125475000000.0 188607000000.0 50745300000.0 314514000000.0 477629000000.0 336776000000.0 142375000000.0 142541000000.0 211353000000.0 283029000000.0 315118000000.0 61162500000.0 391896000000.0 424660000000.0 644381000000.0 204985000000.0 564661000000.0 520157000000.0 691137000000.0 812723000000.0 846748000000.0 836970000000.0 778381000000.0 306013000000.0 1.03284e+12 667792000000.0 57311500000.0 213344000000.0 124705000000.0 162506000000.0 300816000000.0 376716000000.0 501365000000.0 362177000000.0 105902000000.0 477541000000.0 239247000000.0 102557000000.0 205594000000.0 66643100000.0 407024000000.0 200802000000.0 1.08631e+12 612170000000.0 350997000000.0 329215000000.0 319321000000.0 30709700000.0 86758000000.0 23354600000.0 389451000000.0 301328000000.0 275566000000.0 197365000000.0 175088000000.0 104911000000.0 215603000000.0 284201000000.0 390896000000.0 94184900000.0 302649000000.0 1.19648e+12 608352000000.0 427852000000.0 302508000000.0 168477000000.0 418240000000.0 739103000000.0 1.12919e+12 1.31241e+12 360746000000.0 885399000000.0 867742000000.0 666435000000.0 534390000000.0 691229000000.0 700143000000.0 789026000000.0 803384000000.0 783863000000.0 693297000000.0 738500000000.0 653948000000.0 273777000000.0 581162000000.0 526185000000.0 144120000000.0 51525700000.0 210814000000.0 332042000000.0 471026000000.0 468584000000.0 413856000000.0 432977000000.0 426974000000.0 273092000000.0 24330400000.0 685283000000.0 962130000000.0 301480000000.0 301183000000.0 411588000000.0 329538000000.0 209382000000.0 230921000000.0 43485400000.0 55521200000.0 135088000000.0 454843000000.0 495628000000.0 395998000000.0 383579000000.0 256124000000.0 103778000000.0 240921000000.0 296173000000.0 571342000000.0 61571100000.0 469639000000.0 349413000000.0 135039000000.0 416911000000.0 402973000000.0 1.03536e+12 837994000000.0 651811000000.0 376972000000.0 154383000000.0 88764000000.0 637454000000.0 666069000000.0 24565400000.0 537669000000.0 1.00216e+12 564916000000.0 499917000000.0 668609000000.0 786445000000.0 730078000000.0 738880000000.0 582234000000.0 642377000000.0 379424000000.0 290597000000.0 766454000000.0 659179000000.0 395367000000.0 133980000000.0 187412000000.0 279593000000.0 397333000000.0 470154000000.0 475403000000.0 551128000000.0 537998000000.0 467495000000.0 275453000000.0 222932000000.0 673000000000.0 148883000000.0 585457000000.0 123249000000.0 161045000000.0 199918000000.0 248673000000.0 75760100000.0 171157000000.0 499076000000.0 484122000000.0 555612000000.0 587675000000.0 510189000000.0 513233000000.0 351175000000.0 334679000000.0 232394000000.0 64607500000.0 604831000000.0 1.13962e+12 253542000000.0 385244000000.0 90295500000.0 563766000000.0 333473000000.0 155529000000.0 766597000000.0 1.10782e+12 543268000000.0 303960000000.0 65588500000.0 186431000000.0 427112000000.0 272669000000.0 246879000000.0 486730000000.0 961492000000.0 24057100000.0 160047000000.0 636385000000.0 666136000000.0 747608000000.0 136562000000.0 325691000000.0 20355400000.0 508217000000.0 3102190000.0 136744000000.0 135039000000.0 208553000000.0 298839000000.0 377072000000.0 560684000000.0 541416000000.0 611980000000.0 773828000000.0 1.0646e+12 1.11359e+12 824737000000.0 141551000000.0 646873000000.0 229719000000.0 23313600000.0 9831480000.0 103933000000.0 193666000000.0 266763000000.0 266279000000.0 256066000000.0 81196100000.0 160905000000.0 507652000000.0 577681000000.0 637104000000.0 574038000000.0 514500000000.0 285805000000.0 224162000000.0 294952000000.0 800530000000.0 1.3868e+12 899798000000.0 755417000000.0 99500300000.0 704592000000.0 799524000000.0 690449000000.0 448898000000.0 669375000000.0 807461000000.0 503974000000.0 246942000000.0 37919900000.0 122510000000.0 227551000000.0 170878000000.0 1.22243e+12 106100000000.0 43935400000.0 430802000000.0 625403000000.0 461069000000.0 507613000000.0 516843000000.0 581764000000.0 798212000000.0 802104000000.0 817603000000.0 1.19303e+12 164881000000.0 35962600000.0 92758100000.0 59204600000.0 129721000000.0 159055000000.0 488108000000.0 586968000000.0 289189000000.0 25539000000.0 625205000000.0 875453000000.0 527865000000.0 324513000000.0 159877000000.0 58733600000.0 1.03828e+12 290951000000.0 123890000000.0 73075100000.0 59640500000.0 289646000000.0 329946000000.0 260560000000.0 62843100000.0 31442600000.0 180096000000.0 140683000000.0 446140000000.0 564200000000.0 583433000000.0 640055000000.0 702288000000.0 645354000000.0 580022000000.0 527364000000.0 413896000000.0 630608000000.0 873595000000.0 106862000000.0 174215000000.0 409100000000.0 139201000000.0 1.09172e+12 990126000000.0 856465000000.0 656750000000.0 567775000000.0 668116000000.0 710535000000.0 583122000000.0 418397000000.0 251979000000.0 123048000000.0 56595400000.0 134914000000.0 556025000000.0 1.09267e+12 403821000000.0 740073000000.0 206827000000.0 141351000000.0 32197400000.0 666101000000.0 122928000000.0 20685700000.0 195119000000.0 113464000000.0 69789200000.0 117218000000.0 149419000000.0 214037000000.0 268064000000.0 353278000000.0 504747000000.0 754149000000.0 116562000000.0 292519000000.0 604626000000.0 162196000000.0 297251000000.0 523112000000.0 628285000000.0 587438000000.0 119797000000.0 147056000000.0 18480900000.0 176658000000.0 74496200000.0 174554000000.0 324827000000.0 386081000000.0 311597000000.0 304970000000.0 282694000000.0 18681200000.0 108549000000.0 463655000000.0 455726000000.0 597169000000.0 682740000000.0 684649000000.0 582153000000.0 467448000000.0 196582000000.0 412356000000.0 451304000000.0 614305000000.0 578673000000.0 933703000000.0 448141000000.0 361242000000.0 588523000000.0 551099000000.0 562837000000.0 513027000000.0 410663000000.0 287582000000.0 188160000000.0 140237000000.0 157477000000.0 2055500000.0 380566000000.0 452038000000.0 944941000000.0 626403000000.0 1.0047e+12 484742000000.0 80254500000.0 281184000000.0 367729000000.0 375252000000.0 75473000000.0 189496000000.0 163696000000.0 143443000000.0 167141000000.0 186893000000.0 216932000000.0 278984000000.0 447561000000.0 1.0491e+12 296298000000.0 322885000000.0 973074000000.0 623249000000.0 63165800000.0 329291000000.0 249041000000.0 161566000000.0 299628000000.0 16053800000.0 71104200000.0 179347000000.0 175912000000.0 435694000000.0 364594000000.0 324595000000.0 365192000000.0 387685000000.0 28646600000.0 55162000000.0 330898000000.0 371292000000.0 395901000000.0 427633000000.0 511678000000.0 627237000000.0 758893000000.0 768888000000.0 714095000000.0 464251000000.0 213172000000.0 597148000000.0 1.14427e+12 4317920000.0 888687000000.0 447495000000.0 480932000000.0 680597000000.0 647089000000.0 491078000000.0 515646000000.0 412307000000.0 316917000000.0 236096000000.0 181728000000.0 90221200000.0 3488790000.0 124731000000.0 96785800000.0 1.19538e+12 160742000000.0 781221000000.0 695783000000.0 853934000000.0 574412000000.0 652552000000.0 379189000000.0 1.05605e+12 555571000000.0 32499700000.0 136495000000.0 183148000000.0 159651000000.0 172617000000.0 172681000000.0 158623000000.0 114278000000.0 12587700000.0 142638000000.0 130838000000.0 328916000000.0 207733000000.0 148460000000.0 131519000000.0 199895000000.0 93893800000.0 410019000000.0 405051000000.0 202102000000.0 29548100000.0 173510000000.0 380964000000.0 390855000000.0 319739000000.0 450590000000.0 368410000000.0 58978200000.0 100786000000.0 3654920000.0 290642000000.0 322004000000.0 371835000000.0 543398000000.0 671059000000.0 871662000000.0 773482000000.0 591251000000.0 513491000000.0 53641200000.0 516430000000.0 18420900000.0 41714200000.0 616517000000.0 449890000000.0 55404700000.0 12838700000.0 408150000000.0 538981000000.0 545018000000.0 501533000000.0 487520000000.0 339689000000.0 263220000000.0 181152000000.0 119902000000.0 155788000000.0 112114000000.0 457882000000.0 416709000000.0 768635000000.0 819887000000.0 705778000000.0 236572000000.0 371945000000.0 391860000000.0 114371000000.0 71638600000.0 64114500000.0 183959000000.0 185854000000.0 202467000000.0 221061000000.0 244569000000.0 284718000000.0 366838000000.0 576892000000.0 1.25216e+12 620705000000.0 318993000000.0 130621000000.0 15737700000.0 610764000000.0 307244000000.0 183210000000.0 100850000000.0 398521000000.0 68093500000.0 448814000000.0 505568000000.0 389139000000.0 273707000000.0 307222000000.0 514688000000.0 467858000000.0 444129000000.0 329528000000.0 146481000000.0 112130000000.0 63560100000.0 247518000000.0 279112000000.0 268179000000.0 274421000000.0 400576000000.0 381690000000.0 476238000000.0 782709000000.0 888804000000.0 779726000000.0 437986000000.0 1.35274e+12 123972000000.0 716184000000.0 735668000000.0 499567000000.0 176700000000.0 199951000000.0 384703000000.0 450334000000.0 445694000000.0 438361000000.0 458984000000.0 489187000000.0 475962000000.0 418119000000.0 180774000000.0 134948000000.0 43682400000.0 252569000000.0 246026000000.0 581252000000.0 489729000000.0 1.44821e+12 83410000000.0 1.26191e+12 478093000000.0 1.11577e+12 545639000000.0 371130000000.0 363543000000.0 143992000000.0 184844000000.0 215212000000.0 248047000000.0 285520000000.0 334469000000.0 412202000000.0 554849000000.0 801112000000.0 126768000000.0 98062200000.0 821802000000.0 545284000000.0 355985000000.0 741380000000.0 37144700000.0 529216000000.0 664852000000.0 73359200000.0 128721000000.0 655022000000.0 568239000000.0 384689000000.0 271044000000.0 195663000000.0 153552000000.0 202880000000.0 190228000000.0 232346000000.0 204876000000.0 170005000000.0 250956000000.0 217672000000.0 575560000000.0 656604000000.0 558979000000.0 659797000000.0 1.05786e+12 883205000000.0 65233500000.0 1.27389e+12 1.29152e+12 934207000000.0 706844000000.0 482185000000.0 290113000000.0 280188000000.0 350686000000.0 370814000000.0 373747000000.0 395729000000.0 440071000000.0 477431000000.0 472758000000.0 423367000000.0 347239000000.0 259305000000.0 148916000000.0 269426000000.0 481796000000.0 456068000000.0 835635000000.0 941735000000.0 636556000000.0 981738000000.0 609956000000.0 643840000000.0 420052000000.0 190734000000.0 78811100000.0 44218400000.0 134029000000.0 198186000000.0 251540000000.0 305812000000.0 370001000000.0 454813000000.0 571458000000.0 13535400000.0 100049000000.0 542259000000.0 314395000000.0 34203400000.0 74982400000.0 1.58247e+12 952604000000.0 938075000000.0 138682000000.0 974532000000.0 829272000000.0 457053000000.0 221821000000.0 250801000000.0 1.11072e+12 744944000000.0 533768000000.0 372736000000.0 266474000000.0 188505000000.0 118283000000.0 202829000000.0 200955000000.0 175487000000.0 108796000000.0 158597000000.0 158610000000.0 159256000000.0 101589000000.0 128835000000.0 68585100000.0 14109800000.0 306031000000.0 441438000000.0 794011000000.0 485162000000.0 186501000000.0 1.3836e+12 39543500000.0 980232000000.0 52783900000.0 371136000000.0 328583000000.0 540460000000.0 530610000000.0 425019000000.0 323034000000.0 302513000000.0 312358000000.0 299086000000.0 309944000000.0 362796000000.0 432594000000.0 478908000000.0 474478000000.0 416966000000.0 328376000000.0 233153000000.0 145716000000.0 36106500000.0 345544000000.0 288681000000.0 162549000000.0 49849100000.0 59741400000.0 150849000000.0 227317000000.0 298774000000.0 374806000000.0 702479000000.0 422047000000.0 323059000000.0 478986000000.0 713998000000.0 543910000000.0 20567500000.0 1.44181e+12 765606000000.0 453799000000.0 1.32066e+12 548757000000.0 116527000000.0 36102500000.0 150166000000.0 1.31799e+12 723377000000.0 508975000000.0 204503000000.0 142437000000.0 167005000000.0 215421000000.0 108390000000.0 174407000000.0 89253100000.0 113526000000.0 129542000000.0 77223900000.0 46817200000.0 18968800000.0 83933200000.0 20279500000.0 48976000000.0 593019000000.0 1.54739e+12 22979900000.0 958755000000.0 146023000000.0 132352000000.0 951161000000.0 354235000000.0 493368000000.0 536838000000.0 497230000000.0 414384000000.0 339978000000.0 301299000000.0 269179000000.0 219144000000.0 243520000000.0 342329000000.0 444208000000.0 493679000000.0 467421000000.0 387093000000.0 283015000000.0 174705000000.0 57796900000.0 84702300000.0 213939000000.0 366857000000.0 431019000000.0 572375000000.0 704761000000.0 794178000000.0 709953000000.0 744731000000.0 534186000000.0 470439000000.0 360624000000.0 291830000000.0 215146000000.0 109487000000.0 5419700000.0 95405800000.0 187116000000.0 272322000000.0 463838000000.0 569725000000.0 667092000000.0 585522000000.0 543729000000.0 621382000000.0 704661000000.0 701775000000.0 74085900000.0 922160000000.0 770595000000.0 154179000000.0 1.809e+12 736974000000.0 1.09124e+12 378853000000.0 962415000000.0 246271000000.0 477126000000.0 500141000000.0 359372000000.0 277374000000.0 107831000000.0 87611600000.0 189709000000.0 81841200000.0 50094900000.0 168591000000.0 84492000000.0 69080500000.0 96618300000.0 63371500000.0 11735100000.0 41137300000.0 75478800000.0 109162000000.0 85554200000.0 106383000000.0 232867000000.0 198072000000.0 585055000000.0 120193000000.0 93512800000.0 186381000000.0 571230000000.0 393828000000.0 468791000000.0 494115000000.0 170729000000.0 348619000000.0 487431000000.0 500870000000.0 431588000000.0 324864000000.0 207786000000.0 88076500000.0 36879900000.0 156442000000.0 280539000000.0 373232000000.0 476343000000.0 573624000000.0 670181000000.0 705848000000.0 644884000000.0 582761000000.0 453869000000.0 381774000000.0 301196000000.0 228102000000.0 145602000000.0 49972300000.0 46709500000.0 357574000000.0 449694000000.0 549055000000.0 634631000000.0 634512000000.0 627575000000.0 660367000000.0 700966000000.0 728391000000.0 48198200000.0 495804000000.0 945802000000.0 177468000000.0 1.32057e+12 355333000000.0 1.03001e+12 746559000000.0 919654000000.0 1.2502e+12 94167400000.0 913020000000.0 590632000000.0 346249000000.0 195285000000.0 56542200000.0 288410000000.0 127064000000.0 232348000000.0 29903800000.0 9018740000.0 199119000000.0 114249000000.0 97469400000.0 84704900000.0 46824800000.0 14887000000.0 12756000000.0 38703800000.0 93817900000.0 27702600000.0 188479000000.0 479080000000.0 286449000000.0 476684000000.0 23582400000.0 23015700000.0 229697000000.0 464585000000.0 403944000000.0 341714000000.0 287287000000.0 217872000000.0 108821000000.0 428867000000.0 516188000000.0 459461000000.0 352877000000.0 234209000000.0 116481000000.0 1851710000.0 106997000000.0 213588000000.0 307499000000.0 398909000000.0 482894000000.0 561087000000.0 613706000000.0 609575000000.0 546983000000.0 472301000000.0 381906000000.0 311527000000.0 237712000000.0 161912000000.0 142173000000.0 234962000000.0 327169000000.0 421473000000.0 516663000000.0 599197000000.0 635560000000.0 648443000000.0 658430000000.0 654209000000.0 607379000000.0 459791000000.0 386948000000.0 576785000000.0 158905000000.0 630001000000.0 212187000000.0 659359000000.0 1.05697e+12 703014000000.0 739131000000.0 294084000000.0 942723000000.0 1.04616e+12 655018000000.0 360731000000.0 140186000000.0 12927800000.0 599536000000.0 334504000000.0 19102300000.0 425490000000.0 39453500000.0 51015400000.0 284339000000.0 313127000000.0 110014000000.0 76581200000.0 46323200000.0 34866300000.0 18263500000.0 1398110000.0 20268000000.0 21975800000.0 41960000000.0 190717000000.0 444235000000.0 950627000000.0 435634000000.0 410814000000.0 457891000000.0 472303000000.0 449365000000.0 402909000000.0 346510000000.0 276577000000.0 165176000000.0 62312700000.0 93579000000.0 138604000000.0 33925700000.0 63898200000.0 157289000000.0 243962000000.0 326531000000.0 402736000000.0 470920000000.0 522197000000.0 540245000000.0 514298000000.0 454947000000.0 386312000000.0 78843500000.0 11467900000.0 103992000000.0 196904000000.0 289765000000.0 383541000000.0 476627000000.0 558813000000.0 611544000000.0 639908000000.0 650628000000.0 634174000000.0 571880000000.0 438864000000.0 170612000000.0 274909000000.0 514731000000.0 654247000000.0 682744000000.0 850548000000.0 794812000000.0 603240000000.0 1.03666e+12 1.21965e+12 1.02936e+12 670829000000.0 331852000000.0 1.16121e+12 583318000000.0 153439000000.0 176358000000.0 960695000000.0 593311000000.0 311529000000.0 147779000000.0 381479000000.0 74332800000.0 340952000000.0 333219000000.0 421778000000.0 193270000000.0 175189000000.0 111413000000.0 108406000000.0 81349900000.0 39209100000.0 77165100000.0 52590800000.0 113100000000.0 247502000000.0 425162000000.0 488162000000.0 75967700000.0 406604000000.0 367972000000.0 163011000000.0 183059000000.0 309011000000.0 418152000000.0 433095000000.0 462428000000.0 470052000000.0 453087000000.0 418085000000.0 369545000000.0 298968000000.0 170705000000.0 254942000000.0 110039000000.0 470421000000.0 463303000000.0 365281000000.0 250222000000.0 312893000000.0 244458000000.0 172407000000.0 95959000000.0 13681700000.0 73421400000.0 163061000000.0 254139000000.0 345539000000.0 434900000000.0 515582000000.0 576471000000.0 614841000000.0 631142000000.0 619987000000.0 567645000000.0 461665000000.0 300201000000.0 327581000000.0 382326000000.0 630230000000.0 870359000000.0 922963000000.0 893737000000.0 824026000000.0 772291000000.0 720394000000.0 1.00636e+12 1.2073e+12 1.20266e+12 996397000000.0 614699000000.0 26773900000.0 614623000000.0 186862000000.0 1.16939e+12 628806000000.0 86870200000.0 26930500000.0 48779300000.0 64539300000.0 287755000000.0 448635000000.0 490523000000.0 295635000000.0 174758000000.0 240744000000.0 92655500000.0 161169000000.0 117873000000.0 176141000000.0 263101000000.0 421499000000.0 628990000000.0 646159000000.0 485610000000.0 509648000000.0 429328000000.0 302345000000.0 309006000000.0 379206000000.0 439058000000.0 458790000000.0 477144000000.0 481661000000.0 470249000000.0 444926000000.0 404225000000.0 331570000000.0 162043000000.0 329662000000.0 309526000000.0 467285000000.0 383303000000.0 269477000000.0 162247000000.0 65961600000.0 21783000000.0 104212000000.0 182155000000.0 256603000000.0 326164000000.0 388449000000.0 437838000000.0 464950000000.0 461169000000.0 426791000000.0 372507000000.0 310641000000.0 244945000000.0 178179000000.0 107012000000.0 31135400000.0 49376200000.0 133752000000.0 220706000000.0 308865000000.0 395433000000.0 474816000000.0 539117000000.0 583954000000.0 384564000000.0 400485000000.0 387032000000.0 841680000000.0 999115000000.0 1.00125e+12 916839000000.0 853665000000.0 817969000000.0 771093000000.0 1.15861e+12 1.21393e+12 1.13897e+12 931904000000.0 169409000000.0 1.2222e+12 222800000000.0 415452000000.0 496984000000.0 174139000000.0 501574000000.0 67206800000.0 24521600000.0 214907000000.0 367779000000.0 512651000000.0 589736000000.0 652500000000.0 266809000000.0 340280000000.0 224376000000.0 319589000000.0 197435000000.0 228058000000.0 318890000000.0 583530000000.0 718983000000.0 744910000000.0 654398000000.0 594203000000.0 497505000000.0 410237000000.0 405146000000.0 438673000000.0 469527000000.0 484253000000.0 495771000000.0 498658000000.0 490556000000.0 469405000000.0 426705000000.0 334154000000.0 156450000000.0 595875000000.0 503695000000.0 342622000000.0 215706000000.0 115345000000.0 30926200000.0 45402800000.0 117067000000.0 185448000000.0 249918000000.0 308382000000.0 356794000000.0 389037000000.0 398788000000.0 383577000000.0 347135000000.0 297124000000.0 240157000000.0 178472000000.0 113043000000.0 43078700000.0 31294500000.0 109722000000.0 191388000000.0 274721000000.0 607672000000.0 605495000000.0 569026000000.0 496223000000.0 400505000000.0 447725000000.0 583972000000.0 1.03795e+12 1.00874e+12 954060000000.0 915909000000.0 896855000000.0 1.01024e+12 1.1842e+12 1.14339e+12 980403000000.0 658436000000.0 1.16683e+12 655999000000.0 680517000000.0 1.14902e+12 154737000000.0 415938000000.0 474273000000.0 286024000000.0 151298000000.0 540524000.0 154168000000.0 141635000000.0 235044000000.0 300130000000.0 663788000000.0 330912000000.0 448323000000.0 599735000000.0 581265000000.0 329762000000.0 265585000000.0 294312000000.0 428323000000.0 580065000000.0 692247000000.0 777971000000.0 803034000000.0 736822000000.0 652860000000.0 555485000000.0 487300000000.0 472689000000.0 483548000000.0 496773000000.0 505048000000.0 230705000000.0 856044000000.0 562399000000.0 348490000000.0 210646000000.0 111861000000.0 30989800000.0 41098700000.0 108000000000.0 170493000000.0 227482000000.0 276196000000.0 312406000000.0 331490000000.0 330523000000.0 310017000000.0 273849000000.0 227037000000.0 173280000000.0 114219000000.0 50525700000.0 17883400000.0 357188000000.0 434643000000.0 501116000000.0 551145000000.0 581188000000.0 588258000000.0 568916000000.0 522988000000.0 459419000000.0 423269000000.0 424371000000.0 587220000000.0 788381000000.0 958767000000.0 1.04064e+12 1.01888e+12 991161000000.0 981637000000.0 1.0426e+12 1.13245e+12 975944000000.0 667833000000.0 72258600000.0 775489000000.0 267077000000.0 986597000000.0 604532000000.0 170143000000.0 354615000000.0 378527000000.0 5112200000.0 136901000000.0 25128300000.0 45212200000.0 99947700000.0 79620900000.0 128787000000.0 425363000000.0 582844000000.0 830629000000.0 120556000000.0 747303000000.0 973233000000.0 524493000000.0 360842000000.0 230420000000.0 422149000000.0 542522000000.0 660682000000.0 762475000000.0 824709000000.0 831176000000.0 772230000000.0 684382000000.0 595172000000.0 511311000000.0 511757000000.0 502836000000.0 479025000000.0 427775000000.0 334676000000.0 214889000000.0 19264700000.0 1.0212e+12 622757000000.0 385552000000.0 241393000000.0 137746000000.0 53760900000.0 19095900000.0 84476400000.0 143187000000.0 194047000000.0 234392000000.0 260942000000.0 271047000000.0 263941000000.0 241212000000.0 90586100000.0 166656000000.0 244674000000.0 322451000000.0 396507000000.0 462391000000.0 515731000000.0 552399000000.0 568871000000.0 563561000000.0 538233000000.0 500583000000.0 471570000000.0 466234000000.0 485180000000.0 589931000000.0 758380000000.0 913832000000.0 1.01181e+12 1.02781e+12 1.02947e+12 1.07277e+12 1.12694e+12 1.1621e+12 1.12517e+12 702708000000.0 115615000000.0 989821000000.0 825514000000.0 421869000000.0 547030000000.0 772896000000.0 382801000000.0 38688100000.0 206062000000.0 403949000000.0 179173000000.0 12613200000.0 66909000000.0 52309600000.0 51368100000.0 59883100000.0 20712000000.0 35184900000.0 48943300000.0 148772000000.0 279148000000.0 849067000000.0 224745000000.0 89167400000.0 51877100000.0 819704000000.0 647806000000.0 385106000000.0 559581000000.0 646513000000.0 736345000000.0 809522000000.0 843618000000.0 537112000000.0 515444000000.0 512381000000.0 514643000000.0 516804000000.0 517603000000.0 513533000000.0 500333000000.0 471912000000.0 422939000000.0 361014000000.0 314856000000.0 235267000000.0 1.06058e+12 205974000000.0 161482000000.0 110124000000.0 53166700000.0 8740350000.0 75193200000.0 145439000000.0 218131000000.0 291159000000.0 361597000000.0 425883000000.0 480134000000.0 520786000000.0 545035000000.0 551591000000.0 541766000000.0 521902000000.0 505182000000.0 505591000000.0 530981000000.0 609164000000.0 728253000000.0 862406000000.0 968145000000.0 1.02167e+12 1.03489e+12 1.09119e+12 1.11591e+12 1.13514e+12 1.11681e+12 990284000000.0 338021000000.0 808868000000.0 100015000000.0 826892000000.0 590112000000.0 137653000000.0 115306000000.0 519970000000.0 38314700000.0 8993100000.0 19616800000.0 15475400000.0 19107700000.0 3642310000.0 18496000000.0 479130000000.0 709809000000.0 248822000000.0 142089000000.0 71662200000.0 221091000000.0 457503000000.0 365246000000.0 500668000000.0 576115000000.0 687564000000.0 782732000000.0 837123000000.0 778333000000.0 692198000000.0 614706000000.0 563621000000.0 537403000000.0 525602000000.0 519884000000.0 515658000000.0 510410000000.0 500892000000.0 483587000000.0 456635000000.0 425095000000.0 405345000000.0 425177000000.0 473064000000.0 659693000000.0 432708000000.0 283167000000.0 172710000000.0 84661500000.0 10340700000.0 54050700000.0 109362000000.0 154664000000.0 188007000000.0 207357000000.0 211572000000.0 201020000000.0 177441000000.0 143214000000.0 100578000000.0 51181000000.0 3913340000.0 63893200000.0 127860000000.0 194599000000.0 262454000000.0 328991000000.0 391016000000.0 445224000000.0 488732000000.0 518914000000.0 534529000000.0 536935000000.0 530467000000.0 523453000000.0 527243000000.0 555294000000.0 618728000000.0 712590000000.0 822731000000.0 919687000000.0 986126000000.0 1.01845e+12 1.02737e+12 1.04316e+12 1.08512e+12 1.07093e+12 1.02773e+12 798377000000.0 683740000000.0 780013000000.0 573196000000.0 757854000000.0 876153000000.0 250169000000.0 24787800000.0 69320600000.0 166900000000.0 16362800000.0 9173670000.0 107977000000.0 244449000000.0 445560000000.0 497395000000.0 325961000000.0 108216000000.0 465647000000.0 619272000000.0 519613000000.0 399622000000.0 443823000000.0 589604000000.0 842165000000.0 853635000000.0 820665000000.0 756124000000.0 679725000000.0 614928000000.0 569318000000.0 540798000000.0 523130000000.0 510682000000.0 499994000000.0 488872000000.0 475102000000.0 457735000000.0 439973000000.0 431194000000.0 991770000000.0 670730000000.0 460598000000.0 312445000000.0 201523000000.0 113166000000.0 39684000000.0 22324800000.0 73657800000.0 113668000000.0 141153000000.0 155133000000.0 155422000000.0 142854000000.0 119023000000.0 85735800000.0 44611400000.0 3031510000.0 56126300000.0 113678000000.0 174480000000.0 236886000000.0 298819000000.0 357818000000.0 411096000000.0 541408000000.0 566655000000.0 616655000000.0 694830000000.0 788583000000.0 875835000000.0 942582000000.0 985289000000.0 1.00725e+12 1.0264e+12 1.10345e+12 1.08924e+12 984137000000.0 947807000000.0 905940000000.0 566365000000.0 675869000000.0 699341000000.0 615974000000.0 304316000000.0 765857000000.0 625224000000.0 29065900000.0 179061000000.0 26433700000.0 8330990000.0 101359000000.0 289784000000.0 543526000000.0 429126000000.0 92629300000.0 58382800000.0 327097000000.0 154199000000.0 338616000000.0 43167800000.0 364224000000.0 711629000000.0 792247000000.0 829700000000.0 822696000000.0 777762000000.0 716079000000.0 652053000000.0 597855000000.0 556911000000.0 527135000000.0 504660000000.0 486442000000.0 470397000000.0 445387000000.0 494434000000.0 580130000000.0 809397000000.0 613410000000.0 448274000000.0 320200000000.0 218213000000.0 134683000000.0 65018500000.0 7160930000.0 39363600000.0 74177800000.0 96669800000.0 106513000000.0 104015000000.0 90150600000.0 66283800000.0 33825400000.0 5923160000.0 51769300000.0 455833000000.0 489944000000.0 512705000000.0 524717000000.0 528931000000.0 532091000000.0 891734000000.0 934408000000.0 958025000000.0 957721000000.0 1.07389e+12 1.03143e+12 1.0101e+12 768848000000.0 765084000000.0 668818000000.0 541366000000.0 673929000000.0 536418000000.0 209465000000.0 51306700000.0 406168000000.0 309614000000.0 165158000000.0 93057700000.0 286192000000.0 60055000000.0 17491900000.0 109260000000.0 586639000000.0 724917000000.0 792820000000.0 794841000000.0 758475000000.0 708310000000.0 657679000000.0 610489000000.0 568112000000.0 455271000000.0 440529000000.0 428097000000.0 424458000000.0 440583000000.0 488457000000.0 572097000000.0 592236000000.0 639760000000.0 534564000000.0 418136000000.0 313564000000.0 224197000000.0 148575000000.0 84978800000.0 32625000000.0 8549230000.0 102569000000.0 157123000000.0 213992000000.0 271315000000.0 326836000000.0 378179000000.0 423136000000.0 459885000000.0 487306000000.0 505839000000.0 518240000000.0 529086000000.0 543768000000.0 569904000000.0 612702000000.0 675594000000.0 752939000000.0 829494000000.0 888722000000.0 867465000000.0 1.00947e+12 963882000000.0 927258000000.0 884855000000.0 831711000000.0 617201000000.0 651898000000.0 422099000000.0 576459000000.0 654941000000.0 119756000000.0 36458200000.0 332320000000.0 307828000000.0 267465000000.0 50143300000.0 249042000000.0 230372000000.0 501020000000.0 663984000000.0 751631000000.0 760288000000.0 709230000000.0 655019000000.0 530280000000.0 497794000000.0 471107000000.0 448876000000.0 429799000000.0 413454000000.0 401103000000.0 397508000000.0 412095000000.0 457650000000.0 552938000000.0 706128000000.0 585261000000.0 38302800000.0 56400800000.0 62879700000.0 58240100000.0 43417200000.0 19570400000.0 12113600000.0 50473200000.0 94341600000.0 142494000000.0 193552000000.0 245893000000.0 297630000000.0 346689000000.0 391001000000.0 428915000000.0 459591000000.0 483163000000.0 501221000000.0 517219000000.0 535979000000.0 562457000000.0 601363000000.0 655343000000.0 718637000000.0 781951000000.0 836281000000.0 872933000000.0 934065000000.0 899740000000.0 856590000000.0 806063000000.0 735625000000.0 633408000000.0 499658000000.0 627518000000.0 262076000000.0 325774000000.0 531269000000.0 434149000000.0 112823000000.0 73795300000.0 4296020000.0 155051000000.0 613014000000.0 106961000000.0 354933000000.0 246557000000.0 478556000000.0 626296000000.0 709868000000.0 727347000000.0 617230000000.0 590877000000.0 563081000000.0 527319000000.0 488594000000.0 454326000000.0 425761000000.0 401976000000.0 382304000000.0 367268000000.0 359459000000.0 365065000000.0 394186000000.0 460705000000.0 579712000000.0 791954000000.0 557125000000.0 478489000000.0 386725000000.0 299114000000.0 221817000000.0 155268000000.0 99046900000.0 53090000000.0 17551100000.0 7356290000.0 21515300000.0 25098600000.0 18660600000.0 3046500000.0 20751600000.0 51674000000.0 88607500000.0 130337000000.0 175515000000.0 222675000000.0 270188000000.0 316289000000.0 359237000000.0 397531000000.0 430148000000.0 456909000000.0 478984000000.0 498857000000.0 520103000000.0 546713000000.0 582760000000.0 629481000000.0 683173000000.0 736709000000.0 780888000000.0 809092000000.0 818041000000.0 786261000000.0 755317000000.0 695095000000.0 622422000000.0 547136000000.0 500433000000.0 378713000000.0 142369000000.0 253242000000.0 405975000000.0 341318000000.0 49776200000.0 103208000000.0 75574100000.0 172748000000.0 296454000000.0 842179000000.0 2284190000.0 209079000000.0 551044000000.0 262386000000.0 513244000000.0 599928000000.0 668883000000.0 567247000000.0 517780000000.0 520743000000.0 530004000000.0 511202000000.0 471677000000.0 433186000000.0 400452000000.0 373283000000.0 350609000000.0 332275000000.0 319764000000.0 316802000000.0 329948000000.0 367985000000.0 499701000000.0 482500000000.0 418545000000.0 346412000000.0 276143000000.0 211976000000.0 155439000000.0 107297000000.0 68068400000.0 38150000000.0 17848500000.0 7289620000.0 6296270000.0 14358600000.0 30722400000.0 54502200000.0 84682100000.0 120109000000.0 159527000000.0 201557000000.0 244699000000.0 287408000000.0 328193000000.0 365752000000.0 399175000000.0 428132000000.0 453057000000.0 475418000000.0 497886000000.0 523964000000.0 557026000000.0 598266000000.0 645449000000.0 692124000000.0 728591000000.0 748379000000.0 750273000000.0 712727000000.0 854590000000.0 839440000000.0 802560000000.0 621786000000.0 590376000000.0 486131000000.0 248775000000.0 92377800000.0 246516000000.0 397118000000.0 29252200000.0 300190000000.0 430532000000.0 64221500000.0 314962000000.0 596691000000.0 249111000000.0 647825000000.0 625798000000.0 532134000000.0 362442000000.0 363970000000.0 446427000000.0 472785000000.0 440352000000.0 403562000000.0 370897000000.0 343220000000.0 441495000000.0 571333000000.0 788971000000.0 361615000000.0 388155000000.0 349926000000.0 299732000000.0 246837000000.0 196031000000.0 149897000000.0 110003000000.0 77392000000.0 52825200000.0 36836500000.0 29641600000.0 31106600000.0 40787900000.0 57981000000.0 679145000000.0 693913000000.0 690033000000.0 646551000000.0 774068000000.0 775736000000.0 751158000000.0 715839000000.0 670524000000.0 616908000000.0 172994000000.0 76013000000.0 302309000000.0 248418000000.0 88840000000.0 242326000000.0 916268000000.0 655987000.0 409869000000.0 476535000000.0 547631000000.0 574652000000.0 525694000000.0 392868000000.0 88932100000.0 235337000000.0 390578000000.0 319677000000.0 299635000000.0 283747000000.0 274336000000.0 275865000000.0 295001000000.0 339809000000.0 421747000000.0 558712000000.0 740261000000.0 239911000000.0 299417000000.0 282794000000.0 81783400000.0 111150000000.0 144933000000.0 181906000000.0 220740000000.0 259994000000.0 298266000000.0 334384000000.0 367562000000.0 397444000000.0 424149000000.0 448414000000.0 471795000000.0 496701000000.0 526024000000.0 561965000000.0 604467000000.0 646963000000.0 587313000000.0 694946000000.0 708644000000.0 698396000000.0 675387000000.0 639373000000.0 601231000000.0 572994000000.0 572444000000.0 590194000000.0 373331000000.0 138520000000.0 124907000000.0 38278100000.0 261258000000.0 366562000000.0 693088000000.0 542185000000.0 248760000000.0 425848000000.0 498687000000.0 496957000000.0 425386000000.0 380997000000.0 358789000000.0 334503000000.0 311479000000.0 290290000000.0 270776000000.0 253497000000.0 240327000000.0 234568000000.0 241100000000.0 266494000000.0 318791000000.0 407003000000.0 534356000000.0 659269000000.0 251992000000.0 214847000000.0 176364000000.0 139835000000.0 107504000000.0 80971100000.0 61388200000.0 49494900000.0 45607800000.0 49604900000.0 60972900000.0 78948500000.0 102658000000.0 131130000000.0 163226000000.0 197710000000.0 233375000000.0 268991000000.0 303431000000.0 335877000000.0 365889000000.0 393395000000.0 418787000000.0 442874000000.0 466943000000.0 492740000000.0 522836000000.0 558677000000.0 597221000000.0 630152000000.0 648059000000.0 639553000000.0 641792000000.0 634220000000.0 605351000000.0 573966000000.0 544795000000.0 530732000000.0 537456000000.0 441940000000.0 244415000000.0 79051500000.0 176531000000.0 173992000000.0 307862000000.0 442551000000.0 9798400000.0 361675000000.0 435855000000.0 222912000000.0 357920000000.0 410343000000.0 250603000000.0 202982000000.0 191803000000.0 275414000000.0 295845000000.0 291421000000.0 278534000000.0 263168000000.0 246795000000.0 230144000000.0 215061000000.0 204757000000.0 203327000000.0 215807000000.0 248020000000.0 305645000000.0 390023000000.0 495417000000.0 560625000000.0 138056000000.0 222361000000.0 222624000000.0 207136000000.0 182648000000.0 154256000000.0 125747000000.0 99920800000.0 78855200000.0 64015000000.0 56226200000.0 55697600000.0 62132800000.0 74996500000.0 93678500000.0 117345000000.0 144904000000.0 175283000000.0 207374000000.0 240031000000.0 272332000000.0 303621000000.0 333413000000.0 361380000000.0 387479000000.0 411932000000.0 435432000000.0 458957000000.0 483021000000.0 510550000000.0 543296000000.0 577125000000.0 600768000000.0 598720000000.0 539182000000.0 619437000000.0 638625000000.0 537195000000.0 516013000000.0 493187000000.0 481258000000.0 426841000000.0 284969000000.0 134679000000.0 120812000000.0 49931700000.0 12351300000.0 110124000000.0 117526000000.0 39594900000.0 313014000000.0 344058000000.0 182371000000.0 376117000000.0 245674000000.0 71962500000.0 269738000000.0 275197000000.0 263883000000.0 252586000000.0 241208000000.0 228484000000.0 213578000000.0 197928000000.0 184718000000.0 58197600000.0 159295000000.0 171297000000.0 166487000000.0 150997000000.0 130014000000.0 107731000000.0 87416500000.0 71441100000.0 61252700000.0 57416500000.0 59938200000.0 68658200000.0 83186900000.0 102716000000.0 126282000000.0 152940000000.0 181631000000.0 211365000000.0 241323000000.0 446324000000.0 465772000000.0 489379000000.0 517994000000.0 543423000000.0 549928000000.0 497695000000.0 543598000000.0 568726000000.0 584202000000.0 589903000000.0 563771000000.0 132169000000.0 199833000000.0 33350200000.0 101549000000.0 299711000000.0 251214000000.0 67322200000.0 243667000000.0 279716000000.0 292754000000.0 210924000000.0 358233000000.0 278612000000.0 263583000000.0 240581000000.0 177799000000.0 181390000000.0 199900000000.0 237189000000.0 294203000000.0 367151000000.0 445671000000.0 455967000000.0 335394000.0 109989000000.0 128560000000.0 129748000000.0 119507000000.0 103303000000.0 85731900000.0 70238600000.0 270925000000.0 299720000000.0 327409000000.0 353880000000.0 379158000000.0 402994000000.0 425330000000.0 499479000000.0 461055000000.0 493754000000.0 517050000000.0 527983000000.0 532145000000.0 513028000000.0 489540000000.0 468580000000.0 454599000000.0 428320000000.0 387814000000.0 278628000000.0 137625000000.0 6049540000.0 144735000000.0 284738000000.0 64678500000.0 274433000000.0 127887000000.0 199481000000.0 167912000000.0 4114700000.0 280729000000.0 257160000000.0 227961000000.0 217729000000.0 204354000000.0 187961000000.0 172305000000.0 161172000000.0 158217000000.0 166822000000.0 189846000000.0 228298000000.0 279854000000.0 337548000000.0 388452000000.0 353630000000.0 59008300000.0 53149500000.0 53113600000.0 58935900000.0 70257200000.0 86404300000.0 106635000000.0 130035000000.0 155655000000.0 182670000000.0 210354000000.0 238094000000.0 265369000000.0 291881000000.0 317911000000.0 343628000000.0 368608000000.0 391799000000.0 411636000000.0 428603000000.0 441654000000.0 459132000000.0 483222000000.0 450557000000.0 467148000000.0 457370000000.0 434955000000.0 415393000000.0 399284000000.0 382197000000.0 342203000000.0 244939000000.0 144459000000.0 3592930000.0 6479550000.0 65601400000.0 103904000000.0 183542000000.0 66267800000.0 173158000000.0 228554000000.0 50294700000.0 114943000000.0 33406000000.0 228875000000.0 191657000000.0 263887000000.0 245106000000.0 224313000000.0 215697000000.0 203554000000.0 185013000000.0 166196000000.0 150935000000.0 142414000000.0 143386000000.0 155883000000.0 180778000000.0 216840000000.0 259643000000.0 300679000000.0 326514000000.0 258730000000.0 37721400000.0 72646300000.0 92716700000.0 95351200000.0 86906100000.0 73332200000.0 59412300000.0 48350300000.0 41893500000.0 40778600000.0 45001100000.0 54132100000.0 67757600000.0 85351100000.0 106049000000.0 129060000000.0 153672000000.0 179169000000.0 204896000000.0 230339000000.0 255476000000.0 280498000000.0 305456000000.0 330708000000.0 355289000000.0 377755000000.0 395776000000.0 410165000000.0 415247000000.0 429365000000.0 443717000000.0 421545000000.0 417675000000.0 467057000000.0 380210000000.0 357977000000.0 328721000000.0 302680000000.0 213895000000.0 136951000000.0 152854000000.0 23673000000.0 14832000000.0 46751600000.0 11456500000.0 22990400000.0 98457700000.0 194946000000.0 109989000000.0 39590600000.0 189005000000.0 192577000000.0 243350000000.0 230150000000.0 221803000000.0 211589000000.0 188178000000.0 164416000000.0 144717000000.0 131337000000.0 125987000000.0 130083000000.0 144415000000.0 168405000000.0 199321000000.0 231709000000.0 256826000000.0 262218000000.0 173519000000.0 59658100000.0 44375800000.0 60888700000.0 60702500000.0 51247900000.0 39101200000.0 28940100000.0 23159600000.0 22236500000.0 25831300000.0 33837700000.0 46130500000.0 61981000000.0 80687000000.0 101673000000.0 124193000000.0 147620000000.0 171465000000.0 195334000000.0 218917000000.0 242062000000.0 265345000000.0 289473000000.0 314607000000.0 340169000000.0 362743000000.0 377026000000.0 401077000000.0 404947000000.0 407581000000.0 384530000000.0 355404000000.0 415084000000.0 400637000000.0 391233000000.0 397951000000.0 341991000000.0 113967000000.0 46910400000.0 16032800000.0 127607000000.0 108242000000.0 76498500000.0 70751900000.0 21862200000.0 59702600000.0 37943500000.0 166068000000.0 139098000000.0 140706000000.0 232134000000.0 236701000000.0 230746000000.0 69947400000.0 21337500000.0 29136400000.0 22519800000.0 10870600000.0 1092900000.0 3642920000.0 3411590000.0 795203000.0 8931380000.0 20902400000.0 356301000000.0 339192000000.0 283457000000.0 358761000000.0 349908000000.0 333436000000.0 328177000000.0 318538000000.0 295936000000.0 279080000000.0 270527000000.0 255026000000.0 184094000000.0 122860000000.0 20653500000.0 77033500000.0 108643000000.0 64549100000.0 17944900000.0 88462700000.0 153686000000.0 168056000000.0 140058000000.0 115675000000.0 87634800000.0 91481800000.0 195964000000.0 164252000000.0 139527000000.0 122069000000.0 111778000000.0 109315000000.0 115107000000.0 128967000000.0 149475000000.0 173357000000.0 195101000000.0 206657000000.0 197385000000.0 98262000000.0 36005600000.0 53548000000.0 72960000000.0 93808800000.0 115635000000.0 138064000000.0 160524000000.0 182455000000.0 204122000000.0 225540000000.0 246924000000.0 270176000000.0 294996000000.0 319827000000.0 340522000000.0 342582000000.0 372151000000.0 312979000000.0 280445000000.0 271448000000.0 256408000000.0 231006000000.0 207608000000.0 199106000000.0 202677000000.0 147016000000.0 106656000000.0 84718900000.0 60801200000.0 18129500000.0 57849900000.0 104287000000.0 98317000000.0 85663400000.0 287736000000.0 68275200000.0 278475000000.0 87411800000.0 79142000000.0 36071200000.0 243689000000.0 258708000000.0 201309000000.0 160353000000.0 131239000000.0 111563000000.0 98303500000.0 91101700000.0 90209800000.0 95674600000.0 106814000000.0 121836000000.0 137633000000.0 149479000000.0 150774000000.0 133011000000.0 31918600000.0 73410900000.0 1284130000.0 7354460000.0 22268600000.0 34216800000.0 38361500000.0 36121500000.0 29916100000.0 20323000000.0 7844300000.0 7245090000.0 24247200000.0 42718000000.0 62388300000.0 82900700000.0 103896000000.0 124866000000.0 145927000000.0 166896000000.0 186987000000.0 206040000000.0 224570000000.0 245333000000.0 267689000000.0 286856000000.0 292070000000.0 308941000000.0 322180000000.0 290018000000.0 244048000000.0 294190000000.0 175949000000.0 120090000000.0 81403500000.0 52750000000.0 62411900000.0 23563300000.0 44136500000.0 73767800000.0 49612900000.0 27227500000.0 86052800000.0 73789600000.0 189386000000.0 98428800000.0 26712900000.0 20571200000.0 155060000000.0 161763000000.0 138045000000.0 113427000000.0 96472200000.0 83310700000.0 73688000000.0 68116800000.0 66884200000.0 69816600000.0 76068000000.0 84022200000.0 91266100000.0 94437300000.0 88987500000.0 68830300000.0 27348200000.0 75163300000.0 29761900000.0 54247400000.0 74900500000.0 79876500000.0 73770800000.0 64929900000.0 53916700000.0 39996100000.0 23828500000.0 6896680000.0 11066300000.0 30016000000.0 49228200000.0 68733400000.0 88877800000.0 109519000000.0 129793000000.0 149061000000.0 166692000000.0 181584000000.0 194244000000.0 213023000000.0 232731000000.0 240418000000.0 260560000000.0 254342000000.0 248229000000.0 184870000000.0 222603000000.0 251789000000.0 248070000000.0 214616000000.0 209982000000.0 135449000000.0 123364000000.0 139922000000.0 55952300000.0 37546000000.0 87633200000.0 83130700000.0 62087100000.0 33304900000.0 38612300000.0 62528100000.0 27500800000.0 55110700000.0 116776000000.0 60598600000.0 74277800000.0 50647400000.0 79671200000.0 84312000000.0 89587800000.0 130858000000.0 119572000000.0 90879400000.0 81293400000.0 72805000000.0 115319000000.0 127915000000.0 114894000000.0 101733000000.0 89932800000.0 74019800000.0 56354500000.0 39185600000.0 22136500000.0 4281050000.0 214116000000.0 199532000000.0 191740000000.0 158313000000.0 165581000000.0 200071000000.0 187965000000.0 189869000000.0 149073000000.0 145696000000.0 90706500000.0 36790100000.0 67804000000.0 99029000000.0 70101700000.0 36163200000.0 60623900000.0 66616600000.0 62765600000.0 52612200000.0 27323700000.0 129622000000.0 127670000000.0 126669000000.0 116020000000.0 77223300000.0 68471200000.0 77881300000.0 66410600000.0 56027000000.0 47631900000.0 41676300000.0 38127900000.0 36487300000.0 35867400000.0 35161300000.0 33111700000.0 28279900000.0 18880000000.0 2340230000.0 81817200000.0 14080200000.0 33024100000.0 52552300000.0 72098900000.0 91683100000.0 111009000000.0 128517000000.0 143655000000.0 155416000000.0 161702000000.0 178975000000.0 190175000000.0 137290000000.0 131896000000.0 132200000000.0 82901000000.0 71742100000.0 21842500000.0 54366100000.0 1446510000.0 25840600000.0 34665000000.0 12022200000.0 1282150000.0 43178300000.0 31077000000.0 33878600000.0 18764900000.0 4678530000.0 11889100000.0 20753300000.0 126432000000.0 71903900000.0 60289400000.0 48816700000.0 37516100000.0 27416800000.0 18714700000.0 11094200000.0 3749870000.0 4247540000.0 13739300000.0 25326600000.0 38996700000.0 53662800000.0 67259800000.0 74308400000.0 133678000000.0 100158000000.0 140352000000.0 179419000000.0 159696000000.0 139861000000.0 123704000000.0 106572000000.0 89117100000.0 71859400000.0 56074900000.0 39774500000.0 22481100000.0 4416150000.0 14479400000.0 33854400000.0 53053700000.0 71694600000.0 90647000000.0 106809000000.0 120177000000.0 127061000000.0 131856000000.0 138953000000.0 156757000000.0 156488000000.0 129514000000.0 105554000000.0 123054000000.0 126309000000.0 12723600000.0 18814200000.0 9035750000.0 12365400000.0 8830680000.0 32658100000.0 29822600000.0 22217900000.0 5480240000.0 43603600000.0 73251900000.0 21409900000.0 82231200000.0 106775000000.0 106605000000.0 79169500000.0 62102500000.0 7633420000.0 104243000000.0 76141900000.0 53763200000.0 37390500000.0 25071600000.0 15042100000.0 6047170000.0 3737630000.0 15933100000.0 32190700000.0 53784100000.0 81481900000.0 114523000000.0 149548000000.0 180199000000.0 180507000000.0 181629000000.0 140489000000.0 214591000000.0 196873000000.0 178268000000.0 154323000000.0 133619000000.0 119918000000.0 105354000000.0 92115700000.0 77415800000.0 60801600000.0 43333400000.0 24230000000.0 4531250000.0 14121000000.0 32544700000.0 50434200000.0 67026500000.0 76426700000.0 81245900000.0 82717700000.0 81261100000.0 87061200000.0 107623000000.0 75122200000.0 63201300000.0 79831200000.0 83061800000.0 84038200000.0 93102400000.0 89917600000.0 90784800000.0 42839400000.0 9035750000.0 2711740000.0 30358400000.0 27342800000.0 27647500000.0 16941300000.0 22268100000.0 23381800000.0 22239600000.0 19759000000.0 14885400000.0 45810900000.0 9035750000.0 13762900000.0 13418600000.0 20894500000.0 18186900000.0 12748200000.0 37739700000.0 58275700000.0 35271500000.0 44910800000.0 53669300000.0 58153700000.0 69341900000.0 75926800000.0 96432000000.0 55536900000.0 44389700000.0 31931900000.0 21899500000.0 8277800000.0 2072310000.0 18031200000.0 23553100000.0 23811300000.0 33294800000.0 36560600000.0 34166700000.0 56114300000.0 55731700000.0 55196400000.0 54639800000.0 54145800000.0 53627700000.0 53322300000.0 53091000000.0 52859300000.0 52548800000.0 52139600000.0 51443500000.0 50295700000.0 48581000000.0 45529700000.0 37308000000.0 19081900000.0 90009300000.0 115522000000.0 133558000000.0 136599000000.0 131934000000.0 120341000000.0 104129000000.0 85456000000.0 65561300000.0 45028700000.0 23854800000.0 3947610000.0 12714300000.0 24814700000.0 30069400000.0 30774800000.0 30897600000.0 30639800000.0 33182500000.0 31266500000.0 15536200000.0 6485880000.0 22767900000.0 96262400000.0 79571400000.0 