# vtk DataFile Version 2.0
Time step 37
ASCII
DATASET UNSTRUCTURED_GRID
POINTS 5000 float
203911.0 357038.0 0
288609.0 357549.0 0
297464.0 357031.0 0
202707.0 361964.0 0
207339.0 358609.0 0
207412.0 361768.0 0
211795.0 358515.0 0
216671.0 363074.0 0
221915.0 362125.0 0
226931.0 363007.0 0
283291.0 360907.0 0
297173.0 362264.0 0
202404.0 366632.0 0
207193.0 366236.0 0
211533.0 363821.0 0
221020.0 366500.0 0
228355.0 367053.0 0
230619.0 364725.0 0
234865.0 363800.0 0
240263.0 365641.0 0
245433.0 367448.0 0
251717.0 367602.0 0
257971.0 366745.0 0
262749.0 366746.0 0
266907.0 363747.0 0
272373.0 362546.0 0
270797.0 368378.0 0
274250.0 366478.0 0
278342.0 364522.0 0
281418.0 368398.0 0
285759.0 366362.0 0
290488.0 362987.0 0
289973.0 367657.0 0
294481.0 366818.0 0
202988.0 371351.0 0
208181.0 371602.0 0
211764.0 368570.0 0
213780.0 372988.0 0
216849.0 368712.0 0
224795.0 368117.0 0
221451.0 370884.0 0
228079.0 371022.0 0
232352.0 368771.0 0
237342.0 370121.0 0
243207.0 372141.0 0
247618.0 371329.0 0
255290.0 372261.0 0
259444.0 371324.0 0
263610.0 371120.0 0
266621.0 368450.0 0
268316.0 373020.0 0
272986.0 371766.0 0
276839.0 369617.0 0
280188.0 372298.0 0
284386.0 372297.0 0
288756.0 373461.0 0
287633.0 369948.0 0
291813.0 370598.0 0
296698.0 371899.0 0
200121.0 375054.0 0
197901.0 378665.0 0
201429.0 379025.0 0
205160.0 375718.0 0
210202.0 376373.0 0
214718.0 378107.0 0
218506.0 374979.0 0
224849.0 374624.0 0
221980.0 377200.0 0
229647.0 374962.0 0
227741.0 378024.0 0
233769.0 373645.0 0
234684.0 378104.0 0
238822.0 375261.0 0
243183.0 378366.0 0
246931.0 375571.0 0
251094.0 373690.0 0
253401.0 377812.0 0
257864.0 376070.0 0
262252.0 375119.0 0
270871.0 378650.0 0
272240.0 375420.0 0
276328.0 374611.0 0
281062.0 377035.0 0
286127.0 377657.0 0
292389.0 374078.0 0
290838.0 377968.0 0
294913.0 376327.0 0
299310.0 378909.0 0
191340.0 382624.0 0
187880.0 385266.0 0
190713.0 385032.0 0
194912.0 380828.0 0
194283.0 384223.0 0
198116.0 382208.0 0
201717.0 384067.0 0
206054.0 380781.0 0
210981.0 382282.0 0
219745.0 380491.0 0
215987.0 382768.0 0
224495.0 379820.0 0
228125.0 383205.0 0
230999.0 379343.0 0
238459.0 381001.0 0
242186.0 381878.0 0
249287.0 379964.0 0
245512.0 382983.0 0
253488.0 382863.0 0
256683.0 380227.0 0
260741.0 380038.0 0
266077.0 378651.0 0
274462.0 380131.0 0
270115.0 384038.0 0
277158.0 378241.0 0
278590.0 381272.0 0
283489.0 383114.0 0
288537.0 382025.0 0
294390.0 379477.0 0
292154.0 382035.0 0
295420.0 382274.0 0
298526.0 383923.0 0
301891.0 382916.0 0
304643.0 380723.0 0
305007.0 385174.0 0
308265.0 382637.0 0
309843.0 384659.0 0
180116.0 390385.0 0
184083.0 388049.0 0
187660.0 388157.0 0
188638.0 390748.0 0
191900.0 388326.0 0
197268.0 386897.0 0
202337.0 388998.0 0
206317.0 386142.0 0
209755.0 387728.0 0
213781.0 387113.0 0
218552.0 387069.0 0
223116.0 384877.0 0
226628.0 387892.0 0
230113.0 387141.0 0
233590.0 384074.0 0
237954.0 385595.0 0
241402.0 384719.0 0
244199.0 387045.0 0
249468.0 384597.0 0
247872.0 388986.0 0
252330.0 387371.0 0
258134.0 384160.0 0
263750.0 384338.0 0
260325.0 388117.0 0
273850.0 388159.0 0
276009.0 384476.0 0
277040.0 388201.0 0
279941.0 386925.0 0
283042.0 388203.0 0
287786.0 385853.0 0
285228.0 387475.0 0
287167.0 388894.0 0
291425.0 385654.0 0
294976.0 385499.0 0
294683.0 389602.0 0
298357.0 387679.0 0
301400.0 386010.0 0
298840.0 391517.0 0
302542.0 389537.0 0
306233.0 389106.0 0
308000.0 386335.0 0
312699.0 386045.0 0
309677.0 388165.0 0
312980.0 389643.0 0
317043.0 389702.0 0
172210.0 395377.0 0
176182.0 393349.0 0
180032.0 394505.0 0
183028.0 391686.0 0
185749.0 391214.0 0
183625.0 394389.0 0
186593.0 394182.0 0
190508.0 393677.0 0
194590.0 391333.0 0
193991.0 396014.0 0
198505.0 390943.0 0
197199.0 393822.0 0
201468.0 394389.0 0
206696.0 392237.0 0
211596.0 391750.0 0
215274.0 390675.0 0
218605.0 392273.0 0
222377.0 389649.0 0
225445.0 392021.0 0
222072.0 394714.0 0
229696.0 391185.0 0
234976.0 390366.0 0
239389.0 393382.0 0
240363.0 388935.0 0
243990.0 392025.0 0
251519.0 391879.0 0
256052.0 390044.0 0
264910.0 389731.0 0
260673.0 393498.0 0
267225.0 393508.0 0
270097.0 390261.0 0
272550.0 393922.0 0
276592.0 392381.0 0
281317.0 391494.0 0
285133.0 390874.0 0
288322.0 393768.0 0
290326.0 389660.0 0
292419.0 393663.0 0
298692.0 395178.0 0
295704.0 394079.0 0
302589.0 394511.0 0
306219.0 393118.0 0
309589.0 391402.0 0
310295.0 395168.0 0
313013.0 392739.0 0
313572.0 395819.0 0
316809.0 394053.0 0
321734.0 391540.0 0
320308.0 394180.0 0
325414.0 394295.0 0
162015.0 401199.0 0
165520.0 399719.0 0
168593.0 396910.0 0
168880.0 399728.0 0
175850.0 397784.0 0
171855.0 398881.0 0
179809.0 398362.0 0
183742.0 397757.0 0
187291.0 397107.0 0
190009.0 397922.0 0
192735.0 399421.0 0
196234.0 399755.0 0
197640.0 396524.0 0
200058.0 399160.0 0
205219.0 398212.0 0
210101.0 396799.0 0
214535.0 395167.0 0
218190.0 397325.0 0
221537.0 398730.0 0
226697.0 397569.0 0
232002.0 395365.0 0
236522.0 397583.0 0
242655.0 397098.0 0
247497.0 394919.0 0
246746.0 399459.0 0
250954.0 395346.0 0
250743.0 398739.0 0
255420.0 396143.0 0
264717.0 396783.0 0
269884.0 397167.0 0
275438.0 398106.0 0
280340.0 396583.0 0
284302.0 395072.0 0
287557.0 398044.0 0
291641.0 398060.0 0
296247.0 398808.0 0
300182.0 397921.0 0
303474.0 399697.0 0
299815.0 401169.0 0
307634.0 398392.0 0
312956.0 399724.0 0
317533.0 398435.0 0
322444.0 397792.0 0
326327.0 399713.0 0
329344.0 397153.0 0
333838.0 399703.0 0
337501.0 401124.0 0
158464.0 403291.0 0
155690.0 405331.0 0
161189.0 403893.0 0
164737.0 403575.0 0
168151.0 402788.0 0
167291.0 405862.0 0
170851.0 401734.0 0
174493.0 402028.0 0
171355.0 404811.0 0
174692.0 405558.0 0
177945.0 401002.0 0
178514.0 404514.0 0
181762.0 401759.0 0
183999.0 405186.0 0
186237.0 401113.0 0
190101.0 401550.0 0
188637.0 405566.0 0
194158.0 403663.0 0
199445.0 403307.0 0
202238.0 401277.0 0
204428.0 403580.0 0
209283.0 401977.0 0
214194.0 400238.0 0
218581.0 401506.0 0
222798.0 402303.0 0
227256.0 403449.0 0
231638.0 400544.0 0
239927.0 401419.0 0
235633.0 402969.0 0
244254.0 403856.0 0
249569.0 403134.0 0
254307.0 402067.0 0
260439.0 400970.0 0
266838.0 401191.0 0
264824.0 404780.0 0
271667.0 402021.0 0
276381.0 403527.0 0
280329.0 401561.0 0
284243.0 399857.0 0
288883.0 402665.0 0
293762.0 402918.0 0
298088.0 404234.0 0
303045.0 404667.0 0
306643.0 402897.0 0
310211.0 403311.0 0
314588.0 403793.0 0
318361.0 402529.0 0
322370.0 402284.0 0
321793.0 405838.0 0
328446.0 401669.0 0
326151.0 403872.0 0
330857.0 401500.0 0
330411.0 404492.0 0
334551.0 404099.0 0
338391.0 404334.0 0
340348.0 402087.0 0
342349.0 404963.0 0
345853.0 405821.0 0
149659.0 409236.0 0
146489.0 411104.0 0
152417.0 407172.0 0
154961.0 409455.0 0
151972.0 411744.0 0
158975.0 407519.0 0
163200.0 407618.0 0
169750.0 407664.0 0
166846.0 409912.0 0
172912.0 408217.0 0
170749.0 411594.0 0
176234.0 408397.0 0
180651.0 408170.0 0
185080.0 409318.0 0
188818.0 409449.0 0
192477.0 408149.0 0
197342.0 407416.0 0
201692.0 407079.0 0
206511.0 407762.0 0
209661.0 410214.0 0
210991.0 406332.0 0
213807.0 410254.0 0
215584.0 405322.0 0
219776.0 405292.0 0
223486.0 407181.0 0
231438.0 406391.0 0
236080.0 406780.0 0
239074.0 405435.0 0
238329.0 409126.0 0
244877.0 408596.0 0
241560.0 408217.0 0
248211.0 407151.0 0
252777.0 407460.0 0
256940.0 405704.0 0
261189.0 407980.0 0
265946.0 409066.0 0
268873.0 405645.0 0
273195.0 406722.0 0
276890.0 407724.0 0
280277.0 406450.0 0
284440.0 404870.0 0
288466.0 408197.0 0
292123.0 406556.0 0
292344.0 410078.0 0
296035.0 408164.0 0
299813.0 407753.0 0
303317.0 409203.0 0
308418.0 407499.0 0
313123.0 407107.0 0
312872.0 411059.0 0
317890.0 406818.0 0
315854.0 409719.0 0
319336.0 410308.0 0
322176.0 409349.0 0
325892.0 407737.0 0
325489.0 411359.0 0
333596.0 407638.0 0
329952.0 407776.0 0
333419.0 411148.0 0
337038.0 406825.0 0
336458.0 410015.0 0
340400.0 408679.0 0
348478.0 407887.0 0
345124.0 409777.0 0
349327.0 411349.0 0
351347.0 409456.0 0
353775.0 411542.0 0
139829.0 415120.0 0
143210.0 413185.0 0
142779.0 416780.0 0
149153.0 412614.0 0
146391.0 414310.0 0
149248.0 414782.0 0
152667.0 415394.0 0
155290.0 412986.0 0
159034.0 412070.0 0
159844.0 416014.0 0
156528.0 415663.0 0
162761.0 412201.0 0
162749.0 415838.0 0
166399.0 414002.0 0
174261.0 411662.0 0
170503.0 416047.0 0
175016.0 415340.0 0
177799.0 411818.0 0
179937.0 415632.0 0
181719.0 411704.0 0
183948.0 413349.0 0
187111.0 412877.0 0
191302.0 412258.0 0
195375.0 411558.0 0
194070.0 415467.0 0
199707.0 411392.0 0
198306.0 415019.0 0
203323.0 410928.0 0
202565.0 415354.0 0
206505.0 412873.0 0
210685.0 414236.0 0
215432.0 415175.0 0
218641.0 410062.0 0
222844.0 411743.0 0
227137.0 410496.0 0
229199.0 414879.0 0
231167.0 411590.0 0
234827.0 410444.0 0
238055.0 413318.0 0
242985.0 413037.0 0
247419.0 411195.0 0
251514.0 413350.0 0
256948.0 411908.0 0
261971.0 413510.0 0
266206.0 413722.0 0
270398.0 410750.0 0
273457.0 414294.0 0
275260.0 410873.0 0
279469.0 410951.0 0
281105.0 414365.0 0
283737.0 410015.0 0
284427.0 414871.0 0
287512.0 412348.0 0
291161.0 413454.0 0
295373.0 412297.0 0
299816.0 411801.0 0
306544.0 411067.0 0
304540.0 413513.0 0
309553.0 413193.0 0
314533.0 415354.0 0
317378.0 412963.0 0
322222.0 413818.0 0
326862.0 415369.0 0
329808.0 411894.0 0
331920.0 415142.0 0
335388.0 414145.0 0
338615.0 412453.0 0
342666.0 413883.0 0
347562.0 413767.0 0
351625.0 414023.0 0
354818.0 416057.0 0
356728.0 413470.0 0
359867.0 415419.0 0
363315.0 417154.0 0
132727.0 419306.0 0
130155.0 421175.0 0
136840.0 417478.0 0
135397.0 420613.0 0
139743.0 421505.0 0
139978.0 418383.0 0
143675.0 420445.0 0
146378.0 417371.0 0
147198.0 421022.0 0
149666.0 417927.0 0
154064.0 418447.0 0
151712.0 419726.0 0
157183.0 418792.0 0
161002.0 419608.0 0
165865.0 418633.0 0
169280.0 420487.0 0
172472.0 419793.0 0
176432.0 419405.0 0
184724.0 417265.0 0
180577.0 419977.0 0
189566.0 416438.0 0
192805.0 419490.0 0
196267.0 418008.0 0
199506.0 418593.0 0
203276.0 419876.0 0
206795.0 417120.0 0
211087.0 418797.0 0
214988.0 419875.0 0
220310.0 415563.0 0
218564.0 420016.0 0
225200.0 415554.0 0
222925.0 419941.0 0
227496.0 419724.0 0
230678.0 417834.0 0
233455.0 415054.0 0
233458.0 420002.0 0
236583.0 417119.0 0
240502.0 417266.0 0
244340.0 418335.0 0
247283.0 415859.0 0
254700.0 416799.0 0
250669.0 419555.0 0
259183.0 417647.0 0
263723.0 417637.0 0
267229.0 417670.0 0
270183.0 415816.0 0
273721.0 418293.0 0
270191.0 420287.0 0
277434.0 415382.0 0
277341.0 420325.0 0
281466.0 418878.0 0
288171.0 415781.0 0
286202.0 419158.0 0
290994.0 418570.0 0
294248.0 415985.0 0
298154.0 416158.0 0
295859.0 419970.0 0
300200.0 420868.0 0
302067.0 416217.0 0
303760.0 419570.0 0
307222.0 417713.0 0
311081.0 419760.0 0
311238.0 416844.0 0
313528.0 419143.0 0
316689.0 419580.0 0
319505.0 416997.0 0
320713.0 421224.0 0
324322.0 418801.0 0
329831.0 418094.0 0
338792.0 416359.0 0
334757.0 418809.0 0
339383.0 420531.0 0
342984.0 418451.0 0
347022.0 417297.0 0
346823.0 421923.0 0
350529.0 416760.0 0
349917.0 419963.0 0
353046.0 418744.0 0
357879.0 418141.0 0
355891.0 420231.0 0
358466.0 422067.0 0
361207.0 419998.0 0
364549.0 420930.0 0
366331.0 419129.0 0
369325.0 420657.0 0
121157.0 426573.0 0
123514.0 424906.0 0
127395.0 423582.0 0
125575.0 426656.0 0
131937.0 423029.0 0
130191.0 425908.0 0
134924.0 424716.0 0
138178.0 424423.0 0
143651.0 423763.0 0
141286.0 424558.0 0
139923.0 426881.0 0
146561.0 424293.0 0
149066.0 425720.0 0
150145.0 422392.0 0
154067.0 421981.0 0
151836.0 425137.0 0
157639.0 422123.0 0
155318.0 426280.0 0
160213.0 424322.0 0
163581.0 422414.0 0
163887.0 426138.0 0
167093.0 423060.0 0
170453.0 423116.0 0
173636.0 422646.0 0
172527.0 425835.0 0
177140.0 423890.0 0
184320.0 421346.0 0
181554.0 423457.0 0
185103.0 424896.0 0
188304.0 421311.0 0
188552.0 425576.0 0
192406.0 423786.0 0
196345.0 421477.0 0
199893.0 422477.0 0
203095.0 425151.0 0
207432.0 422067.0 0
210107.0 424558.0 0
212640.0 422764.0 0
216234.0 423507.0 0
220416.0 423865.0 0
225316.0 424319.0 0
230354.0 423289.0 0
237859.0 420880.0 0
235087.0 424686.0 0
239217.0 424173.0 0
241924.0 421344.0 0
242545.0 425259.0 0
246166.0 422380.0 0
249766.0 424220.0 0
253497.0 423680.0 0
255480.0 420401.0 0
257628.0 423460.0 0
262108.0 422509.0 0
266244.0 421026.0 0
268774.0 424978.0 0
274119.0 423707.0 0
279614.0 424464.0 0
283831.0 422933.0 0
286388.0 425264.0 0
288548.0 422620.0 0
293063.0 423229.0 0
297416.0 424528.0 0
301345.0 425464.0 0
305086.0 422949.0 0
309401.0 422405.0 0
312305.0 425520.0 0
313617.0 422391.0 0
317020.0 423091.0 0
320743.0 426345.0 0
328316.0 421117.0 0
325436.0 423784.0 0
331849.0 421480.0 0
330568.0 424622.0 0
335976.0 424968.0 0
343252.0 421561.0 0
341954.0 424684.0 0
345769.0 425717.0 0
351989.0 422193.0 0
350056.0 425325.0 0
355307.0 423358.0 0
359390.0 425923.0 0
361711.0 423265.0 0
364486.0 423765.0 0
363696.0 426676.0 0
367551.0 423353.0 0
367116.0 426734.0 0
372168.0 422458.0 0
375012.0 424217.0 0
370623.0 424467.0 0
373708.0 426240.0 0
377877.0 426326.0 0
118483.0 428133.0 0
115547.0 430305.0 0
122384.0 428628.0 0
119359.0 430868.0 0
124713.0 430011.0 0
122475.0 431965.0 0
128298.0 429262.0 0
132833.0 427814.0 0
131779.0 430924.0 0
136512.0 428316.0 0
135737.0 431949.0 0
143787.0 427589.0 0
140166.0 430095.0 0
143328.0 431082.0 0
147139.0 428061.0 0
146730.0 431197.0 0
150806.0 428934.0 0
154735.0 431319.0 0
159342.0 428686.0 0
163547.0 430982.0 0
168109.0 427010.0 0
167917.0 431024.0 0
171398.0 429713.0 0
175781.0 428519.0 0
181024.0 427855.0 0
186264.0 429238.0 0
191111.0 427745.0 0
193377.0 429904.0 0
196848.0 426993.0 0
200871.0 428522.0 0
203633.0 429931.0 0
207529.0 427406.0 0
212629.0 427507.0 0
217576.0 427452.0 0
221918.0 428176.0 0
228715.0 426855.0 0
226027.0 429179.0 0
231792.0 427167.0 0
234817.0 429721.0 0
238715.0 427652.0 0
242308.0 429357.0 0
246674.0 427927.0 0
252132.0 428649.0 0
256039.0 426491.0 0
256568.0 429689.0 0
259855.0 427546.0 0
264634.0 427230.0 0
262682.0 430433.0 0
268156.0 429814.0 0
272502.0 428737.0 0
276745.0 427798.0 0
283162.0 426854.0 0
280394.0 430320.0 0
286930.0 428955.0 0
290318.0 426520.0 0
291506.0 430797.0 0
294681.0 427803.0 0
298746.0 428815.0 0
304665.0 425990.0 0
303896.0 430058.0 0
308537.0 427200.0 0
312750.0 429689.0 0
315518.0 426489.0 0
317694.0 431368.0 0
325442.0 428407.0 0
328729.0 427778.0 0
332829.0 429401.0 0
337064.0 430758.0 0
339982.0 428335.0 0
343650.0 428713.0 0
347501.0 428909.0 0
354313.0 427291.0 0
350991.0 429244.0 0
353937.0 431940.0 0
358190.0 430408.0 0
364985.0 430528.0 0
361445.0 429348.0 0
368612.0 430555.0 0
370593.0 428034.0 0
373502.0 430929.0 0
375942.0 428341.0 0
378415.0 431301.0 0
380742.0 428642.0 0
383924.0 430542.0 0
106108.0 436936.0 0
112201.0 432739.0 0
109220.0 434458.0 0
110826.0 436711.0 0
113342.0 436629.0 0
115302.0 433717.0 0
118912.0 434465.0 0
121906.0 434037.0 0
123529.0 435496.0 0
125458.0 432837.0 0
128752.0 433747.0 0
126404.0 436246.0 0
132083.0 435191.0 0
135866.0 436006.0 0
139858.0 433383.0 0
143659.0 434424.0 0
139674.0 437112.0 0
147143.0 434536.0 0
146214.0 437048.0 0
150315.0 433228.0 0
153721.0 436671.0 0
158552.0 433667.0 0
161570.0 435486.0 0
165890.0 435528.0 0
170118.0 433605.0 0
172867.0 435425.0 0
174060.0 432100.0 0
175945.0 434633.0 0
178489.0 432153.0 0
178428.0 436372.0 0
182734.0 431714.0 0
181262.0 434533.0 0
185569.0 434632.0 0
190045.0 432043.0 0
195104.0 433350.0 0
199510.0 431863.0 0
203101.0 434372.0 0
207118.0 431785.0 0
211200.0 432765.0 0
215286.0 431077.0 0
215444.0 435099.0 0
219353.0 432123.0 0
223689.0 432462.0 0
226988.0 435339.0 0
230110.0 431556.0 0
233534.0 435653.0 0
238997.0 433509.0 0
244694.0 432984.0 0
249120.0 432964.0 0
254716.0 432510.0 0
259219.0 433308.0 0
265308.0 434520.0 0
271319.0 434111.0 0
276019.0 432017.0 0
279176.0 434939.0 0
284169.0 431523.0 0
283441.0 435801.0 0
287968.0 433476.0 0
292400.0 435744.0 0
295856.0 432420.0 0
300534.0 433729.0 0
304955.0 434528.0 0
309000.0 432742.0 0
313608.0 434359.0 0
323395.0 431732.0 0
321407.0 435534.0 0
325457.0 436220.0 0
328734.0 432562.0 0
333941.0 434284.0 0
338131.0 434206.0 0
341220.0 431760.0 0
342108.0 435602.0 0
349423.0 432654.0 0
346072.0 434836.0 0
344971.0 431968.0 0
349060.0 436575.0 0
352972.0 435800.0 0
357676.0 434931.0 0
361718.0 433472.0 0
364994.0 434611.0 0
362082.0 437021.0 0
364536.0 436329.0 0
367692.0 433895.0 0
370711.0 433036.0 0
375530.0 434416.0 0
371797.0 436432.0 0
379494.0 436104.0 0
381091.0 433241.0 0
383859.0 434300.0 0
387484.0 433184.0 0
391163.0 434102.0 0
393558.0 435813.0 0
391679.0 437318.0 0
98825.5 441515.0 0
102838.0 439708.0 0
108827.0 439442.0 0
106202.0 441499.0 0
110205.0 442914.0 0
113743.0 440273.0 0
116678.0 437476.0 0
118596.0 441002.0 0
120532.0 437299.0 0
123989.0 439777.0 0
129108.0 438602.0 0
133141.0 439090.0 0
135151.0 442152.0 0
136712.0 439526.0 0
139518.0 441547.0 0
143033.0 438586.0 0
143607.0 442143.0 0
149332.0 437160.0 0
146978.0 440271.0 0
150788.0 440895.0 0
158091.0 438088.0 0
154981.0 441593.0 0
162029.0 439136.0 0
165723.0 440094.0 0
170111.0 438877.0 0
174968.0 437931.0 0
174032.0 441106.0 0
177954.0 440278.0 0
181742.0 438181.0 0
185950.0 439998.0 0
190136.0 436613.0 0
190314.0 441241.0 0
194189.0 438094.0 0
198869.0 436554.0 0
199987.0 439897.0 0
197169.0 441000.0 0
203337.0 439285.0 0
207356.0 436061.0 0
207556.0 440484.0 0
211811.0 438144.0 0
216631.0 439262.0 0
219114.0 436374.0 0
220682.0 439934.0 0
222847.0 436408.0 0
229773.0 438314.0 0
225505.0 440134.0 0
238058.0 438956.0 0
242984.0 436887.0 0
246934.0 437116.0 0
252791.0 436304.0 0
250147.0 439757.0 0
257429.0 438323.0 0
261960.0 439184.0 0
267157.0 440553.0 0
272026.0 439656.0 0
275836.0 436701.0 0
276064.0 440717.0 0
280558.0 440483.0 0
285027.0 440076.0 0
287927.0 437772.0 0
290554.0 438992.0 0
293003.0 440063.0 0
297700.0 438344.0 0
303332.0 437791.0 0
307375.0 436987.0 0
310967.0 436560.0 0
310407.0 439811.0 0
314263.0 439072.0 0
317866.0 436633.0 0
318858.0 440831.0 0
322376.0 439099.0 0
326410.0 440293.0 0
329887.0 437286.0 0
334096.0 438485.0 0
338087.0 437888.0 0
339611.0 441533.0 0
342383.0 439640.0 0
345552.0 437923.0 0
345374.0 441057.0 0
348372.0 440021.0 0
351787.0 438895.0 0
354241.0 441082.0 0
356013.0 438517.0 0
359734.0 438699.0 0
364938.0 439811.0 0
361551.0 441561.0 0
367774.0 436973.0 0
369404.0 440340.0 0
373115.0 440382.0 0
376337.0 438332.0 0
380085.0 439915.0 0
383888.0 438096.0 0
382242.0 442481.0 0
385645.0 441777.0 0
388427.0 437057.0 0
389340.0 440559.0 0
393176.0 440371.0 0
396064.0 438260.0 0
399000.0 440216.0 0
403147.0 441547.0 0
90050.9 445656.0 0
92584.5 444617.0 0
95386.8 443335.0 0
97952.9 445514.0 0
95301.2 446942.0 0
102887.0 444405.0 0
106820.0 444592.0 0
112313.0 445938.0 0
115621.0 443861.0 0
117885.0 445502.0 0
121776.0 444588.0 0
126978.0 442913.0 0
126602.0 446651.0 0
131162.0 443411.0 0
133582.0 445990.0 0
136738.0 444905.0 0
141524.0 445557.0 0
147056.0 444676.0 0
151851.0 445145.0 0
156042.0 445752.0 0
158999.0 442389.0 0
163150.0 443168.0 0
164715.0 446721.0 0
167124.0 443204.0 0
168294.0 446487.0 0
171189.0 443507.0 0
176048.0 444394.0 0
181485.0 443305.0 0
186809.0 445442.0 0
191275.0 445489.0 0
193865.0 442358.0 0
196127.0 446174.0 0
200492.0 443459.0 0
204854.0 444473.0 0
209570.0 443486.0 0
213767.0 442566.0 0
218051.0 443240.0 0
222271.0 444020.0 0
229528.0 442306.0 0
226631.0 445164.0 0
233807.0 441070.0 0
231083.0 446452.0 0
234378.0 445030.0 0
238400.0 444075.0 0
242123.0 440861.0 0
246519.0 442104.0 0
254136.0 441659.0 0
250457.0 443567.0 0
258733.0 443386.0 0
263318.0 443239.0 0
267010.0 445914.0 0
271714.0 444727.0 0
277014.0 445136.0 0
281241.0 445803.0 0
284401.0 443841.0 0
288867.0 442402.0 0
292856.0 443609.0 0
295632.0 442461.0 0
298707.0 443890.0 0
295666.0 446007.0 0
301666.0 446161.0 0
302304.0 442042.0 0
305879.0 446236.0 0
306599.0 441338.0 0
311250.0 444529.0 0
315577.0 443037.0 0
318716.0 444914.0 0
322685.0 443910.0 0
327290.0 444633.0 0
331385.0 442096.0 0
334911.0 446002.0 0
336168.0 441902.0 0
339134.0 445501.0 0
343467.0 444087.0 0
347576.0 443882.0 0
351019.0 442765.0 0
350804.0 446532.0 0
354609.0 444751.0 0
358074.0 442495.0 0
358477.0 446494.0 0
361594.0 445061.0 0
364629.0 443887.0 0
368282.0 443463.0 0
372001.0 443450.0 0
374558.0 446336.0 0
377280.0 443177.0 0
381963.0 445477.0 0
385697.0 445535.0 0
389275.0 444079.0 0
393430.0 444296.0 0
397046.0 443746.0 0
401012.0 443517.0 0
403982.0 443981.0 0
406233.0 444117.0 0
401335.0 446932.0 0
404316.0 446867.0 0
408948.0 446748.0 0
81518.2 452419.0 0
83965.2 449756.0 0
86203.0 451522.0 0
88105.8 448665.0 0
92360.9 448188.0 0
90152.1 451657.0 0
96022.3 450259.0 0
100093.0 448092.0 0
100136.0 451937.0 0
103472.0 451347.0 0
104641.0 448598.0 0
108333.0 447580.0 0
107540.0 450741.0 0
111590.0 449738.0 0
115713.0 447826.0 0
118923.0 448153.0 0
115682.0 451791.0 0
123011.0 448427.0 0
120782.0 451505.0 0
126122.0 450809.0 0
130014.0 447699.0 0
129967.0 451194.0 0
133697.0 449271.0 0
137786.0 448074.0 0
140826.0 449752.0 0
144645.0 448788.0 0
146553.0 452131.0 0
149222.0 448734.0 0
153439.0 449510.0 0
157636.0 449834.0 0
160363.0 446317.0 0
162349.0 449944.0 0
167450.0 450990.0 0
172438.0 448119.0 0
176008.0 451044.0 0
178547.0 447515.0 0
180272.0 451543.0 0
182617.0 447715.0 0
191779.0 450052.0 0
196884.0 451246.0 0
200757.0 448131.0 0
204723.0 449630.0 0
208271.0 447192.0 0
208521.0 450575.0 0
212336.0 446767.0 0
215362.0 449127.0 0
212124.0 450566.0 0
215900.0 446024.0 0
219195.0 448029.0 0
223509.0 448012.0 0
227070.0 449532.0 0
231177.0 451210.0 0
235712.0 448894.0 0
240246.0 448371.0 0
243559.0 445994.0 0
248247.0 446771.0 0
250527.0 449930.0 0
253255.0 446647.0 0
254764.0 451086.0 0
257423.0 447878.0 0
262203.0 447827.0 0
269854.0 448438.0 0
274053.0 450000.0 0
279645.0 450471.0 0
284098.0 448290.0 0
287259.0 446338.0 0
288034.0 450645.0 0
291613.0 447568.0 0
295596.0 449641.0 0
298755.0 448065.0 0
302207.0 449751.0 0
310229.0 449099.0 0
306259.0 451295.0 0
314034.0 451321.0 0
315803.0 447341.0 0
317916.0 450872.0 0
320360.0 448255.0 0
325403.0 449390.0 0
330723.0 447123.0 0
330656.0 450760.0 0
334527.0 450189.0 0
338373.0 449568.0 0
342626.0 448726.0 0
346944.0 447858.0 0
346021.0 451902.0 0
350754.0 451145.0 0
354867.0 448916.0 0
358712.0 450278.0 0
361776.0 448819.0 0
364982.0 451535.0 0
365726.0 447515.0 0
370575.0 447713.0 0
368945.0 451999.0 0
375296.0 449560.0 0
373559.0 452185.0 0
379059.0 448654.0 0
383462.0 449267.0 0
390667.0 447445.0 0
387499.0 449148.0 0
391501.0 451957.0 0
394623.0 448870.0 0
397960.0 447647.0 0
399122.0 450867.0 0
405985.0 449698.0 0
402050.0 450309.0 0
409517.0 451300.0 0
412517.0 448319.0 0
415758.0 450289.0 0
418763.0 451960.0 0
72251.7 457396.0 0
77894.0 453742.0 0
75361.3 455592.0 0
80218.0 456591.0 0
84644.0 454076.0 0
84047.5 457758.0 0
88460.6 454489.0 0
93021.0 452103.0 0
91732.2 455497.0 0
97071.1 453714.0 0
94626.9 454792.0 0
96974.5 457170.0 0
101011.0 455548.0 0
105636.0 454421.0 0
110753.0 453723.0 0
111963.0 457092.0 0
115047.0 455827.0 0
119112.0 455648.0 0
123420.0 454155.0 0
127536.0 455564.0 0
132682.0 453899.0 0
137198.0 452097.0 0
136833.0 456163.0 0
142088.0 454110.0 0
146918.0 456262.0 0
150503.0 453011.0 0
154942.0 454425.0 0
159715.0 453548.0 0
162671.0 456853.0 0
163867.0 453292.0 0
166644.0 455564.0 0
171748.0 452961.0 0
170422.0 457252.0 0
175388.0 455468.0 0
185963.0 451695.0 0
190227.0 454505.0 0
193641.0 454074.0 0
197358.0 456394.0 0
201182.0 452744.0 0
205141.0 453647.0 0
209947.0 454334.0 0
215867.0 453645.0 0
222303.0 453116.0 0
227518.0 453436.0 0
230749.0 456275.0 0
235498.0 454512.0 0
240308.0 452626.0 0
245754.0 451466.0 0
251084.0 454658.0 0
259399.0 452228.0 0
256208.0 455372.0 0
263107.0 455514.0 0
266509.0 451387.0 0
267498.0 456038.0 0
270176.0 450942.0 0
271029.0 454341.0 0
276128.0 455942.0 0
281021.0 455295.0 0
284194.0 452905.0 0
288037.0 455153.0 0
293077.0 453966.0 0
298739.0 452547.0 0
302722.0 453759.0 0
306573.0 456153.0 0
310374.0 453472.0 0
313744.0 455203.0 0
316989.0 454643.0 0
321310.0 453299.0 0
325248.0 454687.0 0
328491.0 453375.0 0
328445.0 456636.0 0
333240.0 455000.0 0
337212.0 452810.0 0
338285.0 456975.0 0
341652.0 453231.0 0
345737.0 456202.0 0
348805.0 454795.0 0
352142.0 455752.0 0
356152.0 453915.0 0
361426.0 453630.0 0
366475.0 455594.0 0
371304.0 455747.0 0
377891.0 452627.0 0
375835.0 456254.0 0
380455.0 456342.0 0
382108.0 452698.0 0
384755.0 456394.0 0
386119.0 452804.0 0
389375.0 455868.0 0
394534.0 456162.0 0
396598.0 452709.0 0
401088.0 454774.0 0
398273.0 457037.0 0
404676.0 453026.0 0
405681.0 455666.0 0
407718.0 453737.0 0
409701.0 455453.0 0
407707.0 457294.0 0
413157.0 453328.0 0
413305.0 457287.0 0
417010.0 454972.0 0
421648.0 454834.0 0
425405.0 457336.0 0
66627.3 460849.0 0
69247.8 458761.0 0
70262.2 461873.0 0
73516.8 460256.0 0
76535.6 458152.0 0
79126.4 460590.0 0
82565.6 461494.0 0
88234.3 458206.0 0
85885.6 461078.0 0
92884.4 458968.0 0
89111.7 461677.0 0
96858.9 460894.0 0
100477.0 459503.0 0
103267.0 462126.0 0
108332.0 457867.0 0
104314.0 458725.0 0
107092.0 462257.0 0
111078.0 460471.0 0
110348.0 463464.0 0
114385.0 458986.0 0
117787.0 459607.0 0
122587.0 457647.0 0
120865.0 461289.0 0
125172.0 461184.0 0
129027.0 459345.0 0
132524.0 458235.0 0
136670.0 460411.0 0
140193.0 458151.0 0
140584.0 462158.0 0
143692.0 458859.0 0
147629.0 460299.0 0
151126.0 457533.0 0
154666.0 459465.0 0
158221.0 457862.0 0
157704.0 461854.0 0
161197.0 460437.0 0
165942.0 460238.0 0
174263.0 459711.0 0
177649.0 461015.0 0
180854.0 456867.0 0
180639.0 461483.0 0
186710.0 457699.0 0
188198.0 461691.0 0
192160.0 458919.0 0
198825.0 461073.0 0
202334.0 457643.0 0
206662.0 457171.0 0
205922.0 460496.0 0
212772.0 456861.0 0
210080.0 459900.0 0
215119.0 459781.0 0
218818.0 457193.0 0
218904.0 460518.0 0
222179.0 458938.0 0
226282.0 457799.0 0
229762.0 460967.0 0
234174.0 459858.0 0
238719.0 458500.0 0
242665.0 456807.0 0
241202.0 460932.0 0
246634.0 456774.0 0
249670.0 460115.0 0
244827.0 460972.0 0
254006.0 458880.0 0
259226.0 459893.0 0
265744.0 459893.0 0
271343.0 459701.0 0
280614.0 460055.0 0
284896.0 457762.0 0
289790.0 459729.0 0
294374.0 459011.0 0
297613.0 456884.0 0
297773.0 461718.0 0
302202.0 458535.0 0
307378.0 461257.0 0
311031.0 457957.0 0
315368.0 458514.0 0
319895.0 458114.0 0
324448.0 458435.0 0
328374.0 459983.0 0
331724.0 459112.0 0
335446.0 460395.0 0
342550.0 457907.0 0
345742.0 460146.0 0
349727.0 458887.0 0
352384.0 462152.0 0
354760.0 459322.0 0
359321.0 458150.0 0
363037.0 457490.0 0
362575.0 461295.0 0
365674.0 459662.0 0
369513.0 459253.0 0
373744.0 459648.0 0
378498.0 460514.0 0
383232.0 459877.0 0
388355.0 460717.0 0
392896.0 459527.0 0
397003.0 461066.0 0
400072.0 459429.0 0
403576.0 458878.0 0
410857.0 458328.0 0
407994.0 461310.0 0
416154.0 458951.0 0
412329.0 461841.0 0
416152.0 462927.0 0
419775.0 458028.0 0
419624.0 461643.0 0
422717.0 460090.0 0
424434.0 462867.0 0
429741.0 458783.0 0
427258.0 461065.0 0
432643.0 461473.0 0
59899.6 466312.0 0
63427.9 463943.0 0
67229.8 464309.0 0
64690.2 467649.0 0
68216.3 467785.0 0
71988.7 465819.0 0
75684.9 463216.0 0
77110.9 467386.0 0
79346.5 463959.0 0
82288.8 465701.0 0
85882.6 463718.0 0
85885.6 467586.0 0
93124.3 463828.0 0
88979.7 465795.0 0
97397.5 464387.0 0
100236.0 463224.0 0
99466.9 466821.0 0
103442.0 466555.0 0
108034.0 465928.0 0
111077.0 465424.0 0
114141.0 463007.0 0
117961.0 464243.0 0
122104.0 465405.0 0
126546.0 466469.0 0
129387.0 462722.0 0
133092.0 462456.0 0
131372.0 466601.0 0
136402.0 465566.0 0
141264.0 466378.0 0
144682.0 462806.0 0
145929.0 466808.0 0
148340.0 463780.0 0
151150.0 461947.0 0
151294.0 466754.0 0
154373.0 463230.0 0
156891.0 466108.0 0
161793.0 464729.0 0
166368.0 464375.0 0
168735.0 466415.0 0
170464.0 462549.0 0
174895.0 464042.0 0
179615.0 465049.0 0
184170.0 462164.0 0
187176.0 464619.0 0
190836.0 464138.0 0
195143.0 463121.0 0
199023.0 466428.0 0
202826.0 462967.0 0
207566.0 464122.0 0
212255.0 464360.0 0
217229.0 464583.0 0
221061.0 462530.0 0
221583.0 465746.0 0
225329.0 463030.0 0
228929.0 464159.0 0
232862.0 465103.0 0
237667.0 462745.0 0
241771.0 464232.0 0
248027.0 464920.0 0
253856.0 463957.0 0
258921.0 465690.0 0
263168.0 463845.0 0
268475.0 464757.0 0
273364.0 466777.0 0
276173.0 462695.0 0
281425.0 465056.0 0
285330.0 462491.0 0
289138.0 464840.0 0
293452.0 462681.0 0
293385.0 466462.0 0
297662.0 466381.0 0
302904.0 464541.0 0
307612.0 465329.0 0
312342.0 462551.0 0
314816.0 465594.0 0
317292.0 462633.0 0
319654.0 466360.0 0
322005.0 462469.0 0
326485.0 462846.0 0
328774.0 466189.0 0
331413.0 463149.0 0
336075.0 464934.0 0
339989.0 466784.0 0
340931.0 462109.0 0
344160.0 467153.0 0
345340.0 463805.0 0
349111.0 463172.0 0
355270.0 463830.0 0
352778.0 465740.0 0
358728.0 462679.0 0
362529.0 465782.0 0
366846.0 463670.0 0
375148.0 463893.0 0
371118.0 463171.0 0
379290.0 465615.0 0
381858.0 462988.0 0
382801.0 465946.0 0
385344.0 463909.0 0
389899.0 465797.0 0
393446.0 463598.0 0
394811.0 467468.0 0
398071.0 465267.0 0
401349.0 463163.0 0
404681.0 463192.0 0
402231.0 466983.0 0
404591.0 465324.0 0
407832.0 465261.0 0
410878.0 464970.0 0
413543.0 464975.0 0
412461.0 467713.0 0
415846.0 466817.0 0
417962.0 465123.0 0
421191.0 464758.0 0
426471.0 465501.0 0
423481.0 467314.0 0
429453.0 463544.0 0
429647.0 467419.0 0
436418.0 464108.0 0
432655.0 466015.0 0
436126.0 467955.0 0
440440.0 466407.0 0
444488.0 468155.0 0
46172.6 472796.0 0
50022.5 472281.0 0
52709.7 469489.0 0
56149.2 468296.0 0
54331.6 472497.0 0
61719.1 469683.0 0
58308.5 471624.0 0
65718.6 471530.0 0
69933.0 471615.0 0
73067.9 469601.0 0
75759.0 471979.0 0
80155.5 469916.0 0
83909.5 470712.0 0
88266.5 469929.0 0
91817.8 468913.0 0
91003.8 472746.0 0
95832.9 468056.0 0
95329.1 472039.0 0
99280.7 469887.0 0
103243.0 471668.0 0
106876.0 468873.0 0
107749.0 471892.0 0
110243.0 468504.0 0
111231.0 471530.0 0
114467.0 467654.0 0
118469.0 467986.0 0
114077.0 471062.0 0
117507.0 471937.0 0
122164.0 470135.0 0
126480.0 470212.0 0
129280.0 469329.0 0
133343.0 470753.0 0
138036.0 469463.0 0
142026.0 470870.0 0
147222.0 470783.0 0
151751.0 472032.0 0
155140.0 469403.0 0
160181.0 470546.0 0
164966.0 468514.0 0
169016.0 470603.0 0
172186.0 467426.0 0
173025.0 471843.0 0
176208.0 468585.0 0
176250.0 472223.0 0
180198.0 469525.0 0
183920.0 466979.0 0
188853.0 468875.0 0
193810.0 467602.0 0
196693.0 471002.0 0
204342.0 467754.0 0
201282.0 471391.0 0
209220.0 468651.0 0
214251.0 468959.0 0
219120.0 469034.0 0
223651.0 468735.0 0
227987.0 467720.0 0
231699.0 470077.0 0
237879.0 467762.0 0
244061.0 469471.0 0
251187.0 468943.0 0
255714.0 468946.0 0
259853.0 469964.0 0
264341.0 468645.0 0
269337.0 470697.0 0
274305.0 471198.0 0
278266.0 468786.0 0
283045.0 469083.0 0
286176.0 467296.0 0
289954.0 469757.0 0
295569.0 471154.0 0
301208.0 469773.0 0
306306.0 468714.0 0
311177.0 467599.0 0
313579.0 471471.0 0
316348.0 468709.0 0
320844.0 470828.0 0
324390.0 467438.0 0
328203.0 469590.0 0
332510.0 468407.0 0
337233.0 469663.0 0
341413.0 470578.0 0
346056.0 471828.0 0
348802.0 467799.0 0
350181.0 471882.0 0
353484.0 469833.0 0
357719.0 467671.0 0
357099.0 472089.0 0
360916.0 472190.0 0
361258.0 469007.0 0
364348.0 469929.0 0
366867.0 467649.0 0
370972.0 467451.0 0
368627.0 471083.0 0
375205.0 468277.0 0
372717.0 472249.0 0
376843.0 471855.0 0
379238.0 469360.0 0
386170.0 467534.0 0
382684.0 469034.0 0
386134.0 471874.0 0
389033.0 469320.0 0
390616.0 471957.0 0
391799.0 468916.0 0
395393.0 471973.0 0
399431.0 469084.0 0
405485.0 468342.0 0
403239.0 470915.0 0
409480.0 468245.0 0
407718.0 471997.0 0
411443.0 471247.0 0
415455.0 470990.0 0
419287.0 468402.0 0
419811.0 472443.0 0
423119.0 470539.0 0
426686.0 469034.0 0
430993.0 470543.0 0
427999.0 471791.0 0
433899.0 469090.0 0
435381.0 471741.0 0
438301.0 468945.0 0
437715.0 471037.0 0
441861.0 470446.0 0
445973.0 471912.0 0
447884.0 469270.0 0
450279.0 471717.0 0
40535.0 477760.0 0
43945.1 475729.0 0
47875.3 476020.0 0
52112.6 475175.0 0
57055.0 474436.0 0
54558.1 476459.0 0
62170.0 474491.0 0
58862.9 477199.0 0
66254.7 474611.0 0
65644.2 477935.0 0
68884.8 475362.0 0
72671.8 474266.0 0
75445.2 476262.0 0
79288.2 473914.0 0
78424.4 477851.0 0
81441.5 477383.0 0
82953.0 474180.0 0
87027.7 473391.0 0
84948.1 476872.0 0
89348.8 476864.0 0
93026.7 475005.0 0
96770.7 476281.0 0
99066.6 473123.0 0
101438.0 475880.0 0
105956.0 475505.0 0
109569.0 474703.0 0
113408.0 474846.0 0
117447.0 476282.0 0
120494.0 474186.0 0
125017.0 474468.0 0
129233.0 472168.0 0
130502.0 476556.0 0
134473.0 474496.0 0
137667.0 473096.0 0
140099.0 475245.0 0
143906.0 475008.0 0
147961.0 474935.0 0
154163.0 475029.0 0
156022.0 472515.0 0
158015.0 475742.0 0
162270.0 475160.0 0
165305.0 473006.0 0
169740.0 475885.0 0
175147.0 476187.0 0
179321.0 473735.0 0
184024.0 472261.0 0
188872.0 474509.0 0
192831.0 472272.0 0
195010.0 475040.0 0
198079.0 474577.0 0
202392.0 476575.0 0
205998.0 472320.0 0
207786.0 476765.0 0
211145.0 473187.0 0
216872.0 474207.0 0
221662.0 472020.0 0
222086.0 475848.0 0
226085.0 472675.0 0
230639.0 474595.0 0
235388.0 472680.0 0
239547.0 471819.0 0
239631.0 475925.0 0
248622.0 472607.0 0
245031.0 475683.0 0
249924.0 476667.0 0
252701.0 473354.0 0
257077.0 473329.0 0
263218.0 475255.0 0
268702.0 475376.0 0
272234.0 474862.0 0
277050.0 475104.0 0
280849.0 472446.0 0
285725.0 473359.0 0
291371.0 475251.0 0
295849.0 476222.0 0
299900.0 474709.0 0
305160.0 473421.0 0
309833.0 472676.0 0
312913.0 475949.0 0
317296.0 474007.0 0
321953.0 476852.0 0
325683.0 473290.0 0
329982.0 472464.0 0
334418.0 473530.0 0
338797.0 473747.0 0
340884.0 477293.0 0
342605.0 474010.0 0
345048.0 476277.0 0
349252.0 475443.0 0
353843.0 474750.0 0
358543.0 475579.0 0
362892.0 476487.0 0
365723.0 473730.0 0
369395.0 474791.0 0
370087.0 477219.0 0
372654.0 476002.0 0
377036.0 475656.0 0
381475.0 473287.0 0
385035.0 475591.0 0
388766.0 475379.0 0
392990.0 475388.0 0
400114.0 473856.0 0
404462.0 474946.0 0
408631.0 476168.0 0
412743.0 475090.0 0
417077.0 475716.0 0
425048.0 473423.0 0
422005.0 476022.0 0
426258.0 476940.0 0
429265.0 475191.0 0
432610.0 474038.0 0
436782.0 475196.0 0
433442.0 477993.0 0
440229.0 473361.0 0
441086.0 476568.0 0
443681.0 474039.0 0
444109.0 476562.0 0
447123.0 475841.0 0
449448.0 474472.0 0
451450.0 476328.0 0
449929.0 478572.0 0
453532.0 473809.0 0
456933.0 475587.0 0
454534.0 477683.0 0
459914.0 477899.0 0
36895.0 479353.0 0
34254.1 482059.0 0
37124.6 483693.0 0
40245.6 481592.0 0
44130.0 479458.0 0
47050.0 480070.0 0
44292.5 482903.0 0
51120.2 479061.0 0
55862.2 479953.0 0
52998.5 482723.0 0
61966.0 478899.0 0
59288.5 480461.0 0
62425.2 483072.0 0
67123.2 481661.0 0
71340.0 478927.0 0
75798.2 480039.0 0
74001.0 482766.0 0
82537.3 479990.0 0
79547.2 480810.0 0
86298.5 480851.0 0
92947.4 478165.0 0
90646.3 481792.0 0
95421.6 481009.0 0
99276.4 479529.0 0
101695.0 482237.0 0
103990.0 478679.0 0
106212.0 481500.0 0
109424.0 478702.0 0
112757.0 481685.0 0
114057.0 478478.0 0
117348.0 480937.0 0
121082.0 477833.0 0
122091.0 482059.0 0
125551.0 479254.0 0
128812.0 480867.0 0
132326.0 481458.0 0
136387.0 478312.0 0
139142.0 481785.0 0
141474.0 478988.0 0
146115.0 479483.0 0
150952.0 477196.0 0
149916.0 481870.0 0
153218.0 480171.0 0
154789.0 477471.0 0
156657.0 480307.0 0
160877.0 479835.0 0
165238.0 478348.0 0
168466.0 480925.0 0
172548.0 480354.0 0
176620.0 480277.0 0
180598.0 478205.0 0
184808.0 476914.0 0
187916.0 478740.0 0
184687.0 481117.0 0
192469.0 478264.0 0
197243.0 478500.0 0
205265.0 480808.0 0
209243.0 481124.0 0
212539.0 478076.0 0
217153.0 480232.0 0
221932.0 480046.0 0
226137.0 477874.0 0
230178.0 479260.0 0
234565.0 477976.0 0
238171.0 480384.0 0
242431.0 480372.0 0
247295.0 480373.0 0
254975.0 478278.0 0
251271.0 481151.0 0
259600.0 479780.0 0
268956.0 479848.0 0
273567.0 478808.0 0
277729.0 480433.0 0
281761.0 477217.0 0
287204.0 479523.0 0
293868.0 480392.0 0
298617.0 479319.0 0
303570.0 478292.0 0
301610.0 481991.0 0
308716.0 477870.0 0
312788.0 479809.0 0
316648.0 478748.0 0
320343.0 480972.0 0
324907.0 480908.0 0
325976.0 477572.0 0
329183.0 481829.0 0
330384.0 477428.0 0
336332.0 477885.0 0
339522.0 481652.0 0
344057.0 480249.0 0
347573.0 478704.0 0
351711.0 479513.0 0
356113.0 478962.0 0
358746.0 481669.0 0
360481.0 479351.0 0
364384.0 480789.0 0
366991.0 477576.0 0
368269.0 481625.0 0
369201.0 478788.0 0
372594.0 480636.0 0
374976.0 477980.0 0
377507.0 480301.0 0
381749.0 478527.0 0
384592.0 482523.0 0
386926.0 479297.0 0
391961.0 479391.0 0
395523.0 482493.0 0
396998.0 477832.0 0
399716.0 482180.0 0
401703.0 478482.0 0
405994.0 479471.0 0
403104.0 481833.0 0
405013.0 482721.0 0
415939.0 480237.0 0
411374.0 480002.0 0
419915.0 479094.0 0
420525.0 482097.0 0
424582.0 480825.0 0
429492.0 479065.0 0
428091.0 482869.0 0
431852.0 482147.0 0
435797.0 481676.0 0
438306.0 478608.0 0
442295.0 479488.0 0
439988.0 482124.0 0
446478.0 479570.0 0
443768.0 482639.0 0
449761.0 482110.0 0
453112.0 480725.0 0
457311.0 479270.0 0
456909.0 482730.0 0
460549.0 481641.0 0
463386.0 480039.0 0
466737.0 481652.0 0
469477.0 483645.0 0
25199.7 487469.0 0
30564.8 483289.0 0
27962.0 485125.0 0
32463.4 486429.0 0
36528.8 487220.0 0
39867.0 485717.0 0
41953.3 484679.0 0
40233.3 488534.0 0
43984.4 487176.0 0
48415.1 484056.0 0
48368.1 488319.0 0
57515.6 483722.0 0
53700.3 487849.0 0
59167.2 487462.0 0
66825.9 485431.0 0
63726.3 487510.0 0
70603.7 484126.0 0
69016.2 488554.0 0
77159.5 483693.0 0
73945.3 487074.0 0
82254.0 484293.0 0
78934.9 487556.0 0
86600.0 485445.0 0
90151.7 485608.0 0
93730.5 484589.0 0
97657.3 484147.0 0
98367.5 487501.0 0
100374.0 485792.0 0
104371.0 485213.0 0
109524.0 484349.0 0
114509.0 484983.0 0
119002.0 485261.0 0
123454.0 486059.0 0
126169.0 483417.0 0
127931.0 487343.0 0
129485.0 483956.0 0
132331.0 485969.0 0
135681.0 483441.0 0
138841.0 484645.0 0
142633.0 483236.0 0
140876.0 487526.0 0
146718.0 484114.0 0
150105.0 485974.0 0
153767.0 483970.0 0
158227.0 484537.0 0
164119.0 484558.0 0
170330.0 485156.0 0
175136.0 484327.0 0
180312.0 483610.0 0
189242.0 482410.0 0
185415.0 485893.0 0
190172.0 486328.0 0
194912.0 483825.0 0
200652.0 481985.0 0
200390.0 486171.0 0
204756.0 485545.0 0
209466.0 484932.0 0
212791.0 482407.0 0
215660.0 484779.0 0
220227.0 484281.0 0
225700.0 483589.0 0
231253.0 483516.0 0
235325.0 482612.0 0
239326.0 484810.0 0
244323.0 484801.0 0
249265.0 485289.0 0
254518.0 484052.0 0
258934.0 483568.0 0
263822.0 482262.0 0
261347.0 486468.0 0
268202.0 484185.0 0
273142.0 483320.0 0
278268.0 486187.0 0
282364.0 482192.0 0
283574.0 486211.0 0
287760.0 486114.0 0
290346.0 483031.0 0
292995.0 485883.0 0
297867.0 484393.0 0
302367.0 485312.0 0
304821.0 486564.0 0
305918.0 482918.0 0
310429.0 482948.0 0
312018.0 486649.0 0
315859.0 483920.0 0
322088.0 486202.0 0
327005.0 484769.0 0
330766.0 485664.0 0
334106.0 482262.0 0
334166.0 486841.0 0
338226.0 486321.0 0
343734.0 485302.0 0
347990.0 482383.0 0
349045.0 486490.0 0
351918.0 483716.0 0
355962.0 483634.0 0
358309.0 487613.0 0
361307.0 484089.0 0
366533.0 485875.0 0
371612.0 485423.0 0
376031.0 484418.0 0
380634.0 483677.0 0
378343.0 487415.0 0
385480.0 485132.0 0
389865.0 484096.0 0
394884.0 486943.0 0
399555.0 486225.0 0
403402.0 485182.0 0
408724.0 484142.0 0
413986.0 485204.0 0
418398.0 484309.0 0
417541.0 487536.0 0
420651.0 487042.0 0
422850.0 484744.0 0
424072.0 488301.0 0
426294.0 485775.0 0
430448.0 486087.0 0
434431.0 485572.0 0
438032.0 484602.0 0
437321.0 488132.0 0
441514.0 486161.0 0
445614.0 485917.0 0
447259.0 483300.0 0
452403.0 484582.0 0
449241.0 486255.0 0
452405.0 488331.0 0
455769.0 486763.0 0
459160.0 486261.0 0
460739.0 484680.0 0
461676.0 487803.0 0
464514.0 484570.0 0
472499.0 485284.0 0
467781.0 487440.0 0
471060.0 487744.0 0
475349.0 487085.0 0
14954.0 493724.0 0
18102.5 491492.0 0
21060.2 493155.0 0
21617.9 489351.0 0
25318.3 491494.0 0
29341.4 489505.0 0
33602.4 490157.0 0
32484.1 493181.0 0
37033.1 491134.0 0
41127.3 491786.0 0
45493.4 490738.0 0
50083.9 493053.0 0
56678.9 492537.0 0
60540.5 490222.0 0
65033.4 491428.0 0
72280.1 491013.0 0
75905.2 491188.0 0
80096.0 491433.0 0
83914.8 489269.0 0
88436.0 489141.0 0
92132.2 487813.0 0
92385.7 491879.0 0
95455.6 487715.0 0
97308.7 490779.0 0
101165.0 488776.0 0
106184.0 489294.0 0
111612.0 488481.0 0
109579.0 491511.0 0
113426.0 491378.0 0
116527.0 489062.0 0
120574.0 488374.0 0
120166.0 491786.0 0
124041.0 490007.0 0
127979.0 491888.0 0
131509.0 489616.0 0
134913.0 492133.0 0
136227.0 487864.0 0
139386.0 491545.0 0
143368.0 490934.0 0
144854.0 487208.0 0
148513.0 490788.0 0
153894.0 488342.0 0
159250.0 489954.0 0
163901.0 489756.0 0
167189.0 488699.0 0
171240.0 490844.0 0
176447.0 489151.0 0
180977.0 488283.0 0
184333.0 491288.0 0
188306.0 489463.0 0
193231.0 490446.0 0
197692.0 488409.0 0
201931.0 490687.0 0
207922.0 488183.0 0
212499.0 488842.0 0
218134.0 488699.0 0
222747.0 488035.0 0
229036.0 487978.0 0
225694.0 490941.0 0
234510.0 487973.0 0
238555.0 491208.0 0
242326.0 488920.0 0
247442.0 491013.0 0
253175.0 489300.0 0
257672.0 487605.0 0
261322.0 491292.0 0
265518.0 487543.0 0
270610.0 487717.0 0
274626.0 490168.0 0
285148.0 490588.0 0
290848.0 490608.0 0
296527.0 489862.0 0
302174.0 489600.0 0
308243.0 487370.0 0
306964.0 491945.0 0
311986.0 491062.0 0
314417.0 488152.0 0
317306.0 489086.0 0
325182.0 490947.0 0
320776.0 492025.0 0
328034.0 488514.0 0
331699.0 489516.0 0
335977.0 490879.0 0
341824.0 490915.0 0
346364.0 489434.0 0
350364.0 490712.0 0
353791.0 487889.0 0
359783.0 490404.0 0
356774.0 492466.0 0
362330.0 488564.0 0
366296.0 491641.0 0
370972.0 489883.0 0
375077.0 488555.0 0
378515.0 491439.0 0
382647.0 488490.0 0
387422.0 488154.0 0
386540.0 492063.0 0
391144.0 490007.0 0
395105.0 491722.0 0
398231.0 489660.0 0
406741.0 487964.0 0
402913.0 490194.0 0
411179.0 488694.0 0
408190.0 491307.0 0
412462.0 492567.0 0
415257.0 489792.0 0
420027.0 490674.0 0
424860.0 492131.0 0
428567.0 489724.0 0
429043.0 493525.0 0
432231.0 493167.0 0
433308.0 489650.0 0
437565.0 492879.0 0
441270.0 490176.0 0
445620.0 489532.0 0
443295.0 493131.0 0
447249.0 493054.0 0
449741.0 490023.0 0
450905.0 493173.0 0
454585.0 491509.0 0
458828.0 490105.0 0
462418.0 492983.0 0
464443.0 489149.0 0
466823.0 492146.0 0
470002.0 491417.0 0
473973.0 490066.0 0
476759.0 492886.0 0
478368.0 489254.0 0
481624.0 491986.0 0
485969.0 494311.0 0
5122.44 498808.0 0
8764.31 497652.0 0
11538.7 495187.0 0
13357.4 497808.0 0
17592.7 496286.0 0
21040.6 496154.0 0
24150.2 494543.0 0
26313.6 496182.0 0
23264.1 497911.0 0
28604.5 493809.0 0
28545.8 497348.0 0
31835.9 497310.0 0
36589.3 495213.0 0
41061.2 495697.0 0
44702.9 493884.0 0
45589.4 496956.0 0
49673.0 497587.0 0
53682.2 496126.0 0
61168.8 493711.0 0
56650.1 496524.0 0
60198.9 497364.0 0
64642.4 495657.0 0
69164.1 493711.0 0
67304.8 497253.0 0
71122.5 497682.0 0
73771.2 494724.0 0
82803.3 494332.0 0
77871.0 495126.0 0
80686.7 498426.0 0
87130.5 493305.0 0
85250.4 497653.0 0
90102.3 496744.0 0
96041.3 496259.0 0
101219.0 492927.0 0
101521.0 497197.0 0
106020.0 494560.0 0
111332.0 494264.0 0
116062.0 493945.0 0
117291.0 497942.0 0
119889.0 495536.0 0
124013.0 494860.0 0
128478.0 496165.0 0
131251.0 493193.0 0
133129.0 497104.0 0
138288.0 495678.0 0
144081.0 495873.0 0
149680.0 496172.0 0
153879.0 493286.0 0
157920.0 495248.0 0
162141.0 494396.0 0
165256.0 497148.0 0
166146.0 492759.0 0
169425.0 495653.0 0
175215.0 494096.0 0
179694.0 493169.0 0
183889.0 497086.0 0
188627.0 493884.0 0
192951.0 496227.0 0
197610.0 493969.0 0
202272.0 496815.0 0
207513.0 492935.0 0
215877.0 493869.0 0
221348.0 492537.0 0
225404.0 495708.0 0
230294.0 493207.0 0
235038.0 493076.0 0
238048.0 495027.0 0
242353.0 494147.0 0
252027.0 494590.0 0
256505.0 492956.0 0
262429.0 496749.0 0
267318.0 493192.0 0
272502.0 493583.0 0
279474.0 492944.0 0
275309.0 496156.0 0
284215.0 495261.0 0
288864.0 495974.0 0
294957.0 495797.0 0
299413.0 493453.0 0
303070.0 494506.0 0
309891.0 494680.0 0
306722.0 496700.0 0
313603.0 495839.0 0
316432.0 492785.0 0
324819.0 495589.0 0
329206.0 492868.0 0
328942.0 497293.0 0
333809.0 496141.0 0
338990.0 494944.0 0
342736.0 497308.0 0
346884.0 494516.0 0
352358.0 494345.0 0
355505.0 497391.0 0
360109.0 497076.0 0
361730.0 493059.0 0
365183.0 496804.0 0
370452.0 495651.0 0
374723.0 492706.0 0
374785.0 496209.0 0
378418.0 496216.0 0
382680.0 493748.0 0
389497.0 493107.0 0
387976.0 496722.0 0
392246.0 494340.0 0
395741.0 495712.0 0
398914.0 493116.0 0
399564.0 497224.0 0
402238.0 494495.0 0
403788.0 497824.0 0
405807.0 494274.0 0
409599.0 494615.0 0
416695.0 494225.0 0
412897.0 497138.0 0
418783.0 498423.0 0
421596.0 495305.0 0
426754.0 495990.0 0
430572.0 496402.0 0
434396.0 496639.0 0
438533.0 497192.0 0
441635.0 495966.0 0
445775.0 495768.0 0
449343.0 496190.0 0
453911.0 495988.0 0
458233.0 495192.0 0
461866.0 498004.0 0
465315.0 496210.0 0
468739.0 495624.0 0
472639.0 494463.0 0
471625.0 498903.0 0
475712.0 496927.0 0
479022.0 495249.0 0
482947.0 496423.0 0
487542.0 497628.0 0
489685.0 495722.0 0
492364.0 498651.0 0
2080.12 499995.0 0
7561.52 501715.0 0
15822.0 500653.0 0
11740.9 501008.0 0
14606.4 504658.0 0
19824.5 499528.0 0
19017.0 503182.0 0
22994.8 501610.0 0
26058.2 499334.0 0
26556.6 502487.0 0
28905.7 500058.0 0
31471.3 502511.0 0
34845.2 499356.0 0
35860.9 503205.0 0
38491.4 499240.0 0
40827.8 502684.0 0
41996.1 498784.0 0
44063.0 500538.0 0
46878.2 500289.0 0
49744.1 501646.0 0
52862.0 499331.0 0
56468.8 500011.0 0
53514.9 502894.0 0
60282.2 501782.0 0
63942.6 499141.0 0
63955.4 502808.0 0
67582.9 500352.0 0
71528.1 501682.0 0
75707.1 499123.0 0
78873.2 502221.0 0
83085.8 501544.0 0
87970.4 501450.0 0
92794.1 500234.0 0
95808.2 502455.0 0
98779.1 500346.0 0
102342.0 500880.0 0
104734.0 498806.0 0
108944.0 498770.0 0
111705.0 502798.0 0
113638.0 498275.0 0
116206.0 501856.0 0
121042.0 499981.0 0
125650.0 498910.0 0
129260.0 500779.0 0
136951.0 499609.0 0
133860.0 502546.0 0
140460.0 499327.0 0
142891.0 501661.0 0
147857.0 501535.0 0
154071.0 499086.0 0
160469.0 499669.0 0
168400.0 500170.0 0
173184.0 498407.0 0
178281.0 498049.0 0
188886.0 498058.0 0
186888.0 501755.0 0
191778.0 501049.0 0
197014.0 498974.0 0
200165.0 501911.0 0
207020.0 498207.0 0
211378.0 497167.0 0
209852.0 501657.0 0
215098.0 500341.0 0
220153.0 498169.0 0
229659.0 498492.0 0
225182.0 501171.0 0
234567.0 497641.0 0
236248.0 501457.0 0
239922.0 499171.0 0
244400.0 501557.0 0
247155.0 497192.0 0
248758.0 501979.0 0
252579.0 499454.0 0
257416.0 497723.0 0
260064.0 500824.0 0
266627.0 498739.0 0
271131.0 497722.0 0
275693.0 501260.0 0
281401.0 498951.0 0
286560.0 500804.0 0
292013.0 500858.0 0
299894.0 497178.0 0
297763.0 500923.0 0
303098.0 498354.0 0
301948.0 501569.0 0
305572.0 500843.0 0
310284.0 500006.0 0
315027.0 500209.0 0
319288.0 497345.0 0
321971.0 501563.0 0
326051.0 501011.0 0
331108.0 501068.0 0
335286.0 500970.0 0
338822.0 499281.0 0
342620.0 502112.0 0
346537.0 499755.0 0
350872.0 498232.0 0
353989.0 500915.0 0
358102.0 501423.0 0
363375.0 501467.0 0
368880.0 501189.0 0
374196.0 499990.0 0
379143.0 501621.0 0
383079.0 498273.0 0
384521.0 502479.0 0
389746.0 502445.0 0
392809.0 498269.0 0
394218.0 501374.0 0
396872.0 502636.0 0
396533.0 499388.0 0
400539.0 501414.0 0
405379.0 502087.0 0
408563.0 498458.0 0
416180.0 497779.0 0
415249.0 500703.0 0
419137.0 502434.0 0
423939.0 500218.0 0
432176.0 499837.0 0
428832.0 499233.0 0
433668.0 503680.0 0
437222.0 500832.0 0
441392.0 499853.0 0
444300.0 498368.0 0
445163.0 501696.0 0
447606.0 499043.0 0
451858.0 499670.0 0
448867.0 502442.0 0
457273.0 500269.0 0
462072.0 502013.0 0
466807.0 500687.0 0
472182.0 504079.0 0
475649.0 501051.0 0
479144.0 498695.0 0
479616.0 502538.0 0
484145.0 500810.0 0
488877.0 500513.0 0
494322.0 502330.0 0
491518.0 503180.0 0
497102.0 500033.0 0
497437.0 503759.0 0
3435.08 503639.0 0
10330.3 504076.0 0
7308.82 506205.0 0
11209.5 507581.0 0
18259.4 506639.0 0
22820.9 505762.0 0
28231.9 506252.0 0
33042.3 507423.0 0
38053.5 506751.0 0
45503.1 503757.0 0
42164.4 506279.0 0
45317.7 507831.0 0
49810.9 505575.0 0
54067.5 505774.0 0
56804.8 507892.0 0
57057.7 504040.0 0
60772.0 506138.0 0
64679.2 505928.0 0
67517.4 503877.0 0
67227.8 507425.0 0
70827.0 505869.0 0
75156.7 503769.0 0
74051.7 508314.0 0
81260.0 504937.0 0
78192.9 506597.0 0
84603.1 505637.0 0
88430.2 506152.0 0
92151.4 504235.0 0
91470.6 507658.0 0
95638.2 506732.0 0
100275.0 504919.0 0
106215.0 503532.0 0
110010.0 507134.0 0
114506.0 506067.0 0
119162.0 504790.0 0
124829.0 503878.0 0
129696.0 506090.0 0
134654.0 507110.0 0
138861.0 503469.0 0
143280.0 505467.0 0
151786.0 505083.0 0
156277.0 504452.0 0
161042.0 504909.0 0
164843.0 502767.0 0
168630.0 504762.0 0
171772.0 502540.0 0
172777.0 506449.0 0
176002.0 502681.0 0
181402.0 502837.0 0
185196.0 505663.0 0
189930.0 506378.0 0
195941.0 504675.0 0
200933.0 505873.0 0
204832.0 502568.0 0
208676.0 505582.0 0
213067.0 504885.0 0
218530.0 504276.0 0
223363.0 506010.0 0
228631.0 505765.0 0
232549.0 502307.0 0
236076.0 504747.0 0
240731.0 504671.0 0
246127.0 506452.0 0
251602.0 505551.0 0
256355.0 502937.0 0
260013.0 504901.0 0
263832.0 502924.0 0
269646.0 502759.0 0
273304.0 506345.0 0
277716.0 506260.0 0
280421.0 503459.0 0
284119.0 504834.0 0
281252.0 507027.0 0
289240.0 505873.0 0
295181.0 505701.0 0
300199.0 504924.0 0
307635.0 505336.0 0
313554.0 504763.0 0
318498.0 503106.0 0
323084.0 505822.0 0
329113.0 506372.0 0
334217.0 504670.0 0
338508.0 503880.0 0
343718.0 506985.0 0
346386.0 503996.0 0
350262.0 502789.0 0
354732.0 505637.0 0
360646.0 506140.0 0
366540.0 506582.0 0
372275.0 503203.0 0
371594.0 506282.0 0
375308.0 504548.0 0
381985.0 506257.0 0
386449.0 506196.0 0
394419.0 505187.0 0
399063.0 505981.0 0
402574.0 505233.0 0
406153.0 506218.0 0
411035.0 503579.0 0
415673.0 504572.0 0
419181.0 507204.0 0
423401.0 505067.0 0
426279.0 507036.0 0
428925.0 504037.0 0
433736.0 508103.0 0
437784.0 505348.0 0
437530.0 508197.0 0
441904.0 503940.0 0
440910.0 508179.0 0
446281.0 504984.0 0
444377.0 507451.0 0
449675.0 505541.0 0
451554.0 508262.0 0
453252.0 503778.0 0
454881.0 506690.0 0
458804.0 505301.0 0
468186.0 504899.0 0
464230.0 505738.0 0
467717.0 507673.0 0
470741.0 507887.0 0
477109.0 505687.0 0
474645.0 509140.0 0
482150.0 505881.0 0
487252.0 504717.0 0
494267.0 505537.0 0
490900.0 507241.0 0
494299.0 508222.0 0
497646.0 507348.0 0
3124.93 508503.0 0
2113.27 512320.0 0
7521.9 510044.0 0
5296.05 513099.0 0
12196.2 512017.0 0
15710.6 509242.0 0
20225.1 510632.0 0
16524.9 513551.0 0
24702.0 509491.0 0
20320.9 515178.0 0
24511.7 513244.0 0
28891.4 510998.0 0
36247.4 510251.0 0
32909.9 512399.0 0
41115.2 510525.0 0
45588.0 512193.0 0
48631.3 509435.0 0
50216.5 512691.0 0
52574.9 508874.0 0
55265.4 512100.0 0
59740.2 510282.0 0
64023.1 509489.0 0
62343.8 512674.0 0
66079.8 513328.0 0
69453.6 510246.0 0
73085.5 511826.0 0
77671.3 511624.0 0
81636.4 508719.0 0
85716.2 509925.0 0
89188.1 508621.0 0
90587.7 511927.0 0
93167.1 508982.0 0
95503.7 510940.0 0
99498.2 509839.0 0
102041.0 512969.0 0
104711.0 508950.0 0
108854.0 510697.0 0
112915.0 510517.0 0
117327.0 508934.0 0
116233.0 512362.0 0
120052.0 511977.0 0
122192.0 508216.0 0
126539.0 510702.0 0
131659.0 510686.0 0
135569.0 510992.0 0
139199.0 508340.0 0
143237.0 509848.0 0
147897.0 507992.0 0
153659.0 509485.0 0
159098.0 509305.0 0
162664.0 512492.0 0
164754.0 508061.0 0
167845.0 512479.0 0
169531.0 508665.0 0
172969.0 511583.0 0
177825.0 508115.0 0
182533.0 507621.0 0
182041.0 511602.0 0
185590.0 509380.0 0
189179.0 512108.0 0
194205.0 510162.0 0
199346.0 510355.0 0
204913.0 509134.0 0
210762.0 509981.0 0
215828.0 508913.0 0
220769.0 510768.0 0
225653.0 509643.0 0
229106.0 511967.0 0
233342.0 508704.0 0
237928.0 508106.0 0
237253.0 511965.0 0
242012.0 510611.0 0
249795.0 509791.0 0
256247.0 509206.0 0
262269.0 508220.0 0
267168.0 507319.0 0
271156.0 511271.0 0
276349.0 510241.0 0
280096.0 509804.0 0
284825.0 510256.0 0
295246.0 510527.0 0
290694.0 510921.0 0
298943.0 509111.0 0
303198.0 507995.0 0
301883.0 511702.0 0
309051.0 509784.0 0
305773.0 511892.0 0
313578.0 510322.0 0
318251.0 507787.0 0
317642.0 512433.0 0
322006.0 511360.0 0
326521.0 510753.0 0
334840.0 509677.0 0
339357.0 507788.0 0
345687.0 511466.0 0
341608.0 510713.0 0
349138.0 507838.0 0
353455.0 510346.0 0
357463.0 509698.0 0
361823.0 511324.0 0
366763.0 512295.0 0
370262.0 509853.0 0
373789.0 509822.0 0
377451.0 508159.0 0
381320.0 510893.0 0
385522.0 509522.0 0
384420.0 512745.0 0
390604.0 508637.0 0
388161.0 512718.0 0
396397.0 509748.0 0
403033.0 510456.0 0
409142.0 509013.0 0
407930.0 512530.0 0
411317.0 512174.0 0
414257.0 508785.0 0
418476.0 511579.0 0
423794.0 509942.0 0
429174.0 509606.0 0
433071.0 512792.0 0
438275.0 511817.0 0
447714.0 508541.0 0
444420.0 512219.0 0
449831.0 512000.0 0
455977.0 511477.0 0
461343.0 509086.0 0
465838.0 511108.0 0
470482.0 511457.0 0
473890.0 513167.0 0
477409.0 512755.0 0
479860.0 509594.0 0
485730.0 509625.0 0
491626.0 511238.0 0
496867.0 511320.0 0
2115.52 515601.0 0
8431.99 513751.0 0
6542.62 517041.0 0
12109.8 517239.0 0
17208.9 517416.0 0
23871.5 517016.0 0
28518.1 515803.0 0
33773.6 516776.0 0
37707.5 513927.0 0
38691.1 518203.0 0
42186.6 515162.0 0
46953.0 516483.0 0
51970.5 515982.0 0
55792.6 516075.0 0
59228.1 514130.0 0
59013.8 518515.0 0
62807.6 516303.0 0
67111.8 518456.0 0
70405.2 514479.0 0
74584.1 514839.0 0
78145.4 517438.0 0
82135.1 513535.0 0
86595.7 514455.0 0
90263.3 517771.0 0
94411.7 514723.0 0
98421.4 513903.0 0
101498.0 517581.0 0
105674.0 513721.0 0
106942.0 517797.0 0
109757.0 513902.0 0
111008.0 517068.0 0
113697.0 514614.0 0
118317.0 516185.0 0
123345.0 514385.0 0
126595.0 516253.0 0
129537.0 514300.0 0
134031.0 515036.0 0
136729.0 516456.0 0
139138.0 513813.0 0
144314.0 513937.0 0
149427.0 513322.0 0
153392.0 513474.0 0
152837.0 517606.0 0
156870.0 513759.0 0
160925.0 516173.0 0
166491.0 516439.0 0
170850.0 516058.0 0
177763.0 513807.0 0
174968.0 517162.0 0
181946.0 516237.0 0
185188.0 513831.0 0
193326.0 515159.0 0
198035.0 515022.0 0
203499.0 515483.0 0
209362.0 515222.0 0
214749.0 514001.0 0
219305.0 515644.0 0
224777.0 515088.0 0
229102.0 516015.0 0
233356.0 513908.0 0
241595.0 514674.0 0
246496.0 514063.0 0
252133.0 514101.0 0
256980.0 514714.0 0
260605.0 512757.0 0
265462.0 512674.0 0
272053.0 515990.0 0
275390.0 514434.0 0
279377.0 513303.0 0
278835.0 517159.0 0
283282.0 515820.0 0
288085.0 514733.0 0
293209.0 515321.0 0
298361.0 513975.0 0
303075.0 515580.0 0
309982.0 513844.0 0
314675.0 515930.0 0
319577.0 515884.0 0
322860.0 515326.0 0
325756.0 514678.0 0
330443.0 513593.0 0
335333.0 514699.0 0
338800.0 512851.0 0
339423.0 516445.0 0
342446.0 514394.0 0
346634.0 516270.0 0
350182.0 512911.0 0
351428.0 517046.0 0
356755.0 515019.0 0
362785.0 516310.0 0
367661.0 516968.0 0
372063.0 514225.0 0
377111.0 513006.0 0
381509.0 514915.0 0
385539.0 515879.0 0
389464.0 516516.0 0
393119.0 514128.0 0
398561.0 514473.0 0
402466.0 515612.0 0
405955.0 515510.0 0
410382.0 515975.0 0
414668.0 513469.0 0
414525.0 518088.0 0
422218.0 513587.0 0
418633.0 516148.0 0
422914.0 517272.0 0
427683.0 514769.0 0
432702.0 516866.0 0
437070.0 516374.0 0
441217.0 515459.0 0
444526.0 517520.0 0
447956.0 515591.0 0
452298.0 516075.0 0
457303.0 516736.0 0
461328.0 513720.0 0
461246.0 517708.0 0
466504.0 516712.0 0
471236.0 515249.0 0
478282.0 515582.0 0
475221.0 516564.0 0
478972.0 518694.0 0
482411.0 514204.0 0
487698.0 513674.0 0
486995.0 517013.0 0
491914.0 515856.0 0
497180.0 515647.0 0
498404.0 518844.0 0
2589.66 519316.0 0
9192.87 520629.0 0
6505.05 520821.0 0
12259.7 522744.0 0
15500.6 520532.0 0
18195.9 522486.0 0
26069.9 520522.0 0
20631.9 519355.0 0
30583.8 519753.0 0
35174.0 522342.0 0
39977.5 522040.0 0
43003.0 519292.0 0
50095.5 519212.0 0
46730.8 521165.0 0
50516.8 522875.0 0
54257.3 519942.0 0
58029.9 522673.0 0
62531.3 520588.0 0
65732.9 523267.0 0
69995.9 522578.0 0
72687.2 518704.0 0
75519.3 522010.0 0
79782.5 521907.0 0
83983.2 519067.0 0
93269.6 521643.0 0
96083.1 518214.0 0
97732.8 522428.0 0
107079.0 521572.0 0
110535.0 521009.0 0
114093.0 518504.0 0
117410.0 521568.0 0
123238.0 519637.0 0
127738.0 520985.0 0
130740.0 518317.0 0
135257.0 519575.0 0
138972.0 520921.0 0
141567.0 517947.0 0
142784.0 521899.0 0
146858.0 518707.0 0
157265.0 517848.0 0
155641.0 521802.0 0
160005.0 520467.0 0
163928.0 519207.0 0
168883.0 521413.0 0
174556.0 521361.0 0
179125.0 520212.0 0
183389.0 520144.0 0
188080.0 517935.0 0
193524.0 519937.0 0
199439.0 518898.0 0
202698.0 521676.0 0
207336.0 520003.0 0
211519.0 518902.0 0
216142.0 519520.0 0
221719.0 519555.0 0
227310.0 520491.0 0
232133.0 518140.0 0
237928.0 517335.0 0
243730.0 518764.0 0
249317.0 519247.0 0
255027.0 518933.0 0
260860.0 517950.0 0
267574.0 518852.0 0
274921.0 518988.0 0
281497.0 520747.0 0
286960.0 519803.0 0
291608.0 519678.0 0
295984.0 520092.0 0
299921.0 518175.0 0
303189.0 519456.0 0
308001.0 518723.0 0
313138.0 520345.0 0
319074.0 520545.0 0
323874.0 518779.0 0
327991.0 517682.0 0
328090.0 521921.0 0
332600.0 519081.0 0
336630.0 517683.0 0
338610.0 521714.0 0
342690.0 518303.0 0
348973.0 520129.0 0
354612.0 520590.0 0
359655.0 520470.0 0
364829.0 521032.0 0
371813.0 519999.0 0
377691.0 518768.0 0
382958.0 518708.0 0
382352.0 522690.0 0
387337.0 520345.0 0
392051.0 519534.0 0
396139.0 518496.0 0
394798.0 522473.0 0
398336.0 522103.0 0
400889.0 518963.0 0
405545.0 519895.0 0
402292.0 523238.0 0
410595.0 521499.0 0
415911.0 522050.0 0
420361.0 521164.0 0
425818.0 520107.0 0
430467.0 520108.0 0
435641.0 520891.0 0
439759.0 522879.0 0
440678.0 519016.0 0
443997.0 521898.0 0
448892.0 520361.0 0
454594.0 520276.0 0
458612.0 520233.0 0
462613.0 521500.0 0
467353.0 521892.0 0
471933.0 519404.0 0
471384.0 523990.0 0
476272.0 522630.0 0
483156.0 518747.0 0
481782.0 522997.0 0
486496.0 520902.0 0
490056.0 519680.0 0
494497.0 519834.0 0
498013.0 521609.0 0
3487.96 524209.0 0
1345.34 527453.0 0
8478.31 524141.0 0
6674.24 528067.0 0
15272.6 525622.0 0
11170.4 528090.0 0
19674.2 526912.0 0
22413.5 523356.0 0
24010.8 527932.0 0
26018.4 525131.0 0
29888.0 524173.0 0
28193.1 528191.0 0
33435.6 527996.0 0
39026.6 526221.0 0
43242.7 523498.0 0
43745.6 527655.0 0
47436.2 525343.0 0
51277.3 527023.0 0
54143.6 524245.0 0
56925.1 527568.0 0
61439.5 524694.0 0
64594.0 526546.0 0
68187.9 526436.0 0
72670.6 526151.0 0
78047.1 526579.0 0
82970.9 524486.0 0
85287.3 527326.0 0
88445.9 523631.0 0
93845.7 525860.0 0
98751.7 527415.0 0
103233.0 523318.0 0
108300.0 525898.0 0
113212.0 524230.0 0
116982.0 526532.0 0
121365.0 524710.0 0
123399.0 527278.0 0
126118.0 524959.0 0
131561.0 523203.0 0
129767.0 527909.0 0
136425.0 523953.0 0
133691.0 527061.0 0
140573.0 525467.0 0
145571.0 525931.0 0
150512.0 523119.0 0
154400.0 526872.0 0
159247.0 524967.0 0
163318.0 522940.0 0
163443.0 527238.0 0
165795.0 524690.0 0
168263.0 527395.0 0
172841.0 525425.0 0
177445.0 524887.0 0
182059.0 524167.0 0
186170.0 522721.0 0
185841.0 526330.0 0
191067.0 525230.0 0
197555.0 523557.0 0
201713.0 527030.0 0
206350.0 525127.0 0
211552.0 523432.0 0
216815.0 525038.0 0
221984.0 524518.0 0
227305.0 525226.0 0
232809.0 522985.0 0
237621.0 522562.0 0
236658.0 527301.0 0
242127.0 524035.0 0
247838.0 524971.0 0
253220.0 523834.0 0
258357.0 523050.0 0
263039.0 522643.0 0
266929.0 525078.0 0
272117.0 523714.0 0
277211.0 523269.0 0
280577.0 524847.0 0
284897.0 525265.0 0
290630.0 524329.0 0
296233.0 525700.0 0
300430.0 522500.0 0
305072.0 523322.0 0
310261.0 524415.0 0
315646.0 524331.0 0
319477.0 526518.0 0
323279.0 523952.0 0
327905.0 527099.0 0
333163.0 524839.0 0
337511.0 526805.0 0
344828.0 522627.0 0
341420.0 525948.0 0
350976.0 525201.0 0
357027.0 524841.0 0
361628.0 524770.0 0
368712.0 522796.0 0
366532.0 526057.0 0
371765.0 525844.0 0
375306.0 523429.0 0
378827.0 524203.0 0
381872.0 526810.0 0
386289.0 525138.0 0
390951.0 523745.0 0
394403.0 526144.0 0
398873.0 526437.0 0
403434.0 527899.0 0
406510.0 524608.0 0
410372.0 527072.0 0
413920.0 525108.0 0
417754.0 525569.0 0
421350.0 525600.0 0
424205.0 523712.0 0
425602.0 528099.0 0
428301.0 524139.0 0
430866.0 528175.0 0
432570.0 524159.0 0
436516.0 526232.0 0
441486.0 526526.0 0
445825.0 525830.0 0
453707.0 523868.0 0
450134.0 525056.0 0
454182.0 527965.0 0
458165.0 524234.0 0
463312.0 525970.0 0
467630.0 525629.0 0
470327.0 527609.0 0
474315.0 527053.0 0
478935.0 527473.0 0
483753.0 527357.0 0
486560.0 524282.0 0
488854.0 527797.0 0
491841.0 523859.0 0
497272.0 525093.0 0
498214.0 528590.0 0
2685.34 530337.0 0
6923.02 532640.0 0
16266.5 530464.0 0
21134.6 531029.0 0
25937.1 532076.0 0
30346.2 531452.0 0
37358.7 530218.0 0
40571.8 529973.0 0
44247.3 532334.0 0
48128.5 529381.0 0
53094.2 530794.0 0
61484.5 529173.0 0
57797.7 532844.0 0
62559.1 533279.0 0
65808.3 529651.0 0
66607.3 533082.0 0
70322.5 530540.0 0
74661.5 529859.0 0
78998.3 531806.0 0
82196.2 528465.0 0
84121.6 532163.0 0
89630.3 529868.0 0
95231.1 531226.0 0
100437.0 532469.0 0
103780.0 528521.0 0
105965.0 532684.0 0
109076.0 530037.0 0
112616.0 528532.0 0
116574.0 531046.0 0
120708.0 528909.0 0
120718.0 533064.0 0
125447.0 530640.0 0
132877.0 531325.0 0
137446.0 529149.0 0
142247.0 529770.0 0
145886.0 532418.0 0
149609.0 529153.0 0
153582.0 531736.0 0
159034.0 530623.0 0
164924.0 531509.0 0
168602.0 531594.0 0
172329.0 530112.0 0
177365.0 529675.0 0
182537.0 529353.0 0
187575.0 530016.0 0
192349.0 531253.0 0
197192.0 529248.0 0
201230.0 531373.0 0
205281.0 529953.0 0
210327.0 528979.0 0
215270.0 529536.0 0
219846.0 529092.0 0
224880.0 528759.0 0
230660.0 528603.0 0
237603.0 532479.0 0
241721.0 529557.0 0
247171.0 530906.0 0
252462.0 529047.0 0
257463.0 528052.0 0
259887.0 532033.0 0
255941.0 532381.0 0
262660.0 528224.0 0
267868.0 530277.0 0
272768.0 528930.0 0
278353.0 529067.0 0
284070.0 530765.0 0
288350.0 528595.0 0
292361.0 529234.0 0
296299.0 530492.0 0
301062.0 529379.0 0
305294.0 531818.0 0
306328.0 527843.0 0
310738.0 530033.0 0
315371.0 529208.0 0
318891.0 529559.0 0
323008.0 529654.0 0
331727.0 528873.0 0
335337.0 530775.0 0
340308.0 530060.0 0
345416.0 528395.0 0
350322.0 531628.0 0
355096.0 529442.0 0
359526.0 528834.0 0
357882.0 532761.0 0
363422.0 528445.0 0
368804.0 531009.0 0
372777.0 529649.0 0
377243.0 529050.0 0
385102.0 529362.0 0
381912.0 532358.0 0
390367.0 528994.0 0
395948.0 530628.0 0
400553.0 530966.0 0
407104.0 530260.0 0
411045.0 531169.0 0
415201.0 529511.0 0
420182.0 529485.0 0
418252.0 533462.0 0
423867.0 532671.0 0
428919.0 532515.0 0
433825.0 531846.0 0
438844.0 530621.0 0
444123.0 530611.0 0
449133.0 529275.0 0
452364.0 532434.0 0
456435.0 531681.0 0
459264.0 528725.0 0
462953.0 529985.0 0
466796.0 529068.0 0
465385.0 532914.0 0
469194.0 532129.0 0
472205.0 530374.0 0
475885.0 530748.0 0
478363.0 533302.0 0
481982.0 531334.0 0
485977.0 530731.0 0
493941.0 528881.0 0
489972.0 531591.0 0
493688.0 533279.0 0
497719.0 531820.0 0
2373.47 534819.0 0
2425.84 539166.0 0
6132.92 537067.0 0
12058.7 533633.0 0
15744.8 536716.0 0
18586.4 534137.0 0
22326.3 534466.0 0
25692.4 537046.0 0
29766.3 535321.0 0
34313.8 533542.0 0
32993.3 538023.0 0
37367.7 537709.0 0
39261.3 533530.0 0
42255.2 536813.0 0
46307.0 536144.0 0
49283.7 533315.0 0
49546.3 537753.0 0
53472.8 535449.0 0
60265.2 536978.0 0
65090.1 537384.0 0
69574.5 535020.0 0
74218.1 534197.0 0
78331.1 535870.0 0
81176.2 534915.0 0
80910.8 538282.0 0
83847.4 536151.0 0
87632.4 535336.0 0
91936.0 534472.0 0
96195.6 536367.0 0
102492.0 537097.0 0
107619.0 537863.0 0
111649.0 533681.0 0
116759.0 535616.0 0
120410.0 536713.0 0
124165.0 535760.0 0
129319.0 535068.0 0
135074.0 536208.0 0
139251.0 533462.0 0
142695.0 536409.0 0
150141.0 535671.0 0
156431.0 536385.0 0
161937.0 535197.0 0
166486.0 535437.0 0
170637.0 534598.0 0
175321.0 534261.0 0
180042.0 533759.0 0
184036.0 533721.0 0
188351.0 535115.0 0
193552.0 536187.0 0
198105.0 533743.0 0
197611.0 537567.0 0
204258.0 534469.0 0
208325.0 533273.0 0
213026.0 533529.0 0
217611.0 533045.0 0
218305.0 537379.0 0
222018.0 533623.0 0
227178.0 533817.0 0
232777.0 534026.0 0
236995.0 537681.0 0
244124.0 534926.0 0
240514.0 535077.0 0
251672.0 534348.0 0
257851.0 536448.0 0
263675.0 532758.0 0
262663.0 537482.0 0
267275.0 535473.0 0
271805.0 533202.0 0
276285.0 534710.0 0
280645.0 533503.0 0
283517.0 534806.0 0
288659.0 532763.0 0
286662.0 537188.0 0
293559.0 534020.0 0
298430.0 533963.0 0
303047.0 535652.0 0
308591.0 534852.0 0
314154.0 534206.0 0
319149.0 533075.0 0
319768.0 537227.0 0
323659.0 534976.0 0
329515.0 533335.0 0
334661.0 535196.0 0
339029.0 534946.0 0
343761.0 533428.0 0
347573.0 535448.0 0
354177.0 535781.0 0
359126.0 536913.0 0
363203.0 533233.0 0
368108.0 536426.0 0
373457.0 532985.0 0
373112.0 537310.0 0
377739.0 535052.0 0
383463.0 536904.0 0
387002.0 533406.0 0
388646.0 538168.0 0
392409.0 534411.0 0
398021.0 535435.0 0
404009.0 533756.0 0
408926.0 534570.0 0
413888.0 534386.0 0
421525.0 536230.0 0
426727.0 537002.0 0
431470.0 533919.0 0
432518.0 537512.0 0
437236.0 535136.0 0
442490.0 537783.0 0
441094.0 534620.0 0
447810.0 533663.0 0
444161.0 535024.0 0
446204.0 538132.0 0
451033.0 537245.0 0
455836.0 535833.0 0
460597.0 533597.0 0
464668.0 537264.0 0
468386.0 535417.0 0
473018.0 535198.0 0
477454.0 537127.0 0
482345.0 536375.0 0
486351.0 534038.0 0
489849.0 535029.0 0
492682.0 537841.0 0
497364.0 536008.0 0
6306.83 542062.0 0
10557.2 538766.0 0
15182.6 541266.0 0
20481.2 538775.0 0
25202.6 541524.0 0
29202.6 539754.0 0
32955.6 542351.0 0
40844.3 540830.0 0
36828.6 542176.0 0
45671.5 540003.0 0
49278.4 541115.0 0
52978.1 540352.0 0
56683.9 538312.0 0
59220.9 541938.0 0
65174.3 543330.0 0
70052.9 539373.0 0
75790.9 540198.0 0
80974.6 542544.0 0
85398.8 539893.0 0
90876.9 538860.0 0
98950.5 540867.0 0
104048.0 542120.0 0
108804.0 542744.0 0
113180.0 539588.0 0
118032.0 539345.0 0
117131.0 543022.0 0
122092.0 540102.0 0
126763.0 539433.0 0
131352.0 539891.0 0
135243.0 540850.0 0
139027.0 539611.0 0
146345.0 538910.0 0
150065.0 540827.0 0
154613.0 541601.0 0
159851.0 541154.0 0
164125.0 538935.0 0
169322.0 539792.0 0
174051.0 538345.0 0
178496.0 538314.0 0
183768.0 538204.0 0
190347.0 540410.0 0
195036.0 540145.0 0
201842.0 538903.0 0
207174.0 538586.0 0
213060.0 539210.0 0
218727.0 542413.0 0
222802.0 538191.0 0
223094.0 542138.0 0
227233.0 538963.0 0
231917.0 539135.0 0
241906.0 538559.0 0
247660.0 539384.0 0
253680.0 538982.0 0
257733.0 542519.0 0
262746.0 542137.0 0
267379.0 540693.0 0
271802.0 537778.0 0
276096.0 539491.0 0
280665.0 537918.0 0
284555.0 542324.0 0
291117.0 537998.0 0
296261.0 538412.0 0
300696.0 539931.0 0
306396.0 539279.0 0
310957.0 539396.0 0
315852.0 539263.0 0
320022.0 541046.0 0
324532.0 540177.0 0
329833.0 539488.0 0
334237.0 538753.0 0
338135.0 539577.0 0
343830.0 539264.0 0
350008.0 539175.0 0
354694.0 540988.0 0
360180.0 542105.0 0
363761.0 538329.0 0
366096.0 542250.0 0
370087.0 540191.0 0
373572.0 541275.0 0
379169.0 540819.0 0
384940.0 541503.0 0
389708.0 542903.0 0
394289.0 539831.0 0
398460.0 539258.0 0
402242.0 538514.0 0
407000.0 538649.0 0
404984.0 542849.0 0
409238.0 542273.0 0
411779.0 538711.0 0
417280.0 538707.0 0
414122.0 542984.0 0
422993.0 540676.0 0
428500.0 542272.0 0
438536.0 539694.0 0
443726.0 542325.0 0
449047.0 541953.0 0
454728.0 541410.0 0
459871.0 538945.0 0
459561.0 543309.0 0
464355.0 542500.0 0
469099.0 539450.0 0
474424.0 541477.0 0
479752.0 540501.0 0
483621.0 542705.0 0
487242.0 538931.0 0
491166.0 543102.0 0
496794.0 541221.0 0
2040.85 543501.0 0
2830.31 547514.0 0
6670.81 546594.0 0
10092.4 548896.0 0
10902.6 544146.0 0
15032.1 546248.0 0
19558.6 544138.0 0
24675.4 546928.0 0
29143.3 544074.0 0
31421.4 547617.0 0
35290.1 546088.0 0
39684.2 545083.0 0
43659.8 543466.0 0
44303.1 547891.0 0
47446.3 543825.0 0
50850.5 543383.0 0
50234.8 547288.0 0
54558.5 544523.0 0
58779.6 547193.0 0
70833.0 543875.0 0
68745.9 548114.0 0
73577.7 547316.0 0
77037.3 544980.0 0
80248.1 546919.0 0
84385.1 545574.0 0
88738.6 543666.0 0
88051.8 548226.0 0
94076.0 543297.0 0
98940.8 546335.0 0
103875.0 546900.0 0
112778.0 545109.0 0
108327.0 547411.0 0
116996.0 547761.0 0
121720.0 545289.0 0
127997.0 544878.0 0
133066.0 543658.0 0
132923.0 547789.0 0
136454.0 544028.0 0
137166.0 547648.0 0
140813.0 544335.0 0
146046.0 543418.0 0
151224.0 546065.0 0
157233.0 544509.0 0
160537.0 546022.0 0
164519.0 543352.0 0
169072.0 545362.0 0
174912.0 543639.0 0
181054.0 542846.0 0
186132.0 543536.0 0
187211.0 547651.0 0
193971.0 543914.0 0
190112.0 545379.0 0
198611.0 542985.0 0
197190.0 546989.0 0
203837.0 543895.0 0
209036.0 543369.0 0
213926.0 545149.0 0
222218.0 546302.0 0
226969.0 543771.0 0
232321.0 544320.0 0
237571.0 543093.0 0
242743.0 543134.0 0
247350.0 545706.0 0
252343.0 543877.0 0
255855.0 547729.0 0
261459.0 547608.0 0
265824.0 546057.0 0
272578.0 543445.0 0
278953.0 543145.0 0
281932.0 546780.0 0
291007.0 543348.0 0
297285.0 543758.0 0
302846.0 544016.0 0
307818.0 543759.0 0
312069.0 543320.0 0
316759.0 544923.0 0
322374.0 544732.0 0
327943.0 544433.0 0
333892.0 543827.0 0
340111.0 544406.0 0
345873.0 544626.0 0
350721.0 544150.0 0
355686.0 546064.0 0
361456.0 548212.0 0
370684.0 544113.0 0
367163.0 547385.0 0
375293.0 544902.0 0
379604.0 546819.0 0
385059.0 546697.0 0
391029.0 548047.0 0
394741.0 544763.0 0
399591.0 543659.0 0
406027.0 547417.0 0
410715.0 546340.0 0
415574.0 547723.0 0
419132.0 544213.0 0
424282.0 545486.0 0
430838.0 547023.0 0
434157.0 543249.0 0
439178.0 544943.0 0
443142.0 547414.0 0
447343.0 546293.0 0
451778.0 545700.0 0
456534.0 546355.0 0
461379.0 547057.0 0
465819.0 546854.0 0
469505.0 544408.0 0
473758.0 546889.0 0
478082.0 548623.0 0
479014.0 544532.0 0
482371.0 547230.0 0
486918.0 546353.0 0
497051.0 546606.0 0
2096.11 551615.0 0
5995.03 550621.0 0
14440.7 550700.0 0
11129.3 553435.0 0
18969.1 549180.0 0
22993.3 552620.0 0
28569.7 551397.0 0
33869.6 551546.0 0
38674.2 549556.0 0
43758.3 552591.0 0
48141.3 551751.0 0
54437.6 548777.0 0
53164.8 553060.0 0
56520.6 551148.0 0
59932.7 552183.0 0
63693.1 548995.0 0
71764.3 552013.0 0
66844.8 552811.0 0
77260.1 551144.0 0
83435.0 550858.0 0
89278.8 552786.0 0
93374.7 549071.0 0
98031.3 551035.0 0
102980.0 551574.0 0
112423.0 550158.0 0
108026.0 552834.0 0
117455.0 552964.0 0
122930.0 550699.0 0
128543.0 551014.0 0
133881.0 552764.0 0
140721.0 548889.0 0
138849.0 552468.0 0
144823.0 548213.0 0
148927.0 551205.0 0
156412.0 548371.0 0
160463.0 550312.0 0
164710.0 548347.0 0
168960.0 549578.0 0
172367.0 548342.0 0
177739.0 548537.0 0
174704.0 551868.0 0
182621.0 548074.0 0
185809.0 552488.0 0
193455.0 548288.0 0
189809.0 550228.0 0
198844.0 551372.0 0
204196.0 549382.0 0
209053.0 548045.0 0
208263.0 552633.0 0
213003.0 549925.0 0
217749.0 548994.0 0
222452.0 551562.0 0
226412.0 548573.0 0
231145.0 549484.0 0
237022.0 549001.0 0
242725.0 548113.0 0
247540.0 550109.0 0
251200.0 548791.0 0
259558.0 552247.0 0
265105.0 550820.0 0
270344.0 549213.0 0
276629.0 548892.0 0
282522.0 551709.0 0
286797.0 547917.0 0
292255.0 549331.0 0
300303.0 548494.0 0
296559.0 551656.0 0
305883.0 549359.0 0
311408.0 547816.0 0
317661.0 551472.0 0
322747.0 549218.0 0
329330.0 548171.0 0
326397.0 548372.0 0
332642.0 548997.0 0
337775.0 549359.0 0
343505.0 549454.0 0
350125.0 550098.0 0
356311.0 551829.0 0
368227.0 552030.0 0
372362.0 549040.0 0
377443.0 551674.0 0
382012.0 550491.0 0
386877.0 552466.0 0
396974.0 549233.0 0
400934.0 552038.0 0
401819.0 548222.0 0
405861.0 552743.0 0
411769.0 551548.0 0
417121.0 552398.0 0
421022.0 549254.0 0
426855.0 549432.0 0
424008.0 552980.0 0
432581.0 551256.0 0
435600.0 548135.0 0
437614.0 552682.0 0
439532.0 549129.0 0
442695.0 552213.0 0
448667.0 551738.0 0
453516.0 549672.0 0
458145.0 551083.0 0
462004.0 553240.0 0
464140.0 550122.0 0
469438.0 549560.0 0
474373.0 551931.0 0
481955.0 552523.0 0
487504.0 551128.0 0
492004.0 548520.0 0
497642.0 551368.0 0
1807.44 555244.0 0
6719.14 555796.0 0
13901.7 557296.0 0
17735.5 554108.0 0
21419.5 557737.0 0
26579.0 556290.0 0
30977.7 555422.0 0
35778.8 557144.0 0
39869.7 554020.0 0
42811.3 555329.0 0
45901.8 556111.0 0
49559.6 555292.0 0
48609.0 557779.0 0
52265.9 558333.0 0
57358.8 556430.0 0
62890.5 555962.0 0
69661.2 556373.0 0
74709.4 556502.0 0
80155.0 555798.0 0
85358.7 556049.0 0
89890.8 557371.0 0
94384.6 555025.0 0
99432.8 554833.0 0
103482.0 556782.0 0
112579.0 555070.0 0
117481.0 557908.0 0
121977.0 555909.0 0
125615.0 554099.0 0
127205.0 557939.0 0
130196.0 555052.0 0
143938.0 553524.0 0
149058.0 556121.0 0
154294.0 553751.0 0
157863.0 558169.0 0
160197.0 554378.0 0
164626.0 553362.0 0
169868.0 553898.0 0
174601.0 557492.0 0
180001.0 553424.0 0
184126.0 557842.0 0
189056.0 556164.0 0
193402.0 553374.0 0
203570.0 554911.0 0
212874.0 554611.0 0
218163.0 554763.0 0
222983.0 557379.0 0
227567.0 553573.0 0
232985.0 554338.0 0
238445.0 555600.0 0
244127.0 553474.0 0
249851.0 553300.0 0
247922.0 557954.0 0
254309.0 553932.0 0
252210.0 557179.0 0
264231.0 554715.0 0
260977.0 557790.0 0
268246.0 553533.0 0
269859.0 557691.0 0
272905.0 553823.0 0
278108.0 555239.0 0
283093.0 557425.0 0
287814.0 553410.0 0
292878.0 554530.0 0
296876.0 556314.0 0
301131.0 554065.0 0
306095.0 554328.0 0
311349.0 553895.0 0
315553.0 555570.0 0
318546.0 556985.0 0
322659.0 554864.0 0
328566.0 553110.0 0
334630.0 553153.0 0
340187.0 555147.0 0
346047.0 554417.0 0
350421.0 555695.0 0
354467.0 556597.0 0
359156.0 556307.0 0
363616.0 553796.0 0
367814.0 556826.0 0
372549.0 554558.0 0
377270.0 557055.0 0
381841.0 554813.0 0
392980.0 553669.0 0
397602.0 553904.0 0
401269.0 556910.0 0
405955.0 557699.0 0
409958.0 556329.0 0
414621.0 556320.0 0
420443.0 556058.0 0
425495.0 557571.0 0
428746.0 553854.0 0
432486.0 554966.0 0
434607.0 553852.0 0
435879.0 557157.0 0
440314.0 556194.0 0
445523.0 556957.0 0
450855.0 557177.0 0
453969.0 553899.0 0
458418.0 556771.0 0
463576.0 556814.0 0
466247.0 553446.0 0
468007.0 557810.0 0
470293.0 554032.0 0
473135.0 557306.0 0
477596.0 555383.0 0
481120.0 558003.0 0
486864.0 556351.0 0
492277.0 553814.0 0
497267.0 556007.0 0
2679.82 559424.0 0
7401.9 561844.0 0
12320.9 561817.0 0
17731.0 562163.0 0
25288.6 560994.0 0
29792.7 559656.0 0
33727.6 562645.0 0
38277.6 561652.0 0
41659.8 558752.0 0
42541.1 563422.0 0
46763.5 560992.0 0
56016.4 561086.0 0
51902.6 563294.0 0
60704.5 560492.0 0
66122.8 560135.0 0
71340.1 560592.0 0
75086.0 563383.0 0
78114.5 560003.0 0
82615.4 560010.0 0
87058.0 560511.0 0
93107.5 561504.0 0
98435.9 559162.0 0
104134.0 562262.0 0
108421.0 558245.0 0
113434.0 559757.0 0
122796.0 560892.0 0
128922.0 562926.0 0
133077.0 558690.0 0
139596.0 558144.0 0
145145.0 558367.0 0
149034.0 560988.0 0
153425.0 559222.0 0
155426.0 563150.0 0
163232.0 558500.0 0
159798.0 561995.0 0
165855.0 562507.0 0
168892.0 559183.0 0
174841.0 562852.0 0
179360.0 560841.0 0
188364.0 561505.0 0
193221.0 559049.0 0
199206.0 559052.0 0
204053.0 559534.0 0
208468.0 558106.0 0
215305.0 559262.0 0
219582.0 558831.0 0
222873.0 562525.0 0
229481.0 558401.0 0
226908.0 561614.0 0
234328.0 559321.0 0
238700.0 560605.0 0
242782.0 558856.0 0
251795.0 561824.0 0
256080.0 558636.0 0
262692.0 562573.0 0
265499.0 558690.0 0
268182.0 562902.0 0
274619.0 559638.0 0
282786.0 562011.0 0
288433.0 559167.0 0
293893.0 559281.0 0
299733.0 558679.0 0
297622.0 562650.0 0
304313.0 558768.0 0
308987.0 558575.0 0
307721.0 562948.0 0
314479.0 558814.0 0
311453.0 561173.0 0
317191.0 563031.0 0
321818.0 560313.0 0
327517.0 559747.0 0
334283.0 558457.0 0
338498.0 559689.0 0
346506.0 558881.0 0
342303.0 560709.0 0
351116.0 559660.0 0
356924.0 561002.0 0
352664.0 563387.0 0
363164.0 558941.0 0
366735.0 561352.0 0
372262.0 560825.0 0
381293.0 559055.0 0
378249.0 562116.0 0
386461.0 558617.0 0
382875.0 562599.0 0
393016.0 559788.0 0
396883.0 563247.0 0
397905.0 559911.0 0
401165.0 562347.0 0
406967.0 561688.0 0
412149.0 560903.0 0
417543.0 560207.0 0
422568.0 561908.0 0
427327.0 561823.0 0
430795.0 558622.0 0
436092.0 562145.0 0
441583.0 561056.0 0
447025.0 562065.0 0
454323.0 560648.0 0
458616.0 561840.0 0
462189.0 560422.0 0
466157.0 562356.0 0
470600.0 561200.0 0
474370.0 561798.0 0
477067.0 558991.0 0
479211.0 562688.0 0
484594.0 560683.0 0
488003.0 562649.0 0
491929.0 559600.0 0
497385.0 560934.0 0
2543.02 564321.0 0
6941.3 567517.0 0
10464.0 565032.0 0
14009.2 565967.0 0
22823.1 565766.0 0
28693.6 564577.0 0
38734.4 565834.0 0
43314.6 567905.0 0
47902.1 565935.0 0
58167.3 564615.0 0
63390.3 564428.0 0
65786.6 568343.0 0
68819.3 564715.0 0
72435.7 566784.0 0
76312.2 567948.0 0
80366.4 564560.0 0
88404.8 564537.0 0
92643.5 567800.0 0
98591.2 564405.0 0
109950.0 563719.0 0
117527.0 563473.0 0
113992.0 567438.0 0
121096.0 566601.0 0
124631.0 565264.0 0
128425.0 568022.0 0
133310.0 563711.0 0
137717.0 563707.0 0
143662.0 563607.0 0
149844.0 566029.0 0
159019.0 566348.0 0
164384.0 566910.0 0
170092.0 564469.0 0
178316.0 565167.0 0
183631.0 564394.0 0
188703.0 566594.0 0
192635.0 563791.0 0
196506.0 563411.0 0
197314.0 566743.0 0
202878.0 563613.0 0
207918.0 563540.0 0
212533.0 563235.0 0
217863.0 564113.0 0
226421.0 566362.0 0
230979.0 563329.0 0
235892.0 563843.0 0
240685.0 564277.0 0
243074.0 567825.0 0
245862.0 563428.0 0
252284.0 566368.0 0
257418.0 563534.0 0
260667.0 566854.0 0
265346.0 567602.0 0
269961.0 567954.0 0
273253.0 564808.0 0
278364.0 563678.0 0
286624.0 564319.0 0
291926.0 564164.0 0
299442.0 567527.0 0
302734.0 563760.0 0
308524.0 567275.0 0
312467.0 564924.0 0
316604.0 568092.0 0
321868.0 565446.0 0
326671.0 565166.0 0
332133.0 564120.0 0
338088.0 563827.0 0
343262.0 564585.0 0
345821.0 567087.0 0
348164.0 563141.0 0
350856.0 568111.0 0
356137.0 566371.0 0
362114.0 564418.0 0
368382.0 566541.0 0
373665.0 566114.0 0
377345.0 566361.0 0
380599.0 565457.0 0
383864.0 566343.0 0
388736.0 564721.0 0
393722.0 564983.0 0
399103.0 566971.0 0
404563.0 565466.0 0
409729.0 566152.0 0
415730.0 565537.0 0
421436.0 567173.0 0
425953.0 565482.0 0
431332.0 563631.0 0
429643.0 568376.0 0
435000.0 567478.0 0
439456.0 565496.0 0
444312.0 566528.0 0
451263.0 564404.0 0
456226.0 565580.0 0
461158.0 565114.0 0
465535.0 567303.0 0
470025.0 565151.0 0
475144.0 566903.0 0
483235.0 564114.0 0
480933.0 567804.0 0
486380.0 566957.0 0
491816.0 565477.0 0
497345.0 565804.0 0
2117.35 568649.0 0
3363.2 573654.0 0
8561.12 572209.0 0
11684.2 569361.0 0
12605.3 573423.0 0
17925.0 568167.0 0
22359.1 570628.0 0
27109.0 569811.0 0
33400.4 568837.0 0
39135.2 570383.0 0
39707.7 573343.0 0
43224.8 573272.0 0
47537.2 570539.0 0
53884.4 569284.0 0
60673.2 568693.0 0
58811.3 573487.0 0
63731.5 572606.0 0
69829.2 570957.0 0
73707.3 570604.0 0
77261.6 572900.0 0
82290.9 570034.0 0
86385.3 573338.0 0
87433.5 568895.0 0
94379.6 571930.0 0
98259.5 570017.0 0
104226.0 568508.0 0
109816.0 568909.0 0
113394.0 571460.0 0
118298.0 568829.0 0
117479.0 573338.0 0
123359.0 569534.0 0
129166.0 572758.0 0
134070.0 568823.0 0
139981.0 568369.0 0
145554.0 569831.0 0
150483.0 570421.0 0
154410.0 568454.0 0
158763.0 571423.0 0
168755.0 569124.0 0
174590.0 568854.0 0
180554.0 568795.0 0
185022.0 569055.0 0
184149.0 573091.0 0
193439.0 568239.0 0
188910.0 571787.0 0
193384.0 572584.0 0
197577.0 572603.0 0
201251.0 568834.0 0
203075.0 573235.0 0
206953.0 568711.0 0
213051.0 568648.0 0
218602.0 569199.0 0
222908.0 569651.0 0
227830.0 572002.0 0
231928.0 568384.0 0
232897.0 572900.0 0
237329.0 568799.0 0
241495.0 571939.0 0
248143.0 569166.0 0
256236.0 568587.0 0
261297.0 572600.0 0
268059.0 572666.0 0
276076.0 569422.0 0
282376.0 568356.0 0
288591.0 569417.0 0
294364.0 569533.0 0
304447.0 568382.0 0
301229.0 572849.0 0
312100.0 569525.0 0
320742.0 569782.0 0
317595.0 572521.0 0
324661.0 569027.0 0
329808.0 569995.0 0
335770.0 568594.0 0
334315.0 573258.0 0
341171.0 568466.0 0
346293.0 571908.0 0
355696.0 571371.0 0
359665.0 568680.0 0
359879.0 572343.0 0
364172.0 570695.0 0
369305.0 573126.0 0
372687.0 569876.0 0
376531.0 569775.0 0
380224.0 568959.0 0
384834.0 571139.0 0
390056.0 569908.0 0
394388.0 571740.0 0
398879.0 571539.0 0
407506.0 570034.0 0
403339.0 570111.0 0
411544.0 571541.0 0
417346.0 571334.0 0
422123.0 571716.0 0
425391.0 570057.0 0
433267.0 571191.0 0
430262.0 573449.0 0
439932.0 570335.0 0
444958.0 571809.0 0
449359.0 569137.0 0
454437.0 570162.0 0
459407.0 569694.0 0
463818.0 571750.0 0
470176.0 570214.0 0
477834.0 572478.0 0
483761.0 571329.0 0
488660.0 572057.0 0
494120.0 570359.0 0
498274.0 569750.0 0
497869.0 573327.0 0
9298.42 577144.0 0
18362.3 574825.0 0
24675.5 574332.0 0
29936.1 575529.0 0
36128.3 574919.0 0
41001.6 578568.0 0
50129.5 573860.0 0
47031.0 577676.0 0
54303.4 576288.0 0
62201.4 577803.0 0
67473.5 575422.0 0
72628.6 575799.0 0
77485.3 578084.0 0
81911.9 575627.0 0
86464.3 578297.0 0
91399.9 575170.0 0
96575.0 574679.0 0
101900.0 574706.0 0
107635.0 573576.0 0
112834.0 576774.0 0
118347.0 578106.0 0
122962.0 574895.0 0
128474.0 578468.0 0
133168.0 573770.0 0
134916.0 578349.0 0
138958.0 573848.0 0
144424.0 575639.0 0
148755.0 573785.0 0
149749.0 578339.0 0
153798.0 574122.0 0
159209.0 577385.0 0
164206.0 573312.0 0
170433.0 573861.0 0
168832.0 577870.0 0
175235.0 574988.0 0
179490.0 573720.0 0
183639.0 577691.0 0
188734.0 577181.0 0
194635.0 577478.0 0
199760.0 577633.0 0
203233.0 578312.0 0
208468.0 573492.0 0
207336.0 577955.0 0
213131.0 574452.0 0
217942.0 573742.0 0
222755.0 574203.0 0
227057.0 577662.0 0
231965.0 577211.0 0
237319.0 574185.0 0
241579.0 576830.0 0
245626.0 574039.0 0
250012.0 573953.0 0
254906.0 573943.0 0
251649.0 577961.0 0
268852.0 577801.0 0
273609.0 574448.0 0
279343.0 574056.0 0
283559.0 573238.0 0
283501.0 577925.0 0
286993.0 574353.0 0
288076.0 577867.0 0
291335.0 573791.0 0
292424.0 578337.0 0
295979.0 574716.0 0
295824.0 578150.0 0
307751.0 573337.0 0
313409.0 573897.0 0
321150.0 575140.0 0
316754.0 576902.0 0
325421.0 573419.0 0
330114.0 575643.0 0
339300.0 573621.0 0
337175.0 578007.0 0
341818.0 577817.0 0
346675.0 577306.0 0
351430.0 573731.0 0
355663.0 575861.0 0
360054.0 576552.0 0
364644.0 575495.0 0
371408.0 577928.0 0
375161.0 574101.0 0
380214.0 573791.0 0
383592.0 575805.0 0
389374.0 575105.0 0
394828.0 577252.0 0
398649.0 574955.0 0
402233.0 574643.0 0
406804.0 574060.0 0
411159.0 576960.0 0
416755.0 577139.0 0
420774.0 574779.0 0
425274.0 574788.0 0
428973.0 577648.0 0
435925.0 575106.0 0
441619.0 574553.0 0
445165.0 576529.0 0
450352.0 574828.0 0
456119.0 574975.0 0
460557.0 574101.0 0
462866.0 578090.0 0
467222.0 574135.0 0
467889.0 578341.0 0
471614.0 575282.0 0
475602.0 576735.0 0
482588.0 575727.0 0
487500.0 577469.0 0
493081.0 575420.0 0
497490.0 577718.0 0
3698.49 580409.0 0
9528.14 582905.0 0
14109.3 579949.0 0
19407.0 581767.0 0
23946.3 578992.0 0
28408.2 580805.0 0
33950.5 580687.0 0
44688.5 583064.0 0
51496.8 581048.0 0
57244.0 581331.0 0
62036.7 582942.0 0
67618.4 580976.0 0
73451.9 581212.0 0
77461.0 582529.0 0
81706.1 580843.0 0
86402.0 583366.0 0
91055.5 580803.0 0
95786.2 579101.0 0
100613.0 580004.0 0
106672.0 579949.0 0
115026.0 581448.0 0
118551.0 582845.0 0
122784.0 580852.0 0
132141.0 582706.0 0
140482.0 579197.0 0
145211.0 580905.0 0
154349.0 579182.0 0
164965.0 579704.0 0
172881.0 579323.0 0
169068.0 582485.0 0
178581.0 578919.0 0
182338.0 582477.0 0
187413.0 582280.0 0
198235.0 581692.0 0
203102.0 582925.0 0
208878.0 583191.0 0
212249.0 579159.0 0
214160.0 583165.0 0
217034.0 578530.0 0
218451.0 582995.0 0
221843.0 578878.0 0
222570.0 583066.0 0
226795.0 582564.0 0
232152.0 582703.0 0
236929.0 579334.0 0
242023.0 581892.0 0
246643.0 579151.0 0
252075.0 582488.0 0
256974.0 579794.0 0
263593.0 579201.0 0
268713.0 582911.0 0
273069.0 579590.0 0
277865.0 578990.0 0
282927.0 583118.0 0
287137.0 583505.0 0
291333.0 582957.0 0
295696.0 581638.0 0
299603.0 578516.0 0
305448.0 579519.0 0
311373.0 578532.0 0
316094.0 582275.0 0
320784.0 579629.0 0
325774.0 578658.0 0
328520.0 583283.0 0
332742.0 580072.0 0
341735.0 582494.0 0
336860.0 583266.0 0
351868.0 579174.0 0
347168.0 582969.0 0
357699.0 581811.0 0
363198.0 579903.0 0
367152.0 578716.0 0
376335.0 579128.0 0
372949.0 583178.0 0
381052.0 579480.0 0
378271.0 583501.0 0
385871.0 579233.0 0
390648.0 580584.0 0
395842.0 582834.0 0
400159.0 578896.0 0
406052.0 579826.0 0
410280.0 583045.0 0
413608.0 580924.0 0
418244.0 582707.0 0
421982.0 578727.0 0
425859.0 578984.0 0
423788.0 583565.0 0
432661.0 579600.0 0
428690.0 582094.0 0
436668.0 581122.0 0
440720.0 578784.0 0
443507.0 581960.0 0
448499.0 580221.0 0
453559.0 579399.0 0
458163.0 579538.0 0
456612.0 583038.0 0
465719.0 582852.0 0
472807.0 581022.0 0
478881.0 579799.0 0
484036.0 581477.0 0
488246.0 581572.0 0
491587.0 579935.0 0
494388.0 582684.0 0
497991.0 581921.0 0
3503.24 587066.0 0
9071.66 587998.0 0
14731.6 585937.0 0
19822.5 586544.0 0
24533.6 584349.0 0
29521.5 585481.0 0
34202.4 586101.0 0
38984.2 583977.0 0
43463.7 588613.0 0
48985.3 585794.0 0
53721.3 585607.0 0
59217.1 585669.0 0
65175.7 585233.0 0
69963.8 587052.0 0
75450.0 585775.0 0
82103.1 586021.0 0
90522.3 585379.0 0
86877.4 588485.0 0
95289.7 584307.0 0
100845.0 585132.0 0
97542.4 588384.0 0
106106.0 586127.0 0
111382.0 583684.0 0
116520.0 587595.0 0
121601.0 585669.0 0
127249.0 585179.0 0
137567.0 583747.0 0
133228.0 587593.0 0
142758.0 585412.0 0
138354.0 588423.0 0
146731.0 588496.0 0
149346.0 583678.0 0
151512.0 588029.0 0
154602.0 583895.0 0
160309.0 583454.0 0
165546.0 585301.0 0
173679.0 584557.0 0
177988.0 583693.0 0
182173.0 588013.0 0
188247.0 587835.0 0
193113.0 583866.0 0
198517.0 586862.0 0
205548.0 587434.0 0
212356.0 587636.0 0
216722.0 587388.0 0
220997.0 587331.0 0
226420.0 587831.0 0
231345.0 587771.0 0
238142.0 583594.0 0
236602.0 588350.0 0
242811.0 587363.0 0
247117.0 584192.0 0
247604.0 588274.0 0
251587.0 587010.0 0
257643.0 584683.0 0
256122.0 588474.0 0
261153.0 583922.0 0
260878.0 588209.0 0
265842.0 587830.0 0
273647.0 584070.0 0
270766.0 587725.0 0
278170.0 583810.0 0
275712.0 588441.0 0
281607.0 587788.0 0
286105.0 587423.0 0
295253.0 586035.0 0
290760.0 587922.0 0
300237.0 584343.0 0
305292.0 584676.0 0
310292.0 584290.0 0
307239.0 587883.0 0
315419.0 587886.0 0
323270.0 584004.0 0
325571.0 587677.0 0
332713.0 584616.0 0
335346.0 587948.0 0
341219.0 588203.0 0
352410.0 584491.0 0
360185.0 588270.0 0
367047.0 583586.0 0
362421.0 583711.0 0
374138.0 587857.0 0
382542.0 584279.0 0
387081.0 584109.0 0
383566.0 588315.0 0
391596.0 584796.0 0
393316.0 588183.0 0
397586.0 587679.0 0
401240.0 584108.0 0
406405.0 585859.0 0
411517.0 587951.0 0
414037.0 584429.0 0
417306.0 588499.0 0
422369.0 588054.0 0
427847.0 587904.0 0
433258.0 584450.0 0
437182.0 587899.0 0
440075.0 583929.0 0
442757.0 588664.0 0
446338.0 584693.0 0
452142.0 584747.0 0
457372.0 587211.0 0
460601.0 583434.0 0
465672.0 588089.0 0
469910.0 585790.0 0
475258.0 586863.0 0
480173.0 584555.0 0
484216.0 586376.0 0
490286.0 586599.0 0
497106.0 586521.0 0
2044.95 591963.0 0
6318.19 591719.0 0
12682.6 591341.0 0
18275.7 591165.0 0
22413.1 588863.0 0
23333.0 592607.0 0
26487.9 589179.0 0
32839.3 590172.0 0
37766.4 590020.0 0
41660.5 593100.0 0
48590.8 590593.0 0
53311.8 592602.0 0
57005.4 589324.0 0
62554.0 589366.0 0
71431.0 592434.0 0
66784.9 593004.0 0
74283.5 589654.0 0
76014.2 593648.0 0
78415.5 589391.0 0
82668.1 590659.0 0
93131.9 589241.0 0
96859.7 592603.0 0
102496.0 589903.0 0
106535.0 590509.0 0
110702.0 588742.0 0
121510.0 590192.0 0
126179.0 590849.0 0
131010.0 593038.0 0
136066.0 591932.0 0
142318.0 590264.0 0
147887.0 593442.0 0
143812.0 593453.0 0
152922.0 592620.0 0
156427.0 588950.0 0
157293.0 593464.0 0
161342.0 588630.0 0
165585.0 590640.0 0
170632.0 588870.0 0
176407.0 588797.0 0
178099.0 593273.0 0
182331.0 593252.0 0
187526.0 593627.0 0
193659.0 589957.0 0
198509.0 592376.0 0
202164.0 589503.0 0
203034.0 592977.0 0
208775.0 592921.0 0
215950.0 591156.0 0
220354.0 592454.0 0
225463.0 593353.0 0
230778.0 592464.0 0
240189.0 593114.0 0
246005.0 593334.0 0
252974.0 593619.0 0
259369.0 593127.0 0
264175.0 593226.0 0
268923.0 592628.0 0
273415.0 592227.0 0
278609.0 593177.0 0
283359.0 592033.0 0
287064.0 591055.0 0
290996.0 593386.0 0
296479.0 590785.0 0
301644.0 589768.0 0
310914.0 589509.0 0
306073.0 591705.0 0
320850.0 588851.0 0
326367.0 592474.0 0
330032.0 588575.0 0
337134.0 593160.0 0
341973.0 593152.0 0
347552.0 589115.0 0
350589.0 593702.0 0
353650.0 589769.0 0
366401.0 589395.0 0
371176.0 590484.0 0
368716.0 593562.0 0
375265.0 592909.0 0
378681.0 588678.0 0
379979.0 593231.0 0
384463.0 592958.0 0
388636.0 589406.0 0
392671.0 592071.0 0
397472.0 593185.0 0
402324.0 589156.0 0
401676.0 592627.0 0
408089.0 589028.0 0
406903.0 593085.0 0
413726.0 592967.0 0
419111.0 593890.0 0
423929.0 592141.0 0
428484.0 593500.0 0
432839.0 588976.0 0
433775.0 593638.0 0
439023.0 591981.0 0
448272.0 588799.0 0
453074.0 590533.0 0
457594.0 592537.0 0
461316.0 590101.0 0
466726.0 593698.0 0
471236.0 589516.0 0
472318.0 593455.0 0
476591.0 591959.0 0
480438.0 589238.0 0
485442.0 591333.0 0
492889.0 592205.0 0
497553.0 591619.0 0
3526.99 596367.0 0
8178.06 595494.0 0
12515.7 596288.0 0
17413.4 596589.0 0
20667.6 594553.0 0
23947.5 596825.0 0
29446.4 593874.0 0
27233.9 597731.0 0
35967.7 595963.0 0
41853.3 597278.0 0
45708.7 593882.0 0
50208.5 595830.0 0
46499.0 598350.0 0
54619.5 598509.0 0
58089.5 594073.0 0
60375.0 598535.0 0
62538.9 594487.0 0
65596.3 598009.0 0
72031.6 598546.0 0
81228.3 595496.0 0
85171.8 598868.0 0
87104.4 594151.0 0
92390.5 594069.0 0
101321.0 594500.0 0
97292.0 597521.0 0
106335.0 594864.0 0
111957.0 594366.0 0
118080.0 594357.0 0
123335.0 594358.0 0
127312.0 597633.0 0
140050.0 594473.0 0
144981.0 597577.0 0
154757.0 597515.0 0
161775.0 593699.0 0
159780.0 598004.0 0
168366.0 593981.0 0
167901.0 597912.0 0
163959.0 598067.0 0
173202.0 594136.0 0
177455.0 598527.0 0
183809.0 598318.0 0
192147.0 594058.0 0
192323.0 597116.0 0
188965.0 598298.0 0
197522.0 598175.0 0
203579.0 597703.0 0
214045.0 594406.0 0
213839.0 597871.0 0
217571.0 597226.0 0
222194.0 597558.0 0
227314.0 598223.0 0
232797.0 598181.0 0
235579.0 593801.0 0
238567.0 597976.0 0
242979.0 597554.0 0
251679.0 598430.0 0
260709.0 598292.0 0
265782.0 597359.0 0
271652.0 598283.0 0
276811.0 597557.0 0
281985.0 598204.0 0
287413.0 597008.0 0
295889.0 596403.0 0
300702.0 594467.0 0
305590.0 597331.0 0
309980.0 593811.0 0
315819.0 594058.0 0
311481.0 598694.0 0
321860.0 594022.0 0
331394.0 594032.0 0
327128.0 597964.0 0
332275.0 598713.0 0
341534.0 597446.0 0
336700.0 598603.0 0
346073.0 594705.0 0
352270.0 598095.0 0
357672.0 594286.0 0
363622.0 594369.0 0
372379.0 596754.0 0
367822.0 597979.0 0
376891.0 597951.0 0
382010.0 597385.0 0
389094.0 594705.0 0
393596.0 598339.0 0
401993.0 595857.0 0
411354.0 597881.0 0
423623.0 597804.0 0
438020.0 595455.0 0
435431.0 598679.0 0
442917.0 594375.0 0
448485.0 593910.0 0
453975.0 595767.0 0
461385.0 594672.0 0
469288.0 598832.0 0
473981.0 597902.0 0
476911.0 595540.0 0
480698.0 594278.0 0
482972.0 598116.0 0
489143.0 595165.0 0
493861.0 596396.0 0
497896.0 596001.0 0
2918.6 601876.0 0
8401.65 600270.0 0
14608.2 600550.0 0
18080.2 603970.0 0
20820.3 599937.0 0
25868.5 601938.0 0
30610.9 599220.0 0
34578.9 601112.0 0
38953.7 600744.0 0
45835.5 603186.0 0
50174.2 600387.0 0
58078.3 603276.0 0
63350.4 602744.0 0
67905.7 602638.0 0
78114.6 599992.0 0
81849.3 599786.0 0
81747.9 603507.0 0
91567.0 599634.0 0
86840.5 603310.0 0
97102.0 603376.0 0
102989.0 600112.0 0
109066.0 599385.0 0
113573.0 598969.0 0
116944.0 601421.0 0
112413.0 603539.0 0
121669.0 599132.0 0
128717.0 603829.0 0
133812.0 598960.0 0
140235.0 599860.0 0
144761.0 602498.0 0
149671.0 598878.0 0
153359.0 602974.0 0
158390.0 602237.0 0
163018.0 602307.0 0
168294.0 602787.0 0
171969.0 599102.0 0
174270.0 602102.0 0
181899.0 603233.0 0
186805.0 603355.0 0
192454.0 602005.0 0
197562.0 603825.0 0
201812.0 602316.0 0
209226.0 599976.0 0
214718.0 602193.0 0
219123.0 602760.0 0
222430.0 602783.0 0
231945.0 603215.0 0
237179.0 603097.0 0
242285.0 602187.0 0
247743.0 599051.0 0
252500.0 602796.0 0
255662.0 599189.0 0
256683.0 603811.0 0
261510.0 603464.0 0
267168.0 602924.0 0
277504.0 602114.0 0
286713.0 602105.0 0
291503.0 599650.0 0
300311.0 598814.0 0
296572.0 602593.0 0
302530.0 603086.0 0
307513.0 602682.0 0
312139.0 603775.0 0
316654.0 600506.0 0
320926.0 603808.0 0
321632.0 598825.0 0
331744.0 603260.0 0
342950.0 602283.0 0
347324.0 599600.0 0
357764.0 600528.0 0
362150.0 603748.0 0
363122.0 599427.0 0
366226.0 602389.0 0
371877.0 601700.0 0
376616.0 602445.0 0
380789.0 602124.0 0
387137.0 599798.0 0
396788.0 603310.0 0
399167.0 599197.0 0
405609.0 599899.0 0
412641.0 602841.0 0
416929.0 599000.0 0
421815.0 602675.0 0
426086.0 602982.0 0
429921.0 598814.0 0
432649.0 603084.0 0
437383.0 603525.0 0
440404.0 599029.0 0
442810.0 603728.0 0
445954.0 599120.0 0
451195.0 599732.0 0
452234.0 603532.0 0
458459.0 598997.0 0
464131.0 598998.0 0
461630.0 603800.0 0
467075.0 603506.0 0
472628.0 602403.0 0
478620.0 599035.0 0
477277.0 603457.0 0
482217.0 602848.0 0
487170.0 599808.0 0
491891.0 599978.0 0
493582.0 603354.0 0
496600.0 600389.0 0
1222.35 605559.0 0
2868.27 609189.0 0
6831.93 604744.0 0
8149.62 608941.0 0
11671.4 604042.0 0
13391.5 608721.0 0
18106.6 608445.0 0
22134.7 604763.0 0
27147.5 607918.0 0
31084.9 604056.0 0
36927.7 605763.0 0
41673.4 604015.0 0
42055.0 608676.0 0
47611.3 608019.0 0
52425.8 604574.0 0
56735.9 608589.0 0
61985.4 607674.0 0
67532.8 607803.0 0
71622.1 604585.0 0
76673.8 605095.0 0
84300.1 608838.0 0
91578.9 605610.0 0
101989.0 605377.0 0
99203.0 608573.0 0
107220.0 604352.0 0
109052.0 608548.0 0
113028.0 608114.0 0
118263.0 606237.0 0
122428.0 609008.0 0
122922.0 604261.0 0
135392.0 605697.0 0
139679.0 603999.0 0
143675.0 607476.0 0
148728.0 604123.0 0
151137.0 608201.0 0
157387.0 607752.0 0
163105.0 607080.0 0
167888.0 608599.0 0
173002.0 606391.0 0
177574.0 603994.0 0
178094.0 608557.0 0
183401.0 608016.0 0
188256.0 607853.0 0
192708.0 607538.0 0
197381.0 608470.0 0
202385.0 607711.0 0
205945.0 605246.0 0
212773.0 607490.0 0
217500.0 607625.0 0
222500.0 607494.0 0
226672.0 603877.0 0
232984.0 607806.0 0
237856.0 607985.0 0
242755.0 606776.0 0
246914.0 603883.0 0
247998.0 608151.0 0
252160.0 607004.0 0
256422.0 608035.0 0
260847.0 608474.0 0
265617.0 608122.0 0
272607.0 604082.0 0
276968.0 608207.0 0
282001.0 604909.0 0
286861.0 607994.0 0
291327.0 604771.0 0
298621.0 608871.0 0
304050.0 607702.0 0
308328.0 607064.0 0
312890.0 608954.0 0
316363.0 605365.0 0
326399.0 603926.0 0
323306.0 607931.0 0
333181.0 608594.0 0
337512.0 604225.0 0
342723.0 607997.0 0
347492.0 604686.0 0
351093.0 608914.0 0
352879.0 603909.0 0
358143.0 606022.0 0
368349.0 606618.0 0
378478.0 606628.0 0
384685.0 604928.0 0
391291.0 604357.0 0
401662.0 604039.0 0
398018.0 608346.0 0
408064.0 605375.0 0
403565.0 608735.0 0
412942.0 608174.0 0
417471.0 604644.0 0
422282.0 607193.0 0
429587.0 605780.0 0
434135.0 608595.0 0
440358.0 608796.0 0
448027.0 604307.0 0
452287.0 608648.0 0
456353.0 604097.0 0
464171.0 607844.0 0
469096.0 608839.0 0
474578.0 607443.0 0
479681.0 607425.0 0
484545.0 607165.0 0
489078.0 604793.0 0
493503.0 607274.0 0
497781.0 604989.0 0
1350.57 613085.0 0
5707.11 613927.0 0
10905.2 613393.0 0
17092.3 613619.0 0
22155.1 610471.0 0
28356.6 613250.0 0
32608.8 609647.0 0
37596.1 611122.0 0
42257.3 613813.0 0
46949.7 613157.0 0
52082.2 610145.0 0
62328.5 612900.0 0
66988.1 612730.0 0
73023.6 609320.0 0
78447.4 610209.0 0
89819.8 610089.0 0
87288.0 613591.0 0
94566.8 609784.0 0
97881.3 613856.0 0
104271.0 609653.0 0
108650.0 613403.0 0
116220.0 610162.0 0
114011.0 613878.0 0
119554.0 613312.0 0
128411.0 611227.0 0
134931.0 610889.0 0
139354.0 609059.0 0
138645.0 613539.0 0
147132.0 609943.0 0
143499.0 612503.0 0
147066.0 613717.0 0
151494.0 613993.0 0
162834.0 612281.0 0
167716.0 613596.0 0
173370.0 612679.0 0
177897.0 613682.0 0
181712.0 613201.0 0
187104.0 612476.0 0
193320.0 613468.0 0
198795.0 612475.0 0
202987.0 612296.0 0
208200.0 609656.0 0
207363.0 613995.0 0
212269.0 612887.0 0
217524.0 612394.0 0
222450.0 612517.0 0
227987.0 609157.0 0
226538.0 613683.0 0
231326.0 612469.0 0
236422.0 612724.0 0
241664.0 611415.0 0
247256.0 613250.0 0
253388.0 612307.0 0
258616.0 612660.0 0
262622.0 612486.0 0
267031.0 613005.0 0
270791.0 609190.0 0
273393.0 613566.0 0
277834.0 613701.0 0
282234.0 609308.0 0
281676.0 612818.0 0
286888.0 613194.0 0
292545.0 609866.0 0
301784.0 613150.0 0
306123.0 611956.0 0
310458.0 612919.0 0
318558.0 609876.0 0
327856.0 609162.0 0
331164.0 613511.0 0
337916.0 610076.0 0
346899.0 611486.0 0
356467.0 611262.0 0
362840.0 609327.0 0
368074.0 613561.0 0
373421.0 609720.0 0
382657.0 609546.0 0
384897.0 613928.0 0
388086.0 609471.0 0
393353.0 609078.0 0
394755.0 613392.0 0
400138.0 613429.0 0
404139.0 612600.0 0
408235.0 610311.0 0
413171.0 613524.0 0
418048.0 609740.0 0
422641.0 612165.0 0
426835.0 609475.0 0
431552.0 613064.0 0
436271.0 613788.0 0
446147.0 610588.0 0
459035.0 609259.0 0
462023.0 614042.0 0
473567.0 613396.0 0
484026.0 611266.0 0
479676.0 613097.0 0
488193.0 609904.0 0
492991.0 612725.0 0
497573.0 609590.0 0
2250.37 617482.0 0
23729.7 615383.0 0
28086.2 618616.0 0
33168.2 614998.0 0
38032.4 615609.0 0
47159.6 618949.0 0
51637.5 614873.0 0
56987.6 614138.0 0
63533.6 618216.0 0
71131.7 614216.0 0
68382.0 617843.0 0
75941.9 614432.0 0
72744.5 618811.0 0
77366.1 618981.0 0
81739.1 615272.0 0
87378.5 617987.0 0
92121.4 614319.0 0
103270.0 615295.0 0
107424.0 618597.0 0
112162.0 617958.0 0
117250.0 617856.0 0
124051.0 615963.0 0
128297.0 617230.0 0
133657.0 615196.0 0
137471.0 618537.0 0
142887.0 617766.0 0
147981.0 617707.0 0
157439.0 614092.0 0
162936.0 617364.0 0
167348.0 618134.0 0
172153.0 618550.0 0
177548.0 617415.0 0
182517.0 618116.0 0
186763.0 617510.0 0
190987.0 619117.0 0
197799.0 618294.0 0
203479.0 617240.0 0
208218.0 618518.0 0
213241.0 618014.0 0
218075.0 617444.0 0
222092.0 617414.0 0
225896.0 617967.0 0
230885.0 617977.0 0
236674.0 617946.0 0
242504.0 617360.0 0
248069.0 618792.0 0
252461.0 618447.0 0
256698.0 616956.0 0
261164.0 618927.0 0
266719.0 618805.0 0
272400.0 618182.0 0
277872.0 618946.0 0
283179.0 616925.0 0
288429.0 618639.0 0
290918.0 614367.0 0
296032.0 614835.0 0
301084.0 617744.0 0
307479.0 618061.0 0
314911.0 614345.0 0
319944.0 614910.0 0
325466.0 614474.0 0
323017.0 618997.0 0
335935.0 614050.0 0
332075.0 618405.0 0
341833.0 614659.0 0
351245.0 614337.0 0
347037.0 616568.0 0
356039.0 617092.0 0
361274.0 615425.0 0
368112.0 618629.0 0
373018.0 616912.0 0
378735.0 614184.0 0
382612.0 617741.0 0
386778.0 618738.0 0
389928.0 614630.0 0
392491.0 619025.0 0
397637.0 618263.0 0
402667.0 617968.0 0
407179.0 615172.0 0
411585.0 618483.0 0
418421.0 614434.0 0
422464.0 617524.0 0
427113.0 614716.0 0
432418.0 617827.0 0
437895.0 618836.0 0
441258.0 614516.0 0
446064.0 615786.0 0
451499.0 615330.0 0
457230.0 614760.0 0
462036.0 619147.0 0
467333.0 614908.0 0
477606.0 618177.0 0
482680.0 618228.0 0
487304.0 615348.0 0
492448.0 618113.0 0
497910.0 614562.0 0
497220.0 618522.0 0
5541.4 619525.0 0
10586.9 619318.0 0
17127.1 620103.0 0
22604.6 620132.0 0
33426.7 620447.0 0
38842.3 620385.0 0
42957.4 622143.0 0
53078.9 619837.0 0
58262.0 619416.0 0
82697.4 620174.0 0
92636.5 619490.0 0
98316.2 619386.0 0
102958.0 619997.0 0
121346.0 619339.0 0
125528.0 620161.0 0
132111.0 620756.0 0
153373.0 619400.0 0
158622.0 619425.0 0
293360.0 619246.0 0
297261.0 620715.0 0
313398.0 619285.0 0
318475.0 619677.0 0
327309.0 620011.0 0
337384.0 619495.0 0
342570.0 620608.0 0
351565.0 619766.0 0
346988.0 620543.0 0
359380.0 620684.0 0
364141.0 619832.0 0
372366.0 621361.0 0
376945.0 619426.0 0
406750.0 620189.0 0
417231.0 619719.0 0
427522.0 619908.0 0
443133.0 619498.0 0
448153.0 619577.0 0
452699.0 621106.0 0
457147.0 619382.0 0
466939.0 620208.0 0
472113.0 619574.0 0
488028.0 620433.0 0
POINT_DATA 5000
SCALARS Radius float 1
LOOKUP_TABLE default
5120.0 5840.26 5073.35 5415.48 2356.98 3863.18 6182.6 5492.18 5258.36 5061.3 6810.52 5670.04 4834.9 5085.53 4998.37 3951.75 3642.12 3163.97 5812.43 5906.14 5484.19 7513.1 5254.28 4436.4 5733.48 5580.89 4672.91 3588.44 5645.7 4366.19 5553.16 6110.27 3672.51 5561.06 6044.04 5484.83 5351.6 4715.55 5867.73 4499.64 5013.56 4375.68 5542.27 5122.66 5170.02 3557.27 4688.68 4402.52 4517.56 4182.53 5903.42 3761.32 5176.86 4118.05 5065.13 4940.78 2938.66 4008.92 6716.79 3850.77 4133.88 5546.39 5325.36 5538.89 4730.36 6059.59 5701.86 2720.68 4238.81 3563.63 5054.98 4468.59 6030.06 5325.02 5200.76 4927.31 4862.64 5185.34 4432.58 3968.64 3955.56 5292.64 6166.5 5936.02 3615.22 5305.17 4380.59 7613.27 3936.02 4780.03 3383.4 4665.12 4927.02 4094.62 5945.65 6759.9 7021.47 5926.61 5416.38 4955.55 5836.15 4345.55 5885.03 2837.58 5017.13 5246.2 5279.39 3673.74 5205.43 6684.56 4688.67 7447.37 2635.86 4385.06 7184.19 4290.3 3379.84 4231.61 3942.53 4827.82 3607.45 4951.03 5759.91 4333.2 3038.33 5252.48 5495.39 3856.1 4044.71 5980.74 6483.19 6230.49 5418.62 4601.27 5493.32 5740.68 6051.14 4195.44 3261.21 6704.06 3653.41 3871.88 3856.01 4390.66 5541.59 4124.71 4827.23 6116.18 4911.47 4381.97 4924.6 3255.82 4733.32 2812.98 3867.67 2899.43 2924.37 4861.08 4003.05 5390.22 4805.87 3589.27 4712.33 5227.21 3997.1 3260.67 5529.52 4295.38 4392.68 7199.21 5337.48 6124.89 5708.81 3554.9 3996.0 4015.92 4487.31 5816.2 5109.54 5693.81 4174.52 3829.13 6458.82 7054.71 5489.43 3641.64 5747.75 4277.89 4796.33 5054.25 5539.32 6496.85 4794.96 5600.93 4874.39 5083.08 5728.85 5803.39 6337.56 3998.5 5863.59 4024.3 6257.19 5242.73 4065.69 5603.15 5399.73 4695.45 3888.21 4660.72 6038.78 5697.78 5123.52 4667.36 4091.31 4254.17 5615.42 5255.32 4523.7 6037.08 4382.74 5601.05 4049.23 3586.91 5481.78 4929.8 5542.21 5043.05 4002.16 4138.16 3486.22 4684.5 3091.3 5789.98 6138.47 5527.54 5573.7 4727.62 4055.8 7325.81 5360.19 6425.26 6186.19 4839.34 4484.76 2980.99 4840.01 6834.49 5525.39 5938.34 6394.38 5555.28 4737.14 4686.65 5556.96 6052.7 3921.18 5891.05 3798.62 6902.81 6644.76 6372.62 7565.34 5091.39 6756.95 6324.23 4727.24 4151.94 4685.34 4651.28 4384.42 4516.43 4362.19 3103.0 5637.59 4948.92 3115.91 3307.12 6084.86 4937.14 5478.92 5924.89 4778.34 5551.36 6894.71 4414.54 2540.31 6029.66 6302.8 5697.4 4270.95 5206.78 5555.88 5280.17 5143.58 5028.96 6362.12 5152.36 5611.2 7933.0 5173.87 4455.12 5380.13 5711.87 5118.27 5169.36 5834.74 5788.23 5581.75 6392.01 3666.57 5308.1 4937.02 5629.19 5090.24 4786.6 2240.39 5923.5 5096.78 4612.68 5293.9 4129.43 3320.52 6142.94 3843.58 4931.38 4736.58 4329.05 6082.81 5110.37 5927.43 6355.42 3693.63 5690.56 4493.48 5762.84 4749.8 5810.84 5094.44 4467.94 4850.81 6038.14 5120.49 5262.61 4306.53 5409.61 5094.81 6038.2 4005.44 5713.22 6732.43 3183.98 3866.16 3794.63 3778.1 4524.28 4511.82 5826.64 4220.65 6820.42 4816.2 4894.16 4896.52 3372.79 4941.22 5932.23 5791.61 4479.66 3369.13 5367.2 3043.85 5461.13 6730.19 4907.89 4907.06 5655.21 3735.44 4073.93 4645.41 5740.84 4433.59 4973.83 5530.87 4310.18 3912.37 4281.49 6342.25 4602.25 6691.39 4270.53 4194.5 5191.63 4501.51 4792.73 5513.6 3485.26 4556.36 3240.09 5664.98 3191.99 6327.9 4048.37 4659.59 5492.26 4220.88 5244.78 3937.74 6640.13 5478.47 5082.6 6142.37 4230.54 3748.24 4655.49 4933.21 5375.47 4566.18 4723.12 4964.09 5201.36 4809.42 5024.9 5659.17 6135.57 5972.06 4312.67 5861.71 4270.24 4359.04 5017.78 5015.69 6175.81 4727.24 6677.09 6959.81 4829.35 5201.67 6321.41 4089.76 4751.02 5184.56 3192.41 5282.64 4987.87 4715.72 4669.66 4808.52 5607.24 3599.45 4726.76 5839.13 5495.68 5163.9 6043.3 5952.75 6445.94 4320.28 5542.14 4218.06 7134.64 4790.08 5082.47 4840.84 5344.25 5344.0 4593.7 4043.57 4478.15 5379.87 5925.6 6013.14 3708.04 5138.31 4901.41 4621.75 5264.06 3688.8 3369.23 4548.16 5449.18 6519.71 3092.35 5210.03 5351.39 6061.47 5119.37 6163.38 4997.27 3459.9 4093.08 5543.27 4717.05 5287.2 4234.94 5998.38 4562.29 5423.8 5013.13 5080.66 3417.33 4989.15 4926.42 4164.13 4642.34 4520.1 4947.52 4305.57 5874.89 5813.4 4389.21 3791.79 4424.7 4754.05 4925.44 5526.55 4951.47 6084.93 3315.57 5215.15 5804.71 4764.96 5046.33 5020.12 5727.3 5053.92 4242.52 6352.26 3057.03 3847.38 3818.59 4863.72 5489.34 5002.48 5708.14 5537.72 4931.53 6332.36 6122.55 5480.13 5978.9 6308.71 4187.56 3629.62 4997.27 5135.69 4301.06 3456.98 6045.46 3815.26 4763.45 4150.99 4107.03 3771.48 5681.38 5198.77 4138.42 5147.67 5987.17 3979.82 4602.86 2765.2 5006.58 4581.13 4219.07 4551.24 5358.59 3610.4 4515.71 6387.01 5367.52 4322.15 5025.39 4714.54 3629.96 3320.11 5030.91 6022.17 3982.23 4583.31 4503.89 5806.08 4336.42 5243.29 4853.39 4449.22 5628.24 5856.11 3327.49 4109.88 3960.8 4980.85 5714.58 5110.45 5248.77 5208.32 3296.27 4083.97 4607.02 5153.74 3895.51 4528.09 4293.03 4165.81 6291.51 4128.98 5882.89 6246.22 5246.61 4307.28 3697.96 4739.42 5538.93 4899.11 4745.45 5281.28 5356.51 4277.88 4087.15 4143.08 7500.97 4262.82 6623.85 3920.42 5102.36 8332.24 2739.94 6155.31 4223.33 4716.19 5911.67 5514.76 6405.76 4290.14 4020.32 4877.67 5445.87 4245.72 4216.92 4177.94 4704.72 4571.7 4742.68 3929.19 4502.5 4271.69 5922.5 3970.25 3633.87 5643.58 4292.06 5577.04 5011.31 6318.18 5586.81 4481.53 3948.17 3856.59 4746.52 5413.79 6338.89 6202.55 7111.16 5893.5 3817.13 4547.19 5507.24 6851.54 5570.3 4306.11 3402.32 7589.94 3130.65 5004.67 5365.89 5992.26 5070.39 4923.9 3329.99 4973.78 3947.47 5091.68 4713.25 4204.84 6243.0 6673.96 3556.85 3161.47 5441.96 5174.89 3435.9 4288.3 5370.52 4188.32 4100.38 5774.81 5344.77 4723.48 5027.98 5097.87 4278.07 2631.9 7267.18 6255.18 4668.71 4758.21 7228.46 3948.23 5228.18 5787.31 5065.11 4342.9 4553.56 5329.64 6695.82 3323.28 5709.62 5835.78 6562.18 3498.2 4541.21 5908.1 6048.7 4344.58 5896.46 5634.83 5495.84 5782.6 5113.21 4862.21 4011.77 4527.08 5499.11 5347.48 2775.04 4138.46 4850.01 5215.05 3821.72 4986.77 5137.34 5330.45 5077.33 5423.0 3689.45 3824.16 5572.95 6723.16 5584.06 3686.21 6480.17 5023.15 3844.9 4377.07 3695.36 5101.59 3963.86 3813.22 3848.93 6020.48 5935.47 5903.66 4528.49 5419.37 4466.03 5409.33 4511.54 4898.94 5196.0 4613.31 4733.04 6119.09 5788.66 7531.29 5069.25 5048.89 3991.03 6390.78 7435.25 6826.57 4652.29 4495.87 3746.31 6022.72 5498.32 5527.33 5346.27 6475.1 2691.29 6256.02 5320.92 6362.14 4406.1 5034.59 6719.88 5978.82 3927.99 5069.84 5868.82 6049.55 4050.9 4051.44 4241.89 5054.74 5941.72 5794.24 3066.13 4127.74 2476.04 4302.5 4156.38 6009.88 6006.16 5316.75 4164.68 5022.8 6268.1 3784.5 4178.4 3719.84 5820.48 7034.11 6261.42 2586.12 6125.34 5965.78 4374.35 6396.74 4810.12 6898.19 6035.6 5198.29 4044.45 3975.31 5344.43 5125.78 4373.47 3868.18 5045.38 5350.88 5372.61 5130.91 5402.24 4519.22 6445.22 4564.34 3838.56 4871.44 5076.35 6375.99 5200.05 5273.35 5234.29 5313.66 2651.49 4645.58 5512.23 5275.32 4711.62 5985.29 4247.23 4178.15 4268.65 4694.83 4354.08 5509.42 4520.62 3903.75 4755.47 5935.03 4485.99 5475.8 5314.69 6050.81 5543.46 4788.87 4249.46 5965.81 3702.37 4643.31 2330.66 4177.19 6917.52 4969.21 4880.14 2845.98 4982.31 5289.52 5269.18 5314.85 4305.43 5450.44 4942.77 5080.18 5266.5 4454.63 4523.88 4066.38 3279.1 4978.31 4099.77 4414.48 4981.9 4537.32 5991.09 4656.78 5105.16 4678.38 5448.61 5050.65 4827.33 7055.53 3937.08 5513.57 6133.92 5013.67 5729.23 5669.65 5934.22 3780.23 3471.03 4359.62 5253.55 5011.84 3745.84 6946.21 5433.8 5975.63 5252.34 2965.79 7099.43 5526.14 5315.4 6449.45 3627.82 5262.19 6070.58 6034.41 5452.83 4959.34 4948.5 4527.02 4591.87 4531.14 4247.15 5013.42 5651.07 6248.81 5872.05 4853.02 4091.8 6259.23 5181.4 5670.2 4114.24 5349.31 4649.22 5394.55 4256.43 5094.52 5936.36 4946.74 2682.24 5928.32 5229.48 5475.7 5127.16 4016.18 5435.74 4244.99 5327.45 5560.26 6185.89 3997.96 4750.17 5660.85 3990.25 3691.0 4752.51 3758.07 3587.05 5402.21 6229.37 4989.09 6718.19 4307.48 3848.54 5941.4 5331.02 6510.17 5742.65 4263.33 5592.32 5912.61 4403.98 4948.98 4560.84 5227.52 5163.02 4729.43 4092.24 4562.74 5126.91 3942.07 5133.97 7443.72 5371.02 5260.34 5206.48 6586.45 5826.04 5624.49 3095.48 4861.06 5339.78 4166.08 6481.79 5960.66 3979.26 3999.48 6608.73 5188.81 4203.26 5696.88 6057.22 5690.26 4156.2 5062.71 4497.59 4289.17 5564.02 4274.61 4410.55 6444.77 4287.63 6314.07 5776.37 4516.28 4190.31 5678.96 4244.9 4285.32 5490.43 4986.51 5022.28 5197.52 5178.99 5383.07 4790.78 6422.84 6552.22 5379.09 4602.85 5210.48 4962.77 6101.92 5323.3 5088.44 4998.21 4662.56 3457.48 5166.79 3405.98 3931.07 2976.22 5417.15 3688.16 4681.72 4945.39 5996.33 3950.63 5415.19 4612.62 3619.07 5526.75 4467.04 4275.57 6385.23 2983.99 6363.92 6205.93 4439.35 3460.94 5830.72 6184.4 3828.81 4373.45 4236.14 4407.87 5733.62 5282.51 5282.91 3797.33 4425.84 7256.35 4871.96 4800.69 4863.23 4402.67 5381.16 5565.13 4470.61 6193.35 6086.96 3701.27 5233.78 4806.34 5776.57 7144.24 5683.26 3600.43 5598.74 6600.94 4788.58 4709.35 6155.1 6496.67 5876.71 5226.0 4373.3 5762.59 4750.78 5374.51 5320.28 5224.12 4850.14 4569.12 4298.67 4796.58 5873.69 4962.09 6222.42 5654.31 4730.41 4643.85 4004.04 3923.03 5082.74 5607.14 6915.83 6072.45 4027.46 4470.98 5759.46 3921.08 7055.42 5486.68 6048.86 5100.25 6894.26 5311.03 5339.38 6169.11 5615.35 5172.53 4027.09 4135.62 4502.18 5801.99 5534.94 7552.94 4051.34 3627.55 6239.84 4635.6 4256.67 6079.11 6430.39 7440.72 3949.6 5703.6 6326.18 5661.62 6631.19 6648.68 5626.61 4713.74 5407.78 5817.25 4084.49 2614.4 5061.98 6632.99 4537.6 4923.24 4419.61 7177.44 5309.98 4082.57 5255.18 5169.9 3004.16 4460.92 5945.89 4042.28 4105.55 4340.76 6566.1 3555.86 6065.22 6386.78 4996.99 4631.83 4384.88 6887.27 6008.49 5653.9 5046.21 4906.82 5894.61 5687.83 5131.24 5004.23 5196.67 6442.69 6320.71 5474.8 6262.72 4648.04 5029.78 3664.11 3365.82 4123.6 4163.5 7092.87 4538.95 4970.88 6739.08 7042.12 4471.58 3637.61 5463.38 6098.14 4472.17 5750.71 4938.74 5470.77 3474.39 6062.05 4831.47 4735.33 5411.85 3999.94 5092.37 4844.57 6171.13 4864.22 2395.5 3901.8 5511.88 5083.41 4512.11 6248.6 3836.45 5683.61 5805.86 4049.02 5346.68 4470.4 4611.53 5255.12 4285.66 4896.11 4238.4 4318.48 6132.95 4860.33 3685.13 7644.38 3312.06 6004.68 3361.26 6799.4 4409.63 5865.39 4427.28 3661.9 3082.32 5370.85 5949.46 3658.37 3178.54 4765.02 5376.71 4448.13 5070.29 4807.28 4867.08 2261.36 4266.03 5280.69 5075.55 4220.03 6923.84 5449.46 6179.96 6113.54 5147.36 6260.79 3963.76 4563.46 5528.53 6553.94 5726.66 5460.65 4767.78 5235.17 4779.5 4421.12 4435.36 5254.49 4221.28 4456.39 4896.39 3633.79 6081.14 5480.83 4220.46 4607.85 4287.53 5612.21 4929.14 5945.08 5139.5 7493.3 4814.55 5833.06 3527.05 6607.87 4143.78 6515.84 5965.15 5724.64 4925.63 4763.66 4888.6 4666.81 5078.86 4797.52 4780.2 6326.39 6643.85 6343.14 5501.93 4020.95 5462.21 6313.06 5945.21 6345.13 3493.7 6470.3 4200.03 4719.7 6939.12 5516.95 4406.4 4413.85 3905.51 6853.85 4020.4 3497.9 5941.61 4933.65 6098.1 5708.99 5443.58 4558.46 5687.85 6401.43 5020.71 5296.29 5997.88 2681.29 5094.48 5839.71 3872.61 5576.92 6408.83 3930.79 4004.35 5266.22 5226.97 5754.18 5180.76 3418.99 4480.95 5278.36 6218.95 5521.25 5107.23 5136.08 5558.68 3776.94 4010.57 5629.39 2684.03 6157.04 4768.61 4522.21 5506.19 6719.94 4950.67 5227.59 6166.29 5453.6 5703.07 5294.77 4662.43 4709.05 4043.66 4630.82 4813.08 6799.88 3062.43 5426.78 2967.38 5652.0 4159.35 5463.41 5225.33 4237.98 4929.75 6045.22 4614.3 6649.96 5134.39 4303.19 5514.84 3914.2 4256.57 5421.53 5937.08 6070.3 6000.7 5128.57 5604.21 3979.54 3169.67 4968.03 5304.13 5944.09 5490.58 4863.79 5698.77 3464.83 4702.06 2477.07 5117.47 2990.77 3163.78 4721.32 4305.16 3293.56 5882.65 4918.77 4739.14 5163.55 4636.5 6817.32 4819.73 3382.7 6471.55 5085.71 2965.01 6263.44 4319.79 5960.56 4863.27 5774.97 5122.63 5862.86 6049.79 5374.98 5226.56 5274.19 5599.49 4097.57 5313.22 5017.5 5563.79 5328.22 4151.76 6484.17 3493.47 4721.02 4596.75 4254.37 5782.48 4031.78 3374.08 5564.23 5950.04 4231.83 2435.33 6333.29 4558.47 5731.57 5662.55 5737.92 4360.23 6234.32 5365.24 5293.51 4763.96 4446.06 5008.63 3450.93 4270.74 5132.68 6595.03 4993.35 4983.39 5222.16 5366.52 5533.72 5533.42 4802.32 4599.38 5246.47 4187.31 6191.29 7422.36 5161.01 4298.15 4628.4 5832.37 6051.83 4642.93 5409.63 4263.16 3077.84 6024.75 6109.49 5860.67 4540.86 5990.52 3764.1 4835.83 5604.35 6477.91 3091.67 6439.37 4081.97 5401.99 5580.92 5784.3 3532.3 5769.98 6088.68 3583.21 5442.32 2221.99 4643.56 4135.08 5620.74 4863.01 5233.29 5356.79 4778.82 4312.56 5204.04 4612.06 5467.84 3361.92 4750.58 3306.14 6710.88 5395.14 4923.41 3967.48 4497.31 6213.04 3830.46 6413.11 5092.28 5529.42 5274.14 4434.19 5100.1 4903.82 4940.42 4371.99 3954.91 3703.1 4946.42 5923.4 3295.83 4963.34 5499.39 5644.82 6413.02 3492.19 4118.84 4584.5 6766.43 5548.29 2315.64 5916.16 4703.08 4390.41 4890.5 6113.95 3731.84 3981.07 4050.08 5452.42 4901.07 5186.3 3436.15 5711.11 4216.17 4575.94 4938.72 3546.71 5768.57 4188.87 3735.24 6574.95 4074.48 6817.57 3614.96 4477.04 3886.68 5703.74 4747.55 3056.7 3755.95 5591.76 4585.31 4586.19 6625.18 5323.91 5097.45 6293.89 5737.75 4558.15 2761.07 3778.02 6552.21 4690.55 5417.8 5146.37 7132.12 3678.08 4836.16 5518.57 5151.11 5463.48 3240.51 5730.33 4527.99 5545.46 4543.1 4376.7 5190.61 8325.01 3764.06 4440.81 5941.9 3973.12 6642.76 5829.22 4497.78 5567.93 5987.42 5332.65 4442.22 6451.33 5413.31 6316.56 4332.87 6420.81 4715.58 5208.14 3317.83 4450.7 5151.52 5973.33 4347.74 5291.9 5067.46 3580.58 2511.46 4011.37 5657.36 6124.08 3619.79 5029.47 5053.95 6667.68 5235.11 5211.38 6031.67 5384.76 5257.12 6138.12 4428.78 4965.89 5746.28 5187.7 5659.95 6090.91 4152.85 3561.29 4082.47 4623.61 4219.78 4188.3 4453.64 5081.78 4459.28 5019.93 5235.29 4260.92 6116.33 4479.94 6250.23 4407.9 4440.57 4718.54 6235.57 5412.31 5203.08 3623.87 3087.09 7480.41 5163.77 6934.37 4488.85 3423.15 3554.48 4579.69 6496.52 5005.85 5966.61 4893.49 5325.44 5102.75 5021.88 4597.29 5956.65 4200.09 4498.25 5931.77 5151.21 5108.06 5398.64 3573.73 4693.52 6853.04 3420.08 4745.43 5831.96 5464.68 4539.07 4475.83 2685.81 4510.8 5889.35 5010.04 4394.56 4570.98 4275.07 5825.38 4185.61 4047.87 4573.72 5742.47 4917.99 4367.78 4350.12 5227.02 5670.0 4232.16 5300.96 4344.51 5680.94 3781.77 5581.55 5193.01 6550.44 3474.5 3860.83 5732.27 4523.39 5278.56 5434.47 6917.62 5631.14 4243.79 5811.18 4343.78 5433.65 4008.15 4887.76 4669.06 4811.32 3012.99 4286.49 6400.08 4743.59 5829.32 4396.25 3763.05 5092.24 5369.08 3101.75 4518.04 4766.06 4009.62 4874.18 2081.58 6505.78 2775.69 4785.25 6519.43 4270.15 5876.64 6306.21 5424.46 5926.11 5266.01 5253.37 5767.9 2978.76 2040.66 6622.11 6515.8 4689.15 3685.13 6790.73 5243.43 4655.16 4741.26 5920.32 5409.66 4537.14 4186.6 5551.9 5251.4 4345.67 5511.6 3885.86 6261.75 4517.73 5177.64 4338.08 4752.14 5660.16 4255.31 4541.8 6134.99 5453.3 3838.47 2588.37 4062.5 5887.15 6736.03 4435.51 5374.07 8659.64 4588.7 3766.55 5683.95 6027.62 5469.13 5010.2 5765.42 6123.03 6098.95 4997.83 3991.42 4388.63 4834.87 2216.82 3672.21 5760.22 5938.17 4795.43 5097.95 4914.45 4222.4 4698.87 4000.43 4661.03 4568.41 3624.7 4912.04 5262.35 4691.91 4255.34 5064.79 5480.3 7509.24 5896.26 5388.78 6101.13 5099.21 5599.7 4163.74 6969.28 5636.4 3665.95 5698.96 4095.75 3603.51 4298.45 5222.51 6609.84 5135.96 3834.43 5658.37 4707.06 6074.94 5491.37 4250.88 6348.03 3783.54 3475.67 4792.39 7038.89 5146.37 3863.67 4814.12 4013.38 5067.56 6137.8 3352.35 2735.53 5263.3 4909.65 3747.03 6523.86 7693.4 4326.48 4437.07 6184.88 3449.37 5491.9 6405.0 5551.95 4659.16 3918.87 5549.49 4633.05 5423.42 6605.86 5012.5 5435.19 5461.55 3562.79 3298.2 6865.76 6449.64 4857.84 4908.49 7016.27 5884.9 5089.62 3468.42 3685.65 4590.55 4673.35 3876.21 5869.4 4916.22 3701.16 5297.19 6022.7 4255.85 3867.19 4765.72 5097.69 3988.3 5857.79 2908.7 3757.34 4039.91 6415.61 4378.3 5276.7 4687.64 4419.71 5411.02 4950.97 4989.56 5037.06 5175.29 5842.56 4094.73 5199.44 5191.08 5424.88 5415.85 7234.66 6599.66 4055.54 6419.12 4233.8 4976.12 4817.16 5453.98 5148.08 3718.69 6192.0 4514.79 4940.28 4509.89 6752.75 5269.38 3004.34 3022.6 5607.3 2928.82 4811.76 5313.12 5351.56 3984.88 5318.53 5160.59 4732.09 4281.98 4320.42 7165.9 5344.83 7046.11 3427.63 4146.81 6342.48 5756.75 4587.67 5951.81 3924.14 6918.35 4296.69 6238.32 3319.67 6471.42 5283.8 4076.59 5164.1 4428.14 6464.15 4479.11 4972.17 6685.4 5699.53 4222.77 6332.01 5268.38 5527.23 4805.33 5980.95 6193.08 6069.3 5887.01 5116.6 5168.35 5388.39 2783.85 4356.49 4526.81 5335.47 3994.07 4219.94 5907.46 6740.71 4264.91 5399.29 5789.55 2275.45 5971.22 4901.2 6522.59 5711.62 4383.56 4990.79 7093.13 4953.1 4516.53 5818.95 4093.99 3940.49 4962.21 6464.8 4749.59 4684.44 4680.94 4858.44 5799.69 5571.72 5689.26 3809.69 4771.13 4992.42 7051.9 4940.84 5895.77 4608.41 4184.23 4732.09 4833.46 5750.07 6136.49 6543.13 4642.66 5149.72 5036.58 5469.47 5329.59 4888.12 6119.63 5464.25 3498.16 5439.9 4244.21 4752.9 5512.16 3197.63 4287.16 3645.12 4617.55 4863.96 3456.47 5471.74 6200.54 5148.58 4199.45 5421.64 4858.51 4207.54 4886.12 3375.28 5625.65 4301.61 6107.89 3184.64 5206.33 4446.84 5660.55 5530.49 5065.26 5653.03 4304.41 5578.94 7610.49 5885.28 4286.17 6579.31 5323.55 5375.1 3804.5 4172.6 5498.42 4196.37 3344.57 6448.66 5220.76 6945.98 5138.2 5783.48 4701.5 4449.98 4504.35 4863.97 4771.65 4840.44 5093.82 6639.64 5212.43 5454.12 4834.3 6348.54 6804.79 6372.13 5369.5 5404.01 6016.19 4124.49 3230.13 5714.25 5325.96 4850.06 5016.02 7044.29 4234.18 7085.01 4049.16 3936.95 6153.94 6836.82 3862.77 4631.99 3185.39 4740.98 5128.77 3728.18 5633.61 5048.19 4243.26 6799.23 4888.27 4592.15 6487.56 4854.11 4998.22 5533.19 4909.31 5417.21 6602.43 4798.17 3568.28 5425.98 5166.79 2895.63 6479.39 4122.92 4997.91 5079.22 4599.81 3604.14 5381.54 4452.54 4406.05 5828.35 5089.1 4028.32 5876.72 5236.43 3208.96 5285.07 3858.06 4680.14 4144.57 4351.38 5550.75 5933.7 4809.67 4757.74 4356.25 5776.96 6045.67 4216.95 4209.49 5742.74 3946.28 3821.94 5984.81 4209.31 5486.48 5301.47 4409.27 5367.73 4947.24 4640.06 4588.99 3875.05 4321.21 3540.11 5950.45 4344.34 5713.03 4652.01 5849.65 3548.39 3583.49 3673.28 5052.84 4366.74 5297.16 4165.21 4603.5 4936.96 4647.67 4481.76 5375.12 5452.78 4356.36 4892.44 6789.23 3989.7 4157.29 4777.03 4246.61 3684.56 6028.09 5327.75 5452.36 4609.02 6486.37 4638.18 5211.6 3556.79 5806.31 4453.97 3503.41 7317.04 6412.67 7001.83 5012.97 5589.37 5439.49 3687.65 5216.26 4887.52 5478.95 3851.85 4066.57 5642.35 4206.98 5156.76 6357.47 4891.38 6101.57 5535.91 2949.12 5955.86 4532.89 6176.67 4533.37 4848.46 5412.24 2779.99 4581.37 4920.21 6942.34 5851.61 5478.11 5526.31 3858.17 5030.15 3477.1 3644.78 4078.93 5934.82 4501.78 7122.87 3572.94 5797.36 5001.58 4153.84 5119.86 5089.26 5084.17 4901.44 3776.8 5096.43 6156.21 6104.26 5583.61 6063.64 5996.66 4986.71 7382.3 4405.42 2995.67 4022.56 3598.08 5522.21 5698.23 5810.77 2711.19 4714.83 5474.15 7519.2 4884.59 4099.92 5217.95 6355.68 4478.6 4083.79 4511.7 4187.94 5980.59 4304.63 6834.41 5021.77 7248.4 6226.14 5466.33 5280.12 4801.8 7216.98 4444.97 3000.29 5046.12 5721.05 5271.02 7013.17 4247.69 3805.67 5718.28 4514.39 6242.79 6506.86 5088.57 5580.34 4928.27 3852.6 5134.67 5775.31 3332.49 4706.5 4215.0 5354.66 3566.79 4214.44 3629.44 5378.23 4787.97 5374.67 3746.36 4981.43 4741.28 4215.2 5069.89 2856.55 5107.0 6212.15 6813.72 4783.07 4946.23 4896.65 6083.28 6100.73 4745.79 5456.71 4908.75 3971.08 6204.65 4482.9 4593.7 4349.13 4036.91 4891.67 5110.11 6379.14 3634.5 6631.28 6571.31 4392.65 6318.23 4058.87 5174.75 5932.07 4984.46 5948.71 4793.65 3856.53 5460.89 6040.74 5260.85 5742.09 2884.65 5887.38 5807.46 4648.21 4393.16 3658.05 4549.69 3311.29 6423.81 6192.77 4312.15 6418.11 6015.02 4922.49 5585.14 7039.98 4820.17 4729.42 5244.98 3886.72 5415.45 6592.93 6350.71 6436.74 2460.79 4456.11 4653.83 6171.71 3628.89 4668.88 5027.43 3772.3 4855.01 7300.58 3608.06 6208.9 4923.57 3340.09 6633.61 6061.63 4867.7 2279.05 5484.36 4829.35 3953.55 4075.28 4063.9 4469.54 5263.27 4314.56 6300.92 3796.15 5161.1 3928.53 4173.54 5599.29 5606.51 5740.65 6038.68 3834.47 5067.56 2596.96 4807.4 6329.53 4350.15 4590.01 4139.3 6541.45 4601.74 6101.86 4263.78 4227.41 4750.49 5078.31 5993.0 4803.57 5391.48 5966.42 5131.15 4110.59 5210.38 4847.14 5717.8 3950.27 5116.66 3683.86 4918.76 5003.78 3299.24 6246.56 4061.6 5473.72 2603.64 6214.73 2205.51 4553.68 5361.87 3703.49 6502.97 3758.22 4757.2 4852.58 3205.68 4532.7 5561.74 5975.23 4788.08 4198.94 5470.04 4211.82 6556.26 5684.25 5438.92 4244.49 6550.4 5036.98 3766.69 5513.8 6818.91 3503.65 4521.75 4027.63 5569.2 5350.88 5420.67 6413.15 6103.11 5048.55 6459.51 4024.31 4955.16 5844.72 3992.97 4147.31 5989.05 4054.22 7228.94 5393.65 4961.99 6551.93 4595.12 3110.13 6484.43 3485.54 4625.67 4458.64 4583.52 3657.69 3492.83 4883.63 6280.13 5244.22 3684.15 5832.29 4438.76 6456.58 4159.81 4960.64 3965.3 5792.98 4385.81 4034.05 5690.96 5798.38 3862.91 4125.9 5096.24 5039.12 3908.98 3419.87 6589.82 4824.81 6328.42 7307.21 5522.75 3381.82 3619.72 5867.64 4438.58 6059.93 5602.53 5073.02 6545.43 4277.24 6760.92 4989.2 8137.11 5291.05 6650.77 4619.2 4067.96 4824.12 5166.41 7104.73 6162.3 6349.67 4264.54 3516.27 5261.19 7043.44 4263.65 4643.9 5228.75 6047.14 4923.43 5467.63 5009.83 5666.95 4642.2 4127.53 4811.22 5210.75 4474.83 6555.44 5293.75 4208.41 5730.61 5826.78 4508.18 6358.93 5175.89 3894.64 6618.21 4268.19 5232.85 4374.74 3717.47 4062.56 6200.63 4504.86 3217.67 4473.29 5079.64 996.652 6163.54 5212.37 6003.78 2628.22 5965.58 5058.51 4901.29 4050.03 4775.04 5188.53 4120.07 4882.66 3429.57 5410.33 4642.74 6735.97 5305.59 5416.45 4330.58 5754.6 3288.01 4904.51 2202.77 5751.15 5950.88 4149.55 4441.22 5853.89 3380.69 4140.4 4386.8 3639.44 5446.4 4725.01 5966.75 5510.9 4505.28 4971.29 5510.45 4730.14 2606.51 3994.39 6006.89 4618.73 3814.65 3668.93 4128.1 5372.82 4983.3 4402.17 7778.01 5127.82 5124.17 5805.1 5366.11 4064.58 4234.88 4384.28 5769.14 5944.3 3563.14 5135.5 5347.9 4646.51 5640.72 4565.93 5851.63 4504.52 7107.63 4831.93 5788.97 3472.91 4928.85 4023.93 5868.89 4711.04 5484.32 5007.21 7144.05 4506.18 2970.9 4099.26 5206.47 6542.5 4383.47 4834.39 5971.21 5701.75 3272.75 5262.47 3104.96 3512.94 4991.35 3831.52 4587.7 6106.43 4258.98 4807.35 6761.81 3903.91 4568.64 3919.62 4929.6 4368.28 5750.35 4489.99 4548.45 4658.11 4551.26 5658.14 5114.07 4385.49 7124.45 4383.68 5064.67 5836.26 2617.39 5144.44 4051.18 5969.37 6816.66 3844.54 5034.69 4509.46 3538.53 4680.69 4420.11 6500.49 3352.34 4972.18 4607.18 4124.76 7200.89 4813.33 4952.52 3840.21 6746.66 4954.76 3908.56 4844.83 5244.78 3636.15 6114.89 5135.63 6384.7 4355.83 6870.97 5351.86 6056.87 5474.01 6201.86 7554.58 5166.89 5491.63 5725.37 3868.62 5138.33 3743.76 3425.69 6711.21 4236.86 5393.76 4941.02 3864.92 4983.1 6119.99 2955.36 7123.04 4009.24 4446.58 5401.4 5053.15 5910.86 6239.68 7320.78 4834.44 4439.71 5782.43 4456.26 5113.6 4027.33 3873.92 4810.98 5091.22 5026.76 6282.38 4546.44 5657.55 5727.79 5212.92 5615.84 5043.14 4464.73 4717.73 6440.38 5556.0 3274.85 5545.59 5494.28 5610.53 4954.81 6304.49 4580.06 5755.15 4835.97 3926.11 5493.89 4057.17 7066.96 2781.96 4467.0 4431.23 4994.65 5917.34 5601.55 5196.92 4462.87 3787.08 5644.81 4013.86 6545.99 5334.36 4728.55 5630.9 4554.68 4512.07 4692.32 5984.8 4945.0 3127.83 4212.15 5678.58 6570.35 4263.18 3269.54 7142.95 4559.74 6015.22 6666.67 6063.44 4583.94 5046.31 4928.35 1937.5 5241.75 5849.53 4731.53 4651.99 3763.9 4788.7 5863.0 6127.39 5640.12 5329.76 3899.7 5078.59 2403.72 5134.33 4147.49 4802.98 4833.55 4081.34 3646.95 7224.99 6334.53 4749.96 5377.37 5652.87 5483.7 5018.69 3152.86 5952.38 3896.27 5973.89 5807.52 5963.36 5230.02 5307.35 4342.18 5169.48 6016.08 4731.21 3124.7 6064.71 6102.98 6060.17 5153.18 4763.4 5902.67 5454.11 3779.45 5806.61 5784.37 6010.59 3682.35 5906.57 3756.96 7541.76 4775.49 4681.29 3220.29 5499.59 5749.6 3845.9 4141.21 4174.44 5667.51 4708.31 4198.9 5431.29 4833.67 5023.41 5325.91 4092.07 4213.05 4224.3 4184.21 6203.03 4700.07 5235.87 5188.82 5273.37 4732.37 4985.3 3904.07 5072.5 5713.36 5748.9 5553.94 3663.0 3742.31 4546.96 5424.55 5134.72 4608.34 5695.79 6419.64 5464.83 3622.8 5414.58 5577.41 5740.98 4346.07 5759.79 4177.47 4218.16 2918.64 6139.64 4140.92 4896.43 5236.24 5463.06 4639.8 4585.04 3986.41 5260.52 3185.09 5114.23 4242.63 5495.0 7407.91 5064.23 6061.85 4454.74 5512.44 2904.46 4826.52 5120.92 4337.32 4685.4 6240.42 5146.0 5721.14 4577.73 4987.28 5084.5 4918.64 6638.25 4759.99 2646.13 5419.57 5162.67 5760.98 4705.68 5469.35 5384.86 4019.34 4658.24 5869.67 4311.48 4899.73 5457.66 6394.19 4848.14 5366.22 6193.73 5518.11 5087.14 3742.11 4192.21 5712.35 5701.52 4743.9 6776.22 5321.17 3719.11 4467.13 3877.8 6273.6 3667.93 5136.87 5024.32 4708.17 2741.2 5790.42 3142.09 5591.77 5182.13 6110.48 6245.52 4932.29 4990.23 3954.77 3784.94 6016.87 3125.13 6715.73 4564.41 5209.55 6331.74 5951.86 4252.18 4659.88 3791.41 5853.12 5157.38 4208.37 5702.4 5069.9 5473.89 6089.45 5810.17 4966.07 4657.24 4400.14 4749.18 3669.32 4704.92 4762.1 3987.69 4316.0 4287.25 4392.75 4921.1 3814.16 5287.25 4420.6 4475.38 4589.06 4770.51 4920.88 4184.47 6511.37 4216.44 3999.5 4012.92 5034.05 4598.54 5218.42 4816.51 5345.73 4933.49 4770.63 3990.94 4756.8 4357.11 5477.8 4462.35 6069.78 4241.68 6102.49 3469.18 2945.34 4095.83 3372.95 4489.29 4301.93 5846.95 5268.15 5819.0 6449.06 4924.07 3200.6 4629.02 5914.5 6006.16 4288.45 5407.96 6206.98 6562.03 4815.47 4368.12 4365.58 5214.4 4636.53 3629.49 5766.05 5117.64 3835.81 3916.42 4869.48 3623.19 4906.11 4387.39 4745.16 4564.1 5825.55 5509.51 5719.79 4316.5 3199.4 5254.24 4914.03 3597.43 5086.29 5144.56 4158.91 5311.55 3360.86 3034.16 4869.25 5049.99 5545.21 4333.87 5684.05 5638.7 5813.79 4644.88 4028.22 5293.13 7350.26 3768.46 5167.53 5003.3 4168.52 5800.81 5106.46 6793.1 5166.05 4506.66 5077.29 5515.73 4850.5 5426.4 5866.91 5763.05 5129.68 5357.39 5076.84 5247.01 4841.7 5685.74 952.938 6740.35 4678.7 3450.07 3673.6 5265.21 3306.84 4550.92 6215.87 5191.26 5866.42 5544.27 3484.81 6502.99 4666.12 6219.34 4271.07 4191.01 5674.63 5340.05 5995.4 5890.25 5700.79 6710.14 4726.2 4426.02 4711.15 5188.22 3825.48 4841.23 2804.54 5005.6 4176.32 5486.89 7208.19 5532.75 6949.65 4975.85 5695.25 5676.61 5716.42 5701.63 4620.95 6347.72 3460.93 4488.39 5124.86 4927.73 4602.57 3565.32 4608.62 4071.75 4626.72 5131.77 5549.71 4410.82 6443.99 3889.98 5193.58 5399.43 5695.44 3422.21 5429.3 5510.96 6653.07 5532.72 4697.91 3220.8 4584.81 5071.98 4371.08 7261.51 4968.14 5949.73 4312.48 5527.13 5139.18 4278.57 5551.43 6318.25 4201.03 5001.87 4493.79 4279.44 4899.19 5058.34 3918.94 5575.11 5487.63 3852.82 4507.36 7145.73 5403.97 4795.08 6562.92 4068.31 5501.73 3671.06 3612.44 7035.54 5233.76 4683.28 6405.69 2820.07 5679.74 4825.73 4851.18 4165.36 5288.33 6296.54 4871.77 5797.21 6019.35 6028.63 5927.2 5146.1 6485.77 6060.06 3869.39 5960.5 5308.33 6896.55 4685.65 5377.01 6023.07 6470.23 6506.63 4140.04 4668.8 3495.3 5125.17 5322.11 4697.49 5735.08 7133.44 4750.81 3953.26 4474.39 4658.59 3810.68 6478.35 4196.62 2809.19 5453.77 4916.7 5589.53 4549.51 5025.42 5196.08 3587.93 4517.29 4495.75 5323.95 4849.5 6171.01 5796.26 4603.04 5368.93 4870.94 5271.88 6121.56 7168.2 3763.85 4571.74 3419.07 4096.86 5710.33 5344.44 6432.8 3186.07 4369.86 4967.51 5173.82 7212.97 5490.64 5034.34 3604.31 4507.46 3769.2 5036.14 3468.45 5603.68 4944.51 5610.95 5042.75 5179.17 5579.39 5270.51 5148.1 5490.75 5224.64 5214.63 3495.68 5783.94 6370.33 5081.08 4202.77 6864.06 6008.81 4932.56 5192.49 3487.31 6643.4 4674.9 5461.72 6599.28 6224.85 4556.19 5368.66 5648.78 6875.73 4697.24 5226.42 4983.43 5117.52 6311.89 6734.39 4217.36 6549.8 5005.72 5368.52 5155.28 5811.26 5062.77 4884.93 6075.99 5262.79 4494.15 5035.71 4419.79 5407.69 5152.78 4117.9 5393.43 4753.76 4781.9 4638.09 4441.91 5330.26 5939.22 4215.05 4271.93 4859.01 4604.1 5524.45 5990.75 5600.21 5467.51 5459.92 4096.47 5114.67 4104.04 5353.66 2638.82 5030.33 5593.79 4965.24 5234.2 6379.38 6257.79 5353.23 6229.83 4468.26 5578.18 5293.37 5106.33 5933.54 5559.79 5879.24 5740.78 3622.48 4796.12 5001.51 5385.86 5115.42 4082.4 5482.76 3745.02 3720.7 4211.36 4887.73 5698.53 5378.24 4450.49 3856.73 5887.71 5635.32 4526.34 4827.61 4316.45 5409.08 5481.64 4598.92 5241.22 6647.08 4979.52 3422.29 4407.79 6548.29 3990.96 5352.24 7362.42 5793.12 5836.14 5473.05 5537.34 4373.2 5884.99 5726.42 7025.09 4433.12 2549.95 3392.26 4361.24 5138.93 6406.8 7086.69 6170.9 4436.48 6081.3 5615.35 3967.76 6213.24 5942.45 4228.53 4150.76 6123.46 6142.88 5111.26 5388.73 5205.38 4574.54 4764.83 4600.71 4841.28 3957.38 5507.38 6889.5 4710.88 5300.17 4052.43 4057.4 5534.23 6025.77 6815.96 5339.6 5828.25 4725.11 3626.86 6371.96 5322.07 5076.11 5770.07 5101.6 4282.11 6589.13 4625.53 2347.41 4542.16 3543.37 2030.03 5628.97 5527.27 5104.39 4612.13 5846.6 5327.05 5438.55 4434.65 5977.66 4523.81 5065.74 5198.94 4028.35 5464.05 2980.31 5453.2 3148.79 5997.91 4742.82 6791.86 4820.68 4209.0 4930.72 5728.58 6424.77 6297.99 5918.95 4538.89 5817.74 5661.6 5285.75 5385.03 4169.15 5673.75 5360.67 5968.54 6263.3 4501.05 5592.54 4537.03 3247.97 4114.2 4904.37 4326.06 4651.64 5034.46 5757.29 5016.46 5469.17 5061.75 3769.24 6022.78 4087.32 6647.85 2569.12 4161.32 5161.74 7336.37 5099.9 6945.69 5118.86 4183.4 4304.64 4733.79 5833.78 4823.06 5758.98 5254.49 5288.64 5987.88 3579.59 6161.94 4065.28 5057.59 4461.14 5285.6 5615.06 4949.55 3132.34 1969.87 5203.54 4047.95 6142.94 5001.69 4416.87 6581.56 3980.46 4896.67 5383.9 3934.11 5158.44 4466.22 4496.51 6153.71 5917.08 5483.37 5418.12 5934.05 4714.66 6771.18 4984.17 4656.01 5781.62 4037.86 5602.62 4138.59 5714.51 4484.78 4938.33 5157.73 5847.91 4934.66 4984.01 4109.44 4903.84 4290.49 6688.53 5209.5 6175.27 5791.25 4873.23 5410.6 5264.83 6348.93 6824.53 4332.64 5232.16 4422.23 4457.05 6031.22 3989.26 3618.64 5485.84 4335.79 5453.69 5432.04 5689.56 6556.86 3242.31 6099.28 5372.25 3234.26 4830.13 4778.37 3494.16 5134.17 4074.16 4904.35 5390.33 5124.34 5278.54 4358.81 5729.0 5729.92 4179.87 6224.13 4761.84 3661.67 5370.1 5517.65 4009.68 5114.51 4622.73 3303.49 5585.25 5256.75 6351.89 5932.28 2960.5 4298.7 4975.32 3902.48 6030.39 3909.94 4905.53 3799.01 7392.65 3757.23 5319.1 6828.8 4181.93 6883.86 3820.19 3350.99 4979.5 4745.37 5939.29 5418.98 5575.11 4052.49 5490.54 5326.03 6189.67 4948.96 5256.82 4013.86 4061.87 5165.31 3798.09 4288.5 3886.56 5715.51 4511.05 3456.3 6561.94 5259.21 5092.93 5881.93 2803.01 4444.0 6182.19 5327.39 4981.81 5141.03 4970.55 4621.33 4541.22 4767.54 4946.08 3539.68 4696.03 6217.33 4557.1 6270.59 5927.1 5876.51 6731.89 4103.76 2932.52 4733.41 4969.68 3901.53 5136.51 6815.51 5313.86 5189.91 5777.26 5703.84 3530.82 5797.32 4886.99 3921.27 3702.45 3161.1 5265.63 4898.29 4431.06 5730.2 5620.88 5370.9 4529.77 4325.13 4262.74 6172.27 3783.79 5078.73 4248.14 5279.19 4016.6 5192.92 5275.57 4786.66 5891.25 5095.52 5129.4 3720.38 4655.37 4731.37 5023.61 4672.86 6530.78 5560.23 3043.77 4139.39 5237.55 6264.03 5088.64 6589.8 6920.92 3729.16 3783.36 3038.91 3922.28 6570.43 3445.92 5236.69 4586.82 6026.04 6200.05 5859.17 4034.41 5061.74 5522.34 5771.98 4420.35 5717.45 5117.83 5268.27 4645.93 5448.64 4585.37 6417.61 3721.69 5395.12 5783.69 6074.39 5317.83 4256.08 6738.9 4460.89 4399.52 4157.1 4554.24 3939.96 5910.66 7415.84 4637.3 1458.87 5734.07 4840.44 8123.59 5765.14 4819.83 4801.16 5121.08 2927.84 5688.77 6177.68 4698.7 4605.39 2848.44 6045.26 6500.45 4907.55 4094.63 4286.61 5084.76 4603.66 4757.87 6636.43 5431.14 6298.8 3689.24 5178.07 5151.19 4171.02 7012.36 5028.06 4002.99 4293.3 5159.67 5587.3 3572.73 4864.38 5764.52 3770.22 5684.88 6523.78 4645.86 4045.67 6005.95 4941.52 4308.49 5900.0 4581.1 6241.77 5317.19 7360.12 6223.98 5821.49 7050.08 5580.44 5998.13 4746.15 6275.25 4758.84 3976.0 4452.36 4068.41 6463.71 5059.37 4742.35 5783.38 5645.54 4526.87 3562.8 4151.74 5192.82 5245.95 4174.22 3573.84 4067.89 6294.09 4571.57 5131.07 4121.07 3133.28 5524.28 5731.43 6353.81 3518.14 4150.44 2649.69 5044.68 5899.78 5000.74 5772.57 4813.81 5244.95 4634.25 5901.8 6351.48 3830.7 6210.0 5350.9 3483.61 4262.52 5992.06 8052.53 4867.12 6044.01 6520.19 5973.57 3997.68 6241.48 6033.28 6286.27 5071.38 5616.66 4802.36 5368.28 5466.13 6229.64 4220.43 6263.87 5743.8 6666.34 4645.91 6605.11 6834.92 3557.46 6379.33 5971.95 5652.73 3979.46 5402.45 6321.97 6412.84 6509.54 6119.0 2589.19 3792.06 5128.59 4993.49 5310.33 6583.37 3688.83 3402.44 4390.64 4848.98 5150.84 4608.01 5087.97 5339.82 4519.03 4930.17 5110.27 4745.44 4085.96 5762.82 4612.68 4232.33 5462.6 5617.29 3035.06 5770.92 4262.19 3093.38 4597.88 4845.91 4878.93 2002.78 6892.33 4505.3 4511.34 4491.26 4832.21 5009.21 5394.79 4379.91 4574.03 5290.37 5264.08 4227.66 4691.01 4594.89 5214.71 5821.42 4515.02 3463.53 6126.03 6044.69 2970.24 4197.87 5105.54 5462.1 6032.45 3414.67 5444.36 4026.03 6908.32 3467.11 4817.75 6153.26 5637.53 3882.37 5523.81 4095.4 4718.61 5188.57 3873.79 5357.33 5252.37 5432.4 5037.58 7430.48 5640.67 5545.68 6080.69 4970.12 4967.93 6369.66 5922.62 5125.45 5957.82 4188.16 6327.54 5507.07 2943.17 5327.71 4880.78 5257.38 5075.23 4975.56 7282.36 3826.01 3928.99 5581.01 4125.75 5130.57 5090.48 3985.93 6071.59 6079.55 3856.4 5485.61 4937.36 5308.4 4569.32 5537.61 6084.88 4491.96 4397.06 5184.98 4199.44 4467.51 4053.12 4479.5 6261.67 5460.57 5065.78 5703.34 4521.42 6668.98 6649.52 6043.34 4939.56 4747.68 4712.17 3808.04 4723.71 4461.67 5631.32 6322.0 5793.14 6345.2 4609.65 5704.61 5128.03 5410.73 4942.63 5087.3 5850.38 6139.74 7066.26 4730.97 3677.85 4677.84 5873.62 4811.11 4996.91 4924.52 4866.8 5314.67 5658.05 6593.1 4066.36 4000.51 6033.93 5011.37 2827.92 5516.37 4441.44 5092.44 4232.44 5336.61 3312.3 5563.09 4848.15 4439.09 3282.57 5648.59 6697.45 5717.67 5515.59 3224.81 4499.54 3775.38 4046.22 6457.89 4844.2 6572.17 3751.73 5555.89 4766.47 4871.1 5678.08 5872.45 4414.09 5191.29 3784.68 3717.22 6649.21 4654.92 5286.55 4322.56 5522.18 5509.09 5625.02 3873.72 5212.05 4829.77 6474.5 4444.92 6959.88 5749.53 5971.9 5247.73 3746.62 4876.37 5034.02 4769.62 5582.28 5945.25 5181.31 4696.06 4137.16 6189.29 5984.55 6581.13 5803.3 4721.98 5252.82 3543.98 5056.26 5878.55 4014.44 3435.13 6604.72 6002.77 4431.46 3794.47 4610.55 3207.84 4967.02 3977.98 4614.49 5400.69 4128.93 4462.5 4959.72 5573.31 5004.68 4023.88 4405.61 5348.11 6126.5 4034.88 6007.1 3511.5 5067.92 5488.96 3188.21 3720.92 4793.06 6637.38 4975.57 6916.18 6150.31 3057.3 3868.69 3920.44 5379.52 4450.51 3768.62 3851.47 4966.74 5563.47 5651.46 5639.4 3162.27 6185.73 4083.24 6520.96 5432.2 5217.62 4612.4 6178.19 4746.19 6381.58 5212.2 4798.13 5108.42 4630.5 6296.36 4432.32 4451.76 7885.41 5782.25 4104.97 4575.72 5114.61 6118.13 3374.62 4420.3 4926.62 3917.09 6009.93 4083.1 5270.1 5130.56 4947.64 6305.9 4542.62 4997.89 3470.69 5093.28 4859.95 4132.08 5223.1 4850.49 4592.49 3625.98 5479.86 4702.32 4763.04 5944.52 4413.56 4532.67 5316.05 2513.38 4908.32 5260.13 3995.08 4649.5 4810.74 5985.75 5475.83 4149.17 4329.8 5728.27 5672.46 5202.33 3228.27 3956.24 7558.99 4142.1 5043.14 5333.04 5445.91 4812.59 6842.54 7115.67 5675.45 3361.11 6038.56 2807.46 5599.16 4179.8 3488.34 5658.35 5428.24 5108.84 4520.14 4582.12 5357.14 4850.95 5919.27 6271.22 3421.81 6188.33 3920.64 6111.23 5786.06 4137.41 3780.07 5466.49 5447.74 4038.17 5007.41 6033.72 3692.99 6213.74 4959.94 2329.93 1635.31 6938.87 5412.07 5512.57 4806.99 4813.55 3771.91 5856.43 3839.0 4616.81 5715.25 4362.94 4611.21 6545.78 3354.94 4870.14 4404.87 5237.27 5767.65 4750.76 4907.03 5497.27 4081.77 4948.21 4987.01 2181.29 4202.12 6332.64 2694.25 6492.44 4613.32 3482.73 3996.93 5145.39 6351.95 4957.99 5195.09 4063.26 5345.05 7679.2 6131.52 4311.92 6009.88 4699.77 4981.55 5093.41 5144.23 6188.62 6153.07 4414.06 5908.57 5050.2 4821.41 5616.11 5019.84 4499.52 3900.93 4028.13 3874.12 5784.38 6476.35 6260.58 3074.49 3053.19 4067.24 6571.26 5580.95 3393.59 3549.92 4032.06 5246.81 5089.1 5888.95 4521.99 5394.78 3463.34 2853.68 4998.37 5329.84 6559.82 3879.83 6565.95 4577.98 5886.81 4487.51 6805.02 4295.25 7394.47 5354.48 4729.45 5374.09 6261.13 4167.55 5244.47 4720.34 5378.75 5510.89 6186.24 5822.7 4159.89 5282.67 5178.55 5146.69 4907.48 6818.23 4369.87 5652.19 6578.62 3465.03 4796.04 5349.85 5799.86 5172.1 4469.82 5003.63 4695.7 2932.2 5105.72 4082.01 5003.49 3964.03 4216.33 5832.72 5617.91 4721.2 5161.02 4706.31 6265.48 4735.99 4203.68 4739.56 4701.03 3352.46 5434.04 5200.1 3997.52 4881.51 2626.41 4909.74 6729.99 5310.33 6664.54 6842.35 5464.34 3621.63 4777.96 5259.48 5801.89 6833.5 7296.47 5742.39 4780.16 4924.53 5738.37 4433.23 4813.24 5759.19 4457.73 3113.64 4304.75 5480.86 6139.9 4720.22 4313.38 6598.99 5250.56 3633.58 2468.16 4339.97 5203.75 5169.09 5122.38 2459.88 5262.85 4210.24 5470.67 5901.71 5342.9 5733.12 5043.34 4246.24 6436.29 5402.81 4600.81 4919.13 5640.63 5168.97 4900.26 5002.38 4865.11 4731.16 6470.87 4465.56 4495.33 4131.08 5747.9 3864.19 4287.93 6203.24 5081.65 4488.41 6679.12 4621.32 5806.74 3878.8 4698.94 6284.12 3948.21 5669.15 5229.56 5296.05 6011.4 4672.34 3330.85 6052.22 5376.41 5533.52 5410.33 4747.24 4944.08 4380.86 5576.16 5269.39 4305.35 3308.75 5210.22 2451.27 5677.42 3903.9 4929.35 4444.95 5606.22 3943.77 3124.49 6081.35 5003.81 6262.18 3818.37 5566.5 5663.36 6225.05 5579.04 5125.53 5994.21 4444.54 5779.9 6964.78 5299.03 3922.98 4565.36 5161.73 4025.08 4008.67 5254.93 4770.21 4803.4 6608.94 2613.78 5417.07 3834.01 5656.84 6789.66 4739.41 5312.2 5847.27 4490.2 4706.59 5734.84 3982.31 4950.07 4582.24 2832.83 5827.3 6036.99 3010.1 3825.98 6294.14 5087.03 4667.84 3906.41 4691.15 4123.08 4512.6 4260.38 4636.45 4932.27 5225.11 6793.49 5252.22 6060.19 4962.35 6786.37 4333.23 4328.76 5561.63 4124.33 5783.88 4358.06 5647.93 6705.93 6201.49 5449.09 5154.74 5502.14 4605.61 5386.95 5332.11 5315.71 6158.93 4823.14 5373.78 5438.5 5345.65 5863.36 5699.4 5237.76 4286.84 6423.96 6058.13 5263.86 6988.4 5056.32 4060.17 6051.35 5302.53 4909.13 4287.61 5648.02 4604.34 4439.17 2701.42 5442.79 5051.39 6673.92 5242.38 4884.94 5459.52 4609.98 4738.72 4752.31 4276.59 5405.6 3929.35 5403.81 5082.25 4374.05 4287.15 5036.84 5504.65 5813.68 5732.11 3618.53 5040.9 5596.68 8013.28 3846.55 3796.73 5283.65 3082.16 4644.68 2892.36 5981.54 5416.41 4694.27 6760.64 2515.5 5177.88 5551.79 6981.47 3916.15 4474.96 4084.87 4758.76 4790.63 5259.29 3584.05 4589.22 4916.75 4818.53 5097.85 5584.64 6189.04 6224.64 4221.03 3799.55 5082.66 5638.51 4550.77 4337.93 3563.33 3550.88 4345.51 5536.0 3860.8 5145.13 3747.96 5940.5 5093.51 5004.22 4280.92 4696.92 6437.99 6898.8 6632.04 6540.57 4893.72 4977.64 6004.72 4072.4 4983.56 5699.51 2489.44 4489.18 4883.13 4632.75 4752.94 4994.98 3950.53 4501.1 5894.69 6635.51 4713.56 6779.82 3999.81 5543.67 4867.13 6377.45 4863.27 4502.12 5151.68 5733.59 5362.15 4455.61 6874.6 5240.97 5569.85 5523.96 4884.93 4223.53 4759.38 4733.37 4535.94 6960.97 4523.9 5282.51 5669.41 4951.02 3919.47 4602.7 4868.66 4004.39 5159.9 4987.48 5943.61 4248.58 5911.29 4542.25 4414.23 5233.88 4849.21 4785.55 3793.83 5245.4 6189.81 5367.05 4449.73 5647.11 4088.72 3945.62 3743.85 6236.46 5342.17 6379.3 5015.67 3795.63 5189.4 4576.71 6538.04 4894.15 6157.59 5201.3 5848.41 4048.73 6223.33 5438.6 7370.52 5611.29 4521.88 6568.45 3724.23 4601.54 4963.88 7263.57 5705.96 3832.09 5267.65 5739.69 3509.34 5360.88 7360.62 3166.37 5369.42 4985.45 5207.08 5205.53 4714.52 5499.37 5543.05 4836.76 5333.16 5551.09 5755.98 5392.85 5581.47 4384.91 6550.61 4987.01 5529.09 6094.34 5448.68 4739.5 6210.48 4491.62 4182.05 3865.5 3255.93 6853.07 6327.61 4633.59 5575.8 5268.93 3695.72 5106.9 5306.31 3037.72 5126.08 5604.0 3760.4 3783.35 4037.16 6395.63 5479.17 5020.37 4090.28 4246.83 4726.5 5467.05 5103.3 5888.94 4727.98 5175.88 4122.2 4516.26 4790.16 3647.26 3731.58 4587.19 6028.89 4888.17 5077.2 4274.05 5275.27 4277.54 4531.46 5925.82 4072.95 
SCALARS Velocity float 1
LOOKUP_TABLE default
1.83485 1.79442 1.66616 1.92851 1.20067 1.19188 1.83165 1.33787 1.71577 1.45315 1.62835 1.633 1.99518 1.25261 1.80981 1.66127 1.60696 1.71774 1.67725 1.62514 1.5507 1.63317 1.2982 1.41163 1.82948 1.81475 1.57314 1.81695 1.54848 1.42771 1.58759 1.72468 1.75565 1.76011 1.89638 1.35095 1.78574 1.46412 1.33116 1.86007 1.73426 1.6244 1.60631 1.53891 1.53287 1.54705 1.82113 1.36437 1.51267 1.70892 1.61687 1.48553 1.63864 1.55324 1.67056 1.58457 1.61116 1.85103 1.68868 3.04353 0.541077 2.13426 1.99658 1.08115 1.30509 1.86426 1.57639 1.7801 1.61688 1.60082 1.61486 1.59643 1.48454 1.45818 1.53208 1.62973 1.36302 1.49524 1.5253 1.31439 1.45936 1.57497 1.56664 1.43832 2.12386 1.63585 2.09608 1.52653 1.15211 1.15083 1.2267 0.934724 1.24597 1.31791 1.83321 2.02375 1.31469 1.94339 1.34306 1.59702 1.26689 1.24083 1.49782 1.48722 1.32104 1.39471 1.31598 1.42349 1.62765 1.52967 1.29811 1.32432 1.61758 1.63689 1.64711 1.66207 1.3895 1.91423 1.1368 0.821621 1.31558 1.70527 1.39244 1.99679 2.49826 1.14471 1.15398 1.15658 1.27539 1.25566 1.30715 1.38032 1.58147 1.23416 1.30991 0.969504 1.66017 1.26534 1.30404 1.31601 1.45663 1.46315 1.46639 1.26383 1.23155 1.30069 1.48251 1.58606 1.3998 1.47757 1.31582 1.08904 1.41225 1.17166 1.77403 1.76806 2.07467 1.65102 0.485411 1.42643 0.720018 1.08792 1.01128 1.00192 1.44437 2.67374 0.582587 1.93688 1.45623 1.09866 1.06814 1.08277 1.17363 1.23489 1.24151 1.17961 1.18263 1.19396 1.10504 1.11628 1.1021 1.06997 1.30568 1.37771 1.48297 1.68308 1.42973 1.7337 1.17323 1.16367 1.35944 1.42276 1.33388 1.41879 1.22294 1.28376 1.32051 1.56472 1.47549 1.31898 1.18375 1.06466 1.35042 1.42176 1.37685 1.29038 1.7122 1.57041 0.982152 1.53328 1.08302 1.31552 1.01935 1.10967 0.859032 1.00883 0.718226 1.2095 0.937599 1.1217 1.11866 1.09753 1.07701 1.07786 1.08955 1.06108 1.19501 1.19526 1.18892 1.21421 1.25344 1.27135 1.06233 1.56034 1.34 1.47464 1.57086 1.31436 1.20012 1.27695 1.3964 1.22611 1.24124 1.1859 1.16549 1.30534 1.32985 1.3117 1.26317 1.08742 1.11424 1.39872 1.43273 1.28339 1.34152 1.01942 0.440498 0.373335 0.808506 1.18283 1.11309 1.03855 1.14106 1.17447 1.13416 1.14215 1.16827 0.952143 1.00174 1.05514 1.03545 1.01074 1.07461 1.03054 1.06369 0.996693 1.0941 1.16181 1.21396 1.18605 1.13224 1.13461 1.14769 1.05037 0.84227 1.21749 1.13859 1.29992 1.49214 1.52964 1.22652 1.21765 1.2716 1.29295 1.17222 1.19005 1.13652 1.20642 1.33813 1.23628 1.11288 1.07343 1.10497 1.17565 1.41756 1.40042 1.3731 1.43514 1.17388 0.920821 0.744272 1.03537 1.07851 0.973572 0.993725 0.956847 1.27729 1.07324 1.02999 1.16482 1.0918 1.14424 1.12528 1.09435 1.04975 1.01853 1.01947 0.969024 1.05911 1.02158 1.09009 1.14332 0.953275 1.05506 1.05205 1.0532 1.29865 1.14682 1.06662 1.05129 0.990702 1.1189 1.20546 0.966751 0.991504 0.939304 1.15302 1.24233 1.19423 1.24643 1.2553 1.17611 1.14184 1.0264 1.15926 1.22128 1.12588 1.22717 1.37309 1.25988 1.01002 1.05929 1.12522 1.19065 1.31293 1.46465 1.62636 1.25669 1.39767 1.0585 1.12049 1.01645 0.969961 1.04027 1.0593 1.0252 1.04205 1.05068 0.976388 1.00518 1.05618 0.977174 0.95741 0.991659 1.00782 1.06079 1.01087 0.958282 0.975138 0.928922 0.945773 0.919246 0.953333 1.00913 0.839277 1.07126 1.01903 0.945326 0.739666 0.799054 0.913492 0.923895 1.01237 1.1498 1.07276 0.9677 1.47971 0.607109 1.06883 1.14501 0.978635 1.07504 0.999532 1.02517 0.997028 1.07294 0.973317 1.05584 0.94935 1.16807 1.08386 0.983004 1.09745 1.12858 1.23772 1.25076 1.25542 1.29222 1.25793 1.23967 0.998652 1.20413 1.14641 1.24957 1.11756 1.21229 0.934239 1.06057 1.06137 1.12984 1.2508 1.27544 1.34993 1.42484 1.45464 0.961257 1.12386 1.15572 1.08328 1.02932 1.06324 1.06904 1.05574 1.04767 1.04396 1.08924 1.04865 0.932915 1.02867 0.99163 0.971325 0.931758 0.916919 0.906066 0.913639 0.907622 0.917902 0.916694 0.9759 1.05527 0.927563 0.799673 0.87391 0.846005 0.758765 0.626362 1.16906 1.62104 1.00999 0.975837 0.874279 0.874815 1.02314 1.11263 0.990836 1.02545 0.973993 0.972844 0.968076 1.0115 1.07441 1.04489 1.12705 1.05023 1.2729 1.22289 1.2428 1.24417 1.23971 1.29129 1.17015 1.07926 0.933723 1.05063 1.0723 1.23412 1.18485 1.23363 1.21006 1.08746 0.964113 0.996316 1.06133 1.0231 1.13184 1.11475 1.22072 1.30996 1.41298 1.018 0.959808 1.12524 0.982865 1.15631 1.31477 1.55338 1.05846 1.22554 1.10511 1.0522 1.0392 1.07002 1.02531 1.07893 1.13974 0.993726 1.07706 1.033 0.987213 0.902184 0.932063 0.961347 0.956958 0.970412 0.944989 1.0032 0.994292 0.947405 0.936266 0.902107 0.905359 0.916563 0.882109 0.91835 0.927988 0.949426 0.929517 1.00173 0.871227 0.835653 0.800333 0.759702 0.98826 1.2294 1.27576 0.888426 0.994828 0.921702 0.918797 0.950655 0.92586 0.975288 0.979874 1.00887 1.03097 1.03017 1.0775 1.0094 1.03115 1.00415 1.0091 1.04325 0.969121 1.00036 1.03386 1.07493 1.07702 0.947973 1.06566 1.08793 1.19765 1.28042 1.12897 0.96309 1.01664 0.956586 1.086 1.07364 1.09467 1.21845 1.24764 1.20658 1.16295 1.17594 1.01234 1.05285 1.09402 1.20271 1.20351 0.733406 1.29911 1.04822 1.00901 1.16066 1.2244 0.858175 0.826771 0.89629 0.930824 0.93617 1.20801 1.04657 1.18373 1.15646 1.18747 1.06684 0.979473 0.877913 1.00189 0.979604 1.04112 1.00046 0.977216 0.942111 1.01091 0.907794 0.944259 0.917173 0.922713 0.904356 0.935305 0.950538 1.00174 0.901855 0.914112 0.768462 1.07694 0.886391 1.00582 0.99658 1.13557 0.802165 0.965767 0.900037 0.881052 0.888427 1.09968 0.963933 0.971528 0.923417 0.96207 1.01017 1.02786 1.03394 1.03623 1.06979 1.04797 1.05596 0.902863 1.02813 1.01878 1.08112 1.04544 1.01538 1.16281 1.11943 1.18116 1.28273 1.40211 1.02219 0.978375 0.981014 1.06111 1.14683 1.28712 1.19089 1.16123 1.12732 1.20181 1.10627 1.08061 1.10459 1.1962 1.28388 1.41772 0.878639 0.975524 0.990057 1.0038 1.08503 1.20295 1.22703 1.08952 0.952948 0.839264 0.923596 0.985612 1.09643 1.17286 1.27453 1.34158 1.07277 1.0842 0.937913 1.09314 0.997565 0.938701 1.0413 0.980245 0.950622 0.933092 0.990215 0.941624 0.949599 0.964932 1.00829 0.839285 1.02846 0.888371 1.17605 0.815898 0.658356 0.861354 0.867084 0.87786 0.804918 1.01354 1.00559 0.883342 0.817857 0.905475 0.933501 0.83644 0.945018 0.945251 0.954286 0.957427 0.987695 1.01913 1.02393 1.02868 1.0209 1.04947 1.04938 1.05706 1.06064 1.05652 1.03162 0.985711 0.948453 1.07211 1.05717 1.03187 1.031 1.1963 1.14888 1.17184 1.13246 1.35258 0.963862 1.03661 1.00637 0.990811 1.13521 1.24044 1.21094 1.16807 1.03562 1.10371 1.16353 1.43496 0.728158 0.724621 0.839412 0.95885 1.00442 1.07133 1.18586 1.13779 0.973896 0.937949 0.89959 0.949657 1.00459 1.01952 1.02391 1.45803 0.960726 0.888171 0.437299 0.888674 0.411383 0.807587 0.91128 0.892693 0.993268 0.757473 0.777364 1.02707 0.919037 0.916005 0.789688 0.881993 1.00302 1.02239 1.08013 1.02687 1.01101 0.912434 0.972088 0.981185 1.1977 1.10442 0.653045 0.789211 0.86233 0.948431 0.913068 0.996321 0.944018 0.880635 0.840219 0.822513 0.929936 0.942742 0.942089 0.960207 0.927571 0.955253 1.0053 0.986628 1.0294 0.995694 0.990693 1.05636 1.05013 1.08005 0.990219 0.900971 0.884663 0.972674 1.04475 1.02515 1.04031 1.05369 1.07817 1.11341 1.15406 1.23793 1.06208 1.0367 1.08739 1.21971 0.917495 1.02394 1.07755 1.10938 1.25188 1.07125 1.05444 1.08665 1.01239 1.01759 1.21696 1.04318 1.03304 0.996423 0.877276 0.885129 0.93431 0.958945 1.00438 1.06178 1.18119 1.21899 1.28026 0.850419 1.09921 0.997131 0.813428 0.897692 0.940187 0.94289 0.94638 0.923882 0.970273 0.753062 0.865416 0.783213 0.558398 0.654586 0.821813 0.98895 0.795508 0.990039 0.87649 0.866476 0.796271 0.831906 0.705624 0.887346 0.669391 0.865765 0.956667 0.895145 0.908693 0.939584 0.944369 0.973334 0.784874 0.90373 0.995693 0.853481 0.793585 0.851651 0.986729 0.707435 0.806465 0.978694 0.992247 0.921339 0.875192 0.899251 1.01188 0.972471 0.940808 0.942066 0.972267 1.00872 1.02092 1.01481 1.04912 0.980551 1.05643 0.947855 1.16061 0.889392 0.951623 1.039 1.07296 1.05828 1.04338 1.10555 0.955844 1.11131 1.06587 1.02129 0.903305 0.993977 0.94143 0.878811 0.919958 1.06579 1.15881 1.24551 1.07031 1.09914 1.05886 1.03863 1.03934 1.20929 1.03433 1.00408 1.00212 0.951771 0.972668 0.976468 0.975201 0.981961 0.974008 1.00263 0.987236 1.06334 1.19684 0.810236 0.912876 0.925661 0.927619 0.961395 1.0083 0.974856 0.960612 0.936979 0.835281 0.779102 0.835976 0.797346 0.812132 0.876377 0.934582 0.918739 0.82598 0.848236 0.930568 0.795604 0.777257 0.88809 0.85423 0.854605 0.80247 0.816671 0.979564 0.71439 0.803555 0.843708 0.722134 0.750454 0.725941 0.721595 0.724573 0.81628 0.713492 0.987537 0.790138 0.94506 0.9334 0.852839 0.69014 0.877828 0.81932 0.974781 1.01429 1.01322 0.932908 0.899724 0.876846 0.936575 0.903652 0.928486 0.905446 0.919849 0.930117 0.925273 0.951923 0.985918 1.01426 1.0307 1.0249 1.02712 1.14663 0.674064 0.691838 1.18966 0.997515 1.04247 1.03567 1.00583 1.07473 0.904583 0.764876 1.12594 1.06032 1.08674 1.11004 1.02171 1.00226 1.03171 0.931012 0.956296 1.21036 1.23093 1.1577 1.12299 1.09812 1.09069 1.08283 1.06444 1.17453 1.14057 1.0268 1.03886 1.02691 1.07452 1.00186 1.00366 0.973915 0.986432 1.05433 1.02115 0.911683 0.985584 0.962464 0.967668 0.979243 0.940301 0.984485 1.03919 0.98335 0.948498 0.890538 0.91142 0.8785 0.852283 0.897752 0.935167 0.939915 0.912874 0.85306 0.857297 0.911929 0.855564 0.862004 0.835029 0.915092 0.90782 0.930786 0.88385 0.816409 0.86661 0.830513 0.841438 0.828149 0.741926 0.753858 0.78003 0.804845 0.743897 0.784283 0.819772 0.839746 0.808525 0.878984 1.01164 1.11277 0.995051 1.05607 0.888755 0.873247 1.00969 0.89593 0.559791 0.839995 0.834127 0.837848 0.865361 0.911338 0.899651 0.910988 0.918535 0.929681 0.955823 0.978458 0.990061 0.939007 0.99799 0.915552 0.803126 0.71717 0.385757 1.05277 1.01784 1.02938 1.06479 1.03674 1.09348 1.03264 1.10813 1.03407 0.999657 0.943515 0.888096 1.30215 1.15753 1.11686 1.09234 1.06021 1.07796 1.03887 0.972396 1.19008 1.17943 1.12414 1.03782 1.09104 1.16344 1.05091 0.970408 1.0025 1.03264 1.03575 0.963896 0.943657 0.965589 0.979299 0.982982 0.977789 0.994169 1.00843 1.00365 0.973627 0.949042 0.888333 0.883633 0.891837 0.943115 0.982164 0.915376 0.841436 0.847483 0.837992 0.846848 0.859152 0.859547 0.905259 0.931369 0.87633 0.869767 0.916561 0.746016 0.625769 0.734414 0.783934 0.616947 0.828616 0.81469 0.788108 0.79283 0.826144 0.803547 0.808818 0.819911 0.826467 0.818156 0.82146 0.773367 0.888139 0.827478 0.873645 0.750482 0.851538 0.719485 0.758759 0.755784 0.824118 0.73856 0.483733 0.151054 0.788365 0.830868 0.834839 0.862523 0.908601 0.90487 0.927809 0.900199 0.910951 0.908471 0.91914 0.927013 0.952021 0.949081 0.954524 0.927784 0.906938 0.830401 0.503575 1.07717 1.08997 1.05303 1.02834 1.03046 1.01875 1.05607 1.05416 1.0729 1.06256 1.07219 1.06718 1.0839 1.06187 1.04293 1.03154 0.99358 0.973929 0.949899 0.908195 1.39777 0.458285 1.16043 1.1305 1.27074 1.08337 1.02711 1.05629 1.23857 1.03342 1.10389 1.25472 1.0264 0.983647 0.985902 1.02994 1.04904 1.02737 0.967084 0.965277 0.977166 0.970733 0.977116 0.97016 0.986257 0.973731 0.912954 0.938135 0.89395 0.937809 0.957546 0.957051 0.95919 1.06714 0.92424 0.85975 0.863854 0.899738 0.903738 0.920432 0.896259 0.970155 0.603873 0.846946 0.844089 0.795395 0.77225 0.851737 0.8043 0.811255 0.794435 0.81184 0.807107 0.798022 0.784328 0.796895 0.807763 0.790895 0.767115 0.792489 0.785841 0.758105 0.787811 0.65243 0.704562 0.778172 0.830175 0.781332 0.89973 0.784895 0.88198 0.888663 1.20989 1.08266 0.823647 0.88012 0.922807 0.89393 0.868347 0.905649 0.90588 0.904608 0.894405 0.916148 0.901281 0.919453 0.93511 0.913784 0.931344 0.916453 0.866134 0.759313 0.706193 0.648504 0.893183 1.06744 1.0503 1.04638 1.01195 0.968102 1.00999 1.04673 1.08188 1.08976 1.06933 1.04268 1.03692 1.00514 0.985924 0.978765 0.956835 0.895433 1.19286 1.09256 1.08264 0.91642 1.08016 0.982778 1.2123 1.04396 1.07307 1.24765 1.16049 0.991592 0.885228 1.03886 1.02991 1.02888 1.06801 0.971629 0.998502 0.992986 0.980409 0.96998 0.960184 0.919708 0.917411 1.01934 0.864256 1.06169 0.969505 0.88846 0.983022 0.930039 0.921985 0.959289 0.911418 1.06839 0.845438 0.85967 0.835836 0.878083 0.894352 0.88834 0.886125 0.88806 0.936292 0.998795 0.904513 0.916593 0.873556 0.770991 0.757835 0.701763 0.73327 0.781861 0.771878 0.777099 0.726085 0.785394 0.773933 0.803746 0.787134 0.803852 0.792253 0.741721 0.719858 0.73177 0.766569 0.785122 0.747014 0.799812 0.76934 0.798421 0.836545 0.808061 0.615987 0.595569 0.727401 0.765 0.823724 0.771071 0.913465 0.88049 0.885801 0.873431 0.991863 0.831479 0.818353 0.757771 0.93186 0.942339 0.791816 0.848259 0.884847 0.888471 0.897655 0.888502 0.889944 0.881536 0.887821 0.910292 0.911003 0.900631 0.723758 0.865945 0.941773 0.944536 0.922504 0.853132 1.14763 1.08777 1.0256 0.978482 1.0235 1.05465 1.03866 1.11137 1.07137 1.05386 1.04208 1.00236 1.00892 0.990227 0.973094 1.11454 1.0817 1.11931 0.972645 1.05692 0.958508 1.09117 1.10266 1.51258 1.28469 0.992016 0.886001 1.05432 1.01432 1.08726 1.09519 1.04054 0.992832 0.985704 0.954065 0.913334 0.930315 0.922408 0.880824 0.917626 0.931291 0.887436 0.912134 0.912103 0.904983 0.916956 0.920066 0.931354 0.902349 0.802266 0.864628 0.776878 0.760893 0.845342 0.797317 0.800953 0.846375 0.827374 0.878769 0.881556 0.876404 0.906337 0.887846 0.84007 0.899138 0.793053 0.716026 0.749141 0.775553 0.828278 0.782098 0.77543 0.797451 0.77626 0.770149 0.805899 0.783216 0.785832 0.670511 0.786208 0.781368 0.711961 0.704546 0.716486 0.719029 0.702216 0.700881 0.760743 0.807045 0.685834 0.69168 0.717766 0.680862 0.636175 0.592434 0.650334 0.70459 0.701195 0.71619 0.734628 0.784013 0.865847 0.891467 0.891326 0.867128 0.835259 0.819683 0.83771 0.840814 0.864787 0.876044 0.891549 0.88463 0.887347 0.889718 0.867107 0.869782 0.882441 0.923716 0.907667 0.931393 0.985686 0.820527 0.962026 0.966507 1.17296 1.07502 1.01473 0.960544 0.957414 1.04977 1.02273 1.05787 0.999094 1.08312 1.06142 1.049 1.04729 1.02986 1.03532 1.01578 0.990967 1.0034 0.958562 0.989886 0.995775 1.09538 1.12907 1.04472 1.16606 0.970196 0.965874 1.1278 1.09662 1.26736 0.982303 0.920302 0.906817 0.841487 0.883047 1.09294 1.01645 1.03304 0.99493 0.982745 0.883736 0.875157 0.947894 0.927689 0.941693 0.927626 0.921755 0.950863 0.940072 0.916139 0.928094 0.884935 0.822643 0.745114 0.745495 0.793105 0.836887 0.874703 0.888111 0.921402 0.814532 0.733434 0.84512 0.76475 0.824328 0.776454 0.77127 0.747312 0.723107 0.794478 0.760635 0.822443 0.795699 0.703419 0.512249 0.565252 0.650459 0.686243 0.670151 0.652969 0.632705 0.680865 0.659327 0.717852 0.712532 0.700316 0.706816 0.699356 0.699634 0.757224 0.697659 0.718936 0.7442 0.686414 0.624683 0.65363 0.649207 0.668211 0.700532 0.675072 0.749709 0.889643 0.853082 0.866337 0.856774 0.847469 0.83822 0.848356 0.835976 0.833704 0.824421 0.84363 0.856789 0.843096 0.861936 0.863782 0.8797 0.885496 0.896983 0.890431 0.879019 0.934713 0.996699 0.982613 0.949652 0.993356 1.01501 1.11739 0.929142 0.884581 0.893136 1.06137 1.03555 1.03664 1.06702 1.01399 1.05196 0.9826 1.03656 1.12382 1.01796 1.05316 1.05054 1.05185 1.01131 1.01199 1.02082 1.00746 1.10513 1.10025 0.961882 1.19227 0.978938 0.971351 0.934464 1.16305 1.19497 1.03596 0.986004 0.98072 0.850994 0.922582 0.963503 0.881575 0.974593 1.08156 0.91325 1.01346 0.975903 0.939985 0.907448 0.936931 0.952782 0.904238 0.909264 0.943894 0.969512 0.975579 1.04119 0.977204 0.919796 0.912723 0.93198 0.787422 0.753625 0.75528 0.888373 0.904074 0.856425 0.828298 0.8485 0.870691 0.851834 0.856277 0.754755 0.883168 0.685297 0.672269 0.726383 0.740566 0.709924 0.742978 0.741924 0.731205 0.780056 0.782571 0.78278 0.845618 0.642773 0.583627 0.668531 0.618011 0.654137 0.581418 0.529246 0.509304 0.534981 0.633138 0.598681 0.630416 0.636717 0.6441 0.663775 0.659805 0.679826 0.738061 0.686687 0.698204 0.65818 0.750062 0.64176 0.676961 0.687638 0.755002 0.683564 0.701359 0.709992 0.701875 0.791227 0.849234 0.856625 0.851033 0.85301 0.856918 0.857598 0.840404 0.844567 0.83502 0.829602 0.841302 0.823954 0.850286 0.891107 0.895982 0.908603 0.924111 0.816036 0.921647 1.06613 1.01199 1.00692 0.960028 0.938656 0.919339 1.07643 1.04057 1.04713 1.05209 1.04576 1.04094 1.02815 0.967232 1.01313 1.20767 0.991238 1.03947 1.07744 1.07867 1.00884 1.02115 1.06833 1.05892 1.11347 0.982824 1.07584 1.07251 1.14581 1.03302 1.02091 0.931703 0.834999 0.86372 0.900412 1.03636 1.20249 1.0247 1.08654 1.01069 0.98746 0.997431 0.970804 0.930827 0.958569 0.945466 1.01392 0.986952 0.974673 0.948239 0.925327 0.950121 0.927815 0.879265 0.898334 0.908142 0.927973 0.868239 0.913398 0.986674 0.867557 0.619001 0.754049 0.819401 0.774731 0.836535 0.831644 0.819621 0.792729 0.819556 0.815125 0.721322 0.771926 0.72379 0.710068 0.71957 0.745875 0.760392 0.756838 0.817591 0.887175 0.560081 0.779599 0.649965 0.548888 0.600713 0.629339 0.623133 0.594892 0.394443 0.650658 0.67328 0.429191 0.184307 0.339305 0.574284 0.468975 0.590824 0.633679 0.625614 0.582305 0.621554 0.624265 0.623287 0.66884 0.563775 0.69021 0.9014 0.689563 0.698505 0.717764 0.755215 0.821749 0.852922 0.852946 0.851219 0.860064 0.86301 0.858356 0.847637 0.859929 0.84533 0.839738 0.825599 0.818674 0.820886 0.778089 0.897818 0.930295 0.864672 0.851191 0.994513 0.912824 1.05836 0.936155 0.943809 0.967789 0.933678 0.88893 0.903977 1.05734 1.04604 1.04358 1.05396 1.02152 0.994754 1.02566 0.987335 1.0233 1.05627 1.0892 1.0605 1.07091 1.11233 1.07344 1.06852 1.08834 1.1387 1.11602 1.11586 1.07821 1.06017 0.832951 0.969294 1.13333 0.988029 1.00415 0.977494 0.991919 1.00402 0.992904 0.934075 0.984748 0.966135 0.963913 0.979859 0.97344 0.978777 0.979617 0.907628 0.89917 0.920939 0.910101 0.907114 0.88747 0.887668 0.904924 0.971217 0.625089 0.79973 0.774117 0.836161 0.820481 0.823079 0.835362 0.763591 0.797635 0.64092 0.837683 0.80949 0.843025 0.779169 0.799572 0.733136 0.747904 0.730845 0.744807 0.800334 0.728416 0.760141 0.768604 0.763605 0.632212 0.508401 0.529248 0.642061 0.555847 0.578581 0.682502 0.643527 0.433056 0.391607 0.188954 0.105852 0.199609 0.00910305 0.447237 0.526758 0.578863 0.570374 0.603666 0.577625 0.595178 0.577178 0.554739 0.575266 0.611944 0.642303 0.61938 0.575967 0.600285 1.10487 0.334599 0.796468 0.700261 0.682529 0.661042 0.66312 0.680991 0.757771 0.71987 0.759934 0.808996 0.800628 0.842576 0.858884 0.869385 0.88599 0.869088 0.851676 0.831972 0.808465 0.795107 0.789493 0.741154 0.981368 0.918175 0.868364 1.00481 1.01495 0.94087 0.937481 0.903079 0.90915 0.918464 0.927892 0.951939 0.979042 1.03865 1.0516 1.08583 0.979459 1.01013 1.04109 1.0145 1.04119 1.06833 1.11356 1.09208 1.10909 1.08921 1.08132 1.08002 1.1172 1.11113 1.02944 1.01004 0.985332 0.911907 1.07229 1.16059 1.06146 1.01586 0.996521 1.00497 1.01017 1.04043 0.952575 0.968436 0.985419 0.989287 0.971893 0.963811 0.98823 1.0003 0.985391 0.921878 0.900729 0.883871 0.880591 0.920346 0.99311 0.899802 1.0364 0.859281 0.750361 0.842448 0.866475 0.841594 0.861185 0.860157 0.894272 0.8929 0.772654 0.854719 0.666466 0.662461 0.910928 0.912866 0.784193 0.714885 0.721284 0.74727 0.764099 0.792346 0.701362 0.605782 0.573171 0.513346 0.502124 0.555164 0.433568 0.570584 0.635546 0.564739 0.499862 0.111642 0.0446327 0.291284 0.419292 0.50762 0.586136 0.568349 0.560163 0.577909 0.547811 0.551377 0.521217 0.540459 0.565293 0.586663 0.630651 0.591276 0.648079 0.625692 0.63335 0.601162 0.68814 0.678233 0.466485 0.612528 0.788349 0.74537 0.753403 0.708419 0.707806 0.712644 0.754989 0.792468 0.845135 0.869626 0.934537 0.88699 0.892764 0.868132 0.837873 0.825986 0.836232 0.799711 0.749072 0.741766 0.867762 0.915605 0.942783 0.948492 0.948761 1.00582 0.927185 0.924073 0.973936 0.992134 0.994974 1.06315 1.06655 1.07883 0.985239 1.07455 1.05631 1.10067 1.11033 1.12576 1.02703 1.12001 1.06396 1.09651 1.08109 1.11086 1.0921 1.07486 1.06339 1.0838 1.08176 1.12833 1.11689 1.07209 1.01645 0.975524 1.07788 1.0783 1.05938 1.12017 1.04582 1.10699 1.02808 1.01796 1.01881 1.04808 1.0702 0.954274 0.983374 1.01386 0.971649 0.944303 1.00714 1.01186 1.00537 1.00248 0.908352 0.823618 0.897266 0.792972 1.03644 0.98897 0.764628 0.824683 0.814967 0.823565 0.831865 0.798734 0.760354 1.03644 1.446 0.804866 0.12155 0.902673 0.70881 0.809987 0.735537 0.705626 0.728586 0.764026 0.755201 0.795305 0.794999 0.782857 0.663606 0.646724 0.515597 0.342208 0.5006 0.605456 0.557748 0.635517 0.902774 0.323825 0.97664 2.65959 0.244732 0.220711 0.76786 0.430647 0.488576 0.481052 0.477213 0.504815 0.67984 0.72941 0.672255 0.694942 0.707933 0.685442 0.676423 0.662775 0.635236 0.744069 0.750479 0.752251 0.789335 0.728645 0.740567 0.740886 0.77917 0.769871 0.832829 0.875684 0.883402 0.873423 0.961092 0.891151 0.813832 0.836514 0.801553 0.782822 0.82289 0.936338 0.952127 0.940598 0.98418 1.00553 0.902469 0.939142 1.0098 1.01313 1.00226 1.01422 1.01812 1.0383 1.05819 1.07539 1.00836 1.09309 1.0665 1.10649 1.12724 1.13263 1.07912 1.01552 1.09279 1.07444 1.12667 1.07627 1.07324 1.08816 1.07842 1.10856 1.09787 1.04104 1.03166 0.983789 1.10379 1.16679 1.08249 1.03423 1.07725 1.04049 1.02279 1.04857 1.06024 0.930614 1.03291 1.00083 0.929596 1.01253 1.01913 1.0129 1.07096 0.872214 0.933764 1.04059 0.901404 0.891651 0.891171 0.800287 0.815919 0.780868 0.870458 1.08695 0.547551 0.394138 0.57754 0.889743 0.803982 0.736049 0.717633 0.71929 0.700232 0.693264 0.734693 0.689989 0.765979 0.743613 0.769779 0.794727 0.656632 0.566878 0.694473 0.987119 0.624491 0.444453 0.424316 0.540846 0.670647 0.373886 0.618892 0.666888 0.436918 0.504293 0.542085 0.526594 0.639257 0.446215 0.308085 0.360719 0.0571243 0.502897 0.398074 0.556023 0.534219 0.83024 0.920186 0.737902 0.717636 0.70303 0.691657 0.693578 0.670822 0.71318 0.742415 0.703147 0.67794 0.723988 0.760521 0.799849 0.817647 0.855919 0.837023 0.898783 0.972107 0.985829 0.941614 0.857968 0.752033 0.879973 0.881205 0.793812 0.851008 0.882645 0.873083 1.01195 0.858692 1.00787 0.969958 1.02244 1.05101 0.950044 0.888707 1.06478 1.04614 1.04806 1.02681 1.01533 1.04184 1.03763 1.10543 1.07817 1.08832 1.01594 1.12017 1.08668 1.12463 1.12861 1.09535 1.05191 1.07927 1.02229 1.10414 1.12152 1.0351 1.07977 1.10565 1.10742 1.02282 0.959639 1.03927 1.19008 1.10657 1.03207 1.10242 1.04643 1.11422 1.07789 1.07831 1.16965 1.01579 1.06443 1.02717 1.08472 0.949109 1.03656 1.0019 0.914829 0.962044 0.981388 0.964174 1.01103 1.11657 0.77863 0.913188 1.03726 0.96156 0.937947 0.884704 0.923571 0.814333 0.882027 0.821891 0.887226 0.927637 0.940096 0.873327 0.850029 0.725518 0.649121 0.800973 0.756456 0.711752 0.7179 0.692203 0.731057 0.747143 0.625888 0.620315 0.169274 0.100741 0.337245 0.441189 0.511063 0.726426 0.515283 0.574573 0.609887 0.664847 0.398855 0.496519 0.804007 0.63855 0.849278 0.780932 0.788953 0.734257 0.71573 0.666976 0.637929 0.664263 0.63168 0.67824 0.730183 0.764285 0.804499 0.846584 0.86754 0.888925 0.922717 1.00623 0.976954 0.872562 0.399132 0.375939 0.610343 0.846634 0.898306 0.927543 0.861391 0.555072 0.903105 1.03427 0.962492 0.913054 0.899624 0.962214 0.907885 0.936463 0.953727 1.10561 1.0862 1.01989 1.04715 1.059 1.12269 1.17189 1.00676 1.16243 1.10841 1.14911 1.11983 1.09965 1.09727 1.07934 1.02575 1.03576 1.04651 1.09783 1.12738 1.10627 1.10175 0.97773 1.02683 1.15457 1.15403 1.07002 1.1407 1.07658 1.02 1.08905 1.08785 1.04643 1.04939 1.1062 0.943717 1.06423 1.0436 1.00226 1.0213 0.966128 0.897755 0.996452 1.0627 0.987606 1.12706 0.790934 0.932693 0.998263 0.963641 0.935742 0.923035 0.804886 0.865805 0.987314 0.83342 0.910233 0.845034 0.994804 0.885498 0.567856 0.810675 0.781566 0.784996 0.733877 0.722009 0.706737 0.720937 0.744977 0.814373 0.737213 0.885314 0.645905 0.110108 0.395326 0.0724376 0.582732 0.506097 0.607252 0.624206 0.737498 0.526688 0.555656 0.560326 0.669682 0.668736 0.763868 0.896009 1.28954 0.729428 0.958431 0.771283 0.829533 0.787587 0.748794 0.680792 0.733746 0.680518 0.609495 0.616385 0.714586 0.753104 0.792879 0.81613 0.829369 0.904097 0.911825 0.699959 0.73505 0.846406 0.665944 1.00983 1.06863 0.846107 0.683052 1.10592 1.01033 0.987081 0.851632 0.903235 0.956649 0.930245 0.989916 1.02583 1.07425 1.15778 1.05864 1.04837 1.21304 1.06099 1.09555 1.02434 1.14539 1.18492 1.1438 1.15393 1.10295 1.10674 1.09002 1.05035 1.13552 1.02501 1.07384 1.1256 1.10033 1.11787 1.03686 1.07877 1.11133 1.07145 1.09136 1.05792 1.07836 1.01984 0.998825 1.05386 1.1034 1.02648 1.05257 1.05225 1.03516 1.03127 1.00551 0.93611 1.05614 0.983668 1.06161 0.885045 0.980198 0.962954 0.91847 0.931157 0.975457 0.820146 0.930193 0.827973 0.796065 0.633141 0.733893 0.709034 0.956934 0.587026 0.784008 0.77717 0.761387 0.821007 0.748794 0.741291 0.740607 0.77172 0.87638 0.946292 0.587712 0.53367 0.505901 0.801058 0.568179 0.605908 0.563618 0.779963 0.569067 0.589182 0.430743 0.458521 0.729243 0.342065 1.2746 1.16598 0.857035 0.659109 0.800259 0.766771 0.796206 0.750255 0.79281 0.798155 0.775838 0.797112 0.760449 0.66296 0.535654 0.708532 0.728754 0.762249 0.806025 0.777935 0.920002 0.908668 0.908969 0.888676 0.784477 0.892978 0.967581 0.967011 0.750278 0.836585 0.819345 0.983201 1.05714 0.990746 0.992889 0.938427 0.984357 1.00087 0.927847 0.922035 1.05626 1.07861 1.12414 1.08226 1.05846 1.07784 1.04439 1.08691 1.12074 1.08094 1.07895 1.01157 1.13489 1.12306 1.15144 1.14728 1.09829 1.11683 1.09894 1.06235 1.13422 1.11368 1.07254 1.11196 1.16537 1.0884 1.10776 1.11684 1.13037 0.978862 1.06971 1.11143 1.09521 1.12046 1.07397 1.05334 1.02486 1.00469 1.06327 1.0856 1.08016 1.06289 1.05449 1.04729 1.06302 0.916924 1.07529 1.00313 1.08705 1.05405 1.01705 0.842043 1.00767 0.950811 0.915671 0.970782 0.961428 0.843417 0.71395 0.585231 0.821106 0.854714 0.894925 0.637412 0.700218 0.711481 0.781841 0.802577 0.735628 0.620583 0.918197 0.878634 0.635348 0.783616 0.698739 0.76555 0.893378 0.53502 0.438924 0.714131 0.740926 0.576646 0.51661 0.595376 0.655566 0.644385 0.663129 0.500761 0.354891 0.939604 0.808156 0.78539 0.792314 0.795333 0.803916 0.813122 0.792986 0.84665 0.699926 0.625319 0.653108 0.830841 0.815829 0.804448 0.878802 0.887852 0.884813 0.874069 0.895195 0.91098 0.860241 0.904893 0.844098 0.898309 0.834889 0.891047 0.882741 0.933761 1.00149 1.00837 1.06754 0.956064 1.17522 1.13467 1.06565 1.04937 1.02857 1.04503 1.03569 1.09391 1.15336 1.03773 1.0178 1.14408 1.13118 1.14242 1.15536 1.10674 1.083 1.12502 1.07426 1.11025 1.07737 1.11994 1.1513 1.10423 1.10139 1.13133 1.09915 1.12134 1.13798 1.09588 1.11983 1.09991 1.0982 1.1226 1.13857 1.09448 1.06075 1.07297 1.01162 1.08238 1.06425 1.07296 1.08001 1.05965 1.05917 1.003 0.816687 1.04897 0.958062 1.00154 1.04891 1.0339 1.09518 0.963182 1.06306 0.963844 0.989853 0.824045 0.994286 0.860439 0.842017 0.739445 0.787644 0.776975 0.71604 1.06 0.768997 0.911929 0.80239 0.763853 0.760706 0.819552 0.828665 0.719193 0.78615 0.840916 0.648298 0.700048 0.67797 0.672793 0.614048 0.678322 0.643856 0.699814 0.678411 0.54486 0.62901 0.445852 0.934941 0.821936 0.826726 0.787169 0.843005 0.809771 0.787339 0.756877 0.849673 0.818291 0.831981 0.883779 0.905129 0.882283 0.885201 0.608527 0.848892 0.838677 0.834416 0.883133 0.895116 0.910201 0.888924 0.89757 0.931797 0.864953 1.02779 0.923566 0.910783 0.938298 0.939742 1.00099 1.04774 1.02993 1.08407 1.18995 1.0962 1.04232 1.00362 1.0479 1.03207 1.0956 1.12278 1.21631 1.03863 1.02896 1.15019 1.15365 1.14934 1.14668 1.12473 1.09759 1.12403 1.17558 1.13085 1.09121 1.11283 1.12624 1.12772 1.13503 1.16107 1.11222 1.16019 1.1267 1.13145 1.0975 1.09951 1.1321 1.10904 1.12845 1.09963 1.13343 1.10896 1.10054 1.03655 1.10203 1.11133 1.0755 1.0951 1.10536 1.07217 1.04496 0.998824 1.09533 0.945138 0.997508 1.01148 1.06022 1.04372 1.10547 1.05584 0.98439 0.980798 0.953796 1.01545 1.08035 0.930776 0.864236 0.855452 0.800051 1.04677 1.01208 0.958071 0.640493 0.506463 0.823867 0.88103 0.889246 0.812347 0.7823 0.810028 0.829232 0.810258 0.741451 0.751867 0.661128 0.660757 0.671042 0.72042 0.688369 0.433423 0.766068 0.80774 0.809977 0.876623 0.838498 0.732819 0.833967 0.882616 0.887994 0.903706 0.934679 1.07885 1.14153 0.865066 0.836607 0.871171 0.944376 0.897134 0.94245 1.05531 0.966487 0.945566 0.954091 0.98127 0.983206 0.984291 1.06779 1.06375 1.03555 1.121 1.1345 1.0932 1.05303 1.01964 1.03173 1.04259 1.09194 1.11424 1.22111 1.05174 1.08276 1.13921 1.17831 1.12968 1.12433 1.18596 1.18016 1.13554 1.10327 1.12851 1.14109 1.1542 1.15574 1.16391 1.13259 1.13055 1.10894 1.10359 1.11627 1.12678 1.1032 1.07199 1.11041 1.09452 1.03821 1.10499 1.09688 1.09555 1.08949 1.03669 1.02758 1.04539 1.06983 0.99455 0.978633 0.934214 1.01031 1.00935 1.13425 1.06652 0.995479 0.972609 1.03649 1.11474 0.962087 1.05985 0.902889 0.876206 0.890498 0.879998 0.851261 0.833166 1.01571 0.992557 0.833887 0.801374 0.809934 0.838001 0.850003 0.810095 0.813112 0.773142 0.868553 0.695342 0.774579 0.685959 0.852447 1.02673 0.374514 0.715371 0.761011 0.742716 0.790411 0.87426 0.890371 0.971039 0.768095 0.877567 0.936356 0.971327 0.916907 0.914909 0.90239 0.962605 1.12976 0.832549 0.860527 0.869683 0.811616 0.96793 0.993642 0.940405 0.942808 1.06861 1.02812 0.990691 0.980866 0.966722 0.985587 0.986821 1.09046 1.07063 1.07736 0.944802 0.960042 1.05272 1.14688 1.07446 1.0476 0.998291 1.04968 1.05146 1.09656 1.1493 1.1081 1.12123 1.09058 1.1238 1.16453 1.1727 1.13063 1.15791 1.12643 1.11855 1.14054 1.11961 1.1173 1.13684 1.14234 1.15616 1.15685 1.23592 1.14502 1.12169 1.12118 1.12053 1.13392 1.09443 1.1169 1.16891 1.13666 1.06124 1.06692 1.10213 1.09946 1.04523 1.07314 1.06055 1.02719 1.01871 0.994654 0.942839 0.978288 1.07232 0.998419 0.990057 0.998234 1.07598 1.05524 0.873722 0.84879 0.895096 0.85506 0.920943 1.05479 1.03008 1.04418 0.915145 0.779486 0.8497 0.884864 0.855293 0.830162 0.845543 0.794615 0.80272 0.873783 0.88579 0.689629 0.898908 1.36076 0.701959 0.63736 0.776522 0.835032 0.963587 1.06481 0.908372 0.986794 0.938266 1.01671 1.02597 0.905975 1.05702 0.894953 0.881061 0.897456 0.964185 0.960909 0.984114 1.04641 1.0203 1.00577 1.00974 1.18295 0.929516 0.910198 1.06234 1.03601 1.06567 1.14808 1.15497 1.06822 1.05929 1.06234 1.0583 1.06312 1.14395 1.05051 1.10952 1.13908 1.14073 1.10227 1.12319 1.19463 1.13774 1.15446 1.14957 1.13583 1.11886 1.15291 1.14331 1.13537 1.11924 1.14182 1.14638 1.13898 1.18706 1.14961 1.18587 1.12566 1.12516 1.12938 1.14184 1.13504 1.15423 1.13882 1.14022 1.06873 1.06618 1.09911 1.12613 1.11237 1.03239 1.09725 1.06881 1.01017 0.948702 0.995471 1.04159 1.04152 0.993081 1.04113 1.08895 1.10423 1.03904 0.849416 0.812031 0.891168 0.996356 1.03232 0.916209 1.05964 0.989978 1.02669 1.07187 0.933447 0.786286 0.898819 0.898497 0.893852 0.883911 0.872819 0.883461 0.882616 0.86909 0.699623 0.998137 1.31569 0.814658 0.795333 0.805663 0.932479 1.05246 1.01463 0.952201 1.00337 1.00924 0.977902 0.978184 1.02654 1.0455 1.04302 1.0335 0.951347 0.982836 0.975539 0.994186 1.05051 1.03241 1.01109 1.01296 0.92198 0.921616 1.17107 1.16722 1.06147 1.15118 1.08637 1.07196 1.04078 1.05436 1.05888 1.06592 1.11302 1.16281 1.15853 1.11952 1.10836 1.1452 1.14223 1.16353 1.20084 1.13895 1.14844 1.15202 1.14639 1.14616 1.14484 1.24787 1.26284 1.14226 1.16865 1.18613 1.18156 1.12586 1.13053 1.20382 1.14339 1.14593 1.12248 1.13224 1.14313 1.14608 1.10536 1.06866 1.02291 1.12802 1.11512 1.1408 1.09439 1.07059 1.008 1.04517 1.06034 1.09279 1.01163 1.0181 1.02603 0.989362 1.08442 1.11086 1.06502 0.927249 0.903733 0.995116 1.01151 0.974863 0.932803 0.91902 0.959723 1.03992 1.04189 0.87843 0.769183 0.948965 0.906185 0.92369 0.947689 0.910571 0.910021 0.959567 0.9109 0.900412 0.919135 0.711083 1.04935 1.21206 0.891694 1.0054 0.95087 1.06211 0.998174 1.0522 1.01906 1.0173 0.983708 1.03223 1.04612 1.04191 1.10267 1.01284 1.0639 1.00141 0.963157 1.00797 0.98761 1.03042 1.06945 1.15028 1.01229 0.959834 1.17103 1.04003 1.14393 1.14187 1.10586 1.08386 1.08791 1.06257 1.0585 1.076 1.0824 1.11346 1.1394 1.1668 1.11941 1.15225 1.15609 1.15047 1.15572 1.17096 1.1995 1.13801 1.1598 1.1571 1.148 1.15247 1.2091 1.18336 1.16502 1.14585 1.14385 1.16301 1.20256 1.15106 1.14498 1.12695 1.14147 1.14089 1.12483 1.12969 1.10358 1.10776 1.15749 1.17654 1.10631 1.11994 1.11401 1.10599 1.16582 1.10629 1.04633 1.03932 1.07596 0.957952 1.03413 1.01477 1.02416 1.00543 1.01272 0.970808 0.968653 0.962911 1.06611 1.07637 1.03087 1.03628 1.04417 0.99598 0.952965 0.99144 1.02775 1.03838 1.03919 0.982863 0.920481 0.987959 0.990688 0.945657 0.966737 0.952557 0.945177 0.988187 0.930259 0.733548 1.05928 1.12147 0.934021 0.922718 1.05538 0.957621 1.0167 1.03725 0.992675 1.04765 1.0734 1.06396 1.06859 1.02785 1.04856 0.991708 1.02524 0.996138 1.04363 1.10629 1.09187 1.05109 1.11374 0.986292 1.14996 1.03231 1.13496 1.14079 1.11883 1.07593 1.09635 1.09426 1.14477 1.1587 1.16909 1.14327 1.19607 1.21504 1.15632 1.15507 1.17271 1.13065 1.20168 1.18036 1.15791 1.13886 1.14496 1.15202 1.20065 1.17958 1.17994 1.15502 1.18813 1.161 1.18936 1.16024 1.15124 1.1495 1.15603 1.13565 1.13335 1.16132 1.1776 1.10334 1.11805 1.11697 1.15639 1.18887 1.13847 1.08281 1.02704 1.09211 0.968549 1.0501 1.00767 1.05254 1.00964 0.99625 1.06956 1.03683 1.09804 1.03913 1.02638 1.05228 0.975137 0.951137 0.951043 0.978426 1.03599 1.0233 1.11833 1.05532 0.983167 1.01643 1.00295 0.959481 0.982375 0.973541 1.01683 0.926191 0.777071 1.04547 1.02882 1.07291 1.03436 1.04174 1.18863 1.05671 1.01247 0.969607 1.03564 1.03993 1.04803 1.01537 1.06306 1.06567 1.06543 1.07486 1.01122 1.02636 1.06724 1.04037 1.05768 1.04698 1.02223 1.04667 1.07339 1.13132 1.06049 1.0853 1.084 1.04304 1.10725 1.05135 1.14429 1.12921 1.11669 1.11778 1.08088 1.1101 1.12476 1.15946 1.16808 1.17256 1.17156 1.16819 1.17357 1.14158 1.16561 1.16626 1.16262 1.17268 1.13561 1.16571 1.20363 1.18443 1.18066 1.16465 1.14999 1.16586 1.17649 1.18857 1.17366 1.15426 1.16814 1.18713 1.16416 1.16698 1.16075 1.1408 1.20008 1.15954 1.13363 1.14684 1.12058 1.14094 1.11932 1.17942 1.30638 1.08523 1.10999 1.20359 1.13811 1.03929 0.995142 1.04363 1.03613 1.00918 1.16607 1.05019 1.02814 1.06409 1.02847 1.04229 1.05418 1.05673 1.02658 0.971045 1.05679 1.02168 1.12508 1.09592 1.02452 1.04395 1.02862 0.98482 1.02141 1.0362 0.935739 0.82967 0.877366 1.06473 1.11323 1.03073 1.17126 1.02826 1.04642 1.04887 1.07092 1.07776 1.07851 1.01469 1.0967 1.06951 1.06887 1.0821 1.06316 1.05637 1.07645 1.13029 1.05911 1.07902 1.06106 1.09141 1.09515 1.14623 1.15026 1.13567 1.11186 1.11088 1.12551 1.18379 1.17226 1.13855 1.15095 1.12008 1.16724 1.17639 1.17261 1.1656 1.20088 1.17322 1.1624 1.16539 1.17371 1.13872 1.16604 1.19532 1.17873 1.1665 1.1877 1.17487 1.16551 1.16999 1.16927 1.17532 1.14835 1.16732 1.17478 1.16794 1.1739 1.18259 1.16365 1.16465 1.17219 1.17438 1.16413 1.13967 1.14354 1.15476 1.14994 1.15051 1.14469 1.13186 1.17595 1.18275 1.09837 1.19167 1.08951 1.17062 1.10688 1.02481 1.17274 1.08224 1.0084 1.16209 1.06992 1.06218 1.03695 1.02609 1.05457 1.05337 1.05918 1.01667 1.08296 1.03724 1.03327 1.12259 1.12631 1.03547 1.0833 1.06151 1.07196 1.05804 1.05442 1.02534 1.04506 0.940252 0.917108 1.03172 1.07006 1.10497 1.11662 1.03004 1.16038 1.04209 1.06787 1.09817 1.09661 1.08006 1.02881 1.09142 1.17321 1.08233 1.09213 1.0734 1.09345 1.11294 1.16067 1.06598 1.10655 1.09058 1.16432 1.12758 1.14153 1.14058 1.15549 1.1337 1.13681 1.17484 1.1769 1.17689 1.16701 1.17057 1.16942 1.17659 1.17582 1.14152 1.14122 1.16816 1.16817 1.19535 1.18314 1.1658 1.18847 1.17736 1.17152 1.17168 1.19448 1.17561 1.15041 1.16438 1.17025 1.13564 1.16641 1.17115 1.16889 1.17357 1.15514 1.15956 1.1447 1.15006 1.17307 1.16311 1.177 1.17395 1.11389 1.17976 1.07895 1.1065 1.1995 1.02546 1.14535 1.23761 1.10666 1.08686 1.22772 1.16663 1.05936 1.0492 1.09354 1.04641 1.06466 1.06471 0.942323 1.07958 1.08722 1.03245 1.06446 1.03915 1.13956 1.09625 1.09562 1.16033 1.15881 1.08692 1.05989 1.09261 1.11791 1.03265 0.944328 1.00237 0.942937 1.04774 1.0748 1.10381 1.12343 1.18034 1.15704 1.05097 1.04047 1.07705 1.09243 1.115 1.09875 1.04979 1.19332 1.13218 1.09442 1.09612 1.09837 1.09202 1.12516 1.10585 1.15309 1.17234 1.105 1.1066 1.09991 1.14257 1.16546 1.15267 1.13965 1.16818 1.1551 1.15092 1.14305 1.17847 1.15236 1.14199 1.1754 1.17949 1.17817 1.16953 1.16759 1.17054 1.17087 1.20078 1.16782 1.18909 1.18277 1.16651 1.17063 1.18872 1.1787 1.17846 1.17462 1.17351 1.18223 1.19099 1.1927 1.17183 1.1495 1.18022 1.16381 1.15724 1.17076 1.19627 1.17296 1.16952 1.17221 1.17299 1.16191 1.16945 1.16216 1.16406 1.15847 1.16376 1.16853 1.17425 1.11281 1.12099 1.17748 1.09885 1.15035 1.16414 1.12277 1.16081 1.25006 1.21938 1.135 1.09224 1.05002 1.04726 1.05073 1.07479 1.08195 1.15739 1.07981 1.15375 1.15722 1.09166 1.09655 1.10325 1.1635 1.17624 1.10981 1.05511 1.08626 1.09963 1.109 1.05927 0.967618 1.03967 1.07956 1.10538 1.12005 1.14 1.15022 1.1697 1.03983 1.09149 1.08362 1.09425 1.10967 1.11598 1.08645 1.17343 1.10139 1.13757 1.1327 1.09449 1.10121 1.13116 1.11948 1.13095 1.14868 1.16095 1.11939 1.11151 1.16366 1.17945 1.15366 1.16663 1.15781 1.15119 1.14423 1.14607 1.17851 1.16586 1.16058 1.13815 1.15408 1.18297 1.18191 1.16958 1.18531 1.17696 1.1783 1.17443 1.1977 1.19173 1.19023 1.1833 1.19772 1.18059 1.18406 1.19062 1.19178 1.17788 1.19178 1.17865 1.18856 1.2066 1.17343 1.18184 1.18096 1.16582 1.16084 1.17258 1.1799 1.17072 1.16928 1.17558 1.17694 1.13123 1.13025 1.16272 1.16601 1.15672 1.16033 1.12268 1.1158 1.15199 1.12412 1.11325 1.13608 1.09241 1.10001 1.05865 1.07215 1.06703 1.09217 1.11037 1.15878 1.09569 1.12021 1.1364 1.10042 1.12354 1.02787 1.09746 1.13693 1.0648 1.07159 1.1026 1.10893 1.09503 1.06965 0.977689 1.05965 1.12416 1.10556 1.12849 1.13711 1.14523 1.12824 1.1184 1.12482 1.08647 1.16938 1.15175 1.15252 1.15762 1.13008 1.12311 1.10414 1.10532 1.14278 1.12834 1.11794 1.10407 1.14163 1.14886 1.13031 1.14714 1.15036 1.12824 1.13233 1.1693 1.16911 1.17463 1.15232 1.16424 1.16676 1.18167 1.18352 1.19386 1.1731 1.15972 1.17477 1.17842 1.18039 1.18693 1.18583 1.18031 1.19079 1.19175 1.19793 1.19311 1.18856 1.17574 1.17247 1.19178 1.19178 1.18317 1.18987 1.17935 1.17845 1.18541 1.16865 1.17574 1.18296 1.18057 1.16099 1.1622 1.16543 1.16626 1.18387 1.17175 1.18079 1.17033 1.17646 1.17017 1.17535 1.14957 1.14086 1.16098 1.17137 1.15505 1.16557 1.15465 1.12733 1.13877 1.1094 1.12051 1.11769 1.12346 1.14251 1.09641 1.10301 1.13004 1.11476 1.13715 1.07455 1.10612 1.11069 1.1318 1.09577 1.07796 0.985477 1.06692 1.1327 1.11473 1.1257 1.13723 1.119 1.12757 1.12203 1.12646 1.15812 1.1602 1.14149 1.12035 1.14714 1.13797 1.13026 1.1338 1.14092 1.12909 1.14418 1.15515 1.14836 1.15445 1.15792 1.15323 1.13974 1.17176 1.16005 1.17323 1.19182 1.17948 1.16095 1.17318 1.19726 1.18235 1.17882 1.17539 1.17889 1.17588 1.1861 1.18253 1.18347 1.17471 1.19071 1.1911 1.19312 1.17676 1.19358 1.19336 1.18249 1.19178 1.18632 1.18725 1.19031 1.19421 1.18325 1.17576 1.1842 1.18078 1.18227 1.18566 1.16363 1.16826 1.16605 1.1818 1.18458 1.16794 1.18096 1.18144 1.15033 1.14898 1.15322 1.14855 1.16802 1.1695 1.19647 1.13503 1.12713 1.1115 1.12514 1.13551 1.12592 1.15467 1.22378 1.16241 1.11325 1.14036 1.12676 1.12178 1.10865 1.11926 1.11673 1.13534 1.14502 1.14375 1.1428 1.09378 1.12302 1.12387 1.13124 1.09003 1.10932 1.08143 1.01187 1.06482 1.07031 1.11573 1.10981 1.15335 1.16568 1.13124 1.07344 1.12174 1.12205 1.12554 1.1414 1.14243 1.16049 1.15082 1.14736 1.13503 1.17635 1.14591 1.14288 1.13508 1.14335 1.15758 1.15178 1.15028 1.16362 1.15689 1.16716 1.15032 1.1473 1.16409 1.17297 1.19165 1.16669 1.16498 1.17136 1.19781 1.18246 1.18232 1.16007 1.16069 1.18163 1.17717 1.18701 1.18293 1.18894 1.17889 1.19233 1.19178 1.19178 1.18905 1.18067 1.19501 1.19178 1.18321 1.18663 1.19386 1.18737 1.18975 1.19405 1.17793 1.18233 1.19079 1.1766 1.17128 1.18602 1.18711 1.1646 1.16926 1.16597 1.17964 1.18111 1.17584 1.17287 1.17664 1.18129 1.16574 1.16557 1.15774 1.14205 1.17911 1.14536 1.14336 1.14064 1.1377 1.1402 1.17385 1.13709 1.12621 1.16088 1.17973 1.18605 1.14847 1.09705 1.12328 1.1352 1.15048 1.14805 1.12529 1.12764 1.1569 1.1307 1.07437 1.02998 1.07282 1.10211 1.14492 1.14194 1.11992 1.12525 1.12523 1.12873 1.14326 1.15966 1.16393 1.14119 1.17574 1.1651 1.14438 1.14836 1.14299 1.15508 1.16841 1.16634 1.16364 1.16797 1.17253 1.15534 1.17207 1.16652 1.17398 1.17644 1.16261 1.19193 1.19041 1.16754 1.19178 1.18311 1.18514 1.18607 1.18536 1.18173 1.18644 1.18124 1.19184 1.18529 1.18714 1.19184 1.19178 1.19179 1.19147 1.19119 1.1855 1.19178 1.18895 1.1876 1.18891 1.19316 1.19351 1.18651 1.1777 1.18393 1.18354 1.19094 1.18837 1.17694 1.17377 1.18465 1.18663 1.17539 1.16925 1.1794 1.17804 1.18334 1.1707 1.17024 1.14407 1.17471 1.1756 1.13395 1.13853 1.14545 1.19086 1.19221 1.14985 1.17201 1.14284 1.13992 1.12897 1.16013 1.13492 1.15738 1.19237 1.18978 1.14171 1.14285 1.1523 1.1618 1.16042 1.13647 1.08041 1.03195 1.15404 1.12845 1.16764 1.12794 1.12995 1.15953 1.16504 1.15061 1.14621 1.19589 1.19523 1.14735 1.18333 1.14106 1.14014 1.14369 1.15732 1.16588 1.16185 1.18252 1.17151 1.17289 1.17225 1.16365 1.17331 1.19174 1.17819 1.1724 1.19281 1.18343 1.18599 1.19178 1.18568 1.19238 1.18723 1.18791 1.18975 1.18676 1.19165 1.1921 1.19243 1.19109 1.18517 1.19142 1.18921 1.18762 1.19112 1.18919 1.18972 1.18636 1.18562 1.18322 1.18617 1.1775 1.17659 1.18762 1.18521 1.18644 1.17703 1.16685 1.18227 1.18342 1.18694 1.17774 1.17849 1.16529 1.1721 1.17184 1.14286 1.17487 1.126 1.13238 1.18025 1.1544 1.16146 1.15726 1.16061 1.15387 1.14385 1.15141 1.12857 1.17869 1.13694 1.15701 1.15211 1.15314 1.17682 1.13155 1.14384 1.14528 1.16465 1.1759 1.11807 1.1475 1.0815 1.15675 1.1589 1.15822 1.14809 1.14379 1.13061 1.12968 1.13475 1.1328 1.16831 1.15437 1.1456 1.1578 1.16693 1.16738 1.19024 1.17117 1.16478 1.17117 1.1746 1.18811 1.18566 1.17754 1.16751 1.18148 1.17896 1.17852 1.16553 1.17225 1.19178 1.16191 1.12701 1.13929 1.14212 1.13569 1.1376 1.16249 1.16061 1.12943 1.1448 1.16628 1.16571 1.15502 
SCALARS Stress float 1
LOOKUP_TABLE default
-279397000000.0 -402824000000.0 -195312000000.0 -805639000000.0 -12737600000.0 -12989200000.0 -398919000000.0 -202057000000.0 -328148000000.0 -215098000000.0 -521678000000.0 -625285000000.0 -1.55746e+12 -405381000000.0 -1.06217e+12 -610143000000.0 -838275000000.0 -352091000000.0 -550189000000.0 -766205000000.0 -900495000000.0 -960674000000.0 -230583000000.0 -204142000000.0 -404612000000.0 -360800000000.0 -688889000000.0 -874980000000.0 -468821000000.0 -481775000000.0 -970760000000.0 -1.02164e+12 -862746000000.0 -1.9203e+12 -2.87437e+12 -2.41141e+12 -2.36985e+12 -851165000000.0 -1.44212e+12 -991457000000.0 -2.0172e+12 -580353000000.0 -1.08383e+12 -848326000000.0 -641856000000.0 -226131000000.0 -1.4782e+12 -646169000000.0 -1.10854e+12 -1.19648e+12 -1.16778e+12 -539538000000.0 -1.22988e+12 -1.59714e+12 -981299000000.0 -2.44203e+12 -482860000000.0 -1.47554e+12 -2.56988e+12 -931991000000.0 -2.30619e+12 -4.9199e+12 -3.56348e+12 -2.1123e+12 -1.6418e+12 -2.33731e+12 -1.53159e+12 -1.17734e+12 -897994000000.0 -1.37326e+12 -1.29482e+12 -1.55027e+12 -1.9511e+12 -1.94473e+12 -1.67141e+12 -1.40407e+12 -1.06402e+12 -1.52546e+12 -1.10332e+12 -1.84563e+12 -1.39264e+12 -1.92095e+12 -3.16016e+12 -3.80239e+12 -2.05097e+12 -3.21003e+12 -3.67169e+12 -6.02847e+12 -1.95497e+12 -2.84748e+12 -3.10944e+12 -2.90169e+12 -5.26967e+12 -3.35422e+12 -6.56097e+12 -7.28106e+12 -6.12111e+12 -3.67037e+12 -4.63102e+12 -2.53019e+12 -3.04926e+12 -1.41376e+12 -2.69485e+12 -1.69351e+12 -1.00768e+12 -1.9878e+12 -1.27499e+12 -1.12218e+12 -2.07254e+12 -3.02178e+12 -1.57324e+12 -3.49102e+12 -1.00615e+12 -2.15982e+12 -4.38692e+12 -1.83005e+12 -2.55992e+12 -2.94372e+12 -3.34767e+12 -4.93522e+12 -3.47825e+12 -3.16139e+12 -6.09143e+12 -2.34241e+12 -2.20134e+12 -4.20569e+12 -4.12932e+12 -3.84515e+12 -4.13041e+12 -6.95945e+12 -7.67195e+12 -7.55766e+12 -4.53213e+12 -3.68635e+12 -4.81381e+12 -3.94418e+12 -3.90693e+12 -1.47796e+12 -1.05506e+12 -3.28138e+12 -1.54029e+12 -1.40591e+12 -1.57462e+12 -1.79215e+12 -2.14061e+12 -870753000000.0 -917081000000.0 -2.7472e+12 -2.5939e+12 -2.66416e+12 -2.05923e+12 -1.96378e+12 -2.48715e+12 -1.01171e+12 -1.96647e+12 -1.39656e+12 -1.77755e+12 -3.27137e+12 -2.866e+12 -4.24061e+12 -4.36116e+12 -3.13777e+12 -4.14327e+12 -4.64889e+12 -3.76914e+12 -2.68489e+12 -4.2043e+12 -4.46248e+12 -5.43802e+12 -7.67336e+12 -4.73918e+12 -5.78214e+12 -7.61359e+12 -3.61676e+12 -3.91757e+12 -3.95955e+12 -4.46169e+12 -6.49575e+12 -5.49941e+12 -6.27962e+12 -4.38211e+12 -3.69969e+12 -7.68115e+12 -7.12627e+12 -5.0113e+12 -2.39493e+12 -4.40123e+12 -2.00717e+12 -2.96018e+12 -3.68455e+12 -3.38127e+12 -2.3998e+12 -2.536e+12 -3.4135e+12 -1.69016e+12 -2.15189e+12 -2.39302e+12 -3.13416e+12 -3.25817e+12 -2.34327e+12 -3.61502e+12 -2.46198e+12 -4.06734e+12 -3.12662e+12 -2.05369e+12 -4.80097e+12 -4.63889e+12 -4.02398e+12 -3.71796e+12 -3.87282e+12 -6.37918e+12 -6.59535e+12 -6.01403e+12 -5.51969e+12 -4.8306e+12 -5.06111e+12 -7.32441e+12 -4.31846e+12 -5.86743e+12 -5.93949e+12 -3.18382e+12 -4.93286e+12 -2.79495e+12 -3.73309e+12 -7.40792e+12 -6.03564e+12 -6.79083e+12 -5.83462e+12 -3.73551e+12 -3.60114e+12 -3.3635e+12 -4.57056e+12 -2.67887e+12 -6.29559e+12 -5.75505e+12 -4.35957e+12 -4.71135e+12 -2.77528e+12 -2.65376e+12 -4.72678e+12 -3.09211e+12 -3.40459e+12 -2.99585e+12 -1.07502e+12 -2.09413e+12 -1.69817e+12 -2.64643e+12 -3.64043e+12 -3.99623e+12 -4.07314e+12 -4.08221e+12 -3.51447e+12 -3.02636e+12 -3.91137e+12 -4.28487e+12 -5.81712e+12 -3.98804e+12 -6.8725e+12 -3.49716e+12 -8.53102e+12 -9.10432e+12 -9.36006e+12 -1.23328e+13 -6.89169e+12 -7.52515e+12 -6.80404e+12 -4.1199e+12 -2.95307e+12 -4.14827e+12 -5.63075e+12 -5.36615e+12 -5.12761e+12 -5.02053e+12 -3.15692e+12 -7.12351e+12 -5.53846e+12 -2.96176e+12 -3.52901e+12 -7.52725e+12 -5.61863e+12 -6.11882e+12 -6.87045e+12 -5.21277e+12 -5.33375e+12 -7.98873e+12 -2.86718e+12 -1.83572e+12 -5.81883e+12 -5.5985e+12 -3.70322e+12 -1.92842e+12 -3.42698e+12 -3.66467e+12 -2.1568e+12 -3.54147e+12 -2.65305e+12 -3.10588e+12 -2.66776e+12 -2.85371e+12 -4.35904e+12 -2.80395e+12 -3.03157e+12 -3.34037e+12 -4.39868e+12 -3.00375e+12 -3.35616e+12 -3.87184e+12 -5.43838e+12 -5.27953e+12 -6.71068e+12 -3.24326e+12 -6.07405e+12 -5.73379e+12 -7.12546e+12 -6.50378e+12 -5.51569e+12 -2.05069e+12 -7.88249e+12 -6.96935e+12 -5.0681e+12 -6.99237e+12 -4.82048e+12 -2.40681e+12 -6.8096e+12 -3.24851e+12 -4.40798e+12 -3.88391e+12 -3.40742e+12 -9.12471e+12 -6.43251e+12 -8.83092e+12 -9.25672e+12 -3.93926e+12 -7.78724e+12 -4.79134e+12 -7.15996e+12 -5.22686e+12 -7.24911e+12 -4.86736e+12 -4.41979e+12 -4.7407e+12 -6.74569e+12 -4.63754e+12 -3.94944e+12 -3.56769e+12 -4.61596e+12 -3.32409e+12 -4.17628e+12 -2.25637e+12 -3.64497e+12 -4.28607e+12 -1.23431e+12 -1.34176e+12 -1.77527e+12 -2.24296e+12 -2.61165e+12 -2.66577e+12 -2.35466e+12 -2.18871e+12 -5.48089e+12 -3.14493e+12 -2.63272e+12 -3.01224e+12 -1.73514e+12 -3.0615e+12 -4.62791e+12 -4.30152e+12 -3.48627e+12 -1.58572e+12 -3.76062e+12 -1.77763e+12 -5.69612e+12 -7.0066e+12 -4.92458e+12 -4.24459e+12 -6.42703e+12 -3.5075e+12 -4.05948e+12 -5.06805e+12 -7.36525e+12 -5.33875e+12 -5.8244e+12 -6.93117e+12 -4.76702e+12 -4.4224e+12 -5.09489e+12 -9.80853e+12 -4.17397e+12 -1.1111e+13 -5.38639e+12 -3.20946e+12 -5.01151e+12 -3.8757e+12 -4.07992e+12 -7.69778e+12 -3.86863e+12 -5.65181e+12 -3.38196e+12 -7.24279e+12 -3.87663e+12 -9.12023e+12 -4.2701e+12 -5.59661e+12 -7.06508e+12 -4.61709e+12 -7.0302e+12 -3.92756e+12 -8.98171e+12 -6.05281e+12 -5.86396e+12 -7.22108e+12 -4.30037e+12 -3.19252e+12 -4.52522e+12 -4.90573e+12 -5.43426e+12 -3.9806e+12 -3.99102e+12 -4.10319e+12 -4.93475e+12 -2.43927e+12 -3.89281e+12 -5.03707e+12 -3.93985e+12 -2.82687e+12 -2.95682e+12 -3.83268e+12 -2.38725e+12 -3.25393e+12 -3.43999e+12 -2.62921e+12 -3.35327e+12 -3.31034e+12 -5.33623e+12 -5.25358e+12 -2.54519e+12 -3.00206e+12 -4.82545e+12 -2.86248e+12 -3.0034e+12 -3.43431e+12 -1.65931e+12 -3.17793e+12 -3.29029e+12 -3.85755e+12 -2.71666e+12 -3.59601e+12 -4.12793e+12 -3.64584e+12 -3.80923e+12 -5.82721e+12 -5.04801e+12 -5.26398e+12 -7.23208e+12 -7.73276e+12 -8.57308e+12 -4.79566e+12 -6.86027e+12 -5.23122e+12 -1.18893e+13 -6.49527e+12 -6.09119e+12 -6.09869e+12 -5.1932e+12 -5.28228e+12 -3.84996e+12 -2.87136e+12 -3.3758e+12 -5.17603e+12 -8.12502e+12 -9.30559e+12 -4.40516e+12 -6.66813e+12 -6.2635e+12 -5.39058e+12 -6.44324e+12 -3.8103e+12 -3.33758e+12 -4.93983e+12 -6.56766e+12 -8.80256e+12 -2.71549e+12 -5.52409e+12 -5.72921e+12 -6.61688e+12 -5.40964e+12 -7.13724e+12 -4.70694e+12 -2.5252e+12 -2.5236e+12 -4.62472e+12 -2.85189e+12 -3.57544e+12 -2.68028e+12 -4.56147e+12 -2.40718e+12 -3.48944e+12 -2.74136e+12 -2.64345e+12 -1.8053e+12 -2.34385e+12 -2.27322e+12 -2.8218e+12 -2.48233e+12 -2.32821e+12 -3.20542e+12 -2.6678e+12 -1.70328e+12 -3.02531e+12 -1.78869e+12 -2.29406e+12 -2.39561e+12 -2.83697e+12 -3.05813e+12 -3.48131e+12 -3.8861e+12 -4.37264e+12 -1.88546e+12 -3.96743e+12 -4.55837e+12 -4.41445e+12 -4.0446e+12 -4.01245e+12 -4.6554e+12 -4.47764e+12 -4.36309e+12 -6.27609e+12 -2.18617e+12 -3.67465e+12 -3.27485e+12 -4.56076e+12 -5.68839e+12 -5.16516e+12 -5.86435e+12 -6.27194e+12 -6.57104e+12 -8.93448e+12 -8.93881e+12 -7.6126e+12 -8.61498e+12 -9.02182e+12 -4.72526e+12 -4.24874e+12 -6.09781e+12 -6.86969e+12 -4.86148e+12 -4.26265e+12 -8.67922e+12 -4.47556e+12 -4.05446e+12 -3.2905e+12 -3.23234e+12 -2.74031e+12 -5.61326e+12 -7.16944e+12 -5.10943e+12 -7.02227e+12 -8.7519e+12 -4.67494e+12 -5.49756e+12 -2.82304e+12 -5.94254e+12 -5.16752e+12 -4.473e+12 -5.21849e+12 -6.70766e+12 -3.85518e+12 -5.16958e+12 -8.80153e+12 -6.42645e+12 -4.80321e+12 -5.71656e+12 -4.87861e+12 -2.78706e+12 -2.74868e+12 -4.99739e+12 -6.64716e+12 -3.67456e+12 -4.89659e+12 -3.87252e+12 -5.64593e+12 -3.72924e+12 -4.80056e+12 -4.07804e+12 -3.72126e+12 -3.63852e+12 -4.15267e+12 -2.58143e+12 -2.07262e+12 -1.31171e+12 -2.71146e+12 -2.81217e+12 -2.49557e+12 -3.76851e+12 -2.05061e+12 -1.5597e+12 -1.72787e+12 -2.17419e+12 -1.95187e+12 -1.69781e+12 -2.26852e+12 -2.34083e+12 -1.98186e+12 -3.44246e+12 -2.22862e+12 -3.4356e+12 -3.86867e+12 -1.83436e+12 -1.96031e+12 -2.25791e+12 -3.31689e+12 -4.70283e+12 -3.45424e+12 -3.51306e+12 -4.23143e+12 -5.04681e+12 -3.71612e+12 -2.66275e+12 -3.64347e+12 -1.03517e+13 -4.22882e+12 -8.33759e+12 -4.3551e+12 -5.70962e+12 -1.3411e+13 -2.95013e+12 -8.65066e+12 -5.05649e+12 -5.64102e+12 -7.97124e+12 -7.45426e+12 -9.74778e+12 -5.42831e+12 -4.27888e+12 -6.46453e+12 -7.14294e+12 -5.39517e+12 -3.09922e+12 -2.7937e+12 -5.98502e+12 -6.24637e+12 -4.32215e+12 -2.87745e+12 -3.87547e+12 -5.02284e+12 -8.72292e+12 -4.68912e+12 -4.13885e+12 -7.85397e+12 -5.30211e+12 -7.46502e+12 -6.40707e+12 -8.97949e+12 -7.15715e+12 -5.40917e+12 -4.11795e+12 -4.00843e+12 -5.09197e+12 -6.54763e+12 -8.9014e+12 -8.48799e+12 -9.29528e+12 -6.31133e+12 -3.60643e+12 -4.27011e+12 -5.82257e+12 -8.12739e+12 -4.50143e+12 -3.01981e+12 -3.14187e+12 -6.60454e+12 -2.44129e+12 -3.84469e+12 -3.44045e+12 -3.82873e+12 -2.97597e+12 -2.66721e+12 -1.55687e+12 -3.57932e+12 -2.25074e+12 -2.88334e+12 -2.32109e+12 -2.5828e+12 -3.51426e+12 -4.9582e+12 -1.9849e+12 -1.38501e+12 -2.76942e+12 -3.0196e+12 -2.09895e+12 -1.85002e+12 -3.07209e+12 -2.02224e+12 -1.93189e+12 -3.00916e+12 -4.03534e+12 -3.2779e+12 -3.43124e+12 -3.59854e+12 -1.97523e+12 -2.19898e+12 -8.48645e+12 -6.56529e+12 -3.50828e+12 -4.22277e+12 -8.71499e+12 -3.83922e+12 -6.03504e+12 -7.21899e+12 -5.7599e+12 -5.13674e+12 -5.07642e+12 -6.42977e+12 -1.03365e+13 -3.83415e+12 -7.87434e+12 -8.66501e+12 -9.84906e+12 -4.37727e+12 -5.86931e+12 -8.16296e+12 -9.68085e+12 -5.22576e+12 -9.14809e+12 -5.63623e+12 -5.8328e+12 -5.97092e+12 -4.8575e+12 -4.57566e+12 -4.77895e+12 -5.66293e+12 -7.81254e+12 -6.89995e+12 -2.62365e+12 -4.8031e+12 -5.88846e+12 -6.91767e+12 -4.75849e+12 -6.68287e+12 -6.63183e+12 -6.74344e+12 -5.70704e+12 -6.73725e+12 -3.56907e+12 -3.78018e+12 -7.00347e+12 -8.58995e+12 -6.48643e+12 -3.39953e+12 -7.90556e+12 -4.9252e+12 -3.49458e+12 -3.81859e+12 -3.1227e+12 -4.49348e+12 -3.01478e+12 -3.17567e+12 -3.11853e+12 -5.3913e+12 -5.7964e+12 -4.31364e+12 -2.68792e+12 -3.95739e+12 -2.95941e+12 -2.84128e+12 -3.41155e+12 -2.96845e+12 -2.51063e+12 -2.49032e+12 -2.04317e+12 -3.52929e+12 -3.12042e+12 -5.39529e+12 -2.65703e+12 -2.46971e+12 -2.44076e+12 -3.58338e+12 -5.55961e+12 -5.16971e+12 -2.11119e+12 -2.5445e+12 -2.49248e+12 -3.99461e+12 -4.55624e+12 -3.15843e+12 -3.45605e+12 -6.64713e+12 -1.07322e+12 -5.7684e+12 -4.70897e+12 -7.81384e+12 -3.79859e+12 -4.83835e+12 -7.95923e+12 -6.14172e+12 -3.72061e+12 -5.53505e+12 -6.64742e+12 -7.7503e+12 -4.05788e+12 -3.92245e+12 -4.30945e+12 -5.87945e+12 -8.01159e+12 -7.71732e+12 -3.05265e+12 -4.02849e+12 -2.09061e+12 -5.16477e+12 -4.63573e+12 -8.78425e+12 -8.77195e+12 -8.12184e+12 -5.07907e+12 -7.36391e+12 -7.6236e+12 -3.28465e+12 -3.37995e+12 -4.42624e+12 -6.9367e+12 -9.13529e+12 -1.04769e+13 -3.05665e+12 -8.90267e+12 -9.56149e+12 -6.06691e+12 -1.02181e+13 -6.46576e+12 -1.16041e+13 -8.91421e+12 -6.77189e+12 -4.21234e+12 -4.35007e+12 -6.29586e+12 -5.8726e+12 -4.82614e+12 -3.67559e+12 -5.69569e+12 -5.7266e+12 -5.8688e+12 -5.23247e+12 -5.72863e+12 -4.68559e+12 -6.7878e+12 -4.11174e+12 -3.31867e+12 -4.28342e+12 -4.55019e+12 -6.3153e+12 -4.15008e+12 -4.29883e+12 -3.8501e+12 -3.09434e+12 -1.74529e+12 -3.29807e+12 -3.22078e+12 -3.68879e+12 -3.2022e+12 -3.91477e+12 -1.72374e+12 -2.46606e+12 -1.65804e+12 -2.71907e+12 -1.98059e+12 -2.1997e+12 -1.82335e+12 -1.77131e+12 -1.49554e+12 -3.187e+12 -2.976e+12 -3.55931e+12 -2.87546e+12 -3.13221e+12 -3.65958e+12 -2.56256e+12 -2.73312e+12 -2.41849e+12 -1.78056e+12 -2.94979e+12 -1.1858e+12 -2.62187e+12 -4.75772e+12 -3.4589e+12 -3.8981e+12 -1.57232e+12 -4.69914e+12 -3.97193e+12 -4.97957e+12 -4.63821e+12 -3.0362e+12 -5.13957e+12 -4.454e+12 -5.3644e+12 -4.81246e+12 -4.30443e+12 -4.26317e+12 -3.87592e+12 -2.81482e+12 -5.29547e+12 -4.11054e+12 -4.74738e+12 -5.62952e+12 -4.78603e+12 -7.59879e+12 -5.14106e+12 -6.19559e+12 -5.72621e+12 -7.21463e+12 -7.42824e+12 -6.71611e+12 -1.20161e+13 -4.99543e+12 -8.11236e+12 -9.5361e+12 -6.78674e+12 -8.27492e+12 -5.63448e+12 -6.27914e+12 -2.72196e+12 -2.88988e+12 -3.63843e+12 -5.22998e+12 -7.16792e+12 -4.40868e+12 -1.20474e+13 -7.44017e+12 -8.15082e+12 -6.9743e+12 -3.0516e+12 -1.10897e+13 -7.80239e+12 -6.65392e+12 -8.59659e+12 -3.50029e+12 -5.64398e+12 -7.40808e+12 -6.75199e+12 -5.59601e+12 -4.59568e+12 -4.75092e+12 -3.87959e+12 -3.65289e+12 -3.62746e+12 -3.95364e+12 -4.71105e+12 -5.05139e+12 -5.39559e+12 -3.86518e+12 -4.01733e+12 -3.26397e+12 -4.78922e+12 -3.81428e+12 -2.95997e+12 -2.11272e+12 -3.67843e+12 -2.38852e+12 -3.43743e+12 -2.19296e+12 -2.81503e+12 -3.12331e+12 -1.38274e+12 -952687000000.0 -2.88033e+12 -2.66038e+12 -3.09842e+12 -2.40051e+12 -2.48175e+12 -1.74884e+12 -2.33782e+12 -2.74659e+12 -2.47435e+12 -3.9336e+12 -2.10259e+12 -2.38001e+12 -2.83108e+12 -2.93533e+12 -2.63647e+12 -3.36199e+12 -1.99693e+12 -2.18144e+12 -3.99444e+12 -4.64144e+12 -3.70576e+12 -5.73163e+12 -3.4804e+12 -2.83705e+12 -4.91337e+12 -5.95498e+12 -7.20169e+12 -5.75118e+12 -3.60225e+12 -5.96802e+12 -6.61192e+12 -4.29136e+12 -5.51821e+12 -4.58431e+12 -6.21556e+12 -5.62225e+12 -5.06858e+12 -3.78446e+12 -5.20147e+12 -6.27238e+12 -4.56649e+12 -6.79662e+12 -1.23581e+13 -7.39444e+12 -6.75604e+12 -7.40397e+12 -1.03784e+13 -9.10823e+12 -8.27338e+12 -3.3317e+12 -4.04211e+12 -7.1911e+12 -5.57713e+12 -8.1085e+12 -6.37027e+12 -3.22979e+12 -4.9584e+12 -7.77737e+12 -7.47888e+12 -5.12741e+12 -8.26735e+12 -9.02554e+12 -8.00272e+12 -4.80484e+12 -6.78175e+12 -5.64873e+12 -5.18052e+12 -7.56544e+12 -5.05901e+12 -5.265e+12 -9.21565e+12 -5.25399e+12 -8.4511e+12 -7.08911e+12 -4.53138e+12 -4.35399e+12 -6.4833e+12 -4.45708e+12 -4.7242e+12 -6.11532e+12 -5.54191e+12 -5.14886e+12 -4.78531e+12 -4.71671e+12 -5.31361e+12 -4.0233e+12 -5.6329e+12 -6.83949e+12 -4.75599e+12 -3.50438e+12 -4.74905e+12 -4.74903e+12 -4.24915e+12 -3.2315e+12 -2.76603e+12 -2.67524e+12 -3.31e+12 -1.71259e+12 -3.67251e+12 -1.43079e+12 -2.0268e+12 -1.12505e+12 -2.29395e+12 -1.54151e+12 -1.80169e+12 -1.88234e+12 -2.89703e+12 -1.99201e+12 -2.03914e+12 -1.51493e+12 -1.13437e+12 -2.34334e+12 -1.53806e+12 -1.89694e+12 -4.38453e+12 -863692000000.0 -3.65685e+12 -2.94981e+12 -1.94202e+12 -1.48296e+12 -4.87888e+12 -4.39847e+12 -2.16894e+12 -2.53015e+12 -2.07628e+12 -2.72601e+12 -4.80333e+12 -3.87597e+12 -3.82122e+12 -2.50557e+12 -2.36037e+12 -6.94217e+12 -4.25766e+12 -4.60134e+12 -4.1244e+12 -3.3952e+12 -5.54866e+12 -5.8991e+12 -3.85566e+12 -6.91943e+12 -7.68137e+12 -3.67591e+12 -5.94001e+12 -5.6479e+12 -7.12883e+12 -1.05559e+13 -7.28614e+12 -3.83741e+12 -7.07715e+12 -9.9172e+12 -6.39985e+12 -6.69171e+12 -8.68953e+12 -1.0348e+13 -8.65192e+12 -7.09139e+12 -5.43682e+12 -8.32499e+12 -6.43265e+12 -8.22755e+12 -6.00223e+12 -5.24433e+12 -4.66587e+12 -3.69954e+12 -3.63349e+12 -4.37837e+12 -8.82307e+12 -6.49155e+12 -9.40258e+12 -8.07909e+12 -5.57774e+12 -5.95085e+12 -4.59329e+12 -4.35844e+12 -6.4266e+12 -7.43817e+12 -1.05513e+13 -8.4932e+12 -4.38384e+12 -4.97163e+12 -7.29689e+12 -4.25943e+12 -9.18714e+12 -6.25824e+12 -7.74473e+12 -5.36114e+12 -8.0253e+12 -5.34614e+12 -5.43537e+12 -5.84174e+12 -5.84854e+12 -4.85582e+12 -3.63294e+12 -3.02727e+12 -3.36994e+12 -4.10185e+12 -4.50936e+12 -6.7719e+12 -2.72541e+12 -1.80873e+12 -4.37543e+12 -1.74722e+12 -2.07718e+12 -4.25017e+12 -2.8845e+12 -3.71666e+12 -1.89015e+12 -3.92106e+12 -4.13138e+12 -3.03174e+12 -2.3052e+12 -3.82603e+12 -3.04209e+12 -2.37416e+12 -2.28421e+12 -1.95565e+12 -1.80485e+12 -1.45813e+12 -2.56958e+12 -2.73373e+12 -2.95084e+12 -2.79037e+12 -3.00919e+12 -4.17826e+12 -2.73342e+12 -2.0968e+12 -3.80777e+12 -4.25234e+12 -1.43452e+12 -2.65042e+12 -4.47671e+12 -2.80372e+12 -3.39704e+12 -3.04665e+12 -5.85622e+12 -2.6117e+12 -6.31015e+12 -6.57274e+12 -4.32396e+12 -4.57505e+12 -4.40109e+12 -8.70745e+12 -6.89427e+12 -6.48873e+12 -5.69153e+12 -5.90427e+12 -7.49121e+12 -7.19915e+12 -6.19596e+12 -6.26484e+12 -6.7778e+12 -9.76946e+12 -9.1387e+12 -7.61322e+12 -9.02413e+12 -5.65101e+12 -6.32738e+12 -4.00753e+12 -3.46243e+12 -4.99159e+12 -5.09203e+12 -1.18158e+13 -5.83496e+12 -7.5037e+12 -8.20229e+12 -8.93066e+12 -4.07955e+12 -2.69325e+12 -7.68521e+12 -9.30557e+12 -5.59775e+12 -8.41912e+12 -6.19215e+12 -7.49612e+12 -3.93798e+12 -8.56534e+12 -6.32428e+12 -6.0451e+12 -6.90317e+12 -4.71016e+12 -6.74602e+12 -6.27246e+12 -7.99665e+12 -5.74679e+12 -1.90737e+12 -4.12865e+12 -6.05389e+12 -5.50967e+12 -4.93906e+12 -7.71667e+12 -4.29103e+12 -6.37939e+12 -6.99555e+12 -3.8544e+12 -5.32661e+12 -3.85869e+12 -3.85606e+12 -4.90374e+12 -2.73809e+12 -4.14318e+12 -2.85381e+12 -3.67357e+12 -4.88837e+12 -3.46231e+12 -2.13811e+12 -6.52109e+12 -2.70533e+12 -4.96113e+12 -1.48784e+12 -4.91963e+12 -2.07082e+12 -3.49929e+12 -3.46386e+12 -2.11638e+12 -1.97664e+12 -2.84632e+12 -3.39471e+12 -1.55951e+12 -1.46298e+12 -2.50974e+12 -2.88307e+12 -1.40236e+12 -1.99292e+12 -1.89001e+12 -2.07814e+12 -128218000000.0 -1.75661e+12 -2.20858e+12 -1.45013e+12 -1.83757e+12 -2.35543e+12 -2.32707e+12 -2.02983e+12 -3.91323e+12 -2.85974e+12 -3.04617e+12 -2.04846e+12 -2.62311e+12 -2.93719e+12 -4.79107e+12 -3.56442e+12 -4.34312e+12 -2.78061e+12 -3.02969e+12 -2.31529e+12 -3.6193e+12 -3.89221e+12 -4.14486e+12 -3.88141e+12 -3.35299e+12 -3.52443e+12 -2.78984e+12 -6.28648e+12 -6.01099e+12 -4.26296e+12 -4.36075e+12 -4.50414e+12 -6.6419e+12 -5.49619e+12 -7.22705e+12 -6.17636e+12 -1.12882e+13 -6.46084e+12 -7.85355e+12 -4.03225e+12 -9.81036e+12 -5.08218e+12 -9.46815e+12 -8.66613e+12 -7.8384e+12 -6.17966e+12 -6.62083e+12 -6.39563e+12 -6.38967e+12 -6.78415e+12 -4.57998e+12 -6.40261e+12 -7.08183e+12 -7.76577e+12 -6.80705e+12 -8.28113e+12 -5.45295e+12 -7.75103e+12 -1.02657e+13 -8.71827e+12 -9.84547e+12 -4.32256e+12 -9.55694e+12 -4.9218e+12 -5.75715e+12 -1.08477e+13 -7.3105e+12 -5.18257e+12 -5.02562e+12 -4.20222e+12 -9.10968e+12 -3.94521e+12 -3.04981e+12 -7.20764e+12 -5.26313e+12 -7.37072e+12 -5.74526e+12 -6.24663e+12 -4.9909e+12 -6.41581e+12 -6.90949e+12 -4.46936e+12 -5.08483e+12 -5.74413e+12 -1.25517e+12 -4.31819e+12 -3.10918e+12 -2.64723e+12 -4.42464e+12 -5.18229e+12 -2.66791e+12 -2.66864e+12 -2.70589e+12 -3.75277e+12 -3.93566e+12 -2.56488e+12 -1.62836e+12 -2.09699e+12 -3.68402e+12 -3.51544e+12 -3.60078e+12 -2.81942e+12 -2.02945e+12 -2.54798e+12 -2.18049e+12 -1.97955e+12 -1.56731e+12 -1.23044e+12 -2.00748e+12 -1.92882e+12 -1.21631e+12 -1.90502e+12 -2.70323e+12 -1.89517e+12 -3.10602e+12 -2.58198e+12 -2.4288e+12 -2.11173e+12 -2.21808e+12 -1.17902e+12 -1.34e+12 -1.67046e+12 -2.08149e+12 -2.27274e+12 -4.46556e+12 -993809000000.0 -3.12654e+12 -1.42421e+12 -3.76025e+12 -2.16077e+12 -3.98415e+12 -4.20721e+12 -3.4352e+12 -2.99209e+12 -5.76864e+12 -4.16789e+12 -5.60214e+12 -4.02686e+12 -3.61708e+12 -5.12564e+12 -3.07602e+12 -3.01219e+12 -5.4064e+12 -6.13026e+12 -6.78832e+12 -7.34101e+12 -5.98046e+12 -6.20646e+12 -3.98959e+12 -2.8393e+12 -5.56746e+12 -5.89948e+12 -8.01292e+12 -6.47911e+12 -5.68604e+12 -7.23059e+12 -3.76143e+12 -4.85565e+12 -2.03393e+12 -5.85311e+12 -2.64193e+12 -3.10728e+12 -5.16859e+12 -4.9893e+12 -3.53619e+12 -7.9905e+12 -6.35016e+12 -6.11588e+12 -6.81121e+12 -5.74566e+12 -8.15441e+12 -6.57526e+12 -3.60857e+12 -7.33921e+12 -4.8784e+12 -2.23643e+12 -6.78463e+12 -3.74585e+12 -6.25482e+12 -6.56504e+12 -8.53302e+12 -7.02033e+12 -8.7302e+12 -8.16227e+12 -7.25344e+12 -6.61534e+12 -6.84251e+12 -7.25554e+12 -4.56814e+12 -6.67146e+12 -5.56842e+12 -7.1408e+12 -5.91746e+12 -3.99328e+12 -8.04521e+12 -3.32354e+12 -4.79426e+12 -4.43571e+12 -3.84995e+12 -5.96063e+12 -3.75386e+12 -3.18308e+12 -5.31221e+12 -6.15599e+12 -3.95388e+12 -1.32937e+12 -5.69772e+12 -4.15619e+12 -4.50641e+12 -5.05224e+12 -4.7128e+12 -3.31076e+12 -3.20019e+12 -4.06996e+12 -4.08386e+12 -2.89511e+12 -2.09004e+12 -3.06696e+12 -2.12275e+12 -2.43855e+12 -3.07707e+12 -4.65874e+12 -2.55569e+12 -3.09818e+12 -2.43281e+12 -2.97239e+12 -2.64459e+12 -2.53816e+12 -2.05063e+12 -2.10496e+12 -1.53881e+12 -825196000000.0 -2.84703e+12 -2.87484e+12 -1.45994e+12 -940468000000.0 -2.24587e+12 -3.19944e+12 -1.96883e+12 -2.46611e+12 -1.49894e+12 -1.21769e+12 -170955000000.0 -3.06529e+12 -2.02351e+12 -3.44432e+12 -1.39665e+12 -2.75058e+12 -2.0442e+12 -2.03987e+12 -4.23672e+12 -5.56934e+12 -1.50871e+12 -5.91386e+12 -2.14476e+12 -4.89056e+12 -4.19586e+12 -4.91006e+12 -2.29671e+12 -5.50008e+12 -4.93427e+12 -2.31153e+12 -4.25149e+12 -1.56314e+12 -4.01719e+12 -3.74383e+12 -5.44277e+12 -4.31453e+12 -5.6093e+12 -4.25554e+12 -5.0301e+12 -4.35994e+12 -5.78468e+12 -4.58151e+12 -5.68255e+12 -3.07514e+12 -4.95869e+12 -2.82817e+12 -8.80121e+12 -6.41504e+12 -5.65604e+12 -3.71414e+12 -5.04291e+12 -7.68358e+12 -4.22758e+12 -9.20849e+12 -6.9293e+12 -7.43565e+12 -6.54859e+12 -5.45935e+12 -6.33213e+12 -5.71855e+12 -6.0546e+12 -5.01025e+12 -4.47967e+12 -3.58582e+12 -6.79201e+12 -8.37898e+12 -2.25985e+12 -4.17977e+12 -5.42051e+12 -5.43147e+12 -9.71761e+12 -4.19925e+12 -4.74771e+12 -5.6791e+12 -1.05968e+13 -7.25052e+12 -2.3721e+12 -7.95909e+12 -5.78729e+12 -5.13858e+12 -5.87866e+12 -7.92918e+12 -3.6803e+12 -3.83862e+12 -4.38666e+12 -6.63757e+12 -5.44181e+12 -5.69521e+12 -3.14625e+12 -6.44882e+12 -4.37735e+12 -4.28354e+12 -4.77833e+12 -2.98406e+12 -5.84399e+12 -3.05589e+12 -3.00512e+12 -7.26238e+12 -3.51864e+12 -6.30775e+12 -3.39452e+12 -3.29503e+12 -2.73026e+12 -5.50392e+12 -4.53389e+12 -1.7493e+12 -2.6622e+12 -4.20595e+12 -3.01984e+12 -2.33391e+12 -4.1557e+12 -2.09085e+12 -3.48931e+12 -4.52309e+12 -3.92692e+12 -1.98638e+12 -408007000000.0 -1.5519e+12 -3.57619e+12 -1.05371e+12 -2.54231e+12 -1.6994e+12 -3.60963e+12 -1.32519e+12 -2.16241e+12 -1.59741e+12 -1.14171e+12 -1.7679e+12 -1.17964e+12 -1.98296e+12 -2.00365e+12 -1.54417e+12 -1.20565e+12 -1.09662e+12 -2.41315e+12 -3.21146e+12 -1.77528e+12 -1.82831e+12 -2.62928e+12 -1.15268e+12 -3.85453e+12 -2.23666e+12 -2.4711e+12 -3.23111e+12 -3.85263e+12 -2.78049e+12 -1.95257e+12 -5.03919e+12 -2.4995e+12 -4.08641e+12 -3.46029e+12 -6.21678e+12 -3.36874e+12 -4.0108e+12 -2.20754e+12 -2.98595e+12 -4.04788e+12 -4.89002e+12 -2.77616e+12 -4.45676e+12 -4.29759e+12 -1.90996e+12 -1.25717e+12 -2.92324e+12 -5.21408e+12 -6.86004e+12 -3.21277e+12 -5.24709e+12 -5.94484e+12 -9.13495e+12 -6.19516e+12 -6.64726e+12 -7.641e+12 -7.1276e+12 -6.63697e+12 -8.56352e+12 -5.5182e+12 -6.11021e+12 -7.89468e+12 -6.89857e+12 -7.75455e+12 -8.24629e+12 -4.7981e+12 -3.86752e+12 -4.37534e+12 -5.44561e+12 -4.96593e+12 -4.48962e+12 -5.09647e+12 -4.71444e+12 -3.58575e+12 -6.08021e+12 -4.46707e+12 -3.4976e+12 -6.36541e+12 -5.06923e+12 -8.98287e+12 -5.62778e+12 -5.68273e+12 -6.05732e+12 -9.32922e+12 -7.13972e+12 -7.43903e+12 -4.33283e+12 -3.43759e+12 -1.10055e+13 -6.62624e+12 -9.55656e+12 -4.79597e+12 -3.20427e+12 -3.39316e+12 -4.59162e+12 -8.35865e+12 -5.61774e+12 -6.78091e+12 -4.96783e+12 -5.34761e+12 -5.18799e+12 -4.63257e+12 -4.55004e+12 -5.00021e+12 -3.56932e+12 -4.23366e+12 -5.26084e+12 -4.66627e+12 -4.48726e+12 -5.06023e+12 -2.64139e+12 -3.454e+12 -6.30683e+12 -2.16917e+12 -3.4389e+12 -4.36433e+12 -4.16919e+12 -3.22911e+12 -4.0517e+12 -1.41502e+12 -3.1297e+12 -5.13935e+12 -2.93255e+12 -2.38497e+12 -1.48535e+12 -2.31416e+12 -3.22029e+12 -2.21442e+12 -2.39262e+12 -1.53029e+12 -2.52981e+12 -2.01254e+12 -1.57549e+12 -1.6262e+12 -2.0358e+12 -1.91969e+12 -1.10758e+12 -1.84295e+12 -1.55825e+12 -1.92992e+12 -1.30432e+12 -2.56294e+12 -1.95716e+12 -2.18325e+12 -1.0198e+12 -1.31301e+12 -1.53113e+12 -1.62704e+12 -1.93448e+12 -2.38665e+12 -3.29523e+12 -1.41933e+12 -822614000000.0 -3.70011e+12 -2.91992e+12 -1.32269e+12 -1.73715e+12 -2.63401e+12 -2.62235e+12 -1.45215e+12 -1.22309e+12 -2.26623e+12 -3.27171e+12 -2.54424e+12 -4.46524e+12 -2.50044e+12 -2.597e+12 -3.00128e+12 -4.63286e+12 -2.53577e+12 -3.26783e+12 -3.03551e+12 -1.95538e+12 -4.13519e+12 -1.34497e+12 -6.8323e+12 -2.38595e+12 -4.45407e+12 -6.95652e+12 -3.258e+12 -6.55759e+12 -7.93429e+12 -5.52536e+12 -6.55424e+12 -4.9519e+12 -5.93601e+12 -6.77823e+12 -2.3557e+12 -1.59509e+12 -8.61117e+12 -8.96294e+12 -5.64984e+12 -3.71933e+12 -9.20526e+12 -6.54821e+12 -5.4262e+12 -5.85358e+12 -7.84315e+12 -7.08506e+12 -5.47917e+12 -4.85412e+12 -7.37262e+12 -6.78659e+12 -5.11278e+12 -7.24242e+12 -4.48997e+12 -8.69967e+12 -5.51751e+12 -4.72969e+12 -3.51487e+12 -3.87519e+12 -5.37048e+12 -3.63044e+12 -3.76056e+12 -8.48019e+12 -6.88428e+12 -4.3213e+12 -2.65039e+12 -4.26233e+12 -7.40148e+12 -1.01305e+13 -5.83233e+12 -7.26631e+12 -1.47771e+13 -4.87318e+12 -4.02901e+12 -6.80135e+12 -7.74484e+12 -5.71485e+12 -5.36629e+12 -6.218e+12 -7.09708e+12 -7.29114e+12 -5.0169e+12 -3.65674e+12 -4.02188e+12 -3.86606e+12 -956309000000.0 -3.08916e+12 -6.41689e+12 -5.26977e+12 -3.46664e+12 -4.18907e+12 -3.62391e+12 -2.78122e+12 -2.00935e+12 -2.9823e+12 -2.62259e+12 -3.06143e+12 -2.36518e+12 -2.63857e+12 -4.11943e+12 -3.43869e+12 -2.58532e+12 -3.7904e+12 -3.73739e+12 -4.64591e+12 -3.12385e+12 -3.17764e+12 -3.18074e+12 -2.11761e+12 -1.66987e+12 -1.90975e+12 -2.1543e+12 -2.58307e+12 -1.42081e+12 -1.67325e+12 -1.08525e+12 -501188000000.0 -1.13585e+12 -1.9878e+12 -2.16972e+12 -1.76102e+12 -788849000000.0 -1.61208e+12 -1.46474e+12 -2.66794e+12 -1.84603e+12 -1.22897e+12 -2.36442e+12 -1.13477e+12 -709141000000.0 -322680000000.0 -2.39234e+12 -2.22677e+12 -995387000000.0 -908151000000.0 -2.38363e+12 -2.18758e+12 -2.78224e+12 -1.13691e+12 -1.03732e+12 -1.96806e+12 -1.85875e+12 -1.85498e+12 -2.97901e+12 -5.2953e+12 -2.69777e+12 -2.31087e+12 -3.10215e+12 -1.43554e+12 -3.14101e+12 -4.34526e+12 -4.76299e+12 -2.83305e+12 -2.24121e+12 -4.17801e+12 -2.95315e+12 -3.47248e+12 -5.50174e+12 -3.75892e+12 -4.99209e+12 -4.76529e+12 -2.50779e+12 -2.72082e+12 -7.14149e+12 -7.10918e+12 -4.28262e+12 -4.36903e+12 -9.07621e+12 -6.4601e+12 -5.37714e+12 -2.97468e+12 -3.31372e+12 -4.6171e+12 -4.4526e+12 -3.18951e+12 -7.2761e+12 -5.80635e+12 -4.01225e+12 -6.55835e+12 -7.95229e+12 -5.01057e+12 -4.25421e+12 -5.93006e+12 -6.07442e+12 -4.36302e+12 -7.9846e+12 -2.87778e+12 -3.97029e+12 -4.2612e+12 -9.17126e+12 -3.03535e+12 -6.22529e+12 -5.43745e+12 -3.33373e+12 -4.71252e+12 -4.01293e+12 -5.60475e+12 -4.23317e+12 -6.22257e+12 -7.52233e+12 -4.65526e+12 -5.80805e+12 -5.93546e+12 -5.93855e+12 -6.66013e+12 -9.38385e+12 -7.64693e+12 -4.10659e+12 -8.24959e+12 -3.86619e+12 -5.04309e+12 -5.17582e+12 -4.7254e+12 -5.15764e+12 -3.12884e+12 -5.87591e+12 -3.54155e+12 -4.1948e+12 -3.64964e+12 -6.9573e+12 -4.07984e+12 -2.1443e+12 -2.07846e+12 -4.34912e+12 -1.49034e+12 -3.48543e+12 -4.32367e+12 -3.91229e+12 -1.66878e+12 -3.6414e+12 -2.96211e+12 -2.69292e+12 -2.88276e+12 -2.77767e+12 -5.10208e+12 -3.40487e+12 -3.88787e+12 -1.68994e+12 -2.58806e+12 -3.40757e+12 -2.74823e+12 -2.3204e+12 -3.91783e+12 -1.83353e+12 -3.48909e+12 -2.20087e+12 -2.06936e+12 -1.16923e+12 -2.23543e+12 -1.66175e+12 -312007000000.0 -1.85341e+12 -1.09528e+12 -1.88284e+12 -1.41008e+12 -1.51428e+12 -2.28996e+12 -1.69442e+12 -598148000000.0 -2.05415e+12 -1.6537e+12 -1.29034e+12 -2.26484e+12 -1.98027e+12 -2.42479e+12 -2.94012e+12 -1.86432e+12 -1.70811e+12 -1.64398e+12 -1.06927e+12 -1.20458e+12 -1.69796e+12 -2.4261e+12 -2.84718e+12 -1.32502e+12 -1.95982e+12 -3.78337e+12 -4.65824e+12 -2.89696e+12 -4.65776e+12 -4.36193e+12 -1.2735e+12 -3.17372e+12 -3.91271e+12 -6.58475e+12 -4.61716e+12 -2.64578e+12 -3.49457e+12 -7.80136e+12 -5.35584e+12 -3.4492e+12 -5.44832e+12 -2.80916e+12 -3.32168e+12 -5.3578e+12 -5.99773e+12 -4.26936e+12 -3.90096e+12 -3.76716e+12 -4.30417e+12 -5.94499e+12 -6.16568e+12 -5.72018e+12 -3.24365e+12 -4.2748e+12 -5.39577e+12 -8.76148e+12 -6.02667e+12 -7.42451e+12 -4.48152e+12 -4.16807e+12 -5.16221e+12 -5.36453e+12 -7.35232e+12 -8.42635e+12 -8.96512e+12 -5.5835e+12 -5.98672e+12 -6.00615e+12 -7.13386e+12 -6.62587e+12 -4.12466e+12 -5.90009e+12 -4.44519e+12 -1.93811e+12 -4.03465e+12 -3.12582e+12 -5.17679e+12 -6.3968e+12 -3.01066e+12 -4.23199e+12 -3.3129e+12 -4.78967e+12 -5.05486e+12 -3.07507e+12 -5.78355e+12 -7.21037e+12 -5.45396e+12 -4.23903e+12 -5.4998e+12 -5.1941e+12 -3.71418e+12 -5.4203e+12 -3.10994e+12 -5.58936e+12 -3.82815e+12 -6.73349e+12 -2.2443e+12 -4.9151e+12 -3.52378e+12 -5.59804e+12 -5.63257e+12 -3.8286e+12 -5.14159e+12 -2.43276e+12 -4.59364e+12 -7.449e+12 -5.65346e+12 -2.88298e+12 -6.84792e+12 -4.45818e+12 -4.09182e+12 -2.7915e+12 -3.27352e+12 -3.3257e+12 -1.91806e+12 -1.90537e+12 -4.76586e+12 -3.1485e+12 -3.76204e+12 -3.43285e+12 -3.48031e+12 -2.82634e+12 -1.84942e+12 -1.70045e+12 -2.00118e+12 -2.16978e+12 -2.00715e+12 -1.85964e+12 -2.68536e+12 -2.41329e+12 -2.17041e+12 -841400000000.0 -1.22094e+12 -2.40099e+12 -2.21685e+12 -1.52922e+12 -1.37266e+12 -1.27587e+12 -1.28069e+12 -262927000000.0 -1.65807e+12 -1.35723e+12 -1.76861e+12 -472499000000.0 -1.94825e+12 -1.63717e+12 -2.41164e+12 -1.2386e+12 -1.24296e+12 -2.33204e+12 -2.3913e+12 -1.49935e+12 -1.79943e+12 -745471000000.0 -1.71171e+12 -1.70122e+12 -711322000000.0 -2.44308e+12 -1.72018e+12 -2.08721e+12 -3.69036e+12 -3.29366e+12 -1.94633e+12 -3.96849e+12 -3.37245e+12 -2.97867e+12 -3.4503e+12 -3.40307e+12 -3.35371e+12 -5.32965e+12 -3.28354e+12 -2.8885e+12 -2.96565e+12 -3.83321e+12 -2.32111e+12 -5.30803e+12 -2.71564e+12 -4.23696e+12 -4.76644e+12 -3.62776e+12 -2.84359e+12 -5.1866e+12 -3.30348e+12 -4.09151e+12 -5.4976e+12 -3.94168e+12 -2.87001e+12 -6.50501e+12 -5.43207e+12 -1.81571e+12 -5.43887e+12 -3.79497e+12 -4.52406e+12 -3.61634e+12 -4.22217e+12 -6.94439e+12 -7.75336e+12 -4.92921e+12 -5.42329e+12 -4.49637e+12 -7.43285e+12 -7.63891e+12 -4.40376e+12 -4.74748e+12 -7.68312e+12 -3.72445e+12 -2.32055e+12 -4.73445e+12 -2.15577e+12 -5.93016e+12 -5.90629e+12 -4.00832e+12 -4.75773e+12 -5.55781e+12 -4.55973e+12 -4.54468e+12 -3.41498e+12 -3.90674e+12 -3.10809e+12 -6.18553e+12 -4.45911e+12 -6.02993e+12 -4.57215e+12 -6.22655e+12 -3.08463e+12 -3.195e+12 -3.28436e+12 -5.05156e+12 -4.15321e+12 -4.92358e+12 -3.32905e+12 -3.73962e+12 -4.48545e+12 -3.85187e+12 -3.5803e+12 -5.09908e+12 -3.84448e+12 -2.65266e+12 -3.68548e+12 -6.60948e+12 -2.58627e+12 -2.10458e+12 -4.33647e+12 -3.68985e+12 -2.81003e+12 -6.38283e+12 -4.07856e+12 -4.79853e+12 -2.61482e+12 -5.18278e+12 -3.50546e+12 -3.04349e+12 -1.83624e+12 -4.14643e+12 -3.01818e+12 -1.50479e+12 -3.57842e+12 -2.76465e+12 -3.74177e+12 -1.95307e+12 -2.70727e+12 -1.85334e+12 -902173000000.0 -1.93955e+12 -993060000000.0 -1.88136e+12 -1.12877e+12 -1.31723e+12 -2.57301e+12 -621310000000.0 -1.64092e+12 -1.63188e+12 -987964000000.0 -2.19648e+12 -1.03408e+12 -382719000000.0 -1.22036e+12 -990594000000.0 -1.70979e+12 -1.19771e+12 -575227000000.0 -844217000000.0 -51475000000.0 -1.11844e+12 -892027000000.0 -2.04459e+12 -1.33878e+12 -1.61718e+12 -1.05239e+12 -852349000000.0 -641304000000.0 -911136000000.0 -582061000000.0 -1.15845e+12 -2.31252e+12 -2.47153e+12 -3.84807e+12 -1.65055e+12 -2.04118e+12 -2.23025e+12 -2.38917e+12 -2.81486e+12 -2.06555e+12 -2.90822e+12 -2.70348e+12 -1.99882e+12 -2.80331e+12 -4.3781e+12 -3.1965e+12 -3.34186e+12 -3.99303e+12 -5.66444e+12 -3.82764e+12 -6.88174e+12 -2.83885e+12 -1.55324e+12 -2.98634e+12 -1.68341e+12 -4.31717e+12 -5.76005e+12 -5.6179e+12 -2.04783e+12 -3.6559e+12 -5.20963e+12 -9.2989e+12 -4.50197e+12 -3.69326e+12 -5.76866e+12 -7.02644e+12 -4.1726e+12 -3.76963e+12 -4.01172e+12 -3.89084e+12 -7.20373e+12 -3.71962e+12 -8.51998e+12 -5.48986e+12 -8.61579e+12 -6.69773e+12 -6.52166e+12 -6.63844e+12 -5.80431e+12 -1.0535e+13 -5.11274e+12 -2.59466e+12 -5.64505e+12 -3.51492e+12 -4.38062e+12 -6.86057e+12 -3.99973e+12 -2.69765e+12 -6.10869e+12 -4.37572e+12 -6.81053e+12 -7.68234e+12 -3.41758e+12 -5.81403e+12 -4.16681e+12 -3.23832e+12 -4.77e+12 -5.55493e+12 -2.23002e+12 -3.62292e+12 -3.00703e+12 -4.0219e+12 -2.73266e+12 -3.21051e+12 -2.55828e+12 -5.04139e+12 -3.56954e+12 -4.59557e+12 -2.41814e+12 -3.76642e+12 -3.21147e+12 -2.88301e+12 -3.93262e+12 -1.09412e+12 -3.35124e+12 -4.74507e+12 -6.19482e+12 -2.39012e+12 -2.59458e+12 -2.54836e+12 -3.83917e+12 -3.74803e+12 -2.28372e+12 -2.67255e+12 -1.95654e+12 -1.64632e+12 -3.10148e+12 -2.46022e+12 -1.79807e+12 -1.31115e+12 -2.03556e+12 -1.84555e+12 -1.65774e+12 -2.13443e+12 -1.23225e+12 -2.61749e+12 -2.12472e+12 -1.37032e+12 -1.77505e+12 -946068000000.0 -1.00957e+12 -1.09208e+12 -1.79842e+12 -1.45229e+12 -482364000000.0 -276047000000.0 -866023000000.0 -850059000000.0 -1.18409e+12 -1.16458e+12 -396252000000.0 -588533000000.0 -1.02804e+12 -816966000000.0 -1.13882e+12 -567994000000.0 -1.22279e+12 -764494000000.0 -2.27481e+12 -1.45417e+12 -597488000000.0 -1.87981e+12 -2.47801e+12 -1.74843e+12 -1.00391e+12 -3.06646e+12 -2.73832e+12 -1.86037e+12 -1.7224e+12 -1.85203e+12 -3.722e+12 -4.3588e+12 -4.5836e+12 -3.01665e+12 -1.03843e+12 -1.66496e+12 -2.52869e+12 -4.82102e+12 -1.88105e+12 -2.99597e+12 -3.49304e+12 -2.57377e+12 -4.62531e+12 -6.58037e+12 -2.48534e+12 -5.98354e+12 -4.38438e+12 -2.97439e+12 -5.95914e+12 -5.34144e+12 -4.64486e+12 -1.67977e+12 -4.88076e+12 -4.43143e+12 -2.82567e+12 -3.38955e+12 -3.27288e+12 -3.81514e+12 -4.58318e+12 -4.67864e+12 -6.66807e+12 -3.39028e+12 -4.30516e+12 -3.41915e+12 -3.51751e+12 -5.89998e+12 -4.78887e+12 -6.98115e+12 -7.95613e+12 -3.20751e+12 -5.25225e+12 -1.63468e+12 -3.52629e+12 -5.04152e+12 -3.01071e+12 -3.47445e+12 -2.78381e+12 -7.54834e+12 -3.60458e+12 -5.49641e+12 -2.25729e+12 -3.99997e+12 -3.41081e+12 -4.12424e+12 -5.80522e+12 -4.59771e+12 -4.53964e+12 -5.56914e+12 -4.52688e+12 -3.74715e+12 -4.29762e+12 -4.35565e+12 -4.37881e+12 -1.85769e+12 -3.48909e+12 -2.53492e+12 -3.32582e+12 -3.11418e+12 -1.85879e+12 -4.84505e+12 -1.68171e+12 -3.75048e+12 -1.73789e+12 -4.96806e+12 -1.01636e+12 -3.20244e+12 -4.00298e+12 -1.75973e+12 -4.59512e+12 -2.02056e+12 -1.26019e+12 -2.77563e+12 -1.18487e+12 -2.81103e+12 -3.7893e+12 -3.002e+12 -2.04058e+12 -2.49012e+12 -2.85695e+12 -1.74884e+12 -3.62608e+12 -1.23785e+12 -1.34918e+12 -1.20132e+12 -3.48318e+12 -1.53469e+12 -1.25597e+12 -959658000000.0 -2.93463e+12 -976157000000.0 -618110000000.0 -794123000000.0 -1.83921e+12 -1.50315e+12 -1.03359e+12 -1.3583e+12 -1.88199e+12 -1.64036e+12 -2.04127e+12 -982115000000.0 -820085000000.0 -1.16983e+12 -1.15128e+12 -627280000000.0 -947465000000.0 -296879000000.0 -1.9591e+12 -1.16523e+12 -708433000000.0 -1.65345e+12 -1.02359e+12 -453447000000.0 -964419000000.0 -38686200000.0 -720961000000.0 -729171000000.0 -993689000000.0 -1.13389e+12 -1.07292e+12 -1.21165e+12 -3.25768e+12 -1.84432e+12 -1.02781e+12 -1.87394e+12 -2.17315e+12 -2.68946e+12 -1.59867e+12 -1.87159e+12 -1.59717e+12 -1.87213e+12 -2.08893e+12 -2.13868e+12 -3.22969e+12 -3.13609e+12 -1.71764e+12 -1.59128e+12 -3.03602e+12 -3.20554e+12 -1.17914e+12 -1.6583e+12 -4.41502e+12 -2.93383e+12 -4.96479e+12 -4.04651e+12 -4.41415e+12 -1.55968e+12 -2.12265e+12 -3.95498e+12 -2.34642e+12 -5.13128e+12 -4.873e+12 -3.52193e+12 -6.19206e+12 -3.18994e+12 -5.45176e+12 -3.70668e+12 -9.78788e+12 -5.69422e+12 -7.07478e+12 -3.46527e+12 -3.23208e+12 -3.94159e+12 -4.2677e+12 -8.24802e+12 -6.47632e+12 -5.16233e+12 -2.08033e+12 -2.477e+12 -3.46e+12 -6.04728e+12 -2.44474e+12 -3.59057e+12 -3.07589e+12 -5.49406e+12 -3.83596e+12 -4.61714e+12 -3.66738e+12 -3.88718e+12 -3.13324e+12 -3.41454e+12 -3.75973e+12 -3.88446e+12 -2.74372e+12 -5.26882e+12 -4.46026e+12 -3.06931e+12 -2.36276e+12 -4.19355e+12 -3.17822e+12 -4.09094e+12 -4.5158e+12 -1.58506e+12 -3.44955e+12 -1.64214e+12 -2.10517e+12 -1.61693e+12 -2.00344e+12 -1.35578e+12 -3.61231e+12 -1.55698e+12 -684393000000.0 -2.21883e+12 -1.67306e+12 -12354300000.0 -3.09945e+12 -2.48198e+12 -3.27307e+12 -951791000000.0 -1.94892e+12 -1.0916e+12 -1.58855e+12 -867981000000.0 -1.15998e+12 -1.14419e+12 -781984000000.0 -704129000000.0 -497372000000.0 -1.90099e+12 -1.04734e+12 -742673000000.0 -939201000000.0 -331711000000.0 -866194000000.0 -654086000000.0 -322382000000.0 -1.21623e+12 -28347200000.0 -746600000000.0 -1.26021e+12 -921705000000.0 -1.1069e+12 -1.34225e+12 -607849000000.0 -443861000000.0 -921043000000.0 -327418000000.0 -1.32251e+12 -649937000000.0 -1.45821e+12 -1.27865e+12 -340761000000.0 -2.05082e+12 -915576000000.0 -1.43315e+12 -861271000000.0 -874902000000.0 -2.02659e+12 -1.98639e+12 -785180000000.0 -677200000000.0 -1.0281e+12 -1.64912e+12 -1.88298e+12 -1.6484e+12 -4.26735e+12 -1.6085e+12 -2.85004e+12 -1.86082e+12 -2.51862e+12 -1.4024e+12 -2.10274e+12 -2.91841e+12 -2.69221e+12 -4.78069e+12 -2.2249e+12 -3.58678e+12 -3.00537e+12 -2.65267e+12 -4.88637e+12 -3.57451e+12 -4.89158e+12 -3.70871e+12 -5.34315e+12 -3.97952e+12 -5.08978e+12 -2.06401e+12 -3.21223e+12 -2.69942e+12 -5.41229e+12 -3.55925e+12 -5.29579e+12 -4.74318e+12 -6.47764e+12 -3.52548e+12 -2.1109e+12 -1.7625e+12 -3.74917e+12 -5.51464e+12 -3.88401e+12 -3.62796e+12 -5.28175e+12 -4.26684e+12 -1.87812e+12 -3.43747e+12 -1.57175e+12 -2.17102e+12 -3.05062e+12 -2.4974e+12 -2.87089e+12 -5.1143e+12 -1.95095e+12 -4.31478e+12 -5.93045e+12 -2.44714e+12 -2.79068e+12 -2.75522e+12 -3.5547e+12 -2.67756e+12 -4.69695e+12 -2.59949e+12 -2.65917e+12 -2.62167e+12 -2.28509e+12 -3.93331e+12 -3.11938e+12 -2.59177e+12 -5.02663e+12 -2.49634e+12 -3.11112e+12 -3.87157e+12 -916228000000.0 -2.52576e+12 -1.76107e+12 -3.34497e+12 -3.34709e+12 -1.92076e+12 -2.20047e+12 -345547000000.0 -417080000000.0 -1.7816e+12 -1.57037e+12 -2.81058e+12 -638161000000.0 -1.67397e+12 -1.68315e+12 -1.36233e+12 -1.98024e+12 -1.30878e+12 -407006000000.0 -761272000000.0 -1.19667e+12 -1.23942e+12 -414297000000.0 -518668000000.0 -616288000000.0 -731419000000.0 -1.03628e+12 -541683000000.0 -554496000000.0 -695598000000.0 -795820000000.0 -576428000000.0 -561473000000.0 -672508000000.0 -732461000000.0 -1.11189e+12 -561311000000.0 -967499000000.0 -746938000000.0 -895851000000.0 -356166000000.0 -452817000000.0 -592495000000.0 -1.79479e+12 -624713000000.0 -1.17321e+12 -605041000000.0 -941767000000.0 -988747000000.0 -1.8196e+12 -1.54441e+12 -2.65984e+12 -1.00815e+12 -2.07688e+12 -2.45523e+12 -1.13401e+12 -2.86317e+12 -3.19392e+12 -4.10566e+12 -3.49954e+12 -1.70604e+12 -3.50937e+12 -1.92104e+12 -2.65983e+12 -1.67818e+12 -1.59661e+12 -2.09561e+12 -2.2944e+12 -2.73246e+12 -3.32078e+12 -2.69813e+12 -2.72846e+12 -4.85922e+12 -3.63593e+12 -3.62213e+12 -3.66109e+12 -2.64928e+12 -2.38451e+12 -4.09604e+12 -4.06827e+12 -1.80945e+12 -4.38204e+12 -4.30989e+12 -3.88137e+12 -3.55168e+12 -4.50796e+12 -3.87882e+12 -3.56128e+12 -3.51886e+12 -2.66149e+12 -4.79601e+12 -2.50413e+12 -5.3381e+12 -1.73963e+12 -2.61263e+12 -2.70376e+12 -3.55598e+12 -3.2023e+12 -4.56867e+12 -3.6995e+12 -2.09061e+12 -2.31832e+12 -4.86565e+12 -1.37424e+12 -4.59896e+12 -2.50967e+12 -2.91396e+12 -4.45939e+12 -2.53388e+12 -2.13441e+12 -3.73862e+12 -3.50331e+12 -2.77708e+12 -1.3333e+12 -1.66509e+12 -3.54018e+12 -4.37129e+12 -1.09372e+12 -1.2857e+12 -4.99027e+12 -690346000000.0 -3.17459e+12 -4.17242e+12 -2.27879e+12 -2.10363e+12 -2.47265e+12 -2.34534e+12 -301000000000.0 -1.05649e+12 -2.25176e+12 -1.75584e+12 -1.01108e+12 -1.35644e+12 -1.74457e+12 -1.70476e+12 -2.36697e+12 -1.89799e+12 -2.30692e+12 -720791000000.0 -2.1772e+12 -773535000000.0 -1.15572e+12 -221470000000.0 -700567000000.0 -515360000000.0 -1.04092e+12 -712174000000.0 -1.19961e+12 -1.12006e+12 -405965000000.0 -580137000000.0 -426280000000.0 -840955000000.0 -349105000000.0 -87377100000.0 -1.13851e+12 -568993000000.0 -832253000000.0 -451127000000.0 -588550000000.0 -544463000000.0 -629844000000.0 -532882000000.0 -1.05472e+12 -1.16335e+12 -822654000000.0 -807790000000.0 -1.24083e+12 -1.46553e+12 -1.2818e+12 -1.13333e+12 -1.02848e+12 -1.22274e+12 -1.43353e+12 -672099000000.0 -1.35264e+12 -1.63465e+12 -1.51925e+12 -628043000000.0 -1.43204e+12 -1.06678e+12 -3.71218e+12 -750778000000.0 -1.24766e+12 -1.52151e+12 -2.62972e+12 -1.95758e+12 -1.54077e+12 -1.61164e+12 -1.20491e+12 -3.46435e+12 -1.89976e+12 -1.8307e+12 -2.49963e+12 -1.82101e+12 -2.77717e+12 -2.8174e+12 -2.34911e+12 -1.73758e+12 -2.67305e+12 -3.03552e+12 -3.99428e+12 -3.07359e+12 -2.97899e+12 -4.26963e+12 -2.40228e+12 -2.56129e+12 -2.43724e+12 -2.7379e+12 -3.73987e+12 -3.0804e+12 -3.27055e+12 -3.20715e+12 -2.16756e+12 -1.92249e+12 -2.67316e+12 -2.54657e+12 -3.63488e+12 -3.45199e+12 -4.8929e+12 -4.82676e+12 -2.84327e+12 -1.70709e+12 -2.69353e+12 -2.95817e+12 -3.62193e+12 -1.84665e+12 -3.13712e+12 -2.3102e+12 -2.71012e+12 -995880000000.0 -4.29432e+12 -1.53383e+12 -2.05007e+12 -3.27766e+12 -1.79296e+12 -2.18406e+12 -2.49193e+12 -2.11538e+12 -1.94172e+12 -743829000000.0 -1.74205e+12 -2.34703e+12 -2.60877e+12 -4.60316e+12 -1.78713e+12 -2.73856e+12 -1.03328e+12 -1.43087e+12 -679018000000.0 -1.92588e+12 -2.18356e+12 -1.47944e+12 -1.59048e+12 -1.66396e+12 -1.74095e+12 -2.23176e+12 -955460000000.0 -867757000000.0 -898831000000.0 -1.87632e+12 -2.30297e+12 -887503000000.0 -53165400000.0 -1.25979e+12 -1.135e+12 -1.19675e+12 -660545000000.0 -1.09193e+12 -702843000000.0 -363744000000.0 -574579000000.0 -689582000000.0 -504796000000.0 -470376000000.0 -660126000000.0 -731259000000.0 -597258000000.0 -562259000000.0 -1.09725e+12 -837478000000.0 -735996000000.0 -35193800000.0 -213496000000.0 -635002000000.0 -828565000000.0 -673673000000.0 -739341000000.0 -533050000000.0 -366040000000.0 -308249000000.0 -793493000000.0 -812613000000.0 -869290000000.0 -1.50509e+12 -500077000000.0 -753343000000.0 -601731000000.0 -1.04696e+12 -1.2114e+12 -1.29399e+12 -1.69167e+12 -2.42471e+12 -2.69207e+12 -1.59722e+12 -1.97649e+12 -729162000000.0 -1.91956e+12 -1.83181e+12 -1.70952e+12 -1.97596e+12 -2.43946e+12 -1.83271e+12 -2.79815e+12 -3.45647e+12 -1.3351e+12 -1.71453e+12 -1.67088e+12 -2.81126e+12 -2.48084e+12 -897001000000.0 -4.13463e+12 -2.00023e+12 -2.84074e+12 -4.27027e+12 -3.12396e+12 -2.3488e+12 -2.09572e+12 -2.93645e+12 -2.28378e+12 -2.00838e+12 -2.83577e+12 -3.12836e+12 -2.22018e+12 -2.83691e+12 -2.22044e+12 -2.18752e+12 -2.58519e+12 -2.0604e+12 -2.30454e+12 -2.30179e+12 -2.13332e+12 -1.93267e+12 -1.48803e+12 -1.79592e+12 -1.31943e+12 -4.85632e+12 -1.74987e+12 -1.65948e+12 -2.42577e+12 -2.53776e+12 -1.70943e+12 -1.60134e+12 -2.6402e+12 -2.4541e+12 -2.62698e+12 -2.45245e+12 -2.35482e+12 -1.95245e+12 -1.76328e+12 -2.99857e+12 -1.387e+12 -3.43939e+12 -1.95161e+12 -2.53943e+12 -1.18478e+12 -854375000000.0 -965168000000.0 -1.24531e+12 -935612000000.0 -2.00621e+12 -1.72797e+12 -1.94954e+12 -2.17034e+12 -2.57872e+12 -1.80947e+12 -902096000000.0 -1.04869e+12 -1.49148e+12 -999960000000.0 -938776000000.0 -1.00002e+12 -1.3796e+12 -1.7261e+12 -903268000000.0 -996988000000.0 -439873000000.0 -1.16542e+12 -677895000000.0 -451374000000.0 -732539000000.0 -889397000000.0 -64357800000.0 -564098000000.0 -605699000000.0 -29717400000.0 -353853000000.0 -537414000000.0 -688487000000.0 -87176900000.0 -336649000000.0 -619360000000.0 -500055000000.0 -641283000000.0 -383911000000.0 -231533000000.0 -250035000000.0 -21216200000.0 -266468000000.0 -598208000000.0 -213889000000.0 -87701800000.0 -184301000000.0 -317310000000.0 -559797000000.0 -529162000000.0 -1.03396e+12 -264401000000.0 -774071000000.0 -746722000000.0 -644687000000.0 -610696000000.0 -624998000000.0 -1.10412e+12 -1.60421e+12 -668818000000.0 -554088000000.0 -1.46127e+12 -1.68069e+12 -1.50013e+12 -2.03681e+12 -2.64594e+12 -599196000000.0 -1.62353e+12 -1.30192e+12 -1.63496e+12 -962670000000.0 -2.31165e+12 -3.05732e+12 -2.54919e+12 -769992000000.0 -1.66362e+12 -1.88088e+12 -2.35392e+12 -2.8954e+12 -2.79144e+12 -239603000000.0 -2.56965e+12 -2.68334e+12 -851463000000.0 -1.01246e+12 -3.48386e+12 -1.17371e+12 -1.7758e+12 -4.94512e+12 -2.83329e+12 -3.45776e+12 -3.69177e+12 -1.61114e+12 -3.11301e+12 -3.34981e+12 -3.84767e+12 -2.05912e+12 -2.83507e+12 -4.273e+12 -2.67444e+12 -3.25563e+12 -3.25345e+12 -3.01007e+12 -4.05909e+12 -1.72967e+12 -1.37232e+12 -1.63925e+12 -3.0869e+12 -940702000000.0 -1.61851e+12 -568973000000.0 -2.04996e+12 -1.88175e+12 -1.16755e+12 -2.82475e+12 -2.4922e+12 -2.25791e+12 -1.46107e+12 -1.64733e+12 -1.98616e+12 -2.76341e+12 -2.07209e+12 -1.30525e+12 -2.0899e+12 -660721000000.0 -953426000000.0 -1.52695e+12 -1.97314e+12 -431495000000.0 -531022000000.0 -542762000000.0 -932459000000.0 -1.29048e+12 -1.36222e+12 -893925000000.0 -1.18431e+12 -1.226e+12 -937783000000.0 -526056000000.0 -238624000000.0 -482524000000.0 -126634000000.0 -792445000000.0 -729547000000.0 -805351000000.0 -266884000000.0 -347877000000.0 -14870700000.0 -494511000000.0 -631696000000.0 -338157000000.0 -387258000000.0 -419784000000.0 -348715000000.0 -354229000000.0 -485727000000.0 -369512000000.0 -312895000000.0 -318414000000.0 -620600000000.0 -603383000000.0 -316198000000.0 -604123000000.0 -161818000000.0 -445207000000.0 -559810000000.0 -599838000000.0 -841289000000.0 -1.27499e+12 -817270000000.0 -716203000000.0 -1.79966e+12 -1.38205e+12 -369751000000.0 -2.07069e+12 -796869000000.0 -877594000000.0 -712660000000.0 -752772000000.0 -1.79489e+12 -2.18864e+12 -1.09035e+12 -1.79163e+12 -1.09669e+12 -2.42295e+12 -1.88234e+12 -1.24536e+12 -1.34856e+12 -2.11541e+12 -2.31061e+12 -1.32391e+12 -2.97167e+12 -1.86156e+12 -2.40375e+12 -1.67927e+12 -1.93209e+12 -3.49791e+12 -4.22839e+12 -1.44543e+12 -2.06917e+12 -2.13662e+12 -3.60823e+12 -3.04624e+12 -2.11846e+12 -3.30757e+12 -4.04016e+12 -3.85847e+12 -1.15851e+12 -788357000000.0 -550488000000.0 -1.54334e+12 -2.44685e+12 -1.55734e+12 -3.56464e+12 -4.29768e+12 -1.91779e+12 -354626000000.0 -480901000000.0 -1.57461e+12 -1.89179e+12 -2.52607e+12 -1.44365e+12 -465095000000.0 -1.47275e+12 -1.22811e+12 -1.65193e+12 -1.41334e+12 -952073000000.0 -1.70412e+12 -920261000000.0 -1.56774e+12 -741069000000.0 -2.18217e+12 -1.69066e+12 -2.75204e+12 -1.45996e+12 -1.42067e+12 -1.90535e+12 -680198000000.0 -1.73146e+12 -2.25202e+12 -2.31676e+12 -675095000000.0 -464409000000.0 -517446000000.0 -254771000000.0 -771382000000.0 -1.13997e+12 -1.11824e+12 -699836000000.0 -371381000000.0 -819766000000.0 -926900000000.0 -978848000000.0 -892642000000.0 -427142000000.0 -195362000000.0 -273749000000.0 -41788200000.0 -117443000000.0 -21380600000.0 -450036000000.0 -380581000000.0 -604946000000.0 -164659000000.0 -159040000000.0 -369350000000.0 -213350000000.0 -381334000000.0 -298484000000.0 -142533000000.0 -182810000000.0 -32962000000.0 -360997000000.0 -332749000000.0 -146691000000.0 -302622000000.0 -878589000000.0 -704292000000.0 -338021000000.0 -285958000000.0 -404482000000.0 -1.16911e+12 -234247000000.0 -638100000000.0 -888693000000.0 -1.63591e+12 -423680000000.0 -1.20187e+12 -821613000000.0 -2.24983e+12 -1.13232e+12 -1.10879e+12 -1.9963e+12 -1.08119e+12 -2.38261e+12 -3.44854e+12 -1.71052e+12 -1.97204e+12 -1.37665e+12 -2.19336e+12 -1.54951e+12 -2.41449e+12 -1.85878e+12 -1.52244e+12 -3.06169e+12 -2.26433e+12 -1.2649e+12 -1.89739e+12 -1.16294e+12 -2.97228e+12 -1.77932e+12 -1.82463e+12 -2.27896e+12 -1.3005e+12 -1.74362e+12 -1.78771e+12 -1.3466e+12 -2.27713e+12 -2.42153e+12 -770174000000.0 -684116000000.0 -1.89506e+12 -1.57163e+12 -2.64266e+12 -3.00575e+12 -1.52355e+12 -968729000000.0 -1.67199e+12 -1.49078e+12 -1.63031e+12 -1.35768e+12 -976505000000.0 -546096000000.0 -1.67139e+12 -2.55217e+12 -488727000000.0 -1.3837e+12 -2.13132e+12 -1.38669e+12 -1.63058e+12 -1.60284e+12 -1.30541e+12 -1.04197e+12 -1.16605e+12 -396224000000.0 -1.29521e+12 -841128000000.0 -1.32946e+12 -969812000000.0 -558183000000.0 -927203000000.0 -751313000000.0 -1.21077e+12 -715244000000.0 -322408000000.0 -1.09697e+12 -929062000000.0 -352741000000.0 -201669000000.0 -363635000000.0 -498266000000.0 -282596000000.0 -182894000000.0 -201821000000.0 -164885000000.0 -452823000000.0 -211818000000.0 -154019000000.0 -346916000000.0 -288928000000.0 -448003000000.0 -363761000000.0 -528684000000.0 -179462000000.0 -315033000000.0 -172410000000.0 -98946200000.0 -189944000000.0 -165314000000.0 -234146000000.0 -560507000000.0 -543566000000.0 -588121000000.0 -201204000000.0 -707106000000.0 -212142000000.0 -217062000000.0 -555371000000.0 -1.04879e+12 -455067000000.0 -88923700000.0 -596350000000.0 -488151000000.0 -585590000000.0 -1.12736e+12 -1.15718e+12 -1.22435e+12 -643900000000.0 -2.03342e+12 -486822000000.0 -920339000000.0 -1.77171e+12 -1.12772e+12 -1.26853e+12 -1.05884e+12 -1.09972e+12 -2.00179e+12 -1.31852e+12 -1.15024e+12 -1.67102e+12 -1.22812e+12 -1.20114e+12 -1.08041e+12 -894184000000.0 -1.60723e+12 -1.55627e+12 -2.28565e+12 -2.12981e+12 -1.36966e+12 -1.25682e+12 -1.67468e+12 -1.69598e+12 -2.52751e+12 -2.47425e+12 -2.48923e+12 -2.90325e+12 -1.16823e+12 -603990000000.0 -1.55174e+12 -794461000000.0 -1.2392e+12 -2.27839e+12 -1.43036e+12 -1.09095e+12 -1.86464e+12 -1.59707e+12 -991683000000.0 -1.08415e+12 -1.60276e+12 -451014000000.0 -1.89217e+12 -971262000000.0 -863560000000.0 -1.01915e+12 -916937000000.0 -1.21638e+12 -1.82972e+12 -1.31298e+12 -658282000000.0 -1.80492e+12 -961539000000.0 -1.52452e+12 -54328400000.0 -1.35231e+12 -424124000000.0 -502991000000.0 -565504000000.0 -1.01924e+12 -394682000000.0 -781035000000.0 -518218000000.0 -183191000000.0 -568306000000.0 -1.04028e+12 -449729000000.0 -270750000000.0 -368699000000.0 -181286000000.0 -349162000000.0 -352092000000.0 -454797000000.0 -247284000000.0 -16027200000.0 -266887000000.0 -413183000000.0 -202389000000.0 -390767000000.0 -61789000000.0 -285256000000.0 -97803100000.0 -160042000000.0 -272899000000.0 -148884000000.0 -148437000000.0 -141972000000.0 -60718800000.0 -440945000000.0 -19540600000.0 -389457000000.0 -317997000000.0 -220189000000.0 -619513000000.0 -279270000000.0 -635683000000.0 -520981000000.0 -158390000000.0 -263080000000.0 -872923000000.0 -1.0656e+12 -662637000000.0 -1.05623e+12 -279360000000.0 -428094000000.0 -682853000000.0 -1.4761e+12 -450145000000.0 -1.43219e+12 -799965000000.0 -1.27559e+12 -1.28291e+12 -480527000000.0 -1.43432e+12 -1.2577e+12 -1.83255e+12 -370958000000.0 -1.18394e+12 -1.9037e+12 -1.19175e+12 -872825000000.0 -346613000000.0 -959657000000.0 -404945000000.0 -2.36528e+12 -928683000000.0 -819855000000.0 -1.92063e+12 -735084000000.0 -2.0127e+12 -1.89441e+12 -1.49294e+12 -831994000000.0 -1.76549e+12 -470462000000.0 -2.18552e+12 -2.03997e+12 -1.41431e+12 -1.83821e+12 -1.49188e+12 -1.37049e+12 -1.93059e+12 -1.30307e+12 -836752000000.0 -1.9434e+12 -1.23439e+12 -1.16614e+12 -380011000000.0 -903808000000.0 -1.27205e+12 -986435000000.0 -613711000000.0 -900414000000.0 -1.06325e+12 -747170000000.0 -293781000000.0 -1.48644e+12 -588796000000.0 -1.08353e+12 -1.09186e+12 -659803000000.0 -1.24415e+12 -970720000000.0 -1.35344e+12 -400283000000.0 -428391000000.0 -533632000000.0 -577323000000.0 -661232000000.0 -319192000000.0 -61117400000.0 -544070000000.0 -456504000000.0 -173089000000.0 -699477000000.0 -34084200000.0 -407048000000.0 -446556000000.0 -578787000000.0 -479622000000.0 -92429600000.0 -241750000000.0 -349388000000.0 -22632600000.0 -71900300000.0 -102405000000.0 -75368200000.0 -303788000000.0 -174894000000.0 -208562000000.0 -54065200000.0 -151667000000.0 -95304300000.0 -232647000000.0 -157626000000.0 -408051000000.0 -22685400000.0 -204626000000.0 -314358000000.0 -74622300000.0 -144245000000.0 -390901000000.0 -302953000000.0 -207958000000.0 -397159000000.0 -368777000000.0 -372700000000.0 -252489000000.0 -501342000000.0 -602928000000.0 -335143000000.0 -545666000000.0 -164819000000.0 -34494500000.0 -843040000000.0 -229398000000.0 -588816000000.0 -116306000000.0 -1.72389e+12 -750276000000.0 -1.21171e+12 -1.63452e+12 -581820000000.0 -1.63033e+12 -563573000000.0 -746552000000.0 -567567000000.0 -830112000000.0 -1.6144e+12 -1.30534e+12 -1.24903e+12 -681160000000.0 -971529000000.0 -1.12279e+12 -1.55341e+12 -730361000000.0 -1.29206e+12 -1.09718e+12 -660311000000.0 -1.20218e+12 -767836000000.0 -832736000000.0 -1.52716e+12 -1.72753e+12 -1.11514e+12 -144875000000.0 -2.26848e+12 -1.472e+12 -951450000000.0 -887117000000.0 -84815300000.0 -823519000000.0 -1.10782e+12 -733328000000.0 -827478000000.0 -382406000000.0 -954218000000.0 -1.04607e+12 -439819000000.0 -634408000000.0 -480264000000.0 -160156000000.0 -717772000000.0 -1.78633e+12 -453247000000.0 -780727000000.0 -1.26797e+12 -661583000000.0 -1.0678e+12 -271228000000.0 -252941000000.0 -1.01416e+12 -429493000000.0 -527702000000.0 -470599000000.0 -559785000000.0 -499407000000.0 -593143000000.0 -287076000000.0 -485842000000.0 -113992000000.0 -306592000000.0 -171469000000.0 -67863800000.0 -17957300000.0 -27776700000.0 -220092000000.0 -201400000000.0 -180725000000.0 -196919000000.0 -67331000000.0 -125855000000.0 -169061000000.0 -59927900000.0 -72105100000.0 -164753000000.0 -70590400000.0 -74441900000.0 -159448000000.0 -93375500000.0 -142617000000.0 -414589000000.0 -15618700000.0 -209624000000.0 -211777000000.0 -403068000000.0 -386357000000.0 -54056700000.0 -247398000000.0 -175153000000.0 -147305000000.0 -169519000000.0 -911177000000.0 -427695000000.0 -45893000000.0 -414352000000.0 -572356000000.0 -618823000000.0 -466791000000.0 -823633000000.0 -1.04527e+12 -288874000000.0 -524571000000.0 -245075000000.0 -671679000000.0 -1.08666e+12 -52740900000.0 -539216000000.0 -845340000000.0 -1.11757e+12 -1.22426e+12 -1.38374e+12 -393440000000.0 -1.20194e+12 -1.24893e+12 -1.15597e+12 -1.38587e+12 -431938000000.0 -1.21612e+12 -579551000000.0 -443265000000.0 -1.2414e+12 -727794000000.0 -1.33476e+12 -1.65309e+12 -1.1007e+12 -1.66794e+12 -1.73448e+12 -1.08423e+12 -943102000000.0 -1.26622e+12 -1.146e+12 -725229000000.0 -605293000000.0 -21015100000.0 -682928000000.0 -1.3677e+12 -1.88694e+12 -887693000000.0 -181015000000.0 -1.02998e+12 -826482000000.0 -975884000000.0 -1.60607e+12 -449842000000.0 -932175000000.0 -353237000000.0 -303162000000.0 -1.00609e+12 -1.42238e+12 -671465000000.0 -554649000000.0 -393929000000.0 -1.55715e+12 -495686000000.0 -837691000000.0 -315002000000.0 -291021000000.0 -604048000000.0 -612958000000.0 -190559000000.0 -526889000000.0 -781251000000.0 -539768000000.0 -260240000000.0 -372646000000.0 -343251000000.0 -366649000000.0 -346387000000.0 -264544000000.0 -191492000000.0 -65532600000.0 -78101400000.0 -231206000000.0 -134639000000.0 -146757000000.0 -182785000000.0 -16258900000.0 -122104000000.0 -131126000000.0 -141919000000.0 -69532300000.0 -57396800000.0 -51357000000.0 -53098400000.0 -158739000000.0 -109689000000.0 -135623000000.0 -102295000000.0 -174076000000.0 -182629000000.0 -350158000000.0 -211793000000.0 -50414200000.0 -329605000000.0 -38434600000.0 -282434000000.0 -293363000000.0 -109876000000.0 -280775000000.0 -104646000000.0 -614320000000.0 -108406000000.0 -226843000000.0 -461883000000.0 -180206000000.0 -87738700000.0 -495094000000.0 -535802000000.0 -392900000000.0 -34865600000.0 -385586000000.0 -402685000000.0 -224888000000.0 -904309000000.0 -707234000000.0 -413548000000.0 -544769000000.0 -461299000000.0 -1.09605e+12 -1.04912e+12 -1.86451e+12 -634011000000.0 -678472000000.0 -263873000000.0 -685194000000.0 -1.28183e+12 -863566000000.0 -1.26045e+12 -515499000000.0 -279573000000.0 -882257000000.0 -1.26275e+12 -1.18698e+12 -246893000000.0 -1.39767e+12 -1.07247e+12 -833774000000.0 -550404000000.0 -1.148e+12 -1.08288e+12 -895465000000.0 -204889000000.0 -1.54211e+12 -699510000000.0 -912948000000.0 -948783000000.0 -807008000000.0 -495204000000.0 -791331000000.0 -611919000000.0 -205309000000.0 -820193000000.0 -658104000000.0 -511747000000.0 -451492000000.0 -793857000000.0 -751091000000.0 -535330000000.0 -39096100000.0 -976641000000.0 -776466000000.0 -209797000000.0 -912494000000.0 -466998000000.0 -480144000000.0 -407923000000.0 -133529000000.0 -550574000000.0 -208793000000.0 -233634000000.0 -593452000000.0 -140704000000.0 -64438500000.0 -134937000000.0 -122054000000.0 -234727000000.0 -228063000000.0 -29646600000.0 -25781500000.0 -70361800000.0 -48550000000.0 -129266000000.0 -116779000000.0 -81173900000.0 -14324100000.0 -15578300000.0 -133891000000.0 -48700400000.0 -120634000000.0 -133980000000.0 -165352000000.0 -104830000000.0 -93798400000.0 -133222000000.0 -177310000000.0 -104506000000.0 -79428400000.0 -130684000000.0 -13118900000.0 -221976000000.0 -136178000000.0 -42761900000.0 -50826400000.0 -197504000000.0 -300393000000.0 -224914000000.0 -32436400000.0 -226554000000.0 -352072000000.0 -372660000000.0 -34352700000.0 -277155000000.0 -261961000000.0 -343346000000.0 -39041500000.0 -548167000000.0 -180012000000.0 -449276000000.0 -772851000000.0 -304065000000.0 -206624000000.0 -902443000000.0 -1.01094e+12 -267762000000.0 -520331000000.0 -358612000000.0 -841769000000.0 -1.39763e+12 -298827000000.0 -469075000000.0 -447779000000.0 -736742000000.0 -336561000000.0 -733486000000.0 -720487000000.0 -838916000000.0 -636190000000.0 -358211000000.0 -610602000000.0 -817421000000.0 -1.07529e+12 -1.2425e+12 -359946000000.0 -711354000000.0 -1.24636e+12 -929429000000.0 -1.70562e+12 -875309000000.0 -1.06977e+12 -1.01567e+12 -703735000000.0 -474401000000.0 -901185000000.0 -946408000000.0 -314862000000.0 -492487000000.0 -281687000000.0 -509543000000.0 -438514000000.0 -17612400000.0 -353672000000.0 -277561000000.0 -708269000000.0 -583391000000.0 -701768000000.0 -434513000000.0 -255979000000.0 -258293000000.0 -506939000000.0 -260476000000.0 -447231000000.0 -375448000000.0 -212188000000.0 -177374000000.0 -458638000000.0 -49419000000.0 -242651000000.0 -181367000000.0 -206084000000.0 -127889000000.0 -96056600000.0 -158035000000.0 -116433000000.0 -27740600000.0 -70361900000.0 -32965400000.0 -45586800000.0 -51210400000.0 -41019700000.0 -58649800000.0 -102682000000.0 -60936900000.0 -67489500000.0 -60567200000.0 -74227200000.0 -102570000000.0 -187146000000.0 -109225000000.0 -94504400000.0 -110499000000.0 -81559300000.0 -180370000000.0 -142462000000.0 -274011000000.0 -200247000000.0 -341825000000.0 -341936000000.0 -313486000000.0 -273437000000.0 -130037000000.0 -169831000000.0 -405431000000.0 -230069000000.0 -400326000000.0 -319480000000.0 -642504000000.0 -522335000000.0 -326060000000.0 -205250000000.0 -443619000000.0 -100017000000.0 -399348000000.0 -454429000000.0 -296973000000.0 -21028300000.0 -1.34227e+12 -690064000000.0 -201866000000.0 -400877000000.0 -1.19216e+12 -546931000000.0 -73595500000.0 -831758000000.0 -447702000000.0 -612457000000.0 -277768000000.0 -557255000000.0 -213815000000.0 -1.07164e+12 -437073000000.0 -235108000000.0 -136186000000.0 -586601000000.0 -885473000000.0 -861878000000.0 -701298000000.0 -556440000000.0 -720217000000.0 -744501000000.0 -813205000000.0 -817049000000.0 -348158000000.0 -476123000000.0 -351666000000.0 -238600000000.0 -334451000000.0 -749128000000.0 -191326000000.0 -696276000000.0 -216096000000.0 -377858000000.0 -380658000000.0 -436180000000.0 -164562000000.0 -269629000000.0 -381212000000.0 -565408000000.0 -532788000000.0 -167819000000.0 -519502000000.0 -338855000000.0 -259828000000.0 -201589000000.0 -162099000000.0 -247633000000.0 -512592000000.0 -298041000000.0 -309042000000.0 -186335000000.0 -19011800000.0 -97479200000.0 -228522000000.0 -166648000000.0 -289978000000.0 -171809000000.0 -36923800000.0 -295684000000.0 -61518100000.0 -105847000000.0 -124200000000.0 -138053000000.0 -58213600000.0 -35611500000.0 -114264000000.0 -66972100000.0 -77609400000.0 -69886400000.0 -76346200000.0 -71685100000.0 -115779000000.0 -73265600000.0 -19675000000.0 -78486100000.0 -85656200000.0 -20062600000.0 -90579900000.0 -14214500000.0 -82664300000.0 -119805000000.0 -89074700000.0 -87837100000.0 -123048000000.0 -136711000000.0 -21593900000.0 -19699900000.0 -49737300000.0 -114662000000.0 -90130000000.0 -83236000000.0 -196411000000.0 -134619000000.0 -168680000000.0 -58251500000.0 -19987300000.0 -168553000000.0 -84554000000.0 -198140000000.0 -538655000000.0 -238238000000.0 -537985000000.0 -18189100000.0 -156067000000.0 -284326000000.0 -695004000000.0 -169460000000.0 -32977200000.0 -268043000000.0 -443077000000.0 -929856000000.0 -718782000000.0 -497685000000.0 -188468000000.0 -913299000000.0 -261487000000.0 -226446000000.0 -504974000000.0 -325044000000.0 -30165000000.0 -354813000000.0 -652301000000.0 -712758000000.0 -153731000000.0 -207702000000.0 -498771000000.0 -261895000000.0 -495011000000.0 -411175000000.0 -391112000000.0 -882522000000.0 -681421000000.0 -472655000000.0 -401683000000.0 -305400000000.0 -274604000000.0 -206614000000.0 -135551000000.0 -321857000000.0 -288789000000.0 -514583000000.0 -455563000000.0 -239071000000.0 -377106000000.0 -579540000000.0 -524710000000.0 -256132000000.0 -288504000000.0 -94790300000.0 -437175000000.0 -402556000000.0 -332578000000.0 -320127000000.0 -336991000000.0 -162557000000.0 -112973000000.0 -358741000000.0 -142648000000.0 -310799000000.0 -354558000000.0 -34509400000.0 -47342100000.0 -65143900000.0 -13772000000.0 -126797000000.0 -177661000000.0 -99930600000.0 -114823000000.0 -165960000000.0 -194771000000.0 -119296000000.0 -78281300000.0 -69245200000.0 -67832400000.0 -77312500000.0 -59578400000.0 -45499400000.0 -75692700000.0 -88693300000.0 -14138100000.0 -14177000000.0 -17765200000.0 -16302700000.0 -31373300000.0 -55982100000.0 -43508400000.0 -14738300000.0 -12549700000.0 -94893800000.0 -12549700000.0 -109997000000.0 -19278600000.0 -17418600000.0 -125085000000.0 -44740700000.0 -56867200000.0 -35438600000.0 -143182000000.0 -19761400000.0 -105558000000.0 -173024000000.0 -175100000000.0 -86951400000.0 -72709800000.0 -93470000000.0 -394500000000.0 -496427000000.0 -209570000000.0 -76518900000.0 -166705000000.0 -195363000000.0 -86279000000.0 -133110000000.0 -760146000000.0 -75039900000.0 -349443000000.0 -316342000000.0 -228683000000.0 -162613000000.0 -96352400000.0 -279477000000.0 -537585000000.0 -230486000000.0 -244375000000.0 -219524000000.0 -214166000000.0 -144875000000.0 -369329000000.0 -783902000000.0 -239204000000.0 -154410000000.0 -586657000000.0 -84032900000.0 -360165000000.0 -484233000000.0 -791724000000.0 -288180000000.0 -555485000000.0 -632601000000.0 -426791000000.0 -403568000000.0 -404536000000.0 -252469000000.0 -14333600000.0 -143265000000.0 -413455000000.0 -205025000000.0 -96333100000.0 -495056000000.0 -15675700000.0 -222402000000.0 -342605000000.0 -124881000000.0 -325735000000.0 -307806000000.0 -268914000000.0 -252595000000.0 -312364000000.0 -436415000000.0 -232362000000.0 -380818000000.0 -405200000000.0 -275162000000.0 -87433100000.0 -144875000000.0 -301811000000.0 -172008000000.0 -217368000000.0 -117324000000.0 -40997100000.0 -57513500000.0 -167732000000.0 -87100200000.0 -62465200000.0 -33625400000.0 -32823300000.0 -26985200000.0 -86590900000.0 -110653000000.0 -104290000000.0 -15894700000.0 -13714300000.0 -51031200000.0 -23966000000.0 -39382200000.0 -15674300000.0 -21833200000.0 -20935700000.0 -23583200000.0 -30574700000.0 -53951300000.0 -65301500000.0 -12549700000.0 -12549700000.0 -21454900000.0 -27438200000.0 -32039800000.0 -83338600000.0 -43205900000.0 -123203000000.0 -74789200000.0 -109300000000.0 -22222500000.0 -210100000000.0 -18684200000.0 -180616000000.0 -141556000000.0 -81389500000.0 -99813900000.0 -119660000000.0 -66384900000.0 -76145300000.0 -139910000000.0 -74723900000.0 -26309200000.0 -429383000000.0 -359251000000.0 -24061100000.0 -98753700000.0 -83990100000.0 -58504300000.0 -471212000000.0 -387686000000.0 -367015000000.0 -308094000000.0 -276594000000.0 -148994000000.0 -121981000000.0 -177289000000.0 -380024000000.0 -403090000000.0 -241460000000.0 -228421000000.0 -255543000000.0 -198167000000.0 -387869000000.0 -446327000000.0 -326319000000.0 -153577000000.0 -385462000000.0 -305100000000.0 -182473000000.0 -219412000000.0 -262206000000.0 -287905000000.0 -307653000000.0 -262362000000.0 -270794000000.0 -424720000000.0 -123423000000.0 -134208000000.0 -181535000000.0 -241566000000.0 -126585000000.0 -156295000000.0 -133396000000.0 -148864000000.0 -269508000000.0 -287530000000.0 -172706000000.0 -234127000000.0 -214988000000.0 -95900900000.0 -147099000000.0 -90433500000.0 -188853000000.0 -116443000000.0 -266422000000.0 -127378000000.0 -68082800000.0 -25259900000.0 -140286000000.0 -34378800000.0 -15616900000.0 -15820500000.0 -27454700000.0 -34020700000.0 -39034900000.0 -36340700000.0 -55460900000.0 -33609900000.0 -34766800000.0 -49422700000.0 -16915700000.0 -13285300000.0 -12906700000.0 -33937000000.0 -13762600000.0 -14248200000.0 -31622700000.0 -12549700000.0 -32321000000.0 -21541100000.0 -17533200000.0 -19404300000.0 -35593800000.0 -111311000000.0 -30601400000.0 -157702000000.0 -85734200000.0 -38008200000.0 -56086000000.0 -56599000000.0 -106121000000.0 -29149400000.0 -68704400000.0 -37611600000.0 -71721200000.0 -17249300000.0 -311571000000.0 -193013000000.0 -208399000000.0 -90587600000.0 -39862700000.0 -65993900000.0 -14286400000.0 -284568000000.0 -233781000000.0 -132683000000.0 -397784000000.0 -33533900000.0 -332589000000.0 -104986000000.0 -33345300000.0 -258653000000.0 -175707000000.0 -238763000000.0 -240730000000.0 -292662000000.0 -599559000000.0 -255169000000.0 -185661000000.0 -344684000000.0 -267248000000.0 -243113000000.0 -135402000000.0 -34577100000.0 -254790000000.0 -99322600000.0 -128502000000.0 -531656000000.0 -199916000000.0 -104870000000.0 -322702000000.0 -177023000000.0 -169394000000.0 -74092400000.0 -80529100000.0 -134752000000.0 -201999000000.0 -282199000000.0 -37444500000.0 -296303000000.0 -107945000000.0 -309288000000.0 -73096400000.0 -101011000000.0 -177866000000.0 -149538000000.0 -149883000000.0 -155741000000.0 -56810300000.0 -117531000000.0 -166683000000.0 -247845000000.0 -228315000000.0 -91853800000.0 -50742700000.0 -66073200000.0 -69139900000.0 -70843000000.0 -66164400000.0 -68945600000.0 -68890000000.0 -98345300000.0 -14273200000.0 -26068600000.0 -62073300000.0 -74452900000.0 -70589700000.0 -34716900000.0 -37709100000.0 -49614600000.0 -54200300000.0 -19094000000.0 -25871000000.0 -26394300000.0 -32876100000.0 -19208000000.0 -12880500000.0 -30939000000.0 -14901000000.0 -12549700000.0 -12549700000.0 -17791600000.0 -26493600000.0 -17972300000.0 -12549700000.0 -23063200000.0 -20667300000.0 -14277400000.0 -21977800000.0 -16971200000.0 -17246300000.0 -69637500000.0 -35310600000.0 -41242100000.0 -31509700000.0 -84901800000.0 -48441200000.0 -45159600000.0 -36203900000.0 -46339100000.0 -59169200000.0 -67682000000.0 -67876400000.0 -90204900000.0 -156524000000.0 -109163000000.0 -109008000000.0 -45765300000.0 -144186000000.0 -95386600000.0 -77377700000.0 -67830200000.0 -194707000000.0 -208611000000.0 -107513000000.0 -110087000000.0 -166683000000.0 -44022500000.0 -139034000000.0 -296844000000.0 -107058000000.0 -110788000000.0 -116568000000.0 -145294000000.0 -210474000000.0 -269098000000.0 -153419000000.0 -103734000000.0 -169021000000.0 -80679600000.0 -34687700000.0 -71977400000.0 -331621000000.0 -194143000000.0 -151213000000.0 -18713300000.0 -106441000000.0 -116248000000.0 -89053300000.0 -212703000000.0 -38099800000.0 -187948000000.0 -90764400000.0 -42720400000.0 -86446800000.0 -73009800000.0 -80098500000.0 -28904600000.0 -27522900000.0 -67783600000.0 -79555200000.0 -47073000000.0 -103836000000.0 -61537800000.0 -91294700000.0 -43722200000.0 -75144800000.0 -26112600000.0 -67534300000.0 -91420000000.0 -48337600000.0 -32222700000.0 -22702700000.0 -17510100000.0 -14095300000.0 -13078400000.0 -49358900000.0 -12549700000.0 -18299600000.0 -23237600000.0 -14585800000.0 -19168200000.0 -15837600000.0 -23808300000.0 -14288300000.0 -12841300000.0 -21194400000.0 -17815800000.0 -12569500000.0 -12549700000.0 -12558300000.0 -13765300000.0 -12703400000.0 -20569500000.0 -12549700000.0 -16899500000.0 -25095700000.0 -20696800000.0 -13878600000.0 -15356700000.0 -23089200000.0 -39428800000.0 -20636200000.0 -24023200000.0 -20314900000.0 -19773300000.0 -16168100000.0 -40746300000.0 -22051600000.0 -35063100000.0 -26318000000.0 -90549100000.0 -61675200000.0 -47901100000.0 -22162900000.0 -38990100000.0 -81219300000.0 -221766000000.0 -111996000000.0 -75121800000.0 -233478000000.0 -57385300000.0 -146463000000.0 -13612000000.0 -13067700000.0 -87745400000.0 -43425100000.0 -75453000000.0 -45040000000.0 -91031400000.0 -33286100000.0 -112680000000.0 -76767700000.0 -13480100000.0 -15927900000.0 -285441000000.0 -117738000000.0 -181788000000.0 -137438000000.0 -156183000000.0 -283754000000.0 -317549000000.0 -216103000000.0 -34409700000.0 -99272500000.0 -48168400000.0 -84391200000.0 -76034100000.0 -57622500000.0 -45845300000.0 -63874500000.0 -55678800000.0 -30428700000.0 -40242200000.0 -36738800000.0 -34658700000.0 -43007500000.0 -105065000000.0 -21316700000.0 -46068000000.0 -49900500000.0 -23058100000.0 -13927000000.0 -17785300000.0 -44235300000.0 -32740800000.0 -51667700000.0 -19214600000.0 -14356600000.0 -18070100000.0 -34776500000.0 -13287700000.0 -14603100000.0 -14962200000.0 -12549700000.0 -14143200000.0 -12903300000.0 -14441500000.0 -16540800000.0 -15494400000.0 -13915800000.0 -13479800000.0 -13642100000.0 -13700800000.0 -14016800000.0 -17642500000.0 -15075200000.0 -16446700000.0 -14045100000.0 -13149200000.0 -15848900000.0 -14908000000.0 -17976200000.0 -16517000000.0 -17913300000.0 -19541500000.0 -21591200000.0 -26933600000.0 -20267200000.0 -21269600000.0 -27685200000.0 -32274400000.0 -43281700000.0 -44091600000.0 -23173200000.0 -20681300000.0 -34886300000.0 -57508500000.0 -53587400000.0 -28263100000.0 -48006300000.0 -71522000000.0 -16354000000.0 -96318300000.0 -164268000000.0 -14341300000.0 -25516400000.0 -48143300000.0 -29137800000.0 -30369200000.0 -28326300000.0 -71247100000.0 -43961300000.0 -66257200000.0 -35395400000.0 -95549000000.0 -36221100000.0 -35656600000.0 -95182900000.0 -49139600000.0 -141947000000.0 -73264300000.0 -59430200000.0 -79541600000.0 -79842700000.0 -74102500000.0 -136714000000.0 -36987000000.0 -53624300000.0 -16382300000.0 -23405900000.0 -51231900000.0 -48313700000.0 -30041400000.0 -52267000000.0 -49536000000.0 -29125900000.0 -34025500000.0 -43145300000.0 -16533400000.0 -22425100000.0 -22325500000.0 -16079500000.0 -12779300000.0 -15710300000.0 -28478800000.0 -21477100000.0 -18740000000.0 -15010600000.0 -14633300000.0 -27169400000.0 -28926900000.0 -21934900000.0 -36356400000.0 -27927400000.0 -36031800000.0 -28861700000.0 -12549700000.0 -22341900000.0 -19965100000.0 -21116600000.0 -25016300000.0 -49457500000.0 -27782100000.0 -21714300000.0 -20564800000.0 -38982700000.0 -40764900000.0 -49591300000.0 -69983200000.0 -18818000000.0 