# vtk DataFile Version 2.0
Time step 63
ASCII
DATASET UNSTRUCTURED_GRID
POINTS 4650 float
202000.0 362213.0 0
210950.0 361537.0 0
289050.0 361537.0 0
298000.0 362213.0 0
207293.0 363153.0 0
214966.0 363720.0 0
222243.0 364611.0 0
277757.0 364611.0 0
285034.0 363720.0 0
292707.0 363153.0 0
204127.0 365584.0 0
207820.0 367082.0 0
211421.0 365461.0 0
218252.0 365919.0 0
226112.0 365596.0 0
231146.0 366317.0 0
234902.0 365026.0 0
238261.0 367151.0 0
241629.0 365054.0 0
248054.0 365214.0 0
251946.0 365214.0 0
258371.0 365054.0 0
261739.0 367151.0 0
265098.0 365026.0 0
268854.0 366317.0 0
273888.0 365596.0 0
281748.0 365919.0 0
288579.0 365461.0 0
292180.0 367082.0 0
295873.0 365584.0 0
201998.0 368925.0 0
211114.0 369354.0 0
214710.0 367725.0 0
221244.0 368453.0 0
228218.0 368978.0 0
234800.0 369023.0 0
241537.0 369355.0 0
244850.0 367385.0 0
250000.0 368905.0 0
255150.0 367385.0 0
258463.0 369355.0 0
265200.0 369023.0 0
271782.0 368978.0 0
278756.0 368453.0 0
285290.0 367725.0 0
288886.0 369354.0 0
298002.0 368925.0 0
206447.0 370718.0 0
214201.0 372237.0 0
217707.0 370315.0 0
221099.0 372373.0 0
224606.0 370494.0 0
231515.0 371142.0 0
238144.0 371194.0 0
246576.0 370932.0 0
253424.0 370932.0 0
261856.0 371194.0 0
268485.0 371142.0 0
275394.0 370494.0 0
278901.0 372373.0 0
282293.0 370315.0 0
285799.0 372237.0 0
293553.0 370718.0 0
200956.0 375955.0 0
203057.0 372713.0 0
206550.0 374605.0 0
210004.0 373016.0 0
217631.0 374274.0 0
224488.0 374395.0 0
228125.0 373071.0 0
231524.0 375120.0 0
234872.0 373205.0 0
239711.0 374845.0 0
243158.0 372925.0 0
246583.0 374894.0 0
250000.0 372901.0 0
253417.0 374894.0 0
256842.0 372925.0 0
260289.0 374845.0 0
265128.0 373205.0 0
268476.0 375120.0 0
271875.0 373071.0 0
275512.0 374395.0 0
282369.0 374274.0 0
289996.0 373016.0 0
293450.0 374605.0 0
296943.0 372713.0 0
299044.0 375955.0 0
198099.0 378512.0 0
204488.0 377666.0 0
209101.0 377716.0 0
212588.0 375867.0 0
215944.0 377790.0 0
221073.0 376287.0 0
228222.0 377100.0 0
236313.0 376848.0 0
243155.0 376856.0 0
250000.0 376865.0 0
256845.0 376856.0 0
263687.0 376848.0 0
271778.0 377100.0 0
278927.0 376287.0 0
284056.0 377790.0 0
287412.0 375867.0 0
290899.0 377716.0 0
295512.0 377666.0 0
301901.0 378512.0 0
194716.0 380607.0 0
201575.0 379945.0 0
206686.0 380757.0 0
212577.0 379800.0 0
219314.0 379669.0 0
224553.0 378234.0 0
232904.0 378811.0 0
239753.0 378805.0 0
246585.0 378834.0 0
253415.0 378834.0 0
260247.0 378805.0 0
267096.0 378811.0 0
275447.0 378234.0 0
280686.0 379669.0 0
287423.0 379800.0 0
293314.0 380757.0 0
298425.0 379945.0 0
305284.0 380607.0 0
191440.0 382660.0 0
194524.0 384184.0 0
197768.0 382019.0 0
200696.0 383575.0 0
204009.0 383292.0 0
209923.0 382598.0 0
216052.0 381727.0 0
222719.0 381460.0 0
226277.0 382980.0 0
229534.0 380831.0 0
233006.0 382754.0 0
236362.0 380775.0 0
239797.0 382738.0 0
243182.0 380789.0 0
246599.0 382763.0 0
250000.0 380805.0 0
253401.0 382763.0 0
256818.0 380789.0 0
260203.0 382738.0 0
263638.0 380775.0 0
266994.0 382754.0 0
270466.0 380831.0 0
273723.0 382980.0 0
277281.0 381460.0 0
283948.0 381727.0 0
290077.0 382598.0 0
295991.0 383292.0 0
299304.0 383575.0 0
302232.0 382019.0 0
305476.0 384184.0 0
308560.0 382660.0 0
185183.0 386585.0 0
188269.0 384649.0 0
191378.0 386302.0 0
197578.0 385689.0 0
207052.0 385125.0 0
213219.0 384244.0 0
216559.0 385837.0 0
219545.0 383560.0 0
223080.0 385263.0 0
229728.0 384804.0 0
236440.0 384705.0 0
243212.0 384713.0 0
250000.0 384735.0 0
256788.0 384713.0 0
263560.0 384705.0 0
270272.0 384804.0 0
276920.0 385263.0 0
280455.0 383560.0 0
283441.0 385837.0 0
286781.0 384244.0 0
292948.0 385125.0 0
302422.0 385689.0 0
308622.0 386302.0 0
311731.0 384649.0 0
314817.0 386585.0 0
179280.0 390272.0 0
188302.0 388355.0 0
194509.0 387866.0 0
197718.0 389339.0 0
200766.0 387095.0 0
204132.0 387559.0 0
210276.0 386655.0 0
213561.0 388195.0 0
219961.0 387474.0 0
226522.0 386947.0 0
233138.0 386708.0 0
239847.0 386660.0 0
246613.0 386682.0 0
253387.0 386682.0 0
260153.0 386660.0 0
266862.0 386708.0 0
273478.0 386947.0 0
280039.0 387474.0 0
286439.0 388195.0 0
289724.0 386655.0 0
295868.0 387559.0 0
299234.0 387095.0 0
302282.0 389339.0 0
305491.0 387866.0 0
311698.0 388355.0 0
320720.0 390272.0 0
176260.0 392142.0 0
182189.0 388460.0 0
185314.0 390370.0 0
191460.0 390011.0 0
194697.0 391558.0 0
201025.0 390630.0 0
204332.0 391574.0 0
207307.0 389099.0 0
210555.0 390597.0 0
216890.0 389761.0 0
223364.0 389164.0 0
226734.0 390909.0 0
229906.0 388776.0 0
233256.0 390672.0 0
236520.0 388640.0 0
239882.0 390573.0 0
243238.0 388629.0 0
246621.0 390581.0 0
250000.0 388662.0 0
253379.0 390581.0 0
256762.0 388629.0 0
260118.0 390573.0 0
263480.0 388640.0 0
266744.0 390672.0 0
270094.0 388776.0 0
273266.0 390909.0 0
276636.0 389164.0 0
283110.0 389761.0 0
289445.0 390597.0 0
292693.0 389099.0 0
295668.0 391574.0 0
298975.0 390630.0 0
305303.0 391558.0 0
308540.0 390011.0 0
314686.0 390370.0 0
317811.0 388460.0 0
323740.0 392142.0 0
173113.0 394100.0 0
176210.0 395508.0 0
179469.0 393801.0 0
182432.0 392325.0 0
188449.0 392134.0 0
191679.0 393742.0 0
198006.0 392992.0 0
201348.0 394276.0 0
207556.0 393038.0 0
213836.0 392114.0 0
217139.0 393667.0 0
220238.0 391387.0 0
223585.0 393084.0 0
230074.0 392753.0 0
236567.0 392581.0 0
243234.0 392535.0 0
250000.0 392598.0 0
256766.0 392535.0 0
263433.0 392581.0 0
269926.0 392753.0 0
276415.0 393084.0 0
279762.0 391387.0 0
282861.0 393667.0 0
286164.0 392114.0 0
292444.0 393038.0 0
298652.0 394276.0 0
301994.0 392992.0 0
308321.0 393742.0 0
311551.0 392134.0 0
317568.0 392325.0 0
320531.0 393801.0 0
323790.0 395508.0 0
326887.0 394100.0 0
166809.0 398044.0 0
169959.0 396073.0 0
173056.0 397482.0 0
179344.0 397055.0 0
182587.0 396377.0 0
185471.0 394245.0 0
188685.0 395917.0 0
194978.0 395262.0 0
198306.0 396694.0 0
204586.0 395526.0 0
210799.0 394522.0 0
214062.0 396020.0 0
220457.0 395288.0 0
226912.0 394859.0 0
233396.0 394664.0 0
239821.0 394461.0 0
246631.0 394430.0 0
253369.0 394430.0 0
260179.0 394461.0 0
266604.0 394664.0 0
273088.0 394859.0 0
279543.0 395288.0 0
285938.0 396020.0 0
289201.0 394522.0 0
295414.0 395526.0 0
301694.0 396694.0 0
305022.0 395262.0 0
311315.0 395917.0 0
314529.0 394245.0 0
317413.0 396377.0 0
320656.0 397055.0 0
326944.0 397482.0 0
330041.0 396073.0 0
333191.0 398044.0 0
163643.0 400024.0 0
169939.0 399481.0 0
176191.0 398886.0 0
179476.0 400193.0 0
185745.0 398124.0 0
191972.0 397495.0 0
195284.0 399015.0 0
201590.0 398069.0 0
204813.0 399460.0 0
207796.0 396977.0 0
211021.0 398444.0 0
217349.0 397550.0 0
223774.0 396997.0 0
227067.0 398800.0 0
230214.0 396720.0 0
233489.0 398643.0 0
236700.0 396630.0 0
239905.0 398748.0 0
242921.0 396395.0 0
246024.0 398069.0 0
250000.0 396738.0 0
253976.0 398069.0 0
257079.0 396395.0 0
260095.0 398748.0 0
263300.0 396630.0 0
266511.0 398643.0 0
269786.0 396720.0 0
272933.0 398800.0 0
276226.0 396997.0 0
282651.0 397550.0 0
288979.0 398444.0 0
292204.0 396977.0 0
295187.0 399460.0 0
298410.0 398069.0 0
304716.0 399015.0 0
308028.0 397495.0 0
314255.0 398124.0 0
320524.0 400193.0 0
323809.0 398886.0 0
330061.0 399481.0 0
336357.0 400024.0 0
160446.0 402023.0 0
166797.0 401463.0 0
170003.0 402899.0 0
173120.0 400898.0 0
176393.0 402249.0 0
182832.0 400372.0 0
186028.0 401981.0 0
188997.0 399727.0 0
192283.0 401291.0 0
198577.0 400492.0 0
201831.0 401947.0 0
208021.0 400918.0 0
214269.0 399911.0 0
217549.0 401399.0 0
220653.0 399166.0 0
223948.0 400899.0 0
230323.0 400687.0 0
236631.0 400763.0 0
243227.0 400723.0 0
248421.0 400409.0 0
251579.0 400409.0 0
256773.0 400723.0 0
263369.0 400763.0 0
269677.0 400687.0 0
276052.0 400899.0 0
279347.0 399166.0 0
282451.0 401399.0 0
285731.0 399911.0 0
291979.0 400918.0 0
298169.0 401947.0 0
301423.0 400492.0 0
307717.0 401291.0 0
311003.0 399727.0 0
313972.0 401981.0 0
317168.0 400372.0 0
323607.0 402249.0 0
326880.0 400898.0 0
329997.0 402899.0 0
333203.0 401463.0 0
339554.0 402023.0 0
157216.0 404042.0 0
160384.0 405446.0 0
163611.0 403446.0 0
166822.0 404882.0 0
173278.0 404296.0 0
176618.0 405612.0 0
179765.0 403418.0 0
183048.0 404278.0 0
189284.0 403547.0 0
195570.0 402833.0 0
198841.0 404362.0 0
205055.0 403409.0 0
211241.0 402366.0 0
214487.0 403781.0 0
220851.0 403017.0 0
227197.0 402743.0 0
233385.0 402848.0 0
239926.0 402708.0 0
246285.0 403054.0 0
250000.0 404335.0 0
253715.0 403054.0 0
260074.0 402708.0 0
266615.0 402848.0 0
272803.0 402743.0 0
279149.0 403017.0 0
285513.0 403781.0 0
288759.0 402366.0 0
294945.0 403409.0 0
301159.0 404362.0 0
304430.0 402833.0 0
310716.0 403547.0 0
316952.0 404278.0 0
320235.0 403418.0 0
323382.0 405612.0 0
326722.0 404296.0 0
333178.0 404882.0 0
336389.0 403446.0 0
339616.0 405446.0 0
342784.0 404042.0 0
150666.0 408136.0 0
153954.0 406080.0 0
157124.0 407467.0 0
163590.0 406871.0 0
166838.0 408302.0 0
170085.0 406306.0 0
173392.0 407691.0 0
179959.0 406825.0 0
186264.0 405803.0 0
189509.0 407365.0 0
192555.0 405117.0 0
195828.0 406695.0 0
202094.0 405875.0 0
208278.0 404873.0 0
211519.0 406294.0 0
217775.0 405194.0 0
221071.0 406848.0 0
224110.0 404799.0 0
230153.0 404975.0 0
233432.0 406809.0 0
236669.0 404734.0 0
239934.0 406693.0 0
243138.0 404779.0 0
246634.0 406704.0 0
253366.0 406704.0 0
256862.0 404779.0 0
260066.0 406693.0 0
263331.0 404734.0 0
266568.0 406809.0 0
269847.0 404975.0 0
275890.0 404799.0 0
278929.0 406848.0 0
282225.0 405194.0 0
288481.0 406294.0 0
291722.0 404873.0 0
297906.0 405875.0 0
304172.0 406695.0 0
307445.0 405117.0 0
310491.0 407365.0 0
313736.0 405803.0 0
320041.0 406825.0 0
326608.0 407691.0 0
329915.0 406306.0 0
333162.0 408302.0 0
336410.0 406871.0 0
342876.0 407467.0 0
346046.0 406080.0 0
349334.0 408136.0 0
147356.0 410206.0 0
153837.0 409510.0 0
157036.0 410907.0 0
160326.0 408878.0 0
163561.0 410305.0 0
170120.0 409723.0 0
176707.0 409033.0 0
179985.0 410369.0 0
183186.0 408066.0 0
186405.0 409587.0 0
192773.0 408957.0 0
199099.0 408273.0 0
202383.0 409821.0 0
205351.0 407378.0 0
208639.0 408843.0 0
214789.0 407628.0 0
218101.0 408911.0 0
223682.0 409308.0 0
226923.0 407132.0 0
230195.0 408915.0 0
236707.0 408701.0 0
243305.0 408633.0 0
250000.0 408505.0 0
256695.0 408633.0 0
263293.0 408701.0 0
269805.0 408915.0 0
273077.0 407132.0 0
276318.0 409308.0 0
281899.0 408911.0 0
285211.0 407628.0 0
291361.0 408843.0 0
294649.0 407378.0 0
297617.0 409821.0 0
300901.0 408273.0 0
307227.0 408957.0 0
313595.0 409587.0 0
316814.0 408066.0 0
320015.0 410369.0 0
323293.0 409033.0 0
329880.0 409723.0 0
336439.0 410305.0 0
339674.0 408878.0 0
342964.0 410907.0 0
346163.0 409510.0 0
352644.0 410206.0 0
144030.0 412285.0 0
150529.0 411573.0 0
153729.0 412959.0 0
160264.0 412325.0 0
166825.0 411740.0 0
170109.0 413178.0 0
173416.0 411129.0 0
176704.0 412533.0 0
183224.0 411784.0 0
189654.0 411166.0 0
196051.0 410576.0 0
199348.0 412201.0 0
205713.0 411345.0 0
211995.0 410230.0 0
215489.0 411440.0 0
220409.0 411483.0 0
226945.0 411040.0 0
233469.0 410758.0 0
240024.0 410610.0 0
246673.0 410546.0 0
250000.0 412449.0 0
253327.0 410546.0 0
259976.0 410610.0 0
266531.0 410758.0 0
273055.0 411040.0 0
279591.0 411483.0 0
284511.0 411440.0 0
288005.0 410230.0 0
294287.0 411345.0 0
300652.0 412201.0 0
303949.0 410576.0 0
310346.0 411166.0 0
316776.0 411784.0 0
323296.0 412533.0 0
326584.0 411129.0 0
329891.0 413178.0 0
333175.0 411740.0 0
339736.0 412325.0 0
346271.0 412959.0 0
349471.0 411573.0 0
355970.0 412285.0 0
140693.0 414372.0 0
143875.0 415747.0 0
147206.0 413652.0 0
150408.0 415033.0 0
156954.0 414367.0 0
160205.0 415795.0 0
163519.0 413760.0 0
166794.0 415209.0 0
173398.0 414622.0 0
179973.0 413969.0 0
183225.0 415480.0 0
186465.0 413337.0 0
189724.0 414945.0 0
192928.0 412790.0 0
196231.0 414452.0 0
202695.0 413746.0 0
209113.0 412779.0 0
212636.0 414078.0 0
216391.0 414918.0 0
223650.0 413163.0 0
230220.0 412839.0 0
233492.0 414688.0 0
236758.0 412635.0 0
240065.0 414528.0 0
243358.0 412524.0 0
246686.0 414443.0 0
253314.0 414443.0 0
256642.0 412524.0 0
259935.0 414528.0 0
263242.0 412635.0 0
266508.0 414688.0 0
269780.0 412839.0 0
276350.0 413163.0 0
283609.0 414918.0 0
287364.0 414078.0 0
290887.0 412779.0 0
297305.0 413746.0 0
303769.0 414452.0 0
307072.0 412790.0 0
310276.0 414945.0 0
313535.0 413337.0 0
316775.0 415480.0 0
320027.0 413969.0 0
326602.0 414622.0 0
333206.0 415209.0 0
336481.0 413760.0 0
339795.0 415795.0 0
343046.0 414367.0 0
349592.0 415033.0 0
352794.0 413652.0 0
356125.0 415747.0 0
359307.0 414372.0 0
134008.0 418553.0 0
137352.0 416461.0 0
140540.0 417852.0 0
147080.0 417126.0 0
150310.0 418519.0 0
153635.0 416431.0 0
156886.0 417850.0 0
163476.0 417244.0 0
170082.0 416674.0 0
173375.0 418161.0 0
176682.0 416088.0 0
179955.0 417601.0 0
186469.0 417075.0 0
193002.0 416598.0 0
199581.0 416127.0 0
203061.0 417597.0 0
206140.0 415286.0 0
209638.0 416649.0 0
220209.0 415203.0 0
223652.0 416943.0 0
226951.0 414917.0 0
230212.0 416753.0 0
236778.0 416560.0 0
243379.0 416436.0 0
250000.0 416379.0 0
256621.0 416436.0 0
263222.0 416560.0 0
269788.0 416753.0 0
273049.0 414917.0 0
276348.0 416943.0 0
279791.0 415203.0 0
290362.0 416649.0 0
293860.0 415286.0 0
296939.0 417597.0 0
300419.0 416127.0 0
306998.0 416598.0 0
313531.0 417075.0 0
320045.0 417601.0 0
323318.0 416088.0 0
326625.0 418161.0 0
329918.0 416674.0 0
336524.0 417244.0 0
343114.0 417850.0 0
346365.0 416431.0 0
349690.0 418519.0 0
352920.0 417126.0 0
359460.0 417852.0 0
362648.0 416461.0 0
365992.0 418553.0 0
130660.0 420647.0 0
137206.0 419960.0 0
143750.0 419242.0 0
146983.0 420630.0 0
153564.0 419928.0 0
160158.0 419292.0 0
163447.0 420759.0 0
166765.0 418714.0 0
170062.0 420210.0 0
176664.0 419686.0 0
183214.0 419185.0 0
189701.0 418707.0 0
192905.0 420365.0 0
196314.0 418294.0 0
199686.0 420025.0 0
206632.0 419247.0 0
213270.0 417821.0 0
217030.0 418464.0 0
220497.0 418972.0 0
226908.0 418805.0 0
233484.0 418608.0 0
240077.0 418449.0 0
246691.0 418361.0 0
253309.0 418361.0 0
259923.0 418449.0 0
266516.0 418608.0 0
273092.0 418805.0 0
279503.0 418972.0 0
282970.0 418464.0 0
286730.0 417820.0 0
293368.0 419247.0 0
300314.0 420025.0 0
303686.0 418294.0 0
307095.0 420365.0 0
310299.0 418707.0 0
316786.0 419185.0 0
323336.0 419686.0 0
329938.0 420210.0 0
333235.0 418714.0 0
336553.0 420759.0 0
339842.0 419292.0 0
346436.0 419928.0 0
353017.0 420630.0 0
356250.0 419242.0 0
362794.0 419960.0 0
369340.0 420647.0 0
127305.0 422744.0 0
133870.0 422067.0 0
137098.0 423498.0 0
140422.0 421370.0 0
143658.0 422771.0 0
150241.0 422033.0 0
153524.0 423452.0 0
156839.0 421361.0 0
160134.0 422819.0 0
166749.0 422253.0 0
173363.0 421740.0 0
176661.0 423317.0 0
179944.0 421261.0 0
183208.0 422913.0 0
186451.0 420832.0 0
189658.0 422511.0 0
196024.0 422061.0 0
203273.0 421330.0 0
210390.0 420436.0 0
214826.0 421296.0 0
223613.0 420855.0 0
226834.0 422703.0 0
230170.0 420658.0 0
233454.0 422517.0 0
236772.0 420480.0 0
240070.0 422372.0 0
243382.0 420358.0 0
246690.0 422288.0 0
250000.0 420310.0 0
253310.0 422288.0 0
256618.0 420358.0 0
259930.0 422372.0 0
263228.0 420480.0 0
266546.0 422517.0 0
269830.0 420658.0 0
273166.0 422703.0 0
276387.0 420855.0 0
285174.0 421296.0 0
289610.0 420436.0 0
296727.0 421330.0 0
303976.0 422061.0 0
310342.0 422511.0 0
313549.0 420832.0 0
316792.0 422913.0 0
320056.0 421261.0 0
323339.0 423317.0 0
326637.0 421740.0 0
333251.0 422253.0 0
339866.0 422819.0 0
343161.0 421361.0 0
346476.0 423452.0 0
349759.0 422033.0 0
356342.0 422771.0 0
359578.0 421370.0 0
362902.0 423498.0 0
366130.0 422067.0 0
372695.0 422744.0 0
123943.0 424847.0 0
127180.0 426281.0 0
130530.0 424173.0 0
133773.0 425618.0 0
140341.0 424929.0 0
143605.0 426332.0 0
146921.0 424161.0 0
150213.0 425575.0 0
156827.0 424901.0 0
163442.0 424307.0 0
166760.0 425823.0 0
170059.0 423782.0 0
173369.0 425349.0 0
179953.0 424944.0 0
186443.0 424631.0 0
192845.0 424238.0 0
199005.0 423809.0 0
202066.0 425035.0 0
205428.0 424371.0 0
208774.0 423896.0 0
212317.0 423848.0 0
216816.0 424492.0 0
220124.0 422712.0 0
223402.0 424684.0 0
230118.0 424551.0 0
236747.0 424396.0 0
243374.0 424284.0 0
250000.0 424242.0 0
256626.0 424284.0 0
263253.0 424396.0 0
269882.0 424551.0 0
276598.0 424684.0 0
279876.0 422712.0 0
283184.0 424492.0 0
287683.0 423848.0 0
291226.0 423896.0 0
294572.0 424371.0 0
297934.0 425035.0 0
300995.0 423809.0 0
307155.0 424238.0 0
313557.0 424631.0 0
320047.0 424944.0 0
326631.0 425349.0 0
329941.0 423782.0 0
333240.0 425823.0 0
336558.0 424307.0 0
343173.0 424901.0 0
349787.0 425575.0 0
353079.0 424161.0 0
356395.0 426332.0 0
359659.0 424929.0 0
366227.0 425618.0 0
369470.0 424173.0 0
372820.0 426281.0 0
376057.0 424847.0 0
117194.0 429068.0 0
120573.0 426955.0 0
123819.0 428395.0 0
130438.0 427733.0 0
137030.0 427078.0 0
140302.0 428532.0 0
146905.0 427712.0 0
153529.0 427001.0 0
156863.0 428473.0 0
160145.0 426375.0 0
163473.0 427887.0 0
170081.0 427384.0 0
176676.0 426975.0 0
183237.0 426676.0 0
186513.0 428483.0 0
189660.0 426353.0 0
196045.0 425977.0 0
203100.0 428509.0 0
206795.0 427918.0 0
210481.0 427388.0 0
214109.0 426992.0 0
219974.0 426654.0 0
226747.0 426553.0 0
233409.0 426423.0 0
240048.0 426293.0 0
246683.0 426218.0 0
253317.0 426218.0 0
259952.0 426293.0 0
266591.0 426423.0 0
273253.0 426553.0 0
280026.0 426654.0 0
285891.0 426992.0 0
289519.0 427388.0 0
293205.0 427918.0 0
296900.0 428509.0 0
303955.0 425977.0 0
310340.0 426353.0 0
313487.0 428483.0 0
316763.0 426676.0 0
323324.0 426975.0 0
329919.0 427384.0 0
336527.0 427887.0 0
339855.0 426375.0 0
343137.0 428473.0 0
346471.0 427001.0 0
353095.0 427712.0 0
359698.0 428532.0 0
362970.0 427078.0 0
369562.0 427733.0 0
376181.0 428395.0 0
379427.0 426955.0 0
382806.0 429068.0 0
113811.0 431184.0 0
120449.0 430516.0 0
127089.0 429848.0 0
130381.0 431323.0 0
133716.0 429207.0 0
137008.0 430702.0 0
143600.0 429922.0 0
146958.0 431268.0 0
150242.0 429147.0 0
153595.0 430573.0 0
160204.0 429961.0 0
166803.0 429421.0 0
170132.0 431018.0 0
173400.0 428984.0 0
176713.0 430664.0 0
179985.0 428636.0 0
183305.0 430453.0 0
189847.0 430203.0 0
192873.0 428121.0 0
196075.0 429701.0 0
199390.0 427860.0 0
209101.0 431031.0 0
213018.0 430655.0 0
216765.0 429332.0 0
223393.0 428520.0 0
226689.0 430443.0 0
230050.0 428439.0 0
233353.0 430325.0 0
236709.0 428310.0 0
240018.0 430214.0 0
243357.0 428211.0 0
246674.0 430149.0 0
250000.0 428174.0 0
253326.0 430149.0 0
256643.0 428211.0 0
259982.0 430214.0 0
263291.0 428310.0 0
266647.0 430325.0 0
269950.0 428439.0 0
273311.0 430443.0 0
276607.0 428520.0 0
283235.0 429332.0 0
286982.0 430655.0 0
290899.0 431031.0 0
300610.0 427860.0 0
303925.0 429701.0 0
307127.0 428121.0 0
310153.0 430203.0 0
316695.0 430453.0 0
320015.0 428636.0 0
323287.0 430664.0 0
326600.0 428984.0 0
329868.0 431018.0 0
333197.0 429421.0 0
339796.0 429961.0 0
346405.0 430573.0 0
349758.0 429147.0 0
353042.0 431268.0 0
356400.0 429922.0 0
362992.0 430702.0 0
366284.0 429207.0 0
369619.0 431323.0 0
372911.0 429848.0 0
379551.0 430516.0 0
386189.0 431184.0 0
110426.0 433301.0 0
117073.0 432646.0 0
120356.0 434109.0 0
123725.0 431971.0 0
127022.0 433441.0 0
133692.0 432828.0 0
140316.0 432184.0 0
143675.0 433525.0 0
150355.0 432759.0 0
156963.0 432085.0 0
160324.0 433573.0 0
163549.0 431505.0 0
166889.0 433044.0 0
173454.0 432639.0 0
180044.0 432300.0 0
186596.0 432346.0 0
189945.0 433829.0 0
193641.0 432768.0 0
197569.0 432818.0 0
201272.0 431867.0 0
205229.0 431545.0 0
216057.0 433149.0 0
220157.0 430524.0 0
223352.0 432448.0 0
229982.0 432338.0 0
236664.0 432220.0 0
243335.0 432137.0 0
250000.0 432106.0 0
256665.0 432137.0 0
263336.0 432220.0 0
270018.0 432338.0 0
276648.0 432448.0 0
279843.0 430524.0 0
283943.0 433149.0 0
294771.0 431545.0 0
298728.0 431867.0 0
302431.0 432818.0 0
306359.0 432768.0 0
310055.0 433829.0 0
313404.0 432346.0 0
319956.0 432300.0 0
326546.0 432639.0 0
333111.0 433044.0 0
336451.0 431505.0 0
339676.0 433573.0 0
343037.0 432085.0 0
349645.0 432759.0 0
356325.0 433525.0 0
359684.0 432184.0 0
366308.0 432828.0 0
372978.0 433441.0 0
376275.0 431971.0 0
379644.0 434109.0 0
382927.0 432646.0 0
389574.0 433301.0 0
107042.0 435418.0 0
110326.0 436925.0 0
113698.0 434784.0 0
116986.0 436260.0 0
123658.0 435577.0 0
130332.0 434935.0 0
133640.0 436469.0 0
137021.0 434367.0 0
140389.0 435884.0 0
147110.0 434792.0 0
150583.0 436451.0 0
153742.0 434156.0 0
157152.0 435759.0 0
163681.0 435177.0 0
170240.0 434699.0 0
173595.0 436304.0 0
176759.0 434400.0 0
180059.0 435843.0 0
183417.0 434244.0 0
195761.0 436134.0 0
199730.0 435721.0 0
203537.0 435058.0 0
207450.0 434618.0 0
211347.0 434165.0 0
219877.0 434290.0 0
226600.0 434358.0 0
233296.0 434226.0 0
239981.0 434133.0 0
246661.0 434078.0 0
253339.0 434078.0 0
260019.0 434133.0 0
266704.0 434226.0 0
273400.0 434358.0 0
280123.0 434290.0 0
288653.0 434165.0 0
292550.0 434618.0 0
296463.0 435058.0 0
300270.0 435721.0 0
304239.0 436134.0 0
316583.0 434244.0 0
319941.0 435843.0 0
323241.0 434400.0 0
326405.0 436304.0 0
329760.0 434699.0 0
336319.0 435177.0 0
342848.0 435759.0 0
346258.0 434156.0 0
349417.0 436451.0 0
352890.0 434792.0 0
359611.0 435884.0 0
362979.0 434367.0 0
366360.0 436469.0 0
369668.0 434935.0 0
376342.0 435577.0 0
383014.0 436260.0 0
386302.0 434784.0 0
389674.0 436925.0 0
392958.0 435418.0 0
100284.0 439647.0 0
103662.0 437533.0 0
106963.0 439067.0 0
113625.0 438423.0 0
120289.0 437734.0 0
123601.0 439214.0 0
126975.0 437063.0 0
130305.0 438588.0 0
136914.0 438045.0 0
143867.0 437128.0 0
147352.0 438200.0 0
153987.0 437702.0 0
160510.0 437200.0 0
163947.0 438941.0 0
167025.0 436673.0 0
170346.0 438430.0 0
176960.0 438290.0 0
180599.0 439113.0 0
184168.0 437882.0 0
187956.0 437079.0 0
191980.0 436751.0 0
201960.0 438739.0 0
205788.0 438207.0 0
209631.0 437764.0 0
213436.0 437341.0 0
217170.0 436876.0 0
223144.0 436327.0 0
226540.0 438233.0 0
229919.0 436230.0 0
233223.0 438131.0 0
236611.0 436132.0 0
239937.0 438050.0 0
243307.0 436061.0 0
246646.0 438004.0 0
250000.0 436034.0 0
253354.0 438004.0 0
256693.0 436061.0 0
260063.0 438050.0 0
263389.0 436132.0 0
266777.0 438131.0 0
270081.0 436230.0 0
273460.0 438233.0 0
276856.0 436327.0 0
282830.0 436876.0 0
286564.0 437341.0 0
290369.0 437764.0 0
294212.0 438207.0 0
298040.0 438739.0 0
308020.0 436751.0 0
312044.0 437079.0 0
315832.0 437882.0 0
319401.0 439113.0 0
323040.0 438290.0 0
329654.0 438430.0 0
332975.0 436673.0 0
336053.0 438941.0 0
339490.0 437200.0 0
346013.0 437702.0 0
352648.0 438200.0 0
356133.0 437128.0 0
363086.0 438045.0 0
369695.0 438588.0 0
373025.0 437063.0 0
376399.0 439214.0 0
379711.0 437734.0 0
386375.0 438423.0 0
393037.0 439067.0 0
396338.0 437533.0 0
399716.0 439647.0 0
96903.8 441761.0 0
103604.0 441205.0 0
110279.0 440593.0 0
116938.0 439914.0 0
120258.0 441403.0 0
126909.0 440710.0 0
133650.0 440182.0 0
137041.0 441852.0 0
140127.0 439587.0 0
143411.0 440743.0 0
146861.0 441467.0 0
150471.0 440349.0 0
154030.0 441068.0 0
157386.0 439572.0 0
160847.0 440700.0 0
167300.0 440284.0 0
173551.0 439820.0 0
186585.0 440771.0 0
190335.0 440217.0 0
194222.0 439764.0 0
198065.0 439235.0 0
208039.0 441383.0 0
211878.0 440948.0 0
215717.0 440498.0 0
219532.0 439894.0 0
223266.0 440178.0 0
229811.0 440130.0 0
236548.0 440039.0 0
243274.0 439983.0 0
250000.0 439959.0 0
256726.0 439983.0 0
263452.0 440039.0 0
270189.0 440130.0 0
276734.0 440178.0 0
280468.0 439894.0 0
284283.0 440498.0 0
288122.0 440948.0 0
291961.0 441383.0 0
301935.0 439235.0 0
305778.0 439764.0 0
309665.0 440217.0 0
313415.0 440771.0 0
326449.0 439820.0 0
332700.0 440284.0 0
339153.0 440700.0 0
342614.0 439572.0 0
345970.0 441068.0 0
349529.0 440349.0 0
353139.0 441467.0 0
356589.0 440743.0 0
359873.0 439587.0 0
362959.0 441852.0 0
366350.0 440182.0 0
373091.0 440710.0 0
379742.0 441403.0 0
383062.0 439914.0 0
389721.0 440593.0 0
396396.0 441205.0 0
403096.0 441761.0 0
93520.5 443878.0 0
100247.0 443341.0 0
106943.0 442759.0 0
110293.0 444307.0 0
113606.0 442109.0 0
116940.0 443618.0 0
123576.0 442898.0 0
126881.0 444421.0 0
130191.0 442248.0 0
133417.0 443847.0 0
140610.0 443394.0 0
144420.0 444298.0 0
151977.0 444009.0 0
155887.0 443966.0 0
159526.0 443832.0 0
163444.0 443311.0 0
167193.0 443556.0 0
170940.0 442656.0 0
174882.0 442820.0 0
178519.0 442038.0 0
182903.0 441647.0 0
188742.0 443866.0 0
192581.0 443334.0 0
196457.0 442844.0 0
200323.0 442337.0 0
204194.0 441851.0 0
218133.0 443580.0 0
226046.0 442796.0 0
233137.0 442023.0 0
239882.0 441965.0 0
246627.0 441926.0 0
253373.0 441926.0 0
260118.0 441965.0 0
266863.0 442023.0 0
273954.0 442796.0 0
281867.0 443580.0 0
295806.0 441851.0 0
299677.0 442337.0 0
303543.0 442844.0 0
307419.0 443334.0 0
311258.0 443866.0 0
317097.0 441647.0 0
321481.0 442038.0 0
325118.0 442820.0 0
329060.0 442656.0 0
332807.0 443556.0 0
336556.0 443311.0 0
340474.0 443832.0 0
344113.0 443966.0 0
348023.0 444009.0 0
355580.0 444298.0 0
359390.0 443394.0 0
366583.0 443847.0 0
369809.0 442248.0 0
373119.0 444421.0 0
376424.0 442898.0 0
383060.0 443618.0 0
386394.0 442109.0 0
389707.0 444307.0 0
393057.0 442759.0 0
399753.0 443341.0 0
406479.0 443878.0 0
90106.9 446017.0 0
96883.2 445474.0 0
100272.0 447068.0 0
103611.0 444918.0 0
106988.0 446495.0 0
113651.0 445846.0 0
120273.0 445122.0 0
123597.0 446639.0 0
130165.0 446000.0 0
136531.0 445512.0 0
148352.0 444410.0 0
165432.0 446658.0 0
169392.0 446320.0 0
173142.0 445957.0 0
177128.0 445632.0 0
180982.0 444996.0 0
184936.0 444600.0 0
194815.0 446448.0 0
198695.0 445956.0 0
202571.0 445469.0 0
206449.0 445005.0 0
210331.0 444570.0 0
214206.0 444101.0 0
222030.0 443834.0 0
229697.0 443993.0 0
233017.0 445907.0 0
236466.0 443942.0 0
239812.0 445875.0 0
243231.0 443900.0 0
246602.0 445840.0 0
250000.0 443878.0 0
253398.0 445840.0 0
256769.0 443900.0 0
260188.0 445875.0 0
263534.0 443942.0 0
266983.0 445907.0 0
270303.0 443993.0 0
277970.0 443834.0 0
285794.0 444101.0 0
289669.0 444570.0 0
293551.0 445005.0 0
297429.0 445469.0 0
301305.0 445956.0 0
305185.0 446448.0 0
315064.0 444600.0 0
319018.0 444996.0 0
322872.0 445632.0 0
326858.0 445957.0 0
330608.0 446320.0 0
334568.0 446658.0 0
351648.0 444410.0 0
363469.0 445512.0 0
369835.0 446000.0 0
376403.0 446639.0 0
379727.0 445122.0 0
386349.0 445846.0 0
393012.0 446495.0 0
396389.0 444918.0 0
399728.0 447068.0 0
403117.0 445474.0 0
409893.0 446017.0 0
82993.5 450477.0 0
86712.4 448142.0 0
90106.3 449823.0 0
93509.1 447609.0 0
96922.5 449215.0 0
103677.0 448668.0 0
110374.0 448070.0 0
113770.0 449634.0 0
117013.0 447376.0 0
120375.0 448903.0 0
126895.0 448182.0 0
130150.0 449773.0 0
133438.0 447660.0 0
139578.0 446992.0 0
142869.0 447564.0 0
146495.0 447535.0 0
150289.0 447461.0 0
154016.0 447221.0 0
157826.0 447141.0 0
161672.0 446805.0 0
175379.0 449014.0 0
179320.0 448588.0 0
183189.0 448091.0 0
187101.0 447599.0 0
190948.0 446961.0 0
200934.0 449095.0 0
204819.0 448626.0 0
208718.0 448174.0 0
212654.0 447763.0 0
216574.0 447175.0 0
221014.0 447623.0 0
224860.0 446549.0 0
228669.0 447741.0 0
236360.0 447835.0 0
243179.0 447809.0 0
250000.0 447786.0 0
256821.0 447809.0 0
263640.0 447835.0 0
271331.0 447741.0 0
275140.0 446549.0 0
278986.0 447623.0 0
283426.0 447175.0 0
287346.0 447763.0 0
291282.0 448174.0 0
295181.0 448626.0 0
299066.0 449095.0 0
309052.0 446961.0 0
312899.0 447599.0 0
316811.0 448091.0 0
320680.0 448588.0 0
324621.0 449014.0 0
338328.0 446805.0 0
342174.0 447141.0 0
345984.0 447221.0 0
349711.0 447461.0 0
353505.0 447535.0 0
357131.0 447564.0 0
360422.0 446992.0 0
366562.0 447660.0 0
369850.0 449773.0 0
373105.0 448182.0 0
379625.0 448903.0 0
382987.0 447376.0 0
386230.0 449634.0 0
389626.0 448070.0 0
396323.0 448668.0 0
403077.0 449215.0 0
406491.0 447609.0 0
409894.0 449823.0 0
413288.0 448142.0 0
417006.0 450477.0 0
86573.8 451984.0 0
93567.2 451376.0 0
100354.0 450830.0 0
107096.0 450271.0 0
110523.0 451879.0 0
117177.0 451184.0 0
123729.0 450452.0 0
127055.0 452023.0 0
133322.0 451378.0 0
136790.0 449431.0 0
140565.0 450684.0 0
144515.0 450794.0 0
148355.0 450735.0 0
152187.0 450607.0 0
155992.0 450428.0 0
159862.0 450216.0 0
163699.0 449995.0 0
167594.0 449701.0 0
171489.0 449405.0 0
181473.0 451658.0 0
185380.0 451169.0 0
189288.0 450655.0 0
193164.0 450077.0 0
197049.0 449578.0 0
210872.0 451406.0 0
214645.0 451183.0 0
218399.0 450566.0 0
225723.0 450355.0 0
229380.0 451619.0 0
232825.0 449765.0 0
239728.0 449777.0 0
246575.0 449742.0 0
253425.0 449742.0 0
260272.0 449777.0 0
267175.0 449765.0 0
270620.0 451619.0 0
274277.0 450355.0 0
281601.0 450566.0 0
285355.0 451183.0 0
289128.0 451406.0 0
302951.0 449578.0 0
306836.0 450077.0 0
310712.0 450655.0 0
314620.0 451169.0 0
318527.0 451658.0 0
328511.0 449405.0 0
332406.0 449701.0 0
336301.0 449995.0 0
340138.0 450216.0 0
344008.0 450428.0 0
347813.0 450607.0 0
351645.0 450735.0 0
355485.0 450794.0 0
359435.0 450684.0 0
363210.0 449431.0 0
366678.0 451378.0 0
372945.0 452023.0 0
376271.0 450452.0 0
382823.0 451184.0 0
389477.0 451879.0 0
392904.0 450271.0 0
399646.0 450830.0 0
406433.0 451376.0 0
413426.0 451984.0 0
82385.2 454374.0 0
90061.4 453672.0 0
97015.0 452983.0 0
100487.0 454621.0 0
103801.0 452454.0 0
107265.0 454083.0 0
113957.0 453466.0 0
120610.0 452734.0 0
124107.0 454327.0 0
130250.0 453678.0 0
136302.0 453089.0 0
139282.0 454225.0 0
142732.0 454012.0 0
146465.0 454032.0 0
150280.0 453932.0 0
154128.0 453783.0 0
157996.0 453577.0 0
161879.0 453365.0 0
165783.0 453099.0 0
169697.0 452809.0 0
173627.0 452476.0 0
177551.0 452084.0 0
187584.0 454254.0 0
191504.0 453739.0 0
195401.0 453210.0 0
199292.0 452729.0 0
203170.0 452264.0 0
207031.0 451814.0 0
222050.0 451469.0 0
232706.0 453705.0 0
236239.0 451713.0 0
239662.0 453673.0 0
243126.0 451706.0 0
246554.0 453631.0 0
250000.0 451681.0 0
253446.0 453631.0 0
256874.0 451706.0 0
260338.0 453673.0 0
263761.0 451713.0 0
267294.0 453705.0 0
277950.0 451469.0 0
292969.0 451814.0 0
296830.0 452264.0 0
300708.0 452729.0 0
304599.0 453210.0 0
308496.0 453739.0 0
312416.0 454254.0 0
322449.0 452084.0 0
326373.0 452476.0 0
330303.0 452809.0 0
334217.0 453099.0 0
338121.0 453365.0 0
342004.0 453577.0 0
345872.0 453783.0 0
349720.0 453932.0 0
353535.0 454032.0 0
357268.0 454012.0 0
360718.0 454225.0 0
363698.0 453089.0 0
369750.0 453678.0 0
375893.0 454327.0 0
379390.0 452734.0 0
386043.0 453466.0 0
392735.0 454083.0 0
396199.0 452454.0 0
399513.0 454621.0 0
402985.0 452983.0 0
409939.0 453672.0 0
417615.0 454374.0 0
86107.7 455859.0 0
89772.2 457556.0 0
93623.8 455181.0 0
97140.8 456767.0 0
103976.0 456267.0 0
110740.0 455736.0 0
114215.0 457345.0 0
117403.0 455016.0 0
120885.0 456537.0 0
127843.0 456613.0 0
133471.0 455306.0 0
136690.0 457162.0 0
152181.0 457127.0 0
156085.0 456948.0 0
159995.0 456739.0 0
163920.0 456498.0 0
167853.0 456225.0 0
171798.0 455922.0 0
175749.0 455580.0 0
179698.0 455194.0 0
183649.0 454746.0 0
193765.0 456845.0 0
197670.0 456363.0 0
201559.0 455906.0 0
205441.0 455456.0 0
209323.0 455006.0 0
213263.0 455206.0 0
217107.0 454271.0 0
220961.0 455277.0 0
224813.0 454217.0 0
228570.0 455449.0 0
236187.0 455597.0 0
243094.0 455595.0 0
250000.0 455566.0 0
256906.0 455595.0 0
263813.0 455597.0 0
271430.0 455449.0 0
275187.0 454217.0 0
279039.0 455277.0 0
282893.0 454271.0 0
286737.0 455206.0 0
290677.0 455006.0 0
294559.0 455456.0 0
298441.0 455906.0 0
302330.0 456363.0 0
306235.0 456845.0 0
316351.0 454746.0 0
320302.0 455194.0 0
324251.0 455580.0 0
328202.0 455922.0 0
332147.0 456225.0 0
336080.0 456498.0 0
340005.0 456739.0 0
343915.0 456948.0 0
347819.0 457127.0 0
363310.0 457162.0 0
366529.0 455306.0 0
372157.0 456613.0 0
379115.0 456537.0 0
382597.0 455016.0 0
385785.0 457345.0 0
389260.0 455736.0 0
396024.0 456267.0 0
402859.0 456767.0 0
406376.0 455181.0 0
410228.0 457556.0 0
413892.0 455859.0 0
85869.2 459803.0 0
93524.0 459040.0 0
100642.0 458436.0 0
107494.0 457920.0 0
111031.0 459652.0 0
117714.0 458872.0 0
124397.0 458089.0 0
131350.0 458248.0 0
140579.0 457490.0 0
144409.0 457343.0 0
148289.0 457263.0 0
165959.0 459645.0 0
169915.0 459365.0 0
173882.0 459060.0 0
177861.0 458713.0 0
181881.0 458298.0 0
185873.0 457838.0 0
189831.0 457349.0 0
202947.0 459572.0 0
210622.0 458679.0 0
214414.0 459089.0 0
218118.0 458056.0 0
221811.0 459167.0 0
225546.0 458071.0 0
229238.0 459312.0 0
232745.0 457622.0 0
236184.0 459475.0 0
239634.0 457590.0 0
246544.0 457515.0 0
253456.0 457515.0 0
260366.0 457590.0 0
263816.0 459475.0 0
267255.0 457622.0 0
270762.0 459312.0 0
274454.0 458071.0 0
278189.0 459167.0 0
281882.0 458056.0 0
285586.0 459089.0 0
289377.0 458679.0 0
297053.0 459572.0 0
310169.0 457349.0 0
314127.0 457838.0 0
318119.0 458298.0 0
322139.0 458713.0 0
326118.0 459060.0 0
330085.0 459365.0 0
334041.0 459645.0 0
351711.0 457263.0 0
355591.0 457343.0 0
359421.0 457490.0 0
368650.0 458248.0 0
375603.0 458089.0 0
382286.0 458872.0 0
388969.0 459652.0 0
392506.0 457920.0 0
399358.0 458436.0 0
406476.0 459040.0 0
414131.0 459803.0 0
89484.4 461494.0 0
93195.0 462932.0 0
97226.8 460574.0 0
100830.0 462267.0 0
104179.0 460091.0 0
107749.0 461750.0 0
114576.0 461273.0 0
121255.0 460351.0 0
124857.0 461799.0 0
128477.0 460544.0 0
134379.0 460521.0 0
138308.0 460610.0 0
142313.0 460678.0 0
146246.0 460578.0 0
150185.0 460465.0 0
154125.0 460309.0 0
158066.0 460119.0 0
162009.0 459897.0 0
179775.0 461980.0 0
183648.0 461664.0 0
187506.0 461292.0 0
191365.0 460873.0 0
195229.0 460432.0 0
199090.0 459996.0 0
206794.0 459140.0 0
232243.0 461895.0 0
239546.0 461574.0 0
243085.0 459481.0 0
246539.0 461405.0 0
250000.0 459451.0 0
253461.0 461405.0 0
256915.0 459481.0 0
260454.0 461574.0 0
267757.0 461895.0 0
293206.0 459140.0 0
300910.0 459996.0 0
304771.0 460432.0 0
308635.0 460873.0 0
312494.0 461292.0 0
316352.0 461664.0 0
320225.0 461980.0 0
337991.0 459897.0 0
341934.0 460119.0 0
345875.0 460309.0 0
349815.0 460465.0 0
353754.0 460578.0 0
357687.0 460678.0 0
361692.0 460610.0 0
365621.0 460521.0 0
371523.0 460544.0 0
375143.0 461799.0 0
378745.0 460351.0 0
385424.0 461273.0 0
392251.0 461750.0 0
395821.0 460091.0 0
399170.0 462267.0 0
402773.0 460574.0 0
406805.0 462932.0 0
410516.0 461494.0 0
96884.1 464415.0 0
104432.0 463918.0 0
111591.0 463843.0 0
118176.0 462743.0 0
121911.0 464142.0 0
127691.0 464280.0 0
131592.0 463486.0 0
136183.0 463889.0 0
140171.0 463905.0 0
144182.0 463893.0 0
148158.0 463794.0 0
152131.0 463663.0 0
156102.0 463496.0 0
160067.0 463298.0 0
164030.0 463068.0 0
167992.0 462813.0 0
171945.0 462538.0 0
175875.0 462262.0 0
189672.0 464478.0 0
193577.0 464052.0 0
197479.0 463634.0 0
201364.0 463216.0 0
205250.0 462793.0 0
209140.0 462349.0 0
213025.0 462815.0 0
216920.0 462144.0 0
220761.0 462973.0 0
224607.0 461960.0 0
228393.0 463102.0 0
235968.0 463307.0 0
243069.0 463364.0 0
250000.0 463339.0 0
256931.0 463364.0 0
264032.0 463307.0 0
271607.0 463102.0 0
275393.0 461960.0 0
279239.0 462973.0 0
283080.0 462144.0 0
286975.0 462815.0 0
290860.0 462349.0 0
294750.0 462793.0 0
298636.0 463216.0 0
302521.0 463634.0 0
306423.0 464052.0 0
310328.0 464478.0 0
324125.0 462262.0 0
328055.0 462538.0 0
332008.0 462813.0 0
335970.0 463068.0 0
339933.0 463298.0 0
343898.0 463496.0 0
347869.0 463663.0 0
351842.0 463794.0 0
355818.0 463893.0 0
359829.0 463905.0 0
363817.0 463889.0 0
368408.0 463486.0 0
372309.0 464280.0 0
378089.0 464142.0 0
381824.0 462743.0 0
388409.0 463843.0 0
395568.0 463918.0 0
403116.0 464415.0 0
93446.9 466876.0 0
100481.0 466129.0 0
108043.0 465564.0 0
115214.0 465478.0 0
119018.0 466488.0 0
124743.0 466817.0 0
133786.0 466963.0 0
138101.0 467201.0 0
142097.0 467174.0 0
146122.0 467121.0 0
150118.0 467015.0 0
154115.0 466866.0 0
158103.0 466699.0 0
162086.0 466492.0 0
166062.0 466261.0 0
170029.0 466013.0 0
173981.0 465757.0 0
177920.0 465493.0 0
181849.0 465207.0 0
185765.0 464872.0 0
195814.0 467241.0 0
199754.0 466864.0 0
203659.0 466445.0 0
207574.0 466007.0 0
211472.0 466491.0 0
215391.0 465991.0 0
219266.0 466652.0 0
223192.0 466084.0 0
227062.0 466793.0 0
230979.0 466086.0 0
234827.0 466983.0 0
239161.0 465681.0 0
246532.0 465297.0 0
253468.0 465297.0 0
260839.0 465680.0 0
265173.0 466983.0 0
269021.0 466086.0 0
272938.0 466793.0 0
276808.0 466084.0 0
280734.0 466652.0 0
284609.0 465991.0 0
288528.0 466491.0 0
292426.0 466007.0 0
296341.0 466445.0 0
300246.0 466864.0 0
304186.0 467241.0 0
314235.0 464872.0 0
318151.0 465207.0 0
322080.0 465493.0 0
326019.0 465757.0 0
329971.0 466013.0 0
333938.0 466261.0 0
337914.0 466492.0 0
341897.0 466699.0 0
345885.0 466866.0 0
349882.0 467015.0 0
353878.0 467121.0 0
357903.0 467174.0 0
361899.0 467201.0 0
366214.0 466963.0 0
375257.0 466817.0 0
380982.0 466488.0 0
384786.0 465478.0 0
391957.0 465564.0 0
399519.0 466129.0 0
406553.0 466876.0 0
97166.6 468298.0 0
100830.0 470059.0 0
104082.0 467754.0 0
107677.0 469383.0 0
111991.0 467821.0 0
117849.0 469985.0 0
121773.0 469363.0 0
129902.0 467240.0 0
160134.0 469914.0 0
164127.0 469705.0 0
168112.0 469478.0 0
172084.0 469243.0 0
176050.0 468994.0 0
180014.0 468727.0 0
183979.0 468431.0 0
187938.0 468072.0 0
191876.0 467661.0 0
237361.0 470009.0 0
243062.0 467251.0 0
246513.0 469204.0 0
250000.0 467225.0 0
253487.0 469204.0 0
256938.0 467251.0 0
262639.0 470009.0 0
308124.0 467661.0 0
312062.0 468072.0 0
316021.0 468431.0 0
319986.0 468727.0 0
323950.0 468994.0 0
327916.0 469243.0 0
331888.0 469478.0 0
335873.0 469705.0 0
339866.0 469914.0 0
370098.0 467240.0 0
378227.0 469363.0 0
382151.0 469985.0 0
388009.0 467821.0 0
392323.0 469383.0 0
395918.0 467754.0 0
399170.0 470059.0 0
402833.0 468298.0 0
97455.8 472189.0 0
104475.0 471626.0 0
110766.0 471678.0 0
114600.0 471841.0 0
127057.0 469967.0 0
131861.0 470476.0 0
135794.0 470345.0 0
140057.0 470499.0 0
144059.0 470439.0 0
148088.0 470367.0 0
152123.0 470233.0 0
156118.0 470093.0 0
174158.0 472490.0 0
178143.0 472242.0 0
182132.0 471965.0 0
186169.0 471639.0 0
190162.0 471279.0 0
194116.0 470841.0 0
198064.0 470450.0 0
202033.0 470201.0 0
205977.0 469660.0 0
209922.0 470163.0 0
213863.0 469677.0 0
217777.0 470351.0 0
221702.0 469780.0 0
225602.0 470472.0 0
229534.0 469878.0 0
233418.0 470615.0 0
241260.0 470707.0 0
250000.0 471096.0 0
258740.0 470707.0 0
266582.0 470615.0 0
270466.0 469878.0 0
274398.0 470472.0 0
278298.0 469780.0 0
282223.0 470351.0 0
286137.0 469677.0 0
290078.0 470163.0 0
294023.0 469660.0 0
297967.0 470201.0 0
301936.0 470450.0 0
305884.0 470841.0 0
309838.0 471279.0 0
313831.0 471639.0 0
317868.0 471965.0 0
321857.0 472242.0 0
325842.0 472490.0 0
343882.0 470093.0 0
347877.0 470233.0 0
351912.0 470367.0 0
355941.0 470439.0 0
359943.0 470499.0 0
364206.0 470345.0 0
368139.0 470476.0 0
372943.0 469967.0 0
385400.0 471841.0 0
389234.0 471678.0 0
395525.0 471626.0 0
402544.0 472189.0 0
101332.0 474011.0 0
120240.0 472992.0 0
124181.0 472683.0 0
129110.0 473308.0 0
133826.0 473786.0 0
137795.0 473692.0 0
142035.0 473790.0 0
146038.0 473715.0 0
150116.0 473601.0 0
154113.0 473489.0 0
158150.0 473324.0 0
162182.0 473145.0 0
166191.0 472936.0 0
170176.0 472725.0 0
188096.0 475027.0 0
192016.0 474752.0 0
195906.0 474316.0 0
199806.0 473965.0 0
203674.0 473860.0 0
207525.0 473328.0 0
211366.0 474039.0 0
215247.0 473418.0 0
219129.0 474116.0 0
223044.0 473522.0 0
226945.0 474212.0 0
230868.0 473641.0 0
234800.0 474301.0 0
238740.0 473753.0 0
242712.0 474372.0 0
246486.0 473126.0 0
250000.0 474953.0 0
253513.0 473126.0 0
257287.0 474372.0 0
261260.0 473753.0 0
265200.0 474301.0 0
269132.0 473641.0 0
273055.0 474212.0 0
276956.0 473522.0 0
280871.0 474116.0 0
284753.0 473418.0 0
288634.0 474039.0 0
292475.0 473328.0 0
296326.0 473860.0 0
300194.0 473965.0 0
304094.0 474316.0 0
307984.0 474752.0 0
311904.0 475027.0 0
329824.0 472725.0 0
333809.0 472936.0 0
337818.0 473145.0 0
341850.0 473324.0 0
345887.0 473489.0 0
349884.0 473601.0 0
353962.0 473715.0 0
357965.0 473790.0 0
362205.0 473692.0 0
366174.0 473786.0 0
370890.0 473308.0 0
375819.0 472683.0 0
379760.0 472992.0 0
398668.0 474011.0 0
97954.5 476094.0 0
105125.0 475469.0 0
109088.0 475228.0 0
113058.0 475393.0 0
117026.0 475257.0 0
122334.0 476236.0 0
126281.0 476071.0 0
131143.0 476677.0 0
135823.0 477113.0 0
139808.0 477027.0 0
144013.0 477087.0 0
148088.0 476968.0 0
152097.0 476888.0 0
156154.0 476738.0 0
160199.0 476571.0 0
164256.0 476384.0 0
168251.0 476204.0 0
172249.0 475988.0 0
176234.0 475754.0 0
180205.0 475523.0 0
184158.0 475280.0 0
198138.0 477557.0 0
206011.0 477081.0 0
213832.0 477153.0 0
221605.0 477235.0 0
229404.0 477341.0 0
237238.0 477432.0 0
245687.0 477009.0 0
254313.0 477009.0 0
262762.0 477432.0 0
270596.0 477341.0 0
278395.0 477235.0 0
286168.0 477153.0 0
293989.0 477081.0 0
301862.0 477557.0 0
315842.0 475280.0 0
319795.0 475523.0 0
323766.0 475754.0 0
327751.0 475988.0 0
331749.0 476204.0 0
335744.0 476384.0 0
339801.0 476571.0 0
343846.0 476738.0 0
347903.0 476888.0 0
351912.0 476968.0 0
355987.0 477087.0 0
360192.0 477027.0 0
364177.0 477113.0 0
368857.0 476677.0 0
373719.0 476071.0 0
377666.0 476236.0 0
382974.0 475257.0 0
386942.0 475393.0 0
390912.0 475228.0 0
394875.0 475469.0 0
402046.0 476094.0 0
97975.2 480048.0 0
102659.0 478555.0 0
107319.0 478761.0 0
111297.0 478861.0 0
115298.0 478815.0 0
119294.0 478785.0 0
124357.0 479584.0 0
128339.0 479461.0 0
133189.0 480053.0 0
150063.0 480284.0 0
154151.0 480155.0 0
158212.0 480000.0 0
162285.0 479818.0 0
166291.0 479669.0 0
170328.0 479481.0 0
174343.0 479268.0 0
178330.0 479045.0 0
182310.0 478819.0 0
186280.0 478575.0 0
190247.0 478324.0 0
194211.0 478064.0 0
202100.0 477785.0 0
209920.0 477762.0 0
217713.0 477891.0 0
225493.0 477925.0 0
233307.0 477978.0 0
241166.0 478017.0 0
250001.0 478792.0 0
258834.0 478017.0 0
266693.0 477978.0 0
274507.0 477925.0 0
282287.0 477891.0 0
290080.0 477762.0 0
297900.0 477785.0 0
305789.0 478064.0 0
309753.0 478324.0 0
313720.0 478575.0 0
317690.0 478819.0 0
321670.0 479045.0 0
325657.0 479268.0 0
329672.0 479481.0 0
333709.0 479669.0 0
337715.0 479818.0 0
341788.0 480000.0 0
345849.0 480155.0 0
349937.0 480284.0 0
366811.0 480053.0 0
371661.0 479461.0 0
375643.0 479584.0 0
380706.0 478785.0 0
384702.0 478815.0 0
388703.0 478861.0 0
392681.0 478761.0 0
397341.0 478555.0 0
402025.0 480048.0 0
101282.0 482274.0 0
105267.0 482141.0 0
109266.0 482227.0 0
113354.0 482266.0 0
117349.0 482248.0 0
121368.0 482231.0 0
137832.0 480450.0 0
141824.0 480367.0 0
146065.0 480354.0 0
172257.0 482865.0 0
176208.0 482708.0 0
180151.0 482521.0 0
184093.0 482323.0 0
188025.0 482102.0 0
191958.0 481886.0 0
195869.0 481740.0 0
199751.0 481152.0 0
203591.0 481870.0 0
207389.0 480829.0 0
211247.0 481715.0 0
215129.0 480928.0 0
219031.0 481666.0 0
222946.0 480996.0 0
226870.0 481666.0 0
230801.0 481080.0 0
234736.0 481688.0 0
238670.0 481141.0 0
242597.0 481721.0 0
246464.0 480891.0 0
250000.0 482650.0 0
253536.0 480891.0 0
257403.0 481721.0 0
261330.0 481141.0 0
265264.0 481688.0 0
269199.0 481080.0 0
273130.0 481666.0 0
277054.0 480996.0 0
280969.0 481666.0 0
284871.0 480928.0 0
288753.0 481715.0 0
292611.0 480829.0 0
296409.0 481870.0 0
300249.0 481152.0 0
304131.0 481740.0 0
308042.0 481886.0 0
311975.0 482102.0 0
315907.0 482323.0 0
319849.0 482521.0 0
323792.0 482708.0 0
327743.0 482865.0 0
353935.0 480354.0 0
358176.0 480367.0 0
362168.0 480450.0 0
378632.0 482231.0 0
382651.0 482248.0 0
386646.0 482266.0 0
390734.0 482227.0 0
394733.0 482141.0 0
398718.0 482274.0 0
126424.0 482937.0 0
130403.0 482860.0 0
135241.0 483440.0 0
139849.0 483794.0 0
143913.0 483674.0 0
148027.0 483688.0 0
152123.0 483566.0 0
156222.0 483434.0 0
160311.0 483260.0 0
164306.0 483127.0 0
168291.0 482997.0 0
190163.0 485434.0 0
198071.0 485061.0 0
205958.0 485046.0 0
213844.0 485005.0 0
286156.0 485005.0 0
294042.0 485046.0 0
301929.0 485061.0 0
309837.0 485434.0 0
331709.0 482997.0 0
335694.0 483127.0 0
339689.0 483260.0 0
343778.0 483434.0 0
347877.0 483566.0 0
351973.0 483688.0 0
356087.0 483674.0 0
360151.0 483794.0 0
364759.0 483440.0 0
369597.0 482860.0 0
373576.0 482937.0 0
99960.8 486026.0 0
104071.0 485936.0 0
108101.0 485986.0 0
112162.0 486039.0 0
116219.0 486059.0 0
120366.0 486099.0 0
124356.0 486309.0 0
128471.0 486336.0 0
132460.0 486266.0 0
137304.0 486835.0 0
141925.0 487106.0 0
145913.0 487052.0 0
150087.0 486982.0 0
154201.0 486856.0 0
158337.0 486707.0 0
162340.0 486587.0 0
166333.0 486466.0 0
170322.0 486346.0 0
174308.0 486214.0 0
178287.0 486056.0 0
182253.0 485862.0 0
186212.0 485670.0 0
194123.0 485476.0 0
202013.0 485557.0 0
209899.0 485473.0 0
217794.0 485463.0 0
221753.0 485043.0 0
225712.0 485480.0 0
229681.0 485069.0 0
233647.0 485514.0 0
237656.0 485077.0 0
241620.0 485569.0 0
245997.0 485048.0 0
250000.0 486481.0 0
254003.0 485048.0 0
258380.0 485568.0 0
262344.0 485077.0 0
266353.0 485514.0 0
270319.0 485069.0 0
274288.0 485480.0 0
278247.0 485043.0 0
282206.0 485463.0 0
290101.0 485473.0 0
297987.0 485557.0 0
305877.0 485476.0 0
313788.0 485670.0 0
317747.0 485862.0 0
321713.0 486056.0 0
325692.0 486214.0 0
329678.0 486346.0 0
333667.0 486466.0 0
337660.0 486587.0 0
341663.0 486707.0 0
345799.0 486856.0 0
349913.0 486982.0 0
354087.0 487052.0 0
358075.0 487106.0 0
362696.0 486835.0 0
367540.0 486266.0 0
371529.0 486336.0 0
375644.0 486309.0 0
379634.0 486099.0 0
383781.0 486059.0 0
387838.0 486039.0 0
391899.0 485986.0 0
395929.0 485936.0 0
400039.0 486026.0 0
102089.0 489401.0 0
106079.0 489391.0 0
110101.0 489434.0 0
114180.0 489481.0 0
118254.0 489493.0 0
122241.0 489667.0 0
126412.0 489734.0 0
130531.0 489745.0 0
134525.0 489677.0 0
139435.0 490202.0 0
151724.0 490512.0 0
155701.0 490454.0 0
159671.0 490372.0 0
163637.0 490272.0 0
167600.0 490170.0 0
171556.0 490072.0 0
175507.0 489971.0 0
179445.0 489845.0 0
183366.0 489665.0 0
187277.0 489506.0 0
191185.0 489268.0 0
195095.0 489471.0 0
198983.0 488944.0 0
202881.0 489463.0 0
206785.0 488939.0 0
210704.0 489384.0 0
214627.0 488927.0 0
218559.0 489385.0 0
222501.0 488972.0 0
226449.0 489400.0 0
230402.0 489003.0 0
234358.0 489431.0 0
238317.0 489023.0 0
242273.0 489489.0 0
246230.0 489038.0 0
250000.0 490331.0 0
253770.0 489038.0 0
257727.0 489489.0 0
261683.0 489023.0 0
265642.0 489431.0 0
269598.0 489003.0 0
273551.0 489400.0 0
277499.0 488972.0 0
281441.0 489385.0 0
285373.0 488927.0 0
289296.0 489384.0 0
293215.0 488939.0 0
297119.0 489463.0 0
301017.0 488944.0 0
304905.0 489471.0 0
308815.0 489268.0 0
312723.0 489506.0 0
316634.0 489665.0 0
320555.0 489845.0 0
324493.0 489971.0 0
328444.0 490072.0 0
332400.0 490170.0 0
336363.0 490272.0 0
340329.0 490372.0 0
344299.0 490454.0 0
348276.0 490512.0 0
360565.0 490202.0 0
365475.0 489677.0 0
369469.0 489745.0 0
373588.0 489734.0 0
377759.0 489667.0 0
381746.0 489493.0 0
385820.0 489481.0 0
389899.0 489434.0 0
393921.0 489391.0 0
397911.0 489401.0 0
143711.0 490599.0 0
147729.0 490531.0 0
352271.0 490531.0 0
356289.0 490599.0 0
101350.0 493327.0 0
105343.0 493299.0 0
109334.0 493334.0 0
113326.0 493372.0 0
117317.0 493375.0 0
121301.0 493533.0 0
125289.0 493552.0 0
129279.0 493521.0 0
133273.0 493457.0 0
137266.0 493540.0 0
141280.0 493771.0 0
145725.0 493982.0 0
149716.0 493940.0 0
153714.0 493904.0 0
157706.0 493834.0 0
161690.0 493745.0 0
165664.0 493646.0 0
169632.0 493555.0 0
173607.0 493460.0 0
177592.0 493361.0 0
181600.0 493237.0 0
185910.0 493257.0 0
189915.0 493077.0 0
193909.0 493283.0 0
197914.0 493079.0 0
201904.0 493330.0 0
205954.0 493082.0 0
209946.0 493300.0 0
213949.0 493086.0 0
217941.0 493327.0 0
221950.0 493088.0 0
225940.0 493352.0 0
229946.0 493089.0 0
233933.0 493388.0 0
237943.0 493089.0 0
241925.0 493447.0 0
246000.0 493091.0 0
250000.0 494187.0 0
254000.0 493091.0 0
258075.0 493447.0 0
262057.0 493089.0 0
266067.0 493388.0 0
270054.0 493089.0 0
274060.0 493352.0 0
278050.0 493088.0 0
282059.0 493327.0 0
286051.0 493086.0 0
290054.0 493300.0 0
294046.0 493082.0 0
298096.0 493330.0 0
302086.0 493079.0 0
306091.0 493283.0 0
310085.0 493077.0 0
314090.0 493257.0 0
318400.0 493237.0 0
322408.0 493361.0 0
326393.0 493460.0 0
330368.0 493555.0 0
334336.0 493646.0 0
338310.0 493745.0 0
342294.0 493834.0 0
346286.0 493904.0 0
350284.0 493940.0 0
354275.0 493982.0 0
358720.0 493771.0 0
362734.0 493540.0 0
366727.0 493457.0 0
370721.0 493521.0 0
374711.0 493552.0 0
378699.0 493533.0 0
382683.0 493375.0 0
386674.0 493372.0 0
390666.0 493334.0 0
394657.0 493299.0 0
398650.0 493327.0 0
102017.0 497269.0 0
106021.0 497228.0 0
110056.0 497251.0 0
114095.0 497285.0 0
118141.0 497284.0 0
122203.0 497414.0 0
126203.0 497431.0 0
130201.0 497399.0 0
134199.0 497339.0 0
138197.0 497420.0 0
142446.0 497595.0 0
146665.0 497815.0 0
150657.0 497770.0 0
154639.0 497734.0 0
158611.0 497668.0 0
162572.0 497588.0 0
166525.0 497495.0 0
170471.0 497418.0 0
174415.0 497332.0 0
178358.0 497261.0 0
182305.0 497165.0 0
186261.0 497238.0 0
190221.0 497064.0 0
194188.0 497268.0 0
198159.0 497071.0 0
202133.0 497313.0 0
206111.0 497079.0 0
210094.0 497287.0 0
214079.0 497084.0 0
218066.0 497316.0 0
222054.0 497087.0 0
226042.0 497337.0 0
230031.0 497090.0 0
234019.0 497367.0 0
238009.0 497091.0 0
242026.0 497420.0 0
246012.0 497091.0 0
250000.0 498058.0 0
253988.0 497091.0 0
257974.0 497420.0 0
261991.0 497091.0 0
265981.0 497367.0 0
269969.0 497090.0 0
273958.0 497337.0 0
277946.0 497087.0 0
281934.0 497316.0 0
285921.0 497084.0 0
289906.0 497287.0 0
293889.0 497079.0 0
297867.0 497313.0 0
301841.0 497071.0 0
305812.0 497268.0 0
309779.0 497064.0 0
313739.0 497238.0 0
317695.0 497165.0 0
321642.0 497261.0 0
325585.0 497332.0 0
329529.0 497418.0 0
333475.0 497495.0 0
337428.0 497588.0 0
341389.0 497668.0 0
345361.0 497734.0 0
349343.0 497770.0 0
353335.0 497815.0 0
357554.0 497595.0 0
361803.0 497420.0 0
365801.0 497339.0 0
369799.0 497399.0 0
373797.0 497431.0 0
377797.0 497414.0 0
381859.0 497284.0 0
385905.0 497285.0 0
389944.0 497251.0 0
393979.0 497228.0 0
397983.0 497269.0 0
101931.0 501266.0 0
105929.0 501219.0 0
109925.0 501235.0 0
113919.0 501270.0 0
117912.0 501272.0 0
121901.0 501388.0 0
125890.0 501405.0 0
129877.0 501375.0 0
133861.0 501317.0 0
137842.0 501397.0 0
141817.0 501541.0 0
145787.0 501672.0 0
149767.0 501622.0 0
153754.0 501587.0 0
157747.0 501526.0 0
161777.0 501465.0 0
165831.0 501390.0 0
169892.0 501339.0 0
173919.0 501267.0 0
177959.0 501226.0 0
181974.0 501144.0 0
185987.0 501225.0 0
189993.0 501090.0 0
193990.0 501255.0 0
197996.0 501091.0 0
201990.0 501298.0 0
205999.0 501091.0 0
209995.0 501276.0 0
214000.0 501091.0 0
217994.0 501306.0 0
222000.0 501091.0 0
225995.0 501323.0 0
230000.0 501091.0 0
233995.0 501348.0 0
238000.0 501091.0 0
241989.0 501396.0 0
246000.0 501091.0 0
250000.0 501944.0 0
254000.0 501091.0 0
258011.0 501396.0 0
262000.0 501091.0 0
266005.0 501348.0 0
270000.0 501091.0 0
274005.0 501323.0 0
278000.0 501091.0 0
282006.0 501306.0 0
286000.0 501091.0 0
290005.0 501276.0 0
294001.0 501091.0 0
298010.0 501298.0 0
302004.0 501091.0 0
306010.0 501255.0 0
310007.0 501090.0 0
314013.0 501225.0 0
318026.0 501144.0 0
322041.0 501226.0 0
326081.0 501267.0 0
330108.0 501339.0 0
334169.0 501390.0 0
338223.0 501465.0 0
342253.0 501526.0 0
346246.0 501587.0 0
350233.0 501622.0 0
354213.0 501672.0 0
358183.0 501541.0 0
362158.0 501397.0 0
366139.0 501317.0 0
370123.0 501375.0 0
374110.0 501405.0 0
378099.0 501388.0 0
382088.0 501272.0 0
386081.0 501270.0 0
390075.0 501235.0 0
394071.0 501219.0 0
398069.0 501266.0 0
102002.0 505263.0 0
106001.0 505215.0 0
110003.0 505224.0 0
114006.0 505259.0 0
118009.0 505264.0 0
122016.0 505372.0 0
126016.0 505390.0 0
130016.0 505362.0 0
134015.0 505309.0 0
138014.0 505387.0 0
142053.0 505526.0 0
146074.0 505618.0 0
150073.0 505568.0 0
154070.0 505533.0 0
158065.0 505474.0 0
162059.0 505418.0 0
166052.0 505348.0 0
170045.0 505306.0 0
174038.0 505239.0 0
178032.0 505215.0 0
182027.0 505135.0 0
186023.0 505221.0 0
190018.0 505090.0 0
194013.0 505247.0 0
198009.0 505091.0 0
202004.0 505287.0 0
206000.0 505091.0 0
210000.0 505268.0 0
214000.0 505091.0 0
218001.0 505296.0 0
222000.0 505091.0 0
226001.0 505309.0 0
230000.0 505091.0 0
234001.0 505330.0 0
238000.0 505091.0 0
242003.0 505374.0 0
246000.0 505091.0 0
250000.0 505841.0 0
254000.0 505091.0 0
257997.0 505374.0 0
262000.0 505091.0 0
265999.0 505330.0 0
270000.0 505091.0 0
273999.0 505309.0 0
278000.0 505091.0 0
281999.0 505296.0 0
286000.0 505091.0 0
290000.0 505268.0 0
294000.0 505091.0 0
297996.0 505287.0 0
301991.0 505091.0 0
305987.0 505247.0 0
309982.0 505090.0 0
313977.0 505221.0 0
317973.0 505135.0 0
321968.0 505215.0 0
325962.0 505239.0 0
329955.0 505306.0 0
333948.0 505348.0 0
337941.0 505418.0 0
341935.0 505474.0 0
345930.0 505533.0 0
349927.0 505568.0 0
353926.0 505618.0 0
357947.0 505526.0 0
361986.0 505387.0 0
365985.0 505309.0 0
369984.0 505362.0 0
373984.0 505390.0 0
377984.0 505372.0 0
381991.0 505264.0 0
385994.0 505259.0 0
389997.0 505224.0 0
393999.0 505215.0 0
397998.0 505263.0 0
101997.0 509261.0 0
105997.0 509213.0 0
109996.0 509217.0 0
113996.0 509251.0 0
117995.0 509257.0 0
121993.0 509357.0 0
125992.0 509377.0 0
129991.0 509352.0 0
133990.0 509303.0 0
137988.0 509381.0 0
141984.0 509515.0 0
145981.0 509576.0 0
149980.0 509528.0 0
153979.0 509495.0 0
157979.0 509438.0 0
161987.0 509385.0 0
165991.0 509317.0 0
169994.0 509282.0 0
173996.0 509218.0 0
177997.0 509207.0 0
181999.0 509128.0 0
185999.0 509218.0 0
190000.0 509091.0 0
194000.0 509239.0 0
198000.0 509091.0 0
202000.0 509276.0 0
206000.0 509091.0 0
210000.0 509260.0 0
214000.0 509091.0 0
218000.0 509287.0 0
222000.0 509091.0 0
226000.0 509296.0 0
230000.0 509091.0 0
234000.0 509312.0 0
238000.0 509091.0 0
242000.0 509352.0 0
246000.0 509091.0 0
250000.0 509750.0 0
254000.0 509091.0 0
258000.0 509352.0 0
262000.0 509091.0 0
266000.0 509312.0 0
270000.0 509091.0 0
274000.0 509296.0 0
278000.0 509091.0 0
282000.0 509287.0 0
286000.0 509091.0 0
290000.0 509260.0 0
294000.0 509091.0 0
298000.0 509276.0 0
302000.0 509091.0 0
306000.0 509239.0 0
310000.0 509091.0 0
314001.0 509218.0 0
318001.0 509128.0 0
322003.0 509207.0 0
326004.0 509218.0 0
330006.0 509282.0 0
334009.0 509317.0 0
338013.0 509385.0 0
342021.0 509438.0 0
346021.0 509495.0 0
350020.0 509528.0 0
354019.0 509576.0 0
358016.0 509515.0 0
362012.0 509381.0 0
366010.0 509303.0 0
370009.0 509352.0 0
374008.0 509377.0 0
378007.0 509357.0 0
382005.0 509257.0 0
386004.0 509251.0 0
390004.0 509217.0 0
394003.0 509213.0 0
398003.0 509261.0 0
102000.0 513258.0 0
106000.0 513212.0 0
110000.0 513211.0 0
114000.0 513243.0 0
118000.0 513250.0 0
122001.0 513344.0 0
126001.0 513365.0 0
130001.0 513343.0 0
134000.0 513298.0 0
138001.0 513375.0 0
142006.0 513500.0 0
146007.0 513537.0 0
150006.0 513491.0 0
154006.0 513462.0 0
158005.0 513407.0 0
162005.0 513358.0 0
166004.0 513292.0 0
170003.0 513262.0 0
174002.0 513202.0 0
178002.0 513199.0 0
182001.0 513121.0 0
186000.0 513214.0 0
190000.0 513091.0 0
194000.0 513231.0 0
198000.0 513091.0 0
202000.0 513265.0 0
206000.0 513091.0 0
210000.0 513252.0 0
214000.0 513091.0 0
218000.0 513277.0 0
222000.0 513091.0 0
226000.0 513284.0 0
230000.0 513091.0 0
234000.0 513295.0 0
238000.0 513091.0 0
242000.0 513332.0 0
246000.0 513091.0 0
250000.0 513669.0 0
254000.0 513091.0 0
258000.0 513332.0 0
262000.0 513091.0 0
266000.0 513295.0 0
270000.0 513091.0 0
274000.0 513284.0 0
278000.0 513091.0 0
282000.0 513277.0 0
286000.0 513091.0 0
290000.0 513252.0 0
294000.0 513091.0 0
298000.0 513265.0 0
302000.0 513091.0 0
306000.0 513231.0 0
310000.0 513091.0 0
314000.0 513214.0 0
317999.0 513121.0 0
321998.0 513199.0 0
325998.0 513202.0 0
329997.0 513262.0 0
333996.0 513292.0 0
337995.0 513358.0 0
341995.0 513407.0 0
345994.0 513462.0 0
349994.0 513491.0 0
353993.0 513537.0 0
357994.0 513500.0 0
361999.0 513375.0 0
366000.0 513298.0 0
369999.0 513343.0 0
373999.0 513365.0 0
377999.0 513344.0 0
382000.0 513250.0 0
386000.0 513243.0 0
390000.0 513211.0 0
394000.0 513212.0 0
398000.0 513258.0 0
102000.0 517255.0 0
106000.0 517212.0 0
110000.0 517206.0 0
114000.0 517236.0 0
118000.0 517243.0 0
122000.0 517331.0 0
126000.0 517353.0 0
130000.0 517334.0 0
134000.0 517293.0 0
137999.0 517369.0 0
141997.0 517484.0 0
145997.0 517502.0 0
149998.0 517459.0 0
153998.0 517433.0 0
157999.0 517380.0 0
161999.0 517335.0 0
166000.0 517270.0 0
170000.0 517246.0 0
174000.0 517189.0 0
178000.0 517191.0 0
182000.0 517115.0 0
186000.0 517210.0 0
190000.0 517091.0 0
194000.0 517224.0 0
198000.0 517091.0 0
202000.0 517255.0 0
206000.0 517091.0 0
210000.0 517245.0 0
214000.0 517091.0 0
218000.0 517267.0 0
222000.0 517091.0 0
226000.0 517272.0 0
230000.0 517091.0 0
234000.0 517279.0 0
238000.0 517091.0 0
242000.0 517312.0 0
246000.0 517091.0 0
250000.0 517598.0 0
254000.0 517091.0 0
258000.0 517312.0 0
262000.0 517091.0 0
266000.0 517279.0 0
270000.0 517091.0 0
274000.0 517272.0 0
278000.0 517091.0 0
282000.0 517267.0 0
286000.0 517091.0 0
290000.0 517245.0 0
294000.0 517091.0 0
298000.0 517255.0 0
302000.0 517091.0 0
306000.0 517224.0 0
310000.0 517091.0 0
314000.0 517210.0 0
318000.0 517115.0 0
322000.0 517191.0 0
326000.0 517189.0 0
330000.0 517246.0 0
334000.0 517270.0 0
338001.0 517335.0 0
342001.0 517380.0 0
346002.0 517433.0 0
350002.0 517459.0 0
354003.0 517502.0 0
358003.0 517484.0 0
362001.0 517369.0 0
366000.0 517293.0 0
370000.0 517334.0 0
374000.0 517353.0 0
378000.0 517331.0 0
382000.0 517243.0 0
386000.0 517236.0 0
390000.0 517206.0 0
394000.0 517212.0 0
398000.0 517255.0 0
102000.0 521252.0 0
106000.0 521211.0 0
110000.0 521203.0 0
114000.0 521230.0 0
118000.0 521236.0 0
122000.0 521318.0 0
126000.0 521341.0 0
130000.0 521326.0 0
134000.0 521289.0 0
138000.0 521363.0 0
142001.0 521466.0 0
146001.0 521470.0 0
150001.0 521429.0 0
154000.0 521407.0 0
158000.0 521356.0 0
162000.0 521315.0 0
166000.0 521253.0 0
170000.0 521233.0 0
174000.0 521178.0 0
178000.0 521184.0 0
182000.0 521109.0 0
186000.0 521206.0 0
190000.0 521091.0 0
194000.0 521217.0 0
198000.0 521091.0 0
202000.0 521246.0 0
206000.0 521091.0 0
210000.0 521238.0 0
214000.0 521091.0 0
218000.0 521257.0 0
222000.0 521091.0 0
226000.0 521260.0 0
230000.0 521091.0 0
234000.0 521264.0 0
238000.0 521091.0 0
242000.0 521294.0 0
246000.0 521091.0 0
250000.0 521534.0 0
254000.0 521091.0 0
258000.0 521294.0 0
262000.0 521091.0 0
266000.0 521264.0 0
270000.0 521091.0 0
274000.0 521260.0 0
278000.0 521091.0 0
282000.0 521257.0 0
286000.0 521091.0 0
290000.0 521238.0 0
294000.0 521091.0 0
298000.0 521246.0 0
302000.0 521091.0 0
306000.0 521217.0 0
310000.0 521091.0 0
314000.0 521206.0 0
318000.0 521109.0 0
322000.0 521184.0 0
326000.0 521178.0 0
330000.0 521233.0 0
334000.0 521253.0 0
338000.0 521315.0 0
342000.0 521356.0 0
346000.0 521407.0 0
349999.0 521429.0 0
353999.0 521470.0 0
357999.0 521466.0 0
362000.0 521363.0 0
366000.0 521289.0 0
370000.0 521326.0 0
374000.0 521341.0 0
378000.0 521318.0 0
382000.0 521236.0 0
386000.0 521230.0 0
390000.0 521203.0 0
394000.0 521211.0 0
398000.0 521252.0 0
102000.0 525249.0 0
106000.0 525210.0 0
110000.0 525200.0 0
114000.0 525225.0 0
118000.0 525229.0 0
122000.0 525306.0 0
126000.0 525330.0 0
130000.0 525318.0 0
134000.0 525284.0 0
138000.0 525357.0 0
142000.0 525447.0 0
146000.0 525441.0 0
150000.0 525402.0 0
154000.0 525385.0 0
158000.0 525336.0 0
162000.0 525298.0 0
166000.0 525238.0 0
170000.0 525222.0 0
174000.0 525169.0 0
178000.0 525177.0 0
182000.0 525105.0 0
186000.0 525201.0 0
190000.0 525091.0 0
194000.0 525210.0 0
198000.0 525091.0 0
202000.0 525238.0 0
206000.0 525091.0 0
210000.0 525230.0 0
214000.0 525091.0 0
218000.0 525248.0 0
222000.0 525091.0 0
226000.0 525248.0 0
230000.0 525091.0 0
234000.0 525250.0 0
238000.0 525091.0 0
242000.0 525277.0 0
246000.0 525091.0 0
250000.0 525478.0 0
254000.0 525091.0 0
258000.0 525277.0 0
262000.0 525091.0 0
266000.0 525250.0 0
270000.0 525091.0 0
274000.0 525248.0 0
278000.0 525091.0 0
282000.0 525248.0 0
286000.0 525091.0 0
290000.0 525230.0 0
294000.0 525091.0 0
298000.0 525238.0 0
302000.0 525091.0 0
306000.0 525210.0 0
310000.0 525091.0 0
314000.0 525201.0 0
318000.0 525105.0 0
322000.0 525177.0 0
326000.0 525169.0 0
330000.0 525222.0 0
334000.0 525238.0 0
338000.0 525298.0 0
342000.0 525336.0 0
346000.0 525385.0 0
350000.0 525402.0 0
354000.0 525441.0 0
358000.0 525447.0 0
362000.0 525357.0 0
366000.0 525284.0 0
370000.0 525318.0 0
374000.0 525330.0 0
378000.0 525306.0 0
382000.0 525229.0 0
386000.0 525225.0 0
390000.0 525200.0 0
394000.0 525210.0 0
398000.0 525249.0 0
102000.0 529245.0 0
106000.0 529209.0 0
110000.0 529198.0 0
114000.0 529220.0 0
118000.0 529223.0 0
122000.0 529295.0 0
126000.0 529319.0 0
130000.0 529311.0 0
134000.0 529279.0 0
158000.0 529318.0 0
162000.0 529283.0 0
166000.0 529225.0 0
170000.0 529212.0 0
174000.0 529162.0 0
178000.0 529171.0 0
182000.0 529102.0 0
186000.0 529196.0 0
190000.0 529091.0 0
194000.0 529204.0 0
198000.0 529091.0 0
202000.0 529230.0 0
206000.0 529091.0 0
210000.0 529223.0 0
214000.0 529091.0 0
218000.0 529238.0 0
222000.0 529091.0 0
226000.0 529237.0 0
230000.0 529091.0 0
234000.0 529237.0 0
238000.0 529091.0 0
242000.0 529260.0 0
246000.0 529091.0 0
250000.0 529429.0 0
254000.0 529091.0 0
258000.0 529260.0 0
262000.0 529091.0 0
266000.0 529237.0 0
270000.0 529091.0 0
274000.0 529237.0 0
278000.0 529091.0 0
282000.0 529238.0 0
286000.0 529091.0 0
290000.0 529223.0 0
294000.0 529091.0 0
298000.0 529230.0 0
302000.0 529091.0 0
306000.0 529204.0 0
310000.0 529091.0 0
314000.0 529196.0 0
318000.0 529102.0 0
322000.0 529171.0 0
326000.0 529162.0 0
330000.0 529212.0 0
334000.0 529225.0 0
338000.0 529283.0 0
342000.0 529318.0 0
366000.0 529279.0 0
370000.0 529311.0 0
374000.0 529319.0 0
378000.0 529295.0 0
382000.0 529223.0 0
386000.0 529220.0 0
390000.0 529198.0 0
394000.0 529209.0 0
398000.0 529245.0 0
138000.0 529350.0 0
142000.0 529429.0 0
146000.0 529414.0 0
150000.0 529379.0 0
154000.0 529365.0 0
346000.0 529365.0 0
350000.0 529379.0 0
354000.0 529414.0 0
358000.0 529429.0 0
362000.0 529350.0 0
102000.0 533242.0 0
106000.0 533208.0 0
110000.0 533196.0 0
114000.0 533216.0 0
118000.0 533216.0 0
122000.0 533285.0 0
126000.0 533309.0 0
130000.0 533304.0 0
134000.0 533275.0 0
138000.0 533344.0 0
142000.0 533410.0 0
146000.0 533391.0 0
150000.0 533358.0 0
154000.0 533347.0 0
158000.0 533302.0 0
162000.0 533270.0 0
166000.0 533215.0 0
170000.0 533204.0 0
174000.0 533155.0 0
178000.0 533165.0 0
182000.0 533099.0 0
186000.0 533192.0 0
190000.0 533091.0 0
194000.0 533198.0 0
198000.0 533091.0 0
202000.0 533222.0 0
206000.0 533091.0 0
210000.0 533216.0 0
214000.0 533091.0 0
218000.0 533229.0 0
222000.0 533091.0 0
226000.0 533227.0 0
230000.0 533091.0 0
234000.0 533225.0 0
238000.0 533091.0 0
242000.0 533245.0 0
246000.0 533091.0 0
250000.0 533386.0 0
254000.0 533091.0 0
258000.0 533245.0 0
262000.0 533091.0 0
266000.0 533225.0 0
270000.0 533091.0 0
274000.0 533227.0 0
278000.0 533091.0 0
282000.0 533229.0 0
286000.0 533091.0 0
290000.0 533216.0 0
294000.0 533091.0 0
298000.0 533222.0 0
302000.0 533091.0 0
306000.0 533198.0 0
310000.0 533091.0 0
314000.0 533192.0 0
318000.0 533099.0 0
322000.0 533165.0 0
326000.0 533155.0 0
330000.0 533204.0 0
334000.0 533215.0 0
338000.0 533270.0 0
342000.0 533302.0 0
346000.0 533347.0 0
350000.0 533358.0 0
354000.0 533391.0 0
358000.0 533410.0 0
362000.0 533344.0 0
366000.0 533275.0 0
370000.0 533304.0 0
374000.0 533309.0 0
378000.0 533285.0 0
382000.0 533216.0 0
386000.0 533216.0 0
390000.0 533196.0 0
394000.0 533208.0 0
398000.0 533242.0 0
174000.0 537148.0 0
178000.0 537160.0 0
182000.0 537097.0 0
190000.0 537091.0 0
198000.0 537091.0 0
206000.0 537091.0 0
214000.0 537091.0 0
222000.0 537091.0 0
230000.0 537091.0 0
238000.0 537091.0 0
246000.0 537091.0 0
254000.0 537091.0 0
262000.0 537091.0 0
270000.0 537091.0 0
278000.0 537091.0 0
286000.0 537091.0 0
294000.0 537091.0 0
302000.0 537091.0 0
310000.0 537091.0 0
318000.0 537097.0 0
322000.0 537160.0 0
326000.0 537148.0 0
102000.0 537238.0 0
106000.0 537207.0 0
110000.0 537195.0 0
114000.0 537212.0 0
118000.0 537210.0 0
122000.0 537276.0 0
126000.0 537299.0 0
130000.0 537297.0 0
134000.0 537270.0 0
138000.0 537337.0 0
142000.0 537391.0 0
146000.0 537370.0 0
150000.0 537339.0 0
154000.0 537331.0 0
158000.0 537287.0 0
162000.0 537259.0 0
166000.0 537205.0 0
170000.0 537197.0 0
186000.0 537187.0 0
194000.0 537192.0 0
202000.0 537215.0 0
210000.0 537209.0 0
218000.0 537220.0 0
226000.0 537217.0 0
234000.0 537213.0 0
242000.0 537230.0 0
250000.0 537348.0 0
258000.0 537230.0 0
266000.0 537213.0 0
274000.0 537217.0 0
282000.0 537220.0 0
290000.0 537209.0 0
298000.0 537215.0 0
306000.0 537192.0 0
314000.0 537187.0 0
330000.0 537197.0 0
334000.0 537205.0 0
338000.0 537259.0 0
342000.0 537287.0 0
346000.0 537331.0 0
350000.0 537339.0 0
354000.0 537370.0 0
358000.0 537391.0 0
362000.0 537337.0 0
366000.0 537270.0 0
370000.0 537297.0 0
374000.0 537299.0 0
378000.0 537276.0 0
382000.0 537210.0 0
386000.0 537212.0 0
390000.0 537195.0 0
394000.0 537207.0 0
398000.0 537238.0 0
102000.0 541235.0 0
106000.0 541206.0 0
110000.0 541193.0 0
114000.0 541208.0 0
118000.0 541204.0 0
122000.0 541267.0 0
126000.0 541291.0 0
130000.0 541291.0 0
134000.0 541265.0 0
138000.0 541330.0 0
142000.0 541374.0 0
146000.0 541351.0 0
150000.0 541321.0 0
154000.0 541316.0 0
158000.0 541274.0 0
162000.0 541249.0 0
166000.0 541196.0 0
170000.0 541190.0 0
174000.0 541142.0 0
178000.0 541156.0 0
182000.0 541095.0 0
186000.0 541182.0 0
190000.0 541091.0 0
194000.0 541186.0 0
198000.0 541091.0 0
202000.0 541208.0 0
206000.0 541091.0 0
210000.0 541202.0 0
214000.0 541091.0 0
218000.0 541211.0 0
222000.0 541091.0 0
226000.0 541207.0 0
230000.0 541091.0 0
234000.0 541202.0 0
238000.0 541091.0 0
242000.0 541217.0 0
246000.0 541091.0 0
250000.0 541314.0 0
254000.0 541091.0 0
258000.0 541217.0 0
262000.0 541091.0 0
266000.0 541202.0 0
270000.0 541091.0 0
274000.0 541207.0 0
278000.0 541091.0 0
282000.0 541211.0 0
286000.0 541091.0 0
290000.0 541202.0 0
294000.0 541091.0 0
298000.0 541208.0 0
302000.0 541091.0 0
306000.0 541186.0 0
310000.0 541091.0 0
314000.0 541182.0 0
318000.0 541095.0 0
322000.0 541156.0 0
326000.0 541142.0 0
330000.0 541190.0 0
334000.0 541196.0 0
338000.0 541249.0 0
342000.0 541274.0 0
346000.0 541316.0 0
350000.0 541321.0 0
354000.0 541351.0 0
358000.0 541374.0 0
362000.0 541330.0 0
366000.0 541265.0 0
370000.0 541291.0 0
374000.0 541291.0 0
378000.0 541267.0 0
382000.0 541204.0 0
386000.0 541208.0 0
390000.0 541193.0 0
394000.0 541206.0 0
398000.0 541235.0 0
102000.0 545231.0 0
106000.0 545205.0 0
110000.0 545192.0 0
114000.0 545204.0 0
118000.0 545199.0 0
122000.0 545259.0 0
126000.0 545282.0 0
130000.0 545284.0 0
134000.0 545260.0 0
138000.0 545324.0 0
142000.0 545357.0 0
146000.0 545333.0 0
150000.0 545306.0 0
154000.0 545303.0 0
158000.0 545262.0 0
162000.0 545240.0 0
166000.0 545189.0 0
170000.0 545183.0 0
174000.0 545137.0 0
178000.0 545152.0 0
182000.0 545094.0 0
186000.0 545178.0 0
190000.0 545091.0 0
194000.0 545181.0 0
198000.0 545091.0 0
202000.0 545201.0 0
206000.0 545091.0 0
210000.0 545195.0 0
214000.0 545091.0 0
218000.0 545203.0 0
222000.0 545091.0 0
226000.0 545198.0 0
230000.0 545091.0 0
234000.0 545192.0 0
238000.0 545091.0 0
242000.0 545204.0 0
246000.0 545091.0 0
250000.0 545285.0 0
254000.0 545091.0 0
258000.0 545204.0 0
262000.0 545091.0 0
266000.0 545192.0 0
270000.0 545091.0 0
274000.0 545198.0 0
278000.0 545091.0 0
282000.0 545203.0 0
286000.0 545091.0 0
290000.0 545195.0 0
294000.0 545091.0 0
298000.0 545201.0 0
302000.0 545091.0 0
306000.0 545181.0 0
310000.0 545091.0 0
314000.0 545178.0 0
318000.0 545094.0 0
322000.0 545152.0 0
326000.0 545137.0 0
330000.0 545183.0 0
334000.0 545189.0 0
338000.0 545240.0 0
342000.0 545262.0 0
346000.0 545303.0 0
350000.0 545306.0 0
354000.0 545333.0 0
358000.0 545357.0 0
362000.0 545324.0 0
366000.0 545260.0 0
370000.0 545284.0 0
374000.0 545282.0 0
378000.0 545259.0 0
382000.0 545199.0 0
386000.0 545204.0 0
390000.0 545192.0 0
394000.0 545205.0 0
398000.0 545231.0 0
102000.0 549228.0 0
106000.0 549204.0 0
110000.0 549191.0 0
114000.0 549201.0 0
118000.0 549193.0 0
122000.0 549251.0 0
126000.0 549274.0 0
130000.0 549279.0 0
134000.0 549255.0 0
138000.0 549317.0 0
142000.0 549341.0 0
146000.0 549318.0 0
150000.0 549292.0 0
154000.0 549291.0 0
158000.0 549251.0 0
162000.0 549231.0 0
166000.0 549181.0 0
170000.0 549177.0 0
174000.0 549132.0 0
178000.0 549148.0 0
182000.0 549093.0 0
186000.0 549174.0 0
190000.0 549091.0 0
194000.0 549176.0 0
198000.0 549091.0 0
202000.0 549194.0 0
206000.0 549091.0 0
210000.0 549189.0 0
214000.0 549091.0 0
218000.0 549195.0 0
222000.0 549091.0 0
226000.0 549190.0 0
230000.0 549091.0 0
234000.0 549183.0 0
238000.0 549091.0 0
242000.0 549192.0 0
246000.0 549091.0 0
250000.0 549259.0 0
254000.0 549091.0 0
258000.0 549192.0 0
262000.0 549091.0 0
266000.0 549183.0 0
270000.0 549091.0 0
274000.0 549190.0 0
278000.0 549091.0 0
282000.0 549195.0 0
286000.0 549091.0 0
290000.0 549189.0 0
294000.0 549091.0 0
298000.0 549194.0 0
302000.0 549091.0 0
306000.0 549176.0 0
310000.0 549091.0 0
314000.0 549174.0 0
318000.0 549093.0 0
322000.0 549148.0 0
326000.0 549132.0 0
330000.0 549177.0 0
334000.0 549181.0 0
338000.0 549231.0 0
342000.0 549251.0 0
346000.0 549291.0 0
350000.0 549292.0 0
354000.0 549318.0 0
358000.0 549341.0 0
362000.0 549317.0 0
366000.0 549255.0 0
370000.0 549279.0 0
374000.0 549274.0 0
378000.0 549251.0 0
382000.0 549193.0 0
386000.0 549201.0 0
390000.0 549191.0 0
394000.0 549204.0 0
398000.0 549228.0 0
102000.0 553225.0 0
106000.0 553203.0 0
110000.0 553189.0 0
114000.0 553198.0 0
118000.0 553189.0 0
122000.0 553244.0 0
126000.0 553267.0 0
130000.0 553273.0 0
134000.0 553251.0 0
138000.0 553310.0 0
142000.0 553326.0 0
146000.0 553304.0 0
150000.0 553279.0 0
154000.0 553280.0 0
158000.0 553241.0 0
162000.0 553223.0 0
166000.0 553175.0 0
170000.0 553172.0 0
174000.0 553128.0 0
178000.0 553145.0 0
182000.0 553092.0 0
186000.0 553170.0 0
190000.0 553091.0 0
194000.0 553172.0 0
198000.0 553091.0 0
202000.0 553188.0 0
206000.0 553091.0 0
210000.0 553183.0 0
214000.0 553091.0 0
218000.0 553187.0 0
222000.0 553091.0 0
226000.0 553182.0 0
230000.0 553091.0 0
234000.0 553174.0 0
238000.0 553091.0 0
242000.0 553182.0 0
246000.0 553091.0 0
250000.0 553236.0 0
254000.0 553091.0 0
258000.0 553182.0 0
262000.0 553091.0 0
266000.0 553174.0 0
270000.0 553091.0 0
274000.0 553182.0 0
278000.0 553091.0 0
282000.0 553187.0 0
286000.0 553091.0 0
290000.0 553183.0 0
294000.0 553091.0 0
298000.0 553188.0 0
302000.0 553091.0 0
306000.0 553172.0 0
310000.0 553091.0 0
314000.0 553170.0 0
318000.0 553092.0 0
322000.0 553145.0 0
326000.0 553128.0 0
330000.0 553172.0 0
334000.0 553175.0 0
338000.0 553223.0 0
342000.0 553241.0 0
346000.0 553280.0 0
350000.0 553279.0 0
354000.0 553304.0 0
358000.0 553326.0 0
362000.0 553310.0 0
366000.0 553251.0 0
370000.0 553273.0 0
374000.0 553267.0 0
378000.0 553244.0 0
382000.0 553189.0 0
386000.0 553198.0 0
390000.0 553189.0 0
394000.0 553203.0 0
398000.0 553225.0 0
102000.0 557222.0 0
106000.0 557201.0 0
110000.0 557188.0 0
114000.0 557195.0 0
118000.0 557184.0 0
122000.0 557238.0 0
126000.0 557260.0 0
130000.0 557268.0 0
134000.0 557246.0 0
138000.0 557304.0 0
142000.0 557312.0 0
146000.0 557291.0 0
150000.0 557267.0 0
154000.0 557269.0 0
158000.0 557232.0 0
162000.0 557215.0 0
166000.0 557169.0 0
170000.0 557167.0 0
174000.0 557124.0 0
178000.0 557142.0 0
182000.0 557092.0 0
186000.0 557166.0 0
190000.0 557091.0 0
194000.0 557168.0 0
198000.0 557091.0 0
202000.0 557183.0 0
206000.0 557091.0 0
210000.0 557177.0 0
214000.0 557091.0 0
218000.0 557180.0 0
222000.0 557091.0 0
226000.0 557174.0 0
230000.0 557091.0 0
234000.0 557166.0 0
238000.0 557091.0 0
242000.0 557172.0 0
246000.0 557091.0 0
250000.0 557217.0 0
254000.0 557091.0 0
258000.0 557172.0 0
262000.0 557091.0 0
266000.0 557166.0 0
270000.0 557091.0 0
274000.0 557174.0 0
278000.0 557091.0 0
282000.0 557180.0 0
286000.0 557091.0 0
290000.0 557177.0 0
294000.0 557091.0 0
298000.0 557183.0 0
302000.0 557091.0 0
306000.0 557168.0 0
310000.0 557091.0 0
314000.0 557166.0 0
318000.0 557092.0 0
322000.0 557142.0 0
326000.0 557124.0 0
330000.0 557167.0 0
334000.0 557169.0 0
338000.0 557215.0 0
342000.0 557232.0 0
346000.0 557269.0 0
350000.0 557267.0 0
354000.0 557291.0 0
358000.0 557312.0 0
362000.0 557304.0 0
366000.0 557246.0 0
370000.0 557268.0 0
374000.0 557260.0 0
378000.0 557238.0 0
382000.0 557184.0 0
386000.0 557195.0 0
390000.0 557188.0 0
394000.0 557201.0 0
398000.0 557222.0 0
102000.0 561219.0 0
106000.0 561200.0 0
110000.0 561187.0 0
114000.0 561192.0 0
118000.0 561180.0 0
122000.0 561232.0 0
126000.0 561254.0 0
130000.0 561263.0 0
134000.0 561241.0 0
138000.0 561297.0 0
142000.0 561299.0 0
146000.0 561279.0 0
150000.0 561257.0 0
154000.0 561260.0 0
158000.0 561223.0 0
162000.0 561208.0 0
166000.0 561163.0 0
170000.0 561162.0 0
174000.0 561120.0 0
178000.0 561140.0 0
182000.0 561091.0 0
186000.0 561162.0 0
190000.0 561091.0 0
194000.0 561164.0 0
198000.0 561091.0 0
202000.0 561177.0 0
206000.0 561091.0 0
210000.0 561172.0 0
214000.0 561091.0 0
218000.0 561173.0 0
222000.0 561091.0 0
226000.0 561167.0 0
230000.0 561091.0 0
234000.0 561159.0 0
238000.0 561091.0 0
242000.0 561163.0 0
246000.0 561091.0 0
250000.0 561200.0 0
254000.0 561091.0 0
258000.0 561163.0 0
262000.0 561091.0 0
266000.0 561159.0 0
270000.0 561091.0 0
274000.0 561167.0 0
278000.0 561091.0 0
282000.0 561173.0 0
286000.0 561091.0 0
290000.0 561172.0 0
294000.0 561091.0 0
298000.0 561177.0 0
302000.0 561091.0 0
306000.0 561164.0 0
310000.0 561091.0 0
314000.0 561162.0 0
318000.0 561091.0 0
322000.0 561140.0 0
326000.0 561120.0 0
330000.0 561162.0 0
334000.0 561163.0 0
338000.0 561208.0 0
342000.0 561223.0 0
346000.0 561260.0 0
350000.0 561257.0 0
354000.0 561279.0 0
358000.0 561299.0 0
362000.0 561297.0 0
366000.0 561241.0 0
370000.0 561263.0 0
374000.0 561254.0 0
378000.0 561232.0 0
382000.0 561180.0 0
386000.0 561192.0 0
390000.0 561187.0 0
394000.0 561200.0 0
398000.0 561219.0 0
102000.0 565216.0 0
106000.0 565199.0 0
110000.0 565185.0 0
114000.0 565190.0 0
118000.0 565176.0 0
122000.0 565227.0 0
126000.0 565248.0 0
130000.0 565258.0 0
134000.0 565237.0 0
138000.0 565291.0 0
142000.0 565287.0 0
146000.0 565269.0 0
150000.0 565247.0 0
154000.0 565251.0 0
158000.0 565214.0 0
162000.0 565202.0 0
166000.0 565157.0 0
170000.0 565158.0 0
174000.0 565117.0 0
178000.0 565137.0 0
182000.0 565091.0 0
186000.0 565159.0 0
190000.0 565091.0 0
194000.0 565160.0 0
198000.0 565091.0 0
202000.0 565172.0 0
206000.0 565091.0 0
210000.0 565167.0 0
214000.0 565091.0 0
218000.0 565167.0 0
222000.0 565091.0 0
226000.0 565161.0 0
230000.0 565091.0 0
234000.0 565152.0 0
238000.0 565091.0 0
242000.0 565155.0 0
246000.0 565091.0 0
250000.0 565185.0 0
254000.0 565091.0 0
258000.0 565155.0 0
262000.0 565091.0 0
266000.0 565152.0 0
270000.0 565091.0 0
274000.0 565161.0 0
278000.0 565091.0 0
282000.0 565167.0 0
286000.0 565091.0 0
290000.0 565167.0 0
294000.0 565091.0 0
298000.0 565172.0 0
302000.0 565091.0 0
306000.0 565160.0 0
310000.0 565091.0 0
314000.0 565159.0 0
318000.0 565091.0 0
322000.0 565137.0 0
326000.0 565117.0 0
330000.0 565158.0 0
334000.0 565157.0 0
338000.0 565202.0 0
342000.0 565214.0 0
346000.0 565251.0 0
350000.0 565247.0 0
354000.0 565269.0 0
358000.0 565287.0 0
362000.0 565291.0 0
366000.0 565237.0 0
370000.0 565258.0 0
374000.0 565248.0 0
378000.0 565227.0 0
382000.0 565176.0 0
386000.0 565190.0 0
390000.0 565185.0 0
394000.0 565199.0 0
398000.0 565216.0 0
102000.0 569214.0 0
106000.0 569198.0 0
110000.0 569184.0 0
114000.0 569187.0 0
118000.0 569173.0 0
122000.0 569223.0 0
126000.0 569243.0 0
130000.0 569254.0 0
134000.0 569233.0 0
138000.0 569286.0 0
142000.0 569277.0 0
146000.0 569260.0 0
150000.0 569238.0 0
154000.0 569242.0 0
158000.0 569207.0 0
162000.0 569195.0 0
166000.0 569152.0 0
170000.0 569154.0 0
174000.0 569114.0 0
178000.0 569135.0 0
182000.0 569091.0 0
186000.0 569155.0 0
190000.0 569091.0 0
194000.0 569156.0 0
198000.0 569091.0 0
202000.0 569167.0 0
206000.0 569091.0 0
210000.0 569162.0 0
214000.0 569091.0 0
218000.0 569162.0 0
222000.0 569091.0 0
226000.0 569155.0 0
230000.0 569091.0 0
234000.0 569146.0 0
238000.0 569091.0 0
242000.0 569148.0 0
246000.0 569091.0 0
250000.0 569172.0 0
254000.0 569091.0 0
258000.0 569148.0 0
262000.0 569091.0 0
266000.0 569146.0 0
270000.0 569091.0 0
274000.0 569155.0 0
278000.0 569091.0 0
282000.0 569162.0 0
286000.0 569091.0 0
290000.0 569162.0 0
294000.0 569091.0 0
298000.0 569167.0 0
302000.0 569091.0 0
306000.0 569156.0 0
310000.0 569091.0 0
314000.0 569155.0 0
318000.0 569091.0 0
322000.0 569135.0 0
326000.0 569114.0 0
330000.0 569154.0 0
334000.0 569152.0 0
338000.0 569195.0 0
342000.0 569207.0 0
346000.0 569242.0 0
350000.0 569238.0 0
354000.0 569260.0 0
358000.0 569277.0 0
362000.0 569286.0 0
366000.0 569233.0 0
370000.0 569254.0 0
374000.0 569243.0 0
378000.0 569223.0 0
382000.0 569173.0 0
386000.0 569187.0 0
390000.0 569184.0 0
394000.0 569198.0 0
398000.0 569214.0 0
102000.0 573212.0 0
106000.0 573197.0 0
110000.0 573183.0 0
114000.0 573185.0 0
118000.0 573170.0 0
122000.0 573219.0 0
126000.0 573238.0 0
130000.0 573250.0 0
134000.0 573229.0 0
138000.0 573280.0 0
142000.0 573267.0 0
146000.0 573251.0 0
150000.0 573230.0 0
154000.0 573235.0 0
158000.0 573200.0 0
162000.0 573190.0 0
166000.0 573148.0 0
170000.0 573150.0 0
174000.0 573112.0 0
178000.0 573134.0 0
182000.0 573091.0 0
186000.0 573152.0 0
190000.0 573091.0 0
194000.0 573153.0 0
198000.0 573091.0 0
202000.0 573163.0 0
206000.0 573091.0 0
210000.0 573158.0 0
214000.0 573091.0 0
218000.0 573156.0 0
222000.0 573091.0 0
226000.0 573150.0 0
230000.0 573091.0 0
234000.0 573141.0 0
238000.0 573091.0 0
242000.0 573142.0 0
246000.0 573091.0 0
250000.0 573161.0 0
254000.0 573091.0 0
258000.0 573142.0 0
262000.0 573091.0 0
266000.0 573141.0 0
270000.0 573091.0 0
274000.0 573150.0 0
278000.0 573091.0 0
282000.0 573156.0 0
286000.0 573091.0 0
290000.0 573158.0 0
294000.0 573091.0 0
298000.0 573163.0 0
302000.0 573091.0 0
306000.0 573153.0 0
310000.0 573091.0 0
314000.0 573152.0 0
318000.0 573091.0 0
322000.0 573134.0 0
326000.0 573112.0 0
330000.0 573150.0 0
334000.0 573148.0 0
338000.0 573190.0 0
342000.0 573200.0 0
346000.0 573235.0 0
350000.0 573230.0 0
354000.0 573251.0 0
358000.0 573267.0 0
362000.0 573280.0 0
366000.0 573229.0 0
370000.0 573250.0 0
374000.0 573238.0 0
378000.0 573219.0 0
382000.0 573170.0 0
386000.0 573185.0 0
390000.0 573183.0 0
394000.0 573197.0 0
398000.0 573212.0 0
102000.0 577210.0 0
106000.0 577196.0 0
110000.0 577182.0 0
114000.0 577183.0 0
118000.0 577167.0 0
122000.0 577215.0 0
126000.0 577234.0 0
130000.0 577246.0 0
134000.0 577225.0 0
138000.0 577276.0 0
142000.0 577259.0 0
146000.0 577244.0 0
150000.0 577222.0 0
154000.0 577227.0 0
158000.0 577193.0 0
162000.0 577185.0 0
166000.0 577144.0 0
170000.0 577147.0 0
174000.0 577110.0 0
178000.0 577132.0 0
182000.0 577091.0 0
186000.0 577150.0 0
190000.0 577091.0 0
194000.0 577150.0 0
198000.0 577091.0 0
202000.0 577159.0 0
206000.0 577091.0 0
210000.0 577153.0 0
214000.0 577091.0 0
218000.0 577152.0 0
222000.0 577091.0 0
226000.0 577145.0 0
230000.0 577091.0 0
234000.0 577136.0 0
238000.0 577091.0 0
242000.0 577136.0 0
246000.0 577091.0 0
250000.0 577152.0 0
254000.0 577091.0 0
258000.0 577136.0 0
262000.0 577091.0 0
266000.0 577136.0 0
270000.0 577091.0 0
274000.0 577145.0 0
278000.0 577091.0 0
282000.0 577152.0 0
286000.0 577091.0 0
290000.0 577153.0 0
294000.0 577091.0 0
298000.0 577159.0 0
302000.0 577091.0 0
306000.0 577150.0 0
310000.0 577091.0 0
314000.0 577150.0 0
318000.0 577091.0 0
322000.0 577132.0 0
326000.0 577110.0 0
330000.0 577147.0 0
334000.0 577144.0 0
338000.0 577185.0 0
342000.0 577193.0 0
346000.0 577227.0 0
350000.0 577222.0 0
354000.0 577244.0 0
358000.0 577259.0 0
362000.0 577276.0 0
366000.0 577225.0 0
370000.0 577246.0 0
374000.0 577234.0 0
378000.0 577215.0 0
382000.0 577167.0 0
386000.0 577183.0 0
390000.0 577182.0 0
394000.0 577196.0 0
398000.0 577210.0 0
102000.0 581208.0 0
106000.0 581195.0 0
110000.0 581181.0 0
114000.0 581181.0 0
118000.0 581164.0 0
122000.0 581212.0 0
126000.0 581230.0 0
130000.0 581243.0 0
134000.0 581222.0 0
138000.0 581271.0 0
142000.0 581251.0 0
146000.0 581237.0 0
150000.0 581216.0 0
154000.0 581221.0 0
158000.0 581187.0 0
162000.0 581180.0 0
166000.0 581140.0 0
170000.0 581144.0 0
174000.0 581108.0 0
178000.0 581131.0 0
182000.0 581091.0 0
186000.0 581147.0 0
190000.0 581091.0 0
194000.0 581148.0 0
198000.0 581091.0 0
202000.0 581156.0 0
206000.0 581091.0 0
210000.0 581150.0 0
214000.0 581091.0 0
218000.0 581148.0 0
222000.0 581091.0 0
226000.0 581140.0 0
230000.0 581091.0 0
234000.0 581131.0 0
238000.0 581091.0 0
242000.0 581131.0 0
246000.0 581091.0 0
250000.0 581144.0 0
254000.0 581091.0 0
258000.0 581131.0 0
262000.0 581091.0 0
266000.0 581131.0 0
270000.0 581091.0 0
274000.0 581140.0 0
278000.0 581091.0 0
282000.0 581148.0 0
286000.0 581091.0 0
290000.0 581150.0 0
294000.0 581091.0 0
298000.0 581156.0 0
302000.0 581091.0 0
306000.0 581148.0 0
310000.0 581091.0 0
314000.0 581147.0 0
318000.0 581091.0 0
322000.0 581131.0 0
326000.0 581108.0 0
330000.0 581144.0 0
334000.0 581140.0 0
338000.0 581180.0 0
342000.0 581187.0 0
346000.0 581221.0 0
350000.0 581216.0 0
354000.0 581237.0 0
358000.0 581251.0 0
362000.0 581271.0 0
366000.0 581222.0 0
370000.0 581243.0 0
374000.0 581230.0 0
378000.0 581212.0 0
382000.0 581164.0 0
386000.0 581181.0 0
390000.0 581181.0 0
394000.0 581195.0 0
398000.0 581208.0 0
102000.0 585206.0 0
106000.0 585194.0 0
110000.0 585180.0 0
114000.0 585179.0 0
118000.0 585162.0 0
122000.0 585209.0 0
126000.0 585226.0 0
130000.0 585240.0 0
134000.0 585219.0 0
138000.0 585267.0 0
142000.0 585244.0 0
146000.0 585231.0 0
150000.0 585210.0 0
154000.0 585215.0 0
158000.0 585182.0 0
162000.0 585176.0 0
166000.0 585137.0 0
170000.0 585141.0 0
174000.0 585106.0 0
178000.0 585130.0 0
182000.0 585091.0 0
186000.0 585145.0 0
190000.0 585091.0 0
194000.0 585145.0 0
198000.0 585091.0 0
202000.0 585153.0 0
206000.0 585091.0 0
210000.0 585147.0 0
214000.0 585091.0 0
218000.0 585144.0 0
222000.0 585091.0 0
226000.0 585137.0 0
230000.0 585091.0 0
234000.0 585128.0 0
238000.0 585091.0 0
242000.0 585127.0 0
246000.0 585091.0 0
250000.0 585137.0 0
254000.0 585091.0 0
258000.0 585127.0 0
262000.0 585091.0 0
266000.0 585128.0 0
270000.0 585091.0 0
274000.0 585137.0 0
278000.0 585091.0 0
282000.0 585144.0 0
286000.0 585091.0 0
290000.0 585147.0 0
294000.0 585091.0 0
298000.0 585153.0 0
302000.0 585091.0 0
306000.0 585145.0 0
310000.0 585091.0 0
314000.0 585145.0 0
318000.0 585091.0 0
322000.0 585130.0 0
326000.0 585106.0 0
330000.0 585141.0 0
334000.0 585137.0 0
338000.0 585176.0 0
342000.0 585182.0 0
346000.0 585215.0 0
350000.0 585210.0 0
354000.0 585231.0 0
358000.0 585244.0 0
362000.0 585267.0 0
366000.0 585219.0 0
370000.0 585240.0 0
374000.0 585226.0 0
378000.0 585209.0 0
382000.0 585162.0 0
386000.0 585179.0 0
390000.0 585180.0 0
394000.0 585194.0 0
398000.0 585206.0 0
102000.0 589205.0 0
106000.0 589193.0 0
110000.0 589180.0 0
114000.0 589178.0 0
118000.0 589160.0 0
122000.0 589206.0 0
126000.0 589224.0 0
130000.0 589237.0 0
134000.0 589216.0 0
142000.0 589239.0 0
146000.0 589226.0 0
150000.0 589205.0 0
154000.0 589210.0 0
158000.0 589177.0 0
162000.0 589172.0 0
166000.0 589134.0 0
170000.0 589139.0 0
174000.0 589105.0 0
178000.0 589129.0 0
182000.0 589091.0 0
186000.0 589143.0 0
190000.0 589091.0 0
194000.0 589143.0 0
198000.0 589091.0 0
202000.0 589150.0 0
206000.0 589091.0 0
210000.0 589144.0 0
214000.0 589091.0 0
218000.0 589141.0 0
222000.0 589091.0 0
226000.0 589133.0 0
230000.0 589091.0 0
234000.0 589124.0 0
238000.0 589091.0 0
242000.0 589123.0 0
246000.0 589091.0 0
250000.0 589132.0 0
254000.0 589091.0 0
258000.0 589123.0 0
262000.0 589091.0 0
266000.0 589124.0 0
270000.0 589091.0 0
274000.0 589133.0 0
278000.0 589091.0 0
282000.0 589141.0 0
286000.0 589091.0 0
290000.0 589144.0 0
294000.0 589091.0 0
298000.0 589150.0 0
302000.0 589091.0 0
306000.0 589143.0 0
310000.0 589091.0 0
314000.0 589143.0 0
318000.0 589091.0 0
322000.0 589129.0 0
326000.0 589105.0 0
330000.0 589139.0 0
334000.0 589134.0 0
338000.0 589172.0 0
342000.0 589177.0 0
346000.0 589210.0 0
350000.0 589205.0 0
354000.0 589226.0 0
358000.0 589239.0 0
366000.0 589216.0 0
370000.0 589237.0 0
374000.0 589224.0 0
378000.0 589206.0 0
382000.0 589160.0 0
386000.0 589178.0 0
390000.0 589180.0 0
394000.0 589193.0 0
398000.0 589205.0 0
138000.0 589263.0 0
362000.0 589263.0 0
102000.0 593203.0 0
106000.0 593193.0 0
110000.0 593179.0 0
114000.0 593177.0 0
118000.0 593158.0 0
122000.0 593204.0 0
126000.0 593221.0 0
130000.0 593235.0 0
134000.0 593214.0 0
138000.0 593260.0 0
142000.0 593234.0 0
146000.0 593222.0 0
150000.0 593201.0 0
154000.0 593206.0 0
158000.0 593173.0 0
162000.0 593169.0 0
166000.0 593131.0 0
170000.0 593137.0 0
174000.0 593104.0 0
178000.0 593128.0 0
182000.0 593091.0 0
186000.0 593142.0 0
190000.0 593091.0 0
194000.0 593142.0 0
198000.0 593091.0 0
202000.0 593147.0 0
206000.0 593091.0 0
210000.0 593141.0 0
214000.0 593091.0 0
218000.0 593138.0 0
222000.0 593091.0 0
226000.0 593130.0 0
230000.0 593091.0 0
234000.0 593121.0 0
238000.0 593091.0 0
242000.0 593120.0 0
246000.0 593091.0 0
250000.0 593127.0 0
254000.0 593091.0 0
258000.0 593120.0 0
262000.0 593091.0 0
266000.0 593121.0 0
270000.0 593091.0 0
274000.0 593130.0 0
278000.0 593091.0 0
282000.0 593138.0 0
286000.0 593091.0 0
290000.0 593141.0 0
294000.0 593091.0 0
298000.0 593147.0 0
302000.0 593091.0 0
306000.0 593142.0 0
310000.0 593091.0 0
314000.0 593142.0 0
318000.0 593091.0 0
322000.0 593128.0 0
326000.0 593104.0 0
330000.0 593137.0 0
334000.0 593131.0 0
338000.0 593169.0 0
342000.0 593173.0 0
346000.0 593206.0 0
350000.0 593201.0 0
354000.0 593222.0 0
358000.0 593234.0 0
362000.0 593260.0 0
366000.0 593214.0 0
370000.0 593235.0 0
374000.0 593221.0 0
378000.0 593204.0 0
382000.0 593158.0 0
386000.0 593177.0 0
390000.0 593179.0 0
394000.0 593193.0 0
398000.0 593203.0 0
102000.0 597202.0 0
106000.0 597192.0 0
110000.0 597178.0 0
114000.0 597176.0 0
118000.0 597157.0 0
122000.0 597202.0 0
126000.0 597219.0 0
130000.0 597233.0 0
134000.0 597212.0 0
138000.0 597258.0 0
142000.0 597230.0 0
146000.0 597218.0 0
150000.0 597197.0 0
154000.0 597202.0 0
158000.0 597170.0 0
162000.0 597166.0 0
166000.0 597129.0 0
170000.0 597136.0 0
174000.0 597103.0 0
178000.0 597127.0 0
182000.0 597091.0 0
186000.0 597140.0 0
190000.0 597091.0 0
194000.0 597140.0 0
198000.0 597091.0 0
202000.0 597145.0 0
206000.0 597091.0 0
210000.0 597139.0 0
214000.0 597091.0 0
218000.0 597136.0 0
222000.0 597091.0 0
226000.0 597128.0 0
230000.0 597091.0 0
234000.0 597119.0 0
238000.0 597091.0 0
242000.0 597118.0 0
246000.0 597091.0 0
250000.0 597123.0 0
254000.0 597091.0 0
258000.0 597118.0 0
262000.0 597091.0 0
266000.0 597119.0 0
270000.0 597091.0 0
274000.0 597128.0 0
278000.0 597091.0 0
282000.0 597136.0 0
286000.0 597091.0 0
290000.0 597139.0 0
294000.0 597091.0 0
298000.0 597145.0 0
302000.0 597091.0 0
306000.0 597140.0 0
310000.0 597091.0 0
314000.0 597140.0 0
318000.0 597091.0 0
322000.0 597127.0 0
326000.0 597103.0 0
330000.0 597136.0 0
334000.0 597129.0 0
338000.0 597166.0 0
342000.0 597170.0 0
346000.0 597202.0 0
350000.0 597197.0 0
354000.0 597218.0 0
358000.0 597230.0 0
362000.0 597258.0 0
366000.0 597212.0 0
370000.0 597233.0 0
374000.0 597219.0 0
378000.0 597202.0 0
382000.0 597157.0 0
386000.0 597176.0 0
390000.0 597178.0 0
394000.0 597192.0 0
398000.0 597202.0 0
102000.0 601202.0 0
106000.0 601192.0 0
110000.0 601178.0 0
114000.0 601175.0 0
118000.0 601156.0 0
122000.0 601201.0 0
126000.0 601217.0 0
130000.0 601231.0 0
134000.0 601210.0 0
138000.0 601255.0 0
142000.0 601227.0 0
146000.0 601215.0 0
150000.0 601194.0 0
154000.0 601199.0 0
158000.0 601167.0 0
162000.0 601164.0 0
166000.0 601128.0 0
170000.0 601135.0 0
174000.0 601102.0 0
178000.0 601126.0 0
182000.0 601091.0 0
186000.0 601139.0 0
190000.0 601091.0 0
194000.0 601139.0 0
198000.0 601091.0 0
202000.0 601144.0 0
206000.0 601091.0 0
210000.0 601138.0 0
214000.0 601091.0 0
218000.0 601134.0 0
222000.0 601091.0 0
226000.0 601126.0 0
230000.0 601091.0 0
234000.0 601117.0 0
238000.0 601091.0 0
242000.0 601116.0 0
246000.0 601091.0 0
250000.0 601120.0 0
254000.0 601091.0 0
258000.0 601116.0 0
262000.0 601091.0 0
266000.0 601117.0 0
270000.0 601091.0 0
274000.0 601126.0 0
278000.0 601091.0 0
282000.0 601134.0 0
286000.0 601091.0 0
290000.0 601138.0 0
294000.0 601091.0 0
298000.0 601144.0 0
302000.0 601091.0 0
306000.0 601139.0 0
310000.0 601091.0 0
314000.0 601139.0 0
318000.0 601091.0 0
322000.0 601126.0 0
326000.0 601102.0 0
330000.0 601135.0 0
334000.0 601128.0 0
338000.0 601164.0 0
342000.0 601167.0 0
346000.0 601199.0 0
350000.0 601194.0 0
354000.0 601215.0 0
358000.0 601227.0 0
362000.0 601255.0 0
366000.0 601210.0 0
370000.0 601231.0 0
374000.0 601217.0 0
378000.0 601201.0 0
382000.0 601156.0 0
386000.0 601175.0 0
390000.0 601178.0 0
394000.0 601192.0 0
398000.0 601202.0 0
102000.0 605201.0 0
106000.0 605191.0 0
110000.0 605178.0 0
114000.0 605174.0 0
118000.0 605155.0 0
122000.0 605200.0 0
126000.0 605216.0 0
130000.0 605230.0 0
134000.0 605209.0 0
138000.0 605254.0 0
142000.0 605225.0 0
146000.0 605213.0 0
150000.0 605192.0 0
154000.0 605197.0 0
158000.0 605165.0 0
162000.0 605162.0 0
166000.0 605127.0 0
170000.0 605134.0 0
174000.0 605102.0 0
178000.0 605126.0 0
182000.0 605091.0 0
186000.0 605138.0 0
190000.0 605091.0 0
194000.0 605138.0 0
198000.0 605091.0 0
202000.0 605143.0 0
206000.0 605091.0 0
210000.0 605137.0 0
214000.0 605091.0 0
218000.0 605132.0 0
222000.0 605091.0 0
226000.0 605125.0 0
230000.0 605091.0 0
234000.0 605116.0 0
238000.0 605091.0 0
242000.0 605114.0 0
246000.0 605091.0 0
250000.0 605118.0 0
254000.0 605091.0 0
258000.0 605114.0 0
262000.0 605091.0 0
266000.0 605116.0 0
270000.0 605091.0 0
274000.0 605125.0 0
278000.0 605091.0 0
282000.0 605132.0 0
286000.0 605091.0 0
290000.0 605137.0 0
294000.0 605091.0 0
298000.0 605143.0 0
302000.0 605091.0 0
306000.0 605138.0 0
310000.0 605091.0 0
314000.0 605138.0 0
318000.0 605091.0 0
322000.0 605126.0 0
326000.0 605102.0 0
330000.0 605134.0 0
334000.0 605127.0 0
338000.0 605162.0 0
342000.0 605165.0 0
346000.0 605197.0 0
350000.0 605192.0 0
354000.0 605213.0 0
358000.0 605225.0 0
362000.0 605254.0 0
366000.0 605209.0 0
370000.0 605230.0 0
374000.0 605216.0 0
378000.0 605200.0 0
382000.0 605155.0 0
386000.0 605174.0 0
390000.0 605178.0 0
394000.0 605191.0 0
398000.0 605201.0 0
102000.0 609201.0 0
106000.0 609191.0 0
110000.0 609177.0 0
114000.0 609174.0 0
118000.0 609155.0 0
122000.0 609199.0 0
126000.0 609215.0 0
130000.0 609229.0 0
134000.0 609208.0 0
138000.0 609253.0 0
142000.0 609223.0 0
146000.0 609212.0 0
150000.0 609190.0 0
154000.0 609196.0 0
158000.0 609164.0 0
162000.0 609161.0 0
166000.0 609126.0 0
170000.0 609133.0 0
174000.0 609101.0 0
178000.0 609126.0 0
182000.0 609091.0 0
186000.0 609138.0 0
190000.0 609091.0 0
194000.0 609137.0 0
198000.0 609091.0 0
202000.0 609142.0 0
206000.0 609091.0 0
210000.0 609136.0 0
214000.0 609091.0 0
218000.0 609131.0 0
222000.0 609091.0 0
226000.0 609124.0 0
230000.0 609091.0 0
234000.0 609115.0 0
238000.0 609091.0 0
242000.0 609113.0 0
246000.0 609091.0 0
250000.0 609117.0 0
254000.0 609091.0 0
258000.0 609113.0 0
262000.0 609091.0 0
266000.0 609115.0 0
270000.0 609091.0 0
274000.0 609124.0 0
278000.0 609091.0 0
282000.0 609131.0 0
286000.0 609091.0 0
290000.0 609136.0 0
294000.0 609091.0 0
298000.0 609142.0 0
302000.0 609091.0 0
306000.0 609137.0 0
310000.0 609091.0 0
314000.0 609138.0 0
318000.0 609091.0 0
322000.0 609126.0 0
326000.0 609101.0 0
330000.0 609133.0 0
334000.0 609126.0 0
338000.0 609161.0 0
342000.0 609164.0 0
346000.0 609196.0 0
350000.0 609190.0 0
354000.0 609212.0 0
358000.0 609223.0 0
362000.0 609253.0 0
366000.0 609208.0 0
370000.0 609229.0 0
374000.0 609215.0 0
378000.0 609199.0 0
382000.0 609155.0 0
386000.0 609174.0 0
390000.0 609177.0 0
394000.0 609191.0 0
398000.0 609201.0 0
102000.0 613200.0 0
106000.0 613191.0 0
110000.0 613177.0 0
114000.0 613173.0 0
118000.0 613154.0 0
122000.0 613199.0 0
126000.0 613215.0 0
130000.0 613229.0 0
134000.0 613208.0 0
138000.0 613252.0 0
142000.0 613222.0 0
146000.0 613211.0 0
150000.0 613190.0 0
154000.0 613195.0 0
158000.0 613163.0 0
162000.0 613161.0 0
166000.0 613125.0 0
170000.0 613133.0 0
174000.0 613101.0 0
178000.0 613126.0 0
182000.0 613091.0 0
186000.0 613137.0 0
190000.0 613091.0 0
194000.0 613137.0 0
198000.0 613091.0 0
202000.0 613141.0 0
206000.0 613091.0 0
210000.0 613135.0 0
214000.0 613091.0 0
218000.0 613131.0 0
222000.0 613091.0 0
226000.0 613123.0 0
230000.0 613091.0 0
234000.0 613115.0 0
238000.0 613091.0 0
242000.0 613113.0 0
246000.0 613091.0 0
250000.0 613116.0 0
254000.0 613091.0 0
258000.0 613113.0 0
262000.0 613091.0 0
266000.0 613115.0 0
270000.0 613091.0 0
274000.0 613123.0 0
278000.0 613091.0 0
282000.0 613131.0 0
286000.0 613091.0 0
290000.0 613135.0 0
294000.0 613091.0 0
298000.0 613141.0 0
302000.0 613091.0 0
306000.0 613137.0 0
310000.0 613091.0 0
314000.0 613137.0 0
318000.0 613091.0 0
322000.0 613126.0 0
326000.0 613101.0 0
330000.0 613133.0 0
334000.0 613125.0 0
338000.0 613161.0 0
342000.0 613163.0 0
346000.0 613195.0 0
350000.0 613190.0 0
354000.0 613211.0 0
358000.0 613222.0 0
362000.0 613252.0 0
366000.0 613208.0 0
370000.0 613229.0 0
374000.0 613215.0 0
378000.0 613199.0 0
382000.0 613154.0 0
386000.0 613173.0 0
390000.0 613177.0 0
394000.0 613191.0 0
398000.0 613200.0 0
POINT_DATA 4650
SCALARS Radius float 1
LOOKUP_TABLE default
4000.0 4000.0 4000.0 4000.0 4000.0 4000.0 4000.0 4000.0 4000.0 4000.0 4000.0 4000.0 4000.0 4000.0 4000.0 4000.0 4000.0 4000.0 4000.0 4000.0 4000.0 4000.0 4000.0 4000.0 4000.0 4000.0 4000.0 4000.0 4000.0 4000.0 4000.0 4000.0 4000.0 4000.0 4000.0 4000.0 4000.0 4000.0 4000.0 4000.0 4000.0 4000.0 4000.0 4000.0 4000.0 4000.0 4000.0 4000.0 4000.0 4000.0 4000.0 4000.0 4000.0 4000.0 4000.0 4000.0 4000.0 4000.0 4000.0 4000.0 4000.0 4000.0 4000.0 4000.0 4000.0 4000.0 4000.0 4000.0 4000.0 4000.0 4000.0 4000.0 4000.0 4000.0 4000.0 4000.0 4000.0 4000.0 4000.0 4000.0 4000.0 4000.0 4000.0 4000.0 4000.0 4000.0 4000.0 4000.0 4000.0 4000.0 4000.0 4000.0 4000.0 4000.0 4000.0 4000.0 4000.0 4000.0 4000.0 4000.0 4000.0 4000.0 4000.0 4000.0 4000.0 4000.0 4000.0 4000.0 4000.0 4000.0 4000.0 4000.0 4000.0 4000.0 4000.0 4000.0 4000.0 4000.0 4000.0 4000.0 4000.0 4000.0 4000.0 4000.0 4000.0 4000.0 4000.0 4000.0 4000.0 4000.0 4000.0 4000.0 4000.0 4000.0 4000.0 4000.0 4000.0 4000.0 4000.0 4000.0 4000.0 4000.0 4000.0 4000.0 4000.0 4000.0 4000.0 4000.0 4000.0 4000.0 4000.0 4000.0 4000.0 4000.0 4000.0 4000.0 4000.0 4000.0 4000.0 4000.0 4000.0 4000.0 4000.0 4000.0 4000.0 4000.0 4000.0 4000.0 4000.0 4000.0 4000.0 4000.0 4000.0 4000.0 4000.0 4000.0 4000.0 4000.0 4000.0 4000.0 4000.0 4000.0 4000.0 4000.0 4000.0 4000.0 4000.0 4000.0 4000.0 4000.0 4000.0 4000.0 4000.0 4000.0 4000.0 4000.0 4000.0 4000.0 4000.0 4000.0 4000.0 4000.0 4000.0 4000.0 4000.0 4000.0 4000.0 4000.0 4000.0 4000.0 4000.0 4000.0 4000.0 4000.0 4000.0 4000.0 4000.0 4000.0 4000.0 4000.0 4000.0 4000.0 4000.0 4000.0 4000.0 4000.0 4000.0 4000.0 4000.0 4000.0 4000.0 4000.0 4000.0 4000.0 4000.0 4000.0 4000.0 4000.0 4000.0 4000.0 4000.0 4000.0 4000.0 4000.0 4000.0 4000.0 4000.0 4000.0 4000.0 4000.0 4000.0 4000.0 4000.0 4000.0 4000.0 4000.0 4000.0 4000.0 4000.0 4000.0 4000.0 4000.0 4000.0 4000.0 4000.0 4000.0 4000.0 4000.0 4000.0 4000.0 4000.0 4000.0 4000.0 4000.0 4000.0 4000.0 4000.0 4000.0 4000.0 4000.0 4000.0 4000.0 4000.0 4000.0 4000.0 4000.0 4000.0 4000.0 4000.0 4000.0 4000.0 4000.0 4000.0 4000.0 4000.0 4000.0 4000.0 4000.0 4000.0 4000.0 4000.0 4000.0 4000.0 4000.0 4000.0 4000.0 4000.0 4000.0 4000.0 4000.0 4000.0 4000.0 4000.0 4000.0 4000.0 4000.0 4000.0 4000.0 4000.0 4000.0 4000.0 4000.0 4000.0 4000.0 4000.0 4000.0 4000.0 4000.0 4000.0 4000.0 4000.0 4000.0 4000.0 4000.0 4000.0 4000.0 4000.0 4000.0 4000.0 4000.0 4000.0 4000.0 4000.0 4000.0 4000.0 4000.0 4000.0 4000.0 4000.0 4000.0 4000.0 4000.0 4000.0 4000.0 4000.0 4000.0 4000.0 4000.0 4000.0 4000.0 4000.0 4000.0 4000.0 4000.0 4000.0 4000.0 4000.0 4000.0 4000.0 4000.0 4000.0 4000.0 4000.0 4000.0 4000.0 4000.0 4000.0 4000.0 4000.0 4000.0 4000.0 4000.0 4000.0 4000.0 4000.0 4000.0 4000.0 4000.0 4000.0 4000.0 4000.0 4000.0 4000.0 4000.0 4000.0 4000.0 4000.0 4000.0 4000.0 4000.0 4000.0 4000.0 4000.0 4000.0 4000.0 4000.0 4000.0 4000.0 4000.0 4000.0 4000.0 4000.0 4000.0 4000.0 4000.0 4000.0 4000.0 4000.0 4000.0 4000.0 4000.0 4000.0 4000.0 4000.0 4000.0 4000.0 4000.0 4000.0 4000.0 4000.0 4000.0 4000.0 4000.0 4000.0 4000.0 4000.0 4000.0 4000.0 4000.0 4000.0 4000.0 4000.0 4000.0 4000.0 4000.0 4000.0 4000.0 4000.0 4000.0 4000.0 4000.0 4000.0 4000.0 4000.0 4000.0 4000.0 4000.0 4000.0 4000.0 4000.0 4000.0 4000.0 4000.0 4000.0 4000.0 4000.0 4000.0 4000.0 4000.0 4000.0 4000.0 4000.0 4000.0 4000.0 4000.0 4000.0 4000.0 4000.0 4000.0 4000.0 4000.0 4000.0 4000.0 4000.0 4000.0 4000.0 4000.0 4000.0 4000.0 4000.0 4000.0 4000.0 4000.0 4000.0 4000.0 4000.0 4000.0 4000.0 4000.0 4000.0 4000.0 4000.0 4000.0 4000.0 4000.0 4000.0 4000.0 4000.0 4000.0 4000.0 4000.0 4000.0 4000.0 4000.0 4000.0 4000.0 4000.0 4000.0 4000.0 4000.0 4000.0 4000.0 4000.0 4000.0 4000.0 4000.0 4000.0 4000.0 4000.0 4000.0 4000.0 4000.0 4000.0 4000.0 4000.0 4000.0 4000.0 4000.0 4000.0 4000.0 4000.0 4000.0 4000.0 4000.0 4000.0 4000.0 4000.0 4000.0 4000.0 4000.0 4000.0 4000.0 4000.0 4000.0 4000.0 4000.0 4000.0 4000.0 4000.0 4000.0 4000.0 4000.0 4000.0 4000.0 4000.0 4000.0 4000.0 4000.0 4000.0 4000.0 4000.0 4000.0 4000.0 4000.0 4000.0 4000.0 4000.0 4000.0 4000.0 4000.0 4000.0 4000.0 4000.0 4000.0 4000.0 4000.0 4000.0 4000.0 4000.0 4000.0 4000.0 4000.0 4000.0 4000.0 4000.0 4000.0 4000.0 4000.0 4000.0 4000.0 4000.0 4000.0 4000.0 4000.0 4000.0 4000.0 4000.0 4000.0 4000.0 4000.0 4000.0 4000.0 4000.0 4000.0 4000.0 4000.0 4000.0 4000.0 4000.0 4000.0 4000.0 4000.0 4000.0 4000.0 4000.0 4000.0 4000.0 4000.0 4000.0 4000.0 4000.0 4000.0 4000.0 4000.0 4000.0 4000.0 4000.0 4000.0 4000.0 4000.0 4000.0 4000.0 4000.0 4000.0 4000.0 4000.0 4000.0 4000.0 4000.0 4000.0 4000.0 4000.0 4000.0 4000.0 4000.0 4000.0 4000.0 4000.0 4000.0 4000.0 4000.0 4000.0 4000.0 4000.0 4000.0 4000.0 4000.0 4000.0 4000.0 4000.0 4000.0 4000.0 4000.0 4000.0 4000.0 4000.0 4000.0 4000.0 4000.0 4000.0 4000.0 4000.0 4000.0 4000.0 4000.0 4000.0 4000.0 4000.0 4000.0 4000.0 4000.0 4000.0 4000.0 4000.0 4000.0 4000.0 4000.0 4000.0 4000.0 4000.0 4000.0 4000.0 4000.0 4000.0 4000.0 4000.0 4000.0 4000.0 4000.0 4000.0 4000.0 4000.0 4000.0 4000.0 4000.0 4000.0 4000.0 4000.0 4000.0 4000.0 4000.0 4000.0 4000.0 4000.0 4000.0 4000.0 4000.0 4000.0 4000.0 4000.0 4000.0 4000.0 4000.0 4000.0 4000.0 4000.0 4000.0 4000.0 4000.0 4000.0 4000.0 4000.0 4000.0 4000.0 4000.0 4000.0 4000.0 4000.0 4000.0 4000.0 4000.0 4000.0 4000.0 4000.0 4000.0 4000.0 4000.0 4000.0 4000.0 4000.0 4000.0 4000.0 4000.0 4000.0 4000.0 4000.0 4000.0 4000.0 4000.0 4000.0 4000.0 4000.0 4000.0 4000.0 4000.0 4000.0 4000.0 4000.0 4000.0 4000.0 4000.0 4000.0 4000.0 4000.0 4000.0 4000.0 4000.0 4000.0 4000.0 4000.0 4000.0 4000.0 4000.0 4000.0 4000.0 4000.0 4000.0 4000.0 4000.0 4000.0 4000.0 4000.0 4000.0 4000.0 4000.0 4000.0 4000.0 4000.0 4000.0 4000.0 4000.0 4000.0 4000.0 4000.0 4000.0 4000.0 4000.0 4000.0 4000.0 4000.0 4000.0 4000.0 4000.0 4000.0 4000.0 4000.0 4000.0 4000.0 4000.0 4000.0 4000.0 4000.0 4000.0 4000.0 4000.0 4000.0 4000.0 4000.0 4000.0 4000.0 4000.0 4000.0 4000.0 4000.0 4000.0 4000.0 4000.0 4000.0 4000.0 4000.0 4000.0 4000.0 4000.0 4000.0 4000.0 4000.0 4000.0 4000.0 4000.0 4000.0 4000.0 4000.0 4000.0 4000.0 4000.0 4000.0 4000.0 4000.0 4000.0 4000.0 4000.0 4000.0 4000.0 4000.0 4000.0 4000.0 4000.0 4000.0 4000.0 4000.0 4000.0 4000.0 4000.0 4000.0 4000.0 4000.0 4000.0 4000.0 4000.0 4000.0 4000.0 4000.0 4000.0 4000.0 4000.0 4000.0 4000.0 4000.0 4000.0 4000.0 4000.0 4000.0 4000.0 4000.0 4000.0 4000.0 4000.0 4000.0 4000.0 4000.0 4000.0 4000.0 4000.0 4000.0 4000.0 4000.0 4000.0 4000.0 4000.0 4000.0 4000.0 4000.0 4000.0 4000.0 4000.0 4000.0 4000.0 4000.0 4000.0 4000.0 4000.0 4000.0 4000.0 4000.0 4000.0 4000.0 4000.0 4000.0 4000.0 4000.0 4000.0 4000.0 4000.0 4000.0 4000.0 4000.0 4000.0 4000.0 4000.0 4000.0 4000.0 4000.0 4000.0 4000.0 4000.0 4000.0 4000.0 4000.0 4000.0 4000.0 4000.0 4000.0 4000.0 4000.0 4000.0 4000.0 4000.0 4000.0 4000.0 4000.0 4000.0 4000.0 4000.0 4000.0 4000.0 4000.0 4000.0 4000.0 4000.0 4000.0 4000.0 4000.0 4000.0 4000.0 4000.0 4000.0 4000.0 4000.0 4000.0 4000.0 4000.0 4000.0 4000.0 4000.0 4000.0 4000.0 4000.0 4000.0 4000.0 4000.0 4000.0 4000.0 4000.0 4000.0 4000.0 4000.0 4000.0 4000.0 4000.0 4000.0 4000.0 4000.0 4000.0 4000.0 4000.0 4000.0 4000.0 4000.0 4000.0 4000.0 4000.0 4000.0 4000.0 4000.0 4000.0 4000.0 4000.0 4000.0 4000.0 4000.0 4000.0 4000.0 4000.0 4000.0 4000.0 4000.0 4000.0 4000.0 4000.0 4000.0 4000.0 4000.0 4000.0 4000.0 4000.0 4000.0 4000.0 4000.0 4000.0 4000.0 4000.0 4000.0 4000.0 4000.0 4000.0 4000.0 4000.0 4000.0 4000.0 4000.0 4000.0 4000.0 4000.0 4000.0 4000.0 4000.0 4000.0 4000.0 4000.0 4000.0 4000.0 4000.0 4000.0 4000.0 4000.0 4000.0 4000.0 4000.0 4000.0 4000.0 4000.0 4000.0 4000.0 4000.0 4000.0 4000.0 4000.0 4000.0 4000.0 4000.0 4000.0 4000.0 4000.0 4000.0 4000.0 4000.0 4000.0 4000.0 4000.0 4000.0 4000.0 4000.0 4000.0 4000.0 4000.0 4000.0 4000.0 4000.0 4000.0 4000.0 4000.0 4000.0 4000.0 4000.0 4000.0 4000.0 4000.0 4000.0 4000.0 4000.0 4000.0 4000.0 4000.0 4000.0 4000.0 4000.0 4000.0 4000.0 4000.0 4000.0 4000.0 4000.0 4000.0 4000.0 4000.0 4000.0 4000.0 4000.0 4000.0 4000.0 4000.0 4000.0 4000.0 4000.0 4000.0 4000.0 4000.0 4000.0 4000.0 4000.0 4000.0 4000.0 4000.0 4000.0 4000.0 4000.0 4000.0 4000.0 4000.0 4000.0 4000.0 4000.0 4000.0 4000.0 4000.0 4000.0 4000.0 4000.0 4000.0 4000.0 4000.0 4000.0 4000.0 4000.0 4000.0 4000.0 4000.0 4000.0 4000.0 4000.0 4000.0 4000.0 4000.0 4000.0 4000.0 4000.0 4000.0 4000.0 4000.0 4000.0 4000.0 4000.0 4000.0 4000.0 4000.0 4000.0 4000.0 4000.0 4000.0 4000.0 4000.0 4000.0 4000.0 4000.0 4000.0 4000.0 4000.0 4000.0 4000.0 4000.0 4000.0 4000.0 4000.0 4000.0 4000.0 4000.0 4000.0 4000.0 4000.0 4000.0 4000.0 4000.0 4000.0 4000.0 4000.0 4000.0 4000.0 4000.0 4000.0 4000.0 4000.0 4000.0 4000.0 4000.0 4000.0 4000.0 4000.0 4000.0 4000.0 4000.0 4000.0 4000.0 4000.0 4000.0 4000.0 4000.0 4000.0 4000.0 4000.0 4000.0 4000.0 4000.0 4000.0 4000.0 4000.0 4000.0 4000.0 4000.0 4000.0 4000.0 4000.0 4000.0 4000.0 4000.0 4000.0 4000.0 4000.0 4000.0 4000.0 4000.0 4000.0 4000.0 4000.0 4000.0 4000.0 4000.0 4000.0 4000.0 4000.0 4000.0 4000.0 4000.0 4000.0 4000.0 4000.0 4000.0 4000.0 4000.0 4000.0 4000.0 4000.0 4000.0 4000.0 4000.0 4000.0 4000.0 4000.0 4000.0 4000.0 4000.0 4000.0 4000.0 4000.0 4000.0 4000.0 4000.0 4000.0 4000.0 4000.0 4000.0 4000.0 4000.0 4000.0 4000.0 4000.0 4000.0 4000.0 4000.0 4000.0 4000.0 4000.0 4000.0 4000.0 4000.0 4000.0 4000.0 4000.0 4000.0 4000.0 4000.0 4000.0 4000.0 4000.0 4000.0 4000.0 4000.0 4000.0 4000.0 4000.0 4000.0 4000.0 4000.0 4000.0 4000.0 4000.0 4000.0 4000.0 4000.0 4000.0 4000.0 4000.0 4000.0 4000.0 4000.0 4000.0 4000.0 4000.0 4000.0 4000.0 4000.0 4000.0 4000.0 4000.0 4000.0 4000.0 4000.0 4000.0 4000.0 4000.0 4000.0 4000.0 4000.0 4000.0 4000.0 4000.0 4000.0 4000.0 4000.0 4000.0 4000.0 4000.0 4000.0 4000.0 4000.0 4000.0 4000.0 4000.0 4000.0 4000.0 4000.0 4000.0 4000.0 4000.0 4000.0 4000.0 4000.0 4000.0 4000.0 4000.0 4000.0 4000.0 4000.0 4000.0 4000.0 4000.0 4000.0 4000.0 4000.0 4000.0 4000.0 4000.0 4000.0 4000.0 4000.0 4000.0 4000.0 4000.0 4000.0 4000.0 4000.0 4000.0 4000.0 4000.0 4000.0 4000.0 4000.0 4000.0 4000.0 4000.0 4000.0 4000.0 4000.0 4000.0 4000.0 4000.0 4000.0 4000.0 4000.0 4000.0 4000.0 4000.0 4000.0 4000.0 4000.0 4000.0 4000.0 4000.0 4000.0 4000.0 4000.0 4000.0 4000.0 4000.0 4000.0 4000.0 4000.0 4000.0 4000.0 4000.0 4000.0 4000.0 4000.0 4000.0 4000.0 4000.0 4000.0 4000.0 4000.0 4000.0 4000.0 4000.0 4000.0 4000.0 4000.0 4000.0 4000.0 4000.0 4000.0 4000.0 4000.0 4000.0 4000.0 4000.0 4000.0 4000.0 4000.0 4000.0 4000.0 4000.0 4000.0 4000.0 4000.0 4000.0 4000.0 4000.0 4000.0 4000.0 4000.0 4000.0 4000.0 4000.0 4000.0 4000.0 4000.0 4000.0 4000.0 4000.0 4000.0 4000.0 4000.0 4000.0 4000.0 4000.0 4000.0 4000.0 4000.0 4000.0 4000.0 4000.0 4000.0 4000.0 4000.0 4000.0 4000.0 4000.0 4000.0 4000.0 4000.0 4000.0 4000.0 4000.0 4000.0 4000.0 4000.0 4000.0 4000.0 4000.0 4000.0 4000.0 4000.0 4000.0 4000.0 4000.0 4000.0 4000.0 4000.0 4000.0 4000.0 4000.0 4000.0 4000.0 4000.0 4000.0 4000.0 4000.0 4000.0 4000.0 4000.0 4000.0 4000.0 4000.0 4000.0 4000.0 4000.0 4000.0 4000.0 4000.0 4000.0 4000.0 4000.0 4000.0 4000.0 4000.0 4000.0 4000.0 4000.0 4000.0 4000.0 4000.0 4000.0 4000.0 4000.0 4000.0 4000.0 4000.0 4000.0 4000.0 4000.0 4000.0 4000.0 4000.0 4000.0 4000.0 4000.0 4000.0 4000.0 4000.0 4000.0 4000.0 4000.0 4000.0 4000.0 4000.0 4000.0 4000.0 4000.0 4000.0 4000.0 4000.0 4000.0 4000.0 4000.0 4000.0 4000.0 4000.0 4000.0 4000.0 4000.0 4000.0 4000.0 4000.0 4000.0 4000.0 4000.0 4000.0 4000.0 4000.0 4000.0 4000.0 4000.0 4000.0 4000.0 4000.0 4000.0 4000.0 4000.0 4000.0 4000.0 4000.0 4000.0 4000.0 4000.0 4000.0 4000.0 4000.0 4000.0 4000.0 4000.0 4000.0 4000.0 4000.0 4000.0 4000.0 4000.0 4000.0 4000.0 4000.0 4000.0 4000.0 4000.0 4000.0 4000.0 4000.0 4000.0 4000.0 4000.0 4000.0 4000.0 4000.0 4000.0 4000.0 4000.0 4000.0 4000.0 4000.0 4000.0 4000.0 4000.0 4000.0 4000.0 4000.0 4000.0 4000.0 4000.0 4000.0 4000.0 4000.0 4000.0 4000.0 4000.0 4000.0 4000.0 4000.0 4000.0 4000.0 4000.0 4000.0 4000.0 4000.0 4000.0 4000.0 4000.0 4000.0 4000.0 4000.0 4000.0 4000.0 4000.0 4000.0 4000.0 4000.0 4000.0 4000.0 4000.0 4000.0 4000.0 4000.0 4000.0 4000.0 4000.0 4000.0 4000.0 4000.0 4000.0 4000.0 4000.0 4000.0 4000.0 4000.0 4000.0 4000.0 4000.0 4000.0 4000.0 4000.0 4000.0 4000.0 4000.0 4000.0 4000.0 4000.0 4000.0 4000.0 4000.0 4000.0 4000.0 4000.0 4000.0 4000.0 4000.0 4000.0 4000.0 4000.0 4000.0 4000.0 4000.0 4000.0 4000.0 4000.0 4000.0 4000.0 4000.0 4000.0 4000.0 4000.0 4000.0 4000.0 4000.0 4000.0 4000.0 4000.0 4000.0 4000.0 4000.0 4000.0 4000.0 4000.0 4000.0 4000.0 4000.0 4000.0 4000.0 4000.0 4000.0 4000.0 4000.0 4000.0 4000.0 4000.0 4000.0 4000.0 4000.0 4000.0 4000.0 4000.0 4000.0 4000.0 4000.0 4000.0 4000.0 4000.0 4000.0 4000.0 4000.0 4000.0 4000.0 4000.0 4000.0 4000.0 4000.0 4000.0 4000.0 4000.0 4000.0 4000.0 4000.0 4000.0 4000.0 4000.0 4000.0 4000.0 4000.0 4000.0 4000.0 4000.0 4000.0 4000.0 4000.0 4000.0 4000.0 4000.0 4000.0 4000.0 4000.0 4000.0 4000.0 4000.0 4000.0 4000.0 4000.0 4000.0 4000.0 4000.0 4000.0 4000.0 4000.0 4000.0 4000.0 4000.0 4000.0 4000.0 4000.0 4000.0 4000.0 4000.0 4000.0 4000.0 4000.0 4000.0 4000.0 4000.0 4000.0 4000.0 4000.0 4000.0 4000.0 4000.0 4000.0 4000.0 4000.0 4000.0 4000.0 4000.0 4000.0 4000.0 4000.0 4000.0 4000.0 4000.0 4000.0 4000.0 4000.0 4000.0 4000.0 4000.0 4000.0 4000.0 4000.0 4000.0 4000.0 4000.0 4000.0 4000.0 4000.0 4000.0 4000.0 4000.0 4000.0 4000.0 4000.0 4000.0 4000.0 4000.0 4000.0 4000.0 4000.0 4000.0 4000.0 4000.0 4000.0 4000.0 4000.0 4000.0 4000.0 4000.0 4000.0 4000.0 4000.0 4000.0 4000.0 4000.0 4000.0 4000.0 4000.0 4000.0 4000.0 4000.0 4000.0 4000.0 4000.0 4000.0 4000.0 4000.0 4000.0 4000.0 4000.0 4000.0 4000.0 4000.0 4000.0 4000.0 4000.0 4000.0 4000.0 4000.0 4000.0 4000.0 4000.0 4000.0 4000.0 4000.0 4000.0 4000.0 4000.0 4000.0 4000.0 4000.0 4000.0 4000.0 4000.0 4000.0 4000.0 4000.0 4000.0 4000.0 4000.0 4000.0 4000.0 4000.0 4000.0 4000.0 4000.0 4000.0 4000.0 4000.0 4000.0 4000.0 4000.0 4000.0 4000.0 4000.0 4000.0 4000.0 4000.0 4000.0 4000.0 4000.0 4000.0 4000.0 4000.0 4000.0 4000.0 4000.0 4000.0 4000.0 4000.0 4000.0 4000.0 4000.0 4000.0 4000.0 4000.0 4000.0 4000.0 4000.0 4000.0 4000.0 4000.0 4000.0 4000.0 4000.0 4000.0 4000.0 4000.0 4000.0 4000.0 4000.0 4000.0 4000.0 4000.0 4000.0 4000.0 4000.0 4000.0 4000.0 4000.0 4000.0 4000.0 4000.0 4000.0 4000.0 4000.0 4000.0 4000.0 4000.0 4000.0 4000.0 4000.0 4000.0 4000.0 4000.0 4000.0 4000.0 4000.0 4000.0 4000.0 4000.0 4000.0 4000.0 4000.0 4000.0 4000.0 4000.0 4000.0 4000.0 4000.0 4000.0 4000.0 4000.0 4000.0 4000.0 4000.0 4000.0 4000.0 4000.0 4000.0 4000.0 4000.0 4000.0 4000.0 4000.0 4000.0 4000.0 4000.0 4000.0 4000.0 4000.0 4000.0 4000.0 4000.0 4000.0 4000.0 4000.0 4000.0 4000.0 4000.0 4000.0 4000.0 4000.0 4000.0 4000.0 4000.0 4000.0 4000.0 4000.0 4000.0 4000.0 4000.0 4000.0 4000.0 4000.0 4000.0 4000.0 4000.0 4000.0 4000.0 4000.0 4000.0 4000.0 4000.0 4000.0 4000.0 4000.0 4000.0 4000.0 4000.0 4000.0 4000.0 4000.0 4000.0 4000.0 4000.0 4000.0 4000.0 4000.0 4000.0 4000.0 4000.0 4000.0 4000.0 4000.0 4000.0 4000.0 4000.0 4000.0 4000.0 4000.0 4000.0 4000.0 4000.0 4000.0 4000.0 4000.0 4000.0 4000.0 4000.0 4000.0 4000.0 4000.0 4000.0 4000.0 4000.0 4000.0 4000.0 4000.0 4000.0 4000.0 4000.0 4000.0 4000.0 4000.0 4000.0 4000.0 4000.0 4000.0 4000.0 4000.0 4000.0 4000.0 4000.0 4000.0 4000.0 4000.0 4000.0 4000.0 4000.0 4000.0 4000.0 4000.0 4000.0 4000.0 4000.0 4000.0 4000.0 4000.0 4000.0 4000.0 4000.0 4000.0 4000.0 4000.0 4000.0 4000.0 4000.0 4000.0 4000.0 4000.0 4000.0 4000.0 4000.0 4000.0 4000.0 4000.0 4000.0 4000.0 4000.0 4000.0 4000.0 4000.0 4000.0 4000.0 4000.0 4000.0 4000.0 4000.0 4000.0 4000.0 4000.0 4000.0 4000.0 4000.0 4000.0 4000.0 4000.0 4000.0 4000.0 4000.0 4000.0 4000.0 4000.0 4000.0 4000.0 4000.0 4000.0 4000.0 4000.0 4000.0 4000.0 4000.0 4000.0 4000.0 4000.0 4000.0 4000.0 4000.0 4000.0 4000.0 4000.0 4000.0 4000.0 4000.0 4000.0 4000.0 4000.0 4000.0 4000.0 4000.0 4000.0 4000.0 4000.0 4000.0 4000.0 4000.0 4000.0 4000.0 4000.0 4000.0 4000.0 4000.0 4000.0 4000.0 4000.0 4000.0 4000.0 4000.0 4000.0 4000.0 4000.0 4000.0 4000.0 4000.0 4000.0 4000.0 4000.0 4000.0 4000.0 4000.0 4000.0 4000.0 4000.0 4000.0 4000.0 4000.0 4000.0 4000.0 4000.0 4000.0 4000.0 4000.0 4000.0 4000.0 4000.0 4000.0 4000.0 4000.0 4000.0 4000.0 4000.0 4000.0 4000.0 4000.0 4000.0 4000.0 4000.0 4000.0 4000.0 4000.0 4000.0 4000.0 4000.0 4000.0 4000.0 4000.0 4000.0 4000.0 4000.0 4000.0 4000.0 4000.0 4000.0 4000.0 4000.0 4000.0 4000.0 4000.0 4000.0 4000.0 4000.0 4000.0 4000.0 4000.0 4000.0 4000.0 4000.0 4000.0 4000.0 4000.0 4000.0 4000.0 4000.0 4000.0 4000.0 4000.0 4000.0 4000.0 4000.0 4000.0 4000.0 4000.0 4000.0 4000.0 4000.0 4000.0 4000.0 4000.0 4000.0 4000.0 4000.0 4000.0 4000.0 4000.0 4000.0 4000.0 4000.0 4000.0 4000.0 4000.0 4000.0 4000.0 4000.0 4000.0 4000.0 4000.0 4000.0 4000.0 4000.0 4000.0 4000.0 4000.0 4000.0 4000.0 4000.0 4000.0 4000.0 4000.0 4000.0 4000.0 4000.0 4000.0 4000.0 4000.0 4000.0 4000.0 4000.0 4000.0 4000.0 4000.0 4000.0 4000.0 4000.0 4000.0 4000.0 4000.0 4000.0 4000.0 4000.0 4000.0 4000.0 4000.0 4000.0 4000.0 4000.0 4000.0 4000.0 4000.0 4000.0 4000.0 4000.0 4000.0 4000.0 4000.0 4000.0 4000.0 4000.0 4000.0 4000.0 4000.0 4000.0 4000.0 4000.0 4000.0 4000.0 4000.0 4000.0 4000.0 4000.0 4000.0 4000.0 4000.0 4000.0 4000.0 4000.0 4000.0 4000.0 4000.0 4000.0 4000.0 4000.0 4000.0 4000.0 4000.0 4000.0 4000.0 4000.0 4000.0 4000.0 4000.0 4000.0 4000.0 4000.0 4000.0 4000.0 4000.0 4000.0 4000.0 4000.0 4000.0 4000.0 4000.0 4000.0 4000.0 4000.0 4000.0 4000.0 4000.0 4000.0 4000.0 4000.0 4000.0 4000.0 4000.0 4000.0 4000.0 4000.0 4000.0 4000.0 4000.0 4000.0 4000.0 4000.0 4000.0 4000.0 4000.0 4000.0 4000.0 4000.0 4000.0 4000.0 4000.0 4000.0 4000.0 4000.0 4000.0 4000.0 4000.0 4000.0 4000.0 4000.0 4000.0 4000.0 4000.0 4000.0 4000.0 4000.0 4000.0 4000.0 4000.0 4000.0 4000.0 4000.0 4000.0 4000.0 4000.0 4000.0 4000.0 4000.0 4000.0 4000.0 4000.0 4000.0 4000.0 4000.0 4000.0 4000.0 4000.0 4000.0 4000.0 4000.0 4000.0 4000.0 4000.0 4000.0 4000.0 4000.0 4000.0 4000.0 4000.0 4000.0 4000.0 4000.0 4000.0 4000.0 4000.0 4000.0 4000.0 4000.0 4000.0 4000.0 4000.0 4000.0 4000.0 4000.0 4000.0 4000.0 4000.0 4000.0 4000.0 4000.0 4000.0 4000.0 4000.0 4000.0 4000.0 4000.0 4000.0 4000.0 4000.0 4000.0 4000.0 4000.0 4000.0 4000.0 4000.0 4000.0 4000.0 4000.0 4000.0 4000.0 4000.0 4000.0 4000.0 4000.0 4000.0 4000.0 4000.0 4000.0 4000.0 4000.0 4000.0 4000.0 4000.0 4000.0 4000.0 4000.0 4000.0 4000.0 4000.0 4000.0 4000.0 4000.0 4000.0 4000.0 4000.0 4000.0 4000.0 4000.0 4000.0 4000.0 4000.0 4000.0 4000.0 4000.0 4000.0 4000.0 4000.0 4000.0 4000.0 4000.0 4000.0 4000.0 4000.0 4000.0 4000.0 4000.0 4000.0 4000.0 4000.0 4000.0 4000.0 4000.0 4000.0 4000.0 4000.0 4000.0 4000.0 4000.0 4000.0 4000.0 4000.0 4000.0 4000.0 4000.0 4000.0 4000.0 4000.0 4000.0 4000.0 4000.0 4000.0 4000.0 4000.0 4000.0 4000.0 4000.0 4000.0 4000.0 4000.0 4000.0 4000.0 4000.0 4000.0 4000.0 4000.0 4000.0 4000.0 4000.0 4000.0 4000.0 4000.0 4000.0 4000.0 4000.0 4000.0 4000.0 4000.0 4000.0 4000.0 4000.0 4000.0 4000.0 4000.0 4000.0 4000.0 4000.0 4000.0 4000.0 4000.0 4000.0 4000.0 4000.0 4000.0 4000.0 4000.0 4000.0 4000.0 4000.0 4000.0 4000.0 4000.0 4000.0 4000.0 4000.0 4000.0 4000.0 4000.0 4000.0 4000.0 4000.0 4000.0 4000.0 4000.0 4000.0 4000.0 4000.0 4000.0 4000.0 4000.0 4000.0 4000.0 4000.0 4000.0 4000.0 4000.0 4000.0 4000.0 4000.0 4000.0 4000.0 4000.0 4000.0 4000.0 4000.0 4000.0 4000.0 4000.0 4000.0 4000.0 4000.0 4000.0 4000.0 4000.0 4000.0 4000.0 4000.0 4000.0 4000.0 4000.0 4000.0 4000.0 4000.0 4000.0 4000.0 4000.0 4000.0 4000.0 4000.0 4000.0 4000.0 4000.0 4000.0 4000.0 4000.0 4000.0 4000.0 4000.0 4000.0 4000.0 4000.0 4000.0 4000.0 4000.0 4000.0 4000.0 4000.0 4000.0 4000.0 4000.0 4000.0 4000.0 4000.0 4000.0 4000.0 4000.0 4000.0 4000.0 4000.0 4000.0 4000.0 4000.0 4000.0 4000.0 4000.0 4000.0 4000.0 4000.0 4000.0 4000.0 4000.0 4000.0 4000.0 4000.0 4000.0 4000.0 4000.0 4000.0 4000.0 4000.0 4000.0 4000.0 4000.0 4000.0 4000.0 4000.0 4000.0 4000.0 4000.0 4000.0 4000.0 4000.0 4000.0 4000.0 4000.0 4000.0 4000.0 4000.0 4000.0 4000.0 4000.0 4000.0 4000.0 4000.0 4000.0 4000.0 4000.0 4000.0 4000.0 4000.0 4000.0 4000.0 4000.0 4000.0 4000.0 4000.0 4000.0 4000.0 4000.0 4000.0 4000.0 4000.0 4000.0 4000.0 4000.0 4000.0 4000.0 4000.0 4000.0 4000.0 4000.0 4000.0 4000.0 4000.0 4000.0 4000.0 4000.0 4000.0 4000.0 4000.0 4000.0 4000.0 4000.0 4000.0 4000.0 4000.0 4000.0 4000.0 4000.0 4000.0 4000.0 4000.0 4000.0 4000.0 4000.0 4000.0 4000.0 4000.0 4000.0 4000.0 4000.0 4000.0 4000.0 4000.0 4000.0 4000.0 4000.0 4000.0 4000.0 4000.0 4000.0 4000.0 4000.0 4000.0 4000.0 4000.0 4000.0 4000.0 4000.0 4000.0 4000.0 4000.0 4000.0 4000.0 4000.0 4000.0 4000.0 4000.0 4000.0 4000.0 4000.0 4000.0 4000.0 4000.0 4000.0 4000.0 4000.0 4000.0 4000.0 4000.0 4000.0 4000.0 4000.0 4000.0 4000.0 4000.0 4000.0 4000.0 4000.0 4000.0 4000.0 4000.0 4000.0 4000.0 4000.0 4000.0 4000.0 4000.0 4000.0 4000.0 4000.0 4000.0 4000.0 4000.0 4000.0 4000.0 4000.0 4000.0 4000.0 4000.0 4000.0 4000.0 4000.0 4000.0 4000.0 4000.0 4000.0 4000.0 4000.0 4000.0 4000.0 4000.0 4000.0 4000.0 4000.0 4000.0 4000.0 4000.0 4000.0 4000.0 4000.0 4000.0 4000.0 4000.0 4000.0 4000.0 4000.0 4000.0 4000.0 4000.0 4000.0 4000.0 4000.0 4000.0 4000.0 4000.0 4000.0 4000.0 4000.0 4000.0 4000.0 4000.0 4000.0 4000.0 4000.0 4000.0 4000.0 4000.0 4000.0 4000.0 4000.0 4000.0 4000.0 4000.0 4000.0 4000.0 4000.0 4000.0 4000.0 4000.0 4000.0 4000.0 4000.0 4000.0 4000.0 4000.0 4000.0 4000.0 4000.0 4000.0 4000.0 4000.0 4000.0 4000.0 4000.0 4000.0 4000.0 4000.0 4000.0 4000.0 4000.0 4000.0 4000.0 4000.0 4000.0 4000.0 4000.0 4000.0 4000.0 4000.0 4000.0 4000.0 4000.0 4000.0 4000.0 4000.0 4000.0 4000.0 4000.0 4000.0 4000.0 4000.0 4000.0 4000.0 4000.0 4000.0 4000.0 4000.0 4000.0 4000.0 4000.0 4000.0 4000.0 4000.0 4000.0 4000.0 4000.0 4000.0 4000.0 4000.0 4000.0 4000.0 4000.0 4000.0 4000.0 4000.0 4000.0 4000.0 4000.0 4000.0 4000.0 4000.0 4000.0 4000.0 4000.0 4000.0 4000.0 4000.0 4000.0 4000.0 4000.0 4000.0 4000.0 4000.0 4000.0 4000.0 4000.0 4000.0 4000.0 4000.0 4000.0 4000.0 4000.0 4000.0 4000.0 4000.0 4000.0 4000.0 4000.0 4000.0 4000.0 4000.0 4000.0 4000.0 4000.0 4000.0 4000.0 4000.0 4000.0 4000.0 4000.0 4000.0 4000.0 4000.0 4000.0 4000.0 4000.0 4000.0 4000.0 4000.0 4000.0 4000.0 4000.0 4000.0 4000.0 4000.0 4000.0 4000.0 4000.0 4000.0 4000.0 4000.0 4000.0 4000.0 4000.0 4000.0 4000.0 4000.0 4000.0 4000.0 4000.0 4000.0 4000.0 4000.0 4000.0 4000.0 4000.0 4000.0 4000.0 4000.0 4000.0 4000.0 4000.0 4000.0 4000.0 4000.0 4000.0 4000.0 4000.0 4000.0 4000.0 4000.0 4000.0 4000.0 4000.0 4000.0 4000.0 4000.0 4000.0 4000.0 4000.0 4000.0 4000.0 4000.0 4000.0 4000.0 4000.0 4000.0 4000.0 4000.0 4000.0 4000.0 4000.0 4000.0 4000.0 4000.0 4000.0 4000.0 4000.0 4000.0 4000.0 4000.0 4000.0 4000.0 4000.0 4000.0 4000.0 4000.0 4000.0 4000.0 4000.0 4000.0 4000.0 4000.0 4000.0 4000.0 4000.0 4000.0 4000.0 4000.0 4000.0 4000.0 4000.0 4000.0 4000.0 4000.0 4000.0 4000.0 4000.0 4000.0 4000.0 4000.0 4000.0 4000.0 4000.0 4000.0 4000.0 4000.0 4000.0 4000.0 4000.0 4000.0 4000.0 4000.0 4000.0 4000.0 4000.0 4000.0 4000.0 4000.0 4000.0 4000.0 4000.0 4000.0 4000.0 4000.0 4000.0 4000.0 4000.0 4000.0 4000.0 4000.0 4000.0 4000.0 4000.0 4000.0 4000.0 4000.0 4000.0 4000.0 4000.0 4000.0 4000.0 4000.0 4000.0 4000.0 4000.0 4000.0 4000.0 4000.0 4000.0 4000.0 4000.0 4000.0 4000.0 4000.0 4000.0 4000.0 4000.0 4000.0 4000.0 4000.0 4000.0 4000.0 4000.0 4000.0 4000.0 4000.0 4000.0 4000.0 4000.0 4000.0 4000.0 4000.0 4000.0 4000.0 4000.0 4000.0 4000.0 4000.0 4000.0 4000.0 4000.0 4000.0 4000.0 4000.0 4000.0 4000.0 4000.0 4000.0 4000.0 4000.0 4000.0 4000.0 4000.0 4000.0 4000.0 4000.0 4000.0 4000.0 4000.0 4000.0 4000.0 4000.0 4000.0 4000.0 4000.0 4000.0 4000.0 4000.0 4000.0 4000.0 4000.0 4000.0 4000.0 4000.0 4000.0 4000.0 4000.0 4000.0 4000.0 4000.0 4000.0 4000.0 4000.0 4000.0 4000.0 4000.0 4000.0 4000.0 4000.0 4000.0 4000.0 4000.0 4000.0 4000.0 4000.0 4000.0 4000.0 4000.0 4000.0 4000.0 4000.0 4000.0 4000.0 4000.0 4000.0 4000.0 4000.0 4000.0 4000.0 4000.0 4000.0 4000.0 4000.0 4000.0 4000.0 4000.0 4000.0 4000.0 4000.0 4000.0 4000.0 4000.0 4000.0 4000.0 4000.0 4000.0 4000.0 4000.0 4000.0 4000.0 4000.0 4000.0 4000.0 4000.0 4000.0 4000.0 4000.0 4000.0 4000.0 4000.0 4000.0 4000.0 4000.0 4000.0 4000.0 4000.0 4000.0 4000.0 4000.0 4000.0 4000.0 4000.0 4000.0 4000.0 4000.0 4000.0 4000.0 4000.0 4000.0 4000.0 4000.0 4000.0 4000.0 4000.0 4000.0 4000.0 4000.0 4000.0 4000.0 4000.0 4000.0 4000.0 4000.0 4000.0 4000.0 4000.0 4000.0 4000.0 4000.0 4000.0 4000.0 4000.0 4000.0 4000.0 4000.0 4000.0 4000.0 4000.0 4000.0 4000.0 4000.0 4000.0 4000.0 4000.0 4000.0 4000.0 4000.0 4000.0 4000.0 4000.0 4000.0 4000.0 4000.0 4000.0 4000.0 4000.0 4000.0 4000.0 4000.0 4000.0 4000.0 4000.0 4000.0 4000.0 4000.0 4000.0 4000.0 4000.0 4000.0 4000.0 4000.0 4000.0 4000.0 4000.0 4000.0 4000.0 4000.0 4000.0 4000.0 4000.0 4000.0 4000.0 4000.0 4000.0 4000.0 4000.0 4000.0 4000.0 4000.0 4000.0 4000.0 4000.0 4000.0 4000.0 4000.0 4000.0 4000.0 4000.0 4000.0 4000.0 4000.0 4000.0 4000.0 4000.0 4000.0 4000.0 4000.0 4000.0 4000.0 4000.0 4000.0 4000.0 4000.0 4000.0 4000.0 4000.0 4000.0 4000.0 4000.0 4000.0 4000.0 4000.0 4000.0 4000.0 4000.0 4000.0 4000.0 4000.0 4000.0 4000.0 4000.0 4000.0 4000.0 4000.0 4000.0 4000.0 4000.0 4000.0 4000.0 4000.0 4000.0 4000.0 4000.0 4000.0 4000.0 4000.0 4000.0 4000.0 4000.0 4000.0 4000.0 4000.0 4000.0 4000.0 4000.0 4000.0 4000.0 4000.0 4000.0 4000.0 4000.0 4000.0 4000.0 4000.0 4000.0 4000.0 4000.0 4000.0 4000.0 4000.0 4000.0 4000.0 4000.0 4000.0 4000.0 4000.0 4000.0 4000.0 4000.0 4000.0 4000.0 4000.0 4000.0 4000.0 4000.0 4000.0 4000.0 4000.0 4000.0 4000.0 4000.0 4000.0 4000.0 4000.0 4000.0 4000.0 4000.0 4000.0 4000.0 4000.0 4000.0 4000.0 4000.0 4000.0 4000.0 4000.0 4000.0 4000.0 4000.0 4000.0 4000.0 4000.0 4000.0 4000.0 4000.0 4000.0 4000.0 4000.0 4000.0 4000.0 4000.0 4000.0 4000.0 4000.0 4000.0 4000.0 4000.0 4000.0 4000.0 4000.0 4000.0 4000.0 4000.0 4000.0 4000.0 4000.0 4000.0 4000.0 4000.0 4000.0 4000.0 4000.0 4000.0 4000.0 4000.0 4000.0 4000.0 4000.0 4000.0 4000.0 4000.0 4000.0 4000.0 4000.0 4000.0 4000.0 4000.0 4000.0 4000.0 4000.0 4000.0 4000.0 4000.0 4000.0 4000.0 4000.0 4000.0 4000.0 4000.0 4000.0 4000.0 4000.0 4000.0 4000.0 4000.0 4000.0 4000.0 4000.0 4000.0 4000.0 4000.0 4000.0 4000.0 4000.0 4000.0 4000.0 4000.0 4000.0 4000.0 4000.0 4000.0 4000.0 4000.0 4000.0 4000.0 4000.0 4000.0 4000.0 4000.0 4000.0 4000.0 4000.0 4000.0 4000.0 4000.0 4000.0 4000.0 4000.0 4000.0 4000.0 4000.0 4000.0 4000.0 4000.0 4000.0 4000.0 4000.0 4000.0 4000.0 4000.0 4000.0 4000.0 4000.0 4000.0 4000.0 4000.0 4000.0 4000.0 4000.0 4000.0 4000.0 4000.0 4000.0 4000.0 4000.0 4000.0 4000.0 4000.0 4000.0 4000.0 4000.0 4000.0 4000.0 4000.0 4000.0 4000.0 4000.0 4000.0 4000.0 4000.0 4000.0 4000.0 4000.0 4000.0 4000.0 4000.0 4000.0 4000.0 4000.0 4000.0 4000.0 4000.0 4000.0 4000.0 4000.0 4000.0 4000.0 4000.0 4000.0 4000.0 4000.0 4000.0 4000.0 4000.0 4000.0 4000.0 4000.0 4000.0 4000.0 4000.0 4000.0 4000.0 4000.0 4000.0 4000.0 4000.0 4000.0 4000.0 4000.0 4000.0 4000.0 4000.0 4000.0 4000.0 4000.0 4000.0 4000.0 4000.0 4000.0 4000.0 4000.0 4000.0 4000.0 4000.0 4000.0 4000.0 4000.0 4000.0 4000.0 4000.0 4000.0 4000.0 4000.0 4000.0 4000.0 4000.0 4000.0 4000.0 4000.0 4000.0 4000.0 4000.0 4000.0 4000.0 4000.0 4000.0 4000.0 4000.0 4000.0 4000.0 4000.0 4000.0 4000.0 4000.0 4000.0 4000.0 4000.0 4000.0 4000.0 4000.0 4000.0 4000.0 4000.0 4000.0 4000.0 4000.0 4000.0 4000.0 4000.0 4000.0 4000.0 4000.0 4000.0 4000.0 4000.0 4000.0 4000.0 4000.0 4000.0 4000.0 4000.0 4000.0 4000.0 4000.0 4000.0 4000.0 4000.0 4000.0 4000.0 4000.0 4000.0 4000.0 4000.0 4000.0 4000.0 4000.0 4000.0 4000.0 4000.0 4000.0 4000.0 4000.0 4000.0 4000.0 4000.0 4000.0 4000.0 4000.0 4000.0 4000.0 4000.0 4000.0 4000.0 4000.0 4000.0 4000.0 4000.0 4000.0 4000.0 4000.0 4000.0 4000.0 4000.0 4000.0 4000.0 4000.0 4000.0 4000.0 4000.0 4000.0 4000.0 4000.0 4000.0 4000.0 4000.0 4000.0 4000.0 4000.0 4000.0 4000.0 4000.0 4000.0 4000.0 4000.0 4000.0 4000.0 4000.0 4000.0 4000.0 4000.0 4000.0 4000.0 4000.0 4000.0 4000.0 4000.0 4000.0 4000.0 4000.0 4000.0 4000.0 4000.0 4000.0 4000.0 4000.0 4000.0 4000.0 4000.0 4000.0 4000.0 4000.0 4000.0 4000.0 4000.0 4000.0 4000.0 4000.0 4000.0 4000.0 4000.0 4000.0 4000.0 4000.0 4000.0 4000.0 4000.0 4000.0 4000.0 4000.0 4000.0 4000.0 4000.0 4000.0 4000.0 4000.0 4000.0 4000.0 4000.0 4000.0 4000.0 4000.0 4000.0 4000.0 4000.0 4000.0 4000.0 4000.0 4000.0 4000.0 4000.0 4000.0 4000.0 4000.0 4000.0 4000.0 4000.0 4000.0 4000.0 4000.0 4000.0 4000.0 4000.0 4000.0 4000.0 4000.0 4000.0 4000.0 4000.0 4000.0 4000.0 4000.0 4000.0 4000.0 4000.0 4000.0 4000.0 4000.0 4000.0 4000.0 4000.0 4000.0 4000.0 4000.0 4000.0 4000.0 4000.0 4000.0 4000.0 4000.0 4000.0 4000.0 4000.0 4000.0 4000.0 4000.0 4000.0 4000.0 4000.0 4000.0 4000.0 4000.0 4000.0 4000.0 4000.0 4000.0 4000.0 4000.0 4000.0 4000.0 4000.0 4000.0 4000.0 4000.0 4000.0 4000.0 4000.0 4000.0 4000.0 4000.0 4000.0 4000.0 4000.0 4000.0 4000.0 4000.0 4000.0 4000.0 4000.0 4000.0 4000.0 4000.0 4000.0 4000.0 4000.0 4000.0 4000.0 4000.0 4000.0 4000.0 4000.0 4000.0 4000.0 4000.0 4000.0 4000.0 4000.0 4000.0 4000.0 4000.0 4000.0 4000.0 4000.0 4000.0 4000.0 4000.0 4000.0 4000.0 4000.0 4000.0 4000.0 4000.0 4000.0 4000.0 4000.0 4000.0 4000.0 4000.0 4000.0 4000.0 4000.0 4000.0 4000.0 4000.0 4000.0 4000.0 4000.0 4000.0 4000.0 4000.0 4000.0 4000.0 4000.0 4000.0 4000.0 4000.0 4000.0 4000.0 4000.0 4000.0 4000.0 4000.0 4000.0 4000.0 4000.0 4000.0 4000.0 4000.0 4000.0 4000.0 4000.0 4000.0 4000.0 4000.0 4000.0 4000.0 4000.0 4000.0 4000.0 4000.0 4000.0 4000.0 4000.0 4000.0 4000.0 4000.0 4000.0 4000.0 4000.0 4000.0 4000.0 4000.0 4000.0 4000.0 4000.0 4000.0 4000.0 4000.0 4000.0 4000.0 4000.0 4000.0 4000.0 4000.0 4000.0 4000.0 4000.0 4000.0 4000.0 4000.0 4000.0 4000.0 4000.0 4000.0 4000.0 4000.0 4000.0 4000.0 4000.0 4000.0 4000.0 4000.0 4000.0 4000.0 4000.0 4000.0 4000.0 4000.0 4000.0 4000.0 4000.0 4000.0 4000.0 4000.0 4000.0 4000.0 4000.0 4000.0 4000.0 4000.0 4000.0 4000.0 4000.0 4000.0 4000.0 4000.0 4000.0 4000.0 4000.0 4000.0 4000.0 4000.0 4000.0 4000.0 4000.0 4000.0 4000.0 4000.0 4000.0 4000.0 4000.0 4000.0 4000.0 4000.0 4000.0 4000.0 4000.0 4000.0 4000.0 4000.0 4000.0 4000.0 4000.0 4000.0 4000.0 4000.0 4000.0 4000.0 4000.0 4000.0 4000.0 4000.0 4000.0 4000.0 4000.0 4000.0 4000.0 4000.0 4000.0 4000.0 4000.0 4000.0 4000.0 4000.0 4000.0 4000.0 4000.0 4000.0 4000.0 4000.0 4000.0 4000.0 4000.0 4000.0 4000.0 4000.0 4000.0 4000.0 4000.0 4000.0 4000.0 4000.0 4000.0 4000.0 4000.0 4000.0 4000.0 4000.0 4000.0 4000.0 4000.0 4000.0 4000.0 4000.0 4000.0 4000.0 4000.0 4000.0 4000.0 4000.0 4000.0 4000.0 4000.0 4000.0 4000.0 4000.0 4000.0 4000.0 4000.0 4000.0 4000.0 4000.0 4000.0 4000.0 4000.0 4000.0 4000.0 4000.0 4000.0 4000.0 4000.0 4000.0 4000.0 4000.0 4000.0 4000.0 4000.0 4000.0 4000.0 4000.0 4000.0 4000.0 4000.0 4000.0 4000.0 4000.0 4000.0 4000.0 4000.0 4000.0 4000.0 4000.0 4000.0 4000.0 4000.0 4000.0 4000.0 4000.0 4000.0 4000.0 4000.0 4000.0 4000.0 4000.0 4000.0 4000.0 4000.0 4000.0 4000.0 4000.0 4000.0 4000.0 4000.0 4000.0 4000.0 4000.0 4000.0 4000.0 4000.0 4000.0 4000.0 4000.0 4000.0 4000.0 4000.0 4000.0 4000.0 4000.0 4000.0 4000.0 4000.0 4000.0 4000.0 4000.0 4000.0 4000.0 4000.0 4000.0 4000.0 4000.0 4000.0 4000.0 4000.0 4000.0 4000.0 4000.0 4000.0 4000.0 4000.0 4000.0 4000.0 4000.0 4000.0 4000.0 4000.0 4000.0 4000.0 4000.0 4000.0 4000.0 4000.0 4000.0 4000.0 4000.0 4000.0 4000.0 4000.0 4000.0 4000.0 4000.0 4000.0 4000.0 4000.0 4000.0 4000.0 4000.0 4000.0 4000.0 4000.0 4000.0 4000.0 4000.0 4000.0 4000.0 4000.0 4000.0 4000.0 4000.0 4000.0 4000.0 4000.0 4000.0 4000.0 4000.0 4000.0 4000.0 4000.0 4000.0 4000.0 4000.0 4000.0 4000.0 4000.0 4000.0 4000.0 4000.0 4000.0 4000.0 4000.0 4000.0 4000.0 4000.0 4000.0 4000.0 4000.0 4000.0 4000.0 4000.0 4000.0 4000.0 4000.0 4000.0 4000.0 4000.0 4000.0 4000.0 4000.0 4000.0 4000.0 4000.0 4000.0 4000.0 4000.0 4000.0 4000.0 4000.0 4000.0 4000.0 4000.0 4000.0 4000.0 4000.0 4000.0 4000.0 4000.0 4000.0 4000.0 4000.0 4000.0 4000.0 4000.0 4000.0 4000.0 4000.0 4000.0 4000.0 4000.0 4000.0 4000.0 4000.0 4000.0 4000.0 4000.0 4000.0 4000.0 4000.0 4000.0 4000.0 4000.0 4000.0 4000.0 4000.0 4000.0 4000.0 4000.0 4000.0 4000.0 4000.0 4000.0 4000.0 4000.0 4000.0 4000.0 4000.0 4000.0 4000.0 4000.0 4000.0 4000.0 4000.0 4000.0 4000.0 4000.0 4000.0 4000.0 4000.0 4000.0 4000.0 4000.0 4000.0 4000.0 4000.0 4000.0 4000.0 4000.0 4000.0 4000.0 4000.0 4000.0 4000.0 4000.0 4000.0 4000.0 4000.0 4000.0 4000.0 4000.0 4000.0 4000.0 4000.0 4000.0 4000.0 4000.0 4000.0 4000.0 4000.0 4000.0 4000.0 4000.0 4000.0 4000.0 4000.0 4000.0 4000.0 4000.0 4000.0 4000.0 4000.0 4000.0 4000.0 4000.0 4000.0 4000.0 4000.0 4000.0 4000.0 4000.0 4000.0 4000.0 4000.0 4000.0 4000.0 SCALARS Mass float 1
LOOKUP_TABLE default
11309700000.0 11309700000.0 11309700000.0 11309700000.0 11309700000.0 11309700000.0 11309700000.0 11309700000.0 11309700000.0 11309700000.0 11309700000.0 11309700000.0 11309700000.0 11309700000.0 11309700000.0 11309700000.0 11309700000.0 11309700000.0 11309700000.0 11309700000.0 11309700000.0 11309700000.0 11309700000.0 11309700000.0 11309700000.0 11309700000.0 11309700000.0 11309700000.0 11309700000.0 11309700000.0 11309700000.0 11309700000.0 11309700000.0 11309700000.0 11309700000.0 11309700000.0 11309700000.0 11309700000.0 11309700000.0 11309700000.0 11309700000.0 11309700000.0 11309700000.0 11309700000.0 11309700000.0 11309700000.0 11309700000.0 11309700000.0 11309700000.0 11309700000.0 11309700000.0 11309700000.0 11309700000.0 11309700000.0 11309700000.0 11309700000.0 11309700000.0 11309700000.0 11309700000.0 11309700000.0 11309700000.0 11309700000.0 11309700000.0 11309700000.0 11309700000.0 11309700000.0 11309700000.0 11309700000.0 11309700000.0 11309700000.0 11309700000.0 11309700000.0 11309700000.0 11309700000.0 11309700000.0 11309700000.0 11309700000.0 11309700000.0 11309700000.0 11309700000.0 11309700000.0 11309700000.0 11309700000.0 11309700000.0 11309700000.0 11309700000.0 11309700000.0 11309700000.0 11309700000.0 11309700000.0 11309700000.0 11309700000.0 11309700000.0 11309700000.0 11309700000.0 11309700000.0 11309700000.0 11309700000.0 11309700000.0 11309700000.0 11309700000.0 11309700000.0 11309700000.0 11309700000.0 11309700000.0 11309700000.0 11309700000.0 11309700000.0 11309700000.0 11309700000.0 11309700000.0 11309700000.0 11309700000.0 11309700000.0 11309700000.0 11309700000.0 11309700000.0 11309700000.0 11309700000.0 11309700000.0 11309700000.0 11309700000.0 11309700000.0 11309700000.0 11309700000.0 11309700000.0 11309700000.0 11309700000.0 11309700000.0 11309700000.0 11309700000.0 11309700000.0 11309700000.0 11309700000.0 11309700000.0 11309700000.0 11309700000.0 11309700000.0 11309700000.0 11309700000.0 11309700000.0 11309700000.0 11309700000.0 11309700000.0 11309700000.0 11309700000.0 11309700000.0 11309700000.0 11309700000.0 11309700000.0 11309700000.0 11309700000.0 11309700000.0 11309700000.0 11309700000.0 11309700000.0 11309700000.0 11309700000.0 11309700000.0 11309700000.0 11309700000.0 11309700000.0 11309700000.0 11309700000.0 11309700000.0 11309700000.0 11309700000.0 11309700000.0 11309700000.0 11309700000.0 11309700000.0 11309700000.0 11309700000.0 11309700000.0 11309700000.0 11309700000.0 11309700000.0 11309700000.0 11309700000.0 11309700000.0 11309700000.0 11309700000.0 11309700000.0 11309700000.0 11309700000.0 11309700000.0 11309700000.0 11309700000.0 11309700000.0 11309700000.0 11309700000.0 11309700000.0 11309700000.0 11309700000.0 11309700000.0 11309700000.0 11309700000.0 11309700000.0 11309700000.0 11309700000.0 11309700000.0 11309700000.0 11309700000.0 11309700000.0 11309700000.0 11309700000.0 11309700000.0 11309700000.0 11309700000.0 11309700000.0 11309700000.0 11309700000.0 11309700000.0 11309700000.0 11309700000.0 11309700000.0 11309700000.0 11309700000.0 11309700000.0 11309700000.0 11309700000.0 11309700000.0 11309700000.0 11309700000.0 11309700000.0 11309700000.0 11309700000.0 11309700000.0 11309700000.0 11309700000.0 11309700000.0 11309700000.0 11309700000.0 11309700000.0 11309700000.0 11309700000.0 11309700000.0 11309700000.0 11309700000.0 11309700000.0 11309700000.0 11309700000.0 11309700000.0 11309700000.0 11309700000.0 11309700000.0 11309700000.0 11309700000.0 11309700000.0 11309700000.0 11309700000.0 11309700000.0 11309700000.0 11309700000.0 11309700000.0 11309700000.0 11309700000.0 11309700000.0 11309700000.0 11309700000.0 11309700000.0 11309700000.0 11309700000.0 11309700000.0 11309700000.0 11309700000.0 11309700000.0 11309700000.0 11309700000.0 11309700000.0 11309700000.0 11309700000.0 11309700000.0 11309700000.0 11309700000.0 11309700000.0 11309700000.0 11309700000.0 11309700000.0 11309700000.0 11309700000.0 11309700000.0 11309700000.0 11309700000.0 11309700000.0 11309700000.0 11309700000.0 11309700000.0 11309700000.0 11309700000.0 11309700000.0 11309700000.0 11309700000.0 11309700000.0 11309700000.0 11309700000.0 11309700000.0 11309700000.0 11309700000.0 11309700000.0 11309700000.0 11309700000.0 11309700000.0 11309700000.0 11309700000.0 11309700000.0 11309700000.0 11309700000.0 11309700000.0 11309700000.0 11309700000.0 11309700000.0 11309700000.0 11309700000.0 11309700000.0 11309700000.0 11309700000.0 11309700000.0 11309700000.0 11309700000.0 11309700000.0 11309700000.0 11309700000.0 11309700000.0 11309700000.0 11309700000.0 11309700000.0 11309700000.0 11309700000.0 11309700000.0 11309700000.0 11309700000.0 11309700000.0 11309700000.0 11309700000.0 11309700000.0 11309700000.0 11309700000.0 11309700000.0 11309700000.0 11309700000.0 11309700000.0 11309700000.0 11309700000.0 11309700000.0 11309700000.0 11309700000.0 11309700000.0 11309700000.0 11309700000.0 11309700000.0 11309700000.0 11309700000.0 11309700000.0 11309700000.0 11309700000.0 11309700000.0 11309700000.0 11309700000.0 11309700000.0 11309700000.0 11309700000.0 11309700000.0 11309700000.0 11309700000.0 11309700000.0 11309700000.0 11309700000.0 11309700000.0 11309700000.0 11309700000.0 11309700000.0 11309700000.0 11309700000.0 11309700000.0 11309700000.0 11309700000.0 11309700000.0 11309700000.0 11309700000.0 11309700000.0 11309700000.0 11309700000.0 11309700000.0 11309700000.0 11309700000.0 11309700000.0 11309700000.0 11309700000.0 11309700000.0 11309700000.0 11309700000.0 11309700000.0 11309700000.0 11309700000.0 11309700000.0 11309700000.0 11309700000.0 11309700000.0 11309700000.0 11309700000.0 11309700000.0 11309700000.0 11309700000.0 11309700000.0 11309700000.0 11309700000.0 11309700000.0 11309700000.0 11309700000.0 11309700000.0 11309700000.0 11309700000.0 11309700000.0 11309700000.0 11309700000.0 11309700000.0 11309700000.0 11309700000.0 11309700000.0 11309700000.0 11309700000.0 11309700000.0 11309700000.0 11309700000.0 11309700000.0 11309700000.0 11309700000.0 11309700000.0 11309700000.0 11309700000.0 11309700000.0 11309700000.0 11309700000.0 11309700000.0 11309700000.0 11309700000.0 11309700000.0 11309700000.0 11309700000.0 11309700000.0 11309700000.0 11309700000.0 11309700000.0 11309700000.0 11309700000.0 11309700000.0 11309700000.0 11309700000.0 11309700000.0 11309700000.0 11309700000.0 11309700000.0 11309700000.0 11309700000.0 11309700000.0 11309700000.0 11309700000.0 11309700000.0 11309700000.0 11309700000.0 11309700000.0 11309700000.0 11309700000.0 11309700000.0 11309700000.0 11309700000.0 11309700000.0 11309700000.0 11309700000.0 11309700000.0 11309700000.0 11309700000.0 11309700000.0 11309700000.0 11309700000.0 11309700000.0 11309700000.0 11309700000.0 11309700000.0 11309700000.0 11309700000.0 11309700000.0 11309700000.0 11309700000.0 11309700000.0 11309700000.0 11309700000.0 11309700000.0 11309700000.0 11309700000.0 11309700000.0 11309700000.0 11309700000.0 11309700000.0 11309700000.0 11309700000.0 11309700000.0 11309700000.0 11309700000.0 11309700000.0 11309700000.0 11309700000.0 11309700000.0 11309700000.0 11309700000.0 11309700000.0 11309700000.0 11309700000.0 11309700000.0 11309700000.0 11309700000.0 11309700000.0 11309700000.0 11309700000.0 11309700000.0 11309700000.0 11309700000.0 11309700000.0 11309700000.0 11309700000.0 11309700000.0 11309700000.0 11309700000.0 11309700000.0 11309700000.0 11309700000.0 11309700000.0 11309700000.0 11309700000.0 11309700000.0 11309700000.0 11309700000.0 11309700000.0 11309700000.0 11309700000.0 11309700000.0 11309700000.0 11309700000.0 11309700000.0 11309700000.0 11309700000.0 11309700000.0 11309700000.0 11309700000.0 11309700000.0 11309700000.0 11309700000.0 11309700000.0 11309700000.0 11309700000.0 11309700000.0 11309700000.0 11309700000.0 11309700000.0 11309700000.0 11309700000.0 11309700000.0 11309700000.0 11309700000.0 11309700000.0 11309700000.0 11309700000.0 11309700000.0 11309700000.0 11309700000.0 11309700000.0 11309700000.0 11309700000.0 11309700000.0 11309700000.0 11309700000.0 11309700000.0 11309700000.0 11309700000.0 11309700000.0 11309700000.0 11309700000.0 11309700000.0 11309700000.0 11309700000.0 11309700000.0 11309700000.0 11309700000.0 11309700000.0 11309700000.0 11309700000.0 11309700000.0 11309700000.0 11309700000.0 11309700000.0 11309700000.0 11309700000.0 11309700000.0 11309700000.0 11309700000.0 11309700000.0 11309700000.0 11309700000.0 11309700000.0 11309700000.0 11309700000.0 11309700000.0 11309700000.0 11309700000.0 11309700000.0 11309700000.0 11309700000.0 11309700000.0 11309700000.0 11309700000.0 11309700000.0 11309700000.0 11309700000.0 11309700000.0 11309700000.0 11309700000.0 11309700000.0 11309700000.0 11309700000.0 11309700000.0 11309700000.0 11309700000.0 11309700000.0 11309700000.0 11309700000.0 11309700000.0 11309700000.0 11309700000.0 11309700000.0 11309700000.0 11309700000.0 11309700000.0 11309700000.0 11309700000.0 11309700000.0 11309700000.0 11309700000.0 11309700000.0 11309700000.0 11309700000.0 11309700000.0 11309700000.0 11309700000.0 11309700000.0 11309700000.0 11309700000.0 11309700000.0 11309700000.0 11309700000.0 11309700000.0 11309700000.0 11309700000.0 11309700000.0 11309700000.0 11309700000.0 11309700000.0 11309700000.0 11309700000.0 11309700000.0 11309700000.0 11309700000.0 11309700000.0 11309700000.0 11309700000.0 11309700000.0 11309700000.0 11309700000.0 11309700000.0 11309700000.0 11309700000.0 11309700000.0 11309700000.0 11309700000.0 11309700000.0 11309700000.0 11309700000.0 11309700000.0 11309700000.0 11309700000.0 11309700000.0 11309700000.0 11309700000.0 11309700000.0 11309700000.0 11309700000.0 11309700000.0 11309700000.0 11309700000.0 11309700000.0 11309700000.0 11309700000.0 11309700000.0 11309700000.0 11309700000.0 11309700000.0 11309700000.0 11309700000.0 11309700000.0 11309700000.0 11309700000.0 11309700000.0 11309700000.0 11309700000.0 11309700000.0 11309700000.0 11309700000.0 11309700000.0 11309700000.0 11309700000.0 11309700000.0 11309700000.0 11309700000.0 11309700000.0 11309700000.0 11309700000.0 11309700000.0 11309700000.0 11309700000.0 11309700000.0 11309700000.0 11309700000.0 11309700000.0 11309700000.0 11309700000.0 11309700000.0 11309700000.0 11309700000.0 11309700000.0 11309700000.0 11309700000.0 11309700000.0 11309700000.0 11309700000.0 11309700000.0 11309700000.0 11309700000.0 11309700000.0 11309700000.0 11309700000.0 11309700000.0 11309700000.0 11309700000.0 11309700000.0 11309700000.0 11309700000.0 11309700000.0 11309700000.0 11309700000.0 11309700000.0 11309700000.0 11309700000.0 11309700000.0 11309700000.0 11309700000.0 11309700000.0 11309700000.0 11309700000.0 11309700000.0 11309700000.0 11309700000.0 11309700000.0 11309700000.0 11309700000.0 11309700000.0 11309700000.0 11309700000.0 11309700000.0 11309700000.0 11309700000.0 11309700000.0 11309700000.0 11309700000.0 11309700000.0 11309700000.0 11309700000.0 11309700000.0 11309700000.0 11309700000.0 11309700000.0 11309700000.0 11309700000.0 11309700000.0 11309700000.0 11309700000.0 11309700000.0 11309700000.0 11309700000.0 11309700000.0 11309700000.0 11309700000.0 11309700000.0 11309700000.0 11309700000.0 11309700000.0 11309700000.0 11309700000.0 11309700000.0 11309700000.0 11309700000.0 11309700000.0 11309700000.0 11309700000.0 11309700000.0 11309700000.0 11309700000.0 11309700000.0 11309700000.0 11309700000.0 11309700000.0 11309700000.0 11309700000.0 11309700000.0 11309700000.0 11309700000.0 11309700000.0 11309700000.0 11309700000.0 11309700000.0 11309700000.0 11309700000.0 11309700000.0 11309700000.0 11309700000.0 11309700000.0 11309700000.0 11309700000.0 11309700000.0 11309700000.0 11309700000.0 11309700000.0 11309700000.0 11309700000.0 11309700000.0 11309700000.0 11309700000.0 11309700000.0 11309700000.0 11309700000.0 11309700000.0 11309700000.0 11309700000.0 11309700000.0 11309700000.0 11309700000.0 11309700000.0 11309700000.0 11309700000.0 11309700000.0 11309700000.0 11309700000.0 11309700000.0 11309700000.0 11309700000.0 11309700000.0 11309700000.0 11309700000.0 11309700000.0 11309700000.0 11309700000.0 11309700000.0 11309700000.0 11309700000.0 11309700000.0 11309700000.0 11309700000.0 11309700000.0 11309700000.0 11309700000.0 11309700000.0 11309700000.0 11309700000.0 11309700000.0 11309700000.0 11309700000.0 11309700000.0 11309700000.0 11309700000.0 11309700000.0 11309700000.0 11309700000.0 11309700000.0 11309700000.0 11309700000.0 11309700000.0 11309700000.0 11309700000.0 11309700000.0 11309700000.0 11309700000.0 11309700000.0 11309700000.0 11309700000.0 11309700000.0 11309700000.0 11309700000.0 11309700000.0 11309700000.0 11309700000.0 11309700000.0 11309700000.0 11309700000.0 11309700000.0 11309700000.0 11309700000.0 11309700000.0 11309700000.0 11309700000.0 11309700000.0 11309700000.0 11309700000.0 11309700000.0 11309700000.0 11309700000.0 11309700000.0 11309700000.0 11309700000.0 11309700000.0 11309700000.0 11309700000.0 11309700000.0 11309700000.0 11309700000.0 11309700000.0 11309700000.0 11309700000.0 11309700000.0 11309700000.0 11309700000.0 11309700000.0 11309700000.0 11309700000.0 11309700000.0 11309700000.0 11309700000.0 11309700000.0 11309700000.0 11309700000.0 11309700000.0 11309700000.0 11309700000.0 11309700000.0 11309700000.0 11309700000.0 11309700000.0 11309700000.0 11309700000.0 11309700000.0 11309700000.0 11309700000.0 11309700000.0 11309700000.0 11309700000.0 11309700000.0 11309700000.0 11309700000.0 11309700000.0 11309700000.0 11309700000.0 11309700000.0 11309700000.0 11309700000.0 11309700000.0 11309700000.0 11309700000.0 11309700000.0 11309700000.0 11309700000.0 11309700000.0 11309700000.0 11309700000.0 11309700000.0 11309700000.0 11309700000.0 11309700000.0 11309700000.0 11309700000.0 11309700000.0 11309700000.0 11309700000.0 11309700000.0 11309700000.0 11309700000.0 11309700000.0 11309700000.0 11309700000.0 11309700000.0 11309700000.0 11309700000.0 11309700000.0 11309700000.0 11309700000.0 11309700000.0 11309700000.0 11309700000.0 11309700000.0 11309700000.0 11309700000.0 11309700000.0 11309700000.0 11309700000.0 11309700000.0 11309700000.0 11309700000.0 11309700000.0 11309700000.0 11309700000.0 11309700000.0 11309700000.0 11309700000.0 11309700000.0 11309700000.0 11309700000.0 11309700000.0 11309700000.0 11309700000.0 11309700000.0 11309700000.0 11309700000.0 11309700000.0 11309700000.0 11309700000.0 11309700000.0 11309700000.0 11309700000.0 11309700000.0 11309700000.0 11309700000.0 11309700000.0 11309700000.0 11309700000.0 11309700000.0 11309700000.0 11309700000.0 11309700000.0 11309700000.0 11309700000.0 11309700000.0 11309700000.0 11309700000.0 11309700000.0 11309700000.0 11309700000.0 11309700000.0 11309700000.0 11309700000.0 11309700000.0 11309700000.0 11309700000.0 11309700000.0 11309700000.0 11309700000.0 11309700000.0 11309700000.0 11309700000.0 11309700000.0 11309700000.0 11309700000.0 11309700000.0 11309700000.0 11309700000.0 11309700000.0 11309700000.0 11309700000.0 11309700000.0 11309700000.0 11309700000.0 11309700000.0 11309700000.0 11309700000.0 11309700000.0 11309700000.0 11309700000.0 11309700000.0 11309700000.0 11309700000.0 11309700000.0 11309700000.0 11309700000.0 11309700000.0 11309700000.0 11309700000.0 11309700000.0 11309700000.0 11309700000.0 11309700000.0 11309700000.0 11309700000.0 11309700000.0 11309700000.0 11309700000.0 11309700000.0 11309700000.0 11309700000.0 11309700000.0 11309700000.0 11309700000.0 11309700000.0 11309700000.0 11309700000.0 11309700000.0 11309700000.0 11309700000.0 11309700000.0 11309700000.0 11309700000.0 11309700000.0 11309700000.0 11309700000.0 11309700000.0 11309700000.0 11309700000.0 11309700000.0 11309700000.0 11309700000.0 11309700000.0 11309700000.0 11309700000.0 11309700000.0 11309700000.0 11309700000.0 11309700000.0 11309700000.0 11309700000.0 11309700000.0 11309700000.0 11309700000.0 11309700000.0 11309700000.0 11309700000.0 11309700000.0 11309700000.0 11309700000.0 11309700000.0 11309700000.0 11309700000.0 11309700000.0 11309700000.0 11309700000.0 11309700000.0 11309700000.0 11309700000.0 11309700000.0 11309700000.0 11309700000.0 11309700000.0 11309700000.0 11309700000.0 11309700000.0 11309700000.0 11309700000.0 11309700000.0 11309700000.0 11309700000.0 11309700000.0 11309700000.0 11309700000.0 11309700000.0 11309700000.0 11309700000.0 11309700000.0 11309700000.0 11309700000.0 11309700000.0 11309700000.0 11309700000.0 11309700000.0 11309700000.0 11309700000.0 11309700000.0 11309700000.0 11309700000.0 11309700000.0 11309700000.0 11309700000.0 11309700000.0 11309700000.0 11309700000.0 11309700000.0 11309700000.0 11309700000.0 11309700000.0 11309700000.0 11309700000.0 11309700000.0 11309700000.0 11309700000.0 11309700000.0 11309700000.0 11309700000.0 11309700000.0 11309700000.0 11309700000.0 11309700000.0 11309700000.0 11309700000.0 11309700000.0 11309700000.0 11309700000.0 11309700000.0 11309700000.0 11309700000.0 11309700000.0 11309700000.0 11309700000.0 11309700000.0 11309700000.0 11309700000.0 11309700000.0 11309700000.0 11309700000.0 11309700000.0 11309700000.0 11309700000.0 11309700000.0 11309700000.0 11309700000.0 11309700000.0 11309700000.0 11309700000.0 11309700000.0 11309700000.0 11309700000.0 11309700000.0 11309700000.0 11309700000.0 11309700000.0 11309700000.0 11309700000.0 11309700000.0 11309700000.0 11309700000.0 11309700000.0 11309700000.0 11309700000.0 11309700000.0 11309700000.0 11309700000.0 11309700000.0 11309700000.0 11309700000.0 11309700000.0 11309700000.0 11309700000.0 11309700000.0 11309700000.0 11309700000.0 11309700000.0 11309700000.0 11309700000.0 11309700000.0 11309700000.0 11309700000.0 11309700000.0 11309700000.0 11309700000.0 11309700000.0 11309700000.0 11309700000.0 11309700000.0 11309700000.0 11309700000.0 11309700000.0 11309700000.0 11309700000.0 11309700000.0 11309700000.0 11309700000.0 11309700000.0 11309700000.0 11309700000.0 11309700000.0 11309700000.0 11309700000.0 11309700000.0 11309700000.0 11309700000.0 11309700000.0 11309700000.0 11309700000.0 11309700000.0 11309700000.0 11309700000.0 11309700000.0 11309700000.0 11309700000.0 11309700000.0 11309700000.0 11309700000.0 11309700000.0 11309700000.0 11309700000.0 11309700000.0 11309700000.0 11309700000.0 11309700000.0 11309700000.0 11309700000.0 11309700000.0 11309700000.0 11309700000.0 11309700000.0 11309700000.0 11309700000.0 11309700000.0 11309700000.0 11309700000.0 11309700000.0 11309700000.0 11309700000.0 11309700000.0 11309700000.0 11309700000.0 11309700000.0 11309700000.0 11309700000.0 11309700000.0 11309700000.0 11309700000.0 11309700000.0 11309700000.0 11309700000.0 11309700000.0 11309700000.0 11309700000.0 11309700000.0 11309700000.0 11309700000.0 11309700000.0 11309700000.0 11309700000.0 11309700000.0 11309700000.0 11309700000.0 11309700000.0 11309700000.0 11309700000.0 11309700000.0 11309700000.0 11309700000.0 11309700000.0 11309700000.0 11309700000.0 11309700000.0 11309700000.0 11309700000.0 11309700000.0 11309700000.0 11309700000.0 11309700000.0 11309700000.0 11309700000.0 11309700000.0 11309700000.0 11309700000.0 11309700000.0 11309700000.0 11309700000.0 11309700000.0 11309700000.0 11309700000.0 11309700000.0 11309700000.0 11309700000.0 11309700000.0 11309700000.0 11309700000.0 11309700000.0 11309700000.0 11309700000.0 11309700000.0 11309700000.0 11309700000.0 11309700000.0 11309700000.0 11309700000.0 11309700000.0 11309700000.0 11309700000.0 11309700000.0 11309700000.0 11309700000.0 11309700000.0 11309700000.0 11309700000.0 11309700000.0 11309700000.0 11309700000.0 11309700000.0 11309700000.0 11309700000.0 11309700000.0 11309700000.0 11309700000.0 11309700000.0 11309700000.0 11309700000.0 11309700000.0 11309700000.0 11309700000.0 11309700000.0 11309700000.0 11309700000.0 11309700000.0 11309700000.0 11309700000.0 11309700000.0 11309700000.0 11309700000.0 11309700000.0 11309700000.0 11309700000.0 11309700000.0 11309700000.0 11309700000.0 11309700000.0 11309700000.0 11309700000.0 11309700000.0 11309700000.0 11309700000.0 11309700000.0 11309700000.0 11309700000.0 11309700000.0 11309700000.0 11309700000.0 11309700000.0 11309700000.0 11309700000.0 11309700000.0 11309700000.0 11309700000.0 11309700000.0 11309700000.0 11309700000.0 11309700000.0 11309700000.0 11309700000.0 11309700000.0 11309700000.0 11309700000.0 11309700000.0 11309700000.0 11309700000.0 11309700000.0 11309700000.0 11309700000.0 11309700000.0 11309700000.0 11309700000.0 11309700000.0 11309700000.0 11309700000.0 11309700000.0 11309700000.0 11309700000.0 11309700000.0 11309700000.0 11309700000.0 11309700000.0 11309700000.0 11309700000.0 11309700000.0 11309700000.0 11309700000.0 11309700000.0 11309700000.0 11309700000.0 11309700000.0 11309700000.0 11309700000.0 11309700000.0 11309700000.0 11309700000.0 11309700000.0 11309700000.0 11309700000.0 11309700000.0 11309700000.0 11309700000.0 11309700000.0 11309700000.0 11309700000.0 11309700000.0 11309700000.0 11309700000.0 11309700000.0 11309700000.0 11309700000.0 11309700000.0 11309700000.0 11309700000.0 11309700000.0 11309700000.0 11309700000.0 11309700000.0 11309700000.0 11309700000.0 11309700000.0 11309700000.0 11309700000.0 11309700000.0 11309700000.0 11309700000.0 11309700000.0 11309700000.0 11309700000.0 11309700000.0 11309700000.0 11309700000.0 11309700000.0 11309700000.0 11309700000.0 11309700000.0 11309700000.0 11309700000.0 11309700000.0 11309700000.0 11309700000.0 11309700000.0 11309700000.0 11309700000.0 11309700000.0 11309700000.0 11309700000.0 11309700000.0 11309700000.0 11309700000.0 11309700000.0 11309700000.0 11309700000.0 11309700000.0 11309700000.0 11309700000.0 11309700000.0 11309700000.0 11309700000.0 11309700000.0 11309700000.0 11309700000.0 11309700000.0 11309700000.0 11309700000.0 11309700000.0 11309700000.0 11309700000.0 11309700000.0 11309700000.0 11309700000.0 11309700000.0 11309700000.0 11309700000.0 11309700000.0 11309700000.0 11309700000.0 11309700000.0 11309700000.0 11309700000.0 11309700000.0 11309700000.0 11309700000.0 11309700000.0 11309700000.0 11309700000.0 11309700000.0 11309700000.0 11309700000.0 11309700000.0 11309700000.0 11309700000.0 11309700000.0 11309700000.0 11309700000.0 11309700000.0 11309700000.0 11309700000.0 11309700000.0 11309700000.0 11309700000.0 11309700000.0 11309700000.0 11309700000.0 11309700000.0 11309700000.0 11309700000.0 11309700000.0 11309700000.0 11309700000.0 11309700000.0 11309700000.0 11309700000.0 11309700000.0 11309700000.0 11309700000.0 11309700000.0 11309700000.0 11309700000.0 11309700000.0 11309700000.0 11309700000.0 11309700000.0 11309700000.0 11309700000.0 11309700000.0 11309700000.0 11309700000.0 11309700000.0 11309700000.0 11309700000.0 11309700000.0 11309700000.0 11309700000.0 11309700000.0 11309700000.0 11309700000.0 11309700000.0 11309700000.0 11309700000.0 11309700000.0 11309700000.0 11309700000.0 11309700000.0 11309700000.0 11309700000.0 11309700000.0 11309700000.0 11309700000.0 11309700000.0 11309700000.0 11309700000.0 11309700000.0 11309700000.0 11309700000.0 11309700000.0 11309700000.0 11309700000.0 11309700000.0 11309700000.0 11309700000.0 11309700000.0 11309700000.0 11309700000.0 11309700000.0 11309700000.0 11309700000.0 11309700000.0 11309700000.0 11309700000.0 11309700000.0 11309700000.0 11309700000.0 11309700000.0 11309700000.0 11309700000.0 11309700000.0 11309700000.0 11309700000.0 11309700000.0 11309700000.0 11309700000.0 11309700000.0 11309700000.0 11309700000.0 11309700000.0 11309700000.0 11309700000.0 11309700000.0 11309700000.0 11309700000.0 11309700000.0 11309700000.0 11309700000.0 11309700000.0 11309700000.0 11309700000.0 11309700000.0 11309700000.0 11309700000.0 11309700000.0 11309700000.0 11309700000.0 11309700000.0 11309700000.0 11309700000.0 11309700000.0 11309700000.0 11309700000.0 11309700000.0 11309700000.0 11309700000.0 11309700000.0 11309700000.0 11309700000.0 11309700000.0 11309700000.0 11309700000.0 11309700000.0 11309700000.0 11309700000.0 11309700000.0 11309700000.0 11309700000.0 11309700000.0 11309700000.0 11309700000.0 11309700000.0 11309700000.0 11309700000.0 11309700000.0 11309700000.0 11309700000.0 11309700000.0 11309700000.0 11309700000.0 11309700000.0 11309700000.0 11309700000.0 11309700000.0 11309700000.0 11309700000.0 11309700000.0 11309700000.0 11309700000.0 11309700000.0 11309700000.0 11309700000.0 11309700000.0 11309700000.0 11309700000.0 11309700000.0 11309700000.0 11309700000.0 11309700000.0 11309700000.0 11309700000.0 11309700000.0 11309700000.0 11309700000.0 11309700000.0 11309700000.0 11309700000.0 11309700000.0 11309700000.0 11309700000.0 11309700000.0 11309700000.0 11309700000.0 11309700000.0 11309700000.0 11309700000.0 11309700000.0 11309700000.0 11309700000.0 11309700000.0 11309700000.0 11309700000.0 11309700000.0 11309700000.0 11309700000.0 11309700000.0 11309700000.0 11309700000.0 11309700000.0 11309700000.0 11309700000.0 11309700000.0 11309700000.0 11309700000.0 11309700000.0 11309700000.0 11309700000.0 11309700000.0 11309700000.0 11309700000.0 11309700000.0 11309700000.0 11309700000.0 11309700000.0 11309700000.0 11309700000.0 11309700000.0 11309700000.0 11309700000.0 11309700000.0 11309700000.0 11309700000.0 11309700000.0 11309700000.0 11309700000.0 11309700000.0 11309700000.0 11309700000.0 11309700000.0 11309700000.0 11309700000.0 11309700000.0 11309700000.0 11309700000.0 11309700000.0 11309700000.0 11309700000.0 11309700000.0 11309700000.0 11309700000.0 11309700000.0 11309700000.0 11309700000.0 11309700000.0 11309700000.0 11309700000.0 11309700000.0 11309700000.0 11309700000.0 11309700000.0 11309700000.0 11309700000.0 11309700000.0 11309700000.0 11309700000.0 11309700000.0 11309700000.0 11309700000.0 11309700000.0 11309700000.0 11309700000.0 11309700000.0 11309700000.0 11309700000.0 11309700000.0 11309700000.0 11309700000.0 11309700000.0 11309700000.0 11309700000.0 11309700000.0 11309700000.0 11309700000.0 11309700000.0 11309700000.0 11309700000.0 11309700000.0 11309700000.0 11309700000.0 11309700000.0 11309700000.0 11309700000.0 11309700000.0 11309700000.0 11309700000.0 11309700000.0 11309700000.0 11309700000.0 11309700000.0 11309700000.0 11309700000.0 11309700000.0 11309700000.0 11309700000.0 11309700000.0 11309700000.0 11309700000.0 11309700000.0 11309700000.0 11309700000.0 11309700000.0 11309700000.0 11309700000.0 11309700000.0 11309700000.0 11309700000.0 11309700000.0 11309700000.0 11309700000.0 11309700000.0 11309700000.0 11309700000.0 11309700000.0 11309700000.0 11309700000.0 11309700000.0 11309700000.0 11309700000.0 11309700000.0 11309700000.0 11309700000.0 11309700000.0 11309700000.0 11309700000.0 11309700000.0 11309700000.0 11309700000.0 11309700000.0 11309700000.0 11309700000.0 11309700000.0 11309700000.0 11309700000.0 11309700000.0 11309700000.0 11309700000.0 11309700000.0 11309700000.0 11309700000.0 11309700000.0 11309700000.0 11309700000.0 11309700000.0 11309700000.0 11309700000.0 11309700000.0 11309700000.0 11309700000.0 11309700000.0 11309700000.0 11309700000.0 11309700000.0 11309700000.0 11309700000.0 11309700000.0 11309700000.0 11309700000.0 11309700000.0 11309700000.0 11309700000.0 11309700000.0 11309700000.0 11309700000.0 11309700000.0 11309700000.0 11309700000.0 11309700000.0 11309700000.0 11309700000.0 11309700000.0 11309700000.0 11309700000.0 11309700000.0 11309700000.0 11309700000.0 11309700000.0 11309700000.0 11309700000.0 11309700000.0 11309700000.0 11309700000.0 11309700000.0 11309700000.0 11309700000.0 11309700000.0 11309700000.0 11309700000.0 11309700000.0 11309700000.0 11309700000.0 11309700000.0 11309700000.0 11309700000.0 11309700000.0 11309700000.0 11309700000.0 11309700000.0 11309700000.0 11309700000.0 11309700000.0 11309700000.0 11309700000.0 11309700000.0 11309700000.0 11309700000.0 11309700000.0 11309700000.0 11309700000.0 11309700000.0 11309700000.0 11309700000.0 11309700000.0 11309700000.0 11309700000.0 11309700000.0 11309700000.0 11309700000.0 11309700000.0 11309700000.0 11309700000.0 11309700000.0 11309700000.0 11309700000.0 11309700000.0 11309700000.0 11309700000.0 11309700000.0 11309700000.0 11309700000.0 11309700000.0 11309700000.0 11309700000.0 11309700000.0 11309700000.0 11309700000.0 11309700000.0 11309700000.0 11309700000.0 11309700000.0 11309700000.0 11309700000.0 11309700000.0 11309700000.0 11309700000.0 11309700000.0 11309700000.0 11309700000.0 11309700000.0 11309700000.0 11309700000.0 11309700000.0 11309700000.0 11309700000.0 11309700000.0 11309700000.0 11309700000.0 11309700000.0 11309700000.0 11309700000.0 11309700000.0 11309700000.0 11309700000.0 11309700000.0 11309700000.0 11309700000.0 11309700000.0 11309700000.0 11309700000.0 11309700000.0 11309700000.0 11309700000.0 11309700000.0 11309700000.0 11309700000.0 11309700000.0 11309700000.0 11309700000.0 11309700000.0 11309700000.0 11309700000.0 11309700000.0 11309700000.0 11309700000.0 11309700000.0 11309700000.0 11309700000.0 11309700000.0 11309700000.0 11309700000.0 11309700000.0 11309700000.0 11309700000.0 11309700000.0 11309700000.0 11309700000.0 11309700000.0 11309700000.0 11309700000.0 11309700000.0 11309700000.0 11309700000.0 11309700000.0 11309700000.0 11309700000.0 11309700000.0 11309700000.0 11309700000.0 11309700000.0 11309700000.0 11309700000.0 11309700000.0 11309700000.0 11309700000.0 11309700000.0 11309700000.0 11309700000.0 11309700000.0 11309700000.0 11309700000.0 11309700000.0 11309700000.0 11309700000.0 11309700000.0 11309700000.0 11309700000.0 11309700000.0 11309700000.0 11309700000.0 11309700000.0 11309700000.0 11309700000.0 11309700000.0 11309700000.0 11309700000.0 11309700000.0 11309700000.0 11309700000.0 11309700000.0 11309700000.0 11309700000.0 11309700000.0 11309700000.0 11309700000.0 11309700000.0 11309700000.0 11309700000.0 11309700000.0 11309700000.0 11309700000.0 11309700000.0 11309700000.0 11309700000.0 11309700000.0 11309700000.0 11309700000.0 11309700000.0 11309700000.0 11309700000.0 11309700000.0 11309700000.0 11309700000.0 11309700000.0 11309700000.0 11309700000.0 11309700000.0 11309700000.0 11309700000.0 11309700000.0 11309700000.0 11309700000.0 11309700000.0 11309700000.0 11309700000.0 11309700000.0 11309700000.0 11309700000.0 11309700000.0 11309700000.0 11309700000.0 11309700000.0 11309700000.0 11309700000.0 11309700000.0 11309700000.0 11309700000.0 11309700000.0 11309700000.0 11309700000.0 11309700000.0 11309700000.0 11309700000.0 11309700000.0 11309700000.0 11309700000.0 11309700000.0 11309700000.0 11309700000.0 11309700000.0 11309700000.0 11309700000.0 11309700000.0 11309700000.0 11309700000.0 11309700000.0 11309700000.0 11309700000.0 11309700000.0 11309700000.0 11309700000.0 11309700000.0 11309700000.0 11309700000.0 11309700000.0 11309700000.0 11309700000.0 11309700000.0 11309700000.0 11309700000.0 11309700000.0 11309700000.0 11309700000.0 11309700000.0 11309700000.0 11309700000.0 11309700000.0 11309700000.0 11309700000.0 11309700000.0 11309700000.0 11309700000.0 11309700000.0 11309700000.0 11309700000.0 11309700000.0 11309700000.0 11309700000.0 11309700000.0 11309700000.0 11309700000.0 11309700000.0 11309700000.0 11309700000.0 11309700000.0 11309700000.0 11309700000.0 11309700000.0 11309700000.0 11309700000.0 11309700000.0 11309700000.0 11309700000.0 11309700000.0 11309700000.0 11309700000.0 11309700000.0 11309700000.0 11309700000.0 11309700000.0 11309700000.0 11309700000.0 11309700000.0 11309700000.0 11309700000.0 11309700000.0 11309700000.0 11309700000.0 11309700000.0 11309700000.0 11309700000.0 11309700000.0 11309700000.0 11309700000.0 11309700000.0 11309700000.0 11309700000.0 11309700000.0 11309700000.0 11309700000.0 11309700000.0 11309700000.0 11309700000.0 11309700000.0 11309700000.0 11309700000.0 11309700000.0 11309700000.0 11309700000.0 11309700000.0 11309700000.0 11309700000.0 11309700000.0 11309700000.0 11309700000.0 11309700000.0 11309700000.0 11309700000.0 11309700000.0 11309700000.0 11309700000.0 11309700000.0 11309700000.0 11309700000.0 11309700000.0 11309700000.0 11309700000.0 11309700000.0 11309700000.0 11309700000.0 11309700000.0 11309700000.0 11309700000.0 11309700000.0 11309700000.0 11309700000.0 11309700000.0 11309700000.0 11309700000.0 11309700000.0 11309700000.0 11309700000.0 11309700000.0 11309700000.0 11309700000.0 11309700000.0 11309700000.0 11309700000.0 11309700000.0 11309700000.0 11309700000.0 11309700000.0 11309700000.0 11309700000.0 11309700000.0 11309700000.0 11309700000.0 11309700000.0 11309700000.0 11309700000.0 11309700000.0 11309700000.0 11309700000.0 11309700000.0 11309700000.0 11309700000.0 11309700000.0 11309700000.0 11309700000.0 11309700000.0 11309700000.0 11309700000.0 11309700000.0 11309700000.0 11309700000.0 11309700000.0 11309700000.0 11309700000.0 11309700000.0 11309700000.0 11309700000.0 11309700000.0 11309700000.0 11309700000.0 11309700000.0 11309700000.0 11309700000.0 11309700000.0 11309700000.0 11309700000.0 11309700000.0 11309700000.0 11309700000.0 11309700000.0 11309700000.0 11309700000.0 11309700000.0 11309700000.0 11309700000.0 11309700000.0 11309700000.0 11309700000.0 11309700000.0 11309700000.0 11309700000.0 11309700000.0 11309700000.0 11309700000.0 11309700000.0 11309700000.0 11309700000.0 11309700000.0 11309700000.0 11309700000.0 11309700000.0 11309700000.0 11309700000.0 11309700000.0 11309700000.0 11309700000.0 11309700000.0 11309700000.0 11309700000.0 11309700000.0 11309700000.0 11309700000.0 11309700000.0 11309700000.0 11309700000.0 11309700000.0 11309700000.0 11309700000.0 11309700000.0 11309700000.0 11309700000.0 11309700000.0 11309700000.0 11309700000.0 11309700000.0 11309700000.0 11309700000.0 11309700000.0 11309700000.0 11309700000.0 11309700000.0 11309700000.0 11309700000.0 11309700000.0 11309700000.0 11309700000.0 11309700000.0 11309700000.0 11309700000.0 11309700000.0 11309700000.0 11309700000.0 11309700000.0 11309700000.0 11309700000.0 11309700000.0 11309700000.0 11309700000.0 11309700000.0 11309700000.0 11309700000.0 11309700000.0 11309700000.0 11309700000.0 11309700000.0 11309700000.0 11309700000.0 11309700000.0 11309700000.0 11309700000.0 11309700000.0 11309700000.0 11309700000.0 11309700000.0 11309700000.0 11309700000.0 11309700000.0 11309700000.0 11309700000.0 11309700000.0 11309700000.0 11309700000.0 11309700000.0 11309700000.0 11309700000.0 11309700000.0 11309700000.0 11309700000.0 11309700000.0 11309700000.0 11309700000.0 11309700000.0 11309700000.0 11309700000.0 11309700000.0 11309700000.0 11309700000.0 11309700000.0 11309700000.0 11309700000.0 11309700000.0 11309700000.0 11309700000.0 11309700000.0 11309700000.0 11309700000.0 11309700000.0 11309700000.0 11309700000.0 11309700000.0 11309700000.0 11309700000.0 11309700000.0 11309700000.0 11309700000.0 11309700000.0 11309700000.0 11309700000.0 11309700000.0 11309700000.0 11309700000.0 11309700000.0 11309700000.0 11309700000.0 11309700000.0 11309700000.0 11309700000.0 11309700000.0 11309700000.0 11309700000.0 11309700000.0 11309700000.0 11309700000.0 11309700000.0 11309700000.0 11309700000.0 11309700000.0 11309700000.0 11309700000.0 11309700000.0 11309700000.0 11309700000.0 11309700000.0 11309700000.0 11309700000.0 11309700000.0 11309700000.0 11309700000.0 11309700000.0 11309700000.0 11309700000.0 11309700000.0 11309700000.0 11309700000.0 11309700000.0 11309700000.0 11309700000.0 11309700000.0 11309700000.0 11309700000.0 11309700000.0 11309700000.0 11309700000.0 11309700000.0 11309700000.0 11309700000.0 11309700000.0 11309700000.0 11309700000.0 11309700000.0 11309700000.0 11309700000.0 11309700000.0 11309700000.0 11309700000.0 11309700000.0 11309700000.0 11309700000.0 11309700000.0 11309700000.0 11309700000.0 11309700000.0 11309700000.0 11309700000.0 11309700000.0 11309700000.0 11309700000.0 11309700000.0 11309700000.0 11309700000.0 11309700000.0 11309700000.0 11309700000.0 11309700000.0 11309700000.0 11309700000.0 11309700000.0 11309700000.0 11309700000.0 11309700000.0 11309700000.0 11309700000.0 11309700000.0 11309700000.0 11309700000.0 11309700000.0 11309700000.0 11309700000.0 11309700000.0 11309700000.0 11309700000.0 11309700000.0 11309700000.0 11309700000.0 11309700000.0 11309700000.0 11309700000.0 11309700000.0 11309700000.0 11309700000.0 11309700000.0 11309700000.0 11309700000.0 11309700000.0 11309700000.0 11309700000.0 11309700000.0 11309700000.0 11309700000.0 11309700000.0 11309700000.0 11309700000.0 11309700000.0 11309700000.0 11309700000.0 11309700000.0 11309700000.0 11309700000.0 11309700000.0 11309700000.0 11309700000.0 11309700000.0 11309700000.0 11309700000.0 11309700000.0 11309700000.0 11309700000.0 11309700000.0 11309700000.0 11309700000.0 11309700000.0 11309700000.0 11309700000.0 11309700000.0 11309700000.0 11309700000.0 11309700000.0 11309700000.0 11309700000.0 11309700000.0 11309700000.0 11309700000.0 11309700000.0 11309700000.0 11309700000.0 11309700000.0 11309700000.0 11309700000.0 11309700000.0 11309700000.0 11309700000.0 11309700000.0 11309700000.0 11309700000.0 11309700000.0 11309700000.0 11309700000.0 11309700000.0 11309700000.0 11309700000.0 11309700000.0 11309700000.0 11309700000.0 11309700000.0 11309700000.0 11309700000.0 11309700000.0 11309700000.0 11309700000.0 11309700000.0 11309700000.0 11309700000.0 11309700000.0 11309700000.0 11309700000.0 11309700000.0 11309700000.0 11309700000.0 11309700000.0 11309700000.0 11309700000.0 11309700000.0 11309700000.0 11309700000.0 11309700000.0 11309700000.0 11309700000.0 11309700000.0 11309700000.0 11309700000.0 11309700000.0 11309700000.0 11309700000.0 11309700000.0 11309700000.0 11309700000.0 11309700000.0 11309700000.0 11309700000.0 11309700000.0 11309700000.0 11309700000.0 11309700000.0 11309700000.0 11309700000.0 11309700000.0 11309700000.0 11309700000.0 11309700000.0 11309700000.0 11309700000.0 11309700000.0 11309700000.0 11309700000.0 11309700000.0 11309700000.0 11309700000.0 11309700000.0 11309700000.0 11309700000.0 11309700000.0 11309700000.0 11309700000.0 11309700000.0 11309700000.0 11309700000.0 11309700000.0 11309700000.0 11309700000.0 11309700000.0 11309700000.0 11309700000.0 11309700000.0 11309700000.0 11309700000.0 11309700000.0 11309700000.0 11309700000.0 11309700000.0 11309700000.0 11309700000.0 11309700000.0 11309700000.0 11309700000.0 11309700000.0 11309700000.0 11309700000.0 11309700000.0 11309700000.0 11309700000.0 11309700000.0 11309700000.0 11309700000.0 11309700000.0 11309700000.0 11309700000.0 11309700000.0 11309700000.0 11309700000.0 11309700000.0 11309700000.0 11309700000.0 11309700000.0 11309700000.0 11309700000.0 11309700000.0 11309700000.0 11309700000.0 11309700000.0 11309700000.0 11309700000.0 11309700000.0 11309700000.0 11309700000.0 11309700000.0 11309700000.0 11309700000.0 11309700000.0 11309700000.0 11309700000.0 11309700000.0 11309700000.0 11309700000.0 11309700000.0 11309700000.0 11309700000.0 11309700000.0 11309700000.0 11309700000.0 11309700000.0 11309700000.0 11309700000.0 11309700000.0 11309700000.0 11309700000.0 11309700000.0 11309700000.0 11309700000.0 11309700000.0 11309700000.0 11309700000.0 11309700000.0 11309700000.0 11309700000.0 11309700000.0 11309700000.0 11309700000.0 11309700000.0 11309700000.0 11309700000.0 11309700000.0 11309700000.0 11309700000.0 11309700000.0 11309700000.0 11309700000.0 11309700000.0 11309700000.0 11309700000.0 11309700000.0 11309700000.0 11309700000.0 11309700000.0 11309700000.0 11309700000.0 11309700000.0 11309700000.0 11309700000.0 11309700000.0 11309700000.0 11309700000.0 11309700000.0 11309700000.0 11309700000.0 11309700000.0 11309700000.0 11309700000.0 11309700000.0 11309700000.0 11309700000.0 11309700000.0 11309700000.0 11309700000.0 11309700000.0 11309700000.0 11309700000.0 11309700000.0 11309700000.0 11309700000.0 11309700000.0 11309700000.0 11309700000.0 11309700000.0 11309700000.0 11309700000.0 11309700000.0 11309700000.0 11309700000.0 11309700000.0 11309700000.0 11309700000.0 11309700000.0 11309700000.0 11309700000.0 11309700000.0 11309700000.0 11309700000.0 11309700000.0 11309700000.0 11309700000.0 11309700000.0 11309700000.0 11309700000.0 11309700000.0 11309700000.0 11309700000.0 11309700000.0 11309700000.0 11309700000.0 11309700000.0 11309700000.0 11309700000.0 11309700000.0 11309700000.0 11309700000.0 11309700000.0 11309700000.0 11309700000.0 11309700000.0 11309700000.0 11309700000.0 11309700000.0 11309700000.0 11309700000.0 11309700000.0 11309700000.0 11309700000.0 11309700000.0 11309700000.0 11309700000.0 11309700000.0 11309700000.0 11309700000.0 11309700000.0 11309700000.0 11309700000.0 11309700000.0 11309700000.0 11309700000.0 11309700000.0 11309700000.0 11309700000.0 11309700000.0 11309700000.0 11309700000.0 11309700000.0 11309700000.0 11309700000.0 11309700000.0 11309700000.0 11309700000.0 11309700000.0 11309700000.0 11309700000.0 11309700000.0 11309700000.0 11309700000.0 11309700000.0 11309700000.0 11309700000.0 11309700000.0 11309700000.0 11309700000.0 11309700000.0 11309700000.0 11309700000.0 11309700000.0 11309700000.0 11309700000.0 11309700000.0 11309700000.0 11309700000.0 11309700000.0 11309700000.0 11309700000.0 11309700000.0 11309700000.0 11309700000.0 11309700000.0 11309700000.0 11309700000.0 11309700000.0 11309700000.0 11309700000.0 11309700000.0 11309700000.0 11309700000.0 11309700000.0 11309700000.0 11309700000.0 11309700000.0 11309700000.0 11309700000.0 11309700000.0 11309700000.0 11309700000.0 11309700000.0 11309700000.0 11309700000.0 11309700000.0 11309700000.0 11309700000.0 11309700000.0 11309700000.0 11309700000.0 11309700000.0 11309700000.0 11309700000.0 11309700000.0 11309700000.0 11309700000.0 11309700000.0 11309700000.0 11309700000.0 11309700000.0 11309700000.0 11309700000.0 11309700000.0 11309700000.0 11309700000.0 11309700000.0 11309700000.0 11309700000.0 11309700000.0 11309700000.0 11309700000.0 11309700000.0 11309700000.0 11309700000.0 11309700000.0 11309700000.0 11309700000.0 11309700000.0 11309700000.0 11309700000.0 11309700000.0 11309700000.0 11309700000.0 11309700000.0 11309700000.0 11309700000.0 11309700000.0 11309700000.0 11309700000.0 11309700000.0 11309700000.0 11309700000.0 11309700000.0 11309700000.0 11309700000.0 11309700000.0 11309700000.0 11309700000.0 11309700000.0 11309700000.0 11309700000.0 11309700000.0 11309700000.0 11309700000.0 11309700000.0 11309700000.0 11309700000.0 11309700000.0 11309700000.0 11309700000.0 11309700000.0 11309700000.0 11309700000.0 11309700000.0 11309700000.0 11309700000.0 11309700000.0 11309700000.0 11309700000.0 11309700000.0 11309700000.0 11309700000.0 11309700000.0 11309700000.0 11309700000.0 11309700000.0 11309700000.0 11309700000.0 11309700000.0 11309700000.0 11309700000.0 11309700000.0 11309700000.0 11309700000.0 11309700000.0 11309700000.0 11309700000.0 11309700000.0 11309700000.0 11309700000.0 11309700000.0 11309700000.0 11309700000.0 11309700000.0 11309700000.0 11309700000.0 11309700000.0 11309700000.0 11309700000.0 11309700000.0 11309700000.0 11309700000.0 11309700000.0 11309700000.0 11309700000.0 11309700000.0 11309700000.0 11309700000.0 11309700000.0 11309700000.0 11309700000.0 11309700000.0 11309700000.0 11309700000.0 11309700000.0 11309700000.0 11309700000.0 11309700000.0 11309700000.0 11309700000.0 11309700000.0 11309700000.0 11309700000.0 11309700000.0 11309700000.0 11309700000.0 11309700000.0 11309700000.0 11309700000.0 11309700000.0 11309700000.0 11309700000.0 11309700000.0 11309700000.0 11309700000.0 11309700000.0 11309700000.0 11309700000.0 11309700000.0 11309700000.0 11309700000.0 11309700000.0 11309700000.0 11309700000.0 11309700000.0 11309700000.0 11309700000.0 11309700000.0 11309700000.0 11309700000.0 11309700000.0 11309700000.0 11309700000.0 11309700000.0 11309700000.0 11309700000.0 11309700000.0 11309700000.0 11309700000.0 11309700000.0 11309700000.0 11309700000.0 11309700000.0 11309700000.0 11309700000.0 11309700000.0 11309700000.0 11309700000.0 11309700000.0 11309700000.0 11309700000.0 11309700000.0 11309700000.0 11309700000.0 11309700000.0 11309700000.0 11309700000.0 11309700000.0 11309700000.0 11309700000.0 11309700000.0 11309700000.0 11309700000.0 11309700000.0 11309700000.0 11309700000.0 11309700000.0 11309700000.0 11309700000.0 11309700000.0 11309700000.0 11309700000.0 11309700000.0 11309700000.0 11309700000.0 11309700000.0 11309700000.0 11309700000.0 11309700000.0 11309700000.0 11309700000.0 11309700000.0 11309700000.0 11309700000.0 11309700000.0 11309700000.0 11309700000.0 11309700000.0 11309700000.0 11309700000.0 11309700000.0 11309700000.0 11309700000.0 11309700000.0 11309700000.0 11309700000.0 11309700000.0 11309700000.0 11309700000.0 11309700000.0 11309700000.0 11309700000.0 11309700000.0 11309700000.0 11309700000.0 11309700000.0 11309700000.0 11309700000.0 11309700000.0 11309700000.0 11309700000.0 11309700000.0 11309700000.0 11309700000.0 11309700000.0 11309700000.0 11309700000.0 11309700000.0 11309700000.0 11309700000.0 11309700000.0 11309700000.0 11309700000.0 11309700000.0 11309700000.0 11309700000.0 11309700000.0 11309700000.0 11309700000.0 11309700000.0 11309700000.0 11309700000.0 11309700000.0 11309700000.0 11309700000.0 11309700000.0 11309700000.0 11309700000.0 11309700000.0 11309700000.0 11309700000.0 11309700000.0 11309700000.0 11309700000.0 11309700000.0 11309700000.0 11309700000.0 11309700000.0 11309700000.0 11309700000.0 11309700000.0 11309700000.0 11309700000.0 11309700000.0 11309700000.0 11309700000.0 11309700000.0 11309700000.0 11309700000.0 11309700000.0 11309700000.0 11309700000.0 11309700000.0 11309700000.0 11309700000.0 11309700000.0 11309700000.0 11309700000.0 11309700000.0 11309700000.0 11309700000.0 11309700000.0 11309700000.0 11309700000.0 11309700000.0 11309700000.0 11309700000.0 11309700000.0 11309700000.0 11309700000.0 11309700000.0 11309700000.0 11309700000.0 11309700000.0 11309700000.0 11309700000.0 11309700000.0 11309700000.0 11309700000.0 11309700000.0 11309700000.0 11309700000.0 11309700000.0 11309700000.0 11309700000.0 11309700000.0 11309700000.0 11309700000.0 11309700000.0 11309700000.0 11309700000.0 11309700000.0 11309700000.0 11309700000.0 11309700000.0 11309700000.0 11309700000.0 11309700000.0 11309700000.0 11309700000.0 11309700000.0 11309700000.0 11309700000.0 11309700000.0 11309700000.0 11309700000.0 11309700000.0 11309700000.0 11309700000.0 11309700000.0 11309700000.0 11309700000.0 11309700000.0 11309700000.0 11309700000.0 11309700000.0 11309700000.0 11309700000.0 11309700000.0 11309700000.0 11309700000.0 11309700000.0 11309700000.0 11309700000.0 11309700000.0 11309700000.0 11309700000.0 11309700000.0 11309700000.0 11309700000.0 11309700000.0 11309700000.0 11309700000.0 11309700000.0 11309700000.0 11309700000.0 11309700000.0 11309700000.0 11309700000.0 11309700000.0 11309700000.0 11309700000.0 11309700000.0 11309700000.0 11309700000.0 11309700000.0 11309700000.0 11309700000.0 11309700000.0 11309700000.0 11309700000.0 11309700000.0 11309700000.0 11309700000.0 11309700000.0 11309700000.0 11309700000.0 11309700000.0 11309700000.0 11309700000.0 11309700000.0 11309700000.0 11309700000.0 11309700000.0 11309700000.0 11309700000.0 11309700000.0 11309700000.0 11309700000.0 11309700000.0 11309700000.0 11309700000.0 11309700000.0 11309700000.0 11309700000.0 11309700000.0 11309700000.0 11309700000.0 11309700000.0 11309700000.0 11309700000.0 11309700000.0 11309700000.0 11309700000.0 11309700000.0 11309700000.0 11309700000.0 11309700000.0 11309700000.0 11309700000.0 11309700000.0 11309700000.0 11309700000.0 11309700000.0 11309700000.0 11309700000.0 11309700000.0 11309700000.0 11309700000.0 11309700000.0 11309700000.0 11309700000.0 11309700000.0 11309700000.0 11309700000.0 11309700000.0 11309700000.0 11309700000.0 11309700000.0 11309700000.0 11309700000.0 11309700000.0 11309700000.0 11309700000.0 11309700000.0 11309700000.0 11309700000.0 11309700000.0 11309700000.0 11309700000.0 11309700000.0 11309700000.0 11309700000.0 11309700000.0 11309700000.0 11309700000.0 11309700000.0 11309700000.0 11309700000.0 11309700000.0 11309700000.0 11309700000.0 11309700000.0 11309700000.0 11309700000.0 11309700000.0 11309700000.0 11309700000.0 11309700000.0 11309700000.0 11309700000.0 11309700000.0 11309700000.0 11309700000.0 11309700000.0 11309700000.0 11309700000.0 11309700000.0 11309700000.0 11309700000.0 11309700000.0 11309700000.0 11309700000.0 11309700000.0 11309700000.0 11309700000.0 11309700000.0 11309700000.0 11309700000.0 11309700000.0 11309700000.0 11309700000.0 11309700000.0 11309700000.0 11309700000.0 11309700000.0 11309700000.0 11309700000.0 11309700000.0 11309700000.0 11309700000.0 11309700000.0 11309700000.0 11309700000.0 11309700000.0 11309700000.0 11309700000.0 11309700000.0 11309700000.0 11309700000.0 11309700000.0 11309700000.0 11309700000.0 11309700000.0 11309700000.0 11309700000.0 11309700000.0 11309700000.0 11309700000.0 11309700000.0 11309700000.0 11309700000.0 11309700000.0 11309700000.0 11309700000.0 11309700000.0 11309700000.0 11309700000.0 11309700000.0 11309700000.0 11309700000.0 11309700000.0 11309700000.0 11309700000.0 11309700000.0 11309700000.0 11309700000.0 11309700000.0 11309700000.0 11309700000.0 11309700000.0 11309700000.0 11309700000.0 11309700000.0 11309700000.0 11309700000.0 11309700000.0 11309700000.0 11309700000.0 11309700000.0 11309700000.0 11309700000.0 11309700000.0 11309700000.0 11309700000.0 11309700000.0 11309700000.0 11309700000.0 11309700000.0 11309700000.0 11309700000.0 11309700000.0 11309700000.0 11309700000.0 11309700000.0 11309700000.0 11309700000.0 11309700000.0 11309700000.0 11309700000.0 11309700000.0 11309700000.0 11309700000.0 11309700000.0 11309700000.0 11309700000.0 11309700000.0 11309700000.0 11309700000.0 11309700000.0 11309700000.0 11309700000.0 11309700000.0 11309700000.0 11309700000.0 11309700000.0 11309700000.0 11309700000.0 11309700000.0 11309700000.0 11309700000.0 11309700000.0 11309700000.0 11309700000.0 11309700000.0 11309700000.0 11309700000.0 11309700000.0 11309700000.0 11309700000.0 11309700000.0 11309700000.0 11309700000.0 11309700000.0 11309700000.0 11309700000.0 11309700000.0 11309700000.0 11309700000.0 11309700000.0 11309700000.0 11309700000.0 11309700000.0 11309700000.0 11309700000.0 11309700000.0 11309700000.0 11309700000.0 11309700000.0 11309700000.0 11309700000.0 11309700000.0 11309700000.0 11309700000.0 11309700000.0 11309700000.0 11309700000.0 11309700000.0 11309700000.0 11309700000.0 11309700000.0 11309700000.0 11309700000.0 11309700000.0 11309700000.0 11309700000.0 11309700000.0 11309700000.0 11309700000.0 11309700000.0 11309700000.0 11309700000.0 11309700000.0 11309700000.0 11309700000.0 11309700000.0 11309700000.0 11309700000.0 11309700000.0 11309700000.0 11309700000.0 11309700000.0 11309700000.0 11309700000.0 11309700000.0 11309700000.0 11309700000.0 11309700000.0 11309700000.0 11309700000.0 11309700000.0 11309700000.0 11309700000.0 11309700000.0 11309700000.0 11309700000.0 11309700000.0 11309700000.0 11309700000.0 11309700000.0 11309700000.0 11309700000.0 11309700000.0 11309700000.0 11309700000.0 11309700000.0 11309700000.0 11309700000.0 11309700000.0 11309700000.0 11309700000.0 11309700000.0 11309700000.0 11309700000.0 11309700000.0 11309700000.0 11309700000.0 11309700000.0 11309700000.0 11309700000.0 11309700000.0 11309700000.0 11309700000.0 11309700000.0 11309700000.0 11309700000.0 11309700000.0 11309700000.0 11309700000.0 11309700000.0 11309700000.0 11309700000.0 11309700000.0 11309700000.0 11309700000.0 11309700000.0 11309700000.0 11309700000.0 11309700000.0 11309700000.0 11309700000.0 11309700000.0 11309700000.0 11309700000.0 11309700000.0 11309700000.0 11309700000.0 11309700000.0 11309700000.0 11309700000.0 11309700000.0 11309700000.0 11309700000.0 11309700000.0 11309700000.0 11309700000.0 11309700000.0 11309700000.0 11309700000.0 11309700000.0 11309700000.0 11309700000.0 11309700000.0 11309700000.0 11309700000.0 11309700000.0 11309700000.0 11309700000.0 11309700000.0 11309700000.0 11309700000.0 11309700000.0 11309700000.0 11309700000.0 11309700000.0 11309700000.0 11309700000.0 11309700000.0 11309700000.0 11309700000.0 11309700000.0 11309700000.0 11309700000.0 11309700000.0 11309700000.0 11309700000.0 11309700000.0 11309700000.0 11309700000.0 11309700000.0 11309700000.0 11309700000.0 11309700000.0 11309700000.0 11309700000.0 11309700000.0 11309700000.0 11309700000.0 11309700000.0 11309700000.0 11309700000.0 11309700000.0 11309700000.0 11309700000.0 11309700000.0 11309700000.0 11309700000.0 11309700000.0 11309700000.0 11309700000.0 11309700000.0 11309700000.0 11309700000.0 11309700000.0 11309700000.0 11309700000.0 11309700000.0 11309700000.0 11309700000.0 11309700000.0 11309700000.0 11309700000.0 11309700000.0 11309700000.0 11309700000.0 11309700000.0 11309700000.0 11309700000.0 11309700000.0 11309700000.0 11309700000.0 11309700000.0 11309700000.0 11309700000.0 11309700000.0 11309700000.0 11309700000.0 11309700000.0 11309700000.0 11309700000.0 11309700000.0 11309700000.0 11309700000.0 11309700000.0 11309700000.0 11309700000.0 11309700000.0 11309700000.0 11309700000.0 11309700000.0 11309700000.0 11309700000.0 11309700000.0 11309700000.0 11309700000.0 11309700000.0 11309700000.0 11309700000.0 11309700000.0 11309700000.0 11309700000.0 11309700000.0 11309700000.0 11309700000.0 11309700000.0 11309700000.0 11309700000.0 11309700000.0 11309700000.0 11309700000.0 11309700000.0 11309700000.0 11309700000.0 11309700000.0 11309700000.0 11309700000.0 11309700000.0 11309700000.0 11309700000.0 11309700000.0 11309700000.0 11309700000.0 11309700000.0 11309700000.0 11309700000.0 11309700000.0 11309700000.0 11309700000.0 11309700000.0 11309700000.0 11309700000.0 11309700000.0 11309700000.0 11309700000.0 11309700000.0 11309700000.0 11309700000.0 11309700000.0 11309700000.0 11309700000.0 11309700000.0 11309700000.0 11309700000.0 11309700000.0 11309700000.0 11309700000.0 11309700000.0 11309700000.0 11309700000.0 11309700000.0 11309700000.0 11309700000.0 11309700000.0 11309700000.0 11309700000.0 11309700000.0 11309700000.0 11309700000.0 11309700000.0 11309700000.0 11309700000.0 11309700000.0 11309700000.0 11309700000.0 11309700000.0 11309700000.0 11309700000.0 11309700000.0 11309700000.0 11309700000.0 11309700000.0 11309700000.0 11309700000.0 11309700000.0 11309700000.0 11309700000.0 11309700000.0 11309700000.0 11309700000.0 11309700000.0 11309700000.0 11309700000.0 11309700000.0 11309700000.0 11309700000.0 11309700000.0 11309700000.0 11309700000.0 11309700000.0 11309700000.0 11309700000.0 11309700000.0 11309700000.0 11309700000.0 11309700000.0 11309700000.0 11309700000.0 11309700000.0 11309700000.0 11309700000.0 11309700000.0 11309700000.0 11309700000.0 11309700000.0 11309700000.0 11309700000.0 11309700000.0 11309700000.0 11309700000.0 11309700000.0 11309700000.0 11309700000.0 11309700000.0 11309700000.0 11309700000.0 11309700000.0 11309700000.0 11309700000.0 11309700000.0 11309700000.0 11309700000.0 11309700000.0 11309700000.0 11309700000.0 11309700000.0 11309700000.0 11309700000.0 11309700000.0 11309700000.0 11309700000.0 11309700000.0 11309700000.0 11309700000.0 11309700000.0 11309700000.0 11309700000.0 11309700000.0 11309700000.0 11309700000.0 11309700000.0 11309700000.0 11309700000.0 11309700000.0 11309700000.0 11309700000.0 11309700000.0 11309700000.0 11309700000.0 11309700000.0 11309700000.0 11309700000.0 11309700000.0 11309700000.0 11309700000.0 11309700000.0 11309700000.0 11309700000.0 11309700000.0 11309700000.0 11309700000.0 11309700000.0 11309700000.0 11309700000.0 11309700000.0 11309700000.0 11309700000.0 11309700000.0 11309700000.0 11309700000.0 11309700000.0 11309700000.0 11309700000.0 11309700000.0 11309700000.0 11309700000.0 11309700000.0 11309700000.0 11309700000.0 11309700000.0 11309700000.0 11309700000.0 11309700000.0 11309700000.0 11309700000.0 11309700000.0 11309700000.0 11309700000.0 11309700000.0 11309700000.0 11309700000.0 11309700000.0 11309700000.0 11309700000.0 11309700000.0 11309700000.0 11309700000.0 11309700000.0 11309700000.0 11309700000.0 11309700000.0 11309700000.0 11309700000.0 11309700000.0 11309700000.0 11309700000.0 11309700000.0 11309700000.0 11309700000.0 11309700000.0 11309700000.0 11309700000.0 11309700000.0 11309700000.0 11309700000.0 11309700000.0 11309700000.0 11309700000.0 11309700000.0 11309700000.0 11309700000.0 11309700000.0 11309700000.0 11309700000.0 11309700000.0 11309700000.0 11309700000.0 11309700000.0 11309700000.0 11309700000.0 11309700000.0 11309700000.0 11309700000.0 11309700000.0 11309700000.0 11309700000.0 11309700000.0 11309700000.0 11309700000.0 11309700000.0 11309700000.0 11309700000.0 11309700000.0 11309700000.0 11309700000.0 11309700000.0 11309700000.0 11309700000.0 11309700000.0 11309700000.0 11309700000.0 11309700000.0 11309700000.0 11309700000.0 11309700000.0 11309700000.0 11309700000.0 11309700000.0 11309700000.0 11309700000.0 11309700000.0 11309700000.0 11309700000.0 11309700000.0 11309700000.0 11309700000.0 11309700000.0 11309700000.0 11309700000.0 11309700000.0 11309700000.0 11309700000.0 11309700000.0 11309700000.0 11309700000.0 11309700000.0 11309700000.0 11309700000.0 11309700000.0 11309700000.0 11309700000.0 11309700000.0 11309700000.0 11309700000.0 11309700000.0 11309700000.0 11309700000.0 11309700000.0 11309700000.0 11309700000.0 11309700000.0 11309700000.0 11309700000.0 11309700000.0 11309700000.0 11309700000.0 11309700000.0 11309700000.0 11309700000.0 11309700000.0 11309700000.0 11309700000.0 11309700000.0 11309700000.0 11309700000.0 11309700000.0 11309700000.0 11309700000.0 11309700000.0 11309700000.0 11309700000.0 11309700000.0 11309700000.0 11309700000.0 11309700000.0 11309700000.0 11309700000.0 11309700000.0 11309700000.0 11309700000.0 11309700000.0 11309700000.0 11309700000.0 11309700000.0 11309700000.0 11309700000.0 11309700000.0 11309700000.0 11309700000.0 11309700000.0 11309700000.0 11309700000.0 11309700000.0 11309700000.0 11309700000.0 11309700000.0 11309700000.0 11309700000.0 11309700000.0 11309700000.0 11309700000.0 11309700000.0 11309700000.0 11309700000.0 11309700000.0 11309700000.0 11309700000.0 11309700000.0 11309700000.0 11309700000.0 11309700000.0 11309700000.0 11309700000.0 11309700000.0 11309700000.0 11309700000.0 11309700000.0 11309700000.0 11309700000.0 11309700000.0 11309700000.0 11309700000.0 11309700000.0 11309700000.0 11309700000.0 11309700000.0 11309700000.0 11309700000.0 11309700000.0 11309700000.0 11309700000.0 11309700000.0 11309700000.0 11309700000.0 11309700000.0 11309700000.0 11309700000.0 11309700000.0 11309700000.0 11309700000.0 11309700000.0 11309700000.0 11309700000.0 11309700000.0 11309700000.0 11309700000.0 11309700000.0 11309700000.0 11309700000.0 11309700000.0 11309700000.0 11309700000.0 11309700000.0 11309700000.0 11309700000.0 11309700000.0 11309700000.0 11309700000.0 11309700000.0 11309700000.0 11309700000.0 11309700000.0 11309700000.0 11309700000.0 11309700000.0 11309700000.0 11309700000.0 11309700000.0 11309700000.0 11309700000.0 11309700000.0 11309700000.0 11309700000.0 11309700000.0 11309700000.0 11309700000.0 11309700000.0 11309700000.0 11309700000.0 11309700000.0 11309700000.0 11309700000.0 11309700000.0 11309700000.0 11309700000.0 11309700000.0 11309700000.0 11309700000.0 11309700000.0 11309700000.0 11309700000.0 11309700000.0 11309700000.0 11309700000.0 11309700000.0 11309700000.0 11309700000.0 11309700000.0 11309700000.0 11309700000.0 11309700000.0 11309700000.0 11309700000.0 11309700000.0 11309700000.0 11309700000.0 11309700000.0 11309700000.0 11309700000.0 11309700000.0 11309700000.0 11309700000.0 11309700000.0 11309700000.0 11309700000.0 11309700000.0 11309700000.0 11309700000.0 11309700000.0 11309700000.0 11309700000.0 11309700000.0 11309700000.0 11309700000.0 11309700000.0 11309700000.0 11309700000.0 11309700000.0 11309700000.0 11309700000.0 11309700000.0 11309700000.0 11309700000.0 11309700000.0 11309700000.0 11309700000.0 11309700000.0 11309700000.0 11309700000.0 11309700000.0 11309700000.0 11309700000.0 11309700000.0 11309700000.0 11309700000.0 11309700000.0 11309700000.0 11309700000.0 11309700000.0 11309700000.0 11309700000.0 11309700000.0 11309700000.0 11309700000.0 11309700000.0 11309700000.0 11309700000.0 11309700000.0 11309700000.0 11309700000.0 11309700000.0 11309700000.0 11309700000.0 11309700000.0 11309700000.0 11309700000.0 11309700000.0 11309700000.0 11309700000.0 11309700000.0 11309700000.0 11309700000.0 11309700000.0 11309700000.0 11309700000.0 11309700000.0 11309700000.0 11309700000.0 11309700000.0 11309700000.0 11309700000.0 11309700000.0 11309700000.0 11309700000.0 11309700000.0 11309700000.0 11309700000.0 11309700000.0 11309700000.0 11309700000.0 11309700000.0 11309700000.0 11309700000.0 11309700000.0 11309700000.0 11309700000.0 11309700000.0 11309700000.0 11309700000.0 11309700000.0 11309700000.0 11309700000.0 11309700000.0 11309700000.0 11309700000.0 11309700000.0 11309700000.0 11309700000.0 11309700000.0 11309700000.0 11309700000.0 11309700000.0 11309700000.0 11309700000.0 11309700000.0 11309700000.0 11309700000.0 11309700000.0 11309700000.0 11309700000.0 11309700000.0 11309700000.0 11309700000.0 11309700000.0 11309700000.0 11309700000.0 11309700000.0 11309700000.0 11309700000.0 11309700000.0 11309700000.0 11309700000.0 11309700000.0 11309700000.0 11309700000.0 11309700000.0 11309700000.0 11309700000.0 11309700000.0 11309700000.0 11309700000.0 11309700000.0 11309700000.0 11309700000.0 11309700000.0 11309700000.0 11309700000.0 11309700000.0 11309700000.0 11309700000.0 11309700000.0 11309700000.0 11309700000.0 11309700000.0 11309700000.0 11309700000.0 11309700000.0 11309700000.0 11309700000.0 11309700000.0 11309700000.0 11309700000.0 11309700000.0 11309700000.0 11309700000.0 11309700000.0 11309700000.0 11309700000.0 11309700000.0 11309700000.0 11309700000.0 11309700000.0 11309700000.0 11309700000.0 11309700000.0 11309700000.0 11309700000.0 11309700000.0 11309700000.0 11309700000.0 11309700000.0 11309700000.0 11309700000.0 11309700000.0 11309700000.0 11309700000.0 11309700000.0 11309700000.0 11309700000.0 11309700000.0 11309700000.0 11309700000.0 11309700000.0 11309700000.0 11309700000.0 11309700000.0 11309700000.0 11309700000.0 11309700000.0 11309700000.0 11309700000.0 11309700000.0 11309700000.0 11309700000.0 11309700000.0 11309700000.0 11309700000.0 11309700000.0 11309700000.0 11309700000.0 11309700000.0 11309700000.0 11309700000.0 11309700000.0 11309700000.0 11309700000.0 11309700000.0 11309700000.0 11309700000.0 11309700000.0 11309700000.0 11309700000.0 11309700000.0 11309700000.0 11309700000.0 11309700000.0 11309700000.0 11309700000.0 11309700000.0 11309700000.0 11309700000.0 11309700000.0 11309700000.0 11309700000.0 11309700000.0 11309700000.0 11309700000.0 11309700000.0 11309700000.0 11309700000.0 11309700000.0 11309700000.0 11309700000.0 11309700000.0 11309700000.0 11309700000.0 11309700000.0 11309700000.0 11309700000.0 11309700000.0 11309700000.0 11309700000.0 11309700000.0 11309700000.0 11309700000.0 11309700000.0 11309700000.0 11309700000.0 11309700000.0 11309700000.0 11309700000.0 11309700000.0 11309700000.0 11309700000.0 11309700000.0 11309700000.0 11309700000.0 11309700000.0 11309700000.0 11309700000.0 11309700000.0 11309700000.0 11309700000.0 11309700000.0 11309700000.0 11309700000.0 11309700000.0 11309700000.0 11309700000.0 11309700000.0 11309700000.0 11309700000.0 11309700000.0 11309700000.0 11309700000.0 11309700000.0 11309700000.0 11309700000.0 11309700000.0 11309700000.0 11309700000.0 11309700000.0 11309700000.0 11309700000.0 11309700000.0 11309700000.0 11309700000.0 11309700000.0 11309700000.0 11309700000.0 11309700000.0 11309700000.0 11309700000.0 11309700000.0 11309700000.0 11309700000.0 11309700000.0 11309700000.0 11309700000.0 11309700000.0 11309700000.0 11309700000.0 11309700000.0 11309700000.0 11309700000.0 11309700000.0 11309700000.0 11309700000.0 11309700000.0 11309700000.0 11309700000.0 11309700000.0 11309700000.0 11309700000.0 11309700000.0 11309700000.0 11309700000.0 11309700000.0 11309700000.0 11309700000.0 11309700000.0 11309700000.0 11309700000.0 11309700000.0 11309700000.0 11309700000.0 11309700000.0 11309700000.0 11309700000.0 11309700000.0 11309700000.0 11309700000.0 11309700000.0 11309700000.0 11309700000.0 11309700000.0 11309700000.0 11309700000.0 11309700000.0 11309700000.0 11309700000.0 11309700000.0 11309700000.0 11309700000.0 11309700000.0 11309700000.0 11309700000.0 11309700000.0 11309700000.0 11309700000.0 11309700000.0 11309700000.0 11309700000.0 11309700000.0 11309700000.0 11309700000.0 11309700000.0 11309700000.0 11309700000.0 11309700000.0 11309700000.0 11309700000.0 11309700000.0 11309700000.0 11309700000.0 11309700000.0 11309700000.0 11309700000.0 11309700000.0 11309700000.0 11309700000.0 11309700000.0 11309700000.0 11309700000.0 11309700000.0 11309700000.0 11309700000.0 11309700000.0 11309700000.0 11309700000.0 11309700000.0 11309700000.0 11309700000.0 11309700000.0 11309700000.0 11309700000.0 11309700000.0 11309700000.0 11309700000.0 11309700000.0 11309700000.0 11309700000.0 11309700000.0 11309700000.0 11309700000.0 11309700000.0 11309700000.0 11309700000.0 11309700000.0 11309700000.0 11309700000.0 11309700000.0 11309700000.0 11309700000.0 11309700000.0 11309700000.0 11309700000.0 11309700000.0 11309700000.0 11309700000.0 11309700000.0 11309700000.0 11309700000.0 11309700000.0 11309700000.0 11309700000.0 11309700000.0 11309700000.0 11309700000.0 11309700000.0 11309700000.0 11309700000.0 11309700000.0 11309700000.0 11309700000.0 11309700000.0 11309700000.0 11309700000.0 11309700000.0 
SCALARS Velocity float 1
LOOKUP_TABLE default
0.990227 1.26235 1.26235 0.990227 1.19109 1.25622 1.14734 1.14734 1.25622 1.19109 1.07754 1.23999 1.284 1.1848 0.997491 1.06999 1.09305 1.14228 1.15276 1.41346 1.41346 1.15276 1.14228 1.09305 1.06999 0.997491 1.1848 1.284 1.23999 1.07754 1.16059 1.27077 1.16859 1.15314 1.07028 1.09512 1.19318 1.18859 1.10441 1.18859 1.19318 1.09512 1.07028 1.15314 1.16859 1.27077 1.16059 1.23847 1.13285 1.14023 1.16013 1.20755 1.08835 1.16662 1.10437 1.10437 1.16662 1.08835 1.20755 1.16013 1.14023 1.13285 1.23847 1.19933 1.18284 1.27242 1.15227 1.13266 1.20413 0.997431 1.09051 1.16295 1.08913 1.10516 1.11046 1.10906 1.11046 1.10516 1.08913 1.16295 1.09051 0.997432 1.20413 1.13266 1.15227 1.27242 1.18284 1.19933 0.496949 1.38092 1.35363 1.08061 1.0355 1.15685 1.01687 1.08208 1.10593 1.11492 1.10593 1.08208 1.01687 1.15685 1.0355 1.08061 1.35363 1.38092 0.49695 0.865012 0.952203 1.53564 0.997505 1.0417 1.19669 1.03376 1.09446 1.11448 1.11448 1.09446 1.03376 1.19669 1.0417 0.997505 1.53564 0.952202 0.865012 0.917174 0.830534 0.728762 1.01452 1.47585 0.876281 1.05825 1.04563 0.965537 0.991584 1.0288 1.07191 1.0925 1.10854 1.11696 1.11898 1.11696 1.10854 1.0925 1.07191 1.0288 0.991584 0.965537 1.04563 1.05825 0.876281 1.47585 1.01452 0.728763 0.830534 0.917174 0.82275 0.893228 0.916652 0.843401 0.809718 0.894635 0.870229 1.00563 0.996116 0.990074 1.06409 1.10822 1.12048 1.10822 1.06409 0.990075 0.996116 1.00563 0.870228 0.894635 0.809718 0.843401 0.916652 0.893229 0.82275 0.381329 0.980397 0.794495 0.673491 0.755791 0.909262 0.895274 0.863819 0.957624 0.975179 1.01939 1.09134 1.11504 1.11504 1.09134 1.01939 0.975178 0.957624 0.863819 0.895274 0.909261 0.755791 0.673491 0.794494 0.980397 0.381329 0.561924 0.958926 1.08235 0.806343 0.667296 0.62711 0.845853 0.851231 0.867842 0.884909 0.974835 0.975581 0.98691 1.00999 1.06354 1.09769 1.10657 1.1045 1.11746 1.1045 1.10657 1.0977 1.06354 1.00999 0.98691 0.97558 0.974835 0.884908 0.867842 0.851231 0.845853 0.62711 0.667296 0.806343 1.08235 0.958926 0.561924 0.562833 0.65955 0.983696 1.17653 0.826307 0.690024 0.601547 0.623167 0.838759 0.8668 0.906638 0.946435 0.970872 0.985708 1.07993 1.09946 1.11124 1.09946 1.07994 0.985707 0.970872 0.946434 0.906637 0.8668 0.838759 0.623166 0.601547 0.690024 0.826307 1.17654 0.983696 0.65955 0.562833 0.348973 0.451448 0.45584 0.572601 1.42173 0.883046 0.674861 0.613308 0.633042 0.79877 0.85795 0.883655 0.951272 0.985992 1.0042 1.10389 1.0789 1.07891 1.1039 1.0042 0.985992 0.951272 0.883654 0.85795 0.798771 0.633042 0.613308 0.674861 0.883046 1.42173 0.572601 0.45584 0.451448 0.348973 0.308333 0.321346 0.190156 0.486757 0.91655 0.655335 0.661243 0.719533 0.803184 0.834614 0.863764 0.923114 0.98015 1.00835 1.00838 1.0044 0.955059 0.87678 1.08743 1.08233 0.965057 1.08235 1.08744 0.876758 0.955051 1.00439 1.00838 1.00835 0.98015 0.923114 0.863764 0.834614 0.803184 0.719533 0.661244 0.655335 0.91655 0.486757 0.190156 0.321346 0.308333 0.304146 0.272032 0.226456 0.254709 0.196579 1.2541 0.877461 0.765451 0.72726 0.708945 0.769653 0.84171 0.895711 0.943227 0.966016 1.00426 1.02544 0.864264 0.925536 0.982495 0.982597 0.925479 0.864261 1.02544 1.00426 0.966016 0.943227 0.895711 0.84171 0.769654 0.708945 0.72726 0.765452 0.877461 1.2541 0.196579 0.254709 0.226456 0.272032 0.304146 0.321601 0.311776 0.284185 0.264566 0.165251 0.0645687 0.278495 0.968829 0.789825 0.727135 0.768325 0.820316 0.877224 0.908611 0.993891 1.03559 0.861938 0.854003 0.821456 0.452646 0.821471 0.853999 0.861936 1.03559 0.993891 0.908611 0.877224 0.820317 0.768325 0.727136 0.789825 0.968829 0.278495 0.0645687 0.165251 0.264566 0.284185 0.311776 0.321601 0.371168 0.348837 0.343446 0.313231 0.332472 0.250052 0.264456 0.419923 0.839205 0.788244 0.759504 0.767845 0.808753 0.857626 0.898662 0.972216 1.03817 1.04029 0.846078 0.860273 0.86128 0.806179 0.751943 0.778146 0.778125 0.751976 0.806193 0.861276 0.860271 0.846079 1.04029 1.03817 0.972216 0.898662 0.857626 0.808753 0.767846 0.759504 0.788244 0.839205 0.419923 0.264456 0.250052 0.332472 0.313231 0.343446 0.348837 0.371168 0.385561 0.370507 0.378235 0.350283 0.373225 0.375231 0.441902 0.631912 0.829567 0.795186 0.768713 0.810955 0.840013 0.841327 0.876137 0.91781 1.02378 0.822612 0.830558 0.852168 0.831226 0.737521 0.744402 0.737531 0.831228 0.852168 0.830559 0.822614 1.02378 0.917809 0.876136 0.841328 0.840013 0.810955 0.768714 0.795186 0.829566 0.631911 0.441902 0.375231 0.373225 0.350283 0.378235 0.370507 0.385561 0.394117 0.388314 0.396611 0.397448 0.417059 0.48533 0.475384 0.581925 0.779211 0.771181 0.79252 0.862085 0.845104 0.933007 0.935017 0.833881 0.844661 0.842314 0.782127 0.752303 0.727577 0.752296 0.782129 0.842313 0.844662 0.833884 0.935016 0.933006 0.845104 0.862088 0.792523 0.771181 0.779211 0.581925 0.475384 0.48533 0.417059 0.397448 0.396611 0.388313 0.394117 0.400901 0.401862 0.39714 0.406934 0.413781 0.442561 0.432664 0.482687 0.558732 0.684884 0.747594 0.770372 0.765934 0.777968 0.840838 0.850267 0.87523 0.980058 0.695596 0.84267 0.844636 0.820267 0.808937 0.769638 0.740571 0.733877 0.733877 0.740574 0.769638 0.808936 0.820267 0.844636 0.842671 0.695594 0.980057 0.875229 0.850267 0.840844 0.777974 0.765936 0.770373 0.747594 0.684884 0.558732 0.482687 0.432664 0.442561 0.413781 0.406934 0.39714 0.401862 0.400901 0.402702 0.404226 0.404582 0.411534 0.426924 0.42296 0.448486 0.483007 0.541228 0.605997 0.634945 0.697102 0.77077 0.8464 0.956271 0.771857 0.815051 0.894809 0.887883 0.863938 0.849746 0.824492 0.790037 0.739465 0.722186 0.739465 0.790037 0.824492 0.849747 0.86394 0.887885 0.894809 0.815052 0.771857 0.956272 0.846405 0.770771 0.697101 0.634945 0.605997 0.541228 0.483007 0.448486 0.42296 0.426924 0.411534 0.404582 0.404226 0.402702 0.396991 0.402632 0.41251 0.428882 0.450666 0.483207 0.523468 0.531263 0.584377 0.664922 0.730802 0.789657 0.893264 0.907387 1.18504 0.850026 1.11908 0.689063 0.917877 0.824915 0.801293 0.760612 0.728107 0.728108 0.760613 0.801294 0.824916 0.917879 0.689061 1.11908 0.850026 1.18504 0.907389 0.893259 0.78966 0.730802 0.664922 0.584377 0.531263 0.523468 0.483207 0.450666 0.428881 0.41251 0.402632 0.396991 0.393698 0.401758 0.401107 0.406377 0.422812 0.450348 0.480327 0.482348 0.520768 0.5692 0.640734 0.690326 0.701172 0.72756 0.769614 0.8231 0.978134 0.745637 1.03931 0.898225 0.825702 0.817662 0.808579 0.79046 0.777041 0.755381 0.739034 0.728927 0.723526 0.728928 0.739035 0.755381 0.777041 0.790461 0.808579 0.817663 0.825703 0.898225 1.03931 0.745632 0.978137 0.823108 0.769612 0.72756 0.701171 0.690325 0.640733 0.5692 0.520768 0.482348 0.480327 0.450347 0.422812 0.406377 0.401107 0.401758 0.393697 0.394552 0.397781 0.399625 0.402509 0.409875 0.440951 0.448516 0.47743 0.517254 0.560695 0.607048 0.624533 0.681465 0.701318 0.789661 0.989139 1.28253 0.75812 0.95252 1.09654 0.711519 0.851218 0.882028 0.852252 0.803755 0.770782 0.739951 0.726988 0.739951 0.770782 0.803756 0.852254 0.88203 0.851219 0.71152 1.09654 0.952514 0.758115 1.28252 0.989139 0.789663 0.701317 0.681465 0.624533 0.607048 0.560695 0.517255 0.477429 0.448516 0.440951 0.409875 0.402509 0.399625 0.397781 0.394552 0.397426 0.398919 0.396437 0.40049 0.399926 0.427184 0.481953 0.514133 0.55242 0.555618 0.588438 0.663398 0.725829 0.776142 0.950102 0.921278 1.07147 0.2814 0.503612 0.749073 0.564519 0.8957 0.828876 0.786402 0.753927 0.731924 0.731924 0.753928 0.786402 0.828877 0.895701 0.564519 0.749072 0.503609 0.2814 1.07147 0.92128 0.950104 0.776146 0.725828 0.663398 0.588438 0.555618 0.55242 0.514133 0.481953 0.427183 0.399925 0.40049 0.396437 0.398919 0.397426 0.391739 0.397066 0.399908 0.401998 0.400857 0.412081 0.480115 0.534934 0.513563 0.55526 0.583554 0.625722 0.667958 0.708713 0.75124 0.745152 0.879391 0.941295 1.08076 0.82884 0.774012 0.615465 0.568701 0.328426 0.8651 0.831205 0.805502 0.788258 0.770217 0.754875 0.741542 0.734286 0.730264 0.734286 0.741542 0.754875 0.770217 0.788258 0.805502 0.831207 0.865101 0.328421 0.568704 0.615462 0.774012 0.828841 1.08075 0.941293 0.879391 0.745155 0.751241 0.708713 0.667958 0.625722 0.583554 0.55526 0.513563 0.534934 0.480115 0.41208 0.400857 0.401998 0.399908 0.397065 0.391738 0.383523 0.396707 0.388399 0.394798 0.379941 0.390409 0.463616 0.542806 0.561043 0.593306 0.620921 0.599304 0.637813 0.759838 0.835974 1.02559 0.527269 0.811809 0.540548 0.348513 0.442837 0.370418 0.904296 0.854181 0.808836 0.771746 0.743085 0.732569 0.743085 0.771746 0.808837 0.854182 0.904296 0.370412 0.442839 0.348516 0.540545 0.811815 0.527275 1.02558 0.835975 0.75984 0.637813 0.599304 0.620921 0.593306 0.561043 0.542807 0.463615 0.390409 0.379941 0.394798 0.388399 0.396707 0.383523 0.380592 0.385634 0.393162 0.386302 0.365942 0.349418 0.341529 0.419913 0.567886 0.603024 0.605693 0.61357 0.647828 0.608225 0.729639 0.836674 0.882131 0.880841 0.956618 0.581136 0.592406 0.419643 0.546953 0.595851 0.865263 0.834298 0.792568 0.756198 0.736436 0.736436 0.756198 0.792568 0.834299 0.865265 0.595849 0.546951 0.419642 0.592403 0.581138 0.956616 0.88084 0.882133 0.836674 0.72964 0.608225 0.647828 0.61357 0.605692 0.603023 0.567885 0.419913 0.341529 0.349419 0.365942 0.386302 0.393162 0.385634 0.380592 0.373364 0.384148 0.373809 0.399677 0.36898 0.318283 0.332477 0.301218 0.337044 0.606019 0.639352 0.703716 0.639555 0.652317 0.678199 0.852766 0.838081 0.244271 0.508613 0.516014 0.448769 0.600796 0.545901 0.595569 0.644449 0.617972 0.831734 0.856329 0.81548 0.795135 0.773033 0.758319 0.744807 0.737911 0.734738 0.737911 0.744807 0.758319 0.773033 0.795134 0.81548 0.856328 0.831735 0.617973 0.64445 0.595569 0.5459 0.600797 0.448766 0.516018 0.508614 0.244271 0.838081 0.852767 0.6782 0.652317 0.639555 0.703716 0.639352 0.606021 0.337043 0.301217 0.332478 0.318283 0.36898 0.399677 0.373809 0.384148 0.373364 0.367728 0.373584 0.392584 0.39372 0.34653 0.25515 0.33466 0.408415 0.417823 0.466373 0.557566 0.41907 0.561491 0.553215 0.663745 0.874574 0.784181 0.487146 0.515096 0.515778 0.57819 0.585448 0.613835 0.583177 0.483259 0.842839 0.806724 0.774553 0.745776 0.736378 0.745776 0.774551 0.806723 0.842839 0.483259 0.583178 0.613835 0.585448 0.578191 0.515778 0.515096 0.487147 0.78418 0.874575 0.663745 0.553215 0.561491 0.419069 0.557567 0.466373 0.417823 0.408414 0.334657 0.255151 0.346531 0.39372 0.392584 0.373584 0.367727 0.372198 0.371476 0.375431 0.383094 0.389507 0.364631 0.279891 0.209025 0.200552 0.289701 0.457875 0.552788 0.540629 0.573409 0.613906 0.486187 0.558228 0.61349 0.30472 0.625386 0.496267 0.479951 0.514999 0.551166 0.583874 0.581193 0.53872 0.770966 0.807233 0.761971 0.740026 0.740025 0.76197 0.807231 0.770966 0.538719 0.581193 0.583875 0.551167 0.514999 0.479952 0.496266 0.625386 0.304719 0.61349 0.558227 0.486188 0.613906 0.573409 0.540629 0.552789 0.457874 0.289699 0.200551 0.209025 0.279893 0.364632 0.389507 0.383094 0.375431 0.371476 0.372198 0.187024 0.35846 0.357843 0.363754 0.372699 0.378761 0.322286 0.2464 0.239269 0.40865 0.643794 0.531591 0.570259 0.365475 0.491389 0.674316 0.600093 0.537419 0.571692 0.591496 0.592248 0.605033 0.596907 0.80223 0.801299 0.836295 0.770971 0.770605 0.748036 0.745181 0.740087 0.74518 0.748034 0.7706 0.770968 0.83629 0.801297 0.802229 0.596907 0.605032 0.592248 0.591496 0.571692 0.537419 0.600092 0.674315 0.491388 0.365476 0.570258 0.531591 0.643795 0.408651 0.239268 0.2464 0.322286 0.378761 0.372699 0.363754 0.357843 0.35846 0.187024 0.171751 0.234667 0.181367 0.34423 0.347873 0.360336 0.382479 0.369615 0.349281 0.289533 0.25599 0.311036 0.347224 0.496531 0.585436 0.596803 0.557027 0.536658 0.583189 0.548295 0.504123 0.623903 0.672032 0.676402 0.496701 0.604093 0.60702 0.578606 0.60871 0.557975 0.80104 0.758569 0.771843 0.7392 0.758685 0.747224 0.758678 0.739197 0.771842 0.758569 0.80104 0.557975 0.60871 0.578606 0.607017 0.604092 0.496701 0.676402 0.672032 0.623902 0.504122 0.548295 0.583189 0.536658 0.557027 0.596803 0.585436 0.49653 0.347223 0.311036 0.25599 0.289533 0.349281 0.369615 0.382479 0.360336 0.347873 0.34423 0.181367 0.234667 0.171751 0.143476 0.333134 0.361991 0.382662 0.389478 0.31845 0.26713 0.305409 0.443747 0.480952 0.566686 0.623222 0.591917 0.576853 0.572424 0.568006 0.556091 0.551255 0.47785 0.656989 0.688779 0.702611 0.526742 0.579818 0.699968 0.798452 0.751866 0.78734 0.729035 0.895508 0.800745 0.752074 0.75207 0.800731 0.895504 0.729035 0.787337 0.751866 0.798451 0.699967 0.579816 0.526742 0.702611 0.688779 0.656988 0.47785 0.551255 0.556091 0.568005 0.572424 0.576853 0.591917 0.623223 0.566688 0.480951 0.443747 0.30541 0.267129 0.31845 0.389478 0.382662 0.361991 0.333134 0.143476 0.34488 0.115186 0.361567 0.384585 0.376434 0.392606 0.335152 0.263444 0.259547 0.492639 0.492471 0.619685 0.629171 0.615331 0.586468 0.584417 0.579265 0.574898 0.568047 0.540345 0.555224 0.607133 0.706498 0.713398 0.623003 0.629171 0.700083 0.724453 0.84803 0.997309 0.705743 0.814937 0.776418 0.753344 0.753875 0.753331 0.776411 0.814918 0.705749 0.997308 0.84803 0.724453 0.700084 0.629168 0.623002 0.713398 0.706497 0.607132 0.555223 0.540344 0.568046 0.574898 0.579265 0.584418 0.586467 0.61533 0.629171 0.619686 0.492471 0.49264 0.259546 0.263443 0.335153 0.392606 0.376434 0.384585 0.361567 0.115186 0.34488 0.360269 0.257346 0.258583 0.37623 0.392022 0.365783 0.326161 0.288047 0.224824 1.01772 0.4352 0.651834 0.588337 0.587557 0.587736 0.588717 0.582742 0.59189 0.620445 0.650871 0.684831 0.637705 0.626241 0.714775 0.733422 0.701076 0.789262 0.750238 0.844105 0.777889 0.717346 0.747229 0.740301 0.750106 0.74032 0.747219 0.717344 0.777882 0.844105 0.750237 0.789262 0.701076 0.733422 0.714775 0.626239 0.637706 0.684831 0.650871 0.620445 0.59189 0.582742 0.588717 0.587736 0.587557 0.588336 0.651835 0.4352 1.01772 0.224823 0.288047 0.326161 0.365783 0.392022 0.37623 0.258583 0.257345 0.360268 0.434808 0.263191 0.40251 0.37042 0.375165 0.294659 0.116291 0.726321 0.651434 0.609162 0.606055 0.609437 0.617116 0.633316 0.653258 0.688026 0.709379 0.710769 0.680891 0.694499 0.893028 0.799329 0.888316 0.815074 0.742307 0.930527 0.678071 0.822517 0.734983 0.734987 0.82251 0.678073 0.930548 0.742283 0.815072 0.888326 0.799328 0.893029 0.6945 0.68089 0.710769 0.709379 0.688025 0.653258 0.633316 0.617116 0.609436 0.606055 0.609163 0.651434 0.726322 0.11629 0.294659 0.375165 0.37042 0.40251 0.26319 0.434809 0.450604 0.457038 0.361197 0.417432 0.416821 0.317998 0.294136 0.209577 0.345257 1.12309 1.13905 0.657676 0.585583 0.594842 0.585741 0.589332 0.5999 0.604945 0.655707 0.65949 0.662962 0.655154 0.612013 0.599292 0.706865 0.738389 0.876584 0.7427 0.753418 0.739065 0.753398 0.742707 0.876556 0.738392 0.706866 0.599291 0.612015 0.655155 0.662963 0.65949 0.655708 0.604945 0.5999 0.589332 0.58574 0.594843 0.585584 0.657676 1.13905 1.12309 0.345257 0.209577 0.294136 0.317998 0.416821 0.417432 0.361197 0.457039 0.450604 0.521283 0.506059 0.891951 0.367214 0.51058 0.72169 0.942345 0.823562 0.622929 0.581589 0.606723 0.597988 0.601099 0.610771 0.623495 0.634187 0.642883 0.650082 0.655728 0.626419 0.588106 0.665535 0.717338 0.721068 0.908459 0.750921 0.874614 0.777549 0.749313 0.703476 0.734257 0.749194 0.73427 0.703481 0.749314 0.777549 0.874618 0.750919 0.908457 0.721069 0.71734 0.665538 0.588105 0.62642 0.655729 0.650082 0.642883 0.634187 0.623495 0.610771 0.601099 0.597987 0.606724 0.581589 0.62293 0.823562 0.942344 0.72169 0.510579 0.367215 0.891951 0.506058 0.521283 0.493366 0.548444 0.285927 1.06166 0.692546 0.73991 0.744687 0.728273 0.642234 0.603189 0.605326 0.60624 0.61509 0.632037 0.64564 0.654278 0.657202 0.659 0.66129 0.662067 0.594514 0.627399 0.727574 0.733878 0.918797 0.857036 0.872182 0.804037 0.780067 0.647422 0.725692 0.809849 0.745473 0.745397 0.809852 0.725683 0.647426 0.78007 0.804038 0.872182 0.857035 0.918795 0.73388 0.727572 0.627397 0.594513 0.662068 0.661291 0.659001 0.657202 0.654278 0.64564 0.632037 0.61509 0.60624 0.605326 0.603189 0.642234 0.728273 0.744687 0.739909 0.692546 1.06166 0.285927 0.548444 0.493367 0.545368 0.57962 0.619895 0.520784 0.780182 0.259144 0.786437 0.644957 0.639579 0.656374 0.667704 0.666605 0.663107 0.660876 0.66098 0.655306 0.636663 0.672087 0.744746 0.754279 0.725439 0.754135 0.744772 0.67209 0.636663 0.655307 0.660981 0.660877 0.663107 0.666605 0.667704 0.656374 0.639579 0.644957 0.786436 0.259144 0.780182 0.520785 0.619895 0.579618 0.545368 0.489191 0.651215 0.722863 0.708303 0.722099 0.696382 0.709482 0.688361 0.649342 0.610087 0.621238 0.621334 0.664231 0.661697 0.665644 0.654826 0.618911 0.601766 0.571228 0.881284 0.750621 0.934787 0.869452 0.87511 0.820117 0.807332 0.737781 0.757738 0.769292 0.707952 0.76937 0.757737 0.737787 0.807332 0.820118 0.87511 0.869451 0.934785 0.750622 0.881284 0.571226 0.601766 0.618912 0.654826 0.665644 0.661698 0.664232 0.621334 0.621238 0.610087 0.649342 0.688361 0.709482 0.696382 0.722099 0.708304 0.722864 0.651217 0.489191 0.571175 0.608023 0.743124 0.733525 0.71401 0.69062 0.676687 0.654776 0.643888 0.628783 0.647887 0.665818 0.67923 0.682452 0.658743 0.649441 0.639714 0.578102 0.932981 0.867944 0.862338 0.873068 0.867239 0.816815 0.81565 0.749532 0.786473 0.699656 0.822209 0.74517 0.698268 0.744908 0.822231 0.699642 0.786462 0.749534 0.815643 0.816815 0.867238 0.873066 0.862324 0.867947 0.93298 0.578102 0.639714 0.649441 0.658743 0.682452 0.679231 0.665818 0.647887 0.628783 0.643887 0.654776 0.676687 0.69062 0.71401 0.733525 0.743124 0.608023 0.571175 0.628383 0.646362 0.716551 0.671222 0.908559 0.68361 0.766989 0.716815 0.715933 0.700467 0.675474 0.678809 0.641521 0.658109 0.672999 0.692568 0.69783 0.667186 0.657941 0.662398 0.666115 0.599134 0.892503 0.859514 0.834792 0.773572 0.722695 0.765299 0.76519 0.722668 0.773545 0.834789 0.859512 0.892501 0.599134 0.666115 0.662399 0.657941 0.667186 0.69783 0.692568 0.673 0.658109 0.641521 0.678809 0.675474 0.700467 0.715933 0.716815 0.766989 0.683609 0.908559 0.671222 0.716551 0.646362 0.628383 0.533868 0.864409 0.698884 0.700939 0.849408 0.933328 0.727399 0.761329 0.713008 0.662523 0.669605 0.680157 0.705118 0.712447 0.671018 0.661769 0.6557 0.67167 0.655874 0.654163 0.621413 0.834681 0.91801 0.839681 0.831199 0.812122 0.767058 0.697818 0.767143 0.812129 0.831193 0.839683 0.918023 0.834681 0.621413 0.654162 0.655874 0.67167 0.655701 0.66177 0.671018 0.712447 0.705118 0.680157 0.669606 0.662523 0.713008 0.761329 0.727399 0.933328 0.849408 0.700939 0.698884 0.864409 0.533868 0.716174 0.709091 0.719926 0.774958 0.873816 0.887455 0.724025 0.710631 0.693703 0.749427 0.724425 0.694659 0.715509 0.669415 0.678579 0.930828 0.635028 0.878788 0.9144 0.811006 0.84999 0.833487 0.831357 0.833081 0.789283 0.82865 0.741662 0.791875 0.86276 0.701441 0.862552 0.792003 0.741699 0.828669 0.789245 0.833089 0.831353 0.833489 0.84999 0.811008 0.914403 0.878792 0.635028 0.930829 0.678579 0.669415 0.715509 0.694659 0.724424 0.749427 0.693703 0.710631 0.724025 0.887455 0.873816 0.774959 0.719926 0.709091 0.716174 0.76594 0.769966 0.713061 0.730413 0.726139 0.675587 0.683655 0.690881 0.716013 0.722895 0.740611 0.679628 0.94811 0.844279 0.954894 0.954895 0.84428 0.948111 0.679629 0.740611 0.722895 0.716013 0.690881 0.683655 0.675587 0.726139 0.730413 0.713061 0.769966 0.76594 0.785468 0.741101 0.759201 0.802303 0.873637 0.881864 0.836597 0.778994 0.777047 0.716957 0.739422 0.70557 0.69784 0.702939 0.726195 0.729632 0.74599 0.757354 0.742522 0.713317 0.698991 0.762827 0.868907 0.842309 0.815826 0.840529 0.927379 0.846207 0.911327 0.852676 0.903221 0.848242 0.920225 0.716839 0.920216 0.848298 0.903214 0.852706 0.911328 0.846214 0.92738 0.840532 0.815828 0.84231 0.868907 0.762827 0.698991 0.713317 0.742522 0.757354 0.74599 0.729632 0.726195 0.702939 0.69784 0.70557 0.739422 0.716957 0.777047 0.778994 0.836597 0.881864 0.873637 0.802303 0.759201 0.741102 0.785468 0.843189 0.764483 0.79329 0.83251 0.870454 0.830955 0.832681 0.785899 0.78392 0.722966 0.743778 0.721759 0.717741 0.72249 0.735846 0.72865 0.73698 0.742134 0.692667 0.787394 0.698973 0.839104 0.966798 0.853411 0.863841 0.846887 0.979625 0.87201 0.956595 0.874788 0.939458 0.878955 0.930762 0.874608 0.927976 0.731035 0.927967 0.87464 0.930761 0.878971 0.939456 0.874791 0.956595 0.872011 0.979624 0.846888 0.86384 0.853411 0.966797 0.839104 0.698973 0.787394 0.692667 0.742134 0.73698 0.72865 0.735847 0.72249 0.717741 0.721759 0.743777 0.722966 0.78392 0.785899 0.832681 0.830955 0.870454 0.832509 0.79329 0.764483 0.843189 0.783676 0.785873 0.785873 0.783676 0.880432 0.809429 0.826177 0.859169 0.883362 0.850814 0.8484 0.834708 0.833806 0.836225 0.890059 0.78968 0.755381 0.729841 0.719609 0.717917 0.726671 0.747203 0.777744 0.778112 0.856176 0.86039 0.899992 0.88389 0.899957 0.887078 0.898708 0.874022 0.896733 0.888592 0.895766 0.886541 0.894834 0.88681 0.89518 0.880251 0.893958 0.746 0.893958 0.880274 0.89518 0.886816 0.894834 0.886542 0.895766 0.888593 0.896733 0.874023 0.898708 0.887078 0.899957 0.88389 0.899992 0.86039 0.856176 0.778112 0.777744 0.747203 0.726671 0.717917 0.719609 0.729841 0.755381 0.78968 0.890059 0.836225 0.833806 0.834708 0.8484 0.850814 0.883362 0.859169 0.826177 0.809429 0.880432 0.8943 0.850819 0.858329 0.881359 0.900662 0.886159 0.884861 0.87533 0.875643 0.87585 0.913134 0.84479 0.823531 0.801527 0.791913 0.785507 0.79373 0.811714 0.812378 0.821891 0.905204 0.885239 0.918104 0.893718 0.910446 0.891526 0.903578 0.882455 0.899432 0.892681 0.89752 0.888931 0.896655 0.887387 0.894724 0.881058 0.894009 0.759496 0.894009 0.881075 0.894724 0.887388 0.896655 0.888933 0.89752 0.892682 0.899432 0.882455 0.903578 0.891526 0.910446 0.893718 0.918104 0.885239 0.905204 0.821891 0.812378 0.811714 0.79373 0.785507 0.791913 0.801527 0.823531 0.84479 0.913134 0.87585 0.875643 0.87533 0.884861 0.886159 0.900662 0.881359 0.858329 0.850819 0.8943 0.895894 0.862496 0.866367 0.882841 0.901139 0.891819 0.891979 0.886476 0.889289 0.890695 0.932396 0.875395 0.866426 0.851671 0.84493 0.850953 0.840653 0.836305 0.833896 0.86555 0.89518 0.890709 0.894416 0.892147 0.89411 0.889128 0.893878 0.886439 0.893832 0.894432 0.893832 0.889817 0.893832 0.886832 0.893832 0.882006 0.893832 0.772311 0.893832 0.882018 0.893832 0.886833 0.893832 0.889818 0.893832 0.894433 0.893832 0.88644 0.893878 0.889128 0.89411 0.892147 0.894416 0.890709 0.89518 0.86555 0.833896 0.836305 0.840653 0.850953 0.84493 0.851671 0.866426 0.875395 0.932396 0.890695 0.889289 0.886476 0.891979 0.891819 0.901139 0.882841 0.866367 0.862496 0.895894 0.895976 0.878589 0.872132 0.882959 0.898154 0.890699 0.89119 0.887304 0.890099 0.891443 0.927345 0.871067 0.865634 0.85476 0.850027 0.847309 0.840641 0.842146 0.84222 0.890327 0.889916 0.896787 0.894626 0.891493 0.894236 0.887408 0.893832 0.889942 0.893832 0.89512 0.893832 0.89047 0.893832 0.886236 0.893832 0.882998 0.893832 0.784495 0.893832 0.883006 0.893832 0.886236 0.893832 0.890471 0.893832 0.89512 0.893832 0.889942 0.893832 0.887408 0.894236 0.891493 0.894626 0.896787 0.889916 0.890327 0.84222 0.842146 0.840641 0.847309 0.850027 0.85476 0.865634 0.871067 0.927345 0.891443 0.890099 0.887304 0.89119 0.890699 0.898154 0.882959 0.872132 0.878589 0.895977 0.896055 0.890558 0.877139 0.883862 0.895972 0.889533 0.890448 0.888045 0.891154 0.892748 0.919834 0.86553 0.862502 0.855241 0.852774 0.850446 0.846423 0.850933 0.853287 0.893013 0.886833 0.897985 0.893832 0.891057 0.893832 0.886657 0.893832 0.892193 0.893832 0.895016 0.893832 0.890772 0.893832 0.88581 0.893832 0.88383 0.893832 0.79587 0.893832 0.883836 0.893832 0.88581 0.893832 0.890773 0.893832 0.895016 0.893832 0.892193 0.893832 0.886657 0.893832 0.891057 0.893832 0.897985 0.886833 0.893013 0.853287 0.850933 0.846423 0.850446 0.852774 0.855241 0.862502 0.86553 0.919834 0.892748 0.891154 0.888045 0.890448 0.889533 0.895972 0.883862 0.877139 0.890558 0.896056 0.895964 0.894288 0.881373 0.885186 0.894395 0.888592 0.889854 0.888684 0.892114 0.893964 0.912394 0.863097 0.86174 0.857646 0.856761 0.855713 0.853489 0.860256 0.864421 0.891005 0.885564 0.897309 0.893832 0.890815 0.893832 0.88702 0.893832 0.893139 0.893832 0.894533 0.893832 0.890689 0.893832 0.885563 0.893832 0.884423 0.893832 0.806347 0.893832 0.884427 0.893832 0.885563 0.893832 0.890689 0.893832 0.894533 0.893832 0.893139 0.893832 0.88702 0.893832 0.890815 0.893832 0.897309 0.885564 0.891005 0.864421 0.860256 0.853489 0.855713 0.856761 0.857646 0.86174 0.863097 0.912394 0.893964 0.892114 0.888684 0.889854 0.888592 0.894395 0.885186 0.881373 0.894288 0.895964 0.89572 0.89485 0.884929 0.886666 0.893263 0.887884 0.889418 0.889269 0.892963 0.89493 0.905817 0.862991 0.862713 0.861252 0.861474 0.861782 0.861116 0.86876 0.873423 0.889362 0.885239 0.896211 0.893832 0.890728 0.893832 0.887994 0.893832 0.893384 0.893832 0.893919 0.893832 0.890386 0.893832 0.885521 0.893832 0.884795 0.893832 0.815901 0.893832 0.884798 0.893832 0.885521 0.893832 0.890386 0.893832 0.893919 0.893832 0.893384 0.893832 0.887994 0.893832 0.890728 0.893832 0.896211 0.885239 0.889362 0.873423 0.86876 0.861116 0.861782 0.861474 0.861252 0.862713 0.862991 0.905817 0.89493 0.892963 0.889269 0.889418 0.887884 0.893263 0.886666 0.884929 0.89485 0.89572 0.895387 0.894808 0.887782 0.888069 0.892442 0.887381 0.889101 0.889828 0.893633 0.895542 0.900265 0.864441 0.864914 0.865451 0.866477 0.867675 0.868263 0.875848 0.880328 0.88846 0.885506 0.895159 0.893832 0.890754 0.893832 0.889067 0.893832 0.893335 0.893832 0.893236 0.893832 0.890035 0.893832 0.885649 0.893832 0.884989 0.893832 0.824539 0.893832 0.884992 0.893832 0.885649 0.893832 0.890035 0.893832 0.893236 0.893832 0.893335 0.893832 0.889067 0.893832 0.890754 0.893832 0.895159 0.885506 0.88846 0.880328 0.875848 0.868263 0.867675 0.866477 0.865451 0.864914 0.864441 0.900265 0.895542 0.893633 0.889828 0.889101 0.887381 0.892442 0.888069 0.887782 0.894808 0.895387 0.894967 0.894695 0.889895 0.889278 0.891843 0.887062 0.888879 0.890344 0.894125 0.89575 0.89575 0.866736 0.86779 0.86974 0.871303 0.873096 0.874274 0.881205 0.885258 0.888093 0.886172 0.894316 0.893832 0.890844 0.893832 0.889931 0.893832 0.893142 0.893832 0.892519 0.893832 0.889728 0.893832 0.885876 0.893832 0.885047 0.893832 0.832298 0.893832 0.885049 0.893832 0.885876 0.893832 0.889728 0.893832 0.892519 0.893832 0.893141 0.893832 0.889931 0.893832 0.890844 0.893832 0.894316 0.886172 0.888093 0.885258 0.881205 0.874274 0.873096 0.871303 0.86974 0.86779 0.866736 0.89575 0.89575 0.894125 0.890344 0.888879 0.887062 0.891843 0.889278 0.889895 0.894695 0.894967 0.894464 0.894574 0.891346 0.89026 0.891402 0.886913 0.888737 0.890774 0.894448 0.875567 0.877767 0.879126 0.885005 0.888058 0.888111 0.887079 0.893681 0.893832 0.890958 0.893832 0.890496 0.893832 0.892863 0.893832 0.891827 0.893832 0.88949 0.893832 0.88615 0.893832 0.88502 0.893832 0.839239 0.893832 0.885021 0.893832 0.88615 0.893832 0.88949 0.893832 0.891827 0.893832 0.892863 0.893832 0.890496 0.893832 0.890958 0.893832 0.893681 0.887079 0.888111 0.888058 0.885005 0.879126 0.877767 0.875567 0.894448 0.890774 0.888737 0.886913 0.891402 0.89026 0.891346 0.894574 0.894464 0.895611 0.892186 0.869388 0.870889 0.873778 0.873778 0.870889 0.869388 0.892186 0.895611 0.893936 0.894451 0.8923 0.891006 0.891079 0.886919 0.888665 0.891093 0.894577 0.895229 0.889434 0.872089 0.873912 0.877364 0.879152 0.881513 0.882904 0.887533 0.889167 0.888384 0.888079 0.89321 0.893832 0.891067 0.893832 0.890808 0.893832 0.892537 0.893832 0.891213 0.893832 0.889316 0.893832 0.886437 0.893832 0.884959 0.893832 0.845427 0.893832 0.88496 0.893832 0.886437 0.893832 0.889316 0.893832 0.891213 0.893832 0.892537 0.893832 0.890808 0.893832 0.891067 0.893832 0.89321 0.888079 0.888384 0.889167 0.887533 0.882904 0.881513 0.879152 0.877364 0.873912 0.872089 0.889434 0.895229 0.894577 0.891093 0.888665 0.886919 0.891079 0.891006 0.8923 0.894451 0.893936 0.889404 0.888799 0.889072 0.893832 0.893832 0.893832 0.893832 0.893832 0.893832 0.893832 0.893832 0.893832 0.893832 0.893832 0.893832 0.893832 0.893832 0.893832 0.893832 0.889072 0.888799 0.889404 0.893449 0.894326 0.892915 0.89153 0.890851 0.887055 0.888657 0.891299 0.894502 0.894703 0.887359 0.874644 0.876674 0.880394 0.882072 0.884373 0.885674 0.888986 0.892854 0.891158 0.890951 0.892195 0.890703 0.88919 0.886718 0.884908 0.85093 0.884909 0.886718 0.88919 0.890703 0.892195 0.890951 0.891158 0.892854 0.888986 0.885674 0.884373 0.882072 0.880394 0.876674 0.874644 0.887359 0.894703 0.894502 0.891299 0.888657 0.887055 0.890851 0.89153 0.892915 0.894326 0.893449 0.893043 0.894199 0.893288 0.891868 0.890703 0.887288 0.888698 0.8914 0.894261 0.894111 0.885842 0.876935 0.879078 0.882826 0.884355 0.886469 0.887571 0.889652 0.889387 0.889278 0.889999 0.892579 0.893832 0.891224 0.893832 0.890987 0.893832 0.891861 0.893832 0.890299 0.893832 0.8891 0.893832 0.886983 0.893832 0.884901 0.893832 0.855818 0.893832 0.884901 0.893832 0.886983 0.893832 0.8891 0.893832 0.890299 0.893832 0.891861 0.893832 0.890987 0.893832 0.891224 0.893832 0.892579 0.889999 0.889278 0.889387 0.889652 0.887571 0.886469 0.884355 0.882826 0.879078 0.876935 0.885842 0.894111 0.894261 0.8914 0.888698 0.887288 0.890703 0.891868 0.893288 0.894199 0.893043 0.892725 0.894072 0.893477 0.892071 0.890622 0.887589 0.88877 0.891414 0.893899 0.893497 0.884788 0.878911 0.881086 0.884681 0.886041 0.887914 0.888788 0.889887 0.88939 0.889767 0.89083 0.892359 0.893832 0.891265 0.893832 0.890955 0.893832 0.891551 0.893832 0.88999 0.893832 0.889037 0.893832 0.887229 0.893832 0.884959 0.893832 0.860156 0.893832 0.884959 0.893832 0.887229 0.893832 0.889037 0.893832 0.88999 0.893832 0.891551 0.893832 0.890955 0.893832 0.891265 0.893832 0.892359 0.89083 0.889767 0.88939 0.889887 0.888788 0.887914 0.886041 0.884681 0.881086 0.878911 0.884788 0.893497 0.893899 0.891414 0.88877 0.887589 0.890622 0.892071 0.893477 0.894072 0.892725 0.892487 0.893946 0.893538 0.89218 0.890594 0.887929 0.888861 0.891361 0.893463 0.89289 0.884112 0.880565 0.882705 0.886022 0.887201 0.888829 0.889499 0.889961 0.88948 0.890236 0.891548 0.89218 0.893832 0.891285 0.893832 0.890882 0.893832 0.891273 0.893832 0.889761 0.893832 0.888998 0.893832 0.887455 0.893832 0.885092 0.893832 0.864007 0.893832 0.885092 0.893832 0.887455 0.893832 0.888998 0.893832 0.889761 0.893832 0.891273 0.893832 0.890882 0.893832 0.891285 0.893832 0.89218 0.891548 0.890236 0.88948 0.889961 0.889499 0.888829 0.887201 0.886022 0.882705 0.880565 0.884112 0.89289 0.893463 0.891361 0.888861 0.887929 0.890594 0.89218 0.893538 0.893946 0.892487 0.892313 0.893822 0.893523 0.892225 0.890607 0.888287 0.888963 0.891262 0.892998 0.892312 0.883741 0.881919 0.883965 0.886931 0.887929 0.889344 0.889852 0.89001 0.889651 0.890664 0.892144 0.892029 0.893832 0.891289 0.893832 0.890786 0.893832 0.891031 0.893832 0.889598 0.893832 0.88898 0.893832 0.887664 0.893832 0.885298 0.893832 0.867425 0.893832 0.885298 0.893832 0.887664 0.893832 0.88898 0.893832 0.889598 0.893832 0.891031 0.893832 0.890786 0.893832 0.891289 0.893832 0.892029 0.892144 0.890664 0.889651 0.89001 0.889852 0.889344 0.887929 0.886931 0.883965 0.881919 0.883741 0.892312 0.892998 0.891262 0.888963 0.888287 0.890607 0.892225 0.893523 0.893822 0.892313 0.892191 0.893701 0.893471 0.892227 0.890651 0.888642 0.889072 0.891137 0.892544 0.891782 0.883606 0.88301 0.884912 0.887499 0.888331 0.88958 0.889981 0.890077 0.889879 0.891041 0.892622 0.8919 0.893832 0.891281 0.893832 0.890685 0.893832 0.890827 0.893832 0.889489 0.893832 0.888981 0.893832 0.887859 0.893832 0.88557 0.893832 0.87046 0.893832 0.88557 0.893832 0.887859 0.893832 0.888981 0.893832 0.889489 0.893832 0.890827 0.893832 0.890685 0.893832 0.891281 0.893832 0.8919 0.892622 0.891041 0.889879 0.890077 0.889981 0.88958 0.888331 0.887499 0.884912 0.88301 0.883606 0.891782 0.892544 0.891137 0.889072 0.888642 0.890651 0.892227 0.893471 0.893701 0.892191 0.892108 0.893585 0.893406 0.892202 0.890715 0.888979 0.889185 0.891001 0.892126 0.89131 0.883649 0.883882 0.885602 0.887806 0.888502 0.889633 0.889997 0.890165 0.890142 0.891365 0.892991 0.891789 0.893832 0.891267 0.893832 0.890587 0.893832 0.890658 0.893832 0.889422 0.893832 0.888998 0.893832 0.888046 0.893832 0.885894 0.893832 0.873152 0.893832 0.885894 0.893832 0.888046 0.893832 0.888998 0.893832 0.889422 0.893832 0.890658 0.893832 0.890587 0.893832 0.891267 0.893832 0.891789 0.892991 0.891365 0.890142 0.890165 0.889997 0.889633 0.888502 0.887806 0.885602 0.883882 0.883649 0.89131 0.892126 0.891001 0.889185 0.888979 0.890715 0.892202 0.893406 0.893585 0.892108 0.892053 0.893474 0.893335 0.892163 0.89079 0.889288 0.889297 0.890869 0.891756 0.890896 0.883822 0.884576 0.886089 0.887927 0.88852 0.88958 0.889972 0.890267 0.89042 0.891637 0.893265 0.891693 0.893832 0.89125 0.893832 0.890499 0.893832 0.890522 0.893832 0.889389 0.893832 0.889028 0.893832 0.888228 0.893832 0.886256 0.893832 0.875536 0.893832 0.886256 0.893832 0.888228 0.893832 0.889028 0.893832 0.889389 0.893832 0.890522 0.893832 0.890499 0.893832 0.89125 0.893832 0.891693 0.893265 0.891637 0.89042 0.890267 0.889972 0.88958 0.88852 0.887927 0.886089 0.884576 0.883822 0.890896 0.891756 0.890869 0.889297 0.889288 0.89079 0.892163 0.893335 0.893474 0.892053 0.892018 0.893369 0.893263 0.892119 0.890869 0.889563 0.889405 0.89075 0.891437 0.890537 0.884084 0.885133 0.886426 0.887923 0.888446 0.889481 0.889947 0.890375 0.890698 0.89186 0.893462 0.89161 0.893832 0.891233 0.893832 0.890424 0.893832 0.890413 0.893832 0.889381 0.893832 0.889069 0.893832 0.888406 0.893832 0.88664 0.893832 0.877642 0.893832 0.88664 0.893832 0.888406 0.893832 0.889069 0.893832 0.889381 0.893832 0.890413 0.893832 0.890424 0.893832 0.891233 0.893832 0.89161 0.893462 0.89186 0.890698 0.890375 0.889947 0.889481 0.888446 0.887923 0.886426 0.885133 0.884084 0.890537 0.891437 0.89075 0.889405 0.889563 0.890869 0.892119 0.893263 0.893369 0.892018 0.891996 0.893271 0.893191 0.892075 0.890948 0.889801 0.889508 0.890649 0.891167 0.890228 0.884402 0.885585 0.886655 0.887844 0.888325 0.88937 0.889936 0.890483 0.890965 0.892039 0.893599 0.891539 0.893832 0.891218 0.893832 0.890363 0.893832 0.890328 0.893832 0.889392 0.893832 0.889117 0.893832 0.888581 0.893832 0.887032 0.893832 0.879495 0.893832 0.887032 0.893832 0.888581 0.893832 0.889117 0.893832 0.889392 0.893832 0.890328 0.893832 0.890363 0.893832 0.891218 0.893832 0.891539 0.893599 0.892039 0.890965 0.890483 0.889936 0.88937 0.888325 0.887844 0.886655 0.885585 0.884402 0.890228 0.891167 0.890649 0.889508 0.889801 0.890948 0.892075 0.893191 0.893271 0.891996 0.891983 0.893181 0.893121 0.892037 0.891023 0.890003 0.889604 0.890567 0.890945 0.889961 0.884749 0.885958 0.886811 0.887728 0.888187 0.889269 0.889939 0.890587 0.891213 0.892178 0.893691 0.891478 0.893832 0.891205 0.893832 0.890313 0.893832 0.890263 0.893832 0.889415 0.893832 0.889171 0.893832 0.888752 0.893832 0.88742 0.893832 0.881116 0.893832 0.88742 0.893832 0.888752 0.893832 0.889171 0.893832 0.889415 0.893832 0.890263 0.893832 0.890313 0.893832 0.891205 0.893832 0.891478 0.893691 0.892178 0.891213 0.890587 0.889939 0.889269 0.888187 0.887728 0.886811 0.885958 0.884749 0.889961 0.890945 0.890567 0.889604 0.890003 0.891023 0.892037 0.893121 0.893181 0.891983 0.891974 0.893099 0.893054 0.892004 0.891093 0.890171 0.889692 0.890506 0.890764 0.889732 0.885104 0.886272 0.88692 0.887601 0.888055 0.889185 0.889956 0.890683 0.891437 0.892284 0.89375 0.891428 0.893832 0.891194 0.893832 0.890275 0.893832 0.890215 0.893832 0.889446 0.893832 0.889227 0.893832 0.888919 0.893832 0.887794 0.893832 0.882523 0.893832 0.887794 0.893832 0.888919 0.893832 0.889227 0.893832 0.889446 0.893832 0.890215 0.893832 0.890275 0.893832 0.891194 0.893832 0.891428 0.89375 0.892284 0.891437 0.890683 0.889956 0.889185 0.888055 0.887601 0.88692 0.886272 0.885104 0.889732 0.890764 0.890506 0.889692 0.890171 0.891093 0.892004 0.893054 0.893099 0.891974 0.891967 0.893026 0.892991 0.891977 0.891156 0.890308 0.889771 0.890462 0.89062 0.889537 0.885449 0.886539 0.887002 0.887479 0.887939 0.889119 0.889981 0.89077 0.891635 0.892363 0.893787 0.891386 0.893832 0.891186 0.893832 0.890246 0.893832 0.890179 0.893832 0.889481 0.893832 0.889283 0.893832 0.889077 0.893832 0.888144 0.893832 0.883734 0.893832 0.888144 0.893832 0.889077 0.893832 0.889283 0.893832 0.889481 0.893832 0.890179 0.893832 0.890246 0.893832 0.891186 0.893832 0.891386 0.893787 0.892363 0.891635 0.89077 0.889981 0.889119 0.887939 0.887479 0.887002 0.886539 0.885449 0.889537 0.89062 0.890462 0.889771 0.890308 0.891156 0.891977 0.892991 0.893026 0.891967 0.891961 0.892961 0.892934 0.891955 0.891212 0.890417 0.889841 0.890434 0.890508 0.885772 0.886768 0.887066 0.887371 0.887845 0.889069 0.890012 0.890848 0.891805 0.89242 0.893808 0.891352 0.893832 0.89118 0.893832 0.890224 0.893832 0.890154 0.893832 0.889517 0.893832 0.889339 0.893832 0.889224 0.893832 0.888463 0.893832 0.884763 0.893832 0.888463 0.893832 0.889224 0.893832 0.889339 0.893832 0.889517 0.893832 0.890154 0.893832 0.890224 0.893832 0.89118 0.893832 0.891352 0.893808 0.89242 0.891805 0.890848 0.890012 0.889069 0.887845 0.887371 0.887066 0.886768 0.885772 0.890508 0.890434 0.889841 0.890417 0.891212 0.891955 0.892934 0.892961 0.891961 0.889373 0.889373 0.891956 0.892906 0.892884 0.891938 0.891261 0.890503 0.889901 0.890417 0.890423 0.889237 0.886061 0.886963 0.88712 0.887282 0.887771 0.889034 0.890044 0.890914 0.891948 0.892459 0.89382 0.891325 0.893832 0.891176 0.893832 0.890208 0.893832 0.890137 0.893832 0.889552 0.893832 0.88939 0.893832 0.889357 0.893832 0.888746 0.893832 0.885621 0.893832 0.888746 0.893832 0.889357 0.893832 0.88939 0.893832 0.889552 0.893832 0.890137 0.893832 0.890208 0.893832 0.891176 0.893832 0.891325 0.89382 0.892459 0.891948 0.890914 0.890044 0.889034 0.887771 0.887282 0.88712 0.886963 0.886061 0.889237 0.890423 0.890417 0.889901 0.890503 0.891261 0.891938 0.892884 0.892906 0.891956 0.891952 0.892859 0.892842 0.891924 0.891301 0.89057 0.889951 0.890408 0.89036 0.889127 0.886311 0.887126 0.887166 0.887213 0.887716 0.889009 0.890075 0.890969 0.892064 0.892486 0.893827 0.891305 0.893832 0.891173 0.893832 0.890197 0.893832 0.890125 0.893832 0.889584 0.893832 0.889437 0.893832 0.889472 0.893832 0.888988 0.893832 0.886321 0.893832 0.888988 0.893832 0.889472 0.893832 0.889437 0.893832 0.889584 0.893832 0.890125 0.893832 0.890197 0.893832 0.891173 0.893832 0.891305 0.893827 0.892486 0.892064 0.890969 0.890075 0.889009 0.887716 0.887213 0.887166 0.887126 0.886311 0.889127 0.89036 0.890408 0.889951 0.89057 0.891301 0.891924 0.892842 0.892859 0.891952 0.891948 0.892822 0.892807 0.891914 0.891334 0.890619 0.889991 0.890405 0.890315 0.889042 0.886516 0.887258 0.887205 0.887161 0.887677 0.888993 0.890103 0.891014 0.892155 0.892503 0.89383 0.891289 0.893832 0.891172 0.893832 0.890189 0.893832 0.890118 0.893832 0.88961 0.893832 0.889476 0.893832 0.889568 0.893832 0.889185 0.893832 0.88687 0.893832 0.889185 0.893832 0.889568 0.893832 0.889476 0.893832 0.88961 0.893832 0.890118 0.893832 0.890189 0.893832 0.891172 0.893832 0.891289 0.89383 0.892503 0.892155 0.891014 0.890103 0.888993 0.887677 0.887161 0.887205 0.887258 0.886516 0.889042 0.890315 0.890405 0.889991 0.890619 0.891334 0.891914 0.892807 0.892822 0.891948 0.891945 0.892794 0.892781 0.891906 0.891359 0.890654 0.890021 0.890406 0.890284 0.888979 0.886672 0.887358 0.887235 0.887124 0.88765 0.888982 0.890126 0.891047 0.892222 0.892514 0.893831 0.891278 0.893832 0.891171 0.893832 0.890184 0.893832 0.890114 0.893832 0.889631 0.893832 0.889507 0.893832 0.889642 0.893832 0.889334 0.893832 0.887275 0.893832 0.889334 0.893832 0.889642 0.893832 0.889507 0.893832 0.889631 0.893832 0.890114 0.893832 0.890184 0.893832 0.891171 0.893832 0.891278 0.893831 0.892514 0.892222 0.891047 0.890126 0.888982 0.88765 0.887124 0.887235 0.887358 0.886672 0.888979 0.890284 0.890406 0.890021 0.890654 0.891359 0.891906 0.892781 0.892794 0.891945 0.891943 0.892775 0.892764 0.891901 0.891375 0.890677 0.890041 0.890407 0.890266 0.888938 0.886777 0.887425 0.887257 0.887102 0.887634 0.888976 0.890142 0.891069 0.892266 0.89252 0.893832 0.891271 0.893832 0.89117 0.893832 0.890181 0.893832 0.890112 0.893832 0.889646 0.893832 0.889528 0.893832 0.889692 0.893832 0.889435 0.893832 0.887543 0.893832 0.889435 0.893832 0.889692 0.893832 0.889528 0.893832 0.889646 0.893832 0.890112 0.893832 0.890181 0.893832 0.89117 0.893832 0.891271 0.893832 0.89252 0.892266 0.891069 0.890142 0.888976 0.887634 0.887102 0.887257 0.887425 0.886777 0.888938 0.890266 0.890407 0.890041 0.890677 0.891375 0.891901 0.892764 0.892775 0.891943 0.891942 0.892766 0.892755 0.891899 0.891384 0.890688 0.890051 0.890408 0.890257 0.888918 0.88683 0.887459 0.887268 0.887091 0.887626 0.888974 0.89015 0.89108 0.892288 0.892522 0.893832 0.891267 0.893832 0.89117 0.893832 0.89018 0.893832 0.890111 0.893832 0.889653 0.893832 0.889539 0.893832 0.889718 0.893832 0.889486 0.893832 0.887675 0.893832 0.889486 0.893832 0.889718 0.893832 0.889539 0.893832 0.889653 0.893832 0.890111 0.893832 0.89018 0.893832 0.89117 0.893832 0.891267 0.893832 0.892522 0.892288 0.89108 0.89015 0.888974 0.887626 0.887091 0.887268 0.887459 0.88683 0.888918 0.890257 0.890408 0.890051 0.890688 0.891384 0.891899 0.892755 0.892766 0.891942 
SCALARS Axial_Stress float 1
LOOKUP_TABLE default
-38110800000.0 -116273000000.0 -116273000000.0 -38110800000.0 -107121000000.0 -208702000000.0 -89662100000.0 -89662100000.0 -208702000000.0 -107121000000.0 -163096000000.0 -440110000000.0 -514288000000.0 -309258000000.0 -56605300000.0 -155521000000.0 -121055000000.0 -359500000000.0 -126298000000.0 -484177000000.0 -484177000000.0 -126298000000.0 -359500000000.0 -121055000000.0 -155521000000.0 -56605300000.0 -309258000000.0 -514288000000.0 -440110000000.0 -163096000000.0 -222251000000.0 -639781000000.0 -257342000000.0 -518633000000.0 -406065000000.0 -348687000000.0 -826618000000.0 -701118000000.0 -106038000000.0 -701118000000.0 -826618000000.0 -348687000000.0 -406065000000.0 -518633000000.0 -257342000000.0 -639781000000.0 -222251000000.0 -584542000000.0 -93228900000.0 -245062000000.0 -636989000000.0 -541026000000.0 -659880000000.0 -672861000000.0 -426194000000.0 -426194000000.0 -672861000000.0 -659881000000.0 -541026000000.0 -636989000000.0 -245062000000.0 -93228900000.0 -584541000000.0 -748895000000.0 -595645000000.0 -1.23548e+12 -1.01476e+12 -426198000000.0 -1.05747e+12 -518449000000.0 -800517000000.0 -874661000000.0 -386964000000.0 -596176000000.0 -601975000000.0 -469038000000.0 -601975000000.0 -596176000000.0 -386965000000.0 -874661000000.0 -800517000000.0 -518449000000.0 -1.05747e+12 -426198000000.0 -1.01476e+12 -1.23548e+12 -595645000000.0 -748894000000.0 -1.65353e+12 -1.69245e+12 -353962000000.0 -855631000000.0 -1.00937e+12 -779050000000.0 -696608000000.0 -639185000000.0 -639666000000.0 -651164000000.0 -639666000000.0 -639186000000.0 -696608000000.0 -779050000000.0 -1.00937e+12 -855631000000.0 -353962000000.0 -1.69245e+12 -1.65353e+12 -2.12839e+12 -1.51475e+12 -1.73703e+12 -627633000000.0 -1.40985e+12 -1.19218e+12 -554546000000.0 -692504000000.0 -725422000000.0 -725422000000.0 -692504000000.0 -554547000000.0 -1.19218e+12 -1.40985e+12 -627633000000.0 -1.73703e+12 -1.51475e+12 -2.12839e+12 -2.36355e+12 -3.90595e+12 -3.84481e+12 -4.04431e+12 -2.51882e+12 -1.7168e+12 -969222000000.0 -1.80996e+12 -835574000000.0 -538619000000.0 -832028000000.0 -781549000000.0 -885892000000.0 -806646000000.0 -882083000000.0 -790372000000.0 -882083000000.0 -806647000000.0 -885894000000.0 -781551000000.0 -832029000000.0 -538619000000.0 -835575000000.0 -1.80996e+12 -969222000000.0 -1.7168e+12 -2.51882e+12 -4.04431e+12 -3.84481e+12 -3.90595e+12 -2.36355e+12 -2.63002e+12 -2.52769e+12 -3.8666e+12 -4.03685e+12 -2.3203e+12 -1.98432e+12 -1.92429e+12 -1.42559e+12 -1.478e+12 -1.00918e+12 -994749000000.0 -970858000000.0 -932058000000.0 -970860000000.0 -994752000000.0 -1.00918e+12 -1.478e+12 -1.42559e+12 -1.92429e+12 -1.98432e+12 -2.3203e+12 -4.03685e+12 -3.8666e+12 -2.52769e+12 -2.63002e+12 -3.04874e+12 -3.75582e+12 -3.80748e+12 -3.7586e+12 -3.98801e+12 -2.24126e+12 -2.21621e+12 -2.128e+12 -1.75694e+12 -1.29264e+12 -1.13429e+12 -1.09703e+12 -1.04321e+12 -1.04321e+12 -1.09703e+12 -1.1343e+12 -1.29264e+12 -1.75694e+12 -2.128e+12 -2.21621e+12 -2.24126e+12 -3.98801e+12 -3.7586e+12 -3.80748e+12 -3.75582e+12 -3.04874e+12 -3.10996e+12 -2.6816e+12 -3.60972e+12 -3.64018e+12 -3.52765e+12 -3.51521e+12 -2.11612e+12 -2.28306e+12 -2.23963e+12 -2.01237e+12 -1.68777e+12 -1.57855e+12 -1.33406e+12 -1.39936e+12 -1.24232e+12 -1.33868e+12 -1.13711e+12 -1.20968e+12 -1.03082e+12 -1.20968e+12 -1.13712e+12 -1.33869e+12 -1.24233e+12 -1.39937e+12 -1.33406e+12 -1.57855e+12 -1.68777e+12 -2.01237e+12 -2.23963e+12 -2.28306e+12 -2.11612e+12 -3.51521e+12 -3.52765e+12 -3.64018e+12 -3.60972e+12 -2.68159e+12 -3.10996e+12 -3.13104e+12 -5.1305e+12 -4.47615e+12 -3.481e+12 -3.46984e+12 -3.38162e+12 -3.33784e+12 -2.89628e+12 -2.30578e+12 -2.17719e+12 -2.13814e+12 -1.93331e+12 -1.87842e+12 -1.54371e+12 -1.55656e+12 -1.21683e+12 -1.03008e+12 -1.21683e+12 -1.55658e+12 -1.54371e+12 -1.87842e+12 -1.93331e+12 -2.13814e+12 -2.17719e+12 -2.30578e+12 -2.89628e+12 -3.33784e+12 -3.38162e+12 -3.46984e+12 -3.481e+12 -4.47615e+12 -5.1305e+12 -3.13104e+12 -2.97507e+12 -3.07713e+12 -5.1013e+12 -5.22815e+12 -2.60889e+12 -3.25297e+12 -3.21825e+12 -3.21327e+12 -2.95173e+12 -2.34329e+12 -2.26726e+12 -2.25787e+12 -2.1179e+12 -1.80669e+12 -1.47379e+12 -1.85546e+12 -1.40847e+12 -1.40847e+12 -1.85549e+12 -1.47378e+12 -1.80669e+12 -2.1179e+12 -2.25787e+12 -2.26726e+12 -2.34329e+12 -2.95173e+12 -3.21327e+12 -3.21825e+12 -3.25297e+12 -2.60889e+12 -5.22815e+12 -5.1013e+12 -3.07713e+12 -2.97507e+12 -2.84331e+12 -4.94216e+12 -5.15411e+12 -5.02589e+12 -3.05192e+12 -3.10619e+12 -2.93006e+12 -2.64466e+12 -2.36532e+12 -2.3325e+12 -2.30867e+12 -2.30678e+12 -2.08291e+12 -2.01625e+12 -1.74558e+12 -1.6658e+12 -1.38972e+12 -1.28942e+12 -2.06216e+12 -2.78834e+12 -26307900000.0 -2.78841e+12 -2.06223e+12 -1.28942e+12 -1.38971e+12 -1.66581e+12 -1.74558e+12 -2.01625e+12 -2.08291e+12 -2.30678e+12 -2.30867e+12 -2.3325e+12 -2.36532e+12 -2.64466e+12 -2.93006e+12 -3.10619e+12 -3.05192e+12 -5.02589e+12 -5.15411e+12 -4.94216e+12 -2.84331e+12 -2.70507e+12 -4.758e+12 -4.65816e+12 -4.88305e+12 -4.75981e+12 -2.60858e+12 -3.00156e+12 -3.0349e+12 -2.91513e+12 -2.70795e+12 -2.47211e+12 -2.31424e+12 -2.3752e+12 -2.54831e+12 -2.33841e+12 -2.31184e+12 -1.91072e+12 -1.3688e+12 -1.13247e+12 -3.45831e+12 -3.45835e+12 -1.13247e+12 -1.3688e+12 -1.91072e+12 -2.31184e+12 -2.33841e+12 -2.54831e+12 -2.3752e+12 -2.31424e+12 -2.47211e+12 -2.70795e+12 -2.91513e+12 -3.0349e+12 -3.00156e+12 -2.60858e+12 -4.75981e+12 -4.88305e+12 -4.65816e+12 -4.758e+12 -2.70507e+12 -2.56977e+12 -4.45233e+12 -4.59388e+12 -4.47633e+12 -4.49598e+12 -4.20045e+12 -4.34868e+12 -2.84162e+12 -2.93761e+12 -2.72951e+12 -2.50415e+12 -2.29037e+12 -2.3427e+12 -2.53667e+12 -2.62704e+12 -2.18461e+12 -1.48719e+12 -1.39125e+12 -2.81248e+12 -279108000000.0 -2.81243e+12 -1.39128e+12 -1.4872e+12 -2.18461e+12 -2.62704e+12 -2.53667e+12 -2.3427e+12 -2.29037e+12 -2.50415e+12 -2.72951e+12 -2.93761e+12 -2.84162e+12 -4.34868e+12 -4.20045e+12 -4.49598e+12 -4.47633e+12 -4.59388e+12 -4.45233e+12 -2.56977e+12 -2.33024e+12 -2.44306e+12 -4.32282e+12 -4.33161e+12 -4.18316e+12 -4.3172e+12 -4.08606e+12 -3.6787e+12 -3.01906e+12 -2.85583e+12 -2.77154e+12 -2.54904e+12 -2.2946e+12 -2.2546e+12 -2.35707e+12 -2.93939e+12 -2.94758e+12 -2.51759e+12 -1.60769e+12 -1.61897e+12 -1.51461e+12 -1.65795e+12 -1.87612e+12 -1.58066e+12 -1.58068e+12 -1.87607e+12 -1.65794e+12 -1.51461e+12 -1.61898e+12 -1.6077e+12 -2.51759e+12 -2.94758e+12 -2.93939e+12 -2.35707e+12 -2.2546e+12 -2.2946e+12 -2.54904e+12 -2.77154e+12 -2.85583e+12 -3.01906e+12 -3.6787e+12 -4.08606e+12 -4.3172e+12 -4.18316e+12 -4.33161e+12 -4.32282e+12 -2.44306e+12 -2.33024e+12 -2.23164e+12 -4.20214e+12 -4.09028e+12 -4.2066e+12 -4.07339e+12 -3.99483e+12 -3.76488e+12 -3.41913e+12 -3.10523e+12 -2.96926e+12 -2.63237e+12 -2.28771e+12 -2.08328e+12 -2.12682e+12 -2.08153e+12 -2.7779e+12 -3.6071e+12 -1.92058e+12 -1.74151e+12 -1.73534e+12 -1.63848e+12 -1.56841e+12 -1.19415e+12 -1.56841e+12 -1.63848e+12 -1.73534e+12 -1.74151e+12 -1.92058e+12 -3.6071e+12 -2.7779e+12 -2.08153e+12 -2.12682e+12 -2.08328e+12 -2.28771e+12 -2.63237e+12 -2.96926e+12 -3.10523e+12 -3.41913e+12 -3.76488e+12 -3.99483e+12 -4.07339e+12 -4.2066e+12 -4.09028e+12 -4.20214e+12 -2.23164e+12 -2.14504e+12 -4.08827e+12 -3.97995e+12 -3.97135e+12 -3.91584e+12 -3.734e+12 -3.76426e+12 -3.50751e+12 -3.06585e+12 -2.74236e+12 -2.35484e+12 -2.01396e+12 -1.86829e+12 -2.14158e+12 -2.42495e+12 -2.23548e+12 -1.868e+12 -1.69153e+12 -1.58453e+12 -1.53467e+12 -1.4087e+12 -1.53467e+12 -1.58453e+12 -1.69153e+12 -1.868e+12 -2.23548e+12 -2.42495e+12 -2.14158e+12 -1.86829e+12 -2.01397e+12 -2.35484e+12 -2.74236e+12 -3.06585e+12 -3.50751e+12 -3.76426e+12 -3.734e+12 -3.91584e+12 -3.97135e+12 -3.97995e+12 -4.08827e+12 -2.14504e+12 -2.07135e+12 -3.86369e+12 -3.9765e+12 -3.87102e+12 -3.87102e+12 -3.75575e+12 -3.83788e+12 -3.68863e+12 -3.53179e+12 -3.23368e+12 -2.97662e+12 -2.85737e+12 -2.62157e+12 -2.47379e+12 -2.11429e+12 -1.82544e+12 -1.80367e+12 -1.66535e+12 -2.07087e+12 -1.9882e+12 -1.79021e+12 -1.68145e+12 -1.62333e+12 -1.56271e+12 -1.54103e+12 -1.5046e+12 -1.5046e+12 -1.54103e+12 -1.56271e+12 -1.62333e+12 -1.68145e+12 -1.79022e+12 -1.9882e+12 -2.07086e+12 -1.66535e+12 -1.80367e+12 -1.82544e+12 -2.1143e+12 -2.4738e+12 -2.62157e+12 -2.85737e+12 -2.97663e+12 -3.23368e+12 -3.53179e+12 -3.68863e+12 -3.83788e+12 -3.75575e+12 -3.87102e+12 -3.87102e+12 -3.9765e+12 -3.86369e+12 -2.07135e+12 -1.94614e+12 -2.00771e+12 -3.75324e+12 -3.76051e+12 -3.66447e+12 -3.77036e+12 -3.66817e+12 -3.62969e+12 -3.52391e+12 -3.34511e+12 -3.3107e+12 -3.09111e+12 -2.78439e+12 -2.33241e+12 -1.54499e+12 -1.59041e+12 -1.49143e+12 -1.42902e+12 -1.53872e+12 -2.05425e+12 -1.93091e+12 -1.75127e+12 -1.5973e+12 -1.51549e+12 -1.45325e+12 -1.51549e+12 -1.5973e+12 -1.75127e+12 -1.93091e+12 -2.05425e+12 -1.53871e+12 -1.42902e+12 -1.49143e+12 -1.5904e+12 -1.545e+12 -2.33241e+12 -2.78439e+12 -3.09111e+12 -3.3107e+12 -3.34511e+12 -3.52391e+12 -3.62969e+12 -3.66817e+12 -3.77036e+12 -3.66447e+12 -3.76051e+12 -3.75324e+12 -2.00771e+12 -1.94614e+12 -1.88034e+12 -3.64744e+12 -3.64362e+12 -3.55411e+12 -3.5753e+12 -3.56178e+12 -3.44744e+12 -3.49416e+12 -3.34794e+12 -3.15574e+12 -2.89006e+12 -2.61056e+12 -2.43235e+12 -1.82548e+12 -1.2578e+12 -419804000000.0 -1.68316e+12 -2.68031e+12 -2.86835e+12 -1.80455e+12 -1.63626e+12 -1.53268e+12 -1.47641e+12 -1.47641e+12 -1.53268e+12 -1.63626e+12 -1.80455e+12 -2.86835e+12 -2.68031e+12 -1.68316e+12 -419799000000.0 -1.25781e+12 -1.82548e+12 -2.43235e+12 -2.61056e+12 -2.89006e+12 -3.15574e+12 -3.34794e+12 -3.49416e+12 -3.44744e+12 -3.56178e+12 -3.5753e+12 -3.55411e+12 -3.64362e+12 -3.64745e+12 -1.88034e+12 -1.80826e+12 -3.54234e+12 -3.41825e+12 -3.52622e+12 -3.42451e+12 -3.46887e+12 -3.39698e+12 -3.48283e+12 -3.39055e+12 -3.33202e+12 -3.1942e+12 -3.03e+12 -2.9832e+12 -2.79766e+12 -2.71131e+12 -2.54982e+12 -2.61743e+12 -1.64516e+12 -1.11436e+12 -2.30805e+12 -2.00571e+12 -1.70099e+12 -1.66344e+12 -1.57954e+12 -1.55625e+12 -1.48942e+12 -1.48085e+12 -1.43993e+12 -1.4435e+12 -1.43993e+12 -1.48085e+12 -1.48942e+12 -1.55625e+12 -1.57954e+12 -1.66344e+12 -1.70099e+12 -2.00571e+12 -2.30805e+12 -1.11435e+12 -1.64516e+12 -2.61743e+12 -2.54982e+12 -2.71131e+12 -2.79766e+12 -2.9832e+12 -3.03001e+12 -3.1942e+12 -3.33202e+12 -3.39055e+12 -3.48283e+12 -3.39698e+12 -3.46887e+12 -3.42451e+12 -3.52622e+12 -3.41825e+12 -3.54234e+12 -1.80826e+12 -1.73194e+12 -3.31764e+12 -3.43272e+12 -3.3123e+12 -3.28941e+12 -3.20215e+12 -3.35864e+12 -3.28287e+12 -3.31621e+12 -3.29251e+12 -3.20722e+12 -3.20795e+12 -3.0827e+12 -2.88646e+12 -2.58937e+12 -2.4372e+12 -3.02445e+12 -3.24077e+12 -2.92669e+12 -2.43621e+12 -2.44056e+12 -1.82111e+12 -1.45597e+12 -1.45876e+12 -1.6087e+12 -1.5005e+12 -1.43565e+12 -1.40912e+12 -1.43565e+12 -1.5005e+12 -1.6087e+12 -1.45876e+12 -1.45596e+12 -1.82111e+12 -2.44057e+12 -2.43621e+12 -2.92669e+12 -3.24076e+12 -3.02445e+12 -2.4372e+12 -2.58937e+12 -2.88646e+12 -3.0827e+12 -3.20795e+12 -3.20722e+12 -3.29251e+12 -3.31621e+12 -3.28287e+12 -3.35864e+12 -3.20215e+12 -3.28941e+12 -3.3123e+12 -3.43272e+12 -3.31764e+12 -1.73194e+12 -1.58112e+12 -1.65524e+12 -3.20062e+12 -3.2007e+12 -3.17566e+12 -3.02742e+12 -3.18249e+12 -3.24271e+12 -3.16901e+12 -3.24815e+12 -3.16729e+12 -3.1015e+12 -2.91683e+12 -2.64997e+12 -2.32872e+12 -2.56122e+12 -2.58681e+12 -2.48438e+12 -1.71968e+12 -1.60762e+12 -3.06806e+12 -989743000000.0 -1.57404e+12 -1.51167e+12 -1.43482e+12 -1.39304e+12 -1.39304e+12 -1.43483e+12 -1.51167e+12 -1.57404e+12 -989745000000.0 -3.06806e+12 -1.60762e+12 -1.71967e+12 -2.48439e+12 -2.5868e+12 -2.56122e+12 -2.32872e+12 -2.64997e+12 -2.91683e+12 -3.1015e+12 -3.16729e+12 -3.24815e+12 -3.16901e+12 -3.24271e+12 -3.18249e+12 -3.02742e+12 -3.17566e+12 -3.2007e+12 -3.20062e+12 -1.65524e+12 -1.58112e+12 -1.51199e+12 -3.08431e+12 -3.08718e+12 -2.96247e+12 -3.06852e+12 -2.90081e+12 -2.97093e+12 -3.06412e+12 -3.10612e+12 -3.13223e+12 -3.14217e+12 -3.12289e+12 -3.01141e+12 -3.00148e+12 -2.78862e+12 -2.8251e+12 -2.53193e+12 -2.24195e+12 -2.54559e+12 -2.78685e+12 -1.36539e+12 -1.14254e+12 -877850000000.0 -1.82469e+12 -1.60838e+12 -1.49845e+12 -1.49885e+12 -1.42587e+12 -1.43518e+12 -1.3734e+12 -1.38108e+12 -1.3355e+12 -1.3596e+12 -1.3355e+12 -1.38109e+12 -1.3734e+12 -1.43518e+12 -1.42587e+12 -1.49886e+12 -1.49846e+12 -1.60838e+12 -1.82469e+12 -877855000000.0 -1.14254e+12 -1.36539e+12 -2.78684e+12 -2.54559e+12 -2.24194e+12 -2.53193e+12 -2.82509e+12 -2.78862e+12 -3.00148e+12 -3.01141e+12 -3.12289e+12 -3.14217e+12 -3.13223e+12 -3.10612e+12 -3.06412e+12 -2.97093e+12 -2.90081e+12 -3.06852e+12 -2.96247e+12 -3.08718e+12 -3.08431e+12 -1.51199e+12 -1.44789e+12 -2.96374e+12 -2.86001e+12 -2.97817e+12 -2.87634e+12 -2.79784e+12 -2.68411e+12 -2.76814e+12 -2.91637e+12 -3.02708e+12 -3.09219e+12 -3.05179e+12 -3.06171e+12 -2.99391e+12 -2.84523e+12 -2.03815e+12 -2.73614e+12 -652355000000.0 -2.53027e+12 -907979000000.0 -1.4759e+12 -605812000000.0 -2.27686e+12 -1.65674e+12 -1.41153e+12 -1.36892e+12 -1.31658e+12 -1.29805e+12 -1.31659e+12 -1.36892e+12 -1.41153e+12 -1.65674e+12 -2.27686e+12 -605810000000.0 -1.4759e+12 -907982000000.0 -2.53028e+12 -652355000000.0 -2.73614e+12 -2.03815e+12 -2.84523e+12 -2.99391e+12 -3.06171e+12 -3.05179e+12 -3.09219e+12 -3.02708e+12 -2.91637e+12 -2.76814e+12 -2.68411e+12 -2.79784e+12 -2.87634e+12 -2.97817e+12 -2.86001e+12 -2.96374e+12 -1.44789e+12 -1.3836e+12 -2.70985e+12 -2.84162e+12 -2.74339e+12 -2.76211e+12 -2.76587e+12 -2.63191e+12 -2.51484e+12 -2.22416e+12 -3.07552e+12 -2.50935e+12 -3.10386e+12 -2.82519e+12 -2.89784e+12 -2.88232e+12 -2.96474e+12 -2.66357e+12 -3.29315e+12 -2.2141e+12 -1.18869e+12 -1.65638e+12 -1.00415e+12 -1.19019e+12 -1.05592e+12 -1.35462e+12 -1.37606e+12 -1.37479e+12 -1.30245e+12 -1.2678e+12 -1.2678e+12 -1.30245e+12 -1.3748e+12 -1.37607e+12 -1.35462e+12 -1.05592e+12 -1.19019e+12 -1.00415e+12 -1.65638e+12 -1.18869e+12 -2.21409e+12 -3.29315e+12 -2.66356e+12 -2.96474e+12 -2.88232e+12 -2.89784e+12 -2.82519e+12 -3.10386e+12 -2.50935e+12 -3.07552e+12 -2.22416e+12 -2.51484e+12 -2.63191e+12 -2.76587e+12 -2.76211e+12 -2.74339e+12 -2.84162e+12 -2.70985e+12 -1.3836e+12 -1.2324e+12 -1.31283e+12 -2.56505e+12 -2.61579e+12 -2.65955e+12 -2.59735e+12 -2.66215e+12 -2.51341e+12 -2.59137e+12 -2.57572e+12 -3.79857e+12 -3.30911e+12 -3.04026e+12 -2.53012e+12 -3.20057e+12 -2.85039e+12 -1.48685e+12 -3.78685e+12 -1.70087e+12 -855548000000.0 -1.88086e+12 -1.29345e+12 -1.11086e+12 -1.23401e+12 -1.50112e+12 -1.65568e+12 -1.05253e+12 -1.37451e+12 -1.41095e+12 -1.29758e+12 -1.2962e+12 -1.22678e+12 -1.24312e+12 -1.18893e+12 -1.22543e+12 -1.18894e+12 -1.24312e+12 -1.22678e+12 -1.2962e+12 -1.29758e+12 -1.41096e+12 -1.37452e+12 -1.05253e+12 -1.65567e+12 -1.50112e+12 -1.23401e+12 -1.11086e+12 -1.29344e+12 -1.88086e+12 -855548000000.0 -1.70087e+12 -3.78686e+12 -1.48685e+12 -2.85039e+12 -3.20057e+12 -2.53012e+12 -3.04026e+12 -3.30911e+12 -3.79857e+12 -2.57572e+12 -2.59137e+12 -2.51341e+12 -2.66215e+12 -2.59735e+12 -2.65955e+12 -2.61579e+12 -2.56505e+12 -1.31283e+12 -1.2324e+12 -1.13645e+12 -2.40802e+12 -2.47652e+12 -2.53252e+12 -2.47515e+12 -2.55564e+12 -2.28977e+12 -1.89047e+12 -2.85553e+12 -3.2319e+12 -4.05437e+12 -1.77298e+12 -4.04021e+12 -1.98904e+12 -3.89247e+12 -3.35848e+12 -3.69171e+12 -1.79553e+12 -1.34583e+12 -1.48933e+12 -1.27301e+12 -1.04376e+12 -1.14774e+12 -1.27057e+12 -1.17962e+12 -1.75187e+12 -1.29659e+12 -1.22648e+12 -1.15803e+12 -1.1412e+12 -1.15803e+12 -1.22648e+12 -1.29659e+12 -1.75188e+12 -1.17963e+12 -1.27057e+12 -1.14774e+12 -1.04376e+12 -1.27301e+12 -1.48933e+12 -1.34583e+12 -1.79553e+12 -3.69171e+12 -3.35848e+12 -3.89247e+12 -1.98904e+12 -4.04021e+12 -1.77298e+12 -4.05437e+12 -3.2319e+12 -2.85553e+12 -1.89047e+12 -2.28977e+12 -2.55564e+12 -2.47515e+12 -2.53252e+12 -2.47652e+12 -2.40802e+12 -1.13645e+12 -1.03752e+12 -2.23761e+12 -2.31998e+12 -2.23355e+12 -2.39209e+12 -2.33039e+12 -2.44047e+12 -2.44511e+12 -2.56534e+12 -2.70061e+12 -1.45393e+12 -2.34489e+12 -2.32057e+12 -2.77232e+12 -2.90454e+12 -1.50915e+12 -3.53168e+12 -780407000000.0 -3.26913e+12 -1.83486e+12 -2.46369e+12 -1.32493e+12 -1.23191e+12 -1.24699e+12 -1.14329e+12 -1.1177e+12 -699780000000.0 -784146000000.0 -1.2489e+12 -1.13591e+12 -1.09821e+12 -1.09821e+12 -1.13592e+12 -1.2489e+12 -784148000000.0 -699781000000.0 -1.1177e+12 -1.14329e+12 -1.24699e+12 -1.23191e+12 -1.32493e+12 -2.46369e+12 -1.83486e+12 -3.26913e+12 -780407000000.0 -3.53168e+12 -1.50915e+12 -2.90454e+12 -2.77232e+12 -2.32057e+12 -2.34489e+12 -1.45393e+12 -2.70061e+12 -2.56534e+12 -2.44511e+12 -2.44047e+12 -2.33039e+12 -2.39209e+12 -2.23355e+12 -2.31998e+12 -2.23761e+12 -1.03752e+12 -828717000000.0 -2.05966e+12 -1.98142e+12 -2.15342e+12 -2.06633e+12 -2.15643e+12 -2.30336e+12 -2.31884e+12 -2.47992e+12 -3.01191e+12 -3.29599e+12 -2.43199e+12 -2.1939e+12 -1.98148e+12 -2.14747e+12 -1.2611e+12 -1.78277e+12 -1.09347e+12 -1.06338e+12 -1.00282e+12 -953089000000.0 -846498000000.0 -886847000000.0 -767095000000.0 -1.18753e+12 -1.14722e+12 -1.13104e+12 -1.02159e+12 -1.05845e+12 -995771000000.0 -1.04533e+12 -995771000000.0 -1.05845e+12 -1.02159e+12 -1.13104e+12 -1.14723e+12 -1.18753e+12 -767091000000.0 -886848000000.0 -846499000000.0 -953090000000.0 -1.00282e+12 -1.06338e+12 -1.09347e+12 -1.78277e+12 -1.2611e+12 -2.14747e+12 -1.98148e+12 -2.1939e+12 -2.43199e+12 -3.29599e+12 -3.01191e+12 -2.47992e+12 -2.31884e+12 -2.30336e+12 -2.15643e+12 -2.06633e+12 -2.15342e+12 -1.98142e+12 -2.05966e+12 -828717000000.0 -334603000000.0 -703214000000.0 -1.45578e+12 -1.84264e+12 -1.80454e+12 -1.88994e+12 -1.96881e+12 -1.88348e+12 -2.11375e+12 -2.11709e+12 -2.42457e+12 -2.59842e+12 -2.49922e+12 -3.5113e+12 -3.39464e+12 -2.94002e+12 -2.8618e+12 -2.42144e+12 -2.69433e+12 -2.17811e+12 -1.7e+12 -1.57332e+12 -1.37797e+12 -1.3968e+12 -1.15032e+12 -920867000000.0 -862659000000.0 -761520000000.0 -391668000000.0 -754417000000.0 -327989000000.0 -507198000000.0 -479729000000.0 -995274000000.0 -942846000000.0 -942924000000.0 -942845000000.0 -995272000000.0 -479722000000.0 -507200000000.0 -327985000000.0 -754418000000.0 -391668000000.0 -761521000000.0 -862658000000.0 -920866000000.0 -1.15032e+12 -1.3968e+12 -1.37797e+12 -1.57332e+12 -1.7e+12 -2.17811e+12 -2.69433e+12 -2.42144e+12 -2.8618e+12 -2.94002e+12 -3.39464e+12 -3.5113e+12 -2.49922e+12 -2.59842e+12 -2.42457e+12 -2.11709e+12 -2.11375e+12 -1.88348e+12 -1.96881e+12 -1.88994e+12 -1.80454e+12 -1.84264e+12 -1.45578e+12 -703214000000.0 -334603000000.0 -956431000000.0 -1.59221e+12 -1.71929e+12 -1.79626e+12 -1.67483e+12 -1.83567e+12 -2.18001e+12 -2.43037e+12 -2.7757e+12 -1.74943e+12 -1.21878e+12 -2.44853e+12 -2.4331e+12 -2.41191e+12 -2.30035e+12 -2.17432e+12 -2.16931e+12 -1.94675e+12 -1.97841e+12 -1.2957e+12 -1.18325e+12 -1.15419e+12 -977652000000.0 -951690000000.0 -1.07101e+12 -979669000000.0 -1.38929e+12 -947140000000.0 -856336000000.0 -696786000000.0 -870834000000.0 -891401000000.0 -891399000000.0 -870831000000.0 -696787000000.0 -856335000000.0 -947143000000.0 -1.38929e+12 -979670000000.0 -1.07101e+12 -951689000000.0 -977652000000.0 -1.15419e+12 -1.18325e+12 -1.2957e+12 -1.97841e+12 -1.94675e+12 -2.16931e+12 -2.17432e+12 -2.30035e+12 -2.41192e+12 -2.4331e+12 -2.44853e+12 -1.21878e+12 -1.74942e+12 -2.7757e+12 -2.43037e+12 -2.18001e+12 -1.83567e+12 -1.67483e+12 -1.79626e+12 -1.71929e+12 -1.59221e+12 -956431000000.0 -111552000000.0 -992060000000.0 -1.57743e+12 -1.45277e+12 -1.61642e+12 -1.50681e+12 -1.59173e+12 -1.795e+12 -1.60261e+12 -2.31342e+12 -3.56322e+12 -3.69393e+12 -2.59466e+12 -2.38591e+12 -2.21791e+12 -2.13576e+12 -1.9907e+12 -1.95197e+12 -1.808e+12 -1.71005e+12 -1.58303e+12 -1.38057e+12 -987456000000.0 -959423000000.0 -858263000000.0 -854107000000.0 -851694000000.0 -911674000000.0 -1.08143e+12 -509933000000.0 -728289000000.0 -700369000000.0 -832513000000.0 -798616000000.0 -847984000000.0 -798610000000.0 -832510000000.0 -700368000000.0 -728283000000.0 -509932000000.0 -1.08142e+12 -911674000000.0 -851693000000.0 -854106000000.0 -858262000000.0 -959424000000.0 -987456000000.0 -1.38057e+12 -1.58304e+12 -1.71005e+12 -1.808e+12 -1.95197e+12 -1.9907e+12 -2.13576e+12 -2.21791e+12 -2.38591e+12 -2.59466e+12 -3.69393e+12 -3.56322e+12 -2.31342e+12 -1.60261e+12 -1.795e+12 -1.59173e+12 -1.50681e+12 -1.61642e+12 -1.45277e+12 -1.57743e+12 -992060000000.0 -111552000000.0 -286556000000.0 -306179000000.0 -1.16919e+12 -1.33097e+12 -1.31712e+12 -1.3239e+12 -1.2412e+12 -1.5904e+12 -1.67019e+12 -1.15757e+12 -2.77351e+12 -1.24962e+12 -1.88634e+12 -1.81122e+12 -1.73752e+12 -1.6436e+12 -1.53591e+12 -1.39812e+12 -1.23663e+12 -1.0677e+12 -1.02217e+12 -778087000000.0 -757160000000.0 -731511000000.0 -727871000000.0 -793948000000.0 -202528000000.0 -537691000000.0 -213820000000.0 -525194000000.0 -419519000000.0 -649317000000.0 -730466000000.0 -768796000000.0 -730465000000.0 -649323000000.0 -419517000000.0 -525191000000.0 -213818000000.0 -537691000000.0 -202528000000.0 -793949000000.0 -727870000000.0 -731509000000.0 -757159000000.0 -778086000000.0 -1.02217e+12 -1.0677e+12 -1.23664e+12 -1.39812e+12 -1.53591e+12 -1.6436e+12 -1.73752e+12 -1.81122e+12 -1.88634e+12 -1.24962e+12 -2.77351e+12 -1.15757e+12 -1.67019e+12 -1.5904e+12 -1.2412e+12 -1.3239e+12 -1.31712e+12 -1.33097e+12 -1.16919e+12 -306179000000.0 -286556000000.0 -115902000000.0 -454246000000.0 -1.13075e+12 -1.19744e+12 -804406000000.0 -1.33063e+12 -1.9474e+12 -1.93023e+12 -2.31618e+12 -1.90266e+12 -1.93554e+12 -1.38216e+12 -1.26047e+12 -1.06835e+12 -900125000000.0 -836885000000.0 -791359000000.0 -774762000000.0 -777205000000.0 -924423000000.0 -804713000000.0 -790554000000.0 -727370000000.0 -570294000000.0 -877474000000.0 -578988000000.0 -943046000000.0 -511512000000.0 -729139000000.0 -729135000000.0 -511524000000.0 -943028000000.0 -578991000000.0 -877481000000.0 -570287000000.0 -727359000000.0 -790552000000.0 -804715000000.0 -924424000000.0 -777203000000.0 -774761000000.0 -791358000000.0 -836885000000.0 -900125000000.0 -1.06835e+12 -1.26047e+12 -1.38216e+12 -1.93554e+12 -1.90266e+12 -2.31618e+12 -1.93023e+12 -1.9474e+12 -1.33063e+12 -804406000000.0 -1.19744e+12 -1.13075e+12 -454246000000.0 -115902000000.0 -161720000000.0 -367925000000.0 -681091000000.0 -681318000000.0 -1.04145e+12 -1.04614e+12 -744542000000.0 -1.60334e+12 -1.92661e+12 -1.31314e+12 -896504000000.0 -1.36518e+12 -1.69791e+12 -1.64573e+12 -1.6448e+12 -1.59969e+12 -1.5503e+12 -1.47177e+12 -1.17679e+12 -1.19663e+12 -1.14113e+12 -1.03216e+12 -895119000000.0 -807736000000.0 -798100000000.0 -114084000000.0 -253945000000.0 -715952000000.0 -672353000000.0 -701945000000.0 -672328000000.0 -715938000000.0 -253942000000.0 -114083000000.0 -798099000000.0 -807734000000.0 -895117000000.0 -1.03216e+12 -1.14112e+12 -1.19663e+12 -1.17679e+12 -1.47177e+12 -1.5503e+12 -1.59969e+12 -1.6448e+12 -1.64573e+12 -1.69791e+12 -1.36518e+12 -896507000000.0 -1.31314e+12 -1.92661e+12 -1.60335e+12 -744542000000.0 -1.04614e+12 -1.04145e+12 -681318000000.0 -681091000000.0 -367925000000.0 -161720000000.0 -568587000000.0 -814505000000.0 -294282000000.0 -946090000000.0 -1.47981e+12 -1.60969e+12 -48564400000.0 -1.08308e+12 -1.28118e+12 -1.41585e+12 -1.4084e+12 -1.38989e+12 -1.35988e+12 -1.30472e+12 -1.24358e+12 -1.17267e+12 -1.10165e+12 -1.11615e+12 -877585000000.0 -804548000000.0 -695878000000.0 -633045000000.0 -595318000000.0 -514810000000.0 -421166000000.0 -334574000000.0 -454210000000.0 -238050000000.0 -575026000000.0 -729122000000.0 -646910000000.0 -652568000000.0 -646912000000.0 -729117000000.0 -575024000000.0 -238051000000.0 -454204000000.0 -334573000000.0 -421163000000.0 -514805000000.0 -595315000000.0 -633043000000.0 -695876000000.0 -804547000000.0 -877584000000.0 -1.11615e+12 -1.10165e+12 -1.17267e+12 -1.24358e+12 -1.30472e+12 -1.35988e+12 -1.38989e+12 -1.4084e+12 -1.41585e+12 -1.28118e+12 -1.08308e+12 -48564300000.0 -1.60969e+12 -1.47981e+12 -946090000000.0 -294282000000.0 -814505000000.0 -568587000000.0 -132914000000.0 -554959000000.0 -821562000000.0 -220498000000.0 -1.56658e+12 -774805000000.0 -542103000000.0 -1.06863e+12 -1.17784e+12 -1.21484e+12 -1.1727e+12 -1.18725e+12 -1.11902e+12 -1.09119e+12 -1.04413e+12 -996346000000.0 -964979000000.0 -964442000000.0 -950781000000.0 -915073000000.0 -619683000000.0 -424078000000.0 -448608000000.0 -398911000000.0 -330822000000.0 -341399000000.0 -362784000000.0 -335180000000.0 -497403000000.0 -240747000000.0 -699704000000.0 -49819000000.0 -598245000000.0 -598072000000.0 -49816500000.0 -699703000000.0 -240737000000.0 -497396000000.0 -335171000000.0 -362781000000.0 -341394000000.0 -330819000000.0 -398907000000.0 -448604000000.0 -424077000000.0 -619682000000.0 -915071000000.0 -950780000000.0 -964441000000.0 -964978000000.0 -996345000000.0 -1.04413e+12 -1.09119e+12 -1.11902e+12 -1.18725e+12 -1.1727e+12 -1.21484e+12 -1.17784e+12 -1.06863e+12 -542103000000.0 -774805000000.0 -1.56658e+12 -220498000000.0 -821563000000.0 -554959000000.0 -132914000000.0 -516079000000.0 -254123000000.0 -728261000000.0 -890451000000.0 -41386700000.0 -1.41721e+12 -386084000000.0 -1.30266e+12 -943060000000.0 -904452000000.0 -877198000000.0 -830387000000.0 -789857000000.0 -740831000000.0 -648377000000.0 -636175000000.0 -647786000000.0 -229979000000.0 -531244000000.0 -476226000000.0 -605660000000.0 -476089000000.0 -531271000000.0 -229943000000.0 -647784000000.0 -636173000000.0 -648376000000.0 -740831000000.0 -789857000000.0 -830387000000.0 -877197000000.0 -904452000000.0 -943060000000.0 -1.30266e+12 -386085000000.0 -1.4172e+12 -41386700000.0 -890451000000.0 -728261000000.0 -254123000000.0 -516080000000.0 -338406000000.0 -764274000000.0 -753164000000.0 -1.04806e+12 -542327000000.0 -935603000000.0 -728417000000.0 -994578000000.0 -1.04746e+12 -1.04795e+12 -1.08458e+12 -987732000000.0 -657435000000.0 -571847000000.0 -508969000000.0 -465288000000.0 -362162000000.0 -542512000000.0 -493675000000.0 -93418800000.0 -225565000000.0 -199243000000.0 -197772000000.0 -205421000000.0 -302655000000.0 -303691000000.0 -252680000000.0 -533512000000.0 -490906000000.0 -661992000000.0 -490942000000.0 -533498000000.0 -252669000000.0 -303683000000.0 -302643000000.0 -205420000000.0 -197766000000.0 -199242000000.0 -225558000000.0 -93417200000.0 -493673000000.0 -542511000000.0 -362162000000.0 -465287000000.0 -508969000000.0 -571847000000.0 -657434000000.0 -987732000000.0 -1.08458e+12 -1.04795e+12 -1.04746e+12 -994578000000.0 -728417000000.0 -935603000000.0 -542326000000.0 -1.04806e+12 -753165000000.0 -764274000000.0 -338406000000.0 -208566000000.0 -923039000000.0 -215464000000.0 -482025000000.0 -768640000000.0 -737089000000.0 -914085000000.0 -908772000000.0 -959011000000.0 -878358000000.0 -860891000000.0 -813003000000.0 -787600000000.0 -704920000000.0 -601775000000.0 -517402000000.0 -643692000000.0 -653781000000.0 -521575000000.0 -505188000000.0 -396656000000.0 -336769000000.0 -233724000000.0 -287638000000.0 -272499000000.0 -243675000000.0 -325371000000.0 -214253000000.0 -301336000000.0 -360737000000.0 -746897000000.0 -360286000000.0 -301141000000.0 -214290000000.0 -325393000000.0 -243681000000.0 -272497000000.0 -287633000000.0 -233719000000.0 -336765000000.0 -396647000000.0 -505183000000.0 -521572000000.0 -653778000000.0 -643691000000.0 -517401000000.0 -601775000000.0 -704919000000.0 -787599000000.0 -813003000000.0 -860891000000.0 -878358000000.0 -959011000000.0 -908772000000.0 -914085000000.0 -737088000000.0 -768640000000.0 -482024000000.0 -215464000000.0 -923040000000.0 -208566000000.0 -282252000000.0 -449451000000.0 -357108000000.0 -577652000000.0 -289677000000.0 -605327000000.0 -290417000000.0 -442329000000.0 -678272000000.0 -664852000000.0 -820627000000.0 -821091000000.0 -764316000000.0 -762381000000.0 -740026000000.0 -735643000000.0 -588504000000.0 -544231000000.0 -534134000000.0 -564269000000.0 -586522000000.0 -469006000000.0 -180096000000.0 -271438000000.0 -297532000000.0 -285469000000.0 -284917000000.0 -206777000000.0 -206744000000.0 -284925000000.0 -285438000000.0 -297521000000.0 -271434000000.0 -180092000000.0 -469004000000.0 -586522000000.0 -564268000000.0 -534134000000.0 -544231000000.0 -588504000000.0 -735643000000.0 -740025000000.0 -762381000000.0 -764316000000.0 -821091000000.0 -820627000000.0 -664852000000.0 -678272000000.0 -442329000000.0 -290417000000.0 -605327000000.0 -289677000000.0 -577651000000.0 -357108000000.0 -449451000000.0 -282252000000.0 -120788000000.0 -173890000000.0 -367563000000.0 -439933000000.0 -184327000000.0 -138376000000.0 -344961000000.0 -312399000000.0 -380942000000.0 -670167000000.0 -652784000000.0 -653207000000.0 -656873000000.0 -557873000000.0 -469482000000.0 -419128000000.0 -407158000000.0 -400360000000.0 -413567000000.0 -359249000000.0 -193044000000.0 -123707000000.0 -213160000000.0 -238544000000.0 -275233000000.0 -290742000000.0 -204587000000.0 -588495000000.0 -204391000000.0 -290754000000.0 -275224000000.0 -238535000000.0 -213153000000.0 -123706000000.0 -193043000000.0 -359248000000.0 -413566000000.0 -400360000000.0 -407157000000.0 -419128000000.0 -469482000000.0 -557873000000.0 -656873000000.0 -653207000000.0 -652784000000.0 -670167000000.0 -380942000000.0 -312399000000.0 -344961000000.0 -138376000000.0 -184328000000.0 -439933000000.0 -367564000000.0 -173890000000.0 -120788000000.0 -170891000000.0 -163148000000.0 -314694000000.0 -225331000000.0 -126394000000.0 -32167400000.0 -592042000000.0 -586083000000.0 -732509000000.0 -541388000000.0 -511285000000.0 -476049000000.0 -463921000000.0 -455652000000.0 -437429000000.0 -353469000000.0 -449681000000.0 -391484000000.0 -271480000000.0 -182025000000.0 -185287000000.0 -135797000000.0 -137707000000.0 -154431000000.0 -134425000000.0 -190329000000.0 -174774000000.0 -275617000000.0 -277040000000.0 -804331000000.0 -276865000000.0 -275428000000.0 -174684000000.0 -190242000000.0 -134374000000.0 -154393000000.0 -137688000000.0 -135784000000.0 -185279000000.0 -182018000000.0 -271474000000.0 -391481000000.0 -449679000000.0 -353468000000.0 -437428000000.0 -455651000000.0 -463921000000.0 -476049000000.0 -511286000000.0 -541388000000.0 -732510000000.0 -586083000000.0 -592042000000.0 -32167400000.0 -126394000000.0 -225331000000.0 -314694000000.0 -163148000000.0 -170891000000.0 -383739000000.0 -270997000000.0 -293663000000.0 -523791000000.0 -476842000000.0 -601522000000.0 -567181000000.0 -556844000000.0 -570242000000.0 -524699000000.0 -520432000000.0 -359159000000.0 -177878000000.0 -238599000000.0 -114437000000.0 -114436000000.0 -238598000000.0 -177878000000.0 -359159000000.0 -520432000000.0 -524699000000.0 -570242000000.0 -556844000000.0 -567181000000.0 -601522000000.0 -476842000000.0 -523791000000.0 -293663000000.0 -270997000000.0 -383739000000.0 -71474100000.0 -70293400000.0 -241137000000.0 -166931000000.0 -109071000000.0 -30800300000.0 -178758000000.0 -222879000000.0 -206419000000.0 -209359000000.0 -478796000000.0 -375819000000.0 -486964000000.0 -467417000000.0 -457736000000.0 -438408000000.0 -418153000000.0 -393568000000.0 -343712000000.0 -298072000000.0 -335607000000.0 -275727000000.0 -146372000000.0 -105581000000.0 -162413000000.0 -112296000000.0 -81146000000.0 -112394000000.0 -46938700000.0 -108353000000.0 -20822500000.0 -131056000000.0 -15628400000.0 -618544000000.0 -15625800000.0 -130983000000.0 -20815900000.0 -108330000000.0 -46936700000.0 -112386000000.0 -81145400000.0 -112293000000.0 -162410000000.0 -105580000000.0 -146372000000.0 -275727000000.0 -335607000000.0 -298072000000.0 -343712000000.0 -393568000000.0 -418153000000.0 -438408000000.0 -457736000000.0 -467417000000.0 -486964000000.0 -375819000000.0 -478796000000.0 -209359000000.0 -206419000000.0 -222879000000.0 -178758000000.0 -30800300000.0 -109071000000.0 -166931000000.0 -241136000000.0 -70293900000.0 -71474000000.0 -73169000000.0 -159047000000.0 -140622000000.0 -92433000000.0 -62092800000.0 -129536000000.0 -111496000000.0 -136604000000.0 -129238000000.0 -128435000000.0 -460844000000.0 -483948000000.0 -494621000000.0 -484261000000.0 -472221000000.0 -452408000000.0 -423446000000.0 -397211000000.0 -424708000000.0 -394957000000.0 -400392000000.0 -337916000000.0 -316572000000.0 -283992000000.0 -276251000000.0 -254109000000.0 -194841000000.0 -191845000000.0 -140996000000.0 -173216000000.0 -104865000000.0 -168657000000.0 -82363000000.0 -178978000000.0 -80622500000.0 -631485000000.0 -80600400000.0 -178927000000.0 -82363300000.0 -168647000000.0 -104869000000.0 -173215000000.0 -140998000000.0 -191845000000.0 -194843000000.0 -254110000000.0 -276252000000.0 -283993000000.0 -316573000000.0 -337916000000.0 -400392000000.0 -394957000000.0 -424708000000.0 -397211000000.0 -423446000000.0 -452408000000.0 -472221000000.0 -484261000000.0 -494621000000.0 -483948000000.0 -460844000000.0 -128435000000.0 -129238000000.0 -136604000000.0 -111496000000.0 -129536000000.0 -62092800000.0 -92433100000.0 -140622000000.0 -159046000000.0 -73169400000.0 -289257000000.0 -291336000000.0 -291336000000.0 -289257000000.0 -36625300000.0 -111401000000.0 -125990000000.0 -99065700000.0 -77111100000.0 -131412000000.0 -120893000000.0 -110794000000.0 -86198100000.0 -76900600000.0 -20051700000.0 -271896000000.0 -301246000000.0 -314490000000.0 -345475000000.0 -368133000000.0 -394357000000.0 -351696000000.0 -301856000000.0 -174722000000.0 -57933400000.0 -30019500000.0 -12939000000.0 -37669600000.0 -13669600000.0 -56199300000.0 -12605400000.0 -55041400000.0 -11410900000.0 -48674300000.0 -11586400000.0 -68782700000.0 -11626100000.0 -91477000000.0 -11990300000.0 -115157000000.0 -9067070000.0 -532407000000.0 -9067060000.0 -115124000000.0 -11989300000.0 -91472600000.0 -11626000000.0 -68780400000.0 -11586300000.0 -48672800000.0 -11410800000.0 -55041200000.0 -12605400000.0 -56199400000.0 -13669600000.0 -37669700000.0 -12939000000.0 -30019600000.0 -57933400000.0 -174722000000.0 -301856000000.0 -351696000000.0 -394357000000.0 -368133000000.0 -345475000000.0 -314490000000.0 -301246000000.0 -271896000000.0 -20051700000.0 -76900600000.0 -86198100000.0 -110794000000.0 -120893000000.0 -131412000000.0 -77111200000.0 -99065800000.0 -125990000000.0 -111400000000.0 -36625300000.0 -17392700000.0 -49072200000.0 -69685100000.0 -55184300000.0 -29961400000.0 -71112600000.0 -69807900000.0 -66319900000.0 -47350600000.0 -44457600000.0 -21369400000.0 -217361000000.0 -262379000000.0 -307560000000.0 -347939000000.0 -370390000000.0 -398142000000.0 -386910000000.0 -382539000000.0 -303453000000.0 -230278000000.0 -179963000000.0 -137936000000.0 -140494000000.0 -94228900000.0 -121391000000.0 -64159200000.0 -88981100000.0 -42199400000.0 -71264300000.0 -28804400000.0 -78891300000.0 -19266700000.0 -92393600000.0 -11295600000.0 -107690000000.0 -9871310000.0 -478898000000.0 -9871100000.0 -107667000000.0 -11295500000.0 -92392000000.0 -19266800000.0 -78889900000.0 -28804500000.0 -71263500000.0 -42199600000.0 -88981200000.0 -64159300000.0 -121391000000.0 -94228900000.0 -140494000000.0 -137936000000.0 -179963000000.0 -230278000000.0 -303453000000.0 -382539000000.0 -386910000000.0 -398142000000.0 -370390000000.0 -347939000000.0 -307560000000.0 -262379000000.0 -217361000000.0 -21369400000.0 -44457600000.0 -47350600000.0 -66319900000.0 -69807900000.0 -71112600000.0 -29961400000.0 -55184400000.0 -69685100000.0 -49072200000.0 -17392700000.0 -22011300000.0 -44205300000.0 -74107000000.0 -75633600000.0 -65553300000.0 -106493000000.0 -108649000000.0 -108969000000.0 -102905000000.0 -118936000000.0 -131197000000.0 -277177000000.0 -249027000000.0 -219722000000.0 -191150000000.0 -165746000000.0 -164590000000.0 -138604000000.0 -125764000000.0 -58767600000.0 -39666200000.0 -23870900000.0 -9614780000.0 -41902200000.0 -9545010000.0 -56757300000.0 -9229920000.0 -44700700000.0 -9035750000.0 -47096300000.0 -9035750000.0 -63185100000.0 -9035750000.0 -83641400000.0 -9035750000.0 -101723000000.0 -9035750000.0 -429662000000.0 -9035750000.0 -101706000000.0 -9035750000.0 -83640600000.0 -9035750000.0 -63184000000.0 -9035750000.0 -47095600000.0 -9035750000.0 -44700800000.0 -9229930000.0 -56757400000.0 -9545010000.0 -41902200000.0 -9614780000.0 -23870900000.0 -39666200000.0 -58767700000.0 -125764000000.0 -138604000000.0 -164590000000.0 -165746000000.0 -191150000000.0 -219722000000.0 -249027000000.0 -277178000000.0 -131197000000.0 -118936000000.0 -102905000000.0 -108969000000.0 -108649000000.0 -106493000000.0 -65553300000.0 -75633600000.0 -74107000000.0 -44205200000.0 -22011300000.0 -18720400000.0 -20391200000.0 -44336800000.0 -45931200000.0 -34834700000.0 -65812000000.0 -61441200000.0 -50345900000.0 -31584800000.0 -34138300000.0 -47189600000.0 -178585000000.0 -178173000000.0 -177025000000.0 -176959000000.0 -168313000000.0 -166587000000.0 -141181000000.0 -125649000000.0 -64220300000.0 -55407600000.0 -34454200000.0 -17548700000.0 -46419100000.0 -12255600000.0 -55420300000.0 -9035750000.0 -41570200000.0 -9035750000.0 -47191700000.0 -9035750000.0 -61420000000.0 -9035750000.0 -80547200000.0 -9035750000.0 -96806600000.0 -9035750000.0 -384548000000.0 -9035750000.0 -96795300000.0 -9035750000.0 -80546700000.0 -9035750000.0 -61419200000.0 -9035750000.0 -47191300000.0 -9035750000.0 -41570400000.0 -9035750000.0 -55420400000.0 -12255600000.0 -46419100000.0 -17548700000.0 -34454200000.0 -55407600000.0 -64220300000.0 -125649000000.0 -141181000000.0 -166587000000.0 -168313000000.0 -176959000000.0 -177026000000.0 -178173000000.0 -178585000000.0 -47189600000.0 -34138300000.0 -31584800000.0 -50345900000.0 -61441200000.0 -65812000000.0 -34834700000.0 -45931200000.0 -44336800000.0 -20391200000.0 -18720400000.0 -19876800000.0 -14437700000.0 -37196600000.0 -43523500000.0 -38886800000.0 -67126900000.0 -63335900000.0 -51418700000.0 -34964100000.0 -39658800000.0 -67634800000.0 -172155000000.0 -160988000000.0 -147818000000.0 -139339000000.0 -125751000000.0 -119611000000.0 -95803600000.0 -82708800000.0 -41235400000.0 -37816800000.0 -23569900000.0 -9035750000.0 -40067500000.0 -9035750000.0 -51992800000.0 -9035750000.0 -39887900000.0 -9035750000.0 -47555600000.0 -9035750000.0 -59868200000.0 -9035750000.0 -77259900000.0 -9035750000.0 -92237200000.0 -9035750000.0 -343461000000.0 -9035750000.0 -92229200000.0 -9035750000.0 -77259600000.0 -9035750000.0 -59867800000.0 -9035750000.0 -47555400000.0 -9035750000.0 -39888100000.0 -9035750000.0 -51992900000.0 -9035750000.0 -40067500000.0 -9035750000.0 -23569900000.0 -37816800000.0 -41235400000.0 -82708800000.0 -95803600000.0 -119611000000.0 -125751000000.0 -139339000000.0 -147818000000.0 -160988000000.0 -172155000000.0 -67634800000.0 -39658800000.0 -34964100000.0 -51418700000.0 -63335900000.0 -67126900000.0 -38886800000.0 -43523500000.0 -37196600000.0 -14437700000.0 -19876800000.0 -20489600000.0 -11666400000.0 -29302600000.0 -37714900000.0 -37163400000.0 -62178300000.0 -58253400000.0 -44736900000.0 -28606300000.0 -32841300000.0 -70339800000.0 -154960000000.0 -145841000000.0 -132867000000.0 -124870000000.0 -110704000000.0 -102973000000.0 -80690800000.0 -68144500000.0 -41038200000.0 -35437400000.0 -25292100000.0 -9035750000.0 -38874300000.0 -9035750000.0 -49224200000.0 -9035750000.0 -39095800000.0 -9035750000.0 -47878500000.0 -9035750000.0 -58429600000.0 -9035750000.0 -73831200000.0 -9035750000.0 -87967900000.0 -9035750000.0 -306237000000.0 -9035750000.0 -87962300000.0 -9035750000.0 -73831000000.0 -9035750000.0 -58429400000.0 -9035750000.0 -47878300000.0 -9035750000.0 -39095900000.0 -9035750000.0 -49224300000.0 -9035750000.0 -38874300000.0 -9035750000.0 -25292100000.0 -35437400000.0 -41038200000.0 -68144500000.0 -80690800000.0 -102973000000.0 -110704000000.0 -124870000000.0 -132867000000.0 -145841000000.0 -154960000000.0 -70339800000.0 -32841300000.0 -28606300000.0 -44736900000.0 -58253400000.0 -62178300000.0 -37163400000.0 -37714900000.0 -29302500000.0 -11666400000.0 -20489600000.0 -21306300000.0 -11671000000.0 -24413200000.0 -34290700000.0 -37277000000.0 -59811000000.0 -56433700000.0 -42589500000.0 -28185800000.0 -33338100000.0 -77612400000.0 -142499000000.0 -132256000000.0 -117449000000.0 -108836000000.0 -94264500000.0 -85874300000.0 -66416100000.0 -55664600000.0 -39098300000.0 -31526900000.0 -26298500000.0 -9035750000.0 -37593200000.0 -9035750000.0 -46532600000.0 -9035750000.0 -38713500000.0 -9035750000.0 -47995700000.0 -9035750000.0 -56974200000.0 -9035750000.0 -70324500000.0 -9035750000.0 -83914200000.0 -9035750000.0 -272658000000.0 -9035750000.0 -83910200000.0 -9035750000.0 -70324300000.0 -9035750000.0 -56974100000.0 -9035750000.0 -47995600000.0 -9035750000.0 -38713500000.0 -9035750000.0 -46532600000.0 -9035750000.0 -37593200000.0 -9035750000.0 -26298500000.0 -31526900000.0 -39098300000.0 -55664600000.0 -66416100000.0 -85874300000.0 -94264500000.0 -108836000000.0 -117449000000.0 -132256000000.0 -142499000000.0 -77612400000.0 -33338100000.0 -28185800000.0 -42589500000.0 -56433700000.0 -59811000000.0 -37277000000.0 -34290600000.0 -24413200000.0 -11671000000.0 -21306300000.0 -21999500000.0 -12059800000.0 -20890400000.0 -31427000000.0 -36925900000.0 -57196000000.0 -54485600000.0 -40722200000.0 -27684000000.0 -33401700000.0 -81664200000.0 -130072000000.0 -119922000000.0 -104671000000.0 -96165500000.0 -81769700000.0 -73123200000.0 -56551500000.0 -47463900000.0 -37188300000.0 -28046200000.0 -27175200000.0 -9035760000.0 -36278800000.0 -9035750000.0 -44157000000.0 -9035750000.0 -38437100000.0 -9035750000.0 -47853100000.0 -9035750000.0 -55414400000.0 -9035750000.0 -66808900000.0 -9035750000.0 -79996000000.0 -9035750000.0 -242473000000.0 -9035750000.0 -79993100000.0 -9035750000.0 -66808700000.0 -9035750000.0 -55414500000.0 -9035750000.0 -47853100000.0 -9035750000.0 -38437100000.0 -9035750000.0 -44157100000.0 -9035750000.0 -36278800000.0 -9035760000.0 -27175200000.0 -28046200000.0 -37188300000.0 -47463900000.0 -56551500000.0 -73123300000.0 -81769700000.0 -96165500000.0 -104671000000.0 -119922000000.0 -130072000000.0 -81664200000.0 -33401700000.0 -27684000000.0 -40722200000.0 -54485600000.0 -57196000000.0 -36925900000.0 -31427000000.0 -20890300000.0 -12059800000.0 -21999500000.0 -22538700000.0 -12454400000.0 -18471400000.0 -29106100000.0 -36245800000.0 -54402100000.0 -52417300000.0 -39068100000.0 -27635900000.0 -34042600000.0 -83789800000.0 -118294000000.0 -108385000000.0 -93466200000.0 -85387600000.0 -71507300000.0 -63062000000.0 -49340200000.0 -41809700000.0 -34942400000.0 -24698600000.0 -27644100000.0 -9035760000.0 -34972100000.0 -9035760000.0 -42162500000.0 -9035750000.0 -38133300000.0 -9035750000.0 -47433500000.0 -9035750000.0 -53723600000.0 -9035750000.0 -63346500000.0 -9035750000.0 -76150400000.0 -9035750000.0 -215414000000.0 -9035750000.0 -76148400000.0 -9035750000.0 -63346300000.0 -9035750000.0 -53723600000.0 -9035750000.0 -47433500000.0 -9035750000.0 -38133400000.0 -9035750000.0 -42162600000.0 -9035760000.0 -34972100000.0 -9035760000.0 -27644100000.0 -24698600000.0 -34942400000.0 -41809700000.0 -49340200000.0 -63062000000.0 -71507300000.0 -85387700000.0 -93466200000.0 -108385000000.0 -118294000000.0 -83789800000.0 -34042600000.0 -27635900000.0 -39068100000.0 -52417300000.0 -54402100000.0 -36245800000.0 -29106100000.0 -18471400000.0 -12454400000.0 -22538700000.0 -22903200000.0 -12801400000.0 -16883000000.0 -27251000000.0 -35326200000.0 -51502900000.0 -50267500000.0 -37605400000.0 -27749900000.0 -76449100000.0 -63295200000.0 -55296400000.0 -44163500000.0 -38031900000.0 -32568600000.0 -21631300000.0 -27775300000.0 -9035760000.0 -33697200000.0 -9035760000.0 -40491400000.0 -9035750000.0 -37743000000.0 -9035760000.0 -46731300000.0 -9035750000.0 -51913100000.0 -9035750000.0 -59976200000.0 -9035750000.0 -72331600000.0 -9035750000.0 -191209000000.0 -9035750000.0 -72330100000.0 -9035750000.0 -59976100000.0 -9035750000.0 -51913100000.0 -9035750000.0 -46731300000.0 -9035760000.0 -37743000000.0 -9035750000.0 -40491500000.0 -9035760000.0 -33697200000.0 -9035760000.0 -27775300000.0 -21631300000.0 -32568600000.0 -38031900000.0 -44163500000.0 -55296400000.0 -63295200000.0 -76449100000.0 -27749900000.0 -37605400000.0 -50267500000.0 -51502900000.0 -35326200000.0 -27251000000.0 -16883000000.0 -12801400000.0 -22903200000.0 -34736900000.0 -84124700000.0 -107412000000.0 -97982500000.0 -83916400000.0 -83916400000.0 -97982500000.0 -107412000000.0 -84124700000.0 -34736900000.0 -23071200000.0 -13095300000.0 -15870800000.0 -25773700000.0 -34233300000.0 -48563900000.0 -48067500000.0 -36300300000.0 -27956600000.0 -35355300000.0 -83054200000.0 -97551300000.0 -88771200000.0 -75910300000.0 -69149200000.0 -56863400000.0 -49383400000.0 -40441500000.0 -35415300000.0 -30212800000.0 -18933700000.0 -27648200000.0 -9035760000.0 -32463600000.0 -9035760000.0 -39039000000.0 -9035760000.0 -37234200000.0 -9035760000.0 -45758200000.0 -9035750000.0 -50007900000.0 -9035760000.0 -56716600000.0 -9035750000.0 -68512100000.0 -9035750000.0 -169595000000.0 -9035750000.0 -68511000000.0 -9035750000.0 -56716500000.0 -9035760000.0 -50007900000.0 -9035750000.0 -45758200000.0 -9035760000.0 -37234200000.0 -9035760000.0 -39039000000.0 -9035760000.0 -32463600000.0 -9035760000.0 -27648200000.0 -18933700000.0 -30212800000.0 -35415300000.0 -40441500000.0 -49383400000.0 -56863400000.0 -69149200000.0 -75910300000.0 -88771200000.0 -97551300000.0 -83054200000.0 -35355300000.0 -27956600000.0 -36300300000.0 -48067500000.0 -48563900000.0 -34233300000.0 -25773700000.0 -15870800000.0 -13095300000.0 -23071200000.0 -33329700000.0 -27972800000.0 -16641100000.0 -9035760000.0 -9035760000.0 -9035760000.0 -9035760000.0 -9035750000.0 -9035760000.0 -9035750000.0 -9035750000.0 -9035750000.0 -9035750000.0 -9035760000.0 -9035750000.0 -9035760000.0 -9035760000.0 -9035760000.0 -9035760000.0 -16641100000.0 -27972800000.0 -33329700000.0 -23035000000.0 -13335200000.0 -15235900000.0 -24585600000.0 -33016200000.0 -45643700000.0 -45844200000.0 -35109900000.0 -28184700000.0 -35804400000.0 -80907600000.0 -88732300000.0 -80724000000.0 -69275300000.0 -63225600000.0 -51870300000.0 -44915600000.0 -37707700000.0 -27327300000.0 -31270300000.0 -37708300000.0 -36590500000.0 -44544100000.0 -48032700000.0 -53573200000.0 -64683100000.0 -150322000000.0 -64682400000.0 -53573100000.0 -48032700000.0 -44544100000.0 -36590500000.0 -37708300000.0 -31270300000.0 -27327300000.0 -37707700000.0 -44915600000.0 -51870300000.0 -63225600000.0 -69275300000.0 -80724000000.0 -88732300000.0 -80907600000.0 -35804400000.0 -28184700000.0 -35109900000.0 -45844200000.0 -45643700000.0 -33016200000.0 -24585600000.0 -15235900000.0 -13335200000.0 -23035000000.0 -22809100000.0 -13520500000.0 -14841100000.0 -23602200000.0 -31713100000.0 -42791100000.0 -43621000000.0 -33990800000.0 -28361400000.0 -36029000000.0 -77957600000.0 -80901500000.0 -73742200000.0 -63798800000.0 -58417700000.0 -47976100000.0 -41515200000.0 -35574100000.0 -31405100000.0 -25903900000.0 -14748100000.0 -26859700000.0 -9035760000.0 -30110200000.0 -9035760000.0 -36431400000.0 -9035760000.0 -35807300000.0 -9035760000.0 -43129300000.0 -9035750000.0 -46007700000.0 -9035760000.0 -50544100000.0 -9035750000.0 -60851400000.0 -9035750000.0 -133154000000.0 -9035750000.0 -60850900000.0 -9035750000.0 -50544100000.0 -9035760000.0 -46007700000.0 -9035750000.0 -43129300000.0 -9035760000.0 -35807300000.0 -9035760000.0 -36431400000.0 -9035760000.0 -30110200000.0 -9035760000.0 -26859700000.0 -14748100000.0 -25903900000.0 -31405100000.0 -35574100000.0 -41515300000.0 -47976100000.0 -58417700000.0 -63798800000.0 -73742200000.0 -80901500000.0 -77957600000.0 -36029000000.0 -28361400000.0 -33990900000.0 -43621000000.0 -42791100000.0 -31713100000.0 -23602200000.0 -14841100000.0 -13520500000.0 -22809100000.0 -22423700000.0 -13650800000.0 -14591900000.0 -22751500000.0 -30355800000.0 -40042400000.0 -41417100000.0 -32903900000.0 -28426200000.0 -36004500000.0 -74427000000.0 -73960900000.0 -67688600000.0 -59253500000.0 -54480100000.0 -44886100000.0 -38852200000.0 -33741900000.0 -29509800000.0 -24029900000.0 -13226100000.0 -26278100000.0 -9035760000.0 -28974100000.0 -9035760000.0 -35165900000.0 -9035760000.0 -34888600000.0 -9035760000.0 -41555200000.0 -9035750000.0 -43948000000.0 -9035760000.0 -47623800000.0 -9035750000.0 -57035100000.0 -9035750000.0 -117876000000.0 -9035750000.0 -57034700000.0 -9035750000.0 -47623700000.0 -9035760000.0 -43948000000.0 -9035750000.0 -41555200000.0 -9035760000.0 -34888600000.0 -9035760000.0 -35165900000.0 -9035760000.0 -28974100000.0 -9035760000.0 -26278100000.0 -13226100000.0 -24029900000.0 -29509800000.0 -33741900000.0 -38852200000.0 -44886100000.0 -54480100000.0 -59253500000.0 -67688600000.0 -73960900000.0 -74427000000.0 -36004500000.0 -28426200000.0 -32903900000.0 -41417100000.0 -40042400000.0 -30355800000.0 -22751500000.0 -14591900000.0 -13650800000.0 -22423700000.0 -21912700000.0 -13726300000.0 -14418500000.0 -21979800000.0 -28970300000.0 -37421500000.0 -39245200000.0 -31816200000.0 -28336900000.0 -35725700000.0 -70498100000.0 -67791900000.0 -62411900000.0 -55418700000.0 -51186200000.0 -42352200000.0 -36666400000.0 -32031300000.0 -27634600000.0 -22354400000.0 -12034600000.0 -25605500000.0 -9035760000.0 -27852900000.0 -9035760000.0 -33885900000.0 -9035760000.0 -33844700000.0 -9035760000.0 -39859700000.0 -9035750000.0 -41865300000.0 -9035760000.0 -44805100000.0 -9035750000.0 -53259700000.0 -9035750000.0 -104289000000.0 -9035750000.0 -53259400000.0 -9035750000.0 -44805100000.0 -9035760000.0 -41865300000.0 -9035750000.0 -39859700000.0 -9035760000.0 -33844700000.0 -9035760000.0 -33885900000.0 -9035760000.0 -27852900000.0 -9035760000.0 -25605500000.0 -12034600000.0 -22354400000.0 -27634600000.0 -32031300000.0 -36666400000.0 -42352200000.0 -51186200000.0 -55418700000.0 -62411900000.0 -67791900000.0 -70498100000.0 -35725700000.0 -28336900000.0 -31816200000.0 -39245200000.0 -37421500000.0 -28970300000.0 -21979800000.0 -14418500000.0 -13726300000.0 -21912700000.0 -21307200000.0 -13747600000.0 -14270300000.0 -21249700000.0 -27577100000.0 -34942300000.0 -37112800000.0 -30703200000.0 -28068000000.0 -35197900000.0 -66319200000.0 -62272000000.0 -57762500000.0 -52096700000.0 -48335900000.0 -40172800000.0 -34766100000.0 -30366000000.0 -25807500000.0 -20868200000.0 -11127400000.0 -24858400000.0 -9035760000.0 -26738700000.0 -9035760000.0 -32575500000.0 -9035760000.0 -32688900000.0 -9035760000.0 -38074800000.0 -9035750000.0 -39769200000.0 -9035760000.0 -42081000000.0 -9035750000.0 -49553700000.0 -9035750000.0 -92215700000.0 -9035750000.0 -49553600000.0 -9035750000.0 -42081000000.0 -9035760000.0 -39769200000.0 -9035750000.0 -38074800000.0 -9035760000.0 -32688900000.0 -9035760000.0 -32575500000.0 -9035760000.0 -26738700000.0 -9035760000.0 -24858400000.0 -11127400000.0 -20868200000.0 -25807500000.0 -30366000000.0 -34766100000.0 -40172800000.0 -48335900000.0 -52096700000.0 -57762500000.0 -62272000000.0 -66319200000.0 -35197900000.0 -28068000000.0 -30703200000.0 -37112800000.0 -34942300000.0 -27577100000.0 -21249700000.0 -14270300000.0 -13747600000.0 -21307200000.0 -20632800000.0 -13716000000.0 -14116100000.0 -20536400000.0 -26192100000.0 -32609700000.0 -35023900000.0 -29548400000.0 -27610400000.0 -34434200000.0 -62008800000.0 -57286600000.0 -53602800000.0 -49121800000.0 -45764600000.0 -38195000000.0 -33015200000.0 -28727800000.0 -24057800000.0 -19554200000.0 -10456100000.0 -24048900000.0 -9035760000.0 -25625400000.0 -9035760000.0 -31226700000.0 -9035760000.0 -31436100000.0 -9035760000.0 -36226800000.0 -9035750000.0 -37668100000.0 -9035760000.0 -39445300000.0 -9035750000.0 -45945200000.0 -9035750000.0 -81493300000.0 -9035750000.0 -45945100000.0 -9035750000.0 -39445300000.0 -9035760000.0 -37668100000.0 -9035750000.0 -36226800000.0 -9035760000.0 -31436100000.0 -9035760000.0 -31226700000.0 -9035760000.0 -25625400000.0 -9035760000.0 -24048900000.0 -10456100000.0 -19554200000.0 -24057800000.0 -28727800000.0 -33015200000.0 -38195000000.0 -45764600000.0 -49121800000.0 -53602800000.0 -57286600000.0 -62008800000.0 -34434200000.0 -27610400000.0 -29548400000.0 -35023900000.0 -32609700000.0 -26192100000.0 -20536400000.0 -14116100000.0 -13716000000.0 -20632800000.0 -19909700000.0 -13633100000.0 -13940200000.0 -19823300000.0 -24826600000.0 -30421200000.0 -32981100000.0 -28342700000.0 -26969000000.0 -33454200000.0 -57658600000.0 -52734800000.0 -49813100000.0 -46362200000.0 -43346700000.0 -36311000000.0 -31325600000.0 -27120400000.0 -22406600000.0 -18391900000.0 -9973710000.0 -23186200000.0 -9035760000.0 -24508800000.0 -9035760000.0 -29837200000.0 -9035760000.0 -30101400000.0 -9035760000.0 -34337200000.0 -9035750000.0 -35569400000.0 -9035760000.0 -36893200000.0 -9035750000.0 -42458400000.0 -9035750000.0 -71976600000.0 -9035750000.0 -42458300000.0 -9035750000.0 -36893200000.0 -9035760000.0 -35569400000.0 -9035750000.0 -34337200000.0 -9035760000.0 -30101400000.0 -9035760000.0 -29837200000.0 -9035760000.0 -24508800000.0 -9035760000.0 -23186200000.0 -9973710000.0 -18391900000.0 -22406600000.0 -27120400000.0 -31325600000.0 -36311000000.0 -43346700000.0 -46362200000.0 -49813100000.0 -52734800000.0 -57658600000.0 -33454200000.0 -26969000000.0 -28342700000.0 -32981100000.0 -30421200000.0 -24826600000.0 -19823300000.0 -13940200000.0 -13633100000.0 -19909700000.0 -19153200000.0 -13501000000.0 -13736000000.0 -19100100000.0 -23488200000.0 -28368800000.0 -30985000000.0 -27083100000.0 -26158600000.0 -32280800000.0 -53337400000.0 -48531600000.0 -46294200000.0 -43718500000.0 -40993400000.0 -34450600000.0 -29649900000.0 -25550900000.0 -20866100000.0 -17359400000.0 -9637200000.0 -22277800000.0 -9035760000.0 -23386600000.0 -9035760000.0 -28408700000.0 -9035760000.0 -28699100000.0 -9035760000.0 -32422600000.0 -9035750000.0 -33479500000.0 -9035760000.0 -34421100000.0 -9035750000.0 -39112500000.0 -9035750000.0 -63533600000.0 -9035750000.0 -39112400000.0 -9035750000.0 -34421100000.0 -9035760000.0 -33479500000.0 -9035750000.0 -32422600000.0 -9035760000.0 -28699100000.0 -9035760000.0 -28408700000.0 -9035760000.0 -23386600000.0 -9035760000.0 -22277800000.0 -9637200000.0 -17359400000.0 -20866100000.0 -25550900000.0 -29649900000.0 -34450600000.0 -40993400000.0 -43718500000.0 -46294200000.0 -48531600000.0 -53337400000.0 -32280800000.0 -26158600000.0 -27083100000.0 -30985000000.0 -28368800000.0 -23488200000.0 -19100100000.0 -13736000000.0 -13501000000.0 -19153200000.0 -18374400000.0 -13322200000.0 -13501400000.0 -18361400000.0 -22181200000.0 -26440700000.0 -29035400000.0 -25771500000.0 -25198700000.0 -30938000000.0 -49094700000.0 -44607900000.0 -42968200000.0 -41119300000.0 -38646100000.0 -32572400000.0 -27969500000.0 -24024100000.0 -19441100000.0 -16435400000.0 -9409550000.0 -21330100000.0 -9035760000.0 -22257600000.0 -9035760000.0 -26945000000.0 -9035760000.0 -27242000000.0 -9035760000.0 -30496200000.0 -9035750000.0 -31403600000.0 -9035760000.0 -32026400000.0 -9035750000.0 -35920600000.0 -9035750000.0 -56044200000.0 -9035750000.0 -35920600000.0 -9035750000.0 -32026400000.0 -9035760000.0 -31403600000.0 -9035750000.0 -30496200000.0 -9035760000.0 -27242000000.0 -9035760000.0 -26945000000.0 -9035760000.0 -22257600000.0 -9035760000.0 -21330100000.0 -9409550000.0 -16435400000.0 -19441100000.0 -24024100000.0 -27969500000.0 -32572400000.0 -38646100000.0 -41119300000.0 -42968200000.0 -44607900000.0 -49094700000.0 -30938000000.0 -25198700000.0 -25771500000.0 -29035400000.0 -26440700000.0 -22181200000.0 -18361400000.0 -13501400000.0 -13322200000.0 -18374400000.0 -17581200000.0 -13099500000.0 -13235900000.0 -17605200000.0 -20907000000.0 -24622800000.0 -27130300000.0 -24413100000.0 -24110400000.0 -29448000000.0 -44963900000.0 -40909600000.0 -39776500000.0 -38516700000.0 -36269500000.0 -30656700000.0 -26282100000.0 -22542100000.0 -18130600000.0 -15600200000.0 -9260360000.0 -20348500000.0 -9035760000.0 -21121800000.0 -9035760000.0 -25451300000.0 -9035760000.0 -25741500000.0 -9035760000.0 -28567800000.0 -9035750000.0 -29345400000.0 -9035760000.0 -29707400000.0 -9035750000.0 -32890100000.0 -9035750000.0 -49398500000.0 -9035750000.0 -32890100000.0 -9035750000.0 -29707400000.0 -9035760000.0 -29345400000.0 -9035750000.0 -28567800000.0 -9035760000.0 -25741500000.0 -9035760000.0 -25451300000.0 -9035760000.0 -21121800000.0 -9035760000.0 -20348500000.0 -9260360000.0 -15600200000.0 -18130600000.0 -22542100000.0 -26282100000.0 -30656700000.0 -36269500000.0 -38516700000.0 -39776500000.0 -40909600000.0 -44963900000.0 -29448000000.0 -24110400000.0 -24413100000.0 -27130300000.0 -24622800000.0 -20907000000.0 -17605200000.0 -13235900000.0 -13099500000.0 -17581200000.0 -16778800000.0 -12836300000.0 -12940100000.0 -16831900000.0 -19665200000.0 -22900300000.0 -25267500000.0 -23015300000.0 -22914100000.0 -27831300000.0 -40965300000.0 -37394900000.0 -36677300000.0 -35882300000.0 -33845200000.0 -28698300000.0 -24592000000.0 -21104500000.0 -16929300000.0 -14835800000.0 -9165880000.0 -19338000000.0 -9035760000.0 -19979700000.0 -9035760000.0 -23932900000.0 -9035760000.0 -24206900000.0 -9035760000.0 -26644300000.0 -9035750000.0 -27307900000.0 -9035760000.0 -27462200000.0 -9035750000.0 -30022800000.0 -9035750000.0 -43495500000.0 -9035750000.0 -30022800000.0 -9035750000.0 -27462200000.0 -9035760000.0 -27307900000.0 -9035750000.0 -26644300000.0 -9035760000.0 -24206900000.0 -9035760000.0 -23932900000.0 -9035760000.0 -19979700000.0 -9035760000.0 -19338000000.0 -9165880000.0 -14835800000.0 -16929300000.0 -21104500000.0 -24592000000.0 -28698300000.0 -33845200000.0 -35882300000.0 -36677300000.0 -37394900000.0 -40965300000.0 -27831300000.0 -22914100000.0 -23015300000.0 -25267500000.0 -22900300000.0 -19665200000.0 -16831900000.0 -12940100000.0 -12836300000.0 -16778800000.0 -15970400000.0 -12535800000.0 -12615000000.0 -16042900000.0 -18454200000.0 -21258500000.0 -23443600000.0 -21585800000.0 -21628400000.0 -26105500000.0 -37108800000.0 -34032000000.0 -33641800000.0 -33201700000.0 -31367000000.0 -26700200000.0 -22904500000.0 -19709100000.0 -15829000000.0 -14126900000.0 -9108190000.0 -18303100000.0 -9035760000.0 -18832400000.0 -9035760000.0 -22394500000.0 -9035750000.0 -22646300000.0 -9035760000.0 -24730700000.0 -9035750000.0 -25292800000.0 -9035750000.0 -25288400000.0 -9035750000.0 -27315400000.0 -9035750000.0 -38242000000.0 -9035750000.0 -27315400000.0 -9035750000.0 -25288400000.0 -9035750000.0 -25292800000.0 -9035750000.0 -24730700000.0 -9035760000.0 -22646300000.0 -9035750000.0 -22394500000.0 -9035760000.0 -18832400000.0 -9035760000.0 -18303100000.0 -9108190000.0 -14126900000.0 -15829000000.0 -19709100000.0 -22904500000.0 -26700200000.0 -31367000000.0 -33201700000.0 -33641800000.0 -34032000000.0 -37108800000.0 -26105500000.0 -21628400000.0 -21585800000.0 -23443600000.0 -21258500000.0 -18454200000.0 -16042900000.0 -12615000000.0 -12535800000.0 -15970400000.0 -15157900000.0 -12201600000.0 -12262100000.0 -15240600000.0 -17271600000.0 -19683500000.0 -21655200000.0 -20132400000.0 -20270500000.0 -24286500000.0 -33395500000.0 -30796200000.0 -30651200000.0 -30470600000.0 -28836800000.0 -24668800000.0 -21224300000.0 -18352800000.0 -14819500000.0 -13459900000.0 -9074350000.0 -17247600000.0 -9035760000.0 -17680800000.0 -9035760000.0 -20840600000.0 -9035750000.0 -21066200000.0 -9035760000.0 -22829800000.0 -9035750000.0 -23300900000.0 -9035750000.0 -23183100000.0 -9035750000.0 -24760300000.0 -9035750000.0 -33551400000.0 -9035750000.0 -24760300000.0 -9035750000.0 -23183100000.0 -9035750000.0 -23300900000.0 -9035750000.0 -22829800000.0 -9035760000.0 -21066200000.0 -9035750000.0 -20840600000.0 -9035760000.0 -17680800000.0 -9035760000.0 -17247600000.0 -9074350000.0 -13459900000.0 -14819500000.0 -18352800000.0 -21224300000.0 -24668800000.0 -28836800000.0 -30470600000.0 -30651200000.0 -30796200000.0 -33395500000.0 -24286500000.0 -20270500000.0 -20132400000.0 -21655200000.0 -19683500000.0 -17271600000.0 -15240600000.0 -12262100000.0 -12201600000.0 -15157900000.0 -14342500000.0 -11837500000.0 -11883800000.0 -14427300000.0 -16114600000.0 -18163000000.0 -19898300000.0 -18662000000.0 -18855200000.0 -29819900000.0 -27667700000.0 -27693600000.0 -27691100000.0 -26260600000.0 -22610900000.0 -19554500000.0 -17031500000.0 -13889500000.0 -12824200000.0 -9055350000.0 -16175400000.0 -9035760000.0 -16525800000.0 -9035760000.0 -19274800000.0 -9035750000.0 -19471600000.0 -9035750000.0 -20942900000.0 -9035750000.0 -21331900000.0 -9035750000.0 -21141800000.0 -9035750000.0 -22346400000.0 -9035750000.0 -29343100000.0 -9035750000.0 -22346400000.0 -9035750000.0 -21141800000.0 -9035750000.0 -21331900000.0 -9035750000.0 -20942900000.0 -9035750000.0 -19471600000.0 -9035750000.0 -19274800000.0 -9035760000.0 -16525800000.0 -9035760000.0 -16175400000.0 -9055350000.0 -12824200000.0 -13889500000.0 -17031500000.0 -19554500000.0 -22610900000.0 -26260600000.0 -27691100000.0 -27693600000.0 -27667700000.0 -29819900000.0 -18855200000.0 -18662000000.0 -19898300000.0 -18163000000.0 -16114600000.0 -14427300000.0 -11883800000.0 -11837500000.0 -14342500000.0 -22388700000.0 -22388700000.0 -13524600000.0 -11447400000.0 -11482500000.0 -13605100000.0 -14979800000.0 -16685800000.0 -18169000000.0 -17180100000.0 -17395200000.0 -20424900000.0 -26371200000.0 -24630000000.0 -24761600000.0 -24868700000.0 -23646600000.0 -20533100000.0 -17896900000.0 -15741000000.0 -13027500000.0 -12210800000.0 -9045180000.0 -15089500000.0 -9035760000.0 -15368400000.0 -9035760000.0 -17700000000.0 -9035750000.0 -17866800000.0 -9035750000.0 -19070000000.0 -9035750000.0 -19384800000.0 -9035750000.0 -19159300000.0 -9035750000.0 -20059800000.0 -9035750000.0 -25541600000.0 -9035750000.0 -20059800000.0 -9035750000.0 -19159300000.0 -9035750000.0 -19384800000.0 -9035750000.0 -19070000000.0 -9035750000.0 -17866800000.0 -9035750000.0 -17700000000.0 -9035760000.0 -15368400000.0 -9035760000.0 -15089500000.0 -9045180000.0 -12210800000.0 -13027500000.0 -15741000000.0 -17896900000.0 -20533100000.0 -23646600000.0 -24868700000.0 -24761600000.0 -24630000000.0 -26371200000.0 -20424900000.0 -17395200000.0 -17180100000.0 -18169000000.0 -16685800000.0 -14979800000.0 -13605100000.0 -11482500000.0 -11447400000.0 -13524600000.0 -12704700000.0 -11035100000.0 -11061400000.0 -12776000000.0 -13864200000.0 -15242500000.0 -16463100000.0 -15691400000.0 -15901300000.0 -18406900000.0 -23034700000.0 -21668400000.0 -21850200000.0 -22010700000.0 -21002800000.0 -18440800000.0 -16251600000.0 -14476500000.0 -12222000000.0 -11613200000.0 -9040030000.0 -13992800000.0 -9035760000.0 -14209200000.0 -9035750000.0 -16118700000.0 -9035750000.0 -16254800000.0 -9035750000.0 -17210400000.0 -9035750000.0 -17457700000.0 -9035750000.0 -17228900000.0 -9035750000.0 -17884000000.0 -9035750000.0 -22076400000.0 -9035750000.0 -17884000000.0 -9035750000.0 -17228900000.0 -9035750000.0 -17457700000.0 -9035750000.0 -17210400000.0 -9035750000.0 -16254800000.0 -9035750000.0 -16118700000.0 -9035750000.0 -14209200000.0 -9035760000.0 -13992800000.0 -9040030000.0 -11613200000.0 -12222000000.0 -14476500000.0 -16251600000.0 -18440800000.0 -21002800000.0 -22010700000.0 -21850200000.0 -21668400000.0 -23034700000.0 -18406900000.0 -15901300000.0 -15691400000.0 -16463100000.0 -15242500000.0 -13864200000.0 -12776000000.0 -11061400000.0 -11035100000.0 -12704700000.0 -11883000000.0 -10604800000.0 -10623700000.0 -11941500000.0 -12764100000.0 -13825000000.0 -14776200000.0 -14198800000.0 -14382300000.0 -16345900000.0 -19792800000.0 -18768800000.0 -18955600000.0 -19124700000.0 -18336700000.0 -16338000000.0 -14618100000.0 -13233300000.0 -11461700000.0 -11026100000.0 -9037570000.0 -12887800000.0 -9035750000.0 -13048800000.0 -9035750000.0 -14532600000.0 -9035750000.0 -14637900000.0 -9035750000.0 -15362500000.0 -9035750000.0 -15548000000.0 -9035750000.0 -15342500000.0 -9035750000.0 -15800800000.0 -9035750000.0 -18880200000.0 -9035750000.0 -15800800000.0 -9035750000.0 -15342500000.0 -9035750000.0 -15548000000.0 -9035750000.0 -15362500000.0 -9035750000.0 -14637900000.0 -9035750000.0 -14532600000.0 -9035750000.0 -13048800000.0 -9035750000.0 -12887800000.0 -9037570000.0 -11026100000.0 -11461700000.0 -13233300000.0 -14618100000.0 -16338000000.0 -18336700000.0 -19124700000.0 -18955600000.0 -18768800000.0 -19792800000.0 -16345900000.0 -14382300000.0 -14198800000.0 -14776200000.0 -13825000000.0 -12764100000.0 -11941500000.0 -10623700000.0 -10604800000.0 -11883000000.0 -11059700000.0 -10160300000.0 -10173000000.0 -11102900000.0 -11676200000.0 -12426200000.0 -13104000000.0 -12704500000.0 -12845700000.0 -14252000000.0 -16625700000.0 -15917300000.0 -16074300000.0 -16217800000.0 -15654500000.0 -14228300000.0 -12994500000.0 -12006600000.0 -10735800000.0 -10445900000.0 -9036470000.0 -11776600000.0 -9035750000.0 -11887500000.0 -9035750000.0 -12943200000.0 -9035750000.0 -13017900000.0 -9035750000.0 -13524000000.0 -9035750000.0 -13652400000.0 -9035750000.0 -13491500000.0 -9035750000.0 -13790700000.0 -9035750000.0 -15889400000.0 -9035750000.0 -13790700000.0 -9035750000.0 -13491500000.0 -9035750000.0 -13652400000.0 -9035750000.0 -13524000000.0 -9035750000.0 -13017900000.0 -9035750000.0 -12943200000.0 -9035750000.0 -11887500000.0 -9035750000.0 -11776600000.0 -9036470000.0 -10445900000.0 -10735800000.0 -12006600000.0 -12994500000.0 -14228300000.0 -15654500000.0 -16217800000.0 -16074300000.0 -15917300000.0 -16625700000.0 -14252000000.0 -12845700000.0 -12704500000.0 -13104000000.0 -12426200000.0 -11676200000.0 -11102900000.0 -10173000000.0 -10160300000.0 -11059700000.0 -10235400000.0 -9705810000.0 -9713090000.0 -10261600000.0 -10596900000.0 -11039900000.0 -11442200000.0 -11209500000.0 -11297300000.0 -12135000000.0 -13512400000.0 -13100100000.0 -13202400000.0 -13296400000.0 -12961300000.0 -12113900000.0 -11378300000.0 -10791500000.0 -10034000000.0 -9869840000.0 -9036010000.0 -10661200000.0 -9035750000.0 -10725500000.0 -9035750000.0 -11351700000.0 -9035750000.0 -11395800000.0 -9035750000.0 -11692300000.0 -9035750000.0 -11767100000.0 -9035750000.0 -11665900000.0 -9035750000.0 -11833000000.0 -9035750000.0 -13042600000.0 -9035750000.0 -11833000000.0 -9035750000.0 -11665900000.0 -9035750000.0 -11767100000.0 -9035750000.0 -11692300000.0 -9035750000.0 -11395800000.0 -9035750000.0 -11351700000.0 -9035750000.0 -10725500000.0 -9035750000.0 -10661200000.0 -9036010000.0 -9869840000.0 -10034000000.0 -10791500000.0 -11378300000.0 -12113900000.0 -12961300000.0 -13296400000.0 -13202400000.0 -13100100000.0 -13512400000.0 -12135000000.0 -11297300000.0 -11209500000.0 -11442200000.0 -11039900000.0 -10596900000.0 -10261600000.0 -9713090000.0 -9705810000.0 -10235400000.0 -9410250000.0 -9245360000.0 -9247600000.0 -9418500000.0 -9522660000.0 -9660780000.0 -9786450000.0 -9714300000.0 -9742210000.0 -10004200000.0 -10430700000.0 -10302900000.0 -10336000000.0 -10366400000.0 -10261600000.0 -9996800000.0 -9766620000.0 -9583260000.0 -9346240000.0 -9295930000.0 -9035810000.0 -9543320000.0 -9035750000.0 -9563230000.0 -9035750000.0 -9758760000.0 -9035750000.0 -9772520000.0 -9035750000.0 -9864680000.0 -9035750000.0 -9887870000.0 -9035750000.0 -9855580000.0 -9035750000.0 -9906520000.0 -9035750000.0 -10280000000.0 -9035750000.0 -9906520000.0 -9035750000.0 -9855580000.0 -9035750000.0 -9887870000.0 -9035750000.0 -9864680000.0 -9035750000.0 -9772520000.0 -9035750000.0 -9758760000.0 -9035750000.0 -9563230000.0 -9035750000.0 -9543320000.0 -9035810000.0 -9295930000.0 -9346240000.0 -9583260000.0 -9766620000.0 -9996800000.0 -10261600000.0 -10366400000.0 -10336000000.0 -10302900000.0 -10430700000.0 -10004200000.0 -9742210000.0 -9714300000.0 -9786450000.0 -9660780000.0 -9522660000.0 -9418500000.0 -9247600000.0 -9245360000.0 -9410250000.0 
SCALARS Shear_Stress float 1
LOOKUP_TABLE default
22722500000.0 107158000000.0 107158000000.0 22722600000.0 78408900000.0 78135600000.0 55948700000.0 55948600000.0 78135600000.0 78408900000.0 31421500000.0 162207000000.0 162292000000.0 72538900000.0 12980900000.0 39548100000.0 48728700000.0 144099000000.0 28394100000.0 280655000000.0 280655000000.0 28394100000.0 144099000000.0 48728600000.0 39548100000.0 12980900000.0 72538900000.0 162292000000.0 162207000000.0 31421400000.0 158876000000.0 410996000000.0 96617700000.0 129021000000.0 140248000000.0 138233000000.0 203009000000.0 158657000000.0 17950300000.0 158657000000.0 203009000000.0 138233000000.0 140248000000.0 129021000000.0 96617700000.0 410996000000.0 158876000000.0 333967000000.0 39261800000.0 48063300000.0 184321000000.0 8103070000.0 213369000000.0 246417000000.0 44487200000.0 44487200000.0 246417000000.0 213369000000.0 8103110000.0 184321000000.0 48063200000.0 39261800000.0 333967000000.0 3973570000.0 141153000000.0 173714000000.0 73344500000.0 144621000000.0 172768000000.0 309192000000.0 160882000000.0 200366000000.0 7986650000.0 104560000000.0 11768900000.0 92970000000.0 11769200000.0 104560000000.0 7987250000.0 200366000000.0 160882000000.0 309193000000.0 172768000000.0 144621000000.0 73344400000.0 173714000000.0 141152000000.0 3973610000.0 450167000000.0 137360000000.0 10839700000.0 19401700000.0 92529300000.0 265735000000.0 307421000000.0 111214000000.0 99851400000.0 19661200000.0 99852100000.0 111215000000.0 307421000000.0 265735000000.0 92529200000.0 19401300000.0 10839600000.0 137360000000.0 450167000000.0 82989600000.0 8512230000.0 89931500000.0 56644500000.0 13450300000.0 333237000000.0 54427000000.0 10303500000.0 41854400000.0 41855000000.0 10302100000.0 54427700000.0 333237000000.0 13450400000.0 56644500000.0 89931800000.0 8512400000.0 82989600000.0 261189000000.0 98654100000.0 12529100000.0 620929000000.0 1.49387e+12 631508000000.0 123850000000.0 136375000000.0 343693000000.0 48716600000.0 88093500000.0 51847800000.0 3278620000.0 36747600000.0 27125000000.0 8305860000.0 27126200000.0 36749300000.0 3281830000.0 51849400000.0 88093000000.0 48716600000.0 343694000000.0 136375000000.0 123850000000.0 631508000000.0 1.49387e+12 620928000000.0 12529600000.0 98654100000.0 261189000000.0 625555000000.0 423316000000.0 172920000000.0 306410000000.0 927437000000.0 746010000000.0 694501000000.0 88388000000.0 69791800000.0 320459000000.0 73841300000.0 6809300000.0 25658100000.0 6812610000.0 73837800000.0 320460000000.0 69791100000.0 88388300000.0 694501000000.0 746010000000.0 927437000000.0 306410000000.0 172920000000.0 423316000000.0 625555000000.0 150286000000.0 351009000000.0 242768000000.0 147870000000.0 68233300000.0 1.5618e+12 948740000000.0 745466000000.0 418954000000.0 433437000000.0 289266000000.0 38691100000.0 35247800000.0 35249700000.0 38684000000.0 289266000000.0 433438000000.0 418954000000.0 745466000000.0 948740000000.0 1.5618e+12 68233000000.0 147871000000.0 242768000000.0 351009000000.0 150286000000.0 64804500000.0 840451000000.0 622057000000.0 246490000000.0 167072000000.0 71206100000.0 1.31521e+12 964172000000.0 827149000000.0 567948000000.0 326804000000.0 494111000000.0 474150000000.0 512052000000.0 219304000000.0 57032000000.0 25879500000.0 147265000000.0 91725700000.0 147270000000.0 25873200000.0 57017400000.0 219298000000.0 512059000000.0 474153000000.0 494111000000.0 326804000000.0 567948000000.0 827149000000.0 964173000000.0 1.31521e+12 71205900000.0 167073000000.0 246490000000.0 622057000000.0 840451000000.0 64804400000.0 95604300000.0 345580000000.0 587246000000.0 1.26381e+12 404841000000.0 265804000000.0 101240000000.0 299458000000.0 921800000000.0 669785000000.0 518743000000.0 447480000000.0 429975000000.0 537582000000.0 535597000000.0 47155200000.0 324809000000.0 47177100000.0 535600000000.0 537582000000.0 429975000000.0 447480000000.0 518743000000.0 669785000000.0 921800000000.0 299458000000.0 101240000000.0 265805000000.0 404842000000.0 1.26381e+12 587246000000.0 345580000000.0 95604400000.0 78775300000.0 119267000000.0 269655000000.0 654956000000.0 1.61303e+12 678943000000.0 400441000000.0 193863000000.0 271687000000.0 1.10092e+12 809567000000.0 650846000000.0 429256000000.0 526718000000.0 563275000000.0 489475000000.0 559893000000.0 559896000000.0 489472000000.0 563273000000.0 526718000000.0 429256000000.0 650846000000.0 809567000000.0 1.10092e+12 271687000000.0 193863000000.0 400441000000.0 678944000000.0 1.61303e+12 654956000000.0 269655000000.0 119267000000.0 78775300000.0 24298800000.0 317510000000.0 303147000000.0 686457000000.0 625981000000.0 307846000000.0 340446000000.0 615793000000.0 1.01829e+12 961871000000.0 851041000000.0 450692000000.0 459503000000.0 581598000000.0 594114000000.0 641061000000.0 558412000000.0 374924000000.0 560582000000.0 54498400000.0 21383100000.0 54458000000.0 560588000000.0 374903000000.0 558404000000.0 641063000000.0 594113000000.0 581599000000.0 459504000000.0 450692000000.0 851041000000.0 961871000000.0 1.01829e+12 615793000000.0 340446000000.0 307846000000.0 625981000000.0 686457000000.0 303147000000.0 317510000000.0 24298800000.0 26428500000.0 377374000000.0 454687000000.0 362359000000.0 514865000000.0 1.47878e+12 550712000000.0 448260000000.0 412721000000.0 530859000000.0 809088000000.0 1.00597e+12 641228000000.0 339317000000.0 386113000000.0 505107000000.0 680087000000.0 495089000000.0 343779000000.0 1.12531e+12 1.12528e+12 343772000000.0 495093000000.0 680088000000.0 505108000000.0 386113000000.0 339317000000.0 641228000000.0 1.00597e+12 809087000000.0 530859000000.0 412721000000.0 448261000000.0 550713000000.0 1.47878e+12 514865000000.0 362359000000.0 454687000000.0 377374000000.0 26428500000.0 69497900000.0 447339000000.0 420663000000.0 502647000000.0 568943000000.0 656742000000.0 601259000000.0 928849000000.0 447916000000.0 501359000000.0 688217000000.0 1.03585e+12 915524000000.0 650351000000.0 369917000000.0 684817000000.0 491856000000.0 457078000000.0 237093000000.0 215603000000.0 237141000000.0 457067000000.0 491859000000.0 684819000000.0 369918000000.0 650351000000.0 915524000000.0 1.03585e+12 688217000000.0 501359000000.0 447917000000.0 928849000000.0 601259000000.0 656742000000.0 568943000000.0 502647000000.0 420663000000.0 447339000000.0 69497900000.0 131872000000.0 105062000000.0 463542000000.0 517087000000.0 597861000000.0 601017000000.0 666818000000.0 449304000000.0 435888000000.0 381202000000.0 456879000000.0 559737000000.0 862662000000.0 1.06513e+12 1.0211e+12 188239000000.0 541738000000.0 645060000000.0 450946000000.0 493178000000.0 510172000000.0 487047000000.0 504565000000.0 561569000000.0 561565000000.0 504567000000.0 487025000000.0 510171000000.0 493179000000.0 450949000000.0 645061000000.0 541741000000.0 188239000000.0 1.0211e+12 1.06513e+12 862661000000.0 559737000000.0 456880000000.0 381202000000.0 435888000000.0 449304000000.0 666818000000.0 601017000000.0 597861000000.0 517087000000.0 463542000000.0 105062000000.0 131872000000.0 149511000000.0 472979000000.0 512737000000.0 517008000000.0 578093000000.0 654457000000.0 604170000000.0 296594000000.0 406377000000.0 259757000000.0 405312000000.0 719357000000.0 742598000000.0 987168000000.0 935541000000.0 762015000000.0 248164000000.0 200073000000.0 363817000000.0 437523000000.0 471117000000.0 39065100000.0 441649000000.0 39084900000.0 471110000000.0 437524000000.0 363820000000.0 200077000000.0 248168000000.0 762017000000.0 935542000000.0 987168000000.0 742598000000.0 719356000000.0 405313000000.0 259757000000.0 406377000000.0 296594000000.0 604170000000.0 654457000000.0 578093000000.0 517008000000.0 512737000000.0 472979000000.0 149511000000.0 155679000000.0 475309000000.0 506181000000.0 557329000000.0 625808000000.0 626539000000.0 632798000000.0 489765000000.0 81837500000.0 236708000000.0 495143000000.0 634505000000.0 803862000000.0 715576000000.0 389970000000.0 195344000000.0 314136000000.0 445352000000.0 276563000000.0 8711840000.0 311378000000.0 8714650000.0 276563000000.0 445350000000.0 314137000000.0 195340000000.0 389969000000.0 715576000000.0 803863000000.0 634501000000.0 495142000000.0 236709000000.0 81837700000.0 489765000000.0 632798000000.0 626539000000.0 625808000000.0 557329000000.0 506181000000.0 475309000000.0 155679000000.0 154000000000.0 449874000000.0 469970000000.0 494259000000.0 538509000000.0 567557000000.0 594475000000.0 605978000000.0 557597000000.0 258951000000.0 36699100000.0 89744600000.0 85865100000.0 242156000000.0 269384000000.0 387539000000.0 571582000000.0 88918900000.0 725466000000.0 4856130000.0 390238000000.0 365413000000.0 359056000000.0 276769000000.0 169011000000.0 182972000000.0 182973000000.0 169015000000.0 276768000000.0 359054000000.0 365412000000.0 390238000000.0 4857190000.0 725466000000.0 88917300000.0 571583000000.0 387541000000.0 269382000000.0 242155000000.0 85865300000.0 89744600000.0 36699000000.0 258951000000.0 557597000000.0 605978000000.0 594475000000.0 567557000000.0 538508000000.0 494259000000.0 469970000000.0 449874000000.0 154000000000.0 157233000000.0 153042000000.0 424205000000.0 473725000000.0 497648000000.0 521897000000.0 542769000000.0 580707000000.0 574113000000.0 492579000000.0 416624000000.0 238958000000.0 65515200000.0 18469200000.0 348046000000.0 279752000000.0 650987000000.0 214777000000.0 439303000000.0 111438000000.0 278337000000.0 320675000000.0 311533000000.0 240778000000.0 285810000000.0 240779000000.0 311532000000.0 320673000000.0 278337000000.0 111438000000.0 439303000000.0 214777000000.0 650988000000.0 279751000000.0 348041000000.0 18467400000.0 65514800000.0 238957000000.0 416624000000.0 492579000000.0 574113000000.0 580707000000.0 542769000000.0 521897000000.0 497648000000.0 473725000000.0 424205000000.0 153042000000.0 157233000000.0 168674000000.0 411100000000.0 432770000000.0 469803000000.0 523004000000.0 556298000000.0 549274000000.0 570363000000.0 521800000000.0 360072000000.0 38996900000.0 151076000000.0 252181000000.0 114767000000.0 18296900000.0 207632000000.0 20214400000.0 310778000000.0 467909000000.0 251636000000.0 291720000000.0 275951000000.0 251774000000.0 251774000000.0 275950000000.0 291719000000.0 251634000000.0 467911000000.0 310781000000.0 20211400000.0 207630000000.0 18292800000.0 114769000000.0 252177000000.0 151073000000.0 38995700000.0 360072000000.0 521800000000.0 570363000000.0 549274000000.0 556298000000.0 523004000000.0 469803000000.0 432770000000.0 411100000000.0 168674000000.0 184374000000.0 416054000000.0 370961000000.0 386837000000.0 407133000000.0 488433000000.0 515450000000.0 529159000000.0 530073000000.0 526473000000.0 440675000000.0 314520000000.0 213814000000.0 18881500000.0 153173000000.0 278997000000.0 414482000000.0 507695000000.0 441128000000.0 641613000000.0 232505000000.0 118591000000.0 227385000000.0 229863000000.0 270718000000.0 259245000000.0 263741000000.0 268075000000.0 283837000000.0 268075000000.0 263740000000.0 259244000000.0 270716000000.0 229862000000.0 227384000000.0 118590000000.0 232504000000.0 641615000000.0 441130000000.0 507690000000.0 414478000000.0 278994000000.0 153174000000.0 18882000000.0 213813000000.0 314519000000.0 440674000000.0 526473000000.0 530073000000.0 529159000000.0 515450000000.0 488433000000.0 407133000000.0 386837000000.0 370961000000.0 416054000000.0 184374000000.0 198320000000.0 458139000000.0 435100000000.0 394292000000.0 329341000000.0 385203000000.0 476823000000.0 469473000000.0 496132000000.0 501009000000.0 477414000000.0 465614000000.0 393801000000.0 223411000000.0 304833000000.0 482661000000.0 1.19291e+12 1.00509e+12 1.4643e+12 1.449e+12 345485000000.0 214467000000.0 101020000000.0 228099000000.0 160135000000.0 229739000000.0 256251000000.0 273194000000.0 256250000000.0 229738000000.0 160134000000.0 228100000000.0 101021000000.0 214466000000.0 345486000000.0 1.449e+12 1.4643e+12 1.00508e+12 1.1929e+12 482657000000.0 304832000000.0 223410000000.0 393801000000.0 465614000000.0 477414000000.0 501009000000.0 496132000000.0 469473000000.0 476823000000.0 385203000000.0 329341000000.0 394292000000.0 435100000000.0 458139000000.0 198320000000.0 204936000000.0 206127000000.0 469815000000.0 437225000000.0 322544000000.0 251812000000.0 527247000000.0 506621000000.0 426899000000.0 489363000000.0 421793000000.0 395306000000.0 253724000000.0 30974100000.0 323706000000.0 370129000000.0 137138000000.0 64752100000.0 529715000000.0 808623000000.0 133729000000.0 84113900000.0 31819600000.0 179374000000.0 229862000000.0 256084000000.0 256083000000.0 229860000000.0 179373000000.0 31818700000.0 84113500000.0 133725000000.0 808620000000.0 529715000000.0 64756300000.0 137138000000.0 370129000000.0 323701000000.0 30972800000.0 253724000000.0 395306000000.0 421793000000.0 489363000000.0 426899000000.0 506621000000.0 527247000000.0 251811000000.0 322544000000.0 437225000000.0 469815000000.0 206127000000.0 204936000000.0 195647000000.0 461687000000.0 469582000000.0 460653000000.0 387611000000.0 290973000000.0 394962000000.0 671331000000.0 418540000000.0 512588000000.0 436817000000.0 419931000000.0 271252000000.0 353350000000.0 127745000000.0 325133000000.0 45295600000.0 386056000000.0 898937000000.0 468506000000.0 769362000000.0 77074500000.0 233494000000.0 494745000000.0 90149500000.0 156513000000.0 115676000000.0 127000000000.0 185507000000.0 195044000000.0 231546000000.0 226877000000.0 248841000000.0 226876000000.0 231545000000.0 195042000000.0 185505000000.0 126998000000.0 115674000000.0 156513000000.0 90150100000.0 494749000000.0 233491000000.0 77069600000.0 769365000000.0 468502000000.0 898934000000.0 386055000000.0 45294800000.0 325133000000.0 127746000000.0 353350000000.0 271252000000.0 419931000000.0 436817000000.0 512588000000.0 418540000000.0 671331000000.0 394962000000.0 290973000000.0 387611000000.0 460653000000.0 469582000000.0 461687000000.0 195647000000.0 180488000000.0 439160000000.0 441344000000.0 464676000000.0 461092000000.0 430696000000.0 187912000000.0 429960000000.0 237229000000.0 272725000000.0 395768000000.0 279256000000.0 406778000000.0 313907000000.0 662915000000.0 685617000000.0 442856000000.0 329886000000.0 580439000000.0 113857000000.0 261766000000.0 345797000000.0 299052000000.0 248151000000.0 86438400000.0 148294000000.0 195391000000.0 211756000000.0 195390000000.0 148292000000.0 86436700000.0 248151000000.0 299055000000.0 345798000000.0 261765000000.0 113855000000.0 580437000000.0 329889000000.0 442853000000.0 685615000000.0 662917000000.0 313908000000.0 406777000000.0 279256000000.0 395768000000.0 272724000000.0 237229000000.0 429960000000.0 187911000000.0 430696000000.0 461092000000.0 464676000000.0 441344000000.0 439160000000.0 180488000000.0 163368000000.0 365726000000.0 403255000000.0 385893000000.0 446335000000.0 423268000000.0 296490000000.0 378893000000.0 270570000000.0 1.01747e+12 336810000000.0 613752000000.0 128166000000.0 18392700000.0 115351000000.0 688593000000.0 406952000000.0 1.04106e+12 183540000000.0 79068800000.0 208230000000.0 106164000000.0 99236900000.0 251029000000.0 181437000000.0 65299300000.0 109278000000.0 154532000000.0 184967000000.0 184967000000.0 154531000000.0 109276000000.0 65298000000.0 181439000000.0 251029000000.0 99236800000.0 106163000000.0 208229000000.0 79068100000.0 183541000000.0 1.04106e+12 406949000000.0 688594000000.0 115351000000.0 18392900000.0 128167000000.0 613752000000.0 336811000000.0 1.01747e+12 270569000000.0 378892000000.0 296490000000.0 423268000000.0 446335000000.0 385893000000.0 403255000000.0 365726000000.0 163368000000.0 150890000000.0 154161000000.0 342953000000.0 328925000000.0 369784000000.0 344721000000.0 457727000000.0 463417000000.0 26514000000.0 359934000000.0 1.08121e+12 967970000000.0 667084000000.0 753621000000.0 383482000000.0 810021000000.0 684375000000.0 624749000000.0 51156700000.0 66132700000.0 296506000000.0 87273800000.0 258705000000.0 302839000000.0 441132000000.0 59172300000.0 255364000000.0 307572000000.0 95806000000.0 47561000000.0 105177000000.0 108600000000.0 150186000000.0 129337000000.0 162012000000.0 129337000000.0 150185000000.0 108599000000.0 105176000000.0 47559300000.0 95805100000.0 307572000000.0 255363000000.0 59170100000.0 441131000000.0 302839000000.0 258702000000.0 87274200000.0 296505000000.0 66132200000.0 51156500000.0 624748000000.0 684375000000.0 810021000000.0 383482000000.0 753621000000.0 667084000000.0 967970000000.0 1.08121e+12 359933000000.0 26515200000.0 463417000000.0 457727000000.0 344722000000.0 369784000000.0 328925000000.0 342953000000.0 154161000000.0 150890000000.0 157441000000.0 334924000000.0 283036000000.0 289770000000.0 244004000000.0 291770000000.0 454264000000.0 403957000000.0 455698000000.0 373615000000.0 747877000000.0 849324000000.0 708369000000.0 753984000000.0 625135000000.0 996235000000.0 731638000000.0 421754000000.0 189973000000.0 28775700000.0 13017100000.0 255989000000.0 215344000000.0 134687000000.0 559358000000.0 160720000000.0 42372100000.0 50606700000.0 91738900000.0 95485100000.0 91738500000.0 50605900000.0 42371200000.0 160722000000.0 559359000000.0 134690000000.0 215345000000.0 255988000000.0 13016200000.0 28776100000.0 189972000000.0 421754000000.0 731638000000.0 996235000000.0 625135000000.0 753984000000.0 708369000000.0 849324000000.0 747877000000.0 373616000000.0 455699000000.0 403956000000.0 454263000000.0 291771000000.0 244004000000.0 289770000000.0 283036000000.0 334924000000.0 157441000000.0 166310000000.0 346839000000.0 272618000000.0 189160000000.0 218615000000.0 147284000000.0 180323000000.0 93390000000.0 180743000000.0 17090300000.0 398200000000.0 839366000000.0 142527000000.0 47732300000.0 470354000000.0 344662000000.0 1.06536e+12 274960000000.0 760732000000.0 29900000000.0 177837000000.0 155087000000.0 87766100000.0 30995700000.0 84602700000.0 165102000000.0 20773900000.0 155367000000.0 26791300000.0 45628500000.0 54360500000.0 54360900000.0 45628000000.0 26793900000.0 155365000000.0 20773200000.0 165101000000.0 84604700000.0 30996800000.0 87766400000.0 155087000000.0 177836000000.0 29899700000.0 760732000000.0 274961000000.0 1.06536e+12 344662000000.0 470354000000.0 47732100000.0 142527000000.0 839366000000.0 398200000000.0 17090300000.0 180744000000.0 93391000000.0 180324000000.0 147284000000.0 218615000000.0 189160000000.0 272618000000.0 346839000000.0 166310000000.0 77256800000.0 364188000000.0 321967000000.0 288629000000.0 206890000000.0 97663800000.0 64483400000.0 67034800000.0 2660770000.0 571352000000.0 542315000000.0 427538000000.0 107543000000.0 319930000000.0 579310000000.0 144198000000.0 282651000000.0 85222900000.0 81733000000.0 108455000000.0 115903000000.0 131144000000.0 11489900000.0 163054000000.0 16825500000.0 163803000000.0 34467900000.0 43650000000.0 11768600000.0 47820300000.0 4377140000.0 47818700000.0 11769300000.0 43649900000.0 34465200000.0 163804000000.0 16822200000.0 163051000000.0 11489000000.0 131144000000.0 115903000000.0 108456000000.0 81734800000.0 85223900000.0 282651000000.0 144199000000.0 579311000000.0 319930000000.0 107542000000.0 427538000000.0 542315000000.0 571354000000.0 2661170000.0 67034700000.0 64483500000.0 97663800000.0 206890000000.0 288629000000.0 321967000000.0 364188000000.0 77256900000.0 51777500000.0 53757300000.0 155736000000.0 366701000000.0 367729000000.0 253176000000.0 96755100000.0 7623590000.0 5467660000.0 106571000000.0 209226000000.0 454075000000.0 69075000000.0 1.04662e+12 805586000000.0 186521000000.0 66097400000.0 101100000000.0 375236000000.0 92330600000.0 378729000000.0 224963000000.0 134144000000.0 78250800000.0 107762000000.0 109714000000.0 99151900000.0 1951600000.0 43387000000.0 260037000000.0 168809000000.0 248453000000.0 270460000000.0 166424000000.0 98759400000.0 111056000000.0 98754700000.0 166419000000.0 270457000000.0 248456000000.0 168805000000.0 260038000000.0 43387400000.0 1951790000.0 99153700000.0 109716000000.0 107762000000.0 78250600000.0 134144000000.0 224963000000.0 378730000000.0 92330700000.0 375236000000.0 101100000000.0 66097300000.0 186521000000.0 805586000000.0 1.04662e+12 69074600000.0 454075000000.0 209226000000.0 106571000000.0 5467670000.0 7623650000.0 96755000000.0 253176000000.0 367729000000.0 366701000000.0 155736000000.0 53757300000.0 51777500000.0 174973000000.0 301819000000.0 307271000000.0 165283000000.0 8282840000.0 21743100000.0 331437000000.0 715148000000.0 412728000000.0 338611000000.0 593654000000.0 671312000000.0 259965000000.0 158966000000.0 208330000000.0 200697000000.0 320610000000.0 320894000000.0 379539000000.0 183112000000.0 114891000000.0 34822800000.0 84252700000.0 92713600000.0 473093000000.0 697271000000.0 455864000000.0 238347000000.0 93743600000.0 221437000000.0 159343000000.0 168100000000.0 168094000000.0 159341000000.0 221437000000.0 93748900000.0 238347000000.0 455864000000.0 697272000000.0 473093000000.0 92715400000.0 84253100000.0 34822400000.0 114891000000.0 183112000000.0 379539000000.0 320894000000.0 320610000000.0 200697000000.0 208330000000.0 158966000000.0 259964000000.0 671310000000.0 593655000000.0 338609000000.0 412728000000.0 715149000000.0 331438000000.0 21743100000.0 8282940000.0 165283000000.0 307271000000.0 301819000000.0 174973000000.0 103765000000.0 165300000000.0 380721000000.0 313299000000.0 240369000000.0 167415000000.0 92056400000.0 50155700000.0 245355000000.0 665050000000.0 1.07435e+12 915817000000.0 791371000000.0 93677100000.0 124364000000.0 230014000000.0 245550000000.0 337904000000.0 346365000000.0 382764000000.0 360909000000.0 258616000000.0 140591000000.0 31239700000.0 76087900000.0 138523000000.0 225532000000.0 307583000000.0 556569000000.0 180971000000.0 325512000000.0 201939000000.0 211989000000.0 264060000000.0 222319000000.0 264044000000.0 211976000000.0 201935000000.0 325512000000.0 180973000000.0 556573000000.0 307584000000.0 225534000000.0 138525000000.0 76089000000.0 31239000000.0 140589000000.0 258616000000.0 360909000000.0 382764000000.0 346365000000.0 337904000000.0 245550000000.0 230014000000.0 124363000000.0 93676900000.0 791372000000.0 915818000000.0 1.07435e+12 665049000000.0 245355000000.0 50155400000.0 92056300000.0 167415000000.0 240369000000.0 313298000000.0 380721000000.0 165300000000.0 103765000000.0 278200000000.0 301605000000.0 283740000000.0 421038000000.0 301238000000.0 96003500000.0 196327000000.0 47775200000.0 102204000000.0 367637000000.0 508333000000.0 197112000000.0 324863000000.0 335192000000.0 359662000000.0 379257000000.0 391025000000.0 382321000000.0 326087000000.0 259220000000.0 220338000000.0 99364600000.0 42219100000.0 126473000000.0 143775000000.0 31751900000.0 179647000000.0 176885000000.0 66395500000.0 120700000000.0 231671000000.0 371706000000.0 292822000000.0 288417000000.0 292813000000.0 371701000000.0 231668000000.0 120697000000.0 66391600000.0 176885000000.0 179648000000.0 31751500000.0 143776000000.0 126474000000.0 42220900000.0 99363900000.0 220337000000.0 259219000000.0 326086000000.0 382321000000.0 391025000000.0 379257000000.0 359662000000.0 335192000000.0 324863000000.0 197113000000.0 508333000000.0 367636000000.0 102204000000.0 47775400000.0 196327000000.0 96003500000.0 301238000000.0 421037000000.0 283740000000.0 301605000000.0 278200000000.0 82108900000.0 451289000000.0 375195000000.0 298844000000.0 187528000000.0 73267400000.0 286549000000.0 188787000000.0 566339000000.0 160705000000.0 295384000000.0 396533000000.0 394206000000.0 384303000000.0 379640000000.0 388862000000.0 350781000000.0 254095000000.0 285198000000.0 395355000000.0 541381000000.0 340712000000.0 277323000000.0 193406000000.0 52036500000.0 65588600000.0 346695000000.0 34154900000.0 297881000000.0 297845000000.0 34157700000.0 346694000000.0 65587500000.0 52030200000.0 193405000000.0 277322000000.0 340711000000.0 541382000000.0 395357000000.0 285200000000.0 254094000000.0 350780000000.0 388861000000.0 379639000000.0 384303000000.0 394206000000.0 396533000000.0 295384000000.0 160705000000.0 566339000000.0 188787000000.0 286549000000.0 73268000000.0 187528000000.0 298844000000.0 375195000000.0 451289000000.0 82108900000.0 55500900000.0 208797000000.0 613866000000.0 471787000000.0 405557000000.0 443202000000.0 219090000000.0 81136800000.0 102791000000.0 27425300000.0 46849600000.0 466703000000.0 646598000000.0 429970000000.0 439080000000.0 417702000000.0 405794000000.0 396619000000.0 28784600000.0 88163100000.0 112163000000.0 118214000000.0 165487000000.0 230007000000.0 332814000000.0 31814700000.0 78281500000.0 314319000000.0 303804000000.0 314416000000.0 303718000000.0 314315000000.0 78272200000.0 31814400000.0 332816000000.0 230008000000.0 165487000000.0 118213000000.0 112163000000.0 88162800000.0 28784200000.0 396619000000.0 405794000000.0 417702000000.0 439080000000.0 429970000000.0 646598000000.0 466701000000.0 46850200000.0 27425800000.0 102792000000.0 81136100000.0 219090000000.0 443202000000.0 405556000000.0 471787000000.0 613865000000.0 208797000000.0 55500900000.0 425414000000.0 477884000000.0 112641000000.0 253586000000.0 38609600000.0 356951000000.0 26625200000.0 459477000000.0 565541000000.0 598050000000.0 517033000000.0 491408000000.0 459880000000.0 417123000000.0 383304000000.0 324075000000.0 208282000000.0 75895800000.0 49714500000.0 85151500000.0 163295000000.0 231249000000.0 213615000000.0 218671000000.0 175183000000.0 190700000000.0 3628660000.0 109698000000.0 264940000000.0 486068000000.0 346531000000.0 337598000000.0 346542000000.0 486065000000.0 264940000000.0 109699000000.0 3631060000.0 190698000000.0 175180000000.0 218670000000.0 213615000000.0 231247000000.0 163294000000.0 85150400000.0 49713800000.0 75896200000.0 208283000000.0 324076000000.0 383304000000.0 417123000000.0 459880000000.0 491408000000.0 517033000000.0 598050000000.0 565541000000.0 459477000000.0 26625100000.0 356951000000.0 38608800000.0 253585000000.0 112641000000.0 477884000000.0 425413000000.0 65787100000.0 223767000000.0 529186000000.0 143795000000.0 524278000000.0 10593300000.0 87512800000.0 465277000000.0 536830000000.0 554222000000.0 528064000000.0 517690000000.0 446396000000.0 406341000000.0 343306000000.0 257144000000.0 167632000000.0 108228000000.0 50227200000.0 13220300000.0 27424800000.0 122121000000.0 178936000000.0 181269000000.0 181408000000.0 179107000000.0 107076000000.0 129256000000.0 45487500000.0 104150000000.0 326417000000.0 7564890000.0 291120000000.0 291026000000.0 7564150000.0 326428000000.0 104144000000.0 45493300000.0 129254000000.0 107071000000.0 179103000000.0 181403000000.0 181267000000.0 178935000000.0 122120000000.0 27425200000.0 13219900000.0 50227800000.0 108229000000.0 167632000000.0 257145000000.0 343306000000.0 406341000000.0 446396000000.0 517690000000.0 528064000000.0 554222000000.0 536830000000.0 465276000000.0 87512900000.0 10593500000.0 524277000000.0 143795000000.0 529186000000.0 223767000000.0 65787000000.0 338152000000.0 76927900000.0 345927000000.0 94025400000.0 560894000.0 234354000000.0 15756400000.0 145743000000.0 416544000000.0 373676000000.0 309352000000.0 235865000000.0 196320000000.0 174508000000.0 129842000000.0 73304600000.0 21811500000.0 54309100000.0 287469000000.0 271159000000.0 409791000000.0 270949000000.0 287491000000.0 54280000000.0 21812500000.0 73305300000.0 129842000000.0 174508000000.0 196320000000.0 235865000000.0 309352000000.0 373677000000.0 416544000000.0 145742000000.0 15756400000.0 234353000000.0 560950000.0 94025700000.0 345927000000.0 76927900000.0 338152000000.0 303182000000.0 261303000000.0 298506000000.0 382119000000.0 118812000000.0 210449000000.0 129228000000.0 446328000000.0 487063000000.0 476302000000.0 488389000000.0 437898000000.0 237892000000.0 223293000000.0 217981000000.0 210162000000.0 96043600000.0 97276800000.0 86001500000.0 74127600000.0 8100400000.0 56522900000.0 60455200000.0 79892400000.0 52245600000.0 2432070000.0 91312300000.0 159087000000.0 147731000000.0 460317000000.0 147769000000.0 159123000000.0 91297900000.0 2423270000.0 52242600000.0 79886200000.0 60454000000.0 56519200000.0 8100900000.0 74126000000.0 86002700000.0 97277300000.0 96043700000.0 210161000000.0 217981000000.0 223293000000.0 237892000000.0 437898000000.0 488389000000.0 476302000000.0 487063000000.0 446328000000.0 129228000000.0 210449000000.0 118811000000.0 382119000000.0 298506000000.0 261303000000.0 303182000000.0 25714400000.0 130059000000.0 77756800000.0 136350000000.0 237529000000.0 239989000000.0 415975000000.0 414438000000.0 436113000000.0 396632000000.0 385804000000.0 361027000000.0 327810000000.0 256233000000.0 67436200000.0 188849000000.0 173995000000.0 268920000000.0 440766000000.0 330203000000.0 269742000000.0 190119000000.0 161873000000.0 69909200000.0 63242100000.0 27945000000.0 95045700000.0 32642100000.0 98022600000.0 138688000000.0 499781000000.0 138729000000.0 98090700000.0 32651900000.0 95039000000.0 27958600000.0 63244500000.0 69908200000.0 161870000000.0 190115000000.0 269741000000.0 330202000000.0 440764000000.0 268918000000.0 173993000000.0 188848000000.0 67435500000.0 256233000000.0 327810000000.0 361027000000.0 385803000000.0 396632000000.0 436112000000.0 414438000000.0 415975000000.0 239989000000.0 237529000000.0 136350000000.0 77756800000.0 130060000000.0 25714400000.0 183266000000.0 191028000000.0 44530800000.0 188734000000.0 41130000000.0 87487800000.0 48610100000.0 120911000000.0 244376000000.0 258423000000.0 368968000000.0 378781000000.0 351498000000.0 341529000000.0 327184000000.0 330882000000.0 260398000000.0 217711000000.0 145849000000.0 70543600000.0 1207750000.0 40592600000.0 78715500000.0 124519000000.0 140477000000.0 113764000000.0 19529400000.0 139005000000.0 138971000000.0 19491700000.0 113778000000.0 140470000000.0 124515000000.0 78714700000.0 40592600000.0 1207130000.0 70544200000.0 145849000000.0 217711000000.0 260398000000.0 330882000000.0 327184000000.0 341529000000.0 351498000000.0 378781000000.0 368968000000.0 258423000000.0 244376000000.0 120911000000.0 48610100000.0 87487800000.0 41130100000.0 188733000000.0 44531000000.0 191027000000.0 183265000000.0 80350200000.0 78262600000.0 123122000000.0 175333000000.0 95214100000.0 19633000000.0 105109000000.0 59976700000.0 101999000000.0 307402000000.0 291457000000.0 288687000000.0 298008000000.0 260418000000.0 222920000000.0 182045000000.0 139658000000.0 95719000000.0 72104700000.0 26344800000.0 106109000000.0 104412000000.0 110031000000.0 173184000000.0 130523000000.0 52147100000.0 50785600000.0 588495000000.0 50699800000.0 52155500000.0 130515000000.0 173178000000.0 110031000000.0 104411000000.0 106108000000.0 26345200000.0 72105100000.0 95719500000.0 139658000000.0 182045000000.0 222920000000.0 260418000000.0 298008000000.0 288687000000.0 291457000000.0 307402000000.0 101999000000.0 59976600000.0 105109000000.0 19633100000.0 95214300000.0 175332000000.0 123122000000.0 78262600000.0 80350100000.0 56342600000.0 56669600000.0 197454000000.0 129700000000.0 71902500000.0 13760000000.0 233538000000.0 242001000000.0 332525000000.0 41015500000.0 31636600000.0 68796700000.0 94350800000.0 124517000000.0 197378000000.0 286564000000.0 226508000000.0 245171000000.0 150542000000.0 124533000000.0 98395900000.0 85170000000.0 67133600000.0 33748800000.0 57078600000.0 6116010000.0 69796400000.0 35222300000.0 58597200000.0 480689000000.0 58486300000.0 35208900000.0 69736300000.0 6071320000.0 57039100000.0 33724300000.0 67117700000.0 85162100000.0 98389700000.0 124528000000.0 150540000000.0 245169000000.0 226507000000.0 286563000000.0 197377000000.0 124517000000.0 94350600000.0 68796700000.0 31636500000.0 41015500000.0 332526000000.0 242001000000.0 233538000000.0 13760000000.0 71902700000.0 129700000000.0 197454000000.0 56669700000.0 56342700000.0 124064000000.0 32174100000.0 80478200000.0 225588000000.0 218495000000.0 280348000000.0 252787000000.0 244977000000.0 251161000000.0 200773000000.0 117447000000.0 39163500000.0 69955600000.0 46550600000.0 86881800000.0 86880700000.0 46549300000.0 69954800000.0 39163300000.0 117447000000.0 200773000000.0 251161000000.0 244977000000.0 252787000000.0 280348000000.0 218495000000.0 225588000000.0 80478100000.0 32174100000.0 124064000000.0 49177000000.0 51238400000.0 162816000000.0 111988000000.0 74469600000.0 8520330000.0 70671400000.0 80585100000.0 41564400000.0 56967500000.0 193187000000.0 159627000000.0 261843000000.0 261024000000.0 265088000000.0 251361000000.0 212215000000.0 175702000000.0 115142000000.0 27912400000.0 4418960000.0 82635700000.0 128558000000.0 86739600000.0 92046700000.0 56743500000.0 59233500000.0 2317080000.0 26805000000.0 62268900000.0 2243990000.0 97840600000.0 15587100000.0 618544000000.0 15584400000.0 97786500000.0 2237780000.0 62253000000.0 26801200000.0 2312170000.0 59232300000.0 56745300000.0 92046900000.0 86738700000.0 128557000000.0 82635600000.0 4418890000.0 27912500000.0 115142000000.0 175702000000.0 212215000000.0 251361000000.0 265088000000.0 261024000000.0 261843000000.0 159627000000.0 193187000000.0 56967500000.0 41564400000.0 80585100000.0 70671400000.0 8520330000.0 74469600000.0 111988000000.0 162816000000.0 51238700000.0 49177000000.0 13025500000.0 70941100000.0 93178100000.0 62479400000.0 14610100000.0 54986100000.0 71355100000.0 69406400000.0 37771300000.0 46037400000.0 178458000000.0 127233000000.0 115464000000.0 91557300000.0 51097200000.0 1550800000.0 68159300000.0 166688000000.0 229208000000.0 282168000000.0 269980000000.0 290121000000.0 241805000000.0 215783000000.0 179923000000.0 162149000000.0 164510000000.0 115717000000.0 116917000000.0 49929400000.0 82646900000.0 2117670000.0 61213300000.0 43350800000.0 42132000000.0 526893000000.0 42118000000.0 43316800000.0 61213700000.0 2105210000.0 82648600000.0 49934900000.0 116919000000.0 115721000000.0 164512000000.0 162151000000.0 179925000000.0 215784000000.0 241806000000.0 290121000000.0 269981000000.0 282168000000.0 229208000000.0 166688000000.0 68159300000.0 1550770000.0 51097100000.0 91557200000.0 115464000000.0 127233000000.0 178458000000.0 46037400000.0 37771200000.0 69406400000.0 71355100000.0 54986100000.0 14610100000.0 62479400000.0 93178000000.0 70941100000.0 13025800000.0 156323000000.0 142964000000.0 142964000000.0 156323000000.0 6324930000.0 42765700000.0 54123300000.0 27067200000.0 15045600000.0 23090900000.0 27085900000.0 36432800000.0 29153500000.0 29156600000.0 14207500000.0 150906000000.0 163280000000.0 174924000000.0 152651000000.0 110355000000.0 76587300000.0 53326200000.0 79449500000.0 73341000000.0 43710700000.0 26315200000.0 7895040000.0 29951500000.0 6955220000.0 46575600000.0 7576890000.0 48192500000.0 7882210000.0 44162100000.0 7207540000.0 63395500000.0 6503510000.0 85385500000.0 6168910000.0 108454000000.0 9067070000.0 532407000000.0 9067060000.0 108424000000.0 6169890000.0 85381400000.0 6503610000.0 63393500000.0 7207650000.0 44160800000.0 7882300000.0 48192400000.0 7576920000.0 46575800000.0 6955220000.0 29951500000.0 7895040000.0 26315200000.0 43710800000.0 73341000000.0 79449500000.0 53326100000.0 76587200000.0 110355000000.0 152651000000.0 174924000000.0 163280000000.0 150906000000.0 14207500000.0 29156500000.0 29153500000.0 36432800000.0 27085800000.0 23090900000.0 15045600000.0 27067200000.0 54123200000.0 42765700000.0 6324950000.0 17156700000.0 47563700000.0 67256300000.0 53209000000.0 29052000000.0 63886700000.0 56675400000.0 49357700000.0 33970500000.0 38512700000.0 20245700000.0 163670000000.0 137364000000.0 103325000000.0 64901000000.0 19989600000.0 8614400000.0 53513600000.0 69125000000.0 128432000000.0 147925000000.0 133065000000.0 116089000000.0 66078700000.0 72826100000.0 13536000000.0 43518000000.0 5038030000.0 22649900000.0 21406300000.0 9828120000.0 50012200000.0 1003680000.0 80010000000.0 6825730000.0 106021000000.0 8274800000.0 478898000000.0 8275000000.0 105999000000.0 6825750000.0 80008300000.0 1003790000.0 50010600000.0 9828280000.0 21405100000.0 22650000000.0 5037980000.0 43518000000.0 13535900000.0 72826000000.0 66078700000.0 116089000000.0 133065000000.0 147925000000.0 128432000000.0 69125000000.0 53513600000.0 8614430000.0 19989500000.0 64901000000.0 103325000000.0 137364000000.0 163670000000.0 20245700000.0 38512700000.0 33970500000.0 49357700000.0 56675400000.0 63886700000.0 29052000000.0 53209000000.0 67256200000.0 47563700000.0 17156600000.0 13683500000.0 20194500000.0 36295900000.0 24789100000.0 350741000.0 26126400000.0 14640100000.0 3675370000.0 34234600000.0 46407500000.0 66491600000.0 80007900000.0 107537000000.0 133485000000.0 156485000000.0 157358000000.0 158348000000.0 135120000000.0 123485000000.0 58120300000.0 39452500000.0 23791800000.0 8723350000.0 40929000000.0 8618730000.0 55768300000.0 8844210000.0 44291600000.0 9035750000.0 47083700000.0 9035750000.0 63177400000.0 9035750000.0 83638300000.0 9035750000.0 101713000000.0 9035750000.0 429662000000.0 9035750000.0 101697000000.0 9035750000.0 83637400000.0 9035750000.0 63176300000.0 9035750000.0 47083100000.0 9035750000.0 44291800000.0 8844210000.0 55768300000.0 8618730000.0 40929100000.0 8723350000.0 23791800000.0 39452500000.0 58120300000.0 123485000000.0 135120000000.0 158348000000.0 157358000000.0 156485000000.0 133485000000.0 107537000000.0 80007900000.0 66491600000.0 46407500000.0 34234600000.0 3675370000.0 14640100000.0 26126400000.0 350743000.0 24789200000.0 36295800000.0 20194500000.0 13683500000.0 18699800000.0 20368000000.0 44321100000.0 45912100000.0 34819600000.0 65438200000.0 60444500000.0 49021400000.0 30611500000.0 33804400000.0 47066500000.0 171865000000.0 159737000000.0 146807000000.0 135450000000.0 118665000000.0 113362000000.0 89395100000.0 78668200000.0 24622400000.0 24238000000.0 10673500000.0 814376000.0 35388600000.0 5920650000.0 53448600000.0 9035750000.0 41570100000.0 9035750000.0 47191600000.0 9035750000.0 61419900000.0 9035750000.0 80547000000.0 9035750000.0 96805500000.0 9035750000.0 384548000000.0 9035750000.0 96794200000.0 9035750000.0 80546500000.0 9035750000.0 61419100000.0 9035750000.0 47191200000.0 9035750000.0 41570300000.0 9035750000.0 53448700000.0 5920660000.0 35388600000.0 814376000.0 10673600000.0 24238000000.0 24622400000.0 78668200000.0 89395100000.0 113362000000.0 118665000000.0 135450000000.0 146807000000.0 159737000000.0 171865000000.0 47066500000.0 33804400000.0 30611500000.0 49021400000.0 60444500000.0 65438200000.0 34819500000.0 45912200000.0 44321100000.0 20367900000.0 18699800000.0 19332200000.0 12798700000.0 34482900000.0 39766100000.0 34002800000.0 61127700000.0 56134100000.0 42671800000.0 24337400000.0 26752000000.0 52950600000.0 159861000000.0 154198000000.0 145642000000.0 139263000000.0 125705000000.0 119581000000.0 95786900000.0 82698900000.0 41232800000.0 37815200000.0 23569500000.0 9035750000.0 40067100000.0 9035750000.0 51992800000.0 9035750000.0 39887900000.0 9035750000.0 47555600000.0 9035750000.0 59868200000.0 9035750000.0 77259900000.0 9035750000.0 92237100000.0 9035750000.0 343461000000.0 9035750000.0 92229200000.0 9035750000.0 77259500000.0 9035750000.0 59867800000.0 9035750000.0 47555400000.0 9035750000.0 39888100000.0 9035750000.0 51992900000.0 9035750000.0 40067100000.0 9035750000.0 23569500000.0 37815200000.0 41232800000.0 82698900000.0 95786900000.0 119581000000.0 125705000000.0 139263000000.0 145642000000.0 154198000000.0 159861000000.0 52950600000.0 26752000000.0 24337400000.0 42671800000.0 56134100000.0 61127700000.0 34002800000.0 39766100000.0 34482900000.0 12798700000.0 19332200000.0 20489600000.0 11666400000.0 29302500000.0 37714800000.0 37163400000.0 62146100000.0 58169300000.0 44646800000.0 28568100000.0 32841000000.0 70337500000.0 154394000000.0 144217000000.0 130371000000.0 121732000000.0 107358000000.0 99901400000.0 78144300000.0 66235800000.0 39763200000.0 34403100000.0 24741500000.0 9035750000.0 38874300000.0 9035750000.0 49224200000.0 9035750000.0 39095800000.0 9035750000.0 47878500000.0 9035750000.0 58429600000.0 9035750000.0 73831200000.0 9035750000.0 87967900000.0 9035750000.0 306237000000.0 9035750000.0 87962300000.0 9035750000.0 73831000000.0 9035750000.0 58429400000.0 9035750000.0 47878300000.0 9035750000.0 39095900000.0 9035750000.0 49224300000.0 9035750000.0 38874300000.0 9035750000.0 24741500000.0 34403100000.0 39763300000.0 66235800000.0 78144300000.0 99901400000.0 107358000000.0 121732000000.0 130371000000.0 144217000000.0 154394000000.0 70337500000.0 32841000000.0 28568200000.0 44646800000.0 58169300000.0 62146100000.0 37163400000.0 37714800000.0 29302500000.0 11666400000.0 20489600000.0 21306300000.0 11671000000.0 24413200000.0 34285400000.0 37271700000.0 59811000000.0 56433700000.0 42589500000.0 27769500000.0 32578000000.0 77032600000.0 142263000000.0 132255000000.0 117448000000.0 108836000000.0 94264300000.0 85874200000.0 66416000000.0 55664600000.0 39098300000.0 31526900000.0 26298500000.0 9035750000.0 37593200000.0 9035750000.0 46532600000.0 9035750000.0 38713500000.0 9035750000.0 47995700000.0 9035750000.0 56974200000.0 9035750000.0 70324500000.0 9035750000.0 83914200000.0 9035750000.0 272658000000.0 9035750000.0 83910200000.0 9035750000.0 70324300000.0 9035750000.0 56974100000.0 9035750000.0 47995600000.0 9035750000.0 38713500000.0 9035750000.0 46532600000.0 9035750000.0 37593200000.0 9035750000.0 26298500000.0 31526900000.0 39098300000.0 55664600000.0 66416000000.0 85874200000.0 94264300000.0 108836000000.0 117448000000.0 132255000000.0 142263000000.0 77032700000.0 32578000000.0 27769500000.0 42589500000.0 56433700000.0 59811000000.0 37271700000.0 34285400000.0 24413200000.0 11671000000.0 21306300000.0 21999500000.0 12059800000.0 20890400000.0 31427000000.0 36925900000.0 57196000000.0 54485600000.0 40722200000.0 27684000000.0 33401700000.0 81664100000.0 130046000000.0 119865000000.0 104639000000.0 96165500000.0 81769700000.0 73123200000.0 56551500000.0 47463900000.0 37188300000.0 28046200000.0 27175200000.0 9035760000.0 36278800000.0 9035750000.0 44157000000.0 9035750000.0 38437100000.0 9035750000.0 47853100000.0 9035750000.0 55414400000.0 9035750000.0 66808900000.0 9035750000.0 79996000000.0 9035750000.0 242473000000.0 9035750000.0 79993100000.0 9035750000.0 66808700000.0 9035750000.0 55414500000.0 9035750000.0 47853100000.0 9035750000.0 38437100000.0 9035750000.0 44157100000.0 9035750000.0 36278800000.0 9035760000.0 27175200000.0 28046200000.0 37188300000.0 47463900000.0 56551500000.0 73123300000.0 81769700000.0 96165500000.0 104639000000.0 119865000000.0 130046000000.0 81664100000.0 33401700000.0 27684000000.0 40722200000.0 54485600000.0 57196000000.0 36925900000.0 31427000000.0 20890300000.0 12059800000.0 21999500000.0 22538700000.0 12454400000.0 18471400000.0 29106100000.0 36245800000.0 54402100000.0 52417300000.0 39068100000.0 27635900000.0 34042600000.0 83789800000.0 118294000000.0 108385000000.0 93466200000.0 85387600000.0 71507300000.0 63062000000.0 49340200000.0 41809700000.0 34942400000.0 24698600000.0 27644100000.0 9035760000.0 34972100000.0 9035760000.0 42162500000.0 9035750000.0 38133300000.0 9035750000.0 47433500000.0 9035750000.0 53723600000.0 9035750000.0 63346500000.0 9035750000.0 76150400000.0 9035750000.0 215414000000.0 9035750000.0 76148400000.0 9035750000.0 63346300000.0 9035750000.0 53723600000.0 9035750000.0 47433500000.0 9035750000.0 38133400000.0 9035750000.0 42162600000.0 9035760000.0 34972100000.0 9035760000.0 27644100000.0 24698600000.0 34942400000.0 41809700000.0 49340200000.0 63062000000.0 71507300000.0 85387700000.0 93466200000.0 108385000000.0 118294000000.0 83789800000.0 34042600000.0 27635900000.0 39068100000.0 52417300000.0 54402100000.0 36245800000.0 29106100000.0 18471400000.0 12454400000.0 22538700000.0 22903200000.0 12801400000.0 16883000000.0 27251000000.0 35326200000.0 51502900000.0 50267500000.0 37605400000.0 27749900000.0 76449100000.0 63295200000.0 55296400000.0 44163500000.0 38031900000.0 32568600000.0 21631300000.0 27775300000.0 9035760000.0 33697200000.0 9035760000.0 40491400000.0 9035750000.0 37743000000.0 9035760000.0 46731300000.0 9035750000.0 51913100000.0 9035750000.0 59976200000.0 9035750000.0 72331600000.0 9035750000.0 191209000000.0 9035750000.0 72330100000.0 9035750000.0 59976100000.0 9035750000.0 51913100000.0 9035750000.0 46731300000.0 9035760000.0 37743000000.0 9035750000.0 40491500000.0 9035760000.0 33697200000.0 9035760000.0 27775300000.0 21631300000.0 32568600000.0 38031900000.0 44163500000.0 55296400000.0 63295200000.0 76449100000.0 27749900000.0 37605400000.0 50267500000.0 51502900000.0 35326200000.0 27251000000.0 16883000000.0 12801400000.0 22903200000.0 34736900000.0 84124700000.0 107412000000.0 97982500000.0 83916400000.0 83916400000.0 97982500000.0 107412000000.0 84124700000.0 34736900000.0 23071200000.0 13095300000.0 15870800000.0 25773700000.0 34233300000.0 48563900000.0 48067500000.0 36300300000.0 27956600000.0 35355300000.0 83054200000.0 97551300000.0 88771200000.0 75910300000.0 69149200000.0 56863400000.0 49383400000.0 40441500000.0 35415300000.0 30212800000.0 18933700000.0 27648200000.0 9035760000.0 32463600000.0 9035760000.0 39039000000.0 9035760000.0 37234200000.0 9035760000.0 45758200000.0 9035750000.0 50007900000.0 9035760000.0 56716600000.0 9035750000.0 68512100000.0 9035750000.0 169595000000.0 9035750000.0 68511000000.0 9035750000.0 56716500000.0 9035760000.0 50007900000.0 9035750000.0 45758200000.0 9035760000.0 37234200000.0 9035760000.0 39039000000.0 9035760000.0 32463600000.0 9035760000.0 27648200000.0 18933700000.0 30212800000.0 35415300000.0 40441500000.0 49383400000.0 56863400000.0 69149200000.0 75910300000.0 88771200000.0 97551300000.0 83054200000.0 35355300000.0 27956600000.0 36300300000.0 48067500000.0 48563900000.0 34233300000.0 25773700000.0 15870800000.0 13095300000.0 23071200000.0 33329700000.0 27972800000.0 16641100000.0 9035760000.0 9035760000.0 9035760000.0 9035760000.0 9035750000.0 9035760000.0 9035750000.0 9035750000.0 9035750000.0 9035750000.0 9035760000.0 9035750000.0 9035760000.0 9035760000.0 9035760000.0 9035760000.0 16641100000.0 27972800000.0 33329700000.0 23035000000.0 13335200000.0 15235900000.0 24585600000.0 33016200000.0 45643700000.0 45844200000.0 35109900000.0 28184700000.0 35804400000.0 80907600000.0 88732300000.0 80724000000.0 69275300000.0 63225600000.0 51870300000.0 44915600000.0 37707700000.0 27327300000.0 31270300000.0 37708300000.0 36590500000.0 44544100000.0 48032700000.0 53573200000.0 64683100000.0 150322000000.0 64682400000.0 53573100000.0 48032700000.0 44544100000.0 36590500000.0 37708300000.0 31270300000.0 27327300000.0 37707700000.0 44915600000.0 51870300000.0 63225600000.0 69275300000.0 80724000000.0 88732300000.0 80907600000.0 35804400000.0 28184700000.0 35109900000.0 45844200000.0 45643700000.0 33016200000.0 24585600000.0 15235900000.0 13335200000.0 23035000000.0 22809100000.0 13520500000.0 14841100000.0 23602200000.0 31713100000.0 42791100000.0 43621000000.0 33990800000.0 28361400000.0 36029000000.0 77957600000.0 80901500000.0 73742200000.0 63798800000.0 58417700000.0 47976100000.0 41515200000.0 35574100000.0 31405100000.0 25903900000.0 14748100000.0 26859700000.0 9035760000.0 30110200000.0 9035760000.0 36431400000.0 9035760000.0 35807300000.0 9035760000.0 43129300000.0 9035750000.0 46007700000.0 9035760000.0 50544100000.0 9035750000.0 60851400000.0 9035750000.0 133154000000.0 9035750000.0 60850900000.0 9035750000.0 50544100000.0 9035760000.0 46007700000.0 9035750000.0 43129300000.0 9035760000.0 35807300000.0 9035760000.0 36431400000.0 9035760000.0 30110200000.0 9035760000.0 26859700000.0 14748100000.0 25903900000.0 31405100000.0 35574100000.0 41515300000.0 47976100000.0 58417700000.0 63798800000.0 73742200000.0 80901500000.0 77957600000.0 36029000000.0 28361400000.0 33990900000.0 43621000000.0 42791100000.0 31713100000.0 23602200000.0 14841100000.0 13520500000.0 22809100000.0 22423700000.0 13650800000.0 14591900000.0 22751500000.0 30355800000.0 40042400000.0 41417100000.0 32903900000.0 28426200000.0 36004500000.0 74427000000.0 73960900000.0 67688600000.0 59253500000.0 54480100000.0 44886100000.0 38852200000.0 33741900000.0 29509800000.0 24029900000.0 13226100000.0 26278100000.0 9035760000.0 28974100000.0 9035760000.0 35165900000.0 9035760000.0 34888600000.0 9035760000.0 41555200000.0 9035750000.0 43948000000.0 9035760000.0 47623800000.0 9035750000.0 57035100000.0 9035750000.0 117876000000.0 9035750000.0 57034700000.0 9035750000.0 47623700000.0 9035760000.0 43948000000.0 9035750000.0 41555200000.0 9035760000.0 34888600000.0 9035760000.0 35165900000.0 9035760000.0 28974100000.0 9035760000.0 26278100000.0 13226100000.0 24029900000.0 29509800000.0 33741900000.0 38852200000.0 44886100000.0 54480100000.0 59253500000.0 67688600000.0 73960900000.0 74427000000.0 36004500000.0 28426200000.0 32903900000.0 41417100000.0 40042400000.0 30355800000.0 22751500000.0 14591900000.0 13650800000.0 22423700000.0 21912700000.0 13726300000.0 14418500000.0 21979800000.0 28970300000.0 37421500000.0 39245200000.0 31816200000.0 28336900000.0 35725700000.0 70498100000.0 67791900000.0 62411900000.0 55418700000.0 51186200000.0 42352200000.0 36666400000.0 32031300000.0 27634600000.0 22354400000.0 12034600000.0 25605500000.0 9035760000.0 27852900000.0 9035760000.0 33885900000.0 9035760000.0 33844700000.0 9035760000.0 39859700000.0 9035750000.0 41865300000.0 9035760000.0 44805100000.0 9035750000.0 53259700000.0 9035750000.0 104289000000.0 9035750000.0 53259400000.0 9035750000.0 44805100000.0 9035760000.0 41865300000.0 9035750000.0 39859700000.0 9035760000.0 33844700000.0 9035760000.0 33885900000.0 9035760000.0 27852900000.0 9035760000.0 25605500000.0 12034600000.0 22354400000.0 27634600000.0 32031300000.0 36666400000.0 42352200000.0 51186200000.0 55418700000.0 62411900000.0 67791900000.0 70498100000.0 35725700000.0 28336900000.0 31816200000.0 39245200000.0 37421500000.0 28970300000.0 21979800000.0 14418500000.0 13726300000.0 21912700000.0 21307200000.0 13747600000.0 14270300000.0 21249700000.0 27577100000.0 34942300000.0 37112800000.0 30703200000.0 28068000000.0 35197900000.0 66319200000.0 62272000000.0 57762500000.0 52096700000.0 48335900000.0 40172800000.0 34766100000.0 30366000000.0 25807500000.0 20868200000.0 11127400000.0 24858400000.0 9035760000.0 26738700000.0 9035760000.0 32575500000.0 9035760000.0 32688900000.0 9035760000.0 38074800000.0 9035750000.0 39769200000.0 9035760000.0 42081000000.0 9035750000.0 49553700000.0 9035750000.0 92215700000.0 9035750000.0 49553600000.0 9035750000.0 42081000000.0 9035760000.0 39769200000.0 9035750000.0 38074800000.0 9035760000.0 32688900000.0 9035760000.0 32575500000.0 9035760000.0 26738700000.0 9035760000.0 24858400000.0 11127400000.0 20868200000.0 25807500000.0 30366000000.0 34766100000.0 40172800000.0 48335900000.0 52096700000.0 57762500000.0 62272000000.0 66319200000.0 35197900000.0 28068000000.0 30703200000.0 37112800000.0 34942300000.0 27577100000.0 21249700000.0 14270300000.0 13747600000.0 21307200000.0 20632800000.0 13716000000.0 14116100000.0 20536400000.0 26192100000.0 32609700000.0 35023900000.0 29548400000.0 27610400000.0 34434200000.0 62008800000.0 57286600000.0 53602800000.0 49121800000.0 45764600000.0 38195000000.0 33015200000.0 28727800000.0 24057800000.0 19554200000.0 10456100000.0 24048900000.0 9035760000.0 25625400000.0 9035760000.0 31226700000.0 9035760000.0 31436100000.0 9035760000.0 36226800000.0 9035750000.0 37668100000.0 9035760000.0 39445300000.0 9035750000.0 45945200000.0 9035750000.0 81493300000.0 9035750000.0 45945100000.0 9035750000.0 39445300000.0 9035760000.0 37668100000.0 9035750000.0 36226800000.0 9035760000.0 31436100000.0 9035760000.0 31226700000.0 9035760000.0 25625400000.0 9035760000.0 24048900000.0 10456100000.0 19554200000.0 24057800000.0 28727800000.0 33015200000.0 38195000000.0 45764600000.0 49121800000.0 53602800000.0 57286600000.0 62008800000.0 34434200000.0 27610400000.0 29548400000.0 35023900000.0 32609700000.0 26192100000.0 20536400000.0 14116100000.0 13716000000.0 20632800000.0 19909700000.0 13633100000.0 13940200000.0 19823300000.0 24826600000.0 30421200000.0 32981100000.0 28342700000.0 26969000000.0 33454200000.0 57658600000.0 52734800000.0 49813100000.0 46362200000.0 43346700000.0 36311000000.0 31325600000.0 27120400000.0 22406600000.0 18391900000.0 9973710000.0 23186200000.0 9035760000.0 24508800000.0 9035760000.0 29837200000.0 9035760000.0 30101400000.0 9035760000.0 34337200000.0 9035750000.0 35569400000.0 9035760000.0 36893200000.0 9035750000.0 42458400000.0 9035750000.0 71976600000.0 9035750000.0 42458300000.0 9035750000.0 36893200000.0 9035760000.0 35569400000.0 9035750000.0 34337200000.0 9035760000.0 30101400000.0 9035760000.0 29837200000.0 9035760000.0 24508800000.0 9035760000.0 23186200000.0 9973710000.0 18391900000.0 22406600000.0 27120400000.0 31325600000.0 36311000000.0 43346700000.0 46362200000.0 49813100000.0 52734800000.0 57658600000.0 33454200000.0 26969000000.0 28342700000.0 32981100000.0 30421200000.0 24826600000.0 19823300000.0 13940200000.0 13633100000.0 19909700000.0 19153200000.0 13501000000.0 13736000000.0 19100100000.0 23488200000.0 28368800000.0 30985000000.0 27083100000.0 26158600000.0 32280800000.0 53337400000.0 48531600000.0 46294200000.0 43718500000.0 40993400000.0 34450600000.0 29649900000.0 25550900000.0 20866100000.0 17359400000.0 9637200000.0 22277800000.0 9035760000.0 23386600000.0 9035760000.0 28408700000.0 9035760000.0 28699100000.0 9035760000.0 32422600000.0 9035750000.0 33479500000.0 9035760000.0 34421100000.0 9035750000.0 39112500000.0 9035750000.0 63533600000.0 9035750000.0 39112400000.0 9035750000.0 34421100000.0 9035760000.0 33479500000.0 9035750000.0 32422600000.0 9035760000.0 28699100000.0 9035760000.0 28408700000.0 9035760000.0 23386600000.0 9035760000.0 22277800000.0 9637200000.0 17359400000.0 20866100000.0 25550900000.0 29649900000.0 34450600000.0 40993400000.0 43718500000.0 46294200000.0 48531600000.0 53337400000.0 32280800000.0 26158600000.0 27083100000.0 30985000000.0 28368800000.0 23488200000.0 19100100000.0 13736000000.0 13501000000.0 19153200000.0 18374400000.0 13322200000.0 13501400000.0 18361400000.0 22181200000.0 26440700000.0 29035400000.0 25771500000.0 25198700000.0 30938000000.0 49094700000.0 44607900000.0 42968200000.0 41119300000.0 38646100000.0 32572400000.0 27969500000.0 24024100000.0 19441100000.0 16435400000.0 9409550000.0 21330100000.0 9035760000.0 22257600000.0 9035760000.0 26945000000.0 9035760000.0 27242000000.0 9035760000.0 30496200000.0 9035750000.0 31403600000.0 9035760000.0 32026400000.0 9035750000.0 35920600000.0 9035750000.0 56044200000.0 9035750000.0 35920600000.0 9035750000.0 32026400000.0 9035760000.0 31403600000.0 9035750000.0 30496200000.0 9035760000.0 27242000000.0 9035760000.0 26945000000.0 9035760000.0 22257600000.0 9035760000.0 21330100000.0 9409550000.0 16435400000.0 19441100000.0 24024100000.0 27969500000.0 32572400000.0 38646100000.0 41119300000.0 42968200000.0 44607900000.0 49094700000.0 30938000000.0 25198700000.0 25771500000.0 29035400000.0 26440700000.0 22181200000.0 18361400000.0 13501400000.0 13322200000.0 18374400000.0 17581200000.0 13099500000.0 13235900000.0 17605200000.0 20907000000.0 24622800000.0 27130300000.0 24413100000.0 24110400000.0 29448000000.0 44963900000.0 40909600000.0 39776500000.0 38516700000.0 36269500000.0 30656700000.0 26282100000.0 22542100000.0 18130600000.0 15600200000.0 9260360000.0 20348500000.0 9035760000.0 21121800000.0 9035760000.0 25451300000.0 9035760000.0 25741500000.0 9035760000.0 28567800000.0 9035750000.0 29345400000.0 9035760000.0 29707400000.0 9035750000.0 32890100000.0 9035750000.0 49398500000.0 9035750000.0 32890100000.0 9035750000.0 29707400000.0 9035760000.0 29345400000.0 9035750000.0 28567800000.0 9035760000.0 25741500000.0 9035760000.0 25451300000.0 9035760000.0 21121800000.0 9035760000.0 20348500000.0 9260360000.0 15600200000.0 18130600000.0 22542100000.0 26282100000.0 30656700000.0 36269500000.0 38516700000.0 39776500000.0 40909600000.0 44963900000.0 29448000000.0 24110400000.0 24413100000.0 27130300000.0 24622800000.0 20907000000.0 17605200000.0 13235900000.0 13099500000.0 17581200000.0 16778800000.0 12836300000.0 12940100000.0 16831900000.0 19665200000.0 22900300000.0 25267500000.0 23015300000.0 22914100000.0 27831300000.0 40965300000.0 37394900000.0 36677300000.0 35882300000.0 33845200000.0 28698300000.0 24592000000.0 21104500000.0 16929300000.0 14835800000.0 9165880000.0 19338000000.0 9035760000.0 19979700000.0 9035760000.0 23932900000.0 9035760000.0 24206900000.0 9035760000.0 26644300000.0 9035750000.0 27307900000.0 9035760000.0 27462200000.0 9035750000.0 30022800000.0 9035750000.0 43495500000.0 9035750000.0 30022800000.0 9035750000.0 27462200000.0 9035760000.0 27307900000.0 9035750000.0 26644300000.0 9035760000.0 24206900000.0 9035760000.0 23932900000.0 9035760000.0 19979700000.0 9035760000.0 19338000000.0 9165880000.0 14835800000.0 16929300000.0 21104500000.0 24592000000.0 28698300000.0 33845200000.0 35882300000.0 36677300000.0 37394900000.0 40965300000.0 27831300000.0 22914100000.0 23015300000.0 25267500000.0 22900300000.0 19665200000.0 16831900000.0 12940100000.0 12836300000.0 16778800000.0 15970400000.0 12535800000.0 12615000000.0 16042900000.0 18454200000.0 21258500000.0 23443600000.0 21585800000.0 21628400000.0 26105500000.0 37108800000.0 34032000000.0 33641800000.0 33201700000.0 31367000000.0 26700200000.0 22904500000.0 19709100000.0 15829000000.0 14126900000.0 9108190000.0 18303100000.0 9035760000.0 18832400000.0 9035760000.0 22394500000.0 9035750000.0 22646300000.0 9035760000.0 24730700000.0 9035750000.0 25292800000.0 9035750000.0 25288400000.0 9035750000.0 27315400000.0 9035750000.0 38242000000.0 9035750000.0 27315400000.0 9035750000.0 25288400000.0 9035750000.0 25292800000.0 9035750000.0 24730700000.0 9035760000.0 22646300000.0 9035750000.0 22394500000.0 9035760000.0 18832400000.0 9035760000.0 18303100000.0 9108190000.0 14126900000.0 15829000000.0 19709100000.0 22904500000.0 26700200000.0 31367000000.0 33201700000.0 33641800000.0 34032000000.0 37108800000.0 26105500000.0 21628400000.0 21585800000.0 23443600000.0 21258500000.0 18454200000.0 16042900000.0 12615000000.0 12535800000.0 15970400000.0 15157900000.0 12201600000.0 12262100000.0 15240600000.0 17271600000.0 19683500000.0 21655200000.0 20132400000.0 20270500000.0 24286500000.0 33395500000.0 30796200000.0 30651200000.0 30470600000.0 28836800000.0 24668800000.0 21224300000.0 18352800000.0 14819500000.0 13459900000.0 9074350000.0 17247600000.0 9035760000.0 17680800000.0 9035760000.0 20840600000.0 9035750000.0 21066200000.0 9035760000.0 22829800000.0 9035750000.0 23300900000.0 9035750000.0 23183100000.0 9035750000.0 24760300000.0 9035750000.0 33551400000.0 9035750000.0 24760300000.0 9035750000.0 23183100000.0 9035750000.0 23300900000.0 9035750000.0 22829800000.0 9035760000.0 21066200000.0 9035750000.0 20840600000.0 9035760000.0 17680800000.0 9035760000.0 17247600000.0 9074350000.0 13459900000.0 14819500000.0 18352800000.0 21224300000.0 24668800000.0 28836800000.0 30470600000.0 30651200000.0 30796200000.0 33395500000.0 24286500000.0 20270500000.0 20132400000.0 21655200000.0 19683500000.0 17271600000.0 15240600000.0 12262100000.0 12201600000.0 15157900000.0 14342500000.0 11837500000.0 11883800000.0 14427300000.0 16114600000.0 18163000000.0 19898300000.0 18662000000.0 18855200000.0 29819900000.0 27667700000.0 27693600000.0 27691100000.0 26260600000.0 22610900000.0 19554500000.0 17031500000.0 13889500000.0 12824200000.0 9055350000.0 16175400000.0 9035760000.0 16525800000.0 9035760000.0 19274800000.0 9035750000.0 19471600000.0 9035750000.0 20942900000.0 9035750000.0 21331900000.0 9035750000.0 21141800000.0 9035750000.0 22346400000.0 9035750000.0 29343100000.0 9035750000.0 22346400000.0 9035750000.0 21141800000.0 9035750000.0 21331900000.0 9035750000.0 20942900000.0 9035750000.0 19471600000.0 9035750000.0 19274800000.0 9035760000.0 16525800000.0 9035760000.0 16175400000.0 9055350000.0 12824200000.0 13889500000.0 17031500000.0 19554500000.0 22610900000.0 26260600000.0 27691100000.0 27693600000.0 27667700000.0 29819900000.0 18855200000.0 18662000000.0 19898300000.0 18163000000.0 16114600000.0 14427300000.0 11883800000.0 11837500000.0 14342500000.0 22388700000.0 22388700000.0 13524600000.0 11447400000.0 11482500000.0 13605100000.0 14979800000.0 16685800000.0 18169000000.0 17180100000.0 17395200000.0 20424900000.0 26371200000.0 24630000000.0 24761600000.0 24868700000.0 23646600000.0 20533100000.0 17896900000.0 15741000000.0 13027500000.0 12210800000.0 9045180000.0 15089500000.0 9035760000.0 15368400000.0 9035760000.0 17700000000.0 9035750000.0 17866800000.0 9035750000.0 19070000000.0 9035750000.0 19384800000.0 9035750000.0 19159300000.0 9035750000.0 20059800000.0 9035750000.0 25541600000.0 9035750000.0 20059800000.0 9035750000.0 19159300000.0 9035750000.0 19384800000.0 9035750000.0 19070000000.0 9035750000.0 17866800000.0 9035750000.0 17700000000.0 9035760000.0 15368400000.0 9035760000.0 15089500000.0 9045180000.0 12210800000.0 13027500000.0 15741000000.0 17896900000.0 20533100000.0 23646600000.0 24868700000.0 24761600000.0 24630000000.0 26371200000.0 20424900000.0 17395200000.0 17180100000.0 18169000000.0 16685800000.0 14979800000.0 13605100000.0 11482500000.0 11447400000.0 13524600000.0 12704700000.0 11035100000.0 11061400000.0 12776000000.0 13864200000.0 15242500000.0 16463100000.0 15691400000.0 15901300000.0 18406900000.0 23034700000.0 21668400000.0 21850200000.0 22010700000.0 21002800000.0 18440800000.0 16251600000.0 14476500000.0 12222000000.0 11613200000.0 9040030000.0 13992800000.0 9035760000.0 14209200000.0 9035750000.0 16118700000.0 9035750000.0 16254800000.0 9035750000.0 17210400000.0 9035750000.0 17457700000.0 9035750000.0 17228900000.0 9035750000.0 17884000000.0 9035750000.0 22076400000.0 9035750000.0 17884000000.0 9035750000.0 17228900000.0 9035750000.0 17457700000.0 9035750000.0 17210400000.0 9035750000.0 16254800000.0 9035750000.0 16118700000.0 9035750000.0 14209200000.0 9035760000.0 13992800000.0 9040030000.0 11613200000.0 12222000000.0 14476500000.0 16251600000.0 18440800000.0 21002800000.0 22010700000.0 21850200000.0 21668400000.0 23034700000.0 18406900000.0 15901300000.0 15691400000.0 16463100000.0 15242500000.0 13864200000.0 12776000000.0 11061400000.0 11035100000.0 12704700000.0 11883000000.0 10604800000.0 10623700000.0 11941500000.0 12764100000.0 13825000000.0 14776200000.0 14198800000.0 14382300000.0 16345900000.0 19792800000.0 18768800000.0 18955600000.0 19124700000.0 18336700000.0 16338000000.0 14618100000.0 13233300000.0 11461700000.0 11026100000.0 9037570000.0 12887800000.0 9035750000.0 13048800000.0 9035750000.0 14532600000.0 9035750000.0 14637900000.0 9035750000.0 15362500000.0 9035750000.0 15548000000.0 9035750000.0 15342500000.0 9035750000.0 15800800000.0 9035750000.0 18880200000.0 9035750000.0 15800800000.0 9035750000.0 15342500000.0 9035750000.0 15548000000.0 9035750000.0 15362500000.0 9035750000.0 14637900000.0 9035750000.0 14532600000.0 9035750000.0 13048800000.0 9035750000.0 12887800000.0 9037570000.0 11026100000.0 11461700000.0 13233300000.0 14618100000.0 16338000000.0 18336700000.0 19124700000.0 18955600000.0 18768800000.0 19792800000.0 16345900000.0 14382300000.0 14198800000.0 14776200000.0 13825000000.0 12764100000.0 11941500000.0 10623700000.0 10604800000.0 11883000000.0 11059700000.0 10160300000.0 10173000000.0 11102900000.0 11676200000.0 12426200000.0 13104000000.0 12704500000.0 12845700000.0 14252000000.0 16625700000.0 15917300000.0 16074300000.0 16217800000.0 15654500000.0 14228300000.0 12994500000.0 12006600000.0 10735800000.0 10445900000.0 9036470000.0 11776600000.0 9035750000.0 11887500000.0 9035750000.0 12943200000.0 9035750000.0 13017900000.0 9035750000.0 13524000000.0 9035750000.0 13652400000.0 9035750000.0 13491500000.0 9035750000.0 13790700000.0 9035750000.0 15889400000.0 9035750000.0 13790700000.0 9035750000.0 13491500000.0 9035750000.0 13652400000.0 9035750000.0 13524000000.0 9035750000.0 13017900000.0 9035750000.0 12943200000.0 9035750000.0 11887500000.0 9035750000.0 11776600000.0 9036470000.0 10445900000.0 10735800000.0 12006600000.0 12994500000.0 14228300000.0 15654500000.0 16217800000.0 16074300000.0 15917300000.0 16625700000.0 14252000000.0 12845700000.0 12704500000.0 13104000000.0 12426200000.0 11676200000.0 11102900000.0 10173000000.0 10160300000.0 11059700000.0 10235400000.0 9705810000.0 9713090000.0 10261600000.0 10596900000.0 11039900000.0 11442200000.0 11209500000.0 11297300000.0 12135000000.0 13512400000.0 13100100000.0 13202400000.0 13296400000.0 12961300000.0 12113900000.0 11378300000.0 10791500000.0 10034000000.0 9869840000.0 9036010000.0 10661200000.0 9035750000.0 10725500000.0 9035750000.0 11351700000.0 9035750000.0 11395800000.0 9035750000.0 11692300000.0 9035750000.0 11767100000.0 9035750000.0 11665900000.0 9035750000.0 11833000000.0 9035750000.0 13042600000.0 9035750000.0 11833000000.0 9035750000.0 11665900000.0 9035750000.0 11767100000.0 9035750000.0 11692300000.0 9035750000.0 11395800000.0 9035750000.0 11351700000.0 9035750000.0 10725500000.0 9035750000.0 10661200000.0 9036010000.0 9869840000.0 10034000000.0 10791500000.0 11378300000.0 12113900000.0 12961300000.0 13296400000.0 13202400000.0 13100100000.0 13512400000.0 12135000000.0 11297300000.0 11209500000.0 11442200000.0 11039900000.0 10596900000.0 10261600000.0 9713090000.0 9705810000.0 10235400000.0 9410250000.0 9245360000.0 9247600000.0 9418500000.0 9522660000.0 9660780000.0 9786450000.0 9714300000.0 9742210000.0 10004200000.0 10430700000.0 10302900000.0 10336000000.0 10366400000.0 10261600000.0 9996800000.0 9766620000.0 9583260000.0 9346240000.0 9295930000.0 9035810000.0 9543320000.0 9035750000.0 9563230000.0 9035750000.0 9758760000.0 9035750000.0 9772520000.0 9035750000.0 9864680000.0 9035750000.0 9887870000.0 9035750000.0 9855580000.0 9035750000.0 9906520000.0 9035750000.0 10280000000.0 9035750000.0 9906520000.0 9035750000.0 9855580000.0 9035750000.0 9887870000.0 9035750000.0 9864680000.0 9035750000.0 9772520000.0 9035750000.0 9758760000.0 9035750000.0 9563230000.0 9035750000.0 9543320000.0 9035810000.0 9295930000.0 9346240000.0 9583260000.0 9766620000.0 9996800000.0 10261600000.0 10366400000.0 10336000000.0 10302900000.0 10430700000.0 10004200000.0 9742210000.0 9714300000.0 9786450000.0 9660780000.0 9522660000.0 9418500000.0 9247600000.0 9245360000.0 9410250000.0 