# vtk DataFile Version 2.0
Time step 68
ASCII
DATASET UNSTRUCTURED_GRID
POINTS 5000 float
199811.0 221182.0 0
206456.0 221188.0 0
212982.0 220813.0 0
229581.0 220167.0 0
233565.0 218940.0 0
271878.0 220672.0 0
278241.0 219042.0 0
297831.0 220309.0 0
198906.0 226225.0 0
202929.0 224585.0 0
205869.0 225530.0 0
209499.0 225181.0 0
217316.0 224657.0 0
221816.0 220904.0 0
226355.0 223249.0 0
233333.0 222307.0 0
230206.0 224879.0 0
238027.0 221933.0 0
243856.0 222178.0 0
250433.0 223794.0 0
256597.0 222252.0 0
261809.0 224096.0 0
266931.0 223373.0 0
275796.0 224672.0 0
271278.0 225153.0 0
281361.0 224321.0 0
286774.0 222356.0 0
292700.0 222113.0 0
299611.0 225385.0 0
199404.0 231624.0 0
204211.0 228849.0 0
213466.0 228356.0 0
208685.0 231549.0 0
218295.0 229707.0 0
222638.0 226310.0 0
227513.0 228676.0 0
231861.0 230381.0 0
234838.0 226571.0 0
240035.0 226948.0 0
245197.0 227596.0 0
250280.0 229153.0 0
254280.0 228606.0 0
258283.0 226692.0 0
264361.0 227513.0 0
260956.0 230084.0 0
268718.0 228218.0 0
273757.0 229564.0 0
278899.0 228491.0 0
285809.0 227094.0 0
282766.0 228258.0 0
289597.0 226530.0 0
286755.0 231213.0 0
290764.0 230105.0 0
294456.0 227517.0 0
302661.0 230825.0 0
195870.0 235080.0 0
203824.0 235105.0 0
213713.0 233617.0 0
218606.0 234344.0 0
223166.0 231951.0 0
228471.0 233838.0 0
233322.0 234886.0 0
236341.0 231524.0 0
237633.0 236008.0 0
241661.0 232127.0 0
247405.0 232166.0 0
252186.0 232838.0 0
256960.0 232711.0 0
261166.0 234398.0 0
265600.0 232285.0 0
270261.0 232049.0 0
269120.0 235580.0 0
273675.0 234834.0 0
277393.0 232268.0 0
281878.0 232049.0 0
285172.0 236225.0 0
293054.0 233806.0 0
297243.0 231622.0 0
199324.0 238212.0 0
204138.0 241148.0 0
209238.0 237568.0 0
215956.0 239327.0 0
222635.0 237628.0 0
226834.0 237624.0 0
230503.0 238341.0 0
234608.0 238516.0 0
241305.0 239470.0 0
249772.0 237037.0 0
244996.0 236260.0 0
246576.0 240998.0 0
254504.0 237038.0 0
259042.0 238402.0 0
255656.0 241020.0 0
264757.0 238320.0 0
269545.0 240405.0 0
271228.0 237800.0 0
274059.0 239473.0 0
279219.0 236864.0 0
283059.0 240530.0 0
289964.0 237188.0 0
291909.0 240546.0 0
294215.0 237877.0 0
295581.0 241028.0 0
299605.0 237258.0 0
197647.0 242750.0 0
201039.0 245004.0 0
211100.0 243044.0 0
216567.0 245184.0 0
221134.0 242664.0 0
226626.0 241921.0 0
229478.0 245830.0 0
232699.0 242782.0 0
237137.0 241328.0 0
244058.0 243797.0 0
241130.0 243810.0 0
246852.0 245292.0 0
251422.0 241602.0 0
254538.0 244882.0 0
250495.0 246142.0 0
259699.0 243693.0 0
266062.0 244687.0 0
272346.0 243505.0 0
278181.0 243038.0 0
283403.0 244369.0 0
287569.0 240935.0 0
291557.0 244571.0 0
287200.0 245061.0 0
295796.0 244452.0 0
302100.0 242997.0 0
299139.0 246475.0 0
201427.0 249216.0 0
206406.0 246683.0 0
212265.0 248307.0 0
217540.0 251279.0 0
220840.0 247221.0 0
222475.0 250827.0 0
225430.0 247493.0 0
232614.0 247233.0 0
229811.0 249704.0 0
234234.0 251023.0 0
237366.0 246554.0 0
243150.0 247768.0 0
247673.0 248914.0 0
252871.0 250071.0 0
257108.0 248237.0 0
261725.0 249151.0 0
270640.0 247693.0 0
266244.0 250356.0 0
269592.0 250932.0 0
274859.0 247379.0 0
280947.0 246917.0 0
278308.0 247834.0 0
276954.0 250295.0 0
280223.0 250249.0 0
284402.0 248583.0 0
289434.0 248561.0 0
294454.0 248734.0 0
298385.0 250052.0 0
201930.0 253299.0 0
205270.0 251952.0 0
208366.0 256123.0 0
209113.0 251458.0 0
212788.0 253822.0 0
221665.0 255160.0 0
226292.0 252834.0 0
230787.0 253935.0 0
239665.0 252383.0 0
235297.0 255882.0 0
245027.0 252570.0 0
249292.0 252349.0 0
247881.0 256551.0 0
252622.0 255386.0 0
257570.0 253325.0 0
263298.0 254321.0 0
268625.0 254873.0 0
273367.0 251797.0 0
273510.0 256322.0 0
277856.0 254233.0 0
282816.0 253639.0 0
287034.0 252100.0 0
291268.0 253043.0 0
295424.0 253238.0 0
298505.0 252911.0 0
297871.0 256240.0 0
201641.0 256465.0 0
202355.0 259875.0 0
204402.0 256207.0 0
205651.0 261342.0 0
212431.0 257999.0 0
209623.0 261073.0 0
213701.0 261118.0 0
216779.0 257665.0 0
221385.0 260319.0 0
225610.0 257717.0 0
230898.0 259215.0 0
239425.0 257523.0 0
236518.0 260718.0 0
243590.0 257176.0 0
246069.0 260024.0 0
250852.0 260988.0 0
260097.0 257136.0 0
256252.0 259094.0 0
265236.0 258630.0 0
261227.0 261134.0 0
269672.0 259699.0 0
274028.0 260218.0 0
277971.0 258878.0 0
282398.0 258124.0 0
285315.0 261238.0 0
287206.0 256784.0 0
289893.0 260785.0 0
293525.0 257173.0 0
294252.0 261479.0 0
297837.0 260099.0 0
202715.0 264573.0 0
207210.0 265144.0 0
211928.0 265122.0 0
217021.0 263437.0 0
214976.0 266739.0 0
221910.0 265577.0 0
225892.0 262525.0 0
233695.0 263453.0 0
229844.0 264292.0 0
237445.0 266037.0 0
241633.0 261923.0 0
246172.0 263707.0 0
250375.0 266399.0 0
256298.0 265486.0 0
262039.0 265926.0 0
266288.0 263602.0 0
271701.0 264155.0 0
276383.0 263840.0 0
281038.0 262320.0 0
284070.0 266020.0 0
287625.0 264236.0 0
291954.0 266196.0 0
297293.0 264731.0 0
201745.0 268360.0 0
202600.0 272013.0 0
205179.0 268390.0 0
209041.0 268616.0 0
206714.0 271574.0 0
213002.0 269243.0 0
217708.0 269059.0 0
222868.0 270789.0 0
227066.0 267794.0 0
232357.0 267417.0 0
230311.0 270631.0 0
234872.0 270985.0 0
239305.0 270886.0 0
242367.0 267002.0 0
244216.0 271868.0 0
246378.0 267744.0 0
249065.0 271105.0 0
252979.0 269997.0 0
260562.0 269571.0 0
265128.0 269415.0 0
269274.0 267603.0 0
269990.0 271897.0 0
274199.0 268934.0 0
279375.0 267525.0 0
282651.0 270360.0 0
287561.0 269424.0 0
291750.0 271317.0 0
296464.0 270351.0 0
202990.0 276764.0 0
207887.0 275702.0 0
210659.0 272243.0 0
212599.0 276360.0 0
214824.0 272864.0 0
218903.0 273974.0 0
216329.0 276493.0 0
223120.0 275529.0 0
227151.0 272577.0 0
227432.0 277068.0 0
231516.0 274327.0 0
236676.0 276054.0 0
240797.0 274544.0 0
243932.0 276523.0 0
247742.0 275375.0 0
252017.0 274688.0 0
256941.0 272628.0 0
259886.0 276853.0 0
262163.0 273372.0 0
266025.0 273821.0 0
269316.0 276400.0 0
274144.0 274695.0 0
278390.0 272078.0 0
279339.0 277123.0 0
285112.0 272851.0 0
282058.0 273754.0 0
289093.0 274365.0 0
293385.0 275134.0 0
297440.0 275319.0 0
202601.0 281991.0 0
206268.0 280314.0 0
210479.0 280513.0 0
215616.0 281030.0 0
219614.0 278283.0 0
223473.0 280052.0 0
227695.0 281830.0 0
231838.0 279159.0 0
235804.0 281536.0 0
240961.0 277654.0 0
239808.0 280720.0 0
243374.0 280092.0 0
246539.0 278727.0 0
250144.0 279091.0 0
255320.0 278969.0 0
260143.0 281075.0 0
264432.0 278363.0 0
268386.0 279916.0 0
272148.0 279356.0 0
275644.0 279250.0 0
278036.0 281365.0 0
284959.0 277643.0 0
281839.0 281684.0 0
290511.0 279288.0 0
296275.0 280300.0 0
202758.0 286320.0 0
207308.0 284818.0 0
211989.0 284836.0 0
216775.0 286341.0 0
220212.0 282920.0 0
224380.0 283988.0 0
227699.0 287009.0 0
231548.0 284273.0 0
235367.0 285772.0 0
238772.0 284993.0 0
242314.0 284113.0 0
244646.0 287362.0 0
246783.0 282825.0 0
248418.0 287160.0 0
251910.0 284014.0 0
256986.0 284322.0 0
263294.0 282890.0 0
260864.0 285833.0 0
265162.0 286929.0 0
266757.0 282944.0 0
268700.0 286211.0 0
270650.0 283132.0 0
274917.0 283337.0 0
272266.0 286773.0 0
278998.0 284869.0 0
282584.0 285547.0 0
286547.0 283351.0 0
288730.0 287161.0 0
292036.0 284008.0 0
297032.0 285717.0 0
201525.0 289791.0 0
201981.0 292652.0 0
205923.0 289848.0 0
209619.0 287869.0 0
212983.0 288285.0 0
210791.0 291668.0 0
215440.0 291075.0 0
218985.0 290348.0 0
221983.0 287426.0 0
225198.0 290588.0 0
229343.0 291946.0 0
232929.0 289392.0 0
237167.0 288601.0 0
237337.0 292430.0 0
240676.0 288649.0 0
243524.0 291072.0 0
246915.0 290865.0 0
254785.0 287861.0 0
251384.0 290046.0 0
257963.0 288777.0 0
255455.0 291498.0 0
258741.0 292527.0 0
261350.0 289856.0 0
264892.0 291068.0 0
269254.0 290399.0 0
273633.0 289808.0 0
276185.0 287636.0 0
280331.0 288703.0 0
277086.0 292011.0 0
284506.0 288668.0 0
281294.0 292544.0 0
284520.0 292412.0 0
288574.0 291491.0 0
292606.0 288388.0 0
296727.0 290960.0 0
202702.0 296769.0 0
204950.0 293583.0 0
207884.0 293452.0 0
206851.0 296528.0 0
210749.0 296583.0 0
214399.0 294759.0 0
218768.0 294709.0 0
222196.0 292638.0 0
222639.0 296773.0 0
225845.0 294616.0 0
233504.0 293955.0 0
229962.0 296167.0 0
236469.0 296946.0 0
241016.0 292506.0 0
244430.0 294618.0 0
240346.0 295932.0 0
248861.0 294108.0 0
252907.0 294133.0 0
251045.0 297357.0 0
254266.0 297355.0 0
256357.0 295246.0 0
259412.0 296527.0 0
262120.0 294189.0 0
266201.0 294763.0 0
270237.0 295406.0 0
273070.0 292818.0 0
274484.0 296444.0 0
278490.0 296210.0 0
282843.0 296664.0 0
286507.0 295203.0 0
290225.0 296781.0 0
292585.0 293144.0 0
293495.0 296254.0 0
296929.0 296101.0 0
202117.0 301140.0 0
205272.0 299914.0 0
208725.0 300441.0 0
213855.0 298850.0 0
212074.0 301163.0 0
216795.0 298027.0 0
216614.0 302435.0 0
220044.0 299299.0 0
223447.0 301147.0 0
220604.0 302762.0 0
226740.0 298912.0 0
233097.0 297865.0 0
230645.0 300359.0 0
234529.0 301196.0 0
238940.0 300647.0 0
243055.0 298892.0 0
242511.0 302408.0 0
247100.0 298037.0 0
249875.0 300863.0 0
245984.0 302165.0 0
253016.0 300167.0 0
257324.0 300247.0 0
263098.0 298943.0 0
267441.0 298284.0 0
266821.0 301377.0 0
271141.0 299961.0 0
275866.0 300165.0 0
280102.0 300873.0 0
284167.0 300538.0 0
286781.0 299114.0 0
290110.0 301104.0 0
286921.0 302890.0 0
293843.0 299567.0 0
297694.0 300633.0 0
197272.0 305304.0 0
202267.0 304877.0 0
205481.0 303187.0 0
209118.0 303954.0 0
206321.0 306320.0 0
212795.0 304698.0 0
209852.0 307162.0 0
216662.0 307522.0 0
223622.0 304654.0 0
220211.0 306011.0 0
227603.0 303425.0 0
226221.0 307737.0 0
231254.0 303218.0 0
233529.0 304749.0 0
230614.0 307402.0 0
236863.0 304744.0 0
240515.0 304990.0 0
244024.0 305371.0 0
249283.0 304225.0 0
246799.0 305872.0 0
253602.0 304309.0 0
257700.0 305840.0 0
260970.0 303023.0 0
264728.0 303850.0 0
261915.0 307261.0 0
268883.0 304491.0 0
265652.0 307519.0 0
273522.0 303803.0 0
271923.0 307637.0 0
277444.0 304263.0 0
280403.0 305318.0 0
275892.0 307529.0 0
283523.0 304152.0 0
282860.0 307218.0 0
289878.0 305005.0 0
286510.0 307193.0 0
293703.0 303767.0 0
294998.0 307617.0 0
297751.0 304182.0 0
298393.0 307072.0 0
203091.0 309105.0 0
202006.0 312903.0 0
207778.0 310121.0 0
212782.0 308123.0 0
211670.0 311193.0 0
215758.0 311940.0 0
222614.0 308366.0 0
220255.0 311321.0 0
224583.0 311804.0 0
228589.0 311630.0 0
232381.0 311747.0 0
234715.0 308445.0 0
238418.0 308563.0 0
236235.0 312241.0 0
242176.0 308705.0 0
244141.0 312054.0 0
240194.0 312846.0 0
245883.0 308824.0 0
247480.0 312630.0 0
250158.0 308590.0 0
254719.0 309354.0 0
251538.0 312802.0 0
258809.0 309648.0 0
256815.0 312157.0 0
262789.0 311498.0 0
268764.0 308432.0 0
266916.0 311607.0 0
274162.0 310573.0 0
270749.0 311443.0 0
279379.0 308571.0 0
276921.0 311433.0 0
280003.0 312938.0 0
283144.0 310587.0 0
287067.0 311610.0 0
291107.0 308565.0 0
294825.0 311217.0 0
297907.0 309936.0 0
297989.0 312933.0 0
202883.0 316644.0 0
205879.0 313548.0 0
207420.0 317753.0 0
210271.0 314839.0 0
214435.0 315590.0 0
218571.0 315013.0 0
222840.0 315263.0 0
220340.0 317620.0 0
226565.0 314431.0 0
230264.0 315296.0 0
234340.0 315612.0 0
238172.0 316256.0 0
243622.0 316922.0 0
248890.0 316586.0 0
254653.0 313602.0 0
252734.0 316016.0 0
259314.0 313473.0 0
256791.0 317178.0 0
261776.0 315875.0 0
265386.0 315393.0 0
269599.0 315186.0 0
273766.0 314277.0 0
277106.0 314018.0 0
279333.0 316175.0 0
276490.0 316667.0 0
283503.0 315348.0 0
287623.0 316466.0 0
291404.0 313232.0 0
295164.0 314848.0 0
292511.0 317759.0 0
297919.0 316137.0 0
302750.0 319037.0 0
202250.0 320329.0 0
205445.0 320497.0 0
208466.0 322990.0 0
212044.0 319706.0 0
216785.0 318646.0 0
215982.0 322714.0 0
222561.0 319376.0 0
219783.0 321177.0 0
223366.0 322410.0 0
226800.0 318697.0 0
232178.0 318845.0 0
230665.0 322041.0 0
234620.0 323280.0 0
235881.0 319438.0 0
238518.0 322631.0 0
239591.0 319450.0 0
242887.0 322279.0 0
247006.0 320636.0 0
251879.0 319950.0 0
256904.0 322611.0 0
260983.0 319296.0 0
264039.0 318713.0 0
261558.0 323123.0 0
265098.0 322228.0 0
267715.0 318873.0 0
272666.0 319367.0 0
277412.0 319920.0 0
281165.0 318855.0 0
284753.0 320373.0 0
288875.0 319862.0 0
292146.0 321824.0 0
296898.0 319657.0 0
298161.0 323315.0 0
203078.0 324183.0 0
202949.0 328366.0 0
207080.0 327117.0 0
212620.0 323590.0 0
214110.0 325765.0 0
211117.0 326427.0 0
217069.0 325900.0 0
220345.0 324991.0 0
224062.0 326463.0 0
226853.0 324202.0 0
228350.0 328294.0 0
230919.0 325839.0 0
233465.0 327964.0 0
237000.0 326298.0 0
240031.0 325557.0 0
243170.0 326392.0 0
246091.0 324282.0 0
249047.0 323479.0 0
246326.0 327343.0 0
249637.0 327325.0 0
252815.0 324587.0 0
253962.0 328185.0 0
257791.0 327480.0 0
261899.0 326925.0 0
269509.0 323544.0 0
265787.0 326638.0 0
269561.0 328248.0 0
275046.0 324182.0 0
271920.0 326056.0 0
280129.0 323822.0 0
277616.0 328054.0 0
284517.0 324514.0 0
282437.0 328358.0 0
288157.0 323950.0 0
294973.0 323481.0 0
292215.0 326152.0 0
296747.0 327102.0 0
304194.0 324807.0 0
201534.0 331386.0 0
208250.0 330347.0 0
204882.0 331260.0 0
212002.0 329516.0 0
210265.0 333264.0 0
213681.0 332575.0 0
215668.0 328763.0 0
216809.0 332772.0 0
220264.0 329621.0 0
225021.0 330278.0 0
228061.0 331933.0 0
231067.0 331132.0 0
234594.0 332669.0 0
236662.0 329710.0 0
238461.0 333623.0 0
240182.0 329534.0 0
244083.0 330546.0 0
241897.0 333597.0 0
248408.0 331169.0 0
252066.0 331311.0 0
259116.0 331165.0 0
255825.0 331499.0 0
262257.0 330269.0 0
266290.0 331556.0 0
273740.0 329059.0 0
270661.0 332506.0 0
273423.0 333549.0 0
275596.0 331991.0 0
279631.0 332251.0 0
284324.0 333230.0 0
287702.0 329280.0 0
292949.0 331048.0 0
297787.0 330802.0 0
197681.0 336969.0 0
202484.0 334093.0 0
202376.0 337352.0 0
206485.0 334581.0 0
205379.0 337532.0 0
212809.0 335812.0 0
209263.0 336853.0 0
216391.0 335894.0 0
219174.0 336452.0 0
219842.0 333973.0 0
223098.0 334134.0 0
222420.0 338065.0 0
226800.0 334711.0 0
226402.0 338275.0 0
230118.0 334709.0 0
233015.0 335494.0 0
230019.0 338105.0 0
235882.0 335920.0 0
238151.0 337950.0 0
240450.0 336215.0 0
243544.0 337175.0 0
246125.0 334330.0 0
248563.0 337570.0 0
250095.0 334573.0 0
253484.0 334931.0 0
251921.0 338196.0 0
257524.0 334779.0 0
255420.0 338715.0 0
260029.0 338359.0 0
262027.0 334292.0 0
264789.0 335816.0 0
263855.0 337902.0 0
266941.0 335447.0 0
269434.0 335746.0 0
266569.0 338266.0 0
272517.0 336536.0 0
275966.0 335948.0 0
279524.0 336672.0 0
282896.0 336358.0 0
288111.0 334687.0 0
286069.0 338466.0 0
289612.0 338660.0 0
292386.0 335458.0 0
294634.0 338533.0 0
297316.0 334058.0 0
297951.0 337081.0 0
202286.0 340571.0 0
202331.0 343639.0 0
207686.0 338821.0 0
205368.0 340459.0 0
208741.0 340906.0 0
206410.0 343348.0 0
210930.0 339050.0 0
211386.0 341922.0 0
214205.0 342900.0 0
214672.0 339249.0 0
218402.0 338979.0 0
217352.0 341940.0 0
220467.0 341234.0 0
224192.0 341841.0 0
220826.0 343809.0 0
228195.0 341114.0 0
233780.0 338881.0 0
231499.0 341953.0 0
234728.0 343838.0 0
236625.0 341375.0 0
239569.0 343300.0 0
241131.0 339842.0 0
243862.0 343011.0 0
245520.0 339984.0 0
248708.0 340990.0 0
251552.0 340939.0 0
254539.0 342800.0 0
257749.0 341156.0 0
260423.0 342362.0 0
263990.0 341454.0 0
269502.0 338991.0 0
267245.0 341403.0 0
270207.0 342095.0 0
273036.0 340141.0 0
276848.0 339910.0 0
276373.0 343765.0 0
281436.0 340718.0 0
286238.0 342792.0 0
290284.0 342656.0 0
291948.0 339707.0 0
294226.0 342444.0 0
297983.0 340127.0 0
297543.0 342934.0 0
202662.0 346757.0 0
206118.0 346722.0 0
210055.0 344727.0 0
214264.0 346163.0 0
209987.0 348794.0 0
217972.0 344917.0 0
219526.0 347919.0 0
223273.0 346198.0 0
227286.0 344132.0 0
227691.0 347802.0 0
231246.0 346086.0 0
234780.0 346999.0 0
237175.0 345545.0 0
240372.0 346180.0 0
243228.0 346617.0 0
247982.0 344449.0 0
246454.0 348199.0 0
251344.0 344610.0 0
253879.0 347631.0 0
250484.0 349053.0 0
257956.0 344171.0 0
256650.0 346225.0 0
259486.0 346748.0 0
261365.0 344989.0 0
264588.0 345590.0 0
268006.0 344115.0 0
266932.0 347891.0 0
270514.0 346606.0 0
272926.0 343921.0 0
279548.0 344222.0 0
279881.0 347425.0 0
276042.0 347227.0 0
283091.0 345120.0 0
284510.0 347790.0 0
287314.0 346490.0 0
290998.0 346484.0 0
294383.0 345694.0 0
294583.0 348448.0 0
297657.0 345907.0 0
297575.0 348866.0 0
303051.0 349933.0 0
196515.0 350601.0 0
202490.0 350004.0 0
201774.0 352663.0 0
206006.0 350087.0 0
204908.0 352725.0 0
208168.0 352714.0 0
212033.0 353058.0 0
215571.0 350045.0 0
218290.0 353339.0 0
220980.0 350920.0 0
224494.0 350214.0 0
223203.0 353561.0 0
228876.0 351133.0 0
226813.0 354435.0 0
231795.0 349822.0 0
234568.0 349810.0 0
233763.0 353642.0 0
238328.0 349680.0 0
237548.0 354721.0 0
242110.0 349369.0 0
244027.0 351320.0 0
241498.0 353856.0 0
247304.0 352089.0 0
250915.0 353612.0 0
254411.0 352159.0 0
257626.0 350035.0 0
259936.0 353801.0 0
262487.0 349457.0 0
265651.0 351493.0 0
269226.0 350613.0 0
273321.0 349020.0 0
271431.0 353699.0 0
275053.0 351879.0 0
277632.0 350242.0 0
279765.0 352541.0 0
276662.0 353916.0 0
281997.0 349840.0 0
284119.0 351639.0 0
287052.0 350132.0 0
290505.0 349694.0 0
287505.0 353835.0 0
293694.0 350237.0 0
290984.0 352715.0 0
293852.0 352627.0 0
297396.0 351788.0 0
195692.0 355519.0 0
202925.0 355551.0 0
202211.0 358641.0 0
206954.0 355356.0 0
207063.0 357800.0 0
205033.0 358386.0 0
210330.0 356090.0 0
210255.0 358967.0 0
214716.0 355846.0 0
214023.0 358911.0 0
217943.0 357414.0 0
221436.0 356364.0 0
224935.0 357429.0 0
229734.0 357331.0 0
230635.0 354000.0 0
232859.0 357388.0 0
235394.0 357471.0 0
238842.0 358684.0 0
241350.0 357597.0 0
243651.0 359256.0 0
245094.0 355517.0 0
248423.0 357047.0 0
251246.0 359053.0 0
253422.0 356689.0 0
256428.0 355409.0 0
263332.0 354688.0 0
260302.0 357915.0 0
263018.0 358120.0 0
267321.0 356114.0 0
274010.0 355924.0 0
270743.0 358213.0 0
273012.0 358819.0 0
277086.0 357429.0 0
280250.0 356098.0 0
283457.0 354632.0 0
281482.0 358863.0 0
284378.0 357897.0 0
286891.0 357002.0 0
290997.0 355984.0 0
294045.0 355803.0 0
295016.0 358967.0 0
297428.0 354898.0 0
298347.0 357493.0 0
202864.0 361584.0 0
206125.0 364292.0 0
206948.0 361202.0 0
213024.0 362730.0 0
217111.0 363319.0 0
217645.0 360172.0 0
221240.0 360241.0 0
224782.0 361420.0 0
220482.0 363751.0 0
228133.0 360161.0 0
233076.0 360396.0 0
230521.0 362968.0 0
236050.0 359418.0 0
235944.0 362657.0 0
239330.0 362061.0 0
242348.0 362847.0 0
247077.0 360325.0 0
245734.0 363181.0 0
248123.0 363415.0 0
250302.0 362132.0 0
253150.0 362641.0 0
254011.0 360102.0 0
257123.0 359370.0 0
256726.0 363628.0 0
260366.0 362117.0 0
263371.0 361648.0 0
266562.0 360599.0 0
269707.0 361114.0 0
266928.0 364188.0 0
274290.0 361226.0 0
271399.0 363186.0 0
278276.0 361430.0 0
281323.0 363037.0 0
283359.0 361016.0 0
289476.0 359298.0 0
286552.0 361775.0 0
292739.0 361344.0 0
297785.0 362607.0 0
297934.0 360082.0 0
201923.0 368603.0 0
202868.0 365193.0 0
205136.0 368215.0 0
208217.0 366493.0 0
209774.0 363439.0 0
211491.0 369505.0 0
211153.0 367076.0 0
213733.0 366289.0 0
219549.0 367129.0 0
217009.0 366566.0 0
224191.0 365620.0 0
227885.0 364640.0 0
228488.0 367616.0 0
233989.0 365393.0 0
231134.0 367698.0 0
238252.0 365209.0 0
239433.0 368074.0 0
240102.0 365845.0 0
236464.0 368100.0 0
243018.0 366775.0 0
241146.0 369378.0 0
249971.0 365841.0 0
246621.0 365959.0 0
245777.0 369718.0 0
249237.0 369650.0 0
254185.0 366585.0 0
258070.0 368924.0 0
260531.0 366122.0 0
264175.0 365153.0 0
269248.0 365949.0 0
264875.0 367615.0 0
267745.0 369291.0 0
272613.0 367727.0 0
274138.0 365078.0 0
277039.0 365021.0 0
275075.0 368858.0 0
278768.0 368312.0 0
282086.0 366247.0 0
284895.0 364569.0 0
289402.0 364667.0 0
286843.0 366839.0 0
294102.0 364156.0 0
293996.0 368005.0 0
291408.0 367141.0 0
297075.0 365665.0 0
297713.0 368462.0 0
196866.0 379028.0 0
200866.0 376357.0 0
201981.0 371243.0 0
199436.0 378576.0 0
203193.0 377953.0 0
205097.0 371350.0 0
202203.0 373931.0 0
208176.0 371744.0 0
208783.0 369362.0 0
211056.0 372136.0 0
208302.0 375110.0 0
213715.0 372369.0 0
214859.0 369597.0 0
216007.0 374067.0 0
217605.0 370484.0 0
220386.0 370108.0 0
219025.0 374263.0 0
224241.0 370087.0 0
222381.0 374446.0 0
228052.0 370708.0 0
225900.0 374751.0 0
229410.0 374850.0 0
231232.0 371581.0 0
233777.0 369930.0 0
234681.0 373307.0 0
237298.0 371397.0 0
240070.0 372729.0 0
243090.0 371516.0 0
243956.0 373804.0 0
247670.0 374574.0 0
252758.0 370679.0 0
251621.0 374208.0 0
256021.0 372200.0 0
256414.0 375225.0 0
260002.0 372966.0 0
262331.0 369869.0 0
264866.0 371836.0 0
262960.0 373654.0 0
266719.0 374507.0 0
270043.0 371485.0 0
272569.0 370721.0 0
269925.0 375398.0 0
273119.0 374696.0 0
274603.0 371914.0 0
277827.0 372423.0 0
282027.0 371278.0 0
284570.0 369123.0 0
282715.0 374404.0 0
279751.0 374934.0 0
285782.0 371511.0 0
285860.0 374095.0 0
288621.0 369808.0 0
288597.0 372718.0 0
293480.0 372472.0 0
291416.0 370522.0 0
290561.0 374322.0 0
298169.0 370794.0 0
295152.0 370358.0 0
297970.0 372844.0 0
299363.0 377736.0 0
301799.0 378462.0 0
303491.0 379741.0 0
192855.0 381725.0 0
189222.0 383946.0 0
191236.0 383204.0 0
195222.0 380882.0 0
196434.0 383076.0 0
199999.0 381041.0 0
202648.0 382189.0 0
205244.0 374996.0 0
205447.0 379150.0 0
205643.0 383169.0 0
208415.0 379103.0 0
211176.0 375584.0 0
211479.0 379109.0 0
214068.0 376131.0 0
215388.0 378237.0 0
215242.0 381160.0 0
218884.0 378402.0 0
222492.0 381915.0 0
222352.0 378855.0 0
225283.0 378397.0 0
229695.0 379186.0 0
227043.0 381291.0 0
232860.0 376422.0 0
235220.0 378372.0 0
237604.0 375890.0 0
240204.0 377441.0 0
240444.0 380570.0 0
242340.0 375803.0 0
243649.0 380574.0 0
249830.0 378002.0 0
245239.0 377937.0 0
248278.0 380385.0 0
253547.0 376169.0 0
252386.0 378890.0 0
255088.0 379715.0 0
257871.0 378421.0 0
260871.0 376467.0 0
262449.0 379404.0 0
264110.0 376375.0 0
266304.0 378609.0 0
269877.0 379501.0 0
273158.0 377858.0 0
276020.0 375932.0 0
278725.0 377251.0 0
275756.0 379351.0 0
280268.0 379148.0 0
282707.0 377503.0 0
285238.0 378923.0 0
286967.0 376617.0 0
289615.0 376982.0 0
287125.0 380762.0 0
289883.0 379898.0 0
294242.0 376094.0 0
296311.0 379723.0 0
292561.0 378698.0 0
299056.0 380975.0 0
297762.0 375654.0 0
297409.0 383163.0 0
305431.0 380731.0 0
301603.0 382430.0 0
303550.0 384360.0 0
307149.0 381885.0 0
308876.0 383844.0 0
311271.0 384678.0 0
180389.0 389743.0 0
184852.0 386617.0 0
187377.0 385218.0 0
183098.0 388848.0 0
187103.0 387050.0 0
188167.0 388877.0 0
189905.0 385847.0 0
193148.0 384765.0 0
190464.0 387375.0 0
193114.0 387691.0 0
197663.0 384937.0 0
195510.0 387657.0 0
198250.0 387772.0 0
200913.0 384505.0 0
201122.0 387106.0 0
202462.0 389421.0 0
204877.0 386179.0 0
206968.0 387388.0 0
208967.0 383051.0 0
209739.0 386026.0 0
212687.0 381997.0 0
213439.0 385086.0 0
216359.0 384763.0 0
218121.0 382216.0 0
220634.0 384012.0 0
223219.0 385273.0 0
224594.0 382320.0 0
225070.0 384592.0 0
224778.0 387224.0 0
227721.0 384339.0 0
230678.0 384731.0 0
231562.0 381827.0 0
234340.0 381341.0 0
237759.0 380197.0 0
240411.0 384488.0 0
236724.0 384368.0 0
243676.0 384468.0 0
246846.0 383261.0 0
249473.0 385692.0 0
251426.0 382094.0 0
254622.0 383245.0 0
258016.0 382576.0 0
256941.0 385656.0 0
260306.0 381026.0 0
262201.0 384697.0 0
264641.0 381818.0 0
268010.0 383387.0 0
272647.0 381240.0 0
273681.0 384411.0 0
276837.0 382488.0 0
280440.0 382461.0 0
283501.0 380926.0 0
277798.0 385937.0 0
280283.0 386413.0 0
284500.0 384261.0 0
287961.0 384564.0 0
290254.0 382898.0 0
294387.0 381100.0 0
293051.0 383796.0 0
299227.0 385138.0 0
301243.0 386682.0 0
296393.0 384892.0 0
298066.0 386577.0 0
296290.0 388129.0 0
300373.0 388641.0 0
306159.0 385940.0 0
303924.0 388623.0 0
308135.0 388248.0 0
310958.0 388034.0 0
313367.0 386482.0 0
315700.0 387878.0 0
318054.0 389739.0 0
174020.0 393937.0 0
176119.0 392780.0 0
178340.0 391586.0 0
180771.0 392811.0 0
178236.0 394954.0 0
182726.0 394502.0 0
184586.0 390436.0 0
186240.0 394216.0 0
188627.0 391905.0 0
191897.0 391094.0 0
195940.0 390568.0 0
198187.0 390024.0 0
194360.0 393204.0 0
197518.0 393365.0 0
199860.0 391864.0 0
201094.0 393914.0 0
207611.0 390613.0 0
204702.0 390865.0 0
204077.0 393962.0 0
210363.0 389814.0 0
211551.0 392890.0 0
213302.0 388294.0 0
216014.0 390192.0 0
217587.0 387302.0 0
220301.0 387393.0 0
218282.0 391999.0 0
222408.0 389180.0 0
224791.0 391072.0 0
226984.0 387559.0 0
228091.0 391760.0 0
229735.0 388144.0 0
233703.0 386203.0 0
232884.0 389951.0 0
236243.0 390320.0 0
237869.0 388121.0 0
240656.0 388363.0 0
244050.0 387777.0 0
240893.0 391726.0 0
246921.0 388579.0 0
249167.0 390468.0 0
253058.0 388427.0 0
257111.0 389338.0 0
259641.0 386872.0 0
263663.0 390694.0 0
260836.0 389937.0 0
265281.0 387382.0 0
270499.0 385607.0 0
268471.0 388747.0 0
272077.0 388726.0 0
274182.0 390315.0 0
275461.0 387709.0 0
277763.0 390526.0 0
279968.0 389199.0 0
282299.0 392976.0 0
283943.0 387406.0 0
283068.0 390156.0 0
287351.0 389487.0 0
291112.0 388088.0 0
288711.0 387402.0 0
290767.0 390978.0 0
293859.0 387013.0 0
293581.0 391030.0 0
295614.0 391445.0 0
298442.0 389589.0 0
298308.0 392382.0 0
303361.0 391092.0 0
301332.0 392508.0 0
305936.0 392694.0 0
308062.0 390834.0 0
311659.0 390892.0 0
311347.0 393672.0 0
309103.0 393867.0 0
314161.0 390706.0 0
315727.0 393435.0 0
318452.0 392356.0 0
321169.0 390290.0 0
321448.0 394923.0 0
323141.0 392842.0 0
326091.0 393352.0 0
327916.0 394751.0 0
166918.0 399625.0 0
169066.0 397553.0 0
171807.0 396091.0 0
170786.0 399903.0 0
177405.0 397173.0 0
174288.0 397982.0 0
181210.0 396724.0 0
178895.0 399386.0 0
182025.0 398702.0 0
184076.0 399260.0 0
186017.0 397739.0 0
189936.0 396055.0 0
192224.0 395680.0 0
188743.0 399221.0 0
193887.0 398574.0 0
196939.0 396642.0 0
199812.0 397681.0 0
202916.0 397089.0 0
206999.0 394296.0 0
205599.0 397947.0 0
207808.0 398055.0 0
209392.0 394584.0 0
210269.0 396985.0 0
212744.0 395984.0 0
214136.0 392664.0 0
215137.0 394977.0 0
217483.0 395297.0 0
219585.0 395520.0 0
220661.0 392094.0 0
222915.0 394714.0 0
226281.0 395778.0 0
228980.0 396010.0 0
230443.0 393972.0 0
230986.0 396858.0 0
233051.0 393349.0 0
235365.0 394216.0 0
233223.0 396284.0 0
238000.0 393046.0 0
243690.0 391358.0 0
244317.0 394858.0 0
242018.0 394647.0 0
245872.0 392410.0 0
248395.0 393491.0 0
251161.0 392964.0 0
251843.0 396210.0 0
254601.0 393484.0 0
258429.0 392572.0 0
261824.0 394360.0 0
259041.0 396698.0 0
264852.0 396745.0 0
265948.0 392628.0 0
268223.0 395731.0 0
269078.0 392205.0 0
272117.0 392046.0 0
270876.0 396763.0 0
273937.0 395649.0 0
275889.0 392872.0 0
276364.0 397901.0 0
279678.0 393203.0 0
278601.0 395377.0 0
280713.0 397482.0 0
282915.0 395778.0 0
286327.0 392351.0 0
286209.0 396499.0 0
289786.0 394134.0 0
294932.0 394267.0 0
292645.0 395047.0 0
293479.0 397585.0 0
298023.0 395967.0 0
301434.0 396558.0 0
303688.0 395711.0 0
306664.0 395667.0 0
311021.0 397317.0 0
307826.0 398776.0 0
314306.0 396341.0 0
316338.0 398892.0 0
318497.0 395687.0 0
319344.0 399718.0 0
321917.0 398135.0 0
325495.0 396395.0 0
326917.0 398871.0 0
329771.0 396775.0 0
332018.0 398327.0 0
334236.0 400094.0 0
337359.0 400438.0 0
155226.0 404871.0 0
161716.0 401869.0 0
157546.0 403963.0 0
159628.0 403060.0 0
164028.0 400712.0 0
164408.0 404912.0 0
167578.0 403386.0 0
171038.0 402694.0 0
173597.0 401084.0 0
176427.0 401699.0 0
180559.0 401035.0 0
182967.0 401397.0 0
178526.0 403926.0 0
181261.0 404758.0 0
186855.0 401298.0 0
184966.0 404134.0 0
191239.0 400210.0 0
188393.0 404418.0 0
191205.0 403380.0 0
195286.0 401176.0 0
197657.0 400827.0 0
194434.0 403651.0 0
199417.0 402641.0 0
202018.0 401070.0 0
202219.0 403909.0 0
204688.0 401221.0 0
207533.0 402285.0 0
210364.0 400495.0 0
213841.0 398688.0 0
216915.0 398731.0 0
212304.0 403047.0 0
215708.0 402747.0 0
219501.0 399176.0 0
218457.0 403740.0 0
221774.0 397812.0 0
220492.0 401630.0 0
223642.0 399660.0 0
226755.0 399211.0 0
230111.0 399412.0 0
230567.0 402837.0 0
232979.0 399485.0 0
233696.0 402084.0 0
235546.0 397742.0 0
235794.0 400937.0 0
239033.0 397078.0 0
238581.0 401449.0 0
242046.0 398573.0 0
245072.0 397725.0 0
245416.0 401366.0 0
248564.0 397007.0 0
249473.0 400401.0 0
253163.0 398193.0 0
252428.0 400669.0 0
255392.0 399877.0 0
255871.0 396869.0 0
258995.0 400986.0 0
262304.0 399394.0 0
266942.0 400299.0 0
264412.0 402487.0 0
270279.0 400148.0 0
273649.0 400430.0 0
276482.0 403123.0 0
277621.0 400738.0 0
281489.0 400887.0 0
283904.0 398831.0 0
286085.0 400191.0 0
289690.0 398165.0 0
288529.0 400596.0 0
289291.0 403575.0 0
292401.0 402349.0 0
291823.0 399152.0 0
295237.0 401447.0 0
296599.0 398819.0 0
299941.0 401530.0 0
298078.0 403299.0 0
302064.0 399948.0 0
305098.0 400599.0 0
301581.0 404255.0 0
303861.0 403835.0 0
306516.0 403719.0 0
308883.0 403695.0 0
310442.0 401497.0 0
312779.0 400287.0 0
315664.0 402228.0 0
313323.0 403718.0 0
320400.0 402411.0 0
318283.0 403917.0 0
324021.0 400267.0 0
323640.0 403218.0 0
326666.0 404074.0 0
328357.0 401253.0 0
330518.0 402111.0 0
334386.0 403374.0 0
338934.0 402596.0 0
341201.0 403890.0 0
343561.0 405210.0 0
347744.0 406535.0 0
149159.0 408850.0 0
147501.0 410707.0 0
151337.0 408040.0 0
153818.0 407044.0 0
151758.0 410744.0 0
154191.0 409758.0 0
157415.0 406890.0 0
161700.0 406128.0 0
157898.0 409885.0 0
161184.0 409851.0 0
164772.0 408159.0 0
168425.0 406425.0 0
170988.0 406795.0 0
166950.0 409083.0 0
173192.0 405180.0 0
175931.0 406135.0 0
171675.0 409065.0 0
176635.0 409257.0 0
180605.0 408441.0 0
184271.0 407628.0 0
185721.0 410225.0 0
188566.0 407158.0 0
191955.0 406579.0 0
188934.0 410123.0 0
192272.0 409701.0 0
195772.0 405900.0 0
195293.0 409237.0 0
199065.0 405377.0 0
200646.0 407719.0 0
203776.0 404749.0 0
203473.0 408068.0 0
206351.0 406189.0 0
209507.0 405388.0 0
207576.0 409757.0 0
211772.0 406423.0 0
214668.0 406458.0 0
216660.0 407876.0 0
219558.0 407400.0 0
221886.0 405441.0 0
223111.0 402639.0 0
224154.0 406967.0 0
226740.0 403784.0 0
228540.0 407865.0 0
231951.0 406870.0 0
234877.0 405340.0 0
237259.0 404318.0 0
239792.0 406704.0 0
241989.0 402866.0 0
244529.0 405763.0 0
248055.0 404247.0 0
251299.0 405147.0 0
253613.0 403179.0 0
256623.0 403795.0 0
260584.0 405782.0 0
262068.0 403555.0 0
265951.0 405916.0 0
267998.0 403920.0 0
270920.0 403634.0 0
270424.0 405969.0 0
273631.0 403895.0 0
271953.0 407524.0 0
274264.0 407081.0 0
277392.0 406056.0 0
280009.0 405525.0 0
279921.0 403530.0 0
282292.0 406306.0 0
284483.0 403397.0 0
285705.0 407219.0 0
289297.0 406835.0 0
294457.0 405367.0 0
292791.0 407461.0 0
296542.0 408623.0 0
297463.0 406106.0 0
300614.0 407087.0 0
303665.0 408345.0 0
306283.0 407050.0 0
312141.0 406338.0 0
309341.0 407635.0 0
316568.0 406342.0 0
314760.0 408767.0 0
319856.0 406839.0 0
319687.0 409819.0 0
323062.0 406360.0 0
324660.0 408930.0 0
327491.0 409083.0 0
328232.0 406086.0 0
331486.0 405397.0 0
332637.0 408689.0 0
336817.0 405281.0 0
336084.0 408678.0 0
340003.0 407129.0 0
339045.0 409631.0 0
342406.0 408387.0 0
345564.0 406147.0 0
349209.0 408096.0 0
346266.0 409087.0 0
350553.0 409826.0 0
352792.0 410712.0 0
142839.0 412908.0 0
145727.0 412632.0 0
141076.0 415176.0 0
144211.0 416177.0 0
149966.0 412015.0 0
147611.0 414768.0 0
150823.0 414136.0 0
155684.0 411983.0 0
153517.0 413600.0 0
157552.0 413976.0 0
160044.0 413498.0 0
163330.0 411834.0 0
165701.0 411800.0 0
163977.0 414980.0 0
166491.0 414396.0 0
169258.0 410886.0 0
170048.0 413671.0 0
173588.0 410087.0 0
173407.0 412926.0 0
180789.0 411734.0 0
177121.0 412755.0 0
180328.0 414536.0 0
183778.0 413124.0 0
186690.0 414734.0 0
188937.0 413557.0 0
192155.0 413660.0 0
194963.0 413532.0 0
197608.0 414196.0 0
197907.0 410368.0 0
200532.0 411651.0 0
201867.0 410574.0 0
200652.0 413945.0 0
204513.0 411246.0 0
208414.0 414015.0 0
210263.0 409469.0 0
211226.0 413113.0 0
213115.0 410025.0 0
216082.0 411691.0 0
219513.0 411475.0 0
222432.0 409598.0 0
225800.0 408806.0 0
224837.0 412034.0 0
229088.0 412522.0 0
233261.0 410791.0 0
236765.0 409078.0 0
238192.0 413014.0 0
240729.0 410977.0 0
242869.0 407927.0 0
244645.0 409598.0 0
247342.0 408617.0 0
250084.0 409515.0 0
250404.0 413184.0 0
253285.0 408345.0 0
253732.0 412405.0 0
256967.0 407867.0 0
256720.0 412381.0 0
259951.0 410103.0 0
263362.0 408439.0 0
263073.0 412258.0 0
266291.0 411181.0 0
268976.0 408823.0 0
271189.0 411616.0 0
274668.0 410556.0 0
277696.0 412935.0 0
278365.0 409071.0 0
281442.0 410114.0 0
285156.0 411437.0 0
293305.0 409940.0 0
289181.0 410086.0 0
291285.0 412625.0 0
295949.0 411098.0 0
299409.0 409545.0 0
298139.0 412129.0 0
300891.0 412151.0 0
307143.0 410127.0 0
303781.0 411959.0 0
306612.0 411711.0 0
310151.0 410653.0 0
309159.0 413169.0 0
312082.0 414825.0 0
312803.0 410795.0 0
316988.0 410710.0 0
314085.0 413461.0 0
317045.0 413491.0 0
322085.0 411705.0 0
320046.0 414549.0 0
324665.0 413631.0 0
326840.0 412545.0 0
330612.0 411623.0 0
336471.0 411970.0 0
333981.0 413722.0 0
340596.0 411431.0 0
338869.0 413923.0 0
343772.0 410848.0 0
347459.0 411467.0 0
344687.0 414175.0 0
349165.0 412110.0 0
349927.0 414082.0 0
352393.0 414745.0 0
354844.0 412908.0 0
357683.0 414016.0 0
355175.0 416397.0 0
359874.0 416371.0 0
134169.0 418810.0 0
131743.0 420213.0 0
136317.0 417187.0 0
138902.0 416480.0 0
137815.0 420233.0 0
140630.0 419856.0 0
146208.0 418618.0 0
143237.0 419795.0 0
149321.0 416989.0 0
147371.0 421415.0 0
154098.0 416309.0 0
156678.0 416357.0 0
152051.0 419031.0 0
155096.0 420158.0 0
161378.0 416268.0 0
158553.0 418818.0 0
161189.0 420642.0 0
165004.0 417315.0 0
163200.0 418992.0 0
164913.0 420284.0 0
166542.0 418348.0 0
167409.0 416902.0 0
170561.0 416661.0 0
170530.0 419500.0 0
173678.0 416038.0 0
176862.0 415861.0 0
173654.0 418862.0 0
180042.0 416493.0 0
182740.0 416045.0 0
185722.0 416826.0 0
183271.0 419642.0 0
188936.0 416868.0 0
187120.0 419094.0 0
191709.0 417193.0 0
194738.0 417213.0 0
196535.0 419295.0 0
198550.0 416959.0 0
201283.0 418463.0 0
203932.0 415100.0 0
205884.0 418311.0 0
209081.0 417738.0 0
214109.0 414990.0 0
212005.0 417584.0 0
216456.0 418112.0 0
217929.0 415296.0 0
221525.0 415134.0 0
225935.0 416599.0 0
229113.0 417734.0 0
231565.0 416159.0 0
234937.0 414629.0 0
239560.0 416247.0 0
242194.0 415799.0 0
243569.0 412691.0 0
242566.0 418532.0 0
245175.0 417318.0 0
246919.0 413612.0 0
248621.0 417536.0 0
251349.0 416477.0 0
253704.0 415182.0 0
256526.0 416325.0 0
259821.0 413051.0 0
260628.0 417310.0 0
264073.0 415220.0 0
265186.0 418428.0 0
268135.0 418686.0 0
267561.0 414362.0 0
271925.0 416131.0 0
274855.0 414408.0 0
275301.0 418053.0 0
277426.0 416304.0 0
280549.0 413955.0 0
282826.0 414373.0 0
280503.0 417029.0 0
283266.0 416984.0 0
285668.0 415900.0 0
288407.0 414328.0 0
289363.0 417252.0 0
291484.0 416295.0 0
294485.0 414802.0 0
297719.0 415312.0 0
294561.0 418294.0 0
300427.0 414869.0 0
298651.0 419034.0 0
301955.0 417179.0 0
304578.0 415198.0 0
307560.0 415189.0 0
303976.0 419874.0 0
305883.0 418129.0 0
308609.0 418320.0 0
311158.0 417375.0 0
316604.0 416445.0 0
313480.0 419200.0 0
314934.0 417036.0 0
319908.0 417331.0 0
318134.0 419411.0 0
322419.0 418561.0 0
321114.0 420266.0 0
324267.0 416301.0 0
327445.0 415668.0 0
326316.0 418117.0 0
329539.0 414931.0 0
332840.0 416100.0 0
328322.0 419058.0 0
330802.0 417603.0 0
336582.0 416524.0 0
334251.0 417911.0 0
337881.0 419253.0 0
341612.0 415404.0 0
340966.0 418197.0 0
347200.0 415943.0 0
343149.0 419943.0 0
345264.0 418907.0 0
347289.0 420422.0 0
349312.0 418223.0 0
351898.0 417331.0 0
353336.0 420376.0 0
355183.0 418545.0 0
358085.0 418816.0 0
362724.0 417128.0 0
361634.0 420516.0 0
365132.0 418393.0 0
367117.0 420721.0 0
122437.0 425951.0 0
125083.0 424855.0 0
127048.0 422593.0 0
130022.0 422140.0 0
130292.0 425285.0 0
133627.0 423247.0 0
135402.0 421515.0 0
137420.0 423966.0 0
140078.0 423082.0 0
140268.0 427218.0 0
143673.0 422575.0 0
141887.0 424886.0 0
145908.0 423860.0 0
150590.0 421841.0 0
147837.0 425870.0 0
150531.0 424359.0 0
153824.0 422944.0 0
155746.0 425131.0 0
157623.0 422173.0 0
159875.0 423492.0 0
161830.0 422672.0 0
164536.0 423414.0 0
167921.0 420512.0 0
167494.0 423354.0 0
169860.0 424322.0 0
171848.0 422253.0 0
176651.0 419663.0 0
174746.0 422736.0 0
180175.0 420741.0 0
176572.0 424922.0 0
179335.0 424050.0 0
185293.0 422172.0 0
182910.0 423920.0 0
185622.0 425094.0 0
188698.0 420839.0 0
188105.0 423399.0 0
191565.0 420533.0 0
194091.0 420986.0 0
195216.0 423995.0 0
199024.0 422278.0 0
203413.0 420127.0 0
202511.0 423235.0 0
206207.0 421936.0 0
209845.0 421806.0 0
213670.0 421071.0 0
219203.0 419456.0 0
217129.0 422200.0 0
220447.0 423499.0 0
222247.0 419729.0 0
223499.0 423515.0 0
225599.0 420764.0 0
229434.0 420547.0 0
230254.0 423659.0 0
232802.0 419780.0 0
233955.0 423513.0 0
236478.0 418758.0 0
237980.0 422985.0 0
240127.0 419523.0 0
242649.0 421592.0 0
246214.0 420821.0 0
250259.0 421069.0 0
253411.0 419232.0 0
253800.0 422441.0 0
257175.0 420952.0 0
260588.0 421898.0 0
263687.0 420607.0 0
266412.0 421355.0 0
265996.0 423388.0 0
270495.0 421103.0 0
273706.0 420726.0 0
277455.0 419619.0 0
276461.0 421525.0 0
279729.0 422558.0 0
280081.0 419942.0 0
282602.0 420616.0 0
282935.0 423996.0 0
284218.0 419481.0 0
287208.0 419036.0 0
285945.0 422701.0 0
291556.0 419304.0 0
289742.0 422088.0 0
292717.0 423139.0 0
294515.0 421302.0 0
297684.0 422822.0 0
301669.0 421435.0 0
301056.0 424226.0 0
305599.0 422409.0 0
308678.0 421474.0 0
311573.0 420743.0 0
310395.0 424350.0 0
313317.0 423953.0 0
315891.0 421595.0 0
319907.0 421217.0 0
322104.0 421594.0 0
320822.0 424354.0 0
324348.0 420550.0 0
325805.0 422665.0 0
332677.0 420374.0 0
329478.0 422257.0 0
334957.0 421479.0 0
333468.0 424403.0 0
336582.0 424442.0 0
339048.0 421905.0 0
342114.0 423329.0 0
346826.0 421945.0 0
345318.0 422915.0 0
350170.0 421155.0 0
353126.0 423039.0 0
349630.0 424197.0 0
352422.0 425276.0 0
356084.0 422428.0 0
358754.0 422060.0 0
354999.0 424363.0 0
357855.0 425616.0 0
363731.0 421738.0 0
360659.0 424417.0 0
363618.0 424970.0 0
366363.0 425232.0 0
369382.0 422343.0 0
372508.0 422975.0 0
369817.0 426049.0 0
374749.0 425249.0 0
119790.0 428175.0 0
117316.0 430193.0 0
122691.0 428921.0 0
123933.0 431712.0 0
127253.0 426780.0 0
126782.0 429600.0 0
129516.0 431002.0 0
133103.0 426726.0 0
131816.0 429729.0 0
133999.0 431306.0 0
136606.0 426801.0 0
141315.0 429257.0 0
136917.0 429837.0 0
144072.0 426553.0 0
141046.0 432015.0 0
144305.0 428732.0 0
148261.0 428324.0 0
152274.0 425980.0 0
151806.0 428285.0 0
152088.0 430990.0 0
155291.0 428649.0 0
159259.0 426254.0 0
158771.0 429090.0 0
162530.0 426611.0 0
161770.0 429820.0 0
166137.0 427318.0 0
170273.0 426496.0 0
168845.0 429179.0 0
171338.0 430038.0 0
173420.0 425605.0 0
172823.0 427585.0 0
174781.0 429013.0 0
176672.0 427313.0 0
180989.0 426301.0 0
179344.0 428930.0 0
183975.0 427578.0 0
191402.0 425136.0 0
187812.0 427326.0 0
187894.0 430037.0 0
192162.0 428579.0 0
196152.0 427142.0 0
199253.0 426120.0 0
196957.0 429795.0 0
200183.0 429020.0 0
202901.0 426291.0 0
206524.0 425683.0 0
203259.0 429514.0 0
206318.0 429027.0 0
210171.0 425602.0 0
210645.0 429514.0 0
213652.0 424749.0 0
213828.0 427738.0 0
217027.0 425310.0 0
221257.0 427672.0 0
224914.0 425923.0 0
227154.0 423890.0 0
228665.0 427724.0 0
232402.0 427375.0 0
236308.0 427091.0 0
239242.0 427813.0 0
241228.0 425324.0 0
244713.0 424976.0 0
243178.0 428292.0 0
246860.0 428085.0 0
247459.0 424092.0 0
251388.0 425397.0 0
256483.0 424546.0 0
254889.0 427844.0 0
260137.0 425277.0 0
263676.0 428208.0 0
263531.0 423934.0 0
266726.0 426196.0 0
268853.0 423641.0 0
270072.0 427966.0 0
273288.0 425106.0 0
277176.0 428076.0 0
277218.0 424829.0 0
280578.0 426461.0 0
280028.0 429211.0 0
284454.0 427110.0 0
288463.0 426688.0 0
292245.0 426265.0 0
292187.0 428947.0 0
296004.0 426376.0 0
299629.0 427135.0 0
304547.0 425725.0 0
302672.0 428664.0 0
308211.0 427325.0 0
312181.0 428150.0 0
315140.0 426936.0 0
317671.0 424816.0 0
318460.0 427360.0 0
320243.0 429916.0 0
322431.0 427586.0 0
325457.0 425292.0 0
327805.0 427300.0 0
325185.0 429921.0 0
330720.0 425403.0 0
332507.0 428670.0 0
335225.0 427173.0 0
337800.0 428306.0 0
339464.0 426238.0 0
341873.0 428901.0 0
344461.0 427031.0 0
347584.0 426182.0 0
346103.0 430811.0 0
349201.0 429750.0 0
352001.0 428869.0 0
354165.0 426865.0 0
356467.0 427056.0 0
357366.0 430472.0 0
359939.0 426971.0 0
363286.0 428083.0 0
360715.0 429896.0 0
368073.0 428072.0 0
365887.0 429322.0 0
372319.0 427279.0 0
369910.0 430489.0 0
372354.0 429966.0 0
377337.0 427168.0 0
375191.0 429665.0 0
379758.0 428492.0 0
382655.0 429491.0 0
384734.0 431263.0 0
109045.0 434245.0 0
106950.0 436662.0 0
111970.0 433355.0 0
114889.0 431945.0 0
112194.0 436644.0 0
119952.0 431786.0 0
117239.0 435162.0 0
120838.0 434125.0 0
125807.0 433974.0 0
122110.0 436676.0 0
124753.0 436474.0 0
128892.0 434051.0 0
134000.0 433707.0 0
131604.0 434252.0 0
138113.0 432165.0 0
137799.0 434943.0 0
144992.0 431211.0 0
143237.0 433814.0 0
145975.0 435311.0 0
148441.0 431175.0 0
148294.0 433696.0 0
150438.0 434653.0 0
153455.0 433230.0 0
157125.0 431860.0 0
160713.0 432421.0 0
157691.0 435607.0 0
164840.0 430570.0 0
163483.0 432641.0 0
161341.0 435443.0 0
164831.0 435016.0 0
167355.0 432469.0 0
169782.0 434126.0 0
172775.0 432273.0 0
175709.0 433826.0 0
176469.0 430611.0 0
179469.0 432374.0 0
183695.0 430970.0 0
189019.0 433646.0 0
193186.0 431871.0 0
200087.0 432059.0 0
197037.0 433184.0 0
199499.0 434987.0 0
203052.0 432697.0 0
207001.0 433023.0 0
210898.0 433338.0 0
213715.0 431225.0 0
213958.0 434444.0 0
217068.0 429393.0 0
217426.0 433705.0 0
221090.0 432385.0 0
225117.0 430345.0 0
224893.0 434378.0 0
229265.0 432072.0 0
233578.0 431050.0 0
237585.0 431077.0 0
239152.0 433781.0 0
241117.0 430561.0 0
244383.0 430539.0 0
247278.0 432479.0 0
251044.0 430326.0 0
254907.0 430839.0 0
258595.0 428850.0 0
257419.0 433641.0 0
262108.0 432788.0 0
266097.0 432405.0 0
267277.0 430216.0 0
269107.0 433850.0 0
271392.0 431523.0 0
274426.0 429187.0 0
274521.0 433541.0 0
277292.0 431161.0 0
279878.0 432503.0 0
282544.0 434292.0 0
283564.0 430446.0 0
285841.0 433672.0 0
288245.0 431023.0 0
292046.0 431624.0 0
295771.0 430448.0 0
296439.0 434455.0 0
299413.0 430445.0 0
300752.0 434193.0 0
303796.0 431506.0 0
306725.0 430495.0 0
306275.0 433871.0 0
310188.0 431376.0 0
309308.0 434239.0 0
313318.0 431333.0 0
316701.0 429788.0 0
314309.0 434414.0 0
317476.0 433363.0 0
320950.0 433132.0 0
324250.0 433181.0 0
328508.0 433636.0 0
329488.0 430409.0 0
332828.0 432121.0 0
331799.0 434308.0 0
336281.0 431338.0 0
335949.0 434703.0 0
340609.0 432040.0 0
340250.0 435477.0 0
343163.0 435855.0 0
344530.0 433464.0 0
347265.0 435775.0 0
349519.0 433241.0 0
352585.0 433833.0 0
354457.0 431316.0 0
356100.0 434114.0 0
355743.0 435766.0 0
362688.0 432632.0 0
359156.0 433982.0 0
365924.0 432072.0 0
368815.0 432989.0 0
364647.0 435629.0 0
367918.0 436117.0 0
371425.0 434262.0 0
373455.0 433288.0 0
375635.0 431990.0 0
377861.0 432789.0 0
375391.0 436183.0 0
378482.0 436082.0 0
379981.0 431780.0 0
381587.0 433106.0 0
384355.0 434013.0 0
381271.0 435441.0 0
387576.0 432314.0 0
385415.0 436355.0 0
389383.0 433926.0 0
391851.0 434678.0 0
393788.0 435627.0 0
395325.0 436448.0 0
99359.2 440812.0 0
101051.0 438461.0 0
104302.0 438327.0 0
102559.0 441198.0 0
109600.0 438180.0 0
106831.0 440584.0 0
110115.0 440624.0 0
115057.0 437945.0 0
112808.0 440670.0 0
119135.0 437248.0 0
117288.0 440446.0 0
121079.0 440036.0 0
124178.0 440384.0 0
126289.0 438127.0 0
128761.0 436760.0 0
130252.0 438962.0 0
127021.0 440420.0 0
131848.0 437089.0 0
135121.0 437039.0 0
134568.0 440023.0 0
139935.0 436206.0 0
138531.0 438470.0 0
142140.0 436807.0 0
143066.0 439695.0 0
146311.0 437849.0 0
148586.0 436525.0 0
150640.0 437317.0 0
148912.0 440372.0 0
154151.0 437043.0 0
156409.0 439228.0 0
158624.0 438308.0 0
158337.0 440501.0 0
161706.0 438530.0 0
164837.0 438499.0 0
167304.0 436877.0 0
169268.0 439094.0 0
171358.0 436509.0 0
172825.0 440321.0 0
174304.0 437332.0 0
178391.0 436243.0 0
180700.0 435455.0 0
177594.0 439167.0 0
180881.0 438247.0 0
184540.0 435232.0 0
186743.0 438229.0 0
190320.0 437537.0 0
193596.0 435620.0 0
196464.0 437495.0 0
199677.0 439273.0 0
202045.0 436372.0 0
205007.0 437029.0 0
210602.0 435894.0 0
208428.0 437132.0 0
212941.0 438220.0 0
216756.0 437713.0 0
220869.0 437022.0 0
224632.0 438001.0 0
228256.0 436404.0 0
232036.0 434834.0 0
232476.0 438263.0 0
235986.0 435322.0 0
239501.0 437011.0 0
243054.0 434113.0 0
242459.0 438460.0 0
245884.0 437618.0 0
249438.0 435994.0 0
252678.0 434068.0 0
252405.0 439151.0 0
255313.0 437191.0 0
259643.0 437278.0 0
263155.0 437537.0 0
265848.0 435311.0 0
267760.0 438092.0 0
272044.0 436879.0 0
275573.0 437597.0 0
278332.0 435430.0 0
278908.0 439471.0 0
281759.0 437497.0 0
285446.0 436828.0 0
292989.0 434867.0 0
289275.0 435736.0 0
293608.0 437853.0 0
296679.0 438838.0 0
299665.0 438001.0 0
304510.0 436944.0 0
308593.0 437360.0 0
306907.0 439882.0 0
311720.0 435390.0 0
311718.0 438699.0 0
317950.0 436279.0 0
315350.0 438148.0 0
320711.0 436821.0 0
319354.0 440634.0 0
324171.0 437318.0 0
327980.0 437332.0 0
333398.0 436375.0 0
331175.0 437787.0 0
338040.0 437378.0 0
335142.0 439261.0 0
342494.0 438151.0 0
340400.0 440581.0 0
345713.0 438889.0 0
350241.0 437458.0 0
353203.0 436688.0 0
349145.0 439812.0 0
353979.0 439706.0 0
357420.0 439034.0 0
359235.0 436682.0 0
363046.0 438461.0 0
366391.0 440979.0 0
368517.0 438909.0 0
371165.0 436901.0 0
370762.0 440455.0 0
373970.0 438892.0 0
377156.0 440422.0 0
382808.0 438368.0 0
379848.0 439525.0 0
384587.0 440605.0 0
388299.0 437366.0 0
387981.0 440586.0 0
391602.0 437405.0 0
394615.0 439759.0 0
391042.0 441154.0 0
392615.0 439111.0 0
396898.0 438666.0 0
399277.0 439390.0 0
397186.0 441944.0 0
401376.0 441126.0 0
94179.7 444313.0 0
91207.0 446065.0 0
97052.4 442923.0 0
98910.5 445077.0 0
102681.0 444846.0 0
106016.0 443243.0 0
109299.0 443360.0 0
106804.0 445853.0 0
113436.0 442688.0 0
111438.0 446090.0 0
116417.0 443250.0 0
115134.0 445504.0 0
119167.0 445906.0 0
121179.0 443673.0 0
124318.0 444356.0 0
127498.0 443416.0 0
128499.0 446311.0 0
131404.0 441775.0 0
132663.0 444588.0 0
136917.0 441971.0 0
139718.0 440913.0 0
135906.0 444772.0 0
139170.0 445155.0 0
145467.0 442981.0 0
141621.0 444505.0 0
148571.0 445040.0 0
152389.0 441614.0 0
155686.0 442265.0 0
151563.0 445577.0 0
157601.0 444585.0 0
161346.0 442345.0 0
165667.0 441708.0 0
169766.0 442926.0 0
172595.0 444323.0 0
175457.0 442503.0 0
179548.0 441727.0 0
179598.0 444451.0 0
183383.0 440826.0 0
185874.0 443770.0 0
188009.0 441520.0 0
189339.0 444869.0 0
192661.0 440142.0 0
191945.0 443075.0 0
195753.0 441559.0 0
194572.0 444209.0 0
198499.0 442513.0 0
201314.0 443896.0 0
202330.0 440648.0 0
205226.0 440382.0 0
204615.0 443408.0 0
209165.0 440897.0 0
207077.0 444333.0 0
212478.0 442690.0 0
215145.0 440892.0 0
218084.0 441239.0 0
221766.0 441394.0 0
225337.0 441040.0 0
226913.0 444295.0 0
229125.0 440669.0 0
232277.0 442586.0 0
234662.0 443972.0 0
236208.0 440149.0 0
240325.0 441339.0 0
244911.0 441939.0 0
248971.0 441162.0 0
251435.0 444403.0 0
254342.0 442277.0 0
257473.0 440017.0 0
261395.0 441617.0 0
265338.0 440689.0 0
264778.0 444463.0 0
267443.0 442426.0 0
270629.0 441235.0 0
272752.0 444382.0 0
275138.0 441258.0 0
281994.0 441108.0 0
279459.0 443843.0 0
283806.0 439695.0 0
284113.0 443750.0 0
287366.0 440951.0 0
291289.0 439829.0 0
292355.0 443426.0 0
294891.0 441750.0 0
297407.0 442811.0 0
302237.0 440484.0 0
299240.0 441981.0 0
302385.0 444190.0 0
305366.0 442235.0 0
307892.0 443063.0 0
309215.0 440830.0 0
309781.0 443979.0 0
312324.0 442320.0 0
315545.0 441993.0 0
319474.0 444326.0 0
322390.0 444637.0 0
323724.0 441438.0 0
328336.0 441465.0 0
326972.0 445036.0 0
331947.0 441040.0 0
330892.0 444191.0 0
337100.0 442500.0 0
333871.0 443704.0 0
338236.0 445604.0 0
341690.0 444123.0 0
345125.0 442606.0 0
348500.0 442654.0 0
351557.0 441604.0 0
349463.0 445607.0 0
352036.0 444724.0 0
355961.0 442556.0 0
354675.0 444429.0 0
359013.0 445094.0 0
358934.0 442070.0 0
361568.0 441426.0 0
362097.0 445311.0 0
364024.0 443644.0 0
366307.0 446016.0 0
368207.0 443557.0 0
370796.0 442377.0 0
373637.0 442050.0 0
371266.0 445535.0 0
374272.0 445113.0 0
377040.0 443064.0 0
379487.0 444813.0 0
380806.0 442191.0 0
383362.0 442878.0 0
387672.0 443647.0 0
384989.0 445472.0 0
390087.0 445275.0 0
394975.0 443254.0 0
392667.0 443815.0 0
399387.0 442651.0 0
399374.0 445154.0 0
397090.0 445481.0 0
403741.0 442676.0 0
402370.0 445199.0 0
404769.0 446335.0 0
406442.0 444011.0 0
408664.0 445838.0 0
83106.8 451131.0 0
85801.8 449821.0 0
88157.8 447246.0 0
88724.0 450356.0 0
91914.4 449185.0 0
93033.4 451853.0 0
95288.5 447427.0 0
97984.6 447786.0 0
96423.6 450328.0 0
102313.0 449332.0 0
106279.0 447861.0 0
108754.0 448376.0 0
108593.0 451244.0 0
113401.0 449328.0 0
117277.0 448412.0 0
118379.0 451439.0 0
121543.0 448520.0 0
123899.0 447474.0 0
121408.0 451375.0 0
126293.0 449083.0 0
128727.0 450285.0 0
131393.0 447646.0 0
135880.0 447509.0 0
133569.0 450475.0 0
139013.0 448217.0 0
137162.0 451087.0 0
144914.0 446787.0 0
142305.0 448929.0 0
147323.0 447771.0 0
149717.0 449288.0 0
154593.0 446432.0 0
152650.0 450084.0 0
155829.0 449190.0 0
158897.0 447388.0 0
159984.0 450150.0 0
162394.0 446012.0 0
166235.0 445842.0 0
162817.0 449350.0 0
165794.0 449401.0 0
169636.0 447327.0 0
168696.0 450624.0 0
171239.0 450130.0 0
173163.0 447742.0 0
176583.0 445787.0 0
178849.0 448639.0 0
182803.0 445651.0 0
186593.0 446609.0 0
181950.0 449448.0 0
184843.0 449634.0 0
188648.0 448911.0 0
187333.0 450648.0 0
192584.0 448002.0 0
197259.0 445666.0 0
196666.0 449113.0 0
199908.0 447697.0 0
203578.0 446616.0 0
210425.0 447111.0 0
206170.0 447309.0 0
206422.0 450341.0 0
215389.0 445351.0 0
213471.0 450542.0 0
219424.0 445069.0 0
216848.0 448948.0 0
220427.0 448959.0 0
223369.0 445766.0 0
226602.0 447901.0 0
229795.0 445309.0 0
229655.0 449116.0 0
233164.0 447279.0 0
237697.0 445591.0 0
239710.0 449406.0 0
242452.0 445632.0 0
243892.0 449598.0 0
247375.0 446422.0 0
251595.0 448633.0 0
254663.0 446643.0 0
257807.0 444395.0 0
257695.0 447918.0 0
261604.0 446670.0 0
259611.0 449826.0 0
265075.0 448440.0 0
268770.0 446318.0 0
272922.0 447879.0 0
276048.0 449737.0 0
275870.0 445539.0 0
278427.0 447764.0 0
282282.0 447839.0 0
286241.0 447183.0 0
289064.0 444906.0 0
289891.0 449378.0 0
292932.0 447164.0 0
296258.0 445576.0 0
298803.0 449570.0 0
299910.0 445401.0 0
302682.0 448348.0 0
305640.0 446129.0 0
313028.0 445425.0 0
309875.0 447833.0 0
316248.0 445476.0 0
314309.0 448580.0 0
317078.0 449408.0 0
319563.0 447490.0 0
323877.0 448407.0 0
328123.0 450033.0 0
330241.0 447048.0 0
333519.0 446277.0 0
332384.0 450305.0 0
335904.0 447336.0 0
335140.0 449740.0 0
339020.0 449572.0 0
342326.0 447807.0 0
346431.0 447484.0 0
351208.0 447872.0 0
353413.0 447395.0 0
350251.0 450013.0 0
353700.0 449729.0 0
356197.0 446590.0 0
357299.0 449397.0 0
360715.0 448780.0 0
364454.0 448593.0 0
369421.0 447825.0 0
368563.0 451291.0 0
372791.0 448515.0 0
372613.0 450953.0 0
376529.0 447656.0 0
375252.0 450213.0 0
379542.0 449959.0 0
381656.0 447035.0 0
383534.0 449358.0 0
386633.0 448227.0 0
385626.0 451497.0 0
393655.0 447936.0 0
390165.0 449142.0 0
396002.0 447532.0 0
398204.0 449594.0 0
395838.0 451883.0 0
400753.0 448157.0 0
403876.0 449822.0 0
400692.0 452167.0 0
406841.0 448182.0 0
408839.0 449590.0 0
407900.0 451433.0 0
411240.0 447429.0 0
413513.0 449568.0 0
410316.0 451495.0 0
416486.0 450230.0 0
74912.0 455676.0 0
77862.7 453722.0 0
77750.7 456972.0 0
80386.5 452683.0 0
82793.9 454974.0 0
86291.5 453132.0 0
89074.2 452358.0 0
88164.1 454560.0 0
85411.5 456294.0 0
90688.8 454036.0 0
95079.1 454245.0 0
91419.2 456041.0 0
99064.5 453228.0 0
98199.8 457170.0 0
101978.0 455256.0 0
105283.0 452474.0 0
106426.0 455779.0 0
109617.0 455690.0 0
111491.0 452742.0 0
115227.0 452257.0 0
113452.0 455655.0 0
115680.0 454791.0 0
118300.0 454938.0 0
124468.0 451708.0 0
121141.0 455529.0 0
123685.0 454506.0 0
127154.0 453367.0 0
129891.0 452676.0 0
126306.0 456312.0 0
130607.0 455421.0 0
133593.0 454048.0 0
135146.0 455863.0 0
139985.0 452619.0 0
136353.0 453509.0 0
137889.0 454995.0 0
145579.0 451572.0 0
142628.0 455085.0 0
149215.0 453142.0 0
146007.0 455917.0 0
148493.0 456231.0 0
152986.0 453773.0 0
157254.0 452946.0 0
163197.0 451771.0 0
161198.0 453121.0 0
165593.0 453152.0 0
168074.0 454875.0 0
171002.0 452694.0 0
174645.0 451272.0 0
171666.0 455727.0 0
179034.0 452306.0 0
175442.0 455536.0 0
179599.0 456188.0 0
182622.0 452735.0 0
186420.0 453383.0 0
190179.0 452259.0 0
191794.0 454648.0 0
194476.0 452550.0 0
198559.0 451890.0 0
202682.0 450502.0 0
201694.0 453981.0 0
205242.0 454620.0 0
209468.0 452371.0 0
212154.0 454508.0 0
215170.0 453499.0 0
218068.0 452209.0 0
223723.0 450427.0 0
221163.0 452511.0 0
226942.0 451733.0 0
228233.0 454818.0 0
231692.0 452312.0 0
235672.0 450426.0 0
238127.0 453803.0 0
241221.0 452117.0 0
243631.0 453561.0 0
248055.0 452282.0 0
252857.0 452416.0 0
255814.0 450471.0 0
258934.0 453082.0 0
262817.0 451215.0 0
267702.0 451269.0 0
265408.0 454190.0 0
270774.0 450491.0 0
273152.0 451342.0 0
271337.0 454315.0 0
275534.0 453610.0 0
279526.0 451801.0 0
283283.0 451789.0 0
285655.0 454157.0 0
286609.0 450925.0 0
289958.0 453894.0 0
293059.0 451561.0 0
295494.0 449510.0 0
295847.0 452153.0 0
298318.0 454193.0 0
302408.0 452591.0 0
306430.0 451365.0 0
305028.0 455051.0 0
308709.0 455383.0 0
310412.0 451955.0 0
313307.0 450941.0 0
312688.0 454412.0 0
316471.0 453029.0 0
320503.0 451577.0 0
324967.0 453042.0 0
329148.0 453575.0 0
333636.0 454229.0 0
337210.0 452638.0 0
342349.0 451840.0 0
340205.0 455700.0 0
345578.0 451344.0 0
348366.0 451915.0 0
346680.0 453952.0 0
344467.0 454475.0 0
353193.0 453333.0 0
349868.0 454472.0 0
356947.0 452311.0 0
359484.0 454651.0 0
361086.0 451762.0 0
364066.0 452240.0 0
363584.0 456576.0 0
367399.0 455182.0 0
371241.0 454317.0 0
374152.0 454223.0 0
378000.0 453746.0 0
382542.0 451663.0 0
381837.0 455388.0 0
384960.0 453964.0 0
388558.0 452852.0 0
387474.0 455744.0 0
392806.0 451905.0 0
391179.0 454275.0 0
392993.0 456226.0 0
395072.0 455098.0 0
398961.0 454090.0 0
397614.0 456428.0 0
402784.0 454218.0 0
401866.0 456530.0 0
404684.0 457069.0 0
405468.0 452648.0 0
407351.0 455284.0 0
410858.0 454363.0 0
413965.0 453250.0 0
416731.0 455032.0 0
418672.0 452135.0 0
420120.0 456684.0 0
421530.0 453837.0 0
424103.0 455220.0 0
426780.0 456881.0 0
66495.1 461204.0 0
69378.9 459489.0 0
72198.3 458043.0 0
74954.5 459788.0 0
77185.4 461613.0 0
80625.8 458120.0 0
80032.4 462094.0 0
83906.5 459596.0 0
88701.9 457011.0 0
87044.5 459447.0 0
90770.3 458203.0 0
94236.4 457138.0 0
90480.8 461078.0 0
94266.2 460108.0 0
97464.0 459945.0 0
100597.0 458178.0 0
103232.0 457399.0 0
100560.0 461298.0 0
104022.0 460386.0 0
107123.0 459158.0 0
108221.0 461226.0 0
110378.0 458439.0 0
113728.0 458312.0 0
110663.0 461168.0 0
113606.0 461688.0 0
117043.0 458158.0 0
117492.0 462168.0 0
120510.0 459173.0 0
123629.0 458300.0 0
124323.0 460847.0 0
128430.0 458744.0 0
132192.0 457005.0 0
133589.0 457911.0 0
131637.0 460275.0 0
136575.0 458045.0 0
139368.0 457184.0 0
135558.0 461307.0 0
139886.0 460242.0 0
143176.0 458567.0 0
143525.0 461198.0 0
146172.0 458908.0 0
148562.0 459820.0 0
155198.0 457550.0 0
151351.0 457942.0 0
155645.0 460391.0 0
158748.0 456766.0 0
159021.0 460257.0 0
162723.0 455881.0 0
161948.0 459086.0 0
165526.0 457740.0 0
168706.0 457533.0 0
167142.0 460572.0 0
171481.0 459442.0 0
175410.0 459530.0 0
178989.0 459635.0 0
183974.0 457347.0 0
188789.0 456150.0 0
187090.0 459929.0 0
190596.0 459163.0 0
192593.0 456916.0 0
194102.0 460001.0 0
195648.0 456093.0 0
198944.0 455470.0 0
197704.0 459557.0 0
201871.0 457827.0 0
205553.0 459699.0 0
208703.0 456655.0 0
215162.0 457023.0 0
211719.0 457680.0 0
213109.0 460211.0 0
218920.0 456054.0 0
220753.0 459634.0 0
223666.0 455668.0 0
226819.0 458882.0 0
234510.0 455350.0 0
230838.0 456921.0 0
233669.0 459472.0 0
237860.0 458660.0 0
241284.0 455656.0 0
242124.0 459003.0 0
245624.0 456780.0 0
248635.0 459257.0 0
250938.0 456274.0 0
255412.0 455609.0 0
256995.0 459580.0 0
258871.0 457314.0 0
262102.0 455967.0 0
268204.0 455874.0 0
265573.0 459436.0 0
270362.0 458956.0 0
274851.0 458038.0 0
278677.0 455539.0 0
282487.0 455346.0 0
280056.0 459678.0 0
284450.0 458518.0 0
287532.0 456963.0 0
291324.0 458396.0 0
294179.0 455730.0 0
294724.0 460213.0 0
297882.0 458307.0 0
301833.0 456954.0 0
305950.0 459341.0 0
310020.0 459603.0 0
312479.0 458175.0 0
316393.0 457716.0 0
321256.0 456203.0 0
325681.0 456770.0 0
327514.0 459892.0 0
329335.0 457110.0 0
332333.0 458269.0 0
336399.0 458116.0 0
339846.0 460093.0 0
342620.0 459953.0 0
344780.0 457558.0 0
347762.0 456631.0 0
346345.0 460465.0 0
352215.0 457419.0 0
349689.0 459398.0 0
356094.0 457027.0 0
354712.0 460061.0 0
359808.0 459552.0 0
364270.0 460430.0 0
367015.0 459144.0 0
369987.0 457611.0 0
373684.0 458207.0 0
370019.0 460742.0 0
377272.0 458273.0 0
379887.0 461069.0 0
380370.0 458489.0 0
382981.0 460750.0 0
384763.0 458072.0 0
387882.0 460667.0 0
390025.0 457824.0 0
393534.0 460163.0 0
396215.0 458552.0 0
398801.0 460529.0 0
399771.0 458077.0 0
402328.0 459913.0 0
405117.0 459582.0 0
408718.0 459048.0 0
408072.0 461759.0 0
411955.0 457905.0 0
415220.0 458060.0 0
412132.0 462068.0 0
419654.0 459453.0 0
416465.0 461682.0 0
423638.0 457972.0 0
423135.0 461536.0 0
429152.0 458187.0 0
426892.0 460331.0 0
429970.0 462540.0 0
431368.0 460183.0 0
434216.0 461353.0 0
57214.0 466615.0 0
60754.3 465115.0 0
63739.6 463201.0 0
64706.6 465831.0 0
67838.5 464002.0 0
67084.3 466589.0 0
70645.8 462746.0 0
70730.0 465840.0 0
73172.8 462649.0 0
73156.3 467246.0 0
75394.4 464837.0 0
78398.1 465657.0 0
83502.1 463172.0 0
81632.8 465978.0 0
87039.1 462963.0 0
85256.6 466755.0 0
88655.7 465550.0 0
91596.9 463930.0 0
92760.2 466643.0 0
94790.8 462884.0 0
97775.5 462961.0 0
95231.6 465159.0 0
98137.3 465716.0 0
101494.0 464089.0 0
104879.0 463315.0 0
100792.0 466521.0 0
104388.0 466489.0 0
108137.0 463873.0 0
107981.0 467192.0 0
110760.0 464015.0 0
113292.0 465009.0 0
116522.0 466001.0 0
121518.0 463161.0 0
124803.0 466133.0 0
126805.0 462603.0 0
130248.0 463817.0 0
133920.0 465663.0 0
137978.0 463503.0 0
138003.0 466858.0 0
140910.0 463494.0 0
141409.0 466595.0 0
144184.0 464578.0 0
146154.0 461928.0 0
149034.0 462576.0 0
147373.0 465980.0 0
152195.0 461489.0 0
150754.0 465729.0 0
154636.0 464703.0 0
156992.0 462286.0 0
159214.0 463910.0 0
163310.0 461886.0 0
162110.0 466456.0 0
169299.0 463110.0 0
166087.0 464321.0 0
172866.0 463260.0 0
176944.0 463777.0 0
182171.0 462160.0 0
186326.0 463233.0 0
190847.0 463057.0 0
196079.0 464432.0 0
201009.0 462116.0 0
204385.0 464106.0 0
209820.0 460671.0 0
207585.0 463007.0 0
209854.0 464434.0 0
212772.0 463499.0 0
216777.0 460956.0 0
219634.0 463845.0 0
223574.0 462146.0 0
227836.0 462937.0 0
230167.0 460144.0 0
231712.0 462995.0 0
235912.0 462998.0 0
240586.0 463498.0 0
245109.0 461525.0 0
247958.0 463173.0 0
253504.0 459923.0 0
250931.0 462377.0 0
252903.0 465101.0 0
256739.0 463709.0 0
260941.0 460908.0 0
264000.0 464437.0 0
268849.0 464110.0 0
272930.0 461926.0 0
276717.0 463112.0 0
284662.0 462568.0 0
288380.0 460865.0 0
288567.0 465455.0 0
291822.0 462655.0 0
294828.0 464123.0 0
297994.0 462555.0 0
300659.0 460444.0 0
302821.0 462122.0 0
301772.0 465760.0 0
306496.0 464442.0 0
313386.0 461392.0 0
310539.0 463094.0 0
316169.0 462095.0 0
319463.0 460905.0 0
323645.0 461315.0 0
319940.0 465639.0 0
327580.0 464121.0 0
330766.0 461723.0 0
334017.0 461227.0 0
330930.0 465841.0 0
333149.0 463986.0 0
337064.0 462667.0 0
340651.0 462604.0 0
340060.0 466073.0 0
344144.0 463802.0 0
348540.0 463309.0 0
352262.0 462234.0 0
351518.0 465976.0 0
357429.0 462088.0 0
359643.0 464349.0 0
355377.0 464501.0 0
358056.0 466496.0 0
362185.0 462354.0 0
362015.0 466138.0 0
366998.0 461997.0 0
365142.0 464684.0 0
373674.0 461781.0 0
370279.0 463835.0 0
373917.0 465366.0 0
377092.0 462013.0 0
377874.0 465754.0 0
381581.0 464389.0 0
384819.0 467032.0 0
385422.0 462998.0 0
388881.0 466145.0 0
391401.0 463122.0 0
394643.0 465594.0 0
396786.0 462841.0 0
399077.0 464885.0 0
401877.0 462510.0 0
405169.0 462218.0 0
402578.0 466334.0 0
405867.0 464534.0 0
408880.0 463925.0 0
409654.0 466543.0 0
412608.0 465004.0 0
415537.0 465357.0 0
419893.0 464512.0 0
425236.0 464586.0 0
427736.0 463353.0 0
428323.0 466245.0 0
431659.0 465621.0 0
434362.0 464380.0 0
436358.0 467084.0 0
437230.0 463484.0 0
439787.0 465815.0 0
443270.0 467615.0 0
51398.6 469832.0 0
49109.9 472401.0 0
52885.0 472200.0 0
54662.1 468895.0 0
56838.5 470834.0 0
59475.3 468305.0 0
60177.1 471150.0 0
62929.9 467748.0 0
63318.3 470500.0 0
65875.5 468795.0 0
67092.7 470464.0 0
69063.2 467796.0 0
70492.5 470396.0 0
73751.2 472106.0 0
75327.5 469253.0 0
78489.0 469376.0 0
82151.9 468865.0 0
83710.8 471961.0 0
86684.7 469621.0 0
90078.3 468605.0 0
92213.6 470908.0 0
95490.6 468511.0 0
95154.7 471775.0 0
98814.4 469369.0 0
102812.0 469773.0 0
107183.0 470777.0 0
111373.0 467532.0 0
111152.0 471910.0 0
114564.0 468917.0 0
120147.0 467972.0 0
117287.0 470741.0 0
122874.0 471840.0 0
128620.0 466746.0 0
126940.0 469864.0 0
131171.0 469442.0 0
135341.0 470228.0 0
139610.0 470241.0 0
143870.0 468956.0 0
148575.0 469619.0 0
152379.0 468658.0 0
157078.0 468169.0 0
160497.0 469645.0 0
163498.0 470235.0 0
165819.0 467655.0 0
169567.0 466728.0 0
167137.0 471183.0 0
173362.0 466556.0 0
171550.0 470159.0 0
179281.0 466815.0 0
175656.0 468635.0 0
177842.0 470482.0 0
183420.0 466511.0 0
180725.0 469962.0 0
184860.0 470487.0 0
187562.0 466643.0 0
188653.0 469820.0 0
191654.0 467502.0 0
194368.0 469318.0 0
197213.0 469045.0 0
200788.0 466912.0 0
203156.0 470437.0 0
204510.0 467830.0 0
207473.0 466620.0 0
211223.0 468292.0 0
214973.0 470356.0 0
215943.0 465782.0 0
219052.0 468587.0 0
221643.0 466451.0 0
225027.0 466561.0 0
229247.0 466869.0 0
233256.0 466860.0 0
237347.0 467425.0 0
241535.0 468878.0 0
249618.0 466062.0 0
245354.0 466403.0 0
251835.0 468550.0 0
255016.0 468550.0 0
258647.0 468146.0 0
260527.0 465326.0 0
262319.0 468321.0 0
266009.0 468691.0 0
270408.0 469615.0 0
273684.0 466406.0 0
277966.0 468026.0 0
280986.0 464969.0 0
282427.0 469203.0 0
284943.0 466826.0 0
287615.0 470347.0 0
292446.0 467586.0 0
297300.0 467027.0 0
305857.0 468504.0 0
308689.0 470559.0 0
314715.0 466185.0 0
310130.0 467462.0 0
311208.0 470668.0 0
313857.0 470288.0 0
318820.0 470630.0 0
324144.0 465836.0 0
323421.0 469422.0 0
327367.0 468194.0 0
331473.0 469263.0 0
335597.0 467373.0 0
343301.0 468125.0 0
339851.0 469677.0 0
342893.0 471056.0 0
347513.0 466894.0 0
346499.0 470494.0 0
351500.0 470517.0 0
355135.0 467930.0 0
356976.0 470702.0 0
360375.0 469394.0 0
365405.0 469044.0 0
368582.0 466676.0 0
369142.0 470639.0 0
371711.0 468039.0 0
375237.0 469172.0 0
378668.0 470289.0 0
381551.0 468657.0 0
381773.0 472268.0 0
385262.0 471058.0 0
389206.0 470757.0 0
392753.0 468551.0 0
393833.0 471680.0 0
396573.0 469001.0 0
397691.0 466781.0 0
400340.0 469489.0 0
403559.0 470741.0 0
406592.0 468653.0 0
407871.0 472396.0 0
410884.0 470613.0 0
412554.0 468027.0 0
415834.0 468639.0 0
420422.0 468887.0 0
424471.0 467476.0 0
423897.0 472352.0 0
427518.0 469947.0 0
431628.0 469282.0 0
435053.0 468709.0 0
433134.0 472829.0 0
436705.0 471628.0 0
439706.0 469623.0 0
441703.0 472721.0 0
444198.0 470345.0 0
446590.0 468760.0 0
448807.0 471391.0 0
43104.6 477027.0 0
45820.0 473728.0 0
47093.6 476432.0 0
50103.2 475670.0 0
53437.4 475511.0 0
56145.8 473866.0 0
57576.8 477050.0 0
60545.7 474577.0 0
61571.9 477786.0 0
64990.0 473711.0 0
69016.5 473840.0 0
65329.8 477845.0 0
72579.2 475113.0 0
76835.3 473214.0 0
75705.5 476417.0 0
80176.7 472815.0 0
79215.7 476463.0 0
82238.3 475339.0 0
86212.0 474375.0 0
88401.4 472349.0 0
90965.6 473794.0 0
89017.8 477110.0 0
92489.6 476898.0 0
94176.9 474574.0 0
98072.3 472513.0 0
97361.6 475890.0 0
101100.0 473055.0 0
101238.0 476802.0 0
105157.0 474283.0 0
108524.0 474749.0 0
107011.0 477001.0 0
111937.0 476022.0 0
114932.0 472520.0 0
118559.0 472866.0 0
115903.0 475583.0 0
120403.0 476832.0 0
127731.0 473302.0 0
131917.0 473454.0 0
136167.0 473750.0 0
144730.0 473075.0 0
140203.0 473937.0 0
148250.0 473079.0 0
150873.0 471718.0 0
154056.0 471599.0 0
150613.0 474961.0 0
157983.0 472162.0 0
155147.0 476030.0 0
161337.0 472149.0 0
160210.0 475218.0 0
163825.0 473565.0 0
166335.0 475227.0 0
169704.0 474342.0 0
174468.0 473390.0 0
178483.0 473804.0 0
181827.0 472864.0 0
183667.0 475415.0 0
187595.0 473727.0 0
191478.0 471785.0 0
199839.0 471618.0 0
195392.0 473530.0 0
203167.0 473980.0 0
207027.0 471130.0 0
211110.0 474220.0 0
215066.0 474034.0 0
218776.0 473374.0 0
222730.0 470897.0 0
226872.0 470724.0 0
225274.0 474047.0 0
228726.0 474494.0 0
230735.0 470763.0 0
234307.0 470905.0 0
231981.0 473774.0 0
235317.0 475127.0 0
238130.0 471912.0 0
241599.0 473209.0 0
244937.0 471794.0 0
248686.0 470204.0 0
252552.0 472599.0 0
256942.0 472083.0 0
263559.0 472231.0 0
260289.0 471262.0 0
267600.0 473263.0 0
271831.0 474355.0 0
274728.0 471042.0 0
275734.0 474931.0 0
279328.0 472693.0 0
282605.0 475766.0 0
283804.0 472329.0 0
286022.0 474261.0 0
291604.0 471658.0 0
289705.0 475251.0 0
293619.0 474630.0 0
296229.0 471569.0 0
299214.0 474484.0 0
301688.0 471302.0 0
306223.0 472332.0 0
304797.0 475869.0 0
310509.0 474848.0 0
315441.0 473518.0 0
323631.0 473744.0 0
327531.0 471988.0 0
331381.0 472860.0 0
333549.0 476351.0 0
336085.0 472259.0 0
340614.0 473592.0 0
345083.0 473818.0 0
348597.0 473455.0 0
352065.0 475324.0 0
355397.0 473620.0 0
359614.0 474635.0 0
363263.0 472777.0 0
364098.0 476996.0 0
367282.0 473517.0 0
372624.0 471820.0 0
370206.0 473831.0 0
373101.0 475986.0 0
376446.0 473285.0 0
379756.0 474130.0 0
381054.0 477033.0 0
384454.0 475174.0 0
388241.0 474389.0 0
391652.0 473456.0 0
391616.0 476849.0 0
395622.0 475827.0 0
397122.0 472462.0 0
399904.0 476518.0 0
400620.0 473300.0 0
404389.0 473733.0 0
403892.0 477300.0 0
410906.0 474558.0 0
407969.0 476044.0 0
414497.0 472464.0 0
414467.0 476234.0 0
418568.0 473366.0 0
417505.0 477117.0 0
421604.0 474953.0 0
424375.0 476213.0 0
428440.0 473436.0 0
426409.0 475159.0 0
435647.0 476080.0 0
431252.0 476569.0 0
438632.0 474655.0 0
440034.0 477761.0 0
445926.0 474002.0 0
443134.0 476830.0 0
452015.0 473228.0 0
450875.0 476010.0 0
448221.0 477855.0 0
455326.0 475051.0 0
453661.0 477981.0 0
458345.0 476686.0 0
32609.9 482578.0 0
35403.4 480345.0 0
36287.3 483154.0 0
39009.0 479199.0 0
38757.3 482936.0 0
43014.3 482123.0 0
46766.1 479605.0 0
50470.2 479112.0 0
48845.4 482439.0 0
54298.3 478181.0 0
57616.7 480138.0 0
53417.9 482008.0 0
60715.3 480475.0 0
64895.1 481956.0 0
69434.8 477894.0 0
73264.6 479317.0 0
69053.8 481365.0 0
72144.5 482871.0 0
77116.0 479796.0 0
80815.4 479208.0 0
79329.5 482360.0 0
83125.8 481909.0 0
84257.0 477715.0 0
86960.3 480900.0 0
91507.5 480481.0 0
94795.7 478316.0 0
98095.8 479731.0 0
95080.5 481390.0 0
102265.0 481655.0 0
104743.0 478067.0 0
106824.0 479908.0 0
109072.0 477378.0 0
110538.0 480586.0 0
114089.0 479165.0 0
117537.0 480532.0 0
122477.0 480887.0 0
125148.0 476761.0 0
126412.0 481002.0 0
129529.0 477514.0 0
133906.0 477712.0 0
131112.0 481302.0 0
137900.0 477612.0 0
135371.0 481261.0 0
142290.0 477391.0 0
139656.0 480952.0 0
144383.0 480452.0 0
146577.0 476632.0 0
149604.0 479209.0 0
153936.0 480760.0 0
159123.0 479285.0 0
163339.0 477247.0 0
167626.0 478950.0 0
171987.0 477611.0 0
176435.0 479056.0 0
180367.0 476576.0 0
181707.0 480346.0 0
186132.0 478394.0 0
191085.0 476912.0 0
199395.0 476421.0 0
195443.0 478824.0 0
202858.0 478844.0 0
206415.0 476115.0 0
206257.0 480693.0 0
208945.0 478629.0 0
212201.0 479651.0 0
215319.0 477246.0 0
218733.0 478030.0 0
222461.0 476007.0 0
226352.0 478278.0 0
231651.0 477977.0 0
236447.0 479092.0 0
239467.0 476053.0 0
241296.0 479942.0 0
243585.0 475900.0 0
248182.0 475298.0 0
245491.0 478993.0 0
252096.0 476836.0 0
255756.0 475922.0 0
258419.0 479033.0 0
260272.0 475468.0 0
264588.0 476738.0 0
268945.0 478107.0 0
273772.0 479315.0 0
278658.0 477517.0 0
282244.0 480250.0 0
286291.0 478128.0 0
289956.0 480355.0 0
293314.0 478142.0 0
297145.0 476478.0 0
296352.0 479820.0 0
299585.0 479816.0 0
301171.0 476537.0 0
303645.0 480550.0 0
307810.0 478968.0 0
314714.0 477721.0 0
319507.0 476466.0 0
321406.0 481343.0 0
323786.0 478871.0 0
328646.0 477210.0 0
333786.0 481007.0 0
338238.0 477948.0 0
343286.0 477042.0 0
342032.0 481374.0 0
348246.0 477137.0 0
345836.0 480147.0 0
352869.0 479326.0 0
356458.0 477338.0 0
356427.0 481021.0 0
360562.0 479709.0 0
368926.0 477757.0 0
365578.0 480949.0 0
369680.0 481767.0 0
373943.0 480620.0 0
377192.0 477049.0 0
378574.0 480635.0 0
385736.0 479101.0 0
382320.0 480102.0 0
388495.0 477505.0 0
390287.0 481610.0 0
394023.0 480063.0 0
398068.0 480146.0 0
402119.0 480385.0 0
404726.0 480003.0 0
407519.0 479683.0 0
411862.0 478905.0 0
420567.0 478124.0 0
415988.0 480782.0 0
419595.0 481595.0 0
423862.0 479598.0 0
427805.0 478613.0 0
433182.0 480027.0 0
436467.0 479000.0 0
437813.0 481659.0 0
444961.0 480135.0 0
441255.0 481268.0 0
451109.0 481489.0 0
456568.0 478724.0 0
455366.0 481683.0 0
457946.0 480203.0 0
461128.0 479309.0 0
458545.0 482750.0 0
464847.0 481245.0 0
468391.0 482090.0 0
26196.9 486600.0 0
29152.1 484192.0 0
29481.6 487235.0 0
33495.0 486392.0 0
37562.5 486085.0 0
40239.9 485766.0 0
43612.7 486352.0 0
46376.4 483648.0 0
47166.2 486777.0 0
50964.8 485663.0 0
57006.7 483815.0 0
55061.2 487168.0 0
60750.3 484829.0 0
58273.0 488171.0 0
65367.6 486506.0 0
68110.9 483896.0 0
70200.8 486407.0 0
75687.0 482877.0 0
74192.5 486371.0 0
77448.8 485559.0 0
81604.4 485197.0 0
85613.7 484502.0 0
89297.1 483748.0 0
93175.4 484896.0 0
88495.0 486885.0 0
97825.4 483692.0 0
100071.0 486150.0 0
103363.0 485787.0 0
106710.0 483419.0 0
110137.0 484530.0 0
114129.0 483457.0 0
116406.0 487147.0 0
119761.0 484011.0 0
123938.0 484627.0 0
128284.0 484704.0 0
132904.0 484727.0 0
137192.0 484806.0 0
141819.0 484750.0 0
147114.0 483089.0 0
150777.0 483102.0 0
152959.0 484374.0 0
157378.0 483887.0 0
163295.0 482124.0 0
161012.0 486497.0 0
168034.0 483364.0 0
171535.0 481677.0 0
171128.0 486082.0 0
174691.0 483477.0 0
178795.0 483820.0 0
184858.0 482407.0 0
182623.0 484852.0 0
188608.0 481797.0 0
186068.0 485388.0 0
192438.0 481484.0 0
194887.0 483133.0 0
198763.0 481847.0 0
199907.0 485856.0 0
203044.0 483214.0 0
209043.0 481697.0 0
206891.0 484765.0 0
211733.0 484478.0 0
216276.0 482097.0 0
221522.0 481409.0 0
225864.0 482905.0 0
229296.0 481266.0 0
229594.0 485152.0 0
233535.0 482870.0 0
237809.0 482760.0 0
240978.0 484681.0 0
245002.0 482860.0 0
249550.0 480674.0 0
248325.0 485366.0 0
254495.0 480146.0 0
253099.0 484697.0 0
258576.0 484234.0 0
262227.0 480377.0 0
264719.0 485160.0 0
266254.0 480932.0 0
269951.0 483309.0 0
274265.0 483833.0 0
277907.0 482273.0 0
282030.0 485258.0 0
286326.0 482819.0 0
290730.0 485397.0 0
293940.0 482339.0 0
297366.0 482690.0 0
300513.0 484021.0 0
304291.0 485157.0 0
307807.0 483210.0 0
312119.0 481319.0 0
317823.0 481279.0 0
315581.0 485544.0 0
320859.0 485485.0 0
324167.0 483335.0 0
326985.0 481420.0 0
327989.0 485595.0 0
330122.0 482205.0 0
331938.0 485296.0 0
338335.0 483162.0 0
335391.0 484915.0 0
342145.0 485629.0 0
349649.0 482104.0 0
345903.0 483857.0 0
353844.0 483964.0 0
358138.0 484229.0 0
362594.0 484366.0 0
367511.0 485307.0 0
372718.0 485327.0 0
377044.0 483972.0 0
381281.0 483476.0 0
385349.0 482937.0 0
388255.0 485578.0 0
395754.0 483930.0 0
392102.0 486339.0 0
400529.0 484252.0 0
399483.0 487722.0 0
405464.0 483514.0 0
410322.0 482800.0 0
409404.0 486728.0 0
413355.0 483044.0 0
413746.0 486643.0 0
416403.0 484224.0 0
419323.0 485238.0 0
417255.0 487492.0 0
423007.0 483364.0 0
422694.0 486872.0 0
426514.0 482524.0 0
429836.0 482134.0 0
426841.0 486242.0 0
431003.0 485778.0 0
434104.0 483431.0 0
437586.0 485185.0 0
440581.0 484693.0 0
439115.0 488516.0 0
443609.0 484498.0 0
441935.0 487471.0 0
447395.0 483860.0 0
449605.0 486783.0 0
452800.0 485712.0 0
456209.0 485099.0 0
458959.0 486826.0 0
461542.0 484319.0 0
466181.0 485154.0 0
462927.0 488047.0 0
465543.0 489349.0 0
470655.0 484772.0 0
474008.0 486054.0 0
17391.1 491499.0 0
14593.0 493596.0 0
19050.9 489675.0 0
22763.8 489822.0 0
27560.0 489990.0 0
30563.3 489554.0 0
30197.1 492714.0 0
33566.3 490575.0 0
37481.7 489807.0 0
40980.6 488837.0 0
38050.6 493549.0 0
41156.2 492212.0 0
44681.2 489992.0 0
48837.4 489428.0 0
51977.2 489494.0 0
47544.6 492822.0 0
51285.3 492420.0 0
55291.7 491298.0 0
61974.1 488578.0 0
59352.8 491296.0 0
64138.8 491201.0 0
67653.9 489605.0 0
72056.0 490054.0 0
68826.9 492680.0 0
75547.8 489224.0 0
74316.4 492174.0 0
77375.2 492603.0 0
79463.7 488723.0 0
82179.6 491655.0 0
84399.1 487946.0 0
87898.0 491615.0 0
91784.5 488409.0 0
96563.1 487897.0 0
93697.1 491183.0 0
97565.7 491793.0 0
101569.0 489805.0 0
106886.0 488073.0 0
111653.0 487545.0 0
109353.0 491792.0 0
113518.0 491029.0 0
118595.0 491264.0 0
121495.0 488012.0 0
122791.0 492303.0 0
125392.0 488311.0 0
130299.0 488529.0 0
134914.0 488473.0 0
138866.0 488132.0 0
142182.0 490128.0 0
145321.0 486929.0 0
149783.0 486716.0 0
146643.0 490488.0 0
153936.0 487607.0 0
150624.0 490906.0 0
157596.0 488344.0 0
160613.0 490771.0 0
165665.0 487551.0 0
169253.0 490612.0 0
173178.0 489633.0 0
176013.0 487094.0 0
176889.0 491684.0 0
180572.0 488341.0 0
185667.0 489554.0 0
190077.0 491256.0 0
190920.0 486456.0 0
194119.0 490428.0 0
196181.0 486335.0 0
198667.0 489480.0 0
203242.0 487843.0 0
209032.0 487631.0 0
215137.0 486474.0 0
212240.0 489366.0 0
218556.0 485947.0 0
216517.0 489989.0 0
220277.0 489797.0 0
222492.0 486245.0 0
224590.0 490688.0 0
226194.0 486876.0 0
228898.0 489547.0 0
232853.0 488116.0 0
236779.0 486519.0 0
240053.0 489137.0 0
244332.0 487158.0 0
247640.0 490189.0 0
251201.0 488034.0 0
255718.0 490084.0 0
261105.0 489655.0 0
265316.0 490242.0 0
268841.0 488364.0 0
273206.0 487370.0 0
277144.0 486288.0 0
279772.0 488851.0 0
283425.0 490168.0 0
286381.0 487192.0 0
286577.0 490211.0 0
290067.0 490405.0 0
296208.0 487247.0 0
301473.0 488035.0 0
307823.0 486905.0 0
305523.0 489085.0 0
309481.0 490128.0 0
311138.0 486397.0 0
314102.0 490816.0 0
318741.0 489326.0 0
324490.0 486912.0 0
322978.0 490560.0 0
326712.0 489312.0 0
334541.0 487853.0 0
331041.0 489770.0 0
338847.0 488039.0 0
335859.0 491517.0 0
343916.0 490669.0 0
345522.0 487072.0 0
350054.0 487629.0 0
353613.0 491063.0 0
359905.0 487658.0 0
355891.0 488018.0 0
359408.0 490781.0 0
364109.0 489861.0 0
370040.0 489619.0 0
375980.0 487456.0 0
373994.0 489678.0 0
379910.0 487208.0 0
378007.0 491655.0 0
384554.0 487611.0 0
382169.0 491084.0 0
388931.0 489719.0 0
392883.0 491101.0 0
395922.0 488461.0 0
401660.0 491091.0 0
404353.0 488133.0 0
408118.0 490543.0 0
415925.0 490820.0 0
412078.0 490767.0 0
420273.0 490127.0 0
424946.0 490169.0 0
429992.0 490421.0 0
434626.0 488304.0 0
438009.0 491111.0 0
441932.0 491015.0 0
445372.0 488382.0 0
445544.0 492015.0 0
448912.0 489891.0 0
451961.0 488745.0 0
448586.0 493165.0 0
455773.0 489640.0 0
452242.0 491742.0 0
460385.0 489923.0 0
458897.0 493283.0 0
468154.0 491784.0 0
463702.0 492679.0 0
468727.0 488118.0 0
471362.0 493452.0 0
472230.0 489408.0 0
476717.0 488570.0 0
474729.0 491965.0 0
479980.0 489546.0 0
482406.0 491611.0 0
478461.0 493453.0 0
4964.4 499288.0 0
8166.03 497261.0 0
11379.3 495696.0 0
15602.3 497576.0 0
19062.1 494019.0 0
20473.3 497948.0 0
22752.5 494274.0 0
26362.3 493459.0 0
24951.3 497718.0 0
29653.9 497191.0 0
34158.0 494154.0 0
36616.8 496847.0 0
33402.3 498288.0 0
40714.0 497276.0 0
43689.7 493878.0 0
45847.0 496746.0 0
49821.5 496291.0 0
53433.3 494876.0 0
57277.9 494292.0 0
55410.7 497313.0 0
61318.0 494280.0 0
59160.1 497657.0 0
65589.9 494840.0 0
62971.0 497507.0 0
69220.2 496152.0 0
72001.1 493932.0 0
72405.3 497910.0 0
74617.2 494622.0 0
76486.0 497019.0 0
79866.6 494853.0 0
84148.2 495381.0 0
88073.9 497168.0 0
91638.9 494484.0 0
95657.8 495124.0 0
100473.0 495026.0 0
105016.0 492940.0 0
104295.0 496865.0 0
108075.0 496177.0 0
111671.0 495074.0 0
115448.0 494110.0 0
114332.0 497345.0 0
119346.0 496693.0 0
127302.0 492524.0 0
124426.0 497060.0 0
132529.0 492688.0 0
129799.0 497115.0 0
137528.0 492678.0 0
134764.0 496999.0 0
144391.0 493218.0 0
141505.0 494360.0 0
147538.0 494015.0 0
151281.0 494440.0 0
155309.0 492352.0 0
159149.0 495620.0 0
164490.0 493271.0 0
168755.0 494338.0 0
172757.0 493663.0 0
181466.0 493705.0 0
187147.0 494564.0 0
192215.0 495080.0 0
196853.0 493325.0 0
201776.0 492309.0 0
207029.0 491412.0 0
208997.0 495908.0 0
211250.0 493027.0 0
214194.0 492812.0 0
217816.0 495031.0 0
221760.0 493364.0 0
225013.0 495368.0 0
227731.0 493101.0 0
231338.0 492641.0 0
235986.0 491842.0 0
240023.0 493512.0 0
243309.0 491858.0 0
246400.0 494419.0 0
249904.0 494759.0 0
251590.0 491685.0 0
253582.0 494396.0 0
258834.0 494008.0 0
263241.0 494843.0 0
267910.0 493117.0 0
271958.0 492043.0 0
276368.0 491221.0 0
274973.0 495560.0 0
278797.0 495194.0 0
280148.0 492207.0 0
282580.0 494280.0 0
286431.0 493053.0 0
289916.0 496091.0 0
294365.0 492768.0 0
299417.0 492012.0 0
303395.0 491830.0 0
307030.0 492920.0 0
311006.0 494224.0 0
315175.0 495948.0 0
318765.0 493414.0 0
322962.0 495228.0 0
327740.0 493604.0 0
332878.0 494593.0 0
339683.0 492249.0 0
337547.0 495229.0 0
341345.0 495201.0 0
345257.0 495087.0 0
349786.0 493310.0 0
354710.0 494522.0 0
356550.0 491862.0 0
358404.0 494314.0 0
361043.0 493308.0 0
363639.0 494503.0 0
361095.0 496590.0 0
368037.0 494155.0 0
373527.0 494198.0 0
378098.0 495572.0 0
385727.0 492317.0 0
382021.0 494807.0 0
389770.0 493707.0 0
386433.0 496113.0 0
394304.0 494927.0 0
397718.0 492223.0 0
399039.0 496436.0 0
402057.0 494524.0 0
405669.0 493203.0 0
404392.0 497841.0 0
410145.0 493877.0 0
407560.0 496064.0 0
409496.0 496755.0 0
414299.0 494022.0 0
412401.0 496923.0 0
416426.0 496907.0 0
418319.0 494019.0 0
421041.0 497021.0 0
422898.0 493661.0 0
426639.0 497520.0 0
427027.0 493328.0 0
430804.0 495122.0 0
434554.0 492727.0 0
435095.0 496815.0 0
439389.0 494360.0 0
438670.0 498014.0 0
443447.0 493839.0 0
446462.0 495266.0 0
443003.0 497458.0 0
451611.0 495960.0 0
455311.0 494104.0 0
457268.0 498471.0 0
461227.0 496248.0 0
464583.0 496795.0 0
467747.0 495337.0 0
471260.0 497893.0 0
474164.0 494941.0 0
476545.0 497956.0 0
482198.0 495402.0 0
480728.0 498757.0 0
485437.0 493935.0 0
485039.0 498591.0 0
488836.0 496734.0 0
492765.0 498850.0 0
1785.81 500025.0 0
11659.0 499474.0 0
7866.64 501438.0 0
14174.0 501700.0 0
11632.1 503561.0 0
17994.0 501622.0 0
22926.5 501857.0 0
27428.7 501868.0 0
31613.7 501782.0 0
36194.2 500714.0 0
40126.0 503497.0 0
44049.1 500210.0 0
45827.1 503138.0 0
47896.5 499643.0 0
51976.2 499469.0 0
49416.8 502635.0 0
56044.3 500852.0 0
59033.4 500959.0 0
61922.2 500931.0 0
66723.2 499575.0 0
67429.8 503423.0 0
70902.1 501778.0 0
77692.4 499759.0 0
75228.2 501875.0 0
80579.3 498203.0 0
79947.5 502411.0 0
84341.8 499751.0 0
88272.2 501274.0 0
92427.1 498647.0 0
97276.4 498526.0 0
94911.9 501477.0 0
97964.5 502520.0 0
101435.0 499494.0 0
106478.0 500736.0 0
110977.0 499248.0 0
115622.0 501252.0 0
121405.0 501806.0 0
126811.0 501815.0 0
132192.0 501538.0 0
139006.0 497394.0 0
136349.0 500223.0 0
144082.0 497797.0 0
139883.0 501456.0 0
149165.0 497268.0 0
153982.0 498003.0 0
158314.0 500715.0 0
162644.0 498523.0 0
166560.0 497044.0 0
166345.0 501223.0 0
170753.0 498161.0 0
173709.0 501080.0 0
176534.0 497063.0 0
183841.0 496749.0 0
181286.0 499754.0 0
185555.0 498793.0 0
189081.0 499044.0 0
192565.0 499704.0 0
199805.0 496190.0 0
195902.0 497943.0 0
200072.0 500914.0 0
204607.0 497221.0 0
209105.0 500700.0 0
212985.0 496932.0 0
216171.0 499874.0 0
220177.0 499976.0 0
222066.0 496860.0 0
224915.0 499901.0 0
229130.0 497271.0 0
233258.0 495811.0 0
233155.0 500304.0 0
237582.0 497465.0 0
242906.0 496994.0 0
247607.0 498314.0 0
252030.0 498038.0 0
256161.0 496445.0 0
259943.0 498966.0 0
264378.0 499691.0 0
267100.0 497158.0 0
270902.0 496392.0 0
273600.0 499904.0 0
277482.0 498728.0 0
281655.0 498556.0 0
285508.0 497009.0 0
287328.0 500907.0 0
291871.0 501148.0 0
293917.0 497463.0 0
298211.0 496903.0 0
295536.0 500288.0 0
303347.0 496576.0 0
308028.0 496765.0 0
306935.0 500941.0 0
311862.0 499188.0 0
319201.0 497993.0 0
316411.0 501641.0 0
323274.0 499824.0 0
326392.0 497729.0 0
330470.0 498180.0 0
335494.0 499081.0 0
339839.0 498690.0 0
343861.0 498629.0 0
348235.0 498113.0 0
352477.0 497958.0 0
350513.0 501342.0 0
357201.0 498208.0 0
365400.0 498697.0 0
361302.0 500491.0 0
370215.0 498592.0 0
373334.0 498345.0 0
373803.0 501676.0 0
376256.0 498229.0 0
379976.0 498591.0 0
377736.0 501535.0 0
383685.0 498753.0 0
390793.0 497852.0 0
387224.0 500982.0 0
395715.0 499706.0 0
400781.0 500830.0 0
404839.0 502092.0 0
408781.0 499869.0 0
413974.0 500279.0 0
418696.0 500748.0 0
423670.0 501513.0 0
431710.0 499144.0 0
428782.0 502141.0 0
436095.0 500581.0 0
440329.0 501204.0 0
444840.0 501599.0 0
447847.0 498678.0 0
448845.0 502513.0 0
452356.0 500310.0 0
455938.0 503307.0 0
462430.0 499854.0 0
460235.0 502927.0 0
466893.0 499429.0 0
465284.0 503221.0 0
469898.0 502034.0 0
474371.0 501609.0 0
478966.0 502673.0 0
488921.0 501937.0 0
483977.0 502981.0 0
493721.0 502095.0 0
497305.0 500010.0 0
497327.0 503591.0 0
2681.67 503137.0 0
2507.89 507128.0 0
7178.85 505720.0 0
15606.0 505362.0 0
11968.2 506977.0 0
15158.6 509746.0 0
20450.0 505261.0 0
24986.9 505765.0 0
22203.4 508810.0 0
29320.0 505774.0 0
34256.1 504937.0 0
31924.6 509089.0 0
37453.9 508469.0 0
43842.9 506742.0 0
48454.3 506326.0 0
53378.3 504679.0 0
56416.5 508373.0 0
58548.3 504297.0 0
60350.8 507484.0 0
63610.8 504499.0 0
67622.9 506786.0 0
69566.1 504531.0 0
72519.5 506069.0 0
77019.7 505958.0 0
81004.6 506361.0 0
84578.2 503938.0 0
88306.4 505743.0 0
91599.4 503046.0 0
92433.8 507005.0 0
94885.3 504252.0 0
97272.4 507099.0 0
101968.0 503973.0 0
106474.0 505737.0 0
110742.0 503396.0 0
118332.0 504266.0 0
114818.0 506235.0 0
120366.0 506440.0 0
124338.0 506091.0 0
129731.0 507104.0 0
136015.0 505137.0 0
143830.0 502935.0 0
140768.0 506222.0 0
148978.0 501886.0 0
151055.0 506369.0 0
154151.0 503358.0 0
158021.0 505617.0 0
162051.0 503371.0 0
165832.0 505845.0 0
170291.0 503580.0 0
177069.0 502954.0 0
181218.0 505212.0 0
185697.0 503109.0 0
190418.0 503669.0 0
195651.0 503223.0 0
200264.0 505148.0 0
204361.0 503066.0 0
208216.0 505817.0 0
213122.0 501206.0 0
212081.0 504215.0 0
217300.0 505447.0 0
222342.0 503401.0 0
225545.0 505620.0 0
228997.0 502659.0 0
233347.0 505177.0 0
237029.0 502724.0 0
240929.0 501479.0 0
243491.0 505913.0 0
244924.0 501120.0 0
249619.0 503198.0 0
254345.0 506009.0 0
255352.0 501140.0 0
257865.0 504029.0 0
262046.0 504021.0 0
269117.0 501091.0 0
265751.0 502641.0 0
272875.0 505001.0 0
276449.0 502631.0 0
279440.0 501710.0 0
279083.0 505571.0 0
283143.0 503365.0 0
287449.0 506234.0 0
292056.0 505441.0 0
298847.0 501416.0 0
295766.0 503868.0 0
302612.0 501813.0 0
299874.0 505385.0 0
310079.0 504315.0 0
313238.0 502737.0 0
314247.0 506102.0 0
319049.0 506209.0 0
320349.0 501991.0 0
323732.0 504043.0 0
327387.0 501761.0 0
332188.0 503060.0 0
336996.0 503835.0 0
342259.0 503267.0 0
347078.0 501651.0 0
346927.0 504728.0 0
354259.0 502334.0 0
351043.0 505868.0 0
358113.0 502730.0 0
364317.0 502765.0 0
361294.0 504787.0 0
365460.0 506335.0 0
368814.0 503070.0 0
372751.0 505609.0 0
377493.0 505722.0 0
381978.0 503042.0 0
385375.0 504143.0 0
381376.0 506936.0 0
384765.0 506939.0 0
388701.0 505627.0 0
392220.0 502872.0 0
397490.0 504907.0 0
404811.0 505564.0 0
402114.0 504450.0 0
407596.0 503899.0 0
409307.0 506746.0 0
411571.0 503389.0 0
416406.0 504432.0 0
413315.0 507388.0 0
420960.0 505155.0 0
425852.0 505647.0 0
430639.0 506514.0 0
433261.0 503030.0 0
435047.0 507193.0 0
437651.0 504567.0 0
442334.0 505821.0 0
446694.0 504993.0 0
446640.0 508375.0 0
449635.0 506341.0 0
451835.0 503966.0 0
453584.0 507078.0 0
462241.0 506730.0 0
458121.0 506779.0 0
466083.0 507537.0 0
472789.0 504848.0 0
469337.0 505958.0 0
473202.0 508345.0 0
476566.0 505617.0 0
476839.0 509019.0 0
481724.0 507575.0 0
487637.0 506464.0 0
492503.0 505522.0 0
497394.0 507371.0 0
2071.61 510726.0 0
9444.26 508544.0 0
6374.79 510484.0 0
11314.5 510796.0 0
14166.9 513189.0 0
18419.6 508536.0 0
26317.8 510656.0 0
30287.7 514074.0 0
34853.4 512342.0 0
41591.4 510240.0 0
46593.3 510270.0 0
51746.3 509400.0 0
55079.7 512453.0 0
59622.6 510962.0 0
63987.6 509189.0 0
63637.4 513320.0 0
69575.9 511646.0 0
75008.5 509692.0 0
79637.0 510396.0 0
84613.3 508501.0 0
88761.1 509972.0 0
93579.2 511145.0 0
98323.8 511465.0 0
102005.0 508602.0 0
105962.0 510311.0 0
110161.0 508037.0 0
113578.0 511112.0 0
118169.0 509984.0 0
122807.0 510320.0 0
134236.0 509751.0 0
138313.0 509536.0 0
142006.0 510166.0 0
146117.0 507629.0 0
154333.0 507955.0 0
150600.0 510782.0 0
157572.0 509942.0 0
161749.0 508035.0 0
165593.0 510268.0 0
169712.0 508423.0 0
173658.0 506326.0 0
173715.0 510927.0 0
177319.0 507982.0 0
180686.0 509420.0 0
184973.0 508540.0 0
189355.0 508211.0 0
193047.0 507151.0 0
197476.0 508351.0 0
199940.0 511419.0 0
203301.0 508652.0 0
208068.0 510140.0 0
212292.0 508682.0 0
222116.0 507026.0 0
220582.0 509732.0 0
224357.0 509829.0 0
229378.0 507884.0 0
234042.0 510268.0 0
238074.0 507172.0 0
241099.0 510232.0 0
247648.0 507336.0 0
246177.0 510725.0 0
250809.0 509118.0 0
258421.0 507922.0 0
254838.0 510529.0 0
262953.0 509742.0 0
267524.0 506549.0 0
271394.0 509341.0 0
276328.0 509716.0 0
282706.0 508383.0 0
291035.0 509277.0 0
296183.0 508949.0 0
301259.0 511146.0 0
305138.0 506959.0 0
310534.0 509014.0 0
315439.0 510909.0 0
320723.0 511195.0 0
323671.0 508253.0 0
328471.0 507126.0 0
330673.0 511408.0 0
334222.0 508449.0 0
339749.0 508198.0 0
345859.0 508818.0 0
351412.0 511208.0 0
356652.0 507227.0 0
355823.0 511648.0 0
359155.0 511377.0 0
361720.0 508793.0 0
369646.0 508671.0 0
365683.0 510139.0 0
374156.0 508906.0 0
377950.0 510603.0 0
383000.0 510459.0 0
388751.0 510489.0 0
393137.0 507624.0 0
393800.0 511820.0 0
396846.0 509602.0 0
401433.0 508584.0 0
406299.0 509129.0 0
410241.0 510392.0 0
407934.0 512596.0 0
414322.0 511332.0 0
418377.0 508822.0 0
417405.0 512435.0 0
423288.0 509325.0 0
425675.0 512815.0 0
428187.0 510083.0 0
433417.0 511228.0 0
438800.0 509597.0 0
443386.0 509768.0 0
442384.0 513098.0 0
446631.0 512142.0 0
450402.0 510169.0 0
452979.0 513017.0 0
455866.0 510331.0 0
460571.0 511080.0 0
464675.0 510269.0 0
469429.0 510805.0 0
474642.0 512711.0 0
482625.0 512661.0 0
479044.0 511383.0 0
486546.0 510728.0 0
492260.0 509980.0 0
497383.0 511166.0 0
3341.08 514988.0 0
9375.52 514554.0 0
14166.0 516992.0 0
19923.1 513799.0 0
22679.0 518501.0 0
25689.0 516006.0 0
30322.0 518554.0 0
34724.1 516560.0 0
38631.6 513557.0 0
39523.4 518184.0 0
43512.3 514275.0 0
45039.1 519232.0 0
49646.8 514718.0 0
54408.7 517043.0 0
58773.0 515206.0 0
62892.7 518011.0 0
66887.2 516125.0 0
71002.5 517322.0 0
75474.5 514535.0 0
80075.6 514757.0 0
82247.1 517540.0 0
84564.6 513341.0 0
89688.7 514483.0 0
96215.7 513810.0 0
93827.8 515855.0 0
98507.0 516490.0 0
102131.0 513290.0 0
105887.0 514594.0 0
109547.0 512921.0 0
112817.0 515837.0 0
116265.0 513799.0 0
116879.0 517547.0 0
120026.0 514115.0 0
123636.0 514515.0 0
127018.0 512108.0 0
131796.0 514205.0 0
136410.0 512684.0 0
136518.0 516547.0 0
140036.0 513434.0 0
145483.0 513725.0 0
154472.0 513433.0 0
150199.0 515312.0 0
157911.0 512957.0 0
158019.0 516178.0 0
161470.0 512663.0 0
169655.0 512550.0 0
165995.0 514453.0 0
171169.0 516125.0 0
177968.0 512118.0 0
175031.0 514680.0 0
179250.0 516569.0 0
182168.0 512726.0 0
183473.0 516024.0 0
187290.0 513679.0 0
192783.0 511851.0 0
191596.0 516683.0 0
197140.0 513128.0 0
201288.0 515302.0 0
205812.0 513508.0 0
210910.0 513912.0 0
216518.0 512390.0 0
221789.0 513671.0 0
225277.0 512759.0 0
225296.0 515771.0 0
229320.0 513301.0 0
234092.0 515153.0 0
238238.0 513310.0 0
242992.0 513940.0 0
249261.0 512401.0 0
247600.0 515301.0 0
252168.0 513726.0 0
258612.0 512945.0 0
255492.0 516210.0 0
263116.0 514858.0 0
267396.0 512248.0 0
272003.0 513578.0 0
276558.0 515332.0 0
281152.0 513095.0 0
286968.0 512102.0 0
292665.0 513414.0 0
297525.0 514191.0 0
301922.0 515790.0 0
306243.0 513112.0 0
311124.0 513495.0 0
318251.0 514804.0 0
322180.0 515367.0 0
326303.0 512736.0 0
330116.0 516446.0 0
333914.0 513929.0 0
337502.0 512078.0 0
338226.0 516590.0 0
342030.0 513211.0 0
347190.0 514517.0 0
351116.0 515928.0 0
354305.0 514907.0 0
358470.0 515611.0 0
363139.0 513367.0 0
368052.0 513066.0 0
366320.0 516416.0 0
370208.0 517206.0 0
372881.0 512916.0 0
376934.0 514558.0 0
380893.0 514363.0 0
378543.0 517536.0 0
385903.0 514762.0 0
391211.0 515550.0 0
395138.0 514750.0 0
394038.0 517395.0 0
399151.0 513354.0 0
404168.0 513072.0 0
411392.0 514257.0 0
407662.0 516424.0 0
415749.0 515160.0 0
421066.0 514280.0 0
418117.0 518031.0 0
425765.0 516705.0 0
429347.0 514104.0 0
429651.0 517885.0 0
433352.0 516300.0 0
437849.0 514313.0 0
441912.0 517132.0 0
445994.0 516085.0 0
449567.0 514578.0 0
453438.0 516925.0 0
456856.0 514355.0 0
457617.0 518611.0 0
460524.0 515465.0 0
463000.0 519711.0 0
465492.0 514547.0 0
467780.0 518795.0 0
470763.0 515780.0 0
475501.0 517611.0 0
479330.0 515207.0 0
482907.0 517417.0 0
485222.0 514978.0 0
489746.0 514673.0 0
494555.0 514774.0 0
498306.0 514510.0 0
497885.0 517561.0 0
3668.24 520533.0 0
9178.38 519126.0 0
13428.2 522201.0 0
18495.5 520005.0 0
21776.0 522705.0 0
25925.8 520907.0 0
30168.8 522579.0 0
35103.0 521517.0 0
40919.8 523597.0 0
46591.5 524068.0 0
50700.6 520507.0 0
54293.3 520056.0 0
57883.7 520301.0 0
54235.1 524149.0 0
62696.9 522762.0 0
67117.6 519984.0 0
70864.7 521799.0 0
75569.0 519946.0 0
78992.4 517901.0 0
81150.2 522226.0 0
86507.5 518956.0 0
91124.5 518452.0 0
90831.8 522454.0 0
94757.8 519760.0 0
103331.0 518101.0 0
98716.5 520678.0 0
102514.0 522898.0 0
108498.0 517956.0 0
107554.0 522412.0 0
112638.0 520324.0 0
117710.0 522629.0 0
121549.0 518197.0 0
123708.0 522458.0 0
126915.0 517700.0 0
128012.0 522135.0 0
132394.0 520066.0 0
137329.0 520532.0 0
141515.0 517767.0 0
147396.0 519948.0 0
153569.0 518560.0 0
158319.0 520472.0 0
162295.0 517350.0 0
162894.0 522220.0 0
167052.0 518938.0 0
171197.0 520451.0 0
174857.0 518704.0 0
183358.0 520180.0 0
188037.0 518855.0 0
192202.0 521527.0 0
196177.0 517637.0 0
196855.0 522196.0 0
200626.0 520381.0 0
205181.0 518565.0 0
207726.0 516370.0 0
210007.0 518819.0 0
213891.0 517525.0 0
218536.0 518225.0 0
222709.0 517560.0 0
225110.0 519467.0 0
228008.0 517859.0 0
231639.0 518649.0 0
236117.0 519206.0 0
240347.0 517702.0 0
244463.0 517983.0 0
246989.0 520795.0 0
251390.0 518901.0 0
259447.0 517664.0 0
256185.0 520327.0 0
263037.0 519197.0 0
267167.0 517512.0 0
272444.0 519331.0 0
276452.0 521620.0 0
284428.0 516816.0 0
280088.0 519217.0 0
289527.0 518151.0 0
293466.0 521249.0 0
294754.0 517523.0 0
298608.0 518326.0 0
302343.0 521201.0 0
305474.0 517875.0 0
309581.0 517836.0 0
314665.0 517294.0 0
312338.0 521476.0 0
319650.0 518977.0 0
325425.0 519207.0 0
330471.0 521235.0 0
334233.0 518952.0 0
338424.0 521703.0 0
343496.0 518949.0 0
348834.0 519071.0 0
353832.0 519241.0 0
358639.0 520907.0 0
362721.0 518184.0 0
362997.0 522309.0 0
366954.0 520754.0 0
374662.0 517851.0 0
372037.0 522290.0 0
378087.0 522344.0 0
382857.0 518893.0 0
385683.0 521508.0 0
388046.0 519117.0 0
392976.0 521458.0 0
397356.0 518059.0 0
399638.0 522401.0 0
402747.0 517994.0 0
404935.0 523020.0 0
408219.0 520414.0 0
413013.0 519260.0 0
418141.0 521891.0 0
422186.0 519685.0 0
427073.0 521395.0 0
432293.0 520666.0 0
437412.0 519800.0 0
441695.0 520355.0 0
445421.0 520510.0 0
449450.0 518662.0 0
453692.0 521664.0 0
458408.0 522930.0 0
462809.0 524281.0 0
467755.0 523619.0 0
471948.0 520500.0 0
477045.0 522358.0 0
479651.0 519197.0 0
482731.0 521663.0 0
487314.0 518797.0 0
486633.0 522400.0 0
492946.0 519038.0 0
490344.0 522774.0 0
494230.0 522925.0 0
497510.0 521202.0 0
3218.36 526267.0 0
8307.34 523860.0 0
7958.92 527692.0 0
12197.1 526897.0 0
17996.0 525825.0 0
24193.1 524603.0 0
23546.0 528086.0 0
27564.4 525986.0 0
32402.5 526059.0 0
34994.5 529408.0 0
36735.5 525828.0 0
44167.4 527420.0 0
50364.1 525517.0 0
52711.3 528941.0 0
58836.7 525225.0 0
62962.2 528179.0 0
66858.7 524389.0 0
70779.5 525819.0 0
68265.8 528994.0 0
74652.4 524538.0 0
73441.3 529206.0 0
78247.5 526739.0 0
86313.7 523784.0 0
89535.7 526901.0 0
95770.1 524577.0 0
100117.0 526842.0 0
105535.0 527655.0 0
111800.0 525745.0 0
116713.0 527571.0 0
121086.0 526904.0 0
126167.0 526834.0 0
130636.0 524916.0 0
135625.0 525073.0 0
141522.0 523537.0 0
146910.0 526627.0 0
150746.0 523480.0 0
151655.0 526521.0 0
154712.0 523664.0 0
159043.0 524580.0 0
168194.0 524854.0 0
173731.0 523849.0 0
178257.0 521969.0 0
176933.0 526902.0 0
182335.0 526074.0 0
187389.0 523293.0 0
186592.0 526720.0 0
194998.0 526348.0 0
204345.0 522410.0 0
200996.0 526249.0 0
208579.0 523223.0 0
213318.0 521822.0 0
217539.0 523525.0 0
222189.0 522333.0 0
220863.0 526706.0 0
228346.0 522074.0 0
225451.0 525215.0 0
233010.0 522999.0 0
237720.0 523825.0 0
242572.0 522207.0 0
247244.0 525759.0 0
251774.0 523780.0 0
256078.0 524854.0 0
260135.0 522115.0 0
265448.0 522713.0 0
269910.0 524195.0 0
274212.0 524544.0 0
278792.0 523782.0 0
281882.0 525675.0 0
284921.0 521960.0 0
285661.0 527016.0 0
289968.0 524552.0 0
297367.0 522547.0 0
294951.0 527138.0 0
299188.0 526233.0 0
303448.0 526560.0 0
307654.0 522847.0 0
312910.0 526708.0 0
316680.0 522606.0 0
321749.0 523624.0 0
327191.0 525251.0 0
334022.0 524510.0 0
338790.0 526807.0 0
342674.0 524138.0 0
346836.0 522920.0 0
350936.0 522434.0 0
354989.0 524497.0 0
360520.0 526501.0 0
365617.0 525067.0 0
369694.0 526996.0 0
375161.0 527607.0 0
380756.0 527255.0 0
383435.0 523717.0 0
385602.0 527390.0 0
387829.0 523517.0 0
390922.0 527504.0 0
396424.0 526425.0 0
401716.0 527102.0 0
410248.0 523852.0 0
414230.0 523885.0 0
412858.0 527762.0 0
417804.0 526560.0 0
422634.0 524505.0 0
424962.0 528434.0 0
426810.0 525737.0 0
431173.0 524836.0 0
436073.0 524472.0 0
441433.0 524017.0 0
446155.0 524811.0 0
449497.0 522978.0 0
450158.0 528014.0 0
454919.0 526065.0 0
459903.0 527990.0 0
464712.0 527197.0 0
468059.0 528427.0 0
472826.0 524797.0 0
472343.0 529038.0 0
476700.0 527139.0 0
480710.0 525512.0 0
486333.0 526933.0 0
493137.0 526774.0 0
497983.0 525110.0 0
2016.76 530531.0 0
5927.75 530993.0 0
10432.3 531041.0 0
15254.7 530385.0 0
19997.3 530545.0 0
21806.7 525540.0 0
25019.4 531689.0 0
29796.3 530649.0 0
33719.9 532278.0 0
40027.7 529483.0 0
36750.4 533443.0 0
45068.3 531524.0 0
48195.2 528645.0 0
50011.2 532806.0 0
55374.2 531683.0 0
57157.3 528909.0 0
59673.7 533152.0 0
65406.0 533084.0 0
70575.0 533202.0 0
77340.9 530766.0 0
80181.0 533170.0 0
83708.4 528615.0 0
89260.9 532036.0 0
93550.1 529174.0 0
97147.9 528561.0 0
99918.4 531147.0 0
109614.0 531366.0 0
114045.0 530492.0 0
118824.0 531846.0 0
123360.0 530355.0 0
126781.0 531793.0 0
130382.0 529524.0 0
134913.0 530136.0 0
140940.0 530472.0 0
146571.0 531749.0 0
150854.0 530844.0 0
155089.0 528607.0 0
158585.0 527763.0 0
158222.0 530579.0 0
162711.0 527563.0 0
167193.0 530921.0 0
172451.0 528937.0 0
179348.0 530634.0 0
190067.0 527339.0 0
186096.0 530309.0 0
193084.0 530548.0 0
197492.0 531116.0 0
207040.0 528658.0 0
211929.0 526560.0 0
216438.0 528559.0 0
224250.0 528815.0 0
229824.0 527405.0 0
235474.0 528408.0 0
241461.0 528026.0 0
252258.0 528131.0 0
261192.0 527462.0 0
266760.0 527518.0 0
271981.0 529128.0 0
277507.0 527872.0 0
282216.0 530633.0 0
287101.0 530753.0 0
291007.0 529671.0 0
299436.0 531628.0 0
307922.0 528018.0 0
305418.0 531768.0 0
314924.0 531341.0 0
318426.0 527338.0 0
322978.0 528303.0 0
329473.0 531231.0 0
334820.0 529282.0 0
338926.0 532220.0 0
343890.0 529278.0 0
349845.0 527419.0 0
355473.0 530340.0 0
365386.0 529719.0 0
360880.0 532254.0 0
369995.0 531788.0 0
378913.0 531002.0 0
383439.0 531584.0 0
388602.0 532652.0 0
393949.0 532263.0 0
398444.0 530919.0 0
403140.0 532159.0 0
407489.0 528223.0 0
407403.0 533163.0 0
411346.0 532199.0 0
421539.0 529619.0 0
416529.0 531715.0 0
425484.0 532932.0 0
428946.0 529265.0 0
431672.0 533338.0 0
434123.0 528944.0 0
439213.0 528447.0 0
437196.0 533317.0 0
444293.0 528408.0 0
441866.0 532449.0 0
446716.0 532230.0 0
455144.0 530648.0 0
459699.0 533057.0 0
464528.0 530955.0 0
469506.0 531432.0 0
472463.0 533797.0 0
476043.0 531287.0 0
480743.0 530475.0 0
485545.0 532535.0 0
490813.0 530677.0 0
497557.0 529048.0 0
497914.0 533036.0 0
2728.33 534578.0 0
7995.74 535404.0 0
12922.6 534416.0 0
17405.5 534311.0 0
22070.3 534800.0 0
27389.0 536203.0 0
32630.2 535399.0 0
41500.4 535295.0 0
46726.5 535203.0 0
49948.3 538531.0 0
54301.3 535531.0 0
58380.8 538091.0 0
63096.1 537685.0 0
68214.8 537335.0 0
75428.5 535196.0 0
80230.9 537473.0 0
84569.7 534824.0 0
88951.2 537325.0 0
94969.8 534604.0 0
100451.0 535578.0 0
104619.0 533292.0 0
108837.0 536385.0 0
114140.0 535278.0 0
123404.0 534627.0 0
119153.0 537548.0 0
127541.0 535359.0 0
131477.0 534240.0 0
136173.0 534658.0 0
140214.0 536271.0 0
144744.0 535740.0 0
149780.0 535754.0 0
155411.0 533859.0 0
158983.0 537417.0 0
161701.0 533139.0 0
166305.0 536454.0 0
171169.0 534501.0 0
175535.0 532753.0 0
182712.0 533957.0 0
189821.0 533226.0 0
310484.0 532191.0 0
319138.0 532150.0 0
323848.0 532585.0 0
321262.0 536597.0 0
326612.0 537013.0 0
334464.0 533445.0 0
331869.0 536714.0 0
336844.0 536606.0 0
343514.0 535026.0 0
348265.0 533056.0 0
352902.0 535824.0 0
357391.0 534917.0 0
360434.0 536658.0 0
365783.0 535957.0 0
374924.0 533443.0 0
371568.0 537432.0 0
379989.0 535281.0 0
385072.0 536617.0 0
391451.0 535208.0 0
394407.0 536971.0 0
399290.0 536033.0 0
404513.0 536847.0 0
409258.0 536874.0 0
413910.0 536314.0 0
421015.0 533683.0 0
418236.0 536399.0 0
422870.0 538337.0 0
428725.0 537603.0 0
434472.0 537770.0 0
440649.0 538252.0 0
444168.0 535045.0 0
451232.0 533663.0 0
447374.0 538127.0 0
455973.0 535835.0 0
452323.0 538198.0 0
463508.0 535159.0 0
467781.0 534374.0 0
466048.0 539000.0 0
470477.0 537742.0 0
477188.0 535492.0 0
482082.0 535672.0 0
486610.0 536798.0 0
489351.0 534139.0 0
493791.0 534240.0 0
490677.0 537065.0 0
497785.0 537016.0 0
3971.63 539407.0 0
1210.14 542125.0 0
8060.8 542251.0 0
10567.9 538983.0 0
14920.6 538583.0 0
19292.2 538059.0 0
23250.7 539748.0 0
27157.9 540888.0 0
28455.2 544896.0 0
31644.5 540536.0 0
36338.5 543086.0 0
36749.9 538132.0 0
41012.2 541286.0 0
45087.9 538819.0 0
47010.2 542546.0 0
51270.2 543470.0 0
54797.0 540552.0 0
60637.7 542196.0 0
66282.0 542097.0 0
72302.4 540241.0 0
76766.2 539834.0 0
80176.0 541940.0 0
84201.3 539737.0 0
87861.7 542222.0 0
93333.5 541198.0 0
98346.9 539092.0 0
101248.0 542716.0 0
104029.0 538463.0 0
108176.0 541841.0 0
112157.0 539474.0 0
115842.0 541632.0 0
124012.0 539304.0 0
120755.0 542032.0 0
129099.0 539530.0 0
133476.0 537973.0 0
137243.0 538937.0 0
142300.0 540902.0 0
348226.0 537875.0 0
357023.0 539022.0 0
362002.0 539960.0 0
368695.0 540285.0 0
372371.0 542409.0 0
376369.0 538637.0 0
381189.0 540155.0 0
389997.0 538829.0 0
385865.0 541710.0 0
396899.0 541165.0 0
401955.0 540636.0 0
406765.0 540996.0 0
412208.0 540746.0 0
417346.0 540998.0 0
422683.0 543393.0 0
426657.0 542188.0 0
431641.0 542508.0 0
436606.0 542162.0 0
445848.0 544275.0 0
451201.0 542419.0 0
455639.0 540778.0 0
460449.0 539104.0 0
474450.0 539517.0 0
478930.0 540021.0 0
483758.0 540541.0 0
480768.0 544039.0 0
488933.0 540497.0 0
493821.0 538960.0 0
492879.0 544220.0 0
497583.0 541466.0 0
3709.86 545061.0 0
1349.54 548469.0 0
8831.05 547150.0 0
12735.0 543199.0 0
18524.9 543212.0 0
23860.2 544434.0 0
33191.6 547228.0 0
38757.1 547584.0 0
43785.0 545936.0 0
48246.5 546376.0 0
56269.7 546132.0 0
63412.1 546481.0 0
70599.5 545268.0 0
75898.8 544344.0 0
83828.4 544420.0 0
90251.2 545108.0 0
97231.4 545285.0 0
377455.0 543597.0 0
392329.0 543209.0 0
404063.0 545581.0 0
414084.0 545300.0 0
419124.0 545846.0 0
425799.0 547091.0 0
431784.0 547858.0 0
436872.0 546737.0 0
440533.0 543782.0 0
441729.0 548365.0 0
450539.0 546932.0 0
455268.0 545721.0 0
463729.0 543992.0 0
470099.0 543191.0 0
476127.0 544215.0 0
479386.0 548105.0 0
486744.0 545428.0 0
490593.0 549065.0 0
495139.0 548738.0 0
497910.0 545865.0 0
4731.5 549940.0 0
8309.76 551414.0 0
14704.8 548675.0 0
21224.5 549068.0 0
459898.0 547550.0 0
467217.0 548753.0 0
472882.0 548553.0 0
483567.0 549373.0 0
POINT_DATA 5000
SCALARS Radius float 1
LOOKUP_TABLE default
5415.48 5120.0 6182.6 5061.3 3163.97 5580.89 6810.52 5073.35 4834.9 3863.18 2356.98 4998.37 5492.18 5258.36 3951.75 3642.12 4499.64 5812.43 5906.14 7513.1 5254.28 4436.4 5733.48 5645.7 3588.44 5553.16 6110.27 5840.26 5670.04 6044.04 5085.53 5351.6 5484.83 4715.55 5867.73 5013.56 4375.68 5542.27 5122.66 5484.19 3557.27 4688.68 4402.52 4182.53 4517.56 4672.91 5176.86 4366.19 3672.51 2938.66 4008.92 4940.78 3615.22 5561.06 6716.79 3850.77 5325.36 5538.89 4730.36 6059.59 5701.86 4238.81 5054.98 4468.59 6030.06 5170.02 4927.31 5185.34 4432.58 5903.42 3761.32 3955.56 5292.64 4118.05 5065.13 5936.02 5305.17 4380.59 5546.39 5945.65 6759.9 7021.47 5926.61 2720.68 4955.55 3563.63 5885.03 5200.76 5325.02 5246.2 4862.64 5205.43 3673.74 6684.56 3968.64 2635.86 4385.06 6166.5 4290.3 4231.61 3942.53 3379.84 3607.45 7613.27 4133.88 4094.62 5418.62 5493.32 5416.38 6051.14 4195.44 5836.15 4345.55 2837.58 3653.41 3871.88 5017.13 4827.23 4390.66 6116.18 7447.37 4688.67 7184.19 3867.67 4861.08 4827.82 4003.05 3589.27 4951.03 4333.2 4665.12 6483.19 6230.49 7054.71 4601.27 3641.64 5740.68 3261.21 4277.89 5539.32 6704.06 5600.93 3856.01 5279.39 4911.47 5803.39 4924.6 4381.97 3255.82 4733.32 2924.37 2899.43 2812.98 4065.69 5399.73 4805.87 5759.91 3260.67 3936.02 4927.02 5980.74 4174.52 5109.54 5489.43 5747.75 4796.33 6496.85 5360.19 5541.59 4124.71 5083.08 5728.85 6337.56 5863.59 6257.19 5242.73 4737.14 5603.15 5390.22 4712.33 5227.21 3997.1 3038.33 4295.38 3383.4 4780.03 3856.1 4044.71 3829.13 5816.2 3091.3 6458.82 5527.54 5054.25 7325.81 4874.39 4794.96 4839.34 2980.99 6834.49 3998.5 5525.39 4024.3 5938.34 5555.28 4686.65 4695.45 4660.72 3888.21 6038.78 5697.78 5123.52 4667.36 4392.68 5495.39 4487.31 5693.81 5789.98 2540.31 6138.47 5573.7 4055.8 4727.62 6425.26 6186.19 4840.01 5611.2 7933.0 5173.87 6394.38 5169.36 5834.74 5556.96 6052.7 3921.18 6902.81 5529.52 3554.9 5252.48 3996.0 4002.16 4015.92 4138.16 6029.66 6302.8 5697.4 5206.78 4005.44 5280.17 5028.96 5143.58 6362.12 4484.76 5152.36 4220.65 4455.12 5380.13 5118.27 5711.87 5932.23 5788.23 3798.62 5891.05 4091.31 7199.21 6124.89 5708.81 4778.34 5043.05 4684.5 5120.49 3486.22 5409.61 4270.95 6038.2 5555.88 6732.43 3866.16 4524.28 4511.82 5826.64 6820.42 4816.2 4894.16 4896.52 4941.22 5791.61 5581.75 6392.01 4254.17 3666.57 5615.42 4523.7 5255.32 5337.48 5542.21 5924.89 6894.71 4414.54 5262.61 5094.81 5713.22 5861.71 3183.98 5017.78 3794.63 3778.1 4727.24 6959.81 4829.35 6321.41 3372.79 5282.64 4479.66 3369.13 6644.76 5308.1 6372.62 7565.34 5637.59 5481.78 4937.14 5551.36 5201.36 4306.53 6135.57 5972.06 4312.67 4359.04 5015.69 4947.52 6175.81 4520.1 6677.09 5813.4 4089.76 5201.67 5526.55 4751.02 3192.41 5184.56 4715.72 4987.87 5367.2 3043.85 6730.19 4907.89 4937.02 6037.08 3103.0 4049.23 6084.86 3307.12 4467.94 5478.92 4933.21 4850.81 6038.14 5024.9 5659.17 5998.38 4270.24 5423.8 4989.15 4164.13 4642.34 4305.57 5874.89 3791.79 4293.03 4424.7 4754.05 4951.47 6084.93 3315.57 4669.66 4808.52 5607.24 5461.13 4726.76 3599.45 5655.21 5629.19 6756.95 5601.05 3586.91 3115.91 4948.92 5810.84 5094.44 5375.47 4723.12 4809.42 4717.05 4562.29 5287.2 5013.13 3417.33 4926.42 5080.66 5153.74 4165.81 4528.09 3556.85 4389.21 4128.98 4925.44 5246.61 5215.15 4764.96 5046.33 5053.92 5839.13 5090.24 5923.5 5091.39 2240.39 6324.23 4382.74 4516.43 4749.8 3748.24 4230.54 4655.49 6163.38 4566.18 4964.09 3459.9 5856.11 4234.94 4109.88 4980.85 5714.58 5110.45 3329.99 5248.77 4083.97 5208.32 3895.51 6291.51 6246.22 4307.28 4100.38 5804.71 5020.12 6352.26 3735.44 4073.93 4645.41 4786.6 5096.78 4727.24 4929.8 4651.28 4384.42 4493.48 4362.19 5082.6 3693.63 6061.47 4093.08 4997.27 5543.27 5628.24 3327.49 3960.8 5992.26 4923.9 4973.78 3947.47 4607.02 3296.27 6673.96 5174.89 5882.89 4188.32 5370.52 5538.93 4739.42 5727.3 4899.11 4242.52 3847.38 4745.45 4907.06 3057.03 4433.59 5163.9 5740.84 4973.83 4612.68 3320.52 6355.42 4151.94 5690.56 3937.74 5478.47 6142.37 4449.22 5806.08 4853.39 5365.89 4511.54 5070.39 4613.31 5196.0 5091.68 4204.84 6119.09 4713.25 5069.25 6243.0 5441.96 5048.89 4288.3 3435.9 5774.81 3697.96 5344.77 4278.07 4723.48 5356.51 3818.59 4863.72 5495.68 6043.3 5530.87 3912.37 4310.18 4129.43 5927.43 5244.78 5492.26 5762.84 5119.37 3982.23 5243.29 4336.42 3130.65 5004.67 5409.33 4178.15 7531.29 5935.03 3991.03 3161.47 4652.29 6826.57 4495.87 5027.98 5097.87 5281.28 2631.9 4087.15 4143.08 5489.34 5952.75 6445.94 4281.49 5537.72 4320.28 5293.9 4685.34 4220.88 6519.71 6640.13 5351.39 5210.03 3402.32 4583.31 4306.11 7589.94 4466.03 5419.37 5985.29 4898.94 4247.23 4733.04 5788.66 4755.47 6390.78 7435.25 4788.87 3746.31 5543.46 5498.32 5346.27 7267.18 4758.21 5002.48 5708.14 4262.82 5542.14 6342.25 3843.58 6327.9 6082.81 5449.18 3092.35 3629.96 4714.54 3320.11 6022.17 4503.89 5903.66 5313.66 4528.49 5275.32 4268.65 4694.83 4354.08 3903.75 4485.99 4520.62 5475.7 5475.8 5314.69 6050.81 6022.72 6475.1 5527.33 4969.21 6255.18 2691.29 7500.97 4277.88 3920.42 6623.85 6332.36 4218.06 4931.53 6691.39 6142.94 3191.99 5367.52 4048.37 5030.91 4659.59 4322.15 5507.24 5101.59 6851.54 5935.47 2651.49 5512.23 5349.31 4649.22 5394.55 5509.42 5936.36 4256.43 5229.48 5127.16 4249.46 4244.99 4643.31 6917.52 6256.02 5402.21 2845.98 4668.71 7228.46 5102.36 8332.24 7134.64 4602.25 4329.05 5110.37 4931.38 5664.98 3485.26 5025.39 4548.16 4377.07 3848.93 3813.22 5570.3 6020.48 5234.29 5200.05 4711.62 4114.24 4645.58 2976.22 5094.52 2682.24 5928.32 5415.19 5526.75 4016.18 5435.74 4275.57 5560.26 5327.45 6185.89 5965.81 2330.66 3702.37 4177.19 3691.0 3990.25 4880.14 5320.92 3948.23 5228.18 5787.31 5978.82 4342.9 6122.55 5978.9 5480.13 4270.53 4736.58 4792.73 3240.09 4556.36 3369.23 5264.06 3688.8 4515.71 3817.13 5893.5 3695.36 4547.19 3963.86 5076.35 3844.9 4091.8 5670.2 5181.4 4662.56 5166.79 5417.15 4946.74 5996.33 3950.63 4612.62 3619.07 6385.23 2983.99 4750.17 5660.85 4752.51 3758.07 3587.05 4989.09 6362.14 5269.18 6719.88 6155.31 6308.71 2739.94 4790.08 4194.5 5082.47 5513.6 4901.41 5358.59 6202.55 6387.01 5023.15 4871.44 6375.99 5273.35 4853.02 6259.23 3457.48 3405.98 3688.16 4681.72 6631.19 5661.62 4467.04 5817.25 5626.61 3997.96 2614.4 4439.35 3460.94 6184.4 4373.45 3828.81 6229.37 4982.31 4406.1 5034.59 5314.85 5065.11 4553.56 4223.33 5911.67 4187.56 3629.62 4840.84 4997.27 5191.63 4501.51 5138.31 3708.04 4551.24 3610.4 4621.75 6338.89 7111.16 6480.17 4564.34 6248.81 3838.56 5088.44 5872.05 4998.21 3931.07 6079.11 7440.72 6430.39 3949.6 4945.39 5376.71 4867.08 6648.68 5407.78 6363.92 6632.99 6205.93 5830.72 5309.98 5289.52 6718.19 4307.48 4305.43 5450.44 3848.54 4942.77 3927.99 5069.84 5329.64 5868.82 3323.28 4051.44 4301.06 5344.25 5379.87 6013.14 4602.86 4581.13 3856.59 2765.2 4219.07 5413.79 5584.06 5372.61 3686.21 6445.22 4962.77 5323.3 4256.67 4427.28 3082.32 4765.02 4448.13 5070.29 5703.6 6326.18 4266.03 4713.74 5061.98 4923.24 4537.6 4419.61 7177.44 4407.87 4082.57 4236.14 5941.4 5080.18 5266.5 4263.33 4454.63 4050.9 4716.19 5135.69 5514.76 5344.0 3456.98 5925.6 3979.82 5572.95 6723.16 4948.5 5402.24 5013.42 5651.07 5210.48 6101.92 4635.6 6239.84 3658.37 5370.85 5629.39 6157.04 4807.28 4768.61 2261.36 5075.55 4220.03 4084.49 6179.96 5449.46 5703.07 5147.36 6260.79 4563.46 3963.76 5282.91 5169.9 6510.17 4871.96 4066.38 6695.82 6049.55 6405.76 4593.7 4290.14 4043.57 5987.17 5006.58 5586.81 4746.52 3689.45 3868.18 5130.91 4519.22 4527.02 7552.94 3627.55 4409.63 5865.39 5521.25 3178.54 3776.94 2684.03 5949.46 5246.47 4010.57 5280.69 4522.21 6191.29 5506.19 6923.84 6166.29 6113.54 4662.43 5733.62 4043.66 6553.94 5282.51 4425.84 5331.02 3797.33 7256.35 5742.65 4523.88 5709.62 4241.89 4877.67 4020.32 5835.78 6045.46 4763.45 3771.48 4478.15 4138.42 5681.38 4292.06 5011.31 4481.53 5077.33 3824.16 3948.17 5045.38 4959.34 5383.07 4247.15 4531.14 4602.85 6552.22 7644.38 5379.09 4051.34 6004.68 6799.4 5278.36 3661.9 5107.23 5136.08 5558.68 4187.31 3240.51 7422.36 6719.94 5161.01 4950.67 5227.59 5453.6 5294.77 4709.05 3077.84 5528.53 5255.18 3004.16 5726.66 5460.65 4460.92 5945.89 4800.69 5592.32 5912.61 4105.55 3279.1 4978.31 5054.74 4099.77 5941.72 3498.2 4981.9 3815.26 4245.72 4150.99 5445.87 4216.92 4571.7 4107.03 3970.25 4850.01 5198.77 5643.58 5147.67 5577.04 5330.45 6318.18 5423.0 5125.78 5350.88 5452.83 4790.78 4591.87 4027.09 6422.84 4502.18 5534.94 5180.76 6218.95 4993.35 5222.16 5533.72 5533.42 4802.32 5518.57 4599.38 5463.48 4527.99 5730.33 4543.1 4628.4 4376.7 4298.15 6051.83 5409.63 4263.16 4630.82 4813.08 6799.88 3062.43 4767.78 4042.28 5426.78 4863.23 4402.67 5381.16 4403.98 4948.98 4560.84 4414.48 5794.24 4127.74 4537.32 4704.72 6562.18 4541.21 4177.94 5908.1 6048.7 4344.58 5896.46 4742.68 4502.5 3929.19 4271.69 5922.5 3633.87 4810.12 2775.04 4138.46 3821.72 6035.6 5215.05 5198.29 3975.31 4986.77 5137.34 6070.58 5344.43 4373.47 6034.41 5197.52 5178.99 5615.35 4135.62 5801.99 4860.33 3685.13 3312.06 3361.26 3418.99 4983.39 5366.52 4690.55 5146.37 3678.08 4836.16 7132.12 5680.94 5545.46 6550.44 5190.61 5832.37 4642.93 3764.06 3973.12 6642.76 6024.75 5860.67 4540.86 5990.52 5235.17 6566.1 3555.86 4340.76 4435.36 6386.78 5565.13 5227.52 5163.02 6086.96 4302.5 4156.38 3066.13 2476.04 4656.78 4092.24 6009.88 5105.16 6006.16 4164.68 5634.83 5495.84 6268.1 4862.21 5113.21 5499.11 4374.35 4011.77 6396.74 5347.48 7099.43 6898.19 5526.14 3627.82 4044.45 6449.45 4244.9 5262.19 4285.32 5022.28 5490.43 4986.51 6169.11 4896.11 5172.53 6132.95 5266.22 5226.97 5008.63 5754.18 5132.68 4480.95 6595.03 4558.15 5417.8 6552.21 5227.02 4232.16 5151.11 5581.55 5300.96 5193.01 3474.5 8325.01 4440.81 5941.9 5829.22 4523.39 6109.49 5987.42 5567.93 3764.1 2967.38 5652.0 5463.41 4421.12 4929.75 6065.22 5254.49 4221.28 4470.61 4996.99 4456.39 6193.35 4631.83 3701.27 4729.43 5233.78 5991.09 4562.74 5126.91 4678.38 5050.65 5448.61 3942.07 5316.75 4827.33 5022.8 3784.5 7055.53 6133.92 3719.84 4178.4 7034.11 5782.6 6261.42 2586.12 5965.78 6125.34 4527.08 5252.34 2965.79 4287.63 5776.37 4516.28 5315.4 5486.68 5678.96 6048.86 6894.26 5311.03 5339.38 5255.12 3872.61 4285.66 4238.4 3930.79 4318.48 4004.35 4763.96 3450.93 4270.74 6293.89 5737.75 2761.07 3778.02 4367.78 4350.12 3603.51 4095.75 5670.0 4344.51 3781.77 3834.43 4707.06 5491.37 3860.83 4250.88 6348.03 5732.27 5434.47 5278.56 6917.62 4497.78 4243.79 5811.18 5332.65 5433.65 6451.33 4835.83 5604.35 4779.5 4159.35 5225.33 4237.98 6045.22 6439.37 6649.96 4384.88 4896.39 3633.79 6887.27 6008.49 4806.34 5776.57 5133.97 7144.24 7443.72 6600.94 3937.08 5371.02 5513.57 5013.67 5729.23 5669.65 5934.22 6586.45 3780.23 3471.03 5253.55 4359.62 5011.84 5820.48 5062.71 6946.21 5433.8 5975.63 4274.61 4410.55 3921.08 6314.07 5083.41 4190.31 7055.42 5100.25 5683.61 5805.86 4049.02 4470.4 5346.68 5296.29 4611.53 2681.29 5094.48 5576.92 6408.83 5365.24 5293.51 4586.19 6625.18 4446.06 5323.91 5097.45 4047.87 4185.61 5742.47 4917.99 5636.4 3319.67 4298.45 5222.51 4076.59 6609.84 5164.1 5135.96 5658.37 4972.17 6074.94 5699.53 3783.54 4222.77 3475.67 4792.39 7038.89 5146.37 5631.14 4814.12 6137.8 4442.22 4887.76 5413.31 6477.91 3091.67 4332.87 4614.3 4081.97 6420.81 5401.99 4303.19 5514.84 6081.14 5421.53 4256.57 5480.83 5653.9 3914.2 4607.85 4220.46 4287.53 5683.26 3600.43 4906.82 5598.74 4788.58 5131.24 5260.34 6155.1 5196.67 5206.48 4709.35 5876.71 5826.04 5624.49 5339.78 3095.48 3745.84 5188.81 4730.41 5696.88 4203.26 4004.04 5690.26 6057.22 5607.14 6915.83 4156.2 4289.17 4497.59 6072.45 5564.02 6444.77 4470.98 5759.46 6248.6 5443.58 5687.85 3836.45 4558.46 6401.43 5731.57 5020.71 5662.55 5997.88 5839.71 4360.23 3755.95 6234.32 4585.31 5889.35 5010.04 4570.98 4275.07 5825.38 4573.72 5099.21 4163.74 6969.28 5698.96 6471.42 5283.8 4428.14 6016.19 6464.15 4479.11 6685.4 4850.06 5268.38 5527.23 4805.33 3863.67 5980.95 4013.38 5067.56 3352.35 4343.78 2735.53 5263.3 4909.65 4008.15 3012.99 4669.06 6316.56 4811.32 6400.08 5134.39 4715.58 3317.83 5580.92 5784.3 5769.98 6088.68 6070.3 5937.08 5046.21 5612.21 5894.61 4929.14 5687.83 5945.08 5139.5 5004.23 6496.67 6442.69 5474.8 6320.71 5226.0 4648.04 4373.3 4750.78 4166.08 5029.78 5762.59 4861.06 3979.26 6608.73 5960.66 4962.09 3923.03 3999.48 4643.85 5411.85 5082.74 3999.94 4844.57 4027.46 3901.8 5092.37 4864.22 5511.88 5941.61 4512.11 4933.65 5708.99 6098.1 2435.33 6333.29 4477.04 4558.47 5703.74 4747.55 5464.68 5737.92 2685.81 3056.7 4510.8 5591.76 5896.26 4394.56 4587.67 5388.78 6101.13 5599.7 4296.69 3665.95 6238.32 6804.79 6372.13 5369.5 5404.01 5535.91 4124.49 3230.13 5714.25 5325.96 5412.24 6332.01 5016.02 7044.29 4581.37 4234.18 7085.01 4049.16 3936.95 6193.08 6069.3 5887.01 5168.35 5116.6 6523.86 7693.4 4743.59 4286.49 6184.88 5208.14 3532.3 4450.7 5151.52 2221.99 5973.33 3583.21 4643.56 5442.32 5291.9 4135.08 5128.57 5067.46 4863.01 6000.7 5620.74 5604.21 3979.54 7493.3 4814.55 5304.13 3527.05 5833.06 6262.72 3664.11 6607.87 3365.82 4163.5 5374.51 6481.79 5320.28 4123.6 7092.87 4796.58 4569.12 4298.67 5873.69 4472.17 6222.42 5654.31 5470.77 6062.05 4831.47 4735.33 4413.85 6939.12 4406.4 6171.13 6853.85 3493.47 2395.5 4020.4 4596.75 3374.08 3497.9 5782.48 5564.23 4031.78 5950.04 3735.24 4231.83 4074.48 3614.96 6853.04 3886.68 4745.43 5831.96 4539.07 5064.79 4475.83 5480.3 7509.24 4146.81 5756.75 5951.81 5093.82 5212.43 3924.14 6918.35 6348.54 4066.57 5642.35 6357.47 4891.38 4793.65 5955.86 2949.12 4532.89 6176.67 4533.37 4848.46 2779.99 5887.38 4920.21 6942.34 5851.61 3658.05 5478.11 6153.94 6836.82 3862.77 3858.17 4631.99 3747.03 2783.85 5388.39 4356.49 4326.48 4437.07 4526.81 3449.37 5829.32 4396.25 5491.9 3763.05 6405.0 5551.95 5092.24 4347.74 4659.16 3918.87 5369.08 4518.04 3580.58 4766.06 4009.62 5356.79 4874.18 4011.37 2081.58 5233.29 3169.67 4312.56 4968.03 3361.92 4612.06 5204.04 5944.09 3306.14 5490.58 5698.77 4863.79 6515.84 5395.14 4702.06 3464.83 5117.47 4143.78 5724.64 4538.95 4970.88 5224.12 4763.66 4850.14 6739.08 4471.58 5463.38 3637.61 6098.14 5945.21 3493.7 5750.71 4938.74 4200.03 4719.7 3474.39 5313.22 5516.95 5563.79 5328.22 4151.76 3905.51 6484.17 4721.02 3546.71 4254.37 5768.57 4188.87 4498.25 5108.06 5151.21 6574.95 5398.64 6817.57 4693.52 4568.41 3420.08 3624.7 5262.35 4912.04 4320.42 4691.91 4255.34 5344.83 7046.11 3427.63 4863.97 6342.48 4840.44 6639.64 5454.12 3687.65 5478.95 4834.3 3851.85 6318.23 4206.98 5174.75 5156.76 5932.07 6101.57 5948.71 3856.53 5460.89 6040.74 5260.85 5742.09 2884.65 5807.46 4648.21 4393.16 3311.29 3110.13 5526.31 5030.15 3477.1 3644.78 4078.93 4740.98 3185.39 5934.82 3728.18 5335.47 5128.77 3994.07 5633.61 5048.19 4219.94 5907.46 4264.91 4888.27 5399.29 5549.49 3101.75 5789.55 5423.42 6605.86 2511.46 2775.69 6505.78 4778.82 5657.36 5467.84 6124.08 5029.47 3619.79 5876.64 4750.58 6710.88 2477.07 3967.48 4923.41 2990.77 6213.04 4497.31 4925.63 5965.15 3163.78 4305.16 4666.81 4888.6 5882.65 5078.86 7042.12 4797.52 4780.2 6326.39 5501.93 6343.14 5462.21 6049.79 6313.06 5374.98 5226.56 6345.13 5274.19 4050.08 6470.3 4097.57 5599.49 3436.15 5017.5 5005.85 5711.11 4216.17 4575.94 5102.75 5021.88 4938.72 4597.29 5956.65 4200.09 5931.77 4222.4 4914.45 4698.87 3573.73 4000.43 3984.88 4661.03 5160.59 5318.53 4732.09 7165.9 4281.98 5138.2 5783.48 4701.5 4449.98 4504.35 5012.97 4771.65 5589.37 4036.91 5110.11 5439.49 6379.14 5216.26 3634.5 4887.52 6571.31 4392.65 4058.87 6103.11 5048.55 4984.46 4024.31 5844.72 3992.97 4147.31 5989.05 4054.22 7228.94 5393.65 4441.22 4961.99 6551.93 4595.12 4386.8 4549.69 6484.43 6423.81 3485.54 6192.77 4312.15 4583.52 4501.78 7122.87 4243.26 3572.94 6799.23 4153.84 6740.71 5119.86 6487.56 4854.11 4633.05 4901.2 2275.45 4909.31 6522.59 5012.5 4785.25 5711.62 6519.43 5461.55 4270.15 3298.2 5053.95 6306.21 5926.11 6667.68 5253.37 5235.11 5211.38 3830.46 4721.32 6031.67 3293.56 5092.28 6413.11 4918.77 4739.14 5163.55 4636.5 4819.73 6817.32 3382.7 6471.55 5085.71 5923.4 4319.79 6263.44 5960.56 6643.85 5122.63 4020.95 5774.97 5862.86 4390.41 4703.08 4890.5 6113.95 4901.07 3981.07 5452.42 5186.3 4893.49 5966.61 4514.79 5325.44 4834.87 3672.21 5760.22 5938.17 4795.43 5269.38 5097.95 2928.82 5607.3 4811.76 5313.12 5498.42 5351.56 6448.66 3344.57 5220.76 6945.98 6412.67 7001.83 4349.13 4593.7 3766.69 4891.67 6818.91 3503.65 4027.63 5569.2 6631.28 5350.88 5420.67 6413.15 5305.59 5416.45 6459.51 4955.16 3288.01 4904.51 2202.77 5751.15 5950.88 4149.55 5853.89 6201.86 7554.58 3380.69 4140.4 5446.4 4725.01 4625.67 5966.75 4458.64 3657.69 4883.63 6418.11 3492.83 6015.02 4922.49 5797.36 5585.14 5001.58 7039.98 4820.17 4592.15 4729.42 5084.17 5089.26 4901.44 5971.22 5415.45 4998.22 5533.19 5417.21 6602.43 5435.19 3562.79 4383.56 7093.13 4990.79 6865.76 4953.1 2895.63 5424.46 6449.64 5266.01 5767.9 6515.8 2040.66 2978.76 5529.42 5384.76 5274.14 5257.12 6138.12 4689.15 4434.19 4903.82 5100.1 4940.42 4965.89 5746.28 3954.91 3703.1 4946.42 4371.99 4623.61 5187.7 5409.66 4082.47 3561.29 3295.83 5203.08 2965.01 6235.57 5412.31 4863.27 3492.19 4584.5 6766.43 4118.84 2315.64 5916.16 6934.37 3423.15 4488.85 3731.84 4579.69 5010.2 3554.48 6496.52 4997.83 3991.42 3718.69 4388.63 6192.0 4940.28 2216.82 4509.89 5885.28 6752.75 3004.34 3022.6 3804.5 5375.1 4172.6 4638.18 5211.6 4196.37 4745.79 5806.31 3556.79 4453.97 5456.71 3503.41 7317.04 3971.08 6204.65 4482.9 6550.4 5036.98 5513.8 5188.53 3429.57 4521.75 5410.33 4642.74 6735.97 3636.15 6114.89 4330.58 5135.63 5754.6 4355.83 6870.97 3896.27 5351.86 6056.87 5474.01 5230.02 5307.35 4342.18 5166.89 3639.44 5491.63 5725.37 3868.62 5510.9 5138.33 4505.28 4971.29 5244.22 6280.13 3684.15 5832.29 4438.76 6456.58 4159.81 3814.65 3886.72 5244.98 3776.8 5792.98 5096.43 6592.93 6156.21 6104.26 4798.17 3568.28 5166.79 5425.98 4516.53 5996.66 5818.95 3940.49 4857.84 4093.99 6464.8 4908.49 7016.27 6622.11 5884.9 5089.62 4428.78 3685.65 6790.73 4590.55 5659.95 5243.43 4741.26 6090.91 5920.32 4186.6 4152.85 3701.16 4537.14 5551.9 4219.78 3867.19 4963.34 5644.82 5499.39 6413.02 4440.57 6736.03 5374.07 5548.29 3087.09 3623.87 7480.41 5163.77 3766.55 5469.13 6027.62 5765.42 6098.95 4817.16 6123.03 5453.98 5148.08 5578.94 5653.03 4157.29 7610.49 4777.03 4286.17 6579.31 5323.55 6028.09 5452.36 6486.37 6083.28 6100.73 4198.94 5470.04 4908.75 4211.82 6556.26 2628.22 5684.25 4901.29 5438.92 4124.76 4244.49 4050.03 4775.04 4952.52 4120.07 4882.66 3840.21 6746.66 4081.34 4954.76 3908.56 4844.83 5244.78 5652.87 4311.48 5483.7 5018.69 3152.86 6384.7 5952.38 5807.52 5963.36 5518.11 5087.14 5169.48 6016.08 4731.21 4743.9 3124.7 6064.71 3719.11 6102.98 3743.76 6060.17 3425.69 5153.18 6711.21 5510.45 4236.86 4730.14 2606.51 6006.89 3994.39 3864.92 4618.73 2955.36 3965.3 3668.93 4960.64 4983.3 4385.81 4034.05 6350.71 6436.74 5690.96 5583.61 2460.79 6063.64 4653.83 5096.24 4986.71 6479.39 4122.92 5079.22 4405.42 4997.91 4452.54 3604.14 5381.54 4684.44 4962.21 4406.05 4749.59 4680.94 4858.44 3468.42 3685.13 5828.35 5799.69 4673.35 5571.72 3876.21 4655.16 4916.22 5869.4 5297.19 5251.4 6022.7 4188.3 4453.64 4345.67 5081.78 5019.93 3885.86 4459.28 5235.29 5453.3 6116.33 4260.92 4479.94 6250.23 5887.15 4407.9 4718.54 4435.51 8659.64 4055.54 4588.7 4886.12 5683.95 6107.89 5206.33 4233.8 4976.12 4446.84 5530.49 4304.41 5660.55 3989.7 6789.23 5107.0 5069.89 4246.61 6212.15 3684.56 5327.75 4609.02 4946.23 4852.58 4896.65 4532.7 5561.74 5975.23 4504.86 4473.29 4788.08 5079.64 996.652 6163.54 5212.37 5965.58 6003.78 5058.51 3352.34 4607.18 3899.7 2403.72 7200.89 4813.33 4147.49 4802.98 4833.55 7224.99 3646.95 4705.68 6334.53 5384.86 5377.37 4749.96 4658.24 5869.67 4387.39 4899.73 4564.1 5457.66 6394.19 4848.14 5973.89 5366.22 6193.73 5254.24 4192.21 5712.35 3742.11 5701.52 3597.43 4158.91 6776.22 5321.17 4869.25 4467.13 3877.8 6273.6 4763.4 5902.67 5024.32 5454.11 5393.76 5806.61 4941.02 4983.1 6119.99 4128.1 7123.04 5372.82 4009.24 4446.58 4402.17 7778.01 5127.82 5798.38 4456.11 5124.17 4125.9 3862.91 5366.11 6171.71 7382.3 2995.67 3598.08 4668.88 4022.56 4599.81 5522.21 5698.23 5810.77 5089.1 7300.58 2711.19 4714.83 5876.72 4028.32 5236.43 5689.26 3809.69 4992.42 4771.13 4940.84 7051.9 4255.85 5097.69 5895.77 5511.6 6261.75 4765.72 4517.73 3757.34 2908.7 5177.64 6415.61 4039.91 4338.08 4541.8 4255.31 6134.99 5191.08 5424.88 3838.47 2588.37 4062.5 5148.58 4199.45 5415.85 3548.39 7234.66 4858.51 4207.54 6599.66 5625.65 4936.96 6419.12 4301.61 4481.76 3184.64 5375.12 5065.26 5452.78 4356.36 3746.36 4892.44 5473.72 4741.28 4215.2 4553.68 5361.87 2205.51 3703.49 6813.72 6502.97 4783.07 3758.22 4757.2 6200.63 6816.66 3217.67 3844.54 5034.69 4509.46 4680.69 6500.49 4420.11 4972.18 6127.39 5640.12 5329.76 5078.59 5134.33 2646.13 5419.57 5162.67 5760.98 3629.49 5766.05 5469.35 3835.81 4019.34 4869.48 4906.11 3623.19 4745.16 4697.91 5825.55 5509.51 5719.79 3199.4 4316.5 7261.51 4968.14 4914.03 5086.29 5144.56 5311.55 5139.18 3360.86 3034.16 5551.43 5049.99 5545.21 4333.87 3667.93 5136.87 5638.7 4708.17 3779.45 2741.2 5790.42 5784.37 6010.59 3142.09 5591.77 3682.35 3756.96 5182.13 5906.57 5401.4 5053.15 5910.86 6239.68 5805.1 5039.12 7320.78 3908.98 3628.89 3419.87 4064.58 6589.82 4824.81 5027.43 6328.42 3772.3 4855.01 7307.21 5522.75 3608.06 5474.15 7519.2 4099.92 6633.61 3208.96 5285.07 4884.59 4680.14 3858.06 4478.6 4608.41 4732.09 4184.23 3988.3 4833.46 4351.38 5857.79 5750.07 6136.49 4642.66 6543.13 5276.7 4809.67 5149.72 4752.14 4687.64 4950.97 5037.06 5660.16 5842.56 4094.73 6200.54 5713.03 4652.01 3583.49 4928.27 3673.28 5421.64 5775.31 5052.84 4366.74 3375.28 4603.5 5297.16 5354.66 4647.67 3566.79 4214.44 5378.23 3629.44 5374.67 4787.97 6246.56 4981.43 4061.6 4508.18 6214.73 2603.64 2856.55 5175.89 3894.64 4268.19 6618.21 5232.85 4374.74 3717.47 4062.56 3205.68 4928.35 5969.37 4337.32 5241.75 4731.53 5849.53 3763.9 4651.99 3538.53 4788.7 5863.0 5084.5 4918.64 6638.25 4759.99 4815.47 4368.12 4365.58 3889.98 5214.4 4636.53 5193.58 5399.43 5695.44 5117.64 5429.3 3916.42 3422.21 5510.96 4944.51 6653.07 5532.72 5071.98 4584.81 5179.17 5579.39 4371.08 5270.51 5148.1 5490.75 5224.64 5949.73 3495.68 4312.48 5527.13 4278.57 6370.33 5081.08 6318.25 4201.03 5001.87 6864.06 4493.79 5684.05 4279.44 5813.79 4899.19 4644.88 5293.13 7350.26 3768.46 5167.53 6110.48 7541.76 4775.49 4932.29 4681.29 5499.59 5749.6 3845.9 4141.21 4834.44 4234.88 4439.71 4384.28 5782.43 5769.14 4456.26 5944.3 3563.14 3381.82 5867.64 6208.9 3619.72 4923.57 4438.58 3340.09 4565.93 6059.93 5602.53 5217.95 6355.68 4083.79 4511.7 4144.57 4304.63 4187.94 5980.59 4063.9 5550.75 5933.7 5263.27 5021.77 6834.41 4757.74 7248.4 4378.3 4356.25 5036.58 5469.47 4419.71 4244.21 5512.16 5411.02 3197.63 4989.56 4287.16 5175.29 3645.12 4863.96 5471.74 5199.44 5580.34 5849.65 3852.6 5134.67 5131.15 4110.59 4847.14 4706.5 4165.21 4215.0 3332.49 4811.22 3950.27 5116.66 3683.86 4918.76 5003.78 5293.75 3299.24 4208.41 5730.61 5826.78 6358.93 5064.67 5836.26 6666.67 2617.39 6063.44 5144.44 2904.46 4826.52 4051.18 4583.94 5120.92 5046.31 4685.4 6240.42 1937.5 5146.0 5721.14 6006.16 4577.73 4288.45 4987.28 6206.98 6562.03 4410.82 6443.99 7212.97 5490.64 5034.34 4507.46 3769.2 3468.45 5036.14 5603.68 4526.34 5610.95 5042.75 3220.8 4598.92 5241.22 6647.08 4979.52 3422.29 5214.63 4407.79 4537.03 6548.29 5783.94 5352.24 7362.42 4202.77 5836.14 6008.81 4932.56 5537.34 5192.49 3487.31 5058.34 4028.22 3918.94 6643.4 5575.11 3852.82 5487.63 4507.36 5003.3 6245.52 7145.73 5800.81 4990.23 3220.29 3954.77 3784.94 6016.87 3125.13 5166.05 6715.73 4174.44 5667.51 5209.55 5113.6 3873.92 4708.31 4027.33 4810.98 4198.9 5135.5 5431.29 5347.9 5091.22 5023.41 4646.51 6282.38 5640.72 5851.63 4504.52 7107.63 6061.63 5073.02 5484.36 4867.7 4829.35 3953.55 6545.43 4075.28 4277.24 4989.2 4469.54 4314.56 6300.92 5161.1 3796.15 3928.53 5776.96 5329.59 4209.49 4888.12 6119.63 5464.25 3498.16 5486.48 4409.27 5439.9 4752.9 4588.99 4947.24 4617.55 4321.21 3875.05 3540.11 3456.47 5950.45 5088.57 4344.34 5966.42 5009.83 5666.95 5210.38 5717.8 4489.99 5210.75 4548.45 4474.83 6555.44 5658.14 5114.07 6570.35 4385.49 7124.45 4263.18 7142.95 4383.68 4559.74 6015.22 4454.74 5512.44 6449.06 4924.07 4629.02 5914.5 3565.32 3419.07 4608.62 5407.96 5710.33 4071.75 5344.44 5131.77 4626.72 3186.07 5549.71 4369.86 5482.76 4967.51 3745.02 5173.82 3720.7 4211.36 5698.53 3604.31 3856.73 4450.49 5887.71 5661.6 5635.32 4827.61 4316.45 5409.08 5481.64 5673.75 5360.67 5968.54 4501.05 6263.3 3247.97 5124.34 4114.2 3990.96 4326.06 5034.46 5757.29 5793.12 5469.17 5473.05 5061.75 4373.2 6022.78 5884.99 5726.42 4674.9 3392.26 6599.28 5461.72 2549.95 4361.24 6224.85 4168.52 4556.19 5403.97 5106.46 6793.1 4506.66 4068.31 3671.06 5515.73 5077.29 7035.54 4564.41 4850.5 6331.74 5951.86 5026.76 4252.18 4833.67 4659.88 5325.91 4546.44 4092.07 5657.55 5727.79 5212.92 4184.21 4831.93 2279.05 5788.97 3472.91 6760.92 4464.73 4928.85 4023.93 5868.89 8137.11 5291.05 5484.32 6650.77 6045.67 4216.95 6226.14 5466.33 5742.74 5280.12 3946.28 3821.94 5984.81 7013.17 4209.31 3805.67 5718.28 4247.69 5301.47 4640.06 6242.79 4227.41 6506.86 5391.48 5993.0 4803.57 4923.43 4728.55 4568.64 4929.6 3919.62 4642.2 4127.53 4945.0 5984.8 3127.83 4212.15 4658.11 5260.52 4551.26 6102.49 5678.58 3185.09 2945.34 5114.23 4242.63 3269.54 5495.0 7407.91 5064.23 6061.85 5268.15 6347.72 5819.0 3460.93 3200.6 4927.73 5124.86 4602.57 7168.2 3763.85 4571.74 4096.86 3622.48 5001.51 6432.8 5115.42 4082.4 4930.72 5728.58 4887.73 5378.24 6297.99 4538.89 5817.74 6556.86 3242.31 6099.28 5285.75 5385.03 3234.26 4830.13 4169.15 4778.37 3494.16 5370.9 5134.17 4074.16 4904.35 5592.54 5390.33 4904.37 4651.64 4358.81 5729.92 5275.57 5016.46 4179.87 6224.13 4761.84 3769.24 3661.67 4087.32 5517.65 4009.68 6647.85 2569.12 7025.09 4433.12 5161.74 7336.37 5138.93 6406.8 5368.66 4795.08 5648.78 6562.92 5501.73 4697.24 3612.44 4983.43 5233.76 5426.4 5763.05 5866.91 5129.68 5357.39 2820.07 5679.74 5076.84 3791.41 5247.01 5853.12 4213.05 4224.3 5157.38 6203.03 4700.07 5235.87 5188.82 5615.84 5273.37 4717.73 5043.14 6440.38 4732.37 5556.0 4985.3 4711.04 3904.07 5007.21 3274.85 4173.54 7144.05 5599.29 5606.51 7216.98 4801.8 5721.05 4444.97 6038.68 5271.02 5046.12 4807.4 5261.19 4350.15 3516.27 6329.53 4139.3 6541.45 4590.01 5367.73 4601.74 4514.39 5078.31 6101.86 4807.35 6761.81 6047.14 5467.63 3903.91 5630.9 4554.68 4368.28 4512.07 4692.32 5750.35 5463.06 5236.24 4585.04 4241.68 3986.41 6949.65 3469.18 4095.83 3372.95 5695.25 4489.29 5676.61 4301.93 5846.95 5796.26 5716.42 5701.63 4603.04 4620.95 4870.94 5368.93 5293.37 5271.88 4488.39 6121.56 5879.24 5740.78 4796.12 5997.91 5385.86 6791.86 4209.0 6031.22 5485.84 6424.77 5918.95 5453.69 5432.04 5689.56 3921.27 3702.45 5265.63 4898.29 4431.06 5372.25 5730.2 5620.88 4941.52 4529.77 5900.0 4325.13 6172.27 4262.74 3783.79 5078.73 4248.14 5278.54 5729.0 5192.92 7050.08 4786.66 5891.25 5370.1 5129.4 5114.51 4622.73 3303.49 4655.37 4161.32 5585.25 5256.75 5099.9 6945.69 2960.5 5118.86 7086.69 6170.9 6875.73 5226.42 5833.78 6081.3 4436.48 5615.35 5117.52 3967.76 6311.89 6405.69 4683.28 4217.36 6549.8 4825.73 4851.18 5288.33 4165.36 4208.37 6296.54 4841.7 5702.4 5069.9 952.938 5473.89 6089.45 5072.5 5810.17 4966.07 5713.36 5748.9 5545.59 4619.2 4506.18 5740.65 5166.41 7104.73 3000.29 5067.56 2596.96 6349.67 3834.47 5701.75 3272.75 5262.47 4264.54 3512.94 7043.44 3831.52 4263.65 4750.49 4263.78 4643.9 6106.43 5228.75 5644.81 6545.99 4177.47 5334.36 2918.64 6139.64 4140.92 3990.94 4756.8 4896.43 4176.32 4639.8 6069.78 4462.35 5532.75 3587.93 4517.29 4975.85 4495.75 5323.95 6229.83 6171.01 4468.26 5578.18 5106.33 5198.94 5933.54 5559.79 2980.31 3148.79 6348.93 6824.53 5136.51 4332.64 4742.82 5232.16 4422.23 4820.68 3618.64 3989.26 5703.84 4171.02 4335.79 3530.82 5797.32 4002.99 4886.99 3161.1 5159.67 5764.52 5684.88 6523.78 4645.86 4045.67 5087.97 6005.95 4308.49 4930.17 4581.1 6241.77 4745.44 5317.19 5762.82 7360.12 5279.19 6223.98 4016.6 5821.49 3035.06 5580.44 5998.13 5095.52 6275.25 4746.15 3720.38 4758.84 4731.37 5023.61 6351.89 5932.28 6530.78 5560.23 4975.32 4298.7 5237.55 4183.4 3902.48 4733.79 4304.64 4905.53 5758.98 4823.06 5254.49 5288.64 6213.24 6734.39 5942.45 4150.76 5005.72 5368.52 4871.77 5797.21 5811.26 5685.74 5062.77 6740.35 4678.7 6075.99 3673.6 6028.63 3306.84 5265.21 3450.07 4657.24 4550.92 4400.14 4749.18 6215.87 5191.26 5553.94 5494.28 4067.96 4704.92 4824.12 3663.0 6542.5 4099.26 5206.47 4834.39 4383.47 6162.3 5971.21 4608.34 3926.11 5493.89 4057.17 4184.47 4770.51 2781.96 7066.96 4467.0 3104.96 4994.65 4587.7 5601.55 4258.98 4346.07 4462.87 5196.92 3787.08 4013.86 5759.79 4598.54 4816.51 4218.16 5218.42 5345.73 4933.49 4841.23 4770.63 4357.11 2804.54 5005.6 5477.8 5589.53 5486.89 7208.19 4549.51 5196.08 5025.42 4965.24 6379.38 6257.79 4849.5 5438.55 5353.23 5977.66 4523.81 5209.5 5065.74 5791.25 4873.23 4028.35 5410.6 5464.05 5453.2 4733.41 5264.83 4969.68 3901.53 5431.14 6815.51 5313.86 4457.05 5189.91 5151.19 5777.26 6119.0 3792.06 7012.36 5128.59 5028.06 4293.3 5587.3 3572.73 3770.22 4864.38 4390.64 4848.98 4491.96 5150.84 5184.98 4608.01 4467.51 5339.82 4519.03 5460.57 5110.27 5703.34 4085.96 6668.98 6649.52 4232.33 5462.6 5617.29 4262.19 4597.88 4845.91 4878.93 2002.78 5631.32 6892.33 4505.3 3976.0 4452.36 4068.41 4672.86 6463.71 5059.37 3043.77 5783.38 4139.39 3909.94 6264.03 6030.39 5088.64 6589.8 3799.01 7392.65 3729.16 3757.23 5319.1 4181.93 6828.8 5987.88 4228.53 3579.59 6123.46 6161.94 6142.88 4065.28 5155.28 5111.26 5388.73 5205.38 6019.35 4884.93 5262.79 4600.71 5927.2 5146.1 6485.77 5866.42 3669.32 4762.1 5610.53 3742.31 4954.81 2970.9 4316.0 6304.49 4546.96 4580.06 5424.55 5134.72 5755.15 4835.97 4271.07 5695.79 5464.83 4191.01 3622.8 4589.06 6419.64 4215.05 4140.04 4920.88 5995.4 5414.58 5577.41 4431.23 4991.35 5917.34 6511.37 5740.98 3999.5 4216.44 6710.14 4012.92 5034.05 4426.02 4711.15 3825.48 4474.39 4658.59 5459.92 5188.22 4096.47 3810.68 4196.62 5453.77 2809.19 4916.7 4104.04 5593.79 5104.39 5234.2 4612.13 5846.6 5327.05 4109.44 4903.84 4290.49 4434.65 4557.1 6688.53 6175.27 5927.1 5876.51 6500.45 6731.89 4907.55 2932.52 4286.61 4603.66 3557.46 6636.43 5971.95 6298.8 3689.24 5178.07 6509.54 6079.55 5485.61 4993.49 5310.33 6583.37 4569.32 3688.83 3402.44 6084.88 4397.06 4199.44 4053.12 4479.5 6261.67 3435.13 5065.78 4431.46 4521.42 4612.68 3207.84 3977.98 6043.34 4939.56 4747.68 5770.92 4712.17 3808.04 3093.38 4723.71 4461.67 6126.5 6322.0 5793.14 4491.26 4511.34 4832.21 5009.21 4742.35 5394.79 5645.54 5264.08 3562.8 4526.87 4151.74 5192.82 6920.92 4174.22 3783.36 3573.84 3038.91 3922.28 4067.89 6570.43 6883.86 3350.99 5057.59 4979.5 4461.14 4745.37 5418.98 5285.6 5575.11 4574.54 4949.55 5615.06 4764.83 3132.34 1969.87 3957.38 4841.28 4047.95 4494.15 5507.38 5035.71 6889.5 4419.79 4710.88 6060.06 5407.69 5544.27 3869.39 3484.81 3987.69 5960.5 6502.99 4287.25 6896.55 4666.12 4392.75 4921.1 6219.34 3814.16 6023.07 4420.6 5674.63 5340.05 5287.25 6506.63 5939.22 3626.86 4668.8 6371.96 3495.3 4271.93 5890.25 5322.11 5700.79 4697.49 5735.08 7133.44 4726.2 4750.81 3953.26 5467.51 4282.11 4625.53 2347.41 4542.16 6478.35 3543.37 5114.67 2638.82 5353.66 5030.33 5527.27 5157.73 4541.22 5847.91 4934.66 3539.68 4696.03 4984.01 6217.33 4605.39 6270.59 6045.26 6263.87 5743.8 4103.76 4094.63 6605.11 5084.76 4757.87 6379.33 5130.57 5652.73 3979.46 5402.45 6321.97 3985.93 6412.84 2589.19 6071.59 3856.4 4696.06 4137.16 5308.4 4937.36 5984.55 6581.13 5803.3 5537.61 4721.98 5252.82 3543.98 5056.26 5878.55 4014.44 5445.91 6604.72 6002.77 4610.55 4967.02 4614.49 5400.69 4462.5 4128.93 4959.72 5004.68 4023.88 5348.11 4405.61 5428.24 5108.84 4034.88 6007.1 3511.5 6345.2 4609.65 5488.96 5704.61 5410.73 5128.03 4379.91 4574.03 5290.37 5850.38 4227.66 4691.01 4594.89 5245.95 3677.85 5821.42 6294.09 4515.02 4571.57 3445.92 5131.07 3820.19 5236.69 4121.07 4586.82 5939.29 6026.04 6200.05 5859.17 4052.49 5490.54 5203.54 6189.67 6142.94 5001.69 4948.96 4416.87 5300.17 5152.78 5308.33 4117.9 5393.43 5534.23 4638.09 4753.76 4685.65 6025.77 4441.91 5377.01 5330.26 5828.25 6470.23 4475.38 4725.11 5483.37 5418.12 5092.93 5934.05 5125.17 4604.1 4714.66 5322.07 4859.01 4444.0 5076.11 5524.45 5770.07 5990.75 5600.21 4656.01 6589.13 4037.86 5602.62 4138.59 5714.51 4938.33 2030.03 5628.97 4484.78 4621.33 5765.14 4767.54 4946.08 5121.08 2927.84 5688.77 6177.68 5466.13 4698.7 2848.44 6229.64 4220.43 4975.56 7282.36 6666.34 5581.01 4645.91 6834.92 4125.75 5749.53 5247.73 5090.48 5034.02 5582.28 5945.25 5181.31 5985.75 5475.83 6189.29 3074.49 5672.46 5202.33 3228.27 3956.24 7558.99 4142.1 5043.14 5333.04 5089.1 4521.99 4812.59 6842.54 3794.47 7115.67 4998.37 5675.45 3361.11 6038.56 5573.31 2807.46 5599.16 4179.8 3488.34 4577.98 5658.35 5886.81 4487.51 4520.14 4582.12 5067.92 4295.25 5357.14 3188.21 4850.95 5919.27 3720.92 5087.3 4942.63 6139.74 4975.57 7066.26 4730.97 3057.3 5214.71 6150.31 4677.84 3463.53 4811.11 4924.52 6126.03 4866.8 6044.69 5524.28 3133.28 2970.24 4197.87 5105.54 5731.43 6353.81 3518.14 3414.67 4034.41 4150.44 5061.74 5326.03 5522.34 4420.35 5717.45 5772.57 5117.83 4813.81 5256.82 6581.56 4052.43 4061.87 3980.46 4057.4 4896.67 5383.9 4585.37 3934.11 4466.22 5158.44 4288.5 4781.9 4496.51 6815.96 5339.6 5917.08 5259.21 4256.08 2803.01 5881.93 4460.89 4157.1 4399.52 6771.18 6182.19 4984.17 5101.6 5327.39 5781.62 4981.81 5141.03 4970.55 4840.44 8123.59 4819.83 6286.27 4801.16 5071.38 5616.66 4802.36 5368.28 4880.78 5257.38 5075.23 5625.02 5212.05 4829.77 3826.01 4444.92 6959.88 3746.62 5971.9 4532.67 4876.37 4769.62 5260.13 4649.5 5019.84 4810.74 3900.93 5784.38 4149.17 4329.8 5728.27 3053.19 6571.26 4313.38 5580.95 3393.59 3549.92 4032.06 5246.81 5888.95 5394.78 3463.34 2853.68 5122.38 5262.85 5329.84 4210.24 5901.71 6559.82 3879.83 6565.95 5043.34 4246.24 6805.02 5354.48 7394.47 4729.45 6261.13 5374.09 4793.06 6637.38 3421.81 6188.33 6111.23 6916.18 5786.06 5873.62 4137.41 3868.69 4996.91 5379.52 3920.44 3768.62 5314.67 5658.05 6593.1 5462.1 4066.36 4000.51 6032.45 5444.36 4026.03 2827.92 5044.68 5771.98 2649.69 5899.78 3467.11 5000.74 6153.26 5268.27 4013.86 5244.95 4645.93 5165.31 4634.25 5448.64 5901.8 3798.09 6417.61 5715.51 4511.05 3886.56 6153.71 6561.94 5317.83 6738.9 5992.06 5545.68 8052.53 3939.96 4554.24 4970.12 4967.93 4867.12 6044.01 5910.66 6520.19 7415.84 4637.3 5734.07 6241.48 3997.68 5125.45 6033.28 4188.16 3717.22 6327.54 5507.07 2943.17 4654.92 5286.55 5327.71 4322.56 5509.09 4850.49 3873.72 4981.55 4592.49 3625.98 5479.86 6474.5 3928.99 4702.32 4763.04 5944.52 5050.2 4413.56 2513.38 4821.41 5316.05 3995.08 4908.32 4499.52 4028.13 3874.12 5759.19 4457.73 3113.64 6476.35 6260.58 4304.75 4067.24 6139.9 4720.22 5827.3 6598.99 5250.56 2468.16 3633.58 6294.14 4339.97 5203.75 5169.09 2459.88 4691.15 4512.6 5470.67 4260.38 4932.27 5225.11 5342.9 5252.22 5733.12 6436.29 5402.81 4600.81 4919.13 5640.63 4900.26 4167.55 4720.34 6271.22 5244.47 5378.75 3920.64 5510.89 6186.24 5822.7 3780.07 4159.89 5466.49 5447.74 4450.51 4038.17 5007.41 6033.72 3851.47 4966.74 3692.99 5563.47 5651.46 3162.27 1635.31 6033.93 5011.37 5092.44 5516.37 4441.44 6908.32 4232.44 5336.61 4817.75 3312.3 5563.09 5637.53 4848.15 4439.09 3882.37 5523.81 4095.4 4718.61 5188.57 6697.45 6351.48 3873.79 5395.12 5357.33 5783.69 3830.7 3456.3 6074.39 5350.9 3483.61 4262.52 7430.48 5640.67 6572.17 6080.69 3751.73 5555.89 4766.47 6369.66 6009.93 5678.08 5973.57 1458.87 5922.62 5872.45 5130.56 4414.09 5191.29 5957.82 3784.68 6305.9 6649.21 3470.69 5093.28 4859.95 5522.18 4132.08 6009.88 5223.1 4699.77 5093.41 6842.35 5144.23 5464.34 6188.62 3621.63 6153.07 4414.06 5908.57 7296.47 5742.39 4780.16 4924.53 5738.37 5616.11 4433.23 4813.24 5847.27 4490.2 5734.84 5480.86 3982.31 4950.07 4582.24 2832.83 4474.96 4084.87 6036.99 3010.1 3584.05 3825.98 4589.22 5087.03 4667.84 3906.41 4123.08 6224.64 4636.45 4221.03 3799.55 5638.51 6793.49 3563.33 4962.35 6060.19 6786.37 3860.8 4333.23 4328.76 5561.63 4124.33 5168.97 5783.88 4358.06 5002.38 6705.93 4865.11 4731.16 5502.14 6470.87 4495.33 5282.67 5747.9 5178.55 3864.19 5146.69 4907.48 6203.24 6818.23 6213.74 2329.93 4959.94 6938.87 5639.4 5412.07 6185.73 5512.57 4083.24 6520.96 5432.2 4612.4 6178.19 4746.19 6381.58 3282.57 5212.2 4798.13 5648.59 5108.42 4630.5 6296.36 5717.67 5515.59 3721.69 5252.37 6210.0 3224.81 5432.4 4499.54 3775.38 5037.58 6457.89 4844.2 4081.77 5114.61 6118.13 3374.62 4420.3 4926.62 4871.1 4735.99 3917.09 4083.1 3482.73 5145.39 5270.1 6351.95 4957.99 4063.26 5195.09 4947.64 5345.05 4997.89 4542.62 4881.51 6131.52 4311.92 6729.99 6664.54 3922.98 5161.73 5259.48 4777.96 5801.89 6833.5 6608.94 2613.78 3796.73 5417.07 3834.01 6789.66 4739.41 5312.2 4694.27 6760.64 4706.59 2515.5 5551.79 3916.15 6981.47 5367.05 4758.76 4790.63 5259.29 4088.72 4916.75 3743.85 4818.53 5097.85 5584.64 6189.04 3795.63 5189.4 4576.71 5082.66 4550.77 4337.93 3550.88 4345.51 5536.0 4048.73 6223.33 5145.13 5438.6 3747.96 5611.29 5940.5 6568.45 5093.51 5647.93 6201.49 5449.09 5154.74 4605.61 4465.56 4131.08 5386.95 6540.57 4287.93 5315.71 6158.93 5081.65 4488.41 4823.14 4369.87 6679.12 5652.19 5806.74 4806.99 3771.91 4813.55 5856.43 5217.62 3465.03 3839.0 5349.85 4616.81 5715.25 4362.94 4611.21 6052.22 4469.82 6545.78 3354.94 4404.87 4432.32 5105.72 5237.27 4451.76 7885.41 5782.25 4046.22 4104.97 4575.72 4948.21 4987.01 4706.31 2181.29 4202.12 6332.64 2694.25 6492.44 4203.68 4739.56 4613.32 4701.03 3352.46 3996.93 6225.05 5434.04 5200.1 3997.52 4444.54 7679.2 5779.9 4909.74 2626.41 5310.33 5036.84 4565.36 5813.68 4025.08 4008.67 5254.93 4803.4 8013.28 3846.55 5283.65 4644.68 3082.16 2892.36 5656.84 5911.29 5416.41 4414.23 5177.88 4849.21 3793.83 5245.4 6189.81 4449.73 5647.11 3945.62 6236.46 5342.17 6379.3 5015.67 6538.04 4894.15 6157.59 5201.3 5848.41 4090.28 4246.83 7370.52 4521.88 4726.5 3724.23 5004.22 4280.92 7263.57 4696.92 5705.96 6437.99 6898.8 6632.04 5332.11 5360.88 4893.72 4072.4 5373.78 5345.65 5438.5 4621.32 5699.4 6578.62 3878.8 4698.94 4796.04 6284.12 5669.15 5229.56 5296.05 6011.4 5799.86 5263.86 5172.1 4672.34 5056.32 5376.41 5003.63 4870.14 2932.2 4944.08 4082.01 5767.65 5003.49 4750.76 4907.03 4216.33 5497.27 5617.91 4444.95 4721.2 5161.02 6265.48 5003.81 6262.18 3818.37 5566.5 5663.36 4276.59 5579.04 5125.53 5994.21 4884.93 5403.81 5082.25 6964.78 4374.05 5299.03 5504.65 5669.41 5040.9 5732.11 3618.53 4770.21 4868.66 4004.39 5159.9 4987.48 5943.61 4248.58 5981.54 5479.17 5020.37 4542.25 5233.88 4785.55 5467.05 5103.3 4601.54 4963.88 5888.94 3832.09 4727.98 4122.2 5175.88 5267.65 5739.69 3509.34 3647.26 7360.62 6004.72 4977.64 4983.56 5699.51 2489.44 4489.18 5863.36 4632.75 5237.76 4994.98 3948.21 4286.84 6423.96 6058.13 5894.69 6988.4 3330.85 5533.52 6635.51 5410.33 4060.17 4747.24 4695.7 5302.53 4380.86 5576.16 5269.39 4305.35 3964.03 5210.22 3308.75 4439.17 5832.72 2451.27 4929.35 3903.9 5606.22 3943.77 5242.38 3124.49 5151.68 6081.35 4884.94 5459.52 5362.15 4609.98 4455.61 4738.72 4752.31 5240.97 5569.85 5405.6 3929.35 4223.53 4759.38 4535.94 6960.97 4287.15 5126.08 5282.51 5604.0 3760.4 4951.02 4602.7 3919.47 5596.68 3783.35 4037.16 6395.63 4516.26 4790.16 3731.58 3166.37 5369.42 4985.45 5205.53 5499.37 4714.52 5543.05 4883.13 4836.76 4752.94 5551.09 3950.53 4501.1 5581.47 4384.91 6550.61 4987.01 4713.56 6051.35 4909.13 4287.61 5648.02 3999.81 4867.13 4604.34 6377.45 4863.27 5677.42 2701.42 5442.79 5051.39 6673.92 4633.59 5733.59 5575.8 5268.93 3695.72 6874.6 5106.9 5306.31 5523.96 4733.37 3037.72 4523.9 5207.08 4587.19 6028.89 5333.16 4888.17 5755.98 5392.85 5077.2 4274.05 5275.27 4277.54 5529.09 6094.34 6779.82 5543.67 4739.5 6210.48 4491.62 3865.5 4182.05 4502.12 3255.93 6853.07 6327.61 4531.46 5925.82 5448.68 4072.95 
SCALARS Velocity float 1
LOOKUP_TABLE default
1.26943 1.32226 1.2855 1.47553 1.46293 1.45897 1.46196 1.22139 1.25574 1.28352 1.12376 1.31369 1.3933 1.52357 1.48227 1.46477 1.46803 1.49216 1.49927 1.50978 1.48111 1.49177 1.49183 1.44861 1.46017 1.4954 1.44916 1.24022 1.24979 1.25753 1.23722 1.43302 1.44703 1.54342 1.53041 1.49832 1.48642 1.46673 1.50723 1.49877 1.50968 1.50505 1.49704 1.49431 1.49719 1.48556 1.45141 1.48296 1.46969 1.48909 1.4079 1.49075 1.41135 1.27399 1.3392 1.37086 1.22424 1.44055 1.52039 1.52346 1.50396 1.50604 1.45481 1.45984 1.5018 1.51937 1.50396 1.5061 1.49418 1.48566 1.48321 1.47262 1.51473 1.48586 1.48965 1.5084 1.54129 1.41833 1.34544 1.59107 1.45874 1.44729 1.52831 1.50792 1.49418 1.52163 1.51358 1.49991 1.52488 1.51335 1.5059 1.4935 1.49876 1.48959 1.48675 1.47643 1.53314 1.49757 1.50382 1.63973 1.65769 1.57141 1.48118 1.32986 1.37234 1.5974 1.47566 1.45157 1.52023 1.51073 1.53274 1.51417 1.55662 1.50501 1.51371 1.50592 1.48893 1.49617 1.48432 1.49313 1.48569 1.53877 1.51364 1.5309 1.58825 1.61424 1.58474 1.49735 1.3778 1.49134 1.66318 1.58853 1.53325 1.54076 1.51625 1.50791 1.49585 1.52293 1.52142 1.52803 1.538 1.50862 1.49866 1.48866 1.49326 1.49178 1.53984 1.49069 1.53487 1.51873 1.51117 1.51396 1.51319 1.52908 1.56151 1.58696 1.54084 1.50281 1.44156 1.72482 1.60246 1.49347 1.55653 1.52077 1.50469 1.52212 1.52399 1.51603 1.49463 1.50245 1.50241 1.49486 1.49047 1.4945 1.51234 1.51233 1.49845 1.52011 1.56617 1.57022 1.54928 1.51283 1.49608 1.48954 1.39004 1.49202 1.54487 1.51134 1.55863 1.55212 1.53256 1.52334 1.50906 1.506 1.51537 1.51499 1.51233 1.48405 1.50006 1.49411 1.49292 1.49243 1.50364 1.48923 1.50678 1.4777 1.51522 1.56791 1.56964 1.54879 1.52457 1.51295 1.48716 1.48399 1.51792 1.51658 1.51884 1.50838 1.50421 1.50075 1.50482 1.51082 1.50978 1.50092 1.49439 1.50356 1.49228 1.48705 1.48472 1.50115 1.4833 1.49176 1.54251 1.55579 1.57186 1.48668 1.48053 1.51442 1.50273 1.51191 1.50655 1.50372 1.50468 1.49975 1.49382 1.50248 1.50532 1.50007 1.49759 1.49316 1.49106 1.4927 1.49918 1.49322 1.48904 1.48318 1.47391 1.48345 1.48458 1.49109 1.5084 1.51387 1.45717 1.49093 1.48621 1.48778 1.49388 1.49839 1.48941 1.49566 1.49424 1.48935 1.48793 1.50024 1.49561 1.49379 1.49162 1.49173 1.48998 1.48971 1.48845 1.48327 1.47853 1.47792 1.47663 1.48227 1.48981 1.50866 1.48641 1.42784 1.49455 1.46724 1.48255 1.4797 1.47279 1.48689 1.48289 1.48258 1.48618 1.48649 1.48892 1.49152 1.48919 1.49 1.4886 1.48781 1.48779 1.4862 1.48262 1.47793 1.47725 1.47956 1.48251 1.47969 1.47667 1.45353 1.46287 1.46594 1.47377 1.46288 1.4757 1.47587 1.47512 1.48154 1.48373 1.48336 1.4877 1.48677 1.48735 1.48613 1.48405 1.48541 1.48216 1.48165 1.47886 1.47485 1.47496 1.47088 1.47474 1.47211 1.4772 1.47344 1.46966 1.46432 1.45781 1.45474 1.45318 1.46111 1.46557 1.45687 1.45195 1.45928 1.4697 1.46969 1.4612 1.46827 1.47266 1.47789 1.47756 1.47959 1.48376 1.48589 1.48249 1.48431 1.48331 1.48079 1.47809 1.47857 1.47488 1.47456 1.47069 1.4708 1.46569 1.4648 1.4615 1.46262 1.45714 1.45485 1.45272 1.45179 1.44965 1.45095 1.45671 1.45942 1.44608 1.45195 1.45141 1.44599 1.45099 1.46079 1.4672 1.47344 1.46891 1.47475 1.47963 1.47609 1.47856 1.48154 1.4801 1.47958 1.47739 1.47381 1.4729 1.46937 1.46972 1.46617 1.46473 1.46141 1.45582 1.45676 1.45145 1.44879 1.44729 1.44873 1.44938 1.4524 1.44951 1.45282 1.43836 1.44199 1.44413 1.45371 1.44478 1.46095 1.45492 1.46347 1.46565 1.46077 1.47154 1.47629 1.47279 1.4743 1.47653 1.4778 1.47505 1.47618 1.47102 1.47362 1.46829 1.46322 1.45739 1.4561 1.45119 1.44853 1.44591 1.44391 1.44437 1.44666 1.44633 1.44391 1.44839 1.44813 1.19178 1.43326 1.43854 1.43866 1.43376 1.43773 1.43263 1.44832 1.46055 1.45623 1.467 1.46077 1.47054 1.47002 1.46641 1.4729 1.47338 1.47195 1.46931 1.46936 1.46363 1.45532 1.45358 1.4491 1.44801 1.44378 1.44197 1.44268 1.43959 1.44143 1.44133 1.43859 1.44163 1.43925 1.44362 1.44011 1.44511 1.4434 1.44546 1.44365 1.42768 1.42458 1.42821 1.43149 1.42572 1.4414 1.45449 1.44876 1.45363 1.461 1.463 1.46831 1.47037 1.46598 1.47022 1.46487 1.46733 1.4671 1.46293 1.46501 1.455 1.45915 1.44767 1.44738 1.44061 1.43953 1.43797 1.43689 1.43585 1.43893 1.43616 1.43618 1.43698 1.43776 1.44181 1.44078 1.44187 1.44011 1.42166 1.42264 1.4169 1.4207 1.43299 1.43899 1.44669 1.43799 1.45321 1.45788 1.46091 1.46184 1.45956 1.45893 1.44622 1.44944 1.44341 1.43983 1.43719 1.43688 1.43279 1.43391 1.43252 1.43178 1.42994 1.43437 1.43693 1.43932 1.43859 1.43932 1.438 1.19178 1.42164 1.4163 1.41989 1.42182 1.42792 1.41717 1.43872 1.43159 1.43432 1.44842 1.45804 1.45898 1.44807 1.45311 1.44447 1.45588 1.45634 1.45422 1.44278 1.43227 1.43079 1.43724 1.42523 1.43086 1.43007 1.42988 1.42812 1.43042 1.43185 1.43883 1.43558 1.43547 1.43193 1.41922 1.41431 1.41912 1.41474 1.41272 1.41373 1.41022 1.42689 1.42833 1.44324 1.43596 1.4548 1.44199 1.43851 1.43393 1.45757 1.46116 1.43206 1.47481 1.42873 1.43927 1.42949 1.42603 1.42619 1.42685 1.4278 1.42451 1.4263 1.42469 1.42748 1.4237 1.42621 1.41821 1.44029 1.42789 1.43219 1.4269 1.19178 1.39995 1.41723 1.41556 1.41398 1.42656 1.39652 1.40417 1.40747 1.42004 1.42073 1.43196 1.43637 1.44056 1.43962 1.43979 1.42973 1.47074 1.42001 1.44044 1.41219 1.42448 1.42416 1.42496 1.42606 1.42295 1.42202 1.4189 1.42446 1.41364 1.41861 1.43617 1.43163 1.42434 1.19178 1.38908 1.38212 1.42302 1.41915 1.38883 1.45099 1.40708 1.41018 1.41758 1.41586 1.41487 1.41018 1.40223 1.45396 1.42761 1.44771 1.45989 1.45796 1.4231 1.36658 1.44505 1.40298 1.41488 1.41447 1.41075 1.42439 1.42657 1.41768 1.42011 1.42667 1.427 1.42284 1.42739 1.42247 1.41617 1.4207 1.41797 1.41475 1.43376 1.41621 1.44066 1.42091 1.40637 1.42391 1.42019 1.3797 1.38208 1.42048 1.4092 1.37979 1.37209 1.41058 1.43593 1.36469 1.40495 1.39928 1.37944 1.40269 1.41586 1.39665 1.44676 1.42282 1.45223 1.41768 1.38229 1.3419 1.39796 1.34519 1.33865 1.39122 1.40632 1.44045 1.41743 1.3976 1.42644 1.4293 1.43332 1.439 1.41619 1.42496 1.41951 1.41227 1.39157 1.42134 1.41408 1.40684 1.4093 1.40504 1.36439 1.36761 1.45297 1.36925 1.44222 1.38069 1.37617 1.37866 1.49312 1.46352 1.4741 1.46107 1.34634 1.30913 1.33254 1.35495 1.35171 1.42432 1.4491 1.3762 1.39239 1.41805 1.38943 1.41077 1.41406 1.43892 1.4157 1.48303 1.43026 1.39954 1.37536 1.40727 1.38266 1.39568 1.41781 1.40383 1.40972 1.40631 1.40484 1.40519 1.19178 1.19178 1.37185 1.37259 1.36493 1.37892 1.39411 1.48984 1.39746 1.36314 1.34735 1.35686 1.3375 1.43252 1.36128 1.44853 1.54577 1.44486 1.28122 1.2804 1.34353 1.32942 1.3577 1.36372 1.32393 1.40582 1.427 1.4516 1.41451 1.42328 1.44387 1.41459 1.35484 1.40684 1.37948 1.37053 1.37972 1.37462 1.36379 1.45805 1.38728 1.46034 1.42004 1.37008 1.41425 1.40422 1.19178 1.37623 1.3775 1.3914 1.38251 1.37819 1.43483 1.37221 1.42865 1.46151 1.40371 1.30956 1.33544 1.4459 1.44658 1.37617 1.38311 1.44242 1.38741 1.22976 1.35126 1.31224 1.32569 1.3586 1.43978 1.44253 1.48753 1.48763 1.42274 1.40001 1.2811 1.38057 1.36831 1.33044 1.36916 1.33985 1.41516 1.5124 1.4008 1.37472 1.33605 1.38802 1.39612 1.36244 1.2428 1.3449 1.39486 1.36852 1.40628 1.32903 1.4757 1.30466 1.37088 1.39272 1.37351 1.42407 1.47203 1.47576 1.21939 1.30261 1.2659 1.31109 1.30976 1.30939 1.29672 1.42592 1.31586 1.54899 1.41705 1.42687 1.3881 1.42061 1.28696 1.41195 1.36944 1.32896 1.36224 1.44047 1.51143 1.43038 1.40572 1.40357 1.67491 1.30553 1.03785 1.52776 1.42904 1.48323 1.27845 1.48624 1.18012 1.43885 1.44981 1.36286 1.35923 1.44859 1.47828 1.4786 1.45654 1.38846 1.49927 1.16706 1.16622 1.32012 1.28912 1.20451 1.33981 1.28518 1.23804 1.47702 1.39631 1.45511 1.38565 1.48779 1.3729 1.34909 1.27261 1.34503 1.26997 1.37882 1.45884 1.4501 1.47505 1.46695 1.40662 1.44086 1.47243 1.8013 1.16694 5.18916 1.65002 1.15645 1.34938 1.2565 1.79917 1.40899 1.39515 1.52805 1.13713 1.59639 1.52468 1.39965 1.34055 1.23972 1.32297 1.4481 1.33024 1.33419 1.39984 1.37156 1.42752 1.4724 1.39569 1.51401 1.19536 1.26226 1.27074 1.26444 1.30369 1.32393 1.26359 1.25834 1.20098 1.40124 1.41692 1.49429 1.24408 1.09474 1.55692 1.05283 1.35338 1.42926 1.43607 1.43507 1.45636 1.47099 1.54717 1.43023 1.44418 1.39257 1.38181 1.21562 1.43127 1.31573 2.20355 1.42132 2.16266 0.669126 0.347623 0.684919 0.906019 0.930647 0.80593 0.603364 0.581189 1.59778 1.81076 1.98018 1.5416 1.36897 1.91906 1.77183 1.38242 1.37948 1.21539 1.10001 1.33878 1.42857 1.41635 1.35857 1.318 1.31802 1.39593 1.30235 1.28579 1.21493 1.19433 1.2672 1.23252 1.25461 1.25453 1.24353 1.30386 1.29053 1.22065 1.24156 1.16194 1.17704 1.5085 1.33094 1.2895 1.27221 1.3339 1.56088 1.22919 1.47573 1.52093 1.47667 1.4345 1.43996 1.34925 1.50345 1.38738 2.17479 1.54321 1.27001 3.10788 1.66284 0.811248 1.04403 0.891063 0.725325 0.775844 0.815058 0.867878 0.8439 0.902695 0.835305 0.816422 0.907448 0.906075 0.913987 0.942761 0.820188 0.946331 0.804728 1.15133 1.31312 1.38792 0.928559 1.07887 1.19705 1.31642 1.13387 1.20054 1.10936 1.23999 1.30639 1.18306 1.37421 1.36757 1.41495 1.43377 1.30625 1.28638 1.25637 1.29727 1.3172 1.16472 1.25466 1.18699 1.22046 1.22779 1.24965 1.22127 1.1766 1.174 1.19158 1.14331 1.13223 1.35442 1.32013 1.30876 0.98779 1.40126 1.69797 1.20479 1.51008 1.61846 1.33944 1.56971 1.16773 1.3176 1.15275 0.921551 0.303242 0.991609 1.18472 1.14124 0.906563 1.02749 0.880895 0.856129 0.841973 0.861688 0.862032 0.852566 0.857486 0.853602 0.892603 0.880355 0.896521 0.91073 0.900345 0.912445 0.815791 0.930553 1.17214 1.01252 1.25007 1.10249 1.06992 1.07798 1.06297 1.03909 1.08035 1.12391 1.08719 1.23599 1.29332 1.22039 1.165 0.946916 1.46467 1.27502 1.17546 1.3698 1.24213 1.22644 1.22095 1.2046 1.15013 1.16418 1.15959 1.18342 1.17621 1.20684 1.16466 1.18549 1.1478 1.15061 1.12086 1.33355 1.36429 1.16295 0.652634 1.08593 1.24689 1.35168 1.11162 1.25636 1.43505 1.00473 1.24263 1.50816 1.2817 1.48406 1.32807 1.31338 1.28978 1.24249 1.09997 1.23841 1.18755 1.01283 0.897563 0.911054 1.13492 0.878945 0.907216 0.87427 0.871501 0.88242 0.854519 0.842363 0.828323 0.835624 0.855905 0.849024 0.864043 0.869627 0.866272 0.89684 0.882854 0.91865 0.924024 0.945188 0.999113 0.867148 0.928861 0.900729 1.01006 0.995481 0.985155 1.04319 0.865497 1.11086 1.20066 1.18223 1.19572 1.15775 1.2141 1.13804 1.20238 1.11007 1.29953 1.14603 1.03651 1.04907 1.08265 1.12177 1.10034 1.04763 1.18113 1.18908 1.0601 1.19919 1.0464 1.17786 1.1715 1.06575 1.19997 1.15092 1.06882 1.08642 1.12358 1.1392 1.23267 1.34965 1.30768 0.972529 1.58424 0.972362 1.18308 1.19573 0.707727 1.17899 1.20075 1.32158 1.2029 1.10646 1.04435 1.19649 1.09241 1.07199 1.11778 0.952761 0.895845 0.983573 0.930611 0.91313 0.924538 0.903884 0.907912 0.911116 0.883019 0.943014 0.807769 0.84079 0.792236 0.755383 0.642128 0.802661 0.747102 0.799587 0.815836 0.854798 0.859762 0.862104 0.871417 0.898985 0.92626 0.933622 0.871276 0.969047 0.913656 0.908806 0.901589 0.930904 0.913434 0.940867 1.01256 0.938428 0.941828 0.929694 0.849531 0.961025 1.03637 1.15673 0.972927 1.18561 0.758576 0.973954 0.976689 1.01515 1.18094 1.06077 1.15133 1.04004 1.03017 0.967485 0.98236 0.966751 0.962403 0.955599 1.15333 1.06722 1.11691 1.11896 1.07464 1.11004 0.955817 1.13732 1.38419 1.06355 1.21175 1.18697 1.09947 1.1591 1.14549 1.1169 0.968515 0.756649 0.906652 1.00302 1.28663 1.39468 1.05647 1.0466 1.04438 1.04648 1.04419 1.03988 1.10985 1.10129 1.07252 1.11799 1.01014 1.11494 1.03505 0.957483 0.964061 0.930656 0.982467 0.932298 0.948371 0.911203 0.908094 0.921397 0.909781 0.890907 0.960358 0.975588 0.884475 0.750123 0.724354 0.729394 0.665608 0.625997 0.636605 0.618286 0.654635 0.685837 0.784465 0.807966 0.845458 0.876969 0.843681 0.854137 0.870351 0.888679 0.861175 0.888478 0.872806 0.854573 0.818781 0.896948 0.874485 0.843794 0.898548 0.89407 0.89865 0.867091 0.888036 0.866071 0.942507 0.834591 1.06764 0.908798 0.847999 0.980617 0.802096 0.708752 1.05258 0.913696 0.927146 1.0395 1.12675 1.04727 1.0103 0.976195 0.955989 0.924587 0.973968 1.10483 1.13752 1.12329 0.935464 1.08746 1.34953 0.891243 0.896497 1.12027 1.31912 1.07751 1.01971 1.00892 1.05001 0.820928 1.02702 0.718553 0.813951 0.826887 0.881637 1.09623 0.926833 0.883084 0.966704 0.897839 0.890392 0.929106 0.972318 1.00985 0.769477 0.768204 0.834962 0.838968 0.797528 0.802974 0.819271 0.86016 0.844312 0.861368 0.875886 0.911749 0.861024 0.846593 0.87514 0.751945 0.815667 0.726002 0.705872 0.663082 0.71128 0.648979 0.654561 0.603518 0.61987 0.613558 0.62344 0.613186 0.62298 0.700597 0.85419 0.802092 0.839877 0.861296 0.851348 0.830831 0.790039 0.80877 0.842988 0.828703 0.827407 0.842376 0.878372 0.893529 0.876116 0.860825 0.935471 0.907828 0.889344 0.825344 0.880684 0.859642 0.875037 0.901495 0.86695 0.832395 0.75904 0.680174 0.810723 0.841538 0.882231 0.857831 0.978328 1.00474 1.02205 0.959153 0.977831 0.962004 0.76904 1.02954 1.08449 1.03722 1.04582 0.894132 0.94157 1.05758 0.929029 0.998218 0.967567 0.98195 0.787309 0.828886 0.76586 1.11442 0.97371 0.947248 0.922434 0.840778 0.888106 0.892056 0.852258 0.884247 0.868902 0.875193 0.866972 0.893842 0.888628 0.868378 0.988214 0.921997 0.846119 0.934661 1.16586 0.780264 0.826634 0.635811 0.712273 0.813566 0.922208 0.851192 0.844066 0.860833 0.860875 0.861351 0.775961 0.822346 0.742966 0.720145 0.745938 0.708199 0.68478 0.667755 0.632712 0.603159 0.660399 0.596684 0.636375 0.624392 0.677304 0.633853 0.746559 0.741585 0.76919 0.649295 0.797139 0.738284 0.832048 0.812989 0.801563 0.852399 0.822448 0.902618 0.803967 0.812719 0.790709 0.803674 0.817605 0.811658 0.825274 0.907115 0.874553 0.883636 0.84354 0.879844 0.873629 0.873065 0.795077 0.778466 0.703726 0.839391 0.762765 0.785956 0.797915 0.810373 0.782288 0.766133 0.846075 0.887635 0.897919 0.87713 0.866262 0.958635 0.996922 0.936337 0.972625 0.987819 0.823862 0.966408 1.03346 0.916638 0.977808 1.01651 0.976746 0.909709 0.895899 0.904815 0.954307 0.903244 0.798516 0.857318 0.797394 0.893278 0.899846 0.943897 0.919354 0.906804 0.952068 0.910635 0.904169 0.8934 0.925056 0.884778 0.918505 0.852074 0.86477 0.898765 0.81064 0.911235 0.845185 0.886398 0.915041 0.976563 0.874531 0.861945 0.884149 0.917705 0.541816 0.880714 1.33268 0.531151 0.691882 0.698562 0.822032 0.750164 0.806366 0.773404 0.844964 0.867288 0.80284 0.824654 0.81584 0.868437 0.798763 0.775146 0.803294 0.733492 0.817266 0.796472 0.828143 0.733762 0.687113 0.710813 0.640702 0.559119 0.605477 0.628395 0.608459 0.609787 0.60113 0.623045 0.632338 0.633289 0.595 0.712411 0.757971 0.68619 0.644149 0.562621 0.504809 0.444377 0.823505 0.77425 0.689832 0.728392 0.781823 0.786753 0.859099 0.840353 0.793272 0.79903 0.88 0.944064 0.829255 0.797784 0.891729 0.936232 0.819036 0.699279 0.753701 0.704551 0.726827 0.611217 0.838008 0.73761 0.81742 0.737689 0.790609 0.799702 0.755487 0.7702 0.769944 0.832571 0.838286 0.822093 0.821029 0.813367 0.935939 0.960272 1.00636 0.959803 0.904148 0.976747 0.914358 1.01929 0.873494 0.790575 0.954196 0.877998 0.92102 0.892846 0.83676 0.867523 0.904626 0.921445 0.869451 0.89196 0.715756 0.998142 0.88365 0.93465 0.91959 0.913814 0.907209 0.956171 0.89514 0.895762 0.822816 0.891573 0.960891 0.953293 0.834599 0.81936 0.83536 0.814041 0.869698 0.875043 0.882115 0.948177 0.778913 1.08668 0.820291 0.913878 0.639346 0.818809 0.856639 0.862644 0.881772 0.872685 0.901483 0.803694 0.787848 0.785748 0.689657 0.809329 0.729496 0.750921 0.775494 0.748222 0.792351 0.626459 0.747174 0.72986 0.640546 0.575083 0.594084 0.641414 0.618616 0.617408 0.636577 0.634679 0.528201 0.536306 0.579387 0.621561 0.596232 0.589038 0.659067 0.663397 0.625963 0.681657 0.65043 0.54088 0.669247 0.915711 0.708984 0.67947 0.739399 0.739865 0.710496 0.704757 0.66165 0.65739 0.496955 0.407325 0.482216 0.708649 0.539185 0.727905 0.923331 0.686874 0.76181 0.805653 0.795483 0.665205 0.674128 0.646461 0.787306 0.784556 0.772843 0.799653 0.79126 0.794613 0.797813 0.798933 0.792317 0.80723 0.826249 0.821491 0.841183 0.845304 0.835833 0.837341 0.813142 0.888725 0.977773 0.989387 1.01708 1.0479 0.844032 0.919258 1.15433 0.750491 0.89301 0.759828 0.833462 0.955879 0.845736 0.901951 0.878183 0.877315 0.899657 0.858493 0.845016 0.849581 0.849649 0.848005 0.936933 0.969579 0.926618 1.03575 0.883744 1.07147 0.886865 0.917105 0.858153 0.81345 0.803003 0.790738 0.806359 0.766015 1.04833 0.769035 0.582033 0.71189 0.650983 0.66721 0.593968 0.918285 0.84415 0.802578 0.759284 0.704488 0.693985 0.797211 0.774819 0.747173 0.795605 0.76063 0.734289 0.748913 0.754233 0.744125 0.69622 0.74634 0.705831 0.685773 0.639553 0.71646 0.671144 0.647943 0.651882 0.64385 0.645766 0.639324 0.601088 0.604669 0.596937 0.56685 0.607289 0.554255 0.614234 0.686144 0.691385 0.608778 0.684622 0.659759 0.649969 0.653765 0.825168 0.661742 0.83714 0.856254 0.730224 0.649899 0.772046 0.735695 0.759549 0.750067 0.727471 0.65856 0.821853 0.857674 0.708407 0.813821 0.903933 0.715584 0.631068 0.783156 0.689114 0.768047 0.760184 0.794017 0.783596 0.823755 0.827437 0.822565 0.815632 0.790245 0.94125 0.874436 0.821597 0.852931 0.831539 0.88502 0.970913 0.777552 0.794972 0.783495 0.86522 0.803231 0.686769 0.822881 0.821703 1.00033 0.781216 0.821931 0.725798 0.847526 0.888961 0.876351 0.854869 0.821491 0.831414 0.836759 0.918761 0.917071 0.826935 0.646568 0.810516 0.642617 0.825676 0.738194 0.7506 0.68947 0.715856 0.776252 0.739345 0.731027 0.758266 0.750499 0.806245 0.855162 0.791748 0.818663 0.768395 0.914841 0.972379 0.70327 0.707004 0.789544 0.731231 0.755922 0.745349 0.750263 0.756568 0.73857 0.800151 0.801253 0.802736 0.760204 0.766359 0.782141 0.765656 0.780829 0.710225 0.681498 0.742443 0.719272 0.681729 0.718401 0.642054 0.64994 0.703049 0.643799 0.648547 0.650164 0.647483 0.647579 0.63372 0.654956 0.62051 0.530088 0.523557 0.522215 0.619165 0.617746 0.613687 0.61609 0.608685 0.6068 0.606941 0.629196 0.630021 0.6289 0.648273 0.634952 0.746954 0.693077 0.689199 0.755379 0.705849 0.764499 0.737808 0.742488 0.966733 0.957883 0.780821 0.71844 0.760336 0.734683 0.727253 0.678822 0.704363 0.606761 0.7045 0.705863 0.766656 0.803636 0.781218 0.754003 0.729181 0.742654 0.787173 0.778971 0.769179 0.773636 0.773079 0.764412 0.809495 0.778473 0.825212 0.827115 0.798453 0.800259 0.775692 0.924865 0.709247 0.754911 0.717612 0.745763 0.761629 0.865418 0.773444 0.818993 0.853148 0.853781 0.81097 0.745324 0.661043 0.744471 1.04398 0.812014 1.02031 0.847641 0.825783 0.872036 0.846147 0.885481 0.775442 0.820431 0.789343 0.773005 0.843497 0.862192 0.837878 0.826872 0.820352 0.774092 0.771471 0.74985 0.789981 0.751539 0.750298 0.806989 0.727953 0.763384 0.697847 0.773855 0.870359 0.861434 0.871114 0.801119 0.849241 0.722348 0.772519 0.718126 0.798001 0.807849 0.745648 0.755301 0.786504 0.705598 0.710884 0.715896 0.710916 0.666328 0.694777 0.654548 0.653353 0.655035 0.625104 0.644472 0.671829 0.643424 0.7406 0.668799 0.651709 0.641791 0.517202 0.517528 0.588649 0.535974 0.626187 0.623418 0.619476 0.647905 0.652646 0.629563 0.628693 0.639864 0.596844 0.616953 0.552775 0.522428 1.01974 0.952909 0.761889 0.69493 0.673277 0.740511 0.694952 0.740052 0.850703 0.640777 0.647234 0.690382 0.836989 0.563763 0.593511 0.596648 0.494295 0.848501 0.768637 0.775393 0.697951 0.728906 0.779009 0.788512 0.82066 0.793189 0.748639 0.752551 0.81635 0.849239 0.856606 0.804399 0.752717 0.760169 0.800835 0.768996 0.698888 0.716889 0.710929 0.765831 0.58326 0.678885 0.749252 0.786564 0.700759 0.764605 0.900233 0.8775 0.910257 0.86678 0.72045 0.724511 0.67387 0.769586 0.891733 1.05512 0.83314 0.769207 0.784121 0.736123 0.853419 0.800262 0.76839 0.740835 0.78965 0.830125 0.761298 0.849695 0.865267 0.917928 0.819 0.835791 0.777862 0.807599 0.787487 0.771502 0.805848 0.779122 0.761525 0.762774 0.734809 0.728668 0.706242 0.736097 0.783977 0.666831 0.83673 0.777226 0.807378 0.769981 0.748272 0.748996 0.689174 0.689839 0.721543 0.669185 0.665585 0.74245 0.692605 0.669326 0.747986 0.75355 0.696884 0.72194 0.687517 0.738801 0.713155 0.664461 0.771099 0.684728 0.698273 0.700786 0.622501 0.646792 0.630065 0.678026 0.655322 0.624612 0.655286 0.550072 0.614902 0.642747 0.560985 0.585603 0.60592 0.597497 0.614563 0.737088 0.703585 0.65765 0.64096 0.647359 0.611662 0.63235 0.651329 0.653053 0.645792 0.631033 0.632074 0.621986 0.649613 0.85655 0.641883 0.630209 0.563485 0.686509 0.650413 0.657053 0.669421 0.672098 0.672424 0.735985 0.733257 0.736355 0.779385 0.556543 0.520362 0.780789 0.719376 0.753182 0.758554 0.769798 0.81445 0.806973 0.787068 0.71734 0.730816 0.61537 1.00246 0.843413 0.809795 0.888071 0.842933 0.84762 0.74355 0.755503 0.646692 0.654712 0.747137 0.776744 0.793607 0.816262 0.740906 0.599669 0.757675 0.661705 0.736942 0.625688 0.851328 0.876218 0.80565 0.74333 0.816681 0.939404 0.944819 0.862387 0.724774 0.650514 0.688157 0.741155 0.818481 0.842578 0.855298 0.951022 0.84381 0.763866 0.721186 0.736555 0.769583 0.754905 0.744819 0.785723 0.802298 0.785679 0.660917 0.832981 0.777644 0.889245 0.863186 0.84264 0.831586 0.837749 0.759891 0.773292 0.70809 0.735282 0.735527 0.651929 0.790071 0.740575 0.707657 0.684318 0.792803 0.716854 0.803189 0.723879 0.774586 0.705178 0.688984 0.653343 0.651088 0.66209 0.65474 0.679361 0.65254 0.650393 0.646404 0.669237 0.626389 0.718985 0.604382 0.704282 0.696255 0.681876 0.7058 0.71147 0.686658 0.665377 0.67849 0.700677 0.6284 0.654095 0.63112 0.641969 0.638163 0.635598 0.639561 0.64639 0.637357 0.628713 0.627306 0.639704 0.62643 0.538315 0.665998 0.489288 0.684547 0.323653 0.640841 0.610054 0.774091 0.872797 0.677048 0.710238 0.705749 0.657417 0.623984 0.612171 0.619226 0.58404 0.572016 0.585083 0.683458 0.633451 0.621381 0.652663 0.67059 0.657161 0.67771 0.690274 0.671903 0.67538 0.707408 0.702095 0.839019 0.72196 0.751174 0.769456 0.644185 0.71551 0.650436 0.652586 0.666904 0.76525 0.712586 0.778558 0.785408 0.596863 0.989297 1.19924 0.865871 0.785377 0.74505 0.578581 0.620457 0.703635 0.689637 0.660903 0.703246 0.74928 0.772366 0.7215 0.689665 0.69779 0.637613 0.577378 0.480202 0.803233 0.798367 0.807942 0.866388 0.655803 0.713974 0.682909 0.657094 0.639776 0.622451 1.16374 0.673552 0.763247 0.679252 0.71231 0.745376 0.735956 0.746851 0.744164 0.734891 0.742769 0.775551 0.807012 0.645219 0.641686 0.72612 0.789076 0.863534 0.802779 0.802084 0.879505 0.775087 0.788538 0.837043 0.726064 0.777666 0.871022 0.640811 0.783491 0.728145 0.732392 0.719455 0.729484 0.730811 0.72753 0.702128 0.67913 0.7094 0.70714 0.654261 0.664037 0.652202 0.647675 0.64748 0.638596 0.647284 0.645563 0.60585 0.60475 0.636569 0.647651 0.629462 0.64076 0.64663 0.652516 0.680012 0.668286 0.693807 0.550774 0.587173 0.552672 0.603217 0.583723 0.575408 0.631128 0.626298 0.632287 0.625099 0.620424 0.618009 0.608296 0.605152 0.593757 0.608343 0.53901 0.528748 0.50023 0.498612 0.526149 0.45738 0.593517 0.662102 0.523746 0.727872 0.578208 0.686423 0.629634 0.574881 0.588724 0.610254 0.600532 0.609115 0.59949 0.577138 0.595605 0.586473 0.593302 0.583553 0.611225 0.632219 0.622276 0.647949 0.645519 0.659865 0.680877 0.74822 0.901226 0.78829 0.777716 0.754148 0.624946 0.669275 0.660722 0.619894 0.611664 0.784202 0.839383 0.879343 0.803611 0.764705 0.736696 0.746179 0.881342 0.761349 0.583666 0.449837 0.646476 0.580163 0.598373 0.640882 0.664263 0.669661 0.607863 0.598356 0.644677 0.694456 0.75141 0.723902 0.716591 0.677507 0.65322 0.458737 0.550425 0.550425 0.696482 0.851458 0.932465 0.663637 0.683894 0.683005 0.759999 0.763053 0.748024 0.944766 0.985771 0.221414 1.09679 0.802043 0.754983 0.776527 0.676569 0.725717 0.700313 0.729847 0.732643 0.76892 0.818843 0.781075 0.89804 0.708697 0.675355 0.726397 0.659221 0.750034 0.857266 0.647608 0.543995 1.26001 0.694751 0.814039 0.732691 0.666671 0.727755 0.741952 0.698349 0.703325 0.684473 0.672577 0.743061 0.649591 0.588445 0.708138 0.579034 0.597762 0.595716 0.607941 0.632779 0.626269 0.607289 0.619293 0.629636 0.595686 0.638157 0.58657 0.642202 0.675005 0.656845 0.62513 0.61623 0.639633 0.575562 0.604952 0.567933 0.593364 0.497693 0.60531 0.629763 0.538276 0.617198 0.599979 0.626098 0.571781 0.535586 0.660364 0.35492 0.587428 0.503917 0.449043 0.516661 0.538466 0.552016 0.542015 0.561605 0.518916 0.552208 0.523548 0.565773 0.560329 0.584782 0.645757 0.605254 0.800626 0.708687 0.620322 0.612097 0.590357 0.595177 0.585854 0.594317 0.591398 0.562161 0.560699 0.561748 0.55588 0.541596 0.576723 0.568369 0.601215 0.650711 0.674803 0.649324 0.632135 0.681684 0.592407 0.572488 0.482887 0.505649 0.493135 0.528782 0.706042 0.884011 0.65942 0.850103 0.618555 0.579307 0.630024 0.460854 0.474501 0.542464 0.621335 0.512037 0.638813 0.633928 0.633793 0.666168 0.640965 0.680999 0.696311 0.665832 0.625851 0.645207 0.700785 0.635822 0.681612 0.753409 0.462288 0.687789 0.754144 0.772854 0.783149 0.82092 0.667377 0.559817 1.12379 0.78862 0.0812412 0.85111 0.710942 0.717535 0.721476 0.721716 0.740955 0.86806 0.737866 0.76004 0.706748 0.710664 0.629701 0.925673 0.612323 0.429734 0.704806 0.810974 0.535847 0.372345 0.709775 0.684356 0.540866 0.660556 0.681309 0.701166 0.651333 0.671522 0.666703 0.670504 0.64918 0.675527 0.666551 0.667897 0.618675 0.610478 0.617845 0.615997 0.600158 0.60751 0.616093 0.596989 0.595586 0.592044 0.591493 0.570887 0.5925 0.586871 0.574209 0.601232 0.545306 0.638562 0.760744 0.822728 0.547551 0.441872 0.674725 0.619237 0.437075 0.565262 0.570125 0.573654 0.579265 0.562696 0.547027 0.439986 0.813957 0.626956 0.50869 0.473071 0.481838 0.410532 0.406342 0.406648 0.468522 0.490746 0.470798 0.450174 0.479668 0.514177 0.559062 0.558418 0.589306 0.57294 0.556433 0.563093 0.576828 0.572323 0.597136 0.606994 0.702938 0.570516 0.607188 0.608022 0.547166 0.581385 0.556681 0.56986 0.564384 0.619407 0.632867 0.702573 0.721789 0.75159 0.855149 0.463856 0.630903 0.527821 0.546317 0.518057 0.515909 0.597938 0.606165 0.568498 0.529353 0.562263 0.552074 0.534802 0.607801 0.577155 0.644321 0.607348 0.605079 0.610773 0.594701 0.638773 0.621252 0.654001 0.653934 0.665225 0.66419 0.674325 0.684345 0.68165 0.690264 0.684366 0.679578 0.689859 0.653865 0.670751 0.533201 0.53991 0.595727 0.713054 0.7762 0.794318 0.763273 0.556114 0.722271 0.421391 0.566395 0.800818 0.801527 0.767925 0.732632 0.734014 0.725296 0.726337 0.764093 0.728023 0.820353 0.744992 0.730789 0.696232 0.6153 0.589958 0.584253 0.64371 0.641459 0.648442 0.666886 0.617988 0.591021 0.632624 0.637772 0.638315 0.65097 0.637437 0.644661 0.666597 0.647391 0.624816 0.569427 0.567702 0.591372 0.589739 0.595788 0.591895 0.608009 0.608832 0.614046 0.607182 0.593991 0.562761 0.568614 0.606483 0.570011 0.618311 1.22888 0.9676 0.844913 0.537882 0.421778 0.526322 0.553886 0.546368 0.574806 0.561722 0.618852 0.533438 0.544491 0.484543 0.520319 0.472412 0.444172 0.465449 0.439078 0.445576 0.473013 0.494195 0.507704 0.525342 0.563944 0.531965 0.532053 0.594452 0.665208 0.403692 0.51456 0.542806 0.482769 0.534061 0.525924 0.438218 0.593541 0.537949 0.534532 0.530683 0.540793 0.539483 0.516494 0.52914 0.55026 0.549981 0.514461 0.506521 0.508386 0.514163 0.584679 0.573727 0.556944 0.741188 0.489055 0.443172 0.438402 0.557077 0.544774 0.548287 0.577422 0.509078 0.606458 0.579296 0.557828 0.5857 0.563979 0.584568 0.578718 0.590954 0.581171 0.587168 0.596524 0.605803 0.61493 0.640682 0.634436 0.655801 0.668075 0.689251 0.681865 0.693937 0.685336 0.67098 0.662173 0.634467 0.617843 0.675524 0.670319 0.706674 0.740356 0.774006 0.749991 0.75315 0.764782 0.745195 0.724461 0.661923 0.639559 0.683776 0.755215 0.779056 0.74327 0.728794 0.725612 0.70834 0.706097 0.67813 0.692965 0.714415 0.717607 0.71549 0.692852 0.696213 0.64609 0.593747 0.64032 0.624441 0.631424 0.690444 0.631747 0.630122 0.633452 0.638594 0.629744 0.636965 0.644559 0.635917 0.623389 0.613657 0.588547 0.585021 0.580728 0.584701 0.602713 0.594053 0.599003 0.5993 0.610017 0.616354 0.568583 0.572227 0.551364 0.509693 0.523855 0.568877 0.57816 0.663105 0.490104 0.701847 0.511032 0.631968 0.568514 0.545655 0.573773 0.56071 0.528967 0.518974 0.568509 0.819269 0.545456 0.703484 0.523683 0.580282 0.412426 0.517827 0.454719 0.506994 0.469916 0.481669 0.492869 0.479486 0.459909 0.453067 0.42472 0.4471 0.428212 0.45344 0.486982 0.497899 0.35726 0.433078 0.455044 0.211422 0.45074 0.41901 0.554338 0.390766 0.491748 0.313032 0.492705 0.497959 0.445291 0.459124 0.501742 0.482434 0.504625 0.501231 0.511286 0.505622 0.528328 0.549048 0.537477 0.544964 0.505635 0.444867 0.455669 0.526603 0.535526 0.551028 0.5572 0.552573 0.555314 0.544513 0.557481 0.564438 0.574587 0.580803 0.595008 0.597722 0.5993 0.600896 0.593724 0.599882 0.599987 0.613796 0.614246 0.612561 0.646604 0.676396 0.693688 0.68962 0.692151 0.686071 0.695157 0.685509 0.684699 0.666773 0.666573 0.66403 0.697964 0.725972 0.739629 0.747047 0.740647 0.7348 0.713807 0.732133 0.705866 0.721485 0.759905 0.746297 0.755081 0.735975 0.714543 0.6893 0.670902 0.695554 0.690251 0.687395 0.665784 0.668782 0.650575 0.632795 0.641565 0.62778 0.640571 0.745007 0.516482 0.664456 0.647122 0.635863 0.637415 0.636666 0.631794 0.630639 0.624325 0.621078 0.603243 0.604657 0.586789 0.581711 0.574782 0.573666 0.568602 0.588448 0.555834 0.563078 0.615158 0.588946 0.587553 0.457353 0.502683 0.480197 0.599192 0.646188 0.583906 0.634622 0.649085 0.610368 0.677544 0.757854 0.790932 0.573535 0.484591 0.51225 0.664046 0.470857 0.494738 0.44177 0.48835 0.485651 0.421417 0.427171 0.388795 0.395579 0.421461 0.35379 0.367024 0.343223 0.338935 0.266824 0.310791 0.150162 0.132373 0.432829 0.320545 0.445124 0.408436 0.400363 0.424395 0.325671 0.41232 0.433222 0.450089 0.450693 0.478438 0.490869 0.502928 0.480667 0.527464 0.529299 0.528217 0.533291 0.516013 0.473985 0.533833 0.52808 0.540101 0.547122 0.558068 0.574999 0.586554 0.598191 0.605288 0.606157 0.612285 0.608422 0.617496 0.607725 0.606453 0.615141 0.620983 0.618945 0.639657 0.61377 0.682706 0.675274 0.685292 0.686344 0.693702 0.700846 0.702638 0.692326 0.70497 0.698604 0.684368 0.689759 0.704825 0.713468 0.710837 0.723205 0.73395 0.738294 0.742771 0.740267 0.753155 0.751453 0.775086 0.771677 0.756416 0.737298 0.74344 0.721215 0.699591 0.676449 0.660981 0.677513 0.684118 0.673938 0.656744 0.654199 0.655696 0.646885 0.637482 0.662671 0.673118 0.593249 0.575468 0.661899 0.613459 0.660831 0.6361 0.630806 0.629572 0.626099 0.621219 0.621241 0.610322 0.592427 0.575739 0.566213 0.559626 0.566574 0.577843 0.614211 0.678057 0.488058 0.724497 0.483855 0.354797 0.541803 0.593042 0.533193 0.522223 0.506604 0.514412 0.361307 0.497813 0.432553 0.368345 0.612516 0.562103 0.459329 0.553547 0.463824 0.293387 0.514309 0.057931 0.520279 0.503879 0.28609 0.257746 0.320499 0.293701 0.301791 0.425288 0.381194 0.372885 0.388274 0.361479 0.344257 0.321147 0.263478 0.34127 0.351069 0.328322 0.338401 0.330384 0.307949 0.284845 0.266074 0.273988 0.239517 0.205174 0.193641 0.280763 0.159536 0.250122 0.348433 0.412912 0.36638 0.354184 0.314255 0.405297 0.389849 0.43759 0.442334 0.460706 0.455822 0.479217 0.469591 0.496394 0.499407 0.525384 0.534198 0.530939 0.532025 0.533955 0.515262 0.538699 0.539891 0.534875 0.532567 0.53624 0.540014 0.555046 0.572197 0.587315 0.602557 0.606205 0.607624 0.6156 0.618901 0.619373 0.62138 0.623001 0.61622 0.620967 0.618142 0.617325 0.618227 0.611427 0.662731 0.673977 0.678312 0.684104 0.691315 0.700604 0.71466 0.712099 0.691625 0.708516 0.697201 0.696197 0.712333 0.704177 0.704028 0.704501 0.706179 0.716553 0.727946 0.735622 0.743281 0.746993 0.766147 0.811102 0.753542 0.720002 0.713849 0.700919 0.666547 0.654123 0.652682 0.659223 0.66081 0.667019 0.659543 0.663259 0.65797 0.664952 0.665911 0.654566 0.674303 0.634177 0.603548 0.615395 0.612815 0.628261 0.621696 0.622564 0.621131 0.61978 0.623204 0.612599 0.602465 0.581968 0.59816 0.585075 0.570133 0.557446 0.558215 0.548072 0.581654 0.546803 0.562448 0.538089 0.558112 0.56504 0.705835 0.284628 0.473271 0.508089 0.484498 0.535348 0.469066 0.476293 0.559743 0.449482 0.494315 0.318481 0.411189 0.289138 0.366927 0.282404 0.244407 0.272141 0.304197 0.2582 0.278067 0.328084 0.283489 0.430934 0.300569 0.389357 0.336595 0.348629 0.326507 0.307847 0.305401 0.174366 0.263384 0.260527 0.289193 0.293674 0.315645 0.307875 0.316906 0.331531 0.354827 0.299091 0.20142 0.315748 0.188661 0.144029 0.186838 0.317122 0.377299 0.376293 0.405832 0.371528 0.394049 0.412318 0.415585 0.416259 0.420976 0.447048 0.441883 0.474995 0.485104 0.50009 0.526895 0.54134 0.539918 0.544206 0.54501 0.550523 0.546252 0.54411 0.539973 0.542249 0.535358 0.547316 0.538231 0.570343 0.560974 0.595133 0.594274 0.619591 0.615998 0.625005 0.627559 0.626064 0.629867 0.625471 0.626736 0.624123 0.637505 0.668634 0.681804 0.696083 0.729158 0.72761 0.73598 0.718617 0.708607 0.694343 0.711026 0.707276 0.698819 0.704348 0.718845 0.732929 0.747463 0.755856 0.747321 0.744246 0.758223 0.800864 0.729517 0.713088 0.702974 0.672501 0.682996 0.664199 0.659163 0.658278 0.66617 0.661405 0.638676 0.660692 0.660731 0.661767 0.665175 0.673146 0.646188 0.63548 0.627569 0.630261 0.620947 0.624125 0.620306 0.624017 0.611831 0.599526 0.596321 0.588673 0.576884 0.568355 0.577634 0.560558 0.545333 0.539434 0.542084 0.523054 0.573372 0.537892 0.592028 0.519436 0.562966 0.365959 0.355513 0.414111 0.441485 0.30598 0.330071 0.466841 0.393607 0.429223 0.456255 0.450806 0.475796 0.48229 0.479083 0.509789 0.494689 0.457849 0.456346 0.459252 0.340514 0.309391 0.404921 0.263317 0.291912 0.260416 0.260839 0.262735 0.256926 0.250032 0.28974 0.253041 0.297009 0.24585 0.304569 0.258278 0.303172 0.327651 1.83287 0.277022 0.208223 0.252148 0.240401 0.300486 0.278475 0.241348 0.242259 0.354142 0.447189 0.153473 0.578498 0.392818 0.437637 0.540829 0.429467 0.41281 0.429604 0.432708 0.452737 0.460324 0.479912 0.479181 0.49355 0.508567 0.525455 0.542356 0.547676 0.551481 0.557725 0.555765 0.550407 0.548564 0.547326 0.546171 0.53469 0.550312 0.595374 0.617425 0.621804 0.630087 0.640254 0.631091 0.634127 0.63404 0.633309 0.632988 0.634082 0.6349 0.610386 0.631379 0.658072 0.663104 0.656962 0.691191 0.697395 0.738115 0.688018 0.765012 0.763708 0.747817 0.713894 0.699485 0.681971 0.701966 0.703207 0.691427 0.699558 0.678294 0.715093 0.766465 0.74985 0.733722 0.672642 0.679934 0.717012 0.722279 0.707667 0.687003 0.677769 0.651366 0.675311 0.678304 0.667235 0.649033 0.650113 0.660555 0.662523 0.657063 0.662575 0.655688 0.650085 0.641554 0.646128 0.637904 0.636828 0.636767 0.622062 0.626203 0.620908 0.609368 0.61791 0.593346 0.565185 0.581068 0.554585 0.54287 0.547248 0.544195 0.532347 0.537949 0.524103 0.552039 0.542346 0.553622 0.563064 0.477609 0.396776 0.438375 0.442959 0.461797 0.492828 0.484006 0.474548 0.454161 0.390815 0.32365 0.299642 0.27845 0.251719 0.24199 0.252584 0.24383 0.228912 0.223153 0.220109 0.223694 0.21638 0.211103 0.254377 2.11208 0.12005 0.106938 0.252177 0.19945 0.261667 0.249703 0.344929 0.230631 0.223903 0.119755 0.253137 0.169895 0.00935987 0.242382 0.969103 0.665299 0.519402 0.414138 0.452283 0.423416 0.445466 0.458863 0.465191 0.473554 0.489109 0.51527 0.541045 0.557843 0.557229 0.561791 0.560725 0.558216 0.55032 0.544005 0.545042 0.514218 0.53068 0.567995 0.546893 0.611028 0.655253 0.637992 0.641857 0.637125 0.638087 0.638688 0.634141 0.631975 0.62909 0.636452 0.677115 0.665785 0.654226 0.743313 0.678171 0.701426 0.811782 0.754893 0.708469 0.716393 0.68886 0.67449 0.598356 0.674849 0.679447 0.672457 0.781229 0.757351 0.756645 0.72258 0.67677 0.678801 0.665201 0.703766 0.710972 0.726878 0.664648 0.691084 0.671218 0.676463 0.655964 0.67466 0.671846 0.663108 0.668741 0.672324 0.672397 0.662028 0.655718 0.651628 0.647895 0.645895 0.648407 0.644273 0.641829 0.641839 0.627912 0.626777 0.627988 0.606876 0.623491 0.591791 0.571055 0.584434 0.57345 0.559795 0.553399 0.547369 0.535676 0.560681 0.542249 0.559217 0.544649 0.537545 0.542302 0.4799 0.552882 0.487041 0.498378 0.441878 0.457555 0.484711 0.470139 0.477595 0.489482 0.492856 0.495804 0.482359 0.463444 0.382628 0.440134 0.349603 0.228221 0.235694 0.243018 0.259074 0.237156 0.194958 0.222495 0.209341 0.190754 0.194941 0.189954 0.160147 0.110921 0.136711 0.387738 0.197812 0.298189 0.283811 0.290488 0.253338 0.30671 0.33129 0.108379 0.817165 0.38769 0.40257 0.380202 0.426867 0.455355 0.475262 0.467745 0.467798 0.493742 0.552528 0.564865 0.565829 0.556094 0.548177 0.533581 0.529106 0.526934 0.546517 0.507323 0.688249 0.648304 0.634433 0.637787 0.639811 0.640941 0.630564 0.631506 0.639743 0.666865 0.692802 0.686279 0.667967 0.654617 0.61456 0.73415 0.66469 0.503452 0.619189 0.877891 0.777491 0.706782 0.640997 0.633979 0.582451 0.682152 0.636496 0.616657 0.664765 0.722061 0.727709 0.709528 0.679025 0.666985 0.714945 0.738749 0.645418 0.661922 0.675952 0.677314 0.672827 0.669533 0.672308 0.664931 0.650978 0.652457 0.651281 0.650009 0.653529 0.646236 0.640214 0.633005 0.630196 0.60128 0.604531 0.594151 0.587465 0.5665 0.577569 0.557685 0.554719 0.548669 0.548418 0.546698 0.558775 0.550942 0.525636 0.475514 0.482052 0.478568 0.489895 0.473025 0.481686 0.479056 0.469612 0.475657 0.485992 0.495777 0.480199 0.493048 0.438519 0.445012 0.436934 0.196894 0.19199 0.215184 0.234495 0.210744 0.193021 0.199291 0.187755 0.156643 0.17749 0.2692 0.372261 0.332732 0.180295 0.170806 0.606365 1.1788 0.835294 0.55286 0.472098 0.528457 0.454077 0.3333 0.323663 0.395783 0.497336 0.467112 0.467975 0.457708 0.524388 0.59608 0.567305 0.582212 0.561014 0.568855 0.548393 0.539428 0.52877 0.524741 0.52579 0.535673 0.532595 0.532394 0.561105 0.600968 0.683575 0.618457 0.632422 0.624298 0.634213 0.633046 0.637215 0.630728 0.628757 0.639023 0.671249 0.639975 0.609384 0.648232 0.643631 0.621472 0.621978 0.621312 0.580328 0.614378 0.616337 0.587974 0.505181 0.923139 0.69043 0.694179 0.5805 0.53178 0.529316 0.670813 0.640282 0.656084 0.614441 0.751499 0.716485 0.688005 0.693228 0.716116 0.718919 0.770895 0.602863 0.6771 0.679837 0.679051 0.683365 0.672443 0.67023 0.676569 0.675617 0.654405 0.647602 0.6521 0.646302 0.650436 0.64605 0.649516 0.643808 0.640433 0.635264 0.630878 0.600737 0.587896 0.576436 0.584628 0.578899 0.56791 0.565618 0.557451 0.567366 0.545402 0.530527 0.570471 0.520142 0.553421 0.507817 0.48065 0.49316 0.480326 0.48047 0.478131 0.461886 0.461108 0.442035 0.466541 0.497804 0.482619 0.443082 0.351707 0.391763 0.254791 0.299564 0.254485 0.236001 0.223272 0.23609 0.257872 0.222337 0.214209 0.207581 0.194574 0.198971 0.197928 0.212911 0.245077 0.260764 0.340927 0.227997 0.466672 1.06891 0.880558 0.24299 0.37929 0.384907 0.379703 0.321334 0.357943 0.447879 0.565407 0.689007 0.432597 0.47487 0.473763 0.525672 0.67663 0.616414 0.59548 0.577633 0.561789 0.529983 0.556803 0.548013 0.523935 0.546533 0.535766 0.568677 0.573216 0.62516 0.636417 0.661622 0.676531 0.652889 0.639204 0.630556 0.62915 0.606222 0.638209 0.60674 0.599267 0.609658 0.640995 0.637555 0.612262 0.595315 0.592165 0.609893 0.530392 0.570818 0.945644 0.789275 0.650469 0.65066 0.573964 0.743181 0.669053 0.618345 0.631097 0.634374 0.621012 0.557104 0.66915 0.709698 0.724673 0.731084 0.778038 0.565771 0.403515 0.680232 0.674176 0.689862 0.692692 0.691263 0.661893 0.67297 0.681652 0.673948 0.694692 0.698348 0.660155 0.642535 0.646809 0.65041 0.651131 0.649019 0.643237 0.633203 0.603063 0.594858 0.597282 0.589117 0.573846 0.584449 0.577639 0.563672 0.559605 0.543226 0.518414 0.567059 0.561021 0.551847 0.552352 0.434945 0.460404 0.474967 0.478855 0.478902 0.426946 0.48772 0.495549 0.466437 0.409472 0.382962 0.323891 0.260255 0.215606 0.261979 0.249359 0.249439 0.17214 0.203051 0.175643 0.245462 0.253282 0.33782 0.272023 0.266866 0.301233 0.286089 0.31024 0.60287 0.767415 0.812037 0.0514082 0.300222 0.369371 0.374627 0.345491 0.667234 0.313591 0.732932 0.602058 0.542367 0.438661 0.454497 0.313073 0.405896 0.788133 0.599372 0.57005 0.558048 0.553083 0.549334 0.550506 0.59271 0.608563 0.672083 0.681517 0.667936 0.647426 0.618193 0.596833 0.597189 0.606518 0.598704 0.604493 0.577297 0.621021 0.599333 0.651285 0.618233 0.636241 0.634475 0.564947 0.56421 0.663557 1.01395 0.597191 0.7624 0.748515 0.654301 0.68212 0.618294 0.622307 0.618008 0.560133 0.668671 0.751214 0.713861 0.656719 0.628732 0.56719 0.561742 0.481151 0.690661 0.340635 0.704874 0.643825 0.645941 0.649833 0.686015 0.640613 0.728723 0.670627 0.652068 0.647712 0.650559 0.653684 0.650599 0.652537 0.643483 0.620024 0.608767 0.596797 0.592107 0.588768 0.581594 0.574471 0.581831 0.558885 0.560651 0.52223 0.542693 0.448647 0.453044 0.462978 0.461812 0.481394 0.51152 0.479838 0.50719 0.618614 0.508406 0.447236 0.468757 0.439753 0.353361 0.339964 0.30964 0.272129 0.319115 0.416752 0.288175 0.140277 0.116199 0.364458 0.28384 0.299465 0.248089 0.317932 0.521951 0.412873 1.13236 0.723752 0.322769 0.394868 0.362817 0.394947 0.414793 0.519244 0.377797 0.492951 0.623948 0.602777 0.348821 0.245459 0.925921 0.623051 0.560453 0.588167 0.564506 0.562021 0.541329 0.597797 0.593727 0.640469 0.664651 0.547389 0.666468 0.66597 0.636936 0.611815 0.601334 0.608295 0.601988 0.604284 0.6028 0.615005 0.620811 0.644323 0.680025 0.655815 0.640144 0.584387 0.685197 0.707477 0.599063 0.641168 0.644109 0.630432 0.606344 0.663059 0.687619 0.651514 0.595829 0.620788 0.526195 0.342451 0.733347 0.648873 0.648313 0.590526 0.736826 0.679752 0.654245 0.649693 0.651846 0.652836 0.653909 0.65832 0.630535 0.605291 0.621385 0.599006 0.585547 0.575384 0.548428 0.557058 0.527506 0.544489 0.521276 0.540514 0.474279 0.465263 0.473958 0.488336 0.452191 0.423197 0.539121 0.588726 0.54048 0.542643 0.555651 0.532308 0.376246 0.322621 0.369093 0.298731 0.326912 0.436653 0.119334 0.124464 0.389843 0.290917 0.319029 0.302188 0.2814 0.465325 0.459956 0.539407 0.520526 0.362882 0.401942 0.378165 0.474692 0.510681 0.546394 0.437889 0.118001 0.800737 0.567386 0.593291 0.651454 0.533595 0.555407 0.547703 0.563755 0.556964 0.583593 0.595161 0.427629 0.642863 0.645336 0.631283 0.610727 0.595501 0.610439 0.598926 0.602162 0.632478 0.656538 0.663352 0.642028 0.628147 0.658401 0.663959 0.651074 0.663581 0.65204 0.650459 0.649405 0.65014 0.651747 0.658363 0.633856 0.631335 0.628936 0.616472 0.598925 0.614818 0.591307 0.581265 0.551093 0.545596 0.535901 0.52735 0.532753 0.437373 0.481473 0.481409 0.473724 0.481697 0.454242 0.51995 0.544459 0.463904 0.521471 0.402618 0.483974 0.349644 0.419329 0.393671 0.407312 0.583207 0.0933937 0.231748 0.373541 0.189859 0.306556 0.334567 0.300664 0.245942 0.331625 0.278223 0.484283 0.497972 0.538516 0.538765 0.409293 0.408222 0.436223 0.39865 0.517695 0.461554 0.481964 0.390297 0.443908 0.481215 0.278327 0.713562 0.62646 0.431313 0.624362 0.489072 0.551758 0.5677 0.551447 0.551623 0.563586 0.561551 0.593612 0.577916 0.584244 0.452172 0.646444 0.638225 0.612568 0.69112 0.633162 0.631125 0.618642 0.618076 0.603735 0.594905 0.57838 0.586557 0.531561 0.539007 0.534484 0.541414 0.576752 0.442275 0.490855 0.477381 0.459981 0.515398 0.507015 0.456499 0.379393 0.61056 0.630302 0.237187 0.244117 0.287647 0.238655 0.295044 0.384267 0.298494 0.299592 0.324146 0.456495 0.494869 0.547054 0.506682 0.353971 0.776731 0.395908 0.43964 0.342847 0.703385 0.576614 0.533678 0.572408 0.533757 0.606573 0.575298 0.541198 0.509776 0.551015 0.46226 0.501253 0.478461 0.509226 0.523711 0.524841 0.508227 0.391989 0.484822 0.62878 0.506018 0.340735 0.377308 0.27492 0.368131 0.298475 0.315572 0.476042 0.520128 0.718967 0.4713 0.557847 0.644801 
SCALARS Stress float 1
LOOKUP_TABLE default
-45254600000.0 -64048100000.0 -83360500000.0 -135802000000.0 -41991800000.0 -139757000000.0 -234801000000.0 -37499100000.0 -45613700000.0 -89556100000.0 -67076300000.0 -215536000000.0 -340580000000.0 -150458000000.0 -228969000000.0 -201591000000.0 -348507000000.0 -235368000000.0 -215011000000.0 -347566000000.0 -160276000000.0 -112010000000.0 -203588000000.0 -545385000000.0 -311880000000.0 -443784000000.0 -283940000000.0 -130391000000.0 -65479300000.0 -144467000000.0 -145580000000.0 -506931000000.0 -317449000000.0 -165707000000.0 -866469000000.0 -465797000000.0 -541699000000.0 -745452000000.0 -598196000000.0 -688427000000.0 -644474000000.0 -370860000000.0 -431891000000.0 -415724000000.0 -605602000000.0 -521935000000.0 -490090000000.0 -530998000000.0 -220526000000.0 -232188000000.0 -102394000000.0 -535084000000.0 -396996000000.0 -194013000000.0 -191602000000.0 -63173800000.0 -236553000000.0 -1.08147e+12 -1.15366e+12 -1.68568e+12 -1.32953e+12 -375205000000.0 -791113000000.0 -379604000000.0 -973973000000.0 -1.40365e+12 -1.20342e+12 -853950000000.0 -1.46197e+12 -1.40284e+12 -764527000000.0 -691606000000.0 -703328000000.0 -899278000000.0 -795112000000.0 -1.36849e+12 -609625000000.0 -268608000000.0 -212030000000.0 -802230000000.0 -1.17768e+12 -1.36149e+12 -1.4708e+12 -423025000000.0 -1.74603e+12 -503055000000.0 -2.25437e+12 -1.6347e+12 -2.8461e+12 -1.49887e+12 -1.02924e+12 -1.63068e+12 -684625000000.0 -2.24602e+12 -729110000000.0 -651938000000.0 -1.04452e+12 -1.16738e+12 -1.01657e+12 -787336000000.0 -805391000000.0 -402930000000.0 -413670000000.0 -361361000000.0 -62472300000.0 -314777000000.0 -1.2228e+12 -2.12508e+12 -1.74045e+12 -1.48666e+12 -2.24628e+12 -2.24421e+12 -1.69084e+12 -808982000000.0 -1.5259e+12 -1.262e+12 -1.24012e+12 -2.00905e+12 -1.30607e+12 -1.87185e+12 -3.68908e+12 -899443000000.0 -3.08797e+12 -823273000000.0 -683965000000.0 -1.02222e+12 -919783000000.0 -425473000000.0 -140807000000.0 -286051000000.0 -467403000000.0 -1.23295e+12 -3.65268e+12 -4.6555e+12 -2.49756e+12 -1.51724e+12 -2.44901e+12 -914261000000.0 -1.42226e+12 -3.47012e+12 -3.42304e+12 -2.03969e+12 -790414000000.0 -1.71485e+12 -3.04701e+12 -2.9456e+12 -2.72291e+12 -1.70732e+12 -2.03565e+12 -2.27037e+12 -834229000000.0 -1.03145e+12 -662207000000.0 -1.52784e+12 -2.09749e+12 -1.7615e+12 -1.70909e+12 -732938000000.0 -1.41548e+12 -2.33581e+12 -3.9086e+12 -2.21905e+12 -2.7575e+12 -3.40097e+12 -3.13658e+12 -2.95021e+12 -3.55287e+12 -3.27898e+12 -3.19044e+12 -1.95418e+12 -2.9729e+12 -3.44438e+12 -3.09763e+12 -3.15859e+12 -3.89315e+12 -2.15659e+12 -2.28714e+12 -2.4569e+12 -2.9062e+12 -3.38775e+12 -2.27261e+12 -1.60035e+12 -785883000000.0 -1.28008e+12 -1.50655e+12 -1.89164e+12 -1.8057e+12 -2.29371e+12 -2.40856e+12 -4.81869e+12 -1.06542e+12 -3.97451e+12 -3.55901e+12 -3.23031e+12 -6.03343e+12 -3.47638e+12 -2.12285e+12 -2.45747e+12 -502029000000.0 -4.34466e+12 -2.73981e+12 -2.76024e+12 -1.10169e+12 -3.83469e+12 -3.93855e+12 -3.56235e+12 -2.0287e+12 -2.04446e+12 -894078000000.0 -3.26673e+12 -4.16421e+12 -2.02096e+12 -3.53109e+12 -1.49504e+12 -2.31758e+12 -2.34727e+12 -3.8896e+12 -3.27749e+12 -1.61555e+12 -5.13845e+12 -4.22047e+12 -2.9785e+12 -4.23227e+12 -4.48326e+12 -3.66031e+12 -2.49702e+12 -4.5616e+12 -5.48852e+12 -4.73575e+12 -4.53554e+12 -3.5989e+12 -4.77059e+12 -4.21246e+12 -5.24886e+12 -2.62495e+12 -6.36332e+12 -2.99672e+12 -1.52661e+12 -2.44065e+12 -1.67762e+12 -1.52496e+12 -2.19006e+12 -2.32355e+12 -4.62534e+12 -6.17503e+12 -3.70505e+12 -4.07771e+12 -2.7033e+12 -3.88825e+12 -3.15622e+12 -3.30256e+12 -5.85232e+12 -3.72048e+12 -4.23984e+12 -3.03187e+12 -3.34385e+12 -3.0347e+12 -4.46556e+12 -4.9626e+12 -3.60168e+12 -5.14892e+12 -1.74628e+12 -4.75327e+12 -2.93241e+12 -5.12299e+12 -4.10464e+12 -4.78309e+12 -3.30802e+12 -3.93259e+12 -3.23808e+12 -4.11732e+12 -2.18413e+12 -4.92594e+12 -2.39009e+12 -6.17463e+12 -4.93791e+12 -5.4505e+12 -3.11957e+12 -3.57644e+12 -3.18142e+12 -5.42973e+12 -5.87105e+12 -4.2399e+12 -3.46788e+12 -4.43786e+12 -3.98523e+12 -3.79393e+12 -4.56706e+12 -6.20315e+12 -3.50679e+12 -2.60778e+12 -5.32368e+12 -2.72836e+12 -3.99113e+12 -3.33101e+12 -6.17673e+12 -6.11861e+12 -7.13407e+12 -2.91768e+12 -4.81637e+12 -4.6483e+12 -5.73007e+12 -6.37965e+12 -2.04051e+12 -4.31034e+12 -2.49677e+12 -2.92612e+12 -3.41045e+12 -6.8913e+12 -4.00458e+12 -4.97659e+12 -2.50232e+12 -4.73207e+12 -3.9331e+12 -2.58518e+12 -6.81529e+12 -5.13142e+12 -6.41148e+12 -6.18617e+12 -4.15331e+12 -4.34309e+12 -4.02493e+12 -4.55405e+12 -4.54557e+12 -3.84486e+12 -6.1763e+12 -6.67741e+12 -4.35412e+12 -3.5846e+12 -4.36276e+12 -4.72558e+12 -6.26717e+12 -4.48457e+12 -6.96808e+12 -6.09105e+12 -3.41399e+12 -4.7982e+12 -5.15602e+12 -4.00951e+12 -2.22425e+12 -4.90979e+12 -3.24748e+12 -4.57919e+12 -5.18008e+12 -1.75234e+12 -6.63306e+12 -5.02668e+12 -3.80744e+12 -4.47312e+12 -1.35841e+12 -2.0126e+12 -5.31997e+12 -2.18835e+12 -4.10071e+12 -5.03977e+12 -4.50443e+12 -4.84904e+12 -5.81398e+12 -5.49878e+12 -6.28065e+12 -5.96633e+12 -4.00953e+12 -4.69614e+12 -3.92534e+12 -3.77525e+12 -4.29037e+12 -4.0029e+12 -5.73773e+12 -2.50449e+12 -3.4878e+12 -3.66672e+12 -4.31604e+12 -5.36079e+12 -5.72146e+12 -2.67526e+12 -3.90837e+12 -4.06597e+12 -5.14564e+12 -4.47642e+12 -3.91681e+12 -2.9536e+12 -5.65078e+12 -6.10081e+12 -6.39228e+12 -4.18618e+12 -3.16096e+12 -2.4609e+12 -5.41763e+12 -6.19759e+12 -5.27203e+12 -5.2396e+12 -4.45866e+12 -4.56491e+12 -4.80049e+12 -4.11047e+12 -5.71304e+12 -4.7613e+12 -2.49182e+12 -4.12382e+12 -4.89386e+12 -5.08744e+12 -3.36585e+12 -4.28553e+12 -2.99578e+12 -3.63633e+12 -3.74256e+12 -4.88765e+12 -5.46752e+12 -5.57748e+12 -4.99999e+12 -4.86494e+12 -4.84048e+12 -6.25391e+12 -5.62876e+12 -6.73846e+12 -5.52157e+12 -2.00759e+12 -5.4434e+12 -2.72634e+12 -4.81829e+12 -4.78323e+12 -3.36704e+12 -3.82813e+12 -4.92251e+12 -7.07995e+12 -4.35028e+12 -5.06713e+12 -3.0149e+12 -6.78398e+12 -4.01104e+12 -3.63817e+12 -4.62313e+12 -5.88532e+12 -5.26121e+12 -2.81635e+12 -5.47903e+12 -3.63992e+12 -5.31568e+12 -3.80609e+12 -6.69926e+12 -6.50874e+12 -4.55154e+12 -3.86053e+12 -6.1782e+12 -5.11515e+12 -7.6316e+12 -3.57881e+12 -3.68108e+12 -4.75715e+12 -4.88079e+12 -5.65378e+12 -3.19938e+12 -12549700000.0 -3.05657e+12 -4.14574e+12 -4.28306e+12 -4.35285e+12 -5.6449e+12 -3.28733e+12 -7.64288e+12 -3.82891e+12 -5.12473e+12 -6.00623e+12 -6.86933e+12 -2.67638e+12 -3.91566e+12 -7.20404e+12 -5.13804e+12 -5.23597e+12 -3.51155e+12 -5.03767e+12 -2.93282e+12 -8.49332e+12 -5.68378e+12 -7.27098e+12 -3.68677e+12 -6.19244e+12 -5.97902e+12 -4.71723e+12 -6.79649e+12 -5.49049e+12 -3.96526e+12 -3.60131e+12 -4.97913e+12 -5.13558e+12 -2.56766e+12 -4.52451e+12 -5.35173e+12 -6.06547e+12 -5.23495e+12 -3.31445e+12 -2.03327e+12 -5.95761e+12 -3.21352e+12 -7.03622e+12 -3.98484e+12 -6.46857e+12 -8.0336e+12 -4.78696e+12 -6.82806e+12 -5.51912e+12 -6.28742e+12 -4.78499e+12 -5.65288e+12 -4.95406e+12 -5.99617e+12 -5.71433e+12 -4.87746e+12 -7.99717e+12 -5.02631e+12 -5.98868e+12 -7.92642e+12 -6.13748e+12 -5.66258e+12 -4.27705e+12 -3.09027e+12 -6.76361e+12 -3.64627e+12 -6.2015e+12 -4.41115e+12 -5.26596e+12 -5.62316e+12 -3.38291e+12 -5.26124e+12 -6.49404e+12 -7.96165e+12 -5.94895e+12 -3.585e+12 -3.0979e+12 -2.80682e+12 -5.74218e+12 -6.45364e+12 -7.25811e+12 -7.45573e+12 -6.18475e+12 -3.9719e+12 -5.73515e+12 -4.54221e+12 -3.05075e+12 -5.68651e+12 -6.19323e+12 -4.27387e+12 -1.11209e+13 -7.80891e+12 -3.96148e+12 -3.19279e+12 -5.06993e+12 -9.3074e+12 -4.82919e+12 -5.6644e+12 -6.11754e+12 -6.08321e+12 -2.09886e+12 -3.92236e+12 -4.44682e+12 -6.38916e+12 -7.85576e+12 -8.99453e+12 -4.57506e+12 -7.0068e+12 -3.3199e+12 -12549700000.0 -4.02794e+12 -5.18777e+12 -9.46989e+12 -9.58428e+12 -6.61346e+12 -6.16271e+12 -3.37641e+12 -5.21212e+12 -4.97065e+12 -1.12489e+13 -4.94191e+12 -7.16984e+12 -7.46096e+12 -5.44699e+12 -4.5193e+12 -5.46484e+12 -7.28943e+12 -5.65328e+12 -9.0123e+12 -1.20262e+13 -5.70817e+12 -3.75457e+12 -7.07287e+12 -6.82774e+12 -7.01405e+12 -1.10353e+13 -5.98091e+12 -6.02849e+12 -7.27253e+12 -5.19218e+12 -7.38148e+12 -6.37885e+12 -3.10783e+12 -7.04936e+12 -6.25605e+12 -7.27988e+12 -3.20064e+12 -3.5105e+12 -5.37355e+12 -3.43355e+12 -7.88619e+12 -5.49492e+12 -8.01385e+12 -6.55555e+12 -5.4246e+12 -6.55168e+12 -4.7251e+12 -5.17417e+12 -5.04128e+12 -3.80012e+12 -4.99351e+12 -5.08641e+12 -6.99226e+12 -7.52965e+12 -6.84796e+12 -8.07276e+12 -7.88422e+12 -9.55008e+12 -7.25405e+12 -6.69119e+12 -9.02657e+12 -3.06702e+12 -1.17319e+13 -5.27223e+12 -4.9958e+12 -1.04978e+13 -9.29792e+12 -5.20928e+12 -7.15064e+12 -7.75581e+12 -12549700000.0 -2.24871e+12 -6.76341e+12 -4.6379e+12 -5.88468e+12 -6.02966e+12 -5.00399e+12 -7.03094e+12 -6.34247e+12 -1.06559e+13 -8.12928e+12 -2.6718e+12 -6.5133e+12 -6.67975e+12 -5.49688e+12 -6.73583e+12 -6.90212e+12 -8.02701e+12 -5.07027e+12 -6.7958e+12 -6.52204e+12 -4.88379e+12 -5.17393e+12 -5.69365e+12 -1.02949e+13 -8.3424e+12 -6.89579e+12 -2.75519e+12 -5.55516e+12 -1.14554e+13 -7.39079e+12 -1.48854e+13 -1.19794e+13 -4.43218e+12 -12549700000.0 -4.54437e+12 -4.54195e+12 -7.64747e+12 -3.39132e+12 -6.39122e+12 -5.08291e+12 -5.00068e+12 -3.94942e+12 -4.25996e+12 -7.55653e+12 -8.25058e+12 -6.50779e+12 -6.46115e+12 -5.17649e+12 -4.43431e+12 -5.82247e+12 -3.08344e+12 -6.19773e+12 -2.7088e+12 -7.85155e+12 -7.3961e+12 -7.09368e+12 -4.6546e+12 -6.99888e+12 -4.67181e+12 -7.68309e+12 -7.16805e+12 -9.23346e+12 -8.69421e+12 -2.02532e+12 -4.04384e+12 -4.145e+12 -3.62897e+12 -4.07922e+12 -5.9155e+12 -7.10895e+12 -5.19866e+12 -7.13878e+12 -8.62789e+12 -8.61128e+12 -5.46359e+12 -8.42081e+12 -8.66729e+12 -5.70401e+12 -3.66216e+12 -3.85642e+12 -4.16385e+12 -2.89931e+12 -5.43234e+12 -3.43769e+12 -6.43981e+12 -4.02136e+12 -5.3014e+12 -4.35529e+12 -8.23983e+12 -4.19449e+12 -5.47944e+12 -4.23861e+12 -6.91067e+12 -4.20791e+12 -4.62421e+12 -7.39103e+12 -6.74577e+12 -5.74209e+12 -6.2801e+12 -6.84007e+12 -6.18275e+12 -8.28853e+12 -4.54458e+12 -5.2978e+12 -3.6188e+12 -9.06464e+12 -3.56893e+12 -5.86574e+12 -7.71192e+12 -5.47681e+12 -3.89607e+12 -4.01908e+12 -6.21018e+12 -9.31384e+12 -6.70388e+12 -1.09724e+13 -8.73625e+12 -9.43301e+12 -3.00809e+12 -5.85802e+12 -3.56166e+12 -4.89611e+12 -5.57656e+12 -6.43399e+12 -7.31502e+12 -9.29625e+12 -1.08524e+13 -6.49636e+12 -6.0597e+12 -9.82441e+12 -7.31107e+12 -7.16508e+12 -9.21496e+12 -4.12605e+12 -3.69999e+12 -4.20485e+12 -6.06202e+12 -1.00708e+13 -8.12567e+12 -5.64178e+12 -8.45803e+12 -8.57672e+12 -4.40906e+12 -2.8996e+12 -5.33729e+12 -3.71673e+12 -8.62965e+12 -5.06232e+12 -4.98747e+12 -9.11303e+12 -6.03082e+12 -5.75166e+12 -6.41475e+12 -7.05711e+12 -6.91689e+12 -5.38367e+12 -5.51143e+12 -7.84482e+12 -4.94451e+12 -3.82857e+12 -4.20174e+12 -4.23425e+12 -12549700000.0 -12549700000.0 -4.86005e+12 -2.93839e+12 -5.92171e+12 -4.47642e+12 -6.19547e+12 -9.73618e+12 -1.26773e+13 -1.02459e+13 -6.00839e+12 -9.67412e+12 -5.01254e+12 -7.00035e+12 -9.28028e+12 -6.58975e+12 -4.81703e+12 -9.60574e+12 -1.32304e+13 -1.00982e+13 -4.65512e+12 -6.74676e+12 -7.64937e+12 -7.20875e+12 -9.9714e+12 -8.14794e+12 -1.01657e+13 -1.04959e+13 -9.81867e+12 -8.4578e+12 -8.0131e+12 -7.38815e+12 -1.05547e+13 -5.02926e+12 -5.37462e+12 -7.35932e+12 -4.51503e+12 -5.87098e+12 -4.83073e+12 -6.36295e+12 -7.11349e+12 -9.16752e+12 -2.86795e+12 -4.58606e+12 -5.24011e+12 -4.93619e+12 -12549700000.0 -6.55862e+12 -4.00843e+12 -5.26362e+12 -4.48857e+12 -3.20007e+12 -5.26254e+12 -7.97991e+12 -8.3277e+12 -7.4685e+12 -4.84955e+12 -1.02098e+13 -7.241e+12 -7.43718e+12 -5.6446e+12 -5.23479e+12 -3.36873e+12 -5.81163e+12 -5.57344e+12 -7.13564e+12 -8.4219e+12 -1.01764e+13 -5.08131e+12 -7.00344e+12 -6.79825e+12 -7.08404e+12 -5.87119e+12 -6.3211e+12 -1.2901e+13 -5.42709e+12 -5.32765e+12 -4.86765e+12 -9.26271e+12 -6.73201e+12 -7.29627e+12 -5.57829e+12 -5.74108e+12 -5.11904e+12 -5.86999e+12 -6.48333e+12 -8.32113e+12 -5.85775e+12 -2.73938e+12 -6.741e+12 -5.74345e+12 -7.92515e+12 -1.14759e+13 -6.84638e+12 -8.72938e+12 -6.7495e+12 -8.23093e+12 -8.26332e+12 -9.02315e+12 -6.19015e+12 -9.62891e+12 -4.31992e+12 -7.62601e+12 -7.53766e+12 -8.24454e+12 -6.10852e+12 -6.38027e+12 -2.49927e+12 -6.83736e+12 -5.35986e+12 -4.9823e+12 -9.57388e+12 -8.76883e+12 -8.80723e+12 -6.72579e+12 -9.85767e+12 -5.91608e+12 -4.25486e+12 -7.9854e+12 -6.91525e+12 -9.71911e+12 -6.80524e+12 -5.00995e+12 -1.17783e+13 -8.86847e+12 -9.32511e+12 -4.61348e+12 -3.4385e+12 -3.67782e+12 -6.90968e+12 -7.38735e+12 -7.9679e+12 -6.62537e+12 -4.99966e+12 -5.03048e+12 -7.29033e+12 -6.60641e+12 -6.03075e+12 -1.36313e+13 -4.60351e+12 -6.34698e+12 -8.49315e+12 -8.3471e+12 -3.665e+12 -4.34634e+12 -2.66735e+12 -8.56627e+12 -7.58413e+12 -5.00817e+12 -7.54948e+12 -6.06995e+12 -9.72247e+12 -8.83995e+12 -1.16926e+13 -1.08143e+13 -9.94885e+12 -5.95183e+12 -7.86384e+12 -4.86075e+12 -1.07767e+13 -8.13268e+12 -5.63316e+12 -7.90682e+12 -4.84822e+12 -1.29308e+13 -8.48778e+12 -6.68316e+12 -9.58326e+12 -5.67262e+12 -7.08591e+12 -5.50121e+12 -8.8216e+12 -6.82533e+12 -4.71452e+12 -3.96851e+12 -4.60314e+12 -3.42263e+12 -8.0143e+12 -6.358e+12 -7.05058e+12 -4.75261e+12 -7.59679e+12 -4.78361e+12 -5.00618e+12 -7.46568e+12 -7.46573e+12 -7.31474e+12 -5.33118e+12 -6.36581e+12 -6.43082e+12 -1.14029e+13 -1.51837e+13 -8.90773e+12 -6.11511e+12 -9.91368e+12 -1.20361e+13 -7.35285e+12 -4.93801e+12 -7.34975e+12 -7.35408e+12 -7.85354e+12 -5.01647e+12 -3.92893e+12 -1.44163e+13 -1.22484e+13 -7.44519e+12 -6.82165e+12 -7.50461e+12 -7.97303e+12 -8.07417e+12 -5.87517e+12 -3.86263e+12 -8.80965e+12 -7.86001e+12 -3.11324e+12 -8.43911e+12 -8.21822e+12 -6.09042e+12 -1.00879e+13 -7.07255e+12 -8.93594e+12 -9.33561e+12 -5.2694e+12 -4.04258e+12 -6.65957e+12 -7.11562e+12 -4.65399e+12 -9.48093e+12 -4.24453e+12 -7.10675e+12 -3.29857e+12 -5.18257e+12 -3.95099e+12 -7.62644e+12 -5.01223e+12 -5.56106e+12 -4.42511e+12 -3.2703e+12 -5.92159e+12 -6.97901e+12 -9.91235e+12 -8.53251e+12 -1.02245e+13 -8.55024e+12 -1.14483e+13 -9.20315e+12 -7.8001e+12 -8.29621e+12 -9.17565e+12 -7.21558e+12 -6.3772e+12 -5.79456e+12 -1.11874e+13 -6.49456e+12 -8.27459e+12 -8.20921e+12 -1.08704e+13 -6.83204e+12 -7.85722e+12 -7.63514e+12 -8.79698e+12 -6.57428e+12 -8.24383e+12 -6.12333e+12 -7.97942e+12 -6.60723e+12 -8.44848e+12 -5.9183e+12 -5.9755e+12 -4.99168e+12 -5.50588e+12 -9.25567e+12 -7.83661e+12 -5.9702e+12 -5.8083e+12 -7.37361e+12 -1.23465e+13 -4.04012e+12 -6.76534e+12 -4.69796e+12 -8.30027e+12 -6.48336e+12 -5.4305e+12 -8.14349e+12 -5.48563e+12 -7.20035e+12 -7.09336e+12 -5.58349e+12 -9.82969e+12 -6.49903e+12 -6.05747e+12 -7.18441e+12 -9.93157e+12 -7.35665e+12 -4.73593e+12 -1.16683e+13 -1.18497e+13 -4.96012e+12 -9.65667e+12 -5.2445e+12 -5.18713e+12 -4.35023e+12 -4.74456e+12 -8.09051e+12 -4.34012e+12 -8.947e+12 -3.66319e+12 -6.40143e+12 -5.64539e+12 -1.15115e+13 -9.01271e+12 -9.16363e+12 -5.92854e+12 -8.93498e+12 -8.4429e+12 -1.15516e+13 -1.02535e+13 -7.29704e+12 -1.20238e+13 -8.77733e+12 -7.13464e+12 -9.86807e+12 -4.74266e+12 -9.32737e+12 -6.28277e+12 -4.69853e+12 -3.70558e+12 -3.73139e+12 -3.78298e+12 -6.66987e+12 -7.92638e+12 -5.96836e+12 -7.7374e+12 -5.19876e+12 -6.63967e+12 -1.29367e+13 -8.89661e+12 -8.22974e+12 -1.10574e+13 -8.02136e+12 -9.29376e+12 -6.9251e+12 -5.29922e+12 -5.30931e+12 -1.05312e+13 -9.94838e+12 -9.38349e+12 -6.30045e+12 -9.55448e+12 -7.5369e+12 -1.14283e+13 -5.20681e+12 -6.63211e+12 -6.4694e+12 -1.14195e+13 -9.18121e+12 -7.87055e+12 -7.62256e+12 -1.03291e+13 -6.89692e+12 -6.4285e+12 -4.26596e+12 -2.49278e+12 -6.61974e+12 -5.99804e+12 -1.04584e+13 -9.61636e+12 -1.24828e+13 -6.70062e+12 -8.551e+12 -6.26159e+12 -1.01297e+13 -6.21537e+12 -6.16411e+12 -7.60391e+12 -6.87847e+12 -6.48345e+12 -1.39592e+13 -1.09119e+13 -1.49412e+13 -1.51108e+13 -1.00925e+13 -5.86208e+12 -6.39719e+12 -1.37428e+13 -7.25528e+12 -8.69159e+12 -6.89937e+12 -7.55211e+12 -9.41661e+12 -8.84769e+12 -1.10838e+13 -7.36343e+12 -8.04611e+12 -1.01913e+13 -8.89518e+12 -6.64871e+12 -7.11445e+12 -8.86255e+12 -7.79302e+12 -6.31768e+12 -1.18101e+13 -6.94568e+12 -8.37778e+12 -1.10926e+13 -7.96055e+12 -5.02155e+12 -7.97372e+12 -8.37805e+12 -7.40771e+12 -7.84382e+12 -4.65924e+12 -1.75984e+13 -6.90039e+12 -9.35883e+12 -9.08718e+12 -6.29187e+12 -1.00657e+13 -9.68546e+12 -9.08252e+12 -5.24999e+12 -3.68356e+12 -8.42046e+12 -7.58474e+12 -6.58107e+12 -7.10591e+12 -1.1102e+13 -7.81139e+12 -5.65602e+12 -6.32765e+12 -7.57739e+12 -6.70136e+12 -1.047e+13 -7.52625e+12 -4.89074e+12 -6.76126e+12 -8.99761e+12 -1.08033e+13 -7.59872e+12 -9.01298e+12 -7.80483e+12 -9.03858e+12 -1.07867e+13 -6.3764e+12 -1.16339e+13 -8.68581e+12 -9.69448e+12 -4.626e+12 -1.53452e+13 -8.80185e+12 -3.97847e+12 -4.44611e+12 -1.23707e+13 -7.53833e+12 -9.9836e+12 -4.48977e+12 -1.16454e+13 -1.20837e+13 -7.73066e+12 -9.26005e+12 -4.17382e+12 -6.96671e+12 -1.0634e+13 -8.29726e+12 -9.88206e+12 -1.03899e+13 -1.09693e+13 -1.09768e+13 -1.39088e+13 -8.78339e+12 -9.5452e+12 -8.81578e+12 -5.19274e+12 -5.26794e+12 -6.278e+12 -5.01166e+12 -6.19794e+12 -5.13549e+12 -5.8138e+12 -4.33989e+12 -5.29638e+12 -1.09507e+13 -9.25828e+12 -3.22208e+12 -4.91146e+12 -5.46953e+12 -5.68138e+12 -4.75931e+12 -4.81979e+12 -7.93854e+12 -5.80252e+12 -4.27703e+12 -5.14887e+12 -5.39081e+12 -7.45503e+12 -5.36568e+12 -5.6523e+12 -1.06445e+13 -8.99157e+12 -8.40918e+12 -8.35681e+12 -1.15495e+13 -6.29657e+12 -5.6344e+12 -8.59811e+12 -8.28422e+12 -8.07323e+12 -1.0746e+13 -7.33747e+12 -8.16552e+12 -7.33276e+12 -5.42424e+12 -8.74408e+12 -5.4478e+12 -1.11807e+13 -1.22259e+13 -1.21905e+13 -7.12161e+12 -6.93333e+12 -4.91533e+12 -1.32136e+13 -1.13686e+13 -8.44314e+12 -1.12071e+13 -1.0261e+13 -1.48957e+13 -1.68119e+13 -1.34768e+13 -7.5444e+12 -1.07828e+13 -1.109e+13 -1.06976e+13 -1.12533e+13 -8.29193e+12 -8.2022e+12 -1.11077e+13 -3.71133e+12 -3.37502e+12 -7.0615e+12 -4.807e+12 -6.27351e+12 -8.53588e+12 -9.28253e+12 -1.50914e+13 -9.90668e+12 -1.21851e+13 -7.40539e+12 -7.08785e+12 -5.29524e+12 -1.31331e+13 -9.11274e+12 -7.00217e+12 -1.4879e+13 -8.0871e+12 -1.00064e+13 -9.91363e+12 -5.24761e+12 -7.63873e+12 -9.01977e+12 -8.43297e+12 -7.04411e+12 -3.16159e+12 -7.36008e+12 -9.26371e+12 -1.14094e+13 -8.73306e+12 -7.6125e+12 -6.90121e+12 -1.24998e+13 -5.28331e+12 -7.77134e+12 -7.46622e+12 -5.37041e+12 -5.66954e+12 -9.26441e+12 -6.57793e+12 -9.0751e+12 -4.19127e+12 -5.12678e+12 -7.16477e+12 -5.03785e+12 -1.07167e+13 -7.64318e+12 -7.6419e+12 -8.22746e+12 -7.67552e+12 -8.53857e+12 -9.14336e+12 -4.30944e+12 -4.37915e+12 -4.41055e+12 -6.78753e+12 -1.24758e+13 -8.02252e+12 -8.59974e+12 -6.53123e+12 -9.89591e+12 -7.07416e+12 -6.55814e+12 -7.94758e+12 -1.10677e+13 -4.32953e+12 -7.0087e+12 -6.86091e+12 -5.91906e+12 -1.10772e+13 -8.29135e+12 -6.20473e+12 -9.19649e+12 -1.06487e+13 -9.35448e+12 -6.22305e+12 -9.29531e+12 -9.43641e+12 -5.0663e+12 -7.87527e+12 -6.62707e+12 -7.35535e+12 -1.04551e+13 -6.61263e+12 -7.91272e+12 -1.02137e+13 -8.56586e+12 -8.93652e+12 -1.01639e+13 -1.2271e+13 -9.73908e+12 -9.67328e+12 -8.86839e+12 -1.21064e+13 -9.33783e+12 -7.44728e+12 -7.07311e+12 -2.6782e+12 -3.50986e+12 -6.12463e+12 -5.32399e+12 -8.52015e+12 -7.60476e+12 -6.8608e+12 -1.18972e+13 -1.20569e+13 -1.06149e+13 -1.47573e+13 -6.19473e+12 -6.29993e+12 -8.27073e+12 -1.26403e+13 -1.01653e+13 -1.28401e+13 -7.19134e+12 -1.07885e+13 -1.4379e+13 -9.83573e+12 -9.92558e+12 -6.03089e+12 -8.60067e+12 -1.26617e+13 -9.00433e+12 -7.72525e+12 -8.90393e+12 -1.03626e+13 -9.64835e+12 -6.41196e+12 -5.19801e+12 -1.08505e+13 -6.903e+12 -9.43696e+12 -7.36969e+12 -6.379e+12 -5.789e+12 -9.44638e+12 -6.53508e+12 -7.30121e+12 -5.63322e+12 -1.33069e+13 -9.53052e+12 -1.13371e+13 -7.64345e+12 -5.7254e+12 -9.77223e+12 -1.05355e+13 -6.19974e+12 -1.1194e+13 -6.1802e+12 -8.22382e+12 -8.05856e+12 -7.07454e+12 -5.01743e+12 -8.60632e+12 -5.50658e+12 -6.86418e+12 -3.783e+12 -5.26336e+12 -2.92783e+12 -8.09246e+12 -6.38063e+12 -5.21235e+12 -3.64187e+12 -6.43357e+12 -1.06045e+13 -7.9101e+12 -1.18807e+13 -8.18728e+12 -5.87224e+12 -3.74871e+12 -8.69887e+12 -9.14231e+12 -8.98021e+12 -1.0731e+13 -1.14063e+13 -9.66708e+12 -9.49808e+12 -9.40478e+12 -1.24387e+13 -7.98617e+12 -9.86901e+12 -1.16458e+13 -8.42848e+12 -8.40981e+12 -1.5172e+13 -1.29088e+13 -1.08316e+13 -1.3563e+13 -1.07087e+13 -8.22801e+12 -7.4527e+12 -5.86845e+12 -4.01092e+12 -9.60249e+12 -9.07951e+12 -5.23682e+12 -4.06529e+12 -1.15138e+13 -9.16211e+12 -9.43968e+12 -5.94875e+12 -6.49991e+12 -8.23896e+12 -9.61139e+12 -8.82389e+12 -6.3239e+12 -8.88647e+12 -5.99393e+12 -6.40104e+12 -8.05049e+12 -7.9968e+12 -9.79369e+12 -1.03144e+13 -7.52744e+12 -9.35209e+12 -9.93707e+12 -1.13107e+13 -3.45133e+12 -1.20127e+13 -6.14669e+12 -7.00303e+12 -1.0045e+13 -7.29787e+12 -7.85323e+12 -1.024e+13 -3.15372e+12 -3.94438e+12 -6.95289e+12 -9.81129e+12 -9.9677e+12 -5.79301e+12 -6.3342e+12 -8.65009e+12 -9.5055e+12 -9.00405e+12 -5.73226e+12 -4.5852e+12 -1.09275e+13 -1.20921e+13 -1.09627e+13 -8.30519e+12 -7.85503e+12 -7.94673e+12 -5.24313e+12 -3.3555e+12 -8.34433e+12 -8.00536e+12 -7.53383e+12 -1.00438e+13 -7.55588e+12 -1.24154e+13 -5.99913e+12 -5.70385e+12 -1.28608e+13 -5.06583e+12 -5.17249e+12 -1.055e+13 -9.37277e+12 -8.8538e+12 -7.98391e+12 -7.73174e+12 -1.08116e+13 -1.57884e+13 -6.79485e+12 -5.69948e+12 -1.09757e+13 -7.94279e+12 -4.8392e+12 -5.85245e+12 -8.08313e+12 -2.71657e+12 -9.56167e+12 -4.48982e+12 -6.56896e+12 -8.43736e+12 -8.1746e+12 -6.47875e+12 -9.1071e+12 -7.80397e+12 -6.82801e+12 -1.08375e+13 -9.66642e+12 -9.45808e+12 -6.2893e+12 -1.69519e+13 -8.32307e+12 -9.98007e+12 -4.72545e+12 -1.11724e+13 -1.28699e+13 -6.40113e+12 -1.19565e+13 -4.10445e+12 -6.40755e+12 -9.75535e+12 -1.04348e+13 -6.08086e+12 -8.06908e+12 -1.31291e+13 -5.2351e+12 -4.74769e+12 -4.61037e+12 -7.64059e+12 -7.72028e+12 -1.3107e+13 -9.90168e+12 -9.66426e+12 -1.20541e+13 -8.40657e+12 -8.4898e+12 -7.05332e+12 -1.43749e+13 -7.31289e+12 -1.094e+13 -1.44238e+13 -4.87387e+12 -3.17296e+12 -6.03434e+12 -6.49515e+12 -3.90623e+12 -4.81411e+12 -9.77925e+12 -8.28839e+12 -6.55883e+12 -1.04194e+13 -6.04186e+12 -7.54714e+12 -5.58247e+12 -5.2679e+12 -1.24343e+13 -5.2137e+12 -6.65048e+12 -9.8774e+12 -6.82875e+12 -7.32959e+12 -6.64635e+12 -8.61657e+12 -1.49158e+13 -5.63316e+12 -9.8203e+12 -9.6566e+12 -7.5016e+12 -7.72167e+12 -5.79917e+12 -1.18243e+13 -1.12315e+13 -5.23943e+12 -8.57566e+12 -1.01988e+13 -6.38835e+12 -5.86843e+12 -8.60167e+12 -3.11789e+12 -5.90923e+12 -9.39721e+12 -5.9862e+12 -6.31504e+12 -2.95704e+12 -9.49593e+12 -7.12232e+12 -1.15532e+13 -8.6299e+12 -4.45455e+12 -7.90683e+12 -1.00896e+13 -1.22408e+13 -5.12586e+12 -4.41608e+12 -6.03179e+12 -4.85458e+12 -3.51839e+12 -7.20371e+12 -5.09433e+12 -5.87818e+12 -5.91763e+12 -5.68536e+12 -4.63691e+12 -9.39329e+12 -6.54999e+12 -8.16923e+12 -5.26009e+12 -1.08506e+13 -8.90248e+12 -7.51012e+12 -5.83252e+12 -5.96373e+12 -5.59353e+12 -7.96416e+12 -5.95559e+12 -4.53755e+12 -6.51017e+12 -5.78622e+12 -7.68712e+12 -6.28853e+12 -4.93329e+12 -2.17467e+12 -8.70817e+12 -4.5302e+12 -5.77732e+12 -7.92834e+12 -4.92577e+12 -7.11775e+12 -8.91859e+12 -1.12888e+13 -4.76175e+12 -8.97951e+12 -1.0809e+13 -8.63523e+12 -1.30329e+13 -8.73556e+12 -7.78044e+12 -5.13171e+12 -8.85507e+12 -6.58922e+12 -1.08014e+13 -7.0631e+12 -8.91739e+12 -6.12395e+12 -9.35175e+12 -6.11389e+12 -1.03037e+13 -4.92861e+12 -7.02566e+12 -3.99471e+12 -9.5152e+12 -1.0176e+13 -5.47771e+12 -1.11597e+13 -8.56437e+12 -6.06987e+12 -7.17492e+12 -4.72064e+12 -9.43575e+12 -9.90832e+12 -9.79512e+12 -8.32851e+12 -5.34897e+12 -6.2168e+12 -1.14549e+13 -7.30732e+12 -4.96738e+12 -6.34761e+12 -9.70917e+12 -6.26418e+12 -6.42228e+12 -7.22351e+12 -7.80406e+12 -1.22115e+13 -8.19568e+12 -1.22287e+13 -6.25162e+12 -6.42009e+12 -4.52249e+12 -5.44937e+12 -7.57655e+12 -7.47068e+12 -5.6491e+12 -5.8355e+12 -6.58343e+12 -7.9343e+12 -1.26597e+13 -4.72212e+12 -7.0958e+12 -1.02699e+13 -6.71166e+12 -1.14736e+13 -7.96551e+12 -4.65921e+12 -7.72721e+12 -7.12999e+12 -4.76151e+12 -9.62043e+12 -4.68923e+12 -7.31806e+12 -7.17804e+12 -8.7218e+12 -9.4385e+12 -8.53917e+12 -4.6035e+12 -7.40766e+12 -8.49123e+12 -7.48427e+12 -7.78962e+12 -3.55217e+12 -8.83503e+12 -6.15075e+12 -5.14005e+12 -3.44387e+12 -2.86231e+12 -7.94756e+12 -7.07082e+12 -3.84171e+12 -4.10839e+12 -4.74167e+12 -5.79649e+12 -3.17437e+12 -8.76701e+12 -4.01652e+12 -7.44383e+12 -7.41463e+12 -5.30258e+12 -8.33672e+12 -7.74775e+12 -5.66508e+12 -9.70263e+12 -6.65373e+12 -6.90243e+12 -8.54857e+12 -8.29158e+12 -4.32918e+12 -8.9724e+12 -8.42644e+12 -1.1731e+13 -2.85397e+12 -3.19076e+12 -1.2018e+13 -6.85861e+12 -9.27315e+12 -8.91347e+12 -1.04993e+13 -7.48602e+12 -5.26699e+12 -1.02383e+13 -7.82843e+12 -1.43725e+13 -2.53117e+12 -6.80581e+12 -7.20549e+12 -4.35075e+12 -1.08234e+13 -6.80481e+12 -7.96848e+12 -1.10676e+13 -4.24368e+12 -6.75723e+12 -8.16509e+12 -8.04138e+12 -1.09116e+13 -1.02883e+13 -1.125e+13 -5.51502e+12 -8.10546e+12 -9.69573e+12 -6.85037e+12 -9.38323e+12 -1.01592e+13 -1.12265e+13 -1.29293e+13 -9.52229e+12 -7.84587e+12 -1.32397e+13 -9.19977e+12 -5.48636e+12 -1.1624e+13 -5.32578e+12 -1.01075e+13 -3.99869e+12 -7.93123e+12 -8.59973e+12 -1.00012e+13 -6.22577e+12 -6.97798e+12 -7.91988e+12 -8.52819e+12 -7.31338e+12 -7.54213e+12 -1.10289e+13 -5.33227e+12 -1.06712e+13 -5.92796e+12 -7.1475e+12 -6.64096e+12 -4.83238e+12 -4.63677e+12 -4.93149e+12 -6.43581e+12 -8.2941e+12 -7.70022e+12 -6.54438e+12 -1.40552e+13 -5.96842e+12 -7.45923e+12 -8.37224e+12 -6.98697e+12 -5.9339e+12 -5.95507e+12 -6.62385e+12 -6.745e+12 -8.1007e+12 -4.715e+12 -7.15131e+12 -8.06519e+12 -1.0108e+13 -6.97521e+12 -4.54172e+12 -7.09634e+12 -1.09544e+13 -5.6992e+12 -4.90398e+12 -9.2873e+12 -6.88661e+12 -6.77004e+12 -4.3464e+12 -7.90189e+12 -5.01015e+12 -4.58083e+12 -8.77504e+12 -5.28195e+12 -1.16821e+13 -7.54446e+12 -5.76323e+12 -6.57489e+12 -1.00446e+13 -5.81179e+12 -5.56567e+12 -5.77051e+12 -9.65742e+12 -1.01397e+13 -3.73096e+12 -9.06555e+12 -5.31358e+12 -5.43825e+12 -5.71223e+12 -1.29239e+13 -5.52994e+12 -4.78512e+12 -1.16961e+13 -5.55762e+12 -1.10407e+13 -7.16368e+12 -1.06343e+13 -8.027e+12 -5.86015e+12 -7.30103e+12 -2.88731e+12 -6.86211e+12 -1.07299e+13 -8.46824e+12 -7.16348e+12 -1.00484e+13 -1.22922e+13 -8.47383e+12 -6.65165e+12 -4.95435e+12 -8.21435e+12 -1.21893e+13 -1.03122e+13 -1.30588e+13 -1.02099e+13 -7.99121e+12 -8.73985e+12 -5.02267e+12 -7.4089e+12 -9.45967e+12 -4.97293e+12 -8.99747e+12 -1.2244e+13 -7.81975e+12 -7.76122e+12 -9.74708e+12 -7.41907e+12 -7.69092e+12 -9.95814e+12 -4.88619e+12 -9.80178e+12 -5.88464e+12 -8.35827e+12 -4.63796e+12 -8.15989e+12 -7.69187e+12 -9.34286e+12 -8.73789e+12 -6.95516e+12 -1.12232e+13 -1.07833e+13 -5.63856e+12 -6.02985e+12 -8.61789e+12 -1.20523e+13 -8.12336e+12 -5.40137e+12 -8.95153e+12 -8.1408e+12 -8.33981e+12 -1.00097e+13 -5.80801e+12 -8.16592e+12 -6.94092e+12 -5.16875e+12 -9.09055e+12 -9.89487e+12 -7.14312e+12 -8.59373e+12 -8.4521e+12 -3.59656e+12 -8.24046e+12 -6.91728e+12 -7.81209e+12 -8.00172e+12 -7.39516e+12 -1.01431e+13 -4.50813e+12 -8.19319e+12 -1.29178e+13 -1.10793e+13 -1.2258e+13 -5.15106e+12 -6.27015e+12 -4.35986e+12 -6.31959e+12 -1.13905e+13 -4.12633e+12 -4.96474e+12 -7.4948e+12 -1.05453e+13 -7.66503e+12 -8.63474e+12 -1.02527e+13 -7.47105e+12 -7.69757e+12 -9.63236e+12 -6.21035e+12 -3.57429e+12 -5.86553e+12 -2.28924e+12 -7.8366e+12 -8.79969e+12 -5.15308e+12 -9.19819e+12 -9.23823e+12 -1.27561e+13 -3.73817e+12 -4.78391e+12 -6.96058e+12 -5.65607e+12 -6.40738e+12 -8.4478e+12 -5.49739e+12 -4.2883e+12 -6.31378e+12 -1.00682e+13 -4.46873e+12 -8.7747e+12 -6.30744e+12 -8.40103e+12 -7.84958e+12 -7.54504e+12 -1.18849e+13 -6.42911e+12 -6.5737e+12 -6.52309e+12 -7.39282e+12 -6.52405e+12 -6.35332e+12 -9.92569e+12 -8.12952e+12 -7.3882e+12 -8.80109e+12 -7.80655e+12 -1.16653e+13 -8.86947e+12 -4.93985e+12 -6.32712e+12 -1.3725e+13 -7.9408e+12 -1.22304e+13 -7.58306e+12 -3.79082e+12 -8.72956e+12 -1.13234e+13 -8.47027e+12 -9.22118e+12 -1.21034e+13 -2.67891e+12 -4.18261e+12 -1.0639e+13 -9.06757e+12 -9.44364e+12 -8.72918e+12 -1.18035e+13 -7.3152e+12 -6.0335e+12 -7.56354e+12 -8.51581e+12 -8.28613e+12 -7.81893e+12 -1.09633e+13 -5.68897e+12 -5.73833e+12 -8.23402e+12 -6.77819e+12 -5.00809e+12 -8.99939e+12 -6.95e+12 -3.95725e+12 -2.94766e+12 -2.2923e+12 -6.44162e+12 -2.78944e+12 -8.22789e+12 -8.53085e+12 -7.20252e+12 -5.31979e+12 -6.54419e+12 -1.36506e+13 -6.3026e+12 -3.55304e+12 -1.01453e+13 -1.45995e+13 -4.67653e+12 -6.10479e+12 -4.50309e+12 -6.57556e+12 -8.06808e+12 -4.78017e+12 -1.20633e+13 -7.03901e+12 -5.6179e+12 -5.2307e+12 -5.54048e+12 -1.03696e+13 -8.34464e+12 -2.49064e+12 -6.97806e+12 -9.2977e+12 -1.2482e+13 -3.60175e+12 -3.45471e+12 -4.99175e+12 -8.40905e+12 -5.45615e+12 -6.36584e+12 -7.74068e+12 -5.41833e+12 -6.72055e+12 -8.78347e+12 -4.45454e+12 -5.82499e+12 -7.64643e+12 -4.53861e+12 -1.33912e+13 -5.43364e+12 -1.02234e+13 -6.43617e+12 -1.07758e+13 -6.17513e+12 -7.44661e+12 -7.03021e+12 -3.79739e+12 -5.84739e+12 -7.46918e+12 -6.08756e+12 -1.03897e+13 -4.12287e+12 -8.58379e+12 -5.59933e+12 -6.95233e+12 -7.95978e+12 -5.22106e+12 -9.79622e+12 -4.58569e+12 -7.23711e+12 -8.12572e+12 -7.37316e+12 -6.39293e+12 -6.62005e+12 -5.4467e+12 -6.85196e+12 -4.33064e+12 -7.23758e+12 -7.8129e+12 -4.72572e+12 -7.5099e+12 -6.74833e+12 -5.44448e+12 -6.65244e+12 -6.79058e+12 -9.79611e+12 -4.03513e+12 -7.91025e+12 -5.89725e+12 -1.03133e+13 -5.25305e+12 -4.14381e+12 -4.42387e+12 -6.85378e+12 -5.01986e+12 -8.68133e+12 -7.2109e+12 -1.14033e+13 -1.10788e+13 -9.89193e+12 -6.18189e+12 -4.6259e+12 -7.48942e+12 -8.43559e+12 -6.04609e+12 -9.81999e+12 -8.78558e+12 -5.64439e+12 -5.90702e+12 -6.15941e+12 -1.16314e+13 -6.80543e+12 -1.44311e+13 -1.17485e+13 -9.62821e+12 -8.00586e+12 -6.8643e+12 -4.8542e+12 -1.31982e+13 -6.19639e+12 -1.02543e+13 -7.75479e+12 -7.40319e+12 -1.11731e+13 -1.01224e+13 -5.85118e+12 -5.59726e+12 -4.59324e+12 -6.64284e+12 -7.23244e+12 -4.1465e+12 -5.58149e+12 -5.54072e+12 -6.63031e+12 -6.02984e+12 -8.79047e+12 -7.26666e+12 -1.33942e+13 -9.01158e+12 -8.37591e+12 -4.74706e+12 -5.06521e+12 -1.59309e+13 -9.37454e+12 -5.63157e+12 -7.97483e+12 -1.05431e+13 -1.04834e+13 -9.3437e+12 -7.27637e+12 -1.02592e+13 -8.54873e+12 -7.71449e+12 -8.39189e+12 -9.18544e+12 -5.4945e+12 -1.51839e+13 -7.17425e+12 -5.9477e+12 -1.10315e+13 -8.25822e+12 -9.27605e+12 -7.90564e+12 -1.03664e+13 -1.05321e+13 -9.94086e+12 -5.52986e+12 -7.85481e+12 -6.61331e+12 -5.24243e+12 -1.02007e+13 -2.96391e+12 -8.4109e+12 -6.16254e+12 -7.70741e+12 -4.94381e+12 -4.97966e+12 -4.70036e+12 -5.64936e+12 -5.85975e+12 -4.6116e+12 -5.77351e+12 -4.04166e+12 -1.01562e+13 -4.70392e+12 -6.87387e+12 -4.43184e+12 -6.05225e+12 -6.7181e+12 -7.42978e+12 -4.97746e+12 -7.2016e+12 -6.14405e+12 -3.34634e+12 -9.06633e+12 -8.37057e+12 -7.91918e+12 -8.16658e+12 -6.90943e+12 -5.84816e+12 -6.49437e+12 -8.22054e+12 -5.60076e+12 -5.6989e+12 -3.18564e+12 -8.43122e+12 -4.44681e+12 -8.53094e+12 -4.02102e+12 -8.60714e+12 -3.65401e+12 -6.87164e+12 -9.99226e+12 -7.55356e+12 -4.88148e+12 -5.52619e+12 -2.38469e+12 -8.23404e+12 -4.09553e+12 -4.37085e+12 -5.76296e+12 -2.69715e+12 -4.56258e+12 -4.16364e+12 -6.11812e+12 -6.62822e+12 -5.36269e+12 -5.18355e+12 -1.0629e+13 -1.05775e+13 -8.59565e+12 -8.53179e+12 -2.69038e+12 -9.66943e+12 -6.05212e+12 -6.93233e+12 -7.75166e+12 -1.12526e+13 -5.96813e+12 -6.71818e+12 -5.4699e+12 -6.99145e+12 -6.71966e+12 -3.92855e+12 -8.64334e+12 -6.31348e+12 -8.10901e+12 -6.05984e+12 -6.88906e+12 -6.57174e+12 -7.3972e+12 -4.33263e+12 -5.12464e+12 -8.93656e+12 -8.43776e+12 -7.37397e+12 -8.83876e+12 -4.88769e+12 -7.1591e+12 -7.14352e+12 -9.65645e+12 -8.75658e+12 -7.33016e+12 -1.06903e+13 -6.23473e+12 -6.06096e+12 -6.67532e+12 -5.39828e+12 -8.64153e+12 -6.04014e+12 -4.5231e+12 -5.80352e+12 -6.16699e+12 -6.94471e+12 -4.84394e+12 -6.50914e+12 -1.073e+13 -9.41885e+12 -6.87944e+12 -7.73187e+12 -7.90208e+12 -1.93731e+13 -6.61723e+12 -6.63538e+12 -7.23329e+12 -9.19023e+12 -1.06095e+13 -7.0971e+12 -5.74007e+12 -7.26143e+12 -5.60586e+12 -8.00128e+12 -6.0765e+12 -8.45622e+12 -5.54241e+12 -1.11131e+13 -7.85521e+12 -7.01409e+12 -6.02476e+12 -9.64291e+12 -4.68064e+12 -7.83803e+12 -6.47132e+12 -7.22621e+12 -6.51623e+12 -6.39909e+12 -5.98707e+12 -8.51225e+12 -9.43018e+12 -5.46885e+12 -5.65532e+12 -6.28098e+12 -6.4417e+12 -1.00252e+12 -9.07962e+12 -6.87377e+12 -8.88729e+12 -8.82744e+12 -6.02777e+12 -3.62676e+12 -5.6928e+12 -4.57845e+12 -2.10867e+12 -1.1382e+13 -6.02869e+12 -5.02937e+12 -5.80258e+12 -5.70444e+12 -1.15328e+13 -3.7501e+12 -5.60489e+12 -9.1274e+12 -6.63947e+12 -7.04408e+12 -5.49973e+12 -5.2934e+12 -7.74701e+12 -4.87794e+12 -5.62594e+12 -5.06892e+12 -6.76172e+12 -9.02914e+12 -5.73158e+12 -8.48849e+12 -6.86486e+12 -8.42454e+12 -6.51159e+12 -4.34162e+12 -7.55156e+12 -3.82717e+12 -7.08877e+12 -3.51255e+12 -4.56433e+12 -9.45583e+12 -6.49985e+12 -5.54673e+12 -5.16736e+12 -4.31507e+12 -8.7083e+12 -5.78433e+12 -8.20062e+12 -6.3302e+12 -7.08946e+12 -6.78892e+12 -7.71215e+12 -5.6496e+12 -6.29027e+12 -8.61988e+12 -5.15456e+12 -1.09449e+13 -7.23895e+12 -4.54217e+12 -5.169e+12 -5.76173e+12 -1.33465e+13 -7.58067e+12 -8.5047e+12 -4.98166e+12 -7.08396e+12 -4.54512e+12 -4.65303e+12 -7.82479e+12 -9.99112e+12 -1.33584e+13 -3.45505e+12 -3.82979e+12 -6.00606e+12 -5.19351e+12 -6.0417e+12 -8.38274e+12 -8.76894e+12 -9.26411e+12 -7.35918e+12 -1.29137e+13 -3.17691e+12 -6.47313e+12 -1.00595e+13 -5.3306e+12 -7.98247e+12 -8.94698e+12 -5.31454e+12 -7.54319e+12 -7.24924e+12 -8.23817e+12 -1.33549e+13 -5.42579e+12 -7.34781e+12 -9.40943e+12 -8.80781e+12 -1.08769e+13 -7.84646e+12 -6.73485e+12 -5.10791e+12 -3.75262e+12 -5.62577e+12 -8.86089e+12 -5.37207e+12 -4.46827e+12 -4.95334e+12 -3.74875e+12 -1.02686e+13 -5.86617e+12 -8.29506e+12 -5.47058e+12 -2.81943e+12 -4.66746e+12 -7.84804e+12 -5.32855e+12 -8.65888e+12 -4.16743e+12 -1.43246e+13 -7.10812e+12 -6.29393e+12 -1.23438e+13 -8.30358e+12 -7.44245e+12 -1.08954e+13 -7.03893e+12 -5.97444e+12 -3.44519e+12 -7.38876e+12 -7.2693e+12 -7.84241e+12 -5.44794e+12 -4.60593e+12 -6.31275e+12 -7.5073e+12 -5.7967e+12 -4.89367e+12 -5.04459e+12 -8.01007e+12 -2.33155e+12 -4.54707e+12 -1.21371e+13 -9.91697e+12 -6.31871e+12 -4.43971e+12 -6.0372e+12 -9.71297e+12 -1.12008e+13 -3.43305e+12 -4.45316e+12 -6.13869e+12 -5.03901e+12 -5.38914e+12 -9.48312e+12 -5.15394e+12 -6.73282e+12 -8.71161e+12 -7.53718e+12 -7.17469e+12 -6.43314e+12 -6.51623e+12 -2.21512e+12 -6.84656e+12 -5.99002e+12 -7.31551e+12 -3.98147e+12 -7.30779e+12 -6.84113e+12 -3.75101e+12 -4.02279e+12 -5.32889e+12 -5.35436e+12 -3.65859e+12 -5.19757e+12 -5.36555e+12 -6.86402e+12 -6.64609e+12 -6.70411e+12 -2.98667e+12 -4.73399e+12 -1.03674e+13 -6.18832e+12 -4.96832e+12 -5.53694e+12 -5.68277e+12 -5.84005e+12 -5.91452e+12 -3.24399e+12 -2.89756e+12 -6.17148e+12 -5.98035e+12 -6.90575e+12 -4.9601e+12 -3.68789e+12 -5.96455e+12 -6.87192e+12 -5.47605e+12 -4.04648e+12 -2.54344e+12 -7.57116e+12 -7.83807e+12 -8.45758e+12 -3.43566e+12 -7.16946e+12 -4.30705e+12 -4.13815e+12 -6.76604e+12 -8.33664e+12 -8.07645e+12 -7.52102e+12 -8.17111e+12 -9.4333e+12 -8.20482e+12 -7.34357e+12 -1.20421e+13 -4.74393e+12 -4.07273e+12 -3.46117e+12 -5.0311e+12 -1.04003e+13 -6.28082e+12 -7.11538e+12 -1.03813e+13 -4.51259e+12 -8.00128e+12 -1.2236e+13 -8.59618e+12 -5.14572e+12 -8.15473e+12 -1.41947e+13 -5.98923e+12 -1.07548e+13 -4.19617e+12 -7.7189e+12 -6.57764e+12 -7.10757e+12 -4.87416e+12 -5.55325e+12 -6.51069e+12 -6.89965e+12 -4.83132e+12 -5.70307e+12 -6.29908e+12 -6.48189e+12 -9.65112e+12 -8.87995e+12 -1.15924e+13 -6.72757e+12 -1.23025e+13 -5.65826e+12 -7.38537e+12 -5.96208e+12 -4.66279e+12 -4.64277e+12 -5.04168e+12 -4.81934e+12 -6.68165e+12 -9.70712e+12 -5.6558e+12 -9.74033e+12 -9.13652e+12 -6.91893e+12 -4.41114e+12 -7.07392e+12 -4.41441e+12 -8.08804e+12 -8.45829e+12 -6.52408e+12 -5.83881e+12 -3.94391e+12 -5.91377e+12 -7.39742e+12 -7.13808e+12 -5.99135e+12 -3.73568e+12 -5.12679e+12 -7.37402e+12 -4.05364e+12 -7.38533e+12 -6.61736e+12 -1.00262e+13 -7.45529e+12 -5.05933e+12 -5.4925e+12 -9.40876e+12 -2.43755e+12 -2.99352e+12 -6.70078e+12 -4.74905e+12 -4.99428e+12 -1.05457e+13 -6.89647e+12 -5.00419e+12 -4.26741e+12 -4.2655e+12 -3.31391e+12 -6.67529e+12 -8.29935e+12 -4.92098e+12 -6.83035e+12 -5.55198e+12 -7.74341e+12 -4.29452e+12 -5.45356e+12 -3.81221e+12 -5.74552e+12 -7.90987e+12 -6.27027e+12 -6.16694e+12 -9.53597e+12 -5.46519e+12 -5.60074e+12 -4.78872e+12 -4.39504e+12 -3.89932e+12 -5.73485e+12 -5.14942e+12 -6.17137e+12 -6.42787e+12 -6.51879e+12 -5.73452e+12 -6.26682e+12 -3.78301e+12 -3.18609e+12 -6.4901e+12 -5.2625e+12 -8.20914e+12 -6.31028e+12 -5.61145e+12 -4.70604e+12 -5.68472e+12 -6.13309e+12 -4.40152e+12 -6.143e+12 -5.44336e+12 -6.0338e+12 -6.03057e+12 -6.97838e+12 -3.34529e+12 -4.61185e+12 -6.4748e+12 -4.4652e+12 -7.97917e+12 -5.7703e+12 -7.92078e+12 -4.68169e+12 -5.45621e+12 -9.61176e+12 -5.0251e+12 -6.53812e+12 -4.27853e+12 -7.04556e+12 -5.08382e+12 -5.1284e+12 -6.50875e+12 -1.06362e+13 -3.92501e+12 -6.00254e+12 -8.81922e+12 -1.26648e+13 -6.44774e+12 -6.37864e+12 -5.64437e+12 -7.2213e+12 -8.51418e+12 -4.60356e+12 -4.9997e+12 -5.81963e+12 -4.77062e+12 -5.48671e+12 -5.75991e+12 -7.64107e+12 -8.88021e+12 -5.11654e+12 -9.04071e+12 -4.13253e+12 -4.09773e+12 -8.51227e+12 -1.00289e+13 -4.38497e+12 -7.00128e+12 -5.46136e+12 -3.88129e+12 -5.76928e+12 -9.2738e+12 -8.63955e+12 -7.55408e+12 -9.98364e+12 -5.41543e+12 -5.75734e+12 -5.02475e+12 -5.87503e+12 -5.14911e+12 -1.04282e+13 -4.90552e+12 -8.91397e+12 -9.73711e+12 -8.08342e+12 -8.61144e+12 -1.217e+13 -7.25196e+12 -1.31712e+13 -3.96826e+12 -6.57648e+12 -7.05189e+12 -5.65022e+12 -4.22939e+12 -3.61326e+12 -5.82822e+12 -5.89562e+12 -3.7202e+12 -7.08612e+12 -4.50635e+12 -7.41439e+12 -4.37708e+12 -6.64794e+12 -7.75154e+12 -7.01446e+12 -8.05619e+12 -8.59209e+12 -5.20406e+12 -7.47793e+12 -7.27947e+12 -4.82122e+12 -6.39046e+12 -5.76985e+12 -4.88097e+12 -4.95119e+12 -3.82805e+12 -5.77293e+12 -4.59508e+12 -6.89468e+12 -4.23942e+12 -6.61329e+12 -6.28612e+12 -6.96881e+12 -3.40136e+12 -4.8362e+12 -7.88901e+12 -8.58427e+12 -9.92449e+12 -6.56964e+12 -8.9049e+12 -9.95324e+12 -2.81775e+12 -8.67643e+12 -6.4904e+12 -3.20554e+12 -6.01966e+12 -4.24027e+12 -5.08233e+12 -6.47364e+12 -6.12989e+12 -5.59007e+12 -8.8005e+12 -1.9546e+12 -6.49008e+12 -7.33691e+12 -7.72578e+12 -5.32376e+12 -4.98889e+12 -6.07405e+12 -8.0842e+12 -8.73902e+12 -4.96252e+12 -8.58417e+12 -9.48417e+12 -6.46389e+12 -5.44535e+12 -4.2368e+12 -3.49823e+12 -2.94013e+12 -4.98916e+12 -6.06649e+12 -4.15038e+12 -5.73457e+12 -5.46815e+12 -2.77741e+12 -4.61184e+12 -5.73533e+12 -8.2979e+12 -5.36606e+12 -3.11952e+12 -5.39798e+12 -4.27067e+12 -4.41103e+12 -7.63264e+12 -6.60526e+12 -5.87411e+12 -9.88046e+12 -4.60316e+12 -7.2212e+12 -7.56939e+12 -5.50267e+12 -6.46588e+12 -5.50767e+12 -3.0289e+12 -5.32179e+12 -3.84077e+12 -4.21575e+12 -8.48778e+12 -6.95734e+12 -3.63358e+12 -6.52069e+12 -5.20888e+12 -6.97217e+12 -9.04703e+12 -1.04075e+13 -7.74742e+12 -5.87615e+12 -3.53666e+12 -4.04671e+12 -4.01078e+12 -8.30465e+12 -3.40284e+12 -6.64768e+12 -9.75384e+12 -5.44373e+12 -7.66987e+12 -6.98162e+12 -6.32644e+12 -3.75965e+12 -5.54128e+12 -4.29902e+12 -5.96359e+12 -4.9462e+12 -6.38417e+12 -7.03625e+12 -6.8846e+12 -6.68176e+12 -6.53302e+12 -5.80719e+12 -9.08841e+12 -7.99357e+12 -8.36354e+12 -6.26094e+12 -1.22055e+13 -8.91887e+12 -7.07852e+12 -7.53827e+12 -6.82703e+12 -6.15388e+12 -4.77506e+12 -1.062e+13 -5.29937e+12 -5.3466e+12 -6.5172e+12 -6.13017e+12 -5.73255e+12 -1.12048e+13 -7.24597e+12 -4.8049e+12 -5.81234e+12 -8.45821e+12 -7.58681e+12 -5.67804e+12 -5.02083e+12 -7.16226e+12 -5.73089e+12 -2.62705e+12 -5.18672e+12 -6.02315e+12 -5.25438e+12 -6.26287e+12 -5.98817e+12 -6.73796e+12 -6.32338e+12 -5.34458e+12 -4.32443e+12 -4.00926e+12 -3.82455e+12 -8.38159e+12 -6.69353e+12 -5.51908e+12 -8.37061e+12 -7.0601e+12 -7.24073e+12 -6.93496e+12 -7.90142e+12 -5.45543e+12 -6.84826e+12 -5.20637e+12 -5.52343e+12 -9.88867e+12 -7.73977e+12 -6.38344e+12 -9.33065e+12 -5.3407e+12 -1.16213e+13 -4.57501e+12 -1.14474e+13 -5.5191e+12 -5.80977e+12 -8.28008e+12 -5.56077e+12 -7.02228e+12 -8.97597e+12 -5.44118e+12 -5.19197e+12 -7.47472e+12 -3.50784e+12 -3.10617e+12 -5.19021e+12 -6.40158e+12 -6.52522e+12 -4.23072e+12 -6.23424e+12 -5.66881e+12 -4.47951e+12 -2.63275e+12 -6.77812e+12 -4.36488e+12 -6.02299e+12 -5.53216e+12 -3.65895e+12 -5.87511e+12 -3.34577e+12 -4.29128e+12 -6.42687e+12 -3.10468e+12 -3.63728e+12 -4.33247e+12 -5.81437e+12 -6.46402e+12 -6.02102e+12 -4.57779e+12 -3.74875e+12 -5.77508e+12 -6.21958e+12 -6.33953e+12 -6.02387e+12 -7.25003e+12 -4.4783e+12 -7.14471e+12 -2.48661e+12 -4.9854e+12 -3.4192e+12 -3.81017e+12 -3.71574e+12 -4.81617e+12 -6.54547e+12 -7.00204e+12 -6.06334e+12 -6.47262e+12 -5.02958e+12 -4.5881e+12 -5.48473e+12 -6.2287e+12 -6.80709e+12 -4.8785e+12 -3.10346e+12 -8.26996e+12 -6.0483e+12 -2.08244e+12 -3.85156e+12 -6.96081e+12 -4.81145e+12 -4.58073e+12 -6.24388e+12 -5.81296e+12 -9.58539e+12 -5.09581e+12 -4.19929e+12 -3.52753e+12 -7.43117e+12 -6.04791e+12 -1.05265e+13 -5.32947e+12 -5.57299e+12 -8.56949e+12 -8.5912e+12 -6.31571e+12 -4.77217e+12 -6.09476e+12 -6.10422e+12 -6.86166e+12 -5.8852e+12 -4.50239e+12 -7.877e+12 -7.83e+12 -6.95135e+12 -4.72097e+12 -6.04021e+12 -1.96086e+12 -8.11621e+12 -4.44165e+12 -1.1177e+13 -5.72211e+12 -6.8142e+12 -5.00008e+12 -8.96263e+12 -1.52443e+13 -8.18596e+12 -8.36848e+12 -1.0626e+13 -9.24716e+12 -5.74604e+12 -1.00816e+13 -7.9089e+12 -9.16e+12 -7.65745e+12 -5.22072e+12 -3.29145e+12 -6.36706e+12 -8.80203e+12 -3.65356e+12 -4.69591e+12 -7.59995e+12 -4.76368e+12 -7.42238e+12 -5.64573e+12 -9.71098e+12 -4.75646e+12 -9.89529e+12 -7.80763e+12 -8.66193e+12 -6.53897e+12 -6.67742e+12 -5.88396e+12 -6.02311e+12 -6.10227e+12 -4.35049e+12 -5.53563e+12 -4.99519e+12 -5.72667e+12 -8.46194e+12 -3.22461e+12 -4.59412e+12 -5.24024e+12 -6.68179e+12 -5.73927e+12 -8.54295e+12 -7.76557e+12 -3.19623e+12 -2.52137e+12 -6.14014e+12 -4.61615e+12 -3.43403e+12 -6.78636e+12 -1.14042e+13 -6.51546e+12 -8.36303e+12 -6.52989e+12 -8.47119e+12 -7.54847e+12 -3.12963e+12 -2.88852e+12 -5.59435e+12 -5.54528e+12 -5.21752e+12 -9.78877e+12 -3.38078e+12 -4.69303e+12 -3.62749e+12 -3.31952e+12 -5.52759e+12 -7.79798e+12 -5.25415e+12 -3.97306e+12 -4.839e+12 -6.79644e+12 -5.14407e+12 -5.86918e+12 -7.2706e+12 -3.98003e+12 -5.9021e+12 -6.44497e+12 -3.17741e+12 -6.57122e+12 -4.48968e+12 -5.63054e+12 -2.14637e+12 -4.08211e+12 -3.43943e+12 -4.61626e+12 -2.68143e+12 -5.39544e+12 -5.31782e+12 -3.74802e+12 -4.51964e+12 -5.97201e+12 -4.59584e+12 -4.44473e+12 -4.03887e+12 -3.92005e+12 -6.11894e+12 -5.24368e+12 -4.93518e+12 -3.92418e+12 -6.72361e+12 -4.31992e+12 -3.209e+12 -3.03072e+12 -3.78362e+12 -5.03818e+12 -3.76927e+12 -8.1402e+12 -2.12503e+12 -8.33846e+12 -4.67803e+12 -4.8989e+12 -8.48482e+12 -6.04848e+12 -7.76104e+12 -6.21422e+12 -5.62365e+12 -7.50627e+12 -8.67092e+12 -6.66173e+12 -5.07899e+12 -3.84927e+12 -5.93383e+12 -6.48937e+12 -6.66957e+12 -8.00612e+12 -7.74312e+12 -6.38155e+12 -6.69261e+12 -2.72687e+12 -7.57799e+12 -6.24622e+12 -3.74737e+12 -5.90372e+12 -7.3205e+12 -4.77151e+12 -4.58166e+12 -6.38031e+12 -8.6594e+12 -5.85228e+12 -6.74642e+12 -6.55017e+12 -7.75837e+12 -6.66489e+12 -6.29621e+12 -6.75553e+12 -1.02232e+13 -6.14294e+12 -7.97692e+12 -6.08102e+12 -5.82167e+12 -4.58794e+12 -7.26192e+12 -3.25149e+12 -5.57326e+12 -1.14405e+13 -7.97402e+12 -7.60256e+12 -1.25355e+13 -6.52737e+12 -6.13074e+12 -5.92046e+12 -8.95318e+12 -5.10768e+12 -6.96194e+12 -4.09368e+12 -4.81396e+12 -3.30709e+12 -3.78649e+12 -7.20455e+12 -4.65252e+12 -1.02369e+13 -5.95198e+12 -7.2558e+12 -5.60905e+12 -5.84897e+12 -6.47143e+12 -9.17289e+12 -5.79936e+12 -1.04333e+13 -8.91907e+12 -7.21623e+12 -4.11245e+12 -7.02604e+12 -5.23488e+12 -4.79018e+12 -4.97254e+12 -5.48585e+12 -7.76715e+12 -7.20926e+12 -6.70931e+12 -5.20444e+12 -5.1459e+12 -4.44791e+12 -9.76345e+12 -3.78173e+12 -4.17546e+12 -2.99348e+12 -6.76436e+12 -5.07294e+12 -6.97197e+12 -4.32458e+12 -8.14538e+12 -6.89251e+12 -7.6018e+12 -7.13833e+12 -4.55096e+12 -4.99245e+12 -4.91144e+12 -6.46858e+12 -5.71786e+12 -5.37621e+12 -4.41209e+12 -7.06752e+12 -7.09041e+12 -6.87892e+12 -4.83839e+12 -6.54551e+12 -6.38117e+12 -7.30527e+12 -4.30391e+12 -6.28813e+12 -6.12511e+12 -7.4268e+12 -6.56925e+12 -5.72406e+12 -5.20023e+12 -5.92935e+12 -2.5887e+12 -2.8287e+12 -4.6479e+12 -4.364e+12 -3.99545e+12 -4.90638e+12 -4.58944e+12 -4.59795e+12 -4.14195e+12 -3.71946e+12 -5.08872e+12 -3.20381e+12 -5.89601e+12 -3.6371e+12 -2.72655e+12 -4.49593e+12 -3.56759e+12 -4.06678e+12 -5.78265e+12 -4.55192e+12 -7.83236e+12 -4.14254e+12 -6.19686e+12 -5.34742e+12 -4.51696e+12 -4.91545e+12 -3.72332e+12 -2.52716e+12 -3.78897e+12 -2.96836e+12 -4.57815e+12 -5.77861e+12 -6.0351e+12 -8.88024e+12 -1.86243e+12 -5.22599e+12 -8.43956e+12 -6.65185e+12 -9.17039e+12 -6.27718e+12 -7.11132e+12 -7.49462e+12 -5.03303e+12 -6.6674e+12 -5.93459e+12 -4.08504e+12 -7.54943e+12 -8.45459e+12 -5.04024e+12 -4.45069e+12 -8.59227e+12 -5.69564e+12 -5.36798e+12 -6.15602e+12 -4.45011e+12 -4.57764e+12 -7.74189e+12 -6.04556e+12 -7.78617e+12 -6.57605e+12 -967287000000.0 -7.21702e+12 -8.41489e+12 -6.27425e+12 -7.40385e+12 -5.89042e+12 -7.66502e+12 -8.06509e+12 -7.24486e+12 -5.46302e+12 -5.57728e+12 -8.44182e+12 -6.45369e+12 -1.12937e+13 -2.98369e+12 -6.86427e+12 -2.53403e+12 -7.04826e+12 -4.38748e+12 -6.05377e+12 -2.33363e+12 -4.60057e+12 -3.40127e+12 -3.72302e+12 -1.0749e+13 -4.12347e+12 -4.5053e+12 -5.93612e+12 -4.93436e+12 -5.11054e+12 -8.34557e+12 -6.66852e+12 -7.14802e+12 -9.59163e+12 -4.52437e+12 -6.98332e+12 -2.97005e+12 -7.97167e+12 -4.37814e+12 -3.91549e+12 -5.11391e+12 -5.53367e+12 -4.39822e+12 -5.23834e+12 -7.59061e+12 -4.69424e+12 -6.91633e+12 -3.45837e+12 -5.23623e+12 -5.79339e+12 -4.72396e+12 -5.69817e+12 -7.43911e+12 -7.19376e+12 -4.21625e+12 -6.18443e+12 -5.25254e+12 -5.43363e+12 -6.02436e+12 -6.26754e+12 -2.32106e+12 -2.45237e+12 -7.15551e+12 -8.18951e+12 -5.83271e+12 -3.883e+12 -4.13041e+12 -3.77878e+12 -3.77435e+12 -3.91801e+12 -3.13202e+12 -2.68399e+12 -6.3138e+12 -3.43789e+12 -4.09159e+12 -2.31945e+12 -5.11197e+12 -3.02161e+12 -4.10246e+12 -2.09625e+12 -3.89478e+12 -4.72878e+12 -4.35749e+12 -5.75681e+12 -3.66054e+12 -3.25544e+12 -4.58687e+12 -5.19211e+12 -3.68908e+12 -3.79672e+12 -3.03019e+12 -5.43116e+12 -3.3472e+12 -4.80725e+12 -5.1539e+12 -7.65185e+12 -4.41662e+12 -4.6635e+12 -2.96427e+12 -4.13113e+12 -1.58705e+12 -5.23464e+12 -5.31255e+12 -4.40679e+12 -6.03096e+12 -4.17451e+12 -2.95912e+12 -3.62876e+12 -3.734e+12 -4.44007e+12 -6.38161e+12 -6.47078e+12 -7.74078e+12 -4.77119e+12 -4.58401e+12 -4.32724e+12 -4.43188e+12 -3.76359e+12 -2.82029e+12 -4.34977e+12 -3.95069e+12 -4.82181e+12 -7.06108e+12 -5.19417e+12 -5.83607e+12 -5.88087e+12 -7.76568e+12 -9.07071e+12 -6.76885e+12 -3.95197e+12 -5.33975e+12 -6.47023e+12 -6.0368e+12 -6.82159e+12 -7.30496e+12 -7.14473e+12 -5.51552e+12 -9.78908e+12 -5.64637e+12 -8.01379e+12 -3.79162e+12 -7.28645e+12 -3.02073e+12 -5.96426e+12 -3.391e+12 -5.6201e+12 -5.34263e+12 -5.41158e+12 -6.07862e+12 -8.48433e+12 -6.64449e+12 -7.60046e+12 -7.00417e+12 -4.46348e+12 -5.26148e+12 -6.38096e+12 -3.7478e+12 -9.79908e+12 -4.53551e+12 -6.67896e+12 -5.85631e+12 -5.05723e+12 -9.15998e+12 -8.77825e+12 -5.46299e+12 -4.40029e+12 -5.34004e+12 -3.0733e+12 -2.82796e+12 -3.81256e+12 -1.75075e+12 -7.51287e+12 -5.2305e+12 -3.09795e+12 -6.05883e+12 -5.53685e+12 -6.76469e+12 -4.50537e+12 -4.68123e+12 -4.64266e+12 -5.87664e+12 -3.78237e+12 -4.20061e+12 -6.89671e+12 -4.71655e+12 -4.86074e+12 -4.72066e+12 -5.62402e+12 -5.95251e+12 -5.74638e+12 -4.87062e+12 -4.79931e+12 -4.22232e+12 -2.14114e+12 -4.78697e+12 -6.39818e+12 -6.65367e+12 -6.65238e+12 -9.4166e+12 -4.58045e+12 -5.3268e+12 -5.17386e+12 -5.52773e+12 -7.54141e+12 -7.27382e+12 -4.80719e+12 -5.70263e+12 -5.82164e+12 -6.96014e+12 -3.96139e+12 -4.77108e+12 -4.7031e+12 -6.45425e+12 -4.56802e+12 -3.44352e+12 -4.91386e+12 -6.39075e+12 -5.43904e+12 -4.1809e+12 -5.37838e+12 -4.52114e+12 -3.67703e+12 -4.97517e+12 -7.04469e+12 -4.7694e+12 -3.95741e+12 -4.4044e+12 -4.0227e+12 -4.77932e+12 -4.66663e+12 -2.11668e+12 -6.61771e+12 -3.65467e+12 -3.95261e+12 -2.18073e+12 -4.43051e+12 -2.62183e+12 -2.31535e+12 -2.62918e+12 -2.37417e+12 -2.81033e+12 -2.79864e+12 -4.14772e+12 -3.52046e+12 -4.17402e+12 -3.22591e+12 -4.16529e+12 -2.71291e+12 -4.60076e+12 -4.07436e+12 -4.81986e+12 -3.43031e+12 -5.26484e+12 -6.98883e+12 -3.06888e+12 -4.23815e+12 -4.62679e+12 -2.62585e+12 -4.10351e+12 -3.36783e+12 -3.96889e+12 -1.08896e+12 -4.07223e+12 -5.53322e+12 -2.93954e+12 -3.15586e+12 -3.03955e+12 -2.14363e+12 -3.37441e+12 -5.71067e+12 -5.11042e+12 -1.86645e+12 -4.20656e+12 -3.4721e+12 -3.43455e+12 -5.98031e+12 -5.82006e+12 -4.53673e+12 -5.70113e+12 -3.90749e+12 -8.5313e+12 -3.26905e+12 -3.22412e+12 -4.72294e+12 -3.15774e+12 -7.41507e+12 -6.98752e+12 -4.18763e+12 -2.99237e+12 -7.65691e+12 -6.78868e+12 -7.48183e+12 -4.07238e+12 -5.55406e+12 -5.22846e+12 -6.44245e+12 -5.7704e+12 -7.37335e+12 -5.40969e+12 -5.94691e+12 -4.64529e+12 -7.09246e+12 -6.27019e+12 -8.91709e+12 -8.0837e+12 -3.61302e+12 -4.92406e+12 -6.99105e+12 -3.40556e+12 -5.39273e+12 -2.94641e+12 -4.43682e+12 -8.52557e+12 -5.18333e+12 -5.13814e+12 -6.66981e+12 -6.17012e+12 -6.86261e+12 -6.16099e+12 -4.4762e+12 -7.39306e+12 -4.97314e+12 -4.63943e+12 -2.57159e+12 -3.75236e+12 -8.34281e+12 -2.80528e+12 -2.62063e+12 -3.74041e+12 -7.22058e+12 -6.35457e+12 -7.03764e+12 -5.3585e+12 -6.18605e+12 -7.71192e+12 -8.45027e+12 -6.84319e+12 -4.37264e+12 -4.45815e+12 -8.11086e+12 -4.19116e+12 -5.47753e+12 -4.14003e+12 -4.37886e+12 -3.31725e+12 -4.59124e+12 -4.6848e+12 -5.77441e+12 -5.68007e+12 -4.18244e+12 -3.57586e+12 -3.73019e+12 -4.84886e+12 -1.96207e+12 -4.18762e+12 -3.94756e+12 -6.55288e+12 -5.15594e+12 -6.02236e+12 -4.22453e+12 -5.93984e+12 -5.3505e+12 -3.58969e+12 -4.29418e+12 -3.54716e+12 -4.57414e+12 -4.48205e+12 -7.0339e+12 -7.12346e+12 -5.8075e+12 -6.56934e+12 -7.29074e+12 -7.21964e+12 -3.67355e+12 -1.63936e+12 -3.77956e+12 -3.66964e+12 -2.64432e+12 -7.04685e+12 -5.47095e+12 -5.53705e+12 -2.78833e+12 -4.44729e+12 -5.15012e+12 -4.87795e+12 -2.74765e+12 -3.36195e+12 -3.92588e+12 -4.97531e+12 -3.82786e+12 -2.39288e+12 -1.75852e+12 -3.54603e+12 -3.32558e+12 -2.12725e+12 -2.85742e+12 -2.60202e+12 -4.88552e+12 -1.79209e+12 -4.03878e+12 -3.71336e+12 -3.11685e+12 -4.34449e+12 -1.40726e+12 -2.09674e+12 -3.96239e+12 -3.44977e+12 -2.85371e+12 -4.30715e+12 -2.68024e+12 -1.38542e+12 -1.72874e+12 -3.39493e+12 -3.11273e+12 -4.43065e+12 -5.88177e+12 -5.13739e+12 -3.75312e+12 -2.98443e+12 -3.34404e+12 -3.26258e+12 -3.05509e+12 -4.20887e+12 -3.66449e+12 -3.74762e+12 -2.33971e+12 -2.95756e+12 -2.41526e+12 -5.43448e+12 -7.49545e+12 -2.90116e+12 -2.95596e+12 -2.05192e+12 -1.83172e+12 -3.41173e+12 -2.67306e+12 -7.86468e+12 -7.58657e+12 -2.34441e+12 -4.81258e+12 -3.83056e+12 -3.78833e+12 -3.94398e+12 -5.53571e+12 -5.32547e+12 -5.8022e+12 -4.53888e+12 -4.46524e+12 -5.07493e+12 -4.16617e+12 -2.24449e+12 -1.35105e+12 -2.85235e+12 -4.35254e+12 -2.90061e+12 -3.88777e+12 -5.73464e+12 -5.21356e+12 -8.11392e+12 -4.8265e+12 -4.89696e+12 -7.78274e+12 -5.76458e+12 -6.02811e+12 -3.68258e+12 -3.06505e+12 -3.46946e+12 -6.80417e+12 -7.98722e+12 -4.78083e+12 -8.02557e+12 -5.32108e+12 -4.5237e+12 -5.43402e+12 -7.39906e+12 -4.01596e+12 -7.493e+12 -5.01201e+12 -6.91012e+12 -4.69358e+12 -6.487e+12 -6.65681e+12 -5.44015e+12 -1.60592e+12 -4.61192e+12 -7.6195e+12 -2.80539e+12 -3.46895e+12 -7.08292e+12 -6.00406e+12 -6.49622e+12 -4.2998e+12 -6.59782e+12 -7.85961e+12 -4.97267e+12 -4.24078e+12 -3.16572e+12 -5.43597e+12 -3.98188e+12 -4.6929e+12 -1.77607e+12 -4.01326e+12 -6.66347e+12 -3.16313e+12 -5.18679e+12 -2.17518e+12 -4.34813e+12 -5.19317e+12 -5.11289e+12 -5.07537e+12 -3.55285e+12 -5.83402e+12 -4.31629e+12 -2.87375e+12 -3.91601e+12 -4.35344e+12 -5.49976e+12 -3.28365e+12 -5.43361e+12 -4.57372e+12 -5.95178e+12 -4.86032e+12 -2.11454e+12 -2.99291e+12 -5.27138e+12 -3.5486e+12 -4.43952e+12 -5.32154e+12 -3.55325e+12 -5.00447e+12 -3.27617e+12 -4.5058e+12 -5.7578e+12 -3.05323e+12 -4.69665e+12 -1.78632e+12 -4.30356e+12 -2.83034e+12 -2.49292e+12 -2.59861e+12 -5.36653e+12 -3.35982e+12 -5.07295e+12 -5.01623e+12 -3.31927e+12 -3.65242e+12 -3.39987e+12 -3.42683e+12 -1.922e+12 -1.97059e+12 -3.57956e+12 -2.56673e+12 -3.74206e+12 -5.36761e+12 -4.44442e+12 -2.80153e+12 -3.12097e+12 -2.50654e+12 -2.52063e+12 -2.18734e+12 -2.74887e+12 -3.26518e+12 -3.01822e+12 -1.70162e+12 -3.32835e+12 -3.21728e+12 -3.18266e+12 -2.62738e+12 -2.99367e+12 -5.17842e+12 -2.28298e+12 -4.36411e+12 -3.80186e+12 -3.79785e+12 -3.38604e+12 -3.8727e+12 -2.60655e+12 -2.50648e+12 -3.7794e+12 -3.83014e+12 -4.30097e+12 -2.39305e+12 -3.48585e+12 -3.62634e+12 -4.38856e+12 -2.33497e+12 -4.82728e+12 -6.06026e+12 -3.25476e+12 -3.43295e+12 -3.03875e+12 -3.53979e+12 -2.70902e+12 -4.89434e+12 -3.19674e+12 -4.14798e+12 -6.36039e+12 -5.79903e+12 -7.16334e+12 -6.13081e+12 -2.63298e+12 -4.12246e+12 -4.72892e+12 -6.85512e+12 -6.97128e+12 -4.55825e+12 -4.51593e+12 -3.73502e+12 -5.67884e+12 -5.47005e+12 -5.65121e+12 -3.34847e+12 -6.05206e+12 -5.82957e+12 -4.18062e+12 -3.94519e+12 -4.56853e+12 -6.0034e+12 -3.92173e+12 -5.68205e+12 -5.47463e+12 -6.8415e+12 -8.04742e+12 -4.90015e+12 -2.62993e+12 -4.57117e+12 -3.91419e+12 -3.45653e+12 -5.93972e+12 -4.38158e+12 -3.77745e+12 -3.53014e+12 -5.44969e+12 -4.30271e+12 -4.33714e+12 -4.06805e+12 -5.20191e+12 -5.47094e+12 -5.32436e+12 -5.78972e+12 -3.84704e+12 -6.90752e+12 -1.81276e+12 -5.07722e+12 -3.2286e+12 -5.09572e+12 -4.68984e+12 -1.41609e+12 -4.78986e+12 -2.89292e+12 -4.31522e+12 -5.8833e+12 -3.60055e+12 -4.50016e+12 -4.27027e+12 -1.8117e+12 -4.08386e+12 -6.28504e+12 -4.40899e+12 -2.49774e+12 -1.94682e+12 -5.49754e+12 -2.41937e+12 -3.41419e+12 -5.34562e+12 -5.46882e+12 -5.72119e+12 -2.59104e+12 -6.25799e+12 -2.8545e+12 -4.7841e+12 -3.54496e+12 -3.3522e+12 -3.12717e+12 -4.19854e+12 -4.44079e+12 -3.16803e+12 -3.89982e+12 -3.35244e+12 -4.41494e+12 -693967000000.0 -3.67712e+12 -2.92946e+12 -1.45564e+12 -1.92049e+12 -3.87888e+12 -2.29317e+12 -2.83589e+12 -2.3809e+12 -2.16497e+12 -2.29619e+12 -3.04058e+12 -3.95752e+12 -1.76816e+12 -4.05918e+12 -2.67404e+12 -3.49762e+12 -1.75332e+12 -2.89035e+12 -2.84485e+12 -1.64887e+12 -2.30155e+12 -2.32967e+12 -1.94249e+12 -2.15321e+12 -3.70054e+12 -2.98242e+12 -2.35618e+12 -3.13493e+12 -2.46517e+12 -3.38713e+12 -1.60779e+12 -3.84142e+12 -2.38496e+12 -2.66397e+12 -3.05614e+12 -2.15623e+12 -3.23201e+12 -3.12514e+12 -5.10323e+12 -3.09853e+12 -6.09061e+12 -3.52135e+12 -1.9962e+12 -3.97556e+12 -3.86479e+12 -4.01022e+12 -2.10417e+12 -3.23868e+12 -3.43398e+12 -4.66276e+12 -4.23112e+12 -4.40266e+12 -3.47089e+12 -2.5297e+12 -1.33801e+12 -2.40106e+12 -4.57174e+12 -5.52975e+12 -5.64004e+12 -1.97834e+12 -2.10676e+12 -2.8206e+12 -3.22119e+12 -4.48752e+12 -4.80661e+12 -5.28422e+12 -2.91204e+12 -5.51869e+12 -5.72327e+12 -4.7081e+12 -4.54266e+12 -4.94268e+12 -7.19808e+12 -3.54776e+12 -2.78731e+12 -2.84179e+12 -3.69504e+12 -4.16069e+12 -5.13246e+12 -3.61225e+12 -3.40054e+12 -4.18115e+12 -4.9468e+12 -3.24096e+12 -4.17428e+12 -4.04785e+12 -6.27564e+12 -4.72374e+12 -6.37553e+12 -3.60837e+12 -2.939e+12 -2.38335e+12 -5.81725e+12 -3.62926e+12 -2.87975e+12 -4.08678e+12 -5.61647e+12 -5.75661e+12 -4.65491e+12 -4.4446e+12 -4.52357e+12 -5.10829e+12 -3.0658e+12 -3.78006e+12 -3.81012e+12 -2.82694e+12 -7.81967e+12 -4.05984e+12 -5.05912e+12 -3.32249e+12 -3.43403e+12 -3.96287e+12 -3.3595e+12 -4.31056e+12 -3.37482e+12 -3.96562e+12 -3.98994e+12 -4.71971e+12 -2.98529e+12 -3.72574e+12 -1.30271e+12 -2.87195e+12 -5.99004e+12 -1.11181e+12 -4.01549e+12 -1.76249e+12 -2.50781e+12 -2.50683e+12 -3.35616e+12 -2.97015e+12 -1.80371e+12 -2.59058e+12 -2.10087e+12 -3.08211e+12 -1.44499e+12 -2.81743e+12 -2.61963e+12 -1.68034e+12 -2.90808e+12 -2.44529e+12 -3.34142e+12 -1.51171e+12 -1.06493e+12 -469845000000.0 -2.19008e+12 -3.02014e+12 -2.21068e+12 -701942000000.0 -1.62427e+12 -2.36662e+12 -2.28442e+12 -3.37053e+12 -1.55093e+12 -3.43389e+12 -3.79941e+12 -1.40885e+12 -2.44592e+12 -1.63976e+12 -2.20194e+12 -3.83609e+12 -2.61669e+12 -4.31691e+12 -1.53008e+12 -3.18465e+12 -3.34109e+12 -3.51121e+12 -4.58603e+12 -1.09603e+12 -3.27684e+12 -4.86396e+12 -5.11905e+12 -2.85307e+12 -2.03285e+12 -2.25207e+12 -1.94098e+12 -3.12791e+12 -2.67836e+12 -2.3051e+12 -2.19467e+12 -2.99273e+12 -4.00318e+12 -4.90036e+12 -4.55926e+12 -1.62015e+12 -2.37506e+12 -4.65733e+12 -4.29438e+12 -2.52009e+12 -1.03846e+12 -4.46386e+12 -4.77993e+12 -1.89016e+12 -5.46996e+12 -2.13464e+12 -3.73105e+12 -4.61438e+12 -3.02058e+12 -3.05338e+12 -4.01657e+12 -3.17787e+12 -3.528e+12 -3.97088e+12 -4.86083e+12 -4.78059e+12 -2.79527e+12 -6.04883e+12 -4.31777e+12 -3.53247e+12 -3.15315e+12 -6.13677e+12 -6.33554e+12 -3.98223e+12 -4.96479e+12 -4.70795e+12 -3.87028e+12 -5.65725e+12 -2.41593e+12 -1.55966e+12 -2.6591e+12 -3.01379e+12 -3.25867e+12 -4.45716e+12 -5.10806e+12 -5.44063e+12 -6.81601e+12 -2.6279e+12 -4.79113e+12 -5.63993e+12 -2.62939e+12 -3.02829e+12 -3.7759e+12 -3.09047e+12 -2.05636e+12 -4.72717e+12 -4.10255e+12 -2.10207e+12 -3.1314e+12 -2.47625e+12 -3.9627e+12 -3.2644e+12 -4.43571e+12 -2.81982e+12 -2.54821e+12 -2.70398e+12 -2.4661e+12 -1.55169e+12 -3.61084e+12 -3.67208e+12 -2.29936e+12 -1.61554e+12 -2.29316e+12 -1.65664e+12 -2.20365e+12 -2.1214e+12 -1.30841e+12 -2.35994e+12 -2.27884e+12 -1.35763e+12 -2.31566e+12 -840135000000.0 -849858000000.0 -1.1308e+12 -2.07113e+12 -1.49872e+12 -1.09379e+12 -2.73961e+12 -3.08274e+12 -1.22475e+12 -1.7508e+12 -2.84736e+12 -1.89666e+12 -2.42995e+12 -2.57234e+12 -1.78551e+12 -706348000000.0 -1.08145e+12 -2.37938e+12 -1.21695e+12 -1.42415e+12 -2.10436e+12 -890154000000.0 -966443000000.0 -963609000000.0 -2.35377e+12 -1.37345e+12 -1.60064e+12 -1.75196e+12 -2.10707e+12 -2.34976e+12 -2.15943e+12 -1.91944e+12 -2.10997e+12 -1.13396e+12 -1.75815e+12 -1.38502e+12 -2.17358e+12 -2.26812e+12 -3.26881e+12 -2.78826e+12 -2.6753e+12 -2.69446e+12 -2.03499e+12 -2.98754e+12 -4.86842e+12 -3.8416e+12 -1.75399e+12 -2.36153e+12 -2.2806e+12 -2.68055e+12 -1.72528e+12 -2.19825e+12 -2.31791e+12 -3.36968e+12 -2.28339e+12 -3.33586e+12 -2.10509e+12 -3.84835e+12 -2.85017e+12 -1.5068e+12 -534443000000.0 -4.02077e+12 -3.05012e+12 -3.75328e+12 -3.57033e+12 -2.94893e+12 -5.60843e+12 -2.66569e+12 -4.03989e+12 -3.31675e+12 -1.55051e+12 -4.52864e+12 -4.22346e+12 -3.1924e+12 -2.19645e+12 -1.67999e+12 -4.46898e+12 -2.41459e+12 -2.63164e+12 -4.93526e+12 -5.38602e+12 -5.24746e+12 -1.91799e+12 -3.98277e+12 -4.02232e+12 -5.13483e+12 -1.7059e+12 -1.85132e+12 -6.06611e+12 -4.86948e+12 -2.03665e+12 -2.02066e+12 -5.65815e+12 -4.50066e+12 -5.67672e+12 -4.64767e+12 -1.37856e+12 -2.47159e+12 -3.49406e+12 -3.5954e+12 -1.98706e+12 -3.71447e+12 -3.81916e+12 -194857000000.0 -4.01893e+12 -4.05782e+12 -3.06032e+12 -2.14278e+12 -3.5177e+12 -3.74551e+12 -2.12782e+12 -1.58489e+12 -4.55499e+12 -1.62681e+12 -1.81653e+12 -2.56547e+12 -2.97591e+12 -2.02137e+12 -3.87009e+12 -2.29959e+12 -1.35415e+12 -2.09963e+12 -3.26365e+12 -2.3249e+12 -1.85921e+12 -2.40486e+12 -1.0434e+12 -1.81603e+12 -2.00249e+12 -3.01533e+12 -2.44078e+12 -1.9531e+12 -1.6411e+12 -2.01702e+12 -2.75567e+12 -2.614e+12 -2.15082e+12 -1.97523e+12 -2.11905e+12 -1.27541e+12 -842231000000.0 -915640000000.0 -872358000000.0 -1.17246e+12 -960557000000.0 -1.15229e+12 -1.15637e+12 -1.03421e+12 -1.26799e+12 -768349000000.0 -940669000000.0 -1.57327e+12 -1.19978e+12 -1.32248e+12 -1.17962e+12 -958673000000.0 -1.16521e+12 -1.77105e+12 -1.40692e+12 -846626000000.0 -891607000000.0 -1.92766e+12 -2.71862e+12 -1.68617e+12 -2.53375e+12 -2.12218e+12 -2.65284e+12 -1.22746e+12 -1.37384e+12 -1.71008e+12 -1.27049e+12 -1.35647e+12 -1.99012e+12 -1.84114e+12 -1.43031e+12 -1.69494e+12 -3.03553e+12 -2.06197e+12 -1.35945e+12 -1.73734e+12 -2.70201e+12 -1.3267e+12 -1.63319e+12 -2.83096e+12 -2.96383e+12 -1.59956e+12 -1.79112e+12 -2.40004e+12 -2.65367e+12 -3.83035e+12 -4.70615e+12 -1.15032e+12 -2.84139e+12 -3.2014e+12 -4.13902e+12 -2.57775e+12 -3.60975e+12 -2.27337e+12 -2.32288e+12 -3.17655e+12 -3.25013e+12 -1.58586e+12 -3.68551e+12 -2.45486e+12 -4.15599e+12 -2.473e+12 -2.55948e+12 -2.5627e+12 -3.2668e+12 -2.74143e+12 -3.62043e+12 -3.45232e+12 -4.30258e+12 -2.35054e+12 -1.98872e+12 -2.39624e+12 -4.71282e+12 -2.50165e+12 -2.8955e+12 -2.19754e+12 -2.19286e+12 -2.38418e+12 -3.17841e+12 -2.24331e+12 -2.101e+12 -2.63509e+12 -2.15958e+12 -1.68602e+12 -1.31917e+12 -1.88605e+12 -2.31394e+12 -2.45924e+12 -1.63431e+12 -1.94037e+12 -1.53491e+12 -1.96675e+12 -3.97093e+12 -3.26656e+12 -2.27586e+12 -2.41208e+12 -2.44738e+12 -2.98807e+12 -1.86673e+12 -2.38343e+12 -2.20541e+12 -1.55182e+12 -2.42036e+12 -1.65531e+12 -2.41567e+12 -1.83606e+12 -1.03887e+12 -1.79825e+12 -1.26508e+12 -1.78364e+12 -1.30108e+12 -3.72252e+12 -2.50815e+12 -178468000000.0 -1.37508e+12 -1.59786e+12 -883109000000.0 -2.12607e+12 -1.04141e+12 -1.22697e+12 -970455000000.0 -1.94877e+12 -676505000000.0 -775899000000.0 -1.26399e+12 -1.32817e+12 -1.28511e+12 -1.24336e+12 -671163000000.0 -639143000000.0 -1.09995e+12 -237066000000.0 -513152000000.0 -398577000000.0 -695219000000.0 -1.05931e+12 -919903000000.0 -510302000000.0 -299444000000.0 -531993000000.0 -408209000000.0 -337731000000.0 -706104000000.0 -764146000000.0 -759022000000.0 -810796000000.0 -1.18077e+12 -468328000000.0 -1.25207e+12 -1.51142e+12 -999469000000.0 -1.27839e+12 -1.29656e+12 -1.1486e+12 -1.60508e+12 -1.31887e+12 -2.09682e+12 -1.63165e+12 -1.02776e+12 -977558000000.0 -1.29805e+12 -1.27844e+12 -1.71664e+12 -1.48566e+12 -1.85035e+12 -1.15492e+12 -1.97223e+12 -1.49525e+12 -1.62753e+12 -1.82289e+12 -1.7098e+12 -1.52384e+12 -3.74632e+12 -2.43799e+12 -3.07987e+12 -1.97202e+12 -1.55224e+12 -1.32932e+12 -3.82016e+12 -1.20171e+12 -1.10221e+12 -1.79978e+12 -2.78198e+12 -1.57744e+12 -2.84836e+12 -2.23843e+12 -2.36559e+12 -896687000000.0 -1.4312e+12 -3.95374e+12 -1.29771e+12 -1.98294e+12 -1.96768e+12 -2.3822e+12 -2.92922e+12 -2.00522e+12 -4.78664e+12 -2.43306e+12 -1.10739e+12 -2.05093e+12 -1.77228e+12 -2.25679e+12 -1.52322e+12 -1.15334e+12 -723304000000.0 -1.47148e+12 -2.58227e+12 -1.34702e+12 -3.3739e+12 -896314000000.0 -1.56453e+12 -1.72328e+12 -703903000000.0 -1.51155e+12 -1.26445e+12 -1.72826e+12 -1.99521e+12 -2.04221e+12 -1.55575e+12 -1.63408e+12 -3.37351e+12 -1.3632e+12 -1.66517e+12 -485069000000.0 -1.46591e+12 -1.07689e+12 -1.75852e+12 -823369000000.0 -1.37124e+12 -966291000000.0 -1.91705e+12 -1.49598e+12 -2.50676e+12 -679086000000.0 -1.16667e+12 -852563000000.0 -789608000000.0 -403291000000.0 -1.37672e+12 -948436000000.0 -619206000000.0 -549368000000.0 -971456000000.0 -507724000000.0 -314938000000.0 -286367000000.0 -317213000000.0 -360218000000.0 -317229000000.0 -78269100000.0 -382233000000.0 -224683000000.0 -360097000000.0 -197839000000.0 -531189000000.0 -469375000000.0 -304672000000.0 -308056000000.0 -351292000000.0 -282929000000.0 -320052000000.0 -449133000000.0 -1.24774e+12 -247622000000.0 -339839000000.0 -991816000000.0 -285628000000.0 -1.4989e+12 -1.27145e+12 -972235000000.0 -1.78088e+12 -2.91035e+12 -1.98274e+12 -1.0741e+12 -1.34101e+12 -1.0663e+12 -1.22534e+12 -1.39737e+12 -1.0477e+12 -1.40724e+12 -1.33727e+12 -2.65679e+12 -2.8069e+12 -1.46401e+12 -825389000000.0 -1.59824e+12 -2.8397e+12 -1.29371e+12 -2.63718e+12 -2.32805e+12 -4.06985e+12 -3.57124e+12 -1.62058e+12 -2.42252e+12 -1.50126e+12 -1.86866e+12 -2.05424e+12 -2.16037e+12 -1.54136e+12 -1.05132e+12 -1.30558e+12 -1.6221e+12 -1.46857e+12 -2.51553e+12 -2.47766e+12 -1.53407e+12 -1.35132e+12 -2.13667e+12 -1.4006e+12 -1.18317e+12 -1.40772e+12 -1.68466e+12 -1.85295e+12 -1.89246e+12 -2.11268e+12 -756111000000.0 -867547000000.0 -1.56624e+12 -872777000000.0 -1.82413e+12 -1.58215e+12 -1.06831e+12 -1.24365e+12 -1.40676e+12 -682779000000.0 -1.22912e+12 -1.17279e+12 -1.04756e+12 -1.09555e+12 -985553000000.0 -1.05457e+12 -845554000000.0 -566978000000.0 -484737000000.0 -641505000000.0 -543222000000.0 -439316000000.0 -188629000000.0 -424972000000.0 -131439000000.0 -520665000000.0 -222844000000.0 -260993000000.0 -311925000000.0 -197830000000.0 -177125000000.0 -257426000000.0 -640401000000.0 -483766000000.0 -225660000000.0 -377146000000.0 -508535000000.0 -189824000000.0 -95498000000.0 -256881000000.0 -772591000000.0 -482107000000.0 -331875000000.0 -402661000000.0 -1.34362e+12 -1.74956e+12 -891455000000.0 -694116000000.0 -1.32208e+12 -318806000000.0 -991136000000.0 -899061000000.0 -800614000000.0 -1.57793e+12 -1.45471e+12 -1.30946e+12 -1.63372e+12 -1.45117e+12 -2.19894e+12 -2.25398e+12 -1.38179e+12 -1.91075e+12 -2.12136e+12 -2.00373e+12 -1.98564e+12 -1.43527e+12 -2.49602e+12 -1.26577e+12 -1.51461e+12 -1.26793e+12 -2.01314e+12 -1.92823e+12 -1.286e+12 -1.73375e+12 -1.28173e+12 -890762000000.0 -682638000000.0 -1.80732e+12 -460105000000.0 -1.51144e+12 -1.11638e+12 -2.25506e+12 -1.2838e+12 -1.38551e+12 -238306000000.0 -823352000000.0 -1.33578e+12 -881306000000.0 -1.55193e+12 -554400000000.0 -1.64281e+12 -926820000000.0 -730061000000.0 -640714000000.0 -788211000000.0 -686489000000.0 -601709000000.0 -820252000000.0 -237405000000.0 -785079000000.0 -586883000000.0 -1.20656e+12 -584251000000.0 -302480000000.0 -868217000000.0 -268662000000.0 -347861000000.0 -204723000000.0 -151524000000.0 -93031600000.0 -236140000000.0 -176956000000.0 -100694000000.0 -252873000000.0 -119708000000.0 -168457000000.0 -89746400000.0 -110383000000.0 -281622000000.0 -319226000000.0 -612527000000.0 -801137000000.0 -196007000000.0 -467711000000.0 -603512000000.0 -476187000000.0 -462846000000.0 -417790000000.0 -364962000000.0 -723220000000.0 -713056000000.0 -666025000000.0 -845177000000.0 -654421000000.0 -1.04361e+12 -1.51959e+12 -1.39101e+12 -337834000000.0 -1.50395e+12 -484731000000.0 -1.03496e+12 -1.03995e+12 -952793000000.0 -815902000000.0 -712938000000.0 -46231400000.0 -516946000000.0 -846573000000.0 -1.27441e+12 -1.01543e+12 -465109000000.0 -440138000000.0 -392840000000.0 -77596800000.0 -525966000000.0 -217220000000.0 -225841000000.0 -216597000000.0 -176790000000.0 -65938600000.0 -204015000000.0 -278109000000.0 -177318000000.0 -257629000000.0 -257884000000.0 -230778000000.0 -211843000000.0 -216681000000.0 -274006000000.0 -371307000000.0 -274679000000.0 -142811000000.0 -324549000000.0 -839870000000.0 -1.03659e+12 -713535000000.0 -207768000000.0 -717702000000.0 -178120000000.0 -121693000000.0 -155493000000.0 -156734000000.0 -66546100000.0 -573155000000.0 -381261000000.0 -180050000000.0 -326857000000.0 -246777000000.0 -140666000000.0 