# vtk DataFile Version 2.0
Time step 56
ASCII
DATASET UNSTRUCTURED_GRID
POINTS 4650 float
194747.0 380620.0 0
198120.0 378509.0 0
201568.0 380198.0 0
298432.0 380198.0 0
301880.0 378509.0 0
305253.0 380620.0 0
188008.0 384823.0 0
191363.0 382728.0 0
194680.0 384415.0 0
198150.0 382351.0 0
204932.0 382162.0 0
208702.0 381129.0 0
215569.0 382022.0 0
223387.0 382224.0 0
226950.0 384015.0 0
230692.0 382806.0 0
234372.0 384255.0 0
238235.0 383372.0 0
242143.0 384053.0 0
246069.0 383467.0 0
250000.0 384027.0 0
253931.0 383467.0 0
257857.0 384053.0 0
261765.0 383372.0 0
265628.0 384255.0 0
269308.0 382806.0 0
273050.0 384015.0 0
276613.0 382224.0 0
284431.0 382022.0 0
291298.0 381129.0 0
295068.0 382162.0 0
301850.0 382351.0 0
305320.0 384415.0 0
308637.0 382728.0 0
311992.0 384823.0 0
184682.0 386900.0 0
187965.0 388567.0 0
191304.0 386496.0 0
197940.0 386208.0 0
201530.0 384175.0 0
208875.0 386208.0 0
211863.0 383476.0 0
216832.0 385823.0 0
219478.0 382919.0 0
280522.0 382919.0 0
283168.0 385823.0 0
288137.0 383476.0 0
291125.0 386208.0 0
298470.0 384175.0 0
302060.0 386208.0 0
308696.0 386496.0 0
312035.0 388567.0 0
315318.0 386900.0 0
178094.0 391014.0 0
181379.0 388962.0 0
184653.0 390621.0 0
194553.0 388258.0 0
201163.0 388078.0 0
204929.0 386127.0 0
213190.0 387188.0 0
220223.0 387890.0 0
223714.0 386205.0 0
227128.0 388268.0 0
230765.0 386800.0 0
234436.0 388243.0 0
238290.0 387369.0 0
242181.0 388082.0 0
246089.0 387464.0 0
250000.0 388065.0 0
253911.0 387464.0 0
257819.0 388082.0 0
261710.0 387369.0 0
265564.0 388243.0 0
269235.0 386800.0 0
272872.0 388268.0 0
276286.0 386205.0 0
279777.0 387890.0 0
286810.0 387188.0 0
295071.0 386127.0 0
298837.0 388078.0 0
305447.0 388258.0 0
315347.0 390621.0 0
318621.0 388962.0 0
321906.0 391014.0 0
174820.0 393058.0 0
181362.0 392660.0 0
187896.0 392359.0 0
191209.0 390314.0 0
197767.0 390106.0 0
204357.0 390025.0 0
207432.0 392136.0 0
210440.0 389861.0 0
216858.0 389799.0 0
223733.0 390188.0 0
230430.0 391051.0 0
238157.0 391387.0 0
246045.0 391490.0 0
253955.0 391490.0 0
261843.0 391387.0 0
269570.0 391051.0 0
276267.0 390188.0 0
283142.0 389799.0 0
289560.0 389861.0 0
292568.0 392136.0 0
295643.0 390025.0 0
302233.0 390106.0 0
308791.0 390314.0 0
312104.0 392359.0 0
318638.0 392660.0 0
325180.0 393058.0 0
171553.0 395098.0 0
178081.0 394685.0 0
181324.0 396393.0 0
184605.0 394386.0 0
187822.0 396187.0 0
194419.0 392139.0 0
197612.0 394027.0 0
200958.0 392014.0 0
204119.0 394010.0 0
210650.0 394160.0 0
213751.0 392014.0 0
220269.0 391867.0 0
226805.0 392702.0 0
234249.0 392210.0 0
242093.0 392070.0 0
250000.0 392055.0 0
257907.0 392070.0 0
265751.0 392210.0 0
273195.0 392702.0 0
279731.0 391867.0 0
286249.0 392014.0 0
289350.0 394160.0 0
295881.0 394010.0 0
299042.0 392014.0 0
302388.0 394027.0 0
305581.0 392139.0 0
312178.0 396187.0 0
315395.0 394386.0 0
318676.0 396393.0 0
321919.0 394685.0 0
328447.0 395098.0 0
165032.0 399168.0 0
168290.0 397135.0 0
171529.0 398714.0 0
174804.0 396701.0 0
178045.0 398385.0 0
184549.0 398181.0 0
191108.0 394171.0 0
194302.0 396044.0 0
200799.0 395965.0 0
207368.0 396051.0 0
213964.0 396125.0 0
217133.0 394035.0 0
219763.0 396967.0 0
223062.0 394722.0 0
226582.0 396676.0 0
230223.0 395069.0 0
234058.0 396186.0 0
238030.0 395376.0 0
242024.0 396061.0 0
246012.0 395486.0 0
250000.0 396048.0 0
253988.0 395486.0 0
257976.0 396061.0 0
261970.0 395376.0 0
265942.0 396186.0 0
269777.0 395069.0 0
273418.0 396676.0 0
276938.0 394722.0 0
280237.0 396967.0 0
282867.0 394035.0 0
286036.0 396125.0 0
292632.0 396051.0 0
299201.0 395965.0 0
305698.0 396044.0 0
308892.0 394171.0 0
315451.0 398181.0 0
321955.0 398385.0 0
325196.0 396701.0 0
328471.0 398714.0 0
331710.0 397135.0 0
334968.0 399168.0 0
161786.0 401195.0 0
168254.0 400727.0 0
174763.0 400368.0 0
181274.0 400151.0 0
184491.0 401997.0 0
187757.0 400042.0 0
191022.0 398055.0 0
197493.0 397959.0 0
204038.0 397931.0 0
207366.0 399911.0 0
210702.0 398110.0 0
216429.0 399121.0 0
223250.0 398822.0 0
230392.0 399058.0 0
269608.0 399058.0 0
276750.0 398822.0 0
283571.0 399121.0 0
289298.0 398110.0 0
292634.0 399911.0 0
295962.0 397931.0 0
302507.0 397959.0 0
308978.0 398055.0 0
312243.0 400042.0 0
315509.0 401997.0 0
318726.0 400151.0 0
325237.0 400368.0 0
331746.0 400727.0 0
338214.0 401195.0 0
158557.0 403210.0 0
164985.0 402739.0 0
168180.0 404342.0 0
171472.0 402351.0 0
174691.0 404049.0 0
177990.0 402102.0 0
181211.0 403921.0 0
187698.0 403910.0 0
194216.0 399965.0 0
197426.0 401891.0 0
200711.0 399887.0 0
203979.0 401801.0 0
213065.0 401205.0 0
219899.0 400955.0 0
226762.0 400687.0 0
234224.0 400173.0 0
238136.0 399354.0 0
242072.0 400057.0 0
246035.0 399476.0 0
250000.0 400045.0 0
253965.0 399476.0 0
257928.0 400057.0 0
261864.0 399354.0 0
265776.0 400173.0 0
273238.0 400687.0 0
280101.0 400955.0 0
286935.0 401205.0 0
296021.0 401801.0 0
299289.0 399887.0 0
302574.0 401891.0 0
305784.0 399965.0 0
312302.0 403910.0 0
318789.0 403921.0 0
322010.0 402102.0 0
325309.0 404049.0 0
328528.0 402351.0 0
331820.0 404342.0 0
335015.0 402739.0 0
341443.0 403210.0 0
155344.0 405214.0 0
158484.0 406724.0 0
161728.0 404743.0 0
164889.0 406336.0 0
171380.0 406003.0 0
177911.0 405828.0 0
184425.0 405820.0 0
187632.0 407784.0 0
190957.0 401955.0 0
194162.0 403893.0 0
200671.0 403801.0 0
207303.0 403673.0 0
210972.0 404519.0 0
216534.0 403080.0 0
220022.0 404932.0 0
223389.0 402807.0 0
226889.0 404680.0 0
230501.0 403042.0 0
234311.0 404192.0 0
238200.0 403322.0 0
242115.0 404090.0 0
246056.0 403460.0 0
250000.0 404074.0 0
253944.0 403460.0 0
257885.0 404090.0 0
261800.0 403322.0 0
265689.0 404192.0 0
269499.0 403042.0 0
273111.0 404680.0 0
276611.0 402807.0 0
279978.0 404932.0 0
283466.0 403080.0 0
289028.0 404519.0 0
292697.0 403673.0 0
299329.0 403801.0 0
305838.0 403893.0 0
309043.0 401955.0 0
312368.0 407784.0 0
315575.0 405820.0 0
322089.0 405828.0 0
328620.0 406003.0 0
335111.0 406336.0 0
338272.0 404743.0 0
341516.0 406724.0 0
344656.0 405214.0 0
148993.0 409194.0 0
152144.0 407212.0 0
155244.0 408680.0 0
161604.0 408321.0 0
168058.0 407973.0 0
174585.0 407735.0 0
177795.0 409554.0 0
181125.0 407695.0 0
184336.0 409647.0 0
190903.0 405864.0 0
197390.0 405823.0 0
200663.0 407711.0 0
203970.0 405673.0 0
207341.0 407472.0 0
214320.0 406345.0 0
223519.0 406792.0 0
230649.0 407029.0 0
269351.0 407029.0 0
276481.0 406792.0 0
285680.0 406345.0 0
292659.0 407472.0 0
296030.0 405673.0 0
299337.0 407711.0 0
302610.0 405823.0 0
309097.0 405864.0 0
315664.0 409647.0 0
318875.0 407695.0 0
322205.0 409554.0 0
325415.0 407735.0 0
331942.0 407973.0 0
338396.0 408321.0 0
344756.0 408680.0 0
347856.0 407212.0 0
351007.0 409194.0 0
143430.0 412690.0 0
152045.0 410687.0 0
158316.0 410261.0 0
161384.0 411917.0 0
164727.0 409953.0 0
167879.0 411613.0 0
171241.0 409663.0 0
174437.0 411423.0 0
181002.0 411469.0 0
187545.0 411662.0 0
194121.0 407826.0 0
197371.0 409758.0 0
203999.0 409539.0 0
210994.0 408493.0 0
214370.0 410317.0 0
217704.0 408146.0 0
221119.0 409949.0 0
227031.0 408663.0 0
234405.0 408357.0 0
238249.0 407284.0 0
242141.0 408187.0 0
246067.0 407441.0 0
250000.0 408151.0 0
253933.0 407441.0 0
257859.0 408187.0 0
261751.0 407284.0 0
265595.0 408357.0 0
272969.0 408663.0 0
278881.0 409949.0 0
282296.0 408146.0 0
285630.0 410317.0 0
289006.0 408493.0 0
296001.0 409539.0 0
302629.0 409758.0 0
305879.0 407826.0 0
312455.0 411662.0 0
318998.0 411469.0 0
325563.0 411423.0 0
328759.0 409663.0 0
332121.0 411613.0 0
335273.0 409953.0 0
338616.0 411917.0 0
341684.0 410261.0 0
347955.0 410687.0 0
356570.0 412690.0 0
140305.0 414640.0 0
146802.0 411699.0 0
150331.0 413546.0 0
155016.0 412172.0 0
157987.0 413791.0 0
164494.0 413576.0 0
171058.0 413324.0 0
177635.0 413280.0 0
184204.0 413471.0 0
187405.0 415536.0 0
190846.0 409781.0 0
194077.0 411765.0 0
200672.0 411616.0 0
207395.0 411295.0 0
211030.0 412471.0 0
217778.0 412120.0 0
224561.0 411762.0 0
231062.0 410999.0 0
234648.0 412745.0 0
238347.0 411237.0 0
242195.0 412320.0 0
246090.0 411418.0 0
250000.0 412257.0 0
253910.0 411418.0 0
257805.0 412320.0 0
261653.0 411237.0 0
265352.0 412745.0 0
268938.0 410999.0 0
275439.0 411762.0 0
282222.0 412120.0 0
288970.0 412471.0 0
292605.0 411295.0 0
299328.0 411616.0 0
305923.0 411765.0 0
309154.0 409781.0 0
312595.0 415536.0 0
315796.0 413471.0 0
322365.0 413280.0 0
328942.0 413324.0 0
335506.0 413576.0 0
342013.0 413791.0 0
344984.0 412172.0 0
349669.0 413546.0 0
353198.0 411699.0 0
359695.0 414640.0 0
137091.0 416642.0 0
143702.0 416412.0 0
147127.0 415226.0 0
153879.0 415360.0 0
161049.0 415500.0 0
164241.0 417186.0 0
167661.0 415258.0 0
170843.0 416994.0 0
174250.0 415114.0 0
177439.0 417006.0 0
180829.0 415238.0 0
184003.0 417291.0 0
190762.0 413703.0 0
197351.0 413702.0 0
200690.0 415513.0 0
204041.0 413410.0 0
207467.0 415127.0 0
214428.0 414285.0 0
221215.0 413923.0 0
228035.0 413576.0 0
231541.0 415397.0 0
268459.0 415397.0 0
271965.0 413576.0 0
278785.0 413923.0 0
285572.0 414285.0 0
292533.0 415127.0 0
295959.0 413410.0 0
299310.0 415513.0 0
302649.0 413702.0 0
309238.0 413703.0 0
315997.0 417291.0 0
319171.0 415238.0 0
322561.0 417006.0 0
325750.0 415114.0 0
329157.0 416994.0 0
332339.0 415258.0 0
335759.0 417186.0 0
338951.0 415500.0 0
346121.0 415360.0 0
352873.0 415226.0 0
356298.0 416412.0 0
362909.0 416642.0 0
133812.0 418688.0 0
137111.0 420276.0 0
140438.0 418305.0 0
143801.0 420104.0 0
150571.0 417105.0 0
153986.0 418908.0 0
157385.0 417176.0 0
160760.0 419026.0 0
167447.0 418922.0 0
174025.0 418801.0 0
180602.0 419012.0 0
187137.0 419404.0 0
190610.0 417628.0 0
194011.0 415705.0 0
197328.0 417663.0 0
204115.0 417287.0 0
211077.0 416452.0 0
217859.0 416086.0 0
221311.0 417887.0 0
224676.0 415733.0 0
228151.0 417550.0 0
235068.0 417212.0 0
238498.0 415185.0 0
242279.0 416457.0 0
246125.0 415390.0 0
250000.0 416354.0 0
253875.0 415390.0 0
257721.0 416457.0 0
261502.0 415185.0 0
264932.0 417212.0 0
271849.0 417550.0 0
275324.0 415733.0 0
278689.0 417887.0 0
282141.0 416086.0 0
288923.0 416452.0 0
295885.0 417287.0 0
302672.0 417663.0 0
305989.0 415705.0 0
309390.0 417628.0 0
312863.0 419404.0 0
319398.0 419012.0 0
325975.0 418801.0 0
332553.0 418922.0 0
339240.0 419026.0 0
342615.0 417176.0 0
346014.0 418908.0 0
349429.0 417105.0 0
356199.0 420104.0 0
359562.0 418305.0 0
362889.0 420276.0 0
366188.0 418688.0 0
127166.0 422840.0 0
130495.0 420759.0 0
133761.0 422308.0 0
140409.0 421944.0 0
143719.0 423698.0 0
147203.0 418708.0 0
150576.0 420684.0 0
157372.0 420767.0 0
164064.0 420820.0 0
170631.0 420696.0 0
173789.0 422501.0 0
177193.0 420726.0 0
180295.0 422810.0 0
183709.0 421140.0 0
193896.0 419621.0 0
200759.0 419373.0 0
207575.0 418959.0 0
211140.0 420440.0 0
214501.0 418247.0 0
217950.0 420046.0 0
224773.0 419701.0 0
231629.0 419384.0 0
235132.0 421199.0 0
238546.0 419144.0 0
242300.0 420473.0 0
246132.0 419361.0 0
250000.0 420353.0 0
253868.0 419361.0 0
257700.0 420473.0 0
261454.0 419144.0 0
264868.0 421199.0 0
268371.0 419384.0 0
275227.0 419701.0 0
282050.0 420046.0 0
285499.0 418247.0 0
288860.0 420440.0 0
292425.0 418959.0 0
299241.0 419373.0 0
306104.0 419621.0 0
316291.0 421140.0 0
319705.0 422810.0 0
322807.0 420726.0 0
326211.0 422501.0 0
329369.0 420696.0 0
335936.0 420820.0 0
342628.0 420767.0 0
349424.0 420684.0 0
352797.0 418708.0 0
356281.0 423698.0 0
359591.0 421944.0 0
366239.0 422308.0 0
369505.0 420759.0 0
372834.0 422840.0 0
123272.0 425261.0 0
130418.0 424382.0 0
137012.0 423918.0 0
140251.0 425572.0 0
147151.0 422233.0 0
153946.0 422449.0 0
157360.0 424363.0 0
160730.0 422688.0 0
164055.0 424540.0 0
167310.0 422653.0 0
170483.0 424476.0 0
176879.0 424460.0 0
183307.0 425033.0 0
186748.0 423322.0 0
190223.0 421530.0 0
193390.0 423461.0 0
197216.0 421648.0 0
200802.0 423193.0 0
204197.0 421199.0 0
207699.0 422791.0 0
214592.0 422197.0 0
221404.0 421851.0 0
228237.0 421525.0 0
271763.0 421525.0 0
278596.0 421851.0 0
285408.0 422197.0 0
292301.0 422791.0 0
295803.0 421199.0 0
299198.0 423193.0 0
302784.0 421648.0 0
306610.0 423461.0 0
309777.0 421530.0 0
313252.0 423322.0 0
316693.0 425033.0 0
323121.0 424460.0 0
329517.0 424476.0 0
332690.0 422653.0 0
335945.0 424540.0 0
339270.0 422688.0 0
342640.0 424363.0 0
346054.0 422449.0 0
352849.0 422233.0 0
359749.0 425572.0 0
362988.0 423918.0 0
369582.0 424382.0 0
376728.0 425261.0 0
119926.0 427357.0 0
126525.0 426378.0 0
129640.0 427934.0 0
133642.0 425964.0 0
136823.0 427599.0 0
143564.0 427161.0 0
147076.0 425798.0 0
150504.0 424331.0 0
153918.0 425907.0 0
160692.0 426420.0 0
167403.0 426504.0 0
173528.0 426252.0 0
179842.0 426623.0 0
189774.0 425478.0 0
196507.0 425565.0 0
204184.0 425173.0 0
211191.0 424437.0 0
218042.0 424013.0 0
221492.0 425815.0 0
224860.0 423674.0 0
228319.0 425501.0 0
231703.0 423370.0 0
235203.0 425178.0 0
238611.0 423108.0 0
242339.0 424489.0 0
246148.0 423328.0 0
250000.0 424354.0 0
253852.0 423328.0 0
257661.0 424489.0 0
261389.0 423108.0 0
264797.0 425178.0 0
268297.0 423370.0 0
271681.0 425501.0 0
275140.0 423674.0 0
278508.0 425815.0 0
281958.0 424013.0 0
288809.0 424437.0 0
295816.0 425173.0 0
303493.0 425565.0 0
310226.0 425478.0 0
320158.0 426623.0 0
326472.0 426252.0 0
332597.0 426504.0 0
339308.0 426420.0 0
346082.0 425907.0 0
349496.0 424331.0 0
352924.0 425798.0 0
356436.0 427161.0 0
363177.0 427599.0 0
366358.0 425964.0 0
370360.0 427934.0 0
373475.0 426378.0 0
380074.0 427357.0 0
116599.0 429442.0 0
119818.0 430924.0 0
123131.0 428759.0 0
126360.0 430070.0 0
132740.0 429530.0 0
139977.0 429197.0 0
143206.0 430480.0 0
146764.0 429339.0 0
150294.0 428123.0 0
153868.0 429205.0 0
157325.0 427966.0 0
163993.0 428207.0 0
167337.0 430257.0 0
170730.0 428634.0 0
176364.0 428227.0 0
182735.0 428935.0 0
186299.0 427287.0 0
192986.0 427297.0 0
200019.0 426904.0 0
203184.0 429023.0 0
207826.0 426632.0 0
214674.0 426132.0 0
218101.0 427998.0 0
224942.0 427656.0 0
231781.0 427353.0 0
235278.0 429150.0 0
238683.0 427077.0 0
242382.0 428504.0 0
246168.0 427295.0 0
250000.0 428356.0 0
253832.0 427295.0 0
257618.0 428504.0 0
261317.0 427077.0 0
264722.0 429150.0 0
268219.0 427353.0 0
275058.0 427656.0 0
281899.0 427998.0 0
285326.0 426132.0 0
292174.0 426632.0 0
296816.0 429023.0 0
299981.0 426904.0 0
307014.0 427297.0 0
313701.0 427287.0 0
317265.0 428935.0 0
323636.0 428227.0 0
329270.0 428634.0 0
332663.0 430257.0 0
336007.0 428207.0 0
342675.0 427966.0 0
346132.0 429205.0 0
349706.0 428123.0 0
353236.0 429339.0 0
356794.0 430480.0 0
360023.0 429197.0 0
367260.0 429530.0 0
373640.0 430070.0 0
376869.0 428759.0 0
380182.0 430924.0 0
383401.0 429442.0 0
113306.0 431510.0 0
116546.0 433100.0 0
123068.0 432325.0 0
129531.0 431672.0 0
132682.0 433371.0 0
135763.0 431175.0 0
138782.0 432639.0 0
149482.0 431995.0 0
156889.0 431606.0 0
160448.0 430284.0 0
163860.0 431752.0 0
170546.0 432516.0 0
174173.0 431229.0 0
179101.0 430397.0 0
185385.0 431539.0 0
188907.0 430013.0 0
192468.0 431065.0 0
196049.0 429518.0 0
199605.0 430698.0 0
206757.0 430375.0 0
210964.0 428912.0 0
214686.0 430049.0 0
221568.0 429770.0 0
228397.0 429474.0 0
271603.0 429474.0 0
278432.0 429770.0 0
285314.0 430049.0 0
289036.0 428912.0 0
293243.0 430375.0 0
300395.0 430698.0 0
303951.0 429518.0 0
307532.0 431065.0 0
311093.0 430013.0 0
314615.0 431539.0 0
320899.0 430397.0 0
325827.0 431229.0 0
329454.0 432516.0 0
336140.0 431752.0 0
339552.0 430284.0 0
343111.0 431606.0 0
350518.0 431995.0 0
361218.0 432639.0 0
364237.0 431175.0 0
367318.0 433371.0 0
370469.0 431672.0 0
376932.0 432325.0 0
383454.0 433100.0 0
386694.0 431510.0 0
103765.0 437493.0 0
110081.0 433542.0 0
113388.0 435307.0 0
119799.0 434553.0 0
123023.0 435978.0 0
126268.0 433775.0 0
129409.0 435434.0 0
135906.0 435098.0 0
142038.0 433650.0 0
145811.0 432841.0 0
153119.0 432325.0 0
159561.0 434304.0 0
163397.0 435197.0 0
166985.0 434009.0 0
173584.0 435013.0 0
177299.0 433757.0 0
181725.0 432778.0 0
188068.0 434193.0 0
195413.0 433452.0 0
202646.0 432963.0 0
209830.0 432716.0 0
217694.0 432492.0 0
221387.0 433713.0 0
224897.0 431829.0 0
228465.0 433440.0 0
231848.0 431339.0 0
235345.0 433109.0 0
238749.0 431050.0 0
242425.0 432502.0 0
246188.0 431266.0 0
250000.0 432353.0 0
253812.0 431266.0 0
257575.0 432502.0 0
261251.0 431050.0 0
264655.0 433109.0 0
268152.0 431339.0 0
271535.0 433440.0 0
275103.0 431829.0 0
278613.0 433713.0 0
282306.0 432492.0 0
290170.0 432716.0 0
297354.0 432963.0 0
304587.0 433452.0 0
311932.0 434193.0 0
318275.0 432778.0 0
322701.0 433757.0 0
326416.0 435013.0 0
333015.0 434009.0 0
336603.0 435197.0 0
340439.0 434304.0 0
346881.0 432325.0 0
354189.0 432841.0 0
357962.0 433650.0 0
364094.0 435098.0 0
370591.0 435434.0 0
373732.0 433775.0 0
376977.0 435978.0 0
380201.0 434553.0 0
386612.0 435307.0 0
389919.0 433542.0 0
396235.0 437493.0 0
100492.0 439531.0 0
107049.0 435692.0 0
110499.0 437612.0 0
116661.0 436860.0 0
119850.0 438283.0 0
126197.0 437513.0 0
132484.0 437152.0 0
135430.0 438792.0 0
139538.0 436292.0 0
144228.0 436156.0 0
147954.0 435629.0 0
151570.0 435372.0 0
155527.0 435031.0 0
166175.0 437809.0 0
169902.0 436366.0 0
176593.0 437562.0 0
180338.0 436376.0 0
184350.0 435366.0 0
191757.0 434818.0 0
199020.0 434498.0 0
206201.0 434260.0 0
213534.0 433830.0 0
216561.0 436281.0 0
224376.0 436201.0 0
231690.0 435688.0 0
238794.0 435034.0 0
242456.0 436488.0 0
246202.0 435248.0 0
250000.0 436340.0 0
253798.0 435248.0 0
257544.0 436488.0 0
261206.0 435034.0 0
268310.0 435688.0 0
275624.0 436201.0 0
283439.0 436281.0 0
286466.0 433830.0 0
293799.0 434260.0 0
300980.0 434498.0 0
308243.0 434818.0 0
315650.0 435366.0 0
319662.0 436376.0 0
323407.0 437562.0 0
330098.0 436366.0 0
333825.0 437809.0 0
344473.0 435031.0 0
348430.0 435372.0 0
352046.0 435629.0 0
355772.0 436156.0 0
360462.0 436292.0 0
364570.0 438792.0 0
367516.0 437152.0 0
373803.0 437513.0 0
380150.0 438283.0 0
383339.0 436860.0 0
389501.0 437612.0 0
392951.0 435692.0 0
399508.0 439531.0 0
97154.3 441615.0 0
103937.0 441318.0 0
107320.0 439621.0 0
113994.0 439438.0 0
122930.0 439694.0 0
125896.0 441212.0 0
129334.0 439281.0 0
132524.0 441168.0 0
138621.0 439676.0 0
142219.0 439109.0 0
146134.0 439044.0 0
149892.0 438735.0 0
153695.0 438357.0 0
157519.0 437980.0 0
161175.0 437817.0 0
169167.0 440136.0 0
172884.0 438784.0 0
183257.0 439073.0 0
187089.0 438017.0 0
190881.0 438587.0 0
194622.0 437344.0 0
198307.0 438313.0 0
201990.0 436881.0 0
205581.0 438144.0 0
209226.0 436633.0 0
212895.0 437763.0 0
220259.0 437525.0 0
228101.0 437389.0 0
235371.0 437047.0 0
264629.0 437047.0 0
271899.0 437389.0 0
279741.0 437525.0 0
287105.0 437763.0 0
290774.0 436633.0 0
294419.0 438144.0 0
298010.0 436881.0 0
301693.0 438313.0 0
305378.0 437344.0 0
309119.0 438587.0 0
312911.0 438017.0 0
316743.0 439073.0 0
327116.0 438784.0 0
330833.0 440136.0 0
338825.0 437817.0 0
342481.0 437980.0 0
346305.0 438357.0 0
350108.0 438735.0 0
353866.0 439044.0 0
357781.0 439109.0 0
361379.0 439676.0 0
367476.0 441168.0 0
370666.0 439281.0 0
374104.0 441212.0 0
377070.0 439694.0 0
386006.0 439438.0 0
392680.0 439621.0 0
396063.0 441318.0 0
402846.0 441615.0 0
93777.9 443729.0 0
97204.7 445409.0 0
100584.0 443311.0 0
104045.0 445096.0 0
110800.0 441506.0 0
114302.0 443304.0 0
117538.0 441207.0 0
121116.0 442969.0 0
128714.0 442976.0 0
136157.0 442524.0 0
140427.0 442546.0 0
144207.0 442255.0 0
148073.0 442080.0 0
151913.0 441755.0 0
155749.0 441399.0 0
159589.0 441123.0 0
163553.0 440691.0 0
172088.0 442501.0 0
175795.0 441381.0 0
179506.0 440206.0 0
186128.0 441780.0 0
193771.0 441189.0 0
201275.0 440769.0 0
208609.0 440537.0 0
215942.0 440179.0 0
219606.0 441474.0 0
223295.0 440006.0 0
227036.0 441218.0 0
231123.0 439891.0 0
234912.0 440946.0 0
238557.0 439375.0 0
242342.0 440451.0 0
246152.0 439475.0 0
250000.0 440310.0 0
253848.0 439475.0 0
257658.0 440451.0 0
261443.0 439375.0 0
265088.0 440946.0 0
268877.0 439891.0 0
272964.0 441218.0 0
276705.0 440006.0 0
280394.0 441474.0 0
284058.0 440179.0 0
291391.0 440537.0 0
298725.0 440769.0 0
306229.0 441189.0 0
313872.0 441780.0 0
320494.0 440206.0 0
324205.0 441381.0 0
327912.0 442501.0 0
336447.0 440691.0 0
340411.0 441123.0 0
344251.0 441399.0 0
348087.0 441755.0 0
351927.0 442080.0 0
355793.0 442255.0 0
359573.0 442546.0 0
363843.0 442524.0 0
371286.0 442976.0 0
378884.0 442969.0 0
382462.0 441207.0 0
385698.0 443304.0 0
389200.0 441506.0 0
395955.0 445096.0 0
399416.0 443311.0 0
402795.0 445409.0 0
406222.0 443729.0 0
89969.4 446111.0 0
93537.6 447581.0 0
100643.0 447079.0 0
107538.0 443517.0 0
111016.0 445381.0 0
117824.0 445047.0 0
124687.0 444780.0 0
131530.0 444821.0 0
146170.0 445371.0 0
150052.0 445128.0 0
153919.0 444810.0 0
157787.0 444480.0 0
161719.0 444084.0 0
166578.0 442961.0 0
174862.0 445203.0 0
178616.0 444060.0 0
182360.0 442901.0 0
189987.0 442398.0 0
197543.0 442156.0 0
204933.0 442033.0 0
212295.0 441708.0 0
215406.0 444086.0 0
222688.0 443903.0 0
230088.0 443724.0 0
237825.0 443622.0 0
245991.0 443626.0 0
254009.0 443626.0 0
262175.0 443622.0 0
269912.0 443724.0 0
277312.0 443903.0 0
284594.0 444086.0 0
287705.0 441708.0 0
295067.0 442033.0 0
302457.0 442156.0 0
310013.0 442398.0 0
317640.0 442901.0 0
321384.0 444060.0 0
325138.0 445203.0 0
333422.0 442961.0 0
338281.0 444084.0 0
342213.0 444480.0 0
346081.0 444810.0 0
349948.0 445128.0 0
353830.0 445371.0 0
368470.0 444821.0 0
375313.0 444780.0 0
382176.0 445047.0 0
388984.0 445381.0 0
392462.0 443517.0 0
399357.0 447079.0 0
406462.0 447581.0 0
410031.0 446111.0 0
83178.4 450369.0 0
86547.9 448260.0 0
97043.2 449241.0 0
104090.0 448844.0 0
107694.0 447414.0 0
114504.0 447157.0 0
121347.0 446797.0 0
124834.0 448642.0 0
128161.0 446689.0 0
134702.0 445959.0 0
138406.0 445642.0 0
142317.0 445592.0 0
155914.0 447894.0 0
159791.0 447528.0 0
163612.0 447161.0 0
167315.0 446643.0 0
171027.0 446059.0 0
177648.0 447906.0 0
181449.0 446752.0 0
185230.0 445588.0 0
189139.0 446250.0 0
192934.0 445015.0 0
196797.0 446035.0 0
200575.0 444630.0 0
204323.0 445943.0 0
208016.0 444426.0 0
211765.0 445660.0 0
219072.0 445496.0 0
226407.0 445161.0 0
233901.0 444741.0 0
241728.0 444348.0 0
250000.0 444263.0 0
258272.0 444348.0 0
266099.0 444741.0 0
273593.0 445161.0 0
280928.0 445496.0 0
288235.0 445660.0 0
291984.0 444426.0 0
295677.0 445943.0 0
299425.0 444630.0 0
303203.0 446035.0 0
307066.0 445015.0 0
310861.0 446250.0 0
314770.0 445588.0 0
318551.0 446752.0 0
322352.0 447906.0 0
328973.0 446059.0 0
332685.0 446643.0 0
336388.0 447161.0 0
340209.0 447528.0 0
344086.0 447894.0 0
357683.0 445592.0 0
361594.0 445642.0 0
365298.0 445959.0 0
371839.0 446689.0 0
375166.0 448642.0 0
378653.0 446797.0 0
385496.0 447157.0 0
392306.0 447414.0 0
395910.0 448844.0 0
402957.0 449241.0 0
413452.0 448260.0 0
416822.0 450369.0 0
90081.1 449962.0 0
93712.7 451491.0 0
97278.3 453115.0 0
100595.0 450859.0 0
104137.0 452546.0 0
111171.0 449264.0 0
114649.0 451018.0 0
117999.0 448878.0 0
121502.0 450620.0 0
128345.0 450431.0 0
131761.0 448603.0 0
136429.0 449029.0 0
140315.0 448817.0 0
144240.0 448694.0 0
148139.0 448478.0 0
152033.0 448211.0 0
161865.0 450627.0 0
165756.0 450220.0 0
169638.0 449696.0 0
173554.0 448924.0 0
186537.0 449267.0 0
193931.0 448781.0 0
201226.0 448471.0 0
208474.0 448308.0 0
215805.0 448005.0 0
219495.0 449432.0 0
223129.0 447825.0 0
226897.0 449088.0 0
230605.0 447666.0 0
234465.0 448617.0 0
238284.0 447571.0 0
242183.0 448275.0 0
246087.0 447619.0 0
250000.0 448225.0 0
253913.0 447619.0 0
257817.0 448275.0 0
261716.0 447571.0 0
265535.0 448617.0 0
269395.0 447666.0 0
273103.0 449088.0 0
276871.0 447825.0 0
280505.0 449432.0 0
284195.0 448005.0 0
291526.0 448308.0 0
298774.0 448471.0 0
306069.0 448781.0 0
313463.0 449267.0 0
326446.0 448924.0 0
330362.0 449696.0 0
334244.0 450220.0 0
338135.0 450627.0 0
347967.0 448211.0 0
351861.0 448478.0 0
355760.0 448694.0 0
359685.0 448817.0 0
363571.0 449029.0 0
368239.0 448603.0 0
371655.0 450431.0 0
378498.0 450620.0 0
382001.0 448878.0 0
385351.0 451018.0 0
388829.0 449264.0 0
395863.0 452546.0 0
399405.0 450859.0 0
402722.0 453115.0 0
406287.0 451491.0 0
409919.0 449962.0 0
90491.7 453826.0 0
100810.0 454689.0 0
107841.0 451333.0 0
111326.0 453187.0 0
118135.0 452699.0 0
124993.0 452515.0 0
133834.0 451837.0 0
138336.0 452106.0 0
142261.0 451974.0 0
146199.0 451823.0 0
150125.0 451603.0 0
154040.0 451317.0 0
157965.0 450972.0 0
171709.0 452835.0 0
175477.0 452216.0 0
179209.0 451472.0 0
182863.0 450394.0 0
190293.0 450035.0 0
197610.0 449930.0 0
204863.0 449861.0 0
212186.0 449598.0 0
215376.0 451964.0 0
222715.0 451776.0 0
277285.0 451776.0 0
284624.0 451964.0 0
287814.0 449598.0 0
295137.0 449861.0 0
302390.0 449930.0 0
309707.0 450035.0 0
317137.0 450394.0 0
320791.0 451472.0 0
324523.0 452216.0 0
328291.0 452835.0 0
342035.0 450972.0 0
345960.0 451317.0 0
349875.0 451603.0 0
353801.0 451823.0 0
357739.0 451974.0 0
361664.0 452106.0 0
366166.0 451837.0 0
375007.0 452515.0 0
381865.0 452699.0 0
388674.0 453187.0 0
392159.0 451333.0 0
399190.0 454689.0 0
409508.0 453826.0 0
94241.0 455640.0 0
104253.0 456271.0 0
108018.0 455277.0 0
114796.0 454909.0 0
118312.0 456502.0 0
121648.0 454399.0 0
125427.0 456502.0 0
128492.0 454128.0 0
132102.0 455235.0 0
136004.0 455102.0 0
140247.0 455262.0 0
144213.0 455143.0 0
148176.0 454978.0 0
152135.0 454746.0 0
156117.0 454391.0 0
160066.0 454070.0 0
163993.0 453719.0 0
167887.0 453301.0 0
177900.0 455219.0 0
181793.0 454419.0 0
185565.0 453234.0 0
189420.0 453855.0 0
193204.0 452701.0 0
196968.0 453819.0 0
200666.0 452415.0 0
204348.0 453757.0 0
208004.0 452255.0 0
211720.0 453513.0 0
219080.0 453362.0 0
226481.0 453017.0 0
230226.0 451676.0 0
234122.0 452514.0 0
238055.0 451807.0 0
242030.0 452223.0 0
246009.0 451815.0 0
250000.0 452183.0 0
253991.0 451815.0 0
257970.0 452223.0 0
261945.0 451807.0 0
265878.0 452514.0 0
269774.0 451676.0 0
273519.0 453017.0 0
280920.0 453362.0 0
288280.0 453513.0 0
291996.0 452255.0 0
295652.0 453757.0 0
299334.0 452415.0 0
303032.0 453819.0 0
306796.0 452701.0 0
310580.0 453855.0 0
314435.0 453234.0 0
318207.0 454419.0 0
322100.0 455219.0 0
332113.0 453301.0 0
336007.0 453719.0 0
339934.0 454070.0 0
343883.0 454391.0 0
347865.0 454746.0 0
351824.0 454978.0 0
355787.0 455143.0 0
359753.0 455262.0 0
363996.0 455102.0 0
367898.0 455235.0 0
371508.0 454128.0 0
374573.0 456502.0 0
378352.0 454399.0 0
381688.0 456502.0 0
385204.0 454909.0 0
391982.0 455277.0 0
395747.0 456271.0 0
405759.0 455640.0 0
90844.9 457730.0 0
97886.5 457220.0 0
106725.0 459036.0 0
111474.0 457177.0 0
115060.0 458814.0 0
121874.0 458101.0 0
129188.0 457858.0 0
146174.0 458335.0 0
150150.0 458164.0 0
154290.0 457790.0 0
158251.0 457497.0 0
162209.0 457188.0 0
166157.0 456842.0 0
170080.0 456441.0 0
173995.0 455886.0 0
184093.0 457633.0 0
191886.0 456916.0 0
199598.0 456773.0 0
207256.0 456438.0 0
214814.0 455973.0 0
218559.0 457258.0 0
222305.0 455749.0 0
226364.0 456959.0 0
230166.0 455727.0 0
234105.0 456437.0 0
238053.0 455806.0 0
242034.0 456181.0 0
246015.0 455813.0 0
250000.0 456146.0 0
253985.0 455813.0 0
257966.0 456181.0 0
261947.0 455806.0 0
265895.0 456437.0 0
269834.0 455727.0 0
273636.0 456959.0 0
277695.0 455749.0 0
281441.0 457258.0 0
285186.0 455973.0 0
292744.0 456438.0 0
300402.0 456773.0 0
308114.0 456916.0 0
315907.0 457633.0 0
326005.0 455886.0 0
329920.0 456441.0 0
333843.0 456842.0 0
337791.0 457188.0 0
341749.0 457497.0 0
345710.0 457790.0 0
349850.0 458164.0 0
353826.0 458335.0 0
370812.0 457858.0 0
378126.0 458101.0 0
384940.0 458814.0 0
388526.0 457177.0 0
393275.0 459036.0 0
402114.0 457220.0 0
409155.0 457730.0 0
92909.9 461100.0 0
96872.8 460998.0 0
101562.0 459040.0 0
108700.0 462245.0 0
118674.0 460270.0 0
123450.0 461442.0 0
134084.0 458492.0 0
138033.0 458401.0 0
142190.0 458454.0 0
160380.0 460636.0 0
164357.0 460336.0 0
168332.0 460004.0 0
172383.0 459513.0 0
176329.0 458914.0 0
180228.0 458295.0 0
187994.0 457538.0 0
195729.0 457562.0 0
203442.0 457573.0 0
211088.0 457404.0 0
288912.0 457404.0 0
296558.0 457573.0 0
304271.0 457562.0 0
312006.0 457538.0 0
319772.0 458295.0 0
323671.0 458914.0 0
327617.0 459513.0 0
331668.0 460004.0 0
335643.0 460336.0 0
339620.0 460636.0 0
357810.0 458454.0 0
361967.0 458401.0 0
365916.0 458492.0 0
376550.0 461442.0 0
381326.0 460270.0 0
391300.0 462245.0 0
398438.0 459040.0 0
403127.0 460998.0 0
407090.0 461100.0 0
100412.0 462755.0 0
104512.0 462366.0 0
112630.0 461915.0 0
116336.0 463345.0 0
120316.0 463679.0 0
127299.0 461203.0 0
131261.0 461148.0 0
136073.0 461769.0 0
140046.0 461688.0 0
144141.0 461680.0 0
148126.0 461567.0 0
152426.0 461160.0 0
156403.0 460917.0 0
170651.0 463080.0 0
174767.0 462557.0 0
178714.0 461977.0 0
182635.0 461366.0 0
186566.0 461251.0 0
190473.0 460632.0 0
194381.0 461291.0 0
198297.0 460554.0 0
202187.0 461323.0 0
206085.0 460490.0 0
209981.0 461212.0 0
213850.0 460234.0 0
217722.0 461118.0 0
221665.0 459714.0 0
225489.0 460814.0 0
229817.0 459709.0 0
233758.0 460358.0 0
237949.0 459802.0 0
241933.0 460145.0 0
245996.0 459811.0 0
250000.0 460114.0 0
254004.0 459811.0 0
258067.0 460145.0 0
262051.0 459802.0 0
266242.0 460358.0 0
270183.0 459709.0 0
274511.0 460814.0 0
278335.0 459714.0 0
282278.0 461118.0 0
286150.0 460234.0 0
290019.0 461212.0 0
293915.0 460490.0 0
297813.0 461323.0 0
301703.0 460554.0 0
305619.0 461291.0 0
309527.0 460632.0 0
313434.0 461251.0 0
317365.0 461366.0 0
321286.0 461977.0 0
325233.0 462557.0 0
329349.0 463080.0 0
343597.0 460917.0 0
347574.0 461160.0 0
351874.0 461567.0 0
355859.0 461680.0 0
359954.0 461688.0 0
363927.0 461769.0 0
368739.0 461148.0 0
372701.0 461203.0 0
379684.0 463679.0 0
383664.0 463345.0 0
387370.0 461915.0 0
395488.0 462366.0 0
399588.0 462755.0 0
95114.5 464551.0 0
110616.0 465591.0 0
125407.0 464687.0 0
129327.0 464551.0 0
133282.0 464487.0 0
138052.0 465060.0 0
142037.0 464982.0 0
146083.0 464950.0 0
150516.0 464519.0 0
154507.0 464326.0 0
158504.0 464074.0 0
162491.0 463808.0 0
166477.0 463526.0 0
180156.0 465603.0 0
184045.0 465052.0 0
187953.0 464978.0 0
191831.0 464359.0 0
195696.0 465039.0 0
199561.0 464315.0 0
203419.0 465093.0 0
207281.0 464269.0 0
211155.0 464996.0 0
214998.0 464044.0 0
218863.0 464902.0 0
222614.0 463585.0 0
226449.0 464660.0 0
230295.0 463675.0 0
234220.0 464281.0 0
238152.0 463791.0 0
242101.0 464113.0 0
246049.0 463805.0 0
250000.0 464088.0 0
253951.0 463805.0 0
257899.0 464113.0 0
261848.0 463791.0 0
265780.0 464281.0 0
269705.0 463675.0 0
273551.0 464660.0 0
277386.0 463585.0 0
281137.0 464902.0 0
285002.0 464044.0 0
288845.0 464996.0 0
292719.0 464269.0 0
296581.0 465093.0 0
300439.0 464315.0 0
304304.0 465039.0 0
308169.0 464359.0 0
312047.0 464978.0 0
315955.0 465052.0 0
319844.0 465603.0 0
333523.0 463526.0 0
337509.0 463808.0 0
341496.0 464074.0 0
345493.0 464326.0 0
349484.0 464519.0 0
353917.0 464950.0 0
357963.0 464982.0 0
361948.0 465060.0 0
366718.0 464487.0 0
370673.0 464551.0 0
374593.0 464687.0 0
389384.0 465591.0 0
404886.0 464551.0 0
98703.1 466317.0 0
102706.0 465937.0 0
106665.0 465732.0 0
114326.0 466675.0 0
118239.0 466897.0 0
122259.0 467012.0 0
127356.0 467989.0 0
131312.0 467901.0 0
135283.0 467841.0 0
140019.0 468366.0 0
144009.0 468293.0 0
148557.0 467885.0 0
152573.0 467730.0 0
156601.0 467506.0 0
160585.0 467274.0 0
164555.0 467031.0 0
168492.0 466801.0 0
172396.0 466518.0 0
176279.0 466122.0 0
323721.0 466122.0 0
327604.0 466518.0 0
331508.0 466801.0 0
335445.0 467031.0 0
339415.0 467274.0 0
343399.0 467506.0 0
347427.0 467730.0 0
351443.0 467885.0 0
355991.0 468293.0 0
359981.0 468366.0 0
364717.0 467841.0 0
368688.0 467901.0 0
372644.0 467989.0 0
377741.0 467012.0 0
381761.0 466897.0 0
385674.0 466675.0 0
393335.0 465732.0 0
397294.0 465937.0 0
401297.0 466317.0 0
98631.3 470291.0 0
103694.0 469753.0 0
107676.0 469601.0 0
111656.0 469574.0 0
116117.0 470188.0 0
120181.0 470331.0 0
124225.0 470384.0 0
129307.0 471327.0 0
154686.0 470932.0 0
158675.0 470733.0 0
162656.0 470519.0 0
166629.0 470309.0 0
170610.0 470068.0 0
174600.0 469732.0 0
178579.0 469272.0 0
182522.0 468731.0 0
186490.0 468698.0 0
190419.0 468089.0 0
194337.0 468775.0 0
198248.0 468079.0 0
202140.0 468860.0 0
206044.0 468064.0 0
209954.0 468793.0 0
213846.0 467897.0 0
217740.0 468716.0 0
221617.0 467738.0 0
225520.0 468513.0 0
229830.0 467722.0 0
233795.0 468212.0 0
237945.0 467794.0 0
241934.0 468080.0 0
245998.0 467803.0 0
250000.0 468061.0 0
254002.0 467803.0 0
258066.0 468080.0 0
262055.0 467794.0 0
266205.0 468212.0 0
270170.0 467722.0 0
274480.0 468513.0 0
278383.0 467738.0 0
282260.0 468716.0 0
286154.0 467897.0 0
290046.0 468793.0 0
293956.0 468064.0 0
297860.0 468860.0 0
301752.0 468079.0 0
305663.0 468775.0 0
309581.0 468089.0 0
313510.0 468698.0 0
317478.0 468731.0 0
321421.0 469272.0 0
325400.0 469732.0 0
329390.0 470068.0 0
333371.0 470309.0 0
337344.0 470519.0 0
341325.0 470733.0 0
345314.0 470932.0 0
370693.0 471327.0 0
375775.0 470384.0 0
379819.0 470331.0 0
383883.0 470188.0 0
388344.0 469574.0 0
392324.0 469601.0 0
396306.0 469753.0 0
401369.0 470291.0 0
109733.0 473045.0 0
113706.0 473287.0 0
133287.0 471254.0 0
137279.0 471207.0 0
142005.0 471677.0 0
146517.0 471243.0 0
150624.0 471133.0 0
172558.0 473443.0 0
176433.0 473186.0 0
180287.0 472806.0 0
184142.0 472327.0 0
187993.0 472694.0 0
191791.0 471821.0 0
195629.0 472596.0 0
199502.0 471855.0 0
203372.0 472645.0 0
207254.0 471854.0 0
211146.0 472595.0 0
214997.0 471702.0 0
218862.0 472535.0 0
222683.0 471563.0 0
226546.0 472351.0 0
230419.0 471670.0 0
234326.0 472142.0 0
238237.0 471778.0 0
242158.0 472051.0 0
246079.0 471797.0 0
250000.0 472039.0 0
253921.0 471797.0 0
257842.0 472051.0 0
261763.0 471778.0 0
265674.0 472142.0 0
269581.0 471670.0 0
273454.0 472351.0 0
277317.0 471563.0 0
281138.0 472535.0 0
285003.0 471702.0 0
288854.0 472595.0 0
292746.0 471854.0 0
296628.0 472645.0 0
300498.0 471855.0 0
304371.0 472596.0 0
308209.0 471821.0 0
312007.0 472694.0 0
315858.0 472327.0 0
319713.0 472806.0 0
323567.0 473186.0 0
327442.0 473443.0 0
349376.0 471133.0 0
353483.0 471243.0 0
357995.0 471677.0 0
362721.0 471207.0 0
366713.0 471254.0 0
386294.0 473287.0 0
390267.0 473045.0 0
101498.0 473068.0 0
105760.0 473142.0 0
118071.0 473639.0 0
122181.0 473755.0 0
126199.0 473792.0 0
131271.0 474680.0 0
135260.0 474613.0 0
139335.0 474560.0 0
144492.0 474642.0 0
148615.0 474510.0 0
152765.0 474361.0 0
156760.0 474189.0 0
160742.0 474000.0 0
164707.0 473807.0 0
168647.0 473630.0 0
331353.0 473630.0 0
335293.0 473807.0 0
339258.0 474000.0 0
343240.0 474189.0 0
347235.0 474361.0 0
351385.0 474510.0 0
355508.0 474642.0 0
360665.0 474560.0 0
364740.0 474613.0 0
368729.0 474680.0 0
373801.0 473792.0 0
377819.0 473755.0 0
381929.0 473639.0 0
394240.0 473142.0 0
398502.0 473068.0 0
100021.0 476770.0 0
104045.0 476739.0 0
108045.0 476660.0 0
112037.0 476864.0 0
116027.0 476994.0 0
120063.0 477095.0 0
124153.0 477197.0 0
128200.0 477211.0 0
133252.0 478043.0 0
137313.0 477932.0 0
141850.0 477626.0 0
146603.0 477895.0 0
150773.0 477762.0 0
154856.0 477645.0 0
158847.0 477479.0 0
162823.0 477301.0 0
166783.0 477134.0 0
170737.0 476965.0 0
174692.0 476767.0 0
178637.0 476454.0 0
182554.0 476027.0 0
186457.0 476403.0 0
190357.0 475874.0 0
194255.0 476362.0 0
198137.0 475669.0 0
202007.0 476391.0 0
205902.0 475708.0 0
209803.0 476336.0 0
213734.0 475774.0 0
217676.0 476317.0 0
221715.0 475821.0 0
225689.0 476219.0 0
229915.0 475840.0 0
233905.0 476079.0 0
237971.0 475856.0 0
241967.0 476019.0 0
246000.0 475858.0 0
250000.0 476013.0 0
254000.0 475858.0 0
258033.0 476019.0 0
262029.0 475856.0 0
266095.0 476079.0 0
270085.0 475840.0 0
274311.0 476219.0 0
278285.0 475821.0 0
282324.0 476317.0 0
286266.0 475774.0 0
290197.0 476336.0 0
294098.0 475708.0 0
297993.0 476391.0 0
301863.0 475669.0 0
305745.0 476362.0 0
309643.0 475874.0 0
313543.0 476403.0 0
317446.0 476027.0 0
321363.0 476454.0 0
325308.0 476767.0 0
329263.0 476965.0 0
333217.0 477134.0 0
337177.0 477301.0 0
341153.0 477479.0 0
345144.0 477645.0 0
349227.0 477762.0 0
353397.0 477895.0 0
358150.0 477626.0 0
362687.0 477932.0 0
366748.0 478043.0 0
371800.0 477211.0 0
375847.0 477197.0 0
379937.0 477095.0 0
383973.0 476994.0 0
387963.0 476864.0 0
391955.0 476660.0 0
395955.0 476739.0 0
399979.0 476770.0 0
102011.0 480232.0 0
106001.0 480220.0 0
109980.0 480247.0 0
113968.0 480365.0 0
117984.0 480472.0 0
122043.0 480568.0 0
126174.0 480639.0 0
130228.0 480635.0 0
135349.0 481349.0 0
159347.0 481347.0 0
163321.0 481182.0 0
167303.0 481021.0 0
171282.0 480858.0 0
175258.0 480684.0 0
179210.0 480377.0 0
183144.0 479958.0 0
187081.0 480343.0 0
190997.0 479809.0 0
194925.0 480292.0 0
198820.0 479600.0 0
202720.0 480303.0 0
206621.0 479633.0 0
210537.0 480240.0 0
214461.0 479706.0 0
218392.0 480221.0 0
222326.0 479772.0 0
226271.0 480146.0 0
230216.0 479827.0 0
234171.0 480038.0 0
238126.0 479852.0 0
242084.0 479994.0 0
246042.0 479856.0 0
250000.0 479991.0 0
253958.0 479856.0 0
257916.0 479994.0 0
261874.0 479852.0 0
265829.0 480038.0 0
269784.0 479827.0 0
273729.0 480146.0 0
277674.0 479772.0 0
281608.0 480221.0 0
285539.0 479706.0 0
289463.0 480240.0 0
293379.0 479633.0 0
297280.0 480303.0 0
301180.0 479600.0 0
305075.0 480292.0 0
309003.0 479809.0 0
312919.0 480343.0 0
316856.0 479958.0 0
320790.0 480377.0 0
324742.0 480684.0 0
328718.0 480858.0 0
332697.0 481021.0 0
336679.0 481182.0 0
340653.0 481347.0 0
364651.0 481349.0 0
369772.0 480635.0 0
373826.0 480639.0 0
377957.0 480568.0 0
382016.0 480472.0 0
386032.0 480365.0 0
390020.0 480247.0 0
393999.0 480220.0 0
397989.0 480232.0 0
139527.0 481166.0 0
143508.0 481243.0 0
147461.0 481662.0 0
151417.0 481598.0 0
155378.0 481495.0 0
344622.0 481495.0 0
348583.0 481598.0 0
352539.0 481662.0 0
356492.0 481243.0 0
360473.0 481166.0 0
101150.0 484134.0 0
105140.0 484124.0 0
109121.0 484129.0 0
113100.0 484236.0 0
117083.0 484341.0 0
121071.0 484435.0 0
125056.0 484471.0 0
129036.0 484437.0 0
133015.0 484555.0 0
137242.0 484783.0 0
141219.0 484731.0 0
145177.0 484883.0 0
149442.0 485048.0 0
153444.0 484964.0 0
157445.0 484838.0 0
161439.0 484686.0 0
165429.0 484523.0 0
169422.0 484371.0 0
173411.0 484206.0 0
177797.0 484098.0 0
181851.0 483853.0 0
185838.0 484132.0 0
189867.0 483854.0 0
193855.0 484128.0 0
197857.0 483859.0 0
201840.0 484174.0 0
205890.0 483862.0 0
209876.0 484155.0 0
213910.0 483866.0 0
217897.0 484155.0 0
221947.0 483868.0 0
225938.0 484099.0 0
229984.0 483871.0 0
233981.0 484003.0 0
237995.0 483872.0 0
241993.0 483972.0 0
246000.0 483872.0 0
250000.0 483970.0 0
254000.0 483872.0 0
258007.0 483972.0 0
262005.0 483872.0 0
266019.0 484003.0 0
270016.0 483871.0 0
274062.0 484099.0 0
278053.0 483868.0 0
282103.0 484155.0 0
286090.0 483866.0 0
290124.0 484155.0 0
294110.0 483862.0 0
298160.0 484174.0 0
302143.0 483859.0 0
306145.0 484128.0 0
310133.0 483854.0 0
314162.0 484132.0 0
318149.0 483853.0 0
322203.0 484098.0 0
326589.0 484206.0 0
330578.0 484371.0 0
334571.0 484523.0 0
338561.0 484686.0 0
342555.0 484838.0 0
346556.0 484964.0 0
350558.0 485048.0 0
354823.0 484883.0 0
358781.0 484731.0 0
362758.0 484783.0 0
366985.0 484555.0 0
370964.0 484437.0 0
374944.0 484471.0 0
378929.0 484435.0 0
382917.0 484341.0 0
386900.0 484236.0 0
390879.0 484129.0 0
394860.0 484124.0 0
398850.0 484134.0 0
102023.0 488065.0 0
106025.0 488042.0 0
110032.0 488012.0 0
114111.0 488083.0 0
118348.0 488118.0 0
122361.0 488213.0 0
130361.0 488204.0 0
134479.0 488260.0 0
154935.0 488610.0 0
158886.0 488507.0 0
162818.0 488392.0 0
166741.0 488252.0 0
170657.0 488139.0 0
174572.0 488004.0 0
178492.0 488031.0 0
182418.0 487812.0 0
186354.0 488090.0 0
190299.0 487830.0 0
194253.0 488093.0 0
198213.0 487842.0 0
202178.0 488135.0 0
206145.0 487853.0 0
210119.0 488122.0 0
214095.0 487861.0 0
218075.0 488120.0 0
222056.0 487866.0 0
226042.0 488068.0 0
230029.0 487870.0 0
234022.0 487978.0 0
238015.0 487872.0 0
242010.0 487954.0 0
246005.0 487872.0 0
250000.0 487953.0 0
253995.0 487872.0 0
257990.0 487954.0 0
261985.0 487872.0 0
265978.0 487978.0 0
269971.0 487870.0 0
273958.0 488068.0 0
277944.0 487866.0 0
281925.0 488120.0 0
285905.0 487861.0 0
289881.0 488122.0 0
293855.0 487853.0 0
297822.0 488135.0 0
301787.0 487842.0 0
305747.0 488093.0 0
309701.0 487830.0 0
313646.0 488090.0 0
317582.0 487812.0 0
321508.0 488031.0 0
325428.0 488004.0 0
329343.0 488139.0 0
333259.0 488252.0 0
337182.0 488392.0 0
341114.0 488507.0 0
345065.0 488610.0 0
365521.0 488260.0 0
369639.0 488204.0 0
377639.0 488213.0 0
381652.0 488118.0 0
385889.0 488083.0 0
389968.0 488012.0 0
393975.0 488042.0 0
397977.0 488065.0 0
126360.0 488249.0 0
138680.0 488467.0 0
142676.0 488430.0 0
146895.0 488470.0 0
150961.0 488677.0 0
349039.0 488677.0 0
353105.0 488470.0 0
357324.0 488430.0 0
361320.0 488467.0 0
373640.0 488249.0 0
101888.0 492063.0 0
105884.0 492039.0 0
109877.0 492001.0 0
113866.0 492058.0 0
117852.0 492072.0 0
121836.0 492170.0 0
125817.0 492208.0 0
129794.0 492159.0 0
133766.0 492184.0 0
137733.0 492321.0 0
141705.0 492294.0 0
145675.0 492268.0 0
149639.0 492401.0 0
153619.0 492341.0 0
157610.0 492256.0 0
161650.0 492186.0 0
165755.0 492095.0 0
169896.0 492041.0 0
173944.0 491938.0 0
177978.0 491989.0 0
181979.0 491871.0 0
185974.0 492059.0 0
189987.0 491871.0 0
193982.0 492066.0 0
197989.0 491872.0 0
201982.0 492106.0 0
205994.0 491872.0 0
209987.0 492095.0 0
213997.0 491872.0 0
217991.0 492091.0 0
221999.0 491872.0 0
225996.0 492041.0 0
230000.0 491872.0 0
233999.0 491957.0 0
238000.0 491872.0 0
242000.0 491939.0 0
246000.0 491872.0 0
250000.0 491939.0 0
254000.0 491872.0 0
258000.0 491939.0 0
262000.0 491872.0 0
266001.0 491957.0 0
270000.0 491872.0 0
274004.0 492041.0 0
278001.0 491872.0 0
282009.0 492091.0 0
286003.0 491872.0 0
290013.0 492095.0 0
294006.0 491872.0 0
298018.0 492106.0 0
302011.0 491872.0 0
306018.0 492066.0 0
310013.0 491871.0 0
314026.0 492059.0 0
318021.0 491871.0 0
322022.0 491989.0 0
326056.0 491938.0 0
330104.0 492041.0 0
334245.0 492095.0 0
338350.0 492186.0 0
342390.0 492256.0 0
346381.0 492341.0 0
350361.0 492401.0 0
354325.0 492268.0 0
358295.0 492294.0 0
362267.0 492321.0 0
366234.0 492184.0 0
370206.0 492159.0 0
374183.0 492208.0 0
378164.0 492170.0 0
382148.0 492072.0 0
386134.0 492058.0 0
390123.0 492001.0 0
394116.0 492039.0 0
398112.0 492063.0 0
110003.0 495995.0 0
118023.0 496054.0 0
162088.0 496135.0 0
166077.0 496054.0 0
170066.0 496016.0 0
174056.0 495924.0 0
178047.0 495982.0 0
182040.0 495870.0 0
186031.0 496045.0 0
190024.0 495871.0 0
194017.0 496050.0 0
198012.0 495872.0 0
206000.0 495872.0 0
210002.0 496073.0 0
214000.0 495872.0 0
218001.0 496065.0 0
222000.0 495872.0 0
226000.0 496017.0 0
230000.0 495872.0 0
234000.0 495940.0 0
238000.0 495872.0 0
242000.0 495926.0 0
246000.0 495872.0 0
250000.0 495926.0 0
254000.0 495872.0 0
258000.0 495926.0 0
262000.0 495872.0 0
266000.0 495940.0 0
270000.0 495872.0 0
274000.0 496017.0 0
278000.0 495872.0 0
281999.0 496065.0 0
286000.0 495872.0 0
289998.0 496073.0 0
294000.0 495872.0 0
301988.0 495872.0 0
305983.0 496050.0 0
309976.0 495871.0 0
313969.0 496045.0 0
317960.0 495870.0 0
321953.0 495982.0 0
325944.0 495924.0 0
329934.0 496016.0 0
333923.0 496054.0 0
337912.0 496135.0 0
381977.0 496054.0 0
389997.0 495995.0 0
102003.0 496060.0 0
106003.0 496036.0 0
114007.0 496042.0 0
122037.0 496154.0 0
126037.0 496195.0 0
130036.0 496148.0 0
134048.0 496162.0 0
138062.0 496279.0 0
142072.0 496260.0 0
146089.0 496234.0 0
150110.0 496328.0 0
154106.0 496271.0 0
158098.0 496190.0 0
202005.0 496083.0 0
297995.0 496083.0 0
341902.0 496190.0 0
345894.0 496271.0 0
349890.0 496328.0 0
353911.0 496234.0 0
357928.0 496260.0 0
361938.0 496279.0 0
365952.0 496162.0 0
369964.0 496148.0 0
373963.0 496195.0 0
377963.0 496154.0 0
385993.0 496042.0 0
393997.0 496036.0 0
397997.0 496060.0 0
101993.0 500058.0 0
105992.0 500035.0 0
109992.0 499993.0 0
113991.0 500030.0 0
117990.0 500039.0 0
121987.0 500140.0 0
125986.0 500185.0 0
129984.0 500143.0 0
133982.0 500148.0 0
137978.0 500253.0 0
141976.0 500240.0 0
145974.0 500217.0 0
149971.0 500282.0 0
153970.0 500231.0 0
157968.0 500154.0 0
161979.0 500107.0 0
165987.0 500027.0 0
169994.0 499997.0 0
173997.0 499915.0 0
177998.0 499975.0 0
182000.0 499872.0 0
185998.0 500032.0 0
190000.0 499872.0 0
193999.0 500034.0 0
198000.0 499872.0 0
202000.0 500063.0 0
206000.0 499872.0 0
210000.0 500053.0 0
214000.0 499872.0 0
218000.0 500041.0 0
222000.0 499872.0 0
226000.0 499995.0 0
230000.0 499872.0 0
234000.0 499926.0 0
238000.0 499872.0 0
242000.0 499916.0 0
246000.0 499872.0 0
250000.0 499916.0 0
254000.0 499872.0 0
258000.0 499916.0 0
262000.0 499872.0 0
266000.0 499926.0 0
270000.0 499872.0 0
274000.0 499995.0 0
278000.0 499872.0 0
282000.0 500041.0 0
286000.0 499872.0 0
290000.0 500053.0 0
294000.0 499872.0 0
298000.0 500063.0 0
302000.0 499872.0 0
306001.0 500034.0 0
310000.0 499872.0 0
314002.0 500032.0 0
318000.0 499872.0 0
322002.0 499975.0 0
326003.0 499915.0 0
330006.0 499997.0 0
334013.0 500027.0 0
338021.0 500107.0 0
342032.0 500154.0 0
346030.0 500231.0 0
350029.0 500282.0 0
354026.0 500217.0 0
358024.0 500240.0 0
362022.0 500253.0 0
366018.0 500148.0 0
370016.0 500143.0 0
374014.0 500185.0 0
378013.0 500140.0 0
382010.0 500039.0 0
386009.0 500030.0 0
390008.0 499993.0 0
394008.0 500035.0 0
398007.0 500058.0 0
102000.0 504055.0 0
106000.0 504032.0 0
110000.0 503992.0 0
114000.0 504021.0 0
118001.0 504026.0 0
122003.0 504126.0 0
126003.0 504172.0 0
130003.0 504137.0 0
134003.0 504135.0 0
138007.0 504231.0 0
142008.0 504221.0 0
146009.0 504199.0 0
150009.0 504241.0 0
154008.0 504195.0 0
158007.0 504122.0 0
162006.0 504081.0 0
166005.0 504003.0 0
170004.0 503982.0 0
174003.0 503907.0 0
178003.0 503969.0 0
182001.0 503872.0 0
186000.0 504019.0 0
190000.0 503872.0 0
194000.0 504020.0 0
198000.0 503872.0 0
202000.0 504045.0 0
206000.0 503872.0 0
210000.0 504034.0 0
214000.0 503872.0 0
218000.0 504020.0 0
222000.0 503872.0 0
226000.0 503975.0 0
230000.0 503872.0 0
234000.0 503915.0 0
238000.0 503872.0 0
242000.0 503907.0 0
246000.0 503872.0 0
250000.0 503908.0 0
254000.0 503872.0 0
258000.0 503907.0 0
262000.0 503872.0 0
266000.0 503915.0 0
270000.0 503872.0 0
274000.0 503975.0 0
278000.0 503872.0 0
282000.0 504020.0 0
286000.0 503872.0 0
290000.0 504034.0 0
294000.0 503872.0 0
298000.0 504045.0 0
302000.0 503872.0 0
306000.0 504020.0 0
310000.0 503872.0 0
314000.0 504019.0 0
317999.0 503872.0 0
321997.0 503969.0 0
325997.0 503907.0 0
329996.0 503982.0 0
333995.0 504003.0 0
337994.0 504081.0 0
341993.0 504122.0 0
345992.0 504195.0 0
349991.0 504241.0 0
353991.0 504199.0 0
357992.0 504221.0 0
361993.0 504231.0 0
365997.0 504135.0 0
369997.0 504137.0 0
373997.0 504172.0 0
377997.0 504126.0 0
381999.0 504026.0 0
386000.0 504021.0 0
390000.0 503992.0 0
394000.0 504032.0 0
398000.0 504055.0 0
102000.0 508052.0 0
106000.0 508029.0 0
110000.0 507991.0 0
114000.0 508014.0 0
118000.0 508014.0 0
121999.0 508112.0 0
125999.0 508159.0 0
129999.0 508131.0 0
133999.0 508121.0 0
137997.0 508211.0 0
141997.0 508203.0 0
145997.0 508181.0 0
149997.0 508202.0 0
153997.0 508161.0 0
157998.0 508092.0 0
161999.0 508058.0 0
166000.0 507983.0 0
170000.0 507970.0 0
174000.0 507900.0 0
178000.0 507963.0 0
182000.0 507872.0 0
186000.0 508007.0 0
190000.0 507872.0 0
194000.0 508007.0 0
198000.0 507872.0 0
202000.0 508029.0 0
206000.0 507872.0 0
210000.0 508017.0 0
214000.0 507872.0 0
218000.0 508002.0 0
222000.0 507872.0 0
226000.0 507958.0 0
230000.0 507872.0 0
234000.0 507906.0 0
238000.0 507872.0 0
242000.0 507900.0 0
246000.0 507872.0 0
250000.0 507901.0 0
254000.0 507872.0 0
258000.0 507900.0 0
262000.0 507872.0 0
266000.0 507906.0 0
270000.0 507872.0 0
274000.0 507958.0 0
278000.0 507872.0 0
282000.0 508002.0 0
286000.0 507872.0 0
290000.0 508017.0 0
294000.0 507872.0 0
298000.0 508029.0 0
302000.0 507872.0 0
306000.0 508007.0 0
310000.0 507872.0 0
314000.0 508007.0 0
318000.0 507872.0 0
322000.0 507963.0 0
326000.0 507900.0 0
330000.0 507970.0 0
334000.0 507983.0 0
338001.0 508058.0 0
342002.0 508092.0 0
346003.0 508161.0 0
350003.0 508202.0 0
354003.0 508181.0 0
358003.0 508203.0 0
362003.0 508211.0 0
366001.0 508121.0 0
370001.0 508131.0 0
374001.0 508159.0 0
378001.0 508112.0 0
382000.0 508014.0 0
386000.0 508014.0 0
390000.0 507991.0 0
394000.0 508029.0 0
398000.0 508052.0 0
102000.0 512048.0 0
106000.0 512026.0 0
110000.0 511990.0 0
114000.0 512008.0 0
118000.0 512002.0 0
122000.0 512097.0 0
126000.0 512145.0 0
130000.0 512124.0 0
134000.0 512108.0 0
138001.0 512193.0 0
142001.0 512185.0 0
146001.0 512162.0 0
150001.0 512167.0 0
154001.0 512130.0 0
158000.0 512065.0 0
162000.0 512037.0 0
166000.0 511965.0 0
170000.0 511959.0 0
174000.0 511894.0 0
178000.0 511958.0 0
182000.0 511872.0 0
186000.0 511996.0 0
190000.0 511872.0 0
194000.0 511995.0 0
198000.0 511872.0 0
202000.0 512014.0 0
206000.0 511872.0 0
210000.0 512002.0 0
214000.0 511872.0 0
218000.0 511985.0 0
222000.0 511872.0 0
226000.0 511944.0 0
230000.0 511872.0 0
234000.0 511898.0 0
238000.0 511872.0 0
242000.0 511895.0 0
246000.0 511872.0 0
250000.0 511896.0 0
254000.0 511872.0 0
258000.0 511895.0 0
262000.0 511872.0 0
266000.0 511898.0 0
270000.0 511872.0 0
274000.0 511944.0 0
278000.0 511872.0 0
282000.0 511985.0 0
286000.0 511872.0 0
290000.0 512002.0 0
294000.0 511872.0 0
298000.0 512014.0 0
302000.0 511872.0 0
306000.0 511995.0 0
310000.0 511872.0 0
314000.0 511996.0 0
318000.0 511872.0 0
322000.0 511958.0 0
326000.0 511894.0 0
330000.0 511959.0 0
334000.0 511965.0 0
338000.0 512037.0 0
342000.0 512065.0 0
345999.0 512130.0 0
349999.0 512167.0 0
353999.0 512162.0 0
357999.0 512185.0 0
361999.0 512193.0 0
366000.0 512108.0 0
370000.0 512124.0 0
374000.0 512145.0 0
378000.0 512097.0 0
382000.0 512002.0 0
386000.0 512008.0 0
390000.0 511990.0 0
394000.0 512026.0 0
398000.0 512048.0 0
102000.0 516044.0 0
106000.0 516022.0 0
110000.0 515988.0 0
114000.0 516003.0 0
118000.0 515992.0 0
122000.0 516082.0 0
126000.0 516130.0 0
130000.0 516115.0 0
134000.0 516095.0 0
138000.0 516177.0 0
142000.0 516167.0 0
146000.0 516143.0 0
150000.0 516135.0 0
154000.0 516103.0 0
158000.0 516040.0 0
162000.0 516018.0 0
166000.0 515949.0 0
170000.0 515951.0 0
174000.0 515889.0 0
178000.0 515953.0 0
182000.0 515872.0 0
186000.0 515985.0 0
190000.0 515872.0 0
194000.0 515984.0 0
198000.0 515872.0 0
202000.0 516000.0 0
206000.0 515872.0 0
210000.0 515987.0 0
214000.0 515872.0 0
218000.0 515970.0 0
222000.0 515872.0 0
226000.0 515931.0 0
230000.0 515872.0 0
234000.0 515893.0 0
238000.0 515872.0 0
242000.0 515890.0 0
246000.0 515872.0 0
250000.0 515891.0 0
254000.0 515872.0 0
258000.0 515890.0 0
262000.0 515872.0 0
266000.0 515893.0 0
270000.0 515872.0 0
274000.0 515931.0 0
278000.0 515872.0 0
282000.0 515970.0 0
286000.0 515872.0 0
290000.0 515987.0 0
294000.0 515872.0 0
298000.0 516000.0 0
302000.0 515872.0 0
306000.0 515984.0 0
310000.0 515872.0 0
314000.0 515985.0 0
318000.0 515872.0 0
322000.0 515953.0 0
326000.0 515889.0 0
330000.0 515951.0 0
334000.0 515949.0 0
338000.0 516018.0 0
342000.0 516040.0 0
346000.0 516103.0 0
350000.0 516135.0 0
354000.0 516143.0 0
358000.0 516167.0 0
362000.0 516177.0 0
366000.0 516095.0 0
370000.0 516115.0 0
374000.0 516130.0 0
378000.0 516082.0 0
382000.0 515992.0 0
386000.0 516003.0 0
390000.0 515988.0 0
394000.0 516022.0 0
398000.0 516044.0 0
102000.0 520039.0 0
106000.0 520018.0 0
110000.0 519986.0 0
114000.0 519998.0 0
118000.0 519983.0 0
122000.0 520068.0 0
126000.0 520115.0 0
130000.0 520107.0 0
134000.0 520083.0 0
138000.0 520163.0 0
142000.0 520149.0 0
146000.0 520125.0 0
150000.0 520106.0 0
154000.0 520078.0 0
158000.0 520019.0 0
162000.0 520001.0 0
166000.0 519937.0 0
170000.0 519943.0 0
174000.0 519884.0 0
178000.0 519948.0 0
182000.0 519872.0 0
186000.0 519976.0 0
190000.0 519872.0 0
194000.0 519975.0 0
198000.0 519872.0 0
202000.0 519987.0 0
206000.0 519872.0 0
210000.0 519974.0 0
214000.0 519872.0 0
218000.0 519956.0 0
222000.0 519872.0 0
226000.0 519920.0 0
230000.0 519872.0 0
234000.0 519888.0 0
238000.0 519872.0 0
242000.0 519887.0 0
246000.0 519872.0 0
250000.0 519888.0 0
254000.0 519872.0 0
258000.0 519887.0 0
262000.0 519872.0 0
266000.0 519888.0 0
270000.0 519872.0 0
274000.0 519920.0 0
278000.0 519872.0 0
282000.0 519956.0 0
286000.0 519872.0 0
290000.0 519974.0 0
294000.0 519872.0 0
298000.0 519987.0 0
302000.0 519872.0 0
306000.0 519975.0 0
310000.0 519872.0 0
314000.0 519976.0 0
318000.0 519872.0 0
322000.0 519948.0 0
326000.0 519884.0 0
330000.0 519943.0 0
334000.0 519937.0 0
338000.0 520001.0 0
342000.0 520019.0 0
346000.0 520078.0 0
350000.0 520106.0 0
354000.0 520125.0 0
358000.0 520149.0 0
362000.0 520163.0 0
366000.0 520083.0 0
370000.0 520107.0 0
374000.0 520115.0 0
378000.0 520068.0 0
382000.0 519983.0 0
386000.0 519998.0 0
390000.0 519986.0 0
394000.0 520018.0 0
398000.0 520039.0 0
102000.0 524034.0 0
106000.0 524014.0 0
110000.0 523984.0 0
114000.0 523994.0 0
118000.0 523975.0 0
122000.0 524055.0 0
126000.0 524101.0 0
130000.0 524098.0 0
134000.0 524072.0 0
138000.0 524149.0 0
142000.0 524132.0 0
146000.0 524106.0 0
150000.0 524081.0 0
154000.0 524056.0 0
158000.0 524000.0 0
162000.0 523987.0 0
166000.0 523926.0 0
170000.0 523936.0 0
174000.0 523881.0 0
178000.0 523943.0 0
182000.0 523872.0 0
186000.0 523967.0 0
190000.0 523872.0 0
194000.0 523966.0 0
198000.0 523872.0 0
202000.0 523976.0 0
206000.0 523872.0 0
210000.0 523963.0 0
214000.0 523872.0 0
218000.0 523945.0 0
222000.0 523872.0 0
226000.0 523911.0 0
230000.0 523872.0 0
234000.0 523884.0 0
238000.0 523872.0 0
242000.0 523884.0 0
246000.0 523872.0 0
250000.0 523885.0 0
254000.0 523872.0 0
258000.0 523884.0 0
262000.0 523872.0 0
266000.0 523884.0 0
270000.0 523872.0 0
274000.0 523911.0 0
278000.0 523872.0 0
282000.0 523945.0 0
286000.0 523872.0 0
290000.0 523963.0 0
294000.0 523872.0 0
298000.0 523976.0 0
302000.0 523872.0 0
306000.0 523966.0 0
310000.0 523872.0 0
314000.0 523967.0 0
318000.0 523872.0 0
322000.0 523943.0 0
326000.0 523881.0 0
330000.0 523936.0 0
334000.0 523926.0 0
338000.0 523987.0 0
342000.0 524000.0 0
346000.0 524056.0 0
350000.0 524081.0 0
354000.0 524106.0 0
358000.0 524132.0 0
362000.0 524149.0 0
366000.0 524072.0 0
370000.0 524098.0 0
374000.0 524101.0 0
378000.0 524055.0 0
382000.0 523975.0 0
386000.0 523994.0 0
390000.0 523984.0 0
394000.0 524014.0 0
398000.0 524034.0 0
102000.0 528029.0 0
106000.0 528010.0 0
110000.0 527982.0 0
114000.0 527990.0 0
118000.0 527967.0 0
122000.0 528042.0 0
126000.0 528087.0 0
130000.0 528089.0 0
134000.0 528062.0 0
138000.0 528136.0 0
142000.0 528115.0 0
146000.0 528089.0 0
150000.0 528058.0 0
154000.0 528037.0 0
158000.0 527983.0 0
162000.0 527974.0 0
166000.0 527917.0 0
170000.0 527930.0 0
174000.0 527878.0 0
178000.0 527939.0 0
182000.0 527872.0 0
186000.0 527958.0 0
190000.0 527872.0 0
194000.0 527958.0 0
198000.0 527872.0 0
202000.0 527965.0 0
206000.0 527872.0 0
210000.0 527952.0 0
214000.0 527872.0 0
218000.0 527934.0 0
222000.0 527872.0 0
226000.0 527903.0 0
230000.0 527872.0 0
234000.0 527881.0 0
238000.0 527872.0 0
242000.0 527881.0 0
246000.0 527872.0 0
250000.0 527882.0 0
254000.0 527872.0 0
258000.0 527881.0 0
262000.0 527872.0 0
266000.0 527881.0 0
270000.0 527872.0 0
274000.0 527903.0 0
278000.0 527872.0 0
282000.0 527934.0 0
286000.0 527872.0 0
290000.0 527952.0 0
294000.0 527872.0 0
298000.0 527965.0 0
302000.0 527872.0 0
306000.0 527958.0 0
310000.0 527872.0 0
314000.0 527958.0 0
318000.0 527872.0 0
322000.0 527939.0 0
326000.0 527878.0 0
330000.0 527930.0 0
334000.0 527917.0 0
338000.0 527974.0 0
342000.0 527983.0 0
346000.0 528037.0 0
350000.0 528058.0 0
354000.0 528089.0 0
358000.0 528115.0 0
362000.0 528136.0 0
366000.0 528062.0 0
370000.0 528089.0 0
374000.0 528087.0 0
378000.0 528042.0 0
382000.0 527967.0 0
386000.0 527990.0 0
390000.0 527982.0 0
394000.0 528010.0 0
398000.0 528029.0 0
102000.0 532024.0 0
106000.0 532006.0 0
110000.0 531980.0 0
114000.0 531986.0 0
118000.0 531960.0 0
122000.0 532030.0 0
126000.0 532073.0 0
130000.0 532080.0 0
134000.0 532052.0 0
138000.0 532123.0 0
142000.0 532099.0 0
146000.0 532072.0 0
150000.0 532037.0 0
154000.0 532019.0 0
158000.0 531969.0 0
162000.0 531963.0 0
166000.0 531910.0 0
170000.0 531925.0 0
174000.0 531876.0 0
178000.0 531934.0 0
182000.0 531872.0 0
186000.0 531950.0 0
190000.0 531872.0 0
194000.0 531950.0 0
198000.0 531872.0 0
202000.0 531955.0 0
206000.0 531872.0 0
210000.0 531942.0 0
214000.0 531872.0 0
218000.0 531925.0 0
222000.0 531872.0 0
226000.0 531897.0 0
230000.0 531872.0 0
234000.0 531879.0 0
238000.0 531872.0 0
242000.0 531879.0 0
246000.0 531872.0 0
250000.0 531880.0 0
254000.0 531872.0 0
258000.0 531879.0 0
262000.0 531872.0 0
266000.0 531879.0 0
270000.0 531872.0 0
274000.0 531897.0 0
278000.0 531872.0 0
282000.0 531925.0 0
286000.0 531872.0 0
290000.0 531942.0 0
294000.0 531872.0 0
298000.0 531955.0 0
302000.0 531872.0 0
306000.0 531950.0 0
310000.0 531872.0 0
314000.0 531950.0 0
318000.0 531872.0 0
322000.0 531934.0 0
326000.0 531876.0 0
330000.0 531925.0 0
334000.0 531910.0 0
338000.0 531963.0 0
342000.0 531969.0 0
346000.0 532019.0 0
350000.0 532037.0 0
354000.0 532072.0 0
358000.0 532099.0 0
362000.0 532123.0 0
366000.0 532052.0 0
370000.0 532080.0 0
374000.0 532073.0 0
378000.0 532030.0 0
382000.0 531960.0 0
386000.0 531986.0 0
390000.0 531980.0 0
394000.0 532006.0 0
398000.0 532024.0 0
102000.0 536018.0 0
106000.0 536001.0 0
110000.0 535978.0 0
114000.0 535981.0 0
118000.0 535954.0 0
122000.0 536020.0 0
126000.0 536061.0 0
130000.0 536071.0 0
134000.0 536042.0 0
138000.0 536111.0 0
142000.0 536083.0 0
146000.0 536057.0 0
150000.0 536019.0 0
154000.0 536004.0 0
158000.0 535956.0 0
162000.0 535954.0 0
166000.0 535903.0 0
170000.0 535920.0 0
174000.0 535875.0 0
178000.0 535930.0 0
182000.0 535872.0 0
186000.0 535943.0 0
190000.0 535872.0 0
194000.0 535944.0 0
198000.0 535872.0 0
202000.0 535947.0 0
206000.0 535872.0 0
210000.0 535933.0 0
214000.0 535872.0 0
218000.0 535917.0 0
222000.0 535872.0 0
226000.0 535891.0 0
230000.0 535872.0 0
234000.0 535877.0 0
238000.0 535872.0 0
242000.0 535878.0 0
246000.0 535872.0 0
250000.0 535879.0 0
254000.0 535872.0 0
258000.0 535878.0 0
262000.0 535872.0 0
266000.0 535877.0 0
270000.0 535872.0 0
274000.0 535891.0 0
278000.0 535872.0 0
282000.0 535917.0 0
286000.0 535872.0 0
290000.0 535933.0 0
294000.0 535872.0 0
298000.0 535947.0 0
302000.0 535872.0 0
306000.0 535944.0 0
310000.0 535872.0 0
314000.0 535943.0 0
318000.0 535872.0 0
322000.0 535930.0 0
326000.0 535875.0 0
330000.0 535920.0 0
334000.0 535903.0 0
338000.0 535954.0 0
342000.0 535956.0 0
346000.0 536004.0 0
350000.0 536019.0 0
354000.0 536057.0 0
358000.0 536083.0 0
362000.0 536111.0 0
366000.0 536042.0 0
370000.0 536071.0 0
374000.0 536061.0 0
378000.0 536020.0 0
382000.0 535954.0 0
386000.0 535981.0 0
390000.0 535978.0 0
394000.0 536001.0 0
398000.0 536018.0 0
102000.0 540013.0 0
106000.0 539997.0 0
110000.0 539975.0 0
114000.0 539977.0 0
118000.0 539949.0 0
122000.0 540010.0 0
126000.0 540049.0 0
130000.0 540062.0 0
134000.0 540034.0 0
138000.0 540099.0 0
142000.0 540068.0 0
146000.0 540042.0 0
150000.0 540003.0 0
154000.0 539991.0 0
158000.0 539945.0 0
162000.0 539946.0 0
166000.0 539898.0 0
170000.0 539916.0 0
174000.0 539874.0 0
178000.0 539926.0 0
182000.0 539872.0 0
186000.0 539937.0 0
190000.0 539872.0 0
194000.0 539937.0 0
198000.0 539872.0 0
202000.0 539939.0 0
206000.0 539872.0 0
210000.0 539926.0 0
214000.0 539872.0 0
218000.0 539910.0 0
222000.0 539872.0 0
226000.0 539887.0 0
230000.0 539872.0 0
234000.0 539876.0 0
238000.0 539872.0 0
242000.0 539877.0 0
246000.0 539872.0 0
250000.0 539877.0 0
254000.0 539872.0 0
258000.0 539877.0 0
262000.0 539872.0 0
266000.0 539876.0 0
270000.0 539872.0 0
274000.0 539887.0 0
278000.0 539872.0 0
282000.0 539910.0 0
286000.0 539872.0 0
290000.0 539926.0 0
294000.0 539872.0 0
298000.0 539939.0 0
302000.0 539872.0 0
306000.0 539937.0 0
310000.0 539872.0 0
314000.0 539937.0 0
318000.0 539872.0 0
322000.0 539926.0 0
326000.0 539874.0 0
330000.0 539916.0 0
334000.0 539898.0 0
338000.0 539946.0 0
342000.0 539945.0 0
346000.0 539991.0 0
350000.0 540003.0 0
354000.0 540042.0 0
358000.0 540068.0 0
362000.0 540099.0 0
366000.0 540034.0 0
370000.0 540062.0 0
374000.0 540049.0 0
378000.0 540010.0 0
382000.0 539949.0 0
386000.0 539977.0 0
390000.0 539975.0 0
394000.0 539997.0 0
398000.0 540013.0 0
102000.0 544008.0 0
106000.0 543993.0 0
110000.0 543973.0 0
114000.0 543973.0 0
118000.0 543944.0 0
122000.0 544001.0 0
126000.0 544037.0 0
130000.0 544053.0 0
134000.0 544025.0 0
138000.0 544087.0 0
142000.0 544053.0 0
146000.0 544029.0 0
150000.0 543989.0 0
154000.0 543979.0 0
158000.0 543936.0 0
162000.0 543938.0 0
166000.0 543894.0 0
170000.0 543913.0 0
174000.0 543873.0 0
178000.0 543922.0 0
182000.0 543872.0 0
186000.0 543931.0 0
190000.0 543872.0 0
194000.0 543931.0 0
198000.0 543872.0 0
202000.0 543931.0 0
206000.0 543872.0 0
210000.0 543919.0 0
214000.0 543872.0 0
218000.0 543904.0 0
222000.0 543872.0 0
226000.0 543884.0 0
230000.0 543872.0 0
234000.0 543875.0 0
238000.0 543872.0 0
242000.0 543876.0 0
246000.0 543872.0 0
250000.0 543876.0 0
254000.0 543872.0 0
258000.0 543876.0 0
262000.0 543872.0 0
266000.0 543875.0 0
270000.0 543872.0 0
274000.0 543884.0 0
278000.0 543872.0 0
282000.0 543904.0 0
286000.0 543872.0 0
290000.0 543919.0 0
294000.0 543872.0 0
298000.0 543931.0 0
302000.0 543872.0 0
306000.0 543931.0 0
310000.0 543872.0 0
314000.0 543931.0 0
318000.0 543872.0 0
322000.0 543922.0 0
326000.0 543873.0 0
330000.0 543913.0 0
334000.0 543894.0 0
338000.0 543938.0 0
342000.0 543936.0 0
346000.0 543979.0 0
350000.0 543989.0 0
354000.0 544029.0 0
358000.0 544053.0 0
362000.0 544087.0 0
366000.0 544025.0 0
370000.0 544053.0 0
374000.0 544037.0 0
378000.0 544001.0 0
382000.0 543944.0 0
386000.0 543973.0 0
390000.0 543973.0 0
394000.0 543993.0 0
398000.0 544008.0 0
102000.0 548002.0 0
106000.0 547989.0 0
110000.0 547970.0 0
114000.0 547969.0 0
118000.0 547939.0 0
122000.0 547993.0 0
126000.0 548027.0 0
130000.0 548045.0 0
134000.0 548017.0 0
138000.0 548075.0 0
142000.0 548039.0 0
146000.0 548016.0 0
150000.0 547976.0 0
154000.0 547969.0 0
158000.0 547928.0 0
162000.0 547932.0 0
166000.0 547890.0 0
170000.0 547910.0 0
174000.0 547873.0 0
178000.0 547918.0 0
182000.0 547872.0 0
186000.0 547926.0 0
190000.0 547872.0 0
194000.0 547926.0 0
198000.0 547872.0 0
202000.0 547925.0 0
206000.0 547872.0 0
210000.0 547913.0 0
214000.0 547872.0 0
218000.0 547898.0 0
222000.0 547872.0 0
226000.0 547881.0 0
230000.0 547872.0 0
234000.0 547874.0 0
238000.0 547872.0 0
242000.0 547875.0 0
246000.0 547872.0 0
250000.0 547875.0 0
254000.0 547872.0 0
258000.0 547875.0 0
262000.0 547872.0 0
266000.0 547874.0 0
270000.0 547872.0 0
274000.0 547881.0 0
278000.0 547872.0 0
282000.0 547898.0 0
286000.0 547872.0 0
290000.0 547913.0 0
294000.0 547872.0 0
298000.0 547925.0 0
302000.0 547872.0 0
306000.0 547926.0 0
310000.0 547872.0 0
314000.0 547926.0 0
318000.0 547872.0 0
322000.0 547918.0 0
326000.0 547873.0 0
330000.0 547910.0 0
334000.0 547890.0 0
338000.0 547932.0 0
342000.0 547928.0 0
346000.0 547969.0 0
350000.0 547976.0 0
354000.0 548016.0 0
358000.0 548039.0 0
362000.0 548075.0 0
366000.0 548017.0 0
370000.0 548045.0 0
374000.0 548027.0 0
378000.0 547993.0 0
382000.0 547939.0 0
386000.0 547969.0 0
390000.0 547970.0 0
394000.0 547989.0 0
398000.0 548002.0 0
102000.0 551997.0 0
106000.0 551985.0 0
110000.0 551967.0 0
114000.0 551964.0 0
118000.0 551935.0 0
122000.0 551986.0 0
126000.0 552017.0 0
130000.0 552036.0 0
134000.0 552009.0 0
138000.0 552063.0 0
142000.0 552026.0 0
146000.0 552004.0 0
150000.0 551964.0 0
154000.0 551960.0 0
158000.0 551921.0 0
162000.0 551926.0 0
166000.0 551887.0 0
170000.0 551907.0 0
174000.0 551873.0 0
178000.0 551914.0 0
182000.0 551872.0 0
186000.0 551921.0 0
190000.0 551872.0 0
194000.0 551921.0 0
198000.0 551872.0 0
202000.0 551918.0 0
206000.0 551872.0 0
210000.0 551907.0 0
214000.0 551872.0 0
218000.0 551894.0 0
222000.0 551872.0 0
226000.0 551879.0 0
230000.0 551872.0 0
234000.0 551874.0 0
238000.0 551872.0 0
242000.0 551874.0 0
246000.0 551872.0 0
250000.0 551875.0 0
254000.0 551872.0 0
258000.0 551874.0 0
262000.0 551872.0 0
266000.0 551874.0 0
270000.0 551872.0 0
274000.0 551879.0 0
278000.0 551872.0 0
282000.0 551894.0 0
286000.0 551872.0 0
290000.0 551907.0 0
294000.0 551872.0 0
298000.0 551918.0 0
302000.0 551872.0 0
306000.0 551921.0 0
310000.0 551872.0 0
314000.0 551921.0 0
318000.0 551872.0 0
322000.0 551914.0 0
326000.0 551873.0 0
330000.0 551907.0 0
334000.0 551887.0 0
338000.0 551926.0 0
342000.0 551921.0 0
346000.0 551960.0 0
350000.0 551964.0 0
354000.0 552004.0 0
358000.0 552026.0 0
362000.0 552063.0 0
366000.0 552009.0 0
370000.0 552036.0 0
374000.0 552017.0 0
378000.0 551986.0 0
382000.0 551935.0 0
386000.0 551964.0 0
390000.0 551967.0 0
394000.0 551985.0 0
398000.0 551997.0 0
158000.0 555914.0 0
162000.0 555921.0 0
166000.0 555885.0 0
170000.0 555904.0 0
174000.0 555872.0 0
178000.0 555911.0 0
182000.0 555872.0 0
186000.0 555916.0 0
190000.0 555872.0 0
194000.0 555916.0 0
198000.0 555872.0 0
202000.0 555913.0 0
206000.0 555872.0 0
210000.0 555902.0 0
214000.0 555872.0 0
218000.0 555890.0 0
222000.0 555872.0 0
226000.0 555877.0 0
230000.0 555872.0 0
234000.0 555873.0 0
238000.0 555872.0 0
242000.0 555874.0 0
246000.0 555872.0 0
250000.0 555874.0 0
254000.0 555872.0 0
258000.0 555874.0 0
262000.0 555872.0 0
266000.0 555873.0 0
270000.0 555872.0 0
274000.0 555877.0 0
278000.0 555872.0 0
282000.0 555890.0 0
286000.0 555872.0 0
290000.0 555902.0 0
294000.0 555872.0 0
298000.0 555913.0 0
302000.0 555872.0 0
306000.0 555916.0 0
310000.0 555872.0 0
314000.0 555916.0 0
318000.0 555872.0 0
322000.0 555911.0 0
326000.0 555872.0 0
330000.0 555904.0 0
334000.0 555885.0 0
338000.0 555921.0 0
342000.0 555914.0 0
102000.0 555992.0 0
106000.0 555981.0 0
110000.0 555965.0 0
114000.0 555960.0 0
118000.0 555932.0 0
122000.0 555980.0 0
126000.0 556008.0 0
130000.0 556028.0 0
134000.0 556002.0 0
138000.0 556051.0 0
142000.0 556013.0 0
146000.0 555993.0 0
150000.0 555954.0 0
154000.0 555951.0 0
346000.0 555951.0 0
350000.0 555954.0 0
354000.0 555993.0 0
358000.0 556013.0 0
362000.0 556051.0 0
366000.0 556002.0 0
370000.0 556028.0 0
374000.0 556008.0 0
378000.0 555980.0 0
382000.0 555932.0 0
386000.0 555960.0 0
390000.0 555965.0 0
394000.0 555981.0 0
398000.0 555992.0 0
102000.0 559988.0 0
106000.0 559978.0 0
110000.0 559962.0 0
114000.0 559956.0 0
118000.0 559928.0 0
122000.0 559974.0 0
126000.0 559999.0 0
130000.0 560021.0 0
134000.0 559995.0 0
138000.0 560040.0 0
142000.0 560002.0 0
146000.0 559983.0 0
150000.0 559945.0 0
154000.0 559944.0 0
158000.0 559909.0 0
162000.0 559917.0 0
166000.0 559883.0 0
170000.0 559902.0 0
174000.0 559872.0 0
178000.0 559908.0 0
182000.0 559872.0 0
186000.0 559912.0 0
190000.0 559872.0 0
194000.0 559912.0 0
198000.0 559872.0 0
202000.0 559908.0 0
206000.0 559872.0 0
210000.0 559898.0 0
214000.0 559872.0 0
218000.0 559887.0 0
222000.0 559872.0 0
226000.0 559876.0 0
230000.0 559872.0 0
234000.0 559873.0 0
238000.0 559872.0 0
242000.0 559873.0 0
246000.0 559872.0 0
250000.0 559874.0 0
254000.0 559872.0 0
258000.0 559873.0 0
262000.0 559872.0 0
266000.0 559873.0 0
270000.0 559872.0 0
274000.0 559876.0 0
278000.0 559872.0 0
282000.0 559887.0 0
286000.0 559872.0 0
290000.0 559898.0 0
294000.0 559872.0 0
298000.0 559908.0 0
302000.0 559872.0 0
306000.0 559912.0 0
310000.0 559872.0 0
314000.0 559912.0 0
318000.0 559872.0 0
322000.0 559908.0 0
326000.0 559872.0 0
330000.0 559902.0 0
334000.0 559883.0 0
338000.0 559917.0 0
342000.0 559909.0 0
346000.0 559944.0 0
350000.0 559945.0 0
354000.0 559983.0 0
358000.0 560002.0 0
362000.0 560040.0 0
366000.0 559995.0 0
370000.0 560021.0 0
374000.0 559999.0 0
378000.0 559974.0 0
382000.0 559928.0 0
386000.0 559956.0 0
390000.0 559962.0 0
394000.0 559978.0 0
398000.0 559988.0 0
102000.0 563983.0 0
106000.0 563974.0 0
110000.0 563960.0 0
114000.0 563953.0 0
118000.0 563925.0 0
122000.0 563969.0 0
126000.0 563991.0 0
130000.0 564013.0 0
134000.0 563988.0 0
138000.0 564030.0 0
142000.0 563990.0 0
146000.0 563974.0 0
150000.0 563937.0 0
154000.0 563937.0 0
158000.0 563904.0 0
162000.0 563913.0 0
166000.0 563881.0 0
170000.0 563900.0 0
174000.0 563872.0 0
178000.0 563905.0 0
182000.0 563872.0 0
186000.0 563908.0 0
190000.0 563872.0 0
194000.0 563908.0 0
198000.0 563872.0 0
202000.0 563904.0 0
206000.0 563872.0 0
210000.0 563894.0 0
214000.0 563872.0 0
218000.0 563884.0 0
222000.0 563872.0 0
226000.0 563875.0 0
230000.0 563872.0 0
234000.0 563873.0 0
238000.0 563872.0 0
242000.0 563873.0 0
246000.0 563872.0 0
250000.0 563874.0 0
254000.0 563872.0 0
258000.0 563873.0 0
262000.0 563872.0 0
266000.0 563873.0 0
270000.0 563872.0 0
274000.0 563875.0 0
278000.0 563872.0 0
282000.0 563884.0 0
286000.0 563872.0 0
290000.0 563894.0 0
294000.0 563872.0 0
298000.0 563904.0 0
302000.0 563872.0 0
306000.0 563908.0 0
310000.0 563872.0 0
314000.0 563908.0 0
318000.0 563872.0 0
322000.0 563905.0 0
326000.0 563872.0 0
330000.0 563900.0 0
334000.0 563881.0 0
338000.0 563913.0 0
342000.0 563904.0 0
346000.0 563937.0 0
350000.0 563937.0 0
354000.0 563974.0 0
358000.0 563990.0 0
362000.0 564030.0 0
366000.0 563988.0 0
370000.0 564013.0 0
374000.0 563991.0 0
378000.0 563969.0 0
382000.0 563925.0 0
386000.0 563953.0 0
390000.0 563960.0 0
394000.0 563974.0 0
398000.0 563983.0 0
102000.0 567979.0 0
106000.0 567971.0 0
110000.0 567957.0 0
114000.0 567949.0 0
118000.0 567923.0 0
122000.0 567964.0 0
126000.0 567984.0 0
130000.0 568006.0 0
134000.0 567981.0 0
138000.0 568020.0 0
142000.0 567980.0 0
146000.0 567966.0 0
150000.0 567930.0 0
154000.0 567931.0 0
158000.0 567900.0 0
162000.0 567910.0 0
166000.0 567879.0 0
170000.0 567898.0 0
174000.0 567872.0 0
178000.0 567902.0 0
182000.0 567872.0 0
186000.0 567905.0 0
190000.0 567872.0 0
194000.0 567904.0 0
198000.0 567872.0 0
202000.0 567900.0 0
206000.0 567872.0 0
210000.0 567891.0 0
214000.0 567872.0 0
218000.0 567882.0 0
222000.0 567872.0 0
226000.0 567874.0 0
230000.0 567872.0 0
234000.0 567873.0 0
238000.0 567872.0 0
242000.0 567873.0 0
246000.0 567872.0 0
250000.0 567873.0 0
254000.0 567872.0 0
258000.0 567873.0 0
262000.0 567872.0 0
266000.0 567873.0 0
270000.0 567872.0 0
274000.0 567874.0 0
278000.0 567872.0 0
282000.0 567882.0 0
286000.0 567872.0 0
290000.0 567891.0 0
294000.0 567872.0 0
298000.0 567900.0 0
302000.0 567872.0 0
306000.0 567904.0 0
310000.0 567872.0 0
314000.0 567905.0 0
318000.0 567872.0 0
322000.0 567902.0 0
326000.0 567872.0 0
330000.0 567898.0 0
334000.0 567879.0 0
338000.0 567910.0 0
342000.0 567900.0 0
346000.0 567931.0 0
350000.0 567930.0 0
354000.0 567966.0 0
358000.0 567980.0 0
362000.0 568020.0 0
366000.0 567981.0 0
370000.0 568006.0 0
374000.0 567984.0 0
378000.0 567964.0 0
382000.0 567923.0 0
386000.0 567949.0 0
390000.0 567957.0 0
394000.0 567971.0 0
398000.0 567979.0 0
102000.0 571975.0 0
106000.0 571968.0 0
110000.0 571955.0 0
114000.0 571945.0 0
118000.0 571920.0 0
122000.0 571960.0 0
126000.0 571977.0 0
130000.0 571999.0 0
134000.0 571975.0 0
138000.0 572010.0 0
142000.0 571971.0 0
146000.0 571958.0 0
150000.0 571924.0 0
154000.0 571926.0 0
158000.0 571897.0 0
162000.0 571907.0 0
166000.0 571878.0 0
170000.0 571897.0 0
174000.0 571872.0 0
178000.0 571899.0 0
182000.0 571872.0 0
186000.0 571901.0 0
190000.0 571872.0 0
194000.0 571901.0 0
198000.0 571872.0 0
202000.0 571896.0 0
206000.0 571872.0 0
210000.0 571888.0 0
214000.0 571872.0 0
218000.0 571880.0 0
222000.0 571872.0 0
226000.0 571874.0 0
230000.0 571872.0 0
234000.0 571873.0 0
238000.0 571872.0 0
242000.0 571873.0 0
246000.0 571872.0 0
250000.0 571873.0 0
254000.0 571872.0 0
258000.0 571873.0 0
262000.0 571872.0 0
266000.0 571873.0 0
270000.0 571872.0 0
274000.0 571874.0 0
278000.0 571872.0 0
282000.0 571880.0 0
286000.0 571872.0 0
290000.0 571888.0 0
294000.0 571872.0 0
298000.0 571896.0 0
302000.0 571872.0 0
306000.0 571901.0 0
310000.0 571872.0 0
314000.0 571901.0 0
318000.0 571872.0 0
322000.0 571899.0 0
326000.0 571872.0 0
330000.0 571897.0 0
334000.0 571878.0 0
338000.0 571907.0 0
342000.0 571897.0 0
346000.0 571926.0 0
350000.0 571924.0 0
354000.0 571958.0 0
358000.0 571971.0 0
362000.0 572010.0 0
366000.0 571975.0 0
370000.0 571999.0 0
374000.0 571977.0 0
378000.0 571960.0 0
382000.0 571920.0 0
386000.0 571945.0 0
390000.0 571955.0 0
394000.0 571968.0 0
398000.0 571975.0 0
102000.0 575971.0 0
106000.0 575965.0 0
110000.0 575952.0 0
114000.0 575942.0 0
118000.0 575918.0 0
122000.0 575956.0 0
126000.0 575971.0 0
130000.0 575993.0 0
134000.0 575969.0 0
138000.0 576001.0 0
142000.0 575962.0 0
146000.0 575951.0 0
150000.0 575918.0 0
154000.0 575922.0 0
158000.0 575893.0 0
162000.0 575904.0 0
166000.0 575877.0 0
170000.0 575895.0 0
174000.0 575872.0 0
178000.0 575897.0 0
182000.0 575872.0 0
186000.0 575899.0 0
190000.0 575872.0 0
194000.0 575898.0 0
198000.0 575872.0 0
202000.0 575893.0 0
206000.0 575872.0 0
210000.0 575885.0 0
214000.0 575872.0 0
218000.0 575878.0 0
222000.0 575872.0 0
226000.0 575873.0 0
230000.0 575872.0 0
234000.0 575872.0 0
238000.0 575872.0 0
242000.0 575873.0 0
246000.0 575872.0 0
250000.0 575873.0 0
254000.0 575872.0 0
258000.0 575873.0 0
262000.0 575872.0 0
266000.0 575872.0 0
270000.0 575872.0 0
274000.0 575873.0 0
278000.0 575872.0 0
282000.0 575878.0 0
286000.0 575872.0 0
290000.0 575885.0 0
294000.0 575872.0 0
298000.0 575893.0 0
302000.0 575872.0 0
306000.0 575898.0 0
310000.0 575872.0 0
314000.0 575899.0 0
318000.0 575872.0 0
322000.0 575897.0 0
326000.0 575872.0 0
330000.0 575895.0 0
334000.0 575877.0 0
338000.0 575904.0 0
342000.0 575893.0 0
346000.0 575922.0 0
350000.0 575918.0 0
354000.0 575951.0 0
358000.0 575962.0 0
362000.0 576001.0 0
366000.0 575969.0 0
370000.0 575993.0 0
374000.0 575971.0 0
378000.0 575956.0 0
382000.0 575918.0 0
386000.0 575942.0 0
390000.0 575952.0 0
394000.0 575965.0 0
398000.0 575971.0 0
102000.0 579968.0 0
106000.0 579963.0 0
110000.0 579950.0 0
114000.0 579939.0 0
118000.0 579916.0 0
122000.0 579952.0 0
126000.0 579965.0 0
130000.0 579987.0 0
134000.0 579963.0 0
138000.0 579993.0 0
142000.0 579954.0 0
146000.0 579945.0 0
150000.0 579913.0 0
154000.0 579917.0 0
158000.0 579891.0 0
162000.0 579901.0 0
166000.0 579876.0 0
170000.0 579893.0 0
174000.0 579872.0 0
178000.0 579895.0 0
182000.0 579872.0 0
186000.0 579896.0 0
190000.0 579872.0 0
194000.0 579895.0 0
198000.0 579872.0 0
202000.0 579890.0 0
206000.0 579872.0 0
210000.0 579883.0 0
214000.0 579872.0 0
218000.0 579877.0 0
222000.0 579872.0 0
226000.0 579873.0 0
230000.0 579872.0 0
234000.0 579872.0 0
238000.0 579872.0 0
242000.0 579873.0 0
246000.0 579872.0 0
250000.0 579873.0 0
254000.0 579872.0 0
258000.0 579873.0 0
262000.0 579872.0 0
266000.0 579872.0 0
270000.0 579872.0 0
274000.0 579873.0 0
278000.0 579872.0 0
282000.0 579877.0 0
286000.0 579872.0 0
290000.0 579883.0 0
294000.0 579872.0 0
298000.0 579890.0 0
302000.0 579872.0 0
306000.0 579895.0 0
310000.0 579872.0 0
314000.0 579896.0 0
318000.0 579872.0 0
322000.0 579895.0 0
326000.0 579872.0 0
330000.0 579893.0 0
334000.0 579876.0 0
338000.0 579901.0 0
342000.0 579891.0 0
346000.0 579917.0 0
350000.0 579913.0 0
354000.0 579945.0 0
358000.0 579954.0 0
362000.0 579993.0 0
366000.0 579963.0 0
370000.0 579987.0 0
374000.0 579965.0 0
378000.0 579952.0 0
382000.0 579916.0 0
386000.0 579939.0 0
390000.0 579950.0 0
394000.0 579963.0 0
398000.0 579968.0 0
102000.0 583965.0 0
106000.0 583960.0 0
110000.0 583948.0 0
114000.0 583936.0 0
118000.0 583914.0 0
122000.0 583949.0 0
126000.0 583960.0 0
130000.0 583981.0 0
134000.0 583958.0 0
138000.0 583986.0 0
142000.0 583947.0 0
146000.0 583939.0 0
150000.0 583908.0 0
154000.0 583914.0 0
158000.0 583888.0 0
162000.0 583899.0 0
166000.0 583876.0 0
170000.0 583892.0 0
174000.0 583872.0 0
178000.0 583893.0 0
182000.0 583872.0 0
186000.0 583894.0 0
190000.0 583872.0 0
194000.0 583893.0 0
198000.0 583872.0 0
202000.0 583888.0 0
206000.0 583872.0 0
210000.0 583882.0 0
214000.0 583872.0 0
218000.0 583876.0 0
222000.0 583872.0 0
226000.0 583873.0 0
230000.0 583872.0 0
234000.0 583872.0 0
238000.0 583872.0 0
242000.0 583872.0 0
246000.0 583872.0 0
250000.0 583873.0 0
254000.0 583872.0 0
258000.0 583872.0 0
262000.0 583872.0 0
266000.0 583872.0 0
270000.0 583872.0 0
274000.0 583873.0 0
278000.0 583872.0 0
282000.0 583876.0 0
286000.0 583872.0 0
290000.0 583882.0 0
294000.0 583872.0 0
298000.0 583888.0 0
302000.0 583872.0 0
306000.0 583893.0 0
310000.0 583872.0 0
314000.0 583894.0 0
318000.0 583872.0 0
322000.0 583893.0 0
326000.0 583872.0 0
330000.0 583892.0 0
334000.0 583876.0 0
338000.0 583899.0 0
342000.0 583888.0 0
346000.0 583914.0 0
350000.0 583908.0 0
354000.0 583939.0 0
358000.0 583947.0 0
362000.0 583986.0 0
366000.0 583958.0 0
370000.0 583981.0 0
374000.0 583960.0 0
378000.0 583949.0 0
382000.0 583914.0 0
386000.0 583936.0 0
390000.0 583948.0 0
394000.0 583960.0 0
398000.0 583965.0 0
102000.0 587962.0 0
106000.0 587958.0 0
110000.0 587946.0 0
114000.0 587933.0 0
118000.0 587912.0 0
122000.0 587947.0 0
126000.0 587955.0 0
130000.0 587976.0 0
134000.0 587953.0 0
138000.0 587979.0 0
142000.0 587941.0 0
146000.0 587934.0 0
150000.0 587905.0 0
154000.0 587911.0 0
158000.0 587886.0 0
162000.0 587897.0 0
166000.0 587875.0 0
170000.0 587891.0 0
174000.0 587872.0 0
178000.0 587891.0 0
182000.0 587872.0 0
186000.0 587892.0 0
190000.0 587872.0 0
194000.0 587890.0 0
198000.0 587872.0 0
202000.0 587886.0 0
206000.0 587872.0 0
210000.0 587880.0 0
214000.0 587872.0 0
218000.0 587875.0 0
222000.0 587872.0 0
226000.0 587873.0 0
230000.0 587872.0 0
234000.0 587872.0 0
238000.0 587872.0 0
242000.0 587872.0 0
246000.0 587872.0 0
250000.0 587873.0 0
254000.0 587872.0 0
258000.0 587872.0 0
262000.0 587872.0 0
266000.0 587872.0 0
270000.0 587872.0 0
274000.0 587873.0 0
278000.0 587872.0 0
282000.0 587875.0 0
286000.0 587872.0 0
290000.0 587880.0 0
294000.0 587872.0 0
298000.0 587886.0 0
302000.0 587872.0 0
306000.0 587890.0 0
310000.0 587872.0 0
314000.0 587892.0 0
318000.0 587872.0 0
322000.0 587891.0 0
326000.0 587872.0 0
330000.0 587891.0 0
334000.0 587875.0 0
338000.0 587897.0 0
342000.0 587886.0 0
346000.0 587911.0 0
350000.0 587905.0 0
354000.0 587934.0 0
358000.0 587941.0 0
362000.0 587979.0 0
366000.0 587953.0 0
370000.0 587976.0 0
374000.0 587955.0 0
378000.0 587947.0 0
382000.0 587912.0 0
386000.0 587933.0 0
390000.0 587946.0 0
394000.0 587958.0 0
398000.0 587962.0 0
102000.0 591959.0 0
106000.0 591956.0 0
110000.0 591944.0 0
114000.0 591931.0 0
118000.0 591911.0 0
122000.0 591944.0 0
126000.0 591951.0 0
130000.0 591972.0 0
134000.0 591949.0 0
138000.0 591972.0 0
142000.0 591935.0 0
146000.0 591930.0 0
150000.0 591901.0 0
154000.0 591908.0 0
158000.0 591885.0 0
162000.0 591896.0 0
166000.0 591875.0 0
170000.0 591890.0 0
174000.0 591872.0 0
178000.0 591890.0 0
182000.0 591872.0 0
186000.0 591890.0 0
190000.0 591872.0 0
194000.0 591888.0 0
198000.0 591872.0 0
202000.0 591884.0 0
206000.0 591872.0 0
210000.0 591879.0 0
214000.0 591872.0 0
218000.0 591874.0 0
222000.0 591872.0 0
226000.0 591873.0 0
230000.0 591872.0 0
234000.0 591872.0 0
238000.0 591872.0 0
242000.0 591872.0 0
246000.0 591872.0 0
250000.0 591873.0 0
254000.0 591872.0 0
258000.0 591872.0 0
262000.0 591872.0 0
266000.0 591872.0 0
270000.0 591872.0 0
274000.0 591873.0 0
278000.0 591872.0 0
282000.0 591874.0 0
286000.0 591872.0 0
290000.0 591879.0 0
294000.0 591872.0 0
298000.0 591884.0 0
302000.0 591872.0 0
306000.0 591888.0 0
310000.0 591872.0 0
314000.0 591890.0 0
318000.0 591872.0 0
322000.0 591890.0 0
326000.0 591872.0 0
330000.0 591890.0 0
334000.0 591875.0 0
338000.0 591896.0 0
342000.0 591885.0 0
346000.0 591908.0 0
350000.0 591901.0 0
354000.0 591930.0 0
358000.0 591935.0 0
362000.0 591972.0 0
366000.0 591949.0 0
370000.0 591972.0 0
374000.0 591951.0 0
378000.0 591944.0 0
382000.0 591911.0 0
386000.0 591931.0 0
390000.0 591944.0 0
394000.0 591956.0 0
398000.0 591959.0 0
102000.0 595957.0 0
106000.0 595954.0 0
110000.0 595942.0 0
114000.0 595929.0 0
118000.0 595909.0 0
122000.0 595942.0 0
126000.0 595947.0 0
130000.0 595967.0 0
134000.0 595944.0 0
138000.0 595966.0 0
142000.0 595930.0 0
146000.0 595926.0 0
150000.0 595898.0 0
154000.0 595905.0 0
158000.0 595883.0 0
162000.0 595894.0 0
166000.0 595874.0 0
170000.0 595889.0 0
174000.0 595872.0 0
178000.0 595888.0 0
182000.0 595872.0 0
186000.0 595888.0 0
190000.0 595872.0 0
194000.0 595887.0 0
198000.0 595872.0 0
202000.0 595883.0 0
206000.0 595872.0 0
210000.0 595878.0 0
214000.0 595872.0 0
218000.0 595874.0 0
222000.0 595872.0 0
226000.0 595872.0 0
230000.0 595872.0 0
234000.0 595872.0 0
238000.0 595872.0 0
242000.0 595872.0 0
246000.0 595872.0 0
250000.0 595872.0 0
254000.0 595872.0 0
258000.0 595872.0 0
262000.0 595872.0 0
266000.0 595872.0 0
270000.0 595872.0 0
274000.0 595872.0 0
278000.0 595872.0 0
282000.0 595874.0 0
286000.0 595872.0 0
290000.0 595878.0 0
294000.0 595872.0 0
298000.0 595883.0 0
302000.0 595872.0 0
306000.0 595887.0 0
310000.0 595872.0 0
314000.0 595888.0 0
318000.0 595872.0 0
322000.0 595888.0 0
326000.0 595872.0 0
330000.0 595889.0 0
334000.0 595874.0 0
338000.0 595894.0 0
342000.0 595883.0 0
346000.0 595905.0 0
350000.0 595898.0 0
354000.0 595926.0 0
358000.0 595930.0 0
362000.0 595966.0 0
366000.0 595944.0 0
370000.0 595967.0 0
374000.0 595947.0 0
378000.0 595942.0 0
382000.0 595909.0 0
386000.0 595929.0 0
390000.0 595942.0 0
394000.0 595954.0 0
398000.0 595957.0 0
102000.0 599955.0 0
106000.0 599952.0 0
110000.0 599941.0 0
114000.0 599927.0 0
118000.0 599908.0 0
122000.0 599940.0 0
126000.0 599943.0 0
130000.0 599964.0 0
134000.0 599941.0 0
138000.0 599961.0 0
142000.0 599926.0 0
146000.0 599922.0 0
150000.0 599896.0 0
154000.0 599903.0 0
158000.0 599882.0 0
162000.0 599893.0 0
166000.0 599874.0 0
170000.0 599888.0 0
174000.0 599872.0 0
178000.0 599887.0 0
182000.0 599872.0 0
186000.0 599887.0 0
190000.0 599872.0 0
194000.0 599885.0 0
198000.0 599872.0 0
202000.0 599881.0 0
206000.0 599872.0 0
210000.0 599877.0 0
214000.0 599872.0 0
218000.0 599874.0 0
222000.0 599872.0 0
226000.0 599872.0 0
230000.0 599872.0 0
234000.0 599872.0 0
238000.0 599872.0 0
242000.0 599872.0 0
246000.0 599872.0 0
250000.0 599872.0 0
254000.0 599872.0 0
258000.0 599872.0 0
262000.0 599872.0 0
266000.0 599872.0 0
270000.0 599872.0 0
274000.0 599872.0 0
278000.0 599872.0 0
282000.0 599874.0 0
286000.0 599872.0 0
290000.0 599877.0 0
294000.0 599872.0 0
298000.0 599881.0 0
302000.0 599872.0 0
306000.0 599885.0 0
310000.0 599872.0 0
314000.0 599887.0 0
318000.0 599872.0 0
322000.0 599887.0 0
326000.0 599872.0 0
330000.0 599888.0 0
334000.0 599874.0 0
338000.0 599893.0 0
342000.0 599882.0 0
346000.0 599903.0 0
350000.0 599896.0 0
354000.0 599922.0 0
358000.0 599926.0 0
362000.0 599961.0 0
366000.0 599941.0 0
370000.0 599964.0 0
374000.0 599943.0 0
378000.0 599940.0 0
382000.0 599908.0 0
386000.0 599927.0 0
390000.0 599941.0 0
394000.0 599952.0 0
398000.0 599955.0 0
102000.0 603953.0 0
106000.0 603951.0 0
110000.0 603940.0 0
114000.0 603925.0 0
118000.0 603907.0 0
122000.0 603939.0 0
126000.0 603941.0 0
130000.0 603960.0 0
134000.0 603938.0 0
138000.0 603957.0 0
142000.0 603922.0 0
146000.0 603919.0 0
150000.0 603893.0 0
154000.0 603901.0 0
158000.0 603881.0 0
162000.0 603892.0 0
166000.0 603874.0 0
170000.0 603887.0 0
174000.0 603872.0 0
178000.0 603886.0 0
182000.0 603872.0 0
186000.0 603885.0 0
190000.0 603872.0 0
194000.0 603884.0 0
198000.0 603872.0 0
202000.0 603880.0 0
206000.0 603872.0 0
210000.0 603876.0 0
214000.0 603872.0 0
218000.0 603873.0 0
222000.0 603872.0 0
226000.0 603872.0 0
230000.0 603872.0 0
234000.0 603872.0 0
238000.0 603872.0 0
242000.0 603872.0 0
246000.0 603872.0 0
250000.0 603872.0 0
254000.0 603872.0 0
258000.0 603872.0 0
262000.0 603872.0 0
266000.0 603872.0 0
270000.0 603872.0 0
274000.0 603872.0 0
278000.0 603872.0 0
282000.0 603873.0 0
286000.0 603872.0 0
290000.0 603876.0 0
294000.0 603872.0 0
298000.0 603880.0 0
302000.0 603872.0 0
306000.0 603884.0 0
310000.0 603872.0 0
314000.0 603885.0 0
318000.0 603872.0 0
322000.0 603886.0 0
326000.0 603872.0 0
330000.0 603887.0 0
334000.0 603874.0 0
338000.0 603892.0 0
342000.0 603881.0 0
346000.0 603901.0 0
350000.0 603893.0 0
354000.0 603919.0 0
358000.0 603922.0 0
362000.0 603957.0 0
366000.0 603938.0 0
370000.0 603960.0 0
374000.0 603941.0 0
378000.0 603939.0 0
382000.0 603907.0 0
386000.0 603925.0 0
390000.0 603940.0 0
394000.0 603951.0 0
398000.0 603953.0 0
102000.0 607951.0 0
106000.0 607949.0 0
110000.0 607938.0 0
114000.0 607924.0 0
118000.0 607906.0 0
122000.0 607937.0 0
126000.0 607938.0 0
130000.0 607957.0 0
134000.0 607935.0 0
138000.0 607953.0 0
142000.0 607919.0 0
146000.0 607917.0 0
150000.0 607892.0 0
154000.0 607900.0 0
158000.0 607880.0 0
162000.0 607891.0 0
166000.0 607874.0 0
170000.0 607886.0 0
174000.0 607872.0 0
178000.0 607885.0 0
182000.0 607872.0 0
186000.0 607884.0 0
190000.0 607872.0 0
194000.0 607883.0 0
198000.0 607872.0 0
202000.0 607879.0 0
206000.0 607872.0 0
210000.0 607875.0 0
214000.0 607872.0 0
218000.0 607873.0 0
222000.0 607872.0 0
226000.0 607872.0 0
230000.0 607872.0 0
234000.0 607872.0 0
238000.0 607872.0 0
242000.0 607872.0 0
246000.0 607872.0 0
250000.0 607872.0 0
254000.0 607872.0 0
258000.0 607872.0 0
262000.0 607872.0 0
266000.0 607872.0 0
270000.0 607872.0 0
274000.0 607872.0 0
278000.0 607872.0 0
282000.0 607873.0 0
286000.0 607872.0 0
290000.0 607875.0 0
294000.0 607872.0 0
298000.0 607879.0 0
302000.0 607872.0 0
306000.0 607883.0 0
310000.0 607872.0 0
314000.0 607884.0 0
318000.0 607872.0 0
322000.0 607885.0 0
326000.0 607872.0 0
330000.0 607886.0 0
334000.0 607874.0 0
338000.0 607891.0 0
342000.0 607880.0 0
346000.0 607900.0 0
350000.0 607892.0 0
354000.0 607917.0 0
358000.0 607919.0 0
362000.0 607953.0 0
366000.0 607935.0 0
370000.0 607957.0 0
374000.0 607938.0 0
378000.0 607937.0 0
382000.0 607906.0 0
386000.0 607924.0 0
390000.0 607938.0 0
394000.0 607949.0 0
398000.0 607951.0 0
102000.0 611950.0 0
106000.0 611948.0 0
110000.0 611937.0 0
114000.0 611923.0 0
118000.0 611905.0 0
122000.0 611936.0 0
126000.0 611936.0 0
130000.0 611955.0 0
134000.0 611932.0 0
138000.0 611950.0 0
142000.0 611916.0 0
146000.0 611915.0 0
150000.0 611890.0 0
154000.0 611898.0 0
158000.0 611879.0 0
162000.0 611890.0 0
166000.0 611874.0 0
170000.0 611886.0 0
174000.0 611872.0 0
178000.0 611884.0 0
182000.0 611872.0 0
186000.0 611883.0 0
190000.0 611872.0 0
194000.0 611882.0 0
198000.0 611872.0 0
202000.0 611878.0 0
206000.0 611872.0 0
210000.0 611875.0 0
214000.0 611872.0 0
218000.0 611873.0 0
222000.0 611872.0 0
226000.0 611872.0 0
230000.0 611872.0 0
234000.0 611872.0 0
238000.0 611872.0 0
242000.0 611872.0 0
246000.0 611872.0 0
250000.0 611872.0 0
254000.0 611872.0 0
258000.0 611872.0 0
262000.0 611872.0 0
266000.0 611872.0 0
270000.0 611872.0 0
274000.0 611872.0 0
278000.0 611872.0 0
282000.0 611873.0 0
286000.0 611872.0 0
290000.0 611875.0 0
294000.0 611872.0 0
298000.0 611878.0 0
302000.0 611872.0 0
306000.0 611882.0 0
310000.0 611872.0 0
314000.0 611883.0 0
318000.0 611872.0 0
322000.0 611884.0 0
326000.0 611872.0 0
330000.0 611886.0 0
334000.0 611874.0 0
338000.0 611890.0 0
342000.0 611879.0 0
346000.0 611898.0 0
350000.0 611890.0 0
354000.0 611915.0 0
358000.0 611916.0 0
362000.0 611950.0 0
366000.0 611932.0 0
370000.0 611955.0 0
374000.0 611936.0 0
378000.0 611936.0 0
382000.0 611905.0 0
386000.0 611923.0 0
390000.0 611937.0 0
394000.0 611948.0 0
398000.0 611950.0 0
102000.0 615949.0 0
106000.0 615947.0 0
110000.0 615937.0 0
114000.0 615922.0 0
118000.0 615905.0 0
122000.0 615935.0 0
126000.0 615935.0 0
130000.0 615953.0 0
134000.0 615930.0 0
138000.0 615948.0 0
142000.0 615914.0 0
146000.0 615913.0 0
150000.0 615889.0 0
154000.0 615897.0 0
158000.0 615879.0 0
162000.0 615890.0 0
166000.0 615873.0 0
170000.0 615885.0 0
174000.0 615872.0 0
178000.0 615884.0 0
182000.0 615872.0 0
186000.0 615883.0 0
190000.0 615872.0 0
194000.0 615881.0 0
198000.0 615872.0 0
202000.0 615878.0 0
206000.0 615872.0 0
210000.0 615874.0 0
214000.0 615872.0 0
218000.0 615873.0 0
222000.0 615872.0 0
226000.0 615872.0 0
230000.0 615872.0 0
234000.0 615872.0 0
238000.0 615872.0 0
242000.0 615872.0 0
246000.0 615872.0 0
250000.0 615872.0 0
254000.0 615872.0 0
258000.0 615872.0 0
262000.0 615872.0 0
266000.0 615872.0 0
270000.0 615872.0 0
274000.0 615872.0 0
278000.0 615872.0 0
282000.0 615873.0 0
286000.0 615872.0 0
290000.0 615874.0 0
294000.0 615872.0 0
298000.0 615878.0 0
302000.0 615872.0 0
306000.0 615881.0 0
310000.0 615872.0 0
314000.0 615883.0 0
318000.0 615872.0 0
322000.0 615884.0 0
326000.0 615872.0 0
330000.0 615885.0 0
334000.0 615873.0 0
338000.0 615890.0 0
342000.0 615879.0 0
346000.0 615897.0 0
350000.0 615889.0 0
354000.0 615913.0 0
358000.0 615914.0 0
362000.0 615948.0 0
366000.0 615930.0 0
370000.0 615953.0 0
374000.0 615935.0 0
378000.0 615935.0 0
382000.0 615905.0 0
386000.0 615922.0 0
390000.0 615937.0 0
394000.0 615947.0 0
398000.0 615949.0 0
102000.0 619948.0 0
106000.0 619947.0 0
110000.0 619936.0 0
114000.0 619921.0 0
118000.0 619904.0 0
122000.0 619935.0 0
126000.0 619933.0 0
130000.0 619952.0 0
134000.0 619929.0 0
138000.0 619946.0 0
142000.0 619912.0 0
146000.0 619912.0 0
150000.0 619888.0 0
154000.0 619897.0 0
158000.0 619878.0 0
162000.0 619889.0 0
166000.0 619873.0 0
170000.0 619885.0 0
174000.0 619872.0 0
178000.0 619883.0 0
182000.0 619872.0 0
186000.0 619882.0 0
190000.0 619872.0 0
194000.0 619881.0 0
198000.0 619872.0 0
202000.0 619877.0 0
206000.0 619872.0 0
210000.0 619874.0 0
214000.0 619872.0 0
218000.0 619873.0 0
222000.0 619872.0 0
226000.0 619872.0 0
230000.0 619872.0 0
234000.0 619872.0 0
238000.0 619872.0 0
242000.0 619872.0 0
246000.0 619872.0 0
250000.0 619872.0 0
254000.0 619872.0 0
258000.0 619872.0 0
262000.0 619872.0 0
266000.0 619872.0 0
270000.0 619872.0 0
274000.0 619872.0 0
278000.0 619872.0 0
282000.0 619873.0 0
286000.0 619872.0 0
290000.0 619874.0 0
294000.0 619872.0 0
298000.0 619877.0 0
302000.0 619872.0 0
306000.0 619881.0 0
310000.0 619872.0 0
314000.0 619882.0 0
318000.0 619872.0 0
322000.0 619883.0 0
326000.0 619872.0 0
330000.0 619885.0 0
334000.0 619873.0 0
338000.0 619889.0 0
342000.0 619878.0 0
346000.0 619897.0 0
350000.0 619888.0 0
354000.0 619912.0 0
358000.0 619912.0 0
362000.0 619946.0 0
366000.0 619929.0 0
370000.0 619952.0 0
374000.0 619933.0 0
378000.0 619935.0 0
382000.0 619904.0 0
386000.0 619921.0 0
390000.0 619936.0 0
394000.0 619947.0 0
398000.0 619948.0 0
102000.0 623948.0 0
106000.0 623946.0 0
110000.0 623936.0 0
114000.0 623921.0 0
118000.0 623904.0 0
122000.0 623934.0 0
126000.0 623933.0 0
130000.0 623951.0 0
134000.0 623928.0 0
138000.0 623944.0 0
142000.0 623911.0 0
146000.0 623911.0 0
150000.0 623888.0 0
154000.0 623896.0 0
158000.0 623878.0 0
162000.0 623889.0 0
166000.0 623873.0 0
170000.0 623885.0 0
174000.0 623872.0 0
178000.0 623883.0 0
182000.0 623872.0 0
186000.0 623882.0 0
190000.0 623872.0 0
194000.0 623880.0 0
198000.0 623872.0 0
202000.0 623877.0 0
206000.0 623872.0 0
210000.0 623874.0 0
214000.0 623872.0 0
218000.0 623873.0 0
222000.0 623872.0 0
226000.0 623872.0 0
230000.0 623872.0 0
234000.0 623872.0 0
238000.0 623872.0 0
242000.0 623872.0 0
246000.0 623872.0 0
250000.0 623872.0 0
254000.0 623872.0 0
258000.0 623872.0 0
262000.0 623872.0 0
266000.0 623872.0 0
270000.0 623872.0 0
274000.0 623872.0 0
278000.0 623872.0 0
282000.0 623873.0 0
286000.0 623872.0 0
290000.0 623874.0 0
294000.0 623872.0 0
298000.0 623877.0 0
302000.0 623872.0 0
306000.0 623880.0 0
310000.0 623872.0 0
314000.0 623882.0 0
318000.0 623872.0 0
322000.0 623883.0 0
326000.0 623872.0 0
330000.0 623885.0 0
334000.0 623873.0 0
338000.0 623889.0 0
342000.0 623878.0 0
346000.0 623896.0 0
350000.0 623888.0 0
354000.0 623911.0 0
358000.0 623911.0 0
362000.0 623944.0 0
366000.0 623928.0 0
370000.0 623951.0 0
374000.0 623933.0 0
378000.0 623934.0 0
382000.0 623904.0 0
386000.0 623921.0 0
390000.0 623936.0 0
394000.0 623946.0 0
398000.0 623948.0 0
102000.0 627947.0 0
106000.0 627946.0 0
110000.0 627935.0 0
114000.0 627920.0 0
118000.0 627904.0 0
122000.0 627934.0 0
126000.0 627932.0 0
130000.0 627950.0 0
134000.0 627928.0 0
138000.0 627944.0 0
142000.0 627911.0 0
146000.0 627911.0 0
150000.0 627887.0 0
154000.0 627896.0 0
158000.0 627878.0 0
162000.0 627889.0 0
166000.0 627873.0 0
170000.0 627885.0 0
174000.0 627872.0 0
178000.0 627883.0 0
182000.0 627872.0 0
186000.0 627882.0 0
190000.0 627872.0 0
194000.0 627880.0 0
198000.0 627872.0 0
202000.0 627877.0 0
206000.0 627872.0 0
210000.0 627874.0 0
214000.0 627872.0 0
218000.0 627873.0 0
222000.0 627872.0 0
226000.0 627872.0 0
230000.0 627872.0 0
234000.0 627872.0 0
238000.0 627872.0 0
242000.0 627872.0 0
246000.0 627872.0 0
250000.0 627872.0 0
254000.0 627872.0 0
258000.0 627872.0 0
262000.0 627872.0 0
266000.0 627872.0 0
270000.0 627872.0 0
274000.0 627872.0 0
278000.0 627872.0 0
282000.0 627873.0 0
286000.0 627872.0 0
290000.0 627874.0 0
294000.0 627872.0 0
298000.0 627877.0 0
302000.0 627872.0 0
306000.0 627880.0 0
310000.0 627872.0 0
314000.0 627882.0 0
318000.0 627872.0 0
322000.0 627883.0 0
326000.0 627872.0 0
330000.0 627885.0 0
334000.0 627873.0 0
338000.0 627889.0 0
342000.0 627878.0 0
346000.0 627896.0 0
350000.0 627887.0 0
354000.0 627911.0 0
358000.0 627911.0 0
362000.0 627944.0 0
366000.0 627928.0 0
370000.0 627950.0 0
374000.0 627932.0 0
378000.0 627934.0 0
382000.0 627904.0 0
386000.0 627920.0 0
390000.0 627935.0 0
394000.0 627946.0 0
398000.0 627947.0 0
POINT_DATA 4650
SCALARS Radius float 1
LOOKUP_TABLE default
4000.0 4000.0 4000.0 4000.0 4000.0 4000.0 4000.0 4000.0 4000.0 4000.0 4000.0 4000.0 4000.0 4000.0 4000.0 4000.0 4000.0 4000.0 4000.0 4000.0 4000.0 4000.0 4000.0 4000.0 4000.0 4000.0 4000.0 4000.0 4000.0 4000.0 4000.0 4000.0 4000.0 4000.0 4000.0 4000.0 4000.0 4000.0 4000.0 4000.0 4000.0 4000.0 4000.0 4000.0 4000.0 4000.0 4000.0 4000.0 4000.0 4000.0 4000.0 4000.0 4000.0 4000.0 4000.0 4000.0 4000.0 4000.0 4000.0 4000.0 4000.0 4000.0 4000.0 4000.0 4000.0 4000.0 4000.0 4000.0 4000.0 4000.0 4000.0 4000.0 4000.0 4000.0 4000.0 4000.0 4000.0 4000.0 4000.0 4000.0 4000.0 4000.0 4000.0 4000.0 4000.0 4000.0 4000.0 4000.0 4000.0 4000.0 4000.0 4000.0 4000.0 4000.0 4000.0 4000.0 4000.0 4000.0 4000.0 4000.0 4000.0 4000.0 4000.0 4000.0 4000.0 4000.0 4000.0 4000.0 4000.0 4000.0 4000.0 4000.0 4000.0 4000.0 4000.0 4000.0 4000.0 4000.0 4000.0 4000.0 4000.0 4000.0 4000.0 4000.0 4000.0 4000.0 4000.0 4000.0 4000.0 4000.0 4000.0 4000.0 4000.0 4000.0 4000.0 4000.0 4000.0 4000.0 4000.0 4000.0 4000.0 4000.0 4000.0 4000.0 4000.0 4000.0 4000.0 4000.0 4000.0 4000.0 4000.0 4000.0 4000.0 4000.0 4000.0 4000.0 4000.0 4000.0 4000.0 4000.0 4000.0 4000.0 4000.0 4000.0 4000.0 4000.0 4000.0 4000.0 4000.0 4000.0 4000.0 4000.0 4000.0 4000.0 4000.0 4000.0 4000.0 4000.0 4000.0 4000.0 4000.0 4000.0 4000.0 4000.0 4000.0 4000.0 4000.0 4000.0 4000.0 4000.0 4000.0 4000.0 4000.0 4000.0 4000.0 4000.0 4000.0 4000.0 4000.0 4000.0 4000.0 4000.0 4000.0 4000.0 4000.0 4000.0 4000.0 4000.0 4000.0 4000.0 4000.0 4000.0 4000.0 4000.0 4000.0 4000.0 4000.0 4000.0 4000.0 4000.0 4000.0 4000.0 4000.0 4000.0 4000.0 4000.0 4000.0 4000.0 4000.0 4000.0 4000.0 4000.0 4000.0 4000.0 4000.0 4000.0 4000.0 4000.0 4000.0 4000.0 4000.0 4000.0 4000.0 4000.0 4000.0 4000.0 4000.0 4000.0 4000.0 4000.0 4000.0 4000.0 4000.0 4000.0 4000.0 4000.0 4000.0 4000.0 4000.0 4000.0 4000.0 4000.0 4000.0 4000.0 4000.0 4000.0 4000.0 4000.0 4000.0 4000.0 4000.0 4000.0 4000.0 4000.0 4000.0 4000.0 4000.0 4000.0 4000.0 4000.0 4000.0 4000.0 4000.0 4000.0 4000.0 4000.0 4000.0 4000.0 4000.0 4000.0 4000.0 4000.0 4000.0 4000.0 4000.0 4000.0 4000.0 4000.0 4000.0 4000.0 4000.0 4000.0 4000.0 4000.0 4000.0 4000.0 4000.0 4000.0 4000.0 4000.0 4000.0 4000.0 4000.0 4000.0 4000.0 4000.0 4000.0 4000.0 4000.0 4000.0 4000.0 4000.0 4000.0 4000.0 4000.0 4000.0 4000.0 4000.0 4000.0 4000.0 4000.0 4000.0 4000.0 4000.0 4000.0 4000.0 4000.0 4000.0 4000.0 4000.0 4000.0 4000.0 4000.0 4000.0 4000.0 4000.0 4000.0 4000.0 4000.0 4000.0 4000.0 4000.0 4000.0 4000.0 4000.0 4000.0 4000.0 4000.0 4000.0 4000.0 4000.0 4000.0 4000.0 4000.0 4000.0 4000.0 4000.0 4000.0 4000.0 4000.0 4000.0 4000.0 4000.0 4000.0 4000.0 4000.0 4000.0 4000.0 4000.0 4000.0 4000.0 4000.0 4000.0 4000.0 4000.0 4000.0 4000.0 4000.0 4000.0 4000.0 4000.0 4000.0 4000.0 4000.0 4000.0 4000.0 4000.0 4000.0 4000.0 4000.0 4000.0 4000.0 4000.0 4000.0 4000.0 4000.0 4000.0 4000.0 4000.0 4000.0 4000.0 4000.0 4000.0 4000.0 4000.0 4000.0 4000.0 4000.0 4000.0 4000.0 4000.0 4000.0 4000.0 4000.0 4000.0 4000.0 4000.0 4000.0 4000.0 4000.0 4000.0 4000.0 4000.0 4000.0 4000.0 4000.0 4000.0 4000.0 4000.0 4000.0 4000.0 4000.0 4000.0 4000.0 4000.0 4000.0 4000.0 4000.0 4000.0 4000.0 4000.0 4000.0 4000.0 4000.0 4000.0 4000.0 4000.0 4000.0 4000.0 4000.0 4000.0 4000.0 4000.0 4000.0 4000.0 4000.0 4000.0 4000.0 4000.0 4000.0 4000.0 4000.0 4000.0 4000.0 4000.0 4000.0 4000.0 4000.0 4000.0 4000.0 4000.0 4000.0 4000.0 4000.0 4000.0 4000.0 4000.0 4000.0 4000.0 4000.0 4000.0 4000.0 4000.0 4000.0 4000.0 4000.0 4000.0 4000.0 4000.0 4000.0 4000.0 4000.0 4000.0 4000.0 4000.0 4000.0 4000.0 4000.0 4000.0 4000.0 4000.0 4000.0 4000.0 4000.0 4000.0 4000.0 4000.0 4000.0 4000.0 4000.0 4000.0 4000.0 4000.0 4000.0 4000.0 4000.0 4000.0 4000.0 4000.0 4000.0 4000.0 4000.0 4000.0 4000.0 4000.0 4000.0 4000.0 4000.0 4000.0 4000.0 4000.0 4000.0 4000.0 4000.0 4000.0 4000.0 4000.0 4000.0 4000.0 4000.0 4000.0 4000.0 4000.0 4000.0 4000.0 4000.0 4000.0 4000.0 4000.0 4000.0 4000.0 4000.0 4000.0 4000.0 4000.0 4000.0 4000.0 4000.0 4000.0 4000.0 4000.0 4000.0 4000.0 4000.0 4000.0 4000.0 4000.0 4000.0 4000.0 4000.0 4000.0 4000.0 4000.0 4000.0 4000.0 4000.0 4000.0 4000.0 4000.0 4000.0 4000.0 4000.0 4000.0 4000.0 4000.0 4000.0 4000.0 4000.0 4000.0 4000.0 4000.0 4000.0 4000.0 4000.0 4000.0 4000.0 4000.0 4000.0 4000.0 4000.0 4000.0 4000.0 4000.0 4000.0 4000.0 4000.0 4000.0 4000.0 4000.0 4000.0 4000.0 4000.0 4000.0 4000.0 4000.0 4000.0 4000.0 4000.0 4000.0 4000.0 4000.0 4000.0 4000.0 4000.0 4000.0 4000.0 4000.0 4000.0 4000.0 4000.0 4000.0 4000.0 4000.0 4000.0 4000.0 4000.0 4000.0 4000.0 4000.0 4000.0 4000.0 4000.0 4000.0 4000.0 4000.0 4000.0 4000.0 4000.0 4000.0 4000.0 4000.0 4000.0 4000.0 4000.0 4000.0 4000.0 4000.0 4000.0 4000.0 4000.0 4000.0 4000.0 4000.0 4000.0 4000.0 4000.0 4000.0 4000.0 4000.0 4000.0 4000.0 4000.0 4000.0 4000.0 4000.0 4000.0 4000.0 4000.0 4000.0 4000.0 4000.0 4000.0 4000.0 4000.0 4000.0 4000.0 4000.0 4000.0 4000.0 4000.0 4000.0 4000.0 4000.0 4000.0 4000.0 4000.0 4000.0 4000.0 4000.0 4000.0 4000.0 4000.0 4000.0 4000.0 4000.0 4000.0 4000.0 4000.0 4000.0 4000.0 4000.0 4000.0 4000.0 4000.0 4000.0 4000.0 4000.0 4000.0 4000.0 4000.0 4000.0 4000.0 4000.0 4000.0 4000.0 4000.0 4000.0 4000.0 4000.0 4000.0 4000.0 4000.0 4000.0 4000.0 4000.0 4000.0 4000.0 4000.0 4000.0 4000.0 4000.0 4000.0 4000.0 4000.0 4000.0 4000.0 4000.0 4000.0 4000.0 4000.0 4000.0 4000.0 4000.0 4000.0 4000.0 4000.0 4000.0 4000.0 4000.0 4000.0 4000.0 4000.0 4000.0 4000.0 4000.0 4000.0 4000.0 4000.0 4000.0 4000.0 4000.0 4000.0 4000.0 4000.0 4000.0 4000.0 4000.0 4000.0 4000.0 4000.0 4000.0 4000.0 4000.0 4000.0 4000.0 4000.0 4000.0 4000.0 4000.0 4000.0 4000.0 4000.0 4000.0 4000.0 4000.0 4000.0 4000.0 4000.0 4000.0 4000.0 4000.0 4000.0 4000.0 4000.0 4000.0 4000.0 4000.0 4000.0 4000.0 4000.0 4000.0 4000.0 4000.0 4000.0 4000.0 4000.0 4000.0 4000.0 4000.0 4000.0 4000.0 4000.0 4000.0 4000.0 4000.0 4000.0 4000.0 4000.0 4000.0 4000.0 4000.0 4000.0 4000.0 4000.0 4000.0 4000.0 4000.0 4000.0 4000.0 4000.0 4000.0 4000.0 4000.0 4000.0 4000.0 4000.0 4000.0 4000.0 4000.0 4000.0 4000.0 4000.0 4000.0 4000.0 4000.0 4000.0 4000.0 4000.0 4000.0 4000.0 4000.0 4000.0 4000.0 4000.0 4000.0 4000.0 4000.0 4000.0 4000.0 4000.0 4000.0 4000.0 4000.0 4000.0 4000.0 4000.0 4000.0 4000.0 4000.0 4000.0 4000.0 4000.0 4000.0 4000.0 4000.0 4000.0 4000.0 4000.0 4000.0 4000.0 4000.0 4000.0 4000.0 4000.0 4000.0 4000.0 4000.0 4000.0 4000.0 4000.0 4000.0 4000.0 4000.0 4000.0 4000.0 4000.0 4000.0 4000.0 4000.0 4000.0 4000.0 4000.0 4000.0 4000.0 4000.0 4000.0 4000.0 4000.0 4000.0 4000.0 4000.0 4000.0 4000.0 4000.0 4000.0 4000.0 4000.0 4000.0 4000.0 4000.0 4000.0 4000.0 4000.0 4000.0 4000.0 4000.0 4000.0 4000.0 4000.0 4000.0 4000.0 4000.0 4000.0 4000.0 4000.0 4000.0 4000.0 4000.0 4000.0 4000.0 4000.0 4000.0 4000.0 4000.0 4000.0 4000.0 4000.0 4000.0 4000.0 4000.0 4000.0 4000.0 4000.0 4000.0 4000.0 4000.0 4000.0 4000.0 4000.0 4000.0 4000.0 4000.0 4000.0 4000.0 4000.0 4000.0 4000.0 4000.0 4000.0 4000.0 4000.0 4000.0 4000.0 4000.0 4000.0 4000.0 4000.0 4000.0 4000.0 4000.0 4000.0 4000.0 4000.0 4000.0 4000.0 4000.0 4000.0 4000.0 4000.0 4000.0 4000.0 4000.0 4000.0 4000.0 4000.0 4000.0 4000.0 4000.0 4000.0 4000.0 4000.0 4000.0 4000.0 4000.0 4000.0 4000.0 4000.0 4000.0 4000.0 4000.0 4000.0 4000.0 4000.0 4000.0 4000.0 4000.0 4000.0 4000.0 4000.0 4000.0 4000.0 4000.0 4000.0 4000.0 4000.0 4000.0 4000.0 4000.0 4000.0 4000.0 4000.0 4000.0 4000.0 4000.0 4000.0 4000.0 4000.0 4000.0 4000.0 4000.0 4000.0 4000.0 4000.0 4000.0 4000.0 4000.0 4000.0 4000.0 4000.0 4000.0 4000.0 4000.0 4000.0 4000.0 4000.0 4000.0 4000.0 4000.0 4000.0 4000.0 4000.0 4000.0 4000.0 4000.0 4000.0 4000.0 4000.0 4000.0 4000.0 4000.0 4000.0 4000.0 4000.0 4000.0 4000.0 4000.0 4000.0 4000.0 4000.0 4000.0 4000.0 4000.0 4000.0 4000.0 4000.0 4000.0 4000.0 4000.0 4000.0 4000.0 4000.0 4000.0 4000.0 4000.0 4000.0 4000.0 4000.0 4000.0 4000.0 4000.0 4000.0 4000.0 4000.0 4000.0 4000.0 4000.0 4000.0 4000.0 4000.0 4000.0 4000.0 4000.0 4000.0 4000.0 4000.0 4000.0 4000.0 4000.0 4000.0 4000.0 4000.0 4000.0 4000.0 4000.0 4000.0 4000.0 4000.0 4000.0 4000.0 4000.0 4000.0 4000.0 4000.0 4000.0 4000.0 4000.0 4000.0 4000.0 4000.0 4000.0 4000.0 4000.0 4000.0 4000.0 4000.0 4000.0 4000.0 4000.0 4000.0 4000.0 4000.0 4000.0 4000.0 4000.0 4000.0 4000.0 4000.0 4000.0 4000.0 4000.0 4000.0 4000.0 4000.0 4000.0 4000.0 4000.0 4000.0 4000.0 4000.0 4000.0 4000.0 4000.0 4000.0 4000.0 4000.0 4000.0 4000.0 4000.0 4000.0 4000.0 4000.0 4000.0 4000.0 4000.0 4000.0 4000.0 4000.0 4000.0 4000.0 4000.0 4000.0 4000.0 4000.0 4000.0 4000.0 4000.0 4000.0 4000.0 4000.0 4000.0 4000.0 4000.0 4000.0 4000.0 4000.0 4000.0 4000.0 4000.0 4000.0 4000.0 4000.0 4000.0 4000.0 4000.0 4000.0 4000.0 4000.0 4000.0 4000.0 4000.0 4000.0 4000.0 4000.0 4000.0 4000.0 4000.0 4000.0 4000.0 4000.0 4000.0 4000.0 4000.0 4000.0 4000.0 4000.0 4000.0 4000.0 4000.0 4000.0 4000.0 4000.0 4000.0 4000.0 4000.0 4000.0 4000.0 4000.0 4000.0 4000.0 4000.0 4000.0 4000.0 4000.0 4000.0 4000.0 4000.0 4000.0 4000.0 4000.0 4000.0 4000.0 4000.0 4000.0 4000.0 4000.0 4000.0 4000.0 4000.0 4000.0 4000.0 4000.0 4000.0 4000.0 4000.0 4000.0 4000.0 4000.0 4000.0 4000.0 4000.0 4000.0 4000.0 4000.0 4000.0 4000.0 4000.0 4000.0 4000.0 4000.0 4000.0 4000.0 4000.0 4000.0 4000.0 4000.0 4000.0 4000.0 4000.0 4000.0 4000.0 4000.0 4000.0 4000.0 4000.0 4000.0 4000.0 4000.0 4000.0 4000.0 4000.0 4000.0 4000.0 4000.0 4000.0 4000.0 4000.0 4000.0 4000.0 4000.0 4000.0 4000.0 4000.0 4000.0 4000.0 4000.0 4000.0 4000.0 4000.0 4000.0 4000.0 4000.0 4000.0 4000.0 4000.0 4000.0 4000.0 4000.0 4000.0 4000.0 4000.0 4000.0 4000.0 4000.0 4000.0 4000.0 4000.0 4000.0 4000.0 4000.0 4000.0 4000.0 4000.0 4000.0 4000.0 4000.0 4000.0 4000.0 4000.0 4000.0 4000.0 4000.0 4000.0 4000.0 4000.0 4000.0 4000.0 4000.0 4000.0 4000.0 4000.0 4000.0 4000.0 4000.0 4000.0 4000.0 4000.0 4000.0 4000.0 4000.0 4000.0 4000.0 4000.0 4000.0 4000.0 4000.0 4000.0 4000.0 4000.0 4000.0 4000.0 4000.0 4000.0 4000.0 4000.0 4000.0 4000.0 4000.0 4000.0 4000.0 4000.0 4000.0 4000.0 4000.0 4000.0 4000.0 4000.0 4000.0 4000.0 4000.0 4000.0 4000.0 4000.0 4000.0 4000.0 4000.0 4000.0 4000.0 4000.0 4000.0 4000.0 4000.0 4000.0 4000.0 4000.0 4000.0 4000.0 4000.0 4000.0 4000.0 4000.0 4000.0 4000.0 4000.0 4000.0 4000.0 4000.0 4000.0 4000.0 4000.0 4000.0 4000.0 4000.0 4000.0 4000.0 4000.0 4000.0 4000.0 4000.0 4000.0 4000.0 4000.0 4000.0 4000.0 4000.0 4000.0 4000.0 4000.0 4000.0 4000.0 4000.0 4000.0 4000.0 4000.0 4000.0 4000.0 4000.0 4000.0 4000.0 4000.0 4000.0 4000.0 4000.0 4000.0 4000.0 4000.0 4000.0 4000.0 4000.0 4000.0 4000.0 4000.0 4000.0 4000.0 4000.0 4000.0 4000.0 4000.0 4000.0 4000.0 4000.0 4000.0 4000.0 4000.0 4000.0 4000.0 4000.0 4000.0 4000.0 4000.0 4000.0 4000.0 4000.0 4000.0 4000.0 4000.0 4000.0 4000.0 4000.0 4000.0 4000.0 4000.0 4000.0 4000.0 4000.0 4000.0 4000.0 4000.0 4000.0 4000.0 4000.0 4000.0 4000.0 4000.0 4000.0 4000.0 4000.0 4000.0 4000.0 4000.0 4000.0 4000.0 4000.0 4000.0 4000.0 4000.0 4000.0 4000.0 4000.0 4000.0 4000.0 4000.0 4000.0 4000.0 4000.0 4000.0 4000.0 4000.0 4000.0 4000.0 4000.0 4000.0 4000.0 4000.0 4000.0 4000.0 4000.0 4000.0 4000.0 4000.0 4000.0 4000.0 4000.0 4000.0 4000.0 4000.0 4000.0 4000.0 4000.0 4000.0 4000.0 4000.0 4000.0 4000.0 4000.0 4000.0 4000.0 4000.0 4000.0 4000.0 4000.0 4000.0 4000.0 4000.0 4000.0 4000.0 4000.0 4000.0 4000.0 4000.0 4000.0 4000.0 4000.0 4000.0 4000.0 4000.0 4000.0 4000.0 4000.0 4000.0 4000.0 4000.0 4000.0 4000.0 4000.0 4000.0 4000.0 4000.0 4000.0 4000.0 4000.0 4000.0 4000.0 4000.0 4000.0 4000.0 4000.0 4000.0 4000.0 4000.0 4000.0 4000.0 4000.0 4000.0 4000.0 4000.0 4000.0 4000.0 4000.0 4000.0 4000.0 4000.0 4000.0 4000.0 4000.0 4000.0 4000.0 4000.0 4000.0 4000.0 4000.0 4000.0 4000.0 4000.0 4000.0 4000.0 4000.0 4000.0 4000.0 4000.0 4000.0 4000.0 4000.0 4000.0 4000.0 4000.0 4000.0 4000.0 4000.0 4000.0 4000.0 4000.0 4000.0 4000.0 4000.0 4000.0 4000.0 4000.0 4000.0 4000.0 4000.0 4000.0 4000.0 4000.0 4000.0 4000.0 4000.0 4000.0 4000.0 4000.0 4000.0 4000.0 4000.0 4000.0 4000.0 4000.0 4000.0 4000.0 4000.0 4000.0 4000.0 4000.0 4000.0 4000.0 4000.0 4000.0 4000.0 4000.0 4000.0 4000.0 4000.0 4000.0 4000.0 4000.0 4000.0 4000.0 4000.0 4000.0 4000.0 4000.0 4000.0 4000.0 4000.0 4000.0 4000.0 4000.0 4000.0 4000.0 4000.0 4000.0 4000.0 4000.0 4000.0 4000.0 4000.0 4000.0 4000.0 4000.0 4000.0 4000.0 4000.0 4000.0 4000.0 4000.0 4000.0 4000.0 4000.0 4000.0 4000.0 4000.0 4000.0 4000.0 4000.0 4000.0 4000.0 4000.0 4000.0 4000.0 4000.0 4000.0 4000.0 4000.0 4000.0 4000.0 4000.0 4000.0 4000.0 4000.0 4000.0 4000.0 4000.0 4000.0 4000.0 4000.0 4000.0 4000.0 4000.0 4000.0 4000.0 4000.0 4000.0 4000.0 4000.0 4000.0 4000.0 4000.0 4000.0 4000.0 4000.0 4000.0 4000.0 4000.0 4000.0 4000.0 4000.0 4000.0 4000.0 4000.0 4000.0 4000.0 4000.0 4000.0 4000.0 4000.0 4000.0 4000.0 4000.0 4000.0 4000.0 4000.0 4000.0 4000.0 4000.0 4000.0 4000.0 4000.0 4000.0 4000.0 4000.0 4000.0 4000.0 4000.0 4000.0 4000.0 4000.0 4000.0 4000.0 4000.0 4000.0 4000.0 4000.0 4000.0 4000.0 4000.0 4000.0 4000.0 4000.0 4000.0 4000.0 4000.0 4000.0 4000.0 4000.0 4000.0 4000.0 4000.0 4000.0 4000.0 4000.0 4000.0 4000.0 4000.0 4000.0 4000.0 4000.0 4000.0 4000.0 4000.0 4000.0 4000.0 4000.0 4000.0 4000.0 4000.0 4000.0 4000.0 4000.0 4000.0 4000.0 4000.0 4000.0 4000.0 4000.0 4000.0 4000.0 4000.0 4000.0 4000.0 4000.0 4000.0 4000.0 4000.0 4000.0 4000.0 4000.0 4000.0 4000.0 4000.0 4000.0 4000.0 4000.0 4000.0 4000.0 4000.0 4000.0 4000.0 4000.0 4000.0 4000.0 4000.0 4000.0 4000.0 4000.0 4000.0 4000.0 4000.0 4000.0 4000.0 4000.0 4000.0 4000.0 4000.0 4000.0 4000.0 4000.0 4000.0 4000.0 4000.0 4000.0 4000.0 4000.0 4000.0 4000.0 4000.0 4000.0 4000.0 4000.0 4000.0 4000.0 4000.0 4000.0 4000.0 4000.0 4000.0 4000.0 4000.0 4000.0 4000.0 4000.0 4000.0 4000.0 4000.0 4000.0 4000.0 4000.0 4000.0 4000.0 4000.0 4000.0 4000.0 4000.0 4000.0 4000.0 4000.0 4000.0 4000.0 4000.0 4000.0 4000.0 4000.0 4000.0 4000.0 4000.0 4000.0 4000.0 4000.0 4000.0 4000.0 4000.0 4000.0 4000.0 4000.0 4000.0 4000.0 4000.0 4000.0 4000.0 4000.0 4000.0 4000.0 4000.0 4000.0 4000.0 4000.0 4000.0 4000.0 4000.0 4000.0 4000.0 4000.0 4000.0 4000.0 4000.0 4000.0 4000.0 4000.0 4000.0 4000.0 4000.0 4000.0 4000.0 4000.0 4000.0 4000.0 4000.0 4000.0 4000.0 4000.0 4000.0 4000.0 4000.0 4000.0 4000.0 4000.0 4000.0 4000.0 4000.0 4000.0 4000.0 4000.0 4000.0 4000.0 4000.0 4000.0 4000.0 4000.0 4000.0 4000.0 4000.0 4000.0 4000.0 4000.0 4000.0 4000.0 4000.0 4000.0 4000.0 4000.0 4000.0 4000.0 4000.0 4000.0 4000.0 4000.0 4000.0 4000.0 4000.0 4000.0 4000.0 4000.0 4000.0 4000.0 4000.0 4000.0 4000.0 4000.0 4000.0 4000.0 4000.0 4000.0 4000.0 4000.0 4000.0 4000.0 4000.0 4000.0 4000.0 4000.0 4000.0 4000.0 4000.0 4000.0 4000.0 4000.0 4000.0 4000.0 4000.0 4000.0 4000.0 4000.0 4000.0 4000.0 4000.0 4000.0 4000.0 4000.0 4000.0 4000.0 4000.0 4000.0 4000.0 4000.0 4000.0 4000.0 4000.0 4000.0 4000.0 4000.0 4000.0 4000.0 4000.0 4000.0 4000.0 4000.0 4000.0 4000.0 4000.0 4000.0 4000.0 4000.0 4000.0 4000.0 4000.0 4000.0 4000.0 4000.0 4000.0 4000.0 4000.0 4000.0 4000.0 4000.0 4000.0 4000.0 4000.0 4000.0 4000.0 4000.0 4000.0 4000.0 4000.0 4000.0 4000.0 4000.0 4000.0 4000.0 4000.0 4000.0 4000.0 4000.0 4000.0 4000.0 4000.0 4000.0 4000.0 4000.0 4000.0 4000.0 4000.0 4000.0 4000.0 4000.0 4000.0 4000.0 4000.0 4000.0 4000.0 4000.0 4000.0 4000.0 4000.0 4000.0 4000.0 4000.0 4000.0 4000.0 4000.0 4000.0 4000.0 4000.0 4000.0 4000.0 4000.0 4000.0 4000.0 4000.0 4000.0 4000.0 4000.0 4000.0 4000.0 4000.0 4000.0 4000.0 4000.0 4000.0 4000.0 4000.0 4000.0 4000.0 4000.0 4000.0 4000.0 4000.0 4000.0 4000.0 4000.0 4000.0 4000.0 4000.0 4000.0 4000.0 4000.0 4000.0 4000.0 4000.0 4000.0 4000.0 4000.0 4000.0 4000.0 4000.0 4000.0 4000.0 4000.0 4000.0 4000.0 4000.0 4000.0 4000.0 4000.0 4000.0 4000.0 4000.0 4000.0 4000.0 4000.0 4000.0 4000.0 4000.0 4000.0 4000.0 4000.0 4000.0 4000.0 4000.0 4000.0 4000.0 4000.0 4000.0 4000.0 4000.0 4000.0 4000.0 4000.0 4000.0 4000.0 4000.0 4000.0 4000.0 4000.0 4000.0 4000.0 4000.0 4000.0 4000.0 4000.0 4000.0 4000.0 4000.0 4000.0 4000.0 4000.0 4000.0 4000.0 4000.0 4000.0 4000.0 4000.0 4000.0 4000.0 4000.0 4000.0 4000.0 4000.0 4000.0 4000.0 4000.0 4000.0 4000.0 4000.0 4000.0 4000.0 4000.0 4000.0 4000.0 4000.0 4000.0 4000.0 4000.0 4000.0 4000.0 4000.0 4000.0 4000.0 4000.0 4000.0 4000.0 4000.0 4000.0 4000.0 4000.0 4000.0 4000.0 4000.0 4000.0 4000.0 4000.0 4000.0 4000.0 4000.0 4000.0 4000.0 4000.0 4000.0 4000.0 4000.0 4000.0 4000.0 4000.0 4000.0 4000.0 4000.0 4000.0 4000.0 4000.0 4000.0 4000.0 4000.0 4000.0 4000.0 4000.0 4000.0 4000.0 4000.0 4000.0 4000.0 4000.0 4000.0 4000.0 4000.0 4000.0 4000.0 4000.0 4000.0 4000.0 4000.0 4000.0 4000.0 4000.0 4000.0 4000.0 4000.0 4000.0 4000.0 4000.0 4000.0 4000.0 4000.0 4000.0 4000.0 4000.0 4000.0 4000.0 4000.0 4000.0 4000.0 4000.0 4000.0 4000.0 4000.0 4000.0 4000.0 4000.0 4000.0 4000.0 4000.0 4000.0 4000.0 4000.0 4000.0 4000.0 4000.0 4000.0 4000.0 4000.0 4000.0 4000.0 4000.0 4000.0 4000.0 4000.0 4000.0 4000.0 4000.0 4000.0 4000.0 4000.0 4000.0 4000.0 4000.0 4000.0 4000.0 4000.0 4000.0 4000.0 4000.0 4000.0 4000.0 4000.0 4000.0 4000.0 4000.0 4000.0 4000.0 4000.0 4000.0 4000.0 4000.0 4000.0 4000.0 4000.0 4000.0 4000.0 4000.0 4000.0 4000.0 4000.0 4000.0 4000.0 4000.0 4000.0 4000.0 4000.0 4000.0 4000.0 4000.0 4000.0 4000.0 4000.0 4000.0 4000.0 4000.0 4000.0 4000.0 4000.0 4000.0 4000.0 4000.0 4000.0 4000.0 4000.0 4000.0 4000.0 4000.0 4000.0 4000.0 4000.0 4000.0 4000.0 4000.0 4000.0 4000.0 4000.0 4000.0 4000.0 4000.0 4000.0 4000.0 4000.0 4000.0 4000.0 4000.0 4000.0 4000.0 4000.0 4000.0 4000.0 4000.0 4000.0 4000.0 4000.0 4000.0 4000.0 4000.0 4000.0 4000.0 4000.0 4000.0 4000.0 4000.0 4000.0 4000.0 4000.0 4000.0 4000.0 4000.0 4000.0 4000.0 4000.0 4000.0 4000.0 4000.0 4000.0 4000.0 4000.0 4000.0 4000.0 4000.0 4000.0 4000.0 4000.0 4000.0 4000.0 4000.0 4000.0 4000.0 4000.0 4000.0 4000.0 4000.0 4000.0 4000.0 4000.0 4000.0 4000.0 4000.0 4000.0 4000.0 4000.0 4000.0 4000.0 4000.0 4000.0 4000.0 4000.0 4000.0 4000.0 4000.0 4000.0 4000.0 4000.0 4000.0 4000.0 4000.0 4000.0 4000.0 4000.0 4000.0 4000.0 4000.0 4000.0 4000.0 4000.0 4000.0 4000.0 4000.0 4000.0 4000.0 4000.0 4000.0 4000.0 4000.0 4000.0 4000.0 4000.0 4000.0 4000.0 4000.0 4000.0 4000.0 4000.0 4000.0 4000.0 4000.0 4000.0 4000.0 4000.0 4000.0 4000.0 4000.0 4000.0 4000.0 4000.0 4000.0 4000.0 4000.0 4000.0 4000.0 4000.0 4000.0 4000.0 4000.0 4000.0 4000.0 4000.0 4000.0 4000.0 4000.0 4000.0 4000.0 4000.0 4000.0 4000.0 4000.0 4000.0 4000.0 4000.0 4000.0 4000.0 4000.0 4000.0 4000.0 4000.0 4000.0 4000.0 4000.0 4000.0 4000.0 4000.0 4000.0 4000.0 4000.0 4000.0 4000.0 4000.0 4000.0 4000.0 4000.0 4000.0 4000.0 4000.0 4000.0 4000.0 4000.0 4000.0 4000.0 4000.0 4000.0 4000.0 4000.0 4000.0 4000.0 4000.0 4000.0 4000.0 4000.0 4000.0 4000.0 4000.0 4000.0 4000.0 4000.0 4000.0 4000.0 4000.0 4000.0 4000.0 4000.0 4000.0 4000.0 4000.0 4000.0 4000.0 4000.0 4000.0 4000.0 4000.0 4000.0 4000.0 4000.0 4000.0 4000.0 4000.0 4000.0 4000.0 4000.0 4000.0 4000.0 4000.0 4000.0 4000.0 4000.0 4000.0 4000.0 4000.0 4000.0 4000.0 4000.0 4000.0 4000.0 4000.0 4000.0 4000.0 4000.0 4000.0 4000.0 4000.0 4000.0 4000.0 4000.0 4000.0 4000.0 4000.0 4000.0 4000.0 4000.0 4000.0 4000.0 4000.0 4000.0 4000.0 4000.0 4000.0 4000.0 4000.0 4000.0 4000.0 4000.0 4000.0 4000.0 4000.0 4000.0 4000.0 4000.0 4000.0 4000.0 4000.0 4000.0 4000.0 4000.0 4000.0 4000.0 4000.0 4000.0 4000.0 4000.0 4000.0 4000.0 4000.0 4000.0 4000.0 4000.0 4000.0 4000.0 4000.0 4000.0 4000.0 4000.0 4000.0 4000.0 4000.0 4000.0 4000.0 4000.0 4000.0 4000.0 4000.0 4000.0 4000.0 4000.0 4000.0 4000.0 4000.0 4000.0 4000.0 4000.0 4000.0 4000.0 4000.0 4000.0 4000.0 4000.0 4000.0 4000.0 4000.0 4000.0 4000.0 4000.0 4000.0 4000.0 4000.0 4000.0 4000.0 4000.0 4000.0 4000.0 4000.0 4000.0 4000.0 4000.0 4000.0 4000.0 4000.0 4000.0 4000.0 4000.0 4000.0 4000.0 4000.0 4000.0 4000.0 4000.0 4000.0 4000.0 4000.0 4000.0 4000.0 4000.0 4000.0 4000.0 4000.0 4000.0 4000.0 4000.0 4000.0 4000.0 4000.0 4000.0 4000.0 4000.0 4000.0 4000.0 4000.0 4000.0 4000.0 4000.0 4000.0 4000.0 4000.0 4000.0 4000.0 4000.0 4000.0 4000.0 4000.0 4000.0 4000.0 4000.0 4000.0 4000.0 4000.0 4000.0 4000.0 4000.0 4000.0 4000.0 4000.0 4000.0 4000.0 4000.0 4000.0 4000.0 4000.0 4000.0 4000.0 4000.0 4000.0 4000.0 4000.0 4000.0 4000.0 4000.0 4000.0 4000.0 4000.0 4000.0 4000.0 4000.0 4000.0 4000.0 4000.0 4000.0 4000.0 4000.0 4000.0 4000.0 4000.0 4000.0 4000.0 4000.0 4000.0 4000.0 4000.0 4000.0 4000.0 4000.0 4000.0 4000.0 4000.0 4000.0 4000.0 4000.0 4000.0 4000.0 4000.0 4000.0 4000.0 4000.0 4000.0 4000.0 4000.0 4000.0 4000.0 4000.0 4000.0 4000.0 4000.0 4000.0 4000.0 4000.0 4000.0 4000.0 4000.0 4000.0 4000.0 4000.0 4000.0 4000.0 4000.0 4000.0 4000.0 4000.0 4000.0 4000.0 4000.0 4000.0 4000.0 4000.0 4000.0 4000.0 4000.0 4000.0 4000.0 4000.0 4000.0 4000.0 4000.0 4000.0 4000.0 4000.0 4000.0 4000.0 4000.0 4000.0 4000.0 4000.0 4000.0 4000.0 4000.0 4000.0 4000.0 4000.0 4000.0 4000.0 4000.0 4000.0 4000.0 4000.0 4000.0 4000.0 4000.0 4000.0 4000.0 4000.0 4000.0 4000.0 4000.0 4000.0 4000.0 4000.0 4000.0 4000.0 4000.0 4000.0 4000.0 4000.0 4000.0 4000.0 4000.0 4000.0 4000.0 4000.0 4000.0 4000.0 4000.0 4000.0 4000.0 4000.0 4000.0 4000.0 4000.0 4000.0 4000.0 4000.0 4000.0 4000.0 4000.0 4000.0 4000.0 4000.0 4000.0 4000.0 4000.0 4000.0 4000.0 4000.0 4000.0 4000.0 4000.0 4000.0 4000.0 4000.0 4000.0 4000.0 4000.0 4000.0 4000.0 4000.0 4000.0 4000.0 4000.0 4000.0 4000.0 4000.0 4000.0 4000.0 4000.0 4000.0 4000.0 4000.0 4000.0 4000.0 4000.0 4000.0 4000.0 4000.0 4000.0 4000.0 4000.0 4000.0 4000.0 4000.0 4000.0 4000.0 4000.0 4000.0 4000.0 4000.0 4000.0 4000.0 4000.0 4000.0 4000.0 4000.0 4000.0 4000.0 4000.0 4000.0 4000.0 4000.0 4000.0 4000.0 4000.0 4000.0 4000.0 4000.0 4000.0 4000.0 4000.0 4000.0 4000.0 4000.0 4000.0 4000.0 4000.0 4000.0 4000.0 4000.0 4000.0 4000.0 4000.0 4000.0 4000.0 4000.0 4000.0 4000.0 4000.0 4000.0 4000.0 4000.0 4000.0 4000.0 4000.0 4000.0 4000.0 4000.0 4000.0 4000.0 4000.0 4000.0 4000.0 4000.0 4000.0 4000.0 4000.0 4000.0 4000.0 4000.0 4000.0 4000.0 4000.0 4000.0 4000.0 4000.0 4000.0 4000.0 4000.0 4000.0 4000.0 4000.0 4000.0 4000.0 4000.0 4000.0 4000.0 4000.0 4000.0 4000.0 4000.0 4000.0 4000.0 4000.0 4000.0 4000.0 4000.0 4000.0 4000.0 4000.0 4000.0 4000.0 4000.0 4000.0 4000.0 4000.0 4000.0 4000.0 4000.0 4000.0 4000.0 4000.0 4000.0 4000.0 4000.0 4000.0 4000.0 4000.0 4000.0 4000.0 4000.0 4000.0 4000.0 4000.0 4000.0 4000.0 4000.0 4000.0 4000.0 4000.0 4000.0 4000.0 4000.0 4000.0 4000.0 4000.0 4000.0 4000.0 4000.0 4000.0 4000.0 4000.0 4000.0 4000.0 4000.0 4000.0 4000.0 4000.0 4000.0 4000.0 4000.0 4000.0 4000.0 4000.0 4000.0 4000.0 4000.0 4000.0 4000.0 4000.0 4000.0 4000.0 4000.0 4000.0 4000.0 4000.0 4000.0 4000.0 4000.0 4000.0 4000.0 4000.0 4000.0 4000.0 4000.0 4000.0 4000.0 4000.0 4000.0 4000.0 4000.0 4000.0 4000.0 4000.0 4000.0 4000.0 4000.0 4000.0 4000.0 4000.0 4000.0 4000.0 4000.0 4000.0 4000.0 4000.0 4000.0 4000.0 4000.0 4000.0 4000.0 4000.0 4000.0 4000.0 4000.0 4000.0 4000.0 4000.0 4000.0 4000.0 4000.0 4000.0 4000.0 4000.0 4000.0 4000.0 4000.0 4000.0 4000.0 4000.0 4000.0 4000.0 4000.0 4000.0 4000.0 4000.0 4000.0 4000.0 4000.0 4000.0 4000.0 4000.0 4000.0 4000.0 4000.0 4000.0 4000.0 4000.0 4000.0 4000.0 4000.0 4000.0 4000.0 4000.0 4000.0 4000.0 4000.0 4000.0 4000.0 4000.0 4000.0 4000.0 4000.0 4000.0 4000.0 4000.0 4000.0 4000.0 4000.0 4000.0 4000.0 4000.0 4000.0 4000.0 4000.0 4000.0 4000.0 4000.0 4000.0 4000.0 4000.0 4000.0 4000.0 4000.0 4000.0 4000.0 4000.0 4000.0 4000.0 4000.0 4000.0 4000.0 4000.0 4000.0 4000.0 4000.0 4000.0 4000.0 4000.0 4000.0 4000.0 4000.0 4000.0 4000.0 4000.0 4000.0 4000.0 4000.0 4000.0 4000.0 4000.0 4000.0 4000.0 4000.0 4000.0 4000.0 4000.0 4000.0 4000.0 4000.0 4000.0 4000.0 4000.0 4000.0 4000.0 4000.0 4000.0 4000.0 4000.0 4000.0 4000.0 4000.0 4000.0 4000.0 4000.0 4000.0 4000.0 4000.0 4000.0 4000.0 4000.0 4000.0 4000.0 4000.0 4000.0 4000.0 4000.0 4000.0 4000.0 4000.0 4000.0 4000.0 4000.0 4000.0 4000.0 4000.0 4000.0 4000.0 4000.0 4000.0 4000.0 4000.0 4000.0 4000.0 4000.0 4000.0 4000.0 4000.0 4000.0 4000.0 4000.0 4000.0 4000.0 4000.0 4000.0 4000.0 4000.0 4000.0 4000.0 4000.0 4000.0 4000.0 4000.0 4000.0 4000.0 4000.0 4000.0 4000.0 4000.0 4000.0 4000.0 4000.0 4000.0 4000.0 4000.0 4000.0 4000.0 4000.0 4000.0 4000.0 4000.0 4000.0 4000.0 4000.0 4000.0 4000.0 4000.0 4000.0 4000.0 4000.0 4000.0 4000.0 4000.0 4000.0 4000.0 4000.0 4000.0 4000.0 4000.0 4000.0 4000.0 4000.0 4000.0 4000.0 4000.0 4000.0 4000.0 4000.0 4000.0 4000.0 4000.0 4000.0 4000.0 4000.0 4000.0 4000.0 4000.0 4000.0 4000.0 4000.0 4000.0 4000.0 4000.0 4000.0 4000.0 4000.0 4000.0 4000.0 4000.0 4000.0 4000.0 4000.0 4000.0 4000.0 4000.0 4000.0 4000.0 4000.0 4000.0 4000.0 4000.0 4000.0 4000.0 4000.0 4000.0 4000.0 4000.0 4000.0 4000.0 4000.0 4000.0 4000.0 4000.0 4000.0 4000.0 4000.0 4000.0 4000.0 4000.0 4000.0 4000.0 4000.0 4000.0 4000.0 4000.0 4000.0 4000.0 4000.0 4000.0 4000.0 4000.0 4000.0 4000.0 4000.0 4000.0 4000.0 4000.0 4000.0 4000.0 4000.0 4000.0 4000.0 4000.0 4000.0 4000.0 4000.0 4000.0 4000.0 4000.0 4000.0 4000.0 4000.0 4000.0 4000.0 4000.0 4000.0 4000.0 4000.0 4000.0 4000.0 4000.0 4000.0 4000.0 4000.0 4000.0 4000.0 4000.0 4000.0 4000.0 4000.0 4000.0 4000.0 4000.0 4000.0 4000.0 4000.0 4000.0 4000.0 4000.0 4000.0 4000.0 4000.0 4000.0 4000.0 4000.0 4000.0 4000.0 4000.0 4000.0 4000.0 4000.0 4000.0 4000.0 4000.0 4000.0 4000.0 4000.0 4000.0 4000.0 4000.0 4000.0 4000.0 4000.0 4000.0 4000.0 4000.0 4000.0 4000.0 4000.0 4000.0 4000.0 4000.0 4000.0 4000.0 4000.0 4000.0 4000.0 4000.0 4000.0 4000.0 4000.0 4000.0 4000.0 4000.0 4000.0 4000.0 4000.0 4000.0 4000.0 4000.0 4000.0 4000.0 4000.0 4000.0 4000.0 4000.0 4000.0 4000.0 4000.0 4000.0 4000.0 4000.0 4000.0 4000.0 4000.0 4000.0 4000.0 4000.0 4000.0 4000.0 4000.0 4000.0 4000.0 4000.0 4000.0 4000.0 4000.0 4000.0 4000.0 4000.0 4000.0 4000.0 4000.0 4000.0 4000.0 4000.0 4000.0 4000.0 4000.0 4000.0 4000.0 4000.0 4000.0 4000.0 4000.0 4000.0 4000.0 4000.0 4000.0 4000.0 4000.0 4000.0 4000.0 4000.0 4000.0 4000.0 4000.0 4000.0 4000.0 4000.0 4000.0 4000.0 4000.0 4000.0 4000.0 4000.0 4000.0 4000.0 4000.0 4000.0 4000.0 4000.0 4000.0 4000.0 4000.0 4000.0 4000.0 4000.0 4000.0 4000.0 4000.0 4000.0 4000.0 4000.0 4000.0 4000.0 4000.0 4000.0 4000.0 4000.0 4000.0 4000.0 4000.0 4000.0 4000.0 4000.0 4000.0 4000.0 4000.0 4000.0 4000.0 4000.0 4000.0 4000.0 4000.0 4000.0 4000.0 4000.0 4000.0 4000.0 4000.0 4000.0 4000.0 4000.0 4000.0 4000.0 4000.0 4000.0 4000.0 4000.0 4000.0 4000.0 4000.0 4000.0 4000.0 4000.0 4000.0 4000.0 4000.0 4000.0 4000.0 4000.0 4000.0 4000.0 4000.0 4000.0 4000.0 4000.0 4000.0 4000.0 4000.0 4000.0 4000.0 4000.0 4000.0 4000.0 4000.0 4000.0 4000.0 4000.0 4000.0 4000.0 4000.0 4000.0 4000.0 4000.0 4000.0 4000.0 4000.0 4000.0 4000.0 4000.0 4000.0 4000.0 4000.0 4000.0 4000.0 4000.0 4000.0 4000.0 4000.0 4000.0 4000.0 4000.0 4000.0 4000.0 4000.0 4000.0 4000.0 4000.0 4000.0 4000.0 4000.0 4000.0 4000.0 4000.0 4000.0 4000.0 4000.0 4000.0 4000.0 4000.0 4000.0 4000.0 4000.0 4000.0 4000.0 4000.0 4000.0 4000.0 4000.0 4000.0 4000.0 4000.0 4000.0 4000.0 4000.0 4000.0 4000.0 4000.0 4000.0 4000.0 4000.0 4000.0 4000.0 4000.0 4000.0 4000.0 4000.0 4000.0 4000.0 4000.0 4000.0 4000.0 4000.0 4000.0 4000.0 4000.0 4000.0 4000.0 4000.0 4000.0 4000.0 4000.0 4000.0 4000.0 4000.0 4000.0 4000.0 4000.0 4000.0 4000.0 4000.0 4000.0 4000.0 4000.0 4000.0 4000.0 4000.0 4000.0 4000.0 4000.0 4000.0 4000.0 4000.0 4000.0 4000.0 4000.0 4000.0 4000.0 4000.0 4000.0 4000.0 4000.0 4000.0 4000.0 4000.0 4000.0 4000.0 4000.0 4000.0 4000.0 4000.0 4000.0 4000.0 4000.0 4000.0 4000.0 4000.0 4000.0 4000.0 4000.0 4000.0 4000.0 4000.0 4000.0 4000.0 4000.0 4000.0 4000.0 4000.0 4000.0 4000.0 4000.0 4000.0 4000.0 4000.0 4000.0 4000.0 4000.0 4000.0 4000.0 4000.0 4000.0 4000.0 4000.0 4000.0 4000.0 4000.0 4000.0 4000.0 4000.0 4000.0 4000.0 4000.0 4000.0 4000.0 4000.0 4000.0 4000.0 4000.0 4000.0 4000.0 4000.0 4000.0 4000.0 4000.0 4000.0 4000.0 4000.0 4000.0 4000.0 4000.0 4000.0 4000.0 4000.0 4000.0 4000.0 4000.0 4000.0 4000.0 4000.0 4000.0 4000.0 4000.0 4000.0 4000.0 4000.0 4000.0 4000.0 4000.0 4000.0 4000.0 4000.0 4000.0 4000.0 4000.0 4000.0 4000.0 4000.0 4000.0 4000.0 4000.0 4000.0 4000.0 4000.0 4000.0 4000.0 4000.0 4000.0 4000.0 4000.0 4000.0 4000.0 4000.0 4000.0 4000.0 4000.0 4000.0 4000.0 4000.0 4000.0 4000.0 4000.0 4000.0 4000.0 4000.0 4000.0 4000.0 4000.0 4000.0 4000.0 4000.0 4000.0 4000.0 4000.0 4000.0 4000.0 4000.0 4000.0 4000.0 4000.0 4000.0 4000.0 4000.0 4000.0 4000.0 4000.0 4000.0 4000.0 4000.0 4000.0 4000.0 4000.0 4000.0 4000.0 4000.0 4000.0 4000.0 4000.0 4000.0 4000.0 4000.0 4000.0 4000.0 4000.0 4000.0 4000.0 4000.0 4000.0 4000.0 4000.0 4000.0 4000.0 4000.0 4000.0 4000.0 4000.0 4000.0 4000.0 4000.0 4000.0 4000.0 4000.0 4000.0 4000.0 4000.0 4000.0 4000.0 4000.0 4000.0 4000.0 4000.0 4000.0 4000.0 4000.0 4000.0 4000.0 4000.0 4000.0 4000.0 4000.0 4000.0 4000.0 4000.0 4000.0 4000.0 4000.0 4000.0 4000.0 4000.0 4000.0 4000.0 4000.0 4000.0 4000.0 4000.0 4000.0 4000.0 4000.0 4000.0 4000.0 4000.0 4000.0 4000.0 4000.0 4000.0 4000.0 4000.0 4000.0 4000.0 4000.0 4000.0 4000.0 4000.0 4000.0 4000.0 4000.0 4000.0 4000.0 4000.0 4000.0 4000.0 4000.0 4000.0 4000.0 4000.0 4000.0 4000.0 4000.0 4000.0 4000.0 4000.0 4000.0 4000.0 4000.0 4000.0 4000.0 4000.0 4000.0 4000.0 4000.0 4000.0 4000.0 4000.0 4000.0 4000.0 4000.0 4000.0 4000.0 4000.0 4000.0 4000.0 4000.0 4000.0 4000.0 4000.0 4000.0 4000.0 4000.0 4000.0 4000.0 4000.0 4000.0 4000.0 4000.0 4000.0 4000.0 4000.0 4000.0 4000.0 4000.0 4000.0 4000.0 4000.0 4000.0 4000.0 4000.0 4000.0 4000.0 4000.0 4000.0 4000.0 4000.0 4000.0 4000.0 4000.0 4000.0 4000.0 4000.0 4000.0 4000.0 4000.0 4000.0 4000.0 4000.0 4000.0 4000.0 4000.0 4000.0 4000.0 4000.0 4000.0 4000.0 4000.0 4000.0 4000.0 4000.0 4000.0 4000.0 4000.0 4000.0 4000.0 4000.0 4000.0 4000.0 4000.0 4000.0 4000.0 4000.0 4000.0 4000.0 4000.0 4000.0 4000.0 4000.0 4000.0 4000.0 4000.0 4000.0 4000.0 4000.0 4000.0 4000.0 4000.0 4000.0 4000.0 4000.0 4000.0 4000.0 4000.0 4000.0 4000.0 4000.0 4000.0 4000.0 4000.0 4000.0 4000.0 4000.0 4000.0 4000.0 4000.0 4000.0 4000.0 4000.0 4000.0 4000.0 4000.0 4000.0 4000.0 4000.0 4000.0 4000.0 4000.0 4000.0 4000.0 4000.0 4000.0 4000.0 4000.0 4000.0 4000.0 4000.0 4000.0 4000.0 4000.0 4000.0 4000.0 4000.0 4000.0 4000.0 4000.0 4000.0 4000.0 4000.0 4000.0 4000.0 4000.0 4000.0 4000.0 4000.0 4000.0 4000.0 4000.0 4000.0 4000.0 4000.0 4000.0 4000.0 4000.0 4000.0 4000.0 4000.0 4000.0 4000.0 4000.0 4000.0 4000.0 4000.0 4000.0 4000.0 4000.0 4000.0 4000.0 4000.0 4000.0 4000.0 4000.0 4000.0 4000.0 4000.0 4000.0 4000.0 4000.0 4000.0 4000.0 4000.0 4000.0 4000.0 4000.0 4000.0 4000.0 4000.0 4000.0 4000.0 4000.0 4000.0 4000.0 4000.0 4000.0 4000.0 4000.0 4000.0 4000.0 4000.0 4000.0 4000.0 4000.0 4000.0 4000.0 4000.0 4000.0 4000.0 4000.0 4000.0 4000.0 4000.0 4000.0 4000.0 4000.0 4000.0 4000.0 4000.0 4000.0 4000.0 4000.0 4000.0 4000.0 4000.0 4000.0 4000.0 4000.0 4000.0 4000.0 4000.0 4000.0 4000.0 4000.0 4000.0 4000.0 4000.0 4000.0 4000.0 4000.0 4000.0 4000.0 4000.0 4000.0 4000.0 4000.0 4000.0 4000.0 4000.0 4000.0 4000.0 4000.0 4000.0 4000.0 4000.0 4000.0 4000.0 4000.0 4000.0 4000.0 4000.0 4000.0 4000.0 4000.0 4000.0 4000.0 4000.0 4000.0 4000.0 4000.0 4000.0 4000.0 4000.0 4000.0 4000.0 4000.0 4000.0 4000.0 4000.0 4000.0 4000.0 4000.0 4000.0 4000.0 4000.0 4000.0 4000.0 4000.0 4000.0 4000.0 4000.0 4000.0 4000.0 4000.0 4000.0 4000.0 4000.0 4000.0 4000.0 4000.0 4000.0 4000.0 4000.0 4000.0 4000.0 4000.0 4000.0 4000.0 4000.0 4000.0 4000.0 4000.0 4000.0 4000.0 4000.0 4000.0 4000.0 4000.0 4000.0 4000.0 4000.0 4000.0 4000.0 4000.0 4000.0 4000.0 4000.0 4000.0 4000.0 4000.0 4000.0 4000.0 4000.0 4000.0 4000.0 4000.0 4000.0 4000.0 4000.0 4000.0 4000.0 4000.0 4000.0 4000.0 4000.0 4000.0 4000.0 4000.0 4000.0 4000.0 4000.0 4000.0 4000.0 4000.0 4000.0 4000.0 4000.0 4000.0 4000.0 4000.0 4000.0 4000.0 4000.0 4000.0 4000.0 4000.0 4000.0 4000.0 4000.0 4000.0 4000.0 4000.0 4000.0 4000.0 4000.0 4000.0 4000.0 4000.0 4000.0 4000.0 4000.0 4000.0 4000.0 4000.0 4000.0 4000.0 4000.0 4000.0 4000.0 4000.0 4000.0 4000.0 4000.0 4000.0 4000.0 4000.0 4000.0 4000.0 4000.0 4000.0 4000.0 4000.0 4000.0 4000.0 4000.0 4000.0 4000.0 4000.0 4000.0 4000.0 4000.0 4000.0 4000.0 4000.0 4000.0 4000.0 4000.0 4000.0 4000.0 4000.0 4000.0 4000.0 4000.0 4000.0 4000.0 4000.0 4000.0 4000.0 4000.0 4000.0 4000.0 4000.0 4000.0 4000.0 4000.0 4000.0 4000.0 4000.0 4000.0 4000.0 4000.0 4000.0 4000.0 4000.0 4000.0 4000.0 4000.0 4000.0 4000.0 4000.0 4000.0 4000.0 4000.0 4000.0 4000.0 4000.0 4000.0 4000.0 4000.0 4000.0 4000.0 4000.0 4000.0 4000.0 4000.0 4000.0 4000.0 4000.0 4000.0 4000.0 4000.0 4000.0 4000.0 4000.0 4000.0 4000.0 4000.0 4000.0 4000.0 4000.0 4000.0 4000.0 4000.0 4000.0 4000.0 4000.0 4000.0 4000.0 4000.0 4000.0 4000.0 4000.0 4000.0 4000.0 4000.0 4000.0 4000.0 SCALARS Mass float 1
LOOKUP_TABLE default
11309700000.0 11309700000.0 11309700000.0 11309700000.0 11309700000.0 11309700000.0 11309700000.0 11309700000.0 11309700000.0 11309700000.0 11309700000.0 11309700000.0 11309700000.0 11309700000.0 11309700000.0 11309700000.0 11309700000.0 11309700000.0 11309700000.0 11309700000.0 11309700000.0 11309700000.0 11309700000.0 11309700000.0 11309700000.0 11309700000.0 11309700000.0 11309700000.0 11309700000.0 11309700000.0 11309700000.0 11309700000.0 11309700000.0 11309700000.0 11309700000.0 11309700000.0 11309700000.0 11309700000.0 11309700000.0 11309700000.0 11309700000.0 11309700000.0 11309700000.0 11309700000.0 11309700000.0 11309700000.0 11309700000.0 11309700000.0 11309700000.0 11309700000.0 11309700000.0 11309700000.0 11309700000.0 11309700000.0 11309700000.0 11309700000.0 11309700000.0 11309700000.0 11309700000.0 11309700000.0 11309700000.0 11309700000.0 11309700000.0 11309700000.0 11309700000.0 11309700000.0 11309700000.0 11309700000.0 11309700000.0 11309700000.0 11309700000.0 11309700000.0 11309700000.0 11309700000.0 11309700000.0 11309700000.0 11309700000.0 11309700000.0 11309700000.0 11309700000.0 11309700000.0 11309700000.0 11309700000.0 11309700000.0 11309700000.0 11309700000.0 11309700000.0 11309700000.0 11309700000.0 11309700000.0 11309700000.0 11309700000.0 11309700000.0 11309700000.0 11309700000.0 11309700000.0 11309700000.0 11309700000.0 11309700000.0 11309700000.0 11309700000.0 11309700000.0 11309700000.0 11309700000.0 11309700000.0 11309700000.0 11309700000.0 11309700000.0 11309700000.0 11309700000.0 11309700000.0 11309700000.0 11309700000.0 11309700000.0 11309700000.0 11309700000.0 11309700000.0 11309700000.0 11309700000.0 11309700000.0 11309700000.0 11309700000.0 11309700000.0 11309700000.0 11309700000.0 11309700000.0 11309700000.0 11309700000.0 11309700000.0 11309700000.0 11309700000.0 11309700000.0 11309700000.0 11309700000.0 11309700000.0 11309700000.0 11309700000.0 11309700000.0 11309700000.0 11309700000.0 11309700000.0 11309700000.0 11309700000.0 11309700000.0 11309700000.0 11309700000.0 11309700000.0 11309700000.0 11309700000.0 11309700000.0 11309700000.0 11309700000.0 11309700000.0 11309700000.0 11309700000.0 11309700000.0 11309700000.0 11309700000.0 11309700000.0 11309700000.0 11309700000.0 11309700000.0 11309700000.0 11309700000.0 11309700000.0 11309700000.0 11309700000.0 11309700000.0 11309700000.0 11309700000.0 11309700000.0 11309700000.0 11309700000.0 11309700000.0 11309700000.0 11309700000.0 11309700000.0 11309700000.0 11309700000.0 11309700000.0 11309700000.0 11309700000.0 11309700000.0 11309700000.0 11309700000.0 11309700000.0 11309700000.0 11309700000.0 11309700000.0 11309700000.0 11309700000.0 11309700000.0 11309700000.0 11309700000.0 11309700000.0 11309700000.0 11309700000.0 11309700000.0 11309700000.0 11309700000.0 11309700000.0 11309700000.0 11309700000.0 11309700000.0 11309700000.0 11309700000.0 11309700000.0 11309700000.0 11309700000.0 11309700000.0 11309700000.0 11309700000.0 11309700000.0 11309700000.0 11309700000.0 11309700000.0 11309700000.0 11309700000.0 11309700000.0 11309700000.0 11309700000.0 11309700000.0 11309700000.0 11309700000.0 11309700000.0 11309700000.0 11309700000.0 11309700000.0 11309700000.0 11309700000.0 11309700000.0 11309700000.0 11309700000.0 11309700000.0 11309700000.0 11309700000.0 11309700000.0 11309700000.0 11309700000.0 11309700000.0 11309700000.0 11309700000.0 11309700000.0 11309700000.0 11309700000.0 11309700000.0 11309700000.0 11309700000.0 11309700000.0 11309700000.0 11309700000.0 11309700000.0 11309700000.0 11309700000.0 11309700000.0 11309700000.0 11309700000.0 11309700000.0 11309700000.0 11309700000.0 11309700000.0 11309700000.0 11309700000.0 11309700000.0 11309700000.0 11309700000.0 11309700000.0 11309700000.0 11309700000.0 11309700000.0 11309700000.0 11309700000.0 11309700000.0 11309700000.0 11309700000.0 11309700000.0 11309700000.0 11309700000.0 11309700000.0 11309700000.0 11309700000.0 11309700000.0 11309700000.0 11309700000.0 11309700000.0 11309700000.0 11309700000.0 11309700000.0 11309700000.0 11309700000.0 11309700000.0 11309700000.0 11309700000.0 11309700000.0 11309700000.0 11309700000.0 11309700000.0 11309700000.0 11309700000.0 11309700000.0 11309700000.0 11309700000.0 11309700000.0 11309700000.0 11309700000.0 11309700000.0 11309700000.0 11309700000.0 11309700000.0 11309700000.0 11309700000.0 11309700000.0 11309700000.0 11309700000.0 11309700000.0 11309700000.0 11309700000.0 11309700000.0 11309700000.0 11309700000.0 11309700000.0 11309700000.0 11309700000.0 11309700000.0 11309700000.0 11309700000.0 11309700000.0 11309700000.0 11309700000.0 11309700000.0 11309700000.0 11309700000.0 11309700000.0 11309700000.0 11309700000.0 11309700000.0 11309700000.0 11309700000.0 11309700000.0 11309700000.0 11309700000.0 11309700000.0 11309700000.0 11309700000.0 11309700000.0 11309700000.0 11309700000.0 11309700000.0 11309700000.0 11309700000.0 11309700000.0 11309700000.0 11309700000.0 11309700000.0 11309700000.0 11309700000.0 11309700000.0 11309700000.0 11309700000.0 11309700000.0 11309700000.0 11309700000.0 11309700000.0 11309700000.0 11309700000.0 11309700000.0 11309700000.0 11309700000.0 11309700000.0 11309700000.0 11309700000.0 11309700000.0 11309700000.0 11309700000.0 11309700000.0 11309700000.0 11309700000.0 11309700000.0 11309700000.0 11309700000.0 11309700000.0 11309700000.0 11309700000.0 11309700000.0 11309700000.0 11309700000.0 11309700000.0 11309700000.0 11309700000.0 11309700000.0 11309700000.0 11309700000.0 11309700000.0 11309700000.0 11309700000.0 11309700000.0 11309700000.0 11309700000.0 11309700000.0 11309700000.0 11309700000.0 11309700000.0 11309700000.0 11309700000.0 11309700000.0 11309700000.0 11309700000.0 11309700000.0 11309700000.0 11309700000.0 11309700000.0 11309700000.0 11309700000.0 11309700000.0 11309700000.0 11309700000.0 11309700000.0 11309700000.0 11309700000.0 11309700000.0 11309700000.0 11309700000.0 11309700000.0 11309700000.0 11309700000.0 11309700000.0 11309700000.0 11309700000.0 11309700000.0 11309700000.0 11309700000.0 11309700000.0 11309700000.0 11309700000.0 11309700000.0 11309700000.0 11309700000.0 11309700000.0 11309700000.0 11309700000.0 11309700000.0 11309700000.0 11309700000.0 11309700000.0 11309700000.0 11309700000.0 11309700000.0 11309700000.0 11309700000.0 11309700000.0 11309700000.0 11309700000.0 11309700000.0 11309700000.0 11309700000.0 11309700000.0 11309700000.0 11309700000.0 11309700000.0 11309700000.0 11309700000.0 11309700000.0 11309700000.0 11309700000.0 11309700000.0 11309700000.0 11309700000.0 11309700000.0 11309700000.0 11309700000.0 11309700000.0 11309700000.0 11309700000.0 11309700000.0 11309700000.0 11309700000.0 11309700000.0 11309700000.0 11309700000.0 11309700000.0 11309700000.0 11309700000.0 11309700000.0 11309700000.0 11309700000.0 11309700000.0 11309700000.0 11309700000.0 11309700000.0 11309700000.0 11309700000.0 11309700000.0 11309700000.0 11309700000.0 11309700000.0 11309700000.0 11309700000.0 11309700000.0 11309700000.0 11309700000.0 11309700000.0 11309700000.0 11309700000.0 11309700000.0 11309700000.0 11309700000.0 11309700000.0 11309700000.0 11309700000.0 11309700000.0 11309700000.0 11309700000.0 11309700000.0 11309700000.0 11309700000.0 11309700000.0 11309700000.0 11309700000.0 11309700000.0 11309700000.0 11309700000.0 11309700000.0 11309700000.0 11309700000.0 11309700000.0 11309700000.0 11309700000.0 11309700000.0 11309700000.0 11309700000.0 11309700000.0 11309700000.0 11309700000.0 11309700000.0 11309700000.0 11309700000.0 11309700000.0 11309700000.0 11309700000.0 11309700000.0 11309700000.0 11309700000.0 11309700000.0 11309700000.0 11309700000.0 11309700000.0 11309700000.0 11309700000.0 11309700000.0 11309700000.0 11309700000.0 11309700000.0 11309700000.0 11309700000.0 11309700000.0 11309700000.0 11309700000.0 11309700000.0 11309700000.0 11309700000.0 11309700000.0 11309700000.0 11309700000.0 11309700000.0 11309700000.0 11309700000.0 11309700000.0 11309700000.0 11309700000.0 11309700000.0 11309700000.0 11309700000.0 11309700000.0 11309700000.0 11309700000.0 11309700000.0 11309700000.0 11309700000.0 11309700000.0 11309700000.0 11309700000.0 11309700000.0 11309700000.0 11309700000.0 11309700000.0 11309700000.0 11309700000.0 11309700000.0 11309700000.0 11309700000.0 11309700000.0 11309700000.0 11309700000.0 11309700000.0 11309700000.0 11309700000.0 11309700000.0 11309700000.0 11309700000.0 11309700000.0 11309700000.0 11309700000.0 11309700000.0 11309700000.0 11309700000.0 11309700000.0 11309700000.0 11309700000.0 11309700000.0 11309700000.0 11309700000.0 11309700000.0 11309700000.0 11309700000.0 11309700000.0 11309700000.0 11309700000.0 11309700000.0 11309700000.0 11309700000.0 11309700000.0 11309700000.0 11309700000.0 11309700000.0 11309700000.0 11309700000.0 11309700000.0 11309700000.0 11309700000.0 11309700000.0 11309700000.0 11309700000.0 11309700000.0 11309700000.0 11309700000.0 11309700000.0 11309700000.0 11309700000.0 11309700000.0 11309700000.0 11309700000.0 11309700000.0 11309700000.0 11309700000.0 11309700000.0 11309700000.0 11309700000.0 11309700000.0 11309700000.0 11309700000.0 11309700000.0 11309700000.0 11309700000.0 11309700000.0 11309700000.0 11309700000.0 11309700000.0 11309700000.0 11309700000.0 11309700000.0 11309700000.0 11309700000.0 11309700000.0 11309700000.0 11309700000.0 11309700000.0 11309700000.0 11309700000.0 11309700000.0 11309700000.0 11309700000.0 11309700000.0 11309700000.0 11309700000.0 11309700000.0 11309700000.0 11309700000.0 11309700000.0 11309700000.0 11309700000.0 11309700000.0 11309700000.0 11309700000.0 11309700000.0 11309700000.0 11309700000.0 11309700000.0 11309700000.0 11309700000.0 11309700000.0 11309700000.0 11309700000.0 11309700000.0 11309700000.0 11309700000.0 11309700000.0 11309700000.0 11309700000.0 11309700000.0 11309700000.0 11309700000.0 11309700000.0 11309700000.0 11309700000.0 11309700000.0 11309700000.0 11309700000.0 11309700000.0 11309700000.0 11309700000.0 11309700000.0 11309700000.0 11309700000.0 11309700000.0 11309700000.0 11309700000.0 11309700000.0 11309700000.0 11309700000.0 11309700000.0 11309700000.0 11309700000.0 11309700000.0 11309700000.0 11309700000.0 11309700000.0 11309700000.0 11309700000.0 11309700000.0 11309700000.0 11309700000.0 11309700000.0 11309700000.0 11309700000.0 11309700000.0 11309700000.0 11309700000.0 11309700000.0 11309700000.0 11309700000.0 11309700000.0 11309700000.0 11309700000.0 11309700000.0 11309700000.0 11309700000.0 11309700000.0 11309700000.0 11309700000.0 11309700000.0 11309700000.0 11309700000.0 11309700000.0 11309700000.0 11309700000.0 11309700000.0 11309700000.0 11309700000.0 11309700000.0 11309700000.0 11309700000.0 11309700000.0 11309700000.0 11309700000.0 11309700000.0 11309700000.0 11309700000.0 11309700000.0 11309700000.0 11309700000.0 11309700000.0 11309700000.0 11309700000.0 11309700000.0 11309700000.0 11309700000.0 11309700000.0 11309700000.0 11309700000.0 11309700000.0 11309700000.0 11309700000.0 11309700000.0 11309700000.0 11309700000.0 11309700000.0 11309700000.0 11309700000.0 11309700000.0 11309700000.0 11309700000.0 11309700000.0 11309700000.0 11309700000.0 11309700000.0 11309700000.0 11309700000.0 11309700000.0 11309700000.0 11309700000.0 11309700000.0 11309700000.0 11309700000.0 11309700000.0 11309700000.0 11309700000.0 11309700000.0 11309700000.0 11309700000.0 11309700000.0 11309700000.0 11309700000.0 11309700000.0 11309700000.0 11309700000.0 11309700000.0 11309700000.0 11309700000.0 11309700000.0 11309700000.0 11309700000.0 11309700000.0 11309700000.0 11309700000.0 11309700000.0 11309700000.0 11309700000.0 11309700000.0 11309700000.0 11309700000.0 11309700000.0 11309700000.0 11309700000.0 11309700000.0 11309700000.0 11309700000.0 11309700000.0 11309700000.0 11309700000.0 11309700000.0 11309700000.0 11309700000.0 11309700000.0 11309700000.0 11309700000.0 11309700000.0 11309700000.0 11309700000.0 11309700000.0 11309700000.0 11309700000.0 11309700000.0 11309700000.0 11309700000.0 11309700000.0 11309700000.0 11309700000.0 11309700000.0 11309700000.0 11309700000.0 11309700000.0 11309700000.0 11309700000.0 11309700000.0 11309700000.0 11309700000.0 11309700000.0 11309700000.0 11309700000.0 11309700000.0 11309700000.0 11309700000.0 11309700000.0 11309700000.0 11309700000.0 11309700000.0 11309700000.0 11309700000.0 11309700000.0 11309700000.0 11309700000.0 11309700000.0 11309700000.0 11309700000.0 11309700000.0 11309700000.0 11309700000.0 11309700000.0 11309700000.0 11309700000.0 11309700000.0 11309700000.0 11309700000.0 11309700000.0 11309700000.0 11309700000.0 11309700000.0 11309700000.0 11309700000.0 11309700000.0 11309700000.0 11309700000.0 11309700000.0 11309700000.0 11309700000.0 11309700000.0 11309700000.0 11309700000.0 11309700000.0 11309700000.0 11309700000.0 11309700000.0 11309700000.0 11309700000.0 11309700000.0 11309700000.0 11309700000.0 11309700000.0 11309700000.0 11309700000.0 11309700000.0 11309700000.0 11309700000.0 11309700000.0 11309700000.0 11309700000.0 11309700000.0 11309700000.0 11309700000.0 11309700000.0 11309700000.0 11309700000.0 11309700000.0 11309700000.0 11309700000.0 11309700000.0 11309700000.0 11309700000.0 11309700000.0 11309700000.0 11309700000.0 11309700000.0 11309700000.0 11309700000.0 11309700000.0 11309700000.0 11309700000.0 11309700000.0 11309700000.0 11309700000.0 11309700000.0 11309700000.0 11309700000.0 11309700000.0 11309700000.0 11309700000.0 11309700000.0 11309700000.0 11309700000.0 11309700000.0 11309700000.0 11309700000.0 11309700000.0 11309700000.0 11309700000.0 11309700000.0 11309700000.0 11309700000.0 11309700000.0 11309700000.0 11309700000.0 11309700000.0 11309700000.0 11309700000.0 11309700000.0 11309700000.0 11309700000.0 11309700000.0 11309700000.0 11309700000.0 11309700000.0 11309700000.0 11309700000.0 11309700000.0 11309700000.0 11309700000.0 11309700000.0 11309700000.0 11309700000.0 11309700000.0 11309700000.0 11309700000.0 11309700000.0 11309700000.0 11309700000.0 11309700000.0 11309700000.0 11309700000.0 11309700000.0 11309700000.0 11309700000.0 11309700000.0 11309700000.0 11309700000.0 11309700000.0 11309700000.0 11309700000.0 11309700000.0 11309700000.0 11309700000.0 11309700000.0 11309700000.0 11309700000.0 11309700000.0 11309700000.0 11309700000.0 11309700000.0 11309700000.0 11309700000.0 11309700000.0 11309700000.0 11309700000.0 11309700000.0 11309700000.0 11309700000.0 11309700000.0 11309700000.0 11309700000.0 11309700000.0 11309700000.0 11309700000.0 11309700000.0 11309700000.0 11309700000.0 11309700000.0 11309700000.0 11309700000.0 11309700000.0 11309700000.0 11309700000.0 11309700000.0 11309700000.0 11309700000.0 11309700000.0 11309700000.0 11309700000.0 11309700000.0 11309700000.0 11309700000.0 11309700000.0 11309700000.0 11309700000.0 11309700000.0 11309700000.0 11309700000.0 11309700000.0 11309700000.0 11309700000.0 11309700000.0 11309700000.0 11309700000.0 11309700000.0 11309700000.0 11309700000.0 11309700000.0 11309700000.0 11309700000.0 11309700000.0 11309700000.0 11309700000.0 11309700000.0 11309700000.0 11309700000.0 11309700000.0 11309700000.0 11309700000.0 11309700000.0 11309700000.0 11309700000.0 11309700000.0 11309700000.0 11309700000.0 11309700000.0 11309700000.0 11309700000.0 11309700000.0 11309700000.0 11309700000.0 11309700000.0 11309700000.0 11309700000.0 11309700000.0 11309700000.0 11309700000.0 11309700000.0 11309700000.0 11309700000.0 11309700000.0 11309700000.0 11309700000.0 11309700000.0 11309700000.0 11309700000.0 11309700000.0 11309700000.0 11309700000.0 11309700000.0 11309700000.0 11309700000.0 11309700000.0 11309700000.0 11309700000.0 11309700000.0 11309700000.0 11309700000.0 11309700000.0 11309700000.0 11309700000.0 11309700000.0 11309700000.0 11309700000.0 11309700000.0 11309700000.0 11309700000.0 11309700000.0 11309700000.0 11309700000.0 11309700000.0 11309700000.0 11309700000.0 11309700000.0 11309700000.0 11309700000.0 11309700000.0 11309700000.0 11309700000.0 11309700000.0 11309700000.0 11309700000.0 11309700000.0 11309700000.0 11309700000.0 11309700000.0 11309700000.0 11309700000.0 11309700000.0 11309700000.0 11309700000.0 11309700000.0 11309700000.0 11309700000.0 11309700000.0 11309700000.0 11309700000.0 11309700000.0 11309700000.0 11309700000.0 11309700000.0 11309700000.0 11309700000.0 11309700000.0 11309700000.0 11309700000.0 11309700000.0 11309700000.0 11309700000.0 11309700000.0 11309700000.0 11309700000.0 11309700000.0 11309700000.0 11309700000.0 11309700000.0 11309700000.0 11309700000.0 11309700000.0 11309700000.0 11309700000.0 11309700000.0 11309700000.0 11309700000.0 11309700000.0 11309700000.0 11309700000.0 11309700000.0 11309700000.0 11309700000.0 11309700000.0 11309700000.0 11309700000.0 11309700000.0 11309700000.0 11309700000.0 11309700000.0 11309700000.0 11309700000.0 11309700000.0 11309700000.0 11309700000.0 11309700000.0 11309700000.0 11309700000.0 11309700000.0 11309700000.0 11309700000.0 11309700000.0 11309700000.0 11309700000.0 11309700000.0 11309700000.0 11309700000.0 11309700000.0 11309700000.0 11309700000.0 11309700000.0 11309700000.0 11309700000.0 11309700000.0 11309700000.0 11309700000.0 11309700000.0 11309700000.0 11309700000.0 11309700000.0 11309700000.0 11309700000.0 11309700000.0 11309700000.0 11309700000.0 11309700000.0 11309700000.0 11309700000.0 11309700000.0 11309700000.0 11309700000.0 11309700000.0 11309700000.0 11309700000.0 11309700000.0 11309700000.0 11309700000.0 11309700000.0 11309700000.0 11309700000.0 11309700000.0 11309700000.0 11309700000.0 11309700000.0 11309700000.0 11309700000.0 11309700000.0 11309700000.0 11309700000.0 11309700000.0 11309700000.0 11309700000.0 11309700000.0 11309700000.0 11309700000.0 11309700000.0 11309700000.0 11309700000.0 11309700000.0 11309700000.0 11309700000.0 11309700000.0 11309700000.0 11309700000.0 11309700000.0 11309700000.0 11309700000.0 11309700000.0 11309700000.0 11309700000.0 11309700000.0 11309700000.0 11309700000.0 11309700000.0 11309700000.0 11309700000.0 11309700000.0 11309700000.0 11309700000.0 11309700000.0 11309700000.0 11309700000.0 11309700000.0 11309700000.0 11309700000.0 11309700000.0 11309700000.0 11309700000.0 11309700000.0 11309700000.0 11309700000.0 11309700000.0 11309700000.0 11309700000.0 11309700000.0 11309700000.0 11309700000.0 11309700000.0 11309700000.0 11309700000.0 11309700000.0 11309700000.0 11309700000.0 11309700000.0 11309700000.0 11309700000.0 11309700000.0 11309700000.0 11309700000.0 11309700000.0 11309700000.0 11309700000.0 11309700000.0 11309700000.0 11309700000.0 11309700000.0 11309700000.0 11309700000.0 11309700000.0 11309700000.0 11309700000.0 11309700000.0 11309700000.0 11309700000.0 11309700000.0 11309700000.0 11309700000.0 11309700000.0 11309700000.0 11309700000.0 11309700000.0 11309700000.0 11309700000.0 11309700000.0 11309700000.0 11309700000.0 11309700000.0 11309700000.0 11309700000.0 11309700000.0 11309700000.0 11309700000.0 11309700000.0 11309700000.0 11309700000.0 11309700000.0 11309700000.0 11309700000.0 11309700000.0 11309700000.0 11309700000.0 11309700000.0 11309700000.0 11309700000.0 11309700000.0 11309700000.0 11309700000.0 11309700000.0 11309700000.0 11309700000.0 11309700000.0 11309700000.0 11309700000.0 11309700000.0 11309700000.0 11309700000.0 11309700000.0 11309700000.0 11309700000.0 11309700000.0 11309700000.0 11309700000.0 11309700000.0 11309700000.0 11309700000.0 11309700000.0 11309700000.0 11309700000.0 11309700000.0 11309700000.0 11309700000.0 11309700000.0 11309700000.0 11309700000.0 11309700000.0 11309700000.0 11309700000.0 11309700000.0 11309700000.0 11309700000.0 11309700000.0 11309700000.0 11309700000.0 11309700000.0 11309700000.0 11309700000.0 11309700000.0 11309700000.0 11309700000.0 11309700000.0 11309700000.0 11309700000.0 11309700000.0 11309700000.0 11309700000.0 11309700000.0 11309700000.0 11309700000.0 11309700000.0 11309700000.0 11309700000.0 11309700000.0 11309700000.0 11309700000.0 11309700000.0 11309700000.0 11309700000.0 11309700000.0 11309700000.0 11309700000.0 11309700000.0 11309700000.0 11309700000.0 11309700000.0 11309700000.0 11309700000.0 11309700000.0 11309700000.0 11309700000.0 11309700000.0 11309700000.0 11309700000.0 11309700000.0 11309700000.0 11309700000.0 11309700000.0 11309700000.0 11309700000.0 11309700000.0 11309700000.0 11309700000.0 11309700000.0 11309700000.0 11309700000.0 11309700000.0 11309700000.0 11309700000.0 11309700000.0 11309700000.0 11309700000.0 11309700000.0 11309700000.0 11309700000.0 11309700000.0 11309700000.0 11309700000.0 11309700000.0 11309700000.0 11309700000.0 11309700000.0 11309700000.0 11309700000.0 11309700000.0 11309700000.0 11309700000.0 11309700000.0 11309700000.0 11309700000.0 11309700000.0 11309700000.0 11309700000.0 11309700000.0 11309700000.0 11309700000.0 11309700000.0 11309700000.0 11309700000.0 11309700000.0 11309700000.0 11309700000.0 11309700000.0 11309700000.0 11309700000.0 11309700000.0 11309700000.0 11309700000.0 11309700000.0 11309700000.0 11309700000.0 11309700000.0 11309700000.0 11309700000.0 11309700000.0 11309700000.0 11309700000.0 11309700000.0 11309700000.0 11309700000.0 11309700000.0 11309700000.0 11309700000.0 11309700000.0 11309700000.0 11309700000.0 11309700000.0 11309700000.0 11309700000.0 11309700000.0 11309700000.0 11309700000.0 11309700000.0 11309700000.0 11309700000.0 11309700000.0 11309700000.0 11309700000.0 11309700000.0 11309700000.0 11309700000.0 11309700000.0 11309700000.0 11309700000.0 11309700000.0 11309700000.0 11309700000.0 11309700000.0 11309700000.0 11309700000.0 11309700000.0 11309700000.0 11309700000.0 11309700000.0 11309700000.0 11309700000.0 11309700000.0 11309700000.0 11309700000.0 11309700000.0 11309700000.0 11309700000.0 11309700000.0 11309700000.0 11309700000.0 11309700000.0 11309700000.0 11309700000.0 11309700000.0 11309700000.0 11309700000.0 11309700000.0 11309700000.0 11309700000.0 11309700000.0 11309700000.0 11309700000.0 11309700000.0 11309700000.0 11309700000.0 11309700000.0 11309700000.0 11309700000.0 11309700000.0 11309700000.0 11309700000.0 11309700000.0 11309700000.0 11309700000.0 11309700000.0 11309700000.0 11309700000.0 11309700000.0 11309700000.0 11309700000.0 11309700000.0 11309700000.0 11309700000.0 11309700000.0 11309700000.0 11309700000.0 11309700000.0 11309700000.0 11309700000.0 11309700000.0 11309700000.0 11309700000.0 11309700000.0 11309700000.0 11309700000.0 11309700000.0 11309700000.0 11309700000.0 11309700000.0 11309700000.0 11309700000.0 11309700000.0 11309700000.0 11309700000.0 11309700000.0 11309700000.0 11309700000.0 11309700000.0 11309700000.0 11309700000.0 11309700000.0 11309700000.0 11309700000.0 11309700000.0 11309700000.0 11309700000.0 11309700000.0 11309700000.0 11309700000.0 11309700000.0 11309700000.0 11309700000.0 11309700000.0 11309700000.0 11309700000.0 11309700000.0 11309700000.0 11309700000.0 11309700000.0 11309700000.0 11309700000.0 11309700000.0 11309700000.0 11309700000.0 11309700000.0 11309700000.0 11309700000.0 11309700000.0 11309700000.0 11309700000.0 11309700000.0 11309700000.0 11309700000.0 11309700000.0 11309700000.0 11309700000.0 11309700000.0 11309700000.0 11309700000.0 11309700000.0 11309700000.0 11309700000.0 11309700000.0 11309700000.0 11309700000.0 11309700000.0 11309700000.0 11309700000.0 11309700000.0 11309700000.0 11309700000.0 11309700000.0 11309700000.0 11309700000.0 11309700000.0 11309700000.0 11309700000.0 11309700000.0 11309700000.0 11309700000.0 11309700000.0 11309700000.0 11309700000.0 11309700000.0 11309700000.0 11309700000.0 11309700000.0 11309700000.0 11309700000.0 11309700000.0 11309700000.0 11309700000.0 11309700000.0 11309700000.0 11309700000.0 11309700000.0 11309700000.0 11309700000.0 11309700000.0 11309700000.0 11309700000.0 11309700000.0 11309700000.0 11309700000.0 11309700000.0 11309700000.0 11309700000.0 11309700000.0 11309700000.0 11309700000.0 11309700000.0 11309700000.0 11309700000.0 11309700000.0 11309700000.0 11309700000.0 11309700000.0 11309700000.0 11309700000.0 11309700000.0 11309700000.0 11309700000.0 11309700000.0 11309700000.0 11309700000.0 11309700000.0 11309700000.0 11309700000.0 11309700000.0 11309700000.0 11309700000.0 11309700000.0 11309700000.0 11309700000.0 11309700000.0 11309700000.0 11309700000.0 11309700000.0 11309700000.0 11309700000.0 11309700000.0 11309700000.0 11309700000.0 11309700000.0 11309700000.0 11309700000.0 11309700000.0 11309700000.0 11309700000.0 11309700000.0 11309700000.0 11309700000.0 11309700000.0 11309700000.0 11309700000.0 11309700000.0 11309700000.0 11309700000.0 11309700000.0 11309700000.0 11309700000.0 11309700000.0 11309700000.0 11309700000.0 11309700000.0 11309700000.0 11309700000.0 11309700000.0 11309700000.0 11309700000.0 11309700000.0 11309700000.0 11309700000.0 11309700000.0 11309700000.0 11309700000.0 11309700000.0 11309700000.0 11309700000.0 11309700000.0 11309700000.0 11309700000.0 11309700000.0 11309700000.0 11309700000.0 11309700000.0 11309700000.0 11309700000.0 11309700000.0 11309700000.0 11309700000.0 11309700000.0 11309700000.0 11309700000.0 11309700000.0 11309700000.0 11309700000.0 11309700000.0 11309700000.0 11309700000.0 11309700000.0 11309700000.0 11309700000.0 11309700000.0 11309700000.0 11309700000.0 11309700000.0 11309700000.0 11309700000.0 11309700000.0 11309700000.0 11309700000.0 11309700000.0 11309700000.0 11309700000.0 11309700000.0 11309700000.0 11309700000.0 11309700000.0 11309700000.0 11309700000.0 11309700000.0 11309700000.0 11309700000.0 11309700000.0 11309700000.0 11309700000.0 11309700000.0 11309700000.0 11309700000.0 11309700000.0 11309700000.0 11309700000.0 11309700000.0 11309700000.0 11309700000.0 11309700000.0 11309700000.0 11309700000.0 11309700000.0 11309700000.0 11309700000.0 11309700000.0 11309700000.0 11309700000.0 11309700000.0 11309700000.0 11309700000.0 11309700000.0 11309700000.0 11309700000.0 11309700000.0 11309700000.0 11309700000.0 11309700000.0 11309700000.0 11309700000.0 11309700000.0 11309700000.0 11309700000.0 11309700000.0 11309700000.0 11309700000.0 11309700000.0 11309700000.0 11309700000.0 11309700000.0 11309700000.0 11309700000.0 11309700000.0 11309700000.0 11309700000.0 11309700000.0 11309700000.0 11309700000.0 11309700000.0 11309700000.0 11309700000.0 11309700000.0 11309700000.0 11309700000.0 11309700000.0 11309700000.0 11309700000.0 11309700000.0 11309700000.0 11309700000.0 11309700000.0 11309700000.0 11309700000.0 11309700000.0 11309700000.0 11309700000.0 11309700000.0 11309700000.0 11309700000.0 11309700000.0 11309700000.0 11309700000.0 11309700000.0 11309700000.0 11309700000.0 11309700000.0 11309700000.0 11309700000.0 11309700000.0 11309700000.0 11309700000.0 11309700000.0 11309700000.0 11309700000.0 11309700000.0 11309700000.0 11309700000.0 11309700000.0 11309700000.0 11309700000.0 11309700000.0 11309700000.0 11309700000.0 11309700000.0 11309700000.0 11309700000.0 11309700000.0 11309700000.0 11309700000.0 11309700000.0 11309700000.0 11309700000.0 11309700000.0 11309700000.0 11309700000.0 11309700000.0 11309700000.0 11309700000.0 11309700000.0 11309700000.0 11309700000.0 11309700000.0 11309700000.0 11309700000.0 11309700000.0 11309700000.0 11309700000.0 11309700000.0 11309700000.0 11309700000.0 11309700000.0 11309700000.0 11309700000.0 11309700000.0 11309700000.0 11309700000.0 11309700000.0 11309700000.0 11309700000.0 11309700000.0 11309700000.0 11309700000.0 11309700000.0 11309700000.0 11309700000.0 11309700000.0 11309700000.0 11309700000.0 11309700000.0 11309700000.0 11309700000.0 11309700000.0 11309700000.0 11309700000.0 11309700000.0 11309700000.0 11309700000.0 11309700000.0 11309700000.0 11309700000.0 11309700000.0 11309700000.0 11309700000.0 11309700000.0 11309700000.0 11309700000.0 11309700000.0 11309700000.0 11309700000.0 11309700000.0 11309700000.0 11309700000.0 11309700000.0 11309700000.0 11309700000.0 11309700000.0 11309700000.0 11309700000.0 11309700000.0 11309700000.0 11309700000.0 11309700000.0 11309700000.0 11309700000.0 11309700000.0 11309700000.0 11309700000.0 11309700000.0 11309700000.0 11309700000.0 11309700000.0 11309700000.0 11309700000.0 11309700000.0 11309700000.0 11309700000.0 11309700000.0 11309700000.0 11309700000.0 11309700000.0 11309700000.0 11309700000.0 11309700000.0 11309700000.0 11309700000.0 11309700000.0 11309700000.0 11309700000.0 11309700000.0 11309700000.0 11309700000.0 11309700000.0 11309700000.0 11309700000.0 11309700000.0 11309700000.0 11309700000.0 11309700000.0 11309700000.0 11309700000.0 11309700000.0 11309700000.0 11309700000.0 11309700000.0 11309700000.0 11309700000.0 11309700000.0 11309700000.0 11309700000.0 11309700000.0 11309700000.0 11309700000.0 11309700000.0 11309700000.0 11309700000.0 11309700000.0 11309700000.0 11309700000.0 11309700000.0 11309700000.0 11309700000.0 11309700000.0 11309700000.0 11309700000.0 11309700000.0 11309700000.0 11309700000.0 11309700000.0 11309700000.0 11309700000.0 11309700000.0 11309700000.0 11309700000.0 11309700000.0 11309700000.0 11309700000.0 11309700000.0 11309700000.0 11309700000.0 11309700000.0 11309700000.0 11309700000.0 11309700000.0 11309700000.0 11309700000.0 11309700000.0 11309700000.0 11309700000.0 11309700000.0 11309700000.0 11309700000.0 11309700000.0 11309700000.0 11309700000.0 11309700000.0 11309700000.0 11309700000.0 11309700000.0 11309700000.0 11309700000.0 11309700000.0 11309700000.0 11309700000.0 11309700000.0 11309700000.0 11309700000.0 11309700000.0 11309700000.0 11309700000.0 11309700000.0 11309700000.0 11309700000.0 11309700000.0 11309700000.0 11309700000.0 11309700000.0 11309700000.0 11309700000.0 11309700000.0 11309700000.0 11309700000.0 11309700000.0 11309700000.0 11309700000.0 11309700000.0 11309700000.0 11309700000.0 11309700000.0 11309700000.0 11309700000.0 11309700000.0 11309700000.0 11309700000.0 11309700000.0 11309700000.0 11309700000.0 11309700000.0 11309700000.0 11309700000.0 11309700000.0 11309700000.0 11309700000.0 11309700000.0 11309700000.0 11309700000.0 11309700000.0 11309700000.0 11309700000.0 11309700000.0 11309700000.0 11309700000.0 11309700000.0 11309700000.0 11309700000.0 11309700000.0 11309700000.0 11309700000.0 11309700000.0 11309700000.0 11309700000.0 11309700000.0 11309700000.0 11309700000.0 11309700000.0 11309700000.0 11309700000.0 11309700000.0 11309700000.0 11309700000.0 11309700000.0 11309700000.0 11309700000.0 11309700000.0 11309700000.0 11309700000.0 11309700000.0 11309700000.0 11309700000.0 11309700000.0 11309700000.0 11309700000.0 11309700000.0 11309700000.0 11309700000.0 11309700000.0 11309700000.0 11309700000.0 11309700000.0 11309700000.0 11309700000.0 11309700000.0 11309700000.0 11309700000.0 11309700000.0 11309700000.0 11309700000.0 11309700000.0 11309700000.0 11309700000.0 11309700000.0 11309700000.0 11309700000.0 11309700000.0 11309700000.0 11309700000.0 11309700000.0 11309700000.0 11309700000.0 11309700000.0 11309700000.0 11309700000.0 11309700000.0 11309700000.0 11309700000.0 11309700000.0 11309700000.0 11309700000.0 11309700000.0 11309700000.0 11309700000.0 11309700000.0 11309700000.0 11309700000.0 11309700000.0 11309700000.0 11309700000.0 11309700000.0 11309700000.0 11309700000.0 11309700000.0 11309700000.0 11309700000.0 11309700000.0 11309700000.0 11309700000.0 11309700000.0 11309700000.0 11309700000.0 11309700000.0 11309700000.0 11309700000.0 11309700000.0 11309700000.0 11309700000.0 11309700000.0 11309700000.0 11309700000.0 11309700000.0 11309700000.0 11309700000.0 11309700000.0 11309700000.0 11309700000.0 11309700000.0 11309700000.0 11309700000.0 11309700000.0 11309700000.0 11309700000.0 11309700000.0 11309700000.0 11309700000.0 11309700000.0 11309700000.0 11309700000.0 11309700000.0 11309700000.0 11309700000.0 11309700000.0 11309700000.0 11309700000.0 11309700000.0 11309700000.0 11309700000.0 11309700000.0 11309700000.0 11309700000.0 11309700000.0 11309700000.0 11309700000.0 11309700000.0 11309700000.0 11309700000.0 11309700000.0 11309700000.0 11309700000.0 11309700000.0 11309700000.0 11309700000.0 11309700000.0 11309700000.0 11309700000.0 11309700000.0 11309700000.0 11309700000.0 11309700000.0 11309700000.0 11309700000.0 11309700000.0 11309700000.0 11309700000.0 11309700000.0 11309700000.0 11309700000.0 11309700000.0 11309700000.0 11309700000.0 11309700000.0 11309700000.0 11309700000.0 11309700000.0 11309700000.0 11309700000.0 11309700000.0 11309700000.0 11309700000.0 11309700000.0 11309700000.0 11309700000.0 11309700000.0 11309700000.0 11309700000.0 11309700000.0 11309700000.0 11309700000.0 11309700000.0 11309700000.0 11309700000.0 11309700000.0 11309700000.0 11309700000.0 11309700000.0 11309700000.0 11309700000.0 11309700000.0 11309700000.0 11309700000.0 11309700000.0 11309700000.0 11309700000.0 11309700000.0 11309700000.0 11309700000.0 11309700000.0 11309700000.0 11309700000.0 11309700000.0 11309700000.0 11309700000.0 11309700000.0 11309700000.0 11309700000.0 11309700000.0 11309700000.0 11309700000.0 11309700000.0 11309700000.0 11309700000.0 11309700000.0 11309700000.0 11309700000.0 11309700000.0 11309700000.0 11309700000.0 11309700000.0 11309700000.0 11309700000.0 11309700000.0 11309700000.0 11309700000.0 11309700000.0 11309700000.0 11309700000.0 11309700000.0 11309700000.0 11309700000.0 11309700000.0 11309700000.0 11309700000.0 11309700000.0 11309700000.0 11309700000.0 11309700000.0 11309700000.0 11309700000.0 11309700000.0 11309700000.0 11309700000.0 11309700000.0 11309700000.0 11309700000.0 11309700000.0 11309700000.0 11309700000.0 11309700000.0 11309700000.0 11309700000.0 11309700000.0 11309700000.0 11309700000.0 11309700000.0 11309700000.0 11309700000.0 11309700000.0 11309700000.0 11309700000.0 11309700000.0 11309700000.0 11309700000.0 11309700000.0 11309700000.0 11309700000.0 11309700000.0 11309700000.0 11309700000.0 11309700000.0 11309700000.0 11309700000.0 11309700000.0 11309700000.0 11309700000.0 11309700000.0 11309700000.0 11309700000.0 11309700000.0 11309700000.0 11309700000.0 11309700000.0 11309700000.0 11309700000.0 11309700000.0 11309700000.0 11309700000.0 11309700000.0 11309700000.0 11309700000.0 11309700000.0 11309700000.0 11309700000.0 11309700000.0 11309700000.0 11309700000.0 11309700000.0 11309700000.0 11309700000.0 11309700000.0 11309700000.0 11309700000.0 11309700000.0 11309700000.0 11309700000.0 11309700000.0 11309700000.0 11309700000.0 11309700000.0 11309700000.0 11309700000.0 11309700000.0 11309700000.0 11309700000.0 11309700000.0 11309700000.0 11309700000.0 11309700000.0 11309700000.0 11309700000.0 11309700000.0 11309700000.0 11309700000.0 11309700000.0 11309700000.0 11309700000.0 11309700000.0 11309700000.0 11309700000.0 11309700000.0 11309700000.0 11309700000.0 11309700000.0 11309700000.0 11309700000.0 11309700000.0 11309700000.0 11309700000.0 11309700000.0 11309700000.0 11309700000.0 11309700000.0 11309700000.0 11309700000.0 11309700000.0 11309700000.0 11309700000.0 11309700000.0 11309700000.0 11309700000.0 11309700000.0 11309700000.0 11309700000.0 11309700000.0 11309700000.0 11309700000.0 11309700000.0 11309700000.0 11309700000.0 11309700000.0 11309700000.0 11309700000.0 11309700000.0 11309700000.0 11309700000.0 11309700000.0 11309700000.0 11309700000.0 11309700000.0 11309700000.0 11309700000.0 11309700000.0 11309700000.0 11309700000.0 11309700000.0 11309700000.0 11309700000.0 11309700000.0 11309700000.0 11309700000.0 11309700000.0 11309700000.0 11309700000.0 11309700000.0 11309700000.0 11309700000.0 11309700000.0 11309700000.0 11309700000.0 11309700000.0 11309700000.0 11309700000.0 11309700000.0 11309700000.0 11309700000.0 11309700000.0 11309700000.0 11309700000.0 11309700000.0 11309700000.0 11309700000.0 11309700000.0 11309700000.0 11309700000.0 11309700000.0 11309700000.0 11309700000.0 11309700000.0 11309700000.0 11309700000.0 11309700000.0 11309700000.0 11309700000.0 11309700000.0 11309700000.0 11309700000.0 11309700000.0 11309700000.0 11309700000.0 11309700000.0 11309700000.0 11309700000.0 11309700000.0 11309700000.0 11309700000.0 11309700000.0 11309700000.0 11309700000.0 11309700000.0 11309700000.0 11309700000.0 11309700000.0 11309700000.0 11309700000.0 11309700000.0 11309700000.0 11309700000.0 11309700000.0 11309700000.0 11309700000.0 11309700000.0 11309700000.0 11309700000.0 11309700000.0 11309700000.0 11309700000.0 11309700000.0 11309700000.0 11309700000.0 11309700000.0 11309700000.0 11309700000.0 11309700000.0 11309700000.0 11309700000.0 11309700000.0 11309700000.0 11309700000.0 11309700000.0 11309700000.0 11309700000.0 11309700000.0 11309700000.0 11309700000.0 11309700000.0 11309700000.0 11309700000.0 11309700000.0 11309700000.0 11309700000.0 11309700000.0 11309700000.0 11309700000.0 11309700000.0 11309700000.0 11309700000.0 11309700000.0 11309700000.0 11309700000.0 11309700000.0 11309700000.0 11309700000.0 11309700000.0 11309700000.0 11309700000.0 11309700000.0 11309700000.0 11309700000.0 11309700000.0 11309700000.0 11309700000.0 11309700000.0 11309700000.0 11309700000.0 11309700000.0 11309700000.0 11309700000.0 11309700000.0 11309700000.0 11309700000.0 11309700000.0 11309700000.0 11309700000.0 11309700000.0 11309700000.0 11309700000.0 11309700000.0 11309700000.0 11309700000.0 11309700000.0 11309700000.0 11309700000.0 11309700000.0 11309700000.0 11309700000.0 11309700000.0 11309700000.0 11309700000.0 11309700000.0 11309700000.0 11309700000.0 11309700000.0 11309700000.0 11309700000.0 11309700000.0 11309700000.0 11309700000.0 11309700000.0 11309700000.0 11309700000.0 11309700000.0 11309700000.0 11309700000.0 11309700000.0 11309700000.0 11309700000.0 11309700000.0 11309700000.0 11309700000.0 11309700000.0 11309700000.0 11309700000.0 11309700000.0 11309700000.0 11309700000.0 11309700000.0 11309700000.0 11309700000.0 11309700000.0 11309700000.0 11309700000.0 11309700000.0 11309700000.0 11309700000.0 11309700000.0 11309700000.0 11309700000.0 11309700000.0 11309700000.0 11309700000.0 11309700000.0 11309700000.0 11309700000.0 11309700000.0 11309700000.0 11309700000.0 11309700000.0 11309700000.0 11309700000.0 11309700000.0 11309700000.0 11309700000.0 11309700000.0 11309700000.0 11309700000.0 11309700000.0 11309700000.0 11309700000.0 11309700000.0 11309700000.0 11309700000.0 11309700000.0 11309700000.0 11309700000.0 11309700000.0 11309700000.0 11309700000.0 11309700000.0 11309700000.0 11309700000.0 11309700000.0 11309700000.0 11309700000.0 11309700000.0 11309700000.0 11309700000.0 11309700000.0 11309700000.0 11309700000.0 11309700000.0 11309700000.0 11309700000.0 11309700000.0 11309700000.0 11309700000.0 11309700000.0 11309700000.0 11309700000.0 11309700000.0 11309700000.0 11309700000.0 11309700000.0 11309700000.0 11309700000.0 11309700000.0 11309700000.0 11309700000.0 11309700000.0 11309700000.0 11309700000.0 11309700000.0 11309700000.0 11309700000.0 11309700000.0 11309700000.0 11309700000.0 11309700000.0 11309700000.0 11309700000.0 11309700000.0 11309700000.0 11309700000.0 11309700000.0 11309700000.0 11309700000.0 11309700000.0 11309700000.0 11309700000.0 11309700000.0 11309700000.0 11309700000.0 11309700000.0 11309700000.0 11309700000.0 11309700000.0 11309700000.0 11309700000.0 11309700000.0 11309700000.0 11309700000.0 11309700000.0 11309700000.0 11309700000.0 11309700000.0 11309700000.0 11309700000.0 11309700000.0 11309700000.0 11309700000.0 11309700000.0 11309700000.0 11309700000.0 11309700000.0 11309700000.0 11309700000.0 11309700000.0 11309700000.0 11309700000.0 11309700000.0 11309700000.0 11309700000.0 11309700000.0 11309700000.0 11309700000.0 11309700000.0 11309700000.0 11309700000.0 11309700000.0 11309700000.0 11309700000.0 11309700000.0 11309700000.0 11309700000.0 11309700000.0 11309700000.0 11309700000.0 11309700000.0 11309700000.0 11309700000.0 11309700000.0 11309700000.0 11309700000.0 11309700000.0 11309700000.0 11309700000.0 11309700000.0 11309700000.0 11309700000.0 11309700000.0 11309700000.0 11309700000.0 11309700000.0 11309700000.0 11309700000.0 11309700000.0 11309700000.0 11309700000.0 11309700000.0 11309700000.0 11309700000.0 11309700000.0 11309700000.0 11309700000.0 11309700000.0 11309700000.0 11309700000.0 11309700000.0 11309700000.0 11309700000.0 11309700000.0 11309700000.0 11309700000.0 11309700000.0 11309700000.0 11309700000.0 11309700000.0 11309700000.0 11309700000.0 11309700000.0 11309700000.0 11309700000.0 11309700000.0 11309700000.0 11309700000.0 11309700000.0 11309700000.0 11309700000.0 11309700000.0 11309700000.0 11309700000.0 11309700000.0 11309700000.0 11309700000.0 11309700000.0 11309700000.0 11309700000.0 11309700000.0 11309700000.0 11309700000.0 11309700000.0 11309700000.0 11309700000.0 11309700000.0 11309700000.0 11309700000.0 11309700000.0 11309700000.0 11309700000.0 11309700000.0 11309700000.0 11309700000.0 11309700000.0 11309700000.0 11309700000.0 11309700000.0 11309700000.0 11309700000.0 11309700000.0 11309700000.0 11309700000.0 11309700000.0 11309700000.0 11309700000.0 11309700000.0 11309700000.0 11309700000.0 11309700000.0 11309700000.0 11309700000.0 11309700000.0 11309700000.0 11309700000.0 11309700000.0 11309700000.0 11309700000.0 11309700000.0 11309700000.0 11309700000.0 11309700000.0 11309700000.0 11309700000.0 11309700000.0 11309700000.0 11309700000.0 11309700000.0 11309700000.0 11309700000.0 11309700000.0 11309700000.0 11309700000.0 11309700000.0 11309700000.0 11309700000.0 11309700000.0 11309700000.0 11309700000.0 11309700000.0 11309700000.0 11309700000.0 11309700000.0 11309700000.0 11309700000.0 11309700000.0 11309700000.0 11309700000.0 11309700000.0 11309700000.0 11309700000.0 11309700000.0 11309700000.0 11309700000.0 11309700000.0 11309700000.0 11309700000.0 11309700000.0 11309700000.0 11309700000.0 11309700000.0 11309700000.0 11309700000.0 11309700000.0 11309700000.0 11309700000.0 11309700000.0 11309700000.0 11309700000.0 11309700000.0 11309700000.0 11309700000.0 11309700000.0 11309700000.0 11309700000.0 11309700000.0 11309700000.0 11309700000.0 11309700000.0 11309700000.0 11309700000.0 11309700000.0 11309700000.0 11309700000.0 11309700000.0 11309700000.0 11309700000.0 11309700000.0 11309700000.0 11309700000.0 11309700000.0 11309700000.0 11309700000.0 11309700000.0 11309700000.0 11309700000.0 11309700000.0 11309700000.0 11309700000.0 11309700000.0 11309700000.0 11309700000.0 11309700000.0 11309700000.0 11309700000.0 11309700000.0 11309700000.0 11309700000.0 11309700000.0 11309700000.0 11309700000.0 11309700000.0 11309700000.0 11309700000.0 11309700000.0 11309700000.0 11309700000.0 11309700000.0 11309700000.0 11309700000.0 11309700000.0 11309700000.0 11309700000.0 11309700000.0 11309700000.0 11309700000.0 11309700000.0 11309700000.0 11309700000.0 11309700000.0 11309700000.0 11309700000.0 11309700000.0 11309700000.0 11309700000.0 11309700000.0 11309700000.0 11309700000.0 11309700000.0 11309700000.0 11309700000.0 11309700000.0 11309700000.0 11309700000.0 11309700000.0 11309700000.0 11309700000.0 11309700000.0 11309700000.0 11309700000.0 11309700000.0 11309700000.0 11309700000.0 11309700000.0 11309700000.0 11309700000.0 11309700000.0 11309700000.0 11309700000.0 11309700000.0 11309700000.0 11309700000.0 11309700000.0 11309700000.0 11309700000.0 11309700000.0 11309700000.0 11309700000.0 11309700000.0 11309700000.0 11309700000.0 11309700000.0 11309700000.0 11309700000.0 11309700000.0 11309700000.0 11309700000.0 11309700000.0 11309700000.0 11309700000.0 11309700000.0 11309700000.0 11309700000.0 11309700000.0 11309700000.0 11309700000.0 11309700000.0 11309700000.0 11309700000.0 11309700000.0 11309700000.0 11309700000.0 11309700000.0 11309700000.0 11309700000.0 11309700000.0 11309700000.0 11309700000.0 11309700000.0 11309700000.0 11309700000.0 11309700000.0 11309700000.0 11309700000.0 11309700000.0 11309700000.0 11309700000.0 11309700000.0 11309700000.0 11309700000.0 11309700000.0 11309700000.0 11309700000.0 11309700000.0 11309700000.0 11309700000.0 11309700000.0 11309700000.0 11309700000.0 11309700000.0 11309700000.0 11309700000.0 11309700000.0 11309700000.0 11309700000.0 11309700000.0 11309700000.0 11309700000.0 11309700000.0 11309700000.0 11309700000.0 11309700000.0 11309700000.0 11309700000.0 11309700000.0 11309700000.0 11309700000.0 11309700000.0 11309700000.0 11309700000.0 11309700000.0 11309700000.0 11309700000.0 11309700000.0 11309700000.0 11309700000.0 11309700000.0 11309700000.0 11309700000.0 11309700000.0 11309700000.0 11309700000.0 11309700000.0 11309700000.0 11309700000.0 11309700000.0 11309700000.0 11309700000.0 11309700000.0 11309700000.0 11309700000.0 11309700000.0 11309700000.0 11309700000.0 11309700000.0 11309700000.0 11309700000.0 11309700000.0 11309700000.0 11309700000.0 11309700000.0 11309700000.0 11309700000.0 11309700000.0 11309700000.0 11309700000.0 11309700000.0 11309700000.0 11309700000.0 11309700000.0 11309700000.0 11309700000.0 11309700000.0 11309700000.0 11309700000.0 11309700000.0 11309700000.0 11309700000.0 11309700000.0 11309700000.0 11309700000.0 11309700000.0 11309700000.0 11309700000.0 11309700000.0 11309700000.0 11309700000.0 11309700000.0 11309700000.0 11309700000.0 11309700000.0 11309700000.0 11309700000.0 11309700000.0 11309700000.0 11309700000.0 11309700000.0 11309700000.0 11309700000.0 11309700000.0 11309700000.0 11309700000.0 11309700000.0 11309700000.0 11309700000.0 11309700000.0 11309700000.0 11309700000.0 11309700000.0 11309700000.0 11309700000.0 11309700000.0 11309700000.0 11309700000.0 11309700000.0 11309700000.0 11309700000.0 11309700000.0 11309700000.0 11309700000.0 11309700000.0 11309700000.0 11309700000.0 11309700000.0 11309700000.0 11309700000.0 11309700000.0 11309700000.0 11309700000.0 11309700000.0 11309700000.0 11309700000.0 11309700000.0 11309700000.0 11309700000.0 11309700000.0 11309700000.0 11309700000.0 11309700000.0 11309700000.0 11309700000.0 11309700000.0 11309700000.0 11309700000.0 11309700000.0 11309700000.0 11309700000.0 11309700000.0 11309700000.0 11309700000.0 11309700000.0 11309700000.0 11309700000.0 11309700000.0 11309700000.0 11309700000.0 11309700000.0 11309700000.0 11309700000.0 11309700000.0 11309700000.0 11309700000.0 11309700000.0 11309700000.0 11309700000.0 11309700000.0 11309700000.0 11309700000.0 11309700000.0 11309700000.0 11309700000.0 11309700000.0 11309700000.0 11309700000.0 11309700000.0 11309700000.0 11309700000.0 11309700000.0 11309700000.0 11309700000.0 11309700000.0 11309700000.0 11309700000.0 11309700000.0 11309700000.0 11309700000.0 11309700000.0 11309700000.0 11309700000.0 11309700000.0 11309700000.0 11309700000.0 11309700000.0 11309700000.0 11309700000.0 11309700000.0 11309700000.0 11309700000.0 11309700000.0 11309700000.0 11309700000.0 11309700000.0 11309700000.0 11309700000.0 11309700000.0 11309700000.0 11309700000.0 11309700000.0 11309700000.0 11309700000.0 11309700000.0 11309700000.0 11309700000.0 11309700000.0 11309700000.0 11309700000.0 11309700000.0 11309700000.0 11309700000.0 11309700000.0 11309700000.0 11309700000.0 11309700000.0 11309700000.0 11309700000.0 11309700000.0 11309700000.0 11309700000.0 11309700000.0 11309700000.0 11309700000.0 11309700000.0 11309700000.0 11309700000.0 11309700000.0 11309700000.0 11309700000.0 11309700000.0 11309700000.0 11309700000.0 11309700000.0 11309700000.0 11309700000.0 11309700000.0 11309700000.0 11309700000.0 11309700000.0 11309700000.0 11309700000.0 11309700000.0 11309700000.0 11309700000.0 11309700000.0 11309700000.0 11309700000.0 11309700000.0 11309700000.0 11309700000.0 11309700000.0 11309700000.0 11309700000.0 11309700000.0 11309700000.0 11309700000.0 11309700000.0 11309700000.0 11309700000.0 11309700000.0 11309700000.0 11309700000.0 11309700000.0 11309700000.0 11309700000.0 11309700000.0 11309700000.0 11309700000.0 11309700000.0 11309700000.0 11309700000.0 11309700000.0 11309700000.0 11309700000.0 11309700000.0 11309700000.0 11309700000.0 11309700000.0 11309700000.0 11309700000.0 11309700000.0 11309700000.0 11309700000.0 11309700000.0 11309700000.0 11309700000.0 11309700000.0 11309700000.0 11309700000.0 11309700000.0 11309700000.0 11309700000.0 11309700000.0 11309700000.0 11309700000.0 11309700000.0 11309700000.0 11309700000.0 11309700000.0 11309700000.0 11309700000.0 11309700000.0 11309700000.0 11309700000.0 11309700000.0 11309700000.0 11309700000.0 11309700000.0 11309700000.0 11309700000.0 11309700000.0 11309700000.0 11309700000.0 11309700000.0 11309700000.0 11309700000.0 11309700000.0 11309700000.0 11309700000.0 11309700000.0 11309700000.0 11309700000.0 11309700000.0 11309700000.0 11309700000.0 11309700000.0 11309700000.0 11309700000.0 11309700000.0 11309700000.0 11309700000.0 11309700000.0 11309700000.0 11309700000.0 11309700000.0 11309700000.0 11309700000.0 11309700000.0 11309700000.0 11309700000.0 11309700000.0 11309700000.0 11309700000.0 11309700000.0 11309700000.0 11309700000.0 11309700000.0 11309700000.0 11309700000.0 11309700000.0 11309700000.0 11309700000.0 11309700000.0 11309700000.0 11309700000.0 11309700000.0 11309700000.0 11309700000.0 11309700000.0 11309700000.0 11309700000.0 11309700000.0 11309700000.0 11309700000.0 11309700000.0 11309700000.0 11309700000.0 11309700000.0 11309700000.0 11309700000.0 11309700000.0 11309700000.0 11309700000.0 11309700000.0 11309700000.0 11309700000.0 11309700000.0 11309700000.0 11309700000.0 11309700000.0 11309700000.0 11309700000.0 11309700000.0 11309700000.0 11309700000.0 11309700000.0 11309700000.0 11309700000.0 11309700000.0 11309700000.0 11309700000.0 11309700000.0 11309700000.0 11309700000.0 11309700000.0 11309700000.0 11309700000.0 11309700000.0 11309700000.0 11309700000.0 11309700000.0 11309700000.0 11309700000.0 11309700000.0 11309700000.0 11309700000.0 11309700000.0 11309700000.0 11309700000.0 11309700000.0 11309700000.0 11309700000.0 11309700000.0 11309700000.0 11309700000.0 11309700000.0 11309700000.0 11309700000.0 11309700000.0 11309700000.0 11309700000.0 11309700000.0 11309700000.0 11309700000.0 11309700000.0 11309700000.0 11309700000.0 11309700000.0 11309700000.0 11309700000.0 11309700000.0 11309700000.0 11309700000.0 11309700000.0 11309700000.0 11309700000.0 11309700000.0 11309700000.0 11309700000.0 11309700000.0 11309700000.0 11309700000.0 11309700000.0 11309700000.0 11309700000.0 11309700000.0 11309700000.0 11309700000.0 11309700000.0 11309700000.0 11309700000.0 11309700000.0 11309700000.0 11309700000.0 11309700000.0 11309700000.0 11309700000.0 11309700000.0 11309700000.0 11309700000.0 11309700000.0 11309700000.0 11309700000.0 11309700000.0 11309700000.0 11309700000.0 11309700000.0 11309700000.0 11309700000.0 11309700000.0 11309700000.0 11309700000.0 11309700000.0 11309700000.0 11309700000.0 11309700000.0 11309700000.0 11309700000.0 11309700000.0 11309700000.0 11309700000.0 11309700000.0 11309700000.0 11309700000.0 11309700000.0 11309700000.0 11309700000.0 11309700000.0 11309700000.0 11309700000.0 11309700000.0 11309700000.0 11309700000.0 11309700000.0 11309700000.0 11309700000.0 11309700000.0 11309700000.0 11309700000.0 11309700000.0 11309700000.0 11309700000.0 11309700000.0 11309700000.0 11309700000.0 11309700000.0 11309700000.0 11309700000.0 11309700000.0 11309700000.0 11309700000.0 11309700000.0 11309700000.0 11309700000.0 11309700000.0 11309700000.0 11309700000.0 11309700000.0 11309700000.0 11309700000.0 11309700000.0 11309700000.0 11309700000.0 11309700000.0 11309700000.0 11309700000.0 11309700000.0 11309700000.0 11309700000.0 11309700000.0 11309700000.0 11309700000.0 11309700000.0 11309700000.0 11309700000.0 11309700000.0 11309700000.0 11309700000.0 11309700000.0 11309700000.0 11309700000.0 11309700000.0 11309700000.0 11309700000.0 11309700000.0 11309700000.0 11309700000.0 11309700000.0 11309700000.0 11309700000.0 11309700000.0 11309700000.0 11309700000.0 11309700000.0 11309700000.0 11309700000.0 11309700000.0 11309700000.0 11309700000.0 11309700000.0 11309700000.0 11309700000.0 11309700000.0 11309700000.0 11309700000.0 11309700000.0 11309700000.0 11309700000.0 11309700000.0 11309700000.0 11309700000.0 11309700000.0 11309700000.0 11309700000.0 11309700000.0 11309700000.0 11309700000.0 11309700000.0 11309700000.0 11309700000.0 11309700000.0 11309700000.0 11309700000.0 11309700000.0 11309700000.0 11309700000.0 11309700000.0 11309700000.0 11309700000.0 11309700000.0 11309700000.0 11309700000.0 11309700000.0 11309700000.0 11309700000.0 11309700000.0 11309700000.0 11309700000.0 11309700000.0 11309700000.0 11309700000.0 11309700000.0 11309700000.0 11309700000.0 11309700000.0 11309700000.0 11309700000.0 11309700000.0 11309700000.0 11309700000.0 11309700000.0 11309700000.0 11309700000.0 11309700000.0 11309700000.0 11309700000.0 11309700000.0 11309700000.0 11309700000.0 11309700000.0 11309700000.0 11309700000.0 11309700000.0 11309700000.0 11309700000.0 11309700000.0 11309700000.0 11309700000.0 11309700000.0 11309700000.0 11309700000.0 11309700000.0 11309700000.0 11309700000.0 11309700000.0 11309700000.0 11309700000.0 11309700000.0 11309700000.0 11309700000.0 11309700000.0 11309700000.0 11309700000.0 11309700000.0 11309700000.0 11309700000.0 11309700000.0 11309700000.0 11309700000.0 11309700000.0 11309700000.0 11309700000.0 11309700000.0 11309700000.0 11309700000.0 11309700000.0 11309700000.0 11309700000.0 11309700000.0 11309700000.0 11309700000.0 11309700000.0 11309700000.0 11309700000.0 11309700000.0 11309700000.0 11309700000.0 11309700000.0 11309700000.0 11309700000.0 11309700000.0 11309700000.0 11309700000.0 11309700000.0 11309700000.0 11309700000.0 11309700000.0 11309700000.0 11309700000.0 11309700000.0 11309700000.0 11309700000.0 11309700000.0 11309700000.0 11309700000.0 11309700000.0 11309700000.0 11309700000.0 11309700000.0 11309700000.0 11309700000.0 11309700000.0 11309700000.0 11309700000.0 11309700000.0 11309700000.0 11309700000.0 11309700000.0 11309700000.0 11309700000.0 11309700000.0 11309700000.0 11309700000.0 11309700000.0 11309700000.0 11309700000.0 11309700000.0 11309700000.0 11309700000.0 11309700000.0 11309700000.0 11309700000.0 11309700000.0 11309700000.0 11309700000.0 11309700000.0 11309700000.0 11309700000.0 11309700000.0 11309700000.0 11309700000.0 11309700000.0 11309700000.0 11309700000.0 11309700000.0 11309700000.0 11309700000.0 11309700000.0 11309700000.0 11309700000.0 11309700000.0 11309700000.0 11309700000.0 11309700000.0 11309700000.0 11309700000.0 11309700000.0 11309700000.0 11309700000.0 11309700000.0 11309700000.0 11309700000.0 11309700000.0 11309700000.0 11309700000.0 11309700000.0 11309700000.0 11309700000.0 11309700000.0 11309700000.0 11309700000.0 11309700000.0 11309700000.0 11309700000.0 11309700000.0 11309700000.0 11309700000.0 11309700000.0 11309700000.0 11309700000.0 11309700000.0 11309700000.0 11309700000.0 11309700000.0 11309700000.0 11309700000.0 11309700000.0 11309700000.0 11309700000.0 11309700000.0 11309700000.0 11309700000.0 11309700000.0 11309700000.0 11309700000.0 11309700000.0 11309700000.0 11309700000.0 11309700000.0 11309700000.0 11309700000.0 11309700000.0 11309700000.0 11309700000.0 11309700000.0 11309700000.0 11309700000.0 11309700000.0 11309700000.0 11309700000.0 11309700000.0 11309700000.0 11309700000.0 11309700000.0 11309700000.0 11309700000.0 11309700000.0 11309700000.0 11309700000.0 11309700000.0 11309700000.0 11309700000.0 11309700000.0 11309700000.0 11309700000.0 11309700000.0 11309700000.0 11309700000.0 11309700000.0 11309700000.0 11309700000.0 11309700000.0 11309700000.0 11309700000.0 11309700000.0 11309700000.0 11309700000.0 11309700000.0 11309700000.0 11309700000.0 11309700000.0 11309700000.0 11309700000.0 11309700000.0 11309700000.0 11309700000.0 11309700000.0 11309700000.0 11309700000.0 11309700000.0 11309700000.0 11309700000.0 11309700000.0 11309700000.0 11309700000.0 11309700000.0 11309700000.0 11309700000.0 11309700000.0 11309700000.0 11309700000.0 11309700000.0 11309700000.0 11309700000.0 11309700000.0 11309700000.0 11309700000.0 11309700000.0 11309700000.0 11309700000.0 11309700000.0 11309700000.0 11309700000.0 11309700000.0 11309700000.0 11309700000.0 11309700000.0 11309700000.0 11309700000.0 11309700000.0 11309700000.0 11309700000.0 11309700000.0 11309700000.0 11309700000.0 11309700000.0 11309700000.0 11309700000.0 11309700000.0 11309700000.0 11309700000.0 11309700000.0 11309700000.0 11309700000.0 11309700000.0 11309700000.0 11309700000.0 11309700000.0 11309700000.0 11309700000.0 11309700000.0 11309700000.0 11309700000.0 11309700000.0 11309700000.0 11309700000.0 11309700000.0 11309700000.0 11309700000.0 11309700000.0 11309700000.0 11309700000.0 11309700000.0 11309700000.0 11309700000.0 11309700000.0 11309700000.0 11309700000.0 11309700000.0 11309700000.0 11309700000.0 11309700000.0 11309700000.0 11309700000.0 11309700000.0 11309700000.0 11309700000.0 11309700000.0 11309700000.0 11309700000.0 11309700000.0 11309700000.0 11309700000.0 11309700000.0 11309700000.0 11309700000.0 11309700000.0 11309700000.0 11309700000.0 11309700000.0 11309700000.0 11309700000.0 11309700000.0 11309700000.0 11309700000.0 11309700000.0 11309700000.0 11309700000.0 11309700000.0 11309700000.0 11309700000.0 11309700000.0 11309700000.0 11309700000.0 11309700000.0 11309700000.0 11309700000.0 11309700000.0 11309700000.0 11309700000.0 11309700000.0 11309700000.0 11309700000.0 11309700000.0 11309700000.0 11309700000.0 11309700000.0 11309700000.0 11309700000.0 11309700000.0 11309700000.0 11309700000.0 11309700000.0 11309700000.0 11309700000.0 11309700000.0 11309700000.0 11309700000.0 11309700000.0 11309700000.0 11309700000.0 11309700000.0 11309700000.0 11309700000.0 11309700000.0 11309700000.0 11309700000.0 11309700000.0 11309700000.0 11309700000.0 11309700000.0 11309700000.0 11309700000.0 11309700000.0 11309700000.0 11309700000.0 11309700000.0 11309700000.0 11309700000.0 11309700000.0 11309700000.0 11309700000.0 11309700000.0 11309700000.0 11309700000.0 11309700000.0 11309700000.0 11309700000.0 11309700000.0 11309700000.0 11309700000.0 11309700000.0 11309700000.0 11309700000.0 11309700000.0 11309700000.0 11309700000.0 11309700000.0 11309700000.0 11309700000.0 11309700000.0 11309700000.0 11309700000.0 11309700000.0 11309700000.0 11309700000.0 11309700000.0 11309700000.0 11309700000.0 11309700000.0 11309700000.0 11309700000.0 11309700000.0 11309700000.0 11309700000.0 11309700000.0 11309700000.0 11309700000.0 11309700000.0 11309700000.0 11309700000.0 11309700000.0 11309700000.0 11309700000.0 11309700000.0 11309700000.0 11309700000.0 11309700000.0 11309700000.0 11309700000.0 11309700000.0 11309700000.0 11309700000.0 11309700000.0 11309700000.0 11309700000.0 11309700000.0 11309700000.0 11309700000.0 11309700000.0 11309700000.0 11309700000.0 11309700000.0 11309700000.0 11309700000.0 11309700000.0 11309700000.0 11309700000.0 11309700000.0 11309700000.0 11309700000.0 11309700000.0 11309700000.0 11309700000.0 11309700000.0 11309700000.0 11309700000.0 11309700000.0 11309700000.0 11309700000.0 11309700000.0 11309700000.0 11309700000.0 11309700000.0 11309700000.0 11309700000.0 11309700000.0 11309700000.0 11309700000.0 11309700000.0 11309700000.0 11309700000.0 11309700000.0 11309700000.0 11309700000.0 11309700000.0 11309700000.0 11309700000.0 11309700000.0 11309700000.0 11309700000.0 11309700000.0 11309700000.0 11309700000.0 11309700000.0 11309700000.0 11309700000.0 11309700000.0 11309700000.0 11309700000.0 11309700000.0 11309700000.0 11309700000.0 11309700000.0 11309700000.0 11309700000.0 11309700000.0 11309700000.0 11309700000.0 11309700000.0 11309700000.0 11309700000.0 11309700000.0 11309700000.0 11309700000.0 11309700000.0 11309700000.0 11309700000.0 11309700000.0 11309700000.0 11309700000.0 11309700000.0 11309700000.0 11309700000.0 11309700000.0 11309700000.0 11309700000.0 11309700000.0 11309700000.0 11309700000.0 11309700000.0 11309700000.0 11309700000.0 11309700000.0 11309700000.0 11309700000.0 11309700000.0 11309700000.0 11309700000.0 11309700000.0 11309700000.0 11309700000.0 11309700000.0 11309700000.0 11309700000.0 11309700000.0 11309700000.0 11309700000.0 11309700000.0 11309700000.0 11309700000.0 11309700000.0 11309700000.0 11309700000.0 11309700000.0 11309700000.0 11309700000.0 11309700000.0 11309700000.0 11309700000.0 11309700000.0 11309700000.0 11309700000.0 11309700000.0 11309700000.0 11309700000.0 11309700000.0 11309700000.0 11309700000.0 11309700000.0 11309700000.0 11309700000.0 11309700000.0 11309700000.0 11309700000.0 11309700000.0 11309700000.0 11309700000.0 11309700000.0 11309700000.0 11309700000.0 11309700000.0 11309700000.0 11309700000.0 11309700000.0 11309700000.0 11309700000.0 11309700000.0 11309700000.0 11309700000.0 11309700000.0 11309700000.0 11309700000.0 11309700000.0 11309700000.0 11309700000.0 11309700000.0 11309700000.0 11309700000.0 11309700000.0 11309700000.0 11309700000.0 11309700000.0 11309700000.0 11309700000.0 11309700000.0 11309700000.0 11309700000.0 11309700000.0 11309700000.0 11309700000.0 11309700000.0 11309700000.0 11309700000.0 11309700000.0 11309700000.0 11309700000.0 11309700000.0 11309700000.0 11309700000.0 11309700000.0 11309700000.0 11309700000.0 11309700000.0 11309700000.0 11309700000.0 11309700000.0 11309700000.0 11309700000.0 11309700000.0 11309700000.0 11309700000.0 11309700000.0 11309700000.0 11309700000.0 11309700000.0 11309700000.0 11309700000.0 11309700000.0 11309700000.0 11309700000.0 11309700000.0 11309700000.0 11309700000.0 11309700000.0 11309700000.0 11309700000.0 11309700000.0 11309700000.0 11309700000.0 11309700000.0 11309700000.0 11309700000.0 11309700000.0 11309700000.0 11309700000.0 11309700000.0 11309700000.0 11309700000.0 11309700000.0 11309700000.0 11309700000.0 11309700000.0 11309700000.0 11309700000.0 11309700000.0 11309700000.0 11309700000.0 11309700000.0 11309700000.0 11309700000.0 11309700000.0 11309700000.0 11309700000.0 11309700000.0 11309700000.0 11309700000.0 11309700000.0 11309700000.0 11309700000.0 11309700000.0 11309700000.0 11309700000.0 11309700000.0 11309700000.0 11309700000.0 11309700000.0 11309700000.0 11309700000.0 11309700000.0 11309700000.0 11309700000.0 11309700000.0 11309700000.0 11309700000.0 11309700000.0 11309700000.0 11309700000.0 11309700000.0 11309700000.0 11309700000.0 11309700000.0 11309700000.0 11309700000.0 11309700000.0 11309700000.0 11309700000.0 11309700000.0 11309700000.0 11309700000.0 11309700000.0 11309700000.0 11309700000.0 11309700000.0 11309700000.0 11309700000.0 11309700000.0 11309700000.0 11309700000.0 11309700000.0 11309700000.0 11309700000.0 11309700000.0 11309700000.0 11309700000.0 11309700000.0 11309700000.0 11309700000.0 11309700000.0 11309700000.0 11309700000.0 11309700000.0 11309700000.0 11309700000.0 11309700000.0 11309700000.0 11309700000.0 11309700000.0 11309700000.0 11309700000.0 11309700000.0 11309700000.0 11309700000.0 11309700000.0 11309700000.0 11309700000.0 11309700000.0 11309700000.0 11309700000.0 11309700000.0 11309700000.0 11309700000.0 11309700000.0 11309700000.0 11309700000.0 11309700000.0 11309700000.0 11309700000.0 11309700000.0 11309700000.0 11309700000.0 11309700000.0 11309700000.0 11309700000.0 11309700000.0 11309700000.0 11309700000.0 11309700000.0 11309700000.0 11309700000.0 11309700000.0 11309700000.0 11309700000.0 11309700000.0 11309700000.0 11309700000.0 11309700000.0 11309700000.0 11309700000.0 11309700000.0 11309700000.0 11309700000.0 11309700000.0 11309700000.0 11309700000.0 11309700000.0 11309700000.0 11309700000.0 11309700000.0 11309700000.0 11309700000.0 11309700000.0 11309700000.0 11309700000.0 11309700000.0 11309700000.0 11309700000.0 11309700000.0 11309700000.0 11309700000.0 11309700000.0 11309700000.0 11309700000.0 11309700000.0 11309700000.0 11309700000.0 11309700000.0 11309700000.0 11309700000.0 11309700000.0 11309700000.0 11309700000.0 11309700000.0 11309700000.0 11309700000.0 11309700000.0 11309700000.0 11309700000.0 11309700000.0 11309700000.0 11309700000.0 11309700000.0 11309700000.0 11309700000.0 11309700000.0 11309700000.0 11309700000.0 11309700000.0 11309700000.0 11309700000.0 11309700000.0 11309700000.0 11309700000.0 11309700000.0 11309700000.0 11309700000.0 11309700000.0 11309700000.0 11309700000.0 11309700000.0 11309700000.0 11309700000.0 11309700000.0 11309700000.0 11309700000.0 11309700000.0 11309700000.0 11309700000.0 11309700000.0 11309700000.0 11309700000.0 11309700000.0 11309700000.0 11309700000.0 11309700000.0 11309700000.0 11309700000.0 11309700000.0 11309700000.0 11309700000.0 11309700000.0 11309700000.0 11309700000.0 11309700000.0 11309700000.0 11309700000.0 11309700000.0 11309700000.0 11309700000.0 11309700000.0 11309700000.0 11309700000.0 11309700000.0 11309700000.0 11309700000.0 11309700000.0 11309700000.0 11309700000.0 11309700000.0 11309700000.0 11309700000.0 11309700000.0 11309700000.0 11309700000.0 11309700000.0 11309700000.0 11309700000.0 11309700000.0 11309700000.0 11309700000.0 11309700000.0 11309700000.0 11309700000.0 11309700000.0 11309700000.0 11309700000.0 11309700000.0 11309700000.0 11309700000.0 11309700000.0 11309700000.0 11309700000.0 11309700000.0 11309700000.0 11309700000.0 11309700000.0 11309700000.0 11309700000.0 11309700000.0 11309700000.0 11309700000.0 11309700000.0 11309700000.0 11309700000.0 11309700000.0 11309700000.0 11309700000.0 11309700000.0 11309700000.0 11309700000.0 11309700000.0 11309700000.0 11309700000.0 11309700000.0 11309700000.0 11309700000.0 11309700000.0 11309700000.0 11309700000.0 11309700000.0 11309700000.0 11309700000.0 11309700000.0 11309700000.0 11309700000.0 11309700000.0 11309700000.0 11309700000.0 11309700000.0 11309700000.0 11309700000.0 11309700000.0 11309700000.0 11309700000.0 11309700000.0 
SCALARS Velocity float 1
LOOKUP_TABLE default
0.792857 0.837952 1.10216 1.10216 0.837952 0.792857 0.803634 0.814034 0.848851 0.788075 0.943839 1.36924 0.96461 1.05531 1.12556 1.24621 0.762502 1.0323 0.798188 0.988333 0.814042 0.988333 0.798188 1.0323 0.762502 1.24621 1.12556 1.05531 0.96461 1.36924 0.943839 0.788075 0.848851 0.814034 0.803634 0.789091 0.81724 0.836127 0.955165 0.977282 1.10683 0.989784 1.14707 1.27082 1.27082 1.14707 0.989784 1.10683 0.977282 0.955165 0.836127 0.81724 0.789091 0.7776 0.780024 0.803474 0.919417 1.10057 0.847738 1.16045 1.08686 1.09323 1.05507 1.24335 0.769234 1.03171 0.853415 0.989475 0.858314 0.989475 0.853415 1.03171 0.769234 1.24335 1.05507 1.09323 1.08686 1.16045 0.847738 1.10057 0.919417 0.803474 0.780024 0.7776 0.786802 0.791079 0.860862 0.891438 1.0443 1.04181 1.01345 1.17364 1.12217 1.08962 0.985888 0.989863 0.943958 0.943958 0.989863 0.985888 1.08962 1.12217 1.17364 1.01345 1.04181 1.0443 0.891438 0.860862 0.791079 0.786802 0.801661 0.782651 0.808921 0.831584 0.890729 0.988525 1.04735 1.07938 1.01741 0.979702 1.1441 1.08194 0.83278 0.765432 0.855808 0.860519 0.855808 0.765432 0.83278 1.08194 1.1441 0.979702 1.01741 1.07938 1.04735 0.988525 0.890729 0.831584 0.808921 0.782651 0.801661 0.888884 0.84119 0.80403 0.787324 0.793015 0.856975 0.941669 1.0042 1.04379 0.960116 0.997466 1.10016 0.895211 0.92124 0.843423 1.04875 0.778056 0.994054 0.855298 0.946032 0.860288 0.946032 0.855298 0.994054 0.778056 1.04875 0.843423 0.92124 0.895211 1.10016 0.997466 0.960116 1.04379 1.0042 0.941669 0.856975 0.793015 0.787324 0.80403 0.84119 0.888884 0.944039 0.842343 0.780343 0.816706 0.849129 0.9069 0.959682 1.02593 0.980681 0.923256 0.979543 0.835855 0.877617 1.0447 1.0447 0.877617 0.835855 0.979543 0.923256 0.980681 1.02593 0.959682 0.9069 0.849129 0.816706 0.780343 0.842343 0.944039 0.984466 0.900134 0.827056 0.792203 0.757069 0.779164 0.797311 0.891904 0.991744 0.981691 0.994769 0.929645 0.847907 0.882552 0.863633 0.790374 0.99903 0.854625 0.946957 0.860298 0.946957 0.854625 0.99903 0.790374 0.863633 0.882552 0.847907 0.929645 0.994769 0.981691 0.991744 0.891904 0.797311 0.779164 0.757069 0.792203 0.827056 0.900134 0.984466 0.995878 1.002 0.960293 0.890307 0.744969 0.735136 0.810834 0.846093 0.94763 0.958463 0.940292 0.809965 0.899778 0.859528 0.870137 0.870747 0.855897 1.03423 0.81556 0.999179 0.861816 0.946634 0.869267 0.946634 0.861816 0.999179 0.81556 1.03423 0.855897 0.870747 0.870137 0.859528 0.899778 0.809965 0.940292 0.958463 0.94763 0.846093 0.810834 0.735136 0.744969 0.890307 0.960293 1.002 0.995878 1.11622 1.00661 1.00996 0.961447 0.778123 0.690208 0.659307 0.739861 0.763185 0.908935 0.934806 0.893495 0.857471 0.772858 0.883559 0.858527 1.0252 1.0252 0.858527 0.883559 0.772858 0.857471 0.893495 0.934806 0.908935 0.763185 0.739861 0.659307 0.690208 0.778123 0.961447 1.00996 1.00661 1.11622 0.125368 1.11215 1.0533 0.926751 0.839601 0.686882 0.662076 0.587174 0.676885 0.828055 0.930097 0.8998 0.818437 0.910093 0.881181 0.864118 0.847211 0.852227 0.827711 0.993078 0.87698 0.944924 0.883837 0.944924 0.87698 0.993078 0.827711 0.852227 0.847211 0.864118 0.881181 0.910093 0.818437 0.8998 0.930097 0.828055 0.676885 0.587174 0.662076 0.686882 0.839601 0.926751 1.0533 1.11215 0.125368 0.223307 1.51303 1.17168 1.15013 1.06448 0.70111 0.585743 0.610134 0.756897 0.821665 0.893859 0.900495 0.855447 0.751687 0.906595 0.857663 0.850348 1.01223 0.825406 0.973227 0.882173 0.941783 0.887534 0.941783 0.882173 0.973227 0.825406 1.01223 0.850348 0.857663 0.906595 0.751687 0.855447 0.900495 0.893859 0.821665 0.756897 0.610134 0.585743 0.70111 1.06448 1.15013 1.17168 1.51303 0.223307 0.296619 0.23975 1.19082 0.928449 0.733345 0.554657 0.574435 0.499823 0.525067 0.608699 0.698602 0.751917 0.880672 0.863511 0.828955 0.795183 0.749453 0.879224 0.8499 0.882599 0.941036 0.941036 0.882599 0.8499 0.879224 0.749453 0.795183 0.828955 0.863511 0.880672 0.751917 0.698602 0.608699 0.525067 0.499823 0.574435 0.554657 0.733345 0.928449 1.19082 0.23975 0.296619 0.347325 0.34171 0.309116 0.348552 0.964109 0.831902 0.791725 0.624135 0.490266 0.491585 0.683192 0.815449 0.887124 0.895056 0.826062 0.784184 0.895915 0.859361 0.857301 0.863335 0.873366 0.81307 0.939221 0.839264 0.942239 0.863348 0.942239 0.839264 0.939221 0.813069 0.873366 0.863335 0.857301 0.859361 0.895915 0.784184 0.826062 0.895056 0.887124 0.815449 0.683192 0.491585 0.490266 0.624135 0.791725 0.831902 0.964109 0.348552 0.309116 0.34171 0.347325 0.396515 0.379012 0.381381 0.344127 0.372342 0.974115 0.877759 0.753048 0.516131 0.444011 0.470643 0.576083 0.717354 0.761645 0.884746 0.833117 0.749856 0.875478 0.883374 0.864121 0.853439 0.870708 0.790732 0.894331 0.828958 0.950851 0.859262 0.950851 0.828958 0.894331 0.790732 0.870708 0.853439 0.864121 0.883374 0.875478 0.749856 0.833117 0.884746 0.761645 0.717354 0.576083 0.470643 0.444011 0.516131 0.753048 0.877759 0.974115 0.372342 0.344127 0.381381 0.379012 0.396515 0.415894 0.40652 0.370408 0.36701 0.762504 0.757041 0.694566 0.651874 0.516903 0.443047 0.360772 0.58677 0.850444 0.94329 0.986618 1.05874 0.762227 0.849317 0.752955 0.767141 0.896024 0.856402 0.859677 0.859677 0.856402 0.896024 0.767141 0.752955 0.849317 0.762227 1.05874 0.986618 0.94329 0.850444 0.58677 0.360772 0.443047 0.516903 0.651874 0.694566 0.757041 0.762504 0.36701 0.370408 0.40652 0.415894 0.377737 0.441824 0.452507 0.416593 0.408508 0.569587 0.706321 0.856188 0.628503 0.702897 0.521488 0.483555 0.813035 0.994581 0.925878 0.713791 0.846807 0.860328 0.869545 0.859826 0.863771 0.881255 0.843473 0.894542 0.772474 0.968415 0.841821 0.968415 0.772474 0.894543 0.843473 0.881255 0.863771 0.859826 0.869545 0.860328 0.846807 0.713791 0.925878 0.994581 0.813035 0.483555 0.521488 0.702897 0.628503 0.856188 0.706321 0.569587 0.408508 0.416593 0.452507 0.441824 0.377737 0.333841 0.347571 0.381399 0.434667 0.462615 0.524474 0.713133 0.723297 0.82334 0.560819 0.66357 0.422729 0.449577 0.808042 0.763507 0.912205 0.963192 0.992308 1.0568 0.855182 0.812593 0.90444 0.853711 0.8626 0.881056 0.859696 0.884914 0.735734 0.977355 0.816768 0.977355 0.735734 0.884914 0.859696 0.881056 0.8626 0.85371 0.90444 0.812593 0.855182 1.0568 0.992308 0.963192 0.912205 0.763507 0.808042 0.449578 0.422729 0.66357 0.560819 0.82334 0.723297 0.713133 0.524474 0.462615 0.434667 0.381399 0.347571 0.333841 0.292895 0.321136 0.400173 0.48076 0.4813 0.409909 0.491577 0.762265 0.666306 0.788623 0.309699 0.742647 0.764649 0.861085 0.784547 0.840675 0.918488 0.827839 0.948305 0.972885 0.825705 0.911 0.878723 0.86745 0.86745 0.878723 0.911 0.825705 0.972885 0.948305 0.827839 0.918488 0.840675 0.784547 0.861085 0.76465 0.742647 0.309699 0.788623 0.666306 0.762265 0.491577 0.409909 0.4813 0.48076 0.400173 0.321136 0.292895 0.182583 0.248729 0.335725 0.38184 0.454742 0.468208 0.529713 0.50082 0.754008 0.698732 0.618321 0.871775 0.456232 0.519647 0.760773 0.761563 0.837744 0.604546 0.760907 0.766794 0.855882 0.885818 0.887087 0.88168 0.861594 0.873904 0.866383 0.871024 0.734422 0.98934 0.809307 0.989339 0.734422 0.871024 0.866383 0.873904 0.861593 0.88168 0.887087 0.885818 0.855882 0.766794 0.760907 0.604546 0.837744 0.761563 0.760773 0.519647 0.456232 0.871775 0.618321 0.698732 0.754008 0.50082 0.529713 0.468208 0.454742 0.38184 0.335725 0.248729 0.182583 0.258034 1.34631 1.24312 0.447187 0.528994 0.524603 0.529828 0.370291 0.75355 0.629265 0.658135 0.62981 0.628688 0.565473 0.708929 0.755672 0.745691 0.712216 0.875826 0.881358 0.909641 0.969852 0.883571 0.896474 0.894012 0.876938 0.732075 0.993885 0.806049 0.993885 0.732075 0.876938 0.894012 0.896474 0.883571 0.969852 0.909641 0.881358 0.875826 0.712216 0.745691 0.755672 0.708929 0.565473 0.628688 0.62981 0.658135 0.629265 0.75355 0.370291 0.529828 0.524603 0.528994 0.447187 1.24312 1.34631 0.258034 0.325504 0.243799 1.19258 1.11429 0.576512 0.605173 0.622046 0.356485 0.677002 0.563425 0.618436 0.598992 0.576511 0.489286 0.546502 0.735026 0.75327 0.682338 0.554589 0.821285 0.722003 0.85231 0.752218 0.864715 0.790476 0.928407 0.914326 0.868015 0.901873 0.901873 0.868015 0.914326 0.928407 0.790476 0.864715 0.752218 0.85231 0.722003 0.821285 0.554589 0.682338 0.75327 0.735026 0.546502 0.489286 0.576511 0.598992 0.618436 0.563425 0.677002 0.356485 0.622046 0.605173 0.576512 1.11429 1.19258 0.243799 0.325504 0.356603 0.335068 0.285425 0.25039 1.10222 0.978766 0.984445 0.878499 0.801786 0.559718 0.52764 0.54917 0.569471 0.560025 0.528499 0.544211 0.586782 0.745036 0.721094 0.735284 0.578505 0.724634 0.750148 0.772746 0.853832 0.909082 0.888985 0.863551 0.886565 0.912711 0.919639 0.751251 1.12367 0.800808 1.12367 0.751251 0.919639 0.912712 0.886565 0.863551 0.888985 0.909082 0.853832 0.772746 0.750148 0.724634 0.578504 0.735284 0.721094 0.745036 0.586782 0.544211 0.528499 0.560025 0.569471 0.54917 0.52764 0.559718 0.801786 0.878499 0.984445 0.978766 1.10222 0.25039 0.285425 0.335068 0.356603 0.396927 0.315646 0.300233 1.04368 0.977584 0.862474 0.797001 0.182219 0.561842 0.557042 0.545341 0.552551 0.568299 0.783564 0.63239 0.680469 0.657209 0.779529 0.83702 0.83839 0.89795 0.849609 0.881084 0.893928 0.86791 0.950042 0.950042 0.86791 0.893928 0.881084 0.849609 0.89795 0.83839 0.83702 0.779529 0.657209 0.680469 0.63239 0.783564 0.568299 0.552551 0.545341 0.557042 0.561842 0.182219 0.797001 0.862474 0.977584 1.04368 0.300233 0.315646 0.396927 0.220781 0.256741 0.34055 0.278827 0.921957 0.86228 0.773637 0.71546 0.825823 0.435785 0.458439 0.556316 0.556508 0.56842 0.574604 0.667315 0.725736 0.65124 0.671614 0.647362 0.785158 0.736527 0.828197 0.751951 0.822452 0.767636 0.879713 0.881282 0.863178 0.898794 0.777331 0.815441 0.777331 0.898794 0.863178 0.881282 0.879713 0.767636 0.822452 0.751951 0.828197 0.736527 0.785158 0.647362 0.671614 0.65124 0.725736 0.667315 0.574604 0.56842 0.556508 0.556316 0.458439 0.435785 0.825823 0.71546 0.773637 0.86228 0.921957 0.278827 0.34055 0.256741 0.220781 0.333482 0.384332 0.397519 0.353442 0.329198 0.872918 0.744426 0.760024 0.710352 0.74992 0.367518 0.492437 0.520207 0.566102 0.562715 0.552512 0.582156 0.634666 0.69869 0.629342 0.702022 0.766776 0.795686 0.773601 0.825661 0.828643 0.835332 0.791537 0.823977 0.766443 0.876027 0.806622 0.95126 0.830787 0.95126 0.806622 0.876028 0.766443 0.823977 0.791537 0.835332 0.828643 0.825661 0.773601 0.795686 0.766776 0.702022 0.629342 0.69869 0.634666 0.582156 0.552512 0.562715 0.566102 0.520207 0.492437 0.367518 0.74992 0.710352 0.760024 0.744426 0.872918 0.329198 0.353442 0.397519 0.384332 0.333482 0.5089 0.413327 0.794408 0.818388 0.685318 0.63677 0.593497 0.519211 0.554004 0.5749 0.566109 0.564442 0.573227 0.680244 0.695419 0.638654 0.67479 0.822499 0.855347 0.820097 0.84597 0.825179 0.841451 0.841451 0.825179 0.84597 0.820097 0.855347 0.822499 0.67479 0.638654 0.695419 0.680244 0.573227 0.564442 0.566109 0.5749 0.554004 0.519211 0.593497 0.63677 0.685318 0.818388 0.794409 0.413327 0.5089 1.00637 0.39539 0.682373 0.640784 0.636636 0.714633 0.541541 0.667534 0.660464 0.630158 0.550893 0.573036 0.583018 0.573589 0.584658 0.59308 0.620766 0.643767 0.654377 0.59691 0.607464 0.837179 0.766595 0.848255 0.789826 0.819899 0.767978 0.8446 0.832469 0.799376 0.985778 0.751147 0.913687 0.823261 0.90776 0.83987 0.90776 0.823262 0.913687 0.751147 0.985778 0.799376 0.832469 0.8446 0.767978 0.819899 0.789826 0.848255 0.766595 0.837179 0.607464 0.59691 0.654377 0.643767 0.620766 0.59308 0.584658 0.573589 0.583018 0.573036 0.550893 0.630158 0.660464 0.667534 0.541541 0.714633 0.636636 0.640784 0.682373 0.39539 1.00637 0.70964 1.01602 0.961876 0.814682 0.491963 0.667918 0.654354 0.583161 0.57774 0.600458 0.606472 0.623177 0.643288 0.669082 0.687782 0.612352 0.855652 0.844707 0.778995 0.773826 0.830804 0.841781 0.791031 0.922328 0.742314 0.913717 0.831237 0.907888 0.843648 0.907888 0.831237 0.913717 0.742314 0.922328 0.791031 0.841781 0.830804 0.773826 0.778995 0.844707 0.855652 0.612352 0.687782 0.669082 0.643288 0.623177 0.606472 0.600458 0.57774 0.583161 0.654354 0.667918 0.491963 0.814682 0.961876 1.01602 0.70964 0.526487 0.580728 1.12969 0.537695 0.62436 0.692749 0.649181 0.649562 0.57723 0.630084 0.6462 0.656044 0.688867 0.680548 0.659714 0.855752 0.844723 0.830354 0.845595 0.845595 0.830354 0.844723 0.855752 0.659714 0.680548 0.688867 0.656044 0.6462 0.630084 0.57723 0.649562 0.649181 0.692749 0.624361 0.537695 1.12969 0.580728 0.526487 0.719981 0.894337 0.441399 0.61348 0.689953 0.637765 0.6533 0.646506 0.651318 0.58335 0.57872 0.611675 0.615536 0.689371 0.681733 0.662683 0.64573 0.862399 0.858527 0.840547 0.84673 0.830143 0.873781 0.839185 0.870615 0.8342 0.85748 0.793085 0.93756 0.761 0.914956 0.836077 0.910078 0.845593 0.910078 0.836077 0.914956 0.761 0.93756 0.793085 0.85748 0.8342 0.870615 0.839185 0.873781 0.830143 0.84673 0.840547 0.858527 0.862399 0.64573 0.662683 0.681733 0.689371 0.615536 0.611675 0.57872 0.58335 0.651318 0.646506 0.6533 0.637765 0.689953 0.61348 0.441399 0.894337 0.719981 0.638327 0.585123 0.655749 0.646239 0.661968 0.643939 0.636921 0.577282 0.618166 0.621955 0.638973 0.653273 0.658908 0.67588 0.641624 0.851019 0.85141 0.827266 0.843887 0.828537 0.858789 0.820091 0.853119 0.827375 0.829396 0.776007 0.948645 0.766025 0.91641 0.838125 0.91807 0.847053 0.91807 0.838125 0.91641 0.766025 0.948645 0.776007 0.829396 0.827375 0.853119 0.820091 0.858789 0.828537 0.843887 0.827266 0.85141 0.851019 0.641624 0.67588 0.658908 0.653273 0.638973 0.621955 0.618166 0.577282 0.636921 0.643939 0.661968 0.646239 0.655749 0.585123 0.638327 0.787291 0.788241 0.865158 0.528193 0.595941 0.69157 0.654565 0.660756 0.673433 0.64313 0.614995 0.624547 0.624782 0.644889 0.654688 0.669974 0.665481 0.644895 0.682431 0.682431 0.644895 0.665481 0.669974 0.654688 0.644889 0.624782 0.624547 0.614995 0.64313 0.673433 0.660756 0.654565 0.69157 0.595941 0.528193 0.865158 0.788241 0.787291 0.729254 0.780117 0.878985 0.725231 0.571858 0.60958 0.720009 0.66323 0.643128 0.661348 0.669789 0.686655 0.650282 0.674725 0.680829 0.64643 0.845352 0.853515 0.823722 0.846594 0.840898 0.846845 0.813254 0.87772 0.820757 0.884806 0.774603 0.968854 0.788115 0.940046 0.840963 0.921325 0.848615 0.921325 0.840963 0.940046 0.788115 0.968854 0.774603 0.884806 0.820757 0.87772 0.813254 0.846845 0.840898 0.846594 0.823722 0.853515 0.845352 0.64643 0.680829 0.674725 0.650282 0.686655 0.669789 0.661348 0.643128 0.66323 0.720009 0.60958 0.571858 0.725231 0.878985 0.780117 0.729254 0.750379 0.751126 0.676726 0.681681 0.615215 0.653317 0.626901 0.717503 0.700135 0.727412 0.642192 0.850728 0.845205 0.888444 0.842838 0.855591 0.834743 0.814285 0.875191 0.818168 0.883863 0.777965 0.991684 0.805297 0.946595 0.844515 0.931087 0.849665 0.931087 0.844515 0.946595 0.805297 0.991684 0.777965 0.883863 0.818168 0.875191 0.814285 0.834743 0.855591 0.842838 0.888444 0.845205 0.850728 0.642192 0.727412 0.700135 0.717503 0.626901 0.653317 0.615215 0.681681 0.676726 0.751126 0.750379 0.768725 0.775298 0.593725 0.701723 0.741134 0.669542 0.685357 0.651616 0.664795 0.649071 0.641216 0.663771 0.678238 0.690565 0.741347 0.741347 0.690565 0.678238 0.663771 0.641216 0.649071 0.664795 0.651616 0.685357 0.669542 0.741134 0.701723 0.593725 0.775298 0.768725 0.830031 0.837492 0.804723 0.782501 0.795402 0.814603 0.708793 0.759852 0.675981 0.651533 0.711562 0.652067 0.656711 0.671464 0.685754 0.693149 0.741074 0.745508 0.701938 0.763195 0.80657 0.858257 0.920364 0.853941 0.962975 0.835494 0.949268 0.816854 0.966537 0.833174 0.922945 0.831209 0.915003 0.824514 0.907058 0.850881 0.905071 0.854174 0.905071 0.850881 0.907058 0.824514 0.915003 0.831209 0.922945 0.833174 0.966537 0.816854 0.949268 0.835494 0.962975 0.853941 0.920364 0.858257 0.80657 0.763195 0.701938 0.745508 0.741074 0.693149 0.685754 0.671464 0.656711 0.652067 0.711562 0.651534 0.675981 0.759852 0.708793 0.814603 0.795402 0.782501 0.804723 0.837492 0.830031 0.863081 0.861843 0.781328 0.779716 0.797372 0.832039 0.806818 0.765491 0.635646 0.610815 0.639156 0.678711 0.713788 0.633318 0.71286 0.746312 0.810647 0.878567 0.824428 0.934047 0.814135 0.941848 0.823323 0.96829 0.842862 0.946092 0.853115 0.92307 0.836308 0.909975 0.856064 0.90599 0.858244 0.90599 0.856064 0.909975 0.836308 0.92307 0.853115 0.946092 0.842862 0.96829 0.823323 0.941848 0.814135 0.934047 0.824428 0.878567 0.810647 0.746312 0.71286 0.633318 0.713788 0.678711 0.639156 0.610815 0.635646 0.765491 0.806818 0.832039 0.797372 0.779716 0.781328 0.861843 0.863081 0.728114 0.72417 0.615267 0.610992 0.58884 0.58884 0.610992 0.615267 0.72417 0.728114 0.880294 0.886106 0.806361 0.793551 0.799312 0.857004 0.850873 0.815442 0.762876 0.612315 0.652438 0.658149 0.599903 0.588444 0.600723 0.622151 0.660314 0.701244 0.680021 0.796529 0.903246 0.853591 0.904923 0.867167 0.903872 0.850834 0.902412 0.856789 0.900198 0.85888 0.898072 0.863078 0.89589 0.845936 0.894699 0.861521 0.894444 0.863233 0.894444 0.861521 0.894699 0.845936 0.89589 0.863078 0.898072 0.85888 0.900198 0.856789 0.902412 0.850834 0.903872 0.867167 0.904923 0.853591 0.903246 0.796529 0.680021 0.701244 0.660314 0.622151 0.600723 0.588444 0.599903 0.658149 0.652438 0.612315 0.762876 0.815442 0.850873 0.857004 0.799312 0.793551 0.806361 0.886106 0.880294 0.898191 0.897416 0.851366 0.856129 0.883953 0.905572 0.872061 0.875961 0.779456 0.777166 0.785754 0.803178 0.838474 0.846003 0.886 0.963374 0.892626 0.939113 0.888 0.924912 0.867025 0.91363 0.870401 0.906167 0.864679 0.900671 0.867179 0.896766 0.853303 0.894995 0.866175 0.894553 0.867619 0.894553 0.866175 0.894995 0.853303 0.896766 0.867179 0.900671 0.864679 0.906167 0.870401 0.91363 0.867025 0.924912 0.888 0.939113 0.892626 0.963374 0.886 0.846003 0.838474 0.803178 0.785754 0.777166 0.779456 0.875961 0.872061 0.905572 0.883953 0.856129 0.851366 0.897416 0.898191 0.908957 0.822917 0.863991 0.832348 0.781178 0.781178 0.832348 0.863991 0.822917 0.908957 0.901642 0.901157 0.861735 0.864266 0.893257 0.91684 0.92499 0.899639 0.908175 0.858808 0.908642 0.921433 0.877666 0.879287 0.878379 0.893397 0.876118 0.860379 0.860684 0.885674 0.895192 0.890699 0.894869 0.884144 0.894352 0.87034 0.894039 0.874076 0.893966 0.867123 0.893865 0.868846 0.893838 0.859683 0.893832 0.870397 0.893832 0.871628 0.893832 0.870397 0.893832 0.859683 0.893838 0.868846 0.893865 0.867123 0.893966 0.874076 0.894039 0.87034 0.894352 0.884144 0.894869 0.890699 0.895192 0.885674 0.860684 0.860379 0.876118 0.893397 0.878379 0.879287 0.877666 0.921433 0.908642 0.858808 0.908175 0.899639 0.92499 0.91684 0.893257 0.864266 0.861735 0.901157 0.901642 0.88098 0.888221 0.8862 0.872801 0.859701 0.876503 0.886911 0.896182 0.889756 0.895411 0.881687 0.894652 0.893832 0.876856 0.893832 0.86965 0.893832 0.870105 0.893832 0.865316 0.893832 0.874103 0.893832 0.875114 0.893832 0.874103 0.893832 0.865316 0.893832 0.870105 0.893832 0.86965 0.893832 0.876856 0.893832 0.894652 0.881687 0.895411 0.889756 0.896182 0.886911 0.876503 0.859701 0.872801 0.8862 0.888221 0.88098 0.90085 0.900201 0.868341 0.910186 0.918038 0.902634 0.902001 0.865453 0.901357 0.918582 0.878234 0.879684 0.880287 0.873788 0.873788 0.880287 0.879684 0.878234 0.918582 0.901357 0.865453 0.902001 0.902634 0.918038 0.910186 0.868341 0.900201 0.90085 0.900254 0.899498 0.893123 0.873604 0.885336 0.903743 0.91133 0.903762 0.896069 0.867658 0.894259 0.910383 0.870305 0.871783 0.873297 0.877661 0.868974 0.864587 0.886627 0.888148 0.893846 0.888639 0.893832 0.880463 0.893832 0.876595 0.893832 0.878649 0.893832 0.871842 0.893832 0.871193 0.893832 0.870163 0.893832 0.877309 0.893832 0.878125 0.893832 0.877309 0.893832 0.870163 0.893832 0.871193 0.893832 0.871842 0.893832 0.878649 0.893832 0.876595 0.893832 0.880463 0.893832 0.888639 0.893846 0.888148 0.886627 0.864587 0.868974 0.877661 0.873297 0.871783 0.870305 0.910383 0.894259 0.867658 0.896069 0.903762 0.91133 0.903743 0.885336 0.873604 0.893123 0.899498 0.900254 0.899582 0.898718 0.896022 0.878729 0.884039 0.898555 0.905453 0.903171 0.891976 0.869969 0.891447 0.903115 0.865171 0.8671 0.868901 0.872577 0.866534 0.871541 0.888131 0.889839 0.893851 0.887782 0.893832 0.880706 0.893832 0.878956 0.893832 0.879824 0.893832 0.873847 0.893832 0.872263 0.893832 0.874285 0.893832 0.880058 0.893832 0.880707 0.893832 0.880058 0.893832 0.874285 0.893832 0.872263 0.893832 0.873847 0.893832 0.879824 0.893832 0.878956 0.893832 0.880706 0.893832 0.887782 0.893851 0.889839 0.888131 0.871541 0.866534 0.872577 0.868901 0.8671 0.865171 0.903115 0.891447 0.869969 0.891976 0.903171 0.905453 0.898555 0.884039 0.878729 0.896022 0.898718 0.899582 0.898868 0.897904 0.896205 0.883146 0.883727 0.89446 0.900332 0.901567 0.889317 0.873323 0.890583 0.897508 0.862746 0.865039 0.867029 0.870921 0.866329 0.877082 0.886274 0.891171 0.893832 0.887195 0.893832 0.881876 0.893832 0.880803 0.893832 0.880717 0.893832 0.875728 0.893832 0.873426 0.893832 0.877764 0.893832 0.882398 0.893832 0.882906 0.893832 0.882398 0.893832 0.877764 0.893832 0.873426 0.893832 0.875728 0.893832 0.880717 0.893832 0.880803 0.893832 0.881876 0.893832 0.887195 0.893832 0.891171 0.886274 0.877082 0.866329 0.870921 0.867029 0.865039 0.862746 0.897508 0.890583 0.873323 0.889317 0.901567 0.900332 0.89446 0.883727 0.883146 0.896205 0.897904 0.898868 0.898119 0.897078 0.895994 0.886743 0.884006 0.891147 0.896196 0.89965 0.887736 0.87761 0.890368 0.893397 0.862359 0.864839 0.866834 0.871337 0.868032 0.881335 0.884787 0.892104 0.893832 0.886883 0.893832 0.883426 0.893832 0.882206 0.893832 0.881495 0.893832 0.877431 0.893832 0.874781 0.893832 0.880685 0.893832 0.884378 0.893832 0.884769 0.893832 0.884378 0.893832 0.880685 0.893832 0.874781 0.893832 0.877431 0.893832 0.881495 0.893832 0.882206 0.893832 0.883426 0.893832 0.886883 0.893832 0.892104 0.884787 0.881335 0.868032 0.871337 0.866834 0.864839 0.862359 0.893397 0.890368 0.87761 0.887736 0.89965 0.896196 0.891147 0.884006 0.886743 0.895994 0.897078 0.898119 0.89735 0.896268 0.895764 0.889592 0.884632 0.888523 0.893057 0.897863 0.887011 0.882036 0.890313 0.890412 0.863374 0.865969 0.867793 0.872765 0.870987 0.884212 0.884445 0.892671 0.893832 0.886811 0.893832 0.884966 0.893832 0.883314 0.893832 0.882223 0.893832 0.878933 0.893832 0.87634 0.893832 0.883129 0.893832 0.886045 0.893832 0.886339 0.893832 0.886045 0.893832 0.883129 0.893832 0.87634 0.893832 0.878933 0.893832 0.882223 0.893832 0.883314 0.893832 0.884966 0.893832 0.886811 0.893832 0.892671 0.884445 0.884212 0.870987 0.872765 0.867793 0.865969 0.863374 0.890412 0.890313 0.882036 0.887011 0.897863 0.893057 0.888523 0.884632 0.889592 0.895764 0.896268 0.89735 0.896579 0.895501 0.895542 0.891691 0.885408 0.886618 0.890759 0.896358 0.886905 0.88611 0.890296 0.888215 0.865279 0.867935 0.869539 0.874694 0.874414 0.885727 0.885023 0.892927 0.893832 0.886937 0.893832 0.886307 0.893832 0.884234 0.893832 0.882925 0.893832 0.880249 0.893832 0.878045 0.893832 0.885167 0.893832 0.887442 0.893832 0.887656 0.893832 0.887442 0.893832 0.885167 0.893832 0.878045 0.893832 0.880249 0.893832 0.882925 0.893832 0.884234 0.893832 0.886307 0.893832 0.886937 0.893832 0.892927 0.885023 0.885727 0.874414 0.874694 0.869539 0.867935 0.865279 0.888215 0.890296 0.88611 0.886905 0.896358 0.890759 0.886618 0.885408 0.891691 0.895542 0.895501 0.896579 0.895825 0.894802 0.895327 0.893099 0.886205 0.885416 0.889148 0.895127 0.887245 0.889339 0.890197 0.886659 0.867691 0.87033 0.871733 0.876846 0.877721 0.886501 0.886144 0.892963 0.893832 0.887213 0.893832 0.887394 0.893832 0.885018 0.893832 0.883611 0.893832 0.881411 0.893832 0.879816 0.893832 0.886858 0.893832 0.888608 0.893832 0.888758 0.893832 0.888608 0.893832 0.886858 0.893832 0.879816 0.893832 0.881411 0.893832 0.883611 0.893832 0.885018 0.893832 0.887394 0.893832 0.887213 0.893832 0.892963 0.886144 0.886501 0.877721 0.876846 0.871733 0.87033 0.867691 0.886659 0.890197 0.889339 0.887245 0.895127 0.889148 0.885416 0.886205 0.893099 0.895327 0.894802 0.895825 0.895106 0.894186 0.895115 0.893928 0.886968 0.884819 0.8881 0.894136 0.88788 0.891483 0.889928 0.88566 0.870321 0.872868 0.874108 0.879004 0.880616 0.887129 0.88749 0.892854 0.893832 0.887589 0.893832 0.888238 0.893832 0.885691 0.893832 0.884289 0.893832 0.88246 0.893832 0.881579 0.893832 0.888254 0.893832 0.889578 0.893832 0.889676 0.893832 0.889578 0.893832 0.888254 0.893832 0.881579 0.893832 0.88246 0.893832 0.884289 0.893832 0.885691 0.893832 0.888238 0.893832 0.887589 0.893832 0.892854 0.88749 0.887129 0.880616 0.879004 0.874108 0.872868 0.870321 0.88566 0.889928 0.891483 0.88788 0.894136 0.8881 0.884819 0.886968 0.893928 0.895115 0.894186 0.895106 0.894436 0.893665 0.894903 0.894275 0.887688 0.884692 0.887499 0.893361 0.888648 0.892667 0.88951 0.885097 0.872948 0.875366 0.876485 0.881028 0.883009 0.887842 0.888847 0.892655 0.893832 0.888017 0.893832 0.888879 0.893832 0.886272 0.893832 0.884958 0.893832 0.883433 0.893832 0.883274 0.893832 0.889399 0.893832 0.890381 0.893832 0.890439 0.893832 0.890381 0.893832 0.889399 0.893832 0.883274 0.893832 0.883433 0.893832 0.884958 0.893832 0.886272 0.893832 0.888879 0.893832 0.888017 0.893832 0.892655 0.888847 0.887842 0.883009 0.881028 0.876485 0.875366 0.872948 0.885097 0.88951 0.892667 0.888648 0.893361 0.887499 0.884692 0.887688 0.894275 0.894903 0.893665 0.894436 0.893827 0.89324 0.894693 0.89426 0.888361 0.884907 0.887229 0.892768 0.88942 0.893075 0.889002 0.884845 0.87542 0.877709 0.878744 0.882849 0.884918 0.88863 0.890082 0.892423 0.893832 0.888463 0.893832 0.889358 0.893832 0.886784 0.893832 0.885612 0.893832 0.884357 0.893832 0.884857 0.893832 0.890334 0.893832 0.891044 0.893832 0.891071 0.893832 0.891044 0.893832 0.890334 0.893832 0.884857 0.893832 0.884357 0.893832 0.885612 0.893832 0.886784 0.893832 0.889358 0.893832 0.888463 0.893832 0.892423 0.890082 0.88863 0.884918 0.882849 0.878744 0.877709 0.87542 0.884845 0.889002 0.893075 0.88942 0.892768 0.887229 0.884907 0.888361 0.89426 0.894693 0.89324 0.893827 0.893286 0.892907 0.894485 0.89403 0.888981 0.885352 0.887191 0.892313 0.890114 0.892875 0.888452 0.884811 0.877649 0.879825 0.880809 0.884441 0.88642 0.889421 0.891123 0.892208 0.893832 0.888901 0.893832 0.889717 0.893832 0.887246 0.893832 0.886246 0.893832 0.885242 0.893832 0.886302 0.893832 0.891091 0.893832 0.891589 0.893832 0.891592 0.893832 0.891589 0.893832 0.891091 0.893832 0.886302 0.893832 0.885242 0.893832 0.886246 0.893832 0.887246 0.893832 0.889717 0.893832 0.888901 0.893832 0.892208 0.891123 0.889421 0.88642 0.884441 0.880809 0.879825 0.877649 0.884811 0.888452 0.892875 0.890114 0.892313 0.887191 0.885352 0.888981 0.89403 0.894485 0.892907 0.893286 0.892818 0.892658 0.894279 0.893711 0.889542 0.885935 0.8873 0.891952 0.890683 0.892284 0.887902 0.884932 0.879601 0.881681 0.882635 0.885801 0.887607 0.890153 0.89195 0.89204 0.893832 0.889315 0.893832 0.889989 0.893832 0.887674 0.893832 0.886856 0.893832 0.88609 0.893832 0.887592 0.893832 0.8917 0.893832 0.892036 0.893832 0.892021 0.893832 0.892036 0.893832 0.8917 0.893832 0.887592 0.893832 0.88609 0.893832 0.886856 0.893832 0.887674 0.893832 0.889989 0.893832 0.889315 0.893832 0.89204 0.89195 0.890153 0.887607 0.885801 0.882635 0.881681 0.879601 0.884932 0.887902 0.892284 0.890683 0.891952 0.8873 0.885935 0.889542 0.893711 0.894279 0.892658 0.892818 0.892424 0.89248 0.894077 0.893377 0.89004 0.886587 0.887494 0.891648 0.891097 0.891526 0.887396 0.885162 0.88128 0.883274 0.884211 0.886942 0.888564 0.89079 0.892574 0.891926 0.893832 0.889693 0.893832 0.890203 0.893832 0.888078 0.893832 0.88744 0.893832 0.8869 0.893832 0.888723 0.893832 0.892186 0.893832 0.8924 0.893832 0.892372 0.893832 0.8924 0.893832 0.892186 0.893832 0.888723 0.893832 0.8869 0.893832 0.88744 0.893832 0.888078 0.893832 0.890203 0.893832 0.889693 0.893832 0.891926 0.892574 0.89079 0.888564 0.886942 0.884211 0.883274 0.88128 0.885162 0.887396 0.891526 0.891097 0.891648 0.887494 0.886587 0.89004 0.893377 0.894077 0.89248 0.892424 0.892101 0.892359 0.89388 0.893064 0.890474 0.887255 0.887727 0.891379 0.89135 0.890764 0.886972 0.885465 0.882712 0.88462 0.885547 0.887889 0.889354 0.891321 0.893022 0.891859 0.893832 0.890032 0.893832 0.890377 0.893832 0.888465 0.893832 0.887997 0.893832 0.887669 0.893832 0.889698 0.893832 0.892571 0.893832 0.892696 0.893832 0.892659 0.893832 0.892696 0.893832 0.892571 0.893832 0.889698 0.893832 0.887669 0.893832 0.887997 0.893832 0.888465 0.893832 0.890377 0.893832 0.890032 0.893832 0.891859 0.893022 0.891321 0.889354 0.887889 0.885547 0.88462 0.882712 0.885465 0.886972 0.890764 0.89135 0.891379 0.887727 0.887255 0.890474 0.893064 0.89388 0.892359 0.892101 0.886669 0.888671 0.890024 0.891746 0.893331 0.89183 0.893832 0.89033 0.893832 0.890528 0.893832 0.88884 0.893832 0.888525 0.893832 0.888393 0.893832 0.890525 0.893832 0.892874 0.893832 0.892935 0.893832 0.892892 0.893832 0.892935 0.893832 0.892874 0.893832 0.890525 0.893832 0.888393 0.893832 0.888525 0.893832 0.88884 0.893832 0.890528 0.893832 0.89033 0.893832 0.89183 0.893331 0.891746 0.890024 0.888671 0.886669 0.891844 0.892281 0.89369 0.892781 0.890846 0.887904 0.887968 0.89113 0.891456 0.890079 0.886655 0.885814 0.883932 0.885748 0.885748 0.883932 0.885814 0.886655 0.890079 0.891456 0.89113 0.887968 0.887904 0.890846 0.892781 0.89369 0.892281 0.891844 0.891648 0.892233 0.893508 0.892534 0.891161 0.88851 0.888202 0.890895 0.891442 0.889499 0.886457 0.886188 0.884973 0.886689 0.88761 0.889319 0.890604 0.892075 0.893535 0.891829 0.893832 0.890589 0.893832 0.890665 0.893832 0.889202 0.893832 0.889023 0.893832 0.889069 0.893832 0.891215 0.893832 0.89311 0.893832 0.893127 0.893832 0.893081 0.893832 0.893127 0.893832 0.89311 0.893832 0.891215 0.893832 0.889069 0.893832 0.889023 0.893832 0.889202 0.893832 0.890665 0.893832 0.890589 0.893832 0.891829 0.893535 0.892075 0.890604 0.889319 0.88761 0.886689 0.884973 0.886188 0.886457 0.889499 0.891442 0.890895 0.888202 0.88851 0.891161 0.892534 0.893508 0.892233 0.891648 0.891504 0.892203 0.893334 0.892322 0.891424 0.88906 0.888419 0.890676 0.891338 0.889026 0.886374 0.886573 0.885867 0.887475 0.888401 0.88986 0.891113 0.892321 0.893664 0.89185 0.893832 0.890814 0.893832 0.890795 0.893832 0.889552 0.893832 0.889491 0.893832 0.889695 0.893832 0.891783 0.893832 0.893293 0.893832 0.89328 0.893832 0.893234 0.893832 0.89328 0.893832 0.893293 0.893832 0.891783 0.893832 0.889695 0.893832 0.889491 0.893832 0.889552 0.893832 0.890795 0.893832 0.890814 0.893832 0.89185 0.893664 0.892321 0.891113 0.88986 0.888401 0.887475 0.885867 0.886573 0.886374 0.889026 0.891338 0.890676 0.888419 0.88906 0.891424 0.892322 0.893334 0.892203 0.891504 0.891405 0.892182 0.893169 0.892143 0.891641 0.889545 0.888618 0.890473 0.891174 0.888652 0.886398 0.886956 0.886642 0.888136 0.889071 0.890318 0.89156 0.892499 0.893742 0.891886 0.893832 0.891009 0.893832 0.890924 0.893832 0.889889 0.893832 0.889929 0.893832 0.890269 0.893832 0.892244 0.893832 0.893432 0.893832 0.893403 0.893832 0.893356 0.893832 0.893403 0.893832 0.893432 0.893832 0.892244 0.893832 0.890269 0.893832 0.889929 0.893832 0.889889 0.893832 0.890924 0.893832 0.891009 0.893832 0.891886 0.893742 0.892499 0.89156 0.890318 0.889071 0.888136 0.886642 0.886956 0.886398 0.888652 0.891174 0.890473 0.888618 0.889545 0.891641 0.892143 0.893169 0.892182 0.891405 0.891343 0.892164 0.893015 0.891997 0.891818 0.889966 0.888799 0.890289 0.890977 0.888365 0.88651 0.887333 0.887322 0.888696 0.889642 0.890709 0.891949 0.892622 0.893787 0.891931 0.893832 0.891181 0.893832 0.891052 0.893832 0.89021 0.893832 0.890337 0.893832 0.89079 0.893832 0.892614 0.893832 0.893539 0.893832 0.893499 0.893832 0.893455 0.893832 0.893499 0.893832 0.893539 0.893832 0.892614 0.893832 0.89079 0.893832 0.890337 0.893832 0.89021 0.893832 0.891052 0.893832 0.891181 0.893832 0.891931 0.893787 0.892622 0.891949 0.890709 0.889642 0.888696 0.887322 0.887333 0.88651 0.888365 0.890977 0.890289 0.888799 0.889966 0.891818 0.891997 0.893015 0.892164 0.891343 0.89131 0.892145 0.892871 0.891879 0.891961 0.890326 0.888965 0.890126 0.890768 0.888154 0.88669 0.887697 0.887922 0.889175 0.890133 0.891046 0.892282 0.892705 0.893811 0.891983 0.893832 0.891334 0.893832 0.89118 0.893832 0.890515 0.893832 0.890714 0.893832 0.891257 0.893832 0.892906 0.893832 0.893619 0.893832 0.893576 0.893832 0.893533 0.893832 0.893576 0.893832 0.893619 0.893832 0.892906 0.893832 0.891257 0.893832 0.890714 0.893832 0.890515 0.893832 0.89118 0.893832 0.891334 0.893832 0.891983 0.893811 0.892705 0.892282 0.891046 0.890133 0.889175 0.887922 0.887697 0.88669 0.888154 0.890768 0.890126 0.888965 0.890326 0.891961 0.891879 0.892871 0.892145 0.89131 0.891299 0.892124 0.892738 0.891788 0.892077 0.890629 0.889119 0.889985 0.89056 0.888007 0.886919 0.888044 0.888456 0.889589 0.890558 0.891335 0.892562 0.892757 0.893823 0.892039 0.893832 0.891472 0.893832 0.891308 0.893832 0.890801 0.893832 0.891062 0.893832 0.891671 0.893832 0.893135 0.893832 0.893678 0.893832 0.893635 0.893832 0.893596 0.893832 0.893635 0.893832 0.893678 0.893832 0.893135 0.893832 0.891671 0.893832 0.891062 0.893832 0.890801 0.893832 0.891308 0.893832 0.891472 0.893832 0.892039 0.893823 0.892757 0.892562 0.891335 0.890558 0.889589 0.888456 0.888044 0.886919 0.888007 0.89056 0.889985 0.889119 0.890629 0.892077 0.891788 0.892738 0.892124 0.891299 0.891304 0.892098 0.892616 0.891719 0.892169 0.890881 0.889263 0.889866 0.890364 0.887914 0.887177 0.888372 0.888933 0.889948 0.890929 0.891582 0.892793 0.892787 0.893828 0.892096 0.893832 0.891598 0.893832 0.891435 0.893832 0.891067 0.893832 0.89138 0.893832 0.892035 0.893832 0.893313 0.893832 0.893723 0.893832 0.893682 0.893832 0.893645 0.893832 0.893682 0.893832 0.893723 0.893832 0.893313 0.893832 0.892035 0.893832 0.89138 0.893832 0.891067 0.893832 0.891435 0.893832 0.891598 0.893832 0.892096 0.893828 0.892787 0.892793 0.891582 0.890929 0.889948 0.888933 0.888372 0.887177 0.887914 0.890364 0.889866 0.889263 0.890881 0.892169 0.891719 0.892616 0.892098 0.891304 0.89132 0.892068 0.892504 0.89167 0.892243 0.891089 0.8894 0.889769 0.890188 0.887865 0.887449 0.888677 0.889358 0.890262 0.891252 0.891791 0.892981 0.892803 0.893831 0.892153 0.893832 0.891714 0.893832 0.891558 0.893832 0.891313 0.893832 0.891669 0.893832 0.892349 0.893832 0.893448 0.893832 0.893755 0.893832 0.893718 0.893832 0.893684 0.893832 0.893718 0.893832 0.893755 0.893832 0.893448 0.893832 0.892349 0.893832 0.891669 0.893832 0.891313 0.893832 0.891558 0.893832 0.891714 0.893832 0.892153 0.893831 0.892803 0.892981 0.891791 0.891252 0.890262 0.889358 0.888677 0.887449 0.887865 0.890188 0.889769 0.8894 0.891089 0.892243 0.89167 0.892504 0.892068 0.89132 0.891343 0.892036 0.892404 0.891638 0.892302 0.89126 0.889529 0.88969 0.890032 0.887849 0.887723 0.888957 0.889734 0.890536 0.891533 0.891965 0.893132 0.89281 0.893832 0.892208 0.893832 0.891819 0.893832 0.891677 0.893832 0.891537 0.893832 0.89193 0.893832 0.892619 0.893832 0.893551 0.893832 0.893778 0.893832 0.893746 0.893832 0.893715 0.893832 0.893746 0.893832 0.893778 0.893832 0.893551 0.893832 0.892619 0.893832 0.89193 0.893832 0.891537 0.893832 0.891677 0.893832 0.891819 0.893832 0.892208 0.893832 0.89281 0.893132 0.891965 0.891533 0.890536 0.889734 0.888957 0.887723 0.887849 0.890032 0.88969 0.889529 0.89126 0.892302 0.891638 0.892404 0.892036 0.891343 0.89137 0.892001 0.892315 0.891619 0.892349 0.891398 0.88965 0.889629 0.889899 0.88786 0.887988 0.889211 0.890066 0.890773 0.891776 0.892107 0.893252 0.892811 0.893832 0.89226 0.893832 0.891915 0.893832 0.89179 0.893832 0.89174 0.893832 0.892162 0.893832 0.892846 0.893832 0.893628 0.893832 0.893795 0.893832 0.893767 0.893832 0.89374 0.893832 0.893767 0.893832 0.893795 0.893832 0.893628 0.893832 0.892846 0.893832 0.892162 0.893832 0.89174 0.893832 0.89179 0.893832 0.891915 0.893832 0.89226 0.893832 0.892811 0.893252 0.892107 0.891776 0.890773 0.890066 0.889211 0.887988 0.88786 0.889899 0.889629 0.88965 0.891398 0.892349 0.891619 0.892315 0.892001 0.89137 0.891397 0.891967 0.892236 0.891611 0.892386 0.89151 0.889763 0.889583 0.889787 0.887888 0.888237 0.889438 0.890354 0.890977 0.891985 0.892222 0.893345 0.892809 0.893832 0.892308 0.893832 0.892002 0.893832 0.891894 0.893832 0.89192 0.893832 0.892367 0.893832 0.893036 0.893832 0.893686 0.893832 0.893807 0.893832 0.893783 0.893832 0.893759 0.893832 0.893783 0.893832 0.893807 0.893832 0.893686 0.893832 0.893036 0.893832 0.892367 0.893832 0.89192 0.893832 0.891894 0.893832 0.892002 0.893832 0.892308 0.893832 0.892809 0.893345 0.892222 0.891985 0.890977 0.890354 0.889438 0.888237 0.887888 0.889787 0.889583 0.889763 0.89151 0.892386 0.891611 0.892236 0.891967 0.891397 0.891424 0.891933 0.892167 0.89161 0.892415 0.891599 0.889867 0.889548 0.889695 0.887928 0.888463 0.889636 0.890601 0.89115 0.89216 0.892313 0.893417 0.892806 0.893832 0.892352 0.893832 0.892079 0.893832 0.891989 0.893832 0.892077 0.893832 0.892545 0.893832 0.893192 0.893832 0.893728 0.893832 0.893815 0.893832 0.893795 0.893832 0.893773 0.893832 0.893795 0.893832 0.893815 0.893832 0.893728 0.893832 0.893192 0.893832 0.892545 0.893832 0.892077 0.893832 0.891989 0.893832 0.892079 0.893832 0.892352 0.893832 0.892806 0.893417 0.892313 0.89216 0.89115 0.890601 0.889636 0.888463 0.887928 0.889695 0.889548 0.889867 0.891599 0.892415 0.89161 0.892167 0.891933 0.891424 0.891448 0.891901 0.892109 0.891613 0.892439 0.89167 0.88996 0.889524 0.889621 0.887973 0.888662 0.889807 0.890809 0.891294 0.892306 0.892383 0.893471 0.892803 0.893832 0.892391 0.893832 0.892146 0.893832 0.892073 0.893832 0.892212 0.893832 0.892697 0.893832 0.893318 0.893832 0.893758 0.893832 0.893821 0.893832 0.893805 0.893832 0.893785 0.893832 0.893805 0.893832 0.893821 0.893832 0.893758 0.893832 0.893318 0.893832 0.892697 0.893832 0.892212 0.893832 0.892073 0.893832 0.892146 0.893832 0.892391 0.893832 0.892803 0.893471 0.892383 0.892306 0.891294 0.890809 0.889807 0.888662 0.887973 0.889621 0.889524 0.88996 0.89167 0.892439 0.891613 0.892109 0.891901 0.891448 0.891469 0.891873 0.892061 0.89162 0.892456 0.891724 0.89004 0.889507 0.889562 0.888019 0.888831 0.889948 0.890979 0.891411 0.892424 0.892437 0.893512 0.8928 0.893832 0.892424 0.893832 0.892203 0.893832 0.892144 0.893832 0.892324 0.893832 0.892822 0.893832 0.893417 0.893832 0.89378 0.893832 0.893825 0.893832 0.893811 0.893832 0.893793 0.893832 0.893811 0.893832 0.893825 0.893832 0.89378 0.893832 0.893417 0.893832 0.892822 0.893832 0.892324 0.893832 0.892144 0.893832 0.892203 0.893832 0.892424 0.893832 0.8928 0.893512 0.892437 0.892424 0.891411 0.890979 0.889948 0.888831 0.888019 0.889562 0.889507 0.89004 0.891724 0.892456 0.89162 0.892061 0.891873 0.891469 0.891486 0.891849 0.892023 0.891628 0.89247 0.891765 0.890106 0.889496 0.889518 0.888061 0.888968 0.890061 0.891113 0.891502 0.892515 0.892477 0.893542 0.892797 0.893832 0.892451 0.893832 0.892249 0.893832 0.892202 0.893832 0.892414 0.893832 0.892921 0.893832 0.893492 0.893832 0.893795 0.893832 0.893827 0.893832 0.893816 0.893832 0.8938 0.893832 0.893816 0.893832 0.893827 0.893832 0.893795 0.893832 0.893492 0.893832 0.892921 0.893832 0.892414 0.893832 0.892202 0.893832 0.892249 0.893832 0.892451 0.893832 0.892797 0.893542 0.892477 0.892515 0.891502 0.891113 0.890061 0.888968 0.888061 0.889518 0.889496 0.890106 0.891765 0.89247 0.891628 0.892023 0.891849 0.891486 0.891499 0.89183 0.891995 0.891635 0.892479 0.891795 0.890156 0.889489 0.889487 0.888095 0.889072 0.890146 0.891212 0.891569 0.892582 0.892505 0.893563 0.892795 0.893832 0.892472 0.893832 0.892284 0.893832 0.892247 0.893832 0.892482 0.893832 0.892996 0.893832 0.893547 0.893832 0.893805 0.893832 0.893829 0.893832 0.89382 0.893832 0.893804 0.893832 0.89382 0.893832 0.893829 0.893832 0.893805 0.893832 0.893547 0.893832 0.892996 0.893832 0.892482 0.893832 0.892247 0.893832 0.892284 0.893832 0.892472 0.893832 0.892795 0.893563 0.892505 0.892582 0.891569 0.891212 0.890146 0.889072 0.888095 0.889487 0.889489 0.890156 0.891795 0.892479 0.891635 0.891995 0.89183 0.891499 0.891508 0.891817 0.891976 0.89164 0.892486 0.891814 0.890191 0.889485 0.889466 0.888119 0.889142 0.890202 0.891278 0.891613 0.892626 0.892522 0.893576 0.892794 0.893832 0.892485 0.893832 0.892307 0.893832 0.892277 0.893832 0.892526 0.893832 0.893045 0.893832 0.893582 0.893832 0.893811 0.893832 0.89383 0.893832 0.893822 0.893832 0.893807 0.893832 0.893822 0.893832 0.89383 0.893832 0.893811 0.893832 0.893582 0.893832 0.893045 0.893832 0.892526 0.893832 0.892277 0.893832 0.892307 0.893832 0.892485 0.893832 0.892794 0.893576 0.892522 0.892626 0.891613 0.891278 0.890202 0.889142 0.888119 0.889466 0.889485 0.890191 0.891814 0.892486 0.89164 0.891976 0.891817 0.891508 0.891512 0.891811 0.891967 0.891643 0.892489 0.891823 0.890208 0.889483 0.889456 0.888132 0.889177 0.89023 0.89131 0.891635 0.892648 0.892531 0.893582 0.892793 0.893832 0.892492 0.893832 0.892319 0.893832 0.892292 0.893832 0.892549 0.893832 0.89307 0.893832 0.893599 0.893832 0.893814 0.893832 0.89383 0.893832 0.893823 0.893832 0.893808 0.893832 0.893823 0.893832 0.89383 0.893832 0.893814 0.893832 0.893599 0.893832 0.89307 0.893832 0.892549 0.893832 0.892292 0.893832 0.892319 0.893832 0.892492 0.893832 0.892793 0.893582 0.892531 0.892648 0.891635 0.89131 0.89023 0.889177 0.888132 0.889456 0.889483 0.890208 0.891823 0.892489 0.891643 0.891967 0.891811 0.891512 
SCALARS Axial_Stress float 1
LOOKUP_TABLE default
-809163000000.0 -660202000000.0 -571244000000.0 -571244000000.0 -660202000000.0 -809163000000.0 -1.29005e+12 -1.0792e+12 -1.80091e+12 -1.22758e+12 -555444000000.0 -321732000000.0 -49066100000.0 -106974000000.0 -351894000000.0 -251950000000.0 -192123000000.0 -155340000000.0 -132275000000.0 -134593000000.0 -124583000000.0 -134593000000.0 -132275000000.0 -155340000000.0 -192123000000.0 -251950000000.0 -351894000000.0 -106974000000.0 -49066100000.0 -321732000000.0 -555444000000.0 -1.22758e+12 -1.80091e+12 -1.0792e+12 -1.29005e+12 -1.47082e+12 -2.38467e+12 -2.12029e+12 -1.57883e+12 -770462000000.0 -169819000000.0 -285830000000.0 -475395000000.0 -217922000000.0 -217922000000.0 -475395000000.0 -285830000000.0 -169819000000.0 -770462000000.0 -1.57883e+12 -2.12029e+12 -2.38467e+12 -1.47082e+12 -1.75181e+12 -1.62314e+12 -2.61175e+12 -1.86799e+12 -1.36836e+12 -459747000000.0 -661482000000.0 -608626000000.0 -500043000000.0 -382630000000.0 -289405000000.0 -289058000000.0 -200602000000.0 -203753000000.0 -186576000000.0 -196575000000.0 -186576000000.0 -203753000000.0 -200602000000.0 -289058000000.0 -289405000000.0 -382630000000.0 -500043000000.0 -608626000000.0 -661482000000.0 -459747000000.0 -1.36836e+12 -1.86799e+12 -2.61175e+12 -1.62314e+12 -1.75181e+12 -1.86125e+12 -2.81369e+12 -2.36243e+12 -2.13064e+12 -1.67172e+12 -1.2598e+12 -1.85771e+12 -915101000000.0 -690014000000.0 -592886000000.0 -63031400000.0 -50481100000.0 -38609000000.0 -38609000000.0 -50481100000.0 -63031400000.0 -592886000000.0 -690014000000.0 -915101000000.0 -1.85771e+12 -1.2598e+12 -1.67172e+12 -2.13064e+12 -2.36243e+12 -2.81369e+12 -1.86125e+12 -1.95949e+12 -2.99901e+12 -2.75983e+12 -2.56914e+12 -2.33742e+12 -1.91598e+12 -1.75892e+12 -1.5382e+12 -1.634e+12 -1.6009e+12 -1.01446e+12 -739592000000.0 -142388000000.0 -132684000000.0 -66411200000.0 -61880100000.0 -66411200000.0 -132684000000.0 -142388000000.0 -739592000000.0 -1.01446e+12 -1.6009e+12 -1.634e+12 -1.5382e+12 -1.75892e+12 -1.91598e+12 -2.33742e+12 -2.56914e+12 -2.75983e+12 -2.99901e+12 -1.95949e+12 -2.16751e+12 -2.05618e+12 -3.34079e+12 -3.17352e+12 -2.93927e+12 -2.52634e+12 -2.13637e+12 -1.94962e+12 -1.70614e+12 -1.65843e+12 -1.25858e+12 -998578000000.0 -328298000000.0 -42754500000.0 -160041000000.0 -80163500000.0 -78359900000.0 -69353600000.0 -32966600000.0 -37794800000.0 -29956300000.0 -37794800000.0 -32966600000.0 -69353600000.0 -78359900000.0 -80163500000.0 -160041000000.0 -42754500000.0 -328298000000.0 -998578000000.0 -1.25858e+12 -1.65843e+12 -1.70614e+12 -1.94962e+12 -2.13637e+12 -2.52635e+12 -2.93927e+12 -3.17352e+12 -3.34079e+12 -2.05618e+12 -2.16751e+12 -2.30567e+12 -3.51028e+12 -3.10814e+12 -2.70789e+12 -2.47553e+12 -2.2991e+12 -2.12513e+12 -1.83037e+12 -1.66861e+12 -1.60492e+12 -1.21818e+12 -615430000000.0 -306763000000.0 -116422000000.0 -116423000000.0 -306763000000.0 -615430000000.0 -1.21818e+12 -1.60492e+12 -1.66861e+12 -1.83037e+12 -2.12513e+12 -2.2991e+12 -2.47553e+12 -2.70789e+12 -3.10814e+12 -3.51028e+12 -2.30567e+12 -2.47826e+12 -3.69944e+12 -3.42642e+12 -3.26589e+12 -3.04017e+12 -2.88075e+12 -2.65167e+12 -2.24291e+12 -1.95174e+12 -1.81818e+12 -1.76241e+12 -1.75959e+12 -568869000000.0 -408649000000.0 -141379000000.0 -50517300000.0 -123768000000.0 -19072100000.0 -60888300000.0 -15576300000.0 -60888300000.0 -19072100000.0 -123768000000.0 -50517400000.0 -141379000000.0 -408649000000.0 -568869000000.0 -1.75959e+12 -1.76241e+12 -1.81818e+12 -1.95174e+12 -2.24291e+12 -2.65167e+12 -2.88075e+12 -3.04017e+12 -3.26589e+12 -3.42642e+12 -3.69944e+12 -2.47826e+12 -2.667e+12 -4.2309e+12 -3.933e+12 -3.60776e+12 -3.18403e+12 -2.81768e+12 -2.40818e+12 -2.14381e+12 -2.08902e+12 -1.89939e+12 -1.73074e+12 -1.84808e+12 -1.01647e+12 -448605000000.0 -337967000000.0 -285748000000.0 -223200000000.0 -170080000000.0 -76415700000.0 -199141000000.0 -47926200000.0 -113890000000.0 -42807000000.0 -113890000000.0 -47926200000.0 -199141000000.0 -76415700000.0 -170080000000.0 -223200000000.0 -285748000000.0 -337967000000.0 -448605000000.0 -1.01647e+12 -1.84808e+12 -1.73074e+12 -1.89939e+12 -2.08902e+12 -2.14381e+12 -2.40818e+12 -2.81768e+12 -3.18403e+12 -3.60776e+12 -3.933e+12 -4.2309e+12 -2.667e+12 -2.67189e+12 -2.84481e+12 -4.56069e+12 -3.84269e+12 -3.31688e+12 -2.96342e+12 -2.73897e+12 -2.57794e+12 -2.30842e+12 -2.00553e+12 -1.73653e+12 -1.62588e+12 -1.69449e+12 -1.59832e+12 -928628000000.0 -268423000000.0 -139731000000.0 -139731000000.0 -268423000000.0 -928628000000.0 -1.59832e+12 -1.69449e+12 -1.62588e+12 -1.73653e+12 -2.00553e+12 -2.30842e+12 -2.57794e+12 -2.73897e+12 -2.96342e+12 -3.31688e+12 -3.84269e+12 -4.56069e+12 -2.84481e+12 -2.67189e+12 -1.93811e+12 -4.60744e+12 -4.17359e+12 -3.65001e+12 -3.46343e+12 -3.16379e+12 -3.08108e+12 -2.87373e+12 -2.49116e+12 -2.00526e+12 -1.78506e+12 -1.57704e+12 -1.51993e+12 -891058000000.0 -809471000000.0 -761343000000.0 -636923000000.0 -211934000000.0 -57584400000.0 -204642000000.0 -26494000000.0 -107052000000.0 -21626800000.0 -107052000000.0 -26494100000.0 -204642000000.0 -57584400000.0 -211934000000.0 -636923000000.0 -761343000000.0 -809471000000.0 -891058000000.0 -1.51993e+12 -1.57704e+12 -1.78506e+12 -2.00526e+12 -2.49116e+12 -2.87373e+12 -3.08108e+12 -3.16379e+12 -3.46343e+12 -3.65001e+12 -4.17359e+12 -4.60744e+12 -1.93811e+12 -1.91971e+12 -2.8418e+12 -2.65492e+12 -4.45899e+12 -3.92582e+12 -3.22416e+12 -2.95399e+12 -2.66755e+12 -2.20221e+12 -1.84406e+12 -1.86326e+12 -1.59593e+12 -1.45139e+12 -1.41653e+12 -768142000000.0 -686860000000.0 -541492000000.0 -99499800000.0 -41093500000.0 -215031000000.0 -17008300000.0 -116003000000.0 -13164100000.0 -116003000000.0 -17008300000.0 -215031000000.0 -41093500000.0 -99499800000.0 -541491000000.0 -686860000000.0 -768142000000.0 -1.41653e+12 -1.45139e+12 -1.59593e+12 -1.86326e+12 -1.84406e+12 -2.20221e+12 -2.66755e+12 -2.95399e+12 -3.22416e+12 -3.92582e+12 -4.45899e+12 -2.65492e+12 -2.8418e+12 -1.91971e+12 -1.82169e+12 -2.49956e+12 -3.24989e+12 -2.46931e+12 -3.22265e+12 -2.96943e+12 -2.99093e+12 -2.83813e+12 -2.79392e+12 -2.64371e+12 -2.43928e+12 -2.13368e+12 -1.65444e+12 -1.31016e+12 -1.24112e+12 -1.32149e+12 -1.29032e+12 -712599000000.0 -590642000000.0 -377526000000.0 -198219000000.0 -198218000000.0 -377526000000.0 -590642000000.0 -712599000000.0 -1.29032e+12 -1.32149e+12 -1.24112e+12 -1.31016e+12 -1.65444e+12 -2.13368e+12 -2.43928e+12 -2.64371e+12 -2.79392e+12 -2.83813e+12 -2.99093e+12 -2.96943e+12 -3.22265e+12 -2.46931e+12 -3.24989e+12 -2.49956e+12 -1.82169e+12 -1.74672e+12 -2.91491e+12 -2.79746e+12 -2.57616e+12 -2.94543e+12 -2.80332e+12 -2.45318e+12 -2.67028e+12 -2.81767e+12 -2.77208e+12 -2.41137e+12 -1.75462e+12 -1.31301e+12 -1.3097e+12 -833056000000.0 -1.11149e+12 -644520000000.0 -628381000000.0 -554893000000.0 -487619000000.0 -391533000000.0 -171241000000.0 -240587000000.0 -47280300000.0 -155072000000.0 -38444500000.0 -155072000000.0 -47280200000.0 -240588000000.0 -171241000000.0 -391533000000.0 -487618000000.0 -554893000000.0 -628381000000.0 -644520000000.0 -1.11149e+12 -833056000000.0 -1.3097e+12 -1.31301e+12 -1.75462e+12 -2.41137e+12 -2.77208e+12 -2.81767e+12 -2.67028e+12 -2.45318e+12 -2.80332e+12 -2.94543e+12 -2.57616e+12 -2.79746e+12 -2.91491e+12 -1.74672e+12 -1.59492e+12 -1.70025e+12 -2.97553e+12 -2.77425e+12 -2.82547e+12 -3.02301e+12 -2.70653e+12 -2.70023e+12 -2.71674e+12 -2.76056e+12 -2.87698e+12 -2.67876e+12 -2.41536e+12 -2.05375e+12 -1.02765e+12 -1.24243e+12 -1.21686e+12 -552167000000.0 -666752000000.0 -597689000000.0 -476362000000.0 -300656000000.0 -272641000000.0 -266590000000.0 -61831900000.0 -165872000000.0 -36751100000.0 -165872000000.0 -61831700000.0 -266590000000.0 -272641000000.0 -300655000000.0 -476362000000.0 -597689000000.0 -666752000000.0 -552167000000.0 -1.21686e+12 -1.24243e+12 -1.02765e+12 -2.05375e+12 -2.41536e+12 -2.67876e+12 -2.87698e+12 -2.76056e+12 -2.71674e+12 -2.70023e+12 -2.70653e+12 -3.02301e+12 -2.82547e+12 -2.77425e+12 -2.97553e+12 -1.70025e+12 -1.59492e+12 -1.94201e+12 -2.92829e+12 -2.81659e+12 -2.74222e+12 -2.72059e+12 -2.79526e+12 -2.65494e+12 -2.53448e+12 -2.46256e+12 -2.64195e+12 -2.73599e+12 -2.857e+12 -1.90468e+12 -1.64473e+12 -1.40534e+12 -1.5217e+12 -471368000000.0 -1.21201e+12 -854017000000.0 -1.19122e+12 -699758000000.0 -542738000000.0 -412669000000.0 -412668000000.0 -542738000000.0 -699758000000.0 -1.19122e+12 -854017000000.0 -1.21201e+12 -471368000000.0 -1.5217e+12 -1.40534e+12 -1.64473e+12 -1.90468e+12 -2.857e+12 -2.73599e+12 -2.64195e+12 -2.46256e+12 -2.53448e+12 -2.65494e+12 -2.79526e+12 -2.72059e+12 -2.74222e+12 -2.81659e+12 -2.92829e+12 -1.94201e+12 -1.89281e+12 -3.1572e+12 -3.11686e+12 -2.82339e+12 -2.6977e+12 -3.32045e+12 -2.65579e+12 -2.23051e+12 -3.01504e+12 -2.21223e+12 -2.00943e+12 -3.21009e+12 -2.4505e+12 -1.32485e+12 -1.14231e+12 -409421000000.0 -527197000000.0 -557649000000.0 -565791000000.0 -464832000000.0 -427618000000.0 -333359000000.0 -317177000000.0 -275229000000.0 -93303500000.0 -203884000000.0 -60734900000.0 -203884000000.0 -93303500000.0 -275229000000.0 -317177000000.0 -333359000000.0 -427618000000.0 -464832000000.0 -565791000000.0 -557648000000.0 -527197000000.0 -409421000000.0 -1.14231e+12 -1.32485e+12 -2.4505e+12 -3.21009e+12 -2.00943e+12 -2.21223e+12 -3.01504e+12 -2.23051e+12 -2.65579e+12 -3.32045e+12 -2.6977e+12 -2.82339e+12 -3.11686e+12 -3.1572e+12 -1.89281e+12 -1.79675e+12 -3.28915e+12 -3.50521e+12 -2.98659e+12 -3.0301e+12 -3.05032e+12 -4.41616e+12 -3.08845e+12 -1.53369e+12 -3.80073e+12 -2.73333e+12 -2.38564e+12 -2.05822e+12 -1.37261e+12 -3.06003e+12 -1.55728e+12 -1.24198e+12 -1.78704e+12 -1.57374e+12 -900527000000.0 -902252000000.0 -776251000000.0 -469483000000.0 -439206000000.0 -359983000000.0 -387478000000.0 -289661000000.0 -130505000000.0 -232061000000.0 -108801000000.0 -232061000000.0 -130505000000.0 -289661000000.0 -387478000000.0 -359983000000.0 -439206000000.0 -469483000000.0 -776251000000.0 -902252000000.0 -900527000000.0 -1.57374e+12 -1.78704e+12 -1.24198e+12 -1.55728e+12 -3.06003e+12 -1.37261e+12 -2.05822e+12 -2.38564e+12 -2.73333e+12 -3.80073e+12 -1.53369e+12 -3.08845e+12 -4.41616e+12 -3.05032e+12 -3.0301e+12 -2.98659e+12 -3.50521e+12 -3.28915e+12 -1.79675e+12 -1.66744e+12 -2.9824e+12 -3.18522e+12 -2.98571e+12 -2.75459e+12 -3.10437e+12 -3.65227e+12 -1.71974e+12 -2.55155e+12 -1.38603e+12 -2.93255e+12 -1.25843e+12 -1.15185e+12 -2.51997e+12 -1.60546e+12 -1.28015e+12 -1.85026e+12 -1.1559e+12 -1.62337e+12 -974175000000.0 -514597000000.0 -751359000000.0 -609899000000.0 -478684000000.0 -478684000000.0 -609899000000.0 -751359000000.0 -514597000000.0 -974175000000.0 -1.62337e+12 -1.1559e+12 -1.85026e+12 -1.28015e+12 -1.60546e+12 -2.51997e+12 -1.15185e+12 -1.25843e+12 -2.93255e+12 -1.38603e+12 -2.55155e+12 -1.71974e+12 -3.65227e+12 -3.10437e+12 -2.75459e+12 -2.98571e+12 -3.18522e+12 -2.9824e+12 -1.66744e+12 -1.0838e+12 -1.35612e+12 -2.38548e+12 -3.08641e+12 -3.14169e+12 -3.06843e+12 -2.96384e+12 -2.05242e+12 -4.11297e+12 -3.68876e+12 -3.89875e+12 -774757000000.0 -2.77825e+12 -2.0938e+12 -1.19903e+12 -768950000000.0 -1.98791e+12 -1.21679e+12 -1.13702e+12 -1.03486e+12 -773017000000.0 -555485000000.0 -624467000000.0 -376178000000.0 -480301000000.0 -380508000000.0 -510254000000.0 -313965000000.0 -211677000000.0 -254272000000.0 -180670000000.0 -254272000000.0 -211677000000.0 -313965000000.0 -510254000000.0 -380508000000.0 -480301000000.0 -376178000000.0 -624466000000.0 -555485000000.0 -773017000000.0 -1.03486e+12 -1.13702e+12 -1.21679e+12 -1.98791e+12 -768950000000.0 -1.19903e+12 -2.0938e+12 -2.77825e+12 -774757000000.0 -3.89875e+12 -3.68876e+12 -4.11297e+12 -2.05242e+12 -2.96384e+12 -3.06843e+12 -3.14169e+12 -3.08641e+12 -2.38548e+12 -1.35612e+12 -1.0838e+12 -1.05214e+12 -1.24611e+12 -1.42752e+12 -2.76345e+12 -3.08908e+12 -3.05661e+12 -2.70051e+12 -3.55331e+12 -2.58848e+12 -3.86687e+12 -2.96688e+12 -2.86162e+12 -2.49227e+12 -1.18788e+12 -1.43384e+12 -1.01566e+12 -631321000000.0 -1.47052e+12 -1.62264e+12 -1.48649e+12 -1.10667e+12 -595545000000.0 -688079000000.0 -489167000000.0 -349327000000.0 -314617000000.0 -328784000000.0 -249690000000.0 -283381000000.0 -249690000000.0 -328784000000.0 -314617000000.0 -349327000000.0 -489167000000.0 -688079000000.0 -595545000000.0 -1.10667e+12 -1.48649e+12 -1.62264e+12 -1.47052e+12 -631321000000.0 -1.01566e+12 -1.43384e+12 -1.18788e+12 -2.49227e+12 -2.86162e+12 -2.96688e+12 -3.86687e+12 -2.58848e+12 -3.55331e+12 -2.70051e+12 -3.05661e+12 -3.08908e+12 -2.76345e+12 -1.42752e+12 -1.24611e+12 -1.05214e+12 -885043000000.0 -1.57802e+12 -1.26836e+12 -1.35046e+12 -3.29931e+12 -3.3256e+12 -2.5233e+12 -1.65038e+12 -4.13509e+12 -2.55985e+12 -2.9822e+12 -2.88209e+12 -2.56493e+12 -2.44585e+12 -2.9688e+12 -1.57453e+12 -1.47591e+12 -767757000000.0 -1.05835e+12 -1.07674e+12 -1.00247e+12 -1.13924e+12 -984327000000.0 -999595000000.0 -889495000000.0 -673553000000.0 -405814000000.0 -510584000000.0 -588161000000.0 -588161000000.0 -510584000000.0 -405814000000.0 -673553000000.0 -889495000000.0 -999595000000.0 -984327000000.0 -1.13924e+12 -1.00247e+12 -1.07674e+12 -1.05835e+12 -767757000000.0 -1.47591e+12 -1.57453e+12 -2.9688e+12 -2.44585e+12 -2.56493e+12 -2.88209e+12 -2.9822e+12 -2.55985e+12 -4.13509e+12 -1.65038e+12 -2.5233e+12 -3.3256e+12 -3.29931e+12 -1.35046e+12 -1.26836e+12 -1.57802e+12 -885043000000.0 -654809000000.0 -1.44196e+12 -1.62666e+12 -1.53648e+12 -1.32963e+12 -1.28263e+12 -1.18683e+12 -1.03611e+12 -3.1332e+12 -1.85887e+12 -2.97567e+12 -2.54908e+12 -2.65968e+12 -2.46218e+12 -2.28574e+12 -2.3761e+12 -1.42305e+12 -1.86532e+12 -1.1894e+12 -896156000000.0 -824241000000.0 -768986000000.0 -818927000000.0 -820367000000.0 -750523000000.0 -439132000000.0 -555709000000.0 -306426000000.0 -348589000000.0 -578000000000.0 -304961000000.0 -444691000000.0 -269749000000.0 -405009000000.0 -269749000000.0 -444691000000.0 -304961000000.0 -578000000000.0 -348589000000.0 -306426000000.0 -555709000000.0 -439132000000.0 -750523000000.0 -820367000000.0 -818927000000.0 -768986000000.0 -824241000000.0 -896156000000.0 -1.1894e+12 -1.86532e+12 -1.42305e+12 -2.3761e+12 -2.28574e+12 -2.46218e+12 -2.65968e+12 -2.54908e+12 -2.97567e+12 -1.85887e+12 -3.1332e+12 -1.03611e+12 -1.18683e+12 -1.28263e+12 -1.32963e+12 -1.53648e+12 -1.62666e+12 -1.44196e+12 -654809000000.0 -556313000000.0 -946672000000.0 -1.56088e+12 -1.14656e+12 -1.15997e+12 -1.22196e+12 -969627000000.0 -3.21752e+12 -2.34585e+12 -2.28812e+12 -2.16243e+12 -2.10333e+12 -1.82233e+12 -1.20151e+12 -1.00723e+12 -861202000000.0 -798488000000.0 -635198000000.0 -677412000000.0 -707476000000.0 -564057000000.0 -610880000000.0 -616857000000.0 -419003000000.0 -204877000000.0 -22932200000.0 -22932200000.0 -204877000000.0 -419003000000.0 -616857000000.0 -610880000000.0 -564057000000.0 -707476000000.0 -677412000000.0 -635198000000.0 -798488000000.0 -861202000000.0 -1.00723e+12 -1.20151e+12 -1.82233e+12 -2.10333e+12 -2.16243e+12 -2.28812e+12 -2.34585e+12 -3.21752e+12 -969627000000.0 -1.22196e+12 -1.15997e+12 -1.14656e+12 -1.56088e+12 -946672000000.0 -556313000000.0 -49625600000.0 -202749000000.0 -972283000000.0 -1.50859e+12 -920239000000.0 -1.15681e+12 -1.20116e+12 -1.24874e+12 -1.57452e+12 -3.02279e+12 -2.25885e+12 -2.53602e+12 -1.96985e+12 -1.97023e+12 -2.22559e+12 -1.91269e+12 -1.6827e+12 -567829000000.0 -592090000000.0 -654008000000.0 -320892000000.0 -515680000000.0 -218470000000.0 -584463000000.0 -258436000000.0 -624280000000.0 -284222000000.0 -327353000000.0 -348161000000.0 -423758000000.0 -265526000000.0 -175420000000.0 -265526000000.0 -423758000000.0 -348161000000.0 -327353000000.0 -284222000000.0 -624280000000.0 -258436000000.0 -584463000000.0 -218470000000.0 -515680000000.0 -320892000000.0 -654008000000.0 -592090000000.0 -567829000000.0 -1.6827e+12 -1.91269e+12 -2.22559e+12 -1.97023e+12 -1.96985e+12 -2.53602e+12 -2.25885e+12 -3.02279e+12 -1.57452e+12 -1.24874e+12 -1.20116e+12 -1.15681e+12 -920239000000.0 -1.50859e+12 -972283000000.0 -202749000000.0 -49625600000.0 -776658000000.0 -491693000000.0 -748742000000.0 -1.07055e+12 -1.49608e+12 -967535000000.0 -1.04329e+12 -1.1983e+12 -1.3068e+12 -1.50249e+12 -1.03952e+12 -2.23261e+12 -2.13906e+12 -2.16676e+12 -2.05223e+12 -1.9977e+12 -1.7612e+12 -1.65994e+12 -1.15605e+12 -829874000000.0 -843001000000.0 -869526000000.0 -653850000000.0 -509397000000.0 -338578000000.0 -358363000000.0 -272334000000.0 -296013000000.0 -163266000000.0 -471316000000.0 -213438000000.0 -354220000000.0 -183570000000.0 -325607000000.0 -183570000000.0 -354220000000.0 -213438000000.0 -471316000000.0 -163266000000.0 -296013000000.0 -272335000000.0 -358363000000.0 -338578000000.0 -509397000000.0 -653850000000.0 -869526000000.0 -843001000000.0 -829874000000.0 -1.15605e+12 -1.65994e+12 -1.7612e+12 -1.9977e+12 -2.05223e+12 -2.16676e+12 -2.13906e+12 -2.23261e+12 -1.03952e+12 -1.50249e+12 -1.3068e+12 -1.1983e+12 -1.04329e+12 -967535000000.0 -1.49608e+12 -1.07055e+12 -748742000000.0 -491692000000.0 -776658000000.0 -425314000000.0 -1.31627e+12 -723614000000.0 -749783000000.0 -1.23844e+12 -996654000000.0 -1.15867e+12 -2.10156e+12 -1.92147e+12 -1.84824e+12 -1.7457e+12 -1.70815e+12 -1.74649e+12 -1.53393e+12 -1.43693e+12 -1.16321e+12 -1.00894e+12 -966121000000.0 -762289000000.0 -678725000000.0 -485682000000.0 -238805000000.0 -246611000000.0 -246611000000.0 -238805000000.0 -485682000000.0 -678725000000.0 -762289000000.0 -966121000000.0 -1.00894e+12 -1.16321e+12 -1.43693e+12 -1.53393e+12 -1.74649e+12 -1.70815e+12 -1.7457e+12 -1.84824e+12 -1.92147e+12 -2.10156e+12 -1.15867e+12 -996654000000.0 -1.23844e+12 -749783000000.0 -723614000000.0 -1.31627e+12 -425314000000.0 -188620000000.0 -1.92548e+12 -643809000000.0 -894722000000.0 -1.36513e+12 -1.57088e+12 -448103000000.0 -1.89533e+12 -1.47969e+12 -1.18283e+12 -1.71713e+12 -1.61342e+12 -1.50337e+12 -1.32678e+12 -1.55295e+12 -1.54418e+12 -1.47822e+12 -1.37502e+12 -740013000000.0 -397826000000.0 -440338000000.0 -676683000000.0 -368721000000.0 -554292000000.0 -406956000000.0 -640908000000.0 -402500000000.0 -537275000000.0 -387368000000.0 -327034000000.0 -83571900000.0 -367588000000.0 -26281300000.0 -193557000000.0 -12685200000.0 -165325000000.0 -12685200000.0 -193556000000.0 -26281300000.0 -367589000000.0 -83571900000.0 -327034000000.0 -387368000000.0 -537275000000.0 -402500000000.0 -640908000000.0 -406956000000.0 -554292000000.0 -368721000000.0 -676683000000.0 -440338000000.0 -397826000000.0 -740013000000.0 -1.37502e+12 -1.47822e+12 -1.54418e+12 -1.55295e+12 -1.32678e+12 -1.50337e+12 -1.61342e+12 -1.71713e+12 -1.18283e+12 -1.47969e+12 -1.89533e+12 -448103000000.0 -1.57088e+12 -1.36513e+12 -894721000000.0 -643809000000.0 -1.92548e+12 -188620000000.0 -281992000000.0 -496614000000.0 -1.03729e+12 -245489000000.0 -624107000000.0 -1.75837e+12 -1.07306e+12 -1.31734e+12 -1.13842e+12 -1.54903e+12 -1.40589e+12 -1.28933e+12 -1.13354e+12 -988229000000.0 -1.01329e+12 -444042000000.0 -507724000000.0 -345509000000.0 -230352000000.0 -197510000000.0 -402142000000.0 -19526400000.0 -217041000000.0 -20613200000.0 -287064000000.0 -25388200000.0 -164989000000.0 -23890600000.0 -148997000000.0 -23890600000.0 -164989000000.0 -25388100000.0 -287064000000.0 -20613200000.0 -217041000000.0 -19526400000.0 -402142000000.0 -197511000000.0 -230352000000.0 -345509000000.0 -507724000000.0 -444042000000.0 -1.01329e+12 -988229000000.0 -1.13354e+12 -1.28933e+12 -1.40589e+12 -1.54903e+12 -1.13842e+12 -1.31734e+12 -1.07306e+12 -1.75837e+12 -624107000000.0 -245489000000.0 -1.03729e+12 -496614000000.0 -281992000000.0 -168353000000.0 -414331000000.0 -499098000000.0 -829487000000.0 -1.54489e+12 -1.5358e+12 -1.22141e+12 -1.13671e+12 -1.42278e+12 -1.16038e+12 -983854000000.0 -723952000000.0 -719448000000.0 -763825000000.0 -767143000000.0 -528542000000.0 -604897000000.0 -562266000000.0 -393313000000.0 -393313000000.0 -562266000000.0 -604897000000.0 -528542000000.0 -767143000000.0 -763825000000.0 -719448000000.0 -723952000000.0 -983854000000.0 -1.16038e+12 -1.42278e+12 -1.13671e+12 -1.22141e+12 -1.5358e+12 -1.54489e+12 -829487000000.0 -499098000000.0 -414331000000.0 -168353000000.0 -565439000000.0 -22227900000.0 -286020000000.0 -549905000000.0 -1.31447e+12 -900400000000.0 -892471000000.0 -1.08773e+12 -1.02302e+12 -1.1704e+12 -1.01137e+12 -1.43212e+12 -1.29454e+12 -639106000000.0 -602603000000.0 -547136000000.0 -499832000000.0 -316767000000.0 -354631000000.0 -259450000000.0 -285905000000.0 -295067000000.0 -307044000000.0 -246133000000.0 -218731000000.0 -264935000000.0 -159863000000.0 -229248000000.0 -35324900000.0 -239628000000.0 -27017100000.0 -135520000000.0 -25168600000.0 -123178000000.0 -25168600000.0 -135520000000.0 -27017100000.0 -239628000000.0 -35324900000.0 -229248000000.0 -159863000000.0 -264935000000.0 -218731000000.0 -246133000000.0 -307044000000.0 -295067000000.0 -285905000000.0 -259450000000.0 -354631000000.0 -316767000000.0 -499832000000.0 -547136000000.0 -602603000000.0 -639106000000.0 -1.29454e+12 -1.43212e+12 -1.01137e+12 -1.1704e+12 -1.02302e+12 -1.08773e+12 -892471000000.0 -900400000000.0 -1.31447e+12 -549905000000.0 -286020000000.0 -22227900000.0 -565439000000.0 -75605000000.0 -634244000000.0 -1.11442e+12 -859051000000.0 -781961000000.0 -943403000000.0 -888267000000.0 -910584000000.0 -1.21832e+12 -1.1378e+12 -1.06913e+12 -915190000000.0 -678880000000.0 -676839000000.0 -466009000000.0 -439793000000.0 -414848000000.0 -453570000000.0 -393098000000.0 -415330000000.0 -312618000000.0 -400416000000.0 -218596000000.0 -371104000000.0 -135409000000.0 -245131000000.0 -138763000000.0 -327888000000.0 -169241000000.0 -275107000000.0 -180232000000.0 -269504000000.0 -180232000000.0 -275107000000.0 -169241000000.0 -327888000000.0 -138763000000.0 -245131000000.0 -135409000000.0 -371104000000.0 -218596000000.0 -400416000000.0 -312618000000.0 -415330000000.0 -393098000000.0 -453570000000.0 -414848000000.0 -439793000000.0 -466009000000.0 -676839000000.0 -678880000000.0 -915190000000.0 -1.06913e+12 -1.1378e+12 -1.21832e+12 -910584000000.0 -888267000000.0 -943403000000.0 -781961000000.0 -859051000000.0 -1.11442e+12 -634244000000.0 -75605000000.0 -153591000000.0 -343745000000.0 -183221000000.0 -863481000000.0 -759070000000.0 -800390000000.0 -853405000000.0 -737390000000.0 -654821000000.0 -808447000000.0 -815679000000.0 -947972000000.0 -993809000000.0 -1.00195e+12 -893614000000.0 -789209000000.0 -845487000000.0 -891692000000.0 -844637000000.0 -844637000000.0 -891692000000.0 -845487000000.0 -789209000000.0 -893614000000.0 -1.00195e+12 -993809000000.0 -947972000000.0 -815679000000.0 -808447000000.0 -654821000000.0 -737390000000.0 -853405000000.0 -800389000000.0 -759070000000.0 -863481000000.0 -183221000000.0 -343745000000.0 -153591000000.0 -74099100000.0 -259081000000.0 -80064600000.0 -224693000000.0 -492902000000.0 -496823000000.0 -545309000000.0 -648906000000.0 -880474000000.0 -810492000000.0 -717886000000.0 -598919000000.0 -486882000000.0 -418113000000.0 -398185000000.0 -405648000000.0 -123642000000.0 -232655000000.0 -215972000000.0 -251580000000.0 -198321000000.0 -217290000000.0 -132613000000.0 -196246000000.0 -138239000000.0 -202232000000.0 -173382000000.0 -34892000000.0 -175438000000.0 -22478900000.0 -113413000000.0 -24269200000.0 -105711000000.0 -24269200000.0 -113413000000.0 -22478900000.0 -175438000000.0 -34892000000.0 -173382000000.0 -202232000000.0 -138239000000.0 -196246000000.0 -132613000000.0 -217290000000.0 -198321000000.0 -251580000000.0 -215972000000.0 -232655000000.0 -123642000000.0 -405648000000.0 -398185000000.0 -418113000000.0 -486882000000.0 -598919000000.0 -717886000000.0 -810492000000.0 -880474000000.0 -648906000000.0 -545309000000.0 -496823000000.0 -492902000000.0 -224693000000.0 -80064600000.0 -259081000000.0 -74099100000.0 -180679000000.0 -295300000000.0 -612161000000.0 -506355000000.0 -796626000000.0 -704380000000.0 -831826000000.0 -768206000000.0 -804136000000.0 -742114000000.0 -594146000000.0 -538710000000.0 -482745000000.0 -351961000000.0 -277330000000.0 -301020000000.0 -203947000000.0 -255060000000.0 -240417000000.0 -323530000000.0 -292363000000.0 -383761000000.0 -287991000000.0 -423194000000.0 -298077000000.0 -386278000000.0 -299922000000.0 -383238000000.0 -299922000000.0 -386278000000.0 -298077000000.0 -423194000000.0 -287991000000.0 -383761000000.0 -292363000000.0 -323530000000.0 -240417000000.0 -255060000000.0 -203947000000.0 -301020000000.0 -277330000000.0 -351961000000.0 -482745000000.0 -538710000000.0 -594147000000.0 -742114000000.0 -804136000000.0 -768206000000.0 -831826000000.0 -704380000000.0 -796626000000.0 -506355000000.0 -612161000000.0 -295300000000.0 -180679000000.0 -100625000000.0 -149968000000.0 -383827000000.0 -342138000000.0 -325061000000.0 -526837000000.0 -549553000000.0 -476863000000.0 -608284000000.0 -684757000000.0 -711974000000.0 -707300000000.0 -673748000000.0 -647824000000.0 -690103000000.0 -690103000000.0 -647824000000.0 -673748000000.0 -707300000000.0 -711974000000.0 -684757000000.0 -608284000000.0 -476863000000.0 -549553000000.0 -526837000000.0 -325061000000.0 -342138000000.0 -383827000000.0 -149968000000.0 -100625000000.0 -51845600000.0 -54150000000.0 -33855300000.0 -216928000000.0 -280390000000.0 -190504000000.0 -188364000000.0 -200381000000.0 -444878000000.0 -602261000000.0 -147226000000.0 -627479000000.0 -525845000000.0 -552948000000.0 -529589000000.0 -540148000000.0 -530203000000.0 -500347000000.0 -389470000000.0 -392176000000.0 -449791000000.0 -312188000000.0 -379986000000.0 -287037000000.0 -333943000000.0 -295054000000.0 -269577000000.0 -266467000000.0 -113044000000.0 -183754000000.0 -26654300000.0 -156599000000.0 -19927700000.0 -157255000000.0 -14137600000.0 -109753000000.0 -11883000000.0 -103568000000.0 -11883000000.0 -109753000000.0 -14137600000.0 -157255000000.0 -19927700000.0 -156599000000.0 -26654300000.0 -183754000000.0 -113044000000.0 -266467000000.0 -269577000000.0 -295054000000.0 -333943000000.0 -287037000000.0 -379986000000.0 -312188000000.0 -449791000000.0 -392176000000.0 -389470000000.0 -500347000000.0 -530203000000.0 -540148000000.0 -529589000000.0 -552948000000.0 -525845000000.0 -627479000000.0 -147226000000.0 -602261000000.0 -444878000000.0 -200381000000.0 -188364000000.0 -190504000000.0 -280390000000.0 -216928000000.0 -33855300000.0 -54150000000.0 -51845600000.0 -51379400000.0 -87315900000.0 -196336000000.0 -196794000000.0 -150000000000.0 -84050400000.0 -76721300000.0 -113027000000.0 -511452000000.0 -465941000000.0 -391529000000.0 -352275000000.0 -332060000000.0 -244077000000.0 -271717000000.0 -231492000000.0 -237278000000.0 -214788000000.0 -239559000000.0 -190532000000.0 -271775000000.0 -185280000000.0 -274470000000.0 -163484000000.0 -289405000000.0 -170189000000.0 -291387000000.0 -174282000000.0 -290928000000.0 -171695000000.0 -253194000000.0 -168263000000.0 -248132000000.0 -168263000000.0 -253194000000.0 -171695000000.0 -290928000000.0 -174282000000.0 -291387000000.0 -170189000000.0 -289405000000.0 -163484000000.0 -274470000000.0 -185280000000.0 -271775000000.0 -190532000000.0 -239559000000.0 -214788000000.0 -237278000000.0 -231492000000.0 -271717000000.0 -244077000000.0 -332060000000.0 -352275000000.0 -391529000000.0 -465941000000.0 -511452000000.0 -113027000000.0 -76721300000.0 -84050400000.0 -150000000000.0 -196794000000.0 -196336000000.0 -87315900000.0 -51379400000.0 -308463000000.0 -134926000000.0 -655066000000.0 -566586000000.0 -552530000000.0 -552530000000.0 -566586000000.0 -655066000000.0 -134926000000.0 -308463000000.0 -36070900000.0 -70833300000.0 -155651000000.0 -185675000000.0 -149352000000.0 -101257000000.0 -98964500000.0 -130498000000.0 -146531000000.0 -294244000000.0 -281527000000.0 -228618000000.0 -335155000000.0 -319423000000.0 -310762000000.0 -275953000000.0 -274915000000.0 -219676000000.0 -187667000000.0 -59082000000.0 -15859200000.0 -55008800000.0 -17303800000.0 -78927900000.0 -19099300000.0 -124735000000.0 -16806400000.0 -123967000000.0 -15662400000.0 -143262000000.0 -13256600000.0 -135138000000.0 -11112300000.0 -119213000000.0 -9764600000.0 -87300700000.0 -9199080000.0 -83797400000.0 -9199080000.0 -87300700000.0 -9764600000.0 -119212000000.0 -11112300000.0 -135138000000.0 -13256600000.0 -143262000000.0 -15662400000.0 -123967000000.0 -16806400000.0 -124735000000.0 -19099300000.0 -78927900000.0 -17303800000.0 -55008800000.0 -15859200000.0 -59082000000.0 -187667000000.0 -219676000000.0 -274915000000.0 -275953000000.0 -310762000000.0 -319423000000.0 -335155000000.0 -228618000000.0 -281527000000.0 -294244000000.0 -146531000000.0 -130498000000.0 -98964500000.0 -101257000000.0 -149352000000.0 -185675000000.0 -155651000000.0 -70833300000.0 -36070900000.0 -9991880000.0 -9791120000.0 -48432400000.0 -86008900000.0 -72327100000.0 -43295800000.0 -30689600000.0 -63235500000.0 -360136000000.0 -423627000000.0 -432631000000.0 -472138000000.0 -450247000000.0 -415282000000.0 -327312000000.0 -253790000000.0 -251155000000.0 -176357000000.0 -208472000000.0 -122988000000.0 -200610000000.0 -89650900000.0 -172615000000.0 -64814200000.0 -172163000000.0 -48759600000.0 -152775000000.0 -37005300000.0 -122177000000.0 -29030200000.0 -91541600000.0 -25219200000.0 -87327900000.0 -25219200000.0 -91541600000.0 -29030200000.0 -122177000000.0 -37005300000.0 -152775000000.0 -48759600000.0 -172163000000.0 -64814200000.0 -172615000000.0 -89650900000.0 -200610000000.0 -122988000000.0 -208472000000.0 -176357000000.0 -251155000000.0 -253790000000.0 -327312000000.0 -415282000000.0 -450247000000.0 -472138000000.0 -432631000000.0 -423627000000.0 -360136000000.0 -63235500000.0 -30689600000.0 -43295800000.0 -72327200000.0 -86008900000.0 -48432400000.0 -9791120000.0 -9991880000.0 -24069300000.0 -166987000000.0 -95446300000.0 -76491500000.0 -283231000000.0 -283231000000.0 -76491500000.0 -95446300000.0 -166987000000.0 -24069300000.0 -19614500000.0 -33971000000.0 -69049900000.0 -118448000000.0 -124470000000.0 -115127000000.0 -113594000000.0 -125872000000.0 -174151000000.0 -243807000000.0 -189507000000.0 -182350000000.0 -297144000000.0 -230034000000.0 -175778000000.0 -122254000000.0 -128438000000.0 -100335000000.0 -64809400000.0 -38871300000.0 -10760400000.0 -63883900000.0 -10557200000.0 -78269400000.0 -10390100000.0 -103594000000.0 -9856590000.0 -102217000000.0 -9633500000.0 -117980000000.0 -9205800000.0 -110945000000.0 -9082010000.0 -83825600000.0 -9035750000.0 -63469600000.0 -9035750000.0 -61617100000.0 -9035750000.0 -63469600000.0 -9035750000.0 -83825600000.0 -9082010000.0 -110945000000.0 -9205800000.0 -117980000000.0 -9633500000.0 -102217000000.0 -9856590000.0 -103594000000.0 -10390100000.0 -78269400000.0 -10557200000.0 -63883900000.0 -10760400000.0 -38871300000.0 -64809400000.0 -100335000000.0 -128438000000.0 -122254000000.0 -175778000000.0 -230034000000.0 -297144000000.0 -182350000000.0 -189507000000.0 -243807000000.0 -174151000000.0 -125872000000.0 -113594000000.0 -115127000000.0 -124470000000.0 -118448000000.0 -69049900000.0 -33971000000.0 -19614500000.0 -20131000000.0 -65995500000.0 -155724000000.0 -158093000000.0 -127307000000.0 -85672600000.0 -64290800000.0 -30711800000.0 -77878800000.0 -21571900000.0 -81538200000.0 -13594700000.0 -9035750000.0 -93180100000.0 -9035750000.0 -106508000000.0 -9035750000.0 -100313000000.0 -9035750000.0 -70186000000.0 -9035750000.0 -54055600000.0 -9035750000.0 -52683900000.0 -9035750000.0 -54055600000.0 -9035750000.0 -70186000000.0 -9035750000.0 -100313000000.0 -9035750000.0 -106508000000.0 -9035750000.0 -93180100000.0 -9035750000.0 -13594700000.0 -81538200000.0 -21571900000.0 -77878800000.0 -30711800000.0 -64290800000.0 -85672600000.0 -127307000000.0 -158093000000.0 -155724000000.0 -65995500000.0 -20131000000.0 -15421700000.0 -14742700000.0 -58839800000.0 -57322100000.0 -45151700000.0 -26834100000.0 -59814800000.0 -113715000000.0 -79590200000.0 -64488900000.0 -190868000000.0 -183952000000.0 -179742000000.0 -94212600000.0 -94212600000.0 -179742000000.0 -183952000000.0 -190868000000.0 -64488900000.0 -79590200000.0 -113715000000.0 -59814800000.0 -26834100000.0 -45151700000.0 -57322100000.0 -58839800000.0 -14742700000.0 -15421700000.0 -18843600000.0 -18907500000.0 -16634200000.0 -52755300000.0 -68051100000.0 -68105500000.0 -59382400000.0 -36529500000.0 -70519600000.0 -110455000000.0 -91382700000.0 -83227700000.0 -183370000000.0 -159537000000.0 -141472000000.0 -112231000000.0 -106440000000.0 -74356800000.0 -41909200000.0 -34234400000.0 -9039390000.0 -60280500000.0 -9035750000.0 -68703400000.0 -9035750000.0 -84824500000.0 -9035750000.0 -86049800000.0 -9035760000.0 -96619800000.0 -9035750000.0 -90422300000.0 -9035760000.0 -58792100000.0 -9035750000.0 -46112100000.0 -9035750000.0 -45137600000.0 -9035750000.0 -46112000000.0 -9035750000.0 -58792000000.0 -9035760000.0 -90422300000.0 -9035750000.0 -96619800000.0 -9035760000.0 -86049800000.0 -9035750000.0 -84824500000.0 -9035750000.0 -68703400000.0 -9035750000.0 -60280500000.0 -9039390000.0 -34234400000.0 -41909200000.0 -74356800000.0 -106440000000.0 -112231000000.0 -141472000000.0 -159537000000.0 -183370000000.0 -83227700000.0 -91382700000.0 -110455000000.0 -70519600000.0 -36529500000.0 -59382400000.0 -68105500000.0 -68051100000.0 -52755300000.0 -16634200000.0 -18907500000.0 -18843600000.0 -20949200000.0 -19607800000.0 -13049800000.0 -41314500000.0 -59962100000.0 -66541700000.0 -60364400000.0 -33515600000.0 -63195200000.0 -92323200000.0 -83299500000.0 -79930000000.0 -166597000000.0 -148182000000.0 -133984000000.0 -108171000000.0 -98747500000.0 -64946700000.0 -39198500000.0 -32906200000.0 -9317390000.0 -57942700000.0 -9035760000.0 -63409000000.0 -9035760000.0 -77744200000.0 -9035760000.0 -79671700000.0 -9035760000.0 -87614700000.0 -9035760000.0 -81038600000.0 -9035760000.0 -49306100000.0 -9035750000.0 -39446600000.0 -9035750000.0 -38793800000.0 -9035750000.0 -39446600000.0 -9035750000.0 -49306100000.0 -9035760000.0 -81038600000.0 -9035760000.0 -87614700000.0 -9035760000.0 -79671700000.0 -9035760000.0 -77744200000.0 -9035760000.0 -63409000000.0 -9035760000.0 -57942700000.0 -9317390000.0 -32906200000.0 -39198500000.0 -64946700000.0 -98747500000.0 -108171000000.0 -133984000000.0 -148182000000.0 -166597000000.0 -79930000000.0 -83299500000.0 -92323200000.0 -63195200000.0 -33515600000.0 -60364400000.0 -66541700000.0 -59962100000.0 -41314500000.0 -13049800000.0 -19607800000.0 -20949200000.0 -23277500000.0 -21540300000.0 -13815800000.0 -35494900000.0 -55928900000.0 -68004700000.0 -64758000000.0 -37304000000.0 -62547800000.0 -83681800000.0 -82697500000.0 -83542900000.0 -154496000000.0 -135790000000.0 -121495000000.0 -97046600000.0 -85517900000.0 -53978300000.0 -34955500000.0 -30462400000.0 -9035760000.0 -55304700000.0 -9035760000.0 -58188800000.0 -9035760000.0 -71588500000.0 -9035760000.0 -73798200000.0 -9035760000.0 -79402500000.0 -9035760000.0 -72159000000.0 -9035760000.0 -41455200000.0 -9035750000.0 -33881700000.0 -9035750000.0 -33484900000.0 -9035750000.0 -33881600000.0 -9035750000.0 -41455200000.0 -9035760000.0 -72159000000.0 -9035760000.0 -79402500000.0 -9035760000.0 -73798200000.0 -9035760000.0 -71588500000.0 -9035760000.0 -58188800000.0 -9035760000.0 -55304700000.0 -9035760000.0 -30462400000.0 -34955500000.0 -53978300000.0 -85517900000.0 -97046600000.0 -121495000000.0 -135790000000.0 -154496000000.0 -83542900000.0 -82697500000.0 -83681800000.0 -62547800000.0 -37304000000.0 -64758000000.0 -68004700000.0 -55928900000.0 -35494900000.0 -13815800000.0 -21540300000.0 -23277500000.0 -25289600000.0 -23125200000.0 -14784000000.0 -31375100000.0 -51772600000.0 -67745900000.0 -66864100000.0 -40016800000.0 -60293900000.0 -75689700000.0 -81027600000.0 -84350100000.0 -141797000000.0 -124201000000.0 -110637000000.0 -87835800000.0 -74732600000.0 -47061600000.0 -31829400000.0 -29357800000.0 -9035760000.0 -52464900000.0 -9035760000.0 -53386700000.0 -9035760000.0 -66174300000.0 -9035760000.0 -68306100000.0 -9035760000.0 -71931000000.0 -9035760000.0 -63811300000.0 -9035760000.0 -34991700000.0 -9035750000.0 -29256800000.0 -9035750000.0 -29060400000.0 -9035750000.0 -29256800000.0 -9035750000.0 -34991700000.0 -9035760000.0 -63811300000.0 -9035760000.0 -71931000000.0 -9035760000.0 -68306100000.0 -9035760000.0 -66174300000.0 -9035760000.0 -53386700000.0 -9035760000.0 -52464900000.0 -9035760000.0 -29357800000.0 -31829400000.0 -47061600000.0 -74732600000.0 -87835800000.0 -110637000000.0 -124201000000.0 -141797000000.0 -84350100000.0 -81027600000.0 -75689700000.0 -60293900000.0 -40016800000.0 -66864100000.0 -67745900000.0 -51772600000.0 -31375100000.0 -14784000000.0 -23125200000.0 -25289600000.0 -26975800000.0 -24364500000.0 -15677800000.0 -28637600000.0 -47732400000.0 -66283500000.0 -67512300000.0 -42243500000.0 -57776400000.0 -69576400000.0 -79526700000.0 -83811200000.0 -129122000000.0 -112482000000.0 -99685000000.0 -78784100000.0 -64583800000.0 -41770900000.0 -28245900000.0 -28598500000.0 -9035770000.0 -49527500000.0 -9035770000.0 -49162100000.0 -9035760000.0 -61332200000.0 -9035760000.0 -63144300000.0 -9035760000.0 -65139900000.0 -9035760000.0 -56053600000.0 -9035760000.0 -29697800000.0 -9035750000.0 -25429500000.0 -9035750000.0 -25386900000.0 -9035750000.0 -25429500000.0 -9035750000.0 -29697800000.0 -9035760000.0 -56053600000.0 -9035760000.0 -65139900000.0 -9035760000.0 -63144300000.0 -9035760000.0 -61332200000.0 -9035760000.0 -49162100000.0 -9035770000.0 -49527500000.0 -9035770000.0 -28598500000.0 -28245900000.0 -41770900000.0 -64583800000.0 -78784100000.0 -99685000000.0 -112482000000.0 -129122000000.0 -83811200000.0 -79526700000.0 -69576400000.0 -57776400000.0 -42243500000.0 -67512300000.0 -66283500000.0 -47732400000.0 -28637600000.0 -15677800000.0 -24364500000.0 -26975800000.0 -28332600000.0 -25271000000.0 -16472200000.0 -26977400000.0 -43942600000.0 -63847800000.0 -66938000000.0 -43761600000.0 -55011800000.0 -65060300000.0 -77954700000.0 -82104500000.0 -116889000000.0 -101284000000.0 -89193900000.0 -70306000000.0 -55524000000.0 -37671200000.0 -24562800000.0 -28047800000.0 -9035770000.0 -46582700000.0 -9035770000.0 -45526700000.0 -9035760000.0 -56941100000.0 -9035760000.0 -58291300000.0 -9035760000.0 -58958500000.0 -9035760000.0 -48952400000.0 -9035760000.0 -25385200000.0 -9035750000.0 -22275200000.0 -9035750000.0 -22347800000.0 -9035750000.0 -22275200000.0 -9035750000.0 -25385200000.0 -9035760000.0 -48952400000.0 -9035760000.0 -58958500000.0 -9035760000.0 -58291300000.0 -9035760000.0 -56941100000.0 -9035760000.0 -45526700000.0 -9035770000.0 -46582700000.0 -9035770000.0 -28047800000.0 -24562800000.0 -37671200000.0 -55524000000.0 -70306000000.0 -89193900000.0 -101284000000.0 -116889000000.0 -82104500000.0 -77954700000.0 -65060300000.0 -55011800000.0 -43761600000.0 -66938000000.0 -63847800000.0 -43942600000.0 -26977400000.0 -16472200000.0 -25271000000.0 -28332600000.0 -29363900000.0 -25867000000.0 -17169600000.0 -26106500000.0 -40468800000.0 -60713500000.0 -65477800000.0 -44678600000.0 -52231600000.0 -62006000000.0 -76325000000.0 -79555500000.0 -105413000000.0 -90868200000.0 -79410500000.0 -62594400000.0 -47752600000.0 -34284100000.0 -21113000000.0 -27589900000.0 -9035780000.0 -43703800000.0 -9035770000.0 -42413100000.0 -9035770000.0 -52923300000.0 -9035760000.0 -53735700000.0 -9035760000.0 -53319700000.0 -9035760000.0 -42556700000.0 -9035760000.0 -21892200000.0 -9035760000.0 -19685800000.0 -9035750000.0 -19842000000.0 -9035750000.0 -19685800000.0 -9035760000.0 -21892200000.0 -9035760000.0 -42556700000.0 -9035760000.0 -53319700000.0 -9035760000.0 -53735700000.0 -9035760000.0 -52923300000.0 -9035770000.0 -42413100000.0 -9035770000.0 -43703800000.0 -9035780000.0 -27589900000.0 -21113000000.0 -34284100000.0 -47752600000.0 -62594400000.0 -79410500000.0 -90868200000.0 -105413000000.0 -79555500000.0 -76325000000.0 -62006000000.0 -52231600000.0 -44678600000.0 -65477800000.0 -60713500000.0 -40468800000.0 -26106500000.0 -17169600000.0 -25867000000.0 -29363900000.0 -30080700000.0 -26182900000.0 -17772800000.0 -25761400000.0 -37324000000.0 -57145000000.0 -63402000000.0 -45104800000.0 -49595500000.0 -60120500000.0 -74617100000.0 -76413100000.0 -94881600000.0 -81397800000.0 -70502800000.0 -55732500000.0 -41250900000.0 -31289000000.0 -18100000000.0 -27142600000.0 -9035780000.0 -40946600000.0 -9035770000.0 -39727400000.0 -9035770000.0 -49224900000.0 -9035760000.0 -49470200000.0 -9035760000.0 -48166500000.0 -9035760000.0 -36887000000.0 -9035770000.0 -19080300000.0 -9035760000.0 -17568600000.0 -9035750000.0 -17782500000.0 -9035750000.0 -17568600000.0 -9035760000.0 -19080300000.0 -9035770000.0 -36887000000.0 -9035760000.0 -48166500000.0 -9035760000.0 -49470200000.0 -9035760000.0 -49224900000.0 -9035770000.0 -39727400000.0 -9035770000.0 -40946600000.0 -9035780000.0 -27142600000.0 -18100000000.0 -31289000000.0 -41250900000.0 -55732500000.0 -70502800000.0 -81397800000.0 -94881600000.0 -76413100000.0 -74617100000.0 -60120500000.0 -49595500000.0 -45104800000.0 -63402000000.0 -57145000000.0 -37324000000.0 -25761400000.0 -17772800000.0 -26182900000.0 -30080700000.0 -30500600000.0 -26254700000.0 -18283000000.0 -25724800000.0 -34495700000.0 -53371300000.0 -60928300000.0 -45134800000.0 -47206900000.0 -59012400000.0 -72778800000.0 -72889600000.0 -85375100000.0 -72927700000.0 -62538200000.0 -49723900000.0 -35879600000.0 -28581200000.0 -15610000000.0 -26654300000.0 -9035790000.0 -38347600000.0 -9035770000.0 -37377400000.0 -9035770000.0 -45803100000.0 -9035760000.0 -45490100000.0 -9035760000.0 -43454700000.0 -9035760000.0 -31936100000.0 -9035770000.0 -16831000000.0 -9035760000.0 -15844400000.0 -9035750000.0 -16095500000.0 -9035750000.0 -15844400000.0 -9035760000.0 -16831000000.0 -9035770000.0 -31936100000.0 -9035760000.0 -43454700000.0 -9035760000.0 -45490100000.0 -9035760000.0 -45803100000.0 -9035770000.0 -37377400000.0 -9035770000.0 -38347600000.0 -9035790000.0 -26654300000.0 -15610000000.0 -28581200000.0 -35879600000.0 -49723900000.0 -62538200000.0 -72927700000.0 -85375100000.0 -72889600000.0 -72778800000.0 -59012400000.0 -47206900000.0 -45134800000.0 -60928300000.0 -53371300000.0 -34495700000.0 -25724800000.0 -18283000000.0 -26254700000.0 -30500600000.0 -30646400000.0 -26120900000.0 -18701300000.0 -25820200000.0 -31963900000.0 -49572100000.0 -58227200000.0 -44850300000.0 -45111300000.0 -58323900000.0 -70759700000.0 -69155600000.0 -76894400000.0 -65442100000.0 -55514800000.0 -44517900000.0 -31457200000.0 -26167300000.0 -13647100000.0 -26093700000.0 -9035790000.0 -35925800000.0 -9035780000.0 -35284000000.0 -9035770000.0 -42623700000.0 -9035760000.0 -41790700000.0 -9035770000.0 -39152800000.0 -9035760000.0 -27673800000.0 -9035770000.0 -15043800000.0 -9035760000.0 -14445900000.0 -9035750000.0 -14718000000.0 -9035750000.0 -14445900000.0 -9035760000.0 -15043800000.0 -9035770000.0 -27673800000.0 -9035760000.0 -39152800000.0 -9035770000.0 -41790700000.0 -9035760000.0 -42623700000.0 -9035770000.0 -35284000000.0 -9035780000.0 -35925800000.0 -9035790000.0 -26093700000.0 -13647100000.0 -26167300000.0 -31457200000.0 -44517900000.0 -55514800000.0 -65442100000.0 -76894400000.0 -69155600000.0 -70759700000.0 -58323900000.0 -45111300000.0 -44850300000.0 -58227200000.0 -49572100000.0 -31963900000.0 -25820200000.0 -18701300000.0 -26120900000.0 -30646400000.0 -30545300000.0 -25820400000.0 -19028500000.0 -25911500000.0 -29707500000.0 -45877100000.0 -55425700000.0 -44320300000.0 -43305500000.0 -57773100000.0 -68531900000.0 -65334600000.0 -69384100000.0 -58880900000.0 -49385900000.0 -40035900000.0 -27803300000.0 -24067700000.0 -12164500000.0 -25448400000.0 -9035790000.0 -33686500000.0 -9035780000.0 -33384400000.0 -9035770000.0 -39659700000.0 -9035760000.0 -38365900000.0 -9035770000.0 -35239000000.0 -9035760000.0 -24053600000.0 -9035770000.0 -13633500000.0 -9035760000.0 -13316300000.0 -9035750000.0 -13597000000.0 -9035750000.0 -13316300000.0 -9035760000.0 -13633500000.0 -9035770000.0 -24053600000.0 -9035760000.0 -35239000000.0 -9035770000.0 -38365900000.0 -9035760000.0 -39659700000.0 -9035770000.0 -33384400000.0 -9035780000.0 -33686500000.0 -9035790000.0 -25448400000.0 -12164500000.0 -24067700000.0 -27803300000.0 -40035900000.0 -49385900000.0 -58880900000.0 -69384100000.0 -65334600000.0 -68531900000.0 -57773100000.0 -43305500000.0 -44320300000.0 -55425700000.0 -45877200000.0 -29707500000.0 -25911500000.0 -19028500000.0 -25820400000.0 -30545300000.0 -30226500000.0 -25389600000.0 -19265800000.0 -25913500000.0 -27703400000.0 -42373500000.0 -52612500000.0 -43598300000.0 -41756300000.0 -57142100000.0 -66087400000.0 -61512800000.0 -62754900000.0 -53157300000.0 -44076500000.0 -36189000000.0 -24761200000.0 -22281100000.0 -11088800000.0 -24723600000.0 -9035790000.0 -31625700000.0 -9035780000.0 -31631800000.0 -9035770000.0 -36891400000.0 -9035760000.0 -35207200000.0 -9035770000.0 -31696500000.0 -9035760000.0 -21017900000.0 -9035770000.0 -12528700000.0 -9035760000.0 -12407900000.0 -9035750000.0 -12687500000.0 -9035750000.0 -12407900000.0 -9035760000.0 -12528700000.0 -9035770000.0 -21017900000.0 -9035760000.0 -31696500000.0 -9035770000.0 -35207200000.0 -9035760000.0 -36891400000.0 -9035770000.0 -31631800000.0 -9035780000.0 -31625700000.0 -9035790000.0 -24723600000.0 -11088800000.0 -22281100000.0 -24761200000.0 -36189000000.0 -44076500000.0 -53157300000.0 -62754900000.0 -61512800000.0 -66087400000.0 -57142100000.0 -41756300000.0 -43598300000.0 -52612500000.0 -42373500000.0 -27703400000.0 -25913500000.0 -19265800000.0 -25389600000.0 -30226500000.0 -29720900000.0 -24861000000.0 -19414500000.0 -25787900000.0 -25927000000.0 -39113000000.0 -49844900000.0 -42722100000.0 -40413200000.0 -56284800000.0 -63433600000.0 -57750900000.0 -56902700000.0 -48171900000.0 -39495300000.0 -32886900000.0 -22207700000.0 -20783400000.0 -10337700000.0 -23935800000.0 -9035790000.0 -29733000000.0 -9035780000.0 -29992300000.0 -9035770000.0 -34304900000.0 -9035760000.0 -32304400000.0 -9035770000.0 -28509100000.0 -9035760000.0 -18503600000.0 -9035770000.0 -11669500000.0 -9035760000.0 -11680500000.0 -9035750000.0 -11952200000.0 -9035750000.0 -11680500000.0 -9035760000.0 -11669500000.0 -9035770000.0 -18503600000.0 -9035760000.0 -28509100000.0 -9035770000.0 -32304400000.0 -9035760000.0 -34304900000.0 -9035770000.0 -29992300000.0 -9035780000.0 -29733000000.0 -9035790000.0 -23935800000.0 -10337700000.0 -20783400000.0 -22207700000.0 -32886900000.0 -39495300000.0 -48171900000.0 -56902700000.0 -57750900000.0 -63433600000.0 -56284800000.0 -40413200000.0 -42722100000.0 -49844900000.0 -39113000000.0 -25927000000.0 -25787900000.0 -19414500000.0 -24861000000.0 -29720900000.0 -29058700000.0 -24262200000.0 -19476900000.0 -25527300000.0 -24352200000.0 -36120300000.0 -47155800000.0 -41716000000.0 -39217100000.0 -55133800000.0 -60592400000.0 -54091500000.0 -51723700000.0 -43823000000.0 -35546000000.0 -30045000000.0 -20050500000.0 -19537500000.0 -9832630000.0 -23105200000.0 -9035790000.0 -27994100000.0 -9035780000.0 -28442700000.0 -9035770000.0 -31890500000.0 -9035770000.0 -29646500000.0 -9035770000.0 -25660300000.0 -9035760000.0 -16446000000.0 -9035770000.0 -11006400000.0 -9035760000.0 -11100800000.0 -9035750000.0 -11359500000.0 -9035750000.0 -11100800000.0 -9035760000.0 -11006400000.0 -9035770000.0 -16446000000.0 -9035760000.0 -25660300000.0 -9035770000.0 -29646500000.0 -9035770000.0 -31890500000.0 -9035770000.0 -28442700000.0 -9035780000.0 -27994100000.0 -9035790000.0 -23105200000.0 -9832630000.0 -19537500000.0 -20050500000.0 -30045000000.0 -35546000000.0 -43823000000.0 -51723700000.0 -54091500000.0 -60592400000.0 -55133800000.0 -39217100000.0 -41716000000.0 -47155800000.0 -36120300000.0 -24352200000.0 -25527300000.0 -19476900000.0 -24262200000.0 -29058700000.0 -32135800000.0 -27587600000.0 -18221500000.0 -18501200000.0 -9505410000.0 -22250400000.0 -9035800000.0 -26393300000.0 -9035780000.0 -26967800000.0 -9035770000.0 -29640800000.0 -9035770000.0 -27221900000.0 -9035770000.0 -23131900000.0 -9035760000.0 -14781500000.0 -9035760000.0 -10498600000.0 -9035760000.0 -10640900000.0 -9035750000.0 -10883200000.0 -9035750000.0 -10640900000.0 -9035760000.0 -10498600000.0 -9035760000.0 -14781500000.0 -9035760000.0 -23131900000.0 -9035770000.0 -27221900000.0 -9035770000.0 -29640800000.0 -9035770000.0 -26967800000.0 -9035780000.0 -26393300000.0 -9035800000.0 -22250400000.0 -9505410000.0 -18501200000.0 -18221500000.0 -27587600000.0 -32135800000.0 -28269100000.0 -23614800000.0 -19455500000.0 -25139200000.0 -22952700000.0 -33400300000.0 -44560600000.0 -40595300000.0 -38107400000.0 -53683500000.0 -57598800000.0 -50562800000.0 -47122500000.0 -40014900000.0 -40014900000.0 -47122500000.0 -50562800000.0 -57598800000.0 -53683500000.0 -38107400000.0 -40595300000.0 -44560600000.0 -33400300000.0 -22952700000.0 -25139200000.0 -19455500000.0 -23614800000.0 -28269100000.0 -27379000000.0 -22935300000.0 -19353300000.0 -24636600000.0 -21703600000.0 -30943800000.0 -42063300000.0 -39369500000.0 -37028700000.0 -51962500000.0 -54495500000.0 -47182500000.0 -43016400000.0 -36662300000.0 -29181100000.0 -25449700000.0 -16669800000.0 -17632800000.0 -9301480000.0 -21386400000.0 -9035800000.0 -24914400000.0 -9035780000.0 -25558000000.0 -9035770000.0 -27550100000.0 -9035770000.0 -25018400000.0 -9035770000.0 -20904400000.0 -9035760000.0 -13450100000.0 -9035760000.0 -10112800000.0 -9035760000.0 -10277700000.0 -9035750000.0 -10501700000.0 -9035750000.0 -10277700000.0 -9035760000.0 -10112800000.0 -9035760000.0 -13450100000.0 -9035760000.0 -20904400000.0 -9035770000.0 -25018400000.0 -9035770000.0 -27550100000.0 -9035770000.0 -25558000000.0 -9035780000.0 -24914400000.0 -9035800000.0 -21386400000.0 -9301480000.0 -17632800000.0 -16669800000.0 -25449700000.0 -29181100000.0 -36662300000.0 -43016400000.0 -47182500000.0 -54495500000.0 -51962500000.0 -37028700000.0 -39369500000.0 -42063300000.0 -30943800000.0 -21703600000.0 -24636600000.0 -19353300000.0 -22935300000.0 -27379000000.0 -26412500000.0 -22235000000.0 -19173800000.0 -24034100000.0 -20581600000.0 -28732800000.0 -39661500000.0 -38046200000.0 -35935700000.0 -50012200000.0 -51328400000.0 -43960300000.0 -39335400000.0 -33691700000.0 -26610000000.0 -23577700000.0 -15357000000.0 -16894300000.0 -9179500000.0 -20524400000.0 -9035800000.0 -23542100000.0 -9035780000.0 -24208100000.0 -9035770000.0 -25612700000.0 -9035770000.0 -23023500000.0 -9035770000.0 -18957300000.0 -9035760000.0 -12396600000.0 -9035760000.0 -9822130000.0 -9035760000.0 -9992380000.0 -9035750000.0 -10196800000.0 -9035750000.0 -9992380000.0 -9035760000.0 -9822130000.0 -9035760000.0 -12396600000.0 -9035760000.0 -18957300000.0 -9035770000.0 -23023500000.0 -9035770000.0 -25612700000.0 -9035770000.0 -24208100000.0 -9035780000.0 -23542100000.0 -9035800000.0 -20524400000.0 -9179500000.0 -16894300000.0 -15357000000.0 -23577700000.0 -26610000000.0 -33691700000.0 -39335400000.0 -43960300000.0 -51328400000.0 -50012200000.0 -35935700000.0 -38046200000.0 -39661500000.0 -28732800000.0 -20581600000.0 -24034100000.0 -19173800000.0 -22235000000.0 -26412500000.0 -25390600000.0 -21520800000.0 -18921000000.0 -23346400000.0 -19565700000.0 -26743700000.0 -37349000000.0 -36632500000.0 -34794800000.0 -47875500000.0 -48142100000.0 -40899600000.0 -36021300000.0 -31042100000.0 -24362900000.0 -21928100000.0 -14252300000.0 -16252900000.0 -9109740000.0 -19672800000.0 -9035800000.0 -22262900000.0 -9035780000.0 -22915300000.0 -9035770000.0 -23823100000.0 -9035760000.0 -21224400000.0 -9035770000.0 -17268900000.0 -9035760000.0 -11571800000.0 -9035760000.0 -9604900000.0 -9035760000.0 -9769220000.0 -9035750000.0 -9953890000.0 -9035750000.0 -9769220000.0 -9035760000.0 -9604900000.0 -9035760000.0 -11571800000.0 -9035760000.0 -17268900000.0 -9035770000.0 -21224400000.0 -9035760000.0 -23823100000.0 -9035770000.0 -22915300000.0 -9035780000.0 -22262900000.0 -9035800000.0 -19672800000.0 -9109740000.0 -16252900000.0 -14252300000.0 -21928100000.0 -24362900000.0 -31042100000.0 -36021300000.0 -40899600000.0 -48142100000.0 -47875500000.0 -34794800000.0 -36632500000.0 -37349000000.0 -26743700000.0 -19565700000.0 -23346400000.0 -18921000000.0 -21520800000.0 -25390600000.0 -24330900000.0 -20796300000.0 -18599000000.0 -22587400000.0 -18637300000.0 -24950800000.0 -35119100000.0 -35136000000.0 -33584100000.0 -45591900000.0 -44976800000.0 -37999800000.0 -33026400000.0 -28663100000.0 -22390900000.0 -20466500000.0 -13329400000.0 -15681800000.0 -9071760000.0 -18837400000.0 -9035790000.0 -21065100000.0 -9035780000.0 -21678300000.0 -9035770000.0 -22175100000.0 -9035760000.0 -19608200000.0 -9035770000.0 -15816900000.0 -9035760000.0 -10932700000.0 -9035760000.0 -9443990000.0 -9035750000.0 -9595550000.0 -9035750000.0 -9760740000.0 -9035750000.0 -9595550000.0 -9035750000.0 -9443990000.0 -9035760000.0 -10932700000.0 -9035760000.0 -15816900000.0 -9035770000.0 -19608200000.0 -9035760000.0 -22175100000.0 -9035770000.0 -21678300000.0 -9035780000.0 -21065100000.0 -9035790000.0 -18837400000.0 -9071760000.0 -15681800000.0 -13329400000.0 -20466500000.0 -22390900000.0 -28663100000.0 -33026400000.0 -37999800000.0 -44976800000.0 -45591900000.0 -33584100000.0 -35136000000.0 -35119100000.0 -24950800000.0 -18637300000.0 -22587400000.0 -18599000000.0 -20796300000.0 -24330900000.0 -23248000000.0 -20062700000.0 -18212200000.0 -21770100000.0 -17780400000.0 -23327900000.0 -32964900000.0 -33564900000.0 -32291400000.0 -43196700000.0 -41866000000.0 -35257200000.0 -30311400000.0 -26514100000.0 -20654100000.0 -19165100000.0 -12563900000.0 -15159600000.0 -9052220000.0 -18022100000.0 -9035790000.0 -19939200000.0 -9035780000.0 -20496800000.0 -9035770000.0 -20661900000.0 -9035760000.0 -18162100000.0 -9035760000.0 -14578900000.0 -9035760000.0 -10442300000.0 -9035760000.0 -9325860000.0 -9035750000.0 -9461040000.0 -9035750000.0 -9607460000.0 -9035750000.0 -9461040000.0 -9035750000.0 -9325860000.0 -9035760000.0 -10442300000.0 -9035760000.0 -14578900000.0 -9035760000.0 -18162100000.0 -9035760000.0 -20661900000.0 -9035770000.0 -20496800000.0 -9035780000.0 -19939200000.0 -9035790000.0 -18022100000.0 -9052220000.0 -15159600000.0 -12563900000.0 -19165100000.0 -20654100000.0 -26514100000.0 -30311400000.0 -35257200000.0 -41866000000.0 -43196700000.0 -32291400000.0 -33564900000.0 -32964900000.0 -23327900000.0 -17780400000.0 -21770100000.0 -18212200000.0 -20062700000.0 -23248000000.0 -22153100000.0 -19319700000.0 -17765300000.0 -20906400000.0 -16981500000.0 -21850200000.0 -30880500000.0 -31928100000.0 -30912600000.0 -40720200000.0 -38835300000.0 -32665900000.0 -27844000000.0 -24562000000.0 -19119600000.0 -18000800000.0 -11932600000.0 -14670000000.0 -9042790000.0 -17229300000.0 -9035790000.0 -18877400000.0 -9035780000.0 -19370500000.0 -9035770000.0 -19275900000.0 -9035760000.0 -16873000000.0 -9035760000.0 -13532200000.0 -9035760000.0 -10069600000.0 -9035760000.0 -9239940000.0 -9035750000.0 -9357360000.0 -9035750000.0 -9486020000.0 -9035750000.0 -9357360000.0 -9035750000.0 -9239940000.0 -9035760000.0 -10069600000.0 -9035760000.0 -13532200000.0 -9035760000.0 -16873000000.0 -9035760000.0 -19275900000.0 -9035770000.0 -19370500000.0 -9035780000.0 -18877400000.0 -9035790000.0 -17229300000.0 -9042790000.0 -14670000000.0 -11932600000.0 -18000800000.0 -19119600000.0 -24562000000.0 -27844000000.0 -32665900000.0 -38835300000.0 -40720200000.0 -30912600000.0 -31928100000.0 -30880500000.0 -21850200000.0 -16981500000.0 -20906400000.0 -17765300000.0 -19319700000.0 -22153100000.0 -21054800000.0 -18566200000.0 -17262800000.0 -20006900000.0 -16229200000.0 -20494700000.0 -28861000000.0 -30234700000.0 -29449000000.0 -38187800000.0 -35902500000.0 -30218500000.0 -25596500000.0 -22779900000.0 -17760300000.0 -16953800000.0 -11414200000.0 -14201100000.0 -9038550000.0 -16460200000.0 -9035790000.0 -17873700000.0 -9035780000.0 -18298900000.0 -9035770000.0 -18009100000.0 -9035760000.0 -15728400000.0 -9035760000.0 -12654900000.0 -9035760000.0 -9789130000.0 -9035760000.0 -9178040000.0 -9035750000.0 -9277810000.0 -9035750000.0 -9389900000.0 -9035750000.0 -9277810000.0 -9035750000.0 -9178040000.0 -9035760000.0 -9789130000.0 -9035760000.0 -12654900000.0 -9035760000.0 -15728400000.0 -9035760000.0 -18009100000.0 -9035770000.0 -18298900000.0 -9035780000.0 -17873700000.0 -9035790000.0 -16460200000.0 -9038550000.0 -14201100000.0 -11414200000.0 -16953800000.0 -17760300000.0 -22779900000.0 -25596500000.0 -30218500000.0 -35902500000.0 -38187800000.0 -29449000000.0 -30234700000.0 -28861000000.0 -20494700000.0 -16229200000.0 -20006900000.0 -17262800000.0 -18566200000.0 -21054800000.0 -19959400000.0 -17800900000.0 -16709600000.0 -19080800000.0 -15514300000.0 -19241100000.0 -26902200000.0 -28493700000.0 -27906000000.0 -35620600000.0 -33078100000.0 -27906100000.0 -23544600000.0 -21145500000.0 -16553200000.0 -16006700000.0 -10988800000.0 -13744300000.0 -9036800000.0 -15715300000.0 -9035790000.0 -16922500000.0 -9035780000.0 -17280900000.0 -9035770000.0 -16853000000.0 -9035760000.0 -14715500000.0 -9035760000.0 -11925700000.0 -9035760000.0 -9579980000.0 -9035760000.0 -9133890000.0 -9035750000.0 -9217060000.0 -9035750000.0 -9313880000.0 -9035750000.0 -9217060000.0 -9035750000.0 -9133890000.0 -9035760000.0 -9579980000.0 -9035760000.0 -11925700000.0 -9035760000.0 -14715500000.0 -9035760000.0 -16853000000.0 -9035770000.0 -17280900000.0 -9035780000.0 -16922500000.0 -9035790000.0 -15715300000.0 -9036800000.0 -13744300000.0 -10988800000.0 -16006700000.0 -16553200000.0 -21145500000.0 -23544600000.0 -27906100000.0 -33078100000.0 -35620600000.0 -27906000000.0 -28493700000.0 -26902200000.0 -19241100000.0 -15514300000.0 -19080800000.0 -16709600000.0 -17800900000.0 -19959400000.0 -18871100000.0 -17022300000.0 -16110400000.0 -18136000000.0 -14829200000.0 -18071500000.0 -25000400000.0 -26713600000.0 -26291300000.0 -33035600000.0 -30366600000.0 -25718800000.0 -21666500000.0 -19639300000.0 -15478400000.0 -15143700000.0 -10639300000.0 -13294000000.0 -9036130000.0 -14994200000.0 -9035790000.0 -16019400000.0 -9035770000.0 -16314800000.0 -9035770000.0 -15798300000.0 -9035760000.0 -13822000000.0 -9035760000.0 -11324500000.0 -9035760000.0 -9425440000.0 -9035760000.0 -9102720000.0 -9035750000.0 -9170870000.0 -9035750000.0 -9253730000.0 -9035750000.0 -9170870000.0 -9035750000.0 -9102720000.0 -9035760000.0 -9425440000.0 -9035760000.0 -11324500000.0 -9035760000.0 -13822000000.0 -9035760000.0 -15798300000.0 -9035770000.0 -16314800000.0 -9035770000.0 -16019400000.0 -9035790000.0 -14994200000.0 -9036130000.0 -13294000000.0 -10639300000.0 -15143700000.0 -15478400000.0 -19639300000.0 -21666500000.0 -25718800000.0 -30366600000.0 -33035600000.0 -26291300000.0 -26713600000.0 -25000400000.0 -18071500000.0 -14829200000.0 -18136000000.0 -16110400000.0 -17022300000.0 -18871100000.0 -17792300000.0 -16229600000.0 -15469900000.0 -17178900000.0 -14168000000.0 -16970600000.0 -23152200000.0 -24902100000.0 -24613700000.0 -30446000000.0 -27767300000.0 -23645900000.0 -19941900000.0 -18244600000.0 -14518200000.0 -14350400000.0 -10350500000.0 -12846500000.0 -9035900000.0 -14296000000.0 -9035780000.0 -15159900000.0 -9035770000.0 -15398300000.0 -9035770000.0 -14836000000.0 -9035760000.0 -13035500000.0 -9035760000.0 -10832500000.0 -9035760000.0 -9312290000.0 -9035760000.0 -9080950000.0 -9035750000.0 -9135890000.0 -9035750000.0 -9206110000.0 -9035750000.0 -9135890000.0 -9035750000.0 -9080950000.0 -9035760000.0 -9312290000.0 -9035760000.0 -10832500000.0 -9035760000.0 -13035500000.0 -9035760000.0 -14836000000.0 -9035770000.0 -15398300000.0 -9035770000.0 -15159900000.0 -9035780000.0 -14296000000.0 -9035900000.0 -12846500000.0 -10350500000.0 -14350400000.0 -14518200000.0 -18244600000.0 -19941900000.0 -23645900000.0 -27767300000.0 -30446000000.0 -24613700000.0 -24902100000.0 -23152200000.0 -16970600000.0 -14168000000.0 -17178900000.0 -15469900000.0 -16229600000.0 -17792300000.0 -16724300000.0 -15422300000.0 -14792800000.0 -16214700000.0 -13525600000.0 -15925500000.0 -21353900000.0 -23065900000.0 -22882300000.0 -27861400000.0 -25275500000.0 -21676000000.0 -18351600000.0 -16946000000.0 -13656800000.0 -13614100000.0 -10109700000.0 -12399500000.0 -9035820000.0 -13619300000.0 -9035780000.0 -14340000000.0 -9035770000.0 -14528000000.0 -9035760000.0 -13956300000.0 -9035760000.0 -12344100000.0 -9035760000.0 -10432600000.0 -9035760000.0 -9230150000.0 -9035760000.0 -9065900000.0 -9035750000.0 -9109510000.0 -9035750000.0 -9168290000.0 -9035750000.0 -9109510000.0 -9035750000.0 -9065900000.0 -9035760000.0 -9230150000.0 -9035760000.0 -10432600000.0 -9035760000.0 -12344100000.0 -9035760000.0 -13956300000.0 -9035760000.0 -14528000000.0 -9035770000.0 -14340000000.0 -9035780000.0 -13619300000.0 -9035820000.0 -12399500000.0 -10109700000.0 -13614100000.0 -13656800000.0 -16946000000.0 -18351600000.0 -21676000000.0 -25275500000.0 -27861400000.0 -22882300000.0 -23065900000.0 -21353900000.0 -15925500000.0 -13525600000.0 -16214700000.0 -14792800000.0 -15422300000.0 -16724300000.0 -15667300000.0 -14600500000.0 -14083700000.0 -15247400000.0 -12898300000.0 -14925100000.0 -19601500000.0 -21211100000.0 -21105600000.0 -25288400000.0 -22883600000.0 -19797300000.0 -16877500000.0 -15729500000.0 -12879300000.0 -12923700000.0 -9906340000.0 -11951800000.0 -9035800000.0 -12962300000.0 -9035780000.0 -13555400000.0 -9035770000.0 -13700300000.0 -9035760000.0 -13149700000.0 -9035760000.0 -11735800000.0 -9035760000.0 -10109100000.0 -9035760000.0 -9171010000.0 -9035760000.0 -9055620000.0 -9035750000.0 -9089650000.0 -9035750000.0 -9138150000.0 -9035750000.0 -9089650000.0 -9035750000.0 -9055620000.0 -9035760000.0 -9171010000.0 -9035760000.0 -10109100000.0 -9035760000.0 -11735800000.0 -9035760000.0 -13149700000.0 -9035760000.0 -13700300000.0 -9035770000.0 -13555400000.0 -9035780000.0 -12962300000.0 -9035800000.0 -11951800000.0 -9906340000.0 -12923700000.0 -12879300000.0 -15729500000.0 -16877500000.0 -19797300000.0 -22883600000.0 -25288400000.0 -21105600000.0 -21211100000.0 -19601500000.0 -14925100000.0 -12898300000.0 -15247400000.0 -14083700000.0 -14600500000.0 -15667300000.0 -14620600000.0 -13764800000.0 -13347100000.0 -14279600000.0 -12282700000.0 -13960400000.0 -17890500000.0 -19342200000.0 -19292000000.0 -22731000000.0 -20581300000.0 -17997600000.0 -15502200000.0 -14582000000.0 -12172200000.0 -12269600000.0 -9731810000.0 -11502800000.0 -9035790000.0 -12323000000.0 -9035770000.0 -12801800000.0 -9035770000.0 -12910700000.0 -9035760000.0 -12406300000.0 -9035760000.0 -11199000000.0 -9035760000.0 -9848060000.0 -9035760000.0 -9128710000.0 -9035760000.0 -9048660000.0 -9035750000.0 -9074710000.0 -9035750000.0 -9113930000.0 -9035750000.0 -9074710000.0 -9035750000.0 -9048660000.0 -9035760000.0 -9128710000.0 -9035760000.0 -9848060000.0 -9035760000.0 -11199000000.0 -9035760000.0 -12406300000.0 -9035760000.0 -12910700000.0 -9035770000.0 -12801800000.0 -9035770000.0 -12323000000.0 -9035790000.0 -11502800000.0 -9731810000.0 -12269600000.0 -12172200000.0 -14582000000.0 -15502200000.0 -17997600000.0 -20581300000.0 -22731000000.0 -19292000000.0 -19342200000.0 -17890500000.0 -13960400000.0 -12282700000.0 -14279600000.0 -13347100000.0 -13764800000.0 -14620600000.0 -13583300000.0 -12916500000.0 -12587400000.0 -13313300000.0 -11676300000.0 -13023600000.0 -16215700000.0 -17463300000.0 -17448700000.0 -20190500000.0 -18356800000.0 -16264800000.0 -14208800000.0 -13491300000.0 -11522800000.0 -11643400000.0 -9579080000.0 -11052600000.0 -9035780000.0 -11698900000.0 -9035770000.0 -12074800000.0 -9035760000.0 -12154100000.0 -9035760000.0 -11716400000.0 -9035760000.0 -10722300000.0 -9035760000.0 -9636950000.0 -9035760000.0 -9098580000.0 -9035760000.0 -9044000000.0 -9035750000.0 -9063430000.0 -9035750000.0 -9094250000.0 -9035750000.0 -9063430000.0 -9035750000.0 -9044000000.0 -9035760000.0 -9098580000.0 -9035760000.0 -9636950000.0 -9035760000.0 -10722300000.0 -9035760000.0 -11716400000.0 -9035760000.0 -12154100000.0 -9035760000.0 -12074800000.0 -9035770000.0 -11698900000.0 -9035780000.0 -11052600000.0 -9579080000.0 -11643400000.0 -11522800000.0 -13491300000.0 -14208800000.0 -16264800000.0 -18356800000.0 -20190500000.0 -17448700000.0 -17463300000.0 -16215700000.0 -13023600000.0 -11676300000.0 -13313300000.0 -12587400000.0 -12916500000.0 -13583300000.0 -12554000000.0 -12057200000.0 -11808900000.0 -12349200000.0 -11076900000.0 -12108100000.0 -14571500000.0 -15577300000.0 -15582200000.0 -17666600000.0 -16197100000.0 -14586400000.0 -12981400000.0 -12446000000.0 -10919200000.0 -11038400000.0 -9442450000.0 -10601100000.0 -9035770000.0 -11087700000.0 -9035770000.0 -11369700000.0 -9035760000.0 -11425200000.0 -9035760000.0 -11070000000.0 -9035760000.0 -10294300000.0 -9035760000.0 -9464650000.0 -9035760000.0 -9077060000.0 -9035750000.0 -9040890000.0 -9035750000.0 -9054820000.0 -9035750000.0 -9077970000.0 -9035750000.0 -9054820000.0 -9035750000.0 -9040890000.0 -9035750000.0 -9077060000.0 -9035760000.0 -9464650000.0 -9035760000.0 -10294300000.0 -9035760000.0 -11070000000.0 -9035760000.0 -11425200000.0 -9035760000.0 -11369700000.0 -9035770000.0 -11087700000.0 -9035770000.0 -10601100000.0 -9442450000.0 -11038400000.0 -10919200000.0 -12446000000.0 -12981400000.0 -14586400000.0 -16197100000.0 -17666600000.0 -15582200000.0 -15577300000.0 -14571500000.0 -12108100000.0 -11076900000.0 -12349200000.0 -11808900000.0 -12057200000.0 -12554000000.0 -11530900000.0 -11188900000.0 -11016000000.0 -11387700000.0 -10482600000.0 -11208200000.0 -12951600000.0 -13686400000.0 -13698500000.0 -15157000000.0 -14088200000.0 -12950100000.0 -11804400000.0 -11435100000.0 -10350300000.0 -10448700000.0 -9317310000.0 -10148600000.0 -9035770000.0 -10486500000.0 -9035760000.0 -10681900000.0 -9035760000.0 -10718000000.0 -9035760000.0 -10457600000.0 -9035760000.0 -9903840000.0 -9035760000.0 -9321180000.0 -9035750000.0 -9061450000.0 -9035750000.0 -9038800000.0 -9035750000.0 -9048100000.0 -9035750000.0 -9064150000.0 -9035750000.0 -9048100000.0 -9035750000.0 -9038800000.0 -9035750000.0 -9061450000.0 -9035750000.0 -9321180000.0 -9035760000.0 -9903840000.0 -9035760000.0 -10457600000.0 -9035760000.0 -10718000000.0 -9035760000.0 -10681900000.0 -9035760000.0 -10486500000.0 -9035770000.0 -10148600000.0 -9317310000.0 -10448700000.0 -10350300000.0 -11435100000.0 -11804400000.0 -12950100000.0 -14088200000.0 -15157000000.0 -13698500000.0 -13686400000.0 -12951600000.0 -11208200000.0 -10482600000.0 -11387700000.0 -11016000000.0 -11188900000.0 -11530900000.0 -10512400000.0 -10314000000.0 -10212900000.0 -10428300000.0 -9891670000.0 -10319000000.0 -11349100000.0 -11792300000.0 -11802800000.0 -12658300000.0 -12015500000.0 -11343700000.0 -10662800000.0 -10448300000.0 -9805530000.0 -9869150000.0 -9199800000.0 -9695340000.0 -9035760000.0 -9892520000.0 -9035760000.0 -10006400000.0 -9035760000.0 -10026500000.0 -9035760000.0 -9869060000.0 -9035750000.0 -9540030000.0 -9035750000.0 -9197530000.0 -9035750000.0 -9049630000.0 -9035750000.0 -9037340000.0 -9035750000.0 -9042620000.0 -9035750000.0 -9051970000.0 -9035750000.0 -9042620000.0 -9035750000.0 -9037340000.0 -9035750000.0 -9049630000.0 -9035750000.0 -9197530000.0 -9035750000.0 -9540030000.0 -9035750000.0 -9869060000.0 -9035760000.0 -10026500000.0 -9035760000.0 -10006400000.0 -9035760000.0 -9892520000.0 -9035760000.0 -9695340000.0 -9199800000.0 -9869150000.0 -9805530000.0 -10448300000.0 -10662800000.0 -11343700000.0 -12015500000.0 -12658300000.0 -11802800000.0 -11792300000.0 -11349100000.0 -10319000000.0 -9891670000.0 -10428300000.0 -10212900000.0 -10314000000.0 -10512400000.0 -9496460000.0 -9435040000.0 -9403650000.0 -9470330000.0 -9302760000.0 -9435820000.0 -9757070000.0 -9896350000.0 -9900040000.0 -10166000000.0 -9964220000.0 -9754810000.0 -9542020000.0 -9475570000.0 -9274930000.0 -9295430000.0 -9086620000.0 -9241670000.0 -9035760000.0 -9302850000.0 -9035750000.0 -9338150000.0 -9035750000.0 -9344280000.0 -9035750000.0 -9294760000.0 -9035750000.0 -9191940000.0 -9035750000.0 -9085350000.0 -9035750000.0 -9039920000.0 -9035750000.0 -9036220000.0 -9035750000.0 -9037840000.0 -9035750000.0 -9040740000.0 -9035750000.0 -9037840000.0 -9035750000.0 -9036220000.0 -9035750000.0 -9039920000.0 -9035750000.0 -9085350000.0 -9035750000.0 -9191940000.0 -9035750000.0 -9294760000.0 -9035750000.0 -9344280000.0 -9035750000.0 -9338150000.0 -9035750000.0 -9302850000.0 -9035760000.0 -9241670000.0 -9086620000.0 -9295430000.0 -9274930000.0 -9475570000.0 -9542020000.0 -9754810000.0 -9964220000.0 -10166000000.0 -9900040000.0 -9896350000.0 -9757070000.0 -9435820000.0 -9302760000.0 -9470330000.0 -9403650000.0 -9435040000.0 -9496460000.0 
SCALARS Shear_Stress float 1
LOOKUP_TABLE default
150497000000.0 92167100000.0 243834000000.0 243834000000.0 92167100000.0 150497000000.0 37011300000.0 77567700000.0 66931600000.0 194225000000.0 228515000000.0 171903000000.0 18847700000.0 48488900000.0 177675000000.0 146573000000.0 103501000000.0 110574000000.0 111447000000.0 98433500000.0 104935000000.0 98433600000.0 111447000000.0 110574000000.0 103501000000.0 146573000000.0 177675000000.0 48488900000.0 18847700000.0 171903000000.0 228515000000.0 194225000000.0 66931600000.0 77567700000.0 37011300000.0 11659500000.0 53258600000.0 49731700000.0 115289000000.0 90354300000.0 58627200000.0 33712600000.0 116541000000.0 25938900000.0 25938900000.0 116541000000.0 33712600000.0 58627200000.0 90354300000.0 115289000000.0 49731700000.0 53258600000.0 11659500000.0 1586880000.0 38566700.0 74575300000.0 162490000000.0 246602000000.0 4751160000.0 73106900000.0 252234000000.0 172703000000.0 211261000000.0 161707000000.0 80002900000.0 151898000000.0 134984000000.0 147228000000.0 135047000000.0 147228000000.0 134984000000.0 151898000000.0 80002900000.0 161707000000.0 211261000000.0 172703000000.0 252234000000.0 73106900000.0 4751160000.0 246602000000.0 162490000000.0 74575300000.0 38570800.0 1586880000.0 12324700000.0 111974000000.0 116578000000.0 152786000000.0 298000000000.0 332951000000.0 486486000000.0 119223000000.0 195936000000.0 248507000000.0 26527700000.0 8702260000.0 1404530000.0 1404530000.0 8702250000.0 26527700000.0 248507000000.0 195936000000.0 119223000000.0 486486000000.0 332951000000.0 298000000000.0 152786000000.0 116578000000.0 111974000000.0 12324700000.0 22115300000.0 162742000000.0 18679400000.0 59302100000.0 236860000000.0 319481000000.0 409604000000.0 398598000000.0 505254000000.0 550682000000.0 351245000000.0 261542000000.0 10735000000.0 77831800000.0 26499100000.0 21502800000.0 26499100000.0 77831800000.0 10735000000.0 261542000000.0 351245000000.0 550682000000.0 505254000000.0 398598000000.0 409604000000.0 319481000000.0 236860000000.0 59302100000.0 18679400000.0 162742000000.0 22115300000.0 13859200000.0 25210000000.0 247826000000.0 210593000000.0 104140000000.0 143637000000.0 298343000000.0 420768000000.0 435177000000.0 145494000000.0 397029000000.0 311378000000.0 47942100000.0 1228660000.0 12492800000.0 9799810000.0 55620200000.0 69257300000.0 32954000000.0 37792400000.0 29956300000.0 37792400000.0 32954000000.0 69257300000.0 55620100000.0 9799830000.0 12492800000.0 1228660000.0 47942100000.0 311378000000.0 397029000000.0 145494000000.0 435177000000.0 420768000000.0 298343000000.0 143637000000.0 104140000000.0 210593000000.0 247826000000.0 25209900000.0 13859200000.0 6066250000.0 257687000000.0 173950000000.0 27788200000.0 177482000000.0 303151000000.0 386612000000.0 462628000000.0 204673000000.0 258095000000.0 292144000000.0 17380400000.0 102737000000.0 12637800000.0 12637800000.0 102737000000.0 17380400000.0 292144000000.0 258095000000.0 204673000000.0 462628000000.0 386612000000.0 303151000000.0 177482000000.0 27788200000.0 173950000000.0 257687000000.0 6066250000.0 15545700000.0 243661000000.0 219222000000.0 215941000000.0 173197000000.0 83158100000.0 32526100000.0 322271000000.0 471839000000.0 452646000000.0 359982000000.0 120610000000.0 27669900000.0 111233000000.0 51861200000.0 5170860000.0 105124000000.0 14063300000.0 60885300000.0 15576300000.0 60885300000.0 14063300000.0 105124000000.0 5170850000.0 51861200000.0 111233000000.0 27669900000.0 120610000000.0 359982000000.0 452646000000.0 471839000000.0 322271000000.0 32526100000.0 83158100000.0 173197000000.0 215941000000.0 219222000000.0 243661000000.0 15545700000.0 11296700000.0 225439000000.0 214874000000.0 190918000000.0 210044000000.0 98613600000.0 172643000000.0 306317000000.0 426349000000.0 475970000000.0 314776000000.0 145781000000.0 466197000000.0 10044700000.0 43071000000.0 59417700000.0 53616700000.0 16778900000.0 52144100000.0 103574000000.0 28654300000.0 44776500000.0 24093100000.0 44776500000.0 28654300000.0 103574000000.0 52144100000.0 16778900000.0 53616800000.0 59417700000.0 43071000000.0 10044700000.0 466197000000.0 145781000000.0 314776000000.0 475970000000.0 426349000000.0 306317000000.0 172643000000.0 98613600000.0 210044000000.0 190918000000.0 214874000000.0 225439000000.0 11296700000.0 709627000000.0 127266000000.0 244051000000.0 156385000000.0 213751000000.0 194538000000.0 136091000000.0 7636500000.0 135845000000.0 429076000000.0 427547000000.0 249759000000.0 84426100000.0 135662000000.0 302009000000.0 35807800000.0 14902800000.0 14902800000.0 35807800000.0 302009000000.0 135662000000.0 84426100000.0 249759000000.0 427547000000.0 429076000000.0 135845000000.0 7636510000.0 136090000000.0 194538000000.0 213751000000.0 156385000000.0 244051000000.0 127266000000.0 709627000000.0 477783000000.0 67328500000.0 212110000000.0 218907000000.0 193028000000.0 251580000000.0 237753000000.0 223895000000.0 37362800000.0 254518000000.0 453088000000.0 395663000000.0 12832600000.0 439279000000.0 242217000000.0 266060000000.0 211510000000.0 11289000000.0 32698600000.0 151117000000.0 7543160000.0 79709400000.0 3151310000.0 79709400000.0 7543170000.0 151117000000.0 32698600000.0 11289000000.0 211510000000.0 266060000000.0 242217000000.0 439279000000.0 12832600000.0 395663000000.0 453088000000.0 254518000000.0 37362700000.0 223895000000.0 237753000000.0 251580000000.0 193028000000.0 218907000000.0 212110000000.0 67328500000.0 477783000000.0 12516700000.0 234311000000.0 869067000000.0 246136000000.0 550187000000.0 320694000000.0 270724000000.0 165696000000.0 84353500000.0 176276000000.0 404918000000.0 392402000000.0 146212000000.0 158714000000.0 369381000000.0 185915000000.0 148845000000.0 5350700000.0 14255700000.0 184955000000.0 1654760000.0 106050000000.0 5028440000.0 106050000000.0 1654770000.0 184955000000.0 14255700000.0 5350700000.0 148845000000.0 185915000000.0 369381000000.0 158714000000.0 146212000000.0 392402000000.0 404918000000.0 176276000000.0 84353500000.0 165696000000.0 270724000000.0 320694000000.0 550187000000.0 246136000000.0 869067000000.0 234311000000.0 12516700000.0 77480700000.0 129152000000.0 703635000000.0 1.26078e+12 607441000000.0 444187000000.0 280961000000.0 231867000000.0 264021000000.0 189530000000.0 53354500000.0 129952000000.0 345378000000.0 356553000000.0 62065400000.0 36991200000.0 215180000000.0 169692000000.0 133093000000.0 105898000000.0 63306200000.0 63306000000.0 105898000000.0 133093000000.0 169692000000.0 215180000000.0 36991100000.0 62065400000.0 356553000000.0 345378000000.0 129952000000.0 53354500000.0 189530000000.0 264021000000.0 231867000000.0 280961000000.0 444187000000.0 607441000000.0 1.26078e+12 703635000000.0 129152000000.0 77480700000.0 107597000000.0 396557000000.0 433492000000.0 497660000000.0 704615000000.0 945436000000.0 1.22559e+12 743957000000.0 185780000000.0 256233000000.0 15369000000.0 258780000000.0 180783000000.0 201048000000.0 277179000000.0 13108300000.0 316190000000.0 119068000000.0 83241300000.0 80833200000.0 61142900000.0 44803800000.0 155168000000.0 24400800000.0 96373600000.0 17087400000.0 96373600000.0 24400800000.0 155168000000.0 44803600000.0 61142800000.0 80833200000.0 83241300000.0 119068000000.0 316190000000.0 13108200000.0 277179000000.0 201048000000.0 180783000000.0 258780000000.0 15369000000.0 256233000000.0 185780000000.0 743957000000.0 1.22559e+12 945436000000.0 704615000000.0 497660000000.0 433492000000.0 396557000000.0 107597000000.0 160942000000.0 97529700000.0 328948000000.0 506897000000.0 938107000000.0 919463000000.0 634930000000.0 769882000000.0 369542000000.0 20279500000.0 69583100000.0 146731000000.0 147963000000.0 291869000000.0 120865000000.0 268630000000.0 264772000000.0 300508000000.0 95688700000.0 104469000000.0 78983200000.0 79546700000.0 37977600000.0 94223700000.0 35640400000.0 105112000000.0 15541900000.0 105112000000.0 35640200000.0 94223900000.0 37977600000.0 79546600000.0 78983100000.0 104469000000.0 95688700000.0 300508000000.0 264772000000.0 268630000000.0 120865000000.0 291869000000.0 147963000000.0 146731000000.0 69583100000.0 20279500000.0 369542000000.0 769882000000.0 634930000000.0 919463000000.0 938107000000.0 506897000000.0 328948000000.0 97529700000.0 160942000000.0 63763000000.0 317876000000.0 305904000000.0 480045000000.0 906230000000.0 1.1602e+12 730015000000.0 352877000000.0 454983000000.0 152540000000.0 680378000000.0 77359300000.0 415286000000.0 470000000000.0 311641000000.0 91852700000.0 157004000000.0 445220000000.0 142469000000.0 259124000000.0 35981300000.0 74724500000.0 73369100000.0 73369000000.0 74724400000.0 35981200000.0 259124000000.0 142469000000.0 445220000000.0 157004000000.0 91852700000.0 311641000000.0 470000000000.0 415286000000.0 77359300000.0 680378000000.0 152540000000.0 454983000000.0 352877000000.0 730015000000.0 1.1602e+12 906230000000.0 480045000000.0 305904000000.0 317876000000.0 63763100000.0 64370100000.0 62404800000.0 43483700000.0 200618000000.0 54235600000.0 1.2121e+12 829060000000.0 268515000000.0 1.50313e+12 80588200000.0 153181000000.0 599032000000.0 180287000000.0 504826000000.0 523402000000.0 90752500000.0 309747000000.0 150657000000.0 60811500000.0 112187000000.0 72826000000.0 83737300000.0 17633400000.0 56215600000.0 61950100000.0 86245200000.0 37722100000.0 86245200000.0 61950100000.0 56215700000.0 17633500000.0 83737300000.0 72826000000.0 112187000000.0 60811400000.0 150657000000.0 309747000000.0 90752500000.0 523402000000.0 504826000000.0 180287000000.0 599032000000.0 153181000000.0 80588200000.0 1.50313e+12 268515000000.0 829060000000.0 1.2121e+12 54235600000.0 200618000000.0 43483700000.0 62404800000.0 64370100000.0 58236100000.0 268295000000.0 370118000000.0 88120300000.0 322201000000.0 13953900000.0 729889000000.0 468064000000.0 357105000000.0 1.35244e+12 414470000000.0 874190000000.0 212820000000.0 190062000000.0 219549000000.0 189663000000.0 276974000000.0 119874000000.0 223805000000.0 375942000000.0 302782000000.0 23635400000.0 203037000000.0 176057000000.0 98740500000.0 5895050000.0 19662600000.0 83322800000.0 50725900000.0 68757300000.0 50725900000.0 83322800000.0 19662700000.0 5895090000.0 98740500000.0 176057000000.0 203037000000.0 23635400000.0 302782000000.0 375942000000.0 223805000000.0 119874000000.0 276974000000.0 189663000000.0 219549000000.0 190062000000.0 212820000000.0 874190000000.0 414470000000.0 1.35244e+12 357105000000.0 468064000000.0 729889000000.0 13953900000.0 322201000000.0 88120300000.0 370118000000.0 268295000000.0 58236100000.0 299086000000.0 30269700000.0 243005000000.0 155302000000.0 298482000000.0 757795000000.0 590475000000.0 840064000000.0 380375000000.0 468454000000.0 946721000000.0 86629400000.0 252202000000.0 71745200000.0 373932000000.0 638435000000.0 22255700000.0 569844000000.0 73772900000.0 8255060000.0 187060000000.0 9854290000.0 12616000000.0 70684500000.0 70684500000.0 12615900000.0 9854320000.0 187060000000.0 8255040000.0 73772900000.0 569844000000.0 22255700000.0 638435000000.0 373932000000.0 71745200000.0 252202000000.0 86629400000.0 946721000000.0 468454000000.0 380375000000.0 840064000000.0 590475000000.0 757795000000.0 298482000000.0 155302000000.0 243005000000.0 30269700000.0 299086000000.0 52393800000.0 591224000000.0 535267000000.0 2061590000.0 28954800000.0 131750000000.0 400286000000.0 49051100000.0 89960100000.0 450786000000.0 882039000000.0 66793500000.0 571216000000.0 74246100000.0 328896000000.0 314423000000.0 43735100000.0 533064000000.0 529005000000.0 412286000000.0 237334000000.0 139310000000.0 76501300000.0 195527000000.0 32933300000.0 159549000000.0 45629200000.0 42785600000.0 95080200000.0 18833300000.0 81503300000.0 18833400000.0 95080300000.0 42785600000.0 45629200000.0 159549000000.0 32933300000.0 195527000000.0 76501200000.0 139310000000.0 237334000000.0 412286000000.0 529005000000.0 533064000000.0 43735100000.0 314423000000.0 328896000000.0 74246100000.0 571216000000.0 66793500000.0 882039000000.0 450786000000.0 89960100000.0 49051100000.0 400286000000.0 131750000000.0 28954800000.0 2061620000.0 535267000000.0 591224000000.0 52393700000.0 100114000000.0 353858000000.0 245006000000.0 657287000000.0 701303000000.0 63905800000.0 746604000000.0 783842000000.0 983901000000.0 748789000000.0 388164000000.0 361435000000.0 947108000000.0 98051100000.0 182410000000.0 120334000000.0 233683000000.0 98908100000.0 89993100000.0 49554000000.0 187847000000.0 144852000000.0 82099500000.0 101456000000.0 187421000000.0 128109000000.0 68309700000.0 119026000000.0 69174400000.0 119026000000.0 68309800000.0 128109000000.0 187421000000.0 101456000000.0 82099500000.0 144852000000.0 187847000000.0 49554000000.0 89993200000.0 98908100000.0 233683000000.0 120334000000.0 182410000000.0 98051100000.0 947108000000.0 361435000000.0 388164000000.0 748789000000.0 983901000000.0 783842000000.0 746604000000.0 63905800000.0 701304000000.0 657287000000.0 245006000000.0 353858000000.0 100114000000.0 118045000000.0 272174000000.0 165734000000.0 40287600000.0 606586000000.0 326658000000.0 92810000000.0 185877000000.0 337771000000.0 132063000000.0 444843000000.0 241671000000.0 181467000000.0 280725000000.0 186826000000.0 51915700000.0 339120000000.0 157085000000.0 68851700000.0 36324400000.0 283149000000.0 69133100000.0 293910000000.0 187671000000.0 242226000000.0 316525000000.0 138209000000.0 89673500000.0 96814600000.0 96814700000.0 89673400000.0 138209000000.0 316525000000.0 242226000000.0 187671000000.0 293910000000.0 69133100000.0 283149000000.0 36324400000.0 68851700000.0 157085000000.0 339120000000.0 51915700000.0 186826000000.0 280725000000.0 181467000000.0 241671000000.0 444843000000.0 132063000000.0 337771000000.0 185877000000.0 92810000000.0 326658000000.0 606586000000.0 40287600000.0 165734000000.0 272174000000.0 118045000000.0 38426200000.0 262706000000.0 415135000000.0 496431000000.0 4559200000.0 146505000000.0 231233000000.0 466832000000.0 25497800000.0 676418000000.0 750955000000.0 222343000000.0 432058000000.0 279947000000.0 190727000000.0 654801000000.0 127425000000.0 487109000000.0 113157000000.0 97755300000.0 64965900000.0 13783600000.0 47859200000.0 99528200000.0 71545700000.0 244091000000.0 4458760000.0 63298100000.0 81369100000.0 111160000000.0 174538000000.0 47283600000.0 213970000000.0 64441700000.0 213970000000.0 47283700000.0 174539000000.0 111160000000.0 81369100000.0 63298100000.0 4458780000.0 244091000000.0 71545700000.0 99528200000.0 47859100000.0 13783600000.0 64965900000.0 97755300000.0 113157000000.0 487109000000.0 127425000000.0 654801000000.0 190727000000.0 279947000000.0 432058000000.0 222343000000.0 750955000000.0 676418000000.0 25497800000.0 466832000000.0 231233000000.0 146505000000.0 4559190000.0 496431000000.0 415135000000.0 262706000000.0 38426200000.0 89318100000.0 94197800000.0 437705000000.0 25614200000.0 110534000000.0 295180000000.0 483382000000.0 650801000000.0 362518000000.0 376765000000.0 295745000000.0 470246000000.0 635891000000.0 341319000000.0 59514100000.0 129723000000.0 61289200000.0 26925800000.0 5541810000.0 96137800000.0 266453000000.0 38546500000.0 95642100.0 77676600000.0 5636710000.0 22917400000.0 22917400000.0 5636700000.0 77676600000.0 95666500.0 38546500000.0 266453000000.0 96137800000.0 5541810000.0 26925800000.0 61289200000.0 129723000000.0 59514100000.0 341319000000.0 635891000000.0 470246000000.0 295745000000.0 376765000000.0 362518000000.0 650801000000.0 483382000000.0 295180000000.0 110534000000.0 25614300000.0 437705000000.0 94197700000.0 89318100000.0 21681400000.0 117227000000.0 271000000000.0 705372000000.0 18147400000.0 211451000000.0 368007000000.0 123244000000.0 596215000000.0 556886000000.0 36573200000.0 507834000000.0 270103000000.0 107837000000.0 150561000000.0 259590000000.0 90049900000.0 152423000000.0 86919500000.0 156191000000.0 97413700000.0 292987000000.0 127835000000.0 257063000000.0 116348000000.0 159412000000.0 23210500000.0 83925400000.0 84650000000.0 194384000000.0 144995000000.0 175420000000.0 144995000000.0 194384000000.0 84649900000.0 83925400000.0 23210500000.0 159412000000.0 116348000000.0 257063000000.0 127835000000.0 292987000000.0 97413700000.0 156191000000.0 86919500000.0 152423000000.0 90049900000.0 259590000000.0 150561000000.0 107837000000.0 270103000000.0 507834000000.0 36573200000.0 556886000000.0 596215000000.0 123244000000.0 368007000000.0 211451000000.0 18147500000.0 705372000000.0 271000000000.0 117227000000.0 21681400000.0 322302000000.0 31998600000.0 66044300000.0 510121000000.0 770627000000.0 65415000000.0 148598000000.0 357308000000.0 459008000000.0 781055000000.0 381075000000.0 637758000000.0 465799000000.0 509234000000.0 385562000000.0 319830000000.0 294254000000.0 240689000000.0 248500000000.0 292952000000.0 389247000000.0 257794000000.0 67432000000.0 26499800000.0 33429400000.0 70621800000.0 87276300000.0 99203400000.0 31215900000.0 220227000000.0 83071100000.0 46961500000.0 129484000000.0 17151500000.0 129484000000.0 46961400000.0 83071100000.0 220227000000.0 31215900000.0 99203400000.0 87276300000.0 70621800000.0 33429400000.0 26499800000.0 67432000000.0 257794000000.0 389247000000.0 292952000000.0 248500000000.0 240689000000.0 294254000000.0 319830000000.0 385562000000.0 509234000000.0 465799000000.0 637758000000.0 381075000000.0 781055000000.0 459008000000.0 357308000000.0 148598000000.0 65415000000.0 770627000000.0 510121000000.0 66044300000.0 31998600000.0 322302000000.0 355633000000.0 191383000000.0 27829500000.0 140531000000.0 392132000000.0 180293000000.0 426985000000.0 671243000000.0 497691000000.0 473870000000.0 379158000000.0 355048000000.0 347589000000.0 269933000000.0 371588000000.0 432369000000.0 408523000000.0 310580000000.0 244506000000.0 49751500000.0 5206710000.0 76811600000.0 41838700000.0 41838700000.0 76811600000.0 5206690000.0 49751500000.0 244506000000.0 310580000000.0 408523000000.0 432369000000.0 371588000000.0 269933000000.0 347589000000.0 355048000000.0 379158000000.0 473870000000.0 497691000000.0 671243000000.0 426985000000.0 180293000000.0 392132000000.0 140531000000.0 27829500000.0 191383000000.0 355633000000.0 71405900000.0 137881000000.0 165372000000.0 51025400000.0 410224000000.0 625603000000.0 193492000000.0 326746000000.0 176460000000.0 187608000000.0 658867000000.0 547409000000.0 490652000000.0 436673000000.0 552109000000.0 402440000000.0 240711000000.0 85407500000.0 64951400000.0 66980900000.0 241140000000.0 4834000000.0 171683000000.0 31015100000.0 172872000000.0 81608100000.0 156600000000.0 43295600000.0 125242000000.0 121636000000.0 49395500000.0 291985000000.0 2127930000.0 181401000000.0 12011100000.0 165325000000.0 12011100000.0 181400000000.0 2127930000.0 291985000000.0 49395500000.0 121636000000.0 125242000000.0 43295600000.0 156600000000.0 81608100000.0 172872000000.0 31015100000.0 171683000000.0 4834000000.0 241140000000.0 66980900000.0 64951400000.0 85407500000.0 240711000000.0 402440000000.0 552109000000.0 436673000000.0 490652000000.0 547409000000.0 658867000000.0 187608000000.0 176460000000.0 326746000000.0 193492000000.0 625603000000.0 410224000000.0 51025400000.0 165372000000.0 137881000000.0 71405900000.0 180984000000.0 71820300000.0 287112000000.0 114113000000.0 28957900000.0 544598000000.0 600267000000.0 509370000000.0 378268000000.0 578154000000.0 446613000000.0 370303000000.0 217572000000.0 100557000000.0 133493000000.0 301177000000.0 227711000000.0 205414000000.0 117979000000.0 90634100000.0 146386000000.0 19281300000.0 194474000000.0 7448830000.0 274670000000.0 9849990000.0 153801000000.0 12342700000.0 137865000000.0 12342700000.0 153801000000.0 9850000000.0 274670000000.0 7448830000.0 194474000000.0 19281300000.0 146386000000.0 90634100000.0 117979000000.0 205414000000.0 227711000000.0 301177000000.0 133493000000.0 100557000000.0 217572000000.0 370303000000.0 446613000000.0 578154000000.0 378268000000.0 509370000000.0 600267000000.0 544598000000.0 28957900000.0 114113000000.0 287112000000.0 71820300000.0 180984000000.0 28859100000.0 64505400000.0 184594000000.0 231060000000.0 487965000000.0 182241000000.0 306997000000.0 346782000000.0 599524000000.0 433238000000.0 358441000000.0 231765000000.0 220414000000.0 81504800000.0 90931600000.0 171300000000.0 114200000000.0 61233100000.0 80037500000.0 80037500000.0 61233100000.0 114200000000.0 171300000000.0 90931600000.0 81504800000.0 220414000000.0 231765000000.0 358441000000.0 433238000000.0 599524000000.0 346782000000.0 306997000000.0 182241000000.0 487965000000.0 231060000000.0 184594000000.0 64505400000.0 28859100000.0 232899000000.0 13465700000.0 120580000000.0 122168000000.0 423733000000.0 70604500000.0 182303000000.0 337758000000.0 383274000000.0 504165000000.0 336394000000.0 538152000000.0 478733000000.0 290178000000.0 267961000000.0 145686000000.0 63904100000.0 138994000000.0 41993700000.0 9848150000.0 12656600000.0 49180200000.0 17103100000.0 40238100000.0 21641300000.0 126007000000.0 20127900000.0 117929000000.0 15124300000.0 215027000000.0 24077500000.0 132343000000.0 25164800000.0 123178000000.0 25164800000.0 132343000000.0 24077500000.0 215027000000.0 15124300000.0 117929000000.0 20128000000.0 126007000000.0 21641300000.0 40238100000.0 17103100000.0 49180200000.0 12656600000.0 9848140000.0 41993700000.0 138994000000.0 63904100000.0 145686000000.0 267961000000.0 290178000000.0 478733000000.0 538152000000.0 336394000000.0 504165000000.0 383274000000.0 337758000000.0 182303000000.0 70604500000.0 423733000000.0 122168000000.0 120580000000.0 13465700000.0 232899000000.0 42209000000.0 167280000000.0 181585000000.0 65393700000.0 145625000000.0 339563000000.0 372350000000.0 335539000000.0 459077000000.0 485257000000.0 456124000000.0 377044000000.0 282823000000.0 108960000000.0 206256000000.0 255105000000.0 194959000000.0 165304000000.0 155952000000.0 102584000000.0 120051000000.0 74212500000.0 99577100000.0 19089900000.0 34012100000.0 51338100000.0 85657900000.0 65155100000.0 126278000000.0 29184700000.0 130399000000.0 39560400000.0 130399000000.0 29184700000.0 126278000000.0 65155100000.0 85657900000.0 51338100000.0 34012100000.0 19089900000.0 99577100000.0 74212500000.0 120051000000.0 102584000000.0 155952000000.0 165304000000.0 194959000000.0 255105000000.0 206256000000.0 108960000000.0 282823000000.0 377044000000.0 456124000000.0 485257000000.0 459077000000.0 335539000000.0 372350000000.0 339563000000.0 145625000000.0 65393700000.0 181585000000.0 167280000000.0 42209000000.0 114719000000.0 83672000000.0 149816000000.0 199000000000.0 102394000000.0 255168000000.0 206029000000.0 152672000000.0 164333000000.0 310666000000.0 279552000000.0 344014000000.0 438649000000.0 416345000000.0 302663000000.0 121785000000.0 21492600000.0 79394500000.0 91649700000.0 91649700000.0 79394500000.0 21492600000.0 121785000000.0 302663000000.0 416345000000.0 438648000000.0 344014000000.0 279552000000.0 310666000000.0 164333000000.0 152672000000.0 206029000000.0 255168000000.0 102394000000.0 199000000000.0 149816000000.0 83672000000.0 114719000000.0 55577200000.0 122722000000.0 59559400000.0 9474470000.0 206196000000.0 228641000000.0 181503000000.0 217221000000.0 377155000000.0 309035000000.0 223023000000.0 182724000000.0 197278000000.0 198947000000.0 125654000000.0 42924000000.0 97624900000.0 12976200000.0 39835000000.0 33981400000.0 7487000000.0 4825150000.0 7527020000.0 5601030000.0 38984600000.0 19355100000.0 79190600000.0 18240800000.0 154813000000.0 18679300000.0 109220000000.0 24259300000.0 105711000000.0 24259300000.0 109220000000.0 18679300000.0 154813000000.0 18240800000.0 79190600000.0 19355100000.0 38984600000.0 5601030000.0 7527030000.0 4825150000.0 7486990000.0 33981400000.0 39835000000.0 12976200000.0 97624900000.0 42924000000.0 125654000000.0 198947000000.0 197278000000.0 182724000000.0 223023000000.0 309035000000.0 377155000000.0 217221000000.0 181503000000.0 228641000000.0 206196000000.0 9474460000.0 59559400000.0 122722000000.0 55577200000.0 36652900000.0 69889700000.0 220500000000.0 171914000000.0 249238000000.0 243604000000.0 365795000000.0 203798000000.0 296620000000.0 320626000000.0 389416000000.0 401867000000.0 279608000000.0 235158000000.0 152189000000.0 93015400000.0 95891600000.0 80991000000.0 117496000000.0 83960900000.0 146907000000.0 108590000000.0 222381000000.0 109593000000.0 252950000000.0 166793000000.0 257632000000.0 173003000000.0 257632000000.0 166793000000.0 252950000000.0 109593000000.0 222381000000.0 108590000000.0 146907000000.0 83960900000.0 117496000000.0 80991000000.0 95891600000.0 93015400000.0 152189000000.0 235158000000.0 279608000000.0 401867000000.0 389416000000.0 320626000000.0 296620000000.0 203798000000.0 365795000000.0 243604000000.0 249238000000.0 171914000000.0 220500000000.0 69889600000.0 36652900000.0 45580700000.0 3353170000.0 175741000000.0 162531000000.0 115120000000.0 200020000000.0 231734000000.0 151179000000.0 189085000000.0 298223000000.0 313054000000.0 283241000000.0 181321000000.0 51212900000.0 78179000000.0 78179000000.0 51213000000.0 181321000000.0 283241000000.0 313054000000.0 298223000000.0 189085000000.0 151179000000.0 231734000000.0 200020000000.0 115120000000.0 162531000000.0 175741000000.0 3353170000.0 45580700000.0 35645800000.0 34661800000.0 14110100000.0 91125900000.0 110305000000.0 88710400000.0 92574700000.0 72116600000.0 187190000000.0 267851000000.0 50972300000.0 396265000000.0 337802000000.0 352522000000.0 268527000000.0 172738000000.0 98758400000.0 69988700000.0 13420300000.0 82367500000.0 171626000000.0 247967000000.0 202678000000.0 209974000000.0 179073000000.0 129133000000.0 138656000000.0 49617200000.0 81455400000.0 84468700000.0 1562760000.0 121988000000.0 7569360000.0 142561000000.0 10463700000.0 105755000000.0 11882400000.0 103568000000.0 11882400000.0 105755000000.0 10463700000.0 142561000000.0 7569360000.0 121988000000.0 1562760000.0 84468700000.0 81455400000.0 49617200000.0 138656000000.0 129133000000.0 179073000000.0 209974000000.0 202678000000.0 247967000000.0 171626000000.0 82367500000.0 13420300000.0 69988700000.0 98758400000.0 172738000000.0 268527000000.0 352522000000.0 337802000000.0 396265000000.0 50972300000.0 267851000000.0 187190000000.0 72116600000.0 92574700000.0 88710500000.0 110305000000.0 91125800000.0 14110100000.0 34661800000.0 35645800000.0 3123140000.0 39729600000.0 24266200000.0 90771000000.0 97024000000.0 52506900000.0 47196900000.0 47308800000.0 237772000000.0 169119000000.0 164983000000.0 148262000000.0 116378000000.0 1642380000.0 52520300000.0 118106000000.0 129309000000.0 137490000000.0 100058000000.0 120207000000.0 42911800000.0 120501000000.0 32188600000.0 130422000000.0 13757900000.0 137681000000.0 23649100000.0 144967000000.0 26682300000.0 146430000000.0 60392700000.0 144091000000.0 62281200000.0 144091000000.0 60392800000.0 146430000000.0 26682300000.0 144967000000.0 23649100000.0 137681000000.0 13757900000.0 130422000000.0 32188600000.0 120501000000.0 42911800000.0 120207000000.0 100058000000.0 137490000000.0 129309000000.0 118106000000.0 52520400000.0 1642380000.0 116378000000.0 148262000000.0 164983000000.0 169119000000.0 237772000000.0 47308800000.0 47196900000.0 52506900000.0 97024000000.0 90771000000.0 24266200000.0 39729600000.0 3123140000.0 93389500000.0 50280200000.0 215402000000.0 136848000000.0 178553000000.0 178553000000.0 136848000000.0 215402000000.0 50280200000.0 93389500000.0 3889020000.0 45005200000.0 6490520000.0 35037900000.0 30208100000.0 9794720000.0 40443800000.0 33429500000.0 11390900000.0 108193000000.0 14045300000.0 9735460000.0 194453000000.0 184312000000.0 171152000000.0 129015000000.0 128327000000.0 96534800000.0 90529900000.0 48083800000.0 5872850000.0 39523000000.0 5004230000.0 60935300000.0 1785580000.0 100941000000.0 4260890000.0 107758000000.0 4508600000.0 129719000000.0 6480030000.0 127365000000.0 7898140000.0 115713000000.0 8740650000.0 86231200000.0 9199080000.0 83797400000.0 9199080000.0 86231200000.0 8740650000.0 115713000000.0 7898150000.0 127365000000.0 6480030000.0 129719000000.0 4508600000.0 107758000000.0 4260890000.0 100941000000.0 1785580000.0 60935300000.0 5004230000.0 39523000000.0 5872850000.0 48083800000.0 90529900000.0 96534800000.0 128327000000.0 129015000000.0 171152000000.0 184312000000.0 194453000000.0 9735460000.0 14045300000.0 108193000000.0 11390900000.0 33429500000.0 40443800000.0 9794720000.0 30208100000.0 35037900000.0 6490530000.0 45005200000.0 3889020000.0 9989900000.0 9789430000.0 45818200000.0 79798000000.0 64123400000.0 35471500000.0 27262600000.0 52819500000.0 11899900000.0 72479200000.0 152375000000.0 174254000000.0 216712000000.0 233063000000.0 252800000000.0 228639000000.0 147097000000.0 151691000000.0 63803100000.0 100482000000.0 13307000000.0 67522100000.0 41877900000.0 44022400000.0 81033400000.0 28693400000.0 88285300000.0 17879800000.0 76392100000.0 10494200000.0 56881900000.0 6803680000.0 56335400000.0 6803680000.0 56881900000.0 10494200000.0 76392100000.0 17879800000.0 88285300000.0 28693400000.0 81033400000.0 44022400000.0 41877900000.0 67522100000.0 13307000000.0 100482000000.0 63803100000.0 151691000000.0 147097000000.0 228639000000.0 252800000000.0 233063000000.0 216712000000.0 174254000000.0 152375000000.0 72479200000.0 11899900000.0 52819500000.0 27262600000.0 35471500000.0 64123400000.0 79798000000.0 45818200000.0 9789430000.0 9989900000.0 18587500000.0 119520000000.0 62346100000.0 53579500000.0 117550000000.0 117550000000.0 53579500000.0 62346100000.0 119520000000.0 18587500000.0 5126460000.0 10145000000.0 3898900000.0 21673200000.0 9455240000.0 19644300000.0 50985000000.0 75843800000.0 61861800000.0 1060560000.0 44723400000.0 72270400000.0 64325700000.0 95681900000.0 122247000000.0 109684000000.0 119110000000.0 96342600000.0 63142800000.0 38328000000.0 7844140000.0 60465900000.0 7926500000.0 75308000000.0 7865650000.0 100825000000.0 8227420000.0 100479000000.0 8446530000.0 116741000000.0 8867550000.0 110592000000.0 8989750000.0 83730500000.0 9035750000.0 63469200000.0 9035750000.0 61617100000.0 9035750000.0 63469200000.0 9035750000.0 83730500000.0 8989750000.0 110592000000.0 8867550000.0 116741000000.0 8446530000.0 100479000000.0 8227420000.0 100825000000.0 7865650000.0 75308000000.0 7926500000.0 60465900000.0 7844140000.0 38328000000.0 63142800000.0 96342600000.0 119110000000.0 109684000000.0 122247000000.0 95681900000.0 64325700000.0 72270400000.0 44723400000.0 1060560000.0 61861800000.0 75843800000.0 50985000000.0 19644300000.0 9455240000.0 21673200000.0 3898900000.0 10145000000.0 5126460000.0 20114600000.0 65882100000.0 74990200000.0 73125100000.0 46376300000.0 16128100000.0 8377840000.0 12032000000.0 45262200000.0 3029000000.0 64948600000.0 4681410000.0 9035750000.0 93178800000.0 9035750000.0 106507000000.0 9035750000.0 100313000000.0 9035750000.0 70186000000.0 9035750000.0 54055600000.0 9035750000.0 52683900000.0 9035750000.0 54055600000.0 9035750000.0 70186000000.0 9035750000.0 100313000000.0 9035750000.0 106507000000.0 9035750000.0 93178800000.0 9035750000.0 4681410000.0 64948600000.0 3029000000.0 45262200000.0 12032000000.0 8377840000.0 16128200000.0 46376300000.0 73125100000.0 74990300000.0 65882100000.0 20114600000.0 15385000000.0 14706200000.0 58767600000.0 56284800000.0 43129200000.0 25761600000.0 59549400000.0 112857000000.0 78941000000.0 63881700000.0 173140000000.0 139004000000.0 112254000000.0 91688600000.0 91688600000.0 112254000000.0 139004000000.0 173140000000.0 63881700000.0 78941000000.0 112857000000.0 59549500000.0 25761600000.0 43129200000.0 56284800000.0 58767600000.0 14706200000.0 15385000000.0 17790200000.0 15749100000.0 11342100000.0 45424000000.0 59039800000.0 57892300000.0 47920900000.0 22940000000.0 54787600000.0 94083600000.0 74342600000.0 64380400000.0 168200000000.0 152217000000.0 139248000000.0 112141000000.0 106383000000.0 74332000000.0 41901400000.0 34230300000.0 9039390000.0 60276700000.0 9035750000.0 68702100000.0 9035750000.0 84824400000.0 9035750000.0 86049700000.0 9035760000.0 96619800000.0 9035750000.0 90422300000.0 9035760000.0 58792100000.0 9035750000.0 46112100000.0 9035750000.0 45137600000.0 9035750000.0 46112000000.0 9035750000.0 58792000000.0 9035760000.0 90422300000.0 9035750000.0 96619800000.0 9035760000.0 86049700000.0 9035750000.0 84824400000.0 9035750000.0 68702100000.0 9035750000.0 60276700000.0 9039390000.0 34230300000.0 41901400000.0 74332000000.0 106383000000.0 112141000000.0 139248000000.0 152217000000.0 168200000000.0 64380400000.0 74342600000.0 94083600000.0 54787600000.0 22940000000.0 47920900000.0 57892300000.0 59039800000.0 45424000000.0 11342100000.0 15749100000.0 17790200000.0 20949100000.0 19607800000.0 13049800000.0 41314300000.0 59961700000.0 66540700000.0 60290300000.0 33441900000.0 63193500000.0 92317900000.0 83294100000.0 79923900000.0 165542000000.0 145231000000.0 129497000000.0 102986000000.0 93885700000.0 60985100000.0 36335700000.0 31192500000.0 8761790000.0 57942700000.0 9035760000.0 63409000000.0 9035760000.0 77744200000.0 9035760000.0 79671700000.0 9035760000.0 87614700000.0 9035760000.0 81038600000.0 9035760000.0 49306100000.0 9035750000.0 39446600000.0 9035750000.0 38793800000.0 9035750000.0 39446600000.0 9035750000.0 49306100000.0 9035760000.0 81038600000.0 9035760000.0 87614700000.0 9035760000.0 79671700000.0 9035760000.0 77744200000.0 9035760000.0 63409000000.0 9035760000.0 57942700000.0 8761790000.0 31192500000.0 36335700000.0 60985100000.0 93885700000.0 102986000000.0 129497000000.0 145231000000.0 165542000000.0 79923900000.0 83294100000.0 92317900000.0 63193500000.0 33441900000.0 60290300000.0 66540700000.0 59961700000.0 41314300000.0 13049800000.0 19607800000.0 20949100000.0 23277500000.0 21540300000.0 13815800000.0 35489300000.0 55923400000.0 67896200000.0 64435400000.0 36790700000.0 61937400000.0 83038100000.0 82072600000.0 82968000000.0 154212000000.0 135789000000.0 121494000000.0 97046300000.0 85517800000.0 53978200000.0 34955500000.0 30462400000.0 9035760000.0 55304700000.0 9035760000.0 58188800000.0 9035760000.0 71588500000.0 9035760000.0 73798200000.0 9035760000.0 79402500000.0 9035760000.0 72159000000.0 9035760000.0 41455200000.0 9035750000.0 33881700000.0 9035750000.0 33484900000.0 9035750000.0 33881600000.0 9035750000.0 41455200000.0 9035760000.0 72159000000.0 9035760000.0 79402500000.0 9035760000.0 73798200000.0 9035760000.0 71588500000.0 9035760000.0 58188800000.0 9035760000.0 55304700000.0 9035760000.0 30462400000.0 34955500000.0 53978200000.0 85517800000.0 97046300000.0 121494000000.0 135789000000.0 154212000000.0 82968000000.0 82072600000.0 83038100000.0 61937400000.0 36790700000.0 64435400000.0 67896200000.0 55923400000.0 35489300000.0 13815800000.0 21540300000.0 23277500000.0 25289600000.0 23125200000.0 14784000000.0 31375100000.0 51772600000.0 67745900000.0 66864100000.0 40016700000.0 60293900000.0 75689600000.0 81027500000.0 84350000000.0 141772000000.0 124092000000.0 110553000000.0 87835800000.0 74732600000.0 47061600000.0 31829400000.0 29357800000.0 9035760000.0 52464900000.0 9035760000.0 53386700000.0 9035760000.0 66174300000.0 9035760000.0 68306100000.0 9035760000.0 71931000000.0 9035760000.0 63811300000.0 9035760000.0 34991700000.0 9035750000.0 29256800000.0 9035750000.0 29060400000.0 9035750000.0 29256800000.0 9035750000.0 34991700000.0 9035760000.0 63811300000.0 9035760000.0 71931000000.0 9035760000.0 68306100000.0 9035760000.0 66174300000.0 9035760000.0 53386700000.0 9035760000.0 52464900000.0 9035760000.0 29357800000.0 31829400000.0 47061600000.0 74732600000.0 87835800000.0 110553000000.0 124092000000.0 141772000000.0 84350000000.0 81027500000.0 75689600000.0 60293900000.0 40016700000.0 66864100000.0 67745900000.0 51772600000.0 31375100000.0 14784000000.0 23125200000.0 25289600000.0 26975800000.0 24364500000.0 15677800000.0 28637600000.0 47732400000.0 66283500000.0 67512300000.0 42243500000.0 57776400000.0 69576400000.0 79526700000.0 83811200000.0 129122000000.0 112482000000.0 99685000000.0 78784100000.0 64583800000.0 41770900000.0 28245900000.0 28598500000.0 9035770000.0 49527500000.0 9035770000.0 49162100000.0 9035760000.0 61332200000.0 9035760000.0 63144300000.0 9035760000.0 65139900000.0 9035760000.0 56053600000.0 9035760000.0 29697800000.0 9035750000.0 25429500000.0 9035750000.0 25386900000.0 9035750000.0 25429500000.0 9035750000.0 29697800000.0 9035760000.0 56053600000.0 9035760000.0 65139900000.0 9035760000.0 63144300000.0 9035760000.0 61332200000.0 9035760000.0 49162100000.0 9035770000.0 49527500000.0 9035770000.0 28598500000.0 28245900000.0 41770900000.0 64583800000.0 78784100000.0 99685000000.0 112482000000.0 129122000000.0 83811200000.0 79526700000.0 69576400000.0 57776400000.0 42243500000.0 67512300000.0 66283500000.0 47732400000.0 28637600000.0 15677800000.0 24364500000.0 26975800000.0 28332600000.0 25271000000.0 16472200000.0 26977400000.0 43942600000.0 63847800000.0 66938000000.0 43761600000.0 55011800000.0 65060300000.0 77954700000.0 82104500000.0 116889000000.0 101284000000.0 89193900000.0 70306000000.0 55524000000.0 37671200000.0 24562800000.0 28047800000.0 9035770000.0 46582700000.0 9035770000.0 45526700000.0 9035760000.0 56941100000.0 9035760000.0 58291300000.0 9035760000.0 58958500000.0 9035760000.0 48952400000.0 9035760000.0 25385200000.0 9035750000.0 22275200000.0 9035750000.0 22347800000.0 9035750000.0 22275200000.0 9035750000.0 25385200000.0 9035760000.0 48952400000.0 9035760000.0 58958500000.0 9035760000.0 58291300000.0 9035760000.0 56941100000.0 9035760000.0 45526700000.0 9035770000.0 46582700000.0 9035770000.0 28047800000.0 24562800000.0 37671200000.0 55524000000.0 70306000000.0 89193900000.0 101284000000.0 116889000000.0 82104500000.0 77954700000.0 65060300000.0 55011800000.0 43761600000.0 66938000000.0 63847800000.0 43942600000.0 26977400000.0 16472200000.0 25271000000.0 28332600000.0 29363900000.0 25867000000.0 17169600000.0 26106500000.0 40468800000.0 60713500000.0 65477800000.0 44678600000.0 52231600000.0 62006000000.0 76325000000.0 79555500000.0 105413000000.0 90868200000.0 79410500000.0 62594400000.0 47752600000.0 34284100000.0 21113000000.0 27589900000.0 9035780000.0 43703800000.0 9035770000.0 42413100000.0 9035770000.0 52923300000.0 9035760000.0 53735700000.0 9035760000.0 53319700000.0 9035760000.0 42556700000.0 9035760000.0 21892200000.0 9035760000.0 19685800000.0 9035750000.0 19842000000.0 9035750000.0 19685800000.0 9035760000.0 21892200000.0 9035760000.0 42556700000.0 9035760000.0 53319700000.0 9035760000.0 53735700000.0 9035760000.0 52923300000.0 9035770000.0 42413100000.0 9035770000.0 43703800000.0 9035780000.0 27589900000.0 21113000000.0 34284100000.0 47752600000.0 62594400000.0 79410500000.0 90868200000.0 105413000000.0 79555500000.0 76325000000.0 62006000000.0 52231600000.0 44678600000.0 65477800000.0 60713500000.0 40468800000.0 26106500000.0 17169600000.0 25867000000.0 29363900000.0 30080700000.0 26182900000.0 17772800000.0 25761400000.0 37324000000.0 57145000000.0 63402000000.0 45104800000.0 49595500000.0 60120500000.0 74617100000.0 76413100000.0 94881600000.0 81397800000.0 70502800000.0 55732500000.0 41250900000.0 31289000000.0 18100000000.0 27142600000.0 9035780000.0 40946600000.0 9035770000.0 39727400000.0 9035770000.0 49224900000.0 9035760000.0 49470200000.0 9035760000.0 48166500000.0 9035760000.0 36887000000.0 9035770000.0 19080300000.0 9035760000.0 17568600000.0 9035750000.0 17782500000.0 9035750000.0 17568600000.0 9035760000.0 19080300000.0 9035770000.0 36887000000.0 9035760000.0 48166500000.0 9035760000.0 49470200000.0 9035760000.0 49224900000.0 9035770000.0 39727400000.0 9035770000.0 40946600000.0 9035780000.0 27142600000.0 18100000000.0 31289000000.0 41250900000.0 55732500000.0 70502800000.0 81397800000.0 94881600000.0 76413100000.0 74617100000.0 60120500000.0 49595500000.0 45104800000.0 63402000000.0 57145000000.0 37324000000.0 25761400000.0 17772800000.0 26182900000.0 30080700000.0 30500600000.0 26254700000.0 18283000000.0 25724800000.0 34495700000.0 53371300000.0 60928300000.0 45134800000.0 47206900000.0 59012400000.0 72778800000.0 72889600000.0 85375100000.0 72927700000.0 62538200000.0 49723900000.0 35879600000.0 28581200000.0 15610000000.0 26654300000.0 9035790000.0 38347600000.0 9035770000.0 37377400000.0 9035770000.0 45803100000.0 9035760000.0 45490100000.0 9035760000.0 43454700000.0 9035760000.0 31936100000.0 9035770000.0 16831000000.0 9035760000.0 15844400000.0 9035750000.0 16095500000.0 9035750000.0 15844400000.0 9035760000.0 16831000000.0 9035770000.0 31936100000.0 9035760000.0 43454700000.0 9035760000.0 45490100000.0 9035760000.0 45803100000.0 9035770000.0 37377400000.0 9035770000.0 38347600000.0 9035790000.0 26654300000.0 15610000000.0 28581200000.0 35879600000.0 49723900000.0 62538200000.0 72927700000.0 85375100000.0 72889600000.0 72778800000.0 59012400000.0 47206900000.0 45134800000.0 60928300000.0 53371300000.0 34495700000.0 25724800000.0 18283000000.0 26254700000.0 30500600000.0 30646400000.0 26120900000.0 18701300000.0 25820200000.0 31963900000.0 49572100000.0 58227200000.0 44850300000.0 45111300000.0 58323900000.0 70759700000.0 69155600000.0 76894400000.0 65442100000.0 55514800000.0 44517900000.0 31457200000.0 26167300000.0 13647100000.0 26093700000.0 9035790000.0 35925800000.0 9035780000.0 35284000000.0 9035770000.0 42623700000.0 9035760000.0 41790700000.0 9035770000.0 39152800000.0 9035760000.0 27673800000.0 9035770000.0 15043800000.0 9035760000.0 14445900000.0 9035750000.0 14718000000.0 9035750000.0 14445900000.0 9035760000.0 15043800000.0 9035770000.0 27673800000.0 9035760000.0 39152800000.0 9035770000.0 41790700000.0 9035760000.0 42623700000.0 9035770000.0 35284000000.0 9035780000.0 35925800000.0 9035790000.0 26093700000.0 13647100000.0 26167300000.0 31457200000.0 44517900000.0 55514800000.0 65442100000.0 76894400000.0 69155600000.0 70759700000.0 58323900000.0 45111300000.0 44850300000.0 58227200000.0 49572100000.0 31963900000.0 25820200000.0 18701300000.0 26120900000.0 30646400000.0 30545300000.0 25820400000.0 19028500000.0 25911500000.0 29707500000.0 45877100000.0 55425700000.0 44320300000.0 43305500000.0 57773100000.0 68531900000.0 65334600000.0 69384100000.0 58880900000.0 49385900000.0 40035900000.0 27803300000.0 24067700000.0 12164500000.0 25448400000.0 9035790000.0 33686500000.0 9035780000.0 33384400000.0 9035770000.0 39659700000.0 9035760000.0 38365900000.0 9035770000.0 35239000000.0 9035760000.0 24053600000.0 9035770000.0 13633500000.0 9035760000.0 13316300000.0 9035750000.0 13597000000.0 9035750000.0 13316300000.0 9035760000.0 13633500000.0 9035770000.0 24053600000.0 9035760000.0 35239000000.0 9035770000.0 38365900000.0 9035760000.0 39659700000.0 9035770000.0 33384400000.0 9035780000.0 33686500000.0 9035790000.0 25448400000.0 12164500000.0 24067700000.0 27803300000.0 40035900000.0 49385900000.0 58880900000.0 69384100000.0 65334600000.0 68531900000.0 57773100000.0 43305500000.0 44320300000.0 55425700000.0 45877200000.0 29707500000.0 25911500000.0 19028500000.0 25820400000.0 30545300000.0 30226500000.0 25389600000.0 19265800000.0 25913500000.0 27703400000.0 42373500000.0 52612500000.0 43598300000.0 41756300000.0 57142100000.0 66087400000.0 61512800000.0 62754900000.0 53157300000.0 44076500000.0 36189000000.0 24761200000.0 22281100000.0 11088800000.0 24723600000.0 9035790000.0 31625700000.0 9035780000.0 31631800000.0 9035770000.0 36891400000.0 9035760000.0 35207200000.0 9035770000.0 31696500000.0 9035760000.0 21017900000.0 9035770000.0 12528700000.0 9035760000.0 12407900000.0 9035750000.0 12687500000.0 9035750000.0 12407900000.0 9035760000.0 12528700000.0 9035770000.0 21017900000.0 9035760000.0 31696500000.0 9035770000.0 35207200000.0 9035760000.0 36891400000.0 9035770000.0 31631800000.0 9035780000.0 31625700000.0 9035790000.0 24723600000.0 11088800000.0 22281100000.0 24761200000.0 36189000000.0 44076500000.0 53157300000.0 62754900000.0 61512800000.0 66087400000.0 57142100000.0 41756300000.0 43598300000.0 52612500000.0 42373500000.0 27703400000.0 25913500000.0 19265800000.0 25389600000.0 30226500000.0 29720900000.0 24861000000.0 19414500000.0 25787900000.0 25927000000.0 39113000000.0 49844900000.0 42722100000.0 40413200000.0 56284800000.0 63433600000.0 57750900000.0 56902700000.0 48171900000.0 39495300000.0 32886900000.0 22207700000.0 20783400000.0 10337700000.0 23935800000.0 9035790000.0 29733000000.0 9035780000.0 29992300000.0 9035770000.0 34304900000.0 9035760000.0 32304400000.0 9035770000.0 28509100000.0 9035760000.0 18503600000.0 9035770000.0 11669500000.0 9035760000.0 11680500000.0 9035750000.0 11952200000.0 9035750000.0 11680500000.0 9035760000.0 11669500000.0 9035770000.0 18503600000.0 9035760000.0 28509100000.0 9035770000.0 32304400000.0 9035760000.0 34304900000.0 9035770000.0 29992300000.0 9035780000.0 29733000000.0 9035790000.0 23935800000.0 10337700000.0 20783400000.0 22207700000.0 32886900000.0 39495300000.0 48171900000.0 56902700000.0 57750900000.0 63433600000.0 56284800000.0 40413200000.0 42722100000.0 49844900000.0 39113000000.0 25927000000.0 25787900000.0 19414500000.0 24861000000.0 29720900000.0 29058700000.0 24262200000.0 19476900000.0 25527300000.0 24352200000.0 36120300000.0 47155800000.0 41716000000.0 39217100000.0 55133800000.0 60592400000.0 54091500000.0 51723700000.0 43823000000.0 35546000000.0 30045000000.0 20050500000.0 19537500000.0 9832630000.0 23105200000.0 9035790000.0 27994100000.0 9035780000.0 28442700000.0 9035770000.0 31890500000.0 9035770000.0 29646500000.0 9035770000.0 25660300000.0 9035760000.0 16446000000.0 9035770000.0 11006400000.0 9035760000.0 11100800000.0 9035750000.0 11359500000.0 9035750000.0 11100800000.0 9035760000.0 11006400000.0 9035770000.0 16446000000.0 9035760000.0 25660300000.0 9035770000.0 29646500000.0 9035770000.0 31890500000.0 9035770000.0 28442700000.0 9035780000.0 27994100000.0 9035790000.0 23105200000.0 9832630000.0 19537500000.0 20050500000.0 30045000000.0 35546000000.0 43823000000.0 51723700000.0 54091500000.0 60592400000.0 55133800000.0 39217100000.0 41716000000.0 47155800000.0 36120300000.0 24352200000.0 25527300000.0 19476900000.0 24262200000.0 29058700000.0 32135800000.0 27587600000.0 18221500000.0 18501200000.0 9505410000.0 22250400000.0 9035800000.0 26393300000.0 9035780000.0 26967800000.0 9035770000.0 29640800000.0 9035770000.0 27221900000.0 9035770000.0 23131900000.0 9035760000.0 14781500000.0 9035760000.0 10498600000.0 9035760000.0 10640900000.0 9035750000.0 10883200000.0 9035750000.0 10640900000.0 9035760000.0 10498600000.0 9035760000.0 14781500000.0 9035760000.0 23131900000.0 9035770000.0 27221900000.0 9035770000.0 29640800000.0 9035770000.0 26967800000.0 9035780000.0 26393300000.0 9035800000.0 22250400000.0 9505410000.0 18501200000.0 18221500000.0 27587600000.0 32135800000.0 28269100000.0 23614800000.0 19455500000.0 25139200000.0 22952700000.0 33400300000.0 44560600000.0 40595300000.0 38107400000.0 53683500000.0 57598800000.0 50562800000.0 47122500000.0 40014900000.0 40014900000.0 47122500000.0 50562800000.0 57598800000.0 53683500000.0 38107400000.0 40595300000.0 44560600000.0 33400300000.0 22952700000.0 25139200000.0 19455500000.0 23614800000.0 28269100000.0 27379000000.0 22935300000.0 19353300000.0 24636600000.0 21703600000.0 30943800000.0 42063300000.0 39369500000.0 37028700000.0 51962500000.0 54495500000.0 47182500000.0 43016400000.0 36662300000.0 29181100000.0 25449700000.0 16669800000.0 17632800000.0 9301480000.0 21386400000.0 9035800000.0 24914400000.0 9035780000.0 25558000000.0 9035770000.0 27550100000.0 9035770000.0 25018400000.0 9035770000.0 20904400000.0 9035760000.0 13450100000.0 9035760000.0 10112800000.0 9035760000.0 10277700000.0 9035750000.0 10501700000.0 9035750000.0 10277700000.0 9035760000.0 10112800000.0 9035760000.0 13450100000.0 9035760000.0 20904400000.0 9035770000.0 25018400000.0 9035770000.0 27550100000.0 9035770000.0 25558000000.0 9035780000.0 24914400000.0 9035800000.0 21386400000.0 9301480000.0 17632800000.0 16669800000.0 25449700000.0 29181100000.0 36662300000.0 43016400000.0 47182500000.0 54495500000.0 51962500000.0 37028700000.0 39369500000.0 42063300000.0 30943800000.0 21703600000.0 24636600000.0 19353300000.0 22935300000.0 27379000000.0 26412500000.0 22235000000.0 19173800000.0 24034100000.0 20581600000.0 28732800000.0 39661500000.0 38046200000.0 35935700000.0 50012200000.0 51328400000.0 43960300000.0 39335400000.0 33691700000.0 26610000000.0 23577700000.0 15357000000.0 16894300000.0 9179500000.0 20524400000.0 9035800000.0 23542100000.0 9035780000.0 24208100000.0 9035770000.0 25612700000.0 9035770000.0 23023500000.0 9035770000.0 18957300000.0 9035760000.0 12396600000.0 9035760000.0 9822130000.0 9035760000.0 9992380000.0 9035750000.0 10196800000.0 9035750000.0 9992380000.0 9035760000.0 9822130000.0 9035760000.0 12396600000.0 9035760000.0 18957300000.0 9035770000.0 23023500000.0 9035770000.0 25612700000.0 9035770000.0 24208100000.0 9035780000.0 23542100000.0 9035800000.0 20524400000.0 9179500000.0 16894300000.0 15357000000.0 23577700000.0 26610000000.0 33691700000.0 39335400000.0 43960300000.0 51328400000.0 50012200000.0 35935700000.0 38046200000.0 39661500000.0 28732800000.0 20581600000.0 24034100000.0 19173800000.0 22235000000.0 26412500000.0 25390600000.0 21520800000.0 18921000000.0 23346400000.0 19565700000.0 26743700000.0 37349000000.0 36632500000.0 34794800000.0 47875500000.0 48142100000.0 40899600000.0 36021300000.0 31042100000.0 24362900000.0 21928100000.0 14252300000.0 16252900000.0 9109740000.0 19672800000.0 9035800000.0 22262900000.0 9035780000.0 22915300000.0 9035770000.0 23823100000.0 9035760000.0 21224400000.0 9035770000.0 17268900000.0 9035760000.0 11571800000.0 9035760000.0 9604900000.0 9035760000.0 9769220000.0 9035750000.0 9953890000.0 9035750000.0 9769220000.0 9035760000.0 9604900000.0 9035760000.0 11571800000.0 9035760000.0 17268900000.0 9035770000.0 21224400000.0 9035760000.0 23823100000.0 9035770000.0 22915300000.0 9035780000.0 22262900000.0 9035800000.0 19672800000.0 9109740000.0 16252900000.0 14252300000.0 21928100000.0 24362900000.0 31042100000.0 36021300000.0 40899600000.0 48142100000.0 47875500000.0 34794800000.0 36632500000.0 37349000000.0 26743700000.0 19565700000.0 23346400000.0 18921000000.0 21520800000.0 25390600000.0 24330900000.0 20796300000.0 18599000000.0 22587400000.0 18637300000.0 24950800000.0 35119100000.0 35136000000.0 33584100000.0 45591900000.0 44976800000.0 37999800000.0 33026400000.0 28663100000.0 22390900000.0 20466500000.0 13329400000.0 15681800000.0 9071760000.0 18837400000.0 9035790000.0 21065100000.0 9035780000.0 21678300000.0 9035770000.0 22175100000.0 9035760000.0 19608200000.0 9035770000.0 15816900000.0 9035760000.0 10932700000.0 9035760000.0 9443990000.0 9035750000.0 9595550000.0 9035750000.0 9760740000.0 9035750000.0 9595550000.0 9035750000.0 9443990000.0 9035760000.0 10932700000.0 9035760000.0 15816900000.0 9035770000.0 19608200000.0 9035760000.0 22175100000.0 9035770000.0 21678300000.0 9035780000.0 21065100000.0 9035790000.0 18837400000.0 9071760000.0 15681800000.0 13329400000.0 20466500000.0 22390900000.0 28663100000.0 33026400000.0 37999800000.0 44976800000.0 45591900000.0 33584100000.0 35136000000.0 35119100000.0 24950800000.0 18637300000.0 22587400000.0 18599000000.0 20796300000.0 24330900000.0 23248000000.0 20062700000.0 18212200000.0 21770100000.0 17780400000.0 23327900000.0 32964900000.0 33564900000.0 32291400000.0 43196700000.0 41866000000.0 35257200000.0 30311400000.0 26514100000.0 20654100000.0 19165100000.0 12563900000.0 15159600000.0 9052220000.0 18022100000.0 9035790000.0 19939200000.0 9035780000.0 20496800000.0 9035770000.0 20661900000.0 9035760000.0 18162100000.0 9035760000.0 14578900000.0 9035760000.0 10442300000.0 9035760000.0 9325860000.0 9035750000.0 9461040000.0 9035750000.0 9607460000.0 9035750000.0 9461040000.0 9035750000.0 9325860000.0 9035760000.0 10442300000.0 9035760000.0 14578900000.0 9035760000.0 18162100000.0 9035760000.0 20661900000.0 9035770000.0 20496800000.0 9035780000.0 19939200000.0 9035790000.0 18022100000.0 9052220000.0 15159600000.0 12563900000.0 19165100000.0 20654100000.0 26514100000.0 30311400000.0 35257200000.0 41866000000.0 43196700000.0 32291400000.0 33564900000.0 32964900000.0 23327900000.0 17780400000.0 21770100000.0 18212200000.0 20062700000.0 23248000000.0 22153100000.0 19319700000.0 17765300000.0 20906400000.0 16981500000.0 21850200000.0 30880500000.0 31928100000.0 30912600000.0 40720200000.0 38835300000.0 32665900000.0 27844000000.0 24562000000.0 19119600000.0 18000800000.0 11932600000.0 14670000000.0 9042790000.0 17229300000.0 9035790000.0 18877400000.0 9035780000.0 19370500000.0 9035770000.0 19275900000.0 9035760000.0 16873000000.0 9035760000.0 13532200000.0 9035760000.0 10069600000.0 9035760000.0 9239940000.0 9035750000.0 9357360000.0 9035750000.0 9486020000.0 9035750000.0 9357360000.0 9035750000.0 9239940000.0 9035760000.0 10069600000.0 9035760000.0 13532200000.0 9035760000.0 16873000000.0 9035760000.0 19275900000.0 9035770000.0 19370500000.0 9035780000.0 18877400000.0 9035790000.0 17229300000.0 9042790000.0 14670000000.0 11932600000.0 18000800000.0 19119600000.0 24562000000.0 27844000000.0 32665900000.0 38835300000.0 40720200000.0 30912600000.0 31928100000.0 30880500000.0 21850200000.0 16981500000.0 20906400000.0 17765300000.0 19319700000.0 22153100000.0 21054800000.0 18566200000.0 17262800000.0 20006900000.0 16229200000.0 20494700000.0 28861000000.0 30234700000.0 29449000000.0 38187800000.0 35902500000.0 30218500000.0 25596500000.0 22779900000.0 17760300000.0 16953800000.0 11414200000.0 14201100000.0 9038550000.0 16460200000.0 9035790000.0 17873700000.0 9035780000.0 18298900000.0 9035770000.0 18009100000.0 9035760000.0 15728400000.0 9035760000.0 12654900000.0 9035760000.0 9789130000.0 9035760000.0 9178040000.0 9035750000.0 9277810000.0 9035750000.0 9389900000.0 9035750000.0 9277810000.0 9035750000.0 9178040000.0 9035760000.0 9789130000.0 9035760000.0 12654900000.0 9035760000.0 15728400000.0 9035760000.0 18009100000.0 9035770000.0 18298900000.0 9035780000.0 17873700000.0 9035790000.0 16460200000.0 9038550000.0 14201100000.0 11414200000.0 16953800000.0 17760300000.0 22779900000.0 25596500000.0 30218500000.0 35902500000.0 38187800000.0 29449000000.0 30234700000.0 28861000000.0 20494700000.0 16229200000.0 20006900000.0 17262800000.0 18566200000.0 21054800000.0 19959400000.0 17800900000.0 16709600000.0 19080800000.0 15514300000.0 19241100000.0 26902200000.0 28493700000.0 27906000000.0 35620600000.0 33078100000.0 27906100000.0 23544600000.0 21145500000.0 16553200000.0 16006700000.0 10988800000.0 13744300000.0 9036800000.0 15715300000.0 9035790000.0 16922500000.0 9035780000.0 17280900000.0 9035770000.0 16853000000.0 9035760000.0 14715500000.0 9035760000.0 11925700000.0 9035760000.0 9579980000.0 9035760000.0 9133890000.0 9035750000.0 9217060000.0 9035750000.0 9313880000.0 9035750000.0 9217060000.0 9035750000.0 9133890000.0 9035760000.0 9579980000.0 9035760000.0 11925700000.0 9035760000.0 14715500000.0 9035760000.0 16853000000.0 9035770000.0 17280900000.0 9035780000.0 16922500000.0 9035790000.0 15715300000.0 9036800000.0 13744300000.0 10988800000.0 16006700000.0 16553200000.0 21145500000.0 23544600000.0 27906100000.0 33078100000.0 35620600000.0 27906000000.0 28493700000.0 26902200000.0 19241100000.0 15514300000.0 19080800000.0 16709600000.0 17800900000.0 19959400000.0 18871100000.0 17022300000.0 16110400000.0 18136000000.0 14829200000.0 18071500000.0 25000400000.0 26713600000.0 26291300000.0 33035600000.0 30366600000.0 25718800000.0 21666500000.0 19639300000.0 15478400000.0 15143700000.0 10639300000.0 13294000000.0 9036130000.0 14994200000.0 9035790000.0 16019400000.0 9035770000.0 16314800000.0 9035770000.0 15798300000.0 9035760000.0 13822000000.0 9035760000.0 11324500000.0 9035760000.0 9425440000.0 9035760000.0 9102720000.0 9035750000.0 9170870000.0 9035750000.0 9253730000.0 9035750000.0 9170870000.0 9035750000.0 9102720000.0 9035760000.0 9425440000.0 9035760000.0 11324500000.0 9035760000.0 13822000000.0 9035760000.0 15798300000.0 9035770000.0 16314800000.0 9035770000.0 16019400000.0 9035790000.0 14994200000.0 9036130000.0 13294000000.0 10639300000.0 15143700000.0 15478400000.0 19639300000.0 21666500000.0 25718800000.0 30366600000.0 33035600000.0 26291300000.0 26713600000.0 25000400000.0 18071500000.0 14829200000.0 18136000000.0 16110400000.0 17022300000.0 18871100000.0 17792300000.0 16229600000.0 15469900000.0 17178900000.0 14168000000.0 16970600000.0 23152200000.0 24902100000.0 24613700000.0 30446000000.0 27767300000.0 23645900000.0 19941900000.0 18244600000.0 14518200000.0 14350400000.0 10350500000.0 12846500000.0 9035900000.0 14296000000.0 9035780000.0 15159900000.0 9035770000.0 15398300000.0 9035770000.0 14836000000.0 9035760000.0 13035500000.0 9035760000.0 10832500000.0 9035760000.0 9312290000.0 9035760000.0 9080950000.0 9035750000.0 9135890000.0 9035750000.0 9206110000.0 9035750000.0 9135890000.0 9035750000.0 9080950000.0 9035760000.0 9312290000.0 9035760000.0 10832500000.0 9035760000.0 13035500000.0 9035760000.0 14836000000.0 9035770000.0 15398300000.0 9035770000.0 15159900000.0 9035780000.0 14296000000.0 9035900000.0 12846500000.0 10350500000.0 14350400000.0 14518200000.0 18244600000.0 19941900000.0 23645900000.0 27767300000.0 30446000000.0 24613700000.0 24902100000.0 23152200000.0 16970600000.0 14168000000.0 17178900000.0 15469900000.0 16229600000.0 17792300000.0 16724300000.0 15422300000.0 14792800000.0 16214700000.0 13525600000.0 15925500000.0 21353900000.0 23065900000.0 22882300000.0 27861400000.0 25275500000.0 21676000000.0 18351600000.0 16946000000.0 13656800000.0 13614100000.0 10109700000.0 12399500000.0 9035820000.0 13619300000.0 9035780000.0 14340000000.0 9035770000.0 14528000000.0 9035760000.0 13956300000.0 9035760000.0 12344100000.0 9035760000.0 10432600000.0 9035760000.0 9230150000.0 9035760000.0 9065900000.0 9035750000.0 9109510000.0 9035750000.0 9168290000.0 9035750000.0 9109510000.0 9035750000.0 9065900000.0 9035760000.0 9230150000.0 9035760000.0 10432600000.0 9035760000.0 12344100000.0 9035760000.0 13956300000.0 9035760000.0 14528000000.0 9035770000.0 14340000000.0 9035780000.0 13619300000.0 9035820000.0 12399500000.0 10109700000.0 13614100000.0 13656800000.0 16946000000.0 18351600000.0 21676000000.0 25275500000.0 27861400000.0 22882300000.0 23065900000.0 21353900000.0 15925500000.0 13525600000.0 16214700000.0 14792800000.0 15422300000.0 16724300000.0 15667300000.0 14600500000.0 14083700000.0 15247400000.0 12898300000.0 14925100000.0 19601500000.0 21211100000.0 21105600000.0 25288400000.0 22883600000.0 19797300000.0 16877500000.0 15729500000.0 12879300000.0 12923700000.0 9906340000.0 11951800000.0 9035800000.0 12962300000.0 9035780000.0 13555400000.0 9035770000.0 13700300000.0 9035760000.0 13149700000.0 9035760000.0 11735800000.0 9035760000.0 10109100000.0 9035760000.0 9171010000.0 9035760000.0 9055620000.0 9035750000.0 9089650000.0 9035750000.0 9138150000.0 9035750000.0 9089650000.0 9035750000.0 9055620000.0 9035760000.0 9171010000.0 9035760000.0 10109100000.0 9035760000.0 11735800000.0 9035760000.0 13149700000.0 9035760000.0 13700300000.0 9035770000.0 13555400000.0 9035780000.0 12962300000.0 9035800000.0 11951800000.0 9906340000.0 12923700000.0 12879300000.0 15729500000.0 16877500000.0 19797300000.0 22883600000.0 25288400000.0 21105600000.0 21211100000.0 19601500000.0 14925100000.0 12898300000.0 15247400000.0 14083700000.0 14600500000.0 15667300000.0 14620600000.0 13764800000.0 13347100000.0 14279600000.0 12282700000.0 13960400000.0 17890500000.0 19342200000.0 19292000000.0 22731000000.0 20581300000.0 17997600000.0 15502200000.0 14582000000.0 12172200000.0 12269600000.0 9731810000.0 11502800000.0 9035790000.0 12323000000.0 9035770000.0 12801800000.0 9035770000.0 12910700000.0 9035760000.0 12406300000.0 9035760000.0 11199000000.0 9035760000.0 9848060000.0 9035760000.0 9128710000.0 9035760000.0 9048660000.0 9035750000.0 9074710000.0 9035750000.0 9113930000.0 9035750000.0 9074710000.0 9035750000.0 9048660000.0 9035760000.0 9128710000.0 9035760000.0 9848060000.0 9035760000.0 11199000000.0 9035760000.0 12406300000.0 9035760000.0 12910700000.0 9035770000.0 12801800000.0 9035770000.0 12323000000.0 9035790000.0 11502800000.0 9731810000.0 12269600000.0 12172200000.0 14582000000.0 15502200000.0 17997600000.0 20581300000.0 22731000000.0 19292000000.0 19342200000.0 17890500000.0 13960400000.0 12282700000.0 14279600000.0 13347100000.0 13764800000.0 14620600000.0 13583300000.0 12916500000.0 12587400000.0 13313300000.0 11676300000.0 13023600000.0 16215700000.0 17463300000.0 17448700000.0 20190500000.0 18356800000.0 16264800000.0 14208800000.0 13491300000.0 11522800000.0 11643400000.0 9579080000.0 11052600000.0 9035780000.0 11698900000.0 9035770000.0 12074800000.0 9035760000.0 12154100000.0 9035760000.0 11716400000.0 9035760000.0 10722300000.0 9035760000.0 9636950000.0 9035760000.0 9098580000.0 9035760000.0 9044000000.0 9035750000.0 9063430000.0 9035750000.0 9094250000.0 9035750000.0 9063430000.0 9035750000.0 9044000000.0 9035760000.0 9098580000.0 9035760000.0 9636950000.0 9035760000.0 10722300000.0 9035760000.0 11716400000.0 9035760000.0 12154100000.0 9035760000.0 12074800000.0 9035770000.0 11698900000.0 9035780000.0 11052600000.0 9579080000.0 11643400000.0 11522800000.0 13491300000.0 14208800000.0 16264800000.0 18356800000.0 20190500000.0 17448700000.0 17463300000.0 16215700000.0 13023600000.0 11676300000.0 13313300000.0 12587400000.0 12916500000.0 13583300000.0 12554000000.0 12057200000.0 11808900000.0 12349200000.0 11076900000.0 12108100000.0 14571500000.0 15577300000.0 15582200000.0 17666600000.0 16197100000.0 14586400000.0 12981400000.0 12446000000.0 10919200000.0 11038400000.0 9442450000.0 10601100000.0 9035770000.0 11087700000.0 9035770000.0 11369700000.0 9035760000.0 11425200000.0 9035760000.0 11070000000.0 9035760000.0 10294300000.0 9035760000.0 9464650000.0 9035760000.0 9077060000.0 9035750000.0 9040890000.0 9035750000.0 9054820000.0 9035750000.0 9077970000.0 9035750000.0 9054820000.0 9035750000.0 9040890000.0 9035750000.0 9077060000.0 9035760000.0 9464650000.0 9035760000.0 10294300000.0 9035760000.0 11070000000.0 9035760000.0 11425200000.0 9035760000.0 11369700000.0 9035770000.0 11087700000.0 9035770000.0 10601100000.0 9442450000.0 11038400000.0 10919200000.0 12446000000.0 12981400000.0 14586400000.0 16197100000.0 17666600000.0 15582200000.0 15577300000.0 14571500000.0 12108100000.0 11076900000.0 12349200000.0 11808900000.0 12057200000.0 12554000000.0 11530900000.0 11188900000.0 11016000000.0 11387700000.0 10482600000.0 11208200000.0 12951600000.0 13686400000.0 13698500000.0 15157000000.0 14088200000.0 12950100000.0 11804400000.0 11435100000.0 10350300000.0 10448700000.0 9317310000.0 10148600000.0 9035770000.0 10486500000.0 9035760000.0 10681900000.0 9035760000.0 10718000000.0 9035760000.0 10457600000.0 9035760000.0 9903840000.0 9035760000.0 9321180000.0 9035750000.0 9061450000.0 9035750000.0 9038800000.0 9035750000.0 9048100000.0 9035750000.0 9064150000.0 9035750000.0 9048100000.0 9035750000.0 9038800000.0 9035750000.0 9061450000.0 9035750000.0 9321180000.0 9035760000.0 9903840000.0 9035760000.0 10457600000.0 9035760000.0 10718000000.0 9035760000.0 10681900000.0 9035760000.0 10486500000.0 9035770000.0 10148600000.0 9317310000.0 10448700000.0 10350300000.0 11435100000.0 11804400000.0 12950100000.0 14088200000.0 15157000000.0 13698500000.0 13686400000.0 12951600000.0 11208200000.0 10482600000.0 11387700000.0 11016000000.0 11188900000.0 11530900000.0 10512400000.0 10314000000.0 10212900000.0 10428300000.0 9891670000.0 10319000000.0 11349100000.0 11792300000.0 11802800000.0 12658300000.0 12015500000.0 11343700000.0 10662800000.0 10448300000.0 9805530000.0 9869150000.0 9199800000.0 9695340000.0 9035760000.0 9892520000.0 9035760000.0 10006400000.0 9035760000.0 10026500000.0 9035760000.0 9869060000.0 9035750000.0 9540030000.0 9035750000.0 9197530000.0 9035750000.0 9049630000.0 9035750000.0 9037340000.0 9035750000.0 9042620000.0 9035750000.0 9051970000.0 9035750000.0 9042620000.0 9035750000.0 9037340000.0 9035750000.0 9049630000.0 9035750000.0 9197530000.0 9035750000.0 9540030000.0 9035750000.0 9869060000.0 9035760000.0 10026500000.0 9035760000.0 10006400000.0 9035760000.0 9892520000.0 9035760000.0 9695340000.0 9199800000.0 9869150000.0 9805530000.0 10448300000.0 10662800000.0 11343700000.0 12015500000.0 12658300000.0 11802800000.0 11792300000.0 11349100000.0 10319000000.0 9891670000.0 10428300000.0 10212900000.0 10314000000.0 10512400000.0 9496460000.0 9435040000.0 9403650000.0 9470330000.0 9302760000.0 9435820000.0 9757070000.0 9896350000.0 9900040000.0 10166000000.0 9964220000.0 9754810000.0 9542020000.0 9475570000.0 9274930000.0 9295430000.0 9086620000.0 9241670000.0 9035760000.0 9302850000.0 9035750000.0 9338150000.0 9035750000.0 9344280000.0 9035750000.0 9294760000.0 9035750000.0 9191940000.0 9035750000.0 9085350000.0 9035750000.0 9039920000.0 9035750000.0 9036220000.0 9035750000.0 9037840000.0 9035750000.0 9040740000.0 9035750000.0 9037840000.0 9035750000.0 9036220000.0 9035750000.0 9039920000.0 9035750000.0 9085350000.0 9035750000.0 9191940000.0 9035750000.0 9294760000.0 9035750000.0 9344280000.0 9035750000.0 9338150000.0 9035750000.0 9302850000.0 9035760000.0 9241670000.0 9086620000.0 9295430000.0 9274930000.0 9475570000.0 9542020000.0 9754810000.0 9964220000.0 10166000000.0 9900040000.0 9896350000.0 9757070000.0 9435820000.0 9302760000.0 9470330000.0 9403650000.0 9435040000.0 9496460000.0 