# vtk DataFile Version 2.0
Time step 48
ASCII
DATASET UNSTRUCTURED_GRID
POINTS 4650 float
161449.0 401423.0 0
165522.0 398888.0 0
168931.0 400650.0 0
171249.0 397428.0 0
177529.0 397907.0 0
322471.0 397907.0 0
328751.0 397428.0 0
331069.0 400650.0 0
334478.0 398888.0 0
338551.0 401423.0 0
158039.0 403548.0 0
164987.0 402654.0 0
174225.0 400086.0 0
180497.0 400569.0 0
183952.0 398648.0 0
186883.0 401335.0 0
190599.0 399893.0 0
194455.0 400902.0 0
198428.0 400605.0 0
202404.0 400785.0 0
206381.0 400767.0 0
210354.0 400769.0 0
214325.0 400768.0 0
218293.0 400768.0 0
222260.0 400767.0 0
226225.0 400766.0 0
230189.0 400766.0 0
234152.0 400766.0 0
238115.0 400766.0 0
242077.0 400765.0 0
246039.0 400765.0 0
250000.0 400765.0 0
253961.0 400765.0 0
257923.0 400765.0 0
261885.0 400766.0 0
265848.0 400766.0 0
269811.0 400766.0 0
273775.0 400766.0 0
277740.0 400767.0 0
281707.0 400768.0 0
285675.0 400768.0 0
289646.0 400769.0 0
293619.0 400767.0 0
297596.0 400785.0 0
301572.0 400605.0 0
305545.0 400902.0 0
309401.0 399893.0 0
313117.0 401335.0 0
316048.0 398648.0 0
319503.0 400569.0 0
325775.0 400086.0 0
335013.0 402654.0 0
341961.0 403548.0 0
154651.0 405665.0 0
161340.0 405115.0 0
168268.0 404569.0 0
171874.0 403211.0 0
177223.0 402718.0 0
183164.0 403524.0 0
190440.0 403876.0 0
309560.0 403876.0 0
316836.0 403524.0 0
322777.0 402718.0 0
328126.0 403211.0 0
331732.0 404569.0 0
338660.0 405115.0 0
345349.0 405665.0 0
151278.0 407774.0 0
154578.0 409341.0 0
157938.0 407218.0 0
164763.0 406481.0 0
174798.0 405735.0 0
179840.0 405748.0 0
186737.0 405311.0 0
194285.0 404902.0 0
198253.0 404589.0 0
202231.0 404781.0 0
206213.0 404762.0 0
210195.0 404771.0 0
214176.0 404770.0 0
218157.0 404769.0 0
222138.0 404768.0 0
226119.0 404767.0 0
230100.0 404767.0 0
234080.0 404766.0 0
238060.0 404765.0 0
242040.0 404765.0 0
246020.0 404765.0 0
250000.0 404765.0 0
253980.0 404765.0 0
257960.0 404765.0 0
261940.0 404765.0 0
265920.0 404766.0 0
269900.0 404767.0 0
273881.0 404767.0 0
277862.0 404768.0 0
281843.0 404769.0 0
285824.0 404770.0 0
289805.0 404771.0 0
293787.0 404762.0 0
297769.0 404781.0 0
301747.0 404589.0 0
305715.0 404902.0 0
313263.0 405311.0 0
320160.0 405748.0 0
325202.0 405735.0 0
335237.0 406481.0 0
342062.0 407218.0 0
345422.0 409341.0 0
348722.0 407774.0 0
144549.0 411981.0 0
147912.0 409878.0 0
151222.0 411451.0 0
157879.0 410939.0 0
161211.0 408807.0 0
164502.0 410338.0 0
167956.0 408393.0 0
171691.0 408006.0 0
177214.0 408746.0 0
180747.0 410376.0 0
183435.0 407496.0 0
187003.0 409288.0 0
190694.0 407846.0 0
194482.0 409034.0 0
198425.0 408560.0 0
202388.0 408797.0 0
206356.0 408756.0 0
210324.0 408771.0 0
214291.0 408770.0 0
218258.0 408769.0 0
222225.0 408768.0 0
226192.0 408767.0 0
230159.0 408766.0 0
234127.0 408766.0 0
238095.0 408765.0 0
242063.0 408766.0 0
246032.0 408765.0 0
250000.0 408765.0 0
253968.0 408765.0 0
257937.0 408766.0 0
261905.0 408765.0 0
265873.0 408766.0 0
269841.0 408766.0 0
273808.0 408767.0 0
277775.0 408768.0 0
281742.0 408769.0 0
285709.0 408770.0 0
289676.0 408771.0 0
293644.0 408756.0 0
297612.0 408797.0 0
301575.0 408560.0 0
305518.0 409034.0 0
309306.0 407846.0 0
312997.0 409288.0 0
316565.0 407496.0 0
319253.0 410376.0 0
322786.0 408746.0 0
328309.0 408006.0 0
332044.0 408393.0 0
335498.0 410338.0 0
338789.0 408807.0 0
342121.0 410939.0 0
348778.0 411451.0 0
352088.0 409878.0 0
355451.0 411981.0 0
141190.0 414081.0 0
147865.0 413558.0 0
154541.0 413054.0 0
157873.0 414688.0 0
161195.0 412556.0 0
167733.0 412092.0 0
174041.0 411084.0 0
177561.0 412706.0 0
184245.0 412117.0 0
315755.0 412117.0 0
322439.0 412706.0 0
325959.0 411084.0 0
332267.0 412092.0 0
338805.0 412556.0 0
342127.0 414688.0 0
345459.0 413054.0 0
352135.0 413558.0 0
358810.0 414081.0 0
137832.0 416180.0 0
144509.0 415666.0 0
147844.0 417266.0 0
151195.0 415159.0 0
154541.0 416792.0 0
164483.0 414208.0 0
171055.0 413546.0 0
174451.0 415113.0 0
181036.0 414425.0 0
187688.0 414000.0 0
190976.0 411816.0 0
194672.0 413244.0 0
198571.0 412521.0 0
202523.0 412824.0 0
206483.0 412750.0 0
210441.0 412775.0 0
214398.0 412771.0 0
218354.0 412770.0 0
222309.0 412768.0 0
226264.0 412768.0 0
230219.0 412766.0 0
234175.0 412767.0 0
238131.0 412765.0 0
242087.0 412766.0 0
246043.0 412765.0 0
250000.0 412765.0 0
253957.0 412765.0 0
257913.0 412766.0 0
261869.0 412765.0 0
265825.0 412767.0 0
269781.0 412766.0 0
273736.0 412768.0 0
277691.0 412768.0 0
281646.0 412770.0 0
285602.0 412771.0 0
289559.0 412775.0 0
293517.0 412750.0 0
297477.0 412824.0 0
301429.0 412521.0 0
305328.0 413244.0 0
309024.0 411816.0 0
312312.0 414000.0 0
318964.0 414425.0 0
325549.0 415113.0 0
328945.0 413546.0 0
335517.0 414208.0 0
345459.0 416792.0 0
348805.0 415159.0 0
352156.0 417266.0 0
355491.0 415666.0 0
362168.0 416180.0 0
134474.0 418279.0 0
137802.0 419873.0 0
141155.0 417771.0 0
144492.0 419384.0 0
151199.0 418891.0 0
157900.0 418466.0 0
161206.0 416359.0 0
164564.0 418042.0 0
167840.0 415881.0 0
171225.0 417447.0 0
177864.0 416792.0 0
184470.0 416275.0 0
187937.0 418107.0 0
191183.0 415824.0 0
194800.0 417391.0 0
198644.0 416476.0 0
202580.0 416842.0 0
206531.0 416744.0 0
210484.0 416776.0 0
214439.0 416771.0 0
218394.0 416770.0 0
222348.0 416769.0 0
226300.0 416768.0 0
230251.0 416767.0 0
234201.0 416767.0 0
238151.0 416765.0 0
242101.0 416766.0 0
246051.0 416765.0 0
250000.0 416765.0 0
253949.0 416765.0 0
257899.0 416766.0 0
261849.0 416765.0 0
265799.0 416767.0 0
269749.0 416767.0 0
273700.0 416768.0 0
277652.0 416769.0 0
281606.0 416770.0 0
285561.0 416771.0 0
289516.0 416776.0 0
293469.0 416744.0 0
297420.0 416842.0 0
301356.0 416476.0 0
305200.0 417391.0 0
308817.0 415824.0 0
312063.0 418107.0 0
315530.0 416275.0 0
322136.0 416792.0 0
328775.0 417447.0 0
332160.0 415881.0 0
335436.0 418042.0 0
338794.0 416359.0 0
342100.0 418466.0 0
348801.0 418891.0 0
355508.0 419384.0 0
358845.0 417771.0 0
362198.0 419873.0 0
365526.0 418279.0 0
127752.0 422480.0 0
131115.0 420378.0 0
134446.0 421972.0 0
141144.0 421491.0 0
147848.0 420996.0 0
151235.0 422638.0 0
154575.0 420549.0 0
157973.0 422259.0 0
161276.0 420173.0 0
167952.0 419715.0 0
174609.0 419073.0 0
181270.0 418568.0 0
184701.0 420375.0 0
315299.0 420375.0 0
318730.0 418568.0 0
325391.0 419073.0 0
332048.0 419715.0 0
338724.0 420173.0 0
342027.0 422259.0 0
345425.0 420549.0 0
348765.0 422638.0 0
352152.0 420996.0 0
358856.0 421491.0 0
365554.0 421972.0 0
368885.0 420378.0 0
372248.0 422480.0 0
124386.0 424584.0 0
131084.0 424069.0 0
137793.0 423595.0 0
141158.0 425238.0 0
144501.0 423135.0 0
147884.0 424738.0 0
154652.0 424312.0 0
164665.0 421887.0 0
171337.0 421359.0 0
174716.0 423027.0 0
177995.0 420777.0 0
181403.0 422550.0 0
188157.0 422195.0 0
191425.0 419921.0 0
194964.0 421664.0 0
198718.0 420425.0 0
202646.0 420869.0 0
206594.0 420736.0 0
210542.0 420778.0 0
214490.0 420770.0 0
218437.0 420770.0 0
222383.0 420769.0 0
226329.0 420768.0 0
230275.0 420767.0 0
234221.0 420767.0 0
238166.0 420765.0 0
242111.0 420766.0 0
246056.0 420765.0 0
250000.0 420766.0 0
253944.0 420765.0 0
257889.0 420766.0 0
261834.0 420765.0 0
265779.0 420767.0 0
269725.0 420767.0 0
273671.0 420768.0 0
277617.0 420769.0 0
281563.0 420770.0 0
285510.0 420770.0 0
289458.0 420778.0 0
293406.0 420736.0 0
297354.0 420869.0 0
301282.0 420425.0 0
305036.0 421664.0 0
308575.0 419921.0 0
311843.0 422195.0 0
318597.0 422550.0 0
322005.0 420777.0 0
325284.0 423027.0 0
328663.0 421359.0 0
335335.0 421887.0 0
345348.0 424312.0 0
352116.0 424738.0 0
355499.0 423135.0 0
358842.0 425238.0 0
362207.0 423595.0 0
368916.0 424069.0 0
375614.0 424584.0 0
121018.0 426690.0 0
127716.0 426172.0 0
134433.0 425689.0 0
137799.0 427341.0 0
144543.0 426928.0 0
151317.0 426391.0 0
154774.0 428066.0 0
158090.0 426067.0 0
161380.0 424009.0 0
168059.0 423594.0 0
171443.0 425295.0 0
178108.0 424739.0 0
184828.0 424363.0 0
191561.0 424152.0 0
195104.0 425886.0 0
198758.0 424373.0 0
202677.0 424897.0 0
206624.0 424728.0 0
210571.0 424781.0 0
214516.0 424770.0 0
218460.0 424770.0 0
222403.0 424769.0 0
226345.0 424768.0 0
230287.0 424767.0 0
234230.0 424767.0 0
238172.0 424765.0 0
242115.0 424766.0 0
246057.0 424765.0 0
250000.0 424766.0 0
253943.0 424765.0 0
257885.0 424766.0 0
261828.0 424765.0 0
265770.0 424767.0 0
269713.0 424767.0 0
273655.0 424768.0 0
277597.0 424769.0 0
281540.0 424770.0 0
285484.0 424770.0 0
289429.0 424781.0 0
293376.0 424728.0 0
297323.0 424897.0 0
301242.0 424373.0 0
304896.0 425886.0 0
308439.0 424152.0 0
315172.0 424363.0 0
321892.0 424739.0 0
328557.0 425295.0 0
331941.0 423594.0 0
338620.0 424009.0 0
341910.0 426067.0 0
345226.0 428066.0 0
348683.0 426391.0 0
355457.0 426928.0 0
362201.0 427341.0 0
365567.0 425689.0 0
372284.0 426172.0 0
378982.0 426690.0 0
114294.0 430895.0 0
117653.0 428795.0 0
120985.0 430404.0 0
124347.0 428282.0 0
131064.0 427783.0 0
134427.0 429427.0 0
141189.0 428999.0 0
147976.0 428463.0 0
151440.0 430155.0 0
158261.0 429889.0 0
161525.0 427882.0 0
164786.0 425764.0 0
168190.0 427514.0 0
174826.0 426978.0 0
181512.0 426524.0 0
184849.0 428439.0 0
188200.0 426298.0 0
311800.0 426298.0 0
315151.0 428439.0 0
318488.0 426524.0 0
325174.0 426978.0 0
331810.0 427514.0 0
335214.0 425764.0 0
338475.0 427882.0 0
341739.0 429889.0 0
348560.0 430155.0 0
352024.0 428463.0 0
358811.0 428999.0 0
365573.0 429427.0 0
368936.0 427783.0 0
375653.0 428282.0 0
379015.0 430404.0 0
382347.0 428795.0 0
385706.0 430895.0 0
110941.0 432991.0 0
117631.0 432525.0 0
124330.0 432010.0 0
127692.0 429890.0 0
131049.0 431519.0 0
137802.0 431112.0 0
144592.0 430786.0 0
148120.0 432143.0 0
151575.0 433985.0 0
154900.0 431772.0 0
164939.0 429682.0 0
171590.0 429272.0 0
175048.0 430929.0 0
178225.0 428684.0 0
181504.0 430582.0 0
188246.0 430297.0 0
191630.0 428168.0 0
195175.0 429876.0 0
198802.0 428320.0 0
202705.0 428929.0 0
206648.0 428718.0 0
210593.0 428785.0 0
214537.0 428771.0 0
218479.0 428771.0 0
222421.0 428770.0 0
226361.0 428768.0 0
230301.0 428767.0 0
234241.0 428767.0 0
238181.0 428766.0 0
242121.0 428766.0 0
246060.0 428765.0 0
250000.0 428766.0 0
253940.0 428765.0 0
257879.0 428766.0 0
261819.0 428766.0 0
265759.0 428767.0 0
269699.0 428767.0 0
273639.0 428768.0 0
277579.0 428770.0 0
281521.0 428771.0 0
285463.0 428771.0 0
289407.0 428785.0 0
293352.0 428718.0 0
297295.0 428929.0 0
301198.0 428320.0 0
304825.0 429876.0 0
308370.0 428168.0 0
311754.0 430297.0 0
318496.0 430582.0 0
321775.0 428684.0 0
324952.0 430929.0 0
328410.0 429272.0 0
335061.0 429682.0 0
345100.0 431772.0 0
348425.0 433985.0 0
351880.0 432143.0 0
355408.0 430786.0 0
362198.0 431112.0 0
368951.0 431519.0 0
372308.0 429890.0 0
375670.0 432010.0 0
382369.0 432525.0 0
389059.0 432991.0 0
107588.0 435087.0 0
114288.0 434639.0 0
117639.0 436303.0 0
120975.0 434159.0 0
127695.0 433638.0 0
134407.0 433185.0 0
141213.0 432739.0 0
155059.0 435360.0 0
158394.0 433697.0 0
161744.0 431809.0 0
168320.0 431462.0 0
177662.0 433830.0 0
184877.0 432435.0 0
191669.0 432155.0 0
195209.0 433858.0 0
198819.0 432270.0 0
202709.0 432951.0 0
206649.0 432707.0 0
210595.0 432789.0 0
214539.0 432770.0 0
218481.0 432772.0 0
222423.0 432770.0 0
226363.0 432769.0 0
230303.0 432768.0 0
234243.0 432767.0 0
238182.0 432766.0 0
242122.0 432766.0 0
246061.0 432765.0 0
250000.0 432765.0 0
253939.0 432765.0 0
257878.0 432766.0 0
261818.0 432766.0 0
265757.0 432767.0 0
269697.0 432768.0 0
273637.0 432769.0 0
277577.0 432770.0 0
281519.0 432772.0 0
285461.0 432770.0 0
289405.0 432789.0 0
293351.0 432707.0 0
297291.0 432951.0 0
301181.0 432270.0 0
304791.0 433858.0 0
308331.0 432155.0 0
315123.0 432435.0 0
322338.0 433830.0 0
331680.0 431462.0 0
338256.0 431809.0 0
341606.0 433697.0 0
344941.0 435360.0 0
358787.0 432739.0 0
365593.0 433185.0 0
372305.0 433638.0 0
379025.0 434159.0 0
382361.0 436303.0 0
385712.0 434639.0 0
392412.0 435087.0 0
104225.0 437188.0 0
107587.0 438826.0 0
110944.0 436739.0 0
114303.0 438428.0 0
120998.0 437966.0 0
124334.0 435763.0 0
131079.0 435287.0 0
134485.0 437010.0 0
137713.0 434917.0 0
141007.0 436424.0 0
144533.0 434730.0 0
148212.0 435741.0 0
158213.0 437620.0 0
161710.0 435725.0 0
165668.0 434670.0 0
169925.0 434922.0 0
173786.0 434624.0 0
181494.0 434539.0 0
188267.0 434295.0 0
311733.0 434295.0 0
318506.0 434539.0 0
326214.0 434624.0 0
330075.0 434922.0 0
334332.0 434670.0 0
338290.0 435725.0 0
341787.0 437620.0 0
351788.0 435741.0 0
355467.0 434730.0 0
358993.0 436424.0 0
362287.0 434917.0 0
365515.0 437010.0 0
368921.0 435287.0 0
375666.0 435763.0 0
379002.0 437966.0 0
385697.0 438428.0 0
389056.0 436739.0 0
392413.0 438826.0 0
395775.0 437188.0 0
97463.7 441423.0 0
100842.0 439304.0 0
104209.0 440905.0 0
110955.0 440522.0 0
117665.0 440126.0 0
121034.0 441823.0 0
127719.0 437405.0 0
131094.0 439048.0 0
137947.0 438868.0 0
143000.0 439281.0 0
146708.0 439035.0 0
150611.0 438653.0 0
154411.0 438751.0 0
164260.0 438606.0 0
168101.0 438313.0 0
172104.0 438246.0 0
176232.0 437674.0 0
180165.0 438310.0 0
184349.0 437204.0 0
188171.0 438281.0 0
191711.0 436123.0 0
195266.0 437819.0 0
198846.0 436225.0 0
202697.0 437030.0 0
206619.0 436694.0 0
210556.0 436791.0 0
214494.0 436768.0 0
218434.0 436772.0 0
222376.0 436770.0 0
226318.0 436769.0 0
230263.0 436768.0 0
234208.0 436767.0 0
238155.0 436766.0 0
242103.0 436766.0 0
246051.0 436765.0 0
250000.0 436765.0 0
253949.0 436765.0 0
257897.0 436766.0 0
261845.0 436766.0 0
265792.0 436767.0 0
269737.0 436768.0 0
273682.0 436769.0 0
277624.0 436770.0 0
281566.0 436772.0 0
285506.0 436768.0 0
289444.0 436791.0 0
293381.0 436694.0 0
297303.0 437030.0 0
301154.0 436225.0 0
304734.0 437819.0 0
308289.0 436123.0 0
311829.0 438281.0 0
315651.0 437204.0 0
319835.0 438310.0 0
323768.0 437674.0 0
327896.0 438246.0 0
331899.0 438313.0 0
335740.0 438606.0 0
345589.0 438751.0 0
349389.0 438653.0 0
353292.0 439035.0 0
357000.0 439281.0 0
362053.0 438868.0 0
368906.0 439048.0 0
372281.0 437405.0 0
378966.0 441823.0 0
382335.0 440126.0 0
389045.0 440522.0 0
395791.0 440905.0 0
399158.0 439304.0 0
402536.0 441423.0 0
91941.6 444886.0 0
100827.0 443055.0 0
107586.0 442593.0 0
110982.0 444337.0 0
114327.0 442262.0 0
117690.0 443997.0 0
124401.0 439526.0 0
127829.0 441226.0 0
134432.0 440759.0 0
148870.0 442172.0 0
152692.0 441974.0 0
156987.0 441413.0 0
160827.0 440476.0 0
177534.0 441376.0 0
185029.0 441078.0 0
192007.0 440060.0 0
195585.0 441763.0 0
199218.0 440181.0 0
203067.0 441078.0 0
206989.0 440666.0 0
210919.0 440844.0 0
214843.0 440750.0 0
218763.0 440788.0 0
222677.0 440773.0 0
226588.0 440773.0 0
230495.0 440770.0 0
234399.0 440769.0 0
238301.0 440766.0 0
242201.0 440767.0 0
246101.0 440764.0 0
250000.0 440766.0 0
253899.0 440764.0 0
257799.0 440767.0 0
261699.0 440766.0 0
265601.0 440769.0 0
269505.0 440770.0 0
273412.0 440773.0 0
277323.0 440773.0 0
281237.0 440788.0 0
285157.0 440750.0 0
289081.0 440844.0 0
293011.0 440666.0 0
296933.0 441078.0 0
300782.0 440181.0 0
304415.0 441763.0 0
307993.0 440060.0 0
314971.0 441078.0 0
322466.0 441376.0 0
339173.0 440476.0 0
343013.0 441413.0 0
347308.0 441974.0 0
351130.0 442172.0 0
365568.0 440759.0 0
372171.0 441226.0 0
375599.0 439526.0 0
382310.0 443997.0 0
385673.0 442262.0 0
389018.0 444337.0 0
392414.0 442593.0 0
399173.0 443055.0 0
408058.0 444886.0 0
88578.3 446993.0 0
95821.3 444891.0 0
104141.0 444634.0 0
107323.0 446351.0 0
114383.0 446156.0 0
121033.0 445710.0 0
124528.0 443256.0 0
131252.0 442863.0 0
137412.0 442739.0 0
141131.0 442536.0 0
145011.0 442475.0 0
151029.0 445394.0 0
155030.0 444956.0 0
158940.0 444608.0 0
162745.0 443851.0 0
166186.0 442030.0 0
170055.0 441669.0 0
173807.0 442412.0 0
181299.0 442196.0 0
188750.0 442219.0 0
311250.0 442219.0 0
318701.0 442196.0 0
326193.0 442412.0 0
329945.0 441669.0 0
333814.0 442030.0 0
337255.0 443851.0 0
341060.0 444608.0 0
344970.0 444956.0 0
348971.0 445394.0 0
354989.0 442475.0 0
358869.0 442536.0 0
362588.0 442739.0 0
368748.0 442863.0 0
375472.0 443256.0 0
378967.0 445710.0 0
385617.0 446156.0 0
392677.0 446351.0 0
395859.0 444634.0 0
404179.0 444891.0 0
411422.0 446993.0 0
92096.9 448834.0 0
99368.4 446574.0 0
102979.0 448255.0 0
110471.0 448105.0 0
117838.0 447949.0 0
124523.0 446917.0 0
127951.0 445114.0 0
131479.0 446517.0 0
135312.0 446008.0 0
139277.0 446002.0 0
143175.0 445834.0 0
147114.0 445648.0 0
157218.0 448144.0 0
161174.0 447700.0 0
165063.0 446964.0 0
168671.0 445370.0 0
172553.0 446191.0 0
176435.0 445343.0 0
180300.0 446050.0 0
184105.0 444970.0 0
187875.0 446057.0 0
191661.0 444894.0 0
195512.0 445721.0 0
199117.0 444157.0 0
202943.0 445066.0 0
206850.0 444656.0 0
210771.0 444838.0 0
214693.0 444766.0 0
218616.0 444784.0 0
222538.0 444774.0 0
226460.0 444772.0 0
230382.0 444770.0 0
234305.0 444768.0 0
238228.0 444767.0 0
242152.0 444766.0 0
246076.0 444765.0 0
250000.0 444766.0 0
253924.0 444765.0 0
257848.0 444766.0 0
261772.0 444767.0 0
265695.0 444768.0 0
269618.0 444770.0 0
273540.0 444772.0 0
277462.0 444774.0 0
281384.0 444784.0 0
285307.0 444766.0 0
289229.0 444838.0 0
293150.0 444656.0 0
297057.0 445066.0 0
300883.0 444157.0 0
304488.0 445721.0 0
308339.0 444894.0 0
312125.0 446057.0 0
315895.0 444970.0 0
319700.0 446050.0 0
323565.0 445343.0 0
327447.0 446191.0 0
331329.0 445370.0 0
334937.0 446964.0 0
338826.0 447700.0 0
342782.0 448144.0 0
352886.0 445648.0 0
356825.0 445834.0 0
360723.0 446002.0 0
364688.0 446008.0 0
368521.0 446517.0 0
372049.0 445114.0 0
375477.0 446917.0 0
382162.0 447949.0 0
389529.0 448105.0 0
397021.0 448255.0 0
400632.0 446574.0 0
407903.0 448834.0 0
96055.4 448788.0 0
99643.0 450398.0 0
106537.0 450090.0 0
113575.0 449969.0 0
116793.0 451717.0 0
121420.0 449656.0 0
125634.0 450233.0 0
129468.0 449770.0 0
133486.0 449634.0 0
137372.0 449372.0 0
141332.0 449254.0 0
145288.0 449069.0 0
149253.0 448847.0 0
153262.0 448490.0 0
175261.0 449138.0 0
183012.0 448947.0 0
186857.0 449859.0 0
190704.0 448828.0 0
194593.0 449558.0 0
198442.0 448625.0 0
202386.0 449001.0 0
206342.0 448751.0 0
210307.0 448806.0 0
214273.0 448771.0 0
218241.0 448771.0 0
222209.0 448769.0 0
226178.0 448768.0 0
230147.0 448767.0 0
234117.0 448767.0 0
238087.0 448766.0 0
242058.0 448766.0 0
246029.0 448765.0 0
250000.0 448765.0 0
253971.0 448765.0 0
257942.0 448766.0 0
261913.0 448766.0 0
265883.0 448767.0 0
269853.0 448767.0 0
273822.0 448768.0 0
277791.0 448769.0 0
281759.0 448771.0 0
285727.0 448771.0 0
289693.0 448806.0 0
293658.0 448751.0 0
297614.0 449001.0 0
301558.0 448625.0 0
305407.0 449558.0 0
309296.0 448828.0 0
313143.0 449859.0 0
316988.0 448947.0 0
324739.0 449138.0 0
346738.0 448490.0 0
350747.0 448847.0 0
354712.0 449069.0 0
358668.0 449254.0 0
362628.0 449372.0 0
366514.0 449634.0 0
370532.0 449770.0 0
374366.0 450233.0 0
378580.0 449656.0 0
383207.0 451717.0 0
386425.0 449969.0 0
393463.0 450090.0 0
400357.0 450398.0 0
403945.0 448788.0 0
95507.6 452694.0 0
103165.0 452100.0 0
110041.0 451930.0 0
113496.0 453880.0 0
143435.0 452508.0 0
147416.0 452309.0 0
151465.0 451994.0 0
155450.0 451676.0 0
159471.0 451294.0 0
163623.0 450685.0 0
167521.0 450012.0 0
171418.0 449998.0 0
179148.0 449862.0 0
320852.0 449862.0 0
328582.0 449998.0 0
332479.0 450012.0 0
336377.0 450685.0 0
340529.0 451294.0 0
344550.0 451676.0 0
348535.0 451994.0 0
352584.0 452309.0 0
356565.0 452508.0 0
386504.0 453880.0 0
389959.0 451930.0 0
396835.0 452100.0 0
404492.0 452694.0 0
99192.4 454228.0 0
102942.0 455922.0 0
106622.0 454005.0 0
110111.0 455813.0 0
120028.0 453392.0 0
123762.0 453461.0 0
127703.0 453330.0 0
131586.0 453050.0 0
135535.0 452871.0 0
139466.0 452674.0 0
149641.0 455496.0 0
153638.0 455197.0 0
157690.0 454851.0 0
161970.0 454287.0 0
166104.0 453720.0 0
170095.0 453769.0 0
174017.0 452983.0 0
177946.0 453664.0 0
181840.0 452795.0 0
185733.0 453645.0 0
189607.0 452719.0 0
193529.0 453366.0 0
197945.0 452738.0 0
201937.0 452954.0 0
205998.0 452765.0 0
209998.0 452791.0 0
214000.0 452765.0 0
218000.0 452765.0 0
222000.0 452765.0 0
226000.0 452765.0 0
230000.0 452765.0 0
234000.0 452765.0 0
238000.0 452765.0 0
242000.0 452765.0 0
246000.0 452765.0 0
250000.0 452765.0 0
254000.0 452765.0 0
258000.0 452765.0 0
262000.0 452765.0 0
266000.0 452765.0 0
270000.0 452765.0 0
274000.0 452765.0 0
278000.0 452765.0 0
282000.0 452765.0 0
286000.0 452765.0 0
290002.0 452791.0 0
294002.0 452765.0 0
298063.0 452954.0 0
302055.0 452738.0 0
306471.0 453366.0 0
310393.0 452719.0 0
314267.0 453645.0 0
318160.0 452795.0 0
322054.0 453664.0 0
325983.0 452983.0 0
329905.0 453769.0 0
333896.0 453720.0 0
338030.0 454287.0 0
342310.0 454851.0 0
346362.0 455197.0 0
350359.0 455496.0 0
360534.0 452674.0 0
364465.0 452871.0 0
368414.0 453050.0 0
372297.0 453330.0 0
376238.0 453461.0 0
379972.0 453392.0 0
389889.0 455813.0 0
393378.0 454005.0 0
397058.0 455922.0 0
400808.0 454228.0 0
95893.5 456645.0 0
106757.0 457960.0 0
116897.0 455818.0 0
121737.0 456845.0 0
125714.0 456735.0 0
129691.0 456552.0 0
133635.0 456331.0 0
137595.0 456148.0 0
141557.0 455963.0 0
145538.0 455776.0 0
159816.0 458123.0 0
167638.0 457342.0 0
175384.0 456717.0 0
183077.0 456595.0 0
190809.0 456514.0 0
194715.0 457158.0 0
198634.0 456674.0 0
202579.0 456887.0 0
206525.0 456757.0 0
210474.0 456772.0 0
214423.0 456770.0 0
218374.0 456769.0 0
222325.0 456768.0 0
226277.0 456767.0 0
230230.0 456767.0 0
234183.0 456766.0 0
238137.0 456766.0 0
242091.0 456765.0 0
246046.0 456765.0 0
250000.0 456765.0 0
253954.0 456765.0 0
257909.0 456765.0 0
261863.0 456766.0 0
265817.0 456766.0 0
269770.0 456767.0 0
273723.0 456767.0 0
277675.0 456768.0 0
281626.0 456769.0 0
285577.0 456770.0 0
289526.0 456772.0 0
293475.0 456757.0 0
297421.0 456887.0 0
301366.0 456674.0 0
305285.0 457158.0 0
309191.0 456514.0 0
316923.0 456595.0 0
324616.0 456717.0 0
332362.0 457342.0 0
340184.0 458123.0 0
354462.0 455776.0 0
358443.0 455963.0 0
362405.0 456148.0 0
366365.0 456331.0 0
370309.0 456552.0 0
374286.0 456735.0 0
378263.0 456845.0 0
383103.0 455818.0 0
393243.0 457960.0 0
404106.0 456645.0 0
99605.7 458090.0 0
103227.0 459794.0 0
110363.0 459653.0 0
114461.0 459033.0 0
118680.0 459310.0 0
123734.0 460155.0 0
127729.0 459997.0 0
131714.0 459812.0 0
135687.0 459619.0 0
139665.0 459440.0 0
143646.0 459257.0 0
147755.0 458981.0 0
151829.0 458728.0 0
155855.0 458399.0 0
163728.0 457771.0 0
171537.0 457513.0 0
179242.0 457508.0 0
186958.0 457426.0 0
313042.0 457426.0 0
320758.0 457508.0 0
328463.0 457513.0 0
336272.0 457771.0 0
344145.0 458399.0 0
348171.0 458728.0 0
352245.0 458981.0 0
356354.0 459257.0 0
360335.0 459440.0 0
364313.0 459619.0 0
368286.0 459812.0 0
372271.0 459997.0 0
376266.0 460155.0 0
381320.0 459310.0 0
385539.0 459033.0 0
389637.0 459653.0 0
396773.0 459794.0 0
400394.0 458090.0 0
99880.9 461974.0 0
103680.0 463680.0 0
107430.0 462300.0 0
112766.0 462702.0 0
116711.0 462702.0 0
120700.0 462705.0 0
141736.0 462749.0 0
145861.0 462477.0 0
149940.0 462232.0 0
154061.0 461947.0 0
158048.0 461677.0 0
162041.0 461405.0 0
166004.0 460970.0 0
169963.0 461299.0 0
173896.0 460703.0 0
177829.0 461238.0 0
181769.0 460678.0 0
185718.0 461197.0 0
189804.0 460747.0 0
193790.0 461023.0 0
197986.0 460765.0 0
201984.0 460831.0 0
206000.0 460765.0 0
210000.0 460765.0 0
214000.0 460765.0 0
218000.0 460765.0 0
222000.0 460765.0 0
226000.0 460765.0 0
230000.0 460765.0 0
234000.0 460765.0 0
238000.0 460765.0 0
242000.0 460765.0 0
246000.0 460765.0 0
250000.0 460765.0 0
254000.0 460765.0 0
258000.0 460765.0 0
262000.0 460765.0 0
266000.0 460765.0 0
270000.0 460765.0 0
274000.0 460765.0 0
278000.0 460765.0 0
282000.0 460765.0 0
286000.0 460765.0 0
290000.0 460765.0 0
294000.0 460765.0 0
298016.0 460831.0 0
302014.0 460765.0 0
306210.0 461023.0 0
310196.0 460747.0 0
314282.0 461197.0 0
318231.0 460678.0 0
322171.0 461238.0 0
326104.0 460703.0 0
330037.0 461299.0 0
333996.0 460970.0 0
337959.0 461405.0 0
341952.0 461677.0 0
345939.0 461947.0 0
350060.0 462232.0 0
354139.0 462477.0 0
358264.0 462749.0 0
379300.0 462705.0 0
383289.0 462702.0 0
387234.0 462702.0 0
392570.0 462300.0 0
396320.0 463680.0 0
400119.0 461974.0 0
125772.0 463449.0 0
129769.0 463277.0 0
133764.0 463097.0 0
137748.0 462922.0 0
159499.0 465349.0 0
340501.0 465349.0 0
362252.0 462922.0 0
366236.0 463097.0 0
370231.0 463277.0 0
374228.0 463449.0 0
100369.0 465870.0 0
106710.0 466204.0 0
110689.0 466087.0 0
114698.0 466135.0 0
118691.0 466135.0 0
122783.0 466081.0 0
127823.0 466751.0 0
131831.0 466571.0 0
135819.0 466410.0 0
139793.0 466253.0 0
143756.0 466101.0 0
147706.0 465937.0 0
151648.0 465768.0 0
155577.0 465577.0 0
163408.0 465302.0 0
167281.0 464708.0 0
171159.0 465227.0 0
175015.0 464522.0 0
178902.0 465087.0 0
182796.0 464540.0 0
186703.0 465051.0 0
190620.0 464660.0 0
194554.0 464932.0 0
198490.0 464736.0 0
202436.0 464799.0 0
206385.0 464769.0 0
210338.0 464769.0 0
214295.0 464768.0 0
218255.0 464768.0 0
222218.0 464767.0 0
226183.0 464767.0 0
230149.0 464766.0 0
234118.0 464766.0 0
238087.0 464766.0 0
242058.0 464765.0 0
246029.0 464765.0 0
250000.0 464765.0 0
253971.0 464765.0 0
257942.0 464765.0 0
261913.0 464766.0 0
265882.0 464766.0 0
269851.0 464766.0 0
273817.0 464767.0 0
277782.0 464767.0 0
281745.0 464768.0 0
285705.0 464768.0 0
289662.0 464769.0 0
293615.0 464769.0 0
297564.0 464799.0 0
301510.0 464736.0 0
305446.0 464932.0 0
309380.0 464660.0 0
313297.0 465051.0 0
317204.0 464540.0 0
321098.0 465087.0 0
324985.0 464522.0 0
328841.0 465227.0 0
332719.0 464708.0 0
336592.0 465302.0 0
344423.0 465577.0 0
348352.0 465768.0 0
352294.0 465937.0 0
356244.0 466101.0 0
360207.0 466253.0 0
364181.0 466410.0 0
368169.0 466571.0 0
372177.0 466751.0 0
377217.0 466081.0 0
381309.0 466135.0 0
385302.0 466135.0 0
389311.0 466087.0 0
393290.0 466204.0 0
399631.0 465870.0 0
100250.0 469814.0 0
104506.0 469530.0 0
108676.0 469629.0 0
112663.0 469554.0 0
116663.0 469572.0 0
120764.0 469521.0 0
124894.0 469463.0 0
129910.0 470052.0 0
133900.0 469898.0 0
137884.0 469758.0 0
141859.0 469611.0 0
145831.0 469457.0 0
149794.0 469288.0 0
153761.0 469122.0 0
157743.0 468907.0 0
161819.0 468972.0 0
165811.0 468742.0 0
169802.0 468975.0 0
173851.0 468751.0 0
177845.0 468930.0 0
181872.0 468758.0 0
185864.0 468935.0 0
189947.0 468762.0 0
193944.0 468866.0 0
198000.0 468765.0 0
201999.0 468771.0 0
206000.0 468765.0 0
210000.0 468765.0 0
214000.0 468765.0 0
218000.0 468765.0 0
222000.0 468765.0 0
226000.0 468765.0 0
230000.0 468765.0 0
234000.0 468765.0 0
238000.0 468765.0 0
242000.0 468765.0 0
246000.0 468765.0 0
250000.0 468765.0 0
254000.0 468765.0 0
258000.0 468765.0 0
262000.0 468765.0 0
266000.0 468765.0 0
270000.0 468765.0 0
274000.0 468765.0 0
278000.0 468765.0 0
282000.0 468765.0 0
286000.0 468765.0 0
290000.0 468765.0 0
294000.0 468765.0 0
298001.0 468771.0 0
302000.0 468765.0 0
306056.0 468866.0 0
310053.0 468762.0 0
314136.0 468935.0 0
318128.0 468758.0 0
322155.0 468930.0 0
326149.0 468751.0 0
330198.0 468975.0 0
334189.0 468742.0 0
338181.0 468972.0 0
342257.0 468907.0 0
346239.0 469122.0 0
350206.0 469288.0 0
354169.0 469457.0 0
358141.0 469611.0 0
362116.0 469758.0 0
366100.0 469898.0 0
370090.0 470052.0 0
375106.0 469463.0 0
379236.0 469521.0 0
383337.0 469572.0 0
387337.0 469554.0 0
391324.0 469629.0 0
395494.0 469530.0 0
399750.0 469814.0 0
102432.0 473135.0 0
106423.0 473084.0 0
110535.0 473140.0 0
114528.0 473076.0 0
118523.0 473080.0 0
122508.0 473103.0 0
126497.0 473120.0 0
131110.0 473783.0 0
135073.0 473651.0 0
139011.0 473550.0 0
142938.0 473421.0 0
146857.0 473282.0 0
150772.0 473120.0 0
154681.0 472986.0 0
158590.0 472784.0 0
162507.0 472929.0 0
166432.0 472692.0 0
170368.0 472927.0 0
174314.0 472723.0 0
178269.0 472896.0 0
182229.0 472742.0 0
186195.0 472900.0 0
190164.0 472755.0 0
194139.0 472845.0 0
198116.0 472763.0 0
202098.0 472767.0 0
206082.0 472766.0 0
210068.0 472766.0 0
214057.0 472765.0 0
218047.0 472765.0 0
222039.0 472765.0 0
226031.0 472765.0 0
230025.0 472765.0 0
234019.0 472765.0 0
238014.0 472765.0 0
242009.0 472765.0 0
246004.0 472765.0 0
250000.0 472765.0 0
253996.0 472765.0 0
257991.0 472765.0 0
261986.0 472765.0 0
265981.0 472765.0 0
269975.0 472765.0 0
273969.0 472765.0 0
277961.0 472765.0 0
281953.0 472765.0 0
285943.0 472765.0 0
289932.0 472766.0 0
293918.0 472766.0 0
297902.0 472767.0 0
301884.0 472763.0 0
305861.0 472845.0 0
309836.0 472755.0 0
313805.0 472900.0 0
317771.0 472742.0 0
321731.0 472896.0 0
325686.0 472723.0 0
329632.0 472927.0 0
333568.0 472692.0 0
337493.0 472929.0 0
341410.0 472784.0 0
345319.0 472986.0 0
349228.0 473120.0 0
353143.0 473282.0 0
357062.0 473421.0 0
360989.0 473550.0 0
364927.0 473651.0 0
368890.0 473783.0 0
373503.0 473120.0 0
377492.0 473103.0 0
381477.0 473080.0 0
385472.0 473076.0 0
389465.0 473140.0 0
393577.0 473084.0 0
397568.0 473135.0 0
101710.0 477053.0 0
105706.0 477035.0 0
109693.0 477034.0 0
113676.0 476976.0 0
117654.0 476966.0 0
121627.0 477001.0 0
125593.0 477042.0 0
129532.0 477394.0 0
133509.0 477282.0 0
137502.0 477224.0 0
141498.0 477127.0 0
145628.0 477062.0 0
149743.0 476953.0 0
153943.0 476897.0 0
157976.0 476762.0 0
161973.0 476888.0 0
165975.0 476763.0 0
169973.0 476896.0 0
173983.0 476764.0 0
177981.0 476874.0 0
181987.0 476765.0 0
185985.0 476874.0 0
189995.0 476765.0 0
193994.0 476827.0 0
198000.0 476765.0 0
202000.0 476765.0 0
206000.0 476765.0 0
210000.0 476765.0 0
214000.0 476765.0 0
218000.0 476765.0 0
222000.0 476765.0 0
226000.0 476765.0 0
230000.0 476765.0 0
234000.0 476765.0 0
238000.0 476765.0 0
242000.0 476765.0 0
246000.0 476765.0 0
250000.0 476765.0 0
254000.0 476765.0 0
258000.0 476765.0 0
262000.0 476765.0 0
266000.0 476765.0 0
270000.0 476765.0 0
274000.0 476765.0 0
278000.0 476765.0 0
282000.0 476765.0 0
286000.0 476765.0 0
290000.0 476765.0 0
294000.0 476765.0 0
298000.0 476765.0 0
302000.0 476765.0 0
306006.0 476827.0 0
310005.0 476765.0 0
314015.0 476874.0 0
318013.0 476765.0 0
322019.0 476874.0 0
326017.0 476764.0 0
330027.0 476896.0 0
334025.0 476763.0 0
338027.0 476888.0 0
342024.0 476762.0 0
346057.0 476897.0 0
350257.0 476953.0 0
354372.0 477062.0 0
358502.0 477127.0 0
362498.0 477224.0 0
366491.0 477282.0 0
370468.0 477394.0 0
374407.0 477042.0 0
378373.0 477001.0 0
382346.0 476966.0 0
386324.0 476976.0 0
390307.0 477034.0 0
394294.0 477035.0 0
398290.0 477053.0 0
102034.0 481024.0 0
106034.0 481021.0 0
110041.0 481006.0 0
114042.0 480950.0 0
118042.0 480934.0 0
122041.0 480977.0 0
126049.0 481025.0 0
130166.0 481289.0 0
134158.0 481190.0 0
138146.0 481148.0 0
142131.0 481054.0 0
146117.0 481011.0 0
150101.0 480911.0 0
154086.0 480880.0 0
158071.0 480760.0 0
162058.0 480882.0 0
166047.0 480762.0 0
170038.0 480885.0 0
174030.0 480763.0 0
178024.0 480862.0 0
182019.0 480764.0 0
186015.0 480856.0 0
190011.0 480765.0 0
194009.0 480814.0 0
198007.0 480765.0 0
202005.0 480765.0 0
206004.0 480765.0 0
210003.0 480765.0 0
214003.0 480765.0 0
218002.0 480765.0 0
222002.0 480765.0 0
226001.0 480765.0 0
230001.0 480765.0 0
234001.0 480765.0 0
238001.0 480765.0 0
242000.0 480765.0 0
246000.0 480765.0 0
250000.0 480765.0 0
254000.0 480765.0 0
258000.0 480765.0 0
261999.0 480765.0 0
265999.0 480765.0 0
269999.0 480765.0 0
273999.0 480765.0 0
277998.0 480765.0 0
281998.0 480765.0 0
285997.0 480765.0 0
289997.0 480765.0 0
293996.0 480765.0 0
297995.0 480765.0 0
301993.0 480765.0 0
305991.0 480814.0 0
309989.0 480765.0 0
313985.0 480856.0 0
317981.0 480764.0 0
321976.0 480862.0 0
325970.0 480763.0 0
329962.0 480885.0 0
333953.0 480762.0 0
337942.0 480882.0 0
341929.0 480760.0 0
345914.0 480880.0 0
349899.0 480911.0 0
353883.0 481011.0 0
357869.0 481054.0 0
361854.0 481148.0 0
365842.0 481190.0 0
369834.0 481289.0 0
373951.0 481025.0 0
377959.0 480977.0 0
381958.0 480934.0 0
385958.0 480950.0 0
389959.0 481006.0 0
393966.0 481021.0 0
397966.0 481024.0 0
101979.0 485008.0 0
105979.0 485017.0 0
109978.0 484993.0 0
113976.0 484941.0 0
117974.0 484921.0 0
121971.0 484975.0 0
125968.0 485022.0 0
129958.0 485234.0 0
133956.0 485148.0 0
137955.0 485119.0 0
141954.0 485028.0 0
145972.0 484987.0 0
149985.0 484885.0 0
153996.0 484868.0 0
157999.0 484765.0 0
161997.0 484875.0 0
165999.0 484765.0 0
169998.0 484874.0 0
174000.0 484765.0 0
177999.0 484851.0 0
182000.0 484765.0 0
185999.0 484840.0 0
190000.0 484765.0 0
194000.0 484803.0 0
198000.0 484765.0 0
202000.0 484765.0 0
206000.0 484765.0 0
210000.0 484765.0 0
214000.0 484765.0 0
218000.0 484765.0 0
222000.0 484765.0 0
226000.0 484765.0 0
230000.0 484765.0 0
234000.0 484765.0 0
238000.0 484765.0 0
242000.0 484765.0 0
246000.0 484765.0 0
250000.0 484765.0 0
254000.0 484765.0 0
258000.0 484765.0 0
262000.0 484765.0 0
266000.0 484765.0 0
270000.0 484765.0 0
274000.0 484765.0 0
278000.0 484765.0 0
282000.0 484765.0 0
286000.0 484765.0 0
290000.0 484765.0 0
294000.0 484765.0 0
298000.0 484765.0 0
302000.0 484765.0 0
306000.0 484803.0 0
310000.0 484765.0 0
314001.0 484840.0 0
318000.0 484765.0 0
322001.0 484851.0 0
326000.0 484765.0 0
330002.0 484874.0 0
334001.0 484765.0 0
338003.0 484875.0 0
342001.0 484765.0 0
346004.0 484868.0 0
350015.0 484885.0 0
354028.0 484987.0 0
358046.0 485028.0 0
362045.0 485119.0 0
366044.0 485148.0 0
370042.0 485234.0 0
374032.0 485022.0 0
378029.0 484975.0 0
382026.0 484921.0 0
386024.0 484941.0 0
390022.0 484993.0 0
394021.0 485017.0 0
398021.0 485008.0 0
102002.0 488994.0 0
106002.0 489012.0 0
110002.0 488983.0 0
114003.0 488931.0 0
118003.0 488911.0 0
122003.0 488972.0 0
126008.0 489018.0 0
130015.0 489188.0 0
134014.0 489112.0 0
138013.0 489094.0 0
142011.0 489004.0 0
146010.0 488967.0 0
150007.0 488864.0 0
154006.0 488860.0 0
158005.0 488765.0 0
162003.0 488868.0 0
166001.0 488765.0 0
170000.0 488863.0 0
174000.0 488765.0 0
178000.0 488841.0 0
182000.0 488765.0 0
186000.0 488827.0 0
190000.0 488765.0 0
194000.0 488795.0 0
198000.0 488765.0 0
202000.0 488765.0 0
206000.0 488765.0 0
210000.0 488765.0 0
214000.0 488765.0 0
218000.0 488765.0 0
222000.0 488765.0 0
226000.0 488765.0 0
230000.0 488765.0 0
234000.0 488765.0 0
238000.0 488765.0 0
242000.0 488765.0 0
246000.0 488765.0 0
250000.0 488765.0 0
254000.0 488765.0 0
258000.0 488765.0 0
262000.0 488765.0 0
266000.0 488765.0 0
270000.0 488765.0 0
274000.0 488765.0 0
278000.0 488765.0 0
282000.0 488765.0 0
286000.0 488765.0 0
290000.0 488765.0 0
294000.0 488765.0 0
298000.0 488765.0 0
302000.0 488765.0 0
306000.0 488795.0 0
310000.0 488765.0 0
314000.0 488827.0 0
318000.0 488765.0 0
322000.0 488841.0 0
326000.0 488765.0 0
330000.0 488863.0 0
333999.0 488765.0 0
337997.0 488868.0 0
341995.0 488765.0 0
345994.0 488860.0 0
349993.0 488864.0 0
353990.0 488967.0 0
357989.0 489004.0 0
361987.0 489094.0 0
365986.0 489112.0 0
369985.0 489188.0 0
373992.0 489018.0 0
377997.0 488972.0 0
381997.0 488911.0 0
385997.0 488931.0 0
389998.0 488983.0 0
393998.0 489012.0 0
397998.0 488994.0 0
102000.0 492982.0 0
106000.0 493005.0 0
109999.0 492972.0 0
113999.0 492923.0 0
117999.0 492902.0 0
121998.0 492967.0 0
125998.0 493012.0 0
129995.0 493146.0 0
133995.0 493078.0 0
137995.0 493070.0 0
141998.0 492981.0 0
145999.0 492948.0 0
150000.0 492845.0 0
154000.0 492854.0 0
158000.0 492765.0 0
162000.0 492861.0 0
166000.0 492765.0 0
170000.0 492853.0 0
174000.0 492765.0 0
178000.0 492831.0 0
182000.0 492765.0 0
186000.0 492816.0 0
190000.0 492765.0 0
194000.0 492787.0 0
198000.0 492765.0 0
202000.0 492765.0 0
206000.0 492765.0 0
210000.0 492765.0 0
214000.0 492765.0 0
218000.0 492765.0 0
222000.0 492765.0 0
226000.0 492765.0 0
230000.0 492765.0 0
234000.0 492765.0 0
238000.0 492765.0 0
242000.0 492765.0 0
246000.0 492765.0 0
250000.0 492765.0 0
254000.0 492765.0 0
258000.0 492765.0 0
262000.0 492765.0 0
266000.0 492765.0 0
270000.0 492765.0 0
274000.0 492765.0 0
278000.0 492765.0 0
282000.0 492765.0 0
286000.0 492765.0 0
290000.0 492765.0 0
294000.0 492765.0 0
298000.0 492765.0 0
302000.0 492765.0 0
306000.0 492787.0 0
310000.0 492765.0 0
314000.0 492816.0 0
318000.0 492765.0 0
322000.0 492831.0 0
326000.0 492765.0 0
330000.0 492853.0 0
334000.0 492765.0 0
338000.0 492861.0 0
342000.0 492765.0 0
346000.0 492854.0 0
350000.0 492845.0 0
354001.0 492948.0 0
358002.0 492981.0 0
362005.0 493070.0 0
366005.0 493078.0 0
370005.0 493146.0 0
374002.0 493012.0 0
378002.0 492967.0 0
382001.0 492902.0 0
386001.0 492923.0 0
390001.0 492972.0 0
394000.0 493005.0 0
398000.0 492982.0 0
102000.0 496970.0 0
106000.0 496997.0 0
110000.0 496963.0 0
114000.0 496914.0 0
118000.0 496894.0 0
122000.0 496962.0 0
126001.0 497005.0 0
130002.0 497108.0 0
134001.0 497046.0 0
138001.0 497047.0 0
142000.0 496959.0 0
146000.0 496930.0 0
150000.0 496830.0 0
154000.0 496848.0 0
158000.0 496765.0 0
162000.0 496854.0 0
166000.0 496765.0 0
170000.0 496844.0 0
174000.0 496765.0 0
178000.0 496823.0 0
182000.0 496765.0 0
186000.0 496806.0 0
190000.0 496765.0 0
194000.0 496782.0 0
198000.0 496765.0 0
202000.0 496765.0 0
206000.0 496765.0 0
210000.0 496765.0 0
214000.0 496765.0 0
218000.0 496765.0 0
222000.0 496765.0 0
226000.0 496765.0 0
230000.0 496765.0 0
234000.0 496765.0 0
238000.0 496765.0 0
242000.0 496765.0 0
246000.0 496765.0 0
250000.0 496765.0 0
254000.0 496765.0 0
258000.0 496765.0 0
262000.0 496765.0 0
266000.0 496765.0 0
270000.0 496765.0 0
274000.0 496765.0 0
278000.0 496765.0 0
282000.0 496765.0 0
286000.0 496765.0 0
290000.0 496765.0 0
294000.0 496765.0 0
298000.0 496765.0 0
302000.0 496765.0 0
306000.0 496782.0 0
310000.0 496765.0 0
314000.0 496806.0 0
318000.0 496765.0 0
322000.0 496823.0 0
326000.0 496765.0 0
330000.0 496844.0 0
334000.0 496765.0 0
338000.0 496854.0 0
342000.0 496765.0 0
346000.0 496848.0 0
350000.0 496830.0 0
354000.0 496930.0 0
358000.0 496959.0 0
361999.0 497047.0 0
365999.0 497046.0 0
369998.0 497108.0 0
373999.0 497005.0 0
378000.0 496962.0 0
382000.0 496894.0 0
386000.0 496914.0 0
390000.0 496963.0 0
394000.0 496997.0 0
398000.0 496970.0 0
102000.0 500960.0 0
106000.0 500988.0 0
110000.0 500953.0 0
114000.0 500906.0 0
118000.0 500886.0 0
122000.0 500956.0 0
126000.0 500996.0 0
130000.0 501074.0 0
134000.0 501017.0 0
138000.0 501025.0 0
142000.0 500938.0 0
146000.0 500914.0 0
150000.0 500817.0 0
154000.0 500843.0 0
158000.0 500765.0 0
162000.0 500847.0 0
166000.0 500765.0 0
170000.0 500836.0 0
174000.0 500765.0 0
178000.0 500815.0 0
182000.0 500765.0 0
186000.0 500798.0 0
190000.0 500765.0 0
194000.0 500777.0 0
198000.0 500765.0 0
202000.0 500765.0 0
206000.0 500765.0 0
210000.0 500765.0 0
214000.0 500765.0 0
218000.0 500765.0 0
222000.0 500765.0 0
226000.0 500765.0 0
230000.0 500765.0 0
234000.0 500765.0 0
238000.0 500765.0 0
242000.0 500765.0 0
246000.0 500765.0 0
250000.0 500765.0 0
254000.0 500765.0 0
258000.0 500765.0 0
262000.0 500765.0 0
266000.0 500765.0 0
270000.0 500765.0 0
274000.0 500765.0 0
278000.0 500765.0 0
282000.0 500765.0 0
286000.0 500765.0 0
290000.0 500765.0 0
294000.0 500765.0 0
298000.0 500765.0 0
302000.0 500765.0 0
306000.0 500777.0 0
310000.0 500765.0 0
314000.0 500798.0 0
318000.0 500765.0 0
322000.0 500815.0 0
326000.0 500765.0 0
330000.0 500836.0 0
334000.0 500765.0 0
338000.0 500847.0 0
342000.0 500765.0 0
346000.0 500843.0 0
350000.0 500817.0 0
354000.0 500914.0 0
358000.0 500938.0 0
362000.0 501025.0 0
366000.0 501017.0 0
370000.0 501074.0 0
374000.0 500996.0 0
378000.0 500956.0 0
382000.0 500886.0 0
386000.0 500906.0 0
390000.0 500953.0 0
394000.0 500988.0 0
398000.0 500960.0 0
102000.0 504950.0 0
106000.0 504979.0 0
110000.0 504944.0 0
114000.0 504898.0 0
118000.0 504878.0 0
122000.0 504950.0 0
126000.0 504986.0 0
130000.0 505044.0 0
134000.0 504991.0 0
138000.0 505004.0 0
142000.0 504919.0 0
146000.0 504899.0 0
150000.0 504807.0 0
154000.0 504837.0 0
158000.0 504765.0 0
162000.0 504840.0 0
166000.0 504765.0 0
170000.0 504828.0 0
174000.0 504765.0 0
178000.0 504808.0 0
182000.0 504765.0 0
186000.0 504791.0 0
190000.0 504765.0 0
194000.0 504774.0 0
198000.0 504765.0 0
202000.0 504765.0 0
206000.0 504765.0 0
210000.0 504765.0 0
214000.0 504765.0 0
218000.0 504765.0 0
222000.0 504765.0 0
226000.0 504765.0 0
230000.0 504765.0 0
234000.0 504765.0 0
238000.0 504765.0 0
242000.0 504765.0 0
246000.0 504765.0 0
250000.0 504765.0 0
254000.0 504765.0 0
258000.0 504765.0 0
262000.0 504765.0 0
266000.0 504765.0 0
270000.0 504765.0 0
274000.0 504765.0 0
278000.0 504765.0 0
282000.0 504765.0 0
286000.0 504765.0 0
290000.0 504765.0 0
294000.0 504765.0 0
298000.0 504765.0 0
302000.0 504765.0 0
306000.0 504774.0 0
310000.0 504765.0 0
314000.0 504791.0 0
318000.0 504765.0 0
322000.0 504808.0 0
326000.0 504765.0 0
330000.0 504828.0 0
334000.0 504765.0 0
338000.0 504840.0 0
342000.0 504765.0 0
346000.0 504837.0 0
350000.0 504807.0 0
354000.0 504899.0 0
358000.0 504919.0 0
362000.0 505004.0 0
366000.0 504991.0 0
370000.0 505044.0 0
374000.0 504986.0 0
378000.0 504950.0 0
382000.0 504878.0 0
386000.0 504898.0 0
390000.0 504944.0 0
394000.0 504979.0 0
398000.0 504950.0 0
114000.0 508890.0 0
118000.0 508870.0 0
134000.0 508966.0 0
142000.0 508901.0 0
146000.0 508886.0 0
150000.0 508798.0 0
154000.0 508832.0 0
158000.0 508765.0 0
162000.0 508834.0 0
166000.0 508765.0 0
170000.0 508821.0 0
174000.0 508765.0 0
178000.0 508802.0 0
182000.0 508765.0 0
186000.0 508786.0 0
190000.0 508765.0 0
194000.0 508771.0 0
198000.0 508765.0 0
202000.0 508765.0 0
206000.0 508765.0 0
210000.0 508765.0 0
214000.0 508765.0 0
218000.0 508765.0 0
222000.0 508765.0 0
226000.0 508765.0 0
230000.0 508765.0 0
234000.0 508765.0 0
238000.0 508765.0 0
242000.0 508765.0 0
246000.0 508765.0 0
250000.0 508765.0 0
254000.0 508765.0 0
258000.0 508765.0 0
262000.0 508765.0 0
266000.0 508765.0 0
270000.0 508765.0 0
274000.0 508765.0 0
278000.0 508765.0 0
282000.0 508765.0 0
286000.0 508765.0 0
290000.0 508765.0 0
294000.0 508765.0 0
298000.0 508765.0 0
302000.0 508765.0 0
306000.0 508771.0 0
310000.0 508765.0 0
314000.0 508786.0 0
318000.0 508765.0 0
322000.0 508802.0 0
326000.0 508765.0 0
330000.0 508821.0 0
334000.0 508765.0 0
338000.0 508834.0 0
342000.0 508765.0 0
346000.0 508832.0 0
350000.0 508798.0 0
354000.0 508886.0 0
358000.0 508901.0 0
366000.0 508966.0 0
382000.0 508870.0 0
386000.0 508890.0 0
102000.0 508942.0 0
106000.0 508969.0 0
110000.0 508935.0 0
122000.0 508942.0 0
126000.0 508975.0 0
130000.0 509017.0 0
138000.0 508984.0 0
362000.0 508984.0 0
370000.0 509017.0 0
374000.0 508975.0 0
378000.0 508942.0 0
390000.0 508935.0 0
394000.0 508969.0 0
398000.0 508942.0 0
102000.0 512933.0 0
106000.0 512959.0 0
110000.0 512927.0 0
114000.0 512882.0 0
118000.0 512862.0 0
122000.0 512935.0 0
126000.0 512964.0 0
130000.0 512994.0 0
134000.0 512945.0 0
138000.0 512966.0 0
142000.0 512884.0 0
146000.0 512873.0 0
150000.0 512791.0 0
154000.0 512827.0 0
158000.0 512765.0 0
162000.0 512828.0 0
166000.0 512765.0 0
170000.0 512814.0 0
174000.0 512765.0 0
178000.0 512796.0 0
182000.0 512765.0 0
186000.0 512781.0 0
190000.0 512765.0 0
194000.0 512770.0 0
198000.0 512765.0 0
202000.0 512765.0 0
206000.0 512765.0 0
210000.0 512765.0 0
214000.0 512765.0 0
218000.0 512765.0 0
222000.0 512765.0 0
226000.0 512765.0 0
230000.0 512765.0 0
234000.0 512765.0 0
238000.0 512765.0 0
242000.0 512765.0 0
246000.0 512765.0 0
250000.0 512765.0 0
254000.0 512765.0 0
258000.0 512765.0 0
262000.0 512765.0 0
266000.0 512765.0 0
270000.0 512765.0 0
274000.0 512765.0 0
278000.0 512765.0 0
282000.0 512765.0 0
286000.0 512765.0 0
290000.0 512765.0 0
294000.0 512765.0 0
298000.0 512765.0 0
302000.0 512765.0 0
306000.0 512770.0 0
310000.0 512765.0 0
314000.0 512781.0 0
318000.0 512765.0 0
322000.0 512796.0 0
326000.0 512765.0 0
330000.0 512814.0 0
334000.0 512765.0 0
338000.0 512828.0 0
342000.0 512765.0 0
346000.0 512827.0 0
350000.0 512791.0 0
354000.0 512873.0 0
358000.0 512884.0 0
362000.0 512966.0 0
366000.0 512945.0 0
370000.0 512994.0 0
374000.0 512964.0 0
378000.0 512935.0 0
382000.0 512862.0 0
386000.0 512882.0 0
390000.0 512927.0 0
394000.0 512959.0 0
398000.0 512933.0 0
102000.0 516926.0 0
106000.0 516948.0 0
110000.0 516919.0 0
114000.0 516875.0 0
118000.0 516855.0 0
122000.0 516927.0 0
126000.0 516952.0 0
130000.0 516973.0 0
134000.0 516925.0 0
138000.0 516949.0 0
142000.0 516869.0 0
146000.0 516862.0 0
150000.0 516786.0 0
154000.0 516823.0 0
158000.0 516765.0 0
162000.0 516822.0 0
166000.0 516765.0 0
170000.0 516808.0 0
174000.0 516765.0 0
178000.0 516791.0 0
182000.0 516765.0 0
186000.0 516777.0 0
190000.0 516765.0 0
194000.0 516768.0 0
198000.0 516765.0 0
202000.0 516765.0 0
206000.0 516765.0 0
210000.0 516765.0 0
214000.0 516765.0 0
218000.0 516765.0 0
222000.0 516765.0 0
226000.0 516765.0 0
230000.0 516765.0 0
234000.0 516765.0 0
238000.0 516765.0 0
242000.0 516765.0 0
246000.0 516765.0 0
250000.0 516765.0 0
254000.0 516765.0 0
258000.0 516765.0 0
262000.0 516765.0 0
266000.0 516765.0 0
270000.0 516765.0 0
274000.0 516765.0 0
278000.0 516765.0 0
282000.0 516765.0 0
286000.0 516765.0 0
290000.0 516765.0 0
294000.0 516765.0 0
298000.0 516765.0 0
302000.0 516765.0 0
306000.0 516768.0 0
310000.0 516765.0 0
314000.0 516777.0 0
318000.0 516765.0 0
322000.0 516791.0 0
326000.0 516765.0 0
330000.0 516808.0 0
334000.0 516765.0 0
338000.0 516822.0 0
342000.0 516765.0 0
346000.0 516823.0 0
350000.0 516786.0 0
354000.0 516862.0 0
358000.0 516869.0 0
362000.0 516949.0 0
366000.0 516925.0 0
370000.0 516973.0 0
374000.0 516952.0 0
378000.0 516927.0 0
382000.0 516855.0 0
386000.0 516875.0 0
390000.0 516919.0 0
394000.0 516948.0 0
398000.0 516926.0 0
102000.0 520918.0 0
106000.0 520938.0 0
110000.0 520910.0 0
114000.0 520868.0 0
118000.0 520848.0 0
122000.0 520919.0 0
126000.0 520940.0 0
130000.0 520955.0 0
134000.0 520907.0 0
138000.0 520934.0 0
142000.0 520856.0 0
146000.0 520853.0 0
150000.0 520781.0 0
154000.0 520818.0 0
158000.0 520765.0 0
162000.0 520816.0 0
166000.0 520765.0 0
170000.0 520803.0 0
174000.0 520765.0 0
178000.0 520787.0 0
182000.0 520765.0 0
186000.0 520774.0 0
190000.0 520765.0 0
194000.0 520767.0 0
198000.0 520765.0 0
202000.0 520765.0 0
206000.0 520765.0 0
210000.0 520765.0 0
214000.0 520765.0 0
218000.0 520765.0 0
222000.0 520765.0 0
226000.0 520765.0 0
230000.0 520765.0 0
234000.0 520765.0 0
238000.0 520765.0 0
242000.0 520765.0 0
246000.0 520765.0 0
250000.0 520765.0 0
254000.0 520765.0 0
258000.0 520765.0 0
262000.0 520765.0 0
266000.0 520765.0 0
270000.0 520765.0 0
274000.0 520765.0 0
278000.0 520765.0 0
282000.0 520765.0 0
286000.0 520765.0 0
290000.0 520765.0 0
294000.0 520765.0 0
298000.0 520765.0 0
302000.0 520765.0 0
306000.0 520767.0 0
310000.0 520765.0 0
314000.0 520774.0 0
318000.0 520765.0 0
322000.0 520787.0 0
326000.0 520765.0 0
330000.0 520803.0 0
334000.0 520765.0 0
338000.0 520816.0 0
342000.0 520765.0 0
346000.0 520818.0 0
350000.0 520781.0 0
354000.0 520853.0 0
358000.0 520856.0 0
362000.0 520934.0 0
366000.0 520907.0 0
370000.0 520955.0 0
374000.0 520940.0 0
378000.0 520919.0 0
382000.0 520848.0 0
386000.0 520868.0 0
390000.0 520910.0 0
394000.0 520938.0 0
398000.0 520918.0 0
102000.0 524911.0 0
106000.0 524928.0 0
110000.0 524902.0 0
114000.0 524861.0 0
118000.0 524841.0 0
122000.0 524911.0 0
126000.0 524928.0 0
130000.0 524938.0 0
134000.0 524891.0 0
138000.0 524919.0 0
142000.0 524844.0 0
146000.0 524844.0 0
150000.0 524778.0 0
154000.0 524814.0 0
158000.0 524765.0 0
162000.0 524811.0 0
166000.0 524765.0 0
170000.0 524798.0 0
174000.0 524765.0 0
178000.0 524783.0 0
182000.0 524765.0 0
186000.0 524772.0 0
190000.0 524765.0 0
194000.0 524767.0 0
198000.0 524765.0 0
202000.0 524765.0 0
206000.0 524765.0 0
210000.0 524765.0 0
214000.0 524765.0 0
218000.0 524765.0 0
222000.0 524765.0 0
226000.0 524765.0 0
230000.0 524765.0 0
234000.0 524765.0 0
238000.0 524765.0 0
242000.0 524765.0 0
246000.0 524765.0 0
250000.0 524765.0 0
254000.0 524765.0 0
258000.0 524765.0 0
262000.0 524765.0 0
266000.0 524765.0 0
270000.0 524765.0 0
274000.0 524765.0 0
278000.0 524765.0 0
282000.0 524765.0 0
286000.0 524765.0 0
290000.0 524765.0 0
294000.0 524765.0 0
298000.0 524765.0 0
302000.0 524765.0 0
306000.0 524767.0 0
310000.0 524765.0 0
314000.0 524772.0 0
318000.0 524765.0 0
322000.0 524783.0 0
326000.0 524765.0 0
330000.0 524798.0 0
334000.0 524765.0 0
338000.0 524811.0 0
342000.0 524765.0 0
346000.0 524814.0 0
350000.0 524778.0 0
354000.0 524844.0 0
358000.0 524844.0 0
362000.0 524919.0 0
366000.0 524891.0 0
370000.0 524938.0 0
374000.0 524928.0 0
378000.0 524911.0 0
382000.0 524841.0 0
386000.0 524861.0 0
390000.0 524902.0 0
394000.0 524928.0 0
398000.0 524911.0 0
102000.0 528904.0 0
106000.0 528919.0 0
110000.0 528895.0 0
114000.0 528855.0 0
118000.0 528834.0 0
122000.0 528903.0 0
126000.0 528916.0 0
130000.0 528923.0 0
134000.0 528877.0 0
138000.0 528905.0 0
142000.0 528834.0 0
146000.0 528836.0 0
150000.0 528775.0 0
154000.0 528810.0 0
158000.0 528765.0 0
162000.0 528806.0 0
166000.0 528765.0 0
170000.0 528793.0 0
174000.0 528765.0 0
178000.0 528780.0 0
182000.0 528765.0 0
186000.0 528770.0 0
190000.0 528765.0 0
194000.0 528766.0 0
198000.0 528765.0 0
202000.0 528765.0 0
206000.0 528765.0 0
210000.0 528765.0 0
214000.0 528765.0 0
218000.0 528765.0 0
222000.0 528765.0 0
226000.0 528765.0 0
230000.0 528765.0 0
234000.0 528765.0 0
238000.0 528765.0 0
242000.0 528765.0 0
246000.0 528765.0 0
250000.0 528765.0 0
254000.0 528765.0 0
258000.0 528765.0 0
262000.0 528765.0 0
266000.0 528765.0 0
270000.0 528765.0 0
274000.0 528765.0 0
278000.0 528765.0 0
282000.0 528765.0 0
286000.0 528765.0 0
290000.0 528765.0 0
294000.0 528765.0 0
298000.0 528765.0 0
302000.0 528765.0 0
306000.0 528766.0 0
310000.0 528765.0 0
314000.0 528770.0 0
318000.0 528765.0 0
322000.0 528780.0 0
326000.0 528765.0 0
330000.0 528793.0 0
334000.0 528765.0 0
338000.0 528806.0 0
342000.0 528765.0 0
346000.0 528810.0 0
350000.0 528775.0 0
354000.0 528836.0 0
358000.0 528834.0 0
362000.0 528905.0 0
366000.0 528877.0 0
370000.0 528923.0 0
374000.0 528916.0 0
378000.0 528903.0 0
382000.0 528834.0 0
386000.0 528855.0 0
390000.0 528895.0 0
394000.0 528919.0 0
398000.0 528904.0 0
102000.0 532897.0 0
106000.0 532910.0 0
110000.0 532887.0 0
114000.0 532849.0 0
118000.0 532828.0 0
122000.0 532896.0 0
126000.0 532905.0 0
130000.0 532910.0 0
134000.0 532864.0 0
138000.0 532893.0 0
142000.0 532824.0 0
146000.0 532829.0 0
150000.0 532773.0 0
154000.0 532807.0 0
158000.0 532765.0 0
162000.0 532802.0 0
166000.0 532765.0 0
170000.0 532789.0 0
174000.0 532765.0 0
178000.0 532777.0 0
182000.0 532765.0 0
186000.0 532769.0 0
190000.0 532765.0 0
194000.0 532766.0 0
198000.0 532765.0 0
202000.0 532765.0 0
206000.0 532765.0 0
210000.0 532765.0 0
214000.0 532765.0 0
218000.0 532765.0 0
222000.0 532765.0 0
226000.0 532765.0 0
230000.0 532765.0 0
234000.0 532765.0 0
238000.0 532765.0 0
242000.0 532765.0 0
246000.0 532765.0 0
250000.0 532765.0 0
254000.0 532765.0 0
258000.0 532765.0 0
262000.0 532765.0 0
266000.0 532765.0 0
270000.0 532765.0 0
274000.0 532765.0 0
278000.0 532765.0 0
282000.0 532765.0 0
286000.0 532765.0 0
290000.0 532765.0 0
294000.0 532765.0 0
298000.0 532765.0 0
302000.0 532765.0 0
306000.0 532766.0 0
310000.0 532765.0 0
314000.0 532769.0 0
318000.0 532765.0 0
322000.0 532777.0 0
326000.0 532765.0 0
330000.0 532789.0 0
334000.0 532765.0 0
338000.0 532802.0 0
342000.0 532765.0 0
346000.0 532807.0 0
350000.0 532773.0 0
354000.0 532829.0 0
358000.0 532824.0 0
362000.0 532893.0 0
366000.0 532864.0 0
370000.0 532910.0 0
374000.0 532905.0 0
378000.0 532896.0 0
382000.0 532828.0 0
386000.0 532849.0 0
390000.0 532887.0 0
394000.0 532910.0 0
398000.0 532897.0 0
102000.0 536890.0 0
106000.0 536901.0 0
110000.0 536880.0 0
114000.0 536843.0 0
118000.0 536823.0 0
122000.0 536888.0 0
126000.0 536894.0 0
130000.0 536898.0 0
134000.0 536853.0 0
138000.0 536881.0 0
142000.0 536816.0 0
146000.0 536822.0 0
150000.0 536771.0 0
154000.0 536803.0 0
158000.0 536765.0 0
162000.0 536798.0 0
166000.0 536765.0 0
170000.0 536786.0 0
174000.0 536765.0 0
178000.0 536775.0 0
182000.0 536765.0 0
186000.0 536768.0 0
190000.0 536765.0 0
194000.0 536766.0 0
198000.0 536765.0 0
202000.0 536765.0 0
206000.0 536765.0 0
210000.0 536765.0 0
214000.0 536765.0 0
218000.0 536765.0 0
222000.0 536765.0 0
226000.0 536765.0 0
230000.0 536765.0 0
234000.0 536765.0 0
238000.0 536765.0 0
242000.0 536765.0 0
246000.0 536765.0 0
250000.0 536765.0 0
254000.0 536765.0 0
258000.0 536765.0 0
262000.0 536765.0 0
266000.0 536765.0 0
270000.0 536765.0 0
274000.0 536765.0 0
278000.0 536765.0 0
282000.0 536765.0 0
286000.0 536765.0 0
290000.0 536765.0 0
294000.0 536765.0 0
298000.0 536765.0 0
302000.0 536765.0 0
306000.0 536766.0 0
310000.0 536765.0 0
314000.0 536768.0 0
318000.0 536765.0 0
322000.0 536775.0 0
326000.0 536765.0 0
330000.0 536786.0 0
334000.0 536765.0 0
338000.0 536798.0 0
342000.0 536765.0 0
346000.0 536803.0 0
350000.0 536771.0 0
354000.0 536822.0 0
358000.0 536816.0 0
362000.0 536881.0 0
366000.0 536853.0 0
370000.0 536898.0 0
374000.0 536894.0 0
378000.0 536888.0 0
382000.0 536823.0 0
386000.0 536843.0 0
390000.0 536880.0 0
394000.0 536901.0 0
398000.0 536890.0 0
102000.0 540884.0 0
106000.0 540892.0 0
110000.0 540874.0 0
114000.0 540838.0 0
118000.0 540818.0 0
122000.0 540880.0 0
126000.0 540883.0 0
130000.0 540887.0 0
134000.0 540842.0 0
138000.0 540871.0 0
142000.0 540809.0 0
146000.0 540817.0 0
150000.0 540770.0 0
154000.0 540800.0 0
158000.0 540765.0 0
162000.0 540794.0 0
166000.0 540765.0 0
170000.0 540783.0 0
174000.0 540765.0 0
178000.0 540773.0 0
182000.0 540765.0 0
186000.0 540767.0 0
190000.0 540765.0 0
194000.0 540765.0 0
198000.0 540765.0 0
202000.0 540765.0 0
206000.0 540765.0 0
210000.0 540765.0 0
214000.0 540765.0 0
218000.0 540765.0 0
222000.0 540765.0 0
226000.0 540765.0 0
230000.0 540765.0 0
234000.0 540765.0 0
238000.0 540765.0 0
242000.0 540765.0 0
246000.0 540765.0 0
250000.0 540765.0 0
254000.0 540765.0 0
258000.0 540765.0 0
262000.0 540765.0 0
266000.0 540765.0 0
270000.0 540765.0 0
274000.0 540765.0 0
278000.0 540765.0 0
282000.0 540765.0 0
286000.0 540765.0 0
290000.0 540765.0 0
294000.0 540765.0 0
298000.0 540765.0 0
302000.0 540765.0 0
306000.0 540765.0 0
310000.0 540765.0 0
314000.0 540767.0 0
318000.0 540765.0 0
322000.0 540773.0 0
326000.0 540765.0 0
330000.0 540783.0 0
334000.0 540765.0 0
338000.0 540794.0 0
342000.0 540765.0 0
346000.0 540800.0 0
350000.0 540770.0 0
354000.0 540817.0 0
358000.0 540809.0 0
362000.0 540871.0 0
366000.0 540842.0 0
370000.0 540887.0 0
374000.0 540883.0 0
378000.0 540880.0 0
382000.0 540818.0 0
386000.0 540838.0 0
390000.0 540874.0 0
394000.0 540892.0 0
398000.0 540884.0 0
102000.0 544878.0 0
106000.0 544884.0 0
110000.0 544867.0 0
114000.0 544833.0 0
118000.0 544813.0 0
122000.0 544873.0 0
126000.0 544873.0 0
130000.0 544877.0 0
134000.0 544833.0 0
138000.0 544861.0 0
142000.0 544803.0 0
146000.0 544812.0 0
150000.0 544768.0 0
154000.0 544797.0 0
158000.0 544765.0 0
162000.0 544791.0 0
166000.0 544765.0 0
170000.0 544780.0 0
174000.0 544765.0 0
178000.0 544771.0 0
182000.0 544765.0 0
186000.0 544767.0 0
190000.0 544765.0 0
194000.0 544765.0 0
198000.0 544765.0 0
202000.0 544765.0 0
206000.0 544765.0 0
210000.0 544765.0 0
214000.0 544765.0 0
218000.0 544765.0 0
222000.0 544765.0 0
226000.0 544765.0 0
230000.0 544765.0 0
234000.0 544765.0 0
238000.0 544765.0 0
242000.0 544765.0 0
246000.0 544765.0 0
250000.0 544765.0 0
254000.0 544765.0 0
258000.0 544765.0 0
262000.0 544765.0 0
266000.0 544765.0 0
270000.0 544765.0 0
274000.0 544765.0 0
278000.0 544765.0 0
282000.0 544765.0 0
286000.0 544765.0 0
290000.0 544765.0 0
294000.0 544765.0 0
298000.0 544765.0 0
302000.0 544765.0 0
306000.0 544765.0 0
310000.0 544765.0 0
314000.0 544767.0 0
318000.0 544765.0 0
322000.0 544771.0 0
326000.0 544765.0 0
330000.0 544780.0 0
334000.0 544765.0 0
338000.0 544791.0 0
342000.0 544765.0 0
346000.0 544797.0 0
350000.0 544768.0 0
354000.0 544812.0 0
358000.0 544803.0 0
362000.0 544861.0 0
366000.0 544833.0 0
370000.0 544877.0 0
374000.0 544873.0 0
378000.0 544873.0 0
382000.0 544813.0 0
386000.0 544833.0 0
390000.0 544867.0 0
394000.0 544884.0 0
398000.0 544878.0 0
102000.0 548872.0 0
106000.0 548876.0 0
110000.0 548861.0 0
114000.0 548829.0 0
118000.0 548809.0 0
122000.0 548866.0 0
126000.0 548863.0 0
130000.0 548868.0 0
134000.0 548825.0 0
138000.0 548852.0 0
142000.0 548797.0 0
146000.0 548807.0 0
150000.0 548768.0 0
154000.0 548794.0 0
158000.0 548765.0 0
162000.0 548788.0 0
166000.0 548765.0 0
170000.0 548778.0 0
174000.0 548765.0 0
178000.0 548770.0 0
182000.0 548765.0 0
186000.0 548766.0 0
190000.0 548765.0 0
194000.0 548765.0 0
198000.0 548765.0 0
202000.0 548765.0 0
206000.0 548765.0 0
210000.0 548765.0 0
214000.0 548765.0 0
218000.0 548765.0 0
222000.0 548765.0 0
226000.0 548765.0 0
230000.0 548765.0 0
234000.0 548765.0 0
238000.0 548765.0 0
242000.0 548765.0 0
246000.0 548765.0 0
250000.0 548765.0 0
254000.0 548765.0 0
258000.0 548765.0 0
262000.0 548765.0 0
266000.0 548765.0 0
270000.0 548765.0 0
274000.0 548765.0 0
278000.0 548765.0 0
282000.0 548765.0 0
286000.0 548765.0 0
290000.0 548765.0 0
294000.0 548765.0 0
298000.0 548765.0 0
302000.0 548765.0 0
306000.0 548765.0 0
310000.0 548765.0 0
314000.0 548766.0 0
318000.0 548765.0 0
322000.0 548770.0 0
326000.0 548765.0 0
330000.0 548778.0 0
334000.0 548765.0 0
338000.0 548788.0 0
342000.0 548765.0 0
346000.0 548794.0 0
350000.0 548768.0 0
354000.0 548807.0 0
358000.0 548797.0 0
362000.0 548852.0 0
366000.0 548825.0 0
370000.0 548868.0 0
374000.0 548863.0 0
378000.0 548866.0 0
382000.0 548809.0 0
386000.0 548829.0 0
390000.0 548861.0 0
394000.0 548876.0 0
398000.0 548872.0 0
102000.0 552866.0 0
106000.0 552869.0 0
110000.0 552855.0 0
114000.0 552825.0 0
118000.0 552805.0 0
122000.0 552859.0 0
126000.0 552854.0 0
130000.0 552859.0 0
134000.0 552817.0 0
138000.0 552843.0 0
142000.0 552792.0 0
146000.0 552803.0 0
150000.0 552767.0 0
154000.0 552791.0 0
158000.0 552765.0 0
162000.0 552785.0 0
166000.0 552765.0 0
170000.0 552776.0 0
174000.0 552765.0 0
178000.0 552769.0 0
182000.0 552765.0 0
186000.0 552766.0 0
190000.0 552765.0 0
194000.0 552765.0 0
198000.0 552765.0 0
202000.0 552765.0 0
206000.0 552765.0 0
210000.0 552765.0 0
214000.0 552765.0 0
218000.0 552765.0 0
222000.0 552765.0 0
226000.0 552765.0 0
230000.0 552765.0 0
234000.0 552765.0 0
238000.0 552765.0 0
242000.0 552765.0 0
246000.0 552765.0 0
250000.0 552765.0 0
254000.0 552765.0 0
258000.0 552765.0 0
262000.0 552765.0 0
266000.0 552765.0 0
270000.0 552765.0 0
274000.0 552765.0 0
278000.0 552765.0 0
282000.0 552765.0 0
286000.0 552765.0 0
290000.0 552765.0 0
294000.0 552765.0 0
298000.0 552765.0 0
302000.0 552765.0 0
306000.0 552765.0 0
310000.0 552765.0 0
314000.0 552766.0 0
318000.0 552765.0 0
322000.0 552769.0 0
326000.0 552765.0 0
330000.0 552776.0 0
334000.0 552765.0 0
338000.0 552785.0 0
342000.0 552765.0 0
346000.0 552791.0 0
350000.0 552767.0 0
354000.0 552803.0 0
358000.0 552792.0 0
362000.0 552843.0 0
366000.0 552817.0 0
370000.0 552859.0 0
374000.0 552854.0 0
378000.0 552859.0 0
382000.0 552805.0 0
386000.0 552825.0 0
390000.0 552855.0 0
394000.0 552869.0 0
398000.0 552866.0 0
102000.0 556860.0 0
106000.0 556862.0 0
110000.0 556849.0 0
114000.0 556821.0 0
118000.0 556802.0 0
122000.0 556852.0 0
126000.0 556846.0 0
130000.0 556851.0 0
134000.0 556811.0 0
138000.0 556836.0 0
142000.0 556788.0 0
146000.0 556799.0 0
150000.0 556767.0 0
154000.0 556788.0 0
158000.0 556765.0 0
162000.0 556782.0 0
166000.0 556765.0 0
170000.0 556774.0 0
174000.0 556765.0 0
178000.0 556768.0 0
182000.0 556765.0 0
186000.0 556766.0 0
190000.0 556765.0 0
194000.0 556765.0 0
198000.0 556765.0 0
202000.0 556765.0 0
206000.0 556765.0 0
210000.0 556765.0 0
214000.0 556765.0 0
218000.0 556765.0 0
222000.0 556765.0 0
226000.0 556765.0 0
230000.0 556765.0 0
234000.0 556765.0 0
238000.0 556765.0 0
242000.0 556765.0 0
246000.0 556765.0 0
250000.0 556765.0 0
254000.0 556765.0 0
258000.0 556765.0 0
262000.0 556765.0 0
266000.0 556765.0 0
270000.0 556765.0 0
274000.0 556765.0 0
278000.0 556765.0 0
282000.0 556765.0 0
286000.0 556765.0 0
290000.0 556765.0 0
294000.0 556765.0 0
298000.0 556765.0 0
302000.0 556765.0 0
306000.0 556765.0 0
310000.0 556765.0 0
314000.0 556766.0 0
318000.0 556765.0 0
322000.0 556768.0 0
326000.0 556765.0 0
330000.0 556774.0 0
334000.0 556765.0 0
338000.0 556782.0 0
342000.0 556765.0 0
346000.0 556788.0 0
350000.0 556767.0 0
354000.0 556799.0 0
358000.0 556788.0 0
362000.0 556836.0 0
366000.0 556811.0 0
370000.0 556851.0 0
374000.0 556846.0 0
378000.0 556852.0 0
382000.0 556802.0 0
386000.0 556821.0 0
390000.0 556849.0 0
394000.0 556862.0 0
398000.0 556860.0 0
102000.0 560855.0 0
106000.0 560855.0 0
110000.0 560843.0 0
114000.0 560817.0 0
118000.0 560799.0 0
122000.0 560846.0 0
126000.0 560838.0 0
130000.0 560844.0 0
134000.0 560805.0 0
138000.0 560829.0 0
142000.0 560785.0 0
146000.0 560795.0 0
150000.0 560766.0 0
154000.0 560786.0 0
158000.0 560765.0 0
162000.0 560780.0 0
166000.0 560765.0 0
170000.0 560773.0 0
174000.0 560765.0 0
178000.0 560768.0 0
182000.0 560765.0 0
186000.0 560766.0 0
190000.0 560765.0 0
194000.0 560765.0 0
198000.0 560765.0 0
202000.0 560765.0 0
206000.0 560765.0 0
210000.0 560765.0 0
214000.0 560765.0 0
218000.0 560765.0 0
222000.0 560765.0 0
226000.0 560765.0 0
230000.0 560765.0 0
234000.0 560765.0 0
238000.0 560765.0 0
242000.0 560765.0 0
246000.0 560765.0 0
250000.0 560765.0 0
254000.0 560765.0 0
258000.0 560765.0 0
262000.0 560765.0 0
266000.0 560765.0 0
270000.0 560765.0 0
274000.0 560765.0 0
278000.0 560765.0 0
282000.0 560765.0 0
286000.0 560765.0 0
290000.0 560765.0 0
294000.0 560765.0 0
298000.0 560765.0 0
302000.0 560765.0 0
306000.0 560765.0 0
310000.0 560765.0 0
314000.0 560766.0 0
318000.0 560765.0 0
322000.0 560768.0 0
326000.0 560765.0 0
330000.0 560773.0 0
334000.0 560765.0 0
338000.0 560780.0 0
342000.0 560765.0 0
346000.0 560786.0 0
350000.0 560766.0 0
354000.0 560795.0 0
358000.0 560785.0 0
362000.0 560829.0 0
366000.0 560805.0 0
370000.0 560844.0 0
374000.0 560838.0 0
378000.0 560846.0 0
382000.0 560799.0 0
386000.0 560817.0 0
390000.0 560843.0 0
394000.0 560855.0 0
398000.0 560855.0 0
102000.0 564850.0 0
106000.0 564849.0 0
110000.0 564838.0 0
114000.0 564814.0 0
118000.0 564796.0 0
122000.0 564840.0 0
126000.0 564831.0 0
130000.0 564837.0 0
134000.0 564799.0 0
138000.0 564822.0 0
142000.0 564782.0 0
146000.0 564792.0 0
150000.0 564766.0 0
154000.0 564784.0 0
158000.0 564765.0 0
162000.0 564778.0 0
166000.0 564765.0 0
170000.0 564771.0 0
174000.0 564765.0 0
178000.0 564767.0 0
182000.0 564765.0 0
186000.0 564765.0 0
190000.0 564765.0 0
194000.0 564765.0 0
198000.0 564765.0 0
202000.0 564765.0 0
206000.0 564765.0 0
210000.0 564765.0 0
214000.0 564765.0 0
218000.0 564765.0 0
222000.0 564765.0 0
226000.0 564765.0 0
230000.0 564765.0 0
234000.0 564765.0 0
238000.0 564765.0 0
242000.0 564765.0 0
246000.0 564765.0 0
250000.0 564765.0 0
254000.0 564765.0 0
258000.0 564765.0 0
262000.0 564765.0 0
266000.0 564765.0 0
270000.0 564765.0 0
274000.0 564765.0 0
278000.0 564765.0 0
282000.0 564765.0 0
286000.0 564765.0 0
290000.0 564765.0 0
294000.0 564765.0 0
298000.0 564765.0 0
302000.0 564765.0 0
306000.0 564765.0 0
310000.0 564765.0 0
314000.0 564765.0 0
318000.0 564765.0 0
322000.0 564767.0 0
326000.0 564765.0 0
330000.0 564771.0 0
334000.0 564765.0 0
338000.0 564778.0 0
342000.0 564765.0 0
346000.0 564784.0 0
350000.0 564766.0 0
354000.0 564792.0 0
358000.0 564782.0 0
362000.0 564822.0 0
366000.0 564799.0 0
370000.0 564837.0 0
374000.0 564831.0 0
378000.0 564840.0 0
382000.0 564796.0 0
386000.0 564814.0 0
390000.0 564838.0 0
394000.0 564849.0 0
398000.0 564850.0 0
110000.0 568833.0 0
114000.0 568811.0 0
118000.0 568794.0 0
126000.0 568824.0 0
130000.0 568831.0 0
134000.0 568795.0 0
138000.0 568816.0 0
142000.0 568779.0 0
146000.0 568789.0 0
150000.0 568766.0 0
154000.0 568782.0 0
158000.0 568765.0 0
162000.0 568776.0 0
166000.0 568765.0 0
170000.0 568770.0 0
174000.0 568765.0 0
178000.0 568767.0 0
182000.0 568765.0 0
186000.0 568765.0 0
190000.0 568765.0 0
194000.0 568765.0 0
198000.0 568765.0 0
202000.0 568765.0 0
206000.0 568765.0 0
210000.0 568765.0 0
214000.0 568765.0 0
218000.0 568765.0 0
222000.0 568765.0 0
226000.0 568765.0 0
230000.0 568765.0 0
234000.0 568765.0 0
238000.0 568765.0 0
242000.0 568765.0 0
246000.0 568765.0 0
250000.0 568765.0 0
254000.0 568765.0 0
258000.0 568765.0 0
262000.0 568765.0 0
266000.0 568765.0 0
270000.0 568765.0 0
274000.0 568765.0 0
278000.0 568765.0 0
282000.0 568765.0 0
286000.0 568765.0 0
290000.0 568765.0 0
294000.0 568765.0 0
298000.0 568765.0 0
302000.0 568765.0 0
306000.0 568765.0 0
310000.0 568765.0 0
314000.0 568765.0 0
318000.0 568765.0 0
322000.0 568767.0 0
326000.0 568765.0 0
330000.0 568770.0 0
334000.0 568765.0 0
338000.0 568776.0 0
342000.0 568765.0 0
346000.0 568782.0 0
350000.0 568766.0 0
354000.0 568789.0 0
358000.0 568779.0 0
362000.0 568816.0 0
366000.0 568795.0 0
370000.0 568831.0 0
374000.0 568824.0 0
382000.0 568794.0 0
386000.0 568811.0 0
390000.0 568833.0 0
102000.0 568845.0 0
106000.0 568843.0 0
122000.0 568835.0 0
378000.0 568835.0 0
394000.0 568843.0 0
398000.0 568845.0 0
102000.0 572840.0 0
106000.0 572838.0 0
110000.0 572828.0 0
114000.0 572808.0 0
118000.0 572791.0 0
122000.0 572829.0 0
126000.0 572818.0 0
130000.0 572825.0 0
134000.0 572791.0 0
138000.0 572811.0 0
142000.0 572777.0 0
146000.0 572787.0 0
150000.0 572766.0 0
154000.0 572780.0 0
158000.0 572765.0 0
162000.0 572775.0 0
166000.0 572765.0 0
170000.0 572769.0 0
174000.0 572765.0 0
178000.0 572766.0 0
182000.0 572765.0 0
186000.0 572765.0 0
190000.0 572765.0 0
194000.0 572765.0 0
198000.0 572765.0 0
202000.0 572765.0 0
206000.0 572765.0 0
210000.0 572765.0 0
214000.0 572765.0 0
218000.0 572765.0 0
222000.0 572765.0 0
226000.0 572765.0 0
230000.0 572765.0 0
234000.0 572765.0 0
238000.0 572765.0 0
242000.0 572765.0 0
246000.0 572765.0 0
250000.0 572765.0 0
254000.0 572765.0 0
258000.0 572765.0 0
262000.0 572765.0 0
266000.0 572765.0 0
270000.0 572765.0 0
274000.0 572765.0 0
278000.0 572765.0 0
282000.0 572765.0 0
286000.0 572765.0 0
290000.0 572765.0 0
294000.0 572765.0 0
298000.0 572765.0 0
302000.0 572765.0 0
306000.0 572765.0 0
310000.0 572765.0 0
314000.0 572765.0 0
318000.0 572765.0 0
322000.0 572766.0 0
326000.0 572765.0 0
330000.0 572769.0 0
334000.0 572765.0 0
338000.0 572775.0 0
342000.0 572765.0 0
346000.0 572780.0 0
350000.0 572766.0 0
354000.0 572787.0 0
358000.0 572777.0 0
362000.0 572811.0 0
366000.0 572791.0 0
370000.0 572825.0 0
374000.0 572818.0 0
378000.0 572829.0 0
382000.0 572791.0 0
386000.0 572808.0 0
390000.0 572828.0 0
394000.0 572838.0 0
398000.0 572840.0 0
102000.0 576836.0 0
106000.0 576833.0 0
110000.0 576824.0 0
114000.0 576805.0 0
118000.0 576789.0 0
122000.0 576824.0 0
126000.0 576812.0 0
130000.0 576819.0 0
134000.0 576787.0 0
138000.0 576806.0 0
142000.0 576775.0 0
146000.0 576784.0 0
150000.0 576765.0 0
154000.0 576778.0 0
158000.0 576765.0 0
162000.0 576773.0 0
166000.0 576765.0 0
170000.0 576769.0 0
174000.0 576765.0 0
178000.0 576766.0 0
182000.0 576765.0 0
186000.0 576765.0 0
190000.0 576765.0 0
194000.0 576765.0 0
198000.0 576765.0 0
202000.0 576765.0 0
206000.0 576765.0 0
210000.0 576765.0 0
214000.0 576765.0 0
218000.0 576765.0 0
222000.0 576765.0 0
226000.0 576765.0 0
230000.0 576765.0 0
234000.0 576765.0 0
238000.0 576765.0 0
242000.0 576765.0 0
246000.0 576765.0 0
250000.0 576765.0 0
254000.0 576765.0 0
258000.0 576765.0 0
262000.0 576765.0 0
266000.0 576765.0 0
270000.0 576765.0 0
274000.0 576765.0 0
278000.0 576765.0 0
282000.0 576765.0 0
286000.0 576765.0 0
290000.0 576765.0 0
294000.0 576765.0 0
298000.0 576765.0 0
302000.0 576765.0 0
306000.0 576765.0 0
310000.0 576765.0 0
314000.0 576765.0 0
318000.0 576765.0 0
322000.0 576766.0 0
326000.0 576765.0 0
330000.0 576769.0 0
334000.0 576765.0 0
338000.0 576773.0 0
342000.0 576765.0 0
346000.0 576778.0 0
350000.0 576765.0 0
354000.0 576784.0 0
358000.0 576775.0 0
362000.0 576806.0 0
366000.0 576787.0 0
370000.0 576819.0 0
374000.0 576812.0 0
378000.0 576824.0 0
382000.0 576789.0 0
386000.0 576805.0 0
390000.0 576824.0 0
394000.0 576833.0 0
398000.0 576836.0 0
102000.0 580832.0 0
106000.0 580828.0 0
110000.0 580820.0 0
114000.0 580803.0 0
118000.0 580787.0 0
122000.0 580820.0 0
126000.0 580807.0 0
130000.0 580814.0 0
134000.0 580784.0 0
138000.0 580802.0 0
142000.0 580773.0 0
146000.0 580782.0 0
150000.0 580765.0 0
154000.0 580777.0 0
158000.0 580765.0 0
162000.0 580772.0 0
166000.0 580765.0 0
170000.0 580768.0 0
174000.0 580765.0 0
178000.0 580766.0 0
182000.0 580765.0 0
186000.0 580765.0 0
190000.0 580765.0 0
194000.0 580765.0 0
198000.0 580765.0 0
202000.0 580765.0 0
206000.0 580765.0 0
210000.0 580765.0 0
214000.0 580765.0 0
218000.0 580765.0 0
222000.0 580765.0 0
226000.0 580765.0 0
230000.0 580765.0 0
234000.0 580765.0 0
238000.0 580765.0 0
242000.0 580765.0 0
246000.0 580765.0 0
250000.0 580765.0 0
254000.0 580765.0 0
258000.0 580765.0 0
262000.0 580765.0 0
266000.0 580765.0 0
270000.0 580765.0 0
274000.0 580765.0 0
278000.0 580765.0 0
282000.0 580765.0 0
286000.0 580765.0 0
290000.0 580765.0 0
294000.0 580765.0 0
298000.0 580765.0 0
302000.0 580765.0 0
306000.0 580765.0 0
310000.0 580765.0 0
314000.0 580765.0 0
318000.0 580765.0 0
322000.0 580766.0 0
326000.0 580765.0 0
330000.0 580768.0 0
334000.0 580765.0 0
338000.0 580772.0 0
342000.0 580765.0 0
346000.0 580777.0 0
350000.0 580765.0 0
354000.0 580782.0 0
358000.0 580773.0 0
362000.0 580802.0 0
366000.0 580784.0 0
370000.0 580814.0 0
374000.0 580807.0 0
378000.0 580820.0 0
382000.0 580787.0 0
386000.0 580803.0 0
390000.0 580820.0 0
394000.0 580828.0 0
398000.0 580832.0 0
102000.0 584828.0 0
106000.0 584824.0 0
110000.0 584816.0 0
114000.0 584800.0 0
118000.0 584786.0 0
122000.0 584816.0 0
126000.0 584802.0 0
130000.0 584810.0 0
134000.0 584781.0 0
138000.0 584798.0 0
142000.0 584772.0 0
146000.0 584780.0 0
150000.0 584765.0 0
154000.0 584775.0 0
158000.0 584765.0 0
162000.0 584771.0 0
166000.0 584765.0 0
170000.0 584768.0 0
174000.0 584765.0 0
178000.0 584766.0 0
182000.0 584765.0 0
186000.0 584765.0 0
190000.0 584765.0 0
194000.0 584765.0 0
198000.0 584765.0 0
202000.0 584765.0 0
206000.0 584765.0 0
210000.0 584765.0 0
214000.0 584765.0 0
218000.0 584765.0 0
222000.0 584765.0 0
226000.0 584765.0 0
230000.0 584765.0 0
234000.0 584765.0 0
238000.0 584765.0 0
242000.0 584765.0 0
246000.0 584765.0 0
250000.0 584765.0 0
254000.0 584765.0 0
258000.0 584765.0 0
262000.0 584765.0 0
266000.0 584765.0 0
270000.0 584765.0 0
274000.0 584765.0 0
278000.0 584765.0 0
282000.0 584765.0 0
286000.0 584765.0 0
290000.0 584765.0 0
294000.0 584765.0 0
298000.0 584765.0 0
302000.0 584765.0 0
306000.0 584765.0 0
310000.0 584765.0 0
314000.0 584765.0 0
318000.0 584765.0 0
322000.0 584766.0 0
326000.0 584765.0 0
330000.0 584768.0 0
334000.0 584765.0 0
338000.0 584771.0 0
342000.0 584765.0 0
346000.0 584775.0 0
350000.0 584765.0 0
354000.0 584780.0 0
358000.0 584772.0 0
362000.0 584798.0 0
366000.0 584781.0 0
370000.0 584810.0 0
374000.0 584802.0 0
378000.0 584816.0 0
382000.0 584786.0 0
386000.0 584800.0 0
390000.0 584816.0 0
394000.0 584824.0 0
398000.0 584828.0 0
102000.0 588824.0 0
106000.0 588820.0 0
110000.0 588812.0 0
114000.0 588798.0 0
118000.0 588784.0 0
122000.0 588812.0 0
126000.0 588798.0 0
130000.0 588806.0 0
134000.0 588779.0 0
138000.0 588795.0 0
142000.0 588771.0 0
146000.0 588779.0 0
150000.0 588765.0 0
154000.0 588774.0 0
158000.0 588765.0 0
162000.0 588770.0 0
166000.0 588765.0 0
170000.0 588767.0 0
174000.0 588765.0 0
178000.0 588766.0 0
182000.0 588765.0 0
186000.0 588765.0 0
190000.0 588765.0 0
194000.0 588765.0 0
198000.0 588765.0 0
202000.0 588765.0 0
206000.0 588765.0 0
210000.0 588765.0 0
214000.0 588765.0 0
218000.0 588765.0 0
222000.0 588765.0 0
226000.0 588765.0 0
230000.0 588765.0 0
234000.0 588765.0 0
238000.0 588765.0 0
242000.0 588765.0 0
246000.0 588765.0 0
250000.0 588765.0 0
254000.0 588765.0 0
258000.0 588765.0 0
262000.0 588765.0 0
266000.0 588765.0 0
270000.0 588765.0 0
274000.0 588765.0 0
278000.0 588765.0 0
282000.0 588765.0 0
286000.0 588765.0 0
290000.0 588765.0 0
294000.0 588765.0 0
298000.0 588765.0 0
302000.0 588765.0 0
306000.0 588765.0 0
310000.0 588765.0 0
314000.0 588765.0 0
318000.0 588765.0 0
322000.0 588766.0 0
326000.0 588765.0 0
330000.0 588767.0 0
334000.0 588765.0 0
338000.0 588770.0 0
342000.0 588765.0 0
346000.0 588774.0 0
350000.0 588765.0 0
354000.0 588779.0 0
358000.0 588771.0 0
362000.0 588795.0 0
366000.0 588779.0 0
370000.0 588806.0 0
374000.0 588798.0 0
378000.0 588812.0 0
382000.0 588784.0 0
386000.0 588798.0 0
390000.0 588812.0 0
394000.0 588820.0 0
398000.0 588824.0 0
102000.0 592820.0 0
106000.0 592817.0 0
110000.0 592809.0 0
114000.0 592796.0 0
118000.0 592783.0 0
122000.0 592808.0 0
126000.0 592794.0 0
130000.0 592802.0 0
134000.0 592777.0 0
138000.0 592792.0 0
142000.0 592770.0 0
146000.0 592777.0 0
150000.0 592765.0 0
154000.0 592773.0 0
158000.0 592765.0 0
162000.0 592770.0 0
166000.0 592765.0 0
170000.0 592767.0 0
174000.0 592765.0 0
178000.0 592765.0 0
182000.0 592765.0 0
186000.0 592765.0 0
190000.0 592765.0 0
194000.0 592765.0 0
198000.0 592765.0 0
202000.0 592765.0 0
206000.0 592765.0 0
210000.0 592765.0 0
214000.0 592765.0 0
218000.0 592765.0 0
222000.0 592765.0 0
226000.0 592765.0 0
230000.0 592765.0 0
234000.0 592765.0 0
238000.0 592765.0 0
242000.0 592765.0 0
246000.0 592765.0 0
250000.0 592765.0 0
254000.0 592765.0 0
258000.0 592765.0 0
262000.0 592765.0 0
266000.0 592765.0 0
270000.0 592765.0 0
274000.0 592765.0 0
278000.0 592765.0 0
282000.0 592765.0 0
286000.0 592765.0 0
290000.0 592765.0 0
294000.0 592765.0 0
298000.0 592765.0 0
302000.0 592765.0 0
306000.0 592765.0 0
310000.0 592765.0 0
314000.0 592765.0 0
318000.0 592765.0 0
322000.0 592765.0 0
326000.0 592765.0 0
330000.0 592767.0 0
334000.0 592765.0 0
338000.0 592770.0 0
342000.0 592765.0 0
346000.0 592773.0 0
350000.0 592765.0 0
354000.0 592777.0 0
358000.0 592770.0 0
362000.0 592792.0 0
366000.0 592777.0 0
370000.0 592802.0 0
374000.0 592794.0 0
378000.0 592808.0 0
382000.0 592783.0 0
386000.0 592796.0 0
390000.0 592809.0 0
394000.0 592817.0 0
398000.0 592820.0 0
102000.0 596817.0 0
106000.0 596813.0 0
110000.0 596806.0 0
114000.0 596794.0 0
118000.0 596781.0 0
122000.0 596804.0 0
126000.0 596791.0 0
130000.0 596798.0 0
134000.0 596775.0 0
138000.0 596789.0 0
142000.0 596769.0 0
146000.0 596776.0 0
150000.0 596765.0 0
154000.0 596772.0 0
158000.0 596765.0 0
162000.0 596769.0 0
166000.0 596765.0 0
170000.0 596766.0 0
174000.0 596765.0 0
178000.0 596765.0 0
182000.0 596765.0 0
186000.0 596765.0 0
190000.0 596765.0 0
194000.0 596765.0 0
198000.0 596765.0 0
202000.0 596765.0 0
206000.0 596765.0 0
210000.0 596765.0 0
214000.0 596765.0 0
218000.0 596765.0 0
222000.0 596765.0 0
226000.0 596765.0 0
230000.0 596765.0 0
234000.0 596765.0 0
238000.0 596765.0 0
242000.0 596765.0 0
246000.0 596765.0 0
250000.0 596765.0 0
254000.0 596765.0 0
258000.0 596765.0 0
262000.0 596765.0 0
266000.0 596765.0 0
270000.0 596765.0 0
274000.0 596765.0 0
278000.0 596765.0 0
282000.0 596765.0 0
286000.0 596765.0 0
290000.0 596765.0 0
294000.0 596765.0 0
298000.0 596765.0 0
302000.0 596765.0 0
306000.0 596765.0 0
310000.0 596765.0 0
314000.0 596765.0 0
318000.0 596765.0 0
322000.0 596765.0 0
326000.0 596765.0 0
330000.0 596766.0 0
334000.0 596765.0 0
338000.0 596769.0 0
342000.0 596765.0 0
346000.0 596772.0 0
350000.0 596765.0 0
354000.0 596776.0 0
358000.0 596769.0 0
362000.0 596789.0 0
366000.0 596775.0 0
370000.0 596798.0 0
374000.0 596791.0 0
378000.0 596804.0 0
382000.0 596781.0 0
386000.0 596794.0 0
390000.0 596806.0 0
394000.0 596813.0 0
398000.0 596817.0 0
102000.0 600814.0 0
106000.0 600810.0 0
110000.0 600803.0 0
114000.0 600792.0 0
118000.0 600780.0 0
122000.0 600801.0 0
126000.0 600788.0 0
130000.0 600795.0 0
134000.0 600773.0 0
138000.0 600786.0 0
142000.0 600768.0 0
146000.0 600775.0 0
150000.0 600765.0 0
154000.0 600771.0 0
158000.0 600765.0 0
162000.0 600768.0 0
166000.0 600765.0 0
170000.0 600766.0 0
174000.0 600765.0 0
178000.0 600765.0 0
182000.0 600765.0 0
186000.0 600765.0 0
190000.0 600765.0 0
194000.0 600765.0 0
198000.0 600765.0 0
202000.0 600765.0 0
206000.0 600765.0 0
210000.0 600765.0 0
214000.0 600765.0 0
218000.0 600765.0 0
222000.0 600765.0 0
226000.0 600765.0 0
230000.0 600765.0 0
234000.0 600765.0 0
238000.0 600765.0 0
242000.0 600765.0 0
246000.0 600765.0 0
250000.0 600765.0 0
254000.0 600765.0 0
258000.0 600765.0 0
262000.0 600765.0 0
266000.0 600765.0 0
270000.0 600765.0 0
274000.0 600765.0 0
278000.0 600765.0 0
282000.0 600765.0 0
286000.0 600765.0 0
290000.0 600765.0 0
294000.0 600765.0 0
298000.0 600765.0 0
302000.0 600765.0 0
306000.0 600765.0 0
310000.0 600765.0 0
314000.0 600765.0 0
318000.0 600765.0 0
322000.0 600765.0 0
326000.0 600765.0 0
330000.0 600766.0 0
334000.0 600765.0 0
338000.0 600768.0 0
342000.0 600765.0 0
346000.0 600771.0 0
350000.0 600765.0 0
354000.0 600775.0 0
358000.0 600768.0 0
362000.0 600786.0 0
366000.0 600773.0 0
370000.0 600795.0 0
374000.0 600788.0 0
378000.0 600801.0 0
382000.0 600780.0 0
386000.0 600792.0 0
390000.0 600803.0 0
394000.0 600810.0 0
398000.0 600814.0 0
102000.0 604812.0 0
106000.0 604808.0 0
110000.0 604800.0 0
114000.0 604791.0 0
118000.0 604779.0 0
122000.0 604798.0 0
126000.0 604785.0 0
130000.0 604792.0 0
134000.0 604772.0 0
138000.0 604784.0 0
142000.0 604768.0 0
146000.0 604774.0 0
150000.0 604765.0 0
154000.0 604771.0 0
158000.0 604765.0 0
162000.0 604768.0 0
166000.0 604765.0 0
170000.0 604766.0 0
174000.0 604765.0 0
178000.0 604765.0 0
182000.0 604765.0 0
186000.0 604765.0 0
190000.0 604765.0 0
194000.0 604765.0 0
198000.0 604765.0 0
202000.0 604765.0 0
206000.0 604765.0 0
210000.0 604765.0 0
214000.0 604765.0 0
218000.0 604765.0 0
222000.0 604765.0 0
226000.0 604765.0 0
230000.0 604765.0 0
234000.0 604765.0 0
238000.0 604765.0 0
242000.0 604765.0 0
246000.0 604765.0 0
250000.0 604765.0 0
254000.0 604765.0 0
258000.0 604765.0 0
262000.0 604765.0 0
266000.0 604765.0 0
270000.0 604765.0 0
274000.0 604765.0 0
278000.0 604765.0 0
282000.0 604765.0 0
286000.0 604765.0 0
290000.0 604765.0 0
294000.0 604765.0 0
298000.0 604765.0 0
302000.0 604765.0 0
306000.0 604765.0 0
310000.0 604765.0 0
314000.0 604765.0 0
318000.0 604765.0 0
322000.0 604765.0 0
326000.0 604765.0 0
330000.0 604766.0 0
334000.0 604765.0 0
338000.0 604768.0 0
342000.0 604765.0 0
346000.0 604771.0 0
350000.0 604765.0 0
354000.0 604774.0 0
358000.0 604768.0 0
362000.0 604784.0 0
366000.0 604772.0 0
370000.0 604792.0 0
374000.0 604785.0 0
378000.0 604798.0 0
382000.0 604779.0 0
386000.0 604791.0 0
390000.0 604800.0 0
394000.0 604808.0 0
398000.0 604812.0 0
102000.0 608809.0 0
106000.0 608805.0 0
110000.0 608798.0 0
114000.0 608789.0 0
118000.0 608778.0 0
122000.0 608796.0 0
126000.0 608783.0 0
130000.0 608790.0 0
134000.0 608771.0 0
138000.0 608782.0 0
142000.0 608767.0 0
146000.0 608773.0 0
150000.0 608765.0 0
154000.0 608770.0 0
158000.0 608765.0 0
162000.0 608767.0 0
166000.0 608765.0 0
170000.0 608766.0 0
174000.0 608765.0 0
178000.0 608765.0 0
182000.0 608765.0 0
186000.0 608765.0 0
190000.0 608765.0 0
194000.0 608765.0 0
198000.0 608765.0 0
202000.0 608765.0 0
206000.0 608765.0 0
210000.0 608765.0 0
214000.0 608765.0 0
218000.0 608765.0 0
222000.0 608765.0 0
226000.0 608765.0 0
230000.0 608765.0 0
234000.0 608765.0 0
238000.0 608765.0 0
242000.0 608765.0 0
246000.0 608765.0 0
250000.0 608765.0 0
254000.0 608765.0 0
258000.0 608765.0 0
262000.0 608765.0 0
266000.0 608765.0 0
270000.0 608765.0 0
274000.0 608765.0 0
278000.0 608765.0 0
282000.0 608765.0 0
286000.0 608765.0 0
290000.0 608765.0 0
294000.0 608765.0 0
298000.0 608765.0 0
302000.0 608765.0 0
306000.0 608765.0 0
310000.0 608765.0 0
314000.0 608765.0 0
318000.0 608765.0 0
322000.0 608765.0 0
326000.0 608765.0 0
330000.0 608766.0 0
334000.0 608765.0 0
338000.0 608767.0 0
342000.0 608765.0 0
346000.0 608770.0 0
350000.0 608765.0 0
354000.0 608773.0 0
358000.0 608767.0 0
362000.0 608782.0 0
366000.0 608771.0 0
370000.0 608790.0 0
374000.0 608783.0 0
378000.0 608796.0 0
382000.0 608778.0 0
386000.0 608789.0 0
390000.0 608798.0 0
394000.0 608805.0 0
398000.0 608809.0 0
102000.0 612807.0 0
106000.0 612803.0 0
110000.0 612796.0 0
114000.0 612788.0 0
118000.0 612777.0 0
122000.0 612794.0 0
126000.0 612781.0 0
130000.0 612788.0 0
134000.0 612770.0 0
138000.0 612781.0 0
142000.0 612767.0 0
146000.0 612772.0 0
150000.0 612765.0 0
154000.0 612769.0 0
158000.0 612765.0 0
162000.0 612767.0 0
166000.0 612765.0 0
170000.0 612766.0 0
174000.0 612765.0 0
178000.0 612765.0 0
182000.0 612765.0 0
186000.0 612765.0 0
190000.0 612765.0 0
194000.0 612765.0 0
198000.0 612765.0 0
202000.0 612765.0 0
206000.0 612765.0 0
210000.0 612765.0 0
214000.0 612765.0 0
218000.0 612765.0 0
222000.0 612765.0 0
226000.0 612765.0 0
230000.0 612765.0 0
234000.0 612765.0 0
238000.0 612765.0 0
242000.0 612765.0 0
246000.0 612765.0 0
250000.0 612765.0 0
254000.0 612765.0 0
258000.0 612765.0 0
262000.0 612765.0 0
266000.0 612765.0 0
270000.0 612765.0 0
274000.0 612765.0 0
278000.0 612765.0 0
282000.0 612765.0 0
286000.0 612765.0 0
290000.0 612765.0 0
294000.0 612765.0 0
298000.0 612765.0 0
302000.0 612765.0 0
306000.0 612765.0 0
310000.0 612765.0 0
314000.0 612765.0 0
318000.0 612765.0 0
322000.0 612765.0 0
326000.0 612765.0 0
330000.0 612766.0 0
334000.0 612765.0 0
338000.0 612767.0 0
342000.0 612765.0 0
346000.0 612769.0 0
350000.0 612765.0 0
354000.0 612772.0 0
358000.0 612767.0 0
362000.0 612781.0 0
366000.0 612770.0 0
370000.0 612788.0 0
374000.0 612781.0 0
378000.0 612794.0 0
382000.0 612777.0 0
386000.0 612788.0 0
390000.0 612796.0 0
394000.0 612803.0 0
398000.0 612807.0 0
102000.0 616805.0 0
106000.0 616801.0 0
110000.0 616794.0 0
114000.0 616787.0 0
118000.0 616777.0 0
122000.0 616792.0 0
126000.0 616779.0 0
130000.0 616786.0 0
134000.0 616769.0 0
138000.0 616779.0 0
142000.0 616767.0 0
146000.0 616771.0 0
150000.0 616765.0 0
154000.0 616769.0 0
158000.0 616765.0 0
162000.0 616767.0 0
166000.0 616765.0 0
170000.0 616766.0 0
174000.0 616765.0 0
178000.0 616765.0 0
182000.0 616765.0 0
186000.0 616765.0 0
190000.0 616765.0 0
194000.0 616765.0 0
198000.0 616765.0 0
202000.0 616765.0 0
206000.0 616765.0 0
210000.0 616765.0 0
214000.0 616765.0 0
218000.0 616765.0 0
222000.0 616765.0 0
226000.0 616765.0 0
230000.0 616765.0 0
234000.0 616765.0 0
238000.0 616765.0 0
242000.0 616765.0 0
246000.0 616765.0 0
250000.0 616765.0 0
254000.0 616765.0 0
258000.0 616765.0 0
262000.0 616765.0 0
266000.0 616765.0 0
270000.0 616765.0 0
274000.0 616765.0 0
278000.0 616765.0 0
282000.0 616765.0 0
286000.0 616765.0 0
290000.0 616765.0 0
294000.0 616765.0 0
298000.0 616765.0 0
302000.0 616765.0 0
306000.0 616765.0 0
310000.0 616765.0 0
314000.0 616765.0 0
318000.0 616765.0 0
322000.0 616765.0 0
326000.0 616765.0 0
330000.0 616766.0 0
334000.0 616765.0 0
338000.0 616767.0 0
342000.0 616765.0 0
346000.0 616769.0 0
350000.0 616765.0 0
354000.0 616771.0 0
358000.0 616767.0 0
362000.0 616779.0 0
366000.0 616769.0 0
370000.0 616786.0 0
374000.0 616779.0 0
378000.0 616792.0 0
382000.0 616777.0 0
386000.0 616787.0 0
390000.0 616794.0 0
394000.0 616801.0 0
398000.0 616805.0 0
102000.0 620803.0 0
106000.0 620800.0 0
110000.0 620792.0 0
114000.0 620786.0 0
118000.0 620776.0 0
122000.0 620790.0 0
126000.0 620777.0 0
130000.0 620784.0 0
134000.0 620769.0 0
138000.0 620778.0 0
142000.0 620766.0 0
146000.0 620771.0 0
150000.0 620765.0 0
154000.0 620768.0 0
158000.0 620765.0 0
162000.0 620767.0 0
166000.0 620765.0 0
170000.0 620766.0 0
174000.0 620765.0 0
178000.0 620765.0 0
182000.0 620765.0 0
186000.0 620765.0 0
190000.0 620765.0 0
194000.0 620765.0 0
198000.0 620765.0 0
202000.0 620765.0 0
206000.0 620765.0 0
210000.0 620765.0 0
214000.0 620765.0 0
218000.0 620765.0 0
222000.0 620765.0 0
226000.0 620765.0 0
230000.0 620765.0 0
234000.0 620765.0 0
238000.0 620765.0 0
242000.0 620765.0 0
246000.0 620765.0 0
250000.0 620765.0 0
254000.0 620765.0 0
258000.0 620765.0 0
262000.0 620765.0 0
266000.0 620765.0 0
270000.0 620765.0 0
274000.0 620765.0 0
278000.0 620765.0 0
282000.0 620765.0 0
286000.0 620765.0 0
290000.0 620765.0 0
294000.0 620765.0 0
298000.0 620765.0 0
302000.0 620765.0 0
306000.0 620765.0 0
310000.0 620765.0 0
314000.0 620765.0 0
318000.0 620765.0 0
322000.0 620765.0 0
326000.0 620765.0 0
330000.0 620766.0 0
334000.0 620765.0 0
338000.0 620767.0 0
342000.0 620765.0 0
346000.0 620768.0 0
350000.0 620765.0 0
354000.0 620771.0 0
358000.0 620766.0 0
362000.0 620778.0 0
366000.0 620769.0 0
370000.0 620784.0 0
374000.0 620777.0 0
378000.0 620790.0 0
382000.0 620776.0 0
386000.0 620786.0 0
390000.0 620792.0 0
394000.0 620800.0 0
398000.0 620803.0 0
102000.0 624802.0 0
106000.0 624798.0 0
110000.0 624791.0 0
114000.0 624785.0 0
118000.0 624775.0 0
122000.0 624788.0 0
126000.0 624776.0 0
130000.0 624783.0 0
134000.0 624768.0 0
138000.0 624777.0 0
142000.0 624766.0 0
146000.0 624770.0 0
150000.0 624765.0 0
154000.0 624768.0 0
158000.0 624765.0 0
162000.0 624766.0 0
166000.0 624765.0 0
170000.0 624765.0 0
174000.0 624765.0 0
178000.0 624765.0 0
182000.0 624765.0 0
186000.0 624765.0 0
190000.0 624765.0 0
194000.0 624765.0 0
198000.0 624765.0 0
202000.0 624765.0 0
206000.0 624765.0 0
210000.0 624765.0 0
214000.0 624765.0 0
218000.0 624765.0 0
222000.0 624765.0 0
226000.0 624765.0 0
230000.0 624765.0 0
234000.0 624765.0 0
238000.0 624765.0 0
242000.0 624765.0 0
246000.0 624765.0 0
250000.0 624765.0 0
254000.0 624765.0 0
258000.0 624765.0 0
262000.0 624765.0 0
266000.0 624765.0 0
270000.0 624765.0 0
274000.0 624765.0 0
278000.0 624765.0 0
282000.0 624765.0 0
286000.0 624765.0 0
290000.0 624765.0 0
294000.0 624765.0 0
298000.0 624765.0 0
302000.0 624765.0 0
306000.0 624765.0 0
310000.0 624765.0 0
314000.0 624765.0 0
318000.0 624765.0 0
322000.0 624765.0 0
326000.0 624765.0 0
330000.0 624765.0 0
334000.0 624765.0 0
338000.0 624766.0 0
342000.0 624765.0 0
346000.0 624768.0 0
350000.0 624765.0 0
354000.0 624770.0 0
358000.0 624766.0 0
362000.0 624777.0 0
366000.0 624768.0 0
370000.0 624783.0 0
374000.0 624776.0 0
378000.0 624788.0 0
382000.0 624775.0 0
386000.0 624785.0 0
390000.0 624791.0 0
394000.0 624798.0 0
398000.0 624802.0 0
102000.0 628800.0 0
106000.0 628797.0 0
110000.0 628790.0 0
114000.0 628784.0 0
118000.0 628775.0 0
122000.0 628787.0 0
126000.0 628775.0 0
130000.0 628782.0 0
134000.0 628768.0 0
138000.0 628776.0 0
142000.0 628766.0 0
146000.0 628770.0 0
150000.0 628765.0 0
154000.0 628768.0 0
158000.0 628765.0 0
162000.0 628766.0 0
166000.0 628765.0 0
170000.0 628765.0 0
174000.0 628765.0 0
178000.0 628765.0 0
182000.0 628765.0 0
186000.0 628765.0 0
190000.0 628765.0 0
194000.0 628765.0 0
198000.0 628765.0 0
202000.0 628765.0 0
206000.0 628765.0 0
210000.0 628765.0 0
214000.0 628765.0 0
218000.0 628765.0 0
222000.0 628765.0 0
226000.0 628765.0 0
230000.0 628765.0 0
234000.0 628765.0 0
238000.0 628765.0 0
242000.0 628765.0 0
246000.0 628765.0 0
250000.0 628765.0 0
254000.0 628765.0 0
258000.0 628765.0 0
262000.0 628765.0 0
266000.0 628765.0 0
270000.0 628765.0 0
274000.0 628765.0 0
278000.0 628765.0 0
282000.0 628765.0 0
286000.0 628765.0 0
290000.0 628765.0 0
294000.0 628765.0 0
298000.0 628765.0 0
302000.0 628765.0 0
306000.0 628765.0 0
310000.0 628765.0 0
314000.0 628765.0 0
318000.0 628765.0 0
322000.0 628765.0 0
326000.0 628765.0 0
330000.0 628765.0 0
334000.0 628765.0 0
338000.0 628766.0 0
342000.0 628765.0 0
346000.0 628768.0 0
350000.0 628765.0 0
354000.0 628770.0 0
358000.0 628766.0 0
362000.0 628776.0 0
366000.0 628768.0 0
370000.0 628782.0 0
374000.0 628775.0 0
378000.0 628787.0 0
382000.0 628775.0 0
386000.0 628784.0 0
390000.0 628790.0 0
394000.0 628797.0 0
398000.0 628800.0 0
102000.0 632799.0 0
106000.0 632796.0 0
110000.0 632789.0 0
114000.0 632783.0 0
118000.0 632775.0 0
122000.0 632786.0 0
126000.0 632774.0 0
130000.0 632781.0 0
134000.0 632768.0 0
138000.0 632776.0 0
142000.0 632766.0 0
146000.0 632769.0 0
150000.0 632765.0 0
154000.0 632767.0 0
158000.0 632765.0 0
162000.0 632766.0 0
166000.0 632765.0 0
170000.0 632765.0 0
174000.0 632765.0 0
178000.0 632765.0 0
182000.0 632765.0 0
186000.0 632765.0 0
190000.0 632765.0 0
194000.0 632765.0 0
198000.0 632765.0 0
202000.0 632765.0 0
206000.0 632765.0 0
210000.0 632765.0 0
214000.0 632765.0 0
218000.0 632765.0 0
222000.0 632765.0 0
226000.0 632765.0 0
230000.0 632765.0 0
234000.0 632765.0 0
238000.0 632765.0 0
242000.0 632765.0 0
246000.0 632765.0 0
250000.0 632765.0 0
254000.0 632765.0 0
258000.0 632765.0 0
262000.0 632765.0 0
266000.0 632765.0 0
270000.0 632765.0 0
274000.0 632765.0 0
278000.0 632765.0 0
282000.0 632765.0 0
286000.0 632765.0 0
290000.0 632765.0 0
294000.0 632765.0 0
298000.0 632765.0 0
302000.0 632765.0 0
306000.0 632765.0 0
310000.0 632765.0 0
314000.0 632765.0 0
318000.0 632765.0 0
322000.0 632765.0 0
326000.0 632765.0 0
330000.0 632765.0 0
334000.0 632765.0 0
338000.0 632766.0 0
342000.0 632765.0 0
346000.0 632767.0 0
350000.0 632765.0 0
354000.0 632769.0 0
358000.0 632766.0 0
362000.0 632776.0 0
366000.0 632768.0 0
370000.0 632781.0 0
374000.0 632774.0 0
378000.0 632786.0 0
382000.0 632775.0 0
386000.0 632783.0 0
390000.0 632789.0 0
394000.0 632796.0 0
398000.0 632799.0 0
102000.0 636799.0 0
106000.0 636795.0 0
110000.0 636788.0 0
114000.0 636783.0 0
118000.0 636774.0 0
122000.0 636786.0 0
126000.0 636774.0 0
130000.0 636780.0 0
134000.0 636767.0 0
138000.0 636775.0 0
142000.0 636766.0 0
146000.0 636769.0 0
150000.0 636765.0 0
154000.0 636767.0 0
158000.0 636765.0 0
162000.0 636766.0 0
166000.0 636765.0 0
170000.0 636765.0 0
174000.0 636765.0 0
178000.0 636765.0 0
182000.0 636765.0 0
186000.0 636765.0 0
190000.0 636765.0 0
194000.0 636765.0 0
198000.0 636765.0 0
202000.0 636765.0 0
206000.0 636765.0 0
210000.0 636765.0 0
214000.0 636765.0 0
218000.0 636765.0 0
222000.0 636765.0 0
226000.0 636765.0 0
230000.0 636765.0 0
234000.0 636765.0 0
238000.0 636765.0 0
242000.0 636765.0 0
246000.0 636765.0 0
250000.0 636765.0 0
254000.0 636765.0 0
258000.0 636765.0 0
262000.0 636765.0 0
266000.0 636765.0 0
270000.0 636765.0 0
274000.0 636765.0 0
278000.0 636765.0 0
282000.0 636765.0 0
286000.0 636765.0 0
290000.0 636765.0 0
294000.0 636765.0 0
298000.0 636765.0 0
302000.0 636765.0 0
306000.0 636765.0 0
310000.0 636765.0 0
314000.0 636765.0 0
318000.0 636765.0 0
322000.0 636765.0 0
326000.0 636765.0 0
330000.0 636765.0 0
334000.0 636765.0 0
338000.0 636766.0 0
342000.0 636765.0 0
346000.0 636767.0 0
350000.0 636765.0 0
354000.0 636769.0 0
358000.0 636766.0 0
362000.0 636775.0 0
366000.0 636767.0 0
370000.0 636780.0 0
374000.0 636774.0 0
378000.0 636786.0 0
382000.0 636774.0 0
386000.0 636783.0 0
390000.0 636788.0 0
394000.0 636795.0 0
398000.0 636799.0 0
102000.0 640798.0 0
106000.0 640795.0 0
110000.0 640788.0 0
114000.0 640783.0 0
118000.0 640774.0 0
122000.0 640785.0 0
126000.0 640773.0 0
130000.0 640780.0 0
134000.0 640767.0 0
138000.0 640775.0 0
142000.0 640766.0 0
146000.0 640769.0 0
150000.0 640765.0 0
154000.0 640767.0 0
158000.0 640765.0 0
162000.0 640766.0 0
166000.0 640765.0 0
170000.0 640765.0 0
174000.0 640765.0 0
178000.0 640765.0 0
182000.0 640765.0 0
186000.0 640765.0 0
190000.0 640765.0 0
194000.0 640765.0 0
198000.0 640765.0 0
202000.0 640765.0 0
206000.0 640765.0 0
210000.0 640765.0 0
214000.0 640765.0 0
218000.0 640765.0 0
222000.0 640765.0 0
226000.0 640765.0 0
230000.0 640765.0 0
234000.0 640765.0 0
238000.0 640765.0 0
242000.0 640765.0 0
246000.0 640765.0 0
250000.0 640765.0 0
254000.0 640765.0 0
258000.0 640765.0 0
262000.0 640765.0 0
266000.0 640765.0 0
270000.0 640765.0 0
274000.0 640765.0 0
278000.0 640765.0 0
282000.0 640765.0 0
286000.0 640765.0 0
290000.0 640765.0 0
294000.0 640765.0 0
298000.0 640765.0 0
302000.0 640765.0 0
306000.0 640765.0 0
310000.0 640765.0 0
314000.0 640765.0 0
318000.0 640765.0 0
322000.0 640765.0 0
326000.0 640765.0 0
330000.0 640765.0 0
334000.0 640765.0 0
338000.0 640766.0 0
342000.0 640765.0 0
346000.0 640767.0 0
350000.0 640765.0 0
354000.0 640769.0 0
358000.0 640766.0 0
362000.0 640775.0 0
366000.0 640767.0 0
370000.0 640780.0 0
374000.0 640773.0 0
378000.0 640785.0 0
382000.0 640774.0 0
386000.0 640783.0 0
390000.0 640788.0 0
394000.0 640795.0 0
398000.0 640798.0 0
102000.0 644798.0 0
106000.0 644795.0 0
110000.0 644787.0 0
114000.0 644783.0 0
118000.0 644774.0 0
122000.0 644785.0 0
126000.0 644773.0 0
130000.0 644780.0 0
134000.0 644767.0 0
138000.0 644775.0 0
142000.0 644766.0 0
146000.0 644769.0 0
150000.0 644765.0 0
154000.0 644767.0 0
158000.0 644765.0 0
162000.0 644766.0 0
166000.0 644765.0 0
170000.0 644765.0 0
174000.0 644765.0 0
178000.0 644765.0 0
182000.0 644765.0 0
186000.0 644765.0 0
190000.0 644765.0 0
194000.0 644765.0 0
198000.0 644765.0 0
202000.0 644765.0 0
206000.0 644765.0 0
210000.0 644765.0 0
214000.0 644765.0 0
218000.0 644765.0 0
222000.0 644765.0 0
226000.0 644765.0 0
230000.0 644765.0 0
234000.0 644765.0 0
238000.0 644765.0 0
242000.0 644765.0 0
246000.0 644765.0 0
250000.0 644765.0 0
254000.0 644765.0 0
258000.0 644765.0 0
262000.0 644765.0 0
266000.0 644765.0 0
270000.0 644765.0 0
274000.0 644765.0 0
278000.0 644765.0 0
282000.0 644765.0 0
286000.0 644765.0 0
290000.0 644765.0 0
294000.0 644765.0 0
298000.0 644765.0 0
302000.0 644765.0 0
306000.0 644765.0 0
310000.0 644765.0 0
314000.0 644765.0 0
318000.0 644765.0 0
322000.0 644765.0 0
326000.0 644765.0 0
330000.0 644765.0 0
334000.0 644765.0 0
338000.0 644766.0 0
342000.0 644765.0 0
346000.0 644767.0 0
350000.0 644765.0 0
354000.0 644769.0 0
358000.0 644766.0 0
362000.0 644775.0 0
366000.0 644767.0 0
370000.0 644780.0 0
374000.0 644773.0 0
378000.0 644785.0 0
382000.0 644774.0 0
386000.0 644783.0 0
390000.0 644787.0 0
394000.0 644795.0 0
398000.0 644798.0 0
POINT_DATA 4650
SCALARS Radius float 1
LOOKUP_TABLE default
4000.0 4000.0 4000.0 4000.0 4000.0 4000.0 4000.0 4000.0 4000.0 4000.0 4000.0 4000.0 4000.0 4000.0 4000.0 4000.0 4000.0 4000.0 4000.0 4000.0 4000.0 4000.0 4000.0 4000.0 4000.0 4000.0 4000.0 4000.0 4000.0 4000.0 4000.0 4000.0 4000.0 4000.0 4000.0 4000.0 4000.0 4000.0 4000.0 4000.0 4000.0 4000.0 4000.0 4000.0 4000.0 4000.0 4000.0 4000.0 4000.0 4000.0 4000.0 4000.0 4000.0 4000.0 4000.0 4000.0 4000.0 4000.0 4000.0 4000.0 4000.0 4000.0 4000.0 4000.0 4000.0 4000.0 4000.0 4000.0 4000.0 4000.0 4000.0 4000.0 4000.0 4000.0 4000.0 4000.0 4000.0 4000.0 4000.0 4000.0 4000.0 4000.0 4000.0 4000.0 4000.0 4000.0 4000.0 4000.0 4000.0 4000.0 4000.0 4000.0 4000.0 4000.0 4000.0 4000.0 4000.0 4000.0 4000.0 4000.0 4000.0 4000.0 4000.0 4000.0 4000.0 4000.0 4000.0 4000.0 4000.0 4000.0 4000.0 4000.0 4000.0 4000.0 4000.0 4000.0 4000.0 4000.0 4000.0 4000.0 4000.0 4000.0 4000.0 4000.0 4000.0 4000.0 4000.0 4000.0 4000.0 4000.0 4000.0 4000.0 4000.0 4000.0 4000.0 4000.0 4000.0 4000.0 4000.0 4000.0 4000.0 4000.0 4000.0 4000.0 4000.0 4000.0 4000.0 4000.0 4000.0 4000.0 4000.0 4000.0 4000.0 4000.0 4000.0 4000.0 4000.0 4000.0 4000.0 4000.0 4000.0 4000.0 4000.0 4000.0 4000.0 4000.0 4000.0 4000.0 4000.0 4000.0 4000.0 4000.0 4000.0 4000.0 4000.0 4000.0 4000.0 4000.0 4000.0 4000.0 4000.0 4000.0 4000.0 4000.0 4000.0 4000.0 4000.0 4000.0 4000.0 4000.0 4000.0 4000.0 4000.0 4000.0 4000.0 4000.0 4000.0 4000.0 4000.0 4000.0 4000.0 4000.0 4000.0 4000.0 4000.0 4000.0 4000.0 4000.0 4000.0 4000.0 4000.0 4000.0 4000.0 4000.0 4000.0 4000.0 4000.0 4000.0 4000.0 4000.0 4000.0 4000.0 4000.0 4000.0 4000.0 4000.0 4000.0 4000.0 4000.0 4000.0 4000.0 4000.0 4000.0 4000.0 4000.0 4000.0 4000.0 4000.0 4000.0 4000.0 4000.0 4000.0 4000.0 4000.0 4000.0 4000.0 4000.0 4000.0 4000.0 4000.0 4000.0 4000.0 4000.0 4000.0 4000.0 4000.0 4000.0 4000.0 4000.0 4000.0 4000.0 4000.0 4000.0 4000.0 4000.0 4000.0 4000.0 4000.0 4000.0 4000.0 4000.0 4000.0 4000.0 4000.0 4000.0 4000.0 4000.0 4000.0 4000.0 4000.0 4000.0 4000.0 4000.0 4000.0 4000.0 4000.0 4000.0 4000.0 4000.0 4000.0 4000.0 4000.0 4000.0 4000.0 4000.0 4000.0 4000.0 4000.0 4000.0 4000.0 4000.0 4000.0 4000.0 4000.0 4000.0 4000.0 4000.0 4000.0 4000.0 4000.0 4000.0 4000.0 4000.0 4000.0 4000.0 4000.0 4000.0 4000.0 4000.0 4000.0 4000.0 4000.0 4000.0 4000.0 4000.0 4000.0 4000.0 4000.0 4000.0 4000.0 4000.0 4000.0 4000.0 4000.0 4000.0 4000.0 4000.0 4000.0 4000.0 4000.0 4000.0 4000.0 4000.0 4000.0 4000.0 4000.0 4000.0 4000.0 4000.0 4000.0 4000.0 4000.0 4000.0 4000.0 4000.0 4000.0 4000.0 4000.0 4000.0 4000.0 4000.0 4000.0 4000.0 4000.0 4000.0 4000.0 4000.0 4000.0 4000.0 4000.0 4000.0 4000.0 4000.0 4000.0 4000.0 4000.0 4000.0 4000.0 4000.0 4000.0 4000.0 4000.0 4000.0 4000.0 4000.0 4000.0 4000.0 4000.0 4000.0 4000.0 4000.0 4000.0 4000.0 4000.0 4000.0 4000.0 4000.0 4000.0 4000.0 4000.0 4000.0 4000.0 4000.0 4000.0 4000.0 4000.0 4000.0 4000.0 4000.0 4000.0 4000.0 4000.0 4000.0 4000.0 4000.0 4000.0 4000.0 4000.0 4000.0 4000.0 4000.0 4000.0 4000.0 4000.0 4000.0 4000.0 4000.0 4000.0 4000.0 4000.0 4000.0 4000.0 4000.0 4000.0 4000.0 4000.0 4000.0 4000.0 4000.0 4000.0 4000.0 4000.0 4000.0 4000.0 4000.0 4000.0 4000.0 4000.0 4000.0 4000.0 4000.0 4000.0 4000.0 4000.0 4000.0 4000.0 4000.0 4000.0 4000.0 4000.0 4000.0 4000.0 4000.0 4000.0 4000.0 4000.0 4000.0 4000.0 4000.0 4000.0 4000.0 4000.0 4000.0 4000.0 4000.0 4000.0 4000.0 4000.0 4000.0 4000.0 4000.0 4000.0 4000.0 4000.0 4000.0 4000.0 4000.0 4000.0 4000.0 4000.0 4000.0 4000.0 4000.0 4000.0 4000.0 4000.0 4000.0 4000.0 4000.0 4000.0 4000.0 4000.0 4000.0 4000.0 4000.0 4000.0 4000.0 4000.0 4000.0 4000.0 4000.0 4000.0 4000.0 4000.0 4000.0 4000.0 4000.0 4000.0 4000.0 4000.0 4000.0 4000.0 4000.0 4000.0 4000.0 4000.0 4000.0 4000.0 4000.0 4000.0 4000.0 4000.0 4000.0 4000.0 4000.0 4000.0 4000.0 4000.0 4000.0 4000.0 4000.0 4000.0 4000.0 4000.0 4000.0 4000.0 4000.0 4000.0 4000.0 4000.0 4000.0 4000.0 4000.0 4000.0 4000.0 4000.0 4000.0 4000.0 4000.0 4000.0 4000.0 4000.0 4000.0 4000.0 4000.0 4000.0 4000.0 4000.0 4000.0 4000.0 4000.0 4000.0 4000.0 4000.0 4000.0 4000.0 4000.0 4000.0 4000.0 4000.0 4000.0 4000.0 4000.0 4000.0 4000.0 4000.0 4000.0 4000.0 4000.0 4000.0 4000.0 4000.0 4000.0 4000.0 4000.0 4000.0 4000.0 4000.0 4000.0 4000.0 4000.0 4000.0 4000.0 4000.0 4000.0 4000.0 4000.0 4000.0 4000.0 4000.0 4000.0 4000.0 4000.0 4000.0 4000.0 4000.0 4000.0 4000.0 4000.0 4000.0 4000.0 4000.0 4000.0 4000.0 4000.0 4000.0 4000.0 4000.0 4000.0 4000.0 4000.0 4000.0 4000.0 4000.0 4000.0 4000.0 4000.0 4000.0 4000.0 4000.0 4000.0 4000.0 4000.0 4000.0 4000.0 4000.0 4000.0 4000.0 4000.0 4000.0 4000.0 4000.0 4000.0 4000.0 4000.0 4000.0 4000.0 4000.0 4000.0 4000.0 4000.0 4000.0 4000.0 4000.0 4000.0 4000.0 4000.0 4000.0 4000.0 4000.0 4000.0 4000.0 4000.0 4000.0 4000.0 4000.0 4000.0 4000.0 4000.0 4000.0 4000.0 4000.0 4000.0 4000.0 4000.0 4000.0 4000.0 4000.0 4000.0 4000.0 4000.0 4000.0 4000.0 4000.0 4000.0 4000.0 4000.0 4000.0 4000.0 4000.0 4000.0 4000.0 4000.0 4000.0 4000.0 4000.0 4000.0 4000.0 4000.0 4000.0 4000.0 4000.0 4000.0 4000.0 4000.0 4000.0 4000.0 4000.0 4000.0 4000.0 4000.0 4000.0 4000.0 4000.0 4000.0 4000.0 4000.0 4000.0 4000.0 4000.0 4000.0 4000.0 4000.0 4000.0 4000.0 4000.0 4000.0 4000.0 4000.0 4000.0 4000.0 4000.0 4000.0 4000.0 4000.0 4000.0 4000.0 4000.0 4000.0 4000.0 4000.0 4000.0 4000.0 4000.0 4000.0 4000.0 4000.0 4000.0 4000.0 4000.0 4000.0 4000.0 4000.0 4000.0 4000.0 4000.0 4000.0 4000.0 4000.0 4000.0 4000.0 4000.0 4000.0 4000.0 4000.0 4000.0 4000.0 4000.0 4000.0 4000.0 4000.0 4000.0 4000.0 4000.0 4000.0 4000.0 4000.0 4000.0 4000.0 4000.0 4000.0 4000.0 4000.0 4000.0 4000.0 4000.0 4000.0 4000.0 4000.0 4000.0 4000.0 4000.0 4000.0 4000.0 4000.0 4000.0 4000.0 4000.0 4000.0 4000.0 4000.0 4000.0 4000.0 4000.0 4000.0 4000.0 4000.0 4000.0 4000.0 4000.0 4000.0 4000.0 4000.0 4000.0 4000.0 4000.0 4000.0 4000.0 4000.0 4000.0 4000.0 4000.0 4000.0 4000.0 4000.0 4000.0 4000.0 4000.0 4000.0 4000.0 4000.0 4000.0 4000.0 4000.0 4000.0 4000.0 4000.0 4000.0 4000.0 4000.0 4000.0 4000.0 4000.0 4000.0 4000.0 4000.0 4000.0 4000.0 4000.0 4000.0 4000.0 4000.0 4000.0 4000.0 4000.0 4000.0 4000.0 4000.0 4000.0 4000.0 4000.0 4000.0 4000.0 4000.0 4000.0 4000.0 4000.0 4000.0 4000.0 4000.0 4000.0 4000.0 4000.0 4000.0 4000.0 4000.0 4000.0 4000.0 4000.0 4000.0 4000.0 4000.0 4000.0 4000.0 4000.0 4000.0 4000.0 4000.0 4000.0 4000.0 4000.0 4000.0 4000.0 4000.0 4000.0 4000.0 4000.0 4000.0 4000.0 4000.0 4000.0 4000.0 4000.0 4000.0 4000.0 4000.0 4000.0 4000.0 4000.0 4000.0 4000.0 4000.0 4000.0 4000.0 4000.0 4000.0 4000.0 4000.0 4000.0 4000.0 4000.0 4000.0 4000.0 4000.0 4000.0 4000.0 4000.0 4000.0 4000.0 4000.0 4000.0 4000.0 4000.0 4000.0 4000.0 4000.0 4000.0 4000.0 4000.0 4000.0 4000.0 4000.0 4000.0 4000.0 4000.0 4000.0 4000.0 4000.0 4000.0 4000.0 4000.0 4000.0 4000.0 4000.0 4000.0 4000.0 4000.0 4000.0 4000.0 4000.0 4000.0 4000.0 4000.0 4000.0 4000.0 4000.0 4000.0 4000.0 4000.0 4000.0 4000.0 4000.0 4000.0 4000.0 4000.0 4000.0 4000.0 4000.0 4000.0 4000.0 4000.0 4000.0 4000.0 4000.0 4000.0 4000.0 4000.0 4000.0 4000.0 4000.0 4000.0 4000.0 4000.0 4000.0 4000.0 4000.0 4000.0 4000.0 4000.0 4000.0 4000.0 4000.0 4000.0 4000.0 4000.0 4000.0 4000.0 4000.0 4000.0 4000.0 4000.0 4000.0 4000.0 4000.0 4000.0 4000.0 4000.0 4000.0 4000.0 4000.0 4000.0 4000.0 4000.0 4000.0 4000.0 4000.0 4000.0 4000.0 4000.0 4000.0 4000.0 4000.0 4000.0 4000.0 4000.0 4000.0 4000.0 4000.0 4000.0 4000.0 4000.0 4000.0 4000.0 4000.0 4000.0 4000.0 4000.0 4000.0 4000.0 4000.0 4000.0 4000.0 4000.0 4000.0 4000.0 4000.0 4000.0 4000.0 4000.0 4000.0 4000.0 4000.0 4000.0 4000.0 4000.0 4000.0 4000.0 4000.0 4000.0 4000.0 4000.0 4000.0 4000.0 4000.0 4000.0 4000.0 4000.0 4000.0 4000.0 4000.0 4000.0 4000.0 4000.0 4000.0 4000.0 4000.0 4000.0 4000.0 4000.0 4000.0 4000.0 4000.0 4000.0 4000.0 4000.0 4000.0 4000.0 4000.0 4000.0 4000.0 4000.0 4000.0 4000.0 4000.0 4000.0 4000.0 4000.0 4000.0 4000.0 4000.0 4000.0 4000.0 4000.0 4000.0 4000.0 4000.0 4000.0 4000.0 4000.0 4000.0 4000.0 4000.0 4000.0 4000.0 4000.0 4000.0 4000.0 4000.0 4000.0 4000.0 4000.0 4000.0 4000.0 4000.0 4000.0 4000.0 4000.0 4000.0 4000.0 4000.0 4000.0 4000.0 4000.0 4000.0 4000.0 4000.0 4000.0 4000.0 4000.0 4000.0 4000.0 4000.0 4000.0 4000.0 4000.0 4000.0 4000.0 4000.0 4000.0 4000.0 4000.0 4000.0 4000.0 4000.0 4000.0 4000.0 4000.0 4000.0 4000.0 4000.0 4000.0 4000.0 4000.0 4000.0 4000.0 4000.0 4000.0 4000.0 4000.0 4000.0 4000.0 4000.0 4000.0 4000.0 4000.0 4000.0 4000.0 4000.0 4000.0 4000.0 4000.0 4000.0 4000.0 4000.0 4000.0 4000.0 4000.0 4000.0 4000.0 4000.0 4000.0 4000.0 4000.0 4000.0 4000.0 4000.0 4000.0 4000.0 4000.0 4000.0 4000.0 4000.0 4000.0 4000.0 4000.0 4000.0 4000.0 4000.0 4000.0 4000.0 4000.0 4000.0 4000.0 4000.0 4000.0 4000.0 4000.0 4000.0 4000.0 4000.0 4000.0 4000.0 4000.0 4000.0 4000.0 4000.0 4000.0 4000.0 4000.0 4000.0 4000.0 4000.0 4000.0 4000.0 4000.0 4000.0 4000.0 4000.0 4000.0 4000.0 4000.0 4000.0 4000.0 4000.0 4000.0 4000.0 4000.0 4000.0 4000.0 4000.0 4000.0 4000.0 4000.0 4000.0 4000.0 4000.0 4000.0 4000.0 4000.0 4000.0 4000.0 4000.0 4000.0 4000.0 4000.0 4000.0 4000.0 4000.0 4000.0 4000.0 4000.0 4000.0 4000.0 4000.0 4000.0 4000.0 4000.0 4000.0 4000.0 4000.0 4000.0 4000.0 4000.0 4000.0 4000.0 4000.0 4000.0 4000.0 4000.0 4000.0 4000.0 4000.0 4000.0 4000.0 4000.0 4000.0 4000.0 4000.0 4000.0 4000.0 4000.0 4000.0 4000.0 4000.0 4000.0 4000.0 4000.0 4000.0 4000.0 4000.0 4000.0 4000.0 4000.0 4000.0 4000.0 4000.0 4000.0 4000.0 4000.0 4000.0 4000.0 4000.0 4000.0 4000.0 4000.0 4000.0 4000.0 4000.0 4000.0 4000.0 4000.0 4000.0 4000.0 4000.0 4000.0 4000.0 4000.0 4000.0 4000.0 4000.0 4000.0 4000.0 4000.0 4000.0 4000.0 4000.0 4000.0 4000.0 4000.0 4000.0 4000.0 4000.0 4000.0 4000.0 4000.0 4000.0 4000.0 4000.0 4000.0 4000.0 4000.0 4000.0 4000.0 4000.0 4000.0 4000.0 4000.0 4000.0 4000.0 4000.0 4000.0 4000.0 4000.0 4000.0 4000.0 4000.0 4000.0 4000.0 4000.0 4000.0 4000.0 4000.0 4000.0 4000.0 4000.0 4000.0 4000.0 4000.0 4000.0 4000.0 4000.0 4000.0 4000.0 4000.0 4000.0 4000.0 4000.0 4000.0 4000.0 4000.0 4000.0 4000.0 4000.0 4000.0 4000.0 4000.0 4000.0 4000.0 4000.0 4000.0 4000.0 4000.0 4000.0 4000.0 4000.0 4000.0 4000.0 4000.0 4000.0 4000.0 4000.0 4000.0 4000.0 4000.0 4000.0 4000.0 4000.0 4000.0 4000.0 4000.0 4000.0 4000.0 4000.0 4000.0 4000.0 4000.0 4000.0 4000.0 4000.0 4000.0 4000.0 4000.0 4000.0 4000.0 4000.0 4000.0 4000.0 4000.0 4000.0 4000.0 4000.0 4000.0 4000.0 4000.0 4000.0 4000.0 4000.0 4000.0 4000.0 4000.0 4000.0 4000.0 4000.0 4000.0 4000.0 4000.0 4000.0 4000.0 4000.0 4000.0 4000.0 4000.0 4000.0 4000.0 4000.0 4000.0 4000.0 4000.0 4000.0 4000.0 4000.0 4000.0 4000.0 4000.0 4000.0 4000.0 4000.0 4000.0 4000.0 4000.0 4000.0 4000.0 4000.0 4000.0 4000.0 4000.0 4000.0 4000.0 4000.0 4000.0 4000.0 4000.0 4000.0 4000.0 4000.0 4000.0 4000.0 4000.0 4000.0 4000.0 4000.0 4000.0 4000.0 4000.0 4000.0 4000.0 4000.0 4000.0 4000.0 4000.0 4000.0 4000.0 4000.0 4000.0 4000.0 4000.0 4000.0 4000.0 4000.0 4000.0 4000.0 4000.0 4000.0 4000.0 4000.0 4000.0 4000.0 4000.0 4000.0 4000.0 4000.0 4000.0 4000.0 4000.0 4000.0 4000.0 4000.0 4000.0 4000.0 4000.0 4000.0 4000.0 4000.0 4000.0 4000.0 4000.0 4000.0 4000.0 4000.0 4000.0 4000.0 4000.0 4000.0 4000.0 4000.0 4000.0 4000.0 4000.0 4000.0 4000.0 4000.0 4000.0 4000.0 4000.0 4000.0 4000.0 4000.0 4000.0 4000.0 4000.0 4000.0 4000.0 4000.0 4000.0 4000.0 4000.0 4000.0 4000.0 4000.0 4000.0 4000.0 4000.0 4000.0 4000.0 4000.0 4000.0 4000.0 4000.0 4000.0 4000.0 4000.0 4000.0 4000.0 4000.0 4000.0 4000.0 4000.0 4000.0 4000.0 4000.0 4000.0 4000.0 4000.0 4000.0 4000.0 4000.0 4000.0 4000.0 4000.0 4000.0 4000.0 4000.0 4000.0 4000.0 4000.0 4000.0 4000.0 4000.0 4000.0 4000.0 4000.0 4000.0 4000.0 4000.0 4000.0 4000.0 4000.0 4000.0 4000.0 4000.0 4000.0 4000.0 4000.0 4000.0 4000.0 4000.0 4000.0 4000.0 4000.0 4000.0 4000.0 4000.0 4000.0 4000.0 4000.0 4000.0 4000.0 4000.0 4000.0 4000.0 4000.0 4000.0 4000.0 4000.0 4000.0 4000.0 4000.0 4000.0 4000.0 4000.0 4000.0 4000.0 4000.0 4000.0 4000.0 4000.0 4000.0 4000.0 4000.0 4000.0 4000.0 4000.0 4000.0 4000.0 4000.0 4000.0 4000.0 4000.0 4000.0 4000.0 4000.0 4000.0 4000.0 4000.0 4000.0 4000.0 4000.0 4000.0 4000.0 4000.0 4000.0 4000.0 4000.0 4000.0 4000.0 4000.0 4000.0 4000.0 4000.0 4000.0 4000.0 4000.0 4000.0 4000.0 4000.0 4000.0 4000.0 4000.0 4000.0 4000.0 4000.0 4000.0 4000.0 4000.0 4000.0 4000.0 4000.0 4000.0 4000.0 4000.0 4000.0 4000.0 4000.0 4000.0 4000.0 4000.0 4000.0 4000.0 4000.0 4000.0 4000.0 4000.0 4000.0 4000.0 4000.0 4000.0 4000.0 4000.0 4000.0 4000.0 4000.0 4000.0 4000.0 4000.0 4000.0 4000.0 4000.0 4000.0 4000.0 4000.0 4000.0 4000.0 4000.0 4000.0 4000.0 4000.0 4000.0 4000.0 4000.0 4000.0 4000.0 4000.0 4000.0 4000.0 4000.0 4000.0 4000.0 4000.0 4000.0 4000.0 4000.0 4000.0 4000.0 4000.0 4000.0 4000.0 4000.0 4000.0 4000.0 4000.0 4000.0 4000.0 4000.0 4000.0 4000.0 4000.0 4000.0 4000.0 4000.0 4000.0 4000.0 4000.0 4000.0 4000.0 4000.0 4000.0 4000.0 4000.0 4000.0 4000.0 4000.0 4000.0 4000.0 4000.0 4000.0 4000.0 4000.0 4000.0 4000.0 4000.0 4000.0 4000.0 4000.0 4000.0 4000.0 4000.0 4000.0 4000.0 4000.0 4000.0 4000.0 4000.0 4000.0 4000.0 4000.0 4000.0 4000.0 4000.0 4000.0 4000.0 4000.0 4000.0 4000.0 4000.0 4000.0 4000.0 4000.0 4000.0 4000.0 4000.0 4000.0 4000.0 4000.0 4000.0 4000.0 4000.0 4000.0 4000.0 4000.0 4000.0 4000.0 4000.0 4000.0 4000.0 4000.0 4000.0 4000.0 4000.0 4000.0 4000.0 4000.0 4000.0 4000.0 4000.0 4000.0 4000.0 4000.0 4000.0 4000.0 4000.0 4000.0 4000.0 4000.0 4000.0 4000.0 4000.0 4000.0 4000.0 4000.0 4000.0 4000.0 4000.0 4000.0 4000.0 4000.0 4000.0 4000.0 4000.0 4000.0 4000.0 4000.0 4000.0 4000.0 4000.0 4000.0 4000.0 4000.0 4000.0 4000.0 4000.0 4000.0 4000.0 4000.0 4000.0 4000.0 4000.0 4000.0 4000.0 4000.0 4000.0 4000.0 4000.0 4000.0 4000.0 4000.0 4000.0 4000.0 4000.0 4000.0 4000.0 4000.0 4000.0 4000.0 4000.0 4000.0 4000.0 4000.0 4000.0 4000.0 4000.0 4000.0 4000.0 4000.0 4000.0 4000.0 4000.0 4000.0 4000.0 4000.0 4000.0 4000.0 4000.0 4000.0 4000.0 4000.0 4000.0 4000.0 4000.0 4000.0 4000.0 4000.0 4000.0 4000.0 4000.0 4000.0 4000.0 4000.0 4000.0 4000.0 4000.0 4000.0 4000.0 4000.0 4000.0 4000.0 4000.0 4000.0 4000.0 4000.0 4000.0 4000.0 4000.0 4000.0 4000.0 4000.0 4000.0 4000.0 4000.0 4000.0 4000.0 4000.0 4000.0 4000.0 4000.0 4000.0 4000.0 4000.0 4000.0 4000.0 4000.0 4000.0 4000.0 4000.0 4000.0 4000.0 4000.0 4000.0 4000.0 4000.0 4000.0 4000.0 4000.0 4000.0 4000.0 4000.0 4000.0 4000.0 4000.0 4000.0 4000.0 4000.0 4000.0 4000.0 4000.0 4000.0 4000.0 4000.0 4000.0 4000.0 4000.0 4000.0 4000.0 4000.0 4000.0 4000.0 4000.0 4000.0 4000.0 4000.0 4000.0 4000.0 4000.0 4000.0 4000.0 4000.0 4000.0 4000.0 4000.0 4000.0 4000.0 4000.0 4000.0 4000.0 4000.0 4000.0 4000.0 4000.0 4000.0 4000.0 4000.0 4000.0 4000.0 4000.0 4000.0 4000.0 4000.0 4000.0 4000.0 4000.0 4000.0 4000.0 4000.0 4000.0 4000.0 4000.0 4000.0 4000.0 4000.0 4000.0 4000.0 4000.0 4000.0 4000.0 4000.0 4000.0 4000.0 4000.0 4000.0 4000.0 4000.0 4000.0 4000.0 4000.0 4000.0 4000.0 4000.0 4000.0 4000.0 4000.0 4000.0 4000.0 4000.0 4000.0 4000.0 4000.0 4000.0 4000.0 4000.0 4000.0 4000.0 4000.0 4000.0 4000.0 4000.0 4000.0 4000.0 4000.0 4000.0 4000.0 4000.0 4000.0 4000.0 4000.0 4000.0 4000.0 4000.0 4000.0 4000.0 4000.0 4000.0 4000.0 4000.0 4000.0 4000.0 4000.0 4000.0 4000.0 4000.0 4000.0 4000.0 4000.0 4000.0 4000.0 4000.0 4000.0 4000.0 4000.0 4000.0 4000.0 4000.0 4000.0 4000.0 4000.0 4000.0 4000.0 4000.0 4000.0 4000.0 4000.0 4000.0 4000.0 4000.0 4000.0 4000.0 4000.0 4000.0 4000.0 4000.0 4000.0 4000.0 4000.0 4000.0 4000.0 4000.0 4000.0 4000.0 4000.0 4000.0 4000.0 4000.0 4000.0 4000.0 4000.0 4000.0 4000.0 4000.0 4000.0 4000.0 4000.0 4000.0 4000.0 4000.0 4000.0 4000.0 4000.0 4000.0 4000.0 4000.0 4000.0 4000.0 4000.0 4000.0 4000.0 4000.0 4000.0 4000.0 4000.0 4000.0 4000.0 4000.0 4000.0 4000.0 4000.0 4000.0 4000.0 4000.0 4000.0 4000.0 4000.0 4000.0 4000.0 4000.0 4000.0 4000.0 4000.0 4000.0 4000.0 4000.0 4000.0 4000.0 4000.0 4000.0 4000.0 4000.0 4000.0 4000.0 4000.0 4000.0 4000.0 4000.0 4000.0 4000.0 4000.0 4000.0 4000.0 4000.0 4000.0 4000.0 4000.0 4000.0 4000.0 4000.0 4000.0 4000.0 4000.0 4000.0 4000.0 4000.0 4000.0 4000.0 4000.0 4000.0 4000.0 4000.0 4000.0 4000.0 4000.0 4000.0 4000.0 4000.0 4000.0 4000.0 4000.0 4000.0 4000.0 4000.0 4000.0 4000.0 4000.0 4000.0 4000.0 4000.0 4000.0 4000.0 4000.0 4000.0 4000.0 4000.0 4000.0 4000.0 4000.0 4000.0 4000.0 4000.0 4000.0 4000.0 4000.0 4000.0 4000.0 4000.0 4000.0 4000.0 4000.0 4000.0 4000.0 4000.0 4000.0 4000.0 4000.0 4000.0 4000.0 4000.0 4000.0 4000.0 4000.0 4000.0 4000.0 4000.0 4000.0 4000.0 4000.0 4000.0 4000.0 4000.0 4000.0 4000.0 4000.0 4000.0 4000.0 4000.0 4000.0 4000.0 4000.0 4000.0 4000.0 4000.0 4000.0 4000.0 4000.0 4000.0 4000.0 4000.0 4000.0 4000.0 4000.0 4000.0 4000.0 4000.0 4000.0 4000.0 4000.0 4000.0 4000.0 4000.0 4000.0 4000.0 4000.0 4000.0 4000.0 4000.0 4000.0 4000.0 4000.0 4000.0 4000.0 4000.0 4000.0 4000.0 4000.0 4000.0 4000.0 4000.0 4000.0 4000.0 4000.0 4000.0 4000.0 4000.0 4000.0 4000.0 4000.0 4000.0 4000.0 4000.0 4000.0 4000.0 4000.0 4000.0 4000.0 4000.0 4000.0 4000.0 4000.0 4000.0 4000.0 4000.0 4000.0 4000.0 4000.0 4000.0 4000.0 4000.0 4000.0 4000.0 4000.0 4000.0 4000.0 4000.0 4000.0 4000.0 4000.0 4000.0 4000.0 4000.0 4000.0 4000.0 4000.0 4000.0 4000.0 4000.0 4000.0 4000.0 4000.0 4000.0 4000.0 4000.0 4000.0 4000.0 4000.0 4000.0 4000.0 4000.0 4000.0 4000.0 4000.0 4000.0 4000.0 4000.0 4000.0 4000.0 4000.0 4000.0 4000.0 4000.0 4000.0 4000.0 4000.0 4000.0 4000.0 4000.0 4000.0 4000.0 4000.0 4000.0 4000.0 4000.0 4000.0 4000.0 4000.0 4000.0 4000.0 4000.0 4000.0 4000.0 4000.0 4000.0 4000.0 4000.0 4000.0 4000.0 4000.0 4000.0 4000.0 4000.0 4000.0 4000.0 4000.0 4000.0 4000.0 4000.0 4000.0 4000.0 4000.0 4000.0 4000.0 4000.0 4000.0 4000.0 4000.0 4000.0 4000.0 4000.0 4000.0 4000.0 4000.0 4000.0 4000.0 4000.0 4000.0 4000.0 4000.0 4000.0 4000.0 4000.0 4000.0 4000.0 4000.0 4000.0 4000.0 4000.0 4000.0 4000.0 4000.0 4000.0 4000.0 4000.0 4000.0 4000.0 4000.0 4000.0 4000.0 4000.0 4000.0 4000.0 4000.0 4000.0 4000.0 4000.0 4000.0 4000.0 4000.0 4000.0 4000.0 4000.0 4000.0 4000.0 4000.0 4000.0 4000.0 4000.0 4000.0 4000.0 4000.0 4000.0 4000.0 4000.0 4000.0 4000.0 4000.0 4000.0 4000.0 4000.0 4000.0 4000.0 4000.0 4000.0 4000.0 4000.0 4000.0 4000.0 4000.0 4000.0 4000.0 4000.0 4000.0 4000.0 4000.0 4000.0 4000.0 4000.0 4000.0 4000.0 4000.0 4000.0 4000.0 4000.0 4000.0 4000.0 4000.0 4000.0 4000.0 4000.0 4000.0 4000.0 4000.0 4000.0 4000.0 4000.0 4000.0 4000.0 4000.0 4000.0 4000.0 4000.0 4000.0 4000.0 4000.0 4000.0 4000.0 4000.0 4000.0 4000.0 4000.0 4000.0 4000.0 4000.0 4000.0 4000.0 4000.0 4000.0 4000.0 4000.0 4000.0 4000.0 4000.0 4000.0 4000.0 4000.0 4000.0 4000.0 4000.0 4000.0 4000.0 4000.0 4000.0 4000.0 4000.0 4000.0 4000.0 4000.0 4000.0 4000.0 4000.0 4000.0 4000.0 4000.0 4000.0 4000.0 4000.0 4000.0 4000.0 4000.0 4000.0 4000.0 4000.0 4000.0 4000.0 4000.0 4000.0 4000.0 4000.0 4000.0 4000.0 4000.0 4000.0 4000.0 4000.0 4000.0 4000.0 4000.0 4000.0 4000.0 4000.0 4000.0 4000.0 4000.0 4000.0 4000.0 4000.0 4000.0 4000.0 4000.0 4000.0 4000.0 4000.0 4000.0 4000.0 4000.0 4000.0 4000.0 4000.0 4000.0 4000.0 4000.0 4000.0 4000.0 4000.0 4000.0 4000.0 4000.0 4000.0 4000.0 4000.0 4000.0 4000.0 4000.0 4000.0 4000.0 4000.0 4000.0 4000.0 4000.0 4000.0 4000.0 4000.0 4000.0 4000.0 4000.0 4000.0 4000.0 4000.0 4000.0 4000.0 4000.0 4000.0 4000.0 4000.0 4000.0 4000.0 4000.0 4000.0 4000.0 4000.0 4000.0 4000.0 4000.0 4000.0 4000.0 4000.0 4000.0 4000.0 4000.0 4000.0 4000.0 4000.0 4000.0 4000.0 4000.0 4000.0 4000.0 4000.0 4000.0 4000.0 4000.0 4000.0 4000.0 4000.0 4000.0 4000.0 4000.0 4000.0 4000.0 4000.0 4000.0 4000.0 4000.0 4000.0 4000.0 4000.0 4000.0 4000.0 4000.0 4000.0 4000.0 4000.0 4000.0 4000.0 4000.0 4000.0 4000.0 4000.0 4000.0 4000.0 4000.0 4000.0 4000.0 4000.0 4000.0 4000.0 4000.0 4000.0 4000.0 4000.0 4000.0 4000.0 4000.0 4000.0 4000.0 4000.0 4000.0 4000.0 4000.0 4000.0 4000.0 4000.0 4000.0 4000.0 4000.0 4000.0 4000.0 4000.0 4000.0 4000.0 4000.0 4000.0 4000.0 4000.0 4000.0 4000.0 4000.0 4000.0 4000.0 4000.0 4000.0 4000.0 4000.0 4000.0 4000.0 4000.0 4000.0 4000.0 4000.0 4000.0 4000.0 4000.0 4000.0 4000.0 4000.0 4000.0 4000.0 4000.0 4000.0 4000.0 4000.0 4000.0 4000.0 4000.0 4000.0 4000.0 4000.0 4000.0 4000.0 4000.0 4000.0 4000.0 4000.0 4000.0 4000.0 4000.0 4000.0 4000.0 4000.0 4000.0 4000.0 4000.0 4000.0 4000.0 4000.0 4000.0 4000.0 4000.0 4000.0 4000.0 4000.0 4000.0 4000.0 4000.0 4000.0 4000.0 4000.0 4000.0 4000.0 4000.0 4000.0 4000.0 4000.0 4000.0 4000.0 4000.0 4000.0 4000.0 4000.0 4000.0 4000.0 4000.0 4000.0 4000.0 4000.0 4000.0 4000.0 4000.0 4000.0 4000.0 4000.0 4000.0 4000.0 4000.0 4000.0 4000.0 4000.0 4000.0 4000.0 4000.0 4000.0 4000.0 4000.0 4000.0 4000.0 4000.0 4000.0 4000.0 4000.0 4000.0 4000.0 4000.0 4000.0 4000.0 4000.0 4000.0 4000.0 4000.0 4000.0 4000.0 4000.0 4000.0 4000.0 4000.0 4000.0 4000.0 4000.0 4000.0 4000.0 4000.0 4000.0 4000.0 4000.0 4000.0 4000.0 4000.0 4000.0 4000.0 4000.0 4000.0 4000.0 4000.0 4000.0 4000.0 4000.0 4000.0 4000.0 4000.0 4000.0 4000.0 4000.0 4000.0 4000.0 4000.0 4000.0 4000.0 4000.0 4000.0 4000.0 4000.0 4000.0 4000.0 4000.0 4000.0 4000.0 4000.0 4000.0 4000.0 4000.0 4000.0 4000.0 4000.0 4000.0 4000.0 4000.0 4000.0 4000.0 4000.0 4000.0 4000.0 4000.0 4000.0 4000.0 4000.0 4000.0 4000.0 4000.0 4000.0 4000.0 4000.0 4000.0 4000.0 4000.0 4000.0 4000.0 4000.0 4000.0 4000.0 4000.0 4000.0 4000.0 4000.0 4000.0 4000.0 4000.0 4000.0 4000.0 4000.0 4000.0 4000.0 4000.0 4000.0 4000.0 4000.0 4000.0 4000.0 4000.0 4000.0 4000.0 4000.0 4000.0 4000.0 4000.0 4000.0 4000.0 4000.0 4000.0 4000.0 4000.0 4000.0 4000.0 4000.0 4000.0 4000.0 4000.0 4000.0 4000.0 4000.0 4000.0 4000.0 4000.0 4000.0 4000.0 4000.0 4000.0 4000.0 4000.0 4000.0 4000.0 4000.0 4000.0 4000.0 4000.0 4000.0 4000.0 4000.0 4000.0 4000.0 4000.0 4000.0 4000.0 4000.0 4000.0 4000.0 4000.0 4000.0 4000.0 4000.0 4000.0 4000.0 4000.0 4000.0 4000.0 4000.0 4000.0 4000.0 4000.0 4000.0 4000.0 4000.0 4000.0 4000.0 4000.0 4000.0 4000.0 4000.0 4000.0 4000.0 4000.0 4000.0 4000.0 4000.0 4000.0 4000.0 4000.0 4000.0 4000.0 4000.0 4000.0 4000.0 4000.0 4000.0 4000.0 4000.0 4000.0 4000.0 4000.0 4000.0 4000.0 4000.0 4000.0 4000.0 4000.0 4000.0 4000.0 4000.0 4000.0 4000.0 4000.0 4000.0 4000.0 4000.0 4000.0 4000.0 4000.0 4000.0 4000.0 4000.0 4000.0 4000.0 4000.0 4000.0 4000.0 4000.0 4000.0 4000.0 4000.0 4000.0 4000.0 4000.0 4000.0 4000.0 4000.0 4000.0 4000.0 4000.0 4000.0 4000.0 4000.0 4000.0 4000.0 4000.0 4000.0 4000.0 4000.0 4000.0 4000.0 4000.0 4000.0 4000.0 4000.0 4000.0 4000.0 4000.0 4000.0 4000.0 4000.0 4000.0 4000.0 4000.0 4000.0 4000.0 4000.0 4000.0 4000.0 4000.0 4000.0 4000.0 4000.0 4000.0 4000.0 4000.0 4000.0 4000.0 4000.0 4000.0 4000.0 4000.0 4000.0 4000.0 4000.0 4000.0 4000.0 4000.0 4000.0 4000.0 4000.0 4000.0 4000.0 4000.0 4000.0 4000.0 4000.0 4000.0 4000.0 4000.0 4000.0 4000.0 4000.0 4000.0 4000.0 4000.0 4000.0 4000.0 4000.0 4000.0 4000.0 4000.0 4000.0 4000.0 4000.0 4000.0 4000.0 4000.0 4000.0 4000.0 4000.0 4000.0 4000.0 4000.0 4000.0 4000.0 4000.0 4000.0 4000.0 4000.0 4000.0 4000.0 4000.0 4000.0 4000.0 4000.0 4000.0 4000.0 4000.0 4000.0 4000.0 4000.0 4000.0 4000.0 4000.0 4000.0 4000.0 4000.0 4000.0 4000.0 4000.0 4000.0 4000.0 4000.0 4000.0 4000.0 4000.0 4000.0 4000.0 4000.0 4000.0 4000.0 4000.0 4000.0 4000.0 4000.0 4000.0 4000.0 4000.0 4000.0 4000.0 4000.0 4000.0 4000.0 4000.0 4000.0 4000.0 4000.0 4000.0 4000.0 4000.0 4000.0 4000.0 4000.0 4000.0 4000.0 4000.0 4000.0 4000.0 4000.0 4000.0 4000.0 4000.0 4000.0 4000.0 4000.0 4000.0 4000.0 4000.0 4000.0 4000.0 4000.0 4000.0 4000.0 4000.0 4000.0 4000.0 4000.0 4000.0 4000.0 4000.0 4000.0 4000.0 4000.0 4000.0 4000.0 4000.0 4000.0 4000.0 4000.0 4000.0 4000.0 4000.0 4000.0 4000.0 4000.0 4000.0 4000.0 4000.0 4000.0 4000.0 4000.0 4000.0 4000.0 4000.0 4000.0 4000.0 4000.0 4000.0 4000.0 4000.0 4000.0 4000.0 4000.0 4000.0 4000.0 4000.0 4000.0 4000.0 4000.0 4000.0 4000.0 4000.0 4000.0 4000.0 4000.0 4000.0 4000.0 4000.0 4000.0 4000.0 4000.0 4000.0 4000.0 4000.0 4000.0 4000.0 4000.0 4000.0 4000.0 4000.0 4000.0 4000.0 4000.0 4000.0 4000.0 4000.0 4000.0 4000.0 4000.0 4000.0 4000.0 4000.0 4000.0 4000.0 4000.0 4000.0 4000.0 4000.0 4000.0 4000.0 4000.0 4000.0 4000.0 4000.0 4000.0 4000.0 4000.0 4000.0 4000.0 4000.0 4000.0 4000.0 4000.0 4000.0 4000.0 4000.0 4000.0 4000.0 4000.0 4000.0 4000.0 4000.0 4000.0 4000.0 4000.0 4000.0 4000.0 4000.0 4000.0 4000.0 4000.0 4000.0 4000.0 4000.0 4000.0 4000.0 4000.0 4000.0 4000.0 4000.0 4000.0 4000.0 4000.0 4000.0 4000.0 4000.0 4000.0 4000.0 4000.0 4000.0 4000.0 4000.0 4000.0 4000.0 4000.0 4000.0 4000.0 4000.0 4000.0 4000.0 4000.0 4000.0 4000.0 4000.0 4000.0 4000.0 4000.0 4000.0 4000.0 4000.0 4000.0 4000.0 4000.0 4000.0 4000.0 4000.0 4000.0 4000.0 4000.0 4000.0 4000.0 4000.0 4000.0 4000.0 4000.0 4000.0 4000.0 4000.0 4000.0 4000.0 4000.0 4000.0 4000.0 4000.0 4000.0 4000.0 4000.0 4000.0 4000.0 4000.0 4000.0 4000.0 4000.0 4000.0 4000.0 4000.0 4000.0 4000.0 4000.0 4000.0 4000.0 4000.0 4000.0 4000.0 4000.0 4000.0 4000.0 4000.0 4000.0 4000.0 4000.0 4000.0 4000.0 4000.0 4000.0 4000.0 4000.0 4000.0 4000.0 4000.0 4000.0 4000.0 4000.0 4000.0 4000.0 4000.0 4000.0 4000.0 4000.0 4000.0 4000.0 4000.0 4000.0 4000.0 4000.0 4000.0 4000.0 4000.0 4000.0 4000.0 4000.0 4000.0 4000.0 4000.0 4000.0 4000.0 4000.0 4000.0 4000.0 4000.0 4000.0 4000.0 4000.0 4000.0 4000.0 4000.0 4000.0 4000.0 4000.0 4000.0 4000.0 4000.0 4000.0 4000.0 4000.0 4000.0 4000.0 4000.0 4000.0 4000.0 4000.0 4000.0 4000.0 4000.0 4000.0 4000.0 4000.0 4000.0 4000.0 4000.0 4000.0 4000.0 4000.0 4000.0 4000.0 4000.0 4000.0 4000.0 4000.0 4000.0 4000.0 4000.0 4000.0 4000.0 4000.0 4000.0 4000.0 4000.0 4000.0 4000.0 4000.0 4000.0 4000.0 4000.0 4000.0 4000.0 4000.0 4000.0 4000.0 4000.0 4000.0 4000.0 4000.0 4000.0 4000.0 4000.0 4000.0 4000.0 4000.0 4000.0 4000.0 4000.0 4000.0 4000.0 4000.0 4000.0 4000.0 4000.0 4000.0 4000.0 4000.0 4000.0 4000.0 4000.0 4000.0 4000.0 4000.0 4000.0 4000.0 4000.0 4000.0 4000.0 4000.0 4000.0 4000.0 4000.0 4000.0 4000.0 4000.0 4000.0 4000.0 4000.0 4000.0 4000.0 4000.0 4000.0 4000.0 4000.0 4000.0 4000.0 4000.0 4000.0 4000.0 4000.0 4000.0 4000.0 4000.0 4000.0 4000.0 4000.0 4000.0 4000.0 4000.0 4000.0 4000.0 4000.0 4000.0 4000.0 4000.0 4000.0 4000.0 4000.0 4000.0 4000.0 4000.0 4000.0 4000.0 4000.0 4000.0 4000.0 4000.0 4000.0 4000.0 4000.0 4000.0 4000.0 4000.0 4000.0 4000.0 4000.0 4000.0 4000.0 4000.0 4000.0 4000.0 4000.0 4000.0 4000.0 4000.0 4000.0 4000.0 4000.0 4000.0 4000.0 4000.0 4000.0 4000.0 4000.0 4000.0 4000.0 4000.0 4000.0 4000.0 4000.0 4000.0 4000.0 4000.0 4000.0 4000.0 4000.0 4000.0 4000.0 4000.0 4000.0 4000.0 4000.0 4000.0 4000.0 4000.0 4000.0 4000.0 4000.0 4000.0 4000.0 4000.0 4000.0 4000.0 4000.0 4000.0 4000.0 4000.0 4000.0 4000.0 4000.0 4000.0 4000.0 4000.0 4000.0 4000.0 4000.0 4000.0 4000.0 4000.0 4000.0 4000.0 4000.0 4000.0 4000.0 4000.0 4000.0 4000.0 4000.0 4000.0 4000.0 4000.0 4000.0 4000.0 4000.0 4000.0 4000.0 4000.0 4000.0 4000.0 4000.0 4000.0 4000.0 4000.0 4000.0 4000.0 4000.0 4000.0 4000.0 4000.0 4000.0 4000.0 4000.0 4000.0 4000.0 4000.0 4000.0 4000.0 4000.0 4000.0 4000.0 4000.0 4000.0 4000.0 4000.0 4000.0 4000.0 4000.0 4000.0 4000.0 4000.0 4000.0 4000.0 4000.0 4000.0 4000.0 4000.0 4000.0 4000.0 4000.0 4000.0 4000.0 4000.0 4000.0 4000.0 4000.0 4000.0 4000.0 4000.0 4000.0 4000.0 4000.0 4000.0 4000.0 4000.0 4000.0 4000.0 4000.0 4000.0 4000.0 4000.0 4000.0 4000.0 4000.0 4000.0 4000.0 4000.0 4000.0 4000.0 4000.0 4000.0 4000.0 4000.0 4000.0 4000.0 4000.0 4000.0 4000.0 4000.0 4000.0 4000.0 4000.0 4000.0 4000.0 4000.0 4000.0 4000.0 4000.0 4000.0 4000.0 4000.0 4000.0 4000.0 4000.0 4000.0 4000.0 4000.0 4000.0 4000.0 4000.0 4000.0 4000.0 4000.0 4000.0 4000.0 4000.0 4000.0 4000.0 4000.0 4000.0 4000.0 4000.0 4000.0 4000.0 4000.0 4000.0 4000.0 4000.0 4000.0 4000.0 4000.0 4000.0 4000.0 4000.0 4000.0 4000.0 4000.0 4000.0 4000.0 4000.0 4000.0 4000.0 4000.0 4000.0 4000.0 4000.0 4000.0 4000.0 4000.0 4000.0 4000.0 4000.0 4000.0 4000.0 4000.0 4000.0 4000.0 4000.0 4000.0 4000.0 4000.0 4000.0 4000.0 4000.0 4000.0 4000.0 4000.0 4000.0 4000.0 4000.0 4000.0 4000.0 4000.0 4000.0 4000.0 4000.0 4000.0 4000.0 4000.0 4000.0 4000.0 4000.0 4000.0 4000.0 4000.0 4000.0 4000.0 4000.0 4000.0 4000.0 4000.0 4000.0 4000.0 4000.0 4000.0 4000.0 4000.0 4000.0 4000.0 4000.0 4000.0 4000.0 4000.0 4000.0 4000.0 4000.0 4000.0 4000.0 4000.0 4000.0 4000.0 4000.0 4000.0 4000.0 4000.0 4000.0 4000.0 4000.0 4000.0 4000.0 4000.0 4000.0 4000.0 4000.0 4000.0 4000.0 4000.0 4000.0 4000.0 4000.0 4000.0 4000.0 4000.0 4000.0 4000.0 4000.0 4000.0 4000.0 4000.0 4000.0 4000.0 4000.0 4000.0 4000.0 4000.0 4000.0 4000.0 4000.0 4000.0 4000.0 4000.0 4000.0 4000.0 4000.0 4000.0 4000.0 4000.0 4000.0 4000.0 4000.0 4000.0 4000.0 4000.0 4000.0 4000.0 4000.0 4000.0 4000.0 4000.0 4000.0 4000.0 4000.0 4000.0 4000.0 4000.0 4000.0 4000.0 4000.0 4000.0 4000.0 4000.0 4000.0 4000.0 4000.0 4000.0 4000.0 4000.0 4000.0 4000.0 4000.0 4000.0 4000.0 4000.0 4000.0 4000.0 4000.0 4000.0 4000.0 4000.0 4000.0 4000.0 4000.0 4000.0 4000.0 4000.0 4000.0 4000.0 4000.0 4000.0 4000.0 4000.0 4000.0 4000.0 4000.0 4000.0 4000.0 4000.0 4000.0 4000.0 4000.0 4000.0 4000.0 4000.0 4000.0 4000.0 4000.0 4000.0 4000.0 4000.0 4000.0 4000.0 4000.0 4000.0 4000.0 4000.0 4000.0 4000.0 4000.0 4000.0 4000.0 4000.0 4000.0 4000.0 4000.0 4000.0 4000.0 4000.0 4000.0 4000.0 4000.0 4000.0 4000.0 4000.0 4000.0 4000.0 4000.0 4000.0 4000.0 4000.0 4000.0 4000.0 4000.0 4000.0 4000.0 4000.0 4000.0 4000.0 4000.0 4000.0 4000.0 4000.0 4000.0 4000.0 4000.0 4000.0 4000.0 4000.0 4000.0 4000.0 4000.0 4000.0 4000.0 4000.0 4000.0 4000.0 4000.0 4000.0 4000.0 4000.0 4000.0 4000.0 4000.0 4000.0 4000.0 4000.0 4000.0 4000.0 4000.0 4000.0 4000.0 4000.0 4000.0 4000.0 4000.0 4000.0 4000.0 4000.0 4000.0 4000.0 4000.0 4000.0 4000.0 4000.0 4000.0 4000.0 4000.0 4000.0 4000.0 4000.0 4000.0 4000.0 4000.0 4000.0 4000.0 4000.0 4000.0 4000.0 4000.0 4000.0 4000.0 4000.0 4000.0 4000.0 4000.0 4000.0 4000.0 4000.0 4000.0 4000.0 4000.0 4000.0 4000.0 4000.0 4000.0 4000.0 4000.0 4000.0 4000.0 4000.0 4000.0 4000.0 4000.0 4000.0 4000.0 4000.0 4000.0 4000.0 4000.0 4000.0 4000.0 4000.0 4000.0 4000.0 4000.0 4000.0 4000.0 4000.0 4000.0 4000.0 4000.0 4000.0 4000.0 4000.0 4000.0 4000.0 4000.0 4000.0 4000.0 4000.0 4000.0 4000.0 4000.0 4000.0 4000.0 4000.0 4000.0 4000.0 4000.0 4000.0 4000.0 4000.0 4000.0 4000.0 4000.0 4000.0 4000.0 4000.0 4000.0 4000.0 4000.0 4000.0 4000.0 4000.0 4000.0 4000.0 4000.0 4000.0 4000.0 4000.0 4000.0 4000.0 4000.0 4000.0 4000.0 4000.0 4000.0 4000.0 4000.0 4000.0 4000.0 4000.0 4000.0 4000.0 4000.0 4000.0 4000.0 4000.0 4000.0 4000.0 4000.0 4000.0 4000.0 4000.0 4000.0 4000.0 4000.0 4000.0 4000.0 4000.0 4000.0 4000.0 4000.0 4000.0 4000.0 4000.0 4000.0 4000.0 4000.0 4000.0 4000.0 4000.0 4000.0 4000.0 4000.0 4000.0 4000.0 4000.0 4000.0 4000.0 4000.0 4000.0 4000.0 4000.0 4000.0 4000.0 4000.0 4000.0 4000.0 4000.0 4000.0 4000.0 4000.0 4000.0 4000.0 4000.0 4000.0 4000.0 4000.0 4000.0 4000.0 4000.0 4000.0 4000.0 4000.0 4000.0 4000.0 4000.0 4000.0 4000.0 4000.0 4000.0 4000.0 4000.0 4000.0 4000.0 4000.0 4000.0 4000.0 4000.0 4000.0 4000.0 4000.0 4000.0 4000.0 4000.0 4000.0 4000.0 4000.0 4000.0 4000.0 4000.0 4000.0 4000.0 4000.0 4000.0 4000.0 4000.0 4000.0 4000.0 4000.0 4000.0 4000.0 4000.0 4000.0 4000.0 4000.0 4000.0 4000.0 4000.0 4000.0 4000.0 4000.0 4000.0 4000.0 4000.0 4000.0 4000.0 4000.0 4000.0 4000.0 4000.0 4000.0 4000.0 4000.0 4000.0 4000.0 4000.0 4000.0 4000.0 4000.0 4000.0 4000.0 4000.0 4000.0 4000.0 4000.0 4000.0 4000.0 4000.0 4000.0 4000.0 4000.0 4000.0 4000.0 4000.0 4000.0 4000.0 4000.0 4000.0 4000.0 4000.0 4000.0 4000.0 4000.0 4000.0 4000.0 4000.0 4000.0 4000.0 4000.0 4000.0 4000.0 4000.0 4000.0 4000.0 4000.0 4000.0 4000.0 4000.0 4000.0 4000.0 4000.0 4000.0 4000.0 4000.0 4000.0 4000.0 4000.0 4000.0 4000.0 4000.0 4000.0 4000.0 4000.0 4000.0 4000.0 4000.0 4000.0 4000.0 4000.0 4000.0 4000.0 4000.0 4000.0 4000.0 4000.0 4000.0 4000.0 4000.0 4000.0 4000.0 4000.0 4000.0 4000.0 4000.0 4000.0 4000.0 4000.0 4000.0 4000.0 4000.0 4000.0 4000.0 4000.0 4000.0 4000.0 4000.0 4000.0 4000.0 4000.0 4000.0 4000.0 4000.0 4000.0 4000.0 4000.0 4000.0 4000.0 4000.0 4000.0 4000.0 4000.0 4000.0 4000.0 4000.0 4000.0 4000.0 4000.0 4000.0 4000.0 4000.0 4000.0 4000.0 4000.0 4000.0 4000.0 4000.0 4000.0 4000.0 4000.0 4000.0 4000.0 4000.0 4000.0 4000.0 4000.0 4000.0 4000.0 4000.0 4000.0 4000.0 4000.0 4000.0 4000.0 4000.0 4000.0 4000.0 4000.0 4000.0 4000.0 4000.0 4000.0 4000.0 4000.0 4000.0 4000.0 4000.0 4000.0 4000.0 4000.0 4000.0 4000.0 4000.0 4000.0 4000.0 4000.0 4000.0 4000.0 4000.0 4000.0 4000.0 4000.0 4000.0 4000.0 4000.0 4000.0 4000.0 4000.0 4000.0 4000.0 4000.0 4000.0 4000.0 4000.0 4000.0 4000.0 4000.0 4000.0 4000.0 4000.0 4000.0 4000.0 4000.0 4000.0 4000.0 4000.0 4000.0 4000.0 4000.0 4000.0 4000.0 4000.0 4000.0 4000.0 4000.0 4000.0 4000.0 SCALARS Mass float 1
LOOKUP_TABLE default
11309700000.0 11309700000.0 11309700000.0 11309700000.0 11309700000.0 11309700000.0 11309700000.0 11309700000.0 11309700000.0 11309700000.0 11309700000.0 11309700000.0 11309700000.0 11309700000.0 11309700000.0 11309700000.0 11309700000.0 11309700000.0 11309700000.0 11309700000.0 11309700000.0 11309700000.0 11309700000.0 11309700000.0 11309700000.0 11309700000.0 11309700000.0 11309700000.0 11309700000.0 11309700000.0 11309700000.0 11309700000.0 11309700000.0 11309700000.0 11309700000.0 11309700000.0 11309700000.0 11309700000.0 11309700000.0 11309700000.0 11309700000.0 11309700000.0 11309700000.0 11309700000.0 11309700000.0 11309700000.0 11309700000.0 11309700000.0 11309700000.0 11309700000.0 11309700000.0 11309700000.0 11309700000.0 11309700000.0 11309700000.0 11309700000.0 11309700000.0 11309700000.0 11309700000.0 11309700000.0 11309700000.0 11309700000.0 11309700000.0 11309700000.0 11309700000.0 11309700000.0 11309700000.0 11309700000.0 11309700000.0 11309700000.0 11309700000.0 11309700000.0 11309700000.0 11309700000.0 11309700000.0 11309700000.0 11309700000.0 11309700000.0 11309700000.0 11309700000.0 11309700000.0 11309700000.0 11309700000.0 11309700000.0 11309700000.0 11309700000.0 11309700000.0 11309700000.0 11309700000.0 11309700000.0 11309700000.0 11309700000.0 11309700000.0 11309700000.0 11309700000.0 11309700000.0 11309700000.0 11309700000.0 11309700000.0 11309700000.0 11309700000.0 11309700000.0 11309700000.0 11309700000.0 11309700000.0 11309700000.0 11309700000.0 11309700000.0 11309700000.0 11309700000.0 11309700000.0 11309700000.0 11309700000.0 11309700000.0 11309700000.0 11309700000.0 11309700000.0 11309700000.0 11309700000.0 11309700000.0 11309700000.0 11309700000.0 11309700000.0 11309700000.0 11309700000.0 11309700000.0 11309700000.0 11309700000.0 11309700000.0 11309700000.0 11309700000.0 11309700000.0 11309700000.0 11309700000.0 11309700000.0 11309700000.0 11309700000.0 11309700000.0 11309700000.0 11309700000.0 11309700000.0 11309700000.0 11309700000.0 11309700000.0 11309700000.0 11309700000.0 11309700000.0 11309700000.0 11309700000.0 11309700000.0 11309700000.0 11309700000.0 11309700000.0 11309700000.0 11309700000.0 11309700000.0 11309700000.0 11309700000.0 11309700000.0 11309700000.0 11309700000.0 11309700000.0 11309700000.0 11309700000.0 11309700000.0 11309700000.0 11309700000.0 11309700000.0 11309700000.0 11309700000.0 11309700000.0 11309700000.0 11309700000.0 11309700000.0 11309700000.0 11309700000.0 11309700000.0 11309700000.0 11309700000.0 11309700000.0 11309700000.0 11309700000.0 11309700000.0 11309700000.0 11309700000.0 11309700000.0 11309700000.0 11309700000.0 11309700000.0 11309700000.0 11309700000.0 11309700000.0 11309700000.0 11309700000.0 11309700000.0 11309700000.0 11309700000.0 11309700000.0 11309700000.0 11309700000.0 11309700000.0 11309700000.0 11309700000.0 11309700000.0 11309700000.0 11309700000.0 11309700000.0 11309700000.0 11309700000.0 11309700000.0 11309700000.0 11309700000.0 11309700000.0 11309700000.0 11309700000.0 11309700000.0 11309700000.0 11309700000.0 11309700000.0 11309700000.0 11309700000.0 11309700000.0 11309700000.0 11309700000.0 11309700000.0 11309700000.0 11309700000.0 11309700000.0 11309700000.0 11309700000.0 11309700000.0 11309700000.0 11309700000.0 11309700000.0 11309700000.0 11309700000.0 11309700000.0 11309700000.0 11309700000.0 11309700000.0 11309700000.0 11309700000.0 11309700000.0 11309700000.0 11309700000.0 11309700000.0 11309700000.0 11309700000.0 11309700000.0 11309700000.0 11309700000.0 11309700000.0 11309700000.0 11309700000.0 11309700000.0 11309700000.0 11309700000.0 11309700000.0 11309700000.0 11309700000.0 11309700000.0 11309700000.0 11309700000.0 11309700000.0 11309700000.0 11309700000.0 11309700000.0 11309700000.0 11309700000.0 11309700000.0 11309700000.0 11309700000.0 11309700000.0 11309700000.0 11309700000.0 11309700000.0 11309700000.0 11309700000.0 11309700000.0 11309700000.0 11309700000.0 11309700000.0 11309700000.0 11309700000.0 11309700000.0 11309700000.0 11309700000.0 11309700000.0 11309700000.0 11309700000.0 11309700000.0 11309700000.0 11309700000.0 11309700000.0 11309700000.0 11309700000.0 11309700000.0 11309700000.0 11309700000.0 11309700000.0 11309700000.0 11309700000.0 11309700000.0 11309700000.0 11309700000.0 11309700000.0 11309700000.0 11309700000.0 11309700000.0 11309700000.0 11309700000.0 11309700000.0 11309700000.0 11309700000.0 11309700000.0 11309700000.0 11309700000.0 11309700000.0 11309700000.0 11309700000.0 11309700000.0 11309700000.0 11309700000.0 11309700000.0 11309700000.0 11309700000.0 11309700000.0 11309700000.0 11309700000.0 11309700000.0 11309700000.0 11309700000.0 11309700000.0 11309700000.0 11309700000.0 11309700000.0 11309700000.0 11309700000.0 11309700000.0 11309700000.0 11309700000.0 11309700000.0 11309700000.0 11309700000.0 11309700000.0 11309700000.0 11309700000.0 11309700000.0 11309700000.0 11309700000.0 11309700000.0 11309700000.0 11309700000.0 11309700000.0 11309700000.0 11309700000.0 11309700000.0 11309700000.0 11309700000.0 11309700000.0 11309700000.0 11309700000.0 11309700000.0 11309700000.0 11309700000.0 11309700000.0 11309700000.0 11309700000.0 11309700000.0 11309700000.0 11309700000.0 11309700000.0 11309700000.0 11309700000.0 11309700000.0 11309700000.0 11309700000.0 11309700000.0 11309700000.0 11309700000.0 11309700000.0 11309700000.0 11309700000.0 11309700000.0 11309700000.0 11309700000.0 11309700000.0 11309700000.0 11309700000.0 11309700000.0 11309700000.0 11309700000.0 11309700000.0 11309700000.0 11309700000.0 11309700000.0 11309700000.0 11309700000.0 11309700000.0 11309700000.0 11309700000.0 11309700000.0 11309700000.0 11309700000.0 11309700000.0 11309700000.0 11309700000.0 11309700000.0 11309700000.0 11309700000.0 11309700000.0 11309700000.0 11309700000.0 11309700000.0 11309700000.0 11309700000.0 11309700000.0 11309700000.0 11309700000.0 11309700000.0 11309700000.0 11309700000.0 11309700000.0 11309700000.0 11309700000.0 11309700000.0 11309700000.0 11309700000.0 11309700000.0 11309700000.0 11309700000.0 11309700000.0 11309700000.0 11309700000.0 11309700000.0 11309700000.0 11309700000.0 11309700000.0 11309700000.0 11309700000.0 11309700000.0 11309700000.0 11309700000.0 11309700000.0 11309700000.0 11309700000.0 11309700000.0 11309700000.0 11309700000.0 11309700000.0 11309700000.0 11309700000.0 11309700000.0 11309700000.0 11309700000.0 11309700000.0 11309700000.0 11309700000.0 11309700000.0 11309700000.0 11309700000.0 11309700000.0 11309700000.0 11309700000.0 11309700000.0 11309700000.0 11309700000.0 11309700000.0 11309700000.0 11309700000.0 11309700000.0 11309700000.0 11309700000.0 11309700000.0 11309700000.0 11309700000.0 11309700000.0 11309700000.0 11309700000.0 11309700000.0 11309700000.0 11309700000.0 11309700000.0 11309700000.0 11309700000.0 11309700000.0 11309700000.0 11309700000.0 11309700000.0 11309700000.0 11309700000.0 11309700000.0 11309700000.0 11309700000.0 11309700000.0 11309700000.0 11309700000.0 11309700000.0 11309700000.0 11309700000.0 11309700000.0 11309700000.0 11309700000.0 11309700000.0 11309700000.0 11309700000.0 11309700000.0 11309700000.0 11309700000.0 11309700000.0 11309700000.0 11309700000.0 11309700000.0 11309700000.0 11309700000.0 11309700000.0 11309700000.0 11309700000.0 11309700000.0 11309700000.0 11309700000.0 11309700000.0 11309700000.0 11309700000.0 11309700000.0 11309700000.0 11309700000.0 11309700000.0 11309700000.0 11309700000.0 11309700000.0 11309700000.0 11309700000.0 11309700000.0 11309700000.0 11309700000.0 11309700000.0 11309700000.0 11309700000.0 11309700000.0 11309700000.0 11309700000.0 11309700000.0 11309700000.0 11309700000.0 11309700000.0 11309700000.0 11309700000.0 11309700000.0 11309700000.0 11309700000.0 11309700000.0 11309700000.0 11309700000.0 11309700000.0 11309700000.0 11309700000.0 11309700000.0 11309700000.0 11309700000.0 11309700000.0 11309700000.0 11309700000.0 11309700000.0 11309700000.0 11309700000.0 11309700000.0 11309700000.0 11309700000.0 11309700000.0 11309700000.0 11309700000.0 11309700000.0 11309700000.0 11309700000.0 11309700000.0 11309700000.0 11309700000.0 11309700000.0 11309700000.0 11309700000.0 11309700000.0 11309700000.0 11309700000.0 11309700000.0 11309700000.0 11309700000.0 11309700000.0 11309700000.0 11309700000.0 11309700000.0 11309700000.0 11309700000.0 11309700000.0 11309700000.0 11309700000.0 11309700000.0 11309700000.0 11309700000.0 11309700000.0 11309700000.0 11309700000.0 11309700000.0 11309700000.0 11309700000.0 11309700000.0 11309700000.0 11309700000.0 11309700000.0 11309700000.0 11309700000.0 11309700000.0 11309700000.0 11309700000.0 11309700000.0 11309700000.0 11309700000.0 11309700000.0 11309700000.0 11309700000.0 11309700000.0 11309700000.0 11309700000.0 11309700000.0 11309700000.0 11309700000.0 11309700000.0 11309700000.0 11309700000.0 11309700000.0 11309700000.0 11309700000.0 11309700000.0 11309700000.0 11309700000.0 11309700000.0 11309700000.0 11309700000.0 11309700000.0 11309700000.0 11309700000.0 11309700000.0 11309700000.0 11309700000.0 11309700000.0 11309700000.0 11309700000.0 11309700000.0 11309700000.0 11309700000.0 11309700000.0 11309700000.0 11309700000.0 11309700000.0 11309700000.0 11309700000.0 11309700000.0 11309700000.0 11309700000.0 11309700000.0 11309700000.0 11309700000.0 11309700000.0 11309700000.0 11309700000.0 11309700000.0 11309700000.0 11309700000.0 11309700000.0 11309700000.0 11309700000.0 11309700000.0 11309700000.0 11309700000.0 11309700000.0 11309700000.0 11309700000.0 11309700000.0 11309700000.0 11309700000.0 11309700000.0 11309700000.0 11309700000.0 11309700000.0 11309700000.0 11309700000.0 11309700000.0 11309700000.0 11309700000.0 11309700000.0 11309700000.0 11309700000.0 11309700000.0 11309700000.0 11309700000.0 11309700000.0 11309700000.0 11309700000.0 11309700000.0 11309700000.0 11309700000.0 11309700000.0 11309700000.0 11309700000.0 11309700000.0 11309700000.0 11309700000.0 11309700000.0 11309700000.0 11309700000.0 11309700000.0 11309700000.0 11309700000.0 11309700000.0 11309700000.0 11309700000.0 11309700000.0 11309700000.0 11309700000.0 11309700000.0 11309700000.0 11309700000.0 11309700000.0 11309700000.0 11309700000.0 11309700000.0 11309700000.0 11309700000.0 11309700000.0 11309700000.0 11309700000.0 11309700000.0 11309700000.0 11309700000.0 11309700000.0 11309700000.0 11309700000.0 11309700000.0 11309700000.0 11309700000.0 11309700000.0 11309700000.0 11309700000.0 11309700000.0 11309700000.0 11309700000.0 11309700000.0 11309700000.0 11309700000.0 11309700000.0 11309700000.0 11309700000.0 11309700000.0 11309700000.0 11309700000.0 11309700000.0 11309700000.0 11309700000.0 11309700000.0 11309700000.0 11309700000.0 11309700000.0 11309700000.0 11309700000.0 11309700000.0 11309700000.0 11309700000.0 11309700000.0 11309700000.0 11309700000.0 11309700000.0 11309700000.0 11309700000.0 11309700000.0 11309700000.0 11309700000.0 11309700000.0 11309700000.0 11309700000.0 11309700000.0 11309700000.0 11309700000.0 11309700000.0 11309700000.0 11309700000.0 11309700000.0 11309700000.0 11309700000.0 11309700000.0 11309700000.0 11309700000.0 11309700000.0 11309700000.0 11309700000.0 11309700000.0 11309700000.0 11309700000.0 11309700000.0 11309700000.0 11309700000.0 11309700000.0 11309700000.0 11309700000.0 11309700000.0 11309700000.0 11309700000.0 11309700000.0 11309700000.0 11309700000.0 11309700000.0 11309700000.0 11309700000.0 11309700000.0 11309700000.0 11309700000.0 11309700000.0 11309700000.0 11309700000.0 11309700000.0 11309700000.0 11309700000.0 11309700000.0 11309700000.0 11309700000.0 11309700000.0 11309700000.0 11309700000.0 11309700000.0 11309700000.0 11309700000.0 11309700000.0 11309700000.0 11309700000.0 11309700000.0 11309700000.0 11309700000.0 11309700000.0 11309700000.0 11309700000.0 11309700000.0 11309700000.0 11309700000.0 11309700000.0 11309700000.0 11309700000.0 11309700000.0 11309700000.0 11309700000.0 11309700000.0 11309700000.0 11309700000.0 11309700000.0 11309700000.0 11309700000.0 11309700000.0 11309700000.0 11309700000.0 11309700000.0 11309700000.0 11309700000.0 11309700000.0 11309700000.0 11309700000.0 11309700000.0 11309700000.0 11309700000.0 11309700000.0 11309700000.0 11309700000.0 11309700000.0 11309700000.0 11309700000.0 11309700000.0 11309700000.0 11309700000.0 11309700000.0 11309700000.0 11309700000.0 11309700000.0 11309700000.0 11309700000.0 11309700000.0 11309700000.0 11309700000.0 11309700000.0 11309700000.0 11309700000.0 11309700000.0 11309700000.0 11309700000.0 11309700000.0 11309700000.0 11309700000.0 11309700000.0 11309700000.0 11309700000.0 11309700000.0 11309700000.0 11309700000.0 11309700000.0 11309700000.0 11309700000.0 11309700000.0 11309700000.0 11309700000.0 11309700000.0 11309700000.0 11309700000.0 11309700000.0 11309700000.0 11309700000.0 11309700000.0 11309700000.0 11309700000.0 11309700000.0 11309700000.0 11309700000.0 11309700000.0 11309700000.0 11309700000.0 11309700000.0 11309700000.0 11309700000.0 11309700000.0 11309700000.0 11309700000.0 11309700000.0 11309700000.0 11309700000.0 11309700000.0 11309700000.0 11309700000.0 11309700000.0 11309700000.0 11309700000.0 11309700000.0 11309700000.0 11309700000.0 11309700000.0 11309700000.0 11309700000.0 11309700000.0 11309700000.0 11309700000.0 11309700000.0 11309700000.0 11309700000.0 11309700000.0 11309700000.0 11309700000.0 11309700000.0 11309700000.0 11309700000.0 11309700000.0 11309700000.0 11309700000.0 11309700000.0 11309700000.0 11309700000.0 11309700000.0 11309700000.0 11309700000.0 11309700000.0 11309700000.0 11309700000.0 11309700000.0 11309700000.0 11309700000.0 11309700000.0 11309700000.0 11309700000.0 11309700000.0 11309700000.0 11309700000.0 11309700000.0 11309700000.0 11309700000.0 11309700000.0 11309700000.0 11309700000.0 11309700000.0 11309700000.0 11309700000.0 11309700000.0 11309700000.0 11309700000.0 11309700000.0 11309700000.0 11309700000.0 11309700000.0 11309700000.0 11309700000.0 11309700000.0 11309700000.0 11309700000.0 11309700000.0 11309700000.0 11309700000.0 11309700000.0 11309700000.0 11309700000.0 11309700000.0 11309700000.0 11309700000.0 11309700000.0 11309700000.0 11309700000.0 11309700000.0 11309700000.0 11309700000.0 11309700000.0 11309700000.0 11309700000.0 11309700000.0 11309700000.0 11309700000.0 11309700000.0 11309700000.0 11309700000.0 11309700000.0 11309700000.0 11309700000.0 11309700000.0 11309700000.0 11309700000.0 11309700000.0 11309700000.0 11309700000.0 11309700000.0 11309700000.0 11309700000.0 11309700000.0 11309700000.0 11309700000.0 11309700000.0 11309700000.0 11309700000.0 11309700000.0 11309700000.0 11309700000.0 11309700000.0 11309700000.0 11309700000.0 11309700000.0 11309700000.0 11309700000.0 11309700000.0 11309700000.0 11309700000.0 11309700000.0 11309700000.0 11309700000.0 11309700000.0 11309700000.0 11309700000.0 11309700000.0 11309700000.0 11309700000.0 11309700000.0 11309700000.0 11309700000.0 11309700000.0 11309700000.0 11309700000.0 11309700000.0 11309700000.0 11309700000.0 11309700000.0 11309700000.0 11309700000.0 11309700000.0 11309700000.0 11309700000.0 11309700000.0 11309700000.0 11309700000.0 11309700000.0 11309700000.0 11309700000.0 11309700000.0 11309700000.0 11309700000.0 11309700000.0 11309700000.0 11309700000.0 11309700000.0 11309700000.0 11309700000.0 11309700000.0 11309700000.0 11309700000.0 11309700000.0 11309700000.0 11309700000.0 11309700000.0 11309700000.0 11309700000.0 11309700000.0 11309700000.0 11309700000.0 11309700000.0 11309700000.0 11309700000.0 11309700000.0 11309700000.0 11309700000.0 11309700000.0 11309700000.0 11309700000.0 11309700000.0 11309700000.0 11309700000.0 11309700000.0 11309700000.0 11309700000.0 11309700000.0 11309700000.0 11309700000.0 11309700000.0 11309700000.0 11309700000.0 11309700000.0 11309700000.0 11309700000.0 11309700000.0 11309700000.0 11309700000.0 11309700000.0 11309700000.0 11309700000.0 11309700000.0 11309700000.0 11309700000.0 11309700000.0 11309700000.0 11309700000.0 11309700000.0 11309700000.0 11309700000.0 11309700000.0 11309700000.0 11309700000.0 11309700000.0 11309700000.0 11309700000.0 11309700000.0 11309700000.0 11309700000.0 11309700000.0 11309700000.0 11309700000.0 11309700000.0 11309700000.0 11309700000.0 11309700000.0 11309700000.0 11309700000.0 11309700000.0 11309700000.0 11309700000.0 11309700000.0 11309700000.0 11309700000.0 11309700000.0 11309700000.0 11309700000.0 11309700000.0 11309700000.0 11309700000.0 11309700000.0 11309700000.0 11309700000.0 11309700000.0 11309700000.0 11309700000.0 11309700000.0 11309700000.0 11309700000.0 11309700000.0 11309700000.0 11309700000.0 11309700000.0 11309700000.0 11309700000.0 11309700000.0 11309700000.0 11309700000.0 11309700000.0 11309700000.0 11309700000.0 11309700000.0 11309700000.0 11309700000.0 11309700000.0 11309700000.0 11309700000.0 11309700000.0 11309700000.0 11309700000.0 11309700000.0 11309700000.0 11309700000.0 11309700000.0 11309700000.0 11309700000.0 11309700000.0 11309700000.0 11309700000.0 11309700000.0 11309700000.0 11309700000.0 11309700000.0 11309700000.0 11309700000.0 11309700000.0 11309700000.0 11309700000.0 11309700000.0 11309700000.0 11309700000.0 11309700000.0 11309700000.0 11309700000.0 11309700000.0 11309700000.0 11309700000.0 11309700000.0 11309700000.0 11309700000.0 11309700000.0 11309700000.0 11309700000.0 11309700000.0 11309700000.0 11309700000.0 11309700000.0 11309700000.0 11309700000.0 11309700000.0 11309700000.0 11309700000.0 11309700000.0 11309700000.0 11309700000.0 11309700000.0 11309700000.0 11309700000.0 11309700000.0 11309700000.0 11309700000.0 11309700000.0 11309700000.0 11309700000.0 11309700000.0 11309700000.0 11309700000.0 11309700000.0 11309700000.0 11309700000.0 11309700000.0 11309700000.0 11309700000.0 11309700000.0 11309700000.0 11309700000.0 11309700000.0 11309700000.0 11309700000.0 11309700000.0 11309700000.0 11309700000.0 11309700000.0 11309700000.0 11309700000.0 11309700000.0 11309700000.0 11309700000.0 11309700000.0 11309700000.0 11309700000.0 11309700000.0 11309700000.0 11309700000.0 11309700000.0 11309700000.0 11309700000.0 11309700000.0 11309700000.0 11309700000.0 11309700000.0 11309700000.0 11309700000.0 11309700000.0 11309700000.0 11309700000.0 11309700000.0 11309700000.0 11309700000.0 11309700000.0 11309700000.0 11309700000.0 11309700000.0 11309700000.0 11309700000.0 11309700000.0 11309700000.0 11309700000.0 11309700000.0 11309700000.0 11309700000.0 11309700000.0 11309700000.0 11309700000.0 11309700000.0 11309700000.0 11309700000.0 11309700000.0 11309700000.0 11309700000.0 11309700000.0 11309700000.0 11309700000.0 11309700000.0 11309700000.0 11309700000.0 11309700000.0 11309700000.0 11309700000.0 11309700000.0 11309700000.0 11309700000.0 11309700000.0 11309700000.0 11309700000.0 11309700000.0 11309700000.0 11309700000.0 11309700000.0 11309700000.0 11309700000.0 11309700000.0 11309700000.0 11309700000.0 11309700000.0 11309700000.0 11309700000.0 11309700000.0 11309700000.0 11309700000.0 11309700000.0 11309700000.0 11309700000.0 11309700000.0 11309700000.0 11309700000.0 11309700000.0 11309700000.0 11309700000.0 11309700000.0 11309700000.0 11309700000.0 11309700000.0 11309700000.0 11309700000.0 11309700000.0 11309700000.0 11309700000.0 11309700000.0 11309700000.0 11309700000.0 11309700000.0 11309700000.0 11309700000.0 11309700000.0 11309700000.0 11309700000.0 11309700000.0 11309700000.0 11309700000.0 11309700000.0 11309700000.0 11309700000.0 11309700000.0 11309700000.0 11309700000.0 11309700000.0 11309700000.0 11309700000.0 11309700000.0 11309700000.0 11309700000.0 11309700000.0 11309700000.0 11309700000.0 11309700000.0 11309700000.0 11309700000.0 11309700000.0 11309700000.0 11309700000.0 11309700000.0 11309700000.0 11309700000.0 11309700000.0 11309700000.0 11309700000.0 11309700000.0 11309700000.0 11309700000.0 11309700000.0 11309700000.0 11309700000.0 11309700000.0 11309700000.0 11309700000.0 11309700000.0 11309700000.0 11309700000.0 11309700000.0 11309700000.0 11309700000.0 11309700000.0 11309700000.0 11309700000.0 11309700000.0 11309700000.0 11309700000.0 11309700000.0 11309700000.0 11309700000.0 11309700000.0 11309700000.0 11309700000.0 11309700000.0 11309700000.0 11309700000.0 11309700000.0 11309700000.0 11309700000.0 11309700000.0 11309700000.0 11309700000.0 11309700000.0 11309700000.0 11309700000.0 11309700000.0 11309700000.0 11309700000.0 11309700000.0 11309700000.0 11309700000.0 11309700000.0 11309700000.0 11309700000.0 11309700000.0 11309700000.0 11309700000.0 11309700000.0 11309700000.0 11309700000.0 11309700000.0 11309700000.0 11309700000.0 11309700000.0 11309700000.0 11309700000.0 11309700000.0 11309700000.0 11309700000.0 11309700000.0 11309700000.0 11309700000.0 11309700000.0 11309700000.0 11309700000.0 11309700000.0 11309700000.0 11309700000.0 11309700000.0 11309700000.0 11309700000.0 11309700000.0 11309700000.0 11309700000.0 11309700000.0 11309700000.0 11309700000.0 11309700000.0 11309700000.0 11309700000.0 11309700000.0 11309700000.0 11309700000.0 11309700000.0 11309700000.0 11309700000.0 11309700000.0 11309700000.0 11309700000.0 11309700000.0 11309700000.0 11309700000.0 11309700000.0 11309700000.0 11309700000.0 11309700000.0 11309700000.0 11309700000.0 11309700000.0 11309700000.0 11309700000.0 11309700000.0 11309700000.0 11309700000.0 11309700000.0 11309700000.0 11309700000.0 11309700000.0 11309700000.0 11309700000.0 11309700000.0 11309700000.0 11309700000.0 11309700000.0 11309700000.0 11309700000.0 11309700000.0 11309700000.0 11309700000.0 11309700000.0 11309700000.0 11309700000.0 11309700000.0 11309700000.0 11309700000.0 11309700000.0 11309700000.0 11309700000.0 11309700000.0 11309700000.0 11309700000.0 11309700000.0 11309700000.0 11309700000.0 11309700000.0 11309700000.0 11309700000.0 11309700000.0 11309700000.0 11309700000.0 11309700000.0 11309700000.0 11309700000.0 11309700000.0 11309700000.0 11309700000.0 11309700000.0 11309700000.0 11309700000.0 11309700000.0 11309700000.0 11309700000.0 11309700000.0 11309700000.0 11309700000.0 11309700000.0 11309700000.0 11309700000.0 11309700000.0 11309700000.0 11309700000.0 11309700000.0 11309700000.0 11309700000.0 11309700000.0 11309700000.0 11309700000.0 11309700000.0 11309700000.0 11309700000.0 11309700000.0 11309700000.0 11309700000.0 11309700000.0 11309700000.0 11309700000.0 11309700000.0 11309700000.0 11309700000.0 11309700000.0 11309700000.0 11309700000.0 11309700000.0 11309700000.0 11309700000.0 11309700000.0 11309700000.0 11309700000.0 11309700000.0 11309700000.0 11309700000.0 11309700000.0 11309700000.0 11309700000.0 11309700000.0 11309700000.0 11309700000.0 11309700000.0 11309700000.0 11309700000.0 11309700000.0 11309700000.0 11309700000.0 11309700000.0 11309700000.0 11309700000.0 11309700000.0 11309700000.0 11309700000.0 11309700000.0 11309700000.0 11309700000.0 11309700000.0 11309700000.0 11309700000.0 11309700000.0 11309700000.0 11309700000.0 11309700000.0 11309700000.0 11309700000.0 11309700000.0 11309700000.0 11309700000.0 11309700000.0 11309700000.0 11309700000.0 11309700000.0 11309700000.0 11309700000.0 11309700000.0 11309700000.0 11309700000.0 11309700000.0 11309700000.0 11309700000.0 11309700000.0 11309700000.0 11309700000.0 11309700000.0 11309700000.0 11309700000.0 11309700000.0 11309700000.0 11309700000.0 11309700000.0 11309700000.0 11309700000.0 11309700000.0 11309700000.0 11309700000.0 11309700000.0 11309700000.0 11309700000.0 11309700000.0 11309700000.0 11309700000.0 11309700000.0 11309700000.0 11309700000.0 11309700000.0 11309700000.0 11309700000.0 11309700000.0 11309700000.0 11309700000.0 11309700000.0 11309700000.0 11309700000.0 11309700000.0 11309700000.0 11309700000.0 11309700000.0 11309700000.0 11309700000.0 11309700000.0 11309700000.0 11309700000.0 11309700000.0 11309700000.0 11309700000.0 11309700000.0 11309700000.0 11309700000.0 11309700000.0 11309700000.0 11309700000.0 11309700000.0 11309700000.0 11309700000.0 11309700000.0 11309700000.0 11309700000.0 11309700000.0 11309700000.0 11309700000.0 11309700000.0 11309700000.0 11309700000.0 11309700000.0 11309700000.0 11309700000.0 11309700000.0 11309700000.0 11309700000.0 11309700000.0 11309700000.0 11309700000.0 11309700000.0 11309700000.0 11309700000.0 11309700000.0 11309700000.0 11309700000.0 11309700000.0 11309700000.0 11309700000.0 11309700000.0 11309700000.0 11309700000.0 11309700000.0 11309700000.0 11309700000.0 11309700000.0 11309700000.0 11309700000.0 11309700000.0 11309700000.0 11309700000.0 11309700000.0 11309700000.0 11309700000.0 11309700000.0 11309700000.0 11309700000.0 11309700000.0 11309700000.0 11309700000.0 11309700000.0 11309700000.0 11309700000.0 11309700000.0 11309700000.0 11309700000.0 11309700000.0 11309700000.0 11309700000.0 11309700000.0 11309700000.0 11309700000.0 11309700000.0 11309700000.0 11309700000.0 11309700000.0 11309700000.0 11309700000.0 11309700000.0 11309700000.0 11309700000.0 11309700000.0 11309700000.0 11309700000.0 11309700000.0 11309700000.0 11309700000.0 11309700000.0 11309700000.0 11309700000.0 11309700000.0 11309700000.0 11309700000.0 11309700000.0 11309700000.0 11309700000.0 11309700000.0 11309700000.0 11309700000.0 11309700000.0 11309700000.0 11309700000.0 11309700000.0 11309700000.0 11309700000.0 11309700000.0 11309700000.0 11309700000.0 11309700000.0 11309700000.0 11309700000.0 11309700000.0 11309700000.0 11309700000.0 11309700000.0 11309700000.0 11309700000.0 11309700000.0 11309700000.0 11309700000.0 11309700000.0 11309700000.0 11309700000.0 11309700000.0 11309700000.0 11309700000.0 11309700000.0 11309700000.0 11309700000.0 11309700000.0 11309700000.0 11309700000.0 11309700000.0 11309700000.0 11309700000.0 11309700000.0 11309700000.0 11309700000.0 11309700000.0 11309700000.0 11309700000.0 11309700000.0 11309700000.0 11309700000.0 11309700000.0 11309700000.0 11309700000.0 11309700000.0 11309700000.0 11309700000.0 11309700000.0 11309700000.0 11309700000.0 11309700000.0 11309700000.0 11309700000.0 11309700000.0 11309700000.0 11309700000.0 11309700000.0 11309700000.0 11309700000.0 11309700000.0 11309700000.0 11309700000.0 11309700000.0 11309700000.0 11309700000.0 11309700000.0 11309700000.0 11309700000.0 11309700000.0 11309700000.0 11309700000.0 11309700000.0 11309700000.0 11309700000.0 11309700000.0 11309700000.0 11309700000.0 11309700000.0 11309700000.0 11309700000.0 11309700000.0 11309700000.0 11309700000.0 11309700000.0 11309700000.0 11309700000.0 11309700000.0 11309700000.0 11309700000.0 11309700000.0 11309700000.0 11309700000.0 11309700000.0 11309700000.0 11309700000.0 11309700000.0 11309700000.0 11309700000.0 11309700000.0 11309700000.0 11309700000.0 11309700000.0 11309700000.0 11309700000.0 11309700000.0 11309700000.0 11309700000.0 11309700000.0 11309700000.0 11309700000.0 11309700000.0 11309700000.0 11309700000.0 11309700000.0 11309700000.0 11309700000.0 11309700000.0 11309700000.0 11309700000.0 11309700000.0 11309700000.0 11309700000.0 11309700000.0 11309700000.0 11309700000.0 11309700000.0 11309700000.0 11309700000.0 11309700000.0 11309700000.0 11309700000.0 11309700000.0 11309700000.0 11309700000.0 11309700000.0 11309700000.0 11309700000.0 11309700000.0 11309700000.0 11309700000.0 11309700000.0 11309700000.0 11309700000.0 11309700000.0 11309700000.0 11309700000.0 11309700000.0 11309700000.0 11309700000.0 11309700000.0 11309700000.0 11309700000.0 11309700000.0 11309700000.0 11309700000.0 11309700000.0 11309700000.0 11309700000.0 11309700000.0 11309700000.0 11309700000.0 11309700000.0 11309700000.0 11309700000.0 11309700000.0 11309700000.0 11309700000.0 11309700000.0 11309700000.0 11309700000.0 11309700000.0 11309700000.0 11309700000.0 11309700000.0 11309700000.0 11309700000.0 11309700000.0 11309700000.0 11309700000.0 11309700000.0 11309700000.0 11309700000.0 11309700000.0 11309700000.0 11309700000.0 11309700000.0 11309700000.0 11309700000.0 11309700000.0 11309700000.0 11309700000.0 11309700000.0 11309700000.0 11309700000.0 11309700000.0 11309700000.0 11309700000.0 11309700000.0 11309700000.0 11309700000.0 11309700000.0 11309700000.0 11309700000.0 11309700000.0 11309700000.0 11309700000.0 11309700000.0 11309700000.0 11309700000.0 11309700000.0 11309700000.0 11309700000.0 11309700000.0 11309700000.0 11309700000.0 11309700000.0 11309700000.0 11309700000.0 11309700000.0 11309700000.0 11309700000.0 11309700000.0 11309700000.0 11309700000.0 11309700000.0 11309700000.0 11309700000.0 11309700000.0 11309700000.0 11309700000.0 11309700000.0 11309700000.0 11309700000.0 11309700000.0 11309700000.0 11309700000.0 11309700000.0 11309700000.0 11309700000.0 11309700000.0 11309700000.0 11309700000.0 11309700000.0 11309700000.0 11309700000.0 11309700000.0 11309700000.0 11309700000.0 11309700000.0 11309700000.0 11309700000.0 11309700000.0 11309700000.0 11309700000.0 11309700000.0 11309700000.0 11309700000.0 11309700000.0 11309700000.0 11309700000.0 11309700000.0 11309700000.0 11309700000.0 11309700000.0 11309700000.0 11309700000.0 11309700000.0 11309700000.0 11309700000.0 11309700000.0 11309700000.0 11309700000.0 11309700000.0 11309700000.0 11309700000.0 11309700000.0 11309700000.0 11309700000.0 11309700000.0 11309700000.0 11309700000.0 11309700000.0 11309700000.0 11309700000.0 11309700000.0 11309700000.0 11309700000.0 11309700000.0 11309700000.0 11309700000.0 11309700000.0 11309700000.0 11309700000.0 11309700000.0 11309700000.0 11309700000.0 11309700000.0 11309700000.0 11309700000.0 11309700000.0 11309700000.0 11309700000.0 11309700000.0 11309700000.0 11309700000.0 11309700000.0 11309700000.0 11309700000.0 11309700000.0 11309700000.0 11309700000.0 11309700000.0 11309700000.0 11309700000.0 11309700000.0 11309700000.0 11309700000.0 11309700000.0 11309700000.0 11309700000.0 11309700000.0 11309700000.0 11309700000.0 11309700000.0 11309700000.0 11309700000.0 11309700000.0 11309700000.0 11309700000.0 11309700000.0 11309700000.0 11309700000.0 11309700000.0 11309700000.0 11309700000.0 11309700000.0 11309700000.0 11309700000.0 11309700000.0 11309700000.0 11309700000.0 11309700000.0 11309700000.0 11309700000.0 11309700000.0 11309700000.0 11309700000.0 11309700000.0 11309700000.0 11309700000.0 11309700000.0 11309700000.0 11309700000.0 11309700000.0 11309700000.0 11309700000.0 11309700000.0 11309700000.0 11309700000.0 11309700000.0 11309700000.0 11309700000.0 11309700000.0 11309700000.0 11309700000.0 11309700000.0 11309700000.0 11309700000.0 11309700000.0 11309700000.0 11309700000.0 11309700000.0 11309700000.0 11309700000.0 11309700000.0 11309700000.0 11309700000.0 11309700000.0 11309700000.0 11309700000.0 11309700000.0 11309700000.0 11309700000.0 11309700000.0 11309700000.0 11309700000.0 11309700000.0 11309700000.0 11309700000.0 11309700000.0 11309700000.0 11309700000.0 11309700000.0 11309700000.0 11309700000.0 11309700000.0 11309700000.0 11309700000.0 11309700000.0 11309700000.0 11309700000.0 11309700000.0 11309700000.0 11309700000.0 11309700000.0 11309700000.0 11309700000.0 11309700000.0 11309700000.0 11309700000.0 11309700000.0 11309700000.0 11309700000.0 11309700000.0 11309700000.0 11309700000.0 11309700000.0 11309700000.0 11309700000.0 11309700000.0 11309700000.0 11309700000.0 11309700000.0 11309700000.0 11309700000.0 11309700000.0 11309700000.0 11309700000.0 11309700000.0 11309700000.0 11309700000.0 11309700000.0 11309700000.0 11309700000.0 11309700000.0 11309700000.0 11309700000.0 11309700000.0 11309700000.0 11309700000.0 11309700000.0 11309700000.0 11309700000.0 11309700000.0 11309700000.0 11309700000.0 11309700000.0 11309700000.0 11309700000.0 11309700000.0 11309700000.0 11309700000.0 11309700000.0 11309700000.0 11309700000.0 11309700000.0 11309700000.0 11309700000.0 11309700000.0 11309700000.0 11309700000.0 11309700000.0 11309700000.0 11309700000.0 11309700000.0 11309700000.0 11309700000.0 11309700000.0 11309700000.0 11309700000.0 11309700000.0 11309700000.0 11309700000.0 11309700000.0 11309700000.0 11309700000.0 11309700000.0 11309700000.0 11309700000.0 11309700000.0 11309700000.0 11309700000.0 11309700000.0 11309700000.0 11309700000.0 11309700000.0 11309700000.0 11309700000.0 11309700000.0 11309700000.0 11309700000.0 11309700000.0 11309700000.0 11309700000.0 11309700000.0 11309700000.0 11309700000.0 11309700000.0 11309700000.0 11309700000.0 11309700000.0 11309700000.0 11309700000.0 11309700000.0 11309700000.0 11309700000.0 11309700000.0 11309700000.0 11309700000.0 11309700000.0 11309700000.0 11309700000.0 11309700000.0 11309700000.0 11309700000.0 11309700000.0 11309700000.0 11309700000.0 11309700000.0 11309700000.0 11309700000.0 11309700000.0 11309700000.0 11309700000.0 11309700000.0 11309700000.0 11309700000.0 11309700000.0 11309700000.0 11309700000.0 11309700000.0 11309700000.0 11309700000.0 11309700000.0 11309700000.0 11309700000.0 11309700000.0 11309700000.0 11309700000.0 11309700000.0 11309700000.0 11309700000.0 11309700000.0 11309700000.0 11309700000.0 11309700000.0 11309700000.0 11309700000.0 11309700000.0 11309700000.0 11309700000.0 11309700000.0 11309700000.0 11309700000.0 11309700000.0 11309700000.0 11309700000.0 11309700000.0 11309700000.0 11309700000.0 11309700000.0 11309700000.0 11309700000.0 11309700000.0 11309700000.0 11309700000.0 11309700000.0 11309700000.0 11309700000.0 11309700000.0 11309700000.0 11309700000.0 11309700000.0 11309700000.0 11309700000.0 11309700000.0 11309700000.0 11309700000.0 11309700000.0 11309700000.0 11309700000.0 11309700000.0 11309700000.0 11309700000.0 11309700000.0 11309700000.0 11309700000.0 11309700000.0 11309700000.0 11309700000.0 11309700000.0 11309700000.0 11309700000.0 11309700000.0 11309700000.0 11309700000.0 11309700000.0 11309700000.0 11309700000.0 11309700000.0 11309700000.0 11309700000.0 11309700000.0 11309700000.0 11309700000.0 11309700000.0 11309700000.0 11309700000.0 11309700000.0 11309700000.0 11309700000.0 11309700000.0 11309700000.0 11309700000.0 11309700000.0 11309700000.0 11309700000.0 11309700000.0 11309700000.0 11309700000.0 11309700000.0 11309700000.0 11309700000.0 11309700000.0 11309700000.0 11309700000.0 11309700000.0 11309700000.0 11309700000.0 11309700000.0 11309700000.0 11309700000.0 11309700000.0 11309700000.0 11309700000.0 11309700000.0 11309700000.0 11309700000.0 11309700000.0 11309700000.0 11309700000.0 11309700000.0 11309700000.0 11309700000.0 11309700000.0 11309700000.0 11309700000.0 11309700000.0 11309700000.0 11309700000.0 11309700000.0 11309700000.0 11309700000.0 11309700000.0 11309700000.0 11309700000.0 11309700000.0 11309700000.0 11309700000.0 11309700000.0 11309700000.0 11309700000.0 11309700000.0 11309700000.0 11309700000.0 11309700000.0 11309700000.0 11309700000.0 11309700000.0 11309700000.0 11309700000.0 11309700000.0 11309700000.0 11309700000.0 11309700000.0 11309700000.0 11309700000.0 11309700000.0 11309700000.0 11309700000.0 11309700000.0 11309700000.0 11309700000.0 11309700000.0 11309700000.0 11309700000.0 11309700000.0 11309700000.0 11309700000.0 11309700000.0 11309700000.0 11309700000.0 11309700000.0 11309700000.0 11309700000.0 11309700000.0 11309700000.0 11309700000.0 11309700000.0 11309700000.0 11309700000.0 11309700000.0 11309700000.0 11309700000.0 11309700000.0 11309700000.0 11309700000.0 11309700000.0 11309700000.0 11309700000.0 11309700000.0 11309700000.0 11309700000.0 11309700000.0 11309700000.0 11309700000.0 11309700000.0 11309700000.0 11309700000.0 11309700000.0 11309700000.0 11309700000.0 11309700000.0 11309700000.0 11309700000.0 11309700000.0 11309700000.0 11309700000.0 11309700000.0 11309700000.0 11309700000.0 11309700000.0 11309700000.0 11309700000.0 11309700000.0 11309700000.0 11309700000.0 11309700000.0 11309700000.0 11309700000.0 11309700000.0 11309700000.0 11309700000.0 11309700000.0 11309700000.0 11309700000.0 11309700000.0 11309700000.0 11309700000.0 11309700000.0 11309700000.0 11309700000.0 11309700000.0 11309700000.0 11309700000.0 11309700000.0 11309700000.0 11309700000.0 11309700000.0 11309700000.0 11309700000.0 11309700000.0 11309700000.0 11309700000.0 11309700000.0 11309700000.0 11309700000.0 11309700000.0 11309700000.0 11309700000.0 11309700000.0 11309700000.0 11309700000.0 11309700000.0 11309700000.0 11309700000.0 11309700000.0 11309700000.0 11309700000.0 11309700000.0 11309700000.0 11309700000.0 11309700000.0 11309700000.0 11309700000.0 11309700000.0 11309700000.0 11309700000.0 11309700000.0 11309700000.0 11309700000.0 11309700000.0 11309700000.0 11309700000.0 11309700000.0 11309700000.0 11309700000.0 11309700000.0 11309700000.0 11309700000.0 11309700000.0 11309700000.0 11309700000.0 11309700000.0 11309700000.0 11309700000.0 11309700000.0 11309700000.0 11309700000.0 11309700000.0 11309700000.0 11309700000.0 11309700000.0 11309700000.0 11309700000.0 11309700000.0 11309700000.0 11309700000.0 11309700000.0 11309700000.0 11309700000.0 11309700000.0 11309700000.0 11309700000.0 11309700000.0 11309700000.0 11309700000.0 11309700000.0 11309700000.0 11309700000.0 11309700000.0 11309700000.0 11309700000.0 11309700000.0 11309700000.0 11309700000.0 11309700000.0 11309700000.0 11309700000.0 11309700000.0 11309700000.0 11309700000.0 11309700000.0 11309700000.0 11309700000.0 11309700000.0 11309700000.0 11309700000.0 11309700000.0 11309700000.0 11309700000.0 11309700000.0 11309700000.0 11309700000.0 11309700000.0 11309700000.0 11309700000.0 11309700000.0 11309700000.0 11309700000.0 11309700000.0 11309700000.0 11309700000.0 11309700000.0 11309700000.0 11309700000.0 11309700000.0 11309700000.0 11309700000.0 11309700000.0 11309700000.0 11309700000.0 11309700000.0 11309700000.0 11309700000.0 11309700000.0 11309700000.0 11309700000.0 11309700000.0 11309700000.0 11309700000.0 11309700000.0 11309700000.0 11309700000.0 11309700000.0 11309700000.0 11309700000.0 11309700000.0 11309700000.0 11309700000.0 11309700000.0 11309700000.0 11309700000.0 11309700000.0 11309700000.0 11309700000.0 11309700000.0 11309700000.0 11309700000.0 11309700000.0 11309700000.0 11309700000.0 11309700000.0 11309700000.0 11309700000.0 11309700000.0 11309700000.0 11309700000.0 11309700000.0 11309700000.0 11309700000.0 11309700000.0 11309700000.0 11309700000.0 11309700000.0 11309700000.0 11309700000.0 11309700000.0 11309700000.0 11309700000.0 11309700000.0 11309700000.0 11309700000.0 11309700000.0 11309700000.0 11309700000.0 11309700000.0 11309700000.0 11309700000.0 11309700000.0 11309700000.0 11309700000.0 11309700000.0 11309700000.0 11309700000.0 11309700000.0 11309700000.0 11309700000.0 11309700000.0 11309700000.0 11309700000.0 11309700000.0 11309700000.0 11309700000.0 11309700000.0 11309700000.0 11309700000.0 11309700000.0 11309700000.0 11309700000.0 11309700000.0 11309700000.0 11309700000.0 11309700000.0 11309700000.0 11309700000.0 11309700000.0 11309700000.0 11309700000.0 11309700000.0 11309700000.0 11309700000.0 11309700000.0 11309700000.0 11309700000.0 11309700000.0 11309700000.0 11309700000.0 11309700000.0 11309700000.0 11309700000.0 11309700000.0 11309700000.0 11309700000.0 11309700000.0 11309700000.0 11309700000.0 11309700000.0 11309700000.0 11309700000.0 11309700000.0 11309700000.0 11309700000.0 11309700000.0 11309700000.0 11309700000.0 11309700000.0 11309700000.0 11309700000.0 11309700000.0 11309700000.0 11309700000.0 11309700000.0 11309700000.0 11309700000.0 11309700000.0 11309700000.0 11309700000.0 11309700000.0 11309700000.0 11309700000.0 11309700000.0 11309700000.0 11309700000.0 11309700000.0 11309700000.0 11309700000.0 11309700000.0 11309700000.0 11309700000.0 11309700000.0 11309700000.0 11309700000.0 11309700000.0 11309700000.0 11309700000.0 11309700000.0 11309700000.0 11309700000.0 11309700000.0 11309700000.0 11309700000.0 11309700000.0 11309700000.0 11309700000.0 11309700000.0 11309700000.0 11309700000.0 11309700000.0 11309700000.0 11309700000.0 11309700000.0 11309700000.0 11309700000.0 11309700000.0 11309700000.0 11309700000.0 11309700000.0 11309700000.0 11309700000.0 11309700000.0 11309700000.0 11309700000.0 11309700000.0 11309700000.0 11309700000.0 11309700000.0 11309700000.0 11309700000.0 11309700000.0 11309700000.0 11309700000.0 11309700000.0 11309700000.0 11309700000.0 11309700000.0 11309700000.0 11309700000.0 11309700000.0 11309700000.0 11309700000.0 11309700000.0 11309700000.0 11309700000.0 11309700000.0 11309700000.0 11309700000.0 11309700000.0 11309700000.0 11309700000.0 11309700000.0 11309700000.0 11309700000.0 11309700000.0 11309700000.0 11309700000.0 11309700000.0 11309700000.0 11309700000.0 11309700000.0 11309700000.0 11309700000.0 11309700000.0 11309700000.0 11309700000.0 11309700000.0 11309700000.0 11309700000.0 11309700000.0 11309700000.0 11309700000.0 11309700000.0 11309700000.0 11309700000.0 11309700000.0 11309700000.0 11309700000.0 11309700000.0 11309700000.0 11309700000.0 11309700000.0 11309700000.0 11309700000.0 11309700000.0 11309700000.0 11309700000.0 11309700000.0 11309700000.0 11309700000.0 11309700000.0 11309700000.0 11309700000.0 11309700000.0 11309700000.0 11309700000.0 11309700000.0 11309700000.0 11309700000.0 11309700000.0 11309700000.0 11309700000.0 11309700000.0 11309700000.0 11309700000.0 11309700000.0 11309700000.0 11309700000.0 11309700000.0 11309700000.0 11309700000.0 11309700000.0 11309700000.0 11309700000.0 11309700000.0 11309700000.0 11309700000.0 11309700000.0 11309700000.0 11309700000.0 11309700000.0 11309700000.0 11309700000.0 11309700000.0 11309700000.0 11309700000.0 11309700000.0 11309700000.0 11309700000.0 11309700000.0 11309700000.0 11309700000.0 11309700000.0 11309700000.0 11309700000.0 11309700000.0 11309700000.0 11309700000.0 11309700000.0 11309700000.0 11309700000.0 11309700000.0 11309700000.0 11309700000.0 11309700000.0 11309700000.0 11309700000.0 11309700000.0 11309700000.0 11309700000.0 11309700000.0 11309700000.0 11309700000.0 11309700000.0 11309700000.0 11309700000.0 11309700000.0 11309700000.0 11309700000.0 11309700000.0 11309700000.0 11309700000.0 11309700000.0 11309700000.0 11309700000.0 11309700000.0 11309700000.0 11309700000.0 11309700000.0 11309700000.0 11309700000.0 11309700000.0 11309700000.0 11309700000.0 11309700000.0 11309700000.0 11309700000.0 11309700000.0 11309700000.0 11309700000.0 11309700000.0 11309700000.0 11309700000.0 11309700000.0 11309700000.0 11309700000.0 11309700000.0 11309700000.0 11309700000.0 11309700000.0 11309700000.0 11309700000.0 11309700000.0 11309700000.0 11309700000.0 11309700000.0 11309700000.0 11309700000.0 11309700000.0 11309700000.0 11309700000.0 11309700000.0 11309700000.0 11309700000.0 11309700000.0 11309700000.0 11309700000.0 11309700000.0 11309700000.0 11309700000.0 11309700000.0 11309700000.0 11309700000.0 11309700000.0 11309700000.0 11309700000.0 11309700000.0 11309700000.0 11309700000.0 11309700000.0 11309700000.0 11309700000.0 11309700000.0 11309700000.0 11309700000.0 11309700000.0 11309700000.0 11309700000.0 11309700000.0 11309700000.0 11309700000.0 11309700000.0 11309700000.0 11309700000.0 11309700000.0 11309700000.0 11309700000.0 11309700000.0 11309700000.0 11309700000.0 11309700000.0 11309700000.0 11309700000.0 11309700000.0 11309700000.0 11309700000.0 11309700000.0 11309700000.0 11309700000.0 11309700000.0 11309700000.0 11309700000.0 11309700000.0 11309700000.0 11309700000.0 11309700000.0 11309700000.0 11309700000.0 11309700000.0 11309700000.0 11309700000.0 11309700000.0 11309700000.0 11309700000.0 11309700000.0 11309700000.0 11309700000.0 11309700000.0 11309700000.0 11309700000.0 11309700000.0 11309700000.0 11309700000.0 11309700000.0 11309700000.0 11309700000.0 11309700000.0 11309700000.0 11309700000.0 11309700000.0 11309700000.0 11309700000.0 11309700000.0 11309700000.0 11309700000.0 11309700000.0 11309700000.0 11309700000.0 11309700000.0 11309700000.0 11309700000.0 11309700000.0 11309700000.0 11309700000.0 11309700000.0 11309700000.0 11309700000.0 11309700000.0 11309700000.0 11309700000.0 11309700000.0 11309700000.0 11309700000.0 11309700000.0 11309700000.0 11309700000.0 11309700000.0 11309700000.0 11309700000.0 11309700000.0 11309700000.0 11309700000.0 11309700000.0 11309700000.0 11309700000.0 11309700000.0 11309700000.0 11309700000.0 11309700000.0 11309700000.0 11309700000.0 11309700000.0 11309700000.0 11309700000.0 11309700000.0 11309700000.0 11309700000.0 11309700000.0 11309700000.0 11309700000.0 11309700000.0 11309700000.0 11309700000.0 11309700000.0 11309700000.0 11309700000.0 11309700000.0 11309700000.0 11309700000.0 11309700000.0 11309700000.0 11309700000.0 11309700000.0 11309700000.0 11309700000.0 11309700000.0 11309700000.0 11309700000.0 11309700000.0 11309700000.0 11309700000.0 11309700000.0 11309700000.0 11309700000.0 11309700000.0 11309700000.0 11309700000.0 11309700000.0 11309700000.0 11309700000.0 11309700000.0 11309700000.0 11309700000.0 11309700000.0 11309700000.0 11309700000.0 11309700000.0 11309700000.0 11309700000.0 11309700000.0 11309700000.0 11309700000.0 11309700000.0 11309700000.0 11309700000.0 11309700000.0 11309700000.0 11309700000.0 11309700000.0 11309700000.0 11309700000.0 11309700000.0 11309700000.0 11309700000.0 11309700000.0 11309700000.0 11309700000.0 11309700000.0 11309700000.0 11309700000.0 11309700000.0 11309700000.0 11309700000.0 11309700000.0 11309700000.0 11309700000.0 11309700000.0 11309700000.0 11309700000.0 11309700000.0 11309700000.0 11309700000.0 11309700000.0 11309700000.0 11309700000.0 11309700000.0 11309700000.0 11309700000.0 11309700000.0 11309700000.0 11309700000.0 11309700000.0 11309700000.0 11309700000.0 11309700000.0 11309700000.0 11309700000.0 11309700000.0 11309700000.0 11309700000.0 11309700000.0 11309700000.0 11309700000.0 11309700000.0 11309700000.0 11309700000.0 11309700000.0 11309700000.0 11309700000.0 11309700000.0 11309700000.0 11309700000.0 11309700000.0 11309700000.0 11309700000.0 11309700000.0 11309700000.0 11309700000.0 11309700000.0 11309700000.0 11309700000.0 11309700000.0 11309700000.0 11309700000.0 11309700000.0 11309700000.0 11309700000.0 11309700000.0 11309700000.0 11309700000.0 11309700000.0 11309700000.0 11309700000.0 11309700000.0 11309700000.0 11309700000.0 11309700000.0 11309700000.0 11309700000.0 11309700000.0 11309700000.0 11309700000.0 11309700000.0 11309700000.0 11309700000.0 11309700000.0 11309700000.0 11309700000.0 11309700000.0 11309700000.0 11309700000.0 11309700000.0 11309700000.0 11309700000.0 11309700000.0 11309700000.0 11309700000.0 11309700000.0 11309700000.0 11309700000.0 11309700000.0 11309700000.0 11309700000.0 11309700000.0 11309700000.0 11309700000.0 11309700000.0 11309700000.0 11309700000.0 11309700000.0 11309700000.0 11309700000.0 11309700000.0 11309700000.0 11309700000.0 11309700000.0 11309700000.0 11309700000.0 11309700000.0 11309700000.0 11309700000.0 11309700000.0 11309700000.0 11309700000.0 11309700000.0 11309700000.0 11309700000.0 11309700000.0 11309700000.0 11309700000.0 11309700000.0 11309700000.0 11309700000.0 11309700000.0 11309700000.0 11309700000.0 11309700000.0 11309700000.0 11309700000.0 11309700000.0 11309700000.0 11309700000.0 11309700000.0 11309700000.0 11309700000.0 11309700000.0 11309700000.0 11309700000.0 11309700000.0 11309700000.0 11309700000.0 11309700000.0 11309700000.0 11309700000.0 11309700000.0 11309700000.0 11309700000.0 11309700000.0 11309700000.0 11309700000.0 11309700000.0 11309700000.0 11309700000.0 11309700000.0 11309700000.0 11309700000.0 11309700000.0 11309700000.0 11309700000.0 11309700000.0 11309700000.0 11309700000.0 11309700000.0 11309700000.0 11309700000.0 11309700000.0 11309700000.0 11309700000.0 11309700000.0 11309700000.0 11309700000.0 11309700000.0 11309700000.0 11309700000.0 11309700000.0 11309700000.0 11309700000.0 11309700000.0 11309700000.0 11309700000.0 11309700000.0 11309700000.0 11309700000.0 11309700000.0 11309700000.0 11309700000.0 11309700000.0 11309700000.0 11309700000.0 11309700000.0 11309700000.0 11309700000.0 11309700000.0 11309700000.0 11309700000.0 11309700000.0 11309700000.0 11309700000.0 11309700000.0 11309700000.0 11309700000.0 11309700000.0 11309700000.0 11309700000.0 11309700000.0 11309700000.0 11309700000.0 11309700000.0 11309700000.0 11309700000.0 11309700000.0 11309700000.0 11309700000.0 11309700000.0 11309700000.0 11309700000.0 11309700000.0 11309700000.0 11309700000.0 11309700000.0 11309700000.0 11309700000.0 11309700000.0 11309700000.0 11309700000.0 11309700000.0 11309700000.0 11309700000.0 11309700000.0 11309700000.0 11309700000.0 11309700000.0 11309700000.0 11309700000.0 11309700000.0 11309700000.0 11309700000.0 11309700000.0 11309700000.0 11309700000.0 11309700000.0 11309700000.0 11309700000.0 11309700000.0 11309700000.0 11309700000.0 11309700000.0 11309700000.0 11309700000.0 11309700000.0 11309700000.0 11309700000.0 11309700000.0 11309700000.0 11309700000.0 11309700000.0 11309700000.0 11309700000.0 11309700000.0 11309700000.0 11309700000.0 11309700000.0 11309700000.0 11309700000.0 11309700000.0 11309700000.0 11309700000.0 11309700000.0 11309700000.0 11309700000.0 11309700000.0 11309700000.0 11309700000.0 11309700000.0 11309700000.0 11309700000.0 11309700000.0 11309700000.0 11309700000.0 11309700000.0 11309700000.0 11309700000.0 11309700000.0 11309700000.0 11309700000.0 11309700000.0 11309700000.0 11309700000.0 11309700000.0 11309700000.0 11309700000.0 11309700000.0 11309700000.0 11309700000.0 11309700000.0 11309700000.0 11309700000.0 11309700000.0 11309700000.0 11309700000.0 11309700000.0 11309700000.0 11309700000.0 11309700000.0 11309700000.0 11309700000.0 11309700000.0 11309700000.0 11309700000.0 11309700000.0 11309700000.0 11309700000.0 11309700000.0 11309700000.0 11309700000.0 11309700000.0 11309700000.0 11309700000.0 11309700000.0 11309700000.0 11309700000.0 11309700000.0 11309700000.0 11309700000.0 11309700000.0 11309700000.0 11309700000.0 11309700000.0 11309700000.0 11309700000.0 11309700000.0 11309700000.0 11309700000.0 11309700000.0 11309700000.0 11309700000.0 11309700000.0 11309700000.0 11309700000.0 11309700000.0 11309700000.0 11309700000.0 11309700000.0 11309700000.0 11309700000.0 11309700000.0 11309700000.0 11309700000.0 11309700000.0 11309700000.0 11309700000.0 11309700000.0 11309700000.0 11309700000.0 11309700000.0 11309700000.0 11309700000.0 11309700000.0 11309700000.0 11309700000.0 11309700000.0 11309700000.0 11309700000.0 11309700000.0 11309700000.0 11309700000.0 11309700000.0 11309700000.0 11309700000.0 11309700000.0 11309700000.0 11309700000.0 11309700000.0 11309700000.0 11309700000.0 11309700000.0 11309700000.0 11309700000.0 11309700000.0 11309700000.0 11309700000.0 11309700000.0 11309700000.0 11309700000.0 11309700000.0 11309700000.0 11309700000.0 11309700000.0 11309700000.0 11309700000.0 11309700000.0 11309700000.0 11309700000.0 11309700000.0 11309700000.0 11309700000.0 11309700000.0 11309700000.0 11309700000.0 11309700000.0 11309700000.0 11309700000.0 11309700000.0 11309700000.0 11309700000.0 11309700000.0 11309700000.0 11309700000.0 11309700000.0 11309700000.0 11309700000.0 11309700000.0 11309700000.0 11309700000.0 11309700000.0 11309700000.0 11309700000.0 11309700000.0 11309700000.0 11309700000.0 11309700000.0 11309700000.0 11309700000.0 11309700000.0 11309700000.0 11309700000.0 11309700000.0 11309700000.0 11309700000.0 11309700000.0 11309700000.0 11309700000.0 11309700000.0 11309700000.0 11309700000.0 11309700000.0 11309700000.0 11309700000.0 11309700000.0 11309700000.0 11309700000.0 11309700000.0 11309700000.0 11309700000.0 11309700000.0 11309700000.0 11309700000.0 11309700000.0 11309700000.0 11309700000.0 11309700000.0 11309700000.0 11309700000.0 11309700000.0 11309700000.0 11309700000.0 11309700000.0 11309700000.0 11309700000.0 11309700000.0 11309700000.0 11309700000.0 11309700000.0 11309700000.0 11309700000.0 11309700000.0 11309700000.0 11309700000.0 11309700000.0 11309700000.0 11309700000.0 11309700000.0 11309700000.0 11309700000.0 11309700000.0 11309700000.0 11309700000.0 11309700000.0 11309700000.0 11309700000.0 11309700000.0 11309700000.0 11309700000.0 11309700000.0 11309700000.0 11309700000.0 11309700000.0 11309700000.0 11309700000.0 11309700000.0 11309700000.0 11309700000.0 11309700000.0 11309700000.0 11309700000.0 11309700000.0 11309700000.0 11309700000.0 11309700000.0 11309700000.0 11309700000.0 11309700000.0 11309700000.0 11309700000.0 11309700000.0 11309700000.0 11309700000.0 11309700000.0 11309700000.0 11309700000.0 11309700000.0 11309700000.0 11309700000.0 11309700000.0 11309700000.0 11309700000.0 11309700000.0 11309700000.0 11309700000.0 11309700000.0 11309700000.0 11309700000.0 11309700000.0 11309700000.0 11309700000.0 11309700000.0 11309700000.0 11309700000.0 11309700000.0 11309700000.0 11309700000.0 11309700000.0 11309700000.0 11309700000.0 11309700000.0 11309700000.0 11309700000.0 11309700000.0 11309700000.0 11309700000.0 11309700000.0 11309700000.0 11309700000.0 11309700000.0 11309700000.0 11309700000.0 11309700000.0 11309700000.0 11309700000.0 11309700000.0 11309700000.0 11309700000.0 11309700000.0 11309700000.0 11309700000.0 11309700000.0 11309700000.0 11309700000.0 11309700000.0 11309700000.0 11309700000.0 11309700000.0 11309700000.0 11309700000.0 11309700000.0 11309700000.0 11309700000.0 11309700000.0 11309700000.0 11309700000.0 11309700000.0 11309700000.0 11309700000.0 11309700000.0 11309700000.0 11309700000.0 11309700000.0 11309700000.0 11309700000.0 11309700000.0 11309700000.0 11309700000.0 11309700000.0 11309700000.0 11309700000.0 11309700000.0 11309700000.0 11309700000.0 11309700000.0 11309700000.0 11309700000.0 11309700000.0 11309700000.0 11309700000.0 11309700000.0 11309700000.0 11309700000.0 11309700000.0 11309700000.0 11309700000.0 11309700000.0 11309700000.0 11309700000.0 11309700000.0 11309700000.0 11309700000.0 11309700000.0 11309700000.0 11309700000.0 11309700000.0 11309700000.0 11309700000.0 11309700000.0 11309700000.0 11309700000.0 11309700000.0 11309700000.0 11309700000.0 11309700000.0 11309700000.0 11309700000.0 11309700000.0 11309700000.0 11309700000.0 11309700000.0 11309700000.0 11309700000.0 11309700000.0 11309700000.0 11309700000.0 11309700000.0 11309700000.0 11309700000.0 11309700000.0 11309700000.0 11309700000.0 11309700000.0 11309700000.0 11309700000.0 11309700000.0 11309700000.0 11309700000.0 11309700000.0 11309700000.0 11309700000.0 11309700000.0 11309700000.0 11309700000.0 11309700000.0 11309700000.0 11309700000.0 11309700000.0 11309700000.0 11309700000.0 11309700000.0 11309700000.0 11309700000.0 11309700000.0 11309700000.0 11309700000.0 11309700000.0 11309700000.0 11309700000.0 11309700000.0 11309700000.0 11309700000.0 11309700000.0 11309700000.0 11309700000.0 11309700000.0 11309700000.0 11309700000.0 11309700000.0 11309700000.0 11309700000.0 11309700000.0 11309700000.0 11309700000.0 11309700000.0 11309700000.0 11309700000.0 11309700000.0 11309700000.0 11309700000.0 11309700000.0 11309700000.0 11309700000.0 11309700000.0 11309700000.0 11309700000.0 11309700000.0 11309700000.0 11309700000.0 11309700000.0 11309700000.0 11309700000.0 11309700000.0 11309700000.0 11309700000.0 11309700000.0 11309700000.0 11309700000.0 11309700000.0 11309700000.0 11309700000.0 11309700000.0 11309700000.0 11309700000.0 11309700000.0 11309700000.0 11309700000.0 11309700000.0 11309700000.0 11309700000.0 11309700000.0 11309700000.0 11309700000.0 11309700000.0 11309700000.0 11309700000.0 11309700000.0 11309700000.0 11309700000.0 11309700000.0 11309700000.0 11309700000.0 11309700000.0 11309700000.0 11309700000.0 11309700000.0 11309700000.0 11309700000.0 11309700000.0 11309700000.0 11309700000.0 11309700000.0 11309700000.0 11309700000.0 11309700000.0 11309700000.0 11309700000.0 11309700000.0 11309700000.0 11309700000.0 11309700000.0 11309700000.0 11309700000.0 11309700000.0 11309700000.0 11309700000.0 11309700000.0 11309700000.0 11309700000.0 11309700000.0 11309700000.0 11309700000.0 11309700000.0 11309700000.0 11309700000.0 11309700000.0 11309700000.0 11309700000.0 11309700000.0 11309700000.0 11309700000.0 11309700000.0 11309700000.0 11309700000.0 11309700000.0 11309700000.0 11309700000.0 11309700000.0 11309700000.0 11309700000.0 11309700000.0 11309700000.0 11309700000.0 11309700000.0 11309700000.0 11309700000.0 11309700000.0 11309700000.0 11309700000.0 11309700000.0 11309700000.0 11309700000.0 11309700000.0 11309700000.0 11309700000.0 11309700000.0 11309700000.0 11309700000.0 11309700000.0 11309700000.0 11309700000.0 11309700000.0 11309700000.0 11309700000.0 11309700000.0 11309700000.0 11309700000.0 11309700000.0 11309700000.0 11309700000.0 11309700000.0 11309700000.0 11309700000.0 11309700000.0 11309700000.0 11309700000.0 11309700000.0 11309700000.0 11309700000.0 11309700000.0 11309700000.0 11309700000.0 11309700000.0 11309700000.0 11309700000.0 11309700000.0 11309700000.0 11309700000.0 11309700000.0 11309700000.0 11309700000.0 11309700000.0 11309700000.0 11309700000.0 11309700000.0 11309700000.0 11309700000.0 11309700000.0 11309700000.0 11309700000.0 11309700000.0 11309700000.0 11309700000.0 11309700000.0 11309700000.0 11309700000.0 11309700000.0 11309700000.0 11309700000.0 11309700000.0 11309700000.0 11309700000.0 11309700000.0 11309700000.0 11309700000.0 11309700000.0 11309700000.0 11309700000.0 11309700000.0 11309700000.0 11309700000.0 11309700000.0 11309700000.0 11309700000.0 11309700000.0 11309700000.0 11309700000.0 11309700000.0 11309700000.0 11309700000.0 11309700000.0 11309700000.0 11309700000.0 11309700000.0 11309700000.0 11309700000.0 11309700000.0 11309700000.0 11309700000.0 11309700000.0 11309700000.0 11309700000.0 11309700000.0 11309700000.0 11309700000.0 11309700000.0 11309700000.0 11309700000.0 11309700000.0 11309700000.0 11309700000.0 11309700000.0 11309700000.0 11309700000.0 11309700000.0 11309700000.0 11309700000.0 11309700000.0 11309700000.0 11309700000.0 11309700000.0 11309700000.0 11309700000.0 11309700000.0 11309700000.0 11309700000.0 11309700000.0 11309700000.0 11309700000.0 11309700000.0 11309700000.0 11309700000.0 11309700000.0 11309700000.0 11309700000.0 11309700000.0 11309700000.0 11309700000.0 11309700000.0 11309700000.0 11309700000.0 11309700000.0 11309700000.0 11309700000.0 11309700000.0 11309700000.0 11309700000.0 11309700000.0 11309700000.0 11309700000.0 11309700000.0 11309700000.0 11309700000.0 11309700000.0 11309700000.0 11309700000.0 11309700000.0 11309700000.0 11309700000.0 11309700000.0 11309700000.0 11309700000.0 11309700000.0 11309700000.0 11309700000.0 11309700000.0 11309700000.0 11309700000.0 11309700000.0 11309700000.0 11309700000.0 11309700000.0 11309700000.0 11309700000.0 11309700000.0 11309700000.0 11309700000.0 11309700000.0 11309700000.0 11309700000.0 11309700000.0 11309700000.0 11309700000.0 11309700000.0 11309700000.0 11309700000.0 11309700000.0 11309700000.0 11309700000.0 11309700000.0 11309700000.0 11309700000.0 11309700000.0 11309700000.0 11309700000.0 11309700000.0 11309700000.0 11309700000.0 11309700000.0 11309700000.0 11309700000.0 11309700000.0 11309700000.0 11309700000.0 11309700000.0 11309700000.0 11309700000.0 11309700000.0 11309700000.0 11309700000.0 11309700000.0 11309700000.0 11309700000.0 11309700000.0 11309700000.0 11309700000.0 11309700000.0 11309700000.0 11309700000.0 11309700000.0 11309700000.0 11309700000.0 11309700000.0 11309700000.0 11309700000.0 11309700000.0 11309700000.0 11309700000.0 11309700000.0 11309700000.0 11309700000.0 11309700000.0 11309700000.0 11309700000.0 11309700000.0 11309700000.0 11309700000.0 11309700000.0 11309700000.0 11309700000.0 11309700000.0 11309700000.0 11309700000.0 11309700000.0 11309700000.0 11309700000.0 11309700000.0 11309700000.0 11309700000.0 11309700000.0 11309700000.0 11309700000.0 11309700000.0 11309700000.0 11309700000.0 11309700000.0 11309700000.0 11309700000.0 11309700000.0 11309700000.0 11309700000.0 11309700000.0 11309700000.0 11309700000.0 11309700000.0 11309700000.0 11309700000.0 11309700000.0 11309700000.0 11309700000.0 11309700000.0 11309700000.0 11309700000.0 11309700000.0 11309700000.0 11309700000.0 11309700000.0 11309700000.0 11309700000.0 11309700000.0 11309700000.0 11309700000.0 11309700000.0 11309700000.0 11309700000.0 11309700000.0 11309700000.0 11309700000.0 11309700000.0 11309700000.0 11309700000.0 11309700000.0 11309700000.0 11309700000.0 11309700000.0 11309700000.0 11309700000.0 11309700000.0 11309700000.0 11309700000.0 11309700000.0 11309700000.0 11309700000.0 11309700000.0 11309700000.0 11309700000.0 11309700000.0 11309700000.0 11309700000.0 11309700000.0 11309700000.0 11309700000.0 11309700000.0 11309700000.0 11309700000.0 11309700000.0 11309700000.0 11309700000.0 11309700000.0 11309700000.0 11309700000.0 11309700000.0 11309700000.0 11309700000.0 11309700000.0 11309700000.0 11309700000.0 11309700000.0 11309700000.0 11309700000.0 11309700000.0 11309700000.0 11309700000.0 11309700000.0 11309700000.0 11309700000.0 11309700000.0 11309700000.0 11309700000.0 11309700000.0 11309700000.0 11309700000.0 11309700000.0 11309700000.0 11309700000.0 11309700000.0 11309700000.0 11309700000.0 11309700000.0 11309700000.0 11309700000.0 11309700000.0 11309700000.0 11309700000.0 11309700000.0 11309700000.0 11309700000.0 11309700000.0 11309700000.0 11309700000.0 11309700000.0 11309700000.0 11309700000.0 11309700000.0 11309700000.0 11309700000.0 11309700000.0 11309700000.0 11309700000.0 11309700000.0 11309700000.0 11309700000.0 11309700000.0 11309700000.0 11309700000.0 11309700000.0 11309700000.0 11309700000.0 11309700000.0 11309700000.0 11309700000.0 11309700000.0 11309700000.0 11309700000.0 11309700000.0 11309700000.0 11309700000.0 11309700000.0 11309700000.0 11309700000.0 11309700000.0 11309700000.0 11309700000.0 11309700000.0 11309700000.0 11309700000.0 11309700000.0 11309700000.0 11309700000.0 11309700000.0 11309700000.0 11309700000.0 11309700000.0 11309700000.0 11309700000.0 11309700000.0 11309700000.0 11309700000.0 11309700000.0 11309700000.0 11309700000.0 11309700000.0 11309700000.0 11309700000.0 11309700000.0 11309700000.0 11309700000.0 11309700000.0 11309700000.0 11309700000.0 11309700000.0 11309700000.0 11309700000.0 11309700000.0 11309700000.0 11309700000.0 11309700000.0 11309700000.0 11309700000.0 11309700000.0 11309700000.0 11309700000.0 11309700000.0 11309700000.0 11309700000.0 11309700000.0 11309700000.0 11309700000.0 11309700000.0 11309700000.0 11309700000.0 11309700000.0 11309700000.0 11309700000.0 11309700000.0 11309700000.0 11309700000.0 11309700000.0 11309700000.0 11309700000.0 11309700000.0 11309700000.0 11309700000.0 11309700000.0 11309700000.0 11309700000.0 11309700000.0 11309700000.0 11309700000.0 11309700000.0 11309700000.0 11309700000.0 11309700000.0 11309700000.0 11309700000.0 11309700000.0 11309700000.0 11309700000.0 11309700000.0 11309700000.0 11309700000.0 11309700000.0 11309700000.0 11309700000.0 11309700000.0 11309700000.0 11309700000.0 11309700000.0 11309700000.0 11309700000.0 11309700000.0 11309700000.0 11309700000.0 11309700000.0 11309700000.0 11309700000.0 11309700000.0 11309700000.0 11309700000.0 11309700000.0 11309700000.0 11309700000.0 11309700000.0 11309700000.0 11309700000.0 11309700000.0 11309700000.0 11309700000.0 11309700000.0 11309700000.0 11309700000.0 11309700000.0 11309700000.0 11309700000.0 11309700000.0 11309700000.0 11309700000.0 11309700000.0 11309700000.0 11309700000.0 11309700000.0 11309700000.0 11309700000.0 11309700000.0 11309700000.0 11309700000.0 11309700000.0 11309700000.0 11309700000.0 11309700000.0 11309700000.0 11309700000.0 11309700000.0 11309700000.0 11309700000.0 11309700000.0 11309700000.0 11309700000.0 11309700000.0 11309700000.0 11309700000.0 11309700000.0 11309700000.0 11309700000.0 11309700000.0 11309700000.0 11309700000.0 11309700000.0 11309700000.0 11309700000.0 11309700000.0 11309700000.0 11309700000.0 11309700000.0 11309700000.0 11309700000.0 11309700000.0 11309700000.0 11309700000.0 11309700000.0 11309700000.0 11309700000.0 11309700000.0 11309700000.0 11309700000.0 11309700000.0 11309700000.0 11309700000.0 11309700000.0 11309700000.0 11309700000.0 11309700000.0 11309700000.0 11309700000.0 11309700000.0 11309700000.0 11309700000.0 11309700000.0 11309700000.0 11309700000.0 11309700000.0 11309700000.0 11309700000.0 11309700000.0 11309700000.0 11309700000.0 11309700000.0 11309700000.0 11309700000.0 11309700000.0 11309700000.0 11309700000.0 11309700000.0 11309700000.0 11309700000.0 11309700000.0 11309700000.0 11309700000.0 11309700000.0 11309700000.0 11309700000.0 11309700000.0 11309700000.0 11309700000.0 11309700000.0 11309700000.0 11309700000.0 11309700000.0 11309700000.0 11309700000.0 11309700000.0 11309700000.0 11309700000.0 11309700000.0 11309700000.0 11309700000.0 11309700000.0 11309700000.0 11309700000.0 11309700000.0 11309700000.0 11309700000.0 11309700000.0 11309700000.0 11309700000.0 11309700000.0 11309700000.0 11309700000.0 11309700000.0 11309700000.0 11309700000.0 11309700000.0 11309700000.0 11309700000.0 11309700000.0 11309700000.0 11309700000.0 11309700000.0 11309700000.0 11309700000.0 11309700000.0 11309700000.0 11309700000.0 11309700000.0 11309700000.0 11309700000.0 11309700000.0 11309700000.0 11309700000.0 11309700000.0 11309700000.0 11309700000.0 11309700000.0 11309700000.0 11309700000.0 11309700000.0 11309700000.0 11309700000.0 11309700000.0 11309700000.0 11309700000.0 11309700000.0 11309700000.0 11309700000.0 11309700000.0 11309700000.0 11309700000.0 11309700000.0 11309700000.0 11309700000.0 11309700000.0 11309700000.0 11309700000.0 11309700000.0 11309700000.0 11309700000.0 11309700000.0 11309700000.0 11309700000.0 11309700000.0 11309700000.0 11309700000.0 11309700000.0 11309700000.0 11309700000.0 11309700000.0 
SCALARS Velocity float 1
LOOKUP_TABLE default
0.767065 1.07206 1.06144 1.158 1.19083 1.19083 1.158 1.06144 1.07206 0.767065 0.66944 1.01424 1.28929 1.15991 1.2207 0.899904 1.09425 0.850923 1.01504 0.885962 0.908293 0.894294 0.894287 0.894121 0.894031 0.893967 0.89389 0.893917 0.89381 0.893861 0.893956 0.893792 0.893956 0.893861 0.89381 0.893917 0.89389 0.893967 0.894031 0.894121 0.894287 0.894294 0.908293 0.885962 1.01504 0.850923 1.09425 0.899904 1.2207 1.15991 1.28929 1.01424 0.66944 0.641975 0.687888 1.03098 1.13236 1.26986 0.948414 1.08443 1.08443 0.948414 1.26986 1.13236 1.03098 0.687888 0.641975 0.622722 0.624942 0.648649 1.0081 1.14458 1.02297 0.91121 0.831205 1.01689 0.885817 0.90422 0.893456 0.893846 0.893847 0.893832 0.893863 0.893812 0.893851 0.89395 0.893816 0.893968 0.893793 0.893968 0.893816 0.89395 0.893851 0.893812 0.893863 0.893832 0.893847 0.893846 0.893456 0.90422 0.885817 1.01689 0.831205 0.91121 1.02297 1.14458 1.0081 0.648649 0.624942 0.622722 0.60611 0.610863 0.611514 0.631805 0.625514 0.839294 0.838033 1.24689 0.816977 0.786091 0.950514 0.931474 1.07394 0.772396 1.02871 0.875136 0.911042 0.892711 0.893888 0.893833 0.893866 0.893822 0.89403 0.893769 0.894065 0.893738 0.893995 0.893776 0.893995 0.893738 0.894065 0.893769 0.89403 0.893822 0.893866 0.893833 0.893888 0.892711 0.911042 0.875136 1.02871 0.772396 1.07394 0.931474 0.950514 0.786091 0.816977 1.24689 0.838033 0.839294 0.625514 0.631805 0.611514 0.610863 0.60611 0.606447 0.605995 0.624062 0.671908 0.718485 0.75469 0.911314 0.79645 0.834139 0.834139 0.79645 0.911314 0.75469 0.718485 0.671908 0.624062 0.605995 0.606447 0.608136 0.605018 0.613125 0.615441 0.64714 0.781234 0.829489 0.797604 0.8376 0.893007 1.07636 0.692861 1.04489 0.862543 0.916104 0.89138 0.894473 0.893771 0.893969 0.89388 0.894078 0.893755 0.89411 0.893679 0.894008 0.893706 0.894008 0.893679 0.89411 0.893755 0.894078 0.89388 0.893969 0.893771 0.894473 0.89138 0.916104 0.862543 1.04489 0.692861 1.07636 0.893007 0.8376 0.797604 0.829489 0.781234 0.64714 0.615441 0.613125 0.605018 0.608136 0.609519 0.61503 0.61046 0.61592 0.635113 0.692846 0.727327 0.787822 0.799009 0.820753 0.830031 0.857215 0.981948 1.05726 0.540413 1.06182 0.845051 0.920134 0.890118 0.894609 0.894001 0.894025 0.893766 0.894073 0.893625 0.894042 0.893639 0.894006 0.893656 0.894006 0.893639 0.894042 0.893625 0.894073 0.893766 0.894025 0.894001 0.894609 0.890118 0.920134 0.845051 1.06182 0.540413 1.05726 0.981948 0.857215 0.830031 0.820753 0.799009 0.787822 0.727327 0.692846 0.635113 0.61592 0.61046 0.61503 0.609519 0.595093 0.607513 0.617727 0.625214 0.634872 0.667398 0.674461 0.733001 0.749797 0.824074 0.834278 0.846232 0.91394 0.91394 0.846232 0.834278 0.824074 0.749797 0.733001 0.674461 0.667398 0.634872 0.625214 0.617727 0.607513 0.595093 0.571162 0.608517 0.62926 0.65052 0.63715 0.668026 0.723217 0.81384 0.843314 0.853524 0.846498 0.881142 0.932128 0.9799 0.446275 1.07735 0.830554 0.92307 0.888315 0.894581 0.893717 0.893876 0.893705 0.894022 0.893662 0.894204 0.893658 0.894023 0.893636 0.894023 0.893658 0.894204 0.893662 0.894022 0.893705 0.893876 0.893717 0.894581 0.888315 0.92307 0.830554 1.07735 0.446275 0.9799 0.932128 0.881142 0.846498 0.853524 0.843314 0.81384 0.723217 0.668026 0.63715 0.65052 0.62926 0.608517 0.571162 0.546284 0.589682 0.626445 0.644805 0.666335 0.716704 0.790699 0.802521 0.781611 0.855142 0.870411 0.870959 0.919594 0.908287 0.438067 1.09133 0.818153 0.928041 0.88674 0.89476 0.893682 0.893903 0.893649 0.893982 0.893551 0.894132 0.893616 0.894098 0.893629 0.894098 0.893616 0.894132 0.893551 0.893982 0.893649 0.893903 0.893682 0.89476 0.88674 0.928041 0.818153 1.09133 0.438067 0.908287 0.919594 0.870959 0.870411 0.855142 0.781611 0.802521 0.790699 0.716704 0.666335 0.644805 0.626445 0.589682 0.546284 0.533458 0.532679 0.529457 0.560613 0.610337 0.634097 0.678789 0.722359 0.774078 0.850558 0.818728 0.849728 0.88984 0.863945 0.893315 0.884426 0.897559 0.897559 0.884426 0.893315 0.863945 0.88984 0.849728 0.818728 0.850558 0.774078 0.722359 0.678789 0.634097 0.610337 0.560613 0.529457 0.532679 0.533458 0.533875 0.515367 0.547358 0.583835 0.606107 0.650602 0.672631 0.75294 0.7551 0.804773 0.831464 0.891178 0.860328 0.883015 0.912678 0.897754 0.937985 0.532843 1.1066 0.797803 0.935813 0.884271 0.898381 0.893602 0.893933 0.893858 0.893898 0.893614 0.893988 0.89361 0.894234 0.893616 0.894234 0.89361 0.893988 0.893614 0.893898 0.893858 0.893933 0.893602 0.898381 0.884271 0.935813 0.797803 1.1066 0.532843 0.937985 0.897754 0.912678 0.883015 0.860328 0.891178 0.831464 0.804773 0.7551 0.75294 0.672631 0.650602 0.606107 0.583835 0.547358 0.515367 0.533875 0.524343 0.523084 0.488099 0.494993 0.585102 0.625026 0.733807 0.747029 0.812583 0.789011 0.944606 0.443887 0.862067 0.957812 0.562109 1.11429 0.78299 0.945478 0.882182 0.907478 0.893582 0.893972 0.893871 0.893876 0.89374 0.893948 0.893611 0.894311 0.893608 0.894311 0.893611 0.893948 0.89374 0.893876 0.893871 0.893972 0.893582 0.907478 0.882182 0.945478 0.78299 1.11429 0.562109 0.957812 0.862067 0.443887 0.944606 0.789011 0.812583 0.747029 0.733807 0.625026 0.585102 0.494993 0.488099 0.523084 0.524343 0.500518 0.508576 0.52051 0.470904 0.471359 0.547826 0.619575 0.618837 0.580935 0.681257 0.573094 0.703225 0.746766 0.776277 0.893832 0.667405 0.780918 0.8845 0.927069 0.927069 0.8845 0.780918 0.667405 0.893832 0.776277 0.746766 0.703225 0.573094 0.681257 0.580935 0.618837 0.619575 0.547826 0.471359 0.470904 0.52051 0.508576 0.500518 0.492814 0.491786 0.511305 0.507964 0.435037 0.403077 0.627629 0.624721 0.629069 0.403837 0.616436 0.536742 0.735047 0.713797 0.717052 0.731326 0.938474 0.881931 1.03661 0.924158 0.963994 0.632091 1.11871 0.712234 0.947985 0.877737 0.905395 0.893421 0.894165 0.894143 0.8941 0.894025 0.893972 0.893627 0.894314 0.893604 0.894314 0.893627 0.893972 0.894025 0.8941 0.894143 0.894165 0.893421 0.905395 0.877737 0.947985 0.712234 1.11871 0.632091 0.963994 0.924158 1.03661 0.881931 0.938474 0.731326 0.717052 0.713797 0.735047 0.536742 0.616436 0.403837 0.629069 0.624721 0.627629 0.403077 0.435037 0.507964 0.511305 0.491786 0.492814 0.536299 0.456906 0.528766 0.529281 0.481941 0.368197 0.656822 0.642221 0.635925 0.611015 0.662021 0.696016 0.541171 0.853444 0.870729 0.810848 0.538526 1.08462 0.838086 0.942144 0.881239 0.898482 0.891702 0.898214 0.894196 0.894859 0.894002 0.894816 0.893737 0.894124 0.893693 0.894124 0.893737 0.894816 0.894002 0.894859 0.894196 0.898214 0.891702 0.898482 0.881239 0.942144 0.838086 1.08462 0.538526 0.810848 0.870729 0.853444 0.541171 0.696016 0.662021 0.611015 0.635925 0.642221 0.656822 0.368197 0.481941 0.529281 0.528766 0.456906 0.536299 0.529655 0.760061 0.485148 0.417347 0.402003 0.418391 0.66095 0.635058 0.545914 0.442754 0.545493 0.609982 0.63965 0.68198 0.593291 0.834886 0.730625 0.861426 0.843282 0.812799 0.812799 0.843282 0.861426 0.730625 0.834886 0.593291 0.68198 0.63965 0.609982 0.545493 0.442754 0.545914 0.635058 0.66095 0.418391 0.402003 0.417347 0.485148 0.760061 0.529655 0.522787 0.69792 0.671872 0.420004 0.386189 0.718616 0.642105 0.564517 0.586259 0.505482 0.506951 0.538343 0.636275 0.614178 0.568716 0.754536 0.862832 0.867994 0.852943 0.863175 0.848228 0.837549 0.596304 1.06875 0.817265 0.930163 0.869185 0.90895 0.883729 0.895126 0.893852 0.893932 0.893929 0.893986 0.893265 0.89406 0.893702 0.89406 0.893265 0.893986 0.893929 0.893932 0.893852 0.895126 0.883729 0.90895 0.869185 0.930163 0.817265 1.06875 0.596304 0.837549 0.848228 0.863175 0.852943 0.867994 0.862832 0.754536 0.568716 0.614178 0.636275 0.538343 0.506951 0.505482 0.586259 0.564517 0.642105 0.718616 0.386189 0.420004 0.671872 0.69792 0.522787 0.713126 0.649376 0.590231 0.23357 0.133261 0.80504 0.55768 0.606634 0.562357 0.559261 0.554518 0.532534 0.580329 0.598996 0.86936 0.847214 0.869318 0.758235 0.610647 1.00447 0.803642 0.917593 0.866225 0.896423 0.893802 0.893892 0.893872 0.893859 0.893854 0.89385 0.893843 0.893865 0.893722 0.893865 0.893843 0.89385 0.893854 0.893859 0.893872 0.893892 0.893802 0.896423 0.866225 0.917593 0.803642 1.00447 0.610647 0.758235 0.869318 0.847214 0.86936 0.598996 0.580329 0.532534 0.554518 0.559261 0.562357 0.606634 0.55768 0.80504 0.133261 0.23357 0.590231 0.649376 0.713126 0.719343 0.630982 0.538085 0.371681 0.58785 0.587189 0.591972 0.624568 0.601444 0.600107 0.588134 0.855805 0.835008 0.835008 0.855805 0.588134 0.600107 0.601444 0.624568 0.591972 0.587189 0.58785 0.371681 0.538085 0.630982 0.719343 0.659011 0.478802 0.549938 0.55546 0.846312 0.61379 0.60409 0.602778 0.568361 0.586402 0.602596 0.619187 0.594852 0.613806 0.590506 0.862313 0.832703 0.847862 0.853749 0.810667 0.87437 0.698806 0.926447 0.816437 0.893839 0.868733 0.893832 0.893832 0.893832 0.893832 0.893832 0.893832 0.893832 0.893832 0.893832 0.89374 0.893832 0.893832 0.893832 0.893832 0.893832 0.893832 0.893832 0.893832 0.893832 0.868733 0.893839 0.816437 0.926447 0.698806 0.87437 0.810667 0.853749 0.847862 0.832703 0.862313 0.590506 0.613806 0.594852 0.619187 0.602596 0.586402 0.568361 0.602778 0.60409 0.61379 0.846312 0.55546 0.549938 0.478802 0.659011 0.630068 0.483083 0.912775 0.683628 0.602609 0.601098 0.593135 0.598157 0.621587 0.62241 0.602415 0.584952 0.850581 0.835739 0.921555 0.7767 0.939581 0.831749 0.910038 0.892176 0.894039 0.893915 0.893905 0.893887 0.893876 0.893866 0.893855 0.893845 0.893866 0.893755 0.893866 0.893845 0.893855 0.893866 0.893876 0.893887 0.893905 0.893915 0.894039 0.892176 0.910038 0.831749 0.939581 0.7767 0.921555 0.835739 0.850581 0.584952 0.602415 0.62241 0.621587 0.598157 0.593135 0.601098 0.602609 0.683628 0.912775 0.483083 0.630068 0.528327 0.530363 0.549692 0.893689 0.779642 0.630378 0.598257 0.600236 0.618588 0.638775 0.642025 0.617054 0.633586 0.60693 0.622744 0.961375 0.757218 0.782584 0.782584 0.757218 0.961375 0.622744 0.60693 0.633586 0.617054 0.642025 0.638775 0.618588 0.600236 0.598257 0.630378 0.779642 0.893689 0.549692 0.530363 0.528327 0.500115 0.5123 0.937224 0.734666 0.708323 0.757013 0.654074 0.618443 0.657235 0.630938 0.592668 0.591668 0.597847 0.84471 0.89568 0.772271 0.97037 0.790148 0.919073 0.822469 0.894116 0.845165 0.893832 0.893832 0.893832 0.893832 0.893832 0.893832 0.893832 0.893832 0.893832 0.893832 0.893832 0.893769 0.893832 0.893832 0.893832 0.893832 0.893832 0.893832 0.893832 0.893832 0.893832 0.893832 0.893832 0.845165 0.894116 0.822469 0.919073 0.790148 0.97037 0.772271 0.89568 0.84471 0.597847 0.591668 0.592668 0.630938 0.657235 0.618443 0.654074 0.757013 0.708323 0.734666 0.937224 0.5123 0.500115 0.595284 0.615124 0.632651 0.654733 0.680686 0.680686 0.654733 0.632651 0.615124 0.595284 0.62052 0.726825 0.775158 0.722314 0.696226 0.697774 0.612356 0.645016 0.671746 0.714094 0.727022 0.74026 0.758249 0.694564 0.806292 0.688729 0.784826 0.951516 0.816646 1.0108 0.816453 0.963666 0.854595 0.927951 0.86265 0.898349 0.894973 0.894767 0.894512 0.894328 0.894191 0.894082 0.893994 0.893926 0.893877 0.893851 0.893781 0.893851 0.893877 0.893926 0.893994 0.894082 0.894191 0.894328 0.894512 0.894767 0.894973 0.898349 0.86265 0.927951 0.854595 0.963666 0.816453 1.0108 0.816646 0.951516 0.784826 0.688729 0.806292 0.694564 0.758249 0.74026 0.727022 0.714094 0.671746 0.645016 0.612356 0.697774 0.696226 0.722314 0.775158 0.726825 0.62052 0.622823 0.818794 0.695355 0.749199 0.712136 0.69728 0.735343 0.640467 0.666696 0.704796 0.733268 0.739879 0.732227 0.773822 0.73213 0.881342 0.905179 0.849786 0.901321 0.861553 0.898935 0.850915 0.897436 0.867498 0.894545 0.877545 0.893832 0.893832 0.893832 0.893832 0.893832 0.893832 0.893832 0.893832 0.893832 0.893832 0.893832 0.893792 0.893832 0.893832 0.893832 0.893832 0.893832 0.893832 0.893832 0.893832 0.893832 0.893832 0.893832 0.877545 0.894545 0.867498 0.897436 0.850915 0.898935 0.861553 0.901321 0.849786 0.905179 0.881342 0.73213 0.773822 0.732227 0.739879 0.733268 0.704796 0.666696 0.640467 0.735343 0.69728 0.712136 0.749199 0.695355 0.818794 0.622823 0.850648 0.902408 0.813306 0.853433 0.806864 0.814716 0.889148 0.69372 0.711055 0.743782 0.763915 0.774049 0.781008 0.822069 0.741451 0.893952 0.957669 0.886225 0.930228 0.883959 0.917026 0.865806 0.906206 0.872444 0.898022 0.881009 0.894361 0.894185 0.894075 0.893996 0.89394 0.893901 0.893875 0.893857 0.893845 0.893838 0.893834 0.893801 0.893834 0.893838 0.893845 0.893857 0.893875 0.893901 0.89394 0.893996 0.894075 0.894185 0.894361 0.881009 0.898022 0.872444 0.906206 0.865806 0.917026 0.883959 0.930228 0.886225 0.957669 0.893952 0.741451 0.822069 0.781008 0.774049 0.763915 0.743782 0.711055 0.69372 0.889148 0.814716 0.806864 0.853433 0.813306 0.902408 0.850648 0.891995 0.912579 0.877776 0.902309 0.869824 0.885919 0.933265 0.845528 0.866899 0.884474 0.891131 0.883588 0.873497 0.842935 0.896161 0.896959 0.895597 0.889023 0.894966 0.88578 0.894512 0.868609 0.89416 0.872795 0.893904 0.892074 0.893832 0.893832 0.893832 0.893832 0.893832 0.893832 0.893832 0.893832 0.893832 0.893832 0.893832 0.893808 0.893832 0.893832 0.893832 0.893832 0.893832 0.893832 0.893832 0.893832 0.893832 0.893832 0.893832 0.892074 0.893904 0.872795 0.89416 0.868609 0.894512 0.88578 0.894966 0.889023 0.895597 0.896959 0.896161 0.842935 0.873497 0.883588 0.891131 0.884474 0.866899 0.845528 0.933265 0.885919 0.869824 0.902309 0.877776 0.912579 0.891995 0.884468 0.913111 0.883106 0.896743 0.873839 0.900523 0.913047 0.860135 0.883238 0.898458 0.901674 0.887578 0.873349 0.858551 0.898283 0.897982 0.896779 0.889368 0.895564 0.886428 0.89481 0.871145 0.894283 0.874009 0.893941 0.893801 0.893836 0.893835 0.893834 0.893833 0.893833 0.893833 0.893832 0.893832 0.893832 0.893832 0.893832 0.893814 0.893832 0.893832 0.893832 0.893832 0.893832 0.893833 0.893833 0.893833 0.893834 0.893835 0.893836 0.893801 0.893941 0.874009 0.894283 0.871145 0.89481 0.886428 0.895564 0.889368 0.896779 0.897982 0.898283 0.858551 0.873349 0.887578 0.901674 0.898458 0.883238 0.860135 0.913047 0.900523 0.873839 0.896743 0.883106 0.913111 0.884468 0.881363 0.911136 0.885666 0.892892 0.879281 0.905524 0.912754 0.856026 0.879183 0.893636 0.896332 0.884726 0.866761 0.873599 0.893958 0.897165 0.893865 0.888857 0.893838 0.886643 0.893835 0.873618 0.893833 0.875783 0.893832 0.893832 0.893832 0.893832 0.893832 0.893832 0.893832 0.893832 0.893832 0.893832 0.893832 0.893832 0.893832 0.893819 0.893832 0.893832 0.893832 0.893832 0.893832 0.893832 0.893832 0.893832 0.893832 0.893832 0.893832 0.893832 0.893832 0.875783 0.893833 0.873618 0.893835 0.886643 0.893838 0.888857 0.893865 0.897165 0.893958 0.873599 0.866761 0.884726 0.896332 0.893636 0.879183 0.856026 0.912754 0.905524 0.879281 0.892892 0.885666 0.911136 0.881363 0.881213 0.90831 0.888512 0.89074 0.884758 0.904769 0.911277 0.854231 0.874769 0.88912 0.890765 0.88237 0.86382 0.885178 0.893964 0.896013 0.893867 0.888454 0.893832 0.886775 0.893832 0.875993 0.893832 0.877929 0.893832 0.893832 0.893832 0.893832 0.893832 0.893832 0.893832 0.893832 0.893832 0.893832 0.893832 0.893832 0.893832 0.893822 0.893832 0.893832 0.893832 0.893832 0.893832 0.893832 0.893832 0.893832 0.893832 0.893832 0.893832 0.893832 0.893832 0.877929 0.893832 0.875993 0.893832 0.886775 0.893832 0.888454 0.893867 0.896013 0.893964 0.885178 0.86382 0.88237 0.890765 0.88912 0.874769 0.854231 0.911277 0.904769 0.884758 0.89074 0.888512 0.90831 0.881213 0.882088 0.905386 0.890529 0.890586 0.889279 0.903005 0.90925 0.854272 0.871572 0.88549 0.885923 0.880883 0.865413 0.891008 0.893832 0.894638 0.893832 0.88816 0.893832 0.886802 0.893832 0.878157 0.893832 0.880221 0.893832 0.893832 0.893832 0.893832 0.893832 0.893832 0.893832 0.893832 0.893832 0.893832 0.893832 0.893832 0.893832 0.893825 0.893832 0.893832 0.893832 0.893832 0.893832 0.893832 0.893832 0.893832 0.893832 0.893832 0.893832 0.893832 0.893832 0.880221 0.893832 0.878157 0.893832 0.886802 0.893832 0.88816 0.893832 0.894638 0.893832 0.891008 0.865413 0.880883 0.885923 0.88549 0.871572 0.854272 0.90925 0.903005 0.889279 0.890586 0.890529 0.905386 0.882088 0.88383 0.90248 0.891316 0.891183 0.892599 0.901069 0.906861 0.855257 0.869969 0.882786 0.882434 0.880376 0.868854 0.892405 0.893832 0.893333 0.893832 0.887923 0.893832 0.886787 0.893832 0.880055 0.893832 0.882463 0.893832 0.893832 0.893832 0.893832 0.893832 0.893832 0.893832 0.893832 0.893832 0.893832 0.893832 0.893832 0.893832 0.893827 0.893832 0.893832 0.893832 0.893832 0.893832 0.893832 0.893832 0.893832 0.893832 0.893832 0.893832 0.893832 0.893832 0.882463 0.893832 0.880055 0.893832 0.886787 0.893832 0.887923 0.893832 0.893333 0.893832 0.892405 0.868854 0.880376 0.882434 0.882786 0.869969 0.855257 0.906861 0.901069 0.892599 0.891183 0.891316 0.90248 0.88383 0.885951 0.899659 0.891506 0.89184 0.894178 0.899359 0.904253 0.8575 0.869801 0.881384 0.880248 0.880456 0.872545 0.892083 0.893832 0.892249 0.893832 0.887769 0.893832 0.88681 0.893832 0.881722 0.893832 0.884535 0.893832 0.893832 0.893832 0.893832 0.893832 0.893832 0.893832 0.893832 0.893832 0.893832 0.893832 0.893832 0.893832 0.893829 0.893832 0.893832 0.893832 0.893832 0.893832 0.893832 0.893832 0.893832 0.893832 0.893832 0.893832 0.893832 0.893832 0.884535 0.893832 0.881722 0.893832 0.88681 0.893832 0.887769 0.893832 0.892249 0.893832 0.892083 0.872545 0.880456 0.880248 0.881384 0.869801 0.8575 0.904253 0.899359 0.894178 0.89184 0.891506 0.899659 0.885951 0.887829 0.897127 0.891554 0.892246 0.894091 0.89801 0.901602 0.860989 0.870688 0.881051 0.879053 0.880861 0.87602 0.891631 0.893832 0.891419 0.893832 0.887761 0.893832 0.88693 0.893832 0.883231 0.893832 0.886382 0.893832 0.893832 0.893832 0.893832 0.893832 0.893832 0.893832 0.893832 0.893832 0.893832 0.893832 0.893832 0.893832 0.89383 0.893832 0.893832 0.893832 0.893832 0.893832 0.893832 0.893832 0.893832 0.893832 0.893832 0.893832 0.893832 0.893832 0.886382 0.893832 0.883231 0.893832 0.88693 0.893832 0.887761 0.893832 0.891419 0.893832 0.891631 0.87602 0.880861 0.879053 0.881051 0.870688 0.860989 0.901602 0.89801 0.894091 0.892246 0.891554 0.897127 0.887829 0.89216 0.893097 0.872201 0.878652 0.881545 0.879149 0.89146 0.893832 0.890834 0.893832 0.887905 0.893832 0.887171 0.893832 0.884628 0.893832 0.887982 0.893832 0.893832 0.893832 0.893832 0.893832 0.893832 0.893832 0.893832 0.893832 0.893832 0.893832 0.893832 0.893832 0.893831 0.893832 0.893832 0.893832 0.893832 0.893832 0.893832 0.893832 0.893832 0.893832 0.893832 0.893832 0.893832 0.893832 0.887982 0.893832 0.884628 0.893832 0.887171 0.893832 0.887905 0.893832 0.890834 0.893832 0.89146 0.879149 0.881545 0.878652 0.872201 0.893097 0.89216 0.889272 0.895069 0.891662 0.896939 0.899094 0.865017 0.881316 0.881316 0.865017 0.899094 0.896939 0.891662 0.895069 0.889272 0.890319 0.893535 0.89178 0.891666 0.891903 0.896035 0.896855 0.868938 0.873971 0.88189 0.878878 0.882465 0.881868 0.891511 0.893832 0.890463 0.893832 0.888156 0.893832 0.887523 0.893832 0.885925 0.893832 0.889332 0.893832 0.893832 0.893832 0.893832 0.893832 0.893832 0.893832 0.893832 0.893832 0.893832 0.893832 0.893832 0.893832 0.893831 0.893832 0.893832 0.893832 0.893832 0.893832 0.893832 0.893832 0.893832 0.893832 0.893832 0.893832 0.893832 0.893832 0.889332 0.893832 0.885925 0.893832 0.887523 0.893832 0.888156 0.893832 0.890463 0.893832 0.891511 0.881868 0.882465 0.878878 0.88189 0.873971 0.868938 0.896855 0.896035 0.891903 0.891666 0.89178 0.893535 0.890319 0.891046 0.892455 0.891776 0.891049 0.890869 0.895223 0.894932 0.872491 0.875766 0.88261 0.879534 0.883524 0.884157 0.891651 0.893832 0.890263 0.893832 0.888463 0.893832 0.887956 0.893832 0.887121 0.893832 0.890442 0.893832 0.893832 0.893832 0.893832 0.893832 0.893832 0.893832 0.893832 0.893832 0.893832 0.893832 0.893832 0.893832 0.893832 0.893832 0.893832 0.893832 0.893832 0.893832 0.893832 0.893832 0.893832 0.893832 0.893832 0.893832 0.893832 0.893832 0.890442 0.893832 0.887121 0.893832 0.887956 0.893832 0.888463 0.893832 0.890263 0.893832 0.891651 0.884157 0.883524 0.879534 0.88261 0.875766 0.872491 0.894932 0.895223 0.890869 0.891049 0.891776 0.892455 0.891046 0.891519 0.891707 0.891644 0.890527 0.890104 0.894469 0.893319 0.875648 0.877474 0.88336 0.880441 0.884618 0.886038 0.891796 0.893832 0.89019 0.893832 0.888794 0.893832 0.88844 0.893832 0.888211 0.893832 0.891332 0.893832 0.893832 0.893832 0.893832 0.893832 0.893832 0.893832 0.893832 0.893832 0.893832 0.893832 0.893832 0.893832 0.893832 0.893832 0.893832 0.893832 0.893832 0.893832 0.893832 0.893832 0.893832 0.893832 0.893832 0.893832 0.893832 0.893832 0.891332 0.893832 0.888211 0.893832 0.88844 0.893832 0.888794 0.893832 0.89019 0.893832 0.891796 0.886038 0.884618 0.880441 0.88336 0.877474 0.875648 0.893319 0.894469 0.890104 0.890527 0.891644 0.891707 0.891519 0.891798 0.891182 0.891476 0.890187 0.88961 0.893769 0.891994 0.878422 0.879055 0.884071 0.881478 0.885665 0.887559 0.891908 0.893832 0.890211 0.893832 0.889132 0.893832 0.88895 0.893832 0.889194 0.893832 0.89203 0.893832 0.893832 0.893832 0.893832 0.893832 0.893832 0.893832 0.893832 0.893832 0.893832 0.893832 0.893832 0.893832 0.893832 0.893832 0.893832 0.893832 0.893832 0.893832 0.893832 0.893832 0.893832 0.893832 0.893832 0.893832 0.893832 0.893832 0.89203 0.893832 0.889194 0.893832 0.88895 0.893832 0.889132 0.893832 0.890211 0.893832 0.891908 0.887559 0.885665 0.881478 0.884071 0.879055 0.878422 0.891994 0.893769 0.88961 0.890187 0.891476 0.891182 0.891798 0.891947 0.890804 0.891355 0.890034 0.889354 0.893132 0.89093 0.880821 0.880508 0.884721 0.882561 0.886618 0.888775 0.891982 0.893832 0.890296 0.893832 0.88947 0.893832 0.889464 0.893832 0.890067 0.893832 0.892563 0.893832 0.893832 0.893832 0.893832 0.893832 0.893832 0.893832 0.893832 0.893832 0.893832 0.893832 0.893832 0.893832 0.893832 0.893832 0.893832 0.893832 0.893832 0.893832 0.893832 0.893832 0.893832 0.893832 0.893832 0.893832 0.893832 0.893832 0.892563 0.893832 0.890067 0.893832 0.889464 0.893832 0.88947 0.893832 0.890296 0.893832 0.891982 0.888775 0.886618 0.882561 0.884721 0.880508 0.880821 0.89093 0.893132 0.889354 0.890034 0.891355 0.890804 0.891947 0.892016 0.890528 0.891305 0.89004 0.889292 0.892573 0.890099 0.882849 0.881834 0.885308 0.883637 0.887459 0.889742 0.892024 0.893832 0.890424 0.893832 0.889802 0.893832 0.889966 0.893832 0.890827 0.893832 0.89296 0.893832 0.893832 0.893832 0.893832 0.893832 0.893832 0.893832 0.893832 0.893832 0.893832 0.893832 0.893832 0.893832 0.893832 0.893832 0.893832 0.893832 0.893832 0.893832 0.893832 0.893832 0.893832 0.893832 0.893832 0.893832 0.893832 0.893832 0.89296 0.893832 0.890827 0.893832 0.889966 0.893832 0.889802 0.893832 0.890424 0.893832 0.892024 0.889742 0.887459 0.883637 0.885308 0.881834 0.882849 0.890099 0.892573 0.889292 0.89004 0.891305 0.890528 0.892016 0.892043 0.890328 0.891313 0.890166 0.889382 0.892102 0.889472 0.884518 0.883034 0.885836 0.884669 0.888185 0.890513 0.892044 0.893832 0.89058 0.893832 0.890128 0.893832 0.890443 0.893832 0.891477 0.893832 0.893248 0.893832 0.893832 0.893832 0.893832 0.893832 0.893832 0.893832 0.893832 0.893832 0.893832 0.893832 0.893832 0.893832 0.893832 0.893832 0.893832 0.893832 0.893832 0.893832 0.893832 0.893832 0.893832 0.893832 0.893832 0.893832 0.893832 0.893832 0.893248 0.893832 0.891477 0.893832 0.890443 0.893832 0.890128 0.893832 0.89058 0.893832 0.892044 0.890513 0.888185 0.884669 0.885836 0.883034 0.884518 0.889472 0.892102 0.889382 0.890166 0.891313 0.890328 0.892043 0.892043 0.890189 0.891352 0.890374 0.889586 0.891721 0.88902 0.885853 0.884104 0.88631 0.885635 0.888806 0.891136 0.892053 0.893832 0.890751 0.893832 0.890444 0.893832 0.890889 0.893832 0.892019 0.893832 0.893452 0.893832 0.893832 0.893832 0.893832 0.893832 0.893832 0.893832 0.893832 0.893832 0.893832 0.893832 0.893832 0.893832 0.893832 0.893832 0.893832 0.893832 0.893832 0.893832 0.893832 0.893832 0.893832 0.893832 0.893832 0.893832 0.893832 0.893832 0.893452 0.893832 0.892019 0.893832 0.890889 0.893832 0.890444 0.893832 0.890751 0.893832 0.892053 0.891136 0.888806 0.885635 0.88631 0.884104 0.885853 0.88902 0.891721 0.889586 0.890374 0.891352 0.890189 0.892043 0.892025 0.890102 0.891398 0.890629 0.889867 0.891426 0.888716 0.886888 0.88505 0.886738 0.886523 0.889335 0.891647 0.89206 0.893832 0.890931 0.893832 0.890751 0.893832 0.8913 0.893832 0.892462 0.893832 0.893592 0.893832 0.893832 0.893832 0.893832 0.893832 0.893832 0.893832 0.893832 0.893832 0.893832 0.893832 0.893832 0.893832 0.893832 0.893832 0.893832 0.893832 0.893832 0.893832 0.893832 0.893832 0.893832 0.893832 0.893832 0.893832 0.893832 0.893832 0.893592 0.893832 0.892462 0.893832 0.8913 0.893832 0.890751 0.893832 0.890931 0.893832 0.89206 0.891647 0.889335 0.886523 0.886738 0.88505 0.886888 0.888716 0.891426 0.889867 0.890629 0.891398 0.890102 0.892025 0.891991 0.890058 0.891434 0.890902 0.890193 0.891208 0.888535 0.887674 0.885881 0.887128 0.88733 0.889787 0.892073 0.892071 0.893832 0.891113 0.893832 0.891046 0.893832 0.891673 0.893832 0.892816 0.893832 0.893686 0.893832 0.893832 0.893832 0.893832 0.893832 0.893832 0.893832 0.893832 0.893832 0.893832 0.893832 0.893832 0.893832 0.893832 0.893832 0.893832 0.893832 0.893832 0.893832 0.893832 0.893832 0.893832 0.893832 0.893832 0.893832 0.893832 0.893832 0.893686 0.893832 0.892816 0.893832 0.891673 0.893832 0.891046 0.893832 0.891113 0.893832 0.892071 0.892073 0.889787 0.88733 0.887128 0.885881 0.887674 0.888535 0.891208 0.890193 0.890902 0.891434 0.890058 0.891991 0.891946 0.890051 0.891455 0.891172 0.890538 0.891054 0.888457 0.88826 0.886613 0.887493 0.88806 0.890176 0.892432 0.892089 0.893832 0.891296 0.893832 0.891328 0.893832 0.892009 0.893832 0.893093 0.893832 0.893746 0.893832 0.893832 0.893832 0.893832 0.893832 0.893832 0.893832 0.893832 0.893832 0.893832 0.893832 0.893832 0.893832 0.893832 0.893832 0.893832 0.893832 0.893832 0.893832 0.893832 0.893832 0.893832 0.893832 0.893832 0.893832 0.893832 0.893832 0.893746 0.893832 0.893093 0.893832 0.892009 0.893832 0.891328 0.893832 0.891296 0.893832 0.892089 0.892432 0.890176 0.88806 0.887493 0.886613 0.88826 0.888457 0.891054 0.890538 0.891172 0.891455 0.890051 0.891946 0.891892 0.890077 0.891459 0.891424 0.890881 0.890953 0.888462 0.888696 0.887262 0.887842 0.888719 0.890514 0.892734 0.892118 0.893832 0.891476 0.893832 0.891596 0.893832 0.892309 0.893832 0.893305 0.893832 0.893783 0.893832 0.893832 0.893832 0.893832 0.893832 0.893832 0.893832 0.893832 0.893832 0.893832 0.893832 0.893832 0.893832 0.893832 0.893832 0.893832 0.893832 0.893832 0.893832 0.893832 0.893832 0.893832 0.893832 0.893832 0.893832 0.893832 0.893832 0.893783 0.893832 0.893305 0.893832 0.892309 0.893832 0.891596 0.893832 0.891476 0.893832 0.892118 0.892734 0.890514 0.888719 0.887842 0.887262 0.888696 0.888462 0.890953 0.890881 0.891424 0.891459 0.890077 0.891892 0.891835 0.890129 0.89145 0.891649 0.891206 0.890894 0.888535 0.889027 0.887843 0.888182 0.889312 0.890811 0.892985 0.892156 0.893832 0.891652 0.893832 0.891848 0.893832 0.892572 0.893832 0.893463 0.893832 0.893806 0.893832 0.893832 0.893832 0.893832 0.893832 0.893832 0.893832 0.893832 0.893832 0.893832 0.893832 0.893832 0.893832 0.893832 0.893832 0.893832 0.893832 0.893832 0.893832 0.893832 0.893832 0.893832 0.893832 0.893832 0.893832 0.893832 0.893832 0.893806 0.893832 0.893463 0.893832 0.892572 0.893832 0.891848 0.893832 0.891652 0.893832 0.892156 0.892985 0.890811 0.889312 0.888182 0.887843 0.889027 0.888535 0.890894 0.891206 0.891649 0.89145 0.890129 0.891835 0.891776 0.890203 0.891433 0.891844 0.891504 0.890867 0.888661 0.889285 0.888371 0.888519 0.889848 0.891074 0.893192 0.892205 0.893832 0.891824 0.893832 0.892083 0.893832 0.892801 0.893832 0.893579 0.893832 0.893818 0.893832 0.893832 0.893832 0.893832 0.893832 0.893832 0.893832 0.893832 0.893832 0.893832 0.893832 0.893832 0.893832 0.893832 0.893832 0.893832 0.893832 0.893832 0.893832 0.893832 0.893832 0.893832 0.893832 0.893832 0.893832 0.893832 0.893832 0.893818 0.893832 0.893579 0.893832 0.892801 0.893832 0.892083 0.893832 0.891824 0.893832 0.892205 0.893192 0.891074 0.889848 0.888519 0.888371 0.889285 0.888661 0.890867 0.891504 0.891844 0.891433 0.890203 0.891776 0.891412 0.892007 0.891769 0.888826 0.889499 0.888857 0.888854 0.890331 0.891311 0.893357 0.892263 0.893832 0.891991 0.893832 0.892301 0.893832 0.892998 0.893832 0.893662 0.893832 0.893825 0.893832 0.893832 0.893832 0.893832 0.893832 0.893832 0.893832 0.893832 0.893832 0.893832 0.893832 0.893832 0.893832 0.893832 0.893832 0.893832 0.893832 0.893832 0.893832 0.893832 0.893832 0.893832 0.893832 0.893832 0.893832 0.893832 0.893832 0.893825 0.893832 0.893662 0.893832 0.892998 0.893832 0.892301 0.893832 0.891991 0.893832 0.892263 0.893357 0.891311 0.890331 0.888854 0.888857 0.889499 0.888826 0.891769 0.892007 0.891412 0.891721 0.890295 0.890865 0.890865 0.890295 0.891721 0.89167 0.890399 0.891393 0.89214 0.891999 0.890882 0.889022 0.889688 0.889309 0.889186 0.890766 0.891525 0.893487 0.892329 0.893832 0.892152 0.893832 0.892501 0.893832 0.893165 0.893832 0.89372 0.893832 0.893829 0.893832 0.893832 0.893832 0.893832 0.893832 0.893832 0.893832 0.893832 0.893832 0.893832 0.893832 0.893832 0.893832 0.893832 0.893832 0.893832 0.893832 0.893832 0.893832 0.893832 0.893832 0.893832 0.893832 0.893832 0.893832 0.893832 0.893832 0.893829 0.893832 0.89372 0.893832 0.893165 0.893832 0.892501 0.893832 0.892152 0.893832 0.892329 0.893487 0.891525 0.890766 0.889186 0.889309 0.889688 0.889022 0.890882 0.891999 0.89214 0.891393 0.890399 0.89167 0.891625 0.890512 0.891378 0.892245 0.892195 0.890912 0.889238 0.889863 0.889733 0.889514 0.891159 0.89172 0.893586 0.892402 0.893832 0.892306 0.893832 0.892683 0.893832 0.893304 0.893832 0.89376 0.893832 0.893831 0.893832 0.893832 0.893832 0.893832 0.893832 0.893832 0.893832 0.893832 0.893832 0.893832 0.893832 0.893832 0.893832 0.893832 0.893832 0.893832 0.893832 0.893832 0.893832 0.893832 0.893832 0.893832 0.893832 0.893832 0.893832 0.893832 0.893832 0.893831 0.893832 0.89376 0.893832 0.893304 0.893832 0.892683 0.893832 0.892306 0.893832 0.892402 0.893586 0.89172 0.891159 0.889514 0.889733 0.889863 0.889238 0.890912 0.892195 0.892245 0.891378 0.890512 0.891625 0.891587 0.89063 0.89137 0.892325 0.892358 0.890953 0.889468 0.890032 0.890131 0.889834 0.891512 0.891898 0.893661 0.892479 0.893832 0.892453 0.893832 0.892847 0.893832 0.893419 0.893832 0.893787 0.893832 0.893832 0.893832 0.893832 0.893832 0.893832 0.893832 0.893832 0.893832 0.893832 0.893832 0.893832 0.893832 0.893832 0.893832 0.893832 0.893832 0.893832 0.893832 0.893832 0.893832 0.893832 0.893832 0.893832 0.893832 0.893832 0.893832 0.893832 0.893832 0.893832 0.893832 0.893787 0.893832 0.893419 0.893832 0.892847 0.893832 0.892453 0.893832 0.892479 0.893661 0.891898 0.891512 0.889834 0.890131 0.890032 0.889468 0.890953 0.892358 0.892325 0.89137 0.89063 0.891587 0.891557 0.890749 0.89137 0.892385 0.892491 0.891 0.889706 0.8902 0.890506 0.890143 0.891828 0.892061 0.893715 0.892559 0.893832 0.892592 0.893832 0.892993 0.893832 0.893513 0.893832 0.893804 0.893832 0.893832 0.893832 0.893832 0.893832 0.893832 0.893832 0.893832 0.893832 0.893832 0.893832 0.893832 0.893832 0.893832 0.893832 0.893832 0.893832 0.893832 0.893832 0.893832 0.893832 0.893832 0.893832 0.893832 0.893832 0.893832 0.893832 0.893832 0.893832 0.893832 0.893832 0.893804 0.893832 0.893513 0.893832 0.892993 0.893832 0.892592 0.893832 0.892559 0.893715 0.892061 0.891828 0.890143 0.890506 0.8902 0.889706 0.891 0.892491 0.892385 0.89137 0.890749 0.891557 0.891535 0.890867 0.891379 0.892427 0.892599 0.891052 0.889946 0.890366 0.890858 0.890438 0.892111 0.892209 0.893754 0.89264 0.893832 0.892722 0.893832 0.893122 0.893832 0.893588 0.893832 0.893815 0.893832 0.893832 0.893832 0.893832 0.893832 0.893832 0.893832 0.893832 0.893832 0.893832 0.893832 0.893832 0.893832 0.893832 0.893832 0.893832 0.893832 0.893832 0.893832 0.893832 0.893832 0.893832 0.893832 0.893832 0.893832 0.893832 0.893832 0.893832 0.893832 0.893832 0.893832 0.893815 0.893832 0.893588 0.893832 0.893122 0.893832 0.892722 0.893832 0.89264 0.893754 0.892209 0.892111 0.890438 0.890858 0.890366 0.889946 0.891052 0.892599 0.892427 0.891379 0.890867 0.891535 0.89152 0.890982 0.891397 0.892457 0.892686 0.891106 0.890185 0.89053 0.891186 0.890715 0.892362 0.892344 0.893781 0.892722 0.893832 0.892843 0.893832 0.893236 0.893832 0.893648 0.893832 0.893822 0.893832 0.893832 0.893832 0.893832 0.893832 0.893832 0.893832 0.893832 0.893832 0.893832 0.893832 0.893832 0.893832 0.893832 0.893832 0.893832 0.893832 0.893832 0.893832 0.893832 0.893832 0.893832 0.893832 0.893832 0.893832 0.893832 0.893832 0.893832 0.893832 0.893832 0.893832 0.893822 0.893832 0.893648 0.893832 0.893236 0.893832 0.892843 0.893832 0.892722 0.893781 0.892344 0.892362 0.890715 0.891186 0.89053 0.890185 0.891106 0.892686 0.892457 0.891397 0.890982 0.89152 0.891512 0.891091 0.891422 0.892476 0.892754 0.891163 0.89042 0.890692 0.891489 0.890972 0.892584 0.892466 0.893799 0.892801 0.893832 0.892955 0.893832 0.893334 0.893832 0.893695 0.893832 0.893826 0.893832 0.893832 0.893832 0.893832 0.893832 0.893832 0.893832 0.893832 0.893832 0.893832 0.893832 0.893832 0.893832 0.893832 0.893832 0.893832 0.893832 0.893832 0.893832 0.893832 0.893832 0.893832 0.893832 0.893832 0.893832 0.893832 0.893832 0.893832 0.893832 0.893832 0.893832 0.893826 0.893832 0.893695 0.893832 0.893334 0.893832 0.892955 0.893832 0.892801 0.893799 0.892466 0.892584 0.890972 0.891489 0.890692 0.89042 0.891163 0.892754 0.892476 0.891422 0.891091 0.891512 0.89151 0.891193 0.891453 0.892487 0.892808 0.891219 0.890647 0.890849 0.891767 0.891207 0.892777 0.892576 0.893811 0.892878 0.893832 0.893057 0.893832 0.893419 0.893832 0.893731 0.893832 0.893829 0.893832 0.893832 0.893832 0.893832 0.893832 0.893832 0.893832 0.893832 0.893832 0.893832 0.893832 0.893832 0.893832 0.893832 0.893832 0.893832 0.893832 0.893832 0.893832 0.893832 0.893832 0.893832 0.893832 0.893832 0.893832 0.893832 0.893832 0.893832 0.893832 0.893832 0.893832 0.893829 0.893832 0.893731 0.893832 0.893419 0.893832 0.893057 0.893832 0.892878 0.893811 0.892576 0.892777 0.891207 0.891767 0.890849 0.890647 0.891219 0.892808 0.892487 0.891453 0.891193 0.89151 0.891513 0.891288 0.891489 0.892494 0.89285 0.891275 0.890863 0.891 0.892019 0.89142 0.892946 0.892675 0.893819 0.892951 0.893832 0.89315 0.893832 0.893492 0.893832 0.893758 0.893832 0.89383 0.893832 0.893832 0.893832 0.893832 0.893832 0.893832 0.893832 0.893832 0.893832 0.893832 0.893832 0.893832 0.893832 0.893832 0.893832 0.893832 0.893832 0.893832 0.893832 0.893832 0.893832 0.893832 0.893832 0.893832 0.893832 0.893832 0.893832 0.893832 0.893832 0.893832 0.893832 0.89383 0.893832 0.893758 0.893832 0.893492 0.893832 0.89315 0.893832 0.892951 0.893819 0.892675 0.892946 0.89142 0.892019 0.891 0.890863 0.891275 0.89285 0.892494 0.891489 0.891288 0.891513 0.89152 0.891374 0.891528 0.892496 0.892883 0.891329 0.891067 0.891143 0.892245 0.891611 0.89309 0.892763 0.893824 0.893019 0.893832 0.893233 0.893832 0.893553 0.893832 0.893779 0.893832 0.893831 0.893832 0.893832 0.893832 0.893832 0.893832 0.893832 0.893832 0.893832 0.893832 0.893832 0.893832 0.893832 0.893832 0.893832 0.893832 0.893832 0.893832 0.893832 0.893832 0.893832 0.893832 0.893832 0.893832 0.893832 0.893832 0.893832 0.893832 0.893832 0.893832 0.893832 0.893832 0.893831 0.893832 0.893779 0.893832 0.893553 0.893832 0.893233 0.893832 0.893019 0.893824 0.892763 0.89309 0.891611 0.892245 0.891143 0.891067 0.891329 0.892883 0.892496 0.891528 0.891374 0.89152 0.89153 0.891452 0.891569 0.892497 0.892908 0.891381 0.891256 0.891275 0.892446 0.891779 0.893213 0.89284 0.893828 0.893082 0.893832 0.893307 0.893832 0.893605 0.893832 0.893795 0.893832 0.893832 0.893832 0.893832 0.893832 0.893832 0.893832 0.893832 0.893832 0.893832 0.893832 0.893832 0.893832 0.893832 0.893832 0.893832 0.893832 0.893832 0.893832 0.893832 0.893832 0.893832 0.893832 0.893832 0.893832 0.893832 0.893832 0.893832 0.893832 0.893832 0.893832 0.893832 0.893832 0.893832 0.893832 0.893795 0.893832 0.893605 0.893832 0.893307 0.893832 0.893082 0.893828 0.89284 0.893213 0.891779 0.892446 0.891275 0.891256 0.891381 0.892908 0.892497 0.891569 0.891452 0.89153 0.891543 0.89152 0.89161 0.892496 0.892928 0.891429 0.891429 0.891396 0.89262 0.891925 0.893317 0.892907 0.89383 0.89314 0.893832 0.893371 0.893832 0.893647 0.893832 0.893806 0.893832 0.893832 0.893832 0.893832 0.893832 0.893832 0.893832 0.893832 0.893832 0.893832 0.893832 0.893832 0.893832 0.893832 0.893832 0.893832 0.893832 0.893832 0.893832 0.893832 0.893832 0.893832 0.893832 0.893832 0.893832 0.893832 0.893832 0.893832 0.893832 0.893832 0.893832 0.893832 0.893832 0.893832 0.893832 0.893806 0.893832 0.893647 0.893832 0.893371 0.893832 0.89314 0.89383 0.892907 0.893317 0.891925 0.89262 0.891396 0.891429 0.891429 0.892928 0.892496 0.89161 0.89152 0.891543 0.891556 0.89158 0.891649 0.892495 0.892944 0.891474 0.891583 0.891505 0.89277 0.892049 0.893403 0.892965 0.893831 0.89319 0.893832 0.893426 0.893832 0.893682 0.893832 0.893814 0.893832 0.893832 0.893832 0.893832 0.893832 0.893832 0.893832 0.893832 0.893832 0.893832 0.893832 0.893832 0.893832 0.893832 0.893832 0.893832 0.893832 0.893832 0.893832 0.893832 0.893832 0.893832 0.893832 0.893832 0.893832 0.893832 0.893832 0.893832 0.893832 0.893832 0.893832 0.893832 0.893832 0.893832 0.893832 0.893814 0.893832 0.893682 0.893832 0.893426 0.893832 0.89319 0.893831 0.892965 0.893403 0.892049 0.89277 0.891505 0.891583 0.891474 0.892944 0.892495 0.891649 0.89158 0.891556 0.891569 0.89163 0.891685 0.892493 0.892956 0.891513 0.891718 0.8916 0.892897 0.892154 0.893473 0.893014 0.893831 0.893235 0.893832 0.893473 0.893832 0.89371 0.893832 0.89382 0.893832 0.893832 0.893832 0.893832 0.893832 0.893832 0.893832 0.893832 0.893832 0.893832 0.893832 0.893832 0.893832 0.893832 0.893832 0.893832 0.893832 0.893832 0.893832 0.893832 0.893832 0.893832 0.893832 0.893832 0.893832 0.893832 0.893832 0.893832 0.893832 0.893832 0.893832 0.893832 0.893832 0.893832 0.893832 0.89382 0.893832 0.89371 0.893832 0.893473 0.893832 0.893235 0.893831 0.893014 0.893473 0.892154 0.892897 0.8916 0.891718 0.891513 0.892956 0.892493 0.891685 0.89163 0.891569 0.891581 0.891672 0.891717 0.892492 0.892966 0.891547 0.891832 0.89168 0.893 0.892239 0.893529 0.893055 0.893832 0.893272 0.893832 0.893511 0.893832 0.893732 0.893832 0.893824 0.893832 0.893832 0.893832 0.893832 0.893832 0.893832 0.893832 0.893832 0.893832 0.893832 0.893832 0.893832 0.893832 0.893832 0.893832 0.893832 0.893832 0.893832 0.893832 0.893832 0.893832 0.893832 0.893832 0.893832 0.893832 0.893832 0.893832 0.893832 0.893832 0.893832 0.893832 0.893832 0.893832 0.893832 0.893832 0.893824 0.893832 0.893732 0.893832 0.893511 0.893832 0.893272 0.893832 0.893055 0.893529 0.892239 0.893 0.89168 0.891832 0.891547 0.892966 0.892492 0.891717 0.891672 0.891581 0.891592 0.891705 0.891744 0.892491 0.892973 0.891575 0.891925 0.891745 0.893082 0.892307 0.893572 0.893087 0.893832 0.893302 0.893832 0.893542 0.893832 0.893749 0.893832 0.893826 0.893832 0.893832 0.893832 0.893832 0.893832 0.893832 0.893832 0.893832 0.893832 0.893832 0.893832 0.893832 0.893832 0.893832 0.893832 0.893832 0.893832 0.893832 0.893832 0.893832 0.893832 0.893832 0.893832 0.893832 0.893832 0.893832 0.893832 0.893832 0.893832 0.893832 0.893832 0.893832 0.893832 0.893832 0.893832 0.893826 0.893832 0.893749 0.893832 0.893542 0.893832 0.893302 0.893832 0.893087 0.893572 0.892307 0.893082 0.891745 0.891925 0.891575 0.892973 0.892491 0.891744 0.891705 0.891592 0.8916 0.89173 0.891765 0.89249 0.892978 0.891596 0.891995 0.891795 0.893142 0.892356 0.893603 0.89311 0.893832 0.893324 0.893832 0.893564 0.893832 0.893761 0.893832 0.893828 0.893832 0.893832 0.893832 0.893832 0.893832 0.893832 0.893832 0.893832 0.893832 0.893832 0.893832 0.893832 0.893832 0.893832 0.893832 0.893832 0.893832 0.893832 0.893832 0.893832 0.893832 0.893832 0.893832 0.893832 0.893832 0.893832 0.893832 0.893832 0.893832 0.893832 0.893832 0.893832 0.893832 0.893832 0.893832 0.893828 0.893832 0.893761 0.893832 0.893564 0.893832 0.893324 0.893832 0.89311 0.893603 0.892356 0.893142 0.891795 0.891995 0.891596 0.892978 0.89249 0.891765 0.89173 0.8916 0.891606 0.891746 0.891779 0.892489 0.892981 0.89161 0.892042 0.891828 0.893182 0.892389 0.893623 0.893126 0.893832 0.893339 0.893832 0.893579 0.893832 0.893769 0.893832 0.893829 0.893832 0.893832 0.893832 0.893832 0.893832 0.893832 0.893832 0.893832 0.893832 0.893832 0.893832 0.893832 0.893832 0.893832 0.893832 0.893832 0.893832 0.893832 0.893832 0.893832 0.893832 0.893832 0.893832 0.893832 0.893832 0.893832 0.893832 0.893832 0.893832 0.893832 0.893832 0.893832 0.893832 0.893832 0.893832 0.893829 0.893832 0.893769 0.893832 0.893579 0.893832 0.893339 0.893832 0.893126 0.893623 0.892389 0.893182 0.891828 0.892042 0.89161 0.892981 0.892489 0.891779 0.891746 0.891606 0.891609 0.891754 0.891786 0.892489 0.892983 0.891618 0.892066 0.891844 0.893201 0.892405 0.893633 0.893134 0.893832 0.893347 0.893832 0.893586 0.893832 0.893773 0.893832 0.89383 0.893832 0.893832 0.893832 0.893832 0.893832 0.893832 0.893832 0.893832 0.893832 0.893832 0.893832 0.893832 0.893832 0.893832 0.893832 0.893832 0.893832 0.893832 0.893832 0.893832 0.893832 0.893832 0.893832 0.893832 0.893832 0.893832 0.893832 0.893832 0.893832 0.893832 0.893832 0.893832 0.893832 0.893832 0.893832 0.89383 0.893832 0.893773 0.893832 0.893586 0.893832 0.893347 0.893832 0.893134 0.893633 0.892405 0.893201 0.891844 0.892066 0.891618 0.892983 0.892489 0.891786 0.891754 0.891609 
SCALARS Axial_Stress float 1
LOOKUP_TABLE default
-1.05082e+12 -697159000000.0 -629209000000.0 -96358100000.0 -124812000000.0 -124812000000.0 -96358100000.0 -629209000000.0 -697159000000.0 -1.05082e+12 -1.25084e+12 -1.56055e+12 -317633000000.0 -336458000000.0 -155168000000.0 -126772000000.0 -98599200000.0 -67052600000.0 -108363000000.0 -96054400000.0 -112996000000.0 -120188000000.0 -129462000000.0 -137291000000.0 -143758000000.0 -149030000000.0 -153248000000.0 -156477000000.0 -158809000000.0 -160390000000.0 -161335000000.0 -161623000000.0 -161335000000.0 -160390000000.0 -158809000000.0 -156477000000.0 -153248000000.0 -149030000000.0 -143758000000.0 -137291000000.0 -129462000000.0 -120188000000.0 -112996000000.0 -96054400000.0 -108363000000.0 -67052600000.0 -98599200000.0 -126772000000.0 -155168000000.0 -336458000000.0 -317633000000.0 -1.56055e+12 -1.25084e+12 -1.31523e+12 -2.3505e+12 -1.05481e+12 -930259000000.0 -452641000000.0 -95184500000.0 -183033000000.0 -183033000000.0 -95184500000.0 -452641000000.0 -930259000000.0 -1.05481e+12 -2.3505e+12 -1.31523e+12 -1.33606e+12 -2.49547e+12 -2.49919e+12 -1.70248e+12 -1.09143e+12 -47717000000.0 -225280000000.0 -87270800000.0 -159974000000.0 -79974800000.0 -91440500000.0 -82427100000.0 -83274500000.0 -84247200000.0 -85208500000.0 -85997700000.0 -86948200000.0 -87843800000.0 -88331500000.0 -88460300000.0 -88621700000.0 -88613500000.0 -88621700000.0 -88460300000.0 -88331500000.0 -87843800000.0 -86948200000.0 -85997700000.0 -85208500000.0 -84247200000.0 -83274500000.0 -82427100000.0 -91440500000.0 -79974800000.0 -159974000000.0 -87270800000.0 -225280000000.0 -47717000000.0 -1.09143e+12 -1.70248e+12 -2.49919e+12 -2.49547e+12 -1.33606e+12 -1.32981e+12 -1.33789e+12 -2.47548e+12 -2.35892e+12 -2.45662e+12 -1.89242e+12 -1.91668e+12 -1.01507e+12 -683613000000.0 -623634000000.0 -265083000000.0 -223683000000.0 -229190000000.0 -123185000000.0 -250773000000.0 -130794000000.0 -150474000000.0 -138624000000.0 -140264000000.0 -140549000000.0 -140053000000.0 -139113000000.0 -137986000000.0 -136687000000.0 -135598000000.0 -134712000000.0 -134435000000.0 -134239000000.0 -134435000000.0 -134712000000.0 -135598000000.0 -136687000000.0 -137986000000.0 -139113000000.0 -140053000000.0 -140549000000.0 -140264000000.0 -138624000000.0 -150474000000.0 -130794000000.0 -250773000000.0 -123185000000.0 -229190000000.0 -223683000000.0 -265083000000.0 -623634000000.0 -683613000000.0 -1.01507e+12 -1.91668e+12 -1.89242e+12 -2.45662e+12 -2.35892e+12 -2.47548e+12 -1.33789e+12 -1.32981e+12 -1.322e+12 -2.44699e+12 -2.32862e+12 -2.15778e+12 -2.15139e+12 -2.45702e+12 -864749000000.0 -771273000000.0 -528298000000.0 -528298000000.0 -771273000000.0 -864749000000.0 -2.45702e+12 -2.15139e+12 -2.15778e+12 -2.32862e+12 -2.44699e+12 -1.322e+12 -1.31201e+12 -2.41019e+12 -2.26592e+12 -2.29986e+12 -2.15109e+12 -2.02411e+12 -1.66043e+12 -1.10995e+12 -617188000000.0 -492121000000.0 -231195000000.0 -147747000000.0 -314728000000.0 -158637000000.0 -189461000000.0 -177034000000.0 -182454000000.0 -185235000000.0 -186166000000.0 -185921000000.0 -185044000000.0 -184042000000.0 -183044000000.0 -182021000000.0 -181444000000.0 -181083000000.0 -181444000000.0 -182021000000.0 -183044000000.0 -184042000000.0 -185044000000.0 -185921000000.0 -186166000000.0 -185235000000.0 -182454000000.0 -177034000000.0 -189461000000.0 -158637000000.0 -314728000000.0 -147747000000.0 -231195000000.0 -492121000000.0 -617188000000.0 -1.10995e+12 -1.66043e+12 -2.02411e+12 -2.15109e+12 -2.29986e+12 -2.26592e+12 -2.41019e+12 -1.31201e+12 -1.3012e+12 -2.3612e+12 -2.38566e+12 -2.21153e+12 -2.12533e+12 -1.99629e+12 -2.01051e+12 -1.80401e+12 -1.8904e+12 -1.39977e+12 -844524000000.0 -599523000000.0 -456891000000.0 -302357000000.0 -213048000000.0 -388805000000.0 -196461000000.0 -222471000000.0 -189399000000.0 -187351000000.0 -190060000000.0 -195187000000.0 -200120000000.0 -203593000000.0 -205995000000.0 -207279000000.0 -208058000000.0 -208533000000.0 -208574000000.0 -208533000000.0 -208058000000.0 -207279000000.0 -205995000000.0 -203593000000.0 -200120000000.0 -195187000000.0 -190060000000.0 -187351000000.0 -189399000000.0 -222471000000.0 -196461000000.0 -388805000000.0 -213048000000.0 -302357000000.0 -456891000000.0 -599523000000.0 -844524000000.0 -1.39977e+12 -1.8904e+12 -1.80401e+12 -2.01051e+12 -1.99629e+12 -2.12533e+12 -2.21153e+12 -2.38566e+12 -2.3612e+12 -1.3012e+12 -1.26988e+12 -1.28757e+12 -2.34423e+12 -2.19279e+12 -2.09028e+12 -1.96441e+12 -1.99615e+12 -1.82937e+12 -1.80926e+12 -1.57312e+12 -1.09631e+12 -803322000000.0 -642819000000.0 -642819000000.0 -803322000000.0 -1.09631e+12 -1.57312e+12 -1.80926e+12 -1.82937e+12 -1.99615e+12 -1.96441e+12 -2.09028e+12 -2.19279e+12 -2.34423e+12 -1.28757e+12 -1.26988e+12 -1.24898e+12 -2.32907e+12 -2.16267e+12 -1.98689e+12 -1.98609e+12 -1.93723e+12 -1.87737e+12 -1.59701e+12 -1.26453e+12 -1.09157e+12 -949417000000.0 -819075000000.0 -428467000000.0 -290125000000.0 -203781000000.0 -399834000000.0 -198845000000.0 -240236000000.0 -213921000000.0 -217398000000.0 -220604000000.0 -222596000000.0 -222180000000.0 -221600000000.0 -222826000000.0 -224964000000.0 -227310000000.0 -228835000000.0 -229279000000.0 -228835000000.0 -227310000000.0 -224964000000.0 -222826000000.0 -221600000000.0 -222180000000.0 -222596000000.0 -220604000000.0 -217398000000.0 -213921000000.0 -240236000000.0 -198845000000.0 -399834000000.0 -203781000000.0 -290125000000.0 -428467000000.0 -819075000000.0 -949417000000.0 -1.09157e+12 -1.26453e+12 -1.59701e+12 -1.87737e+12 -1.93723e+12 -1.98609e+12 -1.98689e+12 -2.16267e+12 -2.32907e+12 -1.24898e+12 -1.22352e+12 -2.3071e+12 -2.15682e+12 -1.95082e+12 -1.65447e+12 -1.84852e+12 -1.81754e+12 -1.67762e+12 -1.6128e+12 -1.38399e+12 -1.15084e+12 -1.00757e+12 -626763000000.0 -288713000000.0 -219326000000.0 -399911000000.0 -195696000000.0 -247065000000.0 -221068000000.0 -228960000000.0 -233422000000.0 -235581000000.0 -236315000000.0 -236251000000.0 -236078000000.0 -235680000000.0 -235528000000.0 -235372000000.0 -235248000000.0 -235372000000.0 -235528000000.0 -235680000000.0 -236078000000.0 -236251000000.0 -236315000000.0 -235581000000.0 -233422000000.0 -228960000000.0 -221068000000.0 -247065000000.0 -195696000000.0 -399911000000.0 -219326000000.0 -288713000000.0 -626763000000.0 -1.00757e+12 -1.15084e+12 -1.38399e+12 -1.6128e+12 -1.67762e+12 -1.81754e+12 -1.84852e+12 -1.65447e+12 -1.95082e+12 -2.15682e+12 -2.3071e+12 -1.22352e+12 -1.18076e+12 -1.20049e+12 -2.19703e+12 -2.27151e+12 -2.15322e+12 -1.98307e+12 -1.79828e+12 -1.96581e+12 -1.77476e+12 -1.48133e+12 -1.41184e+12 -1.41166e+12 -1.22336e+12 -1.0997e+12 -868251000000.0 -658837000000.0 -480066000000.0 -480066000000.0 -658837000000.0 -868251000000.0 -1.0997e+12 -1.22336e+12 -1.41166e+12 -1.41184e+12 -1.48133e+12 -1.77476e+12 -1.96581e+12 -1.79828e+12 -1.98307e+12 -2.15322e+12 -2.27151e+12 -2.19703e+12 -1.20049e+12 -1.18076e+12 -1.16093e+12 -2.12615e+12 -2.08085e+12 -2.13602e+12 -2.02575e+12 -1.71181e+12 -1.29493e+12 -2.14622e+12 -1.37171e+12 -1.94366e+12 -1.26754e+12 -889673000000.0 -992726000000.0 -1.23141e+12 -843685000000.0 -489308000000.0 -351337000000.0 -290351000000.0 -419275000000.0 -207038000000.0 -259788000000.0 -226744000000.0 -235719000000.0 -238701000000.0 -241865000000.0 -243874000000.0 -245137000000.0 -246082000000.0 -246499000000.0 -246865000000.0 -247038000000.0 -246984000000.0 -247038000000.0 -246865000000.0 -246499000000.0 -246082000000.0 -245137000000.0 -243874000000.0 -241865000000.0 -238701000000.0 -235719000000.0 -226744000000.0 -259788000000.0 -207038000000.0 -419275000000.0 -290351000000.0 -351337000000.0 -489308000000.0 -843685000000.0 -1.23141e+12 -992726000000.0 -889673000000.0 -1.26754e+12 -1.94366e+12 -1.37171e+12 -2.14622e+12 -1.29493e+12 -1.71181e+12 -2.02575e+12 -2.13602e+12 -2.08085e+12 -2.12615e+12 -1.16093e+12 -1.13627e+12 -2.05715e+12 -1.87163e+12 -1.96535e+12 -1.95831e+12 -1.93351e+12 -1.91867e+12 -2.90506e+12 -1.56103e+12 -954204000000.0 -932244000000.0 -472997000000.0 -618211000000.0 -445036000000.0 -367407000000.0 -414725000000.0 -210106000000.0 -265957000000.0 -225347000000.0 -238110000000.0 -237697000000.0 -241457000000.0 -244043000000.0 -245846000000.0 -247169000000.0 -247983000000.0 -248568000000.0 -248929000000.0 -248867000000.0 -248929000000.0 -248568000000.0 -247983000000.0 -247169000000.0 -245846000000.0 -244043000000.0 -241457000000.0 -237697000000.0 -238110000000.0 -225347000000.0 -265957000000.0 -210106000000.0 -414725000000.0 -367407000000.0 -445036000000.0 -618211000000.0 -472997000000.0 -932244000000.0 -954204000000.0 -1.56103e+12 -2.90506e+12 -1.91867e+12 -1.93351e+12 -1.95831e+12 -1.96535e+12 -1.87163e+12 -2.05715e+12 -1.13627e+12 -1.10324e+12 -2.00857e+12 -2.01844e+12 -1.80053e+12 -1.65719e+12 -1.92815e+12 -1.86291e+12 -1.67647e+12 -1.93458e+12 -2.49804e+12 -887840000000.0 -2.58385e+12 -770837000000.0 -730174000000.0 -9035740000.0 -944111000000.0 -715660000000.0 -514319000000.0 -493993000000.0 -493993000000.0 -514319000000.0 -715660000000.0 -944111000000.0 -9035740000.0 -730174000000.0 -770837000000.0 -2.58385e+12 -887840000000.0 -2.49804e+12 -1.93458e+12 -1.67647e+12 -1.86291e+12 -1.92815e+12 -1.65719e+12 -1.80053e+12 -2.01844e+12 -2.00857e+12 -1.10324e+12 -827202000000.0 -1.01861e+12 -2.03129e+12 -1.77939e+12 -1.58888e+12 -1.37268e+12 -1.86723e+12 -1.96265e+12 -588821000000.0 -2.31515e+12 -2.04804e+12 -1.26739e+12 -2.57847e+12 -900534000000.0 -804176000000.0 -91970800000.0 -366500000000.0 -42376400000.0 -384796000000.0 -131790000000.0 -491203000000.0 -533790000000.0 -444167000000.0 -260766000000.0 -305960000000.0 -251673000000.0 -256686000000.0 -243043000000.0 -237749000000.0 -232067000000.0 -226427000000.0 -221229000000.0 -216904000000.0 -213825000000.0 -212257000000.0 -211450000000.0 -212257000000.0 -213825000000.0 -216904000000.0 -221229000000.0 -226427000000.0 -232067000000.0 -237749000000.0 -243043000000.0 -256686000000.0 -251673000000.0 -305960000000.0 -260766000000.0 -444167000000.0 -533790000000.0 -491203000000.0 -131790000000.0 -384796000000.0 -42376400000.0 -366500000000.0 -91970800000.0 -804176000000.0 -900534000000.0 -2.57847e+12 -1.26739e+12 -2.04804e+12 -2.31515e+12 -588821000000.0 -1.96265e+12 -1.86723e+12 -1.37268e+12 -1.58888e+12 -1.77939e+12 -2.03129e+12 -1.01861e+12 -827202000000.0 -395602000000.0 -1.9236e+12 -1.74291e+12 -1.48073e+12 -1.52386e+12 -1.32982e+12 -1.88483e+12 -1.6686e+12 -2.07041e+12 -1.5346e+12 -1.9023e+12 -1.15207e+12 -751185000000.0 -693955000000.0 -557114000000.0 -452274000000.0 -321341000000.0 -280146000000.0 -233072000000.0 -288537000000.0 -290904000000.0 -316859000000.0 -334900000000.0 -351566000000.0 -365988000000.0 -377764000000.0 -386993000000.0 -393986000000.0 -399020000000.0 -402015000000.0 -402980000000.0 -402015000000.0 -399020000000.0 -393986000000.0 -386993000000.0 -377764000000.0 -365988000000.0 -351566000000.0 -334900000000.0 -316859000000.0 -290904000000.0 -288537000000.0 -233072000000.0 -280146000000.0 -321341000000.0 -452274000000.0 -557114000000.0 -693955000000.0 -751185000000.0 -1.15207e+12 -1.9023e+12 -1.5346e+12 -2.07041e+12 -1.6686e+12 -1.88483e+12 -1.32982e+12 -1.52386e+12 -1.48073e+12 -1.74291e+12 -1.9236e+12 -395602000000.0 -122577000000.0 -885239000000.0 -2.17906e+12 -2.1927e+12 -990773000000.0 -1.5089e+12 -1.99576e+12 -1.72657e+12 -2.12869e+12 -1.57951e+12 -1.92116e+12 -1.34013e+12 -903931000000.0 -1.34794e+12 -905058000000.0 -576297000000.0 -906426000000.0 -760718000000.0 -642428000000.0 -654273000000.0 -654273000000.0 -642428000000.0 -760718000000.0 -906426000000.0 -576297000000.0 -905058000000.0 -1.34794e+12 -903931000000.0 -1.34013e+12 -1.92116e+12 -1.57951e+12 -2.12869e+12 -1.72657e+12 -1.99576e+12 -1.5089e+12 -990773000000.0 -2.1927e+12 -2.17906e+12 -885239000000.0 -122577000000.0 -239441000000.0 -897210000000.0 -772406000000.0 -2.06952e+12 -729977000000.0 -2.31829e+12 -1.06326e+12 -2.14685e+12 -661264000000.0 -1.39765e+12 -1.3564e+12 -1.36791e+12 -836241000000.0 -791302000000.0 -610558000000.0 -276217000000.0 -215694000000.0 -379466000000.0 -371521000000.0 -354813000000.0 -566101000000.0 -298718000000.0 -452674000000.0 -328410000000.0 -352367000000.0 -312528000000.0 -321779000000.0 -312198000000.0 -315009000000.0 -314753000000.0 -314158000000.0 -312713000000.0 -311002000000.0 -309414000000.0 -308127000000.0 -306978000000.0 -306803000000.0 -306978000000.0 -308127000000.0 -309414000000.0 -311002000000.0 -312713000000.0 -314158000000.0 -314753000000.0 -315009000000.0 -312198000000.0 -321779000000.0 -312528000000.0 -352367000000.0 -328410000000.0 -452674000000.0 -298718000000.0 -566101000000.0 -354813000000.0 -371521000000.0 -379466000000.0 -215694000000.0 -276217000000.0 -610558000000.0 -791302000000.0 -836241000000.0 -1.36791e+12 -1.3564e+12 -1.39765e+12 -661264000000.0 -2.14685e+12 -1.06326e+12 -2.31829e+12 -729977000000.0 -2.06952e+12 -772406000000.0 -897210000000.0 -239441000000.0 -549726000000.0 -975069000000.0 -742034000000.0 -1.67873e+12 -1.55558e+12 -163754000000.0 -2.1626e+12 -847400000000.0 -1.25254e+12 -910807000000.0 -1.12179e+12 -1.06277e+12 -1.03373e+12 -890938000000.0 -276571000000.0 -222908000000.0 -429632000000.0 -204475000000.0 -365054000000.0 -165399000000.0 -248504000000.0 -150329000000.0 -160488000000.0 -140567000000.0 -136878000000.0 -133917000000.0 -131434000000.0 -129381000000.0 -127796000000.0 -126359000000.0 -124952000000.0 -123885000000.0 -123692000000.0 -123885000000.0 -124952000000.0 -126359000000.0 -127796000000.0 -129381000000.0 -131434000000.0 -133917000000.0 -136878000000.0 -140567000000.0 -160488000000.0 -150329000000.0 -248504000000.0 -165399000000.0 -365054000000.0 -204475000000.0 -429632000000.0 -222908000000.0 -276571000000.0 -890938000000.0 -1.03373e+12 -1.06277e+12 -1.12179e+12 -910807000000.0 -1.25254e+12 -847400000000.0 -2.1626e+12 -163754000000.0 -1.55558e+12 -1.67873e+12 -742034000000.0 -975069000000.0 -549726000000.0 -192201000000.0 -1.04592e+12 -670539000000.0 -717797000000.0 -869845000000.0 -766300000000.0 -777789000000.0 -671786000000.0 -537627000000.0 -608698000000.0 -517776000000.0 -476300000000.0 -253221000000.0 -253221000000.0 -476300000000.0 -517776000000.0 -608698000000.0 -537627000000.0 -671786000000.0 -777789000000.0 -766300000000.0 -869845000000.0 -717797000000.0 -670539000000.0 -1.04592e+12 -192201000000.0 -524245000000.0 -601189000000.0 -496019000000.0 -893286000000.0 -1.54024e+12 -1.58264e+12 -1.40676e+12 -959489000000.0 -996016000000.0 -870681000000.0 -587175000000.0 -604642000000.0 -473238000000.0 -463924000000.0 -369198000000.0 -32864300000.0 -163451000000.0 -105905000000.0 -103478000000.0 -283556000000.0 -194046000000.0 -199899000000.0 -21000600000.0 -83571400000.0 -9243950000.0 -14376700000.0 -9035750000.0 -9035750000.0 -9035750000.0 -9035750000.0 -9035750000.0 -9035750000.0 -9035750000.0 -9035750000.0 -9035750000.0 -9200060000.0 -9035750000.0 -9035750000.0 -9035750000.0 -9035750000.0 -9035750000.0 -9035750000.0 -9035750000.0 -9035750000.0 -9035750000.0 -14376700000.0 -9243950000.0 -83571400000.0 -21000600000.0 -199899000000.0 -194046000000.0 -283556000000.0 -103478000000.0 -105905000000.0 -163451000000.0 -32864300000.0 -369198000000.0 -463924000000.0 -473238000000.0 -604642000000.0 -587175000000.0 -870681000000.0 -996016000000.0 -959489000000.0 -1.40676e+12 -1.58264e+12 -1.54024e+12 -893286000000.0 -496019000000.0 -601189000000.0 -524245000000.0 -96984500000.0 -197547000000.0 -409211000000.0 -845762000000.0 -968481000000.0 -964509000000.0 -821041000000.0 -793460000000.0 -707643000000.0 -644465000000.0 -526425000000.0 -499481000000.0 -344642000000.0 -250609000000.0 -214290000000.0 -295844000000.0 -215372000000.0 -260019000000.0 -213307000000.0 -209238000000.0 -205966000000.0 -202852000000.0 -199796000000.0 -197041000000.0 -194748000000.0 -192793000000.0 -191192000000.0 -190082000000.0 -189469000000.0 -189408000000.0 -189469000000.0 -190082000000.0 -191192000000.0 -192793000000.0 -194748000000.0 -197041000000.0 -199796000000.0 -202852000000.0 -205966000000.0 -209238000000.0 -213307000000.0 -260019000000.0 -215372000000.0 -295844000000.0 -214290000000.0 -250609000000.0 -344642000000.0 -499481000000.0 -526425000000.0 -644465000000.0 -707643000000.0 -793460000000.0 -821041000000.0 -964509000000.0 -968481000000.0 -845762000000.0 -409211000000.0 -197547000000.0 -96984500000.0 -510236000000.0 -459831000000.0 -654509000000.0 -9032850000.0 -554035000000.0 -680767000000.0 -747755000000.0 -732095000000.0 -664666000000.0 -604945000000.0 -517788000000.0 -489408000000.0 -458999000000.0 -438051000000.0 -612357000000.0 -405996000000.0 -263216000000.0 -262927000000.0 -262927000000.0 -263216000000.0 -405996000000.0 -612357000000.0 -438051000000.0 -458999000000.0 -489408000000.0 -517788000000.0 -604945000000.0 -664666000000.0 -732095000000.0 -747755000000.0 -680767000000.0 -554035000000.0 -9032850000.0 -654509000000.0 -459831000000.0 -510236000000.0 -368573000000.0 -352232000000.0 -174030000000.0 -519596000000.0 -402180000000.0 -312568000000.0 -416566000000.0 -385899000000.0 -349989000000.0 -351507000000.0 -283626000000.0 -100151000000.0 -373758000000.0 -106462000000.0 -217860000000.0 -139940000000.0 -93262100000.0 -143977000000.0 -23202600000.0 -100498000000.0 -11600900000.0 -47323600000.0 -9035750000.0 -9035750000.0 -9035750000.0 -9035750000.0 -9035750000.0 -9035750000.0 -9035750000.0 -9035750000.0 -9035750000.0 -9035750000.0 -9035750000.0 -9143060000.0 -9035750000.0 -9035750000.0 -9035750000.0 -9035750000.0 -9035750000.0 -9035750000.0 -9035750000.0 -9035750000.0 -9035750000.0 -9035750000.0 -9035750000.0 -47323600000.0 -11600900000.0 -100498000000.0 -23202600000.0 -143977000000.0 -93262100000.0 -139940000000.0 -217860000000.0 -106462000000.0 -373758000000.0 -100151000000.0 -283626000000.0 -351507000000.0 -349989000000.0 -385899000000.0 -416566000000.0 -312568000000.0 -402180000000.0 -519596000000.0 -174030000000.0 -352232000000.0 -368573000000.0 -567052000000.0 -580162000000.0 -574041000000.0 -508199000000.0 -489175000000.0 -489175000000.0 -508199000000.0 -574041000000.0 -580162000000.0 -567052000000.0 -316936000000.0 -334188000000.0 -122810000000.0 -303462000000.0 -219120000000.0 -154044000000.0 -461749000000.0 -500570000000.0 -458346000000.0 -426413000000.0 -461971000000.0 -485858000000.0 -499511000000.0 -492295000000.0 -346650000000.0 -433945000000.0 -360837000000.0 -350929000000.0 -322102000000.0 -268656000000.0 -343945000000.0 -253286000000.0 -309234000000.0 -231290000000.0 -235588000000.0 -201626000000.0 -186987000000.0 -173892000000.0 -162488000000.0 -152841000000.0 -144733000000.0 -137963000000.0 -132450000000.0 -128163000000.0 -125088000000.0 -123234000000.0 -122697000000.0 -123234000000.0 -125088000000.0 -128163000000.0 -132450000000.0 -137963000000.0 -144733000000.0 -152841000000.0 -162488000000.0 -173892000000.0 -186987000000.0 -201626000000.0 -235588000000.0 -231290000000.0 -309234000000.0 -253286000000.0 -343945000000.0 -268656000000.0 -322102000000.0 -350929000000.0 -360837000000.0 -433945000000.0 -346650000000.0 -492295000000.0 -499511000000.0 -485858000000.0 -461971000000.0 -426413000000.0 -458346000000.0 -500570000000.0 -461749000000.0 -154044000000.0 -219120000000.0 -303462000000.0 -122810000000.0 -334188000000.0 -316936000000.0 -162160000000.0 -26900500000.0 -186016000000.0 -124959000000.0 -163933000000.0 -118348000000.0 -63125000000.0 -412056000000.0 -378385000000.0 -312706000000.0 -313915000000.0 -332275000000.0 -365296000000.0 -249150000000.0 -212662000000.0 -13327600000.0 -20003000000.0 -55187000000.0 -15518700000.0 -64722900000.0 -17107300000.0 -111495000000.0 -13533700000.0 -83367700000.0 -9741960000.0 -22060400000.0 -9035750000.0 -9035750000.0 -9035750000.0 -9035750000.0 -9035750000.0 -9035750000.0 -9035750000.0 -9035750000.0 -9035750000.0 -9035750000.0 -9035750000.0 -9099390000.0 -9035750000.0 -9035750000.0 -9035750000.0 -9035750000.0 -9035750000.0 -9035750000.0 -9035750000.0 -9035750000.0 -9035750000.0 -9035750000.0 -9035750000.0 -22060400000.0 -9741960000.0 -83367700000.0 -13533700000.0 -111495000000.0 -17107300000.0 -64722900000.0 -15518700000.0 -55187000000.0 -20003000000.0 -13327600000.0 -212662000000.0 -249150000000.0 -365296000000.0 -332275000000.0 -313915000000.0 -312706000000.0 -378385000000.0 -412056000000.0 -63125000000.0 -118348000000.0 -163933000000.0 -124959000000.0 -186016000000.0 -26900500000.0 -162160000000.0 -109888000000.0 -27728700000.0 -106761000000.0 -76965100000.0 -141828000000.0 -98670900000.0 -44114500000.0 -349831000000.0 -419678000000.0 -407796000000.0 -427313000000.0 -448740000000.0 -493795000000.0 -444402000000.0 -392980000000.0 -311841000000.0 -257496000000.0 -255466000000.0 -189995000000.0 -209371000000.0 -143495000000.0 -209970000000.0 -114977000000.0 -162774000000.0 -89580900000.0 -83245600000.0 -67335000000.0 -58661900000.0 -51430600000.0 -45431700000.0 -40506000000.0 -36520700000.0 -33357600000.0 -30911400000.0 -29094100000.0 -27839500000.0 -27103300000.0 -26908100000.0 -27103300000.0 -27839500000.0 -29094100000.0 -30911400000.0 -33357600000.0 -36520700000.0 -40506000000.0 -45431700000.0 -51430600000.0 -58661900000.0 -67335000000.0 -83245600000.0 -89580900000.0 -162774000000.0 -114977000000.0 -209970000000.0 -143495000000.0 -209371000000.0 -189995000000.0 -255466000000.0 -257496000000.0 -311841000000.0 -392980000000.0 -444402000000.0 -493795000000.0 -448740000000.0 -427313000000.0 -407796000000.0 -419678000000.0 -349831000000.0 -44114500000.0 -98670900000.0 -141828000000.0 -76965100000.0 -106761000000.0 -27728700000.0 -109888000000.0 -80810100000.0 -44620600000.0 -123171000000.0 -119360000000.0 -167772000000.0 -141495000000.0 -166434000000.0 -361773000000.0 -234811000000.0 -129439000000.0 -106385000000.0 -100141000000.0 -121941000000.0 -76607700000.0 -10386300000.0 -30987800000.0 -10721200000.0 -55313400000.0 -10288300000.0 -57697200000.0 -10343400000.0 -85992900000.0 -9680830000.0 -64724600000.0 -9056870000.0 -10561800000.0 -9035750000.0 -9035750000.0 -9035750000.0 -9035750000.0 -9035750000.0 -9035750000.0 -9035750000.0 -9035750000.0 -9035750000.0 -9035750000.0 -9035750000.0 -9070720000.0 -9035750000.0 -9035750000.0 -9035750000.0 -9035750000.0 -9035750000.0 -9035750000.0 -9035750000.0 -9035750000.0 -9035750000.0 -9035750000.0 -9035750000.0 -10561800000.0 -9056870000.0 -64724600000.0 -9680830000.0 -85992900000.0 -10343400000.0 -57697200000.0 -10288300000.0 -55313400000.0 -10721200000.0 -30987800000.0 -10386300000.0 -76607700000.0 -121941000000.0 -100141000000.0 -106385000000.0 -129439000000.0 -234811000000.0 -361773000000.0 -166434000000.0 -141495000000.0 -167772000000.0 -119360000000.0 -123171000000.0 -44620600000.0 -80810100000.0 -70456700000.0 -18555200000.0 -58139400000.0 -44026200000.0 -61517900000.0 -18775700000.0 -13507900000.0 -226367000000.0 -197678000000.0 -154878000000.0 -153405000000.0 -151713000000.0 -166964000000.0 -114684000000.0 -57306300000.0 -71906600000.0 -41722600000.0 -79156300000.0 -31109200000.0 -71363000000.0 -23497100000.0 -86445500000.0 -18592200000.0 -63380600000.0 -15233000000.0 -14017900000.0 -12942300000.0 -12144600000.0 -11517900000.0 -11028500000.0 -10648300000.0 -10354900000.0 -10130500000.0 -9961780000.0 -9839170000.0 -9755980000.0 -9707770000.0 -9717210000.0 -9707770000.0 -9755980000.0 -9839170000.0 -9961780000.0 -10130500000.0 -10354900000.0 -10648300000.0 -11028500000.0 -11517900000.0 -12144600000.0 -12942300000.0 -14017900000.0 -15233000000.0 -63380600000.0 -18592200000.0 -86445500000.0 -23497100000.0 -71363000000.0 -31109200000.0 -79156300000.0 -41722600000.0 -71906600000.0 -57306300000.0 -114684000000.0 -166964000000.0 -151713000000.0 -153405000000.0 -154878000000.0 -197678000000.0 -226367000000.0 -13507900000.0 -18775700000.0 -61517900000.0 -44026200000.0 -58139400000.0 -18555200000.0 -70456700000.0 -67356300000.0 -28604800000.0 -58596800000.0 -51822200000.0 -61056600000.0 -30225500000.0 -35433800000.0 -208646000000.0 -157482000000.0 -107083000000.0 -100058000000.0 -90633500000.0 -98262000000.0 -45534100000.0 -9172420000.0 -35157200000.0 -9153940000.0 -51432800000.0 -9089550000.0 -50883400000.0 -9081670000.0 -65931500000.0 -9049970000.0 -47921300000.0 -9035760000.0 -9035760000.0 -9035760000.0 -9035750000.0 -9035750000.0 -9035750000.0 -9035750000.0 -9035750000.0 -9035750000.0 -9035750000.0 -9035750000.0 -9035750000.0 -9035750000.0 -9053660000.0 -9035750000.0 -9035750000.0 -9035750000.0 -9035750000.0 -9035750000.0 -9035750000.0 -9035750000.0 -9035750000.0 -9035750000.0 -9035750000.0 -9035760000.0 -9035760000.0 -9035760000.0 -47921300000.0 -9049970000.0 -65931500000.0 -9081670000.0 -50883400000.0 -9089550000.0 -51432800000.0 -9153940000.0 -35157200000.0 -9172420000.0 -45534100000.0 -98262000000.0 -90633500000.0 -100058000000.0 -107083000000.0 -157482000000.0 -208646000000.0 -35433800000.0 -30225500000.0 -61056600000.0 -51822200000.0 -58596800000.0 -28604800000.0 -67356300000.0 -61872600000.0 -32799900000.0 -50691700000.0 -45131200000.0 -46990200000.0 -23532900000.0 -28614200000.0 -183260000000.0 -148825000000.0 -108607000000.0 -103846000000.0 -90739700000.0 -91697200000.0 -40272100000.0 -11247500000.0 -37474600000.0 -9505240000.0 -49093300000.0 -9035770000.0 -47689400000.0 -9035760000.0 -57647000000.0 -9035760000.0 -40698400000.0 -9035760000.0 -9035760000.0 -9035760000.0 -9035760000.0 -9035760000.0 -9035760000.0 -9035760000.0 -9035760000.0 -9035750000.0 -9035750000.0 -9035750000.0 -9035750000.0 -9035750000.0 -9048220000.0 -9035750000.0 -9035750000.0 -9035750000.0 -9035750000.0 -9035750000.0 -9035760000.0 -9035760000.0 -9035760000.0 -9035760000.0 -9035760000.0 -9035760000.0 -9035760000.0 -9035760000.0 -40698400000.0 -9035760000.0 -57647000000.0 -9035760000.0 -47689400000.0 -9035770000.0 -49093300000.0 -9505240000.0 -37474600000.0 -11247500000.0 -40272100000.0 -91697200000.0 -90739700000.0 -103846000000.0 -108607000000.0 -148825000000.0 -183260000000.0 -28614200000.0 -23532900000.0 -46990200000.0 -45131200000.0 -50691700000.0 -32799900000.0 -61872600000.0 -57061000000.0 -38582400000.0 -48658400000.0 -44451100000.0 -43863700000.0 -28383300000.0 -36209000000.0 -166776000000.0 -138203000000.0 -102767000000.0 -97955100000.0 -81721300000.0 -76103800000.0 -32920800000.0 -9035790000.0 -36851800000.0 -9035780000.0 -46720400000.0 -9035790000.0 -44615400000.0 -9035780000.0 -50353400000.0 -9035770000.0 -34352800000.0 -9035770000.0 -9035770000.0 -9035760000.0 -9035760000.0 -9035760000.0 -9035760000.0 -9035760000.0 -9035760000.0 -9035760000.0 -9035750000.0 -9035750000.0 -9035750000.0 -9035750000.0 -9044270000.0 -9035750000.0 -9035750000.0 -9035750000.0 -9035750000.0 -9035760000.0 -9035760000.0 -9035760000.0 -9035760000.0 -9035760000.0 -9035760000.0 -9035760000.0 -9035770000.0 -9035770000.0 -34352800000.0 -9035770000.0 -50353400000.0 -9035780000.0 -44615400000.0 -9035790000.0 -46720400000.0 -9035780000.0 -36851800000.0 -9035790000.0 -32920800000.0 -76103800000.0 -81721300000.0 -97955100000.0 -102767000000.0 -138203000000.0 -166776000000.0 -36209000000.0 -28383300000.0 -43863700000.0 -44451100000.0 -48658400000.0 -38582400000.0 -57061000000.0 -52465200000.0 -42817500000.0 -46922600000.0 -42818600000.0 -41375200000.0 -31522900000.0 -41675300000.0 -150621000000.0 -128957000000.0 -99134800000.0 -94306200000.0 -76302100000.0 -64914500000.0 -31312400000.0 -9035870000.0 -36984400000.0 -9035830000.0 -44251400000.0 -9035820000.0 -41580700000.0 -9035800000.0 -43937700000.0 -9035780000.0 -28922200000.0 -9035780000.0 -9035770000.0 -9035770000.0 -9035770000.0 -9035760000.0 -9035760000.0 -9035760000.0 -9035760000.0 -9035760000.0 -9035760000.0 -9035750000.0 -9035750000.0 -9035750000.0 -9041440000.0 -9035750000.0 -9035750000.0 -9035750000.0 -9035760000.0 -9035760000.0 -9035760000.0 -9035760000.0 -9035760000.0 -9035760000.0 -9035770000.0 -9035770000.0 -9035770000.0 -9035780000.0 -28922200000.0 -9035780000.0 -43937700000.0 -9035800000.0 -41580700000.0 -9035820000.0 -44251400000.0 -9035830000.0 -36984400000.0 -9035870000.0 -31312400000.0 -64914500000.0 -76302100000.0 -94306200000.0 -99134800000.0 -128957000000.0 -150621000000.0 -41675300000.0 -31522900000.0 -41375200000.0 -42818600000.0 -46922600000.0 -42817500000.0 -52465200000.0 -48537600000.0 -46062100000.0 -45823000000.0 -41645900000.0 -40497100000.0 -34432700000.0 -46731400000.0 -135403000000.0 -119220000000.0 -94497900000.0 -89336500000.0 -70683000000.0 -54988300000.0 -30546700000.0 -9035940000.0 -36620700000.0 -9035880000.0 -41719000000.0 -9035840000.0 -38574200000.0 -9035810000.0 -38307500000.0 -9035790000.0 -24387600000.0 -9035780000.0 -9035780000.0 -9035770000.0 -9035770000.0 -9035770000.0 -9035760000.0 -9035760000.0 -9035760000.0 -9035760000.0 -9035760000.0 -9035750000.0 -9035750000.0 -9035750000.0 -9039470000.0 -9035750000.0 -9035750000.0 -9035750000.0 -9035760000.0 -9035760000.0 -9035760000.0 -9035760000.0 -9035760000.0 -9035770000.0 -9035770000.0 -9035770000.0 -9035780000.0 -9035780000.0 -24387600000.0 -9035790000.0 -38307500000.0 -9035810000.0 -38574200000.0 -9035840000.0 -41719000000.0 -9035880000.0 -36620700000.0 -9035940000.0 -30546700000.0 -54988300000.0 -70683000000.0 -89336500000.0 -94497900000.0 -119220000000.0 -135403000000.0 -46731400000.0 -34432700000.0 -40497100000.0 -41645900000.0 -45823000000.0 -46062100000.0 -48537600000.0 -45380800000.0 -48216800000.0 -44824900000.0 -40639400000.0 -40239000000.0 -36642500000.0 -50709400000.0 -121067000000.0 -109462000000.0 -89344700000.0 -83583600000.0 -65154500000.0 -46496200000.0 -29791200000.0 -9036010000.0 -35842400000.0 -9035920000.0 -39151200000.0 -9035870000.0 -35609200000.0 -9035830000.0 -33372700000.0 -9035800000.0 -20681300000.0 -9035790000.0 -9035780000.0 -9035780000.0 -9035770000.0 -9035770000.0 -9035760000.0 -9035760000.0 -9035760000.0 -9035760000.0 -9035760000.0 -9035750000.0 -9035750000.0 -9035750000.0 -9038130000.0 -9035750000.0 -9035750000.0 -9035750000.0 -9035760000.0 -9035760000.0 -9035760000.0 -9035760000.0 -9035760000.0 -9035770000.0 -9035770000.0 -9035780000.0 -9035780000.0 -9035790000.0 -20681300000.0 -9035800000.0 -33372700000.0 -9035830000.0 -35609200000.0 -9035870000.0 -39151200000.0 -9035920000.0 -35842400000.0 -9036010000.0 -29791200000.0 -46496200000.0 -65154500000.0 -83583600000.0 -89344700000.0 -109462000000.0 -121067000000.0 -50709400000.0 -36642500000.0 -40239000000.0 -40639400000.0 -44824900000.0 -48216800000.0 -45380800000.0 -39754900000.0 -40021400000.0 -100050000000.0 -77417700000.0 -59832600000.0 -39367000000.0 -28885600000.0 -9036080000.0 -34747400000.0 -9035960000.0 -36594900000.0 -9035890000.0 -32718900000.0 -9035840000.0 -29065300000.0 -9035810000.0 -17712400000.0 -9035790000.0 -9035790000.0 -9035780000.0 -9035770000.0 -9035770000.0 -9035770000.0 -9035760000.0 -9035760000.0 -9035760000.0 -9035760000.0 -9035750000.0 -9035750000.0 -9035750000.0 -9037230000.0 -9035750000.0 -9035750000.0 -9035750000.0 -9035760000.0 -9035760000.0 -9035760000.0 -9035760000.0 -9035770000.0 -9035770000.0 -9035770000.0 -9035780000.0 -9035790000.0 -9035790000.0 -17712400000.0 -9035810000.0 -29065300000.0 -9035840000.0 -32718900000.0 -9035890000.0 -36594900000.0 -9035960000.0 -34747400000.0 -9036080000.0 -28885600000.0 -39367000000.0 -59832600000.0 -77417700000.0 -100050000000.0 -40021400000.0 -39754900000.0 -42940700000.0 -49394200000.0 -43833000000.0 -38278300000.0 -53611000000.0 -108030000000.0 -84053700000.0 -84053700000.0 -108030000000.0 -53611000000.0 -38278300000.0 -43833000000.0 -49394200000.0 -42940700000.0 -41061800000.0 -49765300000.0 -42855600000.0 -38857700000.0 -39479600000.0 -39452500000.0 -55500800000.0 -96528500000.0 -91225800000.0 -78866100000.0 -71134000000.0 -54809800000.0 -33468100000.0 -27903100000.0 -9036140000.0 -33430100000.0 -9036000000.0 -34104200000.0 -9035910000.0 -29946000000.0 -9035850000.0 -25335800000.0 -9035820000.0 -15381300000.0 -9035800000.0 -9035790000.0 -9035780000.0 -9035780000.0 -9035770000.0 -9035770000.0 -9035760000.0 -9035760000.0 -9035760000.0 -9035760000.0 -9035760000.0 -9035750000.0 -9035750000.0 -9036640000.0 -9035750000.0 -9035750000.0 -9035760000.0 -9035760000.0 -9035760000.0 -9035760000.0 -9035760000.0 -9035770000.0 -9035770000.0 -9035780000.0 -9035780000.0 -9035790000.0 -9035800000.0 -15381300000.0 -9035820000.0 -25335800000.0 -9035850000.0 -29946000000.0 -9035910000.0 -34104200000.0 -9036000000.0 -33430100000.0 -9036140000.0 -27903100000.0 -33468100000.0 -54809800000.0 -71134000000.0 -78866100000.0 -91225800000.0 -96528500000.0 -55500800000.0 -39452500000.0 -39479600000.0 -38857700000.0 -42855600000.0 -49765300000.0 -41061800000.0 -39591700000.0 -49523800000.0 -41911500000.0 -37809100000.0 -38508600000.0 -40239400000.0 -56489400000.0 -86559500000.0 -83100600000.0 -73904000000.0 -64965600000.0 -50163800000.0 -28643300000.0 -26926600000.0 -9036200000.0 -31973500000.0 -9036030000.0 -31720500000.0 -9035920000.0 -27330500000.0 -9035860000.0 -22140500000.0 -9035820000.0 -13587800000.0 -9035800000.0 -9035790000.0 -9035780000.0 -9035780000.0 -9035770000.0 -9035770000.0 -9035770000.0 -9035760000.0 -9035760000.0 -9035760000.0 -9035760000.0 -9035750000.0 -9035750000.0 -9036270000.0 -9035750000.0 -9035750000.0 -9035760000.0 -9035760000.0 -9035760000.0 -9035760000.0 -9035770000.0 -9035770000.0 -9035770000.0 -9035780000.0 -9035780000.0 -9035790000.0 -9035800000.0 -13587800000.0 -9035820000.0 -22140500000.0 -9035860000.0 -27330500000.0 -9035920000.0 -31720500000.0 -9036030000.0 -31973500000.0 -9036200000.0 -26926600000.0 -28643300000.0 -50163800000.0 -64965600000.0 -73904000000.0 -83100600000.0 -86559500000.0 -56489400000.0 -40239400000.0 -38508600000.0 -37809100000.0 -41911500000.0 -49523800000.0 -39591700000.0 -38406900000.0 -48844000000.0 -40976800000.0 -36554100000.0 -37155700000.0 -40685200000.0 -56706400000.0 -77992700000.0 -75694300000.0 -69225700000.0 -59076700000.0 -45942400000.0 -24727700000.0 -25995900000.0 -9036250000.0 -30444500000.0 -9036050000.0 -29467600000.0 -9035940000.0 -24902300000.0 -9035870000.0 -19435600000.0 -9035830000.0 -12236000000.0 -9035800000.0 -9035790000.0 -9035790000.0 -9035780000.0 -9035770000.0 -9035770000.0 -9035770000.0 -9035760000.0 -9035760000.0 -9035760000.0 -9035760000.0 -9035750000.0 -9035750000.0 -9036050000.0 -9035750000.0 -9035750000.0 -9035760000.0 -9035760000.0 -9035760000.0 -9035760000.0 -9035770000.0 -9035770000.0 -9035770000.0 -9035780000.0 -9035790000.0 -9035790000.0 -9035800000.0 -12236000000.0 -9035830000.0 -19435600000.0 -9035870000.0 -24902300000.0 -9035940000.0 -29467600000.0 -9036050000.0 -30444500000.0 -9036250000.0 -25995900000.0 -24727700000.0 -45942400000.0 -59076700000.0 -69225700000.0 -75694300000.0 -77992700000.0 -56706400000.0 -40685200000.0 -37155700000.0 -36554100000.0 -40976800000.0 -48844000000.0 -38406900000.0 -37410100000.0 -47859400000.0 -40009200000.0 -35119500000.0 -35521900000.0 -40821000000.0 -56280500000.0 -70670300000.0 -68976900000.0 -64846600000.0 -53565400000.0 -42157800000.0 -21563800000.0 -25117200000.0 -9036300000.0 -28893100000.0 -9036080000.0 -27356000000.0 -9035950000.0 -22680000000.0 -9035880000.0 -17175800000.0 -9035830000.0 -11238500000.0 -9035810000.0 -9035800000.0 -9035790000.0 -9035780000.0 -9035780000.0 -9035770000.0 -9035770000.0 -9035760000.0 -9035760000.0 -9035760000.0 -9035760000.0 -9035750000.0 -9035750000.0 -9035910000.0 -9035750000.0 -9035750000.0 -9035760000.0 -9035760000.0 -9035760000.0 -9035760000.0 -9035770000.0 -9035770000.0 -9035780000.0 -9035780000.0 -9035790000.0 -9035800000.0 -9035810000.0 -11238500000.0 -9035830000.0 -17175800000.0 -9035880000.0 -22680000000.0 -9035950000.0 -27356000000.0 -9036080000.0 -28893100000.0 -9036300000.0 -25117200000.0 -21563800000.0 -42157800000.0 -53565400000.0 -64846600000.0 -68976900000.0 -70670300000.0 -56280500000.0 -40821000000.0 -35521900000.0 -35119500000.0 -40009200000.0 -47859400000.0 -37410100000.0 -36526500000.0 -46662000000.0 -38989200000.0 -33569900000.0 -33712400000.0 -40674100000.0 -55329900000.0 -64437000000.0 -62898700000.0 -60754300000.0 -48481000000.0 -38792300000.0 -19011600000.0 -24280900000.0 -9036340000.0 -27356000000.0 -9036100000.0 -25388800000.0 -9035960000.0 -20672000000.0 -9035890000.0 -15315100000.0 -9035840000.0 -10518400000.0 -9035810000.0 -9035800000.0 -9035790000.0 -9035780000.0 -9035780000.0 -9035770000.0 -9035770000.0 -9035760000.0 -9035760000.0 -9035760000.0 -9035760000.0 -9035750000.0 -9035750000.0 -9035840000.0 -9035750000.0 -9035750000.0 -9035760000.0 -9035760000.0 -9035760000.0 -9035760000.0 -9035770000.0 -9035770000.0 -9035780000.0 -9035780000.0 -9035790000.0 -9035800000.0 -9035810000.0 -10518400000.0 -9035840000.0 -15315100000.0 -9035890000.0 -20672000000.0 -9035960000.0 -25388800000.0 -9036100000.0 -27356000000.0 -9036340000.0 -24280900000.0 -19011600000.0 -38792300000.0 -48481000000.0 -60754300000.0 -62898700000.0 -64437000000.0 -55329900000.0 -40674100000.0 -33712400000.0 -33569900000.0 -38989200000.0 -46662000000.0 -36526500000.0 -35703200000.0 -45313100000.0 -37926200000.0 -31974500000.0 -31819500000.0 -40273700000.0 -53960900000.0 -59142200000.0 -57406600000.0 -56925400000.0 -43840500000.0 -35810000000.0 -16952400000.0 -23473900000.0 -9036370000.0 -25858600000.0 -9036110000.0 -23565600000.0 -9035970000.0 -18878800000.0 -9035890000.0 -13806700000.0 -9035840000.0 -10010200000.0 -9035810000.0 -9035800000.0 -9035790000.0 -9035780000.0 -9035780000.0 -9035770000.0 -9035770000.0 -9035760000.0 -9035760000.0 -9035760000.0 -9035760000.0 -9035750000.0 -9035750000.0 -9035790000.0 -9035750000.0 -9035750000.0 -9035760000.0 -9035760000.0 -9035760000.0 -9035760000.0 -9035770000.0 -9035770000.0 -9035780000.0 -9035780000.0 -9035790000.0 -9035800000.0 -9035810000.0 -10010200000.0 -9035840000.0 -13806700000.0 -9035890000.0 -18878800000.0 -9035970000.0 -23565600000.0 -9036110000.0 -25858600000.0 -9036370000.0 -23473900000.0 -16952400000.0 -35810000000.0 -43840500000.0 -56925400000.0 -57406600000.0 -59142200000.0 -53960900000.0 -40273700000.0 -31819500000.0 -31974500000.0 -37926200000.0 -45313100000.0 -35703200000.0 -34907100000.0 -43855800000.0 -36842500000.0 -30392600000.0 -29918200000.0 -39652500000.0 -52267800000.0 -54639900000.0 -52449000000.0 -53335600000.0 -39640200000.0 -33167200000.0 -15288300000.0 -22684600000.0 -9036400000.0 -24418100000.0 -9036130000.0 -21884100000.0 -9035980000.0 -17294400000.0 -9035900000.0 -12604200000.0 -9035840000.0 -9660200000.0 -9035810000.0 -9035800000.0 -9035790000.0 -9035780000.0 -9035780000.0 -9035770000.0 -9035770000.0 -9035760000.0 -9035760000.0 -9035760000.0 -9035760000.0 -9035750000.0 -9035750000.0 -9035770000.0 -9035750000.0 -9035750000.0 -9035760000.0 -9035760000.0 -9035760000.0 -9035760000.0 -9035770000.0 -9035770000.0 -9035780000.0 -9035780000.0 -9035790000.0 -9035800000.0 -9035810000.0 -9660200000.0 -9035840000.0 -12604200000.0 -9035900000.0 -17294400000.0 -9035980000.0 -21884100000.0 -9036130000.0 -24418100000.0 -9036400000.0 -22684600000.0 -15288300000.0 -33167200000.0 -39640200000.0 -53335600000.0 -52449000000.0 -54639900000.0 -52267800000.0 -39652500000.0 -29918200000.0 -30392600000.0 -36842500000.0 -43855800000.0 -34907100000.0 -34119300000.0 -42321700000.0 -35758500000.0 -28869000000.0 -28066600000.0 -38846100000.0 -50332800000.0 -50790800000.0 -47975200000.0 -49962400000.0 -35862200000.0 -30819400000.0 -13941100000.0 -21905100000.0 -9036430000.0 -23045500000.0 -9036140000.0 -20341300000.0 -9035990000.0 -15908300000.0 -9035900000.0 -11662100000.0 -9035850000.0 -9425170000.0 -9035810000.0 -9035800000.0 -9035790000.0 -9035780000.0 -9035780000.0 -9035770000.0 -9035770000.0 -9035760000.0 -9035760000.0 -9035760000.0 -9035760000.0 -9035750000.0 -9035750000.0 -9035760000.0 -9035750000.0 -9035750000.0 -9035760000.0 -9035760000.0 -9035760000.0 -9035760000.0 -9035770000.0 -9035770000.0 -9035780000.0 -9035780000.0 -9035790000.0 -9035800000.0 -9035810000.0 -9425170000.0 -9035850000.0 -11662100000.0 -9035900000.0 -15908300000.0 -9035990000.0 -20341300000.0 -9036140000.0 -23045500000.0 -9036430000.0 -21905100000.0 -13941100000.0 -30819400000.0 -35862200000.0 -49962400000.0 -47975200000.0 -50790800000.0 -50332800000.0 -38846100000.0 -28066600000.0 -28869000000.0 -35758500000.0 -42321700000.0 -34119300000.0 -33328800000.0 -40736200000.0 -34685700000.0 -27433600000.0 -26307100000.0 -37890500000.0 -48226400000.0 -47465900000.0 -43935000000.0 -46786200000.0 -32480000000.0 -28724900000.0 -12850100000.0 -21131900000.0 -9036450000.0 -21746800000.0 -9036150000.0 -18933000000.0 -9035990000.0 -14707000000.0 -9035910000.0 -10937200000.0 -9035850000.0 -9271600000.0 -9035820000.0 -9035800000.0 -9035790000.0 -9035780000.0 -9035780000.0 -9035770000.0 -9035770000.0 -9035760000.0 -9035760000.0 -9035760000.0 -9035760000.0 -9035750000.0 -9035750000.0 -9035760000.0 -9035750000.0 -9035750000.0 -9035760000.0 -9035760000.0 -9035760000.0 -9035760000.0 -9035770000.0 -9035770000.0 -9035780000.0 -9035780000.0 -9035790000.0 -9035800000.0 -9035820000.0 -9271600000.0 -9035850000.0 -10937200000.0 -9035910000.0 -14707000000.0 -9035990000.0 -18933000000.0 -9036150000.0 -21746800000.0 -9036450000.0 -21131900000.0 -12850100000.0 -28724900000.0 -32480000000.0 -46786200000.0 -43935000000.0 -47465900000.0 -48226400000.0 -37890500000.0 -26307100000.0 -27433600000.0 -34685700000.0 -40736200000.0 -33328800000.0 -32527900000.0 -39120200000.0 -33627100000.0 -26103400000.0 -24668100000.0 -36819800000.0 -46007900000.0 -44550800000.0 -40280300000.0 -43789900000.0 -29462900000.0 -26847200000.0 -11969000000.0 -20364300000.0 -9036460000.0 -20525400000.0 -9036160000.0 -17654600000.0 -9036000000.0 -13675400000.0 -9035910000.0 -10389300000.0 -9035850000.0 -9174150000.0 -9035820000.0 -9035800000.0 -9035790000.0 -9035790000.0 -9035780000.0 -9035770000.0 -9035770000.0 -9035760000.0 -9035760000.0 -9035760000.0 -9035760000.0 -9035750000.0 -9035750000.0 -9035750000.0 -9035750000.0 -9035750000.0 -9035760000.0 -9035760000.0 -9035760000.0 -9035760000.0 -9035770000.0 -9035770000.0 -9035780000.0 -9035790000.0 -9035790000.0 -9035800000.0 -9035820000.0 -9174150000.0 -9035850000.0 -10389300000.0 -9035910000.0 -13675400000.0 -9036000000.0 -17654600000.0 -9036160000.0 -20525400000.0 -9036460000.0 -20364300000.0 -11969000000.0 -26847200000.0 -29462900000.0 -43789900000.0 -40280300000.0 -44550800000.0 -46007900000.0 -36819800000.0 -24668100000.0 -26103400000.0 -33627100000.0 -39120200000.0 -32527900000.0 -31711200000.0 -37491500000.0 -32580200000.0 -24884200000.0 -23165500000.0 -35664200000.0 -43726800000.0 -41949300000.0 -36967100000.0 -40960000000.0 -26778600000.0 -25155900000.0 -11262200000.0 -19604200000.0 -9036470000.0 -19382400000.0 -9036160000.0 -16500900000.0 -9036000000.0 -12797700000.0 -9035910000.0 -9982900000.0 -9035850000.0 -9114230000.0 -9035820000.0 -9035800000.0 -9035790000.0 -9035780000.0 -9035780000.0 -9035770000.0 -9035770000.0 -9035760000.0 -9035760000.0 -9035760000.0 -9035760000.0 -9035750000.0 -9035750000.0 -9035750000.0 -9035750000.0 -9035750000.0 -9035760000.0 -9035760000.0 -9035760000.0 -9035760000.0 -9035770000.0 -9035770000.0 -9035780000.0 -9035780000.0 -9035790000.0 -9035800000.0 -9035820000.0 -9114230000.0 -9035850000.0 -9982900000.0 -9035910000.0 -12797700000.0 -9036000000.0 -16500900000.0 -9036160000.0 -19382400000.0 -9036470000.0 -19604200000.0 -11262200000.0 -25155900000.0 -26778600000.0 -40960000000.0 -36967100000.0 -41949300000.0 -43726800000.0 -35664200000.0 -23165500000.0 -24884200000.0 -32580200000.0 -37491500000.0 -31711200000.0 -30874400000.0 -35865100000.0 -31539600000.0 -23774000000.0 -21805200000.0 -34449400000.0 -41423800000.0 -39584700000.0 -33956500000.0 -38286800000.0 -24396100000.0 -23625700000.0 -10700900000.0 -18854900000.0 -9036470000.0 -18317500000.0 -9036160000.0 -15466000000.0 -9036000000.0 -12058100000.0 -9035910000.0 -9686930000.0 -9035850000.0 -9078620000.0 -9035810000.0 -9035800000.0 -9035790000.0 -9035780000.0 -9035780000.0 -9035770000.0 -9035770000.0 -9035760000.0 -9035760000.0 -9035760000.0 -9035760000.0 -9035750000.0 -9035750000.0 -9035750000.0 -9035750000.0 -9035750000.0 -9035760000.0 -9035760000.0 -9035760000.0 -9035760000.0 -9035770000.0 -9035770000.0 -9035780000.0 -9035780000.0 -9035790000.0 -9035800000.0 -9035810000.0 -9078620000.0 -9035850000.0 -9686930000.0 -9035910000.0 -12058100000.0 -9036000000.0 -15466000000.0 -9036160000.0 -18317500000.0 -9036470000.0 -18854900000.0 -10700900000.0 -23625700000.0 -24396100000.0 -38286800000.0 -33956500000.0 -39584700000.0 -41423800000.0 -34449400000.0 -21805200000.0 -23774000000.0 -31539600000.0 -35865100000.0 -30874400000.0 -30014900000.0 -34253800000.0 -30499800000.0 -22764900000.0 -20585000000.0 -33196400000.0 -39132200000.0 -37399200000.0 -31216200000.0 -35764100000.0 -22286300000.0 -22236100000.0 -10261300000.0 -18120300000.0 -9036470000.0 -17329800000.0 -9036160000.0 -14543400000.0 -9036000000.0 -11441100000.0 -9035910000.0 -9475440000.0 -9035850000.0 -9058240000.0 -9035810000.0 -9035800000.0 -9035790000.0 -9035780000.0 -9035780000.0 -9035770000.0 -9035770000.0 -9035760000.0 -9035760000.0 -9035760000.0 -9035760000.0 -9035750000.0 -9035750000.0 -9035750000.0 -9035750000.0 -9035750000.0 -9035760000.0 -9035760000.0 -9035760000.0 -9035760000.0 -9035770000.0 -9035770000.0 -9035780000.0 -9035780000.0 -9035790000.0 -9035800000.0 -9035810000.0 -9058240000.0 -9035850000.0 -9475440000.0 -9035910000.0 -11441100000.0 -9036000000.0 -14543400000.0 -9036160000.0 -17329800000.0 -9036470000.0 -18120300000.0 -10261300000.0 -22236100000.0 -22286300000.0 -35764100000.0 -31216200000.0 -37399200000.0 -39132200000.0 -33196400000.0 -20585000000.0 -22764900000.0 -30499800000.0 -34253800000.0 -30014900000.0 -29131300000.0 -32668100000.0 -29456100000.0 -21845900000.0 -19497000000.0 -31921800000.0 -36878300000.0 -35351400000.0 -28719500000.0 -33388200000.0 -20422600000.0 -20970300000.0 -9922680000.0 -17404600000.0 -9036460000.0 -16417500000.0 -9036160000.0 -13726200000.0 -9035990000.0 -10931500000.0 -9035900000.0 -9327210000.0 -9035850000.0 -9047050000.0 -9035810000.0 -9035800000.0 -9035790000.0 -9035780000.0 -9035780000.0 -9035770000.0 -9035770000.0 -9035760000.0 -9035760000.0 -9035760000.0 -9035760000.0 -9035750000.0 -9035750000.0 -9035750000.0 -9035750000.0 -9035750000.0 -9035760000.0 -9035760000.0 -9035760000.0 -9035760000.0 -9035770000.0 -9035770000.0 -9035780000.0 -9035780000.0 -9035790000.0 -9035800000.0 -9035810000.0 -9047050000.0 -9035850000.0 -9327210000.0 -9035900000.0 -10931500000.0 -9035990000.0 -13726200000.0 -9036160000.0 -16417500000.0 -9036460000.0 -17404600000.0 -9922680000.0 -20970300000.0 -20422600000.0 -33388200000.0 -28719500000.0 -35351400000.0 -36878300000.0 -31921800000.0 -19497000000.0 -21845900000.0 -29456100000.0 -32668100000.0 -29131300000.0 -28406000000.0 -21004500000.0 -18529800000.0 -34683200000.0 -33413300000.0 -26444900000.0 -31157200000.0 -18781200000.0 -19814600000.0 -9666550000.0 -16711800000.0 -9036460000.0 -15578600000.0 -9036150000.0 -13007200000.0 -9035990000.0 -10515200000.0 -9035900000.0 -9225320000.0 -9035840000.0 -9041170000.0 -9035810000.0 -9035800000.0 -9035790000.0 -9035780000.0 -9035780000.0 -9035770000.0 -9035770000.0 -9035760000.0 -9035760000.0 -9035760000.0 -9035760000.0 -9035750000.0 -9035750000.0 -9035750000.0 -9035750000.0 -9035750000.0 -9035760000.0 -9035760000.0 -9035760000.0 -9035760000.0 -9035770000.0 -9035770000.0 -9035780000.0 -9035780000.0 -9035790000.0 -9035800000.0 -9035810000.0 -9041170000.0 -9035840000.0 -9225320000.0 -9035900000.0 -10515200000.0 -9035990000.0 -13007200000.0 -9036150000.0 -15578600000.0 -9036460000.0 -16711800000.0 -9666550000.0 -19814600000.0 -18781200000.0 -31157200000.0 -26444900000.0 -33413300000.0 -34683200000.0 -18529800000.0 -21004500000.0 -28406000000.0 -28224000000.0 -31116600000.0 -30638600000.0 -30638600000.0 -31116600000.0 -28224000000.0 -27294100000.0 -29605800000.0 -27348700000.0 -20227900000.0 -17669600000.0 -29356600000.0 -32562600000.0 -31567300000.0 -24375100000.0 -29069500000.0 -17340100000.0 -18758000000.0 -9476510000.0 -16045400000.0 -9036440000.0 -14810600000.0 -9036140000.0 -12378800000.0 -9035980000.0 -10178700000.0 -9035900000.0 -9156680000.0 -9035840000.0 -9038230000.0 -9035810000.0 -9035800000.0 -9035790000.0 -9035780000.0 -9035780000.0 -9035770000.0 -9035770000.0 -9035760000.0 -9035760000.0 -9035760000.0 -9035760000.0 -9035750000.0 -9035750000.0 -9035750000.0 -9035750000.0 -9035750000.0 -9035760000.0 -9035760000.0 -9035760000.0 -9035760000.0 -9035770000.0 -9035770000.0 -9035780000.0 -9035780000.0 -9035790000.0 -9035800000.0 -9035810000.0 -9038230000.0 -9035840000.0 -9156680000.0 -9035900000.0 -10178700000.0 -9035980000.0 -12378800000.0 -9036140000.0 -14810600000.0 -9036440000.0 -16045400000.0 -9476510000.0 -18758000000.0 -17340100000.0 -29069500000.0 -24375100000.0 -31567300000.0 -32562600000.0 -29356600000.0 -17669600000.0 -20227900000.0 -27348700000.0 -29605800000.0 -27294100000.0 -26343900000.0 -28140400000.0 -26285000000.0 -19503800000.0 -16902200000.0 -28083300000.0 -30528100000.0 -29803000000.0 -22496000000.0 -27123100000.0 -16079800000.0 -17790900000.0 -9338250000.0 -15408700000.0 -9036420000.0 -14110800000.0 -9036130000.0 -11833300000.0 -9035980000.0 -9909710000.0 -9035890000.0 -9111370000.0 -9035840000.0 -9036840000.0 -9035810000.0 -9035800000.0 -9035790000.0 -9035780000.0 -9035780000.0 -9035770000.0 -9035770000.0 -9035760000.0 -9035760000.0 -9035760000.0 -9035760000.0 -9035750000.0 -9035750000.0 -9035750000.0 -9035750000.0 -9035750000.0 -9035760000.0 -9035760000.0 -9035760000.0 -9035760000.0 -9035770000.0 -9035770000.0 -9035780000.0 -9035780000.0 -9035790000.0 -9035800000.0 -9035810000.0 -9036840000.0 -9035840000.0 -9111370000.0 -9035890000.0 -9909710000.0 -9035980000.0 -11833300000.0 -9036130000.0 -14110800000.0 -9036420000.0 -15408700000.0 -9338250000.0 -17790900000.0 -16079800000.0 -27123100000.0 -22496000000.0 -29803000000.0 -30528100000.0 -28083300000.0 -16902200000.0 -19503800000.0 -26285000000.0 -28140400000.0 -26343900000.0 -25376000000.0 -26723600000.0 -25217000000.0 -18821000000.0 -16213500000.0 -26824100000.0 -28587600000.0 -28114800000.0 -20795300000.0 -25315300000.0 -14982200000.0 -16905300000.0 -9239630000.0 -14803900000.0 -9036400000.0 -13476200000.0 -9036120000.0 -11362900000.0 -9035970000.0 -9697050000.0 -9035890000.0 -9082080000.0 -9035840000.0 -9036230000.0 -9035810000.0 -9035800000.0 -9035790000.0 -9035780000.0 -9035770000.0 -9035770000.0 -9035770000.0 -9035760000.0 -9035760000.0 -9035760000.0 -9035760000.0 -9035750000.0 -9035750000.0 -9035750000.0 -9035750000.0 -9035750000.0 -9035760000.0 -9035760000.0 -9035760000.0 -9035760000.0 -9035770000.0 -9035770000.0 -9035770000.0 -9035780000.0 -9035790000.0 -9035800000.0 -9035810000.0 -9036230000.0 -9035840000.0 -9082080000.0 -9035890000.0 -9697050000.0 -9035970000.0 -11362900000.0 -9036120000.0 -13476200000.0 -9036400000.0 -14803900000.0 -9239630000.0 -16905300000.0 -14982200000.0 -25315300000.0 -20795300000.0 -28114800000.0 -28587600000.0 -26824100000.0 -16213500000.0 -18821000000.0 -25217000000.0 -26723600000.0 -25376000000.0 -24393500000.0 -25356900000.0 -24147600000.0 -18169900000.0 -15590500000.0 -25582900000.0 -26746200000.0 -26500000000.0 -19262300000.0 -23642100000.0 -14030700000.0 -16094100000.0 -9170680000.0 -14232800000.0 -9036380000.0 -12903400000.0 -9036110000.0 -10960200000.0 -9035960000.0 -9530840000.0 -9035880000.0 -9063550000.0 -9035830000.0 -9035970000.0 -9035800000.0 -9035790000.0 -9035790000.0 -9035780000.0 -9035770000.0 -9035770000.0 -9035770000.0 -9035760000.0 -9035760000.0 -9035760000.0 -9035760000.0 -9035750000.0 -9035750000.0 -9035750000.0 -9035750000.0 -9035750000.0 -9035760000.0 -9035760000.0 -9035760000.0 -9035760000.0 -9035770000.0 -9035770000.0 -9035770000.0 -9035780000.0 -9035790000.0 -9035790000.0 -9035800000.0 -9035970000.0 -9035830000.0 -9063550000.0 -9035880000.0 -9530840000.0 -9035960000.0 -10960200000.0 -9036110000.0 -12903400000.0 -9036380000.0 -14232800000.0 -9170680000.0 -16094100000.0 -14030700000.0 -23642100000.0 -19262300000.0 -26500000000.0 -26746200000.0 -25582900000.0 -15590500000.0 -18169900000.0 -24147600000.0 -25356900000.0 -24393500000.0 -23399500000.0 -24040500000.0 -23080200000.0 -17542300000.0 -15021200000.0 -24362400000.0 -25006600000.0 -24957100000.0 -17886400000.0 -22098100000.0 -13210000000.0 -15350600000.0 -9123440000.0 -13696300000.0 -9036350000.0 -12389000000.0 -9036090000.0 -10617600000.0 -9035950000.0 -9402400000.0 -9035870000.0 -9052080000.0 -9035830000.0 -9035870000.0 -9035800000.0 -9035790000.0 -9035780000.0 -9035780000.0 -9035770000.0 -9035770000.0 -9035760000.0 -9035760000.0 -9035760000.0 -9035760000.0 -9035760000.0 -9035750000.0 -9035750000.0 -9035750000.0 -9035750000.0 -9035750000.0 -9035760000.0 -9035760000.0 -9035760000.0 -9035760000.0 -9035760000.0 -9035770000.0 -9035770000.0 -9035780000.0 -9035780000.0 -9035790000.0 -9035800000.0 -9035870000.0 -9035830000.0 -9052080000.0 -9035870000.0 -9402400000.0 -9035950000.0 -10617600000.0 -9036090000.0 -12389000000.0 -9036350000.0 -13696300000.0 -9123440000.0 -15350600000.0 -13210000000.0 -22098100000.0 -17886400000.0 -24957100000.0 -25006600000.0 -24362400000.0 -15021200000.0 -17542300000.0 -23080200000.0 -24040500000.0 -23399500000.0 -22397300000.0 -22773600000.0 -22018300000.0 -16931400000.0 -14495600000.0 -23164300000.0 -23369300000.0 -23485200000.0 -16657400000.0 -20676600000.0 -12505900000.0 -14669000000.0 -9091710000.0 -13194700000.0 -9036320000.0 -11929000000.0 -9036070000.0 -10328200000.0 -9035940000.0 -9304290000.0 -9035870000.0 -9045140000.0 -9035820000.0 -9035830000.0 -9035800000.0 -9035790000.0 -9035780000.0 -9035780000.0 -9035770000.0 -9035770000.0 -9035760000.0 -9035760000.0 -9035760000.0 -9035760000.0 -9035760000.0 -9035750000.0 -9035750000.0 -9035750000.0 -9035750000.0 -9035750000.0 -9035760000.0 -9035760000.0 -9035760000.0 -9035760000.0 -9035760000.0 -9035770000.0 -9035770000.0 -9035780000.0 -9035780000.0 -9035790000.0 -9035800000.0 -9035830000.0 -9035820000.0 -9045140000.0 -9035870000.0 -9304290000.0 -9035940000.0 -10328200000.0 -9036070000.0 -11929000000.0 -9036320000.0 -13194700000.0 -9091710000.0 -14669000000.0 -12505900000.0 -20676600000.0 -16657400000.0 -23485200000.0 -23369300000.0 -23164300000.0 -14495600000.0 -16931400000.0 -22018300000.0 -22773600000.0 -22397300000.0 -21389700000.0 -21554500000.0 -20965200000.0 -16332100000.0 -14004800000.0 -21989700000.0 -21833500000.0 -22083400000.0 -15564800000.0 -19369900000.0 -11905000000.0 -14043300000.0 -9070850000.0 -12727500000.0 -9036290000.0 -11519700000.0 -9036060000.0 -10085300000.0 -9035930000.0 -9230240000.0 -9035860000.0 -9041030000.0 -9035820000.0 -9035810000.0 -9035800000.0 -9035790000.0 -9035780000.0 -9035770000.0 -9035770000.0 -9035770000.0 -9035760000.0 -9035760000.0 -9035760000.0 -9035760000.0 -9035750000.0 -9035750000.0 -9035750000.0 -9035750000.0 -9035750000.0 -9035750000.0 -9035750000.0 -9035760000.0 -9035760000.0 -9035760000.0 -9035760000.0 -9035770000.0 -9035770000.0 -9035770000.0 -9035780000.0 -9035790000.0 -9035800000.0 -9035810000.0 -9035820000.0 -9041030000.0 -9035860000.0 -9230240000.0 -9035930000.0 -10085300000.0 -9036060000.0 -11519700000.0 -9036290000.0 -12727500000.0 -9070850000.0 -14043300000.0 -11905000000.0 -19369900000.0 -15564800000.0 -22083400000.0 -21833500000.0 -21989700000.0 -14004800000.0 -16332100000.0 -20965200000.0 -21554500000.0 -21389700000.0 -20379600000.0 -20380600000.0 -19923600000.0 -15740200000.0 -13541600000.0 -20839100000.0 -20396400000.0 -20749800000.0 -14598000000.0 -18169300000.0 -11394900000.0 -13468300000.0 -9057400000.0 -12294000000.0 -9036260000.0 -11156900000.0 -9036040000.0 -9882700000.0 -9035920000.0 -9175000000.0 -9035850000.0 -9038660000.0 -9035820000.0 -9035800000.0 -9035790000.0 -9035780000.0 -9035780000.0 -9035770000.0 -9035770000.0 -9035770000.0 -9035760000.0 -9035760000.0 -9035760000.0 -9035760000.0 -9035750000.0 -9035750000.0 -9035750000.0 -9035750000.0 -9035750000.0 -9035750000.0 -9035750000.0 -9035760000.0 -9035760000.0 -9035760000.0 -9035760000.0 -9035770000.0 -9035770000.0 -9035770000.0 -9035780000.0 -9035780000.0 -9035790000.0 -9035800000.0 -9035820000.0 -9038660000.0 -9035850000.0 -9175000000.0 -9035920000.0 -9882700000.0 -9036040000.0 -11156900000.0 -9036260000.0 -12294000000.0 -9057400000.0 -13468300000.0 -11394900000.0 -18169300000.0 -14598000000.0 -20749800000.0 -20396400000.0 -20839100000.0 -13541600000.0 -15740200000.0 -19923600000.0 -20380600000.0 -20379600000.0 -19369300000.0 -19248900000.0 -18896100000.0 -15152800000.0 -13100100000.0 -19712400000.0 -19054400000.0 -19482100000.0 -13745900000.0 -17065600000.0 -10964200000.0 -12938700000.0 -9048920000.0 -11892800000.0 -9036220000.0 -10836500000.0 -9036010000.0 -9714820000.0 -9035910000.0 -9134290000.0 -9035850000.0 -9037330000.0 -9035810000.0 -9035800000.0 -9035790000.0 -9035780000.0 -9035780000.0 -9035770000.0 -9035770000.0 -9035760000.0 -9035760000.0 -9035760000.0 -9035760000.0 -9035760000.0 -9035750000.0 -9035750000.0 -9035750000.0 -9035750000.0 -9035750000.0 -9035750000.0 -9035750000.0 -9035760000.0 -9035760000.0 -9035760000.0 -9035760000.0 -9035760000.0 -9035770000.0 -9035770000.0 -9035780000.0 -9035780000.0 -9035790000.0 -9035800000.0 -9035810000.0 -9037330000.0 -9035850000.0 -9134290000.0 -9035910000.0 -9714820000.0 -9036010000.0 -10836500000.0 -9036220000.0 -11892800000.0 -9048920000.0 -12938700000.0 -10964200000.0 -17065600000.0 -13745900000.0 -19482100000.0 -19054400000.0 -19712400000.0 -13100100000.0 -15152800000.0 -18896100000.0 -19248900000.0 -19369300000.0 -18360700000.0 -18156100000.0 -17884200000.0 -14567900000.0 -12675700000.0 -18609200000.0 -17802500000.0 -18277100000.0 -12997600000.0 -16049300000.0 -10602100000.0 -12449800000.0 -9043680000.0 -11522000000.0 -9036180000.0 -10554400000.0 -9035990000.0 -9576490000.0 -9035890000.0 -9104650000.0 -9035840000.0 -9036590000.0 -9035810000.0 -9035800000.0 -9035790000.0 -9035780000.0 -9035770000.0 -9035770000.0 -9035770000.0 -9035760000.0 -9035760000.0 -9035760000.0 -9035760000.0 -9035760000.0 -9035750000.0 -9035750000.0 -9035750000.0 -9035750000.0 -9035750000.0 -9035750000.0 -9035750000.0 -9035760000.0 -9035760000.0 -9035760000.0 -9035760000.0 -9035760000.0 -9035770000.0 -9035770000.0 -9035770000.0 -9035780000.0 -9035790000.0 -9035800000.0 -9035810000.0 -9036590000.0 -9035840000.0 -9104650000.0 -9035890000.0 -9576490000.0 -9035990000.0 -10554400000.0 -9036180000.0 -11522000000.0 -9043680000.0 -12449800000.0 -10602100000.0 -16049300000.0 -12997600000.0 -18277100000.0 -17802500000.0 -18609200000.0 -12675700000.0 -14567900000.0 -17884200000.0 -18156100000.0 -18360700000.0 -17355500000.0 -17098500000.0 -16889000000.0 -13984100000.0 -12264600000.0 -17528500000.0 -16635000000.0 -17131100000.0 -12341800000.0 -15110700000.0 -10298900000.0 -11996900000.0 -9040510000.0 -11179500000.0 -9036140000.0 -10306300000.0 -9035970000.0 -9463090000.0 -9035880000.0 -9083340000.0 -9035830000.0 -9036200000.0 -9035800000.0 -9035790000.0 -9035780000.0 -9035780000.0 -9035770000.0 -9035770000.0 -9035770000.0 -9035760000.0 -9035760000.0 -9035760000.0 -9035760000.0 -9035760000.0 -9035750000.0 -9035750000.0 -9035750000.0 -9035750000.0 -9035750000.0 -9035750000.0 -9035750000.0 -9035760000.0 -9035760000.0 -9035760000.0 -9035760000.0 -9035760000.0 -9035770000.0 -9035770000.0 -9035770000.0 -9035780000.0 -9035780000.0 -9035790000.0 -9035800000.0 -9036200000.0 -9035830000.0 -9083340000.0 -9035880000.0 -9463090000.0 -9035970000.0 -10306300000.0 -9036140000.0 -11179500000.0 -9040510000.0 -11996900000.0 -10298900000.0 -15110700000.0 -12341800000.0 -17131100000.0 -16635000000.0 -17528500000.0 -12264600000.0 -13984100000.0 -16889000000.0 -17098500000.0 -17355500000.0 -16354500000.0 -16072400000.0 -15910800000.0 -13400400000.0 -11863900000.0 -16469100000.0 -15545100000.0 -16039500000.0 -11767600000.0 -14240300000.0 -10045600000.0 -11575500000.0 -9038620000.0 -10863000000.0 -9036100000.0 -10088200000.0 -9035950000.0 -9370530000.0 -9035870000.0 -9068210000.0 -9035820000.0 -9035990000.0 -9035800000.0 -9035790000.0 -9035780000.0 -9035770000.0 -9035770000.0 -9035770000.0 -9035760000.0 -9035760000.0 -9035760000.0 -9035760000.0 -9035760000.0 -9035760000.0 -9035750000.0 -9035750000.0 -9035750000.0 -9035750000.0 -9035750000.0 -9035750000.0 -9035750000.0 -9035760000.0 -9035760000.0 -9035760000.0 -9035760000.0 -9035760000.0 -9035760000.0 -9035770000.0 -9035770000.0 -9035770000.0 -9035780000.0 -9035790000.0 -9035800000.0 -9035990000.0 -9035820000.0 -9068210000.0 -9035870000.0 -9370530000.0 -9035950000.0 -10088200000.0 -9036100000.0 -10863000000.0 -9038620000.0 -11575500000.0 -10045600000.0 -14240300000.0 -11767600000.0 -16039500000.0 -15545100000.0 -16469100000.0 -11863900000.0 -13400400000.0 -15910800000.0 -16072400000.0 -16354500000.0 -15358600000.0 -15073900000.0 -14949200000.0 -12816400000.0 -11471200000.0 -15429300000.0 -14525300000.0 -14997000000.0 -11264200000.0 -13428800000.0 -9834200000.0 -11181500000.0 -9037510000.0 -10569800000.0 -9036050000.0 -9896300000.0 -9035920000.0 -9295160000.0 -9035850000.0 -9057600000.0 -9035810000.0 -9035890000.0 -9035790000.0 -9035780000.0 -9035780000.0 -9035770000.0 -9035770000.0 -9035760000.0 -9035760000.0 -9035760000.0 -9035760000.0 -9035760000.0 -9035760000.0 -9035750000.0 -9035750000.0 -9035750000.0 -9035750000.0 -9035750000.0 -9035750000.0 -9035750000.0 -9035750000.0 -9035750000.0 -9035760000.0 -9035760000.0 -9035760000.0 -9035760000.0 -9035760000.0 -9035760000.0 -9035770000.0 -9035770000.0 -9035780000.0 -9035780000.0 -9035790000.0 -9035890000.0 -9035810000.0 -9057600000.0 -9035850000.0 -9295160000.0 -9035920000.0 -9896300000.0 -9036050000.0 -10569800000.0 -9037510000.0 -11181500000.0 -9834200000.0 -13428800000.0 -11264200000.0 -14997000000.0 -14525300000.0 -15429300000.0 -11471200000.0 -12816400000.0 -14949200000.0 -15073900000.0 -15358600000.0 -14368000000.0 -14099100000.0 -14003400000.0 -12231900000.0 -11084800000.0 -14407300000.0 -13567600000.0 -13998100000.0 -10820900000.0 -12667300000.0 -9657220000.0 -10810800000.0 -9036850000.0 -10297100000.0 -9036010000.0 -9726620000.0 -9035900000.0 -9233780000.0 -9035840000.0 -9050240000.0 -9035800000.0 -9035830000.0 -9035780000.0 -9035780000.0 -9035770000.0 -9035770000.0 -9035770000.0 -9035760000.0 -9035760000.0 -9035760000.0 -9035760000.0 -9035760000.0 -9035760000.0 -9035750000.0 -9035750000.0 -9035750000.0 -9035750000.0 -9035750000.0 -9035750000.0 -9035750000.0 -9035750000.0 -9035750000.0 -9035760000.0 -9035760000.0 -9035760000.0 -9035760000.0 -9035760000.0 -9035760000.0 -9035770000.0 -9035770000.0 -9035770000.0 -9035780000.0 -9035780000.0 -9035830000.0 -9035800000.0 -9050240000.0 -9035840000.0 -9233780000.0 -9035900000.0 -9726620000.0 -9036010000.0 -10297100000.0 -9036850000.0 -10810800000.0 -9657220000.0 -12667300000.0 -10820900000.0 -13998100000.0 -13567600000.0 -14407300000.0 -11084800000.0 -12231900000.0 -14003400000.0 -14099100000.0 -14368000000.0 -13382300000.0 -13144200000.0 -13071800000.0 -11646800000.0 -10703200000.0 -13400700000.0 -12663300000.0 -13036700000.0 -10427800000.0 -11947300000.0 -9508070000.0 -10459600000.0 -9036460000.0 -10041900000.0 -9035960000.0 -9575470000.0 -9035870000.0 -9183570000.0 -9035820000.0 -9045190000.0 -9035790000.0 -9035800000.0 -9035780000.0 -9035770000.0 -9035770000.0 -9035770000.0 -9035760000.0 -9035760000.0 -9035760000.0 -9035760000.0 -9035760000.0 -9035760000.0 -9035750000.0 -9035750000.0 -9035750000.0 -9035750000.0 -9035750000.0 -9035750000.0 -9035750000.0 -9035750000.0 -9035750000.0 -9035750000.0 -9035750000.0 -9035760000.0 -9035760000.0 -9035760000.0 -9035760000.0 -9035760000.0 -9035760000.0 -9035770000.0 -9035770000.0 -9035770000.0 -9035780000.0 -9035800000.0 -9035790000.0 -9045190000.0 -9035820000.0 -9183570000.0 -9035870000.0 -9575470000.0 -9035960000.0 -10041900000.0 -9036460000.0 -10459600000.0 -9508070000.0 -11947300000.0 -10427800000.0 -13036700000.0 -12663300000.0 -13400700000.0 -10703200000.0 -11646800000.0 -13071800000.0 -13144200000.0 -13382300000.0 -12401300000.0 -12205500000.0 -12152500000.0 -11061200000.0 -10325400000.0 -12407000000.0 -11803100000.0 -12106300000.0 -10074900000.0 -11260400000.0 -9380770000.0 -10124000000.0 -9036210000.0 -9801120000.0 -9035920000.0 -9439270000.0 -9035840000.0 -9142030000.0 -9035810000.0 -9041740000.0 -9035790000.0 -9035790000.0 -9035770000.0 -9035770000.0 -9035770000.0 -9035760000.0 -9035760000.0 -9035760000.0 -9035760000.0 -9035760000.0 -9035760000.0 -9035760000.0 -9035750000.0 -9035750000.0 -9035750000.0 -9035750000.0 -9035750000.0 -9035750000.0 -9035750000.0 -9035750000.0 -9035750000.0 -9035750000.0 -9035750000.0 -9035760000.0 -9035760000.0 -9035760000.0 -9035760000.0 -9035760000.0 -9035760000.0 -9035760000.0 -9035770000.0 -9035770000.0 -9035770000.0 -9035790000.0 -9035790000.0 -9041740000.0 -9035810000.0 -9142030000.0 -9035840000.0 -9439270000.0 -9035920000.0 -9801120000.0 -9036210000.0 -10124000000.0 -9380770000.0 -11260400000.0 -10074900000.0 -12106300000.0 -11803100000.0 -12407000000.0 -10325400000.0 -11061200000.0 -12152500000.0 -12205500000.0 -12401300000.0 -11424100000.0 -11279200000.0 -11243000000.0 -10475100000.0 -9950200000.0 -11423700000.0 -10977600000.0 -11200200000.0 -9752840000.0 -10598900000.0 -9269830000.0 -9800610000.0 -9036040000.0 -9571630000.0 -9035870000.0 -9314540000.0 -9035820000.0 -9106940000.0 -9035790000.0 -9039350000.0 -9035780000.0 -9035770000.0 -9035770000.0 -9035760000.0 -9035760000.0 -9035760000.0 -9035760000.0 -9035760000.0 -9035760000.0 -9035760000.0 -9035760000.0 -9035750000.0 -9035750000.0 -9035750000.0 -9035750000.0 -9035750000.0 -9035750000.0 -9035750000.0 -9035750000.0 -9035750000.0 -9035750000.0 -9035750000.0 -9035750000.0 -9035750000.0 -9035760000.0 -9035760000.0 -9035760000.0 -9035760000.0 -9035760000.0 -9035760000.0 -9035760000.0 -9035760000.0 -9035770000.0 -9035770000.0 -9035780000.0 -9039350000.0 -9035790000.0 -9106940000.0 -9035820000.0 -9314540000.0 -9035870000.0 -9571630000.0 -9036040000.0 -9800610000.0 -9269830000.0 -10598900000.0 -9752840000.0 -11200200000.0 -10977600000.0 -11423700000.0 -9950200000.0 -10475100000.0 -11243000000.0 -11279200000.0 -11424100000.0 -10449700000.0 -10361700000.0 -10340700000.0 -9888650000.0 -9576850000.0 -10447700000.0 -10176800000.0 -10311500000.0 -9452460000.0 -9955220000.0 -9170230000.0 -9485690000.0 -9035910000.0 -9350190000.0 -9035820000.0 -9197890000.0 -9035790000.0 -9076290000.0 -9035780000.0 -9037650000.0 -9035770000.0 -9035760000.0 -9035760000.0 -9035760000.0 -9035760000.0 -9035760000.0 -9035760000.0 -9035760000.0 -9035760000.0 -9035750000.0 -9035750000.0 -9035750000.0 -9035750000.0 -9035750000.0 -9035750000.0 -9035750000.0 -9035750000.0 -9035750000.0 -9035750000.0 -9035750000.0 -9035750000.0 -9035750000.0 -9035750000.0 -9035750000.0 -9035750000.0 -9035750000.0 -9035760000.0 -9035760000.0 -9035760000.0 -9035760000.0 -9035760000.0 -9035760000.0 -9035760000.0 -9035760000.0 -9035770000.0 -9037650000.0 -9035780000.0 -9076290000.0 -9035790000.0 -9197890000.0 -9035820000.0 -9350190000.0 -9035910000.0 -9485690000.0 -9170230000.0 -9955220000.0 -9452460000.0 -10311500000.0 -10176800000.0 -10447700000.0 -9576850000.0 -9888650000.0 -10340700000.0 -10361700000.0 -10449700000.0 -9476960000.0 -9449220000.0 -9442750000.0 -9301990000.0 -9204570000.0 -9476150000.0 -9390780000.0 -9433180000.0 -9164830000.0 -9321940000.0 -9077210000.0 -9175810000.0 -9035800000.0 -9133530000.0 -9035770000.0 -9085990000.0 -9035770000.0 -9048210000.0 -9035760000.0 -9036320000.0 -9035760000.0 -9035760000.0 -9035760000.0 -9035760000.0 -9035750000.0 -9035750000.0 -9035750000.0 -9035750000.0 -9035750000.0 -9035750000.0 -9035750000.0 -9035750000.0 -9035750000.0 -9035750000.0 -9035750000.0 -9035750000.0 -9035750000.0 -9035750000.0 -9035750000.0 -9035750000.0 -9035750000.0 -9035750000.0 -9035750000.0 -9035750000.0 -9035750000.0 -9035750000.0 -9035750000.0 -9035750000.0 -9035750000.0 -9035750000.0 -9035750000.0 -9035760000.0 -9035760000.0 -9035760000.0 -9035760000.0 -9036320000.0 -9035760000.0 -9048210000.0 -9035770000.0 -9085990000.0 -9035770000.0 -9133530000.0 -9035800000.0 -9175810000.0 -9077210000.0 -9321940000.0 -9164830000.0 -9433180000.0 -9390780000.0 -9476150000.0 -9204570000.0 -9301990000.0 -9442750000.0 -9449220000.0 -9476960000.0 
SCALARS Shear_Stress float 1
LOOKUP_TABLE default
189198000000.0 172308000000.0 143395000000.0 31757300000.0 23024300000.0 23024300000.0 31757300000.0 143395000000.0 172308000000.0 189198000000.0 196488000000.0 109822000000.0 27951800000.0 100246000000.0 38396000000.0 26664500000.0 2578430000.0 46907700000.0 34997200000.0 78216700000.0 87057900000.0 102140000000.0 111402000000.0 119228000000.0 125691000000.0 130961000000.0 135179000000.0 138405000000.0 140740000000.0 142318000000.0 143223000000.0 143549000000.0 143223000000.0 142318000000.0 140740000000.0 138405000000.0 135179000000.0 130961000000.0 125691000000.0 119228000000.0 111402000000.0 102140000000.0 87057900000.0 78216700000.0 34997200000.0 46907700000.0 2578430000.0 26664500000.0 38396000000.0 100246000000.0 27951800000.0 109822000000.0 196488000000.0 149345000000.0 306767000000.0 53688700000.0 230666000000.0 2890800000.0 44823300000.0 6133530000.0 6133530000.0 44823300000.0 2890800000.0 230666000000.0 53688700000.0 306767000000.0 149345000000.0 144232000000.0 295426000000.0 269796000000.0 98862800000.0 14080300000.0 12151600000.0 1646170000.0 65711400000.0 13284200000.0 62061900000.0 53503900000.0 64370600000.0 65203000000.0 66175700000.0 67137900000.0 67926100000.0 68878600000.0 69772400000.0 70206000000.0 70390000000.0 70428400000.0 70539300000.0 70428400000.0 70390000000.0 70206000000.0 69772400000.0 68878600000.0 67926100000.0 67137900000.0 66175700000.0 65203000000.0 64370600000.0 53503900000.0 62061900000.0 13284200000.0 65711400000.0 1646170000.0 12151600000.0 14080300000.0 98862800000.0 269796000000.0 295426000000.0 144232000000.0 134215000000.0 142519000000.0 321551000000.0 179242000000.0 155984000000.0 295534000000.0 118233000000.0 462622000000.0 57410700000.0 265892000000.0 11651300000.0 23035400000.0 8050350000.0 97487500000.0 18112900000.0 113038000000.0 102513000000.0 120597000000.0 122190000000.0 122478000000.0 121981000000.0 121043000000.0 119844000000.0 118619000000.0 117371000000.0 116645000000.0 116164000000.0 116170000000.0 116164000000.0 116645000000.0 117371000000.0 118619000000.0 119844000000.0 121043000000.0 121981000000.0 122478000000.0 122190000000.0 120597000000.0 102513000000.0 113038000000.0 18112900000.0 97487500000.0 8050350000.0 23035400000.0 11651300000.0 265892000000.0 57410700000.0 462622000000.0 118233000000.0 295534000000.0 155984000000.0 179242000000.0 321551000000.0 142519000000.0 134215000000.0 130772000000.0 333175000000.0 251420000000.0 163462000000.0 84905400000.0 60576600000.0 166438000000.0 312324000000.0 211029000000.0 211029000000.0 312324000000.0 166438000000.0 60576600000.0 84905400000.0 163462000000.0 251420000000.0 333175000000.0 130772000000.0 130315000000.0 315556000000.0 313054000000.0 296899000000.0 251513000000.0 223046000000.0 650596000000.0 511043000000.0 299341000000.0 217586000000.0 42028400000.0 113184000000.0 37320700000.0 140951000000.0 130414000000.0 159062000000.0 164221000000.0 167166000000.0 168089000000.0 167734000000.0 166901000000.0 165874000000.0 164798000000.0 163927000000.0 163148000000.0 163016000000.0 163148000000.0 163927000000.0 164798000000.0 165874000000.0 166901000000.0 167734000000.0 168089000000.0 167166000000.0 164221000000.0 159062000000.0 130414000000.0 140951000000.0 37320700000.0 113184000000.0 42028400000.0 217586000000.0 299341000000.0 511043000000.0 650596000000.0 223046000000.0 251513000000.0 296899000000.0 313054000000.0 315556000000.0 130315000000.0 137351000000.0 320905000000.0 316994000000.0 263113000000.0 302897000000.0 155644000000.0 26024500000.0 38183100000.0 31003100000.0 280432000000.0 413501000000.0 267626000000.0 209995000000.0 154122000000.0 160398000000.0 24324600000.0 178598000000.0 151366000000.0 171467000000.0 168821000000.0 171996000000.0 177116000000.0 181850000000.0 185513000000.0 187702000000.0 189130000000.0 189903000000.0 190272000000.0 190509000000.0 190272000000.0 189903000000.0 189130000000.0 187702000000.0 185513000000.0 181850000000.0 177116000000.0 171996000000.0 168821000000.0 171467000000.0 151366000000.0 178598000000.0 24324600000.0 160398000000.0 154122000000.0 209995000000.0 267626000000.0 413501000000.0 280432000000.0 31003100000.0 38183100000.0 26024500000.0 155644000000.0 302897000000.0 263113000000.0 316994000000.0 320905000000.0 137351000000.0 151456000000.0 147911000000.0 342041000000.0 287242000000.0 326851000000.0 340344000000.0 284953000000.0 177983000000.0 51341000000.0 40374700000.0 383546000000.0 349576000000.0 283798000000.0 283798000000.0 349576000000.0 383546000000.0 40374700000.0 51341000000.0 177983000000.0 284953000000.0 340344000000.0 326851000000.0 287242000000.0 342041000000.0 147911000000.0 151456000000.0 146653000000.0 358931000000.0 301383000000.0 306832000000.0 185204000000.0 419059000000.0 371611000000.0 41078900000.0 276262000000.0 335327000000.0 362692000000.0 297743000000.0 205628000000.0 148645000000.0 139166000000.0 48908700000.0 180682000000.0 158301000000.0 196050000000.0 198769000000.0 202537000000.0 204522000000.0 203976000000.0 203525000000.0 204499000000.0 206882000000.0 209096000000.0 210624000000.0 211215000000.0 210624000000.0 209096000000.0 206882000000.0 204499000000.0 203525000000.0 203976000000.0 204522000000.0 202537000000.0 198769000000.0 196050000000.0 158301000000.0 180682000000.0 48908700000.0 139166000000.0 148645000000.0 205628000000.0 297743000000.0 362692000000.0 335327000000.0 276262000000.0 41078900000.0 371611000000.0 419059000000.0 185204000000.0 306832000000.0 301383000000.0 358931000000.0 146653000000.0 120659000000.0 352726000000.0 338806000000.0 292616000000.0 60951100000.0 364746000000.0 561952000000.0 191861000000.0 2258260000.0 158419000000.0 384739000000.0 270044000000.0 276925000000.0 145452000000.0 111222000000.0 68489900000.0 177082000000.0 155197000000.0 203261000000.0 210629000000.0 215357000000.0 217507000000.0 218202000000.0 218173000000.0 217755000000.0 217596000000.0 217272000000.0 217137000000.0 217184000000.0 217137000000.0 217272000000.0 217596000000.0 217755000000.0 218173000000.0 218202000000.0 217507000000.0 215357000000.0 210629000000.0 203261000000.0 155197000000.0 177082000000.0 68489900000.0 111222000000.0 145452000000.0 276925000000.0 270044000000.0 384739000000.0 158419000000.0 2258260000.0 191861000000.0 561952000000.0 364746000000.0 60951100000.0 292616000000.0 338806000000.0 352726000000.0 120659000000.0 77549300000.0 95380400000.0 263385000000.0 328246000000.0 348577000000.0 335182000000.0 441927000000.0 558346000000.0 190403000000.0 303027000000.0 143863000000.0 133527000000.0 243014000000.0 337652000000.0 351821000000.0 311454000000.0 232416000000.0 232416000000.0 311454000000.0 351821000000.0 337652000000.0 243014000000.0 133527000000.0 143863000000.0 303027000000.0 190403000000.0 558346000000.0 441927000000.0 335182000000.0 348577000000.0 328246000000.0 263385000000.0 95380400000.0 77549300000.0 84941300000.0 211348000000.0 294760000000.0 309110000000.0 283582000000.0 251598000000.0 193518000000.0 780708000000.0 346787000000.0 883868000000.0 380580000000.0 416349000000.0 19064600000.0 436866000000.0 290338000000.0 245752000000.0 147912000000.0 97045700000.0 50090700000.0 187433000000.0 156676000000.0 209009000000.0 214005000000.0 220643000000.0 223791000000.0 225803000000.0 227063000000.0 227791000000.0 228421000000.0 228611000000.0 228744000000.0 228915000000.0 228744000000.0 228611000000.0 228421000000.0 227791000000.0 227063000000.0 225803000000.0 223791000000.0 220643000000.0 214005000000.0 209009000000.0 156676000000.0 187433000000.0 50090700000.0 97045700000.0 147912000000.0 245752000000.0 290338000000.0 436866000000.0 19064600000.0 416349000000.0 380580000000.0 883868000000.0 346787000000.0 780708000000.0 193518000000.0 251598000000.0 283582000000.0 309110000000.0 294760000000.0 211348000000.0 84941300000.0 120534000000.0 195650000000.0 110895000000.0 141340000000.0 285488000000.0 143003000000.0 576857000000.0 882780000000.0 68018800000.0 2368740000.0 88160600000.0 245265000000.0 305201000000.0 104982000000.0 48882300000.0 31607200000.0 189484000000.0 150317000000.0 207667000000.0 208692000000.0 219641000000.0 223338000000.0 225972000000.0 227774000000.0 228999000000.0 229907000000.0 230358000000.0 230550000000.0 230791000000.0 230550000000.0 230358000000.0 229907000000.0 228999000000.0 227774000000.0 225972000000.0 223338000000.0 219641000000.0 208692000000.0 207667000000.0 150317000000.0 189484000000.0 31607200000.0 48882300000.0 104982000000.0 305201000000.0 245265000000.0 88160600000.0 2368740000.0 68018800000.0 882780000000.0 576857000000.0 143003000000.0 285488000000.0 141340000000.0 110895000000.0 195650000000.0 120534000000.0 185231000000.0 296821000000.0 231298000000.0 105967000000.0 15823600000.0 284560000000.0 328217000000.0 357122000000.0 399267000000.0 287858000000.0 420716000000.0 726904000000.0 34132400000.0 80227400000.0 9035740000.0 166792000000.0 122164000000.0 121869000000.0 212719000000.0 212719000000.0 121869000000.0 122164000000.0 166792000000.0 9035740000.0 80227400000.0 34132400000.0 726904000000.0 420716000000.0 287858000000.0 399267000000.0 357122000000.0 328217000000.0 284560000000.0 15823600000.0 105967000000.0 231298000000.0 296821000000.0 185231000000.0 116751000000.0 127085000000.0 424686000000.0 194631000000.0 15285100000.0 71710300000.0 139457000000.0 140491000000.0 135852000000.0 206312000000.0 99998300000.0 288254000000.0 820007000000.0 264992000000.0 7356710000.0 44253700000.0 132699000000.0 20550000000.0 69131800000.0 19990900000.0 17467600000.0 50261800000.0 70508500000.0 236656000000.0 188279000000.0 234103000000.0 221449000000.0 225013000000.0 219645000000.0 214007000000.0 208364000000.0 203163000000.0 198834000000.0 195704000000.0 193709000000.0 193378000000.0 193709000000.0 195704000000.0 198834000000.0 203163000000.0 208364000000.0 214007000000.0 219645000000.0 225013000000.0 221449000000.0 234103000000.0 188279000000.0 236656000000.0 70508500000.0 50261800000.0 17467600000.0 19990900000.0 69131800000.0 20550000000.0 132699000000.0 44253700000.0 7356710000.0 264992000000.0 820007000000.0 288254000000.0 99998300000.0 206312000000.0 135852000000.0 140491000000.0 139457000000.0 71710300000.0 15285100000.0 194631000000.0 424686000000.0 127085000000.0 116751000000.0 164813000000.0 38647400000.0 372894000000.0 300467000000.0 26516600000.0 215262000000.0 378438000000.0 59150100000.0 243805000000.0 144500000000.0 423372000000.0 179553000000.0 37370000000.0 351796000000.0 215698000000.0 41188600000.0 70959900000.0 27211300000.0 165301000000.0 192266000000.0 261305000000.0 289263000000.0 314834000000.0 333424000000.0 347978000000.0 359700000000.0 368944000000.0 375891000000.0 380716000000.0 383656000000.0 384680000000.0 383656000000.0 380716000000.0 375891000000.0 368944000000.0 359700000000.0 347978000000.0 333424000000.0 314834000000.0 289263000000.0 261305000000.0 192266000000.0 165301000000.0 27211300000.0 70959900000.0 41188600000.0 215698000000.0 351796000000.0 37370000000.0 179553000000.0 423372000000.0 144500000000.0 243805000000.0 59150100000.0 378438000000.0 215262000000.0 26516600000.0 300467000000.0 372894000000.0 38647400000.0 164813000000.0 61187700000.0 62349300000.0 47120500000.0 8648070000.0 73344300000.0 491043000000.0 600314000000.0 574183000000.0 304787000000.0 326678000000.0 220457000000.0 416771000000.0 106307000000.0 53926700000.0 148563000000.0 254760000000.0 327813000000.0 476160000000.0 391243000000.0 96856900000.0 96856900000.0 391243000000.0 476160000000.0 327813000000.0 254760000000.0 148563000000.0 53926700000.0 106307000000.0 416771000000.0 220457000000.0 326678000000.0 304787000000.0 574183000000.0 600314000000.0 491043000000.0 73344300000.0 8648070000.0 47120500000.0 62349300000.0 61187700000.0 18577200000.0 447373000000.0 543681000000.0 53114600000.0 12890600000.0 738882000000.0 319150000000.0 462465000000.0 173171000000.0 300862000000.0 208716000000.0 251899000000.0 222152000000.0 83397000000.0 33165300000.0 53908300000.0 21939000000.0 112204000000.0 131912000000.0 196376000000.0 36541000000.0 174847000000.0 23959700000.0 154905000000.0 180082000000.0 260565000000.0 272006000000.0 293403000000.0 295127000000.0 296630000000.0 296090000000.0 294643000000.0 292932000000.0 291341000000.0 289837000000.0 288898000000.0 288279000000.0 288898000000.0 289837000000.0 291341000000.0 292932000000.0 294643000000.0 296090000000.0 296630000000.0 295127000000.0 293403000000.0 272006000000.0 260565000000.0 180082000000.0 154905000000.0 23959700000.0 174847000000.0 36541000000.0 196376000000.0 131912000000.0 112204000000.0 21939000000.0 53908300000.0 33165300000.0 83397000000.0 222152000000.0 251899000000.0 208716000000.0 300862000000.0 173171000000.0 462465000000.0 319150000000.0 738882000000.0 12890600000.0 53114600000.0 543681000000.0 447373000000.0 18577200000.0 112741000000.0 362472000000.0 362834000000.0 305063000000.0 605375000000.0 44571200000.0 890337000000.0 4246840000.0 256778000000.0 32113800000.0 307609000000.0 298921000000.0 378042000000.0 278915000000.0 144805000000.0 124193000000.0 89555200000.0 103464000000.0 27589600000.0 132480000000.0 45571700000.0 130698000000.0 111994000000.0 122387000000.0 118812000000.0 115846000000.0 113362000000.0 111309000000.0 109724000000.0 108287000000.0 106880000000.0 105812000000.0 105214000000.0 105812000000.0 106880000000.0 108287000000.0 109724000000.0 111309000000.0 113362000000.0 115846000000.0 118812000000.0 122387000000.0 111994000000.0 130698000000.0 45571700000.0 132480000000.0 27589600000.0 103464000000.0 89555200000.0 124193000000.0 144805000000.0 278915000000.0 378042000000.0 298921000000.0 307609000000.0 32113800000.0 256778000000.0 4246840000.0 890337000000.0 44571200000.0 605375000000.0 305063000000.0 362834000000.0 362472000000.0 112741000000.0 153576000000.0 383022000000.0 428828000000.0 94002200000.0 286673000000.0 296777000000.0 321252000000.0 274106000000.0 174079000000.0 64810800000.0 200005000000.0 240366000000.0 76013900000.0 76013900000.0 240366000000.0 200005000000.0 64810800000.0 174079000000.0 274106000000.0 321252000000.0 296777000000.0 286673000000.0 94002200000.0 428828000000.0 383022000000.0 153576000000.0 477522000000.0 537166000000.0 114330000000.0 320155000000.0 691466000000.0 133424000000.0 151704000000.0 7842140000.0 140913000000.0 151380000000.0 247269000000.0 252443000000.0 188900000000.0 199113000000.0 153979000000.0 3292840000.0 30812900000.0 9581650000.0 29022600000.0 80477000000.0 35213700000.0 80484200000.0 12486500000.0 72895400000.0 8827770000.0 13893300000.0 9035750000.0 9035750000.0 9035750000.0 9035750000.0 9035750000.0 9035750000.0 9035750000.0 9035750000.0 9035750000.0 9200060000.0 9035750000.0 9035750000.0 9035750000.0 9035750000.0 9035750000.0 9035750000.0 9035750000.0 9035750000.0 9035750000.0 13893300000.0 8827770000.0 72895400000.0 12486500000.0 80484200000.0 35213700000.0 80477000000.0 29022600000.0 9581650000.0 30812900000.0 3292840000.0 153979000000.0 199113000000.0 188900000000.0 252443000000.0 247269000000.0 151380000000.0 140913000000.0 7842140000.0 151704000000.0 133424000000.0 691466000000.0 320155000000.0 114330000000.0 537166000000.0 477522000000.0 38553900000.0 25464400000.0 4670930000.0 278574000000.0 337969000000.0 243949000000.0 134099000000.0 169947000000.0 194146000000.0 240624000000.0 53139800000.0 193659000000.0 192619000000.0 136088000000.0 113977000000.0 79793300000.0 177744000000.0 142317000000.0 194356000000.0 191237000000.0 187892000000.0 184782000000.0 181726000000.0 178971000000.0 176677000000.0 174722000000.0 173121000000.0 172011000000.0 171397000000.0 171072000000.0 171397000000.0 172011000000.0 173121000000.0 174722000000.0 176677000000.0 178971000000.0 181726000000.0 184782000000.0 187892000000.0 191237000000.0 194356000000.0 142317000000.0 177744000000.0 79793300000.0 113977000000.0 136088000000.0 192619000000.0 193659000000.0 53139800000.0 240624000000.0 194146000000.0 169947000000.0 134099000000.0 243949000000.0 337969000000.0 278574000000.0 4670930000.0 25464400000.0 38553900000.0 386772000000.0 364661000000.0 315023000000.0 9032640000.0 188748000000.0 264013000000.0 307081000000.0 239769000000.0 189427000000.0 186983000000.0 184108000000.0 202914000000.0 190108000000.0 94839100000.0 102597000000.0 289881000000.0 190268000000.0 33645200000.0 33645200000.0 190268000000.0 289881000000.0 102597000000.0 94839100000.0 190108000000.0 202914000000.0 184108000000.0 186983000000.0 189427000000.0 239769000000.0 307081000000.0 264013000000.0 188748000000.0 9032640000.0 315023000000.0 364661000000.0 386772000000.0 342369000000.0 117725000000.0 45611000000.0 36470900000.0 6611770000.0 73536300000.0 168358000000.0 180659000000.0 176540000000.0 174024000000.0 150152000000.0 3228240000.0 77864900000.0 87885600000.0 37782000000.0 67558300000.0 54389100000.0 62166900000.0 5424350000.0 75164900000.0 6475260000.0 40808600000.0 9035750000.0 9035750000.0 9035750000.0 9035750000.0 9035750000.0 9035750000.0 9035750000.0 9035750000.0 9035750000.0 9035750000.0 9035750000.0 9143060000.0 9035750000.0 9035750000.0 9035750000.0 9035750000.0 9035750000.0 9035750000.0 9035750000.0 9035750000.0 9035750000.0 9035750000.0 9035750000.0 40808600000.0 6475260000.0 75164900000.0 5424350000.0 62166900000.0 54389100000.0 67558300000.0 37782000000.0 87885600000.0 77864900000.0 3228240000.0 150152000000.0 174024000000.0 176540000000.0 180659000000.0 168358000000.0 73536300000.0 6611770000.0 36470900000.0 45611000000.0 117725000000.0 342369000000.0 238698000000.0 260851000000.0 227635000000.0 177160000000.0 200607000000.0 200607000000.0 177160000000.0 227635000000.0 260851000000.0 238698000000.0 223922000000.0 60497600000.0 4312540000.0 135854000000.0 88566800000.0 52582000000.0 197828000000.0 206083000000.0 123681000000.0 33620000000.0 16255000000.0 50543100000.0 87781100000.0 131401000000.0 322664000000.0 234732000000.0 286011000000.0 240886000000.0 224887000000.0 222155000000.0 141281000000.0 219388000000.0 150993000000.0 211351000000.0 177149000000.0 183471000000.0 168957000000.0 155849000000.0 144438000000.0 134786000000.0 126674000000.0 119900000000.0 114384000000.0 110094000000.0 107018000000.0 105163000000.0 104460000000.0 105163000000.0 107018000000.0 110094000000.0 114384000000.0 119900000000.0 126674000000.0 134786000000.0 144438000000.0 155849000000.0 168957000000.0 183471000000.0 177149000000.0 211351000000.0 150993000000.0 219388000000.0 141281000000.0 222155000000.0 224887000000.0 240886000000.0 286011000000.0 234732000000.0 322664000000.0 131401000000.0 87781100000.0 50543100000.0 16255000000.0 33620000000.0 123681000000.0 206083000000.0 197828000000.0 52582000000.0 88566800000.0 135854000000.0 4312540000.0 60497600000.0 223922000000.0 127882000000.0 14813700000.0 61354500000.0 28412500000.0 88721000000.0 62690600000.0 25724600000.0 224424000000.0 164353000000.0 75274100000.0 40207800000.0 17490200000.0 30279500000.0 23136000000.0 97443100000.0 7153910000.0 2334650000.0 36552800000.0 5486670000.0 50052800000.0 2202030000.0 91271800000.0 5997830000.0 73871700000.0 8684410000.0 20801100000.0 9035750000.0 9035750000.0 9035750000.0 9035750000.0 9035750000.0 9035750000.0 9035750000.0 9035750000.0 9035750000.0 9035750000.0 9035750000.0 9099390000.0 9035750000.0 9035750000.0 9035750000.0 9035750000.0 9035750000.0 9035750000.0 9035750000.0 9035750000.0 9035750000.0 9035750000.0 9035750000.0 20801100000.0 8684410000.0 73871700000.0 5997830000.0 91271800000.0 2202030000.0 50052800000.0 5486670000.0 36552800000.0 2334650000.0 7153910000.0 97443100000.0 23136000000.0 30279500000.0 17490200000.0 40207800000.0 75274100000.0 164353000000.0 224424000000.0 25724600000.0 62690600000.0 88721000000.0 28412500000.0 61354500000.0 14813700000.0 127882000000.0 39563400000.0 9881560000.0 53907400000.0 14317000000.0 29973500000.0 16437000000.0 3382220000.0 141347000000.0 12454100000.0 140923000000.0 183174000000.0 200217000000.0 195296000000.0 245263000000.0 263520000000.0 273179000000.0 231974000000.0 161826000000.0 167328000000.0 99338300000.0 123200000000.0 26195100000.0 95000700000.0 20614300000.0 71046500000.0 53579400000.0 49277600000.0 40600800000.0 33366200000.0 27364900000.0 22437600000.0 18451200000.0 15287300000.0 12840600000.0 11022900000.0 9768170000.0 9031830000.0 8741520000.0 9031830000.0 9768170000.0 11022900000.0 12840600000.0 15287300000.0 18451200000.0 22437600000.0 27364900000.0 33366200000.0 40600800000.0 49277600000.0 53579400000.0 71046500000.0 20614300000.0 95000700000.0 26195100000.0 123200000000.0 99338300000.0 167328000000.0 161826000000.0 231974000000.0 273179000000.0 263520000000.0 245263000000.0 195296000000.0 200217000000.0 183174000000.0 140923000000.0 12454100000.0 141347000000.0 3382220000.0 16437000000.0 29973500000.0 14317000000.0 53907400000.0 9881560000.0 39563400000.0 61675100000.0 21521900000.0 4586590000.0 37745600000.0 30422300000.0 100674000000.0 145958000000.0 55842600000.0 86453800000.0 73018400000.0 80875200000.0 88785300000.0 112094000000.0 73739000000.0 8805500000.0 29029500000.0 8128490000.0 52253900000.0 8290930000.0 55435600000.0 7998820000.0 83415500000.0 8541060000.0 63505300000.0 9053100000.0 10556200000.0 9035750000.0 9035750000.0 9035750000.0 9035750000.0 9035750000.0 9035750000.0 9035750000.0 9035750000.0 9035750000.0 9035750000.0 9035750000.0 9070720000.0 9035750000.0 9035750000.0 9035750000.0 9035750000.0 9035750000.0 9035750000.0 9035750000.0 9035750000.0 9035750000.0 9035750000.0 9035750000.0 10556200000.0 9053100000.0 63505300000.0 8541060000.0 83415500000.0 7998820000.0 55435600000.0 8290930000.0 52253900000.0 8128490000.0 29029500000.0 8805500000.0 73739000000.0 112094000000.0 88785300000.0 80875200000.0 73018400000.0 86453800000.0 55842600000.0 145958000000.0 100674000000.0 30422300000.0 37745600000.0 4586590000.0 21521900000.0 61675100000.0 69399700000.0 17888100000.0 57723600000.0 43455100000.0 57570700000.0 15550100000.0 13504500000.0 190835000000.0 116252000000.0 51730500000.0 40245400000.0 33621600000.0 47555400000.0 2766490000.0 37977500000.0 6797970000.0 22784200000.0 26092800000.0 12480900000.0 35951800000.0 5130990000.0 63262800000.0 360253000.0 48143100000.0 2878790000.0 4189250000.0 5129150000.0 5926800000.0 6553550000.0 7043010000.0 7423140000.0 7716580000.0 7941010000.0 8109720000.0 8232330000.0 8315530000.0 8363740000.0 8404770000.0 8363740000.0 8315530000.0 8232330000.0 8109720000.0 7941010000.0 7716580000.0 7423140000.0 7043010000.0 6553550000.0 5926800000.0 5129150000.0 4189250000.0 2878790000.0 48143100000.0 360253000.0 63262800000.0 5130990000.0 35951800000.0 12480900000.0 26092800000.0 22784200000.0 6797970000.0 37977500000.0 2766490000.0 47555400000.0 33621600000.0 40245400000.0 51730500000.0 116252000000.0 190835000000.0 13504500000.0 15550100000.0 57570700000.0 43455100000.0 57723600000.0 17888100000.0 69399700000.0 65920100000.0 23347900000.0 49229100000.0 38705200000.0 43934700000.0 8135060000.0 7100380000.0 185312000000.0 148093000000.0 104217000000.0 99218900000.0 90510900000.0 98175200000.0 45511900000.0 8955030000.0 34933900000.0 8925240000.0 51199700000.0 8982230000.0 50774300000.0 8990000000.0 65838900000.0 9021560000.0 47892600000.0 9035760000.0 9035760000.0 9035760000.0 9035750000.0 9035750000.0 9035750000.0 9035750000.0 9035750000.0 9035750000.0 9035750000.0 9035750000.0 9035750000.0 9035750000.0 9053660000.0 9035750000.0 9035750000.0 9035750000.0 9035750000.0 9035750000.0 9035750000.0 9035750000.0 9035750000.0 9035750000.0 9035750000.0 9035760000.0 9035760000.0 9035760000.0 47892600000.0 9021560000.0 65838900000.0 8990000000.0 50774300000.0 8982230000.0 51199700000.0 8925240000.0 34933900000.0 8955030000.0 45511900000.0 98175200000.0 90510900000.0 99218900000.0 104217000000.0 148093000000.0 185312000000.0 7100380000.0 8135060000.0 43934700000.0 38705200000.0 49229100000.0 23347900000.0 65920100000.0 61870800000.0 32799200000.0 50690000000.0 45129500000.0 46988000000.0 23532100000.0 28612500000.0 181279000000.0 143608000000.0 101580000000.0 95878600000.0 82433500000.0 83827300000.0 33823600000.0 6882320000.0 34869000000.0 8574220000.0 49093300000.0 9035770000.0 47689400000.0 9035760000.0 57647000000.0 9035760000.0 40698400000.0 9035760000.0 9035760000.0 9035760000.0 9035760000.0 9035760000.0 9035760000.0 9035760000.0 9035760000.0 9035750000.0 9035750000.0 9035750000.0 9035750000.0 9035750000.0 9048220000.0 9035750000.0 9035750000.0 9035750000.0 9035750000.0 9035750000.0 9035760000.0 9035760000.0 9035760000.0 9035760000.0 9035760000.0 9035760000.0 9035760000.0 9035760000.0 40698400000.0 9035760000.0 57647000000.0 9035760000.0 47689400000.0 9035770000.0 49093300000.0 8574220000.0 34869000000.0 6882320000.0 33823600000.0 83827300000.0 82433500000.0 95878600000.0 101580000000.0 143608000000.0 181279000000.0 28612500000.0 23532100000.0 46988000000.0 45129500000.0 50690000000.0 32799200000.0 61870800000.0 56940600000.0 38248200000.0 48145000000.0 43737900000.0 42961300000.0 27331800000.0 34997000000.0 165944000000.0 138021000000.0 102765000000.0 97953900000.0 81720700000.0 76103500000.0 32920700000.0 9035790000.0 36851800000.0 9035780000.0 46720400000.0 9035790000.0 44615400000.0 9035780000.0 50353400000.0 9035770000.0 34352800000.0 9035770000.0 9035770000.0 9035760000.0 9035760000.0 9035760000.0 9035760000.0 9035760000.0 9035760000.0 9035760000.0 9035750000.0 9035750000.0 9035750000.0 9035750000.0 9044270000.0 9035750000.0 9035750000.0 9035750000.0 9035750000.0 9035760000.0 9035760000.0 9035760000.0 9035760000.0 9035760000.0 9035760000.0 9035760000.0 9035770000.0 9035770000.0 34352800000.0 9035770000.0 50353400000.0 9035780000.0 44615400000.0 9035790000.0 46720400000.0 9035780000.0 36851800000.0 9035790000.0 32920700000.0 76103500000.0 81720700000.0 97953900000.0 102765000000.0 138021000000.0 165944000000.0 34997000000.0 27331800000.0 42961300000.0 43737900000.0 48145000000.0 38248200000.0 56940600000.0 52465200000.0 42817500000.0 46922600000.0 42818600000.0 41375100000.0 31522800000.0 41675300000.0 150621000000.0 128917000000.0 99095000000.0 94279000000.0 76275000000.0 64914500000.0 31312400000.0 9035870000.0 36984400000.0 9035830000.0 44251400000.0 9035820000.0 41580700000.0 9035800000.0 43937700000.0 9035780000.0 28922200000.0 9035780000.0 9035770000.0 9035770000.0 9035770000.0 9035760000.0 9035760000.0 9035760000.0 9035760000.0 9035760000.0 9035760000.0 9035750000.0 9035750000.0 9035750000.0 9041440000.0 9035750000.0 9035750000.0 9035750000.0 9035760000.0 9035760000.0 9035760000.0 9035760000.0 9035760000.0 9035760000.0 9035770000.0 9035770000.0 9035770000.0 9035780000.0 28922200000.0 9035780000.0 43937700000.0 9035800000.0 41580700000.0 9035820000.0 44251400000.0 9035830000.0 36984400000.0 9035870000.0 31312400000.0 64914500000.0 76275000000.0 94279000000.0 99095000000.0 128917000000.0 150621000000.0 41675300000.0 31522800000.0 41375100000.0 42818600000.0 46922600000.0 42817500000.0 52465200000.0 48537600000.0 46062100000.0 45823000000.0 41645900000.0 40497100000.0 34432700000.0 46731400000.0 135403000000.0 119220000000.0 94497900000.0 89336500000.0 70683000000.0 54988300000.0 30546700000.0 9035940000.0 36620700000.0 9035880000.0 41719000000.0 9035840000.0 38574200000.0 9035810000.0 38307500000.0 9035790000.0 24387600000.0 9035780000.0 9035780000.0 9035770000.0 9035770000.0 9035770000.0 9035760000.0 9035760000.0 9035760000.0 9035760000.0 9035760000.0 9035750000.0 9035750000.0 9035750000.0 9039470000.0 9035750000.0 9035750000.0 9035750000.0 9035760000.0 9035760000.0 9035760000.0 9035760000.0 9035760000.0 9035770000.0 9035770000.0 9035770000.0 9035780000.0 9035780000.0 24387600000.0 9035790000.0 38307500000.0 9035810000.0 38574200000.0 9035840000.0 41719000000.0 9035880000.0 36620700000.0 9035940000.0 30546700000.0 54988300000.0 70683000000.0 89336500000.0 94497900000.0 119220000000.0 135403000000.0 46731400000.0 34432700000.0 40497100000.0 41645900000.0 45823000000.0 46062100000.0 48537600000.0 45380800000.0 48216800000.0 44824900000.0 40639400000.0 40239000000.0 36642500000.0 50709400000.0 121067000000.0 109462000000.0 89344700000.0 83583600000.0 65154500000.0 46496200000.0 29791200000.0 9036010000.0 35842400000.0 9035920000.0 39151200000.0 9035870000.0 35609200000.0 9035830000.0 33372700000.0 9035800000.0 20681300000.0 9035790000.0 9035780000.0 9035780000.0 9035770000.0 9035770000.0 9035760000.0 9035760000.0 9035760000.0 9035760000.0 9035760000.0 9035750000.0 9035750000.0 9035750000.0 9038130000.0 9035750000.0 9035750000.0 9035750000.0 9035760000.0 9035760000.0 9035760000.0 9035760000.0 9035760000.0 9035770000.0 9035770000.0 9035780000.0 9035780000.0 9035790000.0 20681300000.0 9035800000.0 33372700000.0 9035830000.0 35609200000.0 9035870000.0 39151200000.0 9035920000.0 35842400000.0 9036010000.0 29791200000.0 46496200000.0 65154500000.0 83583600000.0 89344700000.0 109462000000.0 121067000000.0 50709400000.0 36642500000.0 40239000000.0 40639400000.0 44824900000.0 48216800000.0 45380800000.0 39754900000.0 40021400000.0 100050000000.0 77417700000.0 59832600000.0 39367000000.0 28885600000.0 9036080000.0 34747400000.0 9035960000.0 36594900000.0 9035890000.0 32718900000.0 9035840000.0 29065300000.0 9035810000.0 17712400000.0 9035790000.0 9035790000.0 9035780000.0 9035770000.0 9035770000.0 9035770000.0 9035760000.0 9035760000.0 9035760000.0 9035760000.0 9035750000.0 9035750000.0 9035750000.0 9037230000.0 9035750000.0 9035750000.0 9035750000.0 9035760000.0 9035760000.0 9035760000.0 9035760000.0 9035770000.0 9035770000.0 9035770000.0 9035780000.0 9035790000.0 9035790000.0 17712400000.0 9035810000.0 29065300000.0 9035840000.0 32718900000.0 9035890000.0 36594900000.0 9035960000.0 34747400000.0 9036080000.0 28885600000.0 39367000000.0 59832600000.0 77417700000.0 100050000000.0 40021400000.0 39754900000.0 42940700000.0 49394200000.0 43833000000.0 38278300000.0 53611000000.0 108030000000.0 84053700000.0 84053700000.0 108030000000.0 53611000000.0 38278300000.0 43833000000.0 49394200000.0 42940700000.0 41061800000.0 49765300000.0 42855600000.0 38857700000.0 39479600000.0 39452500000.0 55500800000.0 96528500000.0 91225800000.0 78866100000.0 71134000000.0 54809800000.0 33468100000.0 27903100000.0 9036140000.0 33430100000.0 9036000000.0 34104200000.0 9035910000.0 29946000000.0 9035850000.0 25335800000.0 9035820000.0 15381300000.0 9035800000.0 9035790000.0 9035780000.0 9035780000.0 9035770000.0 9035770000.0 9035760000.0 9035760000.0 9035760000.0 9035760000.0 9035760000.0 9035750000.0 9035750000.0 9036640000.0 9035750000.0 9035750000.0 9035760000.0 9035760000.0 9035760000.0 9035760000.0 9035760000.0 9035770000.0 9035770000.0 9035780000.0 9035780000.0 9035790000.0 9035800000.0 15381300000.0 9035820000.0 25335800000.0 9035850000.0 29946000000.0 9035910000.0 34104200000.0 9036000000.0 33430100000.0 9036140000.0 27903100000.0 33468100000.0 54809800000.0 71134000000.0 78866100000.0 91225800000.0 96528500000.0 55500800000.0 39452500000.0 39479600000.0 38857700000.0 42855600000.0 49765300000.0 41061800000.0 39591700000.0 49523800000.0 41911500000.0 37809100000.0 38508600000.0 40239400000.0 56489400000.0 86559500000.0 83100600000.0 73904000000.0 64965600000.0 50163800000.0 28643300000.0 26926600000.0 9036200000.0 31973500000.0 9036030000.0 31720500000.0 9035920000.0 27330500000.0 9035860000.0 22140500000.0 9035820000.0 13587800000.0 9035800000.0 9035790000.0 9035780000.0 9035780000.0 9035770000.0 9035770000.0 9035770000.0 9035760000.0 9035760000.0 9035760000.0 9035760000.0 9035750000.0 9035750000.0 9036270000.0 9035750000.0 9035750000.0 9035760000.0 9035760000.0 9035760000.0 9035760000.0 9035770000.0 9035770000.0 9035770000.0 9035780000.0 9035780000.0 9035790000.0 9035800000.0 13587800000.0 9035820000.0 22140500000.0 9035860000.0 27330500000.0 9035920000.0 31720500000.0 9036030000.0 31973500000.0 9036200000.0 26926600000.0 28643300000.0 50163800000.0 64965600000.0 73904000000.0 83100600000.0 86559500000.0 56489400000.0 40239400000.0 38508600000.0 37809100000.0 41911500000.0 49523800000.0 39591700000.0 38406900000.0 48844000000.0 40976800000.0 36554100000.0 37155700000.0 40685200000.0 56706400000.0 77992700000.0 75694300000.0 69225700000.0 59076700000.0 45942400000.0 24727700000.0 25995900000.0 9036250000.0 30444500000.0 9036050000.0 29467600000.0 9035940000.0 24902300000.0 9035870000.0 19435600000.0 9035830000.0 12236000000.0 9035800000.0 9035790000.0 9035790000.0 9035780000.0 9035770000.0 9035770000.0 9035770000.0 9035760000.0 9035760000.0 9035760000.0 9035760000.0 9035750000.0 9035750000.0 9036050000.0 9035750000.0 9035750000.0 9035760000.0 9035760000.0 9035760000.0 9035760000.0 9035770000.0 9035770000.0 9035770000.0 9035780000.0 9035790000.0 9035790000.0 9035800000.0 12236000000.0 9035830000.0 19435600000.0 9035870000.0 24902300000.0 9035940000.0 29467600000.0 9036050000.0 30444500000.0 9036250000.0 25995900000.0 24727700000.0 45942400000.0 59076700000.0 69225700000.0 75694300000.0 77992700000.0 56706400000.0 40685200000.0 37155700000.0 36554100000.0 40976800000.0 48844000000.0 38406900000.0 37410100000.0 47859400000.0 40009200000.0 35119500000.0 35521900000.0 40821000000.0 56280500000.0 70670300000.0 68976900000.0 64846600000.0 53565400000.0 42157800000.0 21563800000.0 25117200000.0 9036300000.0 28893100000.0 9036080000.0 27356000000.0 9035950000.0 22680000000.0 9035880000.0 17175800000.0 9035830000.0 11238500000.0 9035810000.0 9035800000.0 9035790000.0 9035780000.0 9035780000.0 9035770000.0 9035770000.0 9035760000.0 9035760000.0 9035760000.0 9035760000.0 9035750000.0 9035750000.0 9035910000.0 9035750000.0 9035750000.0 9035760000.0 9035760000.0 9035760000.0 9035760000.0 9035770000.0 9035770000.0 9035780000.0 9035780000.0 9035790000.0 9035800000.0 9035810000.0 11238500000.0 9035830000.0 17175800000.0 9035880000.0 22680000000.0 9035950000.0 27356000000.0 9036080000.0 28893100000.0 9036300000.0 25117200000.0 21563800000.0 42157800000.0 53565400000.0 64846600000.0 68976900000.0 70670300000.0 56280500000.0 40821000000.0 35521900000.0 35119500000.0 40009200000.0 47859400000.0 37410100000.0 36526500000.0 46662000000.0 38989200000.0 33569900000.0 33712400000.0 40674100000.0 55329900000.0 64437000000.0 62898700000.0 60754300000.0 48481000000.0 38792300000.0 19011600000.0 24280900000.0 9036340000.0 27356000000.0 9036100000.0 25388800000.0 9035960000.0 20672000000.0 9035890000.0 15315100000.0 9035840000.0 10518400000.0 9035810000.0 9035800000.0 9035790000.0 9035780000.0 9035780000.0 9035770000.0 9035770000.0 9035760000.0 9035760000.0 9035760000.0 9035760000.0 9035750000.0 9035750000.0 9035840000.0 9035750000.0 9035750000.0 9035760000.0 9035760000.0 9035760000.0 9035760000.0 9035770000.0 9035770000.0 9035780000.0 9035780000.0 9035790000.0 9035800000.0 9035810000.0 10518400000.0 9035840000.0 15315100000.0 9035890000.0 20672000000.0 9035960000.0 25388800000.0 9036100000.0 27356000000.0 9036340000.0 24280900000.0 19011600000.0 38792300000.0 48481000000.0 60754300000.0 62898700000.0 64437000000.0 55329900000.0 40674100000.0 33712400000.0 33569900000.0 38989200000.0 46662000000.0 36526500000.0 35703200000.0 45313100000.0 37926200000.0 31974500000.0 31819500000.0 40273700000.0 53960900000.0 59142200000.0 57406600000.0 56925400000.0 43840500000.0 35810000000.0 16952400000.0 23473900000.0 9036370000.0 25858600000.0 9036110000.0 23565600000.0 9035970000.0 18878800000.0 9035890000.0 13806700000.0 9035840000.0 10010200000.0 9035810000.0 9035800000.0 9035790000.0 9035780000.0 9035780000.0 9035770000.0 9035770000.0 9035760000.0 9035760000.0 9035760000.0 9035760000.0 9035750000.0 9035750000.0 9035790000.0 9035750000.0 9035750000.0 9035760000.0 9035760000.0 9035760000.0 9035760000.0 9035770000.0 9035770000.0 9035780000.0 9035780000.0 9035790000.0 9035800000.0 9035810000.0 10010200000.0 9035840000.0 13806700000.0 9035890000.0 18878800000.0 9035970000.0 23565600000.0 9036110000.0 25858600000.0 9036370000.0 23473900000.0 16952400000.0 35810000000.0 43840500000.0 56925400000.0 57406600000.0 59142200000.0 53960900000.0 40273700000.0 31819500000.0 31974500000.0 37926200000.0 45313100000.0 35703200000.0 34907100000.0 43855800000.0 36842500000.0 30392600000.0 29918200000.0 39652500000.0 52267800000.0 54639900000.0 52449000000.0 53335600000.0 39640200000.0 33167200000.0 15288300000.0 22684600000.0 9036400000.0 24418100000.0 9036130000.0 21884100000.0 9035980000.0 17294400000.0 9035900000.0 12604200000.0 9035840000.0 9660200000.0 9035810000.0 9035800000.0 9035790000.0 9035780000.0 9035780000.0 9035770000.0 9035770000.0 9035760000.0 9035760000.0 9035760000.0 9035760000.0 9035750000.0 9035750000.0 9035770000.0 9035750000.0 9035750000.0 9035760000.0 9035760000.0 9035760000.0 9035760000.0 9035770000.0 9035770000.0 9035780000.0 9035780000.0 9035790000.0 9035800000.0 9035810000.0 9660200000.0 9035840000.0 12604200000.0 9035900000.0 17294400000.0 9035980000.0 21884100000.0 9036130000.0 24418100000.0 9036400000.0 22684600000.0 15288300000.0 33167200000.0 39640200000.0 53335600000.0 52449000000.0 54639900000.0 52267800000.0 39652500000.0 29918200000.0 30392600000.0 36842500000.0 43855800000.0 34907100000.0 34119300000.0 42321700000.0 35758500000.0 28869000000.0 28066600000.0 38846100000.0 50332800000.0 50790800000.0 47975200000.0 49962400000.0 35862200000.0 30819400000.0 13941100000.0 21905100000.0 9036430000.0 23045500000.0 9036140000.0 20341300000.0 9035990000.0 15908300000.0 9035900000.0 11662100000.0 9035850000.0 9425170000.0 9035810000.0 9035800000.0 9035790000.0 9035780000.0 9035780000.0 9035770000.0 9035770000.0 9035760000.0 9035760000.0 9035760000.0 9035760000.0 9035750000.0 9035750000.0 9035760000.0 9035750000.0 9035750000.0 9035760000.0 9035760000.0 9035760000.0 9035760000.0 9035770000.0 9035770000.0 9035780000.0 9035780000.0 9035790000.0 9035800000.0 9035810000.0 9425170000.0 9035850000.0 11662100000.0 9035900000.0 15908300000.0 9035990000.0 20341300000.0 9036140000.0 23045500000.0 9036430000.0 21905100000.0 13941100000.0 30819400000.0 35862200000.0 49962400000.0 47975200000.0 50790800000.0 50332800000.0 38846100000.0 28066600000.0 28869000000.0 35758500000.0 42321700000.0 34119300000.0 33328800000.0 40736200000.0 34685700000.0 27433600000.0 26307100000.0 37890500000.0 48226400000.0 47465900000.0 43935000000.0 46786200000.0 32480000000.0 28724900000.0 12850100000.0 21131900000.0 9036450000.0 21746800000.0 9036150000.0 18933000000.0 9035990000.0 14707000000.0 9035910000.0 10937200000.0 9035850000.0 9271600000.0 9035820000.0 9035800000.0 9035790000.0 9035780000.0 9035780000.0 9035770000.0 9035770000.0 9035760000.0 9035760000.0 9035760000.0 9035760000.0 9035750000.0 9035750000.0 9035760000.0 9035750000.0 9035750000.0 9035760000.0 9035760000.0 9035760000.0 9035760000.0 9035770000.0 9035770000.0 9035780000.0 9035780000.0 9035790000.0 9035800000.0 9035820000.0 9271600000.0 9035850000.0 10937200000.0 9035910000.0 14707000000.0 9035990000.0 18933000000.0 9036150000.0 21746800000.0 9036450000.0 21131900000.0 12850100000.0 28724900000.0 32480000000.0 46786200000.0 43935000000.0 47465900000.0 48226400000.0 37890500000.0 26307100000.0 27433600000.0 34685700000.0 40736200000.0 33328800000.0 32527900000.0 39120200000.0 33627100000.0 26103400000.0 24668100000.0 36819800000.0 46007900000.0 44550800000.0 40280300000.0 43789900000.0 29462900000.0 26847200000.0 11969000000.0 20364300000.0 9036460000.0 20525400000.0 9036160000.0 17654600000.0 9036000000.0 13675400000.0 9035910000.0 10389300000.0 9035850000.0 9174150000.0 9035820000.0 9035800000.0 9035790000.0 9035790000.0 9035780000.0 9035770000.0 9035770000.0 9035760000.0 9035760000.0 9035760000.0 9035760000.0 9035750000.0 9035750000.0 9035750000.0 9035750000.0 9035750000.0 9035760000.0 9035760000.0 9035760000.0 9035760000.0 9035770000.0 9035770000.0 9035780000.0 9035790000.0 9035790000.0 9035800000.0 9035820000.0 9174150000.0 9035850000.0 10389300000.0 9035910000.0 13675400000.0 9036000000.0 17654600000.0 9036160000.0 20525400000.0 9036460000.0 20364300000.0 11969000000.0 26847200000.0 29462900000.0 43789900000.0 40280300000.0 44550800000.0 46007900000.0 36819800000.0 24668100000.0 26103400000.0 33627100000.0 39120200000.0 32527900000.0 31711200000.0 37491500000.0 32580200000.0 24884200000.0 23165500000.0 35664200000.0 43726800000.0 41949300000.0 36967100000.0 40960000000.0 26778600000.0 25155900000.0 11262200000.0 19604200000.0 9036470000.0 19382400000.0 9036160000.0 16500900000.0 9036000000.0 12797700000.0 9035910000.0 9982900000.0 9035850000.0 9114230000.0 9035820000.0 9035800000.0 9035790000.0 9035780000.0 9035780000.0 9035770000.0 9035770000.0 9035760000.0 9035760000.0 9035760000.0 9035760000.0 9035750000.0 9035750000.0 9035750000.0 9035750000.0 9035750000.0 9035760000.0 9035760000.0 9035760000.0 9035760000.0 9035770000.0 9035770000.0 9035780000.0 9035780000.0 9035790000.0 9035800000.0 9035820000.0 9114230000.0 9035850000.0 9982900000.0 9035910000.0 12797700000.0 9036000000.0 16500900000.0 9036160000.0 19382400000.0 9036470000.0 19604200000.0 11262200000.0 25155900000.0 26778600000.0 40960000000.0 36967100000.0 41949300000.0 43726800000.0 35664200000.0 23165500000.0 24884200000.0 32580200000.0 37491500000.0 31711200000.0 30874400000.0 35865100000.0 31539600000.0 23774000000.0 21805200000.0 34449400000.0 41423800000.0 39584700000.0 33956500000.0 38286800000.0 24396100000.0 23625700000.0 10700900000.0 18854900000.0 9036470000.0 18317500000.0 9036160000.0 15466000000.0 9036000000.0 12058100000.0 9035910000.0 9686930000.0 9035850000.0 9078620000.0 9035810000.0 9035800000.0 9035790000.0 9035780000.0 9035780000.0 9035770000.0 9035770000.0 9035760000.0 9035760000.0 9035760000.0 9035760000.0 9035750000.0 9035750000.0 9035750000.0 9035750000.0 9035750000.0 9035760000.0 9035760000.0 9035760000.0 9035760000.0 9035770000.0 9035770000.0 9035780000.0 9035780000.0 9035790000.0 9035800000.0 9035810000.0 9078620000.0 9035850000.0 9686930000.0 9035910000.0 12058100000.0 9036000000.0 15466000000.0 9036160000.0 18317500000.0 9036470000.0 18854900000.0 10700900000.0 23625700000.0 24396100000.0 38286800000.0 33956500000.0 39584700000.0 41423800000.0 34449400000.0 21805200000.0 23774000000.0 31539600000.0 35865100000.0 30874400000.0 30014900000.0 34253800000.0 30499800000.0 22764900000.0 20585000000.0 33196400000.0 39132200000.0 37399200000.0 31216200000.0 35764100000.0 22286300000.0 22236100000.0 10261300000.0 18120300000.0 9036470000.0 17329800000.0 9036160000.0 14543400000.0 9036000000.0 11441100000.0 9035910000.0 9475440000.0 9035850000.0 9058240000.0 9035810000.0 9035800000.0 9035790000.0 9035780000.0 9035780000.0 9035770000.0 9035770000.0 9035760000.0 9035760000.0 9035760000.0 9035760000.0 9035750000.0 9035750000.0 9035750000.0 9035750000.0 9035750000.0 9035760000.0 9035760000.0 9035760000.0 9035760000.0 9035770000.0 9035770000.0 9035780000.0 9035780000.0 9035790000.0 9035800000.0 9035810000.0 9058240000.0 9035850000.0 9475440000.0 9035910000.0 11441100000.0 9036000000.0 14543400000.0 9036160000.0 17329800000.0 9036470000.0 18120300000.0 10261300000.0 22236100000.0 22286300000.0 35764100000.0 31216200000.0 37399200000.0 39132200000.0 33196400000.0 20585000000.0 22764900000.0 30499800000.0 34253800000.0 30014900000.0 29131300000.0 32668100000.0 29456100000.0 21845900000.0 19497000000.0 31921800000.0 36878300000.0 35351400000.0 28719500000.0 33388200000.0 20422600000.0 20970300000.0 9922680000.0 17404600000.0 9036460000.0 16417500000.0 9036160000.0 13726200000.0 9035990000.0 10931500000.0 9035900000.0 9327210000.0 9035850000.0 9047050000.0 9035810000.0 9035800000.0 9035790000.0 9035780000.0 9035780000.0 9035770000.0 9035770000.0 9035760000.0 9035760000.0 9035760000.0 9035760000.0 9035750000.0 9035750000.0 9035750000.0 9035750000.0 9035750000.0 9035760000.0 9035760000.0 9035760000.0 9035760000.0 9035770000.0 9035770000.0 9035780000.0 9035780000.0 9035790000.0 9035800000.0 9035810000.0 9047050000.0 9035850000.0 9327210000.0 9035900000.0 10931500000.0 9035990000.0 13726200000.0 9036160000.0 16417500000.0 9036460000.0 17404600000.0 9922680000.0 20970300000.0 20422600000.0 33388200000.0 28719500000.0 35351400000.0 36878300000.0 31921800000.0 19497000000.0 21845900000.0 29456100000.0 32668100000.0 29131300000.0 28406000000.0 21004500000.0 18529800000.0 34683200000.0 33413300000.0 26444900000.0 31157200000.0 18781200000.0 19814600000.0 9666550000.0 16711800000.0 9036460000.0 15578600000.0 9036150000.0 13007200000.0 9035990000.0 10515200000.0 9035900000.0 9225320000.0 9035840000.0 9041170000.0 9035810000.0 9035800000.0 9035790000.0 9035780000.0 9035780000.0 9035770000.0 9035770000.0 9035760000.0 9035760000.0 9035760000.0 9035760000.0 9035750000.0 9035750000.0 9035750000.0 9035750000.0 9035750000.0 9035760000.0 9035760000.0 9035760000.0 9035760000.0 9035770000.0 9035770000.0 9035780000.0 9035780000.0 9035790000.0 9035800000.0 9035810000.0 9041170000.0 9035840000.0 9225320000.0 9035900000.0 10515200000.0 9035990000.0 13007200000.0 9036150000.0 15578600000.0 9036460000.0 16711800000.0 9666550000.0 19814600000.0 18781200000.0 31157200000.0 26444900000.0 33413300000.0 34683200000.0 18529800000.0 21004500000.0 28406000000.0 28224000000.0 31116600000.0 30638600000.0 30638600000.0 31116600000.0 28224000000.0 27294100000.0 29605800000.0 27348700000.0 20227900000.0 17669600000.0 29356600000.0 32562600000.0 31567300000.0 24375100000.0 29069500000.0 17340100000.0 18758000000.0 9476510000.0 16045400000.0 9036440000.0 14810600000.0 9036140000.0 12378800000.0 9035980000.0 10178700000.0 9035900000.0 9156680000.0 9035840000.0 9038230000.0 9035810000.0 9035800000.0 9035790000.0 9035780000.0 9035780000.0 9035770000.0 9035770000.0 9035760000.0 9035760000.0 9035760000.0 9035760000.0 9035750000.0 9035750000.0 9035750000.0 9035750000.0 9035750000.0 9035760000.0 9035760000.0 9035760000.0 9035760000.0 9035770000.0 9035770000.0 9035780000.0 9035780000.0 9035790000.0 9035800000.0 9035810000.0 9038230000.0 9035840000.0 9156680000.0 9035900000.0 10178700000.0 9035980000.0 12378800000.0 9036140000.0 14810600000.0 9036440000.0 16045400000.0 9476510000.0 18758000000.0 17340100000.0 29069500000.0 24375100000.0 31567300000.0 32562600000.0 29356600000.0 17669600000.0 20227900000.0 27348700000.0 29605800000.0 27294100000.0 26343900000.0 28140400000.0 26285000000.0 19503800000.0 16902200000.0 28083300000.0 30528100000.0 29803000000.0 22496000000.0 27123100000.0 16079800000.0 17790900000.0 9338250000.0 15408700000.0 9036420000.0 14110800000.0 9036130000.0 11833300000.0 9035980000.0 9909710000.0 9035890000.0 9111370000.0 9035840000.0 9036840000.0 9035810000.0 9035800000.0 9035790000.0 9035780000.0 9035780000.0 9035770000.0 9035770000.0 9035760000.0 9035760000.0 9035760000.0 9035760000.0 9035750000.0 9035750000.0 9035750000.0 9035750000.0 9035750000.0 9035760000.0 9035760000.0 9035760000.0 9035760000.0 9035770000.0 9035770000.0 9035780000.0 9035780000.0 9035790000.0 9035800000.0 9035810000.0 9036840000.0 9035840000.0 9111370000.0 9035890000.0 9909710000.0 9035980000.0 11833300000.0 9036130000.0 14110800000.0 9036420000.0 15408700000.0 9338250000.0 17790900000.0 16079800000.0 27123100000.0 22496000000.0 29803000000.0 30528100000.0 28083300000.0 16902200000.0 19503800000.0 26285000000.0 28140400000.0 26343900000.0 25376000000.0 26723600000.0 25217000000.0 18821000000.0 16213500000.0 26824100000.0 28587600000.0 28114800000.0 20795300000.0 25315300000.0 14982200000.0 16905300000.0 9239630000.0 14803900000.0 9036400000.0 13476200000.0 9036120000.0 11362900000.0 9035970000.0 9697050000.0 9035890000.0 9082080000.0 9035840000.0 9036230000.0 9035810000.0 9035800000.0 9035790000.0 9035780000.0 9035770000.0 9035770000.0 9035770000.0 9035760000.0 9035760000.0 9035760000.0 9035760000.0 9035750000.0 9035750000.0 9035750000.0 9035750000.0 9035750000.0 9035760000.0 9035760000.0 9035760000.0 9035760000.0 9035770000.0 9035770000.0 9035770000.0 9035780000.0 9035790000.0 9035800000.0 9035810000.0 9036230000.0 9035840000.0 9082080000.0 9035890000.0 9697050000.0 9035970000.0 11362900000.0 9036120000.0 13476200000.0 9036400000.0 14803900000.0 9239630000.0 16905300000.0 14982200000.0 25315300000.0 20795300000.0 28114800000.0 28587600000.0 26824100000.0 16213500000.0 18821000000.0 25217000000.0 26723600000.0 25376000000.0 24393500000.0 25356900000.0 24147600000.0 18169900000.0 15590500000.0 25582900000.0 26746200000.0 26500000000.0 19262300000.0 23642100000.0 14030700000.0 16094100000.0 9170680000.0 14232800000.0 9036380000.0 12903400000.0 9036110000.0 10960200000.0 9035960000.0 9530840000.0 9035880000.0 9063550000.0 9035830000.0 9035970000.0 9035800000.0 9035790000.0 9035790000.0 9035780000.0 9035770000.0 9035770000.0 9035770000.0 9035760000.0 9035760000.0 9035760000.0 9035760000.0 9035750000.0 9035750000.0 9035750000.0 9035750000.0 9035750000.0 9035760000.0 9035760000.0 9035760000.0 9035760000.0 9035770000.0 9035770000.0 9035770000.0 9035780000.0 9035790000.0 9035790000.0 9035800000.0 9035970000.0 9035830000.0 9063550000.0 9035880000.0 9530840000.0 9035960000.0 10960200000.0 9036110000.0 12903400000.0 9036380000.0 14232800000.0 9170680000.0 16094100000.0 14030700000.0 23642100000.0 19262300000.0 26500000000.0 26746200000.0 25582900000.0 15590500000.0 18169900000.0 24147600000.0 25356900000.0 24393500000.0 23399500000.0 24040500000.0 23080200000.0 17542300000.0 15021200000.0 24362400000.0 25006600000.0 24957100000.0 17886400000.0 22098100000.0 13210000000.0 15350600000.0 9123440000.0 13696300000.0 9036350000.0 12389000000.0 9036090000.0 10617600000.0 9035950000.0 9402400000.0 9035870000.0 9052080000.0 9035830000.0 9035870000.0 9035800000.0 9035790000.0 9035780000.0 9035780000.0 9035770000.0 9035770000.0 9035760000.0 9035760000.0 9035760000.0 9035760000.0 9035760000.0 9035750000.0 9035750000.0 9035750000.0 9035750000.0 9035750000.0 9035760000.0 9035760000.0 9035760000.0 9035760000.0 9035760000.0 9035770000.0 9035770000.0 9035780000.0 9035780000.0 9035790000.0 9035800000.0 9035870000.0 9035830000.0 9052080000.0 9035870000.0 9402400000.0 9035950000.0 10617600000.0 9036090000.0 12389000000.0 9036350000.0 13696300000.0 9123440000.0 15350600000.0 13210000000.0 22098100000.0 17886400000.0 24957100000.0 25006600000.0 24362400000.0 15021200000.0 17542300000.0 23080200000.0 24040500000.0 23399500000.0 22397300000.0 22773600000.0 22018300000.0 16931400000.0 14495600000.0 23164300000.0 23369300000.0 23485200000.0 16657400000.0 20676600000.0 12505900000.0 14669000000.0 9091710000.0 13194700000.0 9036320000.0 11929000000.0 9036070000.0 10328200000.0 9035940000.0 9304290000.0 9035870000.0 9045140000.0 9035820000.0 9035830000.0 9035800000.0 9035790000.0 9035780000.0 9035780000.0 9035770000.0 9035770000.0 9035760000.0 9035760000.0 9035760000.0 9035760000.0 9035760000.0 9035750000.0 9035750000.0 9035750000.0 9035750000.0 9035750000.0 9035760000.0 9035760000.0 9035760000.0 9035760000.0 9035760000.0 9035770000.0 9035770000.0 9035780000.0 9035780000.0 9035790000.0 9035800000.0 9035830000.0 9035820000.0 9045140000.0 9035870000.0 9304290000.0 9035940000.0 10328200000.0 9036070000.0 11929000000.0 9036320000.0 13194700000.0 9091710000.0 14669000000.0 12505900000.0 20676600000.0 16657400000.0 23485200000.0 23369300000.0 23164300000.0 14495600000.0 16931400000.0 22018300000.0 22773600000.0 22397300000.0 21389700000.0 21554500000.0 20965200000.0 16332100000.0 14004800000.0 21989700000.0 21833500000.0 22083400000.0 15564800000.0 19369900000.0 11905000000.0 14043300000.0 9070850000.0 12727500000.0 9036290000.0 11519700000.0 9036060000.0 10085300000.0 9035930000.0 9230240000.0 9035860000.0 9041030000.0 9035820000.0 9035810000.0 9035800000.0 9035790000.0 9035780000.0 9035770000.0 9035770000.0 9035770000.0 9035760000.0 9035760000.0 9035760000.0 9035760000.0 9035750000.0 9035750000.0 9035750000.0 9035750000.0 9035750000.0 9035750000.0 9035750000.0 9035760000.0 9035760000.0 9035760000.0 9035760000.0 9035770000.0 9035770000.0 9035770000.0 9035780000.0 9035790000.0 9035800000.0 9035810000.0 9035820000.0 9041030000.0 9035860000.0 9230240000.0 9035930000.0 10085300000.0 9036060000.0 11519700000.0 9036290000.0 12727500000.0 9070850000.0 14043300000.0 11905000000.0 19369900000.0 15564800000.0 22083400000.0 21833500000.0 21989700000.0 14004800000.0 16332100000.0 20965200000.0 21554500000.0 21389700000.0 20379600000.0 20380600000.0 19923600000.0 15740200000.0 13541600000.0 20839100000.0 20396400000.0 20749800000.0 14598000000.0 18169300000.0 11394900000.0 13468300000.0 9057400000.0 12294000000.0 9036260000.0 11156900000.0 9036040000.0 9882700000.0 9035920000.0 9175000000.0 9035850000.0 9038660000.0 9035820000.0 9035800000.0 9035790000.0 9035780000.0 9035780000.0 9035770000.0 9035770000.0 9035770000.0 9035760000.0 9035760000.0 9035760000.0 9035760000.0 9035750000.0 9035750000.0 9035750000.0 9035750000.0 9035750000.0 9035750000.0 9035750000.0 9035760000.0 9035760000.0 9035760000.0 9035760000.0 9035770000.0 9035770000.0 9035770000.0 9035780000.0 9035780000.0 9035790000.0 9035800000.0 9035820000.0 9038660000.0 9035850000.0 9175000000.0 9035920000.0 9882700000.0 9036040000.0 11156900000.0 9036260000.0 12294000000.0 9057400000.0 13468300000.0 11394900000.0 18169300000.0 14598000000.0 20749800000.0 20396400000.0 20839100000.0 13541600000.0 15740200000.0 19923600000.0 20380600000.0 20379600000.0 19369300000.0 19248900000.0 18896100000.0 15152800000.0 13100100000.0 19712400000.0 19054400000.0 19482100000.0 13745900000.0 17065600000.0 10964200000.0 12938700000.0 9048920000.0 11892800000.0 9036220000.0 10836500000.0 9036010000.0 9714820000.0 9035910000.0 9134290000.0 9035850000.0 9037330000.0 9035810000.0 9035800000.0 9035790000.0 9035780000.0 9035780000.0 9035770000.0 9035770000.0 9035760000.0 9035760000.0 9035760000.0 9035760000.0 9035760000.0 9035750000.0 9035750000.0 9035750000.0 9035750000.0 9035750000.0 9035750000.0 9035750000.0 9035760000.0 9035760000.0 9035760000.0 9035760000.0 9035760000.0 9035770000.0 9035770000.0 9035780000.0 9035780000.0 9035790000.0 9035800000.0 9035810000.0 9037330000.0 9035850000.0 9134290000.0 9035910000.0 9714820000.0 9036010000.0 10836500000.0 9036220000.0 11892800000.0 9048920000.0 12938700000.0 10964200000.0 17065600000.0 13745900000.0 19482100000.0 19054400000.0 19712400000.0 13100100000.0 15152800000.0 18896100000.0 19248900000.0 19369300000.0 18360700000.0 18156100000.0 17884200000.0 14567900000.0 12675700000.0 18609200000.0 17802500000.0 18277100000.0 12997600000.0 16049300000.0 10602100000.0 12449800000.0 9043680000.0 11522000000.0 9036180000.0 10554400000.0 9035990000.0 9576490000.0 9035890000.0 9104650000.0 9035840000.0 9036590000.0 9035810000.0 9035800000.0 9035790000.0 9035780000.0 9035770000.0 9035770000.0 9035770000.0 9035760000.0 9035760000.0 9035760000.0 9035760000.0 9035760000.0 9035750000.0 9035750000.0 9035750000.0 9035750000.0 9035750000.0 9035750000.0 9035750000.0 9035760000.0 9035760000.0 9035760000.0 9035760000.0 9035760000.0 9035770000.0 9035770000.0 9035770000.0 9035780000.0 9035790000.0 9035800000.0 9035810000.0 9036590000.0 9035840000.0 9104650000.0 9035890000.0 9576490000.0 9035990000.0 10554400000.0 9036180000.0 11522000000.0 9043680000.0 12449800000.0 10602100000.0 16049300000.0 12997600000.0 18277100000.0 17802500000.0 18609200000.0 12675700000.0 14567900000.0 17884200000.0 18156100000.0 18360700000.0 17355500000.0 17098500000.0 16889000000.0 13984100000.0 12264600000.0 17528500000.0 16635000000.0 17131100000.0 12341800000.0 15110700000.0 10298900000.0 11996900000.0 9040510000.0 11179500000.0 9036140000.0 10306300000.0 9035970000.0 9463090000.0 9035880000.0 9083340000.0 9035830000.0 9036200000.0 9035800000.0 9035790000.0 9035780000.0 9035780000.0 9035770000.0 9035770000.0 9035770000.0 9035760000.0 9035760000.0 9035760000.0 9035760000.0 9035760000.0 9035750000.0 9035750000.0 9035750000.0 9035750000.0 9035750000.0 9035750000.0 9035750000.0 9035760000.0 9035760000.0 9035760000.0 9035760000.0 9035760000.0 9035770000.0 9035770000.0 9035770000.0 9035780000.0 9035780000.0 9035790000.0 9035800000.0 9036200000.0 9035830000.0 9083340000.0 9035880000.0 9463090000.0 9035970000.0 10306300000.0 9036140000.0 11179500000.0 9040510000.0 11996900000.0 10298900000.0 15110700000.0 12341800000.0 17131100000.0 16635000000.0 17528500000.0 12264600000.0 13984100000.0 16889000000.0 17098500000.0 17355500000.0 16354500000.0 16072400000.0 15910800000.0 13400400000.0 11863900000.0 16469100000.0 15545100000.0 16039500000.0 11767600000.0 14240300000.0 10045600000.0 11575500000.0 9038620000.0 10863000000.0 9036100000.0 10088200000.0 9035950000.0 9370530000.0 9035870000.0 9068210000.0 9035820000.0 9035990000.0 9035800000.0 9035790000.0 9035780000.0 9035770000.0 9035770000.0 9035770000.0 9035760000.0 9035760000.0 9035760000.0 9035760000.0 9035760000.0 9035760000.0 9035750000.0 9035750000.0 9035750000.0 9035750000.0 9035750000.0 9035750000.0 9035750000.0 9035760000.0 9035760000.0 9035760000.0 9035760000.0 9035760000.0 9035760000.0 9035770000.0 9035770000.0 9035770000.0 9035780000.0 9035790000.0 9035800000.0 9035990000.0 9035820000.0 9068210000.0 9035870000.0 9370530000.0 9035950000.0 10088200000.0 9036100000.0 10863000000.0 9038620000.0 11575500000.0 10045600000.0 14240300000.0 11767600000.0 16039500000.0 15545100000.0 16469100000.0 11863900000.0 13400400000.0 15910800000.0 16072400000.0 16354500000.0 15358600000.0 15073900000.0 14949200000.0 12816400000.0 11471200000.0 15429300000.0 14525300000.0 14997000000.0 11264200000.0 13428800000.0 9834200000.0 11181500000.0 9037510000.0 10569800000.0 9036050000.0 9896300000.0 9035920000.0 9295160000.0 9035850000.0 9057600000.0 9035810000.0 9035890000.0 9035790000.0 9035780000.0 9035780000.0 9035770000.0 9035770000.0 9035760000.0 9035760000.0 9035760000.0 9035760000.0 9035760000.0 9035760000.0 9035750000.0 9035750000.0 9035750000.0 9035750000.0 9035750000.0 9035750000.0 9035750000.0 9035750000.0 9035750000.0 9035760000.0 9035760000.0 9035760000.0 9035760000.0 9035760000.0 9035760000.0 9035770000.0 9035770000.0 9035780000.0 9035780000.0 9035790000.0 9035890000.0 9035810000.0 9057600000.0 9035850000.0 9295160000.0 9035920000.0 9896300000.0 9036050000.0 10569800000.0 9037510000.0 11181500000.0 9834200000.0 13428800000.0 11264200000.0 14997000000.0 14525300000.0 15429300000.0 11471200000.0 12816400000.0 14949200000.0 15073900000.0 15358600000.0 14368000000.0 14099100000.0 14003400000.0 12231900000.0 11084800000.0 14407300000.0 13567600000.0 13998100000.0 10820900000.0 12667300000.0 9657220000.0 10810800000.0 9036850000.0 10297100000.0 9036010000.0 9726620000.0 9035900000.0 9233780000.0 9035840000.0 9050240000.0 9035800000.0 9035830000.0 9035780000.0 9035780000.0 9035770000.0 9035770000.0 9035770000.0 9035760000.0 9035760000.0 9035760000.0 9035760000.0 9035760000.0 9035760000.0 9035750000.0 9035750000.0 9035750000.0 9035750000.0 9035750000.0 9035750000.0 9035750000.0 9035750000.0 9035750000.0 9035760000.0 9035760000.0 9035760000.0 9035760000.0 9035760000.0 9035760000.0 9035770000.0 9035770000.0 9035770000.0 9035780000.0 9035780000.0 9035830000.0 9035800000.0 9050240000.0 9035840000.0 9233780000.0 9035900000.0 9726620000.0 9036010000.0 10297100000.0 9036850000.0 10810800000.0 9657220000.0 12667300000.0 10820900000.0 13998100000.0 13567600000.0 14407300000.0 11084800000.0 12231900000.0 14003400000.0 14099100000.0 14368000000.0 13382300000.0 13144200000.0 13071800000.0 11646800000.0 10703200000.0 13400700000.0 12663300000.0 13036700000.0 10427800000.0 11947300000.0 9508070000.0 10459600000.0 9036460000.0 10041900000.0 9035960000.0 9575470000.0 9035870000.0 9183570000.0 9035820000.0 9045190000.0 9035790000.0 9035800000.0 9035780000.0 9035770000.0 9035770000.0 9035770000.0 9035760000.0 9035760000.0 9035760000.0 9035760000.0 9035760000.0 9035760000.0 9035750000.0 9035750000.0 9035750000.0 9035750000.0 9035750000.0 9035750000.0 9035750000.0 9035750000.0 9035750000.0 9035750000.0 9035750000.0 9035760000.0 9035760000.0 9035760000.0 9035760000.0 9035760000.0 9035760000.0 9035770000.0 9035770000.0 9035770000.0 9035780000.0 9035800000.0 9035790000.0 9045190000.0 9035820000.0 9183570000.0 9035870000.0 9575470000.0 9035960000.0 10041900000.0 9036460000.0 10459600000.0 9508070000.0 11947300000.0 10427800000.0 13036700000.0 12663300000.0 13400700000.0 10703200000.0 11646800000.0 13071800000.0 13144200000.0 13382300000.0 12401300000.0 12205500000.0 12152500000.0 11061200000.0 10325400000.0 12407000000.0 11803100000.0 12106300000.0 10074900000.0 11260400000.0 9380770000.0 10124000000.0 9036210000.0 9801120000.0 9035920000.0 9439270000.0 9035840000.0 9142030000.0 9035810000.0 9041740000.0 9035790000.0 9035790000.0 9035770000.0 9035770000.0 9035770000.0 9035760000.0 9035760000.0 9035760000.0 9035760000.0 9035760000.0 9035760000.0 9035760000.0 9035750000.0 9035750000.0 9035750000.0 9035750000.0 9035750000.0 9035750000.0 9035750000.0 9035750000.0 9035750000.0 9035750000.0 9035750000.0 9035760000.0 9035760000.0 9035760000.0 9035760000.0 9035760000.0 9035760000.0 9035760000.0 9035770000.0 9035770000.0 9035770000.0 9035790000.0 9035790000.0 9041740000.0 9035810000.0 9142030000.0 9035840000.0 9439270000.0 9035920000.0 9801120000.0 9036210000.0 10124000000.0 9380770000.0 11260400000.0 10074900000.0 12106300000.0 11803100000.0 12407000000.0 10325400000.0 11061200000.0 12152500000.0 12205500000.0 12401300000.0 11424100000.0 11279200000.0 11243000000.0 10475100000.0 9950200000.0 11423700000.0 10977600000.0 11200200000.0 9752840000.0 10598900000.0 9269830000.0 9800610000.0 9036040000.0 9571630000.0 9035870000.0 9314540000.0 9035820000.0 9106940000.0 9035790000.0 9039350000.0 9035780000.0 9035770000.0 9035770000.0 9035760000.0 9035760000.0 9035760000.0 9035760000.0 9035760000.0 9035760000.0 9035760000.0 9035760000.0 9035750000.0 9035750000.0 9035750000.0 9035750000.0 9035750000.0 9035750000.0 9035750000.0 9035750000.0 9035750000.0 9035750000.0 9035750000.0 9035750000.0 9035750000.0 9035760000.0 9035760000.0 9035760000.0 9035760000.0 9035760000.0 9035760000.0 9035760000.0 9035760000.0 9035770000.0 9035770000.0 9035780000.0 9039350000.0 9035790000.0 9106940000.0 9035820000.0 9314540000.0 9035870000.0 9571630000.0 9036040000.0 9800610000.0 9269830000.0 10598900000.0 9752840000.0 11200200000.0 10977600000.0 11423700000.0 9950200000.0 10475100000.0 11243000000.0 11279200000.0 11424100000.0 10449700000.0 10361700000.0 10340700000.0 9888650000.0 9576850000.0 10447700000.0 10176800000.0 10311500000.0 9452460000.0 9955220000.0 9170230000.0 9485690000.0 9035910000.0 9350190000.0 9035820000.0 9197890000.0 9035790000.0 9076290000.0 9035780000.0 9037650000.0 9035770000.0 9035760000.0 9035760000.0 9035760000.0 9035760000.0 9035760000.0 9035760000.0 9035760000.0 9035760000.0 9035750000.0 9035750000.0 9035750000.0 9035750000.0 9035750000.0 9035750000.0 9035750000.0 9035750000.0 9035750000.0 9035750000.0 9035750000.0 9035750000.0 9035750000.0 9035750000.0 9035750000.0 9035750000.0 9035750000.0 9035760000.0 9035760000.0 9035760000.0 9035760000.0 9035760000.0 9035760000.0 9035760000.0 9035760000.0 9035770000.0 9037650000.0 9035780000.0 9076290000.0 9035790000.0 9197890000.0 9035820000.0 9350190000.0 9035910000.0 9485690000.0 9170230000.0 9955220000.0 9452460000.0 10311500000.0 10176800000.0 10447700000.0 9576850000.0 9888650000.0 10340700000.0 10361700000.0 10449700000.0 9476960000.0 9449220000.0 9442750000.0 9301990000.0 9204570000.0 9476150000.0 9390780000.0 9433180000.0 9164830000.0 9321940000.0 9077210000.0 9175810000.0 9035800000.0 9133530000.0 9035770000.0 9085990000.0 9035770000.0 9048210000.0 9035760000.0 9036320000.0 9035760000.0 9035760000.0 9035760000.0 9035760000.0 9035750000.0 9035750000.0 9035750000.0 9035750000.0 9035750000.0 9035750000.0 9035750000.0 9035750000.0 9035750000.0 9035750000.0 9035750000.0 9035750000.0 9035750000.0 9035750000.0 9035750000.0 9035750000.0 9035750000.0 9035750000.0 9035750000.0 9035750000.0 9035750000.0 9035750000.0 9035750000.0 9035750000.0 9035750000.0 9035750000.0 9035750000.0 9035760000.0 9035760000.0 9035760000.0 9035760000.0 9036320000.0 9035760000.0 9048210000.0 9035770000.0 9085990000.0 9035770000.0 9133530000.0 9035800000.0 9175810000.0 9077210000.0 9321940000.0 9164830000.0 9433180000.0 9390780000.0 9476150000.0 9204570000.0 9301990000.0 9442750000.0 9449220000.0 9476960000.0 