# vtk DataFile Version 2.0
Time step 45
ASCII
DATASET UNSTRUCTURED_GRID
POINTS 4650 float
153685.0 406278.0 0
157403.0 406606.0 0
160572.0 404266.0 0
167775.0 405595.0 0
174841.0 406255.0 0
325159.0 406255.0 0
332225.0 405595.0 0
339428.0 404266.0 0
342597.0 406606.0 0
346315.0 406278.0 0
146975.0 410466.0 0
150326.0 408371.0 0
153642.0 409980.0 0
160632.0 408606.0 0
163911.0 406451.0 0
171175.0 407674.0 0
178653.0 407288.0 0
182591.0 406917.0 0
186545.0 407124.0 0
190507.0 407108.0 0
194472.0 407107.0 0
198438.0 407106.0 0
202405.0 407105.0 0
206373.0 407104.0 0
210341.0 407103.0 0
214310.0 407103.0 0
218278.0 407102.0 0
222246.0 407102.0 0
226212.0 407101.0 0
230178.0 407101.0 0
234143.0 407101.0 0
238108.0 407100.0 0
242072.0 407100.0 0
246036.0 407100.0 0
250000.0 407100.0 0
253964.0 407100.0 0
257928.0 407100.0 0
261892.0 407100.0 0
265857.0 407101.0 0
269822.0 407101.0 0
273788.0 407101.0 0
277754.0 407102.0 0
281722.0 407102.0 0
285690.0 407103.0 0
289659.0 407103.0 0
293627.0 407104.0 0
297595.0 407105.0 0
301562.0 407106.0 0
305528.0 407107.0 0
309493.0 407108.0 0
313455.0 407124.0 0
317409.0 406917.0 0
321347.0 407288.0 0
328825.0 407674.0 0
336089.0 406451.0 0
339368.0 408606.0 0
346358.0 409980.0 0
349674.0 408371.0 0
353025.0 410466.0 0
143634.0 412556.0 0
150288.0 412064.0 0
157267.0 410625.0 0
163998.0 410451.0 0
167784.0 409636.0 0
171113.0 411789.0 0
174792.0 410282.0 0
178643.0 411282.0 0
182601.0 410905.0 0
186567.0 411127.0 0
190538.0 411109.0 0
194508.0 411109.0 0
198477.0 411107.0 0
202446.0 411106.0 0
206413.0 411105.0 0
210380.0 411104.0 0
214345.0 411103.0 0
218310.0 411102.0 0
222274.0 411102.0 0
226237.0 411101.0 0
230199.0 411101.0 0
234160.0 411101.0 0
238121.0 411100.0 0
242081.0 411100.0 0
246040.0 411100.0 0
250000.0 411100.0 0
253960.0 411100.0 0
257919.0 411100.0 0
261879.0 411100.0 0
265840.0 411101.0 0
269801.0 411101.0 0
273763.0 411101.0 0
277726.0 411102.0 0
281690.0 411102.0 0
285655.0 411103.0 0
289620.0 411104.0 0
293587.0 411105.0 0
297554.0 411106.0 0
301523.0 411107.0 0
305492.0 411109.0 0
309462.0 411109.0 0
313433.0 411127.0 0
317399.0 410905.0 0
321357.0 411282.0 0
325208.0 410282.0 0
328887.0 411789.0 0
332216.0 409636.0 0
336002.0 410451.0 0
342733.0 410625.0 0
349712.0 412064.0 0
356366.0 412556.0 0
140304.0 414639.0 0
146963.0 414179.0 0
153626.0 413662.0 0
160502.0 412536.0 0
167678.0 413775.0 0
332322.0 413775.0 0
339498.0 412536.0 0
346374.0 413662.0 0
353037.0 414179.0 0
359696.0 414639.0 0
136978.0 416718.0 0
140334.0 418377.0 0
143649.0 416290.0 0
147025.0 417925.0 0
150322.0 415794.0 0
153741.0 417364.0 0
157189.0 414663.0 0
160549.0 416447.0 0
163826.0 414321.0 0
171071.0 415782.0 0
174723.0 414271.0 0
178561.0 415279.0 0
182513.0 414877.0 0
186487.0 415129.0 0
190471.0 415107.0 0
194453.0 415112.0 0
198433.0 415110.0 0
202410.0 415108.0 0
206384.0 415107.0 0
210356.0 415105.0 0
214327.0 415104.0 0
218295.0 415103.0 0
222262.0 415103.0 0
226227.0 415102.0 0
230191.0 415101.0 0
234154.0 415101.0 0
238116.0 415100.0 0
242078.0 415100.0 0
246039.0 415100.0 0
250000.0 415100.0 0
253961.0 415100.0 0
257922.0 415100.0 0
261884.0 415100.0 0
265846.0 415101.0 0
269809.0 415101.0 0
273773.0 415102.0 0
277738.0 415103.0 0
281705.0 415103.0 0
285673.0 415104.0 0
289644.0 415105.0 0
293616.0 415107.0 0
297590.0 415108.0 0
301567.0 415110.0 0
305547.0 415112.0 0
309529.0 415107.0 0
313513.0 415129.0 0
317487.0 414877.0 0
321439.0 415279.0 0
325277.0 414271.0 0
328929.0 415782.0 0
336174.0 414321.0 0
339451.0 416447.0 0
342811.0 414663.0 0
346259.0 417364.0 0
349678.0 415794.0 0
352975.0 417925.0 0
356351.0 416290.0 0
359666.0 418377.0 0
363022.0 416718.0 0
130310.0 420883.0 0
133649.0 418798.0 0
137010.0 420444.0 0
143712.0 420052.0 0
150458.0 419545.0 0
157287.0 418613.0 0
161988.0 419921.0 0
165343.0 417746.0 0
168976.0 419148.0 0
175301.0 418219.0 0
178996.0 419691.0 0
182875.0 418817.0 0
186827.0 419182.0 0
190790.0 419091.0 0
194750.0 419116.0 0
198706.0 419110.0 0
202659.0 419109.0 0
206609.0 419107.0 0
210558.0 419106.0 0
214505.0 419105.0 0
218451.0 419104.0 0
222397.0 419103.0 0
226341.0 419102.0 0
230285.0 419101.0 0
234228.0 419101.0 0
238172.0 419100.0 0
242114.0 419100.0 0
246057.0 419100.0 0
250000.0 419100.0 0
253943.0 419100.0 0
257886.0 419100.0 0
261828.0 419100.0 0
265772.0 419101.0 0
269715.0 419101.0 0
273659.0 419102.0 0
277603.0 419103.0 0
281549.0 419104.0 0
285495.0 419105.0 0
289442.0 419106.0 0
293391.0 419107.0 0
297341.0 419109.0 0
301294.0 419110.0 0
305250.0 419116.0 0
309210.0 419091.0 0
313173.0 419182.0 0
317125.0 418817.0 0
321004.0 419691.0 0
324699.0 418219.0 0
331024.0 419148.0 0
334657.0 417746.0 0
338012.0 419921.0 0
342713.0 418613.0 0
349542.0 419545.0 0
356288.0 420052.0 0
362990.0 420444.0 0
366351.0 418798.0 0
369690.0 420883.0 0
126964.0 422974.0 0
133668.0 422505.0 0
140395.0 422138.0 0
147134.0 421675.0 0
153966.0 421111.0 0
158675.0 422131.0 0
165524.0 421572.0 0
172440.0 420967.0 0
327560.0 420967.0 0
334476.0 421572.0 0
341325.0 422131.0 0
346034.0 421111.0 0
352866.0 421675.0 0
359605.0 422138.0 0
366332.0 422505.0 0
373036.0 422974.0 0
123626.0 425061.0 0
130304.0 424577.0 0
133666.0 426212.0 0
137060.0 424179.0 0
140497.0 425922.0 0
143804.0 423845.0 0
150623.0 423302.0 0
155480.0 424477.0 0
162208.0 423769.0 0
169088.0 423128.0 0
172556.0 424937.0 0
175938.0 422779.0 0
179528.0 424449.0 0
183110.0 422755.0 0
187033.0 423251.0 0
190977.0 423083.0 0
194919.0 423120.0 0
198858.0 423110.0 0
202794.0 423109.0 0
206727.0 423107.0 0
210660.0 423106.0 0
214592.0 423105.0 0
218525.0 423104.0 0
222458.0 423103.0 0
226391.0 423102.0 0
230325.0 423101.0 0
234259.0 423101.0 0
238194.0 423100.0 0
242129.0 423100.0 0
246064.0 423100.0 0
250000.0 423100.0 0
253936.0 423100.0 0
257871.0 423100.0 0
261806.0 423100.0 0
265741.0 423101.0 0
269675.0 423101.0 0
273609.0 423102.0 0
277542.0 423103.0 0
281475.0 423104.0 0
285408.0 423105.0 0
289340.0 423106.0 0
293273.0 423107.0 0
297206.0 423109.0 0
301142.0 423110.0 0
305081.0 423120.0 0
309023.0 423083.0 0
312967.0 423251.0 0
316890.0 422755.0 0
320472.0 424449.0 0
324062.0 422779.0 0
327444.0 424937.0 0
330912.0 423128.0 0
337792.0 423769.0 0
344520.0 424477.0 0
349377.0 423302.0 0
356196.0 423845.0 0
359503.0 425922.0 0
362940.0 424179.0 0
366334.0 426212.0 0
369696.0 424577.0 0
376374.0 425061.0 0
119207.0 427825.0 0
122795.0 428629.0 0
126958.0 426673.0 0
130304.0 428293.0 0
137041.0 427894.0 0
144020.0 427701.0 0
147252.0 425409.0 0
152262.0 426623.0 0
155655.0 428367.0 0
158944.0 426011.0 0
162416.0 427660.0 0
165711.0 425436.0 0
169203.0 427106.0 0
176030.0 426766.0 0
179597.0 428446.0 0
183141.0 426702.0 0
187047.0 427282.0 0
190986.0 427079.0 0
194926.0 427124.0 0
198862.0 427110.0 0
202795.0 427110.0 0
206728.0 427108.0 0
210660.0 427107.0 0
214592.0 427106.0 0
218525.0 427104.0 0
222458.0 427103.0 0
226391.0 427102.0 0
230325.0 427102.0 0
234260.0 427101.0 0
238194.0 427101.0 0
242129.0 427100.0 0
246065.0 427100.0 0
250000.0 427100.0 0
253935.0 427100.0 0
257871.0 427100.0 0
261806.0 427101.0 0
265740.0 427101.0 0
269675.0 427102.0 0
273609.0 427102.0 0
277542.0 427103.0 0
281475.0 427104.0 0
285408.0 427106.0 0
289340.0 427107.0 0
293272.0 427108.0 0
297205.0 427110.0 0
301138.0 427110.0 0
305074.0 427124.0 0
309014.0 427079.0 0
312953.0 427282.0 0
316859.0 426702.0 0
320403.0 428446.0 0
323970.0 426766.0 0
330797.0 427106.0 0
334289.0 425436.0 0
337584.0 427660.0 0
341056.0 426011.0 0
344345.0 428367.0 0
347738.0 426623.0 0
352748.0 425409.0 0
355980.0 427701.0 0
362959.0 427894.0 0
369696.0 428293.0 0
373042.0 426673.0 0
377205.0 428629.0 0
380793.0 427825.0 0
115870.0 429911.0 0
119218.0 431553.0 0
126163.0 430277.0 0
133659.0 429942.0 0
140391.0 429656.0 0
149001.0 428591.0 0
152311.0 430504.0 0
159136.0 429885.0 0
165883.0 429337.0 0
172661.0 428905.0 0
327339.0 428905.0 0
334117.0 429337.0 0
340864.0 429885.0 0
347689.0 430504.0 0
350999.0 428591.0 0
359609.0 429656.0 0
366341.0 429942.0 0
373837.0 430277.0 0
380782.0 431553.0 0
384130.0 429911.0 0
109165.0 434105.0 0
112519.0 432006.0 0
115872.0 433650.0 0
122840.0 432370.0 0
129550.0 431928.0 0
132946.0 433600.0 0
137013.0 431656.0 0
140379.0 433486.0 0
143647.0 431526.0 0
147325.0 431839.0 0
155732.0 432315.0 0
162589.0 431582.0 0
169325.0 431080.0 0
172761.0 432871.0 0
176120.0 430742.0 0
179667.0 432426.0 0
183183.0 430656.0 0
187071.0 431308.0 0
191004.0 431075.0 0
194939.0 431125.0 0
198872.0 431110.0 0
202803.0 431111.0 0
206734.0 431109.0 0
210664.0 431107.0 0
214595.0 431106.0 0
218526.0 431104.0 0
222458.0 431103.0 0
226391.0 431103.0 0
230324.0 431102.0 0
234259.0 431101.0 0
238193.0 431101.0 0
242129.0 431100.0 0
246064.0 431100.0 0
250000.0 431100.0 0
253936.0 431100.0 0
257871.0 431100.0 0
261807.0 431101.0 0
265741.0 431101.0 0
269676.0 431102.0 0
273609.0 431103.0 0
277542.0 431103.0 0
281474.0 431104.0 0
285405.0 431106.0 0
289336.0 431107.0 0
293266.0 431109.0 0
297197.0 431111.0 0
301128.0 431110.0 0
305061.0 431125.0 0
308996.0 431075.0 0
312929.0 431308.0 0
316817.0 430656.0 0
320333.0 432426.0 0
323880.0 430742.0 0
327239.0 432871.0 0
330675.0 431080.0 0
337411.0 431582.0 0
344268.0 432315.0 0
352675.0 431839.0 0
356353.0 431526.0 0
359621.0 433486.0 0
362987.0 431656.0 0
367054.0 433600.0 0
370450.0 431928.0 0
377160.0 432370.0 0
384128.0 433650.0 0
387481.0 432006.0 0
390835.0 434105.0 0
105816.0 436200.0 0
112524.0 435768.0 0
119241.0 435300.0 0
122892.0 436145.0 0
126219.0 434037.0 0
129604.0 435707.0 0
136331.0 435324.0 0
144059.0 435376.0 0
148531.0 435302.0 0
152335.0 434376.0 0
159318.0 433750.0 0
166004.0 433262.0 0
169423.0 435057.0 0
176217.0 434718.0 0
183256.0 434620.0 0
187121.0 435306.0 0
191041.0 435072.0 0
194966.0 435129.0 0
198891.0 435114.0 0
202815.0 435113.0 0
206740.0 435111.0 0
210666.0 435109.0 0
214593.0 435107.0 0
218522.0 435106.0 0
222453.0 435104.0 0
226385.0 435103.0 0
230318.0 435102.0 0
234253.0 435101.0 0
238189.0 435101.0 0
242125.0 435100.0 0
246063.0 435100.0 0
250000.0 435100.0 0
253937.0 435100.0 0
257875.0 435100.0 0
261811.0 435101.0 0
265747.0 435101.0 0
269682.0 435102.0 0
273615.0 435103.0 0
277547.0 435104.0 0
281478.0 435106.0 0
285407.0 435107.0 0
289334.0 435109.0 0
293260.0 435111.0 0
297185.0 435113.0 0
301109.0 435114.0 0
305034.0 435129.0 0
308959.0 435072.0 0
312879.0 435306.0 0
316744.0 434620.0 0
323783.0 434718.0 0
330577.0 435057.0 0
333996.0 433262.0 0
340682.0 433750.0 0
347665.0 434376.0 0
351469.0 435302.0 0
355941.0 435376.0 0
363669.0 435324.0 0
370396.0 435707.0 0
373781.0 434037.0 0
377108.0 436145.0 0
380759.0 435300.0 0
387476.0 435768.0 0
394184.0 436200.0 0
102470.0 438290.0 0
109182.0 437896.0 0
115896.0 437419.0 0
119295.0 439063.0 0
126291.0 437832.0 0
132974.0 437395.0 0
136293.0 439130.0 0
139688.0 437101.0 0
146753.0 438684.0 0
150716.0 438434.0 0
154550.0 437587.0 0
158457.0 437513.0 0
162249.0 436327.0 0
166071.0 437161.0 0
172862.0 436808.0 0
179757.0 436374.0 0
320243.0 436374.0 0
327138.0 436808.0 0
333929.0 437161.0 0
337751.0 436327.0 0
341543.0 437513.0 0
345450.0 437587.0 0
349284.0 438434.0 0
353247.0 438684.0 0
360312.0 437101.0 0
363707.0 439130.0 0
367026.0 437395.0 0
373709.0 437832.0 0
380705.0 439063.0 0
384104.0 437419.0 0
390818.0 437896.0 0
397530.0 438290.0 0
99102.2 440395.0 0
102486.0 442074.0 0
105847.0 440016.0 0
109222.0 441739.0 0
112558.0 439568.0 0
115967.0 441221.0 0
122962.0 439957.0 0
126381.0 441653.0 0
129703.0 439535.0 0
133142.0 441261.0 0
139469.0 440849.0 0
142922.0 439100.0 0
160473.0 440863.0 0
164314.0 440692.0 0
168213.0 440423.0 0
172050.0 440641.0 0
175778.0 439396.0 0
179551.0 440267.0 0
183114.0 438606.0 0
186989.0 439297.0 0
190913.0 439069.0 0
194839.0 439127.0 0
198765.0 439112.0 0
202692.0 439111.0 0
206621.0 439109.0 0
210553.0 439107.0 0
214488.0 439106.0 0
218426.0 439104.0 0
222366.0 439103.0 0
226309.0 439102.0 0
230254.0 439102.0 0
234201.0 439101.0 0
238149.0 439101.0 0
242099.0 439100.0 0
246049.0 439100.0 0
250000.0 439100.0 0
253951.0 439100.0 0
257901.0 439100.0 0
261851.0 439101.0 0
265799.0 439101.0 0
269746.0 439102.0 0
273691.0 439102.0 0
277634.0 439103.0 0
281574.0 439104.0 0
285512.0 439106.0 0
289447.0 439107.0 0
293379.0 439109.0 0
297308.0 439111.0 0
301235.0 439112.0 0
305161.0 439127.0 0
309087.0 439069.0 0
313011.0 439297.0 0
316886.0 438606.0 0
320449.0 440267.0 0
324222.0 439396.0 0
327950.0 440641.0 0
331787.0 440423.0 0
335686.0 440692.0 0
339527.0 440863.0 0
357078.0 439100.0 0
360531.0 440849.0 0
366858.0 441261.0 0
370297.0 439535.0 0
373619.0 441653.0 0
377038.0 439957.0 0
384033.0 441221.0 0
387442.0 439568.0 0
390778.0 441739.0 0
394153.0 440016.0 0
397514.0 442074.0 0
400898.0 440395.0 0
91202.8 445345.0 0
95153.3 442881.0 0
98871.3 444169.0 0
105871.0 443888.0 0
112642.0 443397.0 0
119411.0 442844.0 0
123105.0 443803.0 0
129777.0 443373.0 0
136789.0 443674.0 0
141551.0 443708.0 0
145083.0 442262.0 0
148905.0 441956.0 0
152767.0 441720.0 0
156567.0 440985.0 0
182233.0 443093.0 0
186190.0 443204.0 0
190159.0 443101.0 0
194136.0 443102.0 0
198119.0 443102.0 0
202106.0 443101.0 0
206093.0 443101.0 0
210081.0 443101.0 0
214069.0 443101.0 0
218057.0 443101.0 0
222047.0 443100.0 0
226038.0 443100.0 0
230030.0 443100.0 0
234023.0 443100.0 0
238017.0 443100.0 0
242011.0 443100.0 0
246005.0 443100.0 0
250000.0 443100.0 0
253995.0 443100.0 0
257989.0 443100.0 0
261983.0 443100.0 0
265977.0 443100.0 0
269970.0 443100.0 0
273962.0 443100.0 0
277953.0 443100.0 0
281943.0 443101.0 0
285931.0 443101.0 0
289919.0 443101.0 0
293907.0 443101.0 0
297894.0 443101.0 0
301881.0 443102.0 0
305864.0 443102.0 0
309841.0 443101.0 0
313810.0 443204.0 0
317767.0 443093.0 0
343433.0 440985.0 0
347233.0 441720.0 0
351095.0 441956.0 0
354917.0 442262.0 0
358449.0 443708.0 0
363211.0 443674.0 0
370223.0 443373.0 0
376895.0 443803.0 0
380589.0 442844.0 0
387358.0 443397.0 0
394129.0 443888.0 0
401129.0 444169.0 0
404847.0 442881.0 0
408797.0 445345.0 0
94781.8 446837.0 0
102423.0 445856.0 0
109296.0 445618.0 0
116097.0 445055.0 0
119564.0 446643.0 0
126591.0 445527.0 0
133092.0 445010.0 0
147116.0 445556.0 0
150966.0 445274.0 0
154830.0 445011.0 0
158648.0 444347.0 0
162577.0 444285.0 0
166504.0 443986.0 0
170467.0 444287.0 0
174409.0 443737.0 0
178351.0 444016.0 0
321649.0 444016.0 0
325591.0 443737.0 0
329533.0 444287.0 0
333496.0 443986.0 0
337423.0 444285.0 0
341352.0 444347.0 0
345170.0 445011.0 0
349034.0 445274.0 0
352884.0 445556.0 0
366908.0 445010.0 0
373409.0 445527.0 0
380436.0 446643.0 0
383903.0 445055.0 0
390704.0 445618.0 0
397577.0 445856.0 0
405218.0 446837.0 0
91512.0 449278.0 0
98492.1 447990.0 0
101994.0 449638.0 0
105861.0 447806.0 0
112796.0 447239.0 0
116310.0 448946.0 0
123252.0 447648.0 0
126732.0 449335.0 0
130277.0 447671.0 0
135706.0 447485.0 0
139509.0 446966.0 0
143472.0 446839.0 0
153064.0 448587.0 0
156852.0 448342.0 0
160613.0 447756.0 0
164395.0 448116.0 0
168199.0 447541.0 0
172014.0 448031.0 0
175857.0 447390.0 0
179723.0 447731.0 0
183475.0 446834.0 0
187308.0 447268.0 0
191175.0 447101.0 0
195061.0 447126.0 0
198955.0 447118.0 0
202856.0 447115.0 0
206763.0 447112.0 0
210676.0 447110.0 0
214594.0 447108.0 0
218516.0 447106.0 0
222443.0 447104.0 0
226373.0 447103.0 0
230306.0 447102.0 0
234242.0 447101.0 0
238179.0 447101.0 0
242119.0 447100.0 0
246059.0 447100.0 0
250000.0 447100.0 0
253941.0 447100.0 0
257881.0 447100.0 0
261821.0 447101.0 0
265758.0 447101.0 0
269694.0 447102.0 0
273627.0 447103.0 0
277557.0 447104.0 0
281484.0 447106.0 0
285406.0 447108.0 0
289324.0 447110.0 0
293237.0 447112.0 0
297144.0 447115.0 0
301045.0 447118.0 0
304939.0 447126.0 0
308825.0 447101.0 0
312692.0 447268.0 0
316525.0 446834.0 0
320277.0 447731.0 0
324143.0 447390.0 0
327986.0 448031.0 0
331801.0 447541.0 0
335605.0 448116.0 0
339387.0 447756.0 0
343148.0 448342.0 0
346936.0 448587.0 0
356528.0 446839.0 0
360491.0 446966.0 0
364294.0 447485.0 0
369723.0 447671.0 0
373268.0 449335.0 0
376748.0 447648.0 0
383690.0 448946.0 0
387204.0 447239.0 0
394139.0 447806.0 0
398006.0 449638.0 0
401508.0 447990.0 0
408488.0 449278.0 0
98026.9 451871.0 0
105249.0 451719.0 0
109414.0 449517.0 0
113040.0 451088.0 0
119847.0 450446.0 0
123580.0 451513.0 0
129751.0 451591.0 0
133587.0 450746.0 0
137820.0 450562.0 0
141667.0 450264.0 0
145567.0 449998.0 0
149233.0 448867.0 0
350767.0 448867.0 0
354433.0 449998.0 0
358333.0 450264.0 0
362180.0 450562.0 0
366413.0 450746.0 0
370249.0 451591.0 0
376420.0 451513.0 0
380153.0 450446.0 0
386960.0 451088.0 0
390586.0 449517.0 0
394751.0 451719.0 0
401973.0 451871.0 0
101680.0 453495.0 0
108729.0 453384.0 0
116804.0 453037.0 0
132252.0 454455.0 0
136071.0 453979.0 0
139992.0 453806.0 0
143878.0 453521.0 0
147765.0 453197.0 0
151452.0 452169.0 0
155317.0 452006.0 0
159180.0 451481.0 0
163003.0 452043.0 0
166803.0 451252.0 0
170647.0 451808.0 0
174487.0 451119.0 0
178373.0 451431.0 0
182293.0 451080.0 0
186238.0 451109.0 0
190193.0 451104.0 0
194156.0 451103.0 0
198125.0 451102.0 0
202099.0 451101.0 0
206078.0 451101.0 0
210061.0 451101.0 0
214046.0 451101.0 0
218035.0 451100.0 0
222026.0 451100.0 0
226019.0 451100.0 0
230014.0 451100.0 0
234010.0 451100.0 0
238007.0 451100.0 0
242004.0 451100.0 0
246002.0 451100.0 0
250000.0 451100.0 0
253998.0 451100.0 0
257996.0 451100.0 0
261993.0 451100.0 0
265990.0 451100.0 0
269986.0 451100.0 0
273981.0 451100.0 0
277974.0 451100.0 0
281965.0 451100.0 0
285954.0 451101.0 0
289939.0 451101.0 0
293922.0 451101.0 0
297901.0 451101.0 0
301875.0 451102.0 0
305844.0 451103.0 0
309807.0 451104.0 0
313762.0 451109.0 0
317707.0 451080.0 0
321627.0 451431.0 0
325513.0 451119.0 0
329353.0 451808.0 0
333197.0 451252.0 0
336997.0 452043.0 0
340820.0 451481.0 0
344683.0 452006.0 0
348548.0 452169.0 0
352235.0 453197.0 0
356122.0 453521.0 0
360008.0 453806.0 0
363929.0 453979.0 0
367748.0 454455.0 0
383196.0 453037.0 0
391271.0 453384.0 0
398320.0 453495.0 0
97721.9 455814.0 0
105484.0 455994.0 0
112319.0 454855.0 0
120787.0 454144.0 0
126593.0 453938.0 0
146946.0 457009.0 0
151196.0 456131.0 0
155186.0 455976.0 0
159146.0 455439.0 0
163082.0 456004.0 0
166988.0 455226.0 0
170927.0 455774.0 0
174829.0 455079.0 0
178781.0 455357.0 0
182721.0 455091.0 0
186670.0 455115.0 0
190619.0 455111.0 0
194569.0 455109.0 0
198520.0 455108.0 0
202472.0 455106.0 0
206425.0 455105.0 0
210380.0 455104.0 0
214337.0 455104.0 0
218295.0 455103.0 0
222254.0 455102.0 0
226215.0 455102.0 0
230177.0 455101.0 0
234140.0 455101.0 0
238104.0 455101.0 0
242069.0 455100.0 0
246034.0 455100.0 0
250000.0 455100.0 0
253966.0 455100.0 0
257931.0 455100.0 0
261896.0 455101.0 0
265860.0 455101.0 0
269823.0 455101.0 0
273785.0 455102.0 0
277746.0 455102.0 0
281705.0 455103.0 0
285663.0 455104.0 0
289620.0 455104.0 0
293575.0 455105.0 0
297528.0 455106.0 0
301480.0 455108.0 0
305431.0 455109.0 0
309381.0 455111.0 0
313330.0 455115.0 0
317279.0 455091.0 0
321219.0 455357.0 0
325171.0 455079.0 0
329073.0 455774.0 0
333012.0 455226.0 0
336918.0 456004.0 0
340854.0 455439.0 0
344814.0 455976.0 0
348804.0 456131.0 0
353054.0 457009.0 0
373407.0 453938.0 0
379213.0 454144.0 0
387681.0 454855.0 0
394516.0 455994.0 0
402278.0 455814.0 0
101392.0 457386.0 0
109255.0 457285.0 0
115461.0 457015.0 0
119276.0 457583.0 0
123302.0 457197.0 0
127217.0 457775.0 0
131112.0 458067.0 0
135052.0 457750.0 0
139015.0 457548.0 0
142986.0 457306.0 0
357014.0 457306.0 0
360985.0 457548.0 0
364948.0 457750.0 0
368888.0 458067.0 0
372783.0 457775.0 0
376698.0 457197.0 0
380724.0 457583.0 0
384539.0 457015.0 0
390745.0 457285.0 0
398608.0 457386.0 0
98898.6 460465.0 0
104377.0 459977.0 0
108205.0 461041.0 0
112486.0 459675.0 0
116873.0 460696.0 0
121176.0 460903.0 0
125075.0 461067.0 0
129012.0 461314.0 0
133298.0 461292.0 0
137263.0 461045.0 0
141245.0 460818.0 0
145242.0 460576.0 0
149717.0 459831.0 0
153699.0 459680.0 0
157643.0 459113.0 0
161596.0 459702.0 0
165634.0 459053.0 0
169594.0 459522.0 0
173968.0 459089.0 0
177960.0 459234.0 0
182000.0 459100.0 0
186000.0 459100.0 0
190000.0 459100.0 0
194000.0 459100.0 0
198000.0 459100.0 0
202000.0 459100.0 0
206000.0 459100.0 0
210000.0 459100.0 0
214000.0 459100.0 0
218000.0 459100.0 0
222000.0 459100.0 0
226000.0 459100.0 0
230000.0 459100.0 0
234000.0 459100.0 0
238000.0 459100.0 0
242000.0 459100.0 0
246000.0 459100.0 0
250000.0 459100.0 0
254000.0 459100.0 0
258000.0 459100.0 0
262000.0 459100.0 0
266000.0 459100.0 0
270000.0 459100.0 0
274000.0 459100.0 0
278000.0 459100.0 0
282000.0 459100.0 0
286000.0 459100.0 0
290000.0 459100.0 0
294000.0 459100.0 0
298000.0 459100.0 0
302000.0 459100.0 0
306000.0 459100.0 0
310000.0 459100.0 0
314000.0 459100.0 0
318000.0 459100.0 0
322040.0 459234.0 0
326032.0 459089.0 0
330406.0 459522.0 0
334366.0 459053.0 0
338404.0 459702.0 0
342357.0 459113.0 0
346301.0 459680.0 0
350283.0 459831.0 0
354758.0 460576.0 0
358755.0 460818.0 0
362737.0 461045.0 0
366702.0 461292.0 0
370988.0 461314.0 0
374925.0 461067.0 0
378824.0 460903.0 0
383127.0 460696.0 0
387514.0 459675.0 0
391795.0 461041.0 0
395623.0 459977.0 0
401101.0 460465.0 0
101417.0 463565.0 0
105396.0 463825.0 0
110745.0 464070.0 0
114716.0 463987.0 0
118900.0 464116.0 0
122928.0 464426.0 0
139452.0 464331.0 0
143440.0 464105.0 0
147407.0 463909.0 0
151318.0 463459.0 0
155238.0 463546.0 0
159092.0 462809.0 0
162957.0 463463.0 0
166831.0 462851.0 0
170726.0 463348.0 0
174639.0 463030.0 0
178570.0 463165.0 0
182503.0 463110.0 0
186442.0 463110.0 0
190387.0 463108.0 0
194338.0 463106.0 0
198293.0 463105.0 0
202253.0 463104.0 0
206217.0 463103.0 0
210185.0 463102.0 0
214157.0 463102.0 0
218131.0 463101.0 0
222109.0 463101.0 0
226089.0 463101.0 0
230071.0 463100.0 0
234054.0 463100.0 0
238040.0 463100.0 0
242026.0 463100.0 0
246013.0 463100.0 0
250000.0 463100.0 0
253987.0 463100.0 0
257974.0 463100.0 0
261960.0 463100.0 0
265946.0 463100.0 0
269929.0 463100.0 0
273911.0 463101.0 0
277891.0 463101.0 0
281869.0 463101.0 0
285843.0 463102.0 0
289815.0 463102.0 0
293783.0 463103.0 0
297747.0 463104.0 0
301707.0 463105.0 0
305662.0 463106.0 0
309613.0 463108.0 0
313558.0 463110.0 0
317497.0 463110.0 0
321430.0 463165.0 0
325361.0 463030.0 0
329274.0 463348.0 0
333169.0 462851.0 0
337043.0 463463.0 0
340908.0 462809.0 0
344762.0 463546.0 0
348682.0 463459.0 0
352593.0 463909.0 0
356560.0 464105.0 0
360548.0 464331.0 0
377072.0 464426.0 0
381100.0 464116.0 0
385284.0 463987.0 0
389255.0 464070.0 0
394604.0 463825.0 0
398583.0 463565.0 0
126881.0 464610.0 0
131157.0 464606.0 0
135465.0 464568.0 0
364535.0 464568.0 0
368843.0 464606.0 0
373119.0 464610.0 0
100934.0 467537.0 0
104913.0 467759.0 0
108892.0 467607.0 0
112861.0 467502.0 0
116831.0 467491.0 0
120804.0 467767.0 0
124795.0 467997.0 0
129009.0 467940.0 0
133322.0 467899.0 0
137632.0 467856.0 0
141620.0 467628.0 0
145604.0 467449.0 0
149813.0 467154.0 0
153841.0 467287.0 0
157864.0 467084.0 0
161856.0 467290.0 0
165902.0 467092.0 0
169897.0 467241.0 0
173999.0 467098.0 0
177998.0 467112.0 0
182000.0 467100.0 0
186000.0 467100.0 0
190000.0 467100.0 0
194000.0 467100.0 0
198000.0 467100.0 0
202000.0 467100.0 0
206000.0 467100.0 0
210000.0 467100.0 0
214000.0 467100.0 0
218000.0 467100.0 0
222000.0 467100.0 0
226000.0 467100.0 0
230000.0 467100.0 0
234000.0 467100.0 0
238000.0 467100.0 0
242000.0 467100.0 0
246000.0 467100.0 0
250000.0 467100.0 0
254000.0 467100.0 0
258000.0 467100.0 0
262000.0 467100.0 0
266000.0 467100.0 0
270000.0 467100.0 0
274000.0 467100.0 0
278000.0 467100.0 0
282000.0 467100.0 0
286000.0 467100.0 0
290000.0 467100.0 0
294000.0 467100.0 0
298000.0 467100.0 0
302000.0 467100.0 0
306000.0 467100.0 0
310000.0 467100.0 0
314000.0 467100.0 0
318000.0 467100.0 0
322002.0 467112.0 0
326001.0 467098.0 0
330103.0 467241.0 0
334098.0 467092.0 0
338144.0 467290.0 0
342136.0 467084.0 0
346159.0 467287.0 0
350187.0 467154.0 0
354396.0 467449.0 0
358380.0 467628.0 0
362368.0 467856.0 0
366678.0 467899.0 0
370991.0 467940.0 0
375205.0 467997.0 0
379196.0 467767.0 0
383169.0 467491.0 0
387139.0 467502.0 0
391108.0 467607.0 0
395087.0 467759.0 0
399066.0 467537.0 0
102136.0 471365.0 0
106235.0 471505.0 0
110228.0 471380.0 0
114225.0 471253.0 0
118226.0 471223.0 0
122330.0 471446.0 0
126547.0 471584.0 0
130582.0 471573.0 0
134571.0 471633.0 0
138543.0 471682.0 0
142496.0 471469.0 0
146440.0 471332.0 0
150379.0 471108.0 0
154327.0 471253.0 0
158280.0 471061.0 0
162238.0 471257.0 0
166201.0 471080.0 0
170170.0 471215.0 0
174142.0 471095.0 0
178119.0 471103.0 0
182100.0 471101.0 0
186083.0 471101.0 0
190069.0 471101.0 0
194057.0 471100.0 0
198047.0 471100.0 0
202039.0 471100.0 0
206032.0 471100.0 0
210026.0 471100.0 0
214021.0 471100.0 0
218017.0 471100.0 0
222014.0 471100.0 0
226011.0 471100.0 0
230008.0 471100.0 0
234006.0 471100.0 0
238005.0 471100.0 0
242003.0 471100.0 0
246001.0 471100.0 0
250000.0 471100.0 0
253999.0 471100.0 0
257997.0 471100.0 0
261995.0 471100.0 0
265994.0 471100.0 0
269992.0 471100.0 0
273989.0 471100.0 0
277986.0 471100.0 0
281983.0 471100.0 0
285979.0 471100.0 0
289974.0 471100.0 0
293968.0 471100.0 0
297961.0 471100.0 0
301953.0 471100.0 0
305943.0 471100.0 0
309931.0 471101.0 0
313917.0 471101.0 0
317900.0 471101.0 0
321881.0 471103.0 0
325858.0 471095.0 0
329830.0 471215.0 0
333799.0 471080.0 0
337762.0 471257.0 0
341720.0 471061.0 0
345673.0 471253.0 0
349621.0 471108.0 0
353560.0 471332.0 0
357504.0 471469.0 0
361457.0 471682.0 0
365429.0 471633.0 0
369418.0 471573.0 0
373453.0 471584.0 0
377670.0 471446.0 0
381774.0 471223.0 0
385775.0 471253.0 0
389772.0 471380.0 0
393765.0 471505.0 0
397864.0 471365.0 0
101859.0 475354.0 0
105854.0 475463.0 0
109849.0 475361.0 0
113839.0 475229.0 0
117827.0 475195.0 0
121807.0 475397.0 0
125789.0 475502.0 0
129770.0 475464.0 0
133752.0 475498.0 0
137742.0 475543.0 0
141755.0 475352.0 0
145929.0 475276.0 0
149985.0 475098.0 0
153983.0 475230.0 0
157986.0 475099.0 0
161983.0 475233.0 0
165991.0 475100.0 0
169989.0 475194.0 0
174000.0 475100.0 0
178000.0 475100.0 0
182000.0 475100.0 0
186000.0 475100.0 0
190000.0 475100.0 0
194000.0 475100.0 0
198000.0 475100.0 0
202000.0 475100.0 0
206000.0 475100.0 0
210000.0 475100.0 0
214000.0 475100.0 0
218000.0 475100.0 0
222000.0 475100.0 0
226000.0 475100.0 0
230000.0 475100.0 0
234000.0 475100.0 0
238000.0 475100.0 0
242000.0 475100.0 0
246000.0 475100.0 0
250000.0 475100.0 0
254000.0 475100.0 0
258000.0 475100.0 0
262000.0 475100.0 0
266000.0 475100.0 0
270000.0 475100.0 0
274000.0 475100.0 0
278000.0 475100.0 0
282000.0 475100.0 0
286000.0 475100.0 0
290000.0 475100.0 0
294000.0 475100.0 0
298000.0 475100.0 0
302000.0 475100.0 0
306000.0 475100.0 0
310000.0 475100.0 0
314000.0 475100.0 0
318000.0 475100.0 0
322000.0 475100.0 0
326000.0 475100.0 0
330011.0 475194.0 0
334009.0 475100.0 0
338017.0 475233.0 0
342014.0 475099.0 0
346017.0 475230.0 0
350015.0 475098.0 0
354071.0 475276.0 0
358245.0 475352.0 0
362258.0 475543.0 0
366248.0 475498.0 0
370230.0 475464.0 0
374211.0 475502.0 0
378193.0 475397.0 0
382173.0 475195.0 0
386161.0 475229.0 0
390151.0 475361.0 0
394146.0 475463.0 0
398141.0 475354.0 0
102012.0 479349.0 0
106019.0 479436.0 0
110018.0 479353.0 0
114015.0 479222.0 0
118015.0 479186.0 0
122038.0 479377.0 0
126066.0 479477.0 0
130066.0 479434.0 0
134071.0 479440.0 0
138068.0 479480.0 0
142058.0 479300.0 0
146050.0 479254.0 0
150040.0 479097.0 0
154032.0 479222.0 0
158025.0 479099.0 0
162020.0 479218.0 0
166015.0 479099.0 0
170011.0 479178.0 0
174008.0 479100.0 0
178007.0 479100.0 0
182005.0 479100.0 0
186004.0 479100.0 0
190003.0 479100.0 0
194002.0 479100.0 0
198002.0 479100.0 0
202001.0 479100.0 0
206001.0 479100.0 0
210001.0 479100.0 0
214001.0 479100.0 0
218000.0 479100.0 0
222000.0 479100.0 0
226000.0 479100.0 0
230000.0 479100.0 0
234000.0 479100.0 0
238000.0 479100.0 0
242000.0 479100.0 0
246000.0 479100.0 0
250000.0 479100.0 0
254000.0 479100.0 0
258000.0 479100.0 0
262000.0 479100.0 0
266000.0 479100.0 0
270000.0 479100.0 0
274000.0 479100.0 0
278000.0 479100.0 0
282000.0 479100.0 0
285999.0 479100.0 0
289999.0 479100.0 0
293999.0 479100.0 0
297999.0 479100.0 0
301998.0 479100.0 0
305998.0 479100.0 0
309997.0 479100.0 0
313996.0 479100.0 0
317995.0 479100.0 0
321993.0 479100.0 0
325992.0 479100.0 0
329989.0 479178.0 0
333985.0 479099.0 0
337980.0 479218.0 0
341975.0 479099.0 0
345968.0 479222.0 0
349960.0 479097.0 0
353950.0 479254.0 0
357942.0 479300.0 0
361932.0 479480.0 0
365929.0 479440.0 0
369934.0 479434.0 0
373934.0 479477.0 0
377962.0 479377.0 0
381985.0 479186.0 0
385985.0 479222.0 0
389982.0 479353.0 0
393981.0 479436.0 0
397988.0 479349.0 0
101992.0 483344.0 0
105991.0 483413.0 0
109990.0 483347.0 0
113988.0 483219.0 0
117987.0 483182.0 0
121982.0 483363.0 0
125979.0 483457.0 0
129978.0 483415.0 0
133976.0 483397.0 0
137975.0 483433.0 0
141988.0 483264.0 0
145996.0 483237.0 0
150000.0 483100.0 0
153998.0 483213.0 0
158000.0 483100.0 0
161999.0 483204.0 0
166000.0 483100.0 0
169999.0 483163.0 0
174000.0 483100.0 0
178000.0 483100.0 0
182000.0 483100.0 0
186000.0 483100.0 0
190000.0 483100.0 0
194000.0 483100.0 0
198000.0 483100.0 0
202000.0 483100.0 0
206000.0 483100.0 0
210000.0 483100.0 0
214000.0 483100.0 0
218000.0 483100.0 0
222000.0 483100.0 0
226000.0 483100.0 0
230000.0 483100.0 0
234000.0 483100.0 0
238000.0 483100.0 0
242000.0 483100.0 0
246000.0 483100.0 0
250000.0 483100.0 0
254000.0 483100.0 0
258000.0 483100.0 0
262000.0 483100.0 0
266000.0 483100.0 0
270000.0 483100.0 0
274000.0 483100.0 0
278000.0 483100.0 0
282000.0 483100.0 0
286000.0 483100.0 0
290000.0 483100.0 0
294000.0 483100.0 0
298000.0 483100.0 0
302000.0 483100.0 0
306000.0 483100.0 0
310000.0 483100.0 0
314000.0 483100.0 0
318000.0 483100.0 0
322000.0 483100.0 0
326000.0 483100.0 0
330001.0 483163.0 0
334000.0 483100.0 0
338001.0 483204.0 0
342000.0 483100.0 0
346002.0 483213.0 0
350000.0 483100.0 0
354004.0 483237.0 0
358012.0 483264.0 0
362025.0 483433.0 0
366024.0 483397.0 0
370022.0 483415.0 0
374021.0 483457.0 0
378018.0 483363.0 0
382013.0 483182.0 0
386012.0 483219.0 0
390010.0 483347.0 0
394009.0 483413.0 0
398008.0 483344.0 0
102000.0 487337.0 0
106001.0 487391.0 0
110001.0 487339.0 0
114000.0 487216.0 0
118000.0 487180.0 0
122004.0 487350.0 0
126009.0 487436.0 0
130008.0 487399.0 0
134008.0 487359.0 0
138008.0 487392.0 0
142004.0 487233.0 0
146004.0 487224.0 0
150002.0 487100.0 0
154000.0 487204.0 0
158000.0 487100.0 0
162000.0 487191.0 0
166000.0 487100.0 0
170000.0 487151.0 0
174000.0 487100.0 0
178000.0 487100.0 0
182000.0 487100.0 0
186000.0 487100.0 0
190000.0 487100.0 0
194000.0 487100.0 0
198000.0 487100.0 0
202000.0 487100.0 0
206000.0 487100.0 0
210000.0 487100.0 0
214000.0 487100.0 0
218000.0 487100.0 0
222000.0 487100.0 0
226000.0 487100.0 0
230000.0 487100.0 0
234000.0 487100.0 0
238000.0 487100.0 0
242000.0 487100.0 0
246000.0 487100.0 0
250000.0 487100.0 0
254000.0 487100.0 0
258000.0 487100.0 0
262000.0 487100.0 0
266000.0 487100.0 0
270000.0 487100.0 0
274000.0 487100.0 0
278000.0 487100.0 0
282000.0 487100.0 0
286000.0 487100.0 0
290000.0 487100.0 0
294000.0 487100.0 0
298000.0 487100.0 0
302000.0 487100.0 0
306000.0 487100.0 0
310000.0 487100.0 0
314000.0 487100.0 0
318000.0 487100.0 0
322000.0 487100.0 0
326000.0 487100.0 0
330000.0 487151.0 0
334000.0 487100.0 0
338000.0 487191.0 0
342000.0 487100.0 0
346000.0 487204.0 0
349998.0 487100.0 0
353996.0 487224.0 0
357996.0 487233.0 0
361992.0 487392.0 0
365992.0 487359.0 0
369992.0 487399.0 0
373991.0 487436.0 0
377996.0 487350.0 0
382000.0 487180.0 0
386000.0 487216.0 0
389999.0 487339.0 0
393999.0 487391.0 0
398000.0 487337.0 0
102000.0 491330.0 0
106000.0 491370.0 0
110000.0 491330.0 0
114000.0 491213.0 0
118000.0 491179.0 0
121998.0 491337.0 0
125997.0 491413.0 0
129997.0 491383.0 0
133998.0 491324.0 0
137999.0 491355.0 0
142000.0 491206.0 0
146000.0 491213.0 0
150000.0 491100.0 0
154000.0 491195.0 0
158000.0 491100.0 0
162000.0 491180.0 0
166000.0 491100.0 0
170000.0 491141.0 0
174000.0 491100.0 0
178000.0 491100.0 0
182000.0 491100.0 0
186000.0 491100.0 0
190000.0 491100.0 0
194000.0 491100.0 0
198000.0 491100.0 0
202000.0 491100.0 0
206000.0 491100.0 0
210000.0 491100.0 0
214000.0 491100.0 0
218000.0 491100.0 0
222000.0 491100.0 0
226000.0 491100.0 0
230000.0 491100.0 0
234000.0 491100.0 0
238000.0 491100.0 0
242000.0 491100.0 0
246000.0 491100.0 0
250000.0 491100.0 0
254000.0 491100.0 0
258000.0 491100.0 0
262000.0 491100.0 0
266000.0 491100.0 0
270000.0 491100.0 0
274000.0 491100.0 0
278000.0 491100.0 0
282000.0 491100.0 0
286000.0 491100.0 0
290000.0 491100.0 0
294000.0 491100.0 0
298000.0 491100.0 0
302000.0 491100.0 0
306000.0 491100.0 0
310000.0 491100.0 0
314000.0 491100.0 0
318000.0 491100.0 0
322000.0 491100.0 0
326000.0 491100.0 0
330000.0 491141.0 0
334000.0 491100.0 0
338000.0 491180.0 0
342000.0 491100.0 0
346000.0 491195.0 0
350000.0 491100.0 0
354000.0 491213.0 0
358000.0 491206.0 0
362001.0 491355.0 0
366002.0 491324.0 0
370003.0 491383.0 0
374003.0 491413.0 0
378002.0 491337.0 0
382000.0 491179.0 0
386000.0 491213.0 0
390000.0 491330.0 0
394000.0 491370.0 0
398000.0 491330.0 0
114000.0 495211.0 0
118000.0 495176.0 0
134000.0 495292.0 0
138000.0 495323.0 0
142000.0 495184.0 0
146000.0 495202.0 0
150000.0 495100.0 0
154000.0 495187.0 0
158000.0 495100.0 0
162000.0 495170.0 0
166000.0 495100.0 0
170000.0 495132.0 0
174000.0 495100.0 0
178000.0 495100.0 0
182000.0 495100.0 0
186000.0 495100.0 0
190000.0 495100.0 0
194000.0 495100.0 0
198000.0 495100.0 0
202000.0 495100.0 0
206000.0 495100.0 0
210000.0 495100.0 0
214000.0 495100.0 0
218000.0 495100.0 0
222000.0 495100.0 0
226000.0 495100.0 0
230000.0 495100.0 0
234000.0 495100.0 0
238000.0 495100.0 0
242000.0 495100.0 0
246000.0 495100.0 0
250000.0 495100.0 0
254000.0 495100.0 0
258000.0 495100.0 0
262000.0 495100.0 0
266000.0 495100.0 0
270000.0 495100.0 0
274000.0 495100.0 0
278000.0 495100.0 0
282000.0 495100.0 0
286000.0 495100.0 0
290000.0 495100.0 0
294000.0 495100.0 0
298000.0 495100.0 0
302000.0 495100.0 0
306000.0 495100.0 0
310000.0 495100.0 0
314000.0 495100.0 0
318000.0 495100.0 0
322000.0 495100.0 0
326000.0 495100.0 0
330000.0 495132.0 0
334000.0 495100.0 0
338000.0 495170.0 0
342000.0 495100.0 0
346000.0 495187.0 0
350000.0 495100.0 0
354000.0 495202.0 0
358000.0 495184.0 0
362000.0 495323.0 0
366000.0 495292.0 0
382000.0 495176.0 0
386000.0 495211.0 0
102000.0 495322.0 0
106000.0 495350.0 0
110000.0 495320.0 0
122000.0 495325.0 0
126001.0 495390.0 0
130001.0 495366.0 0
369999.0 495366.0 0
373999.0 495390.0 0
378000.0 495325.0 0
390000.0 495320.0 0
394000.0 495350.0 0
398000.0 495322.0 0
102000.0 499313.0 0
106000.0 499331.0 0
110000.0 499310.0 0
114000.0 499208.0 0
118000.0 499174.0 0
122000.0 499313.0 0
126000.0 499366.0 0
130000.0 499349.0 0
134000.0 499263.0 0
138000.0 499295.0 0
142000.0 499166.0 0
146000.0 499193.0 0
150000.0 499100.0 0
154000.0 499179.0 0
158000.0 499100.0 0
162000.0 499160.0 0
166000.0 499100.0 0
170000.0 499125.0 0
174000.0 499100.0 0
178000.0 499100.0 0
182000.0 499100.0 0
186000.0 499100.0 0
190000.0 499100.0 0
194000.0 499100.0 0
198000.0 499100.0 0
202000.0 499100.0 0
206000.0 499100.0 0
210000.0 499100.0 0
214000.0 499100.0 0
218000.0 499100.0 0
222000.0 499100.0 0
226000.0 499100.0 0
230000.0 499100.0 0
234000.0 499100.0 0
238000.0 499100.0 0
242000.0 499100.0 0
246000.0 499100.0 0
250000.0 499100.0 0
254000.0 499100.0 0
258000.0 499100.0 0
262000.0 499100.0 0
266000.0 499100.0 0
270000.0 499100.0 0
274000.0 499100.0 0
278000.0 499100.0 0
282000.0 499100.0 0
286000.0 499100.0 0
290000.0 499100.0 0
294000.0 499100.0 0
298000.0 499100.0 0
302000.0 499100.0 0
306000.0 499100.0 0
310000.0 499100.0 0
314000.0 499100.0 0
318000.0 499100.0 0
322000.0 499100.0 0
326000.0 499100.0 0
330000.0 499125.0 0
334000.0 499100.0 0
338000.0 499160.0 0
342000.0 499100.0 0
346000.0 499179.0 0
350000.0 499100.0 0
354000.0 499193.0 0
358000.0 499166.0 0
362000.0 499295.0 0
366000.0 499263.0 0
370000.0 499349.0 0
374000.0 499366.0 0
378000.0 499313.0 0
382000.0 499174.0 0
386000.0 499208.0 0
390000.0 499310.0 0
394000.0 499331.0 0
398000.0 499313.0 0
150000.0 503100.0 0
158000.0 503100.0 0
166000.0 503100.0 0
170000.0 503119.0 0
174000.0 503100.0 0
178000.0 503100.0 0
182000.0 503100.0 0
186000.0 503100.0 0
190000.0 503100.0 0
194000.0 503100.0 0
198000.0 503100.0 0
202000.0 503100.0 0
206000.0 503100.0 0
210000.0 503100.0 0
214000.0 503100.0 0
218000.0 503100.0 0
222000.0 503100.0 0
226000.0 503100.0 0
230000.0 503100.0 0
234000.0 503100.0 0
238000.0 503100.0 0
242000.0 503100.0 0
246000.0 503100.0 0
250000.0 503100.0 0
254000.0 503100.0 0
258000.0 503100.0 0
262000.0 503100.0 0
266000.0 503100.0 0
270000.0 503100.0 0
274000.0 503100.0 0
278000.0 503100.0 0
282000.0 503100.0 0
286000.0 503100.0 0
290000.0 503100.0 0
294000.0 503100.0 0
298000.0 503100.0 0
302000.0 503100.0 0
306000.0 503100.0 0
310000.0 503100.0 0
314000.0 503100.0 0
318000.0 503100.0 0
322000.0 503100.0 0
326000.0 503100.0 0
330000.0 503119.0 0
334000.0 503100.0 0
342000.0 503100.0 0
350000.0 503100.0 0
102000.0 503303.0 0
106000.0 503313.0 0
110000.0 503299.0 0
114000.0 503205.0 0
118000.0 503171.0 0
122000.0 503301.0 0
126000.0 503343.0 0
130000.0 503332.0 0
134000.0 503238.0 0
138000.0 503272.0 0
142000.0 503152.0 0
146000.0 503184.0 0
154000.0 503171.0 0
162000.0 503152.0 0
338000.0 503152.0 0
346000.0 503171.0 0
354000.0 503184.0 0
358000.0 503152.0 0
362000.0 503272.0 0
366000.0 503238.0 0
370000.0 503332.0 0
374000.0 503343.0 0
378000.0 503301.0 0
382000.0 503171.0 0
386000.0 503205.0 0
390000.0 503299.0 0
394000.0 503313.0 0
398000.0 503303.0 0
102000.0 507294.0 0
106000.0 507297.0 0
110000.0 507288.0 0
114000.0 507202.0 0
118000.0 507168.0 0
122000.0 507290.0 0
126000.0 507321.0 0
130000.0 507314.0 0
134000.0 507216.0 0
138000.0 507252.0 0
142000.0 507140.0 0
146000.0 507176.0 0
150000.0 507100.0 0
154000.0 507164.0 0
158000.0 507100.0 0
162000.0 507145.0 0
166000.0 507100.0 0
170000.0 507114.0 0
174000.0 507100.0 0
178000.0 507100.0 0
182000.0 507100.0 0
186000.0 507100.0 0
190000.0 507100.0 0
194000.0 507100.0 0
198000.0 507100.0 0
202000.0 507100.0 0
206000.0 507100.0 0
210000.0 507100.0 0
214000.0 507100.0 0
218000.0 507100.0 0
222000.0 507100.0 0
226000.0 507100.0 0
230000.0 507100.0 0
234000.0 507100.0 0
238000.0 507100.0 0
242000.0 507100.0 0
246000.0 507100.0 0
250000.0 507100.0 0
254000.0 507100.0 0
258000.0 507100.0 0
262000.0 507100.0 0
266000.0 507100.0 0
270000.0 507100.0 0
274000.0 507100.0 0
278000.0 507100.0 0
282000.0 507100.0 0
286000.0 507100.0 0
290000.0 507100.0 0
294000.0 507100.0 0
298000.0 507100.0 0
302000.0 507100.0 0
306000.0 507100.0 0
310000.0 507100.0 0
314000.0 507100.0 0
318000.0 507100.0 0
322000.0 507100.0 0
326000.0 507100.0 0
330000.0 507114.0 0
334000.0 507100.0 0
338000.0 507145.0 0
342000.0 507100.0 0
346000.0 507164.0 0
350000.0 507100.0 0
354000.0 507176.0 0
358000.0 507140.0 0
362000.0 507252.0 0
366000.0 507216.0 0
370000.0 507314.0 0
374000.0 507321.0 0
378000.0 507290.0 0
382000.0 507168.0 0
386000.0 507202.0 0
390000.0 507288.0 0
394000.0 507297.0 0
398000.0 507294.0 0
102000.0 511284.0 0
106000.0 511282.0 0
110000.0 511277.0 0
114000.0 511199.0 0
118000.0 511165.0 0
122000.0 511279.0 0
126000.0 511300.0 0
130000.0 511297.0 0
134000.0 511197.0 0
138000.0 511234.0 0
142000.0 511131.0 0
146000.0 511168.0 0
150000.0 511100.0 0
154000.0 511157.0 0
158000.0 511100.0 0
162000.0 511138.0 0
166000.0 511100.0 0
170000.0 511111.0 0
174000.0 511100.0 0
178000.0 511100.0 0
182000.0 511100.0 0
186000.0 511100.0 0
190000.0 511100.0 0
194000.0 511100.0 0
198000.0 511100.0 0
202000.0 511100.0 0
206000.0 511100.0 0
210000.0 511100.0 0
214000.0 511100.0 0
218000.0 511100.0 0
222000.0 511100.0 0
226000.0 511100.0 0
230000.0 511100.0 0
234000.0 511100.0 0
238000.0 511100.0 0
242000.0 511100.0 0
246000.0 511100.0 0
250000.0 511100.0 0
254000.0 511100.0 0
258000.0 511100.0 0
262000.0 511100.0 0
266000.0 511100.0 0
270000.0 511100.0 0
274000.0 511100.0 0
278000.0 511100.0 0
282000.0 511100.0 0
286000.0 511100.0 0
290000.0 511100.0 0
294000.0 511100.0 0
298000.0 511100.0 0
302000.0 511100.0 0
306000.0 511100.0 0
310000.0 511100.0 0
314000.0 511100.0 0
318000.0 511100.0 0
322000.0 511100.0 0
326000.0 511100.0 0
330000.0 511111.0 0
334000.0 511100.0 0
338000.0 511138.0 0
342000.0 511100.0 0
346000.0 511157.0 0
350000.0 511100.0 0
354000.0 511168.0 0
358000.0 511131.0 0
362000.0 511234.0 0
366000.0 511197.0 0
370000.0 511297.0 0
374000.0 511300.0 0
378000.0 511279.0 0
382000.0 511165.0 0
386000.0 511199.0 0
390000.0 511277.0 0
394000.0 511282.0 0
398000.0 511284.0 0
102000.0 515274.0 0
106000.0 515268.0 0
110000.0 515266.0 0
114000.0 515195.0 0
118000.0 515162.0 0
122000.0 515268.0 0
126000.0 515280.0 0
130000.0 515280.0 0
134000.0 515180.0 0
138000.0 515220.0 0
142000.0 515124.0 0
146000.0 515162.0 0
150000.0 515100.0 0
154000.0 515151.0 0
158000.0 515100.0 0
162000.0 515132.0 0
166000.0 515100.0 0
170000.0 515108.0 0
174000.0 515100.0 0
178000.0 515100.0 0
182000.0 515100.0 0
186000.0 515100.0 0
190000.0 515100.0 0
194000.0 515100.0 0
198000.0 515100.0 0
202000.0 515100.0 0
206000.0 515100.0 0
210000.0 515100.0 0
214000.0 515100.0 0
218000.0 515100.0 0
222000.0 515100.0 0
226000.0 515100.0 0
230000.0 515100.0 0
234000.0 515100.0 0
238000.0 515100.0 0
242000.0 515100.0 0
246000.0 515100.0 0
250000.0 515100.0 0
254000.0 515100.0 0
258000.0 515100.0 0
262000.0 515100.0 0
266000.0 515100.0 0
270000.0 515100.0 0
274000.0 515100.0 0
278000.0 515100.0 0
282000.0 515100.0 0
286000.0 515100.0 0
290000.0 515100.0 0
294000.0 515100.0 0
298000.0 515100.0 0
302000.0 515100.0 0
306000.0 515100.0 0
310000.0 515100.0 0
314000.0 515100.0 0
318000.0 515100.0 0
322000.0 515100.0 0
326000.0 515100.0 0
330000.0 515108.0 0
334000.0 515100.0 0
338000.0 515132.0 0
342000.0 515100.0 0
346000.0 515151.0 0
350000.0 515100.0 0
354000.0 515162.0 0
358000.0 515124.0 0
362000.0 515220.0 0
366000.0 515180.0 0
370000.0 515280.0 0
374000.0 515280.0 0
378000.0 515268.0 0
382000.0 515162.0 0
386000.0 515195.0 0
390000.0 515266.0 0
394000.0 515268.0 0
398000.0 515274.0 0
102000.0 519265.0 0
106000.0 519255.0 0
110000.0 519255.0 0
114000.0 519191.0 0
118000.0 519158.0 0
122000.0 519257.0 0
126000.0 519261.0 0
130000.0 519263.0 0
134000.0 519166.0 0
138000.0 519207.0 0
142000.0 519119.0 0
146000.0 519156.0 0
150000.0 519100.0 0
154000.0 519145.0 0
158000.0 519100.0 0
162000.0 519127.0 0
166000.0 519100.0 0
170000.0 519106.0 0
174000.0 519100.0 0
178000.0 519100.0 0
182000.0 519100.0 0
186000.0 519100.0 0
190000.0 519100.0 0
194000.0 519100.0 0
198000.0 519100.0 0
202000.0 519100.0 0
206000.0 519100.0 0
210000.0 519100.0 0
214000.0 519100.0 0
218000.0 519100.0 0
222000.0 519100.0 0
226000.0 519100.0 0
230000.0 519100.0 0
234000.0 519100.0 0
238000.0 519100.0 0
242000.0 519100.0 0
246000.0 519100.0 0
250000.0 519100.0 0
254000.0 519100.0 0
258000.0 519100.0 0
262000.0 519100.0 0
266000.0 519100.0 0
270000.0 519100.0 0
274000.0 519100.0 0
278000.0 519100.0 0
282000.0 519100.0 0
286000.0 519100.0 0
290000.0 519100.0 0
294000.0 519100.0 0
298000.0 519100.0 0
302000.0 519100.0 0
306000.0 519100.0 0
310000.0 519100.0 0
314000.0 519100.0 0
318000.0 519100.0 0
322000.0 519100.0 0
326000.0 519100.0 0
330000.0 519106.0 0
334000.0 519100.0 0
338000.0 519127.0 0
342000.0 519100.0 0
346000.0 519145.0 0
350000.0 519100.0 0
354000.0 519156.0 0
358000.0 519119.0 0
362000.0 519207.0 0
366000.0 519166.0 0
370000.0 519263.0 0
374000.0 519261.0 0
378000.0 519257.0 0
382000.0 519158.0 0
386000.0 519191.0 0
390000.0 519255.0 0
394000.0 519255.0 0
398000.0 519265.0 0
102000.0 523255.0 0
106000.0 523244.0 0
110000.0 523244.0 0
114000.0 523187.0 0
118000.0 523155.0 0
122000.0 523247.0 0
126000.0 523243.0 0
130000.0 523248.0 0
134000.0 523154.0 0
138000.0 523196.0 0
142000.0 523115.0 0
146000.0 523150.0 0
150000.0 523100.0 0
154000.0 523140.0 0
158000.0 523100.0 0
162000.0 523123.0 0
166000.0 523100.0 0
170000.0 523104.0 0
174000.0 523100.0 0
178000.0 523100.0 0
182000.0 523100.0 0
186000.0 523100.0 0
190000.0 523100.0 0
194000.0 523100.0 0
198000.0 523100.0 0
202000.0 523100.0 0
206000.0 523100.0 0
210000.0 523100.0 0
214000.0 523100.0 0
218000.0 523100.0 0
222000.0 523100.0 0
226000.0 523100.0 0
230000.0 523100.0 0
234000.0 523100.0 0
238000.0 523100.0 0
242000.0 523100.0 0
246000.0 523100.0 0
250000.0 523100.0 0
254000.0 523100.0 0
258000.0 523100.0 0
262000.0 523100.0 0
266000.0 523100.0 0
270000.0 523100.0 0
274000.0 523100.0 0
278000.0 523100.0 0
282000.0 523100.0 0
286000.0 523100.0 0
290000.0 523100.0 0
294000.0 523100.0 0
298000.0 523100.0 0
302000.0 523100.0 0
306000.0 523100.0 0
310000.0 523100.0 0
314000.0 523100.0 0
318000.0 523100.0 0
322000.0 523100.0 0
326000.0 523100.0 0
330000.0 523104.0 0
334000.0 523100.0 0
338000.0 523123.0 0
342000.0 523100.0 0
346000.0 523140.0 0
350000.0 523100.0 0
354000.0 523150.0 0
358000.0 523115.0 0
362000.0 523196.0 0
366000.0 523154.0 0
370000.0 523248.0 0
374000.0 523243.0 0
378000.0 523247.0 0
382000.0 523155.0 0
386000.0 523187.0 0
390000.0 523244.0 0
394000.0 523244.0 0
398000.0 523255.0 0
102000.0 527246.0 0
106000.0 527234.0 0
110000.0 527234.0 0
114000.0 527182.0 0
118000.0 527152.0 0
122000.0 527237.0 0
126000.0 527227.0 0
130000.0 527233.0 0
134000.0 527144.0 0
138000.0 527187.0 0
142000.0 527111.0 0
146000.0 527145.0 0
150000.0 527100.0 0
154000.0 527135.0 0
158000.0 527100.0 0
162000.0 527119.0 0
166000.0 527100.0 0
170000.0 527103.0 0
174000.0 527100.0 0
178000.0 527100.0 0
182000.0 527100.0 0
186000.0 527100.0 0
190000.0 527100.0 0
194000.0 527100.0 0
198000.0 527100.0 0
202000.0 527100.0 0
206000.0 527100.0 0
210000.0 527100.0 0
214000.0 527100.0 0
218000.0 527100.0 0
222000.0 527100.0 0
226000.0 527100.0 0
230000.0 527100.0 0
234000.0 527100.0 0
238000.0 527100.0 0
242000.0 527100.0 0
246000.0 527100.0 0
250000.0 527100.0 0
254000.0 527100.0 0
258000.0 527100.0 0
262000.0 527100.0 0
266000.0 527100.0 0
270000.0 527100.0 0
274000.0 527100.0 0
278000.0 527100.0 0
282000.0 527100.0 0
286000.0 527100.0 0
290000.0 527100.0 0
294000.0 527100.0 0
298000.0 527100.0 0
302000.0 527100.0 0
306000.0 527100.0 0
310000.0 527100.0 0
314000.0 527100.0 0
318000.0 527100.0 0
322000.0 527100.0 0
326000.0 527100.0 0
330000.0 527103.0 0
334000.0 527100.0 0
338000.0 527119.0 0
342000.0 527100.0 0
346000.0 527135.0 0
350000.0 527100.0 0
354000.0 527145.0 0
358000.0 527111.0 0
362000.0 527187.0 0
366000.0 527144.0 0
370000.0 527233.0 0
374000.0 527227.0 0
378000.0 527237.0 0
382000.0 527152.0 0
386000.0 527182.0 0
390000.0 527234.0 0
394000.0 527234.0 0
398000.0 527246.0 0
102000.0 531237.0 0
106000.0 531224.0 0
110000.0 531224.0 0
114000.0 531178.0 0
118000.0 531148.0 0
122000.0 531227.0 0
126000.0 531212.0 0
130000.0 531220.0 0
134000.0 531136.0 0
138000.0 531178.0 0
142000.0 531109.0 0
146000.0 531141.0 0
150000.0 531100.0 0
154000.0 531131.0 0
158000.0 531100.0 0
162000.0 531115.0 0
166000.0 531100.0 0
170000.0 531102.0 0
174000.0 531100.0 0
178000.0 531100.0 0
182000.0 531100.0 0
186000.0 531100.0 0
190000.0 531100.0 0
194000.0 531100.0 0
198000.0 531100.0 0
202000.0 531100.0 0
206000.0 531100.0 0
210000.0 531100.0 0
214000.0 531100.0 0
218000.0 531100.0 0
222000.0 531100.0 0
226000.0 531100.0 0
230000.0 531100.0 0
234000.0 531100.0 0
238000.0 531100.0 0
242000.0 531100.0 0
246000.0 531100.0 0
250000.0 531100.0 0
254000.0 531100.0 0
258000.0 531100.0 0
262000.0 531100.0 0
266000.0 531100.0 0
270000.0 531100.0 0
274000.0 531100.0 0
278000.0 531100.0 0
282000.0 531100.0 0
286000.0 531100.0 0
290000.0 531100.0 0
294000.0 531100.0 0
298000.0 531100.0 0
302000.0 531100.0 0
306000.0 531100.0 0
310000.0 531100.0 0
314000.0 531100.0 0
318000.0 531100.0 0
322000.0 531100.0 0
326000.0 531100.0 0
330000.0 531102.0 0
334000.0 531100.0 0
338000.0 531115.0 0
342000.0 531100.0 0
346000.0 531131.0 0
350000.0 531100.0 0
354000.0 531141.0 0
358000.0 531109.0 0
362000.0 531178.0 0
366000.0 531136.0 0
370000.0 531220.0 0
374000.0 531212.0 0
378000.0 531227.0 0
382000.0 531148.0 0
386000.0 531178.0 0
390000.0 531224.0 0
394000.0 531224.0 0
398000.0 531237.0 0
102000.0 535228.0 0
106000.0 535215.0 0
110000.0 535214.0 0
114000.0 535174.0 0
118000.0 535145.0 0
122000.0 535218.0 0
126000.0 535198.0 0
130000.0 535207.0 0
134000.0 535130.0 0
138000.0 535170.0 0
142000.0 535107.0 0
146000.0 535136.0 0
150000.0 535100.0 0
154000.0 535127.0 0
158000.0 535100.0 0
162000.0 535113.0 0
166000.0 535100.0 0
170000.0 535101.0 0
174000.0 535100.0 0
178000.0 535100.0 0
182000.0 535100.0 0
186000.0 535100.0 0
190000.0 535100.0 0
194000.0 535100.0 0
198000.0 535100.0 0
202000.0 535100.0 0
206000.0 535100.0 0
210000.0 535100.0 0
214000.0 535100.0 0
218000.0 535100.0 0
222000.0 535100.0 0
226000.0 535100.0 0
230000.0 535100.0 0
234000.0 535100.0 0
238000.0 535100.0 0
242000.0 535100.0 0
246000.0 535100.0 0
250000.0 535100.0 0
254000.0 535100.0 0
258000.0 535100.0 0
262000.0 535100.0 0
266000.0 535100.0 0
270000.0 535100.0 0
274000.0 535100.0 0
278000.0 535100.0 0
282000.0 535100.0 0
286000.0 535100.0 0
290000.0 535100.0 0
294000.0 535100.0 0
298000.0 535100.0 0
302000.0 535100.0 0
306000.0 535100.0 0
310000.0 535100.0 0
314000.0 535100.0 0
318000.0 535100.0 0
322000.0 535100.0 0
326000.0 535100.0 0
330000.0 535101.0 0
334000.0 535100.0 0
338000.0 535113.0 0
342000.0 535100.0 0
346000.0 535127.0 0
350000.0 535100.0 0
354000.0 535136.0 0
358000.0 535107.0 0
362000.0 535170.0 0
366000.0 535130.0 0
370000.0 535207.0 0
374000.0 535198.0 0
378000.0 535218.0 0
382000.0 535145.0 0
386000.0 535174.0 0
390000.0 535214.0 0
394000.0 535215.0 0
398000.0 535228.0 0
102000.0 539220.0 0
106000.0 539207.0 0
110000.0 539205.0 0
114000.0 539170.0 0
118000.0 539142.0 0
122000.0 539209.0 0
126000.0 539185.0 0
130000.0 539196.0 0
134000.0 539124.0 0
138000.0 539164.0 0
142000.0 539105.0 0
146000.0 539133.0 0
150000.0 539100.0 0
154000.0 539123.0 0
158000.0 539100.0 0
162000.0 539110.0 0
166000.0 539100.0 0
170000.0 539101.0 0
174000.0 539100.0 0
178000.0 539100.0 0
182000.0 539100.0 0
186000.0 539100.0 0
190000.0 539100.0 0
194000.0 539100.0 0
198000.0 539100.0 0
202000.0 539100.0 0
206000.0 539100.0 0
210000.0 539100.0 0
214000.0 539100.0 0
218000.0 539100.0 0
222000.0 539100.0 0
226000.0 539100.0 0
230000.0 539100.0 0
234000.0 539100.0 0
238000.0 539100.0 0
242000.0 539100.0 0
246000.0 539100.0 0
250000.0 539100.0 0
254000.0 539100.0 0
258000.0 539100.0 0
262000.0 539100.0 0
266000.0 539100.0 0
270000.0 539100.0 0
274000.0 539100.0 0
278000.0 539100.0 0
282000.0 539100.0 0
286000.0 539100.0 0
290000.0 539100.0 0
294000.0 539100.0 0
298000.0 539100.0 0
302000.0 539100.0 0
306000.0 539100.0 0
310000.0 539100.0 0
314000.0 539100.0 0
318000.0 539100.0 0
322000.0 539100.0 0
326000.0 539100.0 0
330000.0 539101.0 0
334000.0 539100.0 0
338000.0 539110.0 0
342000.0 539100.0 0
346000.0 539123.0 0
350000.0 539100.0 0
354000.0 539133.0 0
358000.0 539105.0 0
362000.0 539164.0 0
366000.0 539124.0 0
370000.0 539196.0 0
374000.0 539185.0 0
378000.0 539209.0 0
382000.0 539142.0 0
386000.0 539170.0 0
390000.0 539205.0 0
394000.0 539207.0 0
398000.0 539220.0 0
102000.0 543212.0 0
106000.0 543200.0 0
110000.0 543197.0 0
114000.0 543165.0 0
118000.0 543139.0 0
122000.0 543200.0 0
126000.0 543174.0 0
130000.0 543186.0 0
134000.0 543119.0 0
138000.0 543157.0 0
142000.0 543104.0 0
146000.0 543129.0 0
150000.0 543100.0 0
154000.0 543120.0 0
158000.0 543100.0 0
162000.0 543108.0 0
166000.0 543100.0 0
170000.0 543101.0 0
174000.0 543100.0 0
178000.0 543100.0 0
182000.0 543100.0 0
186000.0 543100.0 0
190000.0 543100.0 0
194000.0 543100.0 0
198000.0 543100.0 0
202000.0 543100.0 0
206000.0 543100.0 0
210000.0 543100.0 0
214000.0 543100.0 0
218000.0 543100.0 0
222000.0 543100.0 0
226000.0 543100.0 0
230000.0 543100.0 0
234000.0 543100.0 0
238000.0 543100.0 0
242000.0 543100.0 0
246000.0 543100.0 0
250000.0 543100.0 0
254000.0 543100.0 0
258000.0 543100.0 0
262000.0 543100.0 0
266000.0 543100.0 0
270000.0 543100.0 0
274000.0 543100.0 0
278000.0 543100.0 0
282000.0 543100.0 0
286000.0 543100.0 0
290000.0 543100.0 0
294000.0 543100.0 0
298000.0 543100.0 0
302000.0 543100.0 0
306000.0 543100.0 0
310000.0 543100.0 0
314000.0 543100.0 0
318000.0 543100.0 0
322000.0 543100.0 0
326000.0 543100.0 0
330000.0 543101.0 0
334000.0 543100.0 0
338000.0 543108.0 0
342000.0 543100.0 0
346000.0 543120.0 0
350000.0 543100.0 0
354000.0 543129.0 0
358000.0 543104.0 0
362000.0 543157.0 0
366000.0 543119.0 0
370000.0 543186.0 0
374000.0 543174.0 0
378000.0 543200.0 0
382000.0 543139.0 0
386000.0 543165.0 0
390000.0 543197.0 0
394000.0 543200.0 0
398000.0 543212.0 0
102000.0 547204.0 0
106000.0 547193.0 0
110000.0 547189.0 0
114000.0 547161.0 0
118000.0 547136.0 0
122000.0 547192.0 0
126000.0 547164.0 0
130000.0 547176.0 0
134000.0 547116.0 0
138000.0 547152.0 0
142000.0 547103.0 0
146000.0 547126.0 0
150000.0 547100.0 0
154000.0 547117.0 0
158000.0 547100.0 0
162000.0 547107.0 0
166000.0 547100.0 0
170000.0 547101.0 0
174000.0 547100.0 0
178000.0 547100.0 0
182000.0 547100.0 0
186000.0 547100.0 0
190000.0 547100.0 0
194000.0 547100.0 0
198000.0 547100.0 0
202000.0 547100.0 0
206000.0 547100.0 0
210000.0 547100.0 0
214000.0 547100.0 0
218000.0 547100.0 0
222000.0 547100.0 0
226000.0 547100.0 0
230000.0 547100.0 0
234000.0 547100.0 0
238000.0 547100.0 0
242000.0 547100.0 0
246000.0 547100.0 0
250000.0 547100.0 0
254000.0 547100.0 0
258000.0 547100.0 0
262000.0 547100.0 0
266000.0 547100.0 0
270000.0 547100.0 0
274000.0 547100.0 0
278000.0 547100.0 0
282000.0 547100.0 0
286000.0 547100.0 0
290000.0 547100.0 0
294000.0 547100.0 0
298000.0 547100.0 0
302000.0 547100.0 0
306000.0 547100.0 0
310000.0 547100.0 0
314000.0 547100.0 0
318000.0 547100.0 0
322000.0 547100.0 0
326000.0 547100.0 0
330000.0 547101.0 0
334000.0 547100.0 0
338000.0 547107.0 0
342000.0 547100.0 0
346000.0 547117.0 0
350000.0 547100.0 0
354000.0 547126.0 0
358000.0 547103.0 0
362000.0 547152.0 0
366000.0 547116.0 0
370000.0 547176.0 0
374000.0 547164.0 0
378000.0 547192.0 0
382000.0 547136.0 0
386000.0 547161.0 0
390000.0 547189.0 0
394000.0 547193.0 0
398000.0 547204.0 0
102000.0 551197.0 0
106000.0 551186.0 0
110000.0 551181.0 0
114000.0 551157.0 0
118000.0 551134.0 0
122000.0 551184.0 0
126000.0 551155.0 0
130000.0 551168.0 0
134000.0 551113.0 0
138000.0 551147.0 0
142000.0 551102.0 0
146000.0 551123.0 0
150000.0 551100.0 0
154000.0 551115.0 0
158000.0 551100.0 0
162000.0 551105.0 0
166000.0 551100.0 0
170000.0 551100.0 0
174000.0 551100.0 0
178000.0 551100.0 0
182000.0 551100.0 0
186000.0 551100.0 0
190000.0 551100.0 0
194000.0 551100.0 0
198000.0 551100.0 0
202000.0 551100.0 0
206000.0 551100.0 0
210000.0 551100.0 0
214000.0 551100.0 0
218000.0 551100.0 0
222000.0 551100.0 0
226000.0 551100.0 0
230000.0 551100.0 0
234000.0 551100.0 0
238000.0 551100.0 0
242000.0 551100.0 0
246000.0 551100.0 0
250000.0 551100.0 0
254000.0 551100.0 0
258000.0 551100.0 0
262000.0 551100.0 0
266000.0 551100.0 0
270000.0 551100.0 0
274000.0 551100.0 0
278000.0 551100.0 0
282000.0 551100.0 0
286000.0 551100.0 0
290000.0 551100.0 0
294000.0 551100.0 0
298000.0 551100.0 0
302000.0 551100.0 0
306000.0 551100.0 0
310000.0 551100.0 0
314000.0 551100.0 0
318000.0 551100.0 0
322000.0 551100.0 0
326000.0 551100.0 0
330000.0 551100.0 0
334000.0 551100.0 0
338000.0 551105.0 0
342000.0 551100.0 0
346000.0 551115.0 0
350000.0 551100.0 0
354000.0 551123.0 0
358000.0 551102.0 0
362000.0 551147.0 0
366000.0 551113.0 0
370000.0 551168.0 0
374000.0 551155.0 0
378000.0 551184.0 0
382000.0 551134.0 0
386000.0 551157.0 0
390000.0 551181.0 0
394000.0 551186.0 0
398000.0 551197.0 0
102000.0 555190.0 0
106000.0 555180.0 0
110000.0 555174.0 0
114000.0 555153.0 0
118000.0 555131.0 0
122000.0 555177.0 0
126000.0 555147.0 0
130000.0 555161.0 0
134000.0 555110.0 0
138000.0 555142.0 0
142000.0 555102.0 0
146000.0 555120.0 0
150000.0 555100.0 0
154000.0 555112.0 0
158000.0 555100.0 0
162000.0 555104.0 0
166000.0 555100.0 0
170000.0 555100.0 0
174000.0 555100.0 0
178000.0 555100.0 0
182000.0 555100.0 0
186000.0 555100.0 0
190000.0 555100.0 0
194000.0 555100.0 0
198000.0 555100.0 0
202000.0 555100.0 0
206000.0 555100.0 0
210000.0 555100.0 0
214000.0 555100.0 0
218000.0 555100.0 0
222000.0 555100.0 0
226000.0 555100.0 0
230000.0 555100.0 0
234000.0 555100.0 0
238000.0 555100.0 0
242000.0 555100.0 0
246000.0 555100.0 0
250000.0 555100.0 0
254000.0 555100.0 0
258000.0 555100.0 0
262000.0 555100.0 0
266000.0 555100.0 0
270000.0 555100.0 0
274000.0 555100.0 0
278000.0 555100.0 0
282000.0 555100.0 0
286000.0 555100.0 0
290000.0 555100.0 0
294000.0 555100.0 0
298000.0 555100.0 0
302000.0 555100.0 0
306000.0 555100.0 0
310000.0 555100.0 0
314000.0 555100.0 0
318000.0 555100.0 0
322000.0 555100.0 0
326000.0 555100.0 0
330000.0 555100.0 0
334000.0 555100.0 0
338000.0 555104.0 0
342000.0 555100.0 0
346000.0 555112.0 0
350000.0 555100.0 0
354000.0 555120.0 0
358000.0 555102.0 0
362000.0 555142.0 0
366000.0 555110.0 0
370000.0 555161.0 0
374000.0 555147.0 0
378000.0 555177.0 0
382000.0 555131.0 0
386000.0 555153.0 0
390000.0 555174.0 0
394000.0 555180.0 0
398000.0 555190.0 0
102000.0 559183.0 0
106000.0 559174.0 0
110000.0 559167.0 0
114000.0 559149.0 0
118000.0 559129.0 0
122000.0 559170.0 0
126000.0 559140.0 0
130000.0 559154.0 0
134000.0 559108.0 0
138000.0 559137.0 0
142000.0 559102.0 0
146000.0 559118.0 0
150000.0 559100.0 0
154000.0 559110.0 0
158000.0 559100.0 0
162000.0 559103.0 0
166000.0 559100.0 0
170000.0 559100.0 0
174000.0 559100.0 0
178000.0 559100.0 0
182000.0 559100.0 0
186000.0 559100.0 0
190000.0 559100.0 0
194000.0 559100.0 0
198000.0 559100.0 0
202000.0 559100.0 0
206000.0 559100.0 0
210000.0 559100.0 0
214000.0 559100.0 0
218000.0 559100.0 0
222000.0 559100.0 0
226000.0 559100.0 0
230000.0 559100.0 0
234000.0 559100.0 0
238000.0 559100.0 0
242000.0 559100.0 0
246000.0 559100.0 0
250000.0 559100.0 0
254000.0 559100.0 0
258000.0 559100.0 0
262000.0 559100.0 0
266000.0 559100.0 0
270000.0 559100.0 0
274000.0 559100.0 0
278000.0 559100.0 0
282000.0 559100.0 0
286000.0 559100.0 0
290000.0 559100.0 0
294000.0 559100.0 0
298000.0 559100.0 0
302000.0 559100.0 0
306000.0 559100.0 0
310000.0 559100.0 0
314000.0 559100.0 0
318000.0 559100.0 0
322000.0 559100.0 0
326000.0 559100.0 0
330000.0 559100.0 0
334000.0 559100.0 0
338000.0 559103.0 0
342000.0 559100.0 0
346000.0 559110.0 0
350000.0 559100.0 0
354000.0 559118.0 0
358000.0 559102.0 0
362000.0 559137.0 0
366000.0 559108.0 0
370000.0 559154.0 0
374000.0 559140.0 0
378000.0 559170.0 0
382000.0 559129.0 0
386000.0 559149.0 0
390000.0 559167.0 0
394000.0 559174.0 0
398000.0 559183.0 0
102000.0 563177.0 0
106000.0 563169.0 0
110000.0 563161.0 0
114000.0 563146.0 0
118000.0 563126.0 0
122000.0 563163.0 0
126000.0 563134.0 0
130000.0 563148.0 0
134000.0 563107.0 0
138000.0 563133.0 0
142000.0 563101.0 0
146000.0 563115.0 0
150000.0 563100.0 0
154000.0 563109.0 0
158000.0 563100.0 0
162000.0 563103.0 0
166000.0 563100.0 0
170000.0 563100.0 0
174000.0 563100.0 0
178000.0 563100.0 0
182000.0 563100.0 0
186000.0 563100.0 0
190000.0 563100.0 0
194000.0 563100.0 0
198000.0 563100.0 0
202000.0 563100.0 0
206000.0 563100.0 0
210000.0 563100.0 0
214000.0 563100.0 0
218000.0 563100.0 0
222000.0 563100.0 0
226000.0 563100.0 0
230000.0 563100.0 0
234000.0 563100.0 0
238000.0 563100.0 0
242000.0 563100.0 0
246000.0 563100.0 0
250000.0 563100.0 0
254000.0 563100.0 0
258000.0 563100.0 0
262000.0 563100.0 0
266000.0 563100.0 0
270000.0 563100.0 0
274000.0 563100.0 0
278000.0 563100.0 0
282000.0 563100.0 0
286000.0 563100.0 0
290000.0 563100.0 0
294000.0 563100.0 0
298000.0 563100.0 0
302000.0 563100.0 0
306000.0 563100.0 0
310000.0 563100.0 0
314000.0 563100.0 0
318000.0 563100.0 0
322000.0 563100.0 0
326000.0 563100.0 0
330000.0 563100.0 0
334000.0 563100.0 0
338000.0 563103.0 0
342000.0 563100.0 0
346000.0 563109.0 0
350000.0 563100.0 0
354000.0 563115.0 0
358000.0 563101.0 0
362000.0 563133.0 0
366000.0 563107.0 0
370000.0 563148.0 0
374000.0 563134.0 0
378000.0 563163.0 0
382000.0 563126.0 0
386000.0 563146.0 0
390000.0 563161.0 0
394000.0 563169.0 0
398000.0 563177.0 0
102000.0 567172.0 0
106000.0 567164.0 0
110000.0 567156.0 0
114000.0 567142.0 0
118000.0 567124.0 0
122000.0 567157.0 0
126000.0 567129.0 0
130000.0 567143.0 0
134000.0 567105.0 0
138000.0 567130.0 0
142000.0 567101.0 0
146000.0 567114.0 0
150000.0 567100.0 0
154000.0 567107.0 0
158000.0 567100.0 0
162000.0 567102.0 0
166000.0 567100.0 0
170000.0 567100.0 0
174000.0 567100.0 0
178000.0 567100.0 0
182000.0 567100.0 0
186000.0 567100.0 0
190000.0 567100.0 0
194000.0 567100.0 0
198000.0 567100.0 0
202000.0 567100.0 0
206000.0 567100.0 0
210000.0 567100.0 0
214000.0 567100.0 0
218000.0 567100.0 0
222000.0 567100.0 0
226000.0 567100.0 0
230000.0 567100.0 0
234000.0 567100.0 0
238000.0 567100.0 0
242000.0 567100.0 0
246000.0 567100.0 0
250000.0 567100.0 0
254000.0 567100.0 0
258000.0 567100.0 0
262000.0 567100.0 0
266000.0 567100.0 0
270000.0 567100.0 0
274000.0 567100.0 0
278000.0 567100.0 0
282000.0 567100.0 0
286000.0 567100.0 0
290000.0 567100.0 0
294000.0 567100.0 0
298000.0 567100.0 0
302000.0 567100.0 0
306000.0 567100.0 0
310000.0 567100.0 0
314000.0 567100.0 0
318000.0 567100.0 0
322000.0 567100.0 0
326000.0 567100.0 0
330000.0 567100.0 0
334000.0 567100.0 0
338000.0 567102.0 0
342000.0 567100.0 0
346000.0 567107.0 0
350000.0 567100.0 0
354000.0 567114.0 0
358000.0 567101.0 0
362000.0 567130.0 0
366000.0 567105.0 0
370000.0 567143.0 0
374000.0 567129.0 0
378000.0 567157.0 0
382000.0 567124.0 0
386000.0 567142.0 0
390000.0 567156.0 0
394000.0 567164.0 0
398000.0 567172.0 0
102000.0 571166.0 0
106000.0 571159.0 0
110000.0 571151.0 0
114000.0 571139.0 0
118000.0 571122.0 0
122000.0 571151.0 0
126000.0 571124.0 0
130000.0 571138.0 0
134000.0 571104.0 0
138000.0 571126.0 0
142000.0 571101.0 0
146000.0 571112.0 0
150000.0 571100.0 0
154000.0 571106.0 0
158000.0 571100.0 0
162000.0 571102.0 0
166000.0 571100.0 0
170000.0 571100.0 0
174000.0 571100.0 0
178000.0 571100.0 0
182000.0 571100.0 0
186000.0 571100.0 0
190000.0 571100.0 0
194000.0 571100.0 0
198000.0 571100.0 0
202000.0 571100.0 0
206000.0 571100.0 0
210000.0 571100.0 0
214000.0 571100.0 0
218000.0 571100.0 0
222000.0 571100.0 0
226000.0 571100.0 0
230000.0 571100.0 0
234000.0 571100.0 0
238000.0 571100.0 0
242000.0 571100.0 0
246000.0 571100.0 0
250000.0 571100.0 0
254000.0 571100.0 0
258000.0 571100.0 0
262000.0 571100.0 0
266000.0 571100.0 0
270000.0 571100.0 0
274000.0 571100.0 0
278000.0 571100.0 0
282000.0 571100.0 0
286000.0 571100.0 0
290000.0 571100.0 0
294000.0 571100.0 0
298000.0 571100.0 0
302000.0 571100.0 0
306000.0 571100.0 0
310000.0 571100.0 0
314000.0 571100.0 0
318000.0 571100.0 0
322000.0 571100.0 0
326000.0 571100.0 0
330000.0 571100.0 0
334000.0 571100.0 0
338000.0 571102.0 0
342000.0 571100.0 0
346000.0 571106.0 0
350000.0 571100.0 0
354000.0 571112.0 0
358000.0 571101.0 0
362000.0 571126.0 0
366000.0 571104.0 0
370000.0 571138.0 0
374000.0 571124.0 0
378000.0 571151.0 0
382000.0 571122.0 0
386000.0 571139.0 0
390000.0 571151.0 0
394000.0 571159.0 0
398000.0 571166.0 0
102000.0 575161.0 0
106000.0 575155.0 0
110000.0 575146.0 0
114000.0 575136.0 0
118000.0 575120.0 0
122000.0 575146.0 0
126000.0 575120.0 0
130000.0 575133.0 0
134000.0 575104.0 0
138000.0 575123.0 0
142000.0 575101.0 0
146000.0 575110.0 0
150000.0 575100.0 0
154000.0 575105.0 0
158000.0 575100.0 0
162000.0 575101.0 0
166000.0 575100.0 0
170000.0 575100.0 0
174000.0 575100.0 0
178000.0 575100.0 0
182000.0 575100.0 0
186000.0 575100.0 0
190000.0 575100.0 0
194000.0 575100.0 0
198000.0 575100.0 0
202000.0 575100.0 0
206000.0 575100.0 0
210000.0 575100.0 0
214000.0 575100.0 0
218000.0 575100.0 0
222000.0 575100.0 0
226000.0 575100.0 0
230000.0 575100.0 0
234000.0 575100.0 0
238000.0 575100.0 0
242000.0 575100.0 0
246000.0 575100.0 0
250000.0 575100.0 0
254000.0 575100.0 0
258000.0 575100.0 0
262000.0 575100.0 0
266000.0 575100.0 0
270000.0 575100.0 0
274000.0 575100.0 0
278000.0 575100.0 0
282000.0 575100.0 0
286000.0 575100.0 0
290000.0 575100.0 0
294000.0 575100.0 0
298000.0 575100.0 0
302000.0 575100.0 0
306000.0 575100.0 0
310000.0 575100.0 0
314000.0 575100.0 0
318000.0 575100.0 0
322000.0 575100.0 0
326000.0 575100.0 0
330000.0 575100.0 0
334000.0 575100.0 0
338000.0 575101.0 0
342000.0 575100.0 0
346000.0 575105.0 0
350000.0 575100.0 0
354000.0 575110.0 0
358000.0 575101.0 0
362000.0 575123.0 0
366000.0 575104.0 0
370000.0 575133.0 0
374000.0 575120.0 0
378000.0 575146.0 0
382000.0 575120.0 0
386000.0 575136.0 0
390000.0 575146.0 0
394000.0 575155.0 0
398000.0 575161.0 0
102000.0 579156.0 0
106000.0 579151.0 0
110000.0 579142.0 0
114000.0 579133.0 0
118000.0 579118.0 0
122000.0 579141.0 0
126000.0 579117.0 0
130000.0 579130.0 0
134000.0 579103.0 0
138000.0 579121.0 0
142000.0 579101.0 0
146000.0 579109.0 0
150000.0 579100.0 0
154000.0 579104.0 0
158000.0 579100.0 0
162000.0 579101.0 0
166000.0 579100.0 0
170000.0 579100.0 0
174000.0 579100.0 0
178000.0 579100.0 0
182000.0 579100.0 0
186000.0 579100.0 0
190000.0 579100.0 0
194000.0 579100.0 0
198000.0 579100.0 0
202000.0 579100.0 0
206000.0 579100.0 0
210000.0 579100.0 0
214000.0 579100.0 0
218000.0 579100.0 0
222000.0 579100.0 0
226000.0 579100.0 0
230000.0 579100.0 0
234000.0 579100.0 0
238000.0 579100.0 0
242000.0 579100.0 0
246000.0 579100.0 0
250000.0 579100.0 0
254000.0 579100.0 0
258000.0 579100.0 0
262000.0 579100.0 0
266000.0 579100.0 0
270000.0 579100.0 0
274000.0 579100.0 0
278000.0 579100.0 0
282000.0 579100.0 0
286000.0 579100.0 0
290000.0 579100.0 0
294000.0 579100.0 0
298000.0 579100.0 0
302000.0 579100.0 0
306000.0 579100.0 0
310000.0 579100.0 0
314000.0 579100.0 0
318000.0 579100.0 0
322000.0 579100.0 0
326000.0 579100.0 0
330000.0 579100.0 0
334000.0 579100.0 0
338000.0 579101.0 0
342000.0 579100.0 0
346000.0 579104.0 0
350000.0 579100.0 0
354000.0 579109.0 0
358000.0 579101.0 0
362000.0 579121.0 0
366000.0 579103.0 0
370000.0 579130.0 0
374000.0 579117.0 0
378000.0 579141.0 0
382000.0 579118.0 0
386000.0 579133.0 0
390000.0 579142.0 0
394000.0 579151.0 0
398000.0 579156.0 0
102000.0 583152.0 0
106000.0 583147.0 0
110000.0 583138.0 0
114000.0 583130.0 0
118000.0 583116.0 0
122000.0 583137.0 0
126000.0 583114.0 0
130000.0 583126.0 0
134000.0 583102.0 0
138000.0 583118.0 0
142000.0 583101.0 0
146000.0 583107.0 0
150000.0 583100.0 0
154000.0 583103.0 0
158000.0 583100.0 0
162000.0 583101.0 0
166000.0 583100.0 0
170000.0 583100.0 0
174000.0 583100.0 0
178000.0 583100.0 0
182000.0 583100.0 0
186000.0 583100.0 0
190000.0 583100.0 0
194000.0 583100.0 0
198000.0 583100.0 0
202000.0 583100.0 0
206000.0 583100.0 0
210000.0 583100.0 0
214000.0 583100.0 0
218000.0 583100.0 0
222000.0 583100.0 0
226000.0 583100.0 0
230000.0 583100.0 0
234000.0 583100.0 0
238000.0 583100.0 0
242000.0 583100.0 0
246000.0 583100.0 0
250000.0 583100.0 0
254000.0 583100.0 0
258000.0 583100.0 0
262000.0 583100.0 0
266000.0 583100.0 0
270000.0 583100.0 0
274000.0 583100.0 0
278000.0 583100.0 0
282000.0 583100.0 0
286000.0 583100.0 0
290000.0 583100.0 0
294000.0 583100.0 0
298000.0 583100.0 0
302000.0 583100.0 0
306000.0 583100.0 0
310000.0 583100.0 0
314000.0 583100.0 0
318000.0 583100.0 0
322000.0 583100.0 0
326000.0 583100.0 0
330000.0 583100.0 0
334000.0 583100.0 0
338000.0 583101.0 0
342000.0 583100.0 0
346000.0 583103.0 0
350000.0 583100.0 0
354000.0 583107.0 0
358000.0 583101.0 0
362000.0 583118.0 0
366000.0 583102.0 0
370000.0 583126.0 0
374000.0 583114.0 0
378000.0 583137.0 0
382000.0 583116.0 0
386000.0 583130.0 0
390000.0 583138.0 0
394000.0 583147.0 0
398000.0 583152.0 0
102000.0 587148.0 0
106000.0 587143.0 0
110000.0 587134.0 0
114000.0 587127.0 0
118000.0 587115.0 0
122000.0 587133.0 0
126000.0 587112.0 0
130000.0 587123.0 0
134000.0 587102.0 0
138000.0 587116.0 0
142000.0 587100.0 0
146000.0 587106.0 0
150000.0 587100.0 0
154000.0 587103.0 0
158000.0 587100.0 0
162000.0 587101.0 0
166000.0 587100.0 0
170000.0 587100.0 0
174000.0 587100.0 0
178000.0 587100.0 0
182000.0 587100.0 0
186000.0 587100.0 0
190000.0 587100.0 0
194000.0 587100.0 0
198000.0 587100.0 0
202000.0 587100.0 0
206000.0 587100.0 0
210000.0 587100.0 0
214000.0 587100.0 0
218000.0 587100.0 0
222000.0 587100.0 0
226000.0 587100.0 0
230000.0 587100.0 0
234000.0 587100.0 0
238000.0 587100.0 0
242000.0 587100.0 0
246000.0 587100.0 0
250000.0 587100.0 0
254000.0 587100.0 0
258000.0 587100.0 0
262000.0 587100.0 0
266000.0 587100.0 0
270000.0 587100.0 0
274000.0 587100.0 0
278000.0 587100.0 0
282000.0 587100.0 0
286000.0 587100.0 0
290000.0 587100.0 0
294000.0 587100.0 0
298000.0 587100.0 0
302000.0 587100.0 0
306000.0 587100.0 0
310000.0 587100.0 0
314000.0 587100.0 0
318000.0 587100.0 0
322000.0 587100.0 0
326000.0 587100.0 0
330000.0 587100.0 0
334000.0 587100.0 0
338000.0 587101.0 0
342000.0 587100.0 0
346000.0 587103.0 0
350000.0 587100.0 0
354000.0 587106.0 0
358000.0 587100.0 0
362000.0 587116.0 0
366000.0 587102.0 0
370000.0 587123.0 0
374000.0 587112.0 0
378000.0 587133.0 0
382000.0 587115.0 0
386000.0 587127.0 0
390000.0 587134.0 0
394000.0 587143.0 0
398000.0 587148.0 0
102000.0 591144.0 0
106000.0 591140.0 0
110000.0 591131.0 0
114000.0 591125.0 0
118000.0 591113.0 0
122000.0 591129.0 0
126000.0 591110.0 0
130000.0 591120.0 0
134000.0 591102.0 0
138000.0 591114.0 0
142000.0 591100.0 0
146000.0 591105.0 0
150000.0 591100.0 0
154000.0 591102.0 0
158000.0 591100.0 0
162000.0 591101.0 0
166000.0 591100.0 0
170000.0 591100.0 0
174000.0 591100.0 0
178000.0 591100.0 0
182000.0 591100.0 0
186000.0 591100.0 0
190000.0 591100.0 0
194000.0 591100.0 0
198000.0 591100.0 0
202000.0 591100.0 0
206000.0 591100.0 0
210000.0 591100.0 0
214000.0 591100.0 0
218000.0 591100.0 0
222000.0 591100.0 0
226000.0 591100.0 0
230000.0 591100.0 0
234000.0 591100.0 0
238000.0 591100.0 0
242000.0 591100.0 0
246000.0 591100.0 0
250000.0 591100.0 0
254000.0 591100.0 0
258000.0 591100.0 0
262000.0 591100.0 0
266000.0 591100.0 0
270000.0 591100.0 0
274000.0 591100.0 0
278000.0 591100.0 0
282000.0 591100.0 0
286000.0 591100.0 0
290000.0 591100.0 0
294000.0 591100.0 0
298000.0 591100.0 0
302000.0 591100.0 0
306000.0 591100.0 0
310000.0 591100.0 0
314000.0 591100.0 0
318000.0 591100.0 0
322000.0 591100.0 0
326000.0 591100.0 0
330000.0 591100.0 0
334000.0 591100.0 0
338000.0 591101.0 0
342000.0 591100.0 0
346000.0 591102.0 0
350000.0 591100.0 0
354000.0 591105.0 0
358000.0 591100.0 0
362000.0 591114.0 0
366000.0 591102.0 0
370000.0 591120.0 0
374000.0 591110.0 0
378000.0 591129.0 0
382000.0 591113.0 0
386000.0 591125.0 0
390000.0 591131.0 0
394000.0 591140.0 0
398000.0 591144.0 0
102000.0 595141.0 0
106000.0 595137.0 0
110000.0 595128.0 0
114000.0 595123.0 0
118000.0 595112.0 0
122000.0 595126.0 0
126000.0 595108.0 0
130000.0 595118.0 0
134000.0 595101.0 0
138000.0 595112.0 0
142000.0 595100.0 0
146000.0 595105.0 0
150000.0 595100.0 0
154000.0 595102.0 0
158000.0 595100.0 0
162000.0 595100.0 0
166000.0 595100.0 0
170000.0 595100.0 0
174000.0 595100.0 0
178000.0 595100.0 0
182000.0 595100.0 0
186000.0 595100.0 0
190000.0 595100.0 0
194000.0 595100.0 0
198000.0 595100.0 0
202000.0 595100.0 0
206000.0 595100.0 0
210000.0 595100.0 0
214000.0 595100.0 0
218000.0 595100.0 0
222000.0 595100.0 0
226000.0 595100.0 0
230000.0 595100.0 0
234000.0 595100.0 0
238000.0 595100.0 0
242000.0 595100.0 0
246000.0 595100.0 0
250000.0 595100.0 0
254000.0 595100.0 0
258000.0 595100.0 0
262000.0 595100.0 0
266000.0 595100.0 0
270000.0 595100.0 0
274000.0 595100.0 0
278000.0 595100.0 0
282000.0 595100.0 0
286000.0 595100.0 0
290000.0 595100.0 0
294000.0 595100.0 0
298000.0 595100.0 0
302000.0 595100.0 0
306000.0 595100.0 0
310000.0 595100.0 0
314000.0 595100.0 0
318000.0 595100.0 0
322000.0 595100.0 0
326000.0 595100.0 0
330000.0 595100.0 0
334000.0 595100.0 0
338000.0 595100.0 0
342000.0 595100.0 0
346000.0 595102.0 0
350000.0 595100.0 0
354000.0 595105.0 0
358000.0 595100.0 0
362000.0 595112.0 0
366000.0 595101.0 0
370000.0 595118.0 0
374000.0 595108.0 0
378000.0 595126.0 0
382000.0 595112.0 0
386000.0 595123.0 0
390000.0 595128.0 0
394000.0 595137.0 0
398000.0 595141.0 0
102000.0 599138.0 0
106000.0 599134.0 0
110000.0 599125.0 0
114000.0 599121.0 0
118000.0 599110.0 0
122000.0 599123.0 0
126000.0 599107.0 0
130000.0 599116.0 0
134000.0 599101.0 0
138000.0 599111.0 0
142000.0 599100.0 0
146000.0 599104.0 0
150000.0 599100.0 0
154000.0 599102.0 0
158000.0 599100.0 0
162000.0 599100.0 0
166000.0 599100.0 0
170000.0 599100.0 0
174000.0 599100.0 0
178000.0 599100.0 0
182000.0 599100.0 0
186000.0 599100.0 0
190000.0 599100.0 0
194000.0 599100.0 0
198000.0 599100.0 0
202000.0 599100.0 0
206000.0 599100.0 0
210000.0 599100.0 0
214000.0 599100.0 0
218000.0 599100.0 0
222000.0 599100.0 0
226000.0 599100.0 0
230000.0 599100.0 0
234000.0 599100.0 0
238000.0 599100.0 0
242000.0 599100.0 0
246000.0 599100.0 0
250000.0 599100.0 0
254000.0 599100.0 0
258000.0 599100.0 0
262000.0 599100.0 0
266000.0 599100.0 0
270000.0 599100.0 0
274000.0 599100.0 0
278000.0 599100.0 0
282000.0 599100.0 0
286000.0 599100.0 0
290000.0 599100.0 0
294000.0 599100.0 0
298000.0 599100.0 0
302000.0 599100.0 0
306000.0 599100.0 0
310000.0 599100.0 0
314000.0 599100.0 0
318000.0 599100.0 0
322000.0 599100.0 0
326000.0 599100.0 0
330000.0 599100.0 0
334000.0 599100.0 0
338000.0 599100.0 0
342000.0 599100.0 0
346000.0 599102.0 0
350000.0 599100.0 0
354000.0 599104.0 0
358000.0 599100.0 0
362000.0 599111.0 0
366000.0 599101.0 0
370000.0 599116.0 0
374000.0 599107.0 0
378000.0 599123.0 0
382000.0 599110.0 0
386000.0 599121.0 0
390000.0 599125.0 0
394000.0 599134.0 0
398000.0 599138.0 0
102000.0 603135.0 0
106000.0 603131.0 0
110000.0 603123.0 0
114000.0 603119.0 0
118000.0 603109.0 0
122000.0 603120.0 0
126000.0 603106.0 0
130000.0 603114.0 0
134000.0 603101.0 0
138000.0 603109.0 0
142000.0 603100.0 0
146000.0 603103.0 0
150000.0 603100.0 0
154000.0 603101.0 0
158000.0 603100.0 0
162000.0 603100.0 0
166000.0 603100.0 0
170000.0 603100.0 0
174000.0 603100.0 0
178000.0 603100.0 0
182000.0 603100.0 0
186000.0 603100.0 0
190000.0 603100.0 0
194000.0 603100.0 0
198000.0 603100.0 0
202000.0 603100.0 0
206000.0 603100.0 0
210000.0 603100.0 0
214000.0 603100.0 0
218000.0 603100.0 0
222000.0 603100.0 0
226000.0 603100.0 0
230000.0 603100.0 0
234000.0 603100.0 0
238000.0 603100.0 0
242000.0 603100.0 0
246000.0 603100.0 0
250000.0 603100.0 0
254000.0 603100.0 0
258000.0 603100.0 0
262000.0 603100.0 0
266000.0 603100.0 0
270000.0 603100.0 0
274000.0 603100.0 0
278000.0 603100.0 0
282000.0 603100.0 0
286000.0 603100.0 0
290000.0 603100.0 0
294000.0 603100.0 0
298000.0 603100.0 0
302000.0 603100.0 0
306000.0 603100.0 0
310000.0 603100.0 0
314000.0 603100.0 0
318000.0 603100.0 0
322000.0 603100.0 0
326000.0 603100.0 0
330000.0 603100.0 0
334000.0 603100.0 0
338000.0 603100.0 0
342000.0 603100.0 0
346000.0 603101.0 0
350000.0 603100.0 0
354000.0 603103.0 0
358000.0 603100.0 0
362000.0 603109.0 0
366000.0 603101.0 0
370000.0 603114.0 0
374000.0 603106.0 0
378000.0 603120.0 0
382000.0 603109.0 0
386000.0 603119.0 0
390000.0 603123.0 0
394000.0 603131.0 0
398000.0 603135.0 0
102000.0 607132.0 0
106000.0 607129.0 0
110000.0 607121.0 0
114000.0 607117.0 0
118000.0 607108.0 0
122000.0 607118.0 0
126000.0 607105.0 0
130000.0 607112.0 0
134000.0 607101.0 0
138000.0 607108.0 0
142000.0 607100.0 0
146000.0 607103.0 0
150000.0 607100.0 0
154000.0 607101.0 0
158000.0 607100.0 0
162000.0 607100.0 0
166000.0 607100.0 0
170000.0 607100.0 0
174000.0 607100.0 0
178000.0 607100.0 0
182000.0 607100.0 0
186000.0 607100.0 0
190000.0 607100.0 0
194000.0 607100.0 0
198000.0 607100.0 0
202000.0 607100.0 0
206000.0 607100.0 0
210000.0 607100.0 0
214000.0 607100.0 0
218000.0 607100.0 0
222000.0 607100.0 0
226000.0 607100.0 0
230000.0 607100.0 0
234000.0 607100.0 0
238000.0 607100.0 0
242000.0 607100.0 0
246000.0 607100.0 0
250000.0 607100.0 0
254000.0 607100.0 0
258000.0 607100.0 0
262000.0 607100.0 0
266000.0 607100.0 0
270000.0 607100.0 0
274000.0 607100.0 0
278000.0 607100.0 0
282000.0 607100.0 0
286000.0 607100.0 0
290000.0 607100.0 0
294000.0 607100.0 0
298000.0 607100.0 0
302000.0 607100.0 0
306000.0 607100.0 0
310000.0 607100.0 0
314000.0 607100.0 0
318000.0 607100.0 0
322000.0 607100.0 0
326000.0 607100.0 0
330000.0 607100.0 0
334000.0 607100.0 0
338000.0 607100.0 0
342000.0 607100.0 0
346000.0 607101.0 0
350000.0 607100.0 0
354000.0 607103.0 0
358000.0 607100.0 0
362000.0 607108.0 0
366000.0 607101.0 0
370000.0 607112.0 0
374000.0 607105.0 0
378000.0 607118.0 0
382000.0 607108.0 0
386000.0 607117.0 0
390000.0 607121.0 0
394000.0 607129.0 0
398000.0 607132.0 0
102000.0 611130.0 0
106000.0 611127.0 0
110000.0 611119.0 0
114000.0 611116.0 0
118000.0 611108.0 0
122000.0 611116.0 0
126000.0 611104.0 0
130000.0 611111.0 0
134000.0 611101.0 0
138000.0 611107.0 0
142000.0 611100.0 0
146000.0 611102.0 0
150000.0 611100.0 0
154000.0 611101.0 0
158000.0 611100.0 0
162000.0 611100.0 0
166000.0 611100.0 0
170000.0 611100.0 0
174000.0 611100.0 0
178000.0 611100.0 0
182000.0 611100.0 0
186000.0 611100.0 0
190000.0 611100.0 0
194000.0 611100.0 0
198000.0 611100.0 0
202000.0 611100.0 0
206000.0 611100.0 0
210000.0 611100.0 0
214000.0 611100.0 0
218000.0 611100.0 0
222000.0 611100.0 0
226000.0 611100.0 0
230000.0 611100.0 0
234000.0 611100.0 0
238000.0 611100.0 0
242000.0 611100.0 0
246000.0 611100.0 0
250000.0 611100.0 0
254000.0 611100.0 0
258000.0 611100.0 0
262000.0 611100.0 0
266000.0 611100.0 0
270000.0 611100.0 0
274000.0 611100.0 0
278000.0 611100.0 0
282000.0 611100.0 0
286000.0 611100.0 0
290000.0 611100.0 0
294000.0 611100.0 0
298000.0 611100.0 0
302000.0 611100.0 0
306000.0 611100.0 0
310000.0 611100.0 0
314000.0 611100.0 0
318000.0 611100.0 0
322000.0 611100.0 0
326000.0 611100.0 0
330000.0 611100.0 0
334000.0 611100.0 0
338000.0 611100.0 0
342000.0 611100.0 0
346000.0 611101.0 0
350000.0 611100.0 0
354000.0 611102.0 0
358000.0 611100.0 0
362000.0 611107.0 0
366000.0 611101.0 0
370000.0 611111.0 0
374000.0 611104.0 0
378000.0 611116.0 0
382000.0 611108.0 0
386000.0 611116.0 0
390000.0 611119.0 0
394000.0 611127.0 0
398000.0 611130.0 0
102000.0 615128.0 0
106000.0 615125.0 0
110000.0 615117.0 0
114000.0 615114.0 0
118000.0 615107.0 0
122000.0 615114.0 0
126000.0 615103.0 0
130000.0 615109.0 0
134000.0 615101.0 0
138000.0 615106.0 0
142000.0 615100.0 0
146000.0 615102.0 0
150000.0 615100.0 0
154000.0 615101.0 0
158000.0 615100.0 0
162000.0 615100.0 0
166000.0 615100.0 0
170000.0 615100.0 0
174000.0 615100.0 0
178000.0 615100.0 0
182000.0 615100.0 0
186000.0 615100.0 0
190000.0 615100.0 0
194000.0 615100.0 0
198000.0 615100.0 0
202000.0 615100.0 0
206000.0 615100.0 0
210000.0 615100.0 0
214000.0 615100.0 0
218000.0 615100.0 0
222000.0 615100.0 0
226000.0 615100.0 0
230000.0 615100.0 0
234000.0 615100.0 0
238000.0 615100.0 0
242000.0 615100.0 0
246000.0 615100.0 0
250000.0 615100.0 0
254000.0 615100.0 0
258000.0 615100.0 0
262000.0 615100.0 0
266000.0 615100.0 0
270000.0 615100.0 0
274000.0 615100.0 0
278000.0 615100.0 0
282000.0 615100.0 0
286000.0 615100.0 0
290000.0 615100.0 0
294000.0 615100.0 0
298000.0 615100.0 0
302000.0 615100.0 0
306000.0 615100.0 0
310000.0 615100.0 0
314000.0 615100.0 0
318000.0 615100.0 0
322000.0 615100.0 0
326000.0 615100.0 0
330000.0 615100.0 0
334000.0 615100.0 0
338000.0 615100.0 0
342000.0 615100.0 0
346000.0 615101.0 0
350000.0 615100.0 0
354000.0 615102.0 0
358000.0 615100.0 0
362000.0 615106.0 0
366000.0 615101.0 0
370000.0 615109.0 0
374000.0 615103.0 0
378000.0 615114.0 0
382000.0 615107.0 0
386000.0 615114.0 0
390000.0 615117.0 0
394000.0 615125.0 0
398000.0 615128.0 0
102000.0 619126.0 0
106000.0 619123.0 0
110000.0 619116.0 0
114000.0 619113.0 0
118000.0 619106.0 0
122000.0 619112.0 0
126000.0 619103.0 0
130000.0 619108.0 0
134000.0 619101.0 0
138000.0 619105.0 0
142000.0 619100.0 0
146000.0 619102.0 0
150000.0 619100.0 0
154000.0 619101.0 0
158000.0 619100.0 0
162000.0 619100.0 0
166000.0 619100.0 0
170000.0 619100.0 0
174000.0 619100.0 0
178000.0 619100.0 0
182000.0 619100.0 0
186000.0 619100.0 0
190000.0 619100.0 0
194000.0 619100.0 0
198000.0 619100.0 0
202000.0 619100.0 0
206000.0 619100.0 0
210000.0 619100.0 0
214000.0 619100.0 0
218000.0 619100.0 0
222000.0 619100.0 0
226000.0 619100.0 0
230000.0 619100.0 0
234000.0 619100.0 0
238000.0 619100.0 0
242000.0 619100.0 0
246000.0 619100.0 0
250000.0 619100.0 0
254000.0 619100.0 0
258000.0 619100.0 0
262000.0 619100.0 0
266000.0 619100.0 0
270000.0 619100.0 0
274000.0 619100.0 0
278000.0 619100.0 0
282000.0 619100.0 0
286000.0 619100.0 0
290000.0 619100.0 0
294000.0 619100.0 0
298000.0 619100.0 0
302000.0 619100.0 0
306000.0 619100.0 0
310000.0 619100.0 0
314000.0 619100.0 0
318000.0 619100.0 0
322000.0 619100.0 0
326000.0 619100.0 0
330000.0 619100.0 0
334000.0 619100.0 0
338000.0 619100.0 0
342000.0 619100.0 0
346000.0 619101.0 0
350000.0 619100.0 0
354000.0 619102.0 0
358000.0 619100.0 0
362000.0 619105.0 0
366000.0 619101.0 0
370000.0 619108.0 0
374000.0 619103.0 0
378000.0 619112.0 0
382000.0 619106.0 0
386000.0 619113.0 0
390000.0 619116.0 0
394000.0 619123.0 0
398000.0 619126.0 0
102000.0 623124.0 0
106000.0 623122.0 0
110000.0 623114.0 0
114000.0 623112.0 0
118000.0 623105.0 0
122000.0 623111.0 0
126000.0 623102.0 0
130000.0 623107.0 0
134000.0 623100.0 0
138000.0 623104.0 0
142000.0 623100.0 0
146000.0 623101.0 0
150000.0 623100.0 0
154000.0 623100.0 0
158000.0 623100.0 0
162000.0 623100.0 0
166000.0 623100.0 0
170000.0 623100.0 0
174000.0 623100.0 0
178000.0 623100.0 0
182000.0 623100.0 0
186000.0 623100.0 0
190000.0 623100.0 0
194000.0 623100.0 0
198000.0 623100.0 0
202000.0 623100.0 0
206000.0 623100.0 0
210000.0 623100.0 0
214000.0 623100.0 0
218000.0 623100.0 0
222000.0 623100.0 0
226000.0 623100.0 0
230000.0 623100.0 0
234000.0 623100.0 0
238000.0 623100.0 0
242000.0 623100.0 0
246000.0 623100.0 0
250000.0 623100.0 0
254000.0 623100.0 0
258000.0 623100.0 0
262000.0 623100.0 0
266000.0 623100.0 0
270000.0 623100.0 0
274000.0 623100.0 0
278000.0 623100.0 0
282000.0 623100.0 0
286000.0 623100.0 0
290000.0 623100.0 0
294000.0 623100.0 0
298000.0 623100.0 0
302000.0 623100.0 0
306000.0 623100.0 0
310000.0 623100.0 0
314000.0 623100.0 0
318000.0 623100.0 0
322000.0 623100.0 0
326000.0 623100.0 0
330000.0 623100.0 0
334000.0 623100.0 0
338000.0 623100.0 0
342000.0 623100.0 0
346000.0 623100.0 0
350000.0 623100.0 0
354000.0 623101.0 0
358000.0 623100.0 0
362000.0 623104.0 0
366000.0 623100.0 0
370000.0 623107.0 0
374000.0 623102.0 0
378000.0 623111.0 0
382000.0 623105.0 0
386000.0 623112.0 0
390000.0 623114.0 0
394000.0 623122.0 0
398000.0 623124.0 0
102000.0 627123.0 0
106000.0 627120.0 0
110000.0 627113.0 0
114000.0 627111.0 0
118000.0 627105.0 0
122000.0 627110.0 0
126000.0 627102.0 0
130000.0 627107.0 0
134000.0 627100.0 0
138000.0 627104.0 0
142000.0 627100.0 0
146000.0 627101.0 0
150000.0 627100.0 0
154000.0 627100.0 0
158000.0 627100.0 0
162000.0 627100.0 0
166000.0 627100.0 0
170000.0 627100.0 0
174000.0 627100.0 0
178000.0 627100.0 0
182000.0 627100.0 0
186000.0 627100.0 0
190000.0 627100.0 0
194000.0 627100.0 0
198000.0 627100.0 0
202000.0 627100.0 0
206000.0 627100.0 0
210000.0 627100.0 0
214000.0 627100.0 0
218000.0 627100.0 0
222000.0 627100.0 0
226000.0 627100.0 0
230000.0 627100.0 0
234000.0 627100.0 0
238000.0 627100.0 0
242000.0 627100.0 0
246000.0 627100.0 0
250000.0 627100.0 0
254000.0 627100.0 0
258000.0 627100.0 0
262000.0 627100.0 0
266000.0 627100.0 0
270000.0 627100.0 0
274000.0 627100.0 0
278000.0 627100.0 0
282000.0 627100.0 0
286000.0 627100.0 0
290000.0 627100.0 0
294000.0 627100.0 0
298000.0 627100.0 0
302000.0 627100.0 0
306000.0 627100.0 0
310000.0 627100.0 0
314000.0 627100.0 0
318000.0 627100.0 0
322000.0 627100.0 0
326000.0 627100.0 0
330000.0 627100.0 0
334000.0 627100.0 0
338000.0 627100.0 0
342000.0 627100.0 0
346000.0 627100.0 0
350000.0 627100.0 0
354000.0 627101.0 0
358000.0 627100.0 0
362000.0 627104.0 0
366000.0 627100.0 0
370000.0 627107.0 0
374000.0 627102.0 0
378000.0 627110.0 0
382000.0 627105.0 0
386000.0 627111.0 0
390000.0 627113.0 0
394000.0 627120.0 0
398000.0 627123.0 0
102000.0 631121.0 0
106000.0 631119.0 0
110000.0 631112.0 0
114000.0 631110.0 0
118000.0 631104.0 0
122000.0 631109.0 0
126000.0 631102.0 0
130000.0 631106.0 0
134000.0 631100.0 0
138000.0 631103.0 0
142000.0 631100.0 0
146000.0 631101.0 0
150000.0 631100.0 0
154000.0 631100.0 0
158000.0 631100.0 0
162000.0 631100.0 0
166000.0 631100.0 0
170000.0 631100.0 0
174000.0 631100.0 0
178000.0 631100.0 0
182000.0 631100.0 0
186000.0 631100.0 0
190000.0 631100.0 0
194000.0 631100.0 0
198000.0 631100.0 0
202000.0 631100.0 0
206000.0 631100.0 0
210000.0 631100.0 0
214000.0 631100.0 0
218000.0 631100.0 0
222000.0 631100.0 0
226000.0 631100.0 0
230000.0 631100.0 0
234000.0 631100.0 0
238000.0 631100.0 0
242000.0 631100.0 0
246000.0 631100.0 0
250000.0 631100.0 0
254000.0 631100.0 0
258000.0 631100.0 0
262000.0 631100.0 0
266000.0 631100.0 0
270000.0 631100.0 0
274000.0 631100.0 0
278000.0 631100.0 0
282000.0 631100.0 0
286000.0 631100.0 0
290000.0 631100.0 0
294000.0 631100.0 0
298000.0 631100.0 0
302000.0 631100.0 0
306000.0 631100.0 0
310000.0 631100.0 0
314000.0 631100.0 0
318000.0 631100.0 0
322000.0 631100.0 0
326000.0 631100.0 0
330000.0 631100.0 0
334000.0 631100.0 0
338000.0 631100.0 0
342000.0 631100.0 0
346000.0 631100.0 0
350000.0 631100.0 0
354000.0 631101.0 0
358000.0 631100.0 0
362000.0 631103.0 0
366000.0 631100.0 0
370000.0 631106.0 0
374000.0 631102.0 0
378000.0 631109.0 0
382000.0 631104.0 0
386000.0 631110.0 0
390000.0 631112.0 0
394000.0 631119.0 0
398000.0 631121.0 0
102000.0 635120.0 0
106000.0 635118.0 0
110000.0 635112.0 0
114000.0 635110.0 0
118000.0 635104.0 0
122000.0 635108.0 0
126000.0 635101.0 0
130000.0 635105.0 0
134000.0 635100.0 0
138000.0 635103.0 0
142000.0 635100.0 0
146000.0 635101.0 0
150000.0 635100.0 0
154000.0 635100.0 0
158000.0 635100.0 0
162000.0 635100.0 0
166000.0 635100.0 0
170000.0 635100.0 0
174000.0 635100.0 0
178000.0 635100.0 0
182000.0 635100.0 0
186000.0 635100.0 0
190000.0 635100.0 0
194000.0 635100.0 0
198000.0 635100.0 0
202000.0 635100.0 0
206000.0 635100.0 0
210000.0 635100.0 0
214000.0 635100.0 0
218000.0 635100.0 0
222000.0 635100.0 0
226000.0 635100.0 0
230000.0 635100.0 0
234000.0 635100.0 0
238000.0 635100.0 0
242000.0 635100.0 0
246000.0 635100.0 0
250000.0 635100.0 0
254000.0 635100.0 0
258000.0 635100.0 0
262000.0 635100.0 0
266000.0 635100.0 0
270000.0 635100.0 0
274000.0 635100.0 0
278000.0 635100.0 0
282000.0 635100.0 0
286000.0 635100.0 0
290000.0 635100.0 0
294000.0 635100.0 0
298000.0 635100.0 0
302000.0 635100.0 0
306000.0 635100.0 0
310000.0 635100.0 0
314000.0 635100.0 0
318000.0 635100.0 0
322000.0 635100.0 0
326000.0 635100.0 0
330000.0 635100.0 0
334000.0 635100.0 0
338000.0 635100.0 0
342000.0 635100.0 0
346000.0 635100.0 0
350000.0 635100.0 0
354000.0 635101.0 0
358000.0 635100.0 0
362000.0 635103.0 0
366000.0 635100.0 0
370000.0 635105.0 0
374000.0 635101.0 0
378000.0 635108.0 0
382000.0 635104.0 0
386000.0 635110.0 0
390000.0 635112.0 0
394000.0 635118.0 0
398000.0 635120.0 0
102000.0 639120.0 0
106000.0 639117.0 0
110000.0 639111.0 0
114000.0 639109.0 0
118000.0 639104.0 0
122000.0 639107.0 0
126000.0 639101.0 0
130000.0 639105.0 0
134000.0 639100.0 0
138000.0 639103.0 0
142000.0 639100.0 0
146000.0 639101.0 0
150000.0 639100.0 0
154000.0 639100.0 0
158000.0 639100.0 0
162000.0 639100.0 0
166000.0 639100.0 0
170000.0 639100.0 0
174000.0 639100.0 0
178000.0 639100.0 0
182000.0 639100.0 0
186000.0 639100.0 0
190000.0 639100.0 0
194000.0 639100.0 0
198000.0 639100.0 0
202000.0 639100.0 0
206000.0 639100.0 0
210000.0 639100.0 0
214000.0 639100.0 0
218000.0 639100.0 0
222000.0 639100.0 0
226000.0 639100.0 0
230000.0 639100.0 0
234000.0 639100.0 0
238000.0 639100.0 0
242000.0 639100.0 0
246000.0 639100.0 0
250000.0 639100.0 0
254000.0 639100.0 0
258000.0 639100.0 0
262000.0 639100.0 0
266000.0 639100.0 0
270000.0 639100.0 0
274000.0 639100.0 0
278000.0 639100.0 0
282000.0 639100.0 0
286000.0 639100.0 0
290000.0 639100.0 0
294000.0 639100.0 0
298000.0 639100.0 0
302000.0 639100.0 0
306000.0 639100.0 0
310000.0 639100.0 0
314000.0 639100.0 0
318000.0 639100.0 0
322000.0 639100.0 0
326000.0 639100.0 0
330000.0 639100.0 0
334000.0 639100.0 0
338000.0 639100.0 0
342000.0 639100.0 0
346000.0 639100.0 0
350000.0 639100.0 0
354000.0 639101.0 0
358000.0 639100.0 0
362000.0 639103.0 0
366000.0 639100.0 0
370000.0 639105.0 0
374000.0 639101.0 0
378000.0 639107.0 0
382000.0 639104.0 0
386000.0 639109.0 0
390000.0 639111.0 0
394000.0 639117.0 0
398000.0 639120.0 0
102000.0 643119.0 0
106000.0 643117.0 0
110000.0 643111.0 0
114000.0 643109.0 0
118000.0 643104.0 0
122000.0 643107.0 0
126000.0 643101.0 0
130000.0 643105.0 0
134000.0 643100.0 0
138000.0 643102.0 0
142000.0 643100.0 0
146000.0 643101.0 0
150000.0 643100.0 0
154000.0 643100.0 0
158000.0 643100.0 0
162000.0 643100.0 0
166000.0 643100.0 0
170000.0 643100.0 0
174000.0 643100.0 0
178000.0 643100.0 0
182000.0 643100.0 0
186000.0 643100.0 0
190000.0 643100.0 0
194000.0 643100.0 0
198000.0 643100.0 0
202000.0 643100.0 0
206000.0 643100.0 0
210000.0 643100.0 0
214000.0 643100.0 0
218000.0 643100.0 0
222000.0 643100.0 0
226000.0 643100.0 0
230000.0 643100.0 0
234000.0 643100.0 0
238000.0 643100.0 0
242000.0 643100.0 0
246000.0 643100.0 0
250000.0 643100.0 0
254000.0 643100.0 0
258000.0 643100.0 0
262000.0 643100.0 0
266000.0 643100.0 0
270000.0 643100.0 0
274000.0 643100.0 0
278000.0 643100.0 0
282000.0 643100.0 0
286000.0 643100.0 0
290000.0 643100.0 0
294000.0 643100.0 0
298000.0 643100.0 0
302000.0 643100.0 0
306000.0 643100.0 0
310000.0 643100.0 0
314000.0 643100.0 0
318000.0 643100.0 0
322000.0 643100.0 0
326000.0 643100.0 0
330000.0 643100.0 0
334000.0 643100.0 0
338000.0 643100.0 0
342000.0 643100.0 0
346000.0 643100.0 0
350000.0 643100.0 0
354000.0 643101.0 0
358000.0 643100.0 0
362000.0 643102.0 0
366000.0 643100.0 0
370000.0 643105.0 0
374000.0 643101.0 0
378000.0 643107.0 0
382000.0 643104.0 0
386000.0 643109.0 0
390000.0 643111.0 0
394000.0 643117.0 0
398000.0 643119.0 0
102000.0 647119.0 0
106000.0 647117.0 0
110000.0 647110.0 0
114000.0 647108.0 0
118000.0 647103.0 0
122000.0 647107.0 0
126000.0 647101.0 0
130000.0 647104.0 0
134000.0 647100.0 0
138000.0 647102.0 0
142000.0 647100.0 0
146000.0 647101.0 0
150000.0 647100.0 0
154000.0 647100.0 0
158000.0 647100.0 0
162000.0 647100.0 0
166000.0 647100.0 0
170000.0 647100.0 0
174000.0 647100.0 0
178000.0 647100.0 0
182000.0 647100.0 0
186000.0 647100.0 0
190000.0 647100.0 0
194000.0 647100.0 0
198000.0 647100.0 0
202000.0 647100.0 0
206000.0 647100.0 0
210000.0 647100.0 0
214000.0 647100.0 0
218000.0 647100.0 0
222000.0 647100.0 0
226000.0 647100.0 0
230000.0 647100.0 0
234000.0 647100.0 0
238000.0 647100.0 0
242000.0 647100.0 0
246000.0 647100.0 0
250000.0 647100.0 0
254000.0 647100.0 0
258000.0 647100.0 0
262000.0 647100.0 0
266000.0 647100.0 0
270000.0 647100.0 0
274000.0 647100.0 0
278000.0 647100.0 0
282000.0 647100.0 0
286000.0 647100.0 0
290000.0 647100.0 0
294000.0 647100.0 0
298000.0 647100.0 0
302000.0 647100.0 0
306000.0 647100.0 0
310000.0 647100.0 0
314000.0 647100.0 0
318000.0 647100.0 0
322000.0 647100.0 0
326000.0 647100.0 0
330000.0 647100.0 0
334000.0 647100.0 0
338000.0 647100.0 0
342000.0 647100.0 0
346000.0 647100.0 0
350000.0 647100.0 0
354000.0 647101.0 0
358000.0 647100.0 0
362000.0 647102.0 0
366000.0 647100.0 0
370000.0 647104.0 0
374000.0 647101.0 0
378000.0 647107.0 0
382000.0 647103.0 0
386000.0 647108.0 0
390000.0 647110.0 0
394000.0 647117.0 0
398000.0 647119.0 0
102000.0 651118.0 0
106000.0 651116.0 0
110000.0 651110.0 0
114000.0 651108.0 0
118000.0 651103.0 0
122000.0 651106.0 0
126000.0 651101.0 0
130000.0 651104.0 0
134000.0 651100.0 0
138000.0 651102.0 0
142000.0 651100.0 0
146000.0 651101.0 0
150000.0 651100.0 0
154000.0 651100.0 0
158000.0 651100.0 0
162000.0 651100.0 0
166000.0 651100.0 0
170000.0 651100.0 0
174000.0 651100.0 0
178000.0 651100.0 0
182000.0 651100.0 0
186000.0 651100.0 0
190000.0 651100.0 0
194000.0 651100.0 0
198000.0 651100.0 0
202000.0 651100.0 0
206000.0 651100.0 0
210000.0 651100.0 0
214000.0 651100.0 0
218000.0 651100.0 0
222000.0 651100.0 0
226000.0 651100.0 0
230000.0 651100.0 0
234000.0 651100.0 0
238000.0 651100.0 0
242000.0 651100.0 0
246000.0 651100.0 0
250000.0 651100.0 0
254000.0 651100.0 0
258000.0 651100.0 0
262000.0 651100.0 0
266000.0 651100.0 0
270000.0 651100.0 0
274000.0 651100.0 0
278000.0 651100.0 0
282000.0 651100.0 0
286000.0 651100.0 0
290000.0 651100.0 0
294000.0 651100.0 0
298000.0 651100.0 0
302000.0 651100.0 0
306000.0 651100.0 0
310000.0 651100.0 0
314000.0 651100.0 0
318000.0 651100.0 0
322000.0 651100.0 0
326000.0 651100.0 0
330000.0 651100.0 0
334000.0 651100.0 0
338000.0 651100.0 0
342000.0 651100.0 0
346000.0 651100.0 0
350000.0 651100.0 0
354000.0 651101.0 0
358000.0 651100.0 0
362000.0 651102.0 0
366000.0 651100.0 0
370000.0 651104.0 0
374000.0 651101.0 0
378000.0 651106.0 0
382000.0 651103.0 0
386000.0 651108.0 0
390000.0 651110.0 0
394000.0 651116.0 0
398000.0 651118.0 0
POINT_DATA 4650
SCALARS Radius float 1
LOOKUP_TABLE default
4000.0 4000.0 4000.0 4000.0 4000.0 4000.0 4000.0 4000.0 4000.0 4000.0 4000.0 4000.0 4000.0 4000.0 4000.0 4000.0 4000.0 4000.0 4000.0 4000.0 4000.0 4000.0 4000.0 4000.0 4000.0 4000.0 4000.0 4000.0 4000.0 4000.0 4000.0 4000.0 4000.0 4000.0 4000.0 4000.0 4000.0 4000.0 4000.0 4000.0 4000.0 4000.0 4000.0 4000.0 4000.0 4000.0 4000.0 4000.0 4000.0 4000.0 4000.0 4000.0 4000.0 4000.0 4000.0 4000.0 4000.0 4000.0 4000.0 4000.0 4000.0 4000.0 4000.0 4000.0 4000.0 4000.0 4000.0 4000.0 4000.0 4000.0 4000.0 4000.0 4000.0 4000.0 4000.0 4000.0 4000.0 4000.0 4000.0 4000.0 4000.0 4000.0 4000.0 4000.0 4000.0 4000.0 4000.0 4000.0 4000.0 4000.0 4000.0 4000.0 4000.0 4000.0 4000.0 4000.0 4000.0 4000.0 4000.0 4000.0 4000.0 4000.0 4000.0 4000.0 4000.0 4000.0 4000.0 4000.0 4000.0 4000.0 4000.0 4000.0 4000.0 4000.0 4000.0 4000.0 4000.0 4000.0 4000.0 4000.0 4000.0 4000.0 4000.0 4000.0 4000.0 4000.0 4000.0 4000.0 4000.0 4000.0 4000.0 4000.0 4000.0 4000.0 4000.0 4000.0 4000.0 4000.0 4000.0 4000.0 4000.0 4000.0 4000.0 4000.0 4000.0 4000.0 4000.0 4000.0 4000.0 4000.0 4000.0 4000.0 4000.0 4000.0 4000.0 4000.0 4000.0 4000.0 4000.0 4000.0 4000.0 4000.0 4000.0 4000.0 4000.0 4000.0 4000.0 4000.0 4000.0 4000.0 4000.0 4000.0 4000.0 4000.0 4000.0 4000.0 4000.0 4000.0 4000.0 4000.0 4000.0 4000.0 4000.0 4000.0 4000.0 4000.0 4000.0 4000.0 4000.0 4000.0 4000.0 4000.0 4000.0 4000.0 4000.0 4000.0 4000.0 4000.0 4000.0 4000.0 4000.0 4000.0 4000.0 4000.0 4000.0 4000.0 4000.0 4000.0 4000.0 4000.0 4000.0 4000.0 4000.0 4000.0 4000.0 4000.0 4000.0 4000.0 4000.0 4000.0 4000.0 4000.0 4000.0 4000.0 4000.0 4000.0 4000.0 4000.0 4000.0 4000.0 4000.0 4000.0 4000.0 4000.0 4000.0 4000.0 4000.0 4000.0 4000.0 4000.0 4000.0 4000.0 4000.0 4000.0 4000.0 4000.0 4000.0 4000.0 4000.0 4000.0 4000.0 4000.0 4000.0 4000.0 4000.0 4000.0 4000.0 4000.0 4000.0 4000.0 4000.0 4000.0 4000.0 4000.0 4000.0 4000.0 4000.0 4000.0 4000.0 4000.0 4000.0 4000.0 4000.0 4000.0 4000.0 4000.0 4000.0 4000.0 4000.0 4000.0 4000.0 4000.0 4000.0 4000.0 4000.0 4000.0 4000.0 4000.0 4000.0 4000.0 4000.0 4000.0 4000.0 4000.0 4000.0 4000.0 4000.0 4000.0 4000.0 4000.0 4000.0 4000.0 4000.0 4000.0 4000.0 4000.0 4000.0 4000.0 4000.0 4000.0 4000.0 4000.0 4000.0 4000.0 4000.0 4000.0 4000.0 4000.0 4000.0 4000.0 4000.0 4000.0 4000.0 4000.0 4000.0 4000.0 4000.0 4000.0 4000.0 4000.0 4000.0 4000.0 4000.0 4000.0 4000.0 4000.0 4000.0 4000.0 4000.0 4000.0 4000.0 4000.0 4000.0 4000.0 4000.0 4000.0 4000.0 4000.0 4000.0 4000.0 4000.0 4000.0 4000.0 4000.0 4000.0 4000.0 4000.0 4000.0 4000.0 4000.0 4000.0 4000.0 4000.0 4000.0 4000.0 4000.0 4000.0 4000.0 4000.0 4000.0 4000.0 4000.0 4000.0 4000.0 4000.0 4000.0 4000.0 4000.0 4000.0 4000.0 4000.0 4000.0 4000.0 4000.0 4000.0 4000.0 4000.0 4000.0 4000.0 4000.0 4000.0 4000.0 4000.0 4000.0 4000.0 4000.0 4000.0 4000.0 4000.0 4000.0 4000.0 4000.0 4000.0 4000.0 4000.0 4000.0 4000.0 4000.0 4000.0 4000.0 4000.0 4000.0 4000.0 4000.0 4000.0 4000.0 4000.0 4000.0 4000.0 4000.0 4000.0 4000.0 4000.0 4000.0 4000.0 4000.0 4000.0 4000.0 4000.0 4000.0 4000.0 4000.0 4000.0 4000.0 4000.0 4000.0 4000.0 4000.0 4000.0 4000.0 4000.0 4000.0 4000.0 4000.0 4000.0 4000.0 4000.0 4000.0 4000.0 4000.0 4000.0 4000.0 4000.0 4000.0 4000.0 4000.0 4000.0 4000.0 4000.0 4000.0 4000.0 4000.0 4000.0 4000.0 4000.0 4000.0 4000.0 4000.0 4000.0 4000.0 4000.0 4000.0 4000.0 4000.0 4000.0 4000.0 4000.0 4000.0 4000.0 4000.0 4000.0 4000.0 4000.0 4000.0 4000.0 4000.0 4000.0 4000.0 4000.0 4000.0 4000.0 4000.0 4000.0 4000.0 4000.0 4000.0 4000.0 4000.0 4000.0 4000.0 4000.0 4000.0 4000.0 4000.0 4000.0 4000.0 4000.0 4000.0 4000.0 4000.0 4000.0 4000.0 4000.0 4000.0 4000.0 4000.0 4000.0 4000.0 4000.0 4000.0 4000.0 4000.0 4000.0 4000.0 4000.0 4000.0 4000.0 4000.0 4000.0 4000.0 4000.0 4000.0 4000.0 4000.0 4000.0 4000.0 4000.0 4000.0 4000.0 4000.0 4000.0 4000.0 4000.0 4000.0 4000.0 4000.0 4000.0 4000.0 4000.0 4000.0 4000.0 4000.0 4000.0 4000.0 4000.0 4000.0 4000.0 4000.0 4000.0 4000.0 4000.0 4000.0 4000.0 4000.0 4000.0 4000.0 4000.0 4000.0 4000.0 4000.0 4000.0 4000.0 4000.0 4000.0 4000.0 4000.0 4000.0 4000.0 4000.0 4000.0 4000.0 4000.0 4000.0 4000.0 4000.0 4000.0 4000.0 4000.0 4000.0 4000.0 4000.0 4000.0 4000.0 4000.0 4000.0 4000.0 4000.0 4000.0 4000.0 4000.0 4000.0 4000.0 4000.0 4000.0 4000.0 4000.0 4000.0 4000.0 4000.0 4000.0 4000.0 4000.0 4000.0 4000.0 4000.0 4000.0 4000.0 4000.0 4000.0 4000.0 4000.0 4000.0 4000.0 4000.0 4000.0 4000.0 4000.0 4000.0 4000.0 4000.0 4000.0 4000.0 4000.0 4000.0 4000.0 4000.0 4000.0 4000.0 4000.0 4000.0 4000.0 4000.0 4000.0 4000.0 4000.0 4000.0 4000.0 4000.0 4000.0 4000.0 4000.0 4000.0 4000.0 4000.0 4000.0 4000.0 4000.0 4000.0 4000.0 4000.0 4000.0 4000.0 4000.0 4000.0 4000.0 4000.0 4000.0 4000.0 4000.0 4000.0 4000.0 4000.0 4000.0 4000.0 4000.0 4000.0 4000.0 4000.0 4000.0 4000.0 4000.0 4000.0 4000.0 4000.0 4000.0 4000.0 4000.0 4000.0 4000.0 4000.0 4000.0 4000.0 4000.0 4000.0 4000.0 4000.0 4000.0 4000.0 4000.0 4000.0 4000.0 4000.0 4000.0 4000.0 4000.0 4000.0 4000.0 4000.0 4000.0 4000.0 4000.0 4000.0 4000.0 4000.0 4000.0 4000.0 4000.0 4000.0 4000.0 4000.0 4000.0 4000.0 4000.0 4000.0 4000.0 4000.0 4000.0 4000.0 4000.0 4000.0 4000.0 4000.0 4000.0 4000.0 4000.0 4000.0 4000.0 4000.0 4000.0 4000.0 4000.0 4000.0 4000.0 4000.0 4000.0 4000.0 4000.0 4000.0 4000.0 4000.0 4000.0 4000.0 4000.0 4000.0 4000.0 4000.0 4000.0 4000.0 4000.0 4000.0 4000.0 4000.0 4000.0 4000.0 4000.0 4000.0 4000.0 4000.0 4000.0 4000.0 4000.0 4000.0 4000.0 4000.0 4000.0 4000.0 4000.0 4000.0 4000.0 4000.0 4000.0 4000.0 4000.0 4000.0 4000.0 4000.0 4000.0 4000.0 4000.0 4000.0 4000.0 4000.0 4000.0 4000.0 4000.0 4000.0 4000.0 4000.0 4000.0 4000.0 4000.0 4000.0 4000.0 4000.0 4000.0 4000.0 4000.0 4000.0 4000.0 4000.0 4000.0 4000.0 4000.0 4000.0 4000.0 4000.0 4000.0 4000.0 4000.0 4000.0 4000.0 4000.0 4000.0 4000.0 4000.0 4000.0 4000.0 4000.0 4000.0 4000.0 4000.0 4000.0 4000.0 4000.0 4000.0 4000.0 4000.0 4000.0 4000.0 4000.0 4000.0 4000.0 4000.0 4000.0 4000.0 4000.0 4000.0 4000.0 4000.0 4000.0 4000.0 4000.0 4000.0 4000.0 4000.0 4000.0 4000.0 4000.0 4000.0 4000.0 4000.0 4000.0 4000.0 4000.0 4000.0 4000.0 4000.0 4000.0 4000.0 4000.0 4000.0 4000.0 4000.0 4000.0 4000.0 4000.0 4000.0 4000.0 4000.0 4000.0 4000.0 4000.0 4000.0 4000.0 4000.0 4000.0 4000.0 4000.0 4000.0 4000.0 4000.0 4000.0 4000.0 4000.0 4000.0 4000.0 4000.0 4000.0 4000.0 4000.0 4000.0 4000.0 4000.0 4000.0 4000.0 4000.0 4000.0 4000.0 4000.0 4000.0 4000.0 4000.0 4000.0 4000.0 4000.0 4000.0 4000.0 4000.0 4000.0 4000.0 4000.0 4000.0 4000.0 4000.0 4000.0 4000.0 4000.0 4000.0 4000.0 4000.0 4000.0 4000.0 4000.0 4000.0 4000.0 4000.0 4000.0 4000.0 4000.0 4000.0 4000.0 4000.0 4000.0 4000.0 4000.0 4000.0 4000.0 4000.0 4000.0 4000.0 4000.0 4000.0 4000.0 4000.0 4000.0 4000.0 4000.0 4000.0 4000.0 4000.0 4000.0 4000.0 4000.0 4000.0 4000.0 4000.0 4000.0 4000.0 4000.0 4000.0 4000.0 4000.0 4000.0 4000.0 4000.0 4000.0 4000.0 4000.0 4000.0 4000.0 4000.0 4000.0 4000.0 4000.0 4000.0 4000.0 4000.0 4000.0 4000.0 4000.0 4000.0 4000.0 4000.0 4000.0 4000.0 4000.0 4000.0 4000.0 4000.0 4000.0 4000.0 4000.0 4000.0 4000.0 4000.0 4000.0 4000.0 4000.0 4000.0 4000.0 4000.0 4000.0 4000.0 4000.0 4000.0 4000.0 4000.0 4000.0 4000.0 4000.0 4000.0 4000.0 4000.0 4000.0 4000.0 4000.0 4000.0 4000.0 4000.0 4000.0 4000.0 4000.0 4000.0 4000.0 4000.0 4000.0 4000.0 4000.0 4000.0 4000.0 4000.0 4000.0 4000.0 4000.0 4000.0 4000.0 4000.0 4000.0 4000.0 4000.0 4000.0 4000.0 4000.0 4000.0 4000.0 4000.0 4000.0 4000.0 4000.0 4000.0 4000.0 4000.0 4000.0 4000.0 4000.0 4000.0 4000.0 4000.0 4000.0 4000.0 4000.0 4000.0 4000.0 4000.0 4000.0 4000.0 4000.0 4000.0 4000.0 4000.0 4000.0 4000.0 4000.0 4000.0 4000.0 4000.0 4000.0 4000.0 4000.0 4000.0 4000.0 4000.0 4000.0 4000.0 4000.0 4000.0 4000.0 4000.0 4000.0 4000.0 4000.0 4000.0 4000.0 4000.0 4000.0 4000.0 4000.0 4000.0 4000.0 4000.0 4000.0 4000.0 4000.0 4000.0 4000.0 4000.0 4000.0 4000.0 4000.0 4000.0 4000.0 4000.0 4000.0 4000.0 4000.0 4000.0 4000.0 4000.0 4000.0 4000.0 4000.0 4000.0 4000.0 4000.0 4000.0 4000.0 4000.0 4000.0 4000.0 4000.0 4000.0 4000.0 4000.0 4000.0 4000.0 4000.0 4000.0 4000.0 4000.0 4000.0 4000.0 4000.0 4000.0 4000.0 4000.0 4000.0 4000.0 4000.0 4000.0 4000.0 4000.0 4000.0 4000.0 4000.0 4000.0 4000.0 4000.0 4000.0 4000.0 4000.0 4000.0 4000.0 4000.0 4000.0 4000.0 4000.0 4000.0 4000.0 4000.0 4000.0 4000.0 4000.0 4000.0 4000.0 4000.0 4000.0 4000.0 4000.0 4000.0 4000.0 4000.0 4000.0 4000.0 4000.0 4000.0 4000.0 4000.0 4000.0 4000.0 4000.0 4000.0 4000.0 4000.0 4000.0 4000.0 4000.0 4000.0 4000.0 4000.0 4000.0 4000.0 4000.0 4000.0 4000.0 4000.0 4000.0 4000.0 4000.0 4000.0 4000.0 4000.0 4000.0 4000.0 4000.0 4000.0 4000.0 4000.0 4000.0 4000.0 4000.0 4000.0 4000.0 4000.0 4000.0 4000.0 4000.0 4000.0 4000.0 4000.0 4000.0 4000.0 4000.0 4000.0 4000.0 4000.0 4000.0 4000.0 4000.0 4000.0 4000.0 4000.0 4000.0 4000.0 4000.0 4000.0 4000.0 4000.0 4000.0 4000.0 4000.0 4000.0 4000.0 4000.0 4000.0 4000.0 4000.0 4000.0 4000.0 4000.0 4000.0 4000.0 4000.0 4000.0 4000.0 4000.0 4000.0 4000.0 4000.0 4000.0 4000.0 4000.0 4000.0 4000.0 4000.0 4000.0 4000.0 4000.0 4000.0 4000.0 4000.0 4000.0 4000.0 4000.0 4000.0 4000.0 4000.0 4000.0 4000.0 4000.0 4000.0 4000.0 4000.0 4000.0 4000.0 4000.0 4000.0 4000.0 4000.0 4000.0 4000.0 4000.0 4000.0 4000.0 4000.0 4000.0 4000.0 4000.0 4000.0 4000.0 4000.0 4000.0 4000.0 4000.0 4000.0 4000.0 4000.0 4000.0 4000.0 4000.0 4000.0 4000.0 4000.0 4000.0 4000.0 4000.0 4000.0 4000.0 4000.0 4000.0 4000.0 4000.0 4000.0 4000.0 4000.0 4000.0 4000.0 4000.0 4000.0 4000.0 4000.0 4000.0 4000.0 4000.0 4000.0 4000.0 4000.0 4000.0 4000.0 4000.0 4000.0 4000.0 4000.0 4000.0 4000.0 4000.0 4000.0 4000.0 4000.0 4000.0 4000.0 4000.0 4000.0 4000.0 4000.0 4000.0 4000.0 4000.0 4000.0 4000.0 4000.0 4000.0 4000.0 4000.0 4000.0 4000.0 4000.0 4000.0 4000.0 4000.0 4000.0 4000.0 4000.0 4000.0 4000.0 4000.0 4000.0 4000.0 4000.0 4000.0 4000.0 4000.0 4000.0 4000.0 4000.0 4000.0 4000.0 4000.0 4000.0 4000.0 4000.0 4000.0 4000.0 4000.0 4000.0 4000.0 4000.0 4000.0 4000.0 4000.0 4000.0 4000.0 4000.0 4000.0 4000.0 4000.0 4000.0 4000.0 4000.0 4000.0 4000.0 4000.0 4000.0 4000.0 4000.0 4000.0 4000.0 4000.0 4000.0 4000.0 4000.0 4000.0 4000.0 4000.0 4000.0 4000.0 4000.0 4000.0 4000.0 4000.0 4000.0 4000.0 4000.0 4000.0 4000.0 4000.0 4000.0 4000.0 4000.0 4000.0 4000.0 4000.0 4000.0 4000.0 4000.0 4000.0 4000.0 4000.0 4000.0 4000.0 4000.0 4000.0 4000.0 4000.0 4000.0 4000.0 4000.0 4000.0 4000.0 4000.0 4000.0 4000.0 4000.0 4000.0 4000.0 4000.0 4000.0 4000.0 4000.0 4000.0 4000.0 4000.0 4000.0 4000.0 4000.0 4000.0 4000.0 4000.0 4000.0 4000.0 4000.0 4000.0 4000.0 4000.0 4000.0 4000.0 4000.0 4000.0 4000.0 4000.0 4000.0 4000.0 4000.0 4000.0 4000.0 4000.0 4000.0 4000.0 4000.0 4000.0 4000.0 4000.0 4000.0 4000.0 4000.0 4000.0 4000.0 4000.0 4000.0 4000.0 4000.0 4000.0 4000.0 4000.0 4000.0 4000.0 4000.0 4000.0 4000.0 4000.0 4000.0 4000.0 4000.0 4000.0 4000.0 4000.0 4000.0 4000.0 4000.0 4000.0 4000.0 4000.0 4000.0 4000.0 4000.0 4000.0 4000.0 4000.0 4000.0 4000.0 4000.0 4000.0 4000.0 4000.0 4000.0 4000.0 4000.0 4000.0 4000.0 4000.0 4000.0 4000.0 4000.0 4000.0 4000.0 4000.0 4000.0 4000.0 4000.0 4000.0 4000.0 4000.0 4000.0 4000.0 4000.0 4000.0 4000.0 4000.0 4000.0 4000.0 4000.0 4000.0 4000.0 4000.0 4000.0 4000.0 4000.0 4000.0 4000.0 4000.0 4000.0 4000.0 4000.0 4000.0 4000.0 4000.0 4000.0 4000.0 4000.0 4000.0 4000.0 4000.0 4000.0 4000.0 4000.0 4000.0 4000.0 4000.0 4000.0 4000.0 4000.0 4000.0 4000.0 4000.0 4000.0 4000.0 4000.0 4000.0 4000.0 4000.0 4000.0 4000.0 4000.0 4000.0 4000.0 4000.0 4000.0 4000.0 4000.0 4000.0 4000.0 4000.0 4000.0 4000.0 4000.0 4000.0 4000.0 4000.0 4000.0 4000.0 4000.0 4000.0 4000.0 4000.0 4000.0 4000.0 4000.0 4000.0 4000.0 4000.0 4000.0 4000.0 4000.0 4000.0 4000.0 4000.0 4000.0 4000.0 4000.0 4000.0 4000.0 4000.0 4000.0 4000.0 4000.0 4000.0 4000.0 4000.0 4000.0 4000.0 4000.0 4000.0 4000.0 4000.0 4000.0 4000.0 4000.0 4000.0 4000.0 4000.0 4000.0 4000.0 4000.0 4000.0 4000.0 4000.0 4000.0 4000.0 4000.0 4000.0 4000.0 4000.0 4000.0 4000.0 4000.0 4000.0 4000.0 4000.0 4000.0 4000.0 4000.0 4000.0 4000.0 4000.0 4000.0 4000.0 4000.0 4000.0 4000.0 4000.0 4000.0 4000.0 4000.0 4000.0 4000.0 4000.0 4000.0 4000.0 4000.0 4000.0 4000.0 4000.0 4000.0 4000.0 4000.0 4000.0 4000.0 4000.0 4000.0 4000.0 4000.0 4000.0 4000.0 4000.0 4000.0 4000.0 4000.0 4000.0 4000.0 4000.0 4000.0 4000.0 4000.0 4000.0 4000.0 4000.0 4000.0 4000.0 4000.0 4000.0 4000.0 4000.0 4000.0 4000.0 4000.0 4000.0 4000.0 4000.0 4000.0 4000.0 4000.0 4000.0 4000.0 4000.0 4000.0 4000.0 4000.0 4000.0 4000.0 4000.0 4000.0 4000.0 4000.0 4000.0 4000.0 4000.0 4000.0 4000.0 4000.0 4000.0 4000.0 4000.0 4000.0 4000.0 4000.0 4000.0 4000.0 4000.0 4000.0 4000.0 4000.0 4000.0 4000.0 4000.0 4000.0 4000.0 4000.0 4000.0 4000.0 4000.0 4000.0 4000.0 4000.0 4000.0 4000.0 4000.0 4000.0 4000.0 4000.0 4000.0 4000.0 4000.0 4000.0 4000.0 4000.0 4000.0 4000.0 4000.0 4000.0 4000.0 4000.0 4000.0 4000.0 4000.0 4000.0 4000.0 4000.0 4000.0 4000.0 4000.0 4000.0 4000.0 4000.0 4000.0 4000.0 4000.0 4000.0 4000.0 4000.0 4000.0 4000.0 4000.0 4000.0 4000.0 4000.0 4000.0 4000.0 4000.0 4000.0 4000.0 4000.0 4000.0 4000.0 4000.0 4000.0 4000.0 4000.0 4000.0 4000.0 4000.0 4000.0 4000.0 4000.0 4000.0 4000.0 4000.0 4000.0 4000.0 4000.0 4000.0 4000.0 4000.0 4000.0 4000.0 4000.0 4000.0 4000.0 4000.0 4000.0 4000.0 4000.0 4000.0 4000.0 4000.0 4000.0 4000.0 4000.0 4000.0 4000.0 4000.0 4000.0 4000.0 4000.0 4000.0 4000.0 4000.0 4000.0 4000.0 4000.0 4000.0 4000.0 4000.0 4000.0 4000.0 4000.0 4000.0 4000.0 4000.0 4000.0 4000.0 4000.0 4000.0 4000.0 4000.0 4000.0 4000.0 4000.0 4000.0 4000.0 4000.0 4000.0 4000.0 4000.0 4000.0 4000.0 4000.0 4000.0 4000.0 4000.0 4000.0 4000.0 4000.0 4000.0 4000.0 4000.0 4000.0 4000.0 4000.0 4000.0 4000.0 4000.0 4000.0 4000.0 4000.0 4000.0 4000.0 4000.0 4000.0 4000.0 4000.0 4000.0 4000.0 4000.0 4000.0 4000.0 4000.0 4000.0 4000.0 4000.0 4000.0 4000.0 4000.0 4000.0 4000.0 4000.0 4000.0 4000.0 4000.0 4000.0 4000.0 4000.0 4000.0 4000.0 4000.0 4000.0 4000.0 4000.0 4000.0 4000.0 4000.0 4000.0 4000.0 4000.0 4000.0 4000.0 4000.0 4000.0 4000.0 4000.0 4000.0 4000.0 4000.0 4000.0 4000.0 4000.0 4000.0 4000.0 4000.0 4000.0 4000.0 4000.0 4000.0 4000.0 4000.0 4000.0 4000.0 4000.0 4000.0 4000.0 4000.0 4000.0 4000.0 4000.0 4000.0 4000.0 4000.0 4000.0 4000.0 4000.0 4000.0 4000.0 4000.0 4000.0 4000.0 4000.0 4000.0 4000.0 4000.0 4000.0 4000.0 4000.0 4000.0 4000.0 4000.0 4000.0 4000.0 4000.0 4000.0 4000.0 4000.0 4000.0 4000.0 4000.0 4000.0 4000.0 4000.0 4000.0 4000.0 4000.0 4000.0 4000.0 4000.0 4000.0 4000.0 4000.0 4000.0 4000.0 4000.0 4000.0 4000.0 4000.0 4000.0 4000.0 4000.0 4000.0 4000.0 4000.0 4000.0 4000.0 4000.0 4000.0 4000.0 4000.0 4000.0 4000.0 4000.0 4000.0 4000.0 4000.0 4000.0 4000.0 4000.0 4000.0 4000.0 4000.0 4000.0 4000.0 4000.0 4000.0 4000.0 4000.0 4000.0 4000.0 4000.0 4000.0 4000.0 4000.0 4000.0 4000.0 4000.0 4000.0 4000.0 4000.0 4000.0 4000.0 4000.0 4000.0 4000.0 4000.0 4000.0 4000.0 4000.0 4000.0 4000.0 4000.0 4000.0 4000.0 4000.0 4000.0 4000.0 4000.0 4000.0 4000.0 4000.0 4000.0 4000.0 4000.0 4000.0 4000.0 4000.0 4000.0 4000.0 4000.0 4000.0 4000.0 4000.0 4000.0 4000.0 4000.0 4000.0 4000.0 4000.0 4000.0 4000.0 4000.0 4000.0 4000.0 4000.0 4000.0 4000.0 4000.0 4000.0 4000.0 4000.0 4000.0 4000.0 4000.0 4000.0 4000.0 4000.0 4000.0 4000.0 4000.0 4000.0 4000.0 4000.0 4000.0 4000.0 4000.0 4000.0 4000.0 4000.0 4000.0 4000.0 4000.0 4000.0 4000.0 4000.0 4000.0 4000.0 4000.0 4000.0 4000.0 4000.0 4000.0 4000.0 4000.0 4000.0 4000.0 4000.0 4000.0 4000.0 4000.0 4000.0 4000.0 4000.0 4000.0 4000.0 4000.0 4000.0 4000.0 4000.0 4000.0 4000.0 4000.0 4000.0 4000.0 4000.0 4000.0 4000.0 4000.0 4000.0 4000.0 4000.0 4000.0 4000.0 4000.0 4000.0 4000.0 4000.0 4000.0 4000.0 4000.0 4000.0 4000.0 4000.0 4000.0 4000.0 4000.0 4000.0 4000.0 4000.0 4000.0 4000.0 4000.0 4000.0 4000.0 4000.0 4000.0 4000.0 4000.0 4000.0 4000.0 4000.0 4000.0 4000.0 4000.0 4000.0 4000.0 4000.0 4000.0 4000.0 4000.0 4000.0 4000.0 4000.0 4000.0 4000.0 4000.0 4000.0 4000.0 4000.0 4000.0 4000.0 4000.0 4000.0 4000.0 4000.0 4000.0 4000.0 4000.0 4000.0 4000.0 4000.0 4000.0 4000.0 4000.0 4000.0 4000.0 4000.0 4000.0 4000.0 4000.0 4000.0 4000.0 4000.0 4000.0 4000.0 4000.0 4000.0 4000.0 4000.0 4000.0 4000.0 4000.0 4000.0 4000.0 4000.0 4000.0 4000.0 4000.0 4000.0 4000.0 4000.0 4000.0 4000.0 4000.0 4000.0 4000.0 4000.0 4000.0 4000.0 4000.0 4000.0 4000.0 4000.0 4000.0 4000.0 4000.0 4000.0 4000.0 4000.0 4000.0 4000.0 4000.0 4000.0 4000.0 4000.0 4000.0 4000.0 4000.0 4000.0 4000.0 4000.0 4000.0 4000.0 4000.0 4000.0 4000.0 4000.0 4000.0 4000.0 4000.0 4000.0 4000.0 4000.0 4000.0 4000.0 4000.0 4000.0 4000.0 4000.0 4000.0 4000.0 4000.0 4000.0 4000.0 4000.0 4000.0 4000.0 4000.0 4000.0 4000.0 4000.0 4000.0 4000.0 4000.0 4000.0 4000.0 4000.0 4000.0 4000.0 4000.0 4000.0 4000.0 4000.0 4000.0 4000.0 4000.0 4000.0 4000.0 4000.0 4000.0 4000.0 4000.0 4000.0 4000.0 4000.0 4000.0 4000.0 4000.0 4000.0 4000.0 4000.0 4000.0 4000.0 4000.0 4000.0 4000.0 4000.0 4000.0 4000.0 4000.0 4000.0 4000.0 4000.0 4000.0 4000.0 4000.0 4000.0 4000.0 4000.0 4000.0 4000.0 4000.0 4000.0 4000.0 4000.0 4000.0 4000.0 4000.0 4000.0 4000.0 4000.0 4000.0 4000.0 4000.0 4000.0 4000.0 4000.0 4000.0 4000.0 4000.0 4000.0 4000.0 4000.0 4000.0 4000.0 4000.0 4000.0 4000.0 4000.0 4000.0 4000.0 4000.0 4000.0 4000.0 4000.0 4000.0 4000.0 4000.0 4000.0 4000.0 4000.0 4000.0 4000.0 4000.0 4000.0 4000.0 4000.0 4000.0 4000.0 4000.0 4000.0 4000.0 4000.0 4000.0 4000.0 4000.0 4000.0 4000.0 4000.0 4000.0 4000.0 4000.0 4000.0 4000.0 4000.0 4000.0 4000.0 4000.0 4000.0 4000.0 4000.0 4000.0 4000.0 4000.0 4000.0 4000.0 4000.0 4000.0 4000.0 4000.0 4000.0 4000.0 4000.0 4000.0 4000.0 4000.0 4000.0 4000.0 4000.0 4000.0 4000.0 4000.0 4000.0 4000.0 4000.0 4000.0 4000.0 4000.0 4000.0 4000.0 4000.0 4000.0 4000.0 4000.0 4000.0 4000.0 4000.0 4000.0 4000.0 4000.0 4000.0 4000.0 4000.0 4000.0 4000.0 4000.0 4000.0 4000.0 4000.0 4000.0 4000.0 4000.0 4000.0 4000.0 4000.0 4000.0 4000.0 4000.0 4000.0 4000.0 4000.0 4000.0 4000.0 4000.0 4000.0 4000.0 4000.0 4000.0 4000.0 4000.0 4000.0 4000.0 4000.0 4000.0 4000.0 4000.0 4000.0 4000.0 4000.0 4000.0 4000.0 4000.0 4000.0 4000.0 4000.0 4000.0 4000.0 4000.0 4000.0 4000.0 4000.0 4000.0 4000.0 4000.0 4000.0 4000.0 4000.0 4000.0 4000.0 4000.0 4000.0 4000.0 4000.0 4000.0 4000.0 4000.0 4000.0 4000.0 4000.0 4000.0 4000.0 4000.0 4000.0 4000.0 4000.0 4000.0 4000.0 4000.0 4000.0 4000.0 4000.0 4000.0 4000.0 4000.0 4000.0 4000.0 4000.0 4000.0 4000.0 4000.0 4000.0 4000.0 4000.0 4000.0 4000.0 4000.0 4000.0 4000.0 4000.0 4000.0 4000.0 4000.0 4000.0 4000.0 4000.0 4000.0 4000.0 4000.0 4000.0 4000.0 4000.0 4000.0 4000.0 4000.0 4000.0 4000.0 4000.0 4000.0 4000.0 4000.0 4000.0 4000.0 4000.0 4000.0 4000.0 4000.0 4000.0 4000.0 4000.0 4000.0 4000.0 4000.0 4000.0 4000.0 4000.0 4000.0 4000.0 4000.0 4000.0 4000.0 4000.0 4000.0 4000.0 4000.0 4000.0 4000.0 4000.0 4000.0 4000.0 4000.0 4000.0 4000.0 4000.0 4000.0 4000.0 4000.0 4000.0 4000.0 4000.0 4000.0 4000.0 4000.0 4000.0 4000.0 4000.0 4000.0 4000.0 4000.0 4000.0 4000.0 4000.0 4000.0 4000.0 4000.0 4000.0 4000.0 4000.0 4000.0 4000.0 4000.0 4000.0 4000.0 4000.0 4000.0 4000.0 4000.0 4000.0 4000.0 4000.0 4000.0 4000.0 4000.0 4000.0 4000.0 4000.0 4000.0 4000.0 4000.0 4000.0 4000.0 4000.0 4000.0 4000.0 4000.0 4000.0 4000.0 4000.0 4000.0 4000.0 4000.0 4000.0 4000.0 4000.0 4000.0 4000.0 4000.0 4000.0 4000.0 4000.0 4000.0 4000.0 4000.0 4000.0 4000.0 4000.0 4000.0 4000.0 4000.0 4000.0 4000.0 4000.0 4000.0 4000.0 4000.0 4000.0 4000.0 4000.0 4000.0 4000.0 4000.0 4000.0 4000.0 4000.0 4000.0 4000.0 4000.0 4000.0 4000.0 4000.0 4000.0 4000.0 4000.0 4000.0 4000.0 4000.0 4000.0 4000.0 4000.0 4000.0 4000.0 4000.0 4000.0 4000.0 4000.0 4000.0 4000.0 4000.0 4000.0 4000.0 4000.0 4000.0 4000.0 4000.0 4000.0 4000.0 4000.0 4000.0 4000.0 4000.0 4000.0 4000.0 4000.0 4000.0 4000.0 4000.0 4000.0 4000.0 4000.0 4000.0 4000.0 4000.0 4000.0 4000.0 4000.0 4000.0 4000.0 4000.0 4000.0 4000.0 4000.0 4000.0 4000.0 4000.0 4000.0 4000.0 4000.0 4000.0 4000.0 4000.0 4000.0 4000.0 4000.0 4000.0 4000.0 4000.0 4000.0 4000.0 4000.0 4000.0 4000.0 4000.0 4000.0 4000.0 4000.0 4000.0 4000.0 4000.0 4000.0 4000.0 4000.0 4000.0 4000.0 4000.0 4000.0 4000.0 4000.0 4000.0 4000.0 4000.0 4000.0 4000.0 4000.0 4000.0 4000.0 4000.0 4000.0 4000.0 4000.0 4000.0 4000.0 4000.0 4000.0 4000.0 4000.0 4000.0 4000.0 4000.0 4000.0 4000.0 4000.0 4000.0 4000.0 4000.0 4000.0 4000.0 4000.0 4000.0 4000.0 4000.0 4000.0 4000.0 4000.0 4000.0 4000.0 4000.0 4000.0 4000.0 4000.0 4000.0 4000.0 4000.0 4000.0 4000.0 4000.0 4000.0 4000.0 4000.0 4000.0 4000.0 4000.0 4000.0 4000.0 4000.0 4000.0 4000.0 4000.0 4000.0 4000.0 4000.0 4000.0 4000.0 4000.0 4000.0 4000.0 4000.0 4000.0 4000.0 4000.0 4000.0 4000.0 4000.0 4000.0 4000.0 4000.0 4000.0 4000.0 4000.0 4000.0 4000.0 4000.0 4000.0 4000.0 4000.0 4000.0 4000.0 4000.0 4000.0 4000.0 4000.0 4000.0 4000.0 4000.0 4000.0 4000.0 4000.0 4000.0 4000.0 4000.0 4000.0 4000.0 4000.0 4000.0 4000.0 4000.0 4000.0 4000.0 4000.0 4000.0 4000.0 4000.0 4000.0 4000.0 4000.0 4000.0 4000.0 4000.0 4000.0 4000.0 4000.0 4000.0 4000.0 4000.0 4000.0 4000.0 4000.0 4000.0 4000.0 4000.0 4000.0 4000.0 4000.0 4000.0 4000.0 4000.0 4000.0 4000.0 4000.0 4000.0 4000.0 4000.0 4000.0 4000.0 4000.0 4000.0 4000.0 4000.0 4000.0 4000.0 4000.0 4000.0 4000.0 4000.0 4000.0 4000.0 4000.0 4000.0 4000.0 4000.0 4000.0 4000.0 4000.0 4000.0 4000.0 4000.0 4000.0 4000.0 4000.0 4000.0 4000.0 4000.0 4000.0 4000.0 4000.0 4000.0 4000.0 4000.0 4000.0 4000.0 4000.0 4000.0 4000.0 4000.0 4000.0 4000.0 4000.0 4000.0 4000.0 4000.0 4000.0 4000.0 4000.0 4000.0 4000.0 4000.0 4000.0 4000.0 4000.0 4000.0 4000.0 4000.0 4000.0 4000.0 4000.0 4000.0 4000.0 4000.0 4000.0 4000.0 4000.0 4000.0 4000.0 4000.0 4000.0 4000.0 4000.0 4000.0 4000.0 4000.0 4000.0 4000.0 4000.0 4000.0 4000.0 4000.0 4000.0 4000.0 4000.0 4000.0 4000.0 4000.0 4000.0 4000.0 4000.0 4000.0 4000.0 4000.0 4000.0 4000.0 4000.0 4000.0 4000.0 4000.0 4000.0 4000.0 4000.0 4000.0 4000.0 4000.0 4000.0 4000.0 4000.0 4000.0 4000.0 4000.0 4000.0 4000.0 4000.0 4000.0 4000.0 4000.0 4000.0 4000.0 4000.0 4000.0 4000.0 4000.0 4000.0 4000.0 4000.0 4000.0 4000.0 4000.0 4000.0 4000.0 4000.0 4000.0 4000.0 4000.0 4000.0 4000.0 4000.0 4000.0 4000.0 4000.0 4000.0 4000.0 4000.0 4000.0 4000.0 4000.0 4000.0 4000.0 4000.0 4000.0 4000.0 4000.0 4000.0 4000.0 4000.0 4000.0 4000.0 4000.0 4000.0 4000.0 4000.0 4000.0 4000.0 4000.0 4000.0 4000.0 4000.0 4000.0 4000.0 4000.0 4000.0 4000.0 4000.0 4000.0 4000.0 4000.0 4000.0 4000.0 4000.0 4000.0 4000.0 4000.0 4000.0 4000.0 4000.0 4000.0 4000.0 4000.0 4000.0 4000.0 4000.0 4000.0 4000.0 4000.0 4000.0 4000.0 4000.0 4000.0 4000.0 4000.0 4000.0 4000.0 4000.0 4000.0 4000.0 4000.0 4000.0 4000.0 4000.0 4000.0 4000.0 4000.0 4000.0 4000.0 4000.0 4000.0 4000.0 4000.0 4000.0 4000.0 4000.0 4000.0 4000.0 4000.0 4000.0 4000.0 4000.0 4000.0 4000.0 4000.0 4000.0 4000.0 4000.0 4000.0 4000.0 4000.0 4000.0 4000.0 4000.0 4000.0 4000.0 4000.0 4000.0 4000.0 4000.0 4000.0 4000.0 4000.0 4000.0 4000.0 4000.0 4000.0 4000.0 4000.0 4000.0 4000.0 4000.0 4000.0 4000.0 4000.0 4000.0 4000.0 4000.0 4000.0 4000.0 4000.0 4000.0 4000.0 4000.0 4000.0 4000.0 4000.0 4000.0 4000.0 4000.0 4000.0 4000.0 4000.0 4000.0 4000.0 4000.0 4000.0 4000.0 4000.0 4000.0 4000.0 4000.0 4000.0 4000.0 4000.0 4000.0 4000.0 4000.0 4000.0 4000.0 4000.0 4000.0 4000.0 4000.0 4000.0 4000.0 4000.0 4000.0 4000.0 4000.0 4000.0 4000.0 4000.0 4000.0 4000.0 4000.0 4000.0 4000.0 4000.0 4000.0 4000.0 4000.0 4000.0 4000.0 4000.0 4000.0 4000.0 4000.0 4000.0 4000.0 4000.0 4000.0 4000.0 4000.0 4000.0 4000.0 4000.0 4000.0 4000.0 4000.0 4000.0 4000.0 4000.0 4000.0 4000.0 4000.0 4000.0 4000.0 4000.0 4000.0 4000.0 4000.0 4000.0 4000.0 4000.0 4000.0 4000.0 4000.0 4000.0 4000.0 4000.0 4000.0 4000.0 4000.0 4000.0 4000.0 4000.0 4000.0 4000.0 4000.0 4000.0 4000.0 4000.0 4000.0 4000.0 4000.0 4000.0 4000.0 4000.0 4000.0 4000.0 4000.0 4000.0 4000.0 4000.0 4000.0 4000.0 4000.0 4000.0 4000.0 4000.0 4000.0 4000.0 4000.0 4000.0 4000.0 4000.0 4000.0 4000.0 4000.0 4000.0 4000.0 4000.0 4000.0 4000.0 4000.0 4000.0 4000.0 4000.0 4000.0 4000.0 4000.0 4000.0 4000.0 4000.0 4000.0 4000.0 4000.0 4000.0 4000.0 4000.0 4000.0 4000.0 4000.0 4000.0 4000.0 4000.0 4000.0 4000.0 4000.0 4000.0 4000.0 4000.0 4000.0 4000.0 4000.0 4000.0 4000.0 4000.0 4000.0 4000.0 4000.0 4000.0 4000.0 4000.0 4000.0 4000.0 4000.0 4000.0 4000.0 4000.0 4000.0 4000.0 4000.0 4000.0 4000.0 4000.0 4000.0 4000.0 4000.0 4000.0 4000.0 4000.0 4000.0 4000.0 4000.0 4000.0 4000.0 4000.0 4000.0 4000.0 4000.0 4000.0 4000.0 4000.0 4000.0 4000.0 4000.0 4000.0 4000.0 4000.0 4000.0 4000.0 4000.0 4000.0 4000.0 4000.0 4000.0 4000.0 4000.0 4000.0 4000.0 4000.0 4000.0 4000.0 4000.0 4000.0 4000.0 4000.0 4000.0 4000.0 4000.0 4000.0 4000.0 4000.0 4000.0 4000.0 4000.0 4000.0 4000.0 4000.0 4000.0 4000.0 4000.0 4000.0 4000.0 4000.0 4000.0 4000.0 4000.0 4000.0 4000.0 4000.0 4000.0 4000.0 4000.0 4000.0 4000.0 4000.0 4000.0 4000.0 4000.0 4000.0 4000.0 4000.0 4000.0 4000.0 4000.0 4000.0 4000.0 4000.0 4000.0 4000.0 4000.0 4000.0 4000.0 4000.0 4000.0 4000.0 4000.0 4000.0 4000.0 4000.0 4000.0 4000.0 4000.0 4000.0 4000.0 4000.0 4000.0 4000.0 4000.0 4000.0 4000.0 4000.0 4000.0 4000.0 4000.0 4000.0 4000.0 4000.0 4000.0 4000.0 4000.0 4000.0 4000.0 4000.0 4000.0 4000.0 4000.0 4000.0 4000.0 4000.0 4000.0 4000.0 4000.0 4000.0 4000.0 4000.0 4000.0 4000.0 4000.0 4000.0 4000.0 4000.0 4000.0 4000.0 4000.0 4000.0 4000.0 4000.0 4000.0 4000.0 4000.0 4000.0 4000.0 4000.0 4000.0 4000.0 4000.0 4000.0 4000.0 4000.0 4000.0 4000.0 4000.0 4000.0 4000.0 4000.0 4000.0 4000.0 4000.0 4000.0 4000.0 4000.0 4000.0 4000.0 4000.0 4000.0 4000.0 4000.0 4000.0 4000.0 4000.0 4000.0 4000.0 4000.0 4000.0 4000.0 4000.0 4000.0 4000.0 4000.0 4000.0 4000.0 4000.0 4000.0 4000.0 4000.0 4000.0 4000.0 4000.0 4000.0 4000.0 4000.0 4000.0 4000.0 4000.0 4000.0 4000.0 4000.0 4000.0 4000.0 4000.0 4000.0 4000.0 4000.0 4000.0 4000.0 4000.0 4000.0 4000.0 4000.0 4000.0 4000.0 4000.0 4000.0 4000.0 4000.0 4000.0 4000.0 4000.0 4000.0 4000.0 4000.0 4000.0 4000.0 4000.0 4000.0 4000.0 4000.0 4000.0 4000.0 4000.0 4000.0 4000.0 4000.0 4000.0 4000.0 4000.0 4000.0 4000.0 4000.0 4000.0 4000.0 4000.0 4000.0 4000.0 4000.0 4000.0 4000.0 4000.0 4000.0 4000.0 4000.0 4000.0 4000.0 4000.0 4000.0 4000.0 4000.0 4000.0 4000.0 4000.0 4000.0 4000.0 4000.0 4000.0 4000.0 4000.0 4000.0 4000.0 4000.0 4000.0 4000.0 4000.0 4000.0 4000.0 4000.0 4000.0 4000.0 4000.0 4000.0 4000.0 4000.0 4000.0 4000.0 4000.0 4000.0 4000.0 4000.0 4000.0 4000.0 4000.0 4000.0 4000.0 4000.0 4000.0 4000.0 4000.0 4000.0 4000.0 4000.0 4000.0 4000.0 4000.0 4000.0 4000.0 4000.0 4000.0 4000.0 4000.0 4000.0 4000.0 4000.0 4000.0 4000.0 4000.0 4000.0 4000.0 4000.0 4000.0 4000.0 4000.0 4000.0 4000.0 4000.0 4000.0 4000.0 4000.0 4000.0 4000.0 4000.0 4000.0 4000.0 4000.0 4000.0 4000.0 4000.0 4000.0 4000.0 4000.0 4000.0 4000.0 4000.0 4000.0 4000.0 4000.0 4000.0 4000.0 4000.0 4000.0 4000.0 4000.0 4000.0 4000.0 4000.0 4000.0 4000.0 4000.0 4000.0 4000.0 4000.0 4000.0 4000.0 4000.0 4000.0 4000.0 4000.0 4000.0 4000.0 4000.0 4000.0 4000.0 4000.0 4000.0 4000.0 4000.0 4000.0 4000.0 4000.0 4000.0 4000.0 4000.0 4000.0 4000.0 4000.0 4000.0 4000.0 4000.0 4000.0 4000.0 4000.0 4000.0 4000.0 4000.0 4000.0 4000.0 4000.0 4000.0 4000.0 4000.0 4000.0 4000.0 4000.0 4000.0 4000.0 4000.0 4000.0 4000.0 4000.0 4000.0 4000.0 4000.0 4000.0 4000.0 4000.0 4000.0 4000.0 4000.0 4000.0 4000.0 4000.0 4000.0 4000.0 4000.0 4000.0 4000.0 4000.0 4000.0 4000.0 4000.0 4000.0 4000.0 4000.0 4000.0 4000.0 4000.0 4000.0 4000.0 4000.0 4000.0 4000.0 4000.0 4000.0 4000.0 4000.0 4000.0 4000.0 4000.0 4000.0 4000.0 4000.0 4000.0 4000.0 4000.0 4000.0 4000.0 4000.0 4000.0 4000.0 4000.0 4000.0 4000.0 4000.0 4000.0 4000.0 4000.0 4000.0 4000.0 4000.0 4000.0 4000.0 4000.0 4000.0 4000.0 4000.0 4000.0 4000.0 4000.0 4000.0 4000.0 4000.0 4000.0 4000.0 4000.0 4000.0 4000.0 4000.0 4000.0 4000.0 4000.0 4000.0 4000.0 4000.0 4000.0 4000.0 4000.0 4000.0 4000.0 4000.0 4000.0 4000.0 4000.0 4000.0 4000.0 4000.0 4000.0 4000.0 4000.0 4000.0 4000.0 4000.0 4000.0 4000.0 4000.0 4000.0 4000.0 4000.0 4000.0 4000.0 4000.0 4000.0 4000.0 4000.0 4000.0 4000.0 4000.0 4000.0 4000.0 4000.0 4000.0 4000.0 4000.0 4000.0 4000.0 4000.0 4000.0 4000.0 4000.0 4000.0 4000.0 4000.0 4000.0 4000.0 4000.0 4000.0 4000.0 4000.0 4000.0 4000.0 4000.0 4000.0 4000.0 4000.0 4000.0 4000.0 4000.0 4000.0 4000.0 4000.0 4000.0 4000.0 4000.0 4000.0 4000.0 4000.0 4000.0 4000.0 4000.0 4000.0 4000.0 4000.0 4000.0 4000.0 4000.0 4000.0 4000.0 4000.0 4000.0 4000.0 4000.0 4000.0 4000.0 4000.0 4000.0 4000.0 4000.0 4000.0 4000.0 4000.0 4000.0 4000.0 4000.0 4000.0 4000.0 4000.0 4000.0 4000.0 4000.0 4000.0 4000.0 4000.0 4000.0 4000.0 4000.0 4000.0 4000.0 4000.0 4000.0 4000.0 4000.0 4000.0 4000.0 4000.0 4000.0 4000.0 4000.0 4000.0 4000.0 4000.0 4000.0 4000.0 4000.0 4000.0 4000.0 4000.0 4000.0 4000.0 4000.0 4000.0 4000.0 4000.0 4000.0 4000.0 4000.0 4000.0 4000.0 4000.0 4000.0 4000.0 4000.0 4000.0 4000.0 4000.0 4000.0 4000.0 4000.0 4000.0 4000.0 4000.0 4000.0 4000.0 4000.0 4000.0 4000.0 4000.0 4000.0 4000.0 4000.0 4000.0 4000.0 4000.0 4000.0 4000.0 4000.0 4000.0 4000.0 4000.0 4000.0 4000.0 4000.0 4000.0 4000.0 4000.0 4000.0 4000.0 4000.0 4000.0 4000.0 4000.0 4000.0 4000.0 4000.0 4000.0 4000.0 4000.0 4000.0 4000.0 4000.0 4000.0 4000.0 4000.0 4000.0 4000.0 4000.0 4000.0 4000.0 4000.0 4000.0 4000.0 4000.0 4000.0 4000.0 4000.0 4000.0 4000.0 4000.0 4000.0 4000.0 4000.0 4000.0 4000.0 4000.0 4000.0 4000.0 4000.0 4000.0 4000.0 4000.0 4000.0 4000.0 4000.0 4000.0 4000.0 4000.0 4000.0 4000.0 4000.0 4000.0 4000.0 4000.0 4000.0 4000.0 4000.0 4000.0 4000.0 4000.0 4000.0 4000.0 4000.0 4000.0 4000.0 4000.0 4000.0 4000.0 4000.0 4000.0 4000.0 4000.0 4000.0 4000.0 4000.0 4000.0 4000.0 4000.0 4000.0 4000.0 4000.0 4000.0 4000.0 4000.0 4000.0 4000.0 4000.0 4000.0 4000.0 4000.0 4000.0 4000.0 4000.0 4000.0 4000.0 4000.0 4000.0 4000.0 4000.0 4000.0 4000.0 4000.0 4000.0 4000.0 4000.0 4000.0 4000.0 4000.0 4000.0 4000.0 4000.0 4000.0 4000.0 4000.0 4000.0 4000.0 4000.0 4000.0 4000.0 4000.0 4000.0 4000.0 4000.0 4000.0 4000.0 4000.0 4000.0 4000.0 4000.0 4000.0 4000.0 4000.0 4000.0 4000.0 4000.0 4000.0 4000.0 4000.0 4000.0 4000.0 4000.0 4000.0 4000.0 4000.0 4000.0 4000.0 4000.0 4000.0 4000.0 4000.0 4000.0 4000.0 4000.0 4000.0 4000.0 4000.0 4000.0 4000.0 4000.0 4000.0 4000.0 4000.0 4000.0 4000.0 4000.0 4000.0 4000.0 4000.0 4000.0 4000.0 4000.0 4000.0 4000.0 4000.0 4000.0 4000.0 4000.0 4000.0 4000.0 4000.0 4000.0 4000.0 4000.0 4000.0 4000.0 4000.0 4000.0 4000.0 4000.0 4000.0 4000.0 4000.0 4000.0 4000.0 4000.0 4000.0 4000.0 4000.0 4000.0 4000.0 4000.0 4000.0 4000.0 4000.0 4000.0 4000.0 4000.0 4000.0 4000.0 4000.0 4000.0 4000.0 4000.0 4000.0 4000.0 4000.0 4000.0 4000.0 4000.0 4000.0 4000.0 4000.0 4000.0 4000.0 4000.0 4000.0 4000.0 4000.0 4000.0 4000.0 4000.0 4000.0 4000.0 4000.0 4000.0 4000.0 4000.0 4000.0 4000.0 4000.0 4000.0 4000.0 4000.0 4000.0 4000.0 4000.0 4000.0 4000.0 4000.0 4000.0 4000.0 4000.0 4000.0 4000.0 4000.0 4000.0 4000.0 4000.0 4000.0 4000.0 4000.0 4000.0 4000.0 4000.0 4000.0 4000.0 4000.0 4000.0 4000.0 4000.0 4000.0 4000.0 4000.0 4000.0 4000.0 4000.0 4000.0 4000.0 4000.0 4000.0 4000.0 4000.0 4000.0 4000.0 4000.0 4000.0 4000.0 4000.0 4000.0 4000.0 4000.0 4000.0 4000.0 4000.0 4000.0 4000.0 4000.0 4000.0 4000.0 4000.0 4000.0 4000.0 4000.0 4000.0 4000.0 4000.0 4000.0 4000.0 4000.0 4000.0 4000.0 4000.0 4000.0 4000.0 4000.0 4000.0 4000.0 4000.0 4000.0 4000.0 4000.0 4000.0 4000.0 4000.0 4000.0 4000.0 4000.0 4000.0 4000.0 4000.0 4000.0 4000.0 4000.0 4000.0 4000.0 4000.0 4000.0 4000.0 4000.0 4000.0 4000.0 4000.0 4000.0 4000.0 4000.0 4000.0 4000.0 4000.0 4000.0 4000.0 4000.0 4000.0 4000.0 4000.0 4000.0 4000.0 4000.0 4000.0 4000.0 4000.0 4000.0 4000.0 4000.0 4000.0 4000.0 4000.0 4000.0 4000.0 4000.0 4000.0 4000.0 4000.0 4000.0 4000.0 4000.0 4000.0 4000.0 4000.0 4000.0 4000.0 4000.0 4000.0 4000.0 4000.0 4000.0 4000.0 4000.0 4000.0 4000.0 4000.0 4000.0 4000.0 4000.0 4000.0 4000.0 4000.0 4000.0 4000.0 4000.0 4000.0 4000.0 4000.0 4000.0 4000.0 4000.0 4000.0 4000.0 4000.0 4000.0 4000.0 4000.0 4000.0 4000.0 4000.0 4000.0 4000.0 4000.0 4000.0 4000.0 4000.0 4000.0 4000.0 4000.0 4000.0 4000.0 4000.0 4000.0 4000.0 4000.0 4000.0 4000.0 4000.0 4000.0 4000.0 4000.0 4000.0 4000.0 4000.0 4000.0 4000.0 4000.0 4000.0 4000.0 4000.0 4000.0 4000.0 4000.0 4000.0 4000.0 4000.0 4000.0 4000.0 4000.0 4000.0 4000.0 4000.0 4000.0 4000.0 4000.0 4000.0 4000.0 4000.0 4000.0 4000.0 4000.0 4000.0 4000.0 4000.0 4000.0 4000.0 4000.0 4000.0 4000.0 4000.0 4000.0 4000.0 4000.0 4000.0 4000.0 4000.0 4000.0 4000.0 4000.0 4000.0 4000.0 4000.0 4000.0 4000.0 4000.0 4000.0 4000.0 4000.0 4000.0 4000.0 4000.0 4000.0 4000.0 4000.0 4000.0 4000.0 4000.0 SCALARS Mass float 1
LOOKUP_TABLE default
11309700000.0 11309700000.0 11309700000.0 11309700000.0 11309700000.0 11309700000.0 11309700000.0 11309700000.0 11309700000.0 11309700000.0 11309700000.0 11309700000.0 11309700000.0 11309700000.0 11309700000.0 11309700000.0 11309700000.0 11309700000.0 11309700000.0 11309700000.0 11309700000.0 11309700000.0 11309700000.0 11309700000.0 11309700000.0 11309700000.0 11309700000.0 11309700000.0 11309700000.0 11309700000.0 11309700000.0 11309700000.0 11309700000.0 11309700000.0 11309700000.0 11309700000.0 11309700000.0 11309700000.0 11309700000.0 11309700000.0 11309700000.0 11309700000.0 11309700000.0 11309700000.0 11309700000.0 11309700000.0 11309700000.0 11309700000.0 11309700000.0 11309700000.0 11309700000.0 11309700000.0 11309700000.0 11309700000.0 11309700000.0 11309700000.0 11309700000.0 11309700000.0 11309700000.0 11309700000.0 11309700000.0 11309700000.0 11309700000.0 11309700000.0 11309700000.0 11309700000.0 11309700000.0 11309700000.0 11309700000.0 11309700000.0 11309700000.0 11309700000.0 11309700000.0 11309700000.0 11309700000.0 11309700000.0 11309700000.0 11309700000.0 11309700000.0 11309700000.0 11309700000.0 11309700000.0 11309700000.0 11309700000.0 11309700000.0 11309700000.0 11309700000.0 11309700000.0 11309700000.0 11309700000.0 11309700000.0 11309700000.0 11309700000.0 11309700000.0 11309700000.0 11309700000.0 11309700000.0 11309700000.0 11309700000.0 11309700000.0 11309700000.0 11309700000.0 11309700000.0 11309700000.0 11309700000.0 11309700000.0 11309700000.0 11309700000.0 11309700000.0 11309700000.0 11309700000.0 11309700000.0 11309700000.0 11309700000.0 11309700000.0 11309700000.0 11309700000.0 11309700000.0 11309700000.0 11309700000.0 11309700000.0 11309700000.0 11309700000.0 11309700000.0 11309700000.0 11309700000.0 11309700000.0 11309700000.0 11309700000.0 11309700000.0 11309700000.0 11309700000.0 11309700000.0 11309700000.0 11309700000.0 11309700000.0 11309700000.0 11309700000.0 11309700000.0 11309700000.0 11309700000.0 11309700000.0 11309700000.0 11309700000.0 11309700000.0 11309700000.0 11309700000.0 11309700000.0 11309700000.0 11309700000.0 11309700000.0 11309700000.0 11309700000.0 11309700000.0 11309700000.0 11309700000.0 11309700000.0 11309700000.0 11309700000.0 11309700000.0 11309700000.0 11309700000.0 11309700000.0 11309700000.0 11309700000.0 11309700000.0 11309700000.0 11309700000.0 11309700000.0 11309700000.0 11309700000.0 11309700000.0 11309700000.0 11309700000.0 11309700000.0 11309700000.0 11309700000.0 11309700000.0 11309700000.0 11309700000.0 11309700000.0 11309700000.0 11309700000.0 11309700000.0 11309700000.0 11309700000.0 11309700000.0 11309700000.0 11309700000.0 11309700000.0 11309700000.0 11309700000.0 11309700000.0 11309700000.0 11309700000.0 11309700000.0 11309700000.0 11309700000.0 11309700000.0 11309700000.0 11309700000.0 11309700000.0 11309700000.0 11309700000.0 11309700000.0 11309700000.0 11309700000.0 11309700000.0 11309700000.0 11309700000.0 11309700000.0 11309700000.0 11309700000.0 11309700000.0 11309700000.0 11309700000.0 11309700000.0 11309700000.0 11309700000.0 11309700000.0 11309700000.0 11309700000.0 11309700000.0 11309700000.0 11309700000.0 11309700000.0 11309700000.0 11309700000.0 11309700000.0 11309700000.0 11309700000.0 11309700000.0 11309700000.0 11309700000.0 11309700000.0 11309700000.0 11309700000.0 11309700000.0 11309700000.0 11309700000.0 11309700000.0 11309700000.0 11309700000.0 11309700000.0 11309700000.0 11309700000.0 11309700000.0 11309700000.0 11309700000.0 11309700000.0 11309700000.0 11309700000.0 11309700000.0 11309700000.0 11309700000.0 11309700000.0 11309700000.0 11309700000.0 11309700000.0 11309700000.0 11309700000.0 11309700000.0 11309700000.0 11309700000.0 11309700000.0 11309700000.0 11309700000.0 11309700000.0 11309700000.0 11309700000.0 11309700000.0 11309700000.0 11309700000.0 11309700000.0 11309700000.0 11309700000.0 11309700000.0 11309700000.0 11309700000.0 11309700000.0 11309700000.0 11309700000.0 11309700000.0 11309700000.0 11309700000.0 11309700000.0 11309700000.0 11309700000.0 11309700000.0 11309700000.0 11309700000.0 11309700000.0 11309700000.0 11309700000.0 11309700000.0 11309700000.0 11309700000.0 11309700000.0 11309700000.0 11309700000.0 11309700000.0 11309700000.0 11309700000.0 11309700000.0 11309700000.0 11309700000.0 11309700000.0 11309700000.0 11309700000.0 11309700000.0 11309700000.0 11309700000.0 11309700000.0 11309700000.0 11309700000.0 11309700000.0 11309700000.0 11309700000.0 11309700000.0 11309700000.0 11309700000.0 11309700000.0 11309700000.0 11309700000.0 11309700000.0 11309700000.0 11309700000.0 11309700000.0 11309700000.0 11309700000.0 11309700000.0 11309700000.0 11309700000.0 11309700000.0 11309700000.0 11309700000.0 11309700000.0 11309700000.0 11309700000.0 11309700000.0 11309700000.0 11309700000.0 11309700000.0 11309700000.0 11309700000.0 11309700000.0 11309700000.0 11309700000.0 11309700000.0 11309700000.0 11309700000.0 11309700000.0 11309700000.0 11309700000.0 11309700000.0 11309700000.0 11309700000.0 11309700000.0 11309700000.0 11309700000.0 11309700000.0 11309700000.0 11309700000.0 11309700000.0 11309700000.0 11309700000.0 11309700000.0 11309700000.0 11309700000.0 11309700000.0 11309700000.0 11309700000.0 11309700000.0 11309700000.0 11309700000.0 11309700000.0 11309700000.0 11309700000.0 11309700000.0 11309700000.0 11309700000.0 11309700000.0 11309700000.0 11309700000.0 11309700000.0 11309700000.0 11309700000.0 11309700000.0 11309700000.0 11309700000.0 11309700000.0 11309700000.0 11309700000.0 11309700000.0 11309700000.0 11309700000.0 11309700000.0 11309700000.0 11309700000.0 11309700000.0 11309700000.0 11309700000.0 11309700000.0 11309700000.0 11309700000.0 11309700000.0 11309700000.0 11309700000.0 11309700000.0 11309700000.0 11309700000.0 11309700000.0 11309700000.0 11309700000.0 11309700000.0 11309700000.0 11309700000.0 11309700000.0 11309700000.0 11309700000.0 11309700000.0 11309700000.0 11309700000.0 11309700000.0 11309700000.0 11309700000.0 11309700000.0 11309700000.0 11309700000.0 11309700000.0 11309700000.0 11309700000.0 11309700000.0 11309700000.0 11309700000.0 11309700000.0 11309700000.0 11309700000.0 11309700000.0 11309700000.0 11309700000.0 11309700000.0 11309700000.0 11309700000.0 11309700000.0 11309700000.0 11309700000.0 11309700000.0 11309700000.0 11309700000.0 11309700000.0 11309700000.0 11309700000.0 11309700000.0 11309700000.0 11309700000.0 11309700000.0 11309700000.0 11309700000.0 11309700000.0 11309700000.0 11309700000.0 11309700000.0 11309700000.0 11309700000.0 11309700000.0 11309700000.0 11309700000.0 11309700000.0 11309700000.0 11309700000.0 11309700000.0 11309700000.0 11309700000.0 11309700000.0 11309700000.0 11309700000.0 11309700000.0 11309700000.0 11309700000.0 11309700000.0 11309700000.0 11309700000.0 11309700000.0 11309700000.0 11309700000.0 11309700000.0 11309700000.0 11309700000.0 11309700000.0 11309700000.0 11309700000.0 11309700000.0 11309700000.0 11309700000.0 11309700000.0 11309700000.0 11309700000.0 11309700000.0 11309700000.0 11309700000.0 11309700000.0 11309700000.0 11309700000.0 11309700000.0 11309700000.0 11309700000.0 11309700000.0 11309700000.0 11309700000.0 11309700000.0 11309700000.0 11309700000.0 11309700000.0 11309700000.0 11309700000.0 11309700000.0 11309700000.0 11309700000.0 11309700000.0 11309700000.0 11309700000.0 11309700000.0 11309700000.0 11309700000.0 11309700000.0 11309700000.0 11309700000.0 11309700000.0 11309700000.0 11309700000.0 11309700000.0 11309700000.0 11309700000.0 11309700000.0 11309700000.0 11309700000.0 11309700000.0 11309700000.0 11309700000.0 11309700000.0 11309700000.0 11309700000.0 11309700000.0 11309700000.0 11309700000.0 11309700000.0 11309700000.0 11309700000.0 11309700000.0 11309700000.0 11309700000.0 11309700000.0 11309700000.0 11309700000.0 11309700000.0 11309700000.0 11309700000.0 11309700000.0 11309700000.0 11309700000.0 11309700000.0 11309700000.0 11309700000.0 11309700000.0 11309700000.0 11309700000.0 11309700000.0 11309700000.0 11309700000.0 11309700000.0 11309700000.0 11309700000.0 11309700000.0 11309700000.0 11309700000.0 11309700000.0 11309700000.0 11309700000.0 11309700000.0 11309700000.0 11309700000.0 11309700000.0 11309700000.0 11309700000.0 11309700000.0 11309700000.0 11309700000.0 11309700000.0 11309700000.0 11309700000.0 11309700000.0 11309700000.0 11309700000.0 11309700000.0 11309700000.0 11309700000.0 11309700000.0 11309700000.0 11309700000.0 11309700000.0 11309700000.0 11309700000.0 11309700000.0 11309700000.0 11309700000.0 11309700000.0 11309700000.0 11309700000.0 11309700000.0 11309700000.0 11309700000.0 11309700000.0 11309700000.0 11309700000.0 11309700000.0 11309700000.0 11309700000.0 11309700000.0 11309700000.0 11309700000.0 11309700000.0 11309700000.0 11309700000.0 11309700000.0 11309700000.0 11309700000.0 11309700000.0 11309700000.0 11309700000.0 11309700000.0 11309700000.0 11309700000.0 11309700000.0 11309700000.0 11309700000.0 11309700000.0 11309700000.0 11309700000.0 11309700000.0 11309700000.0 11309700000.0 11309700000.0 11309700000.0 11309700000.0 11309700000.0 11309700000.0 11309700000.0 11309700000.0 11309700000.0 11309700000.0 11309700000.0 11309700000.0 11309700000.0 11309700000.0 11309700000.0 11309700000.0 11309700000.0 11309700000.0 11309700000.0 11309700000.0 11309700000.0 11309700000.0 11309700000.0 11309700000.0 11309700000.0 11309700000.0 11309700000.0 11309700000.0 11309700000.0 11309700000.0 11309700000.0 11309700000.0 11309700000.0 11309700000.0 11309700000.0 11309700000.0 11309700000.0 11309700000.0 11309700000.0 11309700000.0 11309700000.0 11309700000.0 11309700000.0 11309700000.0 11309700000.0 11309700000.0 11309700000.0 11309700000.0 11309700000.0 11309700000.0 11309700000.0 11309700000.0 11309700000.0 11309700000.0 11309700000.0 11309700000.0 11309700000.0 11309700000.0 11309700000.0 11309700000.0 11309700000.0 11309700000.0 11309700000.0 11309700000.0 11309700000.0 11309700000.0 11309700000.0 11309700000.0 11309700000.0 11309700000.0 11309700000.0 11309700000.0 11309700000.0 11309700000.0 11309700000.0 11309700000.0 11309700000.0 11309700000.0 11309700000.0 11309700000.0 11309700000.0 11309700000.0 11309700000.0 11309700000.0 11309700000.0 11309700000.0 11309700000.0 11309700000.0 11309700000.0 11309700000.0 11309700000.0 11309700000.0 11309700000.0 11309700000.0 11309700000.0 11309700000.0 11309700000.0 11309700000.0 11309700000.0 11309700000.0 11309700000.0 11309700000.0 11309700000.0 11309700000.0 11309700000.0 11309700000.0 11309700000.0 11309700000.0 11309700000.0 11309700000.0 11309700000.0 11309700000.0 11309700000.0 11309700000.0 11309700000.0 11309700000.0 11309700000.0 11309700000.0 11309700000.0 11309700000.0 11309700000.0 11309700000.0 11309700000.0 11309700000.0 11309700000.0 11309700000.0 11309700000.0 11309700000.0 11309700000.0 11309700000.0 11309700000.0 11309700000.0 11309700000.0 11309700000.0 11309700000.0 11309700000.0 11309700000.0 11309700000.0 11309700000.0 11309700000.0 11309700000.0 11309700000.0 11309700000.0 11309700000.0 11309700000.0 11309700000.0 11309700000.0 11309700000.0 11309700000.0 11309700000.0 11309700000.0 11309700000.0 11309700000.0 11309700000.0 11309700000.0 11309700000.0 11309700000.0 11309700000.0 11309700000.0 11309700000.0 11309700000.0 11309700000.0 11309700000.0 11309700000.0 11309700000.0 11309700000.0 11309700000.0 11309700000.0 11309700000.0 11309700000.0 11309700000.0 11309700000.0 11309700000.0 11309700000.0 11309700000.0 11309700000.0 11309700000.0 11309700000.0 11309700000.0 11309700000.0 11309700000.0 11309700000.0 11309700000.0 11309700000.0 11309700000.0 11309700000.0 11309700000.0 11309700000.0 11309700000.0 11309700000.0 11309700000.0 11309700000.0 11309700000.0 11309700000.0 11309700000.0 11309700000.0 11309700000.0 11309700000.0 11309700000.0 11309700000.0 11309700000.0 11309700000.0 11309700000.0 11309700000.0 11309700000.0 11309700000.0 11309700000.0 11309700000.0 11309700000.0 11309700000.0 11309700000.0 11309700000.0 11309700000.0 11309700000.0 11309700000.0 11309700000.0 11309700000.0 11309700000.0 11309700000.0 11309700000.0 11309700000.0 11309700000.0 11309700000.0 11309700000.0 11309700000.0 11309700000.0 11309700000.0 11309700000.0 11309700000.0 11309700000.0 11309700000.0 11309700000.0 11309700000.0 11309700000.0 11309700000.0 11309700000.0 11309700000.0 11309700000.0 11309700000.0 11309700000.0 11309700000.0 11309700000.0 11309700000.0 11309700000.0 11309700000.0 11309700000.0 11309700000.0 11309700000.0 11309700000.0 11309700000.0 11309700000.0 11309700000.0 11309700000.0 11309700000.0 11309700000.0 11309700000.0 11309700000.0 11309700000.0 11309700000.0 11309700000.0 11309700000.0 11309700000.0 11309700000.0 11309700000.0 11309700000.0 11309700000.0 11309700000.0 11309700000.0 11309700000.0 11309700000.0 11309700000.0 11309700000.0 11309700000.0 11309700000.0 11309700000.0 11309700000.0 11309700000.0 11309700000.0 11309700000.0 11309700000.0 11309700000.0 11309700000.0 11309700000.0 11309700000.0 11309700000.0 11309700000.0 11309700000.0 11309700000.0 11309700000.0 11309700000.0 11309700000.0 11309700000.0 11309700000.0 11309700000.0 11309700000.0 11309700000.0 11309700000.0 11309700000.0 11309700000.0 11309700000.0 11309700000.0 11309700000.0 11309700000.0 11309700000.0 11309700000.0 11309700000.0 11309700000.0 11309700000.0 11309700000.0 11309700000.0 11309700000.0 11309700000.0 11309700000.0 11309700000.0 11309700000.0 11309700000.0 11309700000.0 11309700000.0 11309700000.0 11309700000.0 11309700000.0 11309700000.0 11309700000.0 11309700000.0 11309700000.0 11309700000.0 11309700000.0 11309700000.0 11309700000.0 11309700000.0 11309700000.0 11309700000.0 11309700000.0 11309700000.0 11309700000.0 11309700000.0 11309700000.0 11309700000.0 11309700000.0 11309700000.0 11309700000.0 11309700000.0 11309700000.0 11309700000.0 11309700000.0 11309700000.0 11309700000.0 11309700000.0 11309700000.0 11309700000.0 11309700000.0 11309700000.0 11309700000.0 11309700000.0 11309700000.0 11309700000.0 11309700000.0 11309700000.0 11309700000.0 11309700000.0 11309700000.0 11309700000.0 11309700000.0 11309700000.0 11309700000.0 11309700000.0 11309700000.0 11309700000.0 11309700000.0 11309700000.0 11309700000.0 11309700000.0 11309700000.0 11309700000.0 11309700000.0 11309700000.0 11309700000.0 11309700000.0 11309700000.0 11309700000.0 11309700000.0 11309700000.0 11309700000.0 11309700000.0 11309700000.0 11309700000.0 11309700000.0 11309700000.0 11309700000.0 11309700000.0 11309700000.0 11309700000.0 11309700000.0 11309700000.0 11309700000.0 11309700000.0 11309700000.0 11309700000.0 11309700000.0 11309700000.0 11309700000.0 11309700000.0 11309700000.0 11309700000.0 11309700000.0 11309700000.0 11309700000.0 11309700000.0 11309700000.0 11309700000.0 11309700000.0 11309700000.0 11309700000.0 11309700000.0 11309700000.0 11309700000.0 11309700000.0 11309700000.0 11309700000.0 11309700000.0 11309700000.0 11309700000.0 11309700000.0 11309700000.0 11309700000.0 11309700000.0 11309700000.0 11309700000.0 11309700000.0 11309700000.0 11309700000.0 11309700000.0 11309700000.0 11309700000.0 11309700000.0 11309700000.0 11309700000.0 11309700000.0 11309700000.0 11309700000.0 11309700000.0 11309700000.0 11309700000.0 11309700000.0 11309700000.0 11309700000.0 11309700000.0 11309700000.0 11309700000.0 11309700000.0 11309700000.0 11309700000.0 11309700000.0 11309700000.0 11309700000.0 11309700000.0 11309700000.0 11309700000.0 11309700000.0 11309700000.0 11309700000.0 11309700000.0 11309700000.0 11309700000.0 11309700000.0 11309700000.0 11309700000.0 11309700000.0 11309700000.0 11309700000.0 11309700000.0 11309700000.0 11309700000.0 11309700000.0 11309700000.0 11309700000.0 11309700000.0 11309700000.0 11309700000.0 11309700000.0 11309700000.0 11309700000.0 11309700000.0 11309700000.0 11309700000.0 11309700000.0 11309700000.0 11309700000.0 11309700000.0 11309700000.0 11309700000.0 11309700000.0 11309700000.0 11309700000.0 11309700000.0 11309700000.0 11309700000.0 11309700000.0 11309700000.0 11309700000.0 11309700000.0 11309700000.0 11309700000.0 11309700000.0 11309700000.0 11309700000.0 11309700000.0 11309700000.0 11309700000.0 11309700000.0 11309700000.0 11309700000.0 11309700000.0 11309700000.0 11309700000.0 11309700000.0 11309700000.0 11309700000.0 11309700000.0 11309700000.0 11309700000.0 11309700000.0 11309700000.0 11309700000.0 11309700000.0 11309700000.0 11309700000.0 11309700000.0 11309700000.0 11309700000.0 11309700000.0 11309700000.0 11309700000.0 11309700000.0 11309700000.0 11309700000.0 11309700000.0 11309700000.0 11309700000.0 11309700000.0 11309700000.0 11309700000.0 11309700000.0 11309700000.0 11309700000.0 11309700000.0 11309700000.0 11309700000.0 11309700000.0 11309700000.0 11309700000.0 11309700000.0 11309700000.0 11309700000.0 11309700000.0 11309700000.0 11309700000.0 11309700000.0 11309700000.0 11309700000.0 11309700000.0 11309700000.0 11309700000.0 11309700000.0 11309700000.0 11309700000.0 11309700000.0 11309700000.0 11309700000.0 11309700000.0 11309700000.0 11309700000.0 11309700000.0 11309700000.0 11309700000.0 11309700000.0 11309700000.0 11309700000.0 11309700000.0 11309700000.0 11309700000.0 11309700000.0 11309700000.0 11309700000.0 11309700000.0 11309700000.0 11309700000.0 11309700000.0 11309700000.0 11309700000.0 11309700000.0 11309700000.0 11309700000.0 11309700000.0 11309700000.0 11309700000.0 11309700000.0 11309700000.0 11309700000.0 11309700000.0 11309700000.0 11309700000.0 11309700000.0 11309700000.0 11309700000.0 11309700000.0 11309700000.0 11309700000.0 11309700000.0 11309700000.0 11309700000.0 11309700000.0 11309700000.0 11309700000.0 11309700000.0 11309700000.0 11309700000.0 11309700000.0 11309700000.0 11309700000.0 11309700000.0 11309700000.0 11309700000.0 11309700000.0 11309700000.0 11309700000.0 11309700000.0 11309700000.0 11309700000.0 11309700000.0 11309700000.0 11309700000.0 11309700000.0 11309700000.0 11309700000.0 11309700000.0 11309700000.0 11309700000.0 11309700000.0 11309700000.0 11309700000.0 11309700000.0 11309700000.0 11309700000.0 11309700000.0 11309700000.0 11309700000.0 11309700000.0 11309700000.0 11309700000.0 11309700000.0 11309700000.0 11309700000.0 11309700000.0 11309700000.0 11309700000.0 11309700000.0 11309700000.0 11309700000.0 11309700000.0 11309700000.0 11309700000.0 11309700000.0 11309700000.0 11309700000.0 11309700000.0 11309700000.0 11309700000.0 11309700000.0 11309700000.0 11309700000.0 11309700000.0 11309700000.0 11309700000.0 11309700000.0 11309700000.0 11309700000.0 11309700000.0 11309700000.0 11309700000.0 11309700000.0 11309700000.0 11309700000.0 11309700000.0 11309700000.0 11309700000.0 11309700000.0 11309700000.0 11309700000.0 11309700000.0 11309700000.0 11309700000.0 11309700000.0 11309700000.0 11309700000.0 11309700000.0 11309700000.0 11309700000.0 11309700000.0 11309700000.0 11309700000.0 11309700000.0 11309700000.0 11309700000.0 11309700000.0 11309700000.0 11309700000.0 11309700000.0 11309700000.0 11309700000.0 11309700000.0 11309700000.0 11309700000.0 11309700000.0 11309700000.0 11309700000.0 11309700000.0 11309700000.0 11309700000.0 11309700000.0 11309700000.0 11309700000.0 11309700000.0 11309700000.0 11309700000.0 11309700000.0 11309700000.0 11309700000.0 11309700000.0 11309700000.0 11309700000.0 11309700000.0 11309700000.0 11309700000.0 11309700000.0 11309700000.0 11309700000.0 11309700000.0 11309700000.0 11309700000.0 11309700000.0 11309700000.0 11309700000.0 11309700000.0 11309700000.0 11309700000.0 11309700000.0 11309700000.0 11309700000.0 11309700000.0 11309700000.0 11309700000.0 11309700000.0 11309700000.0 11309700000.0 11309700000.0 11309700000.0 11309700000.0 11309700000.0 11309700000.0 11309700000.0 11309700000.0 11309700000.0 11309700000.0 11309700000.0 11309700000.0 11309700000.0 11309700000.0 11309700000.0 11309700000.0 11309700000.0 11309700000.0 11309700000.0 11309700000.0 11309700000.0 11309700000.0 11309700000.0 11309700000.0 11309700000.0 11309700000.0 11309700000.0 11309700000.0 11309700000.0 11309700000.0 11309700000.0 11309700000.0 11309700000.0 11309700000.0 11309700000.0 11309700000.0 11309700000.0 11309700000.0 11309700000.0 11309700000.0 11309700000.0 11309700000.0 11309700000.0 11309700000.0 11309700000.0 11309700000.0 11309700000.0 11309700000.0 11309700000.0 11309700000.0 11309700000.0 11309700000.0 11309700000.0 11309700000.0 11309700000.0 11309700000.0 11309700000.0 11309700000.0 11309700000.0 11309700000.0 11309700000.0 11309700000.0 11309700000.0 11309700000.0 11309700000.0 11309700000.0 11309700000.0 11309700000.0 11309700000.0 11309700000.0 11309700000.0 11309700000.0 11309700000.0 11309700000.0 11309700000.0 11309700000.0 11309700000.0 11309700000.0 11309700000.0 11309700000.0 11309700000.0 11309700000.0 11309700000.0 11309700000.0 11309700000.0 11309700000.0 11309700000.0 11309700000.0 11309700000.0 11309700000.0 11309700000.0 11309700000.0 11309700000.0 11309700000.0 11309700000.0 11309700000.0 11309700000.0 11309700000.0 11309700000.0 11309700000.0 11309700000.0 11309700000.0 11309700000.0 11309700000.0 11309700000.0 11309700000.0 11309700000.0 11309700000.0 11309700000.0 11309700000.0 11309700000.0 11309700000.0 11309700000.0 11309700000.0 11309700000.0 11309700000.0 11309700000.0 11309700000.0 11309700000.0 11309700000.0 11309700000.0 11309700000.0 11309700000.0 11309700000.0 11309700000.0 11309700000.0 11309700000.0 11309700000.0 11309700000.0 11309700000.0 11309700000.0 11309700000.0 11309700000.0 11309700000.0 11309700000.0 11309700000.0 11309700000.0 11309700000.0 11309700000.0 11309700000.0 11309700000.0 11309700000.0 11309700000.0 11309700000.0 11309700000.0 11309700000.0 11309700000.0 11309700000.0 11309700000.0 11309700000.0 11309700000.0 11309700000.0 11309700000.0 11309700000.0 11309700000.0 11309700000.0 11309700000.0 11309700000.0 11309700000.0 11309700000.0 11309700000.0 11309700000.0 11309700000.0 11309700000.0 11309700000.0 11309700000.0 11309700000.0 11309700000.0 11309700000.0 11309700000.0 11309700000.0 11309700000.0 11309700000.0 11309700000.0 11309700000.0 11309700000.0 11309700000.0 11309700000.0 11309700000.0 11309700000.0 11309700000.0 11309700000.0 11309700000.0 11309700000.0 11309700000.0 11309700000.0 11309700000.0 11309700000.0 11309700000.0 11309700000.0 11309700000.0 11309700000.0 11309700000.0 11309700000.0 11309700000.0 11309700000.0 11309700000.0 11309700000.0 11309700000.0 11309700000.0 11309700000.0 11309700000.0 11309700000.0 11309700000.0 11309700000.0 11309700000.0 11309700000.0 11309700000.0 11309700000.0 11309700000.0 11309700000.0 11309700000.0 11309700000.0 11309700000.0 11309700000.0 11309700000.0 11309700000.0 11309700000.0 11309700000.0 11309700000.0 11309700000.0 11309700000.0 11309700000.0 11309700000.0 11309700000.0 11309700000.0 11309700000.0 11309700000.0 11309700000.0 11309700000.0 11309700000.0 11309700000.0 11309700000.0 11309700000.0 11309700000.0 11309700000.0 11309700000.0 11309700000.0 11309700000.0 11309700000.0 11309700000.0 11309700000.0 11309700000.0 11309700000.0 11309700000.0 11309700000.0 11309700000.0 11309700000.0 11309700000.0 11309700000.0 11309700000.0 11309700000.0 11309700000.0 11309700000.0 11309700000.0 11309700000.0 11309700000.0 11309700000.0 11309700000.0 11309700000.0 11309700000.0 11309700000.0 11309700000.0 11309700000.0 11309700000.0 11309700000.0 11309700000.0 11309700000.0 11309700000.0 11309700000.0 11309700000.0 11309700000.0 11309700000.0 11309700000.0 11309700000.0 11309700000.0 11309700000.0 11309700000.0 11309700000.0 11309700000.0 11309700000.0 11309700000.0 11309700000.0 11309700000.0 11309700000.0 11309700000.0 11309700000.0 11309700000.0 11309700000.0 11309700000.0 11309700000.0 11309700000.0 11309700000.0 11309700000.0 11309700000.0 11309700000.0 11309700000.0 11309700000.0 11309700000.0 11309700000.0 11309700000.0 11309700000.0 11309700000.0 11309700000.0 11309700000.0 11309700000.0 11309700000.0 11309700000.0 11309700000.0 11309700000.0 11309700000.0 11309700000.0 11309700000.0 11309700000.0 11309700000.0 11309700000.0 11309700000.0 11309700000.0 11309700000.0 11309700000.0 11309700000.0 11309700000.0 11309700000.0 11309700000.0 11309700000.0 11309700000.0 11309700000.0 11309700000.0 11309700000.0 11309700000.0 11309700000.0 11309700000.0 11309700000.0 11309700000.0 11309700000.0 11309700000.0 11309700000.0 11309700000.0 11309700000.0 11309700000.0 11309700000.0 11309700000.0 11309700000.0 11309700000.0 11309700000.0 11309700000.0 11309700000.0 11309700000.0 11309700000.0 11309700000.0 11309700000.0 11309700000.0 11309700000.0 11309700000.0 11309700000.0 11309700000.0 11309700000.0 11309700000.0 11309700000.0 11309700000.0 11309700000.0 11309700000.0 11309700000.0 11309700000.0 11309700000.0 11309700000.0 11309700000.0 11309700000.0 11309700000.0 11309700000.0 11309700000.0 11309700000.0 11309700000.0 11309700000.0 11309700000.0 11309700000.0 11309700000.0 11309700000.0 11309700000.0 11309700000.0 11309700000.0 11309700000.0 11309700000.0 11309700000.0 11309700000.0 11309700000.0 11309700000.0 11309700000.0 11309700000.0 11309700000.0 11309700000.0 11309700000.0 11309700000.0 11309700000.0 11309700000.0 11309700000.0 11309700000.0 11309700000.0 11309700000.0 11309700000.0 11309700000.0 11309700000.0 11309700000.0 11309700000.0 11309700000.0 11309700000.0 11309700000.0 11309700000.0 11309700000.0 11309700000.0 11309700000.0 11309700000.0 11309700000.0 11309700000.0 11309700000.0 11309700000.0 11309700000.0 11309700000.0 11309700000.0 11309700000.0 11309700000.0 11309700000.0 11309700000.0 11309700000.0 11309700000.0 11309700000.0 11309700000.0 11309700000.0 11309700000.0 11309700000.0 11309700000.0 11309700000.0 11309700000.0 11309700000.0 11309700000.0 11309700000.0 11309700000.0 11309700000.0 11309700000.0 11309700000.0 11309700000.0 11309700000.0 11309700000.0 11309700000.0 11309700000.0 11309700000.0 11309700000.0 11309700000.0 11309700000.0 11309700000.0 11309700000.0 11309700000.0 11309700000.0 11309700000.0 11309700000.0 11309700000.0 11309700000.0 11309700000.0 11309700000.0 11309700000.0 11309700000.0 11309700000.0 11309700000.0 11309700000.0 11309700000.0 11309700000.0 11309700000.0 11309700000.0 11309700000.0 11309700000.0 11309700000.0 11309700000.0 11309700000.0 11309700000.0 11309700000.0 11309700000.0 11309700000.0 11309700000.0 11309700000.0 11309700000.0 11309700000.0 11309700000.0 11309700000.0 11309700000.0 11309700000.0 11309700000.0 11309700000.0 11309700000.0 11309700000.0 11309700000.0 11309700000.0 11309700000.0 11309700000.0 11309700000.0 11309700000.0 11309700000.0 11309700000.0 11309700000.0 11309700000.0 11309700000.0 11309700000.0 11309700000.0 11309700000.0 11309700000.0 11309700000.0 11309700000.0 11309700000.0 11309700000.0 11309700000.0 11309700000.0 11309700000.0 11309700000.0 11309700000.0 11309700000.0 11309700000.0 11309700000.0 11309700000.0 11309700000.0 11309700000.0 11309700000.0 11309700000.0 11309700000.0 11309700000.0 11309700000.0 11309700000.0 11309700000.0 11309700000.0 11309700000.0 11309700000.0 11309700000.0 11309700000.0 11309700000.0 11309700000.0 11309700000.0 11309700000.0 11309700000.0 11309700000.0 11309700000.0 11309700000.0 11309700000.0 11309700000.0 11309700000.0 11309700000.0 11309700000.0 11309700000.0 11309700000.0 11309700000.0 11309700000.0 11309700000.0 11309700000.0 11309700000.0 11309700000.0 11309700000.0 11309700000.0 11309700000.0 11309700000.0 11309700000.0 11309700000.0 11309700000.0 11309700000.0 11309700000.0 11309700000.0 11309700000.0 11309700000.0 11309700000.0 11309700000.0 11309700000.0 11309700000.0 11309700000.0 11309700000.0 11309700000.0 11309700000.0 11309700000.0 11309700000.0 11309700000.0 11309700000.0 11309700000.0 11309700000.0 11309700000.0 11309700000.0 11309700000.0 11309700000.0 11309700000.0 11309700000.0 11309700000.0 11309700000.0 11309700000.0 11309700000.0 11309700000.0 11309700000.0 11309700000.0 11309700000.0 11309700000.0 11309700000.0 11309700000.0 11309700000.0 11309700000.0 11309700000.0 11309700000.0 11309700000.0 11309700000.0 11309700000.0 11309700000.0 11309700000.0 11309700000.0 11309700000.0 11309700000.0 11309700000.0 11309700000.0 11309700000.0 11309700000.0 11309700000.0 11309700000.0 11309700000.0 11309700000.0 11309700000.0 11309700000.0 11309700000.0 11309700000.0 11309700000.0 11309700000.0 11309700000.0 11309700000.0 11309700000.0 11309700000.0 11309700000.0 11309700000.0 11309700000.0 11309700000.0 11309700000.0 11309700000.0 11309700000.0 11309700000.0 11309700000.0 11309700000.0 11309700000.0 11309700000.0 11309700000.0 11309700000.0 11309700000.0 11309700000.0 11309700000.0 11309700000.0 11309700000.0 11309700000.0 11309700000.0 11309700000.0 11309700000.0 11309700000.0 11309700000.0 11309700000.0 11309700000.0 11309700000.0 11309700000.0 11309700000.0 11309700000.0 11309700000.0 11309700000.0 11309700000.0 11309700000.0 11309700000.0 11309700000.0 11309700000.0 11309700000.0 11309700000.0 11309700000.0 11309700000.0 11309700000.0 11309700000.0 11309700000.0 11309700000.0 11309700000.0 11309700000.0 11309700000.0 11309700000.0 11309700000.0 11309700000.0 11309700000.0 11309700000.0 11309700000.0 11309700000.0 11309700000.0 11309700000.0 11309700000.0 11309700000.0 11309700000.0 11309700000.0 11309700000.0 11309700000.0 11309700000.0 11309700000.0 11309700000.0 11309700000.0 11309700000.0 11309700000.0 11309700000.0 11309700000.0 11309700000.0 11309700000.0 11309700000.0 11309700000.0 11309700000.0 11309700000.0 11309700000.0 11309700000.0 11309700000.0 11309700000.0 11309700000.0 11309700000.0 11309700000.0 11309700000.0 11309700000.0 11309700000.0 11309700000.0 11309700000.0 11309700000.0 11309700000.0 11309700000.0 11309700000.0 11309700000.0 11309700000.0 11309700000.0 11309700000.0 11309700000.0 11309700000.0 11309700000.0 11309700000.0 11309700000.0 11309700000.0 11309700000.0 11309700000.0 11309700000.0 11309700000.0 11309700000.0 11309700000.0 11309700000.0 11309700000.0 11309700000.0 11309700000.0 11309700000.0 11309700000.0 11309700000.0 11309700000.0 11309700000.0 11309700000.0 11309700000.0 11309700000.0 11309700000.0 11309700000.0 11309700000.0 11309700000.0 11309700000.0 11309700000.0 11309700000.0 11309700000.0 11309700000.0 11309700000.0 11309700000.0 11309700000.0 11309700000.0 11309700000.0 11309700000.0 11309700000.0 11309700000.0 11309700000.0 11309700000.0 11309700000.0 11309700000.0 11309700000.0 11309700000.0 11309700000.0 11309700000.0 11309700000.0 11309700000.0 11309700000.0 11309700000.0 11309700000.0 11309700000.0 11309700000.0 11309700000.0 11309700000.0 11309700000.0 11309700000.0 11309700000.0 11309700000.0 11309700000.0 11309700000.0 11309700000.0 11309700000.0 11309700000.0 11309700000.0 11309700000.0 11309700000.0 11309700000.0 11309700000.0 11309700000.0 11309700000.0 11309700000.0 11309700000.0 11309700000.0 11309700000.0 11309700000.0 11309700000.0 11309700000.0 11309700000.0 11309700000.0 11309700000.0 11309700000.0 11309700000.0 11309700000.0 11309700000.0 11309700000.0 11309700000.0 11309700000.0 11309700000.0 11309700000.0 11309700000.0 11309700000.0 11309700000.0 11309700000.0 11309700000.0 11309700000.0 11309700000.0 11309700000.0 11309700000.0 11309700000.0 11309700000.0 11309700000.0 11309700000.0 11309700000.0 11309700000.0 11309700000.0 11309700000.0 11309700000.0 11309700000.0 11309700000.0 11309700000.0 11309700000.0 11309700000.0 11309700000.0 11309700000.0 11309700000.0 11309700000.0 11309700000.0 11309700000.0 11309700000.0 11309700000.0 11309700000.0 11309700000.0 11309700000.0 11309700000.0 11309700000.0 11309700000.0 11309700000.0 11309700000.0 11309700000.0 11309700000.0 11309700000.0 11309700000.0 11309700000.0 11309700000.0 11309700000.0 11309700000.0 11309700000.0 11309700000.0 11309700000.0 11309700000.0 11309700000.0 11309700000.0 11309700000.0 11309700000.0 11309700000.0 11309700000.0 11309700000.0 11309700000.0 11309700000.0 11309700000.0 11309700000.0 11309700000.0 11309700000.0 11309700000.0 11309700000.0 11309700000.0 11309700000.0 11309700000.0 11309700000.0 11309700000.0 11309700000.0 11309700000.0 11309700000.0 11309700000.0 11309700000.0 11309700000.0 11309700000.0 11309700000.0 11309700000.0 11309700000.0 11309700000.0 11309700000.0 11309700000.0 11309700000.0 11309700000.0 11309700000.0 11309700000.0 11309700000.0 11309700000.0 11309700000.0 11309700000.0 11309700000.0 11309700000.0 11309700000.0 11309700000.0 11309700000.0 11309700000.0 11309700000.0 11309700000.0 11309700000.0 11309700000.0 11309700000.0 11309700000.0 11309700000.0 11309700000.0 11309700000.0 11309700000.0 11309700000.0 11309700000.0 11309700000.0 11309700000.0 11309700000.0 11309700000.0 11309700000.0 11309700000.0 11309700000.0 11309700000.0 11309700000.0 11309700000.0 11309700000.0 11309700000.0 11309700000.0 11309700000.0 11309700000.0 11309700000.0 11309700000.0 11309700000.0 11309700000.0 11309700000.0 11309700000.0 11309700000.0 11309700000.0 11309700000.0 11309700000.0 11309700000.0 11309700000.0 11309700000.0 11309700000.0 11309700000.0 11309700000.0 11309700000.0 11309700000.0 11309700000.0 11309700000.0 11309700000.0 11309700000.0 11309700000.0 11309700000.0 11309700000.0 11309700000.0 11309700000.0 11309700000.0 11309700000.0 11309700000.0 11309700000.0 11309700000.0 11309700000.0 11309700000.0 11309700000.0 11309700000.0 11309700000.0 11309700000.0 11309700000.0 11309700000.0 11309700000.0 11309700000.0 11309700000.0 11309700000.0 11309700000.0 11309700000.0 11309700000.0 11309700000.0 11309700000.0 11309700000.0 11309700000.0 11309700000.0 11309700000.0 11309700000.0 11309700000.0 11309700000.0 11309700000.0 11309700000.0 11309700000.0 11309700000.0 11309700000.0 11309700000.0 11309700000.0 11309700000.0 11309700000.0 11309700000.0 11309700000.0 11309700000.0 11309700000.0 11309700000.0 11309700000.0 11309700000.0 11309700000.0 11309700000.0 11309700000.0 11309700000.0 11309700000.0 11309700000.0 11309700000.0 11309700000.0 11309700000.0 11309700000.0 11309700000.0 11309700000.0 11309700000.0 11309700000.0 11309700000.0 11309700000.0 11309700000.0 11309700000.0 11309700000.0 11309700000.0 11309700000.0 11309700000.0 11309700000.0 11309700000.0 11309700000.0 11309700000.0 11309700000.0 11309700000.0 11309700000.0 11309700000.0 11309700000.0 11309700000.0 11309700000.0 11309700000.0 11309700000.0 11309700000.0 11309700000.0 11309700000.0 11309700000.0 11309700000.0 11309700000.0 11309700000.0 11309700000.0 11309700000.0 11309700000.0 11309700000.0 11309700000.0 11309700000.0 11309700000.0 11309700000.0 11309700000.0 11309700000.0 11309700000.0 11309700000.0 11309700000.0 11309700000.0 11309700000.0 11309700000.0 11309700000.0 11309700000.0 11309700000.0 11309700000.0 11309700000.0 11309700000.0 11309700000.0 11309700000.0 11309700000.0 11309700000.0 11309700000.0 11309700000.0 11309700000.0 11309700000.0 11309700000.0 11309700000.0 11309700000.0 11309700000.0 11309700000.0 11309700000.0 11309700000.0 11309700000.0 11309700000.0 11309700000.0 11309700000.0 11309700000.0 11309700000.0 11309700000.0 11309700000.0 11309700000.0 11309700000.0 11309700000.0 11309700000.0 11309700000.0 11309700000.0 11309700000.0 11309700000.0 11309700000.0 11309700000.0 11309700000.0 11309700000.0 11309700000.0 11309700000.0 11309700000.0 11309700000.0 11309700000.0 11309700000.0 11309700000.0 11309700000.0 11309700000.0 11309700000.0 11309700000.0 11309700000.0 11309700000.0 11309700000.0 11309700000.0 11309700000.0 11309700000.0 11309700000.0 11309700000.0 11309700000.0 11309700000.0 11309700000.0 11309700000.0 11309700000.0 11309700000.0 11309700000.0 11309700000.0 11309700000.0 11309700000.0 11309700000.0 11309700000.0 11309700000.0 11309700000.0 11309700000.0 11309700000.0 11309700000.0 11309700000.0 11309700000.0 11309700000.0 11309700000.0 11309700000.0 11309700000.0 11309700000.0 11309700000.0 11309700000.0 11309700000.0 11309700000.0 11309700000.0 11309700000.0 11309700000.0 11309700000.0 11309700000.0 11309700000.0 11309700000.0 11309700000.0 11309700000.0 11309700000.0 11309700000.0 11309700000.0 11309700000.0 11309700000.0 11309700000.0 11309700000.0 11309700000.0 11309700000.0 11309700000.0 11309700000.0 11309700000.0 11309700000.0 11309700000.0 11309700000.0 11309700000.0 11309700000.0 11309700000.0 11309700000.0 11309700000.0 11309700000.0 11309700000.0 11309700000.0 11309700000.0 11309700000.0 11309700000.0 11309700000.0 11309700000.0 11309700000.0 11309700000.0 11309700000.0 11309700000.0 11309700000.0 11309700000.0 11309700000.0 11309700000.0 11309700000.0 11309700000.0 11309700000.0 11309700000.0 11309700000.0 11309700000.0 11309700000.0 11309700000.0 11309700000.0 11309700000.0 11309700000.0 11309700000.0 11309700000.0 11309700000.0 11309700000.0 11309700000.0 11309700000.0 11309700000.0 11309700000.0 11309700000.0 11309700000.0 11309700000.0 11309700000.0 11309700000.0 11309700000.0 11309700000.0 11309700000.0 11309700000.0 11309700000.0 11309700000.0 11309700000.0 11309700000.0 11309700000.0 11309700000.0 11309700000.0 11309700000.0 11309700000.0 11309700000.0 11309700000.0 11309700000.0 11309700000.0 11309700000.0 11309700000.0 11309700000.0 11309700000.0 11309700000.0 11309700000.0 11309700000.0 11309700000.0 11309700000.0 11309700000.0 11309700000.0 11309700000.0 11309700000.0 11309700000.0 11309700000.0 11309700000.0 11309700000.0 11309700000.0 11309700000.0 11309700000.0 11309700000.0 11309700000.0 11309700000.0 11309700000.0 11309700000.0 11309700000.0 11309700000.0 11309700000.0 11309700000.0 11309700000.0 11309700000.0 11309700000.0 11309700000.0 11309700000.0 11309700000.0 11309700000.0 11309700000.0 11309700000.0 11309700000.0 11309700000.0 11309700000.0 11309700000.0 11309700000.0 11309700000.0 11309700000.0 11309700000.0 11309700000.0 11309700000.0 11309700000.0 11309700000.0 11309700000.0 11309700000.0 11309700000.0 11309700000.0 11309700000.0 11309700000.0 11309700000.0 11309700000.0 11309700000.0 11309700000.0 11309700000.0 11309700000.0 11309700000.0 11309700000.0 11309700000.0 11309700000.0 11309700000.0 11309700000.0 11309700000.0 11309700000.0 11309700000.0 11309700000.0 11309700000.0 11309700000.0 11309700000.0 11309700000.0 11309700000.0 11309700000.0 11309700000.0 11309700000.0 11309700000.0 11309700000.0 11309700000.0 11309700000.0 11309700000.0 11309700000.0 11309700000.0 11309700000.0 11309700000.0 11309700000.0 11309700000.0 11309700000.0 11309700000.0 11309700000.0 11309700000.0 11309700000.0 11309700000.0 11309700000.0 11309700000.0 11309700000.0 11309700000.0 11309700000.0 11309700000.0 11309700000.0 11309700000.0 11309700000.0 11309700000.0 11309700000.0 11309700000.0 11309700000.0 11309700000.0 11309700000.0 11309700000.0 11309700000.0 11309700000.0 11309700000.0 11309700000.0 11309700000.0 11309700000.0 11309700000.0 11309700000.0 11309700000.0 11309700000.0 11309700000.0 11309700000.0 11309700000.0 11309700000.0 11309700000.0 11309700000.0 11309700000.0 11309700000.0 11309700000.0 11309700000.0 11309700000.0 11309700000.0 11309700000.0 11309700000.0 11309700000.0 11309700000.0 11309700000.0 11309700000.0 11309700000.0 11309700000.0 11309700000.0 11309700000.0 11309700000.0 11309700000.0 11309700000.0 11309700000.0 11309700000.0 11309700000.0 11309700000.0 11309700000.0 11309700000.0 11309700000.0 11309700000.0 11309700000.0 11309700000.0 11309700000.0 11309700000.0 11309700000.0 11309700000.0 11309700000.0 11309700000.0 11309700000.0 11309700000.0 11309700000.0 11309700000.0 11309700000.0 11309700000.0 11309700000.0 11309700000.0 11309700000.0 11309700000.0 11309700000.0 11309700000.0 11309700000.0 11309700000.0 11309700000.0 11309700000.0 11309700000.0 11309700000.0 11309700000.0 11309700000.0 11309700000.0 11309700000.0 11309700000.0 11309700000.0 11309700000.0 11309700000.0 11309700000.0 11309700000.0 11309700000.0 11309700000.0 11309700000.0 11309700000.0 11309700000.0 11309700000.0 11309700000.0 11309700000.0 11309700000.0 11309700000.0 11309700000.0 11309700000.0 11309700000.0 11309700000.0 11309700000.0 11309700000.0 11309700000.0 11309700000.0 11309700000.0 11309700000.0 11309700000.0 11309700000.0 11309700000.0 11309700000.0 11309700000.0 11309700000.0 11309700000.0 11309700000.0 11309700000.0 11309700000.0 11309700000.0 11309700000.0 11309700000.0 11309700000.0 11309700000.0 11309700000.0 11309700000.0 11309700000.0 11309700000.0 11309700000.0 11309700000.0 11309700000.0 11309700000.0 11309700000.0 11309700000.0 11309700000.0 11309700000.0 11309700000.0 11309700000.0 11309700000.0 11309700000.0 11309700000.0 11309700000.0 11309700000.0 11309700000.0 11309700000.0 11309700000.0 11309700000.0 11309700000.0 11309700000.0 11309700000.0 11309700000.0 11309700000.0 11309700000.0 11309700000.0 11309700000.0 11309700000.0 11309700000.0 11309700000.0 11309700000.0 11309700000.0 11309700000.0 11309700000.0 11309700000.0 11309700000.0 11309700000.0 11309700000.0 11309700000.0 11309700000.0 11309700000.0 11309700000.0 11309700000.0 11309700000.0 11309700000.0 11309700000.0 11309700000.0 11309700000.0 11309700000.0 11309700000.0 11309700000.0 11309700000.0 11309700000.0 11309700000.0 11309700000.0 11309700000.0 11309700000.0 11309700000.0 11309700000.0 11309700000.0 11309700000.0 11309700000.0 11309700000.0 11309700000.0 11309700000.0 11309700000.0 11309700000.0 11309700000.0 11309700000.0 11309700000.0 11309700000.0 11309700000.0 11309700000.0 11309700000.0 11309700000.0 11309700000.0 11309700000.0 11309700000.0 11309700000.0 11309700000.0 11309700000.0 11309700000.0 11309700000.0 11309700000.0 11309700000.0 11309700000.0 11309700000.0 11309700000.0 11309700000.0 11309700000.0 11309700000.0 11309700000.0 11309700000.0 11309700000.0 11309700000.0 11309700000.0 11309700000.0 11309700000.0 11309700000.0 11309700000.0 11309700000.0 11309700000.0 11309700000.0 11309700000.0 11309700000.0 11309700000.0 11309700000.0 11309700000.0 11309700000.0 11309700000.0 11309700000.0 11309700000.0 11309700000.0 11309700000.0 11309700000.0 11309700000.0 11309700000.0 11309700000.0 11309700000.0 11309700000.0 11309700000.0 11309700000.0 11309700000.0 11309700000.0 11309700000.0 11309700000.0 11309700000.0 11309700000.0 11309700000.0 11309700000.0 11309700000.0 11309700000.0 11309700000.0 11309700000.0 11309700000.0 11309700000.0 11309700000.0 11309700000.0 11309700000.0 11309700000.0 11309700000.0 11309700000.0 11309700000.0 11309700000.0 11309700000.0 11309700000.0 11309700000.0 11309700000.0 11309700000.0 11309700000.0 11309700000.0 11309700000.0 11309700000.0 11309700000.0 11309700000.0 11309700000.0 11309700000.0 11309700000.0 11309700000.0 11309700000.0 11309700000.0 11309700000.0 11309700000.0 11309700000.0 11309700000.0 11309700000.0 11309700000.0 11309700000.0 11309700000.0 11309700000.0 11309700000.0 11309700000.0 11309700000.0 11309700000.0 11309700000.0 11309700000.0 11309700000.0 11309700000.0 11309700000.0 11309700000.0 11309700000.0 11309700000.0 11309700000.0 11309700000.0 11309700000.0 11309700000.0 11309700000.0 11309700000.0 11309700000.0 11309700000.0 11309700000.0 11309700000.0 11309700000.0 11309700000.0 11309700000.0 11309700000.0 11309700000.0 11309700000.0 11309700000.0 11309700000.0 11309700000.0 11309700000.0 11309700000.0 11309700000.0 11309700000.0 11309700000.0 11309700000.0 11309700000.0 11309700000.0 11309700000.0 11309700000.0 11309700000.0 11309700000.0 11309700000.0 11309700000.0 11309700000.0 11309700000.0 11309700000.0 11309700000.0 11309700000.0 11309700000.0 11309700000.0 11309700000.0 11309700000.0 11309700000.0 11309700000.0 11309700000.0 11309700000.0 11309700000.0 11309700000.0 11309700000.0 11309700000.0 11309700000.0 11309700000.0 11309700000.0 11309700000.0 11309700000.0 11309700000.0 11309700000.0 11309700000.0 11309700000.0 11309700000.0 11309700000.0 11309700000.0 11309700000.0 11309700000.0 11309700000.0 11309700000.0 11309700000.0 11309700000.0 11309700000.0 11309700000.0 11309700000.0 11309700000.0 11309700000.0 11309700000.0 11309700000.0 11309700000.0 11309700000.0 11309700000.0 11309700000.0 11309700000.0 11309700000.0 11309700000.0 11309700000.0 11309700000.0 11309700000.0 11309700000.0 11309700000.0 11309700000.0 11309700000.0 11309700000.0 11309700000.0 11309700000.0 11309700000.0 11309700000.0 11309700000.0 11309700000.0 11309700000.0 11309700000.0 11309700000.0 11309700000.0 11309700000.0 11309700000.0 11309700000.0 11309700000.0 11309700000.0 11309700000.0 11309700000.0 11309700000.0 11309700000.0 11309700000.0 11309700000.0 11309700000.0 11309700000.0 11309700000.0 11309700000.0 11309700000.0 11309700000.0 11309700000.0 11309700000.0 11309700000.0 11309700000.0 11309700000.0 11309700000.0 11309700000.0 11309700000.0 11309700000.0 11309700000.0 11309700000.0 11309700000.0 11309700000.0 11309700000.0 11309700000.0 11309700000.0 11309700000.0 11309700000.0 11309700000.0 11309700000.0 11309700000.0 11309700000.0 11309700000.0 11309700000.0 11309700000.0 11309700000.0 11309700000.0 11309700000.0 11309700000.0 11309700000.0 11309700000.0 11309700000.0 11309700000.0 11309700000.0 11309700000.0 11309700000.0 11309700000.0 11309700000.0 11309700000.0 11309700000.0 11309700000.0 11309700000.0 11309700000.0 11309700000.0 11309700000.0 11309700000.0 11309700000.0 11309700000.0 11309700000.0 11309700000.0 11309700000.0 11309700000.0 11309700000.0 11309700000.0 11309700000.0 11309700000.0 11309700000.0 11309700000.0 11309700000.0 11309700000.0 11309700000.0 11309700000.0 11309700000.0 11309700000.0 11309700000.0 11309700000.0 11309700000.0 11309700000.0 11309700000.0 11309700000.0 11309700000.0 11309700000.0 11309700000.0 11309700000.0 11309700000.0 11309700000.0 11309700000.0 11309700000.0 11309700000.0 11309700000.0 11309700000.0 11309700000.0 11309700000.0 11309700000.0 11309700000.0 11309700000.0 11309700000.0 11309700000.0 11309700000.0 11309700000.0 11309700000.0 11309700000.0 11309700000.0 11309700000.0 11309700000.0 11309700000.0 11309700000.0 11309700000.0 11309700000.0 11309700000.0 11309700000.0 11309700000.0 11309700000.0 11309700000.0 11309700000.0 11309700000.0 11309700000.0 11309700000.0 11309700000.0 11309700000.0 11309700000.0 11309700000.0 11309700000.0 11309700000.0 11309700000.0 11309700000.0 11309700000.0 11309700000.0 11309700000.0 11309700000.0 11309700000.0 11309700000.0 11309700000.0 11309700000.0 11309700000.0 11309700000.0 11309700000.0 11309700000.0 11309700000.0 11309700000.0 11309700000.0 11309700000.0 11309700000.0 11309700000.0 11309700000.0 11309700000.0 11309700000.0 11309700000.0 11309700000.0 11309700000.0 11309700000.0 11309700000.0 11309700000.0 11309700000.0 11309700000.0 11309700000.0 11309700000.0 11309700000.0 11309700000.0 11309700000.0 11309700000.0 11309700000.0 11309700000.0 11309700000.0 11309700000.0 11309700000.0 11309700000.0 11309700000.0 11309700000.0 11309700000.0 11309700000.0 11309700000.0 11309700000.0 11309700000.0 11309700000.0 11309700000.0 11309700000.0 11309700000.0 11309700000.0 11309700000.0 11309700000.0 11309700000.0 11309700000.0 11309700000.0 11309700000.0 11309700000.0 11309700000.0 11309700000.0 11309700000.0 11309700000.0 11309700000.0 11309700000.0 11309700000.0 11309700000.0 11309700000.0 11309700000.0 11309700000.0 11309700000.0 11309700000.0 11309700000.0 11309700000.0 11309700000.0 11309700000.0 11309700000.0 11309700000.0 11309700000.0 11309700000.0 11309700000.0 11309700000.0 11309700000.0 11309700000.0 11309700000.0 11309700000.0 11309700000.0 11309700000.0 11309700000.0 11309700000.0 11309700000.0 11309700000.0 11309700000.0 11309700000.0 11309700000.0 11309700000.0 11309700000.0 11309700000.0 11309700000.0 11309700000.0 11309700000.0 11309700000.0 11309700000.0 11309700000.0 11309700000.0 11309700000.0 11309700000.0 11309700000.0 11309700000.0 11309700000.0 11309700000.0 11309700000.0 11309700000.0 11309700000.0 11309700000.0 11309700000.0 11309700000.0 11309700000.0 11309700000.0 11309700000.0 11309700000.0 11309700000.0 11309700000.0 11309700000.0 11309700000.0 11309700000.0 11309700000.0 11309700000.0 11309700000.0 11309700000.0 11309700000.0 11309700000.0 11309700000.0 11309700000.0 11309700000.0 11309700000.0 11309700000.0 11309700000.0 11309700000.0 11309700000.0 11309700000.0 11309700000.0 11309700000.0 11309700000.0 11309700000.0 11309700000.0 11309700000.0 11309700000.0 11309700000.0 11309700000.0 11309700000.0 11309700000.0 11309700000.0 11309700000.0 11309700000.0 11309700000.0 11309700000.0 11309700000.0 11309700000.0 11309700000.0 11309700000.0 11309700000.0 11309700000.0 11309700000.0 11309700000.0 11309700000.0 11309700000.0 11309700000.0 11309700000.0 11309700000.0 11309700000.0 11309700000.0 11309700000.0 11309700000.0 11309700000.0 11309700000.0 11309700000.0 11309700000.0 11309700000.0 11309700000.0 11309700000.0 11309700000.0 11309700000.0 11309700000.0 11309700000.0 11309700000.0 11309700000.0 11309700000.0 11309700000.0 11309700000.0 11309700000.0 11309700000.0 11309700000.0 11309700000.0 11309700000.0 11309700000.0 11309700000.0 11309700000.0 11309700000.0 11309700000.0 11309700000.0 11309700000.0 11309700000.0 11309700000.0 11309700000.0 11309700000.0 11309700000.0 11309700000.0 11309700000.0 11309700000.0 11309700000.0 11309700000.0 11309700000.0 11309700000.0 11309700000.0 11309700000.0 11309700000.0 11309700000.0 11309700000.0 11309700000.0 11309700000.0 11309700000.0 11309700000.0 11309700000.0 11309700000.0 11309700000.0 11309700000.0 11309700000.0 11309700000.0 11309700000.0 11309700000.0 11309700000.0 11309700000.0 11309700000.0 11309700000.0 11309700000.0 11309700000.0 11309700000.0 11309700000.0 11309700000.0 11309700000.0 11309700000.0 11309700000.0 11309700000.0 11309700000.0 11309700000.0 11309700000.0 11309700000.0 11309700000.0 11309700000.0 11309700000.0 11309700000.0 11309700000.0 11309700000.0 11309700000.0 11309700000.0 11309700000.0 11309700000.0 11309700000.0 11309700000.0 11309700000.0 11309700000.0 11309700000.0 11309700000.0 11309700000.0 11309700000.0 11309700000.0 11309700000.0 11309700000.0 11309700000.0 11309700000.0 11309700000.0 11309700000.0 11309700000.0 11309700000.0 11309700000.0 11309700000.0 11309700000.0 11309700000.0 11309700000.0 11309700000.0 11309700000.0 11309700000.0 11309700000.0 11309700000.0 11309700000.0 11309700000.0 11309700000.0 11309700000.0 11309700000.0 11309700000.0 11309700000.0 11309700000.0 11309700000.0 11309700000.0 11309700000.0 11309700000.0 11309700000.0 11309700000.0 11309700000.0 11309700000.0 11309700000.0 11309700000.0 11309700000.0 11309700000.0 11309700000.0 11309700000.0 11309700000.0 11309700000.0 11309700000.0 11309700000.0 11309700000.0 11309700000.0 11309700000.0 11309700000.0 11309700000.0 11309700000.0 11309700000.0 11309700000.0 11309700000.0 11309700000.0 11309700000.0 11309700000.0 11309700000.0 11309700000.0 11309700000.0 11309700000.0 11309700000.0 11309700000.0 11309700000.0 11309700000.0 11309700000.0 11309700000.0 11309700000.0 11309700000.0 11309700000.0 11309700000.0 11309700000.0 11309700000.0 11309700000.0 11309700000.0 11309700000.0 11309700000.0 11309700000.0 11309700000.0 11309700000.0 11309700000.0 11309700000.0 11309700000.0 11309700000.0 11309700000.0 11309700000.0 11309700000.0 11309700000.0 11309700000.0 11309700000.0 11309700000.0 11309700000.0 11309700000.0 11309700000.0 11309700000.0 11309700000.0 11309700000.0 11309700000.0 11309700000.0 11309700000.0 11309700000.0 11309700000.0 11309700000.0 11309700000.0 11309700000.0 11309700000.0 11309700000.0 11309700000.0 11309700000.0 11309700000.0 11309700000.0 11309700000.0 11309700000.0 11309700000.0 11309700000.0 11309700000.0 11309700000.0 11309700000.0 11309700000.0 11309700000.0 11309700000.0 11309700000.0 11309700000.0 11309700000.0 11309700000.0 11309700000.0 11309700000.0 11309700000.0 11309700000.0 11309700000.0 11309700000.0 11309700000.0 11309700000.0 11309700000.0 11309700000.0 11309700000.0 11309700000.0 11309700000.0 11309700000.0 11309700000.0 11309700000.0 11309700000.0 11309700000.0 11309700000.0 11309700000.0 11309700000.0 11309700000.0 11309700000.0 11309700000.0 11309700000.0 11309700000.0 11309700000.0 11309700000.0 11309700000.0 11309700000.0 11309700000.0 11309700000.0 11309700000.0 11309700000.0 11309700000.0 11309700000.0 11309700000.0 11309700000.0 11309700000.0 11309700000.0 11309700000.0 11309700000.0 11309700000.0 11309700000.0 11309700000.0 11309700000.0 11309700000.0 11309700000.0 11309700000.0 11309700000.0 11309700000.0 11309700000.0 11309700000.0 11309700000.0 11309700000.0 11309700000.0 11309700000.0 11309700000.0 11309700000.0 11309700000.0 11309700000.0 11309700000.0 11309700000.0 11309700000.0 11309700000.0 11309700000.0 11309700000.0 11309700000.0 11309700000.0 11309700000.0 11309700000.0 11309700000.0 11309700000.0 11309700000.0 11309700000.0 11309700000.0 11309700000.0 11309700000.0 11309700000.0 11309700000.0 11309700000.0 11309700000.0 11309700000.0 11309700000.0 11309700000.0 11309700000.0 11309700000.0 11309700000.0 11309700000.0 11309700000.0 11309700000.0 11309700000.0 11309700000.0 11309700000.0 11309700000.0 11309700000.0 11309700000.0 11309700000.0 11309700000.0 11309700000.0 11309700000.0 11309700000.0 11309700000.0 11309700000.0 11309700000.0 11309700000.0 11309700000.0 11309700000.0 11309700000.0 11309700000.0 11309700000.0 11309700000.0 11309700000.0 11309700000.0 11309700000.0 11309700000.0 11309700000.0 11309700000.0 11309700000.0 11309700000.0 11309700000.0 11309700000.0 11309700000.0 11309700000.0 11309700000.0 11309700000.0 11309700000.0 11309700000.0 11309700000.0 11309700000.0 11309700000.0 11309700000.0 11309700000.0 11309700000.0 11309700000.0 11309700000.0 11309700000.0 11309700000.0 11309700000.0 11309700000.0 11309700000.0 11309700000.0 11309700000.0 11309700000.0 11309700000.0 11309700000.0 11309700000.0 11309700000.0 11309700000.0 11309700000.0 11309700000.0 11309700000.0 11309700000.0 11309700000.0 11309700000.0 11309700000.0 11309700000.0 11309700000.0 11309700000.0 11309700000.0 11309700000.0 11309700000.0 11309700000.0 11309700000.0 11309700000.0 11309700000.0 11309700000.0 11309700000.0 11309700000.0 11309700000.0 11309700000.0 11309700000.0 11309700000.0 11309700000.0 11309700000.0 11309700000.0 11309700000.0 11309700000.0 11309700000.0 11309700000.0 11309700000.0 11309700000.0 11309700000.0 11309700000.0 11309700000.0 11309700000.0 11309700000.0 11309700000.0 11309700000.0 11309700000.0 11309700000.0 11309700000.0 11309700000.0 11309700000.0 11309700000.0 11309700000.0 11309700000.0 11309700000.0 11309700000.0 11309700000.0 11309700000.0 11309700000.0 11309700000.0 11309700000.0 11309700000.0 11309700000.0 11309700000.0 11309700000.0 11309700000.0 11309700000.0 11309700000.0 11309700000.0 11309700000.0 11309700000.0 11309700000.0 11309700000.0 11309700000.0 11309700000.0 11309700000.0 11309700000.0 11309700000.0 11309700000.0 11309700000.0 11309700000.0 11309700000.0 11309700000.0 11309700000.0 11309700000.0 11309700000.0 11309700000.0 11309700000.0 11309700000.0 11309700000.0 11309700000.0 11309700000.0 11309700000.0 11309700000.0 11309700000.0 11309700000.0 11309700000.0 11309700000.0 11309700000.0 11309700000.0 11309700000.0 11309700000.0 11309700000.0 11309700000.0 11309700000.0 11309700000.0 11309700000.0 11309700000.0 11309700000.0 11309700000.0 11309700000.0 11309700000.0 11309700000.0 11309700000.0 11309700000.0 11309700000.0 11309700000.0 11309700000.0 11309700000.0 11309700000.0 11309700000.0 11309700000.0 11309700000.0 11309700000.0 11309700000.0 11309700000.0 11309700000.0 11309700000.0 11309700000.0 11309700000.0 11309700000.0 11309700000.0 11309700000.0 11309700000.0 11309700000.0 11309700000.0 11309700000.0 11309700000.0 11309700000.0 11309700000.0 11309700000.0 11309700000.0 11309700000.0 11309700000.0 11309700000.0 11309700000.0 11309700000.0 11309700000.0 11309700000.0 11309700000.0 11309700000.0 11309700000.0 11309700000.0 11309700000.0 11309700000.0 11309700000.0 11309700000.0 11309700000.0 11309700000.0 11309700000.0 11309700000.0 11309700000.0 11309700000.0 11309700000.0 11309700000.0 11309700000.0 11309700000.0 11309700000.0 11309700000.0 11309700000.0 11309700000.0 11309700000.0 11309700000.0 11309700000.0 11309700000.0 11309700000.0 11309700000.0 11309700000.0 11309700000.0 11309700000.0 11309700000.0 11309700000.0 11309700000.0 11309700000.0 11309700000.0 11309700000.0 11309700000.0 11309700000.0 11309700000.0 11309700000.0 11309700000.0 11309700000.0 11309700000.0 11309700000.0 11309700000.0 11309700000.0 11309700000.0 11309700000.0 11309700000.0 11309700000.0 11309700000.0 11309700000.0 11309700000.0 11309700000.0 11309700000.0 11309700000.0 11309700000.0 11309700000.0 11309700000.0 11309700000.0 11309700000.0 11309700000.0 11309700000.0 11309700000.0 11309700000.0 11309700000.0 11309700000.0 11309700000.0 11309700000.0 11309700000.0 11309700000.0 11309700000.0 11309700000.0 11309700000.0 11309700000.0 11309700000.0 11309700000.0 11309700000.0 11309700000.0 11309700000.0 11309700000.0 11309700000.0 11309700000.0 11309700000.0 11309700000.0 11309700000.0 11309700000.0 11309700000.0 11309700000.0 11309700000.0 11309700000.0 11309700000.0 11309700000.0 11309700000.0 11309700000.0 11309700000.0 11309700000.0 11309700000.0 11309700000.0 11309700000.0 11309700000.0 11309700000.0 11309700000.0 11309700000.0 11309700000.0 11309700000.0 11309700000.0 11309700000.0 11309700000.0 11309700000.0 11309700000.0 11309700000.0 11309700000.0 11309700000.0 11309700000.0 11309700000.0 11309700000.0 11309700000.0 11309700000.0 11309700000.0 11309700000.0 11309700000.0 11309700000.0 11309700000.0 11309700000.0 11309700000.0 11309700000.0 11309700000.0 11309700000.0 11309700000.0 11309700000.0 11309700000.0 11309700000.0 11309700000.0 11309700000.0 11309700000.0 11309700000.0 11309700000.0 11309700000.0 11309700000.0 11309700000.0 11309700000.0 11309700000.0 11309700000.0 11309700000.0 11309700000.0 11309700000.0 11309700000.0 11309700000.0 11309700000.0 11309700000.0 11309700000.0 11309700000.0 11309700000.0 11309700000.0 11309700000.0 11309700000.0 11309700000.0 11309700000.0 11309700000.0 11309700000.0 11309700000.0 11309700000.0 11309700000.0 11309700000.0 11309700000.0 11309700000.0 11309700000.0 11309700000.0 11309700000.0 11309700000.0 11309700000.0 11309700000.0 11309700000.0 11309700000.0 11309700000.0 11309700000.0 11309700000.0 11309700000.0 11309700000.0 11309700000.0 11309700000.0 11309700000.0 11309700000.0 11309700000.0 11309700000.0 11309700000.0 11309700000.0 11309700000.0 11309700000.0 11309700000.0 11309700000.0 11309700000.0 11309700000.0 11309700000.0 11309700000.0 11309700000.0 11309700000.0 11309700000.0 11309700000.0 11309700000.0 11309700000.0 11309700000.0 11309700000.0 11309700000.0 11309700000.0 11309700000.0 11309700000.0 11309700000.0 11309700000.0 11309700000.0 11309700000.0 11309700000.0 11309700000.0 11309700000.0 11309700000.0 11309700000.0 11309700000.0 11309700000.0 11309700000.0 11309700000.0 11309700000.0 11309700000.0 11309700000.0 11309700000.0 11309700000.0 11309700000.0 11309700000.0 11309700000.0 11309700000.0 11309700000.0 11309700000.0 11309700000.0 11309700000.0 11309700000.0 11309700000.0 11309700000.0 11309700000.0 11309700000.0 11309700000.0 11309700000.0 11309700000.0 11309700000.0 11309700000.0 11309700000.0 11309700000.0 11309700000.0 11309700000.0 11309700000.0 11309700000.0 11309700000.0 11309700000.0 11309700000.0 11309700000.0 11309700000.0 11309700000.0 11309700000.0 11309700000.0 11309700000.0 11309700000.0 11309700000.0 11309700000.0 11309700000.0 11309700000.0 11309700000.0 11309700000.0 11309700000.0 11309700000.0 11309700000.0 11309700000.0 11309700000.0 11309700000.0 11309700000.0 11309700000.0 11309700000.0 11309700000.0 11309700000.0 11309700000.0 11309700000.0 11309700000.0 11309700000.0 11309700000.0 11309700000.0 11309700000.0 11309700000.0 11309700000.0 11309700000.0 11309700000.0 11309700000.0 11309700000.0 11309700000.0 11309700000.0 11309700000.0 11309700000.0 11309700000.0 11309700000.0 11309700000.0 11309700000.0 11309700000.0 11309700000.0 11309700000.0 11309700000.0 11309700000.0 11309700000.0 11309700000.0 11309700000.0 11309700000.0 11309700000.0 11309700000.0 11309700000.0 11309700000.0 11309700000.0 11309700000.0 11309700000.0 11309700000.0 11309700000.0 11309700000.0 11309700000.0 11309700000.0 11309700000.0 11309700000.0 11309700000.0 11309700000.0 11309700000.0 11309700000.0 11309700000.0 11309700000.0 11309700000.0 11309700000.0 11309700000.0 11309700000.0 11309700000.0 11309700000.0 11309700000.0 11309700000.0 11309700000.0 11309700000.0 11309700000.0 11309700000.0 11309700000.0 11309700000.0 11309700000.0 11309700000.0 11309700000.0 11309700000.0 11309700000.0 11309700000.0 11309700000.0 11309700000.0 11309700000.0 11309700000.0 11309700000.0 11309700000.0 11309700000.0 11309700000.0 11309700000.0 11309700000.0 11309700000.0 11309700000.0 11309700000.0 11309700000.0 11309700000.0 11309700000.0 11309700000.0 11309700000.0 11309700000.0 11309700000.0 11309700000.0 11309700000.0 11309700000.0 11309700000.0 11309700000.0 11309700000.0 11309700000.0 11309700000.0 11309700000.0 11309700000.0 11309700000.0 11309700000.0 11309700000.0 11309700000.0 11309700000.0 11309700000.0 11309700000.0 11309700000.0 11309700000.0 11309700000.0 11309700000.0 11309700000.0 11309700000.0 11309700000.0 11309700000.0 11309700000.0 11309700000.0 11309700000.0 11309700000.0 11309700000.0 11309700000.0 11309700000.0 11309700000.0 11309700000.0 11309700000.0 11309700000.0 11309700000.0 11309700000.0 11309700000.0 11309700000.0 11309700000.0 11309700000.0 11309700000.0 11309700000.0 11309700000.0 11309700000.0 11309700000.0 11309700000.0 11309700000.0 11309700000.0 11309700000.0 11309700000.0 11309700000.0 11309700000.0 11309700000.0 11309700000.0 11309700000.0 11309700000.0 11309700000.0 11309700000.0 11309700000.0 11309700000.0 11309700000.0 11309700000.0 11309700000.0 11309700000.0 11309700000.0 11309700000.0 11309700000.0 11309700000.0 11309700000.0 11309700000.0 11309700000.0 11309700000.0 11309700000.0 11309700000.0 11309700000.0 11309700000.0 11309700000.0 11309700000.0 11309700000.0 11309700000.0 11309700000.0 11309700000.0 11309700000.0 11309700000.0 11309700000.0 11309700000.0 11309700000.0 11309700000.0 11309700000.0 11309700000.0 11309700000.0 11309700000.0 11309700000.0 11309700000.0 11309700000.0 11309700000.0 11309700000.0 11309700000.0 11309700000.0 11309700000.0 11309700000.0 11309700000.0 11309700000.0 11309700000.0 11309700000.0 11309700000.0 11309700000.0 11309700000.0 11309700000.0 11309700000.0 11309700000.0 11309700000.0 11309700000.0 11309700000.0 11309700000.0 11309700000.0 11309700000.0 11309700000.0 11309700000.0 11309700000.0 11309700000.0 11309700000.0 11309700000.0 11309700000.0 11309700000.0 11309700000.0 11309700000.0 11309700000.0 11309700000.0 11309700000.0 11309700000.0 11309700000.0 11309700000.0 11309700000.0 11309700000.0 11309700000.0 11309700000.0 11309700000.0 11309700000.0 11309700000.0 11309700000.0 11309700000.0 11309700000.0 11309700000.0 11309700000.0 11309700000.0 11309700000.0 11309700000.0 11309700000.0 11309700000.0 11309700000.0 11309700000.0 11309700000.0 11309700000.0 11309700000.0 11309700000.0 11309700000.0 11309700000.0 11309700000.0 11309700000.0 11309700000.0 11309700000.0 11309700000.0 11309700000.0 11309700000.0 11309700000.0 11309700000.0 11309700000.0 11309700000.0 11309700000.0 11309700000.0 11309700000.0 11309700000.0 11309700000.0 11309700000.0 11309700000.0 11309700000.0 11309700000.0 11309700000.0 11309700000.0 11309700000.0 11309700000.0 11309700000.0 11309700000.0 11309700000.0 11309700000.0 11309700000.0 11309700000.0 11309700000.0 11309700000.0 11309700000.0 11309700000.0 11309700000.0 11309700000.0 11309700000.0 11309700000.0 11309700000.0 11309700000.0 11309700000.0 11309700000.0 11309700000.0 11309700000.0 11309700000.0 11309700000.0 11309700000.0 11309700000.0 11309700000.0 11309700000.0 11309700000.0 11309700000.0 11309700000.0 11309700000.0 11309700000.0 11309700000.0 11309700000.0 11309700000.0 11309700000.0 11309700000.0 11309700000.0 11309700000.0 11309700000.0 11309700000.0 11309700000.0 11309700000.0 11309700000.0 11309700000.0 11309700000.0 11309700000.0 11309700000.0 11309700000.0 11309700000.0 11309700000.0 11309700000.0 11309700000.0 11309700000.0 11309700000.0 11309700000.0 11309700000.0 11309700000.0 11309700000.0 11309700000.0 11309700000.0 11309700000.0 11309700000.0 11309700000.0 11309700000.0 11309700000.0 11309700000.0 11309700000.0 11309700000.0 11309700000.0 11309700000.0 11309700000.0 11309700000.0 11309700000.0 11309700000.0 11309700000.0 11309700000.0 11309700000.0 11309700000.0 11309700000.0 11309700000.0 11309700000.0 11309700000.0 11309700000.0 11309700000.0 11309700000.0 11309700000.0 11309700000.0 11309700000.0 11309700000.0 11309700000.0 11309700000.0 11309700000.0 11309700000.0 11309700000.0 11309700000.0 11309700000.0 11309700000.0 11309700000.0 11309700000.0 11309700000.0 11309700000.0 11309700000.0 11309700000.0 11309700000.0 11309700000.0 11309700000.0 11309700000.0 11309700000.0 11309700000.0 11309700000.0 11309700000.0 11309700000.0 11309700000.0 11309700000.0 11309700000.0 11309700000.0 11309700000.0 11309700000.0 11309700000.0 11309700000.0 11309700000.0 11309700000.0 11309700000.0 11309700000.0 11309700000.0 11309700000.0 11309700000.0 11309700000.0 
SCALARS Velocity float 1
LOOKUP_TABLE default
0.568447 1.31028 1.2531 1.06825 1.19459 1.19459 1.06825 1.2531 1.31028 0.568447 0.571516 0.554365 0.546351 1.24159 1.14921 0.996562 0.798301 1.04608 0.875803 0.895525 0.893973 0.893987 0.893838 0.893822 0.893846 0.893891 0.893906 0.893905 0.893896 0.893881 0.893868 0.893847 0.893859 0.893848 0.893845 0.893848 0.893859 0.893847 0.893868 0.893881 0.893896 0.893905 0.893906 0.893891 0.893846 0.893822 0.893838 0.893987 0.893973 0.895525 0.875803 1.04608 0.798301 0.996562 1.14921 1.24159 0.546351 0.554365 0.571516 0.654549 0.616929 1.2232 1.08214 0.993722 0.736349 1.10328 0.791926 1.04664 0.879387 0.904384 0.893827 0.893927 0.893943 0.893913 0.893917 0.893938 0.893959 0.893953 0.893936 0.893889 0.893901 0.89385 0.893861 0.893849 0.893845 0.893849 0.893861 0.89385 0.893901 0.893889 0.893936 0.893953 0.893959 0.893938 0.893917 0.893913 0.893943 0.893927 0.893827 0.904384 0.879387 1.04664 0.791926 1.10328 0.736349 0.993722 1.08214 1.2232 0.616929 0.654549 0.694828 0.66479 0.65533 1.30926 1.28159 1.28159 1.30926 0.65533 0.66479 0.694828 0.710938 0.71109 0.694365 0.729479 0.688877 0.751161 1.26455 1.34795 1.30043 0.752736 1.11716 0.770507 1.05786 0.88495 0.90773 0.894428 0.894565 0.89444 0.894354 0.894248 0.89417 0.894103 0.894047 0.893986 0.893952 0.893891 0.893874 0.893843 0.893852 0.893844 0.893852 0.893843 0.893874 0.893891 0.893952 0.893986 0.894047 0.894103 0.89417 0.894248 0.894354 0.89444 0.894565 0.894428 0.90773 0.88495 1.05786 0.770507 1.11716 0.752736 1.30043 1.34795 1.26455 0.751161 0.688877 0.729479 0.694365 0.71109 0.710938 0.747193 0.726557 0.724349 0.73769 0.777181 1.33911 0.565004 0.604195 0.817086 1.07295 0.74725 1.05749 0.862291 0.914835 0.892189 0.894901 0.894299 0.894126 0.894028 0.893961 0.893917 0.893897 0.893856 0.8939 0.893798 0.893914 0.893807 0.893855 0.893834 0.893855 0.893807 0.893914 0.893798 0.8939 0.893856 0.893897 0.893917 0.893961 0.894028 0.894126 0.894299 0.894901 0.892189 0.914835 0.862291 1.05749 0.74725 1.07295 0.817086 0.604195 0.565004 1.33911 0.777181 0.73769 0.724349 0.726557 0.747193 0.775768 0.743875 0.737224 0.814679 0.845722 0.540935 0.664874 0.891353 0.891353 0.664874 0.540935 0.845722 0.814679 0.737224 0.743875 0.775768 0.818313 0.766376 0.774538 0.760161 0.791299 0.780356 0.856139 0.513466 0.601284 0.839977 0.910419 0.931011 0.471662 1.06856 0.820933 0.919608 0.888731 0.895542 0.893846 0.893863 0.893852 0.893863 0.893882 0.893889 0.893885 0.893882 0.893848 0.893893 0.893834 0.89386 0.893836 0.89386 0.893834 0.893893 0.893848 0.893882 0.893885 0.893889 0.893882 0.893863 0.893852 0.893863 0.893846 0.895542 0.888731 0.919608 0.820933 1.06856 0.471662 0.931011 0.910419 0.839977 0.601284 0.513466 0.856139 0.780356 0.791299 0.760161 0.774538 0.766376 0.818313 0.317803 0.608581 0.802783 0.812368 0.790544 0.875548 0.876158 0.571593 0.526204 0.611716 0.703831 0.748363 0.868169 0.964288 0.514559 1.09003 0.79725 0.923295 0.886483 0.895949 0.893536 0.893909 0.893854 0.893882 0.893889 0.893887 0.893881 0.893874 0.893867 0.893862 0.893839 0.893861 0.893836 0.893861 0.893839 0.893862 0.893867 0.893874 0.893881 0.893887 0.893889 0.893882 0.893854 0.893909 0.893536 0.895949 0.886483 0.923295 0.79725 1.09003 0.514559 0.964288 0.868169 0.748363 0.703831 0.611716 0.526204 0.571593 0.876158 0.875548 0.790544 0.812368 0.802783 0.608581 0.317803 0.335457 0.330617 0.531785 0.830774 0.795341 0.715835 0.561264 0.734568 0.809393 0.937187 0.937187 0.809393 0.734568 0.561264 0.715835 0.795341 0.830774 0.531785 0.330617 0.335457 0.344151 0.341551 0.347146 0.567876 0.481089 0.442076 0.844001 0.880953 0.832628 0.932876 0.416404 0.748536 0.908879 0.961513 0.990406 0.577608 1.11508 0.778626 0.927187 0.884877 0.896117 0.893449 0.893917 0.893889 0.893929 0.893936 0.893929 0.893917 0.893902 0.893885 0.893873 0.89386 0.893861 0.893836 0.893861 0.89386 0.893873 0.893885 0.893902 0.893917 0.893929 0.893936 0.893929 0.893889 0.893917 0.893449 0.896117 0.884877 0.927187 0.778626 1.11508 0.577608 0.990406 0.961513 0.908879 0.748536 0.416404 0.932876 0.832628 0.880953 0.844001 0.442076 0.481089 0.567876 0.347146 0.341551 0.344151 0.356468 0.374317 0.357681 0.546903 0.507939 0.45713 0.429346 0.9038 0.579604 0.499769 0.740856 0.89023 0.916855 0.988079 1.12768 0.781876 0.929518 0.882398 0.896024 0.893791 0.894145 0.894168 0.894201 0.894188 0.894147 0.894093 0.894029 0.893968 0.893921 0.893885 0.893862 0.893858 0.893862 0.893885 0.893921 0.893968 0.894029 0.894093 0.894147 0.894188 0.894201 0.894168 0.894145 0.893791 0.896024 0.882398 0.929518 0.781876 1.12768 0.988079 0.916855 0.89023 0.740856 0.499769 0.579604 0.9038 0.429346 0.45713 0.507939 0.546903 0.357681 0.374317 0.356468 0.382685 0.396124 0.369833 0.38565 0.478493 0.419337 0.428208 0.476427 0.638687 0.742918 0.672666 0.674836 0.507539 0.88393 0.952991 0.631752 0.631752 0.952991 0.88393 0.507539 0.674836 0.672666 0.742918 0.638687 0.476427 0.428208 0.419337 0.478493 0.38565 0.369833 0.396124 0.382685 0.356276 0.390123 0.349597 0.417162 0.397323 0.38703 0.511044 0.453537 0.440889 0.417643 0.550465 0.662622 0.724341 0.87995 0.707532 0.888647 0.774476 0.640707 1.12198 0.800919 0.929363 0.881802 0.896473 0.894236 0.894729 0.894743 0.894717 0.894628 0.894497 0.894351 0.89421 0.894083 0.893979 0.893904 0.89386 0.893844 0.89386 0.893904 0.893979 0.894083 0.89421 0.894351 0.894497 0.894628 0.894717 0.894743 0.894729 0.894236 0.896473 0.881802 0.929363 0.800919 1.12198 0.640707 0.774476 0.888647 0.707532 0.87995 0.724341 0.662622 0.550465 0.417643 0.440889 0.453537 0.511044 0.38703 0.397323 0.417162 0.349597 0.390123 0.356276 0.484347 0.133614 0.26487 0.33668 0.383627 0.395308 0.492199 0.426766 0.702338 0.594098 0.688957 0.735634 0.806402 0.70843 0.822166 0.771284 0.90326 0.895093 0.893926 0.893829 0.893844 0.893895 0.893939 0.893958 0.893958 0.893944 0.893921 0.893896 0.893872 0.893851 0.893837 0.893837 0.893837 0.893851 0.893872 0.893896 0.893921 0.893944 0.893958 0.893958 0.893939 0.893895 0.893844 0.893829 0.893926 0.895093 0.90326 0.771284 0.822166 0.70843 0.806402 0.735634 0.688957 0.594098 0.702338 0.426766 0.492199 0.395308 0.383627 0.33668 0.26487 0.133614 0.484347 0.283811 0.379655 0.5951 0.367862 0.433412 0.412773 0.370055 0.789212 0.798435 0.824622 0.722446 0.88352 0.742592 0.912788 0.746752 0.596276 0.596276 0.746752 0.912788 0.742592 0.88352 0.722446 0.824622 0.798435 0.789212 0.370055 0.412773 0.433412 0.367862 0.5951 0.379655 0.283811 0.222029 0.322999 0.389288 0.271239 0.341925 0.38362 0.449382 0.257444 0.827062 0.788888 0.662403 0.656084 0.825522 0.894812 0.84722 0.885499 0.869065 0.905325 0.826383 0.710324 0.879675 0.777 0.951502 0.892172 0.899357 0.897736 0.897212 0.896522 0.895939 0.895496 0.895126 0.894798 0.894518 0.894285 0.894098 0.893959 0.893886 0.893837 0.893886 0.893959 0.894098 0.894285 0.894518 0.894798 0.895126 0.895496 0.895939 0.896522 0.897212 0.897736 0.899357 0.892172 0.951502 0.777 0.879675 0.710324 0.826383 0.905325 0.869065 0.885499 0.84722 0.894812 0.825522 0.656084 0.662403 0.788888 0.827062 0.257444 0.449382 0.38362 0.341925 0.271239 0.389288 0.322999 0.222029 0.427965 0.318099 0.662373 0.386099 0.522278 0.28938 0.874723 0.790385 0.648852 0.656527 0.649695 0.808622 0.808622 0.649695 0.656527 0.648852 0.790385 0.874723 0.28938 0.522278 0.386099 0.662373 0.318099 0.427965 0.495626 0.621994 0.842825 0.788962 0.682806 0.699491 0.689759 0.621202 0.818638 0.89237 0.864326 0.845935 0.846398 0.825529 0.813212 0.711648 0.951279 0.852166 0.899072 0.897435 0.896289 0.895671 0.895228 0.894865 0.894598 0.894375 0.894181 0.894042 0.893954 0.893899 0.893865 0.893846 0.893836 0.893835 0.893836 0.893846 0.893865 0.893899 0.893954 0.894042 0.894181 0.894375 0.894598 0.894865 0.895228 0.895671 0.896289 0.897435 0.899072 0.852166 0.951279 0.711648 0.813212 0.825529 0.846398 0.845935 0.864326 0.89237 0.818638 0.621202 0.689759 0.699491 0.682806 0.788962 0.842825 0.621994 0.495626 0.456809 0.940604 0.309351 0.542704 0.898494 0.58997 0.729733 0.814814 0.809624 0.780992 0.753528 0.762954 0.739442 0.670386 0.925154 0.890861 0.894192 0.893945 0.894041 0.894081 0.894098 0.894111 0.894107 0.894084 0.894051 0.894015 0.893975 0.893933 0.893895 0.893864 0.893845 0.893835 0.893845 0.893864 0.893895 0.893933 0.893975 0.894015 0.894051 0.894084 0.894107 0.894111 0.894098 0.894081 0.894041 0.893945 0.894192 0.890861 0.925154 0.670386 0.739442 0.762954 0.753528 0.780992 0.809624 0.814814 0.729733 0.58997 0.898494 0.542704 0.309351 0.940604 0.456809 0.50298 0.69257 0.580817 0.500836 0.634364 0.656598 0.786414 0.676555 0.738916 0.730884 0.730884 0.738916 0.676555 0.786414 0.656598 0.634364 0.500836 0.580817 0.69257 0.50298 0.761432 0.837064 0.512599 0.838063 0.553589 0.471326 0.582468 0.677184 0.658071 0.711224 0.710852 0.742064 0.717516 0.809686 0.804227 0.762983 0.883965 0.783404 0.914105 0.731422 0.893832 0.893832 0.893832 0.893832 0.893832 0.893832 0.893832 0.893832 0.893832 0.893832 0.893832 0.893832 0.893832 0.893832 0.893832 0.893832 0.893832 0.893832 0.893832 0.893832 0.893832 0.893832 0.893832 0.893832 0.893832 0.893832 0.893832 0.893832 0.893832 0.893832 0.893832 0.893832 0.893832 0.893832 0.893832 0.731422 0.914105 0.783404 0.883965 0.762983 0.804227 0.809686 0.717516 0.742064 0.710852 0.711224 0.658071 0.677184 0.582468 0.471326 0.553589 0.838063 0.512599 0.837064 0.761432 0.87782 0.762291 0.609423 0.540689 0.47228 0.517708 0.735338 0.660361 0.821642 0.777896 0.810182 0.878702 0.820117 0.968619 0.848865 0.950977 0.801171 0.904141 0.896924 0.896854 0.896328 0.895915 0.895598 0.895326 0.895075 0.894842 0.89463 0.894439 0.894273 0.894133 0.894021 0.893937 0.893879 0.893844 0.893832 0.893844 0.893879 0.893937 0.894021 0.894133 0.894273 0.894439 0.89463 0.894842 0.895075 0.895326 0.895598 0.895915 0.896328 0.896854 0.896924 0.904141 0.801171 0.950977 0.848865 0.968619 0.820117 0.878702 0.810182 0.777896 0.821642 0.660361 0.735338 0.517708 0.47228 0.540689 0.609423 0.762291 0.87782 0.622941 0.614883 0.725036 0.725036 0.614883 0.622941 0.919464 0.805966 0.861219 0.78452 0.737675 0.740499 0.789771 0.577216 0.718287 0.729538 0.746135 0.812439 0.855919 0.871713 0.902449 0.86456 0.89988 0.875841 0.89566 0.830962 0.893832 0.893832 0.893832 0.893832 0.893832 0.893832 0.893832 0.893832 0.893832 0.893832 0.893832 0.893832 0.893832 0.893832 0.893832 0.893832 0.893832 0.893832 0.893832 0.893832 0.893832 0.893832 0.893832 0.893832 0.893832 0.893832 0.893832 0.893832 0.893832 0.893832 0.893832 0.893832 0.893832 0.893832 0.893832 0.830962 0.89566 0.875841 0.89988 0.86456 0.902449 0.871713 0.855919 0.812439 0.746135 0.729538 0.718287 0.577216 0.789771 0.740499 0.737675 0.78452 0.861219 0.805966 0.919464 0.907308 0.880373 0.9135 0.870145 0.845505 0.873786 0.919829 0.795705 0.824934 0.800321 0.78145 0.842892 0.889032 0.897025 0.924875 0.88121 0.912731 0.881003 0.900578 0.86584 0.894657 0.894434 0.894282 0.894158 0.894062 0.893993 0.893945 0.893912 0.893888 0.893871 0.893859 0.89385 0.893843 0.893839 0.893836 0.893834 0.893833 0.893832 0.893833 0.893834 0.893836 0.893839 0.893843 0.89385 0.893859 0.893871 0.893888 0.893912 0.893945 0.893993 0.894062 0.894158 0.894282 0.894434 0.894657 0.86584 0.900578 0.881003 0.912731 0.88121 0.924875 0.897025 0.889032 0.842892 0.78145 0.800321 0.824934 0.795705 0.919829 0.873786 0.845505 0.870145 0.9135 0.880373 0.907308 0.912704 0.887536 0.919173 0.883616 0.872452 0.891079 0.937961 0.858042 0.863822 0.850182 0.857456 0.855196 0.895541 0.897275 0.894886 0.882675 0.894423 0.878175 0.893987 0.892382 0.893832 0.893832 0.893832 0.893832 0.893832 0.893832 0.893832 0.893832 0.893832 0.893832 0.893832 0.893832 0.893832 0.893832 0.893832 0.893832 0.893832 0.893832 0.893832 0.893832 0.893832 0.893832 0.893832 0.893832 0.893832 0.893832 0.893832 0.893832 0.893832 0.893832 0.893832 0.893832 0.893832 0.893832 0.893832 0.892382 0.893987 0.878175 0.894423 0.882675 0.894886 0.897275 0.895541 0.855196 0.857456 0.850182 0.863822 0.858042 0.937961 0.891079 0.872452 0.883616 0.919173 0.887536 0.912704 0.910516 0.888207 0.912398 0.888346 0.879199 0.891895 0.925588 0.877841 0.864199 0.854132 0.849965 0.860294 0.896323 0.89526 0.895293 0.882769 0.894613 0.876296 0.894044 0.893838 0.893839 0.893837 0.893835 0.893834 0.893833 0.893833 0.893833 0.893833 0.893832 0.893832 0.893832 0.893832 0.893832 0.893832 0.893832 0.893832 0.893832 0.893832 0.893832 0.893832 0.893832 0.893832 0.893832 0.893832 0.893832 0.893832 0.893832 0.893833 0.893833 0.893833 0.893833 0.893834 0.893835 0.893837 0.893839 0.893838 0.894044 0.876296 0.894613 0.882769 0.895293 0.89526 0.896323 0.860294 0.849965 0.854132 0.864199 0.877841 0.925588 0.891895 0.879199 0.888346 0.912398 0.888207 0.910516 0.907046 0.888335 0.906455 0.890298 0.888772 0.890204 0.913779 0.888827 0.86271 0.849975 0.84856 0.871424 0.893868 0.893399 0.893832 0.882945 0.893835 0.875741 0.893832 0.893832 0.893832 0.893832 0.893832 0.893832 0.893832 0.893832 0.893832 0.893832 0.893832 0.893832 0.893832 0.893832 0.893832 0.893832 0.893832 0.893832 0.893832 0.893832 0.893832 0.893832 0.893832 0.893832 0.893832 0.893832 0.893832 0.893832 0.893832 0.893832 0.893832 0.893832 0.893832 0.893832 0.893832 0.893832 0.893832 0.893832 0.893832 0.875741 0.893835 0.882945 0.893832 0.893399 0.893868 0.871424 0.84856 0.849975 0.86271 0.888827 0.913779 0.890204 0.888772 0.890298 0.906455 0.888335 0.907046 0.9038 0.88639 0.902039 0.89218 0.89566 0.889467 0.904503 0.89565 0.861873 0.847083 0.848534 0.881882 0.89389 0.892136 0.893832 0.883291 0.893832 0.876293 0.893832 0.893832 0.893832 0.893832 0.893832 0.893832 0.893832 0.893832 0.893832 0.893832 0.893832 0.893832 0.893832 0.893832 0.893832 0.893832 0.893832 0.893832 0.893832 0.893832 0.893832 0.893832 0.893832 0.893832 0.893832 0.893832 0.893832 0.893832 0.893832 0.893832 0.893832 0.893832 0.893832 0.893832 0.893832 0.893832 0.893832 0.893832 0.893832 0.876293 0.893832 0.883291 0.893832 0.892136 0.89389 0.881882 0.848534 0.847083 0.861873 0.89565 0.904503 0.889467 0.89566 0.89218 0.902039 0.88639 0.9038 0.901165 0.884043 0.899526 0.895099 0.897584 0.89054 0.896825 0.899595 0.862207 0.847803 0.850978 0.886179 0.893833 0.891249 0.893832 0.883713 0.893832 0.877574 0.893832 0.893832 0.893832 0.893832 0.893832 0.893832 0.893832 0.893832 0.893832 0.893832 0.893832 0.893832 0.893832 0.893832 0.893832 0.893832 0.893832 0.893832 0.893832 0.893832 0.893832 0.893832 0.893832 0.893832 0.893832 0.893832 0.893832 0.893832 0.893832 0.893832 0.893832 0.893832 0.893832 0.893832 0.893832 0.893832 0.893832 0.893832 0.893832 0.877574 0.893832 0.883713 0.893832 0.891249 0.893833 0.886179 0.850978 0.847803 0.862207 0.899595 0.896825 0.89054 0.897584 0.895099 0.899526 0.884043 0.901165 0.896739 0.897262 0.862793 0.851356 0.855496 0.886595 0.893833 0.890537 0.893832 0.884255 0.893832 0.879262 0.893832 0.893832 0.893832 0.893832 0.893832 0.893832 0.893832 0.893832 0.893832 0.893832 0.893832 0.893832 0.893832 0.893832 0.893832 0.893832 0.893832 0.893832 0.893832 0.893832 0.893832 0.893832 0.893832 0.893832 0.893832 0.893832 0.893832 0.893832 0.893832 0.893832 0.893832 0.893832 0.893832 0.893832 0.893832 0.893832 0.893832 0.893832 0.893832 0.879262 0.893832 0.884255 0.893832 0.890537 0.893833 0.886595 0.855496 0.851356 0.862793 0.897262 0.896739 0.898992 0.882309 0.898209 0.891365 0.891305 0.900384 0.900384 0.891305 0.891365 0.898209 0.882309 0.898992 0.897206 0.881267 0.897162 0.89702 0.896459 0.891276 0.888062 0.898698 0.863382 0.856199 0.861078 0.886194 0.893833 0.89 0.893832 0.884898 0.893832 0.881122 0.893832 0.893832 0.893832 0.893832 0.893832 0.893832 0.893832 0.893832 0.893832 0.893832 0.893832 0.893832 0.893832 0.893832 0.893832 0.893832 0.893832 0.893832 0.893832 0.893832 0.893832 0.893832 0.893832 0.893832 0.893832 0.893832 0.893832 0.893832 0.893832 0.893832 0.893832 0.893832 0.893832 0.893832 0.893832 0.893832 0.893832 0.893832 0.893832 0.881122 0.893832 0.884898 0.893832 0.89 0.893833 0.886194 0.861078 0.856199 0.863382 0.898698 0.888062 0.891276 0.896459 0.89702 0.897162 0.881267 0.897206 0.893833 0.893832 0.893832 0.882993 0.893832 0.893832 0.893832 0.893832 0.893832 0.893832 0.893832 0.893832 0.893832 0.893832 0.893832 0.893832 0.893832 0.893832 0.893832 0.893832 0.893832 0.893832 0.893832 0.893832 0.893832 0.893832 0.893832 0.893832 0.893832 0.893832 0.893832 0.893832 0.893832 0.893832 0.893832 0.893832 0.893832 0.893832 0.893832 0.893832 0.893832 0.893832 0.893832 0.882993 0.893832 0.893832 0.893833 0.895787 0.880868 0.896017 0.896757 0.895685 0.891006 0.886309 0.895715 0.864407 0.861448 0.866766 0.886156 0.889646 0.88556 0.88556 0.889646 0.886156 0.866766 0.861448 0.864407 0.895715 0.886309 0.891006 0.895685 0.896757 0.896017 0.880868 0.895787 0.89467 0.881052 0.894825 0.89636 0.895033 0.891001 0.885192 0.89241 0.866066 0.866623 0.871988 0.886593 0.893833 0.889456 0.893832 0.88618 0.893832 0.884772 0.893832 0.893832 0.893832 0.893832 0.893832 0.893832 0.893832 0.893832 0.893832 0.893832 0.893832 0.893832 0.893832 0.893832 0.893832 0.893832 0.893832 0.893832 0.893832 0.893832 0.893832 0.893832 0.893832 0.893832 0.893832 0.893832 0.893832 0.893832 0.893832 0.893832 0.893832 0.893832 0.893832 0.893832 0.893832 0.893832 0.893832 0.893832 0.893832 0.884772 0.893832 0.88618 0.893832 0.889456 0.893833 0.886593 0.871988 0.866623 0.866066 0.89241 0.885192 0.891001 0.895033 0.89636 0.894825 0.881052 0.89467 0.893761 0.881684 0.893698 0.895942 0.894502 0.891177 0.884262 0.889409 0.868245 0.871388 0.876511 0.887323 0.893833 0.88939 0.893832 0.886748 0.893832 0.886398 0.893832 0.893832 0.893832 0.893832 0.893832 0.893832 0.893832 0.893832 0.893832 0.893832 0.893832 0.893832 0.893832 0.893832 0.893832 0.893832 0.893832 0.893832 0.893832 0.893832 0.893832 0.893832 0.893832 0.893832 0.893832 0.893832 0.893832 0.893832 0.893832 0.893832 0.893832 0.893832 0.893832 0.893832 0.893832 0.893832 0.893832 0.893832 0.893832 0.886398 0.893832 0.886748 0.893832 0.88939 0.893833 0.887323 0.876511 0.871388 0.868245 0.889409 0.884262 0.891177 0.894502 0.895942 0.893698 0.881684 0.893761 0.892995 0.882597 0.892682 0.895525 0.89408 0.891344 0.883405 0.887013 0.870743 0.875566 0.880261 0.888143 0.893832 0.889407 0.893832 0.88728 0.893832 0.88784 0.893832 0.893832 0.893832 0.893832 0.893832 0.893832 0.893832 0.893832 0.893832 0.893832 0.893832 0.893832 0.893832 0.893832 0.893832 0.893832 0.893832 0.893832 0.893832 0.893832 0.893832 0.893832 0.893832 0.893832 0.893832 0.893832 0.893832 0.893832 0.893832 0.893832 0.893832 0.893832 0.893832 0.893832 0.893832 0.893832 0.893832 0.893832 0.893832 0.88784 0.893832 0.88728 0.893832 0.889407 0.893832 0.888143 0.880261 0.875566 0.870743 0.887013 0.883405 0.891344 0.89408 0.895525 0.892682 0.882597 0.892995 0.892345 0.883648 0.891786 0.895117 0.893755 0.891408 0.882654 0.885291 0.873383 0.879092 0.883261 0.888914 0.893832 0.889481 0.893832 0.887796 0.893832 0.889088 0.893832 0.893832 0.893832 0.893832 0.893832 0.893832 0.893832 0.893832 0.893832 0.893832 0.893832 0.893832 0.893832 0.893832 0.893832 0.893832 0.893832 0.893832 0.893832 0.893832 0.893832 0.893832 0.893832 0.893832 0.893832 0.893832 0.893832 0.893832 0.893832 0.893832 0.893832 0.893832 0.893832 0.893832 0.893832 0.893832 0.893832 0.893832 0.893832 0.889088 0.893832 0.887796 0.893832 0.889481 0.893832 0.888914 0.883261 0.879092 0.873383 0.885291 0.882654 0.891408 0.893755 0.895117 0.891786 0.883648 0.892345 0.891802 0.884733 0.89101 0.894725 0.893511 0.891356 0.882067 0.884191 0.876025 0.881967 0.885601 0.889567 0.893832 0.889595 0.893832 0.888307 0.893832 0.890143 0.893832 0.893832 0.893832 0.893832 0.893832 0.893832 0.893832 0.893832 0.893832 0.893832 0.893832 0.893832 0.893832 0.893832 0.893832 0.893832 0.893832 0.893832 0.893832 0.893832 0.893832 0.893832 0.893832 0.893832 0.893832 0.893832 0.893832 0.893832 0.893832 0.893832 0.893832 0.893832 0.893832 0.893832 0.893832 0.893832 0.893832 0.893832 0.893832 0.890143 0.893832 0.888307 0.893832 0.889595 0.893832 0.889567 0.885601 0.881967 0.876025 0.884191 0.882067 0.891356 0.893511 0.894725 0.89101 0.884733 0.891802 0.891359 0.885789 0.890357 0.894354 0.893327 0.891207 0.88169 0.883618 0.878558 0.884239 0.887398 0.890088 0.893832 0.88974 0.893832 0.888817 0.893832 0.891017 0.893832 0.893832 0.893832 0.893832 0.893832 0.893832 0.893832 0.893832 0.893832 0.893832 0.893832 0.893832 0.893832 0.893832 0.893832 0.893832 0.893832 0.893832 0.893832 0.893832 0.893832 0.893832 0.893832 0.893832 0.893832 0.893832 0.893832 0.893832 0.893832 0.893832 0.893832 0.893832 0.893832 0.893832 0.893832 0.893832 0.893832 0.893832 0.893832 0.891017 0.893832 0.888817 0.893832 0.88974 0.893832 0.890088 0.887398 0.884239 0.878558 0.883618 0.88169 0.891207 0.893327 0.894354 0.890357 0.885789 0.891359 0.89101 0.886772 0.889829 0.894007 0.893186 0.890989 0.881548 0.88347 0.880894 0.885991 0.888771 0.890487 0.893832 0.889911 0.893832 0.889324 0.893832 0.891725 0.893832 0.893832 0.893832 0.893832 0.893832 0.893832 0.893832 0.893832 0.893832 0.893832 0.893832 0.893832 0.893832 0.893832 0.893832 0.893832 0.893832 0.893832 0.893832 0.893832 0.893832 0.893832 0.893832 0.893832 0.893832 0.893832 0.893832 0.893832 0.893832 0.893832 0.893832 0.893832 0.893832 0.893832 0.893832 0.893832 0.893832 0.893832 0.893832 0.891725 0.893832 0.889324 0.893832 0.889911 0.893832 0.890487 0.888771 0.885991 0.880894 0.88347 0.881548 0.890989 0.893186 0.894007 0.889829 0.886772 0.89101 0.890744 0.887659 0.889428 0.893688 0.893073 0.890732 0.881642 0.883647 0.882983 0.887313 0.889836 0.890785 0.893832 0.890103 0.893832 0.889821 0.893832 0.892287 0.893832 0.893832 0.893832 0.893832 0.893832 0.893832 0.893832 0.893832 0.893832 0.893832 0.893832 0.893832 0.893832 0.893832 0.893832 0.893832 0.893832 0.893832 0.893832 0.893832 0.893832 0.893832 0.893832 0.893832 0.893832 0.893832 0.893832 0.893832 0.893832 0.893832 0.893832 0.893832 0.893832 0.893832 0.893832 0.893832 0.893832 0.893832 0.893832 0.892287 0.893832 0.889821 0.893832 0.890103 0.893832 0.890785 0.889836 0.887313 0.882983 0.883647 0.881642 0.890732 0.893073 0.893688 0.889428 0.887659 0.890744 0.89055 0.888436 0.889154 0.893399 0.892978 0.890465 0.881954 0.884059 0.884807 0.888292 0.890681 0.891009 0.893832 0.890313 0.893832 0.890303 0.893832 0.892722 0.893832 0.893832 0.893832 0.893832 0.893832 0.893832 0.893832 0.893832 0.893832 0.893832 0.893832 0.893832 0.893832 0.893832 0.893832 0.893832 0.893832 0.893832 0.893832 0.893832 0.893832 0.893832 0.893832 0.893832 0.893832 0.893832 0.893832 0.893832 0.893832 0.893832 0.893832 0.893832 0.893832 0.893832 0.893832 0.893832 0.893832 0.893832 0.893832 0.892722 0.893832 0.890303 0.893832 0.890313 0.893832 0.891009 0.890681 0.888292 0.884807 0.884059 0.881954 0.890465 0.892978 0.893399 0.889154 0.888436 0.89055 0.890419 0.889097 0.888997 0.89314 0.892894 0.890213 0.882452 0.884626 0.886372 0.88901 0.891367 0.891182 0.893832 0.890538 0.893832 0.890761 0.893832 0.893052 0.893832 0.893832 0.893832 0.893832 0.893832 0.893832 0.893832 0.893832 0.893832 0.893832 0.893832 0.893832 0.893832 0.893832 0.893832 0.893832 0.893832 0.893832 0.893832 0.893832 0.893832 0.893832 0.893832 0.893832 0.893832 0.893832 0.893832 0.893832 0.893832 0.893832 0.893832 0.893832 0.893832 0.893832 0.893832 0.893832 0.893832 0.893832 0.893832 0.893052 0.893832 0.890761 0.893832 0.890538 0.893832 0.891182 0.891367 0.88901 0.886372 0.884626 0.882452 0.890213 0.892894 0.89314 0.888997 0.889097 0.890419 0.890343 0.889645 0.888944 0.892913 0.89282 0.889997 0.883099 0.885286 0.887696 0.889537 0.891925 0.891322 0.893832 0.890774 0.893832 0.89119 0.893832 0.893296 0.893832 0.893832 0.893832 0.893832 0.893832 0.893832 0.893832 0.893832 0.893832 0.893832 0.893832 0.893832 0.893832 0.893832 0.893832 0.893832 0.893832 0.893832 0.893832 0.893832 0.893832 0.893832 0.893832 0.893832 0.893832 0.893832 0.893832 0.893832 0.893832 0.893832 0.893832 0.893832 0.893832 0.893832 0.893832 0.893832 0.893832 0.893832 0.893832 0.893296 0.893832 0.89119 0.893832 0.890774 0.893832 0.891322 0.891925 0.889537 0.887696 0.885286 0.883099 0.889997 0.89282 0.892913 0.888944 0.889645 0.890343 0.890311 0.890089 0.888978 0.892717 0.892755 0.889829 0.883857 0.885991 0.888804 0.889933 0.892376 0.891446 0.893832 0.891016 0.893832 0.891584 0.893832 0.893472 0.893832 0.893832 0.893832 0.893832 0.893832 0.893832 0.893832 0.893832 0.893832 0.893832 0.893832 0.893832 0.893832 0.893832 0.893832 0.893832 0.893832 0.893832 0.893832 0.893832 0.893832 0.893832 0.893832 0.893832 0.893832 0.893832 0.893832 0.893832 0.893832 0.893832 0.893832 0.893832 0.893832 0.893832 0.893832 0.893832 0.893832 0.893832 0.893832 0.893472 0.893832 0.891584 0.893832 0.891016 0.893832 0.891446 0.892376 0.889933 0.888804 0.885991 0.883857 0.889829 0.892755 0.892717 0.888978 0.890089 0.890311 0.890317 0.890439 0.889083 0.89255 0.8927 0.889716 0.884683 0.886702 0.889724 0.890242 0.892734 0.891563 0.893832 0.89126 0.893832 0.89194 0.893832 0.893595 0.893832 0.893832 0.893832 0.893832 0.893832 0.893832 0.893832 0.893832 0.893832 0.893832 0.893832 0.893832 0.893832 0.893832 0.893832 0.893832 0.893832 0.893832 0.893832 0.893832 0.893832 0.893832 0.893832 0.893832 0.893832 0.893832 0.893832 0.893832 0.893832 0.893832 0.893832 0.893832 0.893832 0.893832 0.893832 0.893832 0.893832 0.893832 0.893832 0.893595 0.893832 0.89194 0.893832 0.89126 0.893832 0.891563 0.892734 0.890242 0.889724 0.886702 0.884683 0.889716 0.8927 0.89255 0.889083 0.890439 0.890317 0.890353 0.890711 0.889241 0.892414 0.892656 0.88966 0.885541 0.887393 0.890483 0.890496 0.893013 0.891679 0.893832 0.891501 0.893832 0.892256 0.893832 0.89368 0.893832 0.893832 0.893832 0.893832 0.893832 0.893832 0.893832 0.893832 0.893832 0.893832 0.893832 0.893832 0.893832 0.893832 0.893832 0.893832 0.893832 0.893832 0.893832 0.893832 0.893832 0.893832 0.893832 0.893832 0.893832 0.893832 0.893832 0.893832 0.893832 0.893832 0.893832 0.893832 0.893832 0.893832 0.893832 0.893832 0.893832 0.893832 0.893832 0.89368 0.893832 0.892256 0.893832 0.891501 0.893832 0.891679 0.893013 0.890496 0.890483 0.887393 0.885541 0.88966 0.892656 0.892414 0.889241 0.890711 0.890353 0.890413 0.890919 0.889437 0.892305 0.892622 0.889659 0.886397 0.888045 0.891109 0.890712 0.893226 0.891798 0.893832 0.891737 0.893832 0.892532 0.893832 0.893737 0.893832 0.893832 0.893832 0.893832 0.893832 0.893832 0.893832 0.893832 0.893832 0.893832 0.893832 0.893832 0.893832 0.893832 0.893832 0.893832 0.893832 0.893832 0.893832 0.893832 0.893832 0.893832 0.893832 0.893832 0.893832 0.893832 0.893832 0.893832 0.893832 0.893832 0.893832 0.893832 0.893832 0.893832 0.893832 0.893832 0.893832 0.893832 0.893832 0.893737 0.893832 0.892532 0.893832 0.891737 0.893832 0.891798 0.893226 0.890712 0.891109 0.888045 0.886397 0.889659 0.892622 0.892305 0.889437 0.890919 0.890413 0.89049 0.891076 0.889658 0.892222 0.8926 0.889707 0.887226 0.888647 0.891623 0.890904 0.893386 0.891922 0.893832 0.891963 0.893832 0.892771 0.893832 0.893774 0.893832 0.893832 0.893832 0.893832 0.893832 0.893832 0.893832 0.893832 0.893832 0.893832 0.893832 0.893832 0.893832 0.893832 0.893832 0.893832 0.893832 0.893832 0.893832 0.893832 0.893832 0.893832 0.893832 0.893832 0.893832 0.893832 0.893832 0.893832 0.893832 0.893832 0.893832 0.893832 0.893832 0.893832 0.893832 0.893832 0.893832 0.893832 0.893832 0.893774 0.893832 0.892771 0.893832 0.891963 0.893832 0.891922 0.893386 0.890904 0.891623 0.888647 0.887226 0.889707 0.8926 0.892222 0.889658 0.891076 0.89049 0.890581 0.891196 0.889893 0.892163 0.89259 0.889797 0.88801 0.889192 0.892046 0.89108 0.893505 0.892049 0.893832 0.892178 0.893832 0.892974 0.893832 0.893797 0.893832 0.893832 0.893832 0.893832 0.893832 0.893832 0.893832 0.893832 0.893832 0.893832 0.893832 0.893832 0.893832 0.893832 0.893832 0.893832 0.893832 0.893832 0.893832 0.893832 0.893832 0.893832 0.893832 0.893832 0.893832 0.893832 0.893832 0.893832 0.893832 0.893832 0.893832 0.893832 0.893832 0.893832 0.893832 0.893832 0.893832 0.893832 0.893832 0.893797 0.893832 0.892974 0.893832 0.892178 0.893832 0.892049 0.893505 0.89108 0.892046 0.889192 0.88801 0.889797 0.89259 0.892163 0.889893 0.891196 0.890581 0.890681 0.89129 0.890134 0.892125 0.89259 0.88992 0.888738 0.889681 0.892392 0.891246 0.893592 0.892179 0.893832 0.892379 0.893832 0.893144 0.893832 0.893812 0.893832 0.893832 0.893832 0.893832 0.893832 0.893832 0.893832 0.893832 0.893832 0.893832 0.893832 0.893832 0.893832 0.893832 0.893832 0.893832 0.893832 0.893832 0.893832 0.893832 0.893832 0.893832 0.893832 0.893832 0.893832 0.893832 0.893832 0.893832 0.893832 0.893832 0.893832 0.893832 0.893832 0.893832 0.893832 0.893832 0.893832 0.893832 0.893832 0.893812 0.893832 0.893144 0.893832 0.892379 0.893832 0.892179 0.893592 0.891246 0.892392 0.889681 0.888738 0.88992 0.89259 0.892125 0.890134 0.89129 0.890681 0.890787 0.891365 0.890373 0.892107 0.892601 0.890071 0.889403 0.890114 0.892675 0.891404 0.893655 0.89231 0.893832 0.892565 0.893832 0.893285 0.893832 0.89382 0.893832 0.893832 0.893832 0.893832 0.893832 0.893832 0.893832 0.893832 0.893832 0.893832 0.893832 0.893832 0.893832 0.893832 0.893832 0.893832 0.893832 0.893832 0.893832 0.893832 0.893832 0.893832 0.893832 0.893832 0.893832 0.893832 0.893832 0.893832 0.893832 0.893832 0.893832 0.893832 0.893832 0.893832 0.893832 0.893832 0.893832 0.893832 0.893832 0.89382 0.893832 0.893285 0.893832 0.892565 0.893832 0.89231 0.893655 0.891404 0.892675 0.890114 0.889403 0.890071 0.892601 0.892107 0.890373 0.891365 0.890787 0.890896 0.891429 0.890605 0.892105 0.892621 0.89024 0.890003 0.890496 0.892905 0.891558 0.8937 0.89244 0.893832 0.892736 0.893832 0.893401 0.893832 0.893826 0.893832 0.893832 0.893832 0.893832 0.893832 0.893832 0.893832 0.893832 0.893832 0.893832 0.893832 0.893832 0.893832 0.893832 0.893832 0.893832 0.893832 0.893832 0.893832 0.893832 0.893832 0.893832 0.893832 0.893832 0.893832 0.893832 0.893832 0.893832 0.893832 0.893832 0.893832 0.893832 0.893832 0.893832 0.893832 0.893832 0.893832 0.893832 0.893832 0.893826 0.893832 0.893401 0.893832 0.892736 0.893832 0.89244 0.8937 0.891558 0.892905 0.890496 0.890003 0.89024 0.892621 0.892105 0.890605 0.891429 0.890896 0.891005 0.891487 0.890827 0.892117 0.89265 0.890423 0.890537 0.890832 0.893091 0.891709 0.893732 0.892567 0.893832 0.89289 0.893832 0.893496 0.893832 0.893829 0.893832 0.893832 0.893832 0.893832 0.893832 0.893832 0.893832 0.893832 0.893832 0.893832 0.893832 0.893832 0.893832 0.893832 0.893832 0.893832 0.893832 0.893832 0.893832 0.893832 0.893832 0.893832 0.893832 0.893832 0.893832 0.893832 0.893832 0.893832 0.893832 0.893832 0.893832 0.893832 0.893832 0.893832 0.893832 0.893832 0.893832 0.893832 0.893832 0.893829 0.893832 0.893496 0.893832 0.89289 0.893832 0.892567 0.893732 0.891709 0.893091 0.890832 0.890537 0.890423 0.89265 0.892117 0.890827 0.891487 0.891005 0.891113 0.891543 0.891035 0.892142 0.892685 0.890613 0.891008 0.891127 0.89324 0.891857 0.893756 0.89269 0.893832 0.893028 0.893832 0.893572 0.893832 0.89383 0.893832 0.893832 0.893832 0.893832 0.893832 0.893832 0.893832 0.893832 0.893832 0.893832 0.893832 0.893832 0.893832 0.893832 0.893832 0.893832 0.893832 0.893832 0.893832 0.893832 0.893832 0.893832 0.893832 0.893832 0.893832 0.893832 0.893832 0.893832 0.893832 0.893832 0.893832 0.893832 0.893832 0.893832 0.893832 0.893832 0.893832 0.893832 0.893832 0.89383 0.893832 0.893572 0.893832 0.893028 0.893832 0.89269 0.893756 0.891857 0.89324 0.891127 0.891008 0.890613 0.892685 0.892142 0.891035 0.891543 0.891113 0.891219 0.891597 0.89123 0.892175 0.892725 0.890806 0.891421 0.891386 0.89336 0.892001 0.893772 0.892808 0.893832 0.89315 0.893832 0.893632 0.893832 0.893831 0.893832 0.893832 0.893832 0.893832 0.893832 0.893832 0.893832 0.893832 0.893832 0.893832 0.893832 0.893832 0.893832 0.893832 0.893832 0.893832 0.893832 0.893832 0.893832 0.893832 0.893832 0.893832 0.893832 0.893832 0.893832 0.893832 0.893832 0.893832 0.893832 0.893832 0.893832 0.893832 0.893832 0.893832 0.893832 0.893832 0.893832 0.893832 0.893832 0.893831 0.893832 0.893632 0.893832 0.89315 0.893832 0.892808 0.893772 0.892001 0.89336 0.891386 0.891421 0.890806 0.892725 0.892175 0.89123 0.891597 0.891219 0.89132 0.891652 0.89141 0.892216 0.892769 0.890997 0.891779 0.891613 0.893455 0.892142 0.893784 0.892919 0.893832 0.893258 0.893832 0.89368 0.893832 0.893832 0.893832 0.893832 0.893832 0.893832 0.893832 0.893832 0.893832 0.893832 0.893832 0.893832 0.893832 0.893832 0.893832 0.893832 0.893832 0.893832 0.893832 0.893832 0.893832 0.893832 0.893832 0.893832 0.893832 0.893832 0.893832 0.893832 0.893832 0.893832 0.893832 0.893832 0.893832 0.893832 0.893832 0.893832 0.893832 0.893832 0.893832 0.893832 0.893832 0.893832 0.893832 0.89368 0.893832 0.893258 0.893832 0.892919 0.893784 0.892142 0.893455 0.891613 0.891779 0.890997 0.892769 0.892216 0.89141 0.891652 0.89132 0.891417 0.891708 0.891574 0.892262 0.892816 0.891184 0.892089 0.891814 0.893531 0.892278 0.893793 0.893022 0.893832 0.893352 0.893832 0.893718 0.893832 0.893832 0.893832 0.893832 0.893832 0.893832 0.893832 0.893832 0.893832 0.893832 0.893832 0.893832 0.893832 0.893832 0.893832 0.893832 0.893832 0.893832 0.893832 0.893832 0.893832 0.893832 0.893832 0.893832 0.893832 0.893832 0.893832 0.893832 0.893832 0.893832 0.893832 0.893832 0.893832 0.893832 0.893832 0.893832 0.893832 0.893832 0.893832 0.893832 0.893832 0.893832 0.893832 0.893718 0.893832 0.893352 0.893832 0.893022 0.893793 0.892278 0.893531 0.891814 0.892089 0.891184 0.892816 0.892262 0.891574 0.891708 0.891417 0.891507 0.891763 0.891723 0.892311 0.892865 0.891364 0.892355 0.891991 0.893591 0.892408 0.8938 0.893117 0.893832 0.893433 0.893832 0.893747 0.893832 0.893832 0.893832 0.893832 0.893832 0.893832 0.893832 0.893832 0.893832 0.893832 0.893832 0.893832 0.893832 0.893832 0.893832 0.893832 0.893832 0.893832 0.893832 0.893832 0.893832 0.893832 0.893832 0.893832 0.893832 0.893832 0.893832 0.893832 0.893832 0.893832 0.893832 0.893832 0.893832 0.893832 0.893832 0.893832 0.893832 0.893832 0.893832 0.893832 0.893832 0.893832 0.893832 0.893747 0.893832 0.893433 0.893832 0.893117 0.8938 0.892408 0.893591 0.891991 0.892355 0.891364 0.892865 0.892311 0.891723 0.891763 0.891507 0.891592 0.891819 0.891858 0.892362 0.892913 0.891534 0.892582 0.892147 0.893637 0.89253 0.893805 0.893204 0.893832 0.893502 0.893832 0.893769 0.893832 0.893832 0.893832 0.893832 0.893832 0.893832 0.893832 0.893832 0.893832 0.893832 0.893832 0.893832 0.893832 0.893832 0.893832 0.893832 0.893832 0.893832 0.893832 0.893832 0.893832 0.893832 0.893832 0.893832 0.893832 0.893832 0.893832 0.893832 0.893832 0.893832 0.893832 0.893832 0.893832 0.893832 0.893832 0.893832 0.893832 0.893832 0.893832 0.893832 0.893832 0.893832 0.893832 0.893769 0.893832 0.893502 0.893832 0.893204 0.893805 0.89253 0.893637 0.892147 0.892582 0.891534 0.892913 0.892362 0.891858 0.891819 0.891592 0.89167 0.891872 0.891978 0.892413 0.89296 0.891694 0.892775 0.892285 0.893674 0.892645 0.893809 0.893283 0.893832 0.893561 0.893832 0.893786 0.893832 0.893832 0.893832 0.893832 0.893832 0.893832 0.893832 0.893832 0.893832 0.893832 0.893832 0.893832 0.893832 0.893832 0.893832 0.893832 0.893832 0.893832 0.893832 0.893832 0.893832 0.893832 0.893832 0.893832 0.893832 0.893832 0.893832 0.893832 0.893832 0.893832 0.893832 0.893832 0.893832 0.893832 0.893832 0.893832 0.893832 0.893832 0.893832 0.893832 0.893832 0.893832 0.893832 0.893786 0.893832 0.893561 0.893832 0.893283 0.893809 0.892645 0.893674 0.892285 0.892775 0.891694 0.89296 0.892413 0.891978 0.891872 0.89167 0.891741 0.891924 0.892084 0.892462 0.893005 0.89184 0.892937 0.892407 0.893703 0.89275 0.893812 0.893352 0.893832 0.893611 0.893832 0.893798 0.893832 0.893832 0.893832 0.893832 0.893832 0.893832 0.893832 0.893832 0.893832 0.893832 0.893832 0.893832 0.893832 0.893832 0.893832 0.893832 0.893832 0.893832 0.893832 0.893832 0.893832 0.893832 0.893832 0.893832 0.893832 0.893832 0.893832 0.893832 0.893832 0.893832 0.893832 0.893832 0.893832 0.893832 0.893832 0.893832 0.893832 0.893832 0.893832 0.893832 0.893832 0.893832 0.893832 0.893798 0.893832 0.893611 0.893832 0.893352 0.893812 0.89275 0.893703 0.892407 0.892937 0.89184 0.893005 0.892462 0.892084 0.891924 0.891741 0.891804 0.891972 0.892178 0.892509 0.893047 0.891972 0.893073 0.892513 0.893726 0.892845 0.893814 0.893414 0.893832 0.893652 0.893832 0.893808 0.893832 0.893832 0.893832 0.893832 0.893832 0.893832 0.893832 0.893832 0.893832 0.893832 0.893832 0.893832 0.893832 0.893832 0.893832 0.893832 0.893832 0.893832 0.893832 0.893832 0.893832 0.893832 0.893832 0.893832 0.893832 0.893832 0.893832 0.893832 0.893832 0.893832 0.893832 0.893832 0.893832 0.893832 0.893832 0.893832 0.893832 0.893832 0.893832 0.893832 0.893832 0.893832 0.893832 0.893808 0.893832 0.893652 0.893832 0.893414 0.893814 0.892845 0.893726 0.892513 0.893073 0.891972 0.893047 0.892509 0.892178 0.891972 0.891804 0.89186 0.892017 0.892258 0.892552 0.893085 0.89209 0.893185 0.892604 0.893743 0.89293 0.893816 0.893467 0.893832 0.893686 0.893832 0.893815 0.893832 0.893832 0.893832 0.893832 0.893832 0.893832 0.893832 0.893832 0.893832 0.893832 0.893832 0.893832 0.893832 0.893832 0.893832 0.893832 0.893832 0.893832 0.893832 0.893832 0.893832 0.893832 0.893832 0.893832 0.893832 0.893832 0.893832 0.893832 0.893832 0.893832 0.893832 0.893832 0.893832 0.893832 0.893832 0.893832 0.893832 0.893832 0.893832 0.893832 0.893832 0.893832 0.893832 0.893815 0.893832 0.893686 0.893832 0.893467 0.893816 0.89293 0.893743 0.892604 0.893185 0.89209 0.893085 0.892552 0.892258 0.892017 0.89186 0.891908 0.892056 0.892326 0.89259 0.893119 0.892192 0.893276 0.892682 0.893757 0.893003 0.893817 0.893511 0.893832 0.893713 0.893832 0.89382 0.893832 0.893832 0.893832 0.893832 0.893832 0.893832 0.893832 0.893832 0.893832 0.893832 0.893832 0.893832 0.893832 0.893832 0.893832 0.893832 0.893832 0.893832 0.893832 0.893832 0.893832 0.893832 0.893832 0.893832 0.893832 0.893832 0.893832 0.893832 0.893832 0.893832 0.893832 0.893832 0.893832 0.893832 0.893832 0.893832 0.893832 0.893832 0.893832 0.893832 0.893832 0.893832 0.893832 0.89382 0.893832 0.893713 0.893832 0.893511 0.893817 0.893003 0.893757 0.892682 0.893276 0.892192 0.893119 0.89259 0.892326 0.892056 0.891908 0.891948 0.89209 0.892383 0.892623 0.893149 0.892277 0.893349 0.892747 0.893767 0.893065 0.893819 0.893548 0.893832 0.893734 0.893832 0.893823 0.893832 0.893832 0.893832 0.893832 0.893832 0.893832 0.893832 0.893832 0.893832 0.893832 0.893832 0.893832 0.893832 0.893832 0.893832 0.893832 0.893832 0.893832 0.893832 0.893832 0.893832 0.893832 0.893832 0.893832 0.893832 0.893832 0.893832 0.893832 0.893832 0.893832 0.893832 0.893832 0.893832 0.893832 0.893832 0.893832 0.893832 0.893832 0.893832 0.893832 0.893832 0.893832 0.893832 0.893823 0.893832 0.893734 0.893832 0.893548 0.893819 0.893065 0.893767 0.892747 0.893349 0.892277 0.893149 0.892623 0.892383 0.89209 0.891948 0.891981 0.892118 0.892428 0.89265 0.893172 0.892346 0.893405 0.892798 0.893775 0.893114 0.89382 0.893577 0.893832 0.893751 0.893832 0.893826 0.893832 0.893832 0.893832 0.893832 0.893832 0.893832 0.893832 0.893832 0.893832 0.893832 0.893832 0.893832 0.893832 0.893832 0.893832 0.893832 0.893832 0.893832 0.893832 0.893832 0.893832 0.893832 0.893832 0.893832 0.893832 0.893832 0.893832 0.893832 0.893832 0.893832 0.893832 0.893832 0.893832 0.893832 0.893832 0.893832 0.893832 0.893832 0.893832 0.893832 0.893832 0.893832 0.893832 0.893826 0.893832 0.893751 0.893832 0.893577 0.89382 0.893114 0.893775 0.892798 0.893405 0.892346 0.893172 0.89265 0.892428 0.892118 0.891981 0.892005 0.892139 0.892461 0.892671 0.89319 0.892398 0.893446 0.892837 0.89378 0.893152 0.89382 0.893599 0.893832 0.893763 0.893832 0.893828 0.893832 0.893832 0.893832 0.893832 0.893832 0.893832 0.893832 0.893832 0.893832 0.893832 0.893832 0.893832 0.893832 0.893832 0.893832 0.893832 0.893832 0.893832 0.893832 0.893832 0.893832 0.893832 0.893832 0.893832 0.893832 0.893832 0.893832 0.893832 0.893832 0.893832 0.893832 0.893832 0.893832 0.893832 0.893832 0.893832 0.893832 0.893832 0.893832 0.893832 0.893832 0.893832 0.893832 0.893828 0.893832 0.893763 0.893832 0.893599 0.89382 0.893152 0.89378 0.892837 0.893446 0.892398 0.89319 0.892671 0.892461 0.892139 0.892005 0.892021 0.892154 0.892483 0.892685 0.893203 0.892433 0.893473 0.892863 0.893784 0.893177 0.893821 0.893613 0.893832 0.89377 0.893832 0.893829 0.893832 0.893832 0.893832 0.893832 0.893832 0.893832 0.893832 0.893832 0.893832 0.893832 0.893832 0.893832 0.893832 0.893832 0.893832 0.893832 0.893832 0.893832 0.893832 0.893832 0.893832 0.893832 0.893832 0.893832 0.893832 0.893832 0.893832 0.893832 0.893832 0.893832 0.893832 0.893832 0.893832 0.893832 0.893832 0.893832 0.893832 0.893832 0.893832 0.893832 0.893832 0.893832 0.893832 0.893829 0.893832 0.89377 0.893832 0.893613 0.893821 0.893177 0.893784 0.892863 0.893473 0.892433 0.893203 0.892685 0.892483 0.892154 0.892021 0.892029 0.892161 0.892494 0.892692 0.893209 0.892451 0.893486 0.892876 0.893786 0.893189 0.893821 0.89362 0.893832 0.893774 0.893832 0.893829 0.893832 0.893832 0.893832 0.893832 0.893832 0.893832 0.893832 0.893832 0.893832 0.893832 0.893832 0.893832 0.893832 0.893832 0.893832 0.893832 0.893832 0.893832 0.893832 0.893832 0.893832 0.893832 0.893832 0.893832 0.893832 0.893832 0.893832 0.893832 0.893832 0.893832 0.893832 0.893832 0.893832 0.893832 0.893832 0.893832 0.893832 0.893832 0.893832 0.893832 0.893832 0.893832 0.893832 0.893829 0.893832 0.893774 0.893832 0.89362 0.893821 0.893189 0.893786 0.892876 0.893486 0.892451 0.893209 0.892692 0.892494 0.892161 0.892029 
SCALARS Axial_Stress float 1
LOOKUP_TABLE default
-1.13976e+12 -1.02137e+12 -156527000000.0 -127396000000.0 -250517000000.0 -250517000000.0 -127396000000.0 -156527000000.0 -1.02137e+12 -1.13976e+12 -1.3398e+12 -1.32906e+12 -2.40835e+12 -1.14331e+12 -267226000000.0 -337142000000.0 -207758000000.0 -205191000000.0 -164093000000.0 -154982000000.0 -147024000000.0 -141549000000.0 -137482000000.0 -134503000000.0 -133521000000.0 -134688000000.0 -137161000000.0 -140073000000.0 -142982000000.0 -145691000000.0 -148041000000.0 -149895000000.0 -151201000000.0 -151966000000.0 -152212000000.0 -151966000000.0 -151201000000.0 -149895000000.0 -148041000000.0 -145691000000.0 -142982000000.0 -140073000000.0 -137161000000.0 -134688000000.0 -133521000000.0 -134503000000.0 -137482000000.0 -141549000000.0 -147024000000.0 -154982000000.0 -164093000000.0 -205191000000.0 -207758000000.0 -337142000000.0 -267226000000.0 -1.14331e+12 -2.40835e+12 -1.32906e+12 -1.3398e+12 -1.30896e+12 -2.43948e+12 -1.20767e+12 -814390000000.0 -488206000000.0 -200937000000.0 -125487000000.0 -115267000000.0 -193889000000.0 -121343000000.0 -129948000000.0 -129706000000.0 -132568000000.0 -136198000000.0 -140067000000.0 -143519000000.0 -146746000000.0 -150235000000.0 -154064000000.0 -157900000000.0 -161352000000.0 -164203000000.0 -166401000000.0 -167955000000.0 -168892000000.0 -169191000000.0 -168892000000.0 -167955000000.0 -166401000000.0 -164203000000.0 -161352000000.0 -157900000000.0 -154064000000.0 -150235000000.0 -146746000000.0 -143519000000.0 -140067000000.0 -136198000000.0 -132568000000.0 -129706000000.0 -129948000000.0 -121343000000.0 -193889000000.0 -115267000000.0 -125487000000.0 -200937000000.0 -488206000000.0 -814390000000.0 -1.20767e+12 -2.43948e+12 -1.30896e+12 -1.29273e+12 -2.32798e+12 -2.37976e+12 -1.33377e+12 -409879000000.0 -409879000000.0 -1.33377e+12 -2.37976e+12 -2.32798e+12 -1.29273e+12 -1.29664e+12 -2.18638e+12 -2.21901e+12 -2.06893e+12 -2.20536e+12 -2.03193e+12 -1.16384e+12 -1.36351e+12 -1.56351e+12 -296929000000.0 -213919000000.0 -129997000000.0 -243822000000.0 -76413300000.0 -85110400000.0 -84306800000.0 -95370300000.0 -105663000000.0 -115017000000.0 -123563000000.0 -131184000000.0 -137915000000.0 -143869000000.0 -149080000000.0 -153518000000.0 -157131000000.0 -159907000000.0 -161875000000.0 -163086000000.0 -163475000000.0 -163086000000.0 -161875000000.0 -159907000000.0 -157131000000.0 -153518000000.0 -149080000000.0 -143869000000.0 -137915000000.0 -131184000000.0 -123563000000.0 -115017000000.0 -105663000000.0 -95370300000.0 -84306800000.0 -85110400000.0 -76413300000.0 -243822000000.0 -129997000000.0 -213919000000.0 -296929000000.0 -1.56351e+12 -1.36351e+12 -1.16384e+12 -2.03193e+12 -2.20536e+12 -2.06893e+12 -2.21901e+12 -2.18638e+12 -1.29664e+12 -1.30873e+12 -1.30202e+12 -2.21045e+12 -1.96301e+12 -1.82829e+12 -1.14564e+12 -963778000000.0 -1.01383e+12 -491638000000.0 -142587000000.0 -99385300000.0 -315537000000.0 -140753000000.0 -174332000000.0 -176274000000.0 -189121000000.0 -199530000000.0 -207851000000.0 -214342000000.0 -219437000000.0 -223506000000.0 -226711000000.0 -229185000000.0 -231109000000.0 -232594000000.0 -233681000000.0 -234381000000.0 -234763000000.0 -234862000000.0 -234763000000.0 -234381000000.0 -233681000000.0 -232594000000.0 -231109000000.0 -229185000000.0 -226711000000.0 -223506000000.0 -219437000000.0 -214342000000.0 -207851000000.0 -199530000000.0 -189121000000.0 -176274000000.0 -174332000000.0 -140753000000.0 -315537000000.0 -99385300000.0 -142587000000.0 -491638000000.0 -1.01383e+12 -963778000000.0 -1.14564e+12 -1.82829e+12 -1.96301e+12 -2.21045e+12 -1.30202e+12 -1.30873e+12 -1.34106e+12 -2.25064e+12 -1.96057e+12 -1.81179e+12 -1.35179e+12 -946656000000.0 -1.0335e+12 -443199000000.0 -443199000000.0 -1.0335e+12 -946656000000.0 -1.35179e+12 -1.81179e+12 -1.96057e+12 -2.25064e+12 -1.34106e+12 -1.30005e+12 -2.33576e+12 -2.15252e+12 -1.9834e+12 -1.51974e+12 -1.66187e+12 -1.35075e+12 -1.5061e+12 -1.05349e+12 -499358000000.0 -458083000000.0 -233580000000.0 -162274000000.0 -390047000000.0 -201410000000.0 -241572000000.0 -243695000000.0 -256845000000.0 -266027000000.0 -271746000000.0 -274499000000.0 -274963000000.0 -274030000000.0 -272348000000.0 -270304000000.0 -268251000000.0 -266409000000.0 -264880000000.0 -263727000000.0 -262997000000.0 -262741000000.0 -262997000000.0 -263727000000.0 -264880000000.0 -266409000000.0 -268251000000.0 -270304000000.0 -272348000000.0 -274030000000.0 -274963000000.0 -274499000000.0 -271746000000.0 -266027000000.0 -256845000000.0 -243695000000.0 -241572000000.0 -201410000000.0 -390047000000.0 -162274000000.0 -233580000000.0 -458083000000.0 -499358000000.0 -1.05349e+12 -1.5061e+12 -1.35075e+12 -1.66187e+12 -1.51974e+12 -1.9834e+12 -2.15252e+12 -2.33576e+12 -1.30005e+12 -1.22881e+12 -2.16623e+12 -2.31511e+12 -2.17682e+12 -1.95385e+12 -754899000000.0 -1.69982e+12 -1.75705e+12 -1.11131e+12 -1.23706e+12 -1.06259e+12 -980412000000.0 -559560000000.0 -356655000000.0 -258605000000.0 -409227000000.0 -217381000000.0 -252990000000.0 -253893000000.0 -265001000000.0 -271409000000.0 -274705000000.0 -275794000000.0 -275284000000.0 -273774000000.0 -271851000000.0 -269905000000.0 -268089000000.0 -266475000000.0 -265144000000.0 -264175000000.0 -263596000000.0 -263411000000.0 -263596000000.0 -264175000000.0 -265144000000.0 -266475000000.0 -268089000000.0 -269905000000.0 -271851000000.0 -273774000000.0 -275284000000.0 -275794000000.0 -274705000000.0 -271409000000.0 -265001000000.0 -253893000000.0 -252990000000.0 -217381000000.0 -409227000000.0 -258605000000.0 -356655000000.0 -559560000000.0 -980412000000.0 -1.06259e+12 -1.23706e+12 -1.11131e+12 -1.75705e+12 -1.69982e+12 -754899000000.0 -1.95385e+12 -2.17682e+12 -2.31511e+12 -2.16623e+12 -1.22881e+12 -1.21672e+12 -2.12062e+12 -2.0734e+12 -2.03876e+12 -1.83956e+12 -2.00805e+12 -1.13394e+12 -1.24426e+12 -925312000000.0 -550975000000.0 -550975000000.0 -925312000000.0 -1.24426e+12 -1.13394e+12 -2.00805e+12 -1.83956e+12 -2.03876e+12 -2.0734e+12 -2.12062e+12 -1.21672e+12 -1.05196e+12 -1.12832e+12 -2.06328e+12 -2.023e+12 -1.91142e+12 -1.78713e+12 -1.86677e+12 -1.60647e+12 -1.94691e+12 -1.82138e+12 -670565000000.0 -991076000000.0 -705693000000.0 -661854000000.0 -456069000000.0 -413234000000.0 -413385000000.0 -242950000000.0 -268002000000.0 -267635000000.0 -276283000000.0 -280808000000.0 -282643000000.0 -282345000000.0 -280468000000.0 -277692000000.0 -274644000000.0 -271694000000.0 -268973000000.0 -266603000000.0 -264696000000.0 -263278000000.0 -262380000000.0 -262071000000.0 -262380000000.0 -263278000000.0 -264696000000.0 -266603000000.0 -268973000000.0 -271694000000.0 -274644000000.0 -277692000000.0 -280468000000.0 -282345000000.0 -282643000000.0 -280808000000.0 -276283000000.0 -267635000000.0 -268002000000.0 -242950000000.0 -413385000000.0 -413234000000.0 -456069000000.0 -661854000000.0 -705693000000.0 -991076000000.0 -670565000000.0 -1.82138e+12 -1.94691e+12 -1.60647e+12 -1.86677e+12 -1.78713e+12 -1.91142e+12 -2.023e+12 -2.06328e+12 -1.12832e+12 -1.05196e+12 -992904000000.0 -1.91396e+12 -1.93842e+12 -1.76924e+12 -1.93632e+12 -1.82945e+12 -1.74902e+12 -464827000000.0 -1.46875e+12 -663708000000.0 -1.135e+12 -1.03748e+12 -694581000000.0 -488113000000.0 -421295000000.0 -315412000000.0 -307297000000.0 -302162000000.0 -304870000000.0 -304498000000.0 -301730000000.0 -297260000000.0 -291639000000.0 -285451000000.0 -279240000000.0 -273383000000.0 -268125000000.0 -263658000000.0 -260111000000.0 -257548000000.0 -256009000000.0 -255499000000.0 -256009000000.0 -257548000000.0 -260111000000.0 -263658000000.0 -268125000000.0 -273383000000.0 -279240000000.0 -285451000000.0 -291639000000.0 -297260000000.0 -301730000000.0 -304498000000.0 -304870000000.0 -302162000000.0 -307297000000.0 -315412000000.0 -421295000000.0 -488113000000.0 -694581000000.0 -1.03748e+12 -1.135e+12 -663708000000.0 -1.46875e+12 -464827000000.0 -1.74902e+12 -1.82945e+12 -1.93632e+12 -1.76924e+12 -1.93842e+12 -1.91396e+12 -992904000000.0 -969893000000.0 -1.7417e+12 -1.83427e+12 -1.77284e+12 -1.70158e+12 -1.84336e+12 -2.01206e+12 -1.90015e+12 -952488000000.0 -877550000000.0 -618389000000.0 -776857000000.0 -418888000000.0 -762920000000.0 -852550000000.0 -651477000000.0 -651477000000.0 -852550000000.0 -762920000000.0 -418888000000.0 -776857000000.0 -618389000000.0 -877550000000.0 -952488000000.0 -1.90015e+12 -2.01206e+12 -1.84336e+12 -1.70158e+12 -1.77284e+12 -1.83427e+12 -1.7417e+12 -969893000000.0 -892585000000.0 -1.66605e+12 -1.6037e+12 -1.39207e+12 -1.64574e+12 -1.57669e+12 -1.52937e+12 -1.57168e+12 -1.58216e+12 -1.44261e+12 -2.44218e+12 -1.44841e+12 -791999000000.0 -703258000000.0 -773111000000.0 -869014000000.0 -590000000000.0 -910666000000.0 -297482000000.0 -308105000000.0 -293584000000.0 -299725000000.0 -298592000000.0 -291151000000.0 -281234000000.0 -270478000000.0 -259666000000.0 -249137000000.0 -239213000000.0 -230208000000.0 -222324000000.0 -215708000000.0 -210477000000.0 -206719000000.0 -204474000000.0 -203732000000.0 -204474000000.0 -206719000000.0 -210477000000.0 -215708000000.0 -222324000000.0 -230208000000.0 -239213000000.0 -249137000000.0 -259666000000.0 -270478000000.0 -281234000000.0 -291151000000.0 -298592000000.0 -299725000000.0 -293584000000.0 -308105000000.0 -297482000000.0 -910666000000.0 -590000000000.0 -869014000000.0 -773111000000.0 -703258000000.0 -791999000000.0 -1.44841e+12 -2.44218e+12 -1.44261e+12 -1.58216e+12 -1.57168e+12 -1.52937e+12 -1.57669e+12 -1.64574e+12 -1.39207e+12 -1.6037e+12 -1.66605e+12 -892585000000.0 -349260000000.0 -181071000000.0 -984588000000.0 -1.12615e+12 -1.37672e+12 -1.5381e+12 -1.31143e+12 -1.59003e+12 -424058000000.0 -2.07111e+12 -1.3518e+12 -1.00223e+12 -1.00961e+12 -715169000000.0 -424836000000.0 -171004000000.0 -114709000000.0 -88952000000.0 -68165000000.0 -61014200000.0 -59478300000.0 -57847700000.0 -55018800000.0 -51340700000.0 -47325200000.0 -43323300000.0 -39584200000.0 -36313600000.0 -33627300000.0 -31616100000.0 -30379100000.0 -29966100000.0 -30379100000.0 -31616100000.0 -33627300000.0 -36313600000.0 -39584200000.0 -43323300000.0 -47325200000.0 -51340700000.0 -55018800000.0 -57847700000.0 -59478300000.0 -61014200000.0 -68165000000.0 -88952000000.0 -114709000000.0 -171004000000.0 -424836000000.0 -715169000000.0 -1.00961e+12 -1.00223e+12 -1.3518e+12 -2.07111e+12 -424058000000.0 -1.59003e+12 -1.31143e+12 -1.5381e+12 -1.37672e+12 -1.12615e+12 -984588000000.0 -181071000000.0 -349260000000.0 -514156000000.0 -1.06957e+12 -1.01867e+12 -1.30562e+12 -1.45529e+12 -1.19535e+12 -2.13215e+12 -928318000000.0 -910265000000.0 -943351000000.0 -737868000000.0 -310921000000.0 -482560000000.0 -216048000000.0 -490713000000.0 -322467000000.0 -322467000000.0 -490713000000.0 -216048000000.0 -482560000000.0 -310921000000.0 -737868000000.0 -943351000000.0 -910265000000.0 -928318000000.0 -2.13215e+12 -1.19535e+12 -1.45529e+12 -1.30562e+12 -1.01867e+12 -1.06957e+12 -514156000000.0 -109567000000.0 -961277000000.0 -1.13751e+12 -444531000000.0 -1.11375e+12 -891638000000.0 -1.21415e+12 -1.54049e+12 -504731000000.0 -1.82815e+12 -853986000000.0 -1.58475e+12 -1.01748e+12 -1.20088e+12 -930337000000.0 -777465000000.0 -854660000000.0 -594661000000.0 -636117000000.0 -711343000000.0 -673382000000.0 -556863000000.0 -482252000000.0 -437406000000.0 -408375000000.0 -383869000000.0 -361219000000.0 -340239000000.0 -321477000000.0 -305006000000.0 -290526000000.0 -277882000000.0 -267096000000.0 -258184000000.0 -251160000000.0 -246077000000.0 -242998000000.0 -241966000000.0 -242998000000.0 -246077000000.0 -251160000000.0 -258184000000.0 -267096000000.0 -277882000000.0 -290526000000.0 -305006000000.0 -321477000000.0 -340239000000.0 -361219000000.0 -383869000000.0 -408375000000.0 -437406000000.0 -482252000000.0 -556863000000.0 -673382000000.0 -711343000000.0 -636117000000.0 -594661000000.0 -854660000000.0 -777465000000.0 -930337000000.0 -1.20088e+12 -1.01748e+12 -1.58475e+12 -853986000000.0 -1.82815e+12 -504731000000.0 -1.54049e+12 -1.21415e+12 -891638000000.0 -1.11375e+12 -444531000000.0 -1.13751e+12 -961277000000.0 -109567000000.0 -273409000000.0 -645652000000.0 -547807000000.0 -868681000000.0 -1.25011e+12 -1.35562e+12 -1.17721e+12 -477723000000.0 -1.32556e+12 -1.1047e+12 -1.30767e+12 -829044000000.0 -829044000000.0 -1.30767e+12 -1.1047e+12 -1.32556e+12 -477723000000.0 -1.17721e+12 -1.35562e+12 -1.25011e+12 -868681000000.0 -547807000000.0 -645652000000.0 -273409000000.0 -479465000000.0 -780081000000.0 -14989800000.0 -1.19043e+12 -938293000000.0 -956428000000.0 -923855000000.0 -955915000000.0 -835264000000.0 -570788000000.0 -748554000000.0 -576570000000.0 -667817000000.0 -473141000000.0 -591356000000.0 -555819000000.0 -244463000000.0 -228427000000.0 -171628000000.0 -144677000000.0 -121515000000.0 -102544000000.0 -86341200000.0 -72242900000.0 -60106500000.0 -49599200000.0 -40628600000.0 -33352500000.0 -27725800000.0 -23503600000.0 -20461100000.0 -18412900000.0 -17215900000.0 -16818000000.0 -17215900000.0 -18412900000.0 -20461100000.0 -23503600000.0 -27725800000.0 -33352500000.0 -40628600000.0 -49599200000.0 -60106500000.0 -72242900000.0 -86341200000.0 -102544000000.0 -121515000000.0 -144677000000.0 -171628000000.0 -228427000000.0 -244463000000.0 -555819000000.0 -591356000000.0 -473141000000.0 -667817000000.0 -576570000000.0 -748554000000.0 -570788000000.0 -835264000000.0 -955915000000.0 -923855000000.0 -956428000000.0 -938293000000.0 -1.19043e+12 -14989800000.0 -780081000000.0 -479465000000.0 -105217000000.0 -38207900000.0 -1.08246e+12 -1.21401e+12 -612858000000.0 -440639000000.0 -109414000000.0 -133114000000.0 -206377000000.0 -239399000000.0 -129924000000.0 -214621000000.0 -202413000000.0 -360777000000.0 -212395000000.0 -210502000000.0 -208185000000.0 -204985000000.0 -200919000000.0 -195809000000.0 -190107000000.0 -184233000000.0 -178272000000.0 -172374000000.0 -166783000000.0 -161658000000.0 -157076000000.0 -153125000000.0 -149920000000.0 -147565000000.0 -146129000000.0 -145647000000.0 -146129000000.0 -147565000000.0 -149920000000.0 -153125000000.0 -157076000000.0 -161658000000.0 -166783000000.0 -172374000000.0 -178272000000.0 -184233000000.0 -190107000000.0 -195809000000.0 -200919000000.0 -204985000000.0 -208185000000.0 -210502000000.0 -212395000000.0 -360777000000.0 -202413000000.0 -214621000000.0 -129924000000.0 -239399000000.0 -206377000000.0 -133114000000.0 -109414000000.0 -440639000000.0 -612858000000.0 -1.21401e+12 -1.08246e+12 -38207900000.0 -105217000000.0 -379265000000.0 -527546000000.0 -767582000000.0 -1.20205e+12 -175786000000.0 -695658000000.0 -1.14713e+12 -503546000000.0 -626566000000.0 -533465000000.0 -533465000000.0 -626566000000.0 -503546000000.0 -1.14713e+12 -695658000000.0 -175786000000.0 -1.20205e+12 -767582000000.0 -527546000000.0 -379265000000.0 -92469100000.0 -194013000000.0 -432919000000.0 -26600200000.0 -425342000000.0 -777758000000.0 -517330000000.0 -720893000000.0 -605355000000.0 -510213000000.0 -470760000000.0 -278960000000.0 -222771000000.0 -83185500000.0 -197750000000.0 -63053800000.0 -117292000000.0 -96122500000.0 -23082600000.0 -132550000000.0 -9035750000.0 -9035750000.0 -9035750000.0 -9035750000.0 -9035750000.0 -9035750000.0 -9035750000.0 -9035750000.0 -9035750000.0 -9035750000.0 -9035750000.0 -9035750000.0 -9035750000.0 -9035750000.0 -9035750000.0 -9035750000.0 -9035750000.0 -9035820000.0 -9035750000.0 -9035750000.0 -9035750000.0 -9035750000.0 -9035750000.0 -9035750000.0 -9035750000.0 -9035750000.0 -9035750000.0 -9035750000.0 -9035750000.0 -9035750000.0 -9035750000.0 -9035750000.0 -9035750000.0 -9035750000.0 -9035750000.0 -132550000000.0 -23082600000.0 -96122500000.0 -117292000000.0 -63053800000.0 -197750000000.0 -83185500000.0 -222771000000.0 -278960000000.0 -470760000000.0 -510213000000.0 -605355000000.0 -720893000000.0 -517330000000.0 -777758000000.0 -425342000000.0 -26600200000.0 -432919000000.0 -194013000000.0 -92469100000.0 -46206700000.0 -234272000000.0 -168385000000.0 -239422000000.0 -257411000000.0 -323924000000.0 -412776000000.0 -345834000000.0 -294750000000.0 -372633000000.0 -326490000000.0 -395315000000.0 -352411000000.0 -343656000000.0 -357222000000.0 -289765000000.0 -336968000000.0 -259641000000.0 -237462000000.0 -215962000000.0 -195365000000.0 -176515000000.0 -159377000000.0 -143666000000.0 -129250000000.0 -116125000000.0 -104317000000.0 -93853700000.0 -84765100000.0 -77080900000.0 -70817500000.0 -65972800000.0 -62531500000.0 -60475200000.0 -59791300000.0 -60475200000.0 -62531500000.0 -65972800000.0 -70817500000.0 -77080900000.0 -84765100000.0 -93853700000.0 -104317000000.0 -116125000000.0 -129250000000.0 -143666000000.0 -159377000000.0 -176515000000.0 -195365000000.0 -215962000000.0 -237462000000.0 -259641000000.0 -336968000000.0 -289765000000.0 -357222000000.0 -343656000000.0 -352411000000.0 -395315000000.0 -326490000000.0 -372633000000.0 -294750000000.0 -345834000000.0 -412776000000.0 -323924000000.0 -257411000000.0 -239422000000.0 -168385000000.0 -234272000000.0 -46206700000.0 -421496000000.0 -433470000000.0 -450453000000.0 -450453000000.0 -433470000000.0 -421496000000.0 -39621800000.0 -197994000000.0 -117771000000.0 -193269000000.0 -211881000000.0 -162595000000.0 -71573600000.0 -245921000000.0 -322835000000.0 -336751000000.0 -337031000000.0 -177158000000.0 -41406200000.0 -31359700000.0 -16931300000.0 -79672300000.0 -15373800000.0 -86582500000.0 -11921100000.0 -48389000000.0 -9035750000.0 -9035750000.0 -9035750000.0 -9035750000.0 -9035750000.0 -9035750000.0 -9035750000.0 -9035750000.0 -9035750000.0 -9035750000.0 -9035750000.0 -9035750000.0 -9035750000.0 -9035750000.0 -9035750000.0 -9035750000.0 -9035750000.0 -9035750000.0 -9035750000.0 -9035750000.0 -9035750000.0 -9035750000.0 -9035750000.0 -9035750000.0 -9035750000.0 -9035750000.0 -9035750000.0 -9035750000.0 -9035750000.0 -9035750000.0 -9035750000.0 -9035750000.0 -9035750000.0 -9035750000.0 -9035750000.0 -48389000000.0 -11921100000.0 -86582500000.0 -15373800000.0 -79672300000.0 -16931300000.0 -31359700000.0 -41406200000.0 -177158000000.0 -337031000000.0 -336751000000.0 -322835000000.0 -245921000000.0 -71573600000.0 -162595000000.0 -211881000000.0 -193269000000.0 -117771000000.0 -197994000000.0 -39621800000.0 -11907600000.0 -121011000000.0 -25552800000.0 -37492000000.0 -54974400000.0 -71845700000.0 -43839100000.0 -158913000000.0 -303921000000.0 -386983000000.0 -404766000000.0 -324059000000.0 -225469000000.0 -214767000000.0 -168975000000.0 -208147000000.0 -133695000000.0 -186846000000.0 -107158000000.0 -107714000000.0 -80725600000.0 -69900000000.0 -60510700000.0 -52346600000.0 -45345300000.0 -39444400000.0 -34518500000.0 -30404600000.0 -26957500000.0 -24072500000.0 -21675700000.0 -19708700000.0 -18120700000.0 -16869800000.0 -15925000000.0 -15264800000.0 -14874700000.0 -14745700000.0 -14874700000.0 -15264800000.0 -15925000000.0 -16869800000.0 -18120700000.0 -19708700000.0 -21675700000.0 -24072500000.0 -26957500000.0 -30404600000.0 -34518500000.0 -39444400000.0 -45345300000.0 -52346600000.0 -60510700000.0 -69900000000.0 -80725600000.0 -107714000000.0 -107158000000.0 -186846000000.0 -133695000000.0 -208147000000.0 -168975000000.0 -214767000000.0 -225469000000.0 -324059000000.0 -404766000000.0 -386983000000.0 -303921000000.0 -158913000000.0 -43839100000.0 -71845700000.0 -54974400000.0 -37492000000.0 -25552800000.0 -121011000000.0 -11907600000.0 -25154100000.0 -118442000000.0 -44163100000.0 -65449900000.0 -87203000000.0 -126381000000.0 -130825000000.0 -170644000000.0 -249008000000.0 -236197000000.0 -180177000000.0 -93968700000.0 -10216900000.0 -42083000000.0 -10386600000.0 -71002700000.0 -10021400000.0 -75815000000.0 -9076720000.0 -10895000000.0 -9035750000.0 -9035750000.0 -9035750000.0 -9035750000.0 -9035750000.0 -9035750000.0 -9035750000.0 -9035750000.0 -9035750000.0 -9035750000.0 -9035750000.0 -9035750000.0 -9035750000.0 -9035750000.0 -9035750000.0 -9035750000.0 -9035750000.0 -9035750000.0 -9035750000.0 -9035750000.0 -9035750000.0 -9035750000.0 -9035750000.0 -9035750000.0 -9035750000.0 -9035750000.0 -9035750000.0 -9035750000.0 -9035750000.0 -9035750000.0 -9035750000.0 -9035750000.0 -9035750000.0 -9035750000.0 -9035750000.0 -10895000000.0 -9076720000.0 -75815000000.0 -10021400000.0 -71002700000.0 -10386600000.0 -42083000000.0 -10216900000.0 -93968700000.0 -180177000000.0 -236197000000.0 -249008000000.0 -170644000000.0 -130825000000.0 -126381000000.0 -87203000000.0 -65449900000.0 -44163100000.0 -118442000000.0 -25154100000.0 -25001600000.0 -102176000000.0 -33217500000.0 -24038000000.0 -25333800000.0 -62689600000.0 -77519900000.0 -82108900000.0 -185718000000.0 -214054000000.0 -186163000000.0 -110137000000.0 -35136200000.0 -64165900000.0 -26474900000.0 -79615600000.0 -20745800000.0 -78031000000.0 -16910800000.0 -15359500000.0 -14091100000.0 -13074000000.0 -12250500000.0 -11590300000.0 -11063300000.0 -10640700000.0 -10298900000.0 -10020700000.0 -9794970000.0 -9612660000.0 -9466410000.0 -9351300000.0 -9262520000.0 -9195450000.0 -9147120000.0 -9115300000.0 -9097530000.0 -9091830000.0 -9097530000.0 -9115300000.0 -9147120000.0 -9195450000.0 -9262520000.0 -9351300000.0 -9466410000.0 -9612660000.0 -9794970000.0 -10020700000.0 -10298900000.0 -10640700000.0 -11063300000.0 -11590300000.0 -12250500000.0 -13074000000.0 -14091100000.0 -15359500000.0 -16910800000.0 -78031000000.0 -20745800000.0 -79615600000.0 -26474900000.0 -64165900000.0 -35136200000.0 -110137000000.0 -186163000000.0 -214054000000.0 -185718000000.0 -82108900000.0 -77519900000.0 -62689600000.0 -25333800000.0 -24038000000.0 -33217500000.0 -102176000000.0 -25001600000.0 -31942300000.0 -98602800000.0 -39909400000.0 -23129500000.0 -23216700000.0 -66655100000.0 -94859000000.0 -82148600000.0 -173206000000.0 -182220000000.0 -139955000000.0 -67768400000.0 -9151820000.0 -44248600000.0 -9035810000.0 -61259200000.0 -9093350000.0 -61625200000.0 -9035780000.0 -9035780000.0 -9035770000.0 -9035770000.0 -9035770000.0 -9035770000.0 -9035770000.0 -9035780000.0 -9035780000.0 -9035780000.0 -9035770000.0 -9035770000.0 -9035760000.0 -9035760000.0 -9035760000.0 -9035760000.0 -9035750000.0 -9035750000.0 -9035750000.0 -9035750000.0 -9035750000.0 -9035750000.0 -9035750000.0 -9035760000.0 -9035760000.0 -9035760000.0 -9035760000.0 -9035770000.0 -9035770000.0 -9035780000.0 -9035780000.0 -9035780000.0 -9035770000.0 -9035770000.0 -9035770000.0 -9035770000.0 -9035770000.0 -9035780000.0 -9035780000.0 -61625200000.0 -9093350000.0 -61259200000.0 -9035810000.0 -44248600000.0 -9151820000.0 -67768400000.0 -139955000000.0 -182220000000.0 -173206000000.0 -82148600000.0 -94859000000.0 -66655100000.0 -23216700000.0 -23129500000.0 -39909400000.0 -98602800000.0 -31942300000.0 -36814700000.0 -94733000000.0 -43571200000.0 -19339600000.0 -16823200000.0 -60643500000.0 -97417600000.0 -73949200000.0 -154829000000.0 -164000000000.0 -123583000000.0 -59352800000.0 -9919930000.0 -44258500000.0 -9035910000.0 -56693900000.0 -9035810000.0 -54246600000.0 -9035820000.0 -9035830000.0 -9035810000.0 -9035800000.0 -9035800000.0 -9035790000.0 -9035790000.0 -9035790000.0 -9035790000.0 -9035780000.0 -9035770000.0 -9035770000.0 -9035760000.0 -9035760000.0 -9035760000.0 -9035760000.0 -9035760000.0 -9035750000.0 -9035750000.0 -9035750000.0 -9035750000.0 -9035750000.0 -9035760000.0 -9035760000.0 -9035760000.0 -9035760000.0 -9035760000.0 -9035770000.0 -9035770000.0 -9035780000.0 -9035790000.0 -9035790000.0 -9035790000.0 -9035790000.0 -9035800000.0 -9035800000.0 -9035810000.0 -9035830000.0 -9035820000.0 -54246600000.0 -9035810000.0 -56693900000.0 -9035910000.0 -44258500000.0 -9919930000.0 -59352800000.0 -123583000000.0 -164000000000.0 -154829000000.0 -73949200000.0 -97417600000.0 -60643500000.0 -16823200000.0 -19339600000.0 -43571200000.0 -94733000000.0 -36814700000.0 -40755700000.0 -91180500000.0 -46982100000.0 -18819700000.0 -17116200000.0 -58972100000.0 -101231000000.0 -74066800000.0 -141137000000.0 -144733000000.0 -104488000000.0 -52573100000.0 -9035890000.0 -42948300000.0 -9036020000.0 -52292400000.0 -9035890000.0 -47180500000.0 -9035860000.0 -9035870000.0 -9035850000.0 -9035830000.0 -9035820000.0 -9035810000.0 -9035810000.0 -9035800000.0 -9035790000.0 -9035780000.0 -9035780000.0 -9035770000.0 -9035770000.0 -9035760000.0 -9035760000.0 -9035760000.0 -9035760000.0 -9035750000.0 -9035750000.0 -9035750000.0 -9035750000.0 -9035750000.0 -9035760000.0 -9035760000.0 -9035760000.0 -9035760000.0 -9035770000.0 -9035770000.0 -9035780000.0 -9035780000.0 -9035790000.0 -9035800000.0 -9035810000.0 -9035810000.0 -9035820000.0 -9035830000.0 -9035850000.0 -9035870000.0 -9035860000.0 -47180500000.0 -9035890000.0 -52292400000.0 -9036020000.0 -42948300000.0 -9035890000.0 -52573100000.0 -104488000000.0 -144733000000.0 -141137000000.0 -74066800000.0 -101231000000.0 -58972100000.0 -17116200000.0 -18819700000.0 -46982100000.0 -91180500000.0 -40755700000.0 -19238100000.0 -18434100000.0 -127964000000.0 -126842000000.0 -87885800000.0 -49006100000.0 -9036140000.0 -41737900000.0 -9036110000.0 -48078600000.0 -9035960000.0 -40645100000.0 -9035900000.0 -9035910000.0 -9035880000.0 -9035860000.0 -9035840000.0 -9035830000.0 -9035820000.0 -9035800000.0 -9035790000.0 -9035780000.0 -9035780000.0 -9035770000.0 -9035770000.0 -9035760000.0 -9035760000.0 -9035760000.0 -9035760000.0 -9035750000.0 -9035750000.0 -9035750000.0 -9035750000.0 -9035750000.0 -9035760000.0 -9035760000.0 -9035760000.0 -9035760000.0 -9035770000.0 -9035770000.0 -9035780000.0 -9035780000.0 -9035790000.0 -9035800000.0 -9035820000.0 -9035830000.0 -9035840000.0 -9035860000.0 -9035880000.0 -9035910000.0 -9035900000.0 -40645100000.0 -9035960000.0 -48078600000.0 -9036110000.0 -41737900000.0 -9036140000.0 -49006100000.0 -87885800000.0 -126842000000.0 -127964000000.0 -18434100000.0 -19238100000.0 -43619900000.0 -86873700000.0 -49260200000.0 -57389500000.0 -102113000000.0 -75659300000.0 -75659300000.0 -102113000000.0 -57389500000.0 -49260200000.0 -86873700000.0 -43619900000.0 -45604200000.0 -81973000000.0 -50888900000.0 -20335000000.0 -19740100000.0 -56260000000.0 -100858000000.0 -77506200000.0 -115162000000.0 -110254000000.0 -72949700000.0 -45930900000.0 -9036380000.0 -40260600000.0 -9036210000.0 -44084800000.0 -9036020000.0 -34796100000.0 -9035930000.0 -9035950000.0 -9035910000.0 -9035880000.0 -9035860000.0 -9035840000.0 -9035820000.0 -9035810000.0 -9035800000.0 -9035790000.0 -9035780000.0 -9035770000.0 -9035770000.0 -9035770000.0 -9035760000.0 -9035760000.0 -9035760000.0 -9035750000.0 -9035750000.0 -9035750000.0 -9035750000.0 -9035750000.0 -9035760000.0 -9035760000.0 -9035760000.0 -9035770000.0 -9035770000.0 -9035770000.0 -9035780000.0 -9035790000.0 -9035800000.0 -9035810000.0 -9035820000.0 -9035840000.0 -9035860000.0 -9035880000.0 -9035910000.0 -9035950000.0 -9035930000.0 -34796100000.0 -9036020000.0 -44084800000.0 -9036210000.0 -40260600000.0 -9036380000.0 -45930900000.0 -72949700000.0 -110254000000.0 -115162000000.0 -77506200000.0 -100858000000.0 -56260000000.0 -19740100000.0 -20335000000.0 -50888900000.0 -81973000000.0 -45604200000.0 -9036610000.0 -9036300000.0 -9036070000.0 -29698500000.0 -9035960000.0 -9035980000.0 -9035930000.0 -9035890000.0 -9035870000.0 -9035840000.0 -9035830000.0 -9035810000.0 -9035800000.0 -9035790000.0 -9035780000.0 -9035780000.0 -9035770000.0 -9035770000.0 -9035760000.0 -9035760000.0 -9035760000.0 -9035750000.0 -9035750000.0 -9035750000.0 -9035750000.0 -9035750000.0 -9035760000.0 -9035760000.0 -9035760000.0 -9035770000.0 -9035770000.0 -9035780000.0 -9035780000.0 -9035790000.0 -9035800000.0 -9035810000.0 -9035830000.0 -9035840000.0 -9035870000.0 -9035890000.0 -9035930000.0 -9035980000.0 -9035960000.0 -29698500000.0 -9036070000.0 -9036300000.0 -9036610000.0 -46861500000.0 -76737300000.0 -52049400000.0 -21598700000.0 -20752500000.0 -55190900000.0 -98216200000.0 -78755400000.0 -102753000000.0 -95496800000.0 -60093000000.0 -42824600000.0 -38582400000.0 -40348200000.0 -40348200000.0 -38582400000.0 -42824600000.0 -60093000000.0 -95496800000.0 -102753000000.0 -78755400000.0 -98216200000.0 -55190900000.0 -20752500000.0 -21598700000.0 -52049400000.0 -76737300000.0 -46861500000.0 -47533200000.0 -71400000000.0 -52739100000.0 -22768800000.0 -21459700000.0 -54033600000.0 -94783200000.0 -78911500000.0 -90853700000.0 -82740000000.0 -49393300000.0 -39730800000.0 -9036810000.0 -36770900000.0 -9036380000.0 -36883100000.0 -9036120000.0 -25355200000.0 -9035990000.0 -9036000000.0 -9035940000.0 -9035910000.0 -9035870000.0 -9035850000.0 -9035830000.0 -9035810000.0 -9035800000.0 -9035790000.0 -9035780000.0 -9035780000.0 -9035770000.0 -9035770000.0 -9035760000.0 -9035760000.0 -9035760000.0 -9035750000.0 -9035750000.0 -9035750000.0 -9035750000.0 -9035750000.0 -9035760000.0 -9035760000.0 -9035760000.0 -9035770000.0 -9035770000.0 -9035780000.0 -9035780000.0 -9035790000.0 -9035800000.0 -9035810000.0 -9035830000.0 -9035850000.0 -9035870000.0 -9035910000.0 -9035940000.0 -9036000000.0 -9035990000.0 -25355200000.0 -9036120000.0 -36883100000.0 -9036380000.0 -36770900000.0 -9036810000.0 -39730800000.0 -49393300000.0 -82740000000.0 -90853700000.0 -78911500000.0 -94783200000.0 -54033600000.0 -21459700000.0 -22768800000.0 -52739100000.0 -71400000000.0 -47533200000.0 -47741800000.0 -66169000000.0 -52944200000.0 -23772600000.0 -21906800000.0 -52841700000.0 -90865000000.0 -77843500000.0 -79667900000.0 -71963900000.0 -40701000000.0 -36803200000.0 -9036990000.0 -34888400000.0 -9036460000.0 -33680100000.0 -9036160000.0 -21727900000.0 -9036020000.0 -9036010000.0 -9035950000.0 -9035910000.0 -9035880000.0 -9035850000.0 -9035830000.0 -9035820000.0 -9035800000.0 -9035790000.0 -9035790000.0 -9035780000.0 -9035770000.0 -9035770000.0 -9035760000.0 -9035760000.0 -9035760000.0 -9035750000.0 -9035750000.0 -9035750000.0 -9035750000.0 -9035750000.0 -9035760000.0 -9035760000.0 -9035760000.0 -9035770000.0 -9035770000.0 -9035780000.0 -9035790000.0 -9035790000.0 -9035800000.0 -9035820000.0 -9035830000.0 -9035850000.0 -9035880000.0 -9035910000.0 -9035950000.0 -9036010000.0 -9036020000.0 -21727900000.0 -9036160000.0 -33680100000.0 -9036460000.0 -34888400000.0 -9036990000.0 -36803200000.0 -40701000000.0 -71963900000.0 -79667900000.0 -77843500000.0 -90865000000.0 -52841700000.0 -21906800000.0 -23772600000.0 -52944200000.0 -66169000000.0 -47741800000.0 -47577800000.0 -61208600000.0 -52689900000.0 -24597500000.0 -22142500000.0 -51683000000.0 -86577800000.0 -75657500000.0 -69379000000.0 -63022900000.0 -33764400000.0 -34149600000.0 -9037140000.0 -32984700000.0 -9036530000.0 -30722200000.0 -9036200000.0 -18754200000.0 -9036040000.0 -9036020000.0 -9035960000.0 -9035920000.0 -9035880000.0 -9035860000.0 -9035840000.0 -9035820000.0 -9035810000.0 -9035800000.0 -9035790000.0 -9035780000.0 -9035770000.0 -9035770000.0 -9035760000.0 -9035760000.0 -9035760000.0 -9035750000.0 -9035750000.0 -9035750000.0 -9035750000.0 -9035750000.0 -9035760000.0 -9035760000.0 -9035760000.0 -9035770000.0 -9035770000.0 -9035780000.0 -9035790000.0 -9035800000.0 -9035810000.0 -9035820000.0 -9035840000.0 -9035860000.0 -9035880000.0 -9035920000.0 -9035960000.0 -9036020000.0 -9036040000.0 -18754200000.0 -9036200000.0 -30722200000.0 -9036530000.0 -32984700000.0 -9037140000.0 -34149600000.0 -33764400000.0 -63022900000.0 -69379000000.0 -75657500000.0 -86577800000.0 -51683000000.0 -22142500000.0 -24597500000.0 -52689900000.0 -61208600000.0 -47577800000.0 -47104700000.0 -56624500000.0 -52024100000.0 -25245000000.0 -22209500000.0 -50564100000.0 -81974100000.0 -72579300000.0 -60101600000.0 -55699000000.0 -28298400000.0 -31808200000.0 -9037270000.0 -31094500000.0 -9036590000.0 -27995600000.0 -9036240000.0 -16359400000.0 -9036060000.0 -9036030000.0 -9035970000.0 -9035920000.0 -9035890000.0 -9035860000.0 -9035840000.0 -9035820000.0 -9035810000.0 -9035800000.0 -9035790000.0 -9035780000.0 -9035770000.0 -9035770000.0 -9035760000.0 -9035760000.0 -9035760000.0 -9035750000.0 -9035750000.0 -9035750000.0 -9035750000.0 -9035750000.0 -9035760000.0 -9035760000.0 -9035760000.0 -9035770000.0 -9035770000.0 -9035780000.0 -9035790000.0 -9035800000.0 -9035810000.0 -9035820000.0 -9035840000.0 -9035860000.0 -9035890000.0 -9035920000.0 -9035970000.0 -9036030000.0 -9036060000.0 -16359400000.0 -9036240000.0 -27995600000.0 -9036590000.0 -31094500000.0 -9037270000.0 -31808200000.0 -28298400000.0 -55699000000.0 -60101600000.0 -72579300000.0 -81974100000.0 -50564100000.0 -22209500000.0 -25245000000.0 -52024100000.0 -56624500000.0 -47104700000.0 -46371800000.0 -52468200000.0 -51000200000.0 -25720400000.0 -22144700000.0 -49452200000.0 -77107900000.0 -68866600000.0 -51883200000.0 -49746600000.0 -24022400000.0 -29764700000.0 -9037380000.0 -29241600000.0 -9036650000.0 -25492600000.0 -9036270000.0 -14464400000.0 -9036080000.0 -9036030000.0 -9035970000.0 -9035920000.0 -9035890000.0 -9035860000.0 -9035840000.0 -9035820000.0 -9035810000.0 -9035800000.0 -9035790000.0 -9035780000.0 -9035770000.0 -9035770000.0 -9035760000.0 -9035760000.0 -9035760000.0 -9035750000.0 -9035750000.0 -9035750000.0 -9035750000.0 -9035750000.0 -9035760000.0 -9035760000.0 -9035760000.0 -9035770000.0 -9035770000.0 -9035780000.0 -9035790000.0 -9035800000.0 -9035810000.0 -9035820000.0 -9035840000.0 -9035860000.0 -9035890000.0 -9035920000.0 -9035970000.0 -9036030000.0 -9036080000.0 -14464400000.0 -9036270000.0 -25492600000.0 -9036650000.0 -29241600000.0 -9037380000.0 -29764700000.0 -24022400000.0 -49746600000.0 -51883200000.0 -68866600000.0 -77107900000.0 -49452200000.0 -22144700000.0 -25720400000.0 -51000200000.0 -52468200000.0 -46371800000.0 -45423400000.0 -48751100000.0 -49671800000.0 -26031200000.0 -21979200000.0 -48306300000.0 -72049800000.0 -64758800000.0 -44719100000.0 -44918100000.0 -20685700000.0 -27977100000.0 -9037470000.0 -27443000000.0 -9036700000.0 -23209500000.0 -9036300000.0 -12991600000.0 -9036090000.0 -9036040000.0 -9035970000.0 -9035930000.0 -9035890000.0 -9035860000.0 -9035840000.0 -9035820000.0 -9035810000.0 -9035800000.0 -9035790000.0 -9035780000.0 -9035770000.0 -9035770000.0 -9035760000.0 -9035760000.0 -9035760000.0 -9035750000.0 -9035750000.0 -9035750000.0 -9035750000.0 -9035750000.0 -9035760000.0 -9035760000.0 -9035760000.0 -9035770000.0 -9035770000.0 -9035780000.0 -9035790000.0 -9035800000.0 -9035810000.0 -9035820000.0 -9035840000.0 -9035860000.0 -9035890000.0 -9035930000.0 -9035970000.0 -9036040000.0 -9036090000.0 -12991600000.0 -9036300000.0 -23209500000.0 -9036700000.0 -27443000000.0 -9037470000.0 -27977100000.0 -20685700000.0 -44918100000.0 -44719100000.0 -64758800000.0 -72049800000.0 -48306300000.0 -21979200000.0 -26031200000.0 -49671800000.0 -48751100000.0 -45423400000.0 -44301000000.0 -45458600000.0 -48091700000.0 -26187100000.0 -21737200000.0 -47092600000.0 -66884700000.0 -60458700000.0 -38564400000.0 -40982800000.0 -18078200000.0 -26396200000.0 -9037550000.0 -25711600000.0 -9036730000.0 -21144100000.0 -9036320000.0 -11867600000.0 -9036100000.0 -9036040000.0 -9035980000.0 -9035930000.0 -9035890000.0 -9035860000.0 -9035840000.0 -9035820000.0 -9035810000.0 -9035800000.0 -9035790000.0 -9035780000.0 -9035770000.0 -9035770000.0 -9035760000.0 -9035760000.0 -9035760000.0 -9035750000.0 -9035750000.0 -9035750000.0 -9035750000.0 -9035750000.0 -9035760000.0 -9035760000.0 -9035760000.0 -9035770000.0 -9035770000.0 -9035780000.0 -9035790000.0 -9035800000.0 -9035810000.0 -9035820000.0 -9035840000.0 -9035860000.0 -9035890000.0 -9035930000.0 -9035980000.0 -9036040000.0 -9036100000.0 -11867600000.0 -9036320000.0 -21144100000.0 -9036730000.0 -25711600000.0 -9037550000.0 -26396200000.0 -18078200000.0 -40982800000.0 -38564400000.0 -60458700000.0 -66884700000.0 -47092600000.0 -21737200000.0 -26187100000.0 -48091700000.0 -45458600000.0 -44301000000.0 -43042200000.0 -42559900000.0 -46312500000.0 -26199400000.0 -21435700000.0 -45788100000.0 -61704500000.0 -56128900000.0 -33342500000.0 -37740000000.0 -16032100000.0 -24975700000.0 -9037610000.0 -24057800000.0 -9036770000.0 -19293100000.0 -9036330000.0 -11026100000.0 -9036110000.0 -9036040000.0 -9035980000.0 -9035930000.0 -9035890000.0 -9035860000.0 -9035840000.0 -9035820000.0 -9035810000.0 -9035800000.0 -9035790000.0 -9035780000.0 -9035770000.0 -9035770000.0 -9035760000.0 -9035760000.0 -9035760000.0 -9035750000.0 -9035750000.0 -9035750000.0 -9035750000.0 -9035750000.0 -9035760000.0 -9035760000.0 -9035760000.0 -9035770000.0 -9035770000.0 -9035780000.0 -9035790000.0 -9035800000.0 -9035810000.0 -9035820000.0 -9035840000.0 -9035860000.0 -9035890000.0 -9035930000.0 -9035980000.0 -9036040000.0 -9036110000.0 -11026100000.0 -9036330000.0 -19293100000.0 -9036770000.0 -24057800000.0 -9037610000.0 -24975700000.0 -16032100000.0 -37740000000.0 -33342500000.0 -56128900000.0 -61704500000.0 -45788100000.0 -21435700000.0 -26199400000.0 -46312500000.0 -42559900000.0 -43042200000.0 -41680800000.0 -40014900000.0 -44386300000.0 -26080100000.0 -21086400000.0 -44381200000.0 -56600200000.0 -51893700000.0 -28956900000.0 -35023700000.0 -14421500000.0 -23677700000.0 -9037650000.0 -22490000000.0 -9036790000.0 -17651000000.0 -9036340000.0 -10408300000.0 -9036110000.0 -9036040000.0 -9035980000.0 -9035930000.0 -9035890000.0 -9035860000.0 -9035840000.0 -9035820000.0 -9035810000.0 -9035800000.0 -9035790000.0 -9035780000.0 -9035770000.0 -9035770000.0 -9035760000.0 -9035760000.0 -9035760000.0 -9035750000.0 -9035750000.0 -9035750000.0 -9035750000.0 -9035750000.0 -9035760000.0 -9035760000.0 -9035760000.0 -9035770000.0 -9035770000.0 -9035780000.0 -9035790000.0 -9035800000.0 -9035810000.0 -9035820000.0 -9035840000.0 -9035860000.0 -9035890000.0 -9035930000.0 -9035980000.0 -9036040000.0 -9036110000.0 -10408300000.0 -9036340000.0 -17651000000.0 -9036790000.0 -22490000000.0 -9037650000.0 -23677700000.0 -14421500000.0 -35023700000.0 -28956900000.0 -51893700000.0 -56600200000.0 -44381200000.0 -21086400000.0 -26080100000.0 -44386300000.0 -40014900000.0 -41680800000.0 -40246200000.0 -37778500000.0 -42363000000.0 -25842300000.0 -20697300000.0 -42871300000.0 -51654700000.0 -47842300000.0 -25303500000.0 -32701300000.0 -13154800000.0 -22473600000.0 -9037690000.0 -21015300000.0 -9036810000.0 -16209600000.0 -9036350000.0 -9963900000.0 -9036120000.0 -9036040000.0 -9035980000.0 -9035930000.0 -9035890000.0 -9035860000.0 -9035840000.0 -9035820000.0 -9035810000.0 -9035800000.0 -9035790000.0 -9035780000.0 -9035770000.0 -9035770000.0 -9035760000.0 -9035760000.0 -9035760000.0 -9035750000.0 -9035750000.0 -9035750000.0 -9035750000.0 -9035750000.0 -9035760000.0 -9035760000.0 -9035760000.0 -9035770000.0 -9035770000.0 -9035780000.0 -9035790000.0 -9035800000.0 -9035810000.0 -9035820000.0 -9035840000.0 -9035860000.0 -9035890000.0 -9035930000.0 -9035980000.0 -9036040000.0 -9036120000.0 -9963900000.0 -9036350000.0 -16209600000.0 -9036810000.0 -21015300000.0 -9037690000.0 -22473600000.0 -13154800000.0 -32701300000.0 -25303500000.0 -47842300000.0 -51654700000.0 -42871300000.0 -20697300000.0 -25842300000.0 -42363000000.0 -37778500000.0 -40246200000.0 -38763700000.0 -35804400000.0 -40288700000.0 -25499100000.0 -20273900000.0 -41266800000.0 -46937700000.0 -44033200000.0 -22279800000.0 -30670900000.0 -12164700000.0 -21343600000.0 -9037710000.0 -19638900000.0 -9036810000.0 -14958000000.0 -9036360000.0 -9650980000.0 -9036110000.0 -9036040000.0 -9035970000.0 -9035930000.0 -9035890000.0 -9035860000.0 -9035840000.0 -9035820000.0 -9035810000.0 -9035800000.0 -9035790000.0 -9035780000.0 -9035770000.0 -9035770000.0 -9035760000.0 -9035760000.0 -9035760000.0 -9035750000.0 -9035750000.0 -9035750000.0 -9035750000.0 -9035750000.0 -9035760000.0 -9035760000.0 -9035760000.0 -9035770000.0 -9035770000.0 -9035780000.0 -9035790000.0 -9035800000.0 -9035810000.0 -9035820000.0 -9035840000.0 -9035860000.0 -9035890000.0 -9035930000.0 -9035970000.0 -9036040000.0 -9036110000.0 -9650980000.0 -9036360000.0 -14958000000.0 -9036810000.0 -19638900000.0 -9037710000.0 -21343600000.0 -12164700000.0 -30670900000.0 -22279800000.0 -44033200000.0 -46937700000.0 -41266800000.0 -20273900000.0 -25499100000.0 -40288700000.0 -35804400000.0 -38763700000.0 -37255000000.0 -34047800000.0 -38204200000.0 -25063900000.0 -19820500000.0 -39583100000.0 -42504400000.0 -40500700000.0 -19790300000.0 -28857300000.0 -11398700000.0 -20275300000.0 -9037720000.0 -18364400000.0 -9036820000.0 -13883200000.0 -9036360000.0 -9435340000.0 -9036110000.0 -9036030000.0 -9035970000.0 -9035920000.0 -9035890000.0 -9035860000.0 -9035840000.0 -9035820000.0 -9035810000.0 -9035800000.0 -9035790000.0 -9035780000.0 -9035770000.0 -9035770000.0 -9035760000.0 -9035760000.0 -9035760000.0 -9035750000.0 -9035750000.0 -9035750000.0 -9035750000.0 -9035750000.0 -9035760000.0 -9035760000.0 -9035760000.0 -9035770000.0 -9035770000.0 -9035780000.0 -9035790000.0 -9035800000.0 -9035810000.0 -9035820000.0 -9035840000.0 -9035860000.0 -9035890000.0 -9035920000.0 -9035970000.0 -9036030000.0 -9036110000.0 -9435340000.0 -9036360000.0 -13883200000.0 -9036820000.0 -18364400000.0 -9037720000.0 -20275300000.0 -11398700000.0 -28857300000.0 -19790300000.0 -40500700000.0 -42504400000.0 -39583100000.0 -19820500000.0 -25063900000.0 -38204200000.0 -34047800000.0 -37255000000.0 -35738100000.0 -32467300000.0 -36143400000.0 -24550000000.0 -19341600000.0 -37840300000.0 -38394400000.0 -37260100000.0 -17749000000.0 -27208100000.0 -10813100000.0 -19262000000.0 -9037710000.0 -17193800000.0 -9036810000.0 -12969900000.0 -9036350000.0 -9289990000.0 -9036110000.0 -9036030000.0 -9035970000.0 -9035920000.0 -9035890000.0 -9035860000.0 -9035840000.0 -9035820000.0 -9035810000.0 -9035800000.0 -9035790000.0 -9035780000.0 -9035770000.0 -9035770000.0 -9035760000.0 -9035760000.0 -9035760000.0 -9035750000.0 -9035750000.0 -9035750000.0 -9035750000.0 -9035750000.0 -9035760000.0 -9035760000.0 -9035760000.0 -9035770000.0 -9035770000.0 -9035780000.0 -9035790000.0 -9035800000.0 -9035810000.0 -9035820000.0 -9035840000.0 -9035860000.0 -9035890000.0 -9035920000.0 -9035970000.0 -9036030000.0 -9036110000.0 -9289990000.0 -9036350000.0 -12969900000.0 -9036810000.0 -17193800000.0 -9037710000.0 -19262000000.0 -10813100000.0 -27208100000.0 -17749000000.0 -37260100000.0 -38394400000.0 -37840300000.0 -19341600000.0 -24550000000.0 -36143400000.0 -32467300000.0 -35738100000.0 -34227900000.0 -31026400000.0 -34133500000.0 -23970100000.0 -18841500000.0 -36061000000.0 -34631700000.0 -34312500000.0 -16080600000.0 -25688300000.0 -10370800000.0 -18301000000.0 -9037700000.0 -16127100000.0 -9036800000.0 -12202300000.0 -9036340000.0 -9194190000.0 -9036100000.0 -9036020000.0 -9035960000.0 -9035920000.0 -9035880000.0 -9035860000.0 -9035840000.0 -9035820000.0 -9035810000.0 -9035800000.0 -9035790000.0 -9035780000.0 -9035770000.0 -9035770000.0 -9035760000.0 -9035760000.0 -9035760000.0 -9035750000.0 -9035750000.0 -9035750000.0 -9035750000.0 -9035750000.0 -9035760000.0 -9035760000.0 -9035760000.0 -9035770000.0 -9035770000.0 -9035780000.0 -9035790000.0 -9035800000.0 -9035810000.0 -9035820000.0 -9035840000.0 -9035860000.0 -9035880000.0 -9035920000.0 -9035960000.0 -9036020000.0 -9036100000.0 -9194190000.0 -9036340000.0 -12202300000.0 -9036800000.0 -16127100000.0 -9037700000.0 -18301000000.0 -10370800000.0 -25688300000.0 -16080600000.0 -34312500000.0 -34631700000.0 -36061000000.0 -18841500000.0 -23970100000.0 -34133500000.0 -31026400000.0 -34227900000.0 -32736300000.0 -29694300000.0 -32194900000.0 -23336500000.0 -18324700000.0 -34267900000.0 -31225900000.0 -31648500000.0 -14720700000.0 -24275200000.0 -10040200000.0 -17392000000.0 -9037670000.0 -15162600000.0 -9036790000.0 -11563500000.0 -9036340000.0 -9132450000.0 -9036090000.0 -9036020000.0 -9035960000.0 -9035910000.0 -9035880000.0 -9035860000.0 -9035830000.0 -9035820000.0 -9035810000.0 -9035790000.0 -9035790000.0 -9035780000.0 -9035770000.0 -9035770000.0 -9035760000.0 -9035760000.0 -9035760000.0 -9035750000.0 -9035750000.0 -9035750000.0 -9035750000.0 -9035750000.0 -9035760000.0 -9035760000.0 -9035760000.0 -9035770000.0 -9035770000.0 -9035780000.0 -9035790000.0 -9035790000.0 -9035810000.0 -9035820000.0 -9035830000.0 -9035860000.0 -9035880000.0 -9035910000.0 -9035960000.0 -9036020000.0 -9036090000.0 -9132450000.0 -9036340000.0 -11563500000.0 -9036790000.0 -15162600000.0 -9037670000.0 -17392000000.0 -10040200000.0 -24275200000.0 -14720700000.0 -31648500000.0 -31225900000.0 -34267900000.0 -18324700000.0 -23336500000.0 -32194900000.0 -29694300000.0 -32736300000.0 -31272400000.0 -28445900000.0 -30342100000.0 -22660700000.0 -17796200000.0 -32482500000.0 -28174600000.0 -29251500000.0 -13614900000.0 -22954000000.0 -9795110000.0 -16535800000.0 -9037640000.0 -14297500000.0 -9036770000.0 -11037400000.0 -9036320000.0 -9093560000.0 -9036080000.0 -9036010000.0 -9035950000.0 -9035910000.0 -9035880000.0 -9035850000.0 -9035830000.0 -9035820000.0 -9035800000.0 -9035790000.0 -9035780000.0 -9035780000.0 -9035770000.0 -9035770000.0 -9035760000.0 -9035760000.0 -9035760000.0 -9035750000.0 -9035750000.0 -9035750000.0 -9035750000.0 -9035750000.0 -9035760000.0 -9035760000.0 -9035760000.0 -9035770000.0 -9035770000.0 -9035780000.0 -9035780000.0 -9035790000.0 -9035800000.0 -9035820000.0 -9035830000.0 -9035850000.0 -9035880000.0 -9035910000.0 -9035950000.0 -9036010000.0 -9036080000.0 -9093560000.0 -9036320000.0 -11037400000.0 -9036770000.0 -14297500000.0 -9037640000.0 -16535800000.0 -9795110000.0 -22954000000.0 -13614900000.0 -29251500000.0 -28174600000.0 -32482500000.0 -17796200000.0 -22660700000.0 -30342100000.0 -28445900000.0 -31272400000.0 -29843400000.0 -27261800000.0 -28584300000.0 -21953500000.0 -17260600000.0 -30724100000.0 -25465200000.0 -27100800000.0 -12718100000.0 -21714900000.0 -9614380000.0 -15733900000.0 -9037590000.0 -13527400000.0 -9036740000.0 -10608100000.0 -9036310000.0 -9069590000.0 -9036080000.0 -9036000000.0 -9035950000.0 -9035900000.0 -9035870000.0 -9035850000.0 -9035830000.0 -9035810000.0 -9035800000.0 -9035790000.0 -9035780000.0 -9035780000.0 -9035770000.0 -9035770000.0 -9035760000.0 -9035760000.0 -9035760000.0 -9035750000.0 -9035750000.0 -9035750000.0 -9035750000.0 -9035750000.0 -9035760000.0 -9035760000.0 -9035760000.0 -9035770000.0 -9035770000.0 -9035780000.0 -9035780000.0 -9035790000.0 -9035800000.0 -9035810000.0 -9035830000.0 -9035850000.0 -9035870000.0 -9035900000.0 -9035950000.0 -9036000000.0 -9036080000.0 -9069590000.0 -9036310000.0 -10608100000.0 -9036740000.0 -13527400000.0 -9037590000.0 -15733900000.0 -9614380000.0 -21714900000.0 -12718100000.0 -27100800000.0 -25465200000.0 -30724100000.0 -17260600000.0 -21953500000.0 -28584300000.0 -27261800000.0 -29843400000.0 -28454300000.0 -26127300000.0 -26926500000.0 -21224600000.0 -16722900000.0 -29009100000.0 -23078800000.0 -25173500000.0 -11993000000.0 -20551500000.0 -9481410000.0 -14987300000.0 -9037540000.0 -12847100000.0 -9036710000.0 -10261100000.0 -9036290000.0 -9055170000.0 -9036060000.0 -9035990000.0 -9035940000.0 -9035900000.0 -9035870000.0 -9035850000.0 -9035830000.0 -9035810000.0 -9035800000.0 -9035790000.0 -9035780000.0 -9035780000.0 -9035770000.0 -9035770000.0 -9035760000.0 -9035760000.0 -9035760000.0 -9035750000.0 -9035750000.0 -9035750000.0 -9035750000.0 -9035750000.0 -9035760000.0 -9035760000.0 -9035760000.0 -9035770000.0 -9035770000.0 -9035780000.0 -9035780000.0 -9035790000.0 -9035800000.0 -9035810000.0 -9035830000.0 -9035850000.0 -9035870000.0 -9035900000.0 -9035940000.0 -9035990000.0 -9036060000.0 -9055170000.0 -9036290000.0 -10261100000.0 -9036710000.0 -12847100000.0 -9037540000.0 -14987300000.0 -9481410000.0 -20551500000.0 -11993000000.0 -25173500000.0 -23078800000.0 -29009100000.0 -16722900000.0 -21224600000.0 -26926500000.0 -26127300000.0 -28454300000.0 -27108600000.0 -25032100000.0 -25370200000.0 -20482800000.0 -16187300000.0 -27350700000.0 -20991400000.0 -23446600000.0 -11408300000.0 -19459500000.0 -9383450000.0 -14296800000.0 -9037480000.0 -12250400000.0 -9036680000.0 -9983060000.0 -9036270000.0 -9046690000.0 -9036050000.0 -9035980000.0 -9035930000.0 -9035890000.0 -9035860000.0 -9035840000.0 -9035820000.0 -9035810000.0 -9035800000.0 -9035790000.0 -9035780000.0 -9035780000.0 -9035770000.0 -9035770000.0 -9035760000.0 -9035760000.0 -9035760000.0 -9035750000.0 -9035750000.0 -9035750000.0 -9035750000.0 -9035750000.0 -9035760000.0 -9035760000.0 -9035760000.0 -9035770000.0 -9035770000.0 -9035780000.0 -9035780000.0 -9035790000.0 -9035800000.0 -9035810000.0 -9035820000.0 -9035840000.0 -9035860000.0 -9035890000.0 -9035930000.0 -9035980000.0 -9036050000.0 -9046690000.0 -9036270000.0 -9983060000.0 -9036680000.0 -12250400000.0 -9037480000.0 -14296800000.0 -9383450000.0 -19459500000.0 -11408300000.0 -23446600000.0 -20991400000.0 -27350700000.0 -16187300000.0 -20482800000.0 -25370200000.0 -25032100000.0 -27108600000.0 -25808300000.0 -23969100000.0 -23914300000.0 -19735800000.0 -15658300000.0 -25759100000.0 -19176800000.0 -21897600000.0 -10938300000.0 -18435900000.0 -9310910000.0 -13662400000.0 -9037420000.0 -11731000000.0 -9036640000.0 -9762320000.0 -9036250000.0 -9041820000.0 -9036040000.0 -9035970000.0 -9035920000.0 -9035890000.0 -9035860000.0 -9035840000.0 -9035820000.0 -9035810000.0 -9035800000.0 -9035790000.0 -9035780000.0 -9035770000.0 -9035770000.0 -9035760000.0 -9035760000.0 -9035760000.0 -9035760000.0 -9035750000.0 -9035750000.0 -9035750000.0 -9035750000.0 -9035750000.0 -9035760000.0 -9035760000.0 -9035760000.0 -9035760000.0 -9035770000.0 -9035770000.0 -9035780000.0 -9035790000.0 -9035800000.0 -9035810000.0 -9035820000.0 -9035840000.0 -9035860000.0 -9035890000.0 -9035920000.0 -9035970000.0 -9036040000.0 -9041820000.0 -9036250000.0 -9762320000.0 -9036640000.0 -11731000000.0 -9037420000.0 -13662400000.0 -9310910000.0 -18435900000.0 -10938300000.0 -21897600000.0 -19176800000.0 -25759100000.0 -15658300000.0 -19735800000.0 -23914300000.0 -23969100000.0 -25808300000.0 -24554500000.0 -22934100000.0 -22555500000.0 -18990400000.0 -15139300000.0 -24241700000.0 -17608000000.0 -20505900000.0 -10561500000.0 -17478700000.0 -9256700000.0 -13083200000.0 -9037350000.0 -11282100000.0 -9036610000.0 -9588560000.0 -9036230000.0 -9039090000.0 -9036030000.0 -9035960000.0 -9035920000.0 -9035880000.0 -9035850000.0 -9035830000.0 -9035820000.0 -9035800000.0 -9035790000.0 -9035790000.0 -9035780000.0 -9035770000.0 -9035770000.0 -9035760000.0 -9035760000.0 -9035760000.0 -9035760000.0 -9035750000.0 -9035750000.0 -9035750000.0 -9035750000.0 -9035750000.0 -9035760000.0 -9035760000.0 -9035760000.0 -9035760000.0 -9035770000.0 -9035770000.0 -9035780000.0 -9035790000.0 -9035790000.0 -9035800000.0 -9035820000.0 -9035830000.0 -9035850000.0 -9035880000.0 -9035920000.0 -9035960000.0 -9036030000.0 -9039090000.0 -9036230000.0 -9588560000.0 -9036610000.0 -11282100000.0 -9037350000.0 -13083200000.0 -9256700000.0 -17478700000.0 -10561500000.0 -20505900000.0 -17608000000.0 -24241700000.0 -15139300000.0 -18990400000.0 -22555500000.0 -22934100000.0 -24554500000.0 -23347200000.0 -21924500000.0 -21289200000.0 -18252200000.0 -14633700000.0 -22803100000.0 -16258000000.0 -19252600000.0 -10260100000.0 -16586400000.0 -9215670000.0 -12558000000.0 -9037270000.0 -10896700000.0 -9036560000.0 -9452970000.0 -9036200000.0 -9037600000.0 -9036010000.0 -9035950000.0 -9035910000.0 -9035870000.0 -9035850000.0 -9035830000.0 -9035810000.0 -9035800000.0 -9035790000.0 -9035780000.0 -9035780000.0 -9035770000.0 -9035770000.0 -9035760000.0 -9035760000.0 -9035760000.0 -9035760000.0 -9035750000.0 -9035750000.0 -9035750000.0 -9035750000.0 -9035750000.0 -9035760000.0 -9035760000.0 -9035760000.0 -9035760000.0 -9035770000.0 -9035770000.0 -9035780000.0 -9035780000.0 -9035790000.0 -9035800000.0 -9035810000.0 -9035830000.0 -9035850000.0 -9035870000.0 -9035910000.0 -9035950000.0 -9036010000.0 -9037600000.0 -9036200000.0 -9452970000.0 -9036560000.0 -10896700000.0 -9037270000.0 -12558000000.0 -9215670000.0 -16586400000.0 -10260100000.0 -19252600000.0 -16258000000.0 -22803100000.0 -14633700000.0 -18252200000.0 -21289200000.0 -21924500000.0 -23347200000.0 -22185600000.0 -20939400000.0 -20110000000.0 -17525700000.0 -14144100000.0 -21445900000.0 -15101100000.0 -18121000000.0 -10019300000.0 -15757300000.0 -9184120000.0 -12084600000.0 -9037190000.0 -10568200000.0 -9036520000.0 -9348080000.0 -9036180000.0 -9036810000.0 -9036000000.0 -9035940000.0 -9035900000.0 -9035870000.0 -9035840000.0 -9035830000.0 -9035810000.0 -9035800000.0 -9035790000.0 -9035780000.0 -9035780000.0 -9035770000.0 -9035770000.0 -9035760000.0 -9035760000.0 -9035760000.0 -9035760000.0 -9035750000.0 -9035750000.0 -9035750000.0 -9035750000.0 -9035750000.0 -9035760000.0 -9035760000.0 -9035760000.0 -9035760000.0 -9035770000.0 -9035770000.0 -9035780000.0 -9035780000.0 -9035790000.0 -9035800000.0 -9035810000.0 -9035830000.0 -9035840000.0 -9035870000.0 -9035900000.0 -9035940000.0 -9036000000.0 -9036810000.0 -9036180000.0 -9348080000.0 -9036520000.0 -10568200000.0 -9037190000.0 -12084600000.0 -9184120000.0 -15757300000.0 -10019300000.0 -18121000000.0 -15101100000.0 -21445900000.0 -14144100000.0 -17525700000.0 -20110000000.0 -20939400000.0 -22185600000.0 -21068300000.0 -19978100000.0 -19011600000.0 -16814600000.0 -13672400000.0 -20170700000.0 -14113200000.0 -17096400000.0 -9827050000.0 -14989900000.0 -9159390000.0 -11660500000.0 -9037100000.0 -10290000000.0 -9036470000.0 -9267620000.0 -9036150000.0 -9036400000.0 -9035980000.0 -9035930000.0 -9035890000.0 -9035860000.0 -9035840000.0 -9035820000.0 -9035810000.0 -9035800000.0 -9035790000.0 -9035780000.0 -9035770000.0 -9035770000.0 -9035770000.0 -9035760000.0 -9035760000.0 -9035760000.0 -9035760000.0 -9035750000.0 -9035750000.0 -9035750000.0 -9035750000.0 -9035750000.0 -9035760000.0 -9035760000.0 -9035760000.0 -9035760000.0 -9035770000.0 -9035770000.0 -9035770000.0 -9035780000.0 -9035790000.0 -9035800000.0 -9035810000.0 -9035820000.0 -9035840000.0 -9035860000.0 -9035890000.0 -9035930000.0 -9035980000.0 -9036400000.0 -9036150000.0 -9267620000.0 -9036470000.0 -10290000000.0 -9037100000.0 -11660500000.0 -9159390000.0 -14989900000.0 -9827050000.0 -17096400000.0 -14113200000.0 -20170700000.0 -13672400000.0 -16814600000.0 -19011600000.0 -19978100000.0 -21068300000.0 -19993600000.0 -19040700000.0 -17987800000.0 -16121800000.0 -13220200000.0 -18976400000.0 -13272200000.0 -16165900000.0 -9673430000.0 -14282300000.0 -9139610000.0 -11282800000.0 -9037010000.0 -10056100000.0 -9036420000.0 -9206460000.0 -9036130000.0 -9036190000.0 -9035970000.0 -9035920000.0 -9035880000.0 -9035850000.0 -9035830000.0 -9035820000.0 -9035800000.0 -9035790000.0 -9035780000.0 -9035780000.0 -9035770000.0 -9035770000.0 -9035760000.0 -9035760000.0 -9035760000.0 -9035760000.0 -9035760000.0 -9035750000.0 -9035750000.0 -9035750000.0 -9035750000.0 -9035750000.0 -9035760000.0 -9035760000.0 -9035760000.0 -9035760000.0 -9035760000.0 -9035770000.0 -9035770000.0 -9035780000.0 -9035780000.0 -9035790000.0 -9035800000.0 -9035820000.0 -9035830000.0 -9035850000.0 -9035880000.0 -9035920000.0 -9035970000.0 -9036190000.0 -9036130000.0 -9206460000.0 -9036420000.0 -10056100000.0 -9037010000.0 -11282800000.0 -9139610000.0 -14282300000.0 -9673430000.0 -16165900000.0 -13272200000.0 -18976400000.0 -13220200000.0 -16121800000.0 -17987800000.0 -19040700000.0 -19993600000.0 -18959200000.0 -18127100000.0 -17032000000.0 -15448900000.0 -12788100000.0 -17860700000.0 -12557800000.0 -15318500000.0 -9550420000.0 -13631800000.0 -9123470000.0 -10948100000.0 -9036920000.0 -9860550000.0 -9036370000.0 -9160360000.0 -9036100000.0 -9036080000.0 -9035950000.0 -9035900000.0 -9035870000.0 -9035840000.0 -9035830000.0 -9035810000.0 -9035800000.0 -9035790000.0 -9035780000.0 -9035780000.0 -9035770000.0 -9035770000.0 -9035760000.0 -9035760000.0 -9035760000.0 -9035760000.0 -9035750000.0 -9035750000.0 -9035750000.0 -9035750000.0 -9035750000.0 -9035750000.0 -9035750000.0 -9035760000.0 -9035760000.0 -9035760000.0 -9035760000.0 -9035770000.0 -9035770000.0 -9035780000.0 -9035780000.0 -9035790000.0 -9035800000.0 -9035810000.0 -9035830000.0 -9035840000.0 -9035870000.0 -9035900000.0 -9035950000.0 -9036080000.0 -9036100000.0 -9160360000.0 -9036370000.0 -9860550000.0 -9036920000.0 -10948100000.0 -9123470000.0 -13631800000.0 -9550420000.0 -15318500000.0 -12557800000.0 -17860700000.0 -12788100000.0 -15448900000.0 -17032000000.0 -18127100000.0 -18959200000.0 -17962500000.0 -17237300000.0 -16137900000.0 -14797200000.0 -12376700000.0 -16820200000.0 -11952200000.0 -14544200000.0 -9451590000.0 -13035900000.0 -9110040000.0 -10652900000.0 -9036820000.0 -9698160000.0 -9036320000.0 -9125920000.0 -9036070000.0 -9036020000.0 -9035930000.0 -9035890000.0 -9035860000.0 -9035840000.0 -9035820000.0 -9035810000.0 -9035800000.0 -9035790000.0 -9035780000.0 -9035770000.0 -9035770000.0 -9035770000.0 -9035760000.0 -9035760000.0 -9035760000.0 -9035760000.0 -9035750000.0 -9035750000.0 -9035750000.0 -9035750000.0 -9035750000.0 -9035750000.0 -9035750000.0 -9035760000.0 -9035760000.0 -9035760000.0 -9035760000.0 -9035770000.0 -9035770000.0 -9035770000.0 -9035780000.0 -9035790000.0 -9035800000.0 -9035810000.0 -9035820000.0 -9035840000.0 -9035860000.0 -9035890000.0 -9035930000.0 -9036020000.0 -9036070000.0 -9125920000.0 -9036320000.0 -9698160000.0 -9036820000.0 -10652900000.0 -9110040000.0 -13035900000.0 -9451590000.0 -14544200000.0 -11952200000.0 -16820200000.0 -12376700000.0 -14797200000.0 -16137900000.0 -17237300000.0 -17962500000.0 -17000800000.0 -16370600000.0 -15299100000.0 -14167000000.0 -11985600000.0 -15850400000.0 -11439100000.0 -13834500000.0 -9371800000.0 -12491000000.0 -9098640000.0 -10393600000.0 -9036730000.0 -9564080000.0 -9036270000.0 -9100430000.0 -9036040000.0 -9035980000.0 -9035920000.0 -9035880000.0 -9035850000.0 -9035830000.0 -9035810000.0 -9035800000.0 -9035790000.0 -9035780000.0 -9035780000.0 -9035770000.0 -9035770000.0 -9035760000.0 -9035760000.0 -9035760000.0 -9035760000.0 -9035760000.0 -9035750000.0 -9035750000.0 -9035750000.0 -9035750000.0 -9035750000.0 -9035750000.0 -9035750000.0 -9035760000.0 -9035760000.0 -9035760000.0 -9035760000.0 -9035760000.0 -9035770000.0 -9035770000.0 -9035780000.0 -9035780000.0 -9035790000.0 -9035800000.0 -9035810000.0 -9035830000.0 -9035850000.0 -9035880000.0 -9035920000.0 -9035980000.0 -9036040000.0 -9100430000.0 -9036270000.0 -9564080000.0 -9036730000.0 -10393600000.0 -9098640000.0 -12491000000.0 -9371800000.0 -13834500000.0 -11439100000.0 -15850400000.0 -11985600000.0 -14167000000.0 -15299100000.0 -16370600000.0 -17000800000.0 -16071100000.0 -15526400000.0 -14509600000.0 -13558000000.0 -11614200000.0 -14946300000.0 -11004600000.0 -13181600000.0 -9306940000.0 -11993400000.0 -9088810000.0 -10166600000.0 -9036630000.0 -9453940000.0 -9036220000.0 -9081730000.0 -9036010000.0 -9035950000.0 -9035900000.0 -9035870000.0 -9035840000.0 -9035820000.0 -9035810000.0 -9035800000.0 -9035790000.0 -9035780000.0 -9035770000.0 -9035770000.0 -9035770000.0 -9035760000.0 -9035760000.0 -9035760000.0 -9035760000.0 -9035760000.0 -9035750000.0 -9035750000.0 -9035750000.0 -9035750000.0 -9035750000.0 -9035750000.0 -9035750000.0 -9035760000.0 -9035760000.0 -9035760000.0 -9035760000.0 -9035760000.0 -9035770000.0 -9035770000.0 -9035770000.0 -9035780000.0 -9035790000.0 -9035800000.0 -9035810000.0 -9035820000.0 -9035840000.0 -9035870000.0 -9035900000.0 -9035950000.0 -9036010000.0 -9081730000.0 -9036220000.0 -9453940000.0 -9036630000.0 -10166600000.0 -9088810000.0 -11993400000.0 -9306940000.0 -13181600000.0 -11004600000.0 -14946300000.0 -11614200000.0 -13558000000.0 -14509600000.0 -15526400000.0 -16071100000.0 -15170300000.0 -14703500000.0 -13763600000.0 -12969400000.0 -11261400000.0 -14102200000.0 -10635900000.0 -12578300000.0 -9253780000.0 -11539100000.0 -9080200000.0 -9968060000.0 -9036530000.0 -9363860000.0 -9036170000.0 -9068130000.0 -9035980000.0 -9035930000.0 -9035880000.0 -9035850000.0 -9035830000.0 -9035810000.0 -9035800000.0 -9035790000.0 -9035780000.0 -9035780000.0 -9035770000.0 -9035770000.0 -9035770000.0 -9035760000.0 -9035760000.0 -9035760000.0 -9035760000.0 -9035760000.0 -9035750000.0 -9035750000.0 -9035750000.0 -9035750000.0 -9035750000.0 -9035750000.0 -9035750000.0 -9035760000.0 -9035760000.0 -9035760000.0 -9035760000.0 -9035760000.0 -9035770000.0 -9035770000.0 -9035770000.0 -9035780000.0 -9035780000.0 -9035790000.0 -9035800000.0 -9035810000.0 -9035830000.0 -9035850000.0 -9035880000.0 -9035930000.0 -9035980000.0 -9068130000.0 -9036170000.0 -9363860000.0 -9036530000.0 -9968060000.0 -9080200000.0 -11539100000.0 -9253780000.0 -12578300000.0 -10635900000.0 -14102200000.0 -11261400000.0 -12969400000.0 -13763600000.0 -14703500000.0 -15170300000.0 -14295300000.0 -13900300000.0 -13055300000.0 -12399900000.0 -10925800000.0 -13311900000.0 -10322000000.0 -12018200000.0 -9209740000.0 -11123600000.0 -9072550000.0 -9794380000.0 -9036430000.0 -9290360000.0 -9036110000.0 -9058320000.0 -9035950000.0 -9035900000.0 -9035870000.0 -9035840000.0 -9035820000.0 -9035810000.0 -9035790000.0 -9035790000.0 -9035780000.0 -9035770000.0 -9035770000.0 -9035770000.0 -9035760000.0 -9035760000.0 -9035760000.0 -9035760000.0 -9035760000.0 -9035750000.0 -9035750000.0 -9035750000.0 -9035750000.0 -9035750000.0 -9035750000.0 -9035750000.0 -9035750000.0 -9035750000.0 -9035760000.0 -9035760000.0 -9035760000.0 -9035760000.0 -9035760000.0 -9035770000.0 -9035770000.0 -9035770000.0 -9035780000.0 -9035790000.0 -9035790000.0 -9035810000.0 -9035820000.0 -9035840000.0 -9035870000.0 -9035900000.0 -9035950000.0 -9058320000.0 -9036110000.0 -9290360000.0 -9036430000.0 -9794380000.0 -9072550000.0 -11123600000.0 -9209740000.0 -12018200000.0 -10322000000.0 -13311900000.0 -10925800000.0 -12399900000.0 -13055300000.0 -13900300000.0 -14295300000.0 -13442600000.0 -13114900000.0 -12379300000.0 -11847600000.0 -10605600000.0 -12568800000.0 -10053200000.0 -11495000000.0 -9172780000.0 -10742000000.0 -9065680000.0 -9641970000.0 -9036320000.0 -9230380000.0 -9036060000.0 -9051290000.0 -9035920000.0 -9035880000.0 -9035850000.0 -9035830000.0 -9035810000.0 -9035800000.0 -9035790000.0 -9035780000.0 -9035780000.0 -9035770000.0 -9035770000.0 -9035760000.0 -9035760000.0 -9035760000.0 -9035760000.0 -9035760000.0 -9035760000.0 -9035750000.0 -9035750000.0 -9035750000.0 -9035750000.0 -9035750000.0 -9035750000.0 -9035750000.0 -9035750000.0 -9035750000.0 -9035760000.0 -9035760000.0 -9035760000.0 -9035760000.0 -9035760000.0 -9035760000.0 -9035770000.0 -9035770000.0 -9035780000.0 -9035780000.0 -9035790000.0 -9035800000.0 -9035810000.0 -9035830000.0 -9035850000.0 -9035880000.0 -9035920000.0 -9051290000.0 -9036060000.0 -9230380000.0 -9036320000.0 -9641970000.0 -9065680000.0 -10742000000.0 -9172780000.0 -11495000000.0 -10053200000.0 -12568800000.0 -10605600000.0 -11847600000.0 -12379300000.0 -13114900000.0 -13442600000.0 -12608900000.0 -12345100000.0 -11730300000.0 -11310600000.0 -10298900000.0 -11866000000.0 -9820690000.0 -11002700000.0 -9141240000.0 -10389500000.0 -9059420000.0 -9507320000.0 -9036220000.0 -9181210000.0 -9036000000.0 -9046270000.0 -9035890000.0 -9035860000.0 -9035830000.0 -9035810000.0 -9035800000.0 -9035790000.0 -9035780000.0 -9035780000.0 -9035770000.0 -9035770000.0 -9035760000.0 -9035760000.0 -9035760000.0 -9035760000.0 -9035760000.0 -9035760000.0 -9035760000.0 -9035750000.0 -9035750000.0 -9035750000.0 -9035750000.0 -9035750000.0 -9035750000.0 -9035750000.0 -9035750000.0 -9035750000.0 -9035760000.0 -9035760000.0 -9035760000.0 -9035760000.0 -9035760000.0 -9035760000.0 -9035760000.0 -9035770000.0 -9035770000.0 -9035780000.0 -9035780000.0 -9035790000.0 -9035800000.0 -9035810000.0 -9035830000.0 -9035860000.0 -9035890000.0 -9046270000.0 -9036000000.0 -9181210000.0 -9036220000.0 -9507320000.0 -9059420000.0 -10389500000.0 -9141240000.0 -11002700000.0 -9820690000.0 -11866000000.0 -10298900000.0 -11310600000.0 -11730300000.0 -12345100000.0 -12608900000.0 -11790700000.0 -11588400000.0 -11103200000.0 -10786400000.0 -10003500000.0 -11196400000.0 -9616670000.0 -10535600000.0 -9113760000.0 -10061000000.0 -9053640000.0 -9387010000.0 -9036120000.0 -9140450000.0 -9035950000.0 -9042680000.0 -9035860000.0 -9035830000.0 -9035810000.0 -9035800000.0 -9035790000.0 -9035780000.0 -9035780000.0 -9035770000.0 -9035770000.0 -9035760000.0 -9035760000.0 -9035760000.0 -9035760000.0 -9035760000.0 -9035760000.0 -9035760000.0 -9035750000.0 -9035750000.0 -9035750000.0 -9035750000.0 -9035750000.0 -9035750000.0 -9035750000.0 -9035750000.0 -9035750000.0 -9035750000.0 -9035750000.0 -9035760000.0 -9035760000.0 -9035760000.0 -9035760000.0 -9035760000.0 -9035760000.0 -9035760000.0 -9035770000.0 -9035770000.0 -9035780000.0 -9035780000.0 -9035790000.0 -9035800000.0 -9035810000.0 -9035830000.0 -9035860000.0 -9042680000.0 -9035950000.0 -9140450000.0 -9036120000.0 -9387010000.0 -9053640000.0 -10061000000.0 -9113760000.0 -10535600000.0 -9616670000.0 -11196400000.0 -10003500000.0 -10786400000.0 -11103200000.0 -11588400000.0 -11790700000.0 -10984600000.0 -10842000000.0 -10493000000.0 -10272300000.0 -9717040000.0 -10552700000.0 -9434030000.0 -10087900000.0 -9089240000.0 -9751080000.0 -9048210000.0 -9277710000.0 -9036010000.0 -9105950000.0 -9035890000.0 -9040070000.0 -9035830000.0 -9035810000.0 -9035800000.0 -9035790000.0 -9035780000.0 -9035770000.0 -9035770000.0 -9035770000.0 -9035760000.0 -9035760000.0 -9035760000.0 -9035760000.0 -9035760000.0 -9035760000.0 -9035760000.0 -9035750000.0 -9035750000.0 -9035750000.0 -9035750000.0 -9035750000.0 -9035750000.0 -9035750000.0 -9035750000.0 -9035750000.0 -9035750000.0 -9035750000.0 -9035750000.0 -9035750000.0 -9035760000.0 -9035760000.0 -9035760000.0 -9035760000.0 -9035760000.0 -9035760000.0 -9035760000.0 -9035770000.0 -9035770000.0 -9035770000.0 -9035780000.0 -9035790000.0 -9035800000.0 -9035810000.0 -9035830000.0 -9040070000.0 -9035890000.0 -9105950000.0 -9036010000.0 -9277710000.0 -9048210000.0 -9751080000.0 -9089240000.0 -10087900000.0 -9434030000.0 -10552700000.0 -9717040000.0 -10272300000.0 -10493000000.0 -10842000000.0 -10984600000.0 -10187200000.0 -10103100000.0 -9894640000.0 -9765590000.0 -9436950000.0 -9927480000.0 -9266200000.0 -9653900000.0 -9066710000.0 -9454510000.0 -9043040000.0 -9176180000.0 -9035910000.0 -9075750000.0 -9035830000.0 -9038090000.0 -9035800000.0 -9035790000.0 -9035780000.0 -9035770000.0 -9035770000.0 -9035760000.0 -9035760000.0 -9035760000.0 -9035760000.0 -9035760000.0 -9035760000.0 -9035760000.0 -9035760000.0 -9035750000.0 -9035750000.0 -9035750000.0 -9035750000.0 -9035750000.0 -9035750000.0 -9035750000.0 -9035750000.0 -9035750000.0 -9035750000.0 -9035750000.0 -9035750000.0 -9035750000.0 -9035750000.0 -9035750000.0 -9035750000.0 -9035750000.0 -9035760000.0 -9035760000.0 -9035760000.0 -9035760000.0 -9035760000.0 -9035760000.0 -9035760000.0 -9035760000.0 -9035770000.0 -9035770000.0 -9035780000.0 -9035790000.0 -9035800000.0 -9038090000.0 -9035830000.0 -9075750000.0 -9035910000.0 -9176180000.0 -9043040000.0 -9454510000.0 -9066710000.0 -9653900000.0 -9266200000.0 -9927480000.0 -9436950000.0 -9765590000.0 -9894640000.0 -10103100000.0 -10187200000.0 -9394760000.0 -9368560000.0 -9303300000.0 -9263220000.0 -9160690000.0 -9313250000.0 -9107010000.0 -9228070000.0 -9045330000.0 -9165850000.0 -9038020000.0 -9079230000.0 -9035800000.0 -9048040000.0 -9035780000.0 -9036450000.0 -9035770000.0 -9035760000.0 -9035760000.0 -9035760000.0 -9035760000.0 -9035760000.0 -9035760000.0 -9035760000.0 -9035750000.0 -9035750000.0 -9035750000.0 -9035750000.0 -9035750000.0 -9035750000.0 -9035750000.0 -9035750000.0 -9035750000.0 -9035750000.0 -9035750000.0 -9035750000.0 -9035750000.0 -9035750000.0 -9035750000.0 -9035750000.0 -9035750000.0 -9035750000.0 -9035750000.0 -9035750000.0 -9035750000.0 -9035750000.0 -9035750000.0 -9035750000.0 -9035750000.0 -9035750000.0 -9035750000.0 -9035760000.0 -9035760000.0 -9035760000.0 -9035760000.0 -9035760000.0 -9035760000.0 -9035760000.0 -9035770000.0 -9036450000.0 -9035780000.0 -9048040000.0 -9035800000.0 -9079230000.0 -9038020000.0 -9165850000.0 -9045330000.0 -9228070000.0 -9107010000.0 -9313250000.0 -9160690000.0 -9263220000.0 -9303300000.0 -9368560000.0 -9394760000.0 
SCALARS Shear_Stress float 1
LOOKUP_TABLE default
21025900000.0 684434000000.0 29707100000.0 80169900000.0 170472000000.0 170472000000.0 80169900000.0 29707100000.0 684434000000.0 21025900000.0 71006900000.0 127114000000.0 182334000000.0 319005000000.0 131747000000.0 184472000000.0 153521000000.0 129764000000.0 146357000000.0 136871000000.0 128961000000.0 123477000000.0 119411000000.0 116432000000.0 115452000000.0 116620000000.0 119092000000.0 122004000000.0 124913000000.0 127621000000.0 129970000000.0 131825000000.0 133126000000.0 133887000000.0 134140000000.0 133887000000.0 133126000000.0 131825000000.0 129970000000.0 127621000000.0 124913000000.0 122004000000.0 119092000000.0 116620000000.0 115452000000.0 116432000000.0 119411000000.0 123477000000.0 128961000000.0 136871000000.0 146357000000.0 129764000000.0 153521000000.0 184472000000.0 131747000000.0 319005000000.0 182334000000.0 127114000000.0 71006900000.0 44710500000.0 257376000000.0 831375000000.0 138447000000.0 324979000000.0 76479100000.0 35839500000.0 60579300000.0 11048700000.0 103511000000.0 105181000000.0 111640000000.0 114500000000.0 118129000000.0 121999000000.0 125452000000.0 128680000000.0 132169000000.0 135997000000.0 139831000000.0 143283000000.0 146131000000.0 148324000000.0 149880000000.0 150800000000.0 151119000000.0 150800000000.0 149880000000.0 148324000000.0 146131000000.0 143283000000.0 139831000000.0 135997000000.0 132169000000.0 128680000000.0 125452000000.0 121999000000.0 118129000000.0 114500000000.0 111640000000.0 105181000000.0 103511000000.0 11048700000.0 60579300000.0 35839500000.0 76479100000.0 324979000000.0 138447000000.0 831375000000.0 257376000000.0 44710500000.0 52976400000.0 240149000000.0 254232000000.0 191260000000.0 283449000000.0 283449000000.0 191260000000.0 254232000000.0 240149000000.0 52976400000.0 84328300000.0 239610000000.0 216688000000.0 290791000000.0 238354000000.0 315733000000.0 633344000000.0 147518000000.0 52909200000.0 74949500000.0 67776000000.0 98029400000.0 61957700000.0 58432800000.0 48618900000.0 66276100000.0 77323700000.0 87612800000.0 96962500000.0 105506000000.0 113124000000.0 119853000000.0 125805000000.0 131014000000.0 135450000000.0 139062000000.0 141830000000.0 143804000000.0 144985000000.0 145403000000.0 144985000000.0 143804000000.0 141830000000.0 139062000000.0 135450000000.0 131014000000.0 125805000000.0 119853000000.0 113124000000.0 105506000000.0 96962500000.0 87612800000.0 77323700000.0 66276100000.0 48618900000.0 58432800000.0 61957700000.0 98029400000.0 67776000000.0 74949500000.0 52909200000.0 147518000000.0 633344000000.0 315733000000.0 238354000000.0 290791000000.0 216688000000.0 239610000000.0 84328300000.0 146709000000.0 125042000000.0 323055000000.0 196364000000.0 368285000000.0 17956000000.0 464566000000.0 493734000000.0 175049000000.0 3018250000.0 69813800000.0 100569000000.0 122989000000.0 128451000000.0 158336000000.0 171054000000.0 181469000000.0 189786000000.0 196274000000.0 201368000000.0 205436000000.0 208640000000.0 211115000000.0 213036000000.0 214525000000.0 215607000000.0 216310000000.0 216667000000.0 216791000000.0 216667000000.0 216310000000.0 215607000000.0 214525000000.0 213036000000.0 211115000000.0 208640000000.0 205436000000.0 201368000000.0 196274000000.0 189786000000.0 181470000000.0 171054000000.0 158336000000.0 128451000000.0 122989000000.0 100569000000.0 69813800000.0 3018250000.0 175049000000.0 493734000000.0 464566000000.0 17956000000.0 368285000000.0 196364000000.0 323055000000.0 125042000000.0 146709000000.0 109487000000.0 409978000000.0 244421000000.0 450207000000.0 628996000000.0 349817000000.0 294532000000.0 114491000000.0 114491000000.0 294532000000.0 349817000000.0 628996000000.0 450207000000.0 244421000000.0 409978000000.0 109487000000.0 151529000000.0 357605000000.0 400175000000.0 482189000000.0 563058000000.0 70167900000.0 568647000000.0 194269000000.0 156930000000.0 171448000000.0 64588200000.0 86953600000.0 92767600000.0 88215400000.0 183180000000.0 191702000000.0 225872000000.0 238728000000.0 247961000000.0 253674000000.0 256427000000.0 256892000000.0 255959000000.0 254277000000.0 252233000000.0 250179000000.0 248338000000.0 246806000000.0 245649000000.0 244916000000.0 244663000000.0 244916000000.0 245649000000.0 246806000000.0 248338000000.0 250179000000.0 252233000000.0 254277000000.0 255959000000.0 256892000000.0 256427000000.0 253674000000.0 247961000000.0 238728000000.0 225872000000.0 191702000000.0 183180000000.0 88215400000.0 92767600000.0 86953600000.0 64588200000.0 171448000000.0 156930000000.0 194269000000.0 568647000000.0 70167900000.0 563058000000.0 482189000000.0 400175000000.0 357605000000.0 151529000000.0 86260900000.0 213324000000.0 357513000000.0 346460000000.0 419763000000.0 467743000000.0 536822000000.0 90250800000.0 189454000000.0 38966100000.0 64668400000.0 120160000000.0 181995000000.0 84305600000.0 85987600000.0 51884500000.0 198250000000.0 204109000000.0 236120000000.0 246851000000.0 253350000000.0 256630000000.0 257722000000.0 257213000000.0 255703000000.0 253780000000.0 251833000000.0 250017000000.0 248403000000.0 247072000000.0 246097000000.0 245523000000.0 245330000000.0 245523000000.0 246097000000.0 247072000000.0 248403000000.0 250017000000.0 251833000000.0 253780000000.0 255703000000.0 257213000000.0 257722000000.0 256630000000.0 253350000000.0 246851000000.0 236120000000.0 204109000000.0 198250000000.0 51884500000.0 85987600000.0 84305600000.0 181995000000.0 120160000000.0 64668400000.0 38966100000.0 189454000000.0 90250800000.0 536822000000.0 467743000000.0 419763000000.0 346460000000.0 357513000000.0 213324000000.0 86260900000.0 80488800000.0 145817000000.0 353135000000.0 371039000000.0 280593000000.0 386508000000.0 142277000000.0 18759300000.0 17079900000.0 95151900000.0 95151900000.0 17079900000.0 18759300000.0 142277000000.0 386508000000.0 280593000000.0 371039000000.0 353135000000.0 145817000000.0 80488800000.0 28474900000.0 63378600000.0 256238000000.0 101203000000.0 341898000000.0 347621000000.0 407226000000.0 520606000000.0 428132000000.0 282457000000.0 256868000000.0 326508000000.0 241056000000.0 62087700000.0 106246000000.0 25387800000.0 7051770000.0 216099000000.0 222891000000.0 249900000000.0 258119000000.0 262752000000.0 264569000000.0 264275000000.0 262399000000.0 259623000000.0 256574000000.0 253624000000.0 250902000000.0 248531000000.0 246624000000.0 245206000000.0 244308000000.0 243996000000.0 244308000000.0 245206000000.0 246624000000.0 248531000000.0 250902000000.0 253624000000.0 256574000000.0 259623000000.0 262399000000.0 264275000000.0 264569000000.0 262752000000.0 258119000000.0 249900000000.0 222891000000.0 216099000000.0 7051770000.0 25387800000.0 106246000000.0 62087700000.0 241056000000.0 326508000000.0 256868000000.0 282457000000.0 428132000000.0 520606000000.0 407226000000.0 347621000000.0 341898000000.0 101203000000.0 256238000000.0 63378600000.0 28474900000.0 3018560000.0 193016000000.0 174023000000.0 71389300000.0 213378000000.0 129519000000.0 350435000000.0 410150000000.0 646025000000.0 145230000000.0 220555000000.0 57556900000.0 308911000000.0 193393000000.0 130962000000.0 255655000000.0 270881000000.0 284420000000.0 286708000000.0 286352000000.0 283618000000.0 279179000000.0 273569000000.0 267387000000.0 261177000000.0 255318000000.0 250058000000.0 245589000000.0 242041000000.0 239477000000.0 237937000000.0 237426000000.0 237937000000.0 239477000000.0 242041000000.0 245589000000.0 250058000000.0 255318000000.0 261177000000.0 267387000000.0 273569000000.0 279179000000.0 283618000000.0 286352000000.0 286708000000.0 284420000000.0 270881000000.0 255655000000.0 130962000000.0 193393000000.0 308911000000.0 57556900000.0 220555000000.0 145230000000.0 646025000000.0 410150000000.0 350435000000.0 129519000000.0 213378000000.0 71389300000.0 174023000000.0 193016000000.0 3018560000.0 104904000000.0 99179700000.0 206589000000.0 187173000000.0 182769000000.0 13081500000.0 466017000000.0 581051000000.0 6016710000.0 90119500000.0 193099000000.0 155377000000.0 224845000000.0 148457000000.0 48363500000.0 82886800000.0 82886800000.0 48363500000.0 148457000000.0 224845000000.0 155377000000.0 193099000000.0 90119500000.0 6016710000.0 581051000000.0 466017000000.0 13081500000.0 182769000000.0 187173000000.0 206589000000.0 99179700000.0 104904000000.0 131747000000.0 342516000000.0 40798000000.0 34684100000.0 151220000000.0 158853000000.0 14784800000.0 29273000000.0 125994000000.0 382749000000.0 189965000000.0 297771000000.0 315948000000.0 356831000000.0 337703000000.0 163979000000.0 351409000000.0 4018100000.0 166501000000.0 208608000000.0 268191000000.0 282024000000.0 280461000000.0 273046000000.0 263156000000.0 252424000000.0 241618000000.0 231090000000.0 221164000000.0 212154000000.0 204264000000.0 197643000000.0 192410000000.0 188649000000.0 186402000000.0 185660000000.0 186402000000.0 188649000000.0 192410000000.0 197643000000.0 204264000000.0 212154000000.0 221164000000.0 231090000000.0 241618000000.0 252424000000.0 263156000000.0 273046000000.0 280461000000.0 282024000000.0 268191000000.0 208608000000.0 166501000000.0 4018100000.0 351409000000.0 163979000000.0 337703000000.0 356831000000.0 315948000000.0 297771000000.0 189965000000.0 382749000000.0 125994000000.0 29273000000.0 14784800000.0 158853000000.0 151220000000.0 34684100000.0 40798000000.0 342516000000.0 131747000000.0 60712100000.0 49096700000.0 528931000000.0 4142530000.0 165324000000.0 233352000000.0 81722900000.0 381862000000.0 22335700000.0 402784000000.0 264028000000.0 367713000000.0 254710000000.0 273488000000.0 10280500000.0 110952000000.0 96390800000.0 70892300000.0 50094000000.0 42944100000.0 41410200000.0 39781400000.0 36953400000.0 33275400000.0 29259400000.0 25256600000.0 21516400000.0 18244700000.0 15557400000.0 13545400000.0 12307800000.0 11892500000.0 12307800000.0 13545400000.0 15557400000.0 18244700000.0 21516400000.0 25256600000.0 29259400000.0 33275400000.0 36953400000.0 39781400000.0 41410200000.0 42944100000.0 50094000000.0 70892300000.0 96390800000.0 110952000000.0 10280500000.0 273488000000.0 254710000000.0 367713000000.0 264028000000.0 402784000000.0 22335700000.0 381862000000.0 81722900000.0 233352000000.0 165324000000.0 4142530000.0 528931000000.0 49096700000.0 60712100000.0 299501000000.0 606576000000.0 64708500000.0 35085200000.0 194112000000.0 314137000000.0 27711500000.0 300225000000.0 328112000000.0 260120000000.0 182929000000.0 227496000000.0 6560500000.0 21876800000.0 27698400000.0 50777800000.0 50777700000.0 27698400000.0 21876900000.0 6560500000.0 227496000000.0 182929000000.0 260120000000.0 328112000000.0 300225000000.0 27711500000.0 314137000000.0 194112000000.0 35085200000.0 64708500000.0 606576000000.0 299501000000.0 108058000000.0 132689000000.0 339144000000.0 116370000000.0 246569000000.0 204796000000.0 35456800000.0 139862000000.0 26770100000.0 8735190000.0 158502000000.0 291713000000.0 506391000000.0 545324000000.0 631824000000.0 627776000000.0 407419000000.0 451221000000.0 272971000000.0 316407000000.0 413715000000.0 490975000000.0 461510000000.0 419798000000.0 390414000000.0 365929000000.0 343252000000.0 322253000000.0 303474000000.0 286990000000.0 272496000000.0 259841000000.0 249046000000.0 240126000000.0 233095000000.0 228008000000.0 224926000000.0 223893000000.0 224926000000.0 228008000000.0 233095000000.0 240126000000.0 249046000000.0 259841000000.0 272496000000.0 286990000000.0 303474000000.0 322253000000.0 343252000000.0 365929000000.0 390414000000.0 419798000000.0 461510000000.0 490975000000.0 413715000000.0 316407000000.0 272971000000.0 451221000000.0 407419000000.0 627776000000.0 631824000000.0 545324000000.0 506391000000.0 291713000000.0 158502000000.0 8735190000.0 26770100000.0 139862000000.0 35456800000.0 204796000000.0 246569000000.0 116370000000.0 339144000000.0 132689000000.0 108058000000.0 256922000000.0 226017000000.0 192806000000.0 431069000000.0 257819000000.0 148999000000.0 150974000000.0 47044100000.0 196501000000.0 111939000000.0 86398000000.0 469186000000.0 469186000000.0 86398000000.0 111939000000.0 196501000000.0 47044100000.0 150974000000.0 148999000000.0 257819000000.0 431069000000.0 192806000000.0 226017000000.0 256922000000.0 420227000000.0 79295500000.0 6277690000.0 186692000000.0 91858800000.0 48542000000.0 37329600000.0 214431000000.0 362226000000.0 343800000000.0 289295000000.0 382735000000.0 301914000000.0 344223000000.0 260740000000.0 119994000000.0 222634000000.0 166542000000.0 153699000000.0 126712000000.0 103523000000.0 84533100000.0 68314800000.0 54204200000.0 42057900000.0 31542600000.0 22566400000.0 15286500000.0 9657570000.0 5433980000.0 2390510000.0 341745000.0 855495000.0 1254760000.0 855495000.0 341745000.0 2390510000.0 5433980000.0 9657570000.0 15286500000.0 22566400000.0 31542600000.0 42057900000.0 54204200000.0 68314800000.0 84533100000.0 103523000000.0 126712000000.0 153699000000.0 166542000000.0 222634000000.0 119994000000.0 260740000000.0 344223000000.0 301914000000.0 382735000000.0 289295000000.0 343800000000.0 362226000000.0 214431000000.0 37329600000.0 48542000000.0 91858800000.0 186692000000.0 6277690000.0 79295500000.0 420227000000.0 75647900000.0 13239100000.0 38552400000.0 619090000000.0 121001000000.0 184063000000.0 72951000000.0 58978000000.0 80220600000.0 35390300000.0 27634500000.0 24473700000.0 87139900000.0 902262000.0 192104000000.0 192545000000.0 190105000000.0 186920000000.0 182856000000.0 177747000000.0 172046000000.0 166173000000.0 160211000000.0 154313000000.0 148721000000.0 143594000000.0 139010000000.0 135057000000.0 131851000000.0 129494000000.0 128057000000.0 127574000000.0 128057000000.0 129494000000.0 131851000000.0 135057000000.0 139010000000.0 143594000000.0 148721000000.0 154313000000.0 160211000000.0 166173000000.0 172046000000.0 177747000000.0 182856000000.0 186920000000.0 190105000000.0 192545000000.0 192104000000.0 902262000.0 87139900000.0 24473700000.0 27634500000.0 35390300000.0 80220600000.0 58978000000.0 72951000000.0 184063000000.0 121001000000.0 619090000000.0 38552400000.0 13239100000.0 75647900000.0 182119000000.0 227157000000.0 306997000000.0 250347000000.0 59279200000.0 45660800000.0 242972000000.0 87717100000.0 256924000000.0 212093000000.0 212093000000.0 256924000000.0 87717100000.0 242972000000.0 45660800000.0 59279200000.0 250347000000.0 306997000000.0 227157000000.0 182119000000.0 17904400000.0 17911200000.0 138730000000.0 5438940000.0 194928000000.0 100005000000.0 197211000000.0 157472000000.0 180477000000.0 147667000000.0 209056000000.0 147084000000.0 44353900000.0 39585900000.0 67075100000.0 24434300000.0 21734800000.0 33464400000.0 2991920000.0 104276000000.0 9035750000.0 9035750000.0 9035750000.0 9035750000.0 9035750000.0 9035750000.0 9035750000.0 9035750000.0 9035750000.0 9035750000.0 9035750000.0 9035750000.0 9035750000.0 9035750000.0 9035750000.0 9035750000.0 9035750000.0 9035820000.0 9035750000.0 9035750000.0 9035750000.0 9035750000.0 9035750000.0 9035750000.0 9035750000.0 9035750000.0 9035750000.0 9035750000.0 9035750000.0 9035750000.0 9035750000.0 9035750000.0 9035750000.0 9035750000.0 9035750000.0 104276000000.0 2991920000.0 33464400000.0 21734800000.0 24434300000.0 67075100000.0 39585900000.0 44353900000.0 147084000000.0 209056000000.0 147667000000.0 180477000000.0 157472000000.0 197211000000.0 100005000000.0 194928000000.0 5438940000.0 138730000000.0 17911200000.0 17904400000.0 16332400000.0 82536300000.0 28514500000.0 26214300000.0 104498000000.0 43366900000.0 167308000000.0 72027900000.0 116946000000.0 207569000000.0 276010000000.0 230611000000.0 254703000000.0 246667000000.0 222354000000.0 260104000000.0 191021000000.0 241368000000.0 219516000000.0 197988000000.0 177378000000.0 158516000000.0 141368000000.0 125648000000.0 111223000000.0 98088500000.0 86272900000.0 75802600000.0 66708200000.0 59019300000.0 52752200000.0 47904700000.0 44461400000.0 42404100000.0 41719700000.0 42404100000.0 44461400000.0 47904700000.0 52752200000.0 59019300000.0 66708200000.0 75802600000.0 86272900000.0 98088500000.0 111223000000.0 125648000000.0 141368000000.0 158516000000.0 177378000000.0 197988000000.0 219516000000.0 241368000000.0 191021000000.0 260104000000.0 222354000000.0 246667000000.0 254703000000.0 230611000000.0 276010000000.0 207569000000.0 116946000000.0 72027900000.0 167308000000.0 43366900000.0 104498000000.0 26214300000.0 28514500000.0 82536300000.0 16332400000.0 68984100000.0 176990000000.0 182098000000.0 182098000000.0 176990000000.0 68984100000.0 21877900000.0 53272700000.0 80610600000.0 72784500000.0 27252600000.0 25578700000.0 29580900000.0 125467000000.0 182030000000.0 200471000000.0 160858000000.0 78783800000.0 34650200000.0 27503300000.0 4215210000.0 60911200000.0 4987780000.0 72533300000.0 7008070000.0 42440900000.0 9035750000.0 9035750000.0 9035750000.0 9035750000.0 9035750000.0 9035750000.0 9035750000.0 9035750000.0 9035750000.0 9035750000.0 9035750000.0 9035750000.0 9035750000.0 9035750000.0 9035750000.0 9035750000.0 9035750000.0 9035750000.0 9035750000.0 9035750000.0 9035750000.0 9035750000.0 9035750000.0 9035750000.0 9035750000.0 9035750000.0 9035750000.0 9035750000.0 9035750000.0 9035750000.0 9035750000.0 9035750000.0 9035750000.0 9035750000.0 9035750000.0 42440900000.0 7008070000.0 72533300000.0 4987780000.0 60911200000.0 4215210000.0 27503300000.0 34650200000.0 78783800000.0 160858000000.0 200471000000.0 182030000000.0 125467000000.0 29580900000.0 25578700000.0 27252600000.0 72784500000.0 80610600000.0 53272700000.0 21877900000.0 11882600000.0 85347300000.0 1857710000.0 28982500000.0 46975900000.0 59882600000.0 36287200000.0 85974200000.0 116006000000.0 89486900000.0 12848700000.0 110584000000.0 184087000000.0 148627000000.0 146389000000.0 70096200000.0 112536000000.0 32328200000.0 88030000000.0 59955500000.0 62678200000.0 51847200000.0 42452700000.0 34284800000.0 27280600000.0 21377700000.0 16450400000.0 12335500000.0 8887750000.0 6002130000.0 3605000000.0 1637730000.0 49522700.0 1201520000.0 2146430000.0 2806670000.0 3196810000.0 3325810000.0 3196810000.0 2806670000.0 2146430000.0 1201520000.0 49522700.0 1637730000.0 3605000000.0 6002130000.0 8887750000.0 12335500000.0 16450400000.0 21377700000.0 27280600000.0 34284800000.0 42452700000.0 51847200000.0 62678200000.0 59955500000.0 88030000000.0 32328200000.0 112536000000.0 70096200000.0 146389000000.0 148627000000.0 184087000000.0 110584000000.0 12848700000.0 89486900000.0 116006000000.0 85974200000.0 36287200000.0 59882600000.0 46975900000.0 28982500000.0 1857710000.0 85347300000.0 11882600000.0 10757500000.0 87374700000.0 3398930000.0 12575800000.0 17938400000.0 416119000.0 14122300000.0 18840700000.0 130219000000.0 187185000000.0 171829000000.0 92286800000.0 8660550000.0 40287700000.0 8128910000.0 68479100000.0 8303970000.0 73953100000.0 9075290000.0 10890300000.0 9035750000.0 9035750000.0 9035750000.0 9035750000.0 9035750000.0 9035750000.0 9035750000.0 9035750000.0 9035750000.0 9035750000.0 9035750000.0 9035750000.0 9035750000.0 9035750000.0 9035750000.0 9035750000.0 9035750000.0 9035750000.0 9035750000.0 9035750000.0 9035750000.0 9035750000.0 9035750000.0 9035750000.0 9035750000.0 9035750000.0 9035750000.0 9035750000.0 9035750000.0 9035750000.0 9035750000.0 9035750000.0 9035750000.0 9035750000.0 9035750000.0 10890300000.0 9075290000.0 73953100000.0 8303970000.0 68479100000.0 8128910000.0 40287700000.0 8660550000.0 92286800000.0 171829000000.0 187185000000.0 130219000000.0 18840700000.0 14122300000.0 416119000.0 17938400000.0 12575800000.0 3398930000.0 87374700000.0 10757500000.0 24983400000.0 99137000000.0 28107500000.0 20832700000.0 24320200000.0 62492100000.0 77178500000.0 81624900000.0 173454000000.0 177589000000.0 129611000000.0 50154700000.0 16172900000.0 22087900000.0 7917500000.0 51442000000.0 2399940000.0 59104300000.0 1245750000.0 2751190000.0 3980200000.0 4997420000.0 5820930000.0 6481110000.0 7008200000.0 7430840000.0 7772570000.0 8050770000.0 8276550000.0 8458860000.0 8605100000.0 8720210000.0 8808990000.0 8876060000.0 8924390000.0 8956210000.0 8973980000.0 8979670000.0 8973980000.0 8956210000.0 8924390000.0 8876060000.0 8808990000.0 8720210000.0 8605100000.0 8458860000.0 8276550000.0 8050770000.0 7772570000.0 7430840000.0 7008200000.0 6481110000.0 5820930000.0 4997420000.0 3980200000.0 2751190000.0 1245750000.0 59104300000.0 2399940000.0 51442000000.0 7917500000.0 22087900000.0 16172900000.0 50154700000.0 129611000000.0 177589000000.0 173454000000.0 81624900000.0 77178500000.0 62492100000.0 24320200000.0 20832700000.0 28107500000.0 99137000000.0 24983400000.0 31199000000.0 96780700000.0 36638800000.0 17698600000.0 15510300000.0 57180600000.0 84653100000.0 69603100000.0 161766000000.0 178109000000.0 139905000000.0 67755800000.0 8930180000.0 44024500000.0 9035810000.0 61257600000.0 8978300000.0 61509600000.0 9035780000.0 9035780000.0 9035770000.0 9035770000.0 9035770000.0 9035770000.0 9035770000.0 9035780000.0 9035780000.0 9035780000.0 9035770000.0 9035770000.0 9035760000.0 9035760000.0 9035760000.0 9035760000.0 9035750000.0 9035750000.0 9035750000.0 9035750000.0 9035750000.0 9035750000.0 9035750000.0 9035760000.0 9035760000.0 9035760000.0 9035760000.0 9035770000.0 9035770000.0 9035780000.0 9035780000.0 9035780000.0 9035770000.0 9035770000.0 9035770000.0 9035770000.0 9035770000.0 9035780000.0 9035780000.0 61509600000.0 8978300000.0 61257600000.0 9035810000.0 44024500000.0 8930180000.0 67755800000.0 139905000000.0 178109000000.0 161766000000.0 69603100000.0 84653100000.0 57180600000.0 15510300000.0 17698600000.0 36638800000.0 96780700000.0 31199000000.0 36814600000.0 94684000000.0 43522500000.0 19339500000.0 16823100000.0 60641700000.0 97160000000.0 73634700000.0 154097000000.0 161731000000.0 120592000000.0 57117600000.0 8164150000.0 43342500000.0 9035910000.0 56693900000.0 9035810000.0 54246600000.0 9035820000.0 9035830000.0 9035810000.0 9035800000.0 9035800000.0 9035790000.0 9035790000.0 9035790000.0 9035790000.0 9035780000.0 9035770000.0 9035770000.0 9035760000.0 9035760000.0 9035760000.0 9035760000.0 9035760000.0 9035750000.0 9035750000.0 9035750000.0 9035750000.0 9035750000.0 9035760000.0 9035760000.0 9035760000.0 9035760000.0 9035760000.0 9035770000.0 9035770000.0 9035780000.0 9035790000.0 9035790000.0 9035790000.0 9035790000.0 9035800000.0 9035800000.0 9035810000.0 9035830000.0 9035820000.0 54246600000.0 9035810000.0 56693900000.0 9035910000.0 43342500000.0 8164150000.0 57117600000.0 120592000000.0 161731000000.0 154097000000.0 73634700000.0 97160000000.0 60641700000.0 16823100000.0 19339500000.0 43522500000.0 94684000000.0 36814600000.0 40755700000.0 91180500000.0 46982100000.0 18819700000.0 17116200000.0 58810000000.0 101068000000.0 74066200000.0 141136000000.0 144733000000.0 104488000000.0 52573100000.0 9035890000.0 42948300000.0 9036020000.0 52292400000.0 9035890000.0 47180500000.0 9035860000.0 9035870000.0 9035850000.0 9035830000.0 9035820000.0 9035810000.0 9035810000.0 9035800000.0 9035790000.0 9035780000.0 9035780000.0 9035770000.0 9035770000.0 9035760000.0 9035760000.0 9035760000.0 9035760000.0 9035750000.0 9035750000.0 9035750000.0 9035750000.0 9035750000.0 9035760000.0 9035760000.0 9035760000.0 9035760000.0 9035770000.0 9035770000.0 9035780000.0 9035780000.0 9035790000.0 9035800000.0 9035810000.0 9035810000.0 9035820000.0 9035830000.0 9035850000.0 9035870000.0 9035860000.0 47180500000.0 9035890000.0 52292400000.0 9036020000.0 42948300000.0 9035890000.0 52573100000.0 104488000000.0 144733000000.0 141136000000.0 74066200000.0 101068000000.0 58810000000.0 17116200000.0 18819700000.0 46982100000.0 91180500000.0 40755700000.0 19238100000.0 18434100000.0 127964000000.0 126842000000.0 87885800000.0 49006100000.0 9036140000.0 41737900000.0 9036110000.0 48078600000.0 9035960000.0 40645100000.0 9035900000.0 9035910000.0 9035880000.0 9035860000.0 9035840000.0 9035830000.0 9035820000.0 9035800000.0 9035790000.0 9035780000.0 9035780000.0 9035770000.0 9035770000.0 9035760000.0 9035760000.0 9035760000.0 9035760000.0 9035750000.0 9035750000.0 9035750000.0 9035750000.0 9035750000.0 9035760000.0 9035760000.0 9035760000.0 9035760000.0 9035770000.0 9035770000.0 9035780000.0 9035780000.0 9035790000.0 9035800000.0 9035820000.0 9035830000.0 9035840000.0 9035860000.0 9035880000.0 9035910000.0 9035900000.0 40645100000.0 9035960000.0 48078600000.0 9036110000.0 41737900000.0 9036140000.0 49006100000.0 87885800000.0 126842000000.0 127964000000.0 18434100000.0 19238100000.0 43619900000.0 86873700000.0 49260200000.0 57389500000.0 102096000000.0 75642100000.0 75642100000.0 102096000000.0 57389500000.0 49260200000.0 86873700000.0 43619900000.0 45604200000.0 81973000000.0 50888900000.0 20335000000.0 19740100000.0 56260000000.0 100858000000.0 77506200000.0 115162000000.0 110254000000.0 72949700000.0 45930900000.0 9036380000.0 40260600000.0 9036210000.0 44084800000.0 9036020000.0 34796100000.0 9035930000.0 9035950000.0 9035910000.0 9035880000.0 9035860000.0 9035840000.0 9035820000.0 9035810000.0 9035800000.0 9035790000.0 9035780000.0 9035770000.0 9035770000.0 9035770000.0 9035760000.0 9035760000.0 9035760000.0 9035750000.0 9035750000.0 9035750000.0 9035750000.0 9035750000.0 9035760000.0 9035760000.0 9035760000.0 9035770000.0 9035770000.0 9035770000.0 9035780000.0 9035790000.0 9035800000.0 9035810000.0 9035820000.0 9035840000.0 9035860000.0 9035880000.0 9035910000.0 9035950000.0 9035930000.0 34796100000.0 9036020000.0 44084800000.0 9036210000.0 40260600000.0 9036380000.0 45930900000.0 72949700000.0 110254000000.0 115162000000.0 77506200000.0 100858000000.0 56260000000.0 19740100000.0 20335000000.0 50888900000.0 81973000000.0 45604200000.0 9036610000.0 9036300000.0 9036070000.0 29698500000.0 9035960000.0 9035980000.0 9035930000.0 9035890000.0 9035870000.0 9035840000.0 9035830000.0 9035810000.0 9035800000.0 9035790000.0 9035780000.0 9035780000.0 9035770000.0 9035770000.0 9035760000.0 9035760000.0 9035760000.0 9035750000.0 9035750000.0 9035750000.0 9035750000.0 9035750000.0 9035760000.0 9035760000.0 9035760000.0 9035770000.0 9035770000.0 9035780000.0 9035780000.0 9035790000.0 9035800000.0 9035810000.0 9035830000.0 9035840000.0 9035870000.0 9035890000.0 9035930000.0 9035980000.0 9035960000.0 29698500000.0 9036070000.0 9036300000.0 9036610000.0 46861500000.0 76737300000.0 52049400000.0 21598700000.0 20752500000.0 55190900000.0 98216200000.0 78755400000.0 102753000000.0 95496800000.0 60093000000.0 42824600000.0 38582400000.0 40348200000.0 40348200000.0 38582400000.0 42824600000.0 60093000000.0 95496800000.0 102753000000.0 78755400000.0 98216200000.0 55190900000.0 20752500000.0 21598700000.0 52049400000.0 76737300000.0 46861500000.0 47533200000.0 71400000000.0 52739100000.0 22768800000.0 21459700000.0 54033600000.0 94783200000.0 78911500000.0 90853700000.0 82740000000.0 49393300000.0 39730800000.0 9036810000.0 36770900000.0 9036380000.0 36883100000.0 9036120000.0 25355200000.0 9035990000.0 9036000000.0 9035940000.0 9035910000.0 9035870000.0 9035850000.0 9035830000.0 9035810000.0 9035800000.0 9035790000.0 9035780000.0 9035780000.0 9035770000.0 9035770000.0 9035760000.0 9035760000.0 9035760000.0 9035750000.0 9035750000.0 9035750000.0 9035750000.0 9035750000.0 9035760000.0 9035760000.0 9035760000.0 9035770000.0 9035770000.0 9035780000.0 9035780000.0 9035790000.0 9035800000.0 9035810000.0 9035830000.0 9035850000.0 9035870000.0 9035910000.0 9035940000.0 9036000000.0 9035990000.0 25355200000.0 9036120000.0 36883100000.0 9036380000.0 36770900000.0 9036810000.0 39730800000.0 49393300000.0 82740000000.0 90853700000.0 78911500000.0 94783200000.0 54033600000.0 21459700000.0 22768800000.0 52739100000.0 71400000000.0 47533200000.0 47741800000.0 66169000000.0 52944200000.0 23772600000.0 21906800000.0 52841700000.0 90865000000.0 77843500000.0 79667900000.0 71963900000.0 40701000000.0 36803200000.0 9036990000.0 34888400000.0 9036460000.0 33680100000.0 9036160000.0 21727900000.0 9036020000.0 9036010000.0 9035950000.0 9035910000.0 9035880000.0 9035850000.0 9035830000.0 9035820000.0 9035800000.0 9035790000.0 9035790000.0 9035780000.0 9035770000.0 9035770000.0 9035760000.0 9035760000.0 9035760000.0 9035750000.0 9035750000.0 9035750000.0 9035750000.0 9035750000.0 9035760000.0 9035760000.0 9035760000.0 9035770000.0 9035770000.0 9035780000.0 9035790000.0 9035790000.0 9035800000.0 9035820000.0 9035830000.0 9035850000.0 9035880000.0 9035910000.0 9035950000.0 9036010000.0 9036020000.0 21727900000.0 9036160000.0 33680100000.0 9036460000.0 34888400000.0 9036990000.0 36803200000.0 40701000000.0 71963900000.0 79667900000.0 77843500000.0 90865000000.0 52841700000.0 21906800000.0 23772600000.0 52944200000.0 66169000000.0 47741800000.0 47577800000.0 61208600000.0 52689900000.0 24597500000.0 22142500000.0 51683000000.0 86577800000.0 75657500000.0 69379000000.0 63022900000.0 33764400000.0 34149600000.0 9037140000.0 32984700000.0 9036530000.0 30722200000.0 9036200000.0 18754200000.0 9036040000.0 9036020000.0 9035960000.0 9035920000.0 9035880000.0 9035860000.0 9035840000.0 9035820000.0 9035810000.0 9035800000.0 9035790000.0 9035780000.0 9035770000.0 9035770000.0 9035760000.0 9035760000.0 9035760000.0 9035750000.0 9035750000.0 9035750000.0 9035750000.0 9035750000.0 9035760000.0 9035760000.0 9035760000.0 9035770000.0 9035770000.0 9035780000.0 9035790000.0 9035800000.0 9035810000.0 9035820000.0 9035840000.0 9035860000.0 9035880000.0 9035920000.0 9035960000.0 9036020000.0 9036040000.0 18754200000.0 9036200000.0 30722200000.0 9036530000.0 32984700000.0 9037140000.0 34149600000.0 33764400000.0 63022900000.0 69379000000.0 75657500000.0 86577800000.0 51683000000.0 22142500000.0 24597500000.0 52689900000.0 61208600000.0 47577800000.0 47104700000.0 56624500000.0 52024100000.0 25245000000.0 22209500000.0 50564100000.0 81974100000.0 72579300000.0 60101600000.0 55699000000.0 28298400000.0 31808200000.0 9037270000.0 31094500000.0 9036590000.0 27995600000.0 9036240000.0 16359400000.0 9036060000.0 9036030000.0 9035970000.0 9035920000.0 9035890000.0 9035860000.0 9035840000.0 9035820000.0 9035810000.0 9035800000.0 9035790000.0 9035780000.0 9035770000.0 9035770000.0 9035760000.0 9035760000.0 9035760000.0 9035750000.0 9035750000.0 9035750000.0 9035750000.0 9035750000.0 9035760000.0 9035760000.0 9035760000.0 9035770000.0 9035770000.0 9035780000.0 9035790000.0 9035800000.0 9035810000.0 9035820000.0 9035840000.0 9035860000.0 9035890000.0 9035920000.0 9035970000.0 9036030000.0 9036060000.0 16359400000.0 9036240000.0 27995600000.0 9036590000.0 31094500000.0 9037270000.0 31808200000.0 28298400000.0 55699000000.0 60101600000.0 72579300000.0 81974100000.0 50564100000.0 22209500000.0 25245000000.0 52024100000.0 56624500000.0 47104700000.0 46371800000.0 52468200000.0 51000200000.0 25720400000.0 22144700000.0 49452200000.0 77107900000.0 68866600000.0 51883200000.0 49746600000.0 24022400000.0 29764700000.0 9037380000.0 29241600000.0 9036650000.0 25492600000.0 9036270000.0 14464400000.0 9036080000.0 9036030000.0 9035970000.0 9035920000.0 9035890000.0 9035860000.0 9035840000.0 9035820000.0 9035810000.0 9035800000.0 9035790000.0 9035780000.0 9035770000.0 9035770000.0 9035760000.0 9035760000.0 9035760000.0 9035750000.0 9035750000.0 9035750000.0 9035750000.0 9035750000.0 9035760000.0 9035760000.0 9035760000.0 9035770000.0 9035770000.0 9035780000.0 9035790000.0 9035800000.0 9035810000.0 9035820000.0 9035840000.0 9035860000.0 9035890000.0 9035920000.0 9035970000.0 9036030000.0 9036080000.0 14464400000.0 9036270000.0 25492600000.0 9036650000.0 29241600000.0 9037380000.0 29764700000.0 24022400000.0 49746600000.0 51883200000.0 68866600000.0 77107900000.0 49452200000.0 22144700000.0 25720400000.0 51000200000.0 52468200000.0 46371800000.0 45423400000.0 48751100000.0 49671800000.0 26031200000.0 21979200000.0 48306300000.0 72049800000.0 64758800000.0 44719100000.0 44918100000.0 20685700000.0 27977100000.0 9037470000.0 27443000000.0 9036700000.0 23209500000.0 9036300000.0 12991600000.0 9036090000.0 9036040000.0 9035970000.0 9035930000.0 9035890000.0 9035860000.0 9035840000.0 9035820000.0 9035810000.0 9035800000.0 9035790000.0 9035780000.0 9035770000.0 9035770000.0 9035760000.0 9035760000.0 9035760000.0 9035750000.0 9035750000.0 9035750000.0 9035750000.0 9035750000.0 9035760000.0 9035760000.0 9035760000.0 9035770000.0 9035770000.0 9035780000.0 9035790000.0 9035800000.0 9035810000.0 9035820000.0 9035840000.0 9035860000.0 9035890000.0 9035930000.0 9035970000.0 9036040000.0 9036090000.0 12991600000.0 9036300000.0 23209500000.0 9036700000.0 27443000000.0 9037470000.0 27977100000.0 20685700000.0 44918100000.0 44719100000.0 64758800000.0 72049800000.0 48306300000.0 21979200000.0 26031200000.0 49671800000.0 48751100000.0 45423400000.0 44301000000.0 45458600000.0 48091700000.0 26187100000.0 21737200000.0 47092600000.0 66884700000.0 60458700000.0 38564400000.0 40982800000.0 18078200000.0 26396200000.0 9037550000.0 25711600000.0 9036730000.0 21144100000.0 9036320000.0 11867600000.0 9036100000.0 9036040000.0 9035980000.0 9035930000.0 9035890000.0 9035860000.0 9035840000.0 9035820000.0 9035810000.0 9035800000.0 9035790000.0 9035780000.0 9035770000.0 9035770000.0 9035760000.0 9035760000.0 9035760000.0 9035750000.0 9035750000.0 9035750000.0 9035750000.0 9035750000.0 9035760000.0 9035760000.0 9035760000.0 9035770000.0 9035770000.0 9035780000.0 9035790000.0 9035800000.0 9035810000.0 9035820000.0 9035840000.0 9035860000.0 9035890000.0 9035930000.0 9035980000.0 9036040000.0 9036100000.0 11867600000.0 9036320000.0 21144100000.0 9036730000.0 25711600000.0 9037550000.0 26396200000.0 18078200000.0 40982800000.0 38564400000.0 60458700000.0 66884700000.0 47092600000.0 21737200000.0 26187100000.0 48091700000.0 45458600000.0 44301000000.0 43042200000.0 42559900000.0 46312500000.0 26199400000.0 21435700000.0 45788100000.0 61704500000.0 56128900000.0 33342500000.0 37740000000.0 16032100000.0 24975700000.0 9037610000.0 24057800000.0 9036770000.0 19293100000.0 9036330000.0 11026100000.0 9036110000.0 9036040000.0 9035980000.0 9035930000.0 9035890000.0 9035860000.0 9035840000.0 9035820000.0 9035810000.0 9035800000.0 9035790000.0 9035780000.0 9035770000.0 9035770000.0 9035760000.0 9035760000.0 9035760000.0 9035750000.0 9035750000.0 9035750000.0 9035750000.0 9035750000.0 9035760000.0 9035760000.0 9035760000.0 9035770000.0 9035770000.0 9035780000.0 9035790000.0 9035800000.0 9035810000.0 9035820000.0 9035840000.0 9035860000.0 9035890000.0 9035930000.0 9035980000.0 9036040000.0 9036110000.0 11026100000.0 9036330000.0 19293100000.0 9036770000.0 24057800000.0 9037610000.0 24975700000.0 16032100000.0 37740000000.0 33342500000.0 56128900000.0 61704500000.0 45788100000.0 21435700000.0 26199400000.0 46312500000.0 42559900000.0 43042200000.0 41680800000.0 40014900000.0 44386300000.0 26080100000.0 21086400000.0 44381200000.0 56600200000.0 51893700000.0 28956900000.0 35023700000.0 14421500000.0 23677700000.0 9037650000.0 22490000000.0 9036790000.0 17651000000.0 9036340000.0 10408300000.0 9036110000.0 9036040000.0 9035980000.0 9035930000.0 9035890000.0 9035860000.0 9035840000.0 9035820000.0 9035810000.0 9035800000.0 9035790000.0 9035780000.0 9035770000.0 9035770000.0 9035760000.0 9035760000.0 9035760000.0 9035750000.0 9035750000.0 9035750000.0 9035750000.0 9035750000.0 9035760000.0 9035760000.0 9035760000.0 9035770000.0 9035770000.0 9035780000.0 9035790000.0 9035800000.0 9035810000.0 9035820000.0 9035840000.0 9035860000.0 9035890000.0 9035930000.0 9035980000.0 9036040000.0 9036110000.0 10408300000.0 9036340000.0 17651000000.0 9036790000.0 22490000000.0 9037650000.0 23677700000.0 14421500000.0 35023700000.0 28956900000.0 51893700000.0 56600200000.0 44381200000.0 21086400000.0 26080100000.0 44386300000.0 40014900000.0 41680800000.0 40246200000.0 37778500000.0 42363000000.0 25842300000.0 20697300000.0 42871300000.0 51654700000.0 47842300000.0 25303500000.0 32701300000.0 13154800000.0 22473600000.0 9037690000.0 21015300000.0 9036810000.0 16209600000.0 9036350000.0 9963900000.0 9036120000.0 9036040000.0 9035980000.0 9035930000.0 9035890000.0 9035860000.0 9035840000.0 9035820000.0 9035810000.0 9035800000.0 9035790000.0 9035780000.0 9035770000.0 9035770000.0 9035760000.0 9035760000.0 9035760000.0 9035750000.0 9035750000.0 9035750000.0 9035750000.0 9035750000.0 9035760000.0 9035760000.0 9035760000.0 9035770000.0 9035770000.0 9035780000.0 9035790000.0 9035800000.0 9035810000.0 9035820000.0 9035840000.0 9035860000.0 9035890000.0 9035930000.0 9035980000.0 9036040000.0 9036120000.0 9963900000.0 9036350000.0 16209600000.0 9036810000.0 21015300000.0 9037690000.0 22473600000.0 13154800000.0 32701300000.0 25303500000.0 47842300000.0 51654700000.0 42871300000.0 20697300000.0 25842300000.0 42363000000.0 37778500000.0 40246200000.0 38763700000.0 35804400000.0 40288700000.0 25499100000.0 20273900000.0 41266800000.0 46937700000.0 44033200000.0 22279800000.0 30670900000.0 12164700000.0 21343600000.0 9037710000.0 19638900000.0 9036810000.0 14958000000.0 9036360000.0 9650980000.0 9036110000.0 9036040000.0 9035970000.0 9035930000.0 9035890000.0 9035860000.0 9035840000.0 9035820000.0 9035810000.0 9035800000.0 9035790000.0 9035780000.0 9035770000.0 9035770000.0 9035760000.0 9035760000.0 9035760000.0 9035750000.0 9035750000.0 9035750000.0 9035750000.0 9035750000.0 9035760000.0 9035760000.0 9035760000.0 9035770000.0 9035770000.0 9035780000.0 9035790000.0 9035800000.0 9035810000.0 9035820000.0 9035840000.0 9035860000.0 9035890000.0 9035930000.0 9035970000.0 9036040000.0 9036110000.0 9650980000.0 9036360000.0 14958000000.0 9036810000.0 19638900000.0 9037710000.0 21343600000.0 12164700000.0 30670900000.0 22279800000.0 44033200000.0 46937700000.0 41266800000.0 20273900000.0 25499100000.0 40288700000.0 35804400000.0 38763700000.0 37255000000.0 34047800000.0 38204200000.0 25063900000.0 19820500000.0 39583100000.0 42504400000.0 40500700000.0 19790300000.0 28857300000.0 11398700000.0 20275300000.0 9037720000.0 18364400000.0 9036820000.0 13883200000.0 9036360000.0 9435340000.0 9036110000.0 9036030000.0 9035970000.0 9035920000.0 9035890000.0 9035860000.0 9035840000.0 9035820000.0 9035810000.0 9035800000.0 9035790000.0 9035780000.0 9035770000.0 9035770000.0 9035760000.0 9035760000.0 9035760000.0 9035750000.0 9035750000.0 9035750000.0 9035750000.0 9035750000.0 9035760000.0 9035760000.0 9035760000.0 9035770000.0 9035770000.0 9035780000.0 9035790000.0 9035800000.0 9035810000.0 9035820000.0 9035840000.0 9035860000.0 9035890000.0 9035920000.0 9035970000.0 9036030000.0 9036110000.0 9435340000.0 9036360000.0 13883200000.0 9036820000.0 18364400000.0 9037720000.0 20275300000.0 11398700000.0 28857300000.0 19790300000.0 40500700000.0 42504400000.0 39583100000.0 19820500000.0 25063900000.0 38204200000.0 34047800000.0 37255000000.0 35738100000.0 32467300000.0 36143400000.0 24550000000.0 19341600000.0 37840300000.0 38394400000.0 37260100000.0 17749000000.0 27208100000.0 10813100000.0 19262000000.0 9037710000.0 17193800000.0 9036810000.0 12969900000.0 9036350000.0 9289990000.0 9036110000.0 9036030000.0 9035970000.0 9035920000.0 9035890000.0 9035860000.0 9035840000.0 9035820000.0 9035810000.0 9035800000.0 9035790000.0 9035780000.0 9035770000.0 9035770000.0 9035760000.0 9035760000.0 9035760000.0 9035750000.0 9035750000.0 9035750000.0 9035750000.0 9035750000.0 9035760000.0 9035760000.0 9035760000.0 9035770000.0 9035770000.0 9035780000.0 9035790000.0 9035800000.0 9035810000.0 9035820000.0 9035840000.0 9035860000.0 9035890000.0 9035920000.0 9035970000.0 9036030000.0 9036110000.0 9289990000.0 9036350000.0 12969900000.0 9036810000.0 17193800000.0 9037710000.0 19262000000.0 10813100000.0 27208100000.0 17749000000.0 37260100000.0 38394400000.0 37840300000.0 19341600000.0 24550000000.0 36143400000.0 32467300000.0 35738100000.0 34227900000.0 31026400000.0 34133500000.0 23970100000.0 18841500000.0 36061000000.0 34631700000.0 34312500000.0 16080600000.0 25688300000.0 10370800000.0 18301000000.0 9037700000.0 16127100000.0 9036800000.0 12202300000.0 9036340000.0 9194190000.0 9036100000.0 9036020000.0 9035960000.0 9035920000.0 9035880000.0 9035860000.0 9035840000.0 9035820000.0 9035810000.0 9035800000.0 9035790000.0 9035780000.0 9035770000.0 9035770000.0 9035760000.0 9035760000.0 9035760000.0 9035750000.0 9035750000.0 9035750000.0 9035750000.0 9035750000.0 9035760000.0 9035760000.0 9035760000.0 9035770000.0 9035770000.0 9035780000.0 9035790000.0 9035800000.0 9035810000.0 9035820000.0 9035840000.0 9035860000.0 9035880000.0 9035920000.0 9035960000.0 9036020000.0 9036100000.0 9194190000.0 9036340000.0 12202300000.0 9036800000.0 16127100000.0 9037700000.0 18301000000.0 10370800000.0 25688300000.0 16080600000.0 34312500000.0 34631700000.0 36061000000.0 18841500000.0 23970100000.0 34133500000.0 31026400000.0 34227900000.0 32736300000.0 29694300000.0 32194900000.0 23336500000.0 18324700000.0 34267900000.0 31225900000.0 31648500000.0 14720700000.0 24275200000.0 10040200000.0 17392000000.0 9037670000.0 15162600000.0 9036790000.0 11563500000.0 9036340000.0 9132450000.0 9036090000.0 9036020000.0 9035960000.0 9035910000.0 9035880000.0 9035860000.0 9035830000.0 9035820000.0 9035810000.0 9035790000.0 9035790000.0 9035780000.0 9035770000.0 9035770000.0 9035760000.0 9035760000.0 9035760000.0 9035750000.0 9035750000.0 9035750000.0 9035750000.0 9035750000.0 9035760000.0 9035760000.0 9035760000.0 9035770000.0 9035770000.0 9035780000.0 9035790000.0 9035790000.0 9035810000.0 9035820000.0 9035830000.0 9035860000.0 9035880000.0 9035910000.0 9035960000.0 9036020000.0 9036090000.0 9132450000.0 9036340000.0 11563500000.0 9036790000.0 15162600000.0 9037670000.0 17392000000.0 10040200000.0 24275200000.0 14720700000.0 31648500000.0 31225900000.0 34267900000.0 18324700000.0 23336500000.0 32194900000.0 29694300000.0 32736300000.0 31272400000.0 28445900000.0 30342100000.0 22660700000.0 17796200000.0 32482500000.0 28174600000.0 29251500000.0 13614900000.0 22954000000.0 9795110000.0 16535800000.0 9037640000.0 14297500000.0 9036770000.0 11037400000.0 9036320000.0 9093560000.0 9036080000.0 9036010000.0 9035950000.0 9035910000.0 9035880000.0 9035850000.0 9035830000.0 9035820000.0 9035800000.0 9035790000.0 9035780000.0 9035780000.0 9035770000.0 9035770000.0 9035760000.0 9035760000.0 9035760000.0 9035750000.0 9035750000.0 9035750000.0 9035750000.0 9035750000.0 9035760000.0 9035760000.0 9035760000.0 9035770000.0 9035770000.0 9035780000.0 9035780000.0 9035790000.0 9035800000.0 9035820000.0 9035830000.0 9035850000.0 9035880000.0 9035910000.0 9035950000.0 9036010000.0 9036080000.0 9093560000.0 9036320000.0 11037400000.0 9036770000.0 14297500000.0 9037640000.0 16535800000.0 9795110000.0 22954000000.0 13614900000.0 29251500000.0 28174600000.0 32482500000.0 17796200000.0 22660700000.0 30342100000.0 28445900000.0 31272400000.0 29843400000.0 27261800000.0 28584300000.0 21953500000.0 17260600000.0 30724100000.0 25465200000.0 27100800000.0 12718100000.0 21714900000.0 9614380000.0 15733900000.0 9037590000.0 13527400000.0 9036740000.0 10608100000.0 9036310000.0 9069590000.0 9036080000.0 9036000000.0 9035950000.0 9035900000.0 9035870000.0 9035850000.0 9035830000.0 9035810000.0 9035800000.0 9035790000.0 9035780000.0 9035780000.0 9035770000.0 9035770000.0 9035760000.0 9035760000.0 9035760000.0 9035750000.0 9035750000.0 9035750000.0 9035750000.0 9035750000.0 9035760000.0 9035760000.0 9035760000.0 9035770000.0 9035770000.0 9035780000.0 9035780000.0 9035790000.0 9035800000.0 9035810000.0 9035830000.0 9035850000.0 9035870000.0 9035900000.0 9035950000.0 9036000000.0 9036080000.0 9069590000.0 9036310000.0 10608100000.0 9036740000.0 13527400000.0 9037590000.0 15733900000.0 9614380000.0 21714900000.0 12718100000.0 27100800000.0 25465200000.0 30724100000.0 17260600000.0 21953500000.0 28584300000.0 27261800000.0 29843400000.0 28454300000.0 26127300000.0 26926500000.0 21224600000.0 16722900000.0 29009100000.0 23078800000.0 25173500000.0 11993000000.0 20551500000.0 9481410000.0 14987300000.0 9037540000.0 12847100000.0 9036710000.0 10261100000.0 9036290000.0 9055170000.0 9036060000.0 9035990000.0 9035940000.0 9035900000.0 9035870000.0 9035850000.0 9035830000.0 9035810000.0 9035800000.0 9035790000.0 9035780000.0 9035780000.0 9035770000.0 9035770000.0 9035760000.0 9035760000.0 9035760000.0 9035750000.0 9035750000.0 9035750000.0 9035750000.0 9035750000.0 9035760000.0 9035760000.0 9035760000.0 9035770000.0 9035770000.0 9035780000.0 9035780000.0 9035790000.0 9035800000.0 9035810000.0 9035830000.0 9035850000.0 9035870000.0 9035900000.0 9035940000.0 9035990000.0 9036060000.0 9055170000.0 9036290000.0 10261100000.0 9036710000.0 12847100000.0 9037540000.0 14987300000.0 9481410000.0 20551500000.0 11993000000.0 25173500000.0 23078800000.0 29009100000.0 16722900000.0 21224600000.0 26926500000.0 26127300000.0 28454300000.0 27108600000.0 25032100000.0 25370200000.0 20482800000.0 16187300000.0 27350700000.0 20991400000.0 23446600000.0 11408300000.0 19459500000.0 9383450000.0 14296800000.0 9037480000.0 12250400000.0 9036680000.0 9983060000.0 9036270000.0 9046690000.0 9036050000.0 9035980000.0 9035930000.0 9035890000.0 9035860000.0 9035840000.0 9035820000.0 9035810000.0 9035800000.0 9035790000.0 9035780000.0 9035780000.0 9035770000.0 9035770000.0 9035760000.0 9035760000.0 9035760000.0 9035750000.0 9035750000.0 9035750000.0 9035750000.0 9035750000.0 9035760000.0 9035760000.0 9035760000.0 9035770000.0 9035770000.0 9035780000.0 9035780000.0 9035790000.0 9035800000.0 9035810000.0 9035820000.0 9035840000.0 9035860000.0 9035890000.0 9035930000.0 9035980000.0 9036050000.0 9046690000.0 9036270000.0 9983060000.0 9036680000.0 12250400000.0 9037480000.0 14296800000.0 9383450000.0 19459500000.0 11408300000.0 23446600000.0 20991400000.0 27350700000.0 16187300000.0 20482800000.0 25370200000.0 25032100000.0 27108600000.0 25808300000.0 23969100000.0 23914300000.0 19735800000.0 15658300000.0 25759100000.0 19176800000.0 21897600000.0 10938300000.0 18435900000.0 9310910000.0 13662400000.0 9037420000.0 11731000000.0 9036640000.0 9762320000.0 9036250000.0 9041820000.0 9036040000.0 9035970000.0 9035920000.0 9035890000.0 9035860000.0 9035840000.0 9035820000.0 9035810000.0 9035800000.0 9035790000.0 9035780000.0 9035770000.0 9035770000.0 9035760000.0 9035760000.0 9035760000.0 9035760000.0 9035750000.0 9035750000.0 9035750000.0 9035750000.0 9035750000.0 9035760000.0 9035760000.0 9035760000.0 9035760000.0 9035770000.0 9035770000.0 9035780000.0 9035790000.0 9035800000.0 9035810000.0 9035820000.0 9035840000.0 9035860000.0 9035890000.0 9035920000.0 9035970000.0 9036040000.0 9041820000.0 9036250000.0 9762320000.0 9036640000.0 11731000000.0 9037420000.0 13662400000.0 9310910000.0 18435900000.0 10938300000.0 21897600000.0 19176800000.0 25759100000.0 15658300000.0 19735800000.0 23914300000.0 23969100000.0 25808300000.0 24554500000.0 22934100000.0 22555500000.0 18990400000.0 15139300000.0 24241700000.0 17608000000.0 20505900000.0 10561500000.0 17478700000.0 9256700000.0 13083200000.0 9037350000.0 11282100000.0 9036610000.0 9588560000.0 9036230000.0 9039090000.0 9036030000.0 9035960000.0 9035920000.0 9035880000.0 9035850000.0 9035830000.0 9035820000.0 9035800000.0 9035790000.0 9035790000.0 9035780000.0 9035770000.0 9035770000.0 9035760000.0 9035760000.0 9035760000.0 9035760000.0 9035750000.0 9035750000.0 9035750000.0 9035750000.0 9035750000.0 9035760000.0 9035760000.0 9035760000.0 9035760000.0 9035770000.0 9035770000.0 9035780000.0 9035790000.0 9035790000.0 9035800000.0 9035820000.0 9035830000.0 9035850000.0 9035880000.0 9035920000.0 9035960000.0 9036030000.0 9039090000.0 9036230000.0 9588560000.0 9036610000.0 11282100000.0 9037350000.0 13083200000.0 9256700000.0 17478700000.0 10561500000.0 20505900000.0 17608000000.0 24241700000.0 15139300000.0 18990400000.0 22555500000.0 22934100000.0 24554500000.0 23347200000.0 21924500000.0 21289200000.0 18252200000.0 14633700000.0 22803100000.0 16258000000.0 19252600000.0 10260100000.0 16586400000.0 9215670000.0 12558000000.0 9037270000.0 10896700000.0 9036560000.0 9452970000.0 9036200000.0 9037600000.0 9036010000.0 9035950000.0 9035910000.0 9035870000.0 9035850000.0 9035830000.0 9035810000.0 9035800000.0 9035790000.0 9035780000.0 9035780000.0 9035770000.0 9035770000.0 9035760000.0 9035760000.0 9035760000.0 9035760000.0 9035750000.0 9035750000.0 9035750000.0 9035750000.0 9035750000.0 9035760000.0 9035760000.0 9035760000.0 9035760000.0 9035770000.0 9035770000.0 9035780000.0 9035780000.0 9035790000.0 9035800000.0 9035810000.0 9035830000.0 9035850000.0 9035870000.0 9035910000.0 9035950000.0 9036010000.0 9037600000.0 9036200000.0 9452970000.0 9036560000.0 10896700000.0 9037270000.0 12558000000.0 9215670000.0 16586400000.0 10260100000.0 19252600000.0 16258000000.0 22803100000.0 14633700000.0 18252200000.0 21289200000.0 21924500000.0 23347200000.0 22185600000.0 20939400000.0 20110000000.0 17525700000.0 14144100000.0 21445900000.0 15101100000.0 18121000000.0 10019300000.0 15757300000.0 9184120000.0 12084600000.0 9037190000.0 10568200000.0 9036520000.0 9348080000.0 9036180000.0 9036810000.0 9036000000.0 9035940000.0 9035900000.0 9035870000.0 9035840000.0 9035830000.0 9035810000.0 9035800000.0 9035790000.0 9035780000.0 9035780000.0 9035770000.0 9035770000.0 9035760000.0 9035760000.0 9035760000.0 9035760000.0 9035750000.0 9035750000.0 9035750000.0 9035750000.0 9035750000.0 9035760000.0 9035760000.0 9035760000.0 9035760000.0 9035770000.0 9035770000.0 9035780000.0 9035780000.0 9035790000.0 9035800000.0 9035810000.0 9035830000.0 9035840000.0 9035870000.0 9035900000.0 9035940000.0 9036000000.0 9036810000.0 9036180000.0 9348080000.0 9036520000.0 10568200000.0 9037190000.0 12084600000.0 9184120000.0 15757300000.0 10019300000.0 18121000000.0 15101100000.0 21445900000.0 14144100000.0 17525700000.0 20110000000.0 20939400000.0 22185600000.0 21068300000.0 19978100000.0 19011600000.0 16814600000.0 13672400000.0 20170700000.0 14113200000.0 17096400000.0 9827050000.0 14989900000.0 9159390000.0 11660500000.0 9037100000.0 10290000000.0 9036470000.0 9267620000.0 9036150000.0 9036400000.0 9035980000.0 9035930000.0 9035890000.0 9035860000.0 9035840000.0 9035820000.0 9035810000.0 9035800000.0 9035790000.0 9035780000.0 9035770000.0 9035770000.0 9035770000.0 9035760000.0 9035760000.0 9035760000.0 9035760000.0 9035750000.0 9035750000.0 9035750000.0 9035750000.0 9035750000.0 9035760000.0 9035760000.0 9035760000.0 9035760000.0 9035770000.0 9035770000.0 9035770000.0 9035780000.0 9035790000.0 9035800000.0 9035810000.0 9035820000.0 9035840000.0 9035860000.0 9035890000.0 9035930000.0 9035980000.0 9036400000.0 9036150000.0 9267620000.0 9036470000.0 10290000000.0 9037100000.0 11660500000.0 9159390000.0 14989900000.0 9827050000.0 17096400000.0 14113200000.0 20170700000.0 13672400000.0 16814600000.0 19011600000.0 19978100000.0 21068300000.0 19993600000.0 19040700000.0 17987800000.0 16121800000.0 13220200000.0 18976400000.0 13272200000.0 16165900000.0 9673430000.0 14282300000.0 9139610000.0 11282800000.0 9037010000.0 10056100000.0 9036420000.0 9206460000.0 9036130000.0 9036190000.0 9035970000.0 9035920000.0 9035880000.0 9035850000.0 9035830000.0 9035820000.0 9035800000.0 9035790000.0 9035780000.0 9035780000.0 9035770000.0 9035770000.0 9035760000.0 9035760000.0 9035760000.0 9035760000.0 9035760000.0 9035750000.0 9035750000.0 9035750000.0 9035750000.0 9035750000.0 9035760000.0 9035760000.0 9035760000.0 9035760000.0 9035760000.0 9035770000.0 9035770000.0 9035780000.0 9035780000.0 9035790000.0 9035800000.0 9035820000.0 9035830000.0 9035850000.0 9035880000.0 9035920000.0 9035970000.0 9036190000.0 9036130000.0 9206460000.0 9036420000.0 10056100000.0 9037010000.0 11282800000.0 9139610000.0 14282300000.0 9673430000.0 16165900000.0 13272200000.0 18976400000.0 13220200000.0 16121800000.0 17987800000.0 19040700000.0 19993600000.0 18959200000.0 18127100000.0 17032000000.0 15448900000.0 12788100000.0 17860700000.0 12557800000.0 15318500000.0 9550420000.0 13631800000.0 9123470000.0 10948100000.0 9036920000.0 9860550000.0 9036370000.0 9160360000.0 9036100000.0 9036080000.0 9035950000.0 9035900000.0 9035870000.0 9035840000.0 9035830000.0 9035810000.0 9035800000.0 9035790000.0 9035780000.0 9035780000.0 9035770000.0 9035770000.0 9035760000.0 9035760000.0 9035760000.0 9035760000.0 9035750000.0 9035750000.0 9035750000.0 9035750000.0 9035750000.0 9035750000.0 9035750000.0 9035760000.0 9035760000.0 9035760000.0 9035760000.0 9035770000.0 9035770000.0 9035780000.0 9035780000.0 9035790000.0 9035800000.0 9035810000.0 9035830000.0 9035840000.0 9035870000.0 9035900000.0 9035950000.0 9036080000.0 9036100000.0 9160360000.0 9036370000.0 9860550000.0 9036920000.0 10948100000.0 9123470000.0 13631800000.0 9550420000.0 15318500000.0 12557800000.0 17860700000.0 12788100000.0 15448900000.0 17032000000.0 18127100000.0 18959200000.0 17962500000.0 17237300000.0 16137900000.0 14797200000.0 12376700000.0 16820200000.0 11952200000.0 14544200000.0 9451590000.0 13035900000.0 9110040000.0 10652900000.0 9036820000.0 9698160000.0 9036320000.0 9125920000.0 9036070000.0 9036020000.0 9035930000.0 9035890000.0 9035860000.0 9035840000.0 9035820000.0 9035810000.0 9035800000.0 9035790000.0 9035780000.0 9035770000.0 9035770000.0 9035770000.0 9035760000.0 9035760000.0 9035760000.0 9035760000.0 9035750000.0 9035750000.0 9035750000.0 9035750000.0 9035750000.0 9035750000.0 9035750000.0 9035760000.0 9035760000.0 9035760000.0 9035760000.0 9035770000.0 9035770000.0 9035770000.0 9035780000.0 9035790000.0 9035800000.0 9035810000.0 9035820000.0 9035840000.0 9035860000.0 9035890000.0 9035930000.0 9036020000.0 9036070000.0 9125920000.0 9036320000.0 9698160000.0 9036820000.0 10652900000.0 9110040000.0 13035900000.0 9451590000.0 14544200000.0 11952200000.0 16820200000.0 12376700000.0 14797200000.0 16137900000.0 17237300000.0 17962500000.0 17000800000.0 16370600000.0 15299100000.0 14167000000.0 11985600000.0 15850400000.0 11439100000.0 13834500000.0 9371800000.0 12491000000.0 9098640000.0 10393600000.0 9036730000.0 9564080000.0 9036270000.0 9100430000.0 9036040000.0 9035980000.0 9035920000.0 9035880000.0 9035850000.0 9035830000.0 9035810000.0 9035800000.0 9035790000.0 9035780000.0 9035780000.0 9035770000.0 9035770000.0 9035760000.0 9035760000.0 9035760000.0 9035760000.0 9035760000.0 9035750000.0 9035750000.0 9035750000.0 9035750000.0 9035750000.0 9035750000.0 9035750000.0 9035760000.0 9035760000.0 9035760000.0 9035760000.0 9035760000.0 9035770000.0 9035770000.0 9035780000.0 9035780000.0 9035790000.0 9035800000.0 9035810000.0 9035830000.0 9035850000.0 9035880000.0 9035920000.0 9035980000.0 9036040000.0 9100430000.0 9036270000.0 9564080000.0 9036730000.0 10393600000.0 9098640000.0 12491000000.0 9371800000.0 13834500000.0 11439100000.0 15850400000.0 11985600000.0 14167000000.0 15299100000.0 16370600000.0 17000800000.0 16071100000.0 15526400000.0 14509600000.0 13558000000.0 11614200000.0 14946300000.0 11004600000.0 13181600000.0 9306940000.0 11993400000.0 9088810000.0 10166600000.0 9036630000.0 9453940000.0 9036220000.0 9081730000.0 9036010000.0 9035950000.0 9035900000.0 9035870000.0 9035840000.0 9035820000.0 9035810000.0 9035800000.0 9035790000.0 9035780000.0 9035770000.0 9035770000.0 9035770000.0 9035760000.0 9035760000.0 9035760000.0 9035760000.0 9035760000.0 9035750000.0 9035750000.0 9035750000.0 9035750000.0 9035750000.0 9035750000.0 9035750000.0 9035760000.0 9035760000.0 9035760000.0 9035760000.0 9035760000.0 9035770000.0 9035770000.0 9035770000.0 9035780000.0 9035790000.0 9035800000.0 9035810000.0 9035820000.0 9035840000.0 9035870000.0 9035900000.0 9035950000.0 9036010000.0 9081730000.0 9036220000.0 9453940000.0 9036630000.0 10166600000.0 9088810000.0 11993400000.0 9306940000.0 13181600000.0 11004600000.0 14946300000.0 11614200000.0 13558000000.0 14509600000.0 15526400000.0 16071100000.0 15170300000.0 14703500000.0 13763600000.0 12969400000.0 11261400000.0 14102200000.0 10635900000.0 12578300000.0 9253780000.0 11539100000.0 9080200000.0 9968060000.0 9036530000.0 9363860000.0 9036170000.0 9068130000.0 9035980000.0 9035930000.0 9035880000.0 9035850000.0 9035830000.0 9035810000.0 9035800000.0 9035790000.0 9035780000.0 9035780000.0 9035770000.0 9035770000.0 9035770000.0 9035760000.0 9035760000.0 9035760000.0 9035760000.0 9035760000.0 9035750000.0 9035750000.0 9035750000.0 9035750000.0 9035750000.0 9035750000.0 9035750000.0 9035760000.0 9035760000.0 9035760000.0 9035760000.0 9035760000.0 9035770000.0 9035770000.0 9035770000.0 9035780000.0 9035780000.0 9035790000.0 9035800000.0 9035810000.0 9035830000.0 9035850000.0 9035880000.0 9035930000.0 9035980000.0 9068130000.0 9036170000.0 9363860000.0 9036530000.0 9968060000.0 9080200000.0 11539100000.0 9253780000.0 12578300000.0 10635900000.0 14102200000.0 11261400000.0 12969400000.0 13763600000.0 14703500000.0 15170300000.0 14295300000.0 13900300000.0 13055300000.0 12399900000.0 10925800000.0 13311900000.0 10322000000.0 12018200000.0 9209740000.0 11123600000.0 9072550000.0 9794380000.0 9036430000.0 9290360000.0 9036110000.0 9058320000.0 9035950000.0 9035900000.0 9035870000.0 9035840000.0 9035820000.0 9035810000.0 9035790000.0 9035790000.0 9035780000.0 9035770000.0 9035770000.0 9035770000.0 9035760000.0 9035760000.0 9035760000.0 9035760000.0 9035760000.0 9035750000.0 9035750000.0 9035750000.0 9035750000.0 9035750000.0 9035750000.0 9035750000.0 9035750000.0 9035750000.0 9035760000.0 9035760000.0 9035760000.0 9035760000.0 9035760000.0 9035770000.0 9035770000.0 9035770000.0 9035780000.0 9035790000.0 9035790000.0 9035810000.0 9035820000.0 9035840000.0 9035870000.0 9035900000.0 9035950000.0 9058320000.0 9036110000.0 9290360000.0 9036430000.0 9794380000.0 9072550000.0 11123600000.0 9209740000.0 12018200000.0 10322000000.0 13311900000.0 10925800000.0 12399900000.0 13055300000.0 13900300000.0 14295300000.0 13442600000.0 13114900000.0 12379300000.0 11847600000.0 10605600000.0 12568800000.0 10053200000.0 11495000000.0 9172780000.0 10742000000.0 9065680000.0 9641970000.0 9036320000.0 9230380000.0 9036060000.0 9051290000.0 9035920000.0 9035880000.0 9035850000.0 9035830000.0 9035810000.0 9035800000.0 9035790000.0 9035780000.0 9035780000.0 9035770000.0 9035770000.0 9035760000.0 9035760000.0 9035760000.0 9035760000.0 9035760000.0 9035760000.0 9035750000.0 9035750000.0 9035750000.0 9035750000.0 9035750000.0 9035750000.0 9035750000.0 9035750000.0 9035750000.0 9035760000.0 9035760000.0 9035760000.0 9035760000.0 9035760000.0 9035760000.0 9035770000.0 9035770000.0 9035780000.0 9035780000.0 9035790000.0 9035800000.0 9035810000.0 9035830000.0 9035850000.0 9035880000.0 9035920000.0 9051290000.0 9036060000.0 9230380000.0 9036320000.0 9641970000.0 9065680000.0 10742000000.0 9172780000.0 11495000000.0 10053200000.0 12568800000.0 10605600000.0 11847600000.0 12379300000.0 13114900000.0 13442600000.0 12608900000.0 12345100000.0 11730300000.0 11310600000.0 10298900000.0 11866000000.0 9820690000.0 11002700000.0 9141240000.0 10389500000.0 9059420000.0 9507320000.0 9036220000.0 9181210000.0 9036000000.0 9046270000.0 9035890000.0 9035860000.0 9035830000.0 9035810000.0 9035800000.0 9035790000.0 9035780000.0 9035780000.0 9035770000.0 9035770000.0 9035760000.0 9035760000.0 9035760000.0 9035760000.0 9035760000.0 9035760000.0 9035760000.0 9035750000.0 9035750000.0 9035750000.0 9035750000.0 9035750000.0 9035750000.0 9035750000.0 9035750000.0 9035750000.0 9035760000.0 9035760000.0 9035760000.0 9035760000.0 9035760000.0 9035760000.0 9035760000.0 9035770000.0 9035770000.0 9035780000.0 9035780000.0 9035790000.0 9035800000.0 9035810000.0 9035830000.0 9035860000.0 9035890000.0 9046270000.0 9036000000.0 9181210000.0 9036220000.0 9507320000.0 9059420000.0 10389500000.0 9141240000.0 11002700000.0 9820690000.0 11866000000.0 10298900000.0 11310600000.0 11730300000.0 12345100000.0 12608900000.0 11790700000.0 11588400000.0 11103200000.0 10786400000.0 10003500000.0 11196400000.0 9616670000.0 10535600000.0 9113760000.0 10061000000.0 9053640000.0 9387010000.0 9036120000.0 9140450000.0 9035950000.0 9042680000.0 9035860000.0 9035830000.0 9035810000.0 9035800000.0 9035790000.0 9035780000.0 9035780000.0 9035770000.0 9035770000.0 9035760000.0 9035760000.0 9035760000.0 9035760000.0 9035760000.0 9035760000.0 9035760000.0 9035750000.0 9035750000.0 9035750000.0 9035750000.0 9035750000.0 9035750000.0 9035750000.0 9035750000.0 9035750000.0 9035750000.0 9035750000.0 9035760000.0 9035760000.0 9035760000.0 9035760000.0 9035760000.0 9035760000.0 9035760000.0 9035770000.0 9035770000.0 9035780000.0 9035780000.0 9035790000.0 9035800000.0 9035810000.0 9035830000.0 9035860000.0 9042680000.0 9035950000.0 9140450000.0 9036120000.0 9387010000.0 9053640000.0 10061000000.0 9113760000.0 10535600000.0 9616670000.0 11196400000.0 10003500000.0 10786400000.0 11103200000.0 11588400000.0 11790700000.0 10984600000.0 10842000000.0 10493000000.0 10272300000.0 9717040000.0 10552700000.0 9434030000.0 10087900000.0 9089240000.0 9751080000.0 9048210000.0 9277710000.0 9036010000.0 9105950000.0 9035890000.0 9040070000.0 9035830000.0 9035810000.0 9035800000.0 9035790000.0 9035780000.0 9035770000.0 9035770000.0 9035770000.0 9035760000.0 9035760000.0 9035760000.0 9035760000.0 9035760000.0 9035760000.0 9035760000.0 9035750000.0 9035750000.0 9035750000.0 9035750000.0 9035750000.0 9035750000.0 9035750000.0 9035750000.0 9035750000.0 9035750000.0 9035750000.0 9035750000.0 9035750000.0 9035760000.0 9035760000.0 9035760000.0 9035760000.0 9035760000.0 9035760000.0 9035760000.0 9035770000.0 9035770000.0 9035770000.0 9035780000.0 9035790000.0 9035800000.0 9035810000.0 9035830000.0 9040070000.0 9035890000.0 9105950000.0 9036010000.0 9277710000.0 9048210000.0 9751080000.0 9089240000.0 10087900000.0 9434030000.0 10552700000.0 9717040000.0 10272300000.0 10493000000.0 10842000000.0 10984600000.0 10187200000.0 10103100000.0 9894640000.0 9765590000.0 9436950000.0 9927480000.0 9266200000.0 9653900000.0 9066710000.0 9454510000.0 9043040000.0 9176180000.0 9035910000.0 9075750000.0 9035830000.0 9038090000.0 9035800000.0 9035790000.0 9035780000.0 9035770000.0 9035770000.0 9035760000.0 9035760000.0 9035760000.0 9035760000.0 9035760000.0 9035760000.0 9035760000.0 9035760000.0 9035750000.0 9035750000.0 9035750000.0 9035750000.0 9035750000.0 9035750000.0 9035750000.0 9035750000.0 9035750000.0 9035750000.0 9035750000.0 9035750000.0 9035750000.0 9035750000.0 9035750000.0 9035750000.0 9035750000.0 9035760000.0 9035760000.0 9035760000.0 9035760000.0 9035760000.0 9035760000.0 9035760000.0 9035760000.0 9035770000.0 9035770000.0 9035780000.0 9035790000.0 9035800000.0 9038090000.0 9035830000.0 9075750000.0 9035910000.0 9176180000.0 9043040000.0 9454510000.0 9066710000.0 9653900000.0 9266200000.0 9927480000.0 9436950000.0 9765590000.0 9894640000.0 10103100000.0 10187200000.0 9394760000.0 9368560000.0 9303300000.0 9263220000.0 9160690000.0 9313250000.0 9107010000.0 9228070000.0 9045330000.0 9165850000.0 9038020000.0 9079230000.0 9035800000.0 9048040000.0 9035780000.0 9036450000.0 9035770000.0 9035760000.0 9035760000.0 9035760000.0 9035760000.0 9035760000.0 9035760000.0 9035760000.0 9035750000.0 9035750000.0 9035750000.0 9035750000.0 9035750000.0 9035750000.0 9035750000.0 9035750000.0 9035750000.0 9035750000.0 9035750000.0 9035750000.0 9035750000.0 9035750000.0 9035750000.0 9035750000.0 9035750000.0 9035750000.0 9035750000.0 9035750000.0 9035750000.0 9035750000.0 9035750000.0 9035750000.0 9035750000.0 9035750000.0 9035750000.0 9035760000.0 9035760000.0 9035760000.0 9035760000.0 9035760000.0 9035760000.0 9035760000.0 9035770000.0 9036450000.0 9035780000.0 9048040000.0 9035800000.0 9079230000.0 9038020000.0 9165850000.0 9045330000.0 9228070000.0 9107010000.0 9313250000.0 9160690000.0 9263220000.0 9303300000.0 9368560000.0 9394760000.0 