# vtk DataFile Version 2.0
Time step 33
ASCII
DATASET UNSTRUCTURED_GRID
POINTS 4650 float
111179.0 432860.0 0
115047.0 432534.0 0
118938.0 432452.0 0
122838.0 432472.0 0
126746.0 432463.0 0
130663.0 432458.0 0
134586.0 432454.0 0
138517.0 432451.0 0
142454.0 432448.0 0
146397.0 432446.0 0
150348.0 432445.0 0
154305.0 432444.0 0
158269.0 432443.0 0
162237.0 432442.0 0
166208.0 432442.0 0
170182.0 432441.0 0
174159.0 432441.0 0
178138.0 432441.0 0
182120.0 432440.0 0
186104.0 432440.0 0
190090.0 432440.0 0
194077.0 432440.0 0
198066.0 432440.0 0
202057.0 432440.0 0
206048.0 432440.0 0
210041.0 432440.0 0
214034.0 432440.0 0
218029.0 432440.0 0
222024.0 432440.0 0
226019.0 432440.0 0
230015.0 432440.0 0
234012.0 432440.0 0
238009.0 432440.0 0
242006.0 432440.0 0
246003.0 432440.0 0
250000.0 432440.0 0
253997.0 432440.0 0
257994.0 432440.0 0
261991.0 432440.0 0
265988.0 432440.0 0
269985.0 432440.0 0
273981.0 432440.0 0
277976.0 432440.0 0
281971.0 432440.0 0
285966.0 432440.0 0
289959.0 432440.0 0
293952.0 432440.0 0
297943.0 432440.0 0
301934.0 432440.0 0
305923.0 432440.0 0
309910.0 432440.0 0
313896.0 432440.0 0
317880.0 432440.0 0
321862.0 432441.0 0
325841.0 432441.0 0
329818.0 432441.0 0
333792.0 432442.0 0
337763.0 432442.0 0
341731.0 432443.0 0
345695.0 432444.0 0
349652.0 432445.0 0
353603.0 432446.0 0
357546.0 432448.0 0
361483.0 432451.0 0
365414.0 432454.0 0
369337.0 432458.0 0
373254.0 432463.0 0
377162.0 432472.0 0
381062.0 432452.0 0
384953.0 432534.0 0
388821.0 432860.0 0
107842.0 434937.0 0
392158.0 434937.0 0
99340.8 440264.0 0
103325.0 437771.0 0
107129.0 438655.0 0
111168.0 436828.0 0
115000.0 436534.0 0
118860.0 436464.0 0
122739.0 436474.0 0
126634.0 436463.0 0
130542.0 436457.0 0
134462.0 436452.0 0
138394.0 436449.0 0
142335.0 436447.0 0
146286.0 436445.0 0
150245.0 436444.0 0
154209.0 436443.0 0
158179.0 436442.0 0
162154.0 436441.0 0
166132.0 436441.0 0
170112.0 436441.0 0
174095.0 436440.0 0
178079.0 436440.0 0
182066.0 436440.0 0
186054.0 436440.0 0
190044.0 436440.0 0
194035.0 436440.0 0
198028.0 436440.0 0
202022.0 436440.0 0
206017.0 436440.0 0
210013.0 436440.0 0
214010.0 436440.0 0
218007.0 436440.0 0
222005.0 436440.0 0
226004.0 436440.0 0
230003.0 436440.0 0
234002.0 436440.0 0
238001.0 436440.0 0
242001.0 436440.0 0
246000.0 436440.0 0
250000.0 436440.0 0
254000.0 436440.0 0
257999.0 436440.0 0
261999.0 436440.0 0
265998.0 436440.0 0
269997.0 436440.0 0
273996.0 436440.0 0
277995.0 436440.0 0
281993.0 436440.0 0
285990.0 436440.0 0
289987.0 436440.0 0
293983.0 436440.0 0
297978.0 436440.0 0
301972.0 436440.0 0
305965.0 436440.0 0
309956.0 436440.0 0
313946.0 436440.0 0
317934.0 436440.0 0
321921.0 436440.0 0
325905.0 436440.0 0
329888.0 436441.0 0
333868.0 436441.0 0
337846.0 436441.0 0
341821.0 436442.0 0
345791.0 436443.0 0
349755.0 436444.0 0
353714.0 436445.0 0
357665.0 436447.0 0
361606.0 436449.0 0
365538.0 436452.0 0
369458.0 436457.0 0
373366.0 436463.0 0
377261.0 436474.0 0
381140.0 436464.0 0
385000.0 436534.0 0
388832.0 436828.0 0
392871.0 438655.0 0
396675.0 437771.0 0
400659.0 440264.0 0
110482.0 440701.0 0
114415.0 440492.0 0
118362.0 440450.0 0
122321.0 440453.0 0
126284.0 440449.0 0
130247.0 440447.0 0
134210.0 440445.0 0
138175.0 440443.0 0
142143.0 440442.0 0
146115.0 440441.0 0
150092.0 440441.0 0
154073.0 440440.0 0
158057.0 440440.0 0
162045.0 440440.0 0
166035.0 440440.0 0
170027.0 440440.0 0
174021.0 440440.0 0
178017.0 440440.0 0
182013.0 440440.0 0
186011.0 440440.0 0
190009.0 440440.0 0
194008.0 440440.0 0
198006.0 440440.0 0
202005.0 440440.0 0
206005.0 440440.0 0
210004.0 440440.0 0
214003.0 440440.0 0
218003.0 440440.0 0
222002.0 440440.0 0
226002.0 440440.0 0
230001.0 440440.0 0
234001.0 440440.0 0
238001.0 440440.0 0
242000.0 440440.0 0
246000.0 440440.0 0
250000.0 440440.0 0
254000.0 440440.0 0
258000.0 440440.0 0
261999.0 440440.0 0
265999.0 440440.0 0
269999.0 440440.0 0
273998.0 440440.0 0
277998.0 440440.0 0
281997.0 440440.0 0
285997.0 440440.0 0
289996.0 440440.0 0
293995.0 440440.0 0
297995.0 440440.0 0
301994.0 440440.0 0
305992.0 440440.0 0
309991.0 440440.0 0
313989.0 440440.0 0
317987.0 440440.0 0
321983.0 440440.0 0
325979.0 440440.0 0
329973.0 440440.0 0
333965.0 440440.0 0
337955.0 440440.0 0
341943.0 440440.0 0
345927.0 440440.0 0
349908.0 440441.0 0
353885.0 440441.0 0
357857.0 440442.0 0
361825.0 440443.0 0
365790.0 440445.0 0
369753.0 440447.0 0
373716.0 440449.0 0
377679.0 440453.0 0
381638.0 440450.0 0
385585.0 440492.0 0
389518.0 440701.0 0
103015.0 441722.0 0
106909.0 442503.0 0
393091.0 442503.0 0
396985.0 441722.0 0
100554.0 444989.0 0
104482.0 445563.0 0
110200.0 444623.0 0
114135.0 444480.0 0
118086.0 444443.0 0
122053.0 444443.0 0
126029.0 444441.0 0
130012.0 444441.0 0
134003.0 444440.0 0
138001.0 444440.0 0
142000.0 444440.0 0
146000.0 444440.0 0
150000.0 444440.0 0
154000.0 444440.0 0
158000.0 444440.0 0
162000.0 444440.0 0
166000.0 444440.0 0
170000.0 444440.0 0
174000.0 444440.0 0
178000.0 444440.0 0
182000.0 444440.0 0
186000.0 444440.0 0
190000.0 444440.0 0
194000.0 444440.0 0
198000.0 444440.0 0
202000.0 444440.0 0
206000.0 444440.0 0
210000.0 444440.0 0
214000.0 444440.0 0
218000.0 444440.0 0
222000.0 444440.0 0
226000.0 444440.0 0
230000.0 444440.0 0
234000.0 444440.0 0
238000.0 444440.0 0
242000.0 444440.0 0
246000.0 444440.0 0
250000.0 444440.0 0
254000.0 444440.0 0
258000.0 444440.0 0
262000.0 444440.0 0
266000.0 444440.0 0
270000.0 444440.0 0
274000.0 444440.0 0
278000.0 444440.0 0
282000.0 444440.0 0
286000.0 444440.0 0
290000.0 444440.0 0
294000.0 444440.0 0
298000.0 444440.0 0
302000.0 444440.0 0
306000.0 444440.0 0
310000.0 444440.0 0
314000.0 444440.0 0
318000.0 444440.0 0
322000.0 444440.0 0
326000.0 444440.0 0
330000.0 444440.0 0
334000.0 444440.0 0
338000.0 444440.0 0
342000.0 444440.0 0
346000.0 444440.0 0
350000.0 444440.0 0
354000.0 444440.0 0
358000.0 444440.0 0
361999.0 444440.0 0
365997.0 444440.0 0
369988.0 444441.0 0
373971.0 444441.0 0
377947.0 444443.0 0
381914.0 444443.0 0
385865.0 444480.0 0
389800.0 444623.0 0
395518.0 445563.0 0
399446.0 444989.0 0
110190.0 448542.0 0
114156.0 448474.0 0
118125.0 448443.0 0
122099.0 448442.0 0
126077.0 448441.0 0
130059.0 448441.0 0
134045.0 448440.0 0
138034.0 448440.0 0
142025.0 448440.0 0
146018.0 448440.0 0
150013.0 448440.0 0
154009.0 448440.0 0
158006.0 448440.0 0
162004.0 448440.0 0
166003.0 448440.0 0
170002.0 448440.0 0
174001.0 448440.0 0
178001.0 448440.0 0
182001.0 448440.0 0
186000.0 448440.0 0
190000.0 448440.0 0
194000.0 448440.0 0
198000.0 448440.0 0
202000.0 448440.0 0
206000.0 448440.0 0
210000.0 448440.0 0
214000.0 448440.0 0
218000.0 448440.0 0
222000.0 448440.0 0
226000.0 448440.0 0
230000.0 448440.0 0
234000.0 448440.0 0
238000.0 448440.0 0
242000.0 448440.0 0
246000.0 448440.0 0
250000.0 448440.0 0
254000.0 448440.0 0
258000.0 448440.0 0
262000.0 448440.0 0
266000.0 448440.0 0
270000.0 448440.0 0
274000.0 448440.0 0
278000.0 448440.0 0
282000.0 448440.0 0
286000.0 448440.0 0
290000.0 448440.0 0
294000.0 448440.0 0
298000.0 448440.0 0
302000.0 448440.0 0
306000.0 448440.0 0
310000.0 448440.0 0
314000.0 448440.0 0
317999.0 448440.0 0
321999.0 448440.0 0
325999.0 448440.0 0
329998.0 448440.0 0
333997.0 448440.0 0
337996.0 448440.0 0
341994.0 448440.0 0
345991.0 448440.0 0
349987.0 448440.0 0
353982.0 448440.0 0
357975.0 448440.0 0
361966.0 448440.0 0
365955.0 448440.0 0
369941.0 448441.0 0
373923.0 448441.0 0
377901.0 448442.0 0
381875.0 448443.0 0
385844.0 448474.0 0
389810.0 448542.0 0
102176.0 448758.0 0
106262.0 449087.0 0
393738.0 449087.0 0
397824.0 448758.0 0
101854.0 452721.0 0
105840.0 452999.0 0
109994.0 452492.0 0
113998.0 452464.0 0
118000.0 452441.0 0
122000.0 452441.0 0
126000.0 452441.0 0
130000.0 452440.0 0
134000.0 452440.0 0
138000.0 452440.0 0
142000.0 452440.0 0
146000.0 452440.0 0
150000.0 452440.0 0
154000.0 452440.0 0
158000.0 452440.0 0
162000.0 452440.0 0
166000.0 452440.0 0
170000.0 452440.0 0
174000.0 452440.0 0
178000.0 452440.0 0
182000.0 452440.0 0
186000.0 452440.0 0
190000.0 452440.0 0
194000.0 452440.0 0
198000.0 452440.0 0
202000.0 452440.0 0
206000.0 452440.0 0
210000.0 452440.0 0
214000.0 452440.0 0
218000.0 452440.0 0
222000.0 452440.0 0
226000.0 452440.0 0
230000.0 452440.0 0
234000.0 452440.0 0
238000.0 452440.0 0
242000.0 452440.0 0
246000.0 452440.0 0
250000.0 452440.0 0
254000.0 452440.0 0
258000.0 452440.0 0
262000.0 452440.0 0
266000.0 452440.0 0
270000.0 452440.0 0
274000.0 452440.0 0
278000.0 452440.0 0
282000.0 452440.0 0
286000.0 452440.0 0
290000.0 452440.0 0
294000.0 452440.0 0
298000.0 452440.0 0
302000.0 452440.0 0
306000.0 452440.0 0
310000.0 452440.0 0
314000.0 452440.0 0
318000.0 452440.0 0
322000.0 452440.0 0
326000.0 452440.0 0
330000.0 452440.0 0
334000.0 452440.0 0
338000.0 452440.0 0
342000.0 452440.0 0
346000.0 452440.0 0
350000.0 452440.0 0
354000.0 452440.0 0
358000.0 452440.0 0
362000.0 452440.0 0
366000.0 452440.0 0
370000.0 452440.0 0
374000.0 452441.0 0
378000.0 452441.0 0
382000.0 452441.0 0
386002.0 452464.0 0
390006.0 452492.0 0
394160.0 452999.0 0
398146.0 452721.0 0
110012.0 456465.0 0
114008.0 456458.0 0
118005.0 456441.0 0
122004.0 456441.0 0
126002.0 456440.0 0
130001.0 456440.0 0
134000.0 456440.0 0
138000.0 456440.0 0
142000.0 456440.0 0
146000.0 456440.0 0
150000.0 456440.0 0
154000.0 456440.0 0
158000.0 456440.0 0
162000.0 456440.0 0
166000.0 456440.0 0
170000.0 456440.0 0
174000.0 456440.0 0
178000.0 456440.0 0
182000.0 456440.0 0
186000.0 456440.0 0
190000.0 456440.0 0
194000.0 456440.0 0
198000.0 456440.0 0
202000.0 456440.0 0
206000.0 456440.0 0
210000.0 456440.0 0
214000.0 456440.0 0
218000.0 456440.0 0
222000.0 456440.0 0
226000.0 456440.0 0
230000.0 456440.0 0
234000.0 456440.0 0
238000.0 456440.0 0
242000.0 456440.0 0
246000.0 456440.0 0
250000.0 456440.0 0
254000.0 456440.0 0
258000.0 456440.0 0
262000.0 456440.0 0
266000.0 456440.0 0
270000.0 456440.0 0
274000.0 456440.0 0
278000.0 456440.0 0
282000.0 456440.0 0
286000.0 456440.0 0
290000.0 456440.0 0
294000.0 456440.0 0
298000.0 456440.0 0
302000.0 456440.0 0
306000.0 456440.0 0
310000.0 456440.0 0
314000.0 456440.0 0
318000.0 456440.0 0
322000.0 456440.0 0
326000.0 456440.0 0
330000.0 456440.0 0
334000.0 456440.0 0
338000.0 456440.0 0
342000.0 456440.0 0
346000.0 456440.0 0
350000.0 456440.0 0
354000.0 456440.0 0
358000.0 456440.0 0
362000.0 456440.0 0
366000.0 456440.0 0
369999.0 456440.0 0
373998.0 456440.0 0
377996.0 456441.0 0
381995.0 456441.0 0
385992.0 456458.0 0
389988.0 456465.0 0
102015.0 456706.0 0
106043.0 456923.0 0
393957.0 456923.0 0
397985.0 456706.0 0
101994.0 460691.0 0
105990.0 460853.0 0
110000.0 460451.0 0
114000.0 460453.0 0
118000.0 460441.0 0
122000.0 460441.0 0
126000.0 460440.0 0
130000.0 460440.0 0
134000.0 460440.0 0
138000.0 460440.0 0
142000.0 460440.0 0
146000.0 460440.0 0
150000.0 460440.0 0
154000.0 460440.0 0
158000.0 460440.0 0
162000.0 460440.0 0
166000.0 460440.0 0
170000.0 460440.0 0
174000.0 460440.0 0
178000.0 460440.0 0
182000.0 460440.0 0
186000.0 460440.0 0
190000.0 460440.0 0
194000.0 460440.0 0
198000.0 460440.0 0
202000.0 460440.0 0
206000.0 460440.0 0
210000.0 460440.0 0
214000.0 460440.0 0
218000.0 460440.0 0
222000.0 460440.0 0
226000.0 460440.0 0
230000.0 460440.0 0
234000.0 460440.0 0
238000.0 460440.0 0
242000.0 460440.0 0
246000.0 460440.0 0
250000.0 460440.0 0
254000.0 460440.0 0
258000.0 460440.0 0
262000.0 460440.0 0
266000.0 460440.0 0
270000.0 460440.0 0
274000.0 460440.0 0
278000.0 460440.0 0
282000.0 460440.0 0
286000.0 460440.0 0
290000.0 460440.0 0
294000.0 460440.0 0
298000.0 460440.0 0
302000.0 460440.0 0
306000.0 460440.0 0
310000.0 460440.0 0
314000.0 460440.0 0
318000.0 460440.0 0
322000.0 460440.0 0
326000.0 460440.0 0
330000.0 460440.0 0
334000.0 460440.0 0
338000.0 460440.0 0
342000.0 460440.0 0
346000.0 460440.0 0
350000.0 460440.0 0
354000.0 460440.0 0
358000.0 460440.0 0
362000.0 460440.0 0
366000.0 460440.0 0
370000.0 460440.0 0
374000.0 460440.0 0
378000.0 460441.0 0
382000.0 460441.0 0
386000.0 460453.0 0
390000.0 460451.0 0
394010.0 460853.0 0
398006.0 460691.0 0
102000.0 464673.0 0
106002.0 464786.0 0
110000.0 464445.0 0
114000.0 464449.0 0
118000.0 464441.0 0
122000.0 464441.0 0
126000.0 464440.0 0
130000.0 464440.0 0
134000.0 464440.0 0
138000.0 464440.0 0
142000.0 464440.0 0
146000.0 464440.0 0
150000.0 464440.0 0
154000.0 464440.0 0
158000.0 464440.0 0
162000.0 464440.0 0
166000.0 464440.0 0
170000.0 464440.0 0
174000.0 464440.0 0
178000.0 464440.0 0
182000.0 464440.0 0
186000.0 464440.0 0
190000.0 464440.0 0
194000.0 464440.0 0
198000.0 464440.0 0
202000.0 464440.0 0
206000.0 464440.0 0
210000.0 464440.0 0
214000.0 464440.0 0
218000.0 464440.0 0
222000.0 464440.0 0
226000.0 464440.0 0
230000.0 464440.0 0
234000.0 464440.0 0
238000.0 464440.0 0
242000.0 464440.0 0
246000.0 464440.0 0
250000.0 464440.0 0
254000.0 464440.0 0
258000.0 464440.0 0
262000.0 464440.0 0
266000.0 464440.0 0
270000.0 464440.0 0
274000.0 464440.0 0
278000.0 464440.0 0
282000.0 464440.0 0
286000.0 464440.0 0
290000.0 464440.0 0
294000.0 464440.0 0
298000.0 464440.0 0
302000.0 464440.0 0
306000.0 464440.0 0
310000.0 464440.0 0
314000.0 464440.0 0
318000.0 464440.0 0
322000.0 464440.0 0
326000.0 464440.0 0
330000.0 464440.0 0
334000.0 464440.0 0
338000.0 464440.0 0
342000.0 464440.0 0
346000.0 464440.0 0
350000.0 464440.0 0
354000.0 464440.0 0
358000.0 464440.0 0
362000.0 464440.0 0
366000.0 464440.0 0
370000.0 464440.0 0
374000.0 464440.0 0
378000.0 464441.0 0
382000.0 464441.0 0
386000.0 464449.0 0
390000.0 464445.0 0
393998.0 464786.0 0
398000.0 464673.0 0
102000.0 468652.0 0
106000.0 468725.0 0
110000.0 468444.0 0
114000.0 468446.0 0
118000.0 468441.0 0
122000.0 468441.0 0
126000.0 468440.0 0
130000.0 468440.0 0
134000.0 468440.0 0
138000.0 468440.0 0
142000.0 468440.0 0
146000.0 468440.0 0
150000.0 468440.0 0
154000.0 468440.0 0
158000.0 468440.0 0
162000.0 468440.0 0
166000.0 468440.0 0
170000.0 468440.0 0
174000.0 468440.0 0
178000.0 468440.0 0
182000.0 468440.0 0
186000.0 468440.0 0
190000.0 468440.0 0
194000.0 468440.0 0
198000.0 468440.0 0
202000.0 468440.0 0
206000.0 468440.0 0
210000.0 468440.0 0
214000.0 468440.0 0
218000.0 468440.0 0
222000.0 468440.0 0
226000.0 468440.0 0
230000.0 468440.0 0
234000.0 468440.0 0
238000.0 468440.0 0
242000.0 468440.0 0
246000.0 468440.0 0
250000.0 468440.0 0
254000.0 468440.0 0
258000.0 468440.0 0
262000.0 468440.0 0
266000.0 468440.0 0
270000.0 468440.0 0
274000.0 468440.0 0
278000.0 468440.0 0
282000.0 468440.0 0
286000.0 468440.0 0
290000.0 468440.0 0
294000.0 468440.0 0
298000.0 468440.0 0
302000.0 468440.0 0
306000.0 468440.0 0
310000.0 468440.0 0
314000.0 468440.0 0
318000.0 468440.0 0
322000.0 468440.0 0
326000.0 468440.0 0
330000.0 468440.0 0
334000.0 468440.0 0
338000.0 468440.0 0
342000.0 468440.0 0
346000.0 468440.0 0
350000.0 468440.0 0
354000.0 468440.0 0
358000.0 468440.0 0
362000.0 468440.0 0
366000.0 468440.0 0
370000.0 468440.0 0
374000.0 468440.0 0
378000.0 468441.0 0
382000.0 468441.0 0
386000.0 468446.0 0
390000.0 468444.0 0
394000.0 468725.0 0
398000.0 468652.0 0
102000.0 472630.0 0
106000.0 472670.0 0
110000.0 472443.0 0
114000.0 472444.0 0
118000.0 472441.0 0
122000.0 472440.0 0
126000.0 472440.0 0
130000.0 472440.0 0
134000.0 472440.0 0
138000.0 472440.0 0
142000.0 472440.0 0
146000.0 472440.0 0
150000.0 472440.0 0
154000.0 472440.0 0
158000.0 472440.0 0
162000.0 472440.0 0
166000.0 472440.0 0
170000.0 472440.0 0
174000.0 472440.0 0
178000.0 472440.0 0
182000.0 472440.0 0
186000.0 472440.0 0
190000.0 472440.0 0
194000.0 472440.0 0
198000.0 472440.0 0
202000.0 472440.0 0
206000.0 472440.0 0
210000.0 472440.0 0
214000.0 472440.0 0
218000.0 472440.0 0
222000.0 472440.0 0
226000.0 472440.0 0
230000.0 472440.0 0
234000.0 472440.0 0
238000.0 472440.0 0
242000.0 472440.0 0
246000.0 472440.0 0
250000.0 472440.0 0
254000.0 472440.0 0
258000.0 472440.0 0
262000.0 472440.0 0
266000.0 472440.0 0
270000.0 472440.0 0
274000.0 472440.0 0
278000.0 472440.0 0
282000.0 472440.0 0
286000.0 472440.0 0
290000.0 472440.0 0
294000.0 472440.0 0
298000.0 472440.0 0
302000.0 472440.0 0
306000.0 472440.0 0
310000.0 472440.0 0
314000.0 472440.0 0
318000.0 472440.0 0
322000.0 472440.0 0
326000.0 472440.0 0
330000.0 472440.0 0
334000.0 472440.0 0
338000.0 472440.0 0
342000.0 472440.0 0
346000.0 472440.0 0
350000.0 472440.0 0
354000.0 472440.0 0
358000.0 472440.0 0
362000.0 472440.0 0
366000.0 472440.0 0
370000.0 472440.0 0
374000.0 472440.0 0
378000.0 472440.0 0
382000.0 472441.0 0
386000.0 472444.0 0
390000.0 472443.0 0
394000.0 472670.0 0
398000.0 472630.0 0
102000.0 476607.0 0
106000.0 476623.0 0
110000.0 476443.0 0
114000.0 476443.0 0
118000.0 476441.0 0
122000.0 476440.0 0
126000.0 476440.0 0
130000.0 476440.0 0
134000.0 476440.0 0
138000.0 476440.0 0
142000.0 476440.0 0
146000.0 476440.0 0
150000.0 476440.0 0
154000.0 476440.0 0
158000.0 476440.0 0
162000.0 476440.0 0
166000.0 476440.0 0
170000.0 476440.0 0
174000.0 476440.0 0
178000.0 476440.0 0
182000.0 476440.0 0
186000.0 476440.0 0
190000.0 476440.0 0
194000.0 476440.0 0
198000.0 476440.0 0
202000.0 476440.0 0
206000.0 476440.0 0
210000.0 476440.0 0
214000.0 476440.0 0
218000.0 476440.0 0
222000.0 476440.0 0
226000.0 476440.0 0
230000.0 476440.0 0
234000.0 476440.0 0
238000.0 476440.0 0
242000.0 476440.0 0
246000.0 476440.0 0
250000.0 476440.0 0
254000.0 476440.0 0
258000.0 476440.0 0
262000.0 476440.0 0
266000.0 476440.0 0
270000.0 476440.0 0
274000.0 476440.0 0
278000.0 476440.0 0
282000.0 476440.0 0
286000.0 476440.0 0
290000.0 476440.0 0
294000.0 476440.0 0
298000.0 476440.0 0
302000.0 476440.0 0
306000.0 476440.0 0
310000.0 476440.0 0
314000.0 476440.0 0
318000.0 476440.0 0
322000.0 476440.0 0
326000.0 476440.0 0
330000.0 476440.0 0
334000.0 476440.0 0
338000.0 476440.0 0
342000.0 476440.0 0
346000.0 476440.0 0
350000.0 476440.0 0
354000.0 476440.0 0
358000.0 476440.0 0
362000.0 476440.0 0
366000.0 476440.0 0
370000.0 476440.0 0
374000.0 476440.0 0
378000.0 476440.0 0
382000.0 476441.0 0
386000.0 476443.0 0
390000.0 476443.0 0
394000.0 476623.0 0
398000.0 476607.0 0
102000.0 480585.0 0
106000.0 480582.0 0
110000.0 480443.0 0
114000.0 480442.0 0
118000.0 480440.0 0
122000.0 480440.0 0
126000.0 480440.0 0
130000.0 480440.0 0
134000.0 480440.0 0
138000.0 480440.0 0
142000.0 480440.0 0
146000.0 480440.0 0
150000.0 480440.0 0
154000.0 480440.0 0
158000.0 480440.0 0
162000.0 480440.0 0
166000.0 480440.0 0
170000.0 480440.0 0
174000.0 480440.0 0
178000.0 480440.0 0
182000.0 480440.0 0
186000.0 480440.0 0
190000.0 480440.0 0
194000.0 480440.0 0
198000.0 480440.0 0
202000.0 480440.0 0
206000.0 480440.0 0
210000.0 480440.0 0
214000.0 480440.0 0
218000.0 480440.0 0
222000.0 480440.0 0
226000.0 480440.0 0
230000.0 480440.0 0
234000.0 480440.0 0
238000.0 480440.0 0
242000.0 480440.0 0
246000.0 480440.0 0
250000.0 480440.0 0
254000.0 480440.0 0
258000.0 480440.0 0
262000.0 480440.0 0
266000.0 480440.0 0
270000.0 480440.0 0
274000.0 480440.0 0
278000.0 480440.0 0
282000.0 480440.0 0
286000.0 480440.0 0
290000.0 480440.0 0
294000.0 480440.0 0
298000.0 480440.0 0
302000.0 480440.0 0
306000.0 480440.0 0
310000.0 480440.0 0
314000.0 480440.0 0
318000.0 480440.0 0
322000.0 480440.0 0
326000.0 480440.0 0
330000.0 480440.0 0
334000.0 480440.0 0
338000.0 480440.0 0
342000.0 480440.0 0
346000.0 480440.0 0
350000.0 480440.0 0
354000.0 480440.0 0
358000.0 480440.0 0
362000.0 480440.0 0
366000.0 480440.0 0
370000.0 480440.0 0
374000.0 480440.0 0
378000.0 480440.0 0
382000.0 480440.0 0
386000.0 480442.0 0
390000.0 480443.0 0
394000.0 480582.0 0
398000.0 480585.0 0
102000.0 484565.0 0
106000.0 484549.0 0
110000.0 484442.0 0
114000.0 484441.0 0
118000.0 484440.0 0
122000.0 484440.0 0
126000.0 484440.0 0
130000.0 484440.0 0
134000.0 484440.0 0
138000.0 484440.0 0
142000.0 484440.0 0
146000.0 484440.0 0
150000.0 484440.0 0
154000.0 484440.0 0
158000.0 484440.0 0
162000.0 484440.0 0
166000.0 484440.0 0
170000.0 484440.0 0
174000.0 484440.0 0
178000.0 484440.0 0
182000.0 484440.0 0
186000.0 484440.0 0
190000.0 484440.0 0
194000.0 484440.0 0
198000.0 484440.0 0
202000.0 484440.0 0
206000.0 484440.0 0
210000.0 484440.0 0
214000.0 484440.0 0
218000.0 484440.0 0
222000.0 484440.0 0
226000.0 484440.0 0
230000.0 484440.0 0
234000.0 484440.0 0
238000.0 484440.0 0
242000.0 484440.0 0
246000.0 484440.0 0
250000.0 484440.0 0
254000.0 484440.0 0
258000.0 484440.0 0
262000.0 484440.0 0
266000.0 484440.0 0
270000.0 484440.0 0
274000.0 484440.0 0
278000.0 484440.0 0
282000.0 484440.0 0
286000.0 484440.0 0
290000.0 484440.0 0
294000.0 484440.0 0
298000.0 484440.0 0
302000.0 484440.0 0
306000.0 484440.0 0
310000.0 484440.0 0
314000.0 484440.0 0
318000.0 484440.0 0
322000.0 484440.0 0
326000.0 484440.0 0
330000.0 484440.0 0
334000.0 484440.0 0
338000.0 484440.0 0
342000.0 484440.0 0
346000.0 484440.0 0
350000.0 484440.0 0
354000.0 484440.0 0
358000.0 484440.0 0
362000.0 484440.0 0
366000.0 484440.0 0
370000.0 484440.0 0
374000.0 484440.0 0
378000.0 484440.0 0
382000.0 484440.0 0
386000.0 484441.0 0
390000.0 484442.0 0
394000.0 484549.0 0
398000.0 484565.0 0
102000.0 488546.0 0
106000.0 488522.0 0
110000.0 488442.0 0
114000.0 488441.0 0
118000.0 488440.0 0
122000.0 488440.0 0
126000.0 488440.0 0
130000.0 488440.0 0
134000.0 488440.0 0
138000.0 488440.0 0
142000.0 488440.0 0
146000.0 488440.0 0
150000.0 488440.0 0
154000.0 488440.0 0
158000.0 488440.0 0
162000.0 488440.0 0
166000.0 488440.0 0
170000.0 488440.0 0
174000.0 488440.0 0
178000.0 488440.0 0
182000.0 488440.0 0
186000.0 488440.0 0
190000.0 488440.0 0
194000.0 488440.0 0
198000.0 488440.0 0
202000.0 488440.0 0
206000.0 488440.0 0
210000.0 488440.0 0
214000.0 488440.0 0
218000.0 488440.0 0
222000.0 488440.0 0
226000.0 488440.0 0
230000.0 488440.0 0
234000.0 488440.0 0
238000.0 488440.0 0
242000.0 488440.0 0
246000.0 488440.0 0
250000.0 488440.0 0
254000.0 488440.0 0
258000.0 488440.0 0
262000.0 488440.0 0
266000.0 488440.0 0
270000.0 488440.0 0
274000.0 488440.0 0
278000.0 488440.0 0
282000.0 488440.0 0
286000.0 488440.0 0
290000.0 488440.0 0
294000.0 488440.0 0
298000.0 488440.0 0
302000.0 488440.0 0
306000.0 488440.0 0
310000.0 488440.0 0
314000.0 488440.0 0
318000.0 488440.0 0
322000.0 488440.0 0
326000.0 488440.0 0
330000.0 488440.0 0
334000.0 488440.0 0
338000.0 488440.0 0
342000.0 488440.0 0
346000.0 488440.0 0
350000.0 488440.0 0
354000.0 488440.0 0
358000.0 488440.0 0
362000.0 488440.0 0
366000.0 488440.0 0
370000.0 488440.0 0
374000.0 488440.0 0
378000.0 488440.0 0
382000.0 488440.0 0
386000.0 488441.0 0
390000.0 488442.0 0
394000.0 488522.0 0
398000.0 488546.0 0
102000.0 492529.0 0
106000.0 492500.0 0
110000.0 492442.0 0
114000.0 492440.0 0
118000.0 492440.0 0
122000.0 492440.0 0
126000.0 492440.0 0
130000.0 492440.0 0
134000.0 492440.0 0
138000.0 492440.0 0
142000.0 492440.0 0
146000.0 492440.0 0
150000.0 492440.0 0
154000.0 492440.0 0
158000.0 492440.0 0
162000.0 492440.0 0
166000.0 492440.0 0
170000.0 492440.0 0
174000.0 492440.0 0
178000.0 492440.0 0
182000.0 492440.0 0
186000.0 492440.0 0
190000.0 492440.0 0
194000.0 492440.0 0
198000.0 492440.0 0
202000.0 492440.0 0
206000.0 492440.0 0
210000.0 492440.0 0
214000.0 492440.0 0
218000.0 492440.0 0
222000.0 492440.0 0
226000.0 492440.0 0
230000.0 492440.0 0
234000.0 492440.0 0
238000.0 492440.0 0
242000.0 492440.0 0
246000.0 492440.0 0
250000.0 492440.0 0
254000.0 492440.0 0
258000.0 492440.0 0
262000.0 492440.0 0
266000.0 492440.0 0
270000.0 492440.0 0
274000.0 492440.0 0
278000.0 492440.0 0
282000.0 492440.0 0
286000.0 492440.0 0
290000.0 492440.0 0
294000.0 492440.0 0
298000.0 492440.0 0
302000.0 492440.0 0
306000.0 492440.0 0
310000.0 492440.0 0
314000.0 492440.0 0
318000.0 492440.0 0
322000.0 492440.0 0
326000.0 492440.0 0
330000.0 492440.0 0
334000.0 492440.0 0
338000.0 492440.0 0
342000.0 492440.0 0
346000.0 492440.0 0
350000.0 492440.0 0
354000.0 492440.0 0
358000.0 492440.0 0
362000.0 492440.0 0
366000.0 492440.0 0
370000.0 492440.0 0
374000.0 492440.0 0
378000.0 492440.0 0
382000.0 492440.0 0
386000.0 492440.0 0
390000.0 492442.0 0
394000.0 492500.0 0
398000.0 492529.0 0
102000.0 496514.0 0
106000.0 496484.0 0
110000.0 496441.0 0
114000.0 496440.0 0
118000.0 496440.0 0
122000.0 496440.0 0
126000.0 496440.0 0
130000.0 496440.0 0
134000.0 496440.0 0
138000.0 496440.0 0
142000.0 496440.0 0
146000.0 496440.0 0
150000.0 496440.0 0
154000.0 496440.0 0
158000.0 496440.0 0
162000.0 496440.0 0
166000.0 496440.0 0
170000.0 496440.0 0
174000.0 496440.0 0
178000.0 496440.0 0
182000.0 496440.0 0
186000.0 496440.0 0
190000.0 496440.0 0
194000.0 496440.0 0
198000.0 496440.0 0
202000.0 496440.0 0
206000.0 496440.0 0
210000.0 496440.0 0
214000.0 496440.0 0
218000.0 496440.0 0
222000.0 496440.0 0
226000.0 496440.0 0
230000.0 496440.0 0
234000.0 496440.0 0
238000.0 496440.0 0
242000.0 496440.0 0
246000.0 496440.0 0
250000.0 496440.0 0
254000.0 496440.0 0
258000.0 496440.0 0
262000.0 496440.0 0
266000.0 496440.0 0
270000.0 496440.0 0
274000.0 496440.0 0
278000.0 496440.0 0
282000.0 496440.0 0
286000.0 496440.0 0
290000.0 496440.0 0
294000.0 496440.0 0
298000.0 496440.0 0
302000.0 496440.0 0
306000.0 496440.0 0
310000.0 496440.0 0
314000.0 496440.0 0
318000.0 496440.0 0
322000.0 496440.0 0
326000.0 496440.0 0
330000.0 496440.0 0
334000.0 496440.0 0
338000.0 496440.0 0
342000.0 496440.0 0
346000.0 496440.0 0
350000.0 496440.0 0
354000.0 496440.0 0
358000.0 496440.0 0
362000.0 496440.0 0
366000.0 496440.0 0
370000.0 496440.0 0
374000.0 496440.0 0
378000.0 496440.0 0
382000.0 496440.0 0
386000.0 496440.0 0
390000.0 496441.0 0
394000.0 496484.0 0
398000.0 496514.0 0
102000.0 500502.0 0
106000.0 500471.0 0
110000.0 500441.0 0
114000.0 500440.0 0
118000.0 500440.0 0
122000.0 500440.0 0
126000.0 500440.0 0
130000.0 500440.0 0
134000.0 500440.0 0
138000.0 500440.0 0
142000.0 500440.0 0
146000.0 500440.0 0
150000.0 500440.0 0
154000.0 500440.0 0
158000.0 500440.0 0
162000.0 500440.0 0
166000.0 500440.0 0
170000.0 500440.0 0
174000.0 500440.0 0
178000.0 500440.0 0
182000.0 500440.0 0
186000.0 500440.0 0
190000.0 500440.0 0
194000.0 500440.0 0
198000.0 500440.0 0
202000.0 500440.0 0
206000.0 500440.0 0
210000.0 500440.0 0
214000.0 500440.0 0
218000.0 500440.0 0
222000.0 500440.0 0
226000.0 500440.0 0
230000.0 500440.0 0
234000.0 500440.0 0
238000.0 500440.0 0
242000.0 500440.0 0
246000.0 500440.0 0
250000.0 500440.0 0
254000.0 500440.0 0
258000.0 500440.0 0
262000.0 500440.0 0
266000.0 500440.0 0
270000.0 500440.0 0
274000.0 500440.0 0
278000.0 500440.0 0
282000.0 500440.0 0
286000.0 500440.0 0
290000.0 500440.0 0
294000.0 500440.0 0
298000.0 500440.0 0
302000.0 500440.0 0
306000.0 500440.0 0
310000.0 500440.0 0
314000.0 500440.0 0
318000.0 500440.0 0
322000.0 500440.0 0
326000.0 500440.0 0
330000.0 500440.0 0
334000.0 500440.0 0
338000.0 500440.0 0
342000.0 500440.0 0
346000.0 500440.0 0
350000.0 500440.0 0
354000.0 500440.0 0
358000.0 500440.0 0
362000.0 500440.0 0
366000.0 500440.0 0
370000.0 500440.0 0
374000.0 500440.0 0
378000.0 500440.0 0
382000.0 500440.0 0
386000.0 500440.0 0
390000.0 500441.0 0
394000.0 500471.0 0
398000.0 500502.0 0
102000.0 504491.0 0
106000.0 504462.0 0
110000.0 504441.0 0
114000.0 504440.0 0
118000.0 504440.0 0
122000.0 504440.0 0
126000.0 504440.0 0
130000.0 504440.0 0
134000.0 504440.0 0
138000.0 504440.0 0
142000.0 504440.0 0
146000.0 504440.0 0
150000.0 504440.0 0
154000.0 504440.0 0
158000.0 504440.0 0
162000.0 504440.0 0
166000.0 504440.0 0
170000.0 504440.0 0
174000.0 504440.0 0
178000.0 504440.0 0
182000.0 504440.0 0
186000.0 504440.0 0
190000.0 504440.0 0
194000.0 504440.0 0
198000.0 504440.0 0
202000.0 504440.0 0
206000.0 504440.0 0
210000.0 504440.0 0
214000.0 504440.0 0
218000.0 504440.0 0
222000.0 504440.0 0
226000.0 504440.0 0
230000.0 504440.0 0
234000.0 504440.0 0
238000.0 504440.0 0
242000.0 504440.0 0
246000.0 504440.0 0
250000.0 504440.0 0
254000.0 504440.0 0
258000.0 504440.0 0
262000.0 504440.0 0
266000.0 504440.0 0
270000.0 504440.0 0
274000.0 504440.0 0
278000.0 504440.0 0
282000.0 504440.0 0
286000.0 504440.0 0
290000.0 504440.0 0
294000.0 504440.0 0
298000.0 504440.0 0
302000.0 504440.0 0
306000.0 504440.0 0
310000.0 504440.0 0
314000.0 504440.0 0
318000.0 504440.0 0
322000.0 504440.0 0
326000.0 504440.0 0
330000.0 504440.0 0
334000.0 504440.0 0
338000.0 504440.0 0
342000.0 504440.0 0
346000.0 504440.0 0
350000.0 504440.0 0
354000.0 504440.0 0
358000.0 504440.0 0
362000.0 504440.0 0
366000.0 504440.0 0
370000.0 504440.0 0
374000.0 504440.0 0
378000.0 504440.0 0
382000.0 504440.0 0
386000.0 504440.0 0
390000.0 504441.0 0
394000.0 504462.0 0
398000.0 504491.0 0
102000.0 508482.0 0
106000.0 508455.0 0
110000.0 508441.0 0
114000.0 508440.0 0
118000.0 508440.0 0
122000.0 508440.0 0
126000.0 508440.0 0
130000.0 508440.0 0
134000.0 508440.0 0
138000.0 508440.0 0
142000.0 508440.0 0
146000.0 508440.0 0
150000.0 508440.0 0
154000.0 508440.0 0
158000.0 508440.0 0
162000.0 508440.0 0
166000.0 508440.0 0
170000.0 508440.0 0
174000.0 508440.0 0
178000.0 508440.0 0
182000.0 508440.0 0
186000.0 508440.0 0
190000.0 508440.0 0
194000.0 508440.0 0
198000.0 508440.0 0
202000.0 508440.0 0
206000.0 508440.0 0
210000.0 508440.0 0
214000.0 508440.0 0
218000.0 508440.0 0
222000.0 508440.0 0
226000.0 508440.0 0
230000.0 508440.0 0
234000.0 508440.0 0
238000.0 508440.0 0
242000.0 508440.0 0
246000.0 508440.0 0
250000.0 508440.0 0
254000.0 508440.0 0
258000.0 508440.0 0
262000.0 508440.0 0
266000.0 508440.0 0
270000.0 508440.0 0
274000.0 508440.0 0
278000.0 508440.0 0
282000.0 508440.0 0
286000.0 508440.0 0
290000.0 508440.0 0
294000.0 508440.0 0
298000.0 508440.0 0
302000.0 508440.0 0
306000.0 508440.0 0
310000.0 508440.0 0
314000.0 508440.0 0
318000.0 508440.0 0
322000.0 508440.0 0
326000.0 508440.0 0
330000.0 508440.0 0
334000.0 508440.0 0
338000.0 508440.0 0
342000.0 508440.0 0
346000.0 508440.0 0
350000.0 508440.0 0
354000.0 508440.0 0
358000.0 508440.0 0
362000.0 508440.0 0
366000.0 508440.0 0
370000.0 508440.0 0
374000.0 508440.0 0
378000.0 508440.0 0
382000.0 508440.0 0
386000.0 508440.0 0
390000.0 508441.0 0
394000.0 508455.0 0
398000.0 508482.0 0
102000.0 512474.0 0
106000.0 512450.0 0
110000.0 512440.0 0
114000.0 512440.0 0
118000.0 512440.0 0
122000.0 512440.0 0
126000.0 512440.0 0
130000.0 512440.0 0
134000.0 512440.0 0
138000.0 512440.0 0
142000.0 512440.0 0
146000.0 512440.0 0
150000.0 512440.0 0
154000.0 512440.0 0
158000.0 512440.0 0
162000.0 512440.0 0
166000.0 512440.0 0
170000.0 512440.0 0
174000.0 512440.0 0
178000.0 512440.0 0
182000.0 512440.0 0
186000.0 512440.0 0
190000.0 512440.0 0
194000.0 512440.0 0
198000.0 512440.0 0
202000.0 512440.0 0
206000.0 512440.0 0
210000.0 512440.0 0
214000.0 512440.0 0
218000.0 512440.0 0
222000.0 512440.0 0
226000.0 512440.0 0
230000.0 512440.0 0
234000.0 512440.0 0
238000.0 512440.0 0
242000.0 512440.0 0
246000.0 512440.0 0
250000.0 512440.0 0
254000.0 512440.0 0
258000.0 512440.0 0
262000.0 512440.0 0
266000.0 512440.0 0
270000.0 512440.0 0
274000.0 512440.0 0
278000.0 512440.0 0
282000.0 512440.0 0
286000.0 512440.0 0
290000.0 512440.0 0
294000.0 512440.0 0
298000.0 512440.0 0
302000.0 512440.0 0
306000.0 512440.0 0
310000.0 512440.0 0
314000.0 512440.0 0
318000.0 512440.0 0
322000.0 512440.0 0
326000.0 512440.0 0
330000.0 512440.0 0
334000.0 512440.0 0
338000.0 512440.0 0
342000.0 512440.0 0
346000.0 512440.0 0
350000.0 512440.0 0
354000.0 512440.0 0
358000.0 512440.0 0
362000.0 512440.0 0
366000.0 512440.0 0
370000.0 512440.0 0
374000.0 512440.0 0
378000.0 512440.0 0
382000.0 512440.0 0
386000.0 512440.0 0
390000.0 512440.0 0
394000.0 512450.0 0
398000.0 512474.0 0
102000.0 516468.0 0
106000.0 516447.0 0
110000.0 516440.0 0
114000.0 516440.0 0
118000.0 516440.0 0
122000.0 516440.0 0
126000.0 516440.0 0
130000.0 516440.0 0
134000.0 516440.0 0
138000.0 516440.0 0
142000.0 516440.0 0
146000.0 516440.0 0
150000.0 516440.0 0
154000.0 516440.0 0
158000.0 516440.0 0
162000.0 516440.0 0
166000.0 516440.0 0
170000.0 516440.0 0
174000.0 516440.0 0
178000.0 516440.0 0
182000.0 516440.0 0
186000.0 516440.0 0
190000.0 516440.0 0
194000.0 516440.0 0
198000.0 516440.0 0
202000.0 516440.0 0
206000.0 516440.0 0
210000.0 516440.0 0
214000.0 516440.0 0
218000.0 516440.0 0
222000.0 516440.0 0
226000.0 516440.0 0
230000.0 516440.0 0
234000.0 516440.0 0
238000.0 516440.0 0
242000.0 516440.0 0
246000.0 516440.0 0
250000.0 516440.0 0
254000.0 516440.0 0
258000.0 516440.0 0
262000.0 516440.0 0
266000.0 516440.0 0
270000.0 516440.0 0
274000.0 516440.0 0
278000.0 516440.0 0
282000.0 516440.0 0
286000.0 516440.0 0
290000.0 516440.0 0
294000.0 516440.0 0
298000.0 516440.0 0
302000.0 516440.0 0
306000.0 516440.0 0
310000.0 516440.0 0
314000.0 516440.0 0
318000.0 516440.0 0
322000.0 516440.0 0
326000.0 516440.0 0
330000.0 516440.0 0
334000.0 516440.0 0
338000.0 516440.0 0
342000.0 516440.0 0
346000.0 516440.0 0
350000.0 516440.0 0
354000.0 516440.0 0
358000.0 516440.0 0
362000.0 516440.0 0
366000.0 516440.0 0
370000.0 516440.0 0
374000.0 516440.0 0
378000.0 516440.0 0
382000.0 516440.0 0
386000.0 516440.0 0
390000.0 516440.0 0
394000.0 516447.0 0
398000.0 516468.0 0
102000.0 520462.0 0
106000.0 520444.0 0
110000.0 520440.0 0
114000.0 520440.0 0
118000.0 520440.0 0
122000.0 520440.0 0
126000.0 520440.0 0
130000.0 520440.0 0
134000.0 520440.0 0
138000.0 520440.0 0
142000.0 520440.0 0
146000.0 520440.0 0
150000.0 520440.0 0
154000.0 520440.0 0
158000.0 520440.0 0
162000.0 520440.0 0
166000.0 520440.0 0
170000.0 520440.0 0
174000.0 520440.0 0
178000.0 520440.0 0
182000.0 520440.0 0
186000.0 520440.0 0
190000.0 520440.0 0
194000.0 520440.0 0
198000.0 520440.0 0
202000.0 520440.0 0
206000.0 520440.0 0
210000.0 520440.0 0
214000.0 520440.0 0
218000.0 520440.0 0
222000.0 520440.0 0
226000.0 520440.0 0
230000.0 520440.0 0
234000.0 520440.0 0
238000.0 520440.0 0
242000.0 520440.0 0
246000.0 520440.0 0
250000.0 520440.0 0
254000.0 520440.0 0
258000.0 520440.0 0
262000.0 520440.0 0
266000.0 520440.0 0
270000.0 520440.0 0
274000.0 520440.0 0
278000.0 520440.0 0
282000.0 520440.0 0
286000.0 520440.0 0
290000.0 520440.0 0
294000.0 520440.0 0
298000.0 520440.0 0
302000.0 520440.0 0
306000.0 520440.0 0
310000.0 520440.0 0
314000.0 520440.0 0
318000.0 520440.0 0
322000.0 520440.0 0
326000.0 520440.0 0
330000.0 520440.0 0
334000.0 520440.0 0
338000.0 520440.0 0
342000.0 520440.0 0
346000.0 520440.0 0
350000.0 520440.0 0
354000.0 520440.0 0
358000.0 520440.0 0
362000.0 520440.0 0
366000.0 520440.0 0
370000.0 520440.0 0
374000.0 520440.0 0
378000.0 520440.0 0
382000.0 520440.0 0
386000.0 520440.0 0
390000.0 520440.0 0
394000.0 520444.0 0
398000.0 520462.0 0
102000.0 524458.0 0
106000.0 524443.0 0
110000.0 524440.0 0
114000.0 524440.0 0
118000.0 524440.0 0
122000.0 524440.0 0
126000.0 524440.0 0
130000.0 524440.0 0
134000.0 524440.0 0
138000.0 524440.0 0
142000.0 524440.0 0
146000.0 524440.0 0
150000.0 524440.0 0
154000.0 524440.0 0
158000.0 524440.0 0
162000.0 524440.0 0
166000.0 524440.0 0
170000.0 524440.0 0
174000.0 524440.0 0
178000.0 524440.0 0
182000.0 524440.0 0
186000.0 524440.0 0
190000.0 524440.0 0
194000.0 524440.0 0
198000.0 524440.0 0
202000.0 524440.0 0
206000.0 524440.0 0
210000.0 524440.0 0
214000.0 524440.0 0
218000.0 524440.0 0
222000.0 524440.0 0
226000.0 524440.0 0
230000.0 524440.0 0
234000.0 524440.0 0
238000.0 524440.0 0
242000.0 524440.0 0
246000.0 524440.0 0
250000.0 524440.0 0
254000.0 524440.0 0
258000.0 524440.0 0
262000.0 524440.0 0
266000.0 524440.0 0
270000.0 524440.0 0
274000.0 524440.0 0
278000.0 524440.0 0
282000.0 524440.0 0
286000.0 524440.0 0
290000.0 524440.0 0
294000.0 524440.0 0
298000.0 524440.0 0
302000.0 524440.0 0
306000.0 524440.0 0
310000.0 524440.0 0
314000.0 524440.0 0
318000.0 524440.0 0
322000.0 524440.0 0
326000.0 524440.0 0
330000.0 524440.0 0
334000.0 524440.0 0
338000.0 524440.0 0
342000.0 524440.0 0
346000.0 524440.0 0
350000.0 524440.0 0
354000.0 524440.0 0
358000.0 524440.0 0
362000.0 524440.0 0
366000.0 524440.0 0
370000.0 524440.0 0
374000.0 524440.0 0
378000.0 524440.0 0
382000.0 524440.0 0
386000.0 524440.0 0
390000.0 524440.0 0
394000.0 524443.0 0
398000.0 524458.0 0
102000.0 528454.0 0
106000.0 528442.0 0
110000.0 528440.0 0
114000.0 528440.0 0
118000.0 528440.0 0
122000.0 528440.0 0
126000.0 528440.0 0
130000.0 528440.0 0
134000.0 528440.0 0
138000.0 528440.0 0
142000.0 528440.0 0
146000.0 528440.0 0
150000.0 528440.0 0
154000.0 528440.0 0
158000.0 528440.0 0
162000.0 528440.0 0
166000.0 528440.0 0
170000.0 528440.0 0
174000.0 528440.0 0
178000.0 528440.0 0
182000.0 528440.0 0
186000.0 528440.0 0
190000.0 528440.0 0
194000.0 528440.0 0
198000.0 528440.0 0
202000.0 528440.0 0
206000.0 528440.0 0
210000.0 528440.0 0
214000.0 528440.0 0
218000.0 528440.0 0
222000.0 528440.0 0
226000.0 528440.0 0
230000.0 528440.0 0
234000.0 528440.0 0
238000.0 528440.0 0
242000.0 528440.0 0
246000.0 528440.0 0
250000.0 528440.0 0
254000.0 528440.0 0
258000.0 528440.0 0
262000.0 528440.0 0
266000.0 528440.0 0
270000.0 528440.0 0
274000.0 528440.0 0
278000.0 528440.0 0
282000.0 528440.0 0
286000.0 528440.0 0
290000.0 528440.0 0
294000.0 528440.0 0
298000.0 528440.0 0
302000.0 528440.0 0
306000.0 528440.0 0
310000.0 528440.0 0
314000.0 528440.0 0
318000.0 528440.0 0
322000.0 528440.0 0
326000.0 528440.0 0
330000.0 528440.0 0
334000.0 528440.0 0
338000.0 528440.0 0
342000.0 528440.0 0
346000.0 528440.0 0
350000.0 528440.0 0
354000.0 528440.0 0
358000.0 528440.0 0
362000.0 528440.0 0
366000.0 528440.0 0
370000.0 528440.0 0
374000.0 528440.0 0
378000.0 528440.0 0
382000.0 528440.0 0
386000.0 528440.0 0
390000.0 528440.0 0
394000.0 528442.0 0
398000.0 528454.0 0
102000.0 532451.0 0
106000.0 532441.0 0
110000.0 532440.0 0
114000.0 532440.0 0
118000.0 532440.0 0
122000.0 532440.0 0
126000.0 532440.0 0
130000.0 532440.0 0
134000.0 532440.0 0
138000.0 532440.0 0
142000.0 532440.0 0
146000.0 532440.0 0
150000.0 532440.0 0
154000.0 532440.0 0
158000.0 532440.0 0
162000.0 532440.0 0
166000.0 532440.0 0
170000.0 532440.0 0
174000.0 532440.0 0
178000.0 532440.0 0
182000.0 532440.0 0
186000.0 532440.0 0
190000.0 532440.0 0
194000.0 532440.0 0
198000.0 532440.0 0
202000.0 532440.0 0
206000.0 532440.0 0
210000.0 532440.0 0
214000.0 532440.0 0
218000.0 532440.0 0
222000.0 532440.0 0
226000.0 532440.0 0
230000.0 532440.0 0
234000.0 532440.0 0
238000.0 532440.0 0
242000.0 532440.0 0
246000.0 532440.0 0
250000.0 532440.0 0
254000.0 532440.0 0
258000.0 532440.0 0
262000.0 532440.0 0
266000.0 532440.0 0
270000.0 532440.0 0
274000.0 532440.0 0
278000.0 532440.0 0
282000.0 532440.0 0
286000.0 532440.0 0
290000.0 532440.0 0
294000.0 532440.0 0
298000.0 532440.0 0
302000.0 532440.0 0
306000.0 532440.0 0
310000.0 532440.0 0
314000.0 532440.0 0
318000.0 532440.0 0
322000.0 532440.0 0
326000.0 532440.0 0
330000.0 532440.0 0
334000.0 532440.0 0
338000.0 532440.0 0
342000.0 532440.0 0
346000.0 532440.0 0
350000.0 532440.0 0
354000.0 532440.0 0
358000.0 532440.0 0
362000.0 532440.0 0
366000.0 532440.0 0
370000.0 532440.0 0
374000.0 532440.0 0
378000.0 532440.0 0
382000.0 532440.0 0
386000.0 532440.0 0
390000.0 532440.0 0
394000.0 532441.0 0
398000.0 532451.0 0
102000.0 536448.0 0
106000.0 536441.0 0
110000.0 536440.0 0
114000.0 536440.0 0
118000.0 536440.0 0
122000.0 536440.0 0
126000.0 536440.0 0
130000.0 536440.0 0
134000.0 536440.0 0
138000.0 536440.0 0
142000.0 536440.0 0
146000.0 536440.0 0
150000.0 536440.0 0
154000.0 536440.0 0
158000.0 536440.0 0
162000.0 536440.0 0
166000.0 536440.0 0
170000.0 536440.0 0
174000.0 536440.0 0
178000.0 536440.0 0
182000.0 536440.0 0
186000.0 536440.0 0
190000.0 536440.0 0
194000.0 536440.0 0
198000.0 536440.0 0
202000.0 536440.0 0
206000.0 536440.0 0
210000.0 536440.0 0
214000.0 536440.0 0
218000.0 536440.0 0
222000.0 536440.0 0
226000.0 536440.0 0
230000.0 536440.0 0
234000.0 536440.0 0
238000.0 536440.0 0
242000.0 536440.0 0
246000.0 536440.0 0
250000.0 536440.0 0
254000.0 536440.0 0
258000.0 536440.0 0
262000.0 536440.0 0
266000.0 536440.0 0
270000.0 536440.0 0
274000.0 536440.0 0
278000.0 536440.0 0
282000.0 536440.0 0
286000.0 536440.0 0
290000.0 536440.0 0
294000.0 536440.0 0
298000.0 536440.0 0
302000.0 536440.0 0
306000.0 536440.0 0
310000.0 536440.0 0
314000.0 536440.0 0
318000.0 536440.0 0
322000.0 536440.0 0
326000.0 536440.0 0
330000.0 536440.0 0
334000.0 536440.0 0
338000.0 536440.0 0
342000.0 536440.0 0
346000.0 536440.0 0
350000.0 536440.0 0
354000.0 536440.0 0
358000.0 536440.0 0
362000.0 536440.0 0
366000.0 536440.0 0
370000.0 536440.0 0
374000.0 536440.0 0
378000.0 536440.0 0
382000.0 536440.0 0
386000.0 536440.0 0
390000.0 536440.0 0
394000.0 536441.0 0
398000.0 536448.0 0
102000.0 540446.0 0
106000.0 540440.0 0
110000.0 540440.0 0
114000.0 540440.0 0
118000.0 540440.0 0
122000.0 540440.0 0
126000.0 540440.0 0
130000.0 540440.0 0
134000.0 540440.0 0
138000.0 540440.0 0
142000.0 540440.0 0
146000.0 540440.0 0
150000.0 540440.0 0
154000.0 540440.0 0
158000.0 540440.0 0
162000.0 540440.0 0
166000.0 540440.0 0
170000.0 540440.0 0
174000.0 540440.0 0
178000.0 540440.0 0
182000.0 540440.0 0
186000.0 540440.0 0
190000.0 540440.0 0
194000.0 540440.0 0
198000.0 540440.0 0
202000.0 540440.0 0
206000.0 540440.0 0
210000.0 540440.0 0
214000.0 540440.0 0
218000.0 540440.0 0
222000.0 540440.0 0
226000.0 540440.0 0
230000.0 540440.0 0
234000.0 540440.0 0
238000.0 540440.0 0
242000.0 540440.0 0
246000.0 540440.0 0
250000.0 540440.0 0
254000.0 540440.0 0
258000.0 540440.0 0
262000.0 540440.0 0
266000.0 540440.0 0
270000.0 540440.0 0
274000.0 540440.0 0
278000.0 540440.0 0
282000.0 540440.0 0
286000.0 540440.0 0
290000.0 540440.0 0
294000.0 540440.0 0
298000.0 540440.0 0
302000.0 540440.0 0
306000.0 540440.0 0
310000.0 540440.0 0
314000.0 540440.0 0
318000.0 540440.0 0
322000.0 540440.0 0
326000.0 540440.0 0
330000.0 540440.0 0
334000.0 540440.0 0
338000.0 540440.0 0
342000.0 540440.0 0
346000.0 540440.0 0
350000.0 540440.0 0
354000.0 540440.0 0
358000.0 540440.0 0
362000.0 540440.0 0
366000.0 540440.0 0
370000.0 540440.0 0
374000.0 540440.0 0
378000.0 540440.0 0
382000.0 540440.0 0
386000.0 540440.0 0
390000.0 540440.0 0
394000.0 540440.0 0
398000.0 540446.0 0
102000.0 544445.0 0
106000.0 544440.0 0
110000.0 544440.0 0
114000.0 544440.0 0
118000.0 544440.0 0
122000.0 544440.0 0
126000.0 544440.0 0
130000.0 544440.0 0
134000.0 544440.0 0
138000.0 544440.0 0
142000.0 544440.0 0
146000.0 544440.0 0
150000.0 544440.0 0
154000.0 544440.0 0
158000.0 544440.0 0
162000.0 544440.0 0
166000.0 544440.0 0
170000.0 544440.0 0
174000.0 544440.0 0
178000.0 544440.0 0
182000.0 544440.0 0
186000.0 544440.0 0
190000.0 544440.0 0
194000.0 544440.0 0
198000.0 544440.0 0
202000.0 544440.0 0
206000.0 544440.0 0
210000.0 544440.0 0
214000.0 544440.0 0
218000.0 544440.0 0
222000.0 544440.0 0
226000.0 544440.0 0
230000.0 544440.0 0
234000.0 544440.0 0
238000.0 544440.0 0
242000.0 544440.0 0
246000.0 544440.0 0
250000.0 544440.0 0
254000.0 544440.0 0
258000.0 544440.0 0
262000.0 544440.0 0
266000.0 544440.0 0
270000.0 544440.0 0
274000.0 544440.0 0
278000.0 544440.0 0
282000.0 544440.0 0
286000.0 544440.0 0
290000.0 544440.0 0
294000.0 544440.0 0
298000.0 544440.0 0
302000.0 544440.0 0
306000.0 544440.0 0
310000.0 544440.0 0
314000.0 544440.0 0
318000.0 544440.0 0
322000.0 544440.0 0
326000.0 544440.0 0
330000.0 544440.0 0
334000.0 544440.0 0
338000.0 544440.0 0
342000.0 544440.0 0
346000.0 544440.0 0
350000.0 544440.0 0
354000.0 544440.0 0
358000.0 544440.0 0
362000.0 544440.0 0
366000.0 544440.0 0
370000.0 544440.0 0
374000.0 544440.0 0
378000.0 544440.0 0
382000.0 544440.0 0
386000.0 544440.0 0
390000.0 544440.0 0
394000.0 544440.0 0
398000.0 544445.0 0
102000.0 548444.0 0
106000.0 548440.0 0
110000.0 548440.0 0
114000.0 548440.0 0
118000.0 548440.0 0
122000.0 548440.0 0
126000.0 548440.0 0
130000.0 548440.0 0
134000.0 548440.0 0
138000.0 548440.0 0
142000.0 548440.0 0
146000.0 548440.0 0
150000.0 548440.0 0
154000.0 548440.0 0
158000.0 548440.0 0
162000.0 548440.0 0
166000.0 548440.0 0
170000.0 548440.0 0
174000.0 548440.0 0
178000.0 548440.0 0
182000.0 548440.0 0
186000.0 548440.0 0
190000.0 548440.0 0
194000.0 548440.0 0
198000.0 548440.0 0
202000.0 548440.0 0
206000.0 548440.0 0
210000.0 548440.0 0
214000.0 548440.0 0
218000.0 548440.0 0
222000.0 548440.0 0
226000.0 548440.0 0
230000.0 548440.0 0
234000.0 548440.0 0
238000.0 548440.0 0
242000.0 548440.0 0
246000.0 548440.0 0
250000.0 548440.0 0
254000.0 548440.0 0
258000.0 548440.0 0
262000.0 548440.0 0
266000.0 548440.0 0
270000.0 548440.0 0
274000.0 548440.0 0
278000.0 548440.0 0
282000.0 548440.0 0
286000.0 548440.0 0
290000.0 548440.0 0
294000.0 548440.0 0
298000.0 548440.0 0
302000.0 548440.0 0
306000.0 548440.0 0
310000.0 548440.0 0
314000.0 548440.0 0
318000.0 548440.0 0
322000.0 548440.0 0
326000.0 548440.0 0
330000.0 548440.0 0
334000.0 548440.0 0
338000.0 548440.0 0
342000.0 548440.0 0
346000.0 548440.0 0
350000.0 548440.0 0
354000.0 548440.0 0
358000.0 548440.0 0
362000.0 548440.0 0
366000.0 548440.0 0
370000.0 548440.0 0
374000.0 548440.0 0
378000.0 548440.0 0
382000.0 548440.0 0
386000.0 548440.0 0
390000.0 548440.0 0
394000.0 548440.0 0
398000.0 548444.0 0
102000.0 552443.0 0
106000.0 552440.0 0
110000.0 552440.0 0
114000.0 552440.0 0
118000.0 552440.0 0
122000.0 552440.0 0
126000.0 552440.0 0
130000.0 552440.0 0
134000.0 552440.0 0
138000.0 552440.0 0
142000.0 552440.0 0
146000.0 552440.0 0
150000.0 552440.0 0
154000.0 552440.0 0
158000.0 552440.0 0
162000.0 552440.0 0
166000.0 552440.0 0
170000.0 552440.0 0
174000.0 552440.0 0
178000.0 552440.0 0
182000.0 552440.0 0
186000.0 552440.0 0
190000.0 552440.0 0
194000.0 552440.0 0
198000.0 552440.0 0
202000.0 552440.0 0
206000.0 552440.0 0
210000.0 552440.0 0
214000.0 552440.0 0
218000.0 552440.0 0
222000.0 552440.0 0
226000.0 552440.0 0
230000.0 552440.0 0
234000.0 552440.0 0
238000.0 552440.0 0
242000.0 552440.0 0
246000.0 552440.0 0
250000.0 552440.0 0
254000.0 552440.0 0
258000.0 552440.0 0
262000.0 552440.0 0
266000.0 552440.0 0
270000.0 552440.0 0
274000.0 552440.0 0
278000.0 552440.0 0
282000.0 552440.0 0
286000.0 552440.0 0
290000.0 552440.0 0
294000.0 552440.0 0
298000.0 552440.0 0
302000.0 552440.0 0
306000.0 552440.0 0
310000.0 552440.0 0
314000.0 552440.0 0
318000.0 552440.0 0
322000.0 552440.0 0
326000.0 552440.0 0
330000.0 552440.0 0
334000.0 552440.0 0
338000.0 552440.0 0
342000.0 552440.0 0
346000.0 552440.0 0
350000.0 552440.0 0
354000.0 552440.0 0
358000.0 552440.0 0
362000.0 552440.0 0
366000.0 552440.0 0
370000.0 552440.0 0
374000.0 552440.0 0
378000.0 552440.0 0
382000.0 552440.0 0
386000.0 552440.0 0
390000.0 552440.0 0
394000.0 552440.0 0
398000.0 552443.0 0
102000.0 556442.0 0
106000.0 556440.0 0
110000.0 556440.0 0
114000.0 556440.0 0
118000.0 556440.0 0
122000.0 556440.0 0
126000.0 556440.0 0
130000.0 556440.0 0
134000.0 556440.0 0
138000.0 556440.0 0
142000.0 556440.0 0
146000.0 556440.0 0
150000.0 556440.0 0
154000.0 556440.0 0
158000.0 556440.0 0
162000.0 556440.0 0
166000.0 556440.0 0
170000.0 556440.0 0
174000.0 556440.0 0
178000.0 556440.0 0
182000.0 556440.0 0
186000.0 556440.0 0
190000.0 556440.0 0
194000.0 556440.0 0
198000.0 556440.0 0
202000.0 556440.0 0
206000.0 556440.0 0
210000.0 556440.0 0
214000.0 556440.0 0
218000.0 556440.0 0
222000.0 556440.0 0
226000.0 556440.0 0
230000.0 556440.0 0
234000.0 556440.0 0
238000.0 556440.0 0
242000.0 556440.0 0
246000.0 556440.0 0
250000.0 556440.0 0
254000.0 556440.0 0
258000.0 556440.0 0
262000.0 556440.0 0
266000.0 556440.0 0
270000.0 556440.0 0
274000.0 556440.0 0
278000.0 556440.0 0
282000.0 556440.0 0
286000.0 556440.0 0
290000.0 556440.0 0
294000.0 556440.0 0
298000.0 556440.0 0
302000.0 556440.0 0
306000.0 556440.0 0
310000.0 556440.0 0
314000.0 556440.0 0
318000.0 556440.0 0
322000.0 556440.0 0
326000.0 556440.0 0
330000.0 556440.0 0
334000.0 556440.0 0
338000.0 556440.0 0
342000.0 556440.0 0
346000.0 556440.0 0
350000.0 556440.0 0
354000.0 556440.0 0
358000.0 556440.0 0
362000.0 556440.0 0
366000.0 556440.0 0
370000.0 556440.0 0
374000.0 556440.0 0
378000.0 556440.0 0
382000.0 556440.0 0
386000.0 556440.0 0
390000.0 556440.0 0
394000.0 556440.0 0
398000.0 556442.0 0
102000.0 560441.0 0
106000.0 560440.0 0
110000.0 560440.0 0
114000.0 560440.0 0
118000.0 560440.0 0
122000.0 560440.0 0
126000.0 560440.0 0
130000.0 560440.0 0
134000.0 560440.0 0
138000.0 560440.0 0
142000.0 560440.0 0
146000.0 560440.0 0
150000.0 560440.0 0
154000.0 560440.0 0
158000.0 560440.0 0
162000.0 560440.0 0
166000.0 560440.0 0
170000.0 560440.0 0
174000.0 560440.0 0
178000.0 560440.0 0
182000.0 560440.0 0
186000.0 560440.0 0
190000.0 560440.0 0
194000.0 560440.0 0
198000.0 560440.0 0
202000.0 560440.0 0
206000.0 560440.0 0
210000.0 560440.0 0
214000.0 560440.0 0
218000.0 560440.0 0
222000.0 560440.0 0
226000.0 560440.0 0
230000.0 560440.0 0
234000.0 560440.0 0
238000.0 560440.0 0
242000.0 560440.0 0
246000.0 560440.0 0
250000.0 560440.0 0
254000.0 560440.0 0
258000.0 560440.0 0
262000.0 560440.0 0
266000.0 560440.0 0
270000.0 560440.0 0
274000.0 560440.0 0
278000.0 560440.0 0
282000.0 560440.0 0
286000.0 560440.0 0
290000.0 560440.0 0
294000.0 560440.0 0
298000.0 560440.0 0
302000.0 560440.0 0
306000.0 560440.0 0
310000.0 560440.0 0
314000.0 560440.0 0
318000.0 560440.0 0
322000.0 560440.0 0
326000.0 560440.0 0
330000.0 560440.0 0
334000.0 560440.0 0
338000.0 560440.0 0
342000.0 560440.0 0
346000.0 560440.0 0
350000.0 560440.0 0
354000.0 560440.0 0
358000.0 560440.0 0
362000.0 560440.0 0
366000.0 560440.0 0
370000.0 560440.0 0
374000.0 560440.0 0
378000.0 560440.0 0
382000.0 560440.0 0
386000.0 560440.0 0
390000.0 560440.0 0
394000.0 560440.0 0
398000.0 560441.0 0
102000.0 564441.0 0
106000.0 564440.0 0
110000.0 564440.0 0
114000.0 564440.0 0
118000.0 564440.0 0
122000.0 564440.0 0
126000.0 564440.0 0
130000.0 564440.0 0
134000.0 564440.0 0
138000.0 564440.0 0
142000.0 564440.0 0
146000.0 564440.0 0
150000.0 564440.0 0
154000.0 564440.0 0
158000.0 564440.0 0
162000.0 564440.0 0
166000.0 564440.0 0
170000.0 564440.0 0
174000.0 564440.0 0
178000.0 564440.0 0
182000.0 564440.0 0
186000.0 564440.0 0
190000.0 564440.0 0
194000.0 564440.0 0
198000.0 564440.0 0
202000.0 564440.0 0
206000.0 564440.0 0
210000.0 564440.0 0
214000.0 564440.0 0
218000.0 564440.0 0
222000.0 564440.0 0
226000.0 564440.0 0
230000.0 564440.0 0
234000.0 564440.0 0
238000.0 564440.0 0
242000.0 564440.0 0
246000.0 564440.0 0
250000.0 564440.0 0
254000.0 564440.0 0
258000.0 564440.0 0
262000.0 564440.0 0
266000.0 564440.0 0
270000.0 564440.0 0
274000.0 564440.0 0
278000.0 564440.0 0
282000.0 564440.0 0
286000.0 564440.0 0
290000.0 564440.0 0
294000.0 564440.0 0
298000.0 564440.0 0
302000.0 564440.0 0
306000.0 564440.0 0
310000.0 564440.0 0
314000.0 564440.0 0
318000.0 564440.0 0
322000.0 564440.0 0
326000.0 564440.0 0
330000.0 564440.0 0
334000.0 564440.0 0
338000.0 564440.0 0
342000.0 564440.0 0
346000.0 564440.0 0
350000.0 564440.0 0
354000.0 564440.0 0
358000.0 564440.0 0
362000.0 564440.0 0
366000.0 564440.0 0
370000.0 564440.0 0
374000.0 564440.0 0
378000.0 564440.0 0
382000.0 564440.0 0
386000.0 564440.0 0
390000.0 564440.0 0
394000.0 564440.0 0
398000.0 564441.0 0
102000.0 568440.0 0
106000.0 568440.0 0
110000.0 568440.0 0
114000.0 568440.0 0
118000.0 568440.0 0
122000.0 568440.0 0
126000.0 568440.0 0
130000.0 568440.0 0
134000.0 568440.0 0
138000.0 568440.0 0
142000.0 568440.0 0
146000.0 568440.0 0
150000.0 568440.0 0
154000.0 568440.0 0
158000.0 568440.0 0
162000.0 568440.0 0
166000.0 568440.0 0
170000.0 568440.0 0
174000.0 568440.0 0
178000.0 568440.0 0
182000.0 568440.0 0
186000.0 568440.0 0
190000.0 568440.0 0
194000.0 568440.0 0
198000.0 568440.0 0
202000.0 568440.0 0
206000.0 568440.0 0
210000.0 568440.0 0
214000.0 568440.0 0
218000.0 568440.0 0
222000.0 568440.0 0
226000.0 568440.0 0
230000.0 568440.0 0
234000.0 568440.0 0
238000.0 568440.0 0
242000.0 568440.0 0
246000.0 568440.0 0
250000.0 568440.0 0
254000.0 568440.0 0
258000.0 568440.0 0
262000.0 568440.0 0
266000.0 568440.0 0
270000.0 568440.0 0
274000.0 568440.0 0
278000.0 568440.0 0
282000.0 568440.0 0
286000.0 568440.0 0
290000.0 568440.0 0
294000.0 568440.0 0
298000.0 568440.0 0
302000.0 568440.0 0
306000.0 568440.0 0
310000.0 568440.0 0
314000.0 568440.0 0
318000.0 568440.0 0
322000.0 568440.0 0
326000.0 568440.0 0
330000.0 568440.0 0
334000.0 568440.0 0
338000.0 568440.0 0
342000.0 568440.0 0
346000.0 568440.0 0
350000.0 568440.0 0
354000.0 568440.0 0
358000.0 568440.0 0
362000.0 568440.0 0
366000.0 568440.0 0
370000.0 568440.0 0
374000.0 568440.0 0
378000.0 568440.0 0
382000.0 568440.0 0
386000.0 568440.0 0
390000.0 568440.0 0
394000.0 568440.0 0
398000.0 568440.0 0
102000.0 572440.0 0
106000.0 572440.0 0
110000.0 572440.0 0
114000.0 572440.0 0
118000.0 572440.0 0
122000.0 572440.0 0
126000.0 572440.0 0
130000.0 572440.0 0
134000.0 572440.0 0
138000.0 572440.0 0
142000.0 572440.0 0
146000.0 572440.0 0
150000.0 572440.0 0
154000.0 572440.0 0
158000.0 572440.0 0
162000.0 572440.0 0
166000.0 572440.0 0
170000.0 572440.0 0
174000.0 572440.0 0
178000.0 572440.0 0
182000.0 572440.0 0
186000.0 572440.0 0
190000.0 572440.0 0
194000.0 572440.0 0
198000.0 572440.0 0
202000.0 572440.0 0
206000.0 572440.0 0
210000.0 572440.0 0
214000.0 572440.0 0
218000.0 572440.0 0
222000.0 572440.0 0
226000.0 572440.0 0
230000.0 572440.0 0
234000.0 572440.0 0
238000.0 572440.0 0
242000.0 572440.0 0
246000.0 572440.0 0
250000.0 572440.0 0
254000.0 572440.0 0
258000.0 572440.0 0
262000.0 572440.0 0
266000.0 572440.0 0
270000.0 572440.0 0
274000.0 572440.0 0
278000.0 572440.0 0
282000.0 572440.0 0
286000.0 572440.0 0
290000.0 572440.0 0
294000.0 572440.0 0
298000.0 572440.0 0
302000.0 572440.0 0
306000.0 572440.0 0
310000.0 572440.0 0
314000.0 572440.0 0
318000.0 572440.0 0
322000.0 572440.0 0
326000.0 572440.0 0
330000.0 572440.0 0
334000.0 572440.0 0
338000.0 572440.0 0
342000.0 572440.0 0
346000.0 572440.0 0
350000.0 572440.0 0
354000.0 572440.0 0
358000.0 572440.0 0
362000.0 572440.0 0
366000.0 572440.0 0
370000.0 572440.0 0
374000.0 572440.0 0
378000.0 572440.0 0
382000.0 572440.0 0
386000.0 572440.0 0
390000.0 572440.0 0
394000.0 572440.0 0
398000.0 572440.0 0
102000.0 576440.0 0
106000.0 576440.0 0
110000.0 576440.0 0
114000.0 576440.0 0
118000.0 576440.0 0
122000.0 576440.0 0
126000.0 576440.0 0
130000.0 576440.0 0
134000.0 576440.0 0
138000.0 576440.0 0
142000.0 576440.0 0
146000.0 576440.0 0
150000.0 576440.0 0
154000.0 576440.0 0
158000.0 576440.0 0
162000.0 576440.0 0
166000.0 576440.0 0
170000.0 576440.0 0
174000.0 576440.0 0
178000.0 576440.0 0
182000.0 576440.0 0
186000.0 576440.0 0
190000.0 576440.0 0
194000.0 576440.0 0
198000.0 576440.0 0
202000.0 576440.0 0
206000.0 576440.0 0
210000.0 576440.0 0
214000.0 576440.0 0
218000.0 576440.0 0
222000.0 576440.0 0
226000.0 576440.0 0
230000.0 576440.0 0
234000.0 576440.0 0
238000.0 576440.0 0
242000.0 576440.0 0
246000.0 576440.0 0
250000.0 576440.0 0
254000.0 576440.0 0
258000.0 576440.0 0
262000.0 576440.0 0
266000.0 576440.0 0
270000.0 576440.0 0
274000.0 576440.0 0
278000.0 576440.0 0
282000.0 576440.0 0
286000.0 576440.0 0
290000.0 576440.0 0
294000.0 576440.0 0
298000.0 576440.0 0
302000.0 576440.0 0
306000.0 576440.0 0
310000.0 576440.0 0
314000.0 576440.0 0
318000.0 576440.0 0
322000.0 576440.0 0
326000.0 576440.0 0
330000.0 576440.0 0
334000.0 576440.0 0
338000.0 576440.0 0
342000.0 576440.0 0
346000.0 576440.0 0
350000.0 576440.0 0
354000.0 576440.0 0
358000.0 576440.0 0
362000.0 576440.0 0
366000.0 576440.0 0
370000.0 576440.0 0
374000.0 576440.0 0
378000.0 576440.0 0
382000.0 576440.0 0
386000.0 576440.0 0
390000.0 576440.0 0
394000.0 576440.0 0
398000.0 576440.0 0
102000.0 580440.0 0
106000.0 580440.0 0
110000.0 580440.0 0
114000.0 580440.0 0
118000.0 580440.0 0
122000.0 580440.0 0
126000.0 580440.0 0
130000.0 580440.0 0
134000.0 580440.0 0
138000.0 580440.0 0
142000.0 580440.0 0
146000.0 580440.0 0
150000.0 580440.0 0
154000.0 580440.0 0
158000.0 580440.0 0
162000.0 580440.0 0
166000.0 580440.0 0
170000.0 580440.0 0
174000.0 580440.0 0
178000.0 580440.0 0
182000.0 580440.0 0
186000.0 580440.0 0
190000.0 580440.0 0
194000.0 580440.0 0
198000.0 580440.0 0
202000.0 580440.0 0
206000.0 580440.0 0
210000.0 580440.0 0
214000.0 580440.0 0
218000.0 580440.0 0
222000.0 580440.0 0
226000.0 580440.0 0
230000.0 580440.0 0
234000.0 580440.0 0
238000.0 580440.0 0
242000.0 580440.0 0
246000.0 580440.0 0
250000.0 580440.0 0
254000.0 580440.0 0
258000.0 580440.0 0
262000.0 580440.0 0
266000.0 580440.0 0
270000.0 580440.0 0
274000.0 580440.0 0
278000.0 580440.0 0
282000.0 580440.0 0
286000.0 580440.0 0
290000.0 580440.0 0
294000.0 580440.0 0
298000.0 580440.0 0
302000.0 580440.0 0
306000.0 580440.0 0
310000.0 580440.0 0
314000.0 580440.0 0
318000.0 580440.0 0
322000.0 580440.0 0
326000.0 580440.0 0
330000.0 580440.0 0
334000.0 580440.0 0
338000.0 580440.0 0
342000.0 580440.0 0
346000.0 580440.0 0
350000.0 580440.0 0
354000.0 580440.0 0
358000.0 580440.0 0
362000.0 580440.0 0
366000.0 580440.0 0
370000.0 580440.0 0
374000.0 580440.0 0
378000.0 580440.0 0
382000.0 580440.0 0
386000.0 580440.0 0
390000.0 580440.0 0
394000.0 580440.0 0
398000.0 580440.0 0
102000.0 584440.0 0
106000.0 584440.0 0
110000.0 584440.0 0
114000.0 584440.0 0
118000.0 584440.0 0
122000.0 584440.0 0
126000.0 584440.0 0
130000.0 584440.0 0
134000.0 584440.0 0
138000.0 584440.0 0
142000.0 584440.0 0
146000.0 584440.0 0
150000.0 584440.0 0
154000.0 584440.0 0
158000.0 584440.0 0
162000.0 584440.0 0
166000.0 584440.0 0
170000.0 584440.0 0
174000.0 584440.0 0
178000.0 584440.0 0
182000.0 584440.0 0
186000.0 584440.0 0
190000.0 584440.0 0
194000.0 584440.0 0
198000.0 584440.0 0
202000.0 584440.0 0
206000.0 584440.0 0
210000.0 584440.0 0
214000.0 584440.0 0
218000.0 584440.0 0
222000.0 584440.0 0
226000.0 584440.0 0
230000.0 584440.0 0
234000.0 584440.0 0
238000.0 584440.0 0
242000.0 584440.0 0
246000.0 584440.0 0
250000.0 584440.0 0
254000.0 584440.0 0
258000.0 584440.0 0
262000.0 584440.0 0
266000.0 584440.0 0
270000.0 584440.0 0
274000.0 584440.0 0
278000.0 584440.0 0
282000.0 584440.0 0
286000.0 584440.0 0
290000.0 584440.0 0
294000.0 584440.0 0
298000.0 584440.0 0
302000.0 584440.0 0
306000.0 584440.0 0
310000.0 584440.0 0
314000.0 584440.0 0
318000.0 584440.0 0
322000.0 584440.0 0
326000.0 584440.0 0
330000.0 584440.0 0
334000.0 584440.0 0
338000.0 584440.0 0
342000.0 584440.0 0
346000.0 584440.0 0
350000.0 584440.0 0
354000.0 584440.0 0
358000.0 584440.0 0
362000.0 584440.0 0
366000.0 584440.0 0
370000.0 584440.0 0
374000.0 584440.0 0
378000.0 584440.0 0
382000.0 584440.0 0
386000.0 584440.0 0
390000.0 584440.0 0
394000.0 584440.0 0
398000.0 584440.0 0
102000.0 588440.0 0
106000.0 588440.0 0
110000.0 588440.0 0
114000.0 588440.0 0
118000.0 588440.0 0
122000.0 588440.0 0
126000.0 588440.0 0
130000.0 588440.0 0
134000.0 588440.0 0
138000.0 588440.0 0
142000.0 588440.0 0
146000.0 588440.0 0
150000.0 588440.0 0
154000.0 588440.0 0
158000.0 588440.0 0
162000.0 588440.0 0
166000.0 588440.0 0
170000.0 588440.0 0
174000.0 588440.0 0
178000.0 588440.0 0
182000.0 588440.0 0
186000.0 588440.0 0
190000.0 588440.0 0
194000.0 588440.0 0
198000.0 588440.0 0
202000.0 588440.0 0
206000.0 588440.0 0
210000.0 588440.0 0
214000.0 588440.0 0
218000.0 588440.0 0
222000.0 588440.0 0
226000.0 588440.0 0
230000.0 588440.0 0
234000.0 588440.0 0
238000.0 588440.0 0
242000.0 588440.0 0
246000.0 588440.0 0
250000.0 588440.0 0
254000.0 588440.0 0
258000.0 588440.0 0
262000.0 588440.0 0
266000.0 588440.0 0
270000.0 588440.0 0
274000.0 588440.0 0
278000.0 588440.0 0
282000.0 588440.0 0
286000.0 588440.0 0
290000.0 588440.0 0
294000.0 588440.0 0
298000.0 588440.0 0
302000.0 588440.0 0
306000.0 588440.0 0
310000.0 588440.0 0
314000.0 588440.0 0
318000.0 588440.0 0
322000.0 588440.0 0
326000.0 588440.0 0
330000.0 588440.0 0
334000.0 588440.0 0
338000.0 588440.0 0
342000.0 588440.0 0
346000.0 588440.0 0
350000.0 588440.0 0
354000.0 588440.0 0
358000.0 588440.0 0
362000.0 588440.0 0
366000.0 588440.0 0
370000.0 588440.0 0
374000.0 588440.0 0
378000.0 588440.0 0
382000.0 588440.0 0
386000.0 588440.0 0
390000.0 588440.0 0
394000.0 588440.0 0
398000.0 588440.0 0
102000.0 592440.0 0
106000.0 592440.0 0
110000.0 592440.0 0
114000.0 592440.0 0
118000.0 592440.0 0
122000.0 592440.0 0
126000.0 592440.0 0
130000.0 592440.0 0
134000.0 592440.0 0
138000.0 592440.0 0
142000.0 592440.0 0
146000.0 592440.0 0
150000.0 592440.0 0
154000.0 592440.0 0
158000.0 592440.0 0
162000.0 592440.0 0
166000.0 592440.0 0
170000.0 592440.0 0
174000.0 592440.0 0
178000.0 592440.0 0
182000.0 592440.0 0
186000.0 592440.0 0
190000.0 592440.0 0
194000.0 592440.0 0
198000.0 592440.0 0
202000.0 592440.0 0
206000.0 592440.0 0
210000.0 592440.0 0
214000.0 592440.0 0
218000.0 592440.0 0
222000.0 592440.0 0
226000.0 592440.0 0
230000.0 592440.0 0
234000.0 592440.0 0
238000.0 592440.0 0
242000.0 592440.0 0
246000.0 592440.0 0
250000.0 592440.0 0
254000.0 592440.0 0
258000.0 592440.0 0
262000.0 592440.0 0
266000.0 592440.0 0
270000.0 592440.0 0
274000.0 592440.0 0
278000.0 592440.0 0
282000.0 592440.0 0
286000.0 592440.0 0
290000.0 592440.0 0
294000.0 592440.0 0
298000.0 592440.0 0
302000.0 592440.0 0
306000.0 592440.0 0
310000.0 592440.0 0
314000.0 592440.0 0
318000.0 592440.0 0
322000.0 592440.0 0
326000.0 592440.0 0
330000.0 592440.0 0
334000.0 592440.0 0
338000.0 592440.0 0
342000.0 592440.0 0
346000.0 592440.0 0
350000.0 592440.0 0
354000.0 592440.0 0
358000.0 592440.0 0
362000.0 592440.0 0
366000.0 592440.0 0
370000.0 592440.0 0
374000.0 592440.0 0
378000.0 592440.0 0
382000.0 592440.0 0
386000.0 592440.0 0
390000.0 592440.0 0
394000.0 592440.0 0
398000.0 592440.0 0
102000.0 596440.0 0
106000.0 596440.0 0
110000.0 596440.0 0
114000.0 596440.0 0
118000.0 596440.0 0
122000.0 596440.0 0
126000.0 596440.0 0
130000.0 596440.0 0
134000.0 596440.0 0
138000.0 596440.0 0
142000.0 596440.0 0
146000.0 596440.0 0
150000.0 596440.0 0
154000.0 596440.0 0
158000.0 596440.0 0
162000.0 596440.0 0
166000.0 596440.0 0
170000.0 596440.0 0
174000.0 596440.0 0
178000.0 596440.0 0
182000.0 596440.0 0
186000.0 596440.0 0
190000.0 596440.0 0
194000.0 596440.0 0
198000.0 596440.0 0
202000.0 596440.0 0
206000.0 596440.0 0
210000.0 596440.0 0
214000.0 596440.0 0
218000.0 596440.0 0
222000.0 596440.0 0
226000.0 596440.0 0
230000.0 596440.0 0
234000.0 596440.0 0
238000.0 596440.0 0
242000.0 596440.0 0
246000.0 596440.0 0
250000.0 596440.0 0
254000.0 596440.0 0
258000.0 596440.0 0
262000.0 596440.0 0
266000.0 596440.0 0
270000.0 596440.0 0
274000.0 596440.0 0
278000.0 596440.0 0
282000.0 596440.0 0
286000.0 596440.0 0
290000.0 596440.0 0
294000.0 596440.0 0
298000.0 596440.0 0
302000.0 596440.0 0
306000.0 596440.0 0
310000.0 596440.0 0
314000.0 596440.0 0
318000.0 596440.0 0
322000.0 596440.0 0
326000.0 596440.0 0
330000.0 596440.0 0
334000.0 596440.0 0
338000.0 596440.0 0
342000.0 596440.0 0
346000.0 596440.0 0
350000.0 596440.0 0
354000.0 596440.0 0
358000.0 596440.0 0
362000.0 596440.0 0
366000.0 596440.0 0
370000.0 596440.0 0
374000.0 596440.0 0
378000.0 596440.0 0
382000.0 596440.0 0
386000.0 596440.0 0
390000.0 596440.0 0
394000.0 596440.0 0
398000.0 596440.0 0
102000.0 600440.0 0
106000.0 600440.0 0
110000.0 600440.0 0
114000.0 600440.0 0
118000.0 600440.0 0
122000.0 600440.0 0
126000.0 600440.0 0
130000.0 600440.0 0
134000.0 600440.0 0
138000.0 600440.0 0
142000.0 600440.0 0
146000.0 600440.0 0
150000.0 600440.0 0
154000.0 600440.0 0
158000.0 600440.0 0
162000.0 600440.0 0
166000.0 600440.0 0
170000.0 600440.0 0
174000.0 600440.0 0
178000.0 600440.0 0
182000.0 600440.0 0
186000.0 600440.0 0
190000.0 600440.0 0
194000.0 600440.0 0
198000.0 600440.0 0
202000.0 600440.0 0
206000.0 600440.0 0
210000.0 600440.0 0
214000.0 600440.0 0
218000.0 600440.0 0
222000.0 600440.0 0
226000.0 600440.0 0
230000.0 600440.0 0
234000.0 600440.0 0
238000.0 600440.0 0
242000.0 600440.0 0
246000.0 600440.0 0
250000.0 600440.0 0
254000.0 600440.0 0
258000.0 600440.0 0
262000.0 600440.0 0
266000.0 600440.0 0
270000.0 600440.0 0
274000.0 600440.0 0
278000.0 600440.0 0
282000.0 600440.0 0
286000.0 600440.0 0
290000.0 600440.0 0
294000.0 600440.0 0
298000.0 600440.0 0
302000.0 600440.0 0
306000.0 600440.0 0
310000.0 600440.0 0
314000.0 600440.0 0
318000.0 600440.0 0
322000.0 600440.0 0
326000.0 600440.0 0
330000.0 600440.0 0
334000.0 600440.0 0
338000.0 600440.0 0
342000.0 600440.0 0
346000.0 600440.0 0
350000.0 600440.0 0
354000.0 600440.0 0
358000.0 600440.0 0
362000.0 600440.0 0
366000.0 600440.0 0
370000.0 600440.0 0
374000.0 600440.0 0
378000.0 600440.0 0
382000.0 600440.0 0
386000.0 600440.0 0
390000.0 600440.0 0
394000.0 600440.0 0
398000.0 600440.0 0
102000.0 604440.0 0
106000.0 604440.0 0
110000.0 604440.0 0
114000.0 604440.0 0
118000.0 604440.0 0
122000.0 604440.0 0
126000.0 604440.0 0
130000.0 604440.0 0
134000.0 604440.0 0
138000.0 604440.0 0
142000.0 604440.0 0
146000.0 604440.0 0
150000.0 604440.0 0
154000.0 604440.0 0
158000.0 604440.0 0
162000.0 604440.0 0
166000.0 604440.0 0
170000.0 604440.0 0
174000.0 604440.0 0
178000.0 604440.0 0
182000.0 604440.0 0
186000.0 604440.0 0
190000.0 604440.0 0
194000.0 604440.0 0
198000.0 604440.0 0
202000.0 604440.0 0
206000.0 604440.0 0
210000.0 604440.0 0
214000.0 604440.0 0
218000.0 604440.0 0
222000.0 604440.0 0
226000.0 604440.0 0
230000.0 604440.0 0
234000.0 604440.0 0
238000.0 604440.0 0
242000.0 604440.0 0
246000.0 604440.0 0
250000.0 604440.0 0
254000.0 604440.0 0
258000.0 604440.0 0
262000.0 604440.0 0
266000.0 604440.0 0
270000.0 604440.0 0
274000.0 604440.0 0
278000.0 604440.0 0
282000.0 604440.0 0
286000.0 604440.0 0
290000.0 604440.0 0
294000.0 604440.0 0
298000.0 604440.0 0
302000.0 604440.0 0
306000.0 604440.0 0
310000.0 604440.0 0
314000.0 604440.0 0
318000.0 604440.0 0
322000.0 604440.0 0
326000.0 604440.0 0
330000.0 604440.0 0
334000.0 604440.0 0
338000.0 604440.0 0
342000.0 604440.0 0
346000.0 604440.0 0
350000.0 604440.0 0
354000.0 604440.0 0
358000.0 604440.0 0
362000.0 604440.0 0
366000.0 604440.0 0
370000.0 604440.0 0
374000.0 604440.0 0
378000.0 604440.0 0
382000.0 604440.0 0
386000.0 604440.0 0
390000.0 604440.0 0
394000.0 604440.0 0
398000.0 604440.0 0
102000.0 608440.0 0
106000.0 608440.0 0
110000.0 608440.0 0
114000.0 608440.0 0
118000.0 608440.0 0
122000.0 608440.0 0
126000.0 608440.0 0
130000.0 608440.0 0
134000.0 608440.0 0
138000.0 608440.0 0
142000.0 608440.0 0
146000.0 608440.0 0
150000.0 608440.0 0
154000.0 608440.0 0
158000.0 608440.0 0
162000.0 608440.0 0
166000.0 608440.0 0
170000.0 608440.0 0
174000.0 608440.0 0
178000.0 608440.0 0
182000.0 608440.0 0
186000.0 608440.0 0
190000.0 608440.0 0
194000.0 608440.0 0
198000.0 608440.0 0
202000.0 608440.0 0
206000.0 608440.0 0
210000.0 608440.0 0
214000.0 608440.0 0
218000.0 608440.0 0
222000.0 608440.0 0
226000.0 608440.0 0
230000.0 608440.0 0
234000.0 608440.0 0
238000.0 608440.0 0
242000.0 608440.0 0
246000.0 608440.0 0
250000.0 608440.0 0
254000.0 608440.0 0
258000.0 608440.0 0
262000.0 608440.0 0
266000.0 608440.0 0
270000.0 608440.0 0
274000.0 608440.0 0
278000.0 608440.0 0
282000.0 608440.0 0
286000.0 608440.0 0
290000.0 608440.0 0
294000.0 608440.0 0
298000.0 608440.0 0
302000.0 608440.0 0
306000.0 608440.0 0
310000.0 608440.0 0
314000.0 608440.0 0
318000.0 608440.0 0
322000.0 608440.0 0
326000.0 608440.0 0
330000.0 608440.0 0
334000.0 608440.0 0
338000.0 608440.0 0
342000.0 608440.0 0
346000.0 608440.0 0
350000.0 608440.0 0
354000.0 608440.0 0
358000.0 608440.0 0
362000.0 608440.0 0
366000.0 608440.0 0
370000.0 608440.0 0
374000.0 608440.0 0
378000.0 608440.0 0
382000.0 608440.0 0
386000.0 608440.0 0
390000.0 608440.0 0
394000.0 608440.0 0
398000.0 608440.0 0
102000.0 612440.0 0
106000.0 612440.0 0
110000.0 612440.0 0
114000.0 612440.0 0
118000.0 612440.0 0
122000.0 612440.0 0
126000.0 612440.0 0
130000.0 612440.0 0
134000.0 612440.0 0
138000.0 612440.0 0
142000.0 612440.0 0
146000.0 612440.0 0
150000.0 612440.0 0
154000.0 612440.0 0
158000.0 612440.0 0
162000.0 612440.0 0
166000.0 612440.0 0
170000.0 612440.0 0
174000.0 612440.0 0
178000.0 612440.0 0
182000.0 612440.0 0
186000.0 612440.0 0
190000.0 612440.0 0
194000.0 612440.0 0
198000.0 612440.0 0
202000.0 612440.0 0
206000.0 612440.0 0
210000.0 612440.0 0
214000.0 612440.0 0
218000.0 612440.0 0
222000.0 612440.0 0
226000.0 612440.0 0
230000.0 612440.0 0
234000.0 612440.0 0
238000.0 612440.0 0
242000.0 612440.0 0
246000.0 612440.0 0
250000.0 612440.0 0
254000.0 612440.0 0
258000.0 612440.0 0
262000.0 612440.0 0
266000.0 612440.0 0
270000.0 612440.0 0
274000.0 612440.0 0
278000.0 612440.0 0
282000.0 612440.0 0
286000.0 612440.0 0
290000.0 612440.0 0
294000.0 612440.0 0
298000.0 612440.0 0
302000.0 612440.0 0
306000.0 612440.0 0
310000.0 612440.0 0
314000.0 612440.0 0
318000.0 612440.0 0
322000.0 612440.0 0
326000.0 612440.0 0
330000.0 612440.0 0
334000.0 612440.0 0
338000.0 612440.0 0
342000.0 612440.0 0
346000.0 612440.0 0
350000.0 612440.0 0
354000.0 612440.0 0
358000.0 612440.0 0
362000.0 612440.0 0
366000.0 612440.0 0
370000.0 612440.0 0
374000.0 612440.0 0
378000.0 612440.0 0
382000.0 612440.0 0
386000.0 612440.0 0
390000.0 612440.0 0
394000.0 612440.0 0
398000.0 612440.0 0
102000.0 616440.0 0
106000.0 616440.0 0
110000.0 616440.0 0
114000.0 616440.0 0
118000.0 616440.0 0
122000.0 616440.0 0
126000.0 616440.0 0
130000.0 616440.0 0
134000.0 616440.0 0
138000.0 616440.0 0
142000.0 616440.0 0
146000.0 616440.0 0
150000.0 616440.0 0
154000.0 616440.0 0
158000.0 616440.0 0
162000.0 616440.0 0
166000.0 616440.0 0
170000.0 616440.0 0
174000.0 616440.0 0
178000.0 616440.0 0
182000.0 616440.0 0
186000.0 616440.0 0
190000.0 616440.0 0
194000.0 616440.0 0
198000.0 616440.0 0
202000.0 616440.0 0
206000.0 616440.0 0
210000.0 616440.0 0
214000.0 616440.0 0
218000.0 616440.0 0
222000.0 616440.0 0
226000.0 616440.0 0
230000.0 616440.0 0
234000.0 616440.0 0
238000.0 616440.0 0
242000.0 616440.0 0
246000.0 616440.0 0
250000.0 616440.0 0
254000.0 616440.0 0
258000.0 616440.0 0
262000.0 616440.0 0
266000.0 616440.0 0
270000.0 616440.0 0
274000.0 616440.0 0
278000.0 616440.0 0
282000.0 616440.0 0
286000.0 616440.0 0
290000.0 616440.0 0
294000.0 616440.0 0
298000.0 616440.0 0
302000.0 616440.0 0
306000.0 616440.0 0
310000.0 616440.0 0
314000.0 616440.0 0
318000.0 616440.0 0
322000.0 616440.0 0
326000.0 616440.0 0
330000.0 616440.0 0
334000.0 616440.0 0
338000.0 616440.0 0
342000.0 616440.0 0
346000.0 616440.0 0
350000.0 616440.0 0
354000.0 616440.0 0
358000.0 616440.0 0
362000.0 616440.0 0
366000.0 616440.0 0
370000.0 616440.0 0
374000.0 616440.0 0
378000.0 616440.0 0
382000.0 616440.0 0
386000.0 616440.0 0
390000.0 616440.0 0
394000.0 616440.0 0
398000.0 616440.0 0
102000.0 620440.0 0
106000.0 620440.0 0
110000.0 620440.0 0
114000.0 620440.0 0
118000.0 620440.0 0
122000.0 620440.0 0
126000.0 620440.0 0
130000.0 620440.0 0
134000.0 620440.0 0
138000.0 620440.0 0
142000.0 620440.0 0
146000.0 620440.0 0
150000.0 620440.0 0
154000.0 620440.0 0
158000.0 620440.0 0
162000.0 620440.0 0
166000.0 620440.0 0
170000.0 620440.0 0
174000.0 620440.0 0
178000.0 620440.0 0
182000.0 620440.0 0
186000.0 620440.0 0
190000.0 620440.0 0
194000.0 620440.0 0
198000.0 620440.0 0
202000.0 620440.0 0
206000.0 620440.0 0
210000.0 620440.0 0
214000.0 620440.0 0
218000.0 620440.0 0
222000.0 620440.0 0
226000.0 620440.0 0
230000.0 620440.0 0
234000.0 620440.0 0
238000.0 620440.0 0
242000.0 620440.0 0
246000.0 620440.0 0
250000.0 620440.0 0
254000.0 620440.0 0
258000.0 620440.0 0
262000.0 620440.0 0
266000.0 620440.0 0
270000.0 620440.0 0
274000.0 620440.0 0
278000.0 620440.0 0
282000.0 620440.0 0
286000.0 620440.0 0
290000.0 620440.0 0
294000.0 620440.0 0
298000.0 620440.0 0
302000.0 620440.0 0
306000.0 620440.0 0
310000.0 620440.0 0
314000.0 620440.0 0
318000.0 620440.0 0
322000.0 620440.0 0
326000.0 620440.0 0
330000.0 620440.0 0
334000.0 620440.0 0
338000.0 620440.0 0
342000.0 620440.0 0
346000.0 620440.0 0
350000.0 620440.0 0
354000.0 620440.0 0
358000.0 620440.0 0
362000.0 620440.0 0
366000.0 620440.0 0
370000.0 620440.0 0
374000.0 620440.0 0
378000.0 620440.0 0
382000.0 620440.0 0
386000.0 620440.0 0
390000.0 620440.0 0
394000.0 620440.0 0
398000.0 620440.0 0
102000.0 624440.0 0
106000.0 624440.0 0
110000.0 624440.0 0
114000.0 624440.0 0
118000.0 624440.0 0
122000.0 624440.0 0
126000.0 624440.0 0
130000.0 624440.0 0
134000.0 624440.0 0
138000.0 624440.0 0
142000.0 624440.0 0
146000.0 624440.0 0
150000.0 624440.0 0
154000.0 624440.0 0
158000.0 624440.0 0
162000.0 624440.0 0
166000.0 624440.0 0
170000.0 624440.0 0
174000.0 624440.0 0
178000.0 624440.0 0
182000.0 624440.0 0
186000.0 624440.0 0
190000.0 624440.0 0
194000.0 624440.0 0
198000.0 624440.0 0
202000.0 624440.0 0
206000.0 624440.0 0
210000.0 624440.0 0
214000.0 624440.0 0
218000.0 624440.0 0
222000.0 624440.0 0
226000.0 624440.0 0
230000.0 624440.0 0
234000.0 624440.0 0
238000.0 624440.0 0
242000.0 624440.0 0
246000.0 624440.0 0
250000.0 624440.0 0
254000.0 624440.0 0
258000.0 624440.0 0
262000.0 624440.0 0
266000.0 624440.0 0
270000.0 624440.0 0
274000.0 624440.0 0
278000.0 624440.0 0
282000.0 624440.0 0
286000.0 624440.0 0
290000.0 624440.0 0
294000.0 624440.0 0
298000.0 624440.0 0
302000.0 624440.0 0
306000.0 624440.0 0
310000.0 624440.0 0
314000.0 624440.0 0
318000.0 624440.0 0
322000.0 624440.0 0
326000.0 624440.0 0
330000.0 624440.0 0
334000.0 624440.0 0
338000.0 624440.0 0
342000.0 624440.0 0
346000.0 624440.0 0
350000.0 624440.0 0
354000.0 624440.0 0
358000.0 624440.0 0
362000.0 624440.0 0
366000.0 624440.0 0
370000.0 624440.0 0
374000.0 624440.0 0
378000.0 624440.0 0
382000.0 624440.0 0
386000.0 624440.0 0
390000.0 624440.0 0
394000.0 624440.0 0
398000.0 624440.0 0
102000.0 628440.0 0
106000.0 628440.0 0
110000.0 628440.0 0
114000.0 628440.0 0
118000.0 628440.0 0
122000.0 628440.0 0
126000.0 628440.0 0
130000.0 628440.0 0
134000.0 628440.0 0
138000.0 628440.0 0
142000.0 628440.0 0
146000.0 628440.0 0
150000.0 628440.0 0
154000.0 628440.0 0
158000.0 628440.0 0
162000.0 628440.0 0
166000.0 628440.0 0
170000.0 628440.0 0
174000.0 628440.0 0
178000.0 628440.0 0
182000.0 628440.0 0
186000.0 628440.0 0
190000.0 628440.0 0
194000.0 628440.0 0
198000.0 628440.0 0
202000.0 628440.0 0
206000.0 628440.0 0
210000.0 628440.0 0
214000.0 628440.0 0
218000.0 628440.0 0
222000.0 628440.0 0
226000.0 628440.0 0
230000.0 628440.0 0
234000.0 628440.0 0
238000.0 628440.0 0
242000.0 628440.0 0
246000.0 628440.0 0
250000.0 628440.0 0
254000.0 628440.0 0
258000.0 628440.0 0
262000.0 628440.0 0
266000.0 628440.0 0
270000.0 628440.0 0
274000.0 628440.0 0
278000.0 628440.0 0
282000.0 628440.0 0
286000.0 628440.0 0
290000.0 628440.0 0
294000.0 628440.0 0
298000.0 628440.0 0
302000.0 628440.0 0
306000.0 628440.0 0
310000.0 628440.0 0
314000.0 628440.0 0
318000.0 628440.0 0
322000.0 628440.0 0
326000.0 628440.0 0
330000.0 628440.0 0
334000.0 628440.0 0
338000.0 628440.0 0
342000.0 628440.0 0
346000.0 628440.0 0
350000.0 628440.0 0
354000.0 628440.0 0
358000.0 628440.0 0
362000.0 628440.0 0
366000.0 628440.0 0
370000.0 628440.0 0
374000.0 628440.0 0
378000.0 628440.0 0
382000.0 628440.0 0
386000.0 628440.0 0
390000.0 628440.0 0
394000.0 628440.0 0
398000.0 628440.0 0
102000.0 632440.0 0
106000.0 632440.0 0
110000.0 632440.0 0
114000.0 632440.0 0
118000.0 632440.0 0
122000.0 632440.0 0
126000.0 632440.0 0
130000.0 632440.0 0
134000.0 632440.0 0
138000.0 632440.0 0
142000.0 632440.0 0
146000.0 632440.0 0
150000.0 632440.0 0
154000.0 632440.0 0
158000.0 632440.0 0
162000.0 632440.0 0
166000.0 632440.0 0
170000.0 632440.0 0
174000.0 632440.0 0
178000.0 632440.0 0
182000.0 632440.0 0
186000.0 632440.0 0
190000.0 632440.0 0
194000.0 632440.0 0
198000.0 632440.0 0
202000.0 632440.0 0
206000.0 632440.0 0
210000.0 632440.0 0
214000.0 632440.0 0
218000.0 632440.0 0
222000.0 632440.0 0
226000.0 632440.0 0
230000.0 632440.0 0
234000.0 632440.0 0
238000.0 632440.0 0
242000.0 632440.0 0
246000.0 632440.0 0
250000.0 632440.0 0
254000.0 632440.0 0
258000.0 632440.0 0
262000.0 632440.0 0
266000.0 632440.0 0
270000.0 632440.0 0
274000.0 632440.0 0
278000.0 632440.0 0
282000.0 632440.0 0
286000.0 632440.0 0
290000.0 632440.0 0
294000.0 632440.0 0
298000.0 632440.0 0
302000.0 632440.0 0
306000.0 632440.0 0
310000.0 632440.0 0
314000.0 632440.0 0
318000.0 632440.0 0
322000.0 632440.0 0
326000.0 632440.0 0
330000.0 632440.0 0
334000.0 632440.0 0
338000.0 632440.0 0
342000.0 632440.0 0
346000.0 632440.0 0
350000.0 632440.0 0
354000.0 632440.0 0
358000.0 632440.0 0
362000.0 632440.0 0
366000.0 632440.0 0
370000.0 632440.0 0
374000.0 632440.0 0
378000.0 632440.0 0
382000.0 632440.0 0
386000.0 632440.0 0
390000.0 632440.0 0
394000.0 632440.0 0
398000.0 632440.0 0
102000.0 636440.0 0
106000.0 636440.0 0
110000.0 636440.0 0
114000.0 636440.0 0
118000.0 636440.0 0
122000.0 636440.0 0
126000.0 636440.0 0
130000.0 636440.0 0
134000.0 636440.0 0
138000.0 636440.0 0
142000.0 636440.0 0
146000.0 636440.0 0
150000.0 636440.0 0
154000.0 636440.0 0
158000.0 636440.0 0
162000.0 636440.0 0
166000.0 636440.0 0
170000.0 636440.0 0
174000.0 636440.0 0
178000.0 636440.0 0
182000.0 636440.0 0
186000.0 636440.0 0
190000.0 636440.0 0
194000.0 636440.0 0
198000.0 636440.0 0
202000.0 636440.0 0
206000.0 636440.0 0
210000.0 636440.0 0
214000.0 636440.0 0
218000.0 636440.0 0
222000.0 636440.0 0
226000.0 636440.0 0
230000.0 636440.0 0
234000.0 636440.0 0
238000.0 636440.0 0
242000.0 636440.0 0
246000.0 636440.0 0
250000.0 636440.0 0
254000.0 636440.0 0
258000.0 636440.0 0
262000.0 636440.0 0
266000.0 636440.0 0
270000.0 636440.0 0
274000.0 636440.0 0
278000.0 636440.0 0
282000.0 636440.0 0
286000.0 636440.0 0
290000.0 636440.0 0
294000.0 636440.0 0
298000.0 636440.0 0
302000.0 636440.0 0
306000.0 636440.0 0
310000.0 636440.0 0
314000.0 636440.0 0
318000.0 636440.0 0
322000.0 636440.0 0
326000.0 636440.0 0
330000.0 636440.0 0
334000.0 636440.0 0
338000.0 636440.0 0
342000.0 636440.0 0
346000.0 636440.0 0
350000.0 636440.0 0
354000.0 636440.0 0
358000.0 636440.0 0
362000.0 636440.0 0
366000.0 636440.0 0
370000.0 636440.0 0
374000.0 636440.0 0
378000.0 636440.0 0
382000.0 636440.0 0
386000.0 636440.0 0
390000.0 636440.0 0
394000.0 636440.0 0
398000.0 636440.0 0
102000.0 640440.0 0
106000.0 640440.0 0
110000.0 640440.0 0
114000.0 640440.0 0
118000.0 640440.0 0
122000.0 640440.0 0
126000.0 640440.0 0
130000.0 640440.0 0
134000.0 640440.0 0
138000.0 640440.0 0
142000.0 640440.0 0
146000.0 640440.0 0
150000.0 640440.0 0
154000.0 640440.0 0
158000.0 640440.0 0
162000.0 640440.0 0
166000.0 640440.0 0
170000.0 640440.0 0
174000.0 640440.0 0
178000.0 640440.0 0
182000.0 640440.0 0
186000.0 640440.0 0
190000.0 640440.0 0
194000.0 640440.0 0
198000.0 640440.0 0
202000.0 640440.0 0
206000.0 640440.0 0
210000.0 640440.0 0
214000.0 640440.0 0
218000.0 640440.0 0
222000.0 640440.0 0
226000.0 640440.0 0
230000.0 640440.0 0
234000.0 640440.0 0
238000.0 640440.0 0
242000.0 640440.0 0
246000.0 640440.0 0
250000.0 640440.0 0
254000.0 640440.0 0
258000.0 640440.0 0
262000.0 640440.0 0
266000.0 640440.0 0
270000.0 640440.0 0
274000.0 640440.0 0
278000.0 640440.0 0
282000.0 640440.0 0
286000.0 640440.0 0
290000.0 640440.0 0
294000.0 640440.0 0
298000.0 640440.0 0
302000.0 640440.0 0
306000.0 640440.0 0
310000.0 640440.0 0
314000.0 640440.0 0
318000.0 640440.0 0
322000.0 640440.0 0
326000.0 640440.0 0
330000.0 640440.0 0
334000.0 640440.0 0
338000.0 640440.0 0
342000.0 640440.0 0
346000.0 640440.0 0
350000.0 640440.0 0
354000.0 640440.0 0
358000.0 640440.0 0
362000.0 640440.0 0
366000.0 640440.0 0
370000.0 640440.0 0
374000.0 640440.0 0
378000.0 640440.0 0
382000.0 640440.0 0
386000.0 640440.0 0
390000.0 640440.0 0
394000.0 640440.0 0
398000.0 640440.0 0
102000.0 644440.0 0
106000.0 644440.0 0
110000.0 644440.0 0
114000.0 644440.0 0
118000.0 644440.0 0
122000.0 644440.0 0
126000.0 644440.0 0
130000.0 644440.0 0
134000.0 644440.0 0
138000.0 644440.0 0
142000.0 644440.0 0
146000.0 644440.0 0
150000.0 644440.0 0
154000.0 644440.0 0
158000.0 644440.0 0
162000.0 644440.0 0
166000.0 644440.0 0
170000.0 644440.0 0
174000.0 644440.0 0
178000.0 644440.0 0
182000.0 644440.0 0
186000.0 644440.0 0
190000.0 644440.0 0
194000.0 644440.0 0
198000.0 644440.0 0
202000.0 644440.0 0
206000.0 644440.0 0
210000.0 644440.0 0
214000.0 644440.0 0
218000.0 644440.0 0
222000.0 644440.0 0
226000.0 644440.0 0
230000.0 644440.0 0
234000.0 644440.0 0
238000.0 644440.0 0
242000.0 644440.0 0
246000.0 644440.0 0
250000.0 644440.0 0
254000.0 644440.0 0
258000.0 644440.0 0
262000.0 644440.0 0
266000.0 644440.0 0
270000.0 644440.0 0
274000.0 644440.0 0
278000.0 644440.0 0
282000.0 644440.0 0
286000.0 644440.0 0
290000.0 644440.0 0
294000.0 644440.0 0
298000.0 644440.0 0
302000.0 644440.0 0
306000.0 644440.0 0
310000.0 644440.0 0
314000.0 644440.0 0
318000.0 644440.0 0
322000.0 644440.0 0
326000.0 644440.0 0
330000.0 644440.0 0
334000.0 644440.0 0
338000.0 644440.0 0
342000.0 644440.0 0
346000.0 644440.0 0
350000.0 644440.0 0
354000.0 644440.0 0
358000.0 644440.0 0
362000.0 644440.0 0
366000.0 644440.0 0
370000.0 644440.0 0
374000.0 644440.0 0
378000.0 644440.0 0
382000.0 644440.0 0
386000.0 644440.0 0
390000.0 644440.0 0
394000.0 644440.0 0
398000.0 644440.0 0
102000.0 648440.0 0
106000.0 648440.0 0
110000.0 648440.0 0
114000.0 648440.0 0
118000.0 648440.0 0
122000.0 648440.0 0
126000.0 648440.0 0
130000.0 648440.0 0
134000.0 648440.0 0
138000.0 648440.0 0
142000.0 648440.0 0
146000.0 648440.0 0
150000.0 648440.0 0
154000.0 648440.0 0
158000.0 648440.0 0
162000.0 648440.0 0
166000.0 648440.0 0
170000.0 648440.0 0
174000.0 648440.0 0
178000.0 648440.0 0
182000.0 648440.0 0
186000.0 648440.0 0
190000.0 648440.0 0
194000.0 648440.0 0
198000.0 648440.0 0
202000.0 648440.0 0
206000.0 648440.0 0
210000.0 648440.0 0
214000.0 648440.0 0
218000.0 648440.0 0
222000.0 648440.0 0
226000.0 648440.0 0
230000.0 648440.0 0
234000.0 648440.0 0
238000.0 648440.0 0
242000.0 648440.0 0
246000.0 648440.0 0
250000.0 648440.0 0
254000.0 648440.0 0
258000.0 648440.0 0
262000.0 648440.0 0
266000.0 648440.0 0
270000.0 648440.0 0
274000.0 648440.0 0
278000.0 648440.0 0
282000.0 648440.0 0
286000.0 648440.0 0
290000.0 648440.0 0
294000.0 648440.0 0
298000.0 648440.0 0
302000.0 648440.0 0
306000.0 648440.0 0
310000.0 648440.0 0
314000.0 648440.0 0
318000.0 648440.0 0
322000.0 648440.0 0
326000.0 648440.0 0
330000.0 648440.0 0
334000.0 648440.0 0
338000.0 648440.0 0
342000.0 648440.0 0
346000.0 648440.0 0
350000.0 648440.0 0
354000.0 648440.0 0
358000.0 648440.0 0
362000.0 648440.0 0
366000.0 648440.0 0
370000.0 648440.0 0
374000.0 648440.0 0
378000.0 648440.0 0
382000.0 648440.0 0
386000.0 648440.0 0
390000.0 648440.0 0
394000.0 648440.0 0
398000.0 648440.0 0
102000.0 652440.0 0
106000.0 652440.0 0
110000.0 652440.0 0
114000.0 652440.0 0
118000.0 652440.0 0
122000.0 652440.0 0
126000.0 652440.0 0
130000.0 652440.0 0
134000.0 652440.0 0
138000.0 652440.0 0
142000.0 652440.0 0
146000.0 652440.0 0
150000.0 652440.0 0
154000.0 652440.0 0
158000.0 652440.0 0
162000.0 652440.0 0
166000.0 652440.0 0
170000.0 652440.0 0
174000.0 652440.0 0
178000.0 652440.0 0
182000.0 652440.0 0
186000.0 652440.0 0
190000.0 652440.0 0
194000.0 652440.0 0
198000.0 652440.0 0
202000.0 652440.0 0
206000.0 652440.0 0
210000.0 652440.0 0
214000.0 652440.0 0
218000.0 652440.0 0
222000.0 652440.0 0
226000.0 652440.0 0
230000.0 652440.0 0
234000.0 652440.0 0
238000.0 652440.0 0
242000.0 652440.0 0
246000.0 652440.0 0
250000.0 652440.0 0
254000.0 652440.0 0
258000.0 652440.0 0
262000.0 652440.0 0
266000.0 652440.0 0
270000.0 652440.0 0
274000.0 652440.0 0
278000.0 652440.0 0
282000.0 652440.0 0
286000.0 652440.0 0
290000.0 652440.0 0
294000.0 652440.0 0
298000.0 652440.0 0
302000.0 652440.0 0
306000.0 652440.0 0
310000.0 652440.0 0
314000.0 652440.0 0
318000.0 652440.0 0
322000.0 652440.0 0
326000.0 652440.0 0
330000.0 652440.0 0
334000.0 652440.0 0
338000.0 652440.0 0
342000.0 652440.0 0
346000.0 652440.0 0
350000.0 652440.0 0
354000.0 652440.0 0
358000.0 652440.0 0
362000.0 652440.0 0
366000.0 652440.0 0
370000.0 652440.0 0
374000.0 652440.0 0
378000.0 652440.0 0
382000.0 652440.0 0
386000.0 652440.0 0
390000.0 652440.0 0
394000.0 652440.0 0
398000.0 652440.0 0
102000.0 656440.0 0
106000.0 656440.0 0
110000.0 656440.0 0
114000.0 656440.0 0
118000.0 656440.0 0
122000.0 656440.0 0
126000.0 656440.0 0
130000.0 656440.0 0
134000.0 656440.0 0
138000.0 656440.0 0
142000.0 656440.0 0
146000.0 656440.0 0
150000.0 656440.0 0
154000.0 656440.0 0
158000.0 656440.0 0
162000.0 656440.0 0
166000.0 656440.0 0
170000.0 656440.0 0
174000.0 656440.0 0
178000.0 656440.0 0
182000.0 656440.0 0
186000.0 656440.0 0
190000.0 656440.0 0
194000.0 656440.0 0
198000.0 656440.0 0
202000.0 656440.0 0
206000.0 656440.0 0
210000.0 656440.0 0
214000.0 656440.0 0
218000.0 656440.0 0
222000.0 656440.0 0
226000.0 656440.0 0
230000.0 656440.0 0
234000.0 656440.0 0
238000.0 656440.0 0
242000.0 656440.0 0
246000.0 656440.0 0
250000.0 656440.0 0
254000.0 656440.0 0
258000.0 656440.0 0
262000.0 656440.0 0
266000.0 656440.0 0
270000.0 656440.0 0
274000.0 656440.0 0
278000.0 656440.0 0
282000.0 656440.0 0
286000.0 656440.0 0
290000.0 656440.0 0
294000.0 656440.0 0
298000.0 656440.0 0
302000.0 656440.0 0
306000.0 656440.0 0
310000.0 656440.0 0
314000.0 656440.0 0
318000.0 656440.0 0
322000.0 656440.0 0
326000.0 656440.0 0
330000.0 656440.0 0
334000.0 656440.0 0
338000.0 656440.0 0
342000.0 656440.0 0
346000.0 656440.0 0
350000.0 656440.0 0
354000.0 656440.0 0
358000.0 656440.0 0
362000.0 656440.0 0
366000.0 656440.0 0
370000.0 656440.0 0
374000.0 656440.0 0
378000.0 656440.0 0
382000.0 656440.0 0
386000.0 656440.0 0
390000.0 656440.0 0
394000.0 656440.0 0
398000.0 656440.0 0
102000.0 660440.0 0
106000.0 660440.0 0
110000.0 660440.0 0
114000.0 660440.0 0
118000.0 660440.0 0
122000.0 660440.0 0
126000.0 660440.0 0
130000.0 660440.0 0
134000.0 660440.0 0
138000.0 660440.0 0
142000.0 660440.0 0
146000.0 660440.0 0
150000.0 660440.0 0
154000.0 660440.0 0
158000.0 660440.0 0
162000.0 660440.0 0
166000.0 660440.0 0
170000.0 660440.0 0
174000.0 660440.0 0
178000.0 660440.0 0
182000.0 660440.0 0
186000.0 660440.0 0
190000.0 660440.0 0
194000.0 660440.0 0
198000.0 660440.0 0
202000.0 660440.0 0
206000.0 660440.0 0
210000.0 660440.0 0
214000.0 660440.0 0
218000.0 660440.0 0
222000.0 660440.0 0
226000.0 660440.0 0
230000.0 660440.0 0
234000.0 660440.0 0
238000.0 660440.0 0
242000.0 660440.0 0
246000.0 660440.0 0
250000.0 660440.0 0
254000.0 660440.0 0
258000.0 660440.0 0
262000.0 660440.0 0
266000.0 660440.0 0
270000.0 660440.0 0
274000.0 660440.0 0
278000.0 660440.0 0
282000.0 660440.0 0
286000.0 660440.0 0
290000.0 660440.0 0
294000.0 660440.0 0
298000.0 660440.0 0
302000.0 660440.0 0
306000.0 660440.0 0
310000.0 660440.0 0
314000.0 660440.0 0
318000.0 660440.0 0
322000.0 660440.0 0
326000.0 660440.0 0
330000.0 660440.0 0
334000.0 660440.0 0
338000.0 660440.0 0
342000.0 660440.0 0
346000.0 660440.0 0
350000.0 660440.0 0
354000.0 660440.0 0
358000.0 660440.0 0
362000.0 660440.0 0
366000.0 660440.0 0
370000.0 660440.0 0
374000.0 660440.0 0
378000.0 660440.0 0
382000.0 660440.0 0
386000.0 660440.0 0
390000.0 660440.0 0
394000.0 660440.0 0
398000.0 660440.0 0
102000.0 664440.0 0
106000.0 664440.0 0
110000.0 664440.0 0
114000.0 664440.0 0
118000.0 664440.0 0
122000.0 664440.0 0
126000.0 664440.0 0
130000.0 664440.0 0
134000.0 664440.0 0
138000.0 664440.0 0
142000.0 664440.0 0
146000.0 664440.0 0
150000.0 664440.0 0
154000.0 664440.0 0
158000.0 664440.0 0
162000.0 664440.0 0
166000.0 664440.0 0
170000.0 664440.0 0
174000.0 664440.0 0
178000.0 664440.0 0
182000.0 664440.0 0
186000.0 664440.0 0
190000.0 664440.0 0
194000.0 664440.0 0
198000.0 664440.0 0
202000.0 664440.0 0
206000.0 664440.0 0
210000.0 664440.0 0
214000.0 664440.0 0
218000.0 664440.0 0
222000.0 664440.0 0
226000.0 664440.0 0
230000.0 664440.0 0
234000.0 664440.0 0
238000.0 664440.0 0
242000.0 664440.0 0
246000.0 664440.0 0
250000.0 664440.0 0
254000.0 664440.0 0
258000.0 664440.0 0
262000.0 664440.0 0
266000.0 664440.0 0
270000.0 664440.0 0
274000.0 664440.0 0
278000.0 664440.0 0
282000.0 664440.0 0
286000.0 664440.0 0
290000.0 664440.0 0
294000.0 664440.0 0
298000.0 664440.0 0
302000.0 664440.0 0
306000.0 664440.0 0
310000.0 664440.0 0
314000.0 664440.0 0
318000.0 664440.0 0
322000.0 664440.0 0
326000.0 664440.0 0
330000.0 664440.0 0
334000.0 664440.0 0
338000.0 664440.0 0
342000.0 664440.0 0
346000.0 664440.0 0
350000.0 664440.0 0
354000.0 664440.0 0
358000.0 664440.0 0
362000.0 664440.0 0
366000.0 664440.0 0
370000.0 664440.0 0
374000.0 664440.0 0
378000.0 664440.0 0
382000.0 664440.0 0
386000.0 664440.0 0
390000.0 664440.0 0
394000.0 664440.0 0
398000.0 664440.0 0
102000.0 668440.0 0
106000.0 668440.0 0
110000.0 668440.0 0
114000.0 668440.0 0
118000.0 668440.0 0
122000.0 668440.0 0
126000.0 668440.0 0
130000.0 668440.0 0
134000.0 668440.0 0
138000.0 668440.0 0
142000.0 668440.0 0
146000.0 668440.0 0
150000.0 668440.0 0
154000.0 668440.0 0
158000.0 668440.0 0
162000.0 668440.0 0
166000.0 668440.0 0
170000.0 668440.0 0
174000.0 668440.0 0
178000.0 668440.0 0
182000.0 668440.0 0
186000.0 668440.0 0
190000.0 668440.0 0
194000.0 668440.0 0
198000.0 668440.0 0
202000.0 668440.0 0
206000.0 668440.0 0
210000.0 668440.0 0
214000.0 668440.0 0
218000.0 668440.0 0
222000.0 668440.0 0
226000.0 668440.0 0
230000.0 668440.0 0
234000.0 668440.0 0
238000.0 668440.0 0
242000.0 668440.0 0
246000.0 668440.0 0
250000.0 668440.0 0
254000.0 668440.0 0
258000.0 668440.0 0
262000.0 668440.0 0
266000.0 668440.0 0
270000.0 668440.0 0
274000.0 668440.0 0
278000.0 668440.0 0
282000.0 668440.0 0
286000.0 668440.0 0
290000.0 668440.0 0
294000.0 668440.0 0
298000.0 668440.0 0
302000.0 668440.0 0
306000.0 668440.0 0
310000.0 668440.0 0
314000.0 668440.0 0
318000.0 668440.0 0
322000.0 668440.0 0
326000.0 668440.0 0
330000.0 668440.0 0
334000.0 668440.0 0
338000.0 668440.0 0
342000.0 668440.0 0
346000.0 668440.0 0
350000.0 668440.0 0
354000.0 668440.0 0
358000.0 668440.0 0
362000.0 668440.0 0
366000.0 668440.0 0
370000.0 668440.0 0
374000.0 668440.0 0
378000.0 668440.0 0
382000.0 668440.0 0
386000.0 668440.0 0
390000.0 668440.0 0
394000.0 668440.0 0
398000.0 668440.0 0
102000.0 672440.0 0
106000.0 672440.0 0
110000.0 672440.0 0
114000.0 672440.0 0
118000.0 672440.0 0
122000.0 672440.0 0
126000.0 672440.0 0
130000.0 672440.0 0
134000.0 672440.0 0
138000.0 672440.0 0
142000.0 672440.0 0
146000.0 672440.0 0
150000.0 672440.0 0
154000.0 672440.0 0
158000.0 672440.0 0
162000.0 672440.0 0
166000.0 672440.0 0
170000.0 672440.0 0
174000.0 672440.0 0
178000.0 672440.0 0
182000.0 672440.0 0
186000.0 672440.0 0
190000.0 672440.0 0
194000.0 672440.0 0
198000.0 672440.0 0
202000.0 672440.0 0
206000.0 672440.0 0
210000.0 672440.0 0
214000.0 672440.0 0
218000.0 672440.0 0
222000.0 672440.0 0
226000.0 672440.0 0
230000.0 672440.0 0
234000.0 672440.0 0
238000.0 672440.0 0
242000.0 672440.0 0
246000.0 672440.0 0
250000.0 672440.0 0
254000.0 672440.0 0
258000.0 672440.0 0
262000.0 672440.0 0
266000.0 672440.0 0
270000.0 672440.0 0
274000.0 672440.0 0
278000.0 672440.0 0
282000.0 672440.0 0
286000.0 672440.0 0
290000.0 672440.0 0
294000.0 672440.0 0
298000.0 672440.0 0
302000.0 672440.0 0
306000.0 672440.0 0
310000.0 672440.0 0
314000.0 672440.0 0
318000.0 672440.0 0
322000.0 672440.0 0
326000.0 672440.0 0
330000.0 672440.0 0
334000.0 672440.0 0
338000.0 672440.0 0
342000.0 672440.0 0
346000.0 672440.0 0
350000.0 672440.0 0
354000.0 672440.0 0
358000.0 672440.0 0
362000.0 672440.0 0
366000.0 672440.0 0
370000.0 672440.0 0
374000.0 672440.0 0
378000.0 672440.0 0
382000.0 672440.0 0
386000.0 672440.0 0
390000.0 672440.0 0
394000.0 672440.0 0
398000.0 672440.0 0
102000.0 676440.0 0
106000.0 676440.0 0
110000.0 676440.0 0
114000.0 676440.0 0
118000.0 676440.0 0
122000.0 676440.0 0
126000.0 676440.0 0
130000.0 676440.0 0
134000.0 676440.0 0
138000.0 676440.0 0
142000.0 676440.0 0
146000.0 676440.0 0
150000.0 676440.0 0
154000.0 676440.0 0
158000.0 676440.0 0
162000.0 676440.0 0
166000.0 676440.0 0
170000.0 676440.0 0
174000.0 676440.0 0
178000.0 676440.0 0
182000.0 676440.0 0
186000.0 676440.0 0
190000.0 676440.0 0
194000.0 676440.0 0
198000.0 676440.0 0
202000.0 676440.0 0
206000.0 676440.0 0
210000.0 676440.0 0
214000.0 676440.0 0
218000.0 676440.0 0
222000.0 676440.0 0
226000.0 676440.0 0
230000.0 676440.0 0
234000.0 676440.0 0
238000.0 676440.0 0
242000.0 676440.0 0
246000.0 676440.0 0
250000.0 676440.0 0
254000.0 676440.0 0
258000.0 676440.0 0
262000.0 676440.0 0
266000.0 676440.0 0
270000.0 676440.0 0
274000.0 676440.0 0
278000.0 676440.0 0
282000.0 676440.0 0
286000.0 676440.0 0
290000.0 676440.0 0
294000.0 676440.0 0
298000.0 676440.0 0
302000.0 676440.0 0
306000.0 676440.0 0
310000.0 676440.0 0
314000.0 676440.0 0
318000.0 676440.0 0
322000.0 676440.0 0
326000.0 676440.0 0
330000.0 676440.0 0
334000.0 676440.0 0
338000.0 676440.0 0
342000.0 676440.0 0
346000.0 676440.0 0
350000.0 676440.0 0
354000.0 676440.0 0
358000.0 676440.0 0
362000.0 676440.0 0
366000.0 676440.0 0
370000.0 676440.0 0
374000.0 676440.0 0
378000.0 676440.0 0
382000.0 676440.0 0
386000.0 676440.0 0
390000.0 676440.0 0
394000.0 676440.0 0
398000.0 676440.0 0
POINT_DATA 4650
SCALARS Radius float 1
LOOKUP_TABLE default
4000.0 4000.0 4000.0 4000.0 4000.0 4000.0 4000.0 4000.0 4000.0 4000.0 4000.0 4000.0 4000.0 4000.0 4000.0 4000.0 4000.0 4000.0 4000.0 4000.0 4000.0 4000.0 4000.0 4000.0 4000.0 4000.0 4000.0 4000.0 4000.0 4000.0 4000.0 4000.0 4000.0 4000.0 4000.0 4000.0 4000.0 4000.0 4000.0 4000.0 4000.0 4000.0 4000.0 4000.0 4000.0 4000.0 4000.0 4000.0 4000.0 4000.0 4000.0 4000.0 4000.0 4000.0 4000.0 4000.0 4000.0 4000.0 4000.0 4000.0 4000.0 4000.0 4000.0 4000.0 4000.0 4000.0 4000.0 4000.0 4000.0 4000.0 4000.0 4000.0 4000.0 4000.0 4000.0 4000.0 4000.0 4000.0 4000.0 4000.0 4000.0 4000.0 4000.0 4000.0 4000.0 4000.0 4000.0 4000.0 4000.0 4000.0 4000.0 4000.0 4000.0 4000.0 4000.0 4000.0 4000.0 4000.0 4000.0 4000.0 4000.0 4000.0 4000.0 4000.0 4000.0 4000.0 4000.0 4000.0 4000.0 4000.0 4000.0 4000.0 4000.0 4000.0 4000.0 4000.0 4000.0 4000.0 4000.0 4000.0 4000.0 4000.0 4000.0 4000.0 4000.0 4000.0 4000.0 4000.0 4000.0 4000.0 4000.0 4000.0 4000.0 4000.0 4000.0 4000.0 4000.0 4000.0 4000.0 4000.0 4000.0 4000.0 4000.0 4000.0 4000.0 4000.0 4000.0 4000.0 4000.0 4000.0 4000.0 4000.0 4000.0 4000.0 4000.0 4000.0 4000.0 4000.0 4000.0 4000.0 4000.0 4000.0 4000.0 4000.0 4000.0 4000.0 4000.0 4000.0 4000.0 4000.0 4000.0 4000.0 4000.0 4000.0 4000.0 4000.0 4000.0 4000.0 4000.0 4000.0 4000.0 4000.0 4000.0 4000.0 4000.0 4000.0 4000.0 4000.0 4000.0 4000.0 4000.0 4000.0 4000.0 4000.0 4000.0 4000.0 4000.0 4000.0 4000.0 4000.0 4000.0 4000.0 4000.0 4000.0 4000.0 4000.0 4000.0 4000.0 4000.0 4000.0 4000.0 4000.0 4000.0 4000.0 4000.0 4000.0 4000.0 4000.0 4000.0 4000.0 4000.0 4000.0 4000.0 4000.0 4000.0 4000.0 4000.0 4000.0 4000.0 4000.0 4000.0 4000.0 4000.0 4000.0 4000.0 4000.0 4000.0 4000.0 4000.0 4000.0 4000.0 4000.0 4000.0 4000.0 4000.0 4000.0 4000.0 4000.0 4000.0 4000.0 4000.0 4000.0 4000.0 4000.0 4000.0 4000.0 4000.0 4000.0 4000.0 4000.0 4000.0 4000.0 4000.0 4000.0 4000.0 4000.0 4000.0 4000.0 4000.0 4000.0 4000.0 4000.0 4000.0 4000.0 4000.0 4000.0 4000.0 4000.0 4000.0 4000.0 4000.0 4000.0 4000.0 4000.0 4000.0 4000.0 4000.0 4000.0 4000.0 4000.0 4000.0 4000.0 4000.0 4000.0 4000.0 4000.0 4000.0 4000.0 4000.0 4000.0 4000.0 4000.0 4000.0 4000.0 4000.0 4000.0 4000.0 4000.0 4000.0 4000.0 4000.0 4000.0 4000.0 4000.0 4000.0 4000.0 4000.0 4000.0 4000.0 4000.0 4000.0 4000.0 4000.0 4000.0 4000.0 4000.0 4000.0 4000.0 4000.0 4000.0 4000.0 4000.0 4000.0 4000.0 4000.0 4000.0 4000.0 4000.0 4000.0 4000.0 4000.0 4000.0 4000.0 4000.0 4000.0 4000.0 4000.0 4000.0 4000.0 4000.0 4000.0 4000.0 4000.0 4000.0 4000.0 4000.0 4000.0 4000.0 4000.0 4000.0 4000.0 4000.0 4000.0 4000.0 4000.0 4000.0 4000.0 4000.0 4000.0 4000.0 4000.0 4000.0 4000.0 4000.0 4000.0 4000.0 4000.0 4000.0 4000.0 4000.0 4000.0 4000.0 4000.0 4000.0 4000.0 4000.0 4000.0 4000.0 4000.0 4000.0 4000.0 4000.0 4000.0 4000.0 4000.0 4000.0 4000.0 4000.0 4000.0 4000.0 4000.0 4000.0 4000.0 4000.0 4000.0 4000.0 4000.0 4000.0 4000.0 4000.0 4000.0 4000.0 4000.0 4000.0 4000.0 4000.0 4000.0 4000.0 4000.0 4000.0 4000.0 4000.0 4000.0 4000.0 4000.0 4000.0 4000.0 4000.0 4000.0 4000.0 4000.0 4000.0 4000.0 4000.0 4000.0 4000.0 4000.0 4000.0 4000.0 4000.0 4000.0 4000.0 4000.0 4000.0 4000.0 4000.0 4000.0 4000.0 4000.0 4000.0 4000.0 4000.0 4000.0 4000.0 4000.0 4000.0 4000.0 4000.0 4000.0 4000.0 4000.0 4000.0 4000.0 4000.0 4000.0 4000.0 4000.0 4000.0 4000.0 4000.0 4000.0 4000.0 4000.0 4000.0 4000.0 4000.0 4000.0 4000.0 4000.0 4000.0 4000.0 4000.0 4000.0 4000.0 4000.0 4000.0 4000.0 4000.0 4000.0 4000.0 4000.0 4000.0 4000.0 4000.0 4000.0 4000.0 4000.0 4000.0 4000.0 4000.0 4000.0 4000.0 4000.0 4000.0 4000.0 4000.0 4000.0 4000.0 4000.0 4000.0 4000.0 4000.0 4000.0 4000.0 4000.0 4000.0 4000.0 4000.0 4000.0 4000.0 4000.0 4000.0 4000.0 4000.0 4000.0 4000.0 4000.0 4000.0 4000.0 4000.0 4000.0 4000.0 4000.0 4000.0 4000.0 4000.0 4000.0 4000.0 4000.0 4000.0 4000.0 4000.0 4000.0 4000.0 4000.0 4000.0 4000.0 4000.0 4000.0 4000.0 4000.0 4000.0 4000.0 4000.0 4000.0 4000.0 4000.0 4000.0 4000.0 4000.0 4000.0 4000.0 4000.0 4000.0 4000.0 4000.0 4000.0 4000.0 4000.0 4000.0 4000.0 4000.0 4000.0 4000.0 4000.0 4000.0 4000.0 4000.0 4000.0 4000.0 4000.0 4000.0 4000.0 4000.0 4000.0 4000.0 4000.0 4000.0 4000.0 4000.0 4000.0 4000.0 4000.0 4000.0 4000.0 4000.0 4000.0 4000.0 4000.0 4000.0 4000.0 4000.0 4000.0 4000.0 4000.0 4000.0 4000.0 4000.0 4000.0 4000.0 4000.0 4000.0 4000.0 4000.0 4000.0 4000.0 4000.0 4000.0 4000.0 4000.0 4000.0 4000.0 4000.0 4000.0 4000.0 4000.0 4000.0 4000.0 4000.0 4000.0 4000.0 4000.0 4000.0 4000.0 4000.0 4000.0 4000.0 4000.0 4000.0 4000.0 4000.0 4000.0 4000.0 4000.0 4000.0 4000.0 4000.0 4000.0 4000.0 4000.0 4000.0 4000.0 4000.0 4000.0 4000.0 4000.0 4000.0 4000.0 4000.0 4000.0 4000.0 4000.0 4000.0 4000.0 4000.0 4000.0 4000.0 4000.0 4000.0 4000.0 4000.0 4000.0 4000.0 4000.0 4000.0 4000.0 4000.0 4000.0 4000.0 4000.0 4000.0 4000.0 4000.0 4000.0 4000.0 4000.0 4000.0 4000.0 4000.0 4000.0 4000.0 4000.0 4000.0 4000.0 4000.0 4000.0 4000.0 4000.0 4000.0 4000.0 4000.0 4000.0 4000.0 4000.0 4000.0 4000.0 4000.0 4000.0 4000.0 4000.0 4000.0 4000.0 4000.0 4000.0 4000.0 4000.0 4000.0 4000.0 4000.0 4000.0 4000.0 4000.0 4000.0 4000.0 4000.0 4000.0 4000.0 4000.0 4000.0 4000.0 4000.0 4000.0 4000.0 4000.0 4000.0 4000.0 4000.0 4000.0 4000.0 4000.0 4000.0 4000.0 4000.0 4000.0 4000.0 4000.0 4000.0 4000.0 4000.0 4000.0 4000.0 4000.0 4000.0 4000.0 4000.0 4000.0 4000.0 4000.0 4000.0 4000.0 4000.0 4000.0 4000.0 4000.0 4000.0 4000.0 4000.0 4000.0 4000.0 4000.0 4000.0 4000.0 4000.0 4000.0 4000.0 4000.0 4000.0 4000.0 4000.0 4000.0 4000.0 4000.0 4000.0 4000.0 4000.0 4000.0 4000.0 4000.0 4000.0 4000.0 4000.0 4000.0 4000.0 4000.0 4000.0 4000.0 4000.0 4000.0 4000.0 4000.0 4000.0 4000.0 4000.0 4000.0 4000.0 4000.0 4000.0 4000.0 4000.0 4000.0 4000.0 4000.0 4000.0 4000.0 4000.0 4000.0 4000.0 4000.0 4000.0 4000.0 4000.0 4000.0 4000.0 4000.0 4000.0 4000.0 4000.0 4000.0 4000.0 4000.0 4000.0 4000.0 4000.0 4000.0 4000.0 4000.0 4000.0 4000.0 4000.0 4000.0 4000.0 4000.0 4000.0 4000.0 4000.0 4000.0 4000.0 4000.0 4000.0 4000.0 4000.0 4000.0 4000.0 4000.0 4000.0 4000.0 4000.0 4000.0 4000.0 4000.0 4000.0 4000.0 4000.0 4000.0 4000.0 4000.0 4000.0 4000.0 4000.0 4000.0 4000.0 4000.0 4000.0 4000.0 4000.0 4000.0 4000.0 4000.0 4000.0 4000.0 4000.0 4000.0 4000.0 4000.0 4000.0 4000.0 4000.0 4000.0 4000.0 4000.0 4000.0 4000.0 4000.0 4000.0 4000.0 4000.0 4000.0 4000.0 4000.0 4000.0 4000.0 4000.0 4000.0 4000.0 4000.0 4000.0 4000.0 4000.0 4000.0 4000.0 4000.0 4000.0 4000.0 4000.0 4000.0 4000.0 4000.0 4000.0 4000.0 4000.0 4000.0 4000.0 4000.0 4000.0 4000.0 4000.0 4000.0 4000.0 4000.0 4000.0 4000.0 4000.0 4000.0 4000.0 4000.0 4000.0 4000.0 4000.0 4000.0 4000.0 4000.0 4000.0 4000.0 4000.0 4000.0 4000.0 4000.0 4000.0 4000.0 4000.0 4000.0 4000.0 4000.0 4000.0 4000.0 4000.0 4000.0 4000.0 4000.0 4000.0 4000.0 4000.0 4000.0 4000.0 4000.0 4000.0 4000.0 4000.0 4000.0 4000.0 4000.0 4000.0 4000.0 4000.0 4000.0 4000.0 4000.0 4000.0 4000.0 4000.0 4000.0 4000.0 4000.0 4000.0 4000.0 4000.0 4000.0 4000.0 4000.0 4000.0 4000.0 4000.0 4000.0 4000.0 4000.0 4000.0 4000.0 4000.0 4000.0 4000.0 4000.0 4000.0 4000.0 4000.0 4000.0 4000.0 4000.0 4000.0 4000.0 4000.0 4000.0 4000.0 4000.0 4000.0 4000.0 4000.0 4000.0 4000.0 4000.0 4000.0 4000.0 4000.0 4000.0 4000.0 4000.0 4000.0 4000.0 4000.0 4000.0 4000.0 4000.0 4000.0 4000.0 4000.0 4000.0 4000.0 4000.0 4000.0 4000.0 4000.0 4000.0 4000.0 4000.0 4000.0 4000.0 4000.0 4000.0 4000.0 4000.0 4000.0 4000.0 4000.0 4000.0 4000.0 4000.0 4000.0 4000.0 4000.0 4000.0 4000.0 4000.0 4000.0 4000.0 4000.0 4000.0 4000.0 4000.0 4000.0 4000.0 4000.0 4000.0 4000.0 4000.0 4000.0 4000.0 4000.0 4000.0 4000.0 4000.0 4000.0 4000.0 4000.0 4000.0 4000.0 4000.0 4000.0 4000.0 4000.0 4000.0 4000.0 4000.0 4000.0 4000.0 4000.0 4000.0 4000.0 4000.0 4000.0 4000.0 4000.0 4000.0 4000.0 4000.0 4000.0 4000.0 4000.0 4000.0 4000.0 4000.0 4000.0 4000.0 4000.0 4000.0 4000.0 4000.0 4000.0 4000.0 4000.0 4000.0 4000.0 4000.0 4000.0 4000.0 4000.0 4000.0 4000.0 4000.0 4000.0 4000.0 4000.0 4000.0 4000.0 4000.0 4000.0 4000.0 4000.0 4000.0 4000.0 4000.0 4000.0 4000.0 4000.0 4000.0 4000.0 4000.0 4000.0 4000.0 4000.0 4000.0 4000.0 4000.0 4000.0 4000.0 4000.0 4000.0 4000.0 4000.0 4000.0 4000.0 4000.0 4000.0 4000.0 4000.0 4000.0 4000.0 4000.0 4000.0 4000.0 4000.0 4000.0 4000.0 4000.0 4000.0 4000.0 4000.0 4000.0 4000.0 4000.0 4000.0 4000.0 4000.0 4000.0 4000.0 4000.0 4000.0 4000.0 4000.0 4000.0 4000.0 4000.0 4000.0 4000.0 4000.0 4000.0 4000.0 4000.0 4000.0 4000.0 4000.0 4000.0 4000.0 4000.0 4000.0 4000.0 4000.0 4000.0 4000.0 4000.0 4000.0 4000.0 4000.0 4000.0 4000.0 4000.0 4000.0 4000.0 4000.0 4000.0 4000.0 4000.0 4000.0 4000.0 4000.0 4000.0 4000.0 4000.0 4000.0 4000.0 4000.0 4000.0 4000.0 4000.0 4000.0 4000.0 4000.0 4000.0 4000.0 4000.0 4000.0 4000.0 4000.0 4000.0 4000.0 4000.0 4000.0 4000.0 4000.0 4000.0 4000.0 4000.0 4000.0 4000.0 4000.0 4000.0 4000.0 4000.0 4000.0 4000.0 4000.0 4000.0 4000.0 4000.0 4000.0 4000.0 4000.0 4000.0 4000.0 4000.0 4000.0 4000.0 4000.0 4000.0 4000.0 4000.0 4000.0 4000.0 4000.0 4000.0 4000.0 4000.0 4000.0 4000.0 4000.0 4000.0 4000.0 4000.0 4000.0 4000.0 4000.0 4000.0 4000.0 4000.0 4000.0 4000.0 4000.0 4000.0 4000.0 4000.0 4000.0 4000.0 4000.0 4000.0 4000.0 4000.0 4000.0 4000.0 4000.0 4000.0 4000.0 4000.0 4000.0 4000.0 4000.0 4000.0 4000.0 4000.0 4000.0 4000.0 4000.0 4000.0 4000.0 4000.0 4000.0 4000.0 4000.0 4000.0 4000.0 4000.0 4000.0 4000.0 4000.0 4000.0 4000.0 4000.0 4000.0 4000.0 4000.0 4000.0 4000.0 4000.0 4000.0 4000.0 4000.0 4000.0 4000.0 4000.0 4000.0 4000.0 4000.0 4000.0 4000.0 4000.0 4000.0 4000.0 4000.0 4000.0 4000.0 4000.0 4000.0 4000.0 4000.0 4000.0 4000.0 4000.0 4000.0 4000.0 4000.0 4000.0 4000.0 4000.0 4000.0 4000.0 4000.0 4000.0 4000.0 4000.0 4000.0 4000.0 4000.0 4000.0 4000.0 4000.0 4000.0 4000.0 4000.0 4000.0 4000.0 4000.0 4000.0 4000.0 4000.0 4000.0 4000.0 4000.0 4000.0 4000.0 4000.0 4000.0 4000.0 4000.0 4000.0 4000.0 4000.0 4000.0 4000.0 4000.0 4000.0 4000.0 4000.0 4000.0 4000.0 4000.0 4000.0 4000.0 4000.0 4000.0 4000.0 4000.0 4000.0 4000.0 4000.0 4000.0 4000.0 4000.0 4000.0 4000.0 4000.0 4000.0 4000.0 4000.0 4000.0 4000.0 4000.0 4000.0 4000.0 4000.0 4000.0 4000.0 4000.0 4000.0 4000.0 4000.0 4000.0 4000.0 4000.0 4000.0 4000.0 4000.0 4000.0 4000.0 4000.0 4000.0 4000.0 4000.0 4000.0 4000.0 4000.0 4000.0 4000.0 4000.0 4000.0 4000.0 4000.0 4000.0 4000.0 4000.0 4000.0 4000.0 4000.0 4000.0 4000.0 4000.0 4000.0 4000.0 4000.0 4000.0 4000.0 4000.0 4000.0 4000.0 4000.0 4000.0 4000.0 4000.0 4000.0 4000.0 4000.0 4000.0 4000.0 4000.0 4000.0 4000.0 4000.0 4000.0 4000.0 4000.0 4000.0 4000.0 4000.0 4000.0 4000.0 4000.0 4000.0 4000.0 4000.0 4000.0 4000.0 4000.0 4000.0 4000.0 4000.0 4000.0 4000.0 4000.0 4000.0 4000.0 4000.0 4000.0 4000.0 4000.0 4000.0 4000.0 4000.0 4000.0 4000.0 4000.0 4000.0 4000.0 4000.0 4000.0 4000.0 4000.0 4000.0 4000.0 4000.0 4000.0 4000.0 4000.0 4000.0 4000.0 4000.0 4000.0 4000.0 4000.0 4000.0 4000.0 4000.0 4000.0 4000.0 4000.0 4000.0 4000.0 4000.0 4000.0 4000.0 4000.0 4000.0 4000.0 4000.0 4000.0 4000.0 4000.0 4000.0 4000.0 4000.0 4000.0 4000.0 4000.0 4000.0 4000.0 4000.0 4000.0 4000.0 4000.0 4000.0 4000.0 4000.0 4000.0 4000.0 4000.0 4000.0 4000.0 4000.0 4000.0 4000.0 4000.0 4000.0 4000.0 4000.0 4000.0 4000.0 4000.0 4000.0 4000.0 4000.0 4000.0 4000.0 4000.0 4000.0 4000.0 4000.0 4000.0 4000.0 4000.0 4000.0 4000.0 4000.0 4000.0 4000.0 4000.0 4000.0 4000.0 4000.0 4000.0 4000.0 4000.0 4000.0 4000.0 4000.0 4000.0 4000.0 4000.0 4000.0 4000.0 4000.0 4000.0 4000.0 4000.0 4000.0 4000.0 4000.0 4000.0 4000.0 4000.0 4000.0 4000.0 4000.0 4000.0 4000.0 4000.0 4000.0 4000.0 4000.0 4000.0 4000.0 4000.0 4000.0 4000.0 4000.0 4000.0 4000.0 4000.0 4000.0 4000.0 4000.0 4000.0 4000.0 4000.0 4000.0 4000.0 4000.0 4000.0 4000.0 4000.0 4000.0 4000.0 4000.0 4000.0 4000.0 4000.0 4000.0 4000.0 4000.0 4000.0 4000.0 4000.0 4000.0 4000.0 4000.0 4000.0 4000.0 4000.0 4000.0 4000.0 4000.0 4000.0 4000.0 4000.0 4000.0 4000.0 4000.0 4000.0 4000.0 4000.0 4000.0 4000.0 4000.0 4000.0 4000.0 4000.0 4000.0 4000.0 4000.0 4000.0 4000.0 4000.0 4000.0 4000.0 4000.0 4000.0 4000.0 4000.0 4000.0 4000.0 4000.0 4000.0 4000.0 4000.0 4000.0 4000.0 4000.0 4000.0 4000.0 4000.0 4000.0 4000.0 4000.0 4000.0 4000.0 4000.0 4000.0 4000.0 4000.0 4000.0 4000.0 4000.0 4000.0 4000.0 4000.0 4000.0 4000.0 4000.0 4000.0 4000.0 4000.0 4000.0 4000.0 4000.0 4000.0 4000.0 4000.0 4000.0 4000.0 4000.0 4000.0 4000.0 4000.0 4000.0 4000.0 4000.0 4000.0 4000.0 4000.0 4000.0 4000.0 4000.0 4000.0 4000.0 4000.0 4000.0 4000.0 4000.0 4000.0 4000.0 4000.0 4000.0 4000.0 4000.0 4000.0 4000.0 4000.0 4000.0 4000.0 4000.0 4000.0 4000.0 4000.0 4000.0 4000.0 4000.0 4000.0 4000.0 4000.0 4000.0 4000.0 4000.0 4000.0 4000.0 4000.0 4000.0 4000.0 4000.0 4000.0 4000.0 4000.0 4000.0 4000.0 4000.0 4000.0 4000.0 4000.0 4000.0 4000.0 4000.0 4000.0 4000.0 4000.0 4000.0 4000.0 4000.0 4000.0 4000.0 4000.0 4000.0 4000.0 4000.0 4000.0 4000.0 4000.0 4000.0 4000.0 4000.0 4000.0 4000.0 4000.0 4000.0 4000.0 4000.0 4000.0 4000.0 4000.0 4000.0 4000.0 4000.0 4000.0 4000.0 4000.0 4000.0 4000.0 4000.0 4000.0 4000.0 4000.0 4000.0 4000.0 4000.0 4000.0 4000.0 4000.0 4000.0 4000.0 4000.0 4000.0 4000.0 4000.0 4000.0 4000.0 4000.0 4000.0 4000.0 4000.0 4000.0 4000.0 4000.0 4000.0 4000.0 4000.0 4000.0 4000.0 4000.0 4000.0 4000.0 4000.0 4000.0 4000.0 4000.0 4000.0 4000.0 4000.0 4000.0 4000.0 4000.0 4000.0 4000.0 4000.0 4000.0 4000.0 4000.0 4000.0 4000.0 4000.0 4000.0 4000.0 4000.0 4000.0 4000.0 4000.0 4000.0 4000.0 4000.0 4000.0 4000.0 4000.0 4000.0 4000.0 4000.0 4000.0 4000.0 4000.0 4000.0 4000.0 4000.0 4000.0 4000.0 4000.0 4000.0 4000.0 4000.0 4000.0 4000.0 4000.0 4000.0 4000.0 4000.0 4000.0 4000.0 4000.0 4000.0 4000.0 4000.0 4000.0 4000.0 4000.0 4000.0 4000.0 4000.0 4000.0 4000.0 4000.0 4000.0 4000.0 4000.0 4000.0 4000.0 4000.0 4000.0 4000.0 4000.0 4000.0 4000.0 4000.0 4000.0 4000.0 4000.0 4000.0 4000.0 4000.0 4000.0 4000.0 4000.0 4000.0 4000.0 4000.0 4000.0 4000.0 4000.0 4000.0 4000.0 4000.0 4000.0 4000.0 4000.0 4000.0 4000.0 4000.0 4000.0 4000.0 4000.0 4000.0 4000.0 4000.0 4000.0 4000.0 4000.0 4000.0 4000.0 4000.0 4000.0 4000.0 4000.0 4000.0 4000.0 4000.0 4000.0 4000.0 4000.0 4000.0 4000.0 4000.0 4000.0 4000.0 4000.0 4000.0 4000.0 4000.0 4000.0 4000.0 4000.0 4000.0 4000.0 4000.0 4000.0 4000.0 4000.0 4000.0 4000.0 4000.0 4000.0 4000.0 4000.0 4000.0 4000.0 4000.0 4000.0 4000.0 4000.0 4000.0 4000.0 4000.0 4000.0 4000.0 4000.0 4000.0 4000.0 4000.0 4000.0 4000.0 4000.0 4000.0 4000.0 4000.0 4000.0 4000.0 4000.0 4000.0 4000.0 4000.0 4000.0 4000.0 4000.0 4000.0 4000.0 4000.0 4000.0 4000.0 4000.0 4000.0 4000.0 4000.0 4000.0 4000.0 4000.0 4000.0 4000.0 4000.0 4000.0 4000.0 4000.0 4000.0 4000.0 4000.0 4000.0 4000.0 4000.0 4000.0 4000.0 4000.0 4000.0 4000.0 4000.0 4000.0 4000.0 4000.0 4000.0 4000.0 4000.0 4000.0 4000.0 4000.0 4000.0 4000.0 4000.0 4000.0 4000.0 4000.0 4000.0 4000.0 4000.0 4000.0 4000.0 4000.0 4000.0 4000.0 4000.0 4000.0 4000.0 4000.0 4000.0 4000.0 4000.0 4000.0 4000.0 4000.0 4000.0 4000.0 4000.0 4000.0 4000.0 4000.0 4000.0 4000.0 4000.0 4000.0 4000.0 4000.0 4000.0 4000.0 4000.0 4000.0 4000.0 4000.0 4000.0 4000.0 4000.0 4000.0 4000.0 4000.0 4000.0 4000.0 4000.0 4000.0 4000.0 4000.0 4000.0 4000.0 4000.0 4000.0 4000.0 4000.0 4000.0 4000.0 4000.0 4000.0 4000.0 4000.0 4000.0 4000.0 4000.0 4000.0 4000.0 4000.0 4000.0 4000.0 4000.0 4000.0 4000.0 4000.0 4000.0 4000.0 4000.0 4000.0 4000.0 4000.0 4000.0 4000.0 4000.0 4000.0 4000.0 4000.0 4000.0 4000.0 4000.0 4000.0 4000.0 4000.0 4000.0 4000.0 4000.0 4000.0 4000.0 4000.0 4000.0 4000.0 4000.0 4000.0 4000.0 4000.0 4000.0 4000.0 4000.0 4000.0 4000.0 4000.0 4000.0 4000.0 4000.0 4000.0 4000.0 4000.0 4000.0 4000.0 4000.0 4000.0 4000.0 4000.0 4000.0 4000.0 4000.0 4000.0 4000.0 4000.0 4000.0 4000.0 4000.0 4000.0 4000.0 4000.0 4000.0 4000.0 4000.0 4000.0 4000.0 4000.0 4000.0 4000.0 4000.0 4000.0 4000.0 4000.0 4000.0 4000.0 4000.0 4000.0 4000.0 4000.0 4000.0 4000.0 4000.0 4000.0 4000.0 4000.0 4000.0 4000.0 4000.0 4000.0 4000.0 4000.0 4000.0 4000.0 4000.0 4000.0 4000.0 4000.0 4000.0 4000.0 4000.0 4000.0 4000.0 4000.0 4000.0 4000.0 4000.0 4000.0 4000.0 4000.0 4000.0 4000.0 4000.0 4000.0 4000.0 4000.0 4000.0 4000.0 4000.0 4000.0 4000.0 4000.0 4000.0 4000.0 4000.0 4000.0 4000.0 4000.0 4000.0 4000.0 4000.0 4000.0 4000.0 4000.0 4000.0 4000.0 4000.0 4000.0 4000.0 4000.0 4000.0 4000.0 4000.0 4000.0 4000.0 4000.0 4000.0 4000.0 4000.0 4000.0 4000.0 4000.0 4000.0 4000.0 4000.0 4000.0 4000.0 4000.0 4000.0 4000.0 4000.0 4000.0 4000.0 4000.0 4000.0 4000.0 4000.0 4000.0 4000.0 4000.0 4000.0 4000.0 4000.0 4000.0 4000.0 4000.0 4000.0 4000.0 4000.0 4000.0 4000.0 4000.0 4000.0 4000.0 4000.0 4000.0 4000.0 4000.0 4000.0 4000.0 4000.0 4000.0 4000.0 4000.0 4000.0 4000.0 4000.0 4000.0 4000.0 4000.0 4000.0 4000.0 4000.0 4000.0 4000.0 4000.0 4000.0 4000.0 4000.0 4000.0 4000.0 4000.0 4000.0 4000.0 4000.0 4000.0 4000.0 4000.0 4000.0 4000.0 4000.0 4000.0 4000.0 4000.0 4000.0 4000.0 4000.0 4000.0 4000.0 4000.0 4000.0 4000.0 4000.0 4000.0 4000.0 4000.0 4000.0 4000.0 4000.0 4000.0 4000.0 4000.0 4000.0 4000.0 4000.0 4000.0 4000.0 4000.0 4000.0 4000.0 4000.0 4000.0 4000.0 4000.0 4000.0 4000.0 4000.0 4000.0 4000.0 4000.0 4000.0 4000.0 4000.0 4000.0 4000.0 4000.0 4000.0 4000.0 4000.0 4000.0 4000.0 4000.0 4000.0 4000.0 4000.0 4000.0 4000.0 4000.0 4000.0 4000.0 4000.0 4000.0 4000.0 4000.0 4000.0 4000.0 4000.0 4000.0 4000.0 4000.0 4000.0 4000.0 4000.0 4000.0 4000.0 4000.0 4000.0 4000.0 4000.0 4000.0 4000.0 4000.0 4000.0 4000.0 4000.0 4000.0 4000.0 4000.0 4000.0 4000.0 4000.0 4000.0 4000.0 4000.0 4000.0 4000.0 4000.0 4000.0 4000.0 4000.0 4000.0 4000.0 4000.0 4000.0 4000.0 4000.0 4000.0 4000.0 4000.0 4000.0 4000.0 4000.0 4000.0 4000.0 4000.0 4000.0 4000.0 4000.0 4000.0 4000.0 4000.0 4000.0 4000.0 4000.0 4000.0 4000.0 4000.0 4000.0 4000.0 4000.0 4000.0 4000.0 4000.0 4000.0 4000.0 4000.0 4000.0 4000.0 4000.0 4000.0 4000.0 4000.0 4000.0 4000.0 4000.0 4000.0 4000.0 4000.0 4000.0 4000.0 4000.0 4000.0 4000.0 4000.0 4000.0 4000.0 4000.0 4000.0 4000.0 4000.0 4000.0 4000.0 4000.0 4000.0 4000.0 4000.0 4000.0 4000.0 4000.0 4000.0 4000.0 4000.0 4000.0 4000.0 4000.0 4000.0 4000.0 4000.0 4000.0 4000.0 4000.0 4000.0 4000.0 4000.0 4000.0 4000.0 4000.0 4000.0 4000.0 4000.0 4000.0 4000.0 4000.0 4000.0 4000.0 4000.0 4000.0 4000.0 4000.0 4000.0 4000.0 4000.0 4000.0 4000.0 4000.0 4000.0 4000.0 4000.0 4000.0 4000.0 4000.0 4000.0 4000.0 4000.0 4000.0 4000.0 4000.0 4000.0 4000.0 4000.0 4000.0 4000.0 4000.0 4000.0 4000.0 4000.0 4000.0 4000.0 4000.0 4000.0 4000.0 4000.0 4000.0 4000.0 4000.0 4000.0 4000.0 4000.0 4000.0 4000.0 4000.0 4000.0 4000.0 4000.0 4000.0 4000.0 4000.0 4000.0 4000.0 4000.0 4000.0 4000.0 4000.0 4000.0 4000.0 4000.0 4000.0 4000.0 4000.0 4000.0 4000.0 4000.0 4000.0 4000.0 4000.0 4000.0 4000.0 4000.0 4000.0 4000.0 4000.0 4000.0 4000.0 4000.0 4000.0 4000.0 4000.0 4000.0 4000.0 4000.0 4000.0 4000.0 4000.0 4000.0 4000.0 4000.0 4000.0 4000.0 4000.0 4000.0 4000.0 4000.0 4000.0 4000.0 4000.0 4000.0 4000.0 4000.0 4000.0 4000.0 4000.0 4000.0 4000.0 4000.0 4000.0 4000.0 4000.0 4000.0 4000.0 4000.0 4000.0 4000.0 4000.0 4000.0 4000.0 4000.0 4000.0 4000.0 4000.0 4000.0 4000.0 4000.0 4000.0 4000.0 4000.0 4000.0 4000.0 4000.0 4000.0 4000.0 4000.0 4000.0 4000.0 4000.0 4000.0 4000.0 4000.0 4000.0 4000.0 4000.0 4000.0 4000.0 4000.0 4000.0 4000.0 4000.0 4000.0 4000.0 4000.0 4000.0 4000.0 4000.0 4000.0 4000.0 4000.0 4000.0 4000.0 4000.0 4000.0 4000.0 4000.0 4000.0 4000.0 4000.0 4000.0 4000.0 4000.0 4000.0 4000.0 4000.0 4000.0 4000.0 4000.0 4000.0 4000.0 4000.0 4000.0 4000.0 4000.0 4000.0 4000.0 4000.0 4000.0 4000.0 4000.0 4000.0 4000.0 4000.0 4000.0 4000.0 4000.0 4000.0 4000.0 4000.0 4000.0 4000.0 4000.0 4000.0 4000.0 4000.0 4000.0 4000.0 4000.0 4000.0 4000.0 4000.0 4000.0 4000.0 4000.0 4000.0 4000.0 4000.0 4000.0 4000.0 4000.0 4000.0 4000.0 4000.0 4000.0 4000.0 4000.0 4000.0 4000.0 4000.0 4000.0 4000.0 4000.0 4000.0 4000.0 4000.0 4000.0 4000.0 4000.0 4000.0 4000.0 4000.0 4000.0 4000.0 4000.0 4000.0 4000.0 4000.0 4000.0 4000.0 4000.0 4000.0 4000.0 4000.0 4000.0 4000.0 4000.0 4000.0 4000.0 4000.0 4000.0 4000.0 4000.0 4000.0 4000.0 4000.0 4000.0 4000.0 4000.0 4000.0 4000.0 4000.0 4000.0 4000.0 4000.0 4000.0 4000.0 4000.0 4000.0 4000.0 4000.0 4000.0 4000.0 4000.0 4000.0 4000.0 4000.0 4000.0 4000.0 4000.0 4000.0 4000.0 4000.0 4000.0 4000.0 4000.0 4000.0 4000.0 4000.0 4000.0 4000.0 4000.0 4000.0 4000.0 4000.0 4000.0 4000.0 4000.0 4000.0 4000.0 4000.0 4000.0 4000.0 4000.0 4000.0 4000.0 4000.0 4000.0 4000.0 4000.0 4000.0 4000.0 4000.0 4000.0 4000.0 4000.0 4000.0 4000.0 4000.0 4000.0 4000.0 4000.0 4000.0 4000.0 4000.0 4000.0 4000.0 4000.0 4000.0 4000.0 4000.0 4000.0 4000.0 4000.0 4000.0 4000.0 4000.0 4000.0 4000.0 4000.0 4000.0 4000.0 4000.0 4000.0 4000.0 4000.0 4000.0 4000.0 4000.0 4000.0 4000.0 4000.0 4000.0 4000.0 4000.0 4000.0 4000.0 4000.0 4000.0 4000.0 4000.0 4000.0 4000.0 4000.0 4000.0 4000.0 4000.0 4000.0 4000.0 4000.0 4000.0 4000.0 4000.0 4000.0 4000.0 4000.0 4000.0 4000.0 4000.0 4000.0 4000.0 4000.0 4000.0 4000.0 4000.0 4000.0 4000.0 4000.0 4000.0 4000.0 4000.0 4000.0 4000.0 4000.0 4000.0 4000.0 4000.0 4000.0 4000.0 4000.0 4000.0 4000.0 4000.0 4000.0 4000.0 4000.0 4000.0 4000.0 4000.0 4000.0 4000.0 4000.0 4000.0 4000.0 4000.0 4000.0 4000.0 4000.0 4000.0 4000.0 4000.0 4000.0 4000.0 4000.0 4000.0 4000.0 4000.0 4000.0 4000.0 4000.0 4000.0 4000.0 4000.0 4000.0 4000.0 4000.0 4000.0 4000.0 4000.0 4000.0 4000.0 4000.0 4000.0 4000.0 4000.0 4000.0 4000.0 4000.0 4000.0 4000.0 4000.0 4000.0 4000.0 4000.0 4000.0 4000.0 4000.0 4000.0 4000.0 4000.0 4000.0 4000.0 4000.0 4000.0 4000.0 4000.0 4000.0 4000.0 4000.0 4000.0 4000.0 4000.0 4000.0 4000.0 4000.0 4000.0 4000.0 4000.0 4000.0 4000.0 4000.0 4000.0 4000.0 4000.0 4000.0 4000.0 4000.0 4000.0 4000.0 4000.0 4000.0 4000.0 4000.0 4000.0 4000.0 4000.0 4000.0 4000.0 4000.0 4000.0 4000.0 4000.0 4000.0 4000.0 4000.0 4000.0 4000.0 4000.0 4000.0 4000.0 4000.0 4000.0 4000.0 4000.0 4000.0 4000.0 4000.0 4000.0 4000.0 4000.0 4000.0 4000.0 4000.0 4000.0 4000.0 4000.0 4000.0 4000.0 4000.0 4000.0 4000.0 4000.0 4000.0 4000.0 4000.0 4000.0 4000.0 4000.0 4000.0 4000.0 4000.0 4000.0 4000.0 4000.0 4000.0 4000.0 4000.0 4000.0 4000.0 4000.0 4000.0 4000.0 4000.0 4000.0 4000.0 4000.0 4000.0 4000.0 4000.0 4000.0 4000.0 4000.0 4000.0 4000.0 4000.0 4000.0 4000.0 4000.0 4000.0 4000.0 4000.0 4000.0 4000.0 4000.0 4000.0 4000.0 4000.0 4000.0 4000.0 4000.0 4000.0 4000.0 4000.0 4000.0 4000.0 4000.0 4000.0 4000.0 4000.0 4000.0 4000.0 4000.0 4000.0 4000.0 4000.0 4000.0 4000.0 4000.0 4000.0 4000.0 4000.0 4000.0 4000.0 4000.0 4000.0 4000.0 4000.0 4000.0 4000.0 4000.0 4000.0 4000.0 4000.0 4000.0 4000.0 4000.0 4000.0 4000.0 4000.0 4000.0 4000.0 4000.0 4000.0 4000.0 4000.0 4000.0 4000.0 4000.0 4000.0 4000.0 4000.0 4000.0 4000.0 4000.0 4000.0 4000.0 4000.0 4000.0 4000.0 4000.0 4000.0 4000.0 4000.0 4000.0 4000.0 4000.0 4000.0 4000.0 4000.0 4000.0 4000.0 4000.0 4000.0 4000.0 4000.0 4000.0 4000.0 4000.0 4000.0 4000.0 4000.0 4000.0 4000.0 4000.0 4000.0 4000.0 4000.0 4000.0 4000.0 4000.0 4000.0 4000.0 4000.0 4000.0 4000.0 4000.0 4000.0 4000.0 4000.0 4000.0 4000.0 4000.0 4000.0 4000.0 4000.0 4000.0 4000.0 4000.0 4000.0 4000.0 4000.0 4000.0 4000.0 4000.0 4000.0 4000.0 4000.0 4000.0 4000.0 4000.0 4000.0 4000.0 4000.0 4000.0 4000.0 4000.0 4000.0 4000.0 4000.0 4000.0 4000.0 4000.0 4000.0 4000.0 4000.0 4000.0 4000.0 4000.0 4000.0 4000.0 4000.0 4000.0 4000.0 4000.0 4000.0 4000.0 4000.0 4000.0 4000.0 4000.0 4000.0 4000.0 4000.0 4000.0 4000.0 4000.0 4000.0 4000.0 4000.0 4000.0 4000.0 4000.0 4000.0 4000.0 4000.0 4000.0 4000.0 4000.0 4000.0 4000.0 4000.0 4000.0 4000.0 4000.0 4000.0 4000.0 4000.0 4000.0 4000.0 4000.0 4000.0 4000.0 4000.0 4000.0 4000.0 4000.0 4000.0 4000.0 4000.0 4000.0 4000.0 4000.0 4000.0 4000.0 4000.0 4000.0 4000.0 4000.0 4000.0 4000.0 4000.0 4000.0 4000.0 4000.0 4000.0 4000.0 4000.0 4000.0 4000.0 4000.0 4000.0 4000.0 4000.0 4000.0 4000.0 4000.0 4000.0 4000.0 4000.0 4000.0 4000.0 4000.0 4000.0 4000.0 4000.0 4000.0 4000.0 4000.0 4000.0 4000.0 4000.0 4000.0 4000.0 4000.0 4000.0 4000.0 4000.0 4000.0 4000.0 4000.0 4000.0 4000.0 4000.0 4000.0 4000.0 4000.0 4000.0 4000.0 4000.0 4000.0 4000.0 4000.0 4000.0 4000.0 4000.0 4000.0 4000.0 4000.0 4000.0 4000.0 4000.0 4000.0 4000.0 4000.0 4000.0 4000.0 4000.0 4000.0 4000.0 4000.0 4000.0 4000.0 4000.0 4000.0 4000.0 4000.0 4000.0 4000.0 4000.0 4000.0 4000.0 4000.0 4000.0 4000.0 4000.0 4000.0 4000.0 4000.0 4000.0 4000.0 4000.0 4000.0 4000.0 4000.0 4000.0 4000.0 4000.0 4000.0 4000.0 4000.0 4000.0 4000.0 4000.0 4000.0 4000.0 4000.0 4000.0 4000.0 4000.0 4000.0 4000.0 4000.0 4000.0 4000.0 4000.0 4000.0 4000.0 4000.0 4000.0 4000.0 4000.0 4000.0 4000.0 4000.0 4000.0 4000.0 4000.0 4000.0 4000.0 4000.0 4000.0 4000.0 4000.0 4000.0 4000.0 4000.0 4000.0 4000.0 4000.0 4000.0 4000.0 4000.0 4000.0 4000.0 4000.0 4000.0 4000.0 4000.0 4000.0 4000.0 4000.0 4000.0 4000.0 4000.0 4000.0 4000.0 4000.0 4000.0 4000.0 4000.0 4000.0 4000.0 4000.0 4000.0 4000.0 4000.0 4000.0 4000.0 4000.0 4000.0 4000.0 4000.0 4000.0 4000.0 4000.0 4000.0 4000.0 4000.0 4000.0 4000.0 4000.0 4000.0 4000.0 4000.0 4000.0 4000.0 4000.0 4000.0 4000.0 4000.0 4000.0 4000.0 4000.0 4000.0 4000.0 4000.0 4000.0 4000.0 4000.0 4000.0 4000.0 4000.0 4000.0 4000.0 4000.0 4000.0 4000.0 4000.0 4000.0 4000.0 4000.0 4000.0 4000.0 4000.0 4000.0 4000.0 4000.0 4000.0 4000.0 4000.0 4000.0 4000.0 4000.0 4000.0 4000.0 4000.0 4000.0 4000.0 4000.0 4000.0 4000.0 4000.0 4000.0 4000.0 4000.0 4000.0 4000.0 4000.0 4000.0 4000.0 4000.0 4000.0 4000.0 4000.0 4000.0 4000.0 4000.0 4000.0 4000.0 4000.0 4000.0 4000.0 4000.0 4000.0 4000.0 4000.0 4000.0 4000.0 4000.0 4000.0 4000.0 4000.0 4000.0 4000.0 4000.0 4000.0 4000.0 4000.0 4000.0 4000.0 4000.0 4000.0 4000.0 4000.0 4000.0 4000.0 4000.0 4000.0 4000.0 4000.0 4000.0 4000.0 4000.0 4000.0 4000.0 4000.0 4000.0 4000.0 4000.0 4000.0 4000.0 4000.0 4000.0 4000.0 4000.0 4000.0 4000.0 4000.0 4000.0 4000.0 4000.0 4000.0 4000.0 4000.0 4000.0 4000.0 4000.0 4000.0 4000.0 4000.0 4000.0 4000.0 4000.0 4000.0 4000.0 4000.0 4000.0 4000.0 4000.0 4000.0 4000.0 4000.0 4000.0 4000.0 4000.0 4000.0 4000.0 4000.0 4000.0 4000.0 4000.0 4000.0 4000.0 4000.0 4000.0 4000.0 4000.0 4000.0 4000.0 4000.0 4000.0 4000.0 4000.0 4000.0 4000.0 4000.0 4000.0 4000.0 4000.0 4000.0 4000.0 4000.0 4000.0 4000.0 4000.0 4000.0 4000.0 4000.0 4000.0 4000.0 4000.0 4000.0 4000.0 4000.0 4000.0 4000.0 4000.0 4000.0 4000.0 4000.0 4000.0 4000.0 4000.0 4000.0 4000.0 4000.0 4000.0 4000.0 4000.0 4000.0 4000.0 4000.0 4000.0 4000.0 4000.0 4000.0 4000.0 4000.0 4000.0 4000.0 4000.0 4000.0 4000.0 4000.0 4000.0 4000.0 4000.0 4000.0 4000.0 4000.0 4000.0 4000.0 4000.0 4000.0 4000.0 4000.0 4000.0 4000.0 4000.0 4000.0 4000.0 4000.0 4000.0 4000.0 4000.0 4000.0 4000.0 4000.0 4000.0 4000.0 4000.0 4000.0 4000.0 4000.0 4000.0 4000.0 4000.0 4000.0 4000.0 4000.0 4000.0 4000.0 4000.0 4000.0 4000.0 4000.0 4000.0 4000.0 4000.0 4000.0 4000.0 4000.0 4000.0 4000.0 4000.0 4000.0 4000.0 4000.0 4000.0 4000.0 4000.0 4000.0 4000.0 4000.0 4000.0 4000.0 4000.0 4000.0 4000.0 4000.0 4000.0 4000.0 4000.0 4000.0 4000.0 4000.0 4000.0 4000.0 4000.0 4000.0 4000.0 4000.0 4000.0 4000.0 4000.0 4000.0 4000.0 4000.0 4000.0 4000.0 4000.0 4000.0 4000.0 4000.0 4000.0 4000.0 4000.0 4000.0 4000.0 4000.0 4000.0 4000.0 4000.0 4000.0 4000.0 4000.0 4000.0 4000.0 4000.0 4000.0 4000.0 4000.0 4000.0 4000.0 4000.0 4000.0 4000.0 4000.0 4000.0 4000.0 4000.0 4000.0 4000.0 4000.0 4000.0 4000.0 4000.0 4000.0 4000.0 4000.0 4000.0 4000.0 4000.0 4000.0 4000.0 4000.0 4000.0 4000.0 4000.0 4000.0 4000.0 4000.0 4000.0 4000.0 4000.0 4000.0 4000.0 4000.0 4000.0 4000.0 4000.0 4000.0 4000.0 4000.0 4000.0 4000.0 4000.0 4000.0 4000.0 4000.0 4000.0 4000.0 4000.0 4000.0 4000.0 4000.0 4000.0 4000.0 4000.0 4000.0 4000.0 4000.0 4000.0 4000.0 4000.0 4000.0 4000.0 4000.0 4000.0 4000.0 4000.0 4000.0 4000.0 4000.0 4000.0 4000.0 4000.0 4000.0 4000.0 4000.0 4000.0 4000.0 4000.0 4000.0 4000.0 4000.0 4000.0 4000.0 4000.0 4000.0 4000.0 4000.0 4000.0 4000.0 4000.0 4000.0 4000.0 4000.0 4000.0 4000.0 4000.0 4000.0 4000.0 4000.0 4000.0 4000.0 4000.0 4000.0 4000.0 4000.0 4000.0 4000.0 4000.0 4000.0 4000.0 4000.0 4000.0 4000.0 4000.0 4000.0 4000.0 4000.0 4000.0 4000.0 4000.0 4000.0 4000.0 4000.0 4000.0 4000.0 4000.0 4000.0 4000.0 4000.0 4000.0 4000.0 4000.0 4000.0 4000.0 4000.0 4000.0 4000.0 4000.0 4000.0 4000.0 4000.0 4000.0 4000.0 4000.0 4000.0 4000.0 4000.0 4000.0 4000.0 4000.0 4000.0 4000.0 4000.0 4000.0 4000.0 4000.0 4000.0 4000.0 4000.0 4000.0 4000.0 4000.0 4000.0 4000.0 4000.0 4000.0 4000.0 4000.0 4000.0 4000.0 4000.0 4000.0 4000.0 4000.0 4000.0 4000.0 4000.0 4000.0 4000.0 4000.0 4000.0 4000.0 4000.0 4000.0 4000.0 4000.0 4000.0 4000.0 4000.0 4000.0 4000.0 4000.0 4000.0 4000.0 4000.0 4000.0 4000.0 4000.0 4000.0 4000.0 4000.0 4000.0 4000.0 4000.0 4000.0 4000.0 4000.0 4000.0 4000.0 4000.0 4000.0 4000.0 4000.0 4000.0 4000.0 4000.0 4000.0 4000.0 4000.0 4000.0 4000.0 4000.0 4000.0 4000.0 4000.0 4000.0 4000.0 4000.0 4000.0 4000.0 4000.0 4000.0 4000.0 4000.0 4000.0 4000.0 4000.0 4000.0 4000.0 4000.0 4000.0 4000.0 4000.0 4000.0 4000.0 4000.0 4000.0 4000.0 4000.0 4000.0 4000.0 4000.0 4000.0 4000.0 4000.0 4000.0 4000.0 4000.0 4000.0 4000.0 4000.0 4000.0 4000.0 4000.0 4000.0 4000.0 4000.0 4000.0 4000.0 4000.0 4000.0 4000.0 4000.0 4000.0 4000.0 4000.0 4000.0 4000.0 4000.0 4000.0 4000.0 4000.0 4000.0 4000.0 4000.0 4000.0 4000.0 4000.0 4000.0 4000.0 4000.0 4000.0 4000.0 4000.0 4000.0 4000.0 4000.0 4000.0 4000.0 4000.0 4000.0 4000.0 4000.0 4000.0 4000.0 4000.0 4000.0 4000.0 4000.0 4000.0 4000.0 4000.0 4000.0 4000.0 4000.0 4000.0 4000.0 4000.0 4000.0 4000.0 4000.0 4000.0 4000.0 4000.0 4000.0 4000.0 4000.0 4000.0 4000.0 4000.0 4000.0 4000.0 4000.0 4000.0 4000.0 4000.0 4000.0 4000.0 4000.0 4000.0 4000.0 4000.0 4000.0 4000.0 4000.0 4000.0 4000.0 4000.0 4000.0 4000.0 4000.0 4000.0 4000.0 4000.0 4000.0 4000.0 4000.0 4000.0 4000.0 4000.0 4000.0 4000.0 4000.0 4000.0 4000.0 4000.0 4000.0 4000.0 4000.0 4000.0 4000.0 4000.0 4000.0 4000.0 4000.0 4000.0 4000.0 4000.0 4000.0 4000.0 4000.0 4000.0 4000.0 4000.0 4000.0 4000.0 4000.0 4000.0 4000.0 4000.0 4000.0 4000.0 4000.0 4000.0 4000.0 4000.0 4000.0 4000.0 4000.0 4000.0 4000.0 4000.0 4000.0 4000.0 4000.0 4000.0 4000.0 4000.0 4000.0 4000.0 4000.0 4000.0 4000.0 4000.0 4000.0 4000.0 4000.0 4000.0 4000.0 4000.0 4000.0 4000.0 4000.0 4000.0 4000.0 4000.0 4000.0 4000.0 4000.0 4000.0 4000.0 4000.0 4000.0 4000.0 4000.0 4000.0 4000.0 4000.0 4000.0 4000.0 4000.0 4000.0 4000.0 4000.0 4000.0 4000.0 4000.0 4000.0 4000.0 4000.0 4000.0 4000.0 4000.0 4000.0 4000.0 4000.0 4000.0 4000.0 4000.0 4000.0 4000.0 4000.0 4000.0 4000.0 4000.0 4000.0 4000.0 4000.0 4000.0 4000.0 4000.0 4000.0 4000.0 4000.0 4000.0 4000.0 4000.0 4000.0 4000.0 4000.0 4000.0 4000.0 4000.0 4000.0 4000.0 4000.0 4000.0 4000.0 4000.0 4000.0 4000.0 4000.0 4000.0 4000.0 4000.0 4000.0 4000.0 4000.0 4000.0 4000.0 4000.0 4000.0 4000.0 4000.0 4000.0 4000.0 4000.0 4000.0 4000.0 4000.0 4000.0 4000.0 4000.0 4000.0 4000.0 4000.0 4000.0 4000.0 4000.0 4000.0 4000.0 4000.0 4000.0 4000.0 4000.0 4000.0 4000.0 4000.0 4000.0 4000.0 4000.0 4000.0 4000.0 4000.0 4000.0 4000.0 4000.0 4000.0 4000.0 4000.0 4000.0 4000.0 4000.0 4000.0 4000.0 4000.0 4000.0 4000.0 4000.0 4000.0 4000.0 4000.0 4000.0 4000.0 4000.0 4000.0 4000.0 4000.0 4000.0 4000.0 4000.0 4000.0 4000.0 4000.0 4000.0 4000.0 4000.0 4000.0 4000.0 4000.0 4000.0 4000.0 4000.0 4000.0 4000.0 4000.0 4000.0 4000.0 4000.0 4000.0 4000.0 4000.0 4000.0 4000.0 4000.0 4000.0 4000.0 4000.0 4000.0 4000.0 4000.0 4000.0 4000.0 4000.0 4000.0 4000.0 4000.0 4000.0 4000.0 4000.0 4000.0 4000.0 4000.0 4000.0 4000.0 4000.0 4000.0 4000.0 4000.0 4000.0 4000.0 4000.0 4000.0 4000.0 4000.0 4000.0 4000.0 4000.0 4000.0 4000.0 4000.0 4000.0 4000.0 4000.0 4000.0 4000.0 4000.0 4000.0 4000.0 4000.0 4000.0 4000.0 4000.0 4000.0 4000.0 4000.0 4000.0 4000.0 4000.0 4000.0 4000.0 4000.0 4000.0 4000.0 4000.0 4000.0 4000.0 4000.0 4000.0 4000.0 4000.0 4000.0 4000.0 4000.0 4000.0 4000.0 4000.0 4000.0 4000.0 4000.0 4000.0 4000.0 4000.0 4000.0 4000.0 4000.0 4000.0 4000.0 4000.0 4000.0 4000.0 4000.0 4000.0 4000.0 4000.0 4000.0 4000.0 4000.0 4000.0 4000.0 4000.0 4000.0 4000.0 4000.0 4000.0 4000.0 4000.0 4000.0 4000.0 4000.0 4000.0 4000.0 4000.0 4000.0 4000.0 4000.0 4000.0 4000.0 4000.0 4000.0 4000.0 4000.0 4000.0 4000.0 4000.0 4000.0 4000.0 4000.0 4000.0 4000.0 4000.0 4000.0 4000.0 4000.0 4000.0 4000.0 4000.0 4000.0 4000.0 4000.0 4000.0 4000.0 4000.0 4000.0 4000.0 4000.0 4000.0 4000.0 4000.0 4000.0 4000.0 4000.0 4000.0 4000.0 4000.0 4000.0 4000.0 4000.0 4000.0 4000.0 4000.0 4000.0 4000.0 4000.0 4000.0 4000.0 4000.0 4000.0 4000.0 4000.0 4000.0 4000.0 4000.0 4000.0 4000.0 4000.0 4000.0 4000.0 4000.0 4000.0 4000.0 4000.0 4000.0 4000.0 4000.0 4000.0 SCALARS Mass float 1
LOOKUP_TABLE default
11309700000.0 11309700000.0 11309700000.0 11309700000.0 11309700000.0 11309700000.0 11309700000.0 11309700000.0 11309700000.0 11309700000.0 11309700000.0 11309700000.0 11309700000.0 11309700000.0 11309700000.0 11309700000.0 11309700000.0 11309700000.0 11309700000.0 11309700000.0 11309700000.0 11309700000.0 11309700000.0 11309700000.0 11309700000.0 11309700000.0 11309700000.0 11309700000.0 11309700000.0 11309700000.0 11309700000.0 11309700000.0 11309700000.0 11309700000.0 11309700000.0 11309700000.0 11309700000.0 11309700000.0 11309700000.0 11309700000.0 11309700000.0 11309700000.0 11309700000.0 11309700000.0 11309700000.0 11309700000.0 11309700000.0 11309700000.0 11309700000.0 11309700000.0 11309700000.0 11309700000.0 11309700000.0 11309700000.0 11309700000.0 11309700000.0 11309700000.0 11309700000.0 11309700000.0 11309700000.0 11309700000.0 11309700000.0 11309700000.0 11309700000.0 11309700000.0 11309700000.0 11309700000.0 11309700000.0 11309700000.0 11309700000.0 11309700000.0 11309700000.0 11309700000.0 11309700000.0 11309700000.0 11309700000.0 11309700000.0 11309700000.0 11309700000.0 11309700000.0 11309700000.0 11309700000.0 11309700000.0 11309700000.0 11309700000.0 11309700000.0 11309700000.0 11309700000.0 11309700000.0 11309700000.0 11309700000.0 11309700000.0 11309700000.0 11309700000.0 11309700000.0 11309700000.0 11309700000.0 11309700000.0 11309700000.0 11309700000.0 11309700000.0 11309700000.0 11309700000.0 11309700000.0 11309700000.0 11309700000.0 11309700000.0 11309700000.0 11309700000.0 11309700000.0 11309700000.0 11309700000.0 11309700000.0 11309700000.0 11309700000.0 11309700000.0 11309700000.0 11309700000.0 11309700000.0 11309700000.0 11309700000.0 11309700000.0 11309700000.0 11309700000.0 11309700000.0 11309700000.0 11309700000.0 11309700000.0 11309700000.0 11309700000.0 11309700000.0 11309700000.0 11309700000.0 11309700000.0 11309700000.0 11309700000.0 11309700000.0 11309700000.0 11309700000.0 11309700000.0 11309700000.0 11309700000.0 11309700000.0 11309700000.0 11309700000.0 11309700000.0 11309700000.0 11309700000.0 11309700000.0 11309700000.0 11309700000.0 11309700000.0 11309700000.0 11309700000.0 11309700000.0 11309700000.0 11309700000.0 11309700000.0 11309700000.0 11309700000.0 11309700000.0 11309700000.0 11309700000.0 11309700000.0 11309700000.0 11309700000.0 11309700000.0 11309700000.0 11309700000.0 11309700000.0 11309700000.0 11309700000.0 11309700000.0 11309700000.0 11309700000.0 11309700000.0 11309700000.0 11309700000.0 11309700000.0 11309700000.0 11309700000.0 11309700000.0 11309700000.0 11309700000.0 11309700000.0 11309700000.0 11309700000.0 11309700000.0 11309700000.0 11309700000.0 11309700000.0 11309700000.0 11309700000.0 11309700000.0 11309700000.0 11309700000.0 11309700000.0 11309700000.0 11309700000.0 11309700000.0 11309700000.0 11309700000.0 11309700000.0 11309700000.0 11309700000.0 11309700000.0 11309700000.0 11309700000.0 11309700000.0 11309700000.0 11309700000.0 11309700000.0 11309700000.0 11309700000.0 11309700000.0 11309700000.0 11309700000.0 11309700000.0 11309700000.0 11309700000.0 11309700000.0 11309700000.0 11309700000.0 11309700000.0 11309700000.0 11309700000.0 11309700000.0 11309700000.0 11309700000.0 11309700000.0 11309700000.0 11309700000.0 11309700000.0 11309700000.0 11309700000.0 11309700000.0 11309700000.0 11309700000.0 11309700000.0 11309700000.0 11309700000.0 11309700000.0 11309700000.0 11309700000.0 11309700000.0 11309700000.0 11309700000.0 11309700000.0 11309700000.0 11309700000.0 11309700000.0 11309700000.0 11309700000.0 11309700000.0 11309700000.0 11309700000.0 11309700000.0 11309700000.0 11309700000.0 11309700000.0 11309700000.0 11309700000.0 11309700000.0 11309700000.0 11309700000.0 11309700000.0 11309700000.0 11309700000.0 11309700000.0 11309700000.0 11309700000.0 11309700000.0 11309700000.0 11309700000.0 11309700000.0 11309700000.0 11309700000.0 11309700000.0 11309700000.0 11309700000.0 11309700000.0 11309700000.0 11309700000.0 11309700000.0 11309700000.0 11309700000.0 11309700000.0 11309700000.0 11309700000.0 11309700000.0 11309700000.0 11309700000.0 11309700000.0 11309700000.0 11309700000.0 11309700000.0 11309700000.0 11309700000.0 11309700000.0 11309700000.0 11309700000.0 11309700000.0 11309700000.0 11309700000.0 11309700000.0 11309700000.0 11309700000.0 11309700000.0 11309700000.0 11309700000.0 11309700000.0 11309700000.0 11309700000.0 11309700000.0 11309700000.0 11309700000.0 11309700000.0 11309700000.0 11309700000.0 11309700000.0 11309700000.0 11309700000.0 11309700000.0 11309700000.0 11309700000.0 11309700000.0 11309700000.0 11309700000.0 11309700000.0 11309700000.0 11309700000.0 11309700000.0 11309700000.0 11309700000.0 11309700000.0 11309700000.0 11309700000.0 11309700000.0 11309700000.0 11309700000.0 11309700000.0 11309700000.0 11309700000.0 11309700000.0 11309700000.0 11309700000.0 11309700000.0 11309700000.0 11309700000.0 11309700000.0 11309700000.0 11309700000.0 11309700000.0 11309700000.0 11309700000.0 11309700000.0 11309700000.0 11309700000.0 11309700000.0 11309700000.0 11309700000.0 11309700000.0 11309700000.0 11309700000.0 11309700000.0 11309700000.0 11309700000.0 11309700000.0 11309700000.0 11309700000.0 11309700000.0 11309700000.0 11309700000.0 11309700000.0 11309700000.0 11309700000.0 11309700000.0 11309700000.0 11309700000.0 11309700000.0 11309700000.0 11309700000.0 11309700000.0 11309700000.0 11309700000.0 11309700000.0 11309700000.0 11309700000.0 11309700000.0 11309700000.0 11309700000.0 11309700000.0 11309700000.0 11309700000.0 11309700000.0 11309700000.0 11309700000.0 11309700000.0 11309700000.0 11309700000.0 11309700000.0 11309700000.0 11309700000.0 11309700000.0 11309700000.0 11309700000.0 11309700000.0 11309700000.0 11309700000.0 11309700000.0 11309700000.0 11309700000.0 11309700000.0 11309700000.0 11309700000.0 11309700000.0 11309700000.0 11309700000.0 11309700000.0 11309700000.0 11309700000.0 11309700000.0 11309700000.0 11309700000.0 11309700000.0 11309700000.0 11309700000.0 11309700000.0 11309700000.0 11309700000.0 11309700000.0 11309700000.0 11309700000.0 11309700000.0 11309700000.0 11309700000.0 11309700000.0 11309700000.0 11309700000.0 11309700000.0 11309700000.0 11309700000.0 11309700000.0 11309700000.0 11309700000.0 11309700000.0 11309700000.0 11309700000.0 11309700000.0 11309700000.0 11309700000.0 11309700000.0 11309700000.0 11309700000.0 11309700000.0 11309700000.0 11309700000.0 11309700000.0 11309700000.0 11309700000.0 11309700000.0 11309700000.0 11309700000.0 11309700000.0 11309700000.0 11309700000.0 11309700000.0 11309700000.0 11309700000.0 11309700000.0 11309700000.0 11309700000.0 11309700000.0 11309700000.0 11309700000.0 11309700000.0 11309700000.0 11309700000.0 11309700000.0 11309700000.0 11309700000.0 11309700000.0 11309700000.0 11309700000.0 11309700000.0 11309700000.0 11309700000.0 11309700000.0 11309700000.0 11309700000.0 11309700000.0 11309700000.0 11309700000.0 11309700000.0 11309700000.0 11309700000.0 11309700000.0 11309700000.0 11309700000.0 11309700000.0 11309700000.0 11309700000.0 11309700000.0 11309700000.0 11309700000.0 11309700000.0 11309700000.0 11309700000.0 11309700000.0 11309700000.0 11309700000.0 11309700000.0 11309700000.0 11309700000.0 11309700000.0 11309700000.0 11309700000.0 11309700000.0 11309700000.0 11309700000.0 11309700000.0 11309700000.0 11309700000.0 11309700000.0 11309700000.0 11309700000.0 11309700000.0 11309700000.0 11309700000.0 11309700000.0 11309700000.0 11309700000.0 11309700000.0 11309700000.0 11309700000.0 11309700000.0 11309700000.0 11309700000.0 11309700000.0 11309700000.0 11309700000.0 11309700000.0 11309700000.0 11309700000.0 11309700000.0 11309700000.0 11309700000.0 11309700000.0 11309700000.0 11309700000.0 11309700000.0 11309700000.0 11309700000.0 11309700000.0 11309700000.0 11309700000.0 11309700000.0 11309700000.0 11309700000.0 11309700000.0 11309700000.0 11309700000.0 11309700000.0 11309700000.0 11309700000.0 11309700000.0 11309700000.0 11309700000.0 11309700000.0 11309700000.0 11309700000.0 11309700000.0 11309700000.0 11309700000.0 11309700000.0 11309700000.0 11309700000.0 11309700000.0 11309700000.0 11309700000.0 11309700000.0 11309700000.0 11309700000.0 11309700000.0 11309700000.0 11309700000.0 11309700000.0 11309700000.0 11309700000.0 11309700000.0 11309700000.0 11309700000.0 11309700000.0 11309700000.0 11309700000.0 11309700000.0 11309700000.0 11309700000.0 11309700000.0 11309700000.0 11309700000.0 11309700000.0 11309700000.0 11309700000.0 11309700000.0 11309700000.0 11309700000.0 11309700000.0 11309700000.0 11309700000.0 11309700000.0 11309700000.0 11309700000.0 11309700000.0 11309700000.0 11309700000.0 11309700000.0 11309700000.0 11309700000.0 11309700000.0 11309700000.0 11309700000.0 11309700000.0 11309700000.0 11309700000.0 11309700000.0 11309700000.0 11309700000.0 11309700000.0 11309700000.0 11309700000.0 11309700000.0 11309700000.0 11309700000.0 11309700000.0 11309700000.0 11309700000.0 11309700000.0 11309700000.0 11309700000.0 11309700000.0 11309700000.0 11309700000.0 11309700000.0 11309700000.0 11309700000.0 11309700000.0 11309700000.0 11309700000.0 11309700000.0 11309700000.0 11309700000.0 11309700000.0 11309700000.0 11309700000.0 11309700000.0 11309700000.0 11309700000.0 11309700000.0 11309700000.0 11309700000.0 11309700000.0 11309700000.0 11309700000.0 11309700000.0 11309700000.0 11309700000.0 11309700000.0 11309700000.0 11309700000.0 11309700000.0 11309700000.0 11309700000.0 11309700000.0 11309700000.0 11309700000.0 11309700000.0 11309700000.0 11309700000.0 11309700000.0 11309700000.0 11309700000.0 11309700000.0 11309700000.0 11309700000.0 11309700000.0 11309700000.0 11309700000.0 11309700000.0 11309700000.0 11309700000.0 11309700000.0 11309700000.0 11309700000.0 11309700000.0 11309700000.0 11309700000.0 11309700000.0 11309700000.0 11309700000.0 11309700000.0 11309700000.0 11309700000.0 11309700000.0 11309700000.0 11309700000.0 11309700000.0 11309700000.0 11309700000.0 11309700000.0 11309700000.0 11309700000.0 11309700000.0 11309700000.0 11309700000.0 11309700000.0 11309700000.0 11309700000.0 11309700000.0 11309700000.0 11309700000.0 11309700000.0 11309700000.0 11309700000.0 11309700000.0 11309700000.0 11309700000.0 11309700000.0 11309700000.0 11309700000.0 11309700000.0 11309700000.0 11309700000.0 11309700000.0 11309700000.0 11309700000.0 11309700000.0 11309700000.0 11309700000.0 11309700000.0 11309700000.0 11309700000.0 11309700000.0 11309700000.0 11309700000.0 11309700000.0 11309700000.0 11309700000.0 11309700000.0 11309700000.0 11309700000.0 11309700000.0 11309700000.0 11309700000.0 11309700000.0 11309700000.0 11309700000.0 11309700000.0 11309700000.0 11309700000.0 11309700000.0 11309700000.0 11309700000.0 11309700000.0 11309700000.0 11309700000.0 11309700000.0 11309700000.0 11309700000.0 11309700000.0 11309700000.0 11309700000.0 11309700000.0 11309700000.0 11309700000.0 11309700000.0 11309700000.0 11309700000.0 11309700000.0 11309700000.0 11309700000.0 11309700000.0 11309700000.0 11309700000.0 11309700000.0 11309700000.0 11309700000.0 11309700000.0 11309700000.0 11309700000.0 11309700000.0 11309700000.0 11309700000.0 11309700000.0 11309700000.0 11309700000.0 11309700000.0 11309700000.0 11309700000.0 11309700000.0 11309700000.0 11309700000.0 11309700000.0 11309700000.0 11309700000.0 11309700000.0 11309700000.0 11309700000.0 11309700000.0 11309700000.0 11309700000.0 11309700000.0 11309700000.0 11309700000.0 11309700000.0 11309700000.0 11309700000.0 11309700000.0 11309700000.0 11309700000.0 11309700000.0 11309700000.0 11309700000.0 11309700000.0 11309700000.0 11309700000.0 11309700000.0 11309700000.0 11309700000.0 11309700000.0 11309700000.0 11309700000.0 11309700000.0 11309700000.0 11309700000.0 11309700000.0 11309700000.0 11309700000.0 11309700000.0 11309700000.0 11309700000.0 11309700000.0 11309700000.0 11309700000.0 11309700000.0 11309700000.0 11309700000.0 11309700000.0 11309700000.0 11309700000.0 11309700000.0 11309700000.0 11309700000.0 11309700000.0 11309700000.0 11309700000.0 11309700000.0 11309700000.0 11309700000.0 11309700000.0 11309700000.0 11309700000.0 11309700000.0 11309700000.0 11309700000.0 11309700000.0 11309700000.0 11309700000.0 11309700000.0 11309700000.0 11309700000.0 11309700000.0 11309700000.0 11309700000.0 11309700000.0 11309700000.0 11309700000.0 11309700000.0 11309700000.0 11309700000.0 11309700000.0 11309700000.0 11309700000.0 11309700000.0 11309700000.0 11309700000.0 11309700000.0 11309700000.0 11309700000.0 11309700000.0 11309700000.0 11309700000.0 11309700000.0 11309700000.0 11309700000.0 11309700000.0 11309700000.0 11309700000.0 11309700000.0 11309700000.0 11309700000.0 11309700000.0 11309700000.0 11309700000.0 11309700000.0 11309700000.0 11309700000.0 11309700000.0 11309700000.0 11309700000.0 11309700000.0 11309700000.0 11309700000.0 11309700000.0 11309700000.0 11309700000.0 11309700000.0 11309700000.0 11309700000.0 11309700000.0 11309700000.0 11309700000.0 11309700000.0 11309700000.0 11309700000.0 11309700000.0 11309700000.0 11309700000.0 11309700000.0 11309700000.0 11309700000.0 11309700000.0 11309700000.0 11309700000.0 11309700000.0 11309700000.0 11309700000.0 11309700000.0 11309700000.0 11309700000.0 11309700000.0 11309700000.0 11309700000.0 11309700000.0 11309700000.0 11309700000.0 11309700000.0 11309700000.0 11309700000.0 11309700000.0 11309700000.0 11309700000.0 11309700000.0 11309700000.0 11309700000.0 11309700000.0 11309700000.0 11309700000.0 11309700000.0 11309700000.0 11309700000.0 11309700000.0 11309700000.0 11309700000.0 11309700000.0 11309700000.0 11309700000.0 11309700000.0 11309700000.0 11309700000.0 11309700000.0 11309700000.0 11309700000.0 11309700000.0 11309700000.0 11309700000.0 11309700000.0 11309700000.0 11309700000.0 11309700000.0 11309700000.0 11309700000.0 11309700000.0 11309700000.0 11309700000.0 11309700000.0 11309700000.0 11309700000.0 11309700000.0 11309700000.0 11309700000.0 11309700000.0 11309700000.0 11309700000.0 11309700000.0 11309700000.0 11309700000.0 11309700000.0 11309700000.0 11309700000.0 11309700000.0 11309700000.0 11309700000.0 11309700000.0 11309700000.0 11309700000.0 11309700000.0 11309700000.0 11309700000.0 11309700000.0 11309700000.0 11309700000.0 11309700000.0 11309700000.0 11309700000.0 11309700000.0 11309700000.0 11309700000.0 11309700000.0 11309700000.0 11309700000.0 11309700000.0 11309700000.0 11309700000.0 11309700000.0 11309700000.0 11309700000.0 11309700000.0 11309700000.0 11309700000.0 11309700000.0 11309700000.0 11309700000.0 11309700000.0 11309700000.0 11309700000.0 11309700000.0 11309700000.0 11309700000.0 11309700000.0 11309700000.0 11309700000.0 11309700000.0 11309700000.0 11309700000.0 11309700000.0 11309700000.0 11309700000.0 11309700000.0 11309700000.0 11309700000.0 11309700000.0 11309700000.0 11309700000.0 11309700000.0 11309700000.0 11309700000.0 11309700000.0 11309700000.0 11309700000.0 11309700000.0 11309700000.0 11309700000.0 11309700000.0 11309700000.0 11309700000.0 11309700000.0 11309700000.0 11309700000.0 11309700000.0 11309700000.0 11309700000.0 11309700000.0 11309700000.0 11309700000.0 11309700000.0 11309700000.0 11309700000.0 11309700000.0 11309700000.0 11309700000.0 11309700000.0 11309700000.0 11309700000.0 11309700000.0 11309700000.0 11309700000.0 11309700000.0 11309700000.0 11309700000.0 11309700000.0 11309700000.0 11309700000.0 11309700000.0 11309700000.0 11309700000.0 11309700000.0 11309700000.0 11309700000.0 11309700000.0 11309700000.0 11309700000.0 11309700000.0 11309700000.0 11309700000.0 11309700000.0 11309700000.0 11309700000.0 11309700000.0 11309700000.0 11309700000.0 11309700000.0 11309700000.0 11309700000.0 11309700000.0 11309700000.0 11309700000.0 11309700000.0 11309700000.0 11309700000.0 11309700000.0 11309700000.0 11309700000.0 11309700000.0 11309700000.0 11309700000.0 11309700000.0 11309700000.0 11309700000.0 11309700000.0 11309700000.0 11309700000.0 11309700000.0 11309700000.0 11309700000.0 11309700000.0 11309700000.0 11309700000.0 11309700000.0 11309700000.0 11309700000.0 11309700000.0 11309700000.0 11309700000.0 11309700000.0 11309700000.0 11309700000.0 11309700000.0 11309700000.0 11309700000.0 11309700000.0 11309700000.0 11309700000.0 11309700000.0 11309700000.0 11309700000.0 11309700000.0 11309700000.0 11309700000.0 11309700000.0 11309700000.0 11309700000.0 11309700000.0 11309700000.0 11309700000.0 11309700000.0 11309700000.0 11309700000.0 11309700000.0 11309700000.0 11309700000.0 11309700000.0 11309700000.0 11309700000.0 11309700000.0 11309700000.0 11309700000.0 11309700000.0 11309700000.0 11309700000.0 11309700000.0 11309700000.0 11309700000.0 11309700000.0 11309700000.0 11309700000.0 11309700000.0 11309700000.0 11309700000.0 11309700000.0 11309700000.0 11309700000.0 11309700000.0 11309700000.0 11309700000.0 11309700000.0 11309700000.0 11309700000.0 11309700000.0 11309700000.0 11309700000.0 11309700000.0 11309700000.0 11309700000.0 11309700000.0 11309700000.0 11309700000.0 11309700000.0 11309700000.0 11309700000.0 11309700000.0 11309700000.0 11309700000.0 11309700000.0 11309700000.0 11309700000.0 11309700000.0 11309700000.0 11309700000.0 11309700000.0 11309700000.0 11309700000.0 11309700000.0 11309700000.0 11309700000.0 11309700000.0 11309700000.0 11309700000.0 11309700000.0 11309700000.0 11309700000.0 11309700000.0 11309700000.0 11309700000.0 11309700000.0 11309700000.0 11309700000.0 11309700000.0 11309700000.0 11309700000.0 11309700000.0 11309700000.0 11309700000.0 11309700000.0 11309700000.0 11309700000.0 11309700000.0 11309700000.0 11309700000.0 11309700000.0 11309700000.0 11309700000.0 11309700000.0 11309700000.0 11309700000.0 11309700000.0 11309700000.0 11309700000.0 11309700000.0 11309700000.0 11309700000.0 11309700000.0 11309700000.0 11309700000.0 11309700000.0 11309700000.0 11309700000.0 11309700000.0 11309700000.0 11309700000.0 11309700000.0 11309700000.0 11309700000.0 11309700000.0 11309700000.0 11309700000.0 11309700000.0 11309700000.0 11309700000.0 11309700000.0 11309700000.0 11309700000.0 11309700000.0 11309700000.0 11309700000.0 11309700000.0 11309700000.0 11309700000.0 11309700000.0 11309700000.0 11309700000.0 11309700000.0 11309700000.0 11309700000.0 11309700000.0 11309700000.0 11309700000.0 11309700000.0 11309700000.0 11309700000.0 11309700000.0 11309700000.0 11309700000.0 11309700000.0 11309700000.0 11309700000.0 11309700000.0 11309700000.0 11309700000.0 11309700000.0 11309700000.0 11309700000.0 11309700000.0 11309700000.0 11309700000.0 11309700000.0 11309700000.0 11309700000.0 11309700000.0 11309700000.0 11309700000.0 11309700000.0 11309700000.0 11309700000.0 11309700000.0 11309700000.0 11309700000.0 11309700000.0 11309700000.0 11309700000.0 11309700000.0 11309700000.0 11309700000.0 11309700000.0 11309700000.0 11309700000.0 11309700000.0 11309700000.0 11309700000.0 11309700000.0 11309700000.0 11309700000.0 11309700000.0 11309700000.0 11309700000.0 11309700000.0 11309700000.0 11309700000.0 11309700000.0 11309700000.0 11309700000.0 11309700000.0 11309700000.0 11309700000.0 11309700000.0 11309700000.0 11309700000.0 11309700000.0 11309700000.0 11309700000.0 11309700000.0 11309700000.0 11309700000.0 11309700000.0 11309700000.0 11309700000.0 11309700000.0 11309700000.0 11309700000.0 11309700000.0 11309700000.0 11309700000.0 11309700000.0 11309700000.0 11309700000.0 11309700000.0 11309700000.0 11309700000.0 11309700000.0 11309700000.0 11309700000.0 11309700000.0 11309700000.0 11309700000.0 11309700000.0 11309700000.0 11309700000.0 11309700000.0 11309700000.0 11309700000.0 11309700000.0 11309700000.0 11309700000.0 11309700000.0 11309700000.0 11309700000.0 11309700000.0 11309700000.0 11309700000.0 11309700000.0 11309700000.0 11309700000.0 11309700000.0 11309700000.0 11309700000.0 11309700000.0 11309700000.0 11309700000.0 11309700000.0 11309700000.0 11309700000.0 11309700000.0 11309700000.0 11309700000.0 11309700000.0 11309700000.0 11309700000.0 11309700000.0 11309700000.0 11309700000.0 11309700000.0 11309700000.0 11309700000.0 11309700000.0 11309700000.0 11309700000.0 11309700000.0 11309700000.0 11309700000.0 11309700000.0 11309700000.0 11309700000.0 11309700000.0 11309700000.0 11309700000.0 11309700000.0 11309700000.0 11309700000.0 11309700000.0 11309700000.0 11309700000.0 11309700000.0 11309700000.0 11309700000.0 11309700000.0 11309700000.0 11309700000.0 11309700000.0 11309700000.0 11309700000.0 11309700000.0 11309700000.0 11309700000.0 11309700000.0 11309700000.0 11309700000.0 11309700000.0 11309700000.0 11309700000.0 11309700000.0 11309700000.0 11309700000.0 11309700000.0 11309700000.0 11309700000.0 11309700000.0 11309700000.0 11309700000.0 11309700000.0 11309700000.0 11309700000.0 11309700000.0 11309700000.0 11309700000.0 11309700000.0 11309700000.0 11309700000.0 11309700000.0 11309700000.0 11309700000.0 11309700000.0 11309700000.0 11309700000.0 11309700000.0 11309700000.0 11309700000.0 11309700000.0 11309700000.0 11309700000.0 11309700000.0 11309700000.0 11309700000.0 11309700000.0 11309700000.0 11309700000.0 11309700000.0 11309700000.0 11309700000.0 11309700000.0 11309700000.0 11309700000.0 11309700000.0 11309700000.0 11309700000.0 11309700000.0 11309700000.0 11309700000.0 11309700000.0 11309700000.0 11309700000.0 11309700000.0 11309700000.0 11309700000.0 11309700000.0 11309700000.0 11309700000.0 11309700000.0 11309700000.0 11309700000.0 11309700000.0 11309700000.0 11309700000.0 11309700000.0 11309700000.0 11309700000.0 11309700000.0 11309700000.0 11309700000.0 11309700000.0 11309700000.0 11309700000.0 11309700000.0 11309700000.0 11309700000.0 11309700000.0 11309700000.0 11309700000.0 11309700000.0 11309700000.0 11309700000.0 11309700000.0 11309700000.0 11309700000.0 11309700000.0 11309700000.0 11309700000.0 11309700000.0 11309700000.0 11309700000.0 11309700000.0 11309700000.0 11309700000.0 11309700000.0 11309700000.0 11309700000.0 11309700000.0 11309700000.0 11309700000.0 11309700000.0 11309700000.0 11309700000.0 11309700000.0 11309700000.0 11309700000.0 11309700000.0 11309700000.0 11309700000.0 11309700000.0 11309700000.0 11309700000.0 11309700000.0 11309700000.0 11309700000.0 11309700000.0 11309700000.0 11309700000.0 11309700000.0 11309700000.0 11309700000.0 11309700000.0 11309700000.0 11309700000.0 11309700000.0 11309700000.0 11309700000.0 11309700000.0 11309700000.0 11309700000.0 11309700000.0 11309700000.0 11309700000.0 11309700000.0 11309700000.0 11309700000.0 11309700000.0 11309700000.0 11309700000.0 11309700000.0 11309700000.0 11309700000.0 11309700000.0 11309700000.0 11309700000.0 11309700000.0 11309700000.0 11309700000.0 11309700000.0 11309700000.0 11309700000.0 11309700000.0 11309700000.0 11309700000.0 11309700000.0 11309700000.0 11309700000.0 11309700000.0 11309700000.0 11309700000.0 11309700000.0 11309700000.0 11309700000.0 11309700000.0 11309700000.0 11309700000.0 11309700000.0 11309700000.0 11309700000.0 11309700000.0 11309700000.0 11309700000.0 11309700000.0 11309700000.0 11309700000.0 11309700000.0 11309700000.0 11309700000.0 11309700000.0 11309700000.0 11309700000.0 11309700000.0 11309700000.0 11309700000.0 11309700000.0 11309700000.0 11309700000.0 11309700000.0 11309700000.0 11309700000.0 11309700000.0 11309700000.0 11309700000.0 11309700000.0 11309700000.0 11309700000.0 11309700000.0 11309700000.0 11309700000.0 11309700000.0 11309700000.0 11309700000.0 11309700000.0 11309700000.0 11309700000.0 11309700000.0 11309700000.0 11309700000.0 11309700000.0 11309700000.0 11309700000.0 11309700000.0 11309700000.0 11309700000.0 11309700000.0 11309700000.0 11309700000.0 11309700000.0 11309700000.0 11309700000.0 11309700000.0 11309700000.0 11309700000.0 11309700000.0 11309700000.0 11309700000.0 11309700000.0 11309700000.0 11309700000.0 11309700000.0 11309700000.0 11309700000.0 11309700000.0 11309700000.0 11309700000.0 11309700000.0 11309700000.0 11309700000.0 11309700000.0 11309700000.0 11309700000.0 11309700000.0 11309700000.0 11309700000.0 11309700000.0 11309700000.0 11309700000.0 11309700000.0 11309700000.0 11309700000.0 11309700000.0 11309700000.0 11309700000.0 11309700000.0 11309700000.0 11309700000.0 11309700000.0 11309700000.0 11309700000.0 11309700000.0 11309700000.0 11309700000.0 11309700000.0 11309700000.0 11309700000.0 11309700000.0 11309700000.0 11309700000.0 11309700000.0 11309700000.0 11309700000.0 11309700000.0 11309700000.0 11309700000.0 11309700000.0 11309700000.0 11309700000.0 11309700000.0 11309700000.0 11309700000.0 11309700000.0 11309700000.0 11309700000.0 11309700000.0 11309700000.0 11309700000.0 11309700000.0 11309700000.0 11309700000.0 11309700000.0 11309700000.0 11309700000.0 11309700000.0 11309700000.0 11309700000.0 11309700000.0 11309700000.0 11309700000.0 11309700000.0 11309700000.0 11309700000.0 11309700000.0 11309700000.0 11309700000.0 11309700000.0 11309700000.0 11309700000.0 11309700000.0 11309700000.0 11309700000.0 11309700000.0 11309700000.0 11309700000.0 11309700000.0 11309700000.0 11309700000.0 11309700000.0 11309700000.0 11309700000.0 11309700000.0 11309700000.0 11309700000.0 11309700000.0 11309700000.0 11309700000.0 11309700000.0 11309700000.0 11309700000.0 11309700000.0 11309700000.0 11309700000.0 11309700000.0 11309700000.0 11309700000.0 11309700000.0 11309700000.0 11309700000.0 11309700000.0 11309700000.0 11309700000.0 11309700000.0 11309700000.0 11309700000.0 11309700000.0 11309700000.0 11309700000.0 11309700000.0 11309700000.0 11309700000.0 11309700000.0 11309700000.0 11309700000.0 11309700000.0 11309700000.0 11309700000.0 11309700000.0 11309700000.0 11309700000.0 11309700000.0 11309700000.0 11309700000.0 11309700000.0 11309700000.0 11309700000.0 11309700000.0 11309700000.0 11309700000.0 11309700000.0 11309700000.0 11309700000.0 11309700000.0 11309700000.0 11309700000.0 11309700000.0 11309700000.0 11309700000.0 11309700000.0 11309700000.0 11309700000.0 11309700000.0 11309700000.0 11309700000.0 11309700000.0 11309700000.0 11309700000.0 11309700000.0 11309700000.0 11309700000.0 11309700000.0 11309700000.0 11309700000.0 11309700000.0 11309700000.0 11309700000.0 11309700000.0 11309700000.0 11309700000.0 11309700000.0 11309700000.0 11309700000.0 11309700000.0 11309700000.0 11309700000.0 11309700000.0 11309700000.0 11309700000.0 11309700000.0 11309700000.0 11309700000.0 11309700000.0 11309700000.0 11309700000.0 11309700000.0 11309700000.0 11309700000.0 11309700000.0 11309700000.0 11309700000.0 11309700000.0 11309700000.0 11309700000.0 11309700000.0 11309700000.0 11309700000.0 11309700000.0 11309700000.0 11309700000.0 11309700000.0 11309700000.0 11309700000.0 11309700000.0 11309700000.0 11309700000.0 11309700000.0 11309700000.0 11309700000.0 11309700000.0 11309700000.0 11309700000.0 11309700000.0 11309700000.0 11309700000.0 11309700000.0 11309700000.0 11309700000.0 11309700000.0 11309700000.0 11309700000.0 11309700000.0 11309700000.0 11309700000.0 11309700000.0 11309700000.0 11309700000.0 11309700000.0 11309700000.0 11309700000.0 11309700000.0 11309700000.0 11309700000.0 11309700000.0 11309700000.0 11309700000.0 11309700000.0 11309700000.0 11309700000.0 11309700000.0 11309700000.0 11309700000.0 11309700000.0 11309700000.0 11309700000.0 11309700000.0 11309700000.0 11309700000.0 11309700000.0 11309700000.0 11309700000.0 11309700000.0 11309700000.0 11309700000.0 11309700000.0 11309700000.0 11309700000.0 11309700000.0 11309700000.0 11309700000.0 11309700000.0 11309700000.0 11309700000.0 11309700000.0 11309700000.0 11309700000.0 11309700000.0 11309700000.0 11309700000.0 11309700000.0 11309700000.0 11309700000.0 11309700000.0 11309700000.0 11309700000.0 11309700000.0 11309700000.0 11309700000.0 11309700000.0 11309700000.0 11309700000.0 11309700000.0 11309700000.0 11309700000.0 11309700000.0 11309700000.0 11309700000.0 11309700000.0 11309700000.0 11309700000.0 11309700000.0 11309700000.0 11309700000.0 11309700000.0 11309700000.0 11309700000.0 11309700000.0 11309700000.0 11309700000.0 11309700000.0 11309700000.0 11309700000.0 11309700000.0 11309700000.0 11309700000.0 11309700000.0 11309700000.0 11309700000.0 11309700000.0 11309700000.0 11309700000.0 11309700000.0 11309700000.0 11309700000.0 11309700000.0 11309700000.0 11309700000.0 11309700000.0 11309700000.0 11309700000.0 11309700000.0 11309700000.0 11309700000.0 11309700000.0 11309700000.0 11309700000.0 11309700000.0 11309700000.0 11309700000.0 11309700000.0 11309700000.0 11309700000.0 11309700000.0 11309700000.0 11309700000.0 11309700000.0 11309700000.0 11309700000.0 11309700000.0 11309700000.0 11309700000.0 11309700000.0 11309700000.0 11309700000.0 11309700000.0 11309700000.0 11309700000.0 11309700000.0 11309700000.0 11309700000.0 11309700000.0 11309700000.0 11309700000.0 11309700000.0 11309700000.0 11309700000.0 11309700000.0 11309700000.0 11309700000.0 11309700000.0 11309700000.0 11309700000.0 11309700000.0 11309700000.0 11309700000.0 11309700000.0 11309700000.0 11309700000.0 11309700000.0 11309700000.0 11309700000.0 11309700000.0 11309700000.0 11309700000.0 11309700000.0 11309700000.0 11309700000.0 11309700000.0 11309700000.0 11309700000.0 11309700000.0 11309700000.0 11309700000.0 11309700000.0 11309700000.0 11309700000.0 11309700000.0 11309700000.0 11309700000.0 11309700000.0 11309700000.0 11309700000.0 11309700000.0 11309700000.0 11309700000.0 11309700000.0 11309700000.0 11309700000.0 11309700000.0 11309700000.0 11309700000.0 11309700000.0 11309700000.0 11309700000.0 11309700000.0 11309700000.0 11309700000.0 11309700000.0 11309700000.0 11309700000.0 11309700000.0 11309700000.0 11309700000.0 11309700000.0 11309700000.0 11309700000.0 11309700000.0 11309700000.0 11309700000.0 11309700000.0 11309700000.0 11309700000.0 11309700000.0 11309700000.0 11309700000.0 11309700000.0 11309700000.0 11309700000.0 11309700000.0 11309700000.0 11309700000.0 11309700000.0 11309700000.0 11309700000.0 11309700000.0 11309700000.0 11309700000.0 11309700000.0 11309700000.0 11309700000.0 11309700000.0 11309700000.0 11309700000.0 11309700000.0 11309700000.0 11309700000.0 11309700000.0 11309700000.0 11309700000.0 11309700000.0 11309700000.0 11309700000.0 11309700000.0 11309700000.0 11309700000.0 11309700000.0 11309700000.0 11309700000.0 11309700000.0 11309700000.0 11309700000.0 11309700000.0 11309700000.0 11309700000.0 11309700000.0 11309700000.0 11309700000.0 11309700000.0 11309700000.0 11309700000.0 11309700000.0 11309700000.0 11309700000.0 11309700000.0 11309700000.0 11309700000.0 11309700000.0 11309700000.0 11309700000.0 11309700000.0 11309700000.0 11309700000.0 11309700000.0 11309700000.0 11309700000.0 11309700000.0 11309700000.0 11309700000.0 11309700000.0 11309700000.0 11309700000.0 11309700000.0 11309700000.0 11309700000.0 11309700000.0 11309700000.0 11309700000.0 11309700000.0 11309700000.0 11309700000.0 11309700000.0 11309700000.0 11309700000.0 11309700000.0 11309700000.0 11309700000.0 11309700000.0 11309700000.0 11309700000.0 11309700000.0 11309700000.0 11309700000.0 11309700000.0 11309700000.0 11309700000.0 11309700000.0 11309700000.0 11309700000.0 11309700000.0 11309700000.0 11309700000.0 11309700000.0 11309700000.0 11309700000.0 11309700000.0 11309700000.0 11309700000.0 11309700000.0 11309700000.0 11309700000.0 11309700000.0 11309700000.0 11309700000.0 11309700000.0 11309700000.0 11309700000.0 11309700000.0 11309700000.0 11309700000.0 11309700000.0 11309700000.0 11309700000.0 11309700000.0 11309700000.0 11309700000.0 11309700000.0 11309700000.0 11309700000.0 11309700000.0 11309700000.0 11309700000.0 11309700000.0 11309700000.0 11309700000.0 11309700000.0 11309700000.0 11309700000.0 11309700000.0 11309700000.0 11309700000.0 11309700000.0 11309700000.0 11309700000.0 11309700000.0 11309700000.0 11309700000.0 11309700000.0 11309700000.0 11309700000.0 11309700000.0 11309700000.0 11309700000.0 11309700000.0 11309700000.0 11309700000.0 11309700000.0 11309700000.0 11309700000.0 11309700000.0 11309700000.0 11309700000.0 11309700000.0 11309700000.0 11309700000.0 11309700000.0 11309700000.0 11309700000.0 11309700000.0 11309700000.0 11309700000.0 11309700000.0 11309700000.0 11309700000.0 11309700000.0 11309700000.0 11309700000.0 11309700000.0 11309700000.0 11309700000.0 11309700000.0 11309700000.0 11309700000.0 11309700000.0 11309700000.0 11309700000.0 11309700000.0 11309700000.0 11309700000.0 11309700000.0 11309700000.0 11309700000.0 11309700000.0 11309700000.0 11309700000.0 11309700000.0 11309700000.0 11309700000.0 11309700000.0 11309700000.0 11309700000.0 11309700000.0 11309700000.0 11309700000.0 11309700000.0 11309700000.0 11309700000.0 11309700000.0 11309700000.0 11309700000.0 11309700000.0 11309700000.0 11309700000.0 11309700000.0 11309700000.0 11309700000.0 11309700000.0 11309700000.0 11309700000.0 11309700000.0 11309700000.0 11309700000.0 11309700000.0 11309700000.0 11309700000.0 11309700000.0 11309700000.0 11309700000.0 11309700000.0 11309700000.0 11309700000.0 11309700000.0 11309700000.0 11309700000.0 11309700000.0 11309700000.0 11309700000.0 11309700000.0 11309700000.0 11309700000.0 11309700000.0 11309700000.0 11309700000.0 11309700000.0 11309700000.0 11309700000.0 11309700000.0 11309700000.0 11309700000.0 11309700000.0 11309700000.0 11309700000.0 11309700000.0 11309700000.0 11309700000.0 11309700000.0 11309700000.0 11309700000.0 11309700000.0 11309700000.0 11309700000.0 11309700000.0 11309700000.0 11309700000.0 11309700000.0 11309700000.0 11309700000.0 11309700000.0 11309700000.0 11309700000.0 11309700000.0 11309700000.0 11309700000.0 11309700000.0 11309700000.0 11309700000.0 11309700000.0 11309700000.0 11309700000.0 11309700000.0 11309700000.0 11309700000.0 11309700000.0 11309700000.0 11309700000.0 11309700000.0 11309700000.0 11309700000.0 11309700000.0 11309700000.0 11309700000.0 11309700000.0 11309700000.0 11309700000.0 11309700000.0 11309700000.0 11309700000.0 11309700000.0 11309700000.0 11309700000.0 11309700000.0 11309700000.0 11309700000.0 11309700000.0 11309700000.0 11309700000.0 11309700000.0 11309700000.0 11309700000.0 11309700000.0 11309700000.0 11309700000.0 11309700000.0 11309700000.0 11309700000.0 11309700000.0 11309700000.0 11309700000.0 11309700000.0 11309700000.0 11309700000.0 11309700000.0 11309700000.0 11309700000.0 11309700000.0 11309700000.0 11309700000.0 11309700000.0 11309700000.0 11309700000.0 11309700000.0 11309700000.0 11309700000.0 11309700000.0 11309700000.0 11309700000.0 11309700000.0 11309700000.0 11309700000.0 11309700000.0 11309700000.0 11309700000.0 11309700000.0 11309700000.0 11309700000.0 11309700000.0 11309700000.0 11309700000.0 11309700000.0 11309700000.0 11309700000.0 11309700000.0 11309700000.0 11309700000.0 11309700000.0 11309700000.0 11309700000.0 11309700000.0 11309700000.0 11309700000.0 11309700000.0 11309700000.0 11309700000.0 11309700000.0 11309700000.0 11309700000.0 11309700000.0 11309700000.0 11309700000.0 11309700000.0 11309700000.0 11309700000.0 11309700000.0 11309700000.0 11309700000.0 11309700000.0 11309700000.0 11309700000.0 11309700000.0 11309700000.0 11309700000.0 11309700000.0 11309700000.0 11309700000.0 11309700000.0 11309700000.0 11309700000.0 11309700000.0 11309700000.0 11309700000.0 11309700000.0 11309700000.0 11309700000.0 11309700000.0 11309700000.0 11309700000.0 11309700000.0 11309700000.0 11309700000.0 11309700000.0 11309700000.0 11309700000.0 11309700000.0 11309700000.0 11309700000.0 11309700000.0 11309700000.0 11309700000.0 11309700000.0 11309700000.0 11309700000.0 11309700000.0 11309700000.0 11309700000.0 11309700000.0 11309700000.0 11309700000.0 11309700000.0 11309700000.0 11309700000.0 11309700000.0 11309700000.0 11309700000.0 11309700000.0 11309700000.0 11309700000.0 11309700000.0 11309700000.0 11309700000.0 11309700000.0 11309700000.0 11309700000.0 11309700000.0 11309700000.0 11309700000.0 11309700000.0 11309700000.0 11309700000.0 11309700000.0 11309700000.0 11309700000.0 11309700000.0 11309700000.0 11309700000.0 11309700000.0 11309700000.0 11309700000.0 11309700000.0 11309700000.0 11309700000.0 11309700000.0 11309700000.0 11309700000.0 11309700000.0 11309700000.0 11309700000.0 11309700000.0 11309700000.0 11309700000.0 11309700000.0 11309700000.0 11309700000.0 11309700000.0 11309700000.0 11309700000.0 11309700000.0 11309700000.0 11309700000.0 11309700000.0 11309700000.0 11309700000.0 11309700000.0 11309700000.0 11309700000.0 11309700000.0 11309700000.0 11309700000.0 11309700000.0 11309700000.0 11309700000.0 11309700000.0 11309700000.0 11309700000.0 11309700000.0 11309700000.0 11309700000.0 11309700000.0 11309700000.0 11309700000.0 11309700000.0 11309700000.0 11309700000.0 11309700000.0 11309700000.0 11309700000.0 11309700000.0 11309700000.0 11309700000.0 11309700000.0 11309700000.0 11309700000.0 11309700000.0 11309700000.0 11309700000.0 11309700000.0 11309700000.0 11309700000.0 11309700000.0 11309700000.0 11309700000.0 11309700000.0 11309700000.0 11309700000.0 11309700000.0 11309700000.0 11309700000.0 11309700000.0 11309700000.0 11309700000.0 11309700000.0 11309700000.0 11309700000.0 11309700000.0 11309700000.0 11309700000.0 11309700000.0 11309700000.0 11309700000.0 11309700000.0 11309700000.0 11309700000.0 11309700000.0 11309700000.0 11309700000.0 11309700000.0 11309700000.0 11309700000.0 11309700000.0 11309700000.0 11309700000.0 11309700000.0 11309700000.0 11309700000.0 11309700000.0 11309700000.0 11309700000.0 11309700000.0 11309700000.0 11309700000.0 11309700000.0 11309700000.0 11309700000.0 11309700000.0 11309700000.0 11309700000.0 11309700000.0 11309700000.0 11309700000.0 11309700000.0 11309700000.0 11309700000.0 11309700000.0 11309700000.0 11309700000.0 11309700000.0 11309700000.0 11309700000.0 11309700000.0 11309700000.0 11309700000.0 11309700000.0 11309700000.0 11309700000.0 11309700000.0 11309700000.0 11309700000.0 11309700000.0 11309700000.0 11309700000.0 11309700000.0 11309700000.0 11309700000.0 11309700000.0 11309700000.0 11309700000.0 11309700000.0 11309700000.0 11309700000.0 11309700000.0 11309700000.0 11309700000.0 11309700000.0 11309700000.0 11309700000.0 11309700000.0 11309700000.0 11309700000.0 11309700000.0 11309700000.0 11309700000.0 11309700000.0 11309700000.0 11309700000.0 11309700000.0 11309700000.0 11309700000.0 11309700000.0 11309700000.0 11309700000.0 11309700000.0 11309700000.0 11309700000.0 11309700000.0 11309700000.0 11309700000.0 11309700000.0 11309700000.0 11309700000.0 11309700000.0 11309700000.0 11309700000.0 11309700000.0 11309700000.0 11309700000.0 11309700000.0 11309700000.0 11309700000.0 11309700000.0 11309700000.0 11309700000.0 11309700000.0 11309700000.0 11309700000.0 11309700000.0 11309700000.0 11309700000.0 11309700000.0 11309700000.0 11309700000.0 11309700000.0 11309700000.0 11309700000.0 11309700000.0 11309700000.0 11309700000.0 11309700000.0 11309700000.0 11309700000.0 11309700000.0 11309700000.0 11309700000.0 11309700000.0 11309700000.0 11309700000.0 11309700000.0 11309700000.0 11309700000.0 11309700000.0 11309700000.0 11309700000.0 11309700000.0 11309700000.0 11309700000.0 11309700000.0 11309700000.0 11309700000.0 11309700000.0 11309700000.0 11309700000.0 11309700000.0 11309700000.0 11309700000.0 11309700000.0 11309700000.0 11309700000.0 11309700000.0 11309700000.0 11309700000.0 11309700000.0 11309700000.0 11309700000.0 11309700000.0 11309700000.0 11309700000.0 11309700000.0 11309700000.0 11309700000.0 11309700000.0 11309700000.0 11309700000.0 11309700000.0 11309700000.0 11309700000.0 11309700000.0 11309700000.0 11309700000.0 11309700000.0 11309700000.0 11309700000.0 11309700000.0 11309700000.0 11309700000.0 11309700000.0 11309700000.0 11309700000.0 11309700000.0 11309700000.0 11309700000.0 11309700000.0 11309700000.0 11309700000.0 11309700000.0 11309700000.0 11309700000.0 11309700000.0 11309700000.0 11309700000.0 11309700000.0 11309700000.0 11309700000.0 11309700000.0 11309700000.0 11309700000.0 11309700000.0 11309700000.0 11309700000.0 11309700000.0 11309700000.0 11309700000.0 11309700000.0 11309700000.0 11309700000.0 11309700000.0 11309700000.0 11309700000.0 11309700000.0 11309700000.0 11309700000.0 11309700000.0 11309700000.0 11309700000.0 11309700000.0 11309700000.0 11309700000.0 11309700000.0 11309700000.0 11309700000.0 11309700000.0 11309700000.0 11309700000.0 11309700000.0 11309700000.0 11309700000.0 11309700000.0 11309700000.0 11309700000.0 11309700000.0 11309700000.0 11309700000.0 11309700000.0 11309700000.0 11309700000.0 11309700000.0 11309700000.0 11309700000.0 11309700000.0 11309700000.0 11309700000.0 11309700000.0 11309700000.0 11309700000.0 11309700000.0 11309700000.0 11309700000.0 11309700000.0 11309700000.0 11309700000.0 11309700000.0 11309700000.0 11309700000.0 11309700000.0 11309700000.0 11309700000.0 11309700000.0 11309700000.0 11309700000.0 11309700000.0 11309700000.0 11309700000.0 11309700000.0 11309700000.0 11309700000.0 11309700000.0 11309700000.0 11309700000.0 11309700000.0 11309700000.0 11309700000.0 11309700000.0 11309700000.0 11309700000.0 11309700000.0 11309700000.0 11309700000.0 11309700000.0 11309700000.0 11309700000.0 11309700000.0 11309700000.0 11309700000.0 11309700000.0 11309700000.0 11309700000.0 11309700000.0 11309700000.0 11309700000.0 11309700000.0 11309700000.0 11309700000.0 11309700000.0 11309700000.0 11309700000.0 11309700000.0 11309700000.0 11309700000.0 11309700000.0 11309700000.0 11309700000.0 11309700000.0 11309700000.0 11309700000.0 11309700000.0 11309700000.0 11309700000.0 11309700000.0 11309700000.0 11309700000.0 11309700000.0 11309700000.0 11309700000.0 11309700000.0 11309700000.0 11309700000.0 11309700000.0 11309700000.0 11309700000.0 11309700000.0 11309700000.0 11309700000.0 11309700000.0 11309700000.0 11309700000.0 11309700000.0 11309700000.0 11309700000.0 11309700000.0 11309700000.0 11309700000.0 11309700000.0 11309700000.0 11309700000.0 11309700000.0 11309700000.0 11309700000.0 11309700000.0 11309700000.0 11309700000.0 11309700000.0 11309700000.0 11309700000.0 11309700000.0 11309700000.0 11309700000.0 11309700000.0 11309700000.0 11309700000.0 11309700000.0 11309700000.0 11309700000.0 11309700000.0 11309700000.0 11309700000.0 11309700000.0 11309700000.0 11309700000.0 11309700000.0 11309700000.0 11309700000.0 11309700000.0 11309700000.0 11309700000.0 11309700000.0 11309700000.0 11309700000.0 11309700000.0 11309700000.0 11309700000.0 11309700000.0 11309700000.0 11309700000.0 11309700000.0 11309700000.0 11309700000.0 11309700000.0 11309700000.0 11309700000.0 11309700000.0 11309700000.0 11309700000.0 11309700000.0 11309700000.0 11309700000.0 11309700000.0 11309700000.0 11309700000.0 11309700000.0 11309700000.0 11309700000.0 11309700000.0 11309700000.0 11309700000.0 11309700000.0 11309700000.0 11309700000.0 11309700000.0 11309700000.0 11309700000.0 11309700000.0 11309700000.0 11309700000.0 11309700000.0 11309700000.0 11309700000.0 11309700000.0 11309700000.0 11309700000.0 11309700000.0 11309700000.0 11309700000.0 11309700000.0 11309700000.0 11309700000.0 11309700000.0 11309700000.0 11309700000.0 11309700000.0 11309700000.0 11309700000.0 11309700000.0 11309700000.0 11309700000.0 11309700000.0 11309700000.0 11309700000.0 11309700000.0 11309700000.0 11309700000.0 11309700000.0 11309700000.0 11309700000.0 11309700000.0 11309700000.0 11309700000.0 11309700000.0 11309700000.0 11309700000.0 11309700000.0 11309700000.0 11309700000.0 11309700000.0 11309700000.0 11309700000.0 11309700000.0 11309700000.0 11309700000.0 11309700000.0 11309700000.0 11309700000.0 11309700000.0 11309700000.0 11309700000.0 11309700000.0 11309700000.0 11309700000.0 11309700000.0 11309700000.0 11309700000.0 11309700000.0 11309700000.0 11309700000.0 11309700000.0 11309700000.0 11309700000.0 11309700000.0 11309700000.0 11309700000.0 11309700000.0 11309700000.0 11309700000.0 11309700000.0 11309700000.0 11309700000.0 11309700000.0 11309700000.0 11309700000.0 11309700000.0 11309700000.0 11309700000.0 11309700000.0 11309700000.0 11309700000.0 11309700000.0 11309700000.0 11309700000.0 11309700000.0 11309700000.0 11309700000.0 11309700000.0 11309700000.0 11309700000.0 11309700000.0 11309700000.0 11309700000.0 11309700000.0 11309700000.0 11309700000.0 11309700000.0 11309700000.0 11309700000.0 11309700000.0 11309700000.0 11309700000.0 11309700000.0 11309700000.0 11309700000.0 11309700000.0 11309700000.0 11309700000.0 11309700000.0 11309700000.0 11309700000.0 11309700000.0 11309700000.0 11309700000.0 11309700000.0 11309700000.0 11309700000.0 11309700000.0 11309700000.0 11309700000.0 11309700000.0 11309700000.0 11309700000.0 11309700000.0 11309700000.0 11309700000.0 11309700000.0 11309700000.0 11309700000.0 11309700000.0 11309700000.0 11309700000.0 11309700000.0 11309700000.0 11309700000.0 11309700000.0 11309700000.0 11309700000.0 11309700000.0 11309700000.0 11309700000.0 11309700000.0 11309700000.0 11309700000.0 11309700000.0 11309700000.0 11309700000.0 11309700000.0 11309700000.0 11309700000.0 11309700000.0 11309700000.0 11309700000.0 11309700000.0 11309700000.0 11309700000.0 11309700000.0 11309700000.0 11309700000.0 11309700000.0 11309700000.0 11309700000.0 11309700000.0 11309700000.0 11309700000.0 11309700000.0 11309700000.0 11309700000.0 11309700000.0 11309700000.0 11309700000.0 11309700000.0 11309700000.0 11309700000.0 11309700000.0 11309700000.0 11309700000.0 11309700000.0 11309700000.0 11309700000.0 11309700000.0 11309700000.0 11309700000.0 11309700000.0 11309700000.0 11309700000.0 11309700000.0 11309700000.0 11309700000.0 11309700000.0 11309700000.0 11309700000.0 11309700000.0 11309700000.0 11309700000.0 11309700000.0 11309700000.0 11309700000.0 11309700000.0 11309700000.0 11309700000.0 11309700000.0 11309700000.0 11309700000.0 11309700000.0 11309700000.0 11309700000.0 11309700000.0 11309700000.0 11309700000.0 11309700000.0 11309700000.0 11309700000.0 11309700000.0 11309700000.0 11309700000.0 11309700000.0 11309700000.0 11309700000.0 11309700000.0 11309700000.0 11309700000.0 11309700000.0 11309700000.0 11309700000.0 11309700000.0 11309700000.0 11309700000.0 11309700000.0 11309700000.0 11309700000.0 11309700000.0 11309700000.0 11309700000.0 11309700000.0 11309700000.0 11309700000.0 11309700000.0 11309700000.0 11309700000.0 11309700000.0 11309700000.0 11309700000.0 11309700000.0 11309700000.0 11309700000.0 11309700000.0 11309700000.0 11309700000.0 11309700000.0 11309700000.0 11309700000.0 11309700000.0 11309700000.0 11309700000.0 11309700000.0 11309700000.0 11309700000.0 11309700000.0 11309700000.0 11309700000.0 11309700000.0 11309700000.0 11309700000.0 11309700000.0 11309700000.0 11309700000.0 11309700000.0 11309700000.0 11309700000.0 11309700000.0 11309700000.0 11309700000.0 11309700000.0 11309700000.0 11309700000.0 11309700000.0 11309700000.0 11309700000.0 11309700000.0 11309700000.0 11309700000.0 11309700000.0 11309700000.0 11309700000.0 11309700000.0 11309700000.0 11309700000.0 11309700000.0 11309700000.0 11309700000.0 11309700000.0 11309700000.0 11309700000.0 11309700000.0 11309700000.0 11309700000.0 11309700000.0 11309700000.0 11309700000.0 11309700000.0 11309700000.0 11309700000.0 11309700000.0 11309700000.0 11309700000.0 11309700000.0 11309700000.0 11309700000.0 11309700000.0 11309700000.0 11309700000.0 11309700000.0 11309700000.0 11309700000.0 11309700000.0 11309700000.0 11309700000.0 11309700000.0 11309700000.0 11309700000.0 11309700000.0 11309700000.0 11309700000.0 11309700000.0 11309700000.0 11309700000.0 11309700000.0 11309700000.0 11309700000.0 11309700000.0 11309700000.0 11309700000.0 11309700000.0 11309700000.0 11309700000.0 11309700000.0 11309700000.0 11309700000.0 11309700000.0 11309700000.0 11309700000.0 11309700000.0 11309700000.0 11309700000.0 11309700000.0 11309700000.0 11309700000.0 11309700000.0 11309700000.0 11309700000.0 11309700000.0 11309700000.0 11309700000.0 11309700000.0 11309700000.0 11309700000.0 11309700000.0 11309700000.0 11309700000.0 11309700000.0 11309700000.0 11309700000.0 11309700000.0 11309700000.0 11309700000.0 11309700000.0 11309700000.0 11309700000.0 11309700000.0 11309700000.0 11309700000.0 11309700000.0 11309700000.0 11309700000.0 11309700000.0 11309700000.0 11309700000.0 11309700000.0 11309700000.0 11309700000.0 11309700000.0 11309700000.0 11309700000.0 11309700000.0 11309700000.0 11309700000.0 11309700000.0 11309700000.0 11309700000.0 11309700000.0 11309700000.0 11309700000.0 11309700000.0 11309700000.0 11309700000.0 11309700000.0 11309700000.0 11309700000.0 11309700000.0 11309700000.0 11309700000.0 11309700000.0 11309700000.0 11309700000.0 11309700000.0 11309700000.0 11309700000.0 11309700000.0 11309700000.0 11309700000.0 11309700000.0 11309700000.0 11309700000.0 11309700000.0 11309700000.0 11309700000.0 11309700000.0 11309700000.0 11309700000.0 11309700000.0 11309700000.0 11309700000.0 11309700000.0 11309700000.0 11309700000.0 11309700000.0 11309700000.0 11309700000.0 11309700000.0 11309700000.0 11309700000.0 11309700000.0 11309700000.0 11309700000.0 11309700000.0 11309700000.0 11309700000.0 11309700000.0 11309700000.0 11309700000.0 11309700000.0 11309700000.0 11309700000.0 11309700000.0 11309700000.0 11309700000.0 11309700000.0 11309700000.0 11309700000.0 11309700000.0 11309700000.0 11309700000.0 11309700000.0 11309700000.0 11309700000.0 11309700000.0 11309700000.0 11309700000.0 11309700000.0 11309700000.0 11309700000.0 11309700000.0 11309700000.0 11309700000.0 11309700000.0 11309700000.0 11309700000.0 11309700000.0 11309700000.0 11309700000.0 11309700000.0 11309700000.0 11309700000.0 11309700000.0 11309700000.0 11309700000.0 11309700000.0 11309700000.0 11309700000.0 11309700000.0 11309700000.0 11309700000.0 11309700000.0 11309700000.0 11309700000.0 11309700000.0 11309700000.0 11309700000.0 11309700000.0 11309700000.0 11309700000.0 11309700000.0 11309700000.0 11309700000.0 11309700000.0 11309700000.0 11309700000.0 11309700000.0 11309700000.0 11309700000.0 11309700000.0 11309700000.0 11309700000.0 11309700000.0 11309700000.0 11309700000.0 11309700000.0 11309700000.0 11309700000.0 11309700000.0 11309700000.0 11309700000.0 11309700000.0 11309700000.0 11309700000.0 11309700000.0 11309700000.0 11309700000.0 11309700000.0 11309700000.0 11309700000.0 11309700000.0 11309700000.0 11309700000.0 11309700000.0 11309700000.0 11309700000.0 11309700000.0 11309700000.0 11309700000.0 11309700000.0 11309700000.0 11309700000.0 11309700000.0 11309700000.0 11309700000.0 11309700000.0 11309700000.0 11309700000.0 11309700000.0 11309700000.0 11309700000.0 11309700000.0 11309700000.0 11309700000.0 11309700000.0 11309700000.0 11309700000.0 11309700000.0 11309700000.0 11309700000.0 11309700000.0 11309700000.0 11309700000.0 11309700000.0 11309700000.0 11309700000.0 11309700000.0 11309700000.0 11309700000.0 11309700000.0 11309700000.0 11309700000.0 11309700000.0 11309700000.0 11309700000.0 11309700000.0 11309700000.0 11309700000.0 11309700000.0 11309700000.0 11309700000.0 11309700000.0 11309700000.0 11309700000.0 11309700000.0 11309700000.0 11309700000.0 11309700000.0 11309700000.0 11309700000.0 11309700000.0 11309700000.0 11309700000.0 11309700000.0 11309700000.0 11309700000.0 11309700000.0 11309700000.0 11309700000.0 11309700000.0 11309700000.0 11309700000.0 11309700000.0 11309700000.0 11309700000.0 11309700000.0 11309700000.0 11309700000.0 11309700000.0 11309700000.0 11309700000.0 11309700000.0 11309700000.0 11309700000.0 11309700000.0 11309700000.0 11309700000.0 11309700000.0 11309700000.0 11309700000.0 11309700000.0 11309700000.0 11309700000.0 11309700000.0 11309700000.0 11309700000.0 11309700000.0 11309700000.0 11309700000.0 11309700000.0 11309700000.0 11309700000.0 11309700000.0 11309700000.0 11309700000.0 11309700000.0 11309700000.0 11309700000.0 11309700000.0 11309700000.0 11309700000.0 11309700000.0 11309700000.0 11309700000.0 11309700000.0 11309700000.0 11309700000.0 11309700000.0 11309700000.0 11309700000.0 11309700000.0 11309700000.0 11309700000.0 11309700000.0 11309700000.0 11309700000.0 11309700000.0 11309700000.0 11309700000.0 11309700000.0 11309700000.0 11309700000.0 11309700000.0 11309700000.0 11309700000.0 11309700000.0 11309700000.0 11309700000.0 11309700000.0 11309700000.0 11309700000.0 11309700000.0 11309700000.0 11309700000.0 11309700000.0 11309700000.0 11309700000.0 11309700000.0 11309700000.0 11309700000.0 11309700000.0 11309700000.0 11309700000.0 11309700000.0 11309700000.0 11309700000.0 11309700000.0 11309700000.0 11309700000.0 11309700000.0 11309700000.0 11309700000.0 11309700000.0 11309700000.0 11309700000.0 11309700000.0 11309700000.0 11309700000.0 11309700000.0 11309700000.0 11309700000.0 11309700000.0 11309700000.0 11309700000.0 11309700000.0 11309700000.0 11309700000.0 11309700000.0 11309700000.0 11309700000.0 11309700000.0 11309700000.0 11309700000.0 11309700000.0 11309700000.0 11309700000.0 11309700000.0 11309700000.0 11309700000.0 11309700000.0 11309700000.0 11309700000.0 11309700000.0 11309700000.0 11309700000.0 11309700000.0 11309700000.0 11309700000.0 11309700000.0 11309700000.0 11309700000.0 11309700000.0 11309700000.0 11309700000.0 11309700000.0 11309700000.0 11309700000.0 11309700000.0 11309700000.0 11309700000.0 11309700000.0 11309700000.0 11309700000.0 11309700000.0 11309700000.0 11309700000.0 11309700000.0 11309700000.0 11309700000.0 11309700000.0 11309700000.0 11309700000.0 11309700000.0 11309700000.0 11309700000.0 11309700000.0 11309700000.0 11309700000.0 11309700000.0 11309700000.0 11309700000.0 11309700000.0 11309700000.0 11309700000.0 11309700000.0 11309700000.0 11309700000.0 11309700000.0 11309700000.0 11309700000.0 11309700000.0 11309700000.0 11309700000.0 11309700000.0 11309700000.0 11309700000.0 11309700000.0 11309700000.0 11309700000.0 11309700000.0 11309700000.0 11309700000.0 11309700000.0 11309700000.0 11309700000.0 11309700000.0 11309700000.0 11309700000.0 11309700000.0 11309700000.0 11309700000.0 11309700000.0 11309700000.0 11309700000.0 11309700000.0 11309700000.0 11309700000.0 11309700000.0 11309700000.0 11309700000.0 11309700000.0 11309700000.0 11309700000.0 11309700000.0 11309700000.0 11309700000.0 11309700000.0 11309700000.0 11309700000.0 11309700000.0 11309700000.0 11309700000.0 11309700000.0 11309700000.0 11309700000.0 11309700000.0 11309700000.0 11309700000.0 11309700000.0 11309700000.0 11309700000.0 11309700000.0 11309700000.0 11309700000.0 11309700000.0 11309700000.0 11309700000.0 11309700000.0 11309700000.0 11309700000.0 11309700000.0 11309700000.0 11309700000.0 11309700000.0 11309700000.0 11309700000.0 11309700000.0 11309700000.0 11309700000.0 11309700000.0 11309700000.0 11309700000.0 11309700000.0 11309700000.0 11309700000.0 11309700000.0 11309700000.0 11309700000.0 11309700000.0 11309700000.0 11309700000.0 11309700000.0 11309700000.0 11309700000.0 11309700000.0 11309700000.0 11309700000.0 11309700000.0 11309700000.0 11309700000.0 11309700000.0 11309700000.0 11309700000.0 11309700000.0 11309700000.0 11309700000.0 11309700000.0 11309700000.0 11309700000.0 11309700000.0 11309700000.0 11309700000.0 11309700000.0 11309700000.0 11309700000.0 11309700000.0 11309700000.0 11309700000.0 11309700000.0 11309700000.0 11309700000.0 11309700000.0 11309700000.0 11309700000.0 11309700000.0 11309700000.0 11309700000.0 11309700000.0 11309700000.0 11309700000.0 11309700000.0 11309700000.0 11309700000.0 11309700000.0 11309700000.0 11309700000.0 11309700000.0 11309700000.0 11309700000.0 11309700000.0 11309700000.0 11309700000.0 11309700000.0 11309700000.0 11309700000.0 11309700000.0 11309700000.0 11309700000.0 11309700000.0 11309700000.0 11309700000.0 11309700000.0 11309700000.0 11309700000.0 11309700000.0 11309700000.0 11309700000.0 11309700000.0 11309700000.0 11309700000.0 11309700000.0 11309700000.0 11309700000.0 11309700000.0 11309700000.0 11309700000.0 11309700000.0 11309700000.0 11309700000.0 11309700000.0 11309700000.0 11309700000.0 11309700000.0 11309700000.0 11309700000.0 11309700000.0 11309700000.0 11309700000.0 11309700000.0 11309700000.0 11309700000.0 11309700000.0 11309700000.0 11309700000.0 11309700000.0 11309700000.0 11309700000.0 11309700000.0 11309700000.0 11309700000.0 11309700000.0 11309700000.0 11309700000.0 11309700000.0 11309700000.0 11309700000.0 11309700000.0 11309700000.0 11309700000.0 11309700000.0 11309700000.0 11309700000.0 11309700000.0 11309700000.0 11309700000.0 11309700000.0 11309700000.0 11309700000.0 11309700000.0 11309700000.0 11309700000.0 11309700000.0 11309700000.0 11309700000.0 11309700000.0 11309700000.0 11309700000.0 11309700000.0 11309700000.0 11309700000.0 11309700000.0 11309700000.0 11309700000.0 11309700000.0 11309700000.0 11309700000.0 11309700000.0 11309700000.0 11309700000.0 11309700000.0 11309700000.0 11309700000.0 11309700000.0 11309700000.0 11309700000.0 11309700000.0 11309700000.0 11309700000.0 11309700000.0 11309700000.0 11309700000.0 11309700000.0 11309700000.0 11309700000.0 11309700000.0 11309700000.0 11309700000.0 11309700000.0 11309700000.0 11309700000.0 11309700000.0 11309700000.0 11309700000.0 11309700000.0 11309700000.0 11309700000.0 11309700000.0 11309700000.0 11309700000.0 11309700000.0 11309700000.0 11309700000.0 11309700000.0 11309700000.0 11309700000.0 11309700000.0 11309700000.0 11309700000.0 11309700000.0 11309700000.0 11309700000.0 11309700000.0 11309700000.0 11309700000.0 11309700000.0 11309700000.0 11309700000.0 11309700000.0 11309700000.0 11309700000.0 11309700000.0 11309700000.0 11309700000.0 11309700000.0 11309700000.0 11309700000.0 11309700000.0 11309700000.0 11309700000.0 11309700000.0 11309700000.0 11309700000.0 11309700000.0 11309700000.0 11309700000.0 11309700000.0 11309700000.0 11309700000.0 11309700000.0 11309700000.0 11309700000.0 11309700000.0 11309700000.0 11309700000.0 11309700000.0 11309700000.0 11309700000.0 11309700000.0 11309700000.0 11309700000.0 11309700000.0 11309700000.0 11309700000.0 11309700000.0 11309700000.0 11309700000.0 11309700000.0 11309700000.0 11309700000.0 11309700000.0 11309700000.0 11309700000.0 11309700000.0 11309700000.0 11309700000.0 11309700000.0 11309700000.0 11309700000.0 11309700000.0 11309700000.0 11309700000.0 11309700000.0 11309700000.0 11309700000.0 11309700000.0 11309700000.0 11309700000.0 11309700000.0 11309700000.0 11309700000.0 11309700000.0 11309700000.0 11309700000.0 11309700000.0 11309700000.0 11309700000.0 11309700000.0 11309700000.0 11309700000.0 11309700000.0 11309700000.0 11309700000.0 11309700000.0 11309700000.0 11309700000.0 11309700000.0 11309700000.0 11309700000.0 11309700000.0 11309700000.0 11309700000.0 11309700000.0 11309700000.0 11309700000.0 11309700000.0 11309700000.0 11309700000.0 11309700000.0 11309700000.0 11309700000.0 11309700000.0 11309700000.0 11309700000.0 11309700000.0 11309700000.0 11309700000.0 11309700000.0 11309700000.0 11309700000.0 11309700000.0 11309700000.0 11309700000.0 11309700000.0 11309700000.0 11309700000.0 11309700000.0 11309700000.0 11309700000.0 11309700000.0 11309700000.0 11309700000.0 11309700000.0 11309700000.0 11309700000.0 11309700000.0 11309700000.0 11309700000.0 11309700000.0 11309700000.0 11309700000.0 11309700000.0 11309700000.0 11309700000.0 11309700000.0 11309700000.0 11309700000.0 11309700000.0 11309700000.0 11309700000.0 11309700000.0 11309700000.0 11309700000.0 11309700000.0 11309700000.0 11309700000.0 11309700000.0 11309700000.0 11309700000.0 11309700000.0 11309700000.0 11309700000.0 11309700000.0 11309700000.0 11309700000.0 11309700000.0 11309700000.0 11309700000.0 11309700000.0 11309700000.0 11309700000.0 11309700000.0 11309700000.0 11309700000.0 11309700000.0 11309700000.0 11309700000.0 11309700000.0 11309700000.0 11309700000.0 11309700000.0 11309700000.0 11309700000.0 11309700000.0 11309700000.0 11309700000.0 11309700000.0 11309700000.0 11309700000.0 11309700000.0 11309700000.0 11309700000.0 11309700000.0 11309700000.0 11309700000.0 11309700000.0 11309700000.0 11309700000.0 11309700000.0 11309700000.0 11309700000.0 11309700000.0 11309700000.0 11309700000.0 11309700000.0 11309700000.0 11309700000.0 11309700000.0 11309700000.0 11309700000.0 11309700000.0 11309700000.0 11309700000.0 11309700000.0 11309700000.0 11309700000.0 11309700000.0 11309700000.0 11309700000.0 11309700000.0 11309700000.0 11309700000.0 11309700000.0 11309700000.0 11309700000.0 11309700000.0 11309700000.0 11309700000.0 11309700000.0 11309700000.0 11309700000.0 11309700000.0 11309700000.0 11309700000.0 11309700000.0 11309700000.0 11309700000.0 11309700000.0 11309700000.0 11309700000.0 11309700000.0 11309700000.0 11309700000.0 11309700000.0 11309700000.0 11309700000.0 11309700000.0 11309700000.0 11309700000.0 11309700000.0 11309700000.0 11309700000.0 11309700000.0 11309700000.0 11309700000.0 11309700000.0 11309700000.0 11309700000.0 11309700000.0 11309700000.0 11309700000.0 11309700000.0 11309700000.0 11309700000.0 11309700000.0 11309700000.0 11309700000.0 11309700000.0 11309700000.0 11309700000.0 11309700000.0 11309700000.0 11309700000.0 11309700000.0 11309700000.0 11309700000.0 11309700000.0 11309700000.0 11309700000.0 11309700000.0 11309700000.0 11309700000.0 11309700000.0 11309700000.0 11309700000.0 11309700000.0 11309700000.0 11309700000.0 11309700000.0 11309700000.0 11309700000.0 11309700000.0 11309700000.0 11309700000.0 11309700000.0 11309700000.0 11309700000.0 11309700000.0 11309700000.0 11309700000.0 11309700000.0 11309700000.0 11309700000.0 11309700000.0 11309700000.0 11309700000.0 11309700000.0 11309700000.0 11309700000.0 11309700000.0 11309700000.0 11309700000.0 11309700000.0 11309700000.0 11309700000.0 11309700000.0 11309700000.0 11309700000.0 11309700000.0 11309700000.0 11309700000.0 11309700000.0 11309700000.0 11309700000.0 11309700000.0 11309700000.0 11309700000.0 11309700000.0 11309700000.0 11309700000.0 11309700000.0 11309700000.0 11309700000.0 11309700000.0 11309700000.0 11309700000.0 11309700000.0 11309700000.0 11309700000.0 11309700000.0 11309700000.0 11309700000.0 11309700000.0 11309700000.0 11309700000.0 11309700000.0 11309700000.0 11309700000.0 11309700000.0 11309700000.0 11309700000.0 11309700000.0 11309700000.0 11309700000.0 11309700000.0 11309700000.0 11309700000.0 11309700000.0 11309700000.0 11309700000.0 11309700000.0 11309700000.0 11309700000.0 11309700000.0 11309700000.0 11309700000.0 11309700000.0 11309700000.0 11309700000.0 11309700000.0 11309700000.0 11309700000.0 11309700000.0 11309700000.0 11309700000.0 11309700000.0 11309700000.0 11309700000.0 11309700000.0 11309700000.0 11309700000.0 11309700000.0 11309700000.0 11309700000.0 11309700000.0 11309700000.0 11309700000.0 11309700000.0 11309700000.0 11309700000.0 11309700000.0 11309700000.0 11309700000.0 11309700000.0 11309700000.0 11309700000.0 11309700000.0 11309700000.0 11309700000.0 11309700000.0 11309700000.0 11309700000.0 11309700000.0 11309700000.0 11309700000.0 11309700000.0 11309700000.0 11309700000.0 11309700000.0 11309700000.0 11309700000.0 11309700000.0 11309700000.0 11309700000.0 11309700000.0 11309700000.0 11309700000.0 11309700000.0 11309700000.0 11309700000.0 11309700000.0 11309700000.0 11309700000.0 11309700000.0 11309700000.0 11309700000.0 11309700000.0 11309700000.0 11309700000.0 11309700000.0 11309700000.0 11309700000.0 11309700000.0 11309700000.0 11309700000.0 11309700000.0 11309700000.0 11309700000.0 11309700000.0 11309700000.0 11309700000.0 11309700000.0 11309700000.0 11309700000.0 11309700000.0 11309700000.0 11309700000.0 11309700000.0 11309700000.0 11309700000.0 11309700000.0 11309700000.0 11309700000.0 11309700000.0 11309700000.0 11309700000.0 11309700000.0 11309700000.0 11309700000.0 11309700000.0 11309700000.0 11309700000.0 11309700000.0 11309700000.0 11309700000.0 11309700000.0 11309700000.0 11309700000.0 11309700000.0 11309700000.0 11309700000.0 11309700000.0 11309700000.0 11309700000.0 11309700000.0 11309700000.0 11309700000.0 11309700000.0 11309700000.0 11309700000.0 11309700000.0 11309700000.0 11309700000.0 11309700000.0 11309700000.0 11309700000.0 11309700000.0 11309700000.0 11309700000.0 11309700000.0 11309700000.0 11309700000.0 11309700000.0 11309700000.0 11309700000.0 11309700000.0 11309700000.0 11309700000.0 11309700000.0 11309700000.0 11309700000.0 11309700000.0 11309700000.0 11309700000.0 11309700000.0 11309700000.0 11309700000.0 11309700000.0 11309700000.0 11309700000.0 11309700000.0 11309700000.0 11309700000.0 11309700000.0 11309700000.0 11309700000.0 11309700000.0 11309700000.0 11309700000.0 11309700000.0 11309700000.0 11309700000.0 11309700000.0 11309700000.0 11309700000.0 11309700000.0 11309700000.0 11309700000.0 11309700000.0 11309700000.0 11309700000.0 11309700000.0 11309700000.0 11309700000.0 11309700000.0 11309700000.0 11309700000.0 11309700000.0 11309700000.0 11309700000.0 11309700000.0 11309700000.0 11309700000.0 11309700000.0 11309700000.0 11309700000.0 11309700000.0 11309700000.0 11309700000.0 11309700000.0 11309700000.0 11309700000.0 11309700000.0 11309700000.0 11309700000.0 11309700000.0 11309700000.0 11309700000.0 11309700000.0 11309700000.0 11309700000.0 11309700000.0 11309700000.0 11309700000.0 11309700000.0 11309700000.0 11309700000.0 11309700000.0 11309700000.0 11309700000.0 11309700000.0 11309700000.0 11309700000.0 11309700000.0 11309700000.0 11309700000.0 11309700000.0 11309700000.0 11309700000.0 11309700000.0 11309700000.0 11309700000.0 11309700000.0 11309700000.0 11309700000.0 11309700000.0 11309700000.0 11309700000.0 11309700000.0 11309700000.0 11309700000.0 11309700000.0 11309700000.0 11309700000.0 11309700000.0 11309700000.0 11309700000.0 11309700000.0 11309700000.0 11309700000.0 11309700000.0 11309700000.0 11309700000.0 11309700000.0 11309700000.0 
SCALARS Velocity float 1
LOOKUP_TABLE default
0.332934 0.955054 0.924816 0.895079 0.900666 0.898961 0.899491 0.8991 0.899462 0.899438 0.897807 0.896131 0.895259 0.89491 0.894745 0.894616 0.894493 0.894378 0.894274 0.894188 0.894123 0.894068 0.894021 0.893981 0.893948 0.893921 0.893897 0.893876 0.893864 0.893855 0.893847 0.893842 0.893838 0.893835 0.893833 0.893832 0.893833 0.893835 0.893838 0.893842 0.893847 0.893855 0.893864 0.893876 0.893897 0.893921 0.893948 0.893981 0.894021 0.894068 0.894123 0.894188 0.894274 0.894378 0.894493 0.894616 0.894745 0.89491 0.895259 0.896131 0.897807 0.899438 0.899462 0.8991 0.899491 0.898961 0.900666 0.895079 0.924816 0.955054 0.332934 0.291939 0.291939 0.16575 0.0926042 0.188036 0.397341 0.986274 0.947147 0.912406 0.912609 0.908567 0.906908 0.90455 0.901031 0.898531 0.897265 0.896244 0.895282 0.894656 0.894368 0.894263 0.894226 0.894199 0.894165 0.89413 0.894087 0.894042 0.893999 0.893959 0.893927 0.893899 0.893878 0.893866 0.893855 0.893846 0.89384 0.893837 0.893834 0.893833 0.893832 0.893832 0.893832 0.893833 0.893834 0.893837 0.89384 0.893846 0.893855 0.893866 0.893878 0.893899 0.893927 0.893959 0.893999 0.894042 0.894087 0.89413 0.894165 0.894199 0.894226 0.894263 0.894368 0.894656 0.895282 0.896244 0.897265 0.898531 0.901031 0.90455 0.906908 0.908567 0.912609 0.912406 0.947147 0.986274 0.397341 0.188036 0.0926042 0.16575 0.41318 0.951005 0.900627 0.897271 0.893475 0.8935 0.894773 0.896011 0.896154 0.895716 0.895321 0.895039 0.894767 0.894507 0.894284 0.89411 0.893993 0.893925 0.893888 0.893865 0.893847 0.893836 0.893829 0.893827 0.893825 0.893825 0.893828 0.89383 0.893831 0.893831 0.893832 0.893832 0.893832 0.893832 0.893832 0.893832 0.893832 0.893832 0.893832 0.893832 0.893832 0.893831 0.893831 0.89383 0.893828 0.893825 0.893825 0.893827 0.893829 0.893836 0.893847 0.893865 0.893888 0.893925 0.893993 0.89411 0.894284 0.894507 0.894767 0.895039 0.895321 0.895716 0.896154 0.896011 0.894773 0.8935 0.893475 0.897271 0.900627 0.951005 0.41318 0.234922 0.362074 0.362074 0.234922 1.04769 1.01252 0.566939 0.948833 0.917164 0.899694 0.900261 0.897734 0.89465 0.893895 0.893834 0.893833 0.893834 0.893835 0.893839 0.893843 0.893845 0.893846 0.893846 0.893847 0.893849 0.893843 0.893835 0.89383 0.893827 0.893826 0.893826 0.893828 0.89383 0.893831 0.893831 0.893831 0.893832 0.893832 0.893832 0.893832 0.893832 0.893832 0.893832 0.893832 0.893832 0.893832 0.893832 0.893831 0.893831 0.893831 0.89383 0.893828 0.893826 0.893826 0.893827 0.89383 0.893835 0.893843 0.893849 0.893847 0.893846 0.893846 0.893845 0.893843 0.893839 0.893835 0.893834 0.893833 0.893834 0.893895 0.89465 0.897734 0.900261 0.899694 0.917164 0.948833 0.566939 1.01252 1.04769 0.629287 0.897177 0.893795 0.89312 0.895624 0.895149 0.894778 0.894506 0.894309 0.894163 0.894053 0.893974 0.893919 0.893882 0.893862 0.893852 0.893848 0.893846 0.893843 0.893835 0.89383 0.893827 0.893826 0.893826 0.893828 0.89383 0.893831 0.893831 0.893831 0.893832 0.893832 0.893832 0.893832 0.893832 0.893832 0.893832 0.893832 0.893832 0.893832 0.893832 0.893832 0.893832 0.893831 0.893831 0.893831 0.89383 0.893828 0.893826 0.893826 0.893827 0.89383 0.893835 0.893843 0.893846 0.893848 0.893852 0.893862 0.893882 0.893919 0.893974 0.894053 0.894163 0.894309 0.894506 0.894778 0.895149 0.895624 0.89312 0.893795 0.897177 0.629287 0.744524 0.967605 0.967605 0.744524 0.890321 0.918922 0.731528 0.886156 0.894147 0.893846 0.894093 0.894003 0.893936 0.893895 0.893874 0.893867 0.893862 0.893855 0.893849 0.893846 0.893844 0.893843 0.893842 0.89384 0.893835 0.89383 0.893827 0.893826 0.893826 0.893828 0.893829 0.89383 0.893831 0.893831 0.893832 0.893832 0.893832 0.893832 0.893832 0.893832 0.893832 0.893832 0.893832 0.893832 0.893832 0.893832 0.893832 0.893832 0.893832 0.893831 0.893831 0.89383 0.893829 0.893828 0.893826 0.893826 0.893827 0.89383 0.893835 0.89384 0.893842 0.893843 0.893844 0.893846 0.893849 0.893855 0.893862 0.893867 0.893874 0.893895 0.893936 0.894003 0.894093 0.893846 0.894147 0.886156 0.731528 0.918922 0.890321 0.786618 0.881361 0.894204 0.894129 0.894052 0.893963 0.89391 0.89388 0.893866 0.893859 0.893851 0.893846 0.893843 0.893842 0.893841 0.893839 0.893837 0.893834 0.893829 0.893827 0.893826 0.893826 0.893827 0.893829 0.89383 0.893831 0.893831 0.893832 0.893832 0.893832 0.893832 0.893832 0.893832 0.893832 0.893832 0.893832 0.893832 0.893832 0.893832 0.893832 0.893832 0.893832 0.893832 0.893832 0.893831 0.893831 0.89383 0.893829 0.893827 0.893826 0.893826 0.893827 0.893829 0.893834 0.893837 0.893839 0.893841 0.893842 0.893843 0.893846 0.893851 0.893859 0.893866 0.89388 0.89391 0.893963 0.894052 0.894129 0.894204 0.881361 0.786618 0.934427 0.879648 0.879648 0.934427 0.928879 0.853295 0.836645 0.881804 0.894091 0.893999 0.893934 0.893901 0.893875 0.893857 0.893852 0.893845 0.893841 0.893839 0.893838 0.893837 0.893836 0.893834 0.893832 0.893829 0.893826 0.893826 0.893826 0.893827 0.893829 0.89383 0.893831 0.893831 0.893832 0.893832 0.893832 0.893832 0.893832 0.893832 0.893832 0.893832 0.893832 0.893832 0.893832 0.893832 0.893832 0.893832 0.893832 0.893832 0.893832 0.893832 0.893832 0.893831 0.893831 0.89383 0.893829 0.893827 0.893826 0.893826 0.893826 0.893829 0.893832 0.893834 0.893836 0.893837 0.893838 0.893839 0.893841 0.893845 0.893852 0.893857 0.893875 0.893901 0.893934 0.893999 0.894091 0.881804 0.836645 0.853295 0.928879 0.917111 0.835893 0.875021 0.884529 0.894017 0.893907 0.89388 0.893856 0.893834 0.893836 0.893837 0.893834 0.893834 0.893834 0.893834 0.893833 0.893832 0.89383 0.893828 0.893826 0.893826 0.893826 0.893827 0.893829 0.89383 0.893831 0.893831 0.893832 0.893832 0.893832 0.893832 0.893832 0.893832 0.893832 0.893832 0.893832 0.893832 0.893832 0.893832 0.893832 0.893832 0.893832 0.893832 0.893832 0.893832 0.893832 0.893832 0.893832 0.893831 0.893831 0.89383 0.893829 0.893827 0.893826 0.893826 0.893826 0.893828 0.89383 0.893832 0.893833 0.893834 0.893834 0.893834 0.893834 0.893837 0.893836 0.893834 0.893856 0.89388 0.893907 0.894017 0.884529 0.875021 0.835893 0.917111 0.90526 0.825484 0.890294 0.88698 0.89394 0.893839 0.893824 0.893806 0.893809 0.893823 0.893826 0.893827 0.893829 0.89383 0.89383 0.893829 0.893828 0.893827 0.893826 0.893825 0.893826 0.893827 0.893829 0.89383 0.893831 0.893831 0.893832 0.893832 0.893832 0.893832 0.893832 0.893832 0.893832 0.893832 0.893832 0.893832 0.893832 0.893832 0.893832 0.893832 0.893832 0.893832 0.893832 0.893832 0.893832 0.893832 0.893832 0.893832 0.893832 0.893831 0.893831 0.89383 0.893829 0.893827 0.893826 0.893825 0.893826 0.893827 0.893828 0.893829 0.89383 0.89383 0.893829 0.893827 0.893826 0.893823 0.893809 0.893806 0.893824 0.893839 0.89394 0.88698 0.890294 0.825484 0.90526 0.894446 0.821085 0.893751 0.88876 0.893865 0.893777 0.893772 0.89378 0.893802 0.893815 0.89382 0.893823 0.893825 0.893826 0.893826 0.893826 0.893826 0.893825 0.893825 0.893826 0.893827 0.893829 0.89383 0.893831 0.893831 0.893832 0.893832 0.893832 0.893832 0.893832 0.893832 0.893832 0.893832 0.893832 0.893832 0.893832 0.893832 0.893832 0.893832 0.893832 0.893832 0.893832 0.893832 0.893832 0.893832 0.893832 0.893832 0.893832 0.893832 0.893832 0.893831 0.893831 0.89383 0.893829 0.893827 0.893826 0.893825 0.893825 0.893826 0.893826 0.893826 0.893826 0.893825 0.893823 0.89382 0.893815 0.893802 0.89378 0.893772 0.893777 0.893865 0.88876 0.893751 0.821085 0.894446 0.885345 0.821697 0.894096 0.890093 0.893798 0.893728 0.893748 0.893777 0.8938 0.89381 0.893816 0.893819 0.893822 0.893823 0.893823 0.893824 0.893824 0.893825 0.893826 0.893827 0.893828 0.89383 0.893831 0.893831 0.893832 0.893832 0.893832 0.893832 0.893832 0.893832 0.893832 0.893832 0.893832 0.893832 0.893832 0.893832 0.893832 0.893832 0.893832 0.893832 0.893832 0.893832 0.893832 0.893832 0.893832 0.893832 0.893832 0.893832 0.893832 0.893832 0.893832 0.893831 0.893831 0.89383 0.893828 0.893827 0.893826 0.893825 0.893824 0.893824 0.893823 0.893823 0.893822 0.893819 0.893816 0.89381 0.8938 0.893777 0.893748 0.893728 0.893798 0.890093 0.894096 0.821697 0.885345 0.878618 0.825822 0.893949 0.891139 0.893748 0.89371 0.893749 0.893781 0.893798 0.893807 0.893813 0.893817 0.893819 0.893821 0.893822 0.893823 0.893824 0.893825 0.893827 0.893828 0.89383 0.893831 0.893831 0.893832 0.893832 0.893832 0.893832 0.893832 0.893832 0.893832 0.893832 0.893832 0.893832 0.893832 0.893832 0.893832 0.893832 0.893832 0.893832 0.893832 0.893832 0.893832 0.893832 0.893832 0.893832 0.893832 0.893832 0.893832 0.893832 0.893832 0.893832 0.893832 0.893831 0.893831 0.89383 0.893828 0.893827 0.893825 0.893824 0.893823 0.893822 0.893821 0.893819 0.893817 0.893813 0.893807 0.893798 0.893781 0.893749 0.89371 0.893748 0.891139 0.893949 0.825822 0.878618 0.87459 0.832237 0.8938 0.891953 0.893721 0.893717 0.893758 0.893784 0.893798 0.893806 0.893812 0.893815 0.893818 0.89382 0.893822 0.893824 0.893825 0.893827 0.893828 0.893829 0.89383 0.893831 0.893832 0.893832 0.893832 0.893832 0.893832 0.893832 0.893832 0.893832 0.893832 0.893832 0.893832 0.893832 0.893832 0.893832 0.893832 0.893832 0.893832 0.893832 0.893832 0.893832 0.893832 0.893832 0.893832 0.893832 0.893832 0.893832 0.893832 0.893832 0.893832 0.893832 0.893832 0.893831 0.89383 0.893829 0.893828 0.893827 0.893825 0.893824 0.893822 0.89382 0.893818 0.893815 0.893812 0.893806 0.893798 0.893784 0.893758 0.893717 0.893721 0.891953 0.8938 0.832237 0.87459 0.873026 0.840102 0.893693 0.892565 0.893715 0.893732 0.893766 0.893786 0.893798 0.893806 0.893811 0.893815 0.893818 0.893821 0.893823 0.893825 0.893826 0.893828 0.893829 0.89383 0.893831 0.893832 0.893832 0.893832 0.893832 0.893832 0.893832 0.893832 0.893832 0.893832 0.893832 0.893832 0.893832 0.893832 0.893832 0.893832 0.893832 0.893832 0.893832 0.893832 0.893832 0.893832 0.893832 0.893832 0.893832 0.893832 0.893832 0.893832 0.893832 0.893832 0.893832 0.893832 0.893832 0.893832 0.893831 0.89383 0.893829 0.893828 0.893826 0.893825 0.893823 0.893821 0.893818 0.893815 0.893811 0.893806 0.893798 0.893786 0.893766 0.893732 0.893715 0.892565 0.893693 0.840102 0.873026 0.873313 0.848636 0.893618 0.893006 0.893719 0.893746 0.893772 0.893788 0.893799 0.893806 0.893811 0.893816 0.893819 0.893822 0.893824 0.893826 0.893828 0.893829 0.89383 0.893831 0.893831 0.893832 0.893832 0.893832 0.893832 0.893832 0.893832 0.893832 0.893832 0.893832 0.893832 0.893832 0.893832 0.893832 0.893832 0.893832 0.893832 0.893832 0.893832 0.893832 0.893832 0.893832 0.893832 0.893832 0.893832 0.893832 0.893832 0.893832 0.893832 0.893832 0.893832 0.893832 0.893832 0.893832 0.893831 0.893831 0.89383 0.893829 0.893828 0.893826 0.893824 0.893822 0.893819 0.893816 0.893811 0.893806 0.893799 0.893788 0.893772 0.893746 0.893719 0.893006 0.893618 0.848636 0.873313 0.874765 0.857082 0.893565 0.893309 0.893727 0.893756 0.893777 0.893791 0.893801 0.893808 0.893813 0.893817 0.893821 0.893823 0.893826 0.893827 0.893829 0.89383 0.893831 0.893831 0.893832 0.893832 0.893832 0.893832 0.893832 0.893832 0.893832 0.893832 0.893832 0.893832 0.893832 0.893832 0.893832 0.893832 0.893832 0.893832 0.893832 0.893832 0.893832 0.893832 0.893832 0.893832 0.893832 0.893832 0.893832 0.893832 0.893832 0.893832 0.893832 0.893832 0.893832 0.893832 0.893832 0.893832 0.893832 0.893831 0.893831 0.89383 0.893829 0.893827 0.893826 0.893823 0.893821 0.893817 0.893813 0.893808 0.893801 0.893791 0.893777 0.893756 0.893727 0.893309 0.893565 0.857082 0.874765 0.876791 0.864854 0.893534 0.893505 0.893736 0.893764 0.893782 0.893794 0.893803 0.89381 0.893815 0.893819 0.893822 0.893825 0.893827 0.893829 0.89383 0.893831 0.893831 0.893832 0.893832 0.893832 0.893832 0.893832 0.893832 0.893832 0.893832 0.893832 0.893832 0.893832 0.893832 0.893832 0.893832 0.893832 0.893832 0.893832 0.893832 0.893832 0.893832 0.893832 0.893832 0.893832 0.893832 0.893832 0.893832 0.893832 0.893832 0.893832 0.893832 0.893832 0.893832 0.893832 0.893832 0.893832 0.893832 0.893832 0.893831 0.893831 0.89383 0.893829 0.893827 0.893825 0.893822 0.893819 0.893815 0.89381 0.893803 0.893794 0.893782 0.893764 0.893736 0.893505 0.893534 0.864854 0.876791 0.878961 0.871599 0.893521 0.893626 0.893746 0.893771 0.893787 0.893798 0.893807 0.893813 0.893818 0.893822 0.893824 0.893827 0.893828 0.89383 0.893831 0.893831 0.893832 0.893832 0.893832 0.893832 0.893832 0.893832 0.893832 0.893832 0.893832 0.893832 0.893832 0.893832 0.893832 0.893832 0.893832 0.893832 0.893832 0.893832 0.893832 0.893832 0.893832 0.893832 0.893832 0.893832 0.893832 0.893832 0.893832 0.893832 0.893832 0.893832 0.893832 0.893832 0.893832 0.893832 0.893832 0.893832 0.893832 0.893832 0.893832 0.893831 0.893831 0.89383 0.893828 0.893827 0.893824 0.893822 0.893818 0.893813 0.893807 0.893798 0.893787 0.893771 0.893746 0.893626 0.893521 0.871599 0.878961 0.881015 0.87718 0.893523 0.893698 0.893756 0.893779 0.893793 0.893803 0.89381 0.893816 0.89382 0.893824 0.893826 0.893828 0.89383 0.893831 0.893831 0.893832 0.893832 0.893832 0.893832 0.893832 0.893832 0.893832 0.893832 0.893832 0.893832 0.893832 0.893832 0.893832 0.893832 0.893832 0.893832 0.893832 0.893832 0.893832 0.893832 0.893832 0.893832 0.893832 0.893832 0.893832 0.893832 0.893832 0.893832 0.893832 0.893832 0.893832 0.893832 0.893832 0.893832 0.893832 0.893832 0.893832 0.893832 0.893832 0.893832 0.893832 0.893831 0.893831 0.89383 0.893828 0.893826 0.893824 0.89382 0.893816 0.89381 0.893803 0.893793 0.893779 0.893756 0.893698 0.893523 0.87718 0.881015 0.882833 0.881619 0.893539 0.89374 0.893766 0.893786 0.893798 0.893807 0.893814 0.893819 0.893823 0.893826 0.893828 0.893829 0.89383 0.893831 0.893831 0.893832 0.893832 0.893832 0.893832 0.893832 0.893832 0.893832 0.893832 0.893832 0.893832 0.893832 0.893832 0.893832 0.893832 0.893832 0.893832 0.893832 0.893832 0.893832 0.893832 0.893832 0.893832 0.893832 0.893832 0.893832 0.893832 0.893832 0.893832 0.893832 0.893832 0.893832 0.893832 0.893832 0.893832 0.893832 0.893832 0.893832 0.893832 0.893832 0.893832 0.893832 0.893831 0.893831 0.89383 0.893829 0.893828 0.893826 0.893823 0.893819 0.893814 0.893807 0.893798 0.893786 0.893766 0.89374 0.893539 0.881619 0.882833 0.884391 0.88504 0.893563 0.893764 0.893775 0.893793 0.893804 0.893812 0.893818 0.893822 0.893825 0.893828 0.893829 0.89383 0.893831 0.893831 0.893832 0.893832 0.893832 0.893832 0.893832 0.893832 0.893832 0.893832 0.893832 0.893832 0.893832 0.893832 0.893832 0.893832 0.893832 0.893832 0.893832 0.893832 0.893832 0.893832 0.893832 0.893832 0.893832 0.893832 0.893832 0.893832 0.893832 0.893832 0.893832 0.893832 0.893832 0.893832 0.893832 0.893832 0.893832 0.893832 0.893832 0.893832 0.893832 0.893832 0.893832 0.893832 0.893832 0.893831 0.893831 0.89383 0.893829 0.893828 0.893825 0.893822 0.893818 0.893812 0.893804 0.893793 0.893775 0.893764 0.893563 0.88504 0.884391 0.885713 0.887605 0.893593 0.89378 0.893785 0.8938 0.893809 0.893816 0.893821 0.893825 0.893827 0.893829 0.89383 0.893831 0.893831 0.893832 0.893832 0.893832 0.893832 0.893832 0.893832 0.893832 0.893832 0.893832 0.893832 0.893832 0.893832 0.893832 0.893832 0.893832 0.893832 0.893832 0.893832 0.893832 0.893832 0.893832 0.893832 0.893832 0.893832 0.893832 0.893832 0.893832 0.893832 0.893832 0.893832 0.893832 0.893832 0.893832 0.893832 0.893832 0.893832 0.893832 0.893832 0.893832 0.893832 0.893832 0.893832 0.893832 0.893832 0.893832 0.893831 0.893831 0.89383 0.893829 0.893827 0.893825 0.893821 0.893816 0.893809 0.8938 0.893785 0.89378 0.893593 0.887605 0.885713 0.886842 0.889485 0.893626 0.893791 0.893794 0.893806 0.893814 0.89382 0.893824 0.893827 0.893829 0.89383 0.893831 0.893831 0.893832 0.893832 0.893832 0.893832 0.893832 0.893832 0.893832 0.893832 0.893832 0.893832 0.893832 0.893832 0.893832 0.893832 0.893832 0.893832 0.893832 0.893832 0.893832 0.893832 0.893832 0.893832 0.893832 0.893832 0.893832 0.893832 0.893832 0.893832 0.893832 0.893832 0.893832 0.893832 0.893832 0.893832 0.893832 0.893832 0.893832 0.893832 0.893832 0.893832 0.893832 0.893832 0.893832 0.893832 0.893832 0.893832 0.893832 0.893831 0.893831 0.89383 0.893829 0.893827 0.893824 0.89382 0.893814 0.893806 0.893794 0.893791 0.893626 0.889485 0.886842 0.88782 0.890839 0.893659 0.893799 0.893801 0.893812 0.893818 0.893823 0.893826 0.893828 0.89383 0.893831 0.893831 0.893832 0.893832 0.893832 0.893832 0.893832 0.893832 0.893832 0.893832 0.893832 0.893832 0.893832 0.893832 0.893832 0.893832 0.893832 0.893832 0.893832 0.893832 0.893832 0.893832 0.893832 0.893832 0.893832 0.893832 0.893832 0.893832 0.893832 0.893832 0.893832 0.893832 0.893832 0.893832 0.893832 0.893832 0.893832 0.893832 0.893832 0.893832 0.893832 0.893832 0.893832 0.893832 0.893832 0.893832 0.893832 0.893832 0.893832 0.893832 0.893832 0.893831 0.893831 0.89383 0.893828 0.893826 0.893823 0.893818 0.893812 0.893801 0.893799 0.893659 0.890839 0.88782 0.888681 0.891797 0.893689 0.893806 0.893808 0.893817 0.893822 0.893825 0.893828 0.893829 0.89383 0.893831 0.893831 0.893832 0.893832 0.893832 0.893832 0.893832 0.893832 0.893832 0.893832 0.893832 0.893832 0.893832 0.893832 0.893832 0.893832 0.893832 0.893832 0.893832 0.893832 0.893832 0.893832 0.893832 0.893832 0.893832 0.893832 0.893832 0.893832 0.893832 0.893832 0.893832 0.893832 0.893832 0.893832 0.893832 0.893832 0.893832 0.893832 0.893832 0.893832 0.893832 0.893832 0.893832 0.893832 0.893832 0.893832 0.893832 0.893832 0.893832 0.893832 0.893832 0.893831 0.893831 0.89383 0.893829 0.893828 0.893825 0.893822 0.893817 0.893808 0.893806 0.893689 0.891797 0.888681 0.88945 0.892466 0.893717 0.893812 0.893814 0.89382 0.893824 0.893827 0.893829 0.89383 0.893831 0.893831 0.893832 0.893832 0.893832 0.893832 0.893832 0.893832 0.893832 0.893832 0.893832 0.893832 0.893832 0.893832 0.893832 0.893832 0.893832 0.893832 0.893832 0.893832 0.893832 0.893832 0.893832 0.893832 0.893832 0.893832 0.893832 0.893832 0.893832 0.893832 0.893832 0.893832 0.893832 0.893832 0.893832 0.893832 0.893832 0.893832 0.893832 0.893832 0.893832 0.893832 0.893832 0.893832 0.893832 0.893832 0.893832 0.893832 0.893832 0.893832 0.893832 0.893832 0.893832 0.893831 0.893831 0.89383 0.893829 0.893827 0.893824 0.89382 0.893814 0.893812 0.893717 0.892466 0.88945 0.890142 0.892928 0.893742 0.893816 0.893819 0.893824 0.893827 0.893829 0.89383 0.893831 0.893831 0.893832 0.893832 0.893832 0.893832 0.893832 0.893832 0.893832 0.893832 0.893832 0.893832 0.893832 0.893832 0.893832 0.893832 0.893832 0.893832 0.893832 0.893832 0.893832 0.893832 0.893832 0.893832 0.893832 0.893832 0.893832 0.893832 0.893832 0.893832 0.893832 0.893832 0.893832 0.893832 0.893832 0.893832 0.893832 0.893832 0.893832 0.893832 0.893832 0.893832 0.893832 0.893832 0.893832 0.893832 0.893832 0.893832 0.893832 0.893832 0.893832 0.893832 0.893832 0.893832 0.893832 0.893831 0.893831 0.89383 0.893829 0.893827 0.893824 0.893819 0.893816 0.893742 0.892928 0.890142 0.890761 0.893242 0.893763 0.89382 0.893822 0.893826 0.893828 0.89383 0.893831 0.893831 0.893832 0.893832 0.893832 0.893832 0.893832 0.893832 0.893832 0.893832 0.893832 0.893832 0.893832 0.893832 0.893832 0.893832 0.893832 0.893832 0.893832 0.893832 0.893832 0.893832 0.893832 0.893832 0.893832 0.893832 0.893832 0.893832 0.893832 0.893832 0.893832 0.893832 0.893832 0.893832 0.893832 0.893832 0.893832 0.893832 0.893832 0.893832 0.893832 0.893832 0.893832 0.893832 0.893832 0.893832 0.893832 0.893832 0.893832 0.893832 0.893832 0.893832 0.893832 0.893832 0.893832 0.893832 0.893832 0.893831 0.893831 0.89383 0.893828 0.893826 0.893822 0.89382 0.893763 0.893242 0.890761 0.891311 0.893453 0.89378 0.893823 0.893825 0.893828 0.893829 0.89383 0.893831 0.893831 0.893832 0.893832 0.893832 0.893832 0.893832 0.893832 0.893832 0.893832 0.893832 0.893832 0.893832 0.893832 0.893832 0.893832 0.893832 0.893832 0.893832 0.893832 0.893832 0.893832 0.893832 0.893832 0.893832 0.893832 0.893832 0.893832 0.893832 0.893832 0.893832 0.893832 0.893832 0.893832 0.893832 0.893832 0.893832 0.893832 0.893832 0.893832 0.893832 0.893832 0.893832 0.893832 0.893832 0.893832 0.893832 0.893832 0.893832 0.893832 0.893832 0.893832 0.893832 0.893832 0.893832 0.893832 0.893832 0.893831 0.893831 0.89383 0.893829 0.893828 0.893825 0.893823 0.89378 0.893453 0.891311 0.891793 0.893593 0.893793 0.893826 0.893827 0.893829 0.89383 0.893831 0.893831 0.893832 0.893832 0.893832 0.893832 0.893832 0.893832 0.893832 0.893832 0.893832 0.893832 0.893832 0.893832 0.893832 0.893832 0.893832 0.893832 0.893832 0.893832 0.893832 0.893832 0.893832 0.893832 0.893832 0.893832 0.893832 0.893832 0.893832 0.893832 0.893832 0.893832 0.893832 0.893832 0.893832 0.893832 0.893832 0.893832 0.893832 0.893832 0.893832 0.893832 0.893832 0.893832 0.893832 0.893832 0.893832 0.893832 0.893832 0.893832 0.893832 0.893832 0.893832 0.893832 0.893832 0.893832 0.893832 0.893832 0.893832 0.893831 0.893831 0.89383 0.893829 0.893827 0.893826 0.893793 0.893593 0.891793 0.892206 0.893684 0.893804 0.893827 0.893829 0.89383 0.893831 0.893831 0.893832 0.893832 0.893832 0.893832 0.893832 0.893832 0.893832 0.893832 0.893832 0.893832 0.893832 0.893832 0.893832 0.893832 0.893832 0.893832 0.893832 0.893832 0.893832 0.893832 0.893832 0.893832 0.893832 0.893832 0.893832 0.893832 0.893832 0.893832 0.893832 0.893832 0.893832 0.893832 0.893832 0.893832 0.893832 0.893832 0.893832 0.893832 0.893832 0.893832 0.893832 0.893832 0.893832 0.893832 0.893832 0.893832 0.893832 0.893832 0.893832 0.893832 0.893832 0.893832 0.893832 0.893832 0.893832 0.893832 0.893832 0.893832 0.893832 0.893831 0.893831 0.89383 0.893829 0.893827 0.893804 0.893684 0.892206 0.892555 0.893742 0.893812 0.893829 0.89383 0.893831 0.893831 0.893832 0.893832 0.893832 0.893832 0.893832 0.893832 0.893832 0.893832 0.893832 0.893832 0.893832 0.893832 0.893832 0.893832 0.893832 0.893832 0.893832 0.893832 0.893832 0.893832 0.893832 0.893832 0.893832 0.893832 0.893832 0.893832 0.893832 0.893832 0.893832 0.893832 0.893832 0.893832 0.893832 0.893832 0.893832 0.893832 0.893832 0.893832 0.893832 0.893832 0.893832 0.893832 0.893832 0.893832 0.893832 0.893832 0.893832 0.893832 0.893832 0.893832 0.893832 0.893832 0.893832 0.893832 0.893832 0.893832 0.893832 0.893832 0.893832 0.893832 0.893832 0.893831 0.893831 0.89383 0.893829 0.893812 0.893742 0.892555 0.892845 0.893779 0.893818 0.89383 0.89383 0.893831 0.893831 0.893832 0.893832 0.893832 0.893832 0.893832 0.893832 0.893832 0.893832 0.893832 0.893832 0.893832 0.893832 0.893832 0.893832 0.893832 0.893832 0.893832 0.893832 0.893832 0.893832 0.893832 0.893832 0.893832 0.893832 0.893832 0.893832 0.893832 0.893832 0.893832 0.893832 0.893832 0.893832 0.893832 0.893832 0.893832 0.893832 0.893832 0.893832 0.893832 0.893832 0.893832 0.893832 0.893832 0.893832 0.893832 0.893832 0.893832 0.893832 0.893832 0.893832 0.893832 0.893832 0.893832 0.893832 0.893832 0.893832 0.893832 0.893832 0.893832 0.893832 0.893832 0.893831 0.893831 0.89383 0.89383 0.893818 0.893779 0.892845 0.89308 0.893802 0.893822 0.89383 0.893831 0.893831 0.893832 0.893832 0.893832 0.893832 0.893832 0.893832 0.893832 0.893832 0.893832 0.893832 0.893832 0.893832 0.893832 0.893832 0.893832 0.893832 0.893832 0.893832 0.893832 0.893832 0.893832 0.893832 0.893832 0.893832 0.893832 0.893832 0.893832 0.893832 0.893832 0.893832 0.893832 0.893832 0.893832 0.893832 0.893832 0.893832 0.893832 0.893832 0.893832 0.893832 0.893832 0.893832 0.893832 0.893832 0.893832 0.893832 0.893832 0.893832 0.893832 0.893832 0.893832 0.893832 0.893832 0.893832 0.893832 0.893832 0.893832 0.893832 0.893832 0.893832 0.893832 0.893832 0.893832 0.893831 0.893831 0.89383 0.893822 0.893802 0.89308 0.893268 0.893815 0.893826 0.893831 0.893831 0.893832 0.893832 0.893832 0.893832 0.893832 0.893832 0.893832 0.893832 0.893832 0.893832 0.893832 0.893832 0.893832 0.893832 0.893832 0.893832 0.893832 0.893832 0.893832 0.893832 0.893832 0.893832 0.893832 0.893832 0.893832 0.893832 0.893832 0.893832 0.893832 0.893832 0.893832 0.893832 0.893832 0.893832 0.893832 0.893832 0.893832 0.893832 0.893832 0.893832 0.893832 0.893832 0.893832 0.893832 0.893832 0.893832 0.893832 0.893832 0.893832 0.893832 0.893832 0.893832 0.893832 0.893832 0.893832 0.893832 0.893832 0.893832 0.893832 0.893832 0.893832 0.893832 0.893832 0.893832 0.893832 0.893831 0.893831 0.893826 0.893815 0.893268 0.893415 0.893823 0.893828 0.893831 0.893832 0.893832 0.893832 0.893832 0.893832 0.893832 0.893832 0.893832 0.893832 0.893832 0.893832 0.893832 0.893832 0.893832 0.893832 0.893832 0.893832 0.893832 0.893832 0.893832 0.893832 0.893832 0.893832 0.893832 0.893832 0.893832 0.893832 0.893832 0.893832 0.893832 0.893832 0.893832 0.893832 0.893832 0.893832 0.893832 0.893832 0.893832 0.893832 0.893832 0.893832 0.893832 0.893832 0.893832 0.893832 0.893832 0.893832 0.893832 0.893832 0.893832 0.893832 0.893832 0.893832 0.893832 0.893832 0.893832 0.893832 0.893832 0.893832 0.893832 0.893832 0.893832 0.893832 0.893832 0.893832 0.893832 0.893832 0.893831 0.893828 0.893823 0.893415 0.893529 0.893827 0.893829 0.893832 0.893832 0.893832 0.893832 0.893832 0.893832 0.893832 0.893832 0.893832 0.893832 0.893832 0.893832 0.893832 0.893832 0.893832 0.893832 0.893832 0.893832 0.893832 0.893832 0.893832 0.893832 0.893832 0.893832 0.893832 0.893832 0.893832 0.893832 0.893832 0.893832 0.893832 0.893832 0.893832 0.893832 0.893832 0.893832 0.893832 0.893832 0.893832 0.893832 0.893832 0.893832 0.893832 0.893832 0.893832 0.893832 0.893832 0.893832 0.893832 0.893832 0.893832 0.893832 0.893832 0.893832 0.893832 0.893832 0.893832 0.893832 0.893832 0.893832 0.893832 0.893832 0.893832 0.893832 0.893832 0.893832 0.893832 0.893832 0.893832 0.893829 0.893827 0.893529 0.893615 0.89383 0.89383 0.893832 0.893832 0.893832 0.893832 0.893832 0.893832 0.893832 0.893832 0.893832 0.893832 0.893832 0.893832 0.893832 0.893832 0.893832 0.893832 0.893832 0.893832 0.893832 0.893832 0.893832 0.893832 0.893832 0.893832 0.893832 0.893832 0.893832 0.893832 0.893832 0.893832 0.893832 0.893832 0.893832 0.893832 0.893832 0.893832 0.893832 0.893832 0.893832 0.893832 0.893832 0.893832 0.893832 0.893832 0.893832 0.893832 0.893832 0.893832 0.893832 0.893832 0.893832 0.893832 0.893832 0.893832 0.893832 0.893832 0.893832 0.893832 0.893832 0.893832 0.893832 0.893832 0.893832 0.893832 0.893832 0.893832 0.893832 0.893832 0.893832 0.89383 0.89383 0.893615 0.893679 0.893831 0.893831 0.893832 0.893832 0.893832 0.893832 0.893832 0.893832 0.893832 0.893832 0.893832 0.893832 0.893832 0.893832 0.893832 0.893832 0.893832 0.893832 0.893832 0.893832 0.893832 0.893832 0.893832 0.893832 0.893832 0.893832 0.893832 0.893832 0.893832 0.893832 0.893832 0.893832 0.893832 0.893832 0.893832 0.893832 0.893832 0.893832 0.893832 0.893832 0.893832 0.893832 0.893832 0.893832 0.893832 0.893832 0.893832 0.893832 0.893832 0.893832 0.893832 0.893832 0.893832 0.893832 0.893832 0.893832 0.893832 0.893832 0.893832 0.893832 0.893832 0.893832 0.893832 0.893832 0.893832 0.893832 0.893832 0.893832 0.893832 0.893832 0.893832 0.893831 0.893831 0.893679 0.893726 0.893832 0.893831 0.893832 0.893832 0.893832 0.893832 0.893832 0.893832 0.893832 0.893832 0.893832 0.893832 0.893832 0.893832 0.893832 0.893832 0.893832 0.893832 0.893832 0.893832 0.893832 0.893832 0.893832 0.893832 0.893832 0.893832 0.893832 0.893832 0.893832 0.893832 0.893832 0.893832 0.893832 0.893832 0.893832 0.893832 0.893832 0.893832 0.893832 0.893832 0.893832 0.893832 0.893832 0.893832 0.893832 0.893832 0.893832 0.893832 0.893832 0.893832 0.893832 0.893832 0.893832 0.893832 0.893832 0.893832 0.893832 0.893832 0.893832 0.893832 0.893832 0.893832 0.893832 0.893832 0.893832 0.893832 0.893832 0.893832 0.893832 0.893832 0.893832 0.893831 0.893832 0.893726 0.89376 0.893832 0.893832 0.893832 0.893832 0.893832 0.893832 0.893832 0.893832 0.893832 0.893832 0.893832 0.893832 0.893832 0.893832 0.893832 0.893832 0.893832 0.893832 0.893832 0.893832 0.893832 0.893832 0.893832 0.893832 0.893832 0.893832 0.893832 0.893832 0.893832 0.893832 0.893832 0.893832 0.893832 0.893832 0.893832 0.893832 0.893832 0.893832 0.893832 0.893832 0.893832 0.893832 0.893832 0.893832 0.893832 0.893832 0.893832 0.893832 0.893832 0.893832 0.893832 0.893832 0.893832 0.893832 0.893832 0.893832 0.893832 0.893832 0.893832 0.893832 0.893832 0.893832 0.893832 0.893832 0.893832 0.893832 0.893832 0.893832 0.893832 0.893832 0.893832 0.893832 0.893832 0.89376 0.893784 0.893832 0.893832 0.893832 0.893832 0.893832 0.893832 0.893832 0.893832 0.893832 0.893832 0.893832 0.893832 0.893832 0.893832 0.893832 0.893832 0.893832 0.893832 0.893832 0.893832 0.893832 0.893832 0.893832 0.893832 0.893832 0.893832 0.893832 0.893832 0.893832 0.893832 0.893832 0.893832 0.893832 0.893832 0.893832 0.893832 0.893832 0.893832 0.893832 0.893832 0.893832 0.893832 0.893832 0.893832 0.893832 0.893832 0.893832 0.893832 0.893832 0.893832 0.893832 0.893832 0.893832 0.893832 0.893832 0.893832 0.893832 0.893832 0.893832 0.893832 0.893832 0.893832 0.893832 0.893832 0.893832 0.893832 0.893832 0.893832 0.893832 0.893832 0.893832 0.893832 0.893832 0.893784 0.8938 0.893832 0.893832 0.893832 0.893832 0.893832 0.893832 0.893832 0.893832 0.893832 0.893832 0.893832 0.893832 0.893832 0.893832 0.893832 0.893832 0.893832 0.893832 0.893832 0.893832 0.893832 0.893832 0.893832 0.893832 0.893832 0.893832 0.893832 0.893832 0.893832 0.893832 0.893832 0.893832 0.893832 0.893832 0.893832 0.893832 0.893832 0.893832 0.893832 0.893832 0.893832 0.893832 0.893832 0.893832 0.893832 0.893832 0.893832 0.893832 0.893832 0.893832 0.893832 0.893832 0.893832 0.893832 0.893832 0.893832 0.893832 0.893832 0.893832 0.893832 0.893832 0.893832 0.893832 0.893832 0.893832 0.893832 0.893832 0.893832 0.893832 0.893832 0.893832 0.893832 0.893832 0.8938 0.893812 0.893832 0.893832 0.893832 0.893832 0.893832 0.893832 0.893832 0.893832 0.893832 0.893832 0.893832 0.893832 0.893832 0.893832 0.893832 0.893832 0.893832 0.893832 0.893832 0.893832 0.893832 0.893832 0.893832 0.893832 0.893832 0.893832 0.893832 0.893832 0.893832 0.893832 0.893832 0.893832 0.893832 0.893832 0.893832 0.893832 0.893832 0.893832 0.893832 0.893832 0.893832 0.893832 0.893832 0.893832 0.893832 0.893832 0.893832 0.893832 0.893832 0.893832 0.893832 0.893832 0.893832 0.893832 0.893832 0.893832 0.893832 0.893832 0.893832 0.893832 0.893832 0.893832 0.893832 0.893832 0.893832 0.893832 0.893832 0.893832 0.893832 0.893832 0.893832 0.893832 0.893832 0.893812 0.893819 0.893832 0.893832 0.893832 0.893832 0.893832 0.893832 0.893832 0.893832 0.893832 0.893832 0.893832 0.893832 0.893832 0.893832 0.893832 0.893832 0.893832 0.893832 0.893832 0.893832 0.893832 0.893832 0.893832 0.893832 0.893832 0.893832 0.893832 0.893832 0.893832 0.893832 0.893832 0.893832 0.893832 0.893832 0.893832 0.893832 0.893832 0.893832 0.893832 0.893832 0.893832 0.893832 0.893832 0.893832 0.893832 0.893832 0.893832 0.893832 0.893832 0.893832 0.893832 0.893832 0.893832 0.893832 0.893832 0.893832 0.893832 0.893832 0.893832 0.893832 0.893832 0.893832 0.893832 0.893832 0.893832 0.893832 0.893832 0.893832 0.893832 0.893832 0.893832 0.893832 0.893832 0.893819 0.893824 0.893832 0.893832 0.893832 0.893832 0.893832 0.893832 0.893832 0.893832 0.893832 0.893832 0.893832 0.893832 0.893832 0.893832 0.893832 0.893832 0.893832 0.893832 0.893832 0.893832 0.893832 0.893832 0.893832 0.893832 0.893832 0.893832 0.893832 0.893832 0.893832 0.893832 0.893832 0.893832 0.893832 0.893832 0.893832 0.893832 0.893832 0.893832 0.893832 0.893832 0.893832 0.893832 0.893832 0.893832 0.893832 0.893832 0.893832 0.893832 0.893832 0.893832 0.893832 0.893832 0.893832 0.893832 0.893832 0.893832 0.893832 0.893832 0.893832 0.893832 0.893832 0.893832 0.893832 0.893832 0.893832 0.893832 0.893832 0.893832 0.893832 0.893832 0.893832 0.893832 0.893832 0.893824 0.893827 0.893832 0.893832 0.893832 0.893832 0.893832 0.893832 0.893832 0.893832 0.893832 0.893832 0.893832 0.893832 0.893832 0.893832 0.893832 0.893832 0.893832 0.893832 0.893832 0.893832 0.893832 0.893832 0.893832 0.893832 0.893832 0.893832 0.893832 0.893832 0.893832 0.893832 0.893832 0.893832 0.893832 0.893832 0.893832 0.893832 0.893832 0.893832 0.893832 0.893832 0.893832 0.893832 0.893832 0.893832 0.893832 0.893832 0.893832 0.893832 0.893832 0.893832 0.893832 0.893832 0.893832 0.893832 0.893832 0.893832 0.893832 0.893832 0.893832 0.893832 0.893832 0.893832 0.893832 0.893832 0.893832 0.893832 0.893832 0.893832 0.893832 0.893832 0.893832 0.893832 0.893832 0.893827 0.893829 0.893832 0.893832 0.893832 0.893832 0.893832 0.893832 0.893832 0.893832 0.893832 0.893832 0.893832 0.893832 0.893832 0.893832 0.893832 0.893832 0.893832 0.893832 0.893832 0.893832 0.893832 0.893832 0.893832 0.893832 0.893832 0.893832 0.893832 0.893832 0.893832 0.893832 0.893832 0.893832 0.893832 0.893832 0.893832 0.893832 0.893832 0.893832 0.893832 0.893832 0.893832 0.893832 0.893832 0.893832 0.893832 0.893832 0.893832 0.893832 0.893832 0.893832 0.893832 0.893832 0.893832 0.893832 0.893832 0.893832 0.893832 0.893832 0.893832 0.893832 0.893832 0.893832 0.893832 0.893832 0.893832 0.893832 0.893832 0.893832 0.893832 0.893832 0.893832 0.893832 0.893832 0.893829 0.89383 0.893832 0.893832 0.893832 0.893832 0.893832 0.893832 0.893832 0.893832 0.893832 0.893832 0.893832 0.893832 0.893832 0.893832 0.893832 0.893832 0.893832 0.893832 0.893832 0.893832 0.893832 0.893832 0.893832 0.893832 0.893832 0.893832 0.893832 0.893832 0.893832 0.893832 0.893832 0.893832 0.893832 0.893832 0.893832 0.893832 0.893832 0.893832 0.893832 0.893832 0.893832 0.893832 0.893832 0.893832 0.893832 0.893832 0.893832 0.893832 0.893832 0.893832 0.893832 0.893832 0.893832 0.893832 0.893832 0.893832 0.893832 0.893832 0.893832 0.893832 0.893832 0.893832 0.893832 0.893832 0.893832 0.893832 0.893832 0.893832 0.893832 0.893832 0.893832 0.893832 0.893832 0.89383 0.893831 0.893832 0.893832 0.893832 0.893832 0.893832 0.893832 0.893832 0.893832 0.893832 0.893832 0.893832 0.893832 0.893832 0.893832 0.893832 0.893832 0.893832 0.893832 0.893832 0.893832 0.893832 0.893832 0.893832 0.893832 0.893832 0.893832 0.893832 0.893832 0.893832 0.893832 0.893832 0.893832 0.893832 0.893832 0.893832 0.893832 0.893832 0.893832 0.893832 0.893832 0.893832 0.893832 0.893832 0.893832 0.893832 0.893832 0.893832 0.893832 0.893832 0.893832 0.893832 0.893832 0.893832 0.893832 0.893832 0.893832 0.893832 0.893832 0.893832 0.893832 0.893832 0.893832 0.893832 0.893832 0.893832 0.893832 0.893832 0.893832 0.893832 0.893832 0.893832 0.893832 0.893832 0.893831 0.893832 0.893832 0.893832 0.893832 0.893832 0.893832 0.893832 0.893832 0.893832 0.893832 0.893832 0.893832 0.893832 0.893832 0.893832 0.893832 0.893832 0.893832 0.893832 0.893832 0.893832 0.893832 0.893832 0.893832 0.893832 0.893832 0.893832 0.893832 0.893832 0.893832 0.893832 0.893832 0.893832 0.893832 0.893832 0.893832 0.893832 0.893832 0.893832 0.893832 0.893832 0.893832 0.893832 0.893832 0.893832 0.893832 0.893832 0.893832 0.893832 0.893832 0.893832 0.893832 0.893832 0.893832 0.893832 0.893832 0.893832 0.893832 0.893832 0.893832 0.893832 0.893832 0.893832 0.893832 0.893832 0.893832 0.893832 0.893832 0.893832 0.893832 0.893832 0.893832 0.893832 0.893832 0.893832 0.893832 0.893832 0.893832 0.893832 0.893832 0.893832 0.893832 0.893832 0.893832 0.893832 0.893832 0.893832 0.893832 0.893832 0.893832 0.893832 0.893832 0.893832 0.893832 0.893832 0.893832 0.893832 0.893832 0.893832 0.893832 0.893832 0.893832 0.893832 0.893832 0.893832 0.893832 0.893832 0.893832 0.893832 0.893832 0.893832 0.893832 0.893832 0.893832 0.893832 0.893832 0.893832 0.893832 0.893832 0.893832 0.893832 0.893832 0.893832 0.893832 0.893832 0.893832 0.893832 0.893832 0.893832 0.893832 0.893832 0.893832 0.893832 0.893832 0.893832 0.893832 0.893832 0.893832 0.893832 0.893832 0.893832 0.893832 0.893832 0.893832 0.893832 0.893832 0.893832 0.893832 0.893832 0.893832 0.893832 0.893832 0.893832 0.893832 0.893832 0.893832 0.893832 0.893832 0.893832 0.893832 0.893832 0.893832 0.893832 0.893832 0.893832 0.893832 0.893832 0.893832 0.893832 0.893832 0.893832 0.893832 0.893832 0.893832 0.893832 0.893832 0.893832 0.893832 0.893832 0.893832 0.893832 0.893832 0.893832 0.893832 0.893832 0.893832 0.893832 0.893832 0.893832 0.893832 0.893832 0.893832 0.893832 0.893832 0.893832 0.893832 0.893832 0.893832 0.893832 0.893832 0.893832 0.893832 0.893832 0.893832 0.893832 0.893832 0.893832 0.893832 0.893832 0.893832 0.893832 0.893832 0.893832 0.893832 0.893832 0.893832 0.893832 0.893832 0.893832 0.893832 0.893832 0.893832 0.893832 0.893832 0.893832 0.893832 0.893832 0.893832 0.893832 0.893832 0.893832 0.893832 0.893832 0.893832 0.893832 0.893832 0.893832 0.893832 0.893832 0.893832 0.893832 0.893832 0.893832 0.893832 0.893832 0.893832 0.893832 0.893832 0.893832 0.893832 0.893832 0.893832 0.893832 0.893832 0.893832 0.893832 0.893832 0.893832 0.893832 0.893832 0.893832 0.893832 0.893832 0.893832 0.893832 0.893832 0.893832 0.893832 0.893832 0.893832 0.893832 0.893832 0.893832 0.893832 0.893832 0.893832 0.893832 0.893832 0.893832 0.893832 0.893832 0.893832 0.893832 0.893832 0.893832 0.893832 0.893832 0.893832 0.893832 0.893832 0.893832 0.893832 0.893832 0.893832 0.893832 0.893832 0.893832 0.893832 0.893832 0.893832 0.893832 0.893832 0.893832 0.893832 0.893832 0.893832 0.893832 0.893832 0.893832 0.893832 0.893832 0.893832 0.893832 0.893832 0.893832 0.893832 0.893832 0.893832 0.893832 0.893832 0.893832 0.893832 0.893832 0.893832 0.893832 0.893832 0.893832 0.893832 0.893832 0.893832 0.893832 0.893832 0.893832 0.893832 0.893832 0.893832 0.893832 0.893832 0.893832 0.893832 0.893832 0.893832 0.893832 0.893832 0.893832 0.893832 0.893832 0.893832 0.893832 0.893832 0.893832 0.893832 0.893832 0.893832 0.893832 0.893832 0.893832 0.893832 0.893832 0.893832 0.893832 0.893832 0.893832 0.893832 0.893832 0.893832 0.893832 0.893832 0.893832 0.893832 0.893832 0.893832 0.893832 0.893832 0.893832 0.893832 0.893832 0.893832 0.893832 0.893832 0.893832 0.893832 0.893832 0.893832 0.893832 0.893832 0.893832 0.893832 0.893832 0.893832 0.893832 0.893832 0.893832 0.893832 0.893832 0.893832 0.893832 0.893832 0.893832 0.893832 0.893832 0.893832 0.893832 0.893832 0.893832 0.893832 0.893832 0.893832 0.893832 0.893832 0.893832 0.893832 0.893832 0.893832 0.893832 0.893832 0.893832 0.893832 0.893832 0.893832 0.893832 0.893832 0.893832 0.893832 0.893832 0.893832 0.893832 0.893832 0.893832 0.893832 0.893832 0.893832 0.893832 0.893832 0.893832 0.893832 0.893832 0.893832 0.893832 0.893832 0.893832 0.893832 0.893832 0.893832 0.893832 0.893832 0.893832 0.893832 0.893832 0.893832 0.893832 0.893832 0.893832 0.893832 0.893832 0.893832 0.893832 0.893832 0.893832 0.893832 0.893832 0.893832 0.893832 0.893832 0.893832 0.893832 0.893832 0.893832 0.893832 0.893832 0.893832 0.893832 0.893832 0.893832 0.893832 0.893832 0.893832 0.893832 0.893832 0.893832 0.893832 0.893832 0.893832 0.893832 0.893832 0.893832 0.893832 0.893832 0.893832 0.893832 0.893832 0.893832 0.893832 0.893832 0.893832 0.893832 0.893832 0.893832 0.893832 0.893832 0.893832 0.893832 0.893832 0.893832 0.893832 0.893832 0.893832 0.893832 0.893832 0.893832 0.893832 0.893832 0.893832 0.893832 0.893832 0.893832 0.893832 0.893832 0.893832 0.893832 0.893832 0.893832 0.893832 0.893832 0.893832 0.893832 0.893832 0.893832 0.893832 0.893832 0.893832 0.893832 0.893832 0.893832 0.893832 0.893832 0.893832 0.893832 0.893832 0.893832 0.893832 0.893832 0.893832 0.893832 0.893832 0.893832 0.893832 0.893832 0.893832 0.893832 0.893832 0.893832 0.893832 0.893832 0.893832 0.893832 0.893832 0.893832 0.893832 0.893832 0.893832 0.893832 0.893832 0.893832 0.893832 0.893832 0.893832 0.893832 0.893832 0.893832 0.893832 0.893832 0.893832 0.893832 0.893832 0.893832 0.893832 0.893832 0.893832 0.893832 0.893832 0.893832 0.893832 0.893832 0.893832 0.893832 0.893832 0.893832 0.893832 0.893832 0.893832 0.893832 0.893832 0.893832 0.893832 0.893832 0.893832 0.893832 0.893832 0.893832 0.893832 0.893832 0.893832 0.893832 0.893832 0.893832 0.893832 0.893832 0.893832 0.893832 0.893832 0.893832 0.893832 0.893832 0.893832 0.893832 0.893832 0.893832 0.893832 0.893832 0.893832 0.893832 0.893832 0.893832 0.893832 0.893832 0.893832 0.893832 0.893832 0.893832 0.893832 0.893832 0.893832 0.893832 0.893832 0.893832 0.893832 0.893832 0.893832 0.893832 0.893832 0.893832 0.893832 0.893832 0.893832 0.893832 0.893832 0.893832 0.893832 0.893832 0.893832 0.893832 0.893832 0.893832 0.893832 0.893832 0.893832 0.893832 0.893832 0.893832 0.893832 0.893832 0.893832 0.893832 0.893832 0.893832 0.893832 0.893832 0.893832 0.893832 0.893832 0.893832 0.893832 0.893832 0.893832 0.893832 0.893832 0.893832 0.893832 0.893832 0.893832 0.893832 0.893832 0.893832 0.893832 0.893832 0.893832 0.893832 0.893832 0.893832 0.893832 0.893832 0.893832 0.893832 0.893832 0.893832 0.893832 0.893832 0.893832 0.893832 0.893832 0.893832 0.893832 0.893832 0.893832 0.893832 0.893832 0.893832 0.893832 0.893832 0.893832 0.893832 0.893832 0.893832 0.893832 0.893832 0.893832 0.893832 0.893832 0.893832 0.893832 0.893832 0.893832 0.893832 0.893832 0.893832 0.893832 0.893832 0.893832 0.893832 0.893832 0.893832 0.893832 0.893832 0.893832 0.893832 0.893832 0.893832 0.893832 0.893832 0.893832 0.893832 0.893832 0.893832 0.893832 0.893832 0.893832 0.893832 0.893832 0.893832 0.893832 0.893832 0.893832 0.893832 0.893832 0.893832 0.893832 0.893832 0.893832 0.893832 0.893832 0.893832 0.893832 0.893832 0.893832 0.893832 0.893832 0.893832 0.893832 0.893832 0.893832 0.893832 0.893832 0.893832 0.893832 0.893832 0.893832 0.893832 0.893832 0.893832 0.893832 0.893832 0.893832 0.893832 0.893832 0.893832 0.893832 0.893832 0.893832 0.893832 0.893832 0.893832 0.893832 0.893832 0.893832 0.893832 0.893832 0.893832 0.893832 0.893832 0.893832 0.893832 0.893832 0.893832 0.893832 0.893832 0.893832 0.893832 0.893832 0.893832 0.893832 0.893832 0.893832 0.893832 0.893832 0.893832 0.893832 0.893832 0.893832 0.893832 0.893832 0.893832 0.893832 0.893832 0.893832 
SCALARS Axial_Stress float 1
LOOKUP_TABLE default
-429394000000.0 -449556000000.0 -414435000000.0 -383777000000.0 -352275000000.0 -322778000000.0 -296555000000.0 -270022000000.0 -244609000000.0 -218253000000.0 -190201000000.0 -164978000000.0 -145508000000.0 -130602000000.0 -118030000000.0 -106592000000.0 -95988400000.0 -86212700000.0 -77289300000.0 -69233800000.0 -62027400000.0 -55613000000.0 -49929300000.0 -44920000000.0 -40520500000.0 -36660200000.0 -33285000000.0 -30361600000.0 -27865300000.0 -25760800000.0 -24012700000.0 -22596800000.0 -21500200000.0 -20717500000.0 -20247200000.0 -20090200000.0 -20247200000.0 -20717500000.0 -21500200000.0 -22596800000.0 -24012700000.0 -25760800000.0 -27865300000.0 -30361600000.0 -33285000000.0 -36660200000.0 -40520500000.0 -44920000000.0 -49929300000.0 -55613000000.0 -62027400000.0 -69233800000.0 -77289300000.0 -86212700000.0 -95988400000.0 -106592000000.0 -118030000000.0 -130602000000.0 -145508000000.0 -164978000000.0 -190201000000.0 -218253000000.0 -244609000000.0 -270022000000.0 -296555000000.0 -322778000000.0 -352275000000.0 -383777000000.0 -414435000000.0 -449556000000.0 -429394000000.0 -874735000000.0 -874735000000.0 -93622400000.0 -260186000000.0 -1.01323e+12 -829839000000.0 -579950000000.0 -513877000000.0 -449615000000.0 -393342000000.0 -344285000000.0 -300894000000.0 -259557000000.0 -220680000000.0 -188043000000.0 -161800000000.0 -139160000000.0 -119404000000.0 -103589000000.0 -91742800000.0 -82530200000.0 -74553500000.0 -67067700000.0 -59877900000.0 -53038100000.0 -46651100000.0 -40792300000.0 -35514000000.0 -30844600000.0 -26783900000.0 -23303100000.0 -20356000000.0 -17891500000.0 -15862300000.0 -14221300000.0 -12924500000.0 -11930700000.0 -11201800000.0 -10705300000.0 -10417200000.0 -10322800000.0 -10417200000.0 -10705300000.0 -11201800000.0 -11930700000.0 -12924500000.0 -14221300000.0 -15862300000.0 -17891500000.0 -20356000000.0 -23303100000.0 -26783900000.0 -30844600000.0 -35514000000.0 -40792300000.0 -46651100000.0 -53038100000.0 -59877900000.0 -67067700000.0 -74553500000.0 -82530200000.0 -91742800000.0 -103589000000.0 -119404000000.0 -139160000000.0 -161800000000.0 -188043000000.0 -220680000000.0 -259557000000.0 -300894000000.0 -344285000000.0 -393342000000.0 -449615000000.0 -513877000000.0 -579950000000.0 -829839000000.0 -1.01323e+12 -260186000000.0 -93622400000.0 -530040000000.0 -240746000000.0 -193891000000.0 -164727000000.0 -155212000000.0 -154916000000.0 -152670000000.0 -142947000000.0 -126919000000.0 -109251000000.0 -93041900000.0 -78721400000.0 -65848300000.0 -54388200000.0 -44484100000.0 -36224500000.0 -29643500000.0 -24580100000.0 -20713000000.0 -17786900000.0 -15663500000.0 -14218100000.0 -13276200000.0 -12648400000.0 -12187900000.0 -11808900000.0 -11473200000.0 -11169300000.0 -10894500000.0 -10649100000.0 -10435500000.0 -10257000000.0 -10115900000.0 -10014200000.0 -9952850000.0 -9932370000.0 -9952850000.0 -10014200000.0 -10115900000.0 -10257000000.0 -10435500000.0 -10649100000.0 -10894500000.0 -11169300000.0 -11473200000.0 -11808900000.0 -12187900000.0 -12648400000.0 -13276200000.0 -14218100000.0 -15663500000.0 -17786900000.0 -20713000000.0 -24580100000.0 -29643500000.0 -36224500000.0 -44484100000.0 -54388200000.0 -65848300000.0 -78721400000.0 -93041900000.0 -109251000000.0 -126919000000.0 -142947000000.0 -152670000000.0 -154916000000.0 -155212000000.0 -164727000000.0 -193891000000.0 -240746000000.0 -530040000000.0 -224280000000.0 -689144000000.0 -689144000000.0 -224280000000.0 -72819000000.0 -476647000000.0 -584284000000.0 -244275000000.0 -171543000000.0 -125210000000.0 -90840000000.0 -60548500000.0 -31915000000.0 -15737100000.0 -10262700000.0 -9143930000.0 -9035790000.0 -9035820000.0 -9035880000.0 -9037010000.0 -9037930000.0 -9038340000.0 -9038450000.0 -9038580000.0 -9039770000.0 -9044520000.0 -9047880000.0 -9048800000.0 -9047750000.0 -9045760000.0 -9043350000.0 -9040610000.0 -9038600000.0 -9037590000.0 -9036930000.0 -9036470000.0 -9036160000.0 -9035970000.0 -9035860000.0 -9035800000.0 -9035760000.0 -9035750000.0 -9035760000.0 -9035800000.0 -9035860000.0 -9035970000.0 -9036160000.0 -9036470000.0 -9036930000.0 -9037590000.0 -9038600000.0 -9040610000.0 -9043350000.0 -9045760000.0 -9047750000.0 -9048800000.0 -9047880000.0 -9044520000.0 -9039770000.0 -9038580000.0 -9038450000.0 -9038340000.0 -9037930000.0 -9037010000.0 -9035880000.0 -9035820000.0 -9035790000.0 -9143930000.0 -10262700000.0 -15737100000.0 -31915000000.0 -60548500000.0 -90840000000.0 -125210000000.0 -171543000000.0 -244275000000.0 -584284000000.0 -476647000000.0 -72819000000.0 -388923000000.0 -160106000000.0 -122290000000.0 -106632000000.0 -88120500000.0 -72870100000.0 -60002600000.0 -49386900000.0 -40598900000.0 -33288900000.0 -27225000000.0 -22292500000.0 -18426200000.0 -15516700000.0 -13402300000.0 -11917800000.0 -10914700000.0 -10263500000.0 -9855620000.0 -9604410000.0 -9445880000.0 -9341340000.0 -9268950000.0 -9216520000.0 -9176580000.0 -9145390000.0 -9120890000.0 -9101230000.0 -9085270000.0 -9072430000.0 -9062380000.0 -9054750000.0 -9049140000.0 -9045230000.0 -9042880000.0 -9042100000.0 -9042880000.0 -9045230000.0 -9049140000.0 -9054750000.0 -9062380000.0 -9072430000.0 -9085270000.0 -9101230000.0 -9120890000.0 -9145390000.0 -9176580000.0 -9216520000.0 -9268950000.0 -9341340000.0 -9445880000.0 -9604410000.0 -9855620000.0 -10263500000.0 -10914700000.0 -11917800000.0 -13402300000.0 -15516700000.0 -18426200000.0 -22292500000.0 -27225000000.0 -33288900000.0 -40598900000.0 -49386900000.0 -60002600000.0 -72870100000.0 -88120500000.0 -106632000000.0 -122290000000.0 -160106000000.0 -388923000000.0 -172138000000.0 -311378000000.0 -311378000000.0 -172138000000.0 -90700900000.0 -286450000000.0 -149840000000.0 -33790200000.0 -9107570000.0 -9441900000.0 -9137540000.0 -9135760000.0 -9123040000.0 -9105290000.0 -9090000000.0 -9077490000.0 -9067730000.0 -9060980000.0 -9056360000.0 -9052840000.0 -9050090000.0 -9048640000.0 -9047740000.0 -9047770000.0 -9049210000.0 -9049630000.0 -9048310000.0 -9046070000.0 -9043580000.0 -9041060000.0 -9039010000.0 -9037760000.0 -9037030000.0 -9036540000.0 -9036220000.0 -9036020000.0 -9035900000.0 -9035830000.0 -9035790000.0 -9035770000.0 -9035760000.0 -9035750000.0 -9035760000.0 -9035770000.0 -9035790000.0 -9035830000.0 -9035900000.0 -9036020000.0 -9036220000.0 -9036540000.0 -9037030000.0 -9037760000.0 -9039010000.0 -9041060000.0 -9043580000.0 -9046070000.0 -9048310000.0 -9049630000.0 -9049210000.0 -9047770000.0 -9047740000.0 -9048640000.0 -9050090000.0 -9052840000.0 -9056360000.0 -9060980000.0 -9067730000.0 -9077490000.0 -9090000000.0 -9105290000.0 -9123040000.0 -9135760000.0 -9137540000.0 -9441900000.0 -9107570000.0 -33790200000.0 -149840000000.0 -286450000000.0 -90700900000.0 -104789000000.0 -44392900000.0 -18293600000.0 -16064200000.0 -14708700000.0 -12765900000.0 -10786700000.0 -9649230000.0 -9226650000.0 -9111030000.0 -9081130000.0 -9069910000.0 -9062910000.0 -9057700000.0 -9054240000.0 -9052130000.0 -9050780000.0 -9050430000.0 -9050240000.0 -9048730000.0 -9046340000.0 -9043770000.0 -9041280000.0 -9039220000.0 -9037880000.0 -9037090000.0 -9036580000.0 -9036250000.0 -9036040000.0 -9035920000.0 -9035850000.0 -9035800000.0 -9035780000.0 -9035760000.0 -9035760000.0 -9035750000.0 -9035760000.0 -9035760000.0 -9035780000.0 -9035800000.0 -9035850000.0 -9035920000.0 -9036040000.0 -9036250000.0 -9036580000.0 -9037090000.0 -9037880000.0 -9039220000.0 -9041280000.0 -9043770000.0 -9046340000.0 -9048730000.0 -9050240000.0 -9050430000.0 -9050780000.0 -9052130000.0 -9054240000.0 -9057700000.0 -9062910000.0 -9069910000.0 -9081130000.0 -9111030000.0 -9226650000.0 -9649230000.0 -10786700000.0 -12765900000.0 -14708700000.0 -16064200000.0 -18293600000.0 -44392900000.0 -104789000000.0 -62919800000.0 -292943000000.0 -292943000000.0 -62919800000.0 -76200400000.0 -277861000000.0 -46545900000.0 -26969900000.0 -9313820000.0 -9389720000.0 -9305640000.0 -9238520000.0 -9186420000.0 -9144660000.0 -9116140000.0 -9098680000.0 -9085100000.0 -9074530000.0 -9066490000.0 -9060680000.0 -9056840000.0 -9054160000.0 -9052310000.0 -9051050000.0 -9049240000.0 -9046700000.0 -9044020000.0 -9041510000.0 -9039430000.0 -9038010000.0 -9037160000.0 -9036620000.0 -9036280000.0 -9036070000.0 -9035940000.0 -9035860000.0 -9035820000.0 -9035790000.0 -9035770000.0 -9035760000.0 -9035760000.0 -9035750000.0 -9035760000.0 -9035760000.0 -9035770000.0 -9035790000.0 -9035820000.0 -9035860000.0 -9035940000.0 -9036070000.0 -9036280000.0 -9036620000.0 -9037160000.0 -9038010000.0 -9039430000.0 -9041510000.0 -9044020000.0 -9046700000.0 -9049240000.0 -9051050000.0 -9052310000.0 -9054160000.0 -9056840000.0 -9060680000.0 -9066490000.0 -9074530000.0 -9085100000.0 -9098680000.0 -9116140000.0 -9144660000.0 -9186420000.0 -9238520000.0 -9305640000.0 -9389720000.0 -9313820000.0 -26969900000.0 -46545900000.0 -277861000000.0 -76200400000.0 -87398900000.0 -259657000000.0 -22337600000.0 -22339700000.0 -9406120000.0 -9447420000.0 -9339570000.0 -9261120000.0 -9201670000.0 -9153430000.0 -9123030000.0 -9103220000.0 -9087970000.0 -9076470000.0 -9068040000.0 -9062080000.0 -9057840000.0 -9054640000.0 -9052200000.0 -9049870000.0 -9047130000.0 -9044320000.0 -9041760000.0 -9039650000.0 -9038160000.0 -9037240000.0 -9036680000.0 -9036320000.0 -9036090000.0 -9035960000.0 -9035880000.0 -9035830000.0 -9035800000.0 -9035780000.0 -9035770000.0 -9035760000.0 -9035750000.0 -9035750000.0 -9035750000.0 -9035760000.0 -9035770000.0 -9035780000.0 -9035800000.0 -9035830000.0 -9035880000.0 -9035960000.0 -9036090000.0 -9036320000.0 -9036680000.0 -9037240000.0 -9038160000.0 -9039650000.0 -9041760000.0 -9044320000.0 -9047130000.0 -9049870000.0 -9052200000.0 -9054640000.0 -9057840000.0 -9062080000.0 -9068040000.0 -9076470000.0 -9087970000.0 -9103220000.0 -9123030000.0 -9153430000.0 -9201670000.0 -9261120000.0 -9339570000.0 -9447420000.0 -9406120000.0 -22339700000.0 -22337600000.0 -259657000000.0 -87398900000.0 -95078500000.0 -236438000000.0 -12823300000.0 -18620300000.0 -9469020000.0 -9469730000.0 -9353480000.0 -9269380000.0 -9202940000.0 -9154230000.0 -9124290000.0 -9103410000.0 -9087790000.0 -9076320000.0 -9068020000.0 -9061950000.0 -9057320000.0 -9053720000.0 -9050680000.0 -9047650000.0 -9044680000.0 -9042030000.0 -9039880000.0 -9038320000.0 -9037340000.0 -9036740000.0 -9036360000.0 -9036120000.0 -9035980000.0 -9035890000.0 -9035840000.0 -9035810000.0 -9035790000.0 -9035780000.0 -9035770000.0 -9035760000.0 -9035750000.0 -9035750000.0 -9035750000.0 -9035760000.0 -9035770000.0 -9035780000.0 -9035790000.0 -9035810000.0 -9035840000.0 -9035890000.0 -9035980000.0 -9036120000.0 -9036360000.0 -9036740000.0 -9037340000.0 -9038320000.0 -9039880000.0 -9042030000.0 -9044680000.0 -9047650000.0 -9050680000.0 -9053720000.0 -9057320000.0 -9061950000.0 -9068020000.0 -9076320000.0 -9087790000.0 -9103410000.0 -9124290000.0 -9154230000.0 -9202940000.0 -9269380000.0 -9353480000.0 -9469730000.0 -9469020000.0 -18620300000.0 -12823300000.0 -236438000000.0 -95078500000.0 -98265000000.0 -209810000000.0 -10582400000.0 -15869800000.0 -9503170000.0 -9467710000.0 -9349440000.0 -9260210000.0 -9193600000.0 -9149600000.0 -9121150000.0 -9100650000.0 -9085610000.0 -9074650000.0 -9066570000.0 -9060390000.0 -9055560000.0 -9051700000.0 -9048270000.0 -9045100000.0 -9042340000.0 -9040120000.0 -9038500000.0 -9037450000.0 -9036800000.0 -9036400000.0 -9036150000.0 -9036000000.0 -9035910000.0 -9035850000.0 -9035820000.0 -9035800000.0 -9035780000.0 -9035770000.0 -9035770000.0 -9035760000.0 -9035750000.0 -9035750000.0 -9035750000.0 -9035760000.0 -9035770000.0 -9035770000.0 -9035780000.0 -9035800000.0 -9035820000.0 -9035850000.0 -9035910000.0 -9036000000.0 -9036150000.0 -9036400000.0 -9036800000.0 -9037450000.0 -9038500000.0 -9040120000.0 -9042340000.0 -9045100000.0 -9048270000.0 -9051700000.0 -9055560000.0 -9060390000.0 -9066570000.0 -9074650000.0 -9085610000.0 -9100650000.0 -9121150000.0 -9149600000.0 -9193600000.0 -9260210000.0 -9349440000.0 -9467710000.0 -9503170000.0 -15869800000.0 -10582400000.0 -209810000000.0 -98265000000.0 -97522900000.0 -181812000000.0 -10349900000.0 -13847900000.0 -9510400000.0 -9445320000.0 -9326900000.0 -9239630000.0 -9180260000.0 -9141750000.0 -9115270000.0 -9096060000.0 -9082060000.0 -9071720000.0 -9063870000.0 -9057750000.0 -9052960000.0 -9049020000.0 -9045600000.0 -9042700000.0 -9040380000.0 -9038690000.0 -9037570000.0 -9036880000.0 -9036450000.0 -9036190000.0 -9036020000.0 -9035920000.0 -9035860000.0 -9035830000.0 -9035810000.0 -9035790000.0 -9035780000.0 -9035770000.0 -9035760000.0 -9035760000.0 -9035750000.0 -9035750000.0 -9035750000.0 -9035760000.0 -9035760000.0 -9035770000.0 -9035780000.0 -9035790000.0 -9035810000.0 -9035830000.0 -9035860000.0 -9035920000.0 -9036020000.0 -9036190000.0 -9036450000.0 -9036880000.0 -9037570000.0 -9038690000.0 -9040380000.0 -9042700000.0 -9045600000.0 -9049020000.0 -9052960000.0 -9057750000.0 -9063870000.0 -9071720000.0 -9082060000.0 -9096060000.0 -9115270000.0 -9141750000.0 -9180260000.0 -9239630000.0 -9326900000.0 -9445320000.0 -9510400000.0 -13847900000.0 -10349900000.0 -181812000000.0 -97522900000.0 -93565100000.0 -154172000000.0 -10413800000.0 -12362500000.0 -9494010000.0 -9405210000.0 -9293580000.0 -9216410000.0 -9165940000.0 -9131980000.0 -9107850000.0 -9090340000.0 -9077460000.0 -9067750000.0 -9060290000.0 -9054490000.0 -9049910000.0 -9046170000.0 -9043090000.0 -9040670000.0 -9038900000.0 -9037710000.0 -9036970000.0 -9036510000.0 -9036230000.0 -9036050000.0 -9035940000.0 -9035880000.0 -9035840000.0 -9035810000.0 -9035800000.0 -9035780000.0 -9035770000.0 -9035770000.0 -9035760000.0 -9035760000.0 -9035750000.0 -9035750000.0 -9035750000.0 -9035760000.0 -9035760000.0 -9035770000.0 -9035770000.0 -9035780000.0 -9035800000.0 -9035810000.0 -9035840000.0 -9035880000.0 -9035940000.0 -9036050000.0 -9036230000.0 -9036510000.0 -9036970000.0 -9037710000.0 -9038900000.0 -9040670000.0 -9043090000.0 -9046170000.0 -9049910000.0 -9054490000.0 -9060290000.0 -9067750000.0 -9077460000.0 -9090340000.0 -9107850000.0 -9131980000.0 -9165940000.0 -9216410000.0 -9293580000.0 -9405210000.0 -9494010000.0 -12362500000.0 -10413800000.0 -154172000000.0 -93565100000.0 -87241000000.0 -128144000000.0 -10445000000.0 -11290400000.0 -9459070000.0 -9356490000.0 -9259160000.0 -9194350000.0 -9151270000.0 -9121230000.0 -9099640000.0 -9083860000.0 -9072090000.0 -9063150000.0 -9056290000.0 -9051000000.0 -9046840000.0 -9043550000.0 -9041000000.0 -9039130000.0 -9037870000.0 -9037070000.0 -9036570000.0 -9036270000.0 -9036080000.0 -9035960000.0 -9035890000.0 -9035850000.0 -9035820000.0 -9035800000.0 -9035790000.0 -9035780000.0 -9035770000.0 -9035760000.0 -9035760000.0 -9035760000.0 -9035750000.0 -9035750000.0 -9035750000.0 -9035760000.0 -9035760000.0 -9035760000.0 -9035770000.0 -9035780000.0 -9035790000.0 -9035800000.0 -9035820000.0 -9035850000.0 -9035890000.0 -9035960000.0 -9036080000.0 -9036270000.0 -9036570000.0 -9037070000.0 -9037870000.0 -9039130000.0 -9041000000.0 -9043550000.0 -9046840000.0 -9051000000.0 -9056290000.0 -9063150000.0 -9072090000.0 -9083860000.0 -9099640000.0 -9121230000.0 -9151270000.0 -9194350000.0 -9259160000.0 -9356490000.0 -9459070000.0 -11290400000.0 -10445000000.0 -128144000000.0 -87241000000.0 -79485100000.0 -104536000000.0 -10418500000.0 -10538600000.0 -9413470000.0 -9308970000.0 -9227960000.0 -9173720000.0 -9136560000.0 -9110170000.0 -9091050000.0 -9076950000.0 -9066370000.0 -9058360000.0 -9052280000.0 -9047630000.0 -9044060000.0 -9041350000.0 -9039380000.0 -9038040000.0 -9037180000.0 -9036650000.0 -9036320000.0 -9036110000.0 -9035990000.0 -9035910000.0 -9035860000.0 -9035830000.0 -9035800000.0 -9035790000.0 -9035780000.0 -9035770000.0 -9035770000.0 -9035760000.0 -9035760000.0 -9035750000.0 -9035750000.0 -9035750000.0 -9035750000.0 -9035750000.0 -9035760000.0 -9035760000.0 -9035770000.0 -9035770000.0 -9035780000.0 -9035790000.0 -9035800000.0 -9035830000.0 -9035860000.0 -9035910000.0 -9035990000.0 -9036110000.0 -9036320000.0 -9036650000.0 -9037180000.0 -9038040000.0 -9039380000.0 -9041350000.0 -9044060000.0 -9047630000.0 -9052280000.0 -9058360000.0 -9066370000.0 -9076950000.0 -9091050000.0 -9110170000.0 -9136560000.0 -9173720000.0 -9227960000.0 -9308970000.0 -9413470000.0 -10538600000.0 -10418500000.0 -104536000000.0 -79485100000.0 -71165800000.0 -83854100000.0 -10350000000.0 -10027800000.0 -9364920000.0 -9267080000.0 -9200170000.0 -9154280000.0 -9122190000.0 -9099180000.0 -9082400000.0 -9069980000.0 -9060710000.0 -9053770000.0 -9048560000.0 -9044660000.0 -9041760000.0 -9039660000.0 -9038230000.0 -9037310000.0 -9036730000.0 -9036370000.0 -9036150000.0 -9036010000.0 -9035920000.0 -9035870000.0 -9035830000.0 -9035810000.0 -9035790000.0 -9035780000.0 -9035770000.0 -9035770000.0 -9035760000.0 -9035760000.0 -9035760000.0 -9035750000.0 -9035750000.0 -9035750000.0 -9035750000.0 -9035750000.0 -9035760000.0 -9035760000.0 -9035760000.0 -9035770000.0 -9035770000.0 -9035780000.0 -9035790000.0 -9035810000.0 -9035830000.0 -9035870000.0 -9035920000.0 -9036010000.0 -9036150000.0 -9036370000.0 -9036730000.0 -9037310000.0 -9038230000.0 -9039660000.0 -9041760000.0 -9044660000.0 -9048560000.0 -9053770000.0 -9060710000.0 -9069980000.0 -9082400000.0 -9099180000.0 -9122190000.0 -9154280000.0 -9200170000.0 -9267080000.0 -9364920000.0 -10027800000.0 -10350000000.0 -83854100000.0 -71165800000.0 -62955400000.0 -66350400000.0 -10252900000.0 -9691330000.0 -9317970000.0 -9230820000.0 -9175080000.0 -9136070000.0 -9108470000.0 -9088590000.0 -9074060000.0 -9063370000.0 -9055470000.0 -9049640000.0 -9045350000.0 -9042210000.0 -9039970000.0 -9038440000.0 -9037440000.0 -9036820000.0 -9036430000.0 -9036190000.0 -9036040000.0 -9035940000.0 -9035880000.0 -9035840000.0 -9035810000.0 -9035800000.0 -9035780000.0 -9035770000.0 -9035770000.0 -9035760000.0 -9035760000.0 -9035760000.0 -9035750000.0 -9035750000.0 -9035750000.0 -9035750000.0 -9035750000.0 -9035750000.0 -9035750000.0 -9035760000.0 -9035760000.0 -9035760000.0 -9035770000.0 -9035770000.0 -9035780000.0 -9035800000.0 -9035810000.0 -9035840000.0 -9035880000.0 -9035940000.0 -9036040000.0 -9036190000.0 -9036430000.0 -9036820000.0 -9037440000.0 -9038440000.0 -9039970000.0 -9042210000.0 -9045350000.0 -9049640000.0 -9055470000.0 -9063370000.0 -9074060000.0 -9088590000.0 -9108470000.0 -9136070000.0 -9175080000.0 -9230820000.0 -9317970000.0 -9691330000.0 -10252900000.0 -66350400000.0 -62955400000.0 -55291300000.0 -52021100000.0 -10137100000.0 -9475700000.0 -9274430000.0 -9199070000.0 -9152310000.0 -9119210000.0 -9095680000.0 -9078710000.0 -9066390000.0 -9057410000.0 -9050880000.0 -9046140000.0 -9042730000.0 -9040320000.0 -9038680000.0 -9037600000.0 -9036920000.0 -9036490000.0 -9036230000.0 -9036060000.0 -9035960000.0 -9035890000.0 -9035850000.0 -9035820000.0 -9035800000.0 -9035790000.0 -9035780000.0 -9035770000.0 -9035760000.0 -9035760000.0 -9035760000.0 -9035760000.0 -9035750000.0 -9035750000.0 -9035750000.0 -9035750000.0 -9035750000.0 -9035750000.0 -9035750000.0 -9035760000.0 -9035760000.0 -9035760000.0 -9035760000.0 -9035770000.0 -9035780000.0 -9035790000.0 -9035800000.0 -9035820000.0 -9035850000.0 -9035890000.0 -9035960000.0 -9036060000.0 -9036230000.0 -9036490000.0 -9036920000.0 -9037600000.0 -9038680000.0 -9040320000.0 -9042730000.0 -9046140000.0 -9050880000.0 -9057410000.0 -9066390000.0 -9078710000.0 -9095680000.0 -9119210000.0 -9152310000.0 -9199070000.0 -9274430000.0 -9475700000.0 -10137100000.0 -52021100000.0 -55291300000.0 -48401400000.0 -40647100000.0 -10010700000.0 -9339550000.0 -9234880000.0 -9170990000.0 -9131780000.0 -9103880000.0 -9084050000.0 -9069840000.0 -9059630000.0 -9052290000.0 -9047040000.0 -9043310000.0 -9040710000.0 -9038930000.0 -9037770000.0 -9037030000.0 -9036570000.0 -9036280000.0 -9036100000.0 -9035980000.0 -9035910000.0 -9035860000.0 -9035830000.0 -9035800000.0 -9035790000.0 -9035780000.0 -9035770000.0 -9035760000.0 -9035760000.0 -9035760000.0 -9035760000.0 -9035750000.0 -9035750000.0 -9035750000.0 -9035750000.0 -9035750000.0 -9035750000.0 -9035750000.0 -9035750000.0 -9035750000.0 -9035760000.0 -9035760000.0 -9035760000.0 -9035760000.0 -9035770000.0 -9035780000.0 -9035790000.0 -9035800000.0 -9035830000.0 -9035860000.0 -9035910000.0 -9035980000.0 -9036100000.0 -9036280000.0 -9036570000.0 -9037030000.0 -9037770000.0 -9038930000.0 -9040710000.0 -9043310000.0 -9047040000.0 -9052290000.0 -9059630000.0 -9069840000.0 -9084050000.0 -9103880000.0 -9131780000.0 -9170990000.0 -9234880000.0 -9339550000.0 -10010700000.0 -40647100000.0 -48401400000.0 -42355300000.0 -31867500000.0 -9881090000.0 -9253160000.0 -9199550000.0 -9146200000.0 -9113500000.0 -9090260000.0 -9073830000.0 -9062180000.0 -9053920000.0 -9048080000.0 -9043980000.0 -9041150000.0 -9039230000.0 -9037960000.0 -9037150000.0 -9036650000.0 -9036330000.0 -9036130000.0 -9036000000.0 -9035920000.0 -9035870000.0 -9035830000.0 -9035810000.0 -9035790000.0 -9035780000.0 -9035770000.0 -9035760000.0 -9035760000.0 -9035760000.0 -9035760000.0 -9035750000.0 -9035750000.0 -9035750000.0 -9035750000.0 -9035750000.0 -9035750000.0 -9035750000.0 -9035750000.0 -9035750000.0 -9035750000.0 -9035750000.0 -9035760000.0 -9035760000.0 -9035760000.0 -9035760000.0 -9035770000.0 -9035780000.0 -9035790000.0 -9035810000.0 -9035830000.0 -9035870000.0 -9035920000.0 -9036000000.0 -9036130000.0 -9036330000.0 -9036650000.0 -9037150000.0 -9037960000.0 -9039230000.0 -9041150000.0 -9043980000.0 -9048080000.0 -9053920000.0 -9062180000.0 -9073830000.0 -9090260000.0 -9113500000.0 -9146200000.0 -9199550000.0 -9253160000.0 -9881090000.0 -31867500000.0 -42355300000.0 -37121500000.0 -25256800000.0 -9754080000.0 -9196780000.0 -9168490000.0 -9124540000.0 -9097550000.0 -9078490000.0 -9065140000.0 -9055800000.0 -9049270000.0 -9044750000.0 -9041640000.0 -9039550000.0 -9038170000.0 -9037290000.0 -9036740000.0 -9036390000.0 -9036170000.0 -9036030000.0 -9035940000.0 -9035880000.0 -9035840000.0 -9035810000.0 -9035790000.0 -9035780000.0 -9035770000.0 -9035760000.0 -9035760000.0 -9035760000.0 -9035760000.0 -9035750000.0 -9035750000.0 -9035750000.0 -9035750000.0 -9035750000.0 -9035750000.0 -9035750000.0 -9035750000.0 -9035750000.0 -9035750000.0 -9035750000.0 -9035750000.0 -9035750000.0 -9035760000.0 -9035760000.0 -9035760000.0 -9035760000.0 -9035770000.0 -9035780000.0 -9035790000.0 -9035810000.0 -9035840000.0 -9035880000.0 -9035940000.0 -9036030000.0 -9036170000.0 -9036390000.0 -9036740000.0 -9037290000.0 -9038170000.0 -9039550000.0 -9041640000.0 -9044750000.0 -9049270000.0 -9055800000.0 -9065140000.0 -9078490000.0 -9097550000.0 -9124540000.0 -9168490000.0 -9196780000.0 -9754080000.0 -25256800000.0 -37121500000.0 -32618200000.0 -20387100000.0 -9634380000.0 -9158150000.0 -9141630000.0 -9105910000.0 -9083960000.0 -9068600000.0 -9057980000.0 -9050650000.0 -9045620000.0 -9042210000.0 -9039920000.0 -9038410000.0 -9037450000.0 -9036830000.0 -9036450000.0 -9036210000.0 -9036050000.0 -9035950000.0 -9035890000.0 -9035840000.0 -9035810000.0 -9035790000.0 -9035780000.0 -9035770000.0 -9035760000.0 -9035760000.0 -9035760000.0 -9035760000.0 -9035750000.0 -9035750000.0 -9035750000.0 -9035750000.0 -9035750000.0 -9035750000.0 -9035750000.0 -9035750000.0 -9035750000.0 -9035750000.0 -9035750000.0 -9035750000.0 -9035750000.0 -9035750000.0 -9035750000.0 -9035760000.0 -9035760000.0 -9035760000.0 -9035760000.0 -9035770000.0 -9035780000.0 -9035790000.0 -9035810000.0 -9035840000.0 -9035890000.0 -9035950000.0 -9036050000.0 -9036210000.0 -9036450000.0 -9036830000.0 -9037450000.0 -9038410000.0 -9039920000.0 -9042210000.0 -9045620000.0 -9050650000.0 -9057980000.0 -9068600000.0 -9083960000.0 -9105910000.0 -9141630000.0 -9158150000.0 -9634380000.0 -20387100000.0 -32618200000.0 -28749200000.0 -16868400000.0 -9525300000.0 -9130160000.0 -9118820000.0 -9090240000.0 -9072670000.0 -9060540000.0 -9052250000.0 -9046630000.0 -9042850000.0 -9040330000.0 -9038680000.0 -9037620000.0 -9036940000.0 -9036520000.0 -9036250000.0 -9036080000.0 -9035970000.0 -9035900000.0 -9035850000.0 -9035820000.0 -9035800000.0 -9035780000.0 -9035770000.0 -9035770000.0 -9035760000.0 -9035760000.0 -9035760000.0 -9035750000.0 -9035750000.0 -9035750000.0 -9035750000.0 -9035750000.0 -9035750000.0 -9035750000.0 -9035750000.0 -9035750000.0 -9035750000.0 -9035750000.0 -9035750000.0 -9035750000.0 -9035750000.0 -9035750000.0 -9035750000.0 -9035750000.0 -9035760000.0 -9035760000.0 -9035760000.0 -9035770000.0 -9035770000.0 -9035780000.0 -9035800000.0 -9035820000.0 -9035850000.0 -9035900000.0 -9035970000.0 -9036080000.0 -9036250000.0 -9036520000.0 -9036940000.0 -9037620000.0 -9038680000.0 -9040330000.0 -9042850000.0 -9046630000.0 -9052250000.0 -9060540000.0 -9072670000.0 -9090240000.0 -9118820000.0 -9130160000.0 -9525300000.0 -16868400000.0 -28749200000.0 -25424400000.0 -14368700000.0 -9428830000.0 -9108850000.0 -9099850000.0 -9077340000.0 -9063540000.0 -9054130000.0 -9047810000.0 -9043590000.0 -9040800000.0 -9038980000.0 -9037810000.0 -9037070000.0 -9036600000.0 -9036300000.0 -9036110000.0 -9035990000.0 -9035910000.0 -9035860000.0 -9035820000.0 -9035800000.0 -9035780000.0 -9035770000.0 -9035770000.0 -9035760000.0 -9035760000.0 -9035760000.0 -9035750000.0 -9035750000.0 -9035750000.0 -9035750000.0 -9035750000.0 -9035750000.0 -9035750000.0 -9035750000.0 -9035750000.0 -9035750000.0 -9035750000.0 -9035750000.0 -9035750000.0 -9035750000.0 -9035750000.0 -9035750000.0 -9035750000.0 -9035750000.0 -9035750000.0 -9035760000.0 -9035760000.0 -9035760000.0 -9035770000.0 -9035770000.0 -9035780000.0 -9035800000.0 -9035820000.0 -9035860000.0 -9035910000.0 -9035990000.0 -9036110000.0 -9036300000.0 -9036600000.0 -9037070000.0 -9037810000.0 -9038980000.0 -9040800000.0 -9043590000.0 -9047810000.0 -9054130000.0 -9063540000.0 -9077340000.0 -9099850000.0 -9108850000.0 -9428830000.0 -14368700000.0 -25424400000.0 -22567600000.0 -12619900000.0 -9345800000.0 -9092130000.0 -9084420000.0 -9066990000.0 -9056340000.0 -9049180000.0 -9044440000.0 -9041330000.0 -9039320000.0 -9038020000.0 -9037200000.0 -9036690000.0 -9036360000.0 -9036150000.0 -9036010000.0 -9035930000.0 -9035870000.0 -9035830000.0 -9035800000.0 -9035790000.0 -9035770000.0 -9035770000.0 -9035760000.0 -9035760000.0 -9035760000.0 -9035750000.0 -9035750000.0 -9035750000.0 -9035750000.0 -9035750000.0 -9035750000.0 -9035750000.0 -9035750000.0 -9035750000.0 -9035750000.0 -9035750000.0 -9035750000.0 -9035750000.0 -9035750000.0 -9035750000.0 -9035750000.0 -9035750000.0 -9035750000.0 -9035750000.0 -9035750000.0 -9035750000.0 -9035760000.0 -9035760000.0 -9035760000.0 -9035770000.0 -9035770000.0 -9035790000.0 -9035800000.0 -9035830000.0 -9035870000.0 -9035930000.0 -9036010000.0 -9036150000.0 -9036360000.0 -9036690000.0 -9037200000.0 -9038020000.0 -9039320000.0 -9041330000.0 -9044440000.0 -9049180000.0 -9056340000.0 -9066990000.0 -9084420000.0 -9092130000.0 -9345800000.0 -12619900000.0 -22567600000.0 -20117300000.0 -11413400000.0 -9276090000.0 -9078870000.0 -9072130000.0 -9058860000.0 -9050790000.0 -9045440000.0 -9041950000.0 -9039700000.0 -9038270000.0 -9037360000.0 -9036780000.0 -9036420000.0 -9036190000.0 -9036040000.0 -9035940000.0 -9035880000.0 -9035830000.0 -9035810000.0 -9035790000.0 -9035780000.0 -9035770000.0 -9035760000.0 -9035760000.0 -9035760000.0 -9035750000.0 -9035750000.0 -9035750000.0 -9035750000.0 -9035750000.0 -9035750000.0 -9035750000.0 -9035750000.0 -9035750000.0 -9035750000.0 -9035750000.0 -9035750000.0 -9035750000.0 -9035750000.0 -9035750000.0 -9035750000.0 -9035750000.0 -9035750000.0 -9035750000.0 -9035750000.0 -9035750000.0 -9035750000.0 -9035750000.0 -9035760000.0 -9035760000.0 -9035760000.0 -9035770000.0 -9035780000.0 -9035790000.0 -9035810000.0 -9035830000.0 -9035880000.0 -9035940000.0 -9036040000.0 -9036190000.0 -9036420000.0 -9036780000.0 -9037360000.0 -9038270000.0 -9039700000.0 -9041950000.0 -9045440000.0 -9050790000.0 -9058860000.0 -9072130000.0 -9078870000.0 -9276090000.0 -11413400000.0 -20117300000.0 -18024800000.0 -10591800000.0 -9218900000.0 -9068380000.0 -9062550000.0 -9052620000.0 -9046600000.0 -9042670000.0 -9040150000.0 -9038540000.0 -9037530000.0 -9036890000.0 -9036490000.0 -9036230000.0 -9036060000.0 -9035960000.0 -9035890000.0 -9035840000.0 -9035810000.0 -9035790000.0 -9035780000.0 -9035770000.0 -9035760000.0 -9035760000.0 -9035760000.0 -9035750000.0 -9035750000.0 -9035750000.0 -9035750000.0 -9035750000.0 -9035750000.0 -9035750000.0 -9035750000.0 -9035750000.0 -9035750000.0 -9035750000.0 -9035750000.0 -9035750000.0 -9035750000.0 -9035750000.0 -9035750000.0 -9035750000.0 -9035750000.0 -9035750000.0 -9035750000.0 -9035750000.0 -9035750000.0 -9035750000.0 -9035750000.0 -9035750000.0 -9035760000.0 -9035760000.0 -9035760000.0 -9035770000.0 -9035780000.0 -9035790000.0 -9035810000.0 -9035840000.0 -9035890000.0 -9035960000.0 -9036060000.0 -9036230000.0 -9036490000.0 -9036890000.0 -9037530000.0 -9038540000.0 -9040150000.0 -9042670000.0 -9046600000.0 -9052620000.0 -9062550000.0 -9068380000.0 -9218900000.0 -10591800000.0 -18024800000.0 -16250100000.0 -10039700000.0 -9172990000.0 -9060170000.0 -9055240000.0 -9047930000.0 -9043500000.0 -9040660000.0 -9038860000.0 -9037720000.0 -9037010000.0 -9036560000.0 -9036280000.0 -9036090000.0 -9035970000.0 -9035900000.0 -9035850000.0 -9035810000.0 -9035790000.0 -9035780000.0 -9035770000.0 -9035760000.0 -9035760000.0 -9035760000.0 -9035750000.0 -9035750000.0 -9035750000.0 -9035750000.0 -9035750000.0 -9035750000.0 -9035750000.0 -9035750000.0 -9035750000.0 -9035750000.0 -9035750000.0 -9035750000.0 -9035750000.0 -9035750000.0 -9035750000.0 -9035750000.0 -9035750000.0 -9035750000.0 -9035750000.0 -9035750000.0 -9035750000.0 -9035750000.0 -9035750000.0 -9035750000.0 -9035750000.0 -9035750000.0 -9035750000.0 -9035760000.0 -9035760000.0 -9035760000.0 -9035770000.0 -9035780000.0 -9035790000.0 -9035810000.0 -9035850000.0 -9035900000.0 -9035970000.0 -9036090000.0 -9036280000.0 -9036560000.0 -9037010000.0 -9037720000.0 -9038860000.0 -9040660000.0 -9043500000.0 -9047930000.0 -9055240000.0 -9060170000.0 -9172990000.0 -10039700000.0 -16250100000.0 -14759500000.0 -9673520000.0 -9136900000.0 -9053830000.0 -9049760000.0 -9044450000.0 -9041250000.0 -9039220000.0 -9037940000.0 -9037140000.0 -9036640000.0 -9036330000.0 -9036120000.0 -9035990000.0 -9035910000.0 -9035850000.0 -9035820000.0 -9035790000.0 -9035780000.0 -9035770000.0 -9035760000.0 -9035760000.0 -9035760000.0 -9035750000.0 -9035750000.0 -9035750000.0 -9035750000.0 -9035750000.0 -9035750000.0 -9035750000.0 -9035750000.0 -9035750000.0 -9035750000.0 -9035750000.0 -9035750000.0 -9035750000.0 -9035750000.0 -9035750000.0 -9035750000.0 -9035750000.0 -9035750000.0 -9035750000.0 -9035750000.0 -9035750000.0 -9035750000.0 -9035750000.0 -9035750000.0 -9035750000.0 -9035750000.0 -9035750000.0 -9035750000.0 -9035750000.0 -9035760000.0 -9035760000.0 -9035760000.0 -9035770000.0 -9035780000.0 -9035790000.0 -9035820000.0 -9035850000.0 -9035910000.0 -9035990000.0 -9036120000.0 -9036330000.0 -9036640000.0 -9037140000.0 -9037940000.0 -9039220000.0 -9041250000.0 -9044450000.0 -9049760000.0 -9053830000.0 -9136900000.0 -9673520000.0 -14759500000.0 -13521800000.0 -9434160000.0 -9109100000.0 -9049010000.0 -9045730000.0 -9041920000.0 -9039630000.0 -9038200000.0 -9037300000.0 -9036740000.0 -9036380000.0 -9036160000.0 -9036020000.0 -9035920000.0 -9035860000.0 -9035820000.0 -9035800000.0 -9035780000.0 -9035770000.0 -9035760000.0 -9035760000.0 -9035760000.0 -9035750000.0 -9035750000.0 -9035750000.0 -9035750000.0 -9035750000.0 -9035750000.0 -9035750000.0 -9035750000.0 -9035750000.0 -9035750000.0 -9035750000.0 -9035750000.0 -9035750000.0 -9035750000.0 -9035750000.0 -9035750000.0 -9035750000.0 -9035750000.0 -9035750000.0 -9035750000.0 -9035750000.0 -9035750000.0 -9035750000.0 -9035750000.0 -9035750000.0 -9035750000.0 -9035750000.0 -9035750000.0 -9035750000.0 -9035750000.0 -9035750000.0 -9035760000.0 -9035760000.0 -9035760000.0 -9035770000.0 -9035780000.0 -9035800000.0 -9035820000.0 -9035860000.0 -9035920000.0 -9036020000.0 -9036160000.0 -9036380000.0 -9036740000.0 -9037300000.0 -9038200000.0 -9039630000.0 -9041920000.0 -9045730000.0 -9049010000.0 -9109100000.0 -9434160000.0 -13521800000.0 -12507600000.0 -9280070000.0 -9088100000.0 -9045390000.0 -9042810000.0 -9040110000.0 -9038480000.0 -9037470000.0 -9036840000.0 -9036450000.0 -9036200000.0 -9036040000.0 -9035940000.0 -9035870000.0 -9035830000.0 -9035800000.0 -9035780000.0 -9035770000.0 -9035760000.0 -9035760000.0 -9035760000.0 -9035760000.0 -9035750000.0 -9035750000.0 -9035750000.0 -9035750000.0 -9035750000.0 -9035750000.0 -9035750000.0 -9035750000.0 -9035750000.0 -9035750000.0 -9035750000.0 -9035750000.0 -9035750000.0 -9035750000.0 -9035750000.0 -9035750000.0 -9035750000.0 -9035750000.0 -9035750000.0 -9035750000.0 -9035750000.0 -9035750000.0 -9035750000.0 -9035750000.0 -9035750000.0 -9035750000.0 -9035750000.0 -9035750000.0 -9035750000.0 -9035750000.0 -9035750000.0 -9035760000.0 -9035760000.0 -9035760000.0 -9035760000.0 -9035770000.0 -9035780000.0 -9035800000.0 -9035830000.0 -9035870000.0 -9035940000.0 -9036040000.0 -9036200000.0 -9036450000.0 -9036840000.0 -9037470000.0 -9038480000.0 -9040110000.0 -9042810000.0 -9045390000.0 -9088100000.0 -9280070000.0 -12507600000.0 -11688000000.0 -9182540000.0 -9072530000.0 -9042710000.0 -9040710000.0 -9038810000.0 -9037670000.0 -9036960000.0 -9036520000.0 -9036240000.0 -9036060000.0 -9035950000.0 -9035880000.0 -9035830000.0 -9035800000.0 -9035780000.0 -9035770000.0 -9035760000.0 -9035760000.0 -9035760000.0 -9035760000.0 -9035750000.0 -9035750000.0 -9035750000.0 -9035750000.0 -9035750000.0 -9035750000.0 -9035750000.0 -9035750000.0 -9035750000.0 -9035750000.0 -9035750000.0 -9035750000.0 -9035750000.0 -9035750000.0 -9035750000.0 -9035750000.0 -9035750000.0 -9035750000.0 -9035750000.0 -9035750000.0 -9035750000.0 -9035750000.0 -9035750000.0 -9035750000.0 -9035750000.0 -9035750000.0 -9035750000.0 -9035750000.0 -9035750000.0 -9035750000.0 -9035750000.0 -9035750000.0 -9035750000.0 -9035760000.0 -9035760000.0 -9035760000.0 -9035760000.0 -9035770000.0 -9035780000.0 -9035800000.0 -9035830000.0 -9035880000.0 -9035950000.0 -9036060000.0 -9036240000.0 -9036520000.0 -9036960000.0 -9037670000.0 -9038810000.0 -9040710000.0 -9042710000.0 -9072530000.0 -9182540000.0 -11688000000.0 -11035400000.0 -9121960000.0 -9061210000.0 -9040740000.0 -9039220000.0 -9037900000.0 -9037100000.0 -9036600000.0 -9036290000.0 -9036090000.0 -9035970000.0 -9035890000.0 -9035840000.0 -9035810000.0 -9035790000.0 -9035770000.0 -9035760000.0 -9035760000.0 -9035760000.0 -9035760000.0 -9035750000.0 -9035750000.0 -9035750000.0 -9035750000.0 -9035750000.0 -9035750000.0 -9035750000.0 -9035750000.0 -9035750000.0 -9035750000.0 -9035750000.0 -9035750000.0 -9035750000.0 -9035750000.0 -9035750000.0 -9035750000.0 -9035750000.0 -9035750000.0 -9035750000.0 -9035750000.0 -9035750000.0 -9035750000.0 -9035750000.0 -9035750000.0 -9035750000.0 -9035750000.0 -9035750000.0 -9035750000.0 -9035750000.0 -9035750000.0 -9035750000.0 -9035750000.0 -9035750000.0 -9035750000.0 -9035750000.0 -9035760000.0 -9035760000.0 -9035760000.0 -9035760000.0 -9035770000.0 -9035790000.0 -9035810000.0 -9035840000.0 -9035890000.0 -9035970000.0 -9036090000.0 -9036290000.0 -9036600000.0 -9037100000.0 -9037900000.0 -9039220000.0 -9040740000.0 -9061210000.0 -9121960000.0 -11035400000.0 -10523200000.0 -9085110000.0 -9053120000.0 -9039300000.0 -9038170000.0 -9037250000.0 -9036690000.0 -9036340000.0 -9036120000.0 -9035990000.0 -9035900000.0 -9035840000.0 -9035810000.0 -9035790000.0 -9035770000.0 -9035770000.0 -9035760000.0 -9035760000.0 -9035760000.0 -9035750000.0 -9035750000.0 -9035750000.0 -9035750000.0 -9035750000.0 -9035750000.0 -9035750000.0 -9035750000.0 -9035750000.0 -9035750000.0 -9035750000.0 -9035750000.0 -9035750000.0 -9035750000.0 -9035750000.0 -9035750000.0 -9035750000.0 -9035750000.0 -9035750000.0 -9035750000.0 -9035750000.0 -9035750000.0 -9035750000.0 -9035750000.0 -9035750000.0 -9035750000.0 -9035750000.0 -9035750000.0 -9035750000.0 -9035750000.0 -9035750000.0 -9035750000.0 -9035750000.0 -9035750000.0 -9035750000.0 -9035750000.0 -9035750000.0 -9035760000.0 -9035760000.0 -9035760000.0 -9035770000.0 -9035770000.0 -9035790000.0 -9035810000.0 -9035840000.0 -9035900000.0 -9035990000.0 -9036120000.0 -9036340000.0 -9036690000.0 -9037250000.0 -9038170000.0 -9039300000.0 -9053120000.0 -9085110000.0 -10523200000.0 -10127200000.0 -9063240000.0 -9047440000.0 -9038270000.0 -9037430000.0 -9036790000.0 -9036400000.0 -9036160000.0 -9036010000.0 -9035910000.0 -9035850000.0 -9035810000.0 -9035790000.0 -9035780000.0 -9035770000.0 -9035760000.0 -9035760000.0 -9035760000.0 -9035750000.0 -9035750000.0 -9035750000.0 -9035750000.0 -9035750000.0 -9035750000.0 -9035750000.0 -9035750000.0 -9035750000.0 -9035750000.0 -9035750000.0 -9035750000.0 -9035750000.0 -9035750000.0 -9035750000.0 -9035750000.0 -9035750000.0 -9035750000.0 -9035750000.0 -9035750000.0 -9035750000.0 -9035750000.0 -9035750000.0 -9035750000.0 -9035750000.0 -9035750000.0 -9035750000.0 -9035750000.0 -9035750000.0 -9035750000.0 -9035750000.0 -9035750000.0 -9035750000.0 -9035750000.0 -9035750000.0 -9035750000.0 -9035750000.0 -9035750000.0 -9035750000.0 -9035760000.0 -9035760000.0 -9035760000.0 -9035770000.0 -9035780000.0 -9035790000.0 -9035810000.0 -9035850000.0 -9035910000.0 -9036010000.0 -9036160000.0 -9036400000.0 -9036790000.0 -9037430000.0 -9038270000.0 -9047440000.0 -9063240000.0 -10127200000.0 -9825640000.0 -9050610000.0 -9043520000.0 -9037520000.0 -9036910000.0 -9036470000.0 -9036200000.0 -9036030000.0 -9035930000.0 -9035860000.0 -9035820000.0 -9035790000.0 -9035780000.0 -9035770000.0 -9035760000.0 -9035760000.0 -9035760000.0 -9035750000.0 -9035750000.0 -9035750000.0 -9035750000.0 -9035750000.0 -9035750000.0 -9035750000.0 -9035750000.0 -9035750000.0 -9035750000.0 -9035750000.0 -9035750000.0 -9035750000.0 -9035750000.0 -9035750000.0 -9035750000.0 -9035750000.0 -9035750000.0 -9035750000.0 -9035750000.0 -9035750000.0 -9035750000.0 -9035750000.0 -9035750000.0 -9035750000.0 -9035750000.0 -9035750000.0 -9035750000.0 -9035750000.0 -9035750000.0 -9035750000.0 -9035750000.0 -9035750000.0 -9035750000.0 -9035750000.0 -9035750000.0 -9035750000.0 -9035750000.0 -9035750000.0 -9035750000.0 -9035750000.0 -9035760000.0 -9035760000.0 -9035760000.0 -9035770000.0 -9035780000.0 -9035790000.0 -9035820000.0 -9035860000.0 -9035930000.0 -9036030000.0 -9036200000.0 -9036470000.0 -9036910000.0 -9037520000.0 -9043520000.0 -9050610000.0 -9825640000.0 -9599370000.0 -9043520000.0 -9040850000.0 -9036990000.0 -9036550000.0 -9036240000.0 -9036060000.0 -9035940000.0 -9035870000.0 -9035820000.0 -9035800000.0 -9035780000.0 -9035770000.0 -9035760000.0 -9035760000.0 -9035760000.0 -9035750000.0 -9035750000.0 -9035750000.0 -9035750000.0 -9035750000.0 -9035750000.0 -9035750000.0 -9035750000.0 -9035750000.0 -9035750000.0 -9035750000.0 -9035750000.0 -9035750000.0 -9035750000.0 -9035750000.0 -9035750000.0 -9035750000.0 -9035750000.0 -9035750000.0 -9035750000.0 -9035750000.0 -9035750000.0 -9035750000.0 -9035750000.0 -9035750000.0 -9035750000.0 -9035750000.0 -9035750000.0 -9035750000.0 -9035750000.0 -9035750000.0 -9035750000.0 -9035750000.0 -9035750000.0 -9035750000.0 -9035750000.0 -9035750000.0 -9035750000.0 -9035750000.0 -9035750000.0 -9035750000.0 -9035750000.0 -9035750000.0 -9035760000.0 -9035760000.0 -9035760000.0 -9035770000.0 -9035780000.0 -9035800000.0 -9035820000.0 -9035870000.0 -9035940000.0 -9036060000.0 -9036240000.0 -9036550000.0 -9036990000.0 -9040850000.0 -9043520000.0 -9599370000.0 -9432190000.0 -9039680000.0 -9039060000.0 -9036610000.0 -9036300000.0 -9036090000.0 -9035960000.0 -9035880000.0 -9035830000.0 -9035800000.0 -9035780000.0 -9035770000.0 -9035760000.0 -9035760000.0 -9035760000.0 -9035750000.0 -9035750000.0 -9035750000.0 -9035750000.0 -9035750000.0 -9035750000.0 -9035750000.0 -9035750000.0 -9035750000.0 -9035750000.0 -9035750000.0 -9035750000.0 -9035750000.0 -9035750000.0 -9035750000.0 -9035750000.0 -9035750000.0 -9035750000.0 -9035750000.0 -9035750000.0 -9035750000.0 -9035750000.0 -9035750000.0 -9035750000.0 -9035750000.0 -9035750000.0 -9035750000.0 -9035750000.0 -9035750000.0 -9035750000.0 -9035750000.0 -9035750000.0 -9035750000.0 -9035750000.0 -9035750000.0 -9035750000.0 -9035750000.0 -9035750000.0 -9035750000.0 -9035750000.0 -9035750000.0 -9035750000.0 -9035750000.0 -9035750000.0 -9035750000.0 -9035760000.0 -9035760000.0 -9035760000.0 -9035770000.0 -9035780000.0 -9035800000.0 -9035830000.0 -9035880000.0 -9035960000.0 -9036090000.0 -9036300000.0 -9036610000.0 -9039060000.0 -9039680000.0 -9432190000.0 -9310540000.0 -9037670000.0 -9037880000.0 -9036340000.0 -9036120000.0 -9035980000.0 -9035890000.0 -9035830000.0 -9035800000.0 -9035780000.0 -9035770000.0 -9035760000.0 -9035760000.0 -9035760000.0 -9035750000.0 -9035750000.0 -9035750000.0 -9035750000.0 -9035750000.0 -9035750000.0 -9035750000.0 -9035750000.0 -9035750000.0 -9035750000.0 -9035750000.0 -9035750000.0 -9035750000.0 -9035750000.0 -9035750000.0 -9035750000.0 -9035750000.0 -9035750000.0 -9035750000.0 -9035750000.0 -9035750000.0 -9035750000.0 -9035750000.0 -9035750000.0 -9035750000.0 -9035750000.0 -9035750000.0 -9035750000.0 -9035750000.0 -9035750000.0 -9035750000.0 -9035750000.0 -9035750000.0 -9035750000.0 -9035750000.0 -9035750000.0 -9035750000.0 -9035750000.0 -9035750000.0 -9035750000.0 -9035750000.0 -9035750000.0 -9035750000.0 -9035750000.0 -9035750000.0 -9035750000.0 -9035750000.0 -9035760000.0 -9035760000.0 -9035760000.0 -9035770000.0 -9035780000.0 -9035800000.0 -9035830000.0 -9035890000.0 -9035980000.0 -9036120000.0 -9036340000.0 -9037880000.0 -9037670000.0 -9310540000.0 -9223390000.0 -9036650000.0 -9037100000.0 -9036150000.0 -9036000000.0 -9035900000.0 -9035840000.0 -9035800000.0 -9035780000.0 -9035770000.0 -9035760000.0 -9035760000.0 -9035760000.0 -9035750000.0 -9035750000.0 -9035750000.0 -9035750000.0 -9035750000.0 -9035750000.0 -9035750000.0 -9035750000.0 -9035750000.0 -9035750000.0 -9035750000.0 -9035750000.0 -9035750000.0 -9035750000.0 -9035750000.0 -9035750000.0 -9035750000.0 -9035750000.0 -9035750000.0 -9035750000.0 -9035750000.0 -9035750000.0 -9035750000.0 -9035750000.0 -9035750000.0 -9035750000.0 -9035750000.0 -9035750000.0 -9035750000.0 -9035750000.0 -9035750000.0 -9035750000.0 -9035750000.0 -9035750000.0 -9035750000.0 -9035750000.0 -9035750000.0 -9035750000.0 -9035750000.0 -9035750000.0 -9035750000.0 -9035750000.0 -9035750000.0 -9035750000.0 -9035750000.0 -9035750000.0 -9035750000.0 -9035750000.0 -9035750000.0 -9035760000.0 -9035760000.0 -9035760000.0 -9035770000.0 -9035780000.0 -9035800000.0 -9035840000.0 -9035900000.0 -9036000000.0 -9036150000.0 -9037100000.0 -9036650000.0 -9223390000.0 -9161930000.0 -9036160000.0 -9036600000.0 -9036020000.0 -9035910000.0 -9035850000.0 -9035810000.0 -9035790000.0 -9035770000.0 -9035760000.0 -9035760000.0 -9035760000.0 -9035750000.0 -9035750000.0 -9035750000.0 -9035750000.0 -9035750000.0 -9035750000.0 -9035750000.0 -9035750000.0 -9035750000.0 -9035750000.0 -9035750000.0 -9035750000.0 -9035750000.0 -9035750000.0 -9035750000.0 -9035750000.0 -9035750000.0 -9035750000.0 -9035750000.0 -9035750000.0 -9035750000.0 -9035750000.0 -9035750000.0 -9035750000.0 -9035750000.0 -9035750000.0 -9035750000.0 -9035750000.0 -9035750000.0 -9035750000.0 -9035750000.0 -9035750000.0 -9035750000.0 -9035750000.0 -9035750000.0 -9035750000.0 -9035750000.0 -9035750000.0 -9035750000.0 -9035750000.0 -9035750000.0 -9035750000.0 -9035750000.0 -9035750000.0 -9035750000.0 -9035750000.0 -9035750000.0 -9035750000.0 -9035750000.0 -9035750000.0 -9035750000.0 -9035760000.0 -9035760000.0 -9035760000.0 -9035770000.0 -9035790000.0 -9035810000.0 -9035850000.0 -9035910000.0 -9036020000.0 -9036600000.0 -9036160000.0 -9161930000.0 -9119290000.0 -9035930000.0 -9036280000.0 -9035920000.0 -9035860000.0 -9035810000.0 -9035790000.0 -9035770000.0 -9035760000.0 -9035760000.0 -9035760000.0 -9035750000.0 -9035750000.0 -9035750000.0 -9035750000.0 -9035750000.0 -9035750000.0 -9035750000.0 -9035750000.0 -9035750000.0 -9035750000.0 -9035750000.0 -9035750000.0 -9035750000.0 -9035750000.0 -9035750000.0 -9035750000.0 -9035750000.0 -9035750000.0 -9035750000.0 -9035750000.0 -9035750000.0 -9035750000.0 -9035750000.0 -9035750000.0 -9035750000.0 -9035750000.0 -9035750000.0 -9035750000.0 -9035750000.0 -9035750000.0 -9035750000.0 -9035750000.0 -9035750000.0 -9035750000.0 -9035750000.0 -9035750000.0 -9035750000.0 -9035750000.0 -9035750000.0 -9035750000.0 -9035750000.0 -9035750000.0 -9035750000.0 -9035750000.0 -9035750000.0 -9035750000.0 -9035750000.0 -9035750000.0 -9035750000.0 -9035750000.0 -9035750000.0 -9035750000.0 -9035750000.0 -9035760000.0 -9035760000.0 -9035760000.0 -9035770000.0 -9035790000.0 -9035810000.0 -9035860000.0 -9035920000.0 -9036280000.0 -9035930000.0 -9119290000.0 -9090180000.0 -9035830000.0 -9036080000.0 -9035860000.0 -9035820000.0 -9035790000.0 -9035770000.0 -9035760000.0 -9035760000.0 -9035760000.0 -9035750000.0 -9035750000.0 -9035750000.0 -9035750000.0 -9035750000.0 -9035750000.0 -9035750000.0 -9035750000.0 -9035750000.0 -9035750000.0 -9035750000.0 -9035750000.0 -9035750000.0 -9035750000.0 -9035750000.0 -9035750000.0 -9035750000.0 -9035750000.0 -9035750000.0 -9035750000.0 -9035750000.0 -9035750000.0 -9035750000.0 -9035750000.0 -9035750000.0 -9035750000.0 -9035750000.0 -9035750000.0 -9035750000.0 -9035750000.0 -9035750000.0 -9035750000.0 -9035750000.0 -9035750000.0 -9035750000.0 -9035750000.0 -9035750000.0 -9035750000.0 -9035750000.0 -9035750000.0 -9035750000.0 -9035750000.0 -9035750000.0 -9035750000.0 -9035750000.0 -9035750000.0 -9035750000.0 -9035750000.0 -9035750000.0 -9035750000.0 -9035750000.0 -9035750000.0 -9035750000.0 -9035750000.0 -9035750000.0 -9035760000.0 -9035760000.0 -9035760000.0 -9035770000.0 -9035790000.0 -9035820000.0 -9035860000.0 -9036080000.0 -9035830000.0 -9090180000.0 -9070630000.0 -9035780000.0 -9035950000.0 -9035820000.0 -9035790000.0 -9035780000.0 -9035770000.0 -9035760000.0 -9035760000.0 -9035750000.0 -9035750000.0 -9035750000.0 -9035750000.0 -9035750000.0 -9035750000.0 -9035750000.0 -9035750000.0 -9035750000.0 -9035750000.0 -9035750000.0 -9035750000.0 -9035750000.0 -9035750000.0 -9035750000.0 -9035750000.0 -9035750000.0 -9035750000.0 -9035750000.0 -9035750000.0 -9035750000.0 -9035750000.0 -9035750000.0 -9035750000.0 -9035750000.0 -9035750000.0 -9035750000.0 -9035750000.0 -9035750000.0 -9035750000.0 -9035750000.0 -9035750000.0 -9035750000.0 -9035750000.0 -9035750000.0 -9035750000.0 -9035750000.0 -9035750000.0 -9035750000.0 -9035750000.0 -9035750000.0 -9035750000.0 -9035750000.0 -9035750000.0 -9035750000.0 -9035750000.0 -9035750000.0 -9035750000.0 -9035750000.0 -9035750000.0 -9035750000.0 -9035750000.0 -9035750000.0 -9035750000.0 -9035750000.0 -9035750000.0 -9035750000.0 -9035760000.0 -9035760000.0 -9035770000.0 -9035780000.0 -9035790000.0 -9035820000.0 -9035950000.0 -9035780000.0 -9070630000.0 -9057730000.0 -9035770000.0 -9035870000.0 -9035800000.0 -9035780000.0 -9035770000.0 -9035760000.0 -9035760000.0 -9035760000.0 -9035750000.0 -9035750000.0 -9035750000.0 -9035750000.0 -9035750000.0 -9035750000.0 -9035750000.0 -9035750000.0 -9035750000.0 -9035750000.0 -9035750000.0 -9035750000.0 -9035750000.0 -9035750000.0 -9035750000.0 -9035750000.0 -9035750000.0 -9035750000.0 -9035750000.0 -9035750000.0 -9035750000.0 -9035750000.0 -9035750000.0 -9035750000.0 -9035750000.0 -9035750000.0 -9035750000.0 -9035750000.0 -9035750000.0 -9035750000.0 -9035750000.0 -9035750000.0 -9035750000.0 -9035750000.0 -9035750000.0 -9035750000.0 -9035750000.0 -9035750000.0 -9035750000.0 -9035750000.0 -9035750000.0 -9035750000.0 -9035750000.0 -9035750000.0 -9035750000.0 -9035750000.0 -9035750000.0 -9035750000.0 -9035750000.0 -9035750000.0 -9035750000.0 -9035750000.0 -9035750000.0 -9035750000.0 -9035750000.0 -9035750000.0 -9035750000.0 -9035760000.0 -9035760000.0 -9035760000.0 -9035770000.0 -9035780000.0 -9035800000.0 -9035870000.0 -9035770000.0 -9057730000.0 -9049360000.0 -9035760000.0 -9035820000.0 -9035780000.0 -9035770000.0 -9035760000.0 -9035760000.0 -9035760000.0 -9035750000.0 -9035750000.0 -9035750000.0 -9035750000.0 -9035750000.0 -9035750000.0 -9035750000.0 -9035750000.0 -9035750000.0 -9035750000.0 -9035750000.0 -9035750000.0 -9035750000.0 -9035750000.0 -9035750000.0 -9035750000.0 -9035750000.0 -9035750000.0 -9035750000.0 -9035750000.0 -9035750000.0 -9035750000.0 -9035750000.0 -9035750000.0 -9035750000.0 -9035750000.0 -9035750000.0 -9035750000.0 -9035750000.0 -9035750000.0 -9035750000.0 -9035750000.0 -9035750000.0 -9035750000.0 -9035750000.0 -9035750000.0 -9035750000.0 -9035750000.0 -9035750000.0 -9035750000.0 -9035750000.0 -9035750000.0 -9035750000.0 -9035750000.0 -9035750000.0 -9035750000.0 -9035750000.0 -9035750000.0 -9035750000.0 -9035750000.0 -9035750000.0 -9035750000.0 -9035750000.0 -9035750000.0 -9035750000.0 -9035750000.0 -9035750000.0 -9035750000.0 -9035750000.0 -9035760000.0 -9035760000.0 -9035760000.0 -9035770000.0 -9035780000.0 -9035820000.0 -9035760000.0 -9049360000.0 -9044030000.0 -9035760000.0 -9035790000.0 -9035770000.0 -9035760000.0 -9035760000.0 -9035760000.0 -9035750000.0 -9035750000.0 -9035750000.0 -9035750000.0 -9035750000.0 -9035750000.0 -9035750000.0 -9035750000.0 -9035750000.0 -9035750000.0 -9035750000.0 -9035750000.0 -9035750000.0 -9035750000.0 -9035750000.0 -9035750000.0 -9035750000.0 -9035750000.0 -9035750000.0 -9035750000.0 -9035750000.0 -9035750000.0 -9035750000.0 -9035750000.0 -9035750000.0 -9035750000.0 -9035750000.0 -9035750000.0 -9035750000.0 -9035750000.0 -9035750000.0 -9035750000.0 -9035750000.0 -9035750000.0 -9035750000.0 -9035750000.0 -9035750000.0 -9035750000.0 -9035750000.0 -9035750000.0 -9035750000.0 -9035750000.0 -9035750000.0 -9035750000.0 -9035750000.0 -9035750000.0 -9035750000.0 -9035750000.0 -9035750000.0 -9035750000.0 -9035750000.0 -9035750000.0 -9035750000.0 -9035750000.0 -9035750000.0 -9035750000.0 -9035750000.0 -9035750000.0 -9035750000.0 -9035750000.0 -9035750000.0 -9035760000.0 -9035760000.0 -9035760000.0 -9035770000.0 -9035790000.0 -9035760000.0 -9044030000.0 -9040700000.0 -9035750000.0 -9035780000.0 -9035760000.0 -9035760000.0 -9035760000.0 -9035750000.0 -9035750000.0 -9035750000.0 -9035750000.0 -9035750000.0 -9035750000.0 -9035750000.0 -9035750000.0 -9035750000.0 -9035750000.0 -9035750000.0 -9035750000.0 -9035750000.0 -9035750000.0 -9035750000.0 -9035750000.0 -9035750000.0 -9035750000.0 -9035750000.0 -9035750000.0 -9035750000.0 -9035750000.0 -9035750000.0 -9035750000.0 -9035750000.0 -9035750000.0 -9035750000.0 -9035750000.0 -9035750000.0 -9035750000.0 -9035750000.0 -9035750000.0 -9035750000.0 -9035750000.0 -9035750000.0 -9035750000.0 -9035750000.0 -9035750000.0 -9035750000.0 -9035750000.0 -9035750000.0 -9035750000.0 -9035750000.0 -9035750000.0 -9035750000.0 -9035750000.0 -9035750000.0 -9035750000.0 -9035750000.0 -9035750000.0 -9035750000.0 -9035750000.0 -9035750000.0 -9035750000.0 -9035750000.0 -9035750000.0 -9035750000.0 -9035750000.0 -9035750000.0 -9035750000.0 -9035750000.0 -9035750000.0 -9035750000.0 -9035760000.0 -9035760000.0 -9035760000.0 -9035780000.0 -9035750000.0 -9040700000.0 -9038650000.0 -9035750000.0 -9035770000.0 -9035760000.0 -9035760000.0 -9035750000.0 -9035750000.0 -9035750000.0 -9035750000.0 -9035750000.0 -9035750000.0 -9035750000.0 -9035750000.0 -9035750000.0 -9035750000.0 -9035750000.0 -9035750000.0 -9035750000.0 -9035750000.0 -9035750000.0 -9035750000.0 -9035750000.0 -9035750000.0 -9035750000.0 -9035750000.0 -9035750000.0 -9035750000.0 -9035750000.0 -9035750000.0 -9035750000.0 -9035750000.0 -9035750000.0 -9035750000.0 -9035750000.0 -9035750000.0 -9035750000.0 -9035750000.0 -9035750000.0 -9035750000.0 -9035750000.0 -9035750000.0 -9035750000.0 -9035750000.0 -9035750000.0 -9035750000.0 -9035750000.0 -9035750000.0 -9035750000.0 -9035750000.0 -9035750000.0 -9035750000.0 -9035750000.0 -9035750000.0 -9035750000.0 -9035750000.0 -9035750000.0 -9035750000.0 -9035750000.0 -9035750000.0 -9035750000.0 -9035750000.0 -9035750000.0 -9035750000.0 -9035750000.0 -9035750000.0 -9035750000.0 -9035750000.0 -9035750000.0 -9035750000.0 -9035750000.0 -9035760000.0 -9035760000.0 -9035770000.0 -9035750000.0 -9038650000.0 -9037420000.0 -9035750000.0 -9035760000.0 -9035760000.0 -9035750000.0 -9035750000.0 -9035750000.0 -9035750000.0 -9035750000.0 -9035750000.0 -9035750000.0 -9035750000.0 -9035750000.0 -9035750000.0 -9035750000.0 -9035750000.0 -9035750000.0 -9035750000.0 -9035750000.0 -9035750000.0 -9035750000.0 -9035750000.0 -9035750000.0 -9035750000.0 -9035750000.0 -9035750000.0 -9035750000.0 -9035750000.0 -9035750000.0 -9035750000.0 -9035750000.0 -9035750000.0 -9035750000.0 -9035750000.0 -9035750000.0 -9035750000.0 -9035750000.0 -9035750000.0 -9035750000.0 -9035750000.0 -9035750000.0 -9035750000.0 -9035750000.0 -9035750000.0 -9035750000.0 -9035750000.0 -9035750000.0 -9035750000.0 -9035750000.0 -9035750000.0 -9035750000.0 -9035750000.0 -9035750000.0 -9035750000.0 -9035750000.0 -9035750000.0 -9035750000.0 -9035750000.0 -9035750000.0 -9035750000.0 -9035750000.0 -9035750000.0 -9035750000.0 -9035750000.0 -9035750000.0 -9035750000.0 -9035750000.0 -9035750000.0 -9035750000.0 -9035750000.0 -9035750000.0 -9035760000.0 -9035760000.0 -9035750000.0 -9037420000.0 -9036690000.0 -9035750000.0 -9035760000.0 -9035750000.0 -9035750000.0 -9035750000.0 -9035750000.0 -9035750000.0 -9035750000.0 -9035750000.0 -9035750000.0 -9035750000.0 -9035750000.0 -9035750000.0 -9035750000.0 -9035750000.0 -9035750000.0 -9035750000.0 -9035750000.0 -9035750000.0 -9035750000.0 -9035750000.0 -9035750000.0 -9035750000.0 -9035750000.0 -9035750000.0 -9035750000.0 -9035750000.0 -9035750000.0 -9035750000.0 -9035750000.0 -9035750000.0 -9035750000.0 -9035750000.0 -9035750000.0 -9035750000.0 -9035750000.0 -9035750000.0 -9035750000.0 -9035750000.0 -9035750000.0 -9035750000.0 -9035750000.0 -9035750000.0 -9035750000.0 -9035750000.0 -9035750000.0 -9035750000.0 -9035750000.0 -9035750000.0 -9035750000.0 -9035750000.0 -9035750000.0 -9035750000.0 -9035750000.0 -9035750000.0 -9035750000.0 -9035750000.0 -9035750000.0 -9035750000.0 -9035750000.0 -9035750000.0 -9035750000.0 -9035750000.0 -9035750000.0 -9035750000.0 -9035750000.0 -9035750000.0 -9035750000.0 -9035750000.0 -9035750000.0 -9035750000.0 -9035760000.0 -9035750000.0 -9036690000.0 -9036270000.0 -9035750000.0 -9035750000.0 -9035750000.0 -9035750000.0 -9035750000.0 -9035750000.0 -9035750000.0 -9035750000.0 -9035750000.0 -9035750000.0 -9035750000.0 -9035750000.0 -9035750000.0 -9035750000.0 -9035750000.0 -9035750000.0 -9035750000.0 -9035750000.0 -9035750000.0 -9035750000.0 -9035750000.0 -9035750000.0 -9035750000.0 -9035750000.0 -9035750000.0 -9035750000.0 -9035750000.0 -9035750000.0 -9035750000.0 -9035750000.0 -9035750000.0 -9035750000.0 -9035750000.0 -9035750000.0 -9035750000.0 -9035750000.0 -9035750000.0 -9035750000.0 -9035750000.0 -9035750000.0 -9035750000.0 -9035750000.0 -9035750000.0 -9035750000.0 -9035750000.0 -9035750000.0 -9035750000.0 -9035750000.0 -9035750000.0 -9035750000.0 -9035750000.0 -9035750000.0 -9035750000.0 -9035750000.0 -9035750000.0 -9035750000.0 -9035750000.0 -9035750000.0 -9035750000.0 -9035750000.0 -9035750000.0 -9035750000.0 -9035750000.0 -9035750000.0 -9035750000.0 -9035750000.0 -9035750000.0 -9035750000.0 -9035750000.0 -9035750000.0 -9035750000.0 -9035750000.0 -9035750000.0 -9036270000.0 -9036030000.0 -9035750000.0 -9035750000.0 -9035750000.0 -9035750000.0 -9035750000.0 -9035750000.0 -9035750000.0 -9035750000.0 -9035750000.0 -9035750000.0 -9035750000.0 -9035750000.0 -9035750000.0 -9035750000.0 -9035750000.0 -9035750000.0 -9035750000.0 -9035750000.0 -9035750000.0 -9035750000.0 -9035750000.0 -9035750000.0 -9035750000.0 -9035750000.0 -9035750000.0 -9035750000.0 -9035750000.0 -9035750000.0 -9035750000.0 -9035750000.0 -9035750000.0 -9035750000.0 -9035750000.0 -9035750000.0 -9035750000.0 -9035750000.0 -9035750000.0 -9035750000.0 -9035750000.0 -9035750000.0 -9035750000.0 -9035750000.0 -9035750000.0 -9035750000.0 -9035750000.0 -9035750000.0 -9035750000.0 -9035750000.0 -9035750000.0 -9035750000.0 -9035750000.0 -9035750000.0 -9035750000.0 -9035750000.0 -9035750000.0 -9035750000.0 -9035750000.0 -9035750000.0 -9035750000.0 -9035750000.0 -9035750000.0 -9035750000.0 -9035750000.0 -9035750000.0 -9035750000.0 -9035750000.0 -9035750000.0 -9035750000.0 -9035750000.0 -9035750000.0 -9035750000.0 -9035750000.0 -9035750000.0 -9036030000.0 -9035900000.0 -9035750000.0 -9035750000.0 -9035750000.0 -9035750000.0 -9035750000.0 -9035750000.0 -9035750000.0 -9035750000.0 -9035750000.0 -9035750000.0 -9035750000.0 -9035750000.0 -9035750000.0 -9035750000.0 -9035750000.0 -9035750000.0 -9035750000.0 -9035750000.0 -9035750000.0 -9035750000.0 -9035750000.0 -9035750000.0 -9035750000.0 -9035750000.0 -9035750000.0 -9035750000.0 -9035750000.0 -9035750000.0 -9035750000.0 -9035750000.0 -9035750000.0 -9035750000.0 -9035750000.0 -9035750000.0 -9035750000.0 -9035750000.0 -9035750000.0 -9035750000.0 -9035750000.0 -9035750000.0 -9035750000.0 -9035750000.0 -9035750000.0 -9035750000.0 -9035750000.0 -9035750000.0 -9035750000.0 -9035750000.0 -9035750000.0 -9035750000.0 -9035750000.0 -9035750000.0 -9035750000.0 -9035750000.0 -9035750000.0 -9035750000.0 -9035750000.0 -9035750000.0 -9035750000.0 -9035750000.0 -9035750000.0 -9035750000.0 -9035750000.0 -9035750000.0 -9035750000.0 -9035750000.0 -9035750000.0 -9035750000.0 -9035750000.0 -9035750000.0 -9035750000.0 -9035750000.0 -9035750000.0 -9035900000.0 -9035830000.0 -9035750000.0 -9035750000.0 -9035750000.0 -9035750000.0 -9035750000.0 -9035750000.0 -9035750000.0 -9035750000.0 -9035750000.0 -9035750000.0 -9035750000.0 -9035750000.0 -9035750000.0 -9035750000.0 -9035750000.0 -9035750000.0 -9035750000.0 -9035750000.0 -9035750000.0 -9035750000.0 -9035750000.0 -9035750000.0 -9035750000.0 -9035750000.0 -9035750000.0 -9035750000.0 -9035750000.0 -9035750000.0 -9035750000.0 -9035750000.0 -9035750000.0 -9035750000.0 -9035750000.0 -9035750000.0 -9035750000.0 -9035750000.0 -9035750000.0 -9035750000.0 -9035750000.0 -9035750000.0 -9035750000.0 -9035750000.0 -9035750000.0 -9035750000.0 -9035750000.0 -9035750000.0 -9035750000.0 -9035750000.0 -9035750000.0 -9035750000.0 -9035750000.0 -9035750000.0 -9035750000.0 -9035750000.0 -9035750000.0 -9035750000.0 -9035750000.0 -9035750000.0 -9035750000.0 -9035750000.0 -9035750000.0 -9035750000.0 -9035750000.0 -9035750000.0 -9035750000.0 -9035750000.0 -9035750000.0 -9035750000.0 -9035750000.0 -9035750000.0 -9035750000.0 -9035750000.0 -9035750000.0 -9035830000.0 -9035790000.0 -9035750000.0 -9035750000.0 -9035750000.0 -9035750000.0 -9035750000.0 -9035750000.0 -9035750000.0 -9035750000.0 -9035750000.0 -9035750000.0 -9035750000.0 -9035750000.0 -9035750000.0 -9035750000.0 -9035750000.0 -9035750000.0 -9035750000.0 -9035750000.0 -9035750000.0 -9035750000.0 -9035750000.0 -9035750000.0 -9035750000.0 -9035750000.0 -9035750000.0 -9035750000.0 -9035750000.0 -9035750000.0 -9035750000.0 -9035750000.0 -9035750000.0 -9035750000.0 -9035750000.0 -9035750000.0 -9035750000.0 -9035750000.0 -9035750000.0 -9035750000.0 -9035750000.0 -9035750000.0 -9035750000.0 -9035750000.0 -9035750000.0 -9035750000.0 -9035750000.0 -9035750000.0 -9035750000.0 -9035750000.0 -9035750000.0 -9035750000.0 -9035750000.0 -9035750000.0 -9035750000.0 -9035750000.0 -9035750000.0 -9035750000.0 -9035750000.0 -9035750000.0 -9035750000.0 -9035750000.0 -9035750000.0 -9035750000.0 -9035750000.0 -9035750000.0 -9035750000.0 -9035750000.0 -9035750000.0 -9035750000.0 -9035750000.0 -9035750000.0 -9035750000.0 -9035750000.0 -9035750000.0 -9035790000.0 -9035770000.0 -9035750000.0 -9035750000.0 -9035750000.0 -9035750000.0 -9035750000.0 -9035750000.0 -9035750000.0 -9035750000.0 -9035750000.0 -9035750000.0 -9035750000.0 -9035750000.0 -9035750000.0 -9035750000.0 -9035750000.0 -9035750000.0 -9035750000.0 -9035750000.0 -9035750000.0 -9035750000.0 -9035750000.0 -9035750000.0 -9035750000.0 -9035750000.0 -9035750000.0 -9035750000.0 -9035750000.0 -9035750000.0 -9035750000.0 -9035750000.0 -9035750000.0 -9035750000.0 -9035750000.0 -9035750000.0 -9035750000.0 -9035750000.0 -9035750000.0 -9035750000.0 -9035750000.0 -9035750000.0 -9035750000.0 -9035750000.0 -9035750000.0 -9035750000.0 -9035750000.0 -9035750000.0 -9035750000.0 -9035750000.0 -9035750000.0 -9035750000.0 -9035750000.0 -9035750000.0 -9035750000.0 -9035750000.0 -9035750000.0 -9035750000.0 -9035750000.0 -9035750000.0 -9035750000.0 -9035750000.0 -9035750000.0 -9035750000.0 -9035750000.0 -9035750000.0 -9035750000.0 -9035750000.0 -9035750000.0 -9035750000.0 -9035750000.0 -9035750000.0 -9035750000.0 -9035750000.0 -9035750000.0 -9035770000.0 -9035760000.0 -9035750000.0 -9035750000.0 -9035750000.0 -9035750000.0 -9035750000.0 -9035750000.0 -9035750000.0 -9035750000.0 -9035750000.0 -9035750000.0 -9035750000.0 -9035750000.0 -9035750000.0 -9035750000.0 -9035750000.0 -9035750000.0 -9035750000.0 -9035750000.0 -9035750000.0 -9035750000.0 -9035750000.0 -9035750000.0 -9035750000.0 -9035750000.0 -9035750000.0 -9035750000.0 -9035750000.0 -9035750000.0 -9035750000.0 -9035750000.0 -9035750000.0 -9035750000.0 -9035750000.0 -9035750000.0 -9035750000.0 -9035750000.0 -9035750000.0 -9035750000.0 -9035750000.0 -9035750000.0 -9035750000.0 -9035750000.0 -9035750000.0 -9035750000.0 -9035750000.0 -9035750000.0 -9035750000.0 -9035750000.0 -9035750000.0 -9035750000.0 -9035750000.0 -9035750000.0 -9035750000.0 -9035750000.0 -9035750000.0 -9035750000.0 -9035750000.0 -9035750000.0 -9035750000.0 -9035750000.0 -9035750000.0 -9035750000.0 -9035750000.0 -9035750000.0 -9035750000.0 -9035750000.0 -9035750000.0 -9035750000.0 -9035750000.0 -9035750000.0 -9035750000.0 -9035750000.0 -9035750000.0 -9035760000.0 -9035760000.0 -9035750000.0 -9035750000.0 -9035750000.0 -9035750000.0 -9035750000.0 -9035750000.0 -9035750000.0 -9035750000.0 -9035750000.0 -9035750000.0 -9035750000.0 -9035750000.0 -9035750000.0 -9035750000.0 -9035750000.0 -9035750000.0 -9035750000.0 -9035750000.0 -9035750000.0 -9035750000.0 -9035750000.0 -9035750000.0 -9035750000.0 -9035750000.0 -9035750000.0 -9035750000.0 -9035750000.0 -9035750000.0 -9035750000.0 -9035750000.0 -9035750000.0 -9035750000.0 -9035750000.0 -9035750000.0 -9035750000.0 -9035750000.0 -9035750000.0 -9035750000.0 -9035750000.0 -9035750000.0 -9035750000.0 -9035750000.0 -9035750000.0 -9035750000.0 -9035750000.0 -9035750000.0 -9035750000.0 -9035750000.0 -9035750000.0 -9035750000.0 -9035750000.0 -9035750000.0 -9035750000.0 -9035750000.0 -9035750000.0 -9035750000.0 -9035750000.0 -9035750000.0 -9035750000.0 -9035750000.0 -9035750000.0 -9035750000.0 -9035750000.0 -9035750000.0 -9035750000.0 -9035750000.0 -9035750000.0 -9035750000.0 -9035750000.0 -9035750000.0 -9035750000.0 -9035750000.0 -9035750000.0 -9035760000.0 -9035750000.0 -9035750000.0 -9035750000.0 -9035750000.0 -9035750000.0 -9035750000.0 -9035750000.0 -9035750000.0 -9035750000.0 -9035750000.0 -9035750000.0 -9035750000.0 -9035750000.0 -9035750000.0 -9035750000.0 -9035750000.0 -9035750000.0 -9035750000.0 -9035750000.0 -9035750000.0 -9035750000.0 -9035750000.0 -9035750000.0 -9035750000.0 -9035750000.0 -9035750000.0 -9035750000.0 -9035750000.0 -9035750000.0 -9035750000.0 -9035750000.0 -9035750000.0 -9035750000.0 -9035750000.0 -9035750000.0 -9035750000.0 -9035750000.0 -9035750000.0 -9035750000.0 -9035750000.0 -9035750000.0 -9035750000.0 -9035750000.0 -9035750000.0 -9035750000.0 -9035750000.0 -9035750000.0 -9035750000.0 -9035750000.0 -9035750000.0 -9035750000.0 -9035750000.0 -9035750000.0 -9035750000.0 -9035750000.0 -9035750000.0 -9035750000.0 -9035750000.0 -9035750000.0 -9035750000.0 -9035750000.0 -9035750000.0 -9035750000.0 -9035750000.0 -9035750000.0 -9035750000.0 -9035750000.0 -9035750000.0 -9035750000.0 -9035750000.0 -9035750000.0 -9035750000.0 -9035750000.0 -9035750000.0 -9035750000.0 -9035750000.0 -9035750000.0 -9035750000.0 -9035750000.0 -9035750000.0 -9035750000.0 -9035750000.0 -9035750000.0 -9035750000.0 -9035750000.0 -9035750000.0 -9035750000.0 -9035750000.0 -9035750000.0 -9035750000.0 -9035750000.0 -9035750000.0 -9035750000.0 -9035750000.0 -9035750000.0 -9035750000.0 -9035750000.0 -9035750000.0 -9035750000.0 -9035750000.0 -9035750000.0 -9035750000.0 -9035750000.0 -9035750000.0 -9035750000.0 -9035750000.0 -9035750000.0 -9035750000.0 -9035750000.0 -9035750000.0 -9035750000.0 -9035750000.0 -9035750000.0 -9035750000.0 -9035750000.0 -9035750000.0 -9035750000.0 -9035750000.0 -9035750000.0 -9035750000.0 -9035750000.0 -9035750000.0 -9035750000.0 -9035750000.0 -9035750000.0 -9035750000.0 -9035750000.0 -9035750000.0 -9035750000.0 -9035750000.0 -9035750000.0 -9035750000.0 -9035750000.0 -9035750000.0 -9035750000.0 -9035750000.0 -9035750000.0 -9035750000.0 -9035750000.0 -9035750000.0 -9035750000.0 -9035750000.0 -9035750000.0 -9035750000.0 -9035750000.0 -9035750000.0 -9035750000.0 -9035750000.0 -9035750000.0 -9035750000.0 -9035750000.0 -9035750000.0 -9035750000.0 -9035750000.0 -9035750000.0 -9035750000.0 -9035750000.0 -9035750000.0 -9035750000.0 -9035750000.0 -9035750000.0 -9035750000.0 -9035750000.0 -9035750000.0 -9035750000.0 -9035750000.0 -9035750000.0 -9035750000.0 -9035750000.0 -9035750000.0 -9035750000.0 -9035750000.0 -9035750000.0 -9035750000.0 -9035750000.0 -9035750000.0 -9035750000.0 -9035750000.0 -9035750000.0 -9035750000.0 -9035750000.0 -9035750000.0 -9035750000.0 -9035750000.0 -9035750000.0 -9035750000.0 -9035750000.0 -9035750000.0 -9035750000.0 -9035750000.0 -9035750000.0 -9035750000.0 -9035750000.0 -9035750000.0 -9035750000.0 -9035750000.0 -9035750000.0 -9035750000.0 -9035750000.0 -9035750000.0 -9035750000.0 -9035750000.0 -9035750000.0 -9035750000.0 -9035750000.0 -9035750000.0 -9035750000.0 -9035750000.0 -9035750000.0 -9035750000.0 -9035750000.0 -9035750000.0 -9035750000.0 -9035750000.0 -9035750000.0 -9035750000.0 -9035750000.0 -9035750000.0 -9035750000.0 -9035750000.0 -9035750000.0 -9035750000.0 -9035750000.0 -9035750000.0 -9035750000.0 
SCALARS Shear_Stress float 1
LOOKUP_TABLE default
224743000000.0 426059000000.0 395397000000.0 366202000000.0 334405000000.0 304949000000.0 278725000000.0 252177000000.0 226736000000.0 200326000000.0 172220000000.0 146964000000.0 127481000000.0 112568000000.0 99990900000.0 88547200000.0 77939100000.0 68159200000.0 59232100000.0 51173100000.0 43960400000.0 37541100000.0 31854600000.0 26844300000.0 22445100000.0 18585700000.0 15210800000.0 12290300000.0 9794820000.0 7690040000.0 5941740000.0 4525630000.0 3428920000.0 2646060000.0 2175680000.0 2018650000.0 2175680000.0 2646060000.0 3428920000.0 4525630000.0 5941740000.0 7690040000.0 9794820000.0 12290300000.0 15210800000.0 18585700000.0 22445100000.0 26844300000.0 31854600000.0 37541100000.0 43960400000.0 51173100000.0 59232100000.0 68159200000.0 77939100000.0 88547200000.0 99990900000.0 112568000000.0 127481000000.0 146964000000.0 172220000000.0 200326000000.0 226736000000.0 252177000000.0 278725000000.0 304949000000.0 334405000000.0 366202000000.0 395397000000.0 426059000000.0 224743000000.0 146337000000.0 146337000000.0 68067700000.0 94696800000.0 423681000000.0 280258000000.0 556702000000.0 495567000000.0 432501000000.0 375866000000.0 326730000000.0 283230000000.0 241773000000.0 202798000000.0 170100000000.0 143814000000.0 121142000000.0 101364000000.0 85539200000.0 73689500000.0 64475500000.0 56497800000.0 49010500000.0 41818800000.0 34973300000.0 28574900000.0 22707600000.0 17424700000.0 12754800000.0 8696220000.0 5218290000.0 2274980000.0 184146000.0 2211170000.0 3851500000.0 5147800000.0 6141210000.0 6869930000.0 7366310000.0 7654350000.0 7748710000.0 7654350000.0 7366310000.0 6869930000.0 6141210000.0 5147800000.0 3851500000.0 2211170000.0 184146000.0 2274980000.0 5218290000.0 8696220000.0 12754800000.0 17424700000.0 22707600000.0 28574900000.0 34973300000.0 41818800000.0 49010500000.0 56497800000.0 64475500000.0 73689500000.0 85539200000.0 101364000000.0 121142000000.0 143814000000.0 170100000000.0 202798000000.0 241773000000.0 283230000000.0 326730000000.0 375866000000.0 432501000000.0 495567000000.0 556702000000.0 280258000000.0 423681000000.0 94696800000.0 68067700000.0 71836200000.0 210969000000.0 175601000000.0 143988000000.0 137162000000.0 136905000000.0 134691000000.0 124973000000.0 108932000000.0 91246900000.0 75023900000.0 60690600000.0 47805800000.0 36335900000.0 26424500000.0 18159900000.0 11575800000.0 6510540000.0 2641850000.0 293213000.0 2427260000.0 3878880000.0 4822110000.0 5447540000.0 5904100000.0 6278040000.0 6607680000.0 6907650000.0 7180650000.0 7424770000.0 7637340000.0 7815320000.0 7956000000.0 8057480000.0 8118690000.0 8139130000.0 8118690000.0 8057480000.0 7956000000.0 7815320000.0 7637340000.0 7424770000.0 7180650000.0 6907650000.0 6607680000.0 6278040000.0 5904100000.0 5447540000.0 4822110000.0 3878880000.0 2427260000.0 293213000.0 2641850000.0 6510540000.0 11575800000.0 18159900000.0 26424500000.0 36335900000.0 47805800000.0 60690600000.0 75023900000.0 91246900000.0 108932000000.0 124973000000.0 134691000000.0 136905000000.0 137162000000.0 143988000000.0 175601000000.0 210969000000.0 71836200000.0 46922800000.0 200037000000.0 200037000000.0 46922800000.0 54274000000.0 88992900000.0 99504200000.0 193244000000.0 151657000000.0 101886000000.0 72913600000.0 42522500000.0 13849300000.0 2334100000.0 7808850000.0 8927610000.0 9035790000.0 9035820000.0 9035880000.0 9037010000.0 9037930000.0 9038340000.0 9038450000.0 9038580000.0 9039770000.0 9044520000.0 9047880000.0 9048800000.0 9047750000.0 9045760000.0 9043350000.0 9040610000.0 9038600000.0 9037590000.0 9036930000.0 9036470000.0 9036160000.0 9035970000.0 9035860000.0 9035800000.0 9035760000.0 9035750000.0 9035760000.0 9035800000.0 9035860000.0 9035970000.0 9036160000.0 9036470000.0 9036930000.0 9037590000.0 9038600000.0 9040610000.0 9043350000.0 9045760000.0 9047750000.0 9048800000.0 9047880000.0 9044520000.0 9039770000.0 9038580000.0 9038450000.0 9038340000.0 9037930000.0 9037010000.0 9035880000.0 9035820000.0 9035790000.0 8927610000.0 7808850000.0 2334100000.0 13849300000.0 42522500000.0 72913600000.0 101886000000.0 151657000000.0 193244000000.0 99504200000.0 88992900000.0 54274000000.0 119854000000.0 94011800000.0 102514000000.0 85145800000.0 70049600000.0 54766400000.0 41885800000.0 31270900000.0 22488500000.0 15185900000.0 9129420000.0 4201870000.0 338314000.0 2571170000.0 4685140000.0 6169360000.0 7172000000.0 7823550000.0 8235440000.0 8492490000.0 8652430000.0 8754630000.0 8822790000.0 8870360000.0 8905110000.0 8932210000.0 8954440000.0 8972720000.0 8987740000.0 8999950000.0 9009620000.0 9017020000.0 9022490000.0 9026330000.0 9028630000.0 9029410000.0 9028630000.0 9026330000.0 9022490000.0 9017020000.0 9009620000.0 8999950000.0 8987740000.0 8972720000.0 8954440000.0 8932210000.0 8905110000.0 8870360000.0 8822790000.0 8754630000.0 8652430000.0 8492490000.0 8235440000.0 7823550000.0 7172000000.0 6169360000.0 4685140000.0 2571170000.0 338314000.0 4201870000.0 9129420000.0 15185900000.0 22488500000.0 31270900000.0 41885800000.0 54766400000.0 70049600000.0 85145800000.0 102514000000.0 94011800000.0 119854000000.0 88791500000.0 131788000000.0 131788000000.0 88791500000.0 69443100000.0 262209000000.0 149376000000.0 33750300000.0 9104030000.0 9438000000.0 9137520000.0 9135750000.0 9123030000.0 9105290000.0 9090000000.0 9077490000.0 9067730000.0 9060980000.0 9056360000.0 9052840000.0 9050090000.0 9048640000.0 9047740000.0 9047770000.0 9049210000.0 9049630000.0 9048310000.0 9046070000.0 9043580000.0 9041060000.0 9039010000.0 9037760000.0 9037030000.0 9036540000.0 9036220000.0 9036020000.0 9035900000.0 9035830000.0 9035790000.0 9035770000.0 9035760000.0 9035750000.0 9035760000.0 9035770000.0 9035790000.0 9035830000.0 9035900000.0 9036020000.0 9036220000.0 9036540000.0 9037030000.0 9037760000.0 9039010000.0 9041060000.0 9043580000.0 9046070000.0 9048310000.0 9049630000.0 9049210000.0 9047770000.0 9047740000.0 9048640000.0 9050090000.0 9052840000.0 9056360000.0 9060980000.0 9067730000.0 9077490000.0 9090000000.0 9105290000.0 9123030000.0 9135750000.0 9137520000.0 9438000000.0 9104030000.0 33750300000.0 149376000000.0 262209000000.0 69443100000.0 71704600000.0 18447800000.0 136632000.0 2544220000.0 3766720000.0 5631950000.0 7535040000.0 8607360000.0 8982720000.0 9067700000.0 9075110000.0 9069240000.0 9062850000.0 9057700000.0 9054240000.0 9052130000.0 9050780000.0 9050430000.0 9050240000.0 9048730000.0 9046340000.0 9043770000.0 9041280000.0 9039220000.0 9037880000.0 9037090000.0 9036580000.0 9036250000.0 9036040000.0 9035920000.0 9035850000.0 9035800000.0 9035780000.0 9035760000.0 9035760000.0 9035750000.0 9035760000.0 9035760000.0 9035780000.0 9035800000.0 9035850000.0 9035920000.0 9036040000.0 9036250000.0 9036580000.0 9037090000.0 9037880000.0 9039220000.0 9041280000.0 9043770000.0 9046340000.0 9048730000.0 9050240000.0 9050430000.0 9050780000.0 9052130000.0 9054240000.0 9057700000.0 9062850000.0 9069240000.0 9075110000.0 9067700000.0 8982720000.0 8607360000.0 7535040000.0 5631950000.0 3766720000.0 2544220000.0 136632000.0 18447800000.0 71704600000.0 62839200000.0 274162000000.0 274162000000.0 62839200000.0 74298000000.0 275906000000.0 46545400000.0 26969800000.0 9313820000.0 9389720000.0 9305640000.0 9238520000.0 9186420000.0 9144660000.0 9116140000.0 9098680000.0 9085100000.0 9074530000.0 9066490000.0 9060680000.0 9056840000.0 9054160000.0 9052310000.0 9051050000.0 9049240000.0 9046700000.0 9044020000.0 9041510000.0 9039430000.0 9038010000.0 9037160000.0 9036620000.0 9036280000.0 9036070000.0 9035940000.0 9035860000.0 9035820000.0 9035790000.0 9035770000.0 9035760000.0 9035760000.0 9035750000.0 9035760000.0 9035760000.0 9035770000.0 9035790000.0 9035820000.0 9035860000.0 9035940000.0 9036070000.0 9036280000.0 9036620000.0 9037160000.0 9038010000.0 9039430000.0 9041510000.0 9044020000.0 9046700000.0 9049240000.0 9051050000.0 9052310000.0 9054160000.0 9056840000.0 9060680000.0 9066490000.0 9074530000.0 9085100000.0 9098680000.0 9116140000.0 9144660000.0 9186420000.0 9238520000.0 9305640000.0 9389720000.0 9313820000.0 26969800000.0 46545400000.0 275906000000.0 74298000000.0 87398700000.0 259654000000.0 22337600000.0 22339700000.0 9406120000.0 9447420000.0 9339570000.0 9261120000.0 9201670000.0 9153430000.0 9123030000.0 9103220000.0 9087970000.0 9076470000.0 9068040000.0 9062080000.0 9057840000.0 9054640000.0 9052200000.0 9049870000.0 9047130000.0 9044320000.0 9041760000.0 9039650000.0 9038160000.0 9037240000.0 9036680000.0 9036320000.0 9036090000.0 9035960000.0 9035880000.0 9035830000.0 9035800000.0 9035780000.0 9035770000.0 9035760000.0 9035750000.0 9035750000.0 9035750000.0 9035760000.0 9035770000.0 9035780000.0 9035800000.0 9035830000.0 9035880000.0 9035960000.0 9036090000.0 9036320000.0 9036680000.0 9037240000.0 9038160000.0 9039650000.0 9041760000.0 9044320000.0 9047130000.0 9049870000.0 9052200000.0 9054640000.0 9057840000.0 9062080000.0 9068040000.0 9076470000.0 9087970000.0 9103220000.0 9123030000.0 9153430000.0 9201670000.0 9261120000.0 9339570000.0 9447420000.0 9406120000.0 22339700000.0 22337600000.0 259654000000.0 87398700000.0 95078500000.0 236438000000.0 12823300000.0 18620300000.0 9469020000.0 9469730000.0 9353480000.0 9269380000.0 9202940000.0 9154230000.0 9124290000.0 9103410000.0 9087790000.0 9076320000.0 9068020000.0 9061950000.0 9057320000.0 9053720000.0 9050680000.0 9047650000.0 9044680000.0 9042030000.0 9039880000.0 9038320000.0 9037340000.0 9036740000.0 9036360000.0 9036120000.0 9035980000.0 9035890000.0 9035840000.0 9035810000.0 9035790000.0 9035780000.0 9035770000.0 9035760000.0 9035750000.0 9035750000.0 9035750000.0 9035760000.0 9035770000.0 9035780000.0 9035790000.0 9035810000.0 9035840000.0 9035890000.0 9035980000.0 9036120000.0 9036360000.0 9036740000.0 9037340000.0 9038320000.0 9039880000.0 9042030000.0 9044680000.0 9047650000.0 9050680000.0 9053720000.0 9057320000.0 9061950000.0 9068020000.0 9076320000.0 9087790000.0 9103410000.0 9124290000.0 9154230000.0 9202940000.0 9269380000.0 9353480000.0 9469730000.0 9469020000.0 18620300000.0 12823300000.0 236438000000.0 95078500000.0 98265000000.0 209810000000.0 10582400000.0 15869800000.0 9503170000.0 9467710000.0 9349440000.0 9260210000.0 9193600000.0 9149600000.0 9121150000.0 9100650000.0 9085610000.0 9074650000.0 9066570000.0 9060390000.0 9055560000.0 9051700000.0 9048270000.0 9045100000.0 9042340000.0 9040120000.0 9038500000.0 9037450000.0 9036800000.0 9036400000.0 9036150000.0 9036000000.0 9035910000.0 9035850000.0 9035820000.0 9035800000.0 9035780000.0 9035770000.0 9035770000.0 9035760000.0 9035750000.0 9035750000.0 9035750000.0 9035760000.0 9035770000.0 9035770000.0 9035780000.0 9035800000.0 9035820000.0 9035850000.0 9035910000.0 9036000000.0 9036150000.0 9036400000.0 9036800000.0 9037450000.0 9038500000.0 9040120000.0 9042340000.0 9045100000.0 9048270000.0 9051700000.0 9055560000.0 9060390000.0 9066570000.0 9074650000.0 9085610000.0 9100650000.0 9121150000.0 9149600000.0 9193600000.0 9260210000.0 9349440000.0 9467710000.0 9503170000.0 15869800000.0 10582400000.0 209810000000.0 98265000000.0 97522900000.0 181812000000.0 10349900000.0 13847900000.0 9510400000.0 9445320000.0 9326900000.0 9239630000.0 9180260000.0 9141750000.0 9115270000.0 9096060000.0 9082060000.0 9071720000.0 9063870000.0 9057750000.0 9052960000.0 9049020000.0 9045600000.0 9042700000.0 9040380000.0 9038690000.0 9037570000.0 9036880000.0 9036450000.0 9036190000.0 9036020000.0 9035920000.0 9035860000.0 9035830000.0 9035810000.0 9035790000.0 9035780000.0 9035770000.0 9035760000.0 9035760000.0 9035750000.0 9035750000.0 9035750000.0 9035760000.0 9035760000.0 9035770000.0 9035780000.0 9035790000.0 9035810000.0 9035830000.0 9035860000.0 9035920000.0 9036020000.0 9036190000.0 9036450000.0 9036880000.0 9037570000.0 9038690000.0 9040380000.0 9042700000.0 9045600000.0 9049020000.0 9052960000.0 9057750000.0 9063870000.0 9071720000.0 9082060000.0 9096060000.0 9115270000.0 9141750000.0 9180260000.0 9239630000.0 9326900000.0 9445320000.0 9510400000.0 13847900000.0 10349900000.0 181812000000.0 97522900000.0 93565100000.0 154172000000.0 10413800000.0 12362500000.0 9494010000.0 9405210000.0 9293580000.0 9216410000.0 9165940000.0 9131980000.0 9107850000.0 9090340000.0 9077460000.0 9067750000.0 9060290000.0 9054490000.0 9049910000.0 9046170000.0 9043090000.0 9040670000.0 9038900000.0 9037710000.0 9036970000.0 9036510000.0 9036230000.0 9036050000.0 9035940000.0 9035880000.0 9035840000.0 9035810000.0 9035800000.0 9035780000.0 9035770000.0 9035770000.0 9035760000.0 9035760000.0 9035750000.0 9035750000.0 9035750000.0 9035760000.0 9035760000.0 9035770000.0 9035770000.0 9035780000.0 9035800000.0 9035810000.0 9035840000.0 9035880000.0 9035940000.0 9036050000.0 9036230000.0 9036510000.0 9036970000.0 9037710000.0 9038900000.0 9040670000.0 9043090000.0 9046170000.0 9049910000.0 9054490000.0 9060290000.0 9067750000.0 9077460000.0 9090340000.0 9107850000.0 9131980000.0 9165940000.0 9216410000.0 9293580000.0 9405210000.0 9494010000.0 12362500000.0 10413800000.0 154172000000.0 93565100000.0 87241000000.0 128144000000.0 10445000000.0 11290400000.0 9459070000.0 9356490000.0 9259160000.0 9194350000.0 9151270000.0 9121230000.0 9099640000.0 9083860000.0 9072090000.0 9063150000.0 9056290000.0 9051000000.0 9046840000.0 9043550000.0 9041000000.0 9039130000.0 9037870000.0 9037070000.0 9036570000.0 9036270000.0 9036080000.0 9035960000.0 9035890000.0 9035850000.0 9035820000.0 9035800000.0 9035790000.0 9035780000.0 9035770000.0 9035760000.0 9035760000.0 9035760000.0 9035750000.0 9035750000.0 9035750000.0 9035760000.0 9035760000.0 9035760000.0 9035770000.0 9035780000.0 9035790000.0 9035800000.0 9035820000.0 9035850000.0 9035890000.0 9035960000.0 9036080000.0 9036270000.0 9036570000.0 9037070000.0 9037870000.0 9039130000.0 9041000000.0 9043550000.0 9046840000.0 9051000000.0 9056290000.0 9063150000.0 9072090000.0 9083860000.0 9099640000.0 9121230000.0 9151270000.0 9194350000.0 9259160000.0 9356490000.0 9459070000.0 11290400000.0 10445000000.0 128144000000.0 87241000000.0 79485100000.0 104536000000.0 10418500000.0 10538600000.0 9413470000.0 9308970000.0 9227960000.0 9173720000.0 9136560000.0 9110170000.0 9091050000.0 9076950000.0 9066370000.0 9058360000.0 9052280000.0 9047630000.0 9044060000.0 9041350000.0 9039380000.0 9038040000.0 9037180000.0 9036650000.0 9036320000.0 9036110000.0 9035990000.0 9035910000.0 9035860000.0 9035830000.0 9035800000.0 9035790000.0 9035780000.0 9035770000.0 9035770000.0 9035760000.0 9035760000.0 9035750000.0 9035750000.0 9035750000.0 9035750000.0 9035750000.0 9035760000.0 9035760000.0 9035770000.0 9035770000.0 9035780000.0 9035790000.0 9035800000.0 9035830000.0 9035860000.0 9035910000.0 9035990000.0 9036110000.0 9036320000.0 9036650000.0 9037180000.0 9038040000.0 9039380000.0 9041350000.0 9044060000.0 9047630000.0 9052280000.0 9058360000.0 9066370000.0 9076950000.0 9091050000.0 9110170000.0 9136560000.0 9173720000.0 9227960000.0 9308970000.0 9413470000.0 10538600000.0 10418500000.0 104536000000.0 79485100000.0 71165800000.0 83854100000.0 10350000000.0 10027800000.0 9364920000.0 9267080000.0 9200170000.0 9154280000.0 9122190000.0 9099180000.0 9082400000.0 9069980000.0 9060710000.0 9053770000.0 9048560000.0 9044660000.0 9041760000.0 9039660000.0 9038230000.0 9037310000.0 9036730000.0 9036370000.0 9036150000.0 9036010000.0 9035920000.0 9035870000.0 9035830000.0 9035810000.0 9035790000.0 9035780000.0 9035770000.0 9035770000.0 9035760000.0 9035760000.0 9035760000.0 9035750000.0 9035750000.0 9035750000.0 9035750000.0 9035750000.0 9035760000.0 9035760000.0 9035760000.0 9035770000.0 9035770000.0 9035780000.0 9035790000.0 9035810000.0 9035830000.0 9035870000.0 9035920000.0 9036010000.0 9036150000.0 9036370000.0 9036730000.0 9037310000.0 9038230000.0 9039660000.0 9041760000.0 9044660000.0 9048560000.0 9053770000.0 9060710000.0 9069980000.0 9082400000.0 9099180000.0 9122190000.0 9154280000.0 9200170000.0 9267080000.0 9364920000.0 10027800000.0 10350000000.0 83854100000.0 71165800000.0 62955400000.0 66350400000.0 10252900000.0 9691330000.0 9317970000.0 9230820000.0 9175080000.0 9136070000.0 9108470000.0 9088590000.0 9074060000.0 9063370000.0 9055470000.0 9049640000.0 9045350000.0 9042210000.0 9039970000.0 9038440000.0 9037440000.0 9036820000.0 9036430000.0 9036190000.0 9036040000.0 9035940000.0 9035880000.0 9035840000.0 9035810000.0 9035800000.0 9035780000.0 9035770000.0 9035770000.0 9035760000.0 9035760000.0 9035760000.0 9035750000.0 9035750000.0 9035750000.0 9035750000.0 9035750000.0 9035750000.0 9035750000.0 9035760000.0 9035760000.0 9035760000.0 9035770000.0 9035770000.0 9035780000.0 9035800000.0 9035810000.0 9035840000.0 9035880000.0 9035940000.0 9036040000.0 9036190000.0 9036430000.0 9036820000.0 9037440000.0 9038440000.0 9039970000.0 9042210000.0 9045350000.0 9049640000.0 9055470000.0 9063370000.0 9074060000.0 9088590000.0 9108470000.0 9136070000.0 9175080000.0 9230820000.0 9317970000.0 9691330000.0 10252900000.0 66350400000.0 62955400000.0 55291300000.0 52021100000.0 10137100000.0 9475700000.0 9274430000.0 9199070000.0 9152310000.0 9119210000.0 9095680000.0 9078710000.0 9066390000.0 9057410000.0 9050880000.0 9046140000.0 9042730000.0 9040320000.0 9038680000.0 9037600000.0 9036920000.0 9036490000.0 9036230000.0 9036060000.0 9035960000.0 9035890000.0 9035850000.0 9035820000.0 9035800000.0 9035790000.0 9035780000.0 9035770000.0 9035760000.0 9035760000.0 9035760000.0 9035760000.0 9035750000.0 9035750000.0 9035750000.0 9035750000.0 9035750000.0 9035750000.0 9035750000.0 9035760000.0 9035760000.0 9035760000.0 9035760000.0 9035770000.0 9035780000.0 9035790000.0 9035800000.0 9035820000.0 9035850000.0 9035890000.0 9035960000.0 9036060000.0 9036230000.0 9036490000.0 9036920000.0 9037600000.0 9038680000.0 9040320000.0 9042730000.0 9046140000.0 9050880000.0 9057410000.0 9066390000.0 9078710000.0 9095680000.0 9119210000.0 9152310000.0 9199070000.0 9274430000.0 9475700000.0 10137100000.0 52021100000.0 55291300000.0 48401400000.0 40647100000.0 10010700000.0 9339550000.0 9234880000.0 9170990000.0 9131780000.0 9103880000.0 9084050000.0 9069840000.0 9059630000.0 9052290000.0 9047040000.0 9043310000.0 9040710000.0 9038930000.0 9037770000.0 9037030000.0 9036570000.0 9036280000.0 9036100000.0 9035980000.0 9035910000.0 9035860000.0 9035830000.0 9035800000.0 9035790000.0 9035780000.0 9035770000.0 9035760000.0 9035760000.0 9035760000.0 9035760000.0 9035750000.0 9035750000.0 9035750000.0 9035750000.0 9035750000.0 9035750000.0 9035750000.0 9035750000.0 9035750000.0 9035760000.0 9035760000.0 9035760000.0 9035760000.0 9035770000.0 9035780000.0 9035790000.0 9035800000.0 9035830000.0 9035860000.0 9035910000.0 9035980000.0 9036100000.0 9036280000.0 9036570000.0 9037030000.0 9037770000.0 9038930000.0 9040710000.0 9043310000.0 9047040000.0 9052290000.0 9059630000.0 9069840000.0 9084050000.0 9103880000.0 9131780000.0 9170990000.0 9234880000.0 9339550000.0 10010700000.0 40647100000.0 48401400000.0 42355300000.0 31867500000.0 9881090000.0 9253160000.0 9199550000.0 9146200000.0 9113500000.0 9090260000.0 9073830000.0 9062180000.0 9053920000.0 9048080000.0 9043980000.0 9041150000.0 9039230000.0 9037960000.0 9037150000.0 9036650000.0 9036330000.0 9036130000.0 9036000000.0 9035920000.0 9035870000.0 9035830000.0 9035810000.0 9035790000.0 9035780000.0 9035770000.0 9035760000.0 9035760000.0 9035760000.0 9035760000.0 9035750000.0 9035750000.0 9035750000.0 9035750000.0 9035750000.0 9035750000.0 9035750000.0 9035750000.0 9035750000.0 9035750000.0 9035750000.0 9035760000.0 9035760000.0 9035760000.0 9035760000.0 9035770000.0 9035780000.0 9035790000.0 9035810000.0 9035830000.0 9035870000.0 9035920000.0 9036000000.0 9036130000.0 9036330000.0 9036650000.0 9037150000.0 9037960000.0 9039230000.0 9041150000.0 9043980000.0 9048080000.0 9053920000.0 9062180000.0 9073830000.0 9090260000.0 9113500000.0 9146200000.0 9199550000.0 9253160000.0 9881090000.0 31867500000.0 42355300000.0 37121500000.0 25256800000.0 9754080000.0 9196780000.0 9168490000.0 9124540000.0 9097550000.0 9078490000.0 9065140000.0 9055800000.0 9049270000.0 9044750000.0 9041640000.0 9039550000.0 9038170000.0 9037290000.0 9036740000.0 9036390000.0 9036170000.0 9036030000.0 9035940000.0 9035880000.0 9035840000.0 9035810000.0 9035790000.0 9035780000.0 9035770000.0 9035760000.0 9035760000.0 9035760000.0 9035760000.0 9035750000.0 9035750000.0 9035750000.0 9035750000.0 9035750000.0 9035750000.0 9035750000.0 9035750000.0 9035750000.0 9035750000.0 9035750000.0 9035750000.0 9035750000.0 9035760000.0 9035760000.0 9035760000.0 9035760000.0 9035770000.0 9035780000.0 9035790000.0 9035810000.0 9035840000.0 9035880000.0 9035940000.0 9036030000.0 9036170000.0 9036390000.0 9036740000.0 9037290000.0 9038170000.0 9039550000.0 9041640000.0 9044750000.0 9049270000.0 9055800000.0 9065140000.0 9078490000.0 9097550000.0 9124540000.0 9168490000.0 9196780000.0 9754080000.0 25256800000.0 37121500000.0 32618200000.0 20387100000.0 9634380000.0 9158150000.0 9141630000.0 9105910000.0 9083960000.0 9068600000.0 9057980000.0 9050650000.0 9045620000.0 9042210000.0 9039920000.0 9038410000.0 9037450000.0 9036830000.0 9036450000.0 9036210000.0 9036050000.0 9035950000.0 9035890000.0 9035840000.0 9035810000.0 9035790000.0 9035780000.0 9035770000.0 9035760000.0 9035760000.0 9035760000.0 9035760000.0 9035750000.0 9035750000.0 9035750000.0 9035750000.0 9035750000.0 9035750000.0 9035750000.0 9035750000.0 9035750000.0 9035750000.0 9035750000.0 9035750000.0 9035750000.0 9035750000.0 9035750000.0 9035760000.0 9035760000.0 9035760000.0 9035760000.0 9035770000.0 9035780000.0 9035790000.0 9035810000.0 9035840000.0 9035890000.0 9035950000.0 9036050000.0 9036210000.0 9036450000.0 9036830000.0 9037450000.0 9038410000.0 9039920000.0 9042210000.0 9045620000.0 9050650000.0 9057980000.0 9068600000.0 9083960000.0 9105910000.0 9141630000.0 9158150000.0 9634380000.0 20387100000.0 32618200000.0 28749200000.0 16868400000.0 9525300000.0 9130160000.0 9118820000.0 9090240000.0 9072670000.0 9060540000.0 9052250000.0 9046630000.0 9042850000.0 9040330000.0 9038680000.0 9037620000.0 9036940000.0 9036520000.0 9036250000.0 9036080000.0 9035970000.0 9035900000.0 9035850000.0 9035820000.0 9035800000.0 9035780000.0 9035770000.0 9035770000.0 9035760000.0 9035760000.0 9035760000.0 9035750000.0 9035750000.0 9035750000.0 9035750000.0 9035750000.0 9035750000.0 9035750000.0 9035750000.0 9035750000.0 9035750000.0 9035750000.0 9035750000.0 9035750000.0 9035750000.0 9035750000.0 9035750000.0 9035750000.0 9035760000.0 9035760000.0 9035760000.0 9035770000.0 9035770000.0 9035780000.0 9035800000.0 9035820000.0 9035850000.0 9035900000.0 9035970000.0 9036080000.0 9036250000.0 9036520000.0 9036940000.0 9037620000.0 9038680000.0 9040330000.0 9042850000.0 9046630000.0 9052250000.0 9060540000.0 9072670000.0 9090240000.0 9118820000.0 9130160000.0 9525300000.0 16868400000.0 28749200000.0 25424400000.0 14368700000.0 9428830000.0 9108850000.0 9099850000.0 9077340000.0 9063540000.0 9054130000.0 9047810000.0 9043590000.0 9040800000.0 9038980000.0 9037810000.0 9037070000.0 9036600000.0 9036300000.0 9036110000.0 9035990000.0 9035910000.0 9035860000.0 9035820000.0 9035800000.0 9035780000.0 9035770000.0 9035770000.0 9035760000.0 9035760000.0 9035760000.0 9035750000.0 9035750000.0 9035750000.0 9035750000.0 9035750000.0 9035750000.0 9035750000.0 9035750000.0 9035750000.0 9035750000.0 9035750000.0 9035750000.0 9035750000.0 9035750000.0 9035750000.0 9035750000.0 9035750000.0 9035750000.0 9035750000.0 9035760000.0 9035760000.0 9035760000.0 9035770000.0 9035770000.0 9035780000.0 9035800000.0 9035820000.0 9035860000.0 9035910000.0 9035990000.0 9036110000.0 9036300000.0 9036600000.0 9037070000.0 9037810000.0 9038980000.0 9040800000.0 9043590000.0 9047810000.0 9054130000.0 9063540000.0 9077340000.0 9099850000.0 9108850000.0 9428830000.0 14368700000.0 25424400000.0 22567600000.0 12619900000.0 9345800000.0 9092130000.0 9084420000.0 9066990000.0 9056340000.0 9049180000.0 9044440000.0 9041330000.0 9039320000.0 9038020000.0 9037200000.0 9036690000.0 9036360000.0 9036150000.0 9036010000.0 9035930000.0 9035870000.0 9035830000.0 9035800000.0 9035790000.0 9035770000.0 9035770000.0 9035760000.0 9035760000.0 9035760000.0 9035750000.0 9035750000.0 9035750000.0 9035750000.0 9035750000.0 9035750000.0 9035750000.0 9035750000.0 9035750000.0 9035750000.0 9035750000.0 9035750000.0 9035750000.0 9035750000.0 9035750000.0 9035750000.0 9035750000.0 9035750000.0 9035750000.0 9035750000.0 9035750000.0 9035760000.0 9035760000.0 9035760000.0 9035770000.0 9035770000.0 9035790000.0 9035800000.0 9035830000.0 9035870000.0 9035930000.0 9036010000.0 9036150000.0 9036360000.0 9036690000.0 9037200000.0 9038020000.0 9039320000.0 9041330000.0 9044440000.0 9049180000.0 9056340000.0 9066990000.0 9084420000.0 9092130000.0 9345800000.0 12619900000.0 22567600000.0 20117300000.0 11413400000.0 9276090000.0 9078870000.0 9072130000.0 9058860000.0 9050790000.0 9045440000.0 9041950000.0 9039700000.0 9038270000.0 9037360000.0 9036780000.0 9036420000.0 9036190000.0 9036040000.0 9035940000.0 9035880000.0 9035830000.0 9035810000.0 9035790000.0 9035780000.0 9035770000.0 9035760000.0 9035760000.0 9035760000.0 9035750000.0 9035750000.0 9035750000.0 9035750000.0 9035750000.0 9035750000.0 9035750000.0 9035750000.0 9035750000.0 9035750000.0 9035750000.0 9035750000.0 9035750000.0 9035750000.0 9035750000.0 9035750000.0 9035750000.0 9035750000.0 9035750000.0 9035750000.0 9035750000.0 9035750000.0 9035750000.0 9035760000.0 9035760000.0 9035760000.0 9035770000.0 9035780000.0 9035790000.0 9035810000.0 9035830000.0 9035880000.0 9035940000.0 9036040000.0 9036190000.0 9036420000.0 9036780000.0 9037360000.0 9038270000.0 9039700000.0 9041950000.0 9045440000.0 9050790000.0 9058860000.0 9072130000.0 9078870000.0 9276090000.0 11413400000.0 20117300000.0 18024800000.0 10591800000.0 9218900000.0 9068380000.0 9062550000.0 9052620000.0 9046600000.0 9042670000.0 9040150000.0 9038540000.0 9037530000.0 9036890000.0 9036490000.0 9036230000.0 9036060000.0 9035960000.0 9035890000.0 9035840000.0 9035810000.0 9035790000.0 9035780000.0 9035770000.0 9035760000.0 9035760000.0 9035760000.0 9035750000.0 9035750000.0 9035750000.0 9035750000.0 9035750000.0 9035750000.0 9035750000.0 9035750000.0 9035750000.0 9035750000.0 9035750000.0 9035750000.0 9035750000.0 9035750000.0 9035750000.0 9035750000.0 9035750000.0 9035750000.0 9035750000.0 9035750000.0 9035750000.0 9035750000.0 9035750000.0 9035750000.0 9035750000.0 9035760000.0 9035760000.0 9035760000.0 9035770000.0 9035780000.0 9035790000.0 9035810000.0 9035840000.0 9035890000.0 9035960000.0 9036060000.0 9036230000.0 9036490000.0 9036890000.0 9037530000.0 9038540000.0 9040150000.0 9042670000.0 9046600000.0 9052620000.0 9062550000.0 9068380000.0 9218900000.0 10591800000.0 18024800000.0 16250100000.0 10039700000.0 9172990000.0 9060170000.0 9055240000.0 9047930000.0 9043500000.0 9040660000.0 9038860000.0 9037720000.0 9037010000.0 9036560000.0 9036280000.0 9036090000.0 9035970000.0 9035900000.0 9035850000.0 9035810000.0 9035790000.0 9035780000.0 9035770000.0 9035760000.0 9035760000.0 9035760000.0 9035750000.0 9035750000.0 9035750000.0 9035750000.0 9035750000.0 9035750000.0 9035750000.0 9035750000.0 9035750000.0 9035750000.0 9035750000.0 9035750000.0 9035750000.0 9035750000.0 9035750000.0 9035750000.0 9035750000.0 9035750000.0 9035750000.0 9035750000.0 9035750000.0 9035750000.0 9035750000.0 9035750000.0 9035750000.0 9035750000.0 9035750000.0 9035760000.0 9035760000.0 9035760000.0 9035770000.0 9035780000.0 9035790000.0 9035810000.0 9035850000.0 9035900000.0 9035970000.0 9036090000.0 9036280000.0 9036560000.0 9037010000.0 9037720000.0 9038860000.0 9040660000.0 9043500000.0 9047930000.0 9055240000.0 9060170000.0 9172990000.0 10039700000.0 16250100000.0 14759500000.0 9673520000.0 9136900000.0 9053830000.0 9049760000.0 9044450000.0 9041250000.0 9039220000.0 9037940000.0 9037140000.0 9036640000.0 9036330000.0 9036120000.0 9035990000.0 9035910000.0 9035850000.0 9035820000.0 9035790000.0 9035780000.0 9035770000.0 9035760000.0 9035760000.0 9035760000.0 9035750000.0 9035750000.0 9035750000.0 9035750000.0 9035750000.0 9035750000.0 9035750000.0 9035750000.0 9035750000.0 9035750000.0 9035750000.0 9035750000.0 9035750000.0 9035750000.0 9035750000.0 9035750000.0 9035750000.0 9035750000.0 9035750000.0 9035750000.0 9035750000.0 9035750000.0 9035750000.0 9035750000.0 9035750000.0 9035750000.0 9035750000.0 9035750000.0 9035750000.0 9035760000.0 9035760000.0 9035760000.0 9035770000.0 9035780000.0 9035790000.0 9035820000.0 9035850000.0 9035910000.0 9035990000.0 9036120000.0 9036330000.0 9036640000.0 9037140000.0 9037940000.0 9039220000.0 9041250000.0 9044450000.0 9049760000.0 9053830000.0 9136900000.0 9673520000.0 14759500000.0 13521800000.0 9434160000.0 9109100000.0 9049010000.0 9045730000.0 9041920000.0 9039630000.0 9038200000.0 9037300000.0 9036740000.0 9036380000.0 9036160000.0 9036020000.0 9035920000.0 9035860000.0 9035820000.0 9035800000.0 9035780000.0 9035770000.0 9035760000.0 9035760000.0 9035760000.0 9035750000.0 9035750000.0 9035750000.0 9035750000.0 9035750000.0 9035750000.0 9035750000.0 9035750000.0 9035750000.0 9035750000.0 9035750000.0 9035750000.0 9035750000.0 9035750000.0 9035750000.0 9035750000.0 9035750000.0 9035750000.0 9035750000.0 9035750000.0 9035750000.0 9035750000.0 9035750000.0 9035750000.0 9035750000.0 9035750000.0 9035750000.0 9035750000.0 9035750000.0 9035750000.0 9035750000.0 9035760000.0 9035760000.0 9035760000.0 9035770000.0 9035780000.0 9035800000.0 9035820000.0 9035860000.0 9035920000.0 9036020000.0 9036160000.0 9036380000.0 9036740000.0 9037300000.0 9038200000.0 9039630000.0 9041920000.0 9045730000.0 9049010000.0 9109100000.0 9434160000.0 13521800000.0 12507600000.0 9280070000.0 9088100000.0 9045390000.0 9042810000.0 9040110000.0 9038480000.0 9037470000.0 9036840000.0 9036450000.0 9036200000.0 9036040000.0 9035940000.0 9035870000.0 9035830000.0 9035800000.0 9035780000.0 9035770000.0 9035760000.0 9035760000.0 9035760000.0 9035760000.0 9035750000.0 9035750000.0 9035750000.0 9035750000.0 9035750000.0 9035750000.0 9035750000.0 9035750000.0 9035750000.0 9035750000.0 9035750000.0 9035750000.0 9035750000.0 9035750000.0 9035750000.0 9035750000.0 9035750000.0 9035750000.0 9035750000.0 9035750000.0 9035750000.0 9035750000.0 9035750000.0 9035750000.0 9035750000.0 9035750000.0 9035750000.0 9035750000.0 9035750000.0 9035750000.0 9035750000.0 9035760000.0 9035760000.0 9035760000.0 9035760000.0 9035770000.0 9035780000.0 9035800000.0 9035830000.0 9035870000.0 9035940000.0 9036040000.0 9036200000.0 9036450000.0 9036840000.0 9037470000.0 9038480000.0 9040110000.0 9042810000.0 9045390000.0 9088100000.0 9280070000.0 12507600000.0 11688000000.0 9182540000.0 9072530000.0 9042710000.0 9040710000.0 9038810000.0 9037670000.0 9036960000.0 9036520000.0 9036240000.0 9036060000.0 9035950000.0 9035880000.0 9035830000.0 9035800000.0 9035780000.0 9035770000.0 9035760000.0 9035760000.0 9035760000.0 9035760000.0 9035750000.0 9035750000.0 9035750000.0 9035750000.0 9035750000.0 9035750000.0 9035750000.0 9035750000.0 9035750000.0 9035750000.0 9035750000.0 9035750000.0 9035750000.0 9035750000.0 9035750000.0 9035750000.0 9035750000.0 9035750000.0 9035750000.0 9035750000.0 9035750000.0 9035750000.0 9035750000.0 9035750000.0 9035750000.0 9035750000.0 9035750000.0 9035750000.0 9035750000.0 9035750000.0 9035750000.0 9035750000.0 9035750000.0 9035760000.0 9035760000.0 9035760000.0 9035760000.0 9035770000.0 9035780000.0 9035800000.0 9035830000.0 9035880000.0 9035950000.0 9036060000.0 9036240000.0 9036520000.0 9036960000.0 9037670000.0 9038810000.0 9040710000.0 9042710000.0 9072530000.0 9182540000.0 11688000000.0 11035400000.0 9121960000.0 9061210000.0 9040740000.0 9039220000.0 9037900000.0 9037100000.0 9036600000.0 9036290000.0 9036090000.0 9035970000.0 9035890000.0 9035840000.0 9035810000.0 9035790000.0 9035770000.0 9035760000.0 9035760000.0 9035760000.0 9035760000.0 9035750000.0 9035750000.0 9035750000.0 9035750000.0 9035750000.0 9035750000.0 9035750000.0 9035750000.0 9035750000.0 9035750000.0 9035750000.0 9035750000.0 9035750000.0 9035750000.0 9035750000.0 9035750000.0 9035750000.0 9035750000.0 9035750000.0 9035750000.0 9035750000.0 9035750000.0 9035750000.0 9035750000.0 9035750000.0 9035750000.0 9035750000.0 9035750000.0 9035750000.0 9035750000.0 9035750000.0 9035750000.0 9035750000.0 9035750000.0 9035750000.0 9035760000.0 9035760000.0 9035760000.0 9035760000.0 9035770000.0 9035790000.0 9035810000.0 9035840000.0 9035890000.0 9035970000.0 9036090000.0 9036290000.0 9036600000.0 9037100000.0 9037900000.0 9039220000.0 9040740000.0 9061210000.0 9121960000.0 11035400000.0 10523200000.0 9085110000.0 9053120000.0 9039300000.0 9038170000.0 9037250000.0 9036690000.0 9036340000.0 9036120000.0 9035990000.0 9035900000.0 9035840000.0 9035810000.0 9035790000.0 9035770000.0 9035770000.0 9035760000.0 9035760000.0 9035760000.0 9035750000.0 9035750000.0 9035750000.0 9035750000.0 9035750000.0 9035750000.0 9035750000.0 9035750000.0 9035750000.0 9035750000.0 9035750000.0 9035750000.0 9035750000.0 9035750000.0 9035750000.0 9035750000.0 9035750000.0 9035750000.0 9035750000.0 9035750000.0 9035750000.0 9035750000.0 9035750000.0 9035750000.0 9035750000.0 9035750000.0 9035750000.0 9035750000.0 9035750000.0 9035750000.0 9035750000.0 9035750000.0 9035750000.0 9035750000.0 9035750000.0 9035750000.0 9035750000.0 9035760000.0 9035760000.0 9035760000.0 9035770000.0 9035770000.0 9035790000.0 9035810000.0 9035840000.0 9035900000.0 9035990000.0 9036120000.0 9036340000.0 9036690000.0 9037250000.0 9038170000.0 9039300000.0 9053120000.0 9085110000.0 10523200000.0 10127200000.0 9063240000.0 9047440000.0 9038270000.0 9037430000.0 9036790000.0 9036400000.0 9036160000.0 9036010000.0 9035910000.0 9035850000.0 9035810000.0 9035790000.0 9035780000.0 9035770000.0 9035760000.0 9035760000.0 9035760000.0 9035750000.0 9035750000.0 9035750000.0 9035750000.0 9035750000.0 9035750000.0 9035750000.0 9035750000.0 9035750000.0 9035750000.0 9035750000.0 9035750000.0 9035750000.0 9035750000.0 9035750000.0 9035750000.0 9035750000.0 9035750000.0 9035750000.0 9035750000.0 9035750000.0 9035750000.0 9035750000.0 9035750000.0 9035750000.0 9035750000.0 9035750000.0 9035750000.0 9035750000.0 9035750000.0 9035750000.0 9035750000.0 9035750000.0 9035750000.0 9035750000.0 9035750000.0 9035750000.0 9035750000.0 9035750000.0 9035760000.0 9035760000.0 9035760000.0 9035770000.0 9035780000.0 9035790000.0 9035810000.0 9035850000.0 9035910000.0 9036010000.0 9036160000.0 9036400000.0 9036790000.0 9037430000.0 9038270000.0 9047440000.0 9063240000.0 10127200000.0 9825640000.0 9050610000.0 9043520000.0 9037520000.0 9036910000.0 9036470000.0 9036200000.0 9036030000.0 9035930000.0 9035860000.0 9035820000.0 9035790000.0 9035780000.0 9035770000.0 9035760000.0 9035760000.0 9035760000.0 9035750000.0 9035750000.0 9035750000.0 9035750000.0 9035750000.0 9035750000.0 9035750000.0 9035750000.0 9035750000.0 9035750000.0 9035750000.0 9035750000.0 9035750000.0 9035750000.0 9035750000.0 9035750000.0 9035750000.0 9035750000.0 9035750000.0 9035750000.0 9035750000.0 9035750000.0 9035750000.0 9035750000.0 9035750000.0 9035750000.0 9035750000.0 9035750000.0 9035750000.0 9035750000.0 9035750000.0 9035750000.0 9035750000.0 9035750000.0 9035750000.0 9035750000.0 9035750000.0 9035750000.0 9035750000.0 9035750000.0 9035750000.0 9035760000.0 9035760000.0 9035760000.0 9035770000.0 9035780000.0 9035790000.0 9035820000.0 9035860000.0 9035930000.0 9036030000.0 9036200000.0 9036470000.0 9036910000.0 9037520000.0 9043520000.0 9050610000.0 9825640000.0 9599370000.0 9043520000.0 9040850000.0 9036990000.0 9036550000.0 9036240000.0 9036060000.0 9035940000.0 9035870000.0 9035820000.0 9035800000.0 9035780000.0 9035770000.0 9035760000.0 9035760000.0 9035760000.0 9035750000.0 9035750000.0 9035750000.0 9035750000.0 9035750000.0 9035750000.0 9035750000.0 9035750000.0 9035750000.0 9035750000.0 9035750000.0 9035750000.0 9035750000.0 9035750000.0 9035750000.0 9035750000.0 9035750000.0 9035750000.0 9035750000.0 9035750000.0 9035750000.0 9035750000.0 9035750000.0 9035750000.0 9035750000.0 9035750000.0 9035750000.0 9035750000.0 9035750000.0 9035750000.0 9035750000.0 9035750000.0 9035750000.0 9035750000.0 9035750000.0 9035750000.0 9035750000.0 9035750000.0 9035750000.0 9035750000.0 9035750000.0 9035750000.0 9035750000.0 9035760000.0 9035760000.0 9035760000.0 9035770000.0 9035780000.0 9035800000.0 9035820000.0 9035870000.0 9035940000.0 9036060000.0 9036240000.0 9036550000.0 9036990000.0 9040850000.0 9043520000.0 9599370000.0 9432190000.0 9039680000.0 9039060000.0 9036610000.0 9036300000.0 9036090000.0 9035960000.0 9035880000.0 9035830000.0 9035800000.0 9035780000.0 9035770000.0 9035760000.0 9035760000.0 9035760000.0 9035750000.0 9035750000.0 9035750000.0 9035750000.0 9035750000.0 9035750000.0 9035750000.0 9035750000.0 9035750000.0 9035750000.0 9035750000.0 9035750000.0 9035750000.0 9035750000.0 9035750000.0 9035750000.0 9035750000.0 9035750000.0 9035750000.0 9035750000.0 9035750000.0 9035750000.0 9035750000.0 9035750000.0 9035750000.0 9035750000.0 9035750000.0 9035750000.0 9035750000.0 9035750000.0 9035750000.0 9035750000.0 9035750000.0 9035750000.0 9035750000.0 9035750000.0 9035750000.0 9035750000.0 9035750000.0 9035750000.0 9035750000.0 9035750000.0 9035750000.0 9035750000.0 9035750000.0 9035760000.0 9035760000.0 9035760000.0 9035770000.0 9035780000.0 9035800000.0 9035830000.0 9035880000.0 9035960000.0 9036090000.0 9036300000.0 9036610000.0 9039060000.0 9039680000.0 9432190000.0 9310540000.0 9037670000.0 9037880000.0 9036340000.0 9036120000.0 9035980000.0 9035890000.0 9035830000.0 9035800000.0 9035780000.0 9035770000.0 9035760000.0 9035760000.0 9035760000.0 9035750000.0 9035750000.0 9035750000.0 9035750000.0 9035750000.0 9035750000.0 9035750000.0 9035750000.0 9035750000.0 9035750000.0 9035750000.0 9035750000.0 9035750000.0 9035750000.0 9035750000.0 9035750000.0 9035750000.0 9035750000.0 9035750000.0 9035750000.0 9035750000.0 9035750000.0 9035750000.0 9035750000.0 9035750000.0 9035750000.0 9035750000.0 9035750000.0 9035750000.0 9035750000.0 9035750000.0 9035750000.0 9035750000.0 9035750000.0 9035750000.0 9035750000.0 9035750000.0 9035750000.0 9035750000.0 9035750000.0 9035750000.0 9035750000.0 9035750000.0 9035750000.0 9035750000.0 9035750000.0 9035750000.0 9035760000.0 9035760000.0 9035760000.0 9035770000.0 9035780000.0 9035800000.0 9035830000.0 9035890000.0 9035980000.0 9036120000.0 9036340000.0 9037880000.0 9037670000.0 9310540000.0 9223390000.0 9036650000.0 9037100000.0 9036150000.0 9036000000.0 9035900000.0 9035840000.0 9035800000.0 9035780000.0 9035770000.0 9035760000.0 9035760000.0 9035760000.0 9035750000.0 9035750000.0 9035750000.0 9035750000.0 9035750000.0 9035750000.0 9035750000.0 9035750000.0 9035750000.0 9035750000.0 9035750000.0 9035750000.0 9035750000.0 9035750000.0 9035750000.0 9035750000.0 9035750000.0 9035750000.0 9035750000.0 9035750000.0 9035750000.0 9035750000.0 9035750000.0 9035750000.0 9035750000.0 9035750000.0 9035750000.0 9035750000.0 9035750000.0 9035750000.0 9035750000.0 9035750000.0 9035750000.0 9035750000.0 9035750000.0 9035750000.0 9035750000.0 9035750000.0 9035750000.0 9035750000.0 9035750000.0 9035750000.0 9035750000.0 9035750000.0 9035750000.0 9035750000.0 9035750000.0 9035750000.0 9035750000.0 9035760000.0 9035760000.0 9035760000.0 9035770000.0 9035780000.0 9035800000.0 9035840000.0 9035900000.0 9036000000.0 9036150000.0 9037100000.0 9036650000.0 9223390000.0 9161930000.0 9036160000.0 9036600000.0 9036020000.0 9035910000.0 9035850000.0 9035810000.0 9035790000.0 9035770000.0 9035760000.0 9035760000.0 9035760000.0 9035750000.0 9035750000.0 9035750000.0 9035750000.0 9035750000.0 9035750000.0 9035750000.0 9035750000.0 9035750000.0 9035750000.0 9035750000.0 9035750000.0 9035750000.0 9035750000.0 9035750000.0 9035750000.0 9035750000.0 9035750000.0 9035750000.0 9035750000.0 9035750000.0 9035750000.0 9035750000.0 9035750000.0 9035750000.0 9035750000.0 9035750000.0 9035750000.0 9035750000.0 9035750000.0 9035750000.0 9035750000.0 9035750000.0 9035750000.0 9035750000.0 9035750000.0 9035750000.0 9035750000.0 9035750000.0 9035750000.0 9035750000.0 9035750000.0 9035750000.0 9035750000.0 9035750000.0 9035750000.0 9035750000.0 9035750000.0 9035750000.0 9035750000.0 9035750000.0 9035760000.0 9035760000.0 9035760000.0 9035770000.0 9035790000.0 9035810000.0 9035850000.0 9035910000.0 9036020000.0 9036600000.0 9036160000.0 9161930000.0 9119290000.0 9035930000.0 9036280000.0 9035920000.0 9035860000.0 9035810000.0 9035790000.0 9035770000.0 9035760000.0 9035760000.0 9035760000.0 9035750000.0 9035750000.0 9035750000.0 9035750000.0 9035750000.0 9035750000.0 9035750000.0 9035750000.0 9035750000.0 9035750000.0 9035750000.0 9035750000.0 9035750000.0 9035750000.0 9035750000.0 9035750000.0 9035750000.0 9035750000.0 9035750000.0 9035750000.0 9035750000.0 9035750000.0 9035750000.0 9035750000.0 9035750000.0 9035750000.0 9035750000.0 9035750000.0 9035750000.0 9035750000.0 9035750000.0 9035750000.0 9035750000.0 9035750000.0 9035750000.0 9035750000.0 9035750000.0 9035750000.0 9035750000.0 9035750000.0 9035750000.0 9035750000.0 9035750000.0 9035750000.0 9035750000.0 9035750000.0 9035750000.0 9035750000.0 9035750000.0 9035750000.0 9035750000.0 9035750000.0 9035750000.0 9035760000.0 9035760000.0 9035760000.0 9035770000.0 9035790000.0 9035810000.0 9035860000.0 9035920000.0 9036280000.0 9035930000.0 9119290000.0 9090180000.0 9035830000.0 9036080000.0 9035860000.0 9035820000.0 9035790000.0 9035770000.0 9035760000.0 9035760000.0 9035760000.0 9035750000.0 9035750000.0 9035750000.0 9035750000.0 9035750000.0 9035750000.0 9035750000.0 9035750000.0 9035750000.0 9035750000.0 9035750000.0 9035750000.0 9035750000.0 9035750000.0 9035750000.0 9035750000.0 9035750000.0 9035750000.0 9035750000.0 9035750000.0 9035750000.0 9035750000.0 9035750000.0 9035750000.0 9035750000.0 9035750000.0 9035750000.0 9035750000.0 9035750000.0 9035750000.0 9035750000.0 9035750000.0 9035750000.0 9035750000.0 9035750000.0 9035750000.0 9035750000.0 9035750000.0 9035750000.0 9035750000.0 9035750000.0 9035750000.0 9035750000.0 9035750000.0 9035750000.0 9035750000.0 9035750000.0 9035750000.0 9035750000.0 9035750000.0 9035750000.0 9035750000.0 9035750000.0 9035750000.0 9035750000.0 9035760000.0 9035760000.0 9035760000.0 9035770000.0 9035790000.0 9035820000.0 9035860000.0 9036080000.0 9035830000.0 9090180000.0 9070630000.0 9035780000.0 9035950000.0 9035820000.0 9035790000.0 9035780000.0 9035770000.0 9035760000.0 9035760000.0 9035750000.0 9035750000.0 9035750000.0 9035750000.0 9035750000.0 9035750000.0 9035750000.0 9035750000.0 9035750000.0 9035750000.0 9035750000.0 9035750000.0 9035750000.0 9035750000.0 9035750000.0 9035750000.0 9035750000.0 9035750000.0 9035750000.0 9035750000.0 9035750000.0 9035750000.0 9035750000.0 9035750000.0 9035750000.0 9035750000.0 9035750000.0 9035750000.0 9035750000.0 9035750000.0 9035750000.0 9035750000.0 9035750000.0 9035750000.0 9035750000.0 9035750000.0 9035750000.0 9035750000.0 9035750000.0 9035750000.0 9035750000.0 9035750000.0 9035750000.0 9035750000.0 9035750000.0 9035750000.0 9035750000.0 9035750000.0 9035750000.0 9035750000.0 9035750000.0 9035750000.0 9035750000.0 9035750000.0 9035750000.0 9035750000.0 9035750000.0 9035760000.0 9035760000.0 9035770000.0 9035780000.0 9035790000.0 9035820000.0 9035950000.0 9035780000.0 9070630000.0 9057730000.0 9035770000.0 9035870000.0 9035800000.0 9035780000.0 9035770000.0 9035760000.0 9035760000.0 9035760000.0 9035750000.0 9035750000.0 9035750000.0 9035750000.0 9035750000.0 9035750000.0 9035750000.0 9035750000.0 9035750000.0 9035750000.0 9035750000.0 9035750000.0 9035750000.0 9035750000.0 9035750000.0 9035750000.0 9035750000.0 9035750000.0 9035750000.0 9035750000.0 9035750000.0 9035750000.0 9035750000.0 9035750000.0 9035750000.0 9035750000.0 9035750000.0 9035750000.0 9035750000.0 9035750000.0 9035750000.0 9035750000.0 9035750000.0 9035750000.0 9035750000.0 9035750000.0 9035750000.0 9035750000.0 9035750000.0 9035750000.0 9035750000.0 9035750000.0 9035750000.0 9035750000.0 9035750000.0 9035750000.0 9035750000.0 9035750000.0 9035750000.0 9035750000.0 9035750000.0 9035750000.0 9035750000.0 9035750000.0 9035750000.0 9035750000.0 9035750000.0 9035760000.0 9035760000.0 9035760000.0 9035770000.0 9035780000.0 9035800000.0 9035870000.0 9035770000.0 9057730000.0 9049360000.0 9035760000.0 9035820000.0 9035780000.0 9035770000.0 9035760000.0 9035760000.0 9035760000.0 9035750000.0 9035750000.0 9035750000.0 9035750000.0 9035750000.0 9035750000.0 9035750000.0 9035750000.0 9035750000.0 9035750000.0 9035750000.0 9035750000.0 9035750000.0 9035750000.0 9035750000.0 9035750000.0 9035750000.0 9035750000.0 9035750000.0 9035750000.0 9035750000.0 9035750000.0 9035750000.0 9035750000.0 9035750000.0 9035750000.0 9035750000.0 9035750000.0 9035750000.0 9035750000.0 9035750000.0 9035750000.0 9035750000.0 9035750000.0 9035750000.0 9035750000.0 9035750000.0 9035750000.0 9035750000.0 9035750000.0 9035750000.0 9035750000.0 9035750000.0 9035750000.0 9035750000.0 9035750000.0 9035750000.0 9035750000.0 9035750000.0 9035750000.0 9035750000.0 9035750000.0 9035750000.0 9035750000.0 9035750000.0 9035750000.0 9035750000.0 9035750000.0 9035750000.0 9035760000.0 9035760000.0 9035760000.0 9035770000.0 9035780000.0 9035820000.0 9035760000.0 9049360000.0 9044030000.0 9035760000.0 9035790000.0 9035770000.0 9035760000.0 9035760000.0 9035760000.0 9035750000.0 9035750000.0 9035750000.0 9035750000.0 9035750000.0 9035750000.0 9035750000.0 9035750000.0 9035750000.0 9035750000.0 9035750000.0 9035750000.0 9035750000.0 9035750000.0 9035750000.0 9035750000.0 9035750000.0 9035750000.0 9035750000.0 9035750000.0 9035750000.0 9035750000.0 9035750000.0 9035750000.0 9035750000.0 9035750000.0 9035750000.0 9035750000.0 9035750000.0 9035750000.0 9035750000.0 9035750000.0 9035750000.0 9035750000.0 9035750000.0 9035750000.0 9035750000.0 9035750000.0 9035750000.0 9035750000.0 9035750000.0 9035750000.0 9035750000.0 9035750000.0 9035750000.0 9035750000.0 9035750000.0 9035750000.0 9035750000.0 9035750000.0 9035750000.0 9035750000.0 9035750000.0 9035750000.0 9035750000.0 9035750000.0 9035750000.0 9035750000.0 9035750000.0 9035750000.0 9035750000.0 9035760000.0 9035760000.0 9035760000.0 9035770000.0 9035790000.0 9035760000.0 9044030000.0 9040700000.0 9035750000.0 9035780000.0 9035760000.0 9035760000.0 9035760000.0 9035750000.0 9035750000.0 9035750000.0 9035750000.0 9035750000.0 9035750000.0 9035750000.0 9035750000.0 9035750000.0 9035750000.0 9035750000.0 9035750000.0 9035750000.0 9035750000.0 9035750000.0 9035750000.0 9035750000.0 9035750000.0 9035750000.0 9035750000.0 9035750000.0 9035750000.0 9035750000.0 9035750000.0 9035750000.0 9035750000.0 9035750000.0 9035750000.0 9035750000.0 9035750000.0 9035750000.0 9035750000.0 9035750000.0 9035750000.0 9035750000.0 9035750000.0 9035750000.0 9035750000.0 9035750000.0 9035750000.0 9035750000.0 9035750000.0 9035750000.0 9035750000.0 9035750000.0 9035750000.0 9035750000.0 9035750000.0 9035750000.0 9035750000.0 9035750000.0 9035750000.0 9035750000.0 9035750000.0 9035750000.0 9035750000.0 9035750000.0 9035750000.0 9035750000.0 9035750000.0 9035750000.0 9035750000.0 9035750000.0 9035760000.0 9035760000.0 9035760000.0 9035780000.0 9035750000.0 9040700000.0 9038650000.0 9035750000.0 9035770000.0 9035760000.0 9035760000.0 9035750000.0 9035750000.0 9035750000.0 9035750000.0 9035750000.0 9035750000.0 9035750000.0 9035750000.0 9035750000.0 9035750000.0 9035750000.0 9035750000.0 9035750000.0 9035750000.0 9035750000.0 9035750000.0 9035750000.0 9035750000.0 9035750000.0 9035750000.0 9035750000.0 9035750000.0 9035750000.0 9035750000.0 9035750000.0 9035750000.0 9035750000.0 9035750000.0 9035750000.0 9035750000.0 9035750000.0 9035750000.0 9035750000.0 9035750000.0 9035750000.0 9035750000.0 9035750000.0 9035750000.0 9035750000.0 9035750000.0 9035750000.0 9035750000.0 9035750000.0 9035750000.0 9035750000.0 9035750000.0 9035750000.0 9035750000.0 9035750000.0 9035750000.0 9035750000.0 9035750000.0 9035750000.0 9035750000.0 9035750000.0 9035750000.0 9035750000.0 9035750000.0 9035750000.0 9035750000.0 9035750000.0 9035750000.0 9035750000.0 9035750000.0 9035750000.0 9035760000.0 9035760000.0 9035770000.0 9035750000.0 9038650000.0 9037420000.0 9035750000.0 9035760000.0 9035760000.0 9035750000.0 9035750000.0 9035750000.0 9035750000.0 9035750000.0 9035750000.0 9035750000.0 9035750000.0 9035750000.0 9035750000.0 9035750000.0 9035750000.0 9035750000.0 9035750000.0 9035750000.0 9035750000.0 9035750000.0 9035750000.0 9035750000.0 9035750000.0 9035750000.0 9035750000.0 9035750000.0 9035750000.0 9035750000.0 9035750000.0 9035750000.0 9035750000.0 9035750000.0 9035750000.0 9035750000.0 9035750000.0 9035750000.0 9035750000.0 9035750000.0 9035750000.0 9035750000.0 9035750000.0 9035750000.0 9035750000.0 9035750000.0 9035750000.0 9035750000.0 9035750000.0 9035750000.0 9035750000.0 9035750000.0 9035750000.0 9035750000.0 9035750000.0 9035750000.0 9035750000.0 9035750000.0 9035750000.0 9035750000.0 9035750000.0 9035750000.0 9035750000.0 9035750000.0 9035750000.0 9035750000.0 9035750000.0 9035750000.0 9035750000.0 9035750000.0 9035750000.0 9035750000.0 9035760000.0 9035760000.0 9035750000.0 9037420000.0 9036690000.0 9035750000.0 9035760000.0 9035750000.0 9035750000.0 9035750000.0 9035750000.0 9035750000.0 9035750000.0 9035750000.0 9035750000.0 9035750000.0 9035750000.0 9035750000.0 9035750000.0 9035750000.0 9035750000.0 9035750000.0 9035750000.0 9035750000.0 9035750000.0 9035750000.0 9035750000.0 9035750000.0 9035750000.0 9035750000.0 9035750000.0 9035750000.0 9035750000.0 9035750000.0 9035750000.0 9035750000.0 9035750000.0 9035750000.0 9035750000.0 9035750000.0 9035750000.0 9035750000.0 9035750000.0 9035750000.0 9035750000.0 9035750000.0 9035750000.0 9035750000.0 9035750000.0 9035750000.0 9035750000.0 9035750000.0 9035750000.0 9035750000.0 9035750000.0 9035750000.0 9035750000.0 9035750000.0 9035750000.0 9035750000.0 9035750000.0 9035750000.0 9035750000.0 9035750000.0 9035750000.0 9035750000.0 9035750000.0 9035750000.0 9035750000.0 9035750000.0 9035750000.0 9035750000.0 9035750000.0 9035750000.0 9035750000.0 9035750000.0 9035760000.0 9035750000.0 9036690000.0 9036270000.0 9035750000.0 9035750000.0 9035750000.0 9035750000.0 9035750000.0 9035750000.0 9035750000.0 9035750000.0 9035750000.0 9035750000.0 9035750000.0 9035750000.0 9035750000.0 9035750000.0 9035750000.0 9035750000.0 9035750000.0 9035750000.0 9035750000.0 9035750000.0 9035750000.0 9035750000.0 9035750000.0 9035750000.0 9035750000.0 9035750000.0 9035750000.0 9035750000.0 9035750000.0 9035750000.0 9035750000.0 9035750000.0 9035750000.0 9035750000.0 9035750000.0 9035750000.0 9035750000.0 9035750000.0 9035750000.0 9035750000.0 9035750000.0 9035750000.0 9035750000.0 9035750000.0 9035750000.0 9035750000.0 9035750000.0 9035750000.0 9035750000.0 9035750000.0 9035750000.0 9035750000.0 9035750000.0 9035750000.0 9035750000.0 9035750000.0 9035750000.0 9035750000.0 9035750000.0 9035750000.0 9035750000.0 9035750000.0 9035750000.0 9035750000.0 9035750000.0 9035750000.0 9035750000.0 9035750000.0 9035750000.0 9035750000.0 9035750000.0 9035750000.0 9035750000.0 9036270000.0 9036030000.0 9035750000.0 9035750000.0 9035750000.0 9035750000.0 9035750000.0 9035750000.0 9035750000.0 9035750000.0 9035750000.0 9035750000.0 9035750000.0 9035750000.0 9035750000.0 9035750000.0 9035750000.0 9035750000.0 9035750000.0 9035750000.0 9035750000.0 9035750000.0 9035750000.0 9035750000.0 9035750000.0 9035750000.0 9035750000.0 9035750000.0 9035750000.0 9035750000.0 9035750000.0 9035750000.0 9035750000.0 9035750000.0 9035750000.0 9035750000.0 9035750000.0 9035750000.0 9035750000.0 9035750000.0 9035750000.0 9035750000.0 9035750000.0 9035750000.0 9035750000.0 9035750000.0 9035750000.0 9035750000.0 9035750000.0 9035750000.0 9035750000.0 9035750000.0 9035750000.0 9035750000.0 9035750000.0 9035750000.0 9035750000.0 9035750000.0 9035750000.0 9035750000.0 9035750000.0 9035750000.0 9035750000.0 9035750000.0 9035750000.0 9035750000.0 9035750000.0 9035750000.0 9035750000.0 9035750000.0 9035750000.0 9035750000.0 9035750000.0 9035750000.0 9035750000.0 9036030000.0 9035900000.0 9035750000.0 9035750000.0 9035750000.0 9035750000.0 9035750000.0 9035750000.0 9035750000.0 9035750000.0 9035750000.0 9035750000.0 9035750000.0 9035750000.0 9035750000.0 9035750000.0 9035750000.0 9035750000.0 9035750000.0 9035750000.0 9035750000.0 9035750000.0 9035750000.0 9035750000.0 9035750000.0 9035750000.0 9035750000.0 9035750000.0 9035750000.0 9035750000.0 9035750000.0 9035750000.0 9035750000.0 9035750000.0 9035750000.0 9035750000.0 9035750000.0 9035750000.0 9035750000.0 9035750000.0 9035750000.0 9035750000.0 9035750000.0 9035750000.0 9035750000.0 9035750000.0 9035750000.0 9035750000.0 9035750000.0 9035750000.0 9035750000.0 9035750000.0 9035750000.0 9035750000.0 9035750000.0 9035750000.0 9035750000.0 9035750000.0 9035750000.0 9035750000.0 9035750000.0 9035750000.0 9035750000.0 9035750000.0 9035750000.0 9035750000.0 9035750000.0 9035750000.0 9035750000.0 9035750000.0 9035750000.0 9035750000.0 9035750000.0 9035750000.0 9035750000.0 9035900000.0 9035830000.0 9035750000.0 9035750000.0 9035750000.0 9035750000.0 9035750000.0 9035750000.0 9035750000.0 9035750000.0 9035750000.0 9035750000.0 9035750000.0 9035750000.0 9035750000.0 9035750000.0 9035750000.0 9035750000.0 9035750000.0 9035750000.0 9035750000.0 9035750000.0 9035750000.0 9035750000.0 9035750000.0 9035750000.0 9035750000.0 9035750000.0 9035750000.0 9035750000.0 9035750000.0 9035750000.0 9035750000.0 9035750000.0 9035750000.0 9035750000.0 9035750000.0 9035750000.0 9035750000.0 9035750000.0 9035750000.0 9035750000.0 9035750000.0 9035750000.0 9035750000.0 9035750000.0 9035750000.0 9035750000.0 9035750000.0 9035750000.0 9035750000.0 9035750000.0 9035750000.0 9035750000.0 9035750000.0 9035750000.0 9035750000.0 9035750000.0 9035750000.0 9035750000.0 9035750000.0 9035750000.0 9035750000.0 9035750000.0 9035750000.0 9035750000.0 9035750000.0 9035750000.0 9035750000.0 9035750000.0 9035750000.0 9035750000.0 9035750000.0 9035750000.0 9035750000.0 9035830000.0 9035790000.0 9035750000.0 9035750000.0 9035750000.0 9035750000.0 9035750000.0 9035750000.0 9035750000.0 9035750000.0 9035750000.0 9035750000.0 9035750000.0 9035750000.0 9035750000.0 9035750000.0 9035750000.0 9035750000.0 9035750000.0 9035750000.0 9035750000.0 9035750000.0 9035750000.0 9035750000.0 9035750000.0 9035750000.0 9035750000.0 9035750000.0 9035750000.0 9035750000.0 9035750000.0 9035750000.0 9035750000.0 9035750000.0 9035750000.0 9035750000.0 9035750000.0 9035750000.0 9035750000.0 9035750000.0 9035750000.0 9035750000.0 9035750000.0 9035750000.0 9035750000.0 9035750000.0 9035750000.0 9035750000.0 9035750000.0 9035750000.0 9035750000.0 9035750000.0 9035750000.0 9035750000.0 9035750000.0 9035750000.0 9035750000.0 9035750000.0 9035750000.0 9035750000.0 9035750000.0 9035750000.0 9035750000.0 9035750000.0 9035750000.0 9035750000.0 9035750000.0 9035750000.0 9035750000.0 9035750000.0 9035750000.0 9035750000.0 9035750000.0 9035750000.0 9035750000.0 9035790000.0 9035770000.0 9035750000.0 9035750000.0 9035750000.0 9035750000.0 9035750000.0 9035750000.0 9035750000.0 9035750000.0 9035750000.0 9035750000.0 9035750000.0 9035750000.0 9035750000.0 9035750000.0 9035750000.0 9035750000.0 9035750000.0 9035750000.0 9035750000.0 9035750000.0 9035750000.0 9035750000.0 9035750000.0 9035750000.0 9035750000.0 9035750000.0 9035750000.0 9035750000.0 9035750000.0 9035750000.0 9035750000.0 9035750000.0 9035750000.0 9035750000.0 9035750000.0 9035750000.0 9035750000.0 9035750000.0 9035750000.0 9035750000.0 9035750000.0 9035750000.0 9035750000.0 9035750000.0 9035750000.0 9035750000.0 9035750000.0 9035750000.0 9035750000.0 9035750000.0 9035750000.0 9035750000.0 9035750000.0 9035750000.0 9035750000.0 9035750000.0 9035750000.0 9035750000.0 9035750000.0 9035750000.0 9035750000.0 9035750000.0 9035750000.0 9035750000.0 9035750000.0 9035750000.0 9035750000.0 9035750000.0 9035750000.0 9035750000.0 9035750000.0 9035750000.0 9035750000.0 9035770000.0 9035760000.0 9035750000.0 9035750000.0 9035750000.0 9035750000.0 9035750000.0 9035750000.0 9035750000.0 9035750000.0 9035750000.0 9035750000.0 9035750000.0 9035750000.0 9035750000.0 9035750000.0 9035750000.0 9035750000.0 9035750000.0 9035750000.0 9035750000.0 9035750000.0 9035750000.0 9035750000.0 9035750000.0 9035750000.0 9035750000.0 9035750000.0 9035750000.0 9035750000.0 9035750000.0 9035750000.0 9035750000.0 9035750000.0 9035750000.0 9035750000.0 9035750000.0 9035750000.0 9035750000.0 9035750000.0 9035750000.0 9035750000.0 9035750000.0 9035750000.0 9035750000.0 9035750000.0 9035750000.0 9035750000.0 9035750000.0 9035750000.0 9035750000.0 9035750000.0 9035750000.0 9035750000.0 9035750000.0 9035750000.0 9035750000.0 9035750000.0 9035750000.0 9035750000.0 9035750000.0 9035750000.0 9035750000.0 9035750000.0 9035750000.0 9035750000.0 9035750000.0 9035750000.0 9035750000.0 9035750000.0 9035750000.0 9035750000.0 9035750000.0 9035750000.0 9035750000.0 9035760000.0 9035760000.0 9035750000.0 9035750000.0 9035750000.0 9035750000.0 9035750000.0 9035750000.0 9035750000.0 9035750000.0 9035750000.0 9035750000.0 9035750000.0 9035750000.0 9035750000.0 9035750000.0 9035750000.0 9035750000.0 9035750000.0 9035750000.0 9035750000.0 9035750000.0 9035750000.0 9035750000.0 9035750000.0 9035750000.0 9035750000.0 9035750000.0 9035750000.0 9035750000.0 9035750000.0 9035750000.0 9035750000.0 9035750000.0 9035750000.0 9035750000.0 9035750000.0 9035750000.0 9035750000.0 9035750000.0 9035750000.0 9035750000.0 9035750000.0 9035750000.0 9035750000.0 9035750000.0 9035750000.0 9035750000.0 9035750000.0 9035750000.0 9035750000.0 9035750000.0 9035750000.0 9035750000.0 9035750000.0 9035750000.0 9035750000.0 9035750000.0 9035750000.0 9035750000.0 9035750000.0 9035750000.0 9035750000.0 9035750000.0 9035750000.0 9035750000.0 9035750000.0 9035750000.0 9035750000.0 9035750000.0 9035750000.0 9035750000.0 9035750000.0 9035750000.0 9035750000.0 9035760000.0 9035750000.0 9035750000.0 9035750000.0 9035750000.0 9035750000.0 9035750000.0 9035750000.0 9035750000.0 9035750000.0 9035750000.0 9035750000.0 9035750000.0 9035750000.0 9035750000.0 9035750000.0 9035750000.0 9035750000.0 9035750000.0 9035750000.0 9035750000.0 9035750000.0 9035750000.0 9035750000.0 9035750000.0 9035750000.0 9035750000.0 9035750000.0 9035750000.0 9035750000.0 9035750000.0 9035750000.0 9035750000.0 9035750000.0 9035750000.0 9035750000.0 9035750000.0 9035750000.0 9035750000.0 9035750000.0 9035750000.0 9035750000.0 9035750000.0 9035750000.0 9035750000.0 9035750000.0 9035750000.0 9035750000.0 9035750000.0 9035750000.0 9035750000.0 9035750000.0 9035750000.0 9035750000.0 9035750000.0 9035750000.0 9035750000.0 9035750000.0 9035750000.0 9035750000.0 9035750000.0 9035750000.0 9035750000.0 9035750000.0 9035750000.0 9035750000.0 9035750000.0 9035750000.0 9035750000.0 9035750000.0 9035750000.0 9035750000.0 9035750000.0 9035750000.0 9035750000.0 9035750000.0 9035750000.0 9035750000.0 9035750000.0 9035750000.0 9035750000.0 9035750000.0 9035750000.0 9035750000.0 9035750000.0 9035750000.0 9035750000.0 9035750000.0 9035750000.0 9035750000.0 9035750000.0 9035750000.0 9035750000.0 9035750000.0 9035750000.0 9035750000.0 9035750000.0 9035750000.0 9035750000.0 9035750000.0 9035750000.0 9035750000.0 9035750000.0 9035750000.0 9035750000.0 9035750000.0 9035750000.0 9035750000.0 9035750000.0 9035750000.0 9035750000.0 9035750000.0 9035750000.0 9035750000.0 9035750000.0 9035750000.0 9035750000.0 9035750000.0 9035750000.0 9035750000.0 9035750000.0 9035750000.0 9035750000.0 9035750000.0 9035750000.0 9035750000.0 9035750000.0 9035750000.0 9035750000.0 9035750000.0 9035750000.0 9035750000.0 9035750000.0 9035750000.0 9035750000.0 9035750000.0 9035750000.0 9035750000.0 9035750000.0 9035750000.0 9035750000.0 9035750000.0 9035750000.0 9035750000.0 9035750000.0 9035750000.0 9035750000.0 9035750000.0 9035750000.0 9035750000.0 9035750000.0 9035750000.0 9035750000.0 9035750000.0 9035750000.0 9035750000.0 9035750000.0 9035750000.0 9035750000.0 9035750000.0 9035750000.0 9035750000.0 9035750000.0 9035750000.0 9035750000.0 9035750000.0 9035750000.0 9035750000.0 9035750000.0 9035750000.0 9035750000.0 9035750000.0 9035750000.0 9035750000.0 9035750000.0 9035750000.0 9035750000.0 9035750000.0 9035750000.0 9035750000.0 9035750000.0 9035750000.0 9035750000.0 9035750000.0 9035750000.0 9035750000.0 9035750000.0 9035750000.0 9035750000.0 9035750000.0 9035750000.0 9035750000.0 9035750000.0 9035750000.0 9035750000.0 9035750000.0 9035750000.0 9035750000.0 9035750000.0 9035750000.0 9035750000.0 9035750000.0 9035750000.0 9035750000.0 9035750000.0 9035750000.0 9035750000.0 9035750000.0 9035750000.0 9035750000.0 9035750000.0 9035750000.0 9035750000.0 9035750000.0 9035750000.0 9035750000.0 9035750000.0 9035750000.0 9035750000.0 9035750000.0 9035750000.0 9035750000.0 9035750000.0 9035750000.0 9035750000.0 9035750000.0 