# vtk DataFile Version 2.0
Time step 81
ASCII
DATASET UNSTRUCTURED_GRID
POINTS 4650 float
294568.0 314924.0 0
205429.0 317652.0 0
208869.0 315652.0 0
212313.0 317650.0 0
215575.0 315376.0 0
219307.0 316760.0 0
236936.0 317499.0 0
243934.0 317302.0 0
247764.0 315267.0 0
251615.0 316325.0 0
257887.0 317176.0 0
264057.0 316288.0 0
277327.0 316923.0 0
284236.0 316892.0 0
291117.0 316906.0 0
298002.0 316936.0 0
201998.0 319651.0 0
208885.0 319649.0 0
215776.0 319603.0 0
223031.0 318180.0 0
226609.0 319945.0 0
233535.0 319596.0 0
240510.0 319363.0 0
247458.0 319232.0 0
254417.0 319158.0 0
261338.0 319194.0 0
267060.0 318906.0 0
273886.0 318941.0 0
280792.0 318897.0 0
287682.0 318892.0 0
294561.0 318914.0 0
205447.0 321637.0 0
212352.0 321634.0 0
219574.0 320726.0 0
223273.0 322148.0 0
230172.0 321745.0 0
237120.0 321473.0 0
244042.0 321278.0 0
250954.0 321149.0 0
257870.0 321155.0 0
265223.0 322440.0 0
270462.0 320964.0 0
277354.0 320908.0 0
284251.0 320879.0 0
291128.0 320889.0 0
298003.0 320912.0 0
201998.0 323621.0 0
208907.0 323621.0 0
215832.0 323593.0 0
219669.0 324680.0 0
226822.0 323915.0 0
233728.0 323570.0 0
237314.0 325426.0 0
240656.0 323338.0 0
244148.0 325247.0 0
247533.0 323198.0 0
250986.0 325131.0 0
254410.0 323128.0 0
257851.0 325111.0 0
261317.0 323162.0 0
268639.0 324482.0 0
273921.0 322928.0 0
277418.0 324864.0 0
280827.0 322869.0 0
284283.0 324842.0 0
287701.0 322865.0 0
291144.0 324849.0 0
294569.0 322882.0 0
298004.0 324868.0 0
201996.0 327573.0 0
205440.0 325590.0 0
208867.0 327560.0 0
212380.0 325599.0 0
215866.0 327570.0 0
223396.0 326097.0 0
226974.0 327854.0 0
230369.0 325713.0 0
234012.0 327515.0 0
240808.0 327310.0 0
247602.0 327170.0 0
254408.0 327088.0 0
261279.0 327106.0 0
265175.0 326427.0 0
270330.0 328052.0 0
274042.0 326871.0 0
280878.0 326822.0 0
287730.0 326815.0 0
294580.0 326829.0 0
205413.0 329533.0 0
212263.0 329536.0 0
219720.0 328612.0 0
223438.0 330026.0 0
230765.0 329623.0 0
237509.0 329388.0 0
244259.0 329222.0 0
251019.0 329105.0 0
257800.0 329047.0 0
266935.0 329979.0 0
277490.0 328813.0 0
284329.0 328783.0 0
291166.0 328788.0 0
298005.0 328806.0 0
201994.0 331517.0 0
208799.0 331499.0 0
215633.0 331523.0 0
219421.0 332515.0 0
227569.0 331719.0 0
234257.0 331475.0 0
237697.0 333362.0 0
240958.0 331286.0 0
244369.0 333201.0 0
247675.0 331146.0 0
251058.0 333079.0 0
254405.0 331051.0 0
257757.0 333001.0 0
261146.0 331007.0 0
264430.0 332944.0 0
270375.0 332008.0 0
274097.0 330803.0 0
277573.0 332731.0 0
280943.0 330756.0 0
284381.0 332708.0 0
287766.0 330747.0 0
291191.0 332709.0 0
294592.0 330758.0 0
298006.0 332725.0 0
201992.0 335457.0 0
205379.0 333474.0 0
208727.0 335446.0 0
212143.0 333469.0 0
215432.0 335437.0 0
221350.0 335849.0 0
224427.0 333793.0 0
227875.0 335654.0 0
231047.0 333568.0 0
234474.0 335444.0 0
241101.0 335266.0 0
247749.0 335124.0 0
254413.0 335019.0 0
261081.0 334953.0 0
267731.0 334846.0 0
274237.0 334712.0 0
281012.0 334673.0 0
287804.0 334661.0 0
294605.0 334670.0 0
205344.0 337417.0 0
212028.0 337431.0 0
218303.0 337856.0 0
224735.0 337728.0 0
231280.0 337528.0 0
237866.0 337340.0 0
244474.0 337182.0 0
251103.0 337053.0 0
257748.0 336959.0 0
264403.0 336879.0 0
271018.0 336764.0 0
277669.0 336648.0 0
284432.0 336616.0 0
291216.0 336614.0 0
298007.0 336627.0 0
201989.0 339392.0 0
208652.0 339403.0 0
215099.0 339676.0 0
221596.0 339776.0 0
228106.0 339604.0 0
234657.0 339416.0 0
241230.0 339248.0 0
244572.0 341161.0 0
247824.0 339102.0 0
251155.0 341022.0 0
254439.0 338983.0 0
257766.0 340905.0 0
261077.0 338890.0 0
264406.0 340801.0 0
267723.0 338788.0 0
271067.0 340681.0 0
274376.0 338659.0 0
277751.0 340563.0 0
281079.0 338580.0 0
284478.0 340510.0 0
287840.0 338559.0 0
291238.0 340501.0 0
294617.0 338564.0 0
298008.0 340512.0 0
201987.0 343320.0 0
205305.0 341357.0 0
208564.0 343377.0 0
211844.0 341504.0 0
215114.0 343578.0 0
218374.0 341727.0 0
221706.0 343655.0 0
224928.0 341657.0 0
228270.0 343539.0 0
231464.0 341487.0 0
234808.0 343381.0 0
238011.0 341317.0 0
241345.0 343225.0 0
247896.0 343075.0 0
254476.0 342936.0 0
261092.0 342813.0 0
267745.0 342692.0 0
274425.0 342562.0 0
281131.0 342472.0 0
287869.0 342440.0 0
294627.0 342441.0 0
205277.0 345295.0 0
211843.0 345423.0 0
218445.0 345575.0 0
225050.0 345552.0 0
231607.0 345430.0 0
238135.0 345286.0 0
244662.0 345135.0 0
251208.0 344982.0 0
257793.0 344836.0 0
264424.0 344701.0 0
271093.0 344566.0 0
277789.0 344447.0 0
284511.0 344384.0 0
287889.0 346299.0 0
291255.0 344370.0 0
294634.0 346298.0 0
298010.0 344377.0 0
201985.0 347229.0 0
208567.0 347294.0 0
215168.0 347438.0 0
221798.0 347507.0 0
228392.0 347448.0 0
234933.0 347333.0 0
241447.0 347195.0 0
247965.0 347040.0 0
251259.0 348933.0 0
254515.0 346876.0 0
257822.0 348752.0 0
261115.0 346719.0 0
264441.0 348581.0 0
267763.0 346570.0 0
271105.0 348426.0 0
274446.0 346433.0 0
277802.0 348300.0 0
281156.0 346336.0 0
284526.0 348232.0 0
291264.0 348218.0 0
298010.0 348223.0 0
201985.0 351098.0 0
205284.0 349192.0 0
208601.0 351159.0 0
211887.0 349292.0 0
215239.0 351266.0 0
218524.0 349406.0 0
221891.0 351339.0 0
225153.0 349419.0 0
228501.0 351332.0 0
231725.0 349353.0 0
235043.0 351269.0 0
238244.0 349244.0 0
241538.0 351157.0 0
244743.0 349102.0 0
248027.0 350998.0 0
254551.0 350804.0 0
261134.0 350606.0 0
267771.0 350428.0 0
274449.0 350274.0 0
281161.0 350171.0 0
287895.0 350135.0 0
294637.0 350135.0 0
205303.0 353039.0 0
211947.0 353117.0 0
218611.0 353213.0 0
225256.0 353263.0 0
231834.0 353256.0 0
238343.0 353192.0 0
244817.0 353063.0 0
251304.0 352874.0 0
257847.0 352650.0 0
264451.0 352443.0 0
271103.0 352262.0 0
274433.0 354090.0 0
277795.0 352122.0 0
281143.0 353975.0 0
284522.0 352051.0 0
287884.0 353943.0 0
291263.0 352042.0 0
294633.0 353948.0 0
298011.0 352046.0 0
201985.0 354917.0 0
208646.0 354973.0 0
215321.0 355061.0 0
221991.0 355147.0 0
228609.0 355195.0 0
235148.0 355191.0 0
241623.0 355114.0 0
248082.0 354951.0 0
251342.0 356808.0 0
254581.0 354717.0 0
257867.0 356531.0 0
261149.0 354475.0 0
264455.0 356286.0 0
267769.0 354266.0 0
271084.0 356078.0 0
277763.0 355916.0 0
284494.0 355838.0 0
291248.0 355841.0 0
298011.0 355845.0 0
201986.0 358683.0 0
205328.0 356834.0 0
208696.0 358734.0 0
212018.0 356897.0 0
215414.0 358817.0 0
218710.0 356993.0 0
222103.0 358928.0 0
225365.0 357084.0 0
228721.0 359039.0 0
231942.0 357143.0 0
235249.0 359104.0 0
238437.0 357133.0 0
241702.0 359069.0 0
244884.0 357021.0 0
248132.0 358901.0 0
254607.0 358616.0 0
261162.0 358326.0 0
267758.0 358087.0 0
274392.0 357884.0 0
281092.0 357746.0 0
287848.0 357720.0 0
294620.0 357732.0 0
205353.0 360578.0 0
212097.0 360624.0 0
218825.0 360738.0 0
225486.0 360883.0 0
232048.0 361016.0 0
238527.0 361071.0 0
244947.0 360981.0 0
251375.0 360738.0 0
257888.0 360390.0 0
264458.0 360113.0 0
267743.0 361899.0 0
271049.0 359880.0 0
274324.0 361665.0 0
277689.0 359684.0 0
280973.0 361482.0 0
284424.0 359588.0 0
287767.0 361461.0 0
291210.0 359608.0 0
294598.0 361480.0 0
298010.0 359614.0 0
201987.0 362393.0 0
205379.0 364275.0 0
208748.0 362437.0 0
212183.0 364286.0 0
215528.0 362529.0 0
219006.0 364439.0 0
222243.0 362681.0 0
228831.0 362868.0 0
235343.0 363010.0 0
241778.0 363028.0 0
248180.0 362854.0 0
254630.0 362494.0 0
257918.0 364218.0 0
261181.0 362156.0 0
264470.0 363930.0 0
271004.0 363678.0 0
277576.0 363441.0 0
284233.0 363284.0 0
291154.0 363332.0 0
298010.0 363354.0 0
201989.0 366046.0 0
208800.0 366073.0 0
215803.0 366165.0 0
222391.0 366428.0 0
225606.0 364669.0 0
228910.0 366689.0 0
232138.0 364879.0 0
235416.0 366905.0 0
238609.0 365009.0 0
241852.0 366996.0 0
245010.0 364944.0 0
248233.0 366813.0 0
251408.0 364672.0 0
254661.0 366334.0 0
261223.0 365964.0 0
267730.0 365711.0 0
274239.0 365447.0 0
280800.0 365215.0 0
283976.0 367000.0 0
287432.0 365110.0 0
290583.0 366924.0 0
294586.0 365181.0 0
298009.0 367077.0 0
205418.0 367941.0 0
209472.0 369525.0 0
212616.0 367809.0 0
219217.0 368152.0 0
225684.0 368461.0 0
232175.0 368725.0 0
238686.0 368941.0 0
245076.0 368912.0 0
251445.0 368630.0 0
257986.0 368002.0 0
261291.0 369762.0 0
264497.0 367745.0 0
267723.0 369535.0 0
270957.0 367484.0 0
274154.0 369240.0 0
277444.0 367206.0 0
280613.0 368966.0 0
287108.0 368795.0 0
293755.0 368684.0 0
201992.0 369630.0 0
206447.0 371367.0 0
213002.0 371303.0 0
216098.0 369812.0 0
219353.0 371921.0 0
222486.0 370206.0 0
225649.0 372272.0 0
228914.0 370507.0 0
235425.0 370769.0 0
241967.0 370983.0 0
248262.0 370783.0 0
254745.0 370082.0 0
258094.0 371743.0 0
264528.0 371576.0 0
270915.0 371301.0 0
277324.0 370985.0 0
283739.0 370739.0 0
290225.0 370547.0 0
293342.0 372223.0 0
296939.0 370560.0 0
201966.0 373116.0 0
205074.0 374309.0 0
210022.0 373030.0 0
216328.0 373521.0 0
222386.0 374043.0 0
228831.0 374306.0 0
232133.0 372549.0 0
235334.0 374600.0 0
238668.0 372820.0 0
241888.0 374896.0 0
245242.0 373084.0 0
251413.0 372639.0 0
254853.0 373684.0 0
261354.0 373572.0 0
267714.0 373377.0 0
274094.0 373041.0 0
277257.0 374777.0 0
280461.0 372739.0 0
283548.0 374506.0 0
286827.0 372502.0 0
289904.0 374185.0 0
294730.0 375153.0 0
298030.0 373878.0 0
197014.0 379148.0 0
199939.0 377313.0 0
202767.0 376740.0 0
205836.0 378004.0 0
208115.0 375550.0 0
211355.0 376775.0 0
213448.0 374753.0 0
215733.0 377644.0 0
219097.0 375828.0 0
225531.0 376059.0 0
231990.0 376350.0 0
238505.0 376668.0 0
245064.0 377028.0 0
248497.0 375205.0 0
251333.0 377812.0 0
254857.0 377148.0 0
258163.0 375465.0 0
261324.0 377411.0 0
264530.0 375433.0 0
267711.0 377217.0 0
270900.0 375120.0 0
274103.0 376837.0 0
280376.0 376538.0 0
286585.0 376239.0 0
291773.0 376859.0 0
297139.0 377530.0 0
300022.0 377282.0 0
303059.0 379192.0 0
194092.0 380979.0 0
200201.0 380201.0 0
203258.0 380377.0 0
209116.0 379146.0 0
212747.0 380006.0 0
218982.0 379580.0 0
222243.0 377816.0 0
225340.0 379836.0 0
228652.0 378091.0 0
235115.0 378409.0 0
241626.0 378773.0 0
248008.0 379389.0 0
258012.0 379186.0 0
264489.0 379286.0 0
270956.0 378906.0 0
277294.0 378581.0 0
283408.0 378323.0 0
286038.0 380421.0 0
288896.0 378600.0 0
291512.0 380721.0 0
294327.0 379016.0 0
297050.0 381196.0 0
299968.0 380296.0 0
306122.0 381106.0 0
191119.0 382835.0 0
194249.0 384159.0 0
197254.0 382267.0 0
200508.0 383213.0 0
206462.0 381479.0 0
209841.0 382462.0 0
215940.0 381518.0 0
222084.0 381597.0 0
228372.0 381876.0 0
231729.0 380137.0 0
234763.0 382199.0 0
238197.0 380493.0 0
241209.0 382645.0 0
244624.0 380984.0 0
251021.0 381755.0 0
254504.0 380649.0 0
257620.0 382838.0 0
261155.0 381233.0 0
267763.0 381008.0 0
271316.0 382581.0 0
274279.0 380607.0 0
277422.0 382445.0 0
280359.0 380392.0 0
283196.0 382332.0 0
288706.0 382515.0 0
294237.0 382786.0 0
300042.0 383509.0 0
303072.0 382330.0 0
306217.0 384247.0 0
309244.0 383054.0 0
184985.0 386672.0 0
188085.0 384729.0 0
191197.0 386007.0 0
197461.0 385390.0 0
200663.0 386368.0 0
203639.0 383846.0 0
206850.0 384814.0 0
210006.0 385958.0 0
213002.0 383713.0 0
215982.0 385402.0 0
218971.0 383438.0 0
221900.0 385460.0 0
225082.0 383642.0 0
231348.0 383922.0 0
237752.0 384294.0 0
244192.0 384869.0 0
247612.0 383289.0 0
250600.0 385624.0 0
254046.0 384257.0 0
260680.0 384983.0 0
264413.0 383069.0 0
268500.0 384530.0 0
274538.0 384445.0 0
280393.0 384367.0 0
285944.0 384404.0 0
291451.0 384550.0 0
297125.0 384788.0 0
303180.0 385518.0 0
309426.0 386149.0 0
312437.0 385048.0 0
315686.0 387095.0 0
181905.0 388598.0 0
188078.0 387868.0 0
191303.0 389142.0 0
194394.0 387328.0 0
197605.0 388591.0 0
203813.0 387216.0 0
206922.0 388175.0 0
213012.0 387457.0 0
218830.0 387351.0 0
224763.0 387507.0 0
228008.0 385690.0 0
230882.0 387730.0 0
234270.0 385969.0 0
237138.0 388030.0 0
240714.0 386451.0 0
247174.0 387147.0 0
253600.0 387994.0 0
257077.0 386504.0 0
262929.0 387723.0 0
265813.0 386342.0 0
271710.0 386408.0 0
277596.0 386392.0 0
283238.0 386384.0 0
288722.0 386429.0 0
291568.0 388361.0 0
294309.0 386489.0 0
297285.0 388337.0 0
300183.0 386821.0 0
303318.0 388769.0 0
306358.0 387397.0 0
309552.0 389228.0 0
312703.0 388112.0 0
318736.0 389005.0 0
178809.0 390533.0 0
181904.0 391872.0 0
184982.0 389940.0 0
188167.0 390952.0 0
191515.0 392262.0 0
194575.0 390535.0 0
197825.0 391910.0 0
200776.0 389616.0 0
203858.0 390630.0 0
206897.0 391520.0 0
209988.0 389502.0 0
212835.0 391241.0 0
215827.0 389295.0 0
221611.0 389377.0 0
227591.0 389548.0 0
233707.0 389768.0 0
239940.0 390107.0 0
243679.0 388678.0 0
250189.0 389458.0 0
256504.0 390331.0 0
259776.0 388901.0 0
265883.0 390022.0 0
268889.0 388327.0 0
271947.0 390283.0 0
274790.0 388363.0 0
277797.0 390369.0 0
280542.0 388402.0 0
283435.0 390433.0 0
286061.0 388402.0 0
288921.0 390347.0 0
294493.0 390172.0 0
300375.0 390184.0 0
303477.0 392136.0 0
306417.0 390603.0 0
309408.0 392369.0 0
312688.0 391142.0 0
315743.0 390563.0 0
318680.0 392436.0 0
321771.0 390901.0 0
172479.0 394484.0 0
175681.0 392487.0 0
178785.0 393803.0 0
185066.0 393222.0 0
188320.0 393921.0 0
194962.0 393787.0 0
200912.0 392997.0 0
203973.0 394150.0 0
209847.0 393113.0 0
215430.0 393216.0 0
218519.0 391290.0 0
221232.0 393301.0 0
224385.0 391410.0 0
227151.0 393443.0 0
230389.0 391585.0 0
233152.0 393624.0 0
236478.0 391816.0 0
239188.0 393881.0 0
242617.0 392196.0 0
245235.0 394223.0 0
246738.0 390932.0 0
249826.0 393259.0 0
253186.0 391814.0 0
259471.0 392679.0 0
262696.0 391382.0 0
268958.0 392072.0 0
274987.0 392276.0 0
280759.0 392406.0 0
286337.0 392392.0 0
291825.0 392181.0 0
294786.0 393866.0 0
297507.0 391866.0 0
300601.0 393568.0 0
306450.0 393994.0 0
312373.0 394028.0 0
315595.0 394160.0 0
321826.0 394212.0 0
324886.0 392841.0 0
328063.0 394823.0 0
169222.0 396515.0 0
175519.0 395704.0 0
178560.0 397010.0 0
181960.0 395130.0 0
185236.0 396542.0 0
188815.0 396589.0 0
191960.0 395275.0 0
195178.0 397140.0 0
198177.0 395460.0 0
201408.0 396456.0 0
206881.0 394831.0 0
212289.0 395116.0 0
218088.0 395198.0 0
223963.0 395323.0 0
229907.0 395479.0 0
235890.0 395674.0 0
241883.0 395942.0 0
247829.0 396193.0 0
252950.0 395619.0 0
256219.0 394124.0 0
262562.0 395006.0 0
265796.0 393632.0 0
268933.0 395739.0 0
272040.0 394083.0 0
275129.0 396110.0 0
278012.0 394323.0 0
283719.0 394418.0 0
289268.0 394277.0 0
292261.0 396025.0 0
297807.0 395393.0 0
300849.0 396961.0 0
303602.0 395653.0 0
306272.0 397517.0 0
309365.0 395703.0 0
312774.0 396948.0 0
318794.0 395797.0 0
322045.0 397509.0 0
325038.0 396080.0 0
331290.0 396836.0 0
165955.0 398555.0 0
168868.0 399678.0 0
172181.0 397657.0 0
175101.0 398888.0 0
177967.0 400165.0 0
181623.0 398223.0 0
184446.0 399758.0 0
187938.0 399200.0 0
191763.0 398392.0 0
198340.0 399121.0 0
201937.0 399383.0 0
205116.0 397805.0 0
208998.0 396902.0 0
211556.0 398828.0 0
214894.0 397064.0 0
220787.0 397202.0 0
226706.0 397353.0 0
232658.0 397519.0 0
238630.0 397728.0 0
244597.0 397976.0 0
250485.0 398075.0 0
256104.0 397891.0 0
259321.0 396387.0 0
262462.0 398621.0 0
265718.0 397222.0 0
272077.0 397792.0 0
278229.0 398220.0 0
281029.0 396373.0 0
284048.0 398386.0 0
286691.0 396360.0 0
289709.0 398183.0 0
295358.0 397590.0 0
302979.0 399429.0 0
309622.0 398808.0 0
312998.0 400130.0 0
315933.0 397727.0 0
319124.0 399184.0 0
325333.0 399329.0 0
328298.0 398010.0 0
331592.0 399994.0 0
334549.0 398871.0 0
159503.0 402589.0 0
162712.0 400582.0 0
165616.0 401729.0 0
171742.0 400867.0 0
174560.0 402138.0 0
180844.0 401351.0 0
187217.0 402077.0 0
190869.0 401258.0 0
194668.0 400329.0 0
200680.0 402247.0 0
204516.0 401526.0 0
207900.0 400233.0 0
214246.0 400795.0 0
217573.0 399046.0 0
220315.0 401061.0 0
223520.0 399224.0 0
226271.0 401257.0 0
229461.0 399388.0 0
232242.0 401419.0 0
235426.0 399560.0 0
238229.0 401594.0 0
241402.0 399769.0 0
244231.0 401780.0 0
247378.0 399959.0 0
250255.0 401861.0 0
253296.0 399888.0 0
259229.0 400085.0 0
265617.0 400791.0 0
268891.0 399347.0 0
272080.0 401408.0 0
275252.0 399834.0 0
281299.0 400307.0 0
287088.0 400304.0 0
292840.0 399807.0 0
296188.0 401153.0 0
298626.0 398949.0 0
303384.0 402791.0 0
306413.0 400681.0 0
309909.0 401901.0 0
316224.0 401182.0 0
319473.0 402507.0 0
322405.0 400817.0 0
325755.0 402592.0 0
328657.0 401216.0 0
334893.0 402013.0 0
337823.0 400916.0 0
156307.0 404587.0 0
162435.0 403776.0 0
165363.0 405003.0 0
168494.0 402919.0 0
171325.0 404185.0 0
177340.0 403382.0 0
180128.0 404520.0 0
183684.0 402821.0 0
186385.0 405058.0 0
189909.0 404300.0 0
193514.0 403465.0 0
197164.0 402607.0 0
203223.0 404825.0 0
207150.0 403884.0 0
210713.0 402353.0 0
217058.0 402814.0 0
223064.0 403103.0 0
229058.0 403285.0 0
235064.0 403443.0 0
241083.0 403608.0 0
247133.0 403738.0 0
253175.0 403739.0 0
256209.0 401826.0 0
259176.0 403887.0 0
262322.0 402243.0 0
265415.0 404330.0 0
268801.0 402883.0 0
275291.0 403423.0 0
278409.0 402084.0 0
284374.0 402332.0 0
287490.0 404215.0 0
290209.0 402031.0 0
293517.0 403438.0 0
299961.0 401882.0 0
306862.0 403852.0 0
310393.0 404969.0 0
313364.0 403470.0 0
316572.0 404600.0 0
322876.0 404079.0 0
329100.0 404452.0 0
331983.0 403189.0 0
335256.0 405217.0 0
338171.0 404056.0 0
341092.0 402959.0 0
344342.0 404990.0 0
153093.0 406595.0 0
156070.0 407755.0 0
159269.0 405784.0 0
162239.0 407037.0 0
168276.0 406292.0 0
171166.0 407681.0 0
174086.0 405520.0 0
176793.0 406708.0 0
182940.0 405801.0 0
188824.0 407466.0 0
192289.0 406713.0 0
195828.0 405955.0 0
199409.0 405411.0 0
204511.0 407932.0 0
207556.0 407284.0 0
210504.0 405881.0 0
213738.0 404417.0 0
216531.0 406590.0 0
219819.0 404893.0 0
225855.0 405137.0 0
231893.0 405303.0 0
237934.0 405454.0 0
243998.0 405590.0 0
250079.0 405654.0 0
256107.0 405692.0 0
262188.0 405945.0 0
268503.0 406309.0 0
272010.0 404933.0 0
278537.0 405948.0 0
281520.0 404211.0 0
284616.0 406247.0 0
290785.0 405783.0 0
294251.0 406938.0 0
297064.0 404420.0 0
300502.0 405254.0 0
303913.0 406103.0 0
307288.0 407009.0 0
310589.0 407878.0 0
313798.0 407041.0 0
317249.0 407866.0 0
319989.0 405696.0 0
323470.0 407322.0 0
326263.0 405877.0 0
329516.0 407769.0 0
332367.0 406459.0 0
338451.0 407275.0 0
341403.0 406112.0 0
347585.0 407018.0 0
146569.0 410672.0 0
149850.0 408621.0 0
152844.0 409737.0 0
159056.0 409012.0 0
162040.0 410320.0 0
165216.0 408349.0 0
168206.0 409731.0 0
174021.0 409153.0 0
176906.0 410283.0 0
179503.0 407716.0 0
182281.0 408742.0 0
185486.0 408160.0 0
190760.0 410039.0 0
194252.0 409340.0 0
197732.0 408746.0 0
201214.0 408210.0 0
210067.0 409745.0 0
213261.0 408198.0 0
219325.0 408710.0 0
222613.0 406952.0 0
225471.0 408983.0 0
228700.0 407156.0 0
231597.0 409163.0 0
234776.0 407309.0 0
237707.0 409302.0 0
240857.0 407443.0 0
243823.0 409409.0 0
246956.0 407538.0 0
249936.0 409471.0 0
253035.0 407576.0 0
256010.0 409534.0 0
259077.0 407698.0 0
262104.0 409694.0 0
265234.0 407951.0 0
268292.0 409889.0 0
271499.0 408207.0 0
274563.0 409812.0 0
275320.0 406823.0 0
281515.0 408111.0 0
287954.0 408032.0 0
291467.0 409465.0 0
297771.0 407832.0 0
301288.0 408632.0 0
304774.0 409451.0 0
308263.0 410270.0 0
320685.0 408791.0 0
324100.0 410632.0 0
326747.0 409269.0 0
332553.0 409865.0 0
335498.0 408525.0 0
338619.0 410562.0 0
341630.0 409327.0 0
344623.0 408143.0 0
347847.0 410175.0 0
350827.0 409045.0 0
143254.0 412745.0 0
149574.0 411734.0 0
152621.0 412899.0 0
155859.0 410953.0 0
158883.0 412286.0 0
165011.0 411686.0 0
171236.0 411244.0 0
174357.0 412884.0 0
180086.0 411140.0 0
183773.0 411327.0 0
187273.0 410736.0 0
192557.0 412694.0 0
196093.0 412106.0 0
199640.0 411592.0 0
203170.0 411251.0 0
206715.0 410827.0 0
212656.0 412052.0 0
216007.0 410407.0 0
222197.0 410769.0 0
228387.0 410998.0 0
234540.0 411158.0 0
240680.0 411277.0 0
246819.0 411358.0 0
252936.0 411410.0 0
259036.0 411504.0 0
265200.0 411642.0 0
271520.0 411666.0 0
275061.0 412954.0 0
278168.0 409892.0 0
281467.0 411785.0 0
284878.0 409998.0 0
288510.0 411749.0 0
295108.0 410419.0 0
298780.0 411210.0 0
302411.0 411981.0 0
306037.0 412732.0 0
311958.0 410534.0 0
315129.0 410520.0 0
318344.0 411210.0 0
321516.0 411880.0 0
326691.0 412985.0 0
329609.0 411263.0 0
332558.0 413333.0 0
335594.0 411907.0 0
341773.0 412583.0 0
344827.0 411334.0 0
351077.0 412204.0 0
354075.0 411075.0 0
357346.0 413121.0 0
139923.0 414830.0 0
142935.0 415881.0 0
146264.0 413782.0 0
149333.0 414854.0 0
155690.0 414174.0 0
158765.0 415602.0 0
161903.0 413660.0 0
164917.0 415115.0 0
167953.0 413078.0 0
170810.0 414565.0 0
177857.0 413605.0 0
181591.0 413950.0 0
185382.0 413860.0 0
189001.0 413320.0 0
194321.0 415418.0 0
197946.0 414901.0 0
201606.0 414485.0 0
205359.0 414110.0 0
209146.0 413496.0 0
215496.0 414189.0 0
218878.0 412506.0 0
221855.0 414558.0 0
225139.0 412800.0 0
231347.0 413001.0 0
237523.0 413141.0 0
243687.0 413237.0 0
249841.0 413298.0 0
255976.0 413357.0 0
262142.0 413442.0 0
268453.0 413452.0 0
271893.0 415033.0 0
278400.0 413878.0 0
284719.0 413559.0 0
292536.0 413050.0 0
296376.0 413802.0 0
300126.0 414546.0 0
303847.0 415255.0 0
309770.0 413251.0 0
313360.0 413626.0 0
316743.0 413957.0 0
320193.0 414527.0 0
323836.0 414326.0 0
329449.0 414726.0 0
335642.0 415311.0 0
338705.0 413882.0 0
344931.0 414553.0 0
348030.0 413363.0 0
351260.0 415385.0 0
354333.0 414216.0 0
360633.0 415177.0 0
136597.0 416911.0 0
139612.0 418018.0 0
146016.0 416899.0 0
149159.0 417980.0 0
152443.0 416076.0 0
155571.0 417408.0 0
161837.0 417033.0 0
167920.0 416586.0 0
173280.0 416124.0 0
176201.0 416383.0 0
179615.0 416666.0 0
183298.0 416697.0 0
187044.0 416462.0 0
190703.0 415968.0 0
196078.0 418170.0 0
199789.0 417707.0 0
203583.0 417283.0 0
207516.0 416878.0 0
211966.0 415770.0 0
218540.0 416261.0 0
224856.0 416601.0 0
228120.0 414819.0 0
231141.0 416825.0 0
234345.0 414994.0 0
237376.0 416975.0 0
240541.0 415111.0 0
243591.0 417067.0 0
246725.0 415185.0 0
249798.0 417121.0 0
252898.0 415234.0 0
256015.0 417152.0 0
259086.0 415283.0 0
262301.0 417143.0 0
265379.0 415284.0 0
268740.0 416975.0 0
275293.0 416385.0 0
281638.0 415608.0 0
287750.0 415231.0 0
290930.0 416182.0 0
294392.0 416586.0 0
298040.0 417210.0 0
301750.0 417858.0 0
307608.0 415843.0 0
311331.0 416347.0 0
314983.0 416775.0 0
318603.0 417142.0 0
322449.0 417220.0 0
326267.0 416807.0 0
329638.0 417827.0 0
332634.0 416765.0 0
338600.0 417260.0 0
341784.0 415887.0 0
344981.0 417757.0 0
348146.0 416561.0 0
354510.0 417364.0 0
357610.0 416273.0 0
360892.0 418369.0 0
363918.0 417234.0 0
130056.0 421010.0 0
133303.0 418975.0 0
136324.0 420174.0 0
139406.0 421234.0 0
142697.0 419031.0 0
145846.0 420022.0 0
149052.0 421099.0 0
152341.0 419274.0 0
155536.0 420652.0 0
158690.0 418957.0 0
161779.0 420395.0 0
164916.0 418590.0 0
168025.0 420093.0 0
170812.0 418407.0 0
173997.0 419468.0 0
177467.0 419566.0 0
181139.0 419583.0 0
184906.0 419440.0 0
188677.0 419129.0 0
192389.0 418668.0 0
201489.0 420533.0 0
205173.0 420163.0 0
208700.0 420046.0 0
211999.0 419344.0 0
215210.0 417867.0 0
221553.0 418344.0 0
227908.0 418625.0 0
234189.0 418823.0 0
240438.0 418943.0 0
246675.0 419009.0 0
252921.0 419038.0 0
259212.0 419022.0 0
265610.0 418902.0 0
272118.0 418536.0 0
275430.0 420025.0 0
278517.0 417728.0 0
281642.0 419390.0 0
284892.0 417409.0 0
288445.0 418934.0 0
292293.0 419589.0 0
296024.0 420016.0 0
305505.0 418447.0 0
309261.0 418977.0 0
313000.0 419447.0 0
316746.0 419823.0 0
320554.0 419972.0 0
324366.0 419953.0 0
327887.0 420255.0 0
331947.0 420356.0 0
335348.0 418842.0 0
338626.0 420532.0 0
341792.0 419187.0 0
344962.0 420952.0 0
348187.0 419777.0 0
351357.0 418593.0 0
354588.0 420513.0 0
357777.0 419428.0 0
364145.0 420500.0 0
367177.0 419276.0 0
370386.0 421289.0 0
126856.0 423010.0 0
133100.0 422326.0 0
136187.0 423486.0 0
142545.0 422199.0 0
145736.0 423145.0 0
152277.0 422487.0 0
158709.0 422405.0 0
164855.0 422064.0 0
167962.0 423219.0 0
171346.0 422089.0 0
175135.0 422512.0 0
178918.0 422511.0 0
182728.0 422403.0 0
186541.0 422180.0 0
190326.0 421843.0 0
194065.0 421412.0 0
197779.0 420961.0 0
203169.0 423439.0 0
206925.0 423210.0 0
210873.0 422896.0 0
214770.0 421710.0 0
218198.0 420042.0 0
221374.0 422102.0 0
224648.0 420386.0 0
227738.0 422433.0 0
230977.0 420645.0 0
234071.0 422649.0 0
237264.0 420806.0 0
243531.0 420895.0 0
249803.0 420931.0 0
256107.0 420918.0 0
259353.0 422746.0 0
262483.0 420822.0 0
265794.0 422550.0 0
268954.0 420565.0 0
272283.0 422163.0 0
278648.0 421584.0 0
284700.0 421029.0 0
287630.0 422366.0 0
290854.0 422727.0 0
294302.0 422997.0 0
299738.0 420571.0 0
303476.0 421123.0 0
307233.0 421638.0 0
310995.0 422104.0 0
314767.0 422504.0 0
318567.0 422749.0 0
322312.0 422890.0 0
325918.0 423109.0 0
329515.0 423157.0 0
332823.0 423572.0 0
335509.0 422138.0 0
341716.0 422583.0 0
348194.0 423008.0 0
351377.0 421844.0 0
354588.0 423652.0 0
357832.0 422586.0 0
361025.0 421576.0 0
367343.0 422642.0 0
373528.0 423264.0 0
123619.0 425035.0 0
126791.0 426367.0 0
129952.0 424442.0 0
133052.0 425750.0 0
139332.0 424489.0 0
142542.0 425400.0 0
145814.0 426299.0 0
148970.0 424195.0 0
152167.0 425741.0 0
155496.0 423838.0 0
158544.0 425934.0 0
161876.0 423766.0 0
165349.0 425688.0 0
169333.0 425820.0 0
172914.0 425350.0 0
176745.0 425447.0 0
180570.0 425375.0 0
184392.0 425208.0 0
188201.0 424952.0 0
191980.0 424611.0 0
195723.0 424213.0 0
199446.0 423807.0 0
208354.0 426206.0 0
211816.0 426158.0 0
215036.0 425294.0 0
218132.0 423759.0 0
224471.0 424183.0 0
230859.0 424463.0 0
237182.0 424639.0 0
240366.0 422773.0 0
243502.0 424718.0 0
246663.0 422826.0 0
249840.0 424728.0 0
252983.0 422821.0 0
256214.0 424672.0 0
262640.0 424518.0 0
269111.0 424219.0 0
275575.0 423761.0 0
278859.0 425423.0 0
281841.0 423291.0 0
285100.0 424931.0 0
288707.0 425795.0 0
297889.0 423420.0 0
301563.0 423901.0 0
305285.0 424379.0 0
309035.0 424824.0 0
312799.0 425217.0 0
316584.0 425530.0 0
320348.0 425767.0 0
324038.0 425998.0 0
327709.0 426164.0 0
331320.0 426370.0 0
335194.0 425967.0 0
338510.0 426830.0 0
338488.0 423876.0 0
344961.0 424064.0 0
351374.0 425185.0 0
357749.0 425753.0 0
361016.0 424799.0 0
364220.0 423792.0 0
367346.0 426055.0 0
370462.0 424778.0 0
376590.0 425176.0 0
117024.0 429167.0 0
120332.0 427093.0 0
123533.0 428377.0 0
130001.0 427959.0 0
136196.0 426848.0 0
139415.0 427770.0 0
142674.0 428612.0 0
149170.0 427325.0 0
155179.0 426904.0 0
161908.0 426702.0 0
174675.0 428426.0 0
178457.0 428380.0 0
182261.0 428251.0 0
186066.0 428048.0 0
189855.0 427775.0 0
193617.0 427443.0 0
197345.0 427079.0 0
201044.0 426722.0 0
204713.0 426425.0 0
217833.0 427671.0 0
221178.0 425924.0 0
227632.0 426235.0 0
233981.0 426484.0 0
240320.0 426603.0 0
246677.0 426634.0 0
253062.0 426597.0 0
259484.0 426478.0 0
265944.0 426241.0 0
269249.0 427931.0 0
272408.0 425859.0 0
275678.0 427506.0 0
282246.0 427144.0 0
292369.0 426086.0 0
296022.0 426384.0 0
299696.0 426778.0 0
303402.0 427205.0 0
307135.0 427622.0 0
310888.0 428004.0 0
341820.0 426078.0 0
345176.0 426985.0 0
348341.0 426240.0 0
354408.0 426786.0 0
360910.0 428030.0 0
364151.0 427107.0 0
370332.0 428361.0 0
373447.0 426896.0 0
376486.0 428650.0 0
379722.0 427133.0 0
382925.0 429138.0 0
113764.0 431216.0 0
120213.0 430495.0 0
123496.0 431660.0 0
126857.0 429675.0 0
133172.0 429247.0 0
136477.0 430239.0 0
139872.0 431096.0 0
145933.0 429418.0 0
149197.0 430201.0 0
152537.0 429297.0 0
156386.0 429549.0 0
159836.0 429313.0 0
163721.0 429182.0 0
167258.0 428725.0 0
171029.0 428653.0 0
187727.0 430931.0 0
191499.0 430653.0 0
195246.0 430337.0 0
198965.0 430008.0 0
202666.0 429700.0 0
206373.0 429441.0 0
210132.0 429299.0 0
214093.0 428916.0 0
221208.0 429686.0 0
224401.0 427959.0 0
227538.0 430066.0 0
230767.0 428298.0 0
233917.0 430329.0 0
237123.0 428476.0 0
240288.0 430433.0 0
243493.0 428536.0 0
246707.0 430436.0 0
249894.0 428518.0 0
253150.0 430372.0 0
256322.0 428429.0 0
259609.0 430227.0 0
262777.0 428242.0 0
266078.0 429971.0 0
272544.0 429612.0 0
278926.0 429155.0 0
282078.0 430769.0 0
286279.0 428532.0 0
290258.0 429062.0 0
294089.0 429368.0 0
297830.0 429712.0 0
301552.0 430096.0 0
305284.0 430486.0 0
309029.0 430855.0 0
314648.0 428334.0 0
318407.0 428612.0 0
322129.0 428876.0 0
325827.0 429092.0 0
329508.0 429260.0 0
333249.0 429150.0 0
336691.0 429431.0 0
340441.0 429465.0 0
343785.0 429549.0 0
347579.0 429477.0 0
351122.0 428796.0 0
354448.0 429687.0 0
357678.0 428883.0 0
360353.0 431346.0 0
363746.0 430475.0 0
367090.0 429514.0 0
373237.0 430655.0 0
376442.0 431955.0 0
379733.0 430585.0 0
386105.0 431133.0 0
110549.0 433237.0 0
117012.0 432714.0 0
120351.0 433934.0 0
126864.0 432792.0 0
130193.0 431608.0 0
133616.0 432734.0 0
137171.0 433601.0 0
143316.0 431897.0 0
146857.0 432609.0 0
150729.0 432699.0 0
154231.0 432357.0 0
157946.0 432445.0 0
161626.0 432192.0 0
165351.0 432038.0 0
168977.0 431756.0 0
172686.0 431631.0 0
176385.0 431455.0 0
180153.0 431332.0 0
183941.0 431158.0 0
193141.0 433581.0 0
196875.0 433285.0 0
200584.0 432987.0 0
204269.0 432711.0 0
207926.0 432488.0 0
211546.0 432308.0 0
214981.0 432203.0 0
218192.0 431314.0 0
224269.0 431787.0 0
230717.0 432149.0 0
237065.0 432324.0 0
243499.0 432349.0 0
249961.0 432307.0 0
256433.0 432198.0 0
262909.0 431995.0 0
269373.0 431681.0 0
275838.0 431306.0 0
279153.0 433027.0 0
285233.0 431916.0 0
288679.0 432125.0 0
292325.0 432360.0 0
296030.0 432684.0 0
299746.0 433036.0 0
303474.0 433401.0 0
312782.0 431189.0 0
316532.0 431482.0 0
320261.0 431760.0 0
323982.0 431999.0 0
327707.0 432173.0 0
331452.0 432219.0 0
335063.0 432361.0 0
338737.0 432403.0 0
342373.0 432535.0 0
346021.0 432386.0 0
349716.0 432142.0 0
353091.0 432264.0 0
356874.0 432109.0 0
362933.0 433831.0 0
366463.0 432954.0 0
369933.0 431963.0 0
379585.0 434044.0 0
382880.0 432715.0 0
385953.0 434775.0 0
389274.0 433114.0 0
107319.0 435255.0 0
110749.0 436978.0 0
113902.0 434896.0 0
117383.0 436317.0 0
123793.0 434965.0 0
127380.0 435735.0 0
130899.0 435321.0 0
134575.0 436142.0 0
140772.0 434389.0 0
144460.0 435065.0 0
148332.0 435411.0 0
152132.0 435510.0 0
155792.0 435379.0 0
159546.0 435328.0 0
163245.0 435160.0 0
166950.0 435000.0 0
170622.0 434796.0 0
174337.0 434643.0 0
178065.0 434469.0 0
181830.0 434301.0 0
185608.0 434098.0 0
189382.0 433856.0 0
198531.0 436276.0 0
202242.0 436006.0 0
205935.0 435763.0 0
209630.0 435554.0 0
213360.0 435389.0 0
217252.0 434967.0 0
220976.0 433735.0 0
224444.0 435467.0 0
227547.0 433885.0 0
233826.0 434207.0 0
240268.0 434259.0 0
246753.0 434234.0 0
253244.0 434154.0 0
259733.0 433997.0 0
263043.0 435773.0 0
266215.0 433739.0 0
269523.0 435475.0 0
272650.0 433386.0 0
275881.0 435091.0 0
282701.0 434565.0 0
286682.0 435232.0 0
290495.0 435423.0 0
294232.0 435695.0 0
297957.0 436018.0 0
307215.0 433756.0 0
310967.0 434089.0 0
314720.0 434390.0 0
318461.0 434672.0 0
322201.0 434917.0 0
325946.0 435105.0 0
329697.0 435209.0 0
333405.0 435331.0 0
337114.0 435386.0 0
340801.0 435450.0 0
344537.0 435413.0 0
348229.0 435238.0 0
351845.0 435229.0 0
355538.0 435009.0 0
359318.0 434578.0 0
365449.0 436353.0 0
369075.0 435486.0 0
372657.0 434503.0 0
376119.0 435038.0 0
382446.0 436355.0 0
389479.0 436615.0 0
392586.0 435173.0 0
395844.0 437215.0 0
100619.0 439435.0 0
103953.0 437346.0 0
107163.0 438868.0 0
114381.0 438573.0 0
121024.0 437361.0 0
124776.0 438195.0 0
128642.0 438613.0 0
132200.0 438839.0 0
138277.0 436910.0 0
142041.0 437574.0 0
145908.0 438037.0 0
149776.0 438321.0 0
153596.0 438419.0 0
157348.0 438360.0 0
161102.0 438299.0 0
164824.0 438168.0 0
168539.0 438018.0 0
172248.0 437841.0 0
175981.0 437671.0 0
179729.0 437484.0 0
183498.0 437288.0 0
187275.0 437067.0 0
191045.0 436819.0 0
194799.0 436552.0 0
207653.0 438824.0 0
211348.0 438612.0 0
215031.0 438332.0 0
218510.0 438139.0 0
221784.0 437436.0 0
227291.0 437852.0 0
230574.0 436076.0 0
233717.0 438081.0 0
237011.0 436170.0 0
240278.0 438073.0 0
243525.0 436154.0 0
246813.0 438030.0 0
250039.0 436097.0 0
253347.0 437945.0 0
256546.0 435980.0 0
259859.0 437787.0 0
266362.0 437530.0 0
272830.0 437230.0 0
279000.0 436737.0 0
282006.0 438066.0 0
285330.0 438392.0 0
288862.0 438520.0 0
292508.0 438758.0 0
301688.0 436357.0 0
305430.0 436697.0 0
309183.0 437024.0 0
312944.0 437327.0 0
316702.0 437610.0 0
320462.0 437857.0 0
324226.0 438057.0 0
327992.0 438195.0 0
331738.0 438308.0 0
335487.0 438379.0 0
339226.0 438422.0 0
342978.0 438398.0 0
346733.0 438308.0 0
350438.0 438218.0 0
354195.0 438021.0 0
357980.0 437645.0 0
361762.0 437099.0 0
367840.0 438974.0 0
371437.0 438199.0 0
374922.0 438004.0 0
378742.0 437454.0 0
383723.0 439562.0 0
386565.0 438187.0 0
392677.0 438755.0 0
399089.0 439248.0 0
96672.6 441884.0 0
103887.0 440994.0 0
107097.0 442655.0 0
110194.0 440541.0 0
113212.0 441953.0 0
118367.0 439830.0 0
122224.0 440679.0 0
126094.0 441329.0 0
129861.0 441824.0 0
135880.0 439514.0 0
139650.0 440152.0 0
143504.0 440667.0 0
147387.0 441050.0 0
151262.0 441292.0 0
155101.0 441389.0 0
158887.0 441378.0 0
162654.0 441323.0 0
166397.0 441212.0 0
170135.0 441068.0 0
173873.0 440894.0 0
177627.0 440708.0 0
181395.0 440506.0 0
185175.0 440291.0 0
188958.0 440059.0 0
192732.0 439813.0 0
196490.0 439557.0 0
200228.0 439300.0 0
203948.0 439053.0 0
216916.0 441430.0 0
220686.0 441004.0 0
224349.0 440108.0 0
230348.0 440006.0 0
237020.0 439989.0 0
243566.0 439958.0 0
250129.0 439890.0 0
256669.0 439779.0 0
263175.0 439572.0 0
269696.0 439282.0 0
273063.0 441072.0 0
276124.0 439039.0 0
279465.0 440713.0 0
296200.0 439042.0 0
299920.0 439354.0 0
303660.0 439674.0 0
307417.0 439988.0 0
311185.0 440289.0 0
314959.0 440569.0 0
318739.0 440819.0 0
322523.0 441028.0 0
326307.0 441186.0 0
330084.0 441307.0 0
333859.0 441386.0 0
337633.0 441427.0 0
341415.0 441414.0 0
345196.0 441346.0 0
348970.0 441247.0 0
352762.0 441058.0 0
356576.0 440740.0 0
360383.0 440284.0 0
364155.0 439695.0 0
373636.0 441329.0 0
377195.0 440844.0 0
380621.0 440303.0 0
386441.0 441928.0 0
389570.0 440333.0 0
392613.0 442441.0 0
395855.0 440831.0 0
399075.0 442876.0 0
402352.0 441290.0 0
93340.3 443975.0 0
99884.2 443003.0 0
102962.0 444525.0 0
110409.0 444360.0 0
116460.0 442751.0 0
119976.0 443363.0 0
123678.0 444028.0 0
133535.0 442252.0 0
137290.0 442823.0 0
141123.0 443341.0 0
145002.0 443772.0 0
148895.0 444102.0 0
152778.0 444317.0 0
171744.0 444137.0 0
175509.0 443954.0 0
179288.0 443751.0 0
183080.0 443533.0 0
186880.0 443306.0 0
190675.0 443072.0 0
194458.0 442832.0 0
198226.0 442589.0 0
201979.0 442348.0 0
205720.0 442114.0 0
209456.0 441889.0 0
213197.0 441646.0 0
222994.0 443739.0 0
227046.0 442620.0 0
233769.0 441879.0 0
240302.0 441892.0 0
246889.0 441825.0 0
253462.0 441744.0 0
256804.0 443595.0 0
259996.0 441602.0 0
263323.0 443402.0 0
266493.0 441328.0 0
269812.0 443060.0 0
276498.0 442982.0 0
283238.0 441441.0 0
286998.0 441677.0 0
290704.0 441863.0 0
294416.0 442109.0 0
298142.0 442388.0 0
301888.0 442684.0 0
305651.0 442982.0 0
309430.0 443273.0 0
313220.0 443549.0 0
317017.0 443802.0 0
320819.0 444018.0 0
324624.0 444192.0 0
347459.0 444298.0 0
351284.0 444125.0 0
355120.0 443851.0 0
358951.0 443468.0 0
362750.0 442981.0 0
366488.0 442403.0 0
370123.0 441769.0 0
376063.0 444268.0 0
379635.0 443779.0 0
383107.0 443111.0 0
389320.0 444070.0 0
395758.0 444481.0 0
402340.0 444930.0 0
405642.0 443348.0 0
408959.0 445423.0 0
89999.3 446068.0 0
93273.8 447556.0 0
96576.4 445400.0 0
99796.7 446751.0 0
105967.0 446104.0 0
108900.0 447604.0 0
113999.0 445579.0 0
117653.0 446261.0 0
121309.0 446845.0 0
127437.0 444617.0 0
131191.0 445124.0 0
134944.0 445592.0 0
138760.0 446082.0 0
142627.0 446526.0 0
146523.0 446902.0 0
156627.0 444421.0 0
160436.0 444436.0 0
164219.0 444391.0 0
167985.0 444287.0 0
184807.0 446561.0 0
188626.0 446333.0 0
192435.0 446104.0 0
196230.0 445873.0 0
200013.0 445640.0 0
203788.0 445407.0 0
207561.0 445175.0 0
211344.0 444932.0 0
215148.0 444678.0 0
219032.0 444318.0 0
228142.0 446369.0 0
230629.0 443778.0 0
233733.0 445798.0 0
237026.0 443843.0 0
240367.0 445704.0 0
243630.0 443756.0 0
246972.0 445620.0 0
250231.0 443685.0 0
253593.0 445551.0 0
260141.0 445444.0 0
266662.0 445159.0 0
273104.0 444809.0 0
280999.0 444237.0 0
284961.0 444681.0 0
288803.0 444951.0 0
292575.0 445190.0 0
296333.0 445449.0 0
300095.0 445722.0 0
303871.0 446002.0 0
307662.0 446279.0 0
311468.0 446548.0 0
328426.0 444324.0 0
332227.0 444413.0 0
336030.0 444458.0 0
339837.0 444454.0 0
343648.0 444399.0 0
357486.0 446654.0 0
361315.0 446245.0 0
365100.0 445763.0 0
368820.0 445233.0 0
372453.0 444751.0 0
382316.0 446593.0 0
385880.0 445584.0 0
388846.0 447721.0 0
392369.0 446110.0 0
398995.0 446515.0 0
405639.0 447006.0 0
412295.0 447512.0 0
83265.3 450284.0 0
86640.6 448171.0 0
89943.6 449689.0 0
96577.9 449016.0 0
102961.0 448340.0 0
106128.0 449988.0 0
112030.0 448581.0 0
115417.0 449206.0 0
125030.0 447421.0 0
128792.0 447956.0 0
132581.0 448439.0 0
136396.0 448889.0 0
140257.0 449324.0 0
150427.0 447195.0 0
154319.0 447396.0 0
158180.0 447508.0 0
162007.0 447540.0 0
165807.0 447497.0 0
169592.0 447387.0 0
173376.0 447220.0 0
177172.0 447015.0 0
180983.0 446792.0 0
194240.0 449155.0 0
198048.0 448931.0 0
201848.0 448703.0 0
205646.0 448471.0 0
209447.0 448227.0 0
213256.0 447965.0 0
217080.0 447644.0 0
220878.0 447264.0 0
224553.0 446901.0 0
237144.0 447686.0 0
243692.0 447559.0 0
250343.0 447473.0 0
256963.0 447429.0 0
263459.0 447257.0 0
270060.0 446884.0 0
276025.0 446810.0 0
279515.0 447418.0 0
283154.0 447673.0 0
286928.0 447992.0 0
290716.0 448266.0 0
294495.0 448523.0 0
298276.0 448782.0 0
302067.0 449046.0 0
315286.0 446801.0 0
319109.0 447026.0 0
322933.0 447214.0 0
326756.0 447360.0 0
330580.0 447460.0 0
334407.0 447513.0 0
338240.0 447518.0 0
342079.0 447473.0 0
345922.0 447378.0 0
349774.0 447219.0 0
353633.0 446979.0 0
363679.0 449081.0 0
367464.0 448622.0 0
371198.0 448155.0 0
374906.0 447675.0 0
378611.0 447176.0 0
385161.0 449248.0 0
392071.0 449701.0 0
395585.0 448105.0 0
398908.0 450147.0 0
402287.0 448585.0 0
405578.0 450687.0 0
408954.0 449108.0 0
415643.0 449608.0 0
79880.9 452405.0 0
86593.9 451831.0 0
93284.7 451181.0 0
96650.1 452683.0 0
99868.8 450519.0 0
103189.0 452165.0 0
109438.0 451342.0 0
112914.0 452202.0 0
118977.0 449786.0 0
122645.0 450308.0 0
126387.0 450817.0 0
130184.0 451299.0 0
134018.0 451746.0 0
144151.0 449719.0 0
148065.0 450057.0 0
151982.0 450328.0 0
155886.0 450525.0 0
159763.0 450648.0 0
163607.0 450689.0 0
167421.0 450638.0 0
171228.0 450503.0 0
175044.0 450301.0 0
178880.0 450066.0 0
182738.0 449820.0 0
186587.0 449594.0 0
190420.0 449375.0 0
203723.0 451776.0 0
207541.0 451537.0 0
211362.0 451281.0 0
215188.0 450992.0 0
219002.0 450667.0 0
222783.0 450336.0 0
226557.0 449931.0 0
230304.0 449435.0 0
233998.0 449522.0 0
240392.0 449550.0 0
247074.0 449410.0 0
250433.0 451255.0 0
253721.0 449358.0 0
257115.0 451254.0 0
260342.0 449332.0 0
263742.0 451207.0 0
266740.0 448966.0 0
269928.0 450513.0 0
273610.0 449719.0 0
277420.0 450407.0 0
281252.0 450788.0 0
285033.0 451058.0 0
288830.0 451341.0 0
292630.0 451606.0 0
305872.0 449308.0 0
309693.0 449564.0 0
313530.0 449812.0 0
317379.0 450046.0 0
321227.0 450250.0 0
325071.0 450414.0 0
328914.0 450530.0 0
332763.0 450593.0 0
336619.0 450607.0 0
340483.0 450570.0 0
344353.0 450483.0 0
348231.0 450338.0 0
352113.0 450127.0 0
355991.0 449845.0 0
359851.0 449494.0 0
369854.0 451537.0 0
373634.0 451069.0 0
377419.0 450562.0 0
381248.0 449977.0 0
383746.0 452740.0 0
388426.0 451288.0 0
395508.0 451678.0 0
402178.0 452271.0 0
408877.0 452819.0 0
412280.0 451235.0 0
415611.0 453381.0 0
419000.0 451711.0 0
76498.4 454525.0 0
83237.5 453992.0 0
86632.6 455529.0 0
89959.8 453343.0 0
93353.3 454838.0 0
100052.0 454247.0 0
106608.0 453834.0 0
110144.0 455031.0 0
116505.0 452771.0 0
120205.0 453264.0 0
123954.0 453738.0 0
127762.0 454192.0 0
131614.0 454629.0 0
137882.0 452168.0 0
141777.0 452565.0 0
145696.0 452926.0 0
149627.0 453241.0 0
153559.0 453501.0 0
157479.0 453702.0 0
161376.0 453839.0 0
165237.0 453887.0 0
169065.0 453800.0 0
172912.0 453612.0 0
176773.0 453359.0 0
180681.0 453077.0 0
184562.0 452853.0 0
188418.0 452645.0 0
192257.0 452437.0 0
196085.0 452224.0 0
199906.0 452004.0 0
213298.0 454343.0 0
217127.0 454049.0 0
220943.0 453738.0 0
224755.0 453389.0 0
228548.0 452997.0 0
232304.0 452754.0 0
237086.0 451713.0 0
240618.0 453295.0 0
243816.0 451331.0 0
247130.0 453235.0 0
253822.0 453158.0 0
260516.0 453219.0 0
267177.0 453106.0 0
271981.0 453281.0 0
275602.0 453515.0 0
279338.0 453841.0 0
283134.0 454159.0 0
296429.0 451860.0 0
300236.0 452111.0 0
304053.0 452359.0 0
307886.0 452601.0 0
311738.0 452836.0 0
315609.0 453065.0 0
319494.0 453293.0 0
323363.0 453484.0 0
327225.0 453623.0 0
331093.0 453698.0 0
334970.0 453720.0 0
338858.0 453691.0 0
342753.0 453612.0 0
346656.0 453481.0 0
350561.0 453292.0 0
354463.0 453045.0 0
358353.0 452738.0 0
362218.0 452378.0 0
366052.0 451973.0 0
372266.0 454468.0 0
376075.0 453980.0 0
379895.0 453413.0 0
388957.0 454793.0 0
392162.0 453210.0 0
395370.0 455355.0 0
398772.0 453827.0 0
405442.0 454395.0 0
412187.0 454989.0 0
418940.0 455539.0 0
422357.0 453815.0 0
425715.0 455918.0 0
73122.4 456642.0 0
76546.3 458371.0 0
79886.6 456180.0 0
83313.9 457741.0 0
90052.5 457035.0 0
96773.1 456349.0 0
100219.0 457907.0 0
103539.0 455912.0 0
107182.0 457729.0 0
113871.0 455754.0 0
117687.0 456232.0 0
121477.0 456705.0 0
125314.0 457127.0 0
135491.0 455047.0 0
139393.0 455443.0 0
143317.0 455814.0 0
147257.0 456154.0 0
151206.0 456455.0 0
155154.0 456713.0 0
159093.0 456925.0 0
163017.0 457087.0 0
166908.0 457130.0 0
170772.0 456942.0 0
174675.0 456695.0 0
178655.0 456321.0 0
182564.0 456106.0 0
186434.0 455915.0 0
190285.0 455723.0 0
194127.0 455522.0 0
197962.0 455311.0 0
201796.0 455091.0 0
205629.0 454859.0 0
209463.0 454612.0 0
222902.0 456823.0 0
226704.0 456488.0 0
230461.0 456191.0 0
234213.0 455879.0 0
237852.0 455563.0 0
243825.0 455163.0 0
250495.0 455003.0 0
257207.0 455052.0 0
263923.0 455111.0 0
269631.0 456144.0 0
273558.0 456659.0 0
286933.0 454431.0 0
290742.0 454698.0 0
294557.0 454952.0 0
298378.0 455196.0 0
302207.0 455434.0 0
306049.0 455663.0 0
309908.0 455883.0 0
313788.0 456096.0 0
317694.0 456310.0 0
321624.0 456556.0 0
325510.0 456736.0 0
329399.0 456830.0 0
333295.0 456859.0 0
337203.0 456835.0 0
341123.0 456763.0 0
345048.0 456644.0 0
348977.0 456475.0 0
352903.0 456254.0 0
356821.0 455982.0 0
360720.0 455663.0 0
364595.0 455303.0 0
368443.0 454906.0 0
378464.0 456925.0 0
382170.0 456357.0 0
385696.0 455789.0 0
391949.0 456897.0 0
398554.0 457568.0 0
401992.0 456006.0 0
405221.0 458115.0 0
408724.0 456547.0 0
412023.0 458761.0 0
415497.0 457191.0 0
422265.0 457700.0 0
429080.0 458025.0 0
66375.4 460869.0 0
69750.8 458755.0 0
73218.1 460552.0 0
79996.1 460008.0 0
86769.2 459268.0 0
93491.5 458522.0 0
96942.2 460028.0 0
103643.0 459573.0 0
111044.0 458644.0 0
115196.0 459182.0 0
118994.0 459714.0 0
129192.0 457540.0 0
133085.0 457953.0 0
136996.0 458349.0 0
140925.0 458725.0 0
144871.0 459077.0 0
148829.0 459405.0 0
152791.0 459703.0 0
176749.0 459542.0 0
180626.0 459356.0 0
184480.0 459191.0 0
188328.0 459015.0 0
192174.0 458827.0 0
196020.0 458626.0 0
199866.0 458414.0 0
203712.0 458190.0 0
207558.0 457952.0 0
211404.0 457699.0 0
215246.0 457427.0 0
219079.0 457137.0 0
232479.0 459355.0 0
236286.0 459059.0 0
240131.0 458647.0 0
243920.0 458829.0 0
247213.0 457089.0 0
250587.0 458693.0 0
253848.0 456972.0 0
257069.0 458792.0 0
260556.0 457142.0 0
263986.0 458930.0 0
277378.0 456953.0 0
281191.0 457254.0 0
285012.0 457541.0 0
288834.0 457805.0 0
292662.0 458058.0 0
296496.0 458299.0 0
300337.0 458530.0 0
304186.0 458751.0 0
308048.0 458960.0 0
311926.0 459157.0 0
315825.0 459345.0 0
319757.0 459544.0 0
347361.0 459675.0 0
351310.0 459474.0 0
355255.0 459228.0 0
359186.0 458943.0 0
363098.0 458621.0 0
366985.0 458263.0 0
370847.0 457867.0 0
374676.0 457425.0 0
384681.0 459380.0 0
388373.0 458516.0 0
395088.0 459060.0 0
401701.0 459815.0 0
408506.0 460277.0 0
415303.0 461034.0 0
418794.0 459415.0 0
425594.0 459846.0 0
432459.0 460141.0 0
69883.4 462717.0 0
76709.0 462283.0 0
83495.8 461526.0 0
87012.5 463049.0 0
90241.4 460770.0 0
93725.1 462241.0 0
100362.0 461607.0 0
106215.0 462072.0 0
112761.0 461974.0 0
122853.0 460105.0 0
126768.0 460476.0 0
130673.0 460886.0 0
134589.0 461282.0 0
138522.0 461660.0 0
142471.0 462020.0 0
146432.0 462362.0 0
156751.0 459968.0 0
160709.0 460199.0 0
164678.0 460393.0 0
168649.0 460399.0 0
172529.0 460051.0 0
190225.0 462143.0 0
194077.0 461951.0 0
197933.0 461747.0 0
201790.0 461530.0 0
205648.0 461302.0 0
209505.0 461061.0 0
213360.0 460805.0 0
217208.0 460535.0 0
221047.0 460248.0 0
224872.0 459947.0 0
228676.0 459653.0 0
242153.0 462021.0 0
246527.0 461592.0 0
254301.0 461638.0 0
267746.0 459301.0 0
271540.0 459670.0 0
275397.0 460061.0 0
279234.0 460368.0 0
283068.0 460656.0 0
286906.0 460927.0 0
290746.0 461179.0 0
294591.0 461419.0 0
298443.0 461647.0 0
302302.0 461863.0 0
306168.0 462067.0 0
323769.0 459861.0 0
327687.0 459987.0 0
331600.0 460031.0 0
335522.0 460009.0 0
339461.0 459936.0 0
343412.0 459827.0 0
357617.0 462222.0 0
361562.0 461930.0 0
365488.0 461608.0 0
369393.0 461252.0 0
373276.0 460856.0 0
377127.0 460412.0 0
380942.0 459931.0 0
387350.0 462235.0 0
391524.0 460447.0 0
394571.0 462750.0 0
398175.0 461353.0 0
401232.0 463705.0 0
404944.0 461812.0 0
411781.0 462548.0 0
418556.0 463333.0 0
422086.0 461636.0 0
425410.0 463811.0 0
428948.0 461985.0 0
73431.2 464519.0 0
80221.5 463885.0 0
83784.8 465339.0 0
90536.1 464551.0 0
97222.7 463760.0 0
102788.0 464261.0 0
109504.0 463833.0 0
112967.0 465702.0 0
116541.0 462810.0 0
120398.0 463146.0 0
124369.0 463435.0 0
128272.0 463849.0 0
132182.0 464247.0 0
136112.0 464624.0 0
140061.0 464985.0 0
150398.0 462688.0 0
154356.0 462995.0 0
158292.0 463282.0 0
162178.0 463559.0 0
165966.0 463877.0 0
169703.0 464024.0 0
174887.0 462693.0 0
178720.0 462614.0 0
182544.0 462480.0 0
186379.0 462321.0 0
203734.0 464661.0 0
207602.0 464430.0 0
211468.0 464188.0 0
215330.0 463934.0 0
219184.0 463667.0 0
223028.0 463389.0 0
226860.0 463107.0 0
230686.0 462819.0 0
234512.0 462523.0 0
238352.0 462194.0 0
250382.0 462132.0 0
258232.0 462145.0 0
261990.0 462155.0 0
265784.0 462472.0 0
269593.0 462811.0 0
273416.0 463153.0 0
277264.0 463489.0 0
281110.0 463785.0 0
284958.0 464060.0 0
288810.0 464316.0 0
292666.0 464556.0 0
310042.0 462256.0 0
313925.0 462430.0 0
317819.0 462593.0 0
321732.0 462768.0 0
325993.0 463173.0 0
329909.0 463243.0 0
333834.0 463225.0 0
337779.0 463141.0 0
341741.0 463025.0 0
345721.0 462893.0 0
349691.0 462709.0 0
353658.0 462482.0 0
367886.0 464622.0 0
371812.0 464266.0 0
375720.0 463868.0 0
379612.0 463425.0 0
383511.0 462956.0 0
390824.0 463880.0 0
397579.0 465152.0 0
404636.0 465445.0 0
408221.0 464004.0 0
411427.0 466367.0 0
415007.0 464904.0 0
80293.9 467824.0 0
87343.7 466875.0 0
90967.8 468360.0 0
94099.6 465973.0 0
99198.7 466845.0 0
106148.0 465901.0 0
109520.0 467678.0 0
116755.0 466654.0 0
122037.0 466403.0 0
125890.0 466852.0 0
129778.0 467250.0 0
133698.0 467622.0 0
144024.0 465334.0 0
147993.0 465677.0 0
151957.0 466015.0 0
155901.0 466353.0 0
159803.0 466694.0 0
163641.0 467056.0 0
167442.0 467388.0 0
172926.0 465706.0 0
176758.0 465848.0 0
180581.0 465780.0 0
184417.0 465641.0 0
188268.0 465472.0 0
192129.0 465287.0 0
195996.0 465090.0 0
199864.0 464881.0 0
213447.0 467335.0 0
217314.0 467084.0 0
221174.0 466824.0 0
225024.0 466558.0 0
228867.0 466284.0 0
232706.0 466000.0 0
236544.0 465691.0 0
240391.0 465425.0 0
244321.0 465109.0 0
248190.0 465122.0 0
252328.0 465175.0 0
256122.0 465221.0 0
260020.0 465481.0 0
263819.0 465675.0 0
267633.0 465979.0 0
271457.0 466301.0 0
275293.0 466621.0 0
279142.0 466928.0 0
282995.0 467208.0 0
296528.0 464782.0 0
300396.0 464996.0 0
304271.0 465197.0 0
308150.0 465386.0 0
312032.0 465559.0 0
315913.0 465713.0 0
319795.0 465848.0 0
323699.0 465940.0 0
328264.0 466514.0 0
332165.0 466501.0 0
336100.0 466397.0 0
340057.0 466262.0 0
344031.0 466108.0 0
348057.0 465964.0 0
352039.0 465748.0 0
356018.0 465505.0 0
359988.0 465236.0 0
363945.0 464943.0 0
374225.0 467310.0 0
378153.0 466907.0 0
382080.0 466450.0 0
386133.0 465950.0 0
389890.0 467272.0 0
393781.0 466398.0 0
400604.0 467643.0 0
407865.0 467743.0 0
418212.0 467269.0 0
421822.0 465583.0 0
84047.3 469176.0 0
87728.4 470704.0 0
95138.5 469489.0 0
102800.0 468077.0 0
106253.0 469701.0 0
112758.0 469475.0 0
119658.0 469240.0 0
123473.0 469883.0 0
127357.0 470293.0 0
137644.0 467978.0 0
141608.0 468326.0 0
145580.0 468674.0 0
149551.0 469030.0 0
153508.0 469400.0 0
157435.0 469790.0 0
161314.0 470205.0 0
165149.0 470617.0 0
170884.0 468737.0 0
174702.0 469020.0 0
178555.0 469066.0 0
182418.0 468966.0 0
186291.0 468810.0 0
190170.0 468632.0 0
194051.0 468442.0 0
197934.0 468240.0 0
201816.0 468028.0 0
205696.0 467807.0 0
209574.0 467576.0 0
227033.0 469749.0 0
230881.0 469482.0 0
234721.0 469202.0 0
238546.0 468893.0 0
242419.0 468581.0 0
246282.0 468429.0 0
250210.0 468383.0 0
254128.0 468517.0 0
257982.0 468665.0 0
261840.0 468915.0 0
265663.0 469173.0 0
269490.0 469475.0 0
286854.0 467467.0 0
290719.0 467708.0 0
294590.0 467934.0 0
298469.0 468146.0 0
302354.0 468347.0 0
306244.0 468535.0 0
310136.0 468711.0 0
314027.0 468872.0 0
317909.0 469006.0 0
321790.0 469088.0 0
325679.0 469078.0 0
330587.0 469882.0 0
334466.0 469724.0 0
338393.0 469556.0 0
342349.0 469376.0 0
346324.0 469187.0 0
350418.0 469037.0 0
354402.0 468799.0 0
358387.0 468547.0 0
362364.0 468277.0 0
366330.0 467985.0 0
370284.0 467666.0 0
384449.0 469506.0 0
392651.0 470013.0 0
396736.0 468887.0 0
401788.0 471448.0 0
404309.0 469011.0 0
410872.0 470236.0 0
414544.0 468819.0 0
84492.1 473053.0 0
92058.6 472014.0 0
98861.0 470647.0 0
102561.0 471920.0 0
109673.0 471724.0 0
116195.0 470532.0 0
120937.0 472883.0 0
131277.0 470658.0 0
135221.0 471004.0 0
139184.0 471344.0 0
143159.0 471687.0 0
147136.0 472045.0 0
151105.0 472429.0 0
155052.0 472849.0 0
168750.0 471769.0 0
172587.0 472175.0 0
176465.0 472324.0 0
180371.0 472281.0 0
184286.0 472145.0 0
188194.0 471980.0 0
192098.0 471799.0 0
195998.0 471606.0 0
199894.0 471403.0 0
203787.0 471191.0 0
207676.0 470970.0 0
211561.0 470740.0 0
215440.0 470503.0 0
219313.0 470258.0 0
223177.0 470007.0 0
236731.0 472444.0 0
240537.0 472066.0 0
244374.0 471819.0 0
248246.0 471701.0 0
252119.0 471744.0 0
255991.0 471907.0 0
259837.0 472117.0 0
273323.0 469786.0 0
277166.0 470088.0 0
281019.0 470373.0 0
284881.0 470635.0 0
288751.0 470877.0 0
292630.0 471103.0 0
296517.0 471314.0 0
300411.0 471513.0 0
304313.0 471701.0 0
308221.0 471878.0 0
312131.0 472045.0 0
316037.0 472197.0 0
319929.0 472298.0 0
323816.0 472312.0 0
327701.0 472187.0 0
340695.0 472704.0 0
344655.0 472487.0 0
348631.0 472265.0 0
352780.0 472118.0 0
356766.0 471868.0 0
360753.0 471613.0 0
364736.0 471346.0 0
368711.0 471060.0 0
372674.0 470745.0 0
376621.0 470392.0 0
380549.0 469987.0 0
388181.0 470425.0 0
398264.0 472352.0 0
407180.0 471534.0 0
413830.0 472788.0 0
417560.0 471381.0 0
88915.0 474411.0 0
92597.6 475899.0 0
95786.2 473203.0 0
99470.4 474444.0 0
106185.0 473388.0 0
113314.0 473341.0 0
117208.0 474083.0 0
124888.0 473356.0 0
128839.0 473727.0 0
132796.0 474066.0 0
136762.0 474394.0 0
140737.0 474724.0 0
144716.0 475073.0 0
148691.0 475454.0 0
158963.0 473310.0 0
162830.0 473797.0 0
194058.0 474977.0 0
197970.0 474784.0 0
201876.0 474582.0 0
205777.0 474370.0 0
209673.0 474151.0 0
213563.0 473925.0 0
217447.0 473694.0 0
221324.0 473457.0 0
225191.0 473215.0 0
229048.0 472967.0 0
232895.0 472709.0 0
263680.0 472383.0 0
267511.0 472668.0 0
271343.0 472972.0 0
275181.0 473273.0 0
279029.0 473558.0 0
282890.0 473821.0 0
286762.0 474064.0 0
290645.0 474289.0 0
294538.0 474499.0 0
298440.0 474696.0 0
302352.0 474881.0 0
306273.0 475057.0 0
332873.0 473148.0 0
336763.0 472924.0 0
355132.0 475210.0 0
359118.0 474959.0 0
363108.0 474710.0 0
367096.0 474450.0 0
371078.0 474171.0 0
375049.0 473867.0 0
379006.0 473522.0 0
382945.0 473116.0 0
386802.0 473847.0 0
390733.0 473380.0 0
394634.0 473299.0 0
397538.0 476087.0 0
401411.0 475218.0 0
405341.0 474869.0 0
410076.0 474117.0 0
416827.0 475365.0 0
85750.0 476806.0 0
89447.5 478330.0 0
96379.1 476982.0 0
103113.0 475766.0 0
106837.0 477016.0 0
110752.0 476387.0 0
114667.0 477037.0 0
122458.0 476443.0 0
126419.0 476826.0 0
130384.0 477164.0 0
134352.0 477482.0 0
138325.0 477796.0 0
152650.0 475883.0 0
156579.0 476371.0 0
160465.0 476917.0 0
166540.0 474791.0 0
170413.0 475304.0 0
174326.0 475576.0 0
178288.0 475584.0 0
182259.0 475467.0 0
186207.0 475324.0 0
190138.0 475158.0 0
207784.0 477568.0 0
211685.0 477353.0 0
215580.0 477132.0 0
219467.0 476908.0 0
223345.0 476682.0 0
227212.0 476452.0 0
231064.0 476217.0 0
234897.0 475975.0 0
238711.0 475744.0 0
242476.0 475266.0 0
246311.0 475058.0 0
250161.0 475023.0 0
254003.0 475139.0 0
257842.0 475341.0 0
261678.0 475588.0 0
265516.0 475872.0 0
269348.0 476173.0 0
273181.0 476477.0 0
277022.0 476765.0 0
280879.0 477029.0 0
284750.0 477271.0 0
288634.0 477495.0 0
292531.0 477703.0 0
310203.0 475225.0 0
314138.0 475384.0 0
318075.0 475531.0 0
321984.0 475587.0 0
325895.0 475508.0 0
329794.0 475276.0 0
335170.0 476382.0 0
339069.0 476099.0 0
343008.0 475840.0 0
346972.0 475597.0 0
350949.0 475352.0 0
369433.0 477589.0 0
373420.0 477326.0 0
377399.0 477036.0 0
381367.0 476706.0 0
385296.0 477255.0 0
389282.0 476948.0 0
393261.0 476849.0 0
408266.0 477626.0 0
413009.0 476748.0 0
100076.0 478282.0 0
103809.0 479559.0 0
108459.0 480325.0 0
118681.0 477529.0 0
124046.0 479977.0 0
128007.0 480306.0 0
131971.0 480614.0 0
142300.0 478124.0 0
146276.0 478490.0 0
150240.0 478909.0 0
154176.0 479402.0 0
158066.0 479981.0 0
164234.0 477798.0 0
168141.0 478377.0 0
172106.0 478809.0 0
176186.0 478884.0 0
180249.0 478777.0 0
184224.0 478658.0 0
188179.0 478514.0 0
192118.0 478350.0 0
196045.0 478170.0 0
199965.0 477978.0 0
203878.0 477777.0 0
221497.0 480148.0 0
225376.0 479936.0 0
229240.0 479723.0 0
233082.0 479508.0 0
236895.0 479290.0 0
240684.0 479088.0 0
244391.0 478456.0 0
248217.0 478323.0 0
252028.0 478400.0 0
255838.0 478574.0 0
259662.0 478804.0 0
263497.0 479076.0 0
267334.0 479381.0 0
271163.0 479696.0 0
274993.0 479994.0 0
296439.0 477897.0 0
300358.0 478080.0 0
304288.0 478251.0 0
308229.0 478415.0 0
312184.0 478573.0 0
316152.0 478723.0 0
320142.0 478883.0 0
324093.0 478846.0 0
328043.0 478667.0 0
331956.0 478367.0 0
337476.0 479577.0 0
341381.0 479253.0 0
345326.0 478970.0 0
349294.0 478713.0 0
353271.0 478460.0 0
357459.0 478323.0 0
361447.0 478079.0 0
365441.0 477839.0 0
379696.0 480267.0 0
396108.0 479633.0 0
400414.0 478917.0 0
404399.0 478617.0 0
93362.4 482425.0 0
96997.7 480811.0 0
100761.0 482110.0 0
105568.0 482980.0 0
112354.0 480211.0 0
116275.0 480626.0 0
120239.0 480999.0 0
135937.0 480912.0 0
139905.0 481215.0 0
143874.0 481549.0 0
147838.0 481945.0 0
151777.0 482423.0 0
155669.0 483006.0 0
161847.0 480826.0 0
165760.0 481409.0 0
169730.0 481933.0 0
174070.0 482170.0 0
178264.0 482082.0 0
182256.0 481989.0 0
186228.0 481868.0 0
190183.0 481724.0 0
194125.0 481560.0 0
198055.0 481381.0 0
201979.0 481191.0 0
205896.0 480992.0 0
209807.0 480786.0 0
213711.0 480575.0 0
217608.0 480362.0 0
235118.0 482842.0 0
238919.0 482642.0 0
242686.0 482454.0 0
246270.0 481630.0 0
250033.0 481676.0 0
253811.0 481833.0 0
257615.0 482035.0 0
261446.0 482282.0 0
265288.0 482581.0 0
278843.0 480259.0 0
282712.0 480500.0 0
286596.0 480721.0 0
290494.0 480927.0 0
294406.0 481119.0 0
298329.0 481298.0 0
302263.0 481465.0 0
306210.0 481623.0 0
310170.0 481773.0 0
314145.0 481924.0 0
318125.0 482066.0 0
322306.0 482217.0 0
326297.0 482049.0 0
330264.0 481811.0 0
334185.0 481478.0 0
339778.0 482740.0 0
343690.0 482395.0 0
347639.0 482105.0 0
351609.0 481846.0 0
355587.0 481599.0 0
359755.0 481461.0 0
363745.0 481232.0 0
367742.0 481006.0 0
371732.0 480775.0 0
375719.0 480531.0 0
383643.0 480640.0 0
387652.0 480449.0 0
391639.0 480326.0 0
398903.0 482476.0 0
402886.0 482199.0 0
407205.0 481454.0 0
97720.6 484671.0 0
102589.0 485570.0 0
110020.0 483756.0 0
113952.0 483842.0 0
117892.0 484185.0 0
121851.0 484474.0 0
125676.0 483504.0 0
129632.0 483798.0 0
133588.0 484079.0 0
137544.0 484357.0 0
141500.0 484653.0 0
145455.0 484999.0 0
149403.0 485447.0 0
159433.0 483921.0 0
163333.0 484458.0 0
167283.0 484985.0 0
171720.0 485301.0 0
180313.0 485321.0 0
184294.0 485224.0 0
188259.0 485101.0 0
192211.0 484956.0 0
196151.0 484791.0 0
200083.0 484612.0 0
204009.0 484421.0 0
207930.0 484226.0 0
211842.0 484025.0 0
215747.0 483820.0 0
219646.0 483615.0 0
223538.0 483414.0 0
227420.0 483222.0 0
231282.0 483032.0 0
247880.0 484907.0 0
251699.0 485092.0 0
255514.0 485284.0 0
269121.0 482919.0 0
272936.0 483245.0 0
276779.0 483512.0 0
280643.0 483750.0 0
284526.0 483969.0 0
288425.0 484172.0 0
292338.0 484361.0 0
296264.0 484536.0 0
300202.0 484700.0 0
304152.0 484853.0 0
308115.0 484997.0 0
312091.0 485133.0 0
316086.0 485286.0 0
320127.0 485381.0 0
324601.0 485455.0 0
328578.0 485233.0 0
332543.0 484961.0 0
336463.0 484630.0 0
345980.0 485539.0 0
349933.0 485255.0 0
353904.0 485005.0 0
357884.0 484773.0 0
362014.0 484633.0 0
366005.0 484425.0 0
369995.0 484222.0 0
373981.0 484015.0 0
377957.0 483802.0 0
381909.0 484036.0 0
385896.0 483902.0 0
389871.0 483757.0 0
394490.0 483124.0 0
405616.0 485111.0 0
94391.6 486843.0 0
99585.9 488160.0 0
107178.0 486496.0 0
111660.0 487222.0 0
115597.0 487433.0 0
127342.0 487037.0 0
131290.0 487302.0 0
135235.0 487559.0 0
139176.0 487819.0 0
143113.0 488108.0 0
153303.0 486012.0 0
157031.0 487086.0 0
160921.0 487570.0 0
176273.0 485388.0 0
202124.0 487860.0 0
206052.0 487670.0 0
209977.0 487481.0 0
213889.0 487285.0 0
217793.0 487087.0 0
221691.0 486891.0 0
225589.0 486707.0 0
229480.0 486541.0 0
233353.0 486375.0 0
237214.0 486204.0 0
241058.0 485987.0 0
244773.0 487017.0 0
259348.0 485495.0 0
263201.0 485766.0 0
267045.0 486117.0 0
270839.0 486516.0 0
274678.0 486787.0 0
278541.0 487023.0 0
282423.0 487238.0 0
286321.0 487437.0 0
290235.0 487623.0 0
294162.0 487796.0 0
298103.0 487957.0 0
302056.0 488107.0 0
338761.0 487831.0 0
342061.0 485883.0 0
360152.0 487987.0 0
364228.0 487845.0 0
368217.0 487667.0 0
372201.0 487491.0 0
376175.0 487317.0 0
380131.0 487452.0 0
384111.0 487346.0 0
388099.0 487219.0 0
392687.0 486556.0 0
397256.0 486007.0 0
401246.0 485759.0 0
104236.0 489149.0 0
108849.0 490007.0 0
119547.0 487713.0 0
123501.0 487944.0 0
129049.0 490580.0 0
132989.0 490819.0 0
147050.0 488473.0 0
150977.0 489014.0 0
154655.0 490301.0 0
164847.0 488040.0 0
169248.0 488344.0 0
173981.0 488512.0 0
178394.0 488657.0 0
182379.0 488585.0 0
186350.0 488484.0 0
190307.0 488358.0 0
194254.0 488210.0 0
198192.0 488043.0 0
215944.0 490571.0 0
219840.0 490378.0 0
223735.0 490189.0 0
227643.0 490026.0 0
231551.0 489895.0 0
235448.0 489736.0 0
239378.0 489559.0 0
243207.0 490525.0 0
249462.0 488284.0 0
253345.0 488531.0 0
257213.0 488727.0 0
261079.0 488946.0 0
264944.0 489267.0 0
268707.0 489820.0 0
272542.0 490087.0 0
276403.0 490319.0 0
280282.0 490529.0 0
306020.0 488246.0 0
309994.0 488374.0 0
313975.0 488497.0 0
318056.0 488634.0 0
322368.0 488560.0 0
326912.0 488674.0 0
330889.0 488414.0 0
334844.0 488143.0 0
344312.0 489022.0 0
348241.0 488695.0 0
352198.0 488428.0 0
356171.0 488197.0 0
390915.0 490027.0 0
395397.0 489467.0 0
399647.0 489360.0 0
96563.0 490758.0 0
101235.0 491758.0 0
105957.0 492722.0 0
113335.0 490737.0 0
117286.0 490989.0 0
121240.0 491223.0 0
125192.0 491399.0 0
136921.0 491053.0 0
140842.0 491296.0 0
144751.0 491577.0 0
148641.0 491970.0 0
158547.0 490746.0 0
162472.0 491171.0 0
166777.0 491391.0 0
171520.0 491522.0 0
176157.0 491792.0 0
180486.0 491954.0 0
184458.0 491876.0 0
188416.0 491769.0 0
192366.0 491638.0 0
196309.0 491484.0 0
200245.0 491312.0 0
204176.0 491125.0 0
208108.0 490934.0 0
212040.0 490760.0 0
237518.0 493090.0 0
247090.0 491255.0 0
251135.0 491739.0 0
255066.0 491963.0 0
258972.0 492155.0 0
262874.0 492377.0 0
284179.0 490724.0 0
288091.0 490907.0 0
292019.0 491077.0 0
295962.0 491235.0 0
299918.0 491381.0 0
303887.0 491517.0 0
307868.0 491642.0 0
311857.0 491756.0 0
315875.0 491840.0 0
320310.0 491804.0 0
324617.0 491755.0 0
329244.0 491865.0 0
333204.0 491627.0 0
337144.0 491366.0 0
341059.0 491079.0 0
346525.0 492170.0 0
350465.0 491873.0 0
354425.0 491633.0 0
358397.0 491427.0 0
362380.0 491243.0 0
366399.0 491110.0 0
370385.0 490960.0 0
374360.0 490817.0 0
378319.0 490886.0 0
382295.0 490794.0 0
386280.0 490677.0 0
397632.0 492766.0 0
110524.0 493543.0 0
115039.0 494286.0 0
119020.0 494526.0 0
122983.0 494717.0 0
126934.0 494835.0 0
130806.0 494132.0 0
134743.0 494345.0 0
138664.0 494557.0 0
142579.0 494775.0 0
146487.0 495044.0 0
151906.0 493952.0 0
155778.0 494118.0 0
159627.0 494534.0 0
163463.0 494913.0 0
167263.0 495200.0 0
171044.0 495343.0 0
174841.0 495396.0 0
178689.0 495352.0 0
182602.0 495286.0 0
186540.0 495194.0 0
190487.0 495077.0 0
194433.0 494937.0 0
198373.0 494778.0 0
202307.0 494598.0 0
206238.0 494402.0 0
210175.0 494210.0 0
214124.0 494075.0 0
217998.0 493884.0 0
221875.0 493696.0 0
225761.0 493504.0 0
229673.0 493380.0 0
233605.0 493290.0 0
241322.0 493900.0 0
245160.0 494578.0 0
249043.0 494956.0 0
252965.0 495204.0 0
256894.0 495391.0 0
260827.0 495553.0 0
265500.0 495150.0 0
269185.0 493734.0 0
273139.0 493960.0 0
277102.0 494152.0 0
281067.0 494329.0 0
285028.0 494499.0 0
288983.0 494664.0 0
292929.0 494821.0 0
296867.0 494972.0 0
300793.0 495119.0 0
304703.0 495261.0 0
308593.0 495395.0 0
312457.0 495518.0 0
316290.0 495606.0 0
320094.0 495598.0 0
323897.0 495503.0 0
327718.0 495350.0 0
331592.0 495118.0 0
335503.0 494882.0 0
339425.0 494631.0 0
343340.0 494363.0 0
348697.0 495338.0 0
352645.0 495083.0 0
356605.0 494876.0 0
360575.0 494697.0 0
364552.0 494545.0 0
368540.0 494424.0 0
372518.0 494306.0 0
376481.0 494337.0 0
380455.0 494253.0 0
384441.0 494145.0 0
389081.0 493492.0 0
393591.0 492978.0 0
99710.9 495436.0 0
103676.0 495970.0 0
107677.0 496324.0 0
112213.0 497100.0 0
116816.0 497815.0 0
120829.0 498054.0 0
132627.0 497682.0 0
136562.0 497881.0 0
140498.0 498048.0 0
144446.0 498219.0 0
149557.0 497365.0 0
153459.0 497560.0 0
157349.0 497797.0 0
161241.0 498161.0 0
196505.0 498253.0 0
200446.0 498087.0 0
204378.0 497897.0 0
208307.0 497685.0 0
212253.0 497485.0 0
219358.0 497534.0 0
223730.0 497122.0 0
227638.0 496893.0 0
231547.0 496819.0 0
235392.0 497071.0 0
239248.0 497190.0 0
243086.0 497831.0 0
246978.0 498234.0 0
270965.0 497291.0 0
274935.0 497476.0 0
278904.0 497647.0 0
282869.0 497815.0 0
286828.0 497979.0 0
290780.0 498138.0 0
294726.0 498289.0 0
337746.0 498168.0 0
341676.0 497924.0 0
345605.0 497686.0 0
350824.0 498540.0 0
354777.0 498335.0 0
358739.0 498160.0 0
362707.0 498010.0 0
366679.0 497887.0 0
370655.0 497788.0 0
374621.0 497801.0 0
378598.0 497723.0 0
382582.0 497621.0 0
387231.0 496976.0 0
391714.0 496473.0 0
395807.0 496291.0 0
400189.0 495832.0 0
101443.0 499271.0 0
105433.0 499619.0 0
109420.0 499954.0 0
114020.0 500626.0 0
124799.0 498196.0 0
128748.0 498245.0 0
134579.0 501297.0 0
151177.0 500952.0 0
165127.0 498483.0 0
169017.0 498699.0 0
172906.0 498796.0 0
176808.0 498792.0 0
180722.0 498726.0 0
184657.0 498637.0 0
188604.0 498527.0 0
192556.0 498399.0 0
210377.0 500964.0 0
214311.0 500734.0 0
221862.0 500564.0 0
225732.0 500580.0 0
229591.0 500264.0 0
237302.0 500623.0 0
250900.0 498482.0 0
254844.0 498657.0 0
258802.0 498789.0 0
263263.0 498521.0 0
267223.0 498590.0 0
272810.0 500829.0 0
298666.0 498437.0 0
302596.0 498581.0 0
306515.0 498719.0 0
310424.0 498847.0 0
314325.0 498953.0 0
318223.0 498998.0 0
322112.0 498953.0 0
326001.0 498828.0 0
329905.0 498632.0 0
333819.0 498404.0 0
385353.0 500476.0 0
389836.0 499988.0 0
393911.0 499794.0 0
398314.0 499398.0 0
118623.0 501334.0 0
122719.0 501573.0 0
126710.0 501651.0 0
130676.0 501621.0 0
138516.0 501413.0 0
142470.0 501474.0 0
147220.0 500966.0 0
155117.0 501151.0 0
159042.0 501421.0 0
162973.0 501757.0 0
166916.0 502007.0 0
170872.0 502161.0 0
174833.0 502203.0 0
178790.0 502173.0 0
182745.0 502093.0 0
186705.0 501988.0 0
190669.0 501867.0 0
194632.0 501734.0 0
198587.0 501583.0 0
202532.0 501409.0 0
206462.0 501206.0 0
218087.0 501298.0 0
233440.0 500660.0 0
241147.0 501195.0 0
245011.0 501594.0 0
248901.0 501829.0 0
252829.0 501966.0 0
256794.0 502075.0 0
261093.0 501921.0 0
265067.0 501955.0 0
269033.0 501991.0 0
276777.0 500986.0 0
280744.0 501147.0 0
284705.0 501311.0 0
288660.0 501470.0 0
292614.0 501619.0 0
296565.0 501766.0 0
300512.0 501910.0 0
304454.0 502049.0 0
308395.0 502178.0 0
312337.0 502290.0 0
316286.0 502364.0 0
320235.0 502371.0 0
324182.0 502290.0 0
328127.0 502131.0 0
332073.0 501925.0 0
336018.0 501700.0 0
339964.0 501471.0 0
343907.0 501239.0 0
347853.0 501064.0 0
352899.0 501793.0 0
356866.0 501626.0 0
360833.0 501481.0 0
364804.0 501362.0 0
368775.0 501268.0 0
372743.0 501274.0 0
376722.0 501200.0 0
380712.0 501109.0 0
100220.0 503326.0 0
104213.0 503421.0 0
108191.0 503757.0 0
112161.0 504125.0 0
116138.0 504420.0 0
120470.0 504843.0 0
124745.0 505081.0 0
128737.0 505068.0 0
132727.0 504982.0 0
136677.0 504897.0 0
140635.0 504865.0 0
144967.0 504517.0 0
148944.0 504514.0 0
152918.0 504518.0 0
156875.0 504725.0 0
160823.0 505050.0 0
164790.0 505317.0 0
168775.0 505499.0 0
172808.0 505588.0 0
176808.0 505598.0 0
180801.0 505549.0 0
184783.0 505454.0 0
188764.0 505339.0 0
192744.0 505213.0 0
196721.0 505079.0 0
200688.0 504924.0 0
204645.0 504743.0 0
208581.0 504519.0 0
212498.0 504206.0 0
219210.0 505066.0 0
223193.0 504250.0 0
227149.0 504316.0 0
231091.0 503884.0 0
234950.0 504588.0 0
238870.0 504357.0 0
242813.0 504834.0 0
246793.0 505160.0 0
250799.0 505321.0 0
254788.0 505406.0 0
258989.0 505322.0 0
262970.0 505353.0 0
266935.0 505379.0 0
270890.0 505390.0 0
274691.0 504356.0 0
278650.0 504498.0 0
282611.0 504656.0 0
286562.0 504822.0 0
290523.0 504964.0 0
294482.0 505108.0 0
298439.0 505251.0 0
302397.0 505389.0 0
306358.0 505518.0 0
310325.0 505631.0 0
314302.0 505719.0 0
318294.0 505768.0 0
322297.0 505735.0 0
326290.0 505619.0 0
330271.0 505435.0 0
334245.0 505225.0 0
338213.0 505008.0 0
342174.0 504789.0 0
346129.0 504608.0 0
350093.0 504544.0 0
354953.0 505086.0 0
358924.0 504956.0 0
362896.0 504835.0 0
366875.0 504750.0 0
370846.0 504754.0 0
374824.0 504686.0 0
378814.0 504598.0 0
383427.0 504037.0 0
387425.0 503878.0 0
391413.0 503649.0 0
395404.0 503490.0 0
399393.0 503291.0 0
101942.0 507250.0 0
105937.0 507224.0 0
109924.0 507411.0 0
113910.0 507718.0 0
117993.0 507954.0 0
122438.0 508299.0 0
126789.0 508523.0 0
130799.0 508464.0 0
134783.0 508382.0 0
138759.0 508304.0 0
142826.0 508166.0 0
146811.0 508024.0 0
150794.0 508018.0 0
154750.0 508066.0 0
158704.0 508388.0 0
162675.0 508659.0 0
190838.0 508694.0 0
194830.0 508565.0 0
198827.0 508437.0 0
202813.0 508267.0 0
206802.0 508081.0 0
210769.0 507813.0 0
214684.0 507337.0 0
221905.0 507969.0 0
225755.0 508323.0 0
229543.0 507511.0 0
233363.0 508253.0 0
237233.0 507950.0 0
241112.0 508388.0 0
245010.0 508683.0 0
248949.0 508777.0 0
264890.0 508795.0 0
268844.0 508808.0 0
272785.0 508789.0 0
276599.0 507885.0 0
280541.0 508012.0 0
284486.0 508202.0 0
288449.0 508325.0 0
292409.0 508465.0 0
296372.0 508605.0 0
300337.0 508743.0 0
304310.0 508871.0 0
332442.0 508744.0 0
336428.0 508535.0 0
340417.0 508331.0 0
344491.0 508211.0 0
348502.0 508174.0 0
352496.0 508173.0 0
356982.0 508432.0 0
360960.0 508318.0 0
364933.0 508216.0 0
368917.0 508228.0 0
372906.0 508183.0 0
376900.0 508095.0 0
381506.0 507544.0 0
385572.0 507418.0 0
389836.0 507321.0 0
393999.0 507228.0 0
398000.0 507249.0 0
166662.0 508847.0 0
170724.0 508944.0 0
174787.0 509002.0 0
178826.0 508986.0 0
182846.0 508924.0 0
186843.0 508815.0 0
218159.0 508904.0 0
252898.0 508822.0 0
256928.0 508746.0 0
260917.0 508769.0 0
308289.0 508986.0 0
312279.0 509080.0 0
316278.0 509148.0 0
320348.0 509156.0 0
324410.0 509091.0 0
328450.0 508943.0 0
101067.0 511286.0 0
105056.0 511259.0 0
109035.0 511301.0 0
112996.0 511599.0 0
116959.0 511799.0 0
120922.0 511963.0 0
124901.0 512026.0 0
128885.0 511954.0 0
132871.0 511870.0 0
136858.0 511779.0 0
140857.0 511675.0 0
144835.0 511598.0 0
148798.0 511473.0 0
152753.0 511513.0 0
156702.0 511823.0 0
160667.0 512090.0 0
164649.0 512272.0 0
168641.0 512310.0 0
172711.0 512382.0 0
176810.0 512405.0 0
180859.0 512377.0 0
184911.0 512298.0 0
188916.0 512182.0 0
192917.0 512060.0 0
196912.0 511923.0 0
200965.0 511797.0 0
204957.0 511607.0 0
209606.0 511613.0 0
213690.0 511161.0 0
219116.0 512665.0 0
223013.0 511778.0 0
226979.0 512095.0 0
230895.0 511366.0 0
234843.0 511961.0 0
238815.0 511609.0 0
242798.0 512005.0 0
246928.0 512161.0 0
250916.0 512259.0 0
254942.0 512212.0 0
258914.0 512206.0 0
262887.0 512224.0 0
266850.0 512253.0 0
270801.0 512240.0 0
274713.0 512194.0 0
278544.0 511428.0 0
282467.0 511642.0 0
286400.0 511710.0 0
290345.0 511843.0 0
294303.0 511975.0 0
298271.0 512113.0 0
302249.0 512240.0 0
306236.0 512359.0 0
310233.0 512456.0 0
314244.0 512535.0 0
318331.0 512555.0 0
322450.0 512536.0 0
326572.0 512435.0 0
330631.0 512272.0 0
334622.0 512066.0 0
338602.0 511859.0 0
342574.0 511688.0 0
346556.0 511635.0 0
350546.0 511617.0 0
354595.0 511612.0 0
358973.0 511837.0 0
362942.0 511733.0 0
366886.0 511655.0 0
370815.0 511776.0 0
374755.0 511736.0 0
378706.0 511656.0 0
382652.0 511373.0 0
386615.0 511301.0 0
390589.0 511256.0 0
394571.0 511234.0 0
398563.0 511262.0 0
102000.0 515248.0 0
106000.0 515225.0 0
110001.0 515210.0 0
114306.0 515372.0 0
118360.0 515533.0 0
122356.0 515671.0 0
126348.0 515743.0 0
130339.0 515674.0 0
134331.0 515574.0 0
138321.0 515464.0 0
142301.0 515397.0 0
146283.0 515440.0 0
150270.0 515360.0 0
154264.0 515387.0 0
158264.0 515493.0 0
162510.0 515631.0 0
166632.0 515736.0 0
170633.0 515769.0 0
174746.0 515802.0 0
178780.0 515848.0 0
182769.0 515849.0 0
186741.0 515812.0 0
190697.0 515720.0 0
194639.0 515632.0 0
198569.0 515516.0 0
202487.0 515485.0 0
206406.0 515304.0 0
210321.0 515535.0 0
214221.0 515083.0 0
217909.0 516424.0 0
221775.0 515565.0 0
225692.0 515876.0 0
229551.0 515118.0 0
233423.0 515720.0 0
237317.0 515288.0 0
241207.0 515795.0 0
245123.0 515661.0 0
249074.0 515798.0 0
253024.0 515695.0 0
256982.0 515699.0 0
260938.0 515683.0 0
264906.0 515724.0 0
268880.0 515696.0 0
272880.0 515731.0 0
277097.0 515317.0 0
281052.0 515400.0 0
284998.0 515433.0 0
288942.0 515567.0 0
292883.0 515684.0 0
296826.0 515815.0 0
300773.0 515923.0 0
304728.0 516029.0 0
308692.0 516105.0 0
312670.0 516171.0 0
316660.0 516151.0 0
320660.0 516088.0 0
324791.0 515994.0 0
329034.0 515912.0 0
333290.0 515805.0 0
337572.0 515686.0 0
341699.0 515571.0 0
345697.0 515523.0 0
349691.0 515498.0 0
353686.0 515496.0 0
357675.0 515583.0 0
361669.0 515492.0 0
365692.0 515439.0 0
369800.0 515645.0 0
373843.0 515652.0 0
377841.0 515556.0 0
381937.0 515340.0 0
385961.0 515262.0 0
389987.0 515223.0 0
394000.0 515225.0 0
398000.0 515248.0 0
101910.0 519249.0 0
105909.0 519225.0 0
109906.0 519209.0 0
113900.0 519345.0 0
117893.0 519494.0 0
121887.0 519624.0 0
125883.0 519705.0 0
129880.0 519640.0 0
133875.0 519533.0 0
137870.0 519412.0 0
141868.0 519370.0 0
145864.0 519424.0 0
149856.0 519359.0 0
153847.0 519381.0 0
157833.0 519461.0 0
161815.0 519558.0 0
165797.0 519621.0 0
169779.0 519651.0 0
173763.0 519652.0 0
177750.0 519692.0 0
181738.0 519684.0 0
185729.0 519654.0 0
189724.0 519570.0 0
193769.0 519511.0 0
197813.0 519413.0 0
201932.0 519437.0 0
205968.0 519267.0 0
209999.0 519502.0 0
214010.0 519070.0 0
218781.0 520261.0 0
222672.0 519427.0 0
226635.0 519748.0 0
230540.0 518988.0 0
234483.0 519565.0 0
238446.0 519124.0 0
242411.0 519606.0 0
246415.0 519404.0 0
250393.0 519679.0 0
254379.0 519447.0 0
258373.0 519450.0 0
262372.0 519399.0 0
266368.0 519437.0 0
270365.0 519379.0 0
274354.0 519443.0 0
278329.0 519098.0 0
282310.0 519304.0 0
286302.0 519204.0 0
290297.0 519323.0 0
294460.0 519346.0 0
298458.0 519454.0 0
302563.0 519481.0 0
306556.0 519569.0 0
310545.0 519624.0 0
314525.0 519691.0 0
318497.0 519685.0 0
322462.0 519652.0 0
326429.0 519636.0 0
330396.0 519659.0 0
334363.0 519637.0 0
338327.0 519589.0 0
342291.0 519515.0 0
346258.0 519473.0 0
350230.0 519442.0 0
354204.0 519461.0 0
358183.0 519521.0 0
362162.0 519438.0 0
366142.0 519389.0 0
370115.0 519630.0 0
374100.0 519644.0 0
378086.0 519543.0 0
382070.0 519337.0 0
386062.0 519260.0 0
390056.0 519222.0 0
394053.0 519225.0 0
398051.0 519248.0 0
102000.0 523248.0 0
106000.0 523225.0 0
110000.0 523210.0 0
114022.0 523335.0 0
118039.0 523478.0 0
122036.0 523603.0 0
126034.0 523689.0 0
130032.0 523629.0 0
134029.0 523516.0 0
138024.0 523387.0 0
142022.0 523367.0 0
146019.0 523421.0 0
150016.0 523360.0 0
154014.0 523382.0 0
158011.0 523451.0 0
162008.0 523546.0 0
166006.0 523596.0 0
170003.0 523625.0 0
173999.0 523625.0 0
177994.0 523664.0 0
181988.0 523650.0 0
185980.0 523621.0 0
189970.0 523537.0 0
193959.0 523485.0 0
197945.0 523384.0 0
201931.0 523431.0 0
205912.0 523257.0 0
209890.0 523484.0 0
213851.0 523060.0 0
217705.0 524057.0 0
221671.0 523280.0 0
225693.0 523621.0 0
229930.0 523093.0 0
233907.0 523512.0 0
237884.0 523102.0 0
241853.0 523566.0 0
245841.0 523329.0 0
249880.0 523649.0 0
253871.0 523405.0 0
257870.0 523418.0 0
261865.0 523351.0 0
265863.0 523396.0 0
269859.0 523321.0 0
273918.0 523410.0 0
277907.0 523080.0 0
281898.0 523289.0 0
285891.0 523173.0 0
289883.0 523295.0 0
293875.0 523291.0 0
297865.0 523400.0 0
301857.0 523403.0 0
305849.0 523491.0 0
309842.0 523542.0 0
313838.0 523612.0 0
317836.0 523614.0 0
321857.0 523599.0 0
325888.0 523592.0 0
329906.0 523615.0 0
333932.0 523595.0 0
337963.0 523552.0 0
341977.0 523495.0 0
345977.0 523456.0 0
349976.0 523420.0 0
353976.0 523454.0 0
357974.0 523488.0 0
361973.0 523414.0 0
365974.0 523367.0 0
369966.0 523622.0 0
373971.0 523640.0 0
377970.0 523534.0 0
381992.0 523336.0 0
385996.0 523259.0 0
389999.0 523221.0 0
394000.0 523225.0 0
398000.0 523248.0 0
101992.0 527248.0 0
105992.0 527225.0 0
109992.0 527210.0 0
113990.0 527325.0 0
117987.0 527463.0 0
121985.0 527586.0 0
125984.0 527676.0 0
129983.0 527619.0 0
133981.0 527502.0 0
137997.0 527371.0 0
141998.0 527366.0 0
145997.0 527421.0 0
149997.0 527361.0 0
153997.0 527382.0 0
157996.0 527446.0 0
161995.0 527538.0 0
165995.0 527581.0 0
169995.0 527608.0 0
173995.0 527610.0 0
177995.0 527644.0 0
181996.0 527624.0 0
185999.0 527596.0 0
190002.0 527512.0 0
194006.0 527465.0 0
198011.0 527362.0 0
202014.0 527422.0 0
206018.0 527249.0 0
210026.0 527466.0 0
214009.0 527101.0 0
218287.0 527966.0 0
222210.0 527227.0 0
226185.0 527578.0 0
230145.0 527087.0 0
234118.0 527496.0 0
238094.0 527100.0 0
242066.0 527559.0 0
246063.0 527292.0 0
250046.0 527647.0 0
254037.0 527392.0 0
258037.0 527413.0 0
262038.0 527331.0 0
266037.0 527383.0 0
270035.0 527293.0 0
274033.0 527396.0 0
278019.0 527080.0 0
282013.0 527287.0 0
286010.0 527161.0 0
290008.0 527286.0 0
294022.0 527274.0 0
298022.0 527385.0 0
302037.0 527383.0 0
306036.0 527470.0 0
310035.0 527517.0 0
314033.0 527586.0 0
318031.0 527591.0 0
322028.0 527584.0 0
326025.0 527579.0 0
330023.0 527599.0 0
334020.0 527576.0 0
338017.0 527536.0 0
342015.0 527487.0 0
346013.0 527449.0 0
350011.0 527410.0 0
354010.0 527452.0 0
358009.0 527464.0 0
362008.0 527396.0 0
366007.0 527353.0 0
370013.0 527614.0 0
374013.0 527638.0 0
378011.0 527528.0 0
382007.0 527335.0 0
386006.0 527258.0 0
390005.0 527221.0 0
394005.0 527225.0 0
398005.0 527248.0 0
102000.0 531248.0 0
106000.0 531225.0 0
110000.0 531210.0 0
114001.0 531316.0 0
118005.0 531449.0 0
122007.0 531571.0 0
126007.0 531662.0 0
130007.0 531609.0 0
134005.0 531488.0 0
138002.0 531358.0 0
142002.0 531366.0 0
146001.0 531420.0 0
150000.0 531361.0 0
153999.0 531382.0 0
157998.0 531441.0 0
161996.0 531531.0 0
165995.0 531570.0 0
169993.0 531595.0 0
173992.0 531597.0 0
177990.0 531624.0 0
181988.0 531600.0 0
185985.0 531574.0 0
189982.0 531490.0 0
193979.0 531448.0 0
197974.0 531343.0 0
201970.0 531414.0 0
205962.0 531243.0 0
209952.0 531452.0 0
213932.0 531099.0 0
221955.0 531206.0 0
225955.0 531558.0 0
230000.0 531105.0 0
233985.0 531484.0 0
238000.0 531102.0 0
241979.0 531556.0 0
245979.0 531264.0 0
249995.0 531646.0 0
253986.0 531381.0 0
257990.0 531410.0 0
261989.0 531315.0 0
265992.0 531374.0 0
269991.0 531270.0 0
273995.0 531383.0 0
278000.0 531082.0 0
282000.0 531287.0 0
285999.0 531151.0 0
289997.0 531279.0 0
293996.0 531260.0 0
297994.0 531372.0 0
301994.0 531364.0 0
305993.0 531452.0 0
309992.0 531494.0 0
313992.0 531565.0 0
317992.0 531572.0 0
321994.0 531572.0 0
325996.0 531567.0 0
329997.0 531584.0 0
333998.0 531559.0 0
337999.0 531522.0 0
341999.0 531481.0 0
345999.0 531444.0 0
350000.0 531403.0 0
353999.0 531450.0 0
357999.0 531442.0 0
361999.0 531382.0 0
365998.0 531342.0 0
369990.0 531605.0 0
373991.0 531635.0 0
377996.0 531521.0 0
381999.0 531334.0 0
386000.0 531256.0 0
390000.0 531220.0 0
394000.0 531225.0 0
398000.0 531248.0 0
217845.0 531897.0 0
102000.0 535248.0 0
106000.0 535225.0 0
110000.0 535210.0 0
114000.0 535306.0 0
117999.0 535435.0 0
121998.0 535558.0 0
125997.0 535650.0 0
129997.0 535598.0 0
133998.0 535475.0 0
138000.0 535348.0 0
142000.0 535365.0 0
146000.0 535419.0 0
150000.0 535361.0 0
154000.0 535382.0 0
158000.0 535438.0 0
162000.0 535523.0 0
166000.0 535560.0 0
170000.0 535583.0 0
174000.0 535585.0 0
178000.0 535605.0 0
182000.0 535578.0 0
186000.0 535553.0 0
190002.0 535470.0 0
194001.0 535433.0 0
198002.0 535327.0 0
202002.0 535406.0 0
206003.0 535237.0 0
210006.0 535439.0 0
214000.0 535111.0 0
218121.0 535847.0 0
222064.0 535192.0 0
226046.0 535544.0 0
230021.0 535105.0 0
234002.0 535474.0 0
238000.0 535102.0 0
242005.0 535553.0 0
246003.0 535239.0 0
250001.0 535646.0 0
254003.0 535371.0 0
258002.0 535406.0 0
262002.0 535298.0 0
266002.0 535365.0 0
270002.0 535249.0 0
274000.0 535370.0 0
278000.0 535082.0 0
282000.0 535286.0 0
286000.0 535141.0 0
290000.0 535272.0 0
294000.0 535245.0 0
298000.0 535359.0 0
302001.0 535346.0 0
306001.0 535434.0 0
310002.0 535472.0 0
314001.0 535543.0 0
318001.0 535552.0 0
322001.0 535558.0 0
326001.0 535554.0 0
330001.0 535569.0 0
334001.0 535544.0 0
338000.0 535512.0 0
342000.0 535476.0 0
346000.0 535440.0 0
350000.0 535398.0 0
354000.0 535446.0 0
358000.0 535423.0 0
362000.0 535370.0 0
366000.0 535334.0 0
370003.0 535595.0 0
374003.0 535631.0 0
378001.0 535515.0 0
382000.0 535332.0 0
386000.0 535255.0 0
390000.0 535220.0 0
394000.0 535225.0 0
398000.0 535248.0 0
102000.0 539248.0 0
106000.0 539225.0 0
110000.0 539210.0 0
114000.0 539297.0 0
118000.0 539421.0 0
122000.0 539546.0 0
134000.0 539461.0 0
138000.0 539340.0 0
142000.0 539364.0 0
146000.0 539418.0 0
150000.0 539361.0 0
154000.0 539382.0 0
158000.0 539435.0 0
162000.0 539515.0 0
166000.0 539551.0 0
170000.0 539573.0 0
174000.0 539573.0 0
178000.0 539588.0 0
182000.0 539558.0 0
186000.0 539534.0 0
190000.0 539451.0 0
194000.0 539419.0 0
198000.0 539314.0 0
202000.0 539397.0 0
206000.0 539231.0 0
209997.0 539429.0 0
213983.0 539111.0 0
221995.0 539180.0 0
225997.0 539531.0 0
230000.0 539105.0 0
234000.0 539464.0 0
238000.0 539102.0 0
241999.0 539551.0 0
246000.0 539216.0 0
253999.0 539361.0 0
258000.0 539402.0 0
262000.0 539283.0 0
266000.0 539357.0 0
270000.0 539230.0 0
274000.0 539357.0 0
278000.0 539082.0 0
282000.0 539286.0 0
286000.0 539132.0 0
290000.0 539266.0 0
294000.0 539230.0 0
298000.0 539346.0 0
302000.0 539327.0 0
306000.0 539416.0 0
310000.0 539451.0 0
314000.0 539522.0 0
318000.0 539532.0 0
322000.0 539544.0 0
326000.0 539541.0 0
330000.0 539555.0 0
334000.0 539531.0 0
338000.0 539503.0 0
342000.0 539471.0 0
346000.0 539436.0 0
350000.0 539394.0 0
354000.0 539442.0 0
358000.0 539406.0 0
362000.0 539361.0 0
366000.0 539329.0 0
378000.0 539509.0 0
382000.0 539330.0 0
386000.0 539253.0 0
390000.0 539219.0 0
394000.0 539225.0 0
398000.0 539248.0 0
126001.0 539638.0 0
130001.0 539587.0 0
217920.0 539807.0 0
250000.0 539646.0 0
369999.0 539585.0 0
373999.0 539628.0 0
102000.0 543248.0 0
106000.0 543225.0 0
110000.0 543210.0 0
114000.0 543289.0 0
118000.0 543408.0 0
122000.0 543537.0 0
126000.0 543628.0 0
130000.0 543576.0 0
134000.0 543448.0 0
138000.0 543335.0 0
142000.0 543363.0 0
146000.0 543418.0 0
150000.0 543361.0 0
154000.0 543382.0 0
158000.0 543432.0 0
162000.0 543508.0 0
166000.0 543542.0 0
170000.0 543563.0 0
174000.0 543562.0 0
178000.0 543572.0 0
182000.0 543540.0 0
186000.0 543518.0 0
190000.0 543435.0 0
194000.0 543408.0 0
198000.0 543303.0 0
202000.0 543390.0 0
206000.0 543225.0 0
210000.0 543420.0 0
214000.0 543112.0 0
218030.0 543773.0 0
222000.0 543170.0 0
226000.0 543519.0 0
230000.0 543105.0 0
234000.0 543456.0 0
238000.0 543102.0 0
242000.0 543548.0 0
246000.0 543197.0 0
250000.0 543646.0 0
254000.0 543352.0 0
258000.0 543398.0 0
262000.0 543268.0 0
266000.0 543348.0 0
270000.0 543212.0 0
274000.0 543346.0 0
278000.0 543082.0 0
282000.0 543285.0 0
286000.0 543124.0 0
290000.0 543260.0 0
294000.0 543216.0 0
298000.0 543334.0 0
302000.0 543310.0 0
306000.0 543399.0 0
310000.0 543430.0 0
314000.0 543502.0 0
318000.0 543513.0 0
322000.0 543531.0 0
326000.0 543529.0 0
330000.0 543542.0 0
334000.0 543520.0 0
338000.0 543496.0 0
342000.0 543467.0 0
346000.0 543431.0 0
350000.0 543392.0 0
354000.0 543438.0 0
358000.0 543393.0 0
362000.0 543353.0 0
366000.0 543325.0 0
370000.0 543575.0 0
374000.0 543624.0 0
378000.0 543503.0 0
382000.0 543327.0 0
386000.0 543251.0 0
390000.0 543218.0 0
394000.0 543225.0 0
398000.0 543248.0 0
102000.0 547248.0 0
106000.0 547225.0 0
110000.0 547210.0 0
114000.0 547281.0 0
118000.0 547397.0 0
138000.0 547331.0 0
142000.0 547361.0 0
150000.0 547361.0 0
198000.0 547294.0 0
202000.0 547382.0 0
206000.0 547219.0 0
214000.0 547112.0 0
222000.0 547160.0 0
230000.0 547105.0 0
238000.0 547102.0 0
246000.0 547180.0 0
254000.0 547343.0 0
262000.0 547255.0 0
266000.0 547341.0 0
270000.0 547197.0 0
274000.0 547335.0 0
278000.0 547082.0 0
282000.0 547285.0 0
286000.0 547117.0 0
290000.0 547254.0 0
294000.0 547203.0 0
298000.0 547323.0 0
302000.0 547293.0 0
306000.0 547383.0 0
310000.0 547411.0 0
358000.0 547381.0 0
362000.0 547347.0 0
366000.0 547323.0 0
382000.0 547325.0 0
386000.0 547249.0 0
390000.0 547217.0 0
394000.0 547225.0 0
398000.0 547248.0 0
122000.0 547528.0 0
126000.0 547619.0 0
130000.0 547566.0 0
134000.0 547435.0 0
146000.0 547417.0 0
154000.0 547382.0 0
158000.0 547430.0 0
162000.0 547502.0 0
166000.0 547534.0 0
170000.0 547554.0 0
174000.0 547552.0 0
178000.0 547558.0 0
182000.0 547524.0 0
186000.0 547503.0 0
190000.0 547420.0 0
194000.0 547398.0 0
210000.0 547412.0 0
217994.0 547744.0 0
226000.0 547508.0 0
234000.0 547447.0 0
242000.0 547546.0 0
250000.0 547646.0 0
258000.0 547394.0 0
314000.0 547483.0 0
318000.0 547495.0 0
322000.0 547518.0 0
326000.0 547517.0 0
330000.0 547530.0 0
334000.0 547511.0 0
338000.0 547491.0 0
342000.0 547463.0 0
346000.0 547427.0 0
350000.0 547390.0 0
354000.0 547433.0 0
370000.0 547565.0 0
374000.0 547619.0 0
378000.0 547497.0 0
102000.0 551248.0 0
106000.0 551225.0 0
110000.0 551210.0 0
114000.0 551274.0 0
118000.0 551386.0 0
122000.0 551521.0 0
126000.0 551611.0 0
130000.0 551556.0 0
134000.0 551424.0 0
138000.0 551329.0 0
142000.0 551360.0 0
146000.0 551416.0 0
150000.0 551361.0 0
154000.0 551382.0 0
158000.0 551428.0 0
162000.0 551496.0 0
166000.0 551527.0 0
170000.0 551546.0 0
174000.0 551542.0 0
178000.0 551546.0 0
182000.0 551510.0 0
186000.0 551490.0 0
190000.0 551408.0 0
194000.0 551390.0 0
198000.0 551286.0 0
202000.0 551376.0 0
206000.0 551214.0 0
210000.0 551406.0 0
214000.0 551112.0 0
218001.0 551720.0 0
222000.0 551153.0 0
226000.0 551499.0 0
230000.0 551105.0 0
234000.0 551440.0 0
238000.0 551102.0 0
242000.0 551544.0 0
246000.0 551166.0 0
250000.0 551646.0 0
254000.0 551335.0 0
258000.0 551391.0 0
262000.0 551243.0 0
266000.0 551335.0 0
270000.0 551183.0 0
274000.0 551327.0 0
278000.0 551082.0 0
282000.0 551285.0 0
286000.0 551111.0 0
290000.0 551250.0 0
294000.0 551192.0 0
298000.0 551313.0 0
302000.0 551278.0 0
306000.0 551369.0 0
310000.0 551394.0 0
314000.0 551467.0 0
318000.0 551479.0 0
322000.0 551506.0 0
326000.0 551506.0 0
330000.0 551521.0 0
334000.0 551503.0 0
338000.0 551486.0 0
342000.0 551459.0 0
346000.0 551424.0 0
350000.0 551388.0 0
354000.0 551429.0 0
358000.0 551372.0 0
362000.0 551342.0 0
366000.0 551321.0 0
370000.0 551557.0 0
374000.0 551616.0 0
378000.0 551493.0 0
382000.0 551323.0 0
386000.0 551247.0 0
390000.0 551217.0 0
394000.0 551225.0 0
398000.0 551248.0 0
214000.0 555112.0 0
222000.0 555146.0 0
230000.0 555105.0 0
238000.0 555102.0 0
246000.0 555154.0 0
270000.0 555172.0 0
278000.0 555082.0 0
286000.0 555106.0 0
294000.0 555182.0 0
102000.0 555248.0 0
106000.0 555225.0 0
110000.0 555210.0 0
114000.0 555269.0 0
118000.0 555377.0 0
122000.0 555515.0 0
126000.0 555604.0 0
130000.0 555548.0 0
134000.0 555413.0 0
138000.0 555327.0 0
142000.0 555359.0 0
146000.0 555415.0 0
150000.0 555361.0 0
154000.0 555382.0 0
158000.0 555426.0 0
162000.0 555491.0 0
166000.0 555520.0 0
170000.0 555538.0 0
174000.0 555534.0 0
178000.0 555536.0 0
182000.0 555498.0 0
186000.0 555479.0 0
190000.0 555397.0 0
194000.0 555383.0 0
198000.0 555280.0 0
202000.0 555370.0 0
206000.0 555209.0 0
210000.0 555400.0 0
218000.0 555699.0 0
226000.0 555491.0 0
234000.0 555433.0 0
242000.0 555541.0 0
250000.0 555645.0 0
254000.0 555329.0 0
258000.0 555388.0 0
262000.0 555233.0 0
266000.0 555329.0 0
274000.0 555320.0 0
282000.0 555284.0 0
290000.0 555246.0 0
298000.0 555304.0 0
302000.0 555265.0 0
306000.0 555357.0 0
310000.0 555379.0 0
314000.0 555453.0 0
318000.0 555465.0 0
322000.0 555495.0 0
326000.0 555497.0 0
330000.0 555513.0 0
334000.0 555497.0 0
338000.0 555482.0 0
342000.0 555455.0 0
346000.0 555420.0 0
350000.0 555387.0 0
354000.0 555424.0 0
358000.0 555365.0 0
362000.0 555338.0 0
366000.0 555320.0 0
370000.0 555549.0 0
374000.0 555612.0 0
378000.0 555488.0 0
382000.0 555321.0 0
386000.0 555245.0 0
390000.0 555216.0 0
394000.0 555225.0 0
398000.0 555248.0 0
102000.0 559248.0 0
106000.0 559225.0 0
110000.0 559210.0 0
114000.0 559264.0 0
118000.0 559369.0 0
122000.0 559510.0 0
126000.0 559598.0 0
130000.0 559541.0 0
134000.0 559404.0 0
138000.0 559326.0 0
142000.0 559358.0 0
146000.0 559414.0 0
150000.0 559361.0 0
154000.0 559382.0 0
158000.0 559425.0 0
162000.0 559487.0 0
166000.0 559514.0 0
170000.0 559532.0 0
174000.0 559527.0 0
178000.0 559528.0 0
182000.0 559488.0 0
186000.0 559470.0 0
190000.0 559388.0 0
194000.0 559377.0 0
198000.0 559275.0 0
202000.0 559366.0 0
206000.0 559205.0 0
210000.0 559395.0 0
214000.0 559112.0 0
218000.0 559681.0 0
222000.0 559141.0 0
226000.0 559484.0 0
230000.0 559105.0 0
234000.0 559427.0 0
238000.0 559102.0 0
242000.0 559539.0 0
246000.0 559144.0 0
250000.0 559645.0 0
254000.0 559324.0 0
258000.0 559385.0 0
262000.0 559224.0 0
266000.0 559324.0 0
270000.0 559162.0 0
274000.0 559314.0 0
278000.0 559082.0 0
282000.0 559284.0 0
286000.0 559102.0 0
290000.0 559243.0 0
294000.0 559174.0 0
298000.0 559297.0 0
302000.0 559254.0 0
306000.0 559346.0 0
310000.0 559366.0 0
314000.0 559441.0 0
318000.0 559453.0 0
322000.0 559486.0 0
326000.0 559489.0 0
330000.0 559506.0 0
334000.0 559492.0 0
338000.0 559479.0 0
342000.0 559452.0 0
346000.0 559417.0 0
350000.0 559386.0 0
354000.0 559421.0 0
358000.0 559359.0 0
362000.0 559335.0 0
366000.0 559320.0 0
370000.0 559542.0 0
374000.0 559609.0 0
378000.0 559484.0 0
382000.0 559319.0 0
386000.0 559243.0 0
390000.0 559215.0 0
394000.0 559225.0 0
398000.0 559248.0 0
102000.0 563248.0 0
106000.0 563225.0 0
110000.0 563210.0 0
114000.0 563260.0 0
118000.0 563362.0 0
122000.0 563506.0 0
126000.0 563594.0 0
130000.0 563535.0 0
134000.0 563396.0 0
138000.0 563326.0 0
142000.0 563357.0 0
146000.0 563414.0 0
150000.0 563361.0 0
154000.0 563382.0 0
158000.0 563425.0 0
162000.0 563484.0 0
166000.0 563509.0 0
170000.0 563527.0 0
174000.0 563521.0 0
178000.0 563521.0 0
182000.0 563480.0 0
186000.0 563463.0 0
190000.0 563382.0 0
194000.0 563373.0 0
198000.0 563272.0 0
202000.0 563362.0 0
206000.0 563202.0 0
210000.0 563391.0 0
214000.0 563111.0 0
218000.0 563667.0 0
222000.0 563137.0 0
226000.0 563479.0 0
230000.0 563105.0 0
234000.0 563422.0 0
238000.0 563102.0 0
242000.0 563538.0 0
246000.0 563137.0 0
250000.0 563645.0 0
254000.0 563319.0 0
258000.0 563383.0 0
262000.0 563217.0 0
266000.0 563320.0 0
270000.0 563155.0 0
274000.0 563310.0 0
278000.0 563082.0 0
282000.0 563284.0 0
286000.0 563100.0 0
290000.0 563241.0 0
294000.0 563168.0 0
298000.0 563292.0 0
302000.0 563246.0 0
306000.0 563338.0 0
310000.0 563356.0 0
314000.0 563431.0 0
318000.0 563444.0 0
322000.0 563479.0 0
326000.0 563483.0 0
330000.0 563501.0 0
334000.0 563489.0 0
338000.0 563477.0 0
342000.0 563449.0 0
346000.0 563414.0 0
350000.0 563385.0 0
354000.0 563418.0 0
358000.0 563355.0 0
362000.0 563333.0 0
366000.0 563319.0 0
370000.0 563537.0 0
374000.0 563606.0 0
378000.0 563481.0 0
382000.0 563317.0 0
386000.0 563242.0 0
390000.0 563215.0 0
394000.0 563225.0 0
398000.0 563248.0 0
102000.0 567248.0 0
106000.0 567225.0 0
110000.0 567210.0 0
114000.0 567257.0 0
118000.0 567358.0 0
122000.0 567503.0 0
126000.0 567590.0 0
130000.0 567531.0 0
134000.0 567390.0 0
138000.0 567325.0 0
142000.0 567356.0 0
146000.0 567413.0 0
150000.0 567361.0 0
154000.0 567382.0 0
158000.0 567424.0 0
162000.0 567482.0 0
166000.0 567506.0 0
170000.0 567523.0 0
174000.0 567517.0 0
178000.0 567516.0 0
182000.0 567475.0 0
186000.0 567458.0 0
190000.0 567376.0 0
194000.0 567370.0 0
198000.0 567269.0 0
202000.0 567359.0 0
206000.0 567200.0 0
210000.0 567388.0 0
214000.0 567111.0 0
218000.0 567657.0 0
222000.0 567134.0 0
226000.0 567475.0 0
230000.0 567105.0 0
234000.0 567418.0 0
238000.0 567102.0 0
242000.0 567536.0 0
246000.0 567131.0 0
250000.0 567645.0 0
254000.0 567316.0 0
258000.0 567381.0 0
262000.0 567212.0 0
266000.0 567318.0 0
270000.0 567149.0 0
274000.0 567307.0 0
278000.0 567082.0 0
282000.0 567283.0 0
286000.0 567097.0 0
290000.0 567239.0 0
294000.0 567163.0 0
298000.0 567288.0 0
302000.0 567239.0 0
306000.0 567331.0 0
310000.0 567348.0 0
314000.0 567424.0 0
318000.0 567437.0 0
322000.0 567474.0 0
326000.0 567479.0 0
330000.0 567497.0 0
334000.0 567486.0 0
338000.0 567475.0 0
342000.0 567447.0 0
346000.0 567413.0 0
350000.0 567384.0 0
354000.0 567415.0 0
358000.0 567352.0 0
362000.0 567332.0 0
366000.0 567319.0 0
370000.0 567533.0 0
374000.0 567604.0 0
378000.0 567479.0 0
382000.0 567316.0 0
386000.0 567241.0 0
390000.0 567215.0 0
394000.0 567225.0 0
398000.0 567248.0 0
102000.0 571248.0 0
106000.0 571225.0 0
110000.0 571210.0 0
114000.0 571255.0 0
118000.0 571354.0 0
122000.0 571502.0 0
126000.0 571588.0 0
130000.0 571528.0 0
134000.0 571386.0 0
138000.0 571325.0 0
142000.0 571356.0 0
146000.0 571413.0 0
150000.0 571361.0 0
154000.0 571382.0 0
158000.0 571423.0 0
162000.0 571480.0 0
166000.0 571504.0 0
170000.0 571520.0 0
174000.0 571514.0 0
178000.0 571512.0 0
182000.0 571471.0 0
186000.0 571454.0 0
190000.0 571373.0 0
194000.0 571367.0 0
198000.0 571267.0 0
202000.0 571357.0 0
206000.0 571198.0 0
210000.0 571386.0 0
214000.0 571111.0 0
218000.0 571650.0 0
222000.0 571132.0 0
226000.0 571472.0 0
230000.0 571105.0 0
234000.0 571416.0 0
238000.0 571102.0 0
242000.0 571536.0 0
246000.0 571128.0 0
250000.0 571645.0 0
254000.0 571314.0 0
258000.0 571380.0 0
262000.0 571209.0 0
266000.0 571316.0 0
270000.0 571145.0 0
274000.0 571305.0 0
278000.0 571082.0 0
282000.0 571283.0 0
286000.0 571096.0 0
290000.0 571238.0 0
294000.0 571160.0 0
298000.0 571285.0 0
302000.0 571235.0 0
306000.0 571327.0 0
310000.0 571343.0 0
314000.0 571419.0 0
318000.0 571432.0 0
322000.0 571470.0 0
326000.0 571476.0 0
330000.0 571495.0 0
334000.0 571484.0 0
338000.0 571474.0 0
342000.0 571446.0 0
346000.0 571411.0 0
350000.0 571384.0 0
354000.0 571414.0 0
358000.0 571350.0 0
362000.0 571331.0 0
366000.0 571319.0 0
370000.0 571530.0 0
374000.0 571602.0 0
378000.0 571477.0 0
382000.0 571315.0 0
386000.0 571240.0 0
390000.0 571214.0 0
394000.0 571225.0 0
398000.0 571248.0 0
102000.0 575248.0 0
106000.0 575225.0 0
110000.0 575210.0 0
114000.0 575254.0 0
118000.0 575353.0 0
122000.0 575501.0 0
126000.0 575587.0 0
130000.0 575526.0 0
134000.0 575384.0 0
138000.0 575325.0 0
142000.0 575356.0 0
146000.0 575413.0 0
150000.0 575361.0 0
154000.0 575382.0 0
158000.0 575423.0 0
162000.0 575479.0 0
166000.0 575502.0 0
170000.0 575519.0 0
174000.0 575513.0 0
178000.0 575511.0 0
182000.0 575469.0 0
186000.0 575453.0 0
190000.0 575371.0 0
194000.0 575366.0 0
198000.0 575266.0 0
202000.0 575356.0 0
206000.0 575197.0 0
210000.0 575385.0 0
214000.0 575111.0 0
218000.0 575647.0 0
222000.0 575131.0 0
226000.0 575471.0 0
230000.0 575105.0 0
234000.0 575415.0 0
238000.0 575102.0 0
242000.0 575535.0 0
246000.0 575126.0 0
250000.0 575645.0 0
254000.0 575313.0 0
258000.0 575379.0 0
262000.0 575207.0 0
266000.0 575315.0 0
270000.0 575143.0 0
274000.0 575304.0 0
278000.0 575082.0 0
282000.0 575283.0 0
286000.0 575095.0 0
290000.0 575238.0 0
294000.0 575158.0 0
298000.0 575284.0 0
302000.0 575232.0 0
306000.0 575325.0 0
310000.0 575341.0 0
314000.0 575417.0 0
318000.0 575430.0 0
322000.0 575468.0 0
326000.0 575474.0 0
330000.0 575493.0 0
334000.0 575484.0 0
338000.0 575474.0 0
342000.0 575445.0 0
346000.0 575411.0 0
350000.0 575383.0 0
354000.0 575413.0 0
358000.0 575349.0 0
362000.0 575331.0 0
366000.0 575319.0 0
370000.0 575528.0 0
374000.0 575601.0 0
378000.0 575476.0 0
382000.0 575315.0 0
386000.0 575240.0 0
390000.0 575214.0 0
394000.0 575225.0 0
398000.0 575248.0 0
POINT_DATA 4650
SCALARS Radius float 1
LOOKUP_TABLE default
4000.0 4000.0 4000.0 4000.0 4000.0 4000.0 4000.0 4000.0 4000.0 4000.0 4000.0 4000.0 4000.0 4000.0 4000.0 4000.0 4000.0 4000.0 4000.0 4000.0 4000.0 4000.0 4000.0 4000.0 4000.0 4000.0 4000.0 4000.0 4000.0 4000.0 4000.0 4000.0 4000.0 4000.0 4000.0 4000.0 4000.0 4000.0 4000.0 4000.0 4000.0 4000.0 4000.0 4000.0 4000.0 4000.0 4000.0 4000.0 4000.0 4000.0 4000.0 4000.0 4000.0 4000.0 4000.0 4000.0 4000.0 4000.0 4000.0 4000.0 4000.0 4000.0 4000.0 4000.0 4000.0 4000.0 4000.0 4000.0 4000.0 4000.0 4000.0 4000.0 4000.0 4000.0 4000.0 4000.0 4000.0 4000.0 4000.0 4000.0 4000.0 4000.0 4000.0 4000.0 4000.0 4000.0 4000.0 4000.0 4000.0 4000.0 4000.0 4000.0 4000.0 4000.0 4000.0 4000.0 4000.0 4000.0 4000.0 4000.0 4000.0 4000.0 4000.0 4000.0 4000.0 4000.0 4000.0 4000.0 4000.0 4000.0 4000.0 4000.0 4000.0 4000.0 4000.0 4000.0 4000.0 4000.0 4000.0 4000.0 4000.0 4000.0 4000.0 4000.0 4000.0 4000.0 4000.0 4000.0 4000.0 4000.0 4000.0 4000.0 4000.0 4000.0 4000.0 4000.0 4000.0 4000.0 4000.0 4000.0 4000.0 4000.0 4000.0 4000.0 4000.0 4000.0 4000.0 4000.0 4000.0 4000.0 4000.0 4000.0 4000.0 4000.0 4000.0 4000.0 4000.0 4000.0 4000.0 4000.0 4000.0 4000.0 4000.0 4000.0 4000.0 4000.0 4000.0 4000.0 4000.0 4000.0 4000.0 4000.0 4000.0 4000.0 4000.0 4000.0 4000.0 4000.0 4000.0 4000.0 4000.0 4000.0 4000.0 4000.0 4000.0 4000.0 4000.0 4000.0 4000.0 4000.0 4000.0 4000.0 4000.0 4000.0 4000.0 4000.0 4000.0 4000.0 4000.0 4000.0 4000.0 4000.0 4000.0 4000.0 4000.0 4000.0 4000.0 4000.0 4000.0 4000.0 4000.0 4000.0 4000.0 4000.0 4000.0 4000.0 4000.0 4000.0 4000.0 4000.0 4000.0 4000.0 4000.0 4000.0 4000.0 4000.0 4000.0 4000.0 4000.0 4000.0 4000.0 4000.0 4000.0 4000.0 4000.0 4000.0 4000.0 4000.0 4000.0 4000.0 4000.0 4000.0 4000.0 4000.0 4000.0 4000.0 4000.0 4000.0 4000.0 4000.0 4000.0 4000.0 4000.0 4000.0 4000.0 4000.0 4000.0 4000.0 4000.0 4000.0 4000.0 4000.0 4000.0 4000.0 4000.0 4000.0 4000.0 4000.0 4000.0 4000.0 4000.0 4000.0 4000.0 4000.0 4000.0 4000.0 4000.0 4000.0 4000.0 4000.0 4000.0 4000.0 4000.0 4000.0 4000.0 4000.0 4000.0 4000.0 4000.0 4000.0 4000.0 4000.0 4000.0 4000.0 4000.0 4000.0 4000.0 4000.0 4000.0 4000.0 4000.0 4000.0 4000.0 4000.0 4000.0 4000.0 4000.0 4000.0 4000.0 4000.0 4000.0 4000.0 4000.0 4000.0 4000.0 4000.0 4000.0 4000.0 4000.0 4000.0 4000.0 4000.0 4000.0 4000.0 4000.0 4000.0 4000.0 4000.0 4000.0 4000.0 4000.0 4000.0 4000.0 4000.0 4000.0 4000.0 4000.0 4000.0 4000.0 4000.0 4000.0 4000.0 4000.0 4000.0 4000.0 4000.0 4000.0 4000.0 4000.0 4000.0 4000.0 4000.0 4000.0 4000.0 4000.0 4000.0 4000.0 4000.0 4000.0 4000.0 4000.0 4000.0 4000.0 4000.0 4000.0 4000.0 4000.0 4000.0 4000.0 4000.0 4000.0 4000.0 4000.0 4000.0 4000.0 4000.0 4000.0 4000.0 4000.0 4000.0 4000.0 4000.0 4000.0 4000.0 4000.0 4000.0 4000.0 4000.0 4000.0 4000.0 4000.0 4000.0 4000.0 4000.0 4000.0 4000.0 4000.0 4000.0 4000.0 4000.0 4000.0 4000.0 4000.0 4000.0 4000.0 4000.0 4000.0 4000.0 4000.0 4000.0 4000.0 4000.0 4000.0 4000.0 4000.0 4000.0 4000.0 4000.0 4000.0 4000.0 4000.0 4000.0 4000.0 4000.0 4000.0 4000.0 4000.0 4000.0 4000.0 4000.0 4000.0 4000.0 4000.0 4000.0 4000.0 4000.0 4000.0 4000.0 4000.0 4000.0 4000.0 4000.0 4000.0 4000.0 4000.0 4000.0 4000.0 4000.0 4000.0 4000.0 4000.0 4000.0 4000.0 4000.0 4000.0 4000.0 4000.0 4000.0 4000.0 4000.0 4000.0 4000.0 4000.0 4000.0 4000.0 4000.0 4000.0 4000.0 4000.0 4000.0 4000.0 4000.0 4000.0 4000.0 4000.0 4000.0 4000.0 4000.0 4000.0 4000.0 4000.0 4000.0 4000.0 4000.0 4000.0 4000.0 4000.0 4000.0 4000.0 4000.0 4000.0 4000.0 4000.0 4000.0 4000.0 4000.0 4000.0 4000.0 4000.0 4000.0 4000.0 4000.0 4000.0 4000.0 4000.0 4000.0 4000.0 4000.0 4000.0 4000.0 4000.0 4000.0 4000.0 4000.0 4000.0 4000.0 4000.0 4000.0 4000.0 4000.0 4000.0 4000.0 4000.0 4000.0 4000.0 4000.0 4000.0 4000.0 4000.0 4000.0 4000.0 4000.0 4000.0 4000.0 4000.0 4000.0 4000.0 4000.0 4000.0 4000.0 4000.0 4000.0 4000.0 4000.0 4000.0 4000.0 4000.0 4000.0 4000.0 4000.0 4000.0 4000.0 4000.0 4000.0 4000.0 4000.0 4000.0 4000.0 4000.0 4000.0 4000.0 4000.0 4000.0 4000.0 4000.0 4000.0 4000.0 4000.0 4000.0 4000.0 4000.0 4000.0 4000.0 4000.0 4000.0 4000.0 4000.0 4000.0 4000.0 4000.0 4000.0 4000.0 4000.0 4000.0 4000.0 4000.0 4000.0 4000.0 4000.0 4000.0 4000.0 4000.0 4000.0 4000.0 4000.0 4000.0 4000.0 4000.0 4000.0 4000.0 4000.0 4000.0 4000.0 4000.0 4000.0 4000.0 4000.0 4000.0 4000.0 4000.0 4000.0 4000.0 4000.0 4000.0 4000.0 4000.0 4000.0 4000.0 4000.0 4000.0 4000.0 4000.0 4000.0 4000.0 4000.0 4000.0 4000.0 4000.0 4000.0 4000.0 4000.0 4000.0 4000.0 4000.0 4000.0 4000.0 4000.0 4000.0 4000.0 4000.0 4000.0 4000.0 4000.0 4000.0 4000.0 4000.0 4000.0 4000.0 4000.0 4000.0 4000.0 4000.0 4000.0 4000.0 4000.0 4000.0 4000.0 4000.0 4000.0 4000.0 4000.0 4000.0 4000.0 4000.0 4000.0 4000.0 4000.0 4000.0 4000.0 4000.0 4000.0 4000.0 4000.0 4000.0 4000.0 4000.0 4000.0 4000.0 4000.0 4000.0 4000.0 4000.0 4000.0 4000.0 4000.0 4000.0 4000.0 4000.0 4000.0 4000.0 4000.0 4000.0 4000.0 4000.0 4000.0 4000.0 4000.0 4000.0 4000.0 4000.0 4000.0 4000.0 4000.0 4000.0 4000.0 4000.0 4000.0 4000.0 4000.0 4000.0 4000.0 4000.0 4000.0 4000.0 4000.0 4000.0 4000.0 4000.0 4000.0 4000.0 4000.0 4000.0 4000.0 4000.0 4000.0 4000.0 4000.0 4000.0 4000.0 4000.0 4000.0 4000.0 4000.0 4000.0 4000.0 4000.0 4000.0 4000.0 4000.0 4000.0 4000.0 4000.0 4000.0 4000.0 4000.0 4000.0 4000.0 4000.0 4000.0 4000.0 4000.0 4000.0 4000.0 4000.0 4000.0 4000.0 4000.0 4000.0 4000.0 4000.0 4000.0 4000.0 4000.0 4000.0 4000.0 4000.0 4000.0 4000.0 4000.0 4000.0 4000.0 4000.0 4000.0 4000.0 4000.0 4000.0 4000.0 4000.0 4000.0 4000.0 4000.0 4000.0 4000.0 4000.0 4000.0 4000.0 4000.0 4000.0 4000.0 4000.0 4000.0 4000.0 4000.0 4000.0 4000.0 4000.0 4000.0 4000.0 4000.0 4000.0 4000.0 4000.0 4000.0 4000.0 4000.0 4000.0 4000.0 4000.0 4000.0 4000.0 4000.0 4000.0 4000.0 4000.0 4000.0 4000.0 4000.0 4000.0 4000.0 4000.0 4000.0 4000.0 4000.0 4000.0 4000.0 4000.0 4000.0 4000.0 4000.0 4000.0 4000.0 4000.0 4000.0 4000.0 4000.0 4000.0 4000.0 4000.0 4000.0 4000.0 4000.0 4000.0 4000.0 4000.0 4000.0 4000.0 4000.0 4000.0 4000.0 4000.0 4000.0 4000.0 4000.0 4000.0 4000.0 4000.0 4000.0 4000.0 4000.0 4000.0 4000.0 4000.0 4000.0 4000.0 4000.0 4000.0 4000.0 4000.0 4000.0 4000.0 4000.0 4000.0 4000.0 4000.0 4000.0 4000.0 4000.0 4000.0 4000.0 4000.0 4000.0 4000.0 4000.0 4000.0 4000.0 4000.0 4000.0 4000.0 4000.0 4000.0 4000.0 4000.0 4000.0 4000.0 4000.0 4000.0 4000.0 4000.0 4000.0 4000.0 4000.0 4000.0 4000.0 4000.0 4000.0 4000.0 4000.0 4000.0 4000.0 4000.0 4000.0 4000.0 4000.0 4000.0 4000.0 4000.0 4000.0 4000.0 4000.0 4000.0 4000.0 4000.0 4000.0 4000.0 4000.0 4000.0 4000.0 4000.0 4000.0 4000.0 4000.0 4000.0 4000.0 4000.0 4000.0 4000.0 4000.0 4000.0 4000.0 4000.0 4000.0 4000.0 4000.0 4000.0 4000.0 4000.0 4000.0 4000.0 4000.0 4000.0 4000.0 4000.0 4000.0 4000.0 4000.0 4000.0 4000.0 4000.0 4000.0 4000.0 4000.0 4000.0 4000.0 4000.0 4000.0 4000.0 4000.0 4000.0 4000.0 4000.0 4000.0 4000.0 4000.0 4000.0 4000.0 4000.0 4000.0 4000.0 4000.0 4000.0 4000.0 4000.0 4000.0 4000.0 4000.0 4000.0 4000.0 4000.0 4000.0 4000.0 4000.0 4000.0 4000.0 4000.0 4000.0 4000.0 4000.0 4000.0 4000.0 4000.0 4000.0 4000.0 4000.0 4000.0 4000.0 4000.0 4000.0 4000.0 4000.0 4000.0 4000.0 4000.0 4000.0 4000.0 4000.0 4000.0 4000.0 4000.0 4000.0 4000.0 4000.0 4000.0 4000.0 4000.0 4000.0 4000.0 4000.0 4000.0 4000.0 4000.0 4000.0 4000.0 4000.0 4000.0 4000.0 4000.0 4000.0 4000.0 4000.0 4000.0 4000.0 4000.0 4000.0 4000.0 4000.0 4000.0 4000.0 4000.0 4000.0 4000.0 4000.0 4000.0 4000.0 4000.0 4000.0 4000.0 4000.0 4000.0 4000.0 4000.0 4000.0 4000.0 4000.0 4000.0 4000.0 4000.0 4000.0 4000.0 4000.0 4000.0 4000.0 4000.0 4000.0 4000.0 4000.0 4000.0 4000.0 4000.0 4000.0 4000.0 4000.0 4000.0 4000.0 4000.0 4000.0 4000.0 4000.0 4000.0 4000.0 4000.0 4000.0 4000.0 4000.0 4000.0 4000.0 4000.0 4000.0 4000.0 4000.0 4000.0 4000.0 4000.0 4000.0 4000.0 4000.0 4000.0 4000.0 4000.0 4000.0 4000.0 4000.0 4000.0 4000.0 4000.0 4000.0 4000.0 4000.0 4000.0 4000.0 4000.0 4000.0 4000.0 4000.0 4000.0 4000.0 4000.0 4000.0 4000.0 4000.0 4000.0 4000.0 4000.0 4000.0 4000.0 4000.0 4000.0 4000.0 4000.0 4000.0 4000.0 4000.0 4000.0 4000.0 4000.0 4000.0 4000.0 4000.0 4000.0 4000.0 4000.0 4000.0 4000.0 4000.0 4000.0 4000.0 4000.0 4000.0 4000.0 4000.0 4000.0 4000.0 4000.0 4000.0 4000.0 4000.0 4000.0 4000.0 4000.0 4000.0 4000.0 4000.0 4000.0 4000.0 4000.0 4000.0 4000.0 4000.0 4000.0 4000.0 4000.0 4000.0 4000.0 4000.0 4000.0 4000.0 4000.0 4000.0 4000.0 4000.0 4000.0 4000.0 4000.0 4000.0 4000.0 4000.0 4000.0 4000.0 4000.0 4000.0 4000.0 4000.0 4000.0 4000.0 4000.0 4000.0 4000.0 4000.0 4000.0 4000.0 4000.0 4000.0 4000.0 4000.0 4000.0 4000.0 4000.0 4000.0 4000.0 4000.0 4000.0 4000.0 4000.0 4000.0 4000.0 4000.0 4000.0 4000.0 4000.0 4000.0 4000.0 4000.0 4000.0 4000.0 4000.0 4000.0 4000.0 4000.0 4000.0 4000.0 4000.0 4000.0 4000.0 4000.0 4000.0 4000.0 4000.0 4000.0 4000.0 4000.0 4000.0 4000.0 4000.0 4000.0 4000.0 4000.0 4000.0 4000.0 4000.0 4000.0 4000.0 4000.0 4000.0 4000.0 4000.0 4000.0 4000.0 4000.0 4000.0 4000.0 4000.0 4000.0 4000.0 4000.0 4000.0 4000.0 4000.0 4000.0 4000.0 4000.0 4000.0 4000.0 4000.0 4000.0 4000.0 4000.0 4000.0 4000.0 4000.0 4000.0 4000.0 4000.0 4000.0 4000.0 4000.0 4000.0 4000.0 4000.0 4000.0 4000.0 4000.0 4000.0 4000.0 4000.0 4000.0 4000.0 4000.0 4000.0 4000.0 4000.0 4000.0 4000.0 4000.0 4000.0 4000.0 4000.0 4000.0 4000.0 4000.0 4000.0 4000.0 4000.0 4000.0 4000.0 4000.0 4000.0 4000.0 4000.0 4000.0 4000.0 4000.0 4000.0 4000.0 4000.0 4000.0 4000.0 4000.0 4000.0 4000.0 4000.0 4000.0 4000.0 4000.0 4000.0 4000.0 4000.0 4000.0 4000.0 4000.0 4000.0 4000.0 4000.0 4000.0 4000.0 4000.0 4000.0 4000.0 4000.0 4000.0 4000.0 4000.0 4000.0 4000.0 4000.0 4000.0 4000.0 4000.0 4000.0 4000.0 4000.0 4000.0 4000.0 4000.0 4000.0 4000.0 4000.0 4000.0 4000.0 4000.0 4000.0 4000.0 4000.0 4000.0 4000.0 4000.0 4000.0 4000.0 4000.0 4000.0 4000.0 4000.0 4000.0 4000.0 4000.0 4000.0 4000.0 4000.0 4000.0 4000.0 4000.0 4000.0 4000.0 4000.0 4000.0 4000.0 4000.0 4000.0 4000.0 4000.0 4000.0 4000.0 4000.0 4000.0 4000.0 4000.0 4000.0 4000.0 4000.0 4000.0 4000.0 4000.0 4000.0 4000.0 4000.0 4000.0 4000.0 4000.0 4000.0 4000.0 4000.0 4000.0 4000.0 4000.0 4000.0 4000.0 4000.0 4000.0 4000.0 4000.0 4000.0 4000.0 4000.0 4000.0 4000.0 4000.0 4000.0 4000.0 4000.0 4000.0 4000.0 4000.0 4000.0 4000.0 4000.0 4000.0 4000.0 4000.0 4000.0 4000.0 4000.0 4000.0 4000.0 4000.0 4000.0 4000.0 4000.0 4000.0 4000.0 4000.0 4000.0 4000.0 4000.0 4000.0 4000.0 4000.0 4000.0 4000.0 4000.0 4000.0 4000.0 4000.0 4000.0 4000.0 4000.0 4000.0 4000.0 4000.0 4000.0 4000.0 4000.0 4000.0 4000.0 4000.0 4000.0 4000.0 4000.0 4000.0 4000.0 4000.0 4000.0 4000.0 4000.0 4000.0 4000.0 4000.0 4000.0 4000.0 4000.0 4000.0 4000.0 4000.0 4000.0 4000.0 4000.0 4000.0 4000.0 4000.0 4000.0 4000.0 4000.0 4000.0 4000.0 4000.0 4000.0 4000.0 4000.0 4000.0 4000.0 4000.0 4000.0 4000.0 4000.0 4000.0 4000.0 4000.0 4000.0 4000.0 4000.0 4000.0 4000.0 4000.0 4000.0 4000.0 4000.0 4000.0 4000.0 4000.0 4000.0 4000.0 4000.0 4000.0 4000.0 4000.0 4000.0 4000.0 4000.0 4000.0 4000.0 4000.0 4000.0 4000.0 4000.0 4000.0 4000.0 4000.0 4000.0 4000.0 4000.0 4000.0 4000.0 4000.0 4000.0 4000.0 4000.0 4000.0 4000.0 4000.0 4000.0 4000.0 4000.0 4000.0 4000.0 4000.0 4000.0 4000.0 4000.0 4000.0 4000.0 4000.0 4000.0 4000.0 4000.0 4000.0 4000.0 4000.0 4000.0 4000.0 4000.0 4000.0 4000.0 4000.0 4000.0 4000.0 4000.0 4000.0 4000.0 4000.0 4000.0 4000.0 4000.0 4000.0 4000.0 4000.0 4000.0 4000.0 4000.0 4000.0 4000.0 4000.0 4000.0 4000.0 4000.0 4000.0 4000.0 4000.0 4000.0 4000.0 4000.0 4000.0 4000.0 4000.0 4000.0 4000.0 4000.0 4000.0 4000.0 4000.0 4000.0 4000.0 4000.0 4000.0 4000.0 4000.0 4000.0 4000.0 4000.0 4000.0 4000.0 4000.0 4000.0 4000.0 4000.0 4000.0 4000.0 4000.0 4000.0 4000.0 4000.0 4000.0 4000.0 4000.0 4000.0 4000.0 4000.0 4000.0 4000.0 4000.0 4000.0 4000.0 4000.0 4000.0 4000.0 4000.0 4000.0 4000.0 4000.0 4000.0 4000.0 4000.0 4000.0 4000.0 4000.0 4000.0 4000.0 4000.0 4000.0 4000.0 4000.0 4000.0 4000.0 4000.0 4000.0 4000.0 4000.0 4000.0 4000.0 4000.0 4000.0 4000.0 4000.0 4000.0 4000.0 4000.0 4000.0 4000.0 4000.0 4000.0 4000.0 4000.0 4000.0 4000.0 4000.0 4000.0 4000.0 4000.0 4000.0 4000.0 4000.0 4000.0 4000.0 4000.0 4000.0 4000.0 4000.0 4000.0 4000.0 4000.0 4000.0 4000.0 4000.0 4000.0 4000.0 4000.0 4000.0 4000.0 4000.0 4000.0 4000.0 4000.0 4000.0 4000.0 4000.0 4000.0 4000.0 4000.0 4000.0 4000.0 4000.0 4000.0 4000.0 4000.0 4000.0 4000.0 4000.0 4000.0 4000.0 4000.0 4000.0 4000.0 4000.0 4000.0 4000.0 4000.0 4000.0 4000.0 4000.0 4000.0 4000.0 4000.0 4000.0 4000.0 4000.0 4000.0 4000.0 4000.0 4000.0 4000.0 4000.0 4000.0 4000.0 4000.0 4000.0 4000.0 4000.0 4000.0 4000.0 4000.0 4000.0 4000.0 4000.0 4000.0 4000.0 4000.0 4000.0 4000.0 4000.0 4000.0 4000.0 4000.0 4000.0 4000.0 4000.0 4000.0 4000.0 4000.0 4000.0 4000.0 4000.0 4000.0 4000.0 4000.0 4000.0 4000.0 4000.0 4000.0 4000.0 4000.0 4000.0 4000.0 4000.0 4000.0 4000.0 4000.0 4000.0 4000.0 4000.0 4000.0 4000.0 4000.0 4000.0 4000.0 4000.0 4000.0 4000.0 4000.0 4000.0 4000.0 4000.0 4000.0 4000.0 4000.0 4000.0 4000.0 4000.0 4000.0 4000.0 4000.0 4000.0 4000.0 4000.0 4000.0 4000.0 4000.0 4000.0 4000.0 4000.0 4000.0 4000.0 4000.0 4000.0 4000.0 4000.0 4000.0 4000.0 4000.0 4000.0 4000.0 4000.0 4000.0 4000.0 4000.0 4000.0 4000.0 4000.0 4000.0 4000.0 4000.0 4000.0 4000.0 4000.0 4000.0 4000.0 4000.0 4000.0 4000.0 4000.0 4000.0 4000.0 4000.0 4000.0 4000.0 4000.0 4000.0 4000.0 4000.0 4000.0 4000.0 4000.0 4000.0 4000.0 4000.0 4000.0 4000.0 4000.0 4000.0 4000.0 4000.0 4000.0 4000.0 4000.0 4000.0 4000.0 4000.0 4000.0 4000.0 4000.0 4000.0 4000.0 4000.0 4000.0 4000.0 4000.0 4000.0 4000.0 4000.0 4000.0 4000.0 4000.0 4000.0 4000.0 4000.0 4000.0 4000.0 4000.0 4000.0 4000.0 4000.0 4000.0 4000.0 4000.0 4000.0 4000.0 4000.0 4000.0 4000.0 4000.0 4000.0 4000.0 4000.0 4000.0 4000.0 4000.0 4000.0 4000.0 4000.0 4000.0 4000.0 4000.0 4000.0 4000.0 4000.0 4000.0 4000.0 4000.0 4000.0 4000.0 4000.0 4000.0 4000.0 4000.0 4000.0 4000.0 4000.0 4000.0 4000.0 4000.0 4000.0 4000.0 4000.0 4000.0 4000.0 4000.0 4000.0 4000.0 4000.0 4000.0 4000.0 4000.0 4000.0 4000.0 4000.0 4000.0 4000.0 4000.0 4000.0 4000.0 4000.0 4000.0 4000.0 4000.0 4000.0 4000.0 4000.0 4000.0 4000.0 4000.0 4000.0 4000.0 4000.0 4000.0 4000.0 4000.0 4000.0 4000.0 4000.0 4000.0 4000.0 4000.0 4000.0 4000.0 4000.0 4000.0 4000.0 4000.0 4000.0 4000.0 4000.0 4000.0 4000.0 4000.0 4000.0 4000.0 4000.0 4000.0 4000.0 4000.0 4000.0 4000.0 4000.0 4000.0 4000.0 4000.0 4000.0 4000.0 4000.0 4000.0 4000.0 4000.0 4000.0 4000.0 4000.0 4000.0 4000.0 4000.0 4000.0 4000.0 4000.0 4000.0 4000.0 4000.0 4000.0 4000.0 4000.0 4000.0 4000.0 4000.0 4000.0 4000.0 4000.0 4000.0 4000.0 4000.0 4000.0 4000.0 4000.0 4000.0 4000.0 4000.0 4000.0 4000.0 4000.0 4000.0 4000.0 4000.0 4000.0 4000.0 4000.0 4000.0 4000.0 4000.0 4000.0 4000.0 4000.0 4000.0 4000.0 4000.0 4000.0 4000.0 4000.0 4000.0 4000.0 4000.0 4000.0 4000.0 4000.0 4000.0 4000.0 4000.0 4000.0 4000.0 4000.0 4000.0 4000.0 4000.0 4000.0 4000.0 4000.0 4000.0 4000.0 4000.0 4000.0 4000.0 4000.0 4000.0 4000.0 4000.0 4000.0 4000.0 4000.0 4000.0 4000.0 4000.0 4000.0 4000.0 4000.0 4000.0 4000.0 4000.0 4000.0 4000.0 4000.0 4000.0 4000.0 4000.0 4000.0 4000.0 4000.0 4000.0 4000.0 4000.0 4000.0 4000.0 4000.0 4000.0 4000.0 4000.0 4000.0 4000.0 4000.0 4000.0 4000.0 4000.0 4000.0 4000.0 4000.0 4000.0 4000.0 4000.0 4000.0 4000.0 4000.0 4000.0 4000.0 4000.0 4000.0 4000.0 4000.0 4000.0 4000.0 4000.0 4000.0 4000.0 4000.0 4000.0 4000.0 4000.0 4000.0 4000.0 4000.0 4000.0 4000.0 4000.0 4000.0 4000.0 4000.0 4000.0 4000.0 4000.0 4000.0 4000.0 4000.0 4000.0 4000.0 4000.0 4000.0 4000.0 4000.0 4000.0 4000.0 4000.0 4000.0 4000.0 4000.0 4000.0 4000.0 4000.0 4000.0 4000.0 4000.0 4000.0 4000.0 4000.0 4000.0 4000.0 4000.0 4000.0 4000.0 4000.0 4000.0 4000.0 4000.0 4000.0 4000.0 4000.0 4000.0 4000.0 4000.0 4000.0 4000.0 4000.0 4000.0 4000.0 4000.0 4000.0 4000.0 4000.0 4000.0 4000.0 4000.0 4000.0 4000.0 4000.0 4000.0 4000.0 4000.0 4000.0 4000.0 4000.0 4000.0 4000.0 4000.0 4000.0 4000.0 4000.0 4000.0 4000.0 4000.0 4000.0 4000.0 4000.0 4000.0 4000.0 4000.0 4000.0 4000.0 4000.0 4000.0 4000.0 4000.0 4000.0 4000.0 4000.0 4000.0 4000.0 4000.0 4000.0 4000.0 4000.0 4000.0 4000.0 4000.0 4000.0 4000.0 4000.0 4000.0 4000.0 4000.0 4000.0 4000.0 4000.0 4000.0 4000.0 4000.0 4000.0 4000.0 4000.0 4000.0 4000.0 4000.0 4000.0 4000.0 4000.0 4000.0 4000.0 4000.0 4000.0 4000.0 4000.0 4000.0 4000.0 4000.0 4000.0 4000.0 4000.0 4000.0 4000.0 4000.0 4000.0 4000.0 4000.0 4000.0 4000.0 4000.0 4000.0 4000.0 4000.0 4000.0 4000.0 4000.0 4000.0 4000.0 4000.0 4000.0 4000.0 4000.0 4000.0 4000.0 4000.0 4000.0 4000.0 4000.0 4000.0 4000.0 4000.0 4000.0 4000.0 4000.0 4000.0 4000.0 4000.0 4000.0 4000.0 4000.0 4000.0 4000.0 4000.0 4000.0 4000.0 4000.0 4000.0 4000.0 4000.0 4000.0 4000.0 4000.0 4000.0 4000.0 4000.0 4000.0 4000.0 4000.0 4000.0 4000.0 4000.0 4000.0 4000.0 4000.0 4000.0 4000.0 4000.0 4000.0 4000.0 4000.0 4000.0 4000.0 4000.0 4000.0 4000.0 4000.0 4000.0 4000.0 4000.0 4000.0 4000.0 4000.0 4000.0 4000.0 4000.0 4000.0 4000.0 4000.0 4000.0 4000.0 4000.0 4000.0 4000.0 4000.0 4000.0 4000.0 4000.0 4000.0 4000.0 4000.0 4000.0 4000.0 4000.0 4000.0 4000.0 4000.0 4000.0 4000.0 4000.0 4000.0 4000.0 4000.0 4000.0 4000.0 4000.0 4000.0 4000.0 4000.0 4000.0 4000.0 4000.0 4000.0 4000.0 4000.0 4000.0 4000.0 4000.0 4000.0 4000.0 4000.0 4000.0 4000.0 4000.0 4000.0 4000.0 4000.0 4000.0 4000.0 4000.0 4000.0 4000.0 4000.0 4000.0 4000.0 4000.0 4000.0 4000.0 4000.0 4000.0 4000.0 4000.0 4000.0 4000.0 4000.0 4000.0 4000.0 4000.0 4000.0 4000.0 4000.0 4000.0 4000.0 4000.0 4000.0 4000.0 4000.0 4000.0 4000.0 4000.0 4000.0 4000.0 4000.0 4000.0 4000.0 4000.0 4000.0 4000.0 4000.0 4000.0 4000.0 4000.0 4000.0 4000.0 4000.0 4000.0 4000.0 4000.0 4000.0 4000.0 4000.0 4000.0 4000.0 4000.0 4000.0 4000.0 4000.0 4000.0 4000.0 4000.0 4000.0 4000.0 4000.0 4000.0 4000.0 4000.0 4000.0 4000.0 4000.0 4000.0 4000.0 4000.0 4000.0 4000.0 4000.0 4000.0 4000.0 4000.0 4000.0 4000.0 4000.0 4000.0 4000.0 4000.0 4000.0 4000.0 4000.0 4000.0 4000.0 4000.0 4000.0 4000.0 4000.0 4000.0 4000.0 4000.0 4000.0 4000.0 4000.0 4000.0 4000.0 4000.0 4000.0 4000.0 4000.0 4000.0 4000.0 4000.0 4000.0 4000.0 4000.0 4000.0 4000.0 4000.0 4000.0 4000.0 4000.0 4000.0 4000.0 4000.0 4000.0 4000.0 4000.0 4000.0 4000.0 4000.0 4000.0 4000.0 4000.0 4000.0 4000.0 4000.0 4000.0 4000.0 4000.0 4000.0 4000.0 4000.0 4000.0 4000.0 4000.0 4000.0 4000.0 4000.0 4000.0 4000.0 4000.0 4000.0 4000.0 4000.0 4000.0 4000.0 4000.0 4000.0 4000.0 4000.0 4000.0 4000.0 4000.0 4000.0 4000.0 4000.0 4000.0 4000.0 4000.0 4000.0 4000.0 4000.0 4000.0 4000.0 4000.0 4000.0 4000.0 4000.0 4000.0 4000.0 4000.0 4000.0 4000.0 4000.0 4000.0 4000.0 4000.0 4000.0 4000.0 4000.0 4000.0 4000.0 4000.0 4000.0 4000.0 4000.0 4000.0 4000.0 4000.0 4000.0 4000.0 4000.0 4000.0 4000.0 4000.0 4000.0 4000.0 4000.0 4000.0 4000.0 4000.0 4000.0 4000.0 4000.0 4000.0 4000.0 4000.0 4000.0 4000.0 4000.0 4000.0 4000.0 4000.0 4000.0 4000.0 4000.0 4000.0 4000.0 4000.0 4000.0 4000.0 4000.0 4000.0 4000.0 4000.0 4000.0 4000.0 4000.0 4000.0 4000.0 4000.0 4000.0 4000.0 4000.0 4000.0 4000.0 4000.0 4000.0 4000.0 4000.0 4000.0 4000.0 4000.0 4000.0 4000.0 4000.0 4000.0 4000.0 4000.0 4000.0 4000.0 4000.0 4000.0 4000.0 4000.0 4000.0 4000.0 4000.0 4000.0 4000.0 4000.0 4000.0 4000.0 4000.0 4000.0 4000.0 4000.0 4000.0 4000.0 4000.0 4000.0 4000.0 4000.0 4000.0 4000.0 4000.0 4000.0 4000.0 4000.0 4000.0 4000.0 4000.0 4000.0 4000.0 4000.0 4000.0 4000.0 4000.0 4000.0 4000.0 4000.0 4000.0 4000.0 4000.0 4000.0 4000.0 4000.0 4000.0 4000.0 4000.0 4000.0 4000.0 4000.0 4000.0 4000.0 4000.0 4000.0 4000.0 4000.0 4000.0 4000.0 4000.0 4000.0 4000.0 4000.0 4000.0 4000.0 4000.0 4000.0 4000.0 4000.0 4000.0 4000.0 4000.0 4000.0 4000.0 4000.0 4000.0 4000.0 4000.0 4000.0 4000.0 4000.0 4000.0 4000.0 4000.0 4000.0 4000.0 4000.0 4000.0 4000.0 4000.0 4000.0 4000.0 4000.0 4000.0 4000.0 4000.0 4000.0 4000.0 4000.0 4000.0 4000.0 4000.0 4000.0 4000.0 4000.0 4000.0 4000.0 4000.0 4000.0 4000.0 4000.0 4000.0 4000.0 4000.0 4000.0 4000.0 4000.0 4000.0 4000.0 4000.0 4000.0 4000.0 4000.0 4000.0 4000.0 4000.0 4000.0 4000.0 4000.0 4000.0 4000.0 4000.0 4000.0 4000.0 4000.0 4000.0 4000.0 4000.0 4000.0 4000.0 4000.0 4000.0 4000.0 4000.0 4000.0 4000.0 4000.0 4000.0 4000.0 4000.0 4000.0 4000.0 4000.0 4000.0 4000.0 4000.0 4000.0 4000.0 4000.0 4000.0 4000.0 4000.0 4000.0 4000.0 4000.0 4000.0 4000.0 4000.0 4000.0 4000.0 4000.0 4000.0 4000.0 4000.0 4000.0 4000.0 4000.0 4000.0 4000.0 4000.0 4000.0 4000.0 4000.0 4000.0 4000.0 4000.0 4000.0 4000.0 4000.0 4000.0 4000.0 4000.0 4000.0 4000.0 4000.0 4000.0 4000.0 4000.0 4000.0 4000.0 4000.0 4000.0 4000.0 4000.0 4000.0 4000.0 4000.0 4000.0 4000.0 4000.0 4000.0 4000.0 4000.0 4000.0 4000.0 4000.0 4000.0 4000.0 4000.0 4000.0 4000.0 4000.0 4000.0 4000.0 4000.0 4000.0 4000.0 4000.0 4000.0 4000.0 4000.0 4000.0 4000.0 4000.0 4000.0 4000.0 4000.0 4000.0 4000.0 4000.0 4000.0 4000.0 4000.0 4000.0 4000.0 4000.0 4000.0 4000.0 4000.0 4000.0 4000.0 4000.0 4000.0 4000.0 4000.0 4000.0 4000.0 4000.0 4000.0 4000.0 4000.0 4000.0 4000.0 4000.0 4000.0 4000.0 4000.0 4000.0 4000.0 4000.0 4000.0 4000.0 4000.0 4000.0 4000.0 4000.0 4000.0 4000.0 4000.0 4000.0 4000.0 4000.0 4000.0 4000.0 4000.0 4000.0 4000.0 4000.0 4000.0 4000.0 4000.0 4000.0 4000.0 4000.0 4000.0 4000.0 4000.0 4000.0 4000.0 4000.0 4000.0 4000.0 4000.0 4000.0 4000.0 4000.0 4000.0 4000.0 4000.0 4000.0 4000.0 4000.0 4000.0 4000.0 4000.0 4000.0 4000.0 4000.0 4000.0 4000.0 4000.0 4000.0 4000.0 4000.0 4000.0 4000.0 4000.0 4000.0 4000.0 4000.0 4000.0 4000.0 4000.0 4000.0 4000.0 4000.0 4000.0 4000.0 4000.0 4000.0 4000.0 4000.0 4000.0 4000.0 4000.0 4000.0 4000.0 4000.0 4000.0 4000.0 4000.0 4000.0 4000.0 4000.0 4000.0 4000.0 4000.0 4000.0 4000.0 4000.0 4000.0 4000.0 4000.0 4000.0 4000.0 4000.0 4000.0 4000.0 4000.0 4000.0 4000.0 4000.0 4000.0 4000.0 4000.0 4000.0 4000.0 4000.0 4000.0 4000.0 4000.0 4000.0 4000.0 4000.0 4000.0 4000.0 4000.0 4000.0 4000.0 4000.0 4000.0 4000.0 4000.0 4000.0 4000.0 4000.0 4000.0 4000.0 4000.0 4000.0 4000.0 4000.0 4000.0 4000.0 4000.0 4000.0 4000.0 4000.0 4000.0 4000.0 4000.0 4000.0 4000.0 4000.0 4000.0 4000.0 4000.0 4000.0 4000.0 4000.0 4000.0 4000.0 4000.0 4000.0 4000.0 4000.0 4000.0 4000.0 4000.0 4000.0 4000.0 4000.0 4000.0 4000.0 4000.0 4000.0 4000.0 4000.0 4000.0 4000.0 4000.0 4000.0 4000.0 4000.0 4000.0 4000.0 4000.0 4000.0 4000.0 4000.0 4000.0 4000.0 4000.0 4000.0 4000.0 4000.0 4000.0 4000.0 4000.0 4000.0 4000.0 4000.0 4000.0 4000.0 4000.0 4000.0 4000.0 4000.0 4000.0 4000.0 4000.0 4000.0 4000.0 4000.0 4000.0 4000.0 4000.0 4000.0 4000.0 4000.0 4000.0 4000.0 4000.0 4000.0 4000.0 4000.0 4000.0 4000.0 4000.0 4000.0 4000.0 4000.0 4000.0 4000.0 4000.0 4000.0 4000.0 4000.0 4000.0 4000.0 4000.0 4000.0 4000.0 4000.0 4000.0 4000.0 4000.0 4000.0 4000.0 4000.0 4000.0 4000.0 4000.0 4000.0 4000.0 4000.0 4000.0 4000.0 4000.0 4000.0 4000.0 4000.0 4000.0 4000.0 4000.0 4000.0 4000.0 4000.0 4000.0 4000.0 4000.0 4000.0 4000.0 4000.0 4000.0 4000.0 4000.0 4000.0 4000.0 4000.0 4000.0 4000.0 4000.0 4000.0 4000.0 4000.0 4000.0 4000.0 4000.0 4000.0 4000.0 4000.0 4000.0 4000.0 4000.0 4000.0 4000.0 4000.0 4000.0 4000.0 4000.0 4000.0 4000.0 4000.0 4000.0 4000.0 4000.0 4000.0 4000.0 4000.0 4000.0 4000.0 4000.0 4000.0 4000.0 4000.0 4000.0 4000.0 4000.0 4000.0 4000.0 4000.0 4000.0 4000.0 4000.0 4000.0 4000.0 4000.0 4000.0 4000.0 4000.0 4000.0 4000.0 4000.0 4000.0 4000.0 4000.0 4000.0 4000.0 4000.0 4000.0 4000.0 4000.0 4000.0 4000.0 4000.0 4000.0 4000.0 4000.0 4000.0 4000.0 4000.0 4000.0 4000.0 4000.0 4000.0 4000.0 4000.0 4000.0 4000.0 4000.0 4000.0 4000.0 4000.0 4000.0 4000.0 4000.0 4000.0 4000.0 4000.0 4000.0 4000.0 4000.0 4000.0 4000.0 4000.0 4000.0 4000.0 4000.0 4000.0 4000.0 4000.0 4000.0 4000.0 4000.0 4000.0 4000.0 4000.0 4000.0 4000.0 4000.0 4000.0 4000.0 4000.0 4000.0 4000.0 4000.0 4000.0 4000.0 4000.0 4000.0 4000.0 4000.0 4000.0 4000.0 4000.0 4000.0 4000.0 4000.0 4000.0 4000.0 4000.0 4000.0 4000.0 4000.0 4000.0 4000.0 4000.0 4000.0 4000.0 4000.0 4000.0 4000.0 4000.0 4000.0 4000.0 4000.0 4000.0 4000.0 4000.0 4000.0 4000.0 4000.0 4000.0 4000.0 4000.0 4000.0 4000.0 4000.0 4000.0 4000.0 4000.0 4000.0 4000.0 4000.0 4000.0 4000.0 4000.0 4000.0 4000.0 4000.0 4000.0 4000.0 4000.0 4000.0 4000.0 4000.0 4000.0 4000.0 4000.0 4000.0 4000.0 4000.0 4000.0 4000.0 4000.0 4000.0 4000.0 4000.0 4000.0 4000.0 4000.0 4000.0 4000.0 4000.0 4000.0 4000.0 4000.0 4000.0 4000.0 4000.0 4000.0 4000.0 4000.0 4000.0 4000.0 4000.0 4000.0 4000.0 4000.0 4000.0 4000.0 4000.0 4000.0 4000.0 4000.0 4000.0 4000.0 4000.0 4000.0 4000.0 4000.0 4000.0 4000.0 4000.0 4000.0 4000.0 4000.0 4000.0 4000.0 4000.0 4000.0 4000.0 4000.0 4000.0 4000.0 4000.0 4000.0 4000.0 4000.0 4000.0 4000.0 4000.0 4000.0 4000.0 4000.0 4000.0 4000.0 4000.0 4000.0 4000.0 4000.0 4000.0 4000.0 4000.0 4000.0 4000.0 4000.0 4000.0 4000.0 4000.0 4000.0 4000.0 4000.0 4000.0 4000.0 4000.0 4000.0 4000.0 4000.0 4000.0 4000.0 4000.0 4000.0 4000.0 4000.0 4000.0 4000.0 4000.0 4000.0 4000.0 4000.0 4000.0 4000.0 4000.0 4000.0 4000.0 4000.0 4000.0 4000.0 4000.0 4000.0 4000.0 4000.0 4000.0 4000.0 4000.0 4000.0 4000.0 4000.0 4000.0 4000.0 4000.0 4000.0 4000.0 4000.0 4000.0 4000.0 4000.0 4000.0 4000.0 4000.0 4000.0 4000.0 4000.0 4000.0 4000.0 4000.0 4000.0 4000.0 4000.0 4000.0 4000.0 4000.0 4000.0 4000.0 4000.0 4000.0 4000.0 4000.0 4000.0 4000.0 4000.0 4000.0 4000.0 4000.0 4000.0 4000.0 4000.0 4000.0 4000.0 4000.0 4000.0 4000.0 4000.0 4000.0 4000.0 4000.0 4000.0 4000.0 4000.0 4000.0 4000.0 4000.0 4000.0 4000.0 4000.0 4000.0 4000.0 4000.0 4000.0 4000.0 4000.0 4000.0 4000.0 4000.0 4000.0 4000.0 4000.0 4000.0 4000.0 4000.0 4000.0 4000.0 4000.0 4000.0 4000.0 4000.0 4000.0 4000.0 4000.0 4000.0 4000.0 4000.0 4000.0 4000.0 4000.0 4000.0 4000.0 4000.0 4000.0 4000.0 4000.0 4000.0 4000.0 4000.0 4000.0 4000.0 4000.0 4000.0 4000.0 4000.0 4000.0 4000.0 4000.0 4000.0 4000.0 4000.0 4000.0 4000.0 4000.0 4000.0 4000.0 4000.0 4000.0 4000.0 4000.0 4000.0 4000.0 4000.0 4000.0 4000.0 4000.0 4000.0 4000.0 4000.0 4000.0 4000.0 4000.0 4000.0 4000.0 4000.0 4000.0 4000.0 4000.0 4000.0 4000.0 4000.0 4000.0 4000.0 4000.0 4000.0 4000.0 4000.0 4000.0 4000.0 4000.0 4000.0 4000.0 4000.0 4000.0 4000.0 4000.0 4000.0 4000.0 4000.0 4000.0 4000.0 4000.0 4000.0 4000.0 4000.0 4000.0 4000.0 4000.0 4000.0 4000.0 4000.0 4000.0 4000.0 4000.0 4000.0 4000.0 4000.0 4000.0 4000.0 4000.0 4000.0 4000.0 4000.0 4000.0 4000.0 4000.0 4000.0 4000.0 4000.0 4000.0 4000.0 4000.0 4000.0 4000.0 4000.0 4000.0 4000.0 4000.0 4000.0 4000.0 4000.0 4000.0 4000.0 4000.0 4000.0 4000.0 4000.0 4000.0 4000.0 4000.0 4000.0 4000.0 4000.0 4000.0 4000.0 4000.0 4000.0 4000.0 4000.0 4000.0 4000.0 4000.0 4000.0 4000.0 4000.0 4000.0 4000.0 4000.0 4000.0 4000.0 4000.0 4000.0 4000.0 4000.0 4000.0 4000.0 4000.0 4000.0 4000.0 4000.0 4000.0 4000.0 4000.0 4000.0 4000.0 4000.0 4000.0 4000.0 4000.0 4000.0 4000.0 4000.0 4000.0 4000.0 4000.0 4000.0 4000.0 4000.0 4000.0 4000.0 4000.0 4000.0 4000.0 4000.0 4000.0 4000.0 4000.0 4000.0 4000.0 4000.0 4000.0 4000.0 4000.0 4000.0 4000.0 4000.0 4000.0 4000.0 4000.0 4000.0 4000.0 4000.0 4000.0 4000.0 4000.0 4000.0 4000.0 4000.0 4000.0 4000.0 4000.0 4000.0 4000.0 4000.0 4000.0 4000.0 4000.0 4000.0 4000.0 4000.0 4000.0 4000.0 4000.0 4000.0 4000.0 4000.0 4000.0 4000.0 4000.0 4000.0 4000.0 4000.0 4000.0 4000.0 4000.0 4000.0 4000.0 4000.0 4000.0 4000.0 4000.0 4000.0 4000.0 4000.0 4000.0 4000.0 4000.0 4000.0 4000.0 4000.0 4000.0 4000.0 4000.0 4000.0 4000.0 4000.0 4000.0 4000.0 4000.0 4000.0 4000.0 4000.0 4000.0 4000.0 4000.0 4000.0 4000.0 4000.0 4000.0 4000.0 4000.0 4000.0 4000.0 4000.0 4000.0 4000.0 4000.0 4000.0 4000.0 4000.0 4000.0 4000.0 4000.0 4000.0 4000.0 4000.0 4000.0 4000.0 4000.0 4000.0 4000.0 4000.0 4000.0 4000.0 4000.0 4000.0 4000.0 4000.0 4000.0 4000.0 4000.0 4000.0 4000.0 4000.0 4000.0 4000.0 4000.0 4000.0 4000.0 4000.0 4000.0 4000.0 4000.0 4000.0 4000.0 4000.0 4000.0 4000.0 4000.0 4000.0 4000.0 4000.0 4000.0 4000.0 4000.0 4000.0 4000.0 4000.0 4000.0 4000.0 4000.0 4000.0 4000.0 4000.0 4000.0 4000.0 4000.0 4000.0 4000.0 4000.0 4000.0 4000.0 4000.0 4000.0 4000.0 4000.0 4000.0 4000.0 4000.0 4000.0 4000.0 4000.0 4000.0 4000.0 4000.0 4000.0 4000.0 4000.0 4000.0 4000.0 4000.0 4000.0 4000.0 4000.0 4000.0 4000.0 4000.0 4000.0 4000.0 4000.0 4000.0 4000.0 4000.0 4000.0 4000.0 4000.0 4000.0 4000.0 4000.0 4000.0 4000.0 4000.0 4000.0 4000.0 4000.0 4000.0 4000.0 4000.0 4000.0 4000.0 4000.0 4000.0 4000.0 4000.0 4000.0 4000.0 4000.0 4000.0 4000.0 4000.0 4000.0 4000.0 4000.0 4000.0 4000.0 4000.0 4000.0 4000.0 4000.0 4000.0 4000.0 4000.0 4000.0 4000.0 4000.0 4000.0 4000.0 4000.0 4000.0 4000.0 4000.0 4000.0 4000.0 4000.0 4000.0 4000.0 4000.0 4000.0 4000.0 4000.0 4000.0 4000.0 4000.0 4000.0 4000.0 4000.0 4000.0 4000.0 4000.0 4000.0 4000.0 4000.0 4000.0 4000.0 4000.0 4000.0 4000.0 4000.0 4000.0 4000.0 4000.0 4000.0 4000.0 4000.0 4000.0 4000.0 4000.0 4000.0 4000.0 4000.0 4000.0 4000.0 4000.0 4000.0 4000.0 4000.0 4000.0 4000.0 4000.0 4000.0 4000.0 4000.0 4000.0 4000.0 4000.0 4000.0 4000.0 4000.0 4000.0 4000.0 4000.0 4000.0 4000.0 4000.0 4000.0 4000.0 4000.0 4000.0 4000.0 4000.0 4000.0 4000.0 4000.0 4000.0 4000.0 4000.0 4000.0 4000.0 4000.0 4000.0 4000.0 4000.0 4000.0 4000.0 4000.0 4000.0 4000.0 4000.0 4000.0 4000.0 4000.0 4000.0 4000.0 4000.0 4000.0 4000.0 4000.0 4000.0 4000.0 4000.0 4000.0 4000.0 4000.0 4000.0 4000.0 4000.0 4000.0 4000.0 4000.0 4000.0 4000.0 4000.0 4000.0 4000.0 4000.0 4000.0 4000.0 4000.0 4000.0 4000.0 4000.0 4000.0 4000.0 4000.0 4000.0 4000.0 4000.0 4000.0 4000.0 4000.0 4000.0 4000.0 4000.0 4000.0 4000.0 4000.0 4000.0 4000.0 4000.0 4000.0 4000.0 4000.0 4000.0 4000.0 4000.0 4000.0 4000.0 4000.0 4000.0 4000.0 4000.0 4000.0 4000.0 4000.0 4000.0 4000.0 4000.0 4000.0 4000.0 4000.0 4000.0 4000.0 4000.0 4000.0 4000.0 4000.0 4000.0 4000.0 4000.0 4000.0 4000.0 4000.0 4000.0 4000.0 4000.0 4000.0 4000.0 4000.0 4000.0 4000.0 4000.0 4000.0 4000.0 4000.0 4000.0 4000.0 4000.0 4000.0 4000.0 4000.0 4000.0 4000.0 4000.0 4000.0 4000.0 4000.0 4000.0 4000.0 4000.0 4000.0 4000.0 4000.0 4000.0 4000.0 4000.0 4000.0 4000.0 4000.0 4000.0 4000.0 4000.0 4000.0 4000.0 4000.0 4000.0 4000.0 4000.0 4000.0 4000.0 4000.0 4000.0 4000.0 4000.0 4000.0 4000.0 4000.0 4000.0 4000.0 4000.0 4000.0 4000.0 4000.0 4000.0 4000.0 4000.0 4000.0 4000.0 4000.0 4000.0 4000.0 4000.0 4000.0 4000.0 4000.0 4000.0 4000.0 4000.0 4000.0 4000.0 4000.0 4000.0 4000.0 4000.0 4000.0 4000.0 4000.0 4000.0 4000.0 4000.0 4000.0 4000.0 4000.0 4000.0 4000.0 4000.0 4000.0 4000.0 4000.0 4000.0 4000.0 4000.0 4000.0 4000.0 4000.0 4000.0 4000.0 4000.0 4000.0 4000.0 4000.0 4000.0 4000.0 4000.0 4000.0 4000.0 4000.0 4000.0 4000.0 4000.0 4000.0 4000.0 4000.0 4000.0 4000.0 4000.0 4000.0 4000.0 4000.0 4000.0 4000.0 4000.0 4000.0 4000.0 4000.0 4000.0 4000.0 4000.0 4000.0 4000.0 4000.0 4000.0 4000.0 4000.0 4000.0 4000.0 4000.0 4000.0 4000.0 4000.0 4000.0 4000.0 4000.0 4000.0 4000.0 4000.0 4000.0 4000.0 4000.0 4000.0 4000.0 4000.0 4000.0 4000.0 4000.0 4000.0 4000.0 4000.0 4000.0 4000.0 4000.0 4000.0 4000.0 4000.0 4000.0 4000.0 4000.0 4000.0 4000.0 4000.0 4000.0 4000.0 4000.0 4000.0 4000.0 4000.0 4000.0 4000.0 4000.0 4000.0 4000.0 4000.0 4000.0 4000.0 4000.0 4000.0 4000.0 4000.0 4000.0 4000.0 4000.0 4000.0 4000.0 4000.0 4000.0 4000.0 4000.0 4000.0 4000.0 4000.0 4000.0 4000.0 4000.0 4000.0 4000.0 4000.0 4000.0 4000.0 4000.0 4000.0 4000.0 4000.0 4000.0 4000.0 4000.0 4000.0 4000.0 4000.0 4000.0 4000.0 4000.0 4000.0 4000.0 4000.0 4000.0 4000.0 4000.0 4000.0 4000.0 4000.0 4000.0 4000.0 4000.0 4000.0 4000.0 4000.0 4000.0 4000.0 4000.0 4000.0 4000.0 4000.0 4000.0 4000.0 4000.0 4000.0 4000.0 4000.0 4000.0 4000.0 4000.0 4000.0 4000.0 4000.0 4000.0 4000.0 4000.0 4000.0 4000.0 4000.0 4000.0 4000.0 4000.0 4000.0 4000.0 4000.0 4000.0 4000.0 4000.0 4000.0 4000.0 4000.0 4000.0 4000.0 4000.0 4000.0 4000.0 4000.0 4000.0 4000.0 4000.0 4000.0 4000.0 4000.0 4000.0 4000.0 4000.0 4000.0 4000.0 4000.0 4000.0 4000.0 4000.0 4000.0 4000.0 4000.0 4000.0 4000.0 4000.0 4000.0 4000.0 4000.0 4000.0 4000.0 4000.0 4000.0 4000.0 4000.0 4000.0 4000.0 4000.0 4000.0 4000.0 4000.0 4000.0 4000.0 4000.0 4000.0 4000.0 4000.0 4000.0 4000.0 4000.0 4000.0 4000.0 4000.0 4000.0 4000.0 4000.0 4000.0 4000.0 4000.0 4000.0 4000.0 4000.0 4000.0 4000.0 4000.0 4000.0 4000.0 4000.0 4000.0 4000.0 4000.0 4000.0 4000.0 4000.0 4000.0 4000.0 4000.0 4000.0 4000.0 4000.0 4000.0 4000.0 4000.0 4000.0 4000.0 4000.0 4000.0 4000.0 4000.0 4000.0 4000.0 4000.0 4000.0 4000.0 4000.0 4000.0 4000.0 4000.0 4000.0 4000.0 4000.0 4000.0 4000.0 4000.0 4000.0 4000.0 4000.0 4000.0 4000.0 4000.0 4000.0 4000.0 4000.0 4000.0 4000.0 4000.0 4000.0 4000.0 4000.0 4000.0 4000.0 4000.0 4000.0 4000.0 4000.0 4000.0 4000.0 4000.0 4000.0 4000.0 4000.0 4000.0 4000.0 4000.0 4000.0 4000.0 4000.0 4000.0 4000.0 4000.0 4000.0 4000.0 SCALARS Mass float 1
LOOKUP_TABLE default
11309700000.0 11309700000.0 11309700000.0 11309700000.0 11309700000.0 11309700000.0 11309700000.0 11309700000.0 11309700000.0 11309700000.0 11309700000.0 11309700000.0 11309700000.0 11309700000.0 11309700000.0 11309700000.0 11309700000.0 11309700000.0 11309700000.0 11309700000.0 11309700000.0 11309700000.0 11309700000.0 11309700000.0 11309700000.0 11309700000.0 11309700000.0 11309700000.0 11309700000.0 11309700000.0 11309700000.0 11309700000.0 11309700000.0 11309700000.0 11309700000.0 11309700000.0 11309700000.0 11309700000.0 11309700000.0 11309700000.0 11309700000.0 11309700000.0 11309700000.0 11309700000.0 11309700000.0 11309700000.0 11309700000.0 11309700000.0 11309700000.0 11309700000.0 11309700000.0 11309700000.0 11309700000.0 11309700000.0 11309700000.0 11309700000.0 11309700000.0 11309700000.0 11309700000.0 11309700000.0 11309700000.0 11309700000.0 11309700000.0 11309700000.0 11309700000.0 11309700000.0 11309700000.0 11309700000.0 11309700000.0 11309700000.0 11309700000.0 11309700000.0 11309700000.0 11309700000.0 11309700000.0 11309700000.0 11309700000.0 11309700000.0 11309700000.0 11309700000.0 11309700000.0 11309700000.0 11309700000.0 11309700000.0 11309700000.0 11309700000.0 11309700000.0 11309700000.0 11309700000.0 11309700000.0 11309700000.0 11309700000.0 11309700000.0 11309700000.0 11309700000.0 11309700000.0 11309700000.0 11309700000.0 11309700000.0 11309700000.0 11309700000.0 11309700000.0 11309700000.0 11309700000.0 11309700000.0 11309700000.0 11309700000.0 11309700000.0 11309700000.0 11309700000.0 11309700000.0 11309700000.0 11309700000.0 11309700000.0 11309700000.0 11309700000.0 11309700000.0 11309700000.0 11309700000.0 11309700000.0 11309700000.0 11309700000.0 11309700000.0 11309700000.0 11309700000.0 11309700000.0 11309700000.0 11309700000.0 11309700000.0 11309700000.0 11309700000.0 11309700000.0 11309700000.0 11309700000.0 11309700000.0 11309700000.0 11309700000.0 11309700000.0 11309700000.0 11309700000.0 11309700000.0 11309700000.0 11309700000.0 11309700000.0 11309700000.0 11309700000.0 11309700000.0 11309700000.0 11309700000.0 11309700000.0 11309700000.0 11309700000.0 11309700000.0 11309700000.0 11309700000.0 11309700000.0 11309700000.0 11309700000.0 11309700000.0 11309700000.0 11309700000.0 11309700000.0 11309700000.0 11309700000.0 11309700000.0 11309700000.0 11309700000.0 11309700000.0 11309700000.0 11309700000.0 11309700000.0 11309700000.0 11309700000.0 11309700000.0 11309700000.0 11309700000.0 11309700000.0 11309700000.0 11309700000.0 11309700000.0 11309700000.0 11309700000.0 11309700000.0 11309700000.0 11309700000.0 11309700000.0 11309700000.0 11309700000.0 11309700000.0 11309700000.0 11309700000.0 11309700000.0 11309700000.0 11309700000.0 11309700000.0 11309700000.0 11309700000.0 11309700000.0 11309700000.0 11309700000.0 11309700000.0 11309700000.0 11309700000.0 11309700000.0 11309700000.0 11309700000.0 11309700000.0 11309700000.0 11309700000.0 11309700000.0 11309700000.0 11309700000.0 11309700000.0 11309700000.0 11309700000.0 11309700000.0 11309700000.0 11309700000.0 11309700000.0 11309700000.0 11309700000.0 11309700000.0 11309700000.0 11309700000.0 11309700000.0 11309700000.0 11309700000.0 11309700000.0 11309700000.0 11309700000.0 11309700000.0 11309700000.0 11309700000.0 11309700000.0 11309700000.0 11309700000.0 11309700000.0 11309700000.0 11309700000.0 11309700000.0 11309700000.0 11309700000.0 11309700000.0 11309700000.0 11309700000.0 11309700000.0 11309700000.0 11309700000.0 11309700000.0 11309700000.0 11309700000.0 11309700000.0 11309700000.0 11309700000.0 11309700000.0 11309700000.0 11309700000.0 11309700000.0 11309700000.0 11309700000.0 11309700000.0 11309700000.0 11309700000.0 11309700000.0 11309700000.0 11309700000.0 11309700000.0 11309700000.0 11309700000.0 11309700000.0 11309700000.0 11309700000.0 11309700000.0 11309700000.0 11309700000.0 11309700000.0 11309700000.0 11309700000.0 11309700000.0 11309700000.0 11309700000.0 11309700000.0 11309700000.0 11309700000.0 11309700000.0 11309700000.0 11309700000.0 11309700000.0 11309700000.0 11309700000.0 11309700000.0 11309700000.0 11309700000.0 11309700000.0 11309700000.0 11309700000.0 11309700000.0 11309700000.0 11309700000.0 11309700000.0 11309700000.0 11309700000.0 11309700000.0 11309700000.0 11309700000.0 11309700000.0 11309700000.0 11309700000.0 11309700000.0 11309700000.0 11309700000.0 11309700000.0 11309700000.0 11309700000.0 11309700000.0 11309700000.0 11309700000.0 11309700000.0 11309700000.0 11309700000.0 11309700000.0 11309700000.0 11309700000.0 11309700000.0 11309700000.0 11309700000.0 11309700000.0 11309700000.0 11309700000.0 11309700000.0 11309700000.0 11309700000.0 11309700000.0 11309700000.0 11309700000.0 11309700000.0 11309700000.0 11309700000.0 11309700000.0 11309700000.0 11309700000.0 11309700000.0 11309700000.0 11309700000.0 11309700000.0 11309700000.0 11309700000.0 11309700000.0 11309700000.0 11309700000.0 11309700000.0 11309700000.0 11309700000.0 11309700000.0 11309700000.0 11309700000.0 11309700000.0 11309700000.0 11309700000.0 11309700000.0 11309700000.0 11309700000.0 11309700000.0 11309700000.0 11309700000.0 11309700000.0 11309700000.0 11309700000.0 11309700000.0 11309700000.0 11309700000.0 11309700000.0 11309700000.0 11309700000.0 11309700000.0 11309700000.0 11309700000.0 11309700000.0 11309700000.0 11309700000.0 11309700000.0 11309700000.0 11309700000.0 11309700000.0 11309700000.0 11309700000.0 11309700000.0 11309700000.0 11309700000.0 11309700000.0 11309700000.0 11309700000.0 11309700000.0 11309700000.0 11309700000.0 11309700000.0 11309700000.0 11309700000.0 11309700000.0 11309700000.0 11309700000.0 11309700000.0 11309700000.0 11309700000.0 11309700000.0 11309700000.0 11309700000.0 11309700000.0 11309700000.0 11309700000.0 11309700000.0 11309700000.0 11309700000.0 11309700000.0 11309700000.0 11309700000.0 11309700000.0 11309700000.0 11309700000.0 11309700000.0 11309700000.0 11309700000.0 11309700000.0 11309700000.0 11309700000.0 11309700000.0 11309700000.0 11309700000.0 11309700000.0 11309700000.0 11309700000.0 11309700000.0 11309700000.0 11309700000.0 11309700000.0 11309700000.0 11309700000.0 11309700000.0 11309700000.0 11309700000.0 11309700000.0 11309700000.0 11309700000.0 11309700000.0 11309700000.0 11309700000.0 11309700000.0 11309700000.0 11309700000.0 11309700000.0 11309700000.0 11309700000.0 11309700000.0 11309700000.0 11309700000.0 11309700000.0 11309700000.0 11309700000.0 11309700000.0 11309700000.0 11309700000.0 11309700000.0 11309700000.0 11309700000.0 11309700000.0 11309700000.0 11309700000.0 11309700000.0 11309700000.0 11309700000.0 11309700000.0 11309700000.0 11309700000.0 11309700000.0 11309700000.0 11309700000.0 11309700000.0 11309700000.0 11309700000.0 11309700000.0 11309700000.0 11309700000.0 11309700000.0 11309700000.0 11309700000.0 11309700000.0 11309700000.0 11309700000.0 11309700000.0 11309700000.0 11309700000.0 11309700000.0 11309700000.0 11309700000.0 11309700000.0 11309700000.0 11309700000.0 11309700000.0 11309700000.0 11309700000.0 11309700000.0 11309700000.0 11309700000.0 11309700000.0 11309700000.0 11309700000.0 11309700000.0 11309700000.0 11309700000.0 11309700000.0 11309700000.0 11309700000.0 11309700000.0 11309700000.0 11309700000.0 11309700000.0 11309700000.0 11309700000.0 11309700000.0 11309700000.0 11309700000.0 11309700000.0 11309700000.0 11309700000.0 11309700000.0 11309700000.0 11309700000.0 11309700000.0 11309700000.0 11309700000.0 11309700000.0 11309700000.0 11309700000.0 11309700000.0 11309700000.0 11309700000.0 11309700000.0 11309700000.0 11309700000.0 11309700000.0 11309700000.0 11309700000.0 11309700000.0 11309700000.0 11309700000.0 11309700000.0 11309700000.0 11309700000.0 11309700000.0 11309700000.0 11309700000.0 11309700000.0 11309700000.0 11309700000.0 11309700000.0 11309700000.0 11309700000.0 11309700000.0 11309700000.0 11309700000.0 11309700000.0 11309700000.0 11309700000.0 11309700000.0 11309700000.0 11309700000.0 11309700000.0 11309700000.0 11309700000.0 11309700000.0 11309700000.0 11309700000.0 11309700000.0 11309700000.0 11309700000.0 11309700000.0 11309700000.0 11309700000.0 11309700000.0 11309700000.0 11309700000.0 11309700000.0 11309700000.0 11309700000.0 11309700000.0 11309700000.0 11309700000.0 11309700000.0 11309700000.0 11309700000.0 11309700000.0 11309700000.0 11309700000.0 11309700000.0 11309700000.0 11309700000.0 11309700000.0 11309700000.0 11309700000.0 11309700000.0 11309700000.0 11309700000.0 11309700000.0 11309700000.0 11309700000.0 11309700000.0 11309700000.0 11309700000.0 11309700000.0 11309700000.0 11309700000.0 11309700000.0 11309700000.0 11309700000.0 11309700000.0 11309700000.0 11309700000.0 11309700000.0 11309700000.0 11309700000.0 11309700000.0 11309700000.0 11309700000.0 11309700000.0 11309700000.0 11309700000.0 11309700000.0 11309700000.0 11309700000.0 11309700000.0 11309700000.0 11309700000.0 11309700000.0 11309700000.0 11309700000.0 11309700000.0 11309700000.0 11309700000.0 11309700000.0 11309700000.0 11309700000.0 11309700000.0 11309700000.0 11309700000.0 11309700000.0 11309700000.0 11309700000.0 11309700000.0 11309700000.0 11309700000.0 11309700000.0 11309700000.0 11309700000.0 11309700000.0 11309700000.0 11309700000.0 11309700000.0 11309700000.0 11309700000.0 11309700000.0 11309700000.0 11309700000.0 11309700000.0 11309700000.0 11309700000.0 11309700000.0 11309700000.0 11309700000.0 11309700000.0 11309700000.0 11309700000.0 11309700000.0 11309700000.0 11309700000.0 11309700000.0 11309700000.0 11309700000.0 11309700000.0 11309700000.0 11309700000.0 11309700000.0 11309700000.0 11309700000.0 11309700000.0 11309700000.0 11309700000.0 11309700000.0 11309700000.0 11309700000.0 11309700000.0 11309700000.0 11309700000.0 11309700000.0 11309700000.0 11309700000.0 11309700000.0 11309700000.0 11309700000.0 11309700000.0 11309700000.0 11309700000.0 11309700000.0 11309700000.0 11309700000.0 11309700000.0 11309700000.0 11309700000.0 11309700000.0 11309700000.0 11309700000.0 11309700000.0 11309700000.0 11309700000.0 11309700000.0 11309700000.0 11309700000.0 11309700000.0 11309700000.0 11309700000.0 11309700000.0 11309700000.0 11309700000.0 11309700000.0 11309700000.0 11309700000.0 11309700000.0 11309700000.0 11309700000.0 11309700000.0 11309700000.0 11309700000.0 11309700000.0 11309700000.0 11309700000.0 11309700000.0 11309700000.0 11309700000.0 11309700000.0 11309700000.0 11309700000.0 11309700000.0 11309700000.0 11309700000.0 11309700000.0 11309700000.0 11309700000.0 11309700000.0 11309700000.0 11309700000.0 11309700000.0 11309700000.0 11309700000.0 11309700000.0 11309700000.0 11309700000.0 11309700000.0 11309700000.0 11309700000.0 11309700000.0 11309700000.0 11309700000.0 11309700000.0 11309700000.0 11309700000.0 11309700000.0 11309700000.0 11309700000.0 11309700000.0 11309700000.0 11309700000.0 11309700000.0 11309700000.0 11309700000.0 11309700000.0 11309700000.0 11309700000.0 11309700000.0 11309700000.0 11309700000.0 11309700000.0 11309700000.0 11309700000.0 11309700000.0 11309700000.0 11309700000.0 11309700000.0 11309700000.0 11309700000.0 11309700000.0 11309700000.0 11309700000.0 11309700000.0 11309700000.0 11309700000.0 11309700000.0 11309700000.0 11309700000.0 11309700000.0 11309700000.0 11309700000.0 11309700000.0 11309700000.0 11309700000.0 11309700000.0 11309700000.0 11309700000.0 11309700000.0 11309700000.0 11309700000.0 11309700000.0 11309700000.0 11309700000.0 11309700000.0 11309700000.0 11309700000.0 11309700000.0 11309700000.0 11309700000.0 11309700000.0 11309700000.0 11309700000.0 11309700000.0 11309700000.0 11309700000.0 11309700000.0 11309700000.0 11309700000.0 11309700000.0 11309700000.0 11309700000.0 11309700000.0 11309700000.0 11309700000.0 11309700000.0 11309700000.0 11309700000.0 11309700000.0 11309700000.0 11309700000.0 11309700000.0 11309700000.0 11309700000.0 11309700000.0 11309700000.0 11309700000.0 11309700000.0 11309700000.0 11309700000.0 11309700000.0 11309700000.0 11309700000.0 11309700000.0 11309700000.0 11309700000.0 11309700000.0 11309700000.0 11309700000.0 11309700000.0 11309700000.0 11309700000.0 11309700000.0 11309700000.0 11309700000.0 11309700000.0 11309700000.0 11309700000.0 11309700000.0 11309700000.0 11309700000.0 11309700000.0 11309700000.0 11309700000.0 11309700000.0 11309700000.0 11309700000.0 11309700000.0 11309700000.0 11309700000.0 11309700000.0 11309700000.0 11309700000.0 11309700000.0 11309700000.0 11309700000.0 11309700000.0 11309700000.0 11309700000.0 11309700000.0 11309700000.0 11309700000.0 11309700000.0 11309700000.0 11309700000.0 11309700000.0 11309700000.0 11309700000.0 11309700000.0 11309700000.0 11309700000.0 11309700000.0 11309700000.0 11309700000.0 11309700000.0 11309700000.0 11309700000.0 11309700000.0 11309700000.0 11309700000.0 11309700000.0 11309700000.0 11309700000.0 11309700000.0 11309700000.0 11309700000.0 11309700000.0 11309700000.0 11309700000.0 11309700000.0 11309700000.0 11309700000.0 11309700000.0 11309700000.0 11309700000.0 11309700000.0 11309700000.0 11309700000.0 11309700000.0 11309700000.0 11309700000.0 11309700000.0 11309700000.0 11309700000.0 11309700000.0 11309700000.0 11309700000.0 11309700000.0 11309700000.0 11309700000.0 11309700000.0 11309700000.0 11309700000.0 11309700000.0 11309700000.0 11309700000.0 11309700000.0 11309700000.0 11309700000.0 11309700000.0 11309700000.0 11309700000.0 11309700000.0 11309700000.0 11309700000.0 11309700000.0 11309700000.0 11309700000.0 11309700000.0 11309700000.0 11309700000.0 11309700000.0 11309700000.0 11309700000.0 11309700000.0 11309700000.0 11309700000.0 11309700000.0 11309700000.0 11309700000.0 11309700000.0 11309700000.0 11309700000.0 11309700000.0 11309700000.0 11309700000.0 11309700000.0 11309700000.0 11309700000.0 11309700000.0 11309700000.0 11309700000.0 11309700000.0 11309700000.0 11309700000.0 11309700000.0 11309700000.0 11309700000.0 11309700000.0 11309700000.0 11309700000.0 11309700000.0 11309700000.0 11309700000.0 11309700000.0 11309700000.0 11309700000.0 11309700000.0 11309700000.0 11309700000.0 11309700000.0 11309700000.0 11309700000.0 11309700000.0 11309700000.0 11309700000.0 11309700000.0 11309700000.0 11309700000.0 11309700000.0 11309700000.0 11309700000.0 11309700000.0 11309700000.0 11309700000.0 11309700000.0 11309700000.0 11309700000.0 11309700000.0 11309700000.0 11309700000.0 11309700000.0 11309700000.0 11309700000.0 11309700000.0 11309700000.0 11309700000.0 11309700000.0 11309700000.0 11309700000.0 11309700000.0 11309700000.0 11309700000.0 11309700000.0 11309700000.0 11309700000.0 11309700000.0 11309700000.0 11309700000.0 11309700000.0 11309700000.0 11309700000.0 11309700000.0 11309700000.0 11309700000.0 11309700000.0 11309700000.0 11309700000.0 11309700000.0 11309700000.0 11309700000.0 11309700000.0 11309700000.0 11309700000.0 11309700000.0 11309700000.0 11309700000.0 11309700000.0 11309700000.0 11309700000.0 11309700000.0 11309700000.0 11309700000.0 11309700000.0 11309700000.0 11309700000.0 11309700000.0 11309700000.0 11309700000.0 11309700000.0 11309700000.0 11309700000.0 11309700000.0 11309700000.0 11309700000.0 11309700000.0 11309700000.0 11309700000.0 11309700000.0 11309700000.0 11309700000.0 11309700000.0 11309700000.0 11309700000.0 11309700000.0 11309700000.0 11309700000.0 11309700000.0 11309700000.0 11309700000.0 11309700000.0 11309700000.0 11309700000.0 11309700000.0 11309700000.0 11309700000.0 11309700000.0 11309700000.0 11309700000.0 11309700000.0 11309700000.0 11309700000.0 11309700000.0 11309700000.0 11309700000.0 11309700000.0 11309700000.0 11309700000.0 11309700000.0 11309700000.0 11309700000.0 11309700000.0 11309700000.0 11309700000.0 11309700000.0 11309700000.0 11309700000.0 11309700000.0 11309700000.0 11309700000.0 11309700000.0 11309700000.0 11309700000.0 11309700000.0 11309700000.0 11309700000.0 11309700000.0 11309700000.0 11309700000.0 11309700000.0 11309700000.0 11309700000.0 11309700000.0 11309700000.0 11309700000.0 11309700000.0 11309700000.0 11309700000.0 11309700000.0 11309700000.0 11309700000.0 11309700000.0 11309700000.0 11309700000.0 11309700000.0 11309700000.0 11309700000.0 11309700000.0 11309700000.0 11309700000.0 11309700000.0 11309700000.0 11309700000.0 11309700000.0 11309700000.0 11309700000.0 11309700000.0 11309700000.0 11309700000.0 11309700000.0 11309700000.0 11309700000.0 11309700000.0 11309700000.0 11309700000.0 11309700000.0 11309700000.0 11309700000.0 11309700000.0 11309700000.0 11309700000.0 11309700000.0 11309700000.0 11309700000.0 11309700000.0 11309700000.0 11309700000.0 11309700000.0 11309700000.0 11309700000.0 11309700000.0 11309700000.0 11309700000.0 11309700000.0 11309700000.0 11309700000.0 11309700000.0 11309700000.0 11309700000.0 11309700000.0 11309700000.0 11309700000.0 11309700000.0 11309700000.0 11309700000.0 11309700000.0 11309700000.0 11309700000.0 11309700000.0 11309700000.0 11309700000.0 11309700000.0 11309700000.0 11309700000.0 11309700000.0 11309700000.0 11309700000.0 11309700000.0 11309700000.0 11309700000.0 11309700000.0 11309700000.0 11309700000.0 11309700000.0 11309700000.0 11309700000.0 11309700000.0 11309700000.0 11309700000.0 11309700000.0 11309700000.0 11309700000.0 11309700000.0 11309700000.0 11309700000.0 11309700000.0 11309700000.0 11309700000.0 11309700000.0 11309700000.0 11309700000.0 11309700000.0 11309700000.0 11309700000.0 11309700000.0 11309700000.0 11309700000.0 11309700000.0 11309700000.0 11309700000.0 11309700000.0 11309700000.0 11309700000.0 11309700000.0 11309700000.0 11309700000.0 11309700000.0 11309700000.0 11309700000.0 11309700000.0 11309700000.0 11309700000.0 11309700000.0 11309700000.0 11309700000.0 11309700000.0 11309700000.0 11309700000.0 11309700000.0 11309700000.0 11309700000.0 11309700000.0 11309700000.0 11309700000.0 11309700000.0 11309700000.0 11309700000.0 11309700000.0 11309700000.0 11309700000.0 11309700000.0 11309700000.0 11309700000.0 11309700000.0 11309700000.0 11309700000.0 11309700000.0 11309700000.0 11309700000.0 11309700000.0 11309700000.0 11309700000.0 11309700000.0 11309700000.0 11309700000.0 11309700000.0 11309700000.0 11309700000.0 11309700000.0 11309700000.0 11309700000.0 11309700000.0 11309700000.0 11309700000.0 11309700000.0 11309700000.0 11309700000.0 11309700000.0 11309700000.0 11309700000.0 11309700000.0 11309700000.0 11309700000.0 11309700000.0 11309700000.0 11309700000.0 11309700000.0 11309700000.0 11309700000.0 11309700000.0 11309700000.0 11309700000.0 11309700000.0 11309700000.0 11309700000.0 11309700000.0 11309700000.0 11309700000.0 11309700000.0 11309700000.0 11309700000.0 11309700000.0 11309700000.0 11309700000.0 11309700000.0 11309700000.0 11309700000.0 11309700000.0 11309700000.0 11309700000.0 11309700000.0 11309700000.0 11309700000.0 11309700000.0 11309700000.0 11309700000.0 11309700000.0 11309700000.0 11309700000.0 11309700000.0 11309700000.0 11309700000.0 11309700000.0 11309700000.0 11309700000.0 11309700000.0 11309700000.0 11309700000.0 11309700000.0 11309700000.0 11309700000.0 11309700000.0 11309700000.0 11309700000.0 11309700000.0 11309700000.0 11309700000.0 11309700000.0 11309700000.0 11309700000.0 11309700000.0 11309700000.0 11309700000.0 11309700000.0 11309700000.0 11309700000.0 11309700000.0 11309700000.0 11309700000.0 11309700000.0 11309700000.0 11309700000.0 11309700000.0 11309700000.0 11309700000.0 11309700000.0 11309700000.0 11309700000.0 11309700000.0 11309700000.0 11309700000.0 11309700000.0 11309700000.0 11309700000.0 11309700000.0 11309700000.0 11309700000.0 11309700000.0 11309700000.0 11309700000.0 11309700000.0 11309700000.0 11309700000.0 11309700000.0 11309700000.0 11309700000.0 11309700000.0 11309700000.0 11309700000.0 11309700000.0 11309700000.0 11309700000.0 11309700000.0 11309700000.0 11309700000.0 11309700000.0 11309700000.0 11309700000.0 11309700000.0 11309700000.0 11309700000.0 11309700000.0 11309700000.0 11309700000.0 11309700000.0 11309700000.0 11309700000.0 11309700000.0 11309700000.0 11309700000.0 11309700000.0 11309700000.0 11309700000.0 11309700000.0 11309700000.0 11309700000.0 11309700000.0 11309700000.0 11309700000.0 11309700000.0 11309700000.0 11309700000.0 11309700000.0 11309700000.0 11309700000.0 11309700000.0 11309700000.0 11309700000.0 11309700000.0 11309700000.0 11309700000.0 11309700000.0 11309700000.0 11309700000.0 11309700000.0 11309700000.0 11309700000.0 11309700000.0 11309700000.0 11309700000.0 11309700000.0 11309700000.0 11309700000.0 11309700000.0 11309700000.0 11309700000.0 11309700000.0 11309700000.0 11309700000.0 11309700000.0 11309700000.0 11309700000.0 11309700000.0 11309700000.0 11309700000.0 11309700000.0 11309700000.0 11309700000.0 11309700000.0 11309700000.0 11309700000.0 11309700000.0 11309700000.0 11309700000.0 11309700000.0 11309700000.0 11309700000.0 11309700000.0 11309700000.0 11309700000.0 11309700000.0 11309700000.0 11309700000.0 11309700000.0 11309700000.0 11309700000.0 11309700000.0 11309700000.0 11309700000.0 11309700000.0 11309700000.0 11309700000.0 11309700000.0 11309700000.0 11309700000.0 11309700000.0 11309700000.0 11309700000.0 11309700000.0 11309700000.0 11309700000.0 11309700000.0 11309700000.0 11309700000.0 11309700000.0 11309700000.0 11309700000.0 11309700000.0 11309700000.0 11309700000.0 11309700000.0 11309700000.0 11309700000.0 11309700000.0 11309700000.0 11309700000.0 11309700000.0 11309700000.0 11309700000.0 11309700000.0 11309700000.0 11309700000.0 11309700000.0 11309700000.0 11309700000.0 11309700000.0 11309700000.0 11309700000.0 11309700000.0 11309700000.0 11309700000.0 11309700000.0 11309700000.0 11309700000.0 11309700000.0 11309700000.0 11309700000.0 11309700000.0 11309700000.0 11309700000.0 11309700000.0 11309700000.0 11309700000.0 11309700000.0 11309700000.0 11309700000.0 11309700000.0 11309700000.0 11309700000.0 11309700000.0 11309700000.0 11309700000.0 11309700000.0 11309700000.0 11309700000.0 11309700000.0 11309700000.0 11309700000.0 11309700000.0 11309700000.0 11309700000.0 11309700000.0 11309700000.0 11309700000.0 11309700000.0 11309700000.0 11309700000.0 11309700000.0 11309700000.0 11309700000.0 11309700000.0 11309700000.0 11309700000.0 11309700000.0 11309700000.0 11309700000.0 11309700000.0 11309700000.0 11309700000.0 11309700000.0 11309700000.0 11309700000.0 11309700000.0 11309700000.0 11309700000.0 11309700000.0 11309700000.0 11309700000.0 11309700000.0 11309700000.0 11309700000.0 11309700000.0 11309700000.0 11309700000.0 11309700000.0 11309700000.0 11309700000.0 11309700000.0 11309700000.0 11309700000.0 11309700000.0 11309700000.0 11309700000.0 11309700000.0 11309700000.0 11309700000.0 11309700000.0 11309700000.0 11309700000.0 11309700000.0 11309700000.0 11309700000.0 11309700000.0 11309700000.0 11309700000.0 11309700000.0 11309700000.0 11309700000.0 11309700000.0 11309700000.0 11309700000.0 11309700000.0 11309700000.0 11309700000.0 11309700000.0 11309700000.0 11309700000.0 11309700000.0 11309700000.0 11309700000.0 11309700000.0 11309700000.0 11309700000.0 11309700000.0 11309700000.0 11309700000.0 11309700000.0 11309700000.0 11309700000.0 11309700000.0 11309700000.0 11309700000.0 11309700000.0 11309700000.0 11309700000.0 11309700000.0 11309700000.0 11309700000.0 11309700000.0 11309700000.0 11309700000.0 11309700000.0 11309700000.0 11309700000.0 11309700000.0 11309700000.0 11309700000.0 11309700000.0 11309700000.0 11309700000.0 11309700000.0 11309700000.0 11309700000.0 11309700000.0 11309700000.0 11309700000.0 11309700000.0 11309700000.0 11309700000.0 11309700000.0 11309700000.0 11309700000.0 11309700000.0 11309700000.0 11309700000.0 11309700000.0 11309700000.0 11309700000.0 11309700000.0 11309700000.0 11309700000.0 11309700000.0 11309700000.0 11309700000.0 11309700000.0 11309700000.0 11309700000.0 11309700000.0 11309700000.0 11309700000.0 11309700000.0 11309700000.0 11309700000.0 11309700000.0 11309700000.0 11309700000.0 11309700000.0 11309700000.0 11309700000.0 11309700000.0 11309700000.0 11309700000.0 11309700000.0 11309700000.0 11309700000.0 11309700000.0 11309700000.0 11309700000.0 11309700000.0 11309700000.0 11309700000.0 11309700000.0 11309700000.0 11309700000.0 11309700000.0 11309700000.0 11309700000.0 11309700000.0 11309700000.0 11309700000.0 11309700000.0 11309700000.0 11309700000.0 11309700000.0 11309700000.0 11309700000.0 11309700000.0 11309700000.0 11309700000.0 11309700000.0 11309700000.0 11309700000.0 11309700000.0 11309700000.0 11309700000.0 11309700000.0 11309700000.0 11309700000.0 11309700000.0 11309700000.0 11309700000.0 11309700000.0 11309700000.0 11309700000.0 11309700000.0 11309700000.0 11309700000.0 11309700000.0 11309700000.0 11309700000.0 11309700000.0 11309700000.0 11309700000.0 11309700000.0 11309700000.0 11309700000.0 11309700000.0 11309700000.0 11309700000.0 11309700000.0 11309700000.0 11309700000.0 11309700000.0 11309700000.0 11309700000.0 11309700000.0 11309700000.0 11309700000.0 11309700000.0 11309700000.0 11309700000.0 11309700000.0 11309700000.0 11309700000.0 11309700000.0 11309700000.0 11309700000.0 11309700000.0 11309700000.0 11309700000.0 11309700000.0 11309700000.0 11309700000.0 11309700000.0 11309700000.0 11309700000.0 11309700000.0 11309700000.0 11309700000.0 11309700000.0 11309700000.0 11309700000.0 11309700000.0 11309700000.0 11309700000.0 11309700000.0 11309700000.0 11309700000.0 11309700000.0 11309700000.0 11309700000.0 11309700000.0 11309700000.0 11309700000.0 11309700000.0 11309700000.0 11309700000.0 11309700000.0 11309700000.0 11309700000.0 11309700000.0 11309700000.0 11309700000.0 11309700000.0 11309700000.0 11309700000.0 11309700000.0 11309700000.0 11309700000.0 11309700000.0 11309700000.0 11309700000.0 11309700000.0 11309700000.0 11309700000.0 11309700000.0 11309700000.0 11309700000.0 11309700000.0 11309700000.0 11309700000.0 11309700000.0 11309700000.0 11309700000.0 11309700000.0 11309700000.0 11309700000.0 11309700000.0 11309700000.0 11309700000.0 11309700000.0 11309700000.0 11309700000.0 11309700000.0 11309700000.0 11309700000.0 11309700000.0 11309700000.0 11309700000.0 11309700000.0 11309700000.0 11309700000.0 11309700000.0 11309700000.0 11309700000.0 11309700000.0 11309700000.0 11309700000.0 11309700000.0 11309700000.0 11309700000.0 11309700000.0 11309700000.0 11309700000.0 11309700000.0 11309700000.0 11309700000.0 11309700000.0 11309700000.0 11309700000.0 11309700000.0 11309700000.0 11309700000.0 11309700000.0 11309700000.0 11309700000.0 11309700000.0 11309700000.0 11309700000.0 11309700000.0 11309700000.0 11309700000.0 11309700000.0 11309700000.0 11309700000.0 11309700000.0 11309700000.0 11309700000.0 11309700000.0 11309700000.0 11309700000.0 11309700000.0 11309700000.0 11309700000.0 11309700000.0 11309700000.0 11309700000.0 11309700000.0 11309700000.0 11309700000.0 11309700000.0 11309700000.0 11309700000.0 11309700000.0 11309700000.0 11309700000.0 11309700000.0 11309700000.0 11309700000.0 11309700000.0 11309700000.0 11309700000.0 11309700000.0 11309700000.0 11309700000.0 11309700000.0 11309700000.0 11309700000.0 11309700000.0 11309700000.0 11309700000.0 11309700000.0 11309700000.0 11309700000.0 11309700000.0 11309700000.0 11309700000.0 11309700000.0 11309700000.0 11309700000.0 11309700000.0 11309700000.0 11309700000.0 11309700000.0 11309700000.0 11309700000.0 11309700000.0 11309700000.0 11309700000.0 11309700000.0 11309700000.0 11309700000.0 11309700000.0 11309700000.0 11309700000.0 11309700000.0 11309700000.0 11309700000.0 11309700000.0 11309700000.0 11309700000.0 11309700000.0 11309700000.0 11309700000.0 11309700000.0 11309700000.0 11309700000.0 11309700000.0 11309700000.0 11309700000.0 11309700000.0 11309700000.0 11309700000.0 11309700000.0 11309700000.0 11309700000.0 11309700000.0 11309700000.0 11309700000.0 11309700000.0 11309700000.0 11309700000.0 11309700000.0 11309700000.0 11309700000.0 11309700000.0 11309700000.0 11309700000.0 11309700000.0 11309700000.0 11309700000.0 11309700000.0 11309700000.0 11309700000.0 11309700000.0 11309700000.0 11309700000.0 11309700000.0 11309700000.0 11309700000.0 11309700000.0 11309700000.0 11309700000.0 11309700000.0 11309700000.0 11309700000.0 11309700000.0 11309700000.0 11309700000.0 11309700000.0 11309700000.0 11309700000.0 11309700000.0 11309700000.0 11309700000.0 11309700000.0 11309700000.0 11309700000.0 11309700000.0 11309700000.0 11309700000.0 11309700000.0 11309700000.0 11309700000.0 11309700000.0 11309700000.0 11309700000.0 11309700000.0 11309700000.0 11309700000.0 11309700000.0 11309700000.0 11309700000.0 11309700000.0 11309700000.0 11309700000.0 11309700000.0 11309700000.0 11309700000.0 11309700000.0 11309700000.0 11309700000.0 11309700000.0 11309700000.0 11309700000.0 11309700000.0 11309700000.0 11309700000.0 11309700000.0 11309700000.0 11309700000.0 11309700000.0 11309700000.0 11309700000.0 11309700000.0 11309700000.0 11309700000.0 11309700000.0 11309700000.0 11309700000.0 11309700000.0 11309700000.0 11309700000.0 11309700000.0 11309700000.0 11309700000.0 11309700000.0 11309700000.0 11309700000.0 11309700000.0 11309700000.0 11309700000.0 11309700000.0 11309700000.0 11309700000.0 11309700000.0 11309700000.0 11309700000.0 11309700000.0 11309700000.0 11309700000.0 11309700000.0 11309700000.0 11309700000.0 11309700000.0 11309700000.0 11309700000.0 11309700000.0 11309700000.0 11309700000.0 11309700000.0 11309700000.0 11309700000.0 11309700000.0 11309700000.0 11309700000.0 11309700000.0 11309700000.0 11309700000.0 11309700000.0 11309700000.0 11309700000.0 11309700000.0 11309700000.0 11309700000.0 11309700000.0 11309700000.0 11309700000.0 11309700000.0 11309700000.0 11309700000.0 11309700000.0 11309700000.0 11309700000.0 11309700000.0 11309700000.0 11309700000.0 11309700000.0 11309700000.0 11309700000.0 11309700000.0 11309700000.0 11309700000.0 11309700000.0 11309700000.0 11309700000.0 11309700000.0 11309700000.0 11309700000.0 11309700000.0 11309700000.0 11309700000.0 11309700000.0 11309700000.0 11309700000.0 11309700000.0 11309700000.0 11309700000.0 11309700000.0 11309700000.0 11309700000.0 11309700000.0 11309700000.0 11309700000.0 11309700000.0 11309700000.0 11309700000.0 11309700000.0 11309700000.0 11309700000.0 11309700000.0 11309700000.0 11309700000.0 11309700000.0 11309700000.0 11309700000.0 11309700000.0 11309700000.0 11309700000.0 11309700000.0 11309700000.0 11309700000.0 11309700000.0 11309700000.0 11309700000.0 11309700000.0 11309700000.0 11309700000.0 11309700000.0 11309700000.0 11309700000.0 11309700000.0 11309700000.0 11309700000.0 11309700000.0 11309700000.0 11309700000.0 11309700000.0 11309700000.0 11309700000.0 11309700000.0 11309700000.0 11309700000.0 11309700000.0 11309700000.0 11309700000.0 11309700000.0 11309700000.0 11309700000.0 11309700000.0 11309700000.0 11309700000.0 11309700000.0 11309700000.0 11309700000.0 11309700000.0 11309700000.0 11309700000.0 11309700000.0 11309700000.0 11309700000.0 11309700000.0 11309700000.0 11309700000.0 11309700000.0 11309700000.0 11309700000.0 11309700000.0 11309700000.0 11309700000.0 11309700000.0 11309700000.0 11309700000.0 11309700000.0 11309700000.0 11309700000.0 11309700000.0 11309700000.0 11309700000.0 11309700000.0 11309700000.0 11309700000.0 11309700000.0 11309700000.0 11309700000.0 11309700000.0 11309700000.0 11309700000.0 11309700000.0 11309700000.0 11309700000.0 11309700000.0 11309700000.0 11309700000.0 11309700000.0 11309700000.0 11309700000.0 11309700000.0 11309700000.0 11309700000.0 11309700000.0 11309700000.0 11309700000.0 11309700000.0 11309700000.0 11309700000.0 11309700000.0 11309700000.0 11309700000.0 11309700000.0 11309700000.0 11309700000.0 11309700000.0 11309700000.0 11309700000.0 11309700000.0 11309700000.0 11309700000.0 11309700000.0 11309700000.0 11309700000.0 11309700000.0 11309700000.0 11309700000.0 11309700000.0 11309700000.0 11309700000.0 11309700000.0 11309700000.0 11309700000.0 11309700000.0 11309700000.0 11309700000.0 11309700000.0 11309700000.0 11309700000.0 11309700000.0 11309700000.0 11309700000.0 11309700000.0 11309700000.0 11309700000.0 11309700000.0 11309700000.0 11309700000.0 11309700000.0 11309700000.0 11309700000.0 11309700000.0 11309700000.0 11309700000.0 11309700000.0 11309700000.0 11309700000.0 11309700000.0 11309700000.0 11309700000.0 11309700000.0 11309700000.0 11309700000.0 11309700000.0 11309700000.0 11309700000.0 11309700000.0 11309700000.0 11309700000.0 11309700000.0 11309700000.0 11309700000.0 11309700000.0 11309700000.0 11309700000.0 11309700000.0 11309700000.0 11309700000.0 11309700000.0 11309700000.0 11309700000.0 11309700000.0 11309700000.0 11309700000.0 11309700000.0 11309700000.0 11309700000.0 11309700000.0 11309700000.0 11309700000.0 11309700000.0 11309700000.0 11309700000.0 11309700000.0 11309700000.0 11309700000.0 11309700000.0 11309700000.0 11309700000.0 11309700000.0 11309700000.0 11309700000.0 11309700000.0 11309700000.0 11309700000.0 11309700000.0 11309700000.0 11309700000.0 11309700000.0 11309700000.0 11309700000.0 11309700000.0 11309700000.0 11309700000.0 11309700000.0 11309700000.0 11309700000.0 11309700000.0 11309700000.0 11309700000.0 11309700000.0 11309700000.0 11309700000.0 11309700000.0 11309700000.0 11309700000.0 11309700000.0 11309700000.0 11309700000.0 11309700000.0 11309700000.0 11309700000.0 11309700000.0 11309700000.0 11309700000.0 11309700000.0 11309700000.0 11309700000.0 11309700000.0 11309700000.0 11309700000.0 11309700000.0 11309700000.0 11309700000.0 11309700000.0 11309700000.0 11309700000.0 11309700000.0 11309700000.0 11309700000.0 11309700000.0 11309700000.0 11309700000.0 11309700000.0 11309700000.0 11309700000.0 11309700000.0 11309700000.0 11309700000.0 11309700000.0 11309700000.0 11309700000.0 11309700000.0 11309700000.0 11309700000.0 11309700000.0 11309700000.0 11309700000.0 11309700000.0 11309700000.0 11309700000.0 11309700000.0 11309700000.0 11309700000.0 11309700000.0 11309700000.0 11309700000.0 11309700000.0 11309700000.0 11309700000.0 11309700000.0 11309700000.0 11309700000.0 11309700000.0 11309700000.0 11309700000.0 11309700000.0 11309700000.0 11309700000.0 11309700000.0 11309700000.0 11309700000.0 11309700000.0 11309700000.0 11309700000.0 11309700000.0 11309700000.0 11309700000.0 11309700000.0 11309700000.0 11309700000.0 11309700000.0 11309700000.0 11309700000.0 11309700000.0 11309700000.0 11309700000.0 11309700000.0 11309700000.0 11309700000.0 11309700000.0 11309700000.0 11309700000.0 11309700000.0 11309700000.0 11309700000.0 11309700000.0 11309700000.0 11309700000.0 11309700000.0 11309700000.0 11309700000.0 11309700000.0 11309700000.0 11309700000.0 11309700000.0 11309700000.0 11309700000.0 11309700000.0 11309700000.0 11309700000.0 11309700000.0 11309700000.0 11309700000.0 11309700000.0 11309700000.0 11309700000.0 11309700000.0 11309700000.0 11309700000.0 11309700000.0 11309700000.0 11309700000.0 11309700000.0 11309700000.0 11309700000.0 11309700000.0 11309700000.0 11309700000.0 11309700000.0 11309700000.0 11309700000.0 11309700000.0 11309700000.0 11309700000.0 11309700000.0 11309700000.0 11309700000.0 11309700000.0 11309700000.0 11309700000.0 11309700000.0 11309700000.0 11309700000.0 11309700000.0 11309700000.0 11309700000.0 11309700000.0 11309700000.0 11309700000.0 11309700000.0 11309700000.0 11309700000.0 11309700000.0 11309700000.0 11309700000.0 11309700000.0 11309700000.0 11309700000.0 11309700000.0 11309700000.0 11309700000.0 11309700000.0 11309700000.0 11309700000.0 11309700000.0 11309700000.0 11309700000.0 11309700000.0 11309700000.0 11309700000.0 11309700000.0 11309700000.0 11309700000.0 11309700000.0 11309700000.0 11309700000.0 11309700000.0 11309700000.0 11309700000.0 11309700000.0 11309700000.0 11309700000.0 11309700000.0 11309700000.0 11309700000.0 11309700000.0 11309700000.0 11309700000.0 11309700000.0 11309700000.0 11309700000.0 11309700000.0 11309700000.0 11309700000.0 11309700000.0 11309700000.0 11309700000.0 11309700000.0 11309700000.0 11309700000.0 11309700000.0 11309700000.0 11309700000.0 11309700000.0 11309700000.0 11309700000.0 11309700000.0 11309700000.0 11309700000.0 11309700000.0 11309700000.0 11309700000.0 11309700000.0 11309700000.0 11309700000.0 11309700000.0 11309700000.0 11309700000.0 11309700000.0 11309700000.0 11309700000.0 11309700000.0 11309700000.0 11309700000.0 11309700000.0 11309700000.0 11309700000.0 11309700000.0 11309700000.0 11309700000.0 11309700000.0 11309700000.0 11309700000.0 11309700000.0 11309700000.0 11309700000.0 11309700000.0 11309700000.0 11309700000.0 11309700000.0 11309700000.0 11309700000.0 11309700000.0 11309700000.0 11309700000.0 11309700000.0 11309700000.0 11309700000.0 11309700000.0 11309700000.0 11309700000.0 11309700000.0 11309700000.0 11309700000.0 11309700000.0 11309700000.0 11309700000.0 11309700000.0 11309700000.0 11309700000.0 11309700000.0 11309700000.0 11309700000.0 11309700000.0 11309700000.0 11309700000.0 11309700000.0 11309700000.0 11309700000.0 11309700000.0 11309700000.0 11309700000.0 11309700000.0 11309700000.0 11309700000.0 11309700000.0 11309700000.0 11309700000.0 11309700000.0 11309700000.0 11309700000.0 11309700000.0 11309700000.0 11309700000.0 11309700000.0 11309700000.0 11309700000.0 11309700000.0 11309700000.0 11309700000.0 11309700000.0 11309700000.0 11309700000.0 11309700000.0 11309700000.0 11309700000.0 11309700000.0 11309700000.0 11309700000.0 11309700000.0 11309700000.0 11309700000.0 11309700000.0 11309700000.0 11309700000.0 11309700000.0 11309700000.0 11309700000.0 11309700000.0 11309700000.0 11309700000.0 11309700000.0 11309700000.0 11309700000.0 11309700000.0 11309700000.0 11309700000.0 11309700000.0 11309700000.0 11309700000.0 11309700000.0 11309700000.0 11309700000.0 11309700000.0 11309700000.0 11309700000.0 11309700000.0 11309700000.0 11309700000.0 11309700000.0 11309700000.0 11309700000.0 11309700000.0 11309700000.0 11309700000.0 11309700000.0 11309700000.0 11309700000.0 11309700000.0 11309700000.0 11309700000.0 11309700000.0 11309700000.0 11309700000.0 11309700000.0 11309700000.0 11309700000.0 11309700000.0 11309700000.0 11309700000.0 11309700000.0 11309700000.0 11309700000.0 11309700000.0 11309700000.0 11309700000.0 11309700000.0 11309700000.0 11309700000.0 11309700000.0 11309700000.0 11309700000.0 11309700000.0 11309700000.0 11309700000.0 11309700000.0 11309700000.0 11309700000.0 11309700000.0 11309700000.0 11309700000.0 11309700000.0 11309700000.0 11309700000.0 11309700000.0 11309700000.0 11309700000.0 11309700000.0 11309700000.0 11309700000.0 11309700000.0 11309700000.0 11309700000.0 11309700000.0 11309700000.0 11309700000.0 11309700000.0 11309700000.0 11309700000.0 11309700000.0 11309700000.0 11309700000.0 11309700000.0 11309700000.0 11309700000.0 11309700000.0 11309700000.0 11309700000.0 11309700000.0 11309700000.0 11309700000.0 11309700000.0 11309700000.0 11309700000.0 11309700000.0 11309700000.0 11309700000.0 11309700000.0 11309700000.0 11309700000.0 11309700000.0 11309700000.0 11309700000.0 11309700000.0 11309700000.0 11309700000.0 11309700000.0 11309700000.0 11309700000.0 11309700000.0 11309700000.0 11309700000.0 11309700000.0 11309700000.0 11309700000.0 11309700000.0 11309700000.0 11309700000.0 11309700000.0 11309700000.0 11309700000.0 11309700000.0 11309700000.0 11309700000.0 11309700000.0 11309700000.0 11309700000.0 11309700000.0 11309700000.0 11309700000.0 11309700000.0 11309700000.0 11309700000.0 11309700000.0 11309700000.0 11309700000.0 11309700000.0 11309700000.0 11309700000.0 11309700000.0 11309700000.0 11309700000.0 11309700000.0 11309700000.0 11309700000.0 11309700000.0 11309700000.0 11309700000.0 11309700000.0 11309700000.0 11309700000.0 11309700000.0 11309700000.0 11309700000.0 11309700000.0 11309700000.0 11309700000.0 11309700000.0 11309700000.0 11309700000.0 11309700000.0 11309700000.0 11309700000.0 11309700000.0 11309700000.0 11309700000.0 11309700000.0 11309700000.0 11309700000.0 11309700000.0 11309700000.0 11309700000.0 11309700000.0 11309700000.0 11309700000.0 11309700000.0 11309700000.0 11309700000.0 11309700000.0 11309700000.0 11309700000.0 11309700000.0 11309700000.0 11309700000.0 11309700000.0 11309700000.0 11309700000.0 11309700000.0 11309700000.0 11309700000.0 11309700000.0 11309700000.0 11309700000.0 11309700000.0 11309700000.0 11309700000.0 11309700000.0 11309700000.0 11309700000.0 11309700000.0 11309700000.0 11309700000.0 11309700000.0 11309700000.0 11309700000.0 11309700000.0 11309700000.0 11309700000.0 11309700000.0 11309700000.0 11309700000.0 11309700000.0 11309700000.0 11309700000.0 11309700000.0 11309700000.0 11309700000.0 11309700000.0 11309700000.0 11309700000.0 11309700000.0 11309700000.0 11309700000.0 11309700000.0 11309700000.0 11309700000.0 11309700000.0 11309700000.0 11309700000.0 11309700000.0 11309700000.0 11309700000.0 11309700000.0 11309700000.0 11309700000.0 11309700000.0 11309700000.0 11309700000.0 11309700000.0 11309700000.0 11309700000.0 11309700000.0 11309700000.0 11309700000.0 11309700000.0 11309700000.0 11309700000.0 11309700000.0 11309700000.0 11309700000.0 11309700000.0 11309700000.0 11309700000.0 11309700000.0 11309700000.0 11309700000.0 11309700000.0 11309700000.0 11309700000.0 11309700000.0 11309700000.0 11309700000.0 11309700000.0 11309700000.0 11309700000.0 11309700000.0 11309700000.0 11309700000.0 11309700000.0 11309700000.0 11309700000.0 11309700000.0 11309700000.0 11309700000.0 11309700000.0 11309700000.0 11309700000.0 11309700000.0 11309700000.0 11309700000.0 11309700000.0 11309700000.0 11309700000.0 11309700000.0 11309700000.0 11309700000.0 11309700000.0 11309700000.0 11309700000.0 11309700000.0 11309700000.0 11309700000.0 11309700000.0 11309700000.0 11309700000.0 11309700000.0 11309700000.0 11309700000.0 11309700000.0 11309700000.0 11309700000.0 11309700000.0 11309700000.0 11309700000.0 11309700000.0 11309700000.0 11309700000.0 11309700000.0 11309700000.0 11309700000.0 11309700000.0 11309700000.0 11309700000.0 11309700000.0 11309700000.0 11309700000.0 11309700000.0 11309700000.0 11309700000.0 11309700000.0 11309700000.0 11309700000.0 11309700000.0 11309700000.0 11309700000.0 11309700000.0 11309700000.0 11309700000.0 11309700000.0 11309700000.0 11309700000.0 11309700000.0 11309700000.0 11309700000.0 11309700000.0 11309700000.0 11309700000.0 11309700000.0 11309700000.0 11309700000.0 11309700000.0 11309700000.0 11309700000.0 11309700000.0 11309700000.0 11309700000.0 11309700000.0 11309700000.0 11309700000.0 11309700000.0 11309700000.0 11309700000.0 11309700000.0 11309700000.0 11309700000.0 11309700000.0 11309700000.0 11309700000.0 11309700000.0 11309700000.0 11309700000.0 11309700000.0 11309700000.0 11309700000.0 11309700000.0 11309700000.0 11309700000.0 11309700000.0 11309700000.0 11309700000.0 11309700000.0 11309700000.0 11309700000.0 11309700000.0 11309700000.0 11309700000.0 11309700000.0 11309700000.0 11309700000.0 11309700000.0 11309700000.0 11309700000.0 11309700000.0 11309700000.0 11309700000.0 11309700000.0 11309700000.0 11309700000.0 11309700000.0 11309700000.0 11309700000.0 11309700000.0 11309700000.0 11309700000.0 11309700000.0 11309700000.0 11309700000.0 11309700000.0 11309700000.0 11309700000.0 11309700000.0 11309700000.0 11309700000.0 11309700000.0 11309700000.0 11309700000.0 11309700000.0 11309700000.0 11309700000.0 11309700000.0 11309700000.0 11309700000.0 11309700000.0 11309700000.0 11309700000.0 11309700000.0 11309700000.0 11309700000.0 11309700000.0 11309700000.0 11309700000.0 11309700000.0 11309700000.0 11309700000.0 11309700000.0 11309700000.0 11309700000.0 11309700000.0 11309700000.0 11309700000.0 11309700000.0 11309700000.0 11309700000.0 11309700000.0 11309700000.0 11309700000.0 11309700000.0 11309700000.0 11309700000.0 11309700000.0 11309700000.0 11309700000.0 11309700000.0 11309700000.0 11309700000.0 11309700000.0 11309700000.0 11309700000.0 11309700000.0 11309700000.0 11309700000.0 11309700000.0 11309700000.0 11309700000.0 11309700000.0 11309700000.0 11309700000.0 11309700000.0 11309700000.0 11309700000.0 11309700000.0 11309700000.0 11309700000.0 11309700000.0 11309700000.0 11309700000.0 11309700000.0 11309700000.0 11309700000.0 11309700000.0 11309700000.0 11309700000.0 11309700000.0 11309700000.0 11309700000.0 11309700000.0 11309700000.0 11309700000.0 11309700000.0 11309700000.0 11309700000.0 11309700000.0 11309700000.0 11309700000.0 11309700000.0 11309700000.0 11309700000.0 11309700000.0 11309700000.0 11309700000.0 11309700000.0 11309700000.0 11309700000.0 11309700000.0 11309700000.0 11309700000.0 11309700000.0 11309700000.0 11309700000.0 11309700000.0 11309700000.0 11309700000.0 11309700000.0 11309700000.0 11309700000.0 11309700000.0 11309700000.0 11309700000.0 11309700000.0 11309700000.0 11309700000.0 11309700000.0 11309700000.0 11309700000.0 11309700000.0 11309700000.0 11309700000.0 11309700000.0 11309700000.0 11309700000.0 11309700000.0 11309700000.0 11309700000.0 11309700000.0 11309700000.0 11309700000.0 11309700000.0 11309700000.0 11309700000.0 11309700000.0 11309700000.0 11309700000.0 11309700000.0 11309700000.0 11309700000.0 11309700000.0 11309700000.0 11309700000.0 11309700000.0 11309700000.0 11309700000.0 11309700000.0 11309700000.0 11309700000.0 11309700000.0 11309700000.0 11309700000.0 11309700000.0 11309700000.0 11309700000.0 11309700000.0 11309700000.0 11309700000.0 11309700000.0 11309700000.0 11309700000.0 11309700000.0 11309700000.0 11309700000.0 11309700000.0 11309700000.0 11309700000.0 11309700000.0 11309700000.0 11309700000.0 11309700000.0 11309700000.0 11309700000.0 11309700000.0 11309700000.0 11309700000.0 11309700000.0 11309700000.0 11309700000.0 11309700000.0 11309700000.0 11309700000.0 11309700000.0 11309700000.0 11309700000.0 11309700000.0 11309700000.0 11309700000.0 11309700000.0 11309700000.0 11309700000.0 11309700000.0 11309700000.0 11309700000.0 11309700000.0 11309700000.0 11309700000.0 11309700000.0 11309700000.0 11309700000.0 11309700000.0 11309700000.0 11309700000.0 11309700000.0 11309700000.0 11309700000.0 11309700000.0 11309700000.0 11309700000.0 11309700000.0 11309700000.0 11309700000.0 11309700000.0 11309700000.0 11309700000.0 11309700000.0 11309700000.0 11309700000.0 11309700000.0 11309700000.0 11309700000.0 11309700000.0 11309700000.0 11309700000.0 11309700000.0 11309700000.0 11309700000.0 11309700000.0 11309700000.0 11309700000.0 11309700000.0 11309700000.0 11309700000.0 11309700000.0 11309700000.0 11309700000.0 11309700000.0 11309700000.0 11309700000.0 11309700000.0 11309700000.0 11309700000.0 11309700000.0 11309700000.0 11309700000.0 11309700000.0 11309700000.0 11309700000.0 11309700000.0 11309700000.0 11309700000.0 11309700000.0 11309700000.0 11309700000.0 11309700000.0 11309700000.0 11309700000.0 11309700000.0 11309700000.0 11309700000.0 11309700000.0 11309700000.0 11309700000.0 11309700000.0 11309700000.0 11309700000.0 11309700000.0 11309700000.0 11309700000.0 11309700000.0 11309700000.0 11309700000.0 11309700000.0 11309700000.0 11309700000.0 11309700000.0 11309700000.0 11309700000.0 11309700000.0 11309700000.0 11309700000.0 11309700000.0 11309700000.0 11309700000.0 11309700000.0 11309700000.0 11309700000.0 11309700000.0 11309700000.0 11309700000.0 11309700000.0 11309700000.0 11309700000.0 11309700000.0 11309700000.0 11309700000.0 11309700000.0 11309700000.0 11309700000.0 11309700000.0 11309700000.0 11309700000.0 11309700000.0 11309700000.0 11309700000.0 11309700000.0 11309700000.0 11309700000.0 11309700000.0 11309700000.0 11309700000.0 11309700000.0 11309700000.0 11309700000.0 11309700000.0 11309700000.0 11309700000.0 11309700000.0 11309700000.0 11309700000.0 11309700000.0 11309700000.0 11309700000.0 11309700000.0 11309700000.0 11309700000.0 11309700000.0 11309700000.0 11309700000.0 11309700000.0 11309700000.0 11309700000.0 11309700000.0 11309700000.0 11309700000.0 11309700000.0 11309700000.0 11309700000.0 11309700000.0 11309700000.0 11309700000.0 11309700000.0 11309700000.0 11309700000.0 11309700000.0 11309700000.0 11309700000.0 11309700000.0 11309700000.0 11309700000.0 11309700000.0 11309700000.0 11309700000.0 11309700000.0 11309700000.0 11309700000.0 11309700000.0 11309700000.0 11309700000.0 11309700000.0 11309700000.0 11309700000.0 11309700000.0 11309700000.0 11309700000.0 11309700000.0 11309700000.0 11309700000.0 11309700000.0 11309700000.0 11309700000.0 11309700000.0 11309700000.0 11309700000.0 11309700000.0 11309700000.0 11309700000.0 11309700000.0 11309700000.0 11309700000.0 11309700000.0 11309700000.0 11309700000.0 11309700000.0 11309700000.0 11309700000.0 11309700000.0 11309700000.0 11309700000.0 11309700000.0 11309700000.0 11309700000.0 11309700000.0 11309700000.0 11309700000.0 11309700000.0 11309700000.0 11309700000.0 11309700000.0 11309700000.0 11309700000.0 11309700000.0 11309700000.0 11309700000.0 11309700000.0 11309700000.0 11309700000.0 11309700000.0 11309700000.0 11309700000.0 11309700000.0 11309700000.0 11309700000.0 11309700000.0 11309700000.0 11309700000.0 11309700000.0 11309700000.0 11309700000.0 11309700000.0 11309700000.0 11309700000.0 11309700000.0 11309700000.0 11309700000.0 11309700000.0 11309700000.0 11309700000.0 11309700000.0 11309700000.0 11309700000.0 11309700000.0 11309700000.0 11309700000.0 11309700000.0 11309700000.0 11309700000.0 11309700000.0 11309700000.0 11309700000.0 11309700000.0 11309700000.0 11309700000.0 11309700000.0 11309700000.0 11309700000.0 11309700000.0 11309700000.0 11309700000.0 11309700000.0 11309700000.0 11309700000.0 11309700000.0 11309700000.0 11309700000.0 11309700000.0 11309700000.0 11309700000.0 11309700000.0 11309700000.0 11309700000.0 11309700000.0 11309700000.0 11309700000.0 11309700000.0 11309700000.0 11309700000.0 11309700000.0 11309700000.0 11309700000.0 11309700000.0 11309700000.0 11309700000.0 11309700000.0 11309700000.0 11309700000.0 11309700000.0 11309700000.0 11309700000.0 11309700000.0 11309700000.0 11309700000.0 11309700000.0 11309700000.0 11309700000.0 11309700000.0 11309700000.0 11309700000.0 11309700000.0 11309700000.0 11309700000.0 11309700000.0 11309700000.0 11309700000.0 11309700000.0 11309700000.0 11309700000.0 11309700000.0 11309700000.0 11309700000.0 11309700000.0 11309700000.0 11309700000.0 11309700000.0 11309700000.0 11309700000.0 11309700000.0 11309700000.0 11309700000.0 11309700000.0 11309700000.0 11309700000.0 11309700000.0 11309700000.0 11309700000.0 11309700000.0 11309700000.0 11309700000.0 11309700000.0 11309700000.0 11309700000.0 11309700000.0 11309700000.0 11309700000.0 11309700000.0 11309700000.0 11309700000.0 11309700000.0 11309700000.0 11309700000.0 11309700000.0 11309700000.0 11309700000.0 11309700000.0 11309700000.0 11309700000.0 11309700000.0 11309700000.0 11309700000.0 11309700000.0 11309700000.0 11309700000.0 11309700000.0 11309700000.0 11309700000.0 11309700000.0 11309700000.0 11309700000.0 11309700000.0 11309700000.0 11309700000.0 11309700000.0 11309700000.0 11309700000.0 11309700000.0 11309700000.0 11309700000.0 11309700000.0 11309700000.0 11309700000.0 11309700000.0 11309700000.0 11309700000.0 11309700000.0 11309700000.0 11309700000.0 11309700000.0 11309700000.0 11309700000.0 11309700000.0 11309700000.0 11309700000.0 11309700000.0 11309700000.0 11309700000.0 11309700000.0 11309700000.0 11309700000.0 11309700000.0 11309700000.0 11309700000.0 11309700000.0 11309700000.0 11309700000.0 11309700000.0 11309700000.0 11309700000.0 11309700000.0 11309700000.0 11309700000.0 11309700000.0 11309700000.0 11309700000.0 11309700000.0 11309700000.0 11309700000.0 11309700000.0 11309700000.0 11309700000.0 11309700000.0 11309700000.0 11309700000.0 11309700000.0 11309700000.0 11309700000.0 11309700000.0 11309700000.0 11309700000.0 11309700000.0 11309700000.0 11309700000.0 11309700000.0 11309700000.0 11309700000.0 11309700000.0 11309700000.0 11309700000.0 11309700000.0 11309700000.0 11309700000.0 11309700000.0 11309700000.0 11309700000.0 11309700000.0 11309700000.0 11309700000.0 11309700000.0 11309700000.0 11309700000.0 11309700000.0 11309700000.0 11309700000.0 11309700000.0 11309700000.0 11309700000.0 11309700000.0 11309700000.0 11309700000.0 11309700000.0 11309700000.0 11309700000.0 11309700000.0 11309700000.0 11309700000.0 11309700000.0 11309700000.0 11309700000.0 11309700000.0 11309700000.0 11309700000.0 11309700000.0 11309700000.0 11309700000.0 11309700000.0 11309700000.0 11309700000.0 11309700000.0 11309700000.0 11309700000.0 11309700000.0 11309700000.0 11309700000.0 11309700000.0 11309700000.0 11309700000.0 11309700000.0 11309700000.0 11309700000.0 11309700000.0 11309700000.0 11309700000.0 11309700000.0 11309700000.0 11309700000.0 11309700000.0 11309700000.0 11309700000.0 11309700000.0 11309700000.0 11309700000.0 11309700000.0 11309700000.0 11309700000.0 11309700000.0 11309700000.0 11309700000.0 11309700000.0 11309700000.0 11309700000.0 11309700000.0 11309700000.0 11309700000.0 11309700000.0 11309700000.0 11309700000.0 11309700000.0 11309700000.0 11309700000.0 11309700000.0 11309700000.0 11309700000.0 11309700000.0 11309700000.0 11309700000.0 11309700000.0 11309700000.0 11309700000.0 11309700000.0 11309700000.0 11309700000.0 11309700000.0 11309700000.0 11309700000.0 11309700000.0 11309700000.0 11309700000.0 11309700000.0 11309700000.0 11309700000.0 11309700000.0 11309700000.0 11309700000.0 11309700000.0 11309700000.0 11309700000.0 11309700000.0 11309700000.0 11309700000.0 11309700000.0 11309700000.0 11309700000.0 11309700000.0 11309700000.0 11309700000.0 11309700000.0 11309700000.0 11309700000.0 11309700000.0 11309700000.0 11309700000.0 11309700000.0 11309700000.0 11309700000.0 11309700000.0 11309700000.0 11309700000.0 11309700000.0 11309700000.0 11309700000.0 11309700000.0 11309700000.0 11309700000.0 11309700000.0 11309700000.0 11309700000.0 11309700000.0 11309700000.0 11309700000.0 11309700000.0 11309700000.0 11309700000.0 11309700000.0 11309700000.0 11309700000.0 11309700000.0 11309700000.0 11309700000.0 11309700000.0 11309700000.0 11309700000.0 11309700000.0 11309700000.0 11309700000.0 11309700000.0 11309700000.0 11309700000.0 11309700000.0 11309700000.0 11309700000.0 11309700000.0 11309700000.0 11309700000.0 11309700000.0 11309700000.0 11309700000.0 11309700000.0 11309700000.0 11309700000.0 11309700000.0 11309700000.0 11309700000.0 11309700000.0 11309700000.0 11309700000.0 11309700000.0 11309700000.0 11309700000.0 11309700000.0 11309700000.0 11309700000.0 11309700000.0 11309700000.0 11309700000.0 11309700000.0 11309700000.0 11309700000.0 11309700000.0 11309700000.0 11309700000.0 11309700000.0 11309700000.0 11309700000.0 11309700000.0 11309700000.0 11309700000.0 11309700000.0 11309700000.0 11309700000.0 11309700000.0 11309700000.0 11309700000.0 11309700000.0 11309700000.0 11309700000.0 11309700000.0 11309700000.0 11309700000.0 11309700000.0 11309700000.0 11309700000.0 11309700000.0 11309700000.0 11309700000.0 11309700000.0 11309700000.0 11309700000.0 11309700000.0 11309700000.0 11309700000.0 11309700000.0 11309700000.0 11309700000.0 11309700000.0 11309700000.0 11309700000.0 11309700000.0 11309700000.0 11309700000.0 11309700000.0 11309700000.0 11309700000.0 11309700000.0 11309700000.0 11309700000.0 11309700000.0 11309700000.0 11309700000.0 11309700000.0 11309700000.0 11309700000.0 11309700000.0 11309700000.0 11309700000.0 11309700000.0 11309700000.0 11309700000.0 11309700000.0 11309700000.0 11309700000.0 11309700000.0 11309700000.0 11309700000.0 11309700000.0 11309700000.0 11309700000.0 11309700000.0 11309700000.0 11309700000.0 11309700000.0 11309700000.0 11309700000.0 11309700000.0 11309700000.0 11309700000.0 11309700000.0 11309700000.0 11309700000.0 11309700000.0 11309700000.0 11309700000.0 11309700000.0 11309700000.0 11309700000.0 11309700000.0 11309700000.0 11309700000.0 11309700000.0 11309700000.0 11309700000.0 11309700000.0 11309700000.0 11309700000.0 11309700000.0 11309700000.0 11309700000.0 11309700000.0 11309700000.0 11309700000.0 11309700000.0 11309700000.0 11309700000.0 11309700000.0 11309700000.0 11309700000.0 11309700000.0 11309700000.0 11309700000.0 11309700000.0 11309700000.0 11309700000.0 11309700000.0 11309700000.0 11309700000.0 11309700000.0 11309700000.0 11309700000.0 11309700000.0 11309700000.0 11309700000.0 11309700000.0 11309700000.0 11309700000.0 11309700000.0 11309700000.0 11309700000.0 11309700000.0 11309700000.0 11309700000.0 11309700000.0 11309700000.0 11309700000.0 11309700000.0 11309700000.0 11309700000.0 11309700000.0 11309700000.0 11309700000.0 11309700000.0 11309700000.0 11309700000.0 11309700000.0 11309700000.0 11309700000.0 11309700000.0 11309700000.0 11309700000.0 11309700000.0 11309700000.0 11309700000.0 11309700000.0 11309700000.0 11309700000.0 11309700000.0 11309700000.0 11309700000.0 11309700000.0 11309700000.0 11309700000.0 11309700000.0 11309700000.0 11309700000.0 11309700000.0 11309700000.0 11309700000.0 11309700000.0 11309700000.0 11309700000.0 11309700000.0 11309700000.0 11309700000.0 11309700000.0 11309700000.0 11309700000.0 11309700000.0 11309700000.0 11309700000.0 11309700000.0 11309700000.0 11309700000.0 11309700000.0 11309700000.0 11309700000.0 11309700000.0 11309700000.0 11309700000.0 11309700000.0 11309700000.0 11309700000.0 11309700000.0 11309700000.0 11309700000.0 11309700000.0 11309700000.0 11309700000.0 11309700000.0 11309700000.0 11309700000.0 11309700000.0 11309700000.0 11309700000.0 11309700000.0 11309700000.0 11309700000.0 11309700000.0 11309700000.0 11309700000.0 11309700000.0 11309700000.0 11309700000.0 11309700000.0 11309700000.0 11309700000.0 11309700000.0 11309700000.0 11309700000.0 11309700000.0 11309700000.0 11309700000.0 11309700000.0 11309700000.0 11309700000.0 11309700000.0 11309700000.0 11309700000.0 11309700000.0 11309700000.0 11309700000.0 11309700000.0 11309700000.0 11309700000.0 11309700000.0 11309700000.0 11309700000.0 11309700000.0 11309700000.0 11309700000.0 11309700000.0 11309700000.0 11309700000.0 11309700000.0 11309700000.0 11309700000.0 11309700000.0 11309700000.0 11309700000.0 11309700000.0 11309700000.0 11309700000.0 11309700000.0 11309700000.0 11309700000.0 11309700000.0 11309700000.0 11309700000.0 11309700000.0 11309700000.0 11309700000.0 11309700000.0 11309700000.0 11309700000.0 11309700000.0 11309700000.0 11309700000.0 11309700000.0 11309700000.0 11309700000.0 11309700000.0 11309700000.0 11309700000.0 11309700000.0 11309700000.0 11309700000.0 11309700000.0 11309700000.0 11309700000.0 11309700000.0 11309700000.0 11309700000.0 11309700000.0 11309700000.0 11309700000.0 11309700000.0 11309700000.0 11309700000.0 11309700000.0 11309700000.0 11309700000.0 11309700000.0 11309700000.0 11309700000.0 11309700000.0 11309700000.0 11309700000.0 11309700000.0 11309700000.0 11309700000.0 11309700000.0 11309700000.0 11309700000.0 11309700000.0 11309700000.0 11309700000.0 11309700000.0 11309700000.0 11309700000.0 11309700000.0 11309700000.0 11309700000.0 11309700000.0 11309700000.0 11309700000.0 11309700000.0 11309700000.0 11309700000.0 11309700000.0 11309700000.0 11309700000.0 11309700000.0 11309700000.0 11309700000.0 11309700000.0 11309700000.0 11309700000.0 11309700000.0 11309700000.0 11309700000.0 11309700000.0 11309700000.0 11309700000.0 11309700000.0 11309700000.0 11309700000.0 11309700000.0 11309700000.0 11309700000.0 11309700000.0 11309700000.0 11309700000.0 11309700000.0 11309700000.0 11309700000.0 11309700000.0 11309700000.0 11309700000.0 11309700000.0 11309700000.0 11309700000.0 11309700000.0 11309700000.0 11309700000.0 11309700000.0 11309700000.0 11309700000.0 11309700000.0 11309700000.0 11309700000.0 11309700000.0 11309700000.0 11309700000.0 11309700000.0 11309700000.0 11309700000.0 11309700000.0 11309700000.0 11309700000.0 11309700000.0 11309700000.0 11309700000.0 11309700000.0 11309700000.0 11309700000.0 11309700000.0 11309700000.0 11309700000.0 11309700000.0 11309700000.0 11309700000.0 11309700000.0 11309700000.0 11309700000.0 11309700000.0 11309700000.0 11309700000.0 11309700000.0 11309700000.0 11309700000.0 11309700000.0 11309700000.0 11309700000.0 11309700000.0 11309700000.0 11309700000.0 11309700000.0 11309700000.0 11309700000.0 11309700000.0 11309700000.0 11309700000.0 11309700000.0 11309700000.0 11309700000.0 11309700000.0 11309700000.0 11309700000.0 11309700000.0 11309700000.0 11309700000.0 11309700000.0 11309700000.0 11309700000.0 11309700000.0 11309700000.0 11309700000.0 11309700000.0 11309700000.0 11309700000.0 11309700000.0 11309700000.0 11309700000.0 11309700000.0 11309700000.0 11309700000.0 11309700000.0 11309700000.0 11309700000.0 11309700000.0 11309700000.0 11309700000.0 11309700000.0 11309700000.0 11309700000.0 11309700000.0 11309700000.0 11309700000.0 11309700000.0 11309700000.0 11309700000.0 11309700000.0 11309700000.0 11309700000.0 11309700000.0 11309700000.0 11309700000.0 11309700000.0 11309700000.0 11309700000.0 11309700000.0 11309700000.0 11309700000.0 11309700000.0 11309700000.0 11309700000.0 11309700000.0 11309700000.0 11309700000.0 11309700000.0 11309700000.0 11309700000.0 11309700000.0 11309700000.0 11309700000.0 11309700000.0 11309700000.0 11309700000.0 11309700000.0 11309700000.0 11309700000.0 11309700000.0 11309700000.0 11309700000.0 11309700000.0 11309700000.0 11309700000.0 11309700000.0 11309700000.0 11309700000.0 11309700000.0 11309700000.0 11309700000.0 11309700000.0 11309700000.0 11309700000.0 11309700000.0 11309700000.0 11309700000.0 11309700000.0 11309700000.0 11309700000.0 11309700000.0 11309700000.0 11309700000.0 11309700000.0 11309700000.0 11309700000.0 11309700000.0 11309700000.0 11309700000.0 11309700000.0 11309700000.0 11309700000.0 11309700000.0 11309700000.0 11309700000.0 11309700000.0 11309700000.0 11309700000.0 11309700000.0 11309700000.0 11309700000.0 11309700000.0 11309700000.0 11309700000.0 11309700000.0 11309700000.0 11309700000.0 11309700000.0 11309700000.0 11309700000.0 11309700000.0 11309700000.0 11309700000.0 11309700000.0 11309700000.0 11309700000.0 11309700000.0 11309700000.0 11309700000.0 11309700000.0 11309700000.0 11309700000.0 11309700000.0 11309700000.0 11309700000.0 11309700000.0 11309700000.0 11309700000.0 11309700000.0 11309700000.0 11309700000.0 11309700000.0 11309700000.0 11309700000.0 11309700000.0 11309700000.0 11309700000.0 11309700000.0 11309700000.0 11309700000.0 11309700000.0 11309700000.0 11309700000.0 11309700000.0 11309700000.0 11309700000.0 11309700000.0 11309700000.0 11309700000.0 11309700000.0 11309700000.0 11309700000.0 11309700000.0 11309700000.0 11309700000.0 11309700000.0 11309700000.0 11309700000.0 11309700000.0 11309700000.0 11309700000.0 11309700000.0 11309700000.0 11309700000.0 11309700000.0 11309700000.0 11309700000.0 11309700000.0 11309700000.0 11309700000.0 11309700000.0 11309700000.0 11309700000.0 11309700000.0 11309700000.0 11309700000.0 11309700000.0 11309700000.0 11309700000.0 11309700000.0 11309700000.0 11309700000.0 11309700000.0 11309700000.0 11309700000.0 11309700000.0 11309700000.0 11309700000.0 11309700000.0 11309700000.0 11309700000.0 11309700000.0 11309700000.0 11309700000.0 11309700000.0 11309700000.0 11309700000.0 11309700000.0 11309700000.0 11309700000.0 11309700000.0 11309700000.0 11309700000.0 11309700000.0 11309700000.0 11309700000.0 11309700000.0 11309700000.0 11309700000.0 11309700000.0 11309700000.0 11309700000.0 11309700000.0 11309700000.0 11309700000.0 11309700000.0 11309700000.0 11309700000.0 11309700000.0 11309700000.0 11309700000.0 11309700000.0 11309700000.0 11309700000.0 11309700000.0 11309700000.0 11309700000.0 11309700000.0 11309700000.0 11309700000.0 11309700000.0 11309700000.0 11309700000.0 11309700000.0 11309700000.0 11309700000.0 11309700000.0 11309700000.0 11309700000.0 11309700000.0 11309700000.0 11309700000.0 11309700000.0 11309700000.0 11309700000.0 11309700000.0 11309700000.0 11309700000.0 11309700000.0 11309700000.0 11309700000.0 11309700000.0 11309700000.0 11309700000.0 11309700000.0 11309700000.0 11309700000.0 11309700000.0 11309700000.0 11309700000.0 11309700000.0 11309700000.0 11309700000.0 11309700000.0 11309700000.0 11309700000.0 11309700000.0 11309700000.0 11309700000.0 11309700000.0 11309700000.0 11309700000.0 11309700000.0 11309700000.0 11309700000.0 11309700000.0 11309700000.0 11309700000.0 11309700000.0 11309700000.0 11309700000.0 11309700000.0 11309700000.0 11309700000.0 11309700000.0 11309700000.0 11309700000.0 11309700000.0 11309700000.0 11309700000.0 11309700000.0 11309700000.0 11309700000.0 11309700000.0 11309700000.0 11309700000.0 11309700000.0 11309700000.0 11309700000.0 11309700000.0 11309700000.0 11309700000.0 11309700000.0 11309700000.0 11309700000.0 11309700000.0 11309700000.0 11309700000.0 11309700000.0 11309700000.0 11309700000.0 11309700000.0 11309700000.0 11309700000.0 11309700000.0 11309700000.0 11309700000.0 11309700000.0 11309700000.0 11309700000.0 11309700000.0 11309700000.0 11309700000.0 11309700000.0 11309700000.0 11309700000.0 11309700000.0 11309700000.0 11309700000.0 11309700000.0 11309700000.0 11309700000.0 11309700000.0 11309700000.0 11309700000.0 11309700000.0 11309700000.0 11309700000.0 11309700000.0 11309700000.0 11309700000.0 11309700000.0 11309700000.0 11309700000.0 11309700000.0 11309700000.0 11309700000.0 11309700000.0 11309700000.0 11309700000.0 11309700000.0 11309700000.0 11309700000.0 11309700000.0 11309700000.0 11309700000.0 11309700000.0 11309700000.0 11309700000.0 11309700000.0 11309700000.0 11309700000.0 11309700000.0 11309700000.0 11309700000.0 11309700000.0 11309700000.0 11309700000.0 11309700000.0 11309700000.0 11309700000.0 11309700000.0 11309700000.0 11309700000.0 11309700000.0 11309700000.0 11309700000.0 11309700000.0 11309700000.0 11309700000.0 11309700000.0 
SCALARS Velocity float 1
LOOKUP_TABLE default
1.13593 1.09168 1.06823 1.06645 1.06485 1.08822 1.09196 1.09457 1.10396 0.982316 1.09573 1.09862 1.11431 1.13075 1.13524 1.13598 1.09723 1.0817 1.04506 1.09668 1.09557 1.09043 1.09275 1.0955 1.09722 1.09542 1.04227 1.10039 1.1294 1.13443 1.13563 1.09555 1.0701 1.08766 1.09549 1.09442 1.09197 1.09449 1.0955 1.09577 1.00814 1.06155 1.11917 1.13198 1.13481 1.13514 1.09758 1.0911 1.04524 1.08655 1.09625 1.09059 1.09232 1.09279 1.09367 1.09498 1.09526 1.09606 1.09519 1.09513 1.02074 1.1063 1.11985 1.12797 1.12982 1.13318 1.13283 1.13445 1.13334 1.09915 1.09493 1.09238 1.0733 1.04979 1.09104 1.09484 1.09409 1.09248 1.09242 1.09401 1.09574 1.09401 1.00979 1.02011 1.116 1.12458 1.12997 1.13191 1.09847 1.07731 1.0874 1.08845 1.09629 1.09206 1.09255 1.09429 1.09593 1.0204 1.11951 1.1255 1.12943 1.13049 1.10321 1.09424 1.0513 1.07982 1.10261 1.09333 1.09199 1.09161 1.09128 1.09258 1.09249 1.09445 1.09294 1.09278 1.08711 1.01825 1.12052 1.11625 1.12041 1.12146 1.1258 1.12524 1.12834 1.12686 1.109 1.10337 1.09777 1.0738 1.05101 1.11579 1.11318 1.10338 1.09715 1.09426 1.0911 1.09093 1.09173 1.08956 1.093 1.11671 1.11746 1.12154 1.12414 1.1096 1.07654 1.12052 1.11006 1.09877 1.09259 1.09035 1.0903 1.09003 1.08921 1.10912 1.11559 1.11779 1.12072 1.12277 1.11601 1.10658 1.13214 1.1143 1.10462 1.09603 1.09126 1.09003 1.08954 1.0887 1.08937 1.08889 1.08932 1.09251 1.09756 1.10664 1.11341 1.11287 1.11505 1.11385 1.11703 1.116 1.11964 1.11841 1.1271 1.11594 1.12421 1.1356 1.13179 1.12237 1.11669 1.11054 1.10661 1.10104 1.09818 1.09392 1.09212 1.0889 1.08818 1.0903 1.0988 1.10947 1.11125 1.11232 1.11509 1.13262 1.13504 1.12377 1.11223 1.10343 1.09589 1.09049 1.08799 1.08876 1.09393 1.10402 1.10859 1.10896 1.10704 1.11127 1.11059 1.11399 1.14416 1.1377 1.13084 1.11772 1.10891 1.10092 1.09371 1.089 1.08789 1.08777 1.08871 1.09087 1.09405 1.09838 1.10116 1.10528 1.10349 1.10606 1.10297 1.10629 1.10923 1.15943 1.14964 1.1499 1.1388 1.13275 1.12372 1.11891 1.11415 1.11125 1.10635 1.10371 1.09836 1.09591 1.09165 1.08968 1.08756 1.09081 1.09691 1.10079 1.09979 1.10111 1.10597 1.16475 1.14708 1.12501 1.11508 1.1087 1.10122 1.09338 1.08798 1.0884 1.09328 1.09783 1.09587 1.0975 1.092 1.09579 1.09478 1.10142 1.10203 1.10406 1.17185 1.16328 1.1359 1.11779 1.11259 1.10648 1.09839 1.09076 1.08822 1.0872 1.08755 1.09005 1.09165 1.09484 1.09423 1.09036 1.08708 1.09796 1.09812 1.17544 1.18163 1.17612 1.1581 1.13725 1.12397 1.11698 1.11471 1.11339 1.11072 1.10854 1.1038 1.10114 1.09571 1.09227 1.08658 1.08851 1.09225 1.09007 1.08221 1.08959 1.10016 1.19352 1.17643 1.12523 1.11436 1.11188 1.1062 1.09856 1.08855 1.08589 1.0895 1.09002 1.0907 1.08516 1.0812 1.06842 1.07633 1.0869 1.0985 1.10277 1.09037 1.16148 1.20548 1.18538 1.20917 1.13612 1.13734 1.11972 1.11198 1.11018 1.1036 1.09442 1.08557 1.08307 1.08583 1.08675 1.08844 1.07537 1.05573 1.10508 1.07877 1.12382 1.16635 1.15348 1.11186 1.10987 1.10606 1.11142 1.11184 1.10836 1.10455 1.10201 1.09777 1.08915 1.08451 1.0815 1.08856 1.08364 1.06314 1.06221 1.0671 1.09652 1.11973 1.06095 1.24515 1.15638 1.25518 1.12663 1.09568 1.10849 1.1111 1.10611 1.0898 1.07801 1.07396 1.08357 1.08899 1.08904 1.08685 1.07572 1.06901 1.09845 1.12372 1.02728 1.36546 1.26942 1.17826 1.11467 1.08966 1.07099 1.09391 1.11673 1.10244 1.10107 1.08291 1.06854 1.08034 1.09344 1.08096 1.08078 1.17463 1.21735 0.98721 0.945534 1.28797 1.04754 1.22752 1.0554 1.08346 1.10584 1.12181 1.12292 1.11657 1.07011 1.06111 1.0808 1.06196 1.09465 1.09301 1.08943 1.08037 1.10737 1.15726 1.29395 0.871297 0.535888 0.652857 0.66904 1.33043 1.02264 0.823358 1.10999 1.42312 1.05352 1.06285 1.06021 1.09957 1.13521 1.07992 1.01609 0.937665 1.07467 1.05259 1.04552 1.08039 1.10905 1.10245 1.10206 1.09807 1.2716 0.876534 0.805922 0.45536 0.481269 0.7036 0.48622 1.10431 0.922508 0.764843 1.0478 1.05202 1.04346 1.06697 1.12203 1.13902 1.02208 1.03315 1.09091 1.10864 1.10812 1.16811 0.819052 0.820082 0.849833 0.892015 0.837977 0.605695 0.512147 0.736225 0.717684 0.634648 0.80298 0.972065 0.808554 0.949664 1.03502 1.03483 1.07421 1.08962 1.13135 1.1647 1.09862 0.977566 1.0603 1.03911 1.02364 1.1341 1.0935 1.09756 1.11321 1.15678 1.07454 0.829203 0.867763 0.688244 0.564621 0.55919 0.536865 0.72318 0.733705 0.73038 0.754486 0.804502 0.992829 0.867551 0.817048 0.828114 0.931199 0.992636 1.00089 1.02302 1.03505 1.08122 1.10404 1.03613 1.00079 1.0141 1.05045 1.10974 1.13208 1.09321 1.13264 0.958365 0.864593 0.829656 0.622732 0.561811 0.557514 0.594225 0.682511 0.710106 0.699992 0.731638 0.727607 0.867769 0.819538 0.861648 0.962925 1.00975 1.01259 1.00741 1.02161 0.974582 1.19352 1.04909 1.01247 1.01139 1.05319 1.08883 1.1203 1.07753 1.03219 0.93622 0.920273 0.866868 0.826825 0.726511 0.67754 0.593921 0.574643 0.575296 0.593998 0.638074 0.643575 0.708861 0.654268 0.60278 0.679751 0.726481 0.763096 0.788955 0.790776 0.825107 0.870624 0.920369 0.9937 1.01063 0.979588 1.1279 1.12073 1.05543 1.00093 1.00155 1.10097 1.13379 1.12764 1.10213 1.05159 1.00529 0.969677 0.998034 0.971146 0.892974 0.746836 0.731876 0.659801 0.657851 0.530592 0.603573 0.616919 0.609573 0.658792 0.647039 0.626497 0.678847 0.477431 0.709988 0.730397 0.737792 0.83434 0.93191 0.964551 0.992672 1.009 1.00915 1.00026 1.02137 1.03826 1.03132 0.932496 0.796347 1.16031 1.18133 1.04927 1.00746 1.05813 1.15053 1.08557 0.98325 0.981074 0.951406 0.923558 0.841204 0.748689 0.716985 0.672657 0.689511 0.617124 0.615082 0.619323 0.638184 0.666764 0.654481 0.704807 0.881687 0.82555 0.730015 0.760735 0.740253 0.675933 0.789913 0.892157 0.970993 0.997686 1.01229 0.999148 0.849561 0.625449 1.15049 0.987064 1.05553 1.12039 1.20555 1.14368 1.06341 1.0107 0.971568 0.976264 0.974148 0.867733 0.732598 0.765348 0.719991 0.69768 0.65244 0.645697 0.607787 0.611175 0.61828 0.619495 0.626644 0.645557 0.626816 0.502314 0.878702 0.800373 0.746473 0.782584 0.777328 0.746079 0.787991 0.868555 0.890214 0.94166 0.976537 0.997465 0.992634 0.912666 0.671363 0.44324 0.950889 0.980175 1.01248 1.13084 1.18026 0.937929 0.970187 0.977108 0.971105 0.95815 0.980072 0.709064 0.678182 0.658701 0.666037 0.624294 0.590041 0.610565 0.602662 0.622199 0.583952 0.601908 0.613216 0.621343 0.561467 0.81767 0.729113 0.74752 0.780737 0.741707 0.770171 0.873833 0.917848 0.954471 0.954108 0.976981 0.959894 0.979917 0.93079 0.92642 0.825794 0.765355 0.631848 0.500639 0.403661 0.345378 0.874961 1.13201 1.31404 1.30883 1.02139 0.979887 0.980984 0.932892 0.900723 1.0058 0.769304 0.694637 0.683984 0.657445 0.609187 0.575135 0.551419 0.588925 0.609782 0.610596 0.560582 0.597837 0.609733 0.618358 0.601324 0.512655 0.747285 0.737873 0.72831 0.736328 0.7526 0.760575 0.746893 0.932918 0.893538 0.928516 0.933592 0.922656 0.856188 0.717063 0.534015 0.508655 0.693805 0.757681 0.768576 0.745559 1.45568 1.08395 0.938367 1.04246 1.00946 0.932705 0.881768 0.88918 0.725214 0.709509 0.676405 0.663171 0.52303 0.556657 0.575385 0.600357 0.606677 0.60279 0.607445 0.52914 0.548934 0.578851 0.593481 0.612793 0.600041 0.555529 0.6178 0.742803 0.728621 0.728869 0.726677 0.724284 0.394284 0.769525 0.781083 0.850679 0.874686 0.907931 0.909525 0.869409 0.773852 0.630549 0.536171 0.692092 0.794911 0.835411 1.65868 1.18164 1.128 1.08811 0.887236 0.843236 0.856011 0.839633 0.763108 0.716876 0.70455 0.717453 0.691499 0.599747 0.489533 0.528818 0.541118 0.564324 0.620562 0.612918 0.595065 0.472234 0.502593 0.513546 0.566669 0.578265 0.607845 0.616188 0.586405 0.660704 0.739529 0.774357 0.741437 0.684497 0.655015 0.613992 0.57321 0.780905 0.817402 0.879805 0.891449 0.869352 0.872733 0.825034 0.807219 0.74839 0.69994 0.661923 0.603461 0.640804 0.632548 0.731332 0.790062 0.939401 1.02767 1.16318 1.55806 1.27729 2.04735 1.01257 1.03666 0.842698 0.829412 0.794164 0.73466 0.708455 0.618556 0.513387 0.560003 0.605212 0.617782 0.655892 0.642266 0.620156 0.614211 0.573158 0.455154 0.496047 0.497818 0.534766 0.552124 0.593098 0.616895 0.612095 0.78783 0.733235 0.703201 0.609117 0.567485 0.528414 0.453649 0.663797 0.826763 0.848767 0.862829 0.833085 0.778564 0.709065 0.66502 0.700023 0.832004 0.981152 0.40278 0.607018 0.973555 0.723107 0.985065 1.30701 0.813137 0.784369 0.738634 0.693749 0.736871 0.778143 0.760201 0.633481 0.609804 0.545934 0.566633 0.647209 0.682218 0.6506 0.596901 0.569387 0.547002 0.442473 0.450098 0.466375 0.497022 0.520866 0.546107 0.56329 0.583876 0.597372 0.591274 0.807885 0.713712 0.666961 0.639195 0.548789 0.517844 0.48675 0.583014 0.708 0.856227 0.851806 0.832374 0.834441 0.796776 0.740377 0.694079 0.696532 0.77328 0.856714 0.642114 0.253387 0.800672 0.877162 0.721613 0.732474 0.706308 0.658899 0.705476 0.805068 0.831276 0.877059 0.768188 0.485254 0.604062 0.649573 0.70086 0.655989 0.61561 0.596919 0.531545 0.436261 0.449028 0.483261 0.513637 0.498795 0.518498 0.555797 0.580795 0.40292 0.714744 0.631878 0.607085 0.593825 0.57674 0.517852 0.511985 0.568302 0.691879 0.865324 0.832106 0.808905 0.80577 0.778582 0.762424 0.738165 0.719643 0.716543 0.703462 0.720991 0.738627 0.75061 0.784445 0.719141 0.724507 0.519962 0.0888064 0.777581 0.758139 0.496616 0.612238 0.648137 0.632707 0.643037 0.709862 0.829752 0.744894 0.876318 0.811782 0.495928 0.492114 0.690108 0.725143 0.668104 0.665854 0.624128 0.563382 0.541278 0.516737 0.408069 0.432097 0.441169 0.449019 0.469436 0.495818 0.500776 0.510341 0.507273 0.544059 0.581525 0.580824 0.541839 0.498243 0.624457 0.689074 0.597644 0.571083 0.556264 0.53732 0.497564 0.409392 0.40582 0.880244 0.821807 0.816437 0.786564 0.753491 0.728142 0.719471 0.72733 0.715323 0.614562 0.271847 0.331494 0.59872 0.699782 0.918693 0.74998 0.556076 0.597322 0.619254 0.664428 0.703777 0.779648 0.793253 1.04268 1.29547 0.433233 0.605106 0.470178 0.620287 0.661944 0.619785 0.618427 0.600189 0.591534 0.511941 0.499085 0.442454 0.389748 0.419099 0.422109 0.451324 0.465479 0.481183 0.560129 0.552064 0.569578 0.59707 0.585307 0.609326 0.565384 0.545793 0.531624 0.516296 0.500799 0.526035 0.5741 0.915908 0.842124 0.823307 0.804041 0.800059 0.779667 0.765807 0.750917 0.738704 0.725182 0.719552 0.715319 0.681151 0.651406 0.583463 0.503485 0.400936 0.594256 0.85535 0.564966 0.349343 0.497865 0.606285 0.590929 0.570426 0.545266 0.528108 0.593672 0.412432 0.652487 0.906584 0.336077 0.584913 0.628849 0.563944 0.55557 0.507484 0.508874 0.520537 0.469581 0.386704 0.366537 0.385166 0.405148 0.412784 0.421027 0.412025 0.462798 0.47275 0.512894 0.494284 0.598331 0.562856 0.497767 0.440729 0.530632 0.551403 0.565825 0.544616 0.529311 0.517785 0.510126 0.512677 0.285907 0.475359 0.792007 0.824868 0.801406 0.760301 0.740664 0.731553 0.727365 0.722123 0.715198 0.712179 0.694624 0.63875 0.531061 0.477209 0.636068 0.737949 0.766996 0.484089 0.556789 0.571503 0.572715 0.553371 0.449174 0.428394 0.391996 0.532291 1.07713 0.640749 0.456451 0.652024 0.566478 0.606875 0.525873 0.441196 0.43403 0.465398 0.434952 0.423697 0.307415 0.315406 0.349358 0.356161 0.407509 0.410893 0.392088 0.408502 0.483201 0.541573 0.495705 0.535804 0.545272 0.546671 0.531398 0.517073 0.506641 0.497524 0.496673 0.470785 0.865557 0.810358 0.772676 0.752224 0.733755 0.721379 0.703326 0.672166 0.59889 0.57836 0.514874 0.57795 0.682974 0.428522 0.509222 0.548587 0.569946 0.571787 0.524435 0.257413 0.410267 0.454541 0.504648 0.382001 0.427617 0.40465 0.376165 0.294943 0.205111 0.100385 0.279523 0.343737 0.356705 0.375013 0.412193 0.398833 0.385187 0.484118 0.454757 0.454625 0.20655 0.423298 0.43411 0.427619 0.494912 0.521456 0.511071 0.502914 0.49736 0.486748 0.408926 0.441987 0.757116 0.730815 0.769532 0.780315 0.766648 0.756501 0.743324 0.735439 0.728033 0.721554 0.712798 0.700783 0.687384 0.670384 0.643236 0.623422 0.59477 0.656298 0.673408 0.749241 0.500186 0.499483 0.532411 0.559367 0.581894 0.574085 0.470955 0.321896 0.580607 0.864539 0.75083 0.532674 0.161231 0.323162 0.307658 0.352205 0.496777 0.520976 0.467958 0.431102 0.391885 0.407401 0.387844 0.304715 0.199331 0.0193012 0.26765 0.313349 0.340745 0.385307 0.418281 0.374807 0.375303 0.44854 0.456752 0.419437 0.321768 0.368658 0.451225 0.46679 0.493651 0.51129 0.53172 0.53639 0.533312 0.5077 0.500684 0.495963 0.456395 0.418412 0.314277 0.54632 0.808655 0.775651 0.774642 0.745165 0.728969 0.713821 0.688777 0.65647 0.620459 0.634366 0.681583 0.530263 0.417621 0.505624 0.525628 0.54756 0.570928 0.539656 0.468489 0.580277 0.676908 0.589743 0.521314 0.267771 0.10943 0.204531 0.273064 0.347567 0.411568 0.471887 0.392244 0.372507 0.387841 0.275577 0.103449 0.0492104 0.0222697 0.235096 0.26456 0.276707 0.333377 0.327974 0.276927 0.350371 0.361928 0.408413 0.426931 0.413329 0.341483 0.369161 0.413472 0.460579 0.48639 0.504123 0.5157 0.526977 0.528728 0.524602 0.516066 0.501387 0.486631 0.458883 0.399381 0.470883 0.69913 0.807458 0.78913 0.793308 0.758667 0.735242 0.724056 0.70559 0.677859 0.668449 0.64673 0.645097 0.631921 0.651499 0.632148 0.49199 0.477732 0.521225 0.541244 0.585564 0.585141 0.571871 0.594486 0.597266 0.556021 0.443978 0.314248 0.212743 0.145977 0.211472 0.330551 0.313886 0.390839 0.415065 0.364228 0.359885 0.402268 0.309375 0.204212 0.126417 0.0877197 0.134036 0.274855 0.219946 0.174267 0.327132 0.318918 0.286232 0.324136 0.355076 0.384321 0.394861 0.398864 0.366749 0.383768 0.415863 0.433569 0.47086 0.491172 0.504767 0.515316 0.523244 0.524857 0.521692 0.515204 0.507237 0.464096 0.480608 0.493972 0.624236 0.758493 0.823191 0.788997 0.753106 0.741559 0.733414 0.730522 0.728505 0.719383 0.713174 0.695942 0.686836 0.662266 0.65208 0.676977 0.62011 0.498205 0.507828 0.512636 0.559503 0.577335 0.589138 0.597838 0.600101 0.589479 0.53905 0.469807 0.372614 0.284291 0.237366 0.203464 0.283801 0.34866 0.349818 0.354775 0.394641 0.368118 0.379218 0.257883 0.329602 0.376807 0.270592 0.130576 0.1462 0.430042 0.233725 0.241071 0.173463 0.268898 0.309801 0.29715 0.307949 0.331352 0.374868 0.388854 0.375475 0.384513 0.402879 0.40854 0.429683 0.448024 0.472016 0.488739 0.503293 0.51546 0.524123 0.52735 0.525709 0.519702 0.512516 0.505034 0.491292 0.587091 0.688254 0.817117 0.802046 0.736331 0.732309 0.726775 0.705665 0.679788 0.659924 0.662007 0.665638 0.666165 0.535667 0.552644 0.567988 0.579629 0.591006 0.589741 0.576996 0.54255 0.483072 0.4107 0.365976 0.300988 0.273774 0.276125 0.303193 0.329093 0.330823 0.339988 0.378044 0.352101 0.306395 0.475252 0.198287 0.191442 0.183746 0.142311 0.161838 0.150055 0.385467 0.338117 0.384655 0.257213 0.324083 0.290776 0.303564 0.367606 0.389258 0.374009 0.392034 0.407646 0.416948 0.485857 0.504289 0.521019 0.532388 0.537318 0.535488 0.529588 0.523527 0.515895 0.507556 0.51607 0.531452 0.779292 0.453137 0.73709 0.733044 0.734815 0.722772 0.715735 0.697592 0.689452 0.673619 0.669668 0.657965 0.57709 0.524076 0.528054 0.535603 0.549514 0.562106 0.571474 0.579244 0.577445 0.566524 0.537298 0.496101 0.319324 0.324513 0.327128 0.350696 0.363243 0.38759 0.386128 0.349139 0.432615 0.368153 0.208005 0.184012 0.175393 0.160128 0.18896 0.336147 0.321913 0.38103 0.29724 0.419556 0.421185 0.32671 0.285013 0.288528 0.320242 0.352641 0.389065 0.389682 0.399423 0.415043 0.422256 0.432286 0.449648 0.468317 0.549772 0.552593 0.548455 0.542456 0.537762 0.535086 0.542619 0.561146 0.596754 0.647405 0.551929 0.845441 0.737809 0.741614 0.742035 0.737326 0.740107 0.735016 0.732509 0.707056 0.68244 0.666646 0.64174 0.578499 0.552542 0.550247 0.553069 0.561093 0.5681 0.572271 0.568692 0.443028 0.391929 0.361111 0.33976 0.317573 0.367928 0.382839 0.398182 0.405335 0.369796 0.418947 0.297678 0.137437 0.153257 0.183725 0.189706 0.212909 0.295863 0.304761 0.295361 0.235027 0.279999 0.272697 0.44159 0.291067 0.310763 0.348737 0.384593 0.406383 0.409136 0.4239 0.428797 0.430586 0.433463 0.444763 0.461705 0.486469 0.514915 0.536001 0.561848 0.556257 0.554119 0.558288 0.569938 0.589459 0.614523 0.590198 0.641526 0.775995 0.737162 0.743738 0.724534 0.698405 0.673199 0.660735 0.618284 0.589917 0.584709 0.571531 0.567239 0.567231 0.569509 0.556667 0.532595 0.499037 0.461012 0.426293 0.401208 0.38967 0.375775 0.366672 0.362663 0.363317 0.418355 0.417805 0.392149 0.370091 0.420876 0.405474 0.07256 0.136127 0.226489 0.239479 0.244005 0.201201 0.221692 0.292319 0.279569 0.242943 0.177101 0.173632 0.148816 0.307237 0.379266 0.305048 0.299838 0.346661 0.38539 0.41007 0.422004 0.432533 0.43564 0.435502 0.431551 0.421965 0.43136 0.460985 0.506506 0.538004 0.564337 0.571471 0.568615 0.570406 0.576222 0.587167 0.600998 0.599358 0.601971 0.595801 0.56506 0.709444 0.734012 0.746827 0.751771 0.743017 0.731449 0.713189 0.701137 0.690898 0.68122 0.682993 0.649175 0.616234 0.59973 0.592887 0.584897 0.571179 0.567973 0.554717 0.528214 0.49749 0.465849 0.441533 0.429532 0.421785 0.4159 0.410399 0.404434 0.400612 0.403058 0.412025 0.435721 0.413442 0.401654 0.414852 0.42446 0.296067 0.223218 0.278677 0.229651 0.228599 0.247488 0.235828 0.291236 0.277625 0.262931 0.253838 0.217919 0.117165 0.197248 0.216644 0.370621 0.345547 0.360098 0.4023 0.416807 0.423278 0.429876 0.439105 0.441427 0.44145 0.43311 0.416033 0.389726 0.429983 0.499954 0.537059 0.584948 0.593968 0.589746 0.581652 0.573896 0.56952 0.595278 0.600942 0.605858 0.59864 0.603978 0.642911 0.643463 0.735187 0.742934 0.749476 0.755879 0.715337 0.689764 0.681639 0.664901 0.642269 0.621432 0.580722 0.578132 0.5763 0.572455 0.562854 0.541668 0.498109 0.463858 0.443936 0.435186 0.43283 0.433828 0.435344 0.435212 0.434706 0.435546 0.439196 0.439249 0.436752 0.463137 0.461187 0.408062 0.39518 0.368144 0.31902 0.283152 0.27321 0.248425 0.260701 0.255922 0.256376 0.299668 0.303516 0.301398 0.268269 0.247309 0.165185 0.178375 0.146032 0.243186 0.378842 0.416677 0.448535 0.421155 0.434413 0.438342 0.443506 0.446842 0.443255 0.43535 0.412716 0.399671 0.388332 0.510379 0.523698 0.61885 0.623098 0.612436 0.600551 0.590662 0.583944 0.581362 0.582523 0.587353 0.606091 0.60519 0.625676 0.633581 0.660468 0.725468 0.759381 0.73342 0.700369 0.683954 0.678495 0.608729 0.601156 0.594567 0.58995 0.586373 0.581905 0.575093 0.563086 0.540635 0.455753 0.441511 0.428744 0.427384 0.436456 0.444458 0.452642 0.457741 0.460954 0.46212 0.462761 0.462848 0.46486 0.486094 0.46346 0.515672 0.265233 0.28787 0.277159 0.222379 0.248918 0.305574 0.293128 0.256115 0.250505 0.295516 0.296809 0.299806 0.318238 0.264091 0.237369 0.262227 0.33375 0.195334 0.396752 0.511004 0.4417 0.437358 0.447448 0.447501 0.448616 0.445745 0.434625 0.684095 0.659772 0.635852 0.617551 0.604841 0.596441 0.591714 0.590414 0.591693 0.595058 0.599131 0.60637 0.631885 0.652236 0.66718 0.726618 0.755738 0.751541 0.770073 0.721935 0.714814 0.708465 0.660323 0.642481 0.627135 0.616039 0.607915 0.601339 0.596252 0.591843 0.587034 0.580799 0.573913 0.56082 0.471502 0.481281 0.483178 0.481027 0.482369 0.486021 0.487764 0.502392 0.478588 0.372305 0.241414 0.239846 0.235503 0.388995 0.312148 0.262714 0.2335 0.299795 0.307851 0.284042 0.295158 0.277105 0.319831 0.402754 1.1507 0.383075 0.450482 0.46264 0.455054 0.452083 0.453663 0.452839 0.446462 0.417842 0.383674 0.398733 0.226478 0.49322 0.614655 0.605746 0.600522 0.598056 0.597787 0.59897 0.601079 0.604419 0.607043 0.613931 0.616749 0.690171 0.463173 0.786535 0.704916 0.696244 0.676619 0.660108 0.645074 0.631991 0.62135 0.612977 0.605978 0.600069 0.594915 0.425179 0.412532 0.408707 0.427907 0.445317 0.459457 0.504292 0.498629 0.494451 0.499726 0.517166 0.512188 0.491626 0.41075 0.33839 0.190666 0.168432 0.255865 0.254116 0.291551 0.444944 0.300668 0.277373 0.246532 0.304462 0.319706 0.280032 0.319211 0.403092 0.980807 0.501175 0.473455 0.559784 0.493191 0.45237 0.461238 0.458629 0.459191 0.455996 0.431543 0.408543 0.368522 0.243893 0.220851 0.207183 0.777867 0.687908 0.651417 0.628866 0.60306 0.603623 0.605128 0.607289 0.608511 0.611727 0.615234 0.623383 0.639328 0.662441 0.799286 0.721742 0.733345 0.714811 0.705772 0.692803 0.676394 0.661267 0.647528 0.635421 0.625099 0.59051 0.587452 0.583868 0.604904 0.404334 0.372752 0.408683 0.437418 0.46035 0.476792 0.49457 0.50433 0.510232 0.510634 0.518504 0.490346 0.510218 0.449356 0.105602 0.377346 0.315482 0.492928 0.436621 0.367391 0.276935 0.283636 0.359839 0.541638 0.641072 0.387247 0.868888 0.472866 0.436591 0.451634 0.46128 0.452488 0.42987 0.405427 0.36557 0.291276 0.209842 0.157349 0.884368 0.705799 0.653777 0.631284 0.619324 0.611546 0.606687 0.603976 0.609715 0.611481 0.612643 0.614697 0.618515 0.626409 0.646332 0.67385 0.673287 0.594473 0.745283 0.722435 0.731978 0.72835 0.716055 0.704285 0.690535 0.67592 0.661986 0.616232 0.608398 0.601182 0.595119 0.591617 0.592272 0.605336 0.655341 0.273134 0.362141 0.412681 0.450429 0.479615 0.499825 0.516995 0.524184 0.525592 0.519798 0.531674 0.509391 0.50401 0.508364 0.541655 0.390528 0.188976 0.446217 0.772774 0.959998 0.302859 0.26717 0.637401 0.699493 0.495302 0.243878 0.408145 0.425078 0.436267 0.464642 0.454878 0.436978 0.408462 0.369977 0.319423 0.248592 0.170667 0.909907 0.765757 0.670206 0.634208 0.622793 0.615981 0.611614 0.609187 0.608098 0.607839 0.608322 0.617046 0.619192 0.624801 0.651453 0.671286 0.644209 0.617543 0.713747 0.722685 0.727112 0.722739 0.713221 0.648974 0.637249 0.62689 0.617501 0.608623 0.600202 0.593155 0.589335 0.596131 0.629755 0.711302 0.290564 0.367137 0.425591 0.468721 0.500513 0.522696 0.53568 0.541708 0.546071 0.541114 0.532423 0.435114 0.507732 0.439428 0.529663 0.386476 0.705247 0.680465 0.258093 0.484512 0.676034 0.71032 0.0986086 0.832174 0.408965 0.457048 0.464897 0.4623 0.445025 0.420737 0.381243 0.334215 0.905351 0.808438 0.713314 0.647889 0.630549 0.622226 0.617082 0.614147 0.612791 0.612243 0.612168 0.612829 0.614161 0.615331 0.616704 0.614825 0.668712 0.658859 0.643975 0.658557 0.703474 0.716522 0.701475 0.688298 0.674604 0.66134 0.648878 0.637494 0.627067 0.617181 0.607601 0.598196 0.58963 0.58512 0.601243 0.650467 0.755196 0.44713 0.490956 0.520012 0.541673 0.550489 0.559179 0.56361 0.564545 0.553797 0.547272 0.504088 0.459309 0.580072 0.691745 0.881445 0.912631 0.426555 0.375676 0.416726 0.522277 0.664686 0.629797 0.7472 0.431942 0.445528 0.462796 0.466325 0.455281 0.434026 0.402932 0.275435 0.208207 0.620401 0.61789 0.616743 0.616181 0.616328 0.617162 0.617884 0.618333 0.617926 0.616785 0.616019 0.720742 0.717596 0.709261 0.69781 0.685163 0.67218 0.659464 0.647508 0.636645 0.626526 0.616747 0.606959 0.308812 0.386614 0.558536 0.562871 0.572829 0.587242 0.571498 0.564365 0.556133 0.459802 0.576205 0.433358 0.726405 0.521207 0.217635 0.604474 0.855141 0.821738 0.403373 0.369707 0.371436 0.567524 0.612516 0.916137 0.630301 0.432221 0.437632 0.460011 0.471352 0.466745 0.354091 0.300707 0.233897 0.881486 0.826507 0.75992 0.665923 0.649453 0.634481 0.625561 0.620894 0.620761 0.620623 0.620437 0.618587 0.614971 0.609917 0.603516 0.575488 0.666837 0.660345 0.659962 0.674332 0.699704 0.711748 0.715948 0.713383 0.704754 0.69338 0.681146 0.668666 0.656687 0.645668 0.596873 0.587374 0.581158 0.608068 0.677019 0.78436 0.336786 0.415435 0.474194 0.512439 0.536513 0.584745 0.573336 0.574093 0.52975 0.677964 0.521619 0.664768 0.699847 0.859175 0.453765 0.509962 0.624531 0.810253 0.433763 0.459696 0.471382 0.450832 0.420611 0.383686 0.326981 0.264406 0.86351 0.818868 0.791209 0.69015 0.677275 0.653171 0.637597 0.628798 0.624263 0.622148 0.621191 0.62187 0.616837 0.608553 0.598238 0.579834 0.556698 0.675502 0.668883 0.667718 0.679919 0.698103 0.709758 0.713243 0.708763 0.698987 0.635643 0.626374 0.617614 0.608866 0.599354 0.590004 0.574293 0.626837 0.706562 0.802948 0.374622 0.448406 0.500296 0.533887 0.55218 0.574043 0.576101 0.587183 0.565725 0.530251 0.300911 0.647969 0.85647 0.362514 0.428246 0.535039 0.762248 0.809578 0.826446 0.472737 0.467259 0.449226 0.412787 0.358793 0.295311 0.855415 0.82415 0.786151 0.707007 0.709367 0.673916 0.651829 0.639018 0.631905 0.628347 0.626608 0.625728 0.625683 0.624935 0.623959 0.582057 0.563195 0.543914 0.686451 0.668144 0.670624 0.681711 0.698934 0.709967 0.687896 0.676085 0.664525 0.653815 0.644236 0.635715 0.62823 0.621691 0.615644 0.608494 0.603419 0.575225 0.654369 0.731106 0.812679 0.415181 0.481788 0.526624 0.554245 0.566351 0.592101 0.589338 0.570815 0.577997 0.575704 0.70913 0.667454 0.696577 0.416335 0.662901 0.702839 0.385814 0.485321 0.645293 0.812101 0.834959 0.84115 0.460986 0.471161 0.476263 0.476615 0.469801 0.45078 0.397382 0.847039 0.828656 0.806938 0.665541 0.701321 0.668906 0.651073 0.641247 0.635833 0.632834 0.631121 0.629839 0.629965 0.629799 0.627667 0.620938 0.610594 0.598695 0.679876 0.670095 0.672807 0.710407 0.702152 0.692251 0.681663 0.671051 0.661093 0.652175 0.644315 0.637893 0.633193 0.629896 0.627375 0.619369 0.62003 0.606396 0.679765 0.749312 0.814098 0.513332 0.551393 0.572846 0.579498 0.603584 0.579262 0.567637 0.572798 0.575374 0.718023 0.713996 0.713033 0.603306 0.72462 0.818425 0.604814 0.537415 0.684991 0.816933 0.470765 0.476024 0.480954 0.486541 0.477089 0.328588 0.83793 0.822723 0.733027 0.638136 0.635453 0.633288 0.634052 0.634432 0.628564 0.614293 0.600509 0.586144 0.569084 0.551137 0.554227 0.681286 0.70165 0.710463 0.703706 0.694496 0.685422 0.676261 0.667738 0.659989 0.653069 0.647506 0.643897 0.80976 0.455551 0.587117 0.596023 0.579578 0.571443 0.574574 0.746163 0.731219 0.731282 0.654547 0.577099 0.722041 0.503106 0.58015 0.841302 0.839158 0.474846 0.477699 0.445813 0.370395 0.835905 0.816867 0.698278 0.686031 0.729238 0.68767 0.665208 0.65227 0.645052 0.641017 0.641206 0.635723 0.627035 0.607112 0.584409 0.579618 0.555434 0.559798 0.677149 0.673323 0.671924 0.674361 0.708251 0.705439 0.695633 0.687763 0.680979 0.642381 0.64306 0.64556 0.631676 0.656116 0.637306 0.70359 0.759964 0.493856 0.54391 0.574603 0.588769 0.635427 0.698326 0.703203 0.80798 0.684864 0.602771 0.72517 0.82266 0.838108 0.827657 0.492984 0.499332 0.485484 0.43885 0.816825 0.806951 0.712677 0.728903 0.683764 0.707029 0.682529 0.665976 0.65672 0.651196 0.64769 0.644317 0.639688 0.63612 0.566991 0.600981 0.68074 0.673757 0.666896 0.662487 0.674541 0.668875 0.66363 0.65884 0.655699 0.654781 0.656003 0.659603 0.666792 0.665813 0.683162 0.669771 0.717886 0.764475 0.805004 0.531659 0.572276 0.593467 0.600025 0.584518 0.589274 0.583167 0.576502 0.760526 0.750506 0.751535 0.718435 0.610205 0.756979 0.831236 0.823214 0.816011 0.474021 0.481928 0.508165 0.519211 0.481279 0.654016 0.772027 0.742859 0.731295 0.717169 0.729706 0.727265 0.720587 0.701651 0.682467 0.670583 0.664625 0.659971 0.656465 0.651445 0.642995 0.632485 0.665217 0.618742 0.637879 0.579718 0.570961 0.587546 0.640987 0.685573 0.682285 0.67197 0.664249 0.768164 0.747875 0.73688 0.732143 0.729401 0.726366 0.721135 0.712751 0.700227 0.684945 0.667498 0.648065 0.628324 0.615101 0.611007 0.621826 0.638307 0.681574 0.72571 0.765637 0.805158 0.566457 0.595648 0.606647 0.602486 0.582018 0.58944 0.584413 0.766213 0.759573 0.763669 0.637678 0.716224 0.765813 0.796257 0.862147 0.641982 0.758353 0.825797 0.473377 0.484362 0.546669 0.532385 0.590866 0.638737 0.742933 0.725992 0.675567 0.671181 0.664143 0.654023 0.638338 0.692691 0.654728 0.728153 0.59444 0.829166 0.539223 0.605813 0.683852 0.742295 0.733333 0.725515 0.721193 0.714831 0.705166 0.68893 0.732844 0.768616 0.783581 0.597855 0.61188 0.614694 0.601486 0.586714 0.583947 0.777087 0.763409 0.768576 0.637642 0.748456 0.71728 0.845385 0.796265 0.84731 0.869063 0.659268 0.816515 0.808454 0.503226 0.603501 0.717385 0.720931 0.73029 0.732074 0.719347 0.70038 0.683896 0.680329 0.654133 0.616738 0.702776 0.824395 0.652493 0.593632 0.688152 0.677376 0.667922 0.739155 0.717682 0.73596 0.671736 0.653348 0.634066 0.615366 0.600743 0.596137 0.602871 0.61945 0.652436 0.697231 0.644416 0.769716 0.718226 0.850122 0.719389 0.821684 0.813374 0.796368 0.605903 0.562378 0.697521 0.655025 0.725243 0.710958 0.713268 0.72321 0.741304 0.736604 0.719909 0.694967 0.686798 0.694209 0.687637 0.67509 0.665399 0.723437 0.834242 0.661928 0.751021 0.706795 0.684269 0.674337 0.701279 0.71186 0.693632 0.727026 0.720176 0.712948 0.70571 0.684291 0.6639 0.644295 0.625395 0.607128 0.592497 0.584278 0.591859 0.603264 0.629605 0.667612 0.718189 0.740672 0.760322 0.783752 0.6166 0.623628 0.61057 0.59762 0.578495 0.78736 0.773067 0.764858 0.89744 0.845963 0.872769 0.804925 0.830063 0.701436 0.818153 0.806665 0.770286 0.719666 0.695942 0.708176 0.738005 0.632865 0.68169 0.688457 0.714397 0.709951 0.737769 0.743034 0.74768 0.700338 0.690602 0.689477 0.70525 0.69274 0.674554 0.677551 0.644092 0.73998 0.745927 0.871209 0.737056 0.780164 0.587791 0.70625 0.731143 0.698562 0.683747 0.702592 0.705094 0.695464 0.681201 0.727323 0.727325 0.706736 0.71525 0.687293 0.662631 0.640269 0.620905 0.603133 0.587263 0.578191 0.577972 0.590753 0.611359 0.643791 0.685816 0.723896 0.7378 0.767229 0.729858 0.631997 0.611318 0.604053 0.578704 0.800237 0.783322 0.766901 0.851919 0.792508 0.814563 0.821914 0.900231 0.895589 0.900281 0.793677 0.811855 0.817624 0.693532 0.79385 0.791293 0.740383 0.724595 0.767215 0.714316 0.691742 0.685256 0.708989 0.713419 0.68858 0.697508 0.704752 0.712443 0.681283 0.717525 0.72268 0.777671 0.829346 0.789039 0.819588 0.658608 0.756158 0.703547 0.690555 0.694971 0.681407 0.68503 0.748582 0.71478 0.737218 0.695233 0.668636 0.642607 0.620956 0.60259 0.653272 0.700622 0.74722 0.803488 0.830777 0.82709 0.629196 0.612223 0.578722 0.818444 0.789814 0.769357 0.857792 0.86069 0.861484 0.857209 0.893832 0.75403 0.730398 0.736136 0.758569 0.707801 0.693842 0.731583 0.68589 0.704025 0.702998 0.586679 0.572436 0.572117 0.573437 0.595242 0.62484 0.903915 0.906866 0.832677 0.844725 0.83402 0.793912 0.825436 0.811565 0.771407 0.730366 0.744214 0.694364 0.692911 0.788095 0.783693 0.763404 0.851297 0.806315 0.743444 0.762612 0.705853 0.697485 0.692468 0.692509 0.691665 0.733119 0.717735 0.795319 0.869191 0.7133 0.766299 0.820487 0.847815 0.806269 0.769397 0.734903 0.69499 0.686791 0.698274 0.70261 0.694674 0.685073 0.669554 0.690197 0.742945 0.769842 0.707511 0.677903 0.650979 0.627456 0.606127 0.588406 0.573733 0.566547 0.567292 0.575087 0.604723 0.631012 0.665618 0.708868 0.771613 0.802898 0.80893 0.838365 0.761205 0.75145 0.718721 0.88523 0.900207 0.876305 0.895003 0.904718 0.902937 0.902348 0.90052 0.893832 0.893832 0.894118 0.904225 0.904503 0.87181 0.901676 0.902148 0.876105 0.83093 0.83858 0.893528 0.89939 0.89622 0.86704 0.805021 0.819006 0.840337 0.779023 0.839311 0.841479 0.834592 0.833 0.826336 0.820579 0.867655 0.851471 0.85187 0.892817 0.689252 0.753758 0.790089 0.8554 0.801143 0.841661 0.804757 0.781248 0.785977 0.813511 0.819279 0.810605 0.802572 0.77968 0.825793 0.595377 0.901338 0.820072 0.805518 0.779868 0.768696 0.76361 0.758839 0.753973 0.756161 0.76457 0.783176 0.798541 0.82001 0.833282 0.810434 0.834094 0.836791 0.826781 0.820803 0.858125 0.844465 0.841961 0.913133 0.896925 0.89535 0.897418 0.897211 0.895129 0.893832 0.893832 0.893908 0.893953 0.894969 0.905906 0.905971 0.878146 0.902552 0.908316 0.890587 0.846147 0.887735 0.894672 0.895971 0.896591 0.882604 0.884139 0.836232 0.851117 0.840475 0.899988 0.885436 0.882748 0.879127 0.875826 0.861739 0.889391 0.869312 0.858546 0.892916 0.759861 0.813012 0.840418 0.911152 0.866487 0.907146 0.87893 0.857923 0.885982 0.895112 0.899076 0.892561 0.890283 0.876996 0.91602 0.686136 0.891876 0.898138 0.889778 0.898641 0.897635 0.898536 0.898221 0.896342 0.896554 0.90212 0.914099 0.913051 0.903801 0.882694 0.851358 0.877751 0.876269 0.850173 0.904829 0.872064 0.864279 0.849533 0.916205 0.90218 0.896273 0.899354 0.898452 0.896005 0.894171 0.893998 0.893832 0.893832 0.893898 0.901366 0.900289 0.877226 0.896331 0.904841 0.893372 0.85334 0.89642 0.895397 0.894268 0.89403 0.885237 0.896616 0.854028 0.863028 0.860548 0.892625 0.881599 0.880764 0.877901 0.872949 0.858868 0.898685 0.88539 0.864382 0.891838 0.815202 0.877688 0.883127 0.900457 0.882982 0.899438 0.89257 0.868955 0.893281 0.900622 0.907097 0.900058 0.897131 0.885025 0.91208 0.895824 0.894108 0.896694 0.895549 0.908943 0.908616 0.912435 0.911259 0.908919 0.907826 0.912685 0.919587 0.916777 0.90555 0.885323 0.861895 0.882175 0.881588 0.858605 0.904684 0.867495 0.86615 0.854524 0.911538 0.901431 0.894442 0.898571 0.897789 0.895581 0.893832 0.893835 0.893835 0.893833 0.893902 0.896594 0.895447 0.876981 0.890785 0.901446 0.893989 0.859955 0.896399 0.89524 0.893883 0.89388 0.886815 0.895637 0.870068 0.86993 0.884525 0.885012 0.878778 0.878438 0.876579 0.873455 0.862515 0.898543 0.896 0.871012 0.900946 0.837621 0.889341 0.890013 0.905178 0.888712 0.900405 0.89584 0.86965 0.89389 0.896727 0.904184 0.896481 0.894792 0.881472 0.902572 0.895174 0.894275 0.891588 0.894173 0.903225 0.902565 0.905939 0.9049 0.902569 0.901293 0.905984 0.911589 0.908878 0.896799 0.87964 0.866322 0.884082 0.885674 0.868146 0.903065 0.865752 0.868598 0.860482 0.906092 0.900256 0.893098 0.897828 0.897114 0.895202 0.893834 0.893836 0.893836 0.893834 0.893898 0.892683 0.891622 0.877662 0.886844 0.897872 0.894027 0.865415 0.895984 0.895018 0.893889 0.893881 0.887812 0.893219 0.884386 0.879274 0.89228 0.881177 0.876817 0.87679 0.875854 0.874618 0.866685 0.895042 0.897886 0.876144 0.90178 0.887535 0.88864 0.894376 0.889454 0.894076 0.895777 0.868849 0.893964 0.892809 0.900461 0.891681 0.892482 0.878193 0.894076 0.893832 0.894187 0.889014 0.89233 0.896301 0.89566 0.898147 0.897453 0.895043 0.893857 0.897994 0.903291 0.900937 0.889507 0.876154 0.87048 0.886892 0.890862 0.875892 0.901064 0.866098 0.871289 0.867057 0.900434 0.898869 0.892169 0.897022 0.896346 0.894789 0.893834 0.893836 0.847944 0.893835 0.893834 0.893888 0.889767 0.888528 0.878721 0.884567 0.894122 0.893302 0.870476 0.895495 0.894762 0.893841 0.893871 0.888511 0.891025 0.890823 0.887143 0.890835 0.879226 0.875434 0.875666 0.87541 0.875933 0.870704 0.891716 0.895541 0.879789 0.895432 0.852987 0.88541 0.886348 0.895166 0.889173 0.894056 0.895185 0.867964 0.89394 0.889615 0.897041 0.887512 0.890297 0.876637 0.886334 0.893832 0.894072 0.886963 0.890042 0.890042 0.889889 0.89118 0.890855 0.888297 0.887354 0.89081 0.896163 0.894172 0.884195 0.874826 0.874691 0.889525 0.893612 0.882093 0.898943 0.867503 0.874017 0.873735 0.895432 0.897344 0.891538 0.89616 0.895521 0.894368 0.893834 0.893836 0.893834 0.893834 0.893876 0.88765 0.886042 0.879837 0.891561 0.875422 0.894976 0.894456 0.89384 0.893862 0.889111 0.889298 0.891123 0.889488 0.888028 0.878144 0.87463 0.875087 0.875271 0.877293 0.874295 0.88928 0.892724 0.882592 0.896066 0.883316 0.884112 0.893841 0.889443 0.894018 0.894382 0.867778 0.887231 0.894265 0.884252 0.888377 0.875825 0.881019 0.893832 0.893943 0.885097 0.888046 0.885185 0.885581 0.885457 0.885433 0.88266 0.882044 0.88485 0.890329 0.888753 0.880733 0.875098 0.878774 0.891578 0.893666 0.886551 0.896756 0.869384 0.876711 0.879473 0.890966 0.895261 0.89468 0.893974 0.893834 0.893835 0.88339 0.890687 0.856294 0.893916 0.891497 0.895748 0.893834 0.893833 0.893862 0.886172 0.884081 0.880921 0.882819 0.887845 0.888937 0.879873 0.894431 0.894113 0.893838 0.893853 0.889664 0.888037 0.889367 0.888506 0.885779 0.877589 0.874297 0.874968 0.875403 0.87862 0.877298 0.887572 0.890494 0.883861 0.894001 0.858779 0.882225 0.882663 0.89384 0.888854 0.893967 0.893771 0.868271 0.893863 0.885622 0.892192 0.881821 0.886901 0.875305 0.878585 0.893832 0.893809 0.883853 0.886815 0.881823 0.882682 0.881039 0.881244 0.878234 0.877972 0.880202 0.885775 0.884711 0.878885 0.876345 0.882269 0.892423 0.892644 0.889484 0.894596 0.871639 0.879271 0.883768 0.88853 0.894153 0.890332 0.894349 0.89386 0.893622 0.893833 0.893834 0.893833 0.893833 0.893847 0.885234 0.882557 0.883573 0.893877 0.893837 0.87971 0.886416 0.88894 0.893981 0.881964 0.893838 0.893907 0.869313 0.884596 0.880095 0.885901 0.875057 0.878188 0.893832 0.893677 0.883458 0.88634 0.879741 0.880973 0.877845 0.878226 0.874984 0.87417 0.881625 0.886843 0.893453 0.893099 0.893325 0.893833 0.893833 0.881938 0.882606 0.885607 0.885875 0.893757 0.893844 0.890177 0.88718 0.887478 0.886709 0.884135 0.877395 0.874306 0.875187 0.875739 0.879867 0.884817 0.85986 0.881814 0.887862 0.893122 0.893802 0.890734 0.875064 0.876801 0.882413 0.881956 0.878285 0.87809 0.884934 0.892057 0.891481 0.891268 0.892586 0.886289 0.892622 0.889644 0.893832 0.893832 0.893833 0.884735 0.881386 0.882853 0.882627 0.883883 0.882909 0.886523 0.893336 0.893406 0.893834 0.893834 0.89065 0.886646 0.885924 0.885072 0.882946 0.877432 0.874531 0.875612 0.876193 0.880993 0.881594 0.885713 0.887924 0.885183 0.893943 0.860451 0.882185 0.881395 0.893836 0.886664 0.893845 0.892379 0.870768 0.893751 0.884 0.889772 0.87895 0.885315 0.875079 0.878927 0.893832 0.893554 0.883773 0.886421 0.87865 0.880184 0.875714 0.876229 0.872773 0.873166 0.874487 0.88009 0.880294 0.878524 0.879992 0.88676 0.891077 0.890438 0.892104 0.890823 0.876753 0.883745 0.889084 0.884598 0.891208 0.888937 0.892599 0.89242 0.893099 0.893832 0.893832 0.893893 0.882661 0.893834 0.893785 0.87245 0.875316 0.893832 0.884519 0.878267 0.893831 0.893832 0.893819 0.884562 0.8805 0.88364 0.882794 0.882573 0.880387 0.888805 0.892829 0.893075 0.893832 0.893826 0.891073 0.886348 0.884747 0.883794 0.882096 0.877598 0.874868 0.876133 0.876688 0.881963 0.883018 0.885354 0.887283 0.885161 0.860808 0.88127 0.885406 0.891634 0.893706 0.883725 0.889192 0.87826 0.885042 0.880226 0.893442 0.886847 0.880044 0.874433 0.87505 0.871405 0.872072 0.873051 0.878611 0.879479 0.879257 0.881821 0.887853 0.889995 0.889569 0.892261 0.889352 0.879173 0.885605 0.890705 0.883333 0.889954 0.888242 0.891814 0.891838 0.892947 0.893832 0.893831 0.89383 0.893831 0.893806 0.884606 0.879845 0.884291 0.883034 0.881593 0.878421 0.890516 0.892377 0.892777 0.893829 0.893818 0.891429 0.886214 0.883903 0.88286 0.881496 0.877818 0.875237 0.876666 0.877164 0.882758 0.88405 0.885221 0.886893 0.88501 0.893834 0.861108 0.883239 0.881303 0.893831 0.884238 0.893733 0.89096 0.874156 0.893661 0.883671 0.88889 0.877904 0.884984 0.875682 0.881721 0.893832 0.893344 0.885441 0.887442 0.878334 0.880302 0.873773 0.874469 0.870666 0.871563 0.872271 0.877762 0.87925 0.88023 0.883431 0.888396 0.889033 0.888882 0.892082 0.888178 0.881286 0.887167 0.891825 0.882396 0.888888 0.887596 0.891121 0.891363 0.892859 0.893831 0.89383 0.893829 0.893831 0.893795 0.884767 0.879376 0.884803 0.883291 0.880879 0.876978 0.891746 0.891995 0.892526 0.893828 0.893811 0.891706 0.886183 0.883335 0.882212 0.881079 0.87804 0.875583 0.877153 0.877579 0.883373 0.884762 0.885209 0.886663 0.884864 0.893775 0.861336 0.883805 0.881403 0.893828 0.883265 0.89369 0.890391 0.875712 0.893623 0.883741 0.88877 0.877769 0.885049 0.876092 0.883162 0.893832 0.893262 0.886348 0.888065 0.878629 0.880743 0.873521 0.874278 0.870351 0.871432 0.871932 0.877346 0.879369 0.881247 0.884732 0.888578 0.888257 0.88837 0.89182 0.887284 0.883011 0.888405 0.892562 0.881713 0.88803 0.887035 0.890542 0.890998 0.892816 0.893831 0.893829 0.893828 0.893831 0.893787 0.884961 0.879058 0.88518 0.88352 0.880384 0.875983 0.892575 0.891697 0.892329 0.893826 0.893805 0.891908 0.886208 0.882979 0.881788 0.880799 0.878229 0.875869 0.87755 0.877908 0.883818 0.885223 0.885247 0.886532 0.884761 0.893722 0.861468 0.884283 0.881525 0.893826 0.882536 0.893656 0.889943 0.876985 0.893595 0.883859 0.888751 0.877758 0.885163 0.876472 0.884371 0.893832 0.893199 0.887115 0.888612 0.878986 0.881207 0.873497 0.874301 0.87028 0.871498 0.871848 0.877191 0.879636 0.882147 0.885689 0.888555 0.887681 0.888015 0.891594 0.886643 0.884313 0.889317 0.893018 0.881233 0.887387 0.886585 0.890092 0.890736 0.892799 0.893831 0.893828 0.893828 0.89383 0.893781 0.885125 0.878862 0.885428 0.88369 0.880073 0.875363 0.893081 0.891493 0.892194 0.893825 0.893802 0.89204 0.886247 0.882776 0.881535 0.880626 0.878365 0.876071 0.877829 0.878135 0.884105 0.885493 0.885291 0.886461 0.884702 0.893682 0.861539 0.884626 0.881634 0.893824 0.882058 0.893632 0.889633 0.877883 0.893577 0.883968 0.888771 0.877794 0.885269 0.876761 0.885233 0.893832 0.893157 0.887664 0.889013 0.879287 0.881577 0.873561 0.874395 0.870313 0.871623 0.871875 0.877163 0.879899 0.882812 0.886308 0.888454 0.887306 0.887793 0.891442 0.88623 0.88518 0.889911 0.893267 0.880926 0.88696 0.886268 0.889785 0.890569 0.892794 0.893831 0.893828 0.893828 0.89383 0.893778 0.885217 0.878768 0.88555 0.88378 0.879923 0.875066 0.893321 0.891389 0.892125 0.893824 0.8938 0.892105 0.886275 0.882685 0.881419 0.880543 0.878436 0.876175 0.877972 0.87825 0.884245 0.885617 0.885318 0.88643 0.884675 0.893659 0.861573 0.884804 0.881697 0.893823 0.881821 0.893621 0.889473 0.878345 0.893568 0.884032 0.888792 0.877826 0.885332 0.876917 0.88568 0.893832 0.893136 0.88795 0.889224 0.879456 0.881779 0.873617 0.874466 0.870354 0.871709 0.871913 0.877173 0.880056 0.883164 0.886609 0.888374 0.887121 0.887688 0.891366 0.886027 0.885612 0.890203 0.893371 0.880775 0.886748 0.886104 0.889629 0.890488 0.892794 0.89383 0.893828 
SCALARS Axial_Stress float 1
LOOKUP_TABLE default
-113056000000.0 -158913000000.0 -95133700000.0 -239541000000.0 -98327600000.0 -129595000000.0 -65269000000.0 -64899800000.0 -72951500000.0 -54124900000.0 -68800500000.0 -84226500000.0 -90704300000.0 -103247000000.0 -177354000000.0 -164129000000.0 -170572000000.0 -218944000000.0 -195475000000.0 -113414000000.0 -102880000000.0 -82384700000.0 -77576500000.0 -186986000000.0 -146429000000.0 -152838000000.0 -125500000000.0 -131573000000.0 -185025000000.0 -269535000000.0 -303109000000.0 -296752000000.0 -219034000000.0 -304367000000.0 -307222000000.0 -123330000000.0 -181301000000.0 -256603000000.0 -143775000000.0 -254541000000.0 -167569000000.0 -224480000000.0 -245930000000.0 -329206000000.0 -374722000000.0 -272153000000.0 -276541000000.0 -289019000000.0 -129317000000.0 -286269000000.0 -308318000000.0 -205084000000.0 -519006000000.0 -339503000000.0 -483181000000.0 -360710000000.0 -463282000000.0 -344036000000.0 -456029000000.0 -312283000000.0 -280235000000.0 -231483000000.0 -493893000000.0 -403156000000.0 -521769000000.0 -447135000000.0 -552902000000.0 -474347000000.0 -394519000000.0 -391096000000.0 -459112000000.0 -531413000000.0 -224123000000.0 -154856000000.0 -299771000000.0 -329118000000.0 -281467000000.0 -662433000000.0 -615935000000.0 -601785000000.0 -613597000000.0 -500096000000.0 -251833000000.0 -588030000000.0 -687159000000.0 -601507000000.0 -633881000000.0 -650240000000.0 -666658000000.0 -608892000000.0 -374240000000.0 -401661000000.0 -923891000000.0 -772783000000.0 -724427000000.0 -716831000000.0 -773615000000.0 -512342000000.0 -699097000000.0 -719143000000.0 -734791000000.0 -518078000000.0 -510233000000.0 -767999000000.0 -594584000000.0 -630060000000.0 -1.19667e+12 -954644000000.0 -1.00891e+12 -855497000000.0 -943498000000.0 -829411000000.0 -940694000000.0 -855795000000.0 -1.02257e+12 -1.03439e+12 -1.27528e+12 -518406000000.0 -675237000000.0 -900023000000.0 -815746000000.0 -915278000000.0 -822075000000.0 -916435000000.0 -828722000000.0 -640929000000.0 -634911000000.0 -887936000000.0 -978238000000.0 -875280000000.0 -1.06019e+12 -1.87293e+12 -1.48065e+12 -1.41789e+12 -1.17839e+12 -1.18119e+12 -1.06955e+12 -1.0367e+12 -1.07136e+12 -1.22783e+12 -1.29009e+12 -986127000000.0 -1.00955e+12 -1.00755e+12 -1.00602e+12 -1.11785e+12 -1.02839e+12 -2.30626e+12 -1.68999e+12 -1.37581e+12 -1.2115e+12 -1.14153e+12 -1.14049e+12 -1.2186e+12 -1.34121e+12 -1.42803e+12 -1.11451e+12 -1.10255e+12 -1.09456e+12 -762001000000.0 -772123000000.0 -1.18026e+12 -1.91965e+12 -1.97805e+12 -1.58718e+12 -1.36825e+12 -1.25802e+12 -1.31876e+12 -1.22406e+12 -1.3174e+12 -1.25711e+12 -1.3728e+12 -1.34807e+12 -1.45392e+12 -1.43289e+12 -1.4548e+12 -1.33089e+12 -1.35161e+12 -1.20746e+12 -1.28725e+12 -1.18694e+12 -1.2662e+12 -1.17867e+12 -880654000000.0 -924521000000.0 -1.37153e+12 -1.59538e+12 -1.6809e+12 -1.87684e+12 -2.01494e+12 -1.91887e+12 -1.79904e+12 -1.71246e+12 -1.53964e+12 -1.52776e+12 -1.38717e+12 -1.42436e+12 -1.39153e+12 -1.41742e+12 -1.48141e+12 -1.51831e+12 -1.47219e+12 -1.40434e+12 -1.36018e+12 -1.34338e+12 -1.65519e+12 -1.79231e+12 -1.94569e+12 -1.84684e+12 -1.67356e+12 -1.54042e+12 -1.47624e+12 -1.47404e+12 -1.5191e+12 -1.56889e+12 -1.56922e+12 -1.51691e+12 -1.4646e+12 -1.52324e+12 -1.42898e+12 -1.49668e+12 -996254000000.0 -1.10469e+12 -1.79081e+12 -1.91449e+12 -1.93215e+12 -1.80538e+12 -1.66377e+12 -1.57045e+12 -1.54009e+12 -1.61488e+12 -1.56496e+12 -1.6601e+12 -1.61491e+12 -1.70187e+12 -1.6411e+12 -1.70679e+12 -1.61816e+12 -1.67403e+12 -1.57137e+12 -1.62515e+12 -1.57872e+12 -1.10763e+12 -1.27622e+12 -1.85204e+12 -1.94828e+12 -1.91228e+12 -1.99868e+12 -1.97501e+12 -1.99309e+12 -1.91223e+12 -1.8987e+12 -1.78582e+12 -1.78123e+12 -1.67316e+12 -1.69658e+12 -1.61448e+12 -1.67074e+12 -1.70293e+12 -1.7551e+12 -1.78195e+12 -1.76986e+12 -1.7292e+12 -1.67113e+12 -1.63367e+12 -2.00815e+12 -2.0369e+12 -2.05393e+12 -1.99862e+12 -1.89108e+12 -1.78704e+12 -1.73299e+12 -1.74015e+12 -1.80069e+12 -1.84724e+12 -1.85782e+12 -1.92974e+12 -1.8312e+12 -1.88401e+12 -1.77536e+12 -1.80257e+12 -1.71011e+12 -1.74775e+12 -1.2125e+12 -1.44224e+12 -2.0886e+12 -2.10529e+12 -2.08512e+12 -1.99983e+12 -1.8864e+12 -1.80142e+12 -1.78218e+12 -1.84712e+12 -1.83432e+12 -1.94404e+12 -1.90211e+12 -2.0029e+12 -1.93628e+12 -2.02303e+12 -1.99426e+12 -1.91727e+12 -1.81639e+12 -1.30688e+12 -1.60304e+12 -2.14073e+12 -2.21863e+12 -2.16421e+12 -2.21962e+12 -2.15951e+12 -2.20136e+12 -2.10477e+12 -2.11544e+12 -1.9957e+12 -1.97956e+12 -1.88182e+12 -1.88027e+12 -1.82941e+12 -1.87108e+12 -1.96303e+12 -2.0573e+12 -2.10214e+12 -2.10741e+12 -2.04043e+12 -1.90938e+12 -1.83066e+12 -2.25239e+12 -2.28851e+12 -2.2783e+12 -2.24494e+12 -2.0997e+12 -1.9526e+12 -1.89955e+12 -1.92639e+12 -2.09606e+12 -2.16826e+12 -2.27662e+12 -2.20066e+12 -2.2991e+12 -2.18846e+12 -2.26575e+12 -2.04246e+12 -1.90877e+12 -1.87771e+12 -1.88878e+12 -1.38707e+12 -1.75679e+12 -2.32879e+12 -2.34611e+12 -2.37847e+12 -2.2869e+12 -2.53276e+12 -2.38384e+12 -2.24484e+12 -2.05614e+12 -1.92246e+12 -1.9319e+12 -2.09942e+12 -2.26877e+12 -2.22437e+12 -2.34408e+12 -2.38247e+12 -2.40153e+12 -2.34121e+12 -1.81112e+12 -1.4567e+12 -1.88972e+12 -2.38304e+12 -2.78382e+12 -2.61232e+12 -2.41675e+12 -2.38426e+12 -2.19715e+12 -2.10193e+12 -1.99033e+12 -1.91041e+12 -1.94013e+12 -1.95764e+12 -1.94908e+12 -2.26597e+12 -2.41815e+12 -2.44813e+12 -2.49326e+12 -2.51434e+12 -2.67549e+12 -2.54929e+12 -2.77226e+12 -1.88791e+12 -1.34883e+12 -2.15417e+12 -3.32121e+12 -3.15951e+12 -2.86012e+12 -2.59458e+12 -2.29996e+12 -1.94398e+12 -1.99885e+12 -1.77921e+12 -2.5225e+12 -2.62456e+12 -2.51623e+12 -2.59018e+12 -2.55236e+12 -2.67808e+12 -2.62048e+12 -2.77924e+12 -2.87693e+12 -2.76753e+12 -1.99779e+12 -2.92681e+12 -3.80081e+12 -3.19397e+12 -3.149e+12 -2.84381e+12 -2.68323e+12 -2.49977e+12 -2.19036e+12 -1.59544e+12 -1.95258e+12 -2.68336e+12 -2.85679e+12 -2.63992e+12 -2.6934e+12 -2.84062e+12 -2.95688e+12 -3.05266e+12 -2.99561e+12 -2.18291e+12 -2.55668e+12 -5.04944e+12 -3.57536e+12 -3.60812e+12 -2.80871e+12 -2.63928e+12 -2.42388e+12 -2.31276e+12 -2.01185e+12 -1.76744e+12 -1.29509e+12 -1.59277e+12 -3.25548e+12 -2.76812e+12 -2.66724e+12 -2.85326e+12 -3.05911e+12 -3.02839e+12 -3.19744e+12 -3.12898e+12 -2.99328e+12 -4.32375e+12 -2.27092e+12 -4.34348e+12 -4.15308e+12 -4.98559e+12 -5.27338e+12 -5.02538e+12 -4.62677e+12 -4.77048e+12 -1.94331e+12 -2.69482e+12 -2.8325e+12 -2.57088e+12 -2.16768e+12 -1.41145e+12 -965202000000.0 -1.7156e+12 -3.52746e+12 -3.10629e+12 -2.67403e+12 -2.63932e+12 -2.66056e+12 -2.80673e+12 -3.03066e+12 -3.27018e+12 -3.09694e+12 -4.63054e+12 -5.10413e+12 -3.93964e+12 -3.97224e+12 -4.12219e+12 -6.30768e+12 -4.94955e+12 -4.98062e+12 -3.44668e+12 -2.96708e+12 -2.97121e+12 -3.00063e+12 -2.8006e+12 -2.47465e+12 -1.98907e+12 -1.9925e+12 -2.88564e+12 -2.44539e+12 -2.88736e+12 -3.31441e+12 -3.23978e+12 -4.15987e+12 -4.48667e+12 -4.92462e+12 -5.12825e+12 -5.34285e+12 -5.99774e+12 -3.81203e+12 -3.96673e+12 -6.17195e+12 -6.28368e+12 -5.70644e+12 -5.20664e+12 -4.52051e+12 -3.35228e+12 -3.14949e+12 -2.96792e+12 -2.73765e+12 -2.65751e+12 -2.35993e+12 -2.31206e+12 -2.03907e+12 -1.9018e+12 -2.896e+12 -2.54119e+12 -2.21179e+12 -2.38029e+12 -3.38135e+12 -3.33643e+12 -3.44559e+12 -3.42312e+12 -3.85474e+12 -4.56943e+12 -5.2371e+12 -5.84259e+12 -6.15524e+12 -6.15256e+12 -3.64665e+12 -3.62759e+12 -3.80955e+12 -6.11771e+12 -5.85138e+12 -5.45817e+12 -5.10116e+12 -4.9414e+12 -4.70939e+12 -4.10923e+12 -3.8268e+12 -3.42468e+12 -3.36671e+12 -3.15234e+12 -2.92375e+12 -2.59064e+12 -2.2585e+12 -2.14684e+12 -2.24442e+12 -2.53144e+12 -1.90164e+12 -1.82299e+12 -3.823e+12 -3.4702e+12 -3.64588e+12 -4.14754e+12 -4.92851e+12 -5.45556e+12 -5.95255e+12 -6.07299e+12 -3.44854e+12 -3.29138e+12 -3.57785e+12 -6.00467e+12 -5.86896e+12 -5.88868e+12 -5.59654e+12 -4.97891e+12 -5.01979e+12 -4.37501e+12 -3.64794e+12 -3.27875e+12 -3.10846e+12 -3.08163e+12 -2.90095e+12 -2.91277e+12 -2.49562e+12 -2.27057e+12 -2.54778e+12 -2.52585e+12 -4.26215e+12 -4.51744e+12 -3.66472e+12 -3.52354e+12 -3.97498e+12 -4.53512e+12 -4.89299e+12 -5.2443e+12 -5.50572e+12 -5.76814e+12 -5.87742e+12 -6.0124e+12 -6.03295e+12 -5.85962e+12 -3.51321e+12 -3.46962e+12 -5.69835e+12 -5.7337e+12 -5.75674e+12 -5.55947e+12 -5.65295e+12 -5.39466e+12 -5.34573e+12 -4.95687e+12 -5.35126e+12 -4.92894e+12 -4.49587e+12 -4.01227e+12 -3.47064e+12 -3.22009e+12 -3.08229e+12 -2.98659e+12 -2.18771e+12 -2.37438e+12 -2.98275e+12 -3.26862e+12 -4.22249e+12 -4.08249e+12 -3.83158e+12 -3.61613e+12 -3.63207e+12 -3.72487e+12 -3.96504e+12 -4.13623e+12 -4.48015e+12 -5.23466e+12 -5.75787e+12 -5.79334e+12 -6.06215e+12 -6.32374e+12 -5.92e+12 -5.17096e+12 -5.42117e+12 -3.4518e+12 -3.22292e+12 -3.32189e+12 -5.50729e+12 -5.33644e+12 -5.33842e+12 -5.45783e+12 -5.31933e+12 -4.96359e+12 -5.16441e+12 -3.9498e+12 -3.69741e+12 -3.5412e+12 -3.36707e+12 -3.30289e+12 -3.19576e+12 -3.21791e+12 -3.1436e+12 -3.36681e+12 -3.46415e+12 -3.85537e+12 -2.17045e+12 -2.21226e+12 -2.67799e+12 -3.30401e+12 -3.78592e+12 -3.98978e+12 -3.74807e+12 -3.75269e+12 -4.11475e+12 -4.82231e+12 -5.22272e+12 -5.58327e+12 -5.88656e+12 -6.00182e+12 -6.38219e+12 -4.34351e+12 -5.59565e+12 -3.40062e+12 -3.32655e+12 -3.21568e+12 -5.52871e+12 -5.18835e+12 -5.19921e+12 -4.22307e+12 -6.17099e+12 -5.67277e+12 -4.97452e+12 -4.6728e+12 -4.51711e+12 -6.11648e+12 -4.21455e+12 -3.74016e+12 -3.43362e+12 -3.28431e+12 -3.32797e+12 -3.6679e+12 -4.18926e+12 -2.39233e+12 -3.00097e+12 -3.60791e+12 -3.88434e+12 -3.86975e+12 -3.8644e+12 -3.79771e+12 -3.67776e+12 -3.87095e+12 -4.36189e+12 -4.66696e+12 -5.76679e+12 -6.18687e+12 -5.63762e+12 -5.2122e+12 -5.91706e+12 -5.42715e+12 -5.35587e+12 -5.52474e+12 -5.68198e+12 -3.25689e+12 -3.28722e+12 -5.7925e+12 -5.6499e+12 -5.42647e+12 -5.31352e+12 -5.09962e+12 -5.38014e+12 -5.39849e+12 -5.53963e+12 -2.86961e+12 -5.48952e+12 -3.20584e+12 -4.42087e+12 -4.07577e+12 -3.94508e+12 -3.5867e+12 -3.36981e+12 -3.32481e+12 -3.50008e+12 -3.92924e+12 -4.27473e+12 -2.89018e+12 -3.3307e+12 -3.60111e+12 -3.76045e+12 -3.83814e+12 -3.57937e+12 -3.69219e+12 -3.73098e+12 -4.00129e+12 -4.20823e+12 -5.05781e+12 -3.79328e+12 -5.33519e+12 -5.25616e+12 -5.09358e+12 -5.50607e+12 -5.5705e+12 -5.72318e+12 -5.75198e+12 -3.22721e+12 -3.44504e+12 -3.39052e+12 -5.92899e+12 -5.6219e+12 -5.47674e+12 -5.26383e+12 -5.71146e+12 -5.15891e+12 -4.72172e+12 -4.26118e+12 -4.02949e+12 -3.63408e+12 -3.80484e+12 -3.74011e+12 -3.61551e+12 -3.48218e+12 -3.40167e+12 -3.35124e+12 -3.38023e+12 -3.41581e+12 -3.52574e+12 -3.68079e+12 -3.80317e+12 -4.07474e+12 -3.97835e+12 -3.89316e+12 -3.41369e+12 -3.75087e+12 -3.83663e+12 -3.87026e+12 -3.77606e+12 -3.53091e+12 -3.81464e+12 -4.48605e+12 -4.71311e+12 -5.41014e+12 -4.56577e+12 -4.87947e+12 -5.19402e+12 -5.25138e+12 -5.47883e+12 -5.5104e+12 -5.51624e+12 -5.61836e+12 -5.81476e+12 -3.24469e+12 -3.42873e+12 -5.99066e+12 -5.83623e+12 -5.78079e+12 -5.67573e+12 -5.39887e+12 -5.4691e+12 -5.73034e+12 -6.04753e+12 -5.58198e+12 -5.02624e+12 -4.3835e+12 -2.96901e+12 -2.75108e+12 -3.47745e+12 -3.74772e+12 -3.46463e+12 -3.37434e+12 -3.43362e+12 -3.61172e+12 -3.80876e+12 -3.74855e+12 -3.60134e+12 -3.66347e+12 -3.6841e+12 -3.89524e+12 -3.84667e+12 -3.89711e+12 -3.25848e+12 -3.51429e+12 -3.47486e+12 -3.97931e+12 -4.21946e+12 -3.87834e+12 -5.01867e+12 -5.19922e+12 -4.94897e+12 -5.15992e+12 -5.48209e+12 -5.59966e+12 -5.66423e+12 -5.75311e+12 -5.88981e+12 -3.29208e+12 -3.32431e+12 -3.36032e+12 -5.96e+12 -5.97894e+12 -5.82074e+12 -5.70759e+12 -5.57946e+12 -5.51749e+12 -5.55058e+12 -6.21071e+12 -5.83699e+12 -5.25631e+12 -4.65976e+12 -4.3144e+12 -5.00677e+12 -5.07682e+12 -3.95402e+12 -3.80645e+12 -3.53294e+12 -3.52083e+12 -3.37987e+12 -3.38026e+12 -3.48204e+12 -3.63726e+12 -3.72018e+12 -3.64656e+12 -3.78202e+12 -4.18958e+12 -3.86866e+12 -2.99486e+12 -3.30711e+12 -3.1048e+12 -3.56161e+12 -3.68775e+12 -4.06796e+12 -4.45257e+12 -4.94768e+12 -5.60005e+12 -6.34005e+12 -3.87174e+12 -5.45428e+12 -5.62605e+12 -5.57057e+12 -5.52649e+12 -5.69527e+12 -5.65556e+12 -5.78559e+12 -5.92117e+12 -3.31224e+12 -3.09337e+12 -3.24594e+12 -5.88667e+12 -5.82503e+12 -5.68585e+12 -5.63765e+12 -5.44416e+12 -5.26627e+12 -5.55105e+12 -6.03667e+12 -6.97348e+12 -6.4591e+12 -5.24098e+12 -4.87297e+12 -4.69256e+12 -4.425e+12 -3.90675e+12 -3.56466e+12 -3.34178e+12 -3.37718e+12 -3.309e+12 -3.34526e+12 -3.3284e+12 -3.39321e+12 -3.39407e+12 -3.49956e+12 -3.48423e+12 -3.60589e+12 -3.55432e+12 -3.62603e+12 -3.60525e+12 -3.68326e+12 -3.78062e+12 -3.96432e+12 -4.27475e+12 -4.52516e+12 -5.15891e+12 -3.95039e+12 -2.75721e+12 -2.89664e+12 -2.75064e+12 -4.11369e+12 -4.58821e+12 -5.0915e+12 -5.65288e+12 -6.02532e+12 -5.86785e+12 -5.62844e+12 -5.56348e+12 -5.66508e+12 -5.63668e+12 -5.77e+12 -5.91039e+12 -5.8582e+12 -3.27846e+12 -2.95299e+12 -5.76476e+12 -5.70229e+12 -5.79848e+12 -5.65991e+12 -5.5465e+12 -5.09726e+12 -3.96789e+12 -6.29238e+12 -6.11041e+12 -5.6604e+12 -4.84815e+12 -4.65018e+12 -4.4431e+12 -4.47342e+12 -4.42311e+12 -3.21589e+12 -3.27526e+12 -3.25149e+12 -3.27146e+12 -3.30991e+12 -3.37685e+12 -3.45345e+12 -3.52094e+12 -3.65151e+12 -3.96034e+12 -4.56995e+12 -4.03592e+12 -1.58137e+12 -2.67648e+12 -2.443e+12 -1.744e+12 -3.47584e+12 -4.10691e+12 -4.57872e+12 -4.97025e+12 -5.40256e+12 -5.17514e+12 -6.00847e+12 -6.73744e+12 -5.27904e+12 -5.66279e+12 -5.32427e+12 -5.48306e+12 -5.62589e+12 -5.75744e+12 -5.78468e+12 -3.21351e+12 -3.11193e+12 -2.85888e+12 -5.40831e+12 -5.58925e+12 -5.57945e+12 -5.63015e+12 -5.46401e+12 -5.54074e+12 -5.38604e+12 -5.49209e+12 -5.211e+12 -5.37296e+12 -5.4823e+12 -5.41088e+12 -5.12655e+12 -4.541e+12 -4.33837e+12 -4.16803e+12 -3.78412e+12 -2.82246e+12 -2.98538e+12 -3.16034e+12 -3.14994e+12 -3.21159e+12 -3.23484e+12 -3.2853e+12 -3.34966e+12 -3.42539e+12 -3.5296e+12 -3.73422e+12 -4.07459e+12 -3.87491e+12 -2.38676e+12 -3.09781e+12 -2.10989e+12 -3.42073e+12 -4.05435e+12 -4.45812e+12 -5.11688e+12 -5.35754e+12 -5.29872e+12 -5.74744e+12 -5.77337e+12 -5.3192e+12 -5.40191e+12 -5.5201e+12 -5.57442e+12 -5.6644e+12 -5.58843e+12 -5.70247e+12 -3.02072e+12 -2.82635e+12 -5.2512e+12 -5.38937e+12 -5.42677e+12 -5.53663e+12 -5.49483e+12 -5.3656e+12 -5.35696e+12 -6.20796e+12 -5.26125e+12 -5.34984e+12 -5.15092e+12 -4.97418e+12 -4.74338e+12 -4.19405e+12 -3.96603e+12 -3.51278e+12 -2.46231e+12 -2.3878e+12 -3.09886e+12 -3.06993e+12 -3.15714e+12 -3.12228e+12 -3.20278e+12 -3.16436e+12 -3.25344e+12 -3.2219e+12 -3.32325e+12 -3.30278e+12 -3.41304e+12 -3.41562e+12 -3.56361e+12 -3.5616e+12 -3.77162e+12 -3.66479e+12 -3.45703e+12 -2.85896e+12 -4.01223e+12 -4.02284e+12 -3.461e+12 -3.81722e+12 -4.11155e+12 -4.68398e+12 -4.9427e+12 -5.15612e+12 -5.14386e+12 -4.93841e+12 -3.70133e+12 -6.02949e+12 -5.41883e+12 -5.1779e+12 -5.37727e+12 -5.43983e+12 -5.48106e+12 -5.52698e+12 -5.54839e+12 -5.38054e+12 -2.96867e+12 -2.85836e+12 -2.84152e+12 -5.12548e+12 -5.0695e+12 -5.20707e+12 -5.23309e+12 -5.32748e+12 -5.37353e+12 -5.34588e+12 -5.27106e+12 -5.31499e+12 -5.11349e+12 -5.12639e+12 -5.18275e+12 -5.11411e+12 -4.84749e+12 -4.75256e+12 -4.64737e+12 -4.54606e+12 -4.38622e+12 -3.81498e+12 -3.71242e+12 -4.35683e+12 -3.81021e+12 -3.0459e+12 -2.94425e+12 -3.04316e+12 -3.07798e+12 -3.12592e+12 -3.19469e+12 -3.28511e+12 -3.39782e+12 -3.49001e+12 -3.48984e+12 -3.23456e+12 -2.9853e+12 -3.24145e+12 -2.84938e+12 -2.26673e+12 -2.90661e+12 -3.43588e+12 -4.34439e+12 -4.59047e+12 -4.79299e+12 -4.92444e+12 -4.80225e+12 -4.48798e+12 -4.75455e+12 -3.81591e+12 -4.74869e+12 -5.23032e+12 -5.21053e+12 -5.31198e+12 -5.29856e+12 -5.40804e+12 -5.41397e+12 -5.36131e+12 -5.21046e+12 -2.95528e+12 -2.94763e+12 -2.85624e+12 -4.99215e+12 -4.92078e+12 -5.08681e+12 -5.21932e+12 -5.2279e+12 -4.86656e+12 -5.02996e+12 -5.56295e+12 -3.09299e+12 -4.25264e+12 -4.33106e+12 -4.34068e+12 -4.3067e+12 -4.23324e+12 -4.10341e+12 -3.9619e+12 -3.56842e+12 -3.37747e+12 -2.36758e+12 -2.12223e+12 -2.69558e+12 -2.90945e+12 -2.97614e+12 -2.89759e+12 -2.98853e+12 -2.94705e+12 -3.03479e+12 -3.0896e+12 -3.16669e+12 -3.25526e+12 -3.2015e+12 -3.33981e+12 -3.25609e+12 -3.37366e+12 -3.20962e+12 -2.99628e+12 -3.66316e+12 -4.7646e+12 -4.1672e+12 -3.71418e+12 -3.78448e+12 -4.02962e+12 -4.25748e+12 -4.47753e+12 -4.61917e+12 -4.66147e+12 -4.62139e+12 -4.96785e+12 -4.94481e+12 -6.04661e+12 -4.76756e+12 -4.79632e+12 -5.14138e+12 -5.22578e+12 -5.45622e+12 -5.26707e+12 -5.1922e+12 -5.00454e+12 -2.90109e+12 -2.64564e+12 -4.81563e+12 -4.84202e+12 -4.74517e+12 -4.90852e+12 -5.00563e+12 -5.18342e+12 -5.48238e+12 -5.36768e+12 -5.32286e+12 -3.94762e+12 -4.6634e+12 -3.20603e+12 -4.20835e+12 -3.61293e+12 -4.08442e+12 -4.12308e+12 -4.11066e+12 -4.06634e+12 -3.98688e+12 -3.87119e+12 -3.73184e+12 -3.86823e+12 -4.60421e+12 -3.87206e+12 -2.89221e+12 -2.79857e+12 -2.8632e+12 -2.89175e+12 -2.98878e+12 -2.94581e+12 -3.05395e+12 -3.01212e+12 -3.12916e+12 -3.07722e+12 -3.13024e+12 -3.14782e+12 -3.00219e+12 -2.75917e+12 -3.01905e+12 -3.15666e+12 -3.66611e+12 -3.73147e+12 -3.84698e+12 -3.99718e+12 -4.17443e+12 -4.33274e+12 -4.4056e+12 -4.4654e+12 -4.611e+12 -4.63281e+12 -4.83698e+12 -3.67706e+12 -6.07012e+12 -4.70489e+12 -5.2452e+12 -5.09958e+12 -5.16706e+12 -5.03461e+12 -4.98568e+12 -4.76093e+12 -4.73189e+12 -2.93003e+12 -2.22076e+12 -2.39038e+12 -4.44958e+12 -4.40444e+12 -4.71466e+12 -4.8766e+12 -5.17515e+12 -5.3391e+12 -5.89845e+12 -5.78899e+12 -3.87018e+12 -3.96385e+12 -3.94677e+12 -3.9129e+12 -3.86355e+12 -3.79677e+12 -3.71965e+12 -3.66539e+12 -3.72223e+12 -2.06147e+12 -2.57585e+12 -2.80496e+12 -2.79754e+12 -2.84118e+12 -2.8996e+12 -2.96153e+12 -3.0133e+12 -3.04394e+12 -2.94127e+12 -3.0261e+12 -2.92522e+12 -2.23189e+12 -3.62993e+12 -3.62623e+12 -3.69087e+12 -3.78836e+12 -3.91324e+12 -4.05373e+12 -3.98281e+12 -6.20905e+12 -5.26696e+12 -5.31179e+12 -5.1553e+12 -4.88998e+12 -4.33079e+12 -4.30156e+12 -4.44843e+12 -2.69231e+12 -2.50412e+12 -2.01541e+12 -4.14588e+12 -4.42417e+12 -4.50674e+12 -4.31298e+12 -4.51011e+12 -4.83518e+12 -5.6493e+12 -6.27774e+12 -4.10108e+12 -4.78578e+12 -4.62047e+12 -4.48112e+12 -3.95177e+12 -4.12491e+12 -3.7278e+12 -3.68761e+12 -3.64043e+12 -3.59541e+12 -3.57573e+12 -3.53717e+12 -3.40073e+12 -2.41407e+12 -2.77532e+12 -2.82029e+12 -2.6225e+12 -2.70176e+12 -2.65545e+12 -2.74193e+12 -2.67403e+12 -2.78868e+12 -2.74004e+12 -2.85002e+12 -2.79502e+12 -2.9019e+12 -2.83415e+12 -2.94117e+12 -2.86473e+12 -2.81875e+12 -2.87992e+12 -3.42955e+12 -1.84123e+12 -2.80192e+12 -3.31564e+12 -3.4822e+12 -3.5912e+12 -3.69146e+12 -3.79956e+12 -4.16475e+12 -4.25894e+12 -4.38132e+12 -4.46687e+12 -4.62385e+12 -4.33674e+12 -4.94295e+12 -5.09237e+12 -4.93934e+12 -5.305e+12 -3.75752e+12 -6.23584e+12 -5.58692e+12 -5.16341e+12 -4.82041e+12 -4.51805e+12 -3.28583e+12 -4.6837e+12 -4.31788e+12 -2.33219e+12 -1.71062e+12 -3.62446e+12 -3.97041e+12 -4.95694e+12 -3.24306e+12 -3.85935e+12 -4.31952e+12 -5.17346e+12 -5.44806e+12 -4.98213e+12 -4.48831e+12 -4.71008e+12 -4.21832e+12 -4.18675e+12 -3.89076e+12 -3.91742e+12 -3.78348e+12 -3.78685e+12 -3.76095e+12 -3.5413e+12 -3.52439e+12 -3.52606e+12 -3.56518e+12 -3.71221e+12 -3.96728e+12 -4.61507e+12 -3.72507e+12 -2.5562e+12 -2.59903e+12 -2.55108e+12 -2.62662e+12 -2.69037e+12 -2.73237e+12 -2.76038e+12 -2.79257e+12 -2.64321e+12 -2.34331e+12 -4.14389e+12 -3.5426e+12 -3.35727e+12 -3.39193e+12 -3.44481e+12 -3.51215e+12 -3.91192e+12 -4.01719e+12 -4.13138e+12 -4.23566e+12 -4.33981e+12 -4.3032e+12 -4.60666e+12 -4.60313e+12 -4.97942e+12 -4.81154e+12 -4.71348e+12 -4.91816e+12 -5.49344e+12 -4.62049e+12 -4.30278e+12 -3.84037e+12 -4.31315e+12 -3.83063e+12 -2.99999e+12 -2.08264e+12 -1.44411e+12 -1.98019e+12 -2.86217e+12 -3.00843e+12 -4.59286e+12 -5.02574e+12 -2.61722e+12 -3.75911e+12 -4.61708e+12 -4.77495e+12 -4.58845e+12 -4.56568e+12 -4.29198e+12 -4.17768e+12 -3.98219e+12 -3.89181e+12 -3.73599e+12 -3.69798e+12 -3.62246e+12 -3.60483e+12 -3.58334e+12 -3.56194e+12 -3.42137e+12 -3.44251e+12 -3.4978e+12 -3.55759e+12 -3.61038e+12 -2.51214e+12 -1.70489e+12 -3.40296e+12 -2.69975e+12 -2.41517e+12 -2.49843e+12 -2.58632e+12 -2.63327e+12 -2.66276e+12 -2.5894e+12 -2.68523e+12 -2.60711e+12 -2.73685e+12 -2.73099e+12 -1.94136e+12 -2.68131e+12 -3.11518e+12 -3.21386e+12 -3.29042e+12 -3.58816e+12 -3.67404e+12 -3.76562e+12 -3.86945e+12 -3.975e+12 -4.06883e+12 -4.10322e+12 -4.26733e+12 -4.34033e+12 -4.47959e+12 -4.56334e+12 -4.47501e+12 -4.77069e+12 -4.69913e+12 -4.83899e+12 -4.0883e+12 -3.65482e+12 -2.33519e+12 -5.03247e+12 -2.71051e+12 -3.8492e+12 -2.22404e+12 -2.16272e+12 -1.46538e+12 -1.63747e+12 -3.00734e+12 -1.82311e+12 -3.71821e+12 -4.12138e+12 -3.84116e+12 -3.46323e+12 -4.10885e+12 -4.26438e+12 -4.21123e+12 -4.21339e+12 -4.15616e+12 -3.94467e+12 -3.85458e+12 -3.72507e+12 -3.63414e+12 -3.53121e+12 -3.48605e+12 -3.44224e+12 -3.42754e+12 -3.41819e+12 -3.41402e+12 -3.41422e+12 -3.43052e+12 -3.56854e+12 -3.58471e+12 -4.34762e+12 -3.68651e+12 -2.11471e+12 -2.233e+12 -2.09013e+12 -2.33527e+12 -2.36649e+12 -2.48052e+12 -2.43679e+12 -2.53543e+12 -2.47771e+12 -2.57078e+12 -2.50311e+12 -2.51585e+12 -2.50712e+12 -3.12596e+12 -4.38582e+12 -4.03593e+12 -3.40042e+12 -3.25574e+12 -3.34978e+12 -3.4074e+12 -3.4696e+12 -3.53916e+12 -3.62446e+12 -3.71554e+12 -3.80304e+12 -3.86503e+12 -3.95779e+12 -4.0381e+12 -4.14159e+12 -4.19953e+12 -4.2472e+12 -4.35477e+12 -4.39629e+12 -4.33124e+12 -4.31467e+12 -3.69166e+12 -3.1216e+12 -3.87624e+12 -3.67536e+12 -5.00188e+12 -4.44407e+12 -3.74545e+12 -2.01088e+12 -1.99963e+12 -2.848e+12 -2.75377e+12 -3.55877e+12 -4.06811e+12 -2.53827e+12 -3.37323e+12 -3.5448e+12 -3.64766e+12 -3.76861e+12 -3.88297e+12 -3.88004e+12 -3.87969e+12 -3.85867e+12 -3.78013e+12 -3.65279e+12 -3.56425e+12 -3.46221e+12 -3.38161e+12 -3.31476e+12 -3.28218e+12 -3.26187e+12 -3.2604e+12 -3.26822e+12 -3.28031e+12 -3.29603e+12 -3.31815e+12 -3.36033e+12 -3.52073e+12 -3.3523e+12 -2.35073e+12 -1.45734e+12 -2.24509e+12 -2.33228e+12 -2.39198e+12 -2.4106e+12 -2.44323e+12 -2.43019e+12 -2.23655e+12 -2.29683e+12 -2.20056e+12 -3.21218e+12 -3.22516e+12 -3.25544e+12 -3.29475e+12 -3.34186e+12 -3.40286e+12 -3.47268e+12 -3.54542e+12 -3.61059e+12 -3.68483e+12 -3.74497e+12 -3.82347e+12 -3.88512e+12 -3.93415e+12 -4.02551e+12 -4.04756e+12 -4.03372e+12 -3.97915e+12 -3.9065e+12 -3.70357e+12 -3.88539e+12 -4.38789e+12 -4.16553e+12 -3.8732e+12 -3.48076e+12 -3.48059e+12 -3.19468e+12 -1.8311e+12 -1.81473e+12 -3.11344e+12 -3.24432e+12 -2.5618e+12 -3.7713e+12 -3.35667e+12 -3.36414e+12 -3.49202e+12 -3.57608e+12 -3.5842e+12 -3.57885e+12 -3.56517e+12 -3.52698e+12 -3.13484e+12 -3.09812e+12 -3.08708e+12 -3.0909e+12 -3.11142e+12 -3.13253e+12 -3.153e+12 -3.17359e+12 -3.20044e+12 -3.23832e+12 -3.29634e+12 -3.32177e+12 -1.83829e+12 -1.20741e+12 -2.17337e+12 -2.19985e+12 -2.3045e+12 -2.32866e+12 -2.25815e+12 -2.33215e+12 -2.25647e+12 -2.42348e+12 -2.49844e+12 -1.26904e+12 -3.3889e+12 -3.33196e+12 -3.17232e+12 -3.12179e+12 -3.10795e+12 -3.11805e+12 -3.13866e+12 -3.16613e+12 -3.20209e+12 -3.24833e+12 -3.3015e+12 -3.35546e+12 -3.69277e+12 -3.72601e+12 -3.72534e+12 -3.70444e+12 -3.66579e+12 -3.60024e+12 -3.42752e+12 -3.41561e+12 -3.60665e+12 -4.12056e+12 -3.46381e+12 -3.15091e+12 -2.93279e+12 -1.65079e+12 -1.47265e+12 -1.59962e+12 -3.05567e+12 -3.36304e+12 -2.98748e+12 -3.55715e+12 -4.15262e+12 -2.87214e+12 -3.15238e+12 -3.08597e+12 -3.40529e+12 -3.41038e+12 -3.33335e+12 -3.32541e+12 -3.30885e+12 -3.28991e+12 -3.45857e+12 -3.36091e+12 -3.27541e+12 -3.19299e+12 -2.94925e+12 -2.98072e+12 -3.00422e+12 -3.02251e+12 -3.03841e+12 -3.05457e+12 -3.07001e+12 -3.05719e+12 -3.03346e+12 -2.68669e+12 -2.25875e+12 -2.74992e+12 -1.7368e+12 -1.97964e+12 -2.14975e+12 -2.22878e+12 -2.17434e+12 -2.25544e+12 -2.17874e+12 -2.16829e+12 -2.209e+12 -2.68025e+12 -1.93944e+12 -2.76291e+12 -2.96471e+12 -2.97082e+12 -2.97316e+12 -2.97985e+12 -2.99212e+12 -3.00676e+12 -3.02305e+12 -3.41532e+12 -3.47146e+12 -3.52853e+12 -3.5821e+12 -3.63411e+12 -3.41974e+12 -3.40325e+12 -3.3686e+12 -3.31253e+12 -3.38372e+12 -3.01627e+12 -3.21546e+12 -2.62338e+12 -3.01712e+12 -2.87653e+12 -2.69621e+12 -1.28861e+12 -1.19253e+12 -1.39443e+12 -2.74165e+12 -2.93807e+12 -3.14345e+12 -3.24112e+12 -3.7897e+12 -3.12829e+12 -3.12625e+12 -3.15114e+12 -3.14706e+12 -3.09643e+12 -3.06595e+12 -3.25942e+12 -3.21422e+12 -3.14378e+12 -3.05577e+12 -2.97997e+12 -2.92001e+12 -2.89058e+12 -2.88867e+12 -2.90685e+12 -2.87415e+12 -2.8835e+12 -2.88967e+12 -2.89338e+12 -2.88641e+12 -2.87885e+12 -2.80187e+12 -2.74832e+12 -3.01195e+12 -2.03991e+12 -2.09589e+12 -2.16689e+12 -2.05987e+12 -2.13659e+12 -2.09688e+12 -2.59166e+12 -3.35024e+12 -2.81689e+12 -2.83988e+12 -2.84602e+12 -2.83762e+12 -2.84094e+12 -2.84932e+12 -3.04091e+12 -3.07145e+12 -3.1087e+12 -3.15246e+12 -3.19841e+12 -3.24704e+12 -3.292e+12 -3.33593e+12 -3.38183e+12 -3.41168e+12 -3.42249e+12 -3.11395e+12 -3.07769e+12 -3.08603e+12 -3.06072e+12 -3.04995e+12 -1.4989e+12 -2.37122e+12 -2.75522e+12 -2.66464e+12 -2.66986e+12 -2.42556e+12 -2.4233e+12 -1.09824e+12 -985774000000.0 -2.42074e+12 -2.69209e+12 -2.63354e+12 -2.81962e+12 -2.75281e+12 -3.22549e+12 -2.78112e+12 -2.97679e+12 -2.90766e+12 -2.89398e+12 -2.89802e+12 -2.88633e+12 -3.0376e+12 -3.00345e+12 -2.96017e+12 -2.90185e+12 -2.81898e+12 -2.72741e+12 -2.66946e+12 -2.63647e+12 -2.65773e+12 -2.69457e+12 -2.78784e+12 -2.83405e+12 -2.85911e+12 -2.73018e+12 -2.71992e+12 -2.70414e+12 -2.65908e+12 -2.61395e+12 -2.65739e+12 -2.49821e+12 -1.74854e+12 -2.76316e+12 -1.89343e+12 -2.12816e+12 -2.10453e+12 -2.03856e+12 -1.90818e+12 -1.82785e+12 -1.49914e+12 -2.37261e+12 -3.29157e+12 -1.27049e+12 -2.30317e+12 -2.70432e+12 -2.63804e+12 -2.67152e+12 -2.68847e+12 -2.85861e+12 -2.86478e+12 -2.86396e+12 -2.85403e+12 -2.86984e+12 -2.89588e+12 -2.929e+12 -2.9706e+12 -3.01144e+12 -3.05008e+12 -3.08776e+12 -3.11611e+12 -3.13044e+12 -3.13549e+12 -3.13338e+12 -2.81148e+12 -2.77384e+12 -2.6855e+12 -2.4609e+12 -1.92437e+12 -1.8775e+12 -2.69581e+12 -2.41155e+12 -2.14164e+12 -2.10998e+12 -1.75805e+12 -901431000000.0 -775498000000.0 -2.0699e+12 -2.10486e+12 -2.41773e+12 -2.42361e+12 -2.50383e+12 -2.21128e+12 -1.9401e+12 -2.57991e+12 -2.63132e+12 -2.61428e+12 -2.62936e+12 -2.6495e+12 -2.84444e+12 -2.80819e+12 -2.76839e+12 -2.71952e+12 -2.65992e+12 -2.57831e+12 -2.46173e+12 -2.34546e+12 -2.32616e+12 -2.36344e+12 -2.42507e+12 -2.63992e+12 -2.70444e+12 -2.72688e+12 -2.73447e+12 -2.73619e+12 -2.73453e+12 -2.51303e+12 -2.47544e+12 -2.45387e+12 -2.35979e+12 -2.10788e+12 -2.14777e+12 -904360000000.0 -2.47725e+12 -2.24167e+12 -1.95919e+12 -1.93964e+12 -1.49789e+12 -1.09176e+12 -2.85398e+12 -2.58729e+12 -2.50174e+12 -2.54762e+12 -2.69546e+12 -2.70475e+12 -2.71429e+12 -2.72002e+12 -2.71579e+12 -2.69238e+12 -2.62976e+12 -2.63662e+12 -2.65524e+12 -2.69478e+12 -2.73628e+12 -2.77317e+12 -2.80809e+12 -2.83538e+12 -2.85252e+12 -2.86212e+12 -2.8669e+12 -2.8598e+12 -2.83146e+12 -2.54154e+12 -2.4768e+12 -2.34856e+12 -3.63786e+12 -3.04881e+12 -2.59698e+12 -2.43914e+12 -2.18402e+12 -1.81346e+12 -1.37212e+12 -700931000000.0 -500952000000.0 -560314000000.0 -1.17543e+12 -1.63481e+12 -1.75202e+12 -2.14657e+12 -2.42443e+12 -2.37869e+12 -2.11501e+12 -204942000000.0 -1.912e+12 -2.26975e+12 -2.28965e+12 -2.3464e+12 -2.63172e+12 -2.59476e+12 -2.55341e+12 -2.50103e+12 -2.43632e+12 -2.35076e+12 -2.22188e+12 -2.01787e+12 -1.81443e+12 -2.03989e+12 -1.96902e+12 -2.54293e+12 -2.61344e+12 -2.61844e+12 -2.60951e+12 -2.59891e+12 -2.58833e+12 -2.57713e+12 -2.56319e+12 -2.54473e+12 -2.26064e+12 -2.18391e+12 -2.26328e+12 -2.31338e+12 -2.18363e+12 -2.0067e+12 -2.23358e+12 -1.86955e+12 -1.20337e+12 -1.4098e+12 -2.31868e+12 -2.51884e+12 -2.53194e+12 -2.54547e+12 -2.55694e+12 -2.56884e+12 -2.57886e+12 -2.58219e+12 -2.56958e+12 -2.51921e+12 -2.32554e+12 -2.35054e+12 -2.40215e+12 -2.45458e+12 -2.50097e+12 -2.53495e+12 -2.56506e+12 -2.58498e+12 -2.59878e+12 -2.60788e+12 -2.60898e+12 -2.59272e+12 -2.5696e+12 -2.30103e+12 -2.421e+12 -3.30609e+12 -2.92097e+12 -2.19271e+12 -2.11292e+12 -1.94944e+12 -1.89297e+12 -1.5702e+12 -1.44782e+12 -961464000000.0 -294387000000.0 -104374000000.0 -331129000000.0 -704470000000.0 -1.25734e+12 -1.81797e+12 -2.22643e+12 -2.32123e+12 -2.01704e+12 -1.05049e+12 -1.98286e+12 -1.90822e+12 -2.41335e+12 -2.41591e+12 -2.39123e+12 -2.35386e+12 -2.30393e+12 -2.24017e+12 -2.15497e+12 -2.81905e+12 -2.64643e+12 -2.55764e+12 -2.50569e+12 -2.47321e+12 -2.45046e+12 -2.43204e+12 -2.41429e+12 -2.39464e+12 -2.36941e+12 -2.34055e+12 -2.31257e+12 -2.03059e+12 -1.9924e+12 -1.1666e+12 -2.54247e+12 -1.71042e+12 -2.60317e+12 -1.96224e+12 -2.17695e+12 -922163000000.0 -1.47375e+12 -2.30811e+12 -2.3344e+12 -2.37094e+12 -2.37633e+12 -2.39091e+12 -2.40567e+12 -2.41995e+12 -2.43437e+12 -2.44737e+12 -2.45604e+12 -2.45015e+12 -2.3944e+12 -2.32353e+12 -2.34281e+12 -2.35643e+12 -2.36354e+12 -2.35902e+12 -2.33805e+12 -2.31842e+12 -2.30922e+12 -2.07729e+12 -2.15928e+12 -2.45611e+12 -1.59683e+12 -1.71004e+12 -1.1856e+12 -1.02558e+12 -575083000000.0 -93778600000.0 -230520000000.0 -706851000000.0 -1.45666e+12 -1.533e+12 -1.89472e+12 -2.05764e+12 -2.35503e+12 -1.58635e+12 -2.23763e+12 -2.04859e+12 -2.21272e+12 -2.21734e+12 -2.196e+12 -2.16522e+12 -2.12378e+12 -2.07069e+12 -2.02233e+12 -1.77678e+12 -1.29236e+12 -1.23564e+12 -1.81796e+12 -2.35183e+12 -2.31657e+12 -2.29154e+12 -2.27067e+12 -2.25031e+12 -2.22771e+12 -2.20289e+12 -2.17606e+12 -2.13706e+12 -2.08745e+12 -2.07797e+12 -1.89862e+12 -785374000000.0 -236829000000.0 -1.95005e+12 -1.93104e+12 -2.15957e+12 -2.1746e+12 -2.19848e+12 -2.22347e+12 -2.23713e+12 -2.25231e+12 -2.26774e+12 -2.28401e+12 -2.30266e+12 -1.85485e+12 -2.05307e+12 -2.14427e+12 -2.21888e+12 -2.27557e+12 -2.29612e+12 -2.12692e+12 -2.12598e+12 -2.10669e+12 -2.0697e+12 -2.03477e+12 -1.98435e+12 -1.88929e+12 -1.11683e+12 -2.87148e+12 -2.07216e+12 -1.79811e+12 -938457000000.0 -1.90196e+12 -1.36066e+12 -741132000000.0 -602220000000.0 -154118000000.0 -224794000000.0 -161979000000.0 -907065000000.0 -1.24937e+12 -1.57551e+12 -2.15405e+12 -1.57758e+12 -1.51485e+12 -1.28241e+12 -1.14028e+12 -1.65445e+12 -2.08678e+12 -2.05123e+12 -2.01955e+12 -1.98528e+12 -1.95125e+12 -2.00517e+12 -1.92096e+12 -1.81529e+12 -1.71997e+12 -1.88207e+12 -1.57456e+12 -3.09619e+12 -2.73486e+12 -2.51602e+12 -2.40934e+12 -2.10927e+12 -2.08873e+12 -2.06636e+12 -2.04154e+12 -2.01055e+12 -1.97277e+12 -1.94328e+12 -1.89895e+12 -1.85679e+12 -1.65054e+12 -2.51409e+12 -2.24396e+12 -1.54591e+12 -1.79748e+12 -1.87989e+12 -1.92064e+12 -2.01826e+12 -2.04442e+12 -2.06597e+12 -2.08539e+12 -2.09989e+12 -2.32623e+12 -2.36166e+12 -2.42008e+12 -2.53762e+12 -1.62162e+12 -1.79063e+12 -1.9156e+12 -2.01722e+12 -2.07101e+12 -2.04348e+12 -2.09034e+12 -2.11559e+12 -1.84851e+12 -1.78966e+12 -1.71405e+12 -1.59302e+12 -1.29906e+12 -2.41529e+12 -1.21898e+12 -2.07308e+12 -1.65816e+12 -1.19964e+12 -878033000000.0 -141791000000.0 -1.10386e+12 -964758000000.0 -1.84596e+12 -1.33873e+12 -1.68732e+12 -1.56589e+12 -859838000000.0 -2.30011e+12 -1.94477e+12 -1.85321e+12 -1.80978e+12 -1.91107e+12 -1.8597e+12 -1.79337e+12 -1.70818e+12 -1.61324e+12 -1.57104e+12 -1.35599e+12 -2.79728e+12 -2.67397e+12 -2.42466e+12 -2.28853e+12 -2.21921e+12 -2.17839e+12 -2.15084e+12 -2.12911e+12 -1.90978e+12 -1.88331e+12 -1.85201e+12 -1.81896e+12 -1.77701e+12 -1.72348e+12 -1.64878e+12 -1.66837e+12 -1.15879e+12 -1.65531e+12 -1.78306e+12 -1.53171e+12 -1.86228e+12 -1.71054e+12 -1.78008e+12 -1.82235e+12 -1.85392e+12 -1.89826e+12 -1.91887e+12 -2.1142e+12 -2.12906e+12 -2.14608e+12 -2.16856e+12 -2.20367e+12 -2.27097e+12 -2.40054e+12 -2.54136e+12 -1.46782e+12 -1.56882e+12 -1.75537e+12 -1.85949e+12 -1.92569e+12 -1.81638e+12 -1.8887e+12 -1.90981e+12 -1.90993e+12 -1.8905e+12 -1.50217e+12 -1.38633e+12 -1.24542e+12 -385470000000.0 -1.86568e+12 -1.42044e+12 -317036000000.0 -1.77046e+12 -205298000000.0 -197443000000.0 -536754000000.0 -536580000000.0 -1.28245e+12 -1.37939e+12 -1.66293e+12 -2.22585e+12 -1.85623e+12 -1.73208e+12 -1.62903e+12 -1.78153e+12 -1.75485e+12 -1.72012e+12 -1.66886e+12 -1.59403e+12 -1.49322e+12 -1.37545e+12 -1.15186e+12 -2.38386e+12 -2.34682e+12 -2.21746e+12 -2.11341e+12 -2.06109e+12 -2.02803e+12 -2.00502e+12 -1.98631e+12 -1.96901e+12 -1.95132e+12 -1.93191e+12 -1.66166e+12 -1.61532e+12 -1.5461e+12 -1.60524e+12 -1.52176e+12 -1.59263e+12 -1.45393e+12 -1.74113e+12 -1.65406e+12 -1.76016e+12 -1.71289e+12 -1.73103e+12 -1.93567e+12 -1.95038e+12 -1.9626e+12 -1.97434e+12 -1.98679e+12 -2.00195e+12 -2.02464e+12 -2.06486e+12 -2.15886e+12 -2.31037e+12 -2.4505e+12 -1.32278e+12 -1.53058e+12 -1.6549e+12 -1.7495e+12 -1.8296e+12 -1.67356e+12 -1.72464e+12 -1.72429e+12 -1.70183e+12 -1.65675e+12 -1.58996e+12 -1.00165e+12 -1.17057e+12 -997280000000.0 -1.95747e+12 -2.48058e+12 -918527000000.0 -432692000000.0 -276491000000.0 -811112000000.0 -1.02305e+12 -882052000000.0 -693860000000.0 -2.02393e+12 -866303000000.0 -1.60647e+12 -1.60191e+12 -1.59697e+12 -1.58397e+12 -1.55295e+12 -1.4963e+12 -1.4001e+12 -1.89985e+12 -1.91549e+12 -1.85188e+12 -1.85342e+12 -1.86776e+12 -1.86104e+12 -1.85147e+12 -1.84057e+12 -1.82827e+12 -1.81443e+12 -1.79859e+12 -1.78005e+12 -1.75754e+12 -1.73068e+12 -1.69948e+12 -1.34968e+12 -1.6746e+12 -1.72694e+12 -1.68492e+12 -1.70339e+12 -1.74247e+12 -1.69262e+12 -1.74691e+12 -1.76146e+12 -1.78054e+12 -1.79371e+12 -1.80502e+12 -1.81479e+12 -1.82308e+12 -1.83065e+12 -1.83821e+12 -1.84688e+12 -1.86118e+12 -1.88525e+12 -1.9807e+12 -2.13206e+12 -2.24833e+12 -1.56024e+12 -1.64372e+12 -1.69523e+12 -1.56077e+12 -1.57735e+12 -1.54672e+12 -1.49374e+12 -1.4219e+12 -1.33029e+12 -1.21558e+12 -1.10588e+12 -1.80311e+12 -1.90505e+12 -1.39623e+12 -346298000000.0 -121095000000.0 -510771000000.0 -382099000000.0 -1.16121e+12 -1.00245e+12 -1.82124e+12 -454086000000.0 -1.47944e+12 -1.23812e+12 -1.33595e+12 -1.39014e+12 -1.42675e+12 -1.44795e+12 -1.44532e+12 -1.41601e+12 -1.25332e+12 -995633000000.0 -1.69158e+12 -1.68648e+12 -1.67755e+12 -1.66597e+12 -1.65177e+12 -1.63386e+12 -1.6112e+12 -1.58325e+12 -1.5489e+12 -1.50712e+12 -1.45197e+12 -1.69972e+12 -1.66748e+12 -1.65787e+12 -1.65265e+12 -1.65224e+12 -1.65924e+12 -1.66585e+12 -1.67158e+12 -1.67623e+12 -1.67968e+12 -1.68172e+12 -1.68145e+12 -1.1986e+12 -1.4454e+12 -1.45692e+12 -1.43304e+12 -1.36753e+12 -1.28421e+12 -1.18029e+12 -1.04517e+12 -874110000000.0 -670680000000.0 -1.3734e+12 -987610000000.0 -1.34322e+12 -771241000000.0 -891285000000.0 -737802000000.0 -570987000000.0 -102465000000.0 -149105000000.0 -131676000000.0 -862617000000.0 -1.22074e+12 -1.46276e+12 -180444000000.0 -667182000000.0 -813286000000.0 -1.05463e+12 -1.16464e+12 -1.2426e+12 -1.30389e+12 -1.34798e+12 -1.21433e+12 -959061000000.0 -1.51927e+12 -1.43705e+12 -1.32924e+12 -1.4585e+12 -1.63598e+12 -1.67833e+12 -1.69081e+12 -1.5237e+12 -1.51106e+12 -1.49388e+12 -1.47066e+12 -1.44032e+12 -1.40459e+12 -1.36429e+12 -1.32341e+12 -1.28613e+12 -1.8307e+12 -1.87445e+12 -1.85727e+12 -1.78367e+12 -1.73457e+12 -1.67452e+12 -1.63611e+12 -1.5921e+12 -1.55962e+12 -1.53698e+12 -1.53188e+12 -1.5322e+12 -1.5331e+12 -1.53345e+12 -1.67615e+12 -1.66643e+12 -1.61906e+12 -1.70705e+12 -1.86973e+12 -1.95193e+12 -1.15013e+12 -1.38484e+12 -1.47673e+12 -1.52923e+12 -1.53857e+12 -1.0689e+12 -925116000000.0 -736406000000.0 -459358000000.0 -1.08712e+12 -659428000000.0 -760163000000.0 -177511000000.0 -125970000000.0 -851504000000.0 -819953000000.0 -1.36769e+12 -1.14407e+12 -744439000000.0 -926009000000.0 -1.04309e+12 -1.3425e+12 -1.3473e+12 -1.3205e+12 -1.23814e+12 -1.04566e+12 -1.1913e+12 -1.09724e+12 -747593000000.0 -1.0992e+12 -1.45366e+12 -1.50398e+12 -1.5309e+12 -1.54187e+12 -1.54423e+12 -1.54096e+12 -1.53343e+12 -1.33439e+12 -1.29986e+12 -1.26359e+12 -1.23266e+12 -1.24351e+12 -1.2964e+12 -2.06662e+12 -2.10161e+12 -1.91989e+12 -1.78502e+12 -1.70071e+12 -1.6254e+12 -1.55298e+12 -1.48419e+12 -1.42554e+12 -1.53315e+12 -1.53173e+12 -1.52782e+12 -1.51745e+12 -1.48798e+12 -1.4307e+12 -1.14464e+12 -1.38489e+12 -1.59842e+12 -1.64788e+12 -1.16307e+12 -1.34754e+12 -1.39674e+12 -1.40662e+12 -1.36869e+12 -1.34575e+12 -1.28159e+12 -1.18305e+12 -423329000000.0 -694284000000.0 -589990000000.0 -525161000000.0 -53041900000.0 -496408000000.0 -525921000000.0 -806799000000.0 -529449000000.0 -684248000000.0 -940541000000.0 -1.14222e+12 -1.2275e+12 -1.28682e+12 -1.30021e+12 -1.2774e+12 -1.17127e+12 -915208000000.0 -950137000000.0 -702695000000.0 -753785000000.0 -1.24549e+12 -1.33893e+12 -1.37324e+12 -1.39233e+12 -1.40133e+12 -1.4042e+12 -1.40225e+12 -1.39565e+12 -1.3879e+12 -1.37685e+12 -1.36016e+12 -1.0931e+12 -1.19186e+12 -1.40324e+12 -2.56706e+12 -2.1426e+12 -1.86412e+12 -1.73015e+12 -1.64982e+12 -1.55707e+12 -1.40956e+12 -1.40242e+12 -1.39797e+12 -1.39376e+12 -1.38938e+12 -1.385e+12 -1.38016e+12 -1.37349e+12 -1.36083e+12 -1.32127e+12 -1.31333e+12 -784372000000.0 -1.18926e+12 -1.35903e+12 -1.34873e+12 -1.20312e+12 -1.31567e+12 -1.31272e+12 -1.27672e+12 -1.19553e+12 -1.21998e+12 -1.12014e+12 -994972000000.0 -849449000000.0 -671636000000.0 -942256000000.0 -634398000000.0 -622378000000.0 -502354000000.0 -411007000000.0 -105655000000.0 -330528000000.0 -462552000000.0 -992234000000.0 -458196000000.0 -666674000000.0 -851986000000.0 -666006000000.0 -825464000000.0 -957160000000.0 -1.08376e+12 -1.20245e+12 -1.29479e+12 -1.30337e+12 -692241000000.0 -851815000000.0 -821645000000.0 -641927000000.0 -1.19039e+12 -1.22319e+12 -1.24519e+12 -1.25832e+12 -1.26608e+12 -1.2704e+12 -1.27072e+12 -1.26331e+12 -1.2583e+12 -1.24934e+12 -1.23182e+12 -1.19888e+12 -1.15221e+12 -1.11235e+12 -2.16978e+12 -1.84863e+12 -1.69412e+12 -1.43312e+12 -1.3033e+12 -1.28367e+12 -1.27302e+12 -1.26426e+12 -1.25545e+12 -1.24669e+12 -1.23843e+12 -1.23111e+12 -1.22494e+12 -1.2194e+12 -1.21072e+12 -1.123e+12 -1.04515e+12 -879883000000.0 -1.0779e+12 -1.16587e+12 -1.07541e+12 -1.27179e+12 -1.21903e+12 -1.14074e+12 -1.02235e+12 -1.07578e+12 -937371000000.0 -794103000000.0 -633926000000.0 -430638000000.0 -801808000000.0 -659473000000.0 -628528000000.0 -555655000000.0 -49297700000.0 -56704900000.0 -268714000000.0 -658210000000.0 -727486000000.0 -469601000000.0 -575978000000.0 -742863000000.0 -902502000000.0 -1.07136e+12 -1.24407e+12 -1.26526e+12 -531049000000.0 -717924000000.0 -916449000000.0 -1.14412e+12 -1.14803e+12 -1.13333e+12 -1.13578e+12 -1.12922e+12 -1.10903e+12 -1.0564e+12 -974425000000.0 -907633000000.0 -847065000000.0 -948272000000.0 -1.04477e+12 -1.65564e+12 -1.61369e+12 -1.48973e+12 -1.11981e+12 -1.13781e+12 -1.13679e+12 -1.12949e+12 -1.11737e+12 -1.10376e+12 -1.09085e+12 -1.07943e+12 -1.07104e+12 -843281000000.0 -1.23277e+12 -848471000000.0 -900898000000.0 -746507000000.0 -599803000000.0 -429172000000.0 -675092000000.0 -597902000000.0 -505763000000.0 -548138000000.0 -362712000000.0 -288299000000.0 -312696000000.0 -543132000000.0 -654862000000.0 -822682000000.0 -481900000000.0 -677788000000.0 -1.39332e+12 -1.29355e+12 -418304000000.0 -891218000000.0 -707580000000.0 -735447000000.0 -998943000000.0 -1.08107e+12 -1.10324e+12 -1.11706e+12 -1.12701e+12 -1.13568e+12 -1.02822e+12 -1.02217e+12 -997348000000.0 -905200000000.0 -723554000000.0 -622898000000.0 -370012000000.0 -765903000000.0 -1.60977e+12 -1.51993e+12 -1.56029e+12 -1.65384e+12 -1.68791e+12 -923822000000.0 -943944000000.0 -964427000000.0 -965288000000.0 -1.06939e+12 -1.08195e+12 -1.13774e+12 -957877000000.0 -1.04027e+12 -843035000000.0 -987245000000.0 -983318000000.0 -1.23111e+12 -1.20781e+12 -1.11329e+12 -997767000000.0 -439388000000.0 -326571000000.0 -209267000000.0 -35684200000.0 -170178000000.0 -217922000000.0 -475974000000.0 -470297000000.0 -633637000000.0 -816807000000.0 -883124000000.0 -1.11782e+12 -1.41191e+12 -1.7256e+12 -539324000000.0 -652746000000.0 -722191000000.0 -695376000000.0 -730202000000.0 -914725000000.0 -965857000000.0 -980997000000.0 -989749000000.0 -998728000000.0 -1.01123e+12 -1.02826e+12 -1.03875e+12 -996627000000.0 -511125000000.0 -779023000000.0 -1.11127e+12 -1.32646e+12 -1.49697e+12 -1.68941e+12 -950500000000.0 -929224000000.0 -907522000000.0 -887569000000.0 -868503000000.0 -854361000000.0 -851747000000.0 -873435000000.0 -940610000000.0 -902395000000.0 -840856000000.0 -876484000000.0 -868687000000.0 -820963000000.0 -665522000000.0 -1.19535e+12 -1.12361e+12 -993725000000.0 -850133000000.0 -687047000000.0 -690933000000.0 -558337000000.0 -416376000000.0 -559906000000.0 -518010000000.0 -466301000000.0 -194546000000.0 -395720000000.0 -296041000000.0 -404534000000.0 -583132000000.0 -813264000000.0 -402239000000.0 -627754000000.0 -868437000000.0 -1.19157e+12 -1.58008e+12 -732425000000.0 -540691000000.0 -757249000000.0 -1.14436e+12 -1.41297e+12 -1.3948e+12 -1.31809e+12 -1.04055e+12 -917651000000.0 -876503000000.0 -863271000000.0 -863885000000.0 -873040000000.0 -893565000000.0 -928554000000.0 -957251000000.0 -815773000000.0 -950157000000.0 -918440000000.0 -943253000000.0 -702467000000.0 -359064000000.0 -894508000000.0 -974013000000.0 -921778000000.0 -1.07818e+12 -1.26169e+12 -1.45245e+12 -749176000000.0 -343339000000.0 -454713000000.0 -530684000000.0 -595149000000.0 -657734000000.0 -719586000000.0 -782229000000.0 -851342000000.0 -931521000000.0 -1.02772e+12 -1.14829e+12 -1.31183e+12 -1.5152e+12 -1.52614e+12 -1.41504e+12 -1.28947e+12 -954598000000.0 -799107000000.0 -690641000000.0 -553011000000.0 -1.13639e+12 -1.01662e+12 -860009000000.0 -712402000000.0 -575620000000.0 -509851000000.0 -391164000000.0 -453493000000.0 -427532000000.0 -385536000000.0 -371519000000.0 -233148000000.0 -43843600000.0 -96432000000.0 -92865800000.0 -239042000000.0 -340681000000.0 -291502000000.0 -395128000000.0 -517756000000.0 -843613000000.0 -1.24063e+12 -602853000000.0 -615858000000.0 -426673000000.0 -718012000000.0 -731535000000.0 -746115000000.0 -782940000000.0 -857566000000.0 -940293000000.0 -400292000000.0 -546904000000.0 -797345000000.0 -704070000000.0 -564764000000.0 -810591000000.0 -888760000000.0 -765416000000.0 -243210000000.0 -407169000000.0 -503205000000.0 -573810000000.0 -633811000000.0 -688221000000.0 -749297000000.0 -641222000000.0 -541376000000.0 -482834000000.0 -1.03771e+12 -869535000000.0 -717483000000.0 -580088000000.0 -461005000000.0 -361306000000.0 -364008000000.0 -332006000000.0 -309664000000.0 -254755000000.0 -181121000000.0 -139257000000.0 -22032800000.0 -35236000000.0 -48424900000.0 -28440500000.0 -224022000000.0 -516147000000.0 -809200000000.0 -386406000000.0 -387250000000.0 -941317000000.0 -1.04775e+12 -1.03538e+12 -940967000000.0 -813810000000.0 -758153000000.0 -735749000000.0 -728757000000.0 -881581000000.0 -925722000000.0 -1.01315e+12 -525151000000.0 -944680000000.0 -597041000000.0 -752527000000.0 -971257000000.0 -1.15343e+12 -629531000000.0 -746940000000.0 -246885000000.0 -812768000000.0 -883184000000.0 -963607000000.0 -1.05691e+12 -1.15517e+12 -1.20635e+12 -1.15909e+12 -1.07114e+12 -909382000000.0 -751648000000.0 -138242000000.0 -100849000000.0 -102808000000.0 -21836300000.0 -331918000000.0 -166525000000.0 -399870000000.0 -669937000000.0 -518274000000.0 -954690000000.0 -385986000000.0 -365085000000.0 -474030000000.0 -525216000000.0 -653341000000.0 -679253000000.0 -701267000000.0 -658382000000.0 -617277000000.0 -598635000000.0 -592985000000.0 -587545000000.0 -592505000000.0 -614301000000.0 -687532000000.0 -839833000000.0 -548284000000.0 -879383000000.0 -831097000000.0 -707451000000.0 -722317000000.0 -861788000000.0 -462091000000.0 -573417000000.0 -727891000000.0 -388997000000.0 -466175000000.0 -519825000000.0 -558847000000.0 -613946000000.0 -661210000000.0 -708091000000.0 -756967000000.0 -807160000000.0 -849993000000.0 -855122000000.0 -824722000000.0 -787293000000.0 -726003000000.0 -653583000000.0 -568006000000.0 -492532000000.0 -431668000000.0 -419630000000.0 -833565000000.0 -699710000000.0 -565048000000.0 -437381000000.0 -320471000000.0 -293523000000.0 -249157000000.0 -192419000000.0 -19040400000.0 -47634300000.0 -56268000000.0 -189648000000.0 -164598000000.0 -228237000000.0 -195947000000.0 -304489000000.0 -339619000000.0 -386536000000.0 -603720000000.0 -251336000000.0 -285356000000.0 -208060000000.0 -367008000000.0 -353829000000.0 -310171000000.0 -393632000000.0 -444272000000.0 -439422000000.0 -438825000000.0 -447068000000.0 -452092000000.0 -452501000000.0 -430111000000.0 -434617000000.0 -453435000000.0 -549515000000.0 -897047000000.0 -261361000000.0 -377873000000.0 -188329000000.0 -519939000000.0 -314088000000.0 -508446000000.0 -360236000000.0 -261364000000.0 -386588000000.0 -576660000000.0 -311007000000.0 -441775000000.0 -571342000000.0 -703056000000.0 -282031000000.0 -386988000000.0 -431373000000.0 -422186000000.0 -489397000000.0 -522745000000.0 -550544000000.0 -574302000000.0 -597968000000.0 -609592000000.0 -590992000000.0 -488725000000.0 -458249000000.0 -447122000000.0 -481649000000.0 -463110000000.0 -406379000000.0 -369102000000.0 -356003000000.0 -286846000000.0 -659165000000.0 -520061000000.0 -423892000000.0 -275806000000.0 -234089000000.0 -177456000000.0 -143701000000.0 -24659600000.0 -59892500000.0 -63171400000.0 -71514400000.0 -22433800000.0 -17999600000.0 -36648000000.0 -98307800000.0 -83851700000.0 -108016000000.0 -200052000000.0 -115399000000.0 -197391000000.0 -286354000000.0 -364975000000.0 -152062000000.0 -177793000000.0 -221340000000.0 -283151000000.0 -250569000000.0 -200697000000.0 -317799000000.0 -313702000000.0 -226974000000.0 -263337000000.0 -193824000000.0 -306198000000.0 -919241000000.0 -803842000000.0 -577729000000.0 -586859000000.0 -529345000000.0 -550687000000.0 -595332000000.0 -475525000000.0 -497353000000.0 -409510000000.0 -529251000000.0 -698316000000.0 -354411000000.0 -431865000000.0 -270427000000.0 -384182000000.0 -406261000000.0 -414448000000.0 -415592000000.0 -417195000000.0 -323736000000.0 -317476000000.0 -218868000000.0 -155009000000.0 -149363000000.0 -209121000000.0 -410138000000.0 -363188000000.0 -331696000000.0 -145542000000.0 -63800300000.0 -75318000000.0 -36334400000.0 -16889200000.0 -15657000000.0 -20271700000.0 -9035750000.0 -191729000000.0 -328369000000.0 -342156000000.0 -341626000000.0 -285514000000.0 -310975000000.0 -907039000000.0 -438436000000.0 -132287000000.0 -298176000000.0 -415985000000.0 -396885000000.0 -358416000000.0 -337393000000.0 -281651000000.0 -284738000000.0 -29669900000.0 -70945800000.0 -124403000000.0 -164676000000.0 -197176000000.0 -229931000000.0 -141980000000.0 -116562000000.0 -166008000000.0 -216802000000.0 -123824000000.0 -163549000000.0 -222446000000.0 -204934000000.0 -207445000000.0 -151885000000.0 -158203000000.0 -202242000000.0 -225298000000.0 -265640000000.0 -202545000000.0 -201128000000.0 -210647000000.0 -196147000000.0 -235913000000.0 -96666000000.0 -171902000000.0 -84603400000.0 -188570000000.0 -476120000000.0 -152280000000.0 -224410000000.0 -138456000000.0 -60924500000.0 -198829000000.0 -42987200000.0 -319867000000.0 -115359000000.0 -201138000000.0 -195718000000.0 -293131000000.0 -314886000000.0 -502036000000.0 -701516000000.0 -414197000000.0 -299436000000.0 -377556000000.0 -318101000000.0 -311254000000.0 -269188000000.0 -258468000000.0 -226964000000.0 -235797000000.0 -227049000000.0 -211311000000.0 -159864000000.0 -149328000000.0 -171371000000.0 -222197000000.0 -274086000000.0 -209111000000.0 -161195000000.0 -162606000000.0 -77192400000.0 -244003000000.0 -336998000000.0 -437722000000.0 -262918000000.0 -221994000000.0 -217779000000.0 -173670000000.0 -131994000000.0 -95956300000.0 -60975600000.0 -26403700000.0 -9035750000.0 -9035750000.0 -9102000000.0 -35380800000.0 -57562500000.0 -113028000000.0 -87263600000.0 -66362700000.0 -104301000000.0 -187070000000.0 -104309000000.0 -67813200000.0 -44198800000.0 -20355100000.0 -47854100000.0 -82742600000.0 -132488000000.0 -128266000000.0 -149168000000.0 -136480000000.0 -216341000000.0 -275606000000.0 -340658000000.0 -372697000000.0 -448812000000.0 -356806000000.0 -396240000000.0 -373048000000.0 -399869000000.0 -464922000000.0 -456192000000.0 -319467000000.0 -400766000000.0 -351425000000.0 -378148000000.0 -323714000000.0 -460887000000.0 -217018000000.0 -254277000000.0 -195735000000.0 -250501000000.0 -183722000000.0 -213332000000.0 -53337300000.0 -278607000000.0 -202156000000.0 -285291000000.0 -281039000000.0 -308519000000.0 -291530000000.0 -292160000000.0 -258220000000.0 -241273000000.0 -185958000000.0 -127417000000.0 -63075600000.0 -61783200000.0 -83028700000.0 -110027000000.0 -129917000000.0 -74544300000.0 -79062600000.0 -119189000000.0 -62608200000.0 -164170000000.0 -124835000000.0 -121095000000.0 -14956800000.0 -11305400000.0 -34019800000.0 -9832870000.0 -9777370000.0 -9303050000.0 -9035750000.0 -9035750000.0 -11408200000.0 -16297700000.0 -21726900000.0 -55941200000.0 -76050000000.0 -97628200000.0 -67795300000.0 -51833500000.0 -79618900000.0 -112940000000.0 -27731400000.0 -30635100000.0 -41295600000.0 -54727800000.0 -95531800000.0 -116213000000.0 -169930000000.0 -163328000000.0 -158299000000.0 -141122000000.0 -158768000000.0 -138987000000.0 -125409000000.0 -99448400000.0 -120674000000.0 -39312800000.0 -53869000000.0 -81932300000.0 -37356000000.0 -281160000000.0 -203184000000.0 -155430000000.0 -96165100000.0 -108742000000.0 -45893400000.0 -27216300000.0 -180340000000.0 -47444700000.0 -74471400000.0 -23010400000.0 -82864300000.0 -57414400000.0 -143684000000.0 -84033200000.0 -99293000000.0 -48955300000.0 -69891800000.0 -44001400000.0 -60999100000.0 -52935200000.0 -83317200000.0 -102217000000.0 -152850000000.0 -185203000000.0 -200097000000.0 -171716000000.0 -169160000000.0 -191277000000.0 -222421000000.0 -237785000000.0 -182743000000.0 -163371000000.0 -181365000000.0 -104210000000.0 -201899000000.0 -174758000000.0 -170625000000.0 -95179700000.0 -68592400000.0 -78887700000.0 -46441600000.0 -37371600000.0 -27799900000.0 -19530800000.0 -12489500000.0 -9035750000.0 -9035750000.0 -9050500000.0 -43561400000.0 -64388700000.0 -81050000000.0 -65969600000.0 -52148400000.0 -72585400000.0 -93783900000.0 -21331000000.0 -20209800000.0 -18176300000.0 -17288300000.0 -39645400000.0 -47318300000.0 -86548700000.0 -93212600000.0 -95173800000.0 -111349000000.0 -138993000000.0 -140815000000.0 -149177000000.0 -137300000000.0 -156870000000.0 -94229900000.0 -101770000000.0 -137670000000.0 -94485700000.0 -248359000000.0 -78732800000.0 -60531700000.0 -13617900000.0 -57428700000.0 -19522500000.0 -31732700000.0 -145626000000.0 -11953200000.0 -54257800000.0 -23194300000.0 -84035200000.0 -54867200000.0 -112522000000.0 -51966800000.0 -14384400000.0 -25300000000.0 -72588500000.0 -65176200000.0 -93084000000.0 -86493100000.0 -104254000000.0 -97673600000.0 -109820000000.0 -99280000000.0 -80784100000.0 -45319400000.0 -45104100000.0 -64990200000.0 -82152400000.0 -80062800000.0 -40175600000.0 -37465600000.0 -58201400000.0 -17188600000.0 -114989000000.0 -82490200000.0 -73063000000.0 -36135400000.0 -16785900000.0 -35394500000.0 -12247300000.0 -12692200000.0 -10472400000.0 -9035790000.0 -9036330000.0 -9318630000.0 -9864130000.0 -10417100000.0 -47774100000.0 -67160100000.0 -72171600000.0 -61864400000.0 -49887500000.0 -64381200000.0 -67529400000.0 -11086100000.0 -11082400000.0 -9190600000.0 -9243420000.0 -28430200000.0 -39536100000.0 -61436900000.0 -68364200000.0 -64131500000.0 -89397000000.0 -106642000000.0 -101267000000.0 -101015000000.0 -81660400000.0 -89740800000.0 -39811700000.0 -33604400000.0 -67255800000.0 -11322100000.0 -208299000000.0 -103868000000.0 -97101900000.0 -40550600000.0 -70194100000.0 -22319200000.0 -21031800000.0 -126217000000.0 -12732800000.0 -51342400000.0 -18085500000.0 -73969700000.0 -46743500000.0 -105401000000.0 -63805800000.0 -13598700000.0 -13037800000.0 -50848700000.0 -37488900000.0 -65177600000.0 -58442900000.0 -79035500000.0 -78849400000.0 -98883600000.0 -100107000000.0 -93395600000.0 -65308100000.0 -63659500000.0 -78789600000.0 -88061800000.0 -76886800000.0 -43815800000.0 -38212800000.0 -48067200000.0 -21923900000.0 -103694000000.0 -72315600000.0 -58581000000.0 -42821100000.0 -19895100000.0 -35802700000.0 -14786000000.0 -14774100000.0 -11541500000.0 -9291110000.0 -9123790000.0 -9040040000.0 -9036640000.0 -9054650000.0 -46744800000.0 -65733900000.0 -64179800000.0 -59984500000.0 -52827900000.0 -65345600000.0 -56047500000.0 -14030200000.0 -13742600000.0 -11483200000.0 -11830700000.0 -28506600000.0 -43515200000.0 -55884800000.0 -64518900000.0 -64775500000.0 -93243000000.0 -108793000000.0 -104554000000.0 -104736000000.0 -85887800000.0 -90789400000.0 -56775200000.0 -49771700000.0 -77967400000.0 -32983500000.0 -60720000000.0 -62400300000.0 -9208990000.0 -49247300000.0 -9089250000.0 -17720900000.0 -113245000000.0 -9706090000.0 -50603300000.0 -21652700000.0 -73612100000.0 -45232500000.0 -96435500000.0 -61138200000.0 -9035750000.0 -10476900000.0 -48225600000.0 -37489700000.0 -69271400000.0 -62617500000.0 -83369200000.0 -81106800000.0 -97617800000.0 -95386600000.0 -87817500000.0 -61104800000.0 -58485900000.0 -69121000000.0 -71982700000.0 -56502400000.0 -31824600000.0 -28158500000.0 -32952200000.0 -22090100000.0 -90253000000.0 -61014700000.0 -45746400000.0 -47198100000.0 -21821500000.0 -34757600000.0 -15620500000.0 -15428900000.0 -11613900000.0 -9036160000.0 -9040200000.0 -185817000000.0 -9041460000.0 -9037420000.0 -9079730000.0 -45901300000.0 -64309300000.0 -57521800000.0 -56605900000.0 -52928700000.0 -63219600000.0 -43047400000.0 -12827800000.0 -12034400000.0 -9037590000.0 -9053840000.0 -22753300000.0 -39112100000.0 -46292900000.0 -52502200000.0 -56464000000.0 -80144300000.0 -92681900000.0 -87382500000.0 -85860700000.0 -65618000000.0 -65887300000.0 -42108100000.0 -32693900000.0 -52865300000.0 -9562670000.0 -164110000000.0 -67023200000.0 -68009200000.0 -15336200000.0 -50280500000.0 -9182160000.0 -18363200000.0 -102689000000.0 -9552650000.0 -49574300000.0 -23841600000.0 -71891900000.0 -44081300000.0 -89461500000.0 -60566200000.0 -9035750000.0 -10596800000.0 -45553300000.0 -35606600000.0 -68075200000.0 -61186400000.0 -82760500000.0 -80563500000.0 -96361800000.0 -94218300000.0 -88593700000.0 -64346600000.0 -60807000000.0 -67076800000.0 -65013500000.0 -47523500000.0 -29101800000.0 -26488900000.0 -25760600000.0 -24421600000.0 -78678800000.0 -51497900000.0 -34775100000.0 -49121700000.0 -23703700000.0 -33936100000.0 -16789200000.0 -16317100000.0 -11937600000.0 -9036870000.0 -9041720000.0 -9042590000.0 -9038050000.0 -9100480000.0 -43923300000.0 -61652400000.0 -51244800000.0 -62156400000.0 -33930300000.0 -13416200000.0 -12350200000.0 -9040780000.0 -9068610000.0 -20562600000.0 -37687000000.0 -44130900000.0 -48797800000.0 -54680000000.0 -73853300000.0 -84825700000.0 -79667800000.0 -78051900000.0 -58230300000.0 -56546600000.0 -40935500000.0 -33010500000.0 -48808300000.0 -15452400000.0 -51656600000.0 -57835100000.0 -9037660000.0 -45196000000.0 -9263710000.0 -18785800000.0 -91935900000.0 -47469800000.0 -24843600000.0 -68713700000.0 -42248200000.0 -82046500000.0 -57320800000.0 -9035750000.0 -10667800000.0 -42453100000.0 -33827600000.0 -65952600000.0 -59099800000.0 -80846400000.0 -78542600000.0 -93089900000.0 -90515900000.0 -86207800000.0 -64271400000.0 -60032000000.0 -62602200000.0 -57163300000.0 -39817800000.0 -27058300000.0 -25906600000.0 -21026900000.0 -26135900000.0 -68060700000.0 -43551300000.0 -26841200000.0 -32738900000.0 -17581200000.0 -16858600000.0 -12094500000.0 -9037500000.0 -9042920000.0 -52580800000.0 -52491900000.0 -147323000000.0 -9585170000.0 -49248000000.0 -24764500000.0 -9043350000.0 -9038540000.0 -9115840000.0 -41137000000.0 -58009200000.0 -45429500000.0 -48096500000.0 -50714000000.0 -60359900000.0 -26705400000.0 -13778100000.0 -12532100000.0 -9043540000.0 -9079460000.0 -18625100000.0 -35597700000.0 -42435200000.0 -46294100000.0 -51893500000.0 -67138600000.0 -76667300000.0 -71747000000.0 -70207300000.0 -51384500000.0 -48582800000.0 -38811800000.0 -32294600000.0 -42443700000.0 -9071400000.0 -128290000000.0 -47216900000.0 -53563600000.0 -9040920000.0 -42937900000.0 -9327890000.0 -18857700000.0 -81200400000.0 -9605950000.0 -44491100000.0 -24812000000.0 -64321600000.0 -39744700000.0 -74327100000.0 -52130100000.0 -9035750000.0 -10684200000.0 -38766300000.0 -31363600000.0 -62006900000.0 -55385300000.0 -76741800000.0 -74462200000.0 -87778900000.0 -85019900000.0 -81806800000.0 -62210900000.0 -57460700000.0 -57086500000.0 -49634300000.0 -33754400000.0 -25767700000.0 -25503200000.0 -17994400000.0 -26956900000.0 -58242300000.0 -36689300000.0 -21116800000.0 -47851600000.0 -25238500000.0 -31310400000.0 -17988400000.0 -17053800000.0 -12098300000.0 -9038000000.0 -9043750000.0 -9043720000.0 -9038840000.0 -9125260000.0 -37794800000.0 -53588400000.0 -21204500000.0 -13908900000.0 -9045630000.0 -41778900000.0 -36028100000.0 -30712000000.0 -9131670000.0 -42360900000.0 -9043690000.0 -9370260000.0 -70716600000.0 -40890300000.0 -58997400000.0 -36688400000.0 -66438800000.0 -45992800000.0 -9035750000.0 -10644900000.0 -34675300000.0 -28461200000.0 -56791800000.0 -50590600000.0 -70969500000.0 -68798400000.0 -80796700000.0 -49331300000.0 -30853900000.0 -17099000000.0 -18012600000.0 -16917300000.0 -11968600000.0 -9038340000.0 -9044160000.0 -40043300000.0 -43390600000.0 -47812400000.0 -57560900000.0 -12568700000.0 -9086400000.0 -16915700000.0 -33021900000.0 -40183200000.0 -43607000000.0 -48219800000.0 -60206900000.0 -68383900000.0 -63790100000.0 -62420200000.0 -45061000000.0 -38101700000.0 -113467000000.0 -48730700000.0 -40432200000.0 -18637300000.0 -9606800000.0 -23974700000.0 -77991500000.0 -75644000000.0 -58405400000.0 -53369600000.0 -50891900000.0 -42588700000.0 -28986800000.0 -24802400000.0 -24751100000.0 -16086000000.0 -26914000000.0 -45264200000.0 -25056300000.0 -29606600000.0 -9043700000.0 -9038930000.0 -9128610000.0 -34100700000.0 -48564100000.0 -35055500000.0 -38605500000.0 -44022200000.0 -53612100000.0 -17152600000.0 -13809900000.0 -12457600000.0 -9046920000.0 -9089330000.0 -15412800000.0 -30114100000.0 -37224000000.0 -40284700000.0 -43890400000.0 -53194000000.0 -60099100000.0 -55917400000.0 -54761200000.0 -39222300000.0 -35907900000.0 -32798000000.0 -28511200000.0 -34116900000.0 -9180630000.0 -99089800000.0 -37399700000.0 -43565400000.0 -9045680000.0 -37524300000.0 -9388760000.0 -18143800000.0 -60668700000.0 -9582970000.0 -36896100000.0 -22571500000.0 -53011800000.0 -33253700000.0 -58475300000.0 -39687800000.0 -9035750000.0 -10551600000.0 -30456700000.0 -25391100000.0 -50785800000.0 -45152800000.0 -63984400000.0 -61991600000.0 -72583600000.0 -69865900000.0 -68189800000.0 -53313000000.0 -48240900000.0 -44482200000.0 -36210800000.0 -25219400000.0 -23740000000.0 -23552400000.0 -14871600000.0 -26075300000.0 -41405400000.0 -25954700000.0 -14307200000.0 -41780300000.0 -24254400000.0 -27614200000.0 -17666900000.0 -16476400000.0 -11727300000.0 -9038490000.0 -9044150000.0 -9212330000.0 -32520300000.0 -9046710000.0 -9382990000.0 -51187200000.0 -50526300000.0 -9035750000.0 -26359700000.0 -44356600000.0 -9043290000.0 -9038830000.0 -9125990000.0 -30217200000.0 -43077200000.0 -30423600000.0 -33829000000.0 -39548100000.0 -48538100000.0 -14258300000.0 -13491400000.0 -12203900000.0 -9047290000.0 -9088460000.0 -14096000000.0 -26997900000.0 -33665600000.0 -36337500000.0 -39086200000.0 -46186800000.0 -51892100000.0 -48203100000.0 -47271500000.0 -33817400000.0 -30764900000.0 -29289200000.0 -25900300000.0 -30302400000.0 -84938100000.0 -38230300000.0 -34150000000.0 -17354900000.0 -9537760000.0 -32671800000.0 -20793600000.0 -46583600000.0 -29593400000.0 -33659200000.0 -10408600000.0 -22357200000.0 -39411400000.0 -56181100000.0 -54420200000.0 -63523200000.0 -61014300000.0 -59848100000.0 -47325600000.0 -42478600000.0 -38169500000.0 -30556300000.0 -22146100000.0 -22326600000.0 -21947300000.0 -14009400000.0 -24541700000.0 -34473800000.0 -21888300000.0 -12398200000.0 -37620500000.0 -22889100000.0 -25333600000.0 -16975600000.0 -15767200000.0 -11399500000.0 -9038450000.0 -9043700000.0 -9042500000.0 -9038550000.0 -9117800000.0 -26263400000.0 -37240600000.0 -26095800000.0 -29113400000.0 -34556300000.0 -42495700000.0 -12258300000.0 -12972000000.0 -11818900000.0 -9046700000.0 -9084110000.0 -12943800000.0 -23763500000.0 -29648900000.0 -31892400000.0 -33942100000.0 -39233800000.0 -43802700000.0 -40679700000.0 -39963600000.0 -28783900000.0 -26172700000.0 -25630900000.0 -23028800000.0 -26503100000.0 -9223040000.0 -70901100000.0 -27817100000.0 -32837700000.0 -9046670000.0 -30297000000.0 -9354170000.0 -16273300000.0 -42337100000.0 -9474640000.0 -28335500000.0 -18786000000.0 -39881900000.0 -25823500000.0 -42662000000.0 -28115900000.0 -9035750000.0 -10221300000.0 -22539900000.0 -19483700000.0 -37764500000.0 -33603600000.0 -47872600000.0 -46384000000.0 -53923900000.0 -51729200000.0 -50942000000.0 -40757600000.0 -36391700000.0 -32131300000.0 -25594000000.0 -19497600000.0 -20503700000.0 -20003900000.0 -13242200000.0 -22431400000.0 -28467600000.0 -18543400000.0 -11125500000.0 -32956500000.0 -21031600000.0 -22777800000.0 -15973100000.0 -14830400000.0 -11012400000.0 -9038230000.0 -9042860000.0 -9041370000.0 -9038110000.0 -9104720000.0 -22316100000.0 -31144900000.0 -22015900000.0 -24482700000.0 -29180100000.0 -35694000000.0 -10927500000.0 -12278000000.0 -11319300000.0 -9045220000.0 -9076650000.0 -11928800000.0 -20471300000.0 -25301200000.0 -27080900000.0 -28558700000.0 -32354100000.0 -35840500000.0 -33347300000.0 -32826700000.0 -24052000000.0 -21980700000.0 -21910000000.0 -19997600000.0 -22655300000.0 -9211130000.0 -56947000000.0 -23323900000.0 -27448400000.0 -9045570000.0 -26003200000.0 -9305590000.0 -14931800000.0 -34110000000.0 -9394900000.0 -23967200000.0 -16653000000.0 -33028800000.0 -22021700000.0 -34922100000.0 -23120800000.0 -9035750000.0 -9996090000.0 -19057200000.0 -16827000000.0 -31172300000.0 -27871400000.0 -39285500000.0 -38099900000.0 -44014300000.0 -42221300000.0 -41710400000.0 -33843200000.0 -30191900000.0 -26444400000.0 -21237400000.0 -17070600000.0 -18313700000.0 -17794400000.0 -12428300000.0 -19865100000.0 -23260200000.0 -15796900000.0 -10294100000.0 -27922700000.0 -18763300000.0 -19973500000.0 -14703200000.0 -13709700000.0 -10589300000.0 -9037860000.0 -9041660000.0 -9039950000.0 -9037530000.0 -9087650000.0 -18414500000.0 -24864300000.0 -18126900000.0 -19938600000.0 -23528000000.0 -28338100000.0 -10075400000.0 -11442200000.0 -10726100000.0 -9043010000.0 -9066650000.0 -11019200000.0 -17158900000.0 -20728000000.0 -22014900000.0 -23010900000.0 -25546500000.0 -27993300000.0 -26182600000.0 -25834000000.0 -19549500000.0 -18064500000.0 -18174800000.0 -16872500000.0 -18752200000.0 -9177550000.0 -43055200000.0 -19030100000.0 -22085500000.0 -9043490000.0 -21347400000.0 -9240810000.0 -13378700000.0 -26431500000.0 -9300750000.0 -19612100000.0 -14462600000.0 -26104300000.0 -18231700000.0 -27314300000.0 -18637600000.0 -9035750000.0 -9740180000.0 -15897400000.0 -14389600000.0 -24660800000.0 -22276600000.0 -30567700000.0 -29708600000.0 -33947600000.0 -32625000000.0 -32313700000.0 -26741700000.0 -24001300000.0 -21109500000.0 -17365600000.0 -14734200000.0 -15831600000.0 -15388000000.0 -11524800000.0 -16957900000.0 -18690900000.0 -13516600000.0 -9754940000.0 -22625900000.0 -16172600000.0 -16961400000.0 -13217600000.0 -12449800000.0 -10147200000.0 -9037350000.0 -9040170000.0 -9038320000.0 -9036840000.0 -9067640000.0 -14567000000.0 -18459800000.0 -14372000000.0 -15466300000.0 -17690500000.0 -20609400000.0 -9538880000.0 -10501900000.0 -10063900000.0 -9040260000.0 -9054780000.0 -10183300000.0 -13845700000.0 -16012800000.0 -16784300000.0 -17355400000.0 -18796100000.0 -20234300000.0 -19145700000.0 -18948000000.0 -15206200000.0 -14323900000.0 -14445100000.0 -13695300000.0 -14808000000.0 -9126650000.0 -29191800000.0 -14894300000.0 -16753100000.0 -9040650000.0 -16429700000.0 -9162990000.0 -11669500000.0 -19175700000.0 -9196370000.0 -15286200000.0 -12253000000.0 -19153600000.0 -14469400000.0 -19819400000.0 -14561100000.0 -9035750000.0 -9461780000.0 -12996500000.0 -12133300000.0 -18247300000.0 -16819700000.0 -21802000000.0 -21286300000.0 -23813200000.0 -23010400000.0 -22845500000.0 -19550700000.0 -17868900000.0 -16067900000.0 -13840500000.0 -12416900000.0 -13141100000.0 -12848200000.0 -10542200000.0 -13816300000.0 -14581500000.0 -11566300000.0 -9398360000.0 -17152600000.0 -13351600000.0 -13793200000.0 -11574200000.0 -11093900000.0 -9696480000.0 -9036740000.0 -9038460000.0 -9036560000.0 -9036100000.0 -9045840000.0 -10759500000.0 -11983500000.0 -10695300000.0 -11039800000.0 -11745900000.0 -12665900000.0 -9178680000.0 -9498240000.0 -9359870000.0 -9037180000.0 -9041780000.0 -9390520000.0 -10537000000.0 -11220100000.0 -11461900000.0 -11637800000.0 -12080100000.0 -12527800000.0 -12186000000.0 -12125300000.0 -10954700000.0 -10678700000.0 -10723700000.0 -10492100000.0 -10839600000.0 -9064870000.0 -15329200000.0 -10857100000.0 -11443300000.0 -9037320000.0 -11356000000.0 -9076320000.0 -9865150000.0 -12181400000.0 -9086300000.0 -10985100000.0 -10040400000.0 -12195300000.0 -10730300000.0 -12397000000.0 -10740900000.0 -9035750000.0 -9169810000.0 -10259500000.0 -9993810000.0 -11906200000.0 -11458600000.0 -13023000000.0 -12861200000.0 -13652100000.0 -13399100000.0 -13350000000.0 -12321900000.0 -11789800000.0 -11216500000.0 -10519200000.0 -10091300000.0 -10327000000.0 -10232000000.0 -9509950000.0 -10538600000.0 -10745600000.0 -9810240000.0 -9140470000.0 -11577300000.0 -10393600000.0 -10528200000.0 -9835410000.0 -9682530000.0 -9242300000.0 -9036060000.0 -9036610000.0 
SCALARS Shear_Stress float 1
LOOKUP_TABLE default
4620110000.0 14147500000.0 19637900000.0 46732200000.0 32345700000.0 11923600000.0 52259400000.0 55277400000.0 50554900000.0 1012220000.0 48684000000.0 12061500000.0 21362100000.0 10542000000.0 17059700000.0 12569000000.0 24430100000.0 2032530000.0 78135500000.0 28461200000.0 37566100000.0 43844000000.0 48071600000.0 95403900000.0 51694100000.0 61832700000.0 4995210000.0 6900820000.0 10593100000.0 30649900000.0 4688960000.0 55411700000.0 59991000000.0 32029400000.0 59442500000.0 39604100000.0 119412000000.0 49719700000.0 2105030000.0 87355500000.0 15842500000.0 11021700000.0 73915400000.0 8541770000.0 4405400000.0 87625900000.0 113169000000.0 136554000000.0 41715300000.0 196128000000.0 99868700000.0 115861000000.0 570509000.0 1066170000.0 55703700000.0 20286400000.0 78648000000.0 56154400000.0 110139000000.0 99919200000.0 68414400000.0 107324000000.0 54472800000.0 39476600000.0 43485800000.0 26908700000.0 44413600000.0 34868900000.0 137977000000.0 131955000000.0 99419400000.0 114032000000.0 191754000000.0 122901000000.0 213108000000.0 278034000000.0 161684000000.0 49093600000.0 134045000000.0 123364000000.0 54824300000.0 179359000000.0 32137400000.0 101930000000.0 22957400000.0 53620400000.0 52987500000.0 60294400000.0 29538900000.0 90952000000.0 263925000000.0 298054000000.0 53806800000.0 174809000000.0 198317000000.0 178039000000.0 41095800000.0 8119670000.0 58012700000.0 55073400000.0 63591700000.0 182580000000.0 108207000000.0 25243400000.0 17502800000.0 178143000000.0 93056100000.0 245630000000.0 326797000000.0 267586000000.0 316781000000.0 248187000000.0 281771000000.0 191848000000.0 217786000000.0 45333200000.0 260189000000.0 30386200000.0 88477000000.0 54089700000.0 50636400000.0 51636800000.0 61652000000.0 72191800000.0 74242600000.0 222889000000.0 75647500000.0 75861300000.0 176244000000.0 107650000000.0 112876000000.0 311290000000.0 177026000000.0 330017000000.0 281730000000.0 377015000000.0 378363000000.0 346394000000.0 293909000000.0 232803000000.0 310219000000.0 31995800000.0 31770300000.0 63914300000.0 83489400000.0 177826000000.0 302804000000.0 542802000000.0 394633000000.0 399633000000.0 423189000000.0 405241000000.0 356637000000.0 283836000000.0 213200000000.0 413140000000.0 38425600000.0 46761500000.0 79345100000.0 262420000000.0 48452500000.0 321343000000.0 579342000000.0 368418000000.0 400901000000.0 443213000000.0 451084000000.0 462252000000.0 413374000000.0 396883000000.0 337893000000.0 281735000000.0 225547000000.0 173843000000.0 227487000000.0 122543000000.0 199940000000.0 65338400000.0 5927840000.0 52523300000.0 70474300000.0 92883000000.0 94724800000.0 305021000000.0 53160700000.0 276187000000.0 425397000000.0 541729000000.0 215394000000.0 149936000000.0 144589000000.0 335203000000.0 346956000000.0 424051000000.0 455253000000.0 472017000000.0 491575000000.0 453187000000.0 346706000000.0 203970000000.0 98029700000.0 55519200000.0 24896300000.0 90130300000.0 113818000000.0 292997000000.0 246497000000.0 24082100000.0 191503000000.0 384723000000.0 487007000000.0 496293000000.0 415796000000.0 267902000000.0 117061000000.0 25383900000.0 23915500000.0 88285100000.0 131191000000.0 119001000000.0 145842000000.0 354324000000.0 129021000000.0 223910000000.0 41574600000.0 30842100000.0 253041000000.0 434465000000.0 512228000000.0 477943000000.0 428308000000.0 345036000000.0 248519000000.0 172547000000.0 80284400000.0 36934100000.0 34787900000.0 36833400000.0 107289000000.0 96538100000.0 154714000000.0 162765000000.0 413785000000.0 286291000000.0 147896000000.0 29730600000.0 55832500000.0 85771300000.0 61875700000.0 50652400000.0 92407000000.0 178014000000.0 326511000000.0 407142000000.0 485868000000.0 527766000000.0 519958000000.0 500074000000.0 339051000000.0 146055000000.0 322133000.0 103666000000.0 177418000000.0 194294000000.0 196400000000.0 36752800000.0 113813000000.0 148667000000.0 18270400000.0 280132000000.0 486577000000.0 545146000000.0 443127000000.0 226802000000.0 56171400000.0 72746100000.0 147031000000.0 179881000000.0 261655000000.0 237877000000.0 277405000000.0 227615000000.0 274564000000.0 487490000000.0 474322000000.0 165751000000.0 213064000000.0 126022000000.0 123396000000.0 391521000000.0 550900000000.0 528259000000.0 468122000000.0 328461000000.0 195592000000.0 122150000000.0 46533000000.0 15808500000.0 77568600000.0 235423000000.0 341077000000.0 321423000000.0 580754000000.0 673701000000.0 230247000000.0 377785000000.0 293892000000.0 354699000000.0 247242000000.0 197993000000.0 39945400000.0 96499800000.0 253328000000.0 389071000000.0 499192000000.0 587669000000.0 578929000000.0 567671000000.0 302220000000.0 97984800000.0 183851000.0 142600000000.0 347303000000.0 393220000000.0 399353000000.0 413422000000.0 520014000000.0 366604000000.0 51656300000.0 243239000000.0 519229000000.0 619901000000.0 517467000000.0 140129000000.0 58014100000.0 59745200000.0 33198500000.0 71967400000.0 222049000000.0 316537000000.0 495002000000.0 673860000000.0 477040000000.0 581811000000.0 691130000000.0 877842000000.0 556515000000.0 616411000000.0 877244000000.0 578376000000.0 294517000000.0 177853000000.0 104804000000.0 381091000000.0 637164000000.0 619156000000.0 228973000000.0 37424200000.0 73178700000.0 107678000000.0 62897900000.0 118183000000.0 413860000000.0 814139000000.0 774809000000.0 1.11762e+12 988608000000.0 426635000000.0 640449000.0 19405700000.0 142365000000.0 223985000000.0 299909000000.0 521786000000.0 713932000000.0 654531000000.0 671027000000.0 631810000000.0 15955600000.0 79161300000.0 166567000000.0 49523600000.0 150542000000.0 134335000000.0 470596000000.0 533914000000.0 881621000000.0 975150000000.0 824845000000.0 734175000000.0 789713000000.0 43802200000.0 158717000000.0 175978000000.0 355692000000.0 764623000000.0 822160000000.0 60388400000.0 165677000000.0 214401000000.0 295684000000.0 185414000000.0 175663000000.0 38600100000.0 65493100000.0 163943000000.0 772147000000.0 1.44266e+12 991109000000.0 590747000000.0 6190860000.0 646681000000.0 307655000000.0 159391000000.0 135159000000.0 188436000000.0 411397000000.0 719899000000.0 299680000000.0 60939900000.0 358008000000.0 274735000000.0 194368000000.0 112359000000.0 349288000000.0 1.01035e+12 934537000000.0 560028000000.0 421849000000.0 435983000000.0 1.0866e+12 203752000000.0 116241000000.0 121755000000.0 110257000000.0 187007000000.0 250981000000.0 362233000000.0 924450000000.0 601944000000.0 321217000000.0 366067000000.0 253956000000.0 327439000000.0 269516000000.0 382163000000.0 74863300000.0 462056000000.0 116406000000.0 566693000000.0 348383000000.0 326400000000.0 1.14225e+12 330710000000.0 666571000000.0 56656200000.0 147986000000.0 88280600000.0 161623000000.0 150164000000.0 100740000000.0 129003000000.0 353368000000.0 253811000000.0 991524000000.0 575131000000.0 24981400000.0 319534000000.0 410191000000.0 253526000000.0 249294000000.0 250037000000.0 524997000000.0 165642000000.0 518483000000.0 1.31089e+12 359824000000.0 188340000000.0 219964000000.0 471319000000.0 847842000000.0 164315000000.0 5889690000.0 269519000000.0 186189000000.0 263413000000.0 155042000000.0 87744800000.0 233250000000.0 685265000000.0 214235000000.0 163020000000.0 13972100000.0 560693000000.0 655163000000.0 1.25714e+12 969864000000.0 917090000000.0 996581000000.0 789470000000.0 424785000000.0 68338500000.0 117729000000.0 467239000000.0 515473000000.0 551062000000.0 93383300000.0 202824000000.0 845261000000.0 434153000000.0 290192000000.0 139574000000.0 93649600000.0 109666000000.0 252768000000.0 580557000000.0 641568000000.0 575497000000.0 461975000000.0 22080600000.0 415249000000.0 198969000000.0 436920000000.0 844026000000.0 855681000000.0 1.2637e+12 1.06968e+12 721385000000.0 298841000000.0 414382000000.0 459972000000.0 41653900000.0 210344000000.0 16730000000.0 560259000000.0 551132000000.0 432015000000.0 296702000000.0 249653000000.0 50968400000.0 548386000000.0 963351000000.0 779865000000.0 777196000000.0 498642000000.0 267332000000.0 54355100000.0 301117000000.0 424193000000.0 396814000000.0 317903000000.0 280391000000.0 652025000000.0 46988400000.0 734753000000.0 1.15185e+12 1.24616e+12 850630000000.0 430462000000.0 375537000000.0 602215000000.0 99483500000.0 587552000000.0 119347000000.0 733192000000.0 774482000000.0 553698000000.0 355527000000.0 106424000000.0 260323000000.0 679241000000.0 998805000000.0 728043000000.0 492198000000.0 471037000000.0 222976000000.0 141049000000.0 80610100000.0 190529000000.0 101145000000.0 159085000000.0 953764000000.0 381507000000.0 704413000000.0 1.05187e+12 1.21446e+12 1.06543e+12 831337000000.0 565503000000.0 235862000000.0 205804000000.0 184346000000.0 480635000000.0 657088000000.0 754608000000.0 278122000000.0 65094800000.0 441224000000.0 252857000000.0 1.05762e+12 1.06032e+12 542478000000.0 152786000000.0 188935000000.0 375808000000.0 288626000000.0 216126000000.0 936235000000.0 1.04712e+12 913059000000.0 688694000000.0 463384000000.0 55300200000.0 297499000000.0 251950000000.0 548003000000.0 1.06144e+12 165496000000.0 565449000000.0 718865000000.0 921469000000.0 1.12028e+12 1.19171e+12 1.20641e+12 1.24859e+12 1.08586e+12 541758000000.0 175535000000.0 158376000000.0 196625000000.0 247801000000.0 801723000000.0 676382000000.0 296338000000.0 33032100000.0 88680800000.0 68665500000.0 551438000000.0 223351000000.0 1.54246e+12 484177000000.0 88126800000.0 1.25581e+12 802473000000.0 877721000000.0 973591000000.0 904876000000.0 845774000000.0 811504000000.0 677283000000.0 690589000000.0 459617000000.0 511093000000.0 78802100000.0 66462600000.0 310224000000.0 96714600000.0 393172000000.0 413113000000.0 158926000000.0 287462000000.0 822086000000.0 1.1905e+12 1.21485e+12 887754000000.0 662083000000.0 176570000000.0 158376000000.0 171242000000.0 758372000000.0 655391000000.0 367278000000.0 21276500000.0 57339800000.0 32085600000.0 493293000000.0 606371000000.0 939003000000.0 815933000000.0 1.10285e+12 949501000000.0 761362000000.0 453068000000.0 1.23077e+12 283910000000.0 598012000000.0 830071000000.0 861669000000.0 807975000000.0 717249000000.0 510303000000.0 357631000000.0 228210000000.0 378435000000.0 39156500000.0 87344000000.0 11088700000.0 429135000000.0 502230000000.0 1.03248e+12 1.17942e+12 1.04822e+12 790600000000.0 381865000000.0 478287000000.0 971899000000.0 636343000000.0 572866000000.0 881229000000.0 377795000000.0 400144000000.0 402124000000.0 63304500000.0 31586400000.0 208579000000.0 332240000000.0 331902000000.0 329073000000.0 899298000000.0 514723000000.0 1.51502e+12 1.15169e+12 3763790000.0 968569000000.0 463859000000.0 229840000000.0 60492800000.0 581010000000.0 799216000000.0 851217000000.0 807111000000.0 705304000000.0 555254000000.0 774462000000.0 444653000000.0 180696000000.0 87119100000.0 198635000000.0 91092700000.0 914660000000.0 1.10418e+12 1.11573e+12 1.13187e+12 911342000000.0 405256000000.0 792200000000.0 1.11725e+12 525540000000.0 428136000000.0 298885000000.0 382363000000.0 408650000000.0 343457000000.0 51217500000.0 59045900000.0 73212100000.0 144616000000.0 114047000000.0 41611200000.0 404991000000.0 1.17824e+12 1.27269e+12 1.21607e+12 728443000000.0 31771200000.0 225876000000.0 85710500000.0 573828000000.0 708656000000.0 821086000000.0 804179000000.0 832136000000.0 797754000000.0 782705000000.0 729657000000.0 666777000000.0 599366000000.0 551676000000.0 559869000000.0 1.09739e+12 303589000000.0 321804000000.0 245624000000.0 239083000000.0 58524800000.0 979933000000.0 1.03474e+12 439907000000.0 423067000000.0 536371000000.0 527127000000.0 1.17028e+12 1.31307e+12 23406100000.0 574607000000.0 395799000000.0 289217000000.0 351784000000.0 279786000000.0 24867900000.0 1349600000.0 200987000000.0 76861500000.0 1480360000.0 217710000000.0 13295200000.0 155143000000.0 817594000000.0 661891000000.0 618847000000.0 511338000000.0 175160000000.0 1.15662e+12 1.08613e+12 625856000000.0 512656000000.0 721820000000.0 765498000000.0 747129000000.0 653069000000.0 518408000000.0 723572000000.0 965234000000.0 575869000000.0 45930400000.0 212976000000.0 599626000000.0 417821000000.0 899682000000.0 991656000000.0 756956000000.0 670560000000.0 24942300000.0 704570000000.0 1.04775e+12 1.55059e+12 98263000000.0 261484000000.0 403095000000.0 206789000000.0 218593000000.0 143833000000.0 246436000000.0 5602190000.0 9586470000.0 49393800000.0 360172000000.0 283499000000.0 238838000000.0 76561200000.0 330393000000.0 586612000000.0 577043000000.0 778854000000.0 20646200000.0 80076400000.0 10773400000.0 729500000000.0 914764000000.0 487785000000.0 465264000000.0 355659000000.0 527645000000.0 601757000000.0 687299000000.0 719432000000.0 678992000000.0 566946000000.0 549001000000.0 744299000000.0 289389000000.0 398404000000.0 824769000000.0 1.28622e+12 867812000000.0 442043000000.0 358248000000.0 169664000000.0 413604000000.0 209668000000.0 167466000000.0 227434000000.0 615002000000.0 646153000000.0 328700000000.0 771428000000.0 171540000000.0 55671100000.0 93438400000.0 3368960000.0 210801000000.0 272203000000.0 18049300000.0 145564000000.0 113061000000.0 442896000000.0 286239000000.0 210811000000.0 166078000000.0 183064000000.0 949060000000.0 471900000000.0 472741000000.0 90785200000.0 206907000000.0 60062900000.0 144530000000.0 229529000000.0 797489000000.0 848528000000.0 658876000000.0 457618000000.0 572978000000.0 539744000000.0 649225000000.0 615437000000.0 667503000000.0 610277000000.0 604338000000.0 552766000000.0 533409000000.0 567473000000.0 651049000000.0 636968000000.0 569318000000.0 364747000000.0 65145200000.0 109097000000.0 734592000000.0 872165000000.0 1.0842e+12 67921700000.0 200571000000.0 16550800000.0 254786000000.0 172898000000.0 153339000000.0 435015000000.0 766627000000.0 573448000000.0 627235000000.0 95285400000.0 72556200000.0 251281000000.0 305371000000.0 354335000000.0 380010000000.0 38685400000.0 146899000000.0 544900000000.0 548185000000.0 431220000000.0 296488000000.0 53189300000.0 246351000000.0 63035300000.0 228037000000.0 649877000000.0 251565000000.0 109754000000.0 8437210000.0 176190000000.0 61607500000.0 39089300000.0 332435000000.0 404211000000.0 404377000000.0 527983000000.0 579141000000.0 562897000000.0 541696000000.0 592011000000.0 493075000000.0 120703000000.0 551543000000.0 905237000000.0 1.02336e+12 90898000000.0 653493000000.0 1.01616e+12 380814000000.0 398809000000.0 356468000000.0 509565000000.0 54884400000.0 1.13615e+12 625688000000.0 43625600000.0 1.13859e+12 17645600000.0 27927600000.0 115834000000.0 322904000000.0 424229000000.0 423653000000.0 97321700000.0 104145000000.0 114195000000.0 530752000000.0 563161000000.0 688695000000.0 537977000000.0 306803000000.0 223440000000.0 377053000.0 33694800000.0 416212000000.0 756455000000.0 927084000000.0 785700000000.0 360078000000.0 269202000000.0 220419000000.0 403593000000.0 589764000000.0 125700000000.0 53099500000.0 247712000000.0 322792000000.0 420511000000.0 511526000000.0 547282000000.0 534567000000.0 540831000000.0 517820000000.0 259469000000.0 297213000000.0 740561000000.0 1.02262e+12 53456700000.0 760110000000.0 684518000000.0 550418000000.0 595889000000.0 473973000000.0 137020000000.0 167833000000.0 467537000000.0 76948000000.0 780588000000.0 126304000000.0 231632000000.0 591544000000.0 488172000000.0 510476000000.0 537002000000.0 80483800000.0 44402000000.0 449718000000.0 697554000000.0 852140000000.0 646442000000.0 643718000000.0 339869000000.0 65753700000.0 594873000000.0 1.02452e+12 68239700000.0 597410000000.0 646316000000.0 407281000000.0 464106000000.0 596845000000.0 974580000000.0 1.19887e+12 731001000000.0 263689000000.0 292546000000.0 413010000000.0 434010000000.0 503143000000.0 490375000000.0 520834000000.0 493025000000.0 512126000000.0 467220000000.0 495028000000.0 363823000000.0 333379000000.0 54944900000.0 95274100000.0 417203000000.0 406499000000.0 235361000000.0 515645000000.0 828751000000.0 606111000000.0 122189000000.0 436690000000.0 619270000000.0 548697000000.0 488850000000.0 769800000000.0 1.11731e+12 335056000000.0 225687000000.0 574288000000.0 614588000000.0 463178000000.0 748060000000.0 577802000000.0 698493000000.0 545512000000.0 489405000000.0 7738070000.0 135158000000.0 53063800000.0 319075000000.0 448856000000.0 614914000000.0 810498000000.0 1.0132e+12 734715000000.0 871568000000.0 159636000000.0 412347000000.0 60257700000.0 744024000000.0 1.13651e+12 168720000000.0 229287000000.0 637463000000.0 788313000000.0 717436000000.0 541537000000.0 286618000000.0 178735000000.0 457232000000.0 416130000000.0 343247000000.0 146167000000.0 348967000000.0 441728000000.0 471100000000.0 447502000000.0 369230000000.0 157831000000.0 202809000000.0 434938000000.0 2131300000.0 759547000000.0 694919000000.0 146354000000.0 854826000000.0 685211000000.0 258541000000.0 570000000000.0 605434000000.0 651744000000.0 799986000000.0 810179000000.0 252587000000.0 801610000000.0 1.3411e+12 577728000000.0 562511000000.0 328173000000.0 1.02896e+12 640876000000.0 547480000000.0 863000000000.0 685078000000.0 374141000000.0 108240000000.0 265004000000.0 87490700000.0 168783000000.0 262167000000.0 606611000000.0 784608000000.0 707434000000.0 52084000000.0 536355000000.0 726465000000.0 154824000000.0 1.0263e+12 871469000000.0 880624000000.0 838370000000.0 715292000000.0 551643000000.0 438247000000.0 451930000000.0 1.03844e+12 1.4062e+12 599361000000.0 84955900000.0 274975000000.0 265961000000.0 280165000000.0 374072000000.0 410237000000.0 443392000000.0 430974000000.0 366942000000.0 218571000000.0 63611500000.0 44234700000.0 149014000000.0 286410000000.0 179230000000.0 585409000000.0 647091000000.0 661173000000.0 955857000000.0 573681000000.0 355419000000.0 480699000000.0 569550000000.0 643474000000.0 722285000000.0 657105000000.0 306994000000.0 213157000000.0 424241000000.0 194810000000.0 347437000000.0 127293000000.0 621468000000.0 429017000000.0 947330000000.0 743970000000.0 558117000000.0 199843000000.0 481450000000.0 168154000000.0 692566000000.0 20393900000.0 23518400000.0 427053000000.0 610663000000.0 892844000000.0 968734000000.0 209099000000.0 1.13136e+12 471860000000.0 1.41282e+12 384828000000.0 968907000000.0 205234000000.0 858811000000.0 838791000000.0 821703000000.0 760404000000.0 646822000000.0 521582000000.0 440513000000.0 291685000000.0 447331000000.0 479658000000.0 489628000000.0 151307000000.0 371776000000.0 404664000000.0 415954000000.0 358051000000.0 362300000000.0 267877000000.0 251861000000.0 131464000000.0 38914900000.0 123992000000.0 64643600000.0 122049000000.0 683497000000.0 550145000000.0 204074000000.0 93350600000.0 226359000000.0 414256000000.0 531440000000.0 626290000000.0 631256000000.0 491488000000.0 404025000000.0 276514000000.0 943158000000.0 309594000000.0 566898000000.0 1.41821e+12 1.39677e+12 352368000000.0 879991000000.0 605897000000.0 401256000000.0 102640000000.0 86995700000.0 49482300000.0 65517700000.0 138038000000.0 819573000000.0 226524000000.0 173572000000.0 262181000000.0 266191000000.0 1.45631e+12 687741000000.0 770805000000.0 266208000000.0 645162000000.0 713548000000.0 707898000000.0 643198000000.0 528940000000.0 386139000000.0 232522000000.0 101580000000.0 267295000000.0 63960500000.0 318622000000.0 397173000000.0 361671000000.0 272920000000.0 169271000000.0 43405000000.0 63603300000.0 10608200000.0 20183200000.0 213087000000.0 407936000000.0 5128590000.0 11042400000.0 140164000000.0 296955000000.0 419983000000.0 499949000000.0 586919000000.0 573985000000.0 120580000000.0 1.43676e+12 257397000000.0 235744000000.0 188981000000.0 545661000000.0 785674000000.0 27505000000.0 199695000000.0 199947000000.0 483811000000.0 793161000000.0 1.31884e+12 52206500000.0 230478000000.0 295933000000.0 250456000000.0 589815000000.0 119358000000.0 693420000000.0 371106000000.0 453522000000.0 24296700000.0 413788000000.0 595014000000.0 527139000000.0 423312000000.0 317362000000.0 283619000000.0 396369000000.0 1.13074e+12 1.31071e+12 707963000000.0 271675000000.0 271415000000.0 381024000000.0 449692000000.0 386114000000.0 287505000000.0 275660000000.0 186332000000.0 184757000000.0 116700000000.0 92648400000.0 53803200000.0 8206340000.0 32203000000.0 82756200000.0 382350000000.0 489501000000.0 1.06957e+12 999096000000.0 481243000000.0 266979000000.0 277436000000.0 349587000000.0 415963000000.0 527141000000.0 487342000000.0 424484000000.0 367683000000.0 519398000000.0 132429000000.0 169421000000.0 47992100000.0 283573000000.0 849725000000.0 486707000000.0 672682000000.0 261973000000.0 297365000000.0 187577000000.0 76829700000.0 890323000000.0 1.12945e+12 416580000000.0 221065000000.0 148139000000.0 175860000000.0 411238000000.0 1.37592e+12 421376000000.0 314627000000.0 469775000000.0 394281000000.0 861867000000.0 689059000000.0 64295800000.0 648201000000.0 336850000000.0 359964000000.0 139343000000.0 333981000000.0 358634000000.0 555860000000.0 610364000000.0 416100000000.0 311724000000.0 203590000000.0 90474200000.0 17440400000.0 347097000000.0 447904000000.0 580056000000.0 150552000000.0 593439000000.0 324276000000.0 181134000000.0 119475000000.0 78651800000.0 54864700000.0 118021000000.0 124278000000.0 57547300000.0 596411000000.0 538518000000.0 83967100000.0 122901000000.0 202222000000.0 282582000000.0 449333000000.0 426449000000.0 409322000000.0 440783000000.0 519434000000.0 249360000000.0 344706000000.0 281654000000.0 557964000000.0 451058000000.0 132572000000.0 407130000000.0 725417000000.0 416896000000.0 239597000000.0 14282500000.0 221241000000.0 20617500000.0 759875000000.0 237579000000.0 310332000000.0 755837000000.0 195489000000.0 347824000000.0 584552000000.0 950587000000.0 458126000000.0 508224000000.0 599994000000.0 927855000000.0 1.04061e+12 800599000000.0 468229000000.0 543656000000.0 366066000000.0 307847000000.0 225940000000.0 328488000000.0 387019000000.0 492675000000.0 520737000000.0 491324000000.0 239871000000.0 153485000000.0 130451000000.0 229835000000.0 859235000000.0 974057000000.0 133258000000.0 513469000000.0 745337000000.0 402260000000.0 175438000000.0 110424000000.0 82599200000.0 73972300000.0 86840400000.0 87314800000.0 149134000000.0 283774000000.0 613467000000.0 847472000000.0 1.0723e+12 377393000000.0 169993000000.0 182903000000.0 353112000000.0 397076000000.0 402709000000.0 413661000000.0 453403000000.0 497433000000.0 423373000000.0 451134000000.0 421646000000.0 558310000000.0 584261000000.0 304043000000.0 646308000000.0 823158000000.0 733631000000.0 434635000000.0 205145000000.0 949506000000.0 791210000000.0 741262000000.0 20748700000.0 105343000000.0 98519100000.0 109418000000.0 48879000000.0 17694800000.0 946414000000.0 708092000000.0 1.03992e+12 697202000000.0 227762000000.0 676675000000.0 919314000000.0 1.06534e+12 1.03495e+12 838263000000.0 571737000000.0 503812000000.0 367310000000.0 307809000000.0 279827000000.0 339592000000.0 391263000000.0 446741000000.0 451710000000.0 410268000000.0 333051000000.0 83249000000.0 78675400000.0 392663000000.0 569741000000.0 522311000000.0 614169000000.0 607001000000.0 60741400000.0 161879000000.0 108023000000.0 99900500000.0 39432500000.0 63828200000.0 57537300000.0 81388300000.0 113063000000.0 81199600000.0 294273000000.0 852257000000.0 571667000000.0 686638000000.0 426301000000.0 124603000000.0 238040000000.0 305439000000.0 361764000000.0 393735000000.0 424676000000.0 466606000000.0 503437000000.0 479118000000.0 497171000000.0 515167000000.0 578499000000.0 616914000000.0 544702000000.0 683384000000.0 849400000000.0 851484000000.0 693981000000.0 107263000000.0 754227000000.0 497900000000.0 943304000000.0 714645000000.0 289467000000.0 7531370000.0 35990100000.0 8203070000.0 285109000000.0 72943500000.0 371763000000.0 685498000000.0 915634000000.0 975490000000.0 882332000000.0 557189000000.0 424544000000.0 773057000000.0 980216000000.0 1.04411e+12 981596000000.0 799417000000.0 587338000000.0 471039000000.0 364353000000.0 316771000000.0 311723000000.0 353745000000.0 393953000000.0 420710000000.0 407505000000.0 355553000000.0 279284000000.0 194753000000.0 126655000000.0 344107000000.0 302934000000.0 352870000000.0 151854000000.0 163813000000.0 17248700000.0 11877100000.0 89323000000.0 152241000000.0 18185800000.0 117272000000.0 728878000000.0 469565000000.0 34239600000.0 155286000000.0 249988000000.0 326168000000.0 381435000000.0 429773000000.0 475599000000.0 510587000000.0 516282000000.0 529686000000.0 548810000000.0 604325000000.0 641246000000.0 643058000000.0 741200000000.0 832687000000.0 849051000000.0 745808000000.0 500870000000.0 198013000000.0 469435000000.0 981448000000.0 438513000000.0 416870000000.0 321401000.0 167641000000.0 293160000000.0 22498600000.0 88282800000.0 321417000000.0 350999000000.0 121378000000.0 839884000000.0 348480000000.0 297442000000.0 235488000000.0 600031000000.0 849030000000.0 977177000000.0 998600000000.0 914002000000.0 323957000000.0 339485000000.0 380529000000.0 411723000000.0 417188000000.0 382967000000.0 324298000000.0 256536000000.0 197648000000.0 163054000000.0 174161000000.0 122056000000.0 822918000000.0 244643000000.0 237101000000.0 27056900000.0 20965900000.0 32503100000.0 108893000000.0 160396000000.0 202852000000.0 154447000000.0 140173000000.0 7103680000.0 551398000000.0 182907000000.0 11040200000.0 33746700000.0 117767000000.0 212316000000.0 299045000000.0 371368000000.0 429502000000.0 477933000000.0 514971000000.0 532395000000.0 760777000000.0 832896000000.0 841372000000.0 753364000000.0 549858000000.0 193619000000.0 386570000000.0 67444100000.0 108927000000.0 33438900000.0 74007900000.0 327293000000.0 341337000000.0 60932900000.0 76878000000.0 126166000000.0 397338000000.0 321947000000.0 329815000000.0 640726000000.0 855680000000.0 195290000000.0 16155700000.0 34860000000.0 504366000000.0 489505000000.0 487524000000.0 717050000000.0 878874000000.0 957914000000.0 745741000000.0 564219000000.0 438199000000.0 351942000000.0 451804000000.0 420151000000.0 367504000000.0 310749000000.0 263619000000.0 240249000000.0 261067000000.0 320827000000.0 581723000000.0 901144000000.0 170183000000.0 417595000000.0 172316000000.0 92031400000.0 75785400000.0 29555400000.0 91909000000.0 61589800000.0 18607600000.0 280149000000.0 55618000000.0 449163000000.0 900335000000.0 829808000000.0 380552000000.0 172867000000.0 157654000000.0 209847000000.0 286610000000.0 366121000000.0 436878000000.0 549867000000.0 576618000000.0 618632000000.0 658697000000.0 691253000000.0 771531000000.0 624769000000.0 388538000000.0 54424800000.0 6177610000.0 434154000000.0 40482800000.0 720631000000.0 438566000000.0 442518000000.0 341629000000.0 70327700000.0 129452000000.0 140161000000.0 411362000000.0 289760000000.0 528690000000.0 806230000000.0 1.09532e+12 809100000000.0 305444000000.0 470588000000.0 557728000000.0 644976000000.0 794189000000.0 948791000000.0 850985000000.0 686696000000.0 514537000000.0 394663000000.0 334884000000.0 341425000000.0 387462000000.0 433883000000.0 351939000000.0 307355000000.0 280981000000.0 280180000000.0 299483000000.0 355475000000.0 289037000000.0 71840900000.0 275693000000.0 544096000000.0 156186000000.0 134219000000.0 33890100000.0 498767000000.0 497745000000.0 505745000000.0 394150000000.0 195935000000.0 171405000000.0 197695000000.0 183335000000.0 217040000000.0 280893000000.0 486566000000.0 519402000000.0 537853000000.0 554902000000.0 582549000000.0 625247000000.0 671002000000.0 716643000000.0 776645000000.0 829958000000.0 836541000000.0 533513000000.0 334541000000.0 245553000000.0 249600000000.0 378352000000.0 582210000000.0 1.1337e+12 696893000000.0 412425000000.0 349408000000.0 358799000000.0 338386000000.0 46804500000.0 74637800000.0 383222000000.0 428368000000.0 379714000000.0 76678500000.0 155702000000.0 400780000000.0 295040000000.0 266711000000.0 66576800000.0 345497000000.0 534566000000.0 650664000000.0 897661000000.0 937403000000.0 904573000000.0 796319000000.0 624354000000.0 442678000000.0 344275000000.0 333746000000.0 400440000000.0 477732000000.0 523001000000.0 471739000000.0 408748000000.0 295913000000.0 298433000000.0 311295000000.0 275131000000.0 155185000000.0 118313000000.0 16320100000.0 658234000000.0 154922000000.0 196531000000.0 31713100000.0 270518000000.0 99724900000.0 126942000000.0 224110000000.0 239304000000.0 654112000000.0 23137800000.0 445533000000.0 330988000000.0 303062000000.0 129607000000.0 189902000000.0 206168000000.0 360045000000.0 442475000000.0 512450000000.0 539533000000.0 545080000000.0 549732000000.0 573556000000.0 620248000000.0 674205000000.0 728698000000.0 784198000000.0 828557000000.0 838511000000.0 795613000000.0 692135000000.0 409020000000.0 407023000000.0 553328000000.0 871567000000.0 564649000000.0 1.32257e+12 520792000000.0 281164000000.0 371270000000.0 295658000000.0 210825000000.0 4573780000.0 8835180000.0 328316000000.0 347474000000.0 409070000000.0 431461000000.0 375786000000.0 527484000000.0 128717000000.0 142399000000.0 118534000000.0 313742000000.0 513000000000.0 648902000000.0 745363000000.0 845198000000.0 908631000000.0 920642000000.0 871283000000.0 753652000000.0 557736000000.0 346789000000.0 318073000000.0 403446000000.0 524162000000.0 645878000000.0 535277000000.0 442284000000.0 377654000000.0 333643000000.0 306436000000.0 271095000000.0 213844000000.0 178009000000.0 90002300000.0 192612000000.0 432671000000.0 201012000000.0 321211000000.0 17928200000.0 65732000000.0 116465000000.0 192010000000.0 211642000000.0 153409000000.0 436488000000.0 54256200000.0 135017000000.0 226886000000.0 276223000000.0 347124000000.0 432232000000.0 522947000000.0 598410000000.0 579712000000.0 549057000000.0 552865000000.0 605460000000.0 669671000000.0 732233000000.0 788732000000.0 829865000000.0 843052000000.0 817234000000.0 744533000000.0 630319000000.0 495211000000.0 419744000000.0 412612000000.0 467070000000.0 323295000000.0 469596000000.0 280033000000.0 253053000000.0 391425000000.0 311280000000.0 95863100000.0 40397800000.0 51494800000.0 46432500000.0 33840600000.0 190626000000.0 284704000000.0 344728000000.0 453308000000.0 469512000000.0 572361000000.0 54439400000.0 313435000000.0 349425000000.0 386079000000.0 553373000000.0 735940000000.0 811928000000.0 877791000000.0 913719000000.0 906157000000.0 849205000000.0 733643000000.0 509942000000.0 275660000000.0 418777000000.0 549638000000.0 858904000000.0 586123000000.0 448989000000.0 378245000000.0 338610000000.0 315445000000.0 303555000000.0 298826000000.0 295830000000.0 77938400000.0 128287000000.0 197484000000.0 484328000000.0 324957000000.0 407478000000.0 437788000000.0 353863000000.0 206966000000.0 355518000000.0 524132000000.0 145785000000.0 193761000000.0 227955000000.0 268447000000.0 326230000000.0 401085000000.0 492846000000.0 601632000000.0 713051000000.0 592947000000.0 540114000000.0 583413000000.0 650609000000.0 728502000000.0 792110000000.0 833069000000.0 849846000000.0 837537000000.0 788074000000.0 703123000000.0 597144000000.0 494616000000.0 6205950000.0 614892000000.0 835156000000.0 555692000000.0 94992800000.0 120044000000.0 559701000000.0 446410000000.0 319168000000.0 159143000000.0 5698070000.0 38538800000.0 54530600000.0 69603000000.0 38301100000.0 87162900000.0 276738000000.0 373059000000.0 327468000000.0 240003000000.0 674703000000.0 449182000000.0 305983000000.0 663148000000.0 723946000000.0 787727000000.0 846412000000.0 889560000000.0 903578000000.0 880361000000.0 828702000000.0 460865000000.0 367515000000.0 332976000000.0 316910000000.0 307105000000.0 300427000000.0 295128000000.0 287651000000.0 266788000000.0 225305000000.0 174062000000.0 60770000000.0 88190900000.0 444625000000.0 298972000000.0 509065000000.0 887224000000.0 486155000000.0 655713000000.0 270698000000.0 151700000.0 121045000000.0 129466000000.0 170849000000.0 184744000000.0 219579000000.0 257598000000.0 303254000000.0 360320000000.0 430871000000.0 522015000000.0 651099000000.0 865662000000.0 853598000000.0 855236000000.0 828644000000.0 766714000000.0 676607000000.0 571347000000.0 448441000000.0 287878000000.0 74839200000.0 47720100000.0 259638000000.0 63759500000.0 524728000000.0 92819500000.0 671052000.0 1033800000.0 49738100000.0 13871500000.0 158776000000.0 250337000000.0 193926000000.0 237282000000.0 328421000000.0 73834800000.0 23780300000.0 380024000000.0 576738000000.0 686873000000.0 692139000000.0 744781000000.0 805502000000.0 851284000000.0 868190000000.0 833465000000.0 792908000000.0 660976000000.0 406695000000.0 302906000000.0 279294000000.0 288868000000.0 291340000000.0 288680000000.0 280511000000.0 262693000000.0 230916000000.0 185510000000.0 114277000000.0 5090270000.0 45272300000.0 368053000000.0 56736000000.0 155932000000.0 211507000000.0 22542100000.0 222045000000.0 150553000000.0 161334000000.0 186462000000.0 209396000000.0 243455000000.0 282148000000.0 324525000000.0 369514000000.0 572266000000.0 577667000000.0 613485000000.0 698390000000.0 792484000000.0 838058000000.0 817798000000.0 751236000000.0 667447000000.0 568866000000.0 449105000000.0 296089000000.0 60551300000.0 33042900000.0 942309000000.0 453479000000.0 98164800000.0 191841000000.0 803678000000.0 253457000000.0 53852400000.0 12097000000.0 15538600000.0 3776330000.0 6178580000.0 41005800000.0 225688000000.0 176740000000.0 246962000000.0 118137000000.0 341238000000.0 651801000000.0 34153400000.0 529206000000.0 730784000000.0 599043000000.0 657625000000.0 739471000000.0 803107000000.0 837951000000.0 737470000000.0 527939000000.0 154734000000.0 162007000000.0 505275000000.0 663202000000.0 309697000000.0 244483000000.0 260595000000.0 275410000000.0 258801000000.0 231954000000.0 193763000000.0 139302000000.0 67327400000.0 13321700000.0 18976400000.0 4776220000.0 202606000000.0 1.1171e+12 515794000000.0 472722000000.0 184095000000.0 67453200000.0 39204200000.0 145990000000.0 148049000000.0 168627000000.0 196843000000.0 227568000000.0 416256000000.0 471088000000.0 556564000000.0 809384000000.0 379274000000.0 508515000000.0 607306000000.0 739822000000.0 847512000000.0 864699000000.0 865494000000.0 856915000000.0 654782000000.0 567191000000.0 476316000000.0 438872000000.0 368579000000.0 1.16435e+12 377577000000.0 959753000000.0 477578000000.0 14654100000.0 13819100000.0 102803000000.0 275133000000.0 458446000000.0 600796000000.0 311515000000.0 143348000000.0 356061000000.0 256101000000.0 670089000000.0 384678000000.0 518495000000.0 646075000000.0 831972000000.0 809848000000.0 719742000000.0 530760000000.0 225217000000.0 78129200000.0 476781000000.0 92835900000.0 307022000000.0 216305000000.0 228050000000.0 260159000000.0 278822000000.0 285615000000.0 283981000000.0 197493000000.0 151925000000.0 95798300000.0 41890700000.0 3627880000.0 34142900000.0 61350400000.0 223446000000.0 36826100000.0 351051000000.0 241400000000.0 159581000000.0 101024000000.0 223300000000.0 107380000000.0 28839900000.0 43063900000.0 107093000000.0 136422000000.0 263418000000.0 300241000000.0 334194000000.0 360591000000.0 376245000000.0 398757000000.0 494540000000.0 676649000000.0 171445000000.0 406100000000.0 608916000000.0 739673000000.0 860648000000.0 847365000000.0 861132000000.0 843493000000.0 797514000000.0 732137000000.0 523270000000.0 452308000000.0 508462000000.0 204634000000.0 1.08452e+12 681071000000.0 57128200000.0 71964400000.0 38037200000.0 40155600000.0 441724000000.0 434525000000.0 746029000000.0 118818000000.0 567624000000.0 405003000000.0 383362000000.0 306010000000.0 445513000000.0 738964000000.0 789952000000.0 791041000000.0 727069000000.0 578119000000.0 327532000000.0 17209300000.0 362056000000.0 116168000000.0 230818000000.0 280576000000.0 279318000000.0 294125000000.0 298256000000.0 295513000000.0 287607000000.0 275031000000.0 256866000000.0 231551000000.0 4153950000.0 62036100000.0 152142000000.0 38572600000.0 88034500.0 189076000000.0 230995000000.0 222304000000.0 4364660000.0 3409510000.0 116781000000.0 75601900000.0 169624000000.0 205840000000.0 243337000000.0 281429000000.0 316025000000.0 341490000000.0 351464000000.0 341222000000.0 354428000000.0 422931000000.0 484188000000.0 20044000000.0 307329000000.0 544305000000.0 695890000000.0 807325000000.0 783889000000.0 821391000000.0 806574000000.0 758917000000.0 690658000000.0 610394000000.0 131002000000.0 600125000000.0 521104000000.0 193370000000.0 258692000000.0 49484600000.0 41825500000.0 251057000000.0 272540000000.0 326232000000.0 235532000000.0 317408000000.0 380146000000.0 235687000000.0 570957000000.0 670330000000.0 738434000000.0 762871000000.0 730525000000.0 625711000000.0 428575000000.0 150670000000.0 172195000000.0 303920000000.0 386200000000.0 393305000000.0 358401000000.0 328280000000.0 303451000000.0 280847000000.0 257457000000.0 230881000000.0 198849000000.0 158456000000.0 108448000000.0 52912000000.0 286284000000.0 145633000000.0 38438200000.0 93548000000.0 102561000000.0 68946200000.0 32408100000.0 26963100000.0 27001200000.0 82010200000.0 127409000000.0 172156000000.0 216490000000.0 259887000000.0 301202000000.0 336952000000.0 361019000000.0 366167000000.0 332421000000.0 322766000000.0 360934000000.0 291278000000.0 528440000000.0 671789000000.0 742324000000.0 726413000000.0 768435000000.0 753488000000.0 704643000000.0 630636000000.0 528469000000.0 395549000000.0 228551000000.0 579281000000.0 366903000000.0 253774000000.0 92574200000.0 38076700000.0 172370000000.0 15120500000.0 411238000000.0 130323000000.0 773003000000.0 196794000000.0 648629000000.0 558440000000.0 573736000000.0 622800000000.0 677683000000.0 714321000000.0 709938000000.0 642328000000.0 142352000000.0 235520000000.0 329670000000.0 292620000000.0 261022000000.0 230175000000.0 197190000000.0 159591000000.0 114151000000.0 59192900000.0 4855160000.0 76516300000.0 156742000000.0 56847200000.0 100162000000.0 84936600000.0 48666500000.0 6254030000.0 68684400000.0 125661000000.0 179055000000.0 230001000000.0 279158000000.0 326646000000.0 371016000000.0 67209900000.0 302732000000.0 675031000000.0 706602000000.0 686660000000.0 635928000000.0 553448000000.0 436366000000.0 284650000000.0 45198700000.0 558413000000.0 85973800000.0 176595000000.0 534889000000.0 510775000000.0 322634000000.0 56831300000.0 18964800000.0 48084800000.0 72671600000.0 307264000000.0 97890200000.0 705504000000.0 110780000000.0 203426000000.0 211849000000.0 468994000000.0 531230000000.0 582926000000.0 630649000000.0 491309000000.0 240281000000.0 144494000000.0 87315200000.0 153604000000.0 321896000000.0 501699000000.0 540505000000.0 448012000000.0 378856000000.0 194777000000.0 157204000000.0 114778000000.0 63305100000.0 3501320000.0 88972600000.0 194935000000.0 319096000000.0 445863000000.0 138500000000.0 37657500000.0 42382400000.0 16916700000.0 42929000000.0 75915100000.0 98279600000.0 128725000000.0 123015000000.0 76514000000.0 3813930000.0 67351800000.0 131422000000.0 190262000000.0 406352000000.0 426407000000.0 340103000000.0 315649000000.0 360509000000.0 189681000000.0 64657200000.0 317437000000.0 526682000000.0 643418000000.0 673271000000.0 549262000000.0 453414000000.0 320357000000.0 112391000000.0 568541000000.0 349523000000.0 439071000000.0 98213900000.0 19562700000.0 179990000000.0 321982000000.0 431403000000.0 502081000000.0 188119000000.0 366335000000.0 440658000000.0 657207000000.0 624350000000.0 507472000000.0 284158000000.0 99824400000.0 34795200000.0 289142000000.0 309903000000.0 497961000000.0 594047000000.0 500693000000.0 419535000000.0 353685000000.0 303579000000.0 264471000000.0 229715000000.0 7829490000.0 76579000000.0 192993000000.0 341545000000.0 481048000000.0 583957000000.0 127782000000.0 25011400000.0 104525000000.0 126570000000.0 98734600000.0 101364000000.0 148188000000.0 194808000000.0 169523000000.0 246063000000.0 301074000000.0 357835000000.0 418544000000.0 477389000000.0 555309000000.0 375324000000.0 401022000000.0 406821000000.0 117944000000.0 36715500000.0 331839000000.0 514578000000.0 601773000000.0 602481000000.0 625215000000.0 638729000000.0 609882000000.0 86089300000.0 434440000000.0 450769000000.0 364735000000.0 25843200000.0 292857000000.0 252023000000.0 316369000000.0 216455000000.0 125127000000.0 355009000000.0 501240000000.0 552647000000.0 573838000000.0 497349000000.0 300585000000.0 61221500000.0 88500700000.0 295232000000.0 302456000000.0 298686000000.0 532612000000.0 520129000000.0 436595000000.0 364759000000.0 306475000000.0 261657000000.0 225706000000.0 189937000000.0 151729000000.0 111175000000.0 66014700000.0 458124000000.0 588843000000.0 740432000000.0 156250000000.0 191609000000.0 214307000000.0 141335000000.0 80149800000.0 119340000000.0 83006700000.0 1370570000.0 76286100000.0 142721000000.0 203864000000.0 262415000000.0 321226000000.0 383834000000.0 451355000000.0 481912000000.0 533216000000.0 339001000000.0 510001000000.0 400767000000.0 48478400000.0 6504970000.0 335870000000.0 485444000000.0 546251000000.0 531645000000.0 571559000000.0 557141000000.0 502928000000.0 418315000000.0 297984000000.0 440819000000.0 328177000000.0 340132000000.0 296782000000.0 245486000000.0 70621000000.0 153953000000.0 150735000000.0 355669000000.0 82367800000.0 147806000000.0 272884000000.0 128662000000.0 256228000000.0 328243000000.0 393923000000.0 455430000000.0 483659000000.0 329360000000.0 195468000000.0 192314000000.0 311686000000.0 214322000000.0 502693000000.0 425144000000.0 355121000000.0 295141000000.0 247398000000.0 211822000000.0 182893000000.0 144864000000.0 101184000000.0 59448700000.0 17354300000.0 42487700000.0 144142000000.0 284885000000.0 299367000000.0 55692700000.0 101973000000.0 251709000000.0 279466000000.0 165728000000.0 66442900000.0 17848300000.0 90794200000.0 156579000000.0 217965000000.0 277034000000.0 336920000000.0 403503000000.0 490643000000.0 495741000000.0 414656000000.0 345197000000.0 438632000000.0 328917000000.0 28564700000.0 330787000000.0 443773000000.0 481602000000.0 459809000000.0 505785000000.0 447271000000.0 365915000000.0 249403000000.0 57788600000.0 297312000000.0 257013000000.0 256937000000.0 329517000000.0 25170500000.0 16711900000.0 90839700000.0 296775000000.0 223220000000.0 26155600000.0 44440000000.0 140331000000.0 202933000000.0 269203000000.0 350780000000.0 1703960000.0 271585000000.0 6783660000.0 358486000000.0 160705000000.0 143659000000.0 95500500000.0 39755500000.0 168821000.0 26183400000.0 71741300000.0 176385000000.0 288068000000.0 378083000000.0 291558000000.0 201010000000.0 30972900000.0 28734300000.0 242541000000.0 408603000000.0 243164000000.0 131311000000.0 40354400000.0 37003700000.0 106607000000.0 171544000000.0 232324000000.0 289013000000.0 90513300000.0 60053800000.0 384535000000.0 417120000000.0 318680000000.0 208730000000.0 38642300000.0 193595000000.0 235526000000.0 227224000000.0 260746000000.0 207370000000.0 182896000000.0 108082000000.0 243238000000.0 136285000000.0 221358000000.0 54963700000.0 23048600000.0 420019000000.0 107745000000.0 269989000000.0 275998000000.0 231578000000.0 218272000000.0 379525000000.0 391235000000.0 323956000000.0 266740000000.0 219675000000.0 183684000000.0 50674000000.0 80445700000.0 63294900000.0 72240100000.0 188174000000.0 173936000000.0 132963000000.0 164123000000.0 459314000000.0 100161000000.0 53164700000.0 82035100000.0 134340000000.0 484827000000.0 284314000000.0 140625000000.0 35915300000.0 342180000000.0 393166000000.0 477402000000.0 386156000000.0 373598000000.0 325063000000.0 391538000000.0 219045000000.0 117753000000.0 319864000000.0 393161000000.0 409021000000.0 212171000000.0 158172000000.0 126094000000.0 1437290000.0 77983000000.0 73072500000.0 133818000000.0 24188700000.0 108634000000.0 178385000000.0 70365000000.0 125898000000.0 189055000000.0 127076000000.0 75217400000.0 266725000000.0 463205000000.0 386747000000.0 386416000000.0 379084000000.0 273474000000.0 218825000000.0 179078000000.0 144484000000.0 119957000000.0 115028000000.0 121229000000.0 33891400000.0 292161000000.0 146579000000.0 364482000000.0 213402000000.0 197944000000.0 351389000000.0 50692200000.0 129140000000.0 203779000000.0 276653000000.0 347275000000.0 416105000000.0 484438000000.0 562534000000.0 631402000000.0 580715000000.0 479070000000.0 434566000000.0 250914000000.0 92725100000.0 130416000000.0 170956000000.0 300263000000.0 327894000000.0 323302000000.0 306621000000.0 311651000000.0 185887000000.0 31521500000.0 117161000000.0 169846000000.0 183486000000.0 94530000000.0 189128000000.0 125011000000.0 79428500000.0 81801100000.0 127642000000.0 146346000000.0 71374400000.0 14203200000.0 100557000000.0 239425000000.0 298342000000.0 442460000000.0 356834000000.0 283881000000.0 293886000000.0 350717000000.0 269478000000.0 149185000000.0 32394200000.0 104884000000.0 117972000000.0 101239000000.0 74870400000.0 59663600000.0 83476100000.0 144443000000.0 79457700000.0 170465000000.0 198268000000.0 95140600000.0 89738400000.0 258388000000.0 151674000000.0 107297000000.0 70308200000.0 116587000000.0 224757000000.0 399476000000.0 124359000000.0 12982400000.0 93817000000.0 170442000000.0 204487000000.0 209536000000.0 200361000000.0 185283000000.0 162616000000.0 127748000000.0 80468300000.0 20856800000.0 43168000000.0 89290200000.0 161580000000.0 190982000000.0 122968000000.0 43861100000.0 3995400000.0 38037900000.0 142841000000.0 208195000000.0 256754000000.0 241656000000.0 218964000000.0 201867000000.0 166635000000.0 33612500000.0 64297800000.0 117063000000.0 144320000000.0 158445000000.0 114220000000.0 32535200000.0 37964900000.0 27508300000.0 125059000000.0 145390000000.0 56457200000.0 211721000000.0 100922000000.0 87377900000.0 339651000000.0 173275000000.0 222365000000.0 352894000000.0 215528000000.0 49997700000.0 15504200000.0 141117000.0 69827900000.0 300999000000.0 229036000000.0 42312600000.0 107439000000.0 326289000000.0 546550000000.0 322509000000.0 132399000000.0 91085600000.0 50064900000.0 53570000000.0 84339700000.0 86145800000.0 77609900000.0 70691500000.0 62140000000.0 26368000000.0 65073200000.0 103588000000.0 223855000000.0 192518000000.0 162546000000.0 127014000000.0 89252100000.0 18990300000.0 30527300000.0 69353500000.0 103390000000.0 101675000000.0 77820700000.0 71297000000.0 10467400000.0 17135800000.0 28544200000.0 13321100000.0 89153300000.0 37126700000.0 44795600000.0 231607000000.0 66791800000.0 126324000000.0 90448600000.0 78668300000.0 58505000000.0 31952600000.0 37754000000.0 78015900000.0 77309900000.0 10736400000.0 224936000000.0 283763000000.0 476670000000.0 234290000000.0 417671000000.0 1867190000.0 194155000000.0 382903000000.0 120721000000.0 202584000000.0 91611500000.0 42353600000.0 17991100000.0 5326190000.0 16798500000.0 5805650000.0 10166400000.0 46514600000.0 29049300000.0 27611600000.0 27070800000.0 52333900000.0 47452900000.0 57848200000.0 10951200000.0 147146000000.0 49844700000.0 80372400000.0 6902540000.0 47926000000.0 306938000000.0 15144400000.0 153420000000.0 139564000000.0 65762300000.0 54063700000.0 103385000000.0 111097000000.0 69347200000.0 59826200000.0 81037300000.0 87240800000.0 62193000000.0 16053000000.0 42536300000.0 85765400000.0 447680000000.0 497834000000.0 246319000000.0 232763000000.0 159722000000.0 45318500000.0 295828000000.0 117286000000.0 135322000000.0 164431000000.0 17963300000.0 39277700000.0 28798400000.0 29257900000.0 44333000000.0 41932000000.0 38232000000.0 42601000000.0 63146700000.0 102238000000.0 122946000000.0 108543000000.0 90054500000.0 66258300000.0 43749300000.0 15779400000.0 20754100000.0 50763700000.0 51660700000.0 229002000000.0 158410000000.0 105355000000.0 57547700000.0 10109700000.0 1158220000.0 45913300000.0 73921700000.0 1014730000.0 7541050000.0 28315500000.0 24126500000.0 24929500000.0 100144000000.0 64601400000.0 103359000000.0 5789420000.0 63402900000.0 189689000000.0 27990800000.0 18149300000.0 74741900000.0 51820000000.0 26290100000.0 38070400000.0 160630000000.0 218202000000.0 197081000000.0 148530000000.0 119876000000.0 114674000000.0 105635000000.0 62833500000.0 9978030000.0 58831200000.0 112880000000.0 177293000000.0 160509000000.0 142139000000.0 133267000000.0 5778390000.0 267778000000.0 62772500000.0 73407500000.0 118923000000.0 173167000000.0 256949000000.0 83070400000.0 71418500000.0 61667000000.0 71025400000.0 138426000000.0 28084600000.0 29290100000.0 32916000000.0 17904300000.0 25864000000.0 35013800000.0 52341800000.0 87783600000.0 140779000000.0 200694000000.0 214570000000.0 213536000000.0 165589000000.0 134137000000.0 95079100000.0 41049400000.0 13750300000.0 16740400000.0 17657300000.0 203715000000.0 92711100000.0 71155200000.0 3940770000.0 26793600000.0 2267870000.0 43308600000.0 10101700000.0 17302900000.0 10051900000.0 12156800000.0 4291990000.0 16196100.0 18405600000.0 19972100000.0 44927800000.0 59126400000.0 103384000000.0 64106700000.0 54055800000.0 30408900000.0 121045000000.0 35515800000.0 9993850000.0 63249700000.0 87731700000.0 35600900000.0 12102200000.0 126696000000.0 133216000000.0 80697600000.0 79609700000.0 10572400000.0 71441900000.0 135275000000.0 326224000000.0 414401000000.0 329939000000.0 381745000000.0 319911000000.0 239468000000.0 192496000000.0 69540400000.0 6611270000.0 40517300000.0 33271900000.0 207322000000.0 101719000000.0 118791000000.0 27020900000.0 13720100000.0 5995370000.0 31616300000.0 68520600000.0 128072000000.0 122510000000.0 106903000000.0 96043500000.0 75611400000.0 63057600000.0 128775000000.0 42582600000.0 43154700000.0 3495280000.0 11756900000.0 26864600000.0 16886700000.0 13205000000.0 13379700000.0 17300200000.0 9035750000.0 68386100000.0 158368000000.0 167014000000.0 168041000000.0 134454000000.0 134917000000.0 230190000000.0 74206800000.0 30290700000.0 41902300000.0 118685000000.0 165979000000.0 172657000000.0 164600000000.0 140610000000.0 133096000000.0 12021400000.0 53162300000.0 71661100000.0 80833100000.0 73733600000.0 15005500000.0 24836000000.0 19718000000.0 17686400000.0 90967500000.0 509709000.0 83497800000.0 122872000000.0 141386000000.0 78829000000.0 38290600000.0 14381800000.0 75663300000.0 109031000000.0 131631000000.0 104173000000.0 105767000000.0 112111000000.0 100407000000.0 124566000000.0 46691300000.0 91711700000.0 73409700000.0 171363000000.0 297551000000.0 39174900000.0 9369510000.0 3295320000.0 19445800000.0 69042200000.0 25052100000.0 137779000000.0 28512500000.0 16841300000.0 63003100000.0 37394500000.0 94354400000.0 145948000000.0 190195000000.0 258623000000.0 250781000000.0 151724000000.0 106356000000.0 38454400000.0 1768870000.0 51186300000.0 85948700000.0 124553000000.0 126716000000.0 113762000000.0 84362700000.0 81139600000.0 85731700000.0 74281700000.0 51964600000.0 239862000.0 15853200000.0 76800700000.0 40395500000.0 56073000000.0 62731800000.0 127581000000.0 244355000000.0 204319000000.0 155665000000.0 142068000000.0 113996000000.0 78035400000.0 43077600000.0 8585060000.0 9035750000.0 9035750000.0 9101930000.0 32365600000.0 46853400000.0 63801100000.0 14900600000.0 2287340000.0 33214300000.0 53617100000.0 48090600000.0 49981200000.0 26102100000.0 2378430000.0 40011500000.0 53796600000.0 90917900000.0 85844000000.0 94811200000.0 53708200000.0 20004000000.0 41337200000.0 95093700000.0 153805000000.0 174003000000.0 271641000000.0 227651000000.0 221252000000.0 152017000000.0 18566000000.0 103064000000.0 216749000000.0 224435000000.0 282594000000.0 253403000000.0 293964000000.0 111534000000.0 170434000000.0 130541000000.0 152820000000.0 88194200000.0 70452100000.0 48408400000.0 34640300000.0 8764830000.0 184903000000.0 157245000000.0 172834000000.0 154973000000.0 150221000000.0 116503000000.0 86741200000.0 29987500000.0 17100400000.0 49109000000.0 38530800000.0 39217600000.0 58866900000.0 87996100000.0 114974000000.0 59146700000.0 43328600000.0 69054100000.0 3290210000.0 89302600000.0 93291700000.0 107086000000.0 14798100000.0 7953720000.0 29514800000.0 9831240000.0 9776510000.0 9302900000.0 9035750000.0 9035750000.0 6655750000.0 1767910000.0 3482870000.0 22495100000.0 41532600000.0 70041200000.0 46406400000.0 27437100000.0 51558500000.0 91136700000.0 4569690000.0 11862600000.0 23180100000.0 36588900000.0 22071700000.0 22894000000.0 22994000000.0 26000700000.0 35552800000.0 34660500000.0 69157700000.0 80926500000.0 100808000000.0 94372600000.0 115907000000.0 38655000000.0 53233500000.0 81341500000.0 37231300000.0 174809000000.0 18967500000.0 30704800000.0 50763400000.0 4025970000.0 23679000000.0 4883470000.0 110473000000.0 29616900000.0 17425800000.0 4851220000.0 54466400000.0 26528800000.0 72166100000.0 4496410000.0 2900280000.0 31211600000.0 23309500000.0 26342000000.0 49187600000.0 41982400000.0 46105000000.0 22439200000.0 9623850000.0 27110200000.0 65248800000.0 103595000000.0 97966100000.0 75923400000.0 55561100000.0 48524700000.0 88833500000.0 77125100000.0 35699700000.0 80969500000.0 36763200000.0 13229800000.0 14685300000.0 43597700000.0 43551600000.0 11268400000.0 24524700000.0 15045500000.0 8147190000.0 1463900000.0 5571790000.0 9035750000.0 9035750000.0 9050500000.0 43527800000.0 62577500000.0 74659200000.0 55105100000.0 38754400000.0 56492200000.0 73314400000.0 512119000.0 263540000.0 84955200.0 793566000.0 24002600000.0 31293900000.0 66758100000.0 66832100000.0 61410200000.0 68933400000.0 84949200000.0 72702500000.0 66657900000.0 42354100000.0 51849500000.0 18982300000.0 19293500000.0 9077960000.0 43011200000.0 156578000000.0 72410400000.0 56531300000.0 7091030000.0 43370000000.0 986769000.0 2286440000.0 122538000000.0 6106030000.0 40576300000.0 1507830000.0 58328600000.0 31951100000.0 98484200000.0 51451900000.0 3741960000.0 6288160000.0 25448500000.0 7174100000.0 27441400000.0 18987100000.0 38991700000.0 42029400000.0 67809300000.0 75918600000.0 72884400000.0 44524700000.0 44474900000.0 64101900000.0 81196700000.0 79365600000.0 39206300000.0 34485100000.0 54412100000.0 10962300000.0 108722000000.0 81076700000.0 72924300000.0 36098500000.0 16052700000.0 34643600000.0 12246500000.0 12691400000.0 10472100000.0 9035790000.0 9036330000.0 8756300000.0 8207710000.0 7689360000.0 44366500000.0 64040100000.0 69981700000.0 60546500000.0 49026300000.0 63986100000.0 67526000000.0 11031000000.0 10914500000.0 8904860000.0 8848220000.0 28012900000.0 39256700000.0 61322500000.0 68334400000.0 64131400000.0 89396900000.0 106642000000.0 101263000000.0 101006000000.0 81645400000.0 89708000000.0 39794300000.0 33581700000.0 65991300000.0 10148400000.0 167687000000.0 31536400000.0 23678100000.0 18939600000.0 29128800000.0 3726850000.0 12127400000.0 121052000000.0 5787580000.0 48091400000.0 17101900000.0 72178000000.0 43165800000.0 97950600000.0 52994100000.0 4568870000.0 7360580000.0 47857200000.0 36512800000.0 65099300000.0 58365300000.0 77453300000.0 74327000000.0 90115400000.0 85950300000.0 74451200000.0 44308700000.0 43008400000.0 58406800000.0 67720100000.0 57637100000.0 27175900000.0 24828100000.0 37687200000.0 14703400000.0 98872700000.0 69110800000.0 57463900000.0 42346700000.0 18906000000.0 34544500000.0 13422200000.0 13650500000.0 10706400000.0 8780510000.0 8952440000.0 9040040000.0 9036640000.0 9054650000.0 46744500000.0 65732600000.0 64177600000.0 59359700000.0 50982800000.0 62300200000.0 52295600000.0 10038800000.0 9397930000.0 6613060000.0 6270400000.0 22030600000.0 35854400000.0 46729400000.0 53595600000.0 51763600000.0 77937600000.0 91265600000.0 84699700000.0 82416000000.0 60959700000.0 63307400000.0 26329000000.0 15394500000.0 39872400000.0 10362400000.0 60455400000.0 62182300000.0 9208980000.0 49199400000.0 9089250000.0 17716500000.0 113189000000.0 9278070000.0 50167800000.0 21205500000.0 73156100000.0 44783400000.0 95979100000.0 61133400000.0 9035750000.0 10476900000.0 47731800000.0 35777600000.0 66525900000.0 59568700000.0 80675900000.0 78982000000.0 96099000000.0 94624600000.0 87612400000.0 61101000000.0 58483100000.0 69118300000.0 71980500000.0 56501300000.0 31824200000.0 28158200000.0 32699000000.0 21530800000.0 89566300000.0 60092000000.0 44645900000.0 46638500000.0 21821100000.0 34757200000.0 15620500000.0 15428900000.0 11613900000.0 9036160000.0 9040200000.0 159341000000.0 9041460000.0 9037420000.0 9079730000.0 45901300000.0 64309200000.0 57489800000.0 56573800000.0 52928400000.0 63219400000.0 43047400000.0 12827800000.0 12034400000.0 9037590000.0 9053840000.0 22753300000.0 39112100000.0 46292800000.0 52502100000.0 56463800000.0 80143900000.0 92681000000.0 87381400000.0 85858700000.0 65616000000.0 65884200000.0 42105800000.0 32691400000.0 52856400000.0 9562650000.0 151275000000.0 46662600000.0 53257600000.0 3233700000.0 44272900000.0 9182160000.0 18362800000.0 102685000000.0 9552650000.0 49487700000.0 23755600000.0 71808400000.0 43998300000.0 89460800000.0 60566200000.0 9035750000.0 10596800000.0 45553300000.0 35606600000.0 68075100000.0 61186300000.0 82760300000.0 80563100000.0 96171800000.0 93790400000.0 88086100000.0 63814600000.0 60302600000.0 66609900000.0 64604700000.0 47233100000.0 28948100000.0 26442000000.0 25760600000.0 24421600000.0 78678800000.0 51497900000.0 34775100000.0 49022200000.0 23537200000.0 33868700000.0 16789200000.0 16317100000.0 11937600000.0 9036870000.0 9041720000.0 9042590000.0 9038050000.0 9100480000.0 43923300000.0 61652400000.0 51244800000.0 62156400000.0 33930300000.0 13416200000.0 12350200000.0 9040780000.0 9068610000.0 20562600000.0 37687000000.0 44130900000.0 48797800000.0 54680000000.0 73853300000.0 84821800000.0 79663900000.0 78051800000.0 58230300000.0 56546600000.0 40935500000.0 33010500000.0 45579400000.0 3971900000.0 51642800000.0 57827000000.0 9037660000.0 45196000000.0 9263710000.0 18785800000.0 91935800000.0 47469800000.0 24843600000.0 68713700000.0 42248200000.0 82046500000.0 57320800000.0 9035750000.0 10667800000.0 42453100000.0 33827600000.0 65952600000.0 59087000000.0 80833600000.0 78542600000.0 93089900000.0 90515900000.0 86207800000.0 64271400000.0 60032000000.0 62602200000.0 57163300000.0 39817800000.0 27058300000.0 25906600000.0 21026900000.0 26135900000.0 68060700000.0 43551300000.0 26841200000.0 32738900000.0 17581200000.0 16858600000.0 12094500000.0 9037500000.0 9042920000.0 52580800000.0 52491900000.0 138601000000.0 9585170000.0 49248000000.0 24764500000.0 9043350000.0 9038540000.0 9115840000.0 41137000000.0 58009200000.0 45429500000.0 48096500000.0 50714000000.0 60359900000.0 26705400000.0 13778100000.0 12532100000.0 9043540000.0 9079460000.0 18625100000.0 35597700000.0 42435200000.0 46293600000.0 51893000000.0 67138600000.0 76667300000.0 71747000000.0 70207300000.0 51384500000.0 48582800000.0 38811800000.0 32294600000.0 42443700000.0 9071400000.0 128174000000.0 47216800000.0 53563600000.0 9040920000.0 42937900000.0 9327890000.0 18857700000.0 81200400000.0 9605950000.0 44491100000.0 24812000000.0 64321600000.0 39744700000.0 74327100000.0 52130100000.0 9035750000.0 10684200000.0 38766300000.0 31363600000.0 62006900000.0 55385300000.0 76741800000.0 74462200000.0 87778900000.0 85019900000.0 81806800000.0 62210500000.0 57460400000.0 57086500000.0 49634300000.0 33754400000.0 25767700000.0 25503200000.0 17994400000.0 26956900000.0 58242300000.0 36689300000.0 21116800000.0 47851600000.0 25238500000.0 31310400000.0 17988400000.0 17053800000.0 12098300000.0 9038000000.0 9043750000.0 9043720000.0 9038840000.0 9125260000.0 37794800000.0 53588400000.0 21204500000.0 13908900000.0 9045630000.0 41778900000.0 36028100000.0 30712000000.0 9131670000.0 42360900000.0 9043690000.0 9370260000.0 70716600000.0 40890300000.0 58997400000.0 36688400000.0 66438800000.0 45992800000.0 9035750000.0 10644900000.0 34675300000.0 28461200000.0 56791800000.0 50590600000.0 70969500000.0 68798400000.0 80796700000.0 49331300000.0 30853900000.0 17099000000.0 18012600000.0 16917300000.0 11968600000.0 9038340000.0 9044160000.0 40043300000.0 43390600000.0 47812400000.0 57560900000.0 12568700000.0 9086400000.0 16915700000.0 33021900000.0 40183200000.0 43607000000.0 48219800000.0 60206900000.0 68383900000.0 63790100000.0 62420200000.0 45061000000.0 38101700000.0 113457000000.0 48730700000.0 40432200000.0 18637300000.0 9606800000.0 23974700000.0 77991500000.0 75644000000.0 58405400000.0 53369600000.0 50891900000.0 42588700000.0 28986800000.0 24802400000.0 24751100000.0 16086000000.0 26914000000.0 45264200000.0 25056300000.0 29606600000.0 9043700000.0 9038930000.0 9128610000.0 34100700000.0 48564100000.0 35055500000.0 38605500000.0 44022200000.0 53612100000.0 17152600000.0 13809900000.0 12457600000.0 9046920000.0 9089330000.0 15412800000.0 30114100000.0 37224000000.0 40284700000.0 43890400000.0 53194000000.0 60099100000.0 55917400000.0 54761200000.0 39222300000.0 35907900000.0 32798000000.0 28511200000.0 34116900000.0 9180630000.0 99089500000.0 37399700000.0 43565400000.0 9045680000.0 37524300000.0 9388760000.0 18143800000.0 60668700000.0 9582970000.0 36896100000.0 22571500000.0 53011800000.0 33253700000.0 58475300000.0 39687800000.0 9035750000.0 10551600000.0 30456700000.0 25391100000.0 50785800000.0 45152800000.0 63984400000.0 61991600000.0 72583600000.0 69865900000.0 68189800000.0 53313000000.0 48240900000.0 44482200000.0 36210800000.0 25219400000.0 23740000000.0 23552400000.0 14871600000.0 26075300000.0 41405400000.0 25954700000.0 14307200000.0 41780300000.0 24254400000.0 27614200000.0 17666900000.0 16476400000.0 11727300000.0 9038490000.0 9044150000.0 9212330000.0 32520300000.0 9046710000.0 9382990000.0 51187200000.0 50526300000.0 9035750000.0 26359700000.0 44356600000.0 9043290000.0 9038830000.0 9125990000.0 30217200000.0 43077200000.0 30423600000.0 33829000000.0 39548100000.0 48538100000.0 14258300000.0 13491400000.0 12203900000.0 9047290000.0 9088460000.0 14096000000.0 26997900000.0 33665600000.0 36337500000.0 39086200000.0 46186800000.0 51892100000.0 48203100000.0 47271500000.0 33817400000.0 30764900000.0 29289200000.0 25900300000.0 30302400000.0 84938100000.0 38230300000.0 34150000000.0 17354900000.0 9537760000.0 32671800000.0 20793600000.0 46583600000.0 29593400000.0 33659200000.0 10408600000.0 22357200000.0 39411400000.0 56181100000.0 54420200000.0 63523200000.0 61014300000.0 59848100000.0 47325600000.0 42478600000.0 38169500000.0 30556300000.0 22146100000.0 22326600000.0 21947300000.0 14009400000.0 24541700000.0 34473800000.0 21888300000.0 12398200000.0 37620500000.0 22889100000.0 25333600000.0 16975600000.0 15767200000.0 11399500000.0 9038450000.0 9043700000.0 9042500000.0 9038550000.0 9117800000.0 26263400000.0 37240600000.0 26095800000.0 29113400000.0 34556300000.0 42495700000.0 12258300000.0 12972000000.0 11818900000.0 9046700000.0 9084110000.0 12943800000.0 23763500000.0 29648900000.0 31892400000.0 33942100000.0 39233800000.0 43802700000.0 40679700000.0 39963600000.0 28783900000.0 26172700000.0 25630900000.0 23028800000.0 26503100000.0 9223040000.0 70901100000.0 27817100000.0 32837700000.0 9046670000.0 30297000000.0 9354170000.0 16273300000.0 42337100000.0 9474640000.0 28335500000.0 18786000000.0 39881900000.0 25823500000.0 42662000000.0 28115900000.0 9035750000.0 10221300000.0 22539900000.0 19483700000.0 37764500000.0 33603600000.0 47872600000.0 46384000000.0 53923900000.0 51729200000.0 50942000000.0 40757600000.0 36391700000.0 32131300000.0 25594000000.0 19497600000.0 20503700000.0 20003900000.0 13242200000.0 22431400000.0 28467600000.0 18543400000.0 11125500000.0 32956500000.0 21031600000.0 22777800000.0 15973100000.0 14830400000.0 11012400000.0 9038230000.0 9042860000.0 9041370000.0 9038110000.0 9104720000.0 22316100000.0 31144900000.0 22015900000.0 24482700000.0 29180100000.0 35694000000.0 10927500000.0 12278000000.0 11319300000.0 9045220000.0 9076650000.0 11928800000.0 20471300000.0 25301200000.0 27080900000.0 28558700000.0 32354100000.0 35840500000.0 33347300000.0 32826700000.0 24052000000.0 21980700000.0 21910000000.0 19997600000.0 22655300000.0 9211130000.0 56947000000.0 23323900000.0 27448400000.0 9045570000.0 26003200000.0 9305590000.0 14931800000.0 34110000000.0 9394900000.0 23967200000.0 16653000000.0 33028800000.0 22021700000.0 34922100000.0 23120800000.0 9035750000.0 9996090000.0 19057200000.0 16827000000.0 31172300000.0 27871400000.0 39285500000.0 38099900000.0 44014300000.0 42221300000.0 41710400000.0 33843200000.0 30191900000.0 26444400000.0 21237400000.0 17070600000.0 18313700000.0 17794400000.0 12428300000.0 19865100000.0 23260200000.0 15796900000.0 10294100000.0 27922700000.0 18763300000.0 19973500000.0 14703200000.0 13709700000.0 10589300000.0 9037860000.0 9041660000.0 9039950000.0 9037530000.0 9087650000.0 18414500000.0 24864300000.0 18126900000.0 19938600000.0 23528000000.0 28338100000.0 10075400000.0 11442200000.0 10726100000.0 9043010000.0 9066650000.0 11019200000.0 17158900000.0 20728000000.0 22014900000.0 23010900000.0 25546500000.0 27993300000.0 26182600000.0 25834000000.0 19549500000.0 18064500000.0 18174800000.0 16872500000.0 18752200000.0 9177550000.0 43055200000.0 19030100000.0 22085500000.0 9043490000.0 21347400000.0 9240810000.0 13378700000.0 26431500000.0 9300750000.0 19612100000.0 14462600000.0 26104300000.0 18231700000.0 27314300000.0 18637600000.0 9035750000.0 9740180000.0 15897400000.0 14389600000.0 24660800000.0 22276600000.0 30567700000.0 29708600000.0 33947600000.0 32625000000.0 32313700000.0 26741700000.0 24001300000.0 21109500000.0 17365600000.0 14734200000.0 15831600000.0 15388000000.0 11524800000.0 16957900000.0 18690900000.0 13516600000.0 9754940000.0 22625900000.0 16172600000.0 16961400000.0 13217600000.0 12449800000.0 10147200000.0 9037350000.0 9040170000.0 9038320000.0 9036840000.0 9067640000.0 14567000000.0 18459800000.0 14372000000.0 15466300000.0 17690500000.0 20609400000.0 9538880000.0 10501900000.0 10063900000.0 9040260000.0 9054780000.0 10183300000.0 13845700000.0 16012800000.0 16784300000.0 17355400000.0 18796100000.0 20234300000.0 19145700000.0 18948000000.0 15206200000.0 14323900000.0 14445100000.0 13695300000.0 14808000000.0 9126650000.0 29191800000.0 14894300000.0 16753100000.0 9040650000.0 16429700000.0 9162990000.0 11669500000.0 19175700000.0 9196370000.0 15286200000.0 12253000000.0 19153600000.0 14469400000.0 19819400000.0 14561100000.0 9035750000.0 9461780000.0 12996500000.0 12133300000.0 18247300000.0 16819700000.0 21802000000.0 21286300000.0 23813200000.0 23010400000.0 22845500000.0 19550700000.0 17868900000.0 16067900000.0 13840500000.0 12416900000.0 13141100000.0 12848200000.0 10542200000.0 13816300000.0 14581500000.0 11566300000.0 9398360000.0 17152600000.0 13351600000.0 13793200000.0 11574200000.0 11093900000.0 9696480000.0 9036740000.0 9038460000.0 9036560000.0 9036100000.0 9045840000.0 10759500000.0 11983500000.0 10695300000.0 11039800000.0 11745900000.0 12665900000.0 9178680000.0 9498240000.0 9359870000.0 9037180000.0 9041780000.0 9390520000.0 10537000000.0 11220100000.0 11461900000.0 11637800000.0 12080100000.0 12527800000.0 12186000000.0 12125300000.0 10954700000.0 10678700000.0 10723700000.0 10492100000.0 10839600000.0 9064870000.0 15329200000.0 10857100000.0 11443300000.0 9037320000.0 11356000000.0 9076320000.0 9865150000.0 12181400000.0 9086300000.0 10985100000.0 10040400000.0 12195300000.0 10730300000.0 12397000000.0 10740900000.0 9035750000.0 9169810000.0 10259500000.0 9993810000.0 11906200000.0 11458600000.0 13023000000.0 12861200000.0 13652100000.0 13399100000.0 13350000000.0 12321900000.0 11789800000.0 11216500000.0 10519200000.0 10091300000.0 10327000000.0 10232000000.0 9509950000.0 10538600000.0 10745600000.0 9810240000.0 9140470000.0 11577300000.0 10393600000.0 10528200000.0 9835410000.0 9682530000.0 9242300000.0 9036060000.0 9036610000.0 